# vtk DataFile Version 1.0
Bar_TO_3D
ASCII
DATASET UNSTRUCTURED_GRID
POINTS 6348 float 
-5.0 -5.0 50.0
-5.0 5.0 50.0
-5.0 5.0 0.0
-5.0 -5.0 0.0
5.0 5.0 50.0
5.0 5.0 0.0
5.0 -5.0 0.0
5.0 -5.0 50.0
-5.0 -4.0 50.0
-5.0 -3.0 50.0
-5.0 -2.0 50.0
-5.0 -1.0 50.0
-5.0 0.0 50.0
-5.0 1.0 50.0
-5.0 2.0 50.0
-5.0 3.0 50.0
-5.0 4.0 50.0
-5.0 5.0 49.0
-5.0 5.0 48.0
-5.0 5.0 47.0
-5.0 5.0 46.0
-5.0 5.0 45.0
-5.0 5.0 44.0
-5.0 5.0 43.0
-5.0 5.0 42.0
-5.0 5.0 41.0
-5.0 5.0 40.0
-5.0 5.0 39.0
-5.0 5.0 38.0
-5.0 5.0 37.0
-5.0 5.0 36.0
-5.0 5.0 35.0
-5.0 5.0 34.0
-5.0 5.0 33.0
-5.0 5.0 32.0
-5.0 5.0 31.0
-5.0 5.0 30.0
-5.0 5.0 29.0
-5.0 5.0 28.0
-5.0 5.0 27.0
-5.0 5.0 26.0
-5.0 5.0 25.0
-5.0 5.0 24.0
-5.0 5.0 23.0
-5.0 5.0 22.0
-5.0 5.0 21.0
-5.0 5.0 20.0
-5.0 5.0 19.0
-5.0 5.0 18.0
-5.0 5.0 17.0
-5.0 5.0 16.0
-5.0 5.0 15.0
-5.0 5.0 14.0
-5.0 5.0 13.0
-5.0 5.0 12.0
-5.0 5.0 11.0
-5.0 5.0 10.0
-5.0 5.0 9.0
-5.0 5.0 8.0
-5.0 5.0 7.0
-5.0 5.0 6.0
-5.0 5.0 5.0
-5.0 5.0 4.0
-5.0 5.0 3.0
-5.0 5.0 2.0
-5.0 5.0 1.0
-5.0 4.0 0.0
-5.0 3.0 0.0
-5.0 2.0 0.0
-5.0 1.0 0.0
-5.0 0.0 0.0
-5.0 -1.0 0.0
-5.0 -2.0 0.0
-5.0 -3.0 0.0
-5.0 -4.0 0.0
-5.0 -5.0 1.0
-5.0 -5.0 2.0
-5.0 -5.0 3.0
-5.0 -5.0 4.0
-5.0 -5.0 5.0
-5.0 -5.0 6.0
-5.0 -5.0 7.0
-5.0 -5.0 8.0
-5.0 -5.0 9.0
-5.0 -5.0 10.0
-5.0 -5.0 11.0
-5.0 -5.0 12.0
-5.0 -5.0 13.0
-5.0 -5.0 14.0
-5.0 -5.0 15.0
-5.0 -5.0 16.0
-5.0 -5.0 17.0
-5.0 -5.0 18.0
-5.0 -5.0 19.0
-5.0 -5.0 20.0
-5.0 -5.0 21.0
-5.0 -5.0 22.0
-5.0 -5.0 23.0
-5.0 -5.0 24.0
-5.0 -5.0 25.0
-5.0 -5.0 26.0
-5.0 -5.0 27.0
-5.0 -5.0 28.0
-5.0 -5.0 29.0
-5.0 -5.0 30.0
-5.0 -5.0 31.0
-5.0 -5.0 32.0
-5.0 -5.0 33.0
-5.0 -5.0 34.0
-5.0 -5.0 35.0
-5.0 -5.0 36.0
-5.0 -5.0 37.0
-5.0 -5.0 38.0
-5.0 -5.0 39.0
-5.0 -5.0 40.0
-5.0 -5.0 41.0
-5.0 -5.0 42.0
-5.0 -5.0 43.0
-5.0 -5.0 44.0
-5.0 -5.0 45.0
-5.0 -5.0 46.0
-5.0 -5.0 47.0
-5.0 -5.0 48.0
-5.0 -5.0 49.0
-4.0 5.0 50.0
-3.0 5.0 50.0
-2.0 5.0 50.0
-1.0 5.0 50.0
0.0 5.0 50.0
1.0 5.0 50.0
2.0 5.0 50.0
3.0 5.0 50.0
4.0 5.0 50.0
5.0 5.0 49.0
5.0 5.0 48.0
5.0 5.0 47.0
5.0 5.0 46.0
5.0 5.0 45.0
5.0 5.0 44.0
5.0 5.0 43.0
5.0 5.0 42.0
5.0 5.0 41.0
5.0 5.0 40.0
5.0 5.0 39.0
5.0 5.0 38.0
5.0 5.0 37.0
5.0 5.0 36.0
5.0 5.0 35.0
5.0 5.0 34.0
5.0 5.0 33.0
5.0 5.0 32.0
5.0 5.0 31.0
5.0 5.0 30.0
5.0 5.0 29.0
5.0 5.0 28.0
5.0 5.0 27.0
5.0 5.0 26.0
5.0 5.0 25.0
5.0 5.0 24.0
5.0 5.0 23.0
5.0 5.0 22.0
5.0 5.0 21.0
5.0 5.0 20.0
5.0 5.0 19.0
5.0 5.0 18.0
5.0 5.0 17.0
5.0 5.0 16.0
5.0 5.0 15.0
5.0 5.0 14.0
5.0 5.0 13.0
5.0 5.0 12.0
5.0 5.0 11.0
5.0 5.0 10.0
5.0 5.0 9.0
5.0 5.0 8.0
5.0 5.0 7.0
5.0 5.0 6.0
5.0 5.0 5.0
5.0 5.0 4.0
5.0 5.0 3.0
5.0 5.0 2.0
5.0 5.0 1.0
4.0 5.0 0.0
3.0 5.0 0.0
2.0 5.0 0.0
1.0 5.0 0.0
0.0 5.0 0.0
-1.0 5.0 0.0
-2.0 5.0 0.0
-3.0 5.0 0.0
-4.0 5.0 0.0
5.0 4.0 0.0
5.0 3.0 0.0
5.0 2.0 0.0
5.0 1.0 0.0
5.0 0.0 0.0
5.0 -1.0 0.0
5.0 -2.0 0.0
5.0 -3.0 0.0
5.0 -4.0 0.0
4.0 -5.0 0.0
3.0 -5.0 0.0
2.0 -5.0 0.0
1.0 -5.0 0.0
0.0 -5.0 0.0
-1.0 -5.0 0.0
-2.0 -5.0 0.0
-3.0 -5.0 0.0
-4.0 -5.0 0.0
4.0 -5.0 50.0
3.0 -5.0 50.0
2.0 -5.0 50.0
1.0 -5.0 50.0
0.0 -5.0 50.0
-1.0 -5.0 50.0
-2.0 -5.0 50.0
-3.0 -5.0 50.0
-4.0 -5.0 50.0
5.0 -5.0 1.0
5.0 -5.0 2.0
5.0 -5.0 3.0
5.0 -5.0 4.0
5.0 -5.0 5.0
5.0 -5.0 6.0
5.0 -5.0 7.0
5.0 -5.0 8.0
5.0 -5.0 9.0
5.0 -5.0 10.0
5.0 -5.0 11.0
5.0 -5.0 12.0
5.0 -5.0 13.0
5.0 -5.0 14.0
5.0 -5.0 15.0
5.0 -5.0 16.0
5.0 -5.0 17.0
5.0 -5.0 18.0
5.0 -5.0 19.0
5.0 -5.0 20.0
5.0 -5.0 21.0
5.0 -5.0 22.0
5.0 -5.0 23.0
5.0 -5.0 24.0
5.0 -5.0 25.0
5.0 -5.0 26.0
5.0 -5.0 27.0
5.0 -5.0 28.0
5.0 -5.0 29.0
5.0 -5.0 30.0
5.0 -5.0 31.0
5.0 -5.0 32.0
5.0 -5.0 33.0
5.0 -5.0 34.0
5.0 -5.0 35.0
5.0 -5.0 36.0
5.0 -5.0 37.0
5.0 -5.0 38.0
5.0 -5.0 39.0
5.0 -5.0 40.0
5.0 -5.0 41.0
5.0 -5.0 42.0
5.0 -5.0 43.0
5.0 -5.0 44.0
5.0 -5.0 45.0
5.0 -5.0 46.0
5.0 -5.0 47.0
5.0 -5.0 48.0
5.0 -5.0 49.0
5.0 -4.0 50.0
5.0 -3.0 50.0
5.0 -2.0 50.0
5.0 -1.0 50.0
5.0 0.0 50.0
5.0 1.0 50.0
5.0 2.0 50.0
5.0 3.0 50.0
5.0 4.0 50.0
-5.0 -4.0 49.0
-5.0 -3.0 49.0
-5.0 -2.0 49.0
-5.0 -1.0 49.0
-5.0 0.0 49.0
-5.0 1.0 49.0
-5.0 2.0 49.0
-5.0 3.0 49.0
-5.0 4.0 49.0
-5.0 -4.0 48.0
-5.0 -3.0 48.0
-5.0 -2.0 48.0
-5.0 -1.0 48.0
-5.0 0.0 48.0
-5.0 1.0 48.0
-5.0 2.0 48.0
-5.0 3.0 48.0
-5.0 4.0 48.0
-5.0 -4.0 47.0
-5.0 -3.0 47.0
-5.0 -2.0 47.0
-5.0 -1.0 47.0
-5.0 0.0 47.0
-5.0 1.0 47.0
-5.0 2.0 47.0
-5.0 3.0 47.0
-5.0 4.0 47.0
-5.0 -4.0 46.0
-5.0 -3.0 46.0
-5.0 -2.0 46.0
-5.0 -1.0 46.0
-5.0 0.0 46.0
-5.0 1.0 46.0
-5.0 2.0 46.0
-5.0 3.0 46.0
-5.0 4.0 46.0
-5.0 -4.0 45.0
-5.0 -3.0 45.0
-5.0 -2.0 45.0
-5.0 -1.0 45.0
-5.0 0.0 45.0
-5.0 1.0 45.0
-5.0 2.0 45.0
-5.0 3.0 45.0
-5.0 4.0 45.0
-5.0 -4.0 44.0
-5.0 -3.0 44.0
-5.0 -2.0 44.0
-5.0 -1.0 44.0
-5.0 0.0 44.0
-5.0 1.0 44.0
-5.0 2.0 44.0
-5.0 3.0 44.0
-5.0 4.0 44.0
-5.0 -4.0 43.0
-5.0 -3.0 43.0
-5.0 -2.0 43.0
-5.0 -1.0 43.0
-5.0 0.0 43.0
-5.0 1.0 43.0
-5.0 2.0 43.0
-5.0 3.0 43.0
-5.0 4.0 43.0
-5.0 -4.0 42.0
-5.0 -3.0 42.0
-5.0 -2.0 42.0
-5.0 -1.0 42.0
-5.0 0.0 42.0
-5.0 1.0 42.0
-5.0 2.0 42.0
-5.0 3.0 42.0
-5.0 4.0 42.0
-5.0 -4.0 41.0
-5.0 -3.0 41.0
-5.0 -2.0 41.0
-5.0 -1.0 41.0
-5.0 0.0 41.0
-5.0 1.0 41.0
-5.0 2.0 41.0
-5.0 3.0 41.0
-5.0 4.0 41.0
-5.0 -4.0 40.0
-5.0 -3.0 40.0
-5.0 -2.0 40.0
-5.0 -1.0 40.0
-5.0 0.0 40.0
-5.0 1.0 40.0
-5.0 2.0 40.0
-5.0 3.0 40.0
-5.0 4.0 40.0
-5.0 -4.0 39.0
-5.0 -3.0 39.0
-5.0 -2.0 39.0
-5.0 -1.0 39.0
-5.0 0.0 39.0
-5.0 1.0 39.0
-5.0 2.0 39.0
-5.0 3.0 39.0
-5.0 4.0 39.0
-5.0 -4.0 38.0
-5.0 -3.0 38.0
-5.0 -2.0 38.0
-5.0 -1.0 38.0
-5.0 0.0 38.0
-5.0 1.0 38.0
-5.0 2.0 38.0
-5.0 3.0 38.0
-5.0 4.0 38.0
-5.0 -4.0 37.0
-5.0 -3.0 37.0
-5.0 -2.0 37.0
-5.0 -1.0 37.0
-5.0 0.0 37.0
-5.0 1.0 37.0
-5.0 2.0 37.0
-5.0 3.0 37.0
-5.0 4.0 37.0
-5.0 -4.0 36.0
-5.0 -3.0 36.0
-5.0 -2.0 36.0
-5.0 -1.0 36.0
-5.0 0.0 36.0
-5.0 1.0 36.0
-5.0 2.0 36.0
-5.0 3.0 36.0
-5.0 4.0 36.0
-5.0 -4.0 35.0
-5.0 -3.0 35.0
-5.0 -2.0 35.0
-5.0 -1.0 35.0
-5.0 0.0 35.0
-5.0 1.0 35.0
-5.0 2.0 35.0
-5.0 3.0 35.0
-5.0 4.0 35.0
-5.0 -4.0 34.0
-5.0 -3.0 34.0
-5.0 -2.0 34.0
-5.0 -1.0 34.0
-5.0 0.0 34.0
-5.0 1.0 34.0
-5.0 2.0 34.0
-5.0 3.0 34.0
-5.0 4.0 34.0
-5.0 -4.0 33.0
-5.0 -3.0 33.0
-5.0 -2.0 33.0
-5.0 -1.0 33.0
-5.0 0.0 33.0
-5.0 1.0 33.0
-5.0 2.0 33.0
-5.0 3.0 33.0
-5.0 4.0 33.0
-5.0 -4.0 32.0
-5.0 -3.0 32.0
-5.0 -2.0 32.0
-5.0 -1.0 32.0
-5.0 0.0 32.0
-5.0 1.0 32.0
-5.0 2.0 32.0
-5.0 3.0 32.0
-5.0 4.0 32.0
-5.0 -4.0 31.0
-5.0 -3.0 31.0
-5.0 -2.0 31.0
-5.0 -1.0 31.0
-5.0 0.0 31.0
-5.0 1.0 31.0
-5.0 2.0 31.0
-5.0 3.0 31.0
-5.0 4.0 31.0
-5.0 -4.0 30.0
-5.0 -3.0 30.0
-5.0 -2.0 30.0
-5.0 -1.0 30.0
-5.0 0.0 30.0
-5.0 1.0 30.0
-5.0 2.0 30.0
-5.0 3.0 30.0
-5.0 4.0 30.0
-5.0 -4.0 29.0
-5.0 -3.0 29.0
-5.0 -2.0 29.0
-5.0 -1.0 29.0
-5.0 0.0 29.0
-5.0 1.0 29.0
-5.0 2.0 29.0
-5.0 3.0 29.0
-5.0 4.0 29.0
-5.0 -4.0 28.0
-5.0 -3.0 28.0
-5.0 -2.0 28.0
-5.0 -1.0 28.0
-5.0 0.0 28.0
-5.0 1.0 28.0
-5.0 2.0 28.0
-5.0 3.0 28.0
-5.0 4.0 28.0
-5.0 -4.0 27.0
-5.0 -3.0 27.0
-5.0 -2.0 27.0
-5.0 -1.0 27.0
-5.0 0.0 27.0
-5.0 1.0 27.0
-5.0 2.0 27.0
-5.0 3.0 27.0
-5.0 4.0 27.0
-5.0 -4.0 26.0
-5.0 -3.0 26.0
-5.0 -2.0 26.0
-5.0 -1.0 26.0
-5.0 0.0 26.0
-5.0 1.0 26.0
-5.0 2.0 26.0
-5.0 3.0 26.0
-5.0 4.0 26.0
-5.0 -4.0 25.0
-5.0 -3.0 25.0
-5.0 -2.0 25.0
-5.0 -1.0 25.0
-5.0 0.0 25.0
-5.0 1.0 25.0
-5.0 2.0 25.0
-5.0 3.0 25.0
-5.0 4.0 25.0
-5.0 -4.0 24.0
-5.0 -3.0 24.0
-5.0 -2.0 24.0
-5.0 -1.0 24.0
-5.0 0.0 24.0
-5.0 1.0 24.0
-5.0 2.0 24.0
-5.0 3.0 24.0
-5.0 4.0 24.0
-5.0 -4.0 23.0
-5.0 -3.0 23.0
-5.0 -2.0 23.0
-5.0 -1.0 23.0
-5.0 0.0 23.0
-5.0 1.0 23.0
-5.0 2.0 23.0
-5.0 3.0 23.0
-5.0 4.0 23.0
-5.0 -4.0 22.0
-5.0 -3.0 22.0
-5.0 -2.0 22.0
-5.0 -1.0 22.0
-5.0 0.0 22.0
-5.0 1.0 22.0
-5.0 2.0 22.0
-5.0 3.0 22.0
-5.0 4.0 22.0
-5.0 -4.0 21.0
-5.0 -3.0 21.0
-5.0 -2.0 21.0
-5.0 -1.0 21.0
-5.0 0.0 21.0
-5.0 1.0 21.0
-5.0 2.0 21.0
-5.0 3.0 21.0
-5.0 4.0 21.0
-5.0 -4.0 20.0
-5.0 -3.0 20.0
-5.0 -2.0 20.0
-5.0 -1.0 20.0
-5.0 0.0 20.0
-5.0 1.0 20.0
-5.0 2.0 20.0
-5.0 3.0 20.0
-5.0 4.0 20.0
-5.0 -4.0 19.0
-5.0 -3.0 19.0
-5.0 -2.0 19.0
-5.0 -1.0 19.0
-5.0 0.0 19.0
-5.0 1.0 19.0
-5.0 2.0 19.0
-5.0 3.0 19.0
-5.0 4.0 19.0
-5.0 -4.0 18.0
-5.0 -3.0 18.0
-5.0 -2.0 18.0
-5.0 -1.0 18.0
-5.0 0.0 18.0
-5.0 1.0 18.0
-5.0 2.0 18.0
-5.0 3.0 18.0
-5.0 4.0 18.0
-5.0 -4.0 17.0
-5.0 -3.0 17.0
-5.0 -2.0 17.0
-5.0 -1.0 17.0
-5.0 0.0 17.0
-5.0 1.0 17.0
-5.0 2.0 17.0
-5.0 3.0 17.0
-5.0 4.0 17.0
-5.0 -4.0 16.0
-5.0 -3.0 16.0
-5.0 -2.0 16.0
-5.0 -1.0 16.0
-5.0 0.0 16.0
-5.0 1.0 16.0
-5.0 2.0 16.0
-5.0 3.0 16.0
-5.0 4.0 16.0
-5.0 -4.0 15.0
-5.0 -3.0 15.0
-5.0 -2.0 15.0
-5.0 -1.0 15.0
-5.0 0.0 15.0
-5.0 1.0 15.0
-5.0 2.0 15.0
-5.0 3.0 15.0
-5.0 4.0 15.0
-5.0 -4.0 14.0
-5.0 -3.0 14.0
-5.0 -2.0 14.0
-5.0 -1.0 14.0
-5.0 0.0 14.0
-5.0 1.0 14.0
-5.0 2.0 14.0
-5.0 3.0 14.0
-5.0 4.0 14.0
-5.0 -4.0 13.0
-5.0 -3.0 13.0
-5.0 -2.0 13.0
-5.0 -1.0 13.0
-5.0 0.0 13.0
-5.0 1.0 13.0
-5.0 2.0 13.0
-5.0 3.0 13.0
-5.0 4.0 13.0
-5.0 -4.0 12.0
-5.0 -3.0 12.0
-5.0 -2.0 12.0
-5.0 -1.0 12.0
-5.0 0.0 12.0
-5.0 1.0 12.0
-5.0 2.0 12.0
-5.0 3.0 12.0
-5.0 4.0 12.0
-5.0 -4.0 11.0
-5.0 -3.0 11.0
-5.0 -2.0 11.0
-5.0 -1.0 11.0
-5.0 0.0 11.0
-5.0 1.0 11.0
-5.0 2.0 11.0
-5.0 3.0 11.0
-5.0 4.0 11.0
-5.0 -4.0 10.0
-5.0 -3.0 10.0
-5.0 -2.0 10.0
-5.0 -1.0 10.0
-5.0 0.0 10.0
-5.0 1.0 10.0
-5.0 2.0 10.0
-5.0 3.0 10.0
-5.0 4.0 10.0
-5.0 -4.0 9.0
-5.0 -3.0 9.0
-5.0 -2.0 9.0
-5.0 -1.0 9.0
-5.0 0.0 9.0
-5.0 1.0 9.0
-5.0 2.0 9.0
-5.0 3.0 9.0
-5.0 4.0 9.0
-5.0 -4.0 8.0
-5.0 -3.0 8.0
-5.0 -2.0 8.0
-5.0 -1.0 8.0
-5.0 0.0 8.0
-5.0 1.0 8.0
-5.0 2.0 8.0
-5.0 3.0 8.0
-5.0 4.0 8.0
-5.0 -4.0 7.0
-5.0 -3.0 7.0
-5.0 -2.0 7.0
-5.0 -1.0 7.0
-5.0 0.0 7.0
-5.0 1.0 7.0
-5.0 2.0 7.0
-5.0 3.0 7.0
-5.0 4.0 7.0
-5.0 -4.0 6.0
-5.0 -3.0 6.0
-5.0 -2.0 6.0
-5.0 -1.0 6.0
-5.0 0.0 6.0
-5.0 1.0 6.0
-5.0 2.0 6.0
-5.0 3.0 6.0
-5.0 4.0 6.0
-5.0 -4.0 5.0
-5.0 -3.0 5.0
-5.0 -2.0 5.0
-5.0 -1.0 5.0
-5.0 0.0 5.0
-5.0 1.0 5.0
-5.0 2.0 5.0
-5.0 3.0 5.0
-5.0 4.0 5.0
-5.0 -4.0 4.0
-5.0 -3.0 4.0
-5.0 -2.0 4.0
-5.0 -1.0 4.0
-5.0 0.0 4.0
-5.0 1.0 4.0
-5.0 2.0 4.0
-5.0 3.0 4.0
-5.0 4.0 4.0
-5.0 -4.0 3.0
-5.0 -3.0 3.0
-5.0 -2.0 3.0
-5.0 -1.0 3.0
-5.0 0.0 3.0
-5.0 1.0 3.0
-5.0 2.0 3.0
-5.0 3.0 3.0
-5.0 4.0 3.0
-5.0 -4.0 2.0
-5.0 -3.0 2.0
-5.0 -2.0 2.0
-5.0 -1.0 2.0
-5.0 0.0 2.0
-5.0 1.0 2.0
-5.0 2.0 2.0
-5.0 3.0 2.0
-5.0 4.0 2.0
-5.0 -4.0 1.0
-5.0 -3.0 1.0
-5.0 -2.0 1.0
-5.0 -1.0 1.0
-5.0 0.0 1.0
-5.0 1.0 1.0
-5.0 2.0 1.0
-5.0 3.0 1.0
-5.0 4.0 1.0
-4.0 5.0 49.0
-3.0 5.0 49.0
-2.0 5.0 49.0
-1.0 5.0 49.0
0.0 5.0 49.0
1.0 5.0 49.0
2.0 5.0 49.0
3.0 5.0 49.0
4.0 5.0 49.0
-4.0 5.0 48.0
-3.0 5.0 48.0
-2.0 5.0 48.0
-1.0 5.0 48.0
0.0 5.0 48.0
1.0 5.0 48.0
2.0 5.0 48.0
3.0 5.0 48.0
4.0 5.0 48.0
-4.0 5.0 47.0
-3.0 5.0 47.0
-2.0 5.0 47.0
-1.0 5.0 47.0
0.0 5.0 47.0
1.0 5.0 47.0
2.0 5.0 47.0
3.0 5.0 47.0
4.0 5.0 47.0
-4.0 5.0 46.0
-3.0 5.0 46.0
-2.0 5.0 46.0
-1.0 5.0 46.0
0.0 5.0 46.0
1.0 5.0 46.0
2.0 5.0 46.0
3.0 5.0 46.0
4.0 5.0 46.0
-4.0 5.0 45.0
-3.0 5.0 45.0
-2.0 5.0 45.0
-1.0 5.0 45.0
0.0 5.0 45.0
1.0 5.0 45.0
2.0 5.0 45.0
3.0 5.0 45.0
4.0 5.0 45.0
-4.0 5.0 44.0
-3.0 5.0 44.0
-2.0 5.0 44.0
-1.0 5.0 44.0
0.0 5.0 44.0
1.0 5.0 44.0
2.0 5.0 44.0
3.0 5.0 44.0
4.0 5.0 44.0
-4.0 5.0 43.0
-3.0 5.0 43.0
-2.0 5.0 43.0
-1.0 5.0 43.0
0.0 5.0 43.0
1.0 5.0 43.0
2.0 5.0 43.0
3.0 5.0 43.0
4.0 5.0 43.0
-4.0 5.0 42.0
-3.0 5.0 42.0
-2.0 5.0 42.0
-1.0 5.0 42.0
0.0 5.0 42.0
1.0 5.0 42.0
2.0 5.0 42.0
3.0 5.0 42.0
4.0 5.0 42.0
-4.0 5.0 41.0
-3.0 5.0 41.0
-2.0 5.0 41.0
-1.0 5.0 41.0
0.0 5.0 41.0
1.0 5.0 41.0
2.0 5.0 41.0
3.0 5.0 41.0
4.0 5.0 41.0
-4.0 5.0 40.0
-3.0 5.0 40.0
-2.0 5.0 40.0
-1.0 5.0 40.0
0.0 5.0 40.0
1.0 5.0 40.0
2.0 5.0 40.0
3.0 5.0 40.0
4.0 5.0 40.0
-4.0 5.0 39.0
-3.0 5.0 39.0
-2.0 5.0 39.0
-1.0 5.0 39.0
0.0 5.0 39.0
1.0 5.0 39.0
2.0 5.0 39.0
3.0 5.0 39.0
4.0 5.0 39.0
-4.0 5.0 38.0
-3.0 5.0 38.0
-2.0 5.0 38.0
-1.0 5.0 38.0
0.0 5.0 38.0
1.0 5.0 38.0
2.0 5.0 38.0
3.0 5.0 38.0
4.0 5.0 38.0
-4.0 5.0 37.0
-3.0 5.0 37.0
-2.0 5.0 37.0
-1.0 5.0 37.0
0.0 5.0 37.0
1.0 5.0 37.0
2.0 5.0 37.0
3.0 5.0 37.0
4.0 5.0 37.0
-4.0 5.0 36.0
-3.0 5.0 36.0
-2.0 5.0 36.0
-1.0 5.0 36.0
0.0 5.0 36.0
1.0 5.0 36.0
2.0 5.0 36.0
3.0 5.0 36.0
4.0 5.0 36.0
-4.0 5.0 35.0
-3.0 5.0 35.0
-2.0 5.0 35.0
-1.0 5.0 35.0
0.0 5.0 35.0
1.0 5.0 35.0
2.0 5.0 35.0
3.0 5.0 35.0
4.0 5.0 35.0
-4.0 5.0 34.0
-3.0 5.0 34.0
-2.0 5.0 34.0
-1.0 5.0 34.0
0.0 5.0 34.0
1.0 5.0 34.0
2.0 5.0 34.0
3.0 5.0 34.0
4.0 5.0 34.0
-4.0 5.0 33.0
-3.0 5.0 33.0
-2.0 5.0 33.0
-1.0 5.0 33.0
0.0 5.0 33.0
1.0 5.0 33.0
2.0 5.0 33.0
3.0 5.0 33.0
4.0 5.0 33.0
-4.0 5.0 32.0
-3.0 5.0 32.0
-2.0 5.0 32.0
-1.0 5.0 32.0
0.0 5.0 32.0
1.0 5.0 32.0
2.0 5.0 32.0
3.0 5.0 32.0
4.0 5.0 32.0
-4.0 5.0 31.0
-3.0 5.0 31.0
-2.0 5.0 31.0
-1.0 5.0 31.0
0.0 5.0 31.0
1.0 5.0 31.0
2.0 5.0 31.0
3.0 5.0 31.0
4.0 5.0 31.0
-4.0 5.0 30.0
-3.0 5.0 30.0
-2.0 5.0 30.0
-1.0 5.0 30.0
0.0 5.0 30.0
1.0 5.0 30.0
2.0 5.0 30.0
3.0 5.0 30.0
4.0 5.0 30.0
-4.0 5.0 29.0
-3.0 5.0 29.0
-2.0 5.0 29.0
-1.0 5.0 29.0
0.0 5.0 29.0
1.0 5.0 29.0
2.0 5.0 29.0
3.0 5.0 29.0
4.0 5.0 29.0
-4.0 5.0 28.0
-3.0 5.0 28.0
-2.0 5.0 28.0
-1.0 5.0 28.0
0.0 5.0 28.0
1.0 5.0 28.0
2.0 5.0 28.0
3.0 5.0 28.0
4.0 5.0 28.0
-4.0 5.0 27.0
-3.0 5.0 27.0
-2.0 5.0 27.0
-1.0 5.0 27.0
0.0 5.0 27.0
1.0 5.0 27.0
2.0 5.0 27.0
3.0 5.0 27.0
4.0 5.0 27.0
-4.0 5.0 26.0
-3.0 5.0 26.0
-2.0 5.0 26.0
-1.0 5.0 26.0
0.0 5.0 26.0
1.0 5.0 26.0
2.0 5.0 26.0
3.0 5.0 26.0
4.0 5.0 26.0
-4.0 5.0 25.0
-3.0 5.0 25.0
-2.0 5.0 25.0
-1.0 5.0 25.0
0.0 5.0 25.0
1.0 5.0 25.0
2.0 5.0 25.0
3.0 5.0 25.0
4.0 5.0 25.0
-4.0 5.0 24.0
-3.0 5.0 24.0
-2.0 5.0 24.0
-1.0 5.0 24.0
0.0 5.0 24.0
1.0 5.0 24.0
2.0 5.0 24.0
3.0 5.0 24.0
4.0 5.0 24.0
-4.0 5.0 23.0
-3.0 5.0 23.0
-2.0 5.0 23.0
-1.0 5.0 23.0
0.0 5.0 23.0
1.0 5.0 23.0
2.0 5.0 23.0
3.0 5.0 23.0
4.0 5.0 23.0
-4.0 5.0 22.0
-3.0 5.0 22.0
-2.0 5.0 22.0
-1.0 5.0 22.0
0.0 5.0 22.0
1.0 5.0 22.0
2.0 5.0 22.0
3.0 5.0 22.0
4.0 5.0 22.0
-4.0 5.0 21.0
-3.0 5.0 21.0
-2.0 5.0 21.0
-1.0 5.0 21.0
0.0 5.0 21.0
1.0 5.0 21.0
2.0 5.0 21.0
3.0 5.0 21.0
4.0 5.0 21.0
-4.0 5.0 20.0
-3.0 5.0 20.0
-2.0 5.0 20.0
-1.0 5.0 20.0
0.0 5.0 20.0
1.0 5.0 20.0
2.0 5.0 20.0
3.0 5.0 20.0
4.0 5.0 20.0
-4.0 5.0 19.0
-3.0 5.0 19.0
-2.0 5.0 19.0
-1.0 5.0 19.0
0.0 5.0 19.0
1.0 5.0 19.0
2.0 5.0 19.0
3.0 5.0 19.0
4.0 5.0 19.0
-4.0 5.0 18.0
-3.0 5.0 18.0
-2.0 5.0 18.0
-1.0 5.0 18.0
0.0 5.0 18.0
1.0 5.0 18.0
2.0 5.0 18.0
3.0 5.0 18.0
4.0 5.0 18.0
-4.0 5.0 17.0
-3.0 5.0 17.0
-2.0 5.0 17.0
-1.0 5.0 17.0
0.0 5.0 17.0
1.0 5.0 17.0
2.0 5.0 17.0
3.0 5.0 17.0
4.0 5.0 17.0
-4.0 5.0 16.0
-3.0 5.0 16.0
-2.0 5.0 16.0
-1.0 5.0 16.0
0.0 5.0 16.0
1.0 5.0 16.0
2.0 5.0 16.0
3.0 5.0 16.0
4.0 5.0 16.0
-4.0 5.0 15.0
-3.0 5.0 15.0
-2.0 5.0 15.0
-1.0 5.0 15.0
0.0 5.0 15.0
1.0 5.0 15.0
2.0 5.0 15.0
3.0 5.0 15.0
4.0 5.0 15.0
-4.0 5.0 14.0
-3.0 5.0 14.0
-2.0 5.0 14.0
-1.0 5.0 14.0
0.0 5.0 14.0
1.0 5.0 14.0
2.0 5.0 14.0
3.0 5.0 14.0
4.0 5.0 14.0
-4.0 5.0 13.0
-3.0 5.0 13.0
-2.0 5.0 13.0
-1.0 5.0 13.0
0.0 5.0 13.0
1.0 5.0 13.0
2.0 5.0 13.0
3.0 5.0 13.0
4.0 5.0 13.0
-4.0 5.0 12.0
-3.0 5.0 12.0
-2.0 5.0 12.0
-1.0 5.0 12.0
0.0 5.0 12.0
1.0 5.0 12.0
2.0 5.0 12.0
3.0 5.0 12.0
4.0 5.0 12.0
-4.0 5.0 11.0
-3.0 5.0 11.0
-2.0 5.0 11.0
-1.0 5.0 11.0
0.0 5.0 11.0
1.0 5.0 11.0
2.0 5.0 11.0
3.0 5.0 11.0
4.0 5.0 11.0
-4.0 5.0 10.0
-3.0 5.0 10.0
-2.0 5.0 10.0
-1.0 5.0 10.0
0.0 5.0 10.0
1.0 5.0 10.0
2.0 5.0 10.0
3.0 5.0 10.0
4.0 5.0 10.0
-4.0 5.0 9.0
-3.0 5.0 9.0
-2.0 5.0 9.0
-1.0 5.0 9.0
0.0 5.0 9.0
1.0 5.0 9.0
2.0 5.0 9.0
3.0 5.0 9.0
4.0 5.0 9.0
-4.0 5.0 8.0
-3.0 5.0 8.0
-2.0 5.0 8.0
-1.0 5.0 8.0
0.0 5.0 8.0
1.0 5.0 8.0
2.0 5.0 8.0
3.0 5.0 8.0
4.0 5.0 8.0
-4.0 5.0 7.0
-3.0 5.0 7.0
-2.0 5.0 7.0
-1.0 5.0 7.0
0.0 5.0 7.0
1.0 5.0 7.0
2.0 5.0 7.0
3.0 5.0 7.0
4.0 5.0 7.0
-4.0 5.0 6.0
-3.0 5.0 6.0
-2.0 5.0 6.0
-1.0 5.0 6.0
0.0 5.0 6.0
1.0 5.0 6.0
2.0 5.0 6.0
3.0 5.0 6.0
4.0 5.0 6.0
-4.0 5.0 5.0
-3.0 5.0 5.0
-2.0 5.0 5.0
-1.0 5.0 5.0
0.0 5.0 5.0
1.0 5.0 5.0
2.0 5.0 5.0
3.0 5.0 5.0
4.0 5.0 5.0
-4.0 5.0 4.0
-3.0 5.0 4.0
-2.0 5.0 4.0
-1.0 5.0 4.0
0.0 5.0 4.0
1.0 5.0 4.0
2.0 5.0 4.0
3.0 5.0 4.0
4.0 5.0 4.0
-4.0 5.0 3.0
-3.0 5.0 3.0
-2.0 5.0 3.0
-1.0 5.0 3.0
0.0 5.0 3.0
1.0 5.0 3.0
2.0 5.0 3.0
3.0 5.0 3.0
4.0 5.0 3.0
-4.0 5.0 2.0
-3.0 5.0 2.0
-2.0 5.0 2.0
-1.0 5.0 2.0
0.0 5.0 2.0
1.0 5.0 2.0
2.0 5.0 2.0
3.0 5.0 2.0
4.0 5.0 2.0
-4.0 5.0 1.0
-3.0 5.0 1.0
-2.0 5.0 1.0
-1.0 5.0 1.0
0.0 5.0 1.0
1.0 5.0 1.0
2.0 5.0 1.0
3.0 5.0 1.0
4.0 5.0 1.0
-4.0 4.0 0.0
-3.0 4.0 0.0
-2.0 4.0 0.0
-1.0 4.0 0.0
0.0 4.0 0.0
1.0 4.0 0.0
2.0 4.0 0.0
3.0 4.0 0.0
4.0 4.0 0.0
-4.0 3.0 0.0
-3.0 3.0 0.0
-2.0 3.0 0.0
-1.0 3.0 0.0
0.0 3.0 0.0
1.0 3.0 0.0
2.0 3.0 0.0
3.0 3.0 0.0
4.0 3.0 0.0
-4.0 2.0 0.0
-3.0 2.0 0.0
-2.0 2.0 0.0
-1.0 2.0 0.0
0.0 2.0 0.0
1.0 2.0 0.0
2.0 2.0 0.0
3.0 2.0 0.0
4.0 2.0 0.0
-4.0 1.0 0.0
-3.0 1.0 0.0
-2.0 1.0 0.0
-1.0 1.0 0.0
0.0 1.0 0.0
1.0 1.0 0.0
2.0 1.0 0.0
3.0 1.0 0.0
4.0 1.0 0.0
-4.0 0.0 0.0
-3.0 0.0 0.0
-2.0 0.0 0.0
-1.0 0.0 0.0
0.0 0.0 0.0
1.0 0.0 0.0
2.0 0.0 0.0
3.0 0.0 0.0
4.0 0.0 0.0
-4.0 -1.0 0.0
-3.0 -1.0 0.0
-2.0 -1.0 0.0
-1.0 -1.0 0.0
0.0 -1.0 0.0
1.0 -1.0 0.0
2.0 -1.0 0.0
3.0 -1.0 0.0
4.0 -1.0 0.0
-4.0 -2.0 0.0
-3.0 -2.0 0.0
-2.0 -2.0 0.0
-1.0 -2.0 0.0
0.0 -2.0 0.0
1.0 -2.0 0.0
2.0 -2.0 0.0
3.0 -2.0 0.0
4.0 -2.0 0.0
-4.0 -3.0 0.0
-3.0 -3.0 0.0
-2.0 -3.0 0.0
-1.0 -3.0 0.0
0.0 -3.0 0.0
1.0 -3.0 0.0
2.0 -3.0 0.0
3.0 -3.0 0.0
4.0 -3.0 0.0
-4.0 -4.0 0.0
-3.0 -4.0 0.0
-2.0 -4.0 0.0
-1.0 -4.0 0.0
0.0 -4.0 0.0
1.0 -4.0 0.0
2.0 -4.0 0.0
3.0 -4.0 0.0
4.0 -4.0 0.0
4.0 -5.0 49.0
3.0 -5.0 49.0
2.0 -5.0 49.0
1.0 -5.0 49.0
0.0 -5.0 49.0
-1.0 -5.0 49.0
-2.0 -5.0 49.0
-3.0 -5.0 49.0
-4.0 -5.0 49.0
4.0 -5.0 48.0
3.0 -5.0 48.0
2.0 -5.0 48.0
1.0 -5.0 48.0
0.0 -5.0 48.0
-1.0 -5.0 48.0
-2.0 -5.0 48.0
-3.0 -5.0 48.0
-4.0 -5.0 48.0
4.0 -5.0 47.0
3.0 -5.0 47.0
2.0 -5.0 47.0
1.0 -5.0 47.0
0.0 -5.0 47.0
-1.0 -5.0 47.0
-2.0 -5.0 47.0
-3.0 -5.0 47.0
-4.0 -5.0 47.0
4.0 -5.0 46.0
3.0 -5.0 46.0
2.0 -5.0 46.0
1.0 -5.0 46.0
0.0 -5.0 46.0
-1.0 -5.0 46.0
-2.0 -5.0 46.0
-3.0 -5.0 46.0
-4.0 -5.0 46.0
4.0 -5.0 45.0
3.0 -5.0 45.0
2.0 -5.0 45.0
1.0 -5.0 45.0
0.0 -5.0 45.0
-1.0 -5.0 45.0
-2.0 -5.0 45.0
-3.0 -5.0 45.0
-4.0 -5.0 45.0
4.0 -5.0 44.0
3.0 -5.0 44.0
2.0 -5.0 44.0
1.0 -5.0 44.0
0.0 -5.0 44.0
-1.0 -5.0 44.0
-2.0 -5.0 44.0
-3.0 -5.0 44.0
-4.0 -5.0 44.0
4.0 -5.0 43.0
3.0 -5.0 43.0
2.0 -5.0 43.0
1.0 -5.0 43.0
0.0 -5.0 43.0
-1.0 -5.0 43.0
-2.0 -5.0 43.0
-3.0 -5.0 43.0
-4.0 -5.0 43.0
4.0 -5.0 42.0
3.0 -5.0 42.0
2.0 -5.0 42.0
1.0 -5.0 42.0
0.0 -5.0 42.0
-1.0 -5.0 42.0
-2.0 -5.0 42.0
-3.0 -5.0 42.0
-4.0 -5.0 42.0
4.0 -5.0 41.0
3.0 -5.0 41.0
2.0 -5.0 41.0
1.0 -5.0 41.0
0.0 -5.0 41.0
-1.0 -5.0 41.0
-2.0 -5.0 41.0
-3.0 -5.0 41.0
-4.0 -5.0 41.0
4.0 -5.0 40.0
3.0 -5.0 40.0
2.0 -5.0 40.0
1.0 -5.0 40.0
0.0 -5.0 40.0
-1.0 -5.0 40.0
-2.0 -5.0 40.0
-3.0 -5.0 40.0
-4.0 -5.0 40.0
4.0 -5.0 39.0
3.0 -5.0 39.0
2.0 -5.0 39.0
1.0 -5.0 39.0
0.0 -5.0 39.0
-1.0 -5.0 39.0
-2.0 -5.0 39.0
-3.0 -5.0 39.0
-4.0 -5.0 39.0
4.0 -5.0 38.0
3.0 -5.0 38.0
2.0 -5.0 38.0
1.0 -5.0 38.0
0.0 -5.0 38.0
-1.0 -5.0 38.0
-2.0 -5.0 38.0
-3.0 -5.0 38.0
-4.0 -5.0 38.0
4.0 -5.0 37.0
3.0 -5.0 37.0
2.0 -5.0 37.0
1.0 -5.0 37.0
0.0 -5.0 37.0
-1.0 -5.0 37.0
-2.0 -5.0 37.0
-3.0 -5.0 37.0
-4.0 -5.0 37.0
4.0 -5.0 36.0
3.0 -5.0 36.0
2.0 -5.0 36.0
1.0 -5.0 36.0
0.0 -5.0 36.0
-1.0 -5.0 36.0
-2.0 -5.0 36.0
-3.0 -5.0 36.0
-4.0 -5.0 36.0
4.0 -5.0 35.0
3.0 -5.0 35.0
2.0 -5.0 35.0
1.0 -5.0 35.0
0.0 -5.0 35.0
-1.0 -5.0 35.0
-2.0 -5.0 35.0
-3.0 -5.0 35.0
-4.0 -5.0 35.0
4.0 -5.0 34.0
3.0 -5.0 34.0
2.0 -5.0 34.0
1.0 -5.0 34.0
0.0 -5.0 34.0
-1.0 -5.0 34.0
-2.0 -5.0 34.0
-3.0 -5.0 34.0
-4.0 -5.0 34.0
4.0 -5.0 33.0
3.0 -5.0 33.0
2.0 -5.0 33.0
1.0 -5.0 33.0
0.0 -5.0 33.0
-1.0 -5.0 33.0
-2.0 -5.0 33.0
-3.0 -5.0 33.0
-4.0 -5.0 33.0
4.0 -5.0 32.0
3.0 -5.0 32.0
2.0 -5.0 32.0
1.0 -5.0 32.0
0.0 -5.0 32.0
-1.0 -5.0 32.0
-2.0 -5.0 32.0
-3.0 -5.0 32.0
-4.0 -5.0 32.0
4.0 -5.0 31.0
3.0 -5.0 31.0
2.0 -5.0 31.0
1.0 -5.0 31.0
0.0 -5.0 31.0
-1.0 -5.0 31.0
-2.0 -5.0 31.0
-3.0 -5.0 31.0
-4.0 -5.0 31.0
4.0 -5.0 30.0
3.0 -5.0 30.0
2.0 -5.0 30.0
1.0 -5.0 30.0
0.0 -5.0 30.0
-1.0 -5.0 30.0
-2.0 -5.0 30.0
-3.0 -5.0 30.0
-4.0 -5.0 30.0
4.0 -5.0 29.0
3.0 -5.0 29.0
2.0 -5.0 29.0
1.0 -5.0 29.0
0.0 -5.0 29.0
-1.0 -5.0 29.0
-2.0 -5.0 29.0
-3.0 -5.0 29.0
-4.0 -5.0 29.0
4.0 -5.0 28.0
3.0 -5.0 28.0
2.0 -5.0 28.0
1.0 -5.0 28.0
0.0 -5.0 28.0
-1.0 -5.0 28.0
-2.0 -5.0 28.0
-3.0 -5.0 28.0
-4.0 -5.0 28.0
4.0 -5.0 27.0
3.0 -5.0 27.0
2.0 -5.0 27.0
1.0 -5.0 27.0
0.0 -5.0 27.0
-1.0 -5.0 27.0
-2.0 -5.0 27.0
-3.0 -5.0 27.0
-4.0 -5.0 27.0
4.0 -5.0 26.0
3.0 -5.0 26.0
2.0 -5.0 26.0
1.0 -5.0 26.0
0.0 -5.0 26.0
-1.0 -5.0 26.0
-2.0 -5.0 26.0
-3.0 -5.0 26.0
-4.0 -5.0 26.0
4.0 -5.0 25.0
3.0 -5.0 25.0
2.0 -5.0 25.0
1.0 -5.0 25.0
0.0 -5.0 25.0
-1.0 -5.0 25.0
-2.0 -5.0 25.0
-3.0 -5.0 25.0
-4.0 -5.0 25.0
4.0 -5.0 24.0
3.0 -5.0 24.0
2.0 -5.0 24.0
1.0 -5.0 24.0
0.0 -5.0 24.0
-1.0 -5.0 24.0
-2.0 -5.0 24.0
-3.0 -5.0 24.0
-4.0 -5.0 24.0
4.0 -5.0 23.0
3.0 -5.0 23.0
2.0 -5.0 23.0
1.0 -5.0 23.0
0.0 -5.0 23.0
-1.0 -5.0 23.0
-2.0 -5.0 23.0
-3.0 -5.0 23.0
-4.0 -5.0 23.0
4.0 -5.0 22.0
3.0 -5.0 22.0
2.0 -5.0 22.0
1.0 -5.0 22.0
0.0 -5.0 22.0
-1.0 -5.0 22.0
-2.0 -5.0 22.0
-3.0 -5.0 22.0
-4.0 -5.0 22.0
4.0 -5.0 21.0
3.0 -5.0 21.0
2.0 -5.0 21.0
1.0 -5.0 21.0
0.0 -5.0 21.0
-1.0 -5.0 21.0
-2.0 -5.0 21.0
-3.0 -5.0 21.0
-4.0 -5.0 21.0
4.0 -5.0 20.0
3.0 -5.0 20.0
2.0 -5.0 20.0
1.0 -5.0 20.0
0.0 -5.0 20.0
-1.0 -5.0 20.0
-2.0 -5.0 20.0
-3.0 -5.0 20.0
-4.0 -5.0 20.0
4.0 -5.0 19.0
3.0 -5.0 19.0
2.0 -5.0 19.0
1.0 -5.0 19.0
0.0 -5.0 19.0
-1.0 -5.0 19.0
-2.0 -5.0 19.0
-3.0 -5.0 19.0
-4.0 -5.0 19.0
4.0 -5.0 18.0
3.0 -5.0 18.0
2.0 -5.0 18.0
1.0 -5.0 18.0
0.0 -5.0 18.0
-1.0 -5.0 18.0
-2.0 -5.0 18.0
-3.0 -5.0 18.0
-4.0 -5.0 18.0
4.0 -5.0 17.0
3.0 -5.0 17.0
2.0 -5.0 17.0
1.0 -5.0 17.0
0.0 -5.0 17.0
-1.0 -5.0 17.0
-2.0 -5.0 17.0
-3.0 -5.0 17.0
-4.0 -5.0 17.0
4.0 -5.0 16.0
3.0 -5.0 16.0
2.0 -5.0 16.0
1.0 -5.0 16.0
0.0 -5.0 16.0
-1.0 -5.0 16.0
-2.0 -5.0 16.0
-3.0 -5.0 16.0
-4.0 -5.0 16.0
4.0 -5.0 15.0
3.0 -5.0 15.0
2.0 -5.0 15.0
1.0 -5.0 15.0
0.0 -5.0 15.0
-1.0 -5.0 15.0
-2.0 -5.0 15.0
-3.0 -5.0 15.0
-4.0 -5.0 15.0
4.0 -5.0 14.0
3.0 -5.0 14.0
2.0 -5.0 14.0
1.0 -5.0 14.0
0.0 -5.0 14.0
-1.0 -5.0 14.0
-2.0 -5.0 14.0
-3.0 -5.0 14.0
-4.0 -5.0 14.0
4.0 -5.0 13.0
3.0 -5.0 13.0
2.0 -5.0 13.0
1.0 -5.0 13.0
0.0 -5.0 13.0
-1.0 -5.0 13.0
-2.0 -5.0 13.0
-3.0 -5.0 13.0
-4.0 -5.0 13.0
4.0 -5.0 12.0
3.0 -5.0 12.0
2.0 -5.0 12.0
1.0 -5.0 12.0
0.0 -5.0 12.0
-1.0 -5.0 12.0
-2.0 -5.0 12.0
-3.0 -5.0 12.0
-4.0 -5.0 12.0
4.0 -5.0 11.0
3.0 -5.0 11.0
2.0 -5.0 11.0
1.0 -5.0 11.0
0.0 -5.0 11.0
-1.0 -5.0 11.0
-2.0 -5.0 11.0
-3.0 -5.0 11.0
-4.0 -5.0 11.0
4.0 -5.0 10.0
3.0 -5.0 10.0
2.0 -5.0 10.0
1.0 -5.0 10.0
0.0 -5.0 10.0
-1.0 -5.0 10.0
-2.0 -5.0 10.0
-3.0 -5.0 10.0
-4.0 -5.0 10.0
4.0 -5.0 9.0
3.0 -5.0 9.0
2.0 -5.0 9.0
1.0 -5.0 9.0
0.0 -5.0 9.0
-1.0 -5.0 9.0
-2.0 -5.0 9.0
-3.0 -5.0 9.0
-4.0 -5.0 9.0
4.0 -5.0 8.0
3.0 -5.0 8.0
2.0 -5.0 8.0
1.0 -5.0 8.0
0.0 -5.0 8.0
-1.0 -5.0 8.0
-2.0 -5.0 8.0
-3.0 -5.0 8.0
-4.0 -5.0 8.0
4.0 -5.0 7.0
3.0 -5.0 7.0
2.0 -5.0 7.0
1.0 -5.0 7.0
0.0 -5.0 7.0
-1.0 -5.0 7.0
-2.0 -5.0 7.0
-3.0 -5.0 7.0
-4.0 -5.0 7.0
4.0 -5.0 6.0
3.0 -5.0 6.0
2.0 -5.0 6.0
1.0 -5.0 6.0
0.0 -5.0 6.0
-1.0 -5.0 6.0
-2.0 -5.0 6.0
-3.0 -5.0 6.0
-4.0 -5.0 6.0
4.0 -5.0 5.0
3.0 -5.0 5.0
2.0 -5.0 5.0
1.0 -5.0 5.0
0.0 -5.0 5.0
-1.0 -5.0 5.0
-2.0 -5.0 5.0
-3.0 -5.0 5.0
-4.0 -5.0 5.0
4.0 -5.0 4.0
3.0 -5.0 4.0
2.0 -5.0 4.0
1.0 -5.0 4.0
0.0 -5.0 4.0
-1.0 -5.0 4.0
-2.0 -5.0 4.0
-3.0 -5.0 4.0
-4.0 -5.0 4.0
4.0 -5.0 3.0
3.0 -5.0 3.0
2.0 -5.0 3.0
1.0 -5.0 3.0
0.0 -5.0 3.0
-1.0 -5.0 3.0
-2.0 -5.0 3.0
-3.0 -5.0 3.0
-4.0 -5.0 3.0
4.0 -5.0 2.0
3.0 -5.0 2.0
2.0 -5.0 2.0
1.0 -5.0 2.0
0.0 -5.0 2.0
-1.0 -5.0 2.0
-2.0 -5.0 2.0
-3.0 -5.0 2.0
-4.0 -5.0 2.0
4.0 -5.0 1.0
3.0 -5.0 1.0
2.0 -5.0 1.0
1.0 -5.0 1.0
0.0 -5.0 1.0
-1.0 -5.0 1.0
-2.0 -5.0 1.0
-3.0 -5.0 1.0
-4.0 -5.0 1.0
4.0 -4.0 50.0
4.0 -3.0 50.0
4.0 -2.0 50.0
4.0 -1.0 50.0
4.0 0.0 50.0
4.0 1.0 50.0
4.0 2.0 50.0
4.0 3.0 50.0
4.0 4.0 50.0
3.0 -4.0 50.0
3.0 -3.0 50.0
3.0 -2.0 50.0
3.0 -1.0 50.0
3.0 0.0 50.0
3.0 1.0 50.0
3.0 2.0 50.0
3.0 3.0 50.0
3.0 4.0 50.0
2.0 -4.0 50.0
2.0 -3.0 50.0
2.0 -2.0 50.0
2.0 -1.0 50.0
2.0 0.0 50.0
2.0 1.0 50.0
2.0 2.0 50.0
2.0 3.0 50.0
2.0 4.0 50.0
1.0 -4.0 50.0
1.0 -3.0 50.0
1.0 -2.0 50.0
1.0 -1.0 50.0
1.0 0.0 50.0
1.0 1.0 50.0
1.0 2.0 50.0
1.0 3.0 50.0
1.0 4.0 50.0
0.0 -4.0 50.0
0.0 -3.0 50.0
0.0 -2.0 50.0
0.0 -1.0 50.0
0.0 0.0 50.0
0.0 1.0 50.0
0.0 2.0 50.0
0.0 3.0 50.0
0.0 4.0 50.0
-1.0 -4.0 50.0
-1.0 -3.0 50.0
-1.0 -2.0 50.0
-1.0 -1.0 50.0
-1.0 0.0 50.0
-1.0 1.0 50.0
-1.0 2.0 50.0
-1.0 3.0 50.0
-1.0 4.0 50.0
-2.0 -4.0 50.0
-2.0 -3.0 50.0
-2.0 -2.0 50.0
-2.0 -1.0 50.0
-2.0 0.0 50.0
-2.0 1.0 50.0
-2.0 2.0 50.0
-2.0 3.0 50.0
-2.0 4.0 50.0
-3.0 -4.0 50.0
-3.0 -3.0 50.0
-3.0 -2.0 50.0
-3.0 -1.0 50.0
-3.0 0.0 50.0
-3.0 1.0 50.0
-3.0 2.0 50.0
-3.0 3.0 50.0
-3.0 4.0 50.0
-4.0 -4.0 50.0
-4.0 -3.0 50.0
-4.0 -2.0 50.0
-4.0 -1.0 50.0
-4.0 0.0 50.0
-4.0 1.0 50.0
-4.0 2.0 50.0
-4.0 3.0 50.0
-4.0 4.0 50.0
5.0 4.0 49.0
5.0 3.0 49.0
5.0 2.0 49.0
5.0 1.0 49.0
5.0 0.0 49.0
5.0 -1.0 49.0
5.0 -2.0 49.0
5.0 -3.0 49.0
5.0 -4.0 49.0
5.0 4.0 48.0
5.0 3.0 48.0
5.0 2.0 48.0
5.0 1.0 48.0
5.0 0.0 48.0
5.0 -1.0 48.0
5.0 -2.0 48.0
5.0 -3.0 48.0
5.0 -4.0 48.0
5.0 4.0 47.0
5.0 3.0 47.0
5.0 2.0 47.0
5.0 1.0 47.0
5.0 0.0 47.0
5.0 -1.0 47.0
5.0 -2.0 47.0
5.0 -3.0 47.0
5.0 -4.0 47.0
5.0 4.0 46.0
5.0 3.0 46.0
5.0 2.0 46.0
5.0 1.0 46.0
5.0 0.0 46.0
5.0 -1.0 46.0
5.0 -2.0 46.0
5.0 -3.0 46.0
5.0 -4.0 46.0
5.0 4.0 45.0
5.0 3.0 45.0
5.0 2.0 45.0
5.0 1.0 45.0
5.0 0.0 45.0
5.0 -1.0 45.0
5.0 -2.0 45.0
5.0 -3.0 45.0
5.0 -4.0 45.0
5.0 4.0 44.0
5.0 3.0 44.0
5.0 2.0 44.0
5.0 1.0 44.0
5.0 0.0 44.0
5.0 -1.0 44.0
5.0 -2.0 44.0
5.0 -3.0 44.0
5.0 -4.0 44.0
5.0 4.0 43.0
5.0 3.0 43.0
5.0 2.0 43.0
5.0 1.0 43.0
5.0 0.0 43.0
5.0 -1.0 43.0
5.0 -2.0 43.0
5.0 -3.0 43.0
5.0 -4.0 43.0
5.0 4.0 42.0
5.0 3.0 42.0
5.0 2.0 42.0
5.0 1.0 42.0
5.0 0.0 42.0
5.0 -1.0 42.0
5.0 -2.0 42.0
5.0 -3.0 42.0
5.0 -4.0 42.0
5.0 4.0 41.0
5.0 3.0 41.0
5.0 2.0 41.0
5.0 1.0 41.0
5.0 0.0 41.0
5.0 -1.0 41.0
5.0 -2.0 41.0
5.0 -3.0 41.0
5.0 -4.0 41.0
5.0 4.0 40.0
5.0 3.0 40.0
5.0 2.0 40.0
5.0 1.0 40.0
5.0 0.0 40.0
5.0 -1.0 40.0
5.0 -2.0 40.0
5.0 -3.0 40.0
5.0 -4.0 40.0
5.0 4.0 39.0
5.0 3.0 39.0
5.0 2.0 39.0
5.0 1.0 39.0
5.0 0.0 39.0
5.0 -1.0 39.0
5.0 -2.0 39.0
5.0 -3.0 39.0
5.0 -4.0 39.0
5.0 4.0 38.0
5.0 3.0 38.0
5.0 2.0 38.0
5.0 1.0 38.0
5.0 0.0 38.0
5.0 -1.0 38.0
5.0 -2.0 38.0
5.0 -3.0 38.0
5.0 -4.0 38.0
5.0 4.0 37.0
5.0 3.0 37.0
5.0 2.0 37.0
5.0 1.0 37.0
5.0 0.0 37.0
5.0 -1.0 37.0
5.0 -2.0 37.0
5.0 -3.0 37.0
5.0 -4.0 37.0
5.0 4.0 36.0
5.0 3.0 36.0
5.0 2.0 36.0
5.0 1.0 36.0
5.0 0.0 36.0
5.0 -1.0 36.0
5.0 -2.0 36.0
5.0 -3.0 36.0
5.0 -4.0 36.0
5.0 4.0 35.0
5.0 3.0 35.0
5.0 2.0 35.0
5.0 1.0 35.0
5.0 0.0 35.0
5.0 -1.0 35.0
5.0 -2.0 35.0
5.0 -3.0 35.0
5.0 -4.0 35.0
5.0 4.0 34.0
5.0 3.0 34.0
5.0 2.0 34.0
5.0 1.0 34.0
5.0 0.0 34.0
5.0 -1.0 34.0
5.0 -2.0 34.0
5.0 -3.0 34.0
5.0 -4.0 34.0
5.0 4.0 33.0
5.0 3.0 33.0
5.0 2.0 33.0
5.0 1.0 33.0
5.0 0.0 33.0
5.0 -1.0 33.0
5.0 -2.0 33.0
5.0 -3.0 33.0
5.0 -4.0 33.0
5.0 4.0 32.0
5.0 3.0 32.0
5.0 2.0 32.0
5.0 1.0 32.0
5.0 0.0 32.0
5.0 -1.0 32.0
5.0 -2.0 32.0
5.0 -3.0 32.0
5.0 -4.0 32.0
5.0 4.0 31.0
5.0 3.0 31.0
5.0 2.0 31.0
5.0 1.0 31.0
5.0 0.0 31.0
5.0 -1.0 31.0
5.0 -2.0 31.0
5.0 -3.0 31.0
5.0 -4.0 31.0
5.0 4.0 30.0
5.0 3.0 30.0
5.0 2.0 30.0
5.0 1.0 30.0
5.0 0.0 30.0
5.0 -1.0 30.0
5.0 -2.0 30.0
5.0 -3.0 30.0
5.0 -4.0 30.0
5.0 4.0 29.0
5.0 3.0 29.0
5.0 2.0 29.0
5.0 1.0 29.0
5.0 0.0 29.0
5.0 -1.0 29.0
5.0 -2.0 29.0
5.0 -3.0 29.0
5.0 -4.0 29.0
5.0 4.0 28.0
5.0 3.0 28.0
5.0 2.0 28.0
5.0 1.0 28.0
5.0 0.0 28.0
5.0 -1.0 28.0
5.0 -2.0 28.0
5.0 -3.0 28.0
5.0 -4.0 28.0
5.0 4.0 27.0
5.0 3.0 27.0
5.0 2.0 27.0
5.0 1.0 27.0
5.0 0.0 27.0
5.0 -1.0 27.0
5.0 -2.0 27.0
5.0 -3.0 27.0
5.0 -4.0 27.0
5.0 4.0 26.0
5.0 3.0 26.0
5.0 2.0 26.0
5.0 1.0 26.0
5.0 0.0 26.0
5.0 -1.0 26.0
5.0 -2.0 26.0
5.0 -3.0 26.0
5.0 -4.0 26.0
5.0 4.0 25.0
5.0 3.0 25.0
5.0 2.0 25.0
5.0 1.0 25.0
5.0 0.0 25.0
5.0 -1.0 25.0
5.0 -2.0 25.0
5.0 -3.0 25.0
5.0 -4.0 25.0
5.0 4.0 24.0
5.0 3.0 24.0
5.0 2.0 24.0
5.0 1.0 24.0
5.0 0.0 24.0
5.0 -1.0 24.0
5.0 -2.0 24.0
5.0 -3.0 24.0
5.0 -4.0 24.0
5.0 4.0 23.0
5.0 3.0 23.0
5.0 2.0 23.0
5.0 1.0 23.0
5.0 0.0 23.0
5.0 -1.0 23.0
5.0 -2.0 23.0
5.0 -3.0 23.0
5.0 -4.0 23.0
5.0 4.0 22.0
5.0 3.0 22.0
5.0 2.0 22.0
5.0 1.0 22.0
5.0 0.0 22.0
5.0 -1.0 22.0
5.0 -2.0 22.0
5.0 -3.0 22.0
5.0 -4.0 22.0
5.0 4.0 21.0
5.0 3.0 21.0
5.0 2.0 21.0
5.0 1.0 21.0
5.0 0.0 21.0
5.0 -1.0 21.0
5.0 -2.0 21.0
5.0 -3.0 21.0
5.0 -4.0 21.0
5.0 4.0 20.0
5.0 3.0 20.0
5.0 2.0 20.0
5.0 1.0 20.0
5.0 0.0 20.0
5.0 -1.0 20.0
5.0 -2.0 20.0
5.0 -3.0 20.0
5.0 -4.0 20.0
5.0 4.0 19.0
5.0 3.0 19.0
5.0 2.0 19.0
5.0 1.0 19.0
5.0 0.0 19.0
5.0 -1.0 19.0
5.0 -2.0 19.0
5.0 -3.0 19.0
5.0 -4.0 19.0
5.0 4.0 18.0
5.0 3.0 18.0
5.0 2.0 18.0
5.0 1.0 18.0
5.0 0.0 18.0
5.0 -1.0 18.0
5.0 -2.0 18.0
5.0 -3.0 18.0
5.0 -4.0 18.0
5.0 4.0 17.0
5.0 3.0 17.0
5.0 2.0 17.0
5.0 1.0 17.0
5.0 0.0 17.0
5.0 -1.0 17.0
5.0 -2.0 17.0
5.0 -3.0 17.0
5.0 -4.0 17.0
5.0 4.0 16.0
5.0 3.0 16.0
5.0 2.0 16.0
5.0 1.0 16.0
5.0 0.0 16.0
5.0 -1.0 16.0
5.0 -2.0 16.0
5.0 -3.0 16.0
5.0 -4.0 16.0
5.0 4.0 15.0
5.0 3.0 15.0
5.0 2.0 15.0
5.0 1.0 15.0
5.0 0.0 15.0
5.0 -1.0 15.0
5.0 -2.0 15.0
5.0 -3.0 15.0
5.0 -4.0 15.0
5.0 4.0 14.0
5.0 3.0 14.0
5.0 2.0 14.0
5.0 1.0 14.0
5.0 0.0 14.0
5.0 -1.0 14.0
5.0 -2.0 14.0
5.0 -3.0 14.0
5.0 -4.0 14.0
5.0 4.0 13.0
5.0 3.0 13.0
5.0 2.0 13.0
5.0 1.0 13.0
5.0 0.0 13.0
5.0 -1.0 13.0
5.0 -2.0 13.0
5.0 -3.0 13.0
5.0 -4.0 13.0
5.0 4.0 12.0
5.0 3.0 12.0
5.0 2.0 12.0
5.0 1.0 12.0
5.0 0.0 12.0
5.0 -1.0 12.0
5.0 -2.0 12.0
5.0 -3.0 12.0
5.0 -4.0 12.0
5.0 4.0 11.0
5.0 3.0 11.0
5.0 2.0 11.0
5.0 1.0 11.0
5.0 0.0 11.0
5.0 -1.0 11.0
5.0 -2.0 11.0
5.0 -3.0 11.0
5.0 -4.0 11.0
5.0 4.0 10.0
5.0 3.0 10.0
5.0 2.0 10.0
5.0 1.0 10.0
5.0 0.0 10.0
5.0 -1.0 10.0
5.0 -2.0 10.0
5.0 -3.0 10.0
5.0 -4.0 10.0
5.0 4.0 9.0
5.0 3.0 9.0
5.0 2.0 9.0
5.0 1.0 9.0
5.0 0.0 9.0
5.0 -1.0 9.0
5.0 -2.0 9.0
5.0 -3.0 9.0
5.0 -4.0 9.0
5.0 4.0 8.0
5.0 3.0 8.0
5.0 2.0 8.0
5.0 1.0 8.0
5.0 0.0 8.0
5.0 -1.0 8.0
5.0 -2.0 8.0
5.0 -3.0 8.0
5.0 -4.0 8.0
5.0 4.0 7.0
5.0 3.0 7.0
5.0 2.0 7.0
5.0 1.0 7.0
5.0 0.0 7.0
5.0 -1.0 7.0
5.0 -2.0 7.0
5.0 -3.0 7.0
5.0 -4.0 7.0
5.0 4.0 6.0
5.0 3.0 6.0
5.0 2.0 6.0
5.0 1.0 6.0
5.0 0.0 6.0
5.0 -1.0 6.0
5.0 -2.0 6.0
5.0 -3.0 6.0
5.0 -4.0 6.0
5.0 4.0 5.0
5.0 3.0 5.0
5.0 2.0 5.0
5.0 1.0 5.0
5.0 0.0 5.0
5.0 -1.0 5.0
5.0 -2.0 5.0
5.0 -3.0 5.0
5.0 -4.0 5.0
5.0 4.0 4.0
5.0 3.0 4.0
5.0 2.0 4.0
5.0 1.0 4.0
5.0 0.0 4.0
5.0 -1.0 4.0
5.0 -2.0 4.0
5.0 -3.0 4.0
5.0 -4.0 4.0
5.0 4.0 3.0
5.0 3.0 3.0
5.0 2.0 3.0
5.0 1.0 3.0
5.0 0.0 3.0
5.0 -1.0 3.0
5.0 -2.0 3.0
5.0 -3.0 3.0
5.0 -4.0 3.0
5.0 4.0 2.0
5.0 3.0 2.0
5.0 2.0 2.0
5.0 1.0 2.0
5.0 0.0 2.0
5.0 -1.0 2.0
5.0 -2.0 2.0
5.0 -3.0 2.0
5.0 -4.0 2.0
5.0 4.0 1.0
5.0 3.0 1.0
5.0 2.0 1.0
5.0 1.0 1.0
5.0 0.0 1.0
5.0 -1.0 1.0
5.0 -2.0 1.0
5.0 -3.0 1.0
5.0 -4.0 1.0
-0.0871739984 0.997173786 16.1921673
0.209237874 2.08339024 15.7936916
0.933094978 0.924556255 15.7507229
-0.00154559338 0.633104205 15.0772619
0.56958282 0.0100621935 16.0450287
1.4933219 -0.832872152 11.0212889
1.52163041 0.050348971 12.169199
2.16457176 0.443547308 11.2894144
0.74313271 -0.135375604 11.4906301
1.11800241 -1.04243302 11.9100809
0.777781844 0.518514931 12.6637573
1.55832553 0.474300802 13.3876591
1.84826994 1.50390041 12.1619558
2.36534691 -0.136781842 13.2653294
1.59657264 -0.65298152 12.8189096
2.25194216 -0.409297198 11.6836424
1.35692334 1.28379905 11.294302
0.296766609 0.511268377 26.1053715
1.3089149 -0.673283279 25.6611347
1.0874263 0.777275145 25.4572296
1.66666913 0.0 26.6666622
-0.169470519 -0.358463645 25.7573605
0.483435005 0.00713886786 25.0266609
-0.486111283 0.347220093 26.6777725
-0.0828349367 1.32567573 26.8835907
-0.542110562 1.63343251 25.9711647
-0.651530981 0.531158388 25.2560806
0.970841706 0.796062946 26.9843197
0.556844354 0.00146007899 27.441227
-1.07256901 0.648053348 8.33540916
-0.0185534544 -0.47543782 8.25599098
-0.0662419796 0.580420971 9.30807495
-0.96539408 -0.00136189582 9.08243084
-0.275517851 0.840112329 7.64785099
0.0167608205 1.69068277 8.04847622
0.587319136 -4.21726227 14.6858435
0.746876359 -3.56992483 15.7938633
-0.361317307 -4.26781082 15.234374
0.432734489 -4.30668497 15.9281807
-1.66101563 0.986703038 10.0340443
-2.564852 0.178908765 9.01839638
-2.3986311 1.3404665 9.11357117
-1.41639698 1.39425194 7.57891369
-0.667072415 1.97255087 7.55758905
0.0995545834 -1.11918068 4.2251029
0.0133307427 0.378797054 3.82663751
0.770091891 -0.470481157 3.59434867
-0.345744163 -0.647961497 3.05123401
-0.000231205573 -0.969505131 5.65185356
-0.470370322 -0.111111693 4.90158796
-0.734692097 -1.65027881 4.67669153
0.725928485 -0.222223386 4.5428586
0.882806182 1.18178988 14.7592115
-4.65076971 -4.27664089 13.5982113
-4.03622532 -3.9278183 13.9397593
-4.34509373 -4.34607887 13.3039093
-4.282516 -3.44158983 13.3680096
0.428300411 1.8024596 16.7698269
1.09568 0.758347929 16.8801079
1.83641195 1.45846379 16.381712
1.68991005 0.0880798176 15.9704094
0.0238490123 0.830667794 29.1051464
0.546918333 -0.065098621 28.9318695
-0.489721894 -0.0487400331 28.8203831
0.928350508 0.721747756 28.2937164
-0.310743451 1.66506016 30.571516
0.522543609 1.68876982 29.1946907
-0.572376311 1.72169602 29.2360401
1.28255749 1.17121768 29.2447433
0.703707397 0.833334565 30.2608509
-0.555555284 0.0 30.0158749
0.11574214 -0.85069716 7.08965111
-0.709873915 -0.578704357 6.27861691
-0.669070899 -1.76894748 6.40143776
-1.55492711 -1.45442235 5.19054461
0.478399158 0.28934902 5.62396288
1.24259377 -0.979168236 5.17487001
-0.422304899 -2.67971683 4.9492259
-4.35194111 -4.30178213 24.6447887
-4.31930971 -4.31581926 23.510416
-0.800791562 0.478164792 5.938694
0.0909873098 1.34121406 6.90283394
-0.555555284 0.0 7.22539711
0.555558503 0.0 6.7650795
0.200623095 2.02546215 5.85240364
-0.848761976 1.44675779 5.60659409
-1.69592774 -0.0337591805 7.01650143
-1.29629683 1.47569335 6.44626617
-1.91650093 0.873082876 5.36257696
-4.06034994 -1.63224792 19.1122036
-3.6039691 -0.675608039 18.0695362
-2.70888996 -1.32182753 19.1168003
-2.76168394 -1.14764428 17.9558449
-0.568819523 -1.11859155 23.5698986
1.01728547 -0.913806736 24.5648899
-0.507192194 0.0390579067 23.925869
0.0677464008 -0.982291102 24.9480419
0.673650682 -0.818432868 23.0567074
-0.851853192 -1.03703618 25.2663116
-0.0925930813 -1.38888991 26.4232769
0.39970693 -0.608992279 42.6449699
1.59833992 0.020593131 42.0372963
0.704866588 0.372418344 42.892189
1.98660696 -0.419701457 42.9384689
0.532989025 -0.0540482625 41.7818451
-0.296066642 -1.36592138 42.0862007
1.26432073 -1.14777732 42.1122208
-4.20485973 -1.35795259 33.2690582
-3.31691313 -2.41662717 32.1596336
-3.3679018 -1.05617869 33.2161789
-3.37619352 -2.46354294 33.1389122
0.371594846 -2.46357775 42.9283714
1.4376235 -1.93775916 43.0013046
0.27778241 -1.73610997 43.9027786
-0.777332127 -1.43128288 43.3589134
-0.596431196 -0.044163432 43.1855392
1.43495679 -1.28412843 43.7474785
2.25007367 -3.12808156 33.0024223
2.38522434 -2.0688622 33.3343353
1.313254 -2.60882235 32.1733475
0.993303478 -3.04172468 33.2482109
1.47478747 -1.59694314 32.6659737
2.24668479 -0.843738794 31.9496021
1.00116444 -1.02694547 31.9973068
1.61838198 -0.147702351 32.7671318
1.15503335 -1.02218831 33.322876
1.42568958 -1.82266629 33.696743
2.30440998 -0.885317802 33.9303551
1.75925899 -1.73611307 31.4884205
2.36298418 -1.38296402 32.655571
2.59715438 -2.16396999 31.7358475
0.437725991 -1.84329116 32.769516
-0.354938567 -0.0115729468 14.282032
0.0925930813 -1.38888991 13.9989443
0.478392839 -0.289352179 14.9852104
-0.709877133 -0.578704357 15.1323204
-1.08392024 0.786960423 14.4373417
-1.64820111 -0.0654216781 14.3691521
3.45347643 3.41597676 4.98415709
3.6355207 4.26587582 6.32391405
3.28678036 2.48086739 5.70423555
4.2277174 3.52948928 5.7427392
-1.97912598 -0.497408688 18.5352707
-1.00855041 -0.908764601 18.8157806
-1.38761663 0.287309349 17.8477783
-0.768533647 0.741017044 19.00037
-1.81877697 -1.25481284 19.8048077
-1.26484644 0.257898718 19.8317108
-2.15856695 -1.92836535 18.5014076
-2.43625426 -0.34477818 17.5289154
-2.15997314 1.00641572 17.8476582
-1.41494012 -1.20128393 17.7299538
-1.89550245 -0.896244645 34.8406792
-2.49997187 -2.11223078 35.7026901
-2.47407389 -2.10000229 34.6926003
-1.65353477 -2.31452298 35.1953354
-0.992654204 -2.56034207 33.8173332
-0.863027036 -1.40428877 34.6196709
-0.744117677 -2.49976301 35.6650429
-0.087506555 1.13605547 24.1841106
0.734574914 1.8833245 25.0714455
0.88812077 0.685749412 24.2743568
0.895272315 2.17858362 24.1382122
0.247440636 2.87132621 24.0569973
-0.485585541 2.20894432 24.5057182
-0.637402058 2.09741449 23.0662956
-0.035627827 1.38917172 23.1914711
-1.15221143 1.58499336 23.8188095
2.58257246 3.43345976 5.454144
3.62008381 4.3427372 5.33011341
2.67131758 4.26900482 6.32792377
0.0128081553 -0.0137836523 22.8365803
-1.43763626 1.14830625 24.6356239
1.01454902 0.868053377 37.8032341
1.62557149 0.0146578001 38.6310616
0.559986234 0.0514384881 37.5560455
1.67570198 0.0303449389 37.6451569
2.218256 1.21527982 37.4652748
2.07407856 0.865741313 38.482933
0.0511439405 1.48148298 37.8117294
0.196157336 1.1203208 36.4626961
1.20172417 1.9965266 37.0335655
1.47354591 1.73611307 38.0509224
0.533863187 1.11429048 38.784565
0.860882878 -0.682024777 26.9349937
1.31944263 -1.77546239 25.0687122
-0.0370403975 -2.07407546 25.4850063
-1.09771657 -0.778557837 24.2602463
-0.685185611 -1.90740788 24.3264542
-1.49788272 -0.0351749174 26.1980572
-0.996790528 -0.691228628 26.4959183
0.0596415363 0.777097762 44.3733101
-0.865896523 -0.259694517 45.1188545
-1.4347477 0.729368031 45.2788315
-0.528393388 -0.104276881 44.1960297
1.07407343 0.828571081 44.2407379
0.448177755 -0.0384973101 44.907299
0.555558503 0.0 43.9460297
0.481477678 1.65714216 45.0338631
-0.140614167 1.69383729 43.6658325
-0.110668287 0.386512369 45.6973457
-1.44444573 1.24999869 44.1198463
0.865576625 -0.531585932 36.4307785
-0.733992159 -0.614097834 35.8511925
0.382540703 -1.51082385 35.7726212
-0.110164702 -0.866130888 37.0074501
1.82268536 0.580921412 36.0131645
2.13236141 -0.646704137 36.3303909
1.68267608 -0.00732573261 35.1056328
1.67567027 0.487653732 36.9729958
2.19926548 -0.870802522 35.1888351
0.498352528 -0.421186864 35.4120293
1.2615273 -1.4814893 44.630024
1.03391957 -1.67415953 45.6449471
1.06322253 -2.92840862 45.4570312
2.4732852 -2.11005807 45.4448433
2.43937707 -1.86918616 43.7433777
2.70082307 -1.1555084 44.6862984
2.12451959 -2.56394625 44.3648338
-2.4607811 1.57568181 32.6868896
-0.404007971 1.7512207 32.3860855
-2.30589557 2.24028707 32.2668152
-1.49300206 2.46683669 32.9977417
2.24398613 -0.86901623 43.8269806
0.0916049108 -0.812605202 45.3363876
0.340638638 -0.841005504 44.2153625
1.62604022 -0.0725732073 44.6734734
-0.000652443094 -0.996166587 31.2154961
-0.0915669054 -0.828583777 30.0437469
-1.04764938 -1.77076542 30.2463398
-1.14657378 -0.792879879 30.5456085
-0.437317401 -1.89469802 31.7431259
0.331232071 -0.323212713 32.5599899
4.3158164 -4.31931257 1.51041687
3.6562531 -4.31931257 0.68418318
4.50000143 -4.50000143 0.500001013
-0.690018773 -0.436436921 32.4108353
-1.18911874 -1.24552655 31.9398975
1.16386986 -0.900349319 31.0307846
0.555697858 -0.0185756255 31.0813141
2.60609221 -3.96968555 2.57597685
3.64857602 -2.48566246 2.4960556
2.3700788 -3.24858069 3.30162024
3.44183373 -3.26528454 3.54323959
-1.12844789 0.758455634 30.7439137
-1.63979542 -0.00670179445 31.5996208
-1.68309104 -0.0040540155 30.0711994
-1.12384915 1.00854409 31.8917503
-0.518185496 -0.0263004247 31.3449974
-1.11728346 -1.3621397 11.8654337
0.0 -0.555555284 12.0444469
-0.0279093627 -1.65839326 10.9121351
-0.837870002 -0.500452399 11.4192038
0.0 -0.555555284 10.6547623
0.0 0.555558503 11.9555559
-1.612396 -1.5079639 11.0159845
-2.20199871 -1.09260786 11.5983438
-1.77584875 -0.561554015 10.8201399
-0.694443345 -0.879629493 12.6259251
-1.12847316 0.532406271 12.1981821
-1.6871134 -0.426441252 12.15312
-0.0352604315 -1.6563915 9.71563339
0.868053377 -1.15740871 9.76435089
-0.865823686 -0.526603937 10.2003603
0.0 0.555558503 10.3841276
0.877073586 -0.00152342301 9.81846619
-0.0160672031 -0.607392848 9.49986458
1.09683919 -0.464333624 40.9294624
0.833733618 0.449919701 40.7497787
2.06944823 3.16719957e-6 39.7619057
0.669647336 -0.817603052 39.6368828
-0.438140899 0.306185842 40.9426689
-0.482430995 -0.272299975 40.1847458
0.0624603443 -1.33208609 40.9597206
2.29882312 -1.64534116 10.8500643
1.79675865 -2.87987757 10.7399216
1.56805515 -1.79691696 10.0375443
2.35925341 -2.58518553 9.97407341
3.17284346 -1.8529954 9.75801945
1.99778712 -1.95379794 11.8434439
2.71240878 -2.93190837 11.1655302
3.01264024 -1.58841074 11.6562681
0.426343083 2.30194592 31.451067
0.111181371 2.63538885 32.5524902
1.24652112 3.32802367 32.1340218
0.146666676 3.34221911 30.920002
1.31975305 2.07281184 31.1131268
1.74310625 2.53035808 31.8077049
1.01852703 1.73610675 32.3101807
0.495312005 2.39103293 30.3715839
0.204100668 1.11025548 31.2096939
-0.656725168 2.63830256 31.7470093
-1.35813951 1.85634005 37.3875465
-0.375990927 1.88006234 36.8412895
-0.274472684 2.29514289 38.4877281
-0.234565973 3.35185361 37.5839539
-2.2800734 2.15939045 38.6084747
-2.50108671 1.86985123 37.6341667
-1.27777815 2.33333302 38.3388901
-2.34814906 1.03703618 38.4899445
4.19802189 -1.73158717 45.7789001
4.30887985 -0.498301834 45.5782089
4.25259876 -1.64821696 46.3835144
-4.35462093 -3.83527279 14.2105675
-2.27778029 0.777775526 37.5944443
-0.8681674 0.752317607 37.7677498
-1.24999869 2.60416651 36.6875038
-1.43981528 1.3715241 36.4206047
-1.65159953 3.27317405 38.0710144
-2.40249181 2.59688187 37.1227875
-2.49935126 1.87645173 36.4889717
-1.00687492 2.49083781 33.7971191
-1.96193123 2.22484374 34.2091217
-0.648148417 1.73611307 34.5982819
-0.865421474 2.60500264 35.1834335
-1.65383875 3.34109783 33.467247
-1.5570935 3.37413168 35.16642
-0.706405878 3.44408894 32.829483
-0.678341329 3.48009992 33.8640175
-1.10016799 1.46591294 33.2139282
3.98049212 0.951990485 17.8014679
4.27234316 0.686800897 16.6612606
3.34044528 1.85012591 17.3214951
4.176054 1.62960649 16.8792171
0.46296224 1.73611307 33.5712967
-0.178918272 2.56450677 33.4076805
0.0659315959 -0.623073697 21.7348652
1.53393805 -0.904811919 22.3270454
0.114000179 -1.63331211 21.7116451
1.46790826 -1.41131365 21.5322609
3.66666698 -3.33333182 0.666668534
2.6652112 -3.35047603 0.791500568
-2.06386757 0.291268349 4.16578102
-1.09679174 -0.669628322 4.27774477
-1.00741017 0.310182869 4.09051895
-1.66666913 0.0 5.2603178
-2.36444426 1.34222114 4.03111172
-2.56124783 0.739743829 3.34684467
-3.10850501 0.326392591 4.21102476
-2.34355021 -0.834652126 4.70690966
-2.77777982 0.0 5.09523726
1.05962467 -0.808798254 29.9748287
3.45833492 -4.25687122 38.2708321
4.33333731 -3.66666698 37.6666641
4.30922222 -4.32267332 37.6014366
3.35544515 -4.27039528 37.3278542
1.66666913 0.0 5.75555372
1.92222404 -0.333335072 4.18412876
1.44369197 -2.38761568 4.65783072
1.55398643 -1.33805311 4.05964518
2.23938751 -0.946555614 5.26695633
1.06481886 -0.868056536 6.47136307
1.75925899 -1.73611307 5.80688143
-2.39787412 0.303322703 11.3115091
-1.38888991 -0.0925930813 13.1185198
-2.25694323 0.509260356 12.4408054
-0.00522587914 0.582099617 13.4057913
-0.774921894 2.09082055 12.4087477
-1.4552902 1.07518828 13.0176382
-0.915719748 1.12572408 11.2261438
0.0 1.66666913 11.8666687
-1.5432117 1.80041361 11.9074078
-0.535677969 -2.41393495 43.8055954
-0.23311539 -1.68003786 44.7955246
0.421123534 -2.56677771 44.4741669
1.25000501 -2.60416651 43.6874962
1.48148298 -3.29861307 42.8356476
4.50000143 -3.49999928 0.500001013
-1.21621418 -1.08249819 40.8292503
4.51059246 3.03686929 0.723434269
4.22366953 2.04519367 1.16567671
4.30148792 2.82607961 1.43371677
-0.938466549 -0.470287949 41.6501503
0.0387475193 0.844875813 41.9851723
-1.09791923 0.993189454 41.3834229
-1.06481564 0.868053377 42.488163
-1.69710267 0.00476980256 42.7933159
-1.66804361 -0.0175906271 41.1901283
1.5245949 -2.40916204 9.08800793
2.2769568 -1.68480134 9.17575264
1.40277803 -1.56018782 8.59020996
2.46287131 -2.46214938 8.439147
2.5424695 -3.35272455 9.09323406
1.64444172 -3.24444437 8.45555687
-0.485943437 1.7526902 42.1809502
0.874679148 1.62992954 42.9986687
-1.31337118 -1.37035537 9.5877161
-0.911586523 -1.06416011 8.61919022
-1.84655654 -0.564413965 8.81012154
-2.55511618 0.0506656915 9.99974346
4.32027578 -2.64060521 0.665563226
-0.875163734 -2.26080418 9.98630238
-0.92658639 -2.4734149 30.8969517
-0.42871213 0.459839374 17.0636177
1.02984023 -0.0693775043 17.6291103
0.505776405 1.54180539 17.838562
-1.05655873 1.09509087 16.5761929
-0.532760978 0.0507702082 16.0084953
-1.63778424 0.0525121689 15.9621077
-0.500864089 2.07413554 17.2274857
-0.481480837 1.55555737 15.1693106
-1.09708631 0.771080077 15.5810461
0.059261471 -0.777775526 16.398941
-0.191216514 -0.826949477 17.4900341
-1.07607186 -0.817736089 16.4450741
-1.29891288 2.14715219 15.9941788
-2.38025188 1.35441494 16.4537582
-0.313074499 0.935014307 18.1745205
-1.19794261 1.35368013 17.676981
-0.0182177313 -2.43164587 26.3677292
0.777775526 -3.11111164 25.703701
0.777775526 -3.11111164 26.8666649
-0.51851809 -3.3703723 25.949995
1.42985129 -2.05155659 26.4796467
0.704385161 -2.10347986 27.1584587
-0.694446504 -2.08333325 27.4722214
1.08368897 -0.865665317 15.9870214
1.95725334 -0.13046962 17.047842
1.70008934 0.00619820971 28.7740917
2.37722397 1.7554394 29.0731201
0.0609274171 -0.0795917287 18.1837177
1.44018269 0.56072104 18.5659981
1.21087742 -0.736225069 18.3838444
1.64696276 -1.58837914 16.9622459
2.22500205 -0.121965691 18.2226906
1.73611307 -0.648151577 9.81124496
1.71723664 0.480350167 10.1457109
1.08768606 -0.545287251 8.33844948
2.19282961 0.40228501 8.89177227
0.986899376 1.12627518 9.37675571
0.836818457 0.996540368 22.1276894
0.0208338387 1.65972662 21.8663025
0.719011307 2.01983714 23.0465088
1.36304235 -1.41235244 23.8133163
1.68605864 -2.15533304 24.2029018
0.425924987 -1.90740788 24.2947083
1.59259462 -2.5972209 25.5138836
0.767292082 -3.10262036 24.5734158
0.988134623 2.72408295 43.9341164
1.77976346 1.46945393 43.8110809
2.95916533 0.679180622 42.8472519
1.85905743 0.558795333 42.9442368
2.09741449 1.35791779 42.569912
3.39485145 0.902898908 43.6864319
2.27291536 0.828571081 44.3476105
2.47407699 2.09999895 43.3883629
1.65819371 1.24154222 45.0093727
2.53097892 1.81115675 44.9392319
1.61601293 2.28922653 42.6842346
0.00057643035 1.03737187 35.2860374
0.709243655 0.393511891 35.9560204
-0.55826962 0.102031335 36.5964737
0.281069964 2.27976918 35.6051712
0.46296224 1.73611307 34.6141548
-1.16511452 0.870827854 34.7689362
-0.553471267 -0.09471827 34.8767357
-1.04640162 1.5234673 35.5791817
-0.4873465 2.72407031 6.75630951
-0.280243307 3.3648138 5.98086834
-0.515183032 2.54805636 4.67305565
-1.50996244 2.43261838 5.30888987
-1.549999 3.13055515 6.72500181
-2.48999858 2.0439713 5.77770519
-2.4173429 2.45167208 6.7709136
-1.62649 1.66754961 4.65777731
-1.39777696 2.52000141 3.96047378
3.21188879 -3.1996603 1.59782839
4.33886719 -3.6292274 2.36929178
4.33333731 -3.66666698 1.33333242
4.28745699 -2.68608284 1.34757841
-2.50992966 2.10029674 4.87308311
0.868053377 1.06481254 10.4310179
0.434026688 1.96759737 9.95215034
1.5202558 1.74845886 10.1278162
1.44117081 1.33513927 39.0652809
0.72883594 2.25694633 38.6365738
1.62962556 2.42129874 38.6972198
2.48148179 1.73148263 38.3277779
0.679383337 0.719112635 39.788765
0.682537854 2.08333325 39.6468277
1.14262426 1.60494041 40.5541725
1.71007872 2.36449194 39.7501373
0.10266161 -0.570165575 46.6814842
-1.43259716 -0.240545645 46.3567047
1.27864909 -0.586844087 46.4251938
-0.522556245 -1.69410026 45.8236923
-1.69777739 -1.67999673 45.3311081
0.804455996 0.522049487 2.55266309
0.144709349 1.26492882 2.92697525
-1.0503732 1.33925664 3.30010629
-0.567777514 1.80666566 4.01638746
1.32667017 0.839998364 4.71301603
0.872354448 1.94130325 4.40019512
-0.0446891859 1.04800737 4.82017517
1.08857286 0.48693794 3.58252239
2.07651114 0.66979301 40.4625168
-0.412290215 1.54212213 40.674984
-0.031748008 1.66666913 39.3333321
-0.596595883 -0.612238705 19.9164791
0.0171978939 -0.416664094 38.4510536
-0.277826756 0.415523916 39.423008
-1.64354217 -2.38219643 14.6647472
-2.33333302 -1.55555737 13.6444464
-1.29640448 -1.4408319 14.4145412
-1.55555737 -2.33333302 13.5777798
-1.09183192 -2.52850223 16.1592941
-0.965726674 -1.67601871 15.618125
-2.21964622 -2.57000518 15.7721167
-1.43948269 -3.36284065 15.6388979
-2.61324382 -1.68469357 15.3133383
-1.93515897 -0.77474767 15.244278
-2.70893741 -2.59342337 14.0690088
-1.03981376 -2.20324016 42.1082687
-0.837565899 -2.90185475 40.8111115
-0.754072189 -2.13209224 40.398201
-0.191564903 -2.2580328 41.4923744
-1.78267407 -2.43287158 41.0416679
0.705538034 -2.22437811 40.9589539
-0.558906198 -3.13333583 41.9932098
2.36882448 -1.35995436 42.9556351
2.39712024 -2.06525159 42.1815643
2.31308198 -2.46516132 43.0190086
1.3738488 -2.67418385 42.1050301
-1.3611294 -3.23173118 16.8850174
0.0183634236 -3.3327775 16.7842426
-1.20960104 -2.42247701 17.0265713
1.34257591 -2.3749752 28.7060738
2.27486634 -2.43726778 27.6500969
2.33183813 -1.55339098 28.1341839
2.23978662 -3.07738423 28.3784637
-2.08333325 -0.694446504 13.7222233
-2.77079916 -0.0399922282 14.2369061
3.28644466 -2.54321384 28.9434738
2.30530334 -1.59307921 29.0536098
3.23333073 -1.68333173 27.5166626
2.3505435 -1.54279041 27.0442944
3.27561283 -2.54966545 28.0198174
2.54303312 -3.32667112 27.3804283
4.30001163 -0.634757459 44.3924522
3.20354629 -3.39030337 28.0445023
-0.703976631 2.59388566 29.8428249
0.669970393 3.61817074 29.2445602
1.17706442 3.10660481 31.2951946
1.61988962 1.92578399 29.8626022
1.33829379 2.78850389 29.4395008
1.23235106 3.11723375 30.3005867
-0.400790095 -1.63600743 16.7192364
0.142872378 -2.29704642 17.1947479
-0.112913832 -2.59173536 15.8913498
-0.420341223 -2.31021881 14.6906071
-2.09056067 0.610085011 14.8075237
-2.77387142 -0.0487527028 15.0256014
4.35043383 -1.56029236 0.536699355
-0.612355888 -3.7645936 15.9854403
-1.31894541 0.0694883615 38.5690689
-1.97441006 -0.0668880865 39.4100685
-0.583065629 -0.889121592 39.3275757
1.28324163 1.86899614 15.4889345
-1.08649516 1.07845044 39.8993988
-0.0243969392 -1.46971357 39.9647408
-1.78163838 -0.176188141 7.90494823
-0.825372219 -0.853040874 7.68909121
-2.15133929 0.696194828 7.59621954
0.46296224 -1.73610997 37.3379593
1.89491022 -1.75700402 35.7477531
1.2417196 -2.34226131 35.4312363
1.22590899 -1.71964049 36.5648727
0.460352451 -2.99548984 35.166893
0.26577872 -1.5869633 34.2230759
1.39069831 -1.28432798 34.6250992
-1.30371749 -3.20533586 5.94608307
-1.62544799 -2.36606908 4.736938
1.32629645 -1.84085238 11.1287651
1.03728318 -2.3907702 12.0407858
-1.7137717 -2.23431993 3.75792193
-2.00629735 -1.29889071 3.56370592
-2.55703545 -1.81999958 4.5829649
-0.44888404 -2.30166721 3.7712431
-2.50243926 -2.77017212 4.26405001
-2.48373055 -2.1075623 5.58172226
-1.62278438 -3.25036716 4.30545139
0.678319156 -2.12284708 13.4904604
-0.319165021 -3.24287987 14.3158922
-0.694443345 -2.08333635 13.5793667
1.04166663 2.59259367 10.2718248
2.08333325 2.40740728 10.8716898
2.17803884 2.41204429 9.79574108
2.44967675 1.17541111 10.434556
0.0 -0.555555284 13.2253971
-1.67824209 -1.21913743 13.0486135
0.0189651903 0.855175555 33.7951736
-0.582166135 -0.0687313974 34.0367355
0.541306078 -0.0141510479 34.0010223
1.04870415 0.845255911 34.81353
1.06481254 0.868053377 33.7189827
1.11415744 0.857652307 32.8267708
0.58551383 0.630190372 31.9934483
-0.609451532 0.39904815 33.2693634
1.24961865 -2.574965 34.2208633
2.42848206 -2.11792541 34.934269
1.47297585 -3.36746788 35.5718918
2.20193839 -3.12684321 35.0154381
0.688663185 -1.50603509 2.90147948
1.50791001 1.05500686 31.0285625
-0.0299142003 -1.67032087 22.7638874
-1.02885842 -0.570659697 22.8146324
0.00576430326 0.515854478 21.7769852
-1.38425624 -0.113274895 21.8998241
-0.944078863 0.858988881 22.610281
0.683944106 0.400302351 14.1975975
1.18055463 -1.04166973 14.171031
-2.51916528 -3.19742417 16.6587715
-2.75000024 -4.25000191 16.75
-3.40000153 -3.13333583 17.0666656
-3.32855892 -3.4461 15.8792915
-2.75000024 -4.25000191 15.75
-0.0229685307 1.66347027 13.660327
0.884098411 1.18018091 13.5565815
2.08841968 0.964976013 14.5650873
1.66666913 0.0 14.8380976
-1.35593832 -1.44197524 38.768734
-0.699669242 -1.83342218 37.1765213
-1.71295774 -2.39059591 38.156105
-1.88205135 -2.03377914 37.1346321
-0.991875052 -0.859492421 37.891098
-1.91153479 -0.915453672 37.2098007
-3.48568988 -3.25317955 14.4825315
-2.6391387 -3.45725179 14.2507935
-2.75163126 -4.23707008 14.7498083
0.431828648 -1.56865382 38.4937134
1.08246017 0.582359314 19.7438011
0.702560902 -0.207318544 20.4214859
2.16330504 0.810936093 20.2566376
0.542769313 1.13005042 20.8227959
2.02250385 -1.10311973 20.5547848
2.83236313 -0.132227421 20.8043404
1.91277945 -0.193104163 19.7499294
1.65812397 0.32903403 22.3907814
2.95200729 0.289722741 22.0812855
2.48786068 -0.994358122 21.9078217
1.15412116 -0.088497892 21.517519
-1.2419318 -0.280141979 3.27435374
-2.27717209 -0.243158579 3.4557488
-0.818866789 0.658612788 2.50087929
-1.75173378 0.518825293 3.03427386
-1.40237892 -0.701198995 2.53730202
-3.36866188 -2.56972957 15.3566151
-4.23576212 -3.44448471 15.2557211
1.52332163 2.34200478 26.169014
2.16792917 1.53146136 25.7162628
1.662444 1.53220248 24.3625412
1.12485623 3.26702332 24.6376667
2.13575029 2.43875003 25.2745514
0.618585765 1.95918536 12.5624647
-2.53205895 -3.39304948 15.4791412
-3.32805204 -2.44203448 16.3643665
-4.20269346 -3.42560506 16.319479
-0.758195877 -0.435049713 27.4265881
-1.21602726 1.18579948 26.7715359
0.509045005 1.55360007 25.9962177
-0.197604746 -2.29735661 38.4185143
-0.728180349 -2.10057235 39.3390465
0.984010875 -2.09145713 39.5437431
-0.0908479542 -2.78446245 39.7731476
-0.576721728 1.11111057 38.6666679
1.06481886 -0.868056536 37.5023117
-4.33660555 -4.25860071 15.5876369
-4.32889366 -4.3154583 16.6561489
-0.904330492 -3.36371803 3.60390735
0.23309955 -3.34930086 3.61064696
-4.45833397 -4.45833397 49.4443703
0.201750606 -2.71150613 2.96712589
0.690797925 -2.4006803 3.85003996
-0.839998364 -2.68444562 2.95111251
0.0600691065 -1.99385667 2.27417445
-1.14777732 -1.73111212 2.74778152
-2.32222247 3.14999533 5.62777948
-3.3727634 2.54603577 5.04044151
-3.38906503 1.82259035 5.89623117
-3.34394836 1.05546927 5.29357672
-3.45504737 2.26810765 3.99127483
-2.59592557 2.6533277 3.81074119
1.58608282 -2.01867795 3.18463016
2.59793973 -2.13237739 2.42799568
1.56939173 -1.35844362 1.71102405
2.14792514 -1.18196404 2.66366386
1.57942545 -2.89406657 2.58537698
1.40287304 -3.34235215 3.55650067
-4.32019949 4.30885458 10.4661455
2.70666337 -1.00444567 3.64888787
-0.431974351 4.29242325 13.3959227
-0.741634607 3.11992598 14.3413477
-1.6584059 4.23158121 13.6651754
-0.844552755 3.16904926 13.0807896
1.83270001 -2.43008137 1.60847974
0.951059341 -2.54016995 1.62614954
2.48635936 -2.49638677 3.43913054
-1.34980977 -1.72984838 36.1909447
1.7592653 -1.73611307 37.4675941
1.20966125 -2.60670972 37.3614464
2.42589116 -1.88462305 36.5492439
1.59223354 -2.70892787 36.3517685
0.185186163 2.77777338 36.6018524
-0.740738273 3.47221994 35.6759262
0.280246496 3.3648138 35.8246918
0.939290047 2.55461884 34.6411018
1.17973113 3.24904013 35.9250336
1.26921093 1.74075627 35.4965286
0.818353713 0.911013305 8.42256355
-1.69751763 3.22958064 13.9324589
-2.62690377 3.37428379 13.5100079
-1.67145479 4.1661787 12.8070669
0.616172314 -2.46576619 5.41117764
-0.143246099 -2.55624056 6.15523243
0.76805222 -3.50655246 6.08735895
1.25000501 -2.60416651 6.31250286
2.59259367 -1.04166663 30.9675922
2.53216338 -2.32372689 30.7169342
2.13619375 -3.16256285 31.3611622
3.19187832 -3.33587193 31.1052837
3.33843112 -2.50744033 30.9474945
3.35821962 -1.09883142 31.699749
-0.360753536 -3.39528227 5.65028858
0.429187208 -4.16102886 5.21272135
1.04210365 -3.38605309 4.75532389
1.49945366 -3.21888828 5.67137909
-0.136702672 -0.898233652 33.4230423
-2.13703632 1.22222233 2.52963114
-1.51178038 0.742226899 1.8273617
0.46296224 -1.73610997 15.5657425
0.690481186 -1.56495452 16.8044586
-2.29053783 -0.792148292 24.6118088
-1.63479435 0.0168463346 23.4158516
-2.11111259 -1.03703618 23.7936516
-1.66298568 -0.0257651694 24.9158058
-1.75426745 -1.66101885 24.6063328
0.38845703 -1.2280215 20.6118584
0.269408315 -1.39536047 19.5601196
1.45676613 -1.13871908 19.6234627
1.26174891 -2.08912277 20.3261166
-0.852160394 -2.19582582 20.9270916
-0.967563629 -2.03662324 19.863533
-0.891943574 -1.25507569 21.3366394
0.128366604 -2.19427395 20.7728977
-1.22583604 3.64317894 15.0894299
-1.79999864 4.1999979 14.8000021
-2.66089416 3.4442029 14.5282726
-2.21411324 3.14704347 15.6520195
0.830173671 -1.61009657 12.7735577
0.0 -1.66666913 12.1333342
-0.0327076688 -2.75335431 12.1953287
0.01133224 -2.74140763 13.0491552
-0.00165327813 -1.66205764 13.0115957
2.1111095 -1.03703618 7.80740499
3.39281178 -2.59026241 8.9736824
3.18236423 -1.65374064 8.47145557
3.22997355 -0.903687537 10.0933723
2.36614513 -0.603481352 8.84873867
-1.47414768 2.05914855 13.5128746
-3.06474376 1.2722894 13.1255007
-2.33372259 1.55252957 14.1379118
-3.11343312 2.24377084 13.1885757
3.63680029 -0.737643957 8.99209309
0.0 -1.66666913 8.39682388
-1.31250334 2.35801172 14.7630377
-0.652126372 2.10045505 14.1279259
-0.0694440156 -2.1354177 7.26736259
0.46296224 -1.73610997 6.30463219
1.36287761 0.762978375 45.9420891
-0.666283786 1.74911129 44.8197441
1.91595304 -0.857402086 45.2132454
-1.73333228 -4.23873615 7.0666666
-1.96651423 -0.838129699 36.2289467
2.30447984 1.88717592 31.7666836
2.41670632 2.10799313 32.6560211
1.95149541 0.86263746 32.0993462
2.61846948 1.07743061 31.2358418
3.33972335 1.07432675 32.0041351
2.38841057 2.08145833 30.7029476
0.426381081 -2.62267876 11.1008778
2.75822544 0.00375629868 32.9157104
1.66666913 0.0 33.8666687
0.817492187 -3.16254067 12.5281982
0.891699731 -3.59432173 11.3329573
1.04999638 -2.6259284 10.1272488
0.0171598867 -2.79829359 9.8634243
-0.835466087 -2.31050682 11.6629448
-0.688789904 -3.06433201 11.0667953
0.0622037984 -3.84535074 11.0699377
-1.7397902 -2.50568247 44.581852
-0.865266263 -2.80160332 44.9821396
-0.222590789 -3.38111234 44.2883339
-1.47900939 -3.39444613 44.1672783
-0.280243307 -3.3648169 43.175312
-2.32222247 -3.15000176 42.8777771
-2.6072576 -2.21214962 44.1847916
-1.59969234 -2.06273055 43.0835457
-2.58888793 -3.35555601 44.5888824
-1.57039571 -1.29821932 44.0636215
2.11041903 -1.31517327 46.0899124
1.52228284 -2.66211987 46.9990196
2.46099019 -2.54377437 46.4906731
-2.33333302 -1.55555737 27.5777779
-2.33333302 -1.55555737 26.5111084
-3.12833476 -0.795888722 26.3385849
-2.1330235 -0.591401696 26.5243225
2.14630985 -1.77551305 47.0298729
3.40514493 -1.75447655 46.5567856
2.55242705 -0.826110184 46.8041344
1.82797456 -0.899285138 47.3594551
0.490263492 -1.51349699 46.8746758
2.09364557 -0.0962638631 45.7128067
-1.34002626 2.05729246 25.5436554
-1.44444573 2.07407856 26.4888878
-0.810799897 3.14150715 25.564661
-1.76307547 3.17053151 25.8090611
0.0 -2.77777982 27.2222214
1.98955238 1.44528186 36.1588631
1.61727345 2.45093107 41.675209
0.200635761 2.54846811 41.9596558
0.882850528 2.82849932 41.192379
0.579572201 1.71417713 41.7405128
1.22375524 0.905850768 41.9477844
1.3338598 3.54990506 41.7308159
1.27555799 3.27247095 42.6756477
2.32222247 3.14999533 42.1222229
2.43969393 1.64699447 40.5895004
2.34080124 3.0473907 41.0604782
2.47438741 2.09805441 41.9986649
1.63696706 3.30423808 40.5993576
0.819164515 -1.8923384 18.1107864
-0.390816599 -2.06014609 17.9315453
0.00356626674 -1.07793736 18.5723419
0.0315009654 3.48794198 34.8822594
0.231116891 -2.51999807 46.0244408
-0.164935082 -3.39740753 45.4013596
-2.00542641 -0.912609577 30.0121384
-2.60718179 -0.0911836773 29.0621433
-2.80832744 0.00992283598 30.0558262
1.61425197 -0.0265538003 43.7529678
-2.38280153 -2.03775716 30.7594948
-2.1108942 -1.69502509 31.8168392
-2.22222114 -3.12499976 31.1527729
-0.138888031 2.60416651 34.3878975
1.50597167 3.31548142 34.6161232
2.07519984 2.66052365 33.8899612
1.17338407 2.71187663 33.3112907
1.90000308 2.0895853 34.6312523
2.32222247 3.15000176 35.1222229
4.30623245 0.507809758 0.635515988
4.29939127 -0.40473327 0.652846873
0.499315351 4.18219185 41.4589424
0.65373534 4.21534634 42.3949776
1.67432737 4.26179028 42.283638
2.24879408 0.811746895 41.3881531
-1.52072132 -1.2731477 42.2233276
-1.57989419 -3.02592659 41.8444481
0.183425203 -3.00926089 40.9598808
0.438175738 -3.24558139 42.1065407
-1.18878305 -1.02517498 28.2537079
-1.38889301 -1.38888669 26.9722214
-1.44238389 -2.07295108 28.1997204
2.73626399 1.60791755 5.48006105
2.89815855 2.05064774 4.61006308
4.21109581 1.73801339 4.74983168
3.2711091 0.839998364 4.63999939
2.32444572 1.11999774 4.53058243
3.42374897 2.51169062 6.63565826
2.38049245 2.06346226 6.43678999
3.20766377 1.64259839 6.8154254
2.02333379 2.2995832 5.3091054
1.45833707 1.30208647 5.92688656
2.2685194 0.868053377 5.97982931
-1.64537287 -1.82916856 33.2754631
-1.49978304 -2.60290599 31.7134361
-1.209126 -0.911152661 33.4511642
-2.30793524 -0.325778157 33.2865677
-2.8005805 -1.48163497 32.6077194
-2.61172986 -1.80648196 33.6577187
-0.679795027 -1.86770713 32.8898125
-2.17039323 0.822090983 29.4026299
-2.32222247 -3.15000176 33.6277733
-1.72375154 -3.20237446 32.8416748
0.819411516 -2.79261804 16.8641987
1.41433835 -2.42952704 17.4125614
1.55963671 -3.34532285 16.4858074
0.6663028 -4.24127913 16.6642818
1.3163451 -3.61139607 17.4872894
0.848302722 -3.11029124 17.95051
-0.695121109 -2.05661798 18.9081287
0.406586081 -0.0742138177 19.2271767
-2.23583698 -1.50887918 28.6970901
-3.17936802 -0.818660915 28.9174576
-1.97671258 -0.580851734 27.8259335
-1.7033453 1.67309856 30.1095676
-1.50600338 3.10005498 29.1250248
-2.51757526 2.39523268 29.4062519
-2.21992183 3.10702276 29.9194279
1.75925899 1.73611307 33.4675827
3.35555291 3.12221909 33.5888863
3.33333182 2.49999738 34.6111145
2.77777338 2.08333325 33.5277748
2.24714708 3.15525293 33.0586052
1.64996529 4.11474991 34.1746483
2.48872852 3.41237879 34.0414124
-1.30123448 -3.25740767 34.7265472
-0.280243307 -3.3648169 34.5253143
-0.644445956 -4.18889046 33.5888863
-0.232716322 -3.07129669 33.399231
-3.10334253 -0.389818937 8.12961388
-2.77868247 0.0389280505 7.06144714
-3.0726428 -0.751101375 7.30179644
-2.07407546 -1.44444573 7.62539577
-3.11668897 -2.2411325 21.4040852
-4.20777655 -2.56791162 21.2352409
-4.23950243 -2.40261531 22.3341045
-4.08914614 -1.59238875 22.1769428
-2.51111102 3.37778044 28.9555607
0.669919729 4.27431297 25.3035564
1.66367924 3.24064684 26.0327663
0.254775882 3.08312941 25.4493942
-3.35555601 2.58888793 30.0777817
-3.35555601 2.58888793 29.0777817
1.13940001 3.26998782 23.1008015
1.73284459 3.20014477 23.9775238
4.44700146 -1.74498761 11.8073845
4.14384365 -1.54455769 10.7892981
4.16114283 -0.672640324 11.9496651
-1.62670219 -4.26691771 13.9716492
-2.55000114 -3.36666656 13.0833359
-2.72977757 -4.26167583 13.7635927
0.0211410578 3.91074395 23.971426
-3.23139238 0.838699758 11.8930635
-3.20803738 1.22760653 10.8932705
-3.36326194 0.239319935 10.5621748
-2.40165257 1.49016738 11.3763199
1.66841733 2.54219079 45.2859688
2.32222247 3.14999533 44.1222191
2.1027987 -2.48300838 12.6071215
1.51819706 -2.31813669 13.5534306
2.29305243 -1.56764662 13.5996275
2.71902823 0.476346821 12.504837
2.24283981 -0.472026765 14.1625624
-3.40000153 -3.13333583 13.0666666
-3.12499976 -2.22222114 13.0277796
-3.40000153 -3.13333583 12.1333342
0.839174867 0.780689359 7.32032156
-3.71083355 -4.32559013 21.6699867
-4.55709028 -4.33112955 20.3990784
-0.880630314 1.90666044 8.95059013
-0.004256716 1.70535326 9.16689682
4.24906445 -1.26795673 2.25375533
1.70017803 3.05283833 16.1228771
0.786535978 2.91479278 15.4570913
0.172333658 2.81068683 16.8051968
0.0913768783 2.3191123 14.7312164
-0.323865145 2.94905543 15.5374784
-3.47672987 -3.92232323 13.530345
2.65762877 4.26855516 40.3290482
-2.75000024 -4.25000191 12.750001
-1.07138765 2.14208484 22.2164631
0.0559105724 2.73824048 22.6897221
0.694446504 -2.08333325 7.88491917
1.48148298 -1.47569335 7.25380087
1.69713128 0.00759811187 7.67781925
2.2685194 -0.868056536 6.62268543
2.77777982 0.0 31.7777748
1.66666913 0.0 30.8666668
1.55555737 -2.33333302 7.9481492
-0.813834131 0.308339536 20.9456558
-1.0237782 1.7438221 20.7349167
1.50583875 1.53106856 21.2320518
0.575252116 -1.83720374 31.237154
-0.833334565 -0.833334565 13.6761913
-0.583607197 2.47906208 41.1955757
-1.32593548 2.47520447 41.8372459
-0.659331799 3.46326947 41.9864197
-1.51632845 3.22260666 41.4269447
-1.51552403 2.33245873 40.4658585
0.0973945558 2.32427478 40.4272881
-0.0253407639 3.33675885 40.9783554
-0.41174227 2.73532653 43.3839836
-1.76897597 1.78242385 42.0056381
-1.7254777 1.7651943 42.9257164
-1.71665382 0.0249955393 37.2042961
-1.63711917 0.192439049 36.1183319
-2.26414871 -0.784100413 25.5630016
-1.69136059 -1.64197767 25.6748676
0.471342653 3.18940806 5.23502445
-0.213329896 3.76888514 4.47999907
0.295753092 3.32308912 3.56089997
0.511116326 4.17777681 5.37777996
0.946992695 3.76478672 4.45582056
1.53148663 3.31111073 5.27870321
-4.24032593 1.64689946 15.2655869
-3.23944974 1.64923048 14.2660027
-3.43923664 2.52888846 14.3804464
-3.29408073 2.1271863 15.2496777
-3.21456194 0.854757488 15.5714207
-2.31706619 1.5086385 15.2821579
-3.24394083 1.68939698 16.0699501
-2.47791243 2.49131918 14.3926306
-4.20267725 2.63684559 16.2234173
-3.35555601 2.58888793 16.4111099
-4.22134829 1.6628114 16.291275
-2.51447463 2.30439115 15.9596624
-3.39687538 3.12812901 15.1825113
2.2685194 0.868053377 33.6226807
-1.89849865 0.73232621 20.6728802
-1.72127473 1.37844765 21.4986515
-1.75245905 -0.693414032 20.9623585
-0.694687247 2.03626871 27.3854523
-0.171681225 2.26810765 26.4726524
-1.87141585 0.785750568 25.4976883
0.640401423 -1.7196722 30.0536404
-0.437589794 -1.56343734 28.6796265
0.88199538 -1.2277807 28.6519718
-1.15231907 -0.944208682 29.3839607
3.33333182 1.04166663 32.9583282
4.31331396 0.372120619 1.35759628
4.28114796 -0.693442523 1.37371421
3.17085457 0.0392257683 1.6583662
3.66666698 -0.333331913 0.666668534
1.08793938 -0.826613724 38.5284004
1.74960542 -2.02649474 47.8490715
2.45838022 -1.29076052 47.9410896
1.37655365 1.06614268 23.0363846
2.47353864 1.10086787 22.7250805
1.6950599 2.2162416 23.3979797
0.817004442 2.18779373 22.2317066
1.40835226 -0.0819576234 23.3332615
4.21936846 2.61666417 33.7666702
-2.07870269 -1.92592657 8.43108368
-1.27777815 -2.33333302 7.45317602
-0.868056536 -2.2685194 8.47982693
-2.18094301 -3.13328528 7.93171453
2.35348272 1.51019049 13.8840542
3.13055515 1.5500021 12.6999998
-2.49000788 -1.40880835 21.9955788
-2.34062386 -0.484179288 21.8010044
-3.24339294 -0.0230857171 21.8783836
-3.09867716 -0.826683402 22.8990231
-1.82480741 -2.55770373 20.8668461
-1.73148263 -2.48148179 22.2203712
-2.06294274 -0.710079789 22.8315105
-2.36648083 1.93777502 3.17018771
-0.74222374 2.00888491 2.32000065
-2.53048801 2.901896 2.69688463
-0.839998364 2.68444228 2.95110941
-2.62222266 1.97777677 1.68888855
-1.84999931 2.66666794 2.04999995
-3.3390646 1.62175822 3.33393192
1.30718565 -2.58106494 30.0060749
1.54737341 -1.67349756 30.565073
1.65411437 0.0855175555 29.964819
2.2685194 -0.868056536 29.979826
-0.62881583 0.692026794 46.5067215
-1.66666913 0.0 44.3333321
2.48884869 1.06297553 27.4783344
2.93989611 1.07841241 28.3302021
1.81560981 1.68234038 27.7020969
2.12555194 1.1533041 26.6170082
0.713437021 2.01931787 27.2645035
-0.613410532 2.15719223 28.448555
0.0804056972 1.37726939 27.8612423
-1.35262859 1.18481135 28.3781986
0.725364745 2.08567691 28.2826691
1.66666913 0.0 27.7238102
-0.61115551 3.68815327 29.1308575
-0.547589779 4.4263134 28.4549332
0.586850405 4.30359697 28.3877754
0.000506751938 3.85920095 27.8780022
0.0831263214 -1.26953709 27.86726
-0.862970054 0.450008392 27.6309605
-1.98303747 -0.870986223 6.11095142
1.48888791 -2.33333302 38.7481499
0.688891232 -3.11111164 38.5777779
2.43835092 2.7175777 26.4217625
2.18591881 2.37626123 27.3321285
1.51622713 2.84571624 27.0964451
2.62771773 4.22434092 26.3349686
2.47136593 3.38775063 25.444891
4.24756956 1.34103668 0.747197747
2.2685194 0.868053377 34.6226883
2.80525208 1.6906575 34.6168518
2.642591 1.92222404 35.500927
-1.8215673 0.496724576 32.847187
-2.98577929 0.695802093 33.1498642
-1.8939569 0.865658998 33.9801559
-1.88570631 -0.50770843 32.2085457
-1.59847617 -0.0531804487 34.125267
0.975839555 -3.30947661 39.7563515
1.56289268 -1.58360934 41.1317139
3.42025876 2.49148393 30.6285706
2.60579443 3.31979513 31.4012146
3.36902618 2.46708369 31.5850773
2.03811836 -1.41145301 40.3731422
1.38508606 -3.00411725 40.8468094
2.42993259 -2.08229113 41.1922112
3.33333182 2.50000358 32.9444466
-3.25212169 -0.227151558 12.0764732
-2.84259319 -1.15432072 12.4870377
-4.22028399 -0.489731401 12.2658176
-3.33541584 -0.789415002 11.3453569
-4.24119997 -0.446296424 11.1775999
-4.26362085 0.652778864 11.3055544
-3.11574197 0.222223386 12.9231482
-4.15423203 0.609318495 12.3183365
-3.68658853 -0.574571192 12.8703032
1.57425654 2.37185884 8.61877155
2.25192332 1.57494068 8.40799141
0.920717597 2.21595025 9.23940086
-1.81851411 2.38991809 24.5832253
-1.5672729 3.22446251 24.5414906
-1.51169169 2.37921929 23.2636909
-2.25465345 3.11209655 23.6470966
-2.15888047 1.02260637 23.8713722
-2.84482932 1.58439159 24.8609276
-2.80525517 0.955563128 30.8280468
-1.59498584 1.72503424 31.2493343
-2.29026842 0.79243964 31.7047405
-1.65731001 4.24945688 35.6867714
3.21568942 -1.6906575 45.5212936
-2.58448243 -1.46718931 10.5240479
-1.72586405 -2.28381705 40.0364838
-2.34324622 -1.48962903 39.5096703
-2.05712152 0.695257306 40.5780945
4.27020836 2.66041589 34.6791725
4.26778889 2.65833187 35.6833382
3.19895387 -1.03895235 1.48781884
3.99554896 -0.309128165 2.28338146
3.33492804 -0.986500323 42.7099991
2.28127694 -0.919178307 42.0794907
0.945288718 -1.99578547 22.0397301
-2.02574086 -2.2502985 11.7679882
-0.777778685 -2.27778029 12.5944471
-1.0519917 -3.34495854 12.1973591
-1.79337931 -3.35424161 11.3723888
-1.89382386 -2.57177877 10.7614489
-3.24253774 -2.77488184 11.2483683
-2.58888793 -3.35555601 12.0555573
-3.12778687 -2.21302056 10.37677
-3.13568592 -2.1635108 11.8303595
-2.08333325 -2.77777648 12.5763903
-1.59313309 2.33772278 28.5021629
-2.23395252 1.48893213 28.7735786
-2.48148179 1.73148263 27.5685234
0.66661948 -4.12264252 41.4353142
2.22222114 -3.12499976 41.3472214
1.41604865 -4.24044609 41.2760658
1.36921835 -4.26298714 42.3121033
2.2736249 -3.14521933 42.3525352
1.79008853 2.85315895 21.6674576
2.56039572 3.32492614 22.420557
2.01443386 2.41285491 22.4167938
3.0918138 2.20986271 21.8577271
2.58888793 3.35555291 21.4111099
1.76960313 4.08195019 22.2016239
1.6754992 4.27230501 21.3258514
1.53254449 3.21658254 20.7681866
0.924188852 3.3298924 21.9403267
3.11111474 -0.777778685 27.1111088
1.03668141 -1.39409995 27.6935387
3.40000153 -1.13333488 2.40000081
2.51253319 -2.32228255 26.4587612
0.0351844206 -2.38475871 28.4173775
1.624596 -0.399387032 2.90938163
-0.280243307 -3.3648169 36.1141968
0.35895139 -2.56927347 36.2057686
-1.29788351 -3.24632263 36.0580254
0.32271862 3.49962258 42.1924133
0.754819691 3.0925169 40.2202377
1.60860169 -0.102351218 31.8435192
-1.40865636 3.36959624 31.3636703
-1.66666591 4.26362085 30.6874981
-1.32748735 3.3395586 30.3234158
-2.22222114 3.12499976 30.9027786
-1.56568933 3.38636971 32.5056038
-1.66666591 4.26708555 31.682291
-2.24747014 3.12835073 31.8589573
-2.07936478 1.44444573 39.6814842
3.83644795 -1.44156039 0.898377717
-1.04762089 2.1111095 39.4518509
-2.3601687 1.62636328 40.6544685
0.866666138 -3.35555601 2.41111135
-0.411108851 -3.35555601 2.41111135
0.167715892 -3.12835073 1.55572045
0.3381809 1.37153673 48.4069939
-0.74731338 0.692204118 49.2450333
-0.474829733 0.374597371 48.4037476
0.273810744 0.476188451 49.2261887
-0.312501252 1.66666281 49.2636261
-0.193078816 1.02424705 47.6221161
-0.911111474 1.33332765 48.3333282
2.47880244 -1.71524441 0.79699564
0.740104854 1.05264413 47.5617371
1.45300984 1.36664033 48.3112488
0.695770383 0.369048417 48.4412689
0.833334565 1.66666281 49.1666641
-2.35345411 -3.14173532 36.0439987
-3.89494276 -0.0502349511 30.0995216
-4.04444408 0.899997771 30.6555614
-3.28474379 1.08902252 30.049263
-3.33333492 1.04166663 32.0416679
-2.50419712 2.11167336 30.6885242
-3.40531921 1.8191191 30.8121967
-2.75626493 -0.00653709983 31.2314529
0.353364468 0.87935394 1.76656413
-0.624913812 1.30817378 1.65720391
0.144443303 1.92221773 1.65555382
1.52444279 2.00888491 2.29777956
0.340112895 2.36138177 2.68413663
1.37202454 1.84746552 3.3224225
1.83427095 2.29501605 4.10481882
1.68333495 -0.916666746 0.780633867
2.31996107 -0.789079249 1.79139185
2.67708182 -0.322918177 0.725964844
4.31833744 1.43403196 1.32917702
1.7252686 2.61423182 46.3213272
0.777775526 3.31428432 45.549202
1.75543308 3.44568515 45.6342545
2.36449194 1.05201066 45.9941444
2.58408022 1.43726254 46.973423
0.841569245 1.72580707 46.2331657
2.48796201 3.24433994 46.194603
-3.3953805 2.01638484 45.5970726
-3.334548 3.24205327 45.0900726
-3.48954773 3.38983464 45.9532051
-2.53093457 2.18478489 45.1758232
-3.37795448 2.61142564 46.4358101
-4.21337938 2.61503005 46.0738106
-4.21177053 1.78751671 45.9703903
-2.3555572 1.32698691 45.7460327
-2.30343151 2.11112213 46.2910576
-3.60198641 1.17321944 45.9750404
-3.357656 1.08273888 44.9445915
-3.35138178 2.43633032 44.377636
-0.736665308 -0.189541057 47.4536972
-1.37391853 -1.28621876 48.2877159
-2.28067517 -0.405420542 47.3158112
-0.978417635 -1.463943 46.7220879
-1.66666591 1.66666913 1.66667068
-0.690557182 -0.0467763692 1.66420341
0.326702982 -0.828992307 1.79886317
2.16616178 0.244913206 1.74180925
1.22647274 -0.491786927 1.81113923
2.1540947 1.2197392 2.71875739
1.0210861 0.509165347 1.29855657
3.00242281 -2.10181689 1.58577085
0.448798507 3.00648952 43.0452347
-0.441336602 4.18719006 42.5895309
-1.21794975 2.4018774 43.8660698
-1.49783838 3.26283002 42.9784317
-0.495891601 4.14929104 43.6773376
-1.21197641 3.20524406 44.4525833
2.48679018 -0.272689551 22.6946774
2.57911396 -1.68661928 21.1643372
2.27672243 -1.33631432 22.9445896
-1.10493779 -2.50617337 25.8124313
-2.41283917 -2.09406686 24.931572
-2.31171989 -3.17056632 25.9519405
-1.03605747 -3.33261299 24.9576073
-2.31932759 -2.62087989 26.671299
-1.55555737 -2.33333302 27.244442
2.48289442 3.37445474 24.5465622
-0.518214047 1.93864918 45.9547119
-0.000152025576 2.44738388 45.1650581
-1.47222209 1.66030931 46.4821396
-0.331814826 2.02501249 47.3409309
-1.08518398 2.80952144 46.4892845
-0.722758114 3.3020463 45.5747185
0.214812145 2.65396762 46.4772415
2.34648943 0.94358474 21.5402241
-0.183836937 0.864145041 19.9490509
1.50415373 -2.77654767 21.2419662
-1.84639502 0.956316888 19.0716801
-3.08196712 0.172973439 18.3784561
-1.95952415 1.87223935 18.5944061
-2.19702625 2.40836382 19.3683739
-1.24570072 1.72244978 19.6769676
2.0795579 -0.681435645 41.2428551
-0.664234579 4.2759223 31.6711807
-1.2407726 2.49790692 30.8633289
-2.35358405 -0.535741329 2.57130194
-2.30480599 0.0846845806 1.85904312
4.29891586 -0.35467568 18.639452
0.592329681 -4.40609407 49.2884178
2.09102941 -0.685546696 24.4501324
2.62738848 -1.99934542 23.816227
0.551713526 1.26308548 18.9096432
1.05218172 -2.0436101 23.1101322
2.00561023 -2.47690535 22.9598522
1.6770829 -4.2740407 47.6770859
1.9977175 0.826765776 15.5446959
0.691494703 2.25220203 20.8395214
2.59686303 0.866317749 17.1837482
3.21611381 -0.730695128 17.9318962
3.10925889 0.692026794 18.1675644
2.05511975 1.46107352 17.8781471
1.41356552 1.70337689 19.7105999
3.33333182 1.04166663 33.9583359
4.21936846 1.76666391 33.7666702
4.16666651 1.66666281 34.8333359
-1.66666591 1.32812083 49.2757378
-1.04071009 1.81574917 49.1497879
-0.398877114 -0.332983524 49.2439575
-3.32401705 1.36915505 22.1505146
-2.36772871 1.17510068 22.1347141
-3.17234302 0.843805313 22.9599113
-1.25738144 -0.38352254 48.4160118
-1.53199983 0.751753807 48.2657089
-1.66666591 0.312501252 49.2636185
1.66666913 0.0 6.63809395
2.5723424 -0.141364783 9.8713932
2.08335853 -3.64300489 49.2984581
2.13246918 -2.62528849 49.2652512
0.734505236 -3.47469974 49.2600822
2.55955958 1.49667287 9.47139168
-0.291398197 2.08277583 19.9869499
-4.17213297 0.547703803 18.9894505
-4.24363899 -0.53753078 18.9012566
-3.22065568 -0.259932071 19.1824436
-2.73691964 -1.73667693 45.6978149
-2.33259177 -2.51851916 45.4629593
-1.15777612 -2.51999807 45.8855515
-2.4680562 -2.56333184 46.6158333
-2.21853137 -1.75270927 16.6159439
-3.29826474 -1.05873775 15.9124842
-3.12616849 -0.796043932 14.7031364
-4.10775328 -1.62548602 15.2129955
-4.2555728 -0.461150587 14.8569927
-2.27473021 -0.75944376 16.430603
-3.32297206 -1.99890518 14.538518
-3.0488255 1.73485887 12.24366
-3.22569466 1.58980751 39.6674614
-3.2976408 2.61387706 39.0364914
-3.34933567 1.78123939 38.5653992
-2.51068974 3.3296833 38.9548149
-1.48888791 3.11111474 39.3111115
-1.59675956 -1.59076715 6.78939104
-2.76155734 -1.9222368 7.12551308
-2.40857601 -3.0916903 6.88260794
3.19001603 -1.63646984 41.3266296
3.35555291 -2.58888793 41.9222221
4.16420889 -1.80653584 41.7803993
0.511116326 -4.17777681 42.3777771
-3.27664542 -1.81874216 36.7006493
-3.29405546 -1.02236247 37.2329102
2.74864793 2.5175879 24.7060528
1.26790595 -3.3648169 44.123455
0.377777219 -4.25254822 45.2333298
3.35555291 -2.58888793 40.9222221
3.38931537 -2.58732963 42.9172592
1.57777846 -3.35999966 46.4177742
2.32222247 -3.15000176 45.7222214
-0.819763124 -2.33080864 29.2473164
-1.61358047 -2.7259264 30.0218678
-0.744073391 -3.37781191 30.2713547
-0.12891452 -2.60255766 30.1321373
4.29051638 3.60328484 31.8567333
-1.57492483 -3.06615639 28.9331551
0.472862899 -2.49158835 29.2186394
-0.133133233 3.43162274 17.4589138
-1.23764336 3.2590611 16.5665226
3.12533545 -0.813865781 12.3424931
-1.54457355 -0.0406256691 29.0275116
4.02777815 0.833334565 31.3611107
4.3632226 0.585368156 32.5537453
3.98603463 -0.0833321884 31.833334
1.13186216 -3.32620239 22.0480556
0.69857657 3.44236588 34.1547852
-1.97930658 0.599918246 16.8570118
-0.910189807 2.63787818 17.9518375
-0.291398197 2.08277583 18.5115032
0.643669963 2.58219886 18.0371647
1.44678938 1.9685539 17.1779175
4.38873768 4.58333683 33.5833321
4.31701326 4.3280921 32.3424416
-4.26778889 2.65833187 30.3166637
-1.27777815 -2.33333302 23.6865082
-1.16666651 -1.61111319 22.8931179
-2.63392878 -1.26676893 9.40063667
-2.76473403 -0.00139356777 25.0930958
-3.35255051 -1.02853227 25.0331192
2.45809531 -3.42313457 22.9059181
3.1073966 -2.18018937 22.7696457
-1.93184924 -3.35703826 45.2059212
-2.47407389 -2.10000229 42.6592598
-2.6259284 -1.04999948 43.7740746
3.33394003 -0.995539486 24.9594193
2.8491621 0.0210270379 23.9123306
2.74158502 -0.12330541 25.0072174
-3.40000153 -3.13333583 44.3999977
-3.37222195 -1.78055525 43.6638908
-3.3777771 -2.51111102 43.0444412
-3.36666656 -1.04999948 44.283329
-3.38333249 -2.09166622 44.8416634
-1.53855586 2.32886076 45.6033287
-2.66296244 0.822224021 46.663887
-2.09656262 -0.148807704 45.3095207
3.17756891 -0.752114892 11.0216055
0.667012215 4.27048111 37.3327522
0.655559659 4.23318386 36.3722229
1.66874683 4.27626419 37.3312492
1.69272876 4.15232515 31.1900501
-1.9934386 -3.30725312 14.9538107
0.513010323 -4.16776848 35.4589844
3.56652641 4.25821733 47.9694366
0.74074465 -3.47222304 36.1574059
2.26896286 -2.50131798 37.8811073
3.18688059 -1.68514967 37.823288
3.31511402 -4.22944021 11.3641481
2.58539772 -4.18839979 11.0013866
2.2685194 -0.868056536 37.6226845
-0.613106489 -1.31805861 1.70184875
1.62695241 0.0262972582 24.9067822
-1.03737819 -3.18366575 6.94893885
-0.792252779 -3.14920044 7.88225555
-0.574995577 -4.2442565 6.01250219
-3.11111164 -0.777778685 13.711113
2.1585288 -1.01650953 26.0740986
2.36710167 0.86653316 30.3176327
3.39285612 1.05541229 30.6946125
2.77777982 0.0 30.7777767
2.18681836 0.697506011 29.4298477
2.77777982 0.0 29.9206371
-3.18889165 -1.9405812 23.2454987
-2.33762121 -1.56104302 23.0603752
-3.11111164 -0.777778685 23.8888893
-3.25100684 -1.64345038 24.1529617
-4.26362085 -1.37499857 23.291666
-4.26773167 -2.3658886 23.32164
-4.21722126 -1.65630603 24.1675587
-2.46214938 -2.46287465 23.5394173
-3.13034606 -2.21577907 22.4187794
-0.784097254 2.96287727 23.4650898
-2.50553679 3.44006014 24.8972149
-1.73350966 4.2295351 23.7129917
-3.28391409 2.56566596 25.0593128
-2.45737004 1.75451458 26.4117603
-0.798178613 2.85222793 24.3686829
-2.49144578 2.12217569 23.8362064
1.55947208 2.31106758 28.6501713
3.0457437 2.21470857 27.9055882
1.65566623 3.2583642 28.1858482
0.701433361 3.10014367 28.3011398
3.38748455 -4.2915616 13.3065786
3.54936028 -3.9865098 12.2715473
-2.25598049 -0.88931483 31.2334347
2.59999847 -4.20000124 15.0999994
2.53333521 -4.21936846 14.0833311
2.22222114 -3.12499976 26.0972195
-3.39346743 1.67211032 4.5627799
-4.10359144 0.525742471 4.22764301
3.64115834 3.50971317 0.74671638
4.33602285 3.70310879 1.70713794
2.40740728 -2.08333325 25.3240738
2.22222114 -3.12499976 25.0972195
-4.23873615 -1.56666481 14.166667
-2.41632318 -2.0820694 29.786665
-2.24016976 -0.86166513 44.7815933
-3.1006155 -2.21367288 17.4041462
-1.92134356 -2.64872909 17.9252014
-3.09784412 -2.20644236 18.4051781
0.499879122 0.64144659 46.7175903
-1.64444482 -3.24444437 13.8111105
-0.037236765 2.54205132 28.8656368
0.0467383638 2.80212283 27.7002277
1.64282644 4.20861912 32.3540649
2.33333302 1.55555737 7.400002
0.90188539 1.89705753 7.97253942
0.457007885 2.51735997 37.6192131
-2.07908273 2.34887767 11.2256403
-1.04658842 2.53750324 11.1000481
-0.836571455 1.95373774 10.0522785
2.32222247 3.14999533 36.1222229
-4.31930637 -4.31429577 43.5097656
-4.30278635 -4.32285357 44.40308
1.54983115 -3.45900011 37.8059006
0.389419854 -4.26897001 37.586319
0.362238944 -4.32034826 38.3739815
1.64142013 -4.06341887 37.1380119
0.746584952 -3.44575167 37.1001701
2.5360527 -3.30822229 37.3336372
-4.42764378 -4.53516388 45.5161438
2.33798862 -4.27026224 38.3253708
1.63917148 -3.25787973 38.7223549
1.46010435 -4.25622511 38.257206
-1.80871797 -4.12119818 14.9517517
2.92632771 -3.09696054 12.1056623
2.2188766 -3.1197772 13.3452501
3.28268194 -2.29953265 12.9468956
2.16523075 -3.51104665 11.6940908
1.88929152 4.26263237 3.375036
1.41100013 3.35921431 3.51282811
1.99999785 4.1999979 2.40000081
2.72814345 3.71730423 2.89998126
0.271606356 3.23148108 38.3253098
-0.75051862 3.12119913 38.6985245
3.33984351 0.576575994 0.722138882
1.07225537 -2.35407186 48.3721581
0.644531429 -0.309764773 47.7037392
1.48402297 2.7111609 2.85590982
1.97975945 3.43228793 1.6447283
0.866666138 3.35555291 2.41111135
-4.20563269 1.67404866 21.2373219
0.55192256 -2.56142831 47.099678
2.61719012 2.24055934 46.3033257
1.22222233 1.99364448 47.3904724
1.92450452 2.74647522 47.2024879
0.920628905 3.34088874 46.5413513
2.46785021 2.3039794 16.9496479
2.72796607 1.95407975 15.2661095
3.54058695 1.27309382 3.86815619
3.44596386 2.60988641 4.0375824
4.15157795 1.80315006 4.04102516
-2.72668958 -0.247576818 20.6620827
-2.55975294 0.436104387 21.3980923
1.66328657 0.124781325 0.865894914
2.74857187 2.23535872 3.22039747
2.32222247 3.15000176 4.39999866
-2.49893951 -1.44470859 20.9868374
1.98910272 2.48024035 1.5963335
0.965356112 2.52920532 1.61041796
3.46630359 2.56387329 2.29321241
3.50282145 3.25451303 3.48495674
4.20647192 2.63635159 3.64872003
4.26724386 3.5181632 2.95564485
-2.03737092 2.09430432 10.0900755
-3.23497128 1.22214627 9.54284
-2.02316904 2.42555547 9.10296059
1.25000501 2.60416651 6.09821606
2.22976542 3.15015364 6.35233355
-1.75109708 -3.14541245 36.9841576
-1.36944962 -3.15188289 37.8893127
-2.58888793 -3.35555601 37.5888824
-2.31827617 -3.17312217 34.9083557
-2.66291499 -1.06655765 35.4370995
-0.183409363 -2.66720653 37.1464882
1.73410511 0.998155594 47.3755569
1.60491502 -0.0654026717 48.0088882
-0.961279929 2.49980736 1.58709478
0.324777305 2.34951735 0.728036225
-0.833331406 1.66666913 0.833336115
1.38888669 -1.73610997 15.5392866
2.40741372 -2.08333325 15.0740757
0.972222567 -2.3437531 14.6969252
1.33760977 -2.58981919 15.9251747
3.34912992 -2.52748537 44.4897232
3.1357429 -3.37931967 45.0648346
2.50737691 -3.3263166 43.3718147
1.99999785 4.1999979 46.7999992
1.79879832 4.12575245 46.0349731
2.59569097 4.15777922 46.020401
2.56578636 3.36886144 45.0849037
3.40000153 2.59999847 45.8666687
2.77717161 3.36391425 47.1427841
-1.55555737 2.33333302 7.37777758
-0.786390305 3.14400935 7.86830091
-1.30123448 3.25740147 5.80432224
-0.66869086 3.68347836 6.69383049
0.78652966 -3.51644659 34.3240395
0.736513257 -3.45684314 32.3966599
-0.188907623 -2.85045123 32.2252617
0.488553196 -4.16148806 33.3770218
-1.89814699 -0.868056536 43.1405411
-2.10714412 -0.694443345 41.6111145
0.710263491 2.16486335 7.06332541
-2.44415951 3.32698488 34.583725
3.22425985 0.815984607 26.9392262
2.77777982 0.0 26.7777748
3.10944247 2.16633272 26.8406372
-0.705506384 -2.33797598 21.9652309
-0.746629298 -3.11933374 23.2004757
-1.04166663 -3.33333492 21.875
2.33790636 -1.28921807 18.4070969
1.64282644 -2.22235751 18.514101
0.934710264 -2.09435201 19.3561363
2.13373613 -2.36485934 19.528616
2.39262915 -1.47010005 19.3528728
2.65630484 -0.685679734 19.8428955
-4.31489134 -0.575812697 0.624307275
0.296285182 3.33965993 44.5519791
-0.32812503 3.6562531 49.2757568
-0.53385365 4.32019949 49.3088531
-1.29790568 3.60649657 49.1714516
0.626478434 4.10757923 43.4295731
0.0 -2.77777982 22.9841251
-2.47643328 2.48297668 28.3110161
-2.3930316 3.31617188 28.0196209
-3.47500062 3.42500329 28.4750061
-3.3727541 2.58589172 28.0179482
-1.58639956 3.15251637 27.2439423
-2.78518462 2.59907365 27.0953693
2.68036294 0.0690069422 25.7909126
1.92000711 0.510717273 25.7968674
-1.41011643 2.30290246 47.4286613
-1.36625075 0.971126735 47.3133659
2.08333325 0.694446504 23.6349182
-2.58888793 -3.35555601 22.8666668
-2.58888793 -3.35555601 21.922224
-3.12913942 -2.20655322 20.408556
-3.27662945 -0.943689287 19.8485146
-2.35051823 -0.219518602 19.6454601
3.20934224 2.96489143 1.47609079
0.74577415 -3.17839551 23.3674603
-1.68333173 -3.23333383 23.044445
-1.81527722 -3.34444547 21.398613
2.23509264 -3.18533492 24.0330029
3.55849433 -0.948645949 21.3345909
4.22824955 0.572110236 21.637907
4.25532913 -0.41111201 21.7027779
4.25932598 0.617603898 22.7004261
3.35586333 1.16117775 21.7543831
-1.30123448 -3.25740767 43.0265427
-0.644442737 -4.18889046 42.5888863
-0.433944345 -4.29321814 41.609642
-1.89739645 2.55536628 17.4153557
-1.79999864 -4.20000124 41.7999992
-1.79999864 -4.20000124 40.7999992
2.61017156 -2.60702014 47.4640579
3.30019021 -0.955373108 46.2489014
-3.36458254 1.68228972 49.2723198
-2.60502791 1.94960773 49.2019768
4.29535627 0.653507292 43.5945396
-3.36666656 -1.04999948 34.3833351
-2.77897048 -0.00319253723 34.2097015
-4.16850328 -1.66076541 34.1054001
4.30529451 4.3541646 30.3541641
3.84278226 4.33229208 31.398035
-3.41653419 -2.50726295 34.5574226
-3.32677579 -3.30729437 33.95961
0.114696965 -2.87283993 21.6369953
-1.04166663 -3.33333492 20.8750019
-3.1862123 2.27040076 11.4572697
-2.39406395 2.56429148 12.6119547
-3.35625911 -0.956639946 17.0044403
-4.1729598 -1.63841772 18.1831894
1.31241786 2.2563827 11.77209
0.0 1.66666913 10.7174597
1.65716755 3.22565341 19.1904182
2.55578446 2.96969938 19.7614613
2.40120602 2.4465034 37.7201004
2.32222247 3.14999533 37.1222229
2.642591 1.92222404 36.500927
1.5500021 3.13055515 38.0944443
1.30123758 3.25740147 37.0290108
4.43047523 4.48722506 0.672774911
-4.286304 -3.42819262 18.3805599
3.17006898 1.57578945 15.9502277
2.28779483 1.96841455 20.8020229
2.9133296 0.649814308 3.68641281
3.46591091 0.917772114 2.47341967
4.20346928 0.745748818 3.24273562
3.63135266 0.0208876804 3.84725904
4.30312204 0.641465604 4.61032915
4.19735003 1.60355949 3.28710175
3.88889027 0.0 13.999999
3.52837443 -0.054051429 12.7916336
3.8594923 -0.836416245 13.2247381
4.27495909 0.667303622 12.0114155
3.11136174 -0.750946164 13.8179007
3.04088521 0.711353004 13.6343937
1.66350818 4.25089502 29.3239555
2.23272371 3.11094379 30.1315098
2.29837966 3.14004397 29.1388893
-1.57777846 -1.24444652 1.65556014
-1.98666716 -1.89037156 2.27555847
-0.622221708 -2.51111102 1.62222528
0.464305133 3.08997059 20.0774174
0.87548995 4.02816486 21.156189
0.79551816 4.14209509 20.2438202
-2.34374976 -4.31581926 0.680689752
-0.156516671 2.87884498 20.931406
-0.0674550161 3.83778429 21.0492954
3.14953923 0.177540541 11.294755
3.26165175 -0.000538423948 10.4768353
2.67010117 -1.71207726 4.31997919
2.21896529 -3.08396864 5.13029814
2.50842834 -2.06522942 5.06870556
2.31271458 -3.14791775 4.27642393
0.669387639 2.63902473 19.1525803
-1.99428105 0.633839011 26.6738834
-2.10705543 0.718042135 28.0579319
-2.0776577 -2.41473937 9.32048035
-3.1092968 -1.46350908 8.15691471
-1.95736098 2.24332118 44.6307831
-2.2651937 0.906927586 44.5976486
-2.20547318 1.23963559 47.5064735
-3.20470881 -2.20543194 19.4496593
-2.08480597 -2.64894128 19.2699718
-2.53984714 -3.33475709 18.5526848
-4.29840946 -0.282267153 47.0096664
-2.7596221 -2.01211882 41.3214417
0.909455001 -3.42838597 30.036665
0.322085202 -3.67567134 29.0350494
-0.720439732 -3.62549329 29.0865746
-1.12469471 0.860160708 29.6239204
4.30616236 1.83354247 2.48366237
-3.66666698 -4.33333397 44.6666641
-0.00835190527 2.72122622 21.9072132
3.49910307 -0.0300028808 19.843977
-2.2685194 0.868053377 42.1273155
-3.38343692 1.02336013 42.2882538
-3.39783192 1.82396495 41.8559189
-3.11111164 0.777775526 40.8888893
2.77777982 0.0 40.920639
3.11273003 -0.713769615 40.6959267
1.66874683 4.27626419 41.3312531
-2.59499431 1.01544213 43.34758
-2.38288069 2.1131618 43.6702881
0.370372325 3.12499976 7.08664227
0.0166531354 2.69871378 8.03830624
0.823820293 3.17454123 7.97221994
1.48344028 3.10482478 7.23972273
1.73187542 -4.27478838 2.28395152
2.84676123 1.39306736 23.5808125
3.13530588 1.68258739 24.5641212
-0.777778685 3.11111474 40.2222252
3.12237096 2.21550035 22.8521957
4.16666651 1.66666913 23.833334
3.37778044 2.51111412 23.622221
4.26362705 1.66666913 22.6874981
2.44642091 0.783007741 24.5537128
-0.707213521 -3.4330163 31.2219887
0.163959593 -2.63932562 31.4664268
0.694446504 -2.08333635 9.3730154
-3.19272399 1.20475209 21.141695
-4.07157421 0.544992685 21.170454
-3.15493941 0.497940779 20.1213856
-2.12697077 0.632280707 22.8352509
2.07055044 -3.07831836 29.4019451
3.19068742 -1.68489003 29.7205849
1.2588352 -2.62534237 31.0029449
-0.429488093 -2.438411 47.1504745
-0.223911509 -1.50770736 47.8820534
-2.80408955 -0.971025407 46.3416176
-1.53333318 -2.68444562 47.071106
2.52900243 2.25906849 47.7376633
3.45128465 1.31528091 45.6808624
3.61646056 1.62594521 46.605114
2.34028172 1.18806088 48.3467216
3.1438067 1.08076882 48.3702011
2.22059321 0.297057986 46.6703835
-3.14170361 -2.19030547 28.1595345
-4.23888159 -2.51106358 28.2513523
-3.47299266 -3.15315628 28.0945053
-4.16933012 -2.55846381 29.1587296
-4.08522177 1.66894317 13.143281
-1.705423 3.23333693 45.7075386
-2.38015366 2.90003991 46.9177246
-1.62224281 3.61731553 46.7770996
-2.22757697 3.1083529 44.8275108
-2.5148294 3.4127779 46.022789
-2.74759316 4.2305932 45.6896095
-1.67588246 4.1595974 44.8732224
-3.39264727 3.19429803 13.4207563
3.41621113 3.42048693 32.5149269
2.6473608 4.27037334 33.3406296
3.66666698 4.33333731 33.3333321
3.48075223 4.30671978 32.5092545
-2.4555583 -1.64629769 38.6574097
-2.50674033 -1.71963096 37.765873
-3.16461515 -2.22343421 38.3870125
-2.01892829 -2.64832044 39.0028305
-3.13472319 -0.846852183 39.170475
-2.00343108 -0.790726185 38.3179855
-2.925596 0.621379197 47.6065407
-3.32021022 0.0289767087 46.5804672
-4.18954611 0.736684263 46.7757072
-3.3843143 -0.226942524 48.4244423
-2.21059442 0.184159979 48.1822395
-3.36785436 1.27692616 48.5029716
-3.3220787 -0.0774760395 47.5740013
-4.23522997 0.237229586 47.802227
-3.40000153 3.13332963 12.0666676
3.5745647 -4.183671 2.57043409
-2.3857882 1.99268162 7.82573366
-2.07516503 0.701598048 13.6177654
2.2070694 -2.49668765 21.8656197
3.2403872 -2.24315643 21.8843918
3.50000262 -2.43333411 47.5666695
2.39999604 -3.40000153 46.8000069
2.67473173 -2.72280025 48.3548203
3.25000286 -3.41666722 47.75
1.8938967 -3.40564537 47.6250992
3.43333292 -3.23333383 46.7666664
-2.35907912 1.8329978 35.2048378
-1.61055899 2.66599035 35.8734016
-2.24407482 0.865196586 35.2616959
-1.67276907 -0.0428490415 35.0095787
-2.5647285 3.33964729 11.9615231
-2.43561459 3.36509895 11.0052786
-1.70635724 2.95276761 12.0286198
-1.01124251 3.41238523 11.6537819
-3.64049006 -4.31105566 14.4289808
2.60008717 0.365646869 2.82959032
-0.664234579 4.2759223 29.6711826
3.6941328 0.325961858 8.86144924
2.77777982 0.0 7.77777576
2.2685194 -0.868056536 15.0532417
1.31254447 3.30945754 44.706974
0.200236693 4.21466208 44.3621979
0.862466455 4.1347599 45.016037
1.77145278 4.17953777 44.2047119
0.85456115 -3.14616299 13.575819
2.23395896 -3.09890199 14.3580542
0.715052307 -3.34092689 14.8305178
2.19641495 -3.10938239 15.2614756
-0.333331913 -2.51111102 48.3777771
0.299997151 -3.40000153 48.3999977
0.917829096 -3.39092731 47.5344086
-0.2054784 -4.12310791 47.5460701
0.434824824 -3.36725879 46.5135269
-2.65105057 4.14311504 46.7174683
-3.08714867 4.19384718 47.5491371
-2.10619712 3.68836856 47.9824562
3.33333182 1.04166663 37.9583321
2.77777982 0.0 37.7777748
-0.066666387 3.66666698 2.40000081
0.0666695535 3.13332963 1.6000011
2.33333302 1.55555737 39.3481407
3.11111474 0.777775526 38.9333267
3.11111474 0.777775526 39.8222198
-4.28394461 -0.438539952 29.3568497
3.09425902 -0.84098649 39.1681061
2.03790283 -0.704730392 39.0329056
2.77777982 0.0 38.7777748
1.66666281 4.26362705 38.3125
-3.42606115 3.29311466 48.3418732
-4.05030012 3.57353854 47.1617622
-4.26362085 -1.37499857 45.2916641
-3.28876305 -0.791473687 45.3746185
-4.11735296 -1.7495389 45.9828606
4.24983692 0.585304797 2.24268603
-2.30759311 3.13147998 43.9637985
-4.29707575 -2.5479455 31.8964386
2.59999847 -4.20000124 7.19999933
-4.32034826 -0.626016021 36.6397934
-3.36666656 -1.04999948 36.0833359
-4.24977064 -1.41666615 37.2916679
-4.22207022 -1.49999833 36.25
4.29298687 0.653342605 44.6045036
1.79999554 1.80000186 0.800001323
-3.66888404 -4.32855797 15.6449127
4.24684715 -0.555343091 23.1659164
-0.018515449 -3.29166746 7.03426313
0.00942241866 -2.80722833 8.28586483
0.777775526 -3.11111164 7.86666632
-4.38873768 -3.41666722 49.4166641
2.47037768 -1.91018558 16.1722221
2.0040772 -0.833923638 16.310873
3.50000262 -4.25000191 45.2499962
4.31842613 -4.31583214 45.5130196
4.1999979 -0.799999774 3.20000052
3.34444237 -2.0819428 15.3652773
3.29967713 -0.936597943 16.9073181
2.51761317 -1.76722765 17.3015289
3.36766434 -1.10577393 15.9158669
3.37024236 -2.39508057 16.520649
3.05556202 -0.520833313 35.7430573
3.33333826 -1.04166663 36.7083321
4.2740345 2.67708182 44.6770821
4.16666651 1.66666913 44.8333321
-4.33333397 -3.66666698 47.6666641
-4.27407265 2.66742182 43.3334923
-4.38186502 2.60416651 49.3748894
-4.27700233 -3.49230003 44.3181877
2.86650562 -0.0417341888 18.9605427
-0.833331406 -1.66666591 0.833336115
0.293447375 -0.643258214 0.782458186
0.124508947 -1.70672786 0.870629847
-3.64583302 4.3541646 0.69471091
-4.4197793 4.44660902 0.612338424
-3.66666698 3.66666698 0.666668534
-4.33333397 3.66666698 1.33333242
2.32222247 3.14999533 43.1222229
-3.66666698 4.33333731 46.6666679
-4.31756115 4.32061148 46.5091248
-4.37193918 0.535826802 38.594101
3.25657153 1.85335648 20.8576679
3.39369869 2.7812953 20.2907162
3.40000153 3.13332963 21.6000023
4.26778889 2.65833187 20.6833344
4.16356277 1.70005774 19.9040966
4.26861858 2.65705872 21.6770382
4.31658268 -0.639524102 39.3607941
4.27053165 -1.48756075 38.9441223
-4.27232742 -3.36458588 36.3177071
3.62796378 0.881951034 20.6775322
3.10857463 1.37016857 19.585556
-2.31680012 -3.19661641 24.8619289
-3.44430113 -2.51993799 24.337326
-1.56399477 -3.05237603 24.1097412
-4.27704668 -3.33593845 35.3320312
4.25686836 2.72916317 45.7291679
4.33354616 3.66069365 46.6893501
4.33333731 3.66666698 45.6666679
-4.25805616 -3.5713532 34.3309441
1.66874683 4.27626419 36.3312531
1.35936844 -4.23936319 36.3009224
2.62660933 4.28234529 47.0746155
-3.2572937 -3.39227033 3.62846565
-4.33600378 -3.67888594 3.31787419
-4.2568779 -3.43756437 4.2678566
-4.25000191 -2.75000024 3.25000119
0.377777219 -4.25255156 25.2611103
0.0218378417 -3.72699904 24.1026688
-0.703707397 -4.20837212 25.1689644
-4.34377003 -4.33799601 3.40968513
4.32019329 4.30885458 27.5338554
-4.30885458 4.32019329 18.5338554
-1.51092839 -4.17321634 23.8198986
-0.750775158 -4.1490345 23.4847488
-1.82587159 -4.1495986 24.7265091
-1.75747907 -4.17073011 25.8040371
0.678426802 -4.30482578 48.6196365
-1.72916746 -3.54166698 49.2568665
-3.93189764 -4.27815199 18.4157124
3.34764123 -0.85440594 22.3932171
-0.466664702 4.202703 16.0500011
2.59999847 -4.20000124 6.20000076
2.96296597 0.694446504 36.8796272
2.96296597 0.694446504 35.8796272
-3.01347327 1.14057195 19.0349751
-4.18005753 0.674942911 3.31319952
1.34374774 4.31931257 0.684180021
-4.31230354 4.3349905 48.5677147
3.66666698 0.333335072 49.3333359
3.4161098 -4.25994349 41.2992592
3.48835373 -4.19283056 42.509964
0.74074465 -3.47222304 43.3240738
-0.372221977 -4.26640129 44.6916656
4.32019949 4.30885458 42.5338593
-2.6252346 2.27136993 41.6842613
-2.28585982 3.07787824 42.0781021
-2.93464804 1.75847352 42.7857437
3.66666698 4.33333731 34.3333397
3.66666698 4.33333731 35.3333359
4.30885458 4.32019949 34.4661446
-1.42395711 -4.27626085 33.8510437
-0.663886189 4.26639509 5.65694618
4.16666651 1.66666913 37.8333359
4.10270166 -0.841667473 37.3416634
4.1999979 -1.79999864 37.7999954
4.1999979 -1.79999864 36.7999992
-4.33333397 3.66666698 35.3333359
-4.16666651 1.66666281 44.1666641
1.03096151 3.37022972 11.8744221
1.10395908 3.28850341 12.8525734
-4.23873901 -2.46666884 13.2666655
3.10716844 1.06752992 11.7661352
3.14999533 2.32222247 11.8222237
1.04166663 3.33333826 10.874999
0.0 2.77777982 10.9206324
-4.27745485 0.647837996 29.4009132
-4.26778889 2.65833187 28.3166656
-4.33333397 3.66666698 27.3333321
-4.20000124 2.59999847 27.2000008
-4.26778889 2.65833187 4.3166666
-4.33333397 3.66666698 24.3333321
-4.26883698 0.485214978 17.766592
3.97425914 0.842050672 23.867609
3.86165881 -0.0152944066 23.9272594
-4.35748053 0.592595696 15.448451
-4.26779175 -2.36666775 12.3166676
-4.20339012 1.70700026 17.3005276
2.56547594 4.16214371 19.2268925
-4.24852562 -0.364351481 9.58555031
-4.25687122 3.54167032 21.270834
-0.139740005 -2.94910622 23.9724083
-2.84325218 0.00789582822 28.3171101
-3.11111164 0.777775526 28.8666687
-3.82633185 -0.0086211171 28.1226616
-3.83815169 0.0374869741 29.0863266
-4.26778889 2.65833187 22.3166656
-4.25687122 3.54167032 22.270834
-4.31330156 0.642289042 25.3911552
-4.26779175 1.68333495 32.3166618
-4.16666651 1.66666281 33.1666603
-4.30885458 4.32019329 13.5338535
-2.65984583 -0.668608487 0.726959348
-0.67708075 -3.64583302 0.725961685
-1.68230557 -3.49789953 1.78901005
-4.28074598 1.73182476 3.33212042
-4.24977064 -1.41666615 13.25
4.32019329 4.30885458 20.5338554
-4.27754068 -2.33889771 15.3268623
-4.29388952 -2.51185203 16.1846867
-1.39583242 4.01299381 0.713365734
-0.842459261 -3.08346844 38.6655846
3.66666698 4.33333731 17.333334
4.32019949 4.30885458 16.5338535
3.66666698 4.33333731 16.3333321
-0.0113797477 -3.82692409 13.0851345
-0.646339893 -4.298913 12.3615656
-0.024267083 -3.90105867 12.1197186
1.6457783 -4.17794466 17.0492516
4.29966354 0.376694053 9.9072237
-3.45553517 -4.29372835 3.59336042
4.22207355 1.66666913 10.749999
-4.15518856 -0.168514013 3.36334896
2.67968512 4.25717878 4.30679417
4.1978507 -1.74773037 9.76201057
4.33333731 1.66666281 48.6666641
-0.015874004 2.77777982 39.2222214
-3.80477262 -0.625357211 45.9258766
-0.773845017 4.18483353 45.2574539
-4.22207022 -1.49999833 42.25
1.38559282 -4.32128906 49.3539848
4.25686836 -1.89583504 47.7291679
4.26640129 -0.372221977 10.68472
3.12221909 3.35555291 43.4111137
2.59999847 4.1999979 44.2000008
3.66666698 4.33333731 44.3333321
3.66666698 4.33333731 43.3333359
-0.634576917 -4.27881718 38.2720985
-3.47500062 3.42500329 37.4750023
-2.6679697 4.27704954 36.6679688
-3.66666698 4.33333731 36.6666641
-3.66666698 4.33333731 37.6666641
4.28202868 -4.35139656 29.6150284
-4.2365346 0.768571675 40.3278961
-4.32552052 0.467852384 39.6915627
-3.86371732 -0.0627517253 40.1299896
-4.26571751 -3.42378712 20.1487522
2.67708182 4.2740345 37.3229141
-4.31930971 -4.31581926 36.5104141
-4.47189283 -4.47187662 37.4932404
-2.62127256 3.27606249 33.4476547
4.25000191 3.50000262 33.7500038
3.14999533 -2.32222247 10.5722218
0.708337843 -4.0902009 27.8958397
-0.610205352 4.3203454 39.6397896
-1.66666591 4.16666651 39.8333321
1.67918587 4.25432825 13.3224182
-2.65833187 4.26778889 27.6833344
-1.53458107 -4.30150032 30.9422493
1.64154685 -3.49344325 20.5211658
2.48670769 -3.31398344 19.6381588
2.66012454 -4.27530146 19.6765842
1.66355896 -4.26936579 19.6857872
0.656009376 -3.1958406 20.8096943
-1.79999864 -4.20000124 21.8000011
-4.2703352 -0.67824626 25.8014984
-4.12658882 -1.7051506 26.1576366
-4.2222476 -1.44116449 25.2045765
1.53713059 -4.24537754 20.955164
2.35820818 -4.19774628 21.1706753
0.810188651 -4.05700541 20.5525036
1.04166663 -3.33333492 19.7916679
2.52397299 3.83714461 49.3514252
1.34346271 4.32113695 49.3138046
-4.3203454 -0.626016021 27.6377583
-2.68337488 0.236520126 0.757354975
-3.17961192 1.06422973 1.58774722
-2.53192258 1.13911498 0.813075542
1.68818069 4.22588015 20.2833233
-3.84742212 -0.0321217366 24.1236458
-4.23873615 -2.46666884 17.2666645
3.03333473 0.824884474 25.3778973
4.29890966 0.646343112 33.6384354
-4.0440259 -0.888332963 31.0648079
4.31842613 -4.31583214 17.5130215
4.3065424 -4.34491634 16.6497097
4.23027658 -3.80379725 40.1104355
4.33333731 -3.66666698 38.6666641
4.31232595 -4.34363365 39.5104179
3.38463426 -4.27933311 39.3668556
1.6066823 -4.24043036 15.6849117
-0.740738273 3.47221994 36.842598
-4.27403784 -3.35416579 8.32291698
-3.38643956 -3.14129496 5.17257357
-3.66508007 -4.31718445 4.5600214
1.66874683 4.27626419 4.33125162
3.5697062 1.18450725 36.3603592
-1.63574457 4.17106247 34.7543983
-1.71537113 4.28408098 33.7233543
3.88889027 0.0 35.8888893
4.40609407 0.461384952 36.4139557
3.88889027 0.0 36.8888893
4.39624405 -0.552780867 6.42739582
-4.15358257 -1.52512062 9.21446514
4.3203516 0.376016259 37.3602066
4.22207355 1.66666913 36.75
3.37778044 2.51111412 35.9555588
-2.7063024 4.20985413 32.7266617
-1.6498735 4.14557266 32.8096542
2.62934566 1.11748934 0.7086941
-0.513887644 4.27055073 32.9965248
-3.36253667 -2.35166144 3.24087644
2.28889084 -1.55555737 38.9185181
3.22638822 -2.40555453 38.4680519
-3.36296415 -1.19259322 4.19259453
3.42500329 -3.47500062 45.875
4.28819799 -0.427337557 4.57266188
-3.33188438 -1.50792587 2.41528249
2.62000251 -4.28385258 48.6343651
2.67708182 -4.27403784 47.6770859
-2.35976315 0.683690727 49.273037
-4.20000124 -2.60000157 46.2000046
-4.29166937 -2.70833564 47.7083321
-3.34113264 -1.26367462 3.28373194
-1.4661442 -4.32019949 49.3088531
3.39195681 -2.56639767 36.627285
-3.1860919 2.3545785 22.3743286
-3.12480021 2.20723414 21.3566151
-2.10210848 2.21752119 22.3046532
-1.57555199 3.1303966 22.9435654
-1.62737048 3.237391 21.9330673
-1.32013941 2.46944022 21.2931767
-2.28883386 1.5816741 22.9847927
1.67499888 2.6624999 49.272625
4.33333731 -3.66666698 47.6666641
4.33333731 -3.66666698 46.6666679
4.33333731 -3.66666698 45.6666679
4.31147099 -4.31758022 46.5182343
-4.33333397 3.66666698 44.3333321
-4.30885458 4.32019329 43.5338554
-4.33333397 3.66666698 43.3333359
3.50000262 -4.25000191 46.2500038
0.872392476 4.20984173 45.8704453
-2.6259284 -1.04999948 42.4407425
4.31103373 -4.33409071 38.6512451
4.38873768 0.416664094 49.4166641
-2.25207853 -2.37557387 32.7379112
-1.78011191 -4.18353176 29.7914085
-2.00939488 -3.66686964 30.4708881
-2.32945323 -3.1549077 29.6641006
-0.767010212 -3.22338247 28.1497746
4.1999979 2.59999847 39.7999992
4.26362085 1.66666913 39.6875
4.32019949 4.30885458 29.5338593
0.761743188 4.24514961 23.3946514
4.1497283 -1.79788613 34.809639
0.441697657 -4.22862625 32.0178986
4.24893141 2.63208842 27.5895348
-4.23934412 -0.634291887 23.9458237
4.3256216 -4.36074591 25.312273
2.85740304 3.97456932 29.096962
-2.58888793 3.35555291 20.5888901
-2.50000048 3.33333182 21.6111126
-1.0897193 3.35852385 21.0237465
-1.66874993 4.27625799 20.6687508
4.21133041 -2.70786691 9.76038551
4.25525284 -2.74334264 8.68915653
-4.08292246 -1.70042515 11.0342808
4.33015108 -4.30832911 13.3518887
-4.20000124 -2.60000157 14.1999979
-0.668101728 -3.1507237 17.6851215
-2.32222247 -3.15000176 40.8777809
-2.75000024 -4.25000191 41.75
3.15301061 -0.758262396 38.1329498
-3.66666698 -4.33333397 22.6666679
4.30885458 4.32019949 10.4661455
1.44668806 -4.27774334 3.26247692
0.799996614 -4.20000124 3.20000052
1.85648572 1.06879687 0.942161083
3.35668039 -4.27496243 8.3202219
-3.39824057 -3.13764 23.1461296
-4.29692078 -3.30879545 23.3506546
2.44725704 -0.71966058 49.2229271
2.59999847 0.200002313 49.2000008
1.62956214 -0.631501615 49.1395264
-3.68317127 -4.30598831 23.6942558
-4.37499857 -4.33310604 48.6250038
-4.33333397 -2.33333302 48.6666641
-2.53385472 -4.30885458 49.3201981
-4.41649532 -2.44791913 49.3506165
-3.45833492 -4.45833397 49.4443703
-4.33333397 -1.33333397 49.3333359
-0.67708075 -3.64583302 49.2740364
-4.47562027 -0.572917879 49.4999428
-2.41278219 -2.80081153 27.8095284
-2.73400903 -2.77653193 28.842186
-2.57302022 -3.6776824 28.0384026
-3.05858684 -3.33987522 27.1293583
-1.69529736 -3.40758061 27.4336452
-3.47049689 0.668621182 49.2007446
-4.50000143 0.499999464 49.5
-4.31581926 1.65624905 49.3193092
-4.31272793 1.33334029 48.6542282
1.59031427 3.28348637 8.67237377
0.759469092 3.11390185 8.96511745
3.18246555 2.27210474 8.85268211
2.3189981 2.44209456 8.37141705
2.50000358 3.33333182 9.38888931
3.12221909 3.35555291 10.411109
1.75004244 3.31440473 10.1536379
3.13875818 -2.25800753 39.3355103
4.25000191 -2.75000024 38.7499962
3.37778044 2.51110792 9.95555496
-2.35535455 1.68612838 6.86671495
-4.25000191 1.74999809 47.75
-2.22222114 3.12499976 7.65277624
-4.30885458 4.32019329 44.5338554
3.25042081 -1.89622772 43.3907318
4.22709036 0.853015542 46.7226639
4.26753521 0.691260338 45.7067909
-4.24839306 -3.50772429 45.2741623
-4.33333397 2.33333302 48.6666641
-2.32037592 3.65380812 49.2458687
-2.66666794 4.33333731 48.6666641
-3.46666789 -1.66666591 49.2666702
0.249999732 4.25000191 47.75
-4.33333397 3.33333826 49.3333359
-4.44010639 4.38173819 49.4296227
-2.77777982 0.0 42.2222252
2.7543931 -0.00438340427 43.9889183
-3.49999928 2.75000334 49.25
2.77038741 0.0255212933 41.8188744
4.29171991 -4.32143784 40.6087151
-2.7320168 1.09842277 34.355381
-3.32535362 2.46141458 34.3801994
-3.33333182 -4.33333397 48.6666641
-3.66666698 -4.33333397 47.3333359
-4.44436646 -4.54166603 47.5416679
-4.26778889 -2.36666775 45.3166656
2.46614623 -4.30884838 49.3201981
-3.35784602 2.57772684 7.42545366
-3.31118679 1.08449352 7.28031969
-3.22648954 1.62685108 8.23120785
-4.28791618 -0.790418983 48.6419296
-2.04652715 0.669831038 6.53575563
-1.57510531 -1.91768551 49.2793388
-3.64583302 4.3541646 49.305294
-4.3177228 4.34383345 47.6403351
-4.31692791 0.328717321 48.685688
3.2568059 -0.125449613 47.555851
2.5488925 0.620619118 47.4374809
3.31885147 -0.00201433897 46.6624222
3.27838087 -0.0955322385 45.8199425
1.41666305 -4.24977064 45.2499962
-4.23873901 1.73333228 41.2666664
-3.33435178 2.58506823 41.4650993
-4.27360058 2.66299415 42.3292389
1.81709206 2.4579432 13.2035685
-0.325537443 -4.27832603 48.6620331
-4.43694878 -4.4197731 46.4218025
-3.28686595 1.7619828 40.7043114
-4.2740407 -3.35416579 46.3229179
-3.66666698 -4.30540562 46.0000038
1.02990997 3.53462648 16.9265938
1.4974519 3.00514674 17.6797504
0.858501136 3.88785791 18.0075741
1.32291389 4.2740407 47.6770859
-1.66853464 4.26403856 45.9417648
-4.27000904 -1.67896414 46.680603
0.62482512 4.27678347 16.185503
2.65394855 4.26398182 45.2991905
3.64629555 4.3307209 45.3552513
-1.28536355 2.68087602 49.2442665
1.65071905 -4.33717251 48.6873703
-2.60416651 4.34718418 49.3122711
-1.4661442 4.30885458 49.3201981
-4.19501305 1.77672291 46.7778244
-4.26778889 1.68333495 45.3166656
-4.05360365 2.60773277 47.382309
-1.66666591 4.33333731 48.6666641
-4.25786591 2.65837002 45.3061066
-3.16614175 1.67250311 29.0178776
-1.57777846 -3.35999966 46.4399948
1.85185528 0.92592448 7.85714293
4.67242384 2.57703638 0.481415868
3.43229413 -4.31230354 49.3349876
4.32019949 4.30885458 43.5338554
4.33333731 3.66666698 42.6666641
-3.13630342 2.23157716 9.14291763
-3.70108175 0.777230799 8.27526093
-3.32707357 2.56030703 43.0228729
-4.3119173 0.568499684 45.4102821
-4.22207022 -1.49999833 44.25
-0.621173322 4.23524284 34.7726593
-4.32324982 3.62795115 46.3311157
-4.20754242 2.62443662 44.2089958
-4.10104227 0.833119154 43.1794167
-3.32655096 1.11006546 43.9758835
-4.30884838 4.32019329 45.5338554
-4.31457758 3.64712524 45.3531036
2.58501124 3.36393332 16.4058323
3.3562181 2.51046181 15.6564569
-4.27626419 -2.33750105 44.3312492
3.29089761 -1.55735636 20.3162117
-4.20000124 1.80000186 42.2000046
-4.15160942 1.82422459 43.170166
-4.32034826 -0.626016021 44.6397934
-2.6679697 4.27704954 44.6679688
-3.66666698 4.33333731 40.6666679
-3.66666698 4.33333731 41.6666641
2.77777982 0.0 34.7777786
3.41412711 -2.59879804 37.5912094
3.17712569 -3.39446521 38.0860901
-2.76987123 1.57258427 33.6372757
-3.88063979 0.012222223 42.1344872
3.36017704 -2.51786351 32.9145927
3.29919577 -1.81260419 32.4460793
3.37164235 -2.52643704 31.9287186
3.33256531 -0.993281305 32.8865356
3.33846283 -1.7734164 33.4298325
-3.36452889 3.13798523 9.44442272
-1.73104882 2.89327478 10.5138092
3.53140211 2.35471797 0.759714544
-4.25000191 -3.49999928 43.25
-1.02341092 3.3324008 10.0726023
-3.19356346 2.34329057 10.2185431
-2.49859118 3.3705337 9.98031902
-1.49559915 2.70492148 48.4212379
-0.549996853 -4.24842119 46.1749954
4.41408825 -0.511173368 49.3500061
-0.435714811 3.53298569 46.3412247
-4.30963039 0.615348876 44.3965073
-4.32034826 -0.626016021 43.6397934
3.40924954 3.37957287 17.0336533
2.27961087 3.37479043 17.3771076
3.41385484 3.38240457 17.9694252
2.6679728 4.27704334 17.3320293
3.42619419 3.4283669 16.0778694
2.6679728 4.27704334 16.3320312
4.26778889 2.65833187 17.6833344
4.27489614 3.65104628 17.6744804
4.25686836 3.54167032 16.729166
-4.30885458 4.32019329 42.5338593
-4.298913 0.646343112 41.3615646
-4.43632174 -4.51020288 38.5001106
-4.26779175 -2.36666775 43.3166618
2.36358595 2.41397619 7.41016197
3.42760682 3.44702792 7.00167274
2.66625619 3.32832146 7.4313159
3.3400209 2.48103213 7.90488529
-4.21514368 -1.52082908 43.2395782
2.66770697 -4.27091455 46.6927147
3.37499952 -4.27060747 47.3125038
-4.27227974 -2.34085822 40.331398
-3.33333492 1.04166663 36.2916679
-3.34444547 1.81527412 35.8513947
-3.30214119 1.08553863 35.0413971
-4.26779175 -2.36666775 41.3166656
-4.17422342 2.60643411 40.1843071
4.2165308 -2.70185566 43.7265816
4.25742579 -2.76849341 44.7203522
-4.26290798 0.604833782 34.069458
-3.84523368 0.0600881092 34.1468658
-4.27626085 2.66562915 41.3312531
-4.30885458 4.32019329 41.5338593
-3.35555601 2.58888793 35.4111176
-3.66666698 4.33333731 44.6666641
-3.66666698 -4.33333397 43.6666641
-4.31108427 -4.33168697 41.3885078
-3.66666698 -4.33333397 41.6666641
-4.22087002 -1.45860314 41.2951279
-1.79999864 -4.20000124 44.7999954
-2.75000024 -4.25000191 44.7499962
-4.24164343 -3.54543281 41.2780838
-4.2193718 -2.53333521 42.2333336
-4.32034826 -0.626016021 42.6397934
-2.77817249 0.0151518825 36.2366333
-2.74351072 0.0119783487 35.0659676
3.66666698 4.33333731 37.3333359
0.126662642 -2.65366673 19.8396492
-2.75000024 -4.25000191 42.75
-1.66666591 4.19436693 43.7916679
-4.33333397 3.66666698 40.3333397
-4.33333397 3.66666698 42.3333359
-4.32034826 -0.626016021 37.6397934
-4.33333397 3.66666698 39.3333321
-2.33524919 -1.01880896 48.3877029
-2.4013865 -1.549999 47.5625038
-3.63975525 -0.905157149 47.5907784
4.23213243 -4.19561481 41.6793785
3.85684466 -3.49975872 42.6003418
4.26756716 -2.77991438 41.7410698
4.04182196 -0.906712234 41.835186
-3.66666698 -4.33333397 39.6666679
-2.6679697 4.27704954 43.6679688
-1.60652077 4.08552265 42.6592484
3.18698192 1.72524965 29.9998875
-0.639790177 -4.32034826 40.3622437
-3.47500062 3.42500329 35.9749985
-2.75000024 4.25000191 35.75
-0.937776148 3.35999966 3.58222151
-4.32019949 4.30885458 36.4661446
-4.30963039 -0.615342557 41.6256828
-4.32234383 -0.63267976 34.6370926
-4.29213524 -0.628635287 33.6683769
-4.27263451 1.67499888 40.3250008
-4.26451063 2.59243512 39.2982521
-2.6347394 4.31497383 42.6266708
-2.08101487 -2.76011944 2.68072248
-4.33333397 3.66666698 41.3333359
2.77777982 0.0 5.01587343
-3.20215273 -1.58422685 31.5916653
-3.36944103 -1.07089031 30.3923092
-3.35505557 -2.54483533 31.0721798
-4.15031433 -1.77190244 30.9563618
-4.30885458 4.32019329 40.5338593
-4.27489901 -3.34895873 40.3255196
1.66874683 4.27626419 25.3312511
-1.79999864 -4.20000124 45.7999992
-4.25000191 -3.49999928 42.25
3.11843729 1.66925991 25.5312786
3.38400698 2.52802062 25.6127834
-4.25686836 -3.45833492 39.2708321
-4.13283777 -1.67969263 40.1337166
-4.26373768 -3.41666722 38.2916679
-3.3777771 -2.51111102 42.0444412
2.54278612 2.59634352 38.7699585
-4.30471849 -0.618462205 39.6326218
-4.32034826 -0.626016021 40.6397972
3.33333182 2.50000358 37.9444466
-2.71355844 -4.30577612 37.7516708
3.33162785 3.35709858 37.9374275
3.40000153 3.13332963 36.9333305
2.49295354 3.45060062 38.1866035
-3.66666698 4.33333731 43.6666641
-4.2617774 -1.37406731 35.2914848
-4.2493968 -2.43932009 34.2638893
-4.20000124 -2.60000157 35.2000046
-4.298913 0.646343112 37.3615608
-4.30884838 4.32019329 39.5338554
-4.20000124 1.80000186 35.2000046
-4.27263117 2.6624999 38.3249969
4.20116377 -3.76005507 13.8605061
-3.40677929 -3.14691377 40.4652596
-3.66666698 -4.33333397 40.6666679
-4.26778889 -2.36666775 39.3166656
-3.33985639 -0.431429595 2.5076952
-3.25009775 -0.0361884236 3.34313273
-4.25000191 -3.49999928 37.25
-4.01893234 -1.36275101 39.3666534
4.04760504 0.80595094 42.39011
4.22855997 -0.225640804 42.6812325
-2.48277736 -1.16200757 1.56177294
-3.43673134 -0.561376631 1.58304071
3.38762403 3.43938875 34.4000893
-4.25527525 1.6491102 39.3271179
-4.33333397 3.66666698 37.3333359
-4.26778889 2.65833187 37.3166618
0.738825321 -3.49066567 31.1479588
-1.29654384 -3.39806318 32.0756493
-4.30885458 4.32019329 38.5338554
-0.617774963 -3.35999966 46.4399948
-2.96296597 -0.694443345 32.1203728
-4.2187953 -0.687538862 31.847023
-4.33333397 3.66666698 31.3333359
-4.33333397 3.66666698 38.3333321
-4.33333397 3.66666698 36.3333359
-4.26779175 -2.36666775 37.3166618
-4.27626419 -2.33750105 38.3312492
-4.26362085 -1.37499857 38.3125
-2.51433206 3.34723592 35.6183281
-2.75000024 4.25000191 34.7500038
-4.27177 -0.551127553 38.6459503
4.29589462 4.45218945 3.52915192
4.33333731 3.66666698 4.66666746
4.37498569 4.3270154 4.62239647
3.66723704 4.27977991 4.32525921
-4.18512487 1.75659859 38.2032433
-4.298913 0.646343112 36.3615608
-4.26778889 2.65833187 36.3166656
2.91486883 3.85001612 1.8919884
2.66666794 3.66666698 0.666668534
2.24999762 4.25000191 1.49999988
3.66666698 4.33333731 1.33333242
3.67103124 3.42587113 2.29306984
-2.43390727 3.34945297 42.8773537
1.37499535 -4.26362085 33.3125
-3.64583302 4.2740345 39.6770821
1.53958833 2.29190588 14.192894
0.683164954 2.09252453 13.9881067
-4.31424522 -4.34427357 35.3902397
-4.23873901 -2.46666884 36.2666664
1.78618026 4.20280409 39.2169647
2.66826439 4.24685335 38.3588562
-1.79999864 -4.20000124 37.7999954
-1.79999864 -4.20000124 39.7999992
-2.76151609 0.0187941622 43.127491
-4.26779175 1.68333495 36.3166656
2.22949314 -3.14287853 34.0892296
-2.53610969 3.29752994 37.6372414
-2.758672 4.27129793 37.7500954
-1.6706028 4.26471663 36.6889381
-4.27626419 1.66874683 37.3312492
-2.65499687 4.25731182 38.6777229
-4.30885458 4.32019329 37.5338554
-3.39918733 0.329205066 9.59278393
-4.26640129 0.663889349 10.315279
-2.65680528 4.26801062 39.6766815
-3.44643879 -0.826645434 10.1034155
-4.2612896 -3.3908608 31.3302193
-4.30490208 -4.33911085 34.3526878
-3.86356854 -4.26595497 33.6467514
-3.65276599 -4.29578352 37.6897202
-1.79999864 -4.20000124 38.7999954
-4.32657194 0.439816326 35.655674
0.448963195 -4.44896221 39.440834
2.40741372 -2.08333325 6.49074316
-4.20388079 -1.3813076 27.2644653
0.450515151 4.2232008 33.7801857
1.66030931 4.26116276 33.3272247
3.52463078 0.683785737 9.76553535
-0.644442737 -4.18889046 35.7222252
3.12499976 2.22222114 10.8472195
-4.32034826 -0.626016021 35.6397934
-4.18587875 -2.5790031 33.1901741
2.74999714 4.25000191 34.2500038
-4.30885458 4.32019329 32.5338554
-4.30885458 4.32019329 31.5338573
-4.33333397 3.66666698 32.3333321
-4.30885458 4.32019329 35.5338593
-1.68470943 4.19470882 37.8682632
-4.30885458 4.32019329 34.5338593
0.691995084 3.25217557 14.2366838
1.67990804 3.67104411 0.655450344
1.46708488 -4.21844053 34.3043251
3.36981797 -1.03715014 43.9942665
-4.25146198 -3.34808159 33.3179512
-3.91594148 -0.0479862392 33.1277008
-4.298913 0.646343112 32.3615608
-4.19561481 -1.63075304 31.7813931
-3.40000153 -3.13333583 38.0666695
-3.64447117 -4.31059361 38.6626015
-3.4324367 -3.11993551 39.3507652
-4.26708889 1.66666913 34.3177109
4.27574492 1.66666281 40.6692772
-0.00737640774 2.79573774 8.94901276
0.0068031447 2.79398322 9.95314789
-4.33333397 3.66666698 33.3333321
-4.33333397 3.66666698 34.3333397
-4.27687216 2.66754842 34.3266678
1.79506099 -3.25740767 44.9228363
-2.67708182 4.2740345 33.6770897
-4.20000124 2.59999847 31.2000027
1.02091515 3.83922863 27.8119659
1.78316498 4.21956491 28.2072773
0.652544439 4.31624699 27.3442917
1.68003464 4.26294947 27.3187447
0.767646849 3.15896487 26.6106091
0.776280642 4.20896101 26.2394199
3.33333182 -1.04166663 34.9583359
4.3203516 -0.626016021 35.3602066
4.17291212 -1.79053831 35.785778
-1.64212644 3.42881036 36.4020691
-4.26681328 -3.43402982 32.2818031
-2.75000024 -4.25000191 34.7500038
-2.75000024 -4.25000191 33.7500038
-4.39385605 -4.35229588 32.4125595
-4.39041662 -4.33889866 31.3528633
-3.66666698 -4.33333397 31.6666641
-1.79999864 -4.20000124 36.7999992
-4.298913 0.646343112 31.3615608
-3.47500062 3.42500329 34.4750061
-4.26875496 2.65965581 33.3265533
-4.30884838 4.32019329 33.5338554
0.0234372765 0.55902338 0.756325662
-0.804018974 -0.238800511 0.828224242
4.53195238 -4.35349321 31.6268463
3.50000262 -4.25000191 31.25
-4.21585608 -3.52226472 30.2786255
-4.20000124 2.59999847 29.2000046
-4.2368865 -2.50633168 30.2319355
-0.977008224 4.00801516 23.8069515
-4.26779175 1.68333495 31.3166637
0.779675841 -3.13053918 8.80900955
-4.27626085 2.66562915 32.3312492
2.40740728 -2.08333325 7.49074221
2.43631768 -2.74968338 16.8632832
-4.30885458 4.32019329 30.5338573
-3.51334286 -3.92374229 17.5826969
-4.16196632 -4.32538128 17.55583
-4.26373768 -3.41666722 17.291666
-4.31883764 -4.31386185 29.5096931
-4.34204674 -4.31045389 28.5099926
-4.26362085 -1.37499857 28.3125038
-0.866666138 -3.11111164 39.9333344
-4.24192238 -3.41385794 29.3191986
-2.20445633 -1.12405491 40.6870308
-3.36995411 2.58643651 31.412199
3.88889027 0.0 34.8888893
3.36666989 1.05000269 34.966671
-1.6792239 -0.657114744 0.77685225
-4.2702117 1.67916691 30.3208313
-4.23052979 -1.5842396 29.1913967
-4.33333397 3.66666698 29.3333378
-4.33333397 3.66666698 30.3333359
0.427635282 -2.90170598 18.8412609
4.20369101 -1.75869203 42.7929153
-4.15433025 -1.63665032 30.0984116
2.69787121 4.25727987 31.2826538
-3.88885546 0.0640281066 35.1113548
-4.36668158 -4.34548664 27.0609474
-2.6679697 4.27704954 31.6679688
-3.66666698 4.33333731 31.6666641
-4.27626419 1.66874683 29.3312531
-2.67492175 0.0528700612 38.1156578
-4.298913 0.646343112 28.3615646
-4.32019949 4.30885458 29.4661446
2.22222757 -3.12499976 6.34722471
-3.3777771 -2.51111102 37.3777771
4.25211763 3.62914824 28.6820278
-0.755092025 -3.17012596 26.956728
-4.28363752 -3.46249342 28.2831821
-3.66666698 -4.33333397 30.6666641
4.26362705 1.66666913 32.6874962
0.687447011 -4.28068256 29.6600914
4.1999979 -1.79999864 32.7999954
4.26866913 -0.416727453 19.5910664
3.52781057 -0.94883281 19.102972
2.3018384 1.66374266 19.0811539
4.16303062 0.744342566 18.7555943
-1.66666591 4.22206688 29.7500019
-3.66666698 4.33333731 25.6666641
-2.67553926 4.24671412 25.6673107
-4.27626085 1.66874683 27.3312492
-4.30885458 4.32019329 28.5338593
-3.66666698 4.33333731 28.666666
-2.6679697 4.27704954 30.6679688
-4.29637289 -3.31443 27.3139305
3.83702421 0.0197791606 25.9077644
3.7650528 -0.0060271807 24.9691505
-4.28174639 -0.433820814 28.4096546
-4.30885458 4.32019329 22.5338535
-4.25000191 3.50000262 23.2499981
-3.66666698 4.33333731 22.6666679
2.77777982 0.0 14.7777777
3.3059926 -0.999327481 14.9460382
1.64444172 -3.24444437 27.122221
1.58333373 -4.19436979 28.2083359
1.37499535 -4.26362085 27.3125
3.65400457 -4.29259109 1.64480114
4.32019329 -4.30884838 2.46614456
-0.606987476 -4.41866159 49.3059578
-4.20000124 1.80000186 28.2000046
-0.566665828 -4.21103907 43.8583298
-2.59999847 -3.40000153 46.1333351
-3.40000153 -2.60000157 46.4666634
-0.852160394 -4.19392014 31.668108
-0.436389416 -4.30165577 30.7135201
-3.40000153 -3.13333583 45.4000015
-3.66666698 4.33333731 29.666666
3.3994503 -2.54932022 45.8233109
-4.32019949 4.30885458 25.4661427
-3.66666698 4.33333731 26.6666622
-4.30884838 4.32019329 27.5338554
-3.66406035 4.27704334 27.6679726
-1.94166434 3.56666589 3.44166756
-3.24999976 3.41666722 2.25000238
-3.40191126 2.23858309 2.54925203
-3.19999909 3.13332963 3.33333349
4.27129173 -3.61373663 5.56389093
4.33333731 -3.66666698 6.66666842
-4.26071644 -3.5883832 0.738706529
-4.32942867 -4.33058786 0.684037447
-3.60642052 -4.31946802 1.30104601
-4.32070637 -4.30889893 1.51312792
-4.27253008 -3.40952206 25.3325424
-4.37910652 -4.43645477 25.4508133
-2.44451737 -4.25933886 26.9482327
-3.66666698 4.33333731 24.6666679
-3.66666698 4.33333731 23.666666
-4.3203454 0.376016259 27.6377583
-4.44896221 0.504066169 26.5591679
-4.16250801 -2.53112149 26.2200947
-3.35764337 -4.27403116 26.7373619
-4.30885458 4.32019329 26.5338554
-0.82282263 3.18485355 28.2675686
-1.66666591 4.26362085 28.6875
4.36448336 -4.30623245 5.49218845
3.513026 -4.26588202 5.00911474
3.52397823 -4.21473169 6.27809715
4.32019329 -4.30885458 4.46614552
4.25289011 -3.60148287 4.36040545
-4.27196312 -3.53520608 26.344305
-0.612647235 -4.29383564 26.3881073
-2.51111102 3.37778044 26.622221
-1.66642523 4.27193165 25.6703129
-2.6679697 4.27704954 26.6679668
-3.19026303 0.365659535 45.6677895
-4.26779175 1.68333495 26.3166618
-4.15905237 2.64153957 26.189373
-0.531943858 -4.23052645 29.8236332
-4.34702587 -4.30249786 22.650692
1.37499535 -4.26362371 26.3125
-4.33333397 3.66666698 25.3333359
-4.33333397 3.66666698 26.333334
1.49415171 -4.23444462 13.2470541
0.804455996 -4.14418888 13.1495113
1.64677274 -4.17285824 12.2131157
-4.20000124 -2.60000157 25.2000027
-4.27226734 -2.35942435 24.3216782
-4.15156221 -3.52607489 24.2545547
-3.23979187 1.62072575 23.1824703
-3.92922783 -0.0239313599 25.0613079
-3.88889027 0.0 26.1111107
-2.50737691 3.34106612 36.6020203
4.26199293 -0.482050955 26.5576916
3.86600423 -0.0288056806 26.885788
0.555558503 -3.98148346 26.4629612
-4.26804209 1.67534089 25.3159924
-0.87247479 4.24852562 36.4144554
-1.66666591 4.26362085 26.6874962
-4.24868441 2.63151836 25.3281784
-0.762227774 3.14374971 22.1451588
-0.646339893 4.29891586 21.6384354
-0.850564122 4.01602173 22.8309746
0.0293251015 3.9050684 21.9360123
-4.26778889 2.65833187 23.3166656
-4.16666651 -1.66666591 12.1666689
-4.30884838 4.32019329 23.5338554
-3.69123173 -4.26069736 25.5999622
-2.75000024 -4.25000191 25.75
0.0379303806 -3.82677841 23.0258427
-4.28165483 -3.30094099 2.36572862
-4.32824755 -4.35491848 2.36224461
-1.77391052 -3.59061289 3.21719861
-2.75000024 -4.25000191 22.75
-3.47500062 3.42500329 29.9749985
-2.76718545 -4.24633121 24.7088585
0.0 3.88889027 20.1111107
0.626016021 -4.32034826 21.6397915
-2.77777982 0.0 27.2222214
-0.240909874 3.30465603 18.6431828
-4.15604353 1.59673738 24.1672745
0.755738139 3.48206353 6.07800627
2.83843803 0.0245933048 27.8373871
3.35222745 -1.07587552 28.6699219
-1.62999928 3.25500059 4.60499907
-2.70334411 4.2719059 24.719244
1.37649024 -1.2489661 48.3005219
-4.25697613 -0.34418276 20.2960148
-4.2671237 0.665796041 22.3409901
-4.26077032 1.67851448 22.3231201
-2.7242415 -4.24503231 23.7136288
-0.695830584 -4.24834538 22.3486099
-1.79999864 -4.20000124 22.7999992
-1.65140951 4.24242592 24.6870594
-4.30189943 0.661729336 23.3953075
-2.21033168 2.15695786 20.8812981
-1.46499455 2.73293209 20.2944317
0.52373445 -4.43904543 19.4786434
-3.99768996 -0.557607651 22.3367653
-2.67708182 4.2740345 20.6770821
-3.66666698 4.33333731 20.666666
-3.66666698 4.33333731 21.6666679
3.65104628 4.27490234 18.3255234
2.65507603 4.26213837 18.3297787
-3.39328694 -1.01733613 20.9239845
-2.77777982 0.0 23.2222233
-2.2685194 0.868053377 36.3773155
2.66559124 -2.70446539 18.7098618
-4.27705288 -3.37276983 22.3421021
4.32540655 -4.30885172 21.4713535
-4.16666651 -1.66666591 21.1666679
1.59338009 -3.21775126 18.907423
3.31737542 -1.79500401 35.7791786
-4.24280262 -3.36858606 21.3302002
2.45682836 -3.343014 36.3499908
-1.64791298 4.22723579 22.7372856
-4.20936012 -0.442141056 21.2765541
-3.66666698 -4.33333397 16.6666679
-2.6679697 4.27704954 22.6679688
-4.30885458 4.32019329 21.5338554
-4.19486713 0.636018038 20.1871243
-4.20450497 1.6285423 20.3658714
-0.62777698 4.25255442 30.7388897
-4.33333397 3.66666698 16.3333321
-2.75000024 -4.25000191 19.75
-2.75000024 -4.25000191 20.7500019
2.37529826 -4.26401043 28.3171539
2.78697085 -0.0551599488 28.9382858
0.400479704 -4.28702641 17.3673496
3.3861227 -2.68952894 26.9631824
2.39655662 -4.26565742 18.2751007
2.65845227 -4.12673759 18.909399
-4.2730813 -2.36114717 20.318388
-3.9418838 -0.0208528414 23.1423302
-4.26778889 2.65833187 21.3166676
-4.26891327 2.65783787 20.3204727
-2.671875 4.27575731 21.671875
-4.31581926 4.31931257 20.510416
-4.33333397 3.66666698 20.333334
-4.33333397 3.66666698 19.3333321
-3.47500062 3.42500329 20.4750004
3.16261983 0.810334325 29.4853115
-4.18330669 1.58859766 11.2844362
-4.25943995 1.67380798 12.3053856
-4.22207022 -1.49999833 20.2499981
3.30565047 0.465065241 22.9810028
4.1999979 -1.79999864 26.7999954
-3.03004408 0.761686146 39.9288864
-1.63174438 4.21965981 21.6897278
-3.1509645 0.470107436 38.9434624
-4.1935401 1.73913467 19.2452717
-4.20000124 1.80000186 18.2000008
-2.58359551 -3.35303807 32.4627075
-2.67708182 4.2740407 19.6770802
-0.465267956 3.00241661 19.5946712
-0.899997771 4.04444408 20.4555569
-4.26186609 -3.52135897 12.2988167
2.51325512 -3.32819772 16.1628418
-4.23380136 -2.50106788 19.3746014
3.41517234 -3.419806 10.9158115
3.42863297 -3.42444277 9.98033237
2.51110792 -3.3777771 10.3777771
-4.28155041 2.63803029 14.3645182
-4.22207022 1.66666913 14.249999
-4.23873901 -2.46666884 18.2666664
-0.604672253 -4.298913 21.4032307
-4.20000124 2.59999847 19.1999989
-1.66951323 4.26351929 16.6821003
-1.65105796 4.20089769 17.6435986
-4.30885458 4.32019329 19.5338535
-4.30870247 -0.65342176 17.644907
-1.66666591 4.16666651 19.8333321
-3.66666698 4.33333731 18.6666679
1.79624557 4.21369314 45.2160759
-4.33333397 3.66666698 17.333334
-2.8815341 2.77214837 18.3399944
-3.184654 1.61741912 17.4736729
-0.492946118 -4.20547104 4.18633604
4.27037334 -2.66980982 12.3321552
4.3187871 -3.66964722 12.6362095
-3.84021688 -0.0041236938 7.14044666
-4.3195343 -4.32209063 40.4759636
-4.29110575 0.563976884 7.40346336
-4.24300528 1.55329597 8.36218739
0.108501926 4.22942781 18.4886208
2.48851943 0.0292870943 48.422905
0.708926976 -0.671861231 49.2348175
-3.35555601 3.12221909 21.4111099
1.35647988 0.298698604 49.2669563
-4.2752347 2.6631968 17.3283081
-4.27626085 2.66562915 18.3312531
-4.31931257 4.3158164 15.489584
-4.31931257 4.3158164 16.4895821
-2.67708182 4.2740345 17.677084
-2.67708182 4.2740407 18.6770821
-2.51111102 3.37778044 17.622221
-4.33333397 3.66666698 18.333334
-4.27255201 -0.329933524 8.33367348
-4.26687336 0.443312913 8.90273952
-3.15889192 -1.74704313 25.8912315
-3.14790177 -2.19667149 27.0007572
-4.19943428 -1.48210692 17.262392
-3.38762403 3.43938875 22.434597
-3.3777771 2.51111412 23.377779
-3.42187095 -3.11829495 26.0906181
-4.26576471 -0.602844775 16.5721111
-2.6679697 4.27704954 16.6679688
-4.30884838 4.32019329 17.5338554
1.76666391 4.21936846 43.2333336
-3.47500062 3.42499685 16.4750004
-3.48394799 4.30920935 15.4573984
-3.66666698 4.33333731 16.6666679
-3.15287113 -0.744276047 38.1840019
4.33082247 -4.34810257 12.6474056
0.428173721 -4.3263154 10.3838043
-1.79999864 -4.20000124 18.8000011
-4.25698853 -1.38552308 16.3251991
-1.79999864 -4.20000124 15.8000011
-3.47500062 3.42500329 23.9749985
-4.30884838 4.32019329 14.5338564
-4.31421375 3.61866498 14.3613701
-3.66666698 4.33333731 13.666667
0.181664228 1.63411665 0.770799756
0.999998927 1.66666281 0.833332896
-4.25321627 2.5893631 15.2702961
1.57777846 1.33332765 1.66666746
-3.66666698 4.33333731 17.666666
-0.777778685 -3.11111164 13.5111132
-4.31930971 4.3158164 5.48958492
-3.66666698 4.33333731 10.666667
-2.6679697 4.27704954 10.6679688
-4.31581926 -4.31930971 39.4895821
-1.90214086 3.13177133 18.3180981
-1.28363752 2.92191887 19.0580959
-0.646339893 4.29891586 12.6384363
-4.20000124 2.59999847 11.1999979
-4.27626085 2.66562915 10.3312511
-4.29064655 -0.619307876 13.6081877
-4.33333397 3.66666698 15.333333
-3.79136276 -4.15990782 19.4061775
-3.64474678 -4.32301521 20.6538544
-4.30014181 0.623887658 14.397584
-4.25231695 -3.49041224 11.25488
-4.31176519 0.398427367 13.5612564
1.69005573 -4.09729528 14.1919565
4.19436693 1.66666281 12.7916679
4.26778889 1.68333495 11.6833353
-0.504062951 4.44896507 14.4489622
-1.78211355 -4.177495 16.7992935
-4.19287491 2.60424876 13.2367201
4.30552912 -4.38353729 20.5985203
4.28850222 -3.71989799 20.6876774
4.32444382 -4.23822594 19.6945515
3.56370139 -4.31931925 19.7405586
-4.26501417 -1.64960742 10.2606163
3.50000262 -4.25000191 14.249999
3.40906596 -2.56725907 17.6568699
4.25505018 -2.74111295 18.9653358
3.17455387 -3.45563316 18.1220493
-4.02933025 0.895677686 16.6244144
-3.92118001 0.0444453098 16.1296711
-3.84295654 0.0993360505 17.1085968
0.667164266 -4.19476557 4.150455
-3.66350293 4.30325508 14.6367073
-1.72587359 1.808604 48.331562
-2.68206072 2.25051069 47.4256363
4.3158164 -4.31931257 6.51041794
3.35416579 -4.2740407 7.32291842
4.42633867 -4.33569336 7.54004908
-3.64811659 -4.2773757 12.6793976
-3.68129945 -4.30931377 11.6536617
-2.75781059 -4.138165 11.6656847
-2.44025445 1.28091049 48.3370476
1.93332827 3.66666698 47.6000023
2.79775214 3.36471891 48.8444252
1.5666616 3.46667099 48.9333305
2.00199962 2.83856463 48.3186226
1.69807506 4.14530039 18.2373123
2.72162533 2.50763035 49.2420425
3.42407203 2.68365049 48.241993
0.95555681 2.51110792 48.3777771
1.07777905 3.35555291 47.5888863
3.40208554 2.49045134 39.663559
1.69970298 3.27759552 39.19347
-4.33333397 3.66666698 13.3333321
2.22222114 -3.12499976 7.34722376
1.46171963 -3.39811373 6.74652624
0.555558503 -3.98148346 7.46296263
0.36435464 -4.24852562 6.58555317
1.41666305 -4.2497735 7.29166794
1.3541615 -4.27055073 6.32291937
4.31147099 -4.31758022 27.5182285
4.31138229 -4.35415173 26.6275978
-4.20619297 -2.60911059 11.1706514
-4.30694151 -4.37252808 12.4684868
4.2843914 -0.901730239 14.4328632
-1.79999864 -4.20000124 12.8000011
-2.73233366 -4.24054432 8.76735115
-3.36243844 2.57540202 37.4984741
-3.35555601 2.58888793 36.4111176
0.864797533 -3.57868528 10.2752962
-4.15288258 2.57383752 12.2294683
-3.34444547 1.81527412 36.851387
-4.30885458 4.32019329 12.5338554
-4.33333397 3.66666698 12.333333
-2.72916627 4.25686836 13.729166
-4.32019949 4.30885458 11.4661446
2.58888793 3.35555291 23.4111118
1.75221515 4.18259096 23.234808
1.78626251 4.17528105 24.2677937
-4.26517916 1.67772257 10.3219013
-4.33333397 3.66666698 11.333334
-4.20859385 -1.55307746 5.23899317
4.30446482 0.6094262 14.505867
-4.31758022 -4.31147099 11.5182323
-4.33330536 -4.32091236 10.6614571
-4.1607976 -2.59778786 10.2355137
4.26583767 -0.364205778 9.68157005
-0.027754169 2.68473363 12.817874
0.0352762677 2.78177047 13.7534485
-3.66666698 4.33333731 12.6666679
4.27170324 1.68683147 21.6851616
4.27624512 1.66697943 15.6743965
4.23505259 1.61893308 20.7913799
3.11111474 0.777775526 40.7111168
3.98380494 -1.84484947 11.988698
4.29446936 -2.61547661 10.9775152
-4.13758183 1.63335645 9.17608833
2.59999847 -4.20000124 10.1999998
-4.40268946 -0.598261833 7.57777023
-4.16564322 -1.14951611 8.54150772
3.35416579 -4.2740407 32.3229141
3.41666722 -4.26373768 33.2916641
2.36667085 -4.26778555 33.3166656
4.31049538 -4.34721279 32.6510429
-3.48519897 -0.750227213 9.12395954
-4.25000191 -3.49999928 10.25
-4.32892227 -4.31545496 9.65594769
-4.25687122 -3.45833492 9.27083492
-4.35415173 -4.31138229 8.62760544
-4.2740407 -3.35416579 7.32291842
2.01631522 -2.80049801 39.4837379
2.53321481 -3.30451989 39.100441
-4.2081728 -2.46031237 7.28033543
-1.7460233 -4.19792366 10.8159657
-4.33333397 3.66666698 10.3333321
1.38544083 -4.26426697 39.2922554
1.41904473 -4.25830603 4.27773523
2.63511634 -4.24075365 3.81492186
-1.66666591 4.16666651 9.83333302
-4.30884838 4.32019329 8.53385258
-4.33333397 3.66666698 9.33333302
-2.50000048 3.33333182 6.61111259
-3.12347627 0.787340462 6.42223644
-3.35346889 2.49185133 6.39742184
-4.30885458 4.32019329 9.53385162
-4.32451963 -4.30915546 42.6014595
3.25040197 -2.59219456 34.8538475
3.34444237 -1.81527722 34.4402809
3.3139677 -2.59934592 33.9259872
0.436098039 4.27532673 8.56167316
-4.26779175 -2.36666775 9.31666756
-2.78835821 -4.23087168 10.7313356
4.21412992 1.6488694 8.66189003
4.16666651 1.66666281 9.83333302
3.93840003 -0.0640471131 7.93542337
4.34897661 -0.598287165 8.42288971
-4.27357531 0.669273615 6.33810949
-4.27471209 1.66267204 6.32875347
4.19182014 -1.76930225 12.9374294
2.46621585 -4.23491335 9.28091908
2.36561942 -4.26323128 8.31731129
4.25000191 -2.75000024 16.75
4.12706995 -1.65611279 16.8880253
-4.07841253 -1.65172946 7.13221502
-4.21936846 2.61666417 9.23333168
3.35555291 -2.58888793 7.92222214
1.64444172 -3.24444437 9.57777786
1.49999833 -4.22207022 9.25000095
3.20153213 1.19295108 1.61548555
3.29120183 1.35196352 10.4136143
-4.30885458 4.32019329 4.53385401
-3.52083325 4.26717424 4.95833158
-4.30528831 -4.3541646 4.35416603
2.09999895 2.47407699 12.1407423
3.35308242 2.46853447 12.9730158
-3.66666698 -4.33333397 24.6666679
-4.20000124 -2.60000157 8.19999886
-1.79999864 -4.20000124 9.80000114
4.27394581 -3.51465082 10.9896927
-0.64336592 -4.2559433 8.44190884
4.20634508 0.519471407 10.8828068
-0.626016021 4.3203516 9.63979149
-4.27038288 2.66030192 8.32256603
-4.33333397 3.66666698 6.33333349
-4.33333397 3.66666698 5.33333445
-4.23873901 1.73333228 7.26666594
-2.74984193 -4.18852329 4.69620132
-2.32222247 -3.15000176 5.02777863
-3.37499952 -2.30000138 4.67500019
-4.33333397 3.66666698 8.33333397
-2.66257906 -4.20046043 3.76634979
-4.33333397 3.66666698 7.33333206
-2.6679697 4.27704954 9.6679697
-4.30885458 4.32019329 7.53385401
-4.26778889 2.65833187 7.3166666
-1.34374774 -4.31581926 0.680689752
3.24444747 1.64444172 40.1666679
3.39044905 2.49489188 40.9604263
0.60405463 -4.28764725 9.58996201
-4.21598291 -2.579041 6.22141695
-4.25168371 -1.41475642 6.30044174
2.66707349 4.27374315 8.3293314
2.64845657 4.27470589 9.29359722
2.53333521 -4.21936846 13.2333307
-4.32034826 -0.626016021 6.63979149
3.48434401 2.13699198 47.4256172
3.38246155 1.15284801 47.5206528
3.36666989 1.05000269 41.716671
3.31260562 -2.6553421 40.0130653
3.24563837 -1.65435505 40.2932663
3.88889027 0.0 38.8888855
-4.20717478 2.61622095 6.17571783
3.88889027 0.0 39.8888893
4.1999979 -1.79999864 40.7999992
4.2485323 -0.68952471 40.3469772
-4.19788551 2.58498597 5.2063899
1.3223058 -2.66141367 0.727127194
0.215730637 -2.58980632 0.815859497
-3.66666698 4.33333731 8.66666603
-0.0629607588 -3.29166746 37.8898125
-0.663886189 -4.26640129 36.7819443
-4.21547604 -3.47603965 6.24542141
-4.26717138 -3.39583349 5.30208349
-0.460304946 3.64910173 0.711351395
-4.27054739 -2.37748051 5.31455278
-3.61747074 0.352990717 0.725480258
-3.86555123 0.394354343 1.49561024
-4.30885458 4.32019329 3.5338552
0.766664982 4.21936846 3.23333549
-0.331251055 4.27626419 3.33125257
-3.58333158 4.26373482 2.70833397
-4.31570864 4.34026051 6.65625143
-3.30556512 -1.77540219 40.2810745
-2.58888793 -3.35555601 41.9222221
-4.32034826 -0.626016021 4.63776016
-4.1833353 -1.73333549 4.18333387
-3.13333583 -0.777778685 41.6666641
-3.20654559 -0.790963769 40.1140404
4.29890966 0.646343112 39.6394539
-3.40000153 -3.13333583 41.4000015
4.3203516 0.376016259 40.3602066
-4.3203454 -0.626016021 5.63979244
-4.22463894 1.67275012 5.25072098
4.24253988 2.60424256 7.76855612
3.22433591 1.69572496 39.2412796
-4.26373768 1.29166639 1.58333206
-4.06652594 -1.75457788 7.93866014
-3.33333492 1.04166663 28.0416698
4.33333731 3.66666698 48.6666641
4.50000143 3.50000262 49.5
4.33333731 2.66666794 48.6666641
0.740738273 3.47221994 33.157402
-4.24731302 2.62294173 3.30201292
-3.66666698 4.33333731 6.66666842
-2.6679697 4.27704954 6.66797018
-3.47500062 3.42500329 6.47500229
0.245774686 4.2298522 46.7623672
0.00775330467 4.09167957 45.6909523
-3.42619729 -3.4283638 32.8670273
-3.10130906 -3.41632843 31.7137527
-1.59583473 -1.86458421 0.729794025
4.48073864 -4.5838213 8.78523064
-4.23873901 -2.46666884 4.26666594
4.15814686 -0.931134522 46.7730217
3.41111183 -1.23289263 47.5655556
4.28202868 -0.274447352 46.6355515
-2.69876122 -4.24086142 7.73321962
-3.84784651 0.0220658798 6.15303087
-4.29890966 0.646343112 5.36156368
-3.06133604 -3.38762403 43.4000854
4.50000143 4.50000143 49.5
3.46589828 4.28856564 49.2817039
-4.33333397 3.66666698 4.33333254
1.20000124 4.1999979 46.7999992
-1.73333228 4.23873281 5.73333597
-1.66666591 4.26362085 6.68749905
-3.36666656 -1.04999948 43.0333328
-4.33333397 3.66666698 3.33333349
1.57307196 -3.21616125 23.2919445
-3.6713798 -4.32145357 5.67533827
3.24285769 -3.32745671 22.076786
-4.20000124 -1.80000186 3.20000052
-3.47879505 -4.44278288 0.593420744
0.0895620659 3.31888318 47.5627861
-1.72549987 0.268363148 0.767702222
2.78281546 0.0104169194 44.8431969
4.17330503 -1.76722455 44.8053589
3.29234195 -0.819186687 45.3066902
-4.28107214 -0.317856967 2.29623389
-1.79166901 1.58333373 0.805632591
-3.88889027 0.0 5.11111116
1.67477083 -4.16188383 22.2208176
0.708331525 -4.21505165 22.770834
1.36207318 -4.24126339 24.2803841
-2.67708182 4.2740407 7.67708111
-2.75000024 4.25000191 8.75000191
-4.2249999 2.67499781 2.45000148
-4.33333397 3.66666698 2.33333445
1.00046134 -1.66845536 0.866902053
-4.30884838 4.32019329 2.53385615
4.31049538 -4.34721279 14.651042
-0.199999154 -4.20000124 3.20000052
-0.249999732 -4.25000191 2.25000238
-2.75732279 0.0971475095 16.0297585
-3.17155766 0.790013611 14.1212997
-2.73504782 -3.52426958 0.764858067
-1.36435676 -4.27645445 3.72418475
-0.996321797 3.39295745 47.438797
-4.25000191 -2.25000072 2.25000238
-3.92051482 -2.57197833 1.49507499
-1.66874993 4.27625799 11.6687498
-3.32917023 -3.10416913 47.970829
-3.23333383 -3.43333626 46.7666664
-4.27091455 -1.29479241 2.38229299
-4.273911 -1.686993 1.62931037
-3.62710547 -0.682610691 0.661946237
-2.77777982 0.0 44.2222214
-4.21097565 1.69155693 2.2931776
-3.66666698 1.66666281 0.666668534
-4.38626432 1.34590781 0.681484699
-4.09160376 -1.39530659 0.732267559
0.777775526 3.11111474 39.0666656
3.4283669 -3.42619729 36.9221306
2.39081764 -4.2574892 37.3150024
4.25000191 -2.75000024 37.75
4.25000191 -2.75000024 36.75
3.1289587 -3.36488032 35.4902763
4.2418685 -2.73176336 35.7631378
4.3158164 2.3437531 49.3193092
4.32447529 -4.36014748 28.3129158
-3.64439511 -4.2374754 2.42842007
-4.33333397 0.333335072 0.666668534
-4.33623505 -2.62430048 0.702483237
-4.32019949 4.30885458 1.46614575
0.343748838 4.31931257 0.684180021
-2.75000024 -4.25000191 45.7500038
-2.69629717 2.44583821 33.3900261
-4.19436979 1.66666281 4.2083354
-2.75000024 4.25000191 2.25000238
-3.66666698 4.33333731 1.66666746
-3.38120723 -2.33171129 25.3519268
-1.85787606 -4.17730188 32.0114441
-0.586077631 -4.13731909 32.59272
-1.79999864 -4.20000124 4.99999952
2.51110792 -3.3777771 44.3777771
0.647223592 -4.26501417 43.7138863
2.59999847 -4.20000124 45.2000008
2.59999847 -4.20000124 46.0000038
-4.34718418 3.60417175 0.687730432
-4.51835537 -1.69149995 0.64248383
-0.802910447 4.22382164 2.40453315
-2.76589322 -0.0153577505 6.06932211
0.882768214 4.01096678 10.0797472
2.51739168 3.34442329 8.39257336
2.71086955 2.69669938 0.753215432
1.66540861 4.26410198 8.32255363
0.9188236 -4.13275528 14.1567249
1.5869633 -4.08610535 14.992672
-0.111111693 -3.88889027 39.8888893
-1.727777 -3.23333383 39.7611122
-3.66666698 4.33333731 48.6666641
-4.29560614 3.62482834 48.3076553
-2.34839606 -2.35308671 48.3533211
-2.54946256 -2.06195784 49.3132591
-2.1585288 -2.75264168 49.203804
0.749999166 3.50000262 49.25
1.47747326 1.96375239 18.5207081
-0.199999154 2.59999847 49.2000008
0.668747842 2.66562915 49.2762566
4.31504965 4.3520298 2.37131882
0.533856809 4.30885458 49.3201981
2.53968239 1.2241416 49.2371483
-0.666666985 4.33333731 48.6666641
3.54167032 4.44436646 0.458333343
2.29827213 3.17371774 15.1424932
1.66392624 4.2090497 15.2900028
1.26762092 3.71950841 14.92173
0.499562383 4.28765345 13.5695353
1.66307116 4.03688097 14.1693363
0.35467568 4.29890966 14.6394539
3.66666698 2.33333302 49.3333359
4.20097351 1.65973926 38.8144569
-0.137557805 2.29457283 48.3666611
1.81287336 1.79601121 49.1647453
-1.48888791 -2.00888824 47.7022209
4.2740345 3.64583945 39.6770821
-3.13333583 -1.93333459 48.3999977
-0.710323691 -4.15547657 5.0554285
-1.010077 -4.19526958 3.26068425
0.416619778 3.4283669 48.4261932
4.40922308 4.45099878 47.5404854
4.34917307 3.64725208 47.6879311
-0.744231701 4.2295289 46.7402458
-0.889143765 4.23449516 47.7163391
0.333335072 4.33333731 48.6666641
2.85714984 -0.150774539 15.8857689
1.33333397 4.33333731 48.6666641
2.66927791 4.26457071 48.3426018
4.29828262 0.617293537 19.9234886
4.26108074 -0.318354219 20.6549721
3.49034905 3.54596496 47.5220528
4.50000143 4.50000143 48.5
-0.769296944 -4.11694431 7.43146467
4.25000191 -2.75000024 25.75
4.25838232 -3.6448195 26.6586742
4.33333731 -3.66666698 25.6666641
1.3541615 -4.27054739 5.32291746
1.66491449 0.94374311 49.1381073
-2.48624206 2.82687759 49.1880417
4.15174246 1.67826736 43.8281403
3.66666698 1.33333397 49.3333359
4.33333731 0.666663826 48.6666641
3.64341974 4.30003738 46.3458176
-1.70002925 2.25488138 49.2719841
-3.66666698 4.33333731 45.6666679
0.0 2.77777982 11.7777777
3.15651989 0.84120822 14.5369692
3.12499976 2.22222114 13.8472195
2.6624999 4.27262831 42.3250008
2.79100585 -2.82347298 20.3976479
4.38873768 4.41666603 46.4166679
4.32019949 4.30885458 44.5338554
4.32019329 4.30885458 45.5338554
-1.78467262 4.26358891 41.8334999
4.22482872 -2.74156594 26.6807442
4.1999979 -1.79999864 25.7999973
1.30652678 -3.44698358 48.4728241
0.716667593 -2.43333721 49.2484207
3.28270102 1.68205535 18.4176407
2.51966572 2.90785027 18.5555592
2.61666417 4.21936846 43.2333336
-3.44879842 2.65866756 17.4315491
-3.35555601 3.12221909 19.411108
-3.47500062 3.42500329 18.4750023
-3.25690722 2.15842748 19.0673599
-2.51111102 3.37778044 18.955555
-3.47500062 3.42500329 17.4750004
4.2740407 0.67708391 47.6770859
4.27470589 1.67365599 47.6795006
3.06098437 0.521720111 16.3841534
-3.66666698 4.33333731 42.6666641
-1.79999864 4.1999979 4.80000019
4.24103212 1.64108443 42.7926826
-2.70949173 4.22987747 41.7615166
1.58333373 -4.19436979 44.2083244
2.40122509 -4.25495529 43.3122025
1.66666913 -4.16666651 43.1666641
3.14723992 -3.42779684 26.0511684
3.35974622 -4.29209375 26.339365
0.933335721 -4.18333244 45.8999939
0.999998927 -4.20000124 46.7999992
0.281785756 -4.16831636 46.7884598
4.2740345 2.67708182 47.6770859
3.66666698 4.33333731 42.3333359
-2.67708182 4.2740407 40.6770859
4.2497735 1.66666913 41.7083321
-4.02094984 -1.01776373 46.8296204
1.59457099 -4.18339539 40.1274376
-3.35555601 1.53332996 47.5888863
4.25000191 2.74999714 42.75
-2.51111102 3.37778044 22.622221
-3.08375645 2.44044757 48.3973083
-0.585361838 4.34118557 38.601368
-1.67558157 4.25694418 38.7001152
-3.29058099 -1.67349446 29.4162979
-3.36602044 -2.46553493 30.0504856
1.62845361 -4.00268459 30.269865
1.70912862 -4.18666744 31.1532478
0.695833743 4.24834204 39.3111038
-0.87247479 4.24852562 41.4144554
3.33594155 -4.27704668 25.3320293
2.56099749 -3.49058962 30.3494892
2.65833187 4.26778889 41.3166656
3.66666698 4.33333731 40.3333397
4.33333731 3.66666698 40.6666679
-0.639790177 -4.3203454 39.3602104
-0.111111693 -3.88889027 38.9999962
-1.56018472 2.81481695 8.26574039
-1.66666591 4.27573824 40.6692772
3.43905926 -3.47923851 43.555088
3.71741819 -4.33836985 43.2951813
-0.406503737 4.28819799 40.4065056
-3.87198067 -0.0205962993 37.1011276
0.0 3.88889027 40.0000038
2.50000358 3.33333182 11.0555553
-0.971506774 -3.26297259 19.0419331
3.66666698 4.33333731 41.3333359
4.27575111 2.671875 43.671875
4.33333731 3.66666698 44.6666641
4.32019949 4.30885458 41.5338593
4.27704334 2.6679728 41.6679688
-1.74805975 -4.16257429 17.8380299
-3.66666698 4.33333731 7.66666746
0.393049479 4.29605293 40.6135101
0.749036372 -4.06356764 40.5084267
3.17670751 -3.41465926 34.4422646
3.49340844 -4.16196966 34.3072472
3.39083552 -4.26440001 35.3606453
2.39458656 -4.23161602 35.3287125
-3.66666698 4.33333731 35.6666641
3.42499685 3.47500062 42.4749985
4.33333731 3.66666698 41.6666641
3.44032621 -3.26940203 38.8972092
4.25000191 -2.75000024 39.7500038
-3.45522475 3.43317461 38.8999786
-2.28433323 3.31140852 39.8991547
2.73884225 4.24162149 39.3170395
1.66901278 4.26531219 40.3223686
4.33333731 3.66666698 43.6666641
4.32019949 4.30885458 40.5338593
4.32019949 4.30885458 38.5338554
3.64452195 4.30968428 39.3711052
4.39956951 -4.3309207 9.82682133
-3.66666698 4.33333731 38.6666641
-4.27626085 2.66562915 35.3312531
4.22207355 1.66666913 35.75
3.65947747 -4.3103652 10.5280132
2.64868474 -4.22160149 39.2292404
3.2939508 3.32642746 35.4386673
-3.22588468 -3.39689112 34.9033966
-3.66666698 -4.33333397 32.6666641
-3.66666698 -4.33333397 34.6666679
4.32019329 4.30885458 39.5338554
4.32019949 4.30885458 37.5338554
0.64072448 4.2194128 35.3154488
1.68155491 4.26379156 35.3207512
-0.823763251 4.19829416 37.4602203
4.3203516 -0.626016021 34.3602104
3.88317037 0.18602863 16.9386845
-2.75187516 -4.22615576 38.7687798
0.452238083 4.34982538 38.5710144
-3.36666656 -1.04999948 5.08333492
3.66666698 4.33333731 38.3333321
-3.13917947 -0.81135416 27.864706
-3.88889027 0.0 27.1111088
-2.78311634 0.00543174706 26.1789837
-3.33333492 1.04166663 26.291666
3.22149181 -1.65215695 13.8880987
3.3276372 -2.54163337 13.9668636
4.17933512 -1.75894547 15.2007103
-3.66666698 4.33333731 34.6666679
3.86917138 -0.0352129266 41.8903656
4.32019949 4.30885458 36.5338593
3.66666698 4.33333731 36.3333359
-2.75000024 -4.25000191 36.75
3.35416579 -4.2740407 36.3229141
4.33333731 -3.66666698 35.6666641
-1.73333228 -4.23873615 35.2666664
0.713101327 4.31157207 34.3872299
3.41416502 -4.24418354 30.2967987
-3.66666698 4.33333731 33.6666679
2.6679728 4.27704334 36.3320312
4.27625799 2.66562915 38.6687469
2.6679728 4.27704334 35.3320312
3.88889027 0.0 37.8888855
2.2151711 -3.09191203 40.3489075
4.32019949 4.30885458 35.5338593
3.26249433 -2.89027548 21.2097244
3.54167032 -4.25686836 21.1041679
4.33333731 -3.66666698 21.6666679
4.26827002 -2.68376136 20.3217239
3.34123087 -3.51467299 20.5430031
4.25000191 -2.75000024 33.7500038
4.23213863 -2.74618053 34.7579842
-3.45188642 3.37798309 32.4636383
2.50583124 -3.38839054 21.4491768
3.35555291 -3.12222219 14.8555546
-3.66666698 4.33333731 30.6666641
3.40000153 -3.40000153 15.6999998
4.24823427 -2.61465955 15.0919447
4.25000191 -2.75000024 32.7499962
-1.79999864 -4.20000124 32.7999954
4.15517569 -1.76809549 16.0331917
3.36733484 1.01671541 5.73838425
4.27704954 3.66406345 35.6679688
3.33333182 -1.04166663 33.9583359
4.30962753 -0.615342557 33.374321
3.88889027 0.0 33.8888931
-3.48760295 3.40435314 31.0160065
3.44609046 -4.28125572 24.1499577
3.40841985 2.46945906 16.5768642
4.23731375 2.64012051 15.7671251
4.17775774 2.60497737 16.7879829
-3.21191716 0.658733189 16.5855331
2.67708182 4.2740345 15.3229198
1.58333373 -4.19436979 32.2083321
3.66666698 4.33333731 15.333333
-1.66666591 4.16666651 27.8333321
4.30474997 -4.33036613 11.5133677
1.66666913 4.19436693 11.208334
1.80000186 4.1999979 10.1999998
1.66728354 4.27150726 9.32954502
2.65000224 4.25810337 10.3000002
-0.640239894 4.28364992 27.5973701
-3.66666698 4.33333731 32.6666641
-4.33333397 3.66666698 28.3333378
-2.6679697 4.27704954 29.6679707
4.28662109 -3.63364267 9.60965538
0.658568501 4.26311398 32.3027649
4.04444408 -0.899997771 30.8444462
4.18570137 -1.82004702 30.758646
4.1999979 -1.79999864 31.7999973
2.57310891 4.24758816 32.2361336
-2.75000024 -4.25000191 35.75
0.50211513 4.27056313 30.9631462
4.33347034 -4.31488514 30.341711
-0.614576101 -4.33390427 28.3734035
-0.615342557 -4.30962753 27.3965054
4.31027365 -4.33504438 23.6569023
4.2740407 3.64583945 34.6770859
1.8843317 4.17339373 30.3447514
-2.51111102 3.37778044 16.622221
-1.66666591 4.16666651 15.833333
3.88889027 0.0 27.8888912
1.71614075 4.23312044 26.3064327
-3.17764807 -2.23203945 39.5147438
4.24290085 2.62500024 31.791666
2.59999847 -4.20000124 27.2000008
3.88889027 0.0 28.8888912
-0.081713751 -0.643033385 48.5780067
0.627504587 4.26187229 30.0566502
3.67528176 4.33375502 30.3327541
4.22814798 -0.719191849 27.346077
3.94629908 3.49583459 30.6915398
4.30885458 4.32019949 24.4661465
4.32019949 4.30885458 25.5338573
-2.96871114 1.87007296 19.951189
3.67551613 4.33462286 29.3524475
3.40745711 2.55667758 28.9223557
-3.43523335 3.45953202 25.9694347
-3.47500062 3.42500329 26.9749966
-3.31583309 2.61029816 26.3696938
3.37795782 2.45795584 43.9821053
3.37733698 1.05560231 44.7080193
4.33333731 -3.66666698 24.6666679
4.29891586 0.646343112 30.6384392
0.698126793 4.25093269 22.3569031
4.32019949 4.30885458 28.5338593
3.05321836 -3.26793242 13.0398941
4.26778889 2.65833187 30.6833363
4.2740407 3.64583945 29.6770859
4.1646266 2.56921339 29.7810707
3.66666698 4.33333731 23.333334
2.62122512 4.23851728 23.2464447
2.6679728 4.27704334 24.3320312
4.26759863 1.66954494 27.6817055
-1.79999864 -4.20000124 43.7999954
-2.75000024 4.25000191 28.7500019
-4.24081039 1.67560697 23.2788734
-3.88942885 0.0202035662 31.0791931
2.61124206 4.19562721 28.3587017
2.77777982 0.0 33.7777786
3.65734267 4.31440973 28.3413391
-3.06591249 0.605289817 17.4932747
4.16328382 2.66893578 28.8668976
2.67708182 4.2740345 27.3229122
-0.663021564 4.22279549 26.6325073
4.25839472 -2.74269986 24.7163963
-4.21933079 -2.50049782 27.2792244
-2.61947036 -4.2915144 28.7981873
-4.29996729 0.648325741 24.3596592
3.66666698 4.33333731 27.3333321
-0.588886917 4.22762871 24.8111115
4.32061148 -4.31756115 24.4908886
4.26374102 3.58333802 24.7083321
2.73766398 4.2296114 25.2447739
3.66666698 4.33333731 26.333334
3.11111474 -0.777778685 29.5111122
4.3158226 4.31931257 26.489584
-4.30885458 4.32019329 24.5338554
3.17240644 -2.21925664 19.3525848
-4.27626085 2.66562915 24.3312531
4.18383265 0.604168653 26.9895782
-0.727087677 3.21186972 26.7432079
-0.00685065286 3.88885236 27.0428696
4.25221252 0.683373988 29.6347523
3.88889027 0.0 29.8888893
4.22465801 1.63419902 26.7474709
4.32019329 4.30885458 23.5338554
4.26453924 2.66384912 26.675272
-3.37222195 -1.78055525 35.297226
4.1999979 -1.79999864 24.8000011
-3.37170887 1.81955612 25.7058544
3.63933396 4.2860446 25.3443756
4.14084721 0.696954906 24.7028561
4.18452311 -1.64385891 19.2114716
4.33333731 3.66666698 26.6666622
4.26374102 3.58333802 25.7083321
2.21342278 -3.1804924 17.9990158
3.66666698 4.33333731 24.3333321
0.431796998 -4.2709465 18.376318
0.122190557 -3.86733747 17.9630585
1.48001969 -4.25111341 18.2433529
-2.77645898 4.2032032 23.7418327
-3.66666698 -4.33333397 42.6666641
1.66666913 4.27573824 5.33072805
4.2497735 1.66666281 24.7083321
-3.34159517 -1.01308262 6.03849888
-3.41358542 -2.43797398 6.11745691
-2.37125063 -3.24689579 5.99613094
4.30885458 4.32019949 22.4661446
4.27262831 2.6624999 23.6750011
4.1999979 2.59999847 24.8000011
-0.0573864877 3.74971724 15.0214081
4.27017689 1.67076743 25.6770134
4.32019949 4.30885458 18.5338554
4.33412266 -3.65368772 23.6705608
4.33333731 -3.66666698 22.6666679
-3.41973615 -1.69903469 46.8467102
-4.38186789 -3.60416865 48.6041641
-2.33203125 -4.27704668 47.6679688
-1.97222471 -3.43000102 47.3366699
-2.36666775 -3.50000262 48.2333336
-3.34226656 -2.63998747 8.04010201
-3.38780141 -3.24164462 7.0084219
2.70833564 4.26373482 22.2916679
2.6679728 4.27704334 21.3320312
3.66666698 4.33333731 19.3333321
-2.75000024 -4.25000191 43.75
4.27203274 -2.75219512 23.7734318
3.66666698 4.33333731 21.333334
3.66666698 4.33333731 20.333334
3.66666698 4.33333731 22.3333321
3.15192103 -0.841322243 23.5321484
4.1999979 -1.79999864 21.8000011
-0.833334565 4.02777815 19.4722233
0.682145119 4.24539661 19.2915783
-2.58888793 -3.35555601 39.5888863
3.42499685 3.47500062 18.9750023
4.1999979 2.59999847 19.7999992
3.40647507 2.26851296 18.9650154
4.27661276 2.66927147 18.6692715
4.32019949 4.30885458 21.5338554
3.28572893 -2.56898832 4.16147041
-2.75000024 -4.25000191 40.7500038
4.32019949 4.30885458 19.5338535
3.37598777 -1.78055847 3.32961822
1.69607973 -3.42877531 1.72903919
-3.66666698 4.33333731 19.6666679
3.28721738 -1.04425108 5.73884058
-1.66666591 4.16666651 18.8333321
3.24978757 -0.85264498 4.57420111
-3.31295729 0.999384463 24.2457275
4.27704954 3.66406345 19.6679688
-3.13474536 0.782051265 25.4728374
1.80923104 4.15276861 16.1237431
-3.34444547 1.81528044 27.2263889
-1.79999864 -4.20000124 42.7999992
0.0859926343 -3.79074526 19.0105953
-0.899997771 -4.04444408 19.9000015
1.67869806 4.27098751 19.3141575
1.70055175 4.24485826 17.2695999
2.33887553 -4.27445555 12.3281956
3.48120213 -4.06576252 23.2198086
-2.81180167 -0.00463044597 37.2318382
-0.774532318 4.00645685 17.3438587
0.360205621 4.3203454 17.6239853
-1.69950032 3.24777317 1.2008357
4.27060127 3.62500572 14.6875
4.21184349 2.59002185 13.7262926
4.21587849 2.63654804 14.692111
4.30885458 4.32019329 17.4661484
-0.82672143 2.57045484 0.772738039
1.80000186 -4.20000124 46.0000038
-2.67914057 4.26848555 15.6726007
-1.26067209 0.880500495 0.81980896
-0.844441891 -4.04444408 17.3999996
2.6679728 4.27704334 14.3320293
-2.77777982 0.0 41.0793648
-2.79411936 -0.0525818467 40.182827
-2.30835009 2.64318633 0.758292437
-2.66233206 4.33620644 14.6912661
4.32019949 4.30885458 15.5338545
-3.88889027 0.0 14.1111107
-3.85391808 -0.01210187 15.0731764
3.12899685 0.781493843 15.4372454
4.24404097 0.684159458 15.6373587
3.81857848 -0.0438467115 15.8663692
4.32019329 4.30885458 14.5338564
2.67243862 4.27684689 13.3285723
3.66491222 4.30455351 13.316926
-0.504062951 4.44896507 11.4408321
-1.66666591 4.16666651 10.8333321
4.29890966 -0.604672253 17.3884373
3.66666698 4.33333731 14.333334
0.626016021 4.3203454 11.3602076
0.653862 4.24924183 6.39828014
1.66666913 4.19436693 12.208333
-1.06466365 3.32891035 9.16470242
-2.67708182 4.2740345 11.677083
-2.67708182 4.2740407 12.6770821
0.636176348 4.30963373 7.3638196
-3.66666698 4.33333731 11.666666
1.66371095 4.26647758 6.32852888
4.09875536 1.71899128 14.8908024
-1.44999778 -4.25810337 11.7500019
2.65000224 4.25810337 11.2999992
4.32019949 4.30885458 13.5338535
3.66666698 4.33333731 12.333333
2.6679728 4.27704334 12.3320312
4.30885458 4.32019949 12.4661465
-3.41656899 -3.2237308 18.0276699
0.615348876 4.30963373 12.3743229
0.690455854 4.25451803 9.30552197
-3.66666698 4.33333731 9.66666794
3.66666698 4.33333731 11.333334
4.32019949 4.30885458 9.53385162
4.32019329 4.30885458 8.53385258
4.2740345 3.64583945 8.67708302
3.66666698 4.33333731 9.33333302
-3.11908984 -2.20543194 8.96423721
3.42272925 3.20652986 13.8553085
2.58658862 3.3380003 14.0321274
4.29220772 3.61606765 13.6668825
4.25723553 3.63910604 12.6644163
4.32019329 4.30885458 11.5338564
-3.29399514 3.1447947 40.0963745
-0.504062951 4.44896507 10.4408302
-2.7447679 -4.20217085 9.73275852
4.2740407 3.64583945 15.6770821
-0.0244856197 3.85561585 13.8332777
-1.07777584 3.35555291 2.41111135
4.33333731 3.66666698 10.666667
-2.60417914 -3.34039474 38.5502052
4.2740345 2.67708182 9.67708206
4.2740345 2.67708182 10.6770811
3.88889027 0.0 30.8888874
4.19885159 -1.77718532 8.76527691
3.44011092 -2.55104303 23.8418159
3.34444237 -1.81527722 24.440279
4.15064049 -1.69247866 23.801775
3.66666698 4.33333731 10.3333321
4.2740345 2.67708182 4.67708111
-0.683332801 -2.65833187 0.732210577
-0.473971426 4.37933111 8.45463181
0.0247263275 3.86025262 9.96789742
-0.0105119357 3.85752869 10.894022
3.16109943 0.832549095 8.14642811
3.21292758 0.750233591 7.11957788
-1.68333495 4.26778889 8.6833353
-2.67708182 4.2740345 5.67708349
-3.47500062 3.42500329 5.4749999
-0.00324954675 3.85968232 11.9569302
-0.646339893 -4.298913 10.360548
-0.104314886 -3.89458823 9.91202831
3.66666698 4.33333731 8.33333397
3.23333073 -1.68333173 26.0277748
3.66666698 4.33333731 7.33333206
-0.475836903 3.14276147 48.3267021
-3.35039353 2.54046774 32.4751663
-1.66666591 4.16666651 7.83333158
3.15966797 -3.41413665 13.9357433
2.67708182 4.2740345 7.32291842
-3.47500062 3.42499685 4.349998
-2.58888793 3.35555291 4.58889055
3.8468616 -0.0350355618 14.9519901
2.58650613 4.1814003 5.18187571
4.3158226 4.31931257 7.48958302
-0.429367751 4.37394047 7.42479801
4.2157135 2.63344407 6.80217409
1.70422578 4.24326849 7.32117319
4.32019949 4.30885458 6.53385496
4.1999979 -1.79999864 28.7999992
4.17084694 -1.71916544 20.9127674
4.20229721 -1.66055954 19.9963627
-3.36648607 3.1645391 11.0477514
-2.52643085 -3.3623054 10.548686
-3.43688655 -3.15273499 9.40736961
-2.68848372 -3.363832 9.03835583
-1.05253959 -3.39390779 8.99886703
1.23447299 4.21366119 1.52817845
-4.29956865 -0.535240889 45.5206299
-3.88889027 0.0 44.9999962
4.21936846 2.61666417 8.76666737
-4.13576412 -0.918494225 3.74885416
4.18366146 -1.7525984 3.23620486
-3.0 4.00000191 1.16666806
-2.70833254 4.26374102 4.58333206
-3.64583302 4.2740407 3.6770823
3.13332963 -3.40000153 7.39999866
3.13332963 -3.40000153 6.39999962
4.32019329 4.30885458 5.53385639
-0.041550491 3.84828687 9.1000433
4.32280302 -4.31232929 18.46875
-2.38256383 4.23168278 3.30329561
3.64587736 -4.44711876 18.8741512
-4.27403784 0.67708391 2.32291746
-1.29999924 4.25810337 3.30000186
4.16102266 -1.67999983 5.75045156
-2.33333302 3.66666698 0.666668534
0.691013277 3.63591981 0.69848305
4.28237677 2.6234293 5.6979804
4.2298522 1.64289606 6.76699257
3.61003733 4.31444788 3.31744051
-1.69557297 4.27255201 2.67213607
-2.65625119 4.31931257 0.684180021
-2.00000095 4.25000191 1.49999988
-3.29166746 2.70832944 0.708333075
1.15415919 4.27020836 2.55833244
3.6337471 4.31831837 2.32422256
4.42085934 4.50580359 1.51627612
-2.66256332 -3.40020418 24.0566235
-4.33333397 2.66666794 0.666668534
-4.27403784 2.67708182 1.35416627
3.35236049 -4.27370834 18.3229313
-0.738286912 4.01219559 1.56340098
0.230407432 4.21705675 1.53771806
0.822198689 -3.11569786 28.1647797
1.37499535 -4.26362371 25.3125019
1.66796768 2.6679728 0.722959161
-3.40000153 -3.13333583 36.1333351
-4.2773695 -3.66691399 1.66598654
-0.608723104 4.32377863 0.67686379
3.33594155 -4.27704668 16.3320312
3.50000262 -4.25000191 17.2499981
-1.79999864 -4.20000124 5.8000021
2.49999738 4.50000143 0.500001013
-1.08444285 -3.34794521 9.97490025
-0.944443107 -3.35555601 47.5888863
2.43218112 1.82731581 1.58028841
3.09335947 -0.729938149 8.12585449
-1.45833075 4.21936846 4.08333588
-3.48272538 -3.39590931 30.8462963
-2.42123222 -4.27657127 30.7675457
2.53348088 3.30577731 27.0842705
-3.42811346 3.31079412 33.3888168
4.29891586 0.646343112 7.63843489
4.44896507 0.504066169 5.44083214
-3.76650333 -4.30298901 6.52255774
0.0221703965 3.839463 7.9758935
-2.74838185 -4.24603939 6.7547164
4.2740407 3.64583945 7.67708111
-2.14999962 -2.75000024 1.28333497
-1.66797078 -3.66406035 0.722959161
2.55416918 -4.25568056 4.89166546
1.41666305 -4.58333349 0.611264706
-4.30630207 -0.383424342 1.31666338
-3.52058315 -2.72810221 0.777777076
-2.54166818 -4.29166651 2.54166651
-3.69579887 -4.25082207 7.64211845
0.65625006 -4.31581926 0.680689752
0.278783232 -3.50759435 0.733148098
-2.63001084 -1.88460088 0.744302928
4.27394581 1.67180634 5.68489695
-3.38866591 0.602813125 2.4690299
-4.42333603 -4.56865692 6.88405561
-4.42168951 -4.49285936 5.57542562
0.0 3.88889027 39.1111107
-1.48830187 -3.19948602 26.3637581
-3.53652978 -3.52060843 0.981599033
2.54807544 3.33883023 39.5165062
4.30400229 -2.6155653 3.07660341
1.77728033 -1.80691898 0.76164335
2.01691699 -2.66159725 0.750102103
1.34145474 -3.57479596 0.801065505
-2.33333302 -4.33333397 1.33333242
-1.24999869 -4.25000191 2.25000238
0.777712166 -4.28021669 2.29699397
-2.58888793 3.35555291 8.92222404
-3.35409284 2.50258803 8.38816452
-0.021540124 3.82100463 22.8542919
2.66666794 -4.33333397 0.666668534
1.66666281 -4.33333397 1.33333242
-0.343748838 -4.31581926 0.680689752
3.09990287 -3.31250429 5.05079794
0.651296616 -4.27062654 1.36833942
-1.33333397 -4.33333397 1.33333242
2.44299412 3.43541694 13.0072851
2.6659205 -4.21914387 1.66554308
4.32019329 -4.30885458 3.46614671
2.51111412 3.37778044 12.0444469
4.3541646 -4.30529165 49.3541603
4.50000143 -3.49999928 49.5
3.66666698 -4.33333397 48.6666641
3.33722758 -3.6296773 49.2688942
4.33333731 -3.66666698 48.6666641
3.3921721 3.16838408 14.9559803
3.35555291 -2.58888793 24.9222221
3.35555291 -2.58888793 25.9222183
-3.33434534 1.05062973 38.0038757
-1.32552052 -4.27489614 47.6744804
-0.668747842 -2.66562605 49.2762604
-2.67708182 -3.64583302 49.2740364
2.40005946 -4.21691704 40.3422623
-2.33333302 -4.33333397 48.6666641
4.23730135 2.69519186 46.6933098
-0.999998927 -4.20000124 46.7999992
-1.6927098 -4.27091455 46.3885422
3.44984674 3.4599185 45.8723831
3.37778044 2.51111412 44.955555
-3.66666698 -3.66666698 49.3333359
-1.53333318 -2.7333343 48.3999977
-3.53881669 -2.69447923 49.2464409
4.32268906 -4.36109114 48.6145821
4.41096497 -4.51033306 43.4694481
4.30921555 -4.32266998 44.6014481
4.2740407 -2.32291913 48.6458359
3.66666698 -2.66666794 49.3333359
2.33749461 -4.27626085 44.3312492
-4.29711723 -1.67399478 47.6502151
-1.33800244 -4.29552412 48.6544762
-0.815826297 -1.64623117 49.14991
4.33333731 -3.66666698 43.6666641
-2.75000024 -4.25000191 46.7500038
4.33696651 -4.31655073 47.3417854
3.39601707 -2.75754142 29.9782352
4.44896507 0.504066169 41.4408302
3.31300473 -2.44319987 6.06182194
3.50000262 -4.25000191 44.25
1.8497206 -1.49571955 49.2382622
-1.90364218 -3.33228993 9.43326473
1.66874683 -4.27626419 46.6687508
4.30832243 -4.33243752 36.654953
3.89780283 -3.47733498 41.026783
3.14962173 -3.4424293 41.4513283
0.674385488 -1.35262227 49.2652206
3.20856309 1.62010491 42.8446732
4.20540142 -2.70598555 45.7406845
3.11455441 3.34211135 40.3700027
4.23456478 1.66774595 45.6554985
4.29498863 -0.668104887 43.3797035
4.17903757 -1.76562822 43.7634735
1.55680525 -4.18284464 11.2416849
-0.0572281294 3.89582658 25.9431667
-3.83397102 -0.0250240434 43.1936531
4.30632734 -3.48633599 33.65242
4.29680014 -3.66338253 32.6903343
4.27715731 -0.691406012 48.3456993
4.25824928 -0.285706729 47.7011375
4.3347497 -3.8068378 34.5855179
-2.22522998 2.36848879 39.7132683
-2.72646785 -0.0162984096 24.091938
4.42574978 -4.57926369 41.4131012
3.14224839 -3.41900134 40.3262558
3.50000262 -4.25000191 40.2500038
4.3203516 -0.626016021 36.3602066
2.40000248 -4.25810337 41.2999992
4.25000191 -2.75000024 40.7500038
4.15808964 -1.83131599 39.9901085
-3.88889027 0.0 41.1111145
-3.66666698 -4.33333397 35.6666641
-2.75000024 -4.25000191 39.7500038
4.3738265 -4.38319826 35.3863831
4.1999979 -1.79999864 27.8000011
3.16498876 -0.762199223 26.1207905
4.29891586 0.646343112 38.6384354
-3.66666698 -4.33333397 36.6666641
3.28666639 -1.74333119 17.9848461
3.8925643 -0.0177743249 17.9311943
0.381121784 -4.24838018 36.5888138
3.37778044 2.51111412 42.9555588
0.780100286 -4.13319874 12.0870991
4.33333731 -3.66666698 36.6666641
0.680118084 -4.27288485 34.6662216
-0.642342925 -4.24470949 34.8328934
4.16666651 1.66666913 31.833334
3.37640572 3.1210978 38.9405823
4.2740407 3.64583945 38.6770821
-1.79999864 -4.20000124 36.0
4.27019596 -0.673957884 29.3336792
4.1999979 -1.79999864 29.7999992
2.45677781 -4.25408411 36.2775688
1.67470109 -4.18799114 35.2183037
4.30963373 0.615348876 34.6034927
2.53333521 -4.21936846 34.2333374
-3.86065483 -0.0117661469 36.1100616
2.33749461 -4.27626085 32.3312492
-2.75000024 -4.25000191 32.7499962
3.49469423 -4.25945902 28.3090076
-2.75000024 -4.25000191 29.7500019
4.30963373 -0.615342557 38.3743172
0.359850883 -4.18393421 30.6127014
4.37248993 -4.39025497 22.3840103
4.29891586 0.646343112 35.6384392
4.1999979 -1.79999864 33.7999992
2.77777982 0.0 5.92063475
4.2740407 3.64583945 36.6770859
4.27704954 3.66406345 37.6679688
4.33333731 -3.66666698 30.6666641
2.34166265 -4.27505112 31.3291664
0.0102332216 -3.85712647 8.12806797
2.51903224 -4.16044903 29.2330761
1.37499535 -4.26362371 29.3125038
3.15878105 -3.42790127 29.090559
4.21032286 -2.74080586 29.6557388
4.25000191 -2.75000024 28.7500019
4.26407051 -3.60431743 29.6152821
-4.30192184 -4.34963226 30.3886986
-3.59726405 -4.2410512 28.6214638
-3.66666698 -4.33333397 29.666666
0.0 -3.88889027 28.0000038
2.42074776 -4.2727294 30.3351288
4.33333731 -3.66666698 28.666666
4.29891586 -0.35467568 32.6384354
4.25406837 0.682290792 28.6380291
4.24326849 1.66522491 28.7109756
4.25000191 -2.75000024 30.75
0.0 -3.88889027 27.1111088
-4.24707842 -2.65157628 31.0023823
2.77777982 0.0 6.77777719
3.40105295 -4.22410345 29.4029198
-0.979212582 3.72915578 18.2188702
4.3054533 -0.645696998 24.3551102
-1.83070159 -4.17768526 28.8103065
2.48664451 3.26644683 28.1773987
-1.50785625 -4.27476311 27.6958199
2.33749461 -4.27626085 26.3312492
2.53333521 -4.21936846 25.2333336
2.67708182 4.2740345 20.3229179
3.34360003 -4.27621651 22.3256645
-1.72962034 -4.15878344 26.7954159
4.26778889 2.65833187 22.6833324
2.36717772 -4.27097511 22.3128376
1.66666913 -4.16666651 23.166666
2.50600243 -4.24880457 24.2760487
-3.88395262 0.0679459348 39.167366
-3.85977745 0.00439607305 38.103756
4.29433632 -0.620862961 25.3975849
2.33749461 -4.27626085 23.3312492
4.2740345 3.64583945 23.6770821
3.23326731 -1.82684386 49.0693283
-2.75526738 -4.2428565 18.4972095
4.12415648 -1.73270202 22.8581867
3.13332963 -0.866666138 48.3999977
-2.75000024 -4.25000191 21.75
-2.30282331 3.09188986 40.7584953
4.25000191 -2.75000024 17.7500019
3.3132329 -1.12363684 6.77365017
3.35555291 -2.58888793 6.92222357
-3.41352844 -3.20683718 20.0968399
-3.49836826 -3.2246685 19.1190968
-2.60197473 -3.3351593 19.6691589
3.37556958 3.19071293 24.6063995
3.13711762 -3.40215182 24.0220947
4.17326689 -2.75371861 22.7597256
-3.25329041 -2.91687989 2.23655128
1.72310865 -4.1566391 19.0048485
-1.79999864 -4.20000124 20.8000011
-1.79999864 -4.20000124 19.7999992
-0.418697447 -4.3632164 20.5853672
3.47249222 -3.47815204 19.1241131
-2.66124272 -4.27574158 17.7111645
0.0 -3.88889027 22.1111126
-3.40000153 -3.13333583 21.0666676
4.31793833 -3.63449144 18.8546982
3.38762403 3.43938875 12.4000912
3.40000153 3.40000153 11.5000019
4.2740345 3.64583945 11.677083
4.26778889 2.65833187 11.6833353
2.34714818 -4.27273607 17.3267365
-0.400055319 -4.30603266 18.6040535
4.25969362 -1.39436913 17.9855976
4.03213024 -0.68694973 16.3685989
4.25000191 -2.75000024 21.75
2.77021003 4.17271566 30.3012466
4.31180668 -4.33803082 33.6681366
2.58499861 -4.2600069 16.2538033
3.59167409 -2.60876846 11.5601883
4.42274714 0.568208277 17.4567318
4.15620852 1.68362629 29.8601246
4.26551485 1.66491449 30.6791058
-1.85697663 -3.3664577 20.2377014
4.26362705 1.66666913 13.6874981
-0.64062947 -4.31211996 13.3588505
4.20421028 -1.72200954 13.7702503
-3.42562723 -3.22861147 10.4783993
-3.66666698 -4.33333397 9.66666794
-3.69071555 -4.30830669 10.6509418
-0.657060862 -4.27702427 11.4036713
4.236516 -3.31568432 14.43262
4.21483946 -2.74165463 13.722724
1.37499535 -4.26362371 10.3125019
-1.62623346 -4.1578393 8.24869442
4.30538321 -4.40397835 42.623661
-0.635492265 -4.31450176 9.36096668
3.50505114 -4.20050478 9.31423473
3.4469583 3.25583673 27.8883152
4.11644077 -1.80010319 7.74370003
-2.79617167 -4.18918514 5.78371
4.04968262 -0.902591705 7.80793381
-3.23854709 -3.43741226 7.88996744
-3.66666698 -4.33333397 8.66666603
3.70760608 -2.6381855 4.92215586
4.22952271 -2.75761414 5.74637508
4.1999979 -1.79999864 4.99999952
4.22987127 3.49240756 6.59792423
-1.70335162 -4.18776941 9.03877068
0.626016021 -4.3203454 8.63979244
4.30052471 -0.651907861 5.3481698
3.86694789 -0.0130868685 5.90432978
3.87727928 -0.0108666616 6.92193842
4.25000191 -2.75000024 6.75000048
3.41783905 -4.25049257 27.287693
4.16916227 1.6049974 7.80156136
-2.80122018 -3.60133076 1.76975667
3.66406345 -4.27704668 3.66797018
3.50000262 -2.25000072 0.750000715
-0.333331913 -4.33333397 1.33333242
4.22917414 -1.71692622 4.25360107
-2.70317006 -3.53086376 2.7804606
4.29095364 -2.70687246 4.25042439
4.44436646 -2.45833588 49.5416679
3.75000238 -2.9166677 48.25
4.16667271 -1.58333063 49.3193665
3.65105891 3.33423138 49.3277588
4.3158226 1.34374774 49.3193092
-3.32752323 3.655056 49.308403
3.66666698 -0.666666985 49.3333359
0.668361485 -4.2766571 47.6667976
4.1999979 2.59999847 36.7999992
-1.66666591 -0.687497675 49.2636185
4.25686836 -2.72916627 46.8958397
-2.62621021 -0.0140275266 49.2322807
-3.49999928 -0.749999166 49.25
-2.60000157 -0.799999774 49.2000008
-3.15366292 -1.90158033 1.56366062
4.25000191 -2.75000024 42.75
-0.0136379618 -1.69818902 49.0966454
2.46666574 -4.23873615 42.2666664
4.33333731 -3.66666698 44.6666641
4.26373482 2.70833564 40.7083359
-2.55128384 -3.36077571 17.5841579
4.304142 -0.582448006 15.4268799
3.83544064 0.0341867507 40.9024315
4.27625799 2.66562915 37.6687469
-3.47500062 3.42500329 41.4750061
3.18294692 -3.37700748 8.40490341
4.33333731 -3.66666698 15.333333
3.11566925 -3.40346313 33.0854187
3.14784789 -3.38282561 32.0826302
-3.88889027 0.0 32.1111107
4.23194218 2.8401103 32.8250046
4.33333731 -3.66666698 31.6666641
4.05196333 0.924904644 25.8879433
3.47499442 3.42500329 26.5249939
4.25000191 -2.75000024 31.75
4.30025244 0.388381004 8.34493923
4.33333731 3.66666698 27.6666679
4.29891586 -0.521340072 28.4717693
3.39999509 3.40000153 9.00000095
-3.4431355 3.43196487 43.9790077
0.0 -3.88889027 21.1111126
4.25000191 -2.75000024 27.7500038
4.31112242 -3.62975645 27.6494389
-3.41751289 3.45372343 42.8800583
-3.2939477 -3.32642412 25.065403
4.26778889 2.65833187 25.6833363
4.27060747 3.62500572 22.6874981
3.13332963 -3.40000153 25.0666695
-2.58888793 -3.35555601 20.922224
4.27704334 3.66406345 20.6679707
4.2740407 3.64583945 21.6770821
4.33333731 3.66666698 18.6666679
3.38762403 3.43938875 8.06133842
-2.44444466 3.38889098 1.77777922
4.33333731 -3.66666698 17.666666
4.33333731 -3.66666698 16.6666679
4.26779509 1.68333495 18.6833344
4.26694012 1.63860774 17.7242107
0.017688809 3.89141774 12.8745031
4.39563608 -4.33499336 15.651041
3.35416579 -4.2740407 15.3229198
4.26870728 2.66318417 12.6830492
4.33333731 3.66666698 9.66666794
4.05124712 0.810980439 6.39645576
3.9925909 0.60000062 13.2666655
0.015611127 -3.8636477 9.05354309
4.25432205 -1.69305503 6.78915977
4.30609941 -3.7108779 8.65915394
1.37499535 -4.26362085 8.31250095
-3.47500062 3.42500329 8.47500038
4.25000191 -2.75000024 7.74999952
-3.42608333 -3.16623354 29.4272823
4.33333731 -3.66666698 7.66666746
3.12147164 3.46534705 3.97251868
4.33333731 -3.66666698 3.33333349
3.3423965 3.10887885 29.8854237
-3.88465905 -0.00648642471 44.0962067
-3.47500062 3.42499685 7.474998
3.14095616 -3.39080071 17.0740681
3.88889027 0.0 32.8888855
3.91710377 -0.0457628667 43.8939476
3.8857801 0.00177363178 44.8846741
3.88889027 0.0 4.99999952
3.40000153 3.13332963 22.6000004
3.42500329 -0.0249987058 48.4749985
3.37778044 2.51111412 41.9555588
-3.40000153 -3.13333583 22.0666656
0.0 -3.88889027 19.9999981
-0.888887227 3.88889027 39.1111107
3.12221909 3.35555291 44.4111137
3.12221909 3.35555291 41.4111176
-3.47500062 3.42500329 24.9750004
-3.58333468 2.08333325 1.75000286
CELLS 31305 156525
4 2202 2203 2204 2205
4 2202 2204 2206 2205
4 2207 2208 2209 2210
4 2208 2210 2207 2211
4 2208 2212 2213 2214
4 2208 2215 2216 2217
4 2208 2218 2212 2214
4 2208 2210 2218 2209
4 2219 2220 2221 2222
4 2219 2223 2224 2220
4 2219 2225 2226 2227
4 2219 2228 2225 2227
4 2219 2223 2228 2224
4 2229 2219 2230 2226
4 2231 2232 2233 2234
4 2231 2235 2236 2233
4 2237 2238 2239 2240
4 2241 2231 2242 2243
4 2235 2231 2232 2233
4 2231 2244 2245 2235
4 2246 2247 2248 2249
4 2246 2250 2251 2252
4 2246 2247 2253 2248
4 2204 2254 2205 2203
4 2255 2256 2257 2258
4 2204 2259 2260 2261
4 2204 2261 2260 2262
4 2263 2264 2265 2266
4 2263 2267 2268 2269
4 2263 2264 2270 2271
4 2263 2264 2271 2272
4 2250 2273 2274 2275
4 2250 2276 2252 2275
4 2250 2277 2278 2253
4 2279 2250 2246 2252
4 2250 2251 2252 2276
4 2246 2250 2278 2253
4 1472 98 2280 2281
4 2282 2283 2284 2285
4 2286 2283 2287 2277
4 2283 2287 2277 2282
4 2282 2288 2284 2289
4 2282 2251 2290 2287
4 2282 2284 2274 2285
4 2291 2292 2293 2294
4 2287 2251 2277 2282
4 2295 2296 2297 2298
4 2299 2295 2296 2297
4 2298 2223 2224 2228
4 2298 2223 2228 2300
4 2298 2223 2300 2301
4 2298 2224 2223 2220
4 2302 2303 2304 2305
4 2306 2307 2308 2302
4 2309 2310 2311 2312
4 2302 2304 2303 2306
4 2302 2313 2314 2315
4 2302 2307 2316 2317
4 2302 2314 2318 2315
4 2302 2313 2307 2308
4 2319 2320 2321 2322
4 2323 2324 2325 2326
4 2327 2328 2320 2329
4 2323 2328 2320 2327
4 2323 2326 2325 2327
4 2323 2330 2325 2324
4 2321 2331 2330 2323
4 2332 2321 2331 2330
4 2323 2333 2322 2328
4 2320 2327 2331 2323
4 2334 2335 2336 2337
4 2334 2338 2339 2337
4 2340 2341 2342 2343
4 2344 2345 2346 2347
4 2348 2344 2349 2345
4 2348 2344 2350 2293
4 2344 2346 2351 2352
4 2344 2345 2353 2346
4 2354 2355 2356 2357
4 2357 2358 2359 2360
4 2357 2358 2356 2359
4 2357 2354 2359 2356
4 2361 2362 2228 2221
4 2361 2362 2363 2364
4 2365 2366 2367 2368
4 2368 2366 2367 2369
4 2361 2224 2221 2228
4 2297 2368 2369 2361
4 2370 2371 2372 2341
4 2368 2297 2363 2361
4 2373 2368 2297 2363
4 2361 2228 2366 2374
4 2361 2224 2228 2297
4 2361 2297 2228 2374
4 2375 2376 2377 2378
4 2375 2379 2380 2378
4 2375 2381 2382 2377
4 2375 2383 2384 2379
4 2375 2385 2381 2377
4 2219 2220 2222 2386
4 2298 2387 2220 2388
4 2298 2228 2224 2297
4 2298 2389 2295 2390
4 2223 2225 2391 2392
4 2223 2392 2301 2225
4 2393 2394 2395 2396
4 2393 2397 2398 2399
4 2393 2400 2397 2401
4 2393 2400 2402 2398
4 2393 2398 2402 2394
4 2393 2395 2403 2396
4 2403 2393 2317 2401
4 2404 2405 2406 2407
4 2404 2408 2409 2410
4 2404 2411 2409 2408
4 2404 2378 2409 2411
4 2404 2412 2413 2410
4 2414 2415 2416 2417
4 2414 2418 2419 2420
4 2421 2422 2423 2424
4 2414 2417 2420 2419
4 2425 2418 2419 2414
4 2414 2426 2398 2427
4 2414 2427 2398 2428
4 2414 2318 2428 2425
4 2429 2430 2431 2432
4 2433 2434 2333 2325
4 2435 2436 2437 1671
4 2429 2438 2439 2433
4 2429 2325 2440 2441
4 2429 2434 2325 2441
4 2442 2443 2444 2445
4 2446 2432 2447 2448
4 2446 2449 2447 2450
4 2451 2452 2453 2454
4 2454 2455 2456 2452
4 2454 2457 2458 2459
4 2454 2460 2461 2462
4 2454 2458 2462 2459
4 2454 2460 2462 2451
4 2455 2463 2464 2453
4 2454 2465 2455 2453
4 2455 2210 2452 2211
4 2455 2466 2467 2468
4 2455 2465 2468 2463
4 2469 2470 2471 2472
4 2469 2306 2308 2303
4 2469 2473 2474 2475
4 2469 2472 2474 2470
4 2469 2306 2470 2473
4 2469 2475 2308 2306
4 2476 2477 2478 2479
4 2476 2479 2478 2480
4 2476 2481 2482 2483
4 2484 2485 2486 2487
4 2484 2488 2489 2490
4 2484 2267 2491 2492
4 2484 2491 2493 2487
4 2494 2381 2495 2496
4 2494 2497 2496 2495
4 2498 2499 2500 2501
4 2502 2503 2504 1793
4 89 1562 2505 1553
4 2494 2506 2507 2501
4 2494 2495 2508 2497
4 2494 2507 2506 2509
4 2510 2494 2499 2511
4 2494 2511 2510 2508
4 2494 2512 2511 2508
4 2494 2509 2512 2508
4 2513 2514 2515 2516
4 2514 2517 2518 2513
4 2513 2519 2517 2520
4 2521 2514 2515 2513
4 2522 2523 2524 2525
4 2526 2515 2527 2521
4 2528 2529 2530 2531
4 2436 2532 1237 2533
4 2513 2519 2520 2527
4 2513 2424 2521 2514
4 2534 2535 2536 2537
4 2534 2538 2539 2540
4 2534 2540 2541 2542
4 2534 2542 2290 2540
4 2429 2430 2432 2450
4 2429 2430 2441 2440
4 2430 2543 2271 2441
4 2430 2543 2441 2440
4 2544 2545 2546 2547
4 2430 2272 2432 2450
4 2274 2251 2277 2250
4 2278 2253 2548 2549
4 2246 2251 2250 2253
4 2246 2278 2550 2551
4 2246 2278 2551 2253
4 2278 2548 2253 2277
4 2278 2552 2553 2554
4 2461 2459 2462 2555
4 2454 2461 2459 2462
4 2461 2462 2556 2557
4 2461 2558 2559 2560
4 2461 2561 2562 2456
4 2461 2561 2559 2562
4 2436 1672 200 1671
4 2461 2561 2563 2559
4 2564 2565 2566 2315
4 2302 2314 2313 2308
4 2313 2314 2567 2568
4 2316 2313 2302 2315
4 2569 198 199 1229
4 2313 2566 2567 2315
4 2474 2473 2570 2475
4 2571 2572 2195 2573
4 2574 2575 2576 2577
4 2574 2307 2475 2306
4 2302 2574 2575 2306
4 2574 2317 2577 2578
4 2574 2576 2579 2577
4 2580 2581 2582 2478
4 2580 2583 2584 2585
4 2575 2586 2401 2587
4 2574 2317 2575 2577
4 2575 2586 2577 2401
4 2302 2575 2304 2306
4 2454 2465 2457 2459
4 2588 2234 2589 2590
4 2234 2588 2591 2590
4 2592 2199 2200 197
4 2234 2465 2588 2468
4 2465 2588 2463 2593
4 2455 2207 2467 2210
4 2454 2466 2455 2465
4 2233 2465 2241 2234
4 2465 2468 2234 2233
4 2465 2588 2468 2463
4 2439 2429 2433 2594
4 2455 2468 2465 2466
4 2595 2596 2260 2597
4 2595 2598 2599 2600
4 2601 2202 2598 2203
4 2202 2598 2602 2603
4 2595 2604 2605 2606
4 2202 2595 2598 2599
4 2598 2607 2603 2608
4 2595 2609 2601 2610
4 2598 2603 2599 2600
4 2611 2612 2613 2614
4 2611 2615 2301 2616
4 2611 2616 2301 2617
4 2596 2604 2206 2618
4 2618 2596 2619 2206
4 2206 2596 2619 2260
4 2620 2621 2266 2270
4 2596 2622 2623 2597
4 2595 2604 2596 2605
4 2596 2619 2624 2625
4 2596 2626 2619 2623
4 2596 2619 2626 2624
4 2596 2605 2624 2622
4 2467 2627 2628 2207
4 2467 2627 2464 2629
4 2467 2630 2631 2628
4 2368 2632 2633 2634
4 2388 2220 2615 2387
4 2387 2635 2636 2637
4 2387 2296 2635 2637
4 2387 2638 2639 2636
4 2612 2387 2615 2638
4 2387 2639 2638 2612
4 2400 2587 2640 2641
4 2641 2642 2643 2644
4 2645 2646 2647 2642
4 2646 2647 2642 2641
4 2641 2643 2397 2587
4 2641 2648 2646 2649
4 2641 2640 2650 2587
4 2641 2644 2650 2647
4 2651 2652 2382 2653
4 2651 2515 2654 2655
4 2656 2653 2657 2651
4 2651 2653 2382 2658
4 2286 2659 2660 2661
4 2662 2659 2289 2287
4 2663 2662 2659 2289
4 2289 2664 2665 2662
4 2662 2290 2666 2287
4 2662 2666 2290 2664
4 2662 2666 2667 2661
4 2668 2669 2670 2671
4 2662 2672 2667 2666
4 2662 2672 2666 2664
4 2218 2673 2674 2675
4 2673 2628 2675 2218
4 2208 2212 2218 2210
4 2218 2210 2628 2209
4 2676 2385 2677 2384
4 2676 2384 2678 2679
4 2676 2376 2680 2385
4 2676 2681 2680 2682
4 2676 2385 2681 2677
4 2676 2681 2683 2678
4 2426 2565 2396 2427
4 2426 2427 2396 2398
4 2414 2565 2426 2427
4 2402 2684 2685 2394
4 2426 2402 2686 2398
4 2565 2394 2687 2426
4 2688 2565 2394 2687
4 2247 2248 2249 2689
4 2247 2690 2691 2692
4 2247 2693 2694 2695
4 2247 2695 2253 2693
4 2247 2695 2251 2253
4 2247 2692 2695 2694
4 2696 2247 2693 2694
4 2375 2380 2676 2376
4 2680 2697 2470 2471
4 2680 2698 2470 2682
4 2680 2385 2699 2681
4 2680 2473 2470 2698
4 2345 2700 2349 2348
4 2376 2701 2472 2680
4 2680 2473 2474 2470
4 2680 2472 2474 2702
4 2680 2702 2701 2472
4 2703 2704 2705 2706
4 2703 2707 2708 2709
4 2703 2710 2707 2709
4 2711 2705 2708 2703
4 2712 2711 2705 2708
4 2703 2711 2705 2704
4 2703 2711 2713 2709
4 2714 2715 2716 2717
4 2718 2714 2715 2716
4 2717 2716 2714 2570
4 2717 2719 2716 2475
4 2717 2714 2715 2720
4 2717 2570 2307 2475
4 2314 2318 2721 2305
4 2671 2199 2190 2191
4 2314 2722 2721 2723
4 2313 2724 2314 2568
4 2707 2725 2726 2727
4 2314 2721 2418 2723
4 2314 2724 2723 2568
4 2314 2723 2418 2567
4 2728 2729 2730 2731
4 2339 2732 2712 2733
4 2734 2731 2735 2730
4 2729 2730 2736 2737
4 2734 2738 2731 2730
4 2731 2738 2739 2729
4 2740 1802 1810 1801
4 2741 2731 2738 2739
4 2491 2742 2487 2743
4 2484 2491 2744 2488
4 2491 2492 2271 2488
4 2491 2745 2268 2746
4 2491 2268 2271 2267
4 2491 2744 2488 2747
4 2707 2748 2708 2606
4 2707 2748 2727 2749
4 2707 2708 2750 2751
4 2751 2707 2703 2710
4 2752 2339 2753 2733
4 2592 2199 197 2754
4 2707 2710 2755 2725
4 2707 2725 2755 2726
4 2707 2749 2726 2750
4 2680 2702 2474 2473
4 2469 2475 2474 2472
4 2756 2702 2757 2758
4 2204 2203 2259 2759
4 2474 2760 2702 2757
4 2474 2579 2570 2473
4 2474 2570 2761 2475
4 2234 2762 2763 2589
4 2234 2232 2468 2589
4 2231 2762 2288 2284
4 2231 2234 2762 2763
4 2231 2284 2235 2232
4 2466 2233 2465 2241
4 2234 2242 2591 2241
4 2234 2241 2231 2242
4 2231 2764 2762 2242
4 2404 2406 2765 2407
4 2404 2407 2377 2653
4 2404 2766 2406 2413
4 2406 2767 2766 2768
4 2406 2767 2769 2770
4 2406 2771 2767 2770
4 2276 2279 2772 2773
4 2774 2775 2477 2481
4 2776 2276 2777 2778
4 2778 2773 2776 2276
4 2773 2776 2252 2779
4 2773 2780 2781 2778
4 2773 2782 2279 2772
4 2751 2783 2784 2785
4 2675 2674 2631 2673
4 2675 2673 2631 2628
4 2218 2786 2787 2675
4 2675 2788 2787 2789
4 2695 2693 2277 2253
4 2666 2692 2287 2536
4 2692 2287 2536 2695
4 2461 2555 2462 2557
4 2461 2790 2460 2452
4 2454 2451 2452 2460
4 2462 2791 2451 2460
4 2792 2657 2793 2794
4 2792 2655 2795 2796
4 2792 2526 2797 2422
4 2792 2798 2797 2434
4 2792 2799 2434 2794
4 2767 2770 2800 2769
4 2767 2771 2766 2801
4 2767 2802 2800 2803
4 2246 2779 2535 2249
4 2246 2248 2551 2804
4 2250 2276 2274 2251
4 2773 2779 2279 2782
4 2773 2279 2252 2276
4 2252 2535 2777 2276
4 2777 2252 2779 2535
4 2492 2805 2441 2271
4 2492 2449 2422 2267
4 2492 2449 2450 2798
4 2373 2806 2295 2807
4 2373 2299 2806 2528
4 2373 2808 2528 2809
4 2373 2295 2299 2297
4 2373 2809 2810 2808
4 2373 2810 2368 2808
4 2335 2811 2812 2790
4 2334 2336 2811 2205
4 2212 2213 2558 2790
4 2813 2814 2815 2816
4 2816 2817 2813 2814
4 2213 2790 2812 2811
4 2811 2558 2818 2819
4 2811 2820 2254 2821
4 2811 2820 2819 2254
4 2811 2821 2812 2213
4 2822 2823 2824 2825
4 2825 2826 2822 2823
4 2826 2407 2827 2653
4 2816 2828 2829 2830
4 2765 2823 2831 2407
4 2826 2825 2827 2823
4 2832 2833 2834 2835
4 2836 2837 2838 2833
4 2839 2837 2840 2841
4 2841 2842 2839 2837
4 2833 2837 2838 2834
4 2842 2808 2835 2833
4 2373 2808 2842 2528
4 2843 2535 2844 2777
4 2843 2691 2845 2846
4 2843 2691 2247 2845
4 2843 2845 2847 2846
4 2816 2848 2828 2849
4 2362 2850 2221 2851
4 2362 2221 2852 2851
4 2362 2853 2854 2364
4 2362 2363 2364 2852
4 2218 2562 2212 2855
4 2816 2856 2817 2830
4 2208 2212 2452 2216
4 2208 2210 2211 2452
4 2212 2216 2790 2452
4 2855 2558 2562 2212
4 2212 2216 2213 2790
4 2301 2225 2386 2223
4 2857 2816 2858 2848
4 2219 2221 2224 2228
4 2386 2225 2859 2230
4 2223 2391 2225 2228
4 2225 2860 2227 2228
4 2219 2227 2861 2228
4 2219 2228 2861 2221
4 2204 2203 2759 2254
4 2205 2602 2818 2338
4 2821 2336 2262 2204
4 2602 2203 2607 2598
4 2205 2599 2337 2336
4 2761 2475 2719 2472
4 2862 2831 2863 2864
4 2831 2863 2864 2761
4 2474 2761 2758 2472
4 2761 2570 2758 2716
4 2761 2864 2865 2863
4 2761 2831 2758 2472
4 2701 2756 2702 2866
4 2701 2407 2377 2867
4 2826 2831 2862 2823
4 2826 2701 2756 2758
4 2868 90 2869 573
4 2407 2826 2701 2653
4 2779 2279 2870 2871
4 2872 123 1247 0
4 2779 2871 2873 2874
4 2246 2779 2804 2874
4 2779 2873 2875 2876
4 2816 2815 2813 2857
4 2250 2277 2285 2553
4 2779 2535 2877 2777
4 2776 2777 2252 2779
4 2672 2664 2878 2879
4 2672 2664 2880 2881
4 2672 2538 2290 2881
4 2672 2664 2879 2880
4 2672 2538 2882 2883
4 2672 2883 2882 2879
4 2884 2885 2886 2887
4 2884 2873 2874 2804
4 2884 2888 2873 2804
4 2889 2884 2873 2874
4 2890 1068 56 1059
4 2884 2887 2551 2891
4 2892 2893 2894 2895
4 2887 2551 2804 2884
4 2804 2896 2897 2886
4 2884 2885 2898 2888
4 2404 2413 2406 2405
4 2406 2360 2899 2359
4 2406 2766 2767 2771
4 2768 2900 2765 2901
4 2768 2902 2900 2903
4 2768 2900 2902 2409
4 2404 2768 2409 2867
4 2654 2515 2658 2516
4 2516 2904 2905 2508
4 2906 2904 2905 2516
4 2654 2907 2908 2909
4 2654 2909 2908 2383
4 2495 2654 2383 2382
4 2651 2413 2653 2657
4 2651 2654 2382 2909
4 2654 2383 2382 2909
4 2235 2233 2232 2910
4 2235 2285 2232 2284
4 2911 2912 2894 2913
4 2235 2284 2244 2289
4 2244 2235 2289 2245
4 2235 2236 2283 2245
4 2235 2284 2283 2285
4 2914 2915 2916 2917
4 2332 2330 2324 2918
4 2919 2920 2921 2332
4 2332 2922 2918 2923
4 2914 2915 2279 2924
4 2279 2924 2925 2914
4 2914 2279 2874 2926
4 2914 2927 2550 2554
4 2914 2916 2926 2927
4 2928 2770 2327 2794
4 2928 2359 2770 2793
4 2845 2929 2846 2691
4 2845 2847 2846 2930
4 2247 2690 2845 2691
4 2247 2249 2845 2689
4 2536 2843 2691 2247
4 2843 2847 2845 2249
4 2619 2206 2262 2618
4 2604 2931 2618 2932
4 2604 2605 2606 2748
4 2389 2933 2934 2935
4 2298 2389 2390 2300
4 2389 2297 2936 2228
4 2228 2389 2298 2300
4 2389 2300 2933 2937
4 2938 2939 2940 2941
4 2942 2943 2944 2938
4 2945 2938 2942 2530
4 2938 2700 2939 2943
4 2946 2947 2948 2949
4 2938 2944 2528 2700
4 2950 2211 2951 2452
4 2950 2952 2951 2775
4 2950 2953 2954 2952
4 2950 2954 2953 2783
4 2950 2216 2481 2211
4 2381 2382 2495 2383
4 2381 2385 2677 2496
4 2381 2866 2377 2385
4 2581 2583 2582 2955
4 2581 2956 2583 2957
4 2478 2958 2581 2627
4 2581 2627 2958 2959
4 2464 2478 2582 2627
4 2960 2961 2962 2963
4 2964 2581 2958 2959
4 2581 2959 2964 2957
4 2581 2959 2955 2582
4 2273 2965 2629 2232
4 2960 2966 2338 2967
4 2273 2968 2275 2969
4 2273 2965 2232 2763
4 2402 2398 2970 2686
4 2971 2395 2393 2402
4 2911 2948 2947 2894
4 2393 2394 2396 2398
4 2426 2686 2402 2684
4 2426 2394 2402 2398
4 2686 2972 2415 2426
4 2402 2685 2395 2394
4 2684 2426 2394 2402
4 2406 2407 2405 2899
4 2406 2407 2899 2823
4 2701 2377 2866 2385
4 2973 1623 1631 1622
4 2826 2862 2831 2822
4 2653 2826 2701 2507
4 2407 2405 2974 2653
4 2701 2407 2867 2831
4 2975 2976 2489 2490
4 2975 2977 2978 2979
4 2975 2805 2490 2488
4 2975 2805 2488 2980
4 2951 2981 2774 2775
4 2329 2982 2326 2983
4 2984 2985 2952 2775
4 2981 2453 2986 2987
4 2981 2951 2453 2988
4 2981 2453 2989 2988
4 2981 2952 2990 2985
4 2455 2211 2453 2207
4 2208 2216 2452 2211
4 2218 2212 2562 2456
4 2467 2628 2210 2207
4 2208 2217 2211 2207
4 2218 2210 2212 2456
4 2218 2628 2210 2673
4 2218 2855 2212 2214
4 2564 2565 2991 2992
4 2564 2316 2313 2714
4 2564 2993 2994 2995
4 2996 2997 2994 2998
4 2997 2994 2998 2991
4 2991 2997 2994 2999
4 2991 2565 3000 2688
4 3001 3002 2415 3003
4 3004 3005 3006 3007
4 3001 3008 3003 3009
4 3001 3008 3010 3011
4 3011 3001 3012 2686
4 3001 3010 3013 2686
4 3012 3002 2415 3001
4 3014 3015 3016 3017
4 2654 2658 2382 2495
4 2651 2657 2794 2413
4 2651 2795 2655 2909
4 2651 2792 2657 2656
4 2382 2509 2658 2653
4 2382 2658 2509 2495
4 2651 2658 2656 2653
4 2611 2617 3018 2616
4 2382 3019 2909 2383
4 2909 2652 2408 2382
4 3020 3021 3022 3023
4 2650 2644 3024 3020
4 3020 3025 3026 3027
4 3020 3028 3029 3030
4 3020 3025 3031 3022
4 2605 2932 3032 2749
4 2605 2345 3033 3034
4 2605 3032 2624 3034
4 2605 2932 2749 2748
4 2353 2605 2345 3033
4 2654 3035 2516 2906
4 2651 2654 2658 2382
4 2495 2382 2507 2509
4 2316 2427 2396 2565
4 2266 2264 2620 2270
4 2416 2566 3036 2415
4 2414 2565 2427 2315
4 2991 2565 2688 2992
4 2564 3000 2565 2316
4 3037 2992 3036 2566
4 3038 2448 3039 3040
4 3041 2399 2318 2428
4 2399 2318 2428 2427
4 2414 2428 2398 2972
4 2414 2426 2565 2415
4 2426 2972 2415 2414
4 2414 2566 2565 2315
4 3042 3043 2310 3044
4 2565 2394 3000 2688
4 2396 2316 3000 2317
4 2302 2427 2399 2317
4 2654 2907 2655 3045
4 2907 3046 3047 3048
4 2908 2907 3046 2909
4 2654 2908 2907 2906
4 3049 2909 3050 3046
4 3051 2197 3052 195
4 3025 3022 3053 3031
4 3020 3031 3025 3029
4 3025 3054 3026 3055
4 3020 3029 3025 3027
4 3020 2682 3028 3056
4 3020 3025 3022 3026
4 2302 2575 2317 2304
4 2574 2307 3057 2570
4 2717 2313 2724 2307
4 2313 2307 2714 2316
4 2307 2570 2714 3057
4 2714 2715 2720 3058
4 2717 2714 2307 2570
4 2717 3059 2719 3060
4 2564 2313 2316 2315
4 2307 2308 2719 2475
4 2313 2714 2717 2720
4 2717 2720 2715 3059
4 3061 3004 3062 3063
4 3064 3065 3066 3067
4 3064 3067 3068 3065
4 3069 3070 2342 3071
4 3070 2342 3071 3064
4 3064 3072 3068 3073
4 3064 3072 3073 3070
4 3064 3071 3070 3074
4 3043 3075 3076 2439
4 3075 2354 2359 3077
4 3075 3078 3079 3080
4 3075 3076 2439 3081
4 2448 3082 3039 3040
4 3075 2358 2356 3083
4 3075 3084 2358 3083
4 3075 2358 3084 3081
4 3085 2932 3086 2625
4 3085 2932 2750 2749
4 3085 2238 3087 3088
4 3085 3088 3087 3089
4 3085 3089 3090 2726
4 3085 2749 2726 3090
4 3091 2345 2943 2939
4 2939 2345 3092 3034
4 3039 3093 3094 3095
4 3096 3097 3098 3099
4 2345 2353 3033 3091
4 2605 2353 2345 2346
4 2907 3048 3047 3100
4 3047 3101 3102 3103
4 3047 3103 3104 3101
4 3047 3049 3050 3046
4 3047 3048 3046 3105
4 3047 3105 3046 3106
4 3075 3084 3076 3081
4 2358 3083 3107 2357
4 2357 2358 2360 3107
4 2358 3108 2360 3107
4 3108 2358 2360 2770
4 2358 3109 3110 3108
4 2358 3081 2359 2770
4 2762 3111 3112 3113
4 2234 2590 2762 2589
4 2762 2589 2590 3114
4 3115 3116 3117 3118
4 2231 2234 2763 2232
4 2231 2763 2762 2284
4 2234 2762 2242 2231
4 3098 3099 3097 3119
4 2762 2590 2242 3111
4 2762 3111 2764 3112
4 3120 3121 3122 2853
4 3123 3124 3119 3098
4 3125 2853 2364 3126
4 3127 3128 3129 2108
4 3130 3131 3132 2829
4 2853 2365 3122 3133
4 3134 3135 2555 3136
4 3134 3137 2557 2555
4 3134 3137 2555 3135
4 2393 2396 2399 2398
4 2393 2399 2396 2317
4 2641 2640 3138 3139
4 2397 2399 2428 2398
4 2393 2397 2399 2304
4 2641 2397 2400 2587
4 2587 2397 2400 2401
4 2950 2775 3140 3141
4 2950 3142 2216 2812
4 2208 2217 2216 2211
4 2216 2481 2211 2217
4 2208 2212 2216 2213
4 2950 2812 3141 3142
4 2208 2215 3143 2213
4 2216 2812 3142 3144
4 2216 2812 3144 2213
4 2273 2763 2968 2965
4 2468 2629 2965 2232
4 3145 3146 3131 3147
4 2235 3148 2232 2285
4 3149 3150 1499 528
4 2233 3151 2236 2231
4 3152 2233 3151 2236
4 2235 2910 2232 3148
4 2590 2234 2242 2591
4 2234 2232 2589 2763
4 2907 2526 3048 3100
4 2526 2655 3045 2515
4 2526 3048 2490 2485
4 2907 2526 2655 3045
4 2202 2204 2203 2259
4 2202 2595 2599 2206
4 3153 2189 2188 2180
4 2202 2260 2595 2206
4 2203 2202 2598 2602
4 2203 3154 3155 3156
4 2203 3157 2602 3158
4 2203 2602 3157 2254
4 3154 2259 2203 2759
4 2759 3154 3155 2203
4 2227 2228 2366 2362
4 3131 3159 2829 3145
4 3160 796 804 795
4 3131 3161 3159 3145
4 3131 3147 3161 3145
4 3162 2633 2367 2810
4 3163 2634 2367 2633
4 2634 2367 2633 2368
4 2968 3164 2969 2273
4 2273 3165 2969 2553
4 3165 2629 3164 2582
4 3165 3166 2629 2955
4 3166 2553 3167 3165
4 2324 3168 2918 3169
4 3165 2553 3167 2554
4 3165 2582 3164 3170
4 2835 3171 2633 3172
4 2835 2633 2632 3173
4 2842 2835 2632 3173
4 2835 3171 2833 2808
4 2323 2325 2321 2333
4 2325 2327 2326 2434
4 2325 2440 2324 2330
4 2325 2321 2333 3174
4 2334 2811 2558 2205
4 2334 2558 2790 2556
4 2334 2811 2790 2558
4 2950 2783 2335 2954
4 2790 2954 2335 3175
4 3176 2586 2698 3023
4 3176 3177 3178 3179
4 3176 3177 3179 3180
4 3176 3023 2698 3181
4 3176 3178 3021 3182
4 2586 3183 2401 3021
4 2576 3176 3177 2586
4 2586 3184 2577 3185
4 2586 3183 3185 2401
4 2653 3186 2507 2509
4 2653 2405 2974 3187
4 2326 3168 2977 2982
4 2701 2376 2377 2385
4 2653 2657 2413 2405
4 2382 2377 2653 2652
4 2247 2689 2845 2690
4 2247 2248 2689 2696
4 2246 2804 2551 2874
4 2248 2549 2696 2253
4 2247 2843 2535 2536
4 2223 2301 2392 2300
4 2392 2391 2300 3188
4 2392 3189 2301 3062
4 2392 3007 3095 2391
4 3190 2286 2660 2661
4 3190 2661 3191 3192
4 3190 3193 3194 3191
4 3190 3194 3193 3195
4 3196 3197 3198 3199
4 3199 3200 3201 3202
4 3199 3203 3201 3197
4 3204 3205 3206 3199
4 3206 3199 3200 3196
4 2949 3207 3208 3203
4 3209 2983 2326 2982
4 3199 3205 3207 3208
4 3171 2528 2944 2700
4 3171 2633 2810 2808
4 3171 2349 3210 3172
4 3171 2810 2809 2808
4 3211 3171 2633 2810
4 3171 3212 3210 2349
4 2227 3213 2860 2226
4 2227 3213 2226 3214
4 2366 3122 3016 3014
4 2362 3122 2227 2861
4 2227 3215 2228 2860
4 2227 2228 3215 3014
4 2227 2228 3014 2366
4 2429 3216 2430 2440
4 2430 3217 2264 3218
4 2429 2432 2439 2450
4 2430 2432 3219 2431
4 2432 3219 2448 2272
4 3187 2653 2657 2656
4 2826 2822 2831 2758
4 3209 2977 2976 3220
4 3221 3222 3223 3224
4 2701 3225 2377 2376
4 2375 2385 2377 2376
4 2404 2413 2653 2652
4 2404 2407 2867 2377
4 2404 2377 2411 2652
4 3008 3226 3012 3002
4 3008 3010 3011 3227
4 3228 2632 3229 2839
4 2852 3228 2634 3230
4 2368 2632 2808 2633
4 3228 3231 2632 2634
4 3232 2839 2373 3228
4 3103 3233 3101 3102
4 2634 2852 2364 2363
4 2368 3228 2632 2634
4 3234 2590 2588 2589
4 3234 3235 3236 3237
4 3234 2588 3236 2589
4 2214 3238 2819 2213
4 2214 3238 3143 3239
4 3240 3241 3242 3243
4 3240 3244 3245 3115
4 3240 3246 3241 3243
4 3247 2846 2538 2539
4 3247 2691 2929 3248
4 3247 3249 2667 3250
4 3247 3251 3249 3252
4 2327 2794 2983 2326
4 2882 3253 2883 2538
4 3247 2538 3253 2539
4 3247 2846 2929 2691
4 2543 3254 3255 3216
4 2430 2441 2271 2272
4 2543 3218 2620 2735
4 2543 2620 2264 3256
4 2543 2441 2440 3169
4 2543 2440 3255 3257
4 2543 3169 2440 3257
4 3258 2402 2685 2395
4 2394 3259 2395 2396
4 2426 2394 2398 2396
4 2687 2426 2394 2684
4 2395 2393 2402 2394
4 3260 2266 3261 3262
4 3260 3263 2229 3262
4 2266 3262 2229 3264
4 3265 3266 2269 3267
4 2266 3268 3266 2268
4 2266 2264 2265 2230
4 2266 3266 2229 2230
4 2266 2264 3269 2620
4 3270 3271 3272 3273
4 2230 2265 3274 2264
4 2263 2266 3266 2268
4 2265 2266 3275 2263
4 2264 3218 2230 3269
4 2266 3266 2230 3275
4 2263 3266 2266 3275
4 3276 2274 2537 2288
4 2762 2288 2284 2763
4 2282 2285 2274 2277
4 2235 2289 2245 2283
4 2273 2763 2284 2274
4 2831 2867 2900 2765
4 2831 2901 2900 3277
4 2831 2901 2862 2765
4 2831 2864 3278 3277
4 3279 2850 3263 3280
4 3279 2850 3280 3281
4 3279 3121 3282 3283
4 3279 3281 3121 2850
4 3284 194 3051 1193
4 3049 2796 3100 3285
4 3286 3103 3049 3102
4 3049 3286 3102 3287
4 3049 2655 3100 2796
4 3049 3286 3287 3285
4 2907 2526 2527 3048
4 3078 3288 3289 3290
4 3078 3077 3291 3288
4 3078 3292 3288 3290
4 2717 2307 2719 2475
4 2719 3293 3059 2865
4 2719 2724 3294 2308
4 2980 3295 3296 3297
4 3294 2864 3298 3299
4 2719 3299 3059 3293
4 3300 3294 3299 2724
4 2976 3301 3220 2979
4 2719 3299 2724 3060
4 3302 3303 3304 3305
4 3306 3302 3307 3304
4 3304 3305 3306 3302
4 3302 3308 3309 3310
4 2631 2910 3311 3312
4 2675 3313 2631 2674
4 2467 2628 2631 2673
4 2631 2910 3313 3311
4 2628 2675 2218 2789
4 3314 3315 3316 3317
4 3314 2366 3014 2374
4 3314 2374 3318 2369
4 3314 2374 3319 3318
4 2450 2446 2432 2447
4 2446 3320 3321 3096
4 2421 3322 2423 2449
4 2449 2798 2434 2450
4 2449 2422 2521 2799
4 2449 2450 2438 2447
4 2415 3003 2416 2417
4 3323 845 836 837
4 3012 2684 2415 2687
4 2489 2486 3296 2744
4 2414 2417 2416 2420
4 2972 2417 3324 3001
4 3234 2589 3114 2590
4 2588 3325 2457 2459
4 2761 2716 2475 2570
4 2701 2702 2758 2472
4 2702 2757 2758 2474
4 2758 3326 2570 3327
4 2758 2822 3327 2757
4 2474 2760 2757 3328
4 2474 2761 2472 2475
4 2831 2863 2822 2862
4 3329 1888 3330 1889
4 2761 2758 2863 2716
4 2526 2796 2797 3100
4 2651 2792 2515 2655
4 2907 3049 2909 2655
4 3222 3331 3153 3332
4 2495 2516 2904 2654
4 2792 2526 2515 2655
4 2792 2526 2655 2796
4 2381 2382 2377 2507
4 2651 2792 2794 2657
4 2721 2305 3333 3334
4 2721 2305 3334 2308
4 2721 2305 2318 2425
4 2938 2700 2528 2833
4 2531 2945 3335 2530
4 2944 2700 2348 3212
4 3171 3212 2944 2809
4 2938 2942 2530 2944
4 3336 2451 3337 2988
4 3336 2988 3338 3339
4 3338 3336 3337 2988
4 3340 3341 3342 3336
4 3336 3325 3343 3344
4 3336 2457 3325 2458
4 3336 3339 3345 3342
4 3267 2269 3346 3347
4 3267 3348 3347 3346
4 3267 3275 2860 3213
4 3267 3266 3275 3213
4 2717 2719 2724 3060
4 2574 2307 2317 3057
4 2724 3349 3060 3299
4 2724 3299 3350 3351
4 2761 2719 2716 2865
4 3294 3299 2724 2719
4 2724 3060 3352 2568
4 2724 2723 2568 3353
4 2724 3300 3350 3299
4 3354 3355 3356 3357
4 3354 3358 3359 3355
4 3354 3173 3356 3231
4 3354 3358 3360 3359
4 3354 3360 3361 3362
4 2730 3269 3363 2737
4 2729 2616 3364 2615
4 3331 3365 3332 3223
4 2729 2737 3366 2615
4 2729 2615 3364 2737
4 2730 2728 3218 3364
4 2430 2271 2543 2264
4 3218 3274 3367 3217
4 2730 3269 3218 2620
4 2264 3218 3274 2230
4 3218 3269 3364 2230
4 3218 3367 3274 3364
4 2884 2551 2874 2550
4 2246 2804 2779 2249
4 2248 3368 2551 2804
4 2246 2874 2551 2550
4 2874 2279 2246 2779
4 2406 2360 2359 2770
4 2360 3108 2769 3369
4 2406 2823 2360 3370
4 2357 2360 2359 2899
4 2406 2359 2899 2405
4 2404 2768 2766 2409
4 2360 2899 3371 2823
4 3025 3026 3054 3372
4 3025 3053 3022 3372
4 3020 3027 2650 3030
4 3020 3022 3031 2682
4 2682 3028 3029 3020
4 3022 3031 3373 3053
4 3022 3373 2682 3181
4 2429 2440 2325 3174
4 2325 2441 3374 2440
4 2543 2441 3169 3256
4 2441 3374 2440 3169
4 2441 2271 2805 3169
4 2492 2798 2441 2805
4 2484 2492 2490 2422
4 2492 2441 2798 2450
4 3375 3376 3377 3378
4 3375 3379 3380 3381
4 2760 2756 3382 2866
4 3331 3383 3224 3222
4 2760 2698 2702 2699
4 2760 2473 2698 2576
4 2760 3180 2698 3384
4 2760 3328 3385 3382
4 2779 2873 2871 2875
4 2888 2889 2884 2873
4 3331 3383 1210 3224
4 2873 2897 2888 3386
4 2873 2871 2875 3387
4 2873 3387 2876 3388
4 2873 2874 2871 2889
4 3389 3390 3391 3392
4 3389 3393 3390 3392
4 3389 3394 3391 3395
4 3331 3383 3396 1210
4 3389 3397 3398 3399
4 3389 3399 3400 3392
4 2360 3369 2769 3370
4 2358 2770 3110 3081
4 2359 2770 2793 2657
4 3075 2354 3080 2356
4 2360 3108 2770 2769
4 2357 2899 2355 3401
4 3320 3402 3403 3404
4 3320 3404 3096 3082
4 3405 2423 3322 3320
4 3320 3406 3404 3407
4 2448 3320 3408 2446
4 3322 2446 2447 3408
4 3320 3040 3402 3404
4 2393 2401 2304 2317
4 2302 2399 2304 2317
4 2304 3024 2303 2306
4 2575 2304 2306 3024
4 2845 2690 3409 3410
4 3411 2690 3412 3413
4 2247 2695 2692 2536
4 2690 3412 2689 3409
4 3250 2690 3248 3413
4 3413 2692 3250 2690
4 2695 2694 2286 3073
4 2246 2247 2535 2251
4 2690 3413 2694 3414
4 2694 2692 3192 3413
4 2694 2693 3072 3073
4 2694 3072 2693 3068
4 2694 3415 3072 3068
4 3190 3195 2694 3194
4 2571 1175 1166 192
4 3416 3417 3396 3418
4 2247 2694 2690 2692
4 3419 2187 2196 2195
4 2695 3073 2277 2693
4 3420 3421 3422 3138
4 3420 3423 3424 3425
4 3420 3425 3138 3423
4 3420 3426 3138 3422
4 3427 3428 3429 3430
4 3427 3431 3432 3433
4 3427 3434 3435 3436
4 3427 3430 3434 3437
4 3427 3430 3437 3438
4 3427 3435 3430 3431
4 3431 3436 3433 3427
4 3417 3396 3418 3331
4 2397 2398 2428 2648
4 2302 2574 2317 2575
4 2318 2305 2314 2302
4 2427 2398 2399 2396
4 2427 2399 2398 2428
4 3439 3440 3441 3442
4 3442 2684 2687 2685
4 2845 3443 3248 3410
4 2689 2249 3444 3445
4 2689 3446 3368 3447
4 2689 3414 3448 3412
4 2689 3449 3446 3447
4 3449 2689 3445 3447
4 3365 3331 3153 3450
4 3396 3331 3417 3450
4 3178 3183 3451 3452
4 3183 3185 3453 3454
4 3183 3451 3452 3455
4 3183 3453 3456 3454
4 2841 2839 3457 2840
4 2842 2531 2841 2529
4 2841 2531 2836 3458
4 2841 2529 3459 3457
4 3460 3189 3461 3462
4 3460 3463 2937 2390
4 3460 2300 2388 2390
4 3460 2301 2300 3189
4 3460 3464 3465 3189
4 2611 2613 2612 2615
4 3460 3464 3189 3462
4 2853 2854 3466 3283
4 2611 3460 2388 2614
4 3467 3425 2400 3468
4 3467 3469 3470 3471
4 3467 3472 3471 3473
4 2402 2395 3467 2971
4 2632 3173 3231 3356
4 2885 3450 2886 3417
4 2839 2632 2842 2373
4 2373 2839 3232 2299
4 2842 2632 3474 3173
4 2368 2810 2633 2808
4 2842 2632 2835 2808
4 3171 2833 2808 2528
4 2942 2944 2943 3244
4 2943 2345 2350 2348
4 2345 2347 2700 3092
4 2700 2349 3475 2347
4 2945 2531 3476 2941
4 3171 2809 2944 2528
4 2344 3477 2352 3478
4 3477 2346 2352 2610
4 3477 3479 3480 3481
4 3477 3479 2610 2352
4 3477 3481 2349 2347
4 2469 3298 2471 3482
4 2575 3024 2470 3023
4 2470 3024 3056 2682
4 2469 3294 2475 2472
4 2469 2473 2475 2306
4 2484 2486 2489 2744
4 2484 2491 2487 2744
4 2493 2485 2519 2424
4 2493 2519 2485 3483
4 3375 2487 2493 3484
4 2493 3321 2267 2422
4 2691 2534 2666 2538
4 2846 3485 2847 2844
4 2846 3485 2539 3486
4 2845 3409 2690 2689
4 3247 2846 2691 2538
4 3487 2036 2045 2044
4 1242 212 3488 213
4 2202 2205 2206 2599
4 2205 2818 2602 2254
4 2202 2205 2602 2203
4 2602 2338 2603 2966
4 2334 2205 2337 2336
4 2203 3156 2601 2259
4 2602 2966 2607 3158
4 2635 3489 2636 3490
4 1716 3488 212 213
4 2387 2635 3489 2636
4 2347 3092 3491 3475
4 2635 2636 3492 3493
4 2635 2299 2529 3492
4 2635 3232 2296 3489
4 3494 1250 1251 1259
4 2595 2596 2604 2206
4 2596 2932 2604 2618
4 2204 2254 3495 2821
4 2604 2618 2931 2336
4 2595 2260 2596 2206
4 2204 2206 2205 2336
4 2835 3496 3172 2633
4 2204 2254 2821 2336
4 3497 3498 3499 2626
4 2596 2619 2260 2623
4 2619 3500 2260 2623
4 2835 3173 2834 3501
4 3497 2260 2262 2619
4 2260 2206 2262 2619
4 2619 2260 3500 3497
4 3286 3285 3209 3502
4 3286 3503 3103 3102
4 3286 3287 3504 3102
4 3106 3047 3101 3102
4 3390 3395 3505 3506
4 3390 3392 1720 3507
4 3508 3242 3509 3510
4 3511 3390 3512 3513
4 3390 3507 3511 3391
4 2195 2572 3284 3419
4 3390 3507 1729 3513
4 2273 2232 2629 2285
4 2285 3166 3148 2629
4 2284 2288 2274 2763
4 2232 2285 3148 2629
4 2250 2273 2969 2553
4 2273 2232 2285 2284
4 2285 3514 3148 3166
4 2285 3148 3514 3073
4 2285 2553 2277 2548
4 2285 3514 2553 2548
4 2285 2283 3148 3073
4 2217 2207 2209 3515
4 2207 2209 3515 2628
4 2467 2210 2628 2673
4 2467 2629 2910 2630
4 3516 1708 3517 3518
4 2631 2910 3312 2630
4 2467 2631 2630 2910
4 2675 2631 3519 2628
4 2628 3515 2627 2630
4 2675 2789 2628 3519
4 3481 3491 3520 3475
4 3375 2493 3381 3484
4 2446 2432 2272 2450
4 2446 2272 2492 2450
4 2493 2422 2424 2423
4 2422 2521 2421 2449
4 3321 2422 2423 2449
4 3478 3521 3522 3523
4 2938 2836 2531 2941
4 3321 3096 3406 3484
4 2565 2688 2992 2687
4 2688 3524 2997 3525
4 2688 3525 3526 3527
4 2711 3528 3529 2857
4 3530 3529 3531 2711
4 3532 3530 3529 3531
4 2703 2711 2709 2708
4 2711 2709 2708 3528
4 3528 2711 3533 2606
4 2711 3529 3528 3533
4 2711 3531 3534 2848
4 2711 2704 3534 3530
4 3134 2557 3137 3535
4 2461 2563 3137 2557
4 3137 2561 2555 2241
4 2498 3536 3537 3538
4 3384 2498 2501 3382
4 2501 3384 2866 2500
4 2498 2510 3539 3540
4 2498 2510 3540 2500
4 2498 3536 2501 3382
4 3384 2498 3540 2500
4 3541 3235 3542 3543
4 2275 3541 2274 2276
4 3541 2275 2274 2763
4 3541 2763 2288 3114
4 3541 2763 3235 2275
4 2571 191 2194 192
4 3541 3235 3114 3542
4 2362 2364 2854 2852
4 2853 2854 2364 3126
4 3544 3545 3546 3333
4 3349 3547 1306 1305
4 2827 2974 3548 3549
4 2854 2364 3126 3550
4 2364 3125 3230 2634
4 2364 3125 3126 3230
4 3551 2416 2420 2566
4 2416 3552 2566 3551
4 3001 2415 3012 2686
4 2414 2416 2566 2420
4 2414 2427 2318 2315
4 3300 3553 3545 3350
4 2723 3353 2722 3554
4 2416 3003 3002 3555
4 2722 3545 3554 3353
4 2416 2417 3003 3556
4 3557 3558 3559 3560
4 3561 1914 1905 1906
4 3557 3559 3558 3562
4 3557 3563 3217 3216
4 3557 3219 3217 3063
4 3557 2430 2431 3216
4 2601 3564 3156 3565
4 2202 2599 2598 2603
4 2202 2595 2601 2598
4 2601 2607 3565 3156
4 2202 2260 2204 2259
4 2833 2834 2835 2842
4 2835 2832 3501 2834
4 2835 3172 3520 3475
4 3354 3173 3231 3496
4 2632 3229 2839 3474
4 2632 2842 2373 2808
4 2842 2835 3173 2834
4 2217 2207 2208 2209
4 2208 3143 2214 2213
4 2216 2213 2790 2812
4 3142 3566 2483 2216
4 2216 3566 2217 2215
4 2859 3274 2386 2230
4 3095 2859 2391 3275
4 2859 2230 2265 3274
4 2859 3275 3567 2265
4 2859 3274 2617 2301
4 2859 3275 3095 3567
4 2859 3274 3061 2617
4 3568 3569 3570 1918
4 2796 3100 3209 2797
4 2526 2797 2422 2490
4 2526 2527 2422 2521
4 3493 3492 3335 3571
4 2983 2797 2794 2796
4 2792 2526 2796 2797
4 2907 3048 3572 3046
4 2595 3573 2598 2600
4 2601 3574 2610 3575
4 2595 2259 2601 2597
4 2259 3576 2597 3577
4 2601 3576 2259 3156
4 3578 1905 3579 149
4 2595 2260 2259 2597
4 2598 2601 2607 2610
4 2601 3156 3564 3576
4 3580 445 453 444
4 2389 2934 2297 2807
4 2389 2295 2390 3581
4 2295 2299 2637 2806
4 2295 3581 3582 2806
4 2373 2299 2295 2806
4 2465 2588 2593 2457
4 2454 2561 2465 2459
4 3234 2588 2590 3583
4 3188 3584 3585 3006
4 3493 3490 3586 3587
4 2273 3164 3165 2629
4 2232 2589 2965 2468
4 2762 2589 3114 2763
4 2991 2688 2997 3525
4 2991 3525 2999 3588
4 2997 2998 3589 3590
4 3489 3591 3592 3593
4 2997 3594 3595 3596
4 2997 3597 3595 3598
4 2997 3595 3594 3598
4 3467 2971 2395 3599
4 2395 2685 3600 3601
4 2790 2334 2335 2811
4 2334 2556 2790 3175
4 2811 2205 2336 2254
4 2461 2460 2790 2556
4 2211 2452 2453 2951
4 2211 2774 2775 2951
4 2211 2774 2481 2775
4 2207 2464 2627 2478
4 2207 2476 2958 3602
4 2476 2207 2774 2481
4 3603 3604 830 3605
4 2928 2770 2794 2793
4 3606 876 885 884
4 2928 2770 2333 2327
4 2709 2848 3607 2856
4 2769 3608 3369 3108
4 2767 2803 2766 2903
4 2767 2768 3370 2903
4 2406 2770 2413 2771
4 2406 2413 2359 2405
4 2406 2769 2360 2770
4 3609 733 724 725
4 3110 2328 2322 2333
4 2770 2328 2771 2800
4 2767 2903 3370 3610
4 3222 2197 2188 2189
4 2900 2903 3611 2901
4 2900 3611 2902 3612
4 3613 3614 1582 1573
4 2900 3615 2409 2867
4 2843 2847 2249 2877
4 2779 2535 2249 2877
4 2249 2804 2876 3445
4 2246 2247 2249 2535
4 2247 2690 2696 2689
4 2249 3445 3616 3444
4 2248 3368 3447 2689
4 2843 2877 2249 2535
4 2387 2296 2220 3489
4 2219 2223 2220 2386
4 2222 2386 2230 2219
4 2298 2389 2297 2295
4 2220 3489 2296 3617
4 2220 2301 2615 2386
4 2298 2220 2296 2224
4 3618 3237 3235 3543
4 3618 2968 3235 3619
4 3618 2924 3620 2772
4 3618 2973 2772 3620
4 2543 3255 2440 3216
4 2429 2441 2450 2434
4 2429 2440 3174 3216
4 2543 2271 2441 3256
4 2430 3217 3557 3219
4 2859 3062 2301 2617
4 2543 3257 3255 2735
4 2859 3274 2265 3061
4 3274 2301 2386 2616
4 2263 2264 2272 2265
4 2225 2392 2301 2859
4 2219 2223 2225 2228
4 2300 2228 2391 2223
4 2219 2386 2230 2225
4 2363 2299 3232 2296
4 2704 3146 3534 3621
4 3336 2457 2458 2451
4 2387 2220 3622 3489
4 2298 2224 2296 2297
4 2296 2363 2297 2224
4 2224 3617 2296 2363
4 3623 3169 2805 3256
4 3623 3624 2978 3625
4 3623 3626 3627 3256
4 3623 2805 3169 2978
4 2411 2382 2377 2375
4 3628 3629 3630 3631
4 3628 3631 3630 3632
4 3631 3633 3634 3632
4 3628 3635 3629 3631
4 3628 3629 3636 3243
4 3315 3637 3316 3317
4 3315 3638 3639 3317
4 3014 3640 3641 3017
4 3640 3314 3014 3319
4 3314 3014 2366 3642
4 3314 3642 3315 3016
4 3314 2369 3643 3316
4 3314 3016 3014 3642
4 3314 3016 3315 3017
4 3314 3640 3643 3319
4 3262 3280 3644 3645
4 3262 3268 3281 3264
4 3280 3262 3644 3281
4 3646 3644 3647 3281
4 2439 3077 2438 3291
4 3648 3649 1563 1564
4 2432 2447 2439 2450
4 3043 2594 2439 3076
4 2432 3038 3650 2448
4 3651 3652 1546 1547
4 2439 2450 2447 2438
4 2387 2220 2615 3622
4 2613 2612 2615 3653
4 2612 2615 3653 2638
4 3654 2881 3655 2540
4 2638 3366 2615 3653
4 2193 3656 2571 3657
4 2638 3658 3366 3653
4 3659 2612 3653 2638
4 3532 3530 3531 3660
4 2638 2636 3659 2639
4 2252 2279 2275 2276
4 2779 2279 2782 2870
4 2914 2924 2916 2915
4 2914 2924 2925 2916
4 2246 2250 2914 2278
4 2275 2276 2279 2772
4 3219 2272 3567 2448
4 3219 2430 2431 3557
4 3219 3061 3063 3093
4 3219 3661 2431 3038
4 3219 3661 3557 2431
4 3219 3061 3093 3567
4 2394 2688 3601 3662
4 2398 2686 3013 2970
4 2350 3663 3664 3665
4 2402 3666 2686 2970
4 3667 3130 3607 2829
4 3668 3265 3268 2268
4 3266 3265 3268 3669
4 3266 3275 3213 2226
4 3266 2226 3264 2229
4 2266 3269 2230 2229
4 2976 3296 2975 2489
4 2975 2489 2488 2490
4 2489 2490 3048 2486
4 2484 2744 2489 2488
4 2489 2980 2488 2744
4 2489 3048 2976 3104
4 2486 3296 3104 2489
4 3670 2486 3296 3104
4 3656 1175 1174 1165
4 2235 2910 3148 2236
4 2273 2274 2284 2285
4 2285 3073 2277 2283
4 3148 3514 3073 3671
4 3148 2910 3672 2236
4 2381 2496 2677 3673
4 2900 3225 3615 2867
4 3225 2867 2378 3615
4 3137 2563 2561 3674
4 3607 2829 2830 2856
4 2561 3675 2563 2559
4 2561 2241 3676 2466
4 2465 2561 2241 2459
4 2909 2383 3677 2908
4 3678 118 3679 321
4 3680 3681 3682 3278
4 3680 3683 3681 3684
4 2901 3683 2903 3685
4 3686 3679 1283 119
4 3680 3687 3688 3689
4 3680 3688 3687 3685
4 3680 3278 3688 3277
4 3680 3611 3277 3688
4 3607 2829 3690 2830
4 3691 3692 3693 3140
4 3692 3694 2984 3140
4 2713 2848 2828 2829
4 2856 3607 2829 2848
4 2482 3691 2481 3694
4 2595 2346 3573 2606
4 2984 3141 3692 3140
4 3140 3141 3692 3142
4 2950 3141 3140 3142
4 2910 2236 2233 3152
4 3695 3696 3697 3698
4 2580 3170 2583 2585
4 2958 2476 2478 2480
4 2218 2209 2628 2789
4 2628 2207 2627 3515
4 2478 2582 2627 2581
4 2476 2477 2479 2482
4 2476 2207 2481 2217
4 2496 3673 3699 2677
4 2496 3699 3673 2497
4 2496 2497 3673 2495
4 2496 3700 2500 3384
4 3701 1201 1192 1202
4 2493 2422 2485 2424
4 2492 2422 2449 2798
4 2422 2424 2521 2527
4 2792 2521 2422 2799
4 3375 2493 3379 3381
4 2491 3484 2493 2487
4 2422 2798 2797 2792
4 2526 2485 2422 2527
4 2446 2267 2492 2272
4 2484 2492 2491 2488
4 3442 2688 2685 2687
4 3226 3002 3702 3012
4 3012 3703 2686 2684
4 3704 3705 3706 3697
4 3707 534 533 525
4 3708 3002 3036 3012
4 2415 2684 3012 2686
4 2684 2415 2687 2426
4 2688 2687 3526 2992
4 2991 3525 3588 3526
4 2991 2992 2688 3526
4 2381 2383 3673 2384
4 2760 2698 2699 3384
4 2680 3181 2699 2698
4 2758 2822 2757 2756
4 2760 2702 2698 2473
4 2831 2758 2822 2863
4 2701 2385 2866 2702
4 3467 2971 3468 2400
4 2402 2971 3467 2400
4 3467 3666 3470 3258
4 3709 3420 3423 3424
4 3420 3710 3711 3712
4 3425 2970 2648 3423
4 3421 3468 3138 3425
4 3420 3425 3421 3138
4 3425 2648 2970 2400
4 2261 3713 3714 3154
4 2261 3497 2260 2262
4 3500 3577 3497 2260
4 2692 3413 3250 3192
4 2261 3713 3154 3577
4 2204 2259 2261 2759
4 2259 2261 3577 2260
4 2202 2206 2204 2260
4 2598 2203 2607 2601
4 3715 3716 3065 3717
4 3212 3718 3719 3210
4 3449 3720 1199 1190
4 2944 2700 2943 2348
4 2943 2944 2938 2700
4 3721 3415 3722 3696
4 3244 3723 2944 2348
4 3240 3212 3241 2809
4 3724 3705 3725 3704
4 3726 3727 3728 3729
4 2561 3675 3730 3674
4 2561 3674 2563 3675
4 3137 2241 2555 3135
4 2241 3135 3730 3731
4 2241 3730 3732 2243
4 2241 2243 3731 3730
4 2594 3044 3042 3558
4 2594 2429 2433 3174
4 2594 2431 3558 3042
4 3042 2594 3043 3076
4 2594 2431 3560 3558
4 3072 3073 2693 3068
4 3072 3733 3734 3195
4 3072 2370 3065 3722
4 3190 2286 2694 3733
4 3072 3722 3065 3415
4 2622 3092 2623 3491
4 2345 2622 2346 2347
4 2596 2260 2597 2623
4 2345 3092 2622 2347
4 2596 2624 2605 2932
4 2317 2575 2401 2304
4 2302 2305 2308 2303
4 2644 3020 3056 3024
4 2470 3024 2306 2303
4 2304 2643 3024 2587
4 3024 2650 3023 2587
4 2899 3735 2823 2825
4 2825 3736 2823 2824
4 2825 2823 3736 3735
4 2825 3401 2899 3735
4 2825 3737 3401 3735
4 2690 3248 3411 3410
4 2279 2246 2779 2252
4 2843 2535 2777 2877
4 2246 2249 2248 2804
4 2252 2535 2276 2251
4 2773 2252 2279 2779
4 2357 3401 2355 3738
4 2974 2355 2354 2899
4 3739 2974 2355 2354
4 2825 2355 2899 3401
4 2899 3371 3735 3401
4 2360 3740 3370 2823
4 2974 2407 2827 2899
4 3397 3470 3666 3394
4 2970 3666 3741 3425
4 3425 3397 3741 3710
4 3742 3397 3398 3741
4 3397 3703 3742 3399
4 3389 3397 3470 3710
4 3397 3666 3703 3394
4 3389 3397 3399 3394
4 2446 2492 2449 2450
4 3411 3743 3744 3745
4 2432 3650 2439 2447
4 2492 2271 2441 2272
4 2449 3321 2422 2267
4 2429 2431 2430 3216
4 2441 2450 2434 2798
4 2429 2434 2450 2438
4 2449 2799 3288 2438
4 2429 2450 2439 2438
4 3075 3078 3077 3291
4 2492 2272 2267 2271
4 3746 3747 3748 2812
4 3746 2625 2618 2932
4 3746 2618 2931 2932
4 3746 3748 3749 2931
4 2420 3750 2417 3751
4 2420 2419 2417 3750
4 2420 2418 3750 3752
4 2420 2417 3556 3751
4 3556 2420 2416 2417
4 3426 3420 3753 3754
4 3426 3422 3754 3755
4 3420 3138 3426 3709
4 3426 3422 3756 3138
4 3426 3422 3755 3756
4 3426 3709 3756 3757
4 3420 3709 3426 3711
4 3426 3709 3757 3758
4 2286 2659 2661 2287
4 3721 3412 3704 3724
4 2283 2286 2287 2659
4 2659 2663 3759 3760
4 2659 3761 2663 3762
4 2659 2289 3759 2663
4 3110 2322 2800 3763
4 2358 3110 3109 3084
4 3110 2322 3764 3765
4 3110 2333 3765 3081
4 3110 3766 2322 3763
4 2491 2746 2747 2745
4 2491 3484 2742 2267
4 2263 3267 3266 3275
4 2268 2269 3668 3265
4 2268 2270 2745 2271
4 2268 2742 3668 2269
4 3259 3000 3767 2317
4 2307 2316 2313 2302
4 2317 3057 2316 3767
4 2574 3768 3057 2578
4 2575 3023 2586 2587
4 3020 3024 3023 2682
4 2317 2396 2403 3259
4 2396 2403 2393 2317
4 2574 3057 3768 2570
4 2690 2694 3413 2692
4 2696 2693 3068 3414
4 2694 2693 2696 3414
4 2696 2549 2693 2253
4 2690 2694 2696 3414
4 2247 2248 2696 2253
4 3073 3769 3671 3070
4 3148 3769 3073 2283
4 2694 3072 3733 3073
4 3514 2548 2285 3073
4 3073 2548 2693 3074
4 2424 2521 2421 2422
4 2799 2656 2793 2792
4 2792 2515 2521 2656
4 2792 2797 2796 2794
4 2792 2526 2521 2515
4 3770 2514 2517 2518
4 3260 3263 3771 3772
4 3262 3260 3280 3645
4 3260 3263 3280 3773
4 3260 3263 3773 3771
4 3771 3261 3645 3260
4 3414 3696 3721 3704
4 2394 3000 3662 3259
4 3245 3774 3775 3776
4 2395 2403 2396 3259
4 2393 2971 2402 2400
4 2427 2399 2317 2396
4 2302 2318 2427 2315
4 2393 2398 2397 2400
4 2940 2624 3777 3778
4 2940 3779 2624 3778
4 3780 2940 2836 3781
4 2940 3780 3778 3781
4 2940 2833 2838 3092
4 2940 3092 2624 2939
4 2938 2941 2940 2836
4 3782 2838 3781 2836
4 2838 3781 2836 2940
4 3783 70 71 712
4 2400 2641 3138 2648
4 2640 2401 2400 3468
4 3183 2401 2640 3468
4 3183 2640 3451 3784
4 3785 1733 3786 3787
4 2640 3451 3784 3788
4 2944 2806 3582 3774
4 2295 3582 2935 2807
4 3240 2944 3582 3245
4 3240 3246 2809 3241
4 2295 2806 3582 2807
4 3581 2806 3774 3582
4 2807 3246 2809 2944
4 3789 3774 3775 3581
4 3581 3774 3775 3245
4 3790 3346 3791 3097
4 3792 3790 3124 3793
4 3790 3791 3792 3119
4 3790 3794 3348 3795
4 3790 3346 3348 3794
4 3790 3793 3795 3348
4 3796 2220 2222 3797
4 2220 3797 3617 2221
4 3018 2616 2617 3367
4 3460 3062 3465 2617
4 2611 3460 2301 2388
4 3460 2300 2301 2388
4 3274 2616 2386 3364
4 2617 3460 2301 2611
4 2301 2615 2386 2616
4 3469 3471 3435 3798
4 2395 3258 3469 2685
4 3469 3258 3799 2685
4 3467 3469 2395 3258
4 2842 2841 2531 2836
4 3228 2839 3800 3232
4 2835 2808 2632 2633
4 2839 2373 2842 2299
4 3245 3801 3636 3802
4 2839 3232 2299 2529
4 2345 2939 3091 3034
4 2348 3803 3804 2293
4 3723 2944 2348 3212
4 2348 3804 3805 2293
4 2348 3805 3804 3723
4 3718 3805 3210 3212
4 3726 3705 3806 3724
4 2636 2637 3807 2639
4 2638 2639 3659 2612
4 3808 3809 3245 3776
4 2636 3659 2639 3810
4 2387 3658 2636 3489
4 2470 2697 2682 3056
4 2698 2682 2680 3181
4 2841 2837 2840 3811
4 3812 2840 3813 3814
4 3814 3815 3812 2840
4 2841 3457 2839 2529
4 2837 2842 2839 3474
4 2840 3474 3229 3815
4 2839 3457 2840 3229
4 2717 3060 2720 3059
4 2204 2336 2205 2254
4 2714 3816 2998 3058
4 2720 3817 2995 3816
4 3817 3060 3818 2720
4 2601 3565 3819 3574
4 2720 3820 3818 3817
4 3820 3821 3058 2720
4 3008 3822 3227 3226
4 3001 2686 3013 2972
4 3008 3226 3227 3011
4 3008 3822 3226 3002
4 2419 2417 3324 2972
4 3001 3010 3009 3823
4 3001 3008 3009 3010
4 3003 3008 3001 3002
4 3492 2299 2637 2635
4 2635 2299 3232 2529
4 2635 3492 2636 2637
4 2635 2299 2296 3232
4 2618 2336 2262 2821
4 2604 2932 2748 2931
4 2604 2337 2931 2708
4 2604 2337 2336 2931
4 2604 2336 2206 2618
4 2932 2596 2625 2618
4 2597 2622 2595 2596
4 3824 3825 1749 1748
4 3078 3077 3292 2354
4 3826 1818 1809 1810
4 2354 3080 3827 3828
4 2309 2312 2311 3829
4 3830 151 3831 1923
4 2312 2311 3829 3080
4 3221 2196 2187 2188
4 3080 3829 3832 3827
4 2358 2770 3108 3110
4 3075 2439 3043 3291
4 3833 3832 3083 2312
4 3776 2942 3834 3835
4 3075 2356 2359 2354
4 3134 3136 3307 3135
4 2462 2458 2555 2459
4 2241 2459 2555 2591
4 3137 3730 2241 3135
4 3836 3674 3837 3535
4 2461 2555 2561 2459
4 3137 3535 2557 2563
4 2555 2591 2459 3305
4 3528 2294 2350 2353
4 2294 2351 3533 3838
4 3839 2291 3665 2294
4 2294 3665 2350 2293
4 2353 3528 3664 2350
4 2344 2350 2294 2353
4 2770 2333 3110 3081
4 3134 3302 3136 2555
4 2928 2333 2434 2327
4 2323 2325 2333 2327
4 2406 2769 2767 3370
4 3110 3765 2333 2322
4 2770 2333 2327 2328
4 2323 2333 2328 2327
4 2250 2275 2274 2276
4 3541 2274 2276 3276
4 2942 3244 2943 3835
4 2476 2207 2627 2478
4 2218 2855 2214 3840
4 2218 3840 3841 2562
4 2455 2210 2467 2466
4 2218 2675 2787 2789
4 3361 3842 3843 3501
4 2631 3519 3311 3313
4 2218 3840 2786 3841
4 2383 2384 2379 3844
4 2383 3845 3844 3846
4 2383 3846 3019 3677
4 2383 2384 3844 3847
4 2375 2383 2379 2411
4 2383 2904 3848 2908
4 2383 2384 3847 3673
4 3303 3336 3345 3344
4 2588 2589 2463 3236
4 3849 191 1166 182
4 2588 2459 3583 3325
4 3336 3344 2458 3325
4 2454 2458 2457 2451
4 2707 2709 3528 2708
4 3850 547 556 555
4 2709 2813 2710 2725
4 2709 3528 2857 2813
4 2711 2848 2709 2857
4 2703 2709 3607 2710
4 2205 2203 2254 2602
4 2204 2759 2261 3495
4 2202 2205 2603 2602
4 2204 3495 2254 2759
4 2261 3713 3851 3714
4 3361 3501 3852 3496
4 3715 3853 3854 3855
4 3715 3853 3856 3067
4 3715 3066 3067 3857
4 3715 3854 3853 3721
4 3068 3715 3721 3065
4 3715 3067 3068 3853
4 3715 3066 3065 3067
4 3715 3721 3065 3716
4 3716 3715 3858 3717
4 3859 3860 2089 3861
4 2098 3862 3129 2089
4 3860 3863 3566 3861
4 3860 3864 3143 2215
4 3860 2089 3861 3129
4 2747 3865 3866 2746
4 2746 3647 3268 3668
4 2746 3646 3647 2743
4 2746 3865 3646 2743
4 2491 2747 2746 2743
4 2746 3866 2745 3867
4 2877 2847 3868 3869
4 2877 3870 2876 2875
4 2779 2873 2876 2804
4 2535 2777 2541 2844
4 2249 2876 2877 3616
4 2843 2877 2777 2847
4 2373 2295 2297 2807
4 2298 2388 2301 2300
4 3361 3871 3872 3873
4 3874 206 207 1231
4 3875 3871 3876 3872
4 3354 3358 3361 3360
4 2295 2299 2296 2637
4 2361 2221 2224 2363
4 2635 3232 3489 3459
4 2635 3459 2529 3232
4 2299 2529 3492 3335
4 3877 3129 3566 3602
4 3860 3143 3877 3566
4 3877 2209 3878 2217
4 3877 2209 2217 3143
4 3049 2655 2796 2795
4 2907 3049 3047 3046
4 3047 3049 3100 3103
4 2526 3100 2490 3048
4 2796 2797 3209 2983
4 3100 2977 2797 2490
4 3100 2797 2977 3209
4 2526 3100 2797 2490
4 3047 3048 3104 2976
4 3047 3049 3102 3050
4 2884 2550 2898 3879
4 2884 2550 2889 2898
4 2246 2874 2914 2279
4 2914 2554 2917 2927
4 2550 2927 3880 3881
4 2550 2874 2889 2926
4 2550 3880 2926 3882
4 2386 3269 3364 2737
4 2220 2296 2224 3617
4 2225 2391 3275 2860
4 3274 2386 2230 3364
4 2386 3269 2230 3364
4 2792 2526 2422 2521
4 3883 3501 3871 3520
4 2449 2447 2438 3288
4 2434 2449 2438 2799
4 2792 2797 2794 2434
4 2799 2793 3292 3077
4 2928 2793 2799 3077
4 3275 2860 3884 3885
4 3267 2860 3275 3885
4 2859 3061 3567 3095
4 3275 2860 3213 2226
4 2263 2264 2266 2270
4 2859 3061 2265 3567
4 2374 2934 2369 2297
4 2528 2806 2530 2299
4 2373 2297 2368 2810
4 2297 2936 2228 2374
4 2389 3581 2390 2937
4 2297 2369 2810 2934
4 2295 2806 2637 2390
4 2298 2295 2296 2637
4 2296 2297 2363 2299
4 2231 2244 2235 2284
4 3234 3886 2588 3583
4 2590 3111 3114 3887
4 2590 3583 3111 3887
4 2588 3340 3886 2593
4 3583 2590 2591 2588
4 2591 2588 2459 3583
4 2971 3456 3888 3599
4 2395 2403 3259 3889
4 2395 2403 3889 3888
4 2393 2403 2971 2401
4 3467 3471 3472 3599
4 3469 3890 3435 3600
4 2395 3469 3600 2685
4 2294 3478 2292 3523
4 2350 3528 3664 3663
4 2350 2293 3891 3892
4 2350 2293 3665 3891
4 2350 3892 3893 3664
4 2350 3892 3665 3893
4 2345 2350 2353 3091
4 3091 2943 2345 2350
4 2350 3091 2943 3892
4 2714 2998 3589 3058
4 3173 3496 3852 3501
4 3894 298 297 289
4 2317 3057 3767 2578
4 2574 2570 3768 2579
4 2570 3057 3768 2718
4 2718 3057 3768 3895
4 3563 3254 3896 2728
4 3357 3173 3852 3474
4 3218 3217 3563 3216
4 3897 3898 3563 3367
4 3557 3898 3563 3560
4 3221 2187 2196 3419
4 3563 3560 3896 3254
4 3563 3560 3897 3896
4 3557 3217 3563 3367
4 2263 3899 2267 2269
4 3900 3419 2572 2186
4 2446 3899 2267 2272
4 3267 3899 2269 3347
4 3900 2186 2185 2177
4 2446 3899 2272 2448
4 3901 1283 1292 1291
4 3899 2272 2448 3567
4 3899 2269 3347 3096
4 2469 2470 3056 2697
4 2719 2475 2308 3294
4 2313 2995 2714 2720
4 2472 2475 2719 3294
4 2344 3523 3805 3478
4 3875 3876 3902 3362
4 3477 2346 2610 2347
4 2695 2694 2661 2286
4 2692 2667 2666 2661
4 2838 2834 2837 3903
4 2695 2694 2692 2661
4 2690 2692 3250 2691
4 3904 3905 3906 3907
4 2471 3908 3482 3909
4 2247 2696 2693 2253
4 3414 3192 3696 3413
4 3025 3910 3027 3029
4 3374 2434 2441 2325
4 2440 3255 3174 3216
4 2325 2333 2327 2434
4 2798 3374 2434 2441
4 2429 2431 2594 2439
4 2594 3560 2431 2429
4 2403 3911 3889 3912
4 3217 3063 3061 2617
4 3557 2431 3560 3216
4 2430 3219 2432 2272
4 2432 2448 3219 3038
4 3274 3217 2265 3061
4 2543 3218 2728 3216
4 2430 2264 3217 2265
4 2430 2264 2272 2271
4 3218 3563 3367 2728
4 2228 3014 2366 2374
4 2219 2861 2226 2229
4 2659 3769 2283 2286
4 3073 2283 3769 2286
4 3148 3769 2283 3672
4 3284 3051 194 2196
4 3769 2236 2283 3672
4 3769 3913 3914 3915
4 3769 3913 3915 3916
4 2407 2831 2765 2867
4 2823 2407 2899 2827
4 2442 1655 3917 1664
4 2652 2411 2382 2377
4 2701 2866 2507 2756
4 2701 2758 2702 2756
4 2381 2677 2385 2384
4 2826 2407 2823 2827
4 2382 2411 3019 2383
4 3918 3550 2852 3919
4 3176 3180 3179 3920
4 3921 3230 3229 3918
4 3918 3919 3922 3923
4 3921 3924 3923 3918
4 3918 3925 2852 3800
4 3918 3800 3592 3925
4 3314 2374 2369 2366
4 3014 3122 3016 3214
4 3014 3016 2366 3642
4 2207 2464 2774 2453
4 2811 2818 2205 2254
4 2454 2456 2455 2466
4 2461 2790 2452 2456
4 2951 2451 2452 2453
4 2325 2429 2433 2434
4 2967 2893 2960 2966
4 2439 2433 2438 3081
4 2333 3081 2433 3765
4 2594 3926 3765 3076
4 2594 3765 3926 3927
4 3216 3174 2429 3560
4 2439 2594 2433 3076
4 2580 2478 3928 2986
4 2581 2582 2627 2959
4 2580 2478 2582 3928
4 583 582 591 2505
4 2453 2464 2774 2986
4 2464 2774 2986 2478
4 2478 2774 2986 2477
4 2476 2774 2478 2477
4 2627 2476 2478 2958
4 3719 3508 3929 3930
4 3719 3210 3718 3931
4 3719 3929 3210 3931
4 3719 3210 3211 2809
4 3932 2810 2809 3509
4 3719 2809 3932 3241
4 3508 3242 3719 3509
4 2559 2562 2558 2461
4 3719 3210 3929 3211
4 2440 2330 3255 2918
4 2543 2735 3255 3254
4 2963 2911 3837 2912
4 2338 2603 2752 2339
4 3933 3254 2919 2735
4 3934 2919 3257 2735
4 3255 2330 3935 2919
4 3255 2330 2919 2918
4 2565 2316 2427 2315
4 2402 3425 3666 2970
4 2394 3601 2688 2685
4 2565 2687 2992 3036
4 3442 2687 3012 3936
4 3442 2684 3439 3937
4 3524 2688 3938 3527
4 3442 3526 3936 3939
4 3442 3938 3441 2685
4 2394 3000 3259 2396
4 2596 2622 2624 2623
4 3012 3936 2687 3036
4 3269 2737 2222 3363
4 2730 3269 2737 3364
4 3772 3269 3260 2222
4 2620 3261 2266 2621
4 88 1562 2505 89
4 2264 3218 3269 2620
4 2730 3218 3269 3364
4 3424 3940 3711 3710
4 2608 3205 3207 3202
4 3741 3423 3425 3424
4 3941 3423 3942 3709
4 3423 3942 3709 3424
4 3424 3943 3940 3741
4 3424 3943 3944 3940
4 3424 3945 3741 3423
4 2263 3267 3275 2265
4 3015 3213 3348 2860
4 3275 3095 3885 3884
4 3490 2635 3493 2636
4 2227 3214 2226 2861
4 2227 3214 3014 3015
4 3014 2374 3215 3319
4 2228 3014 2374 3215
4 3267 3266 3213 3265
4 2860 3015 3641 3348
4 3641 2860 3215 3015
4 3267 2860 3885 3348
4 2849 582 583 2505
4 2235 3148 2283 2236
4 2282 2285 2277 2283
4 3073 2283 2286 2277
4 3946 3947 3948 3949
4 2231 2284 2232 2763
4 2235 2231 2236 2245
4 2287 2659 2289 2283
4 2961 3197 2963 3950
4 3951 3435 3471 3952
4 3951 3471 3953 3952
4 3951 3954 3430 3955
4 3199 3197 3201 3200
4 3956 3954 3957 3955
4 3951 3599 3456 3472
4 3951 3471 3472 3953
4 2225 2859 2230 3275
4 2830 1560 1552 1561
4 2430 3219 2265 3217
4 3061 3004 3093 3095
4 3898 3563 3367 3557
4 3267 3275 3567 3885
4 3061 3062 3004 3095
4 2791 2705 3175 2732
4 3336 3337 2791 3345
4 3336 2791 2451 2458
4 3303 2704 3345 2791
4 3837 3958 2963 2912
4 2629 2955 2959 2582
4 3165 2273 2629 2553
4 2629 2553 3166 3165
4 2464 2468 2629 2965
4 2627 2959 2629 2630
4 2627 2464 2629 2582
4 3519 2675 3313 2631
4 2455 2464 2467 2207
4 2467 2629 2464 2468
4 2210 2207 2628 2209
4 3959 3960 3961 3962
4 2464 2463 2468 2965
4 2629 2464 2965 2582
4 3963 3964 2824 3965
4 3963 3966 2822 3327
4 3963 3967 3327 3968
4 3963 2822 3964 3968
4 3969 3970 3971 3600
4 3969 3972 3973 3974
4 3975 3969 3976 3972
4 3441 3969 3890 3600
4 3969 3441 3975 3970
4 3600 3441 3799 3890
4 3001 3003 2415 2417
4 2587 2397 2401 2304
4 2577 2317 2575 2401
4 3002 3008 3001 3012
4 3535 3837 3977 2963
4 3010 2686 3011 3945
4 2564 2993 2992 2994
4 2564 2991 2565 3000
4 2714 2716 2718 2570
4 2313 2720 3060 2995
4 2302 2427 2316 2315
4 2714 3057 2570 2718
4 2564 3000 2316 2998
4 2997 3000 2998 3590
4 3978 1662 1654 1663
4 3000 2998 3590 3767
4 2688 3000 2997 3662
4 2313 3060 2717 2724
4 2231 2284 2288 2244
4 2231 2244 2764 2243
4 2244 3979 2764 2243
4 2231 2764 2244 2288
4 2557 2961 3308 3980
4 3008 3011 3001 3012
4 2402 3425 2970 2400
4 3420 3709 3423 3138
4 3420 3425 3424 3710
4 2686 2970 3741 3945
4 3666 3741 3425 3397
4 2398 2648 2970 2428
4 2393 2317 2304 2399
4 3335 2529 3459 2531
4 2841 2529 2531 3459
4 2531 3476 3981 3335
4 2531 3476 2941 3458
4 2841 3982 3459 3981
4 2842 2837 2841 2836
4 3008 3009 3983 3003
4 3822 3984 3002 3003
4 3822 3226 3985 3227
4 3822 3986 3985 3987
4 3822 3984 3988 3986
4 3822 3003 3988 3984
4 3989 2514 3990 2658
4 2651 2656 2658 2515
4 2658 2653 2509 3187
4 2658 2509 3991 3187
4 2656 3290 3991 3989
4 2656 2657 3292 2793
4 2656 2514 2521 3290
4 2651 2792 2656 2515
4 2656 3292 2657 3992
4 3219 3038 3567 3093
4 3674 3993 3994 3836
4 3174 3216 3935 3560
4 2431 3558 3042 3661
4 3557 2431 3558 3560
4 2594 3174 3927 3560
4 2594 3559 3558 3560
4 2594 3927 2433 3765
4 2700 2833 3092 3475
4 2938 2700 2833 2939
4 2940 2833 3092 2939
4 2895 3837 2911 2913
4 3777 3778 2624 2625
4 2575 2586 2576 2577
4 2676 2385 2680 2681
4 3995 3996 2913 2895
4 3451 2587 3021 2650
4 3020 3023 2650 3021
4 2470 3024 2682 3023
4 2304 2303 3024 2643
4 3020 2650 2644 3030
4 2470 2682 2698 3023
4 3997 1561 1552 1553
4 2845 3444 2689 2249
4 3696 3413 3704 3414
4 2694 2286 3073 3733
4 3073 2277 2693 2548
4 2696 3368 3998 2549
4 2696 3414 3068 3448
4 2742 2269 3265 3668
4 2742 2269 2267 3096
4 2743 2487 3999 3270
4 2491 2743 2487 2747
4 3270 2487 3999 3377
4 2742 3097 3377 3270
4 2467 2629 2468 2233
4 2959 2630 3515 4000
4 2959 4001 2630 4000
4 2959 3166 2630 4001
4 2581 2955 2959 2957
4 3889 3888 3430 2395
4 2403 3912 3185 3911
4 2403 2401 2577 3185
4 3468 2401 2971 3183
4 2403 3185 3912 3453
4 3290 3292 2799 2656
4 2359 2354 2657 3292
4 2652 2651 2413 2653
4 2656 2521 2799 3290
4 2651 2654 2909 2655
4 2651 2794 2792 2795
4 2770 2794 2657 2413
4 2359 3292 2657 2793
4 2359 2657 2405 2413
4 3748 2750 2931 2751
4 3746 2812 3748 2931
4 3746 2812 4002 3747
4 4003 4004 4005 4006
4 3142 3141 3747 2812
4 4007 3748 4008 3141
4 2505 88 582 591
4 3748 3749 2931 2750
4 3748 3749 4009 4010
4 3748 4010 4009 4008
4 3748 4008 3141 3747
4 3183 3177 3454 3178
4 3708 4011 3937 3936
4 3708 3702 4012 4013
4 4014 4013 3708 4012
4 3708 4015 3036 3002
4 3952 4016 4017 4018
4 2380 2379 4019 4020
4 2380 2679 4019 2379
4 2375 2378 2380 2376
4 2380 2376 2378 4020
4 2690 2696 2689 3414
4 2694 2692 2661 3192
4 583 591 592 2505
4 3413 3250 4021 4022
4 3413 3250 3192 4021
4 4023 2380 4024 4025
4 2380 2471 4025 4023
4 3997 1561 1553 1562
4 4026 459 451 460
4 2682 2697 4023 3028
4 2471 4027 4028 4029
4 2676 2471 4023 2697
4 4030 812 813 821
4 2680 2682 2470 2697
4 95 1499 519 96
4 3952 4031 4017 4032
4 2430 3218 3216 3217
4 3467 3470 3425 3473
4 2997 3525 3598 2999
4 2263 2271 2268 2267
4 2230 2266 3275 2265
4 2264 2270 3256 2620
4 4033 4034 4035 3598
4 2270 2745 3626 2621
4 2403 2401 3185 3453
4 4036 2179 2187 2178
4 2401 2587 2640 2400
4 3888 3954 4037 3438
4 3435 3436 3600 3431
4 3021 3183 2401 3451
4 3857 2170 2169 2161
4 4038 422 430 421
4 4039 1609 1610 1618
4 2278 2551 3881 2550
4 2693 2277 2253 2548
4 2246 2535 2252 2251
4 2250 2273 2553 2285
4 2250 2278 2553 2969
4 2695 2287 2251 2277
4 2275 2969 2915 2250
4 3190 3192 2694 2661
4 4040 4041 4042 4043
4 4044 1809 1800 1801
4 2695 2277 3073 2286
4 2395 3888 3430 3599
4 3190 2694 2286 2661
4 2695 2286 2661 2287
4 4045 1181 1191 1190
4 3997 4046 1553 1552
4 2694 3696 3194 3415
4 2247 2690 2694 2696
4 4047 1991 2000 1999
4 3618 2968 3619 4048
4 2968 3164 4049 4050
4 3618 2968 2275 3235
4 4051 1752 1753 9
4 3746 4052 4002 4053
4 4054 4055 1266 1275
4 3855 4056 3332 2179
4 4052 4057 4010 3747
4 4052 4058 4053 4059
4 4052 4053 4060 4002
4 4052 4059 4061 4058
4 4052 4060 4057 3747
4 2404 2867 2409 2378
4 2404 2377 2867 2378
4 2409 4062 4063 2902
4 4064 1799 4065 1808
4 4066 294 285 286
4 4067 327 328 336
4 2830 3997 3132 1561
4 4068 1758 1759 15
4 2768 2766 2409 2902
4 2409 2410 2408 4062
4 2945 2938 2531 2941
4 4069 313 321 312
4 2938 2836 2940 2833
4 2838 3903 2837 3782
4 2838 3903 4070 2834
4 2406 2771 2413 2766
4 2838 2836 3782 2837
4 2940 2833 2836 2838
4 3616 4071 4072 4073
4 4074 4075 4076 4077
4 2641 2650 2640 2647
4 2650 3026 4078 3027
4 2587 3021 2650 3023
4 2683 3028 3029 2682
4 4079 4080 735 744
4 2575 2698 2473 2576
4 4081 371 379 370
4 4082 4083 4084 4085
4 4082 4086 4083 4085
4 4082 4087 4084 3357
4 4088 1847 4089 1856
4 4090 393 384 385
4 4082 3474 4091 3815
4 4082 4092 4091 2834
4 4082 4086 4091 4092
4 4082 3852 3358 4083
4 4093 3635 4094 3461
4 3635 3461 4093 4095
4 3416 1199 1200 1209
4 4096 402 393 394
4 3635 2937 3581 2935
4 3635 3245 3629 3581
4 3635 4095 3808 3581
4 2219 2225 2223 2386
4 4097 4098 1789 4099
4 4100 403 411 402
4 2392 3189 3007 3188
4 2361 2297 2374 2369
4 4101 840 839 831
4 2903 3683 3684 4102
4 4103 741 732 733
4 2225 2391 2392 2859
4 2389 2937 2933 2935
4 2220 2224 2221 3617
4 2298 2295 2637 2390
4 2298 2300 2390 2388
4 4104 4105 4106 4107
4 3463 2388 2614 2639
4 3463 2639 2614 4108
4 4108 3463 4109 4110
4 4111 78 1661 1652
4 3463 2937 4095 3461
4 3460 3463 2390 2388
4 4111 77 78 681
4 3930 533 532 524
4 4112 154 923 914
4 4113 47 48 563
4 4114 3463 4115 4095
4 3463 4116 4095 4114
4 2505 89 582 88
4 90 564 2869 573
4 3463 2614 4117 4110
4 4118 1251 1242 1243
4 4119 1725 1726 1735
4 4120 546 93 1517
4 2839 3232 3457 3800
4 3459 3335 3493 3492
4 2841 3981 2531 3458
4 2841 3811 2840 4121
4 4122 1017 1008 1009
4 2841 3457 3459 4121
4 2373 2297 2810 2807
4 3762 1108 1107 1099
4 4123 1627 1618 1619
4 2842 2839 2299 2529
4 2841 3458 2836 2837
4 2408 3019 4124 4125
4 2344 3477 3478 3805
4 3805 3477 4126 3210
4 2344 2349 3477 3805
4 2344 2294 3523 3478
4 3171 2349 3172 3475
4 4127 686 694 685
4 2349 3210 3172 3481
4 4128 1154 1155 185
4 3171 2700 3212 2349
4 2344 2345 2350 2353
4 2345 2348 2344 2350
4 2345 2943 2700 2348
4 2345 2622 3092 3034
4 2586 2576 3184 3177
4 3177 2576 3184 3180
4 4129 17 293 284
4 4130 1684 1694 1693
4 4131 4132 1303 1302
4 3176 2698 3920 3181
4 3920 2698 3384 3181
4 2760 2866 3384 2699
4 3176 2586 3023 3021
4 2676 2376 2380 2471
4 2680 2698 2702 2473
4 2993 4133 2566 3551
4 2564 3816 2714 2995
4 2993 2566 3552 3551
4 2993 2566 4133 2995
4 2993 3037 4134 3552
4 4135 788 779 139
4 2564 2993 2566 2992
4 2993 4134 2992 2994
4 3184 3177 3180 4136
4 3184 3185 4137 4138
4 3904 3184 4136 4138
4 4139 4140 4141 851
4 3105 857 849 858
4 4142 1380 1389 1388
4 4143 1116 1107 1108
4 4144 1863 1871 1862
4 4145 4146 4147 1874
4 4148 401 409 400
4 4136 3907 3385 3904
4 3184 3185 3177 4137
4 4149 326 318 327
4 3184 2576 2577 3904
4 3184 3185 3904 2577
4 3840 4150 2855 4151
4 2218 2787 2214 2789
4 2218 2673 2210 2456
4 4152 593 602 601
4 2214 4153 4154 3239
4 2218 3840 2562 2855
4 3840 4155 2787 2786
4 3840 3841 2562 4156
4 3840 4155 2786 4156
4 4157 461 460 452
4 4158 472 4159 4160
4 4161 688 687 679
4 3997 2256 1562 2505
4 2212 2213 2214 2819
4 4162 508 499 500
4 3532 585 3531 576
4 4163 559 551 560
4 3814 4164 4165 1990
4 2703 2705 2708 2751
4 3282 931 930 922
4 2705 3175 2732 2339
4 4166 578 586 577
4 4167 602 610 601
4 2711 2713 3534 2704
4 2240 1549 1548 1540
4 4168 570 569 561
4 2705 2337 3175 2339
4 2791 2705 2732 2704
4 4169 985 993 984
4 4170 631 639 630
4 2389 2933 2300 2936
4 4171 535 527 536
4 2373 2632 2368 3228
4 2637 3807 2639 4172
4 2636 3807 2637 3492
4 2387 2612 2388 2639
4 4173 4174 4175 4176
4 2296 2387 2635 3489
4 4171 4177 4178 526
4 2636 3490 3489 3658
4 4179 496 487 488
4 4180 425 4181 426
4 4182 608 599 52
4 2830 1551 1552 1560
4 4183 1205 1195 1196
4 3387 3870 4184 4185
4 4186 696 695 687
4 2297 2228 2389 2298
4 2637 2390 4172 2388
4 4187 602 593 594
4 4188 986 161 162
4 2625 3087 3086 3085
4 4189 2849 2848 4190
4 2932 2931 3749 2750
4 3779 2940 3780 3778
4 4191 1161 1160 188
4 2622 3034 2624 3092
4 2862 2865 4192 3278
4 4193 4194 4195 1013
4 3746 4052 4053 2625
4 3338 4196 4197 4198
4 2932 2931 2750 2748
4 3602 2207 3515 2958
4 2573 2185 3900 2186
4 4199 1530 1538 1529
4 4200 2116 2124 2115
4 2981 2453 2774 2986
4 2211 2774 2951 2453
4 2453 2951 2981 2774
4 2454 2451 2462 2458
4 2462 2732 2557 3308
4 2557 2556 3980 2732
4 4111 4106 4201 4105
4 2557 3980 2560 2961
4 4071 4073 1216 1207
4 3134 3309 3302 3308
4 2462 3302 2555 2458
4 2557 2560 3535 2961
4 4202 2114 2105 2106
4 2461 2790 2558 2556
4 2346 2606 2351 3573
4 2622 2609 2346 2347
4 4203 694 693 685
4 2344 2294 2351 2353
4 2353 2606 2727 3528
4 4204 1128 1119 1120
4 4205 2118 2127 2126
4 2877 3869 2777 2847
4 1553 89 582 2505
4 2595 2605 2346 2606
4 4206 1773 1772 1764
4 2353 3091 3664 3033
4 2323 2321 2325 2330
4 2323 2324 2331 2330
4 2327 2328 2329 2771
4 2333 3174 2321 3927
4 2681 2699 3181 4207
4 2278 2553 2969 2554
4 3970 3894 307 4208
4 4017 736 728 737
4 2553 2554 2552 3167
4 4209 747 748 756
4 4210 333 341 332
4 2278 2548 2553 2552
4 2209 2789 3878 3515
4 4211 211 212 1241
4 3877 3602 2217 3878
4 4212 1784 1775 1776
4 4042 387 386 378
4 3877 3602 4213 3129
4 4214 4215 4216 4217
4 2673 3841 2466 2456
4 4218 1342 1333 1334
4 2628 2789 2209 3515
4 4219 4220 4221 4222
4 2208 2213 2216 2215
4 2381 3673 2383 2495
4 2384 3847 3673 2677
4 4223 1419 246 1410
4 3580 454 453 445
4 4224 361 4225 4226
4 4227 538 546 537
4 2382 2507 2509 2653
4 2461 2556 2462 2460
4 2454 2452 2461 2460
4 2555 2459 2458 3305
4 2231 2241 3151 2243
4 2465 2457 2593 2453
4 2241 2591 2243 2242
4 2465 2241 2591 2459
4 4228 831 822 823
4 2465 2234 2588 2591
4 4229 111 1355 4230
4 3381 2423 3379 4231
4 2459 3325 2458 3305
4 4232 1905 1897 1906
4 2465 2233 2466 2468
4 2476 2480 4233 2479
4 2958 2480 2964 4205
4 3128 4205 4233 2958
4 2411 4124 2379 4020
4 2958 2964 3515 3878
4 4234 1440 1432 1441
4 4235 4236 801 810
4 4237 1038 1046 1037
4 2958 3878 3602 4213
4 4238 917 916 908
4 3949 449 457 448
4 4239 1398 1407 1406
4 4240 4241 4242 4243
4 2773 2780 2776 2782
4 4240 3571 3476 4244
4 4245 1488 1496 1487
4 4246 4247 486 4248
4 3571 4249 4240 4250
4 4240 4251 4252 4243
4 4253 4254 1706 130
4 2689 3414 2696 3448
4 3368 3998 2887 3417
4 3998 2689 3448 3446
4 4255 469 477 468
4 3368 3417 3447 3446
4 3486 4256 4257 4258
4 3447 2248 3445 2804
4 3361 4259 3843 3842
4 3368 2549 2891 3998
4 2551 2887 3368 2891
4 4120 92 546 555
4 3585 3584 3630 4260
4 4261 565 556 557
4 3368 2887 2804 3447
4 3797 4262 2851 3263
4 4263 1908 1899 1900
4 4264 450 442 451
4 4265 234 4266 2057
4 3634 504 503 495
4 4267 4268 4269 4270
4 2380 4029 2376 4020
4 3796 3593 3622 2220
4 2222 2221 3263 3797
4 3651 1538 4271 1547
4 2904 2508 2497 4272
4 3772 3263 3796 2222
4 3263 3796 2222 3797
4 4273 637 645 636
4 4274 4104 4275 4106
4 4276 4204 1128 1119
4 3846 4125 3287 4277
4 2517 4278 2520 4279
4 4278 2518 3770 2517
4 3846 4124 4277 4019
4 4277 4280 4281 4282
4 4283 2144 2152 2143
4 4284 630 639 638
4 4277 4285 4281 4286
4 3846 4277 3287 4287
4 4288 4289 4231 3379
4 4290 1201 1191 1192
4 2517 2519 3379 4289
4 2517 2520 2519 4291
4 2437 1238 6 200
4 2517 2520 4291 4279
4 2877 2777 3869 2776
4 2252 2276 2777 2776
4 2778 2776 4292 2777
4 3611 4293 4294 3612
4 2777 4295 2778 2541
4 3003 4296 3984 3556
4 4297 4056 2170 2171
4 2777 2541 2844 4295
4 2777 4298 3485 3869
4 3986 4299 3987 4300
4 3825 4301 1739 1748
4 295 4302 296 4303
4 2777 3485 4298 4304
4 2299 2530 2529 3335
4 2389 2295 2935 2807
4 4305 214 1725 1734
4 3612 4063 4147 4306
4 3508 4307 3509 4308
4 4309 4310 3162 4311
4 4309 3162 4312 4311
4 4309 3643 4313 3316
4 4314 1705 1714 1704
4 4309 3211 3162 3509
4 4315 1777 1778 1786
4 2822 3326 3327 3966
4 2701 2758 2831 2472
4 3963 2824 2822 3966
4 3963 2822 2824 3964
4 3963 2822 3968 3327
4 2761 2831 2472 2864
4 2822 2825 3964 2826
4 4316 4317 1796 4318
4 4319 4320 4321 329
4 3612 4147 4063 4145
4 4322 1267 1266 1258
4 4323 748 749 757
4 3057 3767 4324 3589
4 2714 3589 2718 3058
4 4269 4325 4268 1859
4 2564 2994 2991 2998
4 2998 3058 3816 2996
4 2219 2861 2227 2226
4 2362 2227 2228 2861
4 3014 3319 3215 3641
4 3314 3014 3319 2374
4 4294 3612 4293 4027
4 3314 3642 2366 2369
4 4326 272 271 1764
4 3314 2369 3318 3643
4 3219 3038 3093 3661
4 4327 3075 3084 3076
4 3557 3558 3661 3562
4 3558 4328 4329 4330
4 3558 4328 3562 3559
4 3557 3367 3898 4331
4 3557 3560 3559 3898
4 4332 1844 4333 1853
4 3093 3219 3661 3557
4 2334 2790 2335 3175
4 2334 2335 2337 3175
4 4334 152 153 905
4 4335 955 946 947
4 4336 1893 1902 1901
4 2335 2785 3175 2954
4 3748 2335 2812 2783
4 2705 2785 2335 2751
4 2226 2861 3264 2229
4 2228 2391 2860 3215
4 4251 1495 1504 1503
4 3319 3640 3641 3014
4 4337 1404 1395 1396
4 3483 874 882 873
4 2225 2226 2227 2860
4 2219 2229 2221 2861
4 4338 1951 1952 1960
4 2323 2331 2320 2321
4 4339 496 505 504
4 3521 542 550 541
4 242 4340 1455 1446
4 2433 3081 2333 2434
4 4341 903 894 895
4 2328 2801 2771 2800
4 2769 2770 2800 3108
4 2422 3321 2423 2493
4 4342 4343 4344 4345
4 3075 4327 3079 3043
4 4346 4347 2127 2128
4 2429 3560 2431 3216
4 2799 2438 3077 3288
4 4348 612 621 620
4 2928 2438 3081 3077
4 2414 2398 2426 2972
4 3666 3741 3742 2686
4 3666 3439 3258 2684
4 3666 3258 3439 3394
4 2970 3945 3423 3741
4 4349 1563 230 1554
4 4350 584 593 592
4 3091 3033 4351 3664
4 2596 2605 2604 2932
4 2345 3034 3091 3033
4 2293 3803 3892 2348
4 2348 2350 3892 2293
4 2353 2727 3033 3664
4 4352 3820 4353 3821
4 3612 4089 4354 4027
4 2350 3664 3091 3892
4 2574 2576 2575 2473
4 2575 2470 3024 2306
4 2469 2472 3298 3294
4 2760 2702 2757 2756
4 4355 1489 1481 1490
4 2469 2470 2306 2303
4 2576 2579 2577 3904
4 3176 3182 3021 3181
4 2474 2760 3328 2473
4 2574 2579 2576 2473
4 4356 2103 2112 172
4 4357 1647 4358 1656
4 4290 1191 3720 4359
4 3225 4293 4028 2864
4 2701 2866 2377 2507
4 4360 1600 1608 1599
4 2676 2682 2683 2681
4 3633 4361 4094 4362
4 2436 200 1672 201
4 4290 1201 1200 1191
4 3418 1210 1200 1201
4 2474 2758 2702 2472
4 2760 2699 2702 2866
4 2826 2756 2701 2507
4 2491 2271 2268 2745
4 2263 3267 3899 2269
4 3720 1191 1200 1190
4 2263 3899 3267 2265
4 4363 4364 4365 1702
4 2263 2268 3266 2269
4 4366 1480 1472 1481
4 2607 2946 3158 2966
4 2607 3158 2946 3565
4 2607 2603 2608 3201
4 4367 1256 1247 123
4 2203 2607 3156 3158
4 2203 2602 2607 3158
4 2602 2607 2966 2603
4 2607 2603 3201 2966
4 2607 2949 3207 3565
4 2768 2900 2867 2765
4 2768 2900 2409 2867
4 2831 3277 3278 2901
4 2872 0 217 8
4 501 2281 98 97
4 4368 278 287 286
4 3278 2831 2901 2862
4 2680 2701 2385 2376
4 2701 3225 2831 2867
4 2701 2653 2377 2407
4 4051 276 8 9
4 2364 2365 2366 2362
4 4211 1707 212 211
4 3612 4354 4145 4063
4 4369 216 1246 1245
4 2366 2369 3642 3637
4 3686 1274 120 1283
4 2369 2361 2368 2366
4 4370 277 9 10
4 2366 2365 3637 3642
4 2362 2366 3122 2365
4 3519 2628 3515 2789
4 4371 4369 216 1246
4 2631 2233 2466 2674
4 2454 2561 2461 2456
4 2561 2466 3841 2456
4 3152 2233 2674 3676
4 4372 278 10 11
4 2465 2561 2466 2241
4 2455 2207 2210 2211
4 2457 2988 2453 2451
4 4373 1726 1725 1716
4 4372 11 279 278
4 4374 12 279 11
4 3063 3562 3093 4375
4 4375 4376 3946 3948
4 4375 4376 4377 3562
4 4375 4378 3464 4379
4 2219 2222 2221 2229
4 2219 2220 2224 2221
4 2221 3925 2363 2852
4 4380 1757 1747 1748
4 2221 3263 2861 2229
4 4381 13 280 12
4 2338 2603 2966 3201
4 4382 4380 4381 4383
4 2338 2560 3980 2960
4 2338 2560 2556 3980
4 2205 2338 2337 2603
4 4382 13 14 281
4 2602 2338 2967 2818
4 2602 3157 2254 2818
4 3311 4384 4385 2788
4 2788 4386 4387 4388
4 4389 2787 4390 2788
4 4294 4089 4391 4392
4 2788 3519 4386 4393
4 2788 4388 4384 4390
4 2788 3311 4387 3519
4 2665 4394 2289 3759
4 4382 1757 1758 14
4 4382 281 4381 13
4 4395 290 291 299
4 2665 3979 4394 3759
4 2665 2663 4396 3759
4 3686 3679 119 312
4 2723 2567 2568 3752
4 2723 3752 2418 2567
4 4397 21 329 320
4 3686 120 119 1283
4 4294 4027 4293 4391
4 2314 2318 2567 2418
4 3333 2722 3554 4398
4 2721 2723 4398 2418
4 4399 4400 1791 1792
4 3686 303 4401 312
4 4402 283 292 291
4 2723 3554 4398 3752
4 2558 2819 2855 2818
4 2218 3841 2673 2456
4 2208 2218 2214 2209
4 2452 2954 2460 2951
4 2455 2467 2464 2468
4 2223 2301 2220 2386
4 4031 4403 4018 4404
4 2300 2933 2937 3188
4 3686 119 120 303
4 4405 1745 1755 1754
4 4406 730 731 739
4 4380 1747 1757 1756
4 4407 16 4408 284
4 3318 2374 2934 2369
4 3181 4207 2699 3384
4 2637 2806 3492 3789
4 4068 4402 282 283
4 4407 284 283 16
4 2637 2388 4172 2639
4 3463 2390 2388 4172
4 2389 2937 2935 3581
4 3904 3907 4409 3905
4 2390 2806 3789 3581
4 2721 2425 2318 2418
4 2305 4410 3041 2425
4 4407 1759 4068 4411
4 2304 3041 2305 2643
4 2305 2643 4412 2303
4 2305 2314 2302 2308
4 4408 17 284 1
4 2302 2306 2303 2308
4 2263 2272 3899 2265
4 2446 3899 3096 2267
4 3899 2272 3567 2265
4 2441 3256 2271 3169
4 2439 2432 2431 3043
4 3219 2272 2265 3567
4 2543 2264 2271 3256
4 4367 122 1256 123
4 2514 3990 2658 2516
4 2514 2518 3990 2516
4 2513 2516 2520 2518
4 1320 1850 4413 257
4 3989 3290 3991 4414
4 2514 3989 3770 4415
4 3290 2514 3989 2656
4 2665 2662 2663 2289
4 4416 1256 4417 1255
4 4418 1265 1256 122
4 4401 304 4419 313
4 4420 211 1241 1240
4 2665 3979 4421 4394
4 3979 2243 3151 3732
4 3979 4422 4423 4421
4 2244 4394 3979 3759
4 3686 312 119 303
4 4401 313 312 304
4 4211 1698 1707 211
4 4424 280 288 279
4 2244 4425 2289 2288
4 3979 4422 2764 4423
4 4411 1749 1759 1758
4 4382 1757 14 13
4 2391 3095 3884 3007
4 3275 3095 3884 2391
4 4383 290 282 291
4 2392 2301 2859 3062
4 3218 3563 3217 3367
4 3262 3260 2266 2229
4 4426 1727 1728 1737
4 4016 4017 737 736
4 3269 2230 2229 2222
4 3976 290 298 289
4 2859 2617 3061 3062
4 4427 125 717 124
4 4428 18 19 302
4 4429 289 280 281
4 4430 3010 3011 4431
4 3424 3741 3945 4431
4 3423 4432 3424 3945
4 3942 3423 4432 3424
4 3945 3423 4433 3013
4 4014 1261 1252 1253
4 4434 1269 1277 1268
4 4004 766 3788 3455
4 3945 3423 4432 4433
4 3010 2686 3945 3013
4 3010 3945 4433 3013
4 3010 3945 4431 4432
4 4435 4436 4437 3906
4 2214 2855 2819 4438
4 2461 2556 2558 2560
4 2561 2555 2241 2459
4 2212 2819 2214 2855
4 4129 293 17 18
4 4381 4380 1757 1756
4 2790 2556 2460 3175
4 2811 2821 2254 2336
4 2213 2811 2820 2819
4 4118 4012 4439 3518
4 4269 256 1859 257
4 2558 2338 2560 2556
4 2334 2337 2205 2338
4 2282 2289 2290 4425
4 4418 121 122 285
4 120 4440 303 294
4 4441 3907 3906 4435
4 2282 2289 2287 2290
4 2287 2289 2662 2290
4 2284 2289 2283 2282
4 2244 2288 2764 4425
4 4303 287 295 286
4 2244 2245 2289 3759
4 4442 304 303 295
4 3686 4440 4443 303
4 3576 4444 3577 3156
4 4444 4445 4446 3576
4 4447 732 3753 741
4 4033 306 314 305
4 3956 3957 755 4448
4 4449 305 296 297
4 4444 4450 3156 3564
4 4451 4452 760 751
4 4453 1731 1732 1741
4 4301 1748 1738 1739
4 4454 1241 1242 1250
4 4449 305 297 306
4 4032 293 301 292
4 3971 299 308 307
4 4444 3154 3577 3156
4 4444 3154 4445 3577
4 4455 4403 4456 1742
4 4444 3154 3155 4450
4 4428 302 293 18
4 4444 3154 3156 3155
4 3171 2528 2808 2809
4 4457 309 308 300
4 4458 309 317 308
4 2229 3260 2266 3269
4 3267 3899 3567 2265
4 4459 300 292 301
4 4460 720 729 728
4 3321 2267 3096 3484
4 4461 310 318 309
4 3899 3096 3347 3082
4 3347 4462 3082 3096
4 4032 301 293 302
4 3096 3099 3406 3484
4 3406 3404 4462 3096
4 3525 3526 3527 4463
4 3442 2687 3936 3526
4 4017 726 727 735
4 2910 3312 4464 3672
4 3679 118 1292 119
4 2588 2589 2468 2463
4 2234 2468 2232 2233
4 2464 2582 3928 2965
4 4269 256 1320 1329
4 2232 2629 2233 2468
4 2589 2763 2965 3236
4 4465 192 193 1175
4 2231 2242 2243 2764
4 3979 2243 4423 2764
4 4466 210 4420 1240
4 4066 294 286 295
4 4135 4467 4468 1815
4 2241 3731 2243 2591
4 2243 3730 3732 4469
4 4302 295 296 304
4 2243 4470 2764 2242
4 3971 307 298 299
4 2243 2242 3731 4470
4 4136 4436 4471 4137
4 3906 4436 4437 4471
4 2692 2666 2691 2536
4 3686 120 1274 4440
4 2672 2666 2664 2290
4 4472 316 307 308
4 4473 315 323 314
4 2666 2287 2290 2536
4 4016 4448 746 737
4 2508 2495 2516 2904
4 4457 308 3433 3971
4 4457 308 299 300
4 2658 2516 2508 2495
4 4435 354 353 345
4 2516 4474 2518 2905
4 2654 2516 3045 2515
4 2654 3045 2516 3035
4 4475 302 310 301
4 4476 327 319 328
4 4080 19 311 302
4 4138 4477 3911 4478
4 3432 310 309 301
4 4479 20 21 320
4 3427 3430 3435 3434
4 4381 4429 4383 4380
4 3435 3955 3430 3431
4 3890 3435 3798 3469
4 3951 3435 3430 3599
4 3469 3599 3435 3471
4 3435 3952 3798 3471
4 2313 2567 2566 4133
4 4480 319 311 320
4 2416 2566 3552 3037
4 2564 2566 2565 2992
4 3713 3154 4481 4482
4 3108 2770 2800 3110
4 2771 2983 2794 2410
4 2333 2770 3110 2328
4 2770 2771 2794 2413
4 4401 304 312 303
4 2357 3083 3107 3738
4 2325 2434 2326 3374
4 4419 305 313 304
4 2329 2327 2331 2320
4 2771 2413 2410 2794
4 4483 314 323 322
4 4426 1726 1727 1736
4 2328 2329 2801 2320
4 2767 2771 2801 2800
4 2835 2833 3475 2832
4 2941 3780 2940 2836
4 4033 306 315 314
4 4473 315 324 323
4 3458 2837 4484 2836
4 4138 4485 3905 4486
4 2838 3777 4070 3781
4 2837 2842 2833 2836
4 3507 1728 1719 1729
4 3352 1296 1305 1304
4 4487 316 324 315
4 4488 764 763 755
4 4489 789 4490 790
4 2410 4491 3285 2408
4 4294 3611 3277 4293
4 4458 318 317 309
4 4477 326 4486 335
4 2900 2901 3611 3277
4 2831 2900 3225 3277
4 2900 3277 3611 4293
4 2900 4293 3225 3277
4 3611 4492 4294 4493
4 3684 3683 2903 2901
4 3680 3611 3688 3685
4 2521 4494 2424 2421
4 2513 2527 2521 2424
4 3292 2799 2656 2793
4 4479 320 311 20
4 4461 318 310 319
4 343 4495 4477 334
4 4397 22 329 21
4 2404 2405 2653 2413
4 4319 329 328 320
4 2658 2514 2516 2515
4 3954 3428 3956 4488
4 2658 3989 2509 3990
4 2332 4496 4497 2320
4 2332 4497 4496 4498
4 2328 2771 2801 2329
4 2332 2330 2331 2324
4 2331 2329 2982 2326
4 2331 4497 2923 4499
4 2331 4497 4500 2320
4 2331 4497 4499 4500
4 2331 2982 2329 4499
4 3730 4469 4501 3732
4 4483 322 313 314
4 3730 3676 4502 3675
4 2572 4503 2571 4465
4 2561 3676 3730 3675
4 4504 322 330 321
4 4505 3676 4502 3732
4 3676 4502 3732 3730
4 3137 3836 3674 4506
4 2571 192 2194 4465
4 3137 3730 4506 3674
4 3730 4502 3732 4507
4 2405 2974 3187 3992
4 4508 3787 4403 4453
4 4509 1279 1270 1271
4 4326 4130 4510 1684
4 3994 3730 4507 4502
4 3712 3473 4511 3421
4 4512 317 325 316
4 3730 4502 3994 3674
4 4513 325 333 324
4 4512 325 317 326
4 2810 2369 3316 4313
4 4487 316 325 324
4 2810 2934 2809 2807
4 3254 3216 3935 3255
4 3932 2369 2934 2810
4 3181 3920 3182 3373
4 4514 4515 4516 4517
4 4514 4195 4518 4519
4 4514 4516 4520 4521
4 4514 4518 4195 4522
4 4523 24 347 23
4 4476 319 327 318
4 4320 22 23 338
4 4514 4516 4521 4193
4 2884 2891 2551 3879
4 2884 2551 2804 2874
4 4017 727 728 736
4 4319 320 328 319
4 2246 2253 2247 2251
4 2246 2252 2535 2779
4 4524 344 352 343
4 2804 2886 3447 2887
4 2278 2550 3881 2554
4 4067 336 328 337
4 4321 337 328 329
4 2246 2550 2914 2874
4 2450 2430 2441 2429
4 2492 2805 2488 2490
4 2271 2805 3256 2745
4 2271 2488 2805 2745
4 2491 2271 2492 2267
4 2515 2656 2514 2521
4 4525 375 112 366
4 193 2572 2195 4465
4 4526 323 331 322
4 3381 3406 3484 3321
4 2796 2795 2794 2983
4 2797 3374 2798 2977
4 4210 333 342 341
4 2797 3374 2434 2798
4 2434 2799 2792 2798
4 2326 2797 3374 2434
4 4527 3070 3916 3734
4 4527 3070 3734 3069
4 4528 4529 3069 4530
4 4531 332 323 324
4 3986 4300 4532 4533
4 2657 3292 2354 3992
4 4534 350 358 349
4 4486 327 335 326
4 3054 776 784 775
4 3991 4535 4536 4537
4 4538 350 349 341
4 4529 4387 3916 4527
4 4387 3672 3311 3916
4 4539 364 363 355
4 4540 4541 1813 1812
4 4320 338 329 22
4 3312 3672 3311 4387
4 4486 335 327 336
4 4527 4530 4387 3312
4 2359 2899 2405 2354
4 2359 2657 2354 2405
4 2375 2382 2381 2383
4 2826 3186 2653 2827
4 4414 4542 4543 4537
4 3817 1298 1307 1306
4 2928 2359 2793 3077
4 4225 361 362 370
4 4544 346 354 345
4 4545 356 347 24
4 2404 2652 2653 2377
4 4321 337 329 338
4 2657 2405 3992 2354
4 3989 4415 4537 4546
4 2652 2795 2410 2413
4 4547 754 762 753
4 3141 3747 2812 3748
4 2811 2558 2205 2818
4 3748 2751 2783 2784
4 4548 1300 1291 1292
4 4549 4550 339 1310
4 2812 2821 3144 2213
4 4551 351 350 342
4 2335 2931 2812 2336
4 192 2194 4465 2195
4 4552 1281 4553 1290
4 2812 3144 2821 4002
4 2938 2945 2943 2939
4 2945 2943 3835 2942
4 4443 3901 1282 1283
4 4554 339 340 348
4 2945 3834 2942 3835
4 4555 332 340 331
4 2945 2530 3834 3335
4 4556 342 333 334
4 3335 2945 2531 3476
4 4490 790 789 781
4 4556 342 334 343
4 3290 4414 3289 3828
4 3991 4557 4537 4558
4 3429 3431 4032 4475
4 4485 336 344 335
4 4559 833 832 824
4 4560 2945 2943 3835
4 4561 4353 1308 1309
4 2805 2977 2490 2798
4 4562 774 773 765
4 4224 362 361 353
4 2805 3374 2798 3169
4 2805 2798 3374 2977
4 2805 2745 2488 2980
4 2975 2977 2805 2978
4 4563 365 364 356
4 2484 2493 2267 2422
4 2441 3169 2805 2798
4 4564 338 346 337
4 4485 344 336 345
4 4465 193 192 2195
4 4523 23 347 338
4 4565 379 388 387
4 3860 3863 3861 3859
4 2214 4153 2789 2787
4 3143 2213 3864 3238
4 2214 2213 3143 3238
4 2214 2787 4154 4153
4 4547 763 762 754
4 2218 2789 2214 2209
4 3877 2209 3143 4153
4 3143 3566 2215 2217
4 4566 374 373 365
4 4545 24 25 356
4 3973 4567 3972 3975
4 3441 4568 4567 4569
4 3351 1304 1305 1313
4 3441 2685 3799 3439
4 3441 3799 2685 3600
4 3441 4569 3970 3938
4 2493 3483 3379 2519
4 4570 4571 1831 4572
4 3969 3441 3970 3600
4 4465 4503 2571 1175
4 2268 3668 2746 3268
4 3266 2268 3265 2269
4 2491 2271 2745 2488
4 4538 341 349 340
4 4551 342 350 341
4 4573 1829 3546 1838
4 4574 1337 1336 1328
4 2975 2805 2980 2978
4 3623 3626 2745 2621
4 4575 4562 4576 773
4 3623 4577 2745 2980
4 2843 2844 2846 2847
4 4578 1324 1315 1316
4 4579 4221 4220 4580
4 2692 2667 2661 4581
4 2692 2666 2287 2661
4 4582 825 834 30
4 2534 2539 2846 2844
4 4583 352 351 343
4 4583 351 342 343
4 2536 2691 2534 2666
4 4584 4585 3829 414
4 4586 354 363 362
4 2534 2538 2846 2539
4 3247 2691 3248 3250
4 4524 352 344 353
4 2249 2876 2779 2877
4 4587 373 372 364
4 2888 2896 2897 2804
4 2278 2969 2914 2554
4 2282 2274 2251 2277
4 2535 2541 2276 2537
4 4523 4490 4545 780
4 4544 354 346 355
4 2843 2847 2777 2844
4 2695 2251 2287 2536
4 4575 4588 772 773
4 4589 2776 3869 4292
4 4590 355 347 356
4 2884 2550 2874 2889
4 2693 2549 4591 2548
4 2695 2251 2253 2277
4 2248 3368 2696 2549
4 4592 4593 4594 4595
4 2659 2289 2283 2245
4 4566 365 373 364
4 4596 26 365 25
4 2282 2274 2284 2288
4 2250 2273 2275 2969
4 2432 2448 3650 2447
4 4597 349 357 348
4 2695 2286 2287 2277
4 2282 2251 2274 2537
4 3279 2854 3121 3283
4 3279 2851 3263 2850
4 2853 4598 3121 3283
4 3649 1564 1572 1563
4 4509 1280 4599 4134
4 4600 340 4554 339
4 3279 2851 4601 3773
4 4601 3279 4602 2854
4 2854 3919 3550 4601
4 2852 3919 3550 2854
4 2724 2307 2719 2717
4 4603 367 366 358
4 2997 3589 2998 2996
4 2313 2314 2315 2567
4 4604 351 359 350
4 4605 367 375 366
4 2317 2427 2396 2316
4 4606 4538 4555 4210
4 2564 2998 2714 3816
4 2302 3041 2304 2399
4 2564 2995 2313 2566
4 3844 4607 2678 2679
4 4608 369 360 361
4 4609 352 360 351
4 4608 370 369 361
4 2679 3844 4610 2379
4 4611 1345 1354 1353
4 4224 361 352 353
4 4610 2379 4019 2679
4 3844 4610 4607 2679
4 4612 3844 4613 4610
4 3844 4614 4612 3845
4 2641 3139 2649 2647
4 3844 4613 3846 3845
4 4081 380 379 371
4 4615 772 771 763
4 4539 355 363 354
4 3844 3846 4613 4610
4 3832 4616 4617 4618
4 4619 379 380 388
4 2840 3813 4121 3811
4 4563 356 364 355
4 4465 1175 2571 192
4 4620 26 374 365
4 3229 3356 3474 2632
4 2842 3173 3474 2834
4 4621 407 399 408
4 3354 3362 3231 3356
4 4596 25 365 356
4 4588 782 781 773
4 3474 2840 2837 4091
4 3474 3229 3357 3356
4 4622 373 381 372
4 3474 4082 3357 3815
4 3852 3474 4082 3357
4 3020 3030 3029 3027
4 2587 2644 3024 2650
4 4603 366 357 358
4 2084 2092 2093 4623
4 2397 2646 2648 2428
4 2575 2698 2470 2473
4 2426 2415 2686 2684
4 4624 4597 4574 4625
4 4626 359 367 358
4 2403 3911 3185 2578
4 4100 403 4617 412
4 2971 2403 3453 2401
4 4627 3485 3486 4628
4 3485 4304 2844 4628
4 4629 4230 375 384
4 4630 359 360 368
4 4631 3826 4632 1819
4 3485 3868 2847 3869
4 3485 3486 3868 4633
4 3485 4634 4627 3486
4 3485 4634 4298 4627
4 2387 2638 2636 3658
4 2767 3610 2802 2903
4 4635 3329 3102 3233
4 2937 3189 3188 3461
4 4349 2093 4623 2084
4 4629 376 385 384
4 4636 363 371 362
4 4637 4638 382 391
4 2937 3631 3461 2933
4 3463 3461 3462 3460
4 3460 2937 2300 2390
4 3560 3559 3896 4639
4 4636 371 363 372
4 3635 2937 3631 3461
4 4640 3076 3926 3044
4 3460 3463 2388 2614
4 4641 27 28 383
4 2388 2639 2612 2614
4 2686 3703 3666 2684
4 3138 2640 3468 4003
4 4015 3036 3037 4642
4 3425 2400 3138 2648
4 3468 3138 3425 2400
4 4592 3079 4643 4644
4 4645 437 445 436
4 4646 373 374 382
4 2395 3599 2971 3888
4 4620 374 26 27
4 2393 2403 2395 2971
4 4647 400 391 392
4 2398 2428 2970 3013
4 2641 2647 2640 3139
4 3467 3425 3470 3666
4 2397 2428 2399 3041
4 2810 2297 2368 2369
4 4554 340 4555 4538
4 2373 3232 3228 2363
4 2806 3492 2299 2637
4 2299 2297 2363 2373
4 3171 2809 2810 3211
4 3171 3210 3211 3172
4 4648 377 386 385
4 4649 368 376 367
4 4650 369 377 368
4 2835 3501 3475 3520
4 3171 2528 2700 2833
4 2337 2606 2599 2600
4 2338 2339 2337 2603
4 4651 4278 4652 4580
4 4653 378 369 370
4 2337 2708 2751 2931
4 2705 2337 2708 2751
4 2705 2337 2339 2712
4 4653 379 378 370
4 3024 2644 2587 2643
4 3176 3023 3181 3021
4 4654 4655 4656 4657
4 2575 2473 2470 2306
4 4658 372 380 371
4 2469 2470 2474 2473
4 2302 2427 2317 2316
4 4040 388 396 387
4 4641 383 374 27
4 4659 398 397 389
4 2469 3482 2308 3294
4 2469 2308 2475 3294
4 2449 3288 3322 2447
4 4660 391 399 390
4 3705 3698 3726 4661
4 4661 4662 3705 4663
4 4661 3698 3697 3705
4 1156 4663 4664 1147
4 4622 381 373 382
4 4663 4664 1147 4661
4 4638 381 382 390
4 4661 3698 3726 4665
4 4665 4661 3806 3726
4 4661 3698 1147 3697
4 4646 382 374 383
4 3185 2577 2578 3904
4 3185 3904 3911 4138
4 3184 3904 3185 4138
4 3912 3454 3185 4666
4 2322 4667 3764 2319
4 2402 3467 3425 2400
4 2586 3177 3183 3021
4 3183 3185 3454 3177
4 4620 4668 798 4596
4 4584 406 414 405
4 4629 376 384 375
4 4648 385 376 377
4 2819 2254 4669 4670
4 2202 2603 2205 2599
4 4671 110 109 1373
4 2819 2213 3238 2820
4 2336 2262 2204 2206
4 2254 4669 2759 2820
4 2254 2820 2759 3495
4 2811 2334 2335 2336
4 4229 110 4671 1364
4 1343 4218 1342 1351
4 4672 394 385 386
4 2604 2748 2708 2931
4 2604 2337 2606 2599
4 4042 378 386 377
4 4043 387 396 395
4 3528 2727 2813 2709
4 4565 387 378 379
4 2707 2709 2710 2725
4 4673 813 4674 4030
4 2703 2709 2713 3607
4 4675 1344 1353 1352
4 4676 1326 1335 1334
4 3911 4477 4677 4478
4 2709 2710 2856 3607
4 4619 388 380 389
4 4678 390 399 398
4 2800 4679 2801 2803
4 2711 2857 2709 3528
4 2711 2708 2606 3528
4 2712 2708 2606 2711
4 4680 4681 4682 4220
4 4683 389 381 390
4 4637 383 391 382
4 4684 818 817 809
4 4685 28 392 383
4 4681 4222 817 826
4 4686 3731 2242 4470
4 4686 4687 3136 3731
4 4647 392 401 400
4 4688 808 4668 799
4 4686 2591 3136 4689
4 4686 3136 4687 4170
4 4660 399 391 400
4 2595 2346 2609 2610
4 2344 2349 2345 2347
4 4582 29 30 401
4 2605 3033 2353 2748
4 2322 2800 3763 4679
4 2337 2708 2606 2712
4 2595 2604 2606 2599
4 2707 2727 2606 3528
4 3573 2595 2610 2346
4 3656 2571 1175 1166
4 2353 2606 2748 2727
4 4690 439 438 430
4 2981 2988 2952 2951
4 2950 2775 3141 2783
4 2212 2855 2558 2819
4 3302 3305 3306 3136
4 4229 111 110 1364
4 4043 395 386 387
4 2478 2464 2582 3928
4 4671 109 110 393
4 2627 2959 2630 3515
4 3375 3378 3380 3376
4 4672 394 386 395
4 411 4691 108 4692
4 4693 4629 4230 375
4 2811 2558 2819 2213
4 2461 2557 3137 2555
4 2212 2210 2452 2456
4 2558 2560 2818 2559
4 2767 2803 2800 2801
4 4616 404 395 396
4 2454 2461 2452 2456
4 4040 396 388 397
4 2452 2460 2451 2951
4 4659 389 397 388
4 3308 2462 3302 2557
4 3047 2976 3100 3048
4 2796 2795 2983 3285
4 4694 1335 1344 1343
4 2658 2495 2508 2509
4 4695 398 406 397
4 2928 2799 2434 2438
4 2515 2527 2521 2513
4 4696 1324 1333 1332
4 2359 3077 2354 3292
4 2928 2327 2434 2794
4 2928 2359 3081 2770
4 2800 2328 2322 3110
4 3076 3084 4640 3081
4 3110 3108 3109 3766
4 2333 2321 2322 3765
4 4668 799 807 798
4 2446 3899 2448 3096
4 2434 3081 2333 2928
4 2432 2439 3650 3043
4 3075 3081 2439 3077
4 2433 3081 3076 3765
4 4219 4637 4222 4221
4 2968 2915 2917 4048
4 2250 2252 2279 2275
4 3165 2554 3167 4697
4 3165 2553 2554 2969
4 2250 2273 2285 2274
4 3947 466 457 458
4 2278 2277 2553 2548
4 2553 2273 2629 2285
4 4698 468 476 467
4 2232 2629 3148 2910
4 2285 2553 3166 2629
4 2467 2631 2910 2233
4 4618 403 394 395
4 4699 4700 866 857
4 2214 2209 4153 3143
4 2214 2209 2789 4153
4 2789 3515 3519 4701
4 4096 402 394 403
4 4702 1361 1370 1369
4 2788 2789 4703 2787
4 4100 411 403 412
4 2789 3515 4701 3878
4 2209 3515 3878 2217
4 2789 4703 2787 4153
4 2383 2904 3673 3848
4 4704 405 396 397
4 3829 414 413 405
4 4705 422 421 413
4 4704 406 405 397
4 2496 2497 3700 3699
4 3673 3603 2904 2497
4 3503 1907 1898 1899
4 4706 850 858 849
4 4542 415 407 416
4 4707 4708 4709 437
4 2381 2496 3673 2495
4 2791 2732 3303 2704
4 2791 3175 2556 2732
4 2791 2460 2556 3175
4 2462 2791 2460 2556
4 4710 30 410 401
4 4711 827 818 819
4 4542 415 406 407
4 2460 2451 2951 3337
4 3336 2457 2451 2988
4 4620 4641 4566 374
4 2909 2907 3046 3049
4 4712 31 32 419
4 2397 2401 2304 2393
4 3155 4670 4669 2759
4 4713 3155 4670 4669
4 2334 2558 2556 2338
4 2259 3154 3156 3577
4 2205 2206 2599 2336
4 4714 1163 1173 1172
4 2203 3158 3156 3155
4 2358 3110 3084 3081
4 3081 3084 4640 3110
4 4617 412 403 404
4 4617 4618 4616 404
4 2322 3763 4715 4679
4 4617 413 4705 412
4 2419 2425 4716 2418
4 3222 2189 2198 2197
4 4717 412 420 411
4 2327 2983 2771 2329
4 3829 413 404 405
4 2322 4667 3766 3764
4 4056 2171 2180 2179
4 2970 2648 3013 2428
4 2327 2771 2983 2794
4 2309 414 423 422
4 2800 2320 2322 2328
4 2322 4679 2320 2800
4 2569 199 1238 1229
4 2997 3662 3597 3598
4 2675 2787 2788 2786
4 4718 4719 4542 3289
4 4644 2311 4720 3079
4 4721 4722 4723 4605
4 4724 408 416 407
4 2313 2724 2568 3060
4 2723 2721 4398 2722
4 4285 1872 1863 1864
4 4584 415 414 406
4 4725 1845 1844 1836
4 4726 4727 3152 3313
4 2674 3676 3841 4727
4 4728 418 4729 419
4 4724 416 408 417
4 4719 425 433 424
4 4474 846 837 838
4 4646 374 4641 383
4 2674 3152 3676 4727
4 4156 3841 4727 2786
4 4180 426 434 425
4 4730 417 409 418
4 4731 3551 2416 2420
4 4732 4652 854 853
4 4733 435 436 444
4 4729 418 410 419
4 4734 3281 3647 3669
4 3646 4734 3272 4735
4 4734 4736 911 4737
4 4736 4738 4737 4734
4 4739 4736 4738 4737
4 4062 4740 4741 4742
4 3281 4738 3669 4734
4 4734 3646 3647 3281
4 2516 3035 3045 2520
4 2516 2520 4474 3035
4 2518 2520 4278 4474
4 2518 4743 4651 3990
4 2518 3990 4651 3770
4 3790 3119 3098 3097
4 2518 4743 3990 2905
4 2387 2636 2639 2637
4 4744 420 421 429
4 2224 2363 2221 3617
4 4705 413 421 412
4 2373 2299 3232 2363
4 4744 430 429 421
4 2220 2386 3622 2222
4 3083 4142 4745 4746
4 4747 4748 4744 4749
4 2221 2861 3263 2850
4 2373 2368 2363 3228
4 3232 3617 3489 3800
4 2309 422 413 414
4 2368 2365 2366 2364
4 4690 430 438 429
4 4750 1353 1362 1361
4 4542 424 415 416
4 3314 3638 3315 3317
4 2221 3617 2363 3925
4 4542 416 425 424
4 4584 3827 3829 4585
4 2363 3800 2852 3925
4 3599 2395 3434 3430
4 4585 423 415 424
4 3888 3453 4037 3456
4 3438 4478 3912 3888
4 4181 425 416 417
4 4751 442 433 434
4 3888 3438 3430 3954
4 4752 4652 3770 4732
4 4753 426 418 427
4 2395 3888 2971 2403
4 4181 425 417 426
4 2826 2825 3964 2827
4 4708 34 446 437
4 2823 3736 3735 3740
4 4707 33 34 437
4 4728 419 427 418
4 4709 427 428 436
4 2825 2823 2899 2827
4 4754 32 428 419
4 4220 836 835 827
4 2825 3964 2827 3548
4 4755 1197 1198 4756
4 2357 2355 2899 2354
4 2406 2360 2823 2899
4 2404 2406 2766 2768
4 4220 835 826 827
4 2641 2587 2644 2643
4 4720 423 431 422
4 2317 2578 2403 2577
4 3666 3258 3394 3470
4 2402 3666 3258 2684
4 3402 4264 450 4593
4 3397 3394 3703 3399
4 1207 4756 4071 4072
4 3258 3799 2685 3439
4 3258 3439 2685 2684
4 2369 2367 3316 3637
4 4757 1392 4758 1401
4 3829 2309 413 414
4 4759 439 447 438
4 2369 3318 4313 3932
4 2368 2365 2364 2634
4 3215 3015 2227 3014
4 4760 463 462 454
4 2363 3228 2634 2852
4 4720 431 423 432
4 4761 440 448 439
4 3318 3932 2369 2934
4 2362 2364 2361 2366
4 4762 3315 3317 3637
4 4763 434 435 443
4 4644 432 424 433
4 2580 2479 2478 2986
4 2629 2959 3166 2630
4 4644 441 432 433
4 2627 2958 2959 3515
4 2581 2479 2583 2956
4 2580 4764 3928 3164
4 4719 433 425 434
4 4763 435 444 443
4 4180 434 426 435
4 2581 2956 2480 2479
4 4765 427 435 426
4 2583 3170 2955 4766
4 2624 2838 4070 2623
4 3746 3749 2932 2931
4 4707 437 428 33
4 4052 2625 4767 4059
4 4647 4637 392 391
4 4052 4053 2625 4059
4 4465 1175 193 1184
4 2625 4767 4059 3086
4 4288 872 871 863
4 2619 2625 4053 4059
4 2676 2678 2677 2681
4 3673 2495 2497 2904
4 2385 2866 2702 2699
4 4768 455 446 35
4 2866 2494 2501 2500
4 2495 2904 2508 2497
4 2826 2653 3186 2507
4 2680 2385 2701 2702
4 2654 2655 2515 3045
4 4769 4770 3850 4771
4 2651 2909 2652 2795
4 2651 2382 2652 2909
4 4772 4773 1427 103
4 4720 432 440 431
4 4038 431 439 430
4 4774 468 467 459
4 2658 3990 2509 2508
4 2494 2501 2499 2506
4 4352 2715 4775 3326
4 4756 1198 4755 4072
4 4776 457 456 448
4 3768 2718 4777 2570
4 4778 4180 4765 4763
4 3949 449 458 457
4 3057 3895 2718 3589
4 3444 3486 3868 2847
4 4690 4759 438 439
4 4720 441 440 432
4 2718 2570 3326 4777
4 4491 4062 4779 4780
4 4756 4071 3616 4781
4 4644 442 441 433
4 2332 2324 2331 2923
4 2928 2434 2799 2794
4 4255 4698 468 477
4 3403 4763 4782 443
4 2792 2521 2799 2656
4 3403 451 442 443
4 2439 3081 2438 3077
4 2928 2770 3081 2333
4 4783 458 450 459
4 2790 2452 2954 2460
4 2334 3175 2337 2339
4 4751 434 4763 443
4 2811 2819 2818 2254
4 2344 2348 3805 2293
4 2596 2625 2624 2932
4 2605 2346 2606 2353
4 2605 2353 2606 2748
4 4784 455 464 463
4 4708 34 870 35
4 4785 454 446 455
4 3091 4786 3033 3032
4 4398 3554 4787 4540
4 2624 3034 3032 2939
4 2605 2748 2749 3033
4 4768 35 879 36
4 2932 3086 2625 3032
4 2576 2473 2579 3328
4 2576 3385 3904 3184
4 4015 3936 3036 4642
4 95 1508 3150 1499
4 2317 3259 2403 2578
4 2575 2470 2698 3023
4 2574 2578 2577 2579
4 4239 1416 1415 1407
4 4761 449 448 440
4 1499 95 528 3150
4 3049 2655 2795 2909
4 2653 2657 2405 3187
4 2907 3100 3047 3049
4 2651 2795 2652 2413
4 2653 2509 3187 3186
4 4788 441 449 440
4 4789 877 886 885
4 4584 3827 4543 4790
4 3049 3287 3102 3050
4 2904 2495 2654 2383
4 2383 2495 3673 2904
4 4584 4543 4585 415
4 2404 2406 2768 2765
4 4791 101 102 465
4 4776 456 447 448
4 2654 2906 2907 3035
4 4788 450 449 441
4 4792 4793 871 880
4 2756 2866 2501 3382
4 2507 2506 2756 2501
4 4794 453 462 461
4 2823 3740 2862 3736
4 3403 451 443 452
4 2404 2407 2765 2867
4 4158 472 471 463
4 2756 2757 2501 4795
4 2826 2758 2756 2822
4 3634 503 494 495
4 4796 461 469 460
4 3326 2758 2716 2863
4 3225 2376 2701 2472
4 2761 2758 2831 2863
4 4785 454 445 446
4 4768 36 455 35
4 2507 2653 2377 2701
4 4797 4768 36 455
4 2554 3881 4697 4798
4 3148 3671 3769 3672
4 2696 2549 3998 3853
4 2278 2551 2549 2552
4 3580 4760 454 4784
4 2250 2253 2251 2277
4 2914 2250 2279 2915
4 4797 37 36 888
4 4799 2825 3737 3401
4 2826 2756 3186 3968
4 2676 2384 2677 2678
4 4800 1951 1950 1942
4 2766 2412 2413 2404
4 2900 2902 2409 3615
4 2767 3370 2769 3610
4 3062 3465 3004 3005
4 4772 103 104 447
4 4791 474 101 465
4 2611 3460 4801 2617
4 4248 494 486 495
4 4802 456 457 465
4 3460 3062 3189 3465
4 3062 3189 3465 3005
4 4749 4803 1408 1409
4 4328 1424 1415 1416
4 4157 460 451 452
4 4802 466 465 457
4 3061 3062 2617 3063
4 2225 2859 3275 2391
4 3274 3217 3061 2617
4 4804 3301 3220 3503
4 4805 1422 1413 1414
4 4806 1919 1910 1911
4 2810 3211 3162 2633
4 3171 2700 2349 3475
4 3932 3719 3242 3509
4 3509 2810 2809 3211
4 2420 2567 3752 3551
4 3903 3487 4807 4808
4 4809 2623 3500 4070
4 3376 890 881 882
4 4070 3903 4810 4092
4 2435 2670 2437 2436
4 4811 899 890 891
4 4812 4813 934 925
4 4070 4808 3781 3777
4 4070 2624 2626 3777
4 4760 454 462 453
4 4814 471 479 470
4 3828 2311 3827 4543
4 537 528 94 3150
4 4815 38 473 37
4 4070 3498 3777 2626
4 2940 2838 3781 3777
4 2838 2834 2623 2832
4 4816 898 907 906
4 2226 3264 2861 3214
4 4797 4785 4768 455
4 4817 889 880 881
4 4118 1243 1252 1251
4 2860 3215 3015 2227
4 2373 2842 2299 2528
4 2414 2318 2427 2428
4 4439 1253 1252 1244
4 2507 2866 2494 2501
4 4772 456 4773 103
4 4818 466 474 465
4 4773 465 102 456
4 2760 2702 2756 2866
4 4262 4819 3796 4820
4 4821 460 468 459
4 2831 3225 2900 2867
4 2375 2381 2384 2383
4 4822 4823 4178 4824
4 4246 487 495 486
4 2377 2376 3225 2378
4 3947 466 458 467
4 3144 4825 4002 4826
4 3144 3863 3142 2215
4 4821 468 460 469
4 3144 2213 2820 2215
4 3144 2215 2820 3864
4 4827 4828 4234 4829
4 4830 2435 2669 4831
4 4796 469 461 470
4 3442 2688 3526 3527
4 4439 4832 3488 1716
4 2992 3036 2566 2565
4 4833 462 470 461
4 2993 2994 4834 4134
4 4158 463 471 462
4 4833 470 462 471
4 4463 3588 3526 3037
4 2992 3588 2994 4134
4 3525 4835 3527 4836
4 2997 3662 3590 3597
4 4837 3926 4337 4838
4 3525 3588 4839 2999
4 4797 888 897 37
4 4815 37 473 464
4 4797 897 4840 4816
4 3324 2417 3750 4841
4 2993 2995 4834 2994
4 4842 933 41 924
4 2688 3938 2685 3601
4 4812 924 4843 925
4 537 3150 94 1508
4 2997 3598 3525 3524
4 4844 4815 38 473
4 4845 907 916 915
4 2565 2316 3000 2396
4 2564 3816 2995 2994
4 4840 897 888 889
4 2574 2475 2307 2570
4 3249 3250 4846 2667
4 3249 4847 3251 4848
4 3247 3249 2883 2667
4 4848 3247 4849 3253
4 3247 4848 3249 3251
4 4850 2155 4851 2156
4 4773 4791 102 465
4 4852 4853 4854 4855
4 3247 3251 2929 4848
4 3945 4431 3742 3011
4 4856 483 492 4857
4 2462 2557 2732 2556
4 3134 3302 2555 2557
4 4858 1452 1443 1444
4 483 1454 4791 100
4 3552 2416 4434 3551
4 4859 4860 942 943
4 4698 477 476 468
4 2558 2560 2338 2818
4 4861 4862 478 479
4 2960 2818 2338 2560
4 2212 2452 2790 2456
4 2211 2481 2207 2217
4 3240 3244 2944 3245
4 4255 477 469 478
4 4863 485 484 476
4 4246 477 478 486
4 4160 480 472 481
4 2942 2530 3834 2945
4 3774 2942 2530 3834
4 3240 3723 2944 3244
4 4791 4864 1436 1445
4 4246 486 478 487
4 3774 3244 2944 2942
4 2945 3835 4244 3834
4 4160 480 471 472
4 4179 488 497 496
4 2942 3776 3244 3835
4 4865 4844 39 482
4 2942 3244 3776 3774
4 4844 38 482 473
4 2960 2911 3837 2963
4 4865 39 40 491
4 3203 2960 2966 2962
4 2966 3201 3207 3203
4 3199 3208 3203 3198
4 3203 3197 2963 2962
4 4866 4867 3791 3097
4 3203 3198 3958 2963
4 4868 223 2165 2156
4 3203 3201 3197 2962
4 4868 222 223 1626
4 4869 4868 4850 4870
4 3563 3254 3216 3560
4 4871 4850 4872 4869
4 4873 1454 4791 483
4 4863 475 476 484
4 3216 3935 3255 3174
4 4874 1451 1450 1442
4 2325 2333 2433 3174
4 4875 4876 4813 4877
4 3600 3970 4878 3601
4 4247 477 485 476
4 2395 3601 3434 3889
4 3973 3969 3890 3441
4 4862 487 478 479
4 100 4857 1463 99
4 4110 1460 4116 1469
4 2395 3434 3601 3600
4 4116 1470 1469 1461
4 3439 3666 3703 2684
4 4868 1635 222 1626
4 3262 3263 2229 3264
4 2266 3264 3266 3268
4 4879 480 488 479
4 3218 3216 3563 2728
4 2386 3364 2615 2737
4 2223 2392 2391 2300
4 2230 2219 2229 2222
4 2225 2226 3275 2230
4 2850 2861 3263 3264
4 4880 489 480 481
4 4881 1414 4838 1415
4 4862 487 479 488
4 4882 1490 1481 97
4 4843 924 915 916
4 4883 1440 1448 1439
4 1508 94 537 1517
4 3127 2108 2099 2100
4 2227 3214 3015 3213
4 4865 491 482 39
4 4833 4814 470 471
4 3218 3274 2230 3364
4 3266 3669 3268 3264
4 3095 2392 2859 3062
4 4884 490 491 499
4 2745 3256 2270 3626
4 4885 490 482 491
4 2266 3269 2264 2230
4 2742 3097 3096 3099
4 4842 41 500 40
4 3218 3364 2728 3367
4 2543 2735 3254 2728
4 3010 4433 3945 4432
4 3423 3941 3942 4432
4 3425 3741 3424 3710
4 2402 3467 3258 3666
4 2970 3423 3013 2648
4 3884 3641 2860 3215
4 2970 3423 3945 3013
4 2984 4886 4887 4888
4 2208 2209 3143 2217
4 2208 2452 2212 2210
4 4889 4890 4891 493
4 2455 2452 2210 2456
4 2562 2558 2461 2456
4 2211 2453 2207 2774
4 3632 504 512 503
4 4890 494 502 493
4 1472 99 2280 98
4 3508 4307 4892 4313
4 3508 4892 3510 4313
4 3509 3508 3929 3719
4 3508 4308 3509 3929
4 4889 493 485 494
4 4893 4894 3585 3584
4 4743 2508 4272 2510
4 510 96 4882 97
4 4743 4651 3990 4895
4 98 2280 2281 501
4 4896 4819 4897 1972
4 4898 1449 1440 1441
4 2518 4651 4743 3323
4 4743 2508 3990 2905
4 4899 497 488 489
4 4743 2905 4900 4272
4 4901 926 917 918
4 4896 1972 1963 1964
4 4743 4682 4900 3323
4 2314 2318 2315 2567
4 2313 2717 3060 2720
4 4902 490 498 489
4 4903 4904 4905 4906
4 2566 3036 2415 2565
4 2469 2303 2308 3482
4 4884 4885 491 490
4 4876 936 935 927
4 2308 3334 3294 3482
4 2308 3294 3334 2722
4 2302 2318 2305 3041
4 2574 2306 2475 2473
4 2302 2574 2307 2317
4 2473 2570 2475 2574
4 4907 508 516 507
4 2472 2864 3298 3294
4 4842 40 500 491
4 4162 500 509 508
4 4812 925 933 924
4 3303 4187 3621 3310
4 3303 3310 4908 4187
4 3303 3621 3308 3310
4 4822 43 527 518
4 2462 2451 2791 2458
4 4909 42 518 509
4 3146 3303 2704 3345
4 2465 2588 2457 2459
4 3336 3303 2458 3344
4 3303 3146 2704 3621
4 3150 94 1508 95
4 2590 2591 2242 3583
4 3347 3082 4462 4174
4 2467 2628 2627 2630
4 2467 2630 2627 2629
4 2210 2456 2673 2466
4 2630 3519 2628 3515
4 2465 2453 2593 2463
4 2629 2582 2965 3164
4 4910 4911 4864 1453
4 2455 2468 2464 2463
4 4339 504 495 496
4 2279 2772 2924 2915
4 4890 502 494 503
4 4109 1468 4115 4912
4 4913 4914 4105 690
4 2776 2780 4589 4915
4 3541 3276 2276 2781
4 4355 4916 1480 1489
4 3124 4760 4917 4784
4 4918 1471 1470 1462
4 2777 2276 2541 2778
4 2282 2289 4425 2288
4 3871 3873 4919 3876
4 2276 2773 2776 2252
4 4920 1494 1485 1486
4 4921 3095 3004 3007
4 2776 4915 4589 2875
4 2779 2870 2776 2875
4 3576 3574 3575 4922
4 4923 498 507 506
4 3190 3733 3195 4924
4 3190 2660 2286 4924
4 3150 528 94 95
4 4876 935 926 927
4 3190 2661 2660 3191
4 2730 4925 4926 3363
4 3118 521 513 522
4 2692 4581 2661 3192
4 4812 4859 4842 933
4 4813 934 925 926
4 2662 4927 2661 2667
4 4928 935 944 943
4 3012 3702 3226 4929
4 4812 925 934 933
4 3002 3036 3012 2415
4 2687 3526 3036 3936
4 2394 3601 2395 3259
4 2402 2684 2686 3666
4 4860 952 951 943
4 4859 942 933 934
4 3012 3708 3936 3036
4 541 4930 540 549
4 2415 3012 2687 3036
4 4931 4932 524 515
4 4527 4387 4530 4529
4 4812 933 4842 924
4 4388 2788 4384 4387
4 3270 3647 3668 4866
4 4387 3519 3311 3312
4 4387 3312 4530 4386
4 2714 3058 2718 2715
4 2717 2570 2475 2716
4 501 510 2281 97
4 2570 2579 2757 4777
4 2574 3057 2317 2578
4 4933 1480 1479 1471
4 2909 3285 3287 3019
4 2909 2652 2795 2408
4 4934 1478 4935 1487
4 4362 502 511 510
4 2909 2795 3285 2408
4 2904 2654 2516 2906
4 2792 2656 2793 2657
4 4108 1458 1450 1459
4 3118 512 513 521
4 2651 2792 2655 2795
4 3632 504 513 512
4 4936 944 935 936
4 3100 2490 2976 2977
4 3049 2796 3285 2795
4 2526 2655 2796 3100
4 2526 2515 3045 2527
4 2907 3048 2527 3572
4 4937 506 514 505
4 2795 2794 2983 2410
4 4312 3211 4938 3172
4 4312 3875 2633 3172
4 4907 516 508 517
4 4312 3875 3172 4939
4 4312 4903 4311 3162
4 2944 3774 3582 3245
4 4937 514 506 515
4 4940 4252 4251 4243
4 3240 3242 4941 3243
4 4932 515 516 524
4 3930 524 3707 533
4 2809 3246 2807 2934
4 3240 3582 2944 3246
4 4823 509 517 508
4 3930 524 532 523
4 4115 1469 1477 1468
4 4942 4943 4944 970
4 2835 3171 2808 2633
4 3270 4866 4867 3271
4 3719 3241 3242 3718
4 4904 972 963 964
4 4822 4909 43 518
4 4945 4946 994 1003
4 3240 3242 3241 4947
4 3241 4948 3242 3243
4 3241 4947 3242 3718
4 2509 3989 3991 4949
4 2512 2494 2506 2509
4 2385 2677 2496 2699
4 2760 2757 3328 3382
4 2500 2494 2496 2866
4 2756 2757 3382 2501
4 2676 4023 2679 2678
4 2375 2411 2382 2383
4 3117 511 512 520
4 3778 3781 4950 3777
4 3778 3777 4950 4059
4 1490 96 4882 3149
4 3086 4059 2625 3778
4 4951 520 519 511
4 4952 238 2021 239
4 3370 3684 3740 3369
4 4953 531 530 522
4 4954 4241 3780 4252
4 4362 510 501 502
4 2406 2767 2768 3370
4 4941 514 522 513
4 4953 522 530 521
4 2766 4062 4955 2412
4 4931 515 523 514
4 4956 528 520 529
4 2766 4957 2903 2803
4 3116 530 529 521
4 2767 2766 2803 2801
4 4943 969 4944 970
4 4958 954 963 962
4 4959 523 531 522
4 4960 1544 4046 1543
4 4961 952 953 961
4 3097 3119 3099 4811
4 2769 2800 2802 3763
4 4962 44 45 536
4 2767 3610 2769 2802
4 2766 2412 4955 2801
4 2771 2766 2412 2413
4 4963 532 533 541
4 4964 534 542 533
4 2373 2807 2809 2528
4 2373 2807 2810 2809
4 4177 525 517 526
4 3211 4308 4938 3929
4 4822 527 43 44
4 4309 4938 3211 4308
4 4309 3211 4312 3162
4 3375 3377 4965 2487
4 4309 3509 4313 4307
4 4309 3509 3162 4313
4 4177 4178 526 517
4 2810 3509 4313 3162
4 2809 3509 3719 3932
4 4966 580 571 572
4 3149 4951 519 4882
4 4967 1515 1507 1516
4 3477 2347 3479 3481
4 2298 2387 2637 2296
4 2295 2806 2390 3581
4 3582 3629 3581 2935
4 4120 93 92 1526
4 2944 3582 2806 2807
4 2944 2528 2806 2530
4 4968 1506 1497 1498
4 2386 2737 2615 3622
4 2386 2222 2737 3622
4 4362 3633 511 502
4 4828 4969 1421 1430
4 3274 2617 2301 2616
4 3274 3367 3217 2617
4 2730 2735 4970 2620
4 3088 4971 1531 1530
4 4972 2736 3366 2729
4 4973 1510 4974 1511
4 2386 3269 2737 2222
4 2730 2735 2734 4926
4 2729 2730 3364 2728
4 4227 538 547 546
4 3364 3367 2616 2728
4 4975 538 530 539
4 3242 4976 4931 4941
4 3707 525 533 524
4 2888 2897 2873 2804
4 4977 535 534 526
4 2430 3218 2543 3216
4 4944 4824 961 960
4 2873 3386 2888 2889
4 4960 4770 2869 1535
4 4943 978 969 970
4 4978 543 535 544
4 4171 527 535 526
4 2492 2271 2488 2805
4 3899 2267 2269 3096
4 3899 3082 3567 2448
4 4822 4962 4944 4178
4 2325 2440 2330 3174
4 4190 574 566 575
4 3377 3484 3099 2742
4 4963 541 533 542
4 2792 2793 2799 2794
4 2484 2492 2422 2267
4 2484 2490 2489 2486
4 4227 3150 528 537
4 4979 962 971 970
4 2975 2489 2980 2488
4 3100 2490 3048 2976
4 4980 969 978 46
4 4981 4982 4983 4978
4 2526 2490 2422 2485
4 2492 2272 2441 2450
4 2492 2490 2422 2798
4 3623 4984 3626 2621
4 2701 2867 2377 3225
4 4985 3134 3535 4986
4 546 1517 537 93
4 2713 3607 3667 2703
4 4227 529 538 537
4 4987 531 539 530
4 3814 4164 4988 4165
4 3522 541 550 549
4 3647 3272 3270 2743
4 3746 2932 3749 2625
4 4009 3748 2784 2750
4 3839 557 548 549
4 2932 2748 2750 2749
4 4930 532 540 531
4 2474 2702 2760 2473
4 3382 3384 2866 2501
4 2760 3382 2756 2757
4 2469 2697 3056 3482
4 4989 1965 1974 1973
4 3284 2196 3221 3051
4 2757 3328 3382 4990
4 3521 542 551 550
4 4991 971 962 963
4 2757 4992 4990 3382
4 550 541 3522 3521
4 4771 565 564 556
4 2757 2501 4795 4992
4 4993 542 543 551
4 2474 2579 2473 3328
4 2747 2980 2744 2488
4 4942 971 979 970
4 551 3521 550 559
4 3297 2976 3296 2975
4 3623 2805 2980 2745
4 2975 2489 3296 2980
4 2431 3042 2594 3043
4 3075 3077 2439 3291
4 4981 536 544 535
4 4994 560 551 552
4 4327 4995 3084 3083
4 3043 4327 4995 3076
4 4327 3079 2310 2312
4 2310 4327 4995 3043
4 4996 980 989 988
4 4980 45 545 536
4 3875 2633 3172 3496
4 3875 4939 3520 3172
4 3875 4997 4939 4344
4 93 537 94 1517
4 4903 3875 3876 3902
4 4770 91 92 555
4 3875 4344 3876 4998
4 3875 3496 3362 3902
4 4999 610 609 601
4 3902 4903 4906 3876
4 4199 5000 4271 3087
4 3087 3089 4199 4767
4 3085 3087 2238 3749
4 4120 92 93 546
4 3087 4271 3088 2238
4 4769 1525 4120 1526
4 2534 2536 2290 2537
4 2291 540 548 539
4 5001 547 539 548
4 5002 5003 5004 4233
4 3247 2691 2667 2538
4 2692 2691 2666 2667
4 5001 2291 548 539
4 2534 2843 2535 2844
4 3198 5005 5006 3196
4 5007 556 548 557
4 2534 2843 2536 2535
4 5008 1495 1486 1487
4 2534 2843 2844 2846
4 2286 3733 4924 3913
4 5009 544 552 543
4 5010 1007 5011 1008
4 2689 2248 3445 3447
4 3148 3073 3769 3671
4 3761 2662 2661 2659
4 4982 545 553 544
4 2235 2284 2289 2283
4 5012 46 554 545
4 5013 567 558 559
4 2665 2289 2663 3759
4 4998 4345 981 5014
4 2282 2290 2251 2537
4 4994 560 552 561
4 4113 5015 996 987
4 2282 2283 2287 2289
4 2282 2537 4425 2290
4 3426 3758 3755 3753
4 4163 569 568 560
4 3422 4003 4005 5016
4 5017 572 571 563
4 3422 3756 3138 4003
4 3422 4005 4323 5016
4 5018 3479 5019 3819
4 3420 3711 3753 3712
4 3422 3712 4323 3421
4 2250 2969 2915 2914
4 2279 5020 2870 2871
4 3618 2915 2924 2772
4 2779 2776 2870 2782
4 5021 2092 5022 2101
4 3111 3113 5023 3112
4 4904 4991 963 972
4 3839 549 558 557
4 5007 548 556 547
4 2414 2419 2972 2417
4 4157 3404 4174 4794
4 5024 4550 4549 1319
4 3522 558 549 550
4 4470 5025 5026 4422
4 4261 557 566 565
4 5027 991 1000 999
4 2318 2418 2414 2567
4 2418 2318 2414 2425
4 3442 3527 3526 3939
4 4920 1494 1486 1495
4 4163 560 568 559
4 2318 3041 2428 2425
4 2414 2315 2318 2567
4 3742 3741 3398 3943
4 3945 3742 4431 3741
4 3227 5028 3742 4929
4 3399 3742 4365 3703
4 4365 3703 5029 3399
4 5030 4942 4943 4944
4 4996 5014 989 980
4 4365 3742 5028 4929
4 3742 3399 4365 5031
4 2690 3410 3411 3409
4 5032 562 570 561
4 2248 2804 2249 3445
4 4958 962 4961 953
4 2248 2689 2696 3368
4 2696 2693 2549 3068
4 2779 2877 2876 2875
4 2691 2690 3248 3250
4 5033 561 553 562
4 3409 3411 2690 3412
4 2397 2304 2587 2643
4 3204 571 579 570
4 2640 2650 4078 2647
4 5034 5035 50 581
4 5036 5037 5038 5011
4 5039 562 554 563
4 2640 2650 3451 3026
4 2401 3021 2587 2586
4 3021 3183 3451 3178
4 4470 5040 649 5025
4 4770 92 91 1535
4 2849 574 583 582
4 3054 3788 3372 3026
4 2317 3000 3767 2316
4 641 5041 650 5026
4 2640 3451 3788 3026
4 2994 4834 4134 4552
4 3464 5042 5043 3005
4 2849 574 582 573
4 4375 3464 3004 3465
4 4375 4379 4377 4378
4 5044 558 566 557
4 4375 3004 3946 3093
4 5013 559 568 567
4 5045 4307 5046 4907
4 3464 3462 4379 4378
4 2443 2668 2671 2669
4 3464 4378 5043 5047
4 5048 567 568 576
4 3463 4093 3461 4095
4 4168 561 569 560
4 3532 576 577 585
4 5036 1006 997 998
4 2995 3816 3817 4834
4 3189 3461 5042 3188
4 5042 3189 3462 3461
4 3060 2995 3817 3547
4 2323 2326 2331 2324
4 5017 563 571 562
4 2325 3374 2326 2324
4 3174 3560 3935 3927
4 5049 1016 1015 1007
4 3174 3935 2321 3927
4 2574 2575 2306 2473
4 5050 48 572 563
4 2640 3026 3788 5051
4 2397 2304 2643 3041
4 3196 579 587 578
4 5052 5053 4966 5054
4 5035 49 50 581
4 3425 3423 2648 3138
4 3423 2648 2649 2646
4 2641 2647 2649 2646
4 2366 2364 2361 2368
4 3228 3232 3800 2363
4 2938 2945 2939 2941
4 3204 579 571 580
4 3964 5055 2827 3549
4 2842 2938 2531 2528
4 2833 3475 2832 3092
4 3963 3968 3964 5055
4 2839 3800 3457 3229
4 4959 4953 531 4987
4 5022 4349 5056 2093
4 5057 1584 1585 1593
4 2578 2579 3768 4409
4 4190 566 574 565
4 2335 2751 2785 2783
4 2205 2603 2337 2599
4 5058 1515 1523 1514
4 5059 567 575 566
4 2858 574 573 565
4 4358 1648 1657 1656
4 2791 2705 2785 3175
4 2474 2757 2570 2579
4 2586 3176 2698 2576
4 2575 2586 3023 2698
4 3020 3022 2682 3023
4 4189 574 575 583
4 5060 1542 1551 1550
4 3022 3031 2682 3373
4 3660 584 585 593
4 2781 3543 2772 3541
4 5061 5046 4907 4823
4 3541 2763 2274 2288
4 2968 2763 2275 3235
4 2273 2275 2968 2763
4 3206 578 570 579
4 2232 2589 2763 2965
4 2274 2537 2288 2282
4 5062 5063 4182 5064
4 2968 3164 4050 2917
4 5034 50 51 590
4 5065 4755 5066 3409
4 4966 580 572 581
4 3409 3445 4072 3449
4 5067 579 580 588
4 3449 3409 5068 5066
4 3449 3446 4359 5068
4 5035 581 572 49
4 3449 4755 5066 1190
4 5006 588 596 587
4 3449 4755 1190 1199
4 2812 3144 4002 3142
4 5069 997 1005 996
4 3573 2598 2600 2608
4 2598 2600 2608 2603
4 2842 2938 2836 2531
4 2338 2960 3980 2962
4 2607 3207 3201 2608
4 2337 2339 2712 2600
4 2703 5070 2784 3667
4 5071 680 671 60
4 2708 2751 2931 2750
4 5072 1060 5073 1069
4 2195 2571 2194 4465
4 2604 2708 2748 2606
4 2604 2337 2708 2606
4 4525 4722 4605 4603
4 5074 113 4525 1337
4 2868 89 573 582
4 3748 2784 2750 2751
4 3479 3574 5075 5076
4 2750 2784 2710 2751
4 4199 1538 1530 1539
4 2784 2785 2703 2751
4 2703 3667 2784 3607
4 2707 2751 2750 2710
4 4971 1530 1522 1531
4 3531 576 584 575
4 2703 2706 2705 2785
4 4350 584 592 583
4 2204 2262 2821 3495
4 4189 583 575 584
4 5077 1054 1053 1045
4 5078 5079 624 625
4 2708 2750 2931 2748
4 2598 3573 2595 2610
4 2604 2599 2206 2336
4 2605 2622 2345 3034
4 5080 603 594 595
4 2596 2625 2618 2619
4 3196 587 579 588
4 5081 581 589 580
4 3532 594 585 586
4 3150 5082 5083 1508
4 2605 3032 3034 3033
4 2353 2606 3528 3533
4 5084 586 587 595
4 5085 619 618 610
4 5035 5050 49 572
4 2707 2708 2748 2750
4 5086 596 604 595
4 5087 1548 1557 1556
4 3239 5088 3862 5089
4 2595 2597 2601 2609
4 3748 2812 3141 2783
4 3950 597 605 596
4 2791 2785 2705 2706
4 2603 3201 2600 2608
4 5081 589 581 590
4 5090 1035 1026 1027
4 2742 2269 3346 3265
4 2742 3270 3668 3097
4 3377 2742 3270 2487
4 3375 3377 3484 3378
4 3377 3270 3097 4811
4 5091 1533 1542 1541
4 3377 3099 3484 3378
4 5092 606 598 607
4 2742 3099 3377 3097
4 5085 610 618 609
4 2790 3175 2460 2954
4 2791 2706 3345 3337
4 4525 112 113 366
4 2462 3303 2791 2732
4 2460 3337 2954 2785
4 5093 5094 5095 5096
4 2462 3308 3303 2732
4 2791 2451 2460 3337
4 3234 3236 2588 3886
4 2796 3209 3100 3285
4 5048 576 568 577
4 3332 2188 2179 2180
4 5097 621 630 629
4 5098 1555 3648 1554
4 2658 2656 3187 3991
4 2651 2795 2413 2794
4 2406 3370 2360 2769
4 2799 3288 3292 3290
4 2771 2410 2412 2329
4 4187 594 603 602
4 5092 2963 3197 3950
4 2771 2410 2413 2412
4 2327 2434 2794 2326
4 5005 589 597 588
4 4950 5099 5100 5101
4 2654 2906 2904 2908
4 5063 590 598 589
4 5062 51 599 590
4 3075 3078 3291 3079
4 2328 2770 3110 2800
4 5102 5103 5104 568
4 2450 2449 2438 2434
4 4986 605 606 614
4 5078 625 624 616
4 2323 2322 2333 2321
4 3497 2626 3499 3500
4 4187 593 4152 3660
4 2792 2796 2795 2794
4 2359 2413 2770 2657
4 2434 2429 2433 2438
4 5105 4358 1647 1648
4 2770 2657 2794 2793
4 3541 3235 2763 3114
4 3660 4187 593 594
4 4182 52 53 608
4 5106 1024 1032 1023
4 3541 3543 3618 3235
4 3798 3890 5107 5108
4 2273 2968 3164 2965
4 3165 3170 4766 2955
4 2273 2763 2274 2275
4 2968 2969 2915 2275
4 2627 2476 2958 2207
4 2630 4000 4701 3515
4 2630 4000 3519 4701
4 2631 3519 2628 2630
4 2573 2571 2572 4503
4 5109 2156 4851 2147
4 5109 4851 4870 5110
4 591 2255 2505 88
4 5111 1617 5109 224
4 2231 3151 2244 2243
4 2910 3312 2630 4464
4 2467 2233 2910 2629
4 3147 5112 5113 5114
4 3890 3512 5115 3973
4 3198 5067 5005 3196
4 3391 3511 3390 3512
4 2631 2910 2233 3152
4 4152 601 592 593
4 5116 5117 5118 5119
4 5120 992 993 1001
4 5119 5121 3940 5122
4 3890 3512 5107 5115
4 3531 575 5059 576
4 3512 4301 3973 3513
4 5119 5123 5118 5124
4 5022 2092 2093 2101
4 5119 3711 3940 3710
4 5119 3758 3940 3711
4 5086 605 604 596
4 3309 605 614 613
4 3134 3302 2557 3308
4 3950 605 597 606
4 3336 2457 2988 3340
4 2457 2988 3340 2593
4 2460 2954 3337 2951
4 5087 1548 1556 1547
4 2334 2556 3175 2339
4 2233 2674 3676 2466
4 2457 2593 2453 2988
4 2563 2559 3995 3837
4 2563 3675 3995 2559
4 3137 3730 3135 4506
4 3137 3535 3836 3135
4 5067 5005 588 589
4 4607 4023 5125 2683
4 4607 2678 5126 3847
4 4985 614 615 623
4 3847 4607 3844 4614
4 4687 623 631 622
4 4607 2678 2683 5126
4 5127 607 599 608
4 3844 4610 4612 4607
4 4056 2170 2171 2179
4 5128 4050 2917 5129
4 5129 5130 5131 5132
4 5129 4048 4050 2917
4 5109 2156 224 223
4 5129 5133 2927 4798
4 5134 1437 5135 244
4 5135 1976 244 243
4 4999 609 600 601
4 5129 5133 5131 2916
4 5129 2917 2927 2916
4 5136 611 620 619
4 4999 5137 600 609
4 5129 2917 5128 4798
4 2860 2391 3884 3215
4 2853 2850 2854 3121
4 3228 2632 3231 3356
4 4687 3307 622 3306
4 5060 1542 1550 1541
4 4167 610 602 611
4 2861 4738 3264 2850
4 4908 603 611 602
4 3304 604 612 603
4 3797 3617 2221 3925
4 3153 2181 2190 2189
4 4348 611 612 620
4 5138 2073 2082 2081
4 3130 5139 1568 1569
4 3512 5115 3973 4301
4 5140 1606 1615 1614
4 4895 2511 5141 5142
4 2981 5143 2990 2987
4 5144 607 615 606
4 4680 2511 5141 4895
4 3859 4826 4825 3863
4 2511 5145 5142 2512
4 2510 2511 4743 2508
4 2511 5145 2512 2499
4 5146 53 617 608
4 5147 608 616 607
4 2511 2512 5142 4895
4 4743 3990 2511 4895
4 5148 1042 1033 1034
4 3383 2190 2199 2198
4 2511 2508 2512 3990
4 5149 54 55 626
4 3230 5150 3125 3126
4 3126 3230 5150 3550
4 3126 5150 3125 5151
4 3126 5152 5150 5151
4 2362 2854 2853 2850
4 2853 4335 3125 3133
4 2853 4335 5152 3126
4 5153 623 624 632
4 3451 3178 3372 3021
4 5154 626 625 617
4 3451 3021 2587 2401
4 2304 2305 2303 2643
4 5113 1588 1579 1580
4 5155 674 665 666
4 3176 2586 3021 3177
4 3274 3364 3367 2616
4 2616 2617 3367 3274
4 5156 2071 2079 2070
4 5157 85 5158 1589
4 2431 2439 2429 2432
4 5159 628 619 620
4 5136 619 610 611
4 3267 3082 3899 3347
4 3557 3217 3367 3063
4 3367 2617 3018 4331
4 4887 1566 1558 1567
4 4888 1566 1574 1565
4 3306 613 621 612
4 3512 3505 5107 5115
4 2964 4205 2126 5160
4 2338 3980 2556 2339
4 2237 1557 1548 1549
4 5097 621 629 620
4 2818 2855 2559 5161
4 5078 616 624 615
4 3306 621 622 630
4 2818 5161 4670 2855
4 2818 4670 5162 3157
4 2618 2262 4053 4002
4 5163 1051 1050 1042
4 3746 2618 4053 4002
4 3307 622 614 623
4 3815 3229 3921 3357
4 3815 3924 3812 5164
4 5149 1050 1059 55
4 3851 2525 2523 5165
4 4082 3815 4091 5166
4 5166 3815 3812 5164
4 2380 2471 2376 4029
4 2697 3028 5167 4025
4 5168 5169 3127 5021
4 2244 2764 3979 4394
4 2676 2697 2680 2471
4 2697 5167 3028 3056
4 5170 633 641 632
4 5171 1592 1591 1583
4 5149 626 617 54
4 2682 2681 3181 3373
4 3111 5023 4470 4422
4 5040 3113 5172 5023
4 2590 3111 3583 2242
4 5153 632 624 633
4 5173 3113 5172 5040
4 5174 5175 5176 1384
4 5177 250 1922 1913
4 3111 2242 5178 3583
4 3111 5173 3887 5178
4 5177 249 250 1383
4 3888 4478 3912 3889
4 3130 1551 1560 1559
4 2403 3259 3889 3911
4 2971 2401 3468 2400
4 5179 627 618 619
4 83 5180 636 627
4 3453 3912 4037 3454
4 2971 3599 3468 3456
4 2346 2352 3573 2351
4 5181 628 637 636
4 2294 2351 2292 3478
4 5182 5180 83 1607
4 5183 646 654 645
4 2605 3033 2749 3032
4 3688 3277 3293 5184
4 3687 3688 5185 3685
4 3680 3277 3611 2901
4 3611 3277 3688 5185
4 5186 647 655 646
4 3680 3277 2901 3278
4 5187 1587 1596 1595
4 5026 642 650 641
4 5188 626 634 625
4 3688 5185 3277 5184
4 4687 631 623 632
4 3688 5185 5189 3687
4 2444 2445 2898 3882
4 2444 2888 2889 2898
4 2444 5190 4357 5191
4 2890 55 635 626
4 2444 3882 2889 5190
4 2444 4357 2888 2442
4 5192 1080 1079 1071
4 5170 641 633 642
4 3294 3298 3300 3299
4 5193 58 653 57
4 2305 3334 2308 2303
4 3041 2643 2646 4410
4 2305 3333 4716 2721
4 2305 2643 3041 4410
4 2663 2662 2878 3761
4 5194 643 635 644
4 2665 5195 2663 2878
4 2664 5196 4425 4394
4 2664 2879 2880 5197
4 5198 56 57 644
4 2665 2664 4394 5197
4 3678 5199 117 330
4 3761 2663 2662 2659
4 5200 5201 4336 5202
4 3678 117 5199 1301
4 2786 4155 4727 4156
4 2412 4740 2801 2329
4 5201 2329 2320 2801
4 5156 2080 2079 2071
4 5201 4955 5200 4336
4 5201 4955 2801 5200
4 5139 1569 1577 1568
4 5181 636 627 628
4 5203 1090 1081 1082
4 2476 2207 2217 3602
4 5204 628 629 637
4 2964 4000 4701 5160
4 5205 1588 1597 1596
4 5206 4200 5207 4701
4 4000 2964 5208 5209
4 4284 638 629 630
4 3515 4000 4701 2964
4 5210 4422 5196 5211
4 5041 632 640 631
4 2630 3515 4701 3519
4 4000 5206 3519 4701
4 5057 1594 1593 1585
4 2090 2099 2091 5212
4 2585 2584 5213 5214
4 5215 5216 2055 2064
4 5217 648 656 647
4 2580 2582 3170 3164
4 5041 641 640 632
4 2580 2585 4764 3170
4 5072 1060 1068 1059
4 5218 642 634 643
4 5025 650 658 649
4 2583 5219 4766 2957
4 2580 2583 2581 2479
4 5220 2584 5213 2585
4 2585 5221 5220 4764
4 2585 3170 4050 4764
4 2893 2960 2966 2911
4 5198 644 635 56
4 2960 2895 2911 2893
4 2563 2559 3837 2560
4 5114 1579 1588 1587
4 5222 2572 3900 3419
4 2895 2960 3837 2559
4 2559 3837 2560 2960
4 2911 3203 2963 2960
4 2788 4703 5223 4393
4 5224 5225 1122 1113
4 5149 2890 5154 626
4 3203 2966 2960 2911
4 2560 2960 2818 2559
4 3131 3667 3345 2713
4 3146 3345 2704 2713
4 5226 672 681 78
4 4438 5227 5228 3239
4 2280 2281 4366 1472
4 2280 5229 1463 1472
4 3146 3534 4350 2713
4 4423 3731 4469 5170
4 2713 2848 3534 2828
4 2709 2848 2713 3607
4 2713 3131 3145 3146
4 3626 3623 2745 3256
4 2492 2805 2490 2798
4 2975 2979 2978 3297
4 5230 638 646 637
4 2978 2980 3297 3624
4 5231 1596 1605 1604
4 5173 639 647 638
4 5089 2105 2096 2097
4 2461 2557 2556 2560
4 2271 3256 2270 2745
4 5040 640 648 639
4 5021 5022 5232 2101
4 3623 2621 2745 4577
4 3168 3169 3374 2978
4 5233 1612 1603 1604
4 5223 5234 5207 4202
4 5235 1081 1080 1072
4 2978 2977 3168 2979
4 4385 2786 2788 4390
4 5040 648 640 649
4 2534 2844 2535 2541
4 5172 648 649 657
4 5236 643 651 642
4 2804 2249 2876 2779
4 5237 5238 670 671
4 2776 2780 4915 2782
4 5239 650 651 659
4 2780 5240 5241 4274
4 2780 2778 4292 5242
4 2773 2781 2780 5241
4 5243 644 652 643
4 2780 2778 5242 2781
4 4274 2780 2781 5241
4 5240 2780 2782 5244
4 2243 4423 4470 3731
4 5025 658 650 659
4 5193 57 653 644
4 3096 3098 3406 3099
4 5211 660 668 659
4 3320 2423 3322 3321
4 5245 653 662 661
4 3123 3404 4462 3406
4 5246 1078 1069 1070
4 2446 3321 3320 3322
4 5247 58 59 662
4 3320 3082 3096 2448
4 5248 660 652 661
4 3918 3800 3230 3229
4 3230 3921 3356 5150
4 5249 205 1232 1233
4 3228 2634 3230 3231
4 3918 3919 2852 3925
4 2692 3250 2691 2667
4 2696 3068 3853 3448
4 4747 429 4748 106
4 3028 5250 5125 5251
4 5252 1602 1594 1603
4 4852 73 74 709
4 5253 656 665 664
4 5207 2124 2123 2115
4 5251 5250 5125 4725
4 4591 2693 3074 3068
4 2672 2882 2538 3654
4 3253 2883 2538 3247
4 2534 2540 2539 2844
4 2662 2666 2661 2287
4 5254 665 657 666
4 1562 2256 2257 2255
4 5255 1083 5256 1084
4 2538 3253 2539 2540
4 5257 3652 1555 3648
4 2672 2538 2881 3654
4 2538 2290 2881 2540
4 5258 658 666 657
4 5172 657 649 658
4 5119 5117 3758 5116
4 5239 651 660 659
4 3940 3709 3711 3758
4 3940 5259 3944 5260
4 3940 5121 3944 5122
4 5210 658 659 667
4 3113 3111 5040 5173
4 3028 5250 5261 5167
4 4391 5184 5262 5263
4 3028 5261 5250 5251
4 5248 660 651 652
4 4025 4024 5264 4029
4 5265 660 661 669
4 4088 5266 4027 5263
4 5263 4027 4089 4391
4 5263 5267 3544 3553
4 5263 3544 5268 3909
4 3765 3926 4640 3076
4 5269 670 678 669
4 3075 3291 3043 3079
4 2358 3084 3109 4142
4 2439 2433 3081 3076
4 5270 5271 1217 1226
4 3078 3075 2354 3080
4 5072 5073 5246 1069
4 5193 5198 5272 1077
4 5273 3740 2901 3684
4 5273 5274 3740 3684
4 4748 106 1409 1400
4 4748 105 106 429
4 5273 2862 3740 3736
4 5273 3740 2862 2901
4 5273 3681 3278 3682
4 5275 663 654 655
4 5275 663 655 664
4 2410 4491 4062 2412
4 2767 2802 2769 2800
4 5139 1569 1578 1577
4 4275 1652 1651 1643
4 5253 664 655 656
4 5276 664 673 672
4 2797 2798 2490 2977
4 5277 1161 1162 1171
4 2795 2410 3285 2408
4 2326 2983 2797 2794
4 5105 1648 1647 1639
4 5254 665 656 657
4 5278 665 674 673
4 5276 672 663 664
4 2349 3475 3481 3172
4 4256 5279 5280 4257
4 3477 3478 4126 2352
4 3193 1109 1117 1108
4 2344 2352 2351 3478
4 4126 3210 3931 3805
4 3477 3805 2349 3210
4 3891 2293 3803 3892
4 5281 5224 62 689
4 5224 61 689 680
4 5211 668 660 669
4 5282 5283 1126 1135
4 3723 2348 3803 3804
4 5237 662 670 661
4 2344 3477 2346 2352
4 3805 3931 3804 3718
4 5284 1140 1131 1132
4 2453 2451 2988 2951
4 2988 3337 3338 2952
4 5285 59 671 662
4 2988 3340 2989 3339
4 2453 2593 2463 2987
4 2988 3337 2952 2951
4 2810 3211 3509 3162
4 3228 2852 3800 3230
4 5071 60 61 680
4 3228 3800 2839 3229
4 3228 3229 3230 3800
4 4313 2369 3643 3318
4 2363 3925 3617 3800
4 2634 3163 3231 2633
4 2634 3125 3231 3163
4 3895 4551 5286 4538
4 3895 4324 4606 3589
4 3589 3895 2718 5287
4 5288 684 5289 675
4 3057 3589 2998 3767
4 4777 5290 5291 5286
4 5286 5290 5291 4551
4 4025 4024 5292 5264
4 3327 4777 5286 3326
4 4111 5226 78 1652
4 3895 5286 4352 4624
4 5278 673 664 665
4 4624 3895 4538 5293
4 4025 5292 5294 5266
4 4105 682 690 681
4 5295 675 666 667
4 3895 4352 5287 5293
4 5269 4161 5296 678
4 4021 1144 1135 5282
4 2362 2861 2221 2850
4 3217 2617 3367 3063
4 5297 2140 2131 2132
4 5296 669 677 668
4 5298 5250 4025 4333
4 3062 3465 3063 3004
4 5295 675 667 676
4 5250 5294 4025 4333
4 4781 1197 1206 1196
4 3790 3347 3348 3346
4 5244 1651 1660 1659
4 3416 3418 1200 3720
4 712 5280 5299 704
4 5172 5217 5300 648
4 3347 3885 5301 3348
4 3347 3885 4174 5301
4 3267 3275 2265 3567
4 5269 678 670 679
4 3267 3346 2269 3265
4 3096 3346 3347 3098
4 5302 5303 5304 1762
4 5272 1087 1086 1078
4 3347 4174 3885 3082
4 2359 3075 3081 2358
4 2928 3077 2799 2438
4 2485 3048 2486 5305
4 2975 2490 2977 2976
4 5306 688 696 687
4 5238 679 671 680
4 2489 3048 2490 2976
4 2484 2493 2422 2485
4 5307 1096 5308 1105
4 5308 1106 1105 1097
4 5309 5237 5265 5248
4 2491 2493 3484 2267
4 2526 2485 2527 3048
4 3712 5310 4323 5311
4 3153 3332 4056 2180
4 5312 5313 4744 2310
4 5314 1224 1223 1214
4 5312 4705 2312 2310
4 5109 1617 1626 223
4 225 2138 5315 226
4 5312 3833 3083 2312
4 4106 673 681 672
4 5111 224 225 1608
4 5312 3833 2312 4705
4 5316 674 682 673
4 5020 1648 1639 1640
4 3823 3324 2502 3009
4 2503 3823 5317 4433
4 3010 3823 5318 3009
4 4432 4433 5319 5317
4 3823 5317 4432 5318
4 5320 1615 1624 1623
4 2368 2363 2364 2361
4 5316 682 674 683
4 3797 3925 4262 3593
4 3246 3582 2944 2807
4 3232 3592 3800 3489
4 2368 2634 2367 2365
4 3489 3617 2220 3593
4 2298 2223 2301 2220
4 3925 3617 3489 3593
4 3800 3617 3489 3925
4 5289 683 675 684
4 5254 5217 657 656
4 5065 5066 1190 1181
4 5295 5321 5322 667
4 2997 2996 5323 3596
4 2997 3589 2996 3596
4 4161 679 687 678
4 2997 3594 5323 2999
4 5324 5302 5325 725
4 3595 3594 3598 4483
4 5225 1113 1104 1105
4 5326 680 688 679
4 3712 5124 5327 5310
4 3655 4127 4203 685
4 5328 1116 1115 1107
4 5329 1107 1106 1098
4 3595 3596 4526 4531
4 3595 3589 5330 3590
4 4036 3332 3221 2188
4 3595 3596 4531 5330
4 5331 689 698 697
4 2308 2307 2719 2724
4 2717 2716 2719 3059
4 5308 1105 1096 1097
4 2720 2715 3059 3818
4 2564 2566 2313 2315
4 5281 62 63 698
4 2313 3060 4133 2995
4 3349 3818 3060 3059
4 3060 2568 3547 3352
4 3060 4133 2995 3547
4 4077 707 715 706
4 3493 3810 5332 3586
4 3493 5332 3492 3571
4 3492 2529 3459 3335
4 4914 690 699 76
4 3981 3586 3587 3493
4 5333 1634 1643 1642
4 5334 3981 3586 3587
4 3982 3981 3587 3459
4 5335 693 692 684
4 5336 207 1679 208
4 3389 3470 3397 3394
4 4111 690 77 681
4 4855 75 1679 76
4 3710 5337 5123 5124
4 2237 2784 2239 4009
4 3620 1631 1630 1622
4 2755 2750 2784 2710
4 2428 2425 4410 2972
4 3486 4258 5338 4256
4 4913 699 690 691
4 5226 4106 681 672
4 2972 2425 4410 2419
4 2100 2109 3127 2108
4 2419 2972 5339 4410
4 2419 2425 4410 4716
4 2420 2419 3750 2418
4 2419 3324 5340 5341
4 5342 694 702 693
4 5343 1179 3745 1188
4 3712 5124 5310 5337
4 2881 5322 5344 5321
4 2414 2972 2419 2425
4 3493 3459 3490 3587
4 3493 3571 3586 5332
4 5332 3571 5345 5346
4 5302 1761 5303 1762
4 3394 3703 3391 3439
4 2636 3493 3490 3810
4 5332 2639 5347 3810
4 2636 2639 5332 3810
4 5306 696 688 697
4 5348 5272 5349 1087
4 5332 5346 5347 3807
4 5350 696 697 705
4 5332 5345 3571 3586
4 4841 2502 5340 3324
4 3823 2503 2502 5341
4 3001 3823 3324 5341
4 5281 698 689 62
4 3001 3324 3009 2417
4 5351 697 698 706
4 3823 3324 5341 2502
4 3003 2417 3009 4841
4 2417 3009 4841 3324
4 2896 2897 5352 5270
4 5341 3823 4433 3001
4 3411 3409 5068 3412
4 3413 3414 3412 3704
4 5353 698 63 707
4 3413 3411 3248 4022
4 3411 3725 3744 4022
4 3411 3743 3745 3410
4 3411 3409 5066 5068
4 5354 2084 2075 232
4 3411 3409 5065 5066
4 5355 5356 1657 1658
4 3199 3201 3207 3202
4 3201 2600 5357 2752
4 3201 5358 2752 3200
4 3201 2962 2752 5358
4 5359 1222 1223 1232
4 3201 3202 2608 3207
4 5356 1667 1666 1658
4 5360 1650 1649 1641
4 3837 2911 2913 2912
4 3470 3473 5361 5337
4 5362 692 701 700
4 2895 3837 2913 3995
4 5363 709 700 701
4 3284 1193 1192 1183
4 3995 5364 3994 3993
4 3995 3996 5364 2913
4 3995 4502 3674 3994
4 5362 700 691 692
4 5365 3527 5366 4836
4 5367 701 693 702
4 5368 701 702 710
4 3995 2559 3675 3996
4 2563 3674 3995 3675
4 3837 2559 3995 2895
4 3783 5369 1203 1194
4 3662 3590 5370 3259
4 5371 704 696 705
4 5279 1186 1195 1185
4 5343 1188 1187 1178
4 3588 3526 3037 2992
4 2394 2684 2685 2687
4 5299 714 713 705
4 5369 1204 1203 1194
4 2688 3601 3662 3938
4 3662 4034 3524 3938
4 2698 2702 2699 2680
4 2383 3848 3673 3847
4 5372 1176 5373 714
4 2494 2381 2507 2495
4 3783 1194 1203 70
4 5350 705 697 706
4 2496 3699 3700 4207
4 5351 706 698 707
4 2381 2385 2496 2866
4 2494 2500 2496 2497
4 5374 3783 5369 1203
4 5299 713 704 705
4 2381 2382 2507 2495
4 2496 4207 2677 3699
4 2677 2678 3847 5375
4 3527 5366 4836 4835
4 5376 5377 3685 4957
4 5378 5376 4493 4492
4 5376 4492 5378 5379
4 5376 5380 4957 4306
4 2877 3870 3868 3616
4 2845 3248 2690 3410
4 4111 4201 5226 1652
4 5376 5381 4306 5379
4 2213 3238 2820 3864
4 2562 2855 2559 2558
4 4826 3144 3142 4002
4 5303 5382 1762 274
4 4852 4853 74 1230
4 5134 1428 1437 244
4 2960 5161 2967 2818
4 2855 4438 4151 4670
4 5134 5383 1428 245
4 4852 73 1221 1230
4 5384 1669 1660 1661
4 2688 3525 3527 3524
4 5385 70 712 713
4 2997 3000 3590 3662
4 3525 3588 4835 4839
4 2564 2565 2315 2316
4 1175 1184 4465 4503
4 3000 3767 2316 2998
4 709 5363 5368 701
4 5386 72 1212 1221
4 5387 64 716 707
4 5388 1154 185 186
4 2991 2997 3000 2998
4 3525 3588 4463 4835
4 5279 1195 1194 1185
4 4553 2999 5389 4552
4 2999 5389 4552 3588
4 2689 3448 3446 5068
4 3048 3572 3105 4700
4 3286 3209 3100 3103
4 2797 2977 3209 2326
4 3049 3286 3100 3103
4 5386 72 73 710
4 3047 3103 3100 2976
4 5385 69 70 713
4 3048 3046 3105 3572
4 2907 2526 3100 2655
4 3048 4700 5305 3572
4 1183 3284 4290 1192
4 2489 3048 3104 2486
4 4494 4414 4542 3289
4 4494 4542 4181 3289
4 4494 5390 4181 4415
4 5353 1131 1140 64
4 3655 5391 686 677
4 2514 4414 4494 3290
4 2449 2422 2799 2798
4 4304 4298 2777 4292
4 2514 4494 5390 2424
4 5392 5393 5284 1141
4 3461 5042 3585 5394
4 3461 5042 5394 3462
4 4640 3084 4995 5395
4 5395 3084 5396 4640
4 2782 5397 5241 5240
4 4640 3926 4239 3044
4 4640 4837 4239 3926
4 4854 4853 5336 1679
4 4740 2801 2329 5201
4 5135 1437 1446 243
4 2410 4491 2329 2983
4 2771 2329 2412 2801
4 2319 2322 4679 2320
4 2723 3752 2568 3353
4 2420 5398 3551 3752
4 4853 3 75 708
4 2993 4834 2995 5399
4 4296 5400 4054 5401
4 4318 263 4055 1796
4 2993 2995 4133 5399
4 5386 710 73 709
4 3291 3288 2447 3322
4 68 5373 1176 714
4 2438 2447 3291 3288
4 4191 1161 1170 1160
4 4055 262 263 1266
4 5402 67 715 716
4 3868 3616 3870 4071
4 2264 2270 2271 3256
4 4075 65 66 716
4 5374 1212 5386 5403
4 2439 3650 3291 2447
4 3078 3077 3288 3292
4 5404 1143 1134 1135
4 3464 3189 3005 3465
4 5385 1185 1194 69
4 3464 3465 3005 3004
4 5065 1180 1181 1190
4 3465 4331 4379 4801
4 2617 3063 3465 4331
4 2392 3189 3062 3007
4 3746 3749 3748 3747
4 3748 2751 2335 2783
4 3141 2783 2775 2984
4 2950 3141 2812 2783
4 5402 1167 67 66
4 2812 3142 4002 3747
4 3140 3693 3142 3692
4 4074 190 1150 189
4 4075 5402 716 66
4 2481 3693 2483 3142
4 2950 2790 2954 2335
4 3141 2783 2984 4007
4 3748 2783 3141 4007
4 2788 4384 4385 4390
4 3276 2537 2542 5405
4 4532 5401 4322 1267
4 4384 4390 5406 4385
4 4387 3916 4384 5407
4 3915 5203 4385 4384
4 3656 3806 5408 4503
4 4384 3916 3915 5409
4 2784 4009 2750 2755
4 4009 5410 5411 2237
4 4009 2238 2750 2755
4 4578 5412 4775 2715
4 4407 16 283 15
4 2715 3818 3821 4578
4 3326 4352 5413 4775
4 3821 2715 4775 4352
4 3326 3895 4352 2718
4 5414 4428 4129 726
4 4080 20 311 19
4 4408 124 717 17
4 2715 3059 2865 2716
4 2715 5412 4775 2865
4 3207 2966 2949 2607
4 3201 5358 3197 2962
4 2338 2752 3980 2339
4 2752 5358 3980 2733
4 4395 290 3976 4383
4 2752 3201 3200 5357
4 5415 293 292 284
4 5357 2752 2712 2753
4 5414 717 718 726
4 4017 4428 5414 726
4 5416 5417 5418 4426
4 4428 4129 18 293
4 4475 311 310 302
4 2752 2603 2600 2339
4 5118 1715 5419 1714
4 3444 4781 3616 3868
4 4070 2623 3500 2626
4 3500 4070 3499 4809
4 2623 5420 2597 3491
4 4455 719 718 126
4 2833 2842 2938 2836
4 2623 4809 5420 3501
4 2573 3657 2185 2194
4 4408 124 1 1760
4 2845 3410 2930 3443
4 3501 2623 2834 2832
4 3390 3513 3511 3507
4 3441 4567 3511 3973
4 3511 3512 3439 3973
4 5421 1722 5422 1723
4 3786 1724 127 1733
4 3511 3391 3439 3512
4 3072 3073 3070 3733
4 3064 3073 3068 3074
4 3729 2184 5423 2175
4 2416 4015 3036 3037
4 4079 4080 4428 735
4 4460 728 719 720
4 5424 128 129 721
4 4406 731 740 739
4 2689 3368 3998 2696
4 2554 2917 2927 4798
4 3368 3998 2891 2887
4 3448 3721 3414 3068
4 5425 1703 1694 1704
4 3715 3065 3068 3067
4 3853 3068 3715 3721
4 4455 125 126 718
4 2549 2552 4591 2548
4 2551 2891 2549 3879
4 5426 721 730 729
4 2535 2777 2276 2541
4 3400 1721 1712 1722
4 2288 3113 3276 3541
4 3656 1165 5427 1166
4 5428 3154 5429 5430
4 5431 4713 5432 5433
4 5031 1712 1711 1702
4 4713 5432 5433 5430
4 5430 5433 1028 5432
4 5434 1696 1695 1686
4 4669 5430 5432 4713
4 5016 759 758 750
4 2536 2691 2843 2534
4 5424 129 722 721
4 4025 5298 4333 4024
4 5298 2679 4019 4024
4 5298 4023 4025 5250
4 3786 721 720 128
4 4024 5298 4333 5435
4 5298 5250 4333 5125
4 3710 5337 3470 5436
4 5119 5437 5121 4314
4 4254 723 722 130
4 3940 5437 3943 5121
4 3710 5124 3711 3712
4 5124 5337 3712 3710
4 3425 3666 3397 3470
4 3442 2685 3441 3439
4 131 4253 5325 1697
4 3440 3442 3937 5438
4 5439 1851 1842 1843
4 3905 4485 4524 344
4 3442 4568 3939 5438
4 3441 3938 4568 4569
4 4568 5440 4567 4569
4 4253 130 1706 1697
4 2924 5131 3620 2925
4 2924 5441 2279 2925
4 5020 1639 5105 2925
4 5020 1649 5360 5442
4 5020 2870 5442 5360
4 5324 133 725 4
4 5020 2782 2870 5360
4 5020 5441 2782 5360
4 5325 725 724 132
4 5441 2279 2925 5020
4 3950 3134 4986 3535
4 5302 1770 1762 1771
4 2961 3308 5086 3309
4 5242 4274 2780 2781
4 3950 3197 5358 2961
4 2560 3535 2961 3837
4 2960 2961 3980 2962
4 5118 1705 4253 1706
4 2961 3197 2962 2963
4 2961 5086 3308 5358
4 3146 4350 3145 2713
4 2703 2713 2706 3667
4 5443 5422 5419 5421
4 3609 4098 5444 5445
4 4016 736 737 745
4 2336 2811 2812 2335
4 2705 2704 2712 2732
4 3825 1749 1739 1740
4 4480 319 310 311
4 3345 2704 2713 2706
4 3953 5446 738 5447
4 2713 2711 2848 2709
4 2706 3337 2785 5070
4 2791 3345 2706 2704
4 4459 4402 291 4395
4 4068 3824 4411 1758
4 3431 3433 4457 3432
4 5415 4459 4402 292
4 5447 729 737 728
4 2706 5070 3667 3345
4 4052 4060 4053 4058
4 5426 720 721 729
4 3438 4476 4486 4149
4 4397 4319 4320 4615
4 2625 3778 3032 3086
4 4068 15 282 14
4 4448 737 738 746
4 3085 2750 2932 3749
4 5447 739 738 730
4 3393 1730 1721 1731
4 5448 4406 730 731
4 2705 2708 2337 2712
4 4053 4002 2262 5449
4 4052 3747 4002 4060
4 5118 5450 4253 5451
4 2618 4002 2821 2262
4 2618 2821 2812 2336
4 5451 732 724 733
4 5118 5422 4314 1714
4 2336 2812 2618 2931
4 4807 5452 3903 5453
4 3487 4070 3903 4810
4 5325 132 724 131
4 2594 3560 3927 3926
4 5444 134 135 743
4 3609 733 725 734
4 4447 740 731 732
4 3559 3560 3926 4639
4 5451 732 5450 723
4 2431 3038 3661 3042
4 3557 3562 4331 3898
4 4254 129 130 722
4 3896 2728 3897 3563
4 4005 4006 767 758
4 3219 2265 3061 3567
4 5454 4103 5451 3609
4 5455 134 734 133
4 4048 5131 5130 5456
4 3623 3624 4577 2980
4 3626 3256 4970 3627
4 2484 2493 2485 2487
4 4577 2745 3866 2621
4 2620 4970 3261 2621
4 5337 5447 5310 5446
4 4017 735 727 736
4 4017 4079 4428 735
4 2621 4970 3261 4984
4 4428 726 735 19
4 3432 309 300 301
4 5457 5458 5459 1975
4 4448 755 746 747
4 5447 729 738 737
4 2270 2620 3626 3256
4 4404 718 719 727
4 2925 5460 2916 5131
4 3505 1739 1730 1740
4 4472 317 316 308
4 2383 3848 3677 2908
4 3392 5461 3400 1712
4 2383 3845 3846 3677
4 4016 745 737 746
4 5462 4018 4403 4508
4 4149 326 317 318
4 3846 3287 3019 3677
4 4209 757 756 748
4 4399 1790 1781 1782
4 3846 4613 4287 3677
4 3826 5463 1809 1818
4 4365 5029 1710 1711
4 5450 722 723 731
4 3845 2383 3847 3848
4 3331 3450 3365 3417
4 2884 2898 2885 2887
4 3609 742 733 734
4 5444 5455 5445 1770
4 5131 5456 3620 1621
4 4451 751 759 750
4 2884 2886 2885 2896
4 5129 5132 5131 5133
4 3609 743 742 734
4 2550 3882 2926 2889
4 2696 3448 3853 3998
4 3448 3998 3854 3853
4 3944 5464 4130 5465
4 743 3609 742 5466
4 4451 759 751 760
4 3414 3704 3721 3412
4 3415 3414 3696 3721
4 4032 302 4080 4475
4 2968 2763 3235 3236
4 4079 736 744 735
4 5467 1741 1731 4453
4 4479 744 753 21
4 3541 2781 3543 3542
4 3235 3237 3542 3543
4 4079 745 744 736
4 3956 754 745 746
4 3956 755 754 746
4 4080 744 5468 4479
4 3541 2772 3618 3543
4 3618 2968 2915 2275
4 3618 2924 2915 4048
4 2819 4438 2855 4670
4 4562 773 764 765
4 3840 2855 5469 2562
4 3238 5470 5471 3714
4 3238 4438 5471 3239
4 5310 740 748 739
4 4399 1792 1791 1783
4 3238 3714 4669 2820
4 5446 747 739 748
4 3238 3864 5470 2820
4 4590 355 346 347
4 3055 777 5472 786
4 2819 4669 4438 4670
4 4240 2941 3780 4252
4 5327 749 741 750
4 5451 732 723 724
4 5466 743 751 742
4 4240 2941 5473 3780
4 3834 3476 2945 3335
4 5474 135 752 743
4 3476 3335 3834 3571
4 5131 5460 2916 5133
4 3755 751 750 742
4 3476 2941 3458 5473
4 4244 4249 4240 3571
4 4216 761 769 760
4 5129 5131 4048 2916
4 2945 2941 4244 4560
4 4452 752 761 760
4 4452 760 751 752
4 4216 4452 5475 761
4 2806 2530 2299 3335
4 2530 2938 2531 2945
4 4217 779 778 770
4 5476 136 137 761
4 5468 754 753 745
4 4490 789 780 781
4 5468 4547 754 4488
4 2945 2939 4560 2943
4 5468 753 744 745
4 4397 762 4547 4615
4 4397 4480 4479 320
4 4590 4564 4545 347
4 4564 347 346 338
4 2530 2806 3834 3335
4 4437 345 336 337
4 4458 4476 4149 318
4 3713 3851 2524 3497
4 2626 4070 3499 3500
4 4488 755 763 754
4 2714 3816 2720 2995
4 4437 346 345 337
4 4523 23 771 24
4 4070 3499 4809 4092
4 4477 334 325 326
4 2564 2994 2998 3816
4 4477 335 334 326
4 2720 3060 2995 3817
4 2995 5399 4834 1297
4 4137 3179 5477 4576
4 2993 4834 5399 4134
4 4448 756 755 747
4 5399 1287 1288 1296
4 3957 764 755 756
4 4526 4531 4555 332
4 2565 2394 2396 3000
4 3258 3439 3394 3799
4 3425 3470 3710 3473
4 3983 4315 3986 3988
4 4539 4435 354 4586
4 5457 5478 1974 5479
4 5480 3517 5481 3518
4 4575 773 772 764
4 4809 5482 3500 5483
4 5016 750 758 749
4 4215 760 769 768
4 3389 3394 3399 3391
4 3970 2685 3601 3600
4 5304 1772 1771 1763
4 5484 778 777 769
4 3467 3473 3425 3468
4 3442 3937 3012 2684
4 3394 3391 3395 3799
4 5018 5485 4994 5033
4 5018 5486 5487 5488
4 5475 761 137 770
4 5018 5487 5486 5489
4 5485 5018 5490 5033
4 5476 761 752 136
4 4206 1773 5491 5492
4 5018 5490 5487 5038
4 5018 5490 5033 5487
4 5018 3819 5038 5075
4 4098 1780 1788 1779
4 2619 2262 3497 5493
4 4615 771 762 763
4 4523 5494 771 4320
4 3761 4143 3191 4927
4 4236 809 800 801
4 4253 1705 1696 1706
4 4320 762 771 23
4 3454 4137 4666 4576
4 3761 4143 3762 2660
4 4512 4477 325 326
4 5494 781 780 772
4 5399 1297 3547 1296
4 3761 4927 5495 4143
4 2663 2878 5328 3761
4 5195 2663 2878 5328
4 4547 4615 762 763
4 2661 3191 3761 2660
4 344 4495 4477 343
4 2662 2664 2665 2878
4 4004 766 757 758
4 2659 3914 3769 3913
4 4631 5496 1818 1827
4 3957 765 764 756
4 4435 353 344 345
4 5463 1817 1808 1809
4 3761 4927 2878 5495
4 2626 2619 3497 3498
4 2904 2905 2508 4272
4 4004 766 765 757
4 4490 781 5497 790
4 5498 5499 1286 5500
4 3455 774 765 766
4 4587 372 363 364
4 3059 5412 2865 3293
4 4006 759 767 758
4 3788 767 776 775
4 2375 2384 2381 2385
4 4004 766 758 767
4 2651 2658 2654 2515
4 2904 2908 3604 3848
4 5051 777 776 768
4 5484 769 777 768
4 4216 769 761 770
4 5501 5458 5502 5459
4 4323 5327 749 5310
4 4015 3037 5503 4509
4 3708 3036 4015 3936
4 3036 2416 3002 4015
4 4015 5504 5503 3555
4 4015 3555 3002 4013
4 4015 5504 4013 5505
4 5475 770 137 138
4 2650 3451 3026 3021
4 3788 3784 3455 3451
4 5506 1781 1780 1772
4 5507 779 787 778
4 2650 2647 3030 4078
4 2641 2649 3139 3138
4 2686 3011 3945 3742
4 4575 772 763 764
4 4743 4895 2511 4680
4 3002 3702 3012 3708
4 4588 773 781 772
4 3008 3011 3012 3226
4 5494 772 780 771
4 4489 4668 798 799
4 4586 362 353 354
4 3002 3003 3984 3555
4 4437 4590 346 4564
4 4563 356 4596 365
4 3822 3987 3002 3984
4 3002 3226 3702 3987
4 2416 3002 4015 3555
4 4688 5508 800 799
4 4576 782 773 774
4 5509 1835 1826 1827
4 3894 3938 5510 4208
4 3788 775 766 767
4 3455 775 774 766
4 3970 3600 3436 3971
4 3970 3600 4878 3436
4 5294 1846 1845 1837
4 5511 1313 1314 1322
4 3452 783 774 775
4 4225 371 370 362
4 3969 3600 3971 5512
4 3969 5512 3976 3974
4 5513 1817 1825 1816
4 4637 392 391 383
4 5500 1295 1287 1296
4 3055 776 777 785
4 1707 3488 212 1716
4 4208 3970 3894 3938
4 3055 786 785 777
4 4467 138 779 770
4 4217 770 778 769
4 3969 3441 3973 3975
4 3441 3970 2685 3938
4 2909 3677 2383 3019
4 2382 2652 2408 2411
4 4135 139 140 788
4 2623 3501 5420 3491
4 4030 3605 3847 3603
4 2619 2624 2625 3777
4 3673 3603 2497 3699
4 2944 2809 2807 2528
4 3210 3481 4938 3172
4 4938 4939 3172 3481
4 4312 4939 4938 4342
4 4467 779 138 139
4 4211 3488 212 1707
4 4938 4342 4939 3480
4 4439 3488 4832 1243
4 4312 2633 3875 3902
4 4545 780 789 25
4 4309 5514 4311 4343
4 3211 3929 3509 4308
4 5515 5462 4411 3825
4 5516 5517 810 819
4 3562 3093 4375 4376
4 4376 5518 3661 3093
4 4376 3949 3946 3948
4 5497 790 781 782
4 213 1243 3488 1242
4 4376 3661 5519 4330
4 4539 355 4563 364
4 3935 3254 5520 3896
4 2920 5520 5521 4639
4 4235 810 801 802
4 5477 791 782 783
4 4711 4684 5517 818
4 4118 3488 1243 1242
4 4576 783 782 774
4 4683 4622 4638 381
4 3053 794 793 785
4 3560 3935 3896 3254
4 5522 803 4673 812
4 2543 3216 2728 3254
4 4526 4504 322 331
4 3452 784 783 775
4 5523 792 783 784
4 5501 5459 5502 5524
4 5472 778 786 777
4 3091 3032 3779 4786
4 3935 3254 2919 5525
4 4668 808 807 799
4 5526 787 796 795
4 3910 785 786 794
4 3241 3718 3723 4947
4 3240 3118 3243 4941
4 4400 1792 1800 1791
4 3118 4947 4941 3240
4 4217 770 4467 779
4 3242 3718 4947 4959
4 5527 796 797 805
4 5528 1843 1842 1834
4 3930 3242 3719 3508
4 3242 3718 4959 3930
4 3991 4949 4535 4557
4 5507 787 779 788
4 2658 2514 2656 3989
4 2658 3991 2509 3989
4 4141 1887 148 147
4 3991 4949 4557 3187
4 3991 4537 3989 4414
4 3992 3290 3828 4558
4 3057 3895 3589 4324
4 3181 2682 2680 2681
4 2469 3056 2470 2303
4 5193 5247 58 1086
4 4685 29 392 28
4 2681 2683 5375 3373
4 4620 798 27 26
4 4620 4566 4563 365
4 5497 791 790 782
4 4775 5412 5529 5530
4 4638 391 390 382
4 2677 2699 2681 4207
4 4658 381 380 372
4 4688 808 799 800
4 2682 2681 3373 2683
4 2763 3235 3236 3114
4 2244 5531 3151 2245
4 5508 800 799 791
4 4004 766 3455 765
4 5532 800 791 792
4 2245 2231 2236 3151
4 5497 5508 791 5532
4 5523 784 793 792
4 5477 792 791 783
4 5533 4132 5534 5499
4 2244 5531 3979 3151
4 5535 801 792 793
4 2762 2288 2763 3114
4 2762 2764 3111 2242
4 3053 785 793 784
4 4040 5536 4659 388
4 5535 5537 4235 802
4 4565 4619 5536 388
4 5538 4150 4155 5227
4 3552 5498 4434 1278
4 3910 794 786 795
4 2787 4155 4390 2786
4 5538 4389 2787 4390
4 4477 343 335 344
4 2789 4153 5223 4703
4 4712 419 410 31
4 2787 5227 4154 5538
4 2214 4154 2787 5227
4 3091 5539 3892 3664
4 4832 3488 213 1243
4 2932 3032 2749 3086
4 2992 3588 4134 3037
4 5540 788 796 787
4 5541 1817 1816 1808
4 5542 1807 1806 1798
4 3778 3779 4786 4954
4 3778 3032 4786 3779
4 5543 140 797 788
4 2619 2624 3777 2626
4 3091 3779 2939 4560
4 3032 3090 2749 3086
4 3904 3906 4136 3907
4 4138 3904 3906 4136
4 4309 3162 4310 3316
4 5544 1835 1834 1826
4 4310 4311 4903 3162
4 4310 4311 4905 4903
4 4596 789 798 26
4 4489 798 789 790
4 3664 5539 5058 5545
4 4309 4310 3317 3316
4 5508 799 790 791
4 4236 810 809 801
4 4582 401 392 29
4 4752 3770 4231 4732
4 4678 398 389 390
4 4683 389 380 381
4 5193 5272 5546 1086
4 5517 819 818 810
4 5193 5198 1077 57
4 5547 794 802 793
4 4688 809 808 800
4 3385 3180 2576 2760
4 5532 801 800 792
4 5548 1323 1315 1324
4 2302 2427 2318 2399
4 2586 3184 2576 2577
4 5535 802 801 793
4 3888 3954 3430 3599
4 3788 3054 3452 775
4 5497 5532 791 5477
4 4622 372 4587 373
4 2578 4677 3767 3259
4 5549 5550 5551 5552
4 5553 835 843 834
4 4621 398 399 407
4 5554 5544 5555 4468
4 2317 2403 2401 2577
4 5547 802 794 803
4 2288 2537 5405 4425
4 3276 2288 2537 5405
4 2664 2290 4425 5196
4 5556 4392 4391 5557
4 4582 4685 29 392
4 5558 4688 5559 3539
4 4660 390 4638 391
4 5560 814 813 805
4 4754 33 428 32
4 2664 4394 2880 5196
4 5561 803 795 804
4 2659 3913 2286 2660
4 3160 804 796 805
4 2659 3769 2245 2283
4 5562 1815 1806 1807
4 5563 806 141 142
4 5527 805 797 806
4 4425 5405 2288 3112
4 2282 2288 4425 2537
4 5564 143 144 824
4 2244 4425 2764 4394
4 5565 806 815 814
4 3877 2789 2209 4153
4 2631 3152 2674 3313
4 2789 4701 3519 5223
4 2673 2674 2466 3841
4 2959 2964 4000 3515
4 2675 3519 2788 2789
4 3285 4125 2408 4491
4 4710 31 410 30
4 5566 227 228 1581
4 4620 4641 807 5567
4 5567 816 807 808
4 4641 807 816 28
4 4148 410 409 401
4 5568 408 399 400
4 5568 409 408 400
4 5567 817 816 808
4 3846 3019 3287 4125
4 3285 2408 4125 3019
4 3287 3504 4287 5569
4 2111 5232 2120 5566
4 5517 818 809 810
4 4222 817 825 816
4 4573 1829 1837 1828
4 3049 2909 3285 3287
4 3286 3102 3504 3503
4 3055 786 5526 3910
4 3287 4287 3504 3102
4 4220 826 4681 827
4 4580 5553 835 844
4 4556 4210 4531 333
4 5566 5570 1590 1581
4 2909 3287 3677 3019
4 3846 3287 3677 4287
4 4287 3050 3102 3287
4 5571 1331 1330 1322
4 5572 4287 3050 3102
4 5522 811 803 812
4 3833 2312 4617 3832
4 3833 3832 5573 3738
4 4685 28 816 29
4 4728 428 427 419
4 4647 4582 4710 401
4 5516 810 811 819
4 5312 4692 4717 5574
4 3833 5573 4100 5575
4 4673 812 804 813
4 4311 4903 4991 4905
4 4674 814 823 822
4 4309 3317 3643 3316
4 4309 5514 4310 4311
4 4311 4343 4312 4309
4 4312 3875 4903 3902
4 4312 4344 4939 4342
4 5576 815 806 142
4 4312 4938 4939 3172
4 5576 815 142 143
4 5577 144 833 824
4 4343 4344 4991 4311
4 3528 2857 2813 3663
4 3877 3566 2217 3602
4 3566 5212 3861 3693
4 3860 3877 3143 3862
4 3566 5212 3129 3861
4 3566 2483 2217 3602
4 5566 228 2120 2111
4 5168 3566 5212 3129
4 4729 418 409 410
4 4684 817 808 809
4 4730 417 408 409
4 5578 839 5579 848
4 5566 2120 228 227
4 2261 2759 3154 3714
4 4222 826 825 817
4 4682 836 827 828
4 2254 2759 4670 3157
4 2759 4669 3155 5428
4 5580 828 819 820
4 4221 834 825 826
4 5581 1892 1901 1900
4 5582 3498 3499 3497
4 5580 829 828 820
4 3154 3714 5428 4482
4 3713 4515 3154 4445
4 3156 2259 2203 3154
4 3154 3155 5430 5428
4 4611 5583 1345 1344
4 4236 5532 801 800
4 4278 854 845 846
4 5112 1571 1580 1579
4 3033 4351 2749 3090
4 2250 2914 2278 2969
4 5584 820 812 821
4 4674 822 813 814
4 2274 2537 2276 3276
4 3603 830 829 821
4 4145 1873 1864 1865
4 2276 2778 2781 2541
4 2778 5585 2781 2541
4 2779 2877 2875 2776
4 4030 821 813 822
4 3605 821 822 830
4 4304 4295 4292 2777
4 2778 5585 2541 4295
4 2773 5241 2780 2782
4 4589 4104 4915 2780
4 4921 3885 3884 3348
4 5586 815 823 814
4 4559 832 823 824
4 4921 3095 3885 4173
4 4025 4333 5294 5292
4 4921 4173 5301 4175
4 4921 4175 5587 4173
4 4921 5587 5588 3006
4 4921 3884 5589 5590
4 5262 4391 5556 5185
4 5591 5138 3861 3863
4 5591 4057 5592 5593
4 4711 828 827 819
4 5591 4057 4826 3747
4 3566 3142 5591 3863
4 4681 827 826 818
4 4681 826 817 818
4 4753 426 417 418
4 4752 5594 4148 5553
4 4289 3380 4288 872
4 5591 3142 5592 3747
4 5516 819 4711 5517
4 4900 837 828 829
4 5157 5085 618 609
4 3411 3725 5068 5066
4 4542 4724 4181 416
4 3449 4755 1199 4072
4 2690 3413 3411 3248
4 2249 2247 2843 2535
4 4580 844 835 836
4 2642 5595 4631 4632
4 5551 1365 1356 1357
4 4682 837 836 828
4 3411 3248 4022 3743
4 2845 2930 3444 2847
4 3605 830 822 831
4 5584 820 811 812
4 2248 2689 3445 2249
4 4699 856 857 865
4 3413 3411 3725 3412
4 3248 3250 3743 3252
4 4632 1820 1828 1819
4 3160 804 4673 5561
4 3247 3252 3248 2929
4 4332 1852 1843 1844
4 5596 842 833 145
4 3910 795 5561 794
4 2845 3443 2930 2929
4 3735 5274 3740 3736
4 4750 3371 3401 3735
4 2605 2932 2624 3032
4 4140 842 851 850
4 2825 3964 3548 4799
4 3735 4675 3736 3737
4 5597 842 841 833
4 5577 833 144 145
4 3735 4675 5274 3736
4 3735 5598 3401 4750
4 3735 3401 5598 3737
4 2825 3964 3737 2824
4 5157 5137 4999 609
4 2825 3964 4799 3737
4 5376 5599 5380 5600
4 3188 5589 2391 3584
4 4221 835 834 826
4 3188 2933 3585 3584
4 3188 3007 5589 3006
4 2392 2300 2301 3189
4 5193 5243 644 653
4 4765 436 435 427
4 4709 428 437 436
4 5601 1362 1371 1370
4 3323 846 845 837
4 5602 856 848 857
4 5377 1348 1340 1349
4 3461 5042 3188 3585
4 4580 845 844 836
4 3188 5042 3005 3006
4 4900 838 837 829
4 5603 1411 1410 1402
4 900 3999 3270 901
4 4695 398 407 406
4 5604 853 861 852
4 4652 853 5594 844
4 3604 838 830 839
4 3656 3849 5427 4664
4 4732 862 853 854
4 5578 838 839 847
4 3656 3806 4503 2573
4 3656 3806 2573 3657
4 2619 4053 2262 5449
4 3298 3544 3482 3300
4 5605 832 840 831
4 4829 1431 1439 1430
4 5606 1853 1861 1852
4 4474 855 846 847
4 5607 841 850 849
4 5597 833 841 832
4 3300 3334 2722 3544
4 3300 3482 3334 3544
4 3300 3545 3544 2722
4 3300 2722 3350 3545
4 4124 5608 4285 4019
4 3300 3299 3298 5609
4 5610 4141 851 147
4 5094 5611 5612 5613
4 5610 147 146 1878
4 5611 4484 5614 5473
4 5611 5615 5614 5094
4 5611 3458 4484 5473
4 5157 5137 609 86
4 5611 5613 5334 5612
4 3770 4652 4651 4278
4 5553 844 843 835
4 4621 4724 407 408
4 4707 4793 4708 870
4 4712 4710 31 410
4 4712 843 852 32
4 5611 5473 3981 3458
4 4148 410 4712 4729
4 3379 2424 2517 2423
4 4652 854 853 845
4 5549 5616 5202 5617
4 4733 445 444 436
4 5618 3381 4792 4288
4 5611 5612 5334 5619
4 5611 5473 5619 3981
4 4751 443 442 434
4 4057 3747 5620 4010
4 5621 889 888 880
4 5579 840 848 839
4 4057 5622 5623 4061
4 4057 3747 4060 4826
4 4707 861 34 33
4 4474 847 846 838
4 4496 4806 5616 5624
4 5032 4168 4994 561
4 4057 5592 5623 5620
4 3766 1378 1386 1377
4 4278 855 854 846
4 4542 4718 4543 415
4 5625 1389 1398 1397
4 4057 5626 4060 4061
4 4057 5626 4061 5623
4 4782 452 443 444
4 5607 841 849 840
4 5579 848 840 849
4 3072 3733 3070 3734
4 3105 848 849 857
4 3064 3074 5627 3071
4 4971 2726 3089 3088
4 4140 850 841 842
4 3578 149 869 148
4 4527 4530 3671 3071
4 5628 5610 4140 5597
4 3769 4527 3070 3916
4 3769 3070 3733 3916
4 3474 2837 2840 2839
4 5157 1589 86 85
4 2373 2368 2632 2808
4 3489 3925 3592 3800
4 2296 3617 3232 2363
4 5594 852 843 844
4 4652 853 844 845
4 2622 2597 2609 3491
4 2842 2528 2531 2529
4 3491 2622 2347 2609
4 4728 428 4709 427
4 4707 4754 33 428
4 2601 2259 3576 2597
4 2597 3577 5420 3500
4 3378 4817 4792 3376
4 2597 3577 3576 5420
4 4042 387 4043 386
4 2597 3575 2609 3491
4 4279 863 854 855
4 2807 2934 3246 2935
4 3035 4699 2520 4474
4 3171 3172 3211 2633
4 4782 453 452 444
4 2293 2291 3891 3804
4 2842 2834 3474 2837
4 2635 3492 2529 3459
4 4794 461 452 453
4 4792 872 3380 881
4 4291 865 864 856
4 4415 4724 4753 4181
4 4291 864 855 856
4 4474 856 855 847
4 3581 2390 4172 3789
4 2530 3834 2806 3774
4 4279 864 863 855
4 2806 3335 3789 3834
4 4895 4682 3323 4220
4 5610 146 851 842
4 3790 3347 3098 4462
4 3346 4866 3794 3791
4 3206 4168 570 569
4 3267 3346 3213 3348
4 4139 859 850 851
4 4281 1882 1881 1873
4 2742 3265 3346 3097
4 3960 867 858 859
4 2268 2742 2269 2267
4 4704 4790 4584 406
4 5610 4141 147 1887
4 5628 1879 1888 1887
4 2269 3096 3346 3347
4 4159 4885 481 482
4 5629 5630 4499 5631
4 3303 3308 2462 3302
4 3533 3529 3838 5357
4 4289 872 863 864
4 3305 2591 3325 4689
4 873 4291 864 4289
4 3302 3305 2555 2458
4 3134 3136 3302 3307
4 5604 862 861 853
4 3136 3302 3307 3306
4 4645 446 445 437
4 4288 871 862 863
4 5632 4817 5621 4793
4 5633 1473 1464 1465
4 4518 5634 5635 5636
4 4518 5635 5634 4482
4 4732 863 862 854
4 4514 4518 5634 4481
4 4792 881 880 872
4 2608 3200 5357 5637
4 3503 1908 1907 1899
4 4289 873 872 864
4 4514 4519 4518 4481
4 4518 4481 4519 5638
4 4699 865 857 866
4 4514 4481 4517 4519
4 3794 4901 3017 4875
4 865 4291 864 873
4 3579 149 878 869
4 5639 1395 1394 1386
4 4700 866 858 867
4 4518 4519 4195 5640
4 4700 858 866 857
4 4867 5641 908 909
4 3103 3502 3220 3503
4 3578 4139 860 3961
4 5566 228 5642 1581
4 2788 3519 4393 5223
4 2788 5223 2789 3519
4 2788 4388 4389 4393
4 4813 925 4877 926
4 4390 5538 5643 4155
4 4390 5538 5644 5643
4 4390 2786 4155 5406
4 3329 1889 1898 1897
4 4390 5644 4388 5645
4 4390 5646 5538 4389
4 4390 5644 5538 5646
4 3345 3338 3336 3337
4 3336 3340 2988 3339
4 4141 1887 1896 148
4 2981 2952 2988 2989
4 3578 4139 4141 860
4 5647 919 918 910
4 3337 2953 2785 5070
4 5648 870 861 862
4 2421 3405 3289 4181
4 2706 3337 5070 3345
4 4708 35 446 34
4 3134 3137 3135 3535
4 4708 4793 5621 879
4 2561 3676 3675 3841
4 5648 871 870 862
4 3980 2733 3308 2732
4 4784 5649 463 464
4 5650 890 4811 899
4 2961 3308 3980 5358
4 5651 5315 2129 5566
4 4792 880 871 872
4 5652 874 865 866
4 5653 5654 1928 5655
4 3670 875 866 867
4 4817 890 889 881
4 4965 891 882 883
4 5656 876 867 868
4 2752 3980 2339 2733
4 5601 5657 1371 1362
4 5018 5019 4994 5485
4 2962 2960 2966 2338
4 2243 3730 4469 3731
4 3483 874 873 865
4 5628 1887 5610 1878
4 5658 874 875 883
4 247 5659 1410 1401
4 2465 2234 2591 2241
4 4741 1883 1891 1882
4 4156 3676 4727 3841
4 5660 5661 1432 1433
4 3841 3675 4156 3676
4 150 3831 151 1914
4 4789 877 885 876
4 4264 450 441 442
4 5662 5633 1473 1464
4 3676 3152 3151 4727
4 5663 1888 3329 1897
4 2241 2233 3151 3676
4 2241 2466 2233 3676
4 5664 884 885 893
4 5658 883 875 884
4 4661 4663 3705 3697
4 3561 1915 1914 1906
4 2589 2965 2468 2463
4 3565 2949 5665 5666
4 3579 878 149 150
4 3479 5019 2352 4126
4 3479 3480 5076 5075
4 3479 2610 2352 3819
4 2708 2751 2707 2703
4 4708 4768 5621 4645
4 4793 880 879 871
4 4793 871 879 870
4 2705 2335 2785 3175
4 2703 5070 2706 2785
4 5621 888 879 880
4 2703 2784 2710 3607
4 2186 3419 2572 2195
4 3403 4782 452 443
4 3380 882 881 873
4 3483 883 882 874
4 4861 478 469 470
4 3376 891 890 882
4 4838 1406 1415 1414
4 3202 4168 3205 3206
4 2710 2725 2813 5091
4 2710 2755 5060 2239
4 4158 463 5649 472
4 2754 2199 196 2198
4 4811 900 899 891
4 5485 5032 4168 4994
4 2710 2725 5091 2755
4 4607 4023 5298 5125
4 2678 3847 4607 3844
4 878 886 3831 877
4 5298 4019 4610 5435
4 4925 3261 5667 3771
4 4965 892 891 883
4 3999 900 891 892
4 5668 4598 929 930
4 887 878 3831 150
4 2384 3844 2679 2379
4 2380 2384 2679 2379
4 3326 3327 5669 5286
4 5670 1916 1925 1924
4 5671 1439 1438 1430
4 2863 3966 5413 3326
4 3269 3363 2222 3772
4 4777 5286 3326 3895
4 3261 4984 4970 5672
4 3606 884 875 876
4 2718 2715 3058 4352
4 3326 4352 2715 2718
4 887 886 3831 878
4 3121 3283 5668 3282
4 3830 152 896 151
4 559 4163 5013 568
4 3121 2850 4738 3122
4 5649 473 472 464
4 4814 471 480 479
4 5649 472 463 464
4 4739 3120 3121 3122
4 2853 3120 3121 4598
4 3052 196 2754 1211
4 5650 898 889 890
4 3272 902 910 901
4 2362 2852 2221 2363
4 4335 3125 3126 2853
4 3389 3400 5436 3393
4 5660 1433 1432 1424
4 3999 901 900 892
4 884 5658 883 892
4 3399 3703 5029 5673
4 4880 481 490 489
4 5674 892 884 893
4 3397 3741 3742 3666
4 3271 909 900 901
4 3399 3392 5031 5461
4 4337 1387 1395 1386
4 3389 3399 3392 3391
4 3399 3400 3392 5461
4 4821 4176 4796 460
4 5674 901 893 902
4 2745 3866 2747 2980
4 3399 3703 5673 3391
4 3830 151 896 887
4 3865 893 894 902
4 3871 4997 4922 3883
4 5675 887 895 886
4 5667 5676 3363 4897
4 5677 1924 1932 1923
4 3199 3204 5067 3206
4 4919 4997 4922 3871
4 4997 4939 3481 3520
4 3210 3211 4938 3929
4 5678 5679 157 941
4 4938 3480 5680 4342
4 5677 1932 1924 1933
4 4939 5489 3480 4342
4 4939 4342 4344 4345
4 4343 4312 4309 4938
4 5681 896 905 904
4 4310 4905 4311 4958
4 4312 4342 4938 4343
4 4939 3481 3520 3172
4 4879 480 4880 489
4 2621 4984 3261 5682
4 3526 3936 4642 3036
4 3526 3036 4642 3037
4 4238 908 5641 917
4 4159 473 481 472
4 5683 5684 5685 4875
4 5650 899 898 890
4 4840 898 897 889
4 2649 3138 3756 3139
4 3204 3206 579 5067
4 2649 2647 3139 5686
4 3006 4246 4247 4698
4 2649 2645 2646 2647
4 2649 2647 5686 2645
4 5687 3423 4433 3941
4 4881 1415 1424 1423
4 4861 479 478 470
4 3271 910 909 901
4 5688 4340 5459 5524
4 3669 3281 3647 3264
4 3331 1210 3396 3418
4 4867 908 899 900
4 5689 1936 1935 1927
4 2360 2823 3371 3740
4 3370 3740 2765 2823
4 3125 5690 5151 3359
4 5674 893 901 892
4 2823 3736 2862 2824
4 2765 2823 3740 2862
4 2825 2899 2974 2827
4 4112 5691 154 914
4 5692 3691 3692 3693
4 3370 3369 3610 3684
4 4334 3830 1932 152
4 5273 3278 2901 2862
4 2581 2480 2957 2964
4 5691 153 154 914
4 5641 918 917 909
4 5693 1933 1924 1925
4 5694 5695 1942 1933
4 3877 4153 5234 5223
4 3877 4153 3143 3862
4 2211 2207 2481 2774
4 3566 3863 5591 3861
4 4736 911 919 910
4 3566 5591 3142 3693
4 3142 2481 2950 2216
4 5696 5697 5698 949
4 4737 912 920 911
4 2950 2452 2951 2954
4 5699 3771 3261 3645
4 2208 2217 3143 2215
4 3860 3143 3566 2215
4 2216 3142 3566 2215
4 2994 5700 3816 4834
4 2998 2994 2996 3816
4 2313 2717 2714 2307
4 2991 2992 3526 3588
4 4844 39 482 38
4 4816 898 906 897
4 4159 482 481 473
4 4599 3588 4463 3037
4 4885 490 481 482
4 4845 915 4844 906
4 2972 2398 2426 2686
4 4867 909 908 900
4 5701 907 898 899
4 196 197 2199 2754
4 4865 915 40 39
4 2995 2994 3816 4834
4 5701 908 907 899
4 4879 480 489 488
4 5647 910 918 909
4 4635 5572 3102 3329
4 4279 4278 855 854
4 3209 2982 2326 2977
4 4735 903 911 902
4 5702 516 515 507
4 3320 3402 3040 5703
4 3370 3740 3684 2901
4 5704 904 912 903
4 2484 2490 2486 2485
4 3285 2983 5705 4491
4 3209 3220 3103 3502
4 3209 2983 2982 5705
4 5699 1952 1953 1961
4 3573 5357 2608 2600
4 5706 905 913 904
4 3573 2351 5707 5637
4 2259 2260 3577 2597
4 5708 1943 1952 1951
4 2595 2346 2605 2622
4 5709 921 912 913
4 2600 3573 3533 2606
4 2595 2346 2622 2609
4 5710 927 918 919
4 4739 920 928 919
4 3573 5707 2351 2352
4 2598 3573 2610 2608
4 5055 2757 4795 4992
4 2757 3327 3967 3968
4 5711 1993 1992 1984
4 5706 913 905 914
4 3967 4653 5055 4630
4 3967 5286 4630 5669
4 3967 5669 4630 3965
4 3967 3327 5286 5669
4 3963 5669 3967 3965
4 5679 157 941 156
4 4843 924 916 925
4 4865 4159 4844 482
4 4837 3765 3926 4640
4 3927 4337 4639 3764
4 4845 907 915 906
4 4784 455 463 454
4 4640 4995 3076 3044
4 4238 916 907 908
4 2928 3081 2359 3077
4 5641 917 908 909
4 4899 498 497 489
4 2358 3107 4142 3109
4 4880 4885 490 481
4 2422 2797 2798 2490
4 5712 466 467 475
4 4923 506 497 498
4 3230 2852 2364 2634
4 5713 1426 1435 1434
4 4877 926 925 917
4 2743 3270 3647 3668
4 2270 3644 2266 2268
4 5714 506 505 497
4 5625 4995 3083 3084
4 5714 505 496 497
4 3084 3109 4142 5625
4 5715 914 922 913
4 5698 5152 939 948
4 2471 5266 4025 3908
4 5457 1974 5478 1975
4 2471 3909 3482 3298
4 5716 936 927 928
4 2471 3298 4027 3909
4 5717 242 1985 4340
4 5678 5679 5718 1977
4 2471 4028 4027 3298
4 4028 4293 4354 4027
4 2823 2826 2822 2862
4 5709 921 913 922
4 2831 2765 2862 2823
4 2730 2736 4926 2738
4 5719 940 939 931
4 5720 931 923 932
4 5118 4254 5450 5419
4 2730 4925 3269 2620
4 2735 4970 3257 5721
4 2430 2264 2265 2272
4 5722 155 156 932
4 3174 3255 2330 3935
4 2543 2728 3218 2735
4 4861 470 4796 4833
4 4158 472 4160 471
4 5723 509 500 41
4 5723 42 509 41
4 4884 500 499 491
4 3781 3777 4808 5724
4 5725 508 507 499
4 5725 507 498 499
4 2735 5721 3934 4926
4 4500 2329 5201 5629
4 4901 927 926 918
4 4862 4879 479 4814
4 5726 4897 3771 4819
4 5710 928 927 919
4 2326 2977 3168 3374
4 2412 2409 2404 2766
4 3383 2199 2754 2198
4 2446 2449 2492 2267
4 3120 929 938 937
4 5152 939 947 938
4 4935 1479 1488 1487
4 2326 2324 3374 3168
4 4114 1470 1479 1478
4 5727 5647 3273 5728
4 5729 5730 4984 5672
4 3291 3408 3322 2447
4 4984 3626 2621 4970
4 5102 569 578 577
4 2271 2805 3169 3256
4 2333 3765 3927 2321
4 2928 2794 2799 2793
4 5726 5731 1962 1971
4 3062 3005 3004 3007
4 3004 5587 3093 3095
4 3566 5591 3693 3861
4 4735 3646 2743 3272
4 5722 932 923 155
4 3142 3747 4008 5592
4 3142 4002 3747 4826
4 5678 5718 1986 1977
4 2213 2558 2790 2811
4 3141 4008 3142 3747
4 5591 3142 3747 4826
4 5732 158 959 950
4 5679 156 941 932
4 5733 1961 1969 1960
4 4823 517 509 518
4 3992 4558 2354 2974
4 4842 4859 5723 933
4 4909 43 518 42
4 3739 4557 2974 4558
4 3739 2974 4557 4041
4 4936 3639 944 945
4 4790 4558 4041 3827
4 4558 4041 3827 3739
4 3739 2356 3827 2354
4 5690 964 3872 4906
4 3739 2356 2355 5734
4 4254 129 5424 1715
4 4928 935 943 934
4 5702 515 506 507
4 3739 2355 2974 4041
4 4813 935 934 926
4 2233 3676 3152 3151
4 5684 4880 4160 4885
4 4339 4260 4976 505
4 3626 4984 3627 4970
4 4210 5290 5330 4606
4 5008 1487 1496 1495
4 4936 945 944 936
4 2578 4324 4677 4409
4 4598 938 929 930
4 5735 1983 1992 1991
4 5716 945 936 937
4 5736 5590 4879 4899
4 5737 932 940 931
4 3120 937 938 946
4 2578 4324 3057 3767
4 2919 3257 2735 3255
4 5716 946 945 937
4 5720 5737 931 932
4 5678 157 158 950
4 4324 3590 3589 3767
4 4324 3589 5330 4606
4 3087 3089 3088 4199
4 3085 3089 3087 3086
4 5738 1989 1980 1981
4 2907 3572 3045 3035
4 5739 2037 2036 2028
4 5740 5741 5722 1968
4 4767 3089 4199 5742
4 5743 940 941 949
4 5698 948 940 949
4 3089 4971 5744 5745
4 5745 4971 2726 3089
4 4253 4254 723 5450
4 4905 964 963 955
4 5678 1977 1986 158
4 3089 3090 5744 5746
4 5723 933 942 42
4 5742 3089 4199 5746
4 5323 4504 3596 4600
4 1211 2754 1220 197
4 4860 4909 4824 4823
4 4824 952 960 951
4 2975 2979 2976 2977
4 4859 943 942 934
4 4177 525 516 517
4 2976 3296 3104 3959
4 2976 3103 3220 3301
4 4822 4962 4178 527
4 5747 952 943 944
4 3100 3209 2976 3103
4 4899 489 4902 498
4 5712 467 3947 4774
4 3639 953 944 945
4 2976 3301 3297 3959
4 4177 4932 516 525
4 3639 954 953 945
4 4931 515 524 523
4 4932 525 524 516
4 5698 940 948 939
4 4958 962 953 954
4 5323 5748 4548 4504
4 3194 5749 3195 4276
4 4762 954 945 946
4 3272 3865 4735 902
4 3194 3192 5282 3696
4 5750 1980 1989 1988
4 2534 2290 2666 2538
4 3190 3194 3192 3191
4 5332 3492 3571 3807
4 5733 1961 1970 1969
4 4762 955 954 946
4 2694 3415 3194 3195
4 3194 3722 3195 3415
4 3194 3195 3722 4276
4 4504 3596 3594 5323
4 2778 5242 2781 5585
4 5690 956 964 955
4 2781 3542 3276 5751
4 5741 1978 1977 1969
4 4254 5450 722 723
4 3359 957 965 956
4 2781 3542 5752 3543
4 5743 949 941 950
4 2781 5753 4274 5241
4 5665 3207 3565 3819
4 2607 2966 2949 2946
4 3158 2893 2966 2946
4 5754 159 160 968
4 5755 5756 1988 1987
4 4178 527 526 518
4 3158 2893 2946 5757
4 4860 951 942 943
4 4178 526 517 518
4 4962 536 527 44
4 3158 2946 3565 4122
4 5045 4824 4944 4178
4 3028 5261 3030 3056
4 4961 953 962 961
4 4171 4977 526 535
4 3028 4023 2683 5125
4 4822 44 4962 527
4 4991 4979 962 971
4 2825 2355 3401 3548
4 3964 2827 5055 3968
4 5747 952 944 953
4 5714 4937 505 506
4 4601 5750 4602 5758
4 5718 1978 5756 1987
4 5759 4945 995 1004
4 2310 4705 4720 4038
4 3735 3736 2825 3737
4 3964 2827 3548 3549
4 5760 5662 5761 2003
4 5697 949 957 948
4 3964 3737 2824 3965
4 4905 963 954 955
4 5696 950 958 949
4 5365 4303 5440 5762
4 4335 955 947 956
4 5365 4368 5440 4303
4 5365 4303 5763 4368
4 5365 5764 5765 5766
4 5754 1995 160 159
4 3234 3542 3237 5767
4 4904 973 972 964
4 3360 975 974 966
4 5767 3237 3543 3542
4 3922 1997 1988 1989
4 3542 3114 3541 3113
4 3542 5186 5767 5217
4 3542 5768 5186 5752
4 2561 2241 3730 3676
4 3873 974 982 973
4 5769 966 958 967
4 5770 976 975 967
4 5771 986 994 985
4 2961 3535 3950 2963
4 5700 2996 5772 2999
4 4980 46 545 45
4 3535 3674 3837 2563
4 3535 5144 3977 3836
4 3134 2961 2557 3535
4 4824 961 960 952
4 3535 3837 3836 3977
4 5725 4823 4907 508
4 5012 47 554 46
4 4979 962 970 961
4 3797 3593 3617 3925
4 4981 545 544 536
4 4937 506 5702 515
4 4964 534 543 542
4 2561 2562 2456 3841
4 2461 3137 2561 2555
4 4998 981 972 973
4 5690 965 964 956
4 3872 965 974 973
4 4991 972 971 963
4 2704 2712 2732 3530
4 2997 2999 5323 2996
4 5760 5773 1993 2002
4 4445 4446 3842 5120
4 5688 1993 5760 5773
4 2713 3667 2829 3131
4 3146 3303 4187 3621
4 2704 3530 2732 3621
4 3085 2749 3090 3086
4 5774 5775 976 977
4 5776 967 959 968
4 5323 5287 4606 2996
4 5756 1987 1978 1979
4 2595 2598 2610 2601
4 3091 4560 2939 2943
4 5770 967 975 966
4 3085 2749 2750 2726
4 2203 2759 3157 3155
4 2707 2748 2749 2750
4 2337 2603 2600 2599
4 3232 3592 3459 3457
4 4251 1494 1495 1503
4 5774 967 968 976
4 2938 2530 2531 2528
4 3587 3982 3459 4121
4 3459 5777 3490 3587
4 2529 3232 3459 3457
4 2635 3490 3459 3489
4 4962 960 969 45
4 3038 3040 3650 2448
4 4944 969 960 961
4 4982 554 553 545
4 5009 553 552 544
4 4113 5039 4982 554
4 3038 3042 3650 4593
4 2594 3558 3559 4329
4 3557 3661 3093 3562
4 4944 970 969 961
4 4978 543 534 535
4 4110 4114 1469 4116
4 5009 544 4982 553
4 4113 5015 987 5012
4 2386 2230 3269 2222
4 2886 2884 2804 2896
4 4959 4953 3118 522
4 3873 973 3872 974
4 4345 980 971 972
4 2926 5105 5460 2925
4 3017 4875 4876 4813
4 3266 2226 3213 3264
4 4964 533 3707 534
4 4087 2014 2005 2006
4 3260 2222 3263 3772
4 3814 2007 1998 1999
4 2270 3626 2620 2621
4 5009 553 5033 552
4 5778 2010 2019 2018
4 3360 966 974 965
4 3268 3668 3647 3669
4 5779 4919 5780 991
4 2266 3644 3262 3268
4 5413 2863 4775 4192
4 4775 4694 5529 4676
4 4694 3966 5781 5413
4 4259 983 975 984
4 5754 1995 2004 160
4 4335 5151 956 947
4 5782 5783 5784 5785
4 5786 160 977 968
4 3881 3879 5787 3882
4 3326 5413 5781 3966
4 5413 5788 4676 3821
4 4188 977 161 986
4 5789 162 163 995
4 4775 4352 5413 3821
4 2442 2888 2444 2885
4 2442 2885 2444 2443
4 2891 2887 5790 2898
4 2887 5790 2898 2885
4 2896 2884 2804 2888
4 2888 5791 2897 2896
4 4113 563 554 47
4 5792 979 987 978
4 2898 3882 2445 5787
4 3368 3998 3417 3446
4 4942 980 979 971
4 2696 2689 3448 3998
4 2689 5068 3409 3412
4 4943 979 978 970
4 5039 562 553 554
4 3383 2592 2754 2199
4 4113 5012 47 554
4 2891 2549 3856 3998
4 4177 4907 517 516
4 2554 4697 5793 3167
4 4993 552 551 543
4 4996 980 988 979
4 4979 4944 961 970
4 5037 989 4996 5794
4 4993 4994 3521 551
4 2549 5795 3879 2891
4 2914 2917 2969 2915
4 4345 981 980 972
4 2278 3881 2551 2552
4 5014 989 980 981
4 5737 941 5743 940
4 4979 4942 970 971
4 1463 2280 99 4857
4 5779 982 990 981
4 3164 2969 2273 3165
4 4998 982 981 973
4 3314 3638 3643 3640
4 3643 3640 5061 5046
4 4166 587 586 578
4 5775 977 985 976
4 3317 3643 3638 5061
4 5796 3643 5046 3319
4 3319 3643 5046 3640
4 4892 3643 5796 3318
4 5782 5785 5797 5783
4 5027 1001 1000 992
4 4892 3643 4313 5046
4 4307 3509 4308 4309
4 5789 4188 162 986
4 5514 4309 4310 3317
4 5636 2050 4520 2051
4 4313 4309 4307 5046
4 5775 985 977 986
4 3643 3319 5796 3318
4 5736 3640 4899 4902
4 5736 4880 3640 4902
4 5736 5798 3319 3641
4 5799 1011 1019 1010
4 5736 3640 4880 5685
4 5736 5800 4879 5590
4 992 4446 1001 5120
4 5736 5800 5590 3641
4 5033 561 552 553
4 5050 49 572 48
4 3230 3231 3125 3356
4 2373 2807 2528 2806
4 5792 988 987 979
4 3231 3902 3496 2633
4 3231 3125 3356 3362
4 3816 4834 5700 5801
4 5794 989 990 998
4 4440 121 120 1274
4 2564 2714 2313 2995
4 5802 5539 5803 4560
4 4996 979 4942 980
4 4978 4964 3707 534
4 3299 2719 3294 2864
4 5037 989 997 988
4 5034 590 581 50
4 4978 4977 535 534
4 3816 5801 3058 2720
4 2302 3041 2399 2318
4 5014 990 989 981
4 5794 990 999 998
4 3873 983 5780 982
4 5744 5746 1512 1521
4 5027 991 999 990
4 2475 2306 2307 2308
4 5038 5036 5010 5049
4 4996 4942 979 4943
4 3420 3426 3753 3711
4 5792 988 5015 987
4 5102 577 568 569
4 2686 2970 3666 3741
4 3397 3741 3710 3398
4 4431 3010 3011 3945
4 5789 995 986 162
4 5804 983 992 5780
4 3742 3666 3703 3397
4 4517 1003 1011 1002
4 3012 3011 3703 4929
4 5805 1001 1002 1010
4 2684 3937 3703 3439
4 4193 1012 1003 1004
4 4164 1998 1990 3814
4 1989 4164 1998 1990
4 3814 4988 4121 4047
4 4450 1010 1018 1009
4 3814 3812 2007 2008
4 3814 4164 3924 4988
4 5771 994 986 995
4 3924 3815 3812 3814
4 2007 3814 3924 3812
4 4113 987 996 48
4 3762 3761 5328 4143
4 5015 996 987 988
4 5036 5010 1007 5011
4 5038 5010 5036 5011
4 5015 997 996 988
4 2665 4396 2663 5195
4 5039 5017 562 563
4 5032 571 570 562
4 4856 492 483 484
4 5692 5257 3692 5806
4 5037 998 997 989
4 5760 5662 5633 5807
4 2665 2664 2289 4394
4 5011 999 1007 998
4 3205 5032 3206 4168
4 2665 4394 4421 5197
4 5062 52 599 51
4 5127 607 598 599
4 4949 2512 3989 4536
4 4535 3991 4536 4949
4 4949 2506 5808 3186
4 5809 1000 1008 999
4 5810 1001 1010 1009
4 2509 4949 3186 2506
4 2509 4949 2512 3989
4 4191 5811 1170 5277
4 5145 4535 2512 2506
4 4946 994 1002 993
4 4519 4517 1012 1011
4 4949 2506 4535 5808
4 4945 995 1003 994
4 5120 1002 1001 993
4 5812 5813 2077 5814
4 5815 164 165 1013
4 5759 163 1004 995
4 5811 1170 5277 5816
4 2414 2415 2566 2416
4 4517 1011 1003 1012
4 4194 166 1022 165
4 4434 2416 5817 4731
4 2415 3002 2416 3003
4 3324 5340 4841 3750
4 2416 4434 3551 4731
4 3556 3751 4731 2420
4 2417 4841 3556 3751
4 2576 3176 2698 3180
4 5789 2022 2031 163
4 3183 3454 3455 3452
4 4910 4857 1463 1454
4 5067 589 588 580
4 5490 5032 5033 5017
4 3022 3021 3026 3372
4 3372 3053 3178 3452
4 5035 4966 572 581
4 5049 1015 1006 1007
4 3206 578 569 570
4 5054 5049 5818 1015
4 5054 1014 1005 1006
4 5011 1008 1007 999
4 3860 3239 3143 3864
4 4122 1027 1026 1018
4 3001 2417 2415 2972
4 3987 3226 3702 3985
4 3008 3822 3002 3003
4 3012 4929 3937 3702
4 2846 2930 3486 2929
4 5036 1007 1006 998
4 3444 5819 5338 2930
4 4756 3444 5819 5338
4 5779 5014 981 990
4 4349 5022 5056 3648
4 5010 1016 1007 1008
4 2930 2929 3443 4257
4 2930 3443 4258 4257
4 3686 1274 4443 4440
4 5819 3443 4258 2930
4 2726 4351 5820 5745
4 5810 1009 5809 1000
4 5805 1010 1002 1011
4 5816 1180 3744 3745
4 5428 5429 5821 5432
4 4971 1522 1530 1521
4 2930 5338 3486 4258
4 2906 2904 2908 3604
4 4193 1012 1004 1013
4 4085 4087 2015 2014
4 5429 1019 1020 1028
4 2508 2510 2494 2497
4 5815 2040 2049 165
4 3673 3699 3847 3603
4 4195 1013 1021 1012
4 4521 2050 2049 2041
4 5785 2041 2032 2033
4 2497 3603 820 5584
4 2497 3699 3603 5584
4 2497 3603 5580 820
4 2497 3699 5516 3700
4 2497 2510 5580 4272
4 5165 2061 2069 2060
4 3904 5822 2579 4409
4 3327 2757 5823 4777
4 2757 2579 5823 4777
4 5063 599 598 590
4 2472 2864 4028 3298
4 4440 120 121 294
4 5054 1015 1014 1006
4 3967 2757 5823 3327
4 5005 598 597 589
4 5062 5106 5063 5064
4 4992 3967 5055 2757
4 2576 3904 3328 2579
4 4418 294 4417 4440
4 5816 5343 5824 1178
4 3088 4199 1530 1539
4 4271 1539 1548 1547
4 5146 54 617 53
4 3328 3907 3385 4990
4 2757 3328 4990 5823
4 2946 5090 2947 1026
4 2516 3035 2905 2906
4 2513 2517 2424 2514
4 2948 5148 5106 5825
4 5147 617 616 608
4 5666 1025 1016 1017
4 5010 1017 1016 1008
4 2654 3035 2907 3045
4 2438 3077 3288 3291
4 4122 1018 1017 1009
4 4450 1019 1028 1027
4 5757 5433 5090 1027
4 4122 1026 1017 1018
4 3958 5005 5063 5127
4 2641 2646 2643 2642
4 2682 2698 3023 3181
4 4520 2050 2041 2042
4 2523 2061 2052 2053
4 3904 4138 3905 3911
4 3183 2640 2401 3451
4 5799 1019 1011 1020
4 2397 2428 3041 2646
4 4194 165 1022 1013
4 2397 2304 3041 2399
4 5602 5579 3046 3105
4 5602 3035 3572 5578
4 4195 1021 1013 1022
4 5602 857 4699 856
4 5602 3572 3046 5578
4 4193 1004 4945 5815
4 5826 1031 1022 166
4 5602 848 5578 5579
4 5602 4699 857 3105
4 3573 2352 2608 5707
4 5816 3745 3743 5343
4 3805 2348 2344 2349
4 2344 2347 3477 2349
4 3176 3182 3181 3920
4 3180 2576 2760 2698
4 4521 2049 2040 2041
4 5034 1014 1023 51
4 5053 1023 1014 1015
4 3020 2650 3027 3026
4 2474 2761 2570 2758
4 3017 3314 3014 3640
4 5092 606 597 598
4 5053 1024 1023 1015
4 5064 1042 1041 1033
4 5067 589 5063 5005
4 2892 1045 1044 1036
4 5818 1024 1015 1016
4 5816 5811 1169 5824
4 5736 3641 5590 5798
4 5818 1025 1024 1016
4 5102 4168 3206 569
4 5006 597 596 588
4 3145 5112 2258 4999
4 5736 5798 5590 4899
4 3319 4923 5796 4899
4 3836 5078 4506 4985
4 2947 1034 1025 1026
4 3836 5144 5078 4986
4 4892 3643 3318 4313
4 5046 3319 4923 5796
4 3319 3584 3215 5798
4 5666 1026 1025 1017
4 3532 3530 5827 5828
4 5084 596 595 587
4 4450 1027 1018 1019
4 3319 3584 3318 3215
4 2582 3164 3928 2965
4 2464 2965 3928 2463
4 5090 1036 1035 1027
4 5053 5106 1023 1024
4 5518 4783 3946 3949
4 2816 2814 4960 2817
4 5429 1028 1020 1029
4 5829 5830 5493 5831
4 5433 1028 1037 1036
4 5816 1178 5824 1169
4 5832 167 168 1040
4 4783 3946 3094 5518
4 5518 5519 4593 4788
4 4788 5518 3094 4593
4 3038 5518 3661 4593
4 5832 2067 168 167
4 2439 2438 2447 3291
4 5638 1029 1021 1030
4 4593 4788 4026 3094
4 5833 1039 1047 1038
4 2577 3904 2579 2578
4 3183 2401 2971 3453
4 5640 1030 1022 1031
4 2640 2400 2641 3138
4 3788 3372 3026 3451
4 5256 1075 1083 1074
4 3185 4138 3911 3912
4 3184 3180 2576 3385
4 5826 1031 166 167
4 5834 1040 1048 1039
4 3180 3176 3177 2576
4 3177 4136 4137 3179
4 5106 1033 1032 1024
4 5144 616 615 607
4 3996 5364 5835 5836
4 2839 2373 3228 2632
4 5825 1033 1024 1025
4 5837 2053 2044 2045
4 5154 625 616 617
4 5825 1034 1033 1025
4 4986 615 614 606
4 5092 5127 607 598
4 5062 5106 5064 1032
4 2892 1044 1035 1036
4 3819 3565 5665 5038
4 2280 5229 4891 4856
4 4036 2179 2188 2187
4 3463 2937 2390 4095
4 2947 1035 1034 1026
4 4507 5246 5072 5073
4 2894 1043 1034 1035
4 5146 53 1041 54
4 2890 56 635 55
4 4182 1032 53 52
4 2374 3318 2934 2936
4 2809 2934 3932 3246
4 5431 1036 1037 1045
4 3918 3230 3550 3923
4 5635 2068 2059 2060
4 5838 1031 1039 1030
4 2361 2362 2221 2363
4 5432 1037 1029 1038
4 5839 1055 1063 1054
4 5832 1040 1031 167
4 5840 2660 3193 4924
4 2698 3384 3181 2699
4 2303 3334 3482 4412
4 5830 2070 2061 2062
4 5841 1047 1056 1055
4 5838 1039 1031 1040
4 3020 3021 2650 3026
4 2469 2470 2697 2471
4 4418 121 4440 1265
4 2845 2691 3248 2929
4 2914 2969 2917 2554
4 3676 5842 3732 4505
4 4356 1076 1067 171
4 2894 1044 1043 1035
4 3072 3065 3068 3415
4 4182 1032 1041 53
4 3073 3769 3070 3733
4 5064 1041 1032 1033
4 5163 1041 5064 1042
4 2659 3762 3760 3913
4 2289 2662 2290 2664
4 5843 1060 1051 1052
4 5188 635 634 626
4 4985 624 623 615
4 1265 1274 121 4440
4 5844 1051 1042 1043
4 2662 3761 2661 4927
4 3676 3151 5842 4727
4 3762 5845 3913 5840
4 4182 5064 1041 1032
4 5148 1043 1042 1034
4 3307 622 613 614
4 3977 5147 3958 5163
4 5846 1059 1050 1051
4 2659 2660 3762 3913
4 5840 5847 3193 1109
4 5077 1053 1044 1045
4 3309 613 604 605
4 2520 2527 2519 5305
4 2517 4289 4291 2519
4 2371 1121 1120 1112
4 5032 5017 4966 571
4 2250 2274 2285 2277
4 855 4474 4279 4291
4 3989 3990 3770 4651
4 5848 2078 2069 2070
4 3989 3990 4651 2512
4 5849 1578 1587 1586
4 3989 4414 4537 4415
4 4837 1406 4838 1405
4 5848 2079 2078 2070
4 5850 1065 1057 1066
4 4837 4838 1406 4239
4 4337 3765 3926 4837
4 5851 168 1049 1040
4 4640 4239 4837 5395
4 4640 5395 4837 5396
4 3925 5738 3919 4262
4 5852 1049 1058 1057
4 5850 1057 1065 1056
4 3925 3919 5738 4164
4 3800 3229 4988 3457
4 3918 3919 3925 4164
4 3918 3919 3923 3550
4 3356 3921 3230 3229
4 4356 171 172 1076
4 5853 1056 1048 1057
4 2297 2810 2807 2934
4 5854 169 170 1058
4 5149 5146 54 617
4 3916 4924 5840 5847
4 5163 1042 1050 1041
4 5079 634 633 625
4 5078 5144 5154 616
4 5194 643 634 635
4 5846 1060 1059 1051
4 3918 3800 3229 4988
4 3918 3921 3230 3923
4 5079 633 624 625
4 3663 5855 5007 4261
4 5005 5092 598 5127
4 3918 2852 3230 3800
4 5844 1052 1051 1043
4 3877 5223 5234 3878
4 5349 5272 1078 1087
4 2480 2958 2581 2478
4 5364 1061 1052 1053
4 5688 5760 5717 5633
4 4444 4450 5810 1010
4 5856 1046 1054 1045
4 2239 1558 1549 1550
4 5820 1531 1522 1523
4 3713 3714 4482 3851
4 2913 1053 1052 1044
4 3713 3577 3500 4445
4 2261 3495 3714 3851
4 5856 1046 1055 1054
4 3577 4445 5420 3500
4 2204 2206 2262 2260
4 5857 5645 5409 1082
4 4501 5194 5858 5272
4 5850 1057 5859 1066
4 5814 2078 2077 2069
4 5841 1055 1046 1047
4 2202 2601 2595 2259
4 2204 2261 2262 3495
4 5860 5861 5862 5863
4 5087 1547 5411 1548
4 3234 5864 3886 3583
4 3234 5864 3887 5767
4 3234 3237 3886 5864
4 3112 2762 3113 2288
4 2762 3113 2288 3114
4 2588 3886 3236 2593
4 5861 173 174 1094
4 5865 5833 5866 5821
4 5859 1057 1058 1066
4 5834 5867 5868 5851
4 3234 3235 3114 3236
4 3234 3114 2589 3236
4 3347 4462 3348 5301
4 2860 3884 3885 3348
4 3885 3567 3082 3039
4 5432 4151 4438 4669
4 5869 1067 1058 170
4 5188 625 5154 626
4 5218 642 633 634
4 4921 3885 5301 4173
4 3536 4441 5870 4539
4 5237 671 670 662
4 3536 3537 4587 4539
4 3140 3142 2481 2950
4 5243 653 652 644
4 5247 662 653 58
4 5072 1068 2890 1059
4 3406 2423 3381 4778
4 3536 4441 4224 4990
4 5843 1061 1060 1052
4 5246 5349 1078 1079
4 5073 1061 1069 1060
4 5245 661 652 653
4 5252 1602 5221 1593
4 3536 3385 4441 4990
4 5149 5846 1059 1050
4 5236 652 651 643
4 3449 3409 4755 4072
4 5364 1062 1061 1053
4 5871 1072 1071 1063
4 5872 1597 1606 1605
4 3447 3445 4072 5352
4 3950 606 5144 4986
4 5194 644 5243 643
4 5836 1070 1061 1062
4 5285 60 671 59
4 3447 3445 5352 2886
4 5826 5873 5812 2067
4 3447 2886 3416 3417
4 2779 2777 2877 2776
4 4151 4713 5874 5162
4 5871 1063 1071 1062
4 5858 1078 1077 1069
4 5839 1063 1055 1064
4 3447 3417 2887 2886
4 3250 5875 4021 4022
4 5876 2103 4356 5869
4 5859 1066 1058 1067
4 5644 1074 1073 1065
4 4669 5428 5471 5866
4 2845 2689 3444 3409
4 3736 2824 5877 3966
4 3713 4481 4514 5634
4 3736 4694 4218 4192
4 3735 4750 3371 5274
4 5273 4192 3736 4218
4 4675 3736 4694 4218
4 4312 3875 4939 4344
4 5813 2087 2086 2078
4 3575 3491 3520 3481
4 3477 3480 3479 4126
4 3210 4938 5680 3929
4 3481 3172 3475 3520
4 5878 2123 2122 2114
4 5869 1067 170 171
4 3711 3712 5116 3753
4 3424 5259 5260 3942
4 3389 3710 5436 5123
4 5210 5211 659 5239
4 2257 88 1571 1562
4 5072 1069 1068 1060
4 2203 3158 3155 3157
4 2205 2818 2558 2338
4 5026 651 650 642
4 5348 1097 1096 1088
4 2255 2257 1562 88
4 2607 3158 3565 3156
4 5879 2114 2113 2105
4 5073 1070 1069 1061
4 3168 2923 5880 3570
4 5836 1071 1070 1062
4 5041 650 649 641
4 2190 3383 3222 2198
4 3158 3156 4450 4122
4 3377 3378 3376 3099
4 5041 649 640 641
4 5192 1079 1070 1071
4 2759 3154 3714 5428
4 3155 4670 3157 4713
4 3309 614 3307 613
4 3541 3276 2781 3542
4 3994 5836 4507 5073
4 5881 2136 2135 2127
4 3490 3586 5882 3810
4 5646 1066 1074 1065
4 2841 4121 3982 3811
4 3459 5777 4121 3457
4 3490 5777 5883 5884
4 3493 3586 3490 3810
4 5646 1074 1066 1075
4 5867 2086 2085 2077
4 3459 3490 5777 3489
4 5255 1084 1092 1083
4 2362 2853 2364 2365
4 5885 1075 1067 1076
4 2853 3126 5152 3466
4 5088 2088 2096 2087
4 3797 3263 3796 4262
4 3279 2854 2851 2850
4 4601 2851 2854 3919
4 2340 4655 2343 5886
4 3773 4601 3771 3263
4 5255 1092 1084 1093
4 3263 4601 3771 4262
4 2707 2750 2726 2755
4 2725 5820 2726 4351
4 5198 1068 1077 57
4 2725 4351 5545 5820
4 5858 1077 1068 1069
4 4293 4294 5185 3277
4 3870 5271 5887 4073
4 5272 1078 1086 1077
4 3277 4293 5184 5185
4 5349 1079 1087 1078
4 5224 62 689 61
4 5258 666 5254 657
4 4294 5556 5185 4493
4 5888 1089 1080 1081
4 4505 5889 5871 5890
4 5265 670 669 661
4 5193 5546 5243 5247
4 3812 2016 2017 4091
4 5891 4001 5892 5208
4 5296 678 677 669
4 5326 689 688 680
4 5893 1088 1079 1080
4 4082 3357 5164 4087
4 5894 1115 1114 1106
4 4082 4092 3852 4083
4 5078 625 5188 5079
4 5309 5307 5895 5237
4 5348 1096 1087 1088
4 5645 1074 1082 1073
4 4091 5453 2837 3903
4 4091 2016 2017 5452
4 4091 2837 2834 3903
4 4082 5166 4091 4086
4 3996 5835 5077 5896
4 4091 5452 4092 4086
4 5409 1083 1092 1091
4 2833 2838 2832 2834
4 5863 1076 1084 1075
4 4809 3501 2623 2834
4 3173 2834 3501 3852
4 5057 1594 5897 5898
4 5860 172 1085 1076
4 3212 3719 2809 3210
4 2835 3173 3501 3496
4 2832 3491 3092 3475
4 5899 1085 1094 1093
4 2737 5900 2736 3366
4 3772 3622 3363 2222
4 2257 87 1571 88
4 5859 5869 4356 1067
4 3622 3363 2222 2737
4 3900 3726 3729 2185
4 2729 2728 2616 4827
4 5901 1094 1102 1093
4 3302 3310 3309 3304
4 3134 4985 3135 3307
4 2960 2961 2963 3837
4 3137 2561 3730 3674
4 5238 679 670 671
4 3950 3535 5144 2963
4 5546 1096 1095 1087
4 591 2258 2255 600
4 2214 4438 3239 5227
4 5226 672 78 79
4 2255 2257 87 600
4 2961 3309 5086 3950
4 4240 4244 2941 4252
4 5265 5248 661 660
4 5349 1088 1087 1079
4 5888 1090 1089 1081
4 3798 5436 3470 5902
4 5210 668 667 659
4 3798 5902 3470 5361
4 3798 3395 3470 5436
4 3128 2108 3127 2109
4 5618 4778 5903 4765
4 5893 1089 1088 1080
4 5130 5129 5131 4048
4 5904 1097 1088 1089
4 3692 5905 4008 3652
4 3798 3395 3799 3470
4 5321 3113 5258 5751
4 2166 3729 2167 4655
4 2941 4244 4560 4252
4 3247 4849 3253 2883
4 3249 2883 2667 4846
4 5217 648 657 656
4 5207 2123 2114 2115
4 5225 1114 1122 1113
4 2883 2667 4846 4927
4 5234 2115 2106 2107
4 5409 1091 1082 1083
4 5906 1093 1102 1101
4 2883 5907 2879 5908
4 5908 5907 4846 2883
4 5234 2116 2115 2107
4 3238 5470 3714 2820
4 5470 3859 5156 5909
4 5470 3714 2820 5829
4 5470 4825 3864 3859
4 5910 1111 1119 1110
4 5470 2820 4825 5829
4 2559 2562 3675 5469
4 5861 1094 1085 173
4 3675 4502 3674 3995
4 5911 1094 174 1103
4 2562 2559 2855 5469
4 2334 2339 2338 2556
4 2255 87 591 600
4 2559 2855 5469 5161
4 5238 5269 670 679
4 2635 3459 3493 3492
4 2214 3143 4153 3239
4 5247 1086 1095 59
4 3308 5086 3310 5827
4 5546 1095 1086 1087
4 5307 1105 1104 1096
4 5895 2879 5269 5907
4 3535 2961 3950 3134
4 2241 2591 2555 3135
4 3302 3136 2555 3305
4 5353 5331 698 5351
4 2255 88 591 87
4 5331 697 688 689
4 5322 676 667 668
4 5143 2981 2477 2986
4 5322 677 676 668
4 2467 2468 2466 2233
4 5845 1099 1090 1091
4 2465 2588 2459 2591
4 5912 1098 1089 1090
4 5904 1098 1097 1089
4 5391 686 677 678
4 5406 5890 1063 1072
4 5913 2140 5297 2141
4 4686 2591 5178 2242
4 2724 3299 3351 3349
4 5912 1099 1098 1090
4 4289 863 4279 864
4 5236 5248 651 652
4 2313 4133 3060 2568
4 4284 5097 630 629
4 2567 2568 3752 3551
4 1099 3762 5912 1107
4 5914 1092 1100 1091
4 5840 1100 1109 1108
4 3060 3059 3299 3349
4 5845 1099 1091 1100
4 2568 5500 3551 4133
4 2568 5500 4133 3547
4 5847 1110 1109 1101
4 5139 5849 3342 3345
4 5915 175 176 1112
4 5910 1120 1119 1111
4 3383 1220 1219 1210
4 3508 3929 3707 4308
4 3508 3707 3929 3930
4 2938 2944 2530 2528
4 3240 2944 3723 3212
4 5901 1102 1094 1103
4 3474 3229 3815 3357
4 4309 4938 4308 4343
4 5911 1103 174 175
4 3162 4312 2633 3211
4 3934 4926 5916 2734
4 2919 2735 3934 3933
4 3934 2918 3257 2919
4 5857 1073 5645 1082
4 4484 5917 5614 5918
4 2384 2678 3844 3847
4 5285 1104 60 1095
4 2375 2384 2676 2380
4 5307 1096 1104 1095
4 2677 5375 3699 4207
4 5071 1104 1113 61
4 5894 1114 1105 1106
4 4607 2678 4023 2683
4 2676 2380 2679 4023
4 5225 1114 1113 1105
4 5391 678 687 686
4 2384 3844 2678 2679
4 5840 1108 1099 1100
4 3490 5884 5883 5882
4 5025 5026 5239 650
4 5919 5072 4501 5188
4 4072 3416 5352 1208
4 2678 5375 5126 3847
4 3886 5920 3340 3343
4 5864 3343 5921 5922
4 5921 5204 5181 5159
4 5322 668 5296 677
4 5387 65 716 64
4 3770 4279 4732 4652
4 5133 1628 1620 1629
4 3886 2593 5923 3236
4 5406 1064 1072 1063
4 4663 5924 1146 1155
4 3234 3886 3237 3236
4 3234 3542 3887 3114
4 5915 1112 1103 175
4 2341 1103 1111 1102
4 4208 5925 307 4472
4 4208 5926 4878 4034
4 5816 1180 1179 1170
4 4208 5925 4035 306
4 3495 4825 5829 5449
4 2341 1111 1103 1112
4 4654 1139 178 179
4 4208 5762 4035 4034
4 5927 2131 2122 2123
4 3970 4034 3938 4208
4 3441 3975 3970 4569
4 4208 306 307 5925
4 5762 4208 5510 3938
4 3463 4093 4095 4116
4 3424 4432 5260 4431
4 5028 4431 3742 3943
4 5353 64 707 63
4 3193 4143 1108 1117
4 5928 5289 684 5335
4 5238 5326 679 680
4 3365 4056 5929 3153
4 5930 4847 5392 5393
4 2970 3741 3423 3425
4 5931 1115 1123 1114
4 3425 3470 3397 3710
4 3424 3709 3940 5259
4 3781 3780 4950 5724
4 2840 4121 3814 4988
4 5281 5932 1131 1122
4 4901 5727 5647 3794
4 3794 3015 3017 5727
4 4036 3419 5222 3900
4 3791 4875 4238 5641
4 3794 3017 4901 5727
4 4875 3794 5641 3791
4 5933 5934 4851 5110
4 3194 1118 1127 1126
4 5749 1109 1110 1118
4 3629 2935 3630 3631
4 3629 3246 3243 3630
4 5299 5373 5385 713
4 4094 3633 3634 3631
4 3628 4361 3635 4094
4 3582 2807 3246 2935
4 3212 2809 3719 3241
4 3240 3243 3629 3246
4 3240 3582 3629 3245
4 5749 1119 1118 1110
4 2371 1112 1120 1111
4 3620 1639 1630 1631
4 5935 176 1121 1112
4 3012 3708 3702 3937
4 5297 5862 5927 2131
4 3442 3012 2687 2684
4 3012 2684 3937 3703
4 4657 1121 1130 1129
4 3703 3937 5673 3439
4 5862 2131 2130 2122
4 3423 5339 3013 2646
4 4656 177 178 1130
4 2641 2400 2397 2648
4 3420 3473 3710 3712
4 4297 2170 2161 2162
4 3423 2649 3138 3709
4 5888 5936 5203 1081
4 2648 2646 3013 2428
4 2400 3138 2640 3468
4 4750 3735 4675 5274
4 5937 2039 236 2048
4 5225 1123 1122 1114
4 2827 2974 4557 3186
4 2827 3186 4795 3968
4 2653 2827 3186 2974
4 2410 2329 4491 2412
4 5938 1132 1123 1124
4 4077 716 715 707
4 3225 2472 4028 2376
4 3963 3327 5669 3966
4 1510 5096 1509 5939
4 4186 3253 5391 4127
4 2862 2823 2824 2822
4 4952 1491 5093 238
4 2360 3369 3740 3371
4 5932 1132 1131 1123
4 2467 2673 2631 2466
4 5931 1115 1124 1123
4 5282 1135 1126 1127
4 2462 2458 2791 3303
4 5372 4258 5279 1186
4 2950 2790 2335 2812
4 5940 694 695 703
4 2950 2216 2790 2812
4 5941 1134 1133 1125
4 5942 2154 2162 2153
4 3745 1180 1189 1179
4 4076 1159 5943 1168
4 5280 712 703 704
4 2561 2466 3676 3841
4 3858 2178 2177 2169
4 3705 5924 4714 5944
4 5929 2181 3153 2180
4 3695 1129 1138 1137
4 5283 1134 1126 1135
4 2460 3175 2785 2954
4 4191 1160 1170 1169
4 2558 2562 2212 2456
4 4276 1127 1119 1128
4 4276 1127 1118 1119
4 5070 3345 5139 3667
4 2334 2205 2558 2338
4 3875 3496 3172 3520
4 3130 5070 5139 3667
4 5945 2158 2343 2149
4 5946 2142 2150 2141
4 3284 3701 4290 1192
4 2571 191 192 1166
4 3131 3667 3130 5139
4 2713 3146 3345 3131
4 3130 3607 3690 2784
4 4656 1130 1121 177
4 4657 1129 5947 4204
4 2784 2237 1558 5410
4 2829 3667 3130 3131
4 2934 2935 4948 3246
4 4948 2935 3630 3246
4 4655 2166 2157 2158
4 2944 2807 2806 2528
4 2810 3932 2809 2934
4 5281 5353 5284 5331
4 3628 3629 3635 3636
4 5932 1123 1131 1122
4 3635 2937 2935 3631
4 3582 3629 2935 3246
4 5392 1133 5938 5948
4 5402 1158 1167 66
4 5353 5284 1140 1131
4 4075 2 66 65
4 4191 5949 5950 1151
4 5950 1150 1141 1142
4 5940 4127 695 694
4 1501 1510 5096 1509
4 2937 2933 2935 3631
4 5951 1177 1176 1167
4 2631 2674 3152 2233
4 4186 695 686 687
4 2389 2300 2937 2390
4 5951 5943 5824 1168
4 5342 694 703 702
4 2202 2259 2595 2260
4 5392 1141 1133 1142
4 4076 1159 1168 1158
4 5281 5932 5284 1131
4 3479 3481 2347 3575
4 2203 2607 2601 3156
4 5918 5917 5453 4484
4 4714 1173 1163 1164
4 5946 2151 2150 2142
4 5950 1151 1142 1143
4 2261 3851 5493 3495
4 2346 2610 2347 2609
4 2601 3575 2610 2609
4 2601 3565 2607 3819
4 5816 1169 1179 1178
4 1129 3698 1138 5947
4 5952 1146 1145 1137
4 3695 1137 1128 1129
4 2345 2943 2939 2700
4 2346 2610 3573 2352
4 3963 3967 3968 5055
4 3963 3965 2824 3966
4 4503 1175 1184 1174
4 5947 1130 1138 1129
4 5953 1138 1139 1147
4 3963 5055 3964 3965
4 2822 3326 3966 2863
4 5954 2184 2193 181
4 3225 2472 2864 4028
4 3326 3966 5781 5669
4 2822 2757 2756 3968
4 3327 5291 5286 4777
4 3419 5222 3221 4036
4 3463 4095 2390 4172
4 3635 3808 4095 5955
4 4095 4116 4093 5955
4 5284 1141 1140 1132
4 5392 1141 1132 1133
4 3225 2376 3615 2378
4 5956 67 68 715
4 5951 5957 4076 5956
4 5387 1140 1149 65
4 2761 2719 2475 2716
4 714 68 5373 69
4 4952 238 5093 2021
4 2826 2701 2831 2407
4 5335 684 692 683
4 4076 5402 1167 5956
4 2681 3181 2699 2680
4 2471 2697 3482 3908
4 5393 1141 1149 1140
4 4022 5944 3744 5277
4 5093 237 238 1491
4 5937 5958 4265 1518
4 2375 2676 2384 2385
4 3225 4028 3615 2376
4 4028 4293 4027 3298
4 2469 2472 2471 3298
4 2736 3366 2729 2737
4 3654 5391 5296 4161
4 3216 3935 3560 3254
4 684 685 5928 693
4 5959 1144 1152 1143
4 2882 4849 3253 5306
4 5824 1178 1168 1169
4 2806 3774 3834 3789
4 2729 2615 4827 2616
4 2440 2330 2918 2324
4 2728 3254 3896 3933
4 5960 1145 1154 1153
4 2728 2616 4827 5961
4 3080 4327 3083 2312
4 4074 5949 189 1150
4 3739 3827 2356 5734
4 3705 3721 3698 3704
4 5406 1063 5839 1064
4 5952 1137 1145 1136
4 3739 2354 2355 2356
4 2357 2355 2356 3738
4 2496 2866 3384 2500
4 3657 2184 2185 2193
4 2639 2612 4108 5962
4 4654 1139 1130 178
4 3848 4101 3604 3605
4 2639 4109 3807 5347
4 2636 3490 3658 3659
4 2387 3658 3622 2615
4 5963 4714 1172 5944
4 3463 2388 2639 4172
4 3313 3672 3914 4385
4 2674 3313 4727 2786
4 3840 2218 2786 2787
4 5943 1169 1159 1160
4 3313 4727 2786 4385
4 2497 5580 2510 3700
4 4075 190 2 1149
4 4074 1159 1158 190
4 2788 4384 4387 3311
4 5393 1141 1150 1149
4 4075 1158 66 2
4 2357 2360 3371 3107
4 2355 3832 5964 5734
4 5353 5284 5393 1140
4 5573 2355 3832 5964
4 5093 5612 5094 5096
4 5950 1150 1142 1151
4 5949 1150 1151 189
4 5811 4191 5959 5277
4 5965 4914 4855 5384
4 2355 2974 4041 3548
4 2355 5964 3548 5734
4 2825 3548 2827 2974
4 2356 3832 2355 5734
4 5950 1151 1143 1152
4 5960 1153 1144 1145
4 5959 1152 1144 1153
4 5966 187 1152 1153
4 4711 5580 2510 4682
4 5404 1144 1143 1135
4 5816 3745 1179 1180
4 2591 3136 3135 3731
4 3234 2590 3887 3583
4 2244 3979 2243 3151
4 2243 2591 3731 2242
4 5913 2150 2149 2141
4 4265 1527 234 1518
4 4662 1164 1165 1174
4 3151 3152 4726 4727
4 2457 2458 2459 3325
4 5427 183 1157 182
4 3676 4502 3675 4505
4 2233 2231 2241 3151
4 3895 5290 3768 4777
4 4324 5330 3589 3590
4 2997 3596 3595 3589
4 2997 2994 2999 2996
4 4606 4551 5290 3895
4 5427 1156 1157 183
4 2718 3058 5287 4352
4 3849 191 182 5
4 3589 3058 2996 5287
4 3777 2838 2624 2940
4 3781 4808 4484 5724
4 2836 4484 3781 3782
4 5967 5968 1527 4266
4 4657 2371 4656 1121
4 2624 3778 3779 3032
4 3778 4950 3781 3780
4 3781 3777 5724 4950
4 4070 3782 3781 4808
4 2940 2941 2939 3779
4 4191 1152 188 1151
4 2836 3458 2941 3780
4 4062 4779 4741 4740
4 2410 2408 4062 4491
4 4062 4125 4780 4491
4 4900 4272 5580 4682
4 4124 4282 4063 4062
4 4665 2185 3726 2573
4 4665 3726 2185 3729
4 5387 5351 5353 707
4 4191 188 1152 187
4 4661 4665 3806 4664
4 4665 3698 3727 5947
4 1510 1518 5958 5939
4 4665 3806 2573 3726
4 3603 4272 829 3604
4 4665 3806 4664 3657
4 4661 3698 4665 5953
4 5966 187 1153 186
4 2782 5441 2279 2772
4 5277 1161 1171 1170
4 2772 2782 5397 5241
4 2772 5753 5969 2973
4 2338 2603 3201 2752
4 5944 1172 1171 1162
4 3158 3156 4122 3565
4 3156 4122 3565 3564
4 4444 3154 4515 4445
4 5960 5944 5388 5924
4 4900 828 5580 829
4 2601 3819 2610 3574
4 2601 3575 2597 3576
4 2601 2609 2597 3575
4 5427 1165 5970 183
4 4607 5298 4023 2679
4 5427 3849 182 1157
4 2380 4020 2378 2379
4 3028 4023 5125 5250
4 5298 2679 4610 4019
4 3716 3721 3727 3728
4 5298 4023 2679 4024
4 2676 2678 2683 4023
4 5111 5109 2147 224
4 2379 3844 4610 3846
4 2380 4019 2679 4024
4 3371 2899 3735 2823
4 3441 4568 3440 4567
4 2824 3966 4192 2863
4 2822 3966 2824 2863
4 3736 2824 3966 4192
4 5372 714 5956 1176
4 5949 188 189 1151
4 3435 3434 3430 3599
4 3427 3437 3434 3436
4 3430 3428 3429 3955
4 2971 2403 3888 3453
4 3888 3912 3438 4037
4 4074 4075 190 1158
4 5371 704 695 696
4 3951 3599 3430 3954
4 5388 1154 186 1153
4 5315 1599 225 226
4 4581 5283 5875 5941
4 5952 1145 1144 1136
4 3427 3438 4461 3428
4 2588 3340 2457 3325
4 2588 3325 3886 3340
4 4128 1155 184 185
4 2593 3236 2987 5923
4 2593 3340 5971 2989
4 1509 1518 1510 5939
4 5408 1173 1183 1182
4 4191 1152 5966 187
4 4076 1167 1158 1168
4 3621 4187 5080 3310
4 5824 1177 1168 1178
4 4128 1164 1163 185
4 5970 1164 184 1165
4 3936 3939 4642 5972
4 5970 1155 1156 184
4 2454 2466 2561 2456
4 5388 1163 1162 186
4 5963 1172 1173 1182
4 3308 5827 2733 5358
4 3134 2557 2961 3308
4 3697 1138 1147 1146
4 3308 3621 2732 2733
4 3937 3936 4011 5438
4 4662 1174 1173 1164
4 4664 1157 1156 1148
4 4664 1156 1147 1148
4 3305 3325 4348 4689
4 3849 181 182 1157
4 5427 1165 183 1166
4 3302 3304 3303 3310
4 3849 181 5 182
4 3309 5086 604 3304
4 2604 2605 2748 2932
4 5954 180 181 1157
4 5954 1157 1148 180
4 2707 2726 2749 2727
4 2750 2238 2726 2755
4 2571 191 2193 2194
4 2480 5003 2956 4346
4 2958 3602 4233 3128
4 4568 5416 4567 5440
4 5402 66 67 716
4 2480 2957 5881 2956
4 2480 4346 2956 4205
4 5819 1188 5343 3745
4 4529 5409 5407 5255
4 5331 698 5351 697
4 2462 3303 3302 2458
4 5280 4257 5299 5940
4 4279 4288 4732 863
4 3783 1203 71 70
4 5816 5277 5811 5959
4 4258 1178 1187 1177
4 5816 5811 5824 3743
4 5111 225 2138 5315
4 5973 5222 4290 4503
4 2235 2910 2236 2233
4 2959 5974 2964 2957
4 4465 2572 2195 2571
4 5959 1152 5950 1143
4 2959 4001 2955 3166
4 2480 2479 2956 5003
4 5960 5959 1153 5966
4 5404 5959 1143 1144
4 1144 4021 1135 5404
4 5369 1195 1204 1194
4 2480 2964 5881 2957
4 3459 3592 3489 5777
4 5957 5299 5371 705
4 4289 4288 4279 863
4 4121 5778 3982 3811
4 3459 3587 4121 5777
4 4121 3457 5777 4988
4 3655 686 4127 685
4 5973 4045 4290 4359
4 4128 1154 5924 1155
4 5960 5952 1145 1144
4 5960 5924 5388 1154
4 4121 3811 3813 5778
4 5354 1554 231 1545
4 3697 1146 1137 1138
4 5427 3849 1166 182
4 2330 2321 3935 2920
4 4279 4732 4652 854
4 1125 5975 1116 1124
4 3935 4639 3896 5520
4 3254 5525 5520 3933
4 2735 3254 2728 3933
4 2728 3897 5961 3933
4 3729 2176 2175 2167
4 5953 1148 1147 1139
4 2430 3219 2272 2265
4 5313 5976 4749 4690
4 5313 3044 2310 4995
4 5423 1148 1139 179
4 2398 2400 2970 2648
4 5423 179 180 1148
4 4665 5953 3657 4664
4 5313 3044 5977 5976
4 3293 3299 5609 2864
4 2826 2827 3968 3186
4 2831 3278 2864 2862
4 3294 2472 2864 2719
4 2864 5184 3277 4293
4 5951 1167 1168 1177
4 5956 1167 1176 67
4 1142 1143 5948 5950
4 2864 3277 3293 3278
4 3072 3065 2370 2342
4 2235 3148 2285 2283
4 4258 1187 1186 1177
4 3064 3070 3073 3074
4 3745 1188 1179 1189
4 3072 3070 2342 3734
4 3074 4591 3068 3064
4 3073 3074 3070 3671
4 5367 701 692 693
4 3853 3855 3856 3854
4 5966 186 1162 187
4 5924 1146 1154 1145
4 4756 1197 1198 1207
4 4256 1196 1195 1186
4 3448 3853 3854 3721
4 4107 691 682 683
4 5288 675 676 684
4 5282 1136 1135 1127
4 3655 685 677 686
4 3998 3854 3853 3856
4 2873 2876 2897 3388
4 3855 2169 2170 2178
4 2915 2250 2279 2275
4 3541 2781 2276 2772
4 5924 1155 1154 1146
4 2554 3881 5793 4697
4 4663 1147 1155 1146
4 5935 1112 2341 5915
4 3276 2541 5751 2542
4 5970 184 183 1165
4 4755 1188 1189 1198
4 5963 1182 1181 1172
4 4288 4279 4231 4289
4 3276 2541 2542 2537
4 3284 193 194 1184
4 4714 1164 4662 1173
4 2773 2276 2778 2781
4 5065 1189 1180 1190
4 3720 1190 1200 1199
4 3541 2288 2274 3276
4 4581 5941 5975 5283
4 5585 2541 5751 2781
4 2541 5751 2781 3276
4 4756 5819 4755 1197
4 3695 1127 1128 1136
4 3618 2968 4048 2915
4 3051 1202 1193 195
4 2842 2632 2839 3474
4 3066 2160 2169 2168
4 3318 3215 3584 2936
4 2571 1166 2193 191
4 3318 3932 3510 4313
4 5372 1177 1186 1176
4 3319 5796 3318 3584
4 4734 3646 4737 4735
4 3281 3262 3644 3268
4 3268 3281 3264 3647
4 4183 1205 1204 1195
4 5372 1186 1185 1176
4 3646 3281 5978 3280
4 3647 4734 3272 3646
4 2746 3647 3646 3644
4 2364 2852 3550 2854
4 3815 3924 3357 3921
4 5367 5368 702 5342
4 2842 2833 2528 2808
4 5283 1125 1126 1134
4 4204 1120 1129 1128
4 5979 4288 5604 4732
4 3173 3474 2834 3852
4 2228 2366 2362 2361
4 5937 5939 1518 1509
4 5937 236 1509 235
4 4747 4748 1400 106
4 3232 3457 3800 3592
4 3919 2851 2854 2852
4 3918 3925 3592 4164
4 5523 3179 5532 3920
4 4657 1129 1120 1121
4 4686 2242 5178 5040
4 5343 1187 4258 1178
4 3722 3695 4276 4204
4 5523 3053 3178 3182
4 5523 3179 3178 5477
4 5523 3053 3452 3178
4 5523 5477 3178 3452
4 2897 5270 5271 5352
4 3423 3941 2649 3709
4 4290 1182 1192 1191
4 5980 2143 2142 2134
4 3423 5687 2649 3941
4 4755 1199 1198 1189
4 2888 3917 4357 3386
4 3013 5341 2972 5339
4 2925 1630 1639 1638
4 3012 3011 2686 3703
4 5981 2152 2160 2151
4 3855 2170 2179 2178
4 2240 1531 3088 2726
4 3284 193 2195 2196
4 3389 3398 3397 3710
4 2927 2916 5460 5133
4 3090 2726 3089 5745
4 4747 4692 1391 5574
4 5436 3470 3389 3395
4 2726 2238 3088 2240
4 3085 2932 2625 3749
4 4256 1196 1186 1187
4 4634 4256 4183 5369
4 3085 3090 3089 3086
4 3085 3088 2726 2238
4 2659 3762 2663 3760
4 5367 692 5362 5335
4 5374 71 5403 711
4 3057 2998 2316 3767
4 1188 1197 5819 1187
4 5768 5183 5275 5982
4 4755 1190 1199 1189
4 3715 3858 2169 3855
4 3725 3724 5963 3705
4 5983 3762 5845 3913
4 4752 4732 5604 5594
4 3284 3051 3701 1193
4 5984 1624 1633 1632
4 3762 3913 5983 3760
4 2659 2245 3760 3759
4 2661 2659 2660 3761
4 2256 2505 2255 1562
4 5495 1124 1115 1116
4 5985 2140 2139 2131
4 5842 5235 5889 5936
4 72 71 5403 1212
4 5289 683 674 675
4 3224 1201 1202 1211
4 5986 4185 5359 5987
4 3051 195 1193 194
4 2663 3759 3760 4396
4 5190 1647 1646 1638
4 3762 5912 5904 3760
4 4350 2505 583 592
4 3762 5912 5329 5904
4 3701 1192 1193 1202
4 2904 4272 2906 2905
4 2657 3992 2405 3187
4 2678 2681 5375 2677
4 4072 1207 1198 1208
4 5988 1637 1636 1628
4 2420 2566 2567 3551
4 5982 1625 1634 1633
4 3011 4431 3742 4430
4 4731 3556 2420 2416
4 5988 1636 1627 1628
4 5989 1236 202 1235
4 3001 3823 3009 3324
4 4143 1117 1116 1108
4 2419 4716 5341 5340
4 5990 703 712 711
4 2640 4006 3139 5051
4 5368 711 710 702
4 5991 1222 1221 1212
4 5992 1660 5244 4201
4 4015 4642 4509 5505
4 4003 3139 4006 3756
4 3420 3422 3754 3426
4 3712 3422 3754 3420
4 5990 703 711 702
4 5993 1624 1616 1625
4 4003 4004 3784 4005
4 5991 1222 1212 1213
4 5288 676 685 684
4 5314 1214 1205 1215
4 5585 2542 4295 5344
4 5986 5991 1222 5359
4 5372 714 5957 5956
4 3159 5112 1570 1571
4 5928 5367 693 4203
4 5928 4628 4295 4304
4 5928 4295 2540 5288
4 5994 1234 5995 1235
4 5996 5991 1213 1222
4 5928 685 5288 4203
4 4072 1208 1198 1199
4 4072 1199 3416 1208
4 5928 5288 685 684
4 5928 5289 4295 5288
4 4073 1207 1208 1217
4 4106 682 5316 4107
4 3052 195 196 1202
4 2930 3444 2847 3486
4 5997 5946 2151 2150
4 2845 3444 2249 2847
4 3247 2691 3250 2667
4 5981 2161 2160 2152
4 3701 1193 3051 1202
4 2929 2539 5998 3486
4 2658 3989 2656 3991
4 4073 1216 1207 1217
4 3396 1209 1210 1219
4 5999 6000 5982 1634
4 80 663 6000 79
4 3699 6001 3700 4207
4 3603 3699 3847 5584
4 2677 3699 5375 3847
4 2859 2386 3274 2301
4 3387 3386 5355 5356
4 3885 3082 4174 3039
4 3557 3093 3219 3063
4 5386 1212 72 5403
4 3389 3393 5436 3395
4 5374 1203 1204 1213
4 5996 1205 1214 1204
4 4288 4732 862 5604
4 4071 1207 1216 1206
4 3460 4801 3465 6002
4 3062 2617 3063 3465
4 5280 5342 5940 703
4 2446 3320 3408 3322
4 5996 5314 1223 1214
4 6003 1221 1222 1231
4 2594 3926 4329 3559
4 3557 3563 3216 3560
4 3267 3899 3082 3567
4 4914 76 77 690
4 4607 5126 2683 6004
4 5126 3847 5522 4030
4 5126 3847 4030 4614
4 4627 5367 4634 4298
4 5938 5931 1124 1123
4 4106 682 681 673
4 5126 5561 3031 6004
4 3110 3763 3108 3766
4 2594 3174 2433 3927
4 5987 1224 1233 1223
4 4855 4853 75 708
4 4640 3084 3076 4995
4 6005 2182 2191 2190
4 6006 1217 1208 1218
4 5969 1632 1640 1631
4 5271 1216 1217 1226
4 3110 4640 5396 3084
4 4337 3765 3927 3926
4 2440 3374 2324 3169
4 2888 3386 5791 3917
4 1211 2754 197 196
4 6007 5270 6006 1218
4 3935 3927 4639 2321
4 2594 3560 3926 3559
4 6008 1227 1236 1226
4 2721 4716 2425 2418
4 4398 3752 2418 2723
4 2592 198 1229 1220
4 2722 2721 4398 3333
4 4398 3554 4540 3750
4 4398 3554 3333 4787
4 4398 2418 3750 4716
4 2608 3207 3205 3819
4 3171 3211 3210 2809
4 5357 3201 3200 2608
4 3573 5637 2608 5357
4 4127 694 686 695
4 5271 2897 3388 5270
4 3201 3200 2608 3202
4 5887 1216 1225 1215
4 3655 676 677 685
4 5992 6009 6010 1668
4 2610 3819 2608 2352
4 4288 871 4792 5648
4 2608 5707 5019 5637
4 4915 5992 1659 5244
4 1649 1658 1650 5360
4 5270 1227 1217 1218
4 3573 3533 2606 2351
4 2338 2962 3201 2966
4 5271 1225 1216 1226
4 3199 3196 3197 3200
4 3199 3203 3197 3198
4 5986 5987 5359 1223
4 3399 3392 3391 5673
4 3199 3202 3207 3205
4 1659 5442 5360 1658
4 6011 5355 5356 1657
4 5336 208 1230 207
4 4184 1234 1233 1224
4 2607 2608 3819 3207
4 3601 4034 4878 5370
4 2882 4849 4161 5907
4 3203 3201 2962 2966
4 3416 3418 1209 1200
4 3819 3565 5809 3574
4 5019 3205 3819 2608
4 3158 4450 3155 5757
4 2592 197 198 1220
4 5018 5489 3480 5075
4 3479 2610 3819 3574
4 3479 3481 3575 5076
4 3151 4726 2236 3914
4 592 2258 591 600
4 2669 2191 2182 2183
4 6005 3153 2443 5929
4 5531 6012 5842 5893
4 3151 5531 3732 5842
4 5531 3760 5904 5893
4 5531 6012 3732 5842
4 3760 5842 5893 5531
4 3732 4423 4469 6013
4 3979 6013 3732 5531
4 2243 4423 4469 3732
4 2569 2200 2201 198
4 5325 5451 724 3609
4 4853 3 708 74
4 5996 1214 1223 1213
4 2404 2377 2378 2411
4 3078 3290 3828 3292
4 2521 2514 2424 4494
4 2449 2422 2423 2421
4 4854 1678 1669 1670
4 4494 2421 3288 3289
4 3291 3288 3322 4643
4 3375 3380 3379 3483
4 2533 1228 1237 1227
4 2493 2267 3321 3484
4 2365 3163 6014 3125
4 3550 2364 3126 3230
4 2853 2854 3126 3466
4 2366 3637 2365 2367
4 5359 1231 1222 1232
4 5249 1677 206 205
4 2365 3125 2853 2364
4 5989 6015 6016 1673
4 2930 3486 4257 4258
4 6017 204 1233 1234
4 4853 1230 208 74
4 6018 4869 4123 5988
4 6019 1675 1674 1666
4 2634 2367 2365 3163
4 2854 3126 3466 3550
4 5995 1234 1225 1235
4 4938 3481 5680 3480
4 4997 3883 3520 3575
4 6019 1674 1665 1666
4 4939 3481 3480 5076
4 4871 221 2174 222
4 4997 3575 3481 5076
4 3171 2700 3475 2833
4 5489 5486 5018 3480
4 5018 5488 3479 3480
4 2532 1229 1238 1228
4 5270 5271 1226 5995
4 4939 4342 5014 5489
4 3480 5486 4342 5489
4 4831 1662 219 1653
4 3595 5330 3589 3596
4 3159 2257 1571 1562
4 5302 3609 5325 725
4 2687 3526 2992 3036
4 2575 2587 3024 3023
4 2714 3058 2720 3816
4 5249 6017 6020 1676
4 2564 2998 2991 3000
4 5336 1230 1231 207
4 6011 1657 1665 1656
4 3767 3590 3259 5370
4 3767 4677 3590 5370
4 2880 2879 5296 5269
4 2672 2883 5908 4927
4 6015 1237 201 1236
4 2289 2664 4425 4394
4 4692 1382 1391 1390
4 2880 5296 3654 2881
4 2880 5197 2879 5265
4 2672 2883 2879 5908
4 6017 205 1233 204
4 2672 3654 2880 2879
4 2551 2550 3879 3881
4 2279 2871 2926 2925
4 2278 2552 2554 3881
4 2550 3882 3881 3880
4 2505 592 2258 591
4 2926 5190 3882 5460
4 3028 5250 5167 4025
4 2551 2891 3368 2549
4 5045 5514 4979 4961
4 2926 5190 5105 2889
4 6016 1665 1674 1673
4 4496 4497 4806 4498
4 4497 4806 4500 4496
4 4498 4497 4806 5655
4 2332 2331 4497 2923
4 2436 200 1237 1238
4 2332 2923 2918 2324
4 2332 2320 2321 2319
4 3557 3063 3367 4331
4 4497 5655 4498 2923
4 2332 2331 2321 2320
4 4438 5228 5227 6021
4 6008 1236 1235 1226
4 6022 1672 1663 1664
4 4438 4669 5471 5866
4 4692 1382 5575 4691
4 2255 2257 88 87
4 1382 4692 1391 108
4 4438 5432 5866 4237
4 4438 4151 4237 6021
4 2213 2215 3864 2820
4 6023 221 220 2183
4 3840 4151 5227 4150
4 4747 4748 4749 1400
4 6024 5227 6021 4151
4 5227 6021 4151 4438
4 2819 3238 4438 4669
4 2819 4669 2254 2820
4 4762 3133 3637 6014
4 4310 4905 4762 3637
4 4762 4905 4958 954
4 3649 3648 1563 5056
4 4762 4936 3315 5716
4 4762 3133 946 5716
4 4762 5716 945 4936
4 3678 330 117 321
4 6022 1673 6016 6015
4 6022 4830 1672 6015
4 6025 4466 209 1680
4 6022 2533 4830 6015
4 5763 286 285 277
4 6026 1681 1680 267
4 6025 6027 6028 6029
4 6025 266 1769 7
4 6022 3917 2442 5791
4 6022 5791 2533 6016
4 5430 5757 5433 4713
4 3714 5471 6030 5814
4 3678 117 118 321
4 3714 5829 3851 3495
4 3714 5848 3851 5829
4 3713 3851 4482 5634
4 3238 4669 3714 5471
4 3714 5471 5428 6030
4 4303 295 287 296
4 6025 1680 6026 6028
4 3451 3026 3021 3372
4 2991 3588 2999 2994
4 2991 3526 2688 3525
4 5801 3817 2720 3816
4 4324 3590 4677 5330
4 6026 6028 1680 1681
4 3767 5370 3259 4677
4 3662 3259 5370 3601
4 2998 3589 3590 3767
4 5900 2736 4989 3363
4 4368 277 278 286
4 6025 7 1680 209
4 4466 210 1240 1239
4 4420 1240 210 211
4 4302 305 304 296
4 5900 5883 6031 3658
4 2737 5900 3366 3622
4 5900 4972 3366 6032
4 5900 4989 6032 5479
4 5900 3622 3591 3658
4 4138 3906 3905 4485
4 4138 3906 4485 4471
4 3904 3328 2579 5822
4 5642 5056 3649 1572
4 4138 3912 4666 4471
4 5400 1268 1276 1267
4 4419 314 313 305
4 4137 4666 4138 3185
4 3184 4136 4138 4137
4 99 4857 492 483
4 4138 3911 3912 4478
4 3447 3416 2886 5352
4 3409 3444 3410 4755
4 2247 2536 2692 2691
4 3445 4073 2876 3616
4 2249 3616 2877 2847
4 2672 2538 2666 2290
4 2672 2881 2880 3654
4 2667 2672 2538 2666
4 3249 4846 3250 5875
4 483 4910 4857 4856
4 4832 1716 1725 213
4 4911 4918 4116 1461
4 2661 3761 3191 4927
4 99 100 4857 483
4 3247 3249 3250 3252
4 4370 10 278 277
4 1454 4857 1463 100
4 100 4857 483 1454
4 2661 4581 3191 3192
4 2501 6033 2506 4795
4 2501 2506 6033 2499
4 2498 2499 2501 3538
4 4508 3506 5467 5107
4 3536 2501 4992 3538
4 4069 312 4401 313
4 4014 1262 1261 1253
4 3536 4992 3382 4990
4 3950 5092 5006 3197
4 4424 279 287 278
4 6034 1254 1263 1262
4 6035 1717 1718 1727
4 4832 214 1244 1243
4 5045 5030 4343 4307
4 5358 5006 3196 3197
4 5084 5358 5006 3196
4 2093 2102 230 5056
4 3199 3203 3207 3201
4 4349 5056 2093 230
4 4119 1735 6036 1734
4 4305 214 215 1244
4 4373 1726 1716 1717
4 4369 1734 1743 215
4 3201 3200 3197 5358
4 3203 2963 3197 3198
4 4069 313 322 321
4 5609 6037 3351 5511
4 4322 4533 1258 1257
4 3424 3711 3940 3709
4 6038 1246 1255 1254
4 4322 4054 4055 1266
4 5259 5492 3942 6039
4 3940 3944 5259 5122
4 5259 3944 5492 5122
4 5938 5284 4847 4849
4 2649 3709 3757 3756
4 4369 215 216 1245
4 6038 1245 1246 1254
4 3940 5122 5259 3758
4 5045 4177 5030 4307
4 4553 1290 5772 5700
4 5259 5454 3758 5122
4 4367 1247 2872 123
4 4509 6040 6041 1271
4 3422 3756 4451 3755
4 3426 3755 3758 6042
4 5763 276 277 285
4 2649 3941 6043 3757
4 3424 3940 3710 3741
4 4371 1743 1752 216
4 3426 3711 3709 3758
4 3426 6042 3757 3756
4 2872 8 217 1752
4 5259 6039 3942 3757
4 5259 5122 5506 5454
4 2854 4602 4601 3550
4 4051 276 2872 8
4 5045 5030 4944 4979
4 4371 6044 2872 1752
4 5418 6035 6045 4426
4 3262 3264 2850 3263
4 6046 5417 1745 1744
4 6047 265 1778 266
4 4318 1257 1266 263
4 2634 2368 2363 2364
4 3528 3838 3529 2857
4 3528 3664 2813 2727
4 4315 1786 1778 1787
4 2727 2707 2709 3528
4 2725 2707 2709 2727
4 6048 6049 1284 261
4 5045 5030 4178 4944
4 3625 3257 5721 2918
4 3934 5654 2918 2922
4 4533 1258 1257 1249
4 6027 1239 1240 1248
4 6048 1823 1814 261
4 4533 1248 1249 1257
4 6029 6050 6051 1768
4 2332 2919 2918 2922
4 3255 2918 2919 3257
4 3516 1708 1707 1698
4 3516 6028 1690 1689
4 2332 2923 4497 4498
4 4299 1249 1240 1241
4 4439 1252 1243 1244
4 2918 3257 3169 3625
4 2918 2324 2923 3168
4 6034 1262 1253 1254
4 3168 2918 3169 3625
4 6052 1277 5400 4434
4 6053 297 296 288
4 5481 1717 3518 1708
4 2689 3409 3445 3444
4 2877 4589 3870 2875
4 2777 3485 2847 3869
4 5766 6054 4119 6038
4 3507 6055 1719 1728
4 4509 1280 1279 1271
4 5365 5764 4416 4417
4 4118 3518 4439 3488
4 4504 331 330 322
4 2777 4295 2844 4304
4 2541 2540 4295 2542
4 4599 1272 1280 1271
4 4381 4374 4429 1756
4 2541 4295 2540 2844
4 6056 6049 6048 1814
4 4367 285 122 276
4 5763 4051 277 276
4 4418 4417 1256 1265
4 2773 2276 2781 2772
4 2535 2251 2537 2276
4 5365 5416 5418 5766
4 2534 2666 2290 2536
4 5416 5766 6045 5418
4 4240 4242 4241 4250
4 6057 1272 1263 1264
4 2941 3780 3458 5473
4 2940 2941 3779 3780
4 2531 3981 3476 3458
4 5900 3366 4972 2736
4 3366 2615 3653 4827
4 5900 3366 3622 3658
4 3591 5883 5735 5479
4 2638 2615 3366 3658
4 4533 6058 1248 1257
4 4533 1257 4318 6058
4 6032 3653 4972 3366
4 2660 1108 3193 4143
4 3934 2919 6059 2922
4 2440 2918 3257 3169
4 2440 3255 3257 2918
4 2330 2920 3935 2919
4 3517 6051 6028 3985
4 3934 3933 6059 2919
4 4531 332 324 333
4 3254 2919 5525 3933
4 3455 3452 774 775
4 3517 1700 1690 1691
4 5505 1270 1269 1261
4 5925 307 316 315
4 2332 2330 2919 2920
4 5925 315 306 307
4 4434 1269 1278 1277
4 4600 340 339 331
4 2919 5525 2921 2920
4 3194 3191 3193 1117
4 5425 4364 1694 1703
4 3951 3953 4448 3955
4 4417 1255 1256 1264
4 3951 3953 3472 4448
4 3467 3599 2395 3469
4 5416 4426 4567 5417
4 5503 1269 5505 1270
4 3467 3599 3472 3468
4 4302 296 4303 4449
4 4418 285 294 121
4 3686 4443 1274 1283
4 4365 1711 1710 1701
4 6013 4396 5531 3979
4 3599 3951 3435 3471
4 5764 6038 1255 1254
4 4018 3798 5108 3952
4 5389 4599 1272 1281
4 5261 6060 4725 5509
4 4416 5764 6038 1255
4 3153 3332 2180 2188
4 3552 1279 1288 1287
4 3471 5361 3470 3473
4 3881 5795 3879 2552
4 3881 6018 6061 3880
4 4318 6058 264 1787
4 2874 2889 2926 2871
4 2551 2549 2552 3879
4 2554 5793 3881 2552
4 6062 1285 1284 1276
4 2554 4798 4697 2917
4 3881 4697 4798 6061
4 2981 2453 2987 2989
4 4322 1257 1258 1266
4 2950 2783 2953 2775
4 2954 2783 2785 2953
4 2588 3583 3886 3325
4 6063 4365 1710 1701
4 3886 3237 6064 5922
4 4532 1267 1259 1268
4 3886 2593 3340 6064
4 6065 1268 1259 1260
4 4323 749 758 757
4 3928 2463 3236 2987
4 3349 1314 1305 1306
4 6054 4305 1245 1244
4 6065 1268 1260 1269
4 4526 332 331 323
4 4509 1262 1270 1261
4 2589 2763 3236 3114
4 3679 119 1292 1283
4 3234 3583 3887 5864
4 5534 5499 1294 1285
4 2968 2965 3236 4049
4 2910 3672 3311 3312
4 4134 1280 1288 1279
4 4487 324 4473 315
4 1273 6057 4417 1264
4 2910 3672 3313 3311
4 3148 4464 2910 3166
4 5766 6036 4416 6038
4 3152 2236 3313 2910
4 2959 4000 2964 5974
4 3979 4396 5531 3759
4 3686 4440 303 120
4 4321 4320 338 329
4 4134 1289 1288 1280
4 3148 3672 4464 3671
4 2317 2578 3767 3259
4 3545 3333 4787 3546
4 2414 2565 2566 2415
4 4443 6057 4417 1273
4 2305 3333 3334 4412
4 4442 4440 294 303
4 3686 3679 3901 1283
4 4410 3333 4716 2305
4 2305 2643 4410 2642
4 6066 1886 253 1356
4 2546 254 6066 1877
4 3482 3544 4412 3334
4 6066 253 254 1347
4 2666 2691 2538 2667
4 2663 3761 5328 3762
4 3762 5328 1107 4143
4 262 261 6049 1814
4 4573 3333 4412 3544
4 3294 3334 3300 3482
4 3553 6067 4572 6068
4 2721 4716 4398 3333
4 6062 6049 1275 1284
4 5400 1276 1268 1277
4 2663 3762 5904 3760
4 3719 3509 3211 3929
4 5028 5031 4365 4364
4 3594 4483 4069 4419
4 3552 1278 1279 1287
4 6052 1277 1286 1285
4 2835 3520 3172 3496
4 4513 334 333 325
4 6069 4365 5029 1710
4 4462 3124 3793 4833
4 3096 3406 3098 4462
4 4462 4794 3124 4833
4 4462 3098 3124 3123
4 4555 341 340 332
4 3762 5840 2660 1108
4 4794 3123 3404 4462
4 5389 1273 1281 1272
4 6054 1253 1244 1245
4 2650 2644 3030 2647
4 4443 1274 1282 1273
4 3183 3185 2401 3453
4 4599 1281 1280 1272
4 2864 2865 3278 3293
4 3020 2650 3023 3024
4 2697 3028 4025 4023
4 4215 4217 769 4216
4 2697 3056 3908 5167
4 5389 1282 1281 1273
4 3678 321 4069 4504
4 4553 1290 1281 1282
4 4473 4526 323 4531
4 3028 3056 5167 5261
4 6052 4434 4731 5498
4 3029 2682 3031 2683
4 4443 1283 1282 1274
4 3030 2644 5261 6070
4 3678 3679 118 1292
4 3678 4548 1301 5748
4 5772 1299 1290 1291
4 5564 824 815 143
4 3739 5734 2355 4041
4 2355 3548 4041 5734
4 2663 5328 5195 5329
4 2358 3083 3084 4142
4 4757 5177 249 1922
4 3478 5104 2292 4163
4 3478 5104 2351 2292
4 6071 4541 5340 1803
4 6049 262 1814 1805
4 6048 1284 1293 260
4 3478 3521 4126 4163
4 2351 2292 5104 3838
4 2344 2294 3478 2351
4 4541 1812 1803 1804
4 3477 5680 3481 3480
4 5044 2294 3839 3663
4 5499 1285 1286 1294
4 2346 2353 2351 2606
4 2398 3013 2972 2428
4 4554 349 348 340
4 5475 1797 1806 138
4 4552 1289 1280 1281
4 5534 6056 6062 6048
4 3008 3010 3227 5318
4 5700 1298 1289 1290
4 5522 5584 812 4030
4 3742 3703 3011 4929
4 3054 776 785 784
4 6072 5527 5528 5439
4 4065 1808 1799 1800
4 3442 3936 3937 5438
4 5448 4447 731 5450
4 4552 4599 5389 1281
4 6073 1799 1790 1791
4 3678 4548 1292 1301
4 2686 3666 3703 3742
4 3010 4430 3011 3227
4 4549 4554 348 339
4 4552 1290 1289 1281
4 5119 5122 3940 3758
4 3679 118 119 312
4 4716 6074 2740 6075
4 4430 5028 3742 3227
4 3423 3013 5339 4433
4 5192 4507 4505 5836
4 4553 1291 1290 1282
4 3761 2660 3191 4143
4 4483 4473 314 4033
4 5324 132 5325 1688
4 2462 2732 2791 2556
4 4561 1308 1299 1300
4 3730 4506 3674 3994
4 3676 3730 3732 2241
4 2477 5220 2986 2479
4 2477 6076 3694 2985
4 2476 2774 2477 2481
4 5534 1293 1284 1285
4 2476 2482 2479 4233
4 2477 3694 2481 2775
4 2981 2985 2477 2775
4 4570 1832 1841 1840
4 3442 3936 3012 3937
4 3937 3702 4929 6069
4 3708 4013 3002 3702
4 3000 3662 3259 3590
4 2539 4628 4127 5998
4 6062 6048 6049 1284
4 3588 3037 4599 4134
4 2394 2685 2688 2687
4 4413 1311 257 258
4 3439 3440 3442 3937
4 3937 5438 4011 3440
4 4834 1289 1298 1297
4 4065 1809 1808 1800
4 3547 1296 1297 1305
4 4834 1289 1297 1288
4 3442 2685 2688 3938
4 4597 5024 348 357
4 3936 5972 5438 3939
4 4597 358 357 349
4 4534 350 359 358
4 2853 3121 3122 2850
4 3547 1305 1297 1306
4 2853 2854 3283 3121
4 2861 4738 2850 3122
4 4600 5287 4606 5323
4 2362 3122 2861 2850
4 4600 339 330 331
4 5700 1299 1298 1290
4 2362 2228 2221 2861
4 5199 339 1310 116
4 3121 5668 3283 4598
4 3122 3642 5716 3133
4 3678 118 1301 1292
4 5772 1300 1299 1291
4 5772 5700 1290 1299
4 5529 1333 1325 1334
4 4608 4630 360 369
4 5748 1301 1309 1300
4 3122 3016 6077 5716
4 3122 4739 3120 6077
4 4409 6078 3905 4495
4 4738 3121 5668 3281
4 4353 1317 1308 1309
4 5563 806 797 141
4 6079 6080 5624 1912
4 6056 1814 1822 1813
4 2365 3122 3133 3642
4 2656 2657 3187 3992
4 2768 2900 2901 2903
4 5522 803 811 802
4 3768 2578 4324 3057
4 5074 366 4525 113
4 5555 5528 1833 1834
4 5561 803 794 795
4 2471 2697 4025 4023
4 2378 4020 2411 2379
4 3351 1313 1305 1314
4 2375 2377 2411 2378
4 2831 2765 2900 2901
4 4604 360 359 351
4 4609 361 360 352
4 3817 1306 1297 1298
4 4548 1300 5772 1291
4 3820 1317 1316 1308
4 2411 2378 2409 4020
4 4600 4526 331 4504
4 6081 6082 1774 1775
4 5801 1307 1298 1299
4 4549 5024 348 4554
4 2555 2591 3136 3135
4 5548 1314 1315 1323
4 2562 3675 4156 3841
4 2559 5469 3675 3996
4 3678 5748 5199 4504
4 2895 5161 2967 2960
4 2461 2560 2559 2563
4 5781 5788 4676 5413
4 2338 3980 2752 2962
4 5801 1308 1307 1299
4 1365 6083 1904 5550
4 2498 6084 3539 3537
4 2212 2819 2558 2213
4 2855 2559 2558 2818
4 2950 2452 2216 2211
4 4561 1309 1308 1300
4 3087 3749 2625 4767
4 5748 1301 1310 1309
4 5293 4554 4600 4555
4 4550 1309 5748 1310
4 5788 1326 1317 1318
4 2908 5579 5578 4101
4 4767 4059 5742 5099
4 4767 4061 4059 5099
4 4095 2937 3635 3461
4 2933 2936 6085 3584
4 2934 6085 2933 2936
4 2934 3932 3246 4948
4 4570 4413 1841 6086
4 2300 2937 3189 3188
4 2300 3188 2936 2933
4 2600 2339 2712 2752
4 6087 6067 6088 4267
4 3203 2966 2949 3207
4 5325 131 1688 132
4 5051 4006 768 767
4 5496 1826 1817 1818
4 6089 4063 4742 4147
4 2598 2607 2602 2603
4 6037 1313 1322 1321
4 2602 2967 2966 3157
4 3819 3207 3205 5665
4 6090 1312 1304 1313
4 2824 2862 2863 4192
4 2822 2824 2862 2863
4 3820 1308 1316 1307
4 3818 1315 1306 1307
4 4578 1316 1325 1324
4 5562 1816 1815 1807
4 4741 1883 1892 1891
4 2826 2701 2758 2831
4 4626 368 367 359
4 4033 305 4035 306
4 4630 360 369 368
4 4210 332 4531 333
4 2822 3327 2757 3968
4 4555 332 4210 341
4 2995 3817 3547 1297
4 5877 3966 4694 3736
4 5598 1354 1363 1362
4 4605 376 375 367
4 4550 1318 1309 1310
4 3091 3034 3032 3033
4 2294 2350 3665 3663
4 4504 3594 4548 5323
4 4549 116 1319 1310
4 2344 2293 3805 3523
4 2892 2894 1044 2913
4 2868 90 573 89
4 2294 2291 3665 2293
4 4353 1318 1317 1309
4 3805 3212 3723 2348
4 2294 3533 2353 3528
4 4550 1319 1318 1310
4 4554 4550 4549 5024
4 5024 115 1328 1319
4 2868 4046 2869 1544
4 4223 1949 246 1419
4 4269 1320 4270 1329
4 3966 5669 3965 5877
4 4413 1320 257 1311
4 2826 3968 2822 2756
4 3225 2864 3277 4293
4 2715 3326 2716 4775
4 5262 6091 6092 5267
4 4413 1311 6088 1320
4 2570 3326 2758 2716
4 3326 5669 3327 3966
4 2570 2757 3327 4777
4 2863 2862 2865 4192
4 2487 2742 3270 2743
4 5571 1321 1322 1330
4 3913 5983 3760 3914
4 5513 1826 1825 1817
4 3273 3647 3272 3270
4 5291 6093 4609 5290
4 2491 2268 2267 2742
4 2746 2743 2747 3865
4 5586 824 823 815
4 5511 1322 1314 1323
4 2326 2324 3168 2982
4 3546 1830 1838 1829
4 4235 811 810 802
4 3865 2747 5674 2743
4 4696 1324 1332 1323
4 4649 377 376 368
4 4650 369 378 377
4 5529 1325 1333 1324
4 3821 1325 1316 1317
4 5573 6094 4745 5657
4 6095 1335 1326 1327
4 2491 2742 2743 3668
4 4600 4554 4550 339
4 2491 2746 2268 3668
4 2904 3603 3604 4272
4 4625 1319 1328 1327
4 4676 1326 1334 1325
4 4648 4629 385 4090
4 5788 1327 1326 1318
4 4625 1319 1327 1318
4 3110 3081 3765 4640
4 5074 357 4603 366
4 2329 2983 5705 2982
4 6095 1327 1336 1335
4 4090 393 385 394
4 2354 3992 3828 4558
4 2356 3832 3083 3738
4 4624 4597 4554 4538
4 5074 1337 1328 114
4 5074 357 366 113
4 5074 114 357 113
4 5521 1395 1403 1394
4 2356 2355 3832 3738
4 2611 2613 2616 3018
4 2298 2220 2301 2388
4 5600 1356 6096 1886
4 2611 3018 2617 4801
4 2612 2614 4898 2613
4 2631 3519 3312 3311
4 2675 2674 2786 3313
4 4223 5659 247 1940
4 2735 2728 2731 3933
4 2730 2738 4926 2734
4 2736 5676 3363 4926
4 2544 1339 1338 1330
4 5916 4926 6097 2738
4 2546 1338 255 4325
4 4926 6097 2738 2736
4 4228 823 832 831
4 3349 1314 1306 1315
4 5900 3363 4989 6098
4 4673 812 803 804
4 5175 1384 1383 1375
4 5189 1331 1322 1323
4 4725 1844 1835 1836
4 3683 1341 1350 1349
4 2736 4989 3363 5676
4 6099 1863 1854 1855
4 3363 3622 5900 2737
4 2730 2736 3363 4926
4 2894 2913 1043 1044
4 4619 4659 4535 5536
4 2737 3622 3366 2615
4 4750 1361 1352 1353
4 4644 432 4720 423
4 5583 1336 1345 1344
4 4624 6095 5788 4625
4 2737 2736 5900 3363
4 2244 2245 3759 5531
4 4694 6095 5583 1335
4 4676 1325 3821 1326
4 5531 3760 3759 4396
4 2329 5629 4499 5705
4 4624 5293 4625 5788
4 5598 4629 6100 4693
4 4691 4100 402 4671
4 4042 386 4648 377
4 4423 2243 4470 2764
4 5583 1344 1335 1336
4 2948 2894 5148 5825
4 5074 4603 4525 366
4 4412 2644 5261 3056
4 2998 2996 3589 3058
4 5657 1363 1372 1371
4 4525 112 1346 113
4 2570 3768 2579 4777
4 4611 1353 1344 1345
4 4223 246 247 1410
4 3895 2718 4777 3768
4 4120 4770 1526 92
4 3768 5822 2579 4777
4 3768 2579 5822 4409
4 3778 4059 5742 3086
4 5435 1862 1853 1854
4 3687 1339 1331 1340
4 2838 3781 4070 3782
4 3777 4059 6101 4950
4 2544 4325 1329 1338
4 5509 1836 1835 1827
4 3689 1331 1332 1340
4 4070 3487 3498 6102
4 4062 4741 4280 6089
4 4101 839 830 831
4 3682 1341 1332 1333
4 3603 829 820 821
4 2409 2766 2412 4062
4 4955 2766 4957 2902
4 3604 838 829 830
4 3683 1340 1341 1349
4 2404 2407 2653 2405
4 2902 4063 3612 4306
4 4556 4495 334 6078
4 6103 1351 1359 1350
4 2771 2410 2329 2983
4 2378 2409 4020 3615
4 4702 1360 1361 1369
4 2329 2412 4740 4491
4 6070 5463 6104 5686
4 4694 1335 1343 1334
4 2894 5148 1043 5844
4 2329 2983 4491 5705
4 2331 2326 2982 2324
4 4722 5583 1336 1345
4 4218 1343 1342 1334
4 4722 1345 1336 1337
4 3549 5808 4557 5536
4 4218 1334 4694 1343
4 5201 2329 4740 5629
4 4203 4628 2540 5928
4 2514 4414 3989 4415
4 4525 1346 112 4230
4 2776 4589 2780 4292
4 5928 5288 684 5289
4 5928 4304 5335 5367
4 4723 4605 4603 4626
4 4721 4605 4626 4649
4 4295 5155 5585 5288
4 4525 1346 4722 1337
4 4295 4304 4292 5289
4 4295 5242 5585 5155
4 4525 4605 4693 375
4 5598 1362 1353 1354
4 5176 1376 1384 1375
4 2789 5223 3878 4701
4 3519 4386 4393 5207
4 4153 5223 4703 4202
4 5223 4202 4393 4703
4 5223 4701 5207 5234
4 6105 2984 4888 2985
4 2984 4888 2985 3694
4 2546 6066 2547 6106
4 3694 3692 5806 3691
4 6107 1369 6108 1378
4 2477 3694 2775 2985
4 6066 253 1886 254
4 6109 1925 1916 1917
4 3694 3614 5004 2482
4 6110 5586 5560 5565
4 4102 1350 1358 1349
4 2477 3694 5004 2482
4 5377 1340 1348 1339
4 2682 3028 4023 2683
4 6111 1861 1860 1852
4 2547 1347 1339 1348
4 2681 4207 3181 3373
4 2823 2831 2407 2826
4 3608 1368 1360 1369
4 3681 1342 1350 1341
4 3525 4463 3527 4835
4 4565 4042 4650 378
4 3401 5657 5601 6112
4 4839 3598 4836 3525
4 3685 5377 5376 4493
4 4286 1881 1880 1872
4 5569 1890 1889 1881
4 3662 3524 4034 3598
4 3524 3938 5762 3527
4 3080 2356 3827 3832
4 4675 1344 1352 1343
4 5844 2894 2912 2913
4 5274 1360 1351 1352
4 2894 5148 5825 1034
4 3598 4836 3525 3524
4 5601 1370 1361 1362
4 4618 395 404 403
4 4717 421 420 412
4 4693 1346 1354 1345
4 3951 3955 3435 3952
4 4721 4693 4605 4629
4 4704 4043 4040 396
4 112 1355 4230 1346
4 3888 3599 3456 3954
4 3183 3468 2640 3784
4 4799 4042 4648 4650
4 4693 1346 4230 1355
4 4617 404 413 412
4 3434 4878 3600 3436
4 3434 3600 4878 3601
4 6100 1355 1363 1354
4 3934 6113 5653 6114
4 4229 384 393 110
4 4704 405 4616 396
4 2394 2685 2395 3601
4 2395 3889 3259 3601
4 3336 2791 3337 2451
4 3303 2732 3308 3621
4 3287 5569 4780 3504
4 3303 3305 2458 3344
4 3303 4908 3310 3304
4 3343 3336 3341 3340
4 3340 3325 3343 3336
4 6115 1357 1348 1349
4 2803 2801 2766 5380
4 3979 3732 3151 5531
4 6066 1356 253 1347
4 3886 3343 3325 3583
4 4667 1377 1386 1385
4 6115 1357 1349 1358
4 5581 1892 1900 1891
4 3928 2987 3236 4049
4 2958 3515 3602 3878
4 5292 1846 1854 1845
4 2986 4764 5220 5143
4 4715 1368 1376 1367
4 2902 4955 4063 4306
4 6116 1359 1367 1358
4 2580 2986 5220 2479
4 2981 2986 2774 2477
4 5274 1343 1352 1351
4 5578 848 847 839
4 6117 3503 3504 1899
4 6118 1375 1366 1367
4 2454 2451 2457 2453
4 2868 2849 4046 3997
4 4695 4659 6119 4535
4 6120 1385 1394 1393
4 2353 3528 2727 3664
4 6115 5377 3683 1349
4 4144 1872 1871 1863
4 2748 2749 3033 2727
4 2339 2603 2600 2337
4 4616 396 405 404
4 2868 3997 2505 2849
4 5274 1361 1360 1352
4 4291 855 4474 856
4 2752 2339 2712 2753
4 6100 1364 1363 1355
4 3851 5634 2524 2525
4 5601 1362 6112 5657
4 4229 4671 393 4090
4 4229 6100 1355 1364
4 2357 3738 3371 3401
4 3851 2523 5830 5165
4 6121 1390 1399 1398
4 5657 1371 1362 1363
4 2261 5493 3851 3497
4 6094 4229 4671 1364
4 6108 1379 1378 1370
4 6094 4090 4229 6100
4 4745 1380 1371 1372
4 5977 1399 1408 1407
4 6122 1429 1428 1420
4 3851 5829 5848 5830
4 3714 4482 3851 5848
4 3851 5829 5830 5493
4 4328 5977 4239 4329
4 1407 5977 4239 1416
4 5552 1366 1357 1358
4 2594 3044 4329 3926
4 4329 4239 3559 3926
4 3559 4328 4239 4329
4 1416 4328 5977 4239
4 2594 3558 4329 3044
4 5610 851 146 147
4 5652 875 874 866
4 4281 1881 1872 1873
4 5551 1366 1365 1357
4 3558 4330 4329 3044
4 4329 4330 6123 5976
4 5552 1366 1358 1367
4 6124 1856 1864 1855
4 4329 3044 4330 5976
4 4089 1857 1865 1856
4 5602 856 847 848
4 4329 4330 4328 6123
4 2730 2731 2735 2728
4 3608 1360 1368 1359
4 2735 4926 3934 2734
4 3504 1899 1898 1890
4 6118 1375 1367 1376
4 2419 5339 2972 5341
4 3934 4926 6113 5916
4 6108 1370 1378 1369
4 6094 1373 5575 1372
4 2922 6059 2921 2919
4 3560 4639 3935 3927
4 1346 4230 4525 4693
4 4671 109 402 4691
4 3257 3256 4970 2620
4 3935 2920 2321 4639
4 6094 1363 6100 1364
4 4617 3829 404 4616
4 3933 2735 3934 2734
4 6125 3926 4838 4337
4 6094 5575 4671 4096
4 6094 1372 1364 1373
4 5575 1381 1372 1373
4 4759 448 447 439
4 6125 3559 4639 3896
4 6125 3559 3896 4881
4 4952 5612 5093 1491
4 6125 4805 1414 4881
4 6125 5520 4805 3896
4 3685 3688 5185 3611
4 4952 6126 239 2012
4 4952 238 239 1482
4 2900 4293 3612 3615
4 4607 6110 6004 5125
4 1365 6083 6096 252
4 6127 1891 1890 1882
4 2864 3293 3277 5184
4 2900 3615 3225 4293
4 1904 1365 252 6083
4 3688 3293 3277 3278
4 5201 4500 5629 6128
4 2548 4591 2693 3074
4 3074 6129 2548 4591
4 4591 5627 3064 3074
4 3064 4591 3068 3067
4 3068 2694 3414 2693
4 3070 3734 3733 3916
4 5174 1384 1393 1392
4 4667 1385 1376 1377
4 6107 1377 1368 1369
4 3073 3514 3074 3671
4 3074 3671 5892 3071
4 2868 90 1544 2869
4 3109 1379 1387 1378
4 4585 415 423 414
4 4613 6130 4559 6131
4 4644 432 423 424
4 3064 3072 2342 3065
4 3165 4766 3170 2917
4 4142 1379 1370 1371
4 5628 5596 5610 5597
4 4613 5628 5597 6130
4 6132 5659 1940 1931
4 5521 6133 1394 1403
4 3928 4049 3164 4764
4 4692 1390 1381 1382
4 2207 2478 2774 2464
4 4617 3829 4705 413
4 5734 4672 4043 4618
4 4038 431 430 422
4 5753 2781 3543 2772
4 4692 1391 5574 1390
4 4100 5575 4671 4691
4 5573 4096 5964 4618
4 4671 110 1373 1364
4 1373 4691 1382 109
4 2968 2969 2917 2915
4 4692 411 4717 420
4 2968 4048 4049 3619
4 4692 4691 108 1382
4 4747 107 420 106
4 5380 4955 5381 5200
4 3165 2969 2917 3164
4 3164 3170 4764 4050
4 5174 1383 1384 1392
4 3618 3620 2924 4048
4 2924 2925 3620 5441
4 4758 1401 1392 1393
4 2968 4048 4050 4049
4 4048 5131 5456 3620
4 4048 6134 4050 4049
4 5176 1376 1385 1384
4 4742 1884 1892 1883
4 4048 6134 5456 5130
4 5569 1881 1889 1880
4 3122 2227 3014 2366
4 5177 249 1922 250
4 6120 1393 1384 1385
4 2934 3318 4948 6085
4 3580 445 4785 454
4 2920 6120 5639 6133
4 3314 3643 3318 3319
4 2389 2297 2934 2936
4 3637 3316 4310 2367
4 5177 1392 249 1383
4 6089 1882 1873 1874
4 4958 4310 3639 5514
4 4309 3316 4313 3162
4 4309 3643 5046 4313
4 4763 4782 443 444
4 6133 1403 1402 1394
4 6135 6136 4969 1421
4 4746 1389 1380 1381
4 4142 1388 1379 1380
4 2366 2369 3637 2367
4 5618 4288 4792 5648
4 3815 5164 3357 3924
4 5628 5597 6130 5596
4 4805 6136 5520 1413
4 3228 3230 3356 3231
4 3228 3356 3230 3229
4 3109 1388 1387 1379
4 4542 4718 415 424
4 3110 3765 5396 4640
4 5625 1397 1388 1389
4 3474 3356 3357 3173
4 3356 3362 3359 3354
4 4748 438 105 429
4 4745 5657 1372 1371
4 3231 2633 3163 3902
4 3833 5575 4746 4745
4 2221 2851 2850 3263
4 5573 4100 4096 4618
4 3356 3355 5150 3921
4 6121 1398 1389 1390
4 4635 5607 5572 4140
4 4747 429 106 420
4 4635 4140 5572 5663
4 420 1391 107 4747
4 5977 1407 1398 1399
4 4038 431 440 439
4 4635 3101 4706 3961
4 4635 4232 3101 3961
4 4635 3101 4232 3233
4 5201 2801 4955 4740
4 2498 4680 2499 5141
4 4743 4680 2510 4682
4 5201 2801 5202 5200
4 2510 3539 5517 4684
4 2498 2510 2500 2499
4 5639 1394 1385 1386
4 4617 3829 413 404
4 2510 3539 4684 4680
4 6133 1402 1393 1394
4 4337 1387 1396 1395
4 2719 2865 3059 2716
4 3568 1927 1926 1918
4 3820 3817 2720 5801
4 3865 903 902 894
4 4760 454 4784 463
4 2802 3608 6116 4102
4 3453 3183 3456 2971
4 4324 3768 5290 4409
4 2971 3888 3456 3453
4 6137 2734 6059 6138
4 4618 4096 394 403
4 4818 4802 4791 3948
4 2395 3469 3599 3434
4 3441 2685 3970 3600
4 3259 3911 5370 3889
4 5549 5552 2803 6118
4 3088 2240 4271 1539
4 5396 1388 1396 1387
4 4837 1405 1396 1397
4 4724 417 4181 416
4 6136 1422 1421 1413
4 6139 6140 1948 6138
4 3087 3086 3089 4767
4 4837 1405 1397 1406
4 3085 3089 2726 3088
4 5575 1381 1373 1382
4 4100 3832 4618 5573
4 4239 1397 1398 1406
4 3088 4271 2240 2238
4 4759 6141 438 447
4 3748 4010 3747 3749
4 4747 4744 4748 429
4 4791 4773 6142 4802
4 4747 4749 5574 1400
4 2749 4351 2726 3090
4 4805 3897 1423 4881
4 4747 5574 4744 4717
4 6142 1426 6143 1427
4 4805 1423 3897 1422
4 4747 5574 4749 4744
4 4805 3896 3897 4881
4 4748 105 1409 106
4 5660 5661 4331 6144
4 5977 1416 1407 1408
4 4047 1991 5884 2000
4 5347 1458 1466 1457
4 6135 1420 1411 1412
4 3897 1422 6136 4805
4 4234 3897 1422 6136
4 4805 3896 5520 6136
4 6135 1421 1420 1412
4 6125 1413 4805 5520
4 5628 3330 1879 6130
4 2228 2936 2391 3215
4 6145 1403 1412 1411
4 4758 1401 1393 1402
4 3214 3213 3264 3669
4 5603 1401 1402 1410
4 3122 3016 5727 6077
4 2320 5202 2801 4679
4 3266 3275 2226 2230
4 5704 913 912 904
4 3556 2416 5817 3555
4 3708 4014 3936 4015
4 5602 3105 857 848
4 4874 1442 1450 1441
4 4642 3526 3037 4463
4 4015 3037 4509 4642
4 5520 1412 1403 1404
4 2416 4015 3037 5503
4 2724 2308 2722 3294
4 2656 3187 3991 3992
4 2494 2507 2509 2495
4 2803 4715 6118 6116
4 4139 4141 5663 4232
4 4234 1423 1431 1422
4 6125 1405 1414 1413
4 3991 4536 4949 3989
4 4026 451 459 450
4 2506 5145 4535 6033
4 2501 6033 4992 3538
4 4749 1408 1399 1400
4 3375 3379 2493 3483
4 4377 4864 4858 1435
4 4748 4749 4690 4744
4 3375 3377 3376 4965
4 2484 2492 2488 2490
4 4749 1408 5977 1399
4 5313 4594 3044 5976
4 2747 3866 5664 3606
4 2493 2485 2487 3483
4 3379 4289 3483 3380
4 4748 1409 4749 1400
4 4892 3318 3510 4313
4 1398 4239 5977 5395
4 6143 1426 1417 1418
4 6123 1416 1417 1425
4 2517 2423 4231 3379
4 3375 3484 3381 3378
4 3375 2493 2487 3483
4 2424 2423 3379 2493
4 2538 3654 2882 3253
4 6146 6139 6140 1948
4 3247 2929 2539 3253
4 2691 2843 2534 2846
4 3176 3920 2698 3180
4 2534 2538 2540 2290
4 2662 2672 2664 2878
4 3272 911 910 902
4 4223 246 1949 247
4 2667 4846 4927 4581
4 6145 1411 1402 1403
4 4601 2851 3919 4262
4 3797 3925 2221 2851
4 3925 4164 5738 3592
4 3461 2933 3631 3585
4 5042 3585 4248 4246
4 3185 4666 4138 3912
4 6147 1918 1909 1910
4 6125 1413 1404 1405
4 5520 1412 1404 1413
4 5729 6148 4984 6149
4 4838 1414 1405 1406
4 4698 4247 3006 5043
4 4239 1407 1415 1406
4 4783 458 449 450
4 5042 5043 4247 4863
4 3460 3463 6002 3462
4 3188 3006 3005 3007
4 3570 1919 1927 1918
4 2319 5639 2920 6120
4 5042 3006 3585 4246
4 5042 3585 5394 4248
4 3650 2448 3040 3408
4 4774 467 458 459
4 6150 6138 6114 1938
4 4234 6144 6151 1432
4 6152 439 4038 440
4 3038 4593 3650 3040
4 3650 4592 3042 3043
4 4803 1409 1417 1408
4 6141 105 1418 1409
4 5109 4868 4850 2156
4 2432 3650 3038 3042
4 3650 4592 3043 4643
4 5977 4803 1417 1408
4 5312 5313 2310 4995
4 3043 2432 2431 3042
4 4803 1418 1417 1409
4 3291 3650 3043 4643
4 1400 4749 5574 1399
4 6123 1426 1425 1417
4 2680 2471 2472 2376
4 4644 4720 2309 423
4 3074 3514 6153 3671
4 3514 6129 3167 2548
4 2284 2244 2289 2288
4 3151 2245 3914 2236
4 3671 3514 6153 4464
4 2914 2279 2250 2246
4 3148 2910 4464 3672
4 2586 3183 3177 3185
4 5037 5038 5011 5075
4 3102 3503 3233 3329
4 3819 5038 5075 5011
4 6136 1413 1421 1412
4 4265 1518 234 235
4 6154 1419 1411 1420
4 3819 6155 5075 3574
4 5075 5489 5794 5037
4 3561 1923 3831 1914
4 5458 5502 5459 5135
4 5075 5489 5076 5794
4 2647 3139 4214 4078
4 3719 3930 3929 3931
4 4247 476 4698 477
4 4828 1430 1421 1422
4 5655 1920 1928 1919
4 3931 3718 3930 4930
4 3120 937 928 929
4 4881 1415 1423 1414
4 3931 4963 3929 4964
4 3931 4963 4964 4126
4 5312 3833 4705 4717
4 4142 1389 5625 1388
4 3931 3718 3719 3930
4 5019 4126 4163 5707
4 2608 2352 5019 5707
4 5019 5102 3202 5637
4 5019 3202 4168 3205
4 3794 3795 4875 3015
4 6156 1982 1991 1990
4 4788 450 4783 449
4 6157 1434 1433 1425
4 3562 4328 4330 6157
4 4772 4773 6142 1427
4 3794 3348 3795 3015
4 4772 103 1427 104
4 3794 3015 3213 3348
4 3795 5800 3641 3348
4 5713 1425 1426 1434
4 3795 3791 5684 3793
4 4038 4594 4720 2310
4 6143 1427 1426 1418
4 4759 6143 4772 4776
4 4907 4932 5702 516
4 4592 3042 3043 2310
4 4592 3042 4594 4593
4 4592 4264 4593 4595
4 3281 3121 5668 5978
4 2362 2850 2853 3122
4 3646 3281 4737 5978
4 3646 6158 4737 4735
4 3646 3280 5978 6158
4 5978 3281 4737 5668
4 4969 1429 1420 1421
4 3262 3261 3260 3645
4 245 5383 1428 1419
4 5662 1464 1473 240
4 3644 3281 3646 3280
4 3269 2620 3261 2266
4 2632 2634 3231 2633
4 3241 3932 3719 3242
4 4969 1429 1421 1430
4 5654 1937 1928 1929
4 5018 3479 3819 5075
4 3241 3932 4948 3246
4 4805 1422 1414 1423
4 4312 3902 3162 2633
4 2861 3263 3264 2229
4 2611 2388 2301 2615
4 6114 1938 1946 1937
4 4234 1440 1431 1432
4 4607 5298 4610 6110
4 4889 4248 4890 494
4 4858 1444 1443 1435
4 6113 1937 1945 1936
4 2219 2230 2226 2225
4 5660 1424 1432 1423
4 4247 485 477 486
4 2389 2807 2935 2934
4 6159 1442 1433 1434
4 6157 1425 1433 1424
4 5883 5884 6156 5735
4 4911 1453 1462 1461
4 4542 4718 3289 4543
4 4858 1444 1453 1452
4 6159 1442 1434 1443
4 4288 4792 872 3380
4 2389 2295 2807 2297
4 4858 1443 1434 1435
4 6142 1427 1435 1426
4 2391 3215 5589 3884
4 3769 3733 3913 3916
4 947 2853 4335 5152
4 4818 466 475 474
4 4856 493 492 484
4 3074 3514 2548 6129
4 3671 4001 5892 5891
4 2630 4464 5891 4001
4 6142 1436 1435 1427
4 4864 1436 1445 1444
4 3916 4527 4387 3672
4 3671 4530 3312 5891
4 3941 4400 5687 4065
4 3941 4399 4432 4400
4 3941 4432 4399 3942
4 3013 5339 2428 2646
4 2649 3757 3709 3941
4 3424 3945 4432 4431
4 3025 3026 3027 3055
4 5671 1438 1429 1430
4 5962 1458 1457 1449
4 4234 1441 6151 1440
4 5502 1437 1438 1446
4 5726 1963 1962 1954
4 6160 1439 1448 1447
4 4400 5687 4433 3941
4 3120 938 4598 5152
4 2322 2319 4679 4667
4 5726 1972 1971 1963
4 3423 2646 5687 5339
4 5145 5141 5142 4638
4 5145 4678 4536 4535
4 2506 5145 6033 2499
4 2506 5145 2499 2512
4 2280 5229 4910 1463
4 5145 2499 5141 6033
4 4883 1440 1449 1448
4 3946 3948 3947 5712
4 5145 4536 5142 2512
4 5227 6024 4154 5538
4 5661 1433 1441 1432
4 5519 3949 4761 4788
4 5884 1992 2001 2000
4 5716 937 936 928
4 4889 493 484 485
4 5661 1433 1442 1441
4 4772 6141 447 104
4 2214 3840 4438 5227
4 2216 3566 2483 2217
4 5738 1981 1990 1989
4 3591 5777 3592 4165
4 4248 486 494 485
4 2742 2743 3668 3270
4 2743 2747 5674 2487
4 2746 2743 3647 3668
4 3298 2864 5184 5609
4 4864 1444 1435 1436
4 5712 467 476 475
4 4818 5712 475 466
4 4791 1436 102 1445
4 2864 3299 5609 3298
4 4329 4239 3044 5977
4 4910 4873 483 1454
4 3299 5511 5609 3351
4 5047 4856 4873 4863
4 4891 502 501 493
4 3299 3293 5609 5511
4 5135 1976 1967 244
4 2308 3482 2303 3334
4 2724 2568 3352 3353
4 2724 3352 3060 3349
4 4737 920 912 921
4 6161 1456 1447 1448
4 2313 2314 2724 2308
4 2397 2400 2398 2648
4 2724 3352 3349 3351
4 6160 5502 1438 1447
4 5524 1455 1446 1447
4 3773 3279 4602 4601
4 3260 3773 3280 3645
4 2266 3269 3260 3261
4 6160 1447 1438 1439
4 5074 5024 357 114
4 2644 6070 2647 2642
4 2225 3275 2226 2860
4 2636 5332 2639 3807
4 5688 1985 1994 1993
4 3361 3843 6162 3358
4 5676 1955 1963 1954
4 4339 505 513 504
4 5690 956 3359 965
4 4108 1449 1450 1458
4 3361 3843 4259 6162
4 3875 3362 3361 3872
4 3354 3362 3361 3496
4 3010 4432 4430 5318
4 5712 4873 475 4863
4 5334 5761 5807 6163
4 6164 1451 1442 1443
4 4432 5317 4430 5318
4 4157 4794 4796 461
4 6164 1452 1451 1443
4 4379 3462 6164 4858
4 3010 3001 3013 4433
4 4896 6098 3363 4897
4 4246 495 487 496
4 5074 114 1328 5024
4 3226 3227 6063 3985
4 3424 5260 4432 3942
4 3949 4776 448 457
4 4911 1461 1452 1453
4 4114 1469 4116 1470
4 4432 5260 4431 4430
4 3941 4400 4432 4433
4 6142 1436 4864 1435
4 4432 5319 4430 5317
4 5394 4889 4247 4248
4 4910 1453 1454 1462
4 4432 4433 4400 5319
4 3259 5370 3911 4677
4 2578 3768 4324 4409
4 4138 3911 4477 3905
4 4245 1488 1497 1496
4 3924 5755 1997 6165
4 4138 3905 4477 4486
4 2403 3889 3888 3912
4 4243 1502 1503 1511
4 2586 2587 3023 3021
4 5962 1457 1448 1449
4 3041 2643 2397 2646
4 2393 2971 2400 2401
4 2565 2415 2687 3036
4 5524 1455 1447 1456
4 3022 3023 3021 3181
4 3328 2576 3385 3904
4 3911 4677 4477 3905
4 3628 3243 3636 3632
4 3633 3628 3631 4094
4 6161 1456 1448 1457
4 4911 4858 1453 1452
4 4987 540 539 531
4 6166 1474 1475 1483
4 4339 514 513 505
4 5346 1476 6167 1467
4 4890 4094 3633 3634
4 3461 4094 4093 5394
4 3635 3629 3245 3636
4 4110 1459 1450 1451
4 2817 1543 1552 1551
4 4246 4894 4893 487
4 4941 3632 513 3118
4 4905 6014 4906 964
4 3464 3189 5042 3005
4 3582 2295 2935 3581
4 4117 1452 1460 1451
4 4339 4893 496 495
4 4918 4116 1461 1470
4 3631 3632 4339 3630
4 3120 947 946 938
4 3631 4248 4094 5394
4 4117 1461 1460 1452
4 4910 2280 4857 4856
4 4110 1460 1459 1451
4 3631 4339 3585 3630
4 3631 3634 4094 4248
4 2640 4003 3788 3784
4 4891 501 492 493
4 2291 540 549 548
4 4116 1469 1460 1461
4 4874 5661 1441 6151
4 2580 2581 2583 2582
4 3801 4933 4361 4916
4 4857 2280 99 492
4 3165 3167 2955 4766
4 3170 4766 5128 2917
4 3928 3236 2463 2965
4 3164 2917 3170 4050
4 4567 3441 3975 3973
4 5717 1455 241 242
4 3928 2965 3164 4049
4 2756 3186 3968 4795
4 5098 4349 5354 1554
4 4898 4108 4883 1449
4 2757 2501 4992 3382
4 4992 3538 6033 4081
4 3013 5339 4433 5341
4 6168 1465 1456 1457
4 6169 4990 5823 4992
4 4108 1467 1458 1459
4 5755 5756 3923 3922
4 4992 6170 5055 6169
4 2756 2501 2506 4795
4 4162 4884 5723 500
4 4732 4652 853 5594
4 3924 1997 3922 1998
4 4992 6170 6033 4795
4 3922 5756 5750 1988
4 5668 929 920 921
4 2756 2757 4795 3968
4 3663 3838 5044 2294
4 2294 3838 5044 2292
4 2294 2292 2351 3838
4 2417 4841 3003 3556
4 5347 1466 1458 1467
4 4110 1460 1468 1459
4 3117 521 520 512
4 3522 2293 2292 3523
4 5013 3522 3839 2292
4 5346 1476 1467 1468
4 2416 3556 3003 3555
4 4935 4245 1487 1488
4 2292 3838 5044 5013
4 4110 1469 1468 1460
4 5758 5750 1979 1980
4 5653 5730 1936 1937
4 2292 2294 3839 5044
4 3818 1306 3349 3547
4 4918 1462 1470 1461
4 3633 511 502 503
4 3633 512 511 503
4 4114 1478 1469 1470
4 5735 1983 1991 1982
4 4951 519 510 511
4 3818 3349 1315 4578
4 3010 4432 3823 4433
4 98 2281 1481 97
4 2714 3057 3589 2998
4 2574 2570 2579 2473
4 5229 1463 1471 1462
4 2715 3059 3818 4578
4 5955 4918 4114 4116
4 2281 4362 4882 510
4 2715 3818 2720 3821
4 3060 3818 3349 3547
4 3479 3480 5488 4126
4 2603 3201 2752 2600
4 5688 4340 5717 1985
4 4047 1999 1990 1991
4 3477 3805 4126 3478
4 5637 5104 5357 2351
4 6171 1982 1981 1973
4 6172 1466 1474 1465
4 5345 1476 1484 1475
4 4789 877 3831 886
4 3805 3478 3523 4126
4 6167 1475 1466 1467
4 3477 3479 2352 4126
4 4752 4729 5979 4730
4 4975 538 529 530
4 3813 2000 2009 2008
4 6163 1473 1482 6126
4 4238 4877 916 917
4 2610 2609 3575 2347
4 6172 1474 1466 1475
4 4249 1494 1493 1485
4 4935 1479 1487 1478
4 3479 3480 3481 5076
4 4933 1479 1470 1471
4 3517 3985 3702 6063
4 4930 541 540 532
4 4941 522 514 523
4 3003 3009 3983 3988
4 4115 1469 1478 1477
4 5755 6173 1987 1996
4 5044 567 566 558
4 4956 528 519 520
4 4934 1486 1477 1478
4 4821 4774 459 468
4 3226 6063 3227 4929
4 3149 1498 1490 1499
4 3227 3985 3983 6174
4 4240 4252 4251 4244
4 5058 1515 6175 1524
4 5001 4975 539 538
4 4121 6176 4047 5777
4 4934 1487 1486 1478
4 3116 521 529 520
4 3227 4430 6177 5318
4 96 510 4882 519
4 3226 3227 3011 4929
4 2510 2494 2497 2500
4 95 519 1499 528
4 6178 1497 1488 1489
4 4535 2512 2506 4949
4 2907 3035 3046 3572
4 2506 3186 4795 5808
4 5937 235 4265 2048
4 4180 4181 3405 5903
4 2507 2756 2506 3186
4 2498 3536 3382 6084
4 5979 4730 4728 4753
4 2511 5145 2499 5141
4 4441 4136 3385 6179
4 4441 4990 3907 4224
4 3536 4539 5870 3537
4 6179 4441 3536 3385
4 4441 3907 3385 4136
4 3907 3906 4136 4441
4 4249 4242 4243 4240
4 4441 3907 4435 4224
4 4544 4436 4435 4539
4 5346 1485 1477 1486
4 5746 1512 1520 1511
4 6180 2056 2055 2047
4 5346 1485 1476 1477
4 4242 4243 1511 1502
4 4436 4435 4539 4441
4 5744 1521 1513 1522
4 3872 3876 4906 973
4 5390 5979 4415 4231
4 4697 5128 4766 2917
4 4697 6181 3167 4766
4 663 654 5982 5275
4 2554 3167 5793 2552
4 4697 4766 5128 6182
4 3913 5845 3916 5840
4 2695 2692 2287 2661
4 4807 2026 2027 2035
4 4169 6162 985 984
4 4249 1485 1493 1484
4 6183 6184 6185 4967
4 4916 1479 1480 1488
4 3466 5719 6186 5698
4 4227 537 528 529
4 3769 3672 3916 3915
4 519 1499 528 3149
4 4355 1481 1489 1480
4 97 96 4882 1490
4 4091 3903 4092 5452
4 2837 3903 4484 3782
4 2742 3097 3668 3265
4 4916 1489 1488 1480
4 2938 2945 2942 2943
4 3149 6178 4355 1489
4 4882 97 2281 510
4 2423 5903 3381 4778
4 96 1499 3149 1490
4 4091 3903 5452 5453
4 5041 650 5026 4470
4 4470 4423 5170 3731
4 6187 5773 5760 6188
4 5040 4686 4170 5178
4 3111 2242 4470 5040
4 4470 4423 5026 5170
4 3111 4470 5023 5040
4 4470 5023 5040 5025
4 4913 6189 5363 5362
4 4913 4292 4104 6189
4 6190 5746 1511 1512
4 4913 6189 5362 4292
4 5884 2000 1991 1992
4 4250 1492 1483 1484
4 4959 531 523 532
4 5726 6148 1953 5699
4 4940 1513 1512 1504
4 4250 1492 1493 1501
4 4913 5965 5384 4914
4 4913 5965 699 700
4 4913 5362 691 4107
4 4107 4913 4292 4104
4 3938 3970 3894 4569
4 6191 1497 1505 1496
4 2730 2620 4970 4925
4 3021 3178 3372 3182
4 5108 3600 3431 3435
4 3469 3435 3434 3600
4 3435 5108 3600 3890
4 5001 547 538 539
4 5156 2079 5848 2070
4 5512 5108 3600 3431
4 3075 2358 2359 2356
4 4967 1507 5082 1516
4 3665 5007 5001 2291
4 4087 2005 6165 2006
4 6192 1506 1515 1514
4 3971 3894 307 3970
4 5968 1519 1527 1518
4 3427 3435 3431 3436
4 3622 3796 2222 3772
4 2220 3622 2386 2615
4 2635 2296 2299 2637
4 3149 1498 1489 1490
4 6193 1496 6191 1505
4 3366 3622 3658 2615
4 519 1499 3149 96
4 2729 3366 4972 2739
4 6178 1498 1497 1489
4 5900 3366 3658 6032
4 3149 96 4882 519
4 2212 2790 2558 2456
4 5083 1499 1507 1498
4 5083 1499 1508 1507
4 2618 4002 2812 2821
4 2206 2618 2336 2262
4 2819 2254 4670 2818
4 2950 2790 2216 2452
4 2819 2820 3238 4669
4 5093 237 2030 238
4 3144 2821 4825 2820
4 2779 2874 2279 2871
4 4249 1493 1494 1502
4 6191 1497 1506 1505
4 6153 3671 5892 3074
4 233 4266 1536 1527
4 5810 1000 1001 1009
4 6193 1496 1504 1495
4 5614 6194 5100 2029
4 2572 1184 193 3284
4 3165 2582 3170 2955
4 3148 2910 2629 3166
4 2968 3164 2965 4049
4 2548 2285 3073 2277
4 5059 567 576 575
4 3284 2572 2195 193
4 3660 585 594 593
4 5979 5648 4728 5604
4 3531 576 585 584
4 2589 2463 3236 2965
4 3151 2244 2245 2231
4 4120 1516 1517 1525
4 6195 1525 1534 1533
4 5083 1499 3150 1508
4 2467 2210 2673 2466
4 2236 3313 2910 3672
4 6193 1505 1504 1496
4 6196 4920 5346 1486
4 5803 1505 1513 1504
4 2659 3769 2286 3913
4 2695 2694 3073 2693
4 4940 1503 1504 1512
4 3165 2629 2582 2955
4 2250 2278 2277 2553
4 4464 3671 3672 3312
4 5083 1508 5082 1507
4 4967 6192 6185 4968
4 6191 1496 4245 1497
4 2631 2910 3152 3313
4 2258 600 592 601
4 3191 5495 4143 1116
4 4935 4933 4916 1479
4 3159 3161 1570 5112
4 6197 4975 4227 3116
4 6192 1506 1514 1505
4 5967 1527 1528 1536
4 2804 3368 3447 2248
4 2661 4581 2667 4927
4 6195 2814 1533 1534
4 4968 1507 1506 1498
4 4967 1507 1515 1506
4 3522 558 550 559
4 1508 537 3150 5082
4 2868 1553 1544 90
4 3191 4927 4143 5495
4 3900 2186 2177 2178
4 3191 5975 1125 5283
4 3191 3192 5283 5282
4 3194 3191 1117 1126
4 3900 3419 2186 2187
4 3284 3701 1192 1193
4 3228 3229 2632 3356
4 3521 4930 3523 4963
4 6198 5100 2029 2038
4 4242 1502 1510 1501
4 5614 2028 2019 2020
4 2934 3318 6085 2936
4 3314 3643 3317 3316
4 3509 3932 4313 3510
4 2260 2597 3500 3577
4 2810 3932 2369 4313
4 5680 3210 3931 4126
4 3444 4755 5819 3410
4 4889 493 4856 484
4 4010 5622 5000 3651
4 2633 2367 2810 2368
4 6199 6200 6201 6202
4 6199 6021 5833 5853
4 6199 5865 6021 5228
4 6199 5834 5865 5868
4 4120 1525 6175 1516
4 5803 1514 1513 1505
4 3529 5103 5357 5828
4 5048 5104 5103 568
4 5101 5958 4974 4973
4 4558 3290 3828 4414
4 3532 577 586 585
4 4446 5780 992 5027
4 5833 6199 5865 6021
4 5001 4227 538 547
4 6199 6200 6024 5853
4 6199 6201 6200 5852
4 4953 4987 530 531
4 2869 4771 564 4770
4 4960 1543 1535 1544
4 5126 3847 5375 5522
4 5082 6175 4967 1516
4 5146 1050 54 1041
4 3022 2682 3023 3181
4 4771 3850 5007 556
4 3031 5547 3053 3910
4 4892 4923 5046 5702
4 3532 586 595 594
4 6175 1524 1515 1516
4 5102 569 3206 578
4 2683 6072 3031 3029
4 4607 3847 5126 4614
4 2683 2678 2681 5375
4 3028 2683 3029 6072
4 5547 5522 5561 3031
4 3031 3160 6072 6004
4 5126 3031 2683 6004
4 3031 5522 5561 5126
4 3031 3160 6004 5561
4 5739 2036 2027 2028
4 4973 1511 1519 1510
4 2770 2771 2327 2794
4 6203 1520 1529 1528
4 3369 3107 4702 3371
4 2769 3610 3369 3608
4 3369 6103 3608 3610
4 4036 3419 3900 2187
4 6204 1522 1513 1514
4 3736 2824 4192 2862
4 5744 1521 1512 1513
4 3371 3735 5274 3740
4 3369 6103 3610 3684
4 3487 2036 2044 2035
4 4732 4288 4279 4231
4 4686 2242 5040 4470
4 3158 3157 2966 2893
4 2205 2602 2338 2603
4 2705 2339 2732 2712
4 3980 2732 2339 2733
4 5091 1533 1541 1532
4 3636 3115 3117 3118
4 2560 3837 2563 3535
4 5833 1048 1047 1039
4 6185 4967 5058 6192
4 5126 4614 4673 6004
4 4908 612 611 603
4 2563 3137 3535 3674
4 2339 2733 2712 2753
4 3698 5947 5953 1138
4 3203 2960 2962 2963
4 2755 2240 1531 1540
4 3046 2908 5578 2906
4 2755 1532 1540 1531
4 5058 1524 1523 1515
4 2858 4771 4261 565
4 2909 3677 3287 3050
4 2797 3209 2983 2326
4 3893 5058 6175 5545
4 5602 3105 3046 3572
4 3047 3104 4700 3106
4 3046 3105 5579 3050
4 4771 4261 565 556
4 2257 5112 1571 5137
4 3419 2195 2186 2187
4 4770 3850 4771 555
4 1534 4769 4770 1526
4 3841 2674 2466 3676
4 4960 4046 1544 2869
4 3303 3304 3305 4908
4 2561 2559 2562 3675
4 5664 893 885 894
4 2559 3996 5161 5469
4 4502 3994 3996 5836
4 4507 4505 5836 4502
4 2380 4020 4024 4029
4 2561 3675 2562 3841
4 4502 3996 3995 3675
4 5890 3675 5469 3996
4 6205 2046 2045 2037
4 3675 4505 3996 5890
4 6203 1528 1519 1520
4 2950 2952 2775 2953
4 5453 3812 3813 2017
4 2214 4438 2819 3238
4 2335 2954 2783 2785
4 4199 1521 1529 1520
4 6205 2054 2045 2046
4 2950 2775 2211 2481
4 5001 547 3850 5082
4 5806 1565 1573 1564
4 2814 1542 1533 1534
4 5443 5118 5123 5124
4 5443 4406 5902 5426
4 5443 5337 5123 5436
4 5443 3785 5902 5421
4 6195 1533 1524 1525
4 4519 4517 1011 5805
4 4058 4060 6206 5216
4 5334 6188 5761 6207
4 3342 3161 5114 5849
4 5032 3204 3206 570
4 4120 5082 546 1517
4 2858 4190 565 4261
4 5443 5426 5902 3785
4 3014 3015 3017 3641
4 3318 6085 2936 3584
4 2814 1534 1543 1542
4 6175 1516 1525 1524
4 2239 1541 1549 1540
4 3304 604 613 612
4 5179 628 627 619
4 3318 3932 4948 3510
4 4769 1534 4960 2814
4 3319 3215 3641 5798
4 4120 1517 1526 1525
4 4960 4769 4770 1534
4 2810 3316 3162 4313
4 2858 564 565 573
4 5857 5406 5645 1073
4 4960 1543 1534 1535
4 2374 3215 3318 2936
4 3317 4762 4310 3639
4 2404 2768 2867 2765
4 4809 3501 3843 3842
4 2765 3740 2901 2862
4 6208 894 885 886
4 2827 4557 2974 3549
4 2496 3384 2866 2699
4 6209 1913 1904 251
4 3847 4614 3845 3605
4 5216 2064 2063 2055
4 2756 4795 2506 3186
4 6210 1529 1537 1528
4 2065 5215 2064 5623
4 2507 2501 2756 2866
4 2500 2498 2501 3384
4 2984 2985 6105 4198
4 6203 4973 1519 5968
4 2981 2774 2775 2477
4 3140 3692 3694 3691
4 2202 2203 2601 2259
4 5593 2063 2064 2072
4 2467 2207 2464 2627
4 2476 2483 2217 2481
4 2950 2481 3140 2775
4 5825 5818 2948 2947
4 2375 2376 2676 2385
4 5525 2920 5521 6133
4 2811 2336 2812 2821
4 2454 2461 2561 2459
4 3078 3828 3290 3289
4 3990 2514 3989 3770
4 5158 84 85 618
4 4494 2424 2421 5390
4 2755 1541 1540 1532
4 4189 4350 583 584
4 5048 576 5059 567
4 5230 647 646 638
4 5002 2482 6211 4233
4 6212 2052 2043 2044
4 2907 3045 3572 2527
4 4190 2858 2857 4261
4 2816 2817 4960 4046
4 3292 3992 3290 3828
4 6183 6197 5083 4968
4 3534 4189 3531 4350
4 2239 1550 1549 1541
4 2449 3288 2421 3322
4 2858 573 2869 564
4 5695 1934 6213 1943
4 3240 3629 3582 3246
4 4514 4516 4193 4517
4 4095 5955 3808 4114
4 6109 5693 1925 6214
4 2817 1551 1542 1543
4 2301 2388 2220 2615
4 2830 3997 1561 1552
4 4095 4172 4109 3775
4 2868 2858 2869 4046
4 4046 1544 1552 1543
4 5849 1578 1586 1577
4 3463 4172 4109 4095
4 5169 2109 2110 2118
4 5109 2147 224 2156
4 4095 3808 4115 4114
4 4109 4095 4115 3463
4 5082 1508 1517 1516
4 3202 5102 3200 5637
4 5525 2921 2920 6133
4 3204 3199 3208 3205
4 3651 1546 1537 1538
4 3651 1547 1546 1538
4 3205 3206 3199 3202
4 2509 2512 4949 2506
4 5080 595 604 603
4 4648 3548 4672 4042
4 6105 1575 1567 1576
4 4042 4799 4648 3548
4 2825 2974 2355 3548
4 2258 4152 592 4350
4 5593 2064 2073 2072
4 5866 5432 5833 4237
4 5138 2081 2072 2073
4 3736 2824 3737 5877
4 3130 1551 1559 1550
4 3548 4672 5734 5964
4 3548 4042 3549 4041
4 6201 2103 2094 2095
4 2357 2360 2899 3371
4 3892 3803 6215 3244
4 6202 6201 2104 5879
4 4170 631 640 639
4 4770 1534 1535 4960
4 3967 4226 4608 5291
4 3892 3891 6184 6185
4 5670 5693 1924 1925
4 2817 1542 2814 1543
4 6184 3892 3665 3891
4 3147 5085 4999 4167
4 5470 3864 5471 6216
4 3534 2713 2711 2848
4 2350 3664 3893 3665
4 2868 582 1553 89
4 3805 3718 3804 3723
4 3850 547 546 5082
4 6217 1567 1558 1559
4 4886 1565 1557 1566
4 2868 1553 4046 1544
4 5669 4626 3965 4723
4 537 1517 546 5082
4 3964 3549 4799 3965
4 5090 1035 2894 2947
4 4197 1568 1576 1567
4 5717 5662 241 1464
4 2499 2512 2494 2506
4 5807 6188 5334 3586
4 4210 4606 4551 5290
4 2653 2407 2827 2974
4 5633 1456 1464 1455
4 4777 3327 5291 5823
4 5257 1556 1565 1564
4 5593 2064 5623 2073
4 2564 2714 2998 2316
4 4009 2750 2238 3749
4 3746 2618 2625 4053
4 3141 3142 4008 3692
4 3877 4213 3878 5234
4 2961 3837 3535 2963
4 2619 5493 4058 5449
4 5159 629 628 620
4 6105 4196 4198 1567
4 4450 1027 4122 1018
4 6218 2091 2090 2082
4 2216 2213 3144 2215
4 4002 3747 4826 4060
4 4002 4825 2821 5449
4 3107 3108 6108 3109
4 3305 3306 3136 4689
4 2360 3369 3107 3108
4 2358 3108 3107 3109
4 3851 5634 2525 5165
4 5182 636 645 82
4 6217 1559 3130 1568
4 2357 2899 3401 3371
4 6219 6220 6221 5179
4 2258 2505 2255 2256
4 4192 4694 5529 4775
4 3075 3080 3083 2356
4 1508 5082 1517 537
4 6105 1566 1567 1575
4 4152 4167 4999 601
4 3132 1561 1570 1569
4 3127 5212 3129 5168
4 5717 1464 241 1455
4 3967 4630 5286 5291
4 5823 3327 5291 3967
4 2570 3327 3326 4777
4 3326 5286 5669 4352
4 2258 4152 601 592
4 3132 1569 1560 1561
4 5169 5232 2119 2110
4 88 2255 2505 1562
4 5662 2003 241 240
4 4624 4352 5781 5669
4 5286 5669 4624 4534
4 5906 1101 1092 1093
4 6222 1577 1586 1585
4 5717 1994 1985 242
4 3769 3671 4527 3672
4 4387 4384 3916 3311
4 1563 229 5056 230
4 4349 231 2093 2084
4 6209 1913 251 250
4 3312 3672 4527 3671
4 5642 229 5056 1572
4 251 1365 252 1904
4 3313 2236 3152 4726
4 3840 2855 4150 5469
4 2631 2673 2674 2466
4 3326 2863 4775 5413
4 2788 2675 3313 3519
4 5257 1564 1555 1556
4 2083 6223 5623 6224
4 3628 3635 3631 4094
4 3808 3245 3809 3802
4 5843 1061 5364 5073
4 3851 2524 3497 5493
4 4935 3809 4245 3802
4 3306 613 622 621
4 4273 646 645 637
4 3130 1560 1568 1559
4 5835 1063 1062 1054
4 2477 5143 5220 6225
4 5204 638 637 629
4 4095 3581 3775 3808
4 2239 1559 1558 1550
4 5876 2103 6201 2104
4 3808 4115 4934 3775
4 252 6083 6096 1895
4 6105 1584 1575 1576
4 3635 3636 3245 3801
4 3808 3775 4934 3776
4 6217 1568 1567 1559
4 3159 1562 1570 1561
4 5669 4723 5877 5781
4 4095 4115 3808 3775
4 3161 1570 5112 1579
4 3147 3161 5112 5114
4 6221 6220 1597 1598
4 6220 1598 1607 1606
4 4197 1577 1576 1568
4 81 5999 654 645
4 3808 3245 3802 3801
4 6219 3341 5114 5920
4 3341 5113 3147 5085
4 2830 2817 4046 1552
4 4167 4999 601 610
4 3161 1578 1569 1570
4 5002 6211 2482 3691
4 3159 1562 1571 1570
4 3344 3336 3341 3343
4 2257 1571 87 5137
4 5136 3344 3147 3341
4 6226 1605 1613 1604
4 5231 1604 1595 1596
4 5187 1595 1586 1587
4 5002 3613 3649 3691
4 3341 5085 3147 5136
4 4971 5820 2726 1531
4 3343 3341 5136 6219
4 5600 6096 1895 1886
4 251 6209 1374 1365
4 6227 4132 1302 1293
4 1507 1516 1508 5082
4 5642 2111 2102 229
4 4348 3341 5136 3343
4 5136 3343 5159 4348
4 3341 3343 4348 3344
4 3904 4677 2578 3911
4 5806 1565 1574 1573
4 2474 3328 2757 2579
4 2724 3350 3300 2722
4 5642 5022 5232 3649
4 2469 3482 2471 2697
4 2314 2721 2308 2305
4 3176 3177 3021 3178
4 5854 2094 170 2085
4 3130 1560 1569 1568
4 5203 1082 1091 1090
4 3306 622 631 630
4 6109 6214 1925 1926
4 2574 2578 2579 3768
4 2718 3895 4352 5287
4 3568 6109 1926 6214
4 3159 3997 3132 2829
4 2580 3164 3170 4764
4 3059 3818 4578 3349
4 5112 1579 1570 1571
4 2314 2723 2724 2722
4 2761 2864 2719 2865
4 5205 5231 1596 5872
4 5183 646 655 654
4 5857 1082 1081 1073
4 3161 5849 1578 5114
4 5137 87 1580 1571
4 5113 1580 1589 1588
4 3343 5159 4348 5097
4 2836 3781 4484 3780
4 4250 5619 5473 4240
4 3476 5619 5473 3981
4 5857 1081 1072 1073
4 3778 3090 3032 3086
4 6221 5158 5157 5085
4 3778 4954 4786 3090
4 5157 609 618 85
4 5002 3613 5232 3649
4 5205 1596 1587 1588
4 5642 228 2111 229
4 3779 4252 4954 3780
4 2941 3779 3780 4252
4 3778 2624 2625 3032
4 2802 4957 4102 6115
4 2767 2903 2802 2803
4 2406 2407 2823 2765
4 2802 2903 4102 4957
4 5566 1590 227 1581
4 2802 4715 6116 6107
4 2802 3608 6107 6116
4 2091 3127 5021 5212
4 2767 2768 2903 2766
4 2101 5021 2100 5169
4 2800 3108 3763 2769
4 2802 4102 3610 3608
4 2802 6116 2803 5552
4 3613 5806 3614 1573
4 5206 5927 5207 2123
4 5820 1523 1532 1531
4 5003 5002 5232 5169
4 5213 1601 1600 1592
4 3862 2098 2106 2097
4 2534 2542 2541 2537
4 5173 648 647 639
4 3485 4304 4628 4627
4 4298 2777 4292 3869
4 2534 2844 2541 2540
4 5928 4627 4203 4628
4 3862 5089 2097 2106
4 2590 2234 2762 2242
4 5114 1587 1578 1579
4 2958 3878 5160 2964
4 5252 1602 1593 1594
4 4393 4202 5207 5879
4 3568 3624 6109 6214
4 2214 3840 5227 2787
4 3660 3621 4187 5080
4 6228 1604 1603 1595
4 2459 3305 2591 3325
4 5231 5187 1596 1595
4 5897 1595 1594 1586
4 3313 3519 3311 2788
4 5230 647 5186 646
4 6221 5113 5085 5157
4 2788 3519 4387 4386
4 3878 5160 4200 4213
4 5849 1587 5114 5187
4 3877 2789 4153 5223
4 2280 99 492 98
4 5113 5137 5112 4999
4 5995 1225 1226 1235
4 5158 1598 84 5180
4 5131 1621 1630 1629
4 5570 5002 5232 5003
4 3878 5234 4200 4701
4 5570 1582 1590 1581
4 5223 5234 3878 4701
4 6229 1590 1591 1599
4 3385 6179 6084 3536
4 4992 3538 4081 4636
4 4081 4992 6170 6033
4 6229 5566 1590 1599
4 2498 3538 3537 5141
4 2497 2508 2510 4272
4 2498 5141 2499 3538
4 3538 3537 4622 4587
4 5566 5232 2120 5651
4 4587 3536 4636 3538
4 3538 4658 6033 4081
4 6158 4341 6230 5704
4 3538 3537 5141 4622
4 6225 1592 1584 1593
4 5897 1586 1594 1585
4 5186 647 656 655
4 3669 3273 4866 3647
4 3584 4893 5796 4260
4 3025 3055 3027 3910
4 3372 3053 3452 3054
4 5523 3452 3053 784
4 4857 2280 4910 1463
4 5921 5920 6219 5872
4 1472 1463 2280 99
4 3022 3053 3373 3182
4 6221 1589 1597 1588
4 3053 3182 5547 3373
4 3053 784 3054 785
4 5204 5159 5097 629
4 6222 5849 5187 1586
4 5523 3053 3182 5535
4 4166 587 5084 586
4 5155 666 675 674
4 5180 5179 627 5158
4 5158 85 84 1598
4 3053 3182 5535 5547
4 6221 5205 1597 5872
4 5136 4167 611 610
4 4568 3938 5762 4569
4 5872 1605 1596 1597
4 3601 4034 3938 3970
4 6064 5920 5872 5231
4 6219 5179 6221 5085
4 5140 1605 5872 1606
4 3480 5680 4342 5486
4 5456 1622 1621 1613
4 1472 2281 1481 98
4 2280 501 492 4891
4 2688 3938 3527 3442
4 2688 3938 3662 3524
4 3434 3436 3437 4878
4 3430 3954 3438 3428
4 2402 3425 3467 3666
4 3430 3889 3434 3437
4 3467 3469 3471 3599
4 4360 1609 1608 1600
4 3951 3456 3599 3954
4 4360 1608 5315 1599
4 5915 2139 176 175
4 2971 3183 3456 3468
4 3185 3911 3904 2578
4 5022 2102 2093 5056
4 3339 5971 5920 3340
4 3340 5920 6064 5971
4 4213 2117 2116 2108
4 5221 1602 1601 1593
4 6231 2136 2145 2144
4 2591 3583 3325 4689
4 5768 6232 5984 5982
4 3336 2791 2458 3303
4 3342 3340 3339 5920
4 5235 1080 1071 1072
4 6228 1603 1594 1595
4 5233 1604 1613 1612
4 3074 3514 6129 6153
4 3336 3339 3338 3345
4 5456 1613 1621 1612
4 2988 3339 2989 3338
4 5373 1185 69 68
4 6233 2135 6231 2144
4 5181 627 636 5180
4 3325 4689 3583 3343
4 2580 2582 2583 3170
4 6234 5320 6235 5993
4 2762 2590 3111 3114
4 2580 2585 5220 4764
4 5136 4348 620 611
4 6226 1614 1622 1613
4 5182 5180 636 83
4 5181 5179 627 5180
4 5986 1224 5314 5887
4 2464 3928 2986 2463
4 2476 4233 2958 3602
4 6221 1589 1598 1597
4 2759 2820 3714 3495
4 5181 636 5182 5180
4 2353 2748 3033 2727
4 5182 82 1616 83
4 5230 638 5300 647
4 4260 3510 4937 5796
4 2344 3477 2347 2346
4 3144 2215 3864 3863
4 2619 4053 2618 2262
4 5956 1176 714 68
4 5957 714 705 706
4 4809 2834 2623 4070
4 5299 5373 713 714
4 4123 1627 4870 1618
4 5111 1617 224 1608
4 2791 2706 2705 2704
4 3561 1914 1915 1923
4 5110 1618 1617 1609
4 5214 1601 1609 1600
4 2203 2759 2254 3157
4 3111 4422 2764 3112
4 2764 4422 4470 4423
4 6236 5942 6237 6238
4 3305 2591 4689 3136
4 5057 5898 5897 2990
4 5221 1601 1592 1593
4 5911 6239 2139 5985
4 5130 1612 1621 1620
4 4039 1618 1610 1619
4 3542 3234 3235 3114
4 5258 667 666 658
4 3762 5840 1108 1099
4 5233 5923 6240 6228
4 6241 1603 1611 1602
4 6242 2153 2162 2161
4 4290 1183 1192 1182
4 6181 4283 6243 6244
4 3305 4348 3344 4908
4 3562 4328 3898 3559
4 5519 4376 3949 5518
4 4377 3562 6157 4379
4 3562 4379 3063 4331
4 5140 1606 1614 1605
4 5226 1652 1643 79
4 4379 3562 6157 4331
4 4273 5230 5183 646
4 5230 5300 5186 647
4 3562 6157 3898 4328
4 5897 5231 1595 5187
4 4170 5040 639 640
4 4071 1216 1215 1206
4 2859 2230 3275 2265
4 3623 3256 3627 3625
4 3618 3619 3235 3237
4 5320 1623 1614 1615
4 5020 1649 1648 1640
4 5767 5186 5230 5300
4 3626 3256 2620 4970
4 2372 1111 5910 1110
4 5131 1629 1620 1621
4 2735 2620 3257 4970
4 5993 1616 5182 645
4 3257 3256 3169 3625
4 6234 5993 5984 5320
4 5460 1637 1629 1638
4 5993 1615 1616 1624
4 3477 2610 3479 2347
4 3081 2438 2434 2433
4 1634 6000 1643 80
4 5226 1652 79 78
4 672 79 6000 663
4 2859 2225 2386 2301
4 79 6000 80 1643
4 3484 3099 2742 3096
4 5111 2138 225 2147
4 2798 2799 2792 2422
4 2263 2268 2271 2270
4 2621 3644 3262 2266
4 6107 3108 3766 1378
4 5214 1610 4039 1609
4 6107 3608 3108 6108
4 6107 4715 3766 3763
4 6242 5942 6238 2162
4 6107 3763 2802 4715
4 3620 1622 1630 1621
4 5328 1115 1106 1107
4 2802 3763 6107 2769
4 4123 1628 1627 1619
4 2826 2507 3186 2756
4 3020 3056 3028 3030
4 4293 3615 4354 3612
4 6224 2091 5021 5212
4 5130 1620 1611 1612
4 3193 1109 1118 1117
4 2925 1638 1629 1630
4 3715 3857 3717 3066
4 4398 2722 3554 2723
4 5314 1224 1214 1215
4 3620 1639 1631 1640
4 4028 3615 4029 4354
4 5184 3298 5263 4293
4 5933 5934 6245 4851
4 2290 2537 5405 2542
4 4342 4983 4942 4996
4 5984 1632 1623 1624
4 1622 6226 2973 1614
4 2534 2537 2290 2542
4 3122 4739 6077 4738
4 4275 1642 5333 1643
4 82 5999 1625 81
4 2099 2091 5212 3127
4 5993 645 5999 1616
4 2662 2667 2672 4927
4 2780 5240 4104 5244
4 2664 5197 2878 2879
4 663 5999 6000 5982
4 81 5999 1634 80
4 5982 1625 1633 1624
4 5289 684 5335 683
4 6181 6153 6243 6129
4 2880 5197 5211 4422
4 4697 4766 6182 6181
4 3881 6018 3880 5787
4 3165 2554 4697 2917
4 5368 5403 710 711
4 3167 2552 6129 5793
4 3167 6129 2552 2548
4 6181 2955 4001 3167
4 5374 5996 1204 5369
4 4952 6126 1482 239
4 4938 4308 4342 5680
4 3167 2955 4001 3166
4 3406 3123 3404 3407
4 3407 3123 3580 4733
4 4870 1626 1617 1618
4 3407 3123 4782 3580
4 4869 1626 1627 1635
4 3320 3322 3405 3408
4 3320 3406 2423 3321
4 2423 3407 3320 3405
4 4184 6017 1234 5995
4 6246 1437 1428 1429
4 3407 4733 4778 3123
4 5020 5355 5105 1648
4 3017 4936 3638 4876
4 3407 3403 4782 3404
4 6247 2142 2141 2133
4 6248 5359 6009 4854
4 4105 682 691 690
4 5407 5256 5409 5645
4 2228 3215 2374 2936
4 5789 4188 986 5775
4 2810 3316 2369 2367
4 6000 1643 5333 1634
4 6000 5276 672 663
4 2973 1632 1631 1623
4 3314 3317 3643 3638
4 6235 1615 1606 1607
4 3317 3643 5046 4309
4 5360 1649 1640 1641
4 5984 5982 1633 1624
4 3314 2369 3316 3642
4 3314 3315 3642 3316
4 4892 4313 4307 5046
4 6000 5276 663 5275
4 4342 5030 4983 4308
4 6094 1372 5575 4745
4 5333 1642 1633 1634
4 3874 206 1231 1232
4 5297 2141 2140 2132
4 5575 4691 1382 1373
4 3377 3270 4811 3999
4 4867 3999 3270 900
4 2742 2487 3377 3484
4 3270 3097 4867 4866
4 2491 3668 2268 2742
4 5692 3692 5905 5592
4 5692 6224 5592 5905
4 3656 3806 3657 4664
4 6020 1668 1677 1676
4 6249 1653 1644 1645
4 5692 5021 3693 6224
4 4357 1647 1655 1646
4 5692 6224 5905 4623
4 5692 5905 3648 4623
4 4283 2144 2153 2152
4 2896 5270 5352 6006
4 6250 1228 1219 1229
4 5355 1658 1657 1649
4 5887 1225 1224 1215
4 3390 3393 3395 3506
4 5987 1233 1232 1223
4 5130 5132 1611 1620
4 3394 3391 3799 3439
4 4342 5030 4942 4983
4 3940 3758 5259 3709
4 6232 1641 1632 1633
4 3391 3799 3512 3395
4 3390 3512 3505 3395
4 5023 5321 3113 5258
4 6094 4096 4671 4090
4 4852 4855 708 4853
4 5969 1641 1640 1632
4 5850 5646 5644 1065
4 5355 1648 1649 1657
4 2416 2566 3037 3036
4 5276 5253 5278 664
4 1658 5442 5360 1649
4 3276 3113 3112 5405
4 4854 6009 1669 1678
4 4913 691 700 699
4 5240 1650 1641 1642
4 2991 2688 3000 2997
4 1643 5226 79 6000
4 5244 1659 1650 1651
4 6000 5999 80 1634
4 3579 3561 3831 1914
4 4201 1652 1660 1651
4 2641 2648 2649 3138
4 3389 3400 3399 3398
4 6113 5916 1946 6114
4 5028 3742 4431 4430
4 2414 2567 2420 2566
4 2993 2566 3037 3552
4 3013 2972 2428 5339
4 3041 4410 2428 2425
4 2428 2646 5339 4410
4 4869 1636 1645 1644
4 5742 4954 6190 4950
4 4871 6023 2174 221
4 6249 1654 1653 1645
4 5460 1628 5133 1629
4 5910 4204 4276 1119
4 4636 3536 4225 6169
4 2533 1237 1236 1227
4 6146 5383 1949 1419
4 5789 163 5759 995
4 4243 6190 4252 4241
4 4954 3780 4241 4950
4 3778 3779 4954 3780
4 4954 4786 5802 4252
4 3047 3106 3046 3050
4 5988 5191 1645 1646
4 5190 1638 1646 1637
4 3285 3287 3019 4125
4 5929 2181 6005 3153
4 2909 2408 3285 3019
4 2442 1664 1663 1655
4 5105 1639 1647 1638
4 2907 2527 2526 3045
4 1182 4290 5408 4045
4 5938 1133 1132 1124
4 3047 2976 3104 3103
4 4358 1656 1647 1648
4 2220 3797 2221 2222
4 2391 3884 5589 3007
4 3214 3015 5727 3016
4 2362 2854 2851 2852
4 2860 3348 3641 3884
4 4275 1643 1651 1642
4 5572 3050 4287 3677
4 5999 80 663 6000
4 2701 2472 2831 3225
4 2498 6084 3382 3384
4 3868 4071 3870 5314
4 5241 6232 5397 5969
4 4107 5335 692 683
4 4107 691 683 692
4 6084 3384 2498 3540
4 4275 5240 1642 1651
4 2496 2699 4207 3384
4 4111 77 1661 78
4 2514 4415 4494 4414
4 3387 6010 6251 5356
4 2429 2325 2433 3174
4 2517 4231 4279 4289
4 2268 3268 2746 3644
4 2742 3096 3097 3346
4 2517 2514 5390 2424
4 6023 4831 220 1653
4 3381 3321 2493 2423
4 2958 3878 4213 5160
4 4701 4000 5206 4200
4 2125 5209 2964 4000
4 6023 1653 220 1644
4 5988 1646 1645 1637
4 5929 5790 6252 4056
4 4990 4225 6169 4226
4 4200 5234 4213 2116
4 2124 4000 2125 4200
4 6005 2182 2190 2181
4 4357 1656 1655 1647
4 4915 2780 5244 2782
4 5270 1227 1226 1217
4 6011 3917 1656 1665
4 2886 3417 3396 3416
4 2442 1663 1654 1655
4 2246 2248 2253 2551
4 2776 2782 4915 2870
4 3917 1655 1656 1664
4 6010 1668 1667 1659
4 6019 3388 3387 3386
4 6011 1656 4358 1657
4 4589 6248 6253 6189
4 4358 5355 1657 1648
4 4184 1234 1224 1225
4 4589 4292 3869 6189
4 3447 5352 4072 3416
4 4990 4226 5823 3907
4 6169 3536 4225 4990
4 6011 1657 1666 1665
4 3536 2501 3382 4992
4 3942 4399 1781 5492
4 3425 3468 3473 3421
4 4589 6248 5986 4185
4 2718 2716 2715 3326
4 5134 245 1428 244
4 4111 1661 4201 1652
4 5992 1669 1668 1660
4 2586 2577 2401 3185
4 2680 2385 2702 2699
4 5367 701 5362 692
4 3326 2822 2758 2863
4 4111 5226 681 78
4 4111 4105 4914 690
4 5670 5693 3561 1924
4 4855 75 699 708
4 4913 4914 690 699
4 3917 1664 1656 1665
4 2532 2569 1238 1229
4 4831 219 2192 220
4 2437 218 199 2201
4 3183 3178 3021 3177
4 2670 2192 2200 2191
4 4767 4059 3086 5742
4 3962 878 3831 877
4 2605 2624 2622 3034
4 3579 3831 150 1914
4 4052 4767 2625 3749
4 2812 2618 2931 3746
4 4767 3087 3086 2625
4 3982 3458 5917 5611
4 5259 3709 3757 3942
4 3978 1662 1653 1654
4 4055 1275 262 1266
4 6015 201 202 1236
4 6251 6019 1666 1675
4 4484 3458 5917 3811
4 6007 1228 1227 1218
4 4484 4808 3782 3903
4 3387 6019 5356 6251
4 5989 1674 202 1673
4 6010 1659 1667 1658
4 6009 5249 6020 1677
4 5724 5918 4808 4484
4 5356 1658 1666 1657
4 5994 1234 203 204
4 6251 1667 1676 1675
4 3942 6073 1790 4399
4 3443 5819 5343 3745
4 4484 3780 5473 3458
4 4184 6251 6017 5995
4 6020 1676 1667 1668
4 4484 5473 5724 5614
4 3485 4633 3869 4298
4 5992 1660 1668 1659
4 5367 4627 4203 5928
4 5336 208 4853 1230
4 6009 5249 5987 6020
4 4914 1661 77 1670
4 3781 4484 3780 5724
4 6237 2163 2155 2164
4 5965 4852 4854 4855
4 5996 1222 1213 1223
4 701 709 710 5368
4 2764 4425 3112 5196
4 3339 3338 5849 6222
4 2791 2460 2785 3337
4 6254 2163 2164 2172
4 2437 218 1671 6
4 4830 1671 1663 1672
4 2453 2593 2987 2989
4 3339 3338 6222 2989
4 151 3831 1923 1914
4 3339 5187 5971 2989
4 2703 2785 2705 2751
4 2711 2704 3530 2712
4 5182 1616 82 645
4 3175 2556 2732 2339
4 2732 3530 2712 2733
4 2435 2201 219 218
4 2670 2436 2532 1238
4 2435 2669 4831 2192
4 2435 2437 2201 218
4 2532 1228 6250 1229
4 3558 4330 3562 4328
4 5791 6007 2533 6008
4 1424 3898 1423 5660
4 3138 3139 4003 3756
4 6157 5660 4331 3898
4 5989 1235 6008 1236
4 6016 1673 1664 1665
4 6015 1673 201 1672
4 6022 1673 1672 1664
4 3898 3897 1423 5660
4 5994 203 1234 1235
4 3898 3897 4881 1423
4 5989 203 202 1674
4 3898 6144 3897 5660
4 3898 3897 6144 4331
4 2543 3218 2264 2620
4 5994 1675 203 1674
4 4184 1234 6017 1233
4 6251 1675 1666 1667
4 5249 5987 1233 1232
4 6017 1676 204 1675
4 3424 3940 5260 5259
4 5249 1677 205 1676
4 4399 3941 6073 4400
4 4833 4814 3793 5301
4 6020 6251 1667 1676
4 3346 3348 3794 3213
4 5359 1232 3874 1231
4 6009 1669 1677 1668
4 3874 1677 1678 206
4 3795 4160 5684 5685
4 4855 76 699 75
4 6253 4104 6189 5384
4 1230 6003 4852 5336
4 5800 4879 5590 4814
4 5736 4879 5800 5685
4 3795 5685 5800 4160
4 3795 5800 3348 3793
4 4914 4855 76 699
4 4855 1679 1670 76
4 4160 5800 4879 5685
4 2226 3214 3213 3264
4 3795 3641 5800 5685
4 5800 3641 3348 5590
4 3641 4875 3017 5685
4 5736 3640 3641 3319
4 2502 5340 1802 1803
4 2654 2383 2908 2904
4 6029 1769 1778 1777
4 6026 268 1681 267
4 6220 5180 1607 1598
4 3848 2908 3604 4101
4 3517 1700 1709 1699
4 6025 266 6047 1769
4 3262 2621 3645 3644
4 2229 2222 3263 3260
4 2850 3264 3281 4738
4 5728 5727 4738 3669
4 2854 2851 4601 3279
4 4532 6065 1259 3494
4 3561 1924 1923 1915
4 3279 3280 3263 3773
4 3593 3797 2220 3796
4 6220 1597 1598 1606
4 5978 3280 3645 6158
4 3645 5978 6230 3773
4 6028 1681 1690 1680
4 2600 3533 5357 2712
4 5444 743 734 134
4 6081 1767 1775 1766
4 2259 3577 3156 3576
4 5572 5597 4613 5628
4 6221 1589 5158 1598
4 3573 2610 2608 2352
4 5572 4613 5597 5605
4 6255 269 268 1767
4 3261 3269 3260 4925
4 3260 3261 4925 3771
4 3516 1689 1690 1699
4 6256 6028 6029 6051
4 2551 3881 3879 2552
4 3881 6236 3879 6238
4 5324 4 725 132
4 3881 3879 5795 6238
4 3073 2693 3068 3074
4 3879 5787 5790 6252
4 5455 734 725 133
4 6257 270 1683 269
4 2248 2549 2551 3368
4 3879 2891 5790 2898
4 4363 1693 1702 1692
4 5434 6258 1696 1687
4 3476 5473 3458 3981
4 2941 3779 4252 4560
4 2941 3779 4560 2939
4 3091 3779 4560 4786
4 4510 1684 270 271
4 6082 1775 1784 1783
4 4287 3102 3329 3504
4 5419 1714 1715 1724
4 6259 1686 1685 272
4 5466 752 751 743
4 5474 136 752 135
4 6081 6082 1775 4212
4 4484 5473 3780 5724
4 4240 4252 3780 4241
4 2262 5449 3495 5493
4 3085 2238 2750 3749
4 5476 5474 4099 1788
4 3087 3749 5000 4010
4 5303 1688 274 275
4 3778 4954 3090 5742
4 4253 130 131 723
4 3778 4059 2625 3777
4 5450 723 732 731
4 3777 2838 4070 2624
4 4059 6101 4058 3498
4 4059 4950 5099 6101
4 2805 2978 2977 3374
4 5491 6082 5319 1783
4 5121 4314 5437 1704
4 2493 2423 3379 3381
4 5652 5658 2486 2487
4 2490 2485 3048 2486
4 6259 273 272 1763
4 2272 2450 2430 2441
4 5324 5302 6258 5325
4 5303 1688 1687 274
4 2747 2744 3606 5658
4 6259 5465 4206 1764
4 2742 3346 2269 3096
4 5121 1705 1695 1696
4 2747 5674 2487 5658
4 5444 1770 135 134
4 2446 3322 2449 3321
4 5382 1687 273 274
4 5658 2486 2487 2744
4 2486 3606 2744 5658
4 3555 6065 5504 5817
4 2489 2744 3296 2980
4 5464 1694 1685 1695
4 5324 275 132 1688
4 2449 2799 2521 3288
4 3286 3100 3209 3285
4 2486 2744 3606 3296
4 2486 4700 5652 5305
4 5305 4700 3048 2486
4 5324 275 5303 1761
4 2550 3879 3882 2898
4 3248 3252 3743 3443
4 3195 2694 3733 3190
4 3194 3193 5749 1118
4 3192 5282 3706 4021
4 5302 1761 1762 1770
4 5303 275 274 1761
4 6260 4403 1751 1750
4 724 131 4253 5325
4 3194 3191 1126 5282
4 2694 3072 3415 3195
4 4253 5325 5451 724
4 3191 2660 3193 4143
4 4466 209 210 1239
4 6248 6189 5986 5991
4 6051 1682 1691 1681
4 6257 1682 1683 1692
4 4300 1259 1258 1250
4 6248 6189 5991 6003
4 6248 4854 6003 5359
4 3889 3430 3888 4478
4 4300 1258 1249 1250
4 3430 2395 3434 3889
4 6257 6255 269 1682
4 5260 3944 4430 5491
4 6257 6081 1766 1767
4 2640 2650 3026 4078
4 3516 1699 1708 1698
4 4299 1241 1250 1249
4 3912 3438 4037 4471
4 3912 4037 3454 4666
4 3245 3244 3776 3809
4 3245 3115 3244 3802
4 6261 1693 1683 1684
4 2645 4044 3826 5463
4 6063 1701 1691 1692
4 6262 1252 1261 1260
4 1691 1682 6174 1692
4 4130 1684 1685 1694
4 3808 4935 3801 3802
4 5310 749 748 740
4 2504 1784 4212 1785
4 3930 3718 3719 3242
4 3245 3774 3244 2944
4 4254 129 1715 1706
4 3286 3504 3287 4780
4 3723 3244 3115 3803
4 6259 5382 5434 1686
4 6258 1696 1687 1697
4 5448 721 722 730
4 2700 3212 2349 2348
4 5434 1687 1696 1686
4 3212 3241 3719 3718
4 5972 4463 4642 6040
4 5437 1713 1712 1703
4 3330 4613 5628 4287
4 2503 5340 2740 1802
4 4103 741 733 742
4 5325 1697 6258 1688
4 4253 724 723 131
4 5518 5519 3661 4593
4 1125 5975 1124 5941
4 3560 3174 2429 2594
4 4376 5518 3093 3946
4 3558 3661 4330 3042
4 1690 6051 3517 1691
4 3562 3661 3093 4376
4 3991 4558 3187 4557
4 4118 4439 1243 3488
4 3846 4286 4287 6263
4 6054 6034 4439 1253
4 4317 4318 4322 4055
4 4287 3330 4613 6263
4 3516 3517 1699 1690
4 6257 6255 1767 269
4 6063 1700 1710 1709
4 4536 4621 4537 4535
4 3517 1690 1700 1699
4 6069 1710 1719 1709
4 4536 4546 4621 5568
4 4536 4546 5568 4660
4 3507 3513 6264 1729
4 4316 6071 6265 1795
4 3517 1709 1708 1699
4 4536 4546 4660 5142
4 2503 1793 1802 1801
4 5481 1709 1718 1708
4 4439 3518 1716 3488
4 4365 1701 1702 1711
4 4536 2512 4546 5142
4 4364 1703 1693 1694
4 5425 1694 1695 1704
4 5145 5142 4660 4638
4 5437 1704 1713 1703
4 4459 300 291 292
4 5145 4535 4683 4678
4 4304 4627 4298 5367
4 3655 5288 4203 2540
4 2777 2847 3485 2844
4 4628 3485 3486 2539
4 2539 4628 2844 2540
4 5454 5117 5302 3609
4 3392 1720 1711 1721
4 4314 1713 1704 1714
4 5327 740 741 749
4 5121 1705 1704 1695
4 4253 1706 1696 1697
4 2539 3253 5998 4127
4 5422 1713 1714 1723
4 2540 4203 3655 4127
4 2676 2471 2680 2376
4 5870 4441 3536 6179
4 3536 6179 6084 5870
4 4839 4836 5366 4835
4 2500 3540 3384 3700
4 6065 3494 1260 1259
4 4211 212 1242 1241
4 6084 3385 3180 6179
4 4369 1245 4305 215
4 4839 4836 4302 4442
4 6054 1254 1253 1245
4 6084 3382 3384 3180
4 4509 1271 1270 1262
4 6069 1709 1719 1718
4 3518 1707 1708 1717
4 6053 287 288 296
4 2845 2929 3248 3443
4 2538 2540 3654 3253
4 3654 2879 2882 4161
4 5474 1788 136 1779
4 5417 1736 1737 1746
4 6262 1252 1260 1251
4 6063 1700 1701 1710
4 5031 1712 1702 1703
4 5789 4188 2022 162
4 3392 1721 1711 1712
4 2662 4927 2672 2878
4 2672 2878 4927 5908
4 5118 1705 1706 1715
4 4400 1801 1800 1792
4 6258 1687 1688 1697
4 5789 5771 986 995
4 5554 4214 4468 4217
4 2968 3235 3619 3236
4 3469 3471 3798 3470
4 5447 729 730 738
4 3951 3955 3952 3953
4 4447 740 732 741
4 3467 3473 3471 3470
4 4253 130 1697 131
4 3786 128 720 127
4 4016 3431 3955 3952
4 5506 1780 1771 1772
4 4018 4031 4017 3952
4 3467 3469 3258 3470
4 4254 5424 5419 1715
4 5117 1696 4253 1705
4 5118 1714 1705 1715
4 5422 1723 1722 1713
4 4254 5424 722 5450
4 4930 4959 531 4987
4 4930 531 4959 532
4 5448 722 731 730
4 5448 4447 4406 731
4 3518 1707 1717 1716
4 4930 4963 532 3930
4 4014 1252 4439 1253
4 3931 4963 4930 3930
4 6036 1734 1744 1743
4 4930 4959 4987 4947
4 3931 4930 3523 3804
4 5441 2279 2772 2924
4 5020 2871 5105 5355
4 2871 4358 5105 5355
4 4119 4373 1725 4305
4 2926 5105 2871 2889
4 5764 1255 1264 1263
4 5029 1720 1719 1710
4 6035 1726 1717 1727
4 6002 2614 4874 4117
4 6025 6027 6029 6047
4 4424 288 287 279
4 3062 3004 3095 3007
4 4375 3465 3004 3063
4 3894 298 307 306
4 3894 306 297 298
4 6027 6029 6047 4315
4 4369 6038 4305 1245
4 2503 1801 1792 1793
4 4375 3946 3004 5043
4 6025 1239 6047 266
4 4839 3598 4419 4302
4 6002 3462 6164 4379
4 4416 4369 6038 6036
4 2838 3782 4070 3903
4 3400 1712 1713 1722
4 4082 2834 3852 4092
4 6029 6047 1778 1769
4 5421 1732 1731 1722
4 3505 1740 1730 1731
4 2944 3246 2809 3240
4 2834 3852 4809 3501
4 4456 127 719 126
4 4448 747 746 738
4 3173 3231 3496 2633
4 2835 2832 3475 3501
4 5424 3786 5448 3785
4 5446 738 739 747
4 5419 1723 1714 1724
4 4423 4421 4422 5239
4 4423 5026 4421 5239
4 4403 1741 1742 1751
4 4456 3787 4460 5426
4 4423 5170 4469 6013
4 4411 1759 1749 1750
4 3407 3320 3406 2423
4 4832 213 214 1243
4 3320 3082 3040 3404
4 4473 324 4531 323
4 5764 1263 1254 1255
4 3407 3405 2423 4778
4 3320 3405 3407 3403
4 4119 1735 1734 1725
4 5417 4426 1736 1735
4 6055 1728 1718 1719
4 6266 1738 6264 3513
4 3390 1729 1720 1730
4 4441 4224 4435 4586
4 5461 3742 5031 3399
4 3320 3407 3404 3403
4 3600 3890 5108 5512
4 3894 297 288 289
4 5094 2029 2021 2030
4 6264 1737 1728 1738
4 3798 3471 3952 3953
4 4457 4395 299 3971
4 4374 12 280 279
4 3798 3890 3799 5107
4 3890 3799 5107 3512
4 5421 1723 1732 1722
4 3513 1730 1739 1729
4 3890 3973 3799 3512
4 3393 1721 1722 1731
4 4561 1308 3820 5801
4 3390 1720 1721 1730
4 3393 3400 1722 1721
4 3969 5115 3890 5512
4 5462 1749 1740 1750
4 3014 3214 3016 3015
4 4032 301 4459 292
4 4209 4448 747 756
4 2615 2616 2613 4827
4 2638 3658 3653 3659
4 2729 3366 2739 4827
4 4455 4404 4460 4403
4 4375 3948 3946 5043
4 4319 329 4321 328
4 4456 127 720 719
4 3366 3658 6032 3653
4 3785 1732 1723 1733
4 4455 126 4456 719
4 3617 3593 3797 2220
4 3769 2283 2236 2245
4 6041 1271 6040 1262
4 4416 1247 1256 1255
4 4051 2872 6044 1752
4 3151 2245 3760 3914
4 6041 1271 1263 1272
4 4835 4463 6041 4599
4 4303 295 4066 286
4 5763 4370 4368 277
4 3672 3311 3916 3915
4 4426 1736 1727 1737
4 4370 1753 1754 10
4 2910 2629 3166 2630
4 2245 3759 5531 3760
4 6046 4370 1753 1754
4 5972 4011 6035 4012
4 6267 4374 1755 1756
4 6267 4372 1755 4374
4 2454 2455 2452 2453
4 4374 1755 1756 12
4 3513 1738 1729 1739
4 4395 291 300 299
4 2762 3111 3113 3114
4 3957 4562 4488 764
4 6267 1747 1756 1746
4 3886 5923 2593 6064
4 2988 3340 2593 2989
4 2593 5971 3340 6064
4 5414 4404 727 718
4 4427 718 717 125
4 4403 3787 1742 1741
4 4407 4427 6260 5414
4 4378 5047 3462 4911
4 3136 3306 4170 4689
4 3787 1732 1742 1741
4 3787 1732 1733 1742
4 4455 4403 1742 1751
4 3732 2241 3151 3676
4 5097 3343 4284 4689
4 4404 719 728 727
4 4031 4018 4403 5462
4 3343 3583 5864 4689
4 5178 4689 4284 5864
4 2642 2643 2644 4412
4 4371 216 217 1246
4 2721 2418 4398 4716
4 6036 1734 1735 1744
4 2643 2642 2646 4410
4 4417 1265 1264 1256
4 4378 5047 5712 5043
4 4412 2643 2644 2303
4 4675 4750 1352 1353
4 1744 5418 5417 1735
4 6268 1738 1747 1737
4 6268 1747 1746 1737
4 3024 2303 3056 2644
4 4405 1755 1745 1746
4 4378 4873 5047 4864
4 5417 1745 1736 1746
4 6035 1718 6055 1727
4 4429 290 289 281
4 4426 6264 1737 1728
4 4301 1748 1747 1738
4 5512 5515 4395 3974
4 4378 4873 5712 5047
4 3976 299 298 290
4 2251 2290 2287 2536
4 4378 3948 4864 4377
4 4381 13 1756 1757
4 3247 2846 2539 2929
4 3825 1749 1748 1739
4 4382 282 4068 4402
4 2884 3879 2551 2550
4 2279 5020 2782 2870
4 4427 6260 4404 4455
4 2873 3388 3386 3387
4 4403 1750 1741 1751
4 4402 282 283 291
4 3192 2694 3414 3696
4 3445 3616 4072 4073
4 4403 5462 4453 1741
4 6260 1750 1751 1760
4 5352 2876 2804 3445
4 2876 5352 2897 4073
4 2876 3870 3388 3387
4 4416 2872 4371 6044
4 6044 1743 1753 1752
4 4073 2897 2876 5271
4 2876 5271 3870 4073
4 2897 2876 2804 5352
4 3894 3976 3971 298
4 4303 286 4368 287
4 5440 4405 6046 5417
4 6044 1744 1753 1743
4 3445 5352 2886 2804
4 3508 4313 3509 4307
4 4309 4343 4307 5514
4 6046 1753 6044 1744
4 4372 1754 1755 11
4 6266 1738 3513 4301
4 3210 3931 3805 3718
4 6267 1756 1755 1746
4 5418 6045 6035 4119
4 4424 6053 4368 287
4 3162 3163 2367 2633
4 3162 4903 2367 3163
4 5016 4006 758 759
4 5365 4303 4066 5763
4 4312 4311 4344 4343
4 4424 289 288 280
4 4310 2367 4903 3637
4 3824 1748 1749 1758
4 4380 6266 4301 1747
4 3974 3824 4402 4383
4 3974 3973 4301 4380
4 3068 3065 3721 3415
4 5515 3974 3824 4402
4 3824 1758 1757 1748
4 3998 3223 3854 3332
4 4383 281 282 290
4 4411 3825 5462 1749
4 3448 3446 5068 5222
4 4427 4408 124 717
4 5414 718 727 726
4 6260 1759 1750 1760
4 4031 4459 5515 4402
4 3448 3854 5222 3721
4 4407 1759 1760 16
4 3721 3858 3728 3716
4 5324 1761 133 275
4 3028 3029 3030 5251
4 2717 2715 2716 3059
4 3589 4606 2996 3596
4 5382 273 1687 1686
4 5118 4253 4254 1706
4 5303 5304 5382 6258
4 2578 3259 3911 4677
4 2827 5055 3968 4795
4 5506 6039 1780 1781
4 4378 5047 4911 4864
4 4326 1685 1684 271
4 2358 2360 2770 2359
4 5465 1765 1773 1764
4 5491 1774 1782 1773
4 4098 1789 1788 1780
4 5382 1763 1762 273
4 5445 5302 5454 5506
4 4364 1703 1702 1693
4 5273 3740 5274 3736
4 4510 1684 1683 270
4 4206 1772 1763 1764
4 3740 5274 3369 3684
4 2974 3187 3992 4558
4 6259 5464 5465 4326
4 2357 3107 3371 3738
4 2653 3187 2974 3186
4 3177 3178 3179 3454
4 4253 5451 723 724
4 4136 6179 3179 3180
4 4326 4130 5465 4510
4 6261 1683 1693 1692
4 1765 1774 6081 5465
4 5476 4452 752 761
4 5445 1780 1779 1771
4 6259 1685 4326 272
4 4510 270 1766 1765
4 3911 3912 4478 3889
4 6257 1683 1682 269
4 3904 3905 4138 3906
4 3442 4568 3527 3939
4 6081 1765 1766 1774
4 2394 3259 3662 3601
4 6257 1767 1766 269
4 4212 1776 1785 1784
4 4666 3454 3185 4137
4 6255 1682 1681 268
4 4441 4136 6179 4436
4 4136 3906 4471 4436
4 5093 1500 237 1491
4 3547 3817 3060 3818
4 6050 1767 1768 1776
4 3059 3349 4578 5548
4 6025 7 267 1680
4 6025 6029 1769 6047
4 3059 5412 5548 4578
4 6047 1248 265 1239
4 6026 1769 1768 267
4 3818 4578 1315 1316
4 1776 1777 4212 1785
4 6256 6051 6029 6050
4 3985 3517 3516 6028
4 5374 71 1203 1212
4 5444 5455 134 734
4 2467 2631 2233 2466
4 4098 5454 3609 5466
4 4506 4469 4501 3730
4 5444 1770 1779 135
4 2562 4156 3675 5469
4 5445 1780 5506 6039
4 2827 3549 5055 5808
4 5116 5451 732 5450
4 5444 3609 734 743
4 3840 4156 2786 3841
4 4686 2591 2242 3731
4 4506 3994 3730 4507
4 2503 5319 1793 1792
4 4502 3675 4505 3996
4 3151 2236 4726 3152
4 4326 1685 271 272
4 6082 5319 1783 1784
4 3995 3674 3837 3993
4 5492 1781 1772 1773
4 4215 768 759 760
4 5465 1774 1773 1765
4 3674 3836 3837 3993
4 3544 5268 3909 4573
4 6081 1766 1775 1774
4 4363 1692 6261 1693
4 3544 5267 5268 4573
4 4363 1701 1692 1702
4 3544 3333 2722 3545
4 1767 6081 1775 6050
4 5263 5184 5262 5609
4 1242 3488 4211 4118
4 5263 3544 3300 3553
4 6259 4206 5382 1763
4 5492 1782 1781 1773
4 3783 71 711 712
4 5400 5817 1268 5401
4 3909 3298 3544 3482
4 4420 4299 1241 4454
4 5263 3298 3544 3909
4 4466 4420 1689 6028
4 3557 3562 3898 3559
4 4634 5374 6269 5368
4 72 710 5403 711
4 3987 3494 4532 4300
4 3898 3897 3559 4881
4 3985 6174 3517 6051
4 3933 2728 3897 3896
4 6058 265 1787 1778
4 3897 6136 3933 3896
4 6144 1423 4234 3897
4 5122 5302 6258 5304
4 5445 1779 1770 1771
4 3262 3263 2850 3280
4 5474 135 1779 136
4 6257 6081 4510 1766
4 5476 5474 136 752
4 3794 3017 3015 4875
4 2861 3122 3214 4738
4 3122 3642 3016 5716
4 4762 3642 3637 3133
4 4006 768 767 759
4 5484 769 4217 778
4 6039 1781 1789 1780
4 4731 6052 5398 5400
4 2366 3122 3642 3016
4 4540 6270 1821 1822
4 3315 4936 3017 3016
4 5030 4943 4983 4171
4 2365 2367 3637 3163
4 4399 1791 1782 1783
4 6082 1775 1783 1774
4 5472 787 786 778
4 4399 1791 1790 1782
4 5583 4722 5877 4611
4 6052 1277 1285 1276
4 5319 1793 1792 1784
4 3639 3315 3317 4762
4 3688 3278 3689 5189
4 4556 5330 4495 6078
4 5491 1783 1782 1774
4 5051 776 767 768
4 3826 1810 1819 1818
4 6069 5029 1719 1710
4 4314 1714 5422 1713
4 4675 4611 4750 1353
4 2769 3370 3369 3610
4 2771 2412 2766 2801
4 3986 3988 4315 4533
4 3327 2822 2758 3326
4 4097 1799 1798 1790
4 4532 1267 1258 1259
4 4315 1786 6265 1777
4 2504 1785 1793 1784
4 6265 4296 6071 4316
4 3685 3680 2901 3683
4 3611 3612 4294 4492
4 5526 3910 786 795
4 5559 4236 4688 5532
4 5444 1779 5474 135
4 6265 1794 1785 1786
4 3610 3684 2903 3370
4 2900 3611 3612 4293
4 2760 2576 3385 3328
4 4316 6058 4318 1787
4 4316 1796 1795 1787
4 6026 1681 6255 6051
4 4318 263 1796 264
4 2476 4233 3602 2483
4 4099 1798 1797 1789
4 6264 1728 1729 1738
4 2479 4233 5004 5003
4 5542 5475 1797 1806
4 2580 2584 2479 5220
4 5476 5466 4099 5474
4 3337 2954 2953 2952
4 3471 5361 4511 3953
4 2454 2465 2561 2466
4 5609 5262 6087 5185
4 5476 1788 137 136
4 4097 1790 1798 1789
4 3694 3614 3613 5806
4 6074 1811 1819 1810
4 5045 4307 4343 5514
4 3694 2775 2985 2984
4 3785 1723 1724 1733
4 3937 4011 6271 6055
4 6073 1800 1799 1791
4 6271 1718 6069 1719
4 3100 3209 2977 2976
4 5498 1286 1277 1278
4 2494 2496 2866 2381
4 6265 1795 1794 1786
4 5498 1287 1286 1278
4 711 71 5403 72
4 5319 1784 1792 1783
4 4118 6262 4439 4012
4 4215 4006 759 768
4 2796 3209 3285 2983
4 2502 1802 1793 1794
4 5317 6082 1784 5319
4 2520 5305 4291 4699
4 4363 1693 6261 4364
4 5562 4217 4216 4467
4 2504 1794 1793 1785
4 2520 3572 5305 4699
4 4315 1778 1248 6058
4 3246 2935 3630 3629
4 4055 262 1805 263
4 4318 1266 4055 263
4 4209 3957 4448 756
4 4172 4109 3775 4912
4 2638 3659 2636 3658
4 4172 4109 4912 3807
4 4316 4317 6071 1795
4 3635 3808 5955 3801
4 4054 1276 1275 1267
4 4317 1796 1804 1795
4 3062 2617 3460 2301
4 2934 3318 3932 4948
4 5030 4308 4977 4983
4 5543 141 797 140
4 5615 5619 5473 4250
4 4099 1789 1797 1788
4 5540 797 796 788
4 5304 5434 4206 5382
4 5473 4250 4241 5615
4 5476 4452 5466 752
4 5526 795 786 787
4 2619 2626 3777 3498
4 5555 4468 1825 1824
4 5473 5615 6194 5614
4 5473 5615 4241 6194
4 3078 4643 3291 3079
4 2309 4720 2311 2310
4 3552 1278 1270 1279
4 6075 1812 1820 1811
4 3352 1304 1295 1296
4 5500 1287 1295 1286
4 3080 2356 2354 3827
4 4327 3079 3043 2310
4 3078 3079 3080 2311
4 3179 5532 6179 5477
4 3075 3080 3079 4327
4 4675 5583 4611 1344
4 5925 4033 306 315
4 5029 1720 1710 1711
4 5877 5781 5583 4694
4 4064 1808 1807 1799
4 4693 5877 4611 3737
4 3080 3083 2356 3832
4 4131 6272 6090 1303
4 5883 5777 3591 6156
4 5865 5834 5838 5867
4 4216 760 4452 761
4 5261 6060 4631 5595
4 3490 3587 6176 5882
4 5883 3591 5735 6156
4 6071 1795 1803 1794
4 3516 1707 4211 1698
4 4570 1831 4571 1832
4 6041 1262 6040 6034
4 6273 1813 1805 1814
4 5882 5883 5735 5884
4 4054 1276 6062 1275
4 4054 5400 1267 5401
4 6031 5883 5735 5882
4 6031 3810 3659 3490
4 4317 1796 1805 1804
4 4317 4055 1805 1796
4 6273 1813 1804 1805
4 2864 4293 3298 5184
4 2768 3370 2901 2765
4 4216 761 5475 770
4 2768 2903 2766 2902
4 4064 1807 1798 1799
4 5541 1816 1807 1808
4 4468 1824 1815 1816
4 4044 1810 1809 1801
4 5463 1808 5541 4064
4 5576 5527 5439 5563
4 4622 4646 382 373
4 5463 1818 1817 1809
4 4028 2376 4029 3615
4 6174 6063 3517 1691
4 2494 2495 2509 2508
4 2469 3294 3298 3482
4 2974 3548 3549 4041
4 4002 2262 5449 2821
4 3746 4052 3747 4002
4 3819 2607 2610 2608
4 4131 1312 6088 1311
4 3140 3141 2775 2984
4 4005 4323 757 5311
4 3894 4208 306 307
4 3821 1317 1326 1325
4 5591 4057 3747 5592
4 4468 1825 1824 1816
4 3747 5620 4010 4008
4 5340 1803 1811 1802
4 3107 4142 6108 5601
4 4558 2354 2974 3739
4 2740 1811 1810 1802
4 5507 4135 788 779
4 5189 1331 1323 1332
4 3108 6108 3109 1378
4 3107 3109 6108 4142
4 5823 5291 5822 6093
4 2360 3369 3371 3107
4 5772 4561 1299 1300
4 4468 5513 5544 1825
4 4513 4531 324 333
4 2359 3292 2793 3077
4 6074 1820 1819 1811
4 4132 1294 6272 1303
4 2676 2380 2384 2679
4 3369 4702 3107 3108
4 6062 4054 1275 6049
4 6087 6088 6067 4131
4 5534 1294 1293 1285
4 4540 1813 1821 1812
4 4135 4467 139 779
4 3371 3401 5601 6112
4 3369 3108 3608 4702
4 5565 806 814 805
4 3029 5526 3160 3910
4 5541 5513 1816 1817
4 5834 5852 5833 1048
4 5560 813 804 805
4 6060 1828 1837 1836
4 5340 1803 1812 1811
4 5544 1826 1834 1825
4 5540 5555 5528 5543
4 4631 1827 1818 1819
4 5399 1296 1288 1297
4 5119 5117 5118 4314
4 5834 5852 1049 5854
4 5599 1348 1357 1356
4 3058 3820 4352 3821
4 3107 5601 6108 4702
4 5439 1843 5528 6274
4 3107 4702 3371 5601
4 2769 3763 6107 3108
4 3524 4035 3598 4836
4 3525 3598 2999 4839
4 5542 1806 1797 1798
4 71 5403 1212 5374
4 2502 1803 1802 1794
4 5555 1834 1833 1825
4 6274 1844 1843 1835
4 5251 4725 6274 5544
4 2996 2999 5700 2994
4 3588 4552 2994 4134
4 6075 1812 1821 1820
4 6272 1295 1304 1303
4 6270 1821 1822 1830
4 3689 1341 1340 1332
4 4570 4131 1302 4132
4 2313 2566 2995 4133
4 6270 1830 1822 1831
4 2993 3551 3552 5399
4 4413 1311 258 6086
4 4132 1293 1294 1302
4 2675 2788 3313 2786
4 2546 255 254 1877
4 2476 2958 4233 2480
4 4317 6273 1805 4055
4 4387 3519 3312 4386
4 1293 4132 5534 6227
4 4571 1832 1831 1823
4 6153 4001 5892 3671
4 2075 5354 6223 2084
4 4131 6086 1302 1311
4 4135 1815 1824 140
4 2630 4464 4001 3166
4 3313 3311 3672 4385
4 5543 1833 141 1824
4 5496 5541 1817 5513
4 4919 5780 991 982
4 5563 1842 142 1833
4 3451 3788 3452 3455
4 3313 2236 4726 3914
4 4725 4333 1844 1845
4 4387 4386 5407 4388
4 4464 3166 6153 4001
4 3931 3929 4963 3930
4 4963 4993 3521 542
4 5496 1827 1826 1818
4 4539 364 4587 363
4 4963 3930 533 532
4 4963 533 3930 4964
4 3523 4963 4126 3521
4 4787 1821 1830 1829
4 3055 5051 777 776
4 4787 1821 1829 1820
4 4437 4544 345 346
4 3053 3910 5547 794
4 3687 1339 1330 1331
4 5030 4307 4177 4308
4 4963 4930 3523 3931
4 6060 1836 1827 1828
4 4930 3522 3521 3523
4 2403 2578 3185 2577
4 4572 3546 1830 1839
4 3818 1307 1316 1315
4 4632 1829 1828 1820
4 4392 4146 1866 5378
4 3951 3456 3957 3472
4 4027 5263 4089 4088
4 3183 3456 3468 3784
4 5030 4308 4177 4977
4 2575 2576 2586 2698
4 3456 4562 3454 4037
4 6056 1823 1822 1814
4 4571 1822 1823 1831
4 4437 337 4564 346
4 6091 4572 1840 1839
4 2725 3664 4351 2727
4 2725 3664 2727 2813
4 2725 5545 3664 6275
4 6224 2083 2091 2082
4 2294 2351 2353 3533
4 6067 6091 4572 1840
4 5692 5905 5257 3648
4 2725 3664 2813 6275
4 5555 1825 1833 1824
4 3528 2813 3664 3663
4 2350 2353 3091 3664
4 5439 1852 1851 1843
4 3681 1342 1351 1350
4 3892 5058 5539 6192
4 5576 5563 142 806
4 3091 2943 3892 5539
4 3350 3352 3351 6090
4 5294 1837 1845 1836
4 2547 1338 1339 1347
4 5267 1847 1838 1839
4 2348 3892 2350 2943
4 3091 3034 2939 3032
4 3033 2749 4351 2727
4 4267 1859 1858 1850
4 2700 2939 2345 3092
4 3228 2363 3800 2852
4 6037 1321 1312 1313
4 2836 3780 4484 3458
4 4573 1838 1837 1829
4 5379 4147 1875 1884
4 5268 1846 1837 1838
4 4088 1847 6092 4089
4 4145 1864 6124 1865
4 6099 1864 1863 1855
4 5605 841 840 832
4 2623 2624 2626 4070
4 3546 1839 1838 1830
4 4706 3105 5579 849
4 2834 2623 4070 2838
4 4324 3767 4677 3590
4 2529 2530 2531 3335
4 6087 6037 5571 4270
4 4692 1381 5575 1382
4 5547 794 3910 5561
4 2795 2413 2794 2410
4 2406 3370 2765 2823
4 5354 2084 232 231
4 4570 6067 6068 4571
4 4570 1840 1831 1832
4 4570 259 1841 1832
4 6272 1295 5499 5500
4 6272 5499 1295 1294
4 2410 2409 2404 2412
4 6253 4589 4104 4915
4 5528 1834 1842 1833
4 2276 2781 3276 2541
4 5576 806 5527 5563
4 4332 1853 1852 1844
4 2772 5397 2782 5441
4 6072 6274 5439 5528
4 5294 6060 1836 4725
4 6274 1843 1834 1835
4 5292 1846 1855 1854
4 1297 5399 3547 2995
4 5241 5240 2780 2782
4 5834 5868 5852 5854
4 2773 2779 2782 2776
4 4333 1845 1854 1853
4 4102 1359 1358 1350
4 4682 827 4711 828
4 4333 1845 1853 1844
4 6116 1368 1367 1359
4 3456 3455 3454 4562
4 2278 2549 2548 2552
4 2958 4205 2964 5160
4 5138 2071 6276 2072
4 2544 1338 1329 1330
4 5435 1863 1862 1854
4 6071 1804 1803 1795
4 5268 1847 1846 1838
4 4088 1856 1855 1847
4 4218 5530 5529 1333
4 3877 3143 2217 3566
4 5597 5605 832 841
4 3860 3129 3877 3862
4 6088 6037 1312 6090
4 4572 1840 1839 1831
4 2958 3602 3128 4213
4 5267 1848 1847 1839
4 3109 4142 5625 1388
4 4146 1866 1874 1865
4 4715 1368 1377 1376
4 3553 4572 5267 3546
4 5142 4895 4219 5141
4 3928 2987 2986 2463
4 6091 1840 1849 1848
4 6067 1841 4267 1840
4 3766 1378 1387 1386
4 4285 1873 1872 1864
4 3515 3878 2217 3602
4 2629 3166 2959 2955
4 6124 4146 1865 4089
4 4559 5586 824 823
4 5576 5527 806 5565
4 4332 4333 5435 1853
4 5399 3547 2995 4133
4 5596 146 842 145
4 3372 3053 3182 3178
4 4219 4637 4646 4222
4 5523 784 3053 793
4 5586 5560 5565 814
4 4286 5569 6263 1880
4 3176 3182 3179 3178
4 5865 5834 5867 5868
4 5380 5600 5617 5381
4 5547 5561 803 794
4 3020 3026 3022 3021
4 5523 3179 3182 3178
4 3031 3373 3053 5547
4 4089 1848 1856 1847
4 4088 1847 1855 1846
4 4081 370 4225 371
4 3053 793 5547 5535
4 5523 3182 3920 5535
4 5523 3182 3179 3920
4 5557 1857 1848 1849
4 3682 1341 1333 1342
4 6259 272 4326 1764
4 3179 3920 3180 6179
4 5606 1862 1861 1853
4 5597 833 5596 842
4 4206 5465 5491 1773
4 4489 4596 789 798
4 5557 1849 1858 1857
4 6111 1860 6131 5564
4 3177 4136 3179 3180
4 5523 3179 5477 5532
4 4354 6124 4027 4089
4 4089 1857 1856 1848
4 5294 5268 1837 6277
4 5653 1919 1927 3570
4 3687 3689 1340 1331
4 3178 3454 4576 3179
4 4568 3939 5438 5416
4 4267 1849 1850 1858
4 3442 4568 3938 3527
4 5377 3689 3680 3683
4 2314 2418 2721 2318
4 5609 5185 6037 5511
4 4392 1866 1857 1858
4 4267 4268 1858 1859
4 3648 1555 1564 1563
4 4492 5379 4147 5378
4 4286 4144 1872 1871
4 4268 1859 1867 1858
4 2544 2547 1338 1339
4 2546 1347 6066 254
4 5021 5212 3693 6224
4 5564 1851 1860 144
4 4015 4014 4642 5505
4 6111 1852 1860 1851
4 3526 4642 3936 3939
4 3605 4101 831 5605
4 6259 5464 4206 5465
4 3936 4011 5438 5972
4 5438 6045 3939 5972
4 6131 1869 5577 1860
4 5438 5416 3939 6045
4 6278 1870 1861 1862
4 4277 4285 4019 4124
4 6179 5508 6279 5497
4 3960 868 867 859
4 4139 5607 4140 850
4 4756 3444 4781 3616
4 4269 4270 4268 4325
4 5378 1875 1866 1867
4 406 4695 4790 407
4 3444 3445 4072 3409
4 3444 4756 4072 3616
4 3444 4756 5819 4755
4 6124 1865 1864 1856
4 6278 1871 1870 1862
4 3165 4766 4697 3167
4 2583 2957 2956 5219
4 4392 1867 1866 1858
4 3651 5087 4008 3652
4 2581 2583 2955 2957
4 4089 1866 1865 1857
4 3673 3848 3603 3847
4 4804 1916 1907 1908
4 2583 2584 2585 6280
4 5610 842 5597 5596
4 5201 6128 5629 4336
4 2583 5128 5219 6280
4 4325 256 1868 1859
4 6223 6281 2075 2074
4 5098 1554 1545 1546
4 5379 1884 1875 1876
4 4268 1868 1867 1859
4 2545 1876 1867 1868
4 6109 1926 1925 1917
4 4806 1910 6128 1911
4 3623 3624 3627 4984
4 5577 1869 145 1860
4 6131 1869 1860 1861
4 5974 2957 2955 6181
4 2957 2955 6181 4766
4 5610 5663 4141 1887
4 4766 6231 2957 5219
4 4766 6231 5219 6182
4 6131 1870 1869 1861
4 3959 3579 1905 3561
4 5213 2585 5221 5220
4 4706 850 859 858
4 2478 2477 2986 2479
4 6263 1871 1879 1870
4 3928 4764 2986 2987
4 6107 1377 1369 1378
4 6103 1359 1351 1360
4 3182 5537 3373 3920
4 5220 5171 5004 6225
4 4263 1909 1908 1900
4 4565 5536 6170 5055
4 5252 5143 5221 4764
4 3670 867 876 875
4 4518 5428 4481 5638
4 5143 5221 4764 5220
4 4145 1874 1873 1865
4 5377 1339 3687 1340
4 5579 4101 5607 840
4 6263 1880 1879 1871
4 5551 6096 1356 1365
4 6259 5464 1685 1686
4 2580 5220 2585 2584
4 5378 1876 1875 1867
4 2686 3945 3741 3742
4 2749 2726 4351 2727
4 4146 1875 1874 1866
4 846 3323 4474 837
4 4900 829 3604 838
4 2546 255 1877 1868
4 4009 2239 2238 2755
4 4765 4733 4763 435
4 2262 3495 5449 2821
4 4052 4010 4057 5000
4 2545 1877 1876 1868
4 2545 5378 5376 4493
4 5381 1894 1893 1885
4 5175 5177 6209 1383
4 5381 1893 1884 1885
4 6117 1900 1899 1891
4 5610 5596 146 842
4 5628 5663 1888 3329
4 6130 1870 1878 1869
4 3860 2215 3566 3863
4 3087 4271 4010 5000
4 5628 1887 1878 1879
4 4286 1880 1871 1872
4 5607 840 4101 5605
4 3330 1880 1888 1879
4 5516 3700 2510 5580
4 3087 4010 4271 2238
4 4052 4059 4767 4061
4 3141 3692 4008 4007
4 3135 3731 5153 4506
4 4142 1371 1380 1379
4 4806 1911 5624 1920
4 3135 3731 4687 5153
4 3535 4986 3836 4985
4 4147 1875 1883 1874
4 6259 273 5382 1686
4 4635 4139 5663 4232
4 2461 2558 2790 2456
4 5396 1397 1396 1388
4 5187 3339 5971 5920
4 3730 3731 3135 4506
4 6089 1883 1882 1874
4 5571 1330 4270 1321
4 2498 3539 2510 4680
4 4537 6119 4557 4535
4 3136 3135 3731 4687
4 4797 4816 4840 4784
4 6115 5377 1349 1348
4 4147 1884 1883 1875
4 4970 3626 2621 2620
4 5377 2547 1339 1348
4 4282 4124 5608 4285
4 3623 3256 3625 3169
4 2805 3256 2745 3623
4 6066 1886 6106 1877
4 2491 2747 2487 2744
4 6106 1877 1885 1876
4 3257 3256 3627 4970
4 6106 1886 1885 1877
4 6282 6080 6283 5624
4 5550 1374 1365 1366
4 3380 881 872 873
4 3266 2269 3267 2263
4 2543 3257 3256 3169
4 4270 1330 1329 1321
4 3961 869 868 860
4 6127 1890 1881 1882
4 3038 2448 3567 3039
4 3961 868 859 860
4 4751 5703 6284 433
4 3408 2446 2447 2448
4 5663 1896 1887 1888
4 5670 3561 6285 1915
4 3275 3885 3095 3567
4 2446 2449 2267 3321
4 3330 1889 1888 1880
4 4797 4768 888 36
4 4089 1866 4392 4146
4 2521 3290 2514 4494
4 2734 6138 6139 5916
4 3049 2909 2795 3285
4 5664 3865 2747 5674
4 6107 4715 6116 1368
4 5630 1909 1900 1901
4 4667 1385 5176 1376
4 3219 3217 3061 2265
4 3681 5274 1351 4218
4 4804 1917 1916 1908
4 3569 1918 1917 1909
4 3681 3683 6103 3684
4 3681 6103 1350 1351
4 6118 6116 4715 1367
4 2310 4038 4744 4705
4 3681 6103 1351 5274
4 5629 5581 5630 5631
4 4667 5639 1385 1386
4 4797 37 4815 464
4 6033 4658 5141 4683
4 6147 3570 1918 1919
4 5689 3568 1927 1926
4 1886 6096 1895 253
4 5600 1894 1885 1886
4 4568 5438 3440 5416
4 5600 1895 1894 1886
4 6147 3570 3569 1918
4 6115 5552 5551 1357
4 3127 2091 5021 2100
4 5174 6080 5177 6286
4 6154 1411 1419 1410
4 3578 148 869 860
4 3440 3441 3442 4568
4 3578 4232 1905 1896
4 4232 1897 1905 1896
4 5663 1897 1896 1888
4 3329 1897 1888 1889
4 5416 5440 6046 5417
4 5416 4426 5418 6045
4 4568 5416 3440 4567
4 5416 5440 5417 4567
4 2414 2972 2425 2428
4 3101 3959 3960 3961
4 5416 3440 4567 4426
4 3504 1898 1889 1890
4 6117 1891 1899 1890
4 5701 5650 899 898
4 4789 5677 5675 3831
4 5521 1404 1403 1395
4 2099 2091 3127 2100
4 2274 2251 2276 2537
4 3569 1909 1917 1908
4 2925 2914 2926 2279
4 2692 4581 3250 2667
4 2279 2874 2926 2871
4 4336 1893 1901 1892
4 5365 5416 5440 6046
4 3541 2772 2276 2275
4 5617 1902 1893 1894
4 2772 5241 2781 2773
4 4715 3763 2802 2803
4 2583 6280 5219 2956
4 6083 1895 1903 1894
4 5129 4048 2917 2916
4 4336 6128 1901 1902
4 5656 876 868 877
4 4704 3827 4041 4616
4 4797 4840 897 888
4 4768 879 888 36
4 5440 4405 4368 6046
4 4670 4713 4669 4151
4 5630 1901 1910 1909
4 4438 4151 4670 4669
4 5601 5657 4745 1371
4 3143 3238 3864 3239
4 5550 5551 1366 1365
4 5549 6083 6079 5616
4 2335 2931 2337 2751
4 6282 5175 6118 5176
4 6282 4679 5176 6118
4 3919 5750 4601 5738
4 3579 1914 150 1905
4 4601 6287 3771 4262
4 3233 1906 1897 1898
4 3771 4601 3773 6287
4 3962 869 878 877
4 3962 869 877 868
4 3773 6287 5731 3771
4 3279 3283 3282 6288
4 3919 3550 4602 5756
4 3694 6076 5806 4888
4 5663 4232 4141 1896
4 3504 1898 3329 1889
4 6076 1575 1584 1583
4 3919 5738 4601 4262
4 3233 1907 1906 1898
4 5857 5936 5889 1072
4 6285 1916 1915 1907
4 5654 5655 1929 1928
4 4585 2311 4718 4543
4 5174 1384 6120 1393
4 4285 4144 6099 1863
4 4925 2620 3261 3269
4 3918 3230 2852 3550
4 2854 3550 3283 4602
4 4234 1432 1431 1423
4 6128 1902 1910 1901
4 2806 3335 3492 3789
4 2835 2833 3171 3475
4 5616 1903 1911 1902
4 3233 1907 6285 1906
4 6132 6150 1930 1939
4 2390 2937 3581 4095
4 5616 1912 1911 1903
4 3582 3629 3245 3581
4 4337 1404 1396 1405
4 2839 3232 2529 3457
4 2361 2224 2297 2363
4 6128 1911 1910 1902
4 6026 6255 268 1768
4 4341 903 895 904
4 5603 1410 5659 1401
4 3015 3017 5727 3016
4 6079 1904 1912 1903
4 3315 3638 3017 4936
4 5174 6286 5177 1392
4 4328 1416 1425 1424
4 3960 4706 859 858
4 5624 1920 1911 1912
4 3017 4876 3016 4936
4 6209 250 5177 1913
4 3378 4917 3099 3123
4 5174 4758 6286 1392
4 4758 6133 1402 1393
4 6289 1929 1920 1921
4 4813 5683 3638 3017
4 3129 2089 2090 2098
4 887 150 3831 151
4 3861 2090 3129 2089
4 3017 3638 4813 4876
4 3460 3463 3461 2937
4 3969 3976 5512 3971
4 3890 5108 5115 5107
4 3798 5107 3799 3395
4 5670 1915 1916 1924
4 6285 1915 1906 1907
4 3233 4232 1897 1906
4 6076 1575 1583 1574
4 5630 4806 1910 6128
4 3568 1918 1926 1917
4 6138 1939 1948 1947
4 5704 903 3865 4341
4 3503 4804 1907 1908
4 3469 3798 3890 3799
4 3258 3799 3394 3470
4 3394 3470 3799 3395
4 3441 3439 3799 3973
4 6255 6051 1681 1682
4 2480 2964 2581 2958
4 4821 469 4255 468
4 4000 2125 5160 2964
4 6147 1919 1918 1910
4 4108 1458 5962 1449
4 4000 5209 6290 2125
4 2480 5881 2964 4205
4 2964 2125 5160 2126
4 6132 5603 1401 4758
4 5729 1936 5730 1945
4 4806 1920 1919 1911
4 2964 5881 5209 2126
4 6135 6145 1411 6154
4 4568 5440 4569 5762
4 2964 5881 2957 6233
4 6209 1383 5177 250
4 2964 5209 6233 5208
4 2624 3092 3034 2939
4 6080 1913 1921 1912
4 3779 4786 4954 4252
4 3777 6101 4059 3498
4 6080 1922 1921 1913
4 5653 1937 1936 1928
4 5365 6046 5440 4368
4 5639 5521 6133 1394
4 6257 6255 6051 6050
4 1931 4757 1401 248
4 5206 5207 5927 4386
4 5675 886 3831 887
4 5675 896 895 887
4 6291 1960 1959 1951
4 2619 2625 4059 3777
4 4334 905 896 152
4 5681 904 895 896
4 3830 887 5675 3831
4 4954 5744 5802 4786
4 4338 1952 1961 1960
4 3312 4386 5891 4530
4 3964 2826 3968 2822
4 5689 1927 1935 1926
4 3126 4335 5152 5151
4 4757 6286 4758 1392
4 4828 1422 1431 1430
4 5729 1945 1944 1936
4 6214 1926 1934 1925
4 3963 3965 3967 5055
4 6032 5457 5479 5478
4 3107 3108 4702 6108
4 6213 1943 1934 1935
4 6292 1954 1945 1946
4 2899 2974 2405 2354
4 6113 1946 1945 1937
4 2494 2499 2511 2512
4 6247 5206 4530 5891
4 2654 2516 2658 2495
4 2511 4680 2499 2510
4 3186 4557 4949 3187
4 6150 1938 1929 1930
4 6289 1930 1929 1921
4 5916 1955 1946 1947
4 6146 1949 4223 1419
4 5655 1929 1928 1920
4 4757 249 1931 1922
4 3267 3346 3265 3213
4 3267 3885 3347 3348
4 6286 1930 1921 1922
4 3275 2860 2391 3884
4 6257 6255 1682 6051
4 6286 1931 1930 1922
4 4921 3884 3885 3095
4 4667 4337 5639 1386
4 5603 6154 1410 1411
4 6132 1931 1939 1930
4 5134 6122 1428 5383
4 6138 1947 1938 1939
4 5691 914 905 153
4 2391 5589 3215 3584
4 4112 1959 155 1950
4 4334 3830 152 896
4 4334 1941 153 1932
4 4601 2851 3263 3773
4 3794 3015 5727 3213
4 3138 4003 3468 3421
4 3784 3468 2640 4003
4 5390 4753 5903 4181
4 2719 2472 2864 2761
4 2641 2642 2644 2647
4 5693 1934 1933 1925
4 2402 3258 2685 2684
4 4735 912 911 903
4 6208 886 5675 895
4 3442 2688 2687 3526
4 5664 4789 885 3606
4 5653 1936 1927 1928
4 4386 5206 4530 5927
4 4829 1431 1440 1439
4 6208 895 894 886
4 4748 429 4690 438
4 2649 5687 2646 2645
4 5134 1958 5383 245
4 5479 1974 1983 1982
4 6255 6050 1768 6051
4 5337 3712 3710 3473
4 5993 5999 1625 1616
4 6287 5738 1980 1981
4 3426 3709 3138 3756
4 6150 1939 1938 1930
4 4386 5407 4388 6293
4 5654 1938 1937 1929
4 3711 3712 5124 5116
4 6145 1403 5520 1412
4 5699 1953 1962 1961
4 3712 3754 4323 5327
4 3712 5327 5124 5116
4 5390 2423 5903 4231
4 5603 6154 4223 1410
4 6187 6168 6172 5807
4 4494 4414 4415 4724
4 6132 1940 1939 1931
4 3288 4494 2521 2421
4 5603 4758 6133 1402
4 6140 5659 4223 1940
4 2795 3285 2410 2983
4 6168 1466 1465 1457
4 3106 4706 3101 3960
4 4386 6293 5927 4530
4 5695 1942 1933 1934
4 5694 1941 1932 1933
4 5681 4334 5691 905
4 2424 5390 2423 2421
4 4415 5390 4231 2514
4 4686 4170 4687 5041
4 5691 4800 1950 1941
4 5709 913 5715 922
4 5694 1942 1941 1933
4 4170 3306 4687 631
4 5695 1943 1942 1934
4 5708 1951 1942 1943
4 5704 913 5709 912
4 4170 4689 5097 4284
4 6230 4338 4800 5708
4 6158 4735 5704 5709
4 6213 1944 1943 1935
4 6294 4575 4547 4488
4 5502 1447 1446 1438
4 4920 4251 1495 6295
4 6296 1965 5478 4989
4 4736 920 919 911
4 5729 1944 1935 1936
4 5097 4170 3306 4689
4 4170 5040 5178 5173
4 2483 3142 3693 3566
4 6296 1965 1956 1957
4 4170 4284 5173 5178
4 6148 1954 1953 1945
4 4109 4115 3775 4912
4 6292 1955 1954 1946
4 3868 3870 3869 5314
4 6297 1967 1966 1958
4 3868 3616 4071 4781
4 5726 1962 1953 1954
4 3868 5314 3869 4633
4 3444 2847 3868 3616
4 6137 2741 4969 2731
4 6140 1948 1939 1940
4 6114 1947 1946 1938
4 4223 5659 1410 247
4 6146 1958 1949 5383
4 6296 6139 1957 1956
4 5726 1971 1962 1963
4 3485 2847 3868 3486
4 2877 3616 3868 2847
4 3394 3439 3666 3703
4 6140 1949 1948 1940
4 4432 3010 4430 4431
4 5134 6297 5383 1958
4 5715 923 922 914
4 4112 155 923 154
4 4431 4430 5260 3944
4 3944 3424 5260 4431
4 4800 1950 1941 1942
4 5704 904 5706 913
4 1953 6148 5726 1954
4 2952 2984 2953 4196
4 4431 3943 3944 3424
4 4432 4399 3942 5260
4 6230 4341 5682 4800
4 4112 5740 5715 5722
4 3010 3227 5318 4430
4 6148 5726 1954 5667
4 3176 3182 3920 3179
4 6149 1944 1952 1943
4 2682 2683 3373 3031
4 6149 1953 1952 1944
4 6294 4575 6298 4615
4 4737 911 4735 912
4 4739 929 928 920
4 6148 1953 1944 1945
4 3180 3920 2698 3384
4 2922 5654 6289 6150
4 1407 1398 4239 5977
4 3181 3384 3920 4207
4 5961 2613 4234 6151
4 2376 2378 4020 3615
4 3495 4825 2821 2820
4 3495 5449 2821 4825
4 6139 1948 1956 1947
4 6139 1957 1956 1948
4 2619 2262 5493 5449
4 6187 5807 5760 5633
4 3851 5493 3495 5829
4 5916 1956 1955 1947
4 6122 1420 1428 1419
4 3577 3154 2261 2259
4 3714 3495 2820 5829
4 6299 4856 4889 4891
4 6146 1957 1948 1949
4 3947 4802 457 466
4 5134 6246 1437 1428
4 4444 4450 3155 3156
4 5582 3498 3497 4058
4 6146 1957 1949 1958
4 1590 5566 227 226
4 5134 1958 245 1967
4 6145 6133 1403 1402
4 6246 1438 1437 1429
4 5741 5733 1969 5740
4 2759 3155 4670 3157
4 5720 931 922 923
4 6291 1951 1959 1950
4 5737 941 940 932
4 2759 4669 3714 2820
4 4112 154 1950 155
4 4384 5645 4390 4388
4 4112 5706 6291 5691
4 5722 1959 1968 156
4 5679 5741 1977 1968
4 4390 2786 5406 4385
4 5756 1988 1987 1979
4 2786 5406 4385 4727
4 4385 4384 5857 5406
4 4598 939 938 930
4 3841 4727 2786 2674
4 5717 5633 5760 5662
4 2581 2957 2480 2956
4 5807 1474 1473 1465
4 6097 1956 1964 1955
4 226 5315 1599 5566
4 2476 2207 2478 2774
4 3313 3914 3672 2236
4 2952 3338 4196 2953
4 3772 6098 4819 4897
4 3618 2772 2275 2915
4 3235 3236 3237 3619
4 2581 2478 2479 2480
4 2884 3879 2898 2891
4 6097 1965 1964 1956
4 1468 4108 1459 1467
4 3898 1424 4881 4328
4 6297 1966 1957 1958
4 2734 5916 6114 6138
4 5478 1974 1965 1966
4 6163 1473 1474 1482
4 5229 1471 1463 1472
4 4827 4829 6160 5671
4 6246 6122 1429 1428
4 3562 3898 6157 4331
4 5458 1967 1975 1966
4 5457 1983 1974 1975
4 4108 2614 4874 4898
4 6031 5457 5735 5479
4 5459 5135 1446 1976
4 3559 3926 4239 4838
4 3926 4639 6125 3559
4 2325 2324 2440 3374
4 5678 950 941 157
4 5740 1968 1959 1960
4 5731 1962 1970 1961
4 2859 3061 3095 3062
4 2797 2794 2434 2326
4 3078 3291 4643 3288
4 5740 1969 1968 1960
4 5719 939 930 931
4 2327 2329 2331 2326
4 2485 2487 3483 5652
4 2513 2424 2517 2519
4 2518 2520 2517 4278
4 3922 5750 1989 1988
4 5758 1971 1979 1970
4 3319 4899 3640 4923
4 5731 1971 1970 1962
4 5602 4699 3035 4474
4 5602 3572 3035 4699
4 5479 1982 1973 1974
4 3572 3035 4699 2520
4 4898 1449 1441 1450
4 4989 1965 1973 1964
4 3045 3572 2520 3035
4 4896 1973 1972 1964
4 6156 1990 1981 1982
4 4879 479 4814 480
4 5676 1955 1964 1963
4 4120 93 1526 1517
4 3035 2905 2906 5578
4 4941 4931 514 4976
4 5478 1966 1975 1974
4 3814 1999 1998 1990
4 5524 5502 1447 1446
4 3790 3794 3795 3791
4 3790 4462 3793 3348
4 5524 5502 6160 1447
4 4575 764 4488 4562
4 3346 3213 4866 3265
4 5135 1446 1976 243
4 3273 4866 5647 5727
4 5612 1492 1491 1483
4 3790 3793 4462 3124
4 3017 5727 5710 4901
4 5458 1976 1975 1967
4 6161 1448 4883 5962
4 5459 1976 1446 4340
4 1599 5566 1590 226
4 5459 1984 1975 1976
4 3814 2008 2007 1999
4 3795 3015 3348 3641
4 5800 5301 5590 3348
4 5800 5301 3348 3793
4 5696 959 958 950
4 5741 1977 1968 1969
4 5732 159 959 158
4 6287 1981 1980 1972
4 2908 4101 3677 5579
4 6186 6173 5718 5755
4 6173 1996 1995 1987
4 3282 930 921 922
4 6300 1978 1969 1970
4 5696 949 5743 950
4 2906 4900 3604 838
4 6300 1979 1978 1970
4 5152 948 947 939
4 5732 6301 5696 5754
4 5151 956 947 948
4 5740 6291 1960 1959
4 6171 1973 1981 1972
4 3046 3035 5578 3572
4 3035 5578 4474 2905
4 5758 1980 1979 1971
4 6287 1980 1971 1972
4 4896 3363 5676 4897
4 3046 2909 3050 2908
4 4952 1491 238 1482
4 6167 1467 1476 1475
4 2908 3677 3050 5579
4 5655 4498 5624 4806
4 3848 3603 3605 3604
4 3282 5709 5720 922
4 5459 1985 1984 1976
4 2906 3604 5578 838
4 5457 1984 1983 1975
4 3769 3672 4527 3916
4 4250 1493 1492 1484
4 2665 2878 2664 5197
4 5711 1992 1983 1984
4 2665 3979 3759 4396
4 4470 5026 4423 4422
4 2244 3759 2289 4394
4 6031 5457 5711 5735
4 5671 6246 2739 4969
4 5717 1994 242 241
4 4425 2290 2537 5405
4 4425 2290 5405 5196
4 3812 2017 2016 2008
4 3769 2286 3913 3733
4 5458 5478 1966 1975
4 2929 3251 3443 4257
4 226 5566 227 2129
4 6187 6168 5807 5633
4 2883 2667 2672 2538
4 5453 2018 2026 2017
4 2664 2881 2290 5196
4 2878 2662 2663 2665
4 5754 968 959 159
4 2881 5211 5196 2880
4 5718 1986 1977 1978
4 5732 6173 1995 1986
4 5718 1987 1986 1978
4 2268 3644 2746 2745
4 5776 967 958 959
4 4164 3922 1989 1998
4 5697 958 957 949
4 2491 2488 2745 2747
4 5750 1980 1988 1979
4 3093 3567 3039 3038
4 5151 957 956 948
4 108 109 4691 402
4 6186 5718 5741 5756
4 2617 3465 4801 4331
4 3262 3645 2621 3261
4 6204 1514 1523 1522
4 3922 1998 1997 1989
4 4575 4547 4488 763
4 4858 1453 4864 4911
4 5668 921 930 929
4 5346 1477 1476 1468
4 2432 3219 2431 3038
4 6166 1484 1483 1475
4 5345 1476 1485 1484
4 2743 5674 902 901
4 6176 2001 2010 2009
4 109 4691 1382 108
4 3261 2266 2621 3262
4 5773 1993 2001 1992
4 3872 973 964 965
4 2225 2860 2228 2391
4 6302 5688 5459 5524
4 5688 5524 5717 4340
4 4896 6171 5479 6098
4 2958 2207 3515 2627
4 4898 4883 4829 1440
4 108 4692 1391 411
4 5937 6198 5095 2039
4 4671 4691 5575 1373
4 5688 1985 1993 1984
4 2713 3534 2704 3146
4 5662 2003 1994 241
4 5760 6188 5761 5807
4 5662 1473 2003 240
4 5717 5662 5760 1994
4 5760 5761 5662 5807
4 2946 2911 2948 2947
4 5786 161 977 160
4 2966 2949 2946 2948
4 6173 1987 1995 1986
4 5774 977 976 968
4 3814 3924 4164 1998
4 5755 1996 1987 1988
4 2946 2911 2894 2893
4 6165 2005 1996 1997
4 5769 966 957 958
4 5732 5696 6173 5743
4 2608 2600 5357 3201
4 2966 2893 3157 2967
4 5755 1997 1996 1988
4 3158 2946 4122 5757
4 3359 957 966 965
4 3924 2006 1997 1998
4 3207 3565 3819 2607
4 5744 3090 4786 4954
4 6165 2006 2005 1997
4 108 4691 411 402
4 3778 3086 5742 3090
4 5779 982 4998 4919
4 1493 4242 1502 4249
4 4739 6077 5728 928
4 3664 3893 5545 5058
4 4575 772 4615 763
4 2624 2838 2623 3092
4 4786 4351 3090 5745
4 4786 5539 4351 5802
4 5761 5613 2011 2012
4 3033 4351 3664 2727
4 5334 5761 5613 6207
4 3091 2943 5539 4560
4 2348 3892 3244 3803
4 5884 5773 2001 1992
4 3892 6185 6215 3803
4 5095 236 2039 237
4 5760 1994 2002 1993
4 6215 6303 3244 3803
4 5761 6126 2003 1473
4 6188 2010 2001 2002
4 5760 2003 2002 1994
4 6215 3244 3809 3835
4 6163 1474 1483 1482
4 4121 5777 3587 6176
4 5717 5524 1455 4340
4 5917 2027 2018 2019
4 6207 2019 2010 2011
4 6301 2004 1995 1996
4 6215 3244 3835 2943
4 6162 984 975 976
4 5678 1977 158 157
4 6301 2005 2004 1996
4 4188 5786 6304 2013
4 6162 985 984 976
4 6305 2013 2004 2005
4 3813 2017 2008 2009
4 6215 6191 5803 3835
4 6215 5539 5803 6192
4 4259 983 974 975
4 2658 2508 2516 3990
4 2509 3990 3989 2512
4 4961 961 4824 952
4 2513 2518 2514 2516
4 5786 2004 6305 2013
4 2518 4278 4651 3323
4 6178 4916 1489 1488
4 5452 2034 4086 2025
4 2563 3837 3995 3674
4 2518 3770 4651 4278
4 3989 2512 4651 4546
4 2509 4949 3991 3187
4 3924 2007 2006 1998
4 2513 3045 2515 2527
4 6304 2022 2013 2014
4 2008 4047 3813 2000
4 4949 4536 4535 2512
4 3375 3377 2487 3484
4 3379 4231 4288 3381
4 4249 1502 1494 1503
4 6176 2009 2000 2001
4 6079 6209 6080 1913
4 3377 4965 2487 3999
4 3668 3097 4866 3265
4 108 411 1391 107
4 4047 5777 6156 4165
4 5735 1982 5479 1983
4 4920 5008 6196 6295
4 5390 2423 4231 2517
4 2484 2493 2491 2267
4 2746 3644 3268 3647
4 5917 2019 2028 2027
4 3668 3265 4866 3669
4 3270 3272 3271 901
4 6188 2011 2010 2002
4 6126 240 2012 2003
4 2270 2745 2621 3644
4 5968 1519 1528 1527
4 2746 3644 3646 3867
4 5761 2003 2011 2002
4 5761 2012 2011 2003
4 2487 4965 3483 5658
4 5612 1483 1491 1482
4 5612 1500 1491 1492
4 5613 2012 2020 2011
4 2486 5652 3670 3606
4 2487 5652 5658 3483
4 3427 4458 3436 3433
4 4188 5786 161 977
4 3469 2685 3799 3600
4 5815 1013 1004 164
4 5759 4521 2040 6306
4 5804 992 983 984
4 3442 4568 3441 3938
4 6305 2014 2013 2005
4 5108 5107 5515 5115
4 4169 994 993 985
4 5789 5797 6306 2031
4 5108 5512 5515 4459
4 4612 5586 6110 6111
4 4087 2015 2014 2006
4 5797 5783 5785 2032
4 3812 2008 2016 2007
4 5164 2007 2015 2006
4 4612 4614 4228 3845
4 5164 2016 2015 2007
4 4612 4228 4614 4674
4 4612 4607 4614 3844
4 4259 5804 983 984
4 5797 2032 2031 2023
4 4612 4610 4613 6278
4 4528 3069 2343 6239
4 5782 4946 5483 4169
4 6079 5616 1903 1912
4 4528 5901 6307 5985
4 4528 2372 4529 5906
4 5778 2010 2018 2009
4 3813 2018 2017 2009
4 4528 6307 5906 4529
4 4528 5901 2341 5906
4 2251 2536 2537 2290
4 3249 5948 5875 6308
4 5093 5095 237 1500
4 5453 2026 2018 2027
4 4807 2027 5918 5739
4 4366 1480 1471 1472
4 3249 4847 5938 5392
4 4973 1520 1519 1511
4 3252 5824 3251 6308
4 6207 2020 2019 2011
4 3252 6308 5875 5811
4 6309 6310 2057 4265
4 4807 2027 2036 2035
4 2285 3166 2553 3514
4 5612 1482 6163 1483
4 5613 2021 2020 2012
4 2779 2871 2870 2875
4 3448 5222 3854 3998
4 5094 5614 2029 5095
4 2891 4056 3856 5795
4 2550 2927 2926 3880
4 5100 2028 2029 2037
4 4945 1004 1003 995
4 5759 164 1004 163
4 3879 2898 5787 3882
4 5783 2032 2023 2024
4 4519 1020 1011 1012
4 6304 2023 2022 2014
4 4946 1003 1002 994
4 5775 986 5771 985
4 5804 992 984 993
4 4085 2023 2014 2015
4 2278 2554 2914 2550
4 3879 2898 5790 5787
4 3165 2917 4697 4766
4 6192 6185 4968 6215
4 4091 2837 5453 3812
4 4085 2024 2023 2015
4 5166 2015 2016 2024
4 3244 3809 3802 6303
4 2291 3522 2293 2292
4 3144 4826 3863 4825
4 982 5780 991 983
4 3244 3776 3809 3835
4 4519 1021 1020 1012
4 3245 3776 3244 3774
4 4086 2024 2025 2033
4 3245 3244 3809 3802
4 2017 5453 5452 2026
4 5045 5061 5747 4860
4 3240 3245 3636 3115
4 4164 3592 4988 4165
4 3240 2809 2944 3212
4 3639 5747 4928 944
4 4047 5777 4165 4988
4 4243 1503 1512 1511
4 4199 6203 1520 1529
4 4243 6190 1511 1512
4 3650 3042 4592 4593
4 3038 5518 3093 3661
4 4376 3562 3661 4330
4 2479 5004 2584 5003
4 5614 2029 2028 2020
4 5612 1501 1500 1492
4 4994 3521 551 4163
4 3661 5519 3042 4593
4 3255 2919 3935 3254
4 2630 4000 4001 5891
4 5094 2021 2029 2020
4 2707 2755 2710 2750
4 5744 5746 6190 1512
4 4242 1502 1511 1510
4 6198 2048 2047 2039
4 5094 5613 2021 2020
4 2709 2727 2813 2725
4 5060 2710 3690 2856
4 2710 2784 2239 3690
4 5100 2046 2037 2038
4 5095 2030 2039 6198
4 5096 1501 1509 1500
4 2710 3690 2856 3607
4 5797 2031 2022 2023
4 2755 2240 1540 2239
4 4169 4946 993 994
4 5027 991 5780 992
4 4521 5785 4520 2041
4 2237 4009 2239 2238
4 5759 163 2031 164
4 6306 2041 2040 2032
4 5783 2024 2033 2032
4 2238 2239 2240 2755
4 5826 5873 2067 2058
4 3982 5778 6188 6207
4 2601 3576 3564 3574
4 4086 2025 2034 2033
4 2469 2303 3482 3056
4 5120 5780 992 4446
4 6311 2033 2034 2042
4 6084 3539 5559 3540
4 5812 5873 2068 2067
4 4517 1002 4946 1003
4 2477 2481 3694 2482
4 4002 5449 4826 4825
4 2494 2381 2866 2507
4 4199 1530 1529 1521
4 5746 1521 1520 1512
4 4810 2034 6311 5452
4 4010 3651 5000 4271
4 5669 4352 5781 3326
4 2499 2500 2501 2494
4 5778 2009 6176 2010
4 5095 1500 1509 236
4 2501 3538 2499 6033
4 2498 3537 3536 6084
4 2038 6198 2030 2029
4 5612 5096 4242 5615
4 2501 4795 4992 6033
4 4940 5802 5744 1513
4 6198 5095 6194 5939
4 6312 2042 6311 2043
4 3577 3497 2260 2261
4 2595 2606 2600 2599
4 5759 4521 6306 4945
4 4938 4939 3481 3480
4 6306 2032 2040 2031
4 2894 5844 1043 2913
4 5854 1058 1049 169
4 5640 1030 1021 1022
4 2595 2606 3573 2600
4 2453 2986 2987 2463
4 5856 6313 5431 1045
4 2788 4393 4386 4388
4 5785 2042 2041 2033
4 5636 2059 2050 2051
4 2784 2953 4007 4196
4 3337 3345 3338 5070
4 630 5097 4170 3306
4 4450 1019 1018 1010
4 5851 169 1049 168
4 6312 2051 2042 2043
4 2557 2560 2563 3535
4 4701 2964 3878 3515
4 6311 2043 2042 2034
4 4945 994 5771 995
4 4515 4946 4516 4517
4 4052 4767 3749 5000
4 4686 4170 5178 4689
4 6215 2943 3835 5539
4 6205 2037 2045 2036
4 5100 2038 2037 2029
4 5228 5813 6216 5088
4 3576 3842 4446 3883
4 6212 2522 2525 2523
4 5837 2045 2054 2053
4 3240 3115 3723 3244
4 5967 1537 1536 1528
4 5612 4250 1501 1492
4 3635 3461 3631 4094
4 6180 2055 2046 2047
4 6210 1538 1537 1529
4 6303 3809 4245 6191
4 6314 4266 6310 5967
4 5100 2047 2046 2038
4 5937 1509 1518 235
4 6198 2038 2039 2047
4 3802 3809 4245 6303
4 3892 5058 3664 5539
4 6215 6191 3809 6303
4 5958 1510 4973 1519
4 4265 235 2057 2048
4 5967 4266 1527 1536
4 5849 5187 1586 1587
4 5591 3861 5212 3693
4 4516 4521 6306 5785
4 3433 3436 308 4458
4 5832 5812 2076 2067
4 5832 5838 5851 5867
4 4519 1012 4195 1021
4 3436 4457 5512 3431
4 5821 1038 1029 1030
4 4522 2058 2049 2050
4 4878 3970 3436 4472
4 3970 4208 4472 4878
4 5638 1029 1020 1021
4 3161 5114 1578 1579
4 3436 308 4458 4472
4 4520 2051 2050 2042
4 3436 4472 3971 308
4 5638 5429 1020 1029
4 3600 5512 3436 3971
4 3189 3188 5042 3005
4 6312 2052 2051 2043
4 5830 5165 2061 2070
4 5873 2068 2067 2059
4 3188 3585 5042 3006
4 4940 5802 4252 6190
4 4921 3006 3004 5587
4 5042 3005 3006 5043
4 6212 2053 2052 2044
4 4886 5257 1565 5806
4 3461 3631 5394 3585
4 3367 2728 5961 2616
4 6205 2055 2054 2046
4 6210 5967 1528 1537
4 2392 3188 3007 2391
4 4826 5909 5449 5831
4 5430 5429 5428 5432
4 6312 4520 2042 2051
4 4375 4379 3465 3063
4 6206 2063 2062 2054
4 3062 3189 3005 3007
4 3811 5917 5453 2018
4 6281 6310 2066 2065
4 2240 1540 1539 1531
4 3460 3464 3462 6002
4 5216 2063 2054 2055
4 4070 4808 3777 3498
4 6312 4520 5482 6311
4 3212 3241 3718 3723
4 6309 2048 2056 2047
4 5539 4351 3091 4786
4 3651 5411 4008 5087
4 3091 3779 3032 2939
4 5215 2064 2055 2056
4 2624 3032 2932 2625
4 6309 2057 2056 2048
4 4057 4010 5620 5622
4 5100 6180 6205 2046
4 6309 2056 5215 6180
4 3811 2837 5453 4484
4 3649 5806 1573 1564
4 5325 6258 1697 4253
4 5826 4194 166 1022
4 4193 1013 4195 1012
4 5821 1039 1038 1030
4 4522 2059 2058 2050
4 2525 2052 2060 2051
4 5873 2067 2058 2059
4 5117 3758 5454 5122
4 5117 4314 5121 1705
4 5834 1049 1048 1040
4 5432 1037 1028 1029
4 5117 5122 5302 6258
4 5636 2060 2059 2051
4 5876 2104 5879 2113
4 4002 4060 4826 5449
4 4010 4271 2238 5411
4 5117 5451 4253 5325
4 2525 2061 2060 2052
4 2523 2062 2061 2053
4 5830 2062 2071 2070
4 5117 3758 5116 5451
4 2240 1540 1548 1539
4 5215 2064 5626 5216
4 4009 5411 4010 2238
4 2263 2267 3899 2272
4 2730 2735 3218 2728
4 5582 2524 2523 5493
4 5635 2069 2068 2060
4 6206 2054 2062 2053
4 3038 4593 3661 3042
4 3130 1551 2830 1560
4 3095 3567 3039 3093
4 5905 5257 3648 3652
4 5765 6057 4835 6041
4 4271 1539 1547 1538
4 5416 3939 5765 3527
4 5366 5365 5764 5765
4 6276 2072 2071 2063
4 5623 2074 2073 2065
4 6310 2057 2065 2056
4 3651 1547 4271 5411
4 5623 2073 2064 2065
4 3652 1556 1555 1547
4 5765 5764 5366 6057
4 2639 5347 3659 5962
4 4271 4199 1539 1538
4 3494 1251 1260 1259
4 233 234 2066 4266
4 2263 2272 2271 2267
4 3622 3658 3489 3591
4 6310 2066 2065 2057
4 5883 3489 3658 3591
4 6315 5354 6314 1545
4 4014 1253 6034 1262
4 6281 2074 2065 2066
4 3652 1547 1555 1546
4 2611 6151 3018 4801
4 5832 5826 167 1031
4 3658 3659 6031 6032
4 5852 1057 1048 1049
4 5867 2085 5851 2076
4 5814 2069 5848 2078
4 5814 5635 5848 2069
4 4151 5162 6313 5161
4 5812 2076 2067 2068
4 4237 1047 1046 1038
4 5814 2077 2068 2069
4 5853 1056 1047 1048
4 3088 1539 1531 2240
4 2729 4827 2739 2731
4 5165 2070 2069 2061
4 5431 1046 1045 1037
4 5867 5868 2085 2086
4 2730 2735 4926 4970
4 3564 3574 3576 4922
4 5433 1028 1036 1027
4 5831 2523 5582 2062
4 5406 5644 5645 1073
4 3279 5978 3281 3280
4 5643 1065 1064 1056
4 2237 1558 1557 1549
4 2073 5623 2082 2074
4 2089 3861 2081 2080
4 4887 1566 1557 1558
4 2784 5410 4009 2237
4 2851 3919 4262 3925
4 3490 3810 3659 2636
4 4057 5593 4060 5626
4 3622 3591 3593 3796
4 2220 3593 3622 3489
4 3214 2861 4738 3264
4 104 105 6141 438
4 3260 3269 3772 4925
4 6281 2066 2075 2074
4 5098 1554 1546 1555
4 4803 6141 1418 1409
4 5098 3652 1555 1546
4 4748 6141 105 438
4 2231 2288 2762 2764
4 5812 2077 2076 2068
4 6200 5879 5876 6201
4 4686 4689 3136 4170
4 5832 2067 2076 168
4 5854 5851 169 1049
4 3113 3114 3541 2288
4 2762 3112 2764 2288
4 2910 4464 2630 3166
4 5860 173 1085 172
4 2580 2583 2479 2584
4 2454 2465 2453 2457
4 3000 2396 2317 3259
4 5834 1039 5838 1040
4 6216 2079 2087 2078
4 5138 2080 2071 2072
4 3294 3482 3300 3298
4 2305 2303 4412 3334
4 5813 5814 2078 2077
4 4200 4000 5206 2124
4 5488 5009 5033 4994
4 5089 6316 4154 5088
4 5643 1064 1055 1056
4 6317 2121 2112 2113
4 4766 6181 2957 6231
4 2246 2278 2914 2550
4 2237 1549 2239 1558
4 4886 1565 1556 1557
4 5813 2078 6216 2087
4 2583 2582 2955 3170
4 4697 6181 6182 6061
4 6076 6225 1583 1584
4 5835 1062 1053 1054
4 2585 2584 5214 6280
4 2477 2479 5004 5220
4 6315 1537 1546 1545
4 1572 229 5056 1563
4 5021 2101 2100 2092
4 5642 1572 1581 228
4 5057 6076 1584 6225
4 2464 2453 2463 2986
4 6223 2075 2083 2074
4 5160 2964 3878 4701
4 6224 2083 2092 2091
4 4577 6214 3295 3624
4 104 438 6141 447
4 4577 3295 6214 6213
4 5611 5334 6207 3982
4 4577 6213 5682 5695
4 3586 6163 6172 6166
4 5334 6166 5619 5612
4 4772 104 1418 6141
4 2621 5682 4577 4984
4 4577 5729 6213 3624
4 5854 5868 2094 2085
4 5885 1075 1066 1067
4 5867 2077 2085 2076
4 4389 5850 5885 5646
4 6316 2095 2086 2087
4 4577 5729 4984 6149
4 5813 2086 2077 2078
4 5645 5409 1082 1083
4 4577 6149 5682 6213
4 4518 4482 4481 5428
4 5256 1084 1083 1075
4 6247 2132 5206 2133
4 6216 2088 2087 2079
4 6318 5981 6243 5627
4 5470 4825 3859 5909
4 3721 3704 3696 3698
4 2549 3068 4591 3853
4 3412 3704 3724 3725
4 5876 2113 5878 6317
4 6319 2088 2079 2080
4 5863 1085 1084 1076
4 3414 3448 3412 3721
4 5644 1065 1073 1064
4 3862 2089 2097 2088
4 4686 3731 5041 4687
4 4197 4196 1567 4198
4 5022 4623 2093 2092
4 2846 3486 2930 2847
4 5809 5010 5011 1008
4 2549 3856 3853 4591
4 3413 3704 3412 3725
4 6083 1903 6079 5616
4 6319 2089 2088 2080
4 5252 6320 6241 1603
4 6200 5859 4389 5850
4 3129 2090 2099 2098
4 3212 2348 3805 2349
4 5623 2083 2082 2074
4 3861 2090 2089 2081
4 4888 1575 1574 1566
4 3189 3460 2937 2300
4 5022 2092 6224 4623
4 5692 5021 3649 3691
4 3581 3789 4172 3775
4 2839 3229 2840 3474
4 4349 231 230 2093
4 3022 3021 3372 3182
4 104 105 1418 6141
4 2637 3789 3807 4172
4 2084 2092 4623 2083
4 3649 1573 1572 1564
4 3965 4649 4626 4630
4 2934 2935 2933 6085
4 5642 5232 2102 2111
4 2842 2529 2299 2528
4 2935 2933 6085 3630
4 5899 1093 1084 1085
4 2934 4948 2935 6085
4 2834 4809 3852 4092
4 5868 2086 2094 2085
4 5868 2095 2094 2086
4 2842 2841 2839 2529
4 2837 5453 4484 3903
4 6202 2096 2104 2095
4 5645 1083 1082 1074
4 3173 3356 3357 3354
4 6316 2096 2095 2087
4 4050 5130 6241 6134
4 5088 2097 2096 2088
4 5175 6209 6079 5550
4 3361 3496 3871 3501
4 5138 2072 2081 2080
4 3361 3871 3873 3842
4 3669 5727 3273 5728
4 4283 2144 6321 2153
4 5550 6083 1904 6079
4 5856 5841 5839 1055
4 6218 2082 2090 2081
4 4528 3069 6239 5913
4 3861 3859 2080 2089
4 3852 4083 3843 3358
4 3354 3852 3361 3358
4 4229 4090 4629 6100
4 4213 2108 2116 2107
4 5089 2106 2105 2097
4 6202 2105 2104 2096
4 3862 2098 2097 2089
4 2885 2668 2442 5791
4 6084 3382 3180 3385
4 6084 6179 3180 5559
4 2372 1111 1110 1102
4 3367 4331 3018 5961
4 5021 3693 6211 3691
4 4693 4611 1345 1354
4 4441 3906 4136 4436
4 3536 4992 6169 4636
4 4229 384 111 4230
4 3536 5870 6084 3537
4 4441 4435 3906 4436
4 3613 1582 5570 1581
4 5022 4623 4349 2093
4 5570 1590 1582 1591
4 2100 5169 2109 2101
4 3536 6084 3385 3382
4 3473 3472 3421 3468
4 5232 2102 2110 2101
4 2640 3138 3139 4003
4 3613 1573 1582 1581
4 1608 6322 5315 5111
4 2566 4133 2567 3551
4 6229 1600 1599 1591
4 3614 1574 1583 1582
4 2394 2688 3662 3000
4 3668 3647 3669 4866
4 6201 2104 2103 2095
4 5006 5005 5092 597
4 4356 5869 171 1067
4 3030 2644 3020 3056
4 5899 5861 5911 1094
4 5879 2113 2104 2105
4 4850 2156 2164 2155
4 6241 1612 1611 1603
4 6323 1610 1601 1602
4 5245 5243 653 652
4 3941 4065 5687 6043
4 3469 3470 3798 3799
4 2556 3980 2732 2339
4 3128 2109 2118 2117
4 5876 2112 2103 2104
4 5638 1020 5429 5799
4 3129 2098 2099 2107
4 6317 2122 2121 2113
4 2855 4670 4151 5161
4 2106 5234 2107 2098
4 2218 3840 2214 2787
4 4205 2118 2126 2117
4 5406 1064 1073 1072
4 6323 1611 1610 1602
4 3840 4151 2855 4438
4 3239 5089 4154 5088
4 4153 5089 3239 3862
4 5570 5651 5566 6229
4 6225 1592 1583 1584
4 2372 1102 1110 1101
4 3239 3862 5088 6319
4 3239 6319 3860 3862
4 4347 2137 2136 2128
4 5232 2102 2111 2110
4 3806 4503 2573 2572
4 1176 68 1185 5373
4 3239 6216 5471 3864
4 3239 6216 5228 5471
4 3840 4438 5227 4151
4 5350 5351 706 697
4 3614 1573 1574 1582
4 5860 4356 6317 2112
4 5727 4738 3669 3214
4 4497 4499 4500 4806
4 2580 3928 4764 2986
4 5202 4500 6128 4496
4 2343 2148 6239 2149
4 5876 2113 2112 2104
4 4170 631 5041 640
4 5914 1101 1100 1092
4 5201 2320 5202 2801
4 2320 4500 2329 5201
4 4202 2115 2114 2106
4 5256 1074 5646 1075
4 5878 2114 2122 2113
4 6323 5214 2585 5221
4 4500 2320 4496 5202
4 5988 1637 5190 1646
4 5201 4500 6128 5202
4 3991 3187 4558 3992
4 4143 5328 1116 5495
4 6222 1585 1576 1577
4 5934 6061 6245 6237
4 3443 5343 3743 3745
4 2411 2382 3019 2408
4 2513 3045 2527 2520
4 2585 4764 6323 5221
4 4200 2125 2124 2116
4 3128 2117 2108 2109
4 5899 5256 5863 1084
4 4743 2511 3990 2508
4 5206 2132 2123 2124
4 3232 3800 2363 3617
4 5214 1610 1609 1601
4 4360 1600 5214 1609
4 3016 5716 3642 3315
4 3017 5710 3016 4876
4 5213 1600 1591 1592
4 5315 1599 1608 225
4 3122 3120 3133 5716
4 3016 5727 6077 5710
4 3991 3989 4537 4536
4 2985 1576 6105 4198
4 5171 1592 6225 5213
4 2900 3615 3612 2902
4 4346 2127 2118 2119
4 5232 2119 2110 2111
4 5372 5373 1176 1185
4 3611 2903 2902 3685
4 5232 2120 2119 2111
4 227 5566 2120 2129
4 5651 2119 5232 2120
4 5315 4360 6229 6322
4 5860 5861 2121 5862
4 3615 2902 4063 3612
4 5273 3684 3681 5274
4 5911 5861 174 1094
4 5935 177 1121 176
4 2341 5901 1103 1102
4 5256 1075 5863 1084
4 4028 2864 4293 3298
4 2391 2392 2859 3095
4 5927 2132 2131 2123
4 6318 2143 2151 2142
4 2404 2652 2410 2413
4 5847 1109 1100 1101
4 2409 2411 4020 4124
4 2408 4062 4124 2409
4 2713 3534 4350 2828
4 3534 3146 3660 3621
4 5256 5645 1083 5409
4 6324 5272 4501 5349
4 5160 2125 2116 2117
4 6247 2133 2141 2132
4 2848 3607 2829 2713
4 5913 5985 5297 2140
4 2987 4764 6320 4049
4 2354 3992 3292 3828
4 5132 1619 1610 1611
4 3291 3650 3408 2447
4 5329 1106 1097 1098
4 5132 1620 1619 1611
4 4414 3991 4558 3290
4 2520 2527 5305 3572
4 6290 2125 2133 2124
4 4346 2128 2127 2119
4 2514 5390 4231 2517
4 3449 1190 5066 4359
4 3110 3108 3763 2800
4 2799 3077 3292 3288
4 6325 2145 2137 2146
4 5160 2126 2125 2117
4 2799 2798 2434 2449
4 5988 4123 5460 1628
4 2129 5566 2120 5651
4 6239 2149 2148 2140
4 5881 2135 2126 2127
4 1576 2990 2985 1584
4 2513 2520 2517 2518
4 5651 2120 2128 2119
4 4360 5111 1608 5110
4 69 713 5373 714
4 5651 2129 2128 2120
4 5385 5373 69 713
4 226 5315 2129 2138
4 5110 1617 1608 1609
4 4689 3583 5864 5178
4 2185 3900 2176 3729
4 5332 5347 2639 3807
4 2614 6151 4874 4898
4 4388 5644 5256 5645
4 4874 4108 1450 4110
4 5862 2130 2121 2122
4 2343 2158 2157 2149
4 4898 4108 1450 4874
4 3061 3093 3004 3063
4 3464 5043 3004 3005
4 5209 2134 2125 2126
4 5945 5913 2149 6239
4 5206 2133 2132 2124
4 5460 1629 1637 1628
4 6321 2145 2153 2144
4 6226 1605 1614 1613
4 5133 1620 1628 1619
4 3004 3946 3093 5587
4 5240 1642 1651 1650
4 4384 5203 4385 5857
4 5749 1119 5910 4276
4 3851 5165 5830 5848
4 5913 2149 2140 2141
4 6290 2134 2133 2125
4 3093 3094 3095 5587
4 6233 2135 2143 2134
4 5980 2134 2142 2133
4 3558 3661 3562 4330
4 5566 5315 1599 6229
4 4376 3948 6142 6326
4 5209 2135 2134 2126
4 5246 5192 1079 1070
4 5997 2159 2150 2151
4 5518 3093 3946 3094
4 4375 3562 4379 3063
4 4376 3661 5518 5519
4 4347 2128 2136 2127
4 2964 5208 6233 5974
4 6241 4764 5221 6323
4 6241 4764 6134 6320
4 6325 2145 2136 2137
4 3661 3042 5519 4330
4 6322 2129 2137 2128
4 3076 3043 3044 4995
4 2431 3043 2594 2439
4 4360 5111 6322 1608
4 3093 3562 3063 3557
4 6327 2137 2138 2146
4 5315 1608 5111 225
4 3408 4592 4593 3650
4 3291 3408 3650 4643
4 2514 4494 4415 5390
4 3078 3289 3288 4643
4 5985 2139 2130 2131
4 5911 5915 5901 1103
4 3291 3043 3079 4643
4 4657 4204 1120 1129
4 4327 3076 3084 4995
4 4592 3079 3043 4643
4 4528 3734 4529 2372
4 2928 2438 2434 3081
4 2328 2800 2320 2801
4 3194 1118 1126 1117
4 2770 2327 2771 2328
4 5314 1206 1215 1205
4 3260 4925 3772 3771
4 6232 1633 1642 1641
4 3789 2390 4172 2637
4 3669 5727 4866 3273
4 2674 2218 2786 3841
4 6231 2136 2144 2135
4 2331 4500 2329 2320
4 4045 1182 1191 1181
4 6233 2144 2143 2135
4 2370 5910 3722 5749
4 6007 1218 1219 1228
4 5945 2158 2149 2150
4 4503 1184 4465 2572
4 3656 3849 2193 1166
4 2758 2570 2757 3327
4 5328 3762 5329 2663
4 2671 2592 2200 2569
4 6181 6321 6061 5942
4 5456 1613 6226 1622
4 5219 4347 6231 5881
4 3731 5153 4506 5170
4 6318 2152 2151 2143
4 6245 2154 2145 2146
4 5245 653 5247 662
4 2499 3538 5141 6033
4 2997 3595 3590 3589
4 3768 4777 5290 5822
4 3383 1220 1210 1211
4 3383 3052 1211 3224
4 5915 2139 2148 176
4 6239 2148 2139 2140
4 3057 2714 3589 2718
4 2721 2305 2425 4716
4 5935 4655 2371 4656
4 5947 1139 1138 1130
4 2305 4412 2642 3333
4 3377 3999 4811 3376
4 4592 2310 3079 4720
4 3052 196 1211 1202
4 3075 3083 4327 3084
4 3213 3669 5727 4866
4 3322 2421 3405 3289
4 5847 5749 1109 1110
4 6242 2161 2152 2153
4 2620 4970 4925 3261
4 3030 2647 6104 4078
4 6070 5686 2645 5463
4 5933 5110 5214 4039
4 6321 2154 2153 2145
4 6070 4631 2645 2642
4 6070 2645 5496 5463
4 6070 5686 2647 2645
4 3066 2168 2159 2160
4 4123 4039 5132 1619
4 3447 4072 3720 3416
4 5997 2160 2159 2151
4 6318 2151 5946 2142
4 2296 3232 3617 3489
4 3551 4731 4434 5498
4 2721 2722 2308 3334
4 4871 4869 1644 1635
4 3383 1211 2754 1220
4 4869 1627 5988 1636
4 2414 2972 2415 2417
4 4851 2147 2155 2146
4 4869 1636 1635 1627
4 6233 6321 2144 6231
4 2314 2568 2723 2567
4 5109 4850 4870 4851
4 4869 5988 1645 1636
4 2567 2568 3551 4133
4 4850 2156 2165 2164
4 4868 222 2165 223
4 3551 4731 5498 5398
4 2343 2149 2157 2148
4 2568 3752 3551 5500
4 6328 4657 5947 4204
4 4109 5346 5347 1467
4 4655 2157 2343 2158
4 6299 5955 4094 4093
4 3695 1136 1128 1137
4 6299 5047 3462 5394
4 4655 2167 2166 2158
4 5816 3744 3743 3745
4 5886 2167 2158 2159
4 6299 4094 4889 5394
4 6299 5229 4910 4856
4 5945 2159 2158 2150
4 5947 1130 4654 1139
4 3728 2176 2167 2168
4 4109 1468 5346 1467
4 5945 5886 2343 2158
4 5963 4714 1173 1172
4 4657 4204 5910 1120
4 5886 2168 2167 2159
4 3729 2175 2166 2167
4 3548 4043 5734 4672
4 5734 4618 5964 4672
4 3396 1219 1218 1209
4 2825 2899 2355 2974
4 4634 5990 5279 5369
4 4297 2171 2170 2162
4 6254 2164 2173 2172
4 4108 4109 1468 4110
4 6252 2163 2171 2162
4 3828 4558 3827 2354
4 6251 1676 6017 1675
4 5214 5110 1609 4039
4 6027 6047 1239 1248
4 5734 4041 4616 4043
4 4616 3832 3827 5734
4 4110 4108 1459 1468
4 3451 3372 3452 3788
4 5942 2163 2162 2154
4 6252 2163 2172 2171
4 6245 2155 6237 2154
4 4183 5369 1195 1204
4 3224 1201 1211 1210
4 3183 3454 3452 3178
4 3880 5460 3882 5988
4 6023 2183 2174 221
4 4138 4471 4666 4137
4 5988 4123 1628 1627
4 3179 3454 4576 4137
4 5109 4850 4851 2156
4 2956 4346 5881 4205
4 4576 3179 5477 3178
4 3463 4110 4117 4116
4 3454 3452 3178 4576
4 3454 4562 3455 4576
4 3454 4666 4037 4562
4 2254 4670 2818 3157
4 3746 2812 2618 4002
4 2609 2597 2622 2595
4 4772 1427 6143 1418
4 5954 5423 180 1148
4 3656 4662 1165 1174
4 3356 3474 2632 3173
4 5408 1174 1183 1173
4 3857 2161 2169 2160
4 4772 4759 447 6141
4 2832 3475 3501 3491
4 3728 2168 2177 2176
4 4109 5346 3807 5347
4 2345 2349 2700 2347
4 4772 103 447 456
4 5929 2172 2180 2171
4 3655 686 5391 4127
4 5670 1924 3561 1915
4 5460 1638 5190 1637
4 4062 4063 4955 4742
4 4772 447 4776 456
4 4772 104 1427 1418
4 2412 4740 4955 2801
4 5988 1636 1637 1645
4 4955 5380 4957 2766
4 3854 4036 3900 3855
4 2409 2867 3615 2378
4 2766 5380 4957 2803
4 3721 3726 3698 3727
4 5270 6006 1217 5352
4 3721 3716 3715 3858
4 5670 6109 5693 1925
4 6329 2182 2173 2174
4 2442 6249 1654 3978
4 4871 2165 4850 4868
4 4871 222 4868 1635
4 4872 2165 2174 2173
4 6329 2183 2182 2174
4 3716 2340 3722 3065
4 5423 4654 179 1139
4 3721 3698 6328 3727
4 3068 3853 3067 4591
4 5947 1139 5953 1138
4 3656 4503 1174 1175
4 3541 3618 2772 2275
4 4503 1184 1183 1174
4 3064 3065 2342 3066
4 4001 5208 5974 6244
4 3715 3717 3065 3066
4 5670 3301 3959 3297
4 6307 5906 4529 5255
4 4528 5906 6307 5901
4 6293 4530 5407 6307
4 4386 6293 4530 5407
4 3195 5749 3722 4276
4 4818 465 4791 4802
4 3858 2168 2169 2177
4 4528 6307 5297 5985
4 6307 6293 5255 5407
4 4830 2436 1672 6015
4 6307 6293 5862 5899
4 5435 6110 5606 4610
4 5250 5294 4725 5167
4 3028 5251 5125 6072
4 2445 2669 6329 3978
4 3052 2198 196 195
4 5125 4725 4332 5251
4 3028 4025 4023 5250
4 6251 5356 1667 1666
4 5250 4025 5294 5167
4 3470 5361 5902 5337
4 6005 2181 2172 2173
4 3798 5107 3395 4508
4 4872 6023 6249 6329
4 2669 2192 2191 2183
4 5191 1654 1646 1655
4 4773 102 103 456
4 3153 2181 6005 2190
4 3153 2189 2180 2181
4 3710 3470 5337 3473
4 6005 2173 2182 2181
4 3435 3434 3600 3436
4 2670 2201 2200 2192
4 2435 4831 219 2192
4 2640 2587 2401 3451
4 3729 2175 2176 2184
4 4773 1436 6142 1427
4 2686 2970 3945 3013
4 4465 1184 193 2572
4 3729 2176 2185 2184
4 3657 2185 2194 2193
4 3526 4463 3939 3527
4 4568 5762 3938 3527
4 5963 5408 1182 1173
4 3900 2185 2176 2177
4 5670 3301 6109 4804
4 5438 5972 4011 6045
4 3442 3440 4568 5438
4 2573 2195 2194 2186
4 3284 2195 3419 2196
4 3418 1200 1210 1209
4 3726 3858 3728 3721
4 3284 1193 1184 194
4 3937 5673 6055 6271
4 4773 4802 465 456
4 2534 2846 2538 2691
4 5670 3561 3959 6285
4 3413 3248 3250 4022
4 2845 3444 2930 3410
4 3486 4628 5998 4627
4 2915 4048 2916 2917
4 4773 103 1436 1427
4 2583 5128 2585 3170
4 3170 5128 4050 2917
4 2959 5974 2955 4001
4 3514 3167 6153 3166
4 5974 6181 2955 4001
4 3516 1698 1689 1699
4 4766 6182 5219 5128
4 5989 202 203 1235
4 2261 3713 3497 3851
4 5670 6109 1916 4804
4 3748 2931 2335 2751
4 4058 3498 3497 2619
4 1775 6050 1776 1767
4 2595 2596 2622 2605
4 3497 2522 3499 5582
4 4773 102 1436 103
4 2329 5629 5705 4491
4 5482 2524 3499 3500
4 3713 4514 2524 5634
4 3497 2524 3499 2522
4 4082 4091 3474 2834
4 4773 4776 456 4772
4 2700 3092 2347 3475
4 2351 3478 2352 5707
4 4773 102 4791 1436
4 2218 2456 2562 3841
4 4661 4664 1147 5953
4 1650 5360 1659 5244
4 4450 3154 5429 5799
4 5316 4107 683 5335
4 4256 1195 4183 5369
4 3144 3864 2820 4825
4 3479 3575 2610 3574
4 2606 2600 2712 3533
4 5438 5416 6045 3440
4 6041 1262 1263 1271
4 3533 5357 2712 3529
4 6029 1769 1777 1768
4 5629 4779 4491 4740
4 6237 2154 2155 2163
4 5191 1654 1645 1646
4 3383 3224 1211 1210
4 6006 5352 1208 1217
4 3839 2291 549 548
4 3361 3842 3873 4259
4 5757 1027 4450 5433
4 5770 3360 966 975
4 4421 5026 6013 5236
4 2240 2237 1548 1549
4 4112 5691 6291 1950
4 2755 1531 5820 1532
4 474 4791 101 100
4 4864 1453 1444 1445
4 1454 4910 4857 483
4 5629 4740 5581 4779
4 5820 1531 2755 2726
4 5462 1740 5467 1741
4 5462 1741 1750 1740
4 2240 2237 1549 2239
4 5424 5448 3786 721
4 5629 4740 4336 5581
4 2725 3664 5545 4351
4 6028 1690 1689 1680
4 4080 19 735 20
4 3867 2621 3645 5682
4 2730 2736 2737 3363
4 2222 3269 3260 2229
4 2918 5653 3625 2923
4 3284 1183 4503 1184
4 3221 3224 3701 3051
4 3268 3668 3669 3265
4 3268 3264 3669 3647
4 100 4791 101 1454
4 100 483 474 4791
4 2266 3268 3262 3264
4 2491 2487 2742 3484
4 3795 3641 5685 4875
4 264 265 6058 1248
4 4877 916 917 925
4 3096 3097 3346 3098
4 1787 264 265 6058
4 4044 1809 4065 1800
4 1778 6058 265 1248
4 2743 2487 5674 3999
4 264 1248 6058 1257
4 2543 2735 2620 3257
4 4462 3082 3404 4174
4 4318 263 264 1257
4 3567 2448 3082 3039
4 2430 2543 3218 2264
4 5273 3681 3682 4218
4 6103 3684 3683 4102
4 116 117 5199 330
4 3681 1350 6103 3683
4 3681 6103 5274 3684
4 4550 5199 339 1310
4 4555 4210 332 4531
4 116 5199 339 330
4 3369 3608 6103 4702
4 6103 3610 4102 3608
4 5629 5630 5581 6128
4 3369 4702 6103 5274
4 2926 2871 5105 2925
4 1310 116 117 5199
4 2916 2926 5460 2925
4 261 262 6049 1275
4 6273 6049 1814 1805
4 4055 6049 262 1275
4 4798 2554 3881 2927
4 5129 2927 2917 4798
4 261 1275 6049 1284
4 2927 4123 4798 5133
4 2927 3880 4123 5460
4 3516 4420 1689 1698
4 3618 4048 3619 5456
4 6048 1823 261 260
4 3074 3071 5892 5627
4 6227 259 1832 260
4 4571 1823 6227 1832
4 3881 5793 4697 6061
4 3667 3131 3345 5139
4 4132 6227 4571 5534
4 80 5999 663 654
4 3667 3345 2713 2706
4 4571 6056 1823 1822
4 4570 6068 4131 4132
4 4132 1294 1303 1302
4 6090 1312 1303 1304
4 2703 2706 2713 2704
4 2791 3336 3345 3303
4 3336 3344 3341 3342
4 4787 1821 6270 1830
4 5533 6062 6052 5499
4 6227 260 1832 1823
4 3337 2952 2953 3338
4 3344 3146 3147 3342
4 2988 2989 2952 3338
4 2335 2337 2931 2336
4 2595 2206 2604 2599
4 4854 1670 1679 1678
4 5363 709 5965 700
4 5965 700 709 708
4 4540 1822 1821 1813
4 3158 3155 4450 3156
4 4131 6090 6088 1312
4 4572 1830 1831 1839
4 2261 3713 3577 3497
4 259 4570 1302 6227
4 5470 3714 5829 5848
4 5470 5471 3714 5848
4 2254 3495 2821 2820
4 1302 258 6086 259
4 4057 5000 4010 5622
4 2945 2941 3476 4244
4 5245 5236 652 5248
4 6086 259 4570 1302
4 5629 5630 6128 4499
4 258 1302 6086 1311
4 259 258 6086 1841
4 3459 3981 3335 2531
4 4070 3782 4808 3903
4 3811 3458 2837 4484
4 3573 2351 5357 3533
4 5712 476 4863 475
4 3982 3459 4121 2841
4 2840 4988 3815 3229
4 2938 2833 2940 2939
4 2840 2837 3812 3813
4 6265 1777 1786 1785
4 2842 2833 2938 2528
4 3085 2932 2749 3086
4 2368 2810 2369 2367
4 2613 6151 3018 2611
4 2840 3813 3814 4121
4 3459 5777 3457 3592
4 4413 1850 1841 258
4 4743 3323 4900 2905
4 2906 4900 4272 3604
4 255 256 4325 1329
4 2546 4325 255 1868
4 4743 4272 4900 4682
4 5157 1589 1580 86
4 4900 4272 3604 829
4 4268 4325 1868 1859
4 4269 4325 256 1329
4 255 1329 4325 1338
4 255 256 1868 4325
4 4900 4682 5580 828
4 2546 254 255 1338
4 2546 2547 6066 1347
4 4900 829 5580 4272
4 2419 3324 3750 5340
4 4208 4878 3970 4034
4 3662 3597 3598 4034
4 3601 3889 5370 4878
4 5020 2925 5441 1639
4 5020 2870 2871 5355
4 5105 1638 2925 1639
4 5105 2925 1638 5460
4 2884 2891 2898 2887
4 2916 2914 2926 2925
4 3560 3559 3898 3897
4 2611 2615 2616 2613
4 6066 5599 1356 1347
4 2546 2544 1338 4325
4 2546 254 1338 1347
4 2742 3484 3096 2267
4 2715 2716 2865 4775
4 3367 3063 2617 4331
4 4925 3772 3771 4897
4 4925 3772 4897 3363
4 252 253 6096 1356
4 4062 4282 4063 6089
4 1886 6096 253 1356
4 1356 1365 6096 252
4 6209 1365 5550 1374
4 4925 5667 4970 4926
4 3644 2266 2268 3268
4 2408 2411 4124 3019
4 3285 3287 4125 4780
4 3225 4028 4293 3615
4 5580 5516 4711 2510
4 229 230 2102 5056
4 5245 5237 5248 661
4 253 6096 1895 252
4 2516 2518 4474 2520
4 2654 2907 2909 2655
4 4120 1517 1516 5082
4 4680 2499 2510 2498
4 91 564 2869 90
4 4960 2869 1544 1535
4 4769 1525 1526 1534
4 4963 4126 4993 4964
4 2513 2516 2515 3045
4 3215 5589 3884 5798
4 2869 91 1544 1535
4 3215 3884 3641 5798
4 3062 3007 3095 2392
4 3213 4866 3265 3669
4 4770 92 1535 1526
4 2869 91 90 1544
4 4770 564 2869 91
4 2868 1553 90 89
4 3214 3213 3669 5727
4 3453 3456 3454 4037
4 3183 3455 3456 3784
4 4757 248 249 1392
4 3420 3712 3421 3473
4 4757 1931 6286 1922
4 4757 249 5177 1392
4 4757 248 1392 1401
4 4757 248 1931 249
4 4410 2972 5339 2428
4 3456 3455 3957 4209
4 3456 3468 3784 3472
4 6132 4757 1401 1931
4 4511 3473 3472 3421
4 247 248 5659 1401
4 4223 6154 1419 1410
4 1401 1931 5659 6132
4 5659 248 1940 1931
4 4003 4004 4006 3788
4 4004 4005 4006 767
4 4004 4005 767 758
4 248 1931 5659 1401
4 4004 4005 758 757
4 1940 247 248 5659
4 5311 4005 3421 3784
4 4004 3455 3784 4209
4 3784 4005 3421 4003
4 245 246 5383 1419
4 4005 4004 3784 5311
4 6122 5383 1419 1428
4 2649 6043 3941 5687
4 3406 3407 2423 4778
4 2331 4499 2324 2982
4 5481 1708 1718 1717
4 2423 3405 2421 5903
4 3552 1269 1270 1278
4 2340 6328 3716 3722
4 4069 4504 321 322
4 3726 2573 2185 3900
4 5595 3333 2642 4412
4 5533 4571 3752 3554
4 6055 1727 1718 1728
4 2423 2424 2517 5390
4 5383 246 1958 1949
4 1958 245 246 5383
4 5390 5903 4753 5979
4 5390 2423 2421 5903
4 1949 5383 246 1419
4 2777 3485 4304 2844
4 5903 3381 4231 2423
4 5134 1967 245 244
4 5618 5903 3381 4231
4 3058 5801 5287 3820
4 2497 3603 4272 5580
4 2497 820 5580 5516
4 4549 115 116 339
4 3046 3035 2906 5578
4 2385 2677 2699 2681
4 3046 2908 5579 5578
4 4549 1319 4550 1310
4 2652 2795 2408 2410
4 4549 1319 115 5024
4 3603 5580 829 4272
4 3869 5986 5996 5314
4 5290 3895 5286 4777
4 4549 115 339 348
4 4549 115 1319 116
4 2781 5585 5242 5752
4 339 1310 116 4549
4 4628 4304 5928 4627
4 3869 5986 6269 5996
4 86 87 5137 600
4 3869 6189 4298 6269
4 2257 5137 87 600
4 4938 4342 4308 4343
4 86 600 5137 609
4 86 87 1580 5137
4 2835 3171 3172 3475
4 3211 3509 3719 2809
4 3875 3496 3902 2633
4 3242 4941 3930 4959
4 6047 1769 266 1778
4 3242 4948 3510 4976
4 6027 1249 1248 1240
4 4027 4293 4391 5263
4 5263 4293 4391 5184
4 2724 3300 3294 2722
4 242 243 4340 1446
4 5717 1455 242 4340
4 5524 1455 4340 1446
4 4340 243 1985 1976
4 3300 5609 5263 3553
4 5609 2864 5184 3293
4 2445 6329 6005 6254
4 2719 3060 3059 3299
4 2602 2818 2967 3157
4 5470 5156 3864 6216
4 2261 3497 2262 5493
4 5430 3155 4713 4669
4 1976 4340 243 1446
4 4340 1985 243 242
4 4444 3564 4446 5810
4 3157 5162 2967 2893
4 2818 3157 5162 2967
4 4809 3843 4092 5784
4 2623 3491 2832 3501
4 2596 2623 2624 2626
4 4809 5483 5420 3842
4 4809 3842 5420 3501
4 4938 5680 3929 4308
4 114 115 5024 348
4 4625 5024 1328 1319
4 5940 695 704 703
4 5948 1142 1134 1143
4 5338 1197 1196 1187
4 5386 5363 5368 709
4 3232 3459 3592 3489
4 5951 1167 4076 1168
4 5284 5932 1132 1131
4 2389 2228 2936 2300
4 4549 5024 115 348
4 114 348 5024 357
4 5024 114 1328 115
4 3162 2633 3902 3163
4 5074 1337 114 113
4 5286 4624 4538 4534
4 2374 3319 3318 3215
4 2409 2408 2411 4124
4 2802 2903 3610 4102
4 239 240 6126 1473
4 4952 6126 6163 1482
4 4952 5612 1491 1482
4 2003 6126 240 1473
4 4444 3154 4450 5799
4 4416 1246 1247 1255
4 4665 3698 3726 3727
4 239 1473 6126 1482
4 4756 1197 1207 1206
4 6126 239 2012 240
4 4445 3500 5483 5420
4 4444 3564 5810 4450
4 3154 5805 4481 5799
4 2266 3266 3264 2229
4 3644 2270 2266 2621
4 2437 199 6 1238
4 3644 3647 3281 3268
4 3797 2851 2221 3263
4 83 84 5180 627
4 6235 5182 1607 5180
4 2229 2222 2221 3263
4 3214 3015 3213 5727
4 3279 5978 3121 3281
4 5158 84 627 5180
4 4293 4027 3612 4354
4 5180 84 1607 1598
4 5609 3298 5263 5184
4 3611 2902 4306 3685
4 4391 4294 5185 4293
4 5184 5189 5185 5511
4 5184 5609 5511 5185
4 5184 5609 5185 5262
4 3688 5184 5189 5185
4 2659 2245 3769 3914
4 5158 85 1598 1589
4 2243 4469 4423 3731
4 5158 6220 1598 5180
4 1607 83 84 5180
4 2247 2536 2535 2251
4 2764 4425 2288 3112
4 2615 4827 2613 3653
4 5671 4827 4828 2739
4 233 234 4266 1527
4 2532 1237 1228 1238
4 5671 3653 6160 4827
4 4827 3653 6160 4883
4 2613 4829 4883 4827
4 6310 4266 2066 2057
4 4898 2613 4829 4883
4 6314 6281 6310 2066
4 4827 5961 2613 4234
4 2057 234 4266 2066
4 6314 233 2066 4266
4 3072 3722 3195 2370
4 3064 3068 3072 3065
4 2278 2551 2253 2549
4 4266 5968 1527 4265
4 3194 3696 4276 3722
4 3190 4924 2286 3733
4 3195 2370 5847 3734
4 3195 5847 4924 3734
4 81 82 5999 645
4 5186 647 5300 5217
4 645 5993 5999 654
4 1616 5999 1625 82
4 2109 2101 5169 2110
4 81 5999 80 654
4 2381 2384 3673 2677
4 4743 2508 2905 4272
4 1616 5999 82 645
4 2411 2379 4124 3019
4 2383 3844 2379 3846
4 5407 4529 4387 3916
4 3857 2170 3855 2169
4 4387 4386 4530 5407
4 4527 3071 3070 3069
4 3165 3170 3164 2917
4 111 112 4230 375
4 111 1355 4230 112
4 4693 1346 1355 1354
4 4525 4230 112 375
4 5516 819 811 820
4 5572 4140 5607 5605
4 3916 5407 4529 5409
4 3916 4924 5847 3734
4 3916 5409 4529 5914
4 2991 2994 2992 3588
4 111 375 4230 384
4 2992 3036 3526 3037
4 4503 1183 3284 4290
4 4229 110 111 384
4 4777 5291 5290 5822
4 3598 3594 4419 4483
4 4483 3594 4526 3595
4 3450 2533 6007 6250
4 2993 2566 2992 3037
4 2997 3590 3595 3597
4 3416 1209 1208 1199
4 2688 3662 2997 3524
4 5380 2801 2766 4955
4 5201 4955 4336 4740
4 4955 5200 4336 4742
4 6089 4062 4742 4063
4 4352 5286 5669 4624
4 4955 2801 5200 5380
4 2592 197 1220 2754
4 4955 5381 5200 4742
4 3799 3512 3395 5107
4 4955 4147 4063 4306
4 4290 3418 1200 1201
4 4267 1841 1849 1840
4 5609 3350 3351 6090
4 4267 1850 1849 1841
4 4131 4413 6086 1311
4 4955 4063 4147 4742
4 4267 1850 4413 1320
4 5339 5687 3423 4433
4 2937 3461 3188 2933
4 4270 1329 4325 4269
4 5816 1180 1170 1171
4 5840 4924 3193 5847
4 6091 1848 1839 1840
4 3771 5731 3773 5699
4 2295 2935 3581 2389
4 2298 2637 2387 2388
4 5166 4087 5164 2015
4 3188 2391 2936 3584
4 3365 3153 3332 4056
4 3460 3465 3464 6002
4 5452 4091 5453 2017
4 3463 6002 3462 4117
4 2978 3169 3374 2805
4 5452 2026 2035 2034
4 3692 4008 5087 3652
4 2975 3297 2980 3296
4 4998 4345 972 981
4 3623 3626 4984 3627
4 2975 2978 2980 3297
4 2332 2330 2920 2321
4 4577 5695 5682 6330
4 2621 3866 6330 3867
4 3729 2167 3728 2176
4 5452 2025 2026 2034
4 1501 4242 1502 1493
4 4466 209 1680 1689
4 6330 2621 5682 4577
4 4940 6190 4252 4243
4 2980 4577 2745 3866
4 3656 1166 1175 1165
4 3696 3695 5282 4276
4 4830 1662 2435 4831
4 2975 3297 2976 2979
4 4577 3295 2980 3624
4 2147 5111 6327 5109
4 2661 4927 3191 4581
4 6314 2075 233 232
4 2549 3879 5795 2552
4 2659 3759 2289 2245
4 3761 5328 4143 5495
4 3191 4927 5975 4581
4 4927 4581 4846 5975
4 2646 5687 5339 4410
4 6209 1383 250 1374
4 5550 1374 1366 1375
4 6227 259 260 1293
4 6318 5997 5981 5627
4 6227 1302 259 1293
4 4375 3464 3465 4379
4 3873 974 983 982
4 2892 2893 5090 2894
4 4375 5043 4378 3948
4 5042 5047 3462 3464
4 2649 3756 3757 6043
4 5199 117 1310 1301
4 4379 4378 4858 4377
4 3678 117 1301 118
4 3462 3464 4379 6002
4 4600 339 5199 330
4 4375 4379 3562 4377
4 3932 2810 3509 4313
4 2634 3163 2365 3125
4 3797 4262 3925 2851
4 4601 6287 4262 5738
4 3550 6186 3283 4602
4 2854 3283 3550 3466
4 3356 3230 5150 3125
4 3886 5922 5864 3237
4 2593 5971 5923 2987
4 3001 2972 5341 3324
4 4362 510 2281 501
4 5187 5231 5920 5971
4 6064 5922 5872 5920
4 5872 6064 6240 5922
4 3886 3325 3343 3340
4 3886 6064 3340 5920
4 3409 3449 2689 3445
4 5222 3446 3998 3448
4 3448 3721 5973 3412
4 2249 2847 3444 3616
4 2415 3036 2416 3002
4 2884 2885 2888 2896
4 4570 6227 4132 1302
4 2885 2896 2886 3450
4 3237 3542 3234 3235
4 5767 3542 5217 5300
4 3887 5300 5864 4284
4 3234 2590 3114 3887
4 4873 484 483 475
4 2461 2563 2557 2560
4 3111 3113 3114 3887
4 3887 5864 5178 4284
4 3111 2764 4422 4470
4 3111 3887 5173 3113
4 4470 3731 5170 5041
4 2627 2582 2629 2959
4 2981 2986 5143 2987
4 5566 5642 5570 1581
4 5022 2101 2093 2102
4 3440 3507 6055 5673
4 3030 2644 6070 2647
4 3074 5627 5892 6153
4 3185 3912 3453 3454
4 4118 3494 4454 1251
4 5913 3069 5946 4530
4 3071 4530 6247 5946
4 4527 3734 3916 4529
4 5633 1455 5524 1456
4 3070 2342 3734 3069
4 5627 6129 6153 3074
4 5717 5633 1464 1455
4 4527 3070 3071 3671
4 2320 2800 4679 2801
4 4663 1155 1147 1156
4 3563 3897 3560 3898
4 2323 2327 2331 2326
4 2439 3291 3650 3043
4 2327 2329 2326 2983
4 3038 3093 3094 3039
4 6245 2155 2154 2146
4 5961 3897 2728 3367
4 2332 2321 2920 2319
4 5639 2321 4639 3764
4 4870 1626 1618 1627
4 4442 294 295 303
4 2321 3764 5639 2319
4 6315 1545 1536 1537
4 5622 5967 6281 6310
4 6101 5724 5739 4808
4 6101 5100 6205 5739
4 6314 2075 2066 233
4 6101 5099 4061 5216
4 3777 6101 4808 5724
4 6314 1545 232 1536
4 3656 2571 1166 2193
4 6101 6205 5099 5216
4 4058 6205 3498 6101
4 2573 2194 2185 2186
4 3365 5929 5790 2443
4 4075 4076 4077 5402
4 5837 4058 6205 3498
4 3328 2579 5822 5823
4 1625 5999 1634 81
4 5287 3589 3058 2718
4 2381 2507 2377 2866
4 2129 5315 226 5566
4 3384 3180 3920 3540
4 5171 1582 1583 1591
4 2974 3187 4558 4557
4 3191 1117 1126 1125
4 3194 4276 3696 5282
4 2760 3384 2866 3382
4 6035 1717 5481 1718
4 3328 3385 3382 4990
4 5982 5999 1634 1625
4 4810 2043 2035 2044
4 6041 1272 4599 1271
4 5166 2025 2024 2016
4 4810 2043 2034 2035
4 5746 5742 6203 4199
4 6215 3809 6191 3835
4 2538 3654 2540 2881
4 2714 3057 2998 2316
4 3893 3892 5058 3664
4 983 5780 991 992
4 6215 3809 3244 6303
4 2302 2307 2574 2306
4 4409 4677 3905 6078
4 5274 4675 4750 1352
4 5379 1885 1884 1876
4 5964 4629 6100 5598
4 4492 4147 4146 5378
4 5599 1348 1356 1347
4 2546 1877 2545 1868
4 2546 2547 1347 1338
4 2546 2545 4325 1868
4 5379 1885 6106 5381
4 6103 4102 1350 1359
4 5624 1912 1921 1920
4 5603 4758 1402 1401
4 6120 5639 1394 1385
4 5654 6114 1937 1938
4 3483 4289 873 3380
4 5323 3594 4548 5772
4 4487 3597 6331 5926
4 6268 5417 4426 1737
4 3678 321 4504 330
4 3507 1729 1719 1720
4 4456 1742 1733 126
4 4504 5748 5199 4600
4 3901 1291 1282 1283
4 4007 2984 3141 3692
4 4852 73 1230 74
4 4852 74 708 709
4 4852 5386 1221 73
4 6003 1231 1230 1221
4 5965 699 700 708
4 5384 1670 1669 1661
4 6003 5359 4854 5336
4 5365 5766 4416 5764
4 3511 3512 3973 3513
4 6057 1264 1273 1272
4 6268 1746 5417 1737
4 4443 5389 1273 1282
4 4426 6264 1728 6055
4 3754 750 5016 749
4 4765 4753 4709 427
4 3506 1731 3505 1730
4 4456 1742 3787 1733
4 6111 5576 5564 5565
4 4135 4467 1815 139
4 4631 1819 1828 1827
4 5484 4215 768 4006
4 4191 1160 5949 188
4 5949 1160 189 188
4 5949 1160 1159 189
4 4191 5950 1152 1151
4 5943 1169 1168 1159
4 4077 5957 715 5956
4 5930 5949 4074 1150
4 4373 1716 3518 1717
4 4567 6268 4426 6264
4 4373 4832 1725 4305
4 4834 5700 5801 1298
4 4541 1812 1804 1813
4 5505 1269 1260 1261
4 6272 5500 3352 1295
4 4131 1303 1312 1311
4 6067 6088 4267 4413
4 5571 6037 1322 1321
4 5571 1322 5189 1331
4 2409 3615 4063 4020
4 4540 6270 1822 6056
4 5294 1836 6060 1837
4 4600 331 4555 340
4 3351 1314 5511 1313
4 6088 1312 1320 1311
4 6037 5511 1322 1313
4 3352 3351 6090 1304
4 2406 2359 2413 2770
4 4700 857 3105 858
4 5616 4806 1911 5624
4 4074 5393 4077 4076
4 4074 190 1149 1150
4 4074 189 1159 190
4 4074 5949 1159 189
4 6308 5951 5943 5824
4 5034 1023 5062 51
4 5034 5062 5081 590
4 2894 5148 1034 1043
4 4695 4621 407 398
4 4728 4753 418 427
4 4409 4495 3905 3907
4 4704 4695 6119 4790
4 5558 5567 4646 4566
4 4558 4041 6119 4790
4 4660 400 5568 399
4 4641 807 28 27
4 4660 4148 5568 400
4 5509 5544 5513 1826
4 4624 4723 4574 4597
4 5507 5540 787 788
4 5544 1825 5513 1826
4 5562 1807 5541 1816
4 5562 5513 4468 1816
4 5295 5254 5258 666
4 4908 612 4348 611
4 3304 3306 612 613
4 3309 5086 605 604
4 5173 638 4284 639
4 2913 1052 1043 1044
4 5193 1086 58 1077
4 5193 5194 5272 5198
4 5245 5243 5247 653
4 5193 57 1077 58
4 5194 634 5218 5079
4 6332 5546 5308 5307
4 5546 1096 5307 1095
4 2890 5858 5198 1068
4 5246 1070 1079 1078
4 3958 5147 5092 5127
4 5895 5908 5931 5894
4 6276 2071 2062 2063
4 5060 1541 5091 1542
4 6203 4973 1520 1519
4 4265 1518 5968 1527
4 6198 2030 2039 2038
4 1519 1510 1518 5958
4 5101 6180 6333 5099
4 5215 2065 2064 2056
4 4940 1512 4243 1503
4 5013 5044 558 567
4 5545 1532 1523 1524
4 5820 5545 1532 1523
4 4444 3564 3576 4446
4 4166 586 5084 5828
4 5828 5048 5103 577
4 3529 5048 5103 5828
4 5052 5049 5665 5818
4 4166 5103 577 5828
4 5545 1524 1533 1532
4 4620 4596 26 365
4 6279 4590 4437 4564
4 4545 789 4596 25
4 4596 25 789 26
4 4590 4564 347 346
4 4489 790 799 798
4 3537 5870 5559 5558
4 5174 5175 1383 5177
4 6079 1904 1913 1912
4 6080 6286 1921 1922
4 6120 6133 1393 1394
4 5639 5521 1394 1395
4 6214 1935 1934 1926
4 5607 840 5605 841
4 6120 1385 4667 5639
4 5175 5550 6118 1375
4 3766 4337 1386 1387
4 4770 1535 91 2869
4 2260 2597 2623 3500
4 3089 3090 5746 5742
4 2353 2606 3533 2351
4 2344 3523 2294 2293
4 5410 4887 1557 1558
4 5596 1878 146 1869
4 4559 5577 5596 833
4 5577 145 5596 833
4 4332 5606 1853 5435
4 6130 1878 1870 1879
4 4144 5606 5435 1862
4 5596 145 1869 146
4 3825 1740 5462 1749
4 4457 3433 308 309
4 5443 5421 5419 3785
4 5467 3505 1731 1740
4 3390 1721 3392 3393
4 3506 4453 5467 1731
4 3612 4145 4146 4147
4 3054 5051 3055 776
4 4725 6274 5544 1835
4 4332 4725 1844 6274
4 6274 5544 1835 1834
4 4409 4677 6078 5330
4 4969 6122 1420 1429
4 2724 2723 3353 2722
4 2979 3570 3569 6334
4 6246 5502 5135 1437
4 6296 1966 1965 1957
4 5603 6145 1402 6133
4 3060 3349 3352 3547
4 4478 4477 4512 4149
4 3551 3552 5498 4434
4 4215 5016 759 4006
4 3183 3454 3456 3455
4 4563 365 4566 364
4 5437 5119 3940 3398
4 6135 1412 6145 5520
4 6246 5671 5502 1438
4 6289 1930 6150 1929
4 6132 1930 6286 1931
4 6289 6150 5654 1929
4 6097 5916 6139 1956
4 6139 1947 6138 1948
4 6146 1948 6140 1949
4 5726 4897 4819 1972
4 3729 4654 2166 2175
4 4276 1128 3695 1127
4 3697 3695 1138 1137
4 3695 3698 1138 1129
4 1136 5952 5282 1144
4 3744 1171 1181 1180
4 4128 4663 1155 5924
4 3113 3887 5300 3542
4 3446 5222 4290 4359
4 3744 1172 1181 1171
4 4931 3508 4932 3510
4 4307 4907 4932 5702
4 4939 4998 5779 5014
4 4308 4977 3707 4932
4 4978 4981 544 535
4 4961 962 4991 4979
4 3892 3244 6215 2943
4 4951 4882 510 519
4 4948 5796 3510 4260
4 3643 5046 5061 3317
4 513 3632 4941 4976
4 4920 4244 4251 6295
4 6210 4199 1529 6203
4 5884 5735 1992 1991
4 5779 5780 4919 4922
4 965 3872 3360 5690
4 5761 6126 2012 2003
4 4339 4893 3585 4260
4 5882 5884 5711 5773
4 4905 4958 954 963
4 1998 2007 3814 3924
4 3591 6171 6156 4820
4 5150 6186 3923 6173
4 5767 5922 5921 6234
4 4047 4165 6156 1990
4 4164 5738 1990 1989
4 6154 1420 6122 1419
4 6297 1966 5458 5478
4 6137 6154 6135 6122
4 6140 1940 4223 1949
4 6132 6140 1940 5659
4 5424 3786 128 721
4 4456 3786 5426 720
4 3785 1724 3786 1733
4 3785 5426 3787 3786
4 3786 127 1724 128
4 5424 5419 1715 1724
4 4456 127 3786 720
4 5547 803 5522 802
4 5522 3373 3031 5547
4 6089 4282 4145 1873
4 4409 4495 5330 6078
4 6255 1682 268 269
4 6257 269 1766 270
4 6257 4510 1683 270
4 6081 1765 4510 1766
4 3944 5425 5121 3943
4 5437 5461 1703 1712
4 4929 6069 4365 5029
4 6051 1691 1690 1681
4 6050 1777 1776 1768
4 6255 1768 1767 268
4 5464 1685 1686 1695
4 6063 1691 1701 1700
4 4223 1940 247 1949
4 6146 6140 4223 1949
4 4757 6132 1401 4758
4 6146 1419 6154 6122
4 5131 3620 2925 1630
4 2772 5441 3620 5969
4 6006 1208 1209 1218
4 2442 3978 1654 1663
4 4203 5342 4127 5998
4 5929 2181 2180 2172
4 5945 5886 2158 2159
4 1663 1664 2442 6022
4 4774 4698 467 468
4 4704 4040 4041 6119
4 4234 4828 1431 4829
4 5977 1408 1417 1416
4 3341 6219 3343 5920
4 4346 2118 5169 2119
4 2560 2960 3837 2961
4 5098 3652 3648 1555
4 5566 6229 1590 5570
4 4197 1577 6222 1576
4 4009 4007 5087 5410
4 3339 3338 3345 5849
4 4198 2990 2985 1576
4 6232 1632 5984 1633
4 4274 5276 5275 5253
4 5295 675 5155 666
4 6232 5984 5982 1633
4 6240 6226 1604 1605
4 5204 4284 5230 638
4 3776 6196 5008 6295
4 4769 1526 4120 4770
4 4951 4362 3633 511
4 5245 661 5248 652
4 5348 5349 1088 1087
4 5895 5225 5238 5071
4 5265 5211 5239 660
4 5210 659 5211 668
4 5236 643 5243 652
4 5040 5173 639 648
4 4704 4041 4790 6119
4 4745 1372 1381 1380
4 4704 4584 4790 3827
4 4659 4535 5536 6119
4 4659 4678 389 4683
4 5734 3832 4618 4616
4 4537 6119 4695 4790
4 5204 5230 5864 5921
4 3109 1378 6108 1379
4 5027 4922 4446 5780
4 5430 4450 1028 5433
4 4082 4085 5166 4086
4 4810 5452 2035 2034
4 3842 5120 4446 5780
4 5809 1000 1009 1008
4 5387 1149 4075 65
4 5930 4076 1159 5943
4 4075 65 1149 2
4 4075 1158 2 190
4 4074 190 4075 1149
4 6257 6255 6050 1767
4 6174 1691 6051 1682
4 5630 4499 5631 6334
4 4263 1909 5630 6334
4 6147 1910 4806 1919
4 5617 1894 1903 1902
4 5519 4759 5976 4761
4 4704 4616 4043 396
4 5273 4218 3682 5530
4 4499 6147 3570 6334
4 4806 4496 5616 6128
4 6128 5202 5617 4336
4 5625 6121 1389 4746
4 6150 5654 1938 6114
4 6115 1358 5552 1357
4 5380 5551 5600 5599
4 4806 5655 1920 5624
4 6089 4280 4062 4282
4 3286 3287 3285 4780
4 6120 5176 4667 1385
4 4742 1884 1893 1892
4 4289 3380 872 873
4 4866 5647 5727 3794
4 4900 4682 828 837
4 1735 4426 1736 1726
4 5339 6335 5687 6336
4 6035 4426 1727 6055
4 6266 4301 1747 1738
4 4624 4538 4534 4597
4 3511 5673 3391 3507
4 3163 6014 3362 4906
4 4171 4178 4962 527
4 4962 969 4980 45
4 5792 978 4980 4943
4 4977 534 525 526
4 4979 4944 4824 961
4 3591 4819 6171 4820
4 4980 45 969 46
4 4982 545 5012 554
4 6210 1528 6203 1529
4 4963 542 3521 541
4 4858 4377 1435 1434
4 3946 5712 4774 4698
4 4864 1453 1445 1454
4 6167 6172 1466 1475
4 4698 4255 5588 477
4 6159 1433 6157 1434
4 4801 4331 5661 6144
4 2639 5962 4108 5347
4 3808 4114 3801 4935
4 5773 2002 2001 1993
4 2736 2738 4972 6097
4 3659 6168 5962 5347
4 3739 4558 4041 4557
4 4441 4539 4586 4435
4 4787 1820 6075 1821
4 4489 4668 4563 4596
4 5767 4273 5921 5230
4 5523 5532 5477 792
4 4563 355 4590 356
4 5572 3677 5607 3050
4 3544 4573 3546 5267
4 4696 3278 5189 3682
4 5413 4676 4775 3821
4 4639 2920 5639 5521
4 5189 1332 3689 1331
4 5871 1072 5235 1071
4 5210 5196 5023 5321
4 3692 4007 5087 4008
4 4384 5407 5409 5645
4 5893 3760 5904 5888
4 6324 5272 5546 5243
4 4050 4764 4049 6134
4 4505 5871 5889 5235
4 5538 4389 5646 5850
4 5836 5073 1061 1070
4 5871 5889 1072 5890
4 5406 5889 5890 1072
4 4909 518 4823 509
4 4822 4909 518 4823
4 4822 960 44 951
4 4859 4860 4162 5723
4 4822 951 44 43
4 4904 3876 973 4906
4 4865 924 4842 40
4 6003 4852 1221 1230
4 6009 1678 1677 1669
4 4852 5386 5991 1221
4 5336 1679 207 1678
4 6257 6261 1692 1683
4 4326 1765 1764 271
4 5443 5426 5448 4406
4 4082 3357 3815 5164
4 3377 4811 3097 3099
4 4339 4260 3630 4976
4 6299 4910 5047 4856
4 4891 4094 4889 6299
4 2649 5687 2645 5686
4 3553 6068 3545 3350
4 5541 1807 4064 1808
4 5562 4467 5475 1806
4 5476 1797 137 1788
4 3139 5484 4006 4215
4 5116 5327 4447 3753
4 3030 6070 6104 2647
4 5522 811 5584 6001
4 5491 1774 6082 1783
4 5484 5051 768 777
4 6042 4064 5542 4099
4 5252 4764 6241 6320
4 5857 5406 1073 1072
4 5252 6225 1593 5221
4 5252 6241 4764 5221
4 6241 6323 1602 1611
4 5214 2585 5221 5213
4 5169 2110 2119 2118
4 3193 5847 5749 1109
4 3134 3307 3302 3309
4 4360 1609 5110 1608
4 5221 5213 1592 1601
4 5214 1601 6323 1610
4 6225 5221 5213 1592
4 5570 6229 1590 1591
4 5220 6225 5221 5213
4 2455 2453 2211 2452
4 5981 5627 6337 6243
4 5891 5980 6247 6290
4 5128 4039 5214 6323
4 5214 6323 1601 5221
4 5878 6317 2113 2122
4 2995 1297 4834 3817
4 4839 4401 3594 3901
4 4300 1250 3494 1259
4 5499 1295 1294 1286
4 2416 4015 5503 3555
4 4572 5267 3546 1839
4 4511 4209 5446 5311
4 3751 4731 2420 5398
4 1790 3942 1781 6039
4 5700 5801 1298 1299
4 3390 3505 3513 1730
4 5510 6053 5762 4569
4 4031 6260 4403 4404
4 4512 4487 325 6331
4 4477 6078 6331 325
4 4477 4149 4486 326
4 4486 4149 4476 327
4 523 4941 4931 514
4 4823 518 4178 517
4 4822 4178 518 527
4 4907 5702 507 516
4 4171 536 4981 535
4 4822 4823 518 4178
4 3842 5780 5804 5120
4 3080 2311 3079 2312
4 3297 5693 6109 6214
4 4867 4238 5701 908
4 4084 6338 5769 3355
4 5948 1134 1142 1133
4 5950 1151 5949 1150
4 5387 4077 707 716
4 4074 5387 5393 1149
4 5343 1188 1178 1179
4 5816 1169 1170 1179
4 5404 5959 5950 1143
4 4258 4256 1186 1187
4 4074 4077 5387 4075
4 5943 5949 1160 1159
4 4074 1149 5393 1150
4 4074 4076 1158 1159
4 5854 170 5869 1058
4 5852 1058 5859 1057
4 5869 2094 171 170
4 6202 2104 6201 2095
4 6201 2094 5868 2095
4 5869 2103 171 2094
4 4653 4630 369 4650
4 4653 378 4650 369
4 4992 4795 5055 6170
4 4040 4042 4565 387
4 5286 5291 4604 4551
4 2783 2953 2775 2984
4 5767 5921 4273 6234
4 5788 1318 4625 1327
4 4561 1300 5748 1309
4 4600 4504 330 5199
4 5287 5801 4561 3820
4 3507 5029 1720 1719
4 4430 6177 6082 6339
4 3226 3702 6063 4929
4 5491 6082 1774 5465
4 5491 1773 5465 1774
4 4363 1702 4365 1701
4 6063 1700 3517 1691
4 4822 4178 4944 4824
4 4061 5626 5215 5623
4 4345 4979 971 4942
4 4983 4171 4978 4977
4 4822 4824 4944 960
4 4171 4943 4962 4944
4 4177 4907 516 4932
4 4171 526 4178 527
4 4962 960 45 44
4 4255 4698 4774 468
4 5712 4774 4698 467
4 4864 4858 1435 1444
4 2639 4172 3807 4109
4 4873 474 475 483
4 4234 4898 2613 4829
4 5729 6149 6213 1944
4 3465 4379 6002 4801
4 4158 4833 4794 462
4 6137 6138 6059 6140
4 3396 1219 6007 1218
4 2533 6007 1228 1227
4 2436 201 1237 200
4 4830 1662 1663 1671
4 6022 1672 4830 1663
4 4831 220 1653 219
4 2436 2532 1238 1237
4 2930 3444 5819 3410
4 5989 1236 6015 202
4 6015 1673 202 201
4 4632 1829 4787 4573
4 6092 4089 1847 1848
4 5548 5511 3351 1314
4 6037 1313 3351 5511
4 6070 5509 5261 6340
4 5496 5509 1826 1827
4 4483 322 4526 4504
4 4058 4060 5216 4061
4 3801 6341 3636 3802
4 3351 1313 6090 1304
4 4146 1866 5378 1875
4 5551 1357 5552 1366
4 3278 5189 3682 3689
4 4268 2545 5378 1867
4 4573 3546 5267 1838
4 3682 3689 1332 1341
4 3680 3681 3278 3684
4 6115 5599 1348 1357
4 5772 4561 5801 1299
4 5399 5500 5498 1287
4 5788 4676 1326 6095
4 3352 3351 1304 1305
4 3547 3352 5500 1296
4 3349 3351 3352 1305
4 6272 6090 1303 1304
4 5767 5922 3237 5864
4 3542 5768 5767 5186
4 3933 5520 3896 6136
4 5689 6214 1926 1935
4 4881 4239 4328 1415
4 3403 452 4157 451
4 2383 2411 3019 2379
4 5525 5520 5521 2920
4 3897 1423 4234 1422
4 5629 5705 5631 4499
4 2726 1531 3088 4971
4 4507 6012 5246 5192
4 4501 5194 5079 5188
4 2981 2990 2952 2989
4 5144 607 5147 616
4 5233 1604 6228 6240
4 5078 615 5144 616
4 3452 4576 783 5477
4 4015 3555 4013 5504
4 4397 762 22 753
4 4523 5494 4320 4321
4 4523 780 24 771
4 2510 4711 4684 5517
4 6093 4495 3907 4524
4 4287 6263 4286 5569
4 4139 851 860 859
4 4139 3961 859 860
4 5693 5677 5695 3295
4 3960 859 3961 868
4 4700 858 3960 867
4 5610 147 1878 1887
4 5597 842 4140 841
4 5607 841 4140 850
4 3568 6109 1917 1926
4 3568 3570 5880 1927
4 4811 4867 900 3999
4 4965 3380 882 3376
4 865 5652 5305 4291
4 6109 4804 1917 1916
4 2484 2487 2486 2744
4 4102 6116 1358 1359
4 3371 4702 5274 6112
4 5376 5380 5381 5600
4 5674 3999 892 901
4 4867 4811 900 899
4 3845 3605 4228 5605
4 6208 895 4341 894
4 5695 5693 1934 1933
4 6213 6214 1935 1934
4 4338 5699 5731 1961
4 6149 1943 6213 1944
4 6292 1945 6113 1946
4 6135 6154 1420 6122
4 6282 4679 2319 5176
4 2731 4828 4969 6136
4 5520 6136 1412 1413
4 6135 6154 1411 1420
4 6135 1412 6136 1421
4 4828 4829 1430 1431
4 4234 1431 4828 1422
4 2747 5658 2487 2744
4 3653 5501 4972 2739
4 5458 1976 5459 1975
4 2740 1802 5340 1811
4 3986 6027 6028 4299
4 3390 3392 1721 1720
4 4212 6050 3983 1777
4 6074 1811 6075 1820
4 2419 5339 4716 4410
4 4044 1800 4400 1801
4 5498 1286 6052 1277
4 4317 6071 1795 1804
4 6052 1285 6062 1276
4 5533 6062 5534 6056
4 6262 3494 1251 1260
4 4898 1450 4108 1449
4 5347 1457 5962 1458
4 4898 1449 4883 1440
4 4102 1349 3683 1350
4 6115 4102 1349 3683
4 6087 5556 4267 4270
4 6083 1895 1904 1903
4 5175 5550 1375 1374
4 5377 1340 3687 3689
4 2864 2862 3278 2865
4 3077 2359 3075 3081
4 6341 3149 4951 4956
4 5612 6166 1483 6163
4 3490 5883 3658 6031
4 2619 2623 2626 3500
4 5346 6196 1486 1477
4 5346 6196 1477 4912
4 2350 3892 3891 3665
4 3923 5755 3924 6165
4 6341 4355 3149 6178
4 6018 5934 4870 4850
4 3635 3629 2935 3581
4 6145 5521 1403 6133
4 6135 5520 6136 1412
4 5520 5521 1404 1403
4 3933 6135 5520 6136
4 6135 6137 5525 6154
4 2731 4969 6135 6136
4 6125 5521 4639 4337
4 6018 6061 4798 5934
4 4720 422 2309 423
4 3261 4970 5667 5672
4 5815 2049 4194 165
4 4194 165 2049 166
4 6312 6311 2042 4520
4 4193 5815 1013 1004
4 5782 4169 4945 4946
4 5832 5838 5812 5640
4 4194 2058 166 2049
4 5560 805 5565 814
4 4332 6274 1844 1843
4 5576 1842 5439 1851
4 3752 5498 5499 6052
4 4725 6274 1835 1844
4 4024 6099 4019 5435
4 5576 5563 5439 1842
4 6072 3160 5526 5527
4 5251 4725 4332 6274
4 4534 4538 4551 350
4 4574 1336 1327 1328
4 5074 5024 4597 357
4 4550 4625 1318 1319
4 4353 4600 4550 5748
4 4352 4353 5788 3821
4 3818 3547 3817 1306
4 5788 4353 1318 1317
4 4069 4504 3594 4548
4 4995 5625 6121 5395
4 4040 396 4043 387
4 3829 4616 405 404
4 5964 5657 5598 6100
4 4672 4043 395 386
4 4040 4043 4042 387
4 5423 2184 180 2175
4 5423 2175 180 179
4 5423 5947 4654 1139
4 3698 5953 1147 1138
4 3858 2177 3728 2168
4 3284 3419 5222 3221
4 5954 5423 3657 2184
4 1436 4791 4773 6142
4 4917 4840 5621 5650
4 4874 1442 6164 1451
4 5661 1433 6159 1442
4 6159 6157 5660 4331
4 4378 4864 4818 4873
4 4117 1451 6164 1452
4 2311 2309 4585 4718
4 5933 6327 4360 5110
4 5131 5133 5132 1620
4 5792 979 4996 988
4 4308 4978 3707 4977
4 5220 5213 5171 6225
4 3649 1563 1572 5056
4 5021 3649 6211 5232
4 5171 5213 1591 1592
4 6318 2152 4283 6243
4 5022 2102 5232 2101
4 3613 1572 1573 1581
4 6018 3882 5787 2445
4 5143 4764 6320 2987
4 3449 5066 5068 4359
4 6325 2145 6321 6231
4 5942 2153 6321 2154
4 5942 6245 2154 6321
4 5442 5355 1658 5356
4 6094 4671 5575 1373
4 6094 1372 1363 1364
4 2449 2521 2421 3288
4 5657 5598 6100 1363
4 3766 3763 4715 2322
4 4672 395 4618 394
4 2827 3186 4557 5808
4 4584 3827 4585 4543
4 3833 4100 4617 4717
4 3548 4672 4042 4043
4 3967 4226 5823 6169
4 4753 4180 4181 426
4 5658 3606 5664 884
4 3078 3289 4643 4718
4 4026 4788 450 4783
4 5650 4817 890 889
4 3646 4735 2743 3865
4 4797 4768 4840 888
4 4621 5568 4730 408
4 5652 5658 874 875
4 4338 1960 6291 1951
4 4867 5701 899 908
4 4179 4862 4894 5590
4 2933 3630 3584 6085
4 3999 4965 892 891
4 5683 4813 4843 4877
4 5710 4901 927 4876
4 5660 1424 6157 1433
4 4238 5641 4901 917
4 4811 3376 891 890
4 5701 4816 898 907
4 3271 4867 900 909
4 3095 5587 3094 4173
4 4247 4248 485 486
4 4889 4247 4248 485
4 3632 3118 512 513
4 3801 4935 4114 4933
4 4094 4889 4248 4890
4 4115 4110 4114 1469
4 4339 3634 495 504
4 4338 5733 1960 1961
4 5698 5719 5743 940
4 5738 5750 5758 1980
4 5738 1989 5750 1980
4 4866 5647 3271 3273
4 3591 6156 6171 5735
4 6050 4212 1776 1777
4 6018 6061 6237 6236
4 4454 1251 1250 1242
4 5481 3517 1708 3518
4 3982 5917 6207 5611
4 2622 3491 2623 2597
4 5138 5909 6276 2071
4 6018 6236 4850 4872
4 6206 5626 2063 5216
4 3206 579 5067 3196
4 6319 5156 3864 3859
4 5835 5364 1062 5836
4 4009 4010 3749 2238
4 3696 3697 3698 3704
4 3856 3857 3067 6337
4 4665 3698 5947 5953
4 3191 1125 1116 1117
4 685 5928 693 4203
4 3066 5997 2160 2159
4 6242 6337 5981 2161
4 6242 4297 5795 6337
4 6238 6254 6252 2163
4 3698 3697 3695 1138
4 6125 3559 4881 4838
4 3296 3104 3959 5656
4 3579 3962 878 3831
4 4789 5656 3296 3959
4 5674 5664 893 884
4 5674 3865 902 893
4 2523 2525 2052 2061
4 6212 2525 2522 6312
4 2523 5493 5830 5831
4 5640 4195 1022 1021
4 5805 4444 3154 4515
4 6276 5830 5909 5831
4 5805 5120 1002 1001
4 4393 5879 4703 4202
4 4202 5089 2106 2105
4 5406 4155 5643 5839
4 5839 1055 5643 1064
4 4155 5890 5406 4727
4 5447 739 4406 5310
4 5260 4399 5492 5491
4 5426 3786 721 720
4 4016 4017 4079 4032
4 4460 5426 5447 729
4 5443 3785 5448 5426
4 5448 5426 3786 721
4 4456 3786 1733 3787
4 4456 126 1733 127
4 5443 5419 5448 3785
4 3996 4505 5836 5890
4 4686 2591 3731 3136
4 5218 642 5170 633
4 3958 5127 5063 5064
4 6234 4273 5993 6235
4 5041 649 4470 5040
4 5026 5239 650 651
4 5246 5073 1070 1069
4 5406 1064 5839 5643
4 2517 3770 4279 4231
4 4537 3828 4790 4543
4 4291 4279 855 864
4 3380 3376 881 882
4 4792 3380 3376 881
4 4289 4288 863 872
4 4288 5648 862 871
4 6080 5624 1912 1921
4 6209 5177 6080 1913
4 1365 6209 1904 251
4 6209 1374 250 251
4 4757 6286 5177 1922
4 5297 5927 2132 2131
4 6318 2143 5980 6244
4 4153 5223 4202 5234
4 5980 2142 6247 2133
4 6210 5967 6203 1528
4 4388 5646 5256 5644
4 5409 5914 5255 4529
4 3864 6319 3860 3239
4 5209 2126 5881 2135
4 6325 2136 4347 2137
4 4657 1120 2371 1121
4 5876 5879 5878 2113
4 2741 6139 6146 6296
4 5798 5589 5590 4894
4 4902 499 498 490
4 5736 4902 4879 4880
4 4865 4842 4885 491
4 6302 5501 5459 5457
4 5996 1214 1213 1204
4 4781 4183 1196 1205
4 4184 1224 5887 1225
4 5374 5368 711 5403
4 5280 704 5940 5299
4 5363 5362 701 700
4 5279 1186 4258 4256
4 3783 5990 5369 5385
4 5374 1213 1212 1203
4 4781 1206 1205 1196
4 5779 991 990 982
4 3707 524 4932 525
4 4977 3707 4932 525
4 3522 3839 549 558
4 3087 2238 3749 4010
4 3463 4108 2614 4110
4 5685 5683 3017 3640
4 4902 489 4880 490
4 4901 4876 926 927
4 2611 3460 2614 4801
4 4842 40 924 41
4 4865 924 40 915
4 4159 4845 4844 5649
4 4865 4844 915 39
4 4414 2514 3989 3290
4 3764 5639 2319 4667
4 4746 1381 1390 1389
4 3827 4585 2311 3829
4 6233 5208 2143 6244
4 5888 5904 5893 1089
4 5256 5645 5644 1074
4 4390 5645 5406 5644
4 5256 5645 1074 1083
4 6293 5899 5255 5256
4 6318 6243 4283 6244
4 4200 5207 5234 2115
4 5860 5885 6317 4356
4 6105 1584 6076 1575
4 6320 5143 5898 5252
4 3142 3692 5592 4008
4 5002 6211 5232 5169
4 6225 1593 5221 1592
4 5198 1068 57 56
4 5193 5198 57 644
4 2890 56 5198 635
4 5858 1077 5198 1068
4 6324 5243 5194 5272
4 5072 1069 5858 1068
4 5858 5272 1077 1078
4 3664 3893 3665 6275
4 4904 4344 4345 4998
4 4807 3487 5739 4808
4 6193 4251 1504 6342
4 5007 556 3850 547
4 6303 6191 6178 4968
4 5681 5675 4334 896
4 4736 911 4737 920
4 4734 3273 3272 4736
4 6330 5694 5695 5708
4 5681 4341 895 904
4 3309 3950 4986 605
4 3996 2895 5161 5896
4 5112 5137 1580 1571
4 4908 5136 4167 611
4 4767 6333 5742 6203
4 3977 5846 5163 5843
4 4057 5622 4061 5000
4 5844 5843 5163 1051
4 4513 6331 6078 325
4 4600 4526 4555 331
4 5677 3830 3831 1923
4 5681 895 5675 896
4 5681 4341 6208 895
4 5664 885 6208 894
4 3830 151 1923 152
4 3830 1932 152 1923
4 5706 4800 5681 4341
4 6330 3866 6208 4341
4 5693 6213 1934 6214
4 5681 5694 4334 5675
4 5482 2522 2524 6312
4 5166 2016 5452 2025
4 3746 3747 4052 3749
4 4444 5805 5799 1010
4 4946 5483 3842 5120
4 5810 4446 5805 1001
4 5514 4979 4961 4991
4 6311 4086 5452 2034
4 1585 2990 1576 1584
4 5591 4826 5138 3863
4 4886 1566 4888 1565
4 4887 1566 4886 1557
4 2918 2922 5654 2923
4 3272 902 4735 911
4 3017 4876 4875 4901
4 6287 1980 5758 1971
4 5758 5731 1971 1970
4 6287 5758 5731 1971
4 6288 6291 5740 5715
4 6287 4819 4820 1981
4 3591 6098 6171 4819
4 6156 1981 6171 1982
4 4710 843 31 834
4 4279 4732 854 863
4 4101 831 5605 840
4 4148 4710 5594 4712
4 4707 4728 4754 428
4 5594 853 852 844
4 4710 4582 5553 834
4 4710 30 834 31
4 4220 4222 4681 826
4 4054 1275 1266 1267
4 4316 1795 1786 1787
4 5591 6218 5138 5593
4 4315 1787 1778 6058
4 3985 6256 3983 6174
4 4534 4597 349 358
4 3965 4649 4630 4650
4 3001 3823 4433 3010
4 4487 4473 4033 315
4 5294 4725 1836 1845
4 3596 4555 4600 4526
4 5523 3452 784 783
4 4574 4722 5583 1336
4 3911 5370 3889 4478
4 4513 4531 4473 324
4 4152 3146 4350 3145
4 2505 3997 2828 2849
4 2505 2868 582 1553
4 4046 1544 1553 1552
4 3532 5059 3529 5048
4 2849 4190 4189 574
4 2814 5091 1533 1542
4 5060 3690 1550 1551
4 6217 1558 4196 2784
4 4488 754 3956 755
4 3940 3710 3741 3398
4 5399 1287 3552 1288
4 3955 3954 3957 3951
4 5904 5195 4396 5348
4 5193 5194 5198 644
4 5265 669 5211 660
4 5236 5026 642 651
4 5194 5218 634 643
4 5193 5194 644 5243
4 6324 5349 5348 5272
4 5193 1077 5272 1086
4 5546 5272 1087 1086
4 4644 6284 5703 433
4 423 4644 4718 2309
4 3080 3827 2311 3829
4 4720 422 4705 2309
4 6137 6140 6146 6139
4 5973 5408 4503 4290
4 3416 1199 3720 1200
4 1210 1219 3383 3396
4 3449 4359 3720 1190
4 4665 3727 3726 3729
4 3444 4781 3486 5338
4 4501 5188 5072 5858
4 5194 5198 644 635
4 5246 5858 1069 1078
4 5188 2890 635 626
4 5149 1050 55 54
4 3977 5147 5154 5144
4 5835 5364 1053 1062
4 5871 5836 1062 1071
4 6228 1595 5231 1604
4 4766 6182 6181 6231
4 3519 5223 5207 4393
4 6226 6064 6240 5923
4 6222 1577 5849 1586
4 4197 5849 6222 1577
4 4826 5593 5138 6276
4 5768 5186 5752 5253
4 6221 6220 5872 1597
4 5080 3310 3304 5086
4 3161 1570 1579 1578
4 5085 5136 619 610
4 4234 1440 4829 1431
4 4601 5758 5738 5750
4 6160 4883 6161 1448
4 4883 5962 1448 1449
4 4896 6171 6098 4819
4 4969 1430 5671 1429
4 6246 1429 5671 1438
4 4372 4370 10 278
4 4370 1753 10 9
4 4051 9 4370 277
4 5766 5365 6036 5418
4 6046 1744 1754 1753
4 6046 1754 1744 1745
4 4405 4368 4370 4372
4 4057 3747 5592 5620
4 5580 4682 4711 828
4 3371 6112 5274 4750
4 4641 816 4685 28
4 5552 4102 6116 1358
4 5552 6116 1367 1358
4 6083 5551 6096 5600
4 6118 4715 1376 1367
4 3615 4063 4020 4354
4 3713 5634 4482 4481
4 5446 5310 748 739
4 4475 4480 311 4479
4 4321 338 4564 337
4 3969 3971 3970 3975
4 5447 5426 730 729
4 4486 4149 327 326
4 4512 4472 5926 3437
4 4457 3971 299 308
4 4461 4458 309 318
4 4607 4614 5126 6004
4 2510 3700 6343 3540
4 3845 4101 3605 5605
4 4332 5606 1852 1853
4 3969 3973 3972 3975
4 5031 4365 1711 5029
4 741 742 4103 750
4 4005 5016 4006 758
4 4323 3754 5016 749
4 3400 5422 1722 1713
4 3393 3400 5422 1722
4 3392 5029 1711 1720
4 5437 4314 1713 1704
4 3973 6266 6264 3513
4 3755 750 3753 4103
4 6048 261 1814 6049
4 6227 6048 1293 260
4 6227 1823 6048 260
4 6048 261 1284 260
4 5609 6087 6090 6037
4 4570 1302 4131 6086
4 4317 6273 4541 1804
4 3042 3043 3044 3076
4 5273 3682 3278 5530
4 3681 3683 3689 1341
4 3689 3683 1340 1341
4 5377 3689 3683 1340
4 4145 4354 3612 6124
4 5376 4306 5381 5380
4 5377 3683 1349 1340
4 425 4719 4542 424
4 2312 4617 3829 4705
4 2319 4679 4667 5176
4 4337 5639 1395 5521
4 6131 6278 6263 1870
4 4277 5569 4287 4286
4 4285 4144 1863 1872
4 3846 2379 4019 4610
4 5586 814 4674 5560
4 5435 4333 1854 1853
4 5292 5435 4333 1854
4 6099 1863 5435 1854
4 5845 5914 1091 5409
4 5197 5265 5211 5239
4 3249 5875 5948 4846
4 1161 1170 5277 4191
4 5211 5296 668 669
4 5265 5269 669 670
4 5281 5331 5326 689
4 5975 5283 5941 1125
4 5307 5071 1104 5225
4 5307 1104 5285 1095
4 4215 4451 760 759
4 4215 4451 759 5016
4 6039 1790 1789 1781
4 4323 5016 758 749
4 3427 3428 3430 3438
4 4215 760 4216 769
4 5686 5463 5541 4064
4 5463 4064 4065 1808
4 5476 4099 5466 4452
4 4338 5699 1961 1952
4 4734 3273 3669 3647
4 5708 5695 1943 1942
4 4338 5733 6291 1960
4 4704 4040 4043 4041
4 4616 4043 396 395
4 4799 5964 4629 4648
4 4108 4883 1449 5962
4 6302 5501 6161 5524
4 5961 6136 4234 4828
4 6160 1439 4883 1448
4 4829 4883 1439 1440
4 6160 5502 5671 1438
4 6097 1955 5916 1956
4 5457 5479 1974 1983
4 4976 3632 4941 3243
4 6193 3835 6191 5008
4 6197 4968 6303 6178
4 3501 3871 3520 3496
4 5487 5033 5488 5009
4 4159 481 4160 472
4 5725 499 4162 508
4 5714 497 4923 506
4 5702 4932 515 516
4 3931 4963 4126 3523
4 3510 4976 4948 4260
4 4928 5747 943 944
4 5106 1033 5064 1032
4 5148 5825 1034 1033
4 5144 5147 607 5092
4 5146 1050 5163 5846
4 3996 5835 5890 5836
4 5146 4182 53 608
4 5364 1052 2913 1053
4 5430 5432 1028 5429
4 5844 5364 1052 2913
4 5062 52 4182 599
4 5062 5063 590 599
4 2644 6070 2642 5261
4 5466 4452 751 752
4 5902 3785 4453 5421
4 3957 4448 756 755
4 5770 5774 5775 976
4 3242 3243 4976 4941
4 3852 4083 4092 3843
4 5727 3122 4738 3214
4 5678 5679 941 5737
4 5732 159 5754 959
4 5786 5754 160 968
4 4188 5775 6304 5774
4 4195 4194 1022 1013
4 3154 5428 5429 5799
4 4482 5848 5635 5165
4 5826 2058 167 166
4 4522 4194 2049 2058
4 4813 4843 4877 925
4 4518 5634 4481 4482
4 5683 4812 4843 4813
4 5725 4907 507 508
4 4923 5702 506 507
4 5476 5542 4099 4452
4 6042 4451 3755 4452
4 5542 4216 4452 5475
4 3755 4451 750 751
4 4215 4451 4216 760
4 5476 5542 4452 5475
4 5304 1771 1762 1763
4 5327 749 5310 740
4 4452 4451 6344 6042
4 5339 4410 5687 6335
4 4097 4099 1789 1798
4 4097 1789 6039 1790
4 6344 4216 4451 4452
4 4214 4468 5562 5513
4 6344 5542 5562 4216
4 2502 3823 2504 2503
4 3941 6043 6073 4065
4 5484 5051 4006 768
4 5554 5484 4217 5507
4 5484 768 4215 769
4 3422 4003 5016 3756
4 5484 4215 4217 769
4 5554 5544 4468 5513
4 5484 3055 5051 777
4 3788 5051 767 4006
4 5562 4467 1806 1815
4 3160 5526 795 3910
4 4214 5484 4215 4217
4 3285 3209 3502 5705
4 3677 3845 4613 5605
4 5584 4030 821 812
4 3605 831 4101 830
4 3847 5584 4030 3603
4 4610 4144 5606 5435
4 4949 5808 4535 4557
4 5522 5584 4030 3847
4 5576 1842 143 142
4 4228 5605 831 832
4 4674 4228 3605 822
4 3873 5804 5780 983
4 3814 4047 1990 4165
4 5166 5164 2016 2015
4 4958 4991 4961 962
4 5917 5614 2028 2019
4 3042 5519 4594 4593
4 6125 4805 4881 3896
4 6123 5977 1417 1416
4 5653 1928 5654 1937
4 4881 1424 3898 1423
4 5660 5661 6159 4331
4 5903 4778 3405 4180
4 4720 440 4038 431
4 4860 5747 4961 952
4 4860 4824 951 952
4 4859 934 4928 943
4 4812 4928 934 4813
4 4936 4813 4876 935
4 4860 4909 5723 942
4 4307 4177 4932 4907
4 4162 4823 508 509
4 5690 6014 955 964
4 4983 4981 4171 4943
4 5214 5221 1601 5213
4 6323 5221 1602 1601
4 5252 6241 5221 1602
4 5132 5133 1619 1620
4 5470 5156 6216 5848
4 6216 2078 5848 2079
4 5471 6216 5814 5848
4 4450 5433 1027 1028
4 5814 5635 2069 2068
4 5848 5165 2070 2069
4 6319 6216 2079 2088
4 6202 4202 2105 5089
4 5830 5848 5165 2070
4 3977 5843 5919 5846
4 5153 633 5170 632
4 5153 5079 633 624
4 4985 4986 615 614
4 5078 4985 4986 615
4 5919 4506 3836 5078
4 6309 6310 5215 2056
4 5215 2056 6310 2065
4 6206 2054 5216 2063
4 2062 2523 5582 2053
4 3802 3808 4935 3809
4 5101 4973 6203 5968
4 4514 4516 2524 4520
4 5539 5058 5803 6192
4 3221 2188 2197 2196
4 3720 1190 4359 1191
4 5172 657 5217 648
4 5275 5253 655 5186
4 5993 5320 1624 5984
4 5040 5041 649 640
4 4171 526 4977 4177
4 5039 5033 553 562
4 4171 4981 4980 4943
4 4171 4962 4943 4980
4 5075 6155 5794 5076
4 4308 4978 4964 3707
4 4980 4981 536 545
4 4983 4996 4943 4942
4 5678 158 5732 950
4 3755 3754 750 5016
4 5448 5450 731 722
4 5324 5302 1761 5303
4 5436 3506 3393 5421
4 4253 4254 130 723
4 3943 5461 5028 4364
4 5124 4447 5116 5327
4 5443 5123 5337 5124
4 5448 730 5426 721
4 4314 1705 5117 5118
4 4254 1706 130 129
4 3427 4461 3433 3432
4 4839 3588 5389 2999
4 3139 4006 3756 4215
4 2503 2502 1802 1793
4 3579 1905 150 149
4 6127 6117 4780 3504
4 3828 2311 4543 4718
4 4263 3220 6334 5631
4 3296 3670 5656 3606
4 4741 4779 6127 1891
4 3808 5955 3801 4114
4 3677 5607 4101 5605
4 4263 4804 3220 3503
4 4741 4740 5581 4336
4 4612 4613 3845 4228
4 3357 3924 5164 6165
4 5786 6304 6305 5774
4 5804 5120 5780 992
4 6183 6197 4227 5083
4 4905 4958 963 4991
4 5770 967 5774 976
4 4085 5783 2024 4086
4 5804 3842 4169 4259
4 6304 4085 5783 2023
4 4188 2013 162 161
4 5261 5294 6060 6277
4 6340 5513 5509 5544
4 5509 4725 1835 1836
4 5509 5544 1826 1835
4 3920 4235 6343 4236
4 3799 3512 3973 3439
4 4696 5530 3278 3682
4 3820 1308 4353 1317
4 5529 1325 4676 1334
4 4561 4353 3820 1308
4 3738 4142 5601 4745
4 2803 6116 6118 5552
4 2329 5629 4500 4499
4 6118 1367 5552 6116
4 6282 5174 5176 6120
4 4806 6147 3570 4499
4 6079 5549 5616 6282
4 4715 1367 6116 1368
4 6120 5176 1385 1384
4 5498 5500 1286 1287
4 5500 1296 3352 1295
4 6074 4787 1820 6075
4 5263 5267 5262 6092
4 3350 6272 3352 6090
4 4322 1267 4054 1266
4 6272 1303 1294 1295
4 3237 6226 5140 5320
4 5114 6219 5205 5113
4 3113 5173 5300 3887
4 5254 665 5253 656
4 5753 3543 5752 5768
4 5204 4284 629 5097
4 5300 5217 647 648
4 3542 5217 3113 5751
4 5186 5217 656 647
4 5768 5984 5993 5982
4 4771 564 555 556
4 4960 2817 2814 1543
4 6184 5001 3850 5082
4 4120 546 3850 555
4 3850 546 547 555
4 4960 1543 2814 1534
4 2868 2869 2858 573
4 6195 1533 2814 5091
4 3242 4931 3930 4941
4 2240 1540 2239 1549
4 2019 5614 6207 5917
4 6191 6192 1505 1506
4 2602 2338 2966 2967
4 2947 1025 5666 1026
4 5818 1016 5666 1025
4 3801 4361 4933 5955
4 4050 5130 5132 6323
4 5233 6134 5923 6320
4 2477 6225 5220 5004
4 5173 5300 638 647
4 4470 650 5025 649
4 5921 6234 6235 4273
4 4170 5040 640 5041
4 4951 4362 511 510
4 4941 522 3118 513
4 4227 529 4956 3116
4 3891 5001 4987 2291
4 3930 3707 524 4932
4 3789 3581 2806 3774
4 5030 4171 4177 4178
4 3775 4934 6196 4912
4 5611 6207 5334 5613
4 4339 513 3632 504
4 4163 5013 568 5104
4 3839 5044 557 558
4 3891 4987 3804 2291
4 5007 557 4261 556
4 4446 3883 4922 3576
4 5902 3787 3785 5426
4 4399 1783 5491 5319
4 5419 5422 1714 1723
4 4453 1731 5421 1732
4 3785 1733 3787 1732
4 3985 6256 6174 6051
4 5361 5902 5447 3787
4 4406 5310 739 740
4 5419 1724 3785 1723
4 4406 5327 5310 740
4 3632 4339 4976 513
4 3634 4248 495 494
4 3243 3632 4941 3118
4 5295 5585 5288 5344
4 3386 5356 6011 5355
4 6011 1666 6019 1665
4 4184 6251 6020 6017
4 4072 1208 4073 1207
4 5271 1226 5995 1225
4 5791 2896 5270 2897
4 2670 2436 1238 2437
4 5783 4086 2033 2024
4 5782 6306 5797 5785
4 6311 4086 2034 2033
4 4946 5120 993 1002
4 2525 5636 4520 2051
4 4997 3481 4939 5076
4 6338 6305 6301 4087
4 4515 5483 4516 4946
4 2523 5582 5493 5831
4 6311 2042 5785 2033
4 5144 4986 606 615
4 3996 5469 5890 5896
4 5227 4150 4155 3840
4 5818 5825 1024 1025
4 5006 588 5005 597
4 2895 5161 5896 6313
4 2963 5144 3950 5092
4 5078 4985 615 624
4 5062 5064 4182 1032
4 5844 5163 5064 1042
4 5782 4945 5771 6306
4 5805 5120 1001 4446
4 5804 993 5120 992
4 4407 6260 1760 1759
4 4427 1760 1751 124
4 4427 125 4455 718
4 4427 124 1751 125
4 5415 283 284 292
4 3429 3428 5468 3956
4 4068 4411 1759 1758
4 5876 6317 2112 2113
4 6307 5255 6293 5899
4 5885 5863 1075 1076
4 2371 2340 2370 5910
4 4703 6202 5089 4202
4 5885 1067 4356 1076
4 5859 5885 1066 1067
4 5850 5859 5885 1066
4 5162 2818 5161 4670
4 5002 5003 5570 5171
4 6293 5878 5862 6317
4 5832 5851 5838 1040
4 5617 4336 1893 1902
4 4742 1883 4147 1884
4 4062 2412 4491 4740
4 4679 6118 4715 5176
4 5616 5624 1911 1912
4 5630 1901 6128 1910
4 5581 1892 4336 1901
4 5617 5616 1902 1903
4 5200 5381 4336 4742
4 3604 839 5578 838
4 4280 4125 4780 4062
4 4869 1645 6249 1644
4 4872 2173 2164 2165
4 5934 4870 5110 4039
4 3386 6011 4358 5355
4 5988 1637 5460 5190
4 5109 1626 4868 223
4 4869 1635 1636 1644
4 6023 6249 1653 1644
4 4123 4039 1619 1618
4 2445 4869 5191 6249
4 5080 4187 594 603
4 4520 5636 2524 4514
4 3205 5052 3204 5032
4 3950 606 4986 605
4 5063 589 5081 590
4 5086 596 3950 605
4 2892 2894 1035 1044
4 3497 2524 5582 5493
4 5148 5064 1033 1042
4 2894 2947 1035 1034
4 3958 5148 5844 5064
4 5579 849 3105 848
4 5602 5579 3105 848
4 2908 5578 2906 3604
4 4501 5194 5218 5079
4 3143 2213 2215 3864
4 5235 5192 1071 1080
4 5888 5893 1080 1089
4 4727 5936 5842 5889
4 5030 4944 4171 4178
4 5037 989 5794 998
4 4942 4943 970 979
4 4977 4177 525 4932
4 4345 4991 972 971
4 5779 5014 990 5794
4 3883 3871 5780 4922
4 5014 5794 989 990
4 5037 988 4996 989
4 4345 4942 971 980
4 3713 4515 4514 4481
4 5767 5186 5300 5217
4 5993 1625 5982 1624
4 5320 5984 1623 1624
4 5993 5984 1624 5982
4 2973 1623 5984 1632
4 5233 5923 6226 6240
4 4275 5226 1643 6000
4 5295 5585 5155 5288
4 5253 665 5278 664
4 5768 5982 5275 6232
4 3149 1499 5083 1498
4 4935 4916 1488 1479
4 3802 4245 4935 4916
4 3631 3634 4339 3632
4 5008 6191 1496 4245
4 4934 6196 1477 1486
4 4227 4956 529 528
4 6178 4968 1497 1498
4 4264 3408 4593 5703
4 4652 4580 844 5553
4 4732 5604 853 862
4 3604 830 3605 4101
4 5652 866 3670 875
4 4700 3960 858 3105
4 5606 6110 5435 4332
4 3867 4341 5704 3865
4 4656 2166 178 2157
4 4656 2157 178 177
4 5935 177 4656 1121
4 3066 3717 2168 2169
4 3729 2175 5423 4654
4 3346 4866 3097 3265
4 3814 4988 4047 4165
4 4815 37 897 38
4 4815 906 38 897
4 4246 4248 486 495
4 4158 462 4760 463
4 5046 4923 4907 5702
4 4238 4877 917 4901
4 5647 5641 909 918
4 4423 6013 5026 5170
4 5203 5409 1091 1082
4 4687 5153 623 4985
4 5904 5893 1089 1088
4 6013 5236 5026 5170
4 5246 1078 5349 5858
4 5041 5026 641 5170
4 5026 641 5170 642
4 5236 5026 5170 642
4 4467 1815 139 1806
4 6345 5526 3027 5472
4 4467 1806 139 138
4 5475 1806 4467 138
4 5542 4099 1798 1797
4 5542 5562 1807 5541
4 5463 4065 1809 1808
4 5035 5050 5054 1005
4 5036 5037 998 997
4 5011 998 5794 999
4 5069 5049 5054 1006
4 3242 4959 4947 4941
4 3875 4939 4997 3520
4 5027 5809 999 1000
4 3564 4922 3576 4446
4 5015 5037 5036 997
4 5805 5799 1010 1011
4 2752 2753 3200 5358
4 4672 4648 386 385
4 5877 4675 4694 5583
4 4090 394 4096 393
4 4042 4672 386 4043
4 1777 4212 1785 6265
4 6027 4299 4300 1249
4 3026 5051 4078 3055
4 4299 4454 1250 1241
4 3516 4299 4454 5480
4 4630 4650 368 369
4 2720 3821 3058 2715
4 5877 4675 5583 4611
4 4608 4653 369 370
4 4626 4630 4649 368
4 4551 4604 350 351
4 4609 6093 4226 352
4 4134 1280 4552 1289
4 3078 3289 4718 3828
4 3833 3083 3738 4745
4 4584 3829 4616 405
4 3833 4746 3083 4745
4 4749 5574 5313 4744
4 5574 1399 1390 1391
4 2312 2309 4705 3829
4 6235 1607 1616 1615
4 3234 3887 3542 5767
4 6235 6220 1607 1606
4 5233 1604 6226 1613
4 2973 5320 5984 1623
4 2772 3620 2973 5969
4 5233 5456 6226 3619
4 2664 5196 2880 2881
4 4652 4580 845 844
4 4278 3323 846 845
4 4652 845 4278 854
4 4415 4753 4724 4730
4 2261 2759 3714 3495
4 4752 4732 5594 4652
4 2513 2527 2424 2519
4 3045 2520 3572 2527
4 3742 5028 5031 4365
4 3455 3784 4209 3456
4 5972 4014 6034 6040
4 3513 1739 4301 1738
4 6264 3507 6055 3440
4 5419 1723 5421 5422
4 3505 1739 3513 1730
4 6268 6264 1738 1737
4 3392 3507 5673 5029
4 3703 3937 4929 5673
4 3516 4420 4454 4299
4 3203 2966 2911 2948
4 6054 4439 4832 1244
4 5972 3936 4014 4642
4 5330 5370 6331 3597
4 5902 5426 5447 3787
4 5417 4426 1737 1736
4 6069 3507 6271 1719
4 3516 1699 3517 1708
4 5481 1708 3517 1709
4 5427 4664 3849 1157
4 5954 3849 4664 1157
4 5954 2193 3849 181
4 3849 191 2193 1166
4 3849 2193 5 181
4 3849 5 2193 191
4 4861 5588 5301 4175
4 477 4255 5588 478
4 3462 4117 6164 4858
4 4902 490 4884 499
4 4093 4911 4116 4117
4 3495 5449 5829 5493
4 4889 4863 485 484
4 4246 4247 4698 477
4 4936 4876 936 935
4 4246 486 4247 477
4 1143 5948 5950 5404
4 5957 714 706 715
4 2880 2879 3654 5296
4 2787 5538 4154 4703
4 2845 2930 2846 2929
4 5326 5224 5225 5932
4 5065 1189 3745 1180
4 4755 3745 5065 1189
4 5065 3745 3744 1180
4 5996 1205 5314 1214
4 3411 5065 3409 3410
4 4184 5887 5271 1225
4 2689 3449 3409 5068
4 3868 4633 4781 5314
4 3869 3870 5986 5314
4 6319 6216 5156 2079
4 5813 5088 2087 6216
4 6316 5088 5089 2096
4 5865 5838 5812 5867
4 4523 24 4545 347
4 4545 780 25 24
4 4523 4545 4564 347
4 4545 25 4596 356
4 4490 5494 781 780
4 4590 347 4545 356
4 6345 5472 3027 5554
4 4682 4220 4681 827
4 5523 3452 783 5477
4 4556 4210 333 342
4 4524 3905 344 4495
4 4775 2865 5412 5530
4 2586 3184 3185 3177
4 5532 5477 792 791
4 3954 3955 3956 3428
4 4719 425 4180 434
4 4542 416 4181 425
4 5618 5648 4792 4793
4 3770 4279 4652 4278
4 4264 4788 441 450
4 4765 426 4753 427
4 4288 4792 871 872
4 4542 407 4724 416
4 5017 563 5050 572
4 2619 3498 3777 4059
4 4155 5227 2787 5538
4 5027 5810 5809 1000
4 5062 51 1023 52
4 4930 3930 532 4959
4 5009 4994 4993 552
4 2389 2936 2934 2933
4 5779 5076 5014 5794
4 3674 3137 3535 3836
4 3478 2292 3523 3522
4 5922 5921 5872 5920
4 4156 5469 4155 5890
4 5025 659 5210 658
4 5975 4846 5908 5931
4 3869 4633 5314 5996
4 5309 5197 5248 5265
4 5333 5982 1634 1633
4 5254 666 5155 665
4 5728 4734 3273 3669
4 5726 5699 1962 5731
4 5708 4800 1942 1951
4 5699 5731 1961 1962
4 5682 6149 5695 6213
4 4734 4738 5728 4736
4 4739 920 5668 929
4 6160 5671 4829 1439
4 4829 5671 1430 1439
4 2614 4898 2613 6151
4 5676 6097 4989 1964
4 6292 1946 5916 1955
4 4126 4993 4994 3521
4 2522 3497 2524 5582
4 4871 2174 4872 2165
4 4283 5942 2153 6321
4 4869 5988 5191 1645
4 5988 1628 5460 1637
4 4798 4123 4039 5132
4 4850 2164 6237 2155
4 6245 6321 6325 2145
4 4851 2147 2156 2155
4 6236 6238 2164 6254
4 5677 1933 5694 1932
4 6330 5694 5681 5675
4 5677 3830 1923 1932
4 5670 6109 1925 1916
4 4635 3101 3106 4706
4 5656 3962 877 868
4 3558 3559 4329 4328
4 5693 1925 6214 1934
4 3894 3971 307 298
4 4013 3987 3494 5504
4 3507 1729 6264 1728
4 6041 6034 1263 1262
4 4134 4599 4552 1280
4 3702 6271 5481 6069
4 3511 6264 3507 3513
4 6035 6271 6055 1718
4 4118 4439 6262 1252
4 4206 3944 5464 5122
4 4472 3970 3436 3971
4 3440 6264 4426 6055
4 6268 6264 6266 1738
4 4369 1743 216 215
4 4439 3518 4373 1716
4 4426 6055 1728 1727
4 6264 3513 1738 1729
4 6124 1856 4089 1865
4 4146 1865 4089 1866
4 5323 4561 2996 5772
4 4285 1863 6099 1864
4 5678 5679 1977 157
4 6070 6104 5463 5496
4 4267 5557 1849 1858
4 5364 5836 5073 1061
4 5077 5364 2913 1053
4 5871 5836 1071 5192
4 5836 5192 1070 1071
4 5836 1070 5192 5073
4 5047 4873 4910 4864
4 5726 3771 5699 5731
4 4867 3270 3999 4811
4 5641 4901 917 918
4 5647 5641 918 4901
4 3121 2850 3281 4738
4 5709 6288 6230 5978
4 3794 4866 5647 5641
4 4739 929 5668 4598
4 3645 4338 5708 5699
4 3422 3755 5016 3754
4 5031 4364 1703 1702
4 4097 1790 6073 1799
4 5437 4314 5422 1713
4 5031 4365 1702 1711
4 5118 4254 5419 1715
4 5425 1694 5464 1695
4 5445 5454 3609 4098
4 3944 5425 3943 4364
4 4841 4541 3750 5340
4 6063 4363 4365 1701
4 4430 5317 5319 6082
4 3227 6063 6174 4363
4 6071 4541 1803 1804
4 3518 1707 1716 3488
4 5505 1269 5504 1260
4 5817 1269 4434 1268
4 3227 6063 3985 6174
4 4315 4533 6058 1248
4 3324 5340 5341 2502
4 4434 1268 5400 5817
4 2840 4988 3814 3815
4 5013 3839 558 5044
4 5747 3317 5514 3639
4 4993 551 3521 542
4 4993 4994 551 552
4 3838 5048 5104 5103
4 5019 5102 4163 4168
4 5878 2113 5879 2114
4 5860 2121 173 2112
4 5678 5743 941 950
4 3313 4385 4726 4727
4 5863 4389 5646 6293
4 5876 5869 6201 2103
4 5860 172 2112 173
4 3532 3530 3660 5080
4 4986 3950 3535 5144
4 5425 1703 5461 4364
4 5339 4433 5341 6336
4 4399 5492 1782 1781
4 4447 5450 732 731
4 5425 1704 5437 1703
4 3399 5461 3398 3400
4 3712 5327 4323 5310
4 5031 4364 1702 4365
4 5437 3400 1712 1713
4 5525 5520 6145 5521
4 2731 2739 4969 4828
4 6145 5520 1403 5521
4 6150 5654 1929 1938
4 6283 6080 6289 5624
4 3580 4733 4785 445
4 4733 436 4645 445
4 2484 2485 2422 2490
4 3407 4763 4778 4733
4 4719 4751 4180 3405
4 5194 5858 5272 5198
4 4507 5192 5246 5073
4 5154 5147 617 616
4 5193 5194 5243 5272
4 5858 5198 1077 5272
4 5349 5858 1078 5272
4 6276 2071 5830 2062
4 5118 4254 1715 1706
4 5123 5437 5422 3400
4 5444 5474 5466 743
4 4098 4099 1788 1789
4 5352 4073 1208 1217
4 2896 6006 2886 3396
4 5441 3620 5969 1640
4 5887 4073 5271 1216
4 3331 3418 3224 1210
4 1210 3418 1209 3396
4 6007 5270 1218 1227
4 4072 5352 4073 1208
4 4072 3416 1199 3720
4 3450 3153 2671 3383
4 5132 1619 4039 1610
4 5109 4870 1626 1617
4 4123 1619 5133 1628
4 6018 4869 4870 4123
4 2234 2233 2231 2241
4 3613 1581 5642 1572
4 3916 3734 5847 5914
4 5447 5310 5446 739
4 3512 3513 3505 4301
4 5512 4457 3971 4395
4 3505 3513 1739 4301
4 1739 1740 3505 3825
4 4080 4479 5468 4475
4 5415 293 4032 292
4 6294 4575 4615 4547
4 4348 5097 620 621
4 3306 4348 621 5097
4 4689 4348 3306 5097
4 4908 602 4167 4187
4 2663 5195 4396 5904
4 3198 5005 3958 5092
4 3621 5827 5080 3530
4 5136 4348 5159 620
4 2855 4150 5469 5161
4 5788 1327 6095 1326
4 3966 4694 3736 4192
4 4574 4625 1328 1327
4 5788 6095 1327 4625
4 5781 4676 5788 6095
4 4723 4574 4722 5583
4 5788 1326 4676 3821
4 4578 4676 1325 3821
4 3949 449 4788 4783
4 5395 1399 5977 1398
4 4748 4759 4803 6141
4 4749 1400 1409 1408
4 4772 1418 6143 6141
4 2787 4154 4153 4703
4 6326 4776 6142 6143
4 4805 1414 4881 1423
4 4776 4802 456 457
4 6123 5977 4803 1417
4 4038 4594 5976 6152
4 4328 4239 1416 1415
4 3322 3405 4643 3289
4 4377 6159 1434 4858
4 6152 4690 4038 439
4 4594 6152 4038 4595
4 5976 5977 4749 4803
4 5707 4163 5102 5104
4 2294 3528 3663 3838
4 3850 6184 5082 5855
4 4930 4963 541 532
4 4959 4941 522 3118
4 2636 3492 5332 3807
4 2810 3162 3316 2367
4 4930 2291 3804 4987
4 3522 549 3839 2291
4 3521 4163 559 551
4 4221 825 4222 826
4 4895 4580 4220 3323
4 4651 4278 4580 3323
4 4221 826 4220 835
4 4621 399 5568 408
4 4678 390 4660 399
4 4647 4148 400 401
4 4647 4582 401 392
4 5145 4678 4638 4660
4 4681 4684 818 817
4 5020 5105 1639 1648
4 2897 5352 5271 4073
4 5131 5130 1620 5132
4 3388 5270 5995 5271
4 4781 1196 5338 1197
4 5441 3620 1640 1639
4 4154 5228 6316 6199
4 5020 5355 1648 1649
4 6011 5356 1666 1657
4 3875 3876 3871 4919
4 4154 5538 6200 4703
4 4903 4904 4344 4991
4 3929 3930 3707 4964
4 6155 5794 990 999
4 4899 4902 5725 498
4 5069 1006 1005 997
4 3455 4562 765 774
4 4513 4531 3597 4473
4 3025 3029 3031 3910
4 3699 5522 5584 6001
4 4673 813 4030 812
4 5261 4725 5251 5509
4 6060 1827 4631 1828
4 3160 5526 796 795
4 4214 6344 4216 4215
4 4573 1828 4632 1829
4 5535 5532 792 801
4 5964 4672 4096 4090
4 3371 3401 3738 5601
4 4672 4090 394 4096
4 6112 5657 1362 5598
4 4618 4616 395 4043
4 4702 5601 1370 1361
4 2744 3296 3866 3606
4 4618 4616 404 395
4 4747 1391 4692 420
4 5543 141 5563 797
4 5527 806 5565 805
4 4631 3826 1819 1818
4 5540 5543 5563 797
4 5528 1842 5563 1833
4 5563 1833 142 141
4 5555 1825 5544 1834
4 5528 1834 6274 1843
4 6106 1876 2545 1877
4 5379 5378 2545 1876
4 2546 6106 2545 1877
4 2547 2544 1338 2546
4 5379 1884 5381 4742
4 6037 3351 1313 6090
4 6127 5569 4281 1881
4 6127 5569 1881 1890
4 2496 3700 2497 2500
4 5572 4140 5628 5663
4 3504 3330 5569 1889
4 5597 832 4559 833
4 3580 4760 453 454
4 4840 4816 897 898
4 4866 3271 5647 5641
4 4797 4784 4815 4816
4 4797 897 4815 37
4 4661 4665 4664 5953
4 5408 4503 1183 1174
4 3716 4655 5886 3728
4 5963 5066 1181 4045
4 3724 5973 5068 4045
4 4290 4045 1191 4359
4 4290 1200 3418 3720
4 3383 6250 1219 1220
4 4045 4359 1190 1191
4 5066 4045 1190 1181
4 4674 823 4228 822
4 4030 3605 4674 4614
4 4286 5569 1880 1881
4 4125 4280 4780 4277
4 3605 4030 822 821
4 3239 4154 5228 5088
4 6127 6117 3504 1890
4 3603 3605 821 4030
4 3603 3604 829 830
4 3373 5375 4207 5537
4 4491 3502 4779 5631
4 4372 11 4374 279
4 4374 11 1755 12
4 4381 4374 12 280
4 4424 6053 287 288
4 4405 1745 5417 1746
4 4424 3976 288 289
4 3972 6268 6266 6267
4 6343 4236 810 5517
4 5535 4236 5532 801
4 2564 2991 2994 2992
4 5537 6343 3700 3920
4 4236 5517 809 810
4 6033 6170 4619 5536
4 3030 6340 6070 5261
4 4590 4545 4596 356
4 4688 4236 5517 809
4 4159 5649 4844 473
4 3377 4965 3999 3376
4 4879 4899 488 489
4 4902 4880 4884 490
4 4845 4844 915 4843
4 4877 917 4901 926
4 5683 4884 4880 4885
4 4877 926 4901 4876
4 4875 4877 4901 4876
4 5641 4875 4238 4901
4 4865 4885 482 491
4 4845 906 4816 907
4 5558 4219 4681 4680
4 5808 6033 4535 5536
4 4494 2421 3289 4181
4 3536 4636 4224 4586
4 4743 4895 4680 4682
4 4678 4683 390 389
4 4612 4559 4674 5586
4 4081 371 4658 380
4 4684 5567 808 817
4 3907 6093 4224 4226
4 4274 5316 4104 4106
4 1144 5952 5282 4021
4 3191 4143 3193 1117
4 5816 1169 5811 1170
4 5282 3695 5952 1136
4 3857 3066 5981 2160
4 3072 3415 3195 3722
4 5952 3695 1137 1136
4 3695 4204 1129 1128
4 3698 3697 1138 1147
4 1526 1534 1535 4770
4 4120 4770 555 3850
4 2858 565 4190 574
4 6195 5545 1524 1533
4 2815 2858 4771 4261
4 3531 3660 584 585
4 2813 2814 5060 5091
4 594 3532 5080 595
4 4190 565 4261 566
4 2239 5060 3690 1550
4 5060 5091 2814 1542
4 4294 5185 5556 4391
4 5609 6037 6090 3351
4 5250 4725 5294 4333
4 6074 4632 1819 1820
4 4385 3915 3914 5983
4 5210 5322 5321 667
4 5322 5211 5296 668
4 2340 2343 2342 5886
4 5912 1107 1098 1099
4 5211 659 5239 660
4 6013 5236 5170 5218
4 4453 1732 3785 3787
4 3954 4037 4488 3957
4 3390 1730 3513 1729
4 5421 3785 1732 1723
4 4794 452 4782 453
4 3124 4158 4833 4794
4 4797 464 36 37
4 4157 4782 4794 452
4 4238 4845 5701 907
4 5632 4645 5621 4785
4 5583 6095 1336 1335
4 5669 4626 4534 4604
4 4629 4090 384 385
4 4723 4574 5583 6095
4 4525 4693 4722 1346
4 4626 368 4649 367
4 4721 4648 4629 4649
4 6103 4702 3608 1360
4 4609 5290 4551 5291
4 5994 1675 6017 204
4 6017 204 1676 205
4 5249 1233 6017 205
4 5989 6008 5994 6019
4 6251 3388 3387 6019
4 5105 2889 5190 4358
4 4598 5152 938 939
4 3282 931 5719 930
4 5718 5741 1978 1977
4 5756 3923 3922 3919
4 4905 4904 964 4906
4 6282 5174 5175 5176
4 6118 4715 5176 1376
4 2319 6120 4667 5639
4 5175 6209 5550 1374
4 5174 5175 1384 1383
4 5175 1375 6118 5176
4 4206 1764 5465 1773
4 5491 5492 1773 1782
4 3426 3753 3755 3754
4 5325 1697 1688 131
4 2214 5227 3239 4154
4 5506 1772 5492 1781
4 6039 4098 1780 1789
4 5445 6039 4098 1780
4 5714 4893 496 4260
4 5714 4937 5796 4260
4 4880 4884 490 4885
4 5043 5712 4698 4863
4 6123 1417 6143 1426
4 3946 3947 4783 4774
4 5850 5859 1057 5853
4 5868 6199 6202 6316
4 5833 4237 5432 1038
4 5146 5163 4182 5127
4 5470 3864 5156 3859
4 4519 1021 5638 1020
4 5429 5799 1020 1019
4 5538 5644 5850 5646
4 5644 1074 5645 1073
4 4389 5850 5859 5885
4 5644 1065 5646 1074
4 4393 5878 5879 5207
4 4202 5879 2105 2114
4 6024 5850 5841 5853
4 6289 5624 1921 1920
4 2920 5639 5521 6133
4 4496 4498 5624 6283
4 5525 6145 6133 5521
4 4462 4174 3404 4794
4 6150 6138 1938 1939
4 5768 5183 5982 5993
4 5864 5300 5230 4284
4 3886 3236 5923 3237
4 5183 5230 5186 646
4 5140 6226 1605 1614
4 5140 5320 1614 1615
4 4273 636 5181 637
4 4724 4537 407 4542
4 5607 4140 841 5605
4 4139 4140 851 850
4 6285 4232 1906 1905
4 5628 3329 1888 3330
4 4287 5628 3329 5572
4 4287 3504 3330 5569
4 4706 3105 849 858
4 5930 1141 5950 1150
4 5387 4075 4077 716
4 3760 4726 3914 5983
4 5279 4256 1195 1186
4 5930 1150 5950 5949
4 1170 4191 1169 5811
4 5816 1170 5277 1171
4 4191 5943 5949 1160
4 5350 5371 4186 696
4 6308 5811 5943 5950
4 5277 5966 1162 1161
4 5816 1171 5277 3744
4 4191 5966 5277 1161
4 5475 1797 138 137
4 5475 138 4467 770
4 5476 137 5475 761
4 5476 5475 4452 761
4 4216 5475 4467 770
4 5439 4332 5606 1852
4 6110 5439 4332 5606
4 5439 1842 5528 1843
4 5586 815 5564 824
4 6131 6130 1869 1870
4 6111 5576 1851 5564
4 5576 1851 143 1842
4 5171 3614 1583 1582
4 5004 3614 6076 6225
4 4965 5674 892 5658
4 6114 1938 6138 1947
4 5916 6114 6138 1947
4 432 441 4644 4720
4 5653 5880 2923 3570
4 3933 6135 5525 5520
4 3254 2919 2735 3255
4 4806 4498 5624 4496
4 4957 6115 5377 3683
4 2921 6283 6133 4758
4 2922 6289 5654 5655
4 1928 5653 1919 1927
4 5653 1937 5654 6114
4 6171 1973 5479 1982
4 6163 5334 3586 5807
4 6156 1982 5735 1991
4 3591 4820 6156 4165
4 6097 1956 6296 1965
4 6160 1439 4829 4883
4 5524 1447 6161 1456
4 5688 5717 5760 1994
4 5711 5773 1992 1993
4 2741 6297 6296 6146
4 2784 3130 3667 5070
4 2759 5428 3714 4669
4 5841 5643 1055 1056
4 4151 5874 5431 6313
4 2946 1026 2947 5666
4 5432 4237 1037 1038
4 4516 2524 3713 4514
4 5431 5432 4237 1037
4 3675 5890 4156 4505
4 4361 4951 3633 3117
4 4951 3117 4956 520
4 97 4882 2281 1481
4 3886 3343 3583 5864
4 4227 5082 5083 3150
4 3776 3809 4245 4935
4 5400 4434 4731 6052
4 5498 1277 6052 4434
4 6062 1276 1284 1275
4 6075 4541 1812 5340
4 4541 5340 1803 1812
4 4590 355 4544 346
4 4436 6279 4544 4437
4 4523 4545 4490 4564
4 6279 5494 4490 4564
4 4486 4485 336 4437
4 4435 4485 345 344
4 4486 4067 336 327
4 5415 4129 4407 5414
4 4476 4149 318 327
4 5450 5448 4447 5124
4 4397 762 4615 4320
4 5558 4688 4684 4668
4 4067 4476 328 327
4 4397 4319 320 329
4 5706 5691 914 905
4 5708 6149 1952 1943
4 4338 1951 5708 1952
4 5694 5695 5708 1942
4 5694 4800 1941 1942
4 5694 4800 4334 1941
4 5693 5695 5677 1933
4 2485 3048 5305 2527
4 4512 6331 3437 5926
4 3053 3054 784 3452
4 3455 4576 4562 774
4 4576 773 4562 774
4 2718 3895 4777 3326
4 3904 4409 2578 4677
4 4576 782 4588 773
4 3957 3955 4448 3956
4 4122 5010 1008 1017
4 6155 5011 5794 999
4 4122 5010 1017 5666
4 3576 3575 3883 4922
4 4126 3521 4994 4163
4 2636 3493 5332 3492
4 5809 5011 999 1008
4 3694 4888 2985 6076
4 4767 5099 5742 6333
4 3210 3477 4126 5680
4 4026 450 3402 451
4 5689 5880 5730 1936
4 4179 4899 497 488
4 5587 4821 3094 4175
4 965 5690 964 3872
4 3359 3360 965 966
4 5151 5152 948 947
4 5698 5697 948 949
4 3359 5770 3360 966
4 3872 3360 974 965
4 4762 4936 945 3639
4 5769 5776 967 958
4 5779 982 4919 991
4 3873 4259 3842 5804
4 3872 3360 4259 974
4 3842 3883 5780 4446
4 5789 2022 5797 2031
4 4259 3360 975 974
4 6162 5770 976 975
4 5769 5770 966 967
4 5334 3587 3586 6188
4 5100 2028 5614 2029
4 5501 5524 6160 6161
4 3825 3505 1739 4301
4 1740 3505 3825 5467
4 4018 5447 737 728
4 3825 5107 3505 5115
4 4453 3787 1741 1732
4 5543 140 1824 141
4 5543 5563 141 1833
4 5528 5543 1833 5563
4 4135 1824 5543 140
4 5542 1806 5562 5475
4 4135 1824 5555 5543
4 5484 5472 777 778
4 4244 3834 6295 4920
4 6196 3807 4912 5346
4 4047 1990 6156 1991
4 6176 6188 2010 2001
4 5778 6176 6188 2010
4 5662 5807 5761 1473
4 5612 5096 1500 1501
4 5971 2987 5898 5923
4 2000 1999 2008 4047
4 3981 3587 3459 3493
4 501 2280 2281 4891
4 5971 5923 5898 6228
4 4366 4916 4933 1480
4 4918 4933 1470 1471
4 4355 1490 1481 4882
4 4361 4366 4916 4933
4 5971 2989 5187 5897
4 4569 4424 3976 288
4 5515 4411 4402 3824
4 4382 14 282 281
4 3824 4301 3825 1748
4 5108 5512 5115 5515
4 4407 4411 6260 1759
4 5415 292 4402 283
4 4424 4429 4374 6267
4 4429 4380 1756 6267
4 4382 4068 3824 4402
4 5088 2087 6216 2088
4 5923 5898 6228 6320
4 5089 5234 4202 2106
4 6216 3239 6319 3864
4 2480 2956 5881 4205
4 4202 2114 5207 5879
4 4213 2108 3128 2117
4 5232 5566 5642 5570
4 3129 2108 2099 3127
4 3129 2099 2108 2107
4 5160 3128 4205 2117
4 3128 4205 2117 2118
4 6218 5212 2091 6224
4 4933 4916 1479 1480
4 3801 4935 4933 4916
4 3632 503 3634 504
4 4951 511 3117 520
4 4366 4933 1471 1480
4 4798 4123 5132 5133
4 5109 5110 4870 1617
4 5980 5892 6247 5946
4 6228 6320 5252 1603
4 6012 5904 5531 4396
4 5132 1610 4039 6323
4 2207 3602 3515 2217
4 5881 4205 2127 2126
4 1206 1207 4756 4071
4 6064 5971 5231 5923
4 1197 5819 1187 5338
4 1197 5819 4755 1188
4 4781 1206 5314 1205
4 3486 4781 4183 5338
4 2897 2873 2804 2876
4 2875 3387 4185 3870
4 4297 6238 6252 2162
4 5391 5296 678 677
4 4161 5306 687 688
4 5816 3744 4022 3743
4 5372 5299 5957 714
4 5342 4203 4127 694
4 4127 4203 685 694
4 4056 2179 2180 3332
4 3858 2169 3855 2178
4 2886 3416 3396 6006
4 3882 5191 5988 5190
4 5988 5191 1646 5190
4 6018 4869 5988 5191
4 4297 5795 4056 6252
4 5986 4589 3870 3869
4 3411 5065 3745 3744
4 4276 3695 1128 4204
4 5282 1127 3695 1136
4 3194 3415 3696 3722
4 4661 3806 3705 4662
4 4756 4072 1207 1198
4 5256 1074 5644 5646
4 6199 6024 6021 5853
4 5860 5885 1076 5863
4 6307 4529 5407 5255
4 5862 6317 2122 2121
4 5860 2112 6317 2121
4 4902 5725 499 4162
4 6290 2133 6247 5206
4 5328 5329 1107 1106
4 3193 4924 5749 5847
4 3365 5929 2443 3153
4 5894 5308 1106 1105
4 2880 5269 5296 5211
4 3191 5283 1125 1126
4 3191 3192 4581 5283
4 5941 1125 5283 1134
4 3722 5910 4204 4276
4 2341 5915 1112 1103
4 5888 5912 5983 3760
4 6328 4655 3727 4657
4 5914 1091 5409 1092
4 5255 1093 5906 1092
4 5845 5914 1100 1091
4 2949 5818 5666 2947
4 5084 587 5006 596
4 4166 578 3196 587
4 5032 562 5017 571
4 4113 5069 996 5015
4 5063 5127 598 599
4 5005 5092 597 598
4 5433 5432 1037 1028
4 3532 5084 586 5828
4 3565 5665 5038 5010
4 6275 6195 2814 5091
4 2815 5855 3663 4261
4 3665 3839 5007 2291
4 6191 4968 1506 1497
4 5001 539 4975 4987
4 4199 6203 5746 1520
4 5001 2291 5007 548
4 4344 4903 3876 4904
4 4967 1506 4968 1507
4 5803 1505 6192 1514
4 6181 6233 6231 6321
4 6061 6237 5942 6245
4 6242 2153 5942 2162
4 5128 6323 5132 4039
4 6321 2144 6231 2145
4 3508 4932 4307 4308
4 2474 2758 2570 2757
4 3718 4947 4930 3804
4 3846 4610 4019 4286
4 6072 5527 5540 5528
4 5849 1578 5114 1587
4 5205 1587 5114 1588
4 5139 5849 1577 1578
4 3304 4908 4187 603
4 2337 2606 2600 2712
4 3930 4941 4931 523
4 5847 5749 1110 5910
4 3854 3858 3855 3900
4 3194 4276 1127 1118
4 2370 5749 5847 5910
4 2289 2664 2290 4425
4 3069 5913 5945 6239
4 4168 4163 560 569
4 4994 4163 551 560
4 3154 5428 5799 4481
4 4993 4964 543 542
4 4963 4993 542 4964
4 5488 5009 4994 4993
4 5182 1607 83 1616
4 4273 5182 636 645
4 5140 1606 6235 1615
4 5182 82 83 636
4 4094 4890 4248 3634
4 4339 495 3634 4248
4 1469 1468 4115 4110
4 1478 4115 1477 4934
4 4114 4935 1478 1479
4 3631 5394 3585 4248
4 4109 3807 5346 4912
4 4110 1451 4117 1460
4 2614 4801 4874 6151
4 4857 2280 492 4856
4 5009 4978 4982 544
4 5792 978 4943 979
4 5489 5794 4996 5014
4 5009 543 4978 544
4 4345 4343 4344 4991
4 5486 5015 4982 5792
4 5704 4735 3865 903
4 5704 903 4341 904
4 5689 5729 3624 6213
4 3645 5708 6149 5699
4 3261 5672 5667 6148
4 3580 4733 444 4763
4 5632 3123 4733 3580
4 3321 3381 3406 2423
4 4708 35 4768 446
4 4047 6156 5884 1991
4 5457 1984 5711 1983
4 5633 1456 1465 1464
4 5501 3653 6160 5671
4 2344 2351 2346 2353
4 5817 6065 1268 5401
4 5503 5505 1269 5504
4 4532 1268 5401 1267
4 3702 4012 5480 5481
4 3508 3930 4932 3707
4 6035 1727 4426 1726
4 4012 5972 4373 6035
4 4532 4533 4300 1258
4 3817 5801 3820 1307
4 3820 5801 1308 1307
4 3596 4555 4526 4531
4 5527 5563 806 797
4 3160 5527 805 796
4 3055 5472 5526 786
4 5472 5540 5526 787
4 5540 788 5543 797
4 5555 6274 1834 5544
4 5555 5543 1824 1833
4 4001 4464 3671 6153
4 5752 5751 5155 5254
4 3135 5153 4687 4985
4 5231 5920 5971 6064
4 4048 4049 3619 6134
4 5172 5173 5300 3113
4 2550 2898 3882 2889
4 5233 5456 1612 1613
4 5143 5252 5221 6225
4 5287 3820 4561 4353
4 4696 5530 5529 5412
4 4436 6179 6279 4137
4 4608 4630 5291 4604
4 3820 3821 1317 4353
4 3349 5548 3351 1314
4 3820 3821 1316 1317
4 5843 5073 5846 1060
4 5072 1059 5846 1060
4 5149 5146 617 5147
4 5149 2890 5072 5154
4 5072 2890 1068 5858
4 5149 5146 5846 1050
4 5146 5163 1041 4182
4 5146 5147 608 617
4 5339 6336 4716 6335
4 4119 4305 1725 1734
4 5365 4303 4836 5366
4 5481 4012 3518 6035
4 3595 3597 5330 4531
4 1271 4509 1280 4599
4 4552 1281 5389 4553
4 5498 4434 1278 1277
4 6221 1588 5113 1589
4 6221 5113 5157 1589
4 5204 637 5181 628
4 5113 1588 5205 5114
4 5157 4999 5085 609
4 4152 4350 593 592
4 5113 1579 5112 1580
4 6235 1615 5993 5320
4 6291 1950 4800 1951
4 4338 5733 1961 5731
4 5720 5715 5722 923
4 5740 5733 1969 1960
4 5679 5741 5718 1977
4 5756 1978 6300 1979
4 3773 4338 5699 5731
4 5706 5715 913 914
4 5638 1030 5821 1029
4 5432 5429 1029 1028
4 5471 5813 5814 6216
4 5757 5433 4713 5874
4 3676 3675 4156 4505
4 5090 2947 1026 1035
4 4703 5879 6202 4202
4 3732 3730 4507 4501
4 4342 4942 5030 4343
4 4978 4964 534 543
4 4961 952 5747 953
4 3639 4961 5747 953
4 4979 970 4942 4944
4 3958 3203 2912 2948
4 5052 3204 4966 5081
4 3198 5092 5006 5005
4 5052 5490 5049 5054
4 3958 5092 5005 5127
4 3950 5092 606 597
4 6130 5596 1869 1878
4 5597 4559 6130 5596
4 5628 1878 5610 5596
4 6278 5606 1862 1861
4 4890 3634 494 4248
4 4890 3634 503 494
4 4362 4890 3633 502
4 3004 3005 5043 3006
4 3632 3633 503 512
4 3633 4890 503 502
4 2281 4366 4362 4891
4 4339 3632 3634 504
4 4856 4891 492 493
4 6233 5974 5208 6244
4 6318 4283 2143 6244
4 6318 2142 5980 2143
4 3930 4931 4932 524
4 4527 3071 3069 4530
4 5002 3613 5570 5232
4 5772 5700 1299 5801
4 5748 1301 5199 1310
4 4548 1292 1301 1300
4 5199 4504 330 3678
4 4561 1309 5748 4353
4 5389 4553 1281 1282
4 3678 5748 1301 5199
4 3383 3153 2671 2190
4 3446 4290 3720 4359
4 3729 4654 5423 5947
4 3052 2198 195 2197
4 4708 870 4793 879
4 5621 879 4793 880
4 5979 5604 4288 5648
4 4707 870 4708 34
4 4645 4785 445 446
4 5903 4765 4778 4180
4 4708 879 35 870
4 4926 2734 2738 5916
4 3627 3625 5730 3624
4 3919 5750 4164 3922
4 4577 5729 6149 6213
4 5689 3624 5730 5880
4 5664 3606 885 884
4 3646 3867 4735 3865
4 4264 4788 4595 441
4 2486 3104 3670 4700
4 4639 3935 2920 5520
4 5689 1935 6213 6214
4 6110 5565 6111 5586
4 4285 4286 4144 1872
4 6111 5606 6278 1861
4 4612 6110 5586 4674
4 5606 1853 5435 1862
4 6131 1861 6278 1870
4 4144 1862 5435 1863
4 6111 1852 5606 1861
4 6111 5564 1851 1860
4 6111 1851 5439 1852
4 4559 5586 6131 5577
4 6233 4283 6244 2143
4 3691 2481 3694 3140
4 2585 6280 5214 5128
4 2370 5847 2372 5910
4 6233 5881 6231 2135
4 5234 3129 4213 2107
4 5881 6231 2135 2136
4 6280 6327 6322 4360
4 6280 5214 4360 5213
4 4860 5045 4961 5747
4 5045 5061 5046 5514
4 4307 4308 4932 4177
4 4923 507 4907 5702
4 4902 4162 499 4884
4 3640 5725 4899 4902
4 6143 4803 1418 1417
4 4772 6142 4773 4776
4 6123 4328 1425 6157
4 5713 6123 6143 1426
4 6143 4803 6141 1418
4 6141 6143 4772 4759
4 3947 458 4783 4774
4 5470 5829 5830 5848
4 2711 2705 2704 2712
4 2089 3862 3860 6319
4 2784 2953 2783 4007
4 3930 4959 523 532
4 2952 2984 4196 4198
4 5655 1919 2923 4806
4 4500 4806 4499 6128
4 3053 3054 3055 785
4 4806 5655 1919 1920
4 4679 4667 5176 4715
4 2319 6283 6120 2920
4 4179 4879 4899 488
4 3579 3962 3961 869
4 3578 3579 3961 869
4 4619 4683 380 4658
4 4081 4636 4658 371
4 4683 380 4658 381
4 4620 807 27 798
4 3538 4658 4587 4622
4 4493 2544 2547 2545
4 6088 6037 4270 1321
4 5571 1331 3687 1330
4 3688 3687 5189 3689
4 5189 3687 1331 3689
4 5262 6091 5557 6092
4 4493 2545 4268 2544
4 4325 2545 2546 2544
4 6103 1359 3608 4102
4 3001 2417 3009 3003
4 4716 6336 2740 6335
4 5317 5319 1784 1793
4 4316 6265 1786 1795
4 6071 2502 1803 5340
4 4399 5319 4400 1792
4 1784 4212 6082 5317
4 2503 2502 5340 1802
4 2502 3009 2504 3823
4 4935 4245 1488 4916
4 3776 4245 4934 4935
4 4934 4935 4245 1487
4 4114 4933 1479 1470
4 3633 4890 3634 503
4 2711 2848 3529 3531
4 3358 6162 3360 5770
4 3843 6162 5782 4169
4 5815 165 4194 1013
4 4188 5786 5774 6304
4 5789 4188 5775 5797
4 4516 4945 4193 4517
4 5784 5783 6311 5785
4 4188 2022 162 2013
4 5789 2022 163 162
4 5789 5759 2031 6306
4 4084 5770 5774 5775
4 3983 4212 5318 6174
4 4716 6075 2740 5340
4 2504 2502 1793 1794
4 4118 6262 4012 5480
4 4841 5340 6071 4541
4 6071 1794 6265 1795
4 3454 4576 3455 3452
4 5697 5151 5152 948
4 6301 1995 6173 1996
4 4084 6305 6338 4087
4 5732 5696 959 5754
4 5696 5776 958 959
4 4493 2544 3687 2547
4 2802 5552 4102 6116
4 5549 5616 6282 5202
4 6115 4102 1358 1349
4 6106 5600 1885 1886
4 4741 1883 4742 1892
4 2940 2838 2624 3092
4 5803 6191 6192 1505
4 6204 1514 5058 1523
4 5676 1955 6097 1964
4 4989 5479 1973 1974
4 5916 6114 1947 1946
4 6292 5676 1954 1955
4 4828 6136 1422 1421
4 6097 4989 1964 1965
4 4657 4656 4654 1130
4 4656 178 4654 1130
4 4654 2166 179 178
4 4654 2175 179 2166
4 5423 5947 1139 5953
4 3729 4654 4655 2166
4 4657 5947 1129 1130
4 6324 5194 5243 5218
4 5269 5296 669 678
4 3194 3193 3195 5749
4 5194 5188 5858 5198
4 5893 5192 1080 1079
4 5246 5893 1079 5192
4 5265 5248 660 5239
4 5237 5285 5071 671
4 5246 5893 5349 1079
4 6289 1929 5654 5655
4 6059 5654 6150 6114
4 6080 1913 5177 1922
4 6080 1921 6286 6289
4 6132 6140 1939 1940
4 2921 6289 6286 6150
4 6346 4902 4162 5725
4 5134 6297 5458 6246
4 2741 6297 6146 6122
4 5134 6297 1958 1967
4 5525 6059 5603 6154
4 4972 6297 5458 5478
4 2709 2857 2848 2856
4 5994 6019 6251 1675
4 5994 1234 6017 5995
4 3881 5793 6238 5795
4 6016 1665 6011 6019
4 5989 1674 5994 203
4 5994 1675 204 203
4 5994 5995 6251 6019
4 6008 5995 1226 1235
4 6016 6019 1674 1665
4 3147 5136 5085 4167
4 3341 3147 5113 5114
4 3339 5187 5849 5114
4 4687 632 5041 631
4 6221 5158 5085 5179
4 5085 5136 5179 619
4 5811 5950 4191 5943
4 5907 5331 5326 5932
4 2784 2785 2783 2953
4 5824 5943 1169 1168
4 5816 5343 1178 1179
4 5819 4258 1187 5338
4 5110 5109 4851 6327
4 6322 2129 2138 2137
4 6182 6325 6321 6231
4 5110 1609 4039 1618
4 5933 6182 6245 5934
4 5004 5003 5171 2584
4 5214 1600 5213 1601
4 5111 5110 1617 1608
4 2584 6280 6229 5213
4 5002 5171 5570 3614
4 6288 5733 6300 5741
4 5758 5750 6300 1979
4 3656 1166 5427 3849
4 5427 182 1166 183
4 5427 5970 4662 1156
4 4664 5953 1148 1147
4 3697 4663 1146 1147
4 4661 1147 3698 5953
4 5954 5423 2184 180
4 5970 183 184 1156
4 5954 2184 181 180
4 5954 5953 5423 1148
4 4142 5601 1371 1370
4 6121 5395 1399 4749
4 5575 1381 4745 1372
4 4643 5703 4644 6284
4 6125 4337 1404 5521
4 5395 1398 6121 1399
4 5302 1770 5455 1761
4 1696 5117 4253 6258
4 3757 6043 4097 6073
4 5455 734 3609 725
4 2870 3387 5355 5442
4 1649 1640 5020 5360
4 2829 2816 2856 2848
4 5316 683 4107 682
4 5289 5335 5316 683
4 2883 4927 4846 5908
4 4528 5906 2341 2372
4 2787 5538 4390 4155
4 4389 5885 5863 5646
4 5945 2159 3066 5886
4 5899 5901 1093 1094
4 5985 5862 2131 2130
4 2341 5901 6239 5915
4 5207 5927 4386 4393
4 2703 3667 2706 5070
4 5878 2114 5207 2123
4 5860 5863 5862 6317
4 5206 5297 5927 2132
4 5206 5207 2124 2123
4 5134 5135 1967 244
4 5135 244 1437 243
4 4972 6296 6297 5478
4 6246 1438 5502 1437
4 4447 740 4406 731
4 5448 5443 5124 5450
4 4925 4897 3771 5667
4 4323 748 5310 749
4 5447 4406 739 730
4 2640 4078 3026 5051
4 5107 5462 3825 5467
4 3507 6271 1719 6055
4 4832 1725 4305 214
4 4305 214 1734 215
4 4305 1244 215 1245
4 5764 1254 6054 6038
4 5418 1735 4119 1726
4 4012 4011 6035 5481
4 5365 6044 4416 6036
4 5095 2039 2030 237
4 5095 237 1500 236
4 5093 5094 2021 2030
4 5937 236 5095 1509
4 6309 2047 6198 2048
4 2575 2304 2587 2401
4 2020 2019 5614 6207
4 5918 5739 2027 2028
4 3584 4260 3585 4893
4 3460 2937 3461 3189
4 6164 1443 4858 1452
4 1452 4911 4858 4117
4 4911 4117 1452 1461
4 6159 4858 1443 1434
4 6159 6164 1443 4858
4 4337 5639 1386 1395
4 6159 1443 6164 1442
4 4270 1329 1320 1321
4 6088 4270 1320 1321
4 2544 1330 3687 1339
4 4325 4270 4268 2544
4 4268 2545 1868 4325
4 4354 6124 4145 5608
4 4145 1865 4146 1874
4 5571 5189 1322 5511
4 4694 5583 1344 1335
4 4675 4611 1353 1344
4 3536 4225 4224 4636
4 4676 6095 1335 1326
4 4871 221 1635 1644
4 4871 222 1635 221
4 4871 4872 6023 6249
4 4871 2174 2165 222
4 4872 6023 6329 2174
4 4872 4850 2165 2164
4 6005 6329 2669 2182
4 3738 5601 5657 4745
4 4705 413 2309 422
4 4720 4038 422 431
4 4717 421 4744 420
4 4705 413 3829 2309
4 5312 5574 4717 4744
4 5312 5313 4995 6121
4 4748 4749 1409 4803
4 4720 4038 4705 422
4 4925 3261 4970 5667
4 5716 4936 3315 3016
4 6287 4262 4820 4819
4 6077 5710 928 927
4 6288 5737 3282 5720
4 4739 6077 4738 5728
4 4602 6300 5758 5750
4 5756 1979 5750 1988
4 5698 939 5719 940
4 5628 1878 6130 1879
4 3233 5663 1897 4232
4 5628 5663 5610 1887
4 3622 3772 3363 6098
4 3330 4287 5628 3329
4 3330 1880 5569 1889
4 6263 6130 1870 1879
4 6263 1870 6278 1871
4 4263 3503 1908 4804
4 4139 850 4706 5607
4 3701 3418 1201 3224
4 5105 4358 1648 5355
4 3383 3224 3222 3052
4 3221 3051 2197 3052
4 3221 3222 2188 3332
4 3221 3222 3224 3052
4 3331 3153 3450 3383
4 3698 3695 3722 4204
4 5790 5795 6252 4056
4 3622 3772 6098 3796
4 4366 1481 4355 1480
4 4366 4933 5229 1471
4 4891 493 4890 502
4 4910 1462 1454 1463
4 4587 364 4566 373
4 4489 4563 4590 4596
4 4620 4668 5567 807
4 4658 372 4622 381
4 4711 5517 819 818
4 4620 4563 4566 4668
4 4397 4479 21 320
4 4479 744 21 20
4 4080 20 4479 311
4 4461 4319 4476 319
4 4461 3432 4480 310
4 4424 4405 6267 4372
4 5763 4368 4370 6046
4 4051 9 277 276
4 4051 1752 9 8
4 4051 8 2872 1752
4 4416 4371 2872 1247
4 4371 1752 217 216
4 4371 217 1247 1246
4 4416 4369 4371 1246
4 4443 4440 1274 1265
4 5765 5972 6034 6040
4 2395 3600 3469 3434
4 3943 3398 3742 5461
4 4016 746 3956 745
4 5446 5310 5311 748
4 2993 3551 5399 4133
4 5549 5380 5551 6083
4 6293 6317 5862 5863
4 5899 1085 5861 1094
4 5860 5861 5863 1085
4 5878 2122 5862 6317
4 5862 2122 5927 2131
4 5899 1084 5255 5256
4 6293 5862 5899 5863
4 4402 291 4383 282
4 4382 1757 3824 1758
4 4472 307 3971 308
4 4395 4383 291 290
4 5926 4472 4878 3437
4 5549 6118 6282 5175
4 5515 4395 3974 4402
4 3227 4363 6177 5028
4 5549 5200 2803 5380
4 5673 3507 6271 6069
4 5504 1260 6065 3494
4 6054 1244 4832 4305
4 3556 5817 5400 5401
4 5996 5314 1205 4183
4 5020 5442 5355 1649
4 5244 1651 4201 1660
4 5549 4679 6282 6118
4 4072 4071 1207 4073
4 4256 1196 4183 1195
4 4896 6098 4897 4819
4 6113 1937 6114 1946
4 5729 6213 1935 1944
4 6148 6149 1953 5699
4 2741 6297 4972 6296
4 6148 6149 1944 1953
4 5681 4341 4800 6330
4 6149 5699 1952 1953
4 3686 4443 4401 303
4 4552 1280 4599 1281
4 4568 5365 3527 5416
4 5365 5765 5366 3527
4 4553 5772 1290 1291
4 5259 6039 5506 5492
4 3755 4103 5466 742
4 4534 349 4538 350
4 4551 4538 341 350
4 4554 4538 4597 349
4 4555 4210 4538 341
4 4534 4597 4538 349
4 4534 4604 359 350
4 5788 4353 4352 5293
4 4834 5700 1298 1289
4 5282 4276 3695 1127
4 3696 3697 5952 3695
4 5944 1162 5388 1163
4 4021 1135 5404 5283
4 2660 3913 5840 3762
4 5068 4359 5066 4045
4 4035 4449 306 305
4 4302 4419 304 305
4 4020 5608 4354 4145
4 4302 304 4442 295
4 5510 3938 4569 5762
4 4208 4034 4035 5925
4 3487 6205 2036 5739
4 2029 6198 2030 5095
4 2029 6194 5100 6198
4 5739 5724 6101 5100
4 4810 6311 2034 2043
4 5166 2025 5452 4086
4 3937 3702 6069 6271
4 3983 3988 3009 6265
4 3757 6042 6043 3756
4 1692 6174 6063 4363
4 4532 1259 6065 1268
4 4532 4300 1259 1258
4 3857 2169 3066 2160
4 3854 3726 3858 3900
4 3067 5627 3064 4591
4 5021 3693 5212 5168
4 6315 5622 5967 6281
4 6315 1545 6314 1536
4 6319 2088 5088 6216
4 5626 5216 2064 2063
4 3692 4886 3652 5087
4 3651 6210 4271 1538
4 5622 4061 5215 5623
4 6310 2057 4265 4266
4 3279 3773 6288 5978
4 5720 5740 5722 5715
4 6186 5743 5737 5718
4 5733 6300 1969 1970
4 3918 3924 4164 4988
4 5138 6276 5593 2072
4 3651 5620 5098 5905
4 6276 2063 5593 2072
4 5866 5821 5833 5432
4 4122 3564 5810 5809
4 2522 5582 2524 2523
4 4518 4522 5873 4195
4 3692 4886 4888 5806
4 4135 5555 1824 4468
4 4135 1815 140 139
4 4217 4467 4135 779
4 5484 5472 778 5507
4 4217 769 4216 770
4 5507 4217 4468 4135
4 4468 1816 5513 1825
4 6029 6050 1768 1777
4 6255 1768 6050 1767
4 6026 267 1768 268
4 4212 6050 1776 1775
4 4316 4322 4318 4533
4 3985 5480 3516 3517
4 6257 6081 1767 6050
4 5465 6081 4510 4130
4 4466 6028 1689 1680
4 6256 3983 4315 3986
4 1774 6081 5465 6082
4 5632 4765 4645 4733
4 4776 4759 447 4772
4 4720 4595 440 441
4 5976 4803 6123 5977
4 4379 6159 4858 6164
4 6202 2105 4202 5879
4 5089 5088 2097 2096
4 3862 3129 2089 3860
4 6202 5879 2104 2105
4 5223 5207 4393 4202
4 5850 1056 5853 1057
4 5841 5850 5643 1056
4 5841 5853 1047 4237
4 2725 5545 6275 5091
4 2380 4020 4019 4024
4 5637 5357 5104 5103
4 5803 6342 1513 5802
4 5803 6342 1504 1513
4 6195 5545 6175 1524
4 6275 6195 5091 5545
4 6193 5008 6191 1496
4 4121 5778 3813 6176
4 6193 1504 4251 1495
4 2291 2292 2294 3839
4 4971 4199 1521 1530
4 4430 5491 6082 5319
4 5028 4365 4363 4364
4 5318 5317 6082 4212
4 6050 6081 1775 4212
4 6174 6081 6257 6050
4 6257 6261 1683 4510
4 4967 1507 5083 5082
4 4227 3116 4975 529
4 4245 6303 6178 3802
4 3809 6191 3835 4245
4 5083 4968 1498 1507
4 4227 4975 538 529
4 4987 2291 539 540
4 3149 4951 4882 4355
4 3149 5083 4968 1498
4 4355 1489 6178 4916
4 4191 5959 1152 5950
4 5966 187 1162 1161
4 5959 1153 5966 1152
4 5388 186 5966 1153
4 4821 3094 4026 4783
4 4796 5301 4794 4174
4 4861 4796 4175 5301
4 4159 473 4844 482
4 4861 4833 4814 470
4 3770 2518 3990 2514
4 2977 2982 2979 3220
4 3949 4783 3947 458
4 5442 5355 1649 1658
4 4104 6189 5384 4913
4 2782 5240 5360 5397
4 4106 5278 5316 673
4 5316 673 5278 674
4 5280 5998 4257 5940
4 6010 5356 1658 1667
4 3387 5442 6010 5356
4 5527 5540 797 796
4 6345 5555 5554 5544
4 5125 4332 4333 5435
4 4673 804 5560 813
4 6345 6274 5555 5544
4 5527 5540 5528 5563
4 4612 6111 6278 6131
4 3160 805 5560 804
4 3160 5561 795 804
4 4570 1840 6067 4572
4 3751 4317 6273 4541
4 6067 6068 4571 4572
4 4398 6075 4540 4787
4 6346 4812 4859 4884
4 2440 2324 2918 3169
4 3670 5656 876 867
4 3569 4804 1908 1917
4 3568 3569 2979 3570
4 4263 3220 4804 3569
4 3233 1897 3329 1898
4 750 742 4103 3755
4 6042 4452 5466 4099
4 3754 749 5327 750
4 5304 5382 1763 1762
4 4097 4064 1798 1799
4 3753 5327 741 750
4 4323 757 5311 748
4 6042 5466 5454 4098
4 3535 3135 4985 3836
4 5406 5644 1073 1064
4 6199 5834 5868 5852
4 4202 5207 2114 2115
4 5160 2117 4205 2126
4 5234 3862 2098 2106
4 6200 6201 5876 5859
4 4393 4389 5879 5878
4 4200 2115 5234 2116
4 4797 4815 4784 464
4 4797 4784 455 464
4 4845 4844 4815 906
4 4815 5649 464 473
4 3285 4491 5705 3502
4 3124 4917 4760 3123
4 3338 4197 6222 4198
4 4197 1568 5139 1577
4 4908 602 4187 603
4 3131 3161 3342 5139
4 3997 2828 2829 3159
4 2856 2830 3690 2817
4 3161 5139 1578 5849
4 5872 1597 6220 1606
4 5140 6235 1606 6220
4 5113 1580 5157 1589
4 5205 1597 5872 1596
4 5140 5872 1605 6240
4 5140 1614 5320 6226
4 5028 5031 4364 5461
4 3712 3753 3754 5327
4 6081 6339 4130 5465
4 6073 4065 1799 1800
4 1790 4097 6073 3942
4 4015 5505 5503 5504
4 6074 1810 2740 1811
4 5117 5118 4253 5451
4 4399 1782 5491 1783
4 6073 1791 4400 1800
4 4399 1783 5319 1792
4 4696 1332 5189 1323
4 3682 5189 1332 3689
4 6087 4267 5556 5557
4 5185 5571 5189 3687
4 2544 5556 4493 5571
4 5189 5511 1323 1322
4 5126 2683 3031 3373
4 1277 4434 1268 5400
4 5817 1268 6065 1269
4 3984 5817 5401 6065
4 5504 5817 6065 1269
4 5318 6174 4212 6081
4 3987 3555 6065 5504
4 5481 1709 6063 6069
4 5503 4434 2416 5817
4 5503 4434 5817 1269
4 5504 6065 1260 1269
4 6262 5505 5504 1260
4 6262 5504 4013 3494
4 6324 5236 5218 5243
4 6012 5893 5246 5192
4 4469 6013 5170 5218
4 4501 5349 5272 5858
4 5153 5218 633 5079
4 4686 4470 5041 3731
4 5245 652 5236 5243
4 5218 5079 634 633
4 2611 2388 2615 2612
4 6246 4969 1429 6122
4 4828 1430 4829 5671
4 6135 6145 1412 1411
4 2639 4108 2612 2614
4 4874 4801 5661 6151
4 3460 2617 3465 4801
4 6159 4377 1434 6157
4 4874 5661 6164 1442
4 4377 6142 1435 5713
4 1434 4377 1435 5713
4 5993 5982 1625 5999
4 654 5993 5999 5982
4 4273 5993 5182 645
4 5993 1624 5320 1615
4 6235 5182 1616 1607
4 6235 5993 1615 1616
4 5183 5186 5275 655
4 4033 305 4419 4035
4 5510 4035 4449 306
4 4302 3598 4419 4035
4 314 4033 305 4419
4 3209 3502 5705 3220
4 4302 4035 305 4449
4 4302 304 4401 4442
4 5510 4449 297 306
4 6053 4569 5510 297
4 2513 2516 3045 2520
4 3635 4094 4361 5955
4 6326 4330 6123 5713
4 6326 4776 6143 4759
4 3790 3348 3347 4462
4 4157 452 4794 461
4 6326 6123 5976 6143
4 6326 3949 4776 4761
4 4783 459 4774 458
4 5763 277 4051 4370
4 5365 6036 6046 6044
4 6268 4426 6264 1737
4 4012 3518 5480 5481
4 1726 5418 1735 4426
4 2592 2569 198 2200
4 4831 1653 3978 1662
4 4830 2532 2436 2533
4 2569 2201 199 198
4 2437 2569 199 1238
4 4830 2435 2436 2670
4 2670 2532 2671 2569
4 2670 2671 2669 2191
4 2670 2569 2200 2201
4 5876 2112 4356 2103
4 5860 4356 172 1076
4 4356 2103 172 171
4 4356 5869 2103 171
4 4389 5863 5885 6317
4 5860 5885 5863 6317
4 5876 5885 4356 6317
4 3753 750 3754 5327
4 4399 3942 1781 1790
4 5303 6258 5382 1687
4 3944 4364 3943 5028
4 5116 5451 4103 732
4 5443 5436 5902 5337
4 3398 5437 3400 5461
4 4097 1799 6073 4064
4 3944 5492 5122 4206
4 5451 733 4103 732
4 4103 3609 742 733
4 3755 3753 750 3754
4 3052 3224 1202 1211
4 3051 3052 3224 1202
4 3383 2754 3052 2198
4 3383 1211 3052 2754
4 3052 2198 2754 196
4 3331 3417 3223 3418
4 3221 3222 3052 2197
4 5045 4907 4823 4178
4 4822 4909 4824 951
4 4860 951 4909 942
4 4823 4907 517 4178
4 4823 4907 508 517
4 5210 5258 5023 658
4 2841 3458 2837 3811
4 6162 4259 975 984
4 3871 5780 3842 3883
4 3872 3362 4906 3876
4 2525 5165 2060 2061
4 5120 4946 5804 3842
4 5453 3811 3813 2837
4 4996 989 5014 5794
4 3635 3808 3801 3245
4 4982 4983 4978 5486
4 4345 980 4996 4942
4 5792 4943 4980 4981
4 4685 825 29 816
4 4622 4637 4638 382
4 4660 4638 4647 391
4 2443 2671 2190 2191
4 2896 3396 6007 6006
4 3870 5887 5986 5314
4 2409 4124 4020 4063
4 3446 3418 3417 3720
4 2886 3416 6006 5352
4 2671 2200 2199 2191
4 3416 1209 6006 1208
4 3418 1209 3396 3416
4 5507 788 4135 5543
4 5554 4468 4214 5513
4 5251 5544 5509 4725
4 5565 5560 6110 6072
4 4277 4285 4124 4282
4 4674 5560 814 813
4 4287 6263 5569 3330
4 4378 3948 5712 4818
4 3374 2978 2977 3168
4 5394 5042 5047 3462
4 3947 4774 467 458
4 4818 4873 4864 4791
4 5712 4698 476 467
4 5519 6326 4330 5976
4 3295 5695 5693 6213
4 4789 886 6208 885
4 3846 4610 6263 4613
4 5677 5693 1933 1924
4 5695 5693 6213 1934
4 5695 6149 1943 6213
4 5677 5694 5675 3830
4 3283 5668 5719 4598
4 3125 6014 3133 4335
4 5718 6173 1986 1987
4 5756 6300 1978 5741
4 5978 5709 3282 4737
4 5733 5731 1970 1961
4 6300 5741 1969 1978
4 6300 5741 5733 1969
4 4169 5771 4945 994
4 4481 4519 5638 5799
4 4946 5805 5120 1002
4 6212 2525 6312 2052
4 5507 778 4217 779
4 5555 4468 5544 1825
4 5555 1833 5528 5543
4 5555 5528 1834 6274
4 5540 5528 5563 5543
4 6200 5859 5852 6201
4 6316 2087 5088 2096
4 6202 6316 2096 2095
4 5834 5838 5867 5851
4 5854 6201 5869 2094
4 3733 3913 3916 4924
4 5753 5984 6232 5969
4 6241 1611 5130 6323
4 2535 2251 2536 2537
4 5132 6323 1611 1610
4 5677 5695 3295 6330
4 5677 5693 3561 3297
4 5694 4334 3830 1932
4 3830 5675 887 896
4 3830 887 3831 151
4 3948 4802 3949 3947
4 5976 4690 4759 4803
4 2617 4331 4801 3018
4 4788 4761 440 449
4 6152 4595 4761 440
4 4330 6123 6157 4328
4 3949 4783 458 449
4 3949 457 3947 4802
4 4772 6142 6143 1427
4 3946 3949 4783 3947
4 2343 3069 4528 2342
4 5945 5913 2150 2149
4 2904 2497 3603 4272
4 5847 5914 1101 1100
4 3194 1118 5749 4276
4 4522 5636 5635 2059
4 3487 2044 4810 2035
4 4521 4520 5636 2050
4 4520 5785 2042 2041
4 4514 4522 4195 4193
4 4481 5805 4519 5799
4 4521 5815 2040 2049
4 4518 5638 6030 5428
4 4946 5804 993 5120
4 4169 5483 3842 4946
4 2525 6312 2052 2051
4 3359 956 5151 957
4 3358 3359 5770 3360
4 6301 6305 2004 2005
4 3922 1988 5755 5756
4 6230 5704 4341 5706
4 5150 5697 5151 5152
4 2840 3815 4091 3474
4 6301 6165 4087 2005
4 6338 5769 5697 5776
4 6301 5754 1995 2004
4 3924 5164 6165 2006
4 2597 3491 3576 3575
4 3842 4946 5804 4169
4 5789 2031 5759 163
4 5759 2040 4521 5815
4 4517 5805 1002 1011
4 4917 3580 4785 4784
4 5621 4817 5650 889
4 4792 4817 880 881
4 5632 4793 4792 4817
4 5632 4917 5621 4817
4 4768 4785 446 455
4 4817 881 3376 890
4 4817 4811 890 3376
4 4797 4840 4785 4784
4 2568 3353 5500 3352
4 5323 5748 5287 4561
4 4561 5801 1299 1308
4 3596 4555 4531 4210
4 4555 341 4538 340
4 4489 4545 789 4596
4 6179 4137 5477 5497
4 5497 5508 790 791
4 4490 4545 780 789
4 6179 5532 5497 5477
4 2996 5700 5772 5801
4 4020 4354 5608 4029
4 3598 4033 4483 4419
4 4526 332 4555 331
4 3816 3058 5801 2996
4 5287 4353 4561 5748
4 4526 323 4531 332
4 4483 4033 314 4419
4 5642 5232 5022 2102
4 2092 6224 2091 5021
4 5692 3693 5592 6224
4 6218 5212 2090 2091
4 2074 6223 5623 2083
4 6223 4623 6224 2083
4 4084 6305 5774 5776
4 6162 5775 5771 985
4 5789 5771 5797 5775
4 4085 5783 2023 2024
4 5797 2022 6304 2023
4 6162 3360 5770 975
4 4842 41 5723 500
4 5723 41 933 42
4 4842 5723 4884 500
4 4909 5723 42 509
4 5061 3638 3317 5747
4 4860 952 4961 4824
4 3243 4339 4976 3632
4 5166 4086 4085 2024
4 6311 2033 5783 4086
4 4083 5797 5775 6304
4 4188 5797 6304 5775
4 5783 5785 2032 2033
4 5166 4086 2024 2025
4 5635 5848 2069 5165
4 5635 2060 5165 2069
4 6030 5838 5638 5640
4 2525 5165 5636 2060
4 5428 5799 5638 5429
4 4522 5873 2059 5635
4 5470 5829 4825 5909
4 5832 5838 5867 5812
4 4518 5873 5640 4195
4 4371 1752 2872 217
4 2872 1247 217 0
4 2872 123 8 276
4 5763 2872 4051 276
4 4416 6044 4371 6036
4 2872 0 8 123
4 4954 3090 5746 5744
4 6002 4874 4801 6164
4 5482 6311 5784 4092
4 4807 3487 2035 2036
4 3808 4935 4115 4114
4 5545 5091 1532 1533
4 5958 4974 1510 5939
4 3089 5744 3090 5745
4 3991 4414 4558 4537
4 4166 3200 3206 5102
4 5032 570 3206 4168
4 5665 5666 5049 5010
4 5019 4168 4163 4994
4 5818 1015 5049 1016
4 2893 2894 2895 2911
4 5010 5666 1016 1017
4 6155 999 5809 5011
4 6197 4968 3149 5083
4 3632 3628 3631 3633
4 4362 4361 4094 4891
4 4362 502 4891 4890
4 3117 512 3118 521
4 3632 3118 3117 512
4 5095 6194 5939 5096
4 5094 2030 5095 2029
4 4241 4242 4243 6190
4 4250 6166 1484 1483
4 4241 4974 4242 6190
4 4973 6190 5746 1511
4 5101 5958 4973 5968
4 4070 3499 4810 6102
4 4973 1511 5746 1520
4 3027 3055 5526 3910
4 5439 6110 4332 6072
4 3788 3054 775 776
4 5472 787 5526 786
4 3055 786 3910 785
4 3160 3910 795 5561
4 4078 5484 5472 3055
4 3053 794 5547 793
4 1838 1837 5268 4573
4 6186 5737 5741 5718
4 4602 5756 6300 5750
4 6186 5698 5719 5743
4 5756 1979 6300 5750
4 5718 1987 5755 6173
4 5774 5776 968 967
4 4087 2006 6165 5164
4 3357 4087 6165 5164
4 3355 5697 3359 5151
4 4087 2006 5164 2015
4 5478 4989 1965 1974
4 6160 5671 1439 1438
4 5458 1967 5135 1976
4 3653 5962 6161 4883
4 6302 5688 6187 5711
4 5502 1446 5135 1437
4 5134 6246 5135 1437
4 5458 5135 6246 5502
4 2741 6246 6297 6122
4 5134 5458 1967 5135
4 6297 6296 1957 1966
4 6187 5688 5633 5760
4 4373 6035 1717 3518
4 3516 4211 4420 1698
4 3516 4211 1707 3518
4 5037 5011 998 5794
4 5489 5037 4996 5794
4 5027 4446 1001 992
4 3282 922 5720 931
4 3867 6330 4341 3866
4 6148 6292 1945 5672
4 4734 4737 911 4735
4 5674 892 3999 4965
4 5710 4901 918 927
4 5107 5115 3825 5515
4 3435 5108 3798 3952
4 5440 4424 4368 4405
4 5438 3440 6045 4011
4 4123 1619 5132 5133
4 6107 2769 3608 2802
4 4591 5627 6243 6337
4 2549 5795 2891 3856
4 4123 5133 5460 1628
4 3998 3332 3365 3223
4 5105 5190 1638 1647
4 2926 5460 5105 5190
4 2549 2552 5795 4591
4 5845 5203 3915 5409
4 5912 5904 1089 1098
4 4200 4701 5234 5207
4 5888 5842 3760 5936
4 5227 4150 4151 6024
4 4726 5936 5983 3760
4 5759 164 5815 1004
4 5815 2040 165 164
4 5759 4521 4945 5815
4 4514 4517 4193 4195
4 4522 4193 4194 4195
4 4945 4517 4946 1003
4 4522 5873 2058 2059
4 4522 5815 2049 4194
4 5838 1030 5640 1031
4 4514 4519 4517 4195
4 4082 2834 3474 3852
4 4519 5799 1011 1020
4 5428 5638 5821 5429
4 4522 5873 4195 4194
4 5636 5635 2059 2060
4 5634 5635 5636 5165
4 5493 2524 2523 3851
4 5636 5635 2060 5165
4 4729 409 4730 5568
4 4752 4546 4651 4579
4 4678 4683 4638 390
4 3560 3896 3935 4639
4 4415 4621 5568 4730
4 4148 5568 400 409
4 4695 4678 4621 398
4 5145 4678 4683 4638
4 1223 1224 5314 5986
4 5374 1204 5996 1213
4 5996 1204 4183 1205
4 5996 5986 5991 1222
4 3783 1194 5385 5369
4 6269 5374 5369 5996
4 4493 5377 2547 3687
4 4025 2380 4024 4029
4 4294 3612 4089 4146
4 4062 4280 4741 4779
4 5185 5571 3687 4493
4 5377 3687 1339 2547
4 5379 5381 1884 1885
4 5755 1996 6165 6173
4 3923 5755 6165 6173
4 5755 6165 1996 1997
4 3240 3636 3629 3243
4 4145 6124 1864 5608
4 4270 5556 5571 6087
4 4088 4027 6124 4089
4 3452 3178 3372 3451
4 5294 4725 1845 4333
4 5294 1845 5292 4333
4 5292 4333 1845 1854
4 5183 654 5275 5982
4 4274 5752 5253 5275
4 3543 5767 5768 6234
4 5752 5253 5186 5217
4 4273 5183 5993 645
4 3237 5320 2973 6226
4 4273 637 5204 5230
4 6135 4969 6122 1420
4 6137 6135 4969 6122
4 5525 6133 5603 2921
4 6135 1421 4969 1420
4 6260 4455 4403 4404
4 4574 1336 5583 6095
4 4574 4625 5024 1328
4 4525 366 4603 4605
4 5688 5760 1993 1994
4 5688 1985 5717 1994
4 5501 2739 5671 6246
4 6161 5962 1457 1448
4 6168 1457 5347 1466
4 5134 6297 1967 5458
4 3659 6168 6161 5962
4 5884 6176 2000 2001
4 6223 5098 6281 5620
4 4576 5477 4137 4666
4 5477 4588 4666 4576
4 6279 4490 5497 5508
4 4037 4575 4488 4562
4 4485 336 4437 345
4 4486 4067 327 4476
4 6294 3428 4319 4476
4 2435 218 1662 1671
4 2435 218 219 1662
4 2435 2192 219 2201
4 2670 2201 2437 2569
4 2670 1238 2532 2569
4 2544 1339 3687 2547
4 5571 3687 2544 1330
4 6091 1849 5557 1848
4 2544 4270 1330 1329
4 6091 4267 5557 1849
4 5556 4268 4267 4270
4 4258 4256 1187 5338
4 3251 5343 4258 5824
4 5940 5299 704 5371
4 3486 4256 5338 4183
4 5280 4634 5990 5279
4 5279 5369 1194 1195
4 4256 1187 5338 1196
4 4256 4183 1196 5338
4 2930 3444 3486 5338
4 5065 1180 3744 1181
4 5065 3744 5066 1181
4 3725 5963 4045 5066
4 5960 5277 5966 5388
4 5277 5966 5388 1162
4 5944 1172 1162 1163
4 4756 1206 4781 1197
4 3387 5442 5356 5355
4 2930 4258 5819 5338
4 2898 2443 5790 2445
4 5271 5352 1217 4073
4 5270 5271 5352 1217
4 5271 4073 1217 1216
4 3369 3371 4702 5274
4 5732 158 1986 159
4 5678 6173 5732 1986
4 5732 5696 5743 950
4 5273 3736 5274 4218
4 3919 5750 3922 5756
4 3355 3359 5697 5769
4 3359 957 5769 966
4 3359 3356 3355 3125
4 5697 5151 948 957
4 4120 555 4770 92
4 4770 4771 564 555
4 4120 3850 546 5082
4 1516 4120 5082 6175
4 6175 6195 4769 5855
4 3893 6175 6195 5545
4 5058 4967 1515 6192
4 6175 4967 1516 1515
4 5802 5539 4351 6204
4 6162 976 5770 5775
4 6162 5775 4084 4083
4 6305 2005 4087 2014
4 4082 5166 4087 5164
4 5797 6306 2031 2032
4 4188 2013 6304 2022
4 2816 2857 2813 2856
4 5855 5007 4771 3850
4 6107 1377 3766 4715
4 4261 3839 5044 557
4 4261 5044 566 557
4 5059 575 4190 566
4 2858 4190 2849 574
4 5147 5092 5127 607
4 5147 607 5127 608
4 5144 606 5092 607
4 4507 5073 5836 5192
4 5844 5843 1051 1052
4 5149 5154 5147 617
4 5149 5846 5072 1059
4 3977 5147 5163 5846
4 5836 5364 5073 3994
4 4186 687 5306 696
4 5391 4161 5306 687
4 4186 5391 687 686
4 5350 5957 5371 705
4 5326 5331 688 689
4 5350 696 4186 5306
4 3687 3689 3680 5377
4 4145 6124 4146 1865
4 5378 1867 2545 1876
4 3764 4337 5639 4667
4 5040 649 5025 5172
4 5749 1110 5910 1119
4 3715 3857 2169 3717
4 5910 4204 1119 1120
4 3067 3857 3066 5981
4 4530 5913 5297 5946
4 5913 6239 2140 2149
4 2342 3066 5945 5997
4 5749 4276 1118 1119
4 3194 5282 1127 4276
4 4242 6190 4974 1511
4 5742 4973 6190 5746
4 6198 5939 5937 5095
4 4973 4974 6190 1511
4 5917 5778 2019 2018
4 1492 4250 1483 5612
4 4953 3116 521 530
4 3117 3118 3116 521
4 3478 2292 3522 4163
4 5001 4987 2291 539
4 4941 513 4976 514
4 6197 4227 4956 3116
4 6183 5083 4227 5082
4 5499 1286 5500 1295
4 6273 6056 1813 1814
4 6052 1276 5400 1277
4 4132 5499 6272 1294
4 6272 3352 1304 1295
4 6068 6090 4131 6272
4 4132 1293 5534 1294
4 5498 6052 1286 5499
4 4865 4159 4885 4843
4 4238 916 4845 907
4 4843 4877 925 916
4 4812 4842 4865 924
4 5683 4843 4812 4885
4 4845 4843 915 916
4 6036 1744 6046 6044
4 5418 1726 6035 4426
4 4416 1255 6038 1246
4 6036 6044 1743 1744
4 4418 1256 4417 4367
4 2890 55 1059 56
4 5149 1059 2890 55
4 2890 5198 56 1068
4 6181 6153 6244 6243
4 5188 635 2890 5198
4 5072 1069 5246 5858
4 3160 5565 5560 805
4 4559 6131 6130 5577
4 3605 4674 4614 4228
4 4607 2678 2679 4023
4 4674 4030 813 822
4 6110 5435 4332 5125
4 3027 5526 3055 5472
4 6332 5308 5546 5348
4 5307 5285 5247 1095
4 5248 5239 651 660
4 5236 5026 651 5239
4 5904 5329 1097 1098
4 3117 521 3116 520
4 3809 3808 4935 3776
4 4361 4355 6341 4916
4 3117 3633 512 511
4 4633 4781 5314 4183
4 5887 5271 1225 1216
4 5386 5368 5403 710
4 5887 4071 1216 1215
4 5249 1232 205 206
4 1224 5987 5986 1223
4 4589 2875 4185 3870
4 6008 5270 5995 3388
4 4342 5486 5680 4983
4 4975 530 4987 539
4 3115 4953 3116 3118
4 5045 4307 4907 4177
4 2291 3522 549 4930
4 4182 5127 599 608
4 5063 4182 5127 599
4 5163 1041 4182 5064
4 5146 608 5147 5127
4 5844 5843 1052 5364
4 5577 6130 5596 1869
4 5577 1860 145 144
4 5577 5596 145 1869
4 5564 1860 5577 144
4 4559 5586 823 4674
4 4559 824 5577 833
4 5586 814 5565 815
4 6131 5564 1860 5577
4 2693 2253 2549 2548
4 5960 5959 1144 1153
4 3706 5960 4021 5952
4 3706 4022 5960 5924
4 3725 3744 5963 5066
4 3725 4022 5924 5944
4 4337 3766 4667 3764
4 3697 5952 3695 1137
4 3697 5952 1137 1146
4 5282 1144 1135 1136
4 4666 5477 4137 5497
4 5523 5535 3920 5532
4 4575 764 4562 773
4 3888 3453 3912 4037
4 4471 4476 6294 4067
4 4471 6294 4666 6298
4 4576 5477 4588 782
4 5497 781 4588 782
4 4523 4564 338 347
4 4523 338 4321 4320
4 4190 566 4261 5044
4 2705 2335 2337 2751
4 3148 3514 4464 3166
4 3877 2789 5223 3878
4 3308 3310 3621 5827
4 3310 5086 5080 5827
4 2707 2708 3528 2606
4 5406 5890 5839 1063
4 3159 2256 2828 2258
4 5849 3338 3345 5139
4 3208 5067 5081 5063
4 4411 5462 1750 1749
4 3971 299 3976 4395
4 5108 4032 3431 4459
4 4411 1758 3824 1749
4 5512 3431 4457 4459
4 5107 5462 4508 5515
4 3974 4380 3824 4383
4 6260 4411 1750 1759
4 5354 231 232 1545
4 4349 2084 5354 231
4 6314 5354 232 1545
4 4623 5098 4349 5354
4 6314 5354 6281 2075
4 5276 5278 673 664
4 6234 5993 4273 5183
4 5253 5186 656 655
4 5253 656 5186 5217
4 5254 5253 665 5278
4 3766 3764 4337 5396
4 5752 5253 5254 5278
4 3147 5113 5112 4999
4 6219 6221 5113 5085
4 6219 5179 5136 5159
4 4908 611 4167 602
4 3146 4908 4167 4187
4 4152 4187 4167 602
4 2258 601 4999 600
4 6259 1763 5382 273
4 5434 5464 1686 1695
4 5302 725 5455 3609
4 5444 5455 734 3609
4 5382 1762 274 273
4 5303 5382 274 1687
4 5304 5492 5506 1772
4 5445 4098 1779 1780
4 5281 1122 63 62
4 5281 1131 63 1122
4 4076 5393 4847 5930
4 5948 5392 1133 1142
4 4074 5387 4077 5393
4 5907 5269 5326 4161
4 5907 5238 5225 5326
4 1124 5941 1133 1125
4 5948 5941 1133 5938
4 4077 706 5351 707
4 5763 4367 4416 6044
4 5365 5763 6044 6046
4 4416 4367 1247 2872
4 4051 4370 9 1753
4 4051 6044 1753 1752
4 6046 4370 4051 1753
4 5670 6285 1916 1915
4 3110 5396 3766 3109
4 4789 3962 3831 877
4 4789 3296 3831 3959
4 5670 3301 4804 6285
4 3101 3960 4706 3961
4 3961 3962 868 869
4 4789 3606 876 885
4 5424 1715 129 128
4 5107 5515 3825 5462
4 5124 4406 5327 5310
4 5337 5447 4406 5310
4 4254 722 5424 129
4 3951 3471 3599 3472
4 5447 5446 738 739
4 6239 5915 2139 2148
4 3069 5945 5913 5997
4 5911 6239 5985 5901
4 5985 5861 5862 2130
4 2124 4200 5207 5206
4 6293 5899 5256 5863
4 4528 5913 5985 5297
4 5901 5906 1093 1102
4 6247 5946 5297 2141
4 5682 5708 5695 6149
4 3867 3865 5704 4735
4 5708 5695 6149 1943
4 6230 4338 6291 4800
4 4338 6291 4800 1951
4 5708 1952 6149 5699
4 4091 3903 2834 4092
4 4082 3357 4084 3358
4 5166 2015 4085 4087
4 5166 2024 4085 2015
4 4082 5166 4085 4087
4 3474 2834 4091 2837
4 2017 4091 5453 3812
4 3836 4986 5078 4985
4 5919 5079 4501 4506
4 3977 5846 5154 5147
4 3158 5757 4122 4450
4 4980 978 5012 46
4 4980 5012 4981 545
4 5012 46 978 47
4 5012 987 47 978
4 5069 5015 997 996
4 4983 4996 5792 4943
4 5792 5015 988 5037
4 4113 4982 5012 554
4 4609 4604 351 360
4 3538 5141 6033 4658
4 4608 369 4653 4630
4 4539 4587 364 4566
4 2497 2510 2500 3700
4 4225 362 4636 371
4 4658 4636 372 371
4 4637 383 4685 392
4 5534 6048 1284 1293
4 4054 6273 6049 6062
4 4296 4316 4317 6071
4 4322 4318 1266 4055
4 5400 1267 5401 1268
4 6052 5499 1285 1286
4 3752 5498 5500 5499
4 4132 5534 5499 1294
4 4541 5533 3750 4540
4 6077 5727 3122 4738
4 5045 4177 4907 4178
4 4961 4979 961 962
4 5030 4944 4979 4942
4 4177 517 4907 4178
4 4977 4177 526 525
4 4308 4977 4932 4177
4 4977 3707 525 534
4 6107 3766 3108 3763
4 4342 4308 4983 5680
4 4982 5792 5012 4981
4 5488 5009 4993 4978
4 5009 4993 543 552
4 4978 4993 4964 543
4 5033 4994 552 561
4 5486 5037 5792 4996
4 4308 4977 4983 4978
4 5032 4168 561 570
4 5818 2947 1025 5666
4 3564 6155 3574 4922
4 5487 5009 5039 5033
4 4113 996 5069 5050
4 4445 5420 5483 3842
4 5075 5011 5037 5794
4 5009 552 5033 4994
4 2815 3663 6275 2813
4 2857 5059 4190 5044
4 3531 4189 575 584
4 5059 566 4190 5044
4 5059 566 5044 567
4 3692 5087 4007 4886
4 2830 2828 2829 3997
4 5742 6190 4973 4974
4 5100 2046 6205 2037
4 5100 6180 2047 6198
4 6203 5968 1519 1528
4 6210 1529 4199 1538
4 5958 1519 5968 1518
4 6168 6161 5962 1457
4 6168 6172 1465 1466
4 6168 1456 5633 6161
4 6302 5688 5524 5633
4 5761 1473 6163 6126
4 6302 6168 5633 6161
4 5678 5718 5679 5737
4 5678 5732 5743 950
4 5732 1995 159 1986
4 5696 5697 949 958
4 3466 5698 5152 4598
4 6186 5755 5718 5756
4 5150 5698 5697 5152
4 5718 5755 1987 5756
4 6107 3766 1377 1378
4 5706 5691 5681 4800
4 6288 5733 5740 6291
4 5709 4737 912 921
4 6230 6291 4338 5733
4 3120 4598 938 929
4 6230 5682 5708 4800
4 4112 5706 914 5715
4 6288 3282 5709 5720
4 4112 1950 6291 1959
4 2835 2633 3173 3496
4 3499 2522 4810 6102
4 2833 2832 2838 3092
4 6311 5783 2033 5785
4 5837 6212 2044 2053
4 6311 4520 5785 2042
4 1386 3766 4667 4337
4 4430 5260 5491 4399
4 4329 6123 4328 5977
4 5713 1425 6123 1426
4 4328 6157 1424 1425
4 3949 4788 449 4761
4 450 4593 4026 3402
4 5660 5661 1433 6159
4 4805 6136 1413 1422
4 3897 4331 5961 6144
4 4788 440 4595 441
4 2784 4196 5070 2953
4 6076 1583 3614 1574
4 5021 3693 5168 6211
4 6076 3614 1583 6225
4 4150 6024 5643 5841
4 4052 5000 3749 4010
4 4886 5806 1565 4888
4 5806 4888 1574 1565
4 5002 3649 6211 3691
4 3333 6335 2645 4410
4 5686 5463 4064 4065
4 3944 4430 5491 6339
4 5306 4161 4849 5331
4 5907 5269 5238 5326
4 5391 678 4161 687
4 5269 4161 678 679
4 4430 5028 6339 3944
4 2539 4628 2540 4127
4 5225 1114 5931 1123
4 4769 4771 2815 4960
4 6185 6175 5058 4967
4 2815 4771 5855 4261
4 4769 1534 6195 1525
4 3663 5044 4261 3839
4 6195 5545 1533 5091
4 3665 3663 6275 5855
4 4769 4770 4120 3850
4 4343 4345 4942 4979
4 3805 2293 3804 3523
4 4978 4977 534 3707
4 541 3522 3521 4930
4 4171 527 4962 536
4 4171 4978 535 4981
4 5055 3965 4630 4650
4 5781 4694 6095 5583
4 4546 5142 4651 4579
4 4597 4625 4554 5024
4 4534 4604 4626 359
4 4630 4604 360 359
4 4608 4630 4604 360
4 5823 5291 6093 4226
4 5159 620 5097 629
4 5129 4050 4048 5130
4 5204 629 4284 638
4 3343 5097 5204 5159
4 5159 620 4348 5097
4 5179 5136 5159 619
4 5158 618 5179 627
4 5157 5085 5158 618
4 5864 5230 5204 4284
4 3001 2972 3013 5341
4 5082 537 3150 4227
4 6197 4227 5083 4956
4 4953 530 4975 3116
4 6215 6191 4968 6192
4 4975 3116 530 529
4 5001 5007 3850 547
4 3891 5001 4975 4987
4 3149 5083 1499 3150
4 3709 3941 3757 3942
4 5817 4731 5400 4434
4 3751 4054 5400 6062
4 3556 5817 4731 5400
4 4317 4322 4054 4055
4 3051 194 2197 195
4 3051 195 3052 1202
4 3051 2197 194 2196
4 3221 3051 3052 3224
4 3221 3222 2197 2188
4 3284 1184 4503 2572
4 3284 193 2196 194
4 3221 3223 3701 3224
4 3388 4184 5271 5995
4 2873 3386 3388 2897
4 4633 5996 4183 5314
4 4634 5990 5368 5342
4 3870 5887 4071 4073
4 4184 5987 1224 1233
4 4184 1225 5271 5995
4 5314 4071 5887 1215
4 5887 1216 4071 4073
4 5136 620 5159 619
4 4908 5136 611 4348
4 5085 4167 610 4999
4 3344 5136 4908 4348
4 5289 5316 674 683
4 5155 5278 665 674
4 4915 6010 3387 5442
4 2882 5391 4161 5306
4 5258 5254 5217 657
4 3654 3253 3655 5391
4 5753 5241 5969 6232
4 5230 638 4284 5300
4 5140 5872 6220 1606
4 3236 4049 5923 3619
4 2612 4108 5962 4883
4 5729 5730 5672 1945
4 3794 5647 4901 5641
4 5269 5211 669 5296
4 5099 6205 6180 5216
4 4061 5215 5626 5216
4 3089 4971 4199 5746
4 5354 6223 2084 4623
4 4199 1520 5746 1521
4 6203 4973 5746 1520
4 6224 6218 5212 5592
4 3982 5778 6176 6188
4 4940 5744 6190 1512
4 6168 5347 6172 1466
4 3586 6167 6166 6172
4 6194 5096 4242 4974
4 5099 5100 6180 6205
4 6207 6188 2011 2010
4 5345 6166 4250 5619
4 4055 1805 1796 263
4 6273 1805 4055 6049
4 4055 1805 262 6049
4 3751 5533 3750 4541
4 4432 4430 4399 5260
4 4983 4978 4171 4981
4 5009 4978 543 4993
4 5680 4964 4978 4993
4 5487 5039 5490 5033
4 4112 5722 5715 923
4 4112 155 5722 923
4 5722 1959 156 155
4 5679 5722 156 932
4 5679 5722 5720 5741
4 4112 5715 5740 6291
4 5487 5039 5015 5069
4 5485 5032 4994 5033
4 3199 3206 5067 3196
4 3206 579 3196 578
4 5032 5033 561 4994
4 5032 561 5033 562
4 6188 3587 5882 6176
4 5334 5612 6163 6166
4 5346 1485 5345 1476
4 5345 4250 3571 5619
4 6166 6172 1475 1474
4 6167 6166 6172 1475
4 6166 5334 3586 6163
4 6302 6031 3659 6032
4 3571 5345 4920 4249
4 4889 4248 494 485
4 3544 3553 3546 3545
4 4117 4116 1460 1461
4 5047 4873 4856 4910
4 4372 4374 11 1755
4 3974 3976 4429 4383
4 4372 1754 11 10
4 4372 4370 1754 10
4 4405 4368 6046 4370
4 4405 4372 1754 1755
4 4100 4618 403 4096
4 4100 412 4717 411
4 4617 4618 404 403
4 3833 4717 4617 4705
4 3282 5709 921 4737
4 6288 5740 5733 5741
4 5758 1970 5733 5731
4 3553 6087 6091 6067
4 3283 5668 3282 5719
4 5712 3947 467 466
4 5043 4247 4863 4698
4 4863 4247 476 4698
4 4873 4856 483 484
4 5263 3300 3544 3298
4 1444 4858 1453 4864
4 4378 3948 4818 4864
4 4863 476 4247 485
4 5047 4863 4889 4856
4 5028 3742 5031 5461
4 4929 3227 3011 3742
4 2502 2504 3009 6071
4 2503 5317 1793 5319
4 1775 1784 4212 6082
4 3553 5609 5262 6087
4 3442 2684 2685 3439
4 3936 5972 4012 4011
4 2504 5317 1784 1793
4 6219 5920 5205 5872
4 5179 628 5181 627
4 6221 1598 5158 6220
4 5867 6316 5868 2086
4 5868 2086 6316 2095
4 6202 5868 6316 2095
4 2929 5998 2539 3253
4 6021 5833 5853 4237
4 5813 6316 2086 2087
4 5471 5865 5814 5813
4 4221 4685 4222 825
4 4637 4646 4222 4685
4 4641 5567 4222 816
4 4685 816 4222 825
4 5558 4566 4646 4587
4 5558 4219 4622 4646
4 3381 4288 3379 3380
4 4753 4181 417 426
4 4792 4793 5648 871
4 4707 870 34 861
4 4148 410 4729 409
4 4730 5568 409 408
4 4728 419 4754 428
4 3538 4622 5141 4658
4 5141 4683 4622 4638
4 4646 4641 4685 383
4 4660 391 4647 400
4 4646 373 4587 4566
4 4683 4638 390 381
4 4622 382 4638 381
4 4683 381 4658 4622
4 5067 588 3196 579
4 3204 580 5067 579
4 5017 572 4966 571
4 5032 3204 570 571
4 2848 2857 5059 4190
4 4844 915 39 906
4 4844 38 906 39
4 4865 4844 4843 915
4 4844 4815 906 38
4 4844 4815 473 5649
4 4865 4885 4159 482
4 5691 1950 154 1941
4 5691 6291 1950 4800
4 5691 1941 154 153
4 5706 5691 4800 6291
4 4112 5706 5715 6291
4 4334 153 5691 905
4 5681 896 4334 905
4 6330 6208 5681 4341
4 6230 4800 5706 4341
4 6263 1879 3330 6130
4 4613 6131 6263 6130
4 6263 3330 1879 1880
4 6263 3330 1880 5569
4 4286 6263 6278 1871
4 4635 4139 3961 4706
4 5066 4045 4359 1190
4 2689 3446 3449 5068
4 3696 5952 5282 3695
4 4714 3705 5944 5963
4 4756 4781 1206 4071
4 5963 3744 1172 1181
4 5648 4793 870 871
4 5594 5604 852 853
4 4754 32 852 33
4 4709 4645 436 437
4 3792 3124 3119 4917
4 3653 6161 6160 4883
4 6032 5478 5479 4989
4 6160 1448 6161 1447
4 4827 4883 6160 4829
4 3251 6347 5372 4257
4 4461 309 4458 3433
4 4480 4479 320 311
4 4461 319 4476 318
4 3957 764 4488 755
4 4458 4149 317 318
4 4459 4395 291 300
4 4461 309 3432 310
4 5436 5422 3393 3400
4 2994 2999 5700 4552
4 4512 4477 6331 325
4 5964 6094 4090 4096
4 6094 6100 4229 1364
4 3083 5625 4746 6121
4 6094 4229 4090 4671
4 4229 4090 393 384
4 4648 4649 377 376
4 4042 377 4650 378
4 4539 354 4544 355
4 4563 4590 355 4544
4 4539 354 4435 4544
4 6279 4490 4489 4590
4 4539 4544 4563 355
4 4620 4563 4668 4596
4 3536 4539 4636 4586
4 3249 3252 6308 5875
4 5454 5445 6039 4098
4 2647 4214 3139 5686
4 2686 3742 3703 3011
4 5078 5144 615 4986
4 5188 5079 625 634
4 5154 616 5144 5147
4 5194 5188 635 634
4 5072 5188 5154 2890
4 5149 5154 5072 5846
4 5072 5188 2890 5858
4 5919 5073 5072 5846
4 2868 573 2849 582
4 2505 2258 2828 2256
4 2849 583 4350 2505
4 3146 4152 3660 4187
4 3249 4847 4848 4849
4 2830 2817 1552 1551
4 3997 1562 1553 2505
4 2849 2848 4190 2858
4 2258 2505 4350 592
4 5994 6019 6008 5995
4 2885 3417 2887 3365
4 6250 1219 1220 1229
4 3450 3396 6250 6007
4 5791 6011 3386 6019
4 5270 6006 1218 1217
4 4620 798 4668 807
4 4489 4490 4545 4590
4 5558 4566 4668 5567
4 5567 4222 816 817
4 4681 5567 817 4222
4 4620 4641 5567 4566
4 4646 4685 4641 4222
4 4641 4685 816 4222
4 4620 27 4641 374
4 4722 5877 4611 4693
4 3548 3401 4799 5964
4 4693 6100 1355 4230
4 4649 368 4630 4650
4 4649 368 4650 377
4 4722 1337 1346 1345
4 4626 359 4630 368
4 4693 1345 4722 1346
4 4603 4626 4605 367
4 5280 5385 5372 5279
4 3965 4626 4721 4723
4 5781 4694 4676 6095
4 4192 5529 4218 5530
4 4676 4694 1335 6095
4 4676 4694 1334 1335
4 4317 6273 1804 1805
4 4317 4318 4055 1796
4 4318 1787 264 1796
4 4318 1257 264 6058
4 4316 4315 6058 1787
4 4171 536 4980 4981
4 4980 4943 978 969
4 4980 46 5012 545
4 4962 4943 969 4944
4 4273 6235 5181 5182
4 4273 5181 636 5182
4 6235 5993 1616 5182
4 6235 6220 5180 1607
4 5181 6235 6220 5180
4 4273 637 5230 646
4 5181 6235 5180 5182
4 5921 5872 6219 6220
4 4725 5250 5125 4333
4 6072 5527 5439 5565
4 6072 5560 3160 5565
4 4332 4725 4333 1844
4 6004 3160 4673 5561
4 3058 4352 3820 5287
4 4626 4630 359 4604
4 5669 4626 4604 4630
4 4482 5814 5635 5848
4 5814 6216 2078 5848
4 5865 5813 5812 5814
4 6306 2032 5785 2041
4 5759 2040 164 2031
4 5789 5759 5771 995
4 5782 4169 6162 5771
4 5797 2023 5783 2032
4 4521 6306 2041 2040
4 5759 5815 4945 1004
4 5782 4169 5771 4945
4 4952 5093 5612 5094
4 6194 5096 4974 5939
4 5096 5939 5095 1509
4 4242 4974 5096 1510
4 5096 4974 5939 1510
4 5093 5612 5096 1500
4 5096 5095 1500 1509
4 5619 4250 5612 6166
4 5107 3505 3506 5467
4 3506 1731 5467 3505
4 4511 5311 5446 5310
4 5436 3393 5422 5421
4 3393 5421 1731 1722
4 3393 5421 1722 5422
4 4752 4579 5553 4148
4 4724 417 4753 4181
4 4728 4754 419 4729
4 4765 4180 426 435
4 4753 4730 418 417
4 4728 4753 4730 418
4 4707 861 5648 870
4 5684 4238 4877 4845
4 5061 5747 4859 4928
4 4158 4159 472 5649
4 5727 5647 5728 5710
4 4159 4845 4843 4844
4 5684 3793 4159 4160
4 4880 4160 481 480
4 5212 5592 3693 6224
4 5482 3499 2522 4810
4 4826 5138 3859 5909
4 5692 3649 5257 5806
4 2080 3861 2081 5138
4 4826 4060 5831 5449
4 4390 5643 5406 4155
4 6319 2080 5156 3859
4 6319 2079 5156 2080
4 5542 1798 4064 1807
4 5542 5562 1806 1807
4 4078 6104 3027 5554
4 6073 4065 4064 1799
4 3757 6039 3942 4097
4 5542 5562 4216 5475
4 6042 6043 3756 6344
4 6042 4099 4097 4064
4 5228 6316 5813 5088
4 5813 5814 6216 2078
4 5834 1040 5851 1049
4 5813 6316 2087 5088
4 5867 5813 2086 2077
4 2383 3019 3846 2379
4 4281 1881 4286 1872
4 4610 4286 6263 6278
4 5578 5579 839 4101
4 4285 4019 4144 4286
4 4799 4650 4648 4649
4 6004 4673 5560 4674
4 6127 1881 4281 1882
4 4565 6170 4619 379
4 4741 1882 6089 1883
4 4080 744 20 735
4 4461 310 4480 319
4 4407 1760 4427 4408
4 747 4209 748 5446
4 4397 4479 4547 753
4 4080 4475 311 4479
4 3429 4480 4461 3432
4 4319 4476 319 328
4 3428 4461 4319 4476
4 4347 5881 2127 2136
4 4347 5881 2136 6231
4 4346 5881 4205 2127
4 6327 2137 6322 2138
4 2138 5315 2129 6322
4 5232 4346 5169 2119
4 4697 6181 6061 5793
4 6325 6231 2136 2145
4 6280 4360 6322 6229
4 3702 5481 3517 6063
4 4430 5028 6177 6339
4 3987 3494 5504 6065
4 3470 3389 3395 3394
4 6262 5505 4013 5504
4 6063 1709 3517 1700
4 5481 6069 1718 1709
4 4011 6035 6271 6055
4 5481 6271 1718 6069
4 5717 5662 1464 5633
4 3457 3592 5777 4988
4 2298 2637 2388 2390
4 5773 6176 2001 6188
4 5773 6188 2001 2002
4 5760 5761 2002 2003
4 2533 6007 6250 1228
4 3383 2199 2671 2592
4 4357 6011 1656 4358
4 2897 3388 6008 5791
4 6022 3978 2442 1663
4 2533 6008 1227 1236
4 3838 3529 2857 5059
4 2817 4046 1552 1543
4 2816 2830 2817 4046
4 2848 4189 4190 5059
4 4960 2817 1543 4046
4 5193 58 5247 653
4 5247 1086 59 58
4 5193 5247 5243 653
4 5285 5247 59 662
4 5245 5237 5285 5307
4 5003 6280 2584 2956
4 5193 5243 5546 5272
4 5919 4501 4507 4506
4 5797 6306 2032 5785
4 4084 6338 5776 5769
4 6305 4085 2014 4087
4 6304 6305 2014 2013
4 5786 2013 161 2004
4 5769 5776 5774 967
4 5786 160 2004 161
4 6166 1474 6163 6172
4 3813 5778 2009 6176
4 5334 6163 5612 5613
4 5778 3982 5917 6207
4 2711 3534 3531 3530
4 5094 5096 5614 5095
4 4251 1503 4249 1494
4 5902 3787 4453 3785
4 4453 5421 3785 1732
4 4018 5361 3953 5447
4 3252 5824 5811 3743
4 4453 1741 5462 5467
4 4508 4453 5462 5467
4 3506 1731 3393 5421
4 1740 5467 1741 1731
4 5439 5528 1842 5563
4 5576 5439 5527 5565
4 5439 6274 4332 1843
4 6110 5298 5435 5125
4 3251 6347 5951 5372
4 5439 1843 4332 1852
4 6087 5262 5557 5556
4 5185 5189 5571 5511
4 4570 4572 1831 1840
4 6088 1320 1312 1321
4 6037 6090 1313 1312
4 5571 6037 5511 1322
4 6257 4510 270 1766
4 1765 5465 6081 4510
4 3249 6308 3251 4847
4 4510 1765 271 270
4 4326 4510 271 1684
4 5304 4206 1763 5382
4 6166 1483 6163 1474
4 5807 1474 6163 1473
4 5346 3571 6196 3807
4 3586 5807 6187 6172
4 4952 5613 5612 6163
4 5615 5094 5096 5614
4 6005 6254 2173 2172
4 6018 5787 6236 4872
4 5191 2445 2442 2444
4 4357 1655 5191 1646
4 4871 4872 6249 4869
4 2444 2889 4357 5190
4 3978 2443 2669 2668
4 2357 2899 2359 2354
4 3540 4236 6343 5517
4 4224 353 4586 362
4 3180 3920 5559 6179
4 4207 3920 3700 3384
4 5843 5073 1060 1061
4 3977 5154 5078 5144
4 3993 5844 2913 5364
4 5146 5127 4182 608
4 5843 1052 5364 1061
4 5364 5836 1061 1062
4 3614 5806 1574 1573
4 5220 5143 5221 6225
4 4360 1609 5214 5110
4 5171 1583 6225 1592
4 5003 5570 6229 5651
4 5642 5022 3649 5056
4 5806 3649 5257 1564
4 6076 1574 5806 4888
4 4189 5059 575 4190
4 4189 4190 575 574
4 3531 4350 4189 584
4 3532 3660 585 594
4 4350 2505 2258 2828
4 2830 2816 2856 2829
4 3130 3690 2830 1551
4 4196 4197 6217 3338
4 4778 4765 4733 4763
4 4765 4753 426 4180
4 4708 4709 4645 4793
4 3407 4733 3580 4763
4 3378 4792 3380 3376
4 3381 4288 3380 4792
4 5618 4728 5648 4709
4 5903 4181 4753 4180
4 6042 4098 4097 4099
4 6073 1800 4400 4065
4 3422 5016 3755 4451
4 3251 6347 4848 4847
4 5476 5466 5474 752
4 3755 4451 5016 750
4 3756 5016 4215 4006
4 4451 5016 750 759
4 5440 4368 4424 6053
4 3975 3894 3976 3971
4 4382 14 4068 282
4 4424 4429 280 4374
4 6268 6267 1746 1747
4 4380 6267 1747 1756
4 6268 1738 6266 1747
4 4461 3433 3432 309
4 300 3432 4459 4457
4 4457 300 3432 309
4 4403 5462 1741 1750
4 4139 4706 850 859
4 3578 4139 4232 4141
4 3959 1905 3961 4232
4 4635 4139 4706 5607
4 4706 849 5607 850
4 3578 148 1896 149
4 3578 1905 149 1896
4 3960 3961 3962 868
4 3101 4232 3233 6285
4 1905 3959 6285 4232
4 2853 3120 947 3133
4 3476 3981 3571 5619
4 3362 5690 4906 6014
4 5489 5014 5076 5794
4 3354 3357 3358 3355
4 5810 4122 1009 4450
4 2349 3481 3475 2347
4 3573 2600 3533 5357
4 4958 4991 962 963
4 4311 4958 4905 4991
4 5440 4405 5417 6268
4 4405 1754 4372 4370
4 4405 6046 1745 1754
4 5762 4836 4303 4449
4 4568 5365 5762 3527
4 4405 5417 6268 1746
4 5762 4449 4303 6053
4 5467 3825 5107 3505
4 3252 6308 5811 5824
4 5415 5414 4428 4129
4 3825 5462 1740 5467
4 4068 14 1758 15
4 4427 1751 4455 125
4 4477 6078 325 334
4 2302 2305 2304 3041
4 5938 5284 4849 5932
4 5894 5495 5931 1115
4 5225 5932 1122 1123
4 5245 5237 662 5285
4 5894 1115 5931 1114
4 5907 5326 5225 5932
4 5309 5308 5195 5894
4 5326 5224 689 680
4 5195 5328 5308 5329
4 5931 5495 1124 1115
4 5938 5932 1123 1132
4 5281 5331 5284 5932
4 5225 1123 5931 5932
4 3891 3665 6184 5001
4 4168 4994 560 4163
4 5052 3208 5081 5053
4 4168 560 4994 561
4 3204 579 3206 570
4 4473 314 4033 315
4 4839 5366 4442 4443
4 5925 4033 4035 306
4 4552 1290 4553 5700
4 3595 4473 4531 4526
4 4483 314 4473 323
4 5404 5941 5283 1134
4 5975 5931 5495 1124
4 4021 5952 5960 1144
4 5875 5404 5941 5283
4 4191 5959 5966 1152
4 3613 1573 3649 5806
4 3613 3649 3691 5806
4 5692 3649 5021 5022
4 3613 5642 5570 5232
4 5056 3648 1563 4349
4 3613 1572 5642 3649
4 5558 4646 4622 4587
4 4539 5558 4587 4566
4 4711 818 4681 4684
4 4688 800 4236 809
4 4688 4684 809 5517
4 5870 4688 4668 5508
4 4221 835 4580 5553
4 4684 809 5517 818
4 2892 2895 6313 5874
4 2892 2895 5077 6313
4 5431 1037 4237 1046
4 6199 6202 4154 6200
4 4052 3747 4010 3749
4 6293 5863 4389 6317
4 5856 5841 1055 1046
4 3250 3252 5875 3743
4 5077 2913 1044 1053
4 5406 5643 5644 1064
4 4528 2341 6239 2343
4 6307 5927 5297 5862
4 6307 5985 5899 5862
4 6293 5862 5878 5927
4 5255 5409 1083 1092
4 5256 5863 1075 5646
4 6072 5565 3160 5527
4 6344 5542 4064 5541
4 6104 5496 5513 5541
4 3139 5484 5051 4006
4 5261 4631 6060 5509
4 5562 4468 1815 1816
4 5542 5541 1807 4064
4 5562 4217 4467 4468
4 4130 4364 1693 1694
4 4326 1765 4510 5465
4 6339 6081 6082 5465
4 5425 4364 4130 1694
4 4326 5465 1764 1765
4 6259 5464 4326 1685
4 6261 4510 1684 1683
4 5464 4130 1685 1694
4 6259 4206 1763 1764
4 4103 750 3753 741
4 3758 4103 3755 3753
4 3609 742 5466 4103
4 3251 5951 6308 5824
4 4103 3753 732 741
4 5116 4103 3753 732
4 3758 5451 5454 4103
4 5118 5451 5116 5450
4 5117 5121 6258 1696
4 5116 4447 5450 732
4 5444 3609 743 5466
4 5466 4098 5444 3609
4 5506 6039 1781 5492
4 3391 3392 3507 5673
4 5122 5492 5304 4206
4 5303 6258 1687 1688
4 4392 4268 1867 1858
4 4268 2545 1867 1868
4 4267 4269 4268 1859
4 2544 1329 4325 4270
4 4268 4325 2544 2545
4 4228 3605 831 5605
4 4228 3605 822 831
4 3846 6263 4287 4613
4 4613 4228 5597 5605
4 4613 3845 4228 5605
4 4674 822 3605 4030
4 5203 5409 4384 3915
4 5440 4569 4424 3972
4 4836 4035 4302 4449
4 6330 6208 5677 5675
4 3866 3865 5664 4341
4 4789 3831 5675 886
4 3561 5677 3831 1923
4 4789 5677 6208 5675
4 5664 6208 4341 894
4 4739 919 4736 920
4 3295 5693 6214 6213
4 3262 2850 3264 3281
4 5904 5348 5893 1088
4 5895 5237 5071 5238
4 5236 5218 642 5170
4 5235 1080 5893 5192
4 5893 5349 1079 1088
4 5679 5741 5720 5737
4 5679 1977 157 1968
4 6288 5715 5720 5709
4 5698 4598 939 5152
4 5698 940 5743 949
4 5698 5719 939 4598
4 4602 5756 5741 6300
4 5719 4598 930 939
4 5668 5719 4598 930
4 3283 3466 4598 5719
4 3922 5755 1988 1997
4 3359 5769 957 5697
4 2840 3457 4121 4988
4 3361 6162 3360 3358
4 3356 3921 3357 3355
4 4922 3871 5780 4919
4 5558 4684 4681 5567
4 4637 382 4646 383
4 4681 4684 817 5567
4 4221 4580 835 4220
4 4895 4219 4579 5142
4 4658 4587 4622 372
4 4680 4711 4681 4684
4 3699 6001 5375 5522
4 4678 4660 390 4638
4 4579 5553 4647 4221
4 3539 4688 5517 4684
4 4221 5553 834 835
4 4221 4582 834 5553
4 4647 5553 4148 4710
4 4682 3323 4220 836
4 4580 835 4220 836
4 6178 1488 4245 4916
4 6178 4245 1488 1497
4 3801 6341 3802 4916
4 6191 1497 6178 4968
4 6344 4215 4451 4216
4 5119 5121 5117 4314
4 6073 4064 6043 4097
4 4451 4216 760 4452
4 3755 4451 751 4452
4 4334 1932 153 152
4 4334 5691 153 1941
4 4334 3830 896 5675
4 5694 1942 5708 4800
4 4385 5936 5857 5203
4 4334 5691 1941 4800
4 5681 895 6208 5675
4 5955 4366 5229 4891
4 4856 6299 4889 5047
4 4246 496 4893 495
4 4385 5936 4727 5889
4 3948 3947 4818 4802
4 4093 4911 4918 4116
4 3463 4093 4116 4117
4 4911 4918 1461 1462
4 4110 4117 4116 1460
4 4879 4899 489 4902
4 4879 4902 489 4880
4 5684 4843 4159 4845
4 4880 481 4160 4885
4 4879 4814 4160 480
4 5736 4879 4902 4899
4 4845 4816 906 4815
4 5650 4817 4811 890
4 3099 5650 4817 4811
4 3119 5701 4917 5650
4 4917 5621 4840 4785
4 5832 2076 5851 168
4 5854 5851 5868 2085
4 5834 5833 1039 1048
4 5867 2086 5813 6316
4 5851 168 2076 169
4 5851 2085 169 2076
4 5832 5867 5851 2076
4 4219 5141 4638 5142
4 4579 5568 4660 4148
4 4580 836 4220 3323
4 4231 5979 4732 4288
4 4580 4278 845 3323
4 4580 836 3323 845
4 4765 4733 436 4645
4 5618 4709 4765 4753
4 5979 4729 4728 4730
4 4792 880 4817 4793
4 5618 4753 5979 4728
4 4792 4817 881 3376
4 3766 4667 4715 1377
4 2802 2800 2803 3763
4 4142 4745 1380 1371
4 4667 4715 1377 1376
4 4667 1376 5176 4715
4 5313 4995 6121 5395
4 3108 2769 3608 6107
4 5549 5175 5550 6118
4 6067 4267 1841 4413
4 6087 6088 4131 6090
4 4540 1821 4787 6075
4 5534 6227 6048 1293
4 6068 3353 6272 4132
4 3545 6270 4572 3546
4 6091 1848 5557 6092
4 3553 4572 6067 6091
4 4345 4991 971 4979
4 4345 4996 4342 4942
4 4345 4996 980 5014
4 4343 4345 4979 4991
4 4345 5014 980 981
4 5014 4345 4996 4342
4 5486 5018 3480 5488
4 5030 4983 4943 4942
4 6289 1920 5655 5624
4 6289 5655 1920 1929
4 4498 6289 5655 5624
4 2921 6283 4498 2332
4 4853 74 208 3
4 4852 74 4853 708
4 4853 208 75 3
4 4852 5336 4853 1230
4 4853 1679 75 208
4 4854 4855 4853 1679
4 4840 5650 5701 898
4 4816 4815 897 906
4 4784 464 4815 5649
4 4845 4844 5649 4815
4 3792 4816 4845 5649
4 4238 907 5701 908
4 5579 840 5607 849
4 3050 4706 5579 5607
4 3677 5579 4101 5607
4 5579 839 4101 840
4 2982 6334 4499 3570
4 2376 4029 3615 4020
4 2383 3677 3848 3845
4 5236 5248 5239 651
4 4421 5236 5239 5026
4 6129 5627 6153 6243
4 5236 5218 5243 643
4 5236 642 5218 643
4 4928 4813 935 934
4 4310 3639 5514 3317
4 4813 926 4877 4876
4 4814 4160 5800 4879
4 4921 5588 5590 5589
4 4812 4859 933 934
4 4813 926 4876 935
4 5533 3752 5499 6052
4 4573 1829 4787 3546
4 4385 5983 3914 4726
4 6335 4716 3333 6074
4 5294 5167 5261 4725
4 4631 5496 1827 5509
4 3482 4412 3909 3908
4 4677 4478 6331 5370
4 4917 5650 5621 4817
4 4768 4840 5621 4785
4 5621 4817 880 4793
4 5621 880 4817 889
4 4840 5621 889 888
4 4768 5621 4645 4785
4 2487 5658 5674 4965
4 5598 6100 1363 1354
4 4629 3737 5598 5964
4 5734 4618 4043 4616
4 4693 6100 5598 1354
4 4675 1344 4694 5583
4 5877 5781 4723 5583
4 5645 4390 5406 4384
4 3401 6112 5598 5657
4 4671 4090 4096 393
4 5573 6094 5964 4096
4 5734 3827 4616 4041
4 5657 5598 1363 1362
4 4100 402 411 4691
4 5468 4479 744 753
4 738 3953 737 4448
4 4488 3956 3957 755
4 4397 4319 329 4320
4 3429 3430 3431 3427
4 5468 753 4547 4479
4 5468 4547 4480 4479
4 4475 4480 310 311
4 4397 21 753 22
4 5976 6143 6123 4803
4 6123 6143 1417 4803
4 6123 1416 4328 5977
4 4329 5977 5976 6123
4 6123 1425 4328 1416
4 6326 5713 6123 6143
4 5861 5862 2130 2121
4 5861 2130 174 2121
4 5861 2121 174 173
4 5860 173 5861 1085
4 5899 5862 5861 5863
4 5960 5388 5966 1153
4 3721 5973 3724 3726
4 5924 1145 5952 1146
4 3697 5924 5952 1146
4 4022 5960 5924 5944
4 4951 4362 510 4882
4 4951 4355 4362 4882
4 4366 1480 4355 4916
4 2281 1481 4366 1472
4 4951 3117 511 3633
4 4362 4891 502 501
4 1481 4882 2281 4355
4 6341 3116 4956 3117
4 4384 5409 5857 5645
4 3678 4548 5748 4504
4 3596 4526 4600 4504
4 3943 4364 5425 5461
4 6345 6340 3027 3029
4 4431 4430 3944 5028
4 6339 3944 4130 5465
4 4430 4399 5491 5319
4 4399 5491 1782 5492
4 3894 3976 289 288
4 4380 3973 4301 6266
4 3552 1270 4509 1279
4 299 3976 4395 290
4 3976 3971 298 299
4 297 4569 5510 3894
4 4429 281 4383 290
4 4381 12 1756 13
4 4429 6267 1756 4374
4 3594 4548 5772 3901
4 5273 4192 4218 5530
4 5323 4561 4548 5748
4 4548 5748 1300 1301
4 3686 3679 312 4401
4 3595 4483 4473 4526
4 2996 5772 4561 5801
4 4548 4561 1300 5748
4 5050 1005 49 996
4 5050 48 996 49
4 4113 996 5050 48
4 5069 5054 5017 5050
4 4113 5039 563 5050
4 5069 5054 1005 1006
4 3519 3312 4386 5891
4 5904 5329 5348 1097
4 5308 1097 5329 1106
4 5895 5907 5238 5225
4 2880 5211 5265 5269
4 3672 3914 4385 3915
4 2924 2772 5441 3620
4 5908 5894 5495 5931
4 6324 5546 5272 5348
4 6332 5243 5245 5236
4 4275 1651 5244 5240
4 3620 1631 2973 5969
4 4304 4298 4292 5335
4 5295 5751 5585 5344
4 5240 5397 6232 1641
4 5397 5969 1641 1640
4 5238 671 5071 680
4 5894 5931 5225 1114
4 2580 2581 2478 2479
4 5237 662 5285 671
4 3795 4875 5684 3791
4 3040 4593 5703 3402
4 5653 5721 5730 6113
4 4881 3559 4328 4239
4 5519 4594 4593 4595
4 4788 4761 4595 440
4 5935 5915 176 1112
4 2371 5910 2372 1111
4 5911 175 5915 1103
4 5150 5698 5696 5697
4 5698 5697 5152 948
4 6186 5743 5718 6173
4 3466 5698 4598 5719
4 5956 68 714 715
4 5956 1176 68 67
4 5951 4258 1177 5824
4 4077 5957 706 715
4 5350 5957 705 706
4 5350 4847 4848 6347
4 5951 5824 1177 1168
4 3498 5582 5837 4058
4 6318 2152 5981 2151
4 2362 2851 2854 2850
4 4807 2035 5452 2026
4 5101 5100 6198 6180
4 4954 6190 4252 5802
4 5099 5100 6205 6101
4 5837 3498 3487 6102
4 5453 2017 3813 2018
4 4754 4712 32 419
4 5594 5553 844 843
4 2485 5652 2519 5305
4 4712 843 32 31
4 4732 5594 853 5604
4 4288 862 4732 863
4 4707 4754 5648 861
4 4729 4730 409 418
4 4752 5568 4729 4730
4 4282 4280 4062 4124
4 6089 4147 4742 1883
4 5379 5378 1876 1875
4 5852 5853 5833 1048
4 5850 1065 5643 1056
4 5850 1066 5646 1065
4 5833 1048 5853 1047
4 5841 1047 5853 1056
4 5852 5854 1058 1049
4 6200 5859 5850 5853
4 4154 6202 6316 5089
4 5852 5869 5859 1058
4 5833 4237 1038 1047
4 5833 1047 5853 4237
4 5227 3239 4154 5228
4 6199 5852 5853 5833
4 6318 5980 5946 5892
4 5821 5833 1038 1039
4 6247 5206 2132 5297
4 5927 5207 2123 5878
4 5143 2990 2987 5898
4 6290 5206 2124 2133
4 5206 5927 2123 2132
4 5546 5307 1096 5308
4 5348 5308 1096 1097
4 5348 5893 1088 5349
4 5348 5308 1097 5329
4 5546 5247 1086 1095
4 5309 5245 5307 5237
4 5592 6218 5593 5623
4 3861 2081 6218 2090
4 2725 2755 2726 5820
4 6224 2083 4623 2092
4 3025 3372 3054 3053
4 5263 6092 5268 5267
4 6110 6111 5565 5439
4 3054 3452 775 784
4 4236 5532 5559 3920
4 3594 3901 4069 4548
4 6169 4081 4225 4636
4 6326 4761 4776 4759
4 2310 4720 4705 2309
4 4594 4761 6152 4595
4 4720 4038 440 4595
4 4038 421 4705 422
4 5911 2139 6239 5915
4 5911 5985 2139 2130
4 5899 5255 1084 1093
4 3734 2372 5847 5914
4 5847 1101 2372 1110
4 5906 2372 1101 1102
4 5847 2372 5910 1110
4 5840 5845 5914 1100
4 6346 4812 4813 4928
4 5045 5046 5061 4823
4 4899 5725 4923 498
4 3638 4936 4813 4876
4 5683 4884 4902 4880
4 3640 5725 5061 5046
4 4859 5723 933 942
4 5061 5725 4823 4907
4 4914 4855 5384 1670
4 4854 3874 6009 1678
4 4854 1670 4855 1679
4 4455 4456 126 1742
4 4855 4853 1679 75
4 4455 4404 718 719
4 5945 5997 3066 2159
4 2340 5910 4657 4204
4 2340 4655 5886 3716
4 3066 3717 5886 2168
4 3728 2167 5886 2168
4 4655 5886 3728 2167
4 3656 3657 2193 3849
4 3727 4657 3729 5947
4 4655 4656 2157 2166
4 2340 4657 2371 4655
4 5385 1194 70 69
4 5385 5373 1185 69
4 5279 1195 4256 5369
4 4257 5279 5280 5372
4 5990 5385 5279 5369
4 4407 4427 1760 6260
4 4382 4402 3824 4383
4 4427 6260 1751 1760
4 4427 4455 4404 718
4 5414 726 4129 717
4 4455 1751 1742 125
4 4031 4411 4407 4402
4 5334 3982 6188 6207
4 3586 5619 6166 5345
4 4242 4250 1493 1501
4 6318 5980 5892 6244
4 3716 5886 3065 3717
4 4927 5495 5975 5908
4 3066 2168 5886 2159
4 3857 3066 2169 3717
4 4084 6305 4087 4085
4 3361 3360 3872 3362
4 2837 3811 3813 2840
4 4083 6304 4085 5783
4 4169 985 5771 994
4 6162 975 4259 3360
4 6162 5775 985 976
4 3071 5946 6318 5997
4 3797 3593 4262 3796
4 3991 4537 4557 4535
4 5670 6285 4804 1916
4 3504 5569 1890 1889
4 3504 1889 3329 3330
4 5049 1007 5010 1016
4 5049 1016 5010 5666
4 5665 5818 5049 5666
4 4151 4713 5432 5431
4 5036 998 5011 1007
4 5034 5035 5053 1014
4 2949 5052 5818 3208
4 3716 3728 5886 3717
4 2846 2847 3485 3486
4 5947 3729 4665 5423
4 4655 3716 3727 3728
4 3728 2168 5886 3717
4 3553 6087 6067 6068
4 6091 4267 1849 1840
4 5267 3546 1839 1838
4 5268 5267 1847 1838
4 3865 903 4735 902
4 4734 911 3272 4735
4 5674 5664 3865 893
4 3866 5664 6208 4341
4 6208 5664 4789 885
4 3865 894 4341 903
4 3128 2118 5169 4205
4 5106 3208 2948 5053
4 2119 5651 5232 4346
4 3128 5169 2118 2109
4 5169 5021 2100 3127
4 5169 2101 5232 2110
4 3128 5169 2109 3127
4 3128 5169 3127 5168
4 5627 6153 6243 6318
4 1857 4089 1866 4392
4 4146 4147 1875 5378
4 4294 4392 4146 4089
4 4146 4147 1874 1875
4 4493 4268 2545 5378
4 4346 5169 2118 4205
4 4346 4205 2118 2127
4 2956 4346 4347 5881
4 4233 5169 4346 4205
4 6322 2128 5651 2129
4 4346 2127 4347 5881
4 5004 6225 5171 3614
4 2956 4346 5651 4347
4 6325 4347 2136 6231
4 6280 6327 6325 4347
4 6327 5109 4851 2147
4 6182 6325 6245 6321
4 5219 4347 6325 6231
4 2248 2253 2551 2549
4 6137 6135 3933 2731
4 6132 6150 1939 6138
4 5603 1410 4223 5659
4 6140 6138 1939 1948
4 6132 5603 5659 1401
4 5884 5882 5711 5735
4 5457 1983 5735 5479
4 5884 5735 5711 1992
4 5711 5735 1983 1992
4 6302 5459 5501 5524
4 6302 6161 3659 6168
4 5457 1984 5459 5711
4 3331 3224 3418 3223
4 3701 3223 3418 3224
4 4290 3720 1191 1200
4 3418 1201 3224 1210
4 3701 3418 4290 1201
4 6234 5768 5984 5993
4 6232 5984 1632 5969
4 4274 5276 5253 5278
4 5241 5240 5397 6232
4 5360 1658 1650 1659
4 6232 1641 5397 5969
4 6232 5969 1632 1641
4 4108 5347 1458 1467
4 1484 6166 4250 5345
4 6168 5962 5347 1457
4 5615 5612 4250 4242
4 4108 5347 5962 1458
4 5882 3490 5884 6176
4 5615 5619 4250 5612
4 5878 5207 2114 5879
4 5878 5862 2122 5927
4 4393 5927 5878 5207
4 5878 5927 2122 2123
4 5646 6293 5256 5863
4 4917 4817 3099 5650
4 3123 3580 4794 4782
4 4917 3124 3119 3123
4 4794 453 4760 462
4 3119 4867 5701 5650
4 4768 5621 4840 888
4 3099 4811 4817 3376
4 3580 4782 444 453
4 3097 3791 3119 4867
4 4582 4685 825 29
4 4582 825 30 29
4 4637 4221 4685 4222
4 4710 4582 30 401
4 4579 4148 4647 5553
4 4221 834 4582 825
4 5289 5278 5242 5155
4 4292 5316 5289 5335
4 5240 1641 6232 1642
4 4274 5752 5242 5278
4 1650 1641 5360 5240
4 4111 681 4105 690
4 4275 1652 5226 4201
4 3790 3347 3346 3098
4 3792 4784 4840 4816
4 4867 5650 4811 899
4 3792 4784 4816 5649
4 3124 3123 4760 4794
4 3793 4158 4159 4160
4 4845 5701 907 4816
4 5027 991 5779 5780
4 5027 6155 5779 990
4 3873 3872 973 3876
4 3873 4259 983 974
4 3875 3872 3876 3362
4 2592 2200 198 197
4 2592 2569 1229 198
4 2532 1229 2592 2569
4 4830 1672 2436 1671
4 1219 6007 6250 3396
4 2443 2190 2671 3153
4 3438 4149 3437 4458
4 5468 4547 753 754
4 3429 3428 4461 4480
4 6219 6221 6220 5872
4 3343 5204 5097 4284
4 6219 6221 5872 5205
4 5113 3341 5114 6219
4 5205 1596 5231 5187
4 5921 4273 5204 5230
4 5921 6235 5140 6220
4 5920 5231 5205 5872
4 6221 5205 1588 1597
4 5231 1596 5872 1605
4 3161 1569 3132 1570
4 3161 1579 5112 5114
4 2830 1561 3132 1560
4 4169 5804 984 993
4 5782 5771 6162 5775
4 4169 4259 984 5804
4 4481 4519 5805 4517
4 4519 4517 4195 1012
4 4519 5805 1011 5799
4 4193 4945 1003 4517
4 4518 5638 4519 5640
4 4517 4946 1002 5805
4 4151 6021 6024 5841
4 5821 1029 5432 5429
4 5821 5833 5432 1038
4 5821 5432 1029 1038
4 4522 2050 5636 2059
4 2623 3500 2597 5420
4 6030 5638 5838 5821
4 5865 6316 5867 5813
4 4114 1470 4918 4933
4 4890 4891 4094 4889
4 4889 485 4863 4247
4 4911 4117 1461 4116
4 5229 4918 4910 1462
4 5955 5229 4933 4918
4 4104 6253 5244 4201
4 4105 4107 691 682
4 4292 4107 5316 5335
4 5986 5359 1222 1223
4 4201 1652 1661 1660
4 6189 5986 5991 6269
4 5359 5987 1232 1223
4 4274 5242 4104 5316
4 2539 4628 5998 3486
4 4275 6000 1643 5333
4 4274 5316 4106 5278
4 4854 1669 5384 1670
4 4915 6010 5442 1659
4 5244 5240 1651 1650
4 6318 6153 6244 5892
4 4913 4107 4292 5362
4 4589 6248 4185 6253
4 6009 6020 1668 1677
4 3598 4836 4302 4839
4 3818 1307 3817 3820
4 2993 5399 3552 4134
4 3139 4078 5484 4214
4 3030 5251 3029 6340
4 4576 5477 782 783
4 3507 5029 6069 5673
4 3333 4573 4787 3546
4 2645 4632 3826 6335
4 5188 5198 2890 5858
4 4501 5194 5188 5858
4 5188 626 5154 2890
4 5919 5078 5188 5079
4 4320 762 23 22
4 4523 4320 23 338
4 4397 22 4320 329
4 6294 4319 4321 4476
4 4079 5468 745 3956
4 4575 4588 4615 772
4 5494 771 4615 772
4 3960 4706 858 3105
4 4699 4291 4474 856
4 3233 1898 3503 1907
4 5753 5241 6232 4274
4 5670 3959 3301 6285
4 4635 3961 4139 4232
4 4706 849 5579 5607
4 4967 5083 1507 4968
4 4967 6192 4968 1506
4 6183 5083 4967 4968
4 4967 6192 1506 1515
4 1525 6195 4769 6175
4 6195 1524 6175 1525
4 6184 6175 4967 5082
4 2945 4244 3835 4560
4 5855 6175 4120 4769
4 5001 548 5007 547
4 3892 6185 6184 3893
4 5058 1514 6192 1515
4 5444 3609 5445 5455
4 5474 1779 4098 1788
4 5474 1788 4098 4099
4 5259 3709 3758 3757
4 5119 5123 4314 5118
4 5466 5474 4098 4099
4 3755 751 5466 4452
4 3755 742 5466 751
4 5299 712 713 5385
4 5990 5368 702 711
4 5280 5990 712 5385
4 6269 4183 5996 5369
4 5940 5342 694 703
4 3783 70 5385 1194
4 694 693 5342 4203
4 6347 4847 5951 5957
4 5367 5368 4634 4298
4 6262 4014 1261 1252
4 6045 4426 6035 6055
4 5764 1263 6034 1254
4 5764 6057 1263 1264
4 4014 6034 6040 1262
4 4568 5365 5416 5440
4 6054 1245 6038 1254
4 4418 4066 285 4367
4 3516 4299 5480 3985
4 6262 4012 4014 4439
4 4836 4303 4302 4442
4 4148 4710 410 401
4 4148 5594 4729 4712
4 4710 834 5553 843
4 4647 4221 5553 4582
4 5753 5984 3543 5768
4 4710 4582 834 30
4 5963 1181 5066 3744
4 4663 4662 1156 4664
4 4128 5970 184 1155
4 4128 4663 5970 1155
4 3656 5427 4662 4664
4 3656 5408 1174 4503
4 5387 64 1140 65
4 5387 5353 1140 64
4 5387 65 4075 716
4 4077 5402 5956 715
4 5387 5351 4077 5393
4 4074 4076 4075 1158
4 2743 3272 3865 4735
4 4157 4026 460 4176
4 5729 3624 4984 5730
4 4921 3095 4173 5587
4 5632 4785 4733 4645
4 3016 4876 5716 4936
4 3347 4462 5301 4174
4 3999 891 4811 3376
4 4408 717 4129 17
4 4129 717 18 17
4 4129 726 18 717
4 4407 4427 5414 4408
4 4427 5414 4408 717
4 4427 6260 5414 4404
4 5036 5037 5011 998
4 5036 5049 1006 1007
4 5036 5049 1007 5010
4 5069 5050 996 1005
4 5225 1105 5307 5894
4 5328 5308 5329 1106
4 5894 5895 5225 5931
4 5894 1114 5225 1105
4 1104 5225 1105 5307
4 5328 5495 5894 1115
4 6339 6261 4130 4364
4 5318 6082 6081 4212
4 6177 6261 6174 6081
4 6174 6050 6257 6051
4 6261 6339 4130 6081
4 4269 1850 257 1859
4 4269 257 1320 256
4 4267 1850 4269 1859
4 4269 1859 256 4325
4 4267 6088 4269 1320
4 4251 4249 1503 4243
4 4249 1503 4243 1502
4 1502 4242 4243 4249
4 4242 4243 6190 1511
4 4250 1484 4249 1493
4 5345 4249 1484 1485
4 4920 5345 1485 4249
4 4250 1483 5612 6166
4 6194 5614 5096 5095
4 3812 5166 5164 2016
4 4240 3476 5619 5473
4 4242 4974 1510 1511
4 3498 6205 3487 4808
4 4950 5101 4974 5742
4 5837 6205 4058 5216
4 4244 4920 4249 3571
4 5093 5095 5094 2030
4 4724 4730 417 408
4 4536 4621 4535 4678
4 4494 4181 4542 4724
4 4724 4753 417 4730
4 5977 5395 3044 5313
4 4239 5977 5395 3044
4 6121 4746 1390 1389
4 5395 4239 1397 1398
4 4748 4744 4690 429
4 4720 2311 2310 3079
4 3977 5144 5092 5147
4 3994 5073 5919 5843
4 6315 6314 5354 6281
4 5919 5846 5843 5073
4 5148 5844 2894 2912
4 5844 1051 5163 1042
4 5843 1060 5846 1051
4 5844 1043 2913 1052
4 5364 5073 3994 5843
4 3977 3958 5844 5163
4 4253 5451 5450 723
4 5451 4103 733 3609
4 5451 3609 733 724
4 4447 741 5327 740
4 3758 5454 5466 4103
4 5324 1688 5303 275
4 5451 5116 5117 5118
4 3609 5117 5302 5325
4 5325 725 3609 724
4 5121 5434 1696 1695
4 3478 4163 5707 5104
4 6341 6197 4956 3116
4 2725 6275 2813 5091
4 5006 3196 3197 3198
4 3838 5103 3529 5048
4 5048 5013 567 5044
4 569 568 5102 4163
4 3892 6192 6185 5058
4 5102 4168 569 4163
4 4861 469 4796 470
4 5588 5590 5589 4894
4 3475 2347 3481 3491
4 3188 3584 3006 5589
4 6131 1870 6263 6130
4 3373 5522 5375 5537
4 5586 824 5564 5577
4 6111 6131 5586 5564
4 4612 4674 4614 6110
4 3561 1905 3959 6285
4 3301 6285 3233 4804
4 3233 1906 6285 4232
4 3233 3503 4804 1907
4 3579 1905 3561 1914
4 3959 3961 3579 3962
4 3286 3502 3103 3503
4 3960 4706 3961 859
4 6285 1907 4804 1916
4 2645 3826 5496 5463
4 6340 5496 5509 5513
4 5496 5463 1818 1817
4 5496 5513 1817 1826
4 5509 1835 4725 5544
4 2640 4003 3139 4006
4 5333 1633 6232 5982
4 5276 664 5275 5253
4 5333 5240 6232 1642
4 5333 6232 1633 1642
4 5275 5333 6232 5982
4 5183 5230 5767 5186
4 6092 5267 1848 1847
4 5185 5511 5571 6037
4 5571 5189 3687 1331
4 5557 4089 1848 1857
4 6087 6088 6037 4270
4 2497 5580 3700 5516
4 5268 6092 1847 5267
4 5263 3553 5262 5267
4 4267 4268 5557 1858
4 4392 5378 1866 1867
4 5557 1857 4392 4089
4 3071 5997 2342 3069
4 3190 3191 2660 3193
4 5209 6233 2134 2135
4 4530 6247 5946 5297
4 4528 6307 4529 4530
4 4530 5927 5206 5297
4 6318 5980 2142 5946
4 6247 2141 5297 2132
4 6247 5946 2141 2142
4 5061 6346 3638 4928
4 4961 4979 4824 961
4 5045 4178 4823 4824
4 4936 4928 935 944
4 5045 4178 5030 4177
4 4958 953 3639 954
4 4958 3639 953 4961
4 5224 5071 61 680
4 5071 1104 61 60
4 5071 5225 1113 1104
4 5285 60 5071 671
4 5895 5071 5237 5307
4 5238 5265 670 5269
4 5895 5071 5307 5225
4 5245 5237 661 662
4 5922 6240 5140 6226
4 5140 1615 6235 5320
4 5922 5872 5140 6240
4 5140 6240 1605 6226
4 4184 1225 5995 1234
4 3874 206 5249 1677
4 6010 5442 1658 5356
4 6010 1658 5442 1659
4 6020 6017 6251 1676
4 4185 5887 4184 5987
4 5992 1659 5244 1660
4 6003 1231 5359 5336
4 6248 5384 4854 1669
4 3832 5573 5964 4618
4 2446 2447 2449 3322
4 4750 5598 1362 1353
4 3401 5598 3737 5964
4 4759 6143 4803 6141
4 2594 3076 3044 3926
4 6141 438 4748 4759
4 4759 439 4761 448
4 5976 4803 4759 6143
4 4759 438 4748 4690
4 6142 5713 6143 1426
4 5508 791 5532 800
4 4688 4236 800 5532
4 4688 4684 808 809
4 6298 4588 5497 5494
4 5497 782 5477 791
4 3130 1560 2830 3132
4 2868 2858 2849 573
4 3159 3132 3997 1561
4 2868 2858 4046 2849
4 2849 2868 582 2505
4 5259 5122 5492 5506
4 3823 5318 3009 5317
4 4460 5447 5426 3787
4 5447 4406 730 5426
4 5902 5447 5426 4406
4 5447 3953 737 738
4 4018 5447 4460 3787
4 4466 4420 4299 1240
4 4466 1689 210 209
4 6028 3517 3516 1690
4 6025 6027 4466 6028
4 6028 6051 1690 1681
4 1531 2755 2726 2240
4 6315 3651 1546 1537
4 6310 5215 5622 6333
4 6210 4271 1538 4199
4 5753 3543 5984 2973
4 5837 5216 4058 6206
4 3499 2522 6102 5582
4 4053 4002 5449 4060
4 3087 4199 3088 4271
4 4832 1725 214 213
4 4832 214 4305 1244
4 4463 6040 6041 4509
4 6054 4832 4373 4305
4 4832 1716 213 3488
4 6035 4373 1717 1726
4 5615 5096 6194 5614
4 5611 5473 5614 5615
4 4242 1510 5096 1501
4 4242 5612 4250 1501
4 4781 1205 5314 4183
4 5986 5996 1223 1222
4 5314 1215 5887 1224
4 5887 5987 5986 1224
4 3618 4048 5456 3620
4 4781 4071 5314 1206
4 5314 4071 1215 1206
4 3900 2187 2186 2178
4 5222 2572 3284 4503
4 3726 3721 5973 5222
4 3854 3223 4036 3332
4 2772 5753 2973 3543
4 3130 1550 3690 1551
4 3338 4197 5139 5849
4 2713 3145 2828 4350
4 1560 3130 1569 3132
4 2968 4049 3236 3619
4 2239 3130 1550 3690
4 3130 1569 3132 5139
4 3146 4152 4187 4167
4 4641 28 4685 383
4 4641 5567 816 807
4 4646 5567 4641 4566
4 4646 4641 5567 4222
4 4294 4146 4392 5378
4 5556 4392 4268 5378
4 3553 6091 5262 5267
4 5556 4268 4270 2544
4 4392 4268 5378 1867
4 5437 3400 1713 5422
4 5501 5671 6160 5502
4 4972 6296 5478 4989
4 4829 5671 4827 4828
4 2738 6097 5916 6139
4 5457 5711 5735 1983
4 6246 4969 5671 1429
4 5478 4989 1974 5479
4 4224 4226 6093 352
4 334 343 335 4477
4 4477 4486 4485 335
4 4224 4226 352 361
4 3905 344 4495 4477
4 2864 2865 2863 2862
4 4583 4551 342 351
4 4556 4583 5290 4210
4 4424 289 4429 3976
4 3511 3973 4567 6264
4 4368 4372 278 4370
4 6053 4449 296 297
4 2772 5753 5241 5969
4 4424 278 4372 279
4 6053 297 5510 4449
4 4841 4296 6071 6265
4 3987 4532 3494 6065
4 3009 2504 3823 5317
4 6035 4012 3518 4373
4 2772 5241 5397 5969
4 2504 1785 6265 1794
4 6174 4363 1692 6261
4 3988 4316 4315 4533
4 2773 2776 2780 2778
4 3856 5795 4297 6337
4 3882 5190 5988 5460
4 6238 2164 6254 2163
4 5929 4056 2171 2180
4 5389 1272 6057 1273
4 4839 4442 4302 4401
4 5765 6041 6040 6034
4 6041 1263 6057 1272
4 5366 4443 4417 4442
4 4752 5979 5604 4732
4 3525 4836 4839 4835
4 5440 4567 6268 5417
4 4752 4546 3770 4651
4 3972 4429 4424 6267
4 4424 287 4368 278
4 4424 6267 4374 4372
4 4424 4372 4374 279
4 6268 6267 1747 6266
4 3973 3972 4380 3974
4 4424 279 4374 280
4 6139 5916 6138 1947
4 6146 6140 6154 4223
4 6137 6146 6154 6122
4 6139 5916 1947 1956
4 2741 6296 4972 2738
4 6059 6138 2734 6114
4 6146 4223 6154 1419
4 6297 6296 6146 1957
4 4831 2192 2183 220
4 1219 3383 3396 6250
4 1655 5191 2442 4357
4 2443 2671 2191 2669
4 4830 1662 3978 1663
4 2533 2896 6007 5791
4 4831 2669 3978 6329
4 6249 1645 5191 1654
4 4745 4746 1380 1381
4 4142 4745 4746 1380
4 3684 2903 3370 2901
4 5575 4745 1381 4746
4 4100 4692 4691 411
4 5573 4100 5575 4096
4 4142 4746 1389 1380
4 3832 3829 4617 4616
4 3420 3425 3710 3473
4 5443 5419 5118 5450
4 4447 4406 740 5327
4 4447 741 3753 5327
4 3424 3741 4431 3943
4 3663 4261 5007 3839
4 4954 5744 5746 6190
4 5007 4261 557 3839
4 5007 3839 557 548
4 6183 3891 6185 6184
4 5007 3839 548 2291
4 2813 6275 2814 5091
4 5837 6102 6212 5582
4 2524 2525 5636 4520
4 5989 202 6015 1673
4 6016 6008 2533 1236
4 6008 6007 1227 5270
4 2896 6007 5270 6006
4 2668 2671 2670 2532
4 4791 483 474 4873
4 5787 6254 2445 6005
4 6011 6019 1666 5356
4 6011 1657 4358 5355
4 5576 5564 5565 815
4 5564 1851 144 143
4 5564 144 5577 824
4 5576 143 5564 815
4 6111 6131 1860 1861
4 6111 6131 1861 6278
4 4612 6111 5606 6278
4 5330 3597 4513 4531
4 2999 4553 5772 5700
4 4513 4487 4473 3597
4 4034 4487 5925 5926
4 4483 323 4526 322
4 2999 5700 4552 4553
4 3588 5389 4552 4599
4 4839 4553 2999 5389
4 4483 4419 314 313
4 3901 5772 4553 1291
4 4752 4730 4415 5568
4 4839 4401 4443 4442
4 4417 1273 1265 4443
4 5078 5188 625 5154
4 5078 616 5154 625
4 5153 624 5078 5079
4 5919 4501 5072 4507
4 5350 5306 697 696
4 5998 5371 5940 4127
4 4186 696 5371 695
4 5940 695 5371 704
4 5350 4848 5371 6347
4 4075 4076 5402 1158
4 5280 5279 5990 5385
4 4018 3787 4460 4403
4 3429 4079 5468 4475
4 5512 3976 4395 3971
4 5115 3825 4301 3505
4 301 4459 3432 4475
4 4457 299 4395 300
4 5231 1605 5872 6240
4 5920 5205 5231 5187
4 5231 6240 1604 1605
4 5923 6228 5231 6240
4 3234 5767 3237 5864
4 4909 42 942 43
4 4909 951 43 942
4 4909 5723 942 42
4 5725 4923 498 507
4 4822 4909 4823 4824
4 4860 943 5747 952
4 4609 361 4608 360
4 4636 4587 372 363
4 4658 372 4636 4587
4 3538 4658 4636 4587
4 3967 4992 6169 5823
4 4224 4435 4586 353
4 4522 4521 2049 5815
4 5759 995 4945 5771
4 5782 4516 6306 5785
4 4193 4517 1003 1012
4 4522 4194 4193 5815
4 4514 4521 4520 5636
4 5557 4392 1858 4268
4 5557 4392 1857 1858
4 4493 5571 3687 2544
4 5556 4392 5557 4268
4 5557 6092 1848 4089
4 4856 4873 483 4910
4 4548 5772 1300 4561
4 3694 6076 3614 5806
4 6105 1567 4887 4196
4 6076 1574 4888 1575
4 6076 3614 5806 1574
4 6105 6076 4888 1575
4 2741 2738 2734 6139
4 5134 6246 1428 6122
4 5501 5502 6246 5671
4 6297 5478 6296 1966
4 6296 5478 1965 1966
4 2504 1794 6071 2502
4 4317 6071 1804 4541
4 6071 2502 1794 1803
4 3751 6071 4317 4541
4 6088 6037 1321 1312
4 4131 6090 1312 1303
4 4267 4269 6088 4270
4 6088 4269 1320 4270
4 6087 4270 4267 6088
4 5533 3752 6052 5398
4 4733 4763 435 444
4 3580 4763 444 4782
4 3580 4733 445 444
4 4763 4180 435 434
4 4765 435 4763 4180
4 4719 4180 425 4181
4 4462 5301 4833 3793
4 4751 4763 434 4180
4 4264 451 3402 450
4 3630 3246 3243 4948
4 6175 5855 4120 5082
4 4953 3116 3118 521
4 4953 4975 530 4987
4 3803 4953 4947 4987
4 3803 4975 4953 4987
4 4959 4947 3118 4953
4 3520 3491 3575 3883
4 4953 521 3118 522
4 3164 4049 4050 4764
4 3067 6337 3857 5981
4 3135 4985 4506 5153
4 3276 5405 2542 5751
4 2696 2549 3853 3068
4 2845 3410 3409 3444
4 5913 2141 5946 2150
4 5255 1092 5914 5409
4 5906 2372 5914 1101
4 5906 5914 1092 1101
4 5255 5901 5906 1093
4 4752 3770 4415 4231
4 2371 5910 1111 1120
4 6027 4466 4299 1240
4 3987 4299 3494 4300
4 6027 6029 3986 6028
4 3984 5401 4532 6065
4 3985 6174 6063 3517
4 6047 1248 4315 1778
4 4131 1302 1303 1311
4 3655 5391 677 5296
4 5295 5751 5344 5321
4 5391 4161 678 5296
4 4186 4127 686 695
4 3191 1126 5282 5283
4 4752 4415 4730 5979
4 6236 6238 6254 6252
4 2885 2896 3450 2668
4 5132 4050 6323 5128
4 6236 4850 2164 6237
4 5929 2172 6005 2181
4 6254 2172 6252 2163
4 3383 3450 6250 2671
4 4229 384 4629 4090
4 4648 385 4629 376
4 4605 4649 4629 376
4 4229 6100 4629 4230
4 4648 376 4629 4649
4 5964 6100 6094 5657
4 5964 4648 4672 4090
4 4611 4722 1345 5583
4 2894 2947 1034 5825
4 2892 2893 2895 5874
4 5818 1025 2947 5825
4 2948 2947 2894 5825
4 2947 5825 1025 1034
4 4744 4038 4690 430
4 4690 430 4038 439
4 5976 6152 4761 4759
4 6152 4759 439 4761
4 4749 5395 1399 5977
4 5313 4744 4038 4690
4 1399 1400 1391 5574
4 4845 4816 4815 5649
4 4845 4843 916 4877
4 4814 3793 5301 5800
4 5684 4885 4159 4843
4 4159 472 5649 473
4 3636 3632 3117 3633
4 3245 3582 3581 3774
4 3628 3635 4361 3636
4 3632 512 3117 3633
4 3632 3633 3634 503
4 5754 5776 959 968
4 5732 6173 6301 1995
4 5696 959 5754 5776
4 6301 6305 5776 5754
4 6301 6305 2005 4087
4 5786 968 5774 5776
4 5786 5774 6305 5776
4 5387 1140 5393 1149
4 5930 5949 5950 5943
4 4076 5402 1158 1167
4 4357 2889 4358 5190
4 2896 3450 6007 3396
4 5791 6007 6008 5270
4 4357 3917 1655 1656
4 4357 4358 1647 5190
4 3444 3868 3486 4781
4 2871 3386 4358 5355
4 2585 4764 4050 6323
4 4575 773 4576 4588
4 4575 763 4488 764
4 4615 4320 762 771
4 6294 4476 4321 4067
4 4321 328 4067 4476
4 4523 4564 4321 338
4 4397 4547 4479 4480
4 5494 4320 4321 4615
4 5169 6211 5168 3128
4 2483 3128 5168 6211
4 5002 3613 3614 5570
4 5021 6211 5169 5232
4 4233 4205 3128 5169
4 2952 4198 2989 2990
4 3657 3656 2571 2573
4 3729 3657 2184 2185
4 2177 3900 3858 3728
4 3656 3806 4662 5408
4 3656 4664 3657 3849
4 5954 2193 3657 3849
4 5954 1148 4664 5953
4 2573 3657 2194 2571
4 5954 4664 1148 1157
4 5954 3657 5953 4664
4 5423 3729 4665 3657
4 4776 4759 448 447
4 4776 4759 4761 448
4 3949 448 4761 449
4 5938 5907 5931 5932
4 5350 5957 6347 5371
4 5938 4846 1124 5931
4 5957 715 5956 714
4 5387 4077 5351 707
4 5284 5393 1140 1141
4 3251 3443 4258 5343
4 5392 1142 5950 1141
4 3578 4141 148 860
4 5610 4141 4140 851
4 5610 4141 5663 4140
4 4141 860 147 148
4 4141 860 851 147
4 3578 1896 4141 4232
4 4380 6267 6266 1747
4 3974 4395 3976 4383
4 4380 4301 1748 1747
4 4381 4383 4429 281
4 4382 4381 281 4383
4 3974 3825 3824 4301
4 5464 4326 4130 5465
4 4326 4130 1684 1685
4 4326 4510 1765 271
4 6309 6198 5937 2048
4 4265 1527 4266 234
4 5742 5746 6203 4973
4 4265 2057 235 234
4 6314 2066 6310 4266
4 4106 673 5316 682
4 4106 5276 5278 673
4 4104 4106 5316 4107
4 4274 5276 4275 5333
4 4275 5226 4106 4201
4 5816 5959 5811 3743
4 5386 710 5403 72
4 5386 5991 1221 1212
4 6248 5384 5965 4854
4 6248 4185 5992 6009
4 6003 5336 1230 1231
4 4292 5362 4107 5335
4 2690 3414 2689 3412
4 2776 3869 4292 2777
4 704 712 713 5299
4 5374 5996 5991 1213
4 5996 4183 1204 5369
4 5374 1213 5991 1212
4 5386 5991 5374 5368
4 4634 4183 6269 5369
4 5992 6009 1668 1669
4 6250 2592 1229 1220
4 3383 2592 1220 2754
4 4135 140 5543 788
4 4135 4468 1824 1815
4 4214 4217 5562 4468
4 5507 5555 5540 5543
4 6104 5554 4214 5513
4 6168 6161 1457 1456
4 5688 5711 1993 5773
4 5688 5711 1984 1993
4 5459 5502 1446 5135
4 5457 1975 5459 1984
4 6168 5807 1465 6172
4 3636 6341 3117 3115
4 6341 3149 6197 6178
4 3149 4956 528 519
4 4361 4951 4362 3633
4 3149 4355 4882 1490
4 4956 520 3117 3116
4 3149 528 4956 3150
4 4956 3116 529 520
4 3944 5425 4130 5464
4 3544 3333 3546 4573
4 5304 4206 1772 1763
4 6259 5434 5464 1686
4 5425 5437 5461 1703
4 3008 3010 5318 3009
4 5121 5122 5434 5464
4 5437 5461 1712 3400
4 6298 4575 4588 4615
4 3954 4488 6294 3428
4 3438 4458 4461 4476
4 4016 3953 4448 737
4 3954 3957 4488 3956
4 5515 4402 4459 4395
4 4666 4576 4575 4562
4 3428 5468 3956 4488
4 4273 5181 5204 637
4 4050 6241 6323 4764
4 5921 6220 5140 5872
4 6064 3237 6226 5922
4 5158 6220 5180 5179
4 3233 6285 1907 4804
4 4635 5663 3233 4232
4 5572 5663 5628 3329
4 4287 3504 3329 3330
4 3504 3503 1898 1899
4 4706 3106 3050 3105
4 3078 3828 4718 2311
4 5663 4232 1896 1897
4 5246 5192 1070 5073
4 4506 5153 5078 5079
4 5919 5188 4501 5079
4 4501 5858 5246 5349
4 6012 5246 5893 5349
4 3443 3743 5343 5824
4 3725 4022 5944 3744
4 4021 5875 5283 5404
4 5816 5343 1179 3745
4 4258 1178 5824 5343
4 1177 4258 1178 5824
4 3251 5824 3443 5343
4 4186 2882 5306 5391
4 5930 5392 5950 1141
4 3252 3743 3443 5824
4 5179 6220 5180 5181
4 5179 5181 628 5159
4 5921 5179 5159 5181
4 3341 5085 6219 5113
4 5179 619 5159 628
4 6000 5275 663 5982
4 6000 5333 5982 1634
4 5129 5128 4050 5132
4 5999 663 654 5982
4 5753 5768 6232 5984
4 4274 5275 5333 6232
4 5275 5253 664 655
4 5768 5253 5275 5186
4 5964 4648 4090 4629
4 3401 6112 4750 5598
4 4352 5287 4353 3820
4 4294 5556 4493 5378
4 3737 4611 5598 4750
4 4648 377 4649 4650
4 4672 394 4090 385
4 5938 5931 1123 5932
4 4050 6134 6241 4764
4 2281 4362 4355 4882
4 501 4891 2281 4362
4 2281 4366 4355 4362
4 5855 4771 5007 4261
4 4771 3850 556 555
4 4771 556 5007 4261
4 4533 1249 4300 1258
4 4322 1266 4318 1257
4 4316 4533 4318 6058
4 6027 1249 4533 1248
4 4532 4296 3984 3988
4 5911 2139 175 2130
4 5911 2130 175 174
4 5911 5915 6239 5901
4 6307 4530 5407 4529
4 2341 2372 1102 1111
4 2341 5901 1102 5906
4 2341 5906 1102 2372
4 6239 2139 5985 2140
4 6054 6034 1253 1254
4 6054 4439 4373 4832
4 5765 5366 4835 6057
4 4119 4305 4369 6038
4 4119 6038 6054 4305
4 4373 4832 1716 1725
4 4227 537 546 5082
4 5001 4227 547 5082
4 4227 4956 3150 5083
4 6183 5082 4967 5083
4 4227 546 547 5082
4 4227 4956 528 3150
4 5365 4416 5763 4066
4 5440 4303 4368 6053
4 5416 5418 5417 6046
4 4424 4368 4405 4372
4 5365 5763 4416 6044
4 4424 278 4368 4372
4 6046 1753 4051 6044
4 5418 1744 6036 1735
4 4119 4369 6036 6038
4 5418 6046 1744 5417
4 4119 6036 4369 1734
4 4015 4013 3708 4014
4 4119 6054 4373 4305
4 4416 4369 1246 6038
4 4371 1743 4369 6036
4 4303 286 5763 4368
4 3440 5673 3439 3511
4 5281 63 5353 698
4 5353 63 1131 64
4 5387 5353 5351 5393
4 5948 5950 6308 5392
4 4077 5402 715 716
4 5951 5372 1176 1177
4 5938 5392 4847 5284
4 5387 5353 5393 1140
4 4849 5284 5331 5932
4 5353 5331 5351 5284
4 5085 619 5179 618
4 5085 609 4999 610
4 5085 5136 610 4167
4 6221 5113 1588 5205
4 6146 1419 6122 5383
4 5134 5383 6297 6122
4 6146 1957 6296 6139
4 6146 6139 1948 1957
4 6137 6154 6146 6140
4 4605 367 4626 4649
4 4605 367 4649 376
4 4605 376 4629 375
4 4721 4605 4649 4629
4 5074 4525 4722 1337
4 5669 4723 4624 4534
4 4534 4626 4603 358
4 4744 421 4038 430
4 4744 4038 421 4705
4 4744 430 4690 429
4 6326 4330 5976 6123
4 5312 4692 6121 4746
4 5312 2312 3083 4995
4 3388 5995 6008 6019
4 5989 6016 6015 1236
4 5989 6019 6016 6008
4 6008 5270 1226 5995
4 6008 1226 5270 1227
4 3486 4256 4634 4257
4 3486 4183 4634 4256
4 5279 5385 1194 5369
4 5279 5385 1185 1194
4 3251 5951 5824 4258
4 4077 5957 5351 706
4 5280 5990 703 712
4 5372 1185 5385 5373
4 5139 3131 3132 3130
4 4152 602 4167 601
4 3131 3161 5139 3132
4 3145 4152 4167 4999
4 4048 4050 6134 5130
4 3660 4152 4350 593
4 6173 6186 5743 5696
4 6338 5696 5776 5697
4 6338 6165 6301 6173
4 5696 5697 958 5776
4 5696 949 5698 5743
4 5732 6301 5754 1995
4 5678 1986 5732 158
4 4018 3787 5361 5447
4 3184 4137 3177 4136
4 3455 774 3452 4576
4 6345 5251 6072 6274
4 6084 5559 3180 3540
4 6294 4319 4615 4321
4 6294 4488 4037 4575
4 4164 1998 3924 3922
4 3902 3362 3876 4906
4 3924 3229 3921 3815
4 3923 3924 5755 3922
4 3924 2006 6165 1997
4 3924 3922 1997 5755
4 3813 6176 2009 2000
4 3924 5164 2006 2007
4 5753 5969 2973 5984
4 5752 5254 5253 5217
4 5752 5254 5155 5278
4 2542 5751 5405 5344
4 5254 656 5253 5217
4 5254 5155 5278 665
4 2663 5904 3762 5329
4 6332 5245 5243 5546
4 5348 5893 6012 5904
4 5349 5348 5893 6012
4 3136 4687 3306 3307
4 4469 4501 3732 6013
4 5904 1097 5348 1088
4 5840 5845 1100 1099
4 5286 4551 4534 4538
4 4554 5024 348 4597
4 4534 350 4551 4604
4 4603 358 4626 367
4 4723 4603 4534 4626
4 4603 4597 358 357
4 4574 4625 4597 5024
4 2580 2582 3164 3928
4 4274 5333 5240 6232
4 4111 4201 5384 4105
4 4104 4201 4275 4106
4 4111 5384 4201 1661
4 4688 4668 5508 799
4 4668 4684 5567 808
4 4489 5508 799 790
4 5558 4219 5141 4622
4 4620 5567 4668 4566
4 4668 5567 807 808
4 4489 798 4668 4596
4 5034 5081 5053 4966
4 5067 580 5081 589
4 4966 5081 580 581
4 5034 5035 581 4966
4 5485 5490 5038 5665
4 5034 1014 51 50
4 5034 4966 5053 5035
4 3205 3204 5052 3208
4 5063 5005 589 598
4 5591 5592 3142 3693
4 5905 6224 6223 4623
4 5692 3648 5257 3649
4 5905 5098 3648 4623
4 5257 5806 1564 1565
4 3648 4349 1554 1563
4 4887 4886 1566 4888
4 5786 6305 2004 5754
4 5770 5775 4084 6162
4 5150 5696 6338 5697
4 4084 6305 6304 5774
4 6301 1996 6165 2005
4 5183 655 5275 654
4 5993 5183 654 645
4 5982 5183 654 5993
4 5768 5275 5183 5186
4 5183 5186 655 646
4 6307 5297 5985 5862
4 5255 5256 1083 5409
4 5914 5255 4529 5906
4 5255 5906 5914 1092
4 5407 5256 5255 5409
4 5899 5863 1085 1084
4 4382 3824 4380 4383
4 3974 3824 4380 4301
4 3824 4380 1748 1757
4 4382 3824 1757 4380
4 3824 1748 4380 4301
4 6111 5564 5586 5565
4 4612 4674 4559 4228
4 6110 4332 6072 5125
4 5586 4674 814 823
4 6131 5577 1869 6130
4 4613 6263 6131 6278
4 4603 367 4605 366
4 5074 4574 4603 4597
4 5074 4603 357 4597
4 4100 4717 4692 411
4 4100 4617 403 4618
4 4692 4746 1381 1390
4 4717 4617 4705 412
4 4717 412 4705 421
4 5312 4717 4705 4744
4 4717 4744 421 4705
4 3873 4919 3876 973
4 4904 3876 4998 973
4 3872 4906 964 973
4 4904 4345 4991 972
4 3478 3523 4126 3521
4 4083 5775 4084 6304
4 3918 3919 4164 3922
4 5045 4961 4979 4824
4 4839 4419 3594 4401
4 4302 4419 4401 304
4 4443 4440 4442 303
4 4069 4483 322 313
4 4401 303 4442 304
4 3598 4473 4483 4033
4 3594 3901 5772 4553
4 2885 2442 2668 2443
4 6022 5791 6016 3917
4 4830 2435 1671 2436
4 2670 2671 2191 2200
4 4830 2533 2436 6015
4 2533 6008 6007 1227
4 2533 6015 1236 1237
4 6312 6311 2522 2043
4 6212 6312 2043 2052
4 2524 2525 6312 2522
4 5482 3499 2524 2522
4 4082 4083 3358 4084
4 2523 5165 2525 2061
4 5820 1532 5545 5091
4 2781 5753 3543 5752
4 3879 6236 6252 6238
4 2927 5460 4123 5133
4 6242 4297 2162 6238
4 6061 5942 6321 6245
4 5793 6243 6242 6337
4 6238 6252 2162 2163
4 5524 1447 6160 6161
4 6168 1465 5633 1456
4 5459 1976 4340 1985
4 2639 2612 5962 3659
4 5769 958 5697 5776
4 5769 5770 967 5774
4 4083 5784 3843 5782
4 5769 5697 958 957
4 6338 6301 6165 4087
4 3359 5697 957 5151
4 4754 4712 5604 852
4 4712 4729 410 419
4 4712 4710 843 31
4 5594 5604 4729 4712
4 5594 4710 5553 843
4 4148 5594 4710 5553
4 4728 4729 418 4730
4 2921 6132 6286 4758
4 6120 4758 1393 6133
4 5174 1393 4758 1392
4 6283 5174 4758 6286
4 5603 6140 4223 6154
4 5603 1402 6145 1411
4 5603 6140 5659 4223
4 6154 6059 5603 6140
4 6059 6132 6138 6150
4 5603 1411 6145 6154
4 3998 3446 3223 3417
4 4757 6286 6132 4758
4 3766 1378 3109 1387
4 3833 5575 4100 4692
4 5944 5388 4128 1163
4 5388 1163 186 185
4 4128 185 5388 1154
4 5952 3697 3706 5924
4 5388 5966 186 1162
4 4022 5960 5277 5959
4 5985 5297 2131 5862
4 5899 5985 5911 5861
4 6307 5255 5899 5901
4 6307 5255 5901 5906
4 5985 2131 5297 2140
4 5840 3193 1108 1109
4 3069 5913 5946 5997
4 6269 5363 5368 5991
4 5368 709 710 5386
4 4634 4633 6269 4183
4 6189 5363 6003 5965
4 5336 6003 4852 4854
4 5359 4854 3874 6009
4 6003 5359 1231 1222
4 6003 5991 1222 1221
4 5359 4854 5336 3874
4 6248 1669 4854 6009
4 5718 5756 1978 5741
4 5678 6173 5718 5743
4 5678 5743 5737 941
4 6186 5719 5737 5743
4 5840 3193 2660 1108
4 5678 1986 5718 6173
4 6301 6165 1996 6173
4 6301 5696 5754 5776
4 4084 5769 5776 5774
4 6301 2004 6305 5754
4 4016 3956 4079 745
4 4079 5468 744 745
4 4475 3432 301 310
4 4016 4017 736 4079
4 4448 5446 738 3953
4 4017 726 5414 727
4 5468 745 3956 754
4 4858 4117 6164 1452
4 4117 4911 4858 3462
4 3460 6002 3463 2614
4 5826 2067 167 2058
4 5873 2059 5635 2068
4 5873 5814 2068 5635
4 4518 4522 5636 5635
4 5826 4195 4194 1022
4 5865 5834 5821 5838
4 5604 5648 861 862
4 4754 4712 419 4729
4 4288 5604 862 5648
4 4707 4754 4728 5648
4 4754 861 33 852
4 5594 4712 843 852
4 2896 5352 2886 6006
4 3222 2190 2189 3153
4 3416 1209 3396 6006
4 3979 4423 6013 4421
4 3396 6006 1209 1218
4 3396 1218 6007 6006
4 1228 1219 6007 6250
4 3731 4506 4469 5170
4 5692 5806 3692 3691
4 5591 4826 4057 5593
4 3085 3749 2625 3087
4 5215 5622 6333 4061
4 3651 5098 1546 3652
4 2239 6217 1559 3130
4 4167 5136 3344 3147
4 5060 3690 1551 2817
4 1558 2784 6217 2239
4 4271 5411 1547 1548
4 5867 5851 2085 5868
4 5865 5821 5834 5833
4 5812 2068 5814 2077
4 5834 5838 5851 1040
4 5428 5821 6030 5866
4 6273 6062 6056 6049
4 6056 6062 6048 6049
4 1823 6227 6048 5534
4 3353 5499 4132 3752
4 5533 5499 5534 6062
4 6056 1814 6048 1823
4 5897 1586 5187 1595
4 2990 5897 2989 5898
4 2477 6076 5143 6225
4 5057 1593 6225 1584
4 2990 4198 2989 6222
4 5233 1603 6228 1604
4 4528 5985 6239 5901
4 5935 2371 2341 1112
4 5913 5997 2150 5946
4 5638 1029 5821 5429
4 6030 5873 5635 5814
4 6030 5814 5812 5873
4 4518 5873 6030 5640
4 4367 123 276 122
4 4418 4367 122 1256
4 4367 123 2872 276
4 5763 4051 2872 6044
4 4371 6044 1752 1743
4 4416 4371 4369 6036
4 5812 5873 5814 2068
4 5865 5812 5813 5867
4 5865 6030 5838 5821
4 5812 5867 2077 5813
4 5812 5867 2076 2077
4 5852 5853 1048 1057
4 5841 5850 1056 5853
4 5854 6201 2094 5868
4 6202 2096 5089 2105
4 6201 5869 2094 2103
4 5694 4334 5675 3830
4 5694 1941 4334 1932
4 4341 4800 6330 5682
4 6041 1272 5389 4599
4 5366 4443 5389 6057
4 4839 5389 4443 4553
4 6304 6305 4085 2014
4 5786 5776 6305 5754
4 4188 5774 977 5775
4 4084 5776 6338 6305
4 6304 2014 4085 2023
4 4083 3843 3358 6162
4 5762 4449 5510 4035
4 1719 5029 6069 3507
4 6271 1719 6055 1718
4 6035 5481 6271 1718
4 4031 4404 4017 5414
4 3758 5116 4103 3753
4 3389 3390 3395 3391
4 3937 5673 3440 6055
4 5372 5279 5385 1185
4 5385 5280 5299 712
4 5299 5371 705 704
4 5957 5299 705 714
4 3252 3251 5824 3443
4 5279 4258 4257 4256
4 5280 703 5940 704
4 4869 5988 1627 4123
4 4870 1618 5110 4039
4 4870 5110 1618 1617
4 4869 4123 1627 4870
4 4871 4869 4868 4850
4 3282 5709 922 921
4 2746 3867 3646 3865
4 5978 3282 5668 4737
4 5668 4737 921 920
4 4602 5741 6288 6300
4 5709 912 4737 4735
4 5704 5715 5709 913
4 5045 4823 4860 4824
4 4860 4909 951 4824
4 4162 4909 4823 509
4 4162 4909 509 5723
4 4859 943 4928 5747
4 4812 4842 4859 4884
4 4349 1554 230 231
4 4349 230 1563 5056
4 4349 231 5354 1554
4 4886 1565 5257 1556
4 5021 6211 5168 5169
4 4349 4623 5354 2084
4 5324 133 5455 725
4 6258 5117 4253 5325
4 5324 5302 5455 1761
4 5455 133 1761 134
4 5455 1770 134 1761
4 5117 5302 5325 6258
4 5302 5304 1771 1762
4 5302 1771 5445 1770
4 4929 6069 6063 4365
4 4432 4430 5319 4399
4 6174 4212 6081 6050
4 3164 2273 2965 2629
4 5967 5968 1528 1527
4 5967 6203 1528 5968
4 6314 232 233 1536
4 6333 6309 5101 5968
4 6333 6210 5967 6203
4 5622 5215 6310 2065
4 4265 6310 4266 5968
4 6210 5622 6333 5967
4 6210 4199 5000 4271
4 4010 3651 4271 5411
4 6187 5688 5773 5711
4 5807 1465 6172 1474
4 6168 5807 5633 1465
4 5633 1456 5524 6161
4 6302 5633 5524 6161
4 5688 5717 5524 5633
4 4026 4783 450 459
4 6059 2921 5603 6132
4 6059 6140 6132 5603
4 5313 2310 4594 4038
4 3935 3254 5525 5520
4 3676 4505 4727 5842
4 3792 4158 5649 4159
4 3570 4806 2923 1919
4 5653 6114 6113 1937
4 5653 5730 3625 5880
4 3377 3099 3376 4811
4 3625 5730 3624 5880
4 4663 5970 1156 4662
4 4714 4128 5944 5924
4 4714 5970 4662 1164
4 5970 1165 4662 1164
4 5427 1156 4662 4664
4 5427 5970 1165 4662
4 4663 1156 5970 1155
4 4661 4662 4663 4664
4 4075 5402 66 1158
4 5402 5956 67 1167
4 5402 5956 715 67
4 5592 6223 5620 5905
4 5531 6013 3732 6012
4 3651 5620 5905 4008
4 3648 1563 1554 1555
4 5692 5022 3648 3649
4 5651 5570 5566 5232
4 5171 3614 6225 1583
4 6229 1591 5213 1600
4 4346 5651 5232 5003
4 6322 5111 2138 5315
4 4972 2738 6296 6097
4 4828 5671 4969 1430
4 4828 4969 6136 1421
4 6292 5916 6097 1955
4 5900 5479 6098 4989
4 4234 4828 6136 1422
4 3977 5919 3836 5078
4 3865 5664 4341 894
4 5664 2747 3865 3866
4 3865 5664 894 893
4 6315 5622 3651 6210
4 3320 3096 3404 3406
4 5658 5674 892 884
4 3837 3836 3977 3993
4 3697 4663 5924 1146
4 1183 1182 4290 5408
4 3705 4714 4663 4662
4 4139 5663 4141 4140
4 5663 1896 4141 1887
4 4635 5572 3329 5663
4 5628 3330 1888 1879
4 5860 5885 4356 1076
4 4389 5885 5876 6317
4 4386 4388 4393 6293
4 5885 5863 5646 1075
4 5876 5885 5859 4356
4 4389 5876 5885 5859
4 5876 5859 6201 5869
4 5852 5859 5869 6201
4 5885 5646 1066 1075
4 5677 3830 5675 3831
4 5677 1932 5694 3830
4 4789 3959 3962 5656
4 3296 5677 6330 6208
4 5695 5677 1933 5694
4 3436 3433 308 3971
4 4508 5515 5462 4018
4 4569 288 297 6053
4 5415 4428 4032 293
4 4448 738 5446 747
4 4448 3956 746 755
4 6327 5111 4360 5110
4 4360 6229 5213 1600
4 6280 4360 6229 5213
4 4360 1599 6229 1600
4 1599 5315 4360 6229
4 5634 5636 2525 5165
4 2524 2525 4520 6312
4 2525 2060 5636 2051
4 2525 6312 2051 4520
4 5554 5507 5555 5540
4 5526 787 5540 796
4 5507 4135 4468 5555
4 5507 5543 4135 5555
4 5484 3055 777 5472
4 6345 5528 5555 6274
4 4128 1164 185 184
4 4714 4128 5924 4663
4 4128 5388 5924 1154
4 5963 5944 1172 3744
4 4128 5970 1164 184
4 4128 5388 185 1163
4 4714 4663 4662 5970
4 3706 5924 5960 5952
4 6307 5901 5899 5985
4 4528 5913 6239 5985
4 5906 2372 4529 5914
4 5913 2141 5297 5946
4 5913 2140 6239 5985
4 5935 4655 2343 2371
4 6347 5299 4257 5371
4 4847 5393 5351 5284
4 5930 5392 1141 5393
4 5350 705 5371 696
4 5957 5372 5951 6347
4 3792 5649 4760 4784
4 3792 4845 4816 5701
4 3791 4238 4867 5641
4 4158 4760 5649 463
4 3792 3791 4238 5701
4 3792 4917 3119 5701
4 3793 4158 4814 4833
4 3082 4174 3040 3404
4 4158 4833 462 471
4 4951 520 4956 519
4 6341 4956 4951 3117
4 3149 4951 4956 519
4 3149 6178 1489 1498
4 6341 4916 4355 6178
4 5859 5869 1067 1058
4 5859 5885 1067 4356
4 5850 1066 5885 5646
4 6221 5157 5158 1589
4 5158 84 618 627
4 5158 5085 5179 618
4 6221 5158 5179 6220
4 3819 5809 3565 5011
4 5052 5818 5054 5049
4 5818 1016 5049 5666
4 5053 3208 2948 5818
4 5034 5053 5106 1023
4 5656 3960 868 867
4 3561 1906 6285 1915
4 3295 5677 3297 5693
4 3561 5677 1924 5693
4 3561 3959 3579 3831
4 3561 6285 1906 1905
4 3561 5677 1923 1924
4 4818 474 4791 465
4 4873 1454 4910 4864
4 6326 3949 3948 4776
4 4818 475 4873 474
4 4379 4801 4331 5661
4 4873 475 4863 484
4 6279 4544 4539 4436
4 4435 345 4544 354
4 2578 4324 3767 4677
4 4539 363 4586 354
4 4586 363 4636 362
4 4224 4524 4435 353
4 3700 5537 4207 6001
4 5594 843 4712 4710
4 4752 4148 4729 5568
4 5594 852 5604 4712
4 4148 4712 410 4710
4 5937 5095 236 2039
4 6309 6310 4265 5968
4 5958 4265 1518 5968
4 5958 4973 5968 1519
4 4950 4954 6190 4241
4 6309 5101 6180 6333
4 5958 4973 1510 4974
4 2741 4969 6246 6122
4 2741 2739 4972 6246
4 5399 4834 1297 1288
4 4054 5400 6062 1276
4 4055 6273 6049 4054
4 6049 4054 1275 4055
4 4296 4054 4322 5401
4 4054 1267 5400 1276
4 6199 6202 6201 5868
4 5850 5643 1065 5644
4 6199 6200 5853 5852
4 6202 6316 5089 2096
4 6202 2095 6201 5868
4 6024 5841 5850 5643
4 6282 5616 6079 5624
4 5376 2545 4493 2547
4 5175 1375 5176 1384
4 5174 1392 5177 1383
4 5616 4806 6128 1911
4 6079 6209 1913 1904
4 6079 6080 1912 1913
4 5408 4662 1174 1173
4 3698 5947 6328 3727
4 3728 3900 3858 3726
4 3284 1184 1193 1183
4 5222 3284 4290 4503
4 5222 3419 3284 2572
4 5617 4336 1902 6128
4 5616 6128 1902 1911
4 4294 5378 4492 4146
4 5202 6128 5617 5616
4 6066 2547 5599 1347
4 5599 1347 2547 1348
4 5380 6115 5551 5599
4 5551 5599 1357 1356
4 6066 6106 5599 2547
4 5376 5599 2547 5377
4 5599 5377 1348 2547
4 6115 5599 5377 1348
4 5935 2341 2371 2343
4 2343 6239 2148 5915
4 4657 2371 1120 5910
4 5935 176 2148 177
4 5935 2157 177 2148
4 2341 2371 1111 1112
4 2343 4528 2341 2342
4 5586 6131 5577 5564
4 5586 5564 815 5565
4 4559 4674 823 4228
4 4559 4228 823 832
4 4612 4559 5586 6131
4 5031 5461 1703 4364
4 756 4209 765 757
4 5031 1703 5461 1712
4 4016 4448 3956 746
4 3392 1712 3400 1721
4 3392 1720 3507 5029
4 3390 3391 3392 3507
4 5124 4447 5327 4406
4 5786 5774 968 977
4 5786 5754 2004 160
4 5786 6304 2013 6305
4 5786 5776 5754 968
4 5222 3701 3223 4290
4 5973 5408 4290 4045
4 3977 5919 5078 5154
4 2896 2668 2533 3450
4 4290 1191 4045 1182
4 3701 1202 3224 1201
4 3446 4290 3418 3720
4 5313 5574 4749 6121
4 4690 4759 4803 4748
4 4749 5977 1408 4803
4 6094 4745 5657 1372
4 6094 5657 1363 1372
4 4671 393 4096 402
4 4096 5575 4671 4100
4 5573 5575 6094 4096
4 6094 5657 6100 1363
4 5964 4090 6094 6100
4 6097 6296 1956 6139
4 6097 1965 6296 4989
4 2738 6296 6097 6139
4 2739 4828 5671 4969
4 4972 6097 6296 4989
4 5285 5247 1095 59
4 5285 59 1095 60
4 5309 5307 6332 5308
4 5285 5071 60 1104
4 1104 5071 5307 5285
4 2973 1632 5984 5969
4 2973 5969 1631 1632
4 2973 5320 1614 6226
4 2973 1614 5320 1623
4 5768 5752 6232 5275
4 5897 2989 5898 5971
4 5258 5254 5751 5217
4 6315 6281 5354 5098
4 4418 4440 4417 1265
4 1264 1273 1265 4417
4 4418 1265 122 121
4 4418 4066 4367 4417
4 5764 4417 1264 1255
4 4417 4442 4440 294
4 1265 4443 1273 1274
4 4066 295 4442 294
4 4443 4417 4442 4440
4 4031 4403 6260 5462
4 5415 5414 4017 4428
4 4403 1741 4453 3787
4 6260 4403 4455 1751
4 6260 4403 1750 5462
4 4550 5748 1309 4353
4 1319 4625 5024 4550
4 5788 4353 4550 1318
4 5293 4554 4555 4538
4 4550 4353 1309 1318
4 4550 1310 5748 5199
4 4600 339 4550 5199
4 4408 1 124 17
4 4408 1 284 16
4 4408 1 16 1760
4 4408 17 4129 284
4 4427 124 4408 1760
4 3977 5919 5154 5846
4 3977 5919 5843 3993
4 4910 4911 1462 4918
4 4910 1462 4911 1453
4 4910 1453 4864 1454
4 5047 4864 4910 4911
4 5955 5229 4366 4933
4 6299 4891 5229 4856
4 1445 1454 4791 4864
4 3977 3958 5147 5092
4 4572 6270 1830 3546
4 3553 3545 6068 4572
4 3750 4541 4540 6075
4 4540 1813 6056 1822
4 3353 4571 4132 6068
4 4572 6270 1831 1830
4 3578 4232 4139 3961
4 4635 5572 3050 3102
4 4139 4706 859 3961
4 4635 5663 4139 4140
4 4139 851 4141 860
4 4274 4106 5276 5278
4 5276 5275 664 663
4 5226 6000 5276 672
4 5226 4106 672 5276
4 4275 5333 1642 5240
4 4274 4275 4104 5240
4 4275 4201 5244 1651
4 5592 6218 5623 6224
4 3652 1547 5087 1556
4 5257 3648 1555 1564
4 3651 5087 1547 5411
4 6215 5803 5539 3835
4 5021 3649 3691 6211
4 4162 500 5723 509
4 4162 4860 4823 4909
4 4162 5723 4860 4909
4 4162 4884 500 499
4 5685 4875 3017 5683
4 4240 4250 4249 4242
4 4249 4250 1493 4242
4 4250 5345 4249 1484
4 5093 5612 1500 1491
4 5615 4241 4242 4250
4 5153 5218 5170 633
4 4506 5153 5079 5218
4 4506 5078 5153 4985
4 5153 5078 624 4985
4 3977 3836 5919 3993
4 2829 2713 3607 3667
4 5153 4985 624 623
4 5767 3237 5922 6234
4 5153 4506 5170 5218
4 2985 2952 2775 2981
4 6197 6178 3149 4968
4 3149 3150 4956 5083
4 3149 6178 1498 4968
4 3149 1489 4355 1490
4 6341 4951 3149 4355
4 3159 1570 3161 3132
4 5113 1580 5112 5137
4 3147 5085 5113 4999
4 5157 86 609 85
4 2257 2258 4999 600
4 2257 4999 5137 600
4 3159 1561 3997 1562
4 3342 3161 5849 5139
4 4296 4322 4532 5401
4 4322 4054 1267 5401
4 4322 4533 1257 4318
4 4532 4322 4533 1258
4 6023 3978 4831 1653
4 6023 4831 6329 2183
4 4872 2174 6329 2173
4 6005 2173 6329 2182
4 6236 2164 4872 6254
4 6023 220 221 1644
4 6023 4831 2183 220
4 4871 4869 6249 1644
4 5787 6236 4872 6254
4 4831 2669 6329 2183
4 5945 2150 5997 2159
4 5935 2148 2343 2157
4 5935 5915 2343 2148
4 5935 2341 2343 5915
4 5910 2371 2372 2370
4 4106 4105 682 4107
4 5992 4201 5384 1660
4 3664 5539 5545 4351
4 4106 4105 681 682
4 5944 3744 1171 1172
4 5960 5944 5277 5388
4 3835 4560 6342 5803
4 5816 5277 4022 3744
4 5816 1171 3744 1180
4 4191 5959 5277 5966
4 5944 5277 1162 1171
4 3192 5283 4021 4581
4 4714 4128 1164 1163
4 2814 2815 2816 4960
4 2858 4771 564 2869
4 4771 4960 2869 2858
4 2815 2858 4960 4771
4 4769 4960 4770 4771
4 4770 4960 2869 4771
4 2858 4771 565 564
4 4621 4724 408 4730
4 4678 4621 399 5568
4 4415 4724 4621 4730
4 4678 399 4621 398
4 4536 4678 5568 4621
4 4144 6278 1862 1871
4 5560 6110 6072 6004
4 4277 4281 5569 4286
4 4144 1862 6278 5606
4 4610 4144 6278 5606
4 6091 5267 4572 1839
4 6091 1848 5267 1839
4 4570 6067 1840 1841
4 6091 6092 5267 1848
4 3553 4572 6091 5267
4 6087 6088 6090 6037
4 5713 6123 1425 6157
4 5713 1434 6157 1425
4 4772 6142 4776 6143
4 3948 6142 4776 4802
4 4330 5713 6157 6123
4 4776 6142 4773 4802
4 5803 4560 6342 5802
4 4770 91 555 564
4 4201 1661 5384 1660
4 4854 5384 4855 1670
4 5965 4854 5384 4855
4 4913 691 4105 4107
4 4111 77 4914 1661
4 5965 4855 4914 699
4 4914 77 76 1670
4 4913 699 5965 4914
4 4185 6010 6020 6251
4 5617 1893 5381 1894
4 4306 5379 4742 4147
4 4742 4336 1892 1893
4 3371 4702 6112 5601
4 3685 3683 4957 5377
4 6083 5617 1903 5616
4 5074 4574 1328 1337
4 4230 4525 4693 375
4 3401 3737 4799 5964
4 4574 4722 1336 1337
4 4525 4605 375 366
4 4693 375 4605 4629
4 5074 4574 4722 4603
4 4429 3976 290 4383
4 3972 4429 3974 3976
4 3972 6266 4380 6267
4 4429 3976 289 290
4 4381 280 13 281
4 5574 1399 4749 6121
4 5574 1400 1391 4747
4 4747 4717 4744 420
4 5574 6121 1390 1399
4 4747 4692 5574 4717
4 1391 420 411 4692
4 4747 420 4744 429
4 4692 1390 6121 4746
4 3901 4553 1282 1291
4 4548 1291 3901 1292
4 3679 1292 3901 1283
4 4548 3901 1291 5772
4 3594 4069 4401 4419
4 4443 5389 1282 4553
4 4443 1265 4417 4440
4 3679 4069 321 312
4 4069 4419 4483 313
4 4335 5690 955 956
4 3359 966 5769 5770
4 3875 3361 3362 3496
4 3873 4919 973 982
4 5690 5151 3359 956
4 5312 4692 5574 6121
4 3833 4692 4746 5575
4 4617 4100 3832 4618
4 4692 5575 1381 4746
4 4692 5574 6121 1390
4 4677 6331 4478 6078
4 4512 317 4149 326
4 3973 4301 6266 3513
4 3590 5330 3597 5370
4 4512 4458 4472 3437
4 2503 5341 5340 2502
4 5370 3437 6331 5926
4 4513 4473 4487 324
4 3598 4033 4419 4035
4 5925 5926 4487 316
4 4399 6073 1791 4400
4 5687 4400 4044 4065
4 6336 4400 5687 4433
4 3941 6043 3757 6073
4 4065 6073 4064 6043
4 6177 6081 6339 6261
4 2503 1792 4400 5319
4 4433 4400 2503 6336
4 2503 6336 4400 1801
4 5765 6034 5766 5764
4 3441 3440 3511 4567
4 4642 5505 4014 6040
4 5293 4625 5788 4550
4 5505 4014 6040 1261
4 4509 5505 1261 1270
4 6041 5764 1263 6034
4 3702 5480 3517 5481
4 5972 4014 4439 6034
4 5100 4950 6101 5099
4 5793 6238 6242 5942
4 4851 2155 6245 2146
4 5942 6237 2163 2154
4 5934 4123 4870 4039
4 6237 2164 6238 2163
4 5934 4870 4851 5110
4 3856 3332 3855 4056
4 2957 5881 5219 6231
4 5366 4066 4442 4417
4 5366 6057 5764 4417
4 4368 4370 278 277
4 5763 6046 4370 4051
4 5763 6046 4051 6044
4 4405 4370 6046 1754
4 4405 1755 6267 4372
4 6066 5600 6106 1886
4 6079 5550 6209 1904
4 5381 4742 1884 1893
4 5381 4742 1893 4336
4 5379 4742 4147 1884
4 2802 5552 6115 4102
4 1895 1904 252 6083
4 5549 2803 4679 6118
4 6083 5600 1895 1894
4 3862 5089 5088 2097
4 5692 3692 5592 3693
4 3093 5587 3946 3094
4 6280 5651 6229 6322
4 5138 6218 2081 2082
4 6218 6224 2082 5623
4 6218 2082 6224 2091
4 4007 4887 5410 4196
4 5021 2091 2092 2100
4 4921 3004 3006 3007
4 3651 3652 5905 5098
4 4886 5257 3652 1556
4 3127 5169 2109 2100
4 6046 5416 5418 5365
4 4416 4417 1256 4367
4 4371 6036 6044 1743
4 5365 4368 5763 6046
4 5763 4066 285 286
4 5763 285 4367 276
4 4416 4066 4417 4367
4 4416 4367 1256 1247
4 4416 6044 4367 2872
4 6117 1899 3504 1890
4 3504 3329 1898 3503
4 4263 1899 6117 1900
4 4741 4742 4336 1892
4 5629 4779 5581 5631
4 5630 1900 5581 1901
4 5266 2471 4029 4027
4 5214 4039 1610 6323
4 4360 5213 5214 1600
4 5933 6280 6327 6325
4 6061 6236 5942 6237
4 4044 5463 4065 1809
4 4003 3784 3468 3421
4 5463 5541 1808 1817
4 5587 5588 4698 4255
4 5960 5404 1144 5959
4 5404 5283 1135 1134
4 4186 3253 5306 2882
4 3443 3745 3410 5819
4 5301 5590 3348 4921
4 5948 5875 5404 5941
4 3411 3743 4022 3744
4 5948 5404 1143 1134
4 5948 1133 5941 1134
4 4798 5128 5132 4039
4 6245 2145 6325 2146
4 6018 5934 4123 4870
4 6245 6321 2145 2154
4 4221 4220 826 4222
4 4221 825 4582 4685
4 4219 4647 4637 4221
4 4647 4637 4221 4582
4 4637 4582 392 4685
4 4537 4695 6119 4535
4 4647 4148 401 4710
4 6066 5599 5600 1356
4 5551 6096 5600 1356
4 5551 1356 5600 5599
4 5600 5381 1885 1894
4 5617 5600 1894 5381
4 5587 3946 4698 5043
4 5175 6209 5177 6080
4 1904 5550 6209 1365
4 5379 1876 6106 1885
4 4957 6115 5380 5599
4 5376 5600 6106 5599
4 4757 6132 6286 1931
4 6286 6289 1921 1930
4 6286 6289 1930 6150
4 2921 5603 6132 4758
4 6132 6140 6138 1939
4 6080 6289 5624 1921
4 4757 5177 6286 1392
4 4125 2408 4062 4124
4 6106 1885 5600 5381
4 2546 2545 6106 2547
4 4148 409 4729 5568
4 4647 4710 4582 5553
4 4895 4651 5142 4579
4 3541 3113 3276 3542
4 5204 638 5230 637
4 5231 5872 6064 6240
4 5204 628 5181 5159
4 5204 5159 629 628
4 4784 4816 5649 4815
4 4797 4816 4815 897
4 4784 454 4785 455
4 3580 4785 4784 454
4 4917 3580 4784 4760
4 4797 464 455 36
4 3580 453 4794 4782
4 4917 5701 4840 5650
4 4840 5621 5650 889
4 4840 898 5701 4816
4 4840 889 5650 898
4 4797 455 4784 4785
4 4917 4840 4784 4785
4 5791 6008 6016 6019
4 5270 2897 3388 6008
4 4357 1656 6011 3917
4 2778 4295 5242 5585
4 5618 4709 4793 4645
4 5632 5618 4792 4793
4 5618 4793 4709 5648
4 4708 4709 437 4645
4 4708 4768 4645 446
4 4765 436 4733 435
4 4733 4778 5632 4765
4 4716 2740 6074 6335
4 4540 6270 4787 1821
4 5533 6270 3554 4540
4 6075 1811 5340 1812
4 4551 4538 4210 341
4 4551 341 4210 342
4 4606 4551 4538 4210
4 4556 342 4583 4210
4 4524 344 4435 353
4 5854 2085 170 169
4 5854 5869 170 2094
4 5834 5852 1048 1049
4 5834 5854 5851 5868
4 5854 5851 2085 169
4 4321 4067 337 4564
4 6298 5494 4615 4588
4 4471 4666 4137 6298
4 6298 4321 4564 4067
4 5494 4615 771 4320
4 4321 4067 328 337
4 5288 4203 2540 5928
4 3915 5409 3916 5845
4 2672 3654 2879 2882
4 3065 2340 3722 2370
4 5585 5752 5751 5155
4 5265 5269 5211 669
4 5309 5195 2878 5894
4 5895 5225 5307 5894
4 4012 4439 3518 4373
4 4439 1716 4373 4832
4 4624 4723 4597 4534
4 3518 6035 1717 5481
4 1707 3518 4211 3488
4 6262 4014 5505 1261
4 3983 6174 6050 4212
4 4439 4832 1244 1243
4 4523 4490 5494 4564
4 5494 772 4615 4588
4 5494 772 4588 781
4 4490 4590 4564 4545
4 4490 790 5497 5508
4 6298 4564 4437 4067
4 5497 781 5494 4588
4 4862 5588 4894 5590
4 4814 4160 480 471
4 4879 4880 480 4160
4 5685 4880 4879 4160
4 4881 1415 4838 4239
4 4913 5965 6189 5384
4 5965 5363 4852 709
4 5363 5362 5368 701
4 4913 4105 691 690
4 6248 1669 5992 5384
4 6248 6003 4854 5965
4 5362 4107 692 691
4 4913 691 5362 700
4 5362 692 4107 5335
4 5367 5362 4298 5335
4 5367 702 5368 701
4 5497 782 4588 5477
4 6298 6279 4564 5494
4 5497 4588 4666 5477
4 6179 5497 5532 5508
4 4554 349 4597 348
4 4554 340 4538 349
4 4549 4554 339 4550
4 5293 4550 4554 4625
4 4550 4625 5024 4554
4 3160 805 5527 5565
4 5527 797 5540 5563
4 3160 5526 5527 796
4 5527 5439 5563 5528
4 6072 6110 5125 6004
4 5559 4688 5508 5532
4 4688 5508 5532 800
4 4539 4586 363 4636
4 5870 4489 4668 4563
4 3920 5537 4207 3700
4 4688 4668 808 4684
4 6059 6138 6132 6140
4 2921 6286 6132 6150
4 6132 6286 1930 6150
4 6132 5659 5603 6140
4 5688 1984 5459 1985
4 5688 5459 1984 5711
4 5688 1985 5459 4340
4 5501 5524 5502 6160
4 5459 5524 1446 5502
4 5459 5524 4340 1446
4 4013 3987 5504 3555
4 5480 3518 3516 3517
4 3516 3518 1707 1708
4 4299 4300 1249 1250
4 4420 1698 210 1689
4 4299 4300 1250 3494
4 3516 4454 4211 3518
4 4454 3494 1250 1251
4 3516 4211 4454 4420
4 4437 4590 4544 346
4 4437 4067 4564 337
4 6279 4544 4437 4590
4 6298 6279 4437 4564
4 4437 4067 337 336
4 4471 4485 4486 4437
4 3310 4187 3304 4908
4 3861 3129 2090 5212
4 5891 5980 5208 5892
4 5919 5079 4506 5078
4 6316 4154 5088 5228
4 4444 3564 3156 3576
4 4150 5890 5469 5896
4 3350 3353 3352 6272
4 4787 3546 1829 1830
4 3333 4573 5595 4632
4 4787 1830 6270 3546
4 3554 4787 4540 6270
4 4962 45 4980 536
4 4962 4944 969 960
4 4171 4962 4178 4944
4 4962 4980 969 4943
4 5994 6017 6251 5995
4 3870 4184 4185 5887
4 6251 6019 5356 1666
4 6010 1667 6251 5356
4 5692 4623 5022 6224
4 5022 3648 4349 4623
4 5642 5022 5056 2102
4 3648 5022 5056 3649
4 6010 1668 6020 1667
4 5359 6009 3874 5987
4 6010 6009 6020 1668
4 5714 4179 496 4893
4 4185 4184 6251 6020
4 6010 6020 6251 1667
4 4184 6017 5249 1233
4 5224 5071 1113 61
4 5224 61 1113 62
4 5326 4161 679 688
4 5224 5071 5225 1113
4 5224 1122 62 1113
4 5224 1122 5225 5932
4 6027 4533 1249 4300
4 3986 4315 6027 4533
4 4420 1698 211 210
4 3985 3516 4299 6028
4 6047 265 1248 1778
4 6025 6026 6029 6028
4 6047 266 1239 265
4 6029 1778 6047 4315
4 6027 4466 6028 4299
4 3494 3987 5480 4299
4 3986 6027 4299 4300
4 6027 4299 1249 1240
4 4299 4454 3494 1250
4 3516 4420 6028 1689
4 4211 1241 4420 211
4 4459 291 4402 292
4 3429 3431 3955 4016
4 4382 4402 4383 282
4 4402 4395 4383 291
4 4411 1749 3824 3825
4 5108 4031 4459 5515
4 5515 4411 3824 3825
4 4068 15 283 282
4 3792 4158 4760 5649
4 3792 5684 4159 4845
4 3123 3580 4760 4794
4 4760 463 4784 5649
4 5163 5846 1050 1051
4 5163 1051 5843 5846
4 5146 5846 5163 5147
4 3977 5844 5843 5163
4 5163 5064 4182 5127
4 6249 3978 1653 1654
4 4871 6249 6023 1644
4 3247 3252 2929 3251
4 2445 4872 6329 6254
4 4872 2173 6329 6254
4 4872 6254 2164 2173
4 2885 3365 5790 2443
4 5350 5331 697 5306
4 5350 4849 5331 5306
4 5281 5353 5331 698
4 5331 5306 688 697
4 5281 5326 5331 5932
4 5281 1122 5224 5932
4 5331 4161 688 5306
4 5101 6198 6194 5958
4 6309 6310 2056 2057
4 5939 5937 5095 1509
4 5714 4937 4260 505
4 5099 5101 6180 5100
4 4954 5746 5742 6190
4 5937 2048 6198 2039
4 6309 5958 5968 4265
4 5937 235 2048 236
4 5714 4260 496 505
4 5315 6322 5651 2129
4 5651 4346 2119 2128
4 5651 4346 2128 4347
4 6229 5651 5566 5315
4 6322 5651 2128 4347
4 5714 5796 4923 4899
4 3263 3772 3796 3771
4 4734 4737 3281 4738
4 4335 5151 947 5152
4 4179 5798 5590 4894
4 4997 3871 3520 3883
4 927 5716 6077 4876
4 4958 3639 4961 5514
4 3638 4936 3639 4928
4 3579 3962 869 878
4 3578 3961 3579 1905
4 3579 878 150 3831
4 3959 1905 3579 3961
4 5550 6118 1375 1366
4 6083 5600 6096 1895
4 5245 5285 662 5247
4 6332 5245 5248 5236
4 5546 1087 5348 1096
4 5309 5245 5237 5248
4 5197 4422 5239 5211
4 5546 5348 5308 1096
4 5309 5894 5307 5308
4 5237 5265 5248 661
4 5307 5894 1105 5308
4 6327 2147 2146 2138
4 5109 5111 6327 5110
4 4869 4868 1626 1635
4 6322 4347 2128 2137
4 4851 6245 2155 6237
4 6327 6245 6325 2146
4 5934 4850 4851 4870
4 5613 6207 2011 2020
4 5094 2020 5614 6207
4 5761 6207 6188 2011
4 5760 5761 6188 2002
4 5761 6188 2002 2011
4 4952 2012 239 2021
4 5761 6126 5613 2012
4 6152 4690 439 4759
4 6152 440 4761 439
4 6152 440 4038 4595
4 5976 4690 6152 4759
4 4106 5276 673 672
4 6000 5276 5275 5333
4 4275 5226 6000 5276
4 4275 5226 5276 4106
4 5281 5326 5932 5224
4 5907 5932 5225 5931
4 2878 5328 5495 5894
4 5326 5331 4161 688
4 5895 5238 5907 5269
4 5238 5224 680 5071
4 5238 5224 5071 5225
4 5326 5269 679 4161
4 1558 4196 2784 5410
4 5410 4196 4887 1558
4 5139 3338 5070 6217
4 3088 1539 4271 4199
4 5060 2817 1551 1542
4 4009 4008 5411 5087
4 3147 3161 3145 5112
4 2848 3531 4189 5059
4 3530 5827 5080 3532
4 4060 4061 5626 5216
4 3692 4886 5257 3652
4 4886 1556 3652 5087
4 5615 5612 5096 5094
4 3649 5257 1564 3648
4 5257 3652 1556 1555
4 5194 5218 643 5243
4 5194 635 5188 5198
4 4501 5246 5072 4507
4 5194 5079 5188 634
4 5994 1674 6019 1675
4 5994 204 6017 1234
4 5994 1675 6251 6017
4 5994 5995 6008 1235
4 3813 2837 3812 5453
4 5918 5614 5100 2028
4 4240 4252 4241 4243
4 4807 4810 5452 2035
4 4445 3576 4444 3577
4 6333 6203 5101 5742
4 5100 5739 2028 2037
4 4859 4162 4884 5723
4 4859 942 4860 5723
4 5061 4162 4859 4860
4 4859 5747 4860 943
4 4812 924 4865 4843
4 2828 2830 4046 3997
4 2830 3997 1552 4046
4 2830 1551 3690 2817
4 4847 5393 4077 5351
4 4074 4075 5387 1149
4 4075 5402 4077 716
4 5930 4074 4076 5393
4 3221 3223 3222 3332
4 3383 3450 3396 6250
4 3222 3052 2197 2198
4 3613 3614 5570 1582
4 5003 4346 5169 5232
4 2111 5232 5566 5642
4 5642 2102 5056 229
4 3613 5642 5232 3649
4 5171 1591 5570 1582
4 5171 6229 1591 5213
4 2479 5220 2584 5004
4 3159 2258 2257 2256
4 2258 4152 4999 601
4 3159 3145 3161 5112
4 3145 2258 4350 4152
4 5714 5796 4937 4923
4 4113 4982 5015 5012
4 4113 987 48 47
4 4113 5039 5050 5069
4 5487 5039 4982 5015
4 5009 5039 5033 553
4 5069 997 5036 1006
4 5792 5037 988 4996
4 5792 987 5012 978
4 5689 3624 6214 6213
4 5015 988 5037 997
4 4516 4521 5785 4520
4 4521 2041 6306 5785
4 4522 4521 2050 2049
4 4516 4521 4945 6306
4 4516 4946 4945 4517
4 4193 4945 1004 1003
4 4521 2041 4520 2050
4 5792 4981 4980 5012
4 5792 4996 979 4943
4 5792 4980 978 5012
4 5792 5015 5012 987
4 5487 5015 5037 5036
4 6309 2048 4265 2057
4 5968 6310 4266 5967
4 5100 6205 5739 2037
4 5622 5215 2065 5623
4 6333 5967 5968 6203
4 5215 2064 5623 5626
4 5788 1318 4550 4625
4 5788 1317 3821 4353
4 5293 4550 5788 4353
4 4624 4554 4597 4625
4 5788 3821 1317 1326
4 3029 3160 3031 3910
4 5526 5527 796 5540
4 4333 4725 4332 5125
4 6345 5472 5540 5526
4 3204 4966 5081 580
4 3204 571 4966 580
4 5035 5017 5054 5050
4 5052 5017 5054 4966
4 3958 5844 5163 5064
4 5032 3204 571 4966
4 5035 1005 50 49
4 5035 1014 50 1005
4 5069 1006 5036 5049
4 5054 1006 5049 1015
4 5053 5035 5054 1014
4 5035 5017 5050 572
4 5053 5054 1015 1014
4 5052 5053 5054 5818
4 5034 5062 1023 5106
4 5069 1005 5054 5050
4 3159 3145 5112 2258
4 3145 4999 2258 4152
4 3161 5139 3132 1569
4 3161 5139 1569 1578
4 3670 5656 867 3960
4 2743 5674 3865 902
4 2767 2800 2770 2771
4 4700 3670 866 867
4 3301 4804 3233 3503
4 4263 1908 3569 4804
4 3670 3606 875 876
4 6260 4411 5462 1750
4 4407 4411 4068 4402
4 4407 5414 4031 5415
4 4068 4402 4411 3824
4 4080 4428 19 302
4 5689 5729 1936 5730
4 4678 4536 4660 5145
4 3080 4327 2312 3079
4 6169 4081 4992 6170
4 4579 4660 4647 4148
4 4619 380 4683 389
4 4619 4659 389 4683
4 6282 5176 2319 6120
4 5072 1060 5846 5073
4 5149 1059 5072 2890
4 3977 2963 3958 5092
4 5919 5078 5154 5188
4 5933 6327 4851 6245
4 6327 4851 2146 2147
4 5111 5109 1617 5110
4 6327 6322 5111 2138
4 6322 4347 6280 5651
4 6327 6325 4347 2137
4 6327 2146 4851 6245
4 6327 2146 6325 2137
4 4569 3938 5510 3894
4 4567 6266 6268 6264
4 2719 2865 2864 3293
4 3894 5510 297 306
4 3894 289 3976 298
4 3894 288 297 4569
4 4208 4034 5925 5926
4 5193 5546 5247 1086
4 5546 5348 1087 5272
4 5546 1095 5307 5247
4 5245 5546 5247 5243
4 6184 5007 3665 5855
4 5855 6184 5082 6175
4 6183 5001 4227 4975
4 5001 4227 4975 538
4 5238 5326 5269 679
4 5895 5238 5269 5265
4 5238 5326 680 5224
4 5238 5225 5326 5224
4 5895 5237 5238 5265
4 6118 1376 5176 1375
4 5550 1366 5551 5552
4 3765 3927 2321 3764
4 5689 3568 1926 6214
4 6118 5552 1367 1366
4 4600 4554 340 4555
4 4600 5199 4550 5748
4 5293 4600 4554 4550
4 4600 4504 331 330
4 6280 6322 6327 4347
4 4360 5315 1608 6322
4 5315 5651 6322 6229
4 5689 1927 5880 1936
4 5689 3568 5880 1927
4 6259 272 1764 1763
4 6259 5434 5382 4206
4 6259 1686 272 273
4 6259 1764 4326 5465
4 3944 4206 5465 5491
4 4206 5492 1772 1773
4 2669 6329 2183 2182
4 2435 2670 2192 2201
4 4830 4831 3978 1662
4 6023 6329 4831 3978
4 5660 5661 6144 1432
4 4830 2435 2670 2669
4 5534 6062 1284 6048
4 5534 6062 1285 1284
4 6048 1823 5534 6056
4 3557 4331 3562 3063
4 3545 4572 4571 6068
4 5533 5534 4571 6056
4 6062 5499 1285 6052
4 5678 5737 5743 5718
4 5679 1968 5722 5741
4 3283 5737 6186 5719
4 5737 5719 940 5743
4 5737 5719 931 940
4 3283 3282 5737 5719
4 5679 156 1968 157
4 4066 4417 294 4442
4 5365 5366 4066 4303
4 5365 4417 4416 4066
4 4418 4066 4417 294
4 5763 277 4368 286
4 5791 3388 6008 6019
4 5989 6019 5994 1674
4 6016 6011 1665 3917
4 6016 3917 1665 1664
4 5989 5994 6008 1235
4 6022 6015 1672 1673
4 6022 6016 1664 3917
4 6016 1236 2533 6015
4 3679 3901 4069 4401
4 3679 321 118 312
4 4443 3901 3686 4401
4 3678 3679 1292 4548
4 4678 4660 5568 399
4 4219 4220 4222 4681
4 4660 5142 4579 4638
4 4536 4678 4660 5568
4 1553 3997 2505 2868
4 2868 1553 3997 4046
4 2849 4189 4350 583
4 2849 4189 583 574
4 2703 2711 2704 2713
4 5611 5094 6207 5613
4 5094 5614 2020 2029
4 5094 6207 5613 2020
4 5093 1500 5096 5095
4 5063 4182 5064 5127
4 5062 4182 5063 599
4 3996 5835 5896 5890
4 5063 5005 598 5127
4 5062 1032 52 1023
4 5148 1033 5106 5825
4 5062 590 5063 5081
4 3208 5106 5063 5081
4 3208 5067 5063 5005
4 5053 1024 5818 5825
4 5106 1024 5825 1033
4 5053 1015 5818 1024
4 5034 5081 581 590
4 5485 3205 5052 5665
4 5490 5049 5069 5036
4 5485 3205 5032 5052
4 5035 5054 5017 4966
4 5032 5033 5017 562
4 5039 4982 554 553
4 5039 5050 5017 563
4 4113 5015 5039 5069
4 5018 5487 5033 5488
4 5490 5033 5039 5017
4 5069 5015 5036 997
4 5490 5054 5069 5049
4 4850 2156 4868 2165
4 4871 4869 1635 4868
4 4850 4851 2155 6237
4 5109 4870 4868 1626
4 6018 4872 4850 4869
4 5593 5623 2064 5626
4 6206 5626 6276 2063
4 4057 5623 5593 5626
4 3692 4886 5806 5257
4 5593 5626 2064 2063
4 5593 5623 2082 2073
4 4319 328 4321 4476
4 4319 4321 4320 4615
4 4319 319 4480 320
4 4461 4319 319 4480
4 3431 4457 4459 3432
4 6294 4319 4547 4615
4 4575 4547 763 4615
4 3428 4547 4319 4480
4 3429 5468 4480 4475
4 5468 4488 754 3956
4 4547 754 4488 763
4 4397 4615 4547 4319
4 4397 320 4319 4480
4 5062 1023 5106 1032
4 5062 4182 52 1032
4 5062 5106 5081 5063
4 5034 5062 5106 5081
4 5174 6080 5175 5177
4 6080 6286 1922 5177
4 6079 5616 1912 5624
4 6282 6079 6080 5624
4 5175 6079 6209 6080
4 6283 6080 6286 6289
4 4707 4709 4793 5648
4 4765 4709 4645 436
4 4765 4709 436 427
4 5618 5903 4753 4765
4 4728 4754 5604 5648
4 5903 4765 4180 4753
4 4707 870 5648 4793
4 5841 4237 1047 1046
4 5643 5644 1064 1065
4 5406 4155 5839 5890
4 3143 4153 3239 3862
4 5890 5406 4727 5889
4 4622 4587 4646 373
4 3540 3920 6343 4236
4 4646 4641 374 4566
4 4219 4681 4222 5567
4 4646 4566 374 373
4 3897 5660 6144 1423
4 3948 4802 4791 6142
4 4802 4776 456 4773
4 4377 1435 6142 4864
4 6142 5713 1426 1435
4 4316 4315 1787 1786
4 4316 4315 1786 6265
4 6026 6255 1681 268
4 6027 4533 4315 1248
4 4316 4315 4533 6058
4 5309 5237 5895 5265
4 5891 5980 5892 6247
4 3415 3068 2694 3414
4 5847 2372 1101 5914
4 2659 2245 3914 3760
4 6324 4501 5272 5194
4 5912 5904 1098 5329
4 1813 6056 6273 4541
4 6273 6049 6056 1814
4 4317 6273 4055 4054
4 6273 4541 1804 1813
4 5134 6246 5458 5135
4 5501 5458 6246 5502
4 5458 5459 1976 5135
4 5501 5458 5457 5478
4 6297 5458 1966 1967
4 5457 5458 1975 5478
4 6029 4315 1777 1778
4 6027 6047 1248 4315
4 6256 6029 1777 6050
4 3227 6174 3983 5318
4 3986 6027 4315 6029
4 6026 6028 1681 6051
4 6025 6027 1239 4466
4 3958 5064 5163 5127
4 5006 3950 3197 5358
4 5106 3958 5064 5148
4 3958 5127 5163 5147
4 5148 5844 1042 1043
4 3993 5843 5844 5364
4 6083 6079 1903 1904
4 6083 5617 1894 1903
4 5175 1374 1375 1383
4 6083 6096 5551 1365
4 2921 6289 6283 6286
4 5617 5616 6128 1902
4 5549 6083 5551 5550
4 5200 5381 5617 4336
4 1423 5660 6144 1432
4 4675 1343 4694 1344
4 4750 6112 1362 5598
4 4750 6112 1361 1362
4 5274 4750 6112 1361
4 6108 1370 4142 1379
4 3681 1341 3682 1342
4 6071 4841 2502 5340
4 5533 4540 4541 6056
4 3563 3216 3254 2728
4 5534 6062 5499 1285
4 6052 5400 1276 6062
4 3751 6273 4054 6062
4 5533 4132 3752 4571
4 3750 6075 5340 4541
4 5424 3785 1724 3786
4 5419 5421 1723 3785
4 3389 5123 5436 3400
4 5448 3785 3786 5426
4 5448 4406 5426 730
4 5424 1724 1715 128
4 5870 4563 4668 4566
4 4539 364 4563 4566
4 4563 4590 4596 356
4 5870 6279 6179 5508
4 4489 4668 799 5508
4 4609 4604 5291 4551
4 4583 5290 6093 4495
4 4609 4604 4551 351
4 4583 5290 4210 4551
4 2996 5323 3596 4606
4 4556 343 4583 342
4 4352 4624 5781 5788
4 4666 4575 4576 4588
4 4524 343 4495 344
4 4495 3907 4524 3905
4 4369 6038 1245 1246
4 4369 1734 6036 1743
4 4369 215 4305 1734
4 4119 1734 4369 4305
4 4611 5598 1353 1354
4 4611 4750 1353 5598
4 4218 5274 1351 1343
4 4721 4605 4693 4722
4 5273 2862 4192 3278
4 4693 6100 1354 1355
4 5099 6180 5215 5216
4 5100 2038 6198 2047
4 5101 6309 6198 5958
4 5215 2055 6180 2056
4 6205 2046 6180 2055
4 6309 6180 2047 2056
4 4031 4018 4017 4404
4 4456 1742 4403 3787
4 4460 5426 729 720
4 4460 729 5447 728
4 4456 5426 3786 3787
4 4018 4403 4508 3787
4 4455 1742 126 125
4 4018 4404 4460 728
4 3952 5108 4032 3431
4 4475 4459 3432 3431
4 4032 4079 4080 4428
4 4475 4480 3432 310
4 4032 4080 302 4428
4 4017 735 4428 726
4 5468 4475 4479 4480
4 3429 5468 4079 3956
4 3430 3954 3428 3955
4 4080 4479 20 744
4 3795 3015 3641 4875
4 3856 2170 3857 4297
4 4036 2187 3900 2178
4 3858 2178 3900 2177
4 3715 3855 3854 3858
4 3854 4036 3223 5222
4 4036 2188 2179 3332
4 5134 6297 6246 6122
4 6297 6146 6122 5383
4 6297 1958 6146 5383
4 6297 1957 6146 1958
4 4972 5458 6297 6246
4 5807 6163 1474 6172
4 5662 5807 1473 5633
4 5807 5633 1465 1473
4 5717 5633 1455 5524
4 6187 5688 5760 5773
4 3204 5067 580 5081
4 5067 5063 589 5081
4 5067 5005 3196 588
4 3208 3204 5081 5067
4 5972 6054 4439 4373
4 6054 6038 1245 4305
4 6054 1253 4439 1244
4 5418 4119 1735 6036
4 5766 6038 5764 6054
4 4539 4587 4636 363
4 4539 3536 4636 4587
4 3906 4435 4485 4437
4 4563 4544 4539 6279
4 4435 354 4586 353
4 4435 345 4485 4437
4 4657 1121 4656 1130
4 5935 4656 2371 1121
4 5935 4655 4656 2157
4 4654 4657 3729 4655
4 4655 2158 5886 2167
4 4656 4654 178 2166
4 3737 4693 5598 4611
4 4693 4230 4629 6100
4 4693 4611 1354 5598
4 4693 4611 4722 1345
4 3428 4547 5468 4488
4 3429 4475 4480 3432
4 3429 3432 3431 4475
4 4079 5468 4080 744
4 4316 4317 4318 4322
4 3623 2805 2978 2980
4 4316 4317 1795 1796
4 3751 6273 4317 4054
4 4316 1787 4318 1796
4 5328 1106 5894 5308
4 5328 1115 5894 1106
4 5195 5308 5328 5894
4 5328 5495 1115 1116
4 4697 5793 3167 6181
4 5210 2881 5211 5196
4 5295 5254 666 5155
4 2534 2535 2537 2541
4 6261 1693 4130 4364
4 6261 1684 4130 1693
4 4363 4364 1702 1693
4 6339 4363 6261 4364
4 3627 4970 5730 5721
4 6261 1692 6174 6257
4 6257 6081 6261 4510
4 6261 4130 1684 4510
4 4455 4460 4404 719
4 4404 4460 728 719
4 4018 4460 4404 4403
4 4427 6260 4455 1751
4 4455 4456 4403 4460
4 4427 718 5414 717
4 5323 4548 4561 5772
4 3679 1292 4548 3901
4 3678 3679 4069 321
4 3679 4548 4069 3901
4 5944 4128 5388 5924
4 5963 4045 1181 1182
4 5944 5277 5388 1162
4 5944 5277 1171 3744
4 4397 753 4547 762
4 4397 4320 22 762
4 4397 4547 4480 4319
4 4397 4479 753 21
4 5006 5005 588 3196
4 5006 587 3196 588
4 5358 5828 5084 5827
4 2711 3529 2712 3530
4 5865 5866 5833 6021
4 2946 5090 2894 2947
4 6230 6288 5733 3773
4 2268 2745 2270 3644
4 5758 1979 6300 1970
4 5758 5733 1970 6300
4 3214 3264 4738 3669
4 6300 5733 4602 5758
4 4407 15 1759 16
4 4407 4408 4129 284
4 4407 4408 16 1760
4 5415 284 4129 293
4 5415 4031 4459 4032
4 4031 4411 5515 5462
4 5415 4031 4032 4017
4 6346 4162 4902 4884
4 4762 955 3133 6014
4 3639 5747 944 953
4 3061 3093 3567 3095
4 4311 4343 5514 4991
4 4559 5577 6130 5596
4 2380 4024 2679 4023
4 5597 4228 832 5605
4 4559 5586 5577 824
4 5597 4559 832 4228
4 5597 4559 5596 833
4 5434 1686 5382 1687
4 5304 1772 4206 5492
4 5325 5451 3609 5117
4 5303 1762 1761 274
4 5303 5382 5304 1762
4 5122 5302 5304 5506
4 5302 5455 5445 3609
4 5324 5302 5303 6258
4 3262 3260 3263 3280
4 4217 4135 4467 4468
4 4217 4216 4467 770
4 5554 5507 4217 4468
4 5472 778 5507 787
4 4078 6104 5554 4214
4 5562 1815 4468 4467
4 4214 5513 5562 5541
4 5562 4216 5475 4467
4 4214 5562 4217 4216
4 4214 6344 5541 5562
4 5562 1816 5541 5513
4 5472 5507 5540 787
4 5507 779 4217 4135
4 5554 5484 5507 5472
4 5484 4217 5507 778
4 5507 5543 5540 788
4 5726 3771 4897 5667
4 4644 4718 424 423
4 5652 4700 3670 866
4 6005 6329 2173 6254
4 3153 3383 3222 2190
4 2443 3450 3153 2671
4 3331 3383 3222 3153
4 3331 3153 3332 3365
4 3153 3222 2188 2189
4 3153 2188 3222 3332
4 3331 3222 3223 3332
4 3607 2829 3130 3690
4 4197 6217 5139 1568
4 3146 3660 4152 4350
4 6315 5622 5620 3651
4 2829 3130 3690 2830
4 3088 4199 4971 1530
4 2711 3533 2712 3529
4 5425 5464 1694 4130
4 5121 5434 6258 1696
4 5122 5304 5492 5506
4 3944 4130 5425 4364
4 5260 5492 3944 5491
4 5121 1704 5425 1695
4 3422 4451 3756 5016
4 5464 4326 1685 4130
4 4768 5621 888 879
4 4708 5621 4768 879
4 4768 4785 4645 446
4 4797 4840 4768 4785
4 2671 2592 2199 2200
4 2670 2191 2669 2192
4 2532 6250 2592 1229
4 6005 2669 2191 2182
4 4830 6022 3978 2668
4 2668 6250 2532 2533
4 6005 6254 2172 6252
4 2779 2874 2873 2804
4 4791 102 101 1445
4 1445 4791 1454 101
4 4818 465 4802 466
4 4773 4802 4791 465
4 6142 3948 4864 4791
4 4791 6142 1436 4864
4 4791 3948 4864 4818
4 1454 4791 4864 4873
4 4671 109 393 402
4 6094 4671 1373 1364
4 4671 1373 109 4691
4 4671 4100 402 4096
4 3465 3063 4379 4331
4 4821 4783 459 4774
4 3627 3625 5721 5730
4 6299 5394 3462 4093
4 3346 3791 3097 4866
4 5681 4334 4800 5691
4 5681 5694 4800 4334
4 2532 2671 2569 2592
4 2532 2671 2592 6250
4 6022 6016 2533 6015
4 2532 2533 6250 1228
4 2532 2533 1228 1237
4 4830 2669 2668 3978
4 2436 2533 1237 6015
4 4830 2670 2436 2532
4 2670 2671 2200 2569
4 2435 2437 2670 2201
4 2435 2670 2669 2192
4 3338 5070 4196 2953
4 5920 3341 3342 3340
4 4892 3510 5796 4923
4 3305 4908 3306 4348
4 4577 3866 6330 2621
4 2607 3565 2946 2949
4 3942 4097 6073 3757
4 3942 5260 4399 5492
4 3784 3472 3421 5311
4 3942 4399 3941 6073
4 4399 6073 1790 1791
4 3942 6039 5492 1781
4 5930 5943 5951 4076
4 4077 5956 4076 5957
4 5930 5949 5943 1159
4 4847 5951 5957 4076
4 5930 1150 4074 5393
4 4077 4076 5956 5402
4 4523 5494 4490 780
4 4489 4596 4590 4545
4 3539 5517 4688 4236
4 6315 3651 5098 1546
4 4490 5497 781 5494
4 5443 5419 5450 5448
4 5454 5445 5506 6039
4 5302 1770 5445 5455
4 5302 5506 5445 1771
4 5444 5466 5474 4098
4 5444 5455 1770 134
4 5444 5474 1779 4098
4 5445 1771 5506 1780
4 4977 4171 4978 535
4 5045 4979 4944 4824
4 5030 4171 4977 4177
4 4171 4962 4980 536
4 4936 935 4928 4813
4 4936 944 3639 4928
4 4899 5714 5796 4179
4 4899 498 4923 497
4 3638 3639 5747 4928
4 4902 499 5725 498
4 3640 4923 4899 5725
4 2757 3328 5823 2579
4 6259 5464 5434 4206
4 5304 5506 1771 1772
4 5304 6258 5434 5382
4 4323 3754 749 5327
4 5434 6258 1687 5382
4 5454 5302 5445 3609
4 5122 5434 5304 6258
4 5302 5304 5303 6258
4 5302 1771 5304 5506
4 5876 4356 2112 6317
4 5876 5859 5869 4356
4 5876 2104 6201 5879
4 4389 5878 5876 5879
4 6333 5968 5101 6203
4 6333 6310 5968 5967
4 5215 6180 2055 5216
4 5000 4199 6210 6203
4 5424 5450 5419 5448
4 5424 5448 722 5450
4 5424 5448 5419 3785
4 5123 4314 5118 5422
4 4406 5443 5124 5448
4 5118 4314 1705 1714
4 2902 4957 4955 4306
4 5380 6115 5552 5551
4 6115 5552 1358 4102
4 6115 1357 5551 5599
4 4306 5379 5381 4742
4 6115 5599 4957 5377
4 3361 3501 3871 3842
4 4997 5076 4922 3575
4 4903 4905 6014 4906
4 5514 4958 4991 4961
4 4312 2633 3211 3172
4 5045 4824 4860 4961
4 3103 3104 3101 3301
4 5852 5854 6201 5869
4 5852 5854 5868 6201
4 5852 1058 5854 5869
4 5852 1057 5859 5853
4 5834 5854 1049 5851
4 6199 5834 5852 5833
4 2416 5503 3037 3552
4 3442 3939 3936 5438
4 3889 5370 4878 3437
4 3041 2428 4410 2646
4 4834 4552 5700 1289
4 5533 3751 3750 5398
4 4552 5700 1289 1290
4 4612 6278 4613 6131
4 4610 4286 6278 4144
4 4286 4144 1871 6278
4 4286 1880 6263 1871
4 4277 4282 4124 4280
4 5558 4684 3539 4680
4 4637 4646 4685 383
4 4219 4622 4637 4638
4 4622 4637 382 4646
4 4637 4685 4221 4582
4 4708 4645 437 446
4 4708 4645 5621 4793
4 4708 4768 35 879
4 4707 4709 4708 4793
4 4657 4655 4656 2371
4 4655 2158 2343 5886
4 2166 4654 4655 4656
4 2340 2371 4657 5910
4 5910 4204 2340 3722
4 5797 2023 6304 5783
4 5789 6306 5797 5771
4 5789 5775 986 5771
4 5789 4188 5797 2022
4 4083 5797 6304 5783
4 3729 2167 4655 3728
4 5947 4654 4657 3729
4 3727 3729 4655 3728
4 4657 5947 1130 4654
4 2573 2186 2572 2195
4 3047 3106 3050 3102
4 4073 3445 2876 5352
4 3698 4204 1129 3695
4 5372 4258 1186 1177
4 5951 5956 1167 1176
4 6347 5371 5957 5299
4 5372 1186 5279 1185
4 5372 5299 5373 5385
4 5372 5299 714 5373
4 3147 5114 3342 3161
4 5205 5114 1587 5187
4 6219 5085 5136 5179
4 5205 5187 1587 1596
4 5826 5873 4194 4195
4 4519 5640 1021 4195
4 5832 2067 5826 5812
4 5826 4195 5640 5873
4 5826 5873 2058 4194
4 5838 5638 1030 5821
4 5640 5638 1021 1030
4 5832 5838 5640 1031
4 5911 1103 5901 1094
4 5911 5861 2130 174
4 5911 5915 175 2139
4 5911 5861 5985 2130
4 6042 6039 4097 4098
4 4097 6039 1789 4098
4 4097 6039 3942 1790
4 4097 1798 4064 4099
4 4451 6344 6042 3756
4 5917 2018 3811 5778
4 4249 5345 4250 3571
4 4047 1999 2008 3814
4 2976 2977 2979 3220
4 5884 5773 6176 2001
4 5884 1992 5711 5773
4 3810 6168 5347 6172
4 5148 5106 1033 5064
4 5148 1042 5844 5064
4 5063 3958 5064 5106
4 5005 3958 5063 3198
4 3837 3993 2912 2913
4 3977 3958 3993 5844
4 5129 2916 2927 5133
4 3388 4184 5995 6251
4 3416 1208 6006 5352
4 4635 3106 3102 3050
4 3331 3223 3222 3224
4 2681 3373 5375 4207
4 2500 2510 2494 2499
4 4607 6004 2683 5125
4 3048 3104 4700 3047
4 4666 4588 6298 4575
4 5263 5266 4027 3909
4 5580 5516 820 819
4 5522 6001 4235 811
4 5522 5537 4235 6001
4 2904 3603 3848 3604
4 4711 4681 818 827
4 4192 3278 2865 5530
4 4723 4534 4603 4597
4 4534 359 4626 358
4 4534 358 4603 4597
4 3821 4352 5413 5788
4 2319 6120 5176 4667
4 2332 2330 2918 2919
4 6283 4758 5174 6120
4 4838 4239 1415 1406
4 3320 3405 3403 5703
4 6137 2734 6138 6139
4 2747 5664 5674 5658
4 4751 3405 3403 4763
4 6030 5838 5640 5812
4 5838 5640 1030 5638
4 5834 5821 1039 5833
4 5832 2076 5812 5867
4 5838 5821 1030 1039
4 5832 5826 5640 5812
4 5834 5838 1039 5821
4 3792 5701 4238 4845
4 4867 4238 908 5641
4 4158 4833 471 4814
4 3103 3049 3102 3047
4 4238 4845 916 4877
4 4875 4238 4901 4877
4 5937 4265 235 1518
4 5937 5958 1518 5939
4 5937 5939 6198 5958
4 6309 4265 5937 5958
4 5899 5911 5985 5901
4 5899 5862 5985 5861
4 5899 1094 5911 5901
4 5899 5255 1093 5901
4 5899 5861 1085 5863
4 6191 6178 1497 4245
4 6191 6192 1506 4968
4 6191 6303 6178 4245
4 3803 4953 4975 3116
4 3171 2944 3212 2700
4 4714 1164 4128 5970
4 4714 1163 5944 4128
4 4714 5970 4128 4663
4 4714 1172 5944 1163
4 3725 5963 3744 5944
4 3705 3697 4663 5924
4 5476 5542 5475 1797
4 5542 4064 1798 4099
4 6344 5562 5542 5541
4 3050 3105 5579 4706
4 4982 5012 545 4981
4 4982 5792 5015 5012
4 5486 5792 5037 5015
4 4982 544 4978 4981
4 5486 5792 4983 4996
4 4982 544 4981 545
4 5035 1005 5054 1014
4 5053 5035 4966 5054
4 5034 4966 581 5081
4 5035 5050 1005 49
4 5035 4966 5017 572
4 5273 3278 4192 5530
4 6117 3502 4780 3504
4 3102 3329 3504 3503
4 6117 4779 3502 5631
4 5740 1968 5722 1959
4 4112 5740 5722 1959
4 5740 5733 1960 6291
4 6230 5704 5715 5709
4 5740 5741 1968 1969
4 5679 932 5720 5722
4 5720 922 5709 5715
4 5720 5715 923 922
4 3282 931 5737 5719
4 5720 923 5722 932
4 5720 5740 5741 5722
4 5826 5640 1022 1031
4 5826 4194 2058 166
4 5826 1022 5640 4195
4 5826 5640 5812 5873
4 3549 5055 4650 3965
4 5609 6087 6037 5185
4 4294 4027 4391 4089
4 4333 4024 5292 4025
4 5533 5398 6052 6062
4 6343 3700 2510 5516
4 5264 5608 4029 4024
4 4025 5266 5264 5292
4 4696 3293 3278 5530
4 5556 4270 5571 2544
4 5832 5838 1031 1040
4 5832 5826 2067 167
4 5832 168 5851 1040
4 5832 5826 1031 5640
4 5960 5924 1145 5952
4 5960 5924 1154 1145
4 5960 1154 5388 1153
4 5960 5966 5277 5959
4 5933 6327 6245 6325
4 5234 4202 2106 2115
4 3200 5358 2753 5828
4 5173 5172 5300 648
4 2892 5077 2895 2913
4 6319 5156 6216 3864
4 4438 5866 5471 6021
4 5835 1053 5077 1054
4 4151 6313 5856 5896
4 4151 5431 5856 6313
4 3758 5466 6042 3755
4 4103 5454 5466 3609
4 6042 6344 4452 5542
4 5466 743 5474 752
4 3880 5988 4123 5460
4 6018 4850 6236 6237
4 4869 4868 4870 1626
4 6181 5793 6243 4283
4 4869 4870 1627 1626
4 4123 1618 4870 4039
4 5376 6106 2547 5599
4 5376 6106 2545 2547
4 5379 1875 4147 5378
4 5379 6106 1876 2545
4 5245 5247 5307 5285
4 5237 5238 671 5071
4 5237 5238 5265 670
4 5237 5265 661 670
4 5245 5546 5307 5247
4 5071 5307 5285 5237
4 3105 3106 3050 3046
4 5764 6054 1254 6034
4 6041 1263 5764 6057
4 5766 4119 5418 6036
4 5766 5764 6034 6054
4 4416 5764 1255 4417
4 5764 4417 6057 1264
4 3303 3146 4187 4908
4 3337 2954 2785 2953
4 2816 2856 2813 2817
4 3660 593 4350 584
4 3106 3960 3101 3104
4 602 4187 593 4152
4 2828 3145 2258 4350
4 5410 5087 1548 1557
4 5617 5381 1893 4336
4 6083 1894 5617 5600
4 5549 5380 6083 5617
4 5380 6083 5600 5551
4 3724 5963 5408 4045
4 2572 3726 3806 5222
4 5963 4714 4662 1173
4 5408 4290 1183 4503
4 3159 1562 3997 2256
4 3159 2828 2829 3145
4 3159 2257 5112 1571
4 2257 2258 5112 4999
4 2255 2258 2257 600
4 2505 591 2258 2255
4 2257 5112 5137 4999
4 2780 4274 4104 5240
4 5289 5155 674 5278
4 4295 5155 5289 5242
4 5363 5362 6269 5368
4 4915 6010 5992 4185
4 4338 1952 5708 5699
4 6158 5709 4737 4735
4 5704 4735 903 912
4 3773 4338 5731 5733
4 4338 5708 1951 4800
4 4519 5640 5638 1021
4 4519 1020 5638 5799
4 4518 5428 6030 4482
4 4518 5640 6030 5638
4 5917 2019 5778 6207
4 3814 4047 3813 2008
4 5778 6207 2019 2010
4 5778 6207 2010 6188
4 5870 4668 4489 5508
4 4489 4490 789 4545
4 4489 790 4490 5508
4 6279 4590 4563 4544
4 5870 6279 4489 4563
4 3673 2677 3847 3699
4 5126 4673 4614 4030
4 3700 6001 5516 6343
4 4219 4647 4638 4637
4 6056 4540 4541 1813
4 4540 1812 6075 4541
4 5533 6273 6062 6056
4 4540 6075 1812 1821
4 4428 4129 726 18
4 4017 5414 4404 727
4 5415 4031 4402 4459
4 4428 726 19 18
4 4032 302 4475 301
4 4852 5386 73 709
4 5386 72 1221 73
4 5991 5363 5386 4852
4 5991 5363 5368 5386
4 4913 5363 700 5362
4 5374 5991 5386 1212
4 4660 4647 4148 400
4 5618 4231 4288 5979
4 4647 4637 391 4638
4 4647 392 4637 4582
4 4579 4221 4580 5553
4 4100 4717 412 4617
4 3833 4745 5573 5575
4 4100 4692 5575 4691
4 4100 402 4096 403
4 5566 5642 228 2111
4 5642 229 1572 228
4 3613 3649 1573 1572
4 5298 5435 4024 4019
4 4191 188 5949 1151
4 4191 5950 5949 5943
4 4191 187 1161 188
4 4191 1169 5811 5943
4 4191 1169 5943 1160
4 4191 187 5966 1161
4 5374 5368 5990 711
4 5990 702 5342 703
4 4634 6269 5374 5369
4 5990 5368 5342 702
4 3783 712 5385 70
4 5003 4233 5169 4346
4 3862 2088 6319 2089
4 5171 5570 1591 6229
4 5171 1582 5570 3614
4 4233 5169 3128 6211
4 5002 5169 4233 6211
4 6256 6029 3986 4315
4 4929 6063 4363 4365
4 6177 6339 4363 6261
4 3742 3943 5461 5028
4 4673 4674 813 5560
4 3160 4673 804 5560
4 6072 6004 3160 5560
4 4673 5561 804 803
4 6004 4673 3160 5560
4 5324 5325 132 725
4 5324 4 275 133
4 5324 5455 133 1761
4 5324 6258 5303 1688
4 5324 1688 5325 6258
4 5324 5302 725 5455
4 5324 132 275 4
4 4914 1670 5384 1661
4 4111 681 4106 4105
4 4913 4914 5384 4105
4 4914 4855 1670 76
4 5940 5342 4127 694
4 5940 5371 695 4127
4 4257 5940 5371 5299
4 5280 703 5990 5342
4 5342 4127 5998 5940
4 2782 5244 5360 5240
4 5948 5392 1142 5950
4 5938 5284 5932 1132
4 4161 4849 5331 5907
4 5392 5284 1132 1141
4 5930 5950 6308 5943
4 3251 3443 4257 4258
4 4849 5907 5932 5331
4 5930 1159 4074 5949
4 5930 1150 5393 1141
4 4229 6100 4230 1355
4 4229 4671 110 393
4 4229 1355 111 1364
4 4229 4230 4629 384
4 6000 79 672 5226
4 3845 4612 3844 4613
4 4275 6000 5333 5276
4 6000 5275 5982 5333
4 4612 6110 5606 6111
4 4607 4614 6004 6110
4 5229 4918 1471 4933
4 5229 4918 1462 1471
4 6299 4910 5229 4918
4 5229 1462 4910 1463
4 5249 1676 6020 1677
4 4184 1233 5249 5987
4 5359 3874 1232 5987
4 3874 5987 5249 1232
4 5249 205 6017 1676
4 3861 6218 5212 2090
4 3651 4008 5905 3652
4 5692 5021 3691 3693
4 4826 6276 5138 5909
4 5593 6218 2082 5623
4 4418 4066 294 285
4 4418 294 4440 121
4 4418 4367 285 122
4 4528 3734 2342 3069
4 4528 2342 2370 2341
4 5842 4505 5889 5235
4 5945 5913 5997 2150
4 5945 2343 6239 2149
4 5947 4204 1129 3698
4 4273 646 5183 645
4 4273 6235 5182 5993
4 4273 5230 5767 5183
4 6234 5320 5140 6235
4 3407 3580 4782 4763
4 5632 3580 4733 4785
4 5632 4792 3378 4817
4 4733 445 4645 4785
4 4620 4566 365 374
4 4620 4596 798 26
4 4620 4641 27 807
4 4620 365 4563 4596
4 4747 1391 107 1400
4 4747 106 1400 107
4 4748 1409 105 6141
4 4748 6141 4803 1409
4 4748 4749 4803 4690
4 4728 5604 4754 4729
4 4754 852 5604 861
4 4754 861 5604 5648
4 4754 4729 5604 4712
4 4754 4712 852 32
4 4707 4709 4728 428
4 4112 5706 5691 914
4 5706 905 5681 5691
4 5706 904 5681 905
4 5706 5681 904 4341
4 6230 5733 6288 6291
4 4407 283 4068 15
4 4407 4068 283 4402
4 4407 15 4068 1759
4 4382 4068 1758 3824
4 5519 4783 3949 4788
4 4837 5395 4239 1397
4 5625 6121 1398 1389
4 2920 5639 2321 4639
4 3766 5396 4337 1387
4 4612 5606 4610 6278
4 4643 6284 4644 4718
4 3833 4745 3738 5573
4 1501 5096 4242 5612
4 4952 2021 5093 5094
4 4952 2021 5094 5613
4 5611 5094 5614 6207
4 4240 4250 4241 5473
4 5525 6137 3933 6059
4 6283 6120 6133 4758
4 5174 6120 4758 1393
4 6120 1394 5639 6133
4 5174 6120 1384 5176
4 3456 3957 3455 4562
4 2416 5503 5817 3555
4 4424 280 4429 289
4 4209 748 5446 5311
4 4209 747 4448 5446
4 3957 4562 764 765
4 3436 4457 3433 3971
4 3438 4478 3437 4149
4 4004 4005 757 5311
4 6309 5958 5937 6198
4 5101 5968 6309 5958
4 6309 2048 5937 4265
4 6309 6180 6198 2047
4 6333 5215 6309 6310
4 4104 4106 4105 4201
4 4104 4201 4105 5384
4 4111 5226 4106 681
4 4111 4914 77 690
4 4111 1661 4914 5384
4 4111 4914 4105 5384
4 4873 484 4863 4856
4 3464 4378 5047 3462
4 5942 6245 6237 2154
4 5942 6237 6238 2163
4 2583 4766 5219 5128
4 5942 6238 2162 2163
4 5787 6005 6252 6254
4 6018 4869 4850 4870
4 4831 2669 2183 2192
4 4830 4831 2669 3978
4 2435 219 4831 1662
4 5109 223 4868 2156
4 5109 224 1617 223
4 4871 2165 4868 222
4 4871 4872 4850 2165
4 6110 4607 4614 4612
4 3810 6167 6172 5347
4 6167 5347 1466 6172
4 5345 6166 1475 1484
4 6167 5347 1467 1466
4 4420 4299 1240 1241
4 4466 4299 4420 6028
4 3516 4420 4299 6028
4 4211 4454 4420 1241
4 4375 3004 3093 3063
4 3948 4776 3949 4802
4 3949 458 3947 457
4 3949 4802 4776 457
4 3949 4776 4761 448
4 4381 1756 4429 4380
4 4381 281 4429 280
4 4381 4374 1756 12
4 4381 4429 4374 280
4 5628 5596 6130 1878
4 5628 5663 1887 1888
4 5572 5597 4140 5605
4 6130 3330 4613 5628
4 5597 841 4140 5605
4 4613 5597 4559 6130
4 6315 5622 6281 5620
4 5905 5098 3652 3648
4 5098 3648 4623 4349
4 5098 3648 4349 1554
4 5098 5354 1545 1554
4 5353 707 5351 698
4 5387 5353 64 707
4 5353 5351 5393 5284
4 5281 5284 5353 1131
4 4839 3901 4443 4401
4 3686 3901 4443 1283
4 2863 4775 4192 2865
4 3901 3686 4401 3679
4 4443 3901 4553 1282
4 4443 4401 303 4442
4 4443 5389 6057 1273
4 2280 5229 4856 4910
4 2280 492 4856 4891
4 98 501 492 2280
4 2280 4366 2281 4891
4 5334 5613 5761 6163
4 5761 1473 5807 6163
4 5761 2011 5613 6207
4 5761 5613 6126 6163
4 5760 5773 2002 6188
4 5760 5662 2003 1994
4 4457 309 3432 3433
4 301 300 3432 4459
4 5399 3552 1287 5498
4 4834 4134 1289 1288
4 3708 4015 3002 4013
4 2414 2567 2566 2315
4 3970 3894 3975 3971
4 2760 2576 3328 2473
4 2994 3816 5700 2996
4 2437 1671 200 6
4 2436 2437 200 1238
4 2437 6 199 218
4 2435 2437 218 1671
4 2437 2569 2201 199
4 4830 2532 2668 2670
4 3848 3605 3847 3845
4 4609 6093 5291 4226
4 4696 5548 1324 1323
4 5529 1325 4578 4676
4 3818 1316 3820 3821
4 5548 1323 5511 1314
4 4578 3821 1325 1316
4 2341 2340 2370 2371
4 2341 2343 5915 6239
4 2341 2371 2372 1111
4 2341 1103 5901 5915
4 4528 6239 2341 5901
4 4193 4521 5815 4945
4 4518 4522 5635 5873
4 4514 4522 4521 5636
4 4193 1013 5815 4194
4 4193 4517 1012 4195
4 3390 1730 3506 3505
4 3506 1730 3393 1731
4 5117 5121 5122 6258
4 4487 3597 4033 4473
4 3506 5421 4453 1731
4 5436 3506 5421 4453
4 3943 5425 5437 5461
4 5121 5434 1695 5464
4 5259 5492 3944 5260
4 5122 4206 5304 5434
4 5492 3944 5491 4206
4 5464 5122 5434 4206
4 5074 4574 4597 5024
4 4723 4574 4597 4603
4 4574 1327 6095 4625
4 5074 1328 4574 5024
4 4574 6095 1327 1336
4 5074 4574 1337 4722
4 3353 6272 5499 5500
4 6068 6272 4131 4132
4 4131 4132 6272 1303
4 6272 1304 3352 6090
4 3545 3546 4787 6270
4 2546 6066 6106 1877
4 6066 1356 5600 1886
4 6066 6106 5600 5599
4 6066 1877 254 1886
4 5039 5017 5033 562
4 5487 5015 5486 5037
4 5009 4982 5039 553
4 5039 5069 5017 5050
4 5487 5036 5069 5015
4 3309 3134 4986 3950
4 3308 3310 5086 3309
4 5358 5086 5006 3950
4 3980 3308 2733 5358
4 2892 2895 2894 2913
4 3950 596 5006 597
4 3950 597 5006 5092
4 3950 5144 606 5092
4 3679 4069 312 4401
4 4069 313 4401 4419
4 4483 4473 4526 323
4 3594 4069 3901 4401
4 3598 4033 4034 3597
4 3283 4602 5741 6288
4 3121 5978 3282 5668
4 3773 5758 5733 5731
4 3282 5668 921 930
4 4739 4736 5728 4738
4 6287 4601 3773 5758
4 3282 5668 4737 921
4 4842 4884 491 500
4 4842 491 4884 4885
4 4842 4859 4884 5723
4 4812 4859 934 4928
4 4842 5723 41 933
4 4812 4885 4842 4884
4 6193 6295 3835 5008
4 4244 3835 6342 6295
4 6193 6342 3835 6295
4 3748 2784 4007 4009
4 3892 5539 6215 6192
4 5803 6204 1513 1514
4 6193 5803 1505 6191
4 4940 6342 5802 1513
4 4940 4251 4252 6342
4 4976 4260 3510 4937
4 3776 5008 6196 4934
4 4920 1495 4251 1494
4 4940 4252 5802 6342
4 3701 1201 4290 1192
4 3701 3223 4290 3418
4 5222 3701 3221 3223
4 3701 1202 3051 3224
4 4523 771 5494 780
4 4523 4545 24 780
4 4523 5494 4321 4564
4 4523 4320 771 23
4 6025 209 1239 266
4 6025 7 209 266
4 6025 6029 6026 1769
4 6025 6027 6047 1239
4 6025 6026 1680 267
4 6025 1769 267 7
4 6025 6028 4466 1680
4 6026 6029 6051 1768
4 5620 6281 6223 5623
4 5622 6281 2065 6310
4 6223 5623 6281 2074
4 4623 5354 6223 5098
4 3651 6210 1538 1537
4 6315 1546 5098 1545
4 6315 5098 5354 1545
4 6281 5623 2065 2074
4 6314 6281 5967 6310
4 6314 5354 2075 232
4 6314 4266 5967 1536
4 4736 4734 3273 5728
4 3119 4867 5650 4811
4 3580 4794 453 4760
4 3791 4867 4238 5701
4 4867 899 5701 5650
4 4497 2923 4806 5655
4 3119 3791 5701 4867
4 4461 4458 318 4476
4 3438 4458 4476 4149
4 3427 4461 4458 3433
4 4458 308 3433 309
4 5263 3298 3909 4027
4 4613 6130 6263 3330
4 4635 3233 5663 3329
4 3106 3960 3105 4706
4 3233 5663 3329 1897
4 3233 1898 3329 3503
4 5476 5475 137 1797
4 5476 1788 4099 1797
4 5476 5542 1797 4099
4 5476 5474 1788 136
4 5576 5565 806 815
4 5576 5563 1842 142
4 6111 5439 5576 5565
4 5576 5564 143 1851
4 4112 5715 914 923
4 4112 5691 1950 154
4 4112 6291 5740 1959
4 4112 5722 155 1959
4 3578 3961 1905 4232
4 3578 3961 860 869
4 3578 4141 1896 148
4 3578 149 3579 869
4 4184 5887 1224 5987
4 4184 5987 5249 6020
4 4185 4184 6020 5987
4 4184 5249 6017 6020
4 5717 5662 1994 241
4 5662 1473 5761 2003
4 5662 1464 240 241
4 5074 4525 4603 4722
4 4525 1346 1337 113
4 2575 2304 3024 2587
4 4525 4693 4605 4722
4 107 420 411 1391
4 4747 420 4692 4717
4 5046 5725 4907 4923
4 5736 3319 4899 3640
4 5725 508 4162 4823
4 5725 4923 507 4907
4 5061 4823 4162 4860
4 5061 4907 5046 5725
4 6346 4884 4859 4162
4 4378 4858 4864 4911
4 6327 5111 2147 2138
4 2719 3293 2864 3299
4 6327 4360 5111 6322
4 6327 4347 6322 2137
4 5415 4129 4428 293
4 4031 5414 6260 4404
4 4031 5462 6260 4411
4 5415 4428 4017 4032
4 5414 4408 717 4129
4 4427 5414 718 4404
4 5047 4873 5712 4863
4 4407 5414 4129 4408
4 3101 3301 3959 6285
4 5693 3561 3297 5670
4 3296 3831 3561 5677
4 5656 868 3960 3962
4 4789 6208 886 5675
4 3106 3960 4700 3105
4 4789 3831 3296 5677
4 5423 5953 1139 1148
4 5423 4654 2175 179
4 3729 3657 5423 2184
4 5954 3657 5423 5953
4 4389 6317 5876 5878
4 4388 5407 5645 5256
4 6200 6202 5879 6201
4 6199 6316 5865 5228
4 6199 6024 4154 5228
4 6111 1852 5439 5606
4 6110 6111 5439 5606
4 6111 5576 5439 1851
4 6110 5560 5586 4674
4 3920 4235 5537 6343
4 4078 5484 3055 5051
4 6104 5463 5496 5541
4 5496 1826 5509 5513
4 5496 5463 1817 5541
4 3107 3371 3738 5601
4 4702 5601 1361 6112
4 6108 5601 4142 1370
4 4679 2322 4667 4715
4 2516 3990 2508 2905
4 5601 6112 1362 1361
4 4142 1371 5601 4745
4 3549 4041 4040 5536
4 3208 5053 5106 5081
4 5053 5054 5818 1015
4 5053 5825 5106 1024
4 5052 5053 5081 4966
4 5052 3208 5053 5818
4 6314 4266 1536 233
4 6314 6281 2066 2075
4 6315 6314 6281 5967
4 4952 2021 5613 2012
4 4952 5613 6126 2012
4 4952 5612 5613 5094
4 4952 6163 5612 1482
4 4952 5613 6163 6126
4 4865 4844 4159 4843
4 4159 4160 481 4885
4 3792 4845 4159 5649
4 5684 4845 4877 4843
4 4900 4682 837 3323
4 4682 3323 836 837
4 3699 4207 5375 6001
4 3848 3845 3677 4101
4 4682 836 4220 827
4 4682 4711 827 4681
4 4680 4682 4681 4711
4 4277 6127 5569 4281
4 3843 4169 4259 6162
4 4169 994 4945 4946
4 4169 4946 5804 993
4 4169 6162 5771 985
4 4083 5782 5797 5783
4 4169 6162 984 4259
4 6288 5720 5741 5737
4 3282 5720 5737 931
4 3282 5668 930 5719
4 6288 5741 5720 5740
4 4069 322 4483 4504
4 3678 4069 4548 4504
4 3594 4069 4483 4504
4 3678 3679 4548 4069
4 4836 4302 4303 4449
4 5765 5972 5766 6034
4 4303 4066 295 4442
4 4302 296 4449 305
4 4302 305 4035 4419
4 5765 3527 4463 4835
4 6045 4373 6035 4119
4 4011 6035 5481 6271
4 4014 1253 4439 6034
4 6339 5491 5465 6082
4 4013 3987 5480 3494
4 4014 1262 6040 1261
4 5955 4114 4918 4933
4 3300 5609 3553 3350
4 5394 4247 4889 4863
4 4114 4918 1470 4116
4 4114 4935 1479 4933
4 4931 3510 4937 4976
4 4095 5955 4114 4116
4 4172 4912 3775 3789
4 5549 5175 6079 5550
4 5549 5617 6083 5616
4 5549 6118 5550 5552
4 5550 5552 6118 1366
4 5146 1041 5163 1050
4 5146 5163 5127 5147
4 5146 4182 1041 53
4 5149 5146 5147 5846
4 5034 51 5062 590
4 5034 5053 1023 1014
4 5034 5053 5081 5106
4 5034 5035 1014 50
4 4188 986 5775 977
4 4188 5786 2013 161
4 4188 5786 977 5774
4 4188 5797 2022 6304
4 2445 6329 6249 3978
4 6023 1653 6249 3978
4 4869 6249 1645 5191
4 2442 1654 6249 5191
4 4113 5039 554 563
4 4113 5012 987 47
4 4113 48 5050 563
4 4113 5039 5015 4982
4 4151 5161 6313 5896
4 4150 5469 5161 5896
4 4151 5841 5856 4237
4 6021 5841 4237 5853
4 2858 574 2849 573
4 4960 2869 2858 4046
4 2848 2816 2858 2849
4 3748 2750 4009 3749
4 5820 6204 5545 1523
4 5082 5001 6183 6184
4 5058 6175 1515 4967
4 5058 5545 1524 6175
4 5058 5545 1523 1524
4 4728 4729 5979 5604
4 4728 427 4709 4753
4 5618 4728 4709 4753
4 5732 5696 950 959
4 5732 6301 6173 5696
4 5732 5754 159 1995
4 5678 5743 5732 6173
4 5281 5331 689 698
4 5281 5224 1122 62
4 5281 5353 63 1131
4 5281 689 5326 5224
4 4871 6023 221 1644
4 6023 6329 2174 2183
4 4871 4872 2174 6023
4 6023 3978 6249 6329
4 4158 4814 471 4160
4 4158 4794 4760 462
4 3792 3119 3791 5701
4 5684 4159 4885 4160
4 4794 4833 461 462
4 3124 4158 4794 4760
4 5336 1231 3874 207
4 3874 1678 207 206
4 3874 5249 206 1232
4 5992 1660 5384 1669
4 5965 708 4855 699
4 5987 4185 5359 6009
4 4854 1678 5336 3874
4 3616 4073 3870 4071
4 4435 4437 4544 345
4 4486 4437 336 4067
4 4544 4435 4436 4437
4 4486 4485 335 336
4 4471 4486 4067 4437
4 3783 5990 712 711
4 3783 5990 5385 712
4 5374 5369 1204 1203
4 5374 71 3783 1203
4 5374 3783 5990 5369
4 5571 6037 1321 4270
4 4391 5557 4392 4089
4 4391 5557 4089 6092
4 5571 1330 2544 4270
4 4416 1246 4371 1247
4 4371 217 2872 1247
4 4371 4369 1743 216
4 4700 3670 867 3960
4 3296 3959 3561 3831
4 892 5658 883 4965
4 3670 876 5656 3606
4 3959 5656 3960 3962
4 5093 2021 238 2030
4 5444 5445 4098 1779
4 5093 5095 2030 237
4 2829 3132 3130 2830
4 2856 5060 2817 3690
4 4009 4010 5411 4008
4 2239 6217 1558 1559
4 2813 5060 2814 2817
4 3532 594 5080 3660
4 5060 2817 1542 2814
4 2342 5886 5945 3066
4 2179 3855 4056 2170
4 2343 2342 5886 5945
4 5767 5864 5300 5230
4 5840 5847 1109 1100
4 2694 3192 3194 3696
4 4854 5336 1678 1679
4 5336 4853 208 1679
4 5336 207 3874 1678
4 5359 5336 1231 3874
4 3656 4662 5427 1165
4 5427 183 5970 1156
4 5427 4664 1157 1156
4 4822 951 4824 960
4 4822 4962 44 960
4 4822 4909 951 43
4 4822 4962 960 4944
4 5935 2371 1112 1121
4 5935 5915 2148 176
4 5935 4655 2157 2343
4 5935 4656 177 2157
4 4456 3786 127 1733
4 4456 4460 719 720
4 4456 4460 720 5426
4 4455 719 4456 4460
4 4456 4460 3787 4403
4 5444 5445 1779 1770
4 5111 224 2147 225
4 5109 4870 4850 4868
4 4148 4579 5568 4752
4 4752 4231 4415 5979
4 4652 4580 4278 845
4 4652 5594 5553 844
4 4579 4652 5553 4580
4 4752 4729 5594 5604
4 4279 854 4652 4278
4 5610 5596 1878 146
4 5610 4140 842 851
4 5628 5610 5663 4140
4 5610 5597 842 4140
4 5149 5154 617 626
4 5149 5146 1050 54
4 5149 55 2890 626
4 5149 5154 5846 5147
4 4707 4709 428 437
4 4707 4754 861 33
4 4707 34 4708 437
4 4707 4728 4709 5648
4 3868 5314 4781 4071
4 2881 3655 5322 5296
4 4847 5331 5284 5351
4 5928 4295 5289 4304
4 4755 1189 5065 1190
4 4781 4183 5338 1196
4 5184 4391 5262 5185
4 6063 6069 1710 4365
4 6063 6069 1709 1710
4 3702 5481 6063 6069
4 5481 6063 1709 3517
4 3002 3987 3702 4013
4 1691 1692 6174 6063
4 6063 1692 4363 1701
4 4413 258 257 1850
4 257 4269 1320 1850
4 1850 4269 1320 4267
4 4267 4413 1850 1841
4 4267 4413 6088 1320
4 4131 4413 1311 6088
4 4413 1841 6086 258
4 5963 5408 4045 1182
4 5963 5408 1173 4662
4 3705 4714 5924 4663
4 3705 5963 4662 5408
4 4275 4201 1651 1652
4 4275 1643 5226 1652
4 4111 5226 4201 4106
4 4693 3737 5598 4629
4 5964 4096 4672 4618
4 4672 4618 395 4043
4 4672 4618 4096 394
4 4672 4648 385 4090
4 5860 5863 1076 1085
4 5860 4356 2112 172
4 5860 6317 5862 2121
4 5860 5861 173 2121
4 6230 5978 6288 3773
4 5704 912 5709 4735
4 5704 913 5706 5715
4 6230 5706 6291 5715
4 5704 5706 904 4341
4 5346 5345 6167 1476
4 5345 1475 6167 1476
4 5332 6167 5346 5345
4 3586 5345 6166 6167
4 5345 6167 1475 6166
4 4382 4383 281 282
4 4382 13 4381 1757
4 4382 4381 4380 1757
4 4382 4068 14 1758
4 5294 5266 5292 1846
4 6299 4911 5047 4910
4 4889 494 4890 493
4 4889 4856 493 4891
4 4889 4863 484 4856
4 5294 5268 6277 5266
4 1351 4218 1342 3681
4 3737 4675 4611 4750
4 4042 377 4648 4650
4 4042 4672 4648 386
4 5294 1846 5268 5266
4 4865 40 4842 491
4 4865 915 4843 924
4 4812 4843 4865 4885
4 4522 4521 5636 2050
4 4522 5815 4193 4521
4 4514 4522 4193 4521
4 4522 2058 5873 4194
4 5175 6209 1374 1383
4 6083 5550 1365 5551
4 5679 5737 932 941
4 5679 5722 1968 156
4 5679 5737 5718 5741
4 5679 5720 932 5737
4 5157 86 1580 5137
4 5157 5158 85 618
4 5714 497 4899 4923
4 3133 4335 946 947
4 4179 5798 4894 4893
4 3508 4932 4308 3707
4 2741 4972 6297 6246
4 2365 3133 6014 3637
4 4963 4964 542 533
4 3812 3924 2007 5164
4 4179 4893 4894 487
4 5042 3006 4246 4247
4 5410 4886 5087 1557
4 2709 2710 2813 2856
4 4886 5087 1557 1556
4 6315 5967 1537 1536
4 5591 5592 3693 5212
4 5689 5729 6213 1935
4 5632 4792 5618 3381
4 4497 4500 2320 4496
4 3375 4965 3376 3380
4 5305 4699 3572 4700
4 3375 3483 2487 4965
4 2405 2974 3992 2354
4 2906 4900 2905 4272
4 4289 3483 873 4291
4 3104 3670 3960 5656
4 3287 4287 3050 3677
4 3174 2330 2321 3935
4 4080 4475 302 311
4 4080 4428 735 19
4 4079 4080 5468 4475
4 2436 2437 1671 200
4 2436 6015 201 1672
4 2436 6015 1237 201
4 2670 2569 2437 1238
4 4830 2533 2668 2532
4 2710 5060 2755 5091
4 3531 4189 5059 575
4 3531 584 3660 4350
4 2816 4046 4960 2858
4 3532 3531 5059 576
4 4000 2964 5974 5208
4 3672 4527 4387 3312
4 4655 6328 3716 2340
4 5907 5326 5331 4161
4 5971 5923 6228 5231
4 3195 5749 4924 5847
4 5931 5895 5225 5907
4 2881 5322 3655 5344
4 3543 5320 3237 6234
4 6009 1677 3874 5249
4 4185 6009 5987 6020
4 6009 3874 1677 1678
4 6009 3874 5987 5249
4 2804 5352 2886 2897
4 4751 443 3403 442
4 4264 3402 442 5703
4 4264 4593 3402 5703
4 4821 4026 3094 4176
4 3320 5703 3403 3402
4 4157 3404 3402 4176
4 3040 3094 4593 3402
4 2491 2746 3668 2743
4 3040 3404 4176 3402
4 6205 2055 6180 5216
4 5837 2045 6205 2054
4 5837 3487 6205 2045
4 6205 5216 2054 2055
4 5100 6180 2046 2047
4 3487 2036 6205 2045
4 6205 2036 5739 2037
4 4052 4767 5000 4061
4 6102 3498 5582 5837
4 2940 2624 3779 2939
4 5622 5620 5623 6281
4 4058 5449 6206 4060
4 6027 1239 4466 1240
4 4466 4420 210 1689
4 6025 209 4466 1239
4 5989 203 5994 1235
4 5989 6016 1236 6008
4 5989 1673 6016 1674
4 5989 1674 6016 6019
4 4211 4454 1241 1242
4 6277 5167 5261 5294
4 4211 1242 212 3488
4 4118 4211 4454 3518
4 4211 211 4420 1698
4 4361 5955 4366 4933
4 2280 4366 4891 5229
4 2280 1472 4366 5229
4 4366 1471 5229 1472
4 4361 4916 4366 4355
4 2281 4366 1481 4355
4 5683 3638 3640 6346
4 5514 5061 5747 5045
4 4812 4885 4865 4842
4 6346 4859 4812 4928
4 4812 4813 925 4843
4 5972 6045 6054 4373
4 6035 4119 4373 1726
4 4119 4373 1726 1725
4 6026 6029 1768 1769
4 6026 6255 1768 6051
4 6025 6026 267 1769
4 6026 6051 6029 6028
4 5444 135 5474 743
4 5954 181 3849 1157
4 5954 3657 2193 2184
4 5954 3849 3657 4664
4 3221 3051 2196 2197
4 3284 3419 3221 2196
4 3284 3221 3701 3051
4 4036 3223 5222 3221
4 5759 2031 6306 2040
4 5759 5815 164 2040
4 5759 5771 4945 6306
4 5789 5759 6306 5771
4 2332 2331 2320 4497
4 5396 5625 5395 1397
4 5625 5395 1397 1398
4 4142 4746 5625 1389
4 5625 5395 1398 6121
4 3833 4100 4717 4692
4 3083 5625 4142 4746
4 5424 5448 721 722
4 5424 3786 1724 128
4 5424 3785 5419 1724
4 4254 5419 5424 5450
4 5113 5157 4999 5085
4 5113 4999 5157 5137
4 5113 5112 1579 5114
4 5113 5137 5157 1580
4 5113 5114 1579 1588
4 4756 5819 1197 5338
4 3417 3450 2886 3396
4 5222 5068 4359 3446
4 3387 6251 4185 4184
4 3644 6158 3867 3645
4 6299 5955 5229 4891
4 3591 5735 6171 5479
4 4238 3792 5684 3791
4 3188 2936 2933 3584
4 4665 5423 5953 5947
4 3657 5423 5953 4665
4 3656 3806 4664 4662
4 5973 5068 4359 5222
4 1846 5294 5268 1837
4 3722 4276 5749 5910
4 3727 4657 4655 3729
4 3900 3728 2176 3729
4 3064 5627 3067 3066
4 3192 3706 5282 3696
4 3446 5222 3223 4290
4 3449 3447 3445 4072
4 3655 5322 676 5344
4 2881 3655 2540 5344
4 3069 5946 4530 3071
4 4512 4458 4149 317
4 4472 4458 317 308
4 3438 6294 4471 4476
4 4037 3957 4562 4488
4 4003 3788 3784 4004
4 3904 4409 3907 5822
4 2403 2578 3259 3911
4 4677 5330 6331 6078
4 5673 3507 6055 6271
4 4508 4453 5902 3787
4 3662 4034 5370 3597
4 4431 3742 3943 3741
4 4295 2844 4628 2540
4 5294 1837 6060 6277
4 4755 1188 5819 3745
4 3194 5282 1126 1127
4 2290 2881 5405 5196
4 3870 5314 4071 5887
4 5992 1668 6010 1659
4 3485 3868 3869 4633
4 5972 6054 6034 4439
4 2549 3856 3998 3853
4 5981 2160 5997 2151
4 5981 2160 3066 5997
4 6318 2151 5997 5946
4 2370 3734 2372 5847
4 4697 4798 6182 5128
4 4297 6252 4056 2171
4 5934 4850 6237 4851
4 3069 5945 2343 6239
4 2914 2927 2917 2916
4 4512 316 4472 317
4 4512 317 4472 4458
4 5925 307 4472 316
4 3436 3437 4472 4458
4 3427 3436 4458 3437
4 4208 3970 4472 307
4 307 3970 4472 3971
4 3507 1728 6264 6055
4 3390 3507 1720 1729
4 3392 3393 1721 3400
4 3389 3710 3470 5436
4 5123 5437 4314 5422
4 3399 4365 5031 5029
4 3390 3506 1730 3393
4 3390 3393 1730 1721
4 4841 4296 3751 6071
4 3299 3349 5548 3351
4 6070 4631 5509 5496
4 2724 3351 3350 3352
4 3816 2996 5801 5700
4 5263 5268 3544 5267
4 6345 5540 5555 5528
4 4573 4632 1828 5595
4 5972 6040 4642 4014
4 4632 3333 4787 6074
4 5765 3939 4463 3527
4 4573 5595 1837 6277
4 4573 5595 1828 1837
4 5533 3752 5398 3750
4 3059 3293 5548 5412
4 3908 6277 5266 5167
4 3022 3181 3021 3182
4 5572 5607 3677 5605
4 4780 4062 4779 4280
4 2518 4743 2905 3323
4 4219 4646 5567 4222
4 5141 4622 4683 4658
4 4219 4622 4646 4637
4 4537 4695 4535 4621
4 6127 1890 3504 5569
4 6127 4780 4779 4280
4 3766 4667 1377 1386
4 3287 4780 4277 4125
4 3846 3677 3845 4613
4 4635 3106 3050 4706
4 4494 3289 3288 3290
4 6179 4137 5497 6279
4 6230 3773 5733 4338
4 4494 4181 5390 2421
4 3793 4158 4160 4814
4 4643 3289 3405 6284
4 5766 5972 6054 6034
4 5632 4645 4793 5621
4 3403 3402 442 451
4 2797 2977 2326 3374
4 3483 5658 883 874
4 5653 5655 1928 1919
4 3934 5721 5653 6113
4 2486 3296 3606 3670
4 6059 6150 6138 6114
4 2921 5603 4758 6133
4 5961 4828 2731 6136
4 3591 3592 3593 4820
4 3318 3584 5796 6085
4 4640 3044 5395 4995
4 2729 2738 2739 4972
4 3934 6114 6059 2734
4 5965 4852 708 709
4 5965 4852 4855 708
4 6003 5965 4852 4854
4 5765 3939 5972 4463
4 4913 5363 5965 700
4 3776 6295 3834 6196
4 1468 4115 4110 4109
4 5008 4245 1496 1487
4 3776 5008 4934 4245
4 5008 1486 4934 1487
4 4934 1477 6196 4912
4 4115 4114 4935 1478
4 4920 1486 5008 1495
4 5008 4934 1486 6196
4 6193 1495 5008 1496
4 5008 1487 4934 4245
4 3835 6191 5008 4245
4 2443 5790 2445 6005
4 6018 4798 4123 5934
4 3365 2443 3450 3153
4 2668 2532 6250 2671
4 5415 4031 4017 5414
4 6022 2668 4830 2533
4 5856 5077 1045 1054
4 2892 1045 5077 1044
4 5856 6313 5077 5896
4 2892 1044 5077 2913
4 3996 5077 5835 5364
4 3996 2913 5077 5364
4 2573 2186 3900 2572
4 4665 3729 2185 3657
4 4503 2571 3656 2573
4 3721 3698 3696 3722
4 2177 3900 3728 2176
4 2573 2571 2194 2195
4 3858 3716 3717 3728
4 4665 2573 3657 2185
4 2816 4046 2828 2830
4 3308 3621 2733 5827
4 4807 5453 2027 2026
4 3875 4919 4998 3876
4 5209 5208 6290 2134
4 5980 2133 6290 2134
4 5891 5206 6290 6247
4 5980 6247 6290 2133
4 4000 6290 5891 5206
4 4200 5207 2115 2124
4 2959 2957 2955 5974
4 5415 4407 284 283
4 3655 677 5322 5296
4 3655 676 5322 677
4 5295 667 5322 676
4 5210 5322 668 5211
4 2881 5296 5322 5211
4 5210 5322 667 668
4 3712 5311 4323 3421
4 5122 5454 5117 5302
4 6042 6043 4064 4097
4 3758 3755 4103 5466
4 3784 4004 4209 5311
4 5121 5119 3940 5437
4 4432 4399 5319 4400
4 3420 3712 3422 3421
4 4224 362 4586 4636
4 4224 352 4524 353
4 4608 4226 4225 361
4 4224 362 4225 361
4 6169 4653 4081 6170
4 4081 379 4653 370
4 6169 4225 4081 370
4 6117 1900 5581 5631
4 6117 1891 5581 1900
4 4741 5581 1891 1892
4 4741 4336 5581 1892
4 5202 5201 4336 6128
4 5581 4336 6128 1901
4 5298 5435 5125 4333
4 6345 6072 5251 3029
4 4610 4144 4019 4286
4 6260 4407 5414 4031
4 2899 2405 2974 2407
4 4614 4673 4674 4030
4 5558 5567 4668 4684
4 5264 5608 4024 6099
4 3278 3293 2865 5530
4 6099 1863 4144 5435
4 4965 3376 882 891
4 2263 2270 2266 2268
4 3283 6186 3466 5719
4 5708 6230 3645 5682
4 3209 2976 3103 3220
4 5652 875 3670 3606
4 3790 3124 4462 3098
4 5658 3606 884 875
4 3483 3380 873 882
4 5305 865 4699 866
4 4821 4176 3094 4175
4 5415 4407 4129 284
4 2922 2923 5655 5654
4 4861 4175 4796 469
4 2292 5013 4163 5104
4 4821 4774 3094 4783
4 4796 461 4794 4833
4 3792 5684 3793 4159
4 3272 3273 3271 910
4 5647 909 3271 910
4 2743 3270 901 3272
4 3790 3097 3791 3119
4 4866 3271 5641 4867
4 3271 5641 4867 909
4 3866 2747 2980 2744
4 3999 4811 891 900
4 3592 4165 5738 4820
4 5758 6287 5731 3773
4 3360 5690 3359 965
4 5690 6014 964 4906
4 3133 955 4335 6014
4 3361 3873 3872 4259
4 3812 3815 4091 2840
4 2853 5152 3120 4598
4 3125 5690 4335 5151
4 3669 4738 5728 4734
4 5712 4863 476 4698
4 4818 3947 466 4802
4 4818 5712 4873 475
4 6157 4379 6159 4377
4 4110 4874 1451 1450
4 3802 6197 6303 6178
4 3723 3803 3115 4947
4 3808 4935 3776 4934
4 3202 3206 5102 4168
4 4903 4905 4904 4991
4 6184 3850 5001 5007
4 6197 5083 3149 4956
4 5161 2559 2960 2895
4 4153 4703 4154 5089
4 2911 2895 2913 2894
4 2946 2947 2949 5666
4 4501 3730 4507 4506
4 2888 3917 2442 4357
4 2845 2691 2690 3248
4 6324 5218 4501 5194
4 5938 1132 5392 5284
4 5309 2878 5197 5895
4 3916 5840 5845 5914
4 5930 6308 5950 5392
4 2664 2880 4394 5197
4 5309 5197 5265 5895
4 5131 5133 1620 1629
4 1612 5130 5456 6134
4 5220 2584 5004 5171
4 4048 3619 5456 6134
4 5456 1622 3620 1621
4 5129 5132 4050 5130
4 6241 1612 5130 1611
4 5130 5132 6323 1611
4 4441 4436 5870 4539
4 5912 5983 3762 5845
4 2541 2542 5585 5751
4 2968 2763 3236 2965
4 5295 5751 5258 5254
4 4295 5288 5289 5155
4 2693 4591 2549 3068
4 5842 6012 5192 5893
4 4274 4275 5276 4106
4 5753 2772 5241 2781
4 5819 1187 5343 1188
4 5343 5819 3443 4258
4 5819 5343 1187 4258
4 4755 3745 1189 1188
4 4756 4781 5338 1197
4 2689 3412 3448 5068
4 5003 2956 4346 5651
4 4213 3129 3602 3128
4 2987 2989 5898 2990
4 2987 5143 5898 6320
4 3129 3602 3128 2483
4 2925 5460 1629 1638
4 6181 5942 4283 6321
4 6233 2957 6181 6231
4 3721 3854 5222 3726
4 3769 3672 3914 2236
4 5881 2964 4205 2126
4 4764 4049 6134 6320
4 5235 5889 5936 1072
4 5235 1072 5936 1081
4 5888 1080 5235 1081
4 5842 5192 5235 5893
4 5888 5893 5235 1080
4 4505 5871 5192 5836
4 4505 5871 5235 5192
4 5763 4367 6044 2872
4 5763 4416 4367 4066
4 5763 276 4367 2872
4 5763 4066 4367 285
4 5309 4421 5197 5195
4 3107 5601 3738 4142
4 4592 3042 2310 4594
4 3103 3233 3102 3503
4 4263 1908 3503 1899
4 3833 2312 4705 4617
4 5519 6326 5976 4759
4 4062 4491 2408 4125
4 2827 2826 3968 3964
4 3075 3080 4327 3083
4 4040 4041 6119 5536
4 3965 4721 4626 4649
4 4957 4102 6115 3683
4 4500 4499 5629 6128
4 4020 4124 5608 4282
4 3549 4040 4042 4565
4 3906 3905 4435 3907
4 3545 4571 3353 6068
4 4557 4041 5536 6119
4 4659 4678 398 389
4 3736 5877 4675 4694
4 3548 4799 3549 4042
4 3548 4799 4648 5964
4 4157 3402 4026 4176
4 4821 4026 459 4783
4 4157 460 4026 451
4 4821 4026 460 459
4 4593 4264 450 4788
4 4788 4593 4026 450
4 2432 3043 3650 3042
4 4173 4174 5301 4175
4 2264 3218 3217 3274
4 3404 4174 3040 4176
4 2743 5674 901 3999
4 3946 4774 5712 3947
4 2857 4190 4261 5044
4 3664 3665 3663 6275
4 2828 4350 2849 4189
4 3534 3531 3660 4350
4 2816 4046 2858 2849
4 3665 5007 3663 5855
4 2709 2813 2857 2856
4 5818 5053 5825 2948
4 3893 6185 6175 5058
4 4769 2815 4771 5855
4 5309 5195 5308 6332
4 3134 3308 2961 3309
4 2704 3621 3534 3530
4 4237 4151 4438 5432
4 3886 6064 3237 5923
4 2791 2706 3337 2785
4 3344 4167 4908 5136
4 6064 5923 5231 6240
4 6219 6221 5205 5113
4 2950 2790 2452 2954
4 5309 6332 5307 5245
4 4502 3732 4507 4505
4 4153 5234 4202 5089
4 5233 5456 6134 1612
4 3665 3839 3663 5007
4 3835 3834 3776 6295
4 4450 3155 5430 3154
4 5873 6030 5635 4518
4 4515 4517 5805 4946
4 4514 4516 4515 3713
4 4445 5120 5805 4446
4 6030 5640 5873 5812
4 4445 3842 5483 5120
4 4515 4946 5805 5120
4 5921 6220 5179 5181
4 5920 6219 5205 5114
4 3341 5136 6219 5085
4 3343 4689 5097 4348
4 3343 5204 5921 5159
4 5923 3237 6226 6064
4 3542 5767 5768 3543
4 6236 6237 2164 6238
4 6236 4872 2164 4850
4 2445 4872 4869 6249
4 4926 6097 6292 5916
4 6113 5730 1945 5672
4 4926 5672 5721 6113
4 6292 5676 1955 6097
4 5653 6113 5730 1937
4 6113 5730 1936 1945
4 6113 1936 5730 1937
4 3934 5653 5654 6114
4 5721 6113 5672 5730
4 5233 6320 6241 6134
4 4035 4836 4302 3598
4 5374 5403 5386 5368
4 4634 5374 5990 5369
4 5374 711 3783 71
4 5374 3783 711 5990
4 5233 6228 1603 6320
4 3912 3438 4471 4478
4 5370 3597 5926 6331
4 4436 6298 6279 4437
4 4478 4477 4149 4486
4 3788 5051 776 767
4 3818 3060 3059 2720
4 3026 3055 3054 5051
4 5233 1612 6241 1603
4 3024 2643 2303 2644
4 3438 3428 6294 4476
4 3863 4826 3144 3142
4 5592 5620 6223 5623
4 6224 2083 2082 5623
4 6223 2075 6281 5354
4 5354 6223 5098 6281
4 6223 2083 2075 2084
4 6223 2083 2084 4623
4 6152 4038 4690 5976
4 2741 6296 2738 6139
4 2387 3489 3622 3658
4 5961 3018 6151 6144
4 2729 2730 2737 3364
4 5479 5883 5735 6031
4 2736 5676 6097 4989
4 4109 4108 1467 5347
4 3492 2637 3789 3807
4 5346 6167 5347 1467
4 2944 3774 2530 2806
4 3462 4379 4378 4858
4 2616 4827 5961 2613
4 3807 3571 6196 3789
4 5619 3571 3586 3981
4 3591 4820 3593 3796
4 3789 3807 4912 6196
4 5696 6186 5743 5698
4 3885 5301 4173 4174
4 2946 5666 3565 4122
4 5625 5395 3084 5396
4 3038 3094 5518 4593
4 6002 3462 4117 6164
4 2221 3925 2852 2851
4 2639 4108 3463 4109
4 2744 2980 3866 3296
4 5757 4450 1027 4122
4 4240 3476 5473 2941
4 3812 5164 2007 2016
4 3663 2294 2350 3528
4 3981 3493 3571 3586
4 5332 3586 6167 5345
4 5334 3586 5619 6166
4 5473 5724 5614 6194
4 4950 4241 6194 5724
4 2815 2857 4261 3663
4 3335 3492 3789 3571
4 2622 2624 2623 3092
4 2238 4271 2237 5411
4 4151 4237 6021 5841
4 3690 2784 2239 3130
4 5162 6313 2895 5874
4 6313 5896 2895 5077
4 3995 3993 2913 5364
4 3977 3993 5843 5844
4 4530 6247 5297 5206
4 6293 4393 5878 4389
4 6324 6013 5218 5236
4 4502 4507 3994 5836
4 5487 5009 4982 5039
4 3574 5076 3575 4922
4 5680 4126 4964 4993
4 4997 3575 4922 3883
4 549 4930 540 2291
4 5030 4343 4942 4979
4 3875 4998 4997 4344
4 5487 5009 5488 5486
4 3480 5075 5489 5076
4 5339 6335 4716 4410
4 5440 4569 3972 4567
4 3390 3505 3512 3513
4 4878 5370 5926 3437
4 3798 5361 3471 3953
4 4034 5926 5370 3597
4 3354 3496 3231 3362
4 2293 3891 2291 3665
4 4939 4342 4345 5014
4 3210 4938 3481 5680
4 2367 3637 3163 4903
4 4939 3480 5489 5076
4 4310 3316 3637 3317
4 6279 4564 4490 4590
4 6279 4489 4490 5508
4 6279 4489 4563 4590
4 6279 4490 5494 5497
4 4436 4437 4471 6298
4 4471 4486 4476 4067
4 4539 6279 5870 4563
4 4983 4943 5792 4981
4 4983 4982 4981 5792
4 5030 4171 4944 4943
4 4342 5030 4308 4343
4 3210 3211 3172 4938
4 4342 4343 4345 4942
4 4939 5014 5779 5076
4 5486 5009 4978 4982
4 5045 5046 4823 4907
4 6117 5631 5581 4779
4 5312 3083 4746 6121
4 4436 5870 6279 6179
4 3286 3502 3504 4780
4 3301 2979 6109 4804
4 3168 4499 2923 3570
4 4474 4279 4278 855
4 4291 864 4289 4279
4 3426 6042 3756 3755
4 3398 5437 3943 3940
4 4431 5028 3944 3943
4 5122 3944 5464 5121
4 2829 3997 3132 2830
4 2784 2755 2710 2239
4 2858 2848 4190 2857
4 3607 2856 2830 3690
4 2848 4189 2828 2849
4 3159 3132 1561 1570
4 3345 5139 3131 3342
4 5259 5454 5506 6039
4 5117 5451 3609 5454
4 3758 6042 5466 5454
4 3944 5464 5465 4206
4 3940 3424 5260 3944
4 4430 5491 6339 6082
4 4336 5202 5617 5200
4 4955 4740 4742 4336
4 5549 5380 2803 5552
4 5549 5200 5202 4679
4 5629 6128 5581 4336
4 5380 6083 5617 5600
4 5376 6106 5600 5381
4 5376 5379 6106 5381
4 5409 3916 5845 5914
4 3313 4385 2786 2788
4 4384 3916 5409 5407
4 6200 5852 5859 5853
4 6307 4530 5297 5927
4 2665 4421 3979 4396
4 3193 5749 1118 1109
4 3195 3193 4924 5749
4 3071 4530 5891 6247
4 3071 5997 3069 5946
4 3071 5892 5946 6247
4 3734 2342 2370 4528
4 2342 3069 5997 5945
4 3761 5495 2878 5328
4 6298 5494 4564 4321
4 6298 6279 5494 5497
4 6298 5494 4321 4615
4 3906 4471 4437 4485
4 3893 5855 6195 6175
4 6184 5001 3665 5007
4 3892 6185 3893 5058
4 6184 3665 3893 5855
4 4769 2815 2814 4960
4 4755 5066 3409 3449
4 2883 3253 2882 4849
4 3247 3248 3252 3250
4 5280 5998 5940 5342
4 2930 3443 3410 5819
4 3190 4924 3195 3193
4 5811 1169 5824 5943
4 3249 5948 5392 5938
4 2930 2929 4257 3486
4 3762 5912 3760 5983
4 3413 4022 3706 3725
4 3155 3157 5757 4713
4 3916 5847 5840 5914
4 5840 5847 1100 5914
4 4357 6011 3386 3917
4 2444 2445 3882 5191
4 2885 2886 2887 3417
4 3137 2561 2241 3730
4 5791 6016 3917 6011
4 3879 6236 5787 6252
4 4297 6252 2171 2162
4 2885 5790 2898 2443
4 2885 5791 2888 2896
4 6018 3882 2445 5191
4 3276 2288 3112 3113
4 5791 6019 6016 6011
4 4739 6077 928 3120
4 4083 4085 4086 5783
4 4739 5668 920 4737
4 4739 5728 919 928
4 3283 6288 5737 3282
4 3646 6158 5978 4737
4 3772 4819 3771 4897
4 5430 3154 5429 4450
4 2367 3316 4310 3162
4 5430 5757 4450 5433
4 3448 3412 5973 5068
4 3656 1174 5408 4662
4 4022 5277 5960 5944
4 3698 6328 4204 3722
4 3698 3695 3696 3722
4 3855 4056 2170 3856
4 3715 2169 3857 3855
4 3726 2572 2573 3900
4 5973 3806 4503 5408
4 2946 4122 5757 5090
4 2365 3642 3133 3637
4 3230 2634 3125 3231
4 2944 3774 2942 2530
4 4047 3813 2000 6176
4 3982 5917 3811 5778
4 3354 3362 3359 3360
4 3726 4661 3806 3705
4 3697 3706 5924 3705
4 3722 3721 3065 3415
4 3715 3856 3857 3067
4 3064 3072 3070 2342
4 3705 5944 5963 3725
4 4661 3697 1147 4663
4 5875 5950 5404 5959
4 3411 3412 5068 3725
4 4755 5819 3410 3745
4 3456 3472 3784 4209
4 3053 785 3910 794
4 3455 3957 765 4562
4 5443 5124 5337 4406
4 4209 3957 756 765
4 4209 748 5311 757
4 4448 3472 4511 3953
4 5280 4634 5998 5342
4 4634 5374 5368 5990
4 5367 5362 701 5368
4 5367 693 5342 702
4 5367 4298 5362 5368
4 4628 4627 4203 5998
4 4634 5369 5279 4256
4 4634 6269 4298 5368
4 6174 6257 1682 6051
4 1682 6174 1692 6257
4 6174 6257 6081 6261
4 5757 4122 1027 5090
4 6051 3517 1691 6174
4 6050 3983 1777 6256
4 4512 316 4487 5926
4 4513 324 4487 325
4 4512 325 4487 316
4 4034 4487 3597 4033
4 4513 4487 3597 6331
4 3937 3440 5673 3439
4 4583 4495 4524 343
4 4524 4435 344 4485
4 3177 3454 3179 4137
4 3907 4524 4224 6093
4 4583 343 4524 352
4 4224 6093 4524 352
4 3818 3820 1316 1307
4 3821 3818 2720 3820
4 5548 1315 4578 1324
4 3818 3817 1307 1306
4 5529 1324 4578 1325
4 2314 2308 2721 2722
4 2720 5801 3058 3820
4 4775 4578 3821 4676
4 4696 3293 5530 5412
4 2893 4713 5874 5757
4 2409 2766 4062 2902
4 5263 6092 4391 4089
4 4089 6124 4146 3612
4 6103 1360 3608 1359
4 5556 4267 4268 5557
4 3299 5609 3350 3351
4 5757 2893 5090 5874
4 3259 3601 3889 5370
4 2307 2714 2316 3057
4 4696 1323 5189 5511
4 4696 3293 5548 5511
4 6087 5262 6091 5557
4 4609 5291 4608 4226
4 2498 5141 3537 4680
4 4081 6170 4653 379
4 4565 378 4653 379
4 5055 4565 4653 6170
4 5055 4653 4650 4630
4 3740 3369 5274 3371
4 4699 865 4291 856
4 4700 3047 3105 3048
4 4635 3106 3101 3102
4 3846 4019 2379 4124
4 3549 5536 4557 4041
4 2743 3272 902 3865
4 3403 451 4157 3402
4 4592 3408 4264 4643
4 2978 3168 3169 3625
4 4921 3884 3095 3007
4 2324 2923 3168 4499
4 3560 3926 4639 3927
4 4640 3044 4239 5395
4 2321 2920 2319 5639
4 2323 2328 2322 2320
4 6282 4496 2319 5202
4 3367 3897 4331 5961
4 3076 2594 3044 3042
4 4592 4595 4594 4720
4 3267 3885 3567 3082
4 4827 2731 4828 2739
4 3261 3645 5682 6149
4 2728 3933 5961 2731
4 3463 4109 4110 4115
4 2730 2620 3218 2735
4 3653 2739 5671 5501
4 5501 2739 6246 4972
4 6137 6139 6138 6140
4 2741 2731 2739 4969
4 6137 2741 6139 6146
4 2612 3653 4883 5962
4 2612 4883 4898 4108
4 5138 5593 2082 2073
4 4234 4898 1440 6151
4 6098 3363 3622 5900
4 6137 2734 2741 2731
4 4110 4108 1450 1459
4 4898 6151 1441 1440
4 4874 1450 4898 1441
4 5800 3793 4160 4814
4 5684 3791 4875 4238
4 4901 3794 5641 4875
4 4796 4174 4176 4175
4 3270 3668 3097 4866
4 3638 4936 4928 4813
4 4931 4937 5702 515
4 4931 4976 4937 514
4 4937 4976 505 514
4 4937 4976 4260 505
4 5714 4923 4937 506
4 4937 4923 5702 506
4 5048 567 5013 568
4 5138 5593 2073 2072
4 559 3521 550 3522
4 5048 5059 5044 567
4 3838 3529 5059 5048
4 2292 5013 5044 3839
4 3522 4163 559 3521
4 4930 3804 4947 4987
4 5048 568 5013 5104
4 5048 5103 577 568
4 3532 5048 577 576
4 5048 3532 5828 3529
4 3838 5048 5013 5104
4 5086 604 5080 595
4 3304 4908 603 612
4 4826 3859 5138 3863
4 5080 4187 3660 594
4 3532 5080 595 5827
4 5591 5212 3861 6218
4 2946 2894 2911 2947
4 4166 5828 3200 5103
4 2966 2946 2893 2911
4 4166 3206 3200 3196
4 5138 5909 2071 2080
4 3838 5048 5059 5044
4 5830 5909 5156 2071
4 5830 2070 5156 5848
4 5156 2071 5909 2080
4 5156 2080 5909 3859
4 5156 2079 6216 5848
4 5470 5830 5156 5848
4 5138 2082 5593 6218
4 3838 5059 2857 5044
4 5162 2893 5874 2895
4 3778 4954 5742 4950
4 2985 2990 5057 1584
4 3887 4284 5173 5300
4 4470 5025 4422 5023
4 5025 658 5172 649
4 5258 5172 658 657
4 3113 5258 5172 5023
4 5023 3111 5040 3113
4 4170 639 5173 4284
4 5288 5344 3655 676
4 3654 5391 3655 5296
4 3253 4127 3655 5391
4 4127 4628 2540 4203
4 3250 4581 3192 4021
4 4628 4295 2540 5928
4 5436 3395 3393 3506
4 4511 5446 5337 5310
4 4508 3395 5436 3506
4 5119 5116 3711 5124
4 5443 5337 5902 4406
4 3435 3431 3952 3955
4 3598 4839 4419 3594
4 4034 5925 4487 4033
4 3524 3527 5762 4836
4 3398 3742 5461 3399
4 3010 3823 4432 5318
4 4835 6057 5366 5389
4 4509 5503 5505 1270
4 3588 4134 4599 4552
4 3060 3547 2568 4133
4 5440 5762 4303 6053
4 5365 5762 3527 4836
4 5516 810 4235 811
4 5516 811 4235 6001
4 4235 810 6343 4236
4 4235 6343 6001 5537
4 3182 5537 3920 5535
4 3920 5532 5535 4236
4 5522 812 5584 811
4 5516 811 5584 820
4 5522 811 4235 802
4 5522 4673 4030 812
4 3699 5516 6001 5584
4 3603 821 3605 830
4 4752 5553 4652 5594
4 4579 4638 4647 4660
4 4219 4220 4579 4221
4 4546 4660 4579 5568
4 4729 5979 5604 4752
4 4219 4638 5141 4622
4 4219 4638 4647 4579
4 2747 5658 3606 5664
4 5726 3771 3261 5699
4 3103 3301 3101 3233
4 2656 3992 3290 3292
4 6330 5677 5695 5694
4 4331 4379 6159 6157
4 2362 2853 2365 3122
4 5641 4866 4867 3791
4 2747 3606 2744 3866
4 5138 3863 3859 3861
4 3918 3229 3921 3924
4 5150 6338 3355 5697
4 3358 5770 3359 5769
4 3923 6173 6186 5755
4 4796 4794 5301 4833
4 3098 3123 3099 3119
4 4462 3406 3098 3123
4 4921 3884 5590 3348
4 3790 3791 3795 3793
4 4601 6287 5738 5758
4 6287 5738 1981 4820
4 5738 4820 1990 1981
4 5738 4165 1990 4820
4 4164 1989 3922 5750
4 6287 1972 4819 1981
4 3089 5744 4971 5746
4 4954 5744 6190 5802
4 6204 5802 5744 5745
4 4940 5744 5802 6190
4 4940 4243 1512 6190
4 6204 1522 5744 1513
4 4971 5744 1522 1521
4 5829 5831 5449 5909
4 5829 4825 5909 5449
4 5470 5830 5909 5156
4 2523 2061 5830 5165
4 5830 2071 5156 2070
4 2523 2062 5830 2061
4 4421 5236 5248 5239
4 2879 5907 4161 5269
4 5138 3861 2081 6218
4 5197 5265 5239 5248
4 3519 4386 5207 5206
4 3253 5371 5998 4127
4 3760 5936 5983 5888
4 6012 4396 5531 6013
4 5308 5348 5195 5329
4 5348 5329 5904 5195
4 4396 5348 6012 5904
4 5309 5895 5894 2878
4 4170 4284 5097 630
4 3343 4284 5864 5204
4 5040 5025 5023 5172
4 4687 5153 5170 632
4 4170 4284 630 639
4 2555 3305 3136 2591
4 5300 3542 5217 3113
4 5138 5909 2080 3859
4 3236 3619 5923 3237
4 2875 2870 4915 3387
4 3837 3977 3958 3993
4 2883 4849 2882 5907
4 3191 4581 5975 5283
4 5975 1116 1124 5495
4 5907 5938 4846 4849
4 3191 1116 5975 5495
4 3250 4581 5875 4846
4 2989 5897 6222 5187
4 2784 3607 3690 2710
4 2772 5441 5969 5397
4 5768 5752 5275 5253
4 2782 4915 5360 5244
4 4274 5276 5333 5275
4 2780 4589 4104 4292
4 3543 2973 5320 5984
4 5254 5217 5752 5751
4 4274 5278 5242 5316
4 6013 3979 3732 4423
4 2458 3305 3325 3344
4 4394 4421 5197 4422
4 2880 5196 4394 4422
4 2126 5209 2964 2125
4 5209 6233 5208 2134
4 5934 6237 6018 6061
4 4589 4185 2875 4915
4 6181 6233 4283 6244
4 3881 3880 3882 5787
4 3336 2457 3340 3325
4 3881 2552 5793 5795
4 4200 5160 2125 2116
4 4205 4233 2958 2480
4 3877 3602 3878 4213
4 3840 4156 5469 4155
4 5933 5110 4360 5214
4 6269 4633 5996 4183
4 6189 4298 6269 5362
4 3881 3879 6236 5787
4 4185 6020 6010 6009
4 3869 6189 4292 4298
4 4589 6248 6189 5986
4 4208 5925 4472 5926
4 4208 3894 306 5510
4 5925 316 4487 315
4 5925 316 4472 5926
4 5925 4487 4033 315
4 4034 5925 4033 4035
4 4208 5510 306 4035
4 4583 4551 4210 342
4 4556 5290 4583 4495
4 5822 5290 4495 6093
4 5877 4721 4722 4723
4 5788 4352 5413 5781
4 5286 4534 4551 4604
4 2982 5705 6334 3220
4 5632 4785 4917 3580
4 3048 2527 3572 5305
4 5312 5313 6121 5574
4 2312 3832 3829 4617
4 4585 3829 414 2309
4 4585 2309 414 423
4 4718 2309 4585 423
4 3608 4102 1359 6116
4 3608 6116 1359 1368
4 6103 4102 3683 1350
4 2903 4102 4957 3683
4 5274 1352 4750 1361
4 2509 4949 3187 3186
4 3611 3685 4493 5185
4 5734 3832 5964 4618
4 3548 4041 5734 4043
4 2827 3549 5808 4557
4 3548 4041 4043 4042
4 5964 6100 4629 4090
4 3459 3490 2635 3493
4 3899 2448 3096 3082
4 6140 6137 6154 6059
4 6002 4117 4874 6164
4 2279 2925 5020 2871
4 2612 4898 2614 4108
4 2730 3363 3269 4925
4 5332 5347 5346 6167
4 2871 2875 3387 2870
4 5619 4240 3571 3476
4 4920 5346 1486 1485
4 4109 5346 1468 4912
4 2639 4109 5347 4108
4 5346 1468 4912 1477
4 3534 4350 2828 4189
4 2712 3529 2753 3530
4 5070 2784 2785 2703
4 3532 5048 576 5059
4 595 5084 586 3532
4 3838 5357 5103 5104
4 2733 5827 3530 5828
4 2828 2849 3997 4046
4 6101 4808 5739 6205
4 3835 6295 4244 3834
4 3779 4786 4252 4560
4 3692 5905 3652 5257
4 5692 5022 4623 3648
4 5905 4623 6223 5098
4 3863 3864 4825 3859
4 3142 5592 3692 3693
4 5592 5623 6223 6224
4 5098 6281 5620 6315
4 2710 2813 2856 5060
4 2813 2817 2856 5060
4 5820 6204 1522 5745
4 2560 2960 2961 3980
4 2782 4915 2870 5360
4 2858 2857 4261 2815
4 6222 2990 1576 1585
4 6222 1576 2990 4198
4 5897 1585 6222 1586
4 4198 2989 6222 3338
4 5897 1586 6222 5187
4 3339 5187 6222 5849
4 5538 5850 5644 5643
4 5233 1603 6241 6320
4 5233 6134 6241 1612
4 4050 6323 6241 5130
4 6241 5130 1612 6134
4 6241 1602 6323 5221
4 4185 5359 6009 6248
4 6189 5363 5362 6269
4 4589 6189 3869 5986
4 5360 1659 5244 4915
4 3543 3237 5320 2973
4 6189 4104 4589 4292
4 2898 5790 5787 2445
4 6248 5359 6003 5991
4 4569 3975 3894 3976
4 6266 3972 4380 3973
4 3974 4383 4402 4395
4 5115 3974 3973 4301
4 3969 3971 3975 3976
4 3974 4383 4429 4380
4 3972 4380 3974 4429
4 4532 1267 4322 1258
4 6256 6050 6174 6051
4 4532 1268 6065 5401
4 4532 4300 3494 1259
4 3227 3008 5318 3983
4 4005 4323 5311 3421
4 6042 4099 5542 4452
4 6344 4452 5542 4216
4 5261 6277 6060 5595
4 4410 4716 3333 6335
4 3469 3600 3799 3890
4 4138 4478 3912 4471
4 3467 3473 3468 3472
4 5020 2871 2925 5105
4 3823 2504 2503 5317
4 3756 4215 5016 4451
4 3054 3055 785 776
4 5687 5686 4065 5463
4 3350 3353 6272 6068
4 4293 3298 5263 4027
4 3022 3372 3053 3182
4 3553 3350 6087 6068
4 3353 3352 6272 5500
4 2724 3350 2722 3353
4 5549 2803 5200 4679
4 5549 6083 5550 6079
4 5549 5617 5200 5380
4 5549 6282 6079 5175
4 3209 5705 2982 3220
4 2332 2320 2319 4496
4 5705 6334 3220 5631
4 4741 6089 4742 1883
4 6282 5624 4496 5616
4 4263 6334 3569 1909
4 4263 3220 3569 6334
4 6147 3569 1909 1918
4 3568 3569 1918 1917
4 3568 6109 3569 1917
4 3569 6109 4804 1917
4 3240 3115 3636 3118
4 6302 5457 5459 5711
4 4827 2739 5671 3653
4 3584 3630 4260 6085
4 3659 3490 3658 6031
4 5501 5459 5457 5458
4 5501 4972 6246 5458
4 6032 5478 5501 5457
4 5501 5478 4972 5458
4 3630 6085 4948 4260
4 3774 3776 3834 3789
4 2933 3585 3584 3630
4 2531 2836 3458 2941
4 3593 4820 4262 3796
4 4164 3592 4165 5738
4 5777 3592 4165 4988
4 5482 6312 6311 2522
4 3565 3564 4122 5809
4 5784 6311 4520 5785
4 5782 5785 5784 4516
4 4522 4518 5636 4514
4 4351 5802 5745 4786
4 4445 3576 3842 4446
4 5636 2524 4514 5634
4 2759 3154 5428 3155
4 3491 3883 3576 3575
4 2871 5355 3387 3386
4 3851 4482 5634 5165
4 5482 4092 3499 4810
4 2726 4971 5745 5820
4 2753 5828 3529 5357
4 3306 630 5097 621
4 2967 2895 5162 5161
4 3748 2335 2931 2812
4 4971 5820 1522 5745
4 3308 5827 5358 5086
4 5080 3530 3660 3621
4 2214 3840 2855 4438
4 5470 6216 5471 5848
4 2948 5053 5825 5106
4 3692 4886 2984 4888
4 2482 4233 2483 6211
4 5829 5909 5830 5831
4 2099 5212 2090 3129
4 4213 2107 3129 2108
4 2099 3127 5212 3129
4 3129 3128 3127 5168
4 2721 2722 3334 3333
4 1820 4632 1829 4787
4 3025 3910 3053 3055
4 3909 4573 6277 5595
4 4716 6074 6075 3333
4 3545 3554 4571 6270
4 3544 3909 4412 4573
4 2948 5063 3208 5106
4 2240 2238 4271 2237
4 2608 2352 3819 5019
4 3535 3836 4986 5144
4 2912 5844 3958 5148
4 3310 3621 5827 5080
4 2948 2912 3958 5148
4 4971 5744 5745 1522
4 4876 5716 6077 3016
4 2619 4058 5493 3497
4 5061 5725 4162 4823
4 3510 3508 4932 4892
4 4309 4312 3211 4938
4 4025 3908 5266 5167
4 2645 4631 5496 3826
4 2865 3059 2715 5412
4 2831 3225 2472 2864
4 4020 4019 5608 4124
4 4025 5266 4029 5264
4 2680 2470 2472 2471
4 3612 4492 4147 4146
4 2676 2682 4023 2683
4 4020 4145 4354 4063
4 4926 6113 6292 5672
4 4498 5655 2922 2923
4 3934 4926 5721 6113
4 2741 2731 2734 2738
4 2921 6286 6283 4758
4 4498 2922 5655 6289
4 6283 5174 6286 6080
4 2332 4496 6283 4498
4 2921 6133 6283 2920
4 3568 1918 3570 1927
4 2734 2738 5916 6139
4 3934 5916 6113 6114
4 2332 4498 2922 2923
4 6137 3933 6059 2734
4 2738 2731 2730 2729
4 6330 5681 5694 4800
4 3916 5914 4529 3734
4 4384 5645 4388 5407
4 3913 3915 5845 5983
4 2788 2787 4703 4389
4 4385 4726 5936 5983
4 3398 5461 3943 5437
4 4508 5436 5902 4453
4 2504 6071 1794 6265
4 4433 3823 5317 4432
4 4430 6082 5318 5317
4 3089 4971 3088 4199
4 3983 3008 5318 3009
4 2504 4212 6265 1785
4 3517 3985 5480 3702
4 3541 3618 2275 3235
4 3542 5217 5752 5186
4 5921 4273 6235 5181
4 4342 5489 4996 5014
4 4939 5076 5489 5014
4 5018 5485 3819 5019
4 2601 2607 2610 3819
4 5486 4983 5792 4982
4 5680 5488 4978 5486
4 5487 5038 5036 5037
4 3231 3362 3163 3125
4 6318 6244 6153 6243
4 5793 6337 6242 5795
4 3313 4385 3914 4726
4 3071 5892 6318 5946
4 5329 3762 5328 1107
4 3456 4037 3954 3957
4 3428 5468 4547 4480
4 3428 4461 4480 4319
4 3712 3421 4511 5311
4 3468 3784 3472 3421
4 6204 4351 5545 5539
4 2292 5104 3838 5013
4 4971 5746 5744 1521
4 5485 5490 5052 5032
4 3241 3243 3246 4948
4 6248 5991 5986 5359
4 6269 5991 5374 5996
4 6269 4298 5368 5362
4 6248 5359 5986 4185
4 6003 5359 1222 5991
4 4913 5363 6189 5965
4 4634 6269 4633 4298
4 2877 3616 2876 3870
4 3879 5795 6238 6252
4 5942 5793 3881 6061
4 3715 3856 3853 3855
4 3449 3720 3447 4072
4 3087 5000 4767 4199
4 3266 3264 3213 3669
4 3925 4820 4262 3593
4 4820 3592 3925 5738
4 3918 4164 3592 4988
4 4665 2573 3806 3657
4 1175 4503 2571 3656
4 5973 5222 4503 3806
4 3806 3726 2572 2573
4 3806 5222 4503 2572
4 4665 5947 3727 3729
4 2571 3657 2194 2193
4 3806 4664 4662 4661
4 4047 5884 6176 2000
4 3092 3491 2622 2347
4 6187 6188 5760 5807
4 3490 3489 5883 5777
4 5345 5619 3571 3586
4 3591 4165 3592 4820
4 5332 3810 5347 6167
4 3659 3653 5962 6161
4 6033 4081 4619 6170
4 4081 371 4225 4636
4 4619 379 4081 380
4 2757 4992 3967 5823
4 4971 4199 5746 1521
4 3409 4755 3410 5065
4 1188 1197 1198 4755
4 5487 5490 5069 5036
4 4209 3472 4511 4448
4 3470 5436 5337 5902
4 3784 3472 5311 4209
4 4032 4428 302 293
4 3951 3955 4448 3957
4 3955 3430 3431 3429
4 4246 4894 487 478
4 4814 5301 5590 5800
4 4861 5588 4175 4255
4 4246 495 4893 4248
4 3585 4248 4246 4893
4 4246 4893 496 487
4 6242 2162 4297 2161
4 3857 2161 4297 2170
4 6242 5795 4297 6238
4 3715 3857 3856 3855
4 3856 3857 2170 3855
4 4297 5795 6252 6238
4 3911 4478 4677 5370
4 3905 344 4477 4485
4 4149 4486 3438 4478
4 4477 4495 6078 334
4 4477 4485 344 335
4 4478 6331 5370 3437
4 5487 5486 4982 5009
4 3390 3395 3391 3512
4 3703 3742 4365 4929
4 3507 3511 3440 6264
4 3393 3389 3390 3395
4 2471 4029 4028 2376
4 3511 3513 3973 6264
4 5673 3511 3440 3507
4 5503 5504 1269 5817
4 3936 4014 4642 4015
4 3662 3601 5370 4034
4 5533 4540 6056 6270
4 3985 3702 6063 3226
4 5972 4014 3936 4012
4 4398 4787 3333 6075
4 4583 4524 4495 6093
4 4609 351 4583 352
4 4583 5290 4551 4609
4 5290 6093 4609 4583
4 4583 352 4524 6093
4 4088 6124 4027 5264
4 4412 5595 3333 4573
4 5263 5262 4391 6092
4 2802 2903 4957 2803
4 5376 4306 4492 5379
4 5376 5379 2545 6106
4 4020 4019 4024 5608
4 4354 5608 4029 5264
4 5266 4088 4027 5264
4 4695 397 4659 398
4 4695 398 4659 4678
4 4040 388 4659 397
4 4659 4683 4535 4678
4 4619 4659 388 389
4 6033 4535 4619 4683
4 4752 4579 4652 5553
4 4474 846 4278 3323
4 4536 4546 4537 4621
4 6103 3610 3684 4102
4 4062 4742 4955 4740
4 5808 4557 5536 4535
4 3401 5964 5657 5598
4 4557 4535 6119 5536
4 4537 4790 4558 6119
4 3828 4543 3827 4790
4 3408 6284 3405 5703
4 2404 2410 2652 2408
4 3270 4867 3097 4811
4 3407 3123 3404 4782
4 4782 4794 3123 3404
4 4585 4718 415 4543
4 4585 4718 424 415
4 4585 424 4718 423
4 2309 4644 4718 2311
4 4585 2309 2311 3829
4 6022 1663 4830 3978
4 4830 1671 2435 1662
4 4830 2668 2669 2670
4 5002 5003 4233 5169
4 4888 3692 3694 2984
4 3694 5806 3692 4888
4 2216 3144 3142 2215
4 2964 6233 2957 5974
4 4000 2124 6290 5206
4 5487 5069 5490 5039
4 5487 5486 5015 4982
4 3693 6211 2483 5168
4 4861 4814 5301 5590
4 3795 3793 5684 4160
4 4893 4179 5798 5796
4 3203 2966 2948 2949
4 5684 4238 4875 4877
4 3640 5725 5046 4923
4 4845 4238 3792 5684
4 5683 4885 4812 4884
4 5683 4877 4875 4813
4 4252 4560 5802 6342
4 4950 4974 5101 6194
4 4786 5744 5802 5745
4 6194 5095 2029 5614
4 4241 4974 6194 4242
4 4950 6194 4241 4974
4 2018 3811 5778 3813
4 4312 3162 3902 4903
4 4560 4244 3835 6342
4 5918 5100 5724 5739
4 4904 972 4998 4345
4 4998 973 3876 4919
4 5680 5488 4993 4978
4 4939 4998 5014 4345
4 4342 4996 5489 5486
4 4998 973 4919 982
4 5779 981 4998 982
4 5779 4998 981 5014
4 568 5102 4163 5104
4 5102 5103 568 577
4 4166 577 5102 578
4 4166 3206 3196 578
4 4166 3200 5102 5103
4 3198 2963 5092 3958
4 5358 5084 5086 5827
4 5086 595 5084 596
4 5084 5827 3532 595
4 5828 5827 3532 5084
4 3198 3208 5005 5067
4 5084 5006 587 3196
4 5086 3950 596 5006
4 5086 5084 5006 596
4 5086 595 5080 5827
4 5086 5084 595 5827
4 603 3304 5080 4187
4 3309 4986 614 605
4 5220 2584 5171 5213
4 2483 3129 5168 3128
4 3862 3239 3143 3860
4 3197 5358 3200 3196
4 3479 5019 4126 5488
4 3713 4445 3154 3577
4 5019 2352 4126 5707
4 3479 3574 5076 3575
4 3205 3206 5032 3204
4 5052 5032 4966 3204
4 5075 5794 6155 5011
4 5779 5076 6155 4922
4 3565 5010 4122 5666
4 2261 5493 2262 3495
4 2214 3238 3239 4438
4 5057 1593 5252 6225
4 5057 1594 5252 1593
4 5252 4764 6320 5143
4 6228 1603 5252 1594
4 5252 1603 6241 1602
4 2539 3253 4127 2540
4 4628 5998 4203 4127
4 5280 4257 5372 5299
4 3199 3208 3198 5067
4 4459 4457 4395 300
4 4459 4032 4475 301
4 3526 3939 4463 4642
4 4443 5366 5389 4839
4 5365 5766 6036 4416
4 3511 6264 4567 3440
4 4034 4487 5926 3597
4 5126 6004 4673 5561
4 5126 5522 5561 4673
4 5522 5561 4673 803
4 4024 5608 4029 4020
4 5522 4235 5537 802
4 5126 4030 5522 4673
4 5266 4088 5292 1846
4 6099 1854 5292 1855
4 4088 1855 5292 1846
4 4024 5292 6099 5435
4 5435 4024 5292 4333
4 5294 5266 6277 5167
4 4025 5266 5294 5167
4 2521 2799 3290 3288
4 2520 4278 4474 4279
4 5602 5578 847 4474
4 2907 3046 3035 2906
4 4474 4278 846 855
4 2905 4474 2518 3323
4 3323 4474 837 2905
4 838 4474 5578 2905
4 4474 2905 838 837
4 3198 2963 3197 5092
4 4494 4724 4415 4181
4 4579 5568 4752 4546
4 4546 5568 4415 4621
4 4896 3363 4989 5676
4 3366 3653 4972 2739
4 3266 3669 3213 3265
4 2745 2621 3644 3867
4 3623 4984 4577 3624
4 6288 5720 5715 5740
4 2745 2621 3867 3866
4 5668 3281 4737 4738
4 3367 2616 5961 3018
4 4263 3220 3502 3503
4 5653 5880 3625 2923
4 3297 2979 3624 6109
4 4558 3828 3827 4790
4 3322 4643 3405 3408
4 5519 4761 6326 4759
4 4577 3624 6213 6214
4 4084 3357 4087 6338
4 6338 3355 5697 5769
4 3125 3362 3359 3356
4 5150 6173 6338 5696
4 3283 5741 4602 6186
4 4084 5769 5774 5770
4 3354 3852 3358 3357
4 3361 4259 3872 3360
4 6338 6301 5776 5696
4 6338 5776 6301 6305
4 6338 6301 5696 6173
4 3357 4087 6338 6165
4 5736 5800 3641 5685
4 3316 4313 2369 3643
4 4462 4833 5301 4794
4 4462 4794 5301 4174
4 3795 4160 5800 3793
4 5587 3006 4698 5588
4 4861 4814 4862 479
4 3260 3645 3771 3773
4 3794 3795 3791 4875
4 4861 470 4814 479
4 4796 461 4833 470
4 3814 3812 2008 3813
4 4121 6176 3982 5778
4 3813 2009 5778 2018
4 4091 3812 2016 5166
4 2027 5917 5453 5918
4 4444 4450 1010 5799
4 3565 5011 5809 5010
4 5227 4154 6024 5228
4 2967 5162 2895 2893
4 3508 4892 4307 4932
4 5428 4481 5638 5799
4 5871 1063 5890 1072
4 5835 5890 5871 1063
4 5835 5871 5836 1062
4 5871 5235 1072 5889
4 5871 5235 5192 1071
4 5041 632 5170 641
4 5767 5183 6234 4273
4 650 5041 649 4470
4 4687 5153 632 623
4 4892 5702 4307 4932
4 3413 3192 3696 3706
4 3485 2844 2539 4628
4 5908 2878 5495 5894
4 2929 5998 4848 4257
4 2882 4849 5306 4161
4 3249 5938 4846 5948
4 5269 2879 5296 4161
4 5309 5895 5307 5894
4 4931 3510 5702 4937
4 2593 6064 5923 5971
4 4506 5170 5218 4469
4 6324 6012 5348 5349
4 3913 3914 3915 5983
4 2672 2290 2664 2881
4 2247 2843 2845 2249
4 4931 514 4937 515
4 2883 2882 2879 5907
4 5895 5908 5894 2878
4 4846 5907 5908 5931
4 5907 5908 5931 5895
4 4927 5908 2878 5495
4 5210 5196 5321 2881
4 3930 523 4959 4941
4 5405 5344 5751 5321
4 4423 5239 4422 5026
4 6332 4421 4396 6013
4 2244 4394 2289 4425
4 3654 4161 2882 5391
4 2880 5197 5265 5211
4 6318 6243 5981 2152
4 6242 5981 2152 2161
4 6318 2151 5981 5997
4 3857 5981 2161 2160
4 3067 5981 5627 6337
4 5981 5627 5997 3066
4 3869 5996 6269 4633
4 5986 1223 5996 5314
4 5986 5887 4185 5987
4 3387 4185 6251 6010
4 5986 6269 5996 5991
4 3870 5986 5887 4185
4 3869 4633 6269 4298
4 4303 287 4368 6053
4 4303 6053 296 287
4 4303 5763 286 4066
4 4303 6053 4449 296
4 4303 4302 4442 295
4 4115 4912 1468 1477
4 4025 5266 2471 4029
4 3988 3003 3822 3983
4 3752 4571 3353 3554
4 5533 6273 3751 6062
4 6099 1855 5292 5264
4 6124 6099 1855 1864
4 6099 5435 5292 1854
4 6124 5264 6099 5608
4 6099 4019 5435 4144
4 4285 6099 4019 5608
4 3084 3083 5625 4142
4 2322 3765 2321 3764
4 6107 4715 1368 1377
4 3608 4702 1369 1360
4 3370 2765 3740 2901
4 3558 3044 3042 4330
4 6283 2920 6133 6120
4 6282 4496 6283 2319
4 6282 5174 6080 5175
4 4896 4989 5479 1973
4 3591 3796 4819 4820
4 2736 4972 4989 6097
4 6098 4896 3363 4989
4 4926 6292 6113 5916
4 3808 4934 4115 4935
4 6014 3362 3125 3163
4 4762 3133 955 946
4 5150 6186 3550 3923
4 5698 5150 5696 6186
4 6230 3645 3773 4338
4 6198 5095 2029 6194
4 6194 5958 5939 4974
4 6194 6198 5939 5958
4 4810 3487 4807 3903
4 4436 6279 5870 4539
4 3487 4808 6205 5739
4 4807 5739 2036 2027
4 4807 5739 3487 2036
4 4052 4058 4061 4060
4 3805 3931 4126 3523
4 3718 3723 4947 3804
4 4807 5739 5918 4808
4 5592 5905 6224 6223
4 5620 5098 5905 6223
4 5622 6281 5623 2065
4 4115 4934 1478 4935
4 3573 2351 5637 5357
4 4115 3775 4912 4934
4 3838 2857 3663 5044
4 2857 3663 5044 4261
4 2848 2857 3529 5059
4 4115 1477 4934 4912
4 2848 5059 3529 3531
4 2816 2815 2857 2858
4 2815 3663 5855 6275
4 2753 2733 3530 5828
4 3158 5757 3157 2893
4 5358 5086 5084 5006
4 3200 5084 4166 3196
4 2961 3980 2962 5358
4 6059 6137 6154 5525
4 5063 3198 3208 5005
4 6228 5252 6320 5898
4 5897 1595 6228 1594
4 5897 5231 6228 1595
4 6228 5231 6240 1604
4 6228 1594 5252 5898
4 5233 5923 6228 6320
4 5233 6240 6226 1604
4 4283 2153 6242 2152
4 5793 4283 6242 6243
4 6242 2161 4297 6337
4 6242 5981 6337 6243
4 6242 5981 6243 2152
4 3223 3446 3998 5222
4 3417 3416 3720 3418
4 3447 3446 3417 3720
4 2549 3856 4591 5795
4 2553 3514 3167 2548
4 3447 3417 3416 3720
4 6041 4509 4599 4463
4 6041 5389 4835 4599
4 6041 5389 1272 6057
4 1271 4509 4599 6041
4 5765 3939 6045 5972
4 1705 5117 5118 4253
4 5121 4314 1704 1705
4 5121 5425 1704 5437
4 5121 5437 3943 5425
4 5121 5425 5464 1695
4 4253 6258 1697 1696
4 3944 5121 5425 5464
4 3536 4224 4441 4586
4 3540 5517 3539 4236
4 4136 3385 6179 3180
4 4441 3385 3907 4990
4 2697 3056 3482 3908
4 4088 6124 1855 1856
4 4088 4089 6124 1856
4 6124 6099 5264 1855
4 6124 5608 6099 1864
4 6124 4354 3612 4089
4 4354 4027 6124 5264
4 5189 3293 5184 3688
4 2825 2824 2822 3964
4 4028 4354 4293 3615
4 2640 2650 2587 3451
4 2823 3740 3735 3371
4 5376 2545 5379 5378
4 5556 5571 6087 5185
4 5571 5556 4493 5185
4 3553 5609 6087 3350
4 5630 1910 6147 1909
4 5630 6147 4499 6334
4 6147 3569 6334 1909
4 3570 1919 2923 5653
4 6147 3569 3570 6334
4 1919 6147 3570 4806
4 4095 3775 3581 4172
4 5647 910 4736 919
4 3272 4736 910 911
4 5647 919 4736 5728
4 4734 4736 3272 911
4 4734 3647 3272 3273
4 4739 4737 4738 5668
4 4739 4598 3120 929
4 3622 3796 2220 2222
4 3231 3362 3496 3902
4 2836 2837 4484 3782
4 3122 3214 5727 3016
4 6002 2614 4801 4874
4 2935 3630 6085 4948
4 4310 4762 4905 4958
4 3015 3641 4875 3017
4 4179 4879 4862 5590
4 4070 4810 3487 6102
4 4810 2522 2044 6102
4 3903 4810 4092 5452
4 4810 2044 2522 2043
4 6311 2522 2043 4810
4 4110 2614 4874 4108
4 4086 6311 5452 4092
4 6311 5452 4092 4810
4 2784 6217 3130 5070
4 2712 2753 2733 3530
4 2239 1550 3130 1559
4 6217 3130 5139 1568
4 2952 4196 3338 4198
4 5896 2895 5077 3996
4 3748 4007 2784 2783
4 1530 3088 1539 1531
4 6217 3130 5070 5139
4 5410 1548 5087 5411
4 2755 1541 2239 1540
4 2732 2733 3621 3530
4 3167 4766 6181 2955
4 2926 3880 5460 3882
4 2885 2888 5791 2442
4 2782 5360 5441 5397
4 5129 5132 4798 5128
4 2780 4274 5242 4104
4 2884 2888 2898 2889
4 6018 5191 2445 4869
4 2876 2875 3870 3387
4 5787 6236 6254 6252
4 5131 5130 1621 1620
4 2888 2897 5791 3386
4 2426 2565 2415 2687
4 5263 3300 3298 5609
4 5323 4600 5748 4504
4 5413 5781 4694 4676
4 5548 1324 4578 5412
4 5609 5263 3553 5262
4 3350 6090 6068 6272
4 2418 2414 2567 2420
4 3460 6002 2614 4801
4 3341 3344 3147 3342
4 2300 3188 2391 2936
4 2985 5143 2981 2477
4 3135 4985 3134 3535
4 2588 2593 3236 2463
4 6176 3490 5884 5777
4 5337 5902 4406 5447
4 5361 5337 4511 5446
4 2641 2587 2650 2644
4 5361 5902 5337 5447
4 3399 3742 3397 3398
4 1467 4109 1468 4108
4 5443 5123 5422 5436
4 5443 5422 5123 5419
4 5123 5422 5436 3400
4 3420 3425 3473 3421
4 4498 2332 2922 2921
4 5525 6154 6145 6135
4 6145 5525 6133 5603
4 4498 6289 2921 2922
4 3933 6136 2731 6135
4 6059 2921 6150 2922
4 2921 6150 2922 6289
4 6302 6032 5501 5457
4 6302 3659 3810 6168
4 6302 5688 5711 5459
4 5900 6032 4989 4972
4 6032 5501 5478 4972
4 6302 5711 6031 5457
4 6031 5479 6032 5457
4 6302 5457 6031 6032
4 6032 4989 4972 5478
4 2372 4529 5914 3734
4 3671 5891 3071 4530
4 4528 4530 3069 5913
4 4387 4530 4529 5407
4 4528 6307 4530 5297
4 3878 4213 4200 5234
4 6290 2124 4000 2125
4 5971 5231 5897 5187
4 5234 4202 2115 5207
4 4000 5209 5208 6290
4 3357 6338 3355 3921
4 3923 6338 6165 3921
4 4084 3357 6338 3355
4 6186 5150 5696 6173
4 5779 990 6155 5794
4 5027 5779 6155 4922
4 3819 5075 6155 5011
4 5075 3574 6155 5076
4 6155 3574 4922 5076
4 3564 5027 4446 5810
4 3564 5027 5810 5809
4 4930 4987 540 2291
4 4511 3472 5311 3421
4 4511 5311 3472 4209
4 4511 4448 5446 4209
4 3712 4511 5337 5310
4 3435 3952 3431 5108
4 3469 3799 3258 3470
4 5436 5902 4453 5421
4 3471 4511 3473 3472
4 3890 5108 5512 5115
4 3111 2242 5040 5178
4 5405 5321 2881 5344
4 3112 5196 5321 5023
4 3998 3856 3332 3854
4 5210 2881 5321 5322
4 5210 2881 5322 5211
4 2290 2542 2881 2540
4 4170 5040 5173 639
4 3378 3099 4917 4817
4 5632 3123 4778 4733
4 3792 4816 4840 5701
4 3792 3124 4917 4784
4 4917 4760 3123 3580
4 2776 2875 2870 4915
4 4292 4104 5316 4107
4 5242 5752 5155 5278
4 2781 4274 5752 5242
4 5753 5752 4274 6232
4 2781 4274 5753 5752
4 4104 4915 2780 5244
4 2781 5585 5752 5751
4 5105 4358 5190 1647
4 4358 4357 6011 3386
4 3487 4810 2044 6102
4 5837 2044 3487 2045
4 4807 4484 5453 3903
4 5837 3487 3498 6205
4 4044 1810 3826 1809
4 1810 6074 6335 1819
4 4044 3826 5463 1809
4 4632 1819 3826 6335
4 4631 5496 3826 1818
4 3826 5496 5463 1818
4 2516 2905 2518 3990
4 4474 4279 4291 2520
4 2517 4279 4291 4289
4 4932 3510 5702 4931
4 5652 5305 4291 2519
4 5652 865 3483 4291
4 3483 2519 4291 4289
4 4699 4700 857 3105
4 4088 5292 1855 5264
4 5266 5292 4088 5264
4 4088 6124 5264 1855
4 5268 5266 3909 6277
4 6092 5268 4088 5263
4 3449 4072 1199 3720
4 4755 4072 1198 1199
4 4755 3410 5065 3745
4 2690 3412 3413 3414
4 4755 5065 5066 1190
4 2640 5051 3139 4078
4 3139 5686 6344 6043
4 2642 5261 4631 5595
4 4214 4216 6344 5562
4 4861 478 4255 469
4 4821 4175 4255 469
4 5588 4246 478 4894
4 3006 4894 5588 5589
4 3006 5588 4246 4698
4 4821 468 4255 4774
4 5587 4774 4255 4698
4 4335 5690 6014 955
4 3133 946 4335 955
4 4335 5690 956 5151
4 5151 3125 3126 4335
4 3120 938 5152 947
4 5716 946 3120 3133
4 3432 4461 3429 3427
4 3600 3431 3436 5512
4 3430 3889 3437 4478
4 5512 4459 4457 4395
4 5416 5766 5765 6045
4 3937 6069 4929 5673
4 3391 3512 3799 3439
4 3972 6268 4567 6266
4 4567 6264 3973 6266
4 3969 3890 3600 5512
4 3434 3601 4878 3889
4 3969 3973 5115 3974
4 4433 3001 3013 5341
4 3941 3942 6073 3757
4 3324 4841 2502 3009
4 2503 5341 2740 5340
4 4716 3750 6075 5340
4 4716 2740 6336 5341
4 2420 5398 3752 3750
4 4704 4584 4616 405
4 4558 3827 2354 3739
4 4715 2322 4667 3766
4 3827 4585 4543 2311
4 2355 3401 3548 5964
4 5574 5313 4744 5312
4 3738 2356 2357 3083
4 4584 414 3829 405
4 3736 2825 3737 2824
4 2360 3370 3740 3369
4 3401 5573 5657 5964
4 1451 4874 4110 4117
4 5573 6094 5575 4745
4 5573 5657 5964 6094
4 4584 4543 406 4790
4 4584 406 4543 415
4 4704 4584 3827 4616
4 4584 415 4585 414
4 4584 3827 4616 3829
4 3110 3766 5396 3764
4 2766 2902 2903 4957
4 5629 5705 4491 5631
4 3369 6103 3684 5274
4 5525 5603 6059 2921
4 2676 2680 2697 2682
4 4957 5380 6115 5552
4 4537 4414 3828 4543
4 5587 4255 4821 4175
4 6089 4063 4145 4282
4 2801 5200 4679 5202
4 5961 6151 4234 6144
4 4827 5961 4828 2731
4 2729 3364 2616 2728
4 4827 5961 4234 4828
4 6137 6135 2731 4969
4 3934 2922 6059 5654
4 3286 3285 3502 4780
4 4291 865 4699 5305
4 4821 469 4796 4175
4 5602 4474 847 856
4 3285 4491 4780 4125
4 3104 4700 3960 3670
4 2653 2658 2656 3187
4 3209 2982 2977 3220
4 4157 4796 460 461
4 4796 4175 5301 4174
4 4821 460 4796 469
4 4157 4796 4174 4176
4 2517 2424 3379 2519
4 4181 3405 5903 2421
4 2493 3484 3321 3381
4 3320 3321 3096 3406
4 2446 3321 2267 3096
4 5705 4491 5631 3502
4 3406 3378 3099 3123
4 4288 3379 3380 4289
4 3378 3376 3099 4817
4 6105 1575 4888 1566
4 2984 4887 6105 4888
4 4887 4196 1567 1558
4 1539 1548 2240 4271
4 4007 2984 4886 4887
4 2784 4007 5410 4196
4 6105 4198 1576 1567
4 3790 3346 3794 3791
4 4862 479 4879 488
4 5587 3094 4821 4774
4 4173 3039 3095 3885
4 5588 477 4246 4698
4 6194 4242 5615 4241
4 2944 2943 3244 2348
4 3778 4954 4950 3780
4 5739 5724 5918 4808
4 2841 4121 2840 3457
4 5724 6194 5100 5614
4 4082 5164 3815 5166
4 5101 4974 5742 4973
4 5490 5069 5054 5017
4 5052 4966 5032 5017
4 5490 5017 5039 5069
4 5018 5488 5033 4994
4 5485 5032 3205 4168
4 3565 3564 5809 3574
4 3819 5011 6155 5809
4 5038 5049 5490 5036
4 5485 5033 5490 5032
4 2949 5665 5666 5818
4 2752 2753 5358 2733
4 3565 5011 5038 3819
4 3819 6155 3574 5809
4 3862 5088 2088 2097
4 5088 6216 3239 6319
4 6319 2080 3859 2089
4 3860 3859 6319 3864
4 3306 4908 612 4348
4 3309 4985 614 4986
4 3306 4348 612 621
4 3307 4985 623 614
4 3304 5086 604 5080
4 2453 2988 2593 2989
4 3307 3306 613 622
4 3304 603 5080 604
4 2958 4213 3128 5160
4 4821 4796 4176 4175
4 3128 3129 2108 4213
4 4213 5160 2117 3128
4 3238 5471 5470 3864
4 4213 5160 2116 2117
4 2483 6211 4233 3128
4 3877 5234 3129 4213
4 2985 1584 5057 6076
4 5104 5357 2351 3838
4 5637 5102 5103 5104
4 3528 3838 3533 3529
4 2725 5091 2755 5820
4 4821 4026 4176 460
4 2292 2293 2294 3523
4 5019 5485 4168 4994
4 3207 2949 3205 5665
4 3200 5357 5103 5828
4 2602 3158 3157 2966
4 5258 5172 5023 658
4 5258 5172 657 5217
4 5210 5321 5258 667
4 5295 666 5258 667
4 5295 5258 5751 5321
4 4627 5367 5342 4634
4 4627 5998 5342 4203
4 2929 3486 5998 4257
4 5938 5932 4849 5907
4 3073 3769 3733 2286
4 4257 5371 4848 6347
4 5998 4257 5940 5371
4 3952 4016 4032 4017
4 3952 4032 4016 3431
4 3469 3434 3435 3599
4 3431 4032 4475 4459
4 4017 737 4018 4016
4 4017 4032 4428 4079
4 4031 4407 4411 6260
4 3467 2971 3599 3468
4 3429 4475 4032 4079
4 4032 4079 4475 4080
4 5365 5416 5766 5765
4 6045 4373 4119 6054
4 3219 3038 2448 3567
4 3077 3078 3075 2354
4 4208 4878 5926 4472
4 6045 4011 6055 6035
4 6045 4011 6035 5972
4 4567 6268 5417 4426
4 4775 4578 5529 5412
4 4694 5413 4775 4192
4 5529 4676 4694 1334
4 4696 1333 5529 5530
4 4696 1324 5529 1333
4 5529 4578 1324 5412
4 5266 5268 5263 4088
4 5266 4027 4029 5264
4 5268 4088 1847 6092
4 2470 3024 2303 3056
4 5268 1847 4088 1846
4 5294 1846 5292 1845
4 3285 4491 3502 4780
4 4700 3048 2486 3104
4 3963 3967 5669 3327
4 2496 2699 2677 4207
4 3848 3605 3845 4101
4 3846 2379 3019 4124
4 3110 3765 3764 5396
4 2517 2514 3770 4231
4 4474 2518 3323 4278
4 2512 4895 4651 5142
4 2743 3270 3999 901
4 2409 2410 4062 2412
4 4651 4579 4580 4652
4 4752 4546 4415 3770
4 4752 3770 4652 4651
4 3301 3220 3503 3103
4 866 5652 5305 865
4 3101 3960 3959 3104
4 5667 6148 6292 1954
4 5667 1954 5676 1963
4 4896 1963 5676 1964
4 3934 2918 5654 5653
4 4896 4989 1973 1964
4 5900 4989 2736 4972
4 2485 2486 2487 5652
4 2729 2736 2730 2738
4 2736 4926 6097 5676
4 3213 3348 2860 3267
4 5716 936 4936 4876
4 5716 4876 927 936
4 5710 919 5728 928
4 3314 3017 3014 3016
4 3790 3098 3119 3124
4 5647 919 5710 918
4 3315 3639 3638 4936
4 3229 3357 3356 3921
4 4808 4070 3487 3498
4 3800 3457 4988 3592
4 3125 3355 3359 5151
4 4091 5166 2016 5452
4 3812 2008 3813 2017
4 3815 4988 3814 3924
4 4084 4085 6304 6305
4 4640 5396 4837 3765
4 2632 3173 2633 3231
4 5027 1001 5810 1000
4 5810 1001 5805 1010
4 4444 5810 4446 5805
4 5027 5810 1001 4446
4 3564 6155 5027 5809
4 5809 4122 1009 5810
4 4450 1010 5799 1019
4 4518 5636 4514 5634
4 3154 4482 5428 4481
4 5634 5165 4482 5635
4 2254 4670 2759 4669
4 5634 2524 2525 5636
4 3157 2893 4713 5162
4 3714 4482 6030 5428
4 5471 5228 5813 6216
4 5835 1063 5839 5890
4 5835 1054 5839 1063
4 5856 5839 1054 1055
4 4150 5896 5839 5890
4 5839 1055 5841 5643
4 4150 5839 5841 5643
4 5300 3113 5217 5172
4 5173 5300 647 648
4 5173 4284 638 5300
4 5040 649 5172 648
4 5041 5040 4686 4170
4 3979 4421 4394 4422
4 3111 5178 5040 5173
4 3725 3705 5944 5924
4 4837 1397 5396 5395
4 5931 5938 4846 5907
4 5816 4022 5959 3743
4 5816 3743 5824 5343
4 3411 3248 3743 3410
4 3411 3410 3745 5065
4 5350 5351 4847 5957
4 4021 5960 5959 5404
4 3704 3724 3705 3721
4 2659 3913 3760 3914
4 3151 3914 3760 4726
4 3762 2660 4143 1108
4 3760 3151 5842 5531
4 2276 2541 3276 2537
4 4727 5842 4505 5889
4 5936 5842 3760 4726
4 2672 5908 2879 2878
4 2879 5296 4161 3654
4 2880 2881 5211 5296
4 5895 2879 5908 2878
4 2879 2882 4161 5907
4 5197 5895 2879 5265
4 5895 2879 5907 5908
4 5222 4290 3284 3701
4 3412 3724 5973 5068
4 4072 3409 4755 3444
4 5222 3284 3221 3701
4 5222 3726 3900 2572
4 4036 3221 3332 3223
4 4036 3855 3332 2179
4 3449 4359 3446 3720
4 2244 3759 3979 5531
4 2959 2958 2964 3515
4 3762 5840 1099 5845
4 2914 2550 2927 2926
4 4591 6129 5793 6243
4 4591 6337 3067 5627
4 3070 3074 3071 3671
4 3733 3916 3734 4924
4 3913 3915 3916 5845
4 2926 2889 3882 5190
4 2443 2444 2445 2898
4 2443 2445 2669 6005
4 3881 2927 3880 4798
4 2444 3882 2898 2889
4 2445 6005 6329 2669
4 2445 4872 6249 6329
4 5765 6057 6041 5764
4 5416 5765 3939 6045
4 4839 4302 4419 4401
4 6057 6041 5389 4835
4 5366 4443 6057 4417
4 5366 4303 4442 4066
4 3524 4836 5762 4035
4 3935 5525 2919 2920
4 5498 6052 5398 4731
4 5399 3551 5500 4133
4 3254 3933 5520 3896
4 6074 6335 4632 3333
4 5533 3751 5398 6062
4 4731 5398 3751 5400
4 3752 3353 5499 5500
4 3551 5500 3752 5498
4 5533 4540 3554 3750
4 4624 5781 5788 6095
4 5748 5287 4353 4600
4 4192 4218 5529 4694
4 4624 4625 4574 6095
4 4723 4574 4603 4722
4 4723 4605 4722 4603
4 3401 3738 5657 5573
4 3735 4750 3737 5598
4 2355 5573 3832 3738
4 3401 3738 5601 5657
4 6283 2920 2332 2921
4 4498 5624 6283 6289
4 4498 2921 6289 6283
4 2320 2319 4496 5202
4 2319 2920 2332 6283
4 3934 6114 2734 5916
4 4970 4984 5730 5672
4 4643 6284 3408 5703
4 3623 3625 3627 3624
4 3257 4970 3627 5721
4 6171 4819 1972 1981
4 4896 6171 1972 1973
4 6171 4819 1981 4820
4 4896 5479 6171 1973
4 6171 5735 1982 5479
4 4515 4481 5805 4517
4 4516 4193 4945 4521
4 3748 4008 3747 4010
4 6101 6205 3498 4808
4 4767 4199 5000 6203
4 4057 4826 4060 5593
4 6105 4887 1566 4888
4 2985 6076 6105 1584
4 4009 5087 4007 4008
4 6105 4887 1567 1566
4 4007 2953 2984 4196
4 2775 2952 2984 2953
4 6217 4196 1558 1567
4 2784 6217 5070 4196
4 4197 1567 6217 1568
4 3713 4445 3500 5483
4 2753 5358 2733 5828
4 2557 2556 2560 3980
4 2733 5828 5358 5827
4 2752 2962 3980 5358
4 2733 5827 3621 3530
4 4670 5162 3157 4713
4 3302 3310 3303 3308
4 3339 3342 5920 5114
4 3339 3342 5114 5849
4 3534 3621 3660 3530
4 4686 2591 4689 5178
4 3543 6234 5984 5320
4 5456 6226 3237 2973
4 3583 3887 5864 5178
4 3542 3887 3114 3113
4 5921 4273 5181 5204
4 5183 5767 5768 5186
4 6234 5183 5767 5768
4 6234 5183 5768 5993
4 5280 5990 4634 5342
4 5367 5342 4634 5368
4 3764 3765 3927 4337
4 4835 4839 3588 5389
4 5366 5389 4839 4835
4 4837 1405 4838 4337
4 5765 6041 4835 4463
4 3525 3588 3526 4463
4 4839 5366 4836 4442
4 5259 6039 3758 5454
4 5259 5260 3942 5492
4 4337 4639 6125 3926
4 5302 5454 5506 5122
4 5122 6258 5121 5434
4 4721 4723 4626 4605
4 5669 4630 3965 4626
4 3964 3965 4799 3737
4 4799 4629 4721 4648
4 4721 4629 3737 4693
4 5877 4723 4722 5583
4 3965 4799 4721 4649
4 3889 3437 4478 5370
4 4138 4471 4136 3906
4 3456 4037 3957 4562
4 4471 6298 4437 4067
4 2788 4703 2789 5223
4 3602 3128 2483 4233
4 2451 2988 2951 3337
4 4769 6175 4120 1525
4 5143 5898 5057 2990
4 3129 3862 2098 5234
4 3860 3566 3877 3129
4 3568 2979 6109 3624
4 3168 5880 3625 3624
4 2979 3569 6109 4804
4 2982 2979 3220 6334
4 3220 3569 2979 4804
4 5670 3297 5693 6109
4 3101 4232 3959 3961
4 6148 1945 6292 1954
4 6292 6113 1945 5672
4 6292 6113 5916 1946
4 5667 6292 5676 1954
4 5726 6287 1972 4819
4 5667 6292 4926 5676
4 3893 6275 5545 6195
4 3664 3893 6275 5545
4 3893 6175 6184 5855
4 3893 6275 6195 5855
4 4971 1522 5820 1531
4 2348 3723 3803 3244
4 3497 4058 5493 5582
4 6184 5007 5855 3850
4 6184 6175 6185 4967
4 2892 5874 5431 1036
4 5433 1037 5431 1036
4 2892 6313 5431 5874
4 4769 5855 3850 4120
4 4151 4237 5431 5432
4 5856 4237 5841 1046
4 5856 1046 5431 4237
4 6206 2063 6276 2062
4 6276 2062 5830 5831
4 6276 5593 2063 5626
4 4060 6276 5626 5593
4 6276 5830 2071 5909
4 6101 5216 4058 6205
4 4826 6276 4060 5593
4 5692 3692 5257 5905
4 5212 3566 5168 3693
4 3691 3693 2483 2481
4 2950 2211 2775 2951
4 3693 2483 6211 3691
4 5592 5620 4008 5905
4 5692 5806 3691 3649
4 4000 5208 5891 6290
4 4697 2917 4798 5128
4 3073 3074 3514 2548
4 2552 5795 4591 5793
4 3167 6181 6129 6153
4 4001 6244 5892 5208
4 3151 2245 5531 3760
4 6153 5627 5892 6318
4 4398 3750 4540 6075
4 2722 3554 3545 3333
4 4398 4716 6075 3333
4 2307 2317 3057 2316
4 5485 5665 5052 5490
4 5052 5490 5017 5032
4 5052 5081 3208 3204
4 5052 5490 5054 5017
4 5052 5665 5049 5490
4 3808 3245 3775 3776
4 4801 2614 2611 6151
4 4093 5955 4116 4918
4 4874 4110 4117 2614
4 3801 5955 4933 4114
4 3636 3632 3118 3117
4 4361 4366 4891 4362
4 6299 4889 5047 5394
4 2388 2612 2387 2615
4 3508 3509 4313 3510
4 3571 6196 3789 3834
4 3240 3212 3723 3241
4 5900 5883 3658 3591
4 3776 3834 3789 6196
4 3119 5650 4917 3099
4 3790 3793 3792 3791
4 3119 3099 4811 5650
4 3097 3119 4811 4867
4 2446 3320 3096 2448
4 3016 4876 5710 6077
4 4462 3098 3096 3347
4 3216 3217 3557 2430
4 4294 4492 3612 4146
4 3680 5377 3685 3687
4 3680 3682 3681 3689
4 4955 4742 4306 5381
4 3680 2901 3684 3278
4 4199 5742 6203 4767
4 6333 6310 6309 5968
4 3664 6275 3663 2813
4 4786 5802 4252 4560
4 5745 3090 4786 5744
4 3778 5742 4059 4950
4 4769 5855 4771 3850
4 3603 5584 821 820
4 2379 4020 4124 4019
4 3677 3845 5605 4101
4 4062 2902 4955 4063
4 2908 3604 4101 5578
4 3604 5578 839 4101
4 3605 3847 3603 3848
4 4920 3834 6295 6196
4 3834 3571 4920 4244
4 6196 3571 4920 3834
4 4251 4244 4252 6342
4 4240 4251 4249 4244
4 4244 4252 6342 4560
4 3711 3710 5119 5124
4 4031 5108 3952 4018
4 3953 3798 4018 3952
4 5707 5637 5104 5102
4 3478 2352 5707 4126
4 5019 5707 4163 5102
4 5019 5637 5707 5102
4 2608 3202 5019 3205
4 3479 3819 2352 5019
4 5707 3478 5104 2351
4 5665 3819 5485 3205
4 5680 5486 4978 4983
4 5313 4690 4749 4744
4 5976 4803 4749 4690
4 5313 2310 4038 4744
4 4594 4720 4595 4038
4 2312 2309 2310 4705
4 3080 3078 3828 2354
4 6326 3948 6142 4776
4 4769 2815 5855 6275
4 5519 4788 4761 4595
4 2815 2813 2857 3663
4 2816 4960 2815 2858
4 2815 2814 2813 6275
4 4769 6195 6275 5855
4 4769 6275 6195 2814
4 3660 3146 3534 4350
4 3131 2829 3159 3132
4 3147 4999 3145 4167
4 3147 3145 4999 5112
4 3159 2256 2257 1562
4 3146 3621 4187 3660
4 3344 4167 3146 4908
4 4769 2814 2815 6275
4 4818 474 4873 4791
4 3948 5712 4818 3947
4 4818 5712 466 3947
4 4627 3486 4634 5998
4 3445 3616 3444 4072
4 3445 4072 5352 4073
4 2871 2870 3387 5355
4 3449 3446 3447 3720
4 3868 3486 4781 4633
4 2980 3295 3297 3624
4 3296 3297 5677 3561
4 3296 3561 3959 3297
4 6208 5664 3866 3296
4 4789 3962 3959 3831
4 3296 3104 5656 3670
4 3297 3624 6214 6109
4 3295 3297 6214 5693
4 4769 2814 6195 1534
4 3450 2668 6250 2671
4 3450 3365 3417 2885
4 2443 3450 2671 2668
4 2443 6005 2191 2190
4 3450 6250 2668 2533
4 3450 2896 6007 2533
4 3331 3383 3450 3396
4 3383 2190 2671 2199
4 4900 2905 837 838
4 2896 3450 3396 2886
4 4699 3105 3572 4700
4 5602 3572 4699 3105
4 2520 5305 2519 4291
4 2907 3046 2906 2908
4 2520 4474 4699 4291
4 5602 5578 848 847
4 6089 4147 1883 1874
4 6089 4063 4147 4145
4 4285 4282 4145 5608
4 3612 6124 4146 4145
4 4354 5264 6124 5608
4 6103 1360 5274 4702
4 4062 4280 4125 4124
4 3486 4633 4183 4781
4 3165 2917 2969 2554
4 4304 5335 4292 5289
4 4186 5371 3253 4127
4 3248 3410 3443 3743
4 4756 4072 3616 4071
4 3486 4634 4183 4633
4 4743 3323 4895 4682
4 4064 6042 6344 6043
4 3758 6039 6042 5454
4 5117 5454 3758 5451
4 3426 3711 3758 3753
4 5317 4433 5319 2503
4 3294 3300 3334 2722
4 3420 3711 3424 3709
4 3756 4451 6344 4215
4 5686 4214 6344 5541
4 3362 5690 3359 3360
4 3873 974 3872 4259
4 3872 3362 5690 4906
4 5690 3872 3360 3362
4 3875 3361 3871 3872
4 3713 3500 3577 3497
4 3873 4919 982 5780
4 3171 3210 3212 2809
4 3930 4931 524 523
4 4959 4953 522 531
4 2906 4900 838 2905
4 3718 4930 4959 3930
4 4923 3510 5796 4937
4 3953 4448 5446 4511
4 3472 4448 3957 3951
4 4704 4041 4043 4616
4 3427 3429 3432 3431
4 3798 5361 4508 5902
4 5115 5515 3974 3825
4 4478 4512 3437 4149
4 4512 3437 4149 4458
4 4512 4149 4477 326
4 4512 4472 316 5926
4 4512 5926 4487 6331
4 3003 3988 4841 3009
4 2419 2418 4716 3750
4 4296 3751 4054 5400
4 2419 4716 5339 5341
4 3984 3555 3556 5817
4 2420 3751 5398 3750
4 4296 4054 4317 4322
4 4296 3751 6071 4317
4 3107 4142 3738 3083
4 3738 4745 3083 4142
4 3738 5573 4745 5657
4 5312 2312 4995 2310
4 3833 3832 3738 3083
4 5312 2310 4744 4705
4 4306 3611 4492 3612
4 5573 3401 2355 5964
4 5808 4795 6033 6170
4 4619 4081 379 6170
4 4565 4619 388 379
4 4619 4081 4658 380
4 6033 4683 4619 4658
4 4619 4659 5536 388
4 4619 4659 4683 4535
4 4565 379 4653 6170
4 4565 4619 6170 5536
4 4565 4653 378 4650
4 4040 387 4565 388
4 4565 387 4042 378
4 3549 4565 4042 4650
4 5808 3549 5055 5536
4 5602 856 4699 4474
4 5602 5578 3046 5579
4 847 838 4474 5578
4 3046 5579 2908 3050
4 5602 4474 3035 5578
4 2408 2382 3019 2909
4 3604 4101 839 830
4 2735 3933 2731 2734
4 2616 5961 3018 2613
4 2612 4883 3653 2613
4 3261 6149 5682 4984
4 4970 4926 5672 5721
4 4926 6292 6097 5676
4 2422 2527 2485 2424
4 2656 3991 3290 3992
4 3049 3050 2909 3287
4 3765 5396 4837 4337
4 4680 2510 2511 4743
4 2976 3297 3301 2979
4 3301 4804 3220 2979
4 4263 3502 3220 5631
4 3220 2979 3569 6334
4 5670 3297 3959 3561
4 4789 877 5656 3962
4 2976 3296 3959 3297
4 3959 3104 3960 5656
4 3959 3579 3831 3962
4 5618 4645 4765 4709
4 3406 3378 4778 3381
4 3406 3484 3099 3378
4 4719 4751 6284 433
4 4751 3405 6284 5703
4 3405 6284 3289 4719
4 2423 5903 4778 3405
4 5390 4231 5903 5979
4 6299 4918 4093 4911
4 3873 5804 3842 5780
4 3871 4919 3873 5780
4 3873 983 4259 5804
4 4240 3476 2941 4244
4 4240 4251 4243 4249
4 4251 6295 4244 6342
4 4940 4243 4251 1503
4 4920 1494 4249 1485
4 4920 1495 5008 6295
4 6193 1495 4251 6295
4 4940 1503 4251 1504
4 4704 3827 4790 4041
4 3127 5021 5212 5168
4 5021 5022 2092 6224
4 4704 406 4584 405
4 5021 5169 2101 5232
4 5021 5232 5022 3649
4 5692 5021 6224 5022
4 5067 3204 3199 3208
4 2949 5052 3205 5665
4 3565 5666 5665 5010
4 4704 406 4695 4790
4 3200 5358 5084 3196
4 5019 4168 3202 5102
4 5018 4994 5019 5488
4 2608 5019 3202 5637
4 5433 5874 5090 1036
4 2892 1035 5090 1036
4 2946 5757 2893 5090
4 2892 5090 1035 2894
4 4122 5090 1026 1027
4 4122 5666 1017 1026
4 5757 5433 5874 5090
4 4450 5429 1019 5799
4 4515 5805 4481 3154
4 2946 1026 4122 5090
4 4501 6012 5349 5246
4 3303 3305 3344 4908
4 3134 4985 3309 4986
4 4170 631 4687 5041
4 4687 3306 622 631
4 4200 2116 4213 5160
4 5234 2107 4213 2116
4 2583 6280 2585 5128
4 4704 4695 397 6119
4 3236 2987 5923 4049
4 2557 2732 3980 3308
4 2098 5234 2107 3129
4 5799 4444 3154 5805
4 5420 3576 3883 3842
4 3713 2524 3851 5634
4 4515 5120 5483 4946
4 5780 4446 3883 4922
4 4704 4040 6119 397
4 4895 4580 4651 4579
4 5782 5797 6306 5771
4 5842 5888 5893 5235
4 5842 6012 4507 5192
4 2279 2275 2772 2915
4 5512 4395 5515 4459
4 5515 3974 3825 3824
4 5972 4012 4439 4014
4 4012 4014 3936 3708
4 5480 3516 3518 4454
4 6262 4013 4014 4012
4 4015 5505 4013 4014
4 6262 4013 4012 5480
4 4299 5480 3985 3987
4 4571 1822 6270 6056
4 4571 1831 6270 1822
4 1823 5534 6056 4571
4 3990 2512 4895 4651
4 4570 6227 4571 4132
4 6227 4571 5534 1823
4 4571 4572 6270 1831
4 4570 6067 4571 4572
4 5184 5511 5609 3293
4 3299 3351 5548 5511
4 3545 3350 6068 3353
4 2724 3350 3353 3352
4 5201 4500 5202 2320
4 4491 3502 4780 4779
4 2324 2982 4499 3168
4 5705 3220 3502 5631
4 4741 5581 4740 4779
4 4285 1873 4281 1872
4 6089 4281 1873 1882
4 4277 4281 4285 4282
4 6089 4282 4281 4280
4 4277 4285 4286 4019
4 4281 4286 1881 5569
4 4277 4125 4280 4124
4 5647 910 3271 3273
4 5647 5641 3271 909
4 5647 4736 910 3273
4 5647 5728 4736 3273
4 5647 5710 919 5728
4 5647 5710 4901 918
4 3261 5699 3645 6149
4 3261 5672 6148 4984
4 4925 5667 3363 4897
4 3279 2854 2850 3121
4 2729 2728 4827 2731
4 3627 5730 4970 4984
4 4970 5721 5672 5730
4 5667 5672 4970 4926
4 5667 3363 5676 4926
4 5682 6149 3645 5708
4 6330 5675 5677 5694
4 3295 3296 6330 3866
4 3867 3865 3866 4341
4 6330 5675 5681 6208
4 4577 6330 3295 5695
4 4577 4984 5682 6149
4 4341 3867 6158 5682
4 4091 5166 3815 3812
4 3815 4988 3924 3229
4 3357 6165 3921 3924
4 3357 6165 6338 3921
4 4091 4086 5166 5452
4 3508 3930 3242 4931
4 6030 4482 5814 5635
4 6030 5635 4518 4482
4 3714 4482 5848 5814
4 3714 5814 6030 4482
4 5433 1036 5431 5874
4 5433 5432 5431 1037
4 5433 1036 5090 1027
4 4450 5429 1028 1019
4 2663 5904 4396 3760
4 5309 5195 6332 4421
4 6324 6012 4396 5348
4 2404 2408 2652 2411
4 5893 6012 5904 5531
4 3732 4505 5842 4507
4 5025 650 5239 659
4 6332 5307 5245 5546
4 5057 1585 5897 1594
4 5897 6222 1585 2990
4 2989 6222 5897 2990
4 5897 1594 6228 5898
4 5971 5897 5231 6228
4 5971 5897 6228 5898
4 3762 4143 1107 1108
4 3721 6328 3698 3722
4 3248 3443 2929 3252
4 4022 5875 5959 3743
4 5948 5875 5941 4846
4 5811 5875 5959 5950
4 3706 3696 5952 5282
4 3411 5066 3744 3725
4 5289 5155 675 674
4 5289 5316 5278 674
4 5289 5242 5278 5316
4 5295 5288 5155 675
4 5288 3655 5344 2540
4 5951 5372 1177 4258
4 5951 4076 1167 5956
4 5951 1176 5372 5956
4 5951 1168 4076 5943
4 4895 3323 4651 4580
4 3251 4258 4257 5372
4 4743 4895 3323 4651
4 3191 4143 1117 1116
4 3250 4846 2667 4581
4 5975 1124 4846 5931
4 5580 5516 819 4711
4 1124 4846 5938 5941
4 4927 5975 4846 5908
4 5975 5931 5908 5495
4 5329 1107 1098 5912
4 2542 5344 2881 2540
4 3769 3914 2245 2236
4 2290 2542 5405 2881
4 5405 5196 2881 5321
4 6018 5787 4872 2445
4 3620 1622 2973 1631
4 4425 3112 5196 5405
4 6234 3237 3543 5767
4 2891 5790 2887 3365
4 3879 6252 5790 5795
4 5787 2445 6254 4872
4 5787 6005 2445 5790
4 5929 6252 5787 6005
4 6018 2445 4872 4869
4 2444 3882 5190 5191
4 3552 4434 5503 1278
4 2416 5503 3552 4434
4 5503 3555 5504 5817
4 5503 1278 4434 1269
4 4509 1261 6040 1262
4 4642 6040 4509 5505
4 4607 5298 6110 5125
4 5250 5261 4725 5251
4 2680 2470 2474 2472
4 6072 5439 6110 5565
4 3846 4277 4287 4286
4 6072 5526 5540 5527
4 2993 2992 4134 3037
4 2831 3225 2864 3277
4 4610 5435 4019 4144
4 3736 5877 3737 4675
4 4676 5413 4775 4694
4 2865 5530 3293 5412
4 5286 4604 5291 4630
4 4624 4723 5781 6095
4 5781 4723 5583 6095
4 5669 3965 5877 4723
4 4799 4721 4629 3737
4 4799 4721 4649 4648
4 3965 4799 4649 4650
4 5413 3966 4192 4694
4 5877 3965 3737 4721
4 2375 2379 2378 2411
4 2974 4041 3549 4557
4 5964 3548 4672 4648
4 4799 3737 4629 5964
4 3168 3568 3570 5880
4 2489 3104 2976 3296
4 3627 3624 5730 4984
4 5729 4984 6148 5672
4 5729 1944 6148 6149
4 5726 5667 4897 1963
4 5726 5699 1953 1962
4 5667 3771 3261 5726
4 5729 1945 6148 1944
4 5699 5726 6148 3261
4 5667 6292 6148 5672
4 3478 4126 5707 4163
4 3718 4959 4930 4947
4 2608 5637 3202 3200
4 5019 4163 4126 4994
4 4516 5784 5482 4520
4 5784 4520 4516 5785
4 3841 2673 2674 2218
4 3713 3154 4515 4481
4 5482 4092 4810 6311
4 5482 6311 4810 2522
4 5784 4086 6311 5783
4 5917 5453 4484 3811
4 4609 4608 5291 4604
4 3843 5483 3842 4169
4 5782 4516 4946 4945
4 2784 3667 3130 3607
4 4351 3091 4786 3033
4 4609 4608 361 4226
4 4010 3651 5411 4008
4 4052 5000 4057 4061
4 3089 4767 3086 5742
4 3802 4916 6178 4245
4 3774 3776 2942 3834
4 6215 6303 6185 4968
4 4197 4198 1567 1576
4 4197 6217 1567 4196
4 3338 4197 6217 5139
4 4197 1576 6222 4198
4 6217 3338 5070 4196
4 4197 5139 5849 1577
4 3573 2608 5637 5707
4 2609 3575 2347 3491
4 4826 4060 6276 5831
4 3860 2215 3863 3864
4 3238 3864 3239 5471
4 4609 4551 4583 351
4 5591 3861 5138 6218
4 5470 5829 5909 5830
4 3125 4335 5690 6014
4 5716 4936 936 945
4 4762 3642 3133 5716
4 6077 928 5710 5728
4 5727 4738 6077 5728
4 4311 4991 5514 4958
4 4809 3499 3500 5482
4 4310 4903 4905 3637
4 3315 4936 4762 3639
4 3188 3007 2391 5589
4 2227 3015 2860 3213
4 3315 4762 3642 3637
4 5152 3120 947 2853
4 5796 6085 4948 3318
4 4739 3120 928 929
4 4762 954 4958 3639
4 4762 954 3639 945
4 4762 5716 946 945
4 3315 5716 3642 4762
4 3923 6338 6173 6165
4 6339 3944 4364 4130
4 3703 3391 3439 5673
4 4609 352 4226 361
4 3940 3943 3944 5121
4 3524 4035 5762 4034
4 4836 4442 5366 4303
4 4839 3594 4553 3901
4 5765 3527 4835 5366
4 4034 4035 3598 3524
4 3524 3938 4034 5762
4 3939 5972 4463 4642
4 5440 6267 4405 6268
4 5533 6273 4541 3751
4 3751 5400 4296 3556
4 5398 5400 6062 3751
4 6052 5398 5400 6062
4 4841 3751 4541 6071
4 4044 1801 2740 1810
4 2503 2740 1801 1802
4 4044 1810 2740 6335
4 2503 2740 5341 6336
4 2740 6075 1811 5340
4 4478 4477 6078 6331
4 4478 4512 6331 3437
4 4478 4512 4477 6331
4 3905 6078 4477 4495
4 5167 4412 6277 5261
4 3184 4136 3180 3385
4 4609 352 4583 6093
4 3905 4485 4477 4486
4 3430 3438 4478 3437
4 4570 6067 4413 4131
4 2106 3862 5089 5234
4 3862 6319 2088 5088
4 3878 4701 4200 5160
4 4384 3311 4385 3915
4 4390 4389 4388 5646
4 5234 3862 5089 4153
4 3877 2209 2789 3878
4 6108 3608 4702 1369
4 6108 1369 4702 1370
4 6108 1370 4702 5601
4 4837 3926 4838 4239
4 1841 259 4570 6086
4 4570 4571 6227 1832
4 6246 2739 4969 2741
4 2741 2739 2738 4972
4 5603 6154 6145 5525
4 559 3522 5013 4163
4 3665 3893 5855 6275
4 3892 2943 6215 5539
4 3892 6192 6215 6185
4 3033 3090 3032 4786
4 3304 3307 3306 613
4 3309 3304 604 613
4 3304 3306 4908 612
4 5086 3310 3304 3309
4 3304 5080 4187 3310
4 3305 4908 3304 3306
4 5538 5643 6024 5850
4 4154 5089 4703 6202
4 2855 4150 5161 4151
4 6199 5852 5868 6201
4 4390 5646 4388 5644
4 3519 4701 5206 5207
4 4464 3671 3312 5891
4 4347 6280 5651 2956
4 2585 6323 5128 5214
4 5933 5128 4039 5214
4 5933 6182 6325 6245
4 5219 6182 6231 6325
4 2583 2957 4766 2955
4 3165 2955 3167 3166
4 3928 3236 2965 4049
4 2232 2910 2233 2629
4 2781 3542 5751 5752
4 3112 5405 5321 5196
4 2880 4422 5211 5196
4 2552 2548 6129 4591
4 4422 5196 3112 5023
4 5321 3112 3113 5405
4 3111 3583 5178 3887
4 4570 6086 4131 4413
4 5498 5399 3551 5500
4 3752 4571 4132 3353
4 3752 3554 4398 3750
4 3752 6052 5398 5498
4 5533 5499 3752 4132
4 6272 3353 5499 4132
4 3342 3146 3147 3131
4 3131 3345 3342 3146
4 2713 3145 3131 2829
4 3337 2951 2954 2952
4 3146 4167 3145 4152
4 4170 5178 4689 4284
4 3336 3340 3339 3342
4 4570 6227 259 1832
4 3967 6169 4608 4226
4 3967 5286 3327 5291
4 2827 4795 3186 5808
4 2824 5877 3965 3737
4 3965 4721 4799 3737
4 5055 5536 6170 5808
4 3549 4042 4799 4650
4 2314 2722 2724 2308
4 3895 4606 4324 5290
4 3026 4078 3027 3055
4 2647 4078 4214 6104
4 3119 3123 3099 4917
4 3792 3793 3124 4158
4 3119 3792 3790 3124
4 3124 3793 4833 4158
4 4462 3348 5301 3793
4 4462 3124 4794 3123
4 5777 3587 6176 3490
4 2841 2531 3981 3459
4 5882 6187 6188 5773
4 5884 6176 5773 5882
4 3492 3789 3571 3807
4 3458 3982 5917 3811
4 3586 6187 5807 6188
4 3335 3571 3789 3834
4 4240 4241 3780 5473
4 3528 3838 2857 3663
4 3838 3529 5103 5357
4 5126 3373 3031 5522
4 2351 5707 5637 5104
4 2351 3533 3838 5357
4 3033 2749 3032 3090
4 2294 3663 3665 3839
4 3838 5048 5044 5013
4 3422 4323 3712 3754
4 4323 5310 748 5311
4 4005 757 4323 758
4 4005 758 4323 5016
4 3712 5311 4511 5310
4 3423 2649 5687 2646
4 3422 5016 4323 3754
4 6072 5125 4332 5251
4 3160 3031 3910 5561
4 3920 5535 4235 4236
4 4207 5375 6001 5537
4 6345 5540 5554 5555
4 3985 3986 6028 4299
4 3983 1777 6265 4212
4 3984 4296 5401 3556
4 3003 3556 3984 3555
4 3003 3988 3984 4296
4 3822 3002 3987 3226
4 3984 3987 6065 4532
4 5480 4299 4454 3494
4 4610 5298 5435 6110
4 5350 5957 706 5351
4 4847 5351 4077 5957
4 4847 5284 5392 5393
4 5350 4848 4849 5306
4 5331 4847 5350 5351
4 4847 4849 5284 5331
4 4847 4077 4076 5957
4 4838 4881 4239 3559
4 4329 3044 5976 5977
4 4594 5976 6152 4761
4 5519 4594 4761 5976
4 3627 3625 3257 5721
4 3885 4173 3039 4174
4 3897 3559 4881 3896
4 5312 6121 4995 3083
4 5313 4594 5976 4038
4 6187 6172 3810 3586
4 6168 6187 6172 3810
4 3031 5561 5547 3910
4 5882 3586 6188 6187
4 3981 5619 5334 3586
4 3982 3981 5611 5334
4 5765 5764 6041 6034
4 6035 5972 4373 6045
4 6045 6055 3440 4426
4 6045 3440 6055 4011
4 5765 5972 6045 5766
4 5766 6038 4119 6036
4 4939 4345 4344 4998
4 3637 4762 4310 3317
4 4311 4903 4344 4991
4 3875 3871 4997 4919
4 3373 5547 5522 5537
4 4904 4344 4998 3876
4 4904 4345 4344 4991
4 6018 3880 3882 5988
4 6018 3882 5191 5988
4 3879 5790 2891 5795
4 2594 2433 3076 3765
4 2978 3624 3297 2979
4 2918 3168 2923 3625
4 4499 2331 4500 2329
4 4789 3296 5656 3606
4 3296 6208 6330 3866
4 3295 5677 3296 3297
4 2885 2444 2443 2898
4 2668 2442 3978 2443
4 2885 2443 2668 3450
4 2190 3153 2443 6005
4 2471 4025 2697 3908
4 2443 6005 2669 2191
4 3857 4297 2161 6337
4 3857 5981 6337 2161
4 3717 3715 3858 2169
4 3856 4297 3857 6337
4 3856 4297 4056 2170
4 3067 5981 3066 5627
4 3403 4157 3404 3402
4 3403 3404 4157 4782
4 4157 3404 4794 4782
4 4157 3404 4176 4174
4 4157 4796 4794 4174
4 4157 4796 4176 460
4 4157 4026 3402 451
4 2804 3445 3447 2886
4 3368 2887 2551 2804
4 6253 6189 4104 4589
4 2888 2444 2885 2898
4 3733 3734 3195 4924
4 2662 3761 4927 2878
4 2873 2871 3387 3386
4 2873 2876 3387 2875
4 2876 3870 3616 4073
4 3444 4072 4756 4755
4 4929 3703 5029 4365
4 6042 3756 3755 4451
4 5686 6344 4064 5541
4 3056 4412 3908 5167
4 5542 4064 6042 6344
4 3941 4065 6073 4400
4 3030 2644 3056 5261
4 3581 4095 2937 3635
4 4339 3243 3630 3632
4 5798 3584 4894 4893
4 3635 3629 3631 2935
4 6151 2614 2611 2613
4 3463 4093 4117 3462
4 6299 4093 4918 5955
4 4378 4911 3462 4858
4 4093 4117 3462 4911
4 6299 4093 3462 4911
4 6299 5955 4918 5229
4 3891 2291 3665 5001
4 4930 4987 531 540
4 3630 3243 4976 4948
4 3803 6197 3116 4975
4 2943 3835 5539 4560
4 3804 3803 4947 4987
4 5361 5447 5337 5446
4 3473 4511 5361 5337
4 3798 5436 4508 3395
4 3951 3456 3954 3957
4 4016 3955 3956 4448
4 4016 3429 3956 3955
4 4018 728 4460 5447
4 4513 325 4487 6331
4 4556 4513 333 4531
4 4513 325 6078 334
4 4556 333 4513 334
4 5330 6078 4513 6331
4 4929 5029 5673 6069
4 3703 4929 5029 5673
4 3983 3003 3822 3008
4 4365 4363 4929 5028
4 3937 5673 6271 6069
4 3937 3702 6271 4011
4 3829 4616 3832 3827
4 3436 3971 5512 4457
4 2356 3832 5734 3827
4 3833 3832 4100 5573
4 3738 5573 3401 2355
4 4631 1828 4632 5595
4 3030 6340 3029 3027
4 3139 6344 5686 4214
4 2647 5686 6104 4214
4 4631 4632 1828 1819
4 6060 4725 5509 1836
4 6060 1836 5509 1827
4 2645 4631 3826 4632
4 5145 5141 4638 4683
4 4895 4219 4220 4579
4 4895 4220 4680 4682
4 5145 4535 6033 4683
4 3434 3889 4878 3437
4 6121 5625 4995 3083
4 4337 5521 1395 1404
4 4594 4720 2310 4592
4 5313 5976 5977 4749
4 2978 3168 3625 3624
4 2728 5961 4827 2731
4 6125 1414 4805 1413
4 4827 4829 4234 2613
4 5961 2613 6151 3018
4 1432 1423 4234 6144
4 4234 2613 4898 6151
4 4234 4898 4829 1440
4 4234 6151 1441 1432
4 2649 3138 3709 3756
4 5670 3301 3297 6109
4 2976 3301 3959 3104
4 3101 6285 3959 4232
4 2976 3103 3301 3104
4 3623 2978 3169 3625
4 3301 3297 6109 2979
4 4635 5572 5607 3050
4 3407 4778 4763 3405
4 4778 4763 3405 4180
4 2933 3630 3631 3585
4 5042 4247 4246 4248
4 3635 5955 4095 4093
4 5042 5394 5047 4863
4 4247 3006 5043 5042
4 3938 2685 3601 3970
4 5955 4093 3635 4094
4 3461 5394 3631 4094
4 6299 4891 4094 5955
4 4818 4378 4873 5712
4 3000 3767 3590 3259
4 4920 5008 1486 6196
4 4920 4251 4249 1494
4 4251 4244 4920 4249
4 3571 5346 4920 5345
4 4920 5346 1485 5345
4 3780 5473 4241 5724
4 2624 3032 3779 2939
4 6190 4252 4241 4954
4 6190 4950 4974 5742
4 4921 3006 5588 5589
4 2366 2365 3642 3122
4 2729 2615 3366 4827
4 5143 5057 6225 6076
4 5057 2990 1585 1584
4 1584 1576 6105 2985
4 2952 2985 2984 4198
4 5143 5252 5057 5898
4 5057 5897 1585 2990
4 5057 5252 1594 5898
4 2912 3958 5844 3993
4 2912 3993 5844 2913
4 2479 2482 5004 4233
4 5233 5923 6134 3619
4 4423 3979 3732 2243
4 2630 3519 4000 5891
4 5891 4464 3671 4001
4 4384 3916 3311 3915
4 2787 5538 4703 4389
4 5538 4389 6200 4703
4 4150 4151 6024 5841
4 4000 5891 5208 4001
4 3877 3862 3129 5234
4 5493 6206 5449 5831
4 2524 2523 3851 2525
4 3499 3498 5582 6102
4 4034 4878 3970 3601
4 2597 5420 3576 3491
4 5430 3155 4669 5428
4 4767 6333 5000 4061
4 4505 5890 5871 5836
4 4727 5842 5936 4726
4 6324 4501 6013 6012
4 3995 3994 3674 3993
4 3151 5842 4727 4726
4 4156 5890 3675 5469
4 2764 4425 5196 4394
4 3343 3325 4348 3344
4 3995 3996 3994 5364
4 3386 6019 5356 3387
4 6011 3386 6019 5356
4 3388 5271 3870 2876
4 3388 3387 3870 4184
4 4208 3938 5762 4034
4 3179 6179 4137 5477
4 5523 5477 783 792
4 3182 5547 3373 5537
4 2510 3540 5517 3539
4 3452 4576 774 783
4 2375 2384 2380 2379
4 2426 2396 2565 2394
4 5523 3053 5535 793
4 3053 785 3055 3910
4 3456 3472 4209 3957
4 4004 4209 5311 757
4 4004 765 3455 4209
4 3455 4209 765 3957
4 3185 3177 4137 3454
4 5547 5537 5535 802
4 5535 802 4235 801
4 5535 801 4235 4236
4 3920 4235 5535 5537
4 3020 3056 3024 2682
4 2650 3030 3027 4078
4 2974 3186 3187 4557
4 3290 3991 4558 3992
4 2801 2803 5200 5380
4 4955 4306 4742 4147
4 2903 2902 3685 4957
4 2658 2656 2514 2515
4 3763 4679 2803 4715
4 2903 4957 3685 3683
4 2803 4679 6118 4715
4 4955 4306 4957 5380
4 3291 4643 3322 3408
4 5390 4753 4415 5979
4 2440 3174 3255 2330
4 4878 4034 5926 5370
4 4752 4148 5594 4729
4 4494 4542 4414 4724
4 3289 3828 4543 4718
4 4264 3402 451 442
4 5313 2310 3044 4594
4 6284 3289 4719 4718
4 2361 2369 2374 2366
4 6107 6108 1369 3608
4 3290 3288 4494 2521
4 5390 2421 4181 5903
4 5618 4231 3381 4288
4 5618 5648 5979 4288
4 5618 5903 5979 4753
4 5667 4926 6292 5672
4 5667 1963 5676 4897
4 3261 5726 6148 5667
4 4925 5667 4926 3363
4 3094 4176 4026 3402
4 4783 5518 3094 4788
4 3926 4337 4639 3927
4 3897 2728 3367 3563
4 3004 5587 3006 5043
4 3354 3356 3355 3359
4 3358 3355 5769 3359
4 4084 6162 3358 5770
4 4083 4086 5784 5783
4 3501 3871 3842 3883
4 3640 3319 4923 5046
4 4118 1252 6262 1251
4 5520 3935 2920 5525
4 5046 5514 4309 4307
4 3638 3317 5747 3639
4 5683 4813 6346 4812
4 3640 6346 5061 5725
4 5514 3639 4961 5747
4 4903 4905 3637 6014
4 5045 5061 4860 4823
4 5488 4126 4993 4994
4 5488 4978 5486 5009
4 4342 5486 4983 4996
4 3479 3819 5075 3574
4 3819 5485 5038 5665
4 5018 5487 5489 5038
4 3241 3242 4948 3932
4 3480 5680 5488 4126
4 3732 4507 5842 6012
4 5919 5073 4507 5072
4 3518 4211 3488 4118
4 5858 4501 5246 5072
4 3732 4501 4507 6012
4 4118 3494 6262 5480
4 3994 5919 5073 4507
4 4470 5041 5170 5026
4 3730 3731 4506 4469
4 2764 4422 5196 3112
4 3979 4396 4421 6013
4 4470 5026 5025 650
4 3111 4422 3112 5023
4 2241 3731 2591 3135
4 5922 6234 3237 5140
4 6320 6134 5923 4049
4 2968 2969 3164 2917
4 5233 6226 5456 1613
4 3618 3620 5456 2973
4 5023 3112 3113 5321
4 5405 5321 5751 3113
4 3113 5258 5751 5217
4 3113 5258 5217 5172
4 3237 6234 5320 5140
4 4118 1251 6262 3494
4 6134 5923 4049 3619
4 2542 4295 5344 2540
4 3443 3745 3743 3410
4 5811 5875 3743 5959
4 3249 5875 3250 3252
4 2672 2883 4927 2667
4 6308 5943 5811 5824
4 6347 4847 3251 5951
4 5930 4847 4076 5951
4 5811 4191 5950 5959
4 3705 4662 3806 5408
4 3724 3705 3806 5408
4 3726 3721 3698 3705
4 3194 1117 3193 1118
4 3705 4662 5963 4714
4 4118 4012 3518 5480
4 3412 5068 3725 3724
4 2692 3192 3250 4581
4 3072 3195 2694 3733
4 4581 5941 5875 4846
4 4118 4211 1242 4454
4 3247 2538 2667 2883
4 3721 3412 3724 5973
4 4581 5975 5941 4846
4 2885 5791 2896 2668
4 5791 2897 5270 6008
4 5791 5270 2896 6007
4 2873 2889 2871 3386
4 2896 2886 5352 2897
4 6060 1828 4631 5595
4 6060 5595 1837 1828
4 6060 1837 5595 6277
4 6060 4631 1827 5509
4 3025 3055 3053 3054
4 2682 2697 3028 3056
4 2683 6004 6072 5125
4 3905 4435 3907 4524
4 5375 5537 5522 6001
4 3683 3680 2901 3684
4 4614 6004 6110 4674
4 3846 6263 4610 4286
4 4218 1342 3682 1333
4 4696 1333 3682 1332
4 3681 3683 1341 1350
4 2506 5808 6033 4535
4 3967 4653 4608 6169
4 2761 2716 2863 2865
4 4696 1332 3682 5189
4 4612 6111 6131 5586
4 6110 4674 6004 5560
4 4612 4610 5606 6110
4 5632 4817 3378 4917
4 5632 3381 3378 4792
4 5886 3065 3717 3066
4 3406 3407 4778 3123
4 5632 3378 3123 4917
4 3378 3381 3380 4792
4 3375 3378 3381 3380
4 2485 2519 2527 5305
4 2410 3285 4491 2983
4 6156 1990 4165 4820
4 6156 4820 1981 1990
4 6156 6171 1981 4820
4 6156 6171 5735 1982
4 3489 3592 3591 5777
4 6156 5884 1991 5735
4 5680 4993 5488 4126
4 5918 5724 5100 5614
4 5917 5918 2028 5614
4 5611 5473 5615 5619
4 5627 2342 3066 3064
4 5918 2028 5100 5739
4 4826 4825 5449 5909
4 6206 6276 4060 5831
4 4826 5831 6276 5909
4 5837 6206 2053 2054
4 5831 5582 5493 6206
4 4052 4061 4057 4060
4 5591 5593 5592 6218
4 6341 3117 3115 3116
4 6341 4956 6197 3149
4 3803 3115 6197 6303
4 6183 6303 4968 6185
4 2755 5060 1541 5091
4 2239 1541 5060 1550
4 2710 2239 5060 3690
4 2237 4271 1548 5411
4 2710 5091 2813 5060
4 5886 2342 3065 3066
4 3344 3303 3146 3345
4 4450 1009 5810 1010
4 2752 5357 3200 2753
4 2755 5820 5091 1532
4 3091 5539 3664 4351
4 2601 3576 3574 3575
4 2600 5357 2752 2712
4 3203 2948 2911 2912
4 3200 5828 2753 5357
4 2712 5357 2753 3529
4 2753 3530 3529 5828
4 2811 2821 2213 2820
4 3121 4598 4739 5668
4 3071 5627 2342 5997
4 5997 5627 2342 3066
4 928 5716 3120 6077
4 2853 3125 2365 3133
4 6186 5756 3550 3923
4 3125 3359 3362 5690
4 6318 2143 4283 2152
4 6233 4283 2143 2144
4 6233 6321 4283 2144
4 4283 2152 6242 6243
4 4283 6242 2153 5942
4 3167 4001 6181 6153
4 6061 5942 6236 3881
4 6268 5440 3972 4567
4 6267 6268 5440 3972
4 5416 4426 6045 3440
4 4567 3440 6264 4426
4 4569 3441 3975 4567
4 3970 4569 3975 3894
4 6262 4013 5480 3494
4 5972 4012 4373 4439
4 3702 4011 4012 5481
4 4118 4439 1252 1243
4 3702 5480 4013 3987
4 4118 1251 4454 1242
4 4118 5480 3518 4454
4 3937 6055 3440 4011
4 5290 5330 4606 4324
4 4606 3596 4210 4555
4 2313 2568 2567 4133
4 3662 3590 3597 5370
4 4463 4509 3037 4642
4 3594 4504 4483 4526
4 4839 4443 3901 4553
4 5293 4600 4550 4353
4 4627 4304 5928 5367
4 6335 1819 3826 1810
4 6074 2740 1810 6335
4 6074 2740 6075 1811
4 1819 6074 6335 4632
4 6074 6075 3333 4787
4 6074 4632 1820 4787
4 4295 4304 4628 2844
4 4573 3333 4787 4632
4 5339 5341 4716 6336
4 4716 5340 2740 5341
4 2305 2318 2425 3041
4 4410 3333 2642 2645
4 4433 6336 2503 5341
4 3389 3710 5123 3398
4 6340 5544 5554 5513
4 5339 5687 4433 6336
4 3003 4296 4841 3988
4 3423 3941 4432 4433
4 2568 3547 3352 5500
4 6127 4779 6117 1891
4 6127 4780 6117 4779
4 6117 5581 1891 4779
4 6117 3502 4779 4780
4 4263 6117 3502 5631
4 4263 3502 6117 3503
4 6117 3502 3504 3503
4 6125 4838 1405 4337
4 6107 3608 1369 1368
4 4174 3040 4176 3039
4 3096 4462 3082 3404
4 3320 5703 3408 3405
4 3559 3926 4838 6125
4 3168 3624 3568 5880
4 3084 5625 4995 5395
4 5396 1388 5625 1397
4 4881 4328 1424 1415
4 6294 6298 4321 4615
4 6294 3428 4547 4319
4 6294 6298 4067 4321
4 4471 4067 6294 6298
4 6294 3428 4488 4547
4 4807 4808 4484 3903
4 4807 2035 3487 4810
4 2026 2017 2025 5452
4 4807 5453 5918 2027
4 5452 2017 2025 2016
4 3811 2018 5453 3813
4 2018 2027 5917 5453
4 4083 3843 6162 5782
4 2524 3499 3500 3497
4 3309 3307 614 4985
4 3309 3304 613 3307
4 3134 3307 3309 4985
4 3309 605 5086 3950
4 2961 5358 3950 5086
4 2455 2465 2463 2453
4 4153 4202 4703 5089
4 3877 5234 4153 3862
4 2958 4205 5160 3128
4 4385 2788 3313 3311
4 6293 4389 5646 4388
4 4501 3732 6013 6012
4 6200 6202 4703 5879
4 6199 5228 6021 6024
4 2478 2464 3928 2986
4 2480 4205 4233 4346
4 2585 3170 5128 4050
4 3613 3694 2482 3614
4 5219 6280 6325 4347
4 2780 2778 2776 4292
4 2480 5003 4346 4233
4 6182 6245 6061 6321
4 4798 5934 5128 4039
4 3869 2877 4589 3870
4 3881 5942 6236 6238
4 6181 6182 6061 6321
4 5934 4851 6237 6245
4 5219 6182 5933 5128
4 6182 5934 6061 6245
4 5580 4711 819 828
4 6343 5516 2510 5517
4 4900 2905 3323 837
4 5516 6343 810 5517
4 5516 5584 811 6001
4 5516 6001 4235 6343
4 5516 4235 810 6343
4 5107 3395 4508 3506
4 4508 3506 5436 4453
4 5107 5467 4508 5462
4 3798 4018 4508 5361
4 3471 3473 4511 5361
4 3471 3472 3953 4511
4 4508 4018 3798 5108
4 4508 4403 5462 4453
4 3735 3737 4750 4675
4 3681 3682 4218 1342
4 3736 4218 4675 5274
4 5274 4675 1352 1343
4 5274 4702 1360 1361
4 6103 5274 1360 1351
4 5274 4702 1361 6112
4 5687 4065 5686 6043
4 3139 6043 6344 3756
4 2645 5687 4044 5463
4 5686 6043 4065 4064
4 6104 4214 5541 5513
4 6340 3027 6104 5554
4 5686 6043 4064 6344
4 4078 5484 5554 5472
4 6022 5791 2668 2533
4 6022 1664 6016 1673
4 5791 2668 2533 2896
4 5791 3386 6011 3917
4 2884 2886 2804 2887
4 5791 6016 6008 2533
4 1664 2442 6022 3917
4 5900 5479 3591 6098
4 5882 6187 5773 5711
4 6031 5900 5479 5883
4 3658 3653 3659 6032
4 5882 3810 3586 6187
4 3805 3210 3212 2349
4 2387 2637 2639 2388
4 6302 3659 6161 5501
4 3591 6098 4819 3796
4 2729 4972 2736 2738
4 2980 3296 3295 3866
4 2621 3261 3645 5682
4 3295 3296 5677 6330
4 4577 2980 3295 3866
4 3295 3297 3624 6214
4 3283 6186 5737 5741
4 3263 3771 3796 4262
4 4734 3646 3281 4737
4 5756 3550 3923 3919
4 3261 6149 6148 5699
4 3485 3486 4633 4634
4 6158 6230 5709 5704
4 4078 4214 5554 5484
4 5554 5507 4468 5555
4 5507 5540 5554 5472
4 5554 4214 4217 5484
4 5250 4725 5261 5167
4 5523 5535 792 793
4 6177 6081 5318 6082
4 5317 4212 5318 3009
4 3001 3011 3010 2686
4 4633 3485 4634 4298
4 3822 3983 3227 3985
4 6177 6339 5028 4363
4 6177 6174 6261 4363
4 5350 6347 5957 4847
4 6347 5372 5299 5957
4 6347 4257 5299 5372
4 5956 5957 5372 5951
4 5928 4304 5289 5335
4 3251 5372 5951 4258
4 3954 3438 3428 6294
4 3929 4964 4308 5680
4 4478 3430 3888 3438
4 3240 3245 3629 3636
4 2369 3316 3642 3637
4 4947 4953 3115 3118
4 4947 4941 3240 3242
4 3718 3805 3212 3723
4 3805 3804 3931 3523
4 4963 4126 3521 4993
4 3491 2347 3481 3575
4 3264 4738 3669 3281
4 3646 6158 4735 3867
4 6158 3867 5704 4735
4 3279 5978 6288 3282
4 5150 3125 5151 3355
4 6288 5978 5709 3282
4 4084 3355 3358 3357
4 4085 4082 4087 4084
4 4083 6304 4084 4085
4 4084 3358 3355 5769
4 4084 5770 3358 5769
4 4084 6304 5775 5774
4 5002 5171 5004 5003
4 5002 3614 5004 5171
4 5003 2584 6280 6229
4 3599 3468 3456 3472
4 5651 2956 6280 5003
4 3613 5642 1581 5570
4 5232 5002 3649 6211
4 3691 3694 2482 3613
4 6341 6197 3116 3115
4 3951 3435 3955 3430
4 4361 4951 4355 4362
4 3802 6197 3115 6303
4 4361 4355 4366 4362
4 3636 4361 3117 6341
4 3168 3568 3624 2979
4 3568 2979 3569 6109
4 3168 3570 3568 2979
4 5689 3624 3568 6214
4 5689 3568 3624 5880
4 5929 2180 3153 4056
4 5929 6252 2171 4056
4 5929 6005 2172 6252
4 5929 6005 5787 5790
4 5929 5787 6252 5790
4 5929 2443 6005 5790
4 5929 2171 6252 2172
4 4040 388 4565 5536
4 4040 4659 5536 6119
4 4704 4040 397 396
4 3549 4040 4565 5536
4 4040 397 4659 6119
4 3532 3530 5828 3529
4 3530 3531 3660 3534
4 3532 5828 586 577
4 3532 3529 5059 3531
4 3532 3531 585 3660
4 577 3532 5828 5048
4 4058 6206 5449 5493
4 2784 2785 2953 5070
4 2726 2240 2755 2238
4 2726 3090 4351 5745
4 3780 4241 4950 5724
4 3713 4445 5483 4515
4 3538 3537 4587 3536
4 4990 4226 4224 4225
4 5823 6093 3907 4226
4 4224 4636 4225 362
4 5042 4248 5394 4247
4 5042 4863 5047 5043
4 4921 5587 3004 3095
4 3461 3462 5394 4093
4 3585 4246 4894 4893
4 3006 3585 4246 4894
4 4893 4248 4339 3585
4 3244 6303 3802 3115
4 6193 5803 6342 1504
4 3775 3776 6196 4934
4 2390 4172 4095 3581
4 3835 3776 5008 6295
4 3969 3976 3972 3974
4 3511 3439 3391 5673
4 5512 3974 4395 3976
4 4472 4878 3437 3436
4 4457 3431 3436 3433
4 5108 5512 4459 3431
4 3768 4409 5822 5290
4 3904 3328 5822 3907
4 4677 3905 6078 4477
4 3324 2972 5341 2419
4 4725 5294 6060 5261
4 4179 487 4862 488
4 3059 3299 5548 3293
4 3399 3392 5673 5029
4 3662 3938 3601 4034
4 4179 4893 487 496
4 3059 3299 3349 5548
4 3817 5801 1307 1298
4 3547 1305 3352 1296
4 3349 4578 5548 1315
4 3818 1315 3349 1306
4 3349 3547 1305 3352
4 3818 3821 4578 1316
4 2678 2683 5126 5375
4 4612 4613 4559 6131
4 4613 5597 4228 4559
4 5126 2683 3373 5375
4 3677 5607 3050 5579
4 4635 4140 4139 5607
4 5572 3677 4613 5605
4 2506 6033 5808 4795
4 3846 4125 4277 4124
4 5558 3537 5141 4680
4 2511 5141 2499 4680
4 5558 4219 4646 5567
4 5558 4680 4681 4684
4 5558 4219 5567 4681
4 5558 3537 4622 5141
4 4638 5142 4579 4219
4 4895 4219 4680 4220
4 2432 2431 3042 3038
4 4995 3043 3044 2310
4 3833 3832 4617 4100
4 3079 4643 4644 2311
4 5312 3833 4717 4692
4 5977 5313 4749 5395
4 5312 4746 3833 4692
4 5312 3833 4746 3083
4 5519 3044 5976 4330
4 4179 5590 4899 4879
4 4331 5961 6144 3018
4 6002 4379 6164 4801
4 2735 4970 5721 4926
4 3897 5961 4234 6144
4 4837 4239 1406 1397
4 3897 4234 5961 6136
4 4751 5703 433 442
4 3407 3403 3405 4763
4 3407 4782 3403 4763
4 4751 3403 3405 5703
4 3403 442 3402 5703
4 3403 4782 4157 452
4 3322 2423 2449 3321
4 2803 4715 6116 2802
4 5714 497 4179 4899
4 3287 5569 4277 4780
4 2409 4062 4124 4063
4 4062 4740 4491 4779
4 5629 5631 4491 4779
4 2320 2319 5202 4679
4 4537 4558 4557 6119
4 3078 3079 2311 4643
4 4921 5590 5588 5301
4 4861 469 4255 4175
4 478 477 4246 5588
4 4921 5588 5587 4175
4 5587 5588 4255 4175
4 4896 4897 1963 1972
4 4896 5676 1963 4897
4 4896 1964 5676 4989
4 4896 6171 4819 1972
4 4896 6098 5479 4989
4 4904 964 4906 973
4 4905 964 4904 963
4 4905 963 4904 4991
4 4904 973 4998 972
4 4892 3510 5702 4932
4 4375 4376 3948 4377
4 3464 6002 3465 4379
4 2730 4925 4970 4926
4 3871 3873 3876 3872
4 4259 3361 6162 3360
4 3871 3873 3842 5780
4 4997 4939 4998 5779
4 4997 5076 4939 5779
4 5714 496 4179 497
4 2960 2893 2967 2895
4 5148 2948 5106 3958
4 2963 3203 2912 3958
4 3676 3151 3732 5842
4 2819 2818 4670 2855
4 2981 2951 2952 2775
4 2952 2990 2985 4198
4 2243 2241 3151 3732
4 5796 4179 5798 4899
4 2476 3602 2217 2483
4 2459 3325 2591 3583
4 3566 3602 3129 2483
4 5845 1090 5203 1091
4 5888 1081 5203 1090
4 5845 1091 5203 5409
4 5857 5203 1081 1082
4 5857 5203 5936 1081
4 2786 4727 4155 5406
4 3136 4687 4170 3306
4 3136 3135 4687 3307
4 4170 3306 631 630
4 5920 5114 5187 3339
4 3303 4908 3344 3146
4 3325 4348 3344 3305
4 3302 3309 3307 3304
4 2791 2460 3175 2785
4 2417 4841 3751 3750
4 4296 4316 4322 4317
4 4296 3751 4317 4054
4 2419 3324 2417 3750
4 5401 4532 4296 3984
4 3988 4316 4533 4322
4 3988 4533 4532 4322
4 5400 4296 3556 5401
4 6345 3029 3027 5526
4 3026 3054 3788 5051
4 3027 3029 3910 5526
4 4209 765 757 4004
4 3788 3455 775 3452
4 4004 3788 3784 3455
4 3784 3455 3451 3183
4 2303 3056 4412 3482
4 6001 6343 3700 5537
4 3139 4214 4215 6344
4 2641 2648 2397 2646
4 3788 3054 776 5051
4 3788 3455 766 775
4 2906 838 5578 2905
4 2904 2906 4272 3604
4 3848 2908 4101 3677
4 3603 5584 4030 821
4 3603 829 5580 820
4 2497 5516 5584 820
4 3699 5375 3847 5522
4 5145 4536 2512 4535
4 5808 3186 4557 4949
4 2802 2803 4957 5552
4 5376 4492 3685 4493
4 5599 4957 5377 5376
4 5376 5599 4957 5380
4 4192 4775 5529 5530
4 3685 4493 3687 5377
4 6112 4750 3371 3401
4 4957 5552 2803 5380
4 3673 3848 2904 3603
4 2409 3615 2902 4063
4 3681 3682 1341 3689
4 3683 5377 3685 3680
4 5200 5380 5617 5381
4 5549 5200 5617 5202
4 2801 5200 2803 4679
4 2900 2902 3611 2903
4 5549 5380 5552 5551
4 4306 5380 4955 5381
4 2517 4279 3770 4278
4 3047 3106 3101 3104
4 5305 866 4699 4700
4 3721 6328 3722 3716
4 5705 5631 4499 6334
4 5653 5655 2923 5654
4 5653 1919 2923 5655
4 2918 3625 5653 5721
4 3934 6059 6114 5654
4 2918 5653 2923 5654
4 5653 1927 5880 3570
4 5653 5730 5880 1936
4 5653 5880 1927 1936
4 5653 3625 5730 5721
4 3795 5684 4875 5685
4 5683 5685 5684 4880
4 5684 5685 4160 4880
4 5683 5684 4875 4877
4 5683 4902 3640 4880
4 3933 6136 5961 2731
4 6125 1404 5520 5521
4 6125 4639 5521 5520
4 3108 3766 1378 3109
4 4329 3926 3044 4239
4 2430 2543 2440 3216
4 3934 2922 2918 2919
4 2734 3933 6059 3934
4 6125 5520 1404 1413
4 6148 4984 6149 3261
4 6158 6230 5682 3645
4 3771 3773 3645 5699
4 3262 3280 2850 3281
4 3366 2739 4827 3653
4 4601 4602 3773 5758
4 3773 3645 5699 4338
4 3279 3280 3773 5978
4 3640 6346 5725 4902
4 5683 6346 3640 4902
4 5683 4880 3640 5685
4 5683 5684 4877 4843
4 5683 6346 4902 4884
4 5061 4860 4859 5747
4 5061 4928 3638 5747
4 6346 3638 4928 4813
4 5683 4875 3017 4813
4 3480 5680 5486 5488
4 5489 5486 4996 5037
4 5018 5038 5485 5490
4 5487 5489 5037 5486
4 5487 5038 5490 5036
4 6324 4501 5218 6013
4 4469 5218 4501 6013
4 4501 4506 5079 5218
4 4501 4507 6012 5246
4 4423 4421 5026 6013
4 6324 6332 5236 5243
4 6324 4396 6012 6013
4 3704 3697 3698 3705
4 5217 5752 5751 3542
4 3542 5752 3543 5768
4 3276 5751 3113 5405
4 2273 2232 2284 2763
4 3413 3704 3725 3706
4 3979 4394 2764 4422
4 2764 4394 5196 4422
4 2846 2539 2929 3486
4 2846 2539 3485 2844
4 2929 4848 5998 3253
4 5998 4257 5371 4848
4 3251 4848 6347 4257
4 3654 3655 3253 2540
4 3253 3655 4127 2540
4 3654 3253 5391 2882
4 3654 2881 5296 3655
4 3249 4849 2883 4846
4 4036 3855 2178 3900
4 4036 2187 3221 3419
4 4036 2178 3855 2179
4 4036 2188 3221 2187
4 5363 4852 709 5386
4 5363 6003 4852 5991
4 6003 4852 5991 1221
4 4854 5336 4853 4852
4 6248 5992 1669 6009
4 6248 6189 5965 5384
4 6248 6189 6003 5965
4 4627 5367 4203 5342
4 5928 693 5335 684
4 5928 5367 5335 693
4 3413 4021 3192 3706
4 693 5342 4203 5367
4 5367 5335 693 692
4 4591 6337 5793 5795
4 5793 6242 6238 5795
4 6238 5793 3881 5942
4 6018 3882 3880 5787
4 2968 4048 2917 4050
4 5793 4283 5942 6242
4 5992 6253 5384 4201
4 2875 4915 4185 3387
4 5992 6253 4201 5244
4 4915 6253 5992 5244
4 6248 5384 5992 6253
4 5992 4185 6010 6009
4 6248 5992 4185 6253
4 6248 6253 6189 5384
4 4526 4504 3596 3594
4 3595 3598 4473 4483
4 2996 5772 2999 5323
4 4731 5400 3751 3556
4 4839 2999 4553 3594
4 2999 3594 5772 4553
4 3595 3597 4531 4473
4 3598 4033 3597 4473
4 3037 4509 3552 5503
4 3750 3752 2418 4398
4 4716 2305 2425 4410
4 3752 2418 2567 2420
4 4632 6335 2645 3333
4 2419 4716 5340 3750
4 2723 3752 3353 3554
4 4294 5556 4392 4391
4 4294 5556 5378 4392
4 5376 3685 4306 4957
4 3612 4492 4306 4147
4 4492 4306 4147 5379
4 5584 3699 3847 5522
4 3844 3845 2383 3847
4 2643 2397 2646 2641
4 3192 4021 5283 5282
4 5518 5519 4788 4783
4 6326 6143 5976 4759
4 3706 4021 5960 4022
4 5096 6194 4242 5615
4 4484 5918 5614 5724
4 5473 6194 4241 5724
4 5917 5918 2027 2028
4 5615 5094 5611 5612
4 5611 5619 5615 5612
4 3781 3782 4484 4808
4 4807 5453 4484 5918
4 3706 3725 5924 3705
4 3981 5611 5334 5619
4 2623 2832 3491 3092
4 3705 3725 3704 3706
4 4807 3903 5452 4810
4 5611 3982 3458 3981
4 6206 5216 4060 5626
4 5837 6206 4058 5582
4 6206 4060 6276 5626
4 6206 2062 6276 5831
4 6206 5831 4060 5449
4 6206 5582 5493 4058
4 2619 4053 5449 4058
4 2256 2505 3997 2828
4 2828 2849 4350 2505
4 2816 2849 2828 4046
4 2816 2848 2857 2856
4 2848 2828 2829 2816
4 3534 2848 3531 4189
4 3534 2848 4189 2828
4 2713 2829 2828 3145
4 2239 2237 1558 2784
4 3706 3696 3697 5952
4 2784 2239 4009 2755
4 5835 5839 1054 5896
4 5835 1054 5077 5896
4 5835 5890 5839 5896
4 5835 1063 5871 1062
4 5835 5364 5077 1053
4 5835 5871 5890 5836
4 2297 2374 2934 2936
4 3794 3213 5727 4866
4 5683 3017 3640 3638
4 3794 4866 5641 3791
4 3017 4901 5710 4876
4 3314 3640 3017 3638
4 6077 5716 927 928
4 6077 4876 5710 927
4 937 928 5716 3120
4 4913 4104 4107 4105
4 4104 4275 4201 5244
4 4104 5240 4275 5244
4 2773 2772 5241 2782
4 4913 5384 4104 4105
4 4104 5384 6253 4201
4 4915 4185 5992 6253
4 3441 3973 3511 3439
4 3975 4567 3972 4569
4 3441 3439 3511 3440
4 4208 4035 5762 5510
4 5762 4035 4836 4449
4 6262 4013 5505 4014
4 6262 1260 5504 3494
4 6262 1261 5505 1260
4 4118 5480 4454 3494
4 6262 4014 1252 4439
4 3595 3590 5330 3597
4 4324 5330 4409 5290
4 3595 4473 3598 3597
4 3594 4526 3595 3596
4 4556 5330 6078 4513
4 5330 6331 4513 3597
4 4556 5330 5290 4495
4 4570 4413 6067 1841
4 6067 6091 1840 4267
4 4570 6068 6067 4131
4 6067 4413 4131 6088
4 6087 5557 6091 4267
4 4570 4132 4571 6068
4 3905 4524 4485 4435
4 5055 6169 6170 4653
4 4990 4992 6169 3536
4 4608 361 4225 370
4 6169 370 4081 4653
4 3538 4081 4636 4658
4 6033 4619 4535 5536
4 4497 4499 4806 2923
4 5201 4336 5629 4740
4 2329 5629 4491 4740
4 2331 2324 4499 2923
4 3706 4021 5282 5952
4 5630 6147 1910 4806
4 4499 4806 2923 3570
4 2982 3570 2979 6334
4 5332 3810 6167 3586
4 3463 2639 4109 4172
4 5882 3810 6187 6031
4 3810 3586 6172 6167
4 3814 4047 4121 3813
4 4083 4092 5784 4086
4 5784 4092 6311 4086
4 3843 5782 5784 5483
4 5782 5775 5797 5771
4 4083 3843 5784 4092
4 4809 3843 5784 5483
4 5482 2524 4520 6312
4 5482 4516 2524 5483
4 6316 6199 6202 4154
4 2788 4390 4389 4388
4 6200 6024 5853 5850
4 6021 5853 6024 5841
4 4150 4151 5896 5161
4 2584 6280 5213 5214
4 5003 5651 6229 6280
4 2583 2956 2584 6280
4 3365 5929 4056 5790
4 2885 3365 2887 5790
4 2885 3365 2443 3450
4 2891 5795 5790 4056
4 3814 1990 4047 1999
4 3998 3365 3417 3223
4 3331 3417 3365 3223
4 2936 2300 2228 2391
4 3314 3017 3315 3638
4 3636 3802 6341 3115
4 3775 3776 3789 6196
4 3354 3173 3852 3357
4 4121 3813 4047 6176
4 3775 4095 4115 4109
4 3775 3789 4912 6196
4 4115 4114 1478 1469
4 4172 3789 3807 4912
4 3463 4114 4110 4116
4 5286 5669 4534 4604
4 3906 3905 4485 4435
4 2683 3031 6072 6004
4 3611 4493 3685 4492
4 2564 2566 2993 2995
4 3552 4509 4134 1279
4 4731 3556 2416 5817
4 2841 3981 3458 3982
4 4134 4509 1280 1279
4 3552 1287 5498 1278
4 4509 5505 6040 1261
4 5765 6041 4463 6040
4 4509 1262 6040 1271
4 5116 4447 732 3753
4 3940 3398 3741 3943
4 5119 5122 5117 5121
4 5117 1705 5121 1696
4 5124 5118 5450 5443
4 4357 1646 5191 5190
4 1654 1655 5191 2442
4 4357 4358 2889 3386
4 2888 3386 4357 2889
4 6249 5191 2445 2442
4 4047 5777 6176 5884
4 2888 5791 2442 3917
4 4357 1646 5190 1647
4 2444 2889 2888 4357
4 6299 5047 4911 3462
4 4891 4362 4890 4094
4 6299 4094 5394 4093
4 4361 3117 6341 4951
4 4361 6341 4355 4951
4 3801 3802 4935 4916
4 4361 5955 4891 4366
4 3628 4094 3633 4361
4 3240 3723 3115 4947
4 3714 5471 4669 5428
4 5430 4669 5432 5428
4 4669 4151 4713 5432
4 3144 2820 2213 2821
4 2818 2967 5162 5161
4 3207 3208 3203 3199
4 3837 3977 2963 3958
4 4047 6156 5777 5884
4 2967 2960 2818 2338
4 5162 2895 6313 5161
4 4151 6313 5162 5874
4 4444 1010 5810 5805
4 4121 4047 4988 5777
4 3713 3497 2524 3500
4 5061 3317 5514 5747
4 4307 5702 5046 4907
4 5030 4307 4308 4343
4 5045 5030 4979 4343
4 4310 4311 5514 4958
4 5514 4991 4343 4979
4 5045 5514 4343 4979
4 6219 3343 5159 5136
4 3343 5864 5921 5204
4 3542 3887 5300 5767
4 3704 3706 3696 3697
4 3887 5767 5864 5300
4 5233 5923 3619 6226
4 3887 5173 4284 5178
4 2593 2989 5971 2987
4 3543 6234 5768 5984
4 4892 5796 5046 4923
4 4316 3988 6265 4296
4 4296 3988 6265 4841
4 3988 4296 4322 4532
4 4532 3987 3986 3984
4 3988 4322 4296 4316
4 3988 4316 6265 4315
4 5682 6330 5695 5708
4 4577 3866 3295 6330
4 3279 3263 2851 3773
4 4577 5695 3295 6213
4 6330 4800 5708 5682
4 5694 6330 4800 5708
4 4338 5708 6230 3645
4 3267 3347 3885 3082
4 5715 5709 6288 6230
4 3620 5969 1640 1631
4 5441 5397 1640 5969
4 2871 2889 5105 4358
4 2925 1630 3620 1639
4 2925 3620 5441 1639
4 5131 1621 3620 1630
4 2924 5131 2925 2916
4 1621 1612 5130 5456
4 3071 6247 5891 5892
4 2227 3214 2861 3122
4 3706 3413 3704 3696
4 2342 2343 3069 5945
4 4528 3069 4529 3734
4 3641 3884 3348 5590
4 4529 3069 4530 4527
4 4000 5891 3519 5206
4 5747 5045 4961 5514
4 5061 5514 3317 5046
4 5061 5725 6346 4162
4 5061 6346 4859 4162
4 5061 6346 4928 4859
4 3640 5061 6346 3638
4 5195 6332 4421 4396
4 5309 5248 6332 5245
4 2665 4396 5195 4421
4 5309 6332 5248 4421
4 6332 4421 5236 5248
4 6324 5348 6332 5546
4 6332 4421 6013 5236
4 3802 6341 6178 4916
4 3802 6178 6341 6197
4 3802 6341 3115 6197
4 3240 3636 3243 3118
4 3801 4916 4361 6341
4 3581 3808 3245 3775
4 4668 4688 5870 5558
4 3180 3540 5559 3920
4 3536 4586 4441 4539
4 2510 4680 4684 4711
4 5559 3539 4688 4236
4 4083 5782 5775 5797
4 4445 5420 3842 3576
4 4070 2626 3499 3498
4 3918 3592 3800 4988
4 2809 3932 3241 3246
4 4244 3834 3476 2945
4 4044 1801 4400 6336
4 4044 4065 4400 1800
4 4044 2740 1801 6336
4 4044 6335 2740 6336
4 4044 3826 1810 6335
4 5687 4044 5463 4065
4 5687 6335 4044 6336
4 4164 5750 5738 1989
4 4164 5738 4165 1990
4 3229 4988 3924 3918
4 3919 5738 4164 5750
4 3919 4601 5750 4602
4 4179 5798 4899 5590
4 3918 3922 4164 3924
4 2940 3781 3778 3777
4 3778 3032 3090 4786
4 1548 2240 4271 2237
4 3033 3090 4786 4351
4 2950 2812 2335 2783
4 4059 6101 5099 4061
4 4241 4950 4974 6190
4 2755 1532 5091 1541
4 2703 2751 2710 2784
4 4543 4414 3828 3289
4 3319 5798 4899 5796
4 4542 406 4543 4790
4 4621 4724 4537 407
4 4537 3828 4558 4790
4 4558 4557 6119 4041
4 4542 4543 406 415
4 4719 4542 3289 4181
4 4094 4362 4890 3633
4 4094 4891 4361 5955
4 4248 3631 4339 3585
4 4094 5394 4248 4889
4 3628 3636 3633 3632
4 3242 4976 3243 4948
4 3636 3243 3118 3632
4 3636 4361 3633 3117
4 3628 3632 3630 3243
4 3240 3241 3723 4947
4 3240 3118 4947 3115
4 3774 3789 3775 3776
4 3630 4948 4976 4260
4 3635 4361 3801 5955
4 5115 3974 4301 3825
4 5115 5512 3974 5515
4 3512 5115 4301 3505
4 3969 5115 5512 3974
4 3969 3890 5115 3973
4 3389 3393 3392 3400
4 2697 4025 5167 3908
4 3967 5291 5823 4226
4 4226 6169 4990 5823
4 5558 4219 4680 5141
4 4409 3907 5822 4495
4 3159 2828 2256 3997
4 3326 2863 2716 4775
4 2471 4028 2472 2376
4 3967 5055 3965 4630
4 3057 3895 4324 3768
4 4624 4723 6095 4574
4 4412 6277 3909 3908
4 3001 2415 2686 2972
4 3708 4012 3702 4011
4 3702 4011 5481 6271
4 3702 4929 6069 6063
4 3002 4013 3555 3987
4 3702 4013 5480 4012
4 3708 3702 3937 4011
4 5399 3552 4134 1288
4 3037 3552 4509 4134
4 3547 5399 5500 4133
4 2715 3058 4352 3821
4 5399 1296 5500 1287
4 1296 3547 5399 5500
4 3547 3817 1306 1297
4 3349 3351 1305 1314
4 5291 5822 6093 5290
4 3333 4412 3544 3334
4 5412 3059 2715 4578
4 2471 3298 2472 4028
4 2757 4990 4992 5823
4 4192 3966 5413 2863
4 4775 5529 4578 4676
4 4743 4682 2510 4272
4 3989 4536 2512 4546
4 4992 6169 4636 4081
4 3536 3538 4992 4636
4 6033 4619 4081 4658
4 4644 6284 433 424
4 4264 4720 441 4595
4 4592 4264 4595 4720
4 4644 433 5703 442
4 4264 441 4644 442
4 4644 6284 424 4718
4 3131 3132 3159 3161
4 4592 4264 4644 4643
4 4719 4751 3405 6284
4 4719 4751 433 434
4 4751 3403 443 4763
4 4751 442 3403 5703
4 4719 4180 4751 434
4 4751 4180 3405 4763
4 3159 2257 2258 5112
4 3322 2421 2423 3405
4 3562 6157 4330 4376
4 3266 2230 2226 2229
4 4264 4643 5703 4644
4 4921 3884 3007 5589
4 5145 4683 6033 5141
4 3159 2258 2828 3145
4 5273 3278 3681 3684
4 2800 2803 3763 4679
4 4494 3290 4414 3289
4 3844 3847 4614 3845
4 3739 3827 5734 4041
4 3680 3688 3278 3689
4 3989 4546 4651 3770
4 4179 4894 4862 487
4 4179 488 4862 4879
4 4862 4894 478 487
4 4862 5588 478 4894
4 4861 5590 4862 4814
4 4862 4814 5590 4879
4 4310 3639 4762 4958
4 4762 4905 954 955
4 4762 6014 4905 955
4 4905 955 6014 964
4 3593 3925 3592 3489
4 4762 4905 6014 3637
4 2387 2615 2638 3658
4 2368 3228 2634 2363
4 5736 4899 3319 5798
4 3643 3638 5061 3640
4 4849 5331 4847 5350
4 5736 5685 4880 4879
4 5101 6309 6180 6198
4 5101 6194 6198 5100
4 4950 5100 5724 6194
4 4950 5099 5101 5742
4 5101 6194 4974 5958
4 6333 6309 5215 6180
4 5101 5742 6203 4973
4 5099 6180 6333 5215
4 4950 6194 5101 5100
4 3288 3322 3289 2421
4 4801 3018 6144 6151
4 3898 4328 6157 1424
4 3560 3897 3896 3559
4 5587 4698 3946 4774
4 4312 4342 4343 4344
4 3931 3718 4930 3804
4 3508 3242 3510 4931
4 4309 3211 3509 4308
4 3875 4997 3871 3520
4 4931 5702 4932 515
4 5798 5796 3584 4893
4 3242 4931 4976 3510
4 4915 5244 4104 6253
4 3618 2772 2973 3543
4 2870 4915 5442 5360
4 2630 3312 3519 5891
4 4385 4727 5936 4726
4 2462 2555 3302 2557
4 3247 3249 4848 4849
4 3144 4002 4825 2821
4 3519 4386 5206 5891
4 2788 2787 4390 2786
4 4727 4505 5890 5889
4 3840 5227 2787 4155
4 5350 4848 4847 4849
4 3202 3206 3199 3200
4 3202 3206 3200 5102
4 3203 3198 3208 2948
4 3200 5103 5637 5102
4 3200 5637 5103 5357
4 3200 5358 5828 5084
4 5210 4422 5023 5196
4 5025 5210 4422 5023
4 5210 5239 4422 5211
4 5025 5210 5239 4422
4 5210 5258 5321 5023
4 5210 667 5258 658
4 4687 5041 632 5170
4 3731 4687 5170 5041
4 4687 3307 4985 623
4 3731 5170 4687 5153
4 3135 4985 4687 3307
4 4687 622 3307 623
4 5417 1735 1745 1744
4 5418 6036 1744 6046
4 4426 5418 1735 5417
4 5418 5365 6036 6046
4 1736 1735 1745 5417
4 5418 6035 1726 4119
4 3139 4215 4214 5484
4 4078 3027 3055 5472
4 2645 4632 2642 4631
4 3372 3452 3788 3054
4 2640 5051 3788 4006
4 4078 3027 5472 5554
4 3908 5167 4412 6277
4 4666 5497 6298 4588
4 3904 3905 4409 4677
4 6298 4137 5497 4666
4 6279 6298 4137 5497
4 4436 6279 6298 4137
4 4471 4666 6294 4037
4 5350 4848 4186 5371
4 4666 6298 6294 4575
4 4666 6294 4037 4575
4 4666 4037 4562 4575
4 3454 4666 4562 4576
4 2909 3050 2908 3677
4 2384 2677 2678 3847
4 2507 2509 3186 2506
4 3287 4287 4277 5569
4 3286 3502 3209 3103
4 5350 5331 5351 697
4 5572 4287 3102 3329
4 3846 4124 3019 4125
4 2382 2653 2377 2507
4 5572 4287 5628 4613
4 4020 4145 4282 5608
4 4062 4955 2412 4740
4 5618 3381 5903 4778
4 5632 4645 5618 4793
4 5618 5979 5648 4728
4 5618 5979 5903 4231
4 2340 2371 2341 2343
4 4765 4778 5632 5618
4 3285 3209 5705 2983
4 2982 5705 4499 6334
4 3168 3625 5880 2923
4 4874 1441 5661 1442
4 5661 6151 1432 1441
4 5661 6144 1432 6151
4 5661 6159 6164 1442
4 4379 6164 5661 6159
4 5660 6159 1433 6157
4 4379 4377 4858 6159
4 4801 4331 6144 3018
4 4379 4801 5661 6164
4 5587 5043 4698 3006
4 4874 4117 1451 6164
4 4801 6144 5661 6151
4 4379 6159 5661 4331
4 2637 2806 3789 2390
4 4377 1434 6157 5713
4 4204 2340 3722 6328
4 4110 4114 3463 4115
4 6125 1405 4838 1414
4 4837 5396 1396 4337
4 3927 2321 3764 4639
4 4837 5396 1397 1396
4 4837 4337 1396 1405
4 3766 3109 5396 1387
4 2340 6328 4204 4657
4 3650 2447 2448 3408
4 3772 4897 3363 6098
4 3772 3771 4819 3796
4 3269 3772 4925 3363
4 4819 4262 3771 6287
4 4262 2851 3263 4601
4 3772 6098 3796 4819
4 5779 6155 5076 5794
4 4997 5779 4998 4919
4 4997 5779 4919 4922
4 4997 5076 5779 4922
4 6212 2053 2523 2052
4 2053 2062 6206 5582
4 6212 2523 2525 2052
4 2522 5582 2523 6212
4 5582 2062 6206 5831
4 2523 5830 2062 5831
4 2949 3205 5052 3208
4 2949 5052 5665 5818
4 3207 5665 3565 2949
4 2370 2340 2341 2342
4 2607 3201 3207 2966
4 2370 2342 3065 2340
4 2338 3201 2962 2752
4 2946 3565 5666 2949
4 5456 1622 6226 2973
4 1623 2973 1614 1622
4 5456 2973 3620 1622
4 3618 3237 5456 3619
4 5456 3237 6226 3619
4 5233 5456 3619 6134
4 5131 5456 1621 5130
4 2924 4048 5131 2916
4 2340 2370 5910 3722
4 5845 5912 1090 1099
4 5888 1090 5912 1089
4 5888 1089 5912 5904
4 1107 3762 5912 5329
4 5888 5912 3760 5904
4 2926 3880 2927 5460
4 2927 2554 3881 2550
4 3148 3671 4464 3514
4 3881 6061 6018 6236
4 6018 3880 4798 6061
4 3998 3856 3365 3332
4 5933 6182 5934 5128
4 6189 5363 5991 6003
4 5368 5991 5374 6269
4 5965 6003 4852 5363
4 3728 3721 3727 3726
4 6328 4655 3716 3727
4 2340 4655 2371 2343
4 2340 2342 3065 5886
4 3721 6328 3716 3727
4 2341 4528 2372 2370
4 3721 3854 3726 3858
4 3856 4056 3365 3332
4 3716 3722 3721 3065
4 4274 5333 4275 5240
4 2924 2915 4048 2916
4 4274 5752 5278 5253
4 4274 6232 5752 5275
4 5360 1640 5441 5397
4 1641 5360 5240 5397
4 3065 5886 3716 2340
4 1640 5020 5360 5441
4 5020 5441 1640 1639
4 5360 5397 1641 1640
4 5360 5244 1650 5240
4 2370 4528 2372 3734
4 4915 5360 1659 5442
4 3588 4835 4599 4463
4 2994 4834 4552 5700
4 3588 2994 4552 2999
4 3551 3752 5398 5498
4 5323 2999 3594 5772
4 3598 2999 4839 3594
4 2991 2997 2999 3525
4 3588 4599 4835 5389
4 3108 4702 6108 3608
4 3623 2980 2978 3624
4 2802 4957 6115 5552
4 2769 2802 3610 3608
4 2903 3610 4102 3684
4 3615 4354 3612 4063
4 5377 5376 4493 2547
4 5376 3685 4492 4306
4 3685 3611 4492 4306
4 5185 4293 5184 4391
4 5185 3685 4493 3687
4 5185 3611 3277 4294
4 2825 4799 3548 3401
4 2340 4655 6328 4657
4 5608 4024 6099 4019
4 5538 6200 5850 6024
4 2377 3225 2867 2378
4 5298 4023 5250 5125
4 4024 6099 5292 5264
4 2471 5266 3909 4027
4 4610 4613 6278 6263
4 6157 4377 4376 3562
4 3219 3061 3217 3063
4 5713 4377 4376 6157
4 3121 4739 4598 3120
4 4739 4736 919 5728
4 4739 4736 4737 920
4 5150 6338 3921 3355
4 5150 3355 5151 5697
4 5150 3466 6186 5698
4 2853 4598 3466 5152
4 5538 5643 4150 6024
4 5820 1522 6204 1523
4 5539 6204 5058 5545
4 6204 5058 5545 1523
4 5803 5058 1514 6192
4 5539 5803 6204 5802
4 6204 5744 1522 5745
4 6204 5744 5802 1513
4 3892 3891 6185 3803
4 3147 3146 4167 3145
4 3131 3161 3147 3342
4 3341 3147 5114 3342
4 3341 3342 5114 5920
4 3146 3345 3342 3344
4 4053 4058 4060 5449
4 2784 2239 3130 6217
4 4007 5410 4887 4886
4 4009 5410 5087 5411
4 5410 1557 4887 4886
4 5410 2237 1557 1548
4 5410 2237 1558 1557
4 2784 4009 5410 4007
4 4009 2238 2237 5411
4 5410 5411 2237 1548
4 3325 4689 3343 4348
4 2461 2561 3137 2563
4 3345 5849 3342 3339
4 3305 4689 4348 3306
4 3344 3147 3146 4167
4 3122 5716 6077 3120
4 5227 5538 4150 6024
4 3133 3120 947 946
4 3133 2853 4335 947
4 937 5716 946 3120
4 4154 6200 5538 6024
4 4292 5289 5316 5242
4 4295 5289 4292 5242
4 2780 5242 4292 4104
4 4292 5335 4298 5362
4 4292 4104 5242 5316
4 3276 2288 5405 3112
4 4915 1659 5992 6010
4 3672 3311 3915 4385
4 6071 2504 3009 6265
4 3003 3556 4841 4296
4 4841 3988 6265 3009
4 4841 3751 3750 4541
4 4841 4296 3556 3751
4 4405 6046 5417 1745
4 4405 1746 6268 6267
4 4405 1746 6267 1755
4 4606 4600 3596 4555
4 3596 5330 4210 4531
4 3895 4324 3768 5290
4 4600 5287 4353 5293
4 3589 4606 5287 2996
4 4606 5323 3596 4600
4 2997 3596 5323 3594
4 2997 2999 3598 3594
4 5323 4561 5287 2996
4 6345 5528 6072 5540
4 3028 5251 6072 3029
4 3031 3029 6072 3160
4 6072 3029 5526 3160
4 2675 2218 2786 2674
4 4332 6072 6274 5439
4 6345 5540 6072 5526
4 6315 6210 1537 5967
4 4010 5622 3651 5620
4 3651 5000 4271 6210
4 4010 3651 4008 5620
4 3651 3652 1547 5087
4 3967 6169 5055 4653
4 5055 4565 4650 4653
4 5536 3549 5055 4565
4 3964 5055 3549 3965
4 3227 6177 6174 5318
4 6128 4496 5616 5202
4 4496 4500 6128 4806
4 2319 2332 4496 6283
4 5549 5202 6282 4679
4 6282 5175 6080 6079
4 6282 5616 4496 5202
4 5003 5171 6229 5570
4 3514 3166 2553 3167
4 5213 2584 5171 6229
4 2584 5171 6229 5003
4 5232 5003 5651 5570
4 5882 6176 5773 6188
4 5882 5711 6031 6187
4 5882 3586 3587 6188
4 3490 3587 5882 3586
4 3490 3810 5882 6031
4 5735 5882 5711 6031
4 5471 5866 5428 6030
4 5866 5432 5428 5821
4 4670 5162 4151 5161
4 5638 5428 5821 6030
4 3822 3226 3987 3985
4 5471 5865 5813 5228
4 3713 5483 3500 2524
4 5868 6199 6316 5865
4 5471 5866 5865 6021
4 5866 6021 4237 5833
4 5834 5833 6199 5865
4 4438 5866 6021 4237
4 4798 5934 4039 4123
4 5933 4039 5934 5110
4 3881 6061 4798 3880
4 2927 3880 4798 4123
4 6018 3880 5988 4123
4 3881 6018 5787 6236
4 4850 5934 6237 6018
4 5933 6327 5110 4851
4 3190 3193 2660 4924
4 4359 5222 4290 5973
4 5973 4359 5068 4045
4 5222 3726 3806 5973
4 3724 3705 5408 5963
4 3461 3585 3188 2933
4 3635 3581 3808 3245
4 3628 3636 4361 3633
4 3628 3630 3629 3243
4 2935 3631 2933 3630
4 3385 3184 4136 3904
4 3904 3385 3328 3907
4 2677 4207 2681 5375
4 2579 5823 4777 5822
4 3227 4363 4929 6063
4 4607 4610 4612 6110
4 3227 6177 4363 6174
4 4798 6182 5934 6061
4 6181 5793 6129 6243
4 2957 5219 5881 2956
4 6181 6233 6321 4283
4 3167 6181 5793 6129
4 4767 5099 6333 4061
4 5099 5215 6333 4061
4 6333 6203 5000 6210
4 5000 6210 5622 6333
4 6177 6082 6339 6081
4 4767 6333 6203 5000
4 2921 2332 2922 2919
4 6059 6150 2921 6132
4 6059 2922 6150 5654
4 3986 4533 6027 4300
4 3986 3988 4533 4532
4 3983 3988 6265 4315
4 3984 3986 4532 3988
4 3985 6256 6051 6028
4 6104 5686 5541 4214
4 2645 5686 5687 5463
4 6104 5541 5686 5463
4 3028 2683 6072 5125
4 6345 5251 5544 6340
4 3343 6219 5921 5920
4 5921 6219 5179 6220
4 3343 5159 5921 6219
4 5921 6220 5181 6235
4 5921 6219 5159 5179
4 5230 5864 5921 5767
4 2503 2504 1793 5317
4 4430 6082 6177 5318
4 3009 6071 4841 2502
4 6265 6071 4841 3009
4 2504 5317 4212 1784
4 4212 2504 3009 5317
4 2504 3009 6265 4212
4 5572 4287 4613 3677
4 3286 3502 3503 3504
4 3103 3503 3301 3233
4 2907 3049 2655 3100
4 6177 5318 6081 6174
4 4635 4706 3050 5607
4 5572 5628 4140 5597
4 5440 3972 4424 6267
4 4569 3894 288 3976
4 3972 3976 4424 4429
4 5365 5762 4836 4303
4 4568 5762 5365 5440
4 3769 3672 3915 3914
4 2455 2456 2210 2466
4 2588 2593 2457 3340
4 3167 3166 4001 6153
4 3148 2283 2236 3672
4 6181 6244 4001 5974
4 4001 6153 5892 6244
4 2455 2207 2453 2464
4 2981 2987 2990 2989
4 3803 4947 4953 3115
4 6183 4975 3891 5001
4 6183 3803 6303 6185
4 6183 6197 4975 4227
4 6183 5001 3891 6184
4 3803 6197 3115 3116
4 3803 3116 3115 4953
4 3792 5684 3791 3793
4 3792 3124 4784 4760
4 3792 4159 3793 4158
4 3792 3124 4760 4158
4 3792 4917 5701 4840
4 3792 4917 4840 4784
4 3593 3592 3925 4820
4 5738 4820 4262 3925
4 5900 3591 3622 6098
4 5883 6156 5884 5777
4 3227 6177 4430 5028
4 3925 3919 2852 2851
4 2386 2615 3364 2616
4 3591 4165 6156 5777
4 6084 5559 5870 6179
4 3904 2579 2578 4409
4 2498 4680 3537 3539
4 6084 3180 3384 3540
4 4990 3907 4224 4226
4 5870 6279 5508 4489
4 5558 5870 4668 4566
4 5558 3539 3537 4680
4 3249 5392 6308 4847
4 5948 6308 5950 5875
4 4997 3520 3481 3575
4 3072 2370 3195 3734
4 2659 2661 2287 2662
4 3074 4591 5627 6129
4 2247 2251 2695 2536
4 3368 2887 3447 3417
4 2914 2550 2926 2874
4 3223 4290 3418 3446
4 2871 2889 4358 3386
4 3448 5973 5222 5068
4 4591 5795 3856 6337
4 5828 3200 5084 4166
4 4166 5828 577 586
4 4166 5102 577 5103
4 4166 578 5102 3206
4 4166 5084 587 3196
4 4070 2834 3903 4092
4 3500 5483 5482 2524
4 4053 2618 2625 2619
4 2311 3078 3828 3080
4 4414 4558 4537 3828
4 4415 4730 5979 4753
4 3289 4542 4543 4414
4 5390 4181 4415 4753
4 4339 4260 505 496
4 4339 3630 4260 3585
4 4339 505 4976 514
4 4339 4976 513 514
4 4339 4893 4260 496
4 3634 4248 3631 4339
4 5948 5875 5950 5404
4 495 4893 4248 4339
4 4339 3630 3243 4976
4 3966 5669 5877 5781
4 3895 4606 5293 5287
4 3249 5938 4847 4849
4 3895 4624 4352 5293
4 5323 4600 5287 5748
4 3952 3955 4016 3953
4 4016 737 4018 3953
4 5361 3953 3798 4018
4 4209 3472 4448 3957
4 3512 3395 5107 3505
4 3890 3441 3799 3973
4 5108 5107 4508 5515
4 5107 3395 3506 3505
4 4453 4508 3506 5467
4 5523 792 5535 5532
4 4441 5870 4436 6179
4 3373 4207 3920 5537
4 2642 4412 2644 5261
4 4556 334 4513 6078
4 4556 4495 343 334
4 4556 4531 5330 4513
4 4556 4583 343 4495
4 4556 5330 4210 5290
4 4556 5330 4531 4210
4 4324 4409 5330 4677
4 3895 5287 3589 4606
4 4352 4624 5788 5293
4 4353 4352 5293 5287
4 2718 3326 2570 2716
4 3058 2996 5287 5801
4 5287 2996 4561 5801
4 5669 4723 4534 4626
4 3963 3966 5669 3965
4 2863 2865 2716 4775
4 2757 3967 5055 3968
4 3968 2757 4795 5055
4 4219 4681 4680 4220
4 5141 4895 4219 4680
4 4219 4221 4579 4647
4 2310 2311 2312 3079
4 4327 2312 2310 4995
4 3832 3083 2312 3080
4 3080 2312 3832 3829
4 4895 4579 4220 4580
4 2512 4651 4546 5142
4 2511 5142 5145 5141
4 5907 4846 2883 4849
4 3989 4536 4546 4537
4 6308 3249 5948 5392
4 2485 5305 2486 5652
4 2324 3168 3169 3374
4 2485 2424 2527 2519
4 4643 4718 4644 2311
4 2978 2979 3168 3624
4 2329 2982 5705 4499
4 3367 3898 4331 3897
4 3038 4593 3040 3094
4 5726 6287 3771 5731
4 3796 4819 4262 3771
4 1132 5392 1133 5938
4 5938 5941 1133 1124
4 6287 5738 5758 1980
4 6287 4262 5738 4820
4 5726 1963 4897 1972
4 4861 4862 5588 478
4 4861 4862 5590 5588
4 4861 5301 4814 4833
4 4861 5301 5588 5590
4 4861 5588 4255 478
4 4861 4833 4796 5301
4 2985 6105 6076 4888
4 5948 5404 1134 5941
4 2476 2483 2482 4233
4 4007 5410 4886 5087
4 4227 5082 5001 6183
4 5941 4846 5938 5948
4 5082 5855 4120 3850
4 6183 6184 4967 5082
4 6184 6175 3893 6185
4 6183 6185 3891 3803
4 6183 6185 4968 4967
4 2711 2848 2857 3529
4 4351 5820 5745 6204
4 5820 6204 4351 5545
4 2755 2239 1541 5060
4 2725 5091 5820 5545
4 4786 5539 5802 4560
4 2725 4351 2726 2727
4 2707 2606 2727 2748
4 3038 3094 3040 3039
4 4173 4175 3094 4176
4 4376 6157 4330 5713
4 4375 4376 3093 3946
4 4376 3948 6326 3949
4 3094 4788 4026 4783
4 3040 3039 3094 4176
4 2264 3274 3217 2265
4 3094 4593 3402 4026
4 3875 4919 4997 4998
4 3477 3210 3481 5680
4 3875 3496 3520 3871
4 2299 2806 3335 3492
4 2391 3584 3215 2936
4 5690 6014 3362 3125
4 3354 3852 3173 3496
4 5941 5975 1124 4846
4 4997 4998 4939 4344
4 4903 3876 4904 4906
4 2927 2916 2926 5460
4 2550 3881 3882 3879
4 5131 1630 2925 1629
4 5133 1629 5131 5460
4 5460 1629 5131 2925
4 5105 5460 1638 5190
4 2924 4048 3620 5131
4 3995 3837 2913 3993
4 3995 2895 2559 3996
4 3994 5843 5919 3993
4 3996 2895 5077 2913
4 6200 4389 5876 5879
4 3996 5469 5896 5161
4 2559 5161 3996 2895
4 5430 3155 4450 5757
4 5162 2893 4713 5874
4 2948 3198 3958 3203
4 4713 5433 5431 5874
4 2946 5666 4122 1026
4 3111 2242 2764 4470
4 5195 5329 5904 2663
4 6199 6200 4154 6024
4 2659 3761 3762 2660
4 2665 5197 4421 5195
4 5195 6332 5348 5308
4 5195 5348 6332 4396
4 5195 2878 5894 5328
4 5309 5197 4421 5248
4 5197 4421 5248 5239
4 5372 4258 4257 5279
4 3486 4257 4634 5998
4 4257 4634 5998 5280
4 5280 4634 5279 4256
4 5280 4634 4256 4257
4 5280 5372 5385 5299
4 4634 5998 5342 4627
4 5766 6038 4416 5764
4 5365 4417 5366 5764
4 5765 5972 6040 4463
4 4568 5416 3527 3939
4 5365 4066 5366 4417
4 6045 5766 5972 6054
4 5766 6045 4119 6054
4 5766 5418 4119 6045
4 3025 3031 3053 3910
4 3178 4576 3452 5477
4 4136 4137 3179 6179
4 2760 3180 3382 3385
4 3056 4412 3482 3908
4 4138 4137 4136 4471
4 3179 3920 6179 5532
4 3912 4666 4471 4037
4 4138 4478 4486 4477
4 5547 802 5535 793
4 3182 5535 5547 5537
4 5547 802 5522 5537
4 5547 5561 5522 803
4 5126 5375 3373 5522
4 5298 4025 4023 4024
4 3483 882 4965 3380
4 3483 4965 882 883
4 3483 5658 4965 883
4 3379 2519 3483 4289
4 3375 3483 4965 3380
4 4289 4231 3379 2517
4 4291 3483 873 865
4 5652 3483 865 874
4 6282 6120 6283 5174
4 6282 6283 6080 5174
4 6282 4496 5624 6283
4 6282 6120 2319 6283
4 6282 2319 4679 5202
4 2982 3168 3570 4499
4 2320 2321 2322 2323
4 2982 3168 2979 3570
4 2977 2982 3168 2979
4 3828 3080 3827 2311
4 2493 3379 2424 2519
4 2446 2272 2432 2448
4 2322 3764 2321 2319
4 2441 3169 2798 3374
4 5075 5038 5489 5037
4 5038 5665 5049 5010
4 5038 5665 5490 5049
4 5487 5038 5037 5489
4 5018 5038 3819 5485
4 3199 5067 3198 3196
4 5018 3479 5075 3480
4 5018 5075 5038 5489
4 5018 3479 5488 5019
4 5010 3565 5011 5038
4 3462 3464 3189 5042
4 3460 2301 3189 3062
4 3006 5588 4894 4246
4 4921 5589 3007 3006
4 3189 3188 3005 3007
4 3584 4894 3006 5589
4 5587 3946 3094 4774
4 4894 3585 3584 3006
4 3356 3125 5150 3355
4 2853 3133 3122 3120
4 3163 6014 4903 3637
4 2364 2634 2365 3125
4 3230 3550 3923 5150
4 2392 3188 2300 3189
4 2362 2227 3122 2366
4 5538 5850 6200 4389
4 5726 1971 6287 5731
4 5726 6287 4819 3771
4 5726 1954 5667 1963
4 5726 6287 1971 1972
4 5782 6306 4516 4945
4 5782 4516 5784 5483
4 5782 5483 4946 4516
4 4083 5775 5782 6162
4 2892 1036 5431 1045
4 2892 1036 5090 5874
4 2892 5431 6313 1045
4 2892 5077 1045 6313
4 2892 2893 5874 5090
4 5856 5839 5896 1054
4 5856 5896 5077 1054
4 5856 5077 6313 1045
4 5856 1045 5431 1046
4 4150 5856 5839 5896
4 5271 2897 2876 3388
4 3388 3386 5791 2897
4 3388 6251 3387 4184
4 5887 3870 4184 5271
4 3870 4184 5271 3388
4 6019 3386 5791 3388
4 3388 6251 5995 6019
4 3340 3339 5971 2989
4 3886 6064 5920 5922
4 5971 5898 2987 2989
4 5922 3343 5921 5920
4 5923 6226 3237 3619
4 2476 2481 2477 2482
4 4385 5889 5857 5936
4 6200 4389 5859 5876
4 5857 5203 1082 5409
4 5857 5409 4384 5203
4 4385 5983 5203 3915
4 5857 5936 1072 1081
4 6200 5879 4703 4389
4 4686 5041 4470 5040
4 2877 2776 3869 4589
4 2877 3869 3868 3870
4 4304 5367 4298 5335
4 4589 4915 6253 4185
4 4295 5585 5344 5288
4 3485 4304 4627 4298
4 2542 5405 2881 5344
4 3721 3414 3068 3415
4 2630 5891 4464 3312
4 3514 6153 3167 6129
4 2279 2782 5020 5441
4 3858 3855 3900 2178
4 3858 2168 3728 3717
4 2959 4000 5974 4001
4 3854 3900 5222 3726
4 3858 3717 2169 2168
4 3726 3729 3728 3900
4 3698 4204 6328 5947
4 6328 3727 5947 4657
4 5470 4825 2820 3864
4 3854 3332 4036 3855
4 3854 4036 5222 3900
4 5471 6021 5865 5228
4 5471 6030 5865 5866
4 3972 4429 6267 4380
4 4569 3976 3972 3975
4 3972 4567 3973 6266
4 3022 3373 3181 3182
4 5440 6267 4424 4405
4 3009 4212 5318 3983
4 3009 6265 4212 3983
4 3822 3983 3986 3988
4 4363 4929 5028 3227
4 4409 5330 4495 5290
4 6089 1873 4145 1874
4 6089 4281 4282 1873
4 6089 1874 4145 4147
4 6089 4280 4281 1882
4 4741 6089 4062 4742
4 6340 6104 5513 5554
4 6340 5513 6104 5496
4 3028 3030 5261 5251
4 6070 2642 5261 4631
4 3030 6340 3027 6104
4 6345 6274 6072 5528
4 6127 1882 4281 4280
4 4741 6127 1882 1891
4 4277 6127 4281 4280
4 6127 1891 6117 1890
4 4280 4780 4277 6127
4 4277 5569 6127 4780
4 6127 4780 5569 3504
4 4375 3464 4378 5043
4 4378 4858 4377 4864
4 3948 4864 4377 6142
4 4774 4783 3946 3094
4 4376 3949 5518 3946
4 6142 4376 5713 4377
4 6326 4376 5713 6142
4 4376 4330 6326 5713
4 4377 3948 6142 4376
4 3946 4698 5043 5712
4 6326 6143 6142 5713
4 4677 5330 5370 6331
4 4940 1504 6342 1513
4 4940 1504 4251 6342
4 4940 1513 5744 1512
4 2946 2893 2894 5090
4 3565 5809 4122 5010
4 5485 5019 3205 3819
4 4122 5809 1009 1008
4 4450 4122 1009 1018
4 4122 5809 1008 5010
4 4444 4445 4515 5805
4 3713 3154 4482 3714
4 3577 5420 4445 3576
4 4514 4515 4517 4481
4 5483 2524 3713 4516
4 4445 4515 5805 5120
4 3566 5168 3693 2483
4 3566 5168 2483 3129
4 3860 3861 3566 3129
4 5138 3859 2080 3861
4 6319 3859 3860 2089
4 3566 3142 3863 2215
4 5909 3859 4826 4825
4 3338 5070 3345 5139
4 2705 2335 3175 2337
4 3336 3342 3345 3344
4 5205 5920 5114 5187
4 3339 2989 6222 5187
4 3338 4197 5849 6222
4 3904 4677 3911 3905
4 4892 5796 3643 5046
4 3510 5702 4923 4892
4 3590 4677 5330 5370
4 4260 6085 4948 5796
4 4937 5702 4923 3510
4 3315 3642 3316 3637
4 2307 2313 2724 2308
4 4179 5714 5796 4893
4 5714 5796 4893 4260
4 5020 5442 2870 5355
4 2870 5442 4915 3387
4 4915 3387 6010 4185
4 4185 5986 4589 3870
4 4295 4292 2777 2778
4 2503 1801 4400 1792
4 2503 2740 6336 1801
4 3823 4433 2503 5341
4 4433 5319 2503 4400
4 3429 3428 4480 5468
4 3429 3956 3955 3428
4 2305 4412 2643 2642
4 3431 4032 4016 3429
4 4016 4079 3429 4032
4 4016 3956 3429 4079
4 4461 3429 3427 3428
4 2498 2501 3536 3538
4 5870 4566 4539 4563
4 4566 5870 4539 5558
4 3537 5558 4587 4539
4 3536 4990 3382 3385
4 5559 5870 5508 4688
4 5559 3540 4236 3920
4 6345 5251 6340 3029
4 5261 5251 6340 5509
4 5540 5554 5472 6345
4 3020 2682 3031 3029
4 5251 6072 6274 4332
4 5251 6340 5509 5544
4 5622 6333 4061 5000
4 4057 5623 5622 5620
4 5622 3651 6210 5000
4 6315 5622 6210 5967
4 5622 6310 6333 5967
4 6315 3651 1537 6210
4 6315 5098 3651 5620
4 6315 1536 6314 5967
4 2358 4142 3107 3083
4 5396 4337 1387 1396
4 3109 1379 4142 1388
4 3109 1379 6108 4142
4 6107 3108 1378 6108
4 6107 3608 1368 6116
4 4263 1900 5630 1909
4 5630 1909 6147 6334
4 5630 5581 1900 5631
4 5630 5581 6128 1901
4 5630 6128 4499 4806
4 5630 4806 4499 6147
4 2611 2388 2612 2614
4 2612 2613 4898 4883
4 5962 3659 2612 3653
4 3653 5501 6160 6161
4 4827 2613 3653 4883
4 5501 6032 3653 4972
4 4809 5483 3500 5420
4 3361 3843 3852 3501
4 3493 3459 3981 3335
4 3843 4169 5782 5483
4 3361 3852 3843 3358
4 4083 5782 5783 5784
4 3422 4003 3138 3421
4 3842 4169 4259 3843
4 5259 3757 3758 6039
4 3757 6042 6039 4097
4 3426 3758 3757 6042
4 3238 4438 4669 5471
4 5227 5228 6024 6021
4 4154 6200 6202 4703
4 4669 5432 5866 4438
4 4151 5856 5431 4237
4 4150 5856 4151 5841
4 4727 3152 3313 2674
4 4670 4151 5162 4713
4 4669 5432 5428 5866
4 4151 4713 5431 5874
4 6293 5407 5256 5255
4 3757 6042 4097 6043
4 4387 4384 4388 5407
4 3840 2562 5469 4156
4 4393 4703 5879 4389
4 6293 6317 4389 5878
4 4388 5256 6293 5407
4 4153 3239 5089 4154
4 4388 6293 5256 5646
4 3725 5068 5066 4045
4 3724 5973 4045 5408
4 3724 5973 5408 3806
4 3247 4848 2929 3253
4 3706 3725 4022 5924
4 3724 5973 3806 3726
4 3721 3724 3705 3726
4 4021 5875 5404 5959
4 5895 2879 5265 5269
4 5309 5195 5197 2878
4 3139 4078 5051 5484
4 6070 6104 2647 5686
4 2303 4412 3056 2644
4 2568 3752 5500 3353
4 4398 4716 3750 6075
4 3552 4134 1288 1279
4 3552 4509 1270 5503
4 3552 1278 5503 1269
4 3552 5503 1270 1269
4 4527 3312 3671 4530
4 3071 5997 6318 5627
4 4527 3069 3734 4529
4 3071 6318 5892 5627
4 6307 5927 6293 4530
4 2631 2630 3312 3519
4 6307 5862 6293 5927
4 3897 5961 3933 6136
4 3934 2918 5653 5721
4 3257 3256 3625 3627
4 2735 3257 3934 5721
4 3438 4471 4486 4476
4 6135 5525 5520 6145
4 2919 5525 3933 6059
4 5525 6137 6135 3933
4 2305 3333 2642 4410
4 6070 6340 6104 5496
4 3056 5261 4412 5167
4 6070 6340 5496 5509
4 6070 5496 2645 4631
4 3030 4078 6104 3027
4 3030 6340 5261 5251
4 6256 6029 4315 1777
4 6256 3983 6174 6050
4 4486 3438 4478 4471
4 6029 3986 6028 6256
4 3985 6256 6028 3986
4 1690 6051 6028 3517
4 3983 4315 1777 6256
4 6265 3983 4315 1777
4 6042 4099 5466 4098
4 6042 4098 5454 6039
4 6042 3755 5466 4452
4 3801 4361 3636 6341
4 3635 3636 3801 4361
4 3245 3802 3636 3115
4 3984 3987 3555 6065
4 4300 4532 3987 3986
4 3427 4461 3438 4458
4 3822 3987 3984 3986
4 3008 3822 3983 3227
4 3002 3555 3984 3987
4 3438 3428 4476 4461
4 3984 6065 3555 5817
4 3984 5817 3556 5401
4 3424 5259 3942 3709
4 5119 3758 5117 5122
4 5119 3711 5116 3758
4 3757 3758 6039 6042
4 3758 4103 5116 5451
4 2385 2699 2496 2866
4 2509 2508 3990 2512
4 5532 5559 3920 6179
4 5559 3537 3539 6084
4 3181 3373 4207 3920
4 3536 4990 4224 4225
4 5733 4602 5758 3773
4 6230 6288 5715 6291
4 3427 4458 3438 3437
4 3773 3280 3645 5978
4 3809 3835 3776 4245
4 6215 6303 4968 6191
4 3835 3776 4245 5008
4 6215 3803 6185 6303
4 3244 3803 6303 3115
4 6193 5803 3835 6342
4 4059 6101 4061 4058
4 3087 4767 5000 3749
4 3777 6101 3498 4808
4 3777 4950 6101 5724
4 5837 2054 6205 5216
4 3085 2726 2750 2238
4 3089 3086 3090 5742
4 5837 6206 2054 5216
4 3319 5798 5796 3584
4 5710 4901 5727 5647
4 3584 4260 5796 6085
4 3954 6294 4488 4037
4 5798 4894 3584 5589
4 3014 3641 3215 3015
4 3438 4471 6294 4037
4 3856 4297 5795 4056
4 2891 3365 4056 5790
4 3998 2891 2887 3365
4 2891 3856 4056 3365
4 3068 3853 3448 3721
4 3856 3854 3855 3332
4 4121 3587 3982 6176
4 5611 5614 4484 5917
4 3982 3587 6188 6176
4 5334 3982 3587 6188
4 5761 5807 6188 5334
4 5807 6163 6172 3586
4 3954 3438 6294 4037
4 2841 3458 3811 3982
4 3458 5917 5611 4484
4 5611 5917 6207 5614
4 2694 3415 3414 3696
4 3696 4276 3722 3695
4 3618 3543 2973 3237
4 3998 2891 3365 3856
4 5816 5959 4022 5277
4 4021 4581 5283 5875
4 3190 3194 2694 3192
4 3270 900 3271 4867
4 5727 5728 6077 5710
4 3406 3378 3123 4778
4 3270 3273 4866 3271
4 2487 5674 3999 4965
4 3999 3376 4965 891
4 2623 4809 3500 5420
4 4808 4070 3903 3487
4 3476 3335 3571 3981
4 3210 3931 3929 5680
4 5420 3576 3491 3883
4 4954 3090 5742 5746
4 3154 2261 2259 2759
4 2606 2711 3533 2712
4 2294 3528 3838 3533
4 3475 3520 3501 3491
4 2818 2559 2960 5161
4 3989 4546 3770 4415
4 4414 4537 4724 4542
4 4231 2514 3770 4415
4 4752 4579 4651 4652
4 2516 2905 3035 4474
4 3770 4231 4732 4279
4 4752 4732 4231 5979
4 4263 1900 6117 5631
4 4263 5630 1900 5631
4 4263 3503 6117 1899
4 4263 6334 5630 5631
4 4263 1909 3569 1908
4 3798 3470 3471 5361
4 4018 3953 737 5447
4 4017 736 4079 735
4 4018 5515 5462 4031
4 5108 4459 4031 4032
4 5219 5881 2956 4347
4 4016 745 4079 736
4 5108 4018 5515 4508
4 3798 5902 4508 5436
4 5361 5446 3953 5447
4 5108 3890 3435 3798
4 5361 3787 4508 5902
4 5361 3953 5446 4511
4 4018 5361 3787 4508
4 4436 4471 4137 6298
4 2583 3170 4766 5128
4 4050 6323 5128 2585
4 3907 4224 4524 4435
4 5823 5822 3907 6093
4 3907 6093 5822 4495
4 5108 4018 4031 5515
4 3798 4508 5108 5107
4 4017 728 4404 4018
4 727 4017 728 4404
4 4606 3596 5330 4210
4 3589 4606 3596 5330
4 4551 3895 5286 5290
4 5286 4630 5669 4604
4 3895 4538 4606 4551
4 4606 5293 4555 4538
4 4606 4555 5293 4600
4 4606 5287 4600 5293
4 4028 4027 4354 4029
4 3544 3553 5267 3546
4 4294 4089 3612 4027
4 2471 3908 3909 5266
4 3909 3908 6277 5266
4 2768 2901 3370 2903
4 4412 5595 3909 6277
4 4412 3909 5595 4573
4 2715 4775 4578 3821
4 4695 4535 4621 4678
4 4537 407 4542 4790
4 4695 4678 4659 4535
4 4790 407 4542 406
4 4704 397 4695 406
4 4695 4659 397 6119
4 4285 1864 6099 5608
4 1873 4285 4145 1864
4 4285 6099 4144 4019
4 4285 4281 1873 4282
4 4285 4145 1864 5608
4 4285 4145 4282 1873
4 4285 4281 4286 1872
4 4546 4579 4660 5142
4 4536 4660 5145 5142
4 4752 4546 5568 4415
4 5219 5128 5933 6280
4 4537 4546 4415 4621
4 3042 4594 3044 2310
4 3765 4337 3764 5396
4 5519 5976 3044 4594
4 5313 3044 4995 5395
4 5976 4038 4690 5313
4 5395 5313 4749 6121
4 4592 3043 3079 2310
4 5219 5933 6182 6325
4 3919 5756 4602 5750
4 3550 6186 4602 5756
4 4602 6288 5733 6300
4 4602 5733 6288 3773
4 4602 6186 5741 5756
4 3279 3283 6288 4602
4 3283 6288 5741 5737
4 4874 1441 4898 6151
4 4874 4801 6164 5661
4 3463 6002 4117 2614
4 4093 3463 3461 3462
4 2482 3613 5002 3691
4 2481 3691 2482 2483
4 3694 3613 3691 5806
4 3614 3613 5002 2482
4 2987 5898 5923 6320
4 2482 6211 2483 3691
4 6230 5715 5704 5706
4 6230 5706 4800 6291
4 6158 5978 6230 3645
4 3522 559 5013 558
4 558 5013 3522 3839
4 4930 4963 3521 541
4 5219 4347 2956 6280
4 3478 4163 3522 3521
4 2292 2291 3522 3839
4 2605 2346 2345 2622
4 3522 5013 4163 2292
4 4930 3804 3522 3523
4 4173 4176 3094 3039
4 4921 5588 4175 5301
4 5587 3094 4173 4175
4 4173 4176 3039 4174
4 3095 4173 3094 3039
4 3039 3095 3885 3567
4 5736 3641 3640 5685
4 4963 3930 3929 4964
4 3508 3930 4931 4932
4 4312 4344 4311 4903
4 3477 3480 4126 5680
4 2365 3163 3637 6014
4 4308 5680 4978 4983
4 3929 3707 4308 4964
4 4308 5680 4964 4978
4 5030 4171 4983 4977
4 5753 5768 5752 6232
4 5241 6232 4274 5240
4 3994 4506 5919 4507
4 3994 3996 3995 4502
4 3977 2963 5092 5144
4 2960 3837 2911 2895
4 3730 3675 4502 3674
4 4438 3239 5228 5471
4 3977 5078 3836 5144
4 3135 4985 3836 4506
4 3837 2912 3993 3958
4 5493 3851 2523 5830
4 3851 5848 4482 5165
4 3746 4052 2625 3749
4 3714 5471 5814 5848
4 5829 5831 5493 5449
4 5197 5895 2878 2879
4 2880 4422 4394 5197
4 2880 2879 5269 5265
4 5197 4421 5239 4422
4 5288 685 3655 4203
4 5288 676 3655 685
4 5295 676 5288 675
4 5288 5289 5155 675
4 5450 5124 4447 5116
4 5118 4253 5450 4254
4 5118 1714 5419 5422
4 5124 5310 5337 4406
4 5116 5118 5450 5124
4 3981 3587 5334 3982
4 3420 3710 3424 3711
4 3816 4834 5801 3817
4 4834 3817 1298 5801
4 4834 1289 4134 4552
4 3477 2349 3481 3210
4 2420 4731 3551 5398
4 4834 3817 1297 1298
4 4696 5548 3293 5412
4 3299 5511 5548 3293
4 3349 5548 1314 1315
4 5268 4573 5267 1838
4 5268 3909 4573 6277
4 1837 5268 4573 6277
4 3931 4964 3929 5680
4 5268 5266 1846 4088
4 3909 5268 5263 5266
4 4088 5263 4089 6092
4 2485 5652 3483 2519
4 5652 3483 874 5658
4 5652 3606 5658 875
4 2745 2747 2488 2980
4 5652 3483 2519 4291
4 2486 5658 5652 3606
4 5652 866 5305 4700
4 2486 3670 5652 4700
4 5632 3378 4778 3123
4 5632 4917 4785 5621
4 5618 4765 4645 5632
4 5632 3378 3381 4778
4 5632 3381 5618 4778
4 5632 3580 4917 3123
4 3790 3346 3097 3098
4 3346 3794 4866 3213
4 4344 3875 3876 4903
4 4921 3885 3348 5301
4 2975 2490 2805 2977
4 2743 3272 901 902
4 5019 5488 4994 4126
4 5019 5485 3205 4168
4 3162 3163 3902 4903
4 3464 5042 5047 5043
4 5587 4821 4255 4774
4 5042 5394 4863 4247
4 6299 4910 4918 4911
4 4378 5043 5712 3948
4 3924 3923 3918 3922
4 3923 6186 5756 5755
4 3923 3921 6165 3924
4 2298 2220 2387 2296
4 4312 4903 3875 4344
4 3641 5685 3017 3640
4 3126 3466 3550 5150
4 3919 4601 4602 3550
4 3230 5150 3923 3921
4 3623 2621 4577 4984
4 3644 3867 2621 3645
4 3867 2621 5682 6330
4 3867 5682 4341 6330
4 3280 6158 3644 3645
4 4560 5539 5803 3835
4 6215 6192 5803 6191
4 3495 2820 5829 4825
4 6193 5803 6191 3835
4 6204 5802 5745 4351
4 5803 6204 1514 5058
4 5803 6204 5802 1513
4 5919 5846 5072 5154
4 5919 5072 5188 5154
4 3994 5919 3836 3993
4 3519 5207 5223 4701
4 2208 2209 2214 3143
4 4727 4156 5890 4505
4 4385 5857 5889 5406
4 5857 5406 1072 5889
4 4385 5203 5983 5936
4 5888 1081 5235 5936
4 5888 5203 5936 5983
4 5888 1090 5203 5983
4 5888 5912 1090 5983
4 5842 5888 5235 5936
4 4798 6182 5128 5934
4 6018 4123 4798 3880
4 6181 5793 4283 5942
4 2553 3167 2552 2548
4 5129 4798 5132 5133
4 4924 2660 3913 5840
4 5845 5203 1090 5983
4 5845 5912 5983 1090
4 3913 3916 4924 5840
4 5845 5203 5983 3915
4 2877 2776 4589 2875
4 4591 6337 3856 3067
4 2552 5793 4591 6129
4 4591 6243 5793 6337
4 4591 6129 6243 5627
4 3072 3734 2342 2370
4 2835 3520 3496 3501
4 5980 2134 6290 5208
4 5980 2134 5208 2143
4 5891 5980 6290 5208
4 5980 2143 5208 6244
4 5980 5946 6247 2142
4 5980 5892 6244 5208
4 3902 3163 4906 4903
4 6308 5811 5950 5875
4 3252 5811 5875 3743
4 3247 3249 4849 2883
4 3249 3252 3251 6308
4 5440 4569 5762 6053
4 4449 5510 6053 5762
4 2646 2645 4410 2642
4 5440 4569 6053 4424
4 4569 3972 3976 4424
4 4569 4424 288 6053
4 3139 4215 3756 6344
4 3702 3985 5480 3987
4 3985 6256 3986 3983
4 3822 3985 3986 3983
4 2640 4003 4006 3788
4 3985 3986 4299 3987
4 4741 5581 4779 1891
4 4741 6127 4779 4280
4 4741 6127 4280 1882
4 4741 6089 1882 4280
4 2766 4955 4062 2902
4 4741 4740 4336 4742
4 6345 6340 5554 3027
4 6345 5526 6072 3029
4 6345 6340 5544 5554
4 6345 5544 5251 6274
4 5516 2510 5517 4711
4 2510 2500 3700 3540
4 2510 4682 4680 4711
4 2510 3540 6343 5517
4 5580 2510 4682 4272
4 3700 6343 3540 3920
4 3920 3700 3384 3540
4 2498 6084 3540 3539
4 2496 3384 4207 3700
4 3078 3828 2354 3292
4 3110 3764 2322 3766
4 2640 2647 4078 3139
4 2325 3174 2330 2321
4 3406 3098 3123 3099
4 3049 3100 3286 3285
4 5519 4595 4593 4788
4 5519 4594 4595 4761
4 5519 6326 4761 3949
4 3042 3044 5519 4330
4 3265 3268 2268 3266
4 3038 3093 5518 3094
4 5518 3949 5519 4783
4 6193 5008 1495 6295
4 6193 5803 1504 1505
4 6193 6295 4251 6342
4 5430 4713 3155 5757
4 2966 2948 2946 2911
4 3422 4005 4003 3421
4 5430 1028 4450 5429
4 4444 4446 4445 5805
4 4445 4515 5120 5483
4 5483 5784 5482 4516
4 3030 6104 6070 6340
4 3713 4516 4515 5483
4 2607 2610 2608 2598
4 2840 3229 3457 4988
4 4520 5482 6311 5784
4 4520 4516 2524 5482
4 2649 6043 5687 5686
4 5865 6030 5812 5838
4 5865 6030 5814 5812
4 5865 5813 5228 6316
4 5867 5865 5868 6316
4 5865 5821 5866 6030
4 5471 5865 6030 5814
4 4438 6021 5471 5228
4 5088 3239 6216 5228
4 3693 3140 2481 3691
4 3142 3140 2481 3693
4 3337 5070 3338 2953
4 2984 4198 6105 4196
4 3140 3694 2775 2481
4 2984 4196 6105 4887
4 3303 2704 2732 3621
4 2952 3338 2989 4198
4 6324 6013 6332 4396
4 6324 5349 4501 6012
4 6324 6332 5243 5546
4 6324 6332 6013 5236
4 6324 6332 5348 4396
4 2957 6231 6233 5881
4 6233 5208 2134 2143
4 6181 6233 6244 5974
4 6181 4001 6244 6153
4 2483 2216 2481 3142
4 4388 4393 6293 4389
4 6293 4393 5927 5878
4 4386 5927 6293 4393
4 4528 5297 4530 5913
4 2649 5686 3139 6043
4 4003 5016 3756 4006
4 4412 2642 5595 5261
4 3888 3954 3456 4037
4 2403 3888 3453 3912
4 3525 3524 4836 3527
4 3025 3372 3022 3026
4 3423 2648 2646 3013
4 2402 2398 2400 2970
4 3423 2648 3138 2649
4 5669 4624 4723 5781
4 3712 3473 5337 4511
4 2649 3139 3756 6043
4 4624 4625 5293 4554
4 5286 4624 3895 4538
4 5687 4044 4400 6336
4 4624 5293 4538 4554
4 3710 5119 5124 5123
4 3710 5436 5123 5337
4 3711 3758 3753 5116
4 3394 3399 3391 3703
4 3712 5116 3753 5327
4 5119 3940 3398 3710
4 5123 5118 5419 5422
4 4020 4282 4063 4124
4 2902 4306 3685 4957
4 3680 3689 3278 3682
4 3934 3257 2918 5721
4 5273 3736 4192 2862
4 4192 4775 5530 2865
4 3615 4354 4020 4029
4 3688 3293 3278 5189
4 5511 5189 3293 5184
4 3680 3611 3685 2901
4 4696 5189 3278 3293
4 3964 3549 3548 4799
4 4327 3083 2312 4995
4 3288 3322 4643 3289
4 2309 4644 2311 4720
4 4592 3079 4644 4720
4 3650 4592 4643 3408
4 4643 4718 3289 6284
4 4643 3408 6284 3405
4 3591 5479 6171 6098
4 5900 6031 5479 6032
4 3622 3591 3796 6098
4 3869 6189 6269 5986
4 5900 6032 3658 6031
4 3490 5883 6031 5882
4 5883 3489 3591 5777
4 6137 2741 6122 4969
4 6137 6122 2741 6146
4 6137 2741 2734 6139
4 6137 2731 3933 2734
4 4082 3358 3852 3357
4 4083 6162 3358 4084
4 4082 4083 4086 4092
4 6212 2522 2044 2043
4 6212 2522 6102 2044
4 6212 6312 2522 2043
4 6212 2522 5582 6102
4 6212 2523 2053 5582
4 2987 5923 4049 6320
4 3302 2458 3303 3305
4 3928 4764 2987 4049
4 3444 5338 4756 4781
4 5644 4390 5643 5406
4 6189 5362 4292 4298
4 5406 4384 5857 5645
4 2788 4393 4389 4703
4 2445 2443 2669 3978
4 6189 5363 6269 5991
4 2443 2442 3978 2445
4 6022 3978 2668 2442
4 2442 2445 6249 3978
4 2444 2442 5191 4357
4 2442 1655 4357 3917
4 6022 2442 2668 5791
4 5099 6333 5101 5742
4 4059 5099 4950 5742
4 2619 3498 4059 4058
4 6101 4058 5216 4061
4 5099 4061 5216 5215
4 5724 5100 4950 6101
4 6070 2647 2642 2645
4 6070 5261 5509 4631
4 2645 5687 6335 4044
4 2645 5687 4410 6335
4 2646 2645 5687 4410
4 2645 4044 6335 3826
4 2645 3333 2642 4632
4 4892 3510 3318 5796
4 3875 3361 3496 3871
4 3354 3496 3361 3852
4 3214 2227 3014 3122
4 2365 3125 6014 3133
4 3884 5590 5798 5589
4 5209 6233 2135 5881
4 3622 3489 3593 3591
4 3902 4906 3163 3362
4 3163 4906 4903 6014
4 5933 5934 4039 5128
4 5933 5214 6280 5128
4 5933 6280 4360 6327
4 5219 5933 6325 6280
4 5933 6280 5214 4360
4 3958 2948 5106 5063
4 2619 3497 3500 2626
4 2961 2962 3197 5358
4 3535 2963 3977 5144
4 3198 3958 5063 2948
4 3134 2961 3950 3309
4 2964 6233 5209 5881
4 4789 5656 876 3606
4 3296 5664 3866 3606
4 4789 876 5656 877
4 4789 3296 6208 5677
4 5664 4789 3296 6208
4 3606 4789 3296 5664
4 5877 4611 3737 4675
4 3737 4721 4693 5877
4 5286 3326 3895 4352
4 5877 4694 3966 5781
4 5877 4723 3965 4721
4 5877 4721 4693 4722
4 3898 5660 4331 6144
4 3898 5660 1424 6157
4 3898 4881 3559 4328
4 4805 3897 3896 6136
4 6125 4881 1414 4838
4 2580 2986 4764 5220
4 4807 5918 4484 4808
4 4091 2840 2837 3812
4 3493 3571 3335 3981
4 2834 2842 2833 2837
4 3852 4809 3843 4092
4 4807 5453 2026 5452
4 4070 3499 4092 4810
4 4070 3499 6102 3498
4 2528 2299 2530 2529
4 2945 2939 2941 4560
4 4070 2834 4092 4809
4 3012 4929 3703 3937
4 4015 5505 4509 5503
4 3012 3936 3708 3937
4 4642 4509 6040 4463
4 3012 3226 3011 4929
4 4599 4463 4509 3037
4 3037 4134 4509 4599
4 5365 5416 5765 3527
4 3708 4011 3936 4012
4 6339 3944 5028 4364
4 6339 4364 5028 4363
4 4130 6081 4510 6261
4 6339 3944 5465 5491
4 3742 3227 3011 4430
4 4688 5870 5558 5559
4 5558 3537 3539 5559
4 5559 5870 6179 5508
4 5559 4236 3540 3539
4 5559 6179 5532 5508
4 6084 5870 5559 3537
4 5556 4493 5378 4268
4 5556 2544 4493 4268
4 4294 4492 5378 4493
4 5262 5557 5556 4391
4 3611 3685 2901 2903
4 2344 2294 2350 2293
4 2293 3891 3803 3804
4 2601 3565 3574 3564
4 3723 4947 3804 3803
4 2348 3892 2943 3244
4 2700 2833 2939 3092
4 2291 3804 2293 3522
4 4000 4200 4701 5160
4 4930 3804 2291 3522
4 4930 3522 549 541
4 5930 6308 5951 5943
4 5930 4074 1159 4076
4 5930 5951 6308 4847
4 5209 2134 6290 2125
4 4077 4076 5393 4847
4 5930 6308 5392 4847
4 4385 4727 5406 5889
4 3646 3280 6158 3644
4 3215 5798 3584 5589
4 3137 4506 3135 3836
4 3318 5796 3510 4948
4 3641 5798 3884 5590
4 3715 3721 3858 3854
4 3998 5222 3854 3223
4 3998 3365 2887 3417
4 3853 3067 4591 3856
4 3446 3417 3418 3223
4 3446 3368 3998 2689
4 5222 3721 5973 3448
4 4464 3166 3514 6153
4 2249 3445 2876 3616
4 5332 3571 5346 3807
4 3476 4244 3571 3834
4 4250 5619 4240 3571
4 2636 5332 3493 3810
4 3571 4920 5346 6196
4 3725 4045 3724 5068
4 4727 5890 4156 4155
4 3413 2694 3414 3192
4 3250 4021 5875 4581
4 3413 3725 3411 4022
4 3725 3724 4045 5963
4 5065 3411 5066 3744
4 2746 2747 2745 3866
4 2746 3867 3865 3866
4 901 900 3271 3270
4 3272 3646 2743 3647
4 5674 884 5658 5664
4 5420 3883 3491 3501
4 5420 3501 3842 3883
4 4809 5482 4092 3499
4 4809 3842 3843 5483
4 3852 3843 4809 3501
4 4809 4092 5482 5784
4 4809 5482 5483 5784
4 4537 4621 4415 4724
4 4414 4537 4415 4724
4 3083 2356 2357 2358
4 2406 3370 2768 2765
4 407 4695 4790 4537
4 4537 407 4695 4621
4 4537 4542 4543 4790
4 3195 5847 2370 5749
4 3195 2370 3722 5749
4 3769 4527 3671 3070
4 3064 2342 3071 5627
4 4505 3676 4727 4156
4 4003 4006 4005 5016
4 4004 3788 767 4006
4 3422 4323 4005 3421
4 4004 767 3788 766
4 3392 5031 1711 5029
4 3399 3392 5029 5031
4 3392 5031 1712 1711
4 3392 1712 5031 5461
4 4632 5595 3333 2642
4 3840 4150 4155 5469
4 3909 3482 3544 4412
4 3334 2722 3544 3333
4 2760 3384 3382 3180
4 4412 6277 5261 5595
4 2398 2686 2972 3013
4 4016 4448 3953 3955
4 728 4017 737 4018
4 2591 5178 3583 4689
4 3952 4016 4018 3953
4 4608 6169 4225 4226
4 4608 6169 370 4225
4 4608 370 6169 4653
4 3967 4630 4608 4653
4 4609 360 4608 4604
4 3967 4608 4630 5291
4 4607 5298 2679 4610
4 2676 2682 2697 4023
4 4777 5823 5291 5822
4 3895 4606 4538 5293
4 4029 2471 4025 2380
4 3328 5823 5822 3907
4 3967 6169 4992 5055
4 3328 4990 5823 3907
4 4696 5548 5412 1324
4 4696 3293 5511 5189
4 4696 5511 5548 1323
4 4696 5529 1324 5412
4 4696 3682 1333 5530
4 4719 6284 4718 424
4 4719 6284 424 433
4 4719 4542 424 4718
4 4719 4542 4181 425
4 4719 4181 3289 3405
4 2950 2954 2951 2952
4 4719 4181 3405 4180
4 4264 4593 4595 4788
4 4592 4644 4264 4720
4 4264 442 4644 5703
4 4264 5703 4643 3408
4 4264 3408 4592 4593
4 441 4644 4720 4264
4 2333 2433 3927 3765
4 4639 4337 5521 5639
4 2746 3867 2745 3644
4 3078 4718 4643 2311
4 6125 4639 5520 3896
4 3764 4639 5639 4337
4 6125 1404 4337 1405
4 3279 3282 3121 5978
4 2853 3283 3466 4598
4 3466 5150 6186 3550
4 2665 5197 5195 2878
4 3121 5668 4739 4738
4 3121 4739 3122 4738
4 3550 3466 3283 6186
4 3279 2854 3283 4602
4 3279 4602 6288 3773
4 5683 6346 4884 4812
4 5683 6346 4813 3638
4 5683 4885 5684 4843
4 5683 4880 5684 4885
4 2981 2990 5143 2985
4 5143 5057 5252 6225
4 5143 2985 2990 5057
4 5143 6076 2985 5057
4 2477 5004 3694 6076
4 5837 6212 6102 2044
4 6158 6230 5978 5709
4 5704 3867 6158 4341
4 5837 3487 2044 6102
4 6158 3867 3645 5682
4 5682 4341 6230 6158
4 3646 3644 6158 3867
4 6158 5978 4737 5709
4 2948 2949 5818 3208
4 5818 2948 2947 2949
4 3203 2948 3208 2949
4 5837 5582 6212 2053
4 2948 2912 5148 2894
4 5837 6206 5582 2053
4 2948 3198 3208 5063
4 2911 2912 2948 2894
4 3207 3205 2949 3208
4 3197 5092 5006 3198
4 2912 3203 2963 2911
4 5027 992 1000 991
4 5027 5780 5779 4922
4 5027 6155 999 5809
4 5027 6155 990 999
4 5027 990 5779 991
4 3242 4948 3932 3510
4 2838 2623 3092 2832
4 3520 3491 3883 3501
4 3479 2610 3575 2347
4 3231 3902 3163 3362
4 5585 5155 5242 5752
4 5585 2542 5344 5751
4 2541 4295 5585 2542
4 3017 3016 5710 5727
4 4295 5288 5344 2540
4 3692 5905 5592 4008
4 4057 5623 5592 5593
4 3747 4008 5592 5620
4 5591 4826 5593 5138
4 5591 3142 4826 3863
4 3564 6155 5809 3574
4 3156 3564 4450 4122
4 4450 3564 5810 4122
4 2591 2242 3583 5178
4 3158 3155 3157 5757
4 3157 2893 5757 4713
4 3564 5027 6155 4922
4 3564 4446 5027 4922
4 3162 2367 4903 4310
4 5025 5210 659 5239
4 5025 658 5210 5023
4 5025 4422 5239 5026
4 5025 5172 658 5023
4 5040 5173 648 5172
4 5295 667 5258 5321
4 5295 5322 5321 5344
4 5295 676 5322 5344
4 5295 5288 676 5344
4 5295 5585 5751 5155
4 5295 5155 5751 5254
4 4031 4402 5515 4411
4 4032 5108 3952 4031
4 5415 4407 283 4402
4 5415 4402 4031 4407
4 5415 4032 4459 292
4 3551 5399 5498 3552
4 4309 4307 4343 4308
4 5119 5437 5123 3398
4 3300 3299 5609 3350
4 2997 3524 3662 3598
4 5399 4834 1288 4134
4 5558 3539 4684 4688
4 5558 3537 4587 4622
4 5558 5870 4539 3537
4 4892 4307 5702 5046
4 5262 4391 6092 5557
4 6087 6067 4267 6091
4 5609 6087 3350 6090
4 5045 4307 5514 5046
4 4614 6004 4674 4673
4 4614 3845 3605 4228
4 3847 4614 3605 4030
4 2676 2471 2380 4023
4 4612 4613 4228 4559
4 3846 4277 4286 4019
4 3101 3301 3104 3959
4 3106 3104 4700 3960
4 3106 3047 3105 4700
4 3101 3301 6285 3233
4 4635 3101 3233 3102
4 3040 3408 5703 4593
4 3040 4176 3094 3402
4 2543 3257 2620 3256
4 3650 3408 3040 4593
4 3320 3040 3408 5703
4 3317 5046 5514 4309
4 3320 3040 2448 3408
4 3557 3558 2431 3661
4 3082 3040 4174 3039
4 3272 910 3271 901
4 3272 4736 3273 910
4 3270 4866 3273 3647
4 3383 2592 2671 6250
4 3383 6250 1220 2592
4 3383 3222 2198 3052
4 2198 2190 2189 3222
4 5150 3923 3921 6338
4 3230 2852 3550 2364
4 3126 5150 5152 3466
4 5150 5152 3466 5698
4 5150 3923 6338 6173
4 6302 6032 3659 5501
4 4577 5729 3624 4984
4 5729 6148 1945 5672
4 5689 3624 5729 5730
4 5689 1936 5729 1935
4 6183 3803 3891 4975
4 3891 3803 4987 4975
4 3893 6184 3892 3665
4 3891 3804 4987 3803
4 3804 2293 3522 3523
4 5539 5803 5058 6204
4 6302 6031 5711 6187
4 3091 4786 4560 5539
4 3994 5364 3996 5836
4 4502 5836 3996 4505
4 3994 5919 4506 3836
4 3674 3836 3994 4506
4 3994 3993 5364 5843
4 2468 2234 2589 2588
4 5531 4396 5904 3760
4 5842 4505 5235 5192
4 5842 5192 4507 4505
4 5888 5842 5893 3760
4 4469 4501 5218 4506
4 4726 3760 3151 5842
4 2286 2660 3913 4924
4 3191 4927 5495 5975
4 3762 5845 1099 5912
4 4143 5328 1107 1116
4 3191 5975 1116 1125
4 3194 3192 3191 5282
4 3413 3706 4022 4021
4 6181 6231 6182 6321
4 6302 3659 6031 3810
4 5974 6233 2957 6181
4 6181 5793 5942 6061
4 4697 4798 6061 6182
4 3694 6076 5004 3614
4 2480 2479 5003 4233
4 2479 2956 5003 2584
4 5002 5004 3614 2482
4 5002 4233 5004 2482
4 2583 2956 2479 2584
4 2477 5143 6076 2985
4 2477 6225 5004 6076
4 2477 2986 5220 5143
4 2986 5143 2987 4764
4 4186 695 5371 4127
4 4186 5391 686 4127
4 5350 4186 4848 5306
4 4186 5391 5306 687
4 4186 5391 3253 2882
4 4021 5960 5404 1144
4 4021 4022 5959 5960
4 4021 5959 4022 5875
4 3250 4022 3743 5875
4 6302 5633 6187 5688
4 4021 5282 1135 5283
4 3248 3250 4022 3743
4 2477 2479 2482 5004
4 5206 4530 5891 4386
4 3671 3071 5891 5892
4 6302 6187 5633 6168
4 4000 4001 5208 5974
4 4000 4200 5160 2125
4 4847 3251 5951 6308
4 4849 3253 5306 4848
4 2639 3659 5347 3810
4 2929 4848 3251 4257
4 2929 3251 3252 3443
4 3249 4846 5938 4849
4 4848 5306 4186 3253
4 4848 4186 5371 3253
4 4848 3253 5371 5998
4 6087 3350 6090 6068
4 6087 6068 6090 4131
4 6087 4131 6067 6068
4 3553 6087 5262 6091
4 3659 5347 3810 6168
4 6087 5185 5571 6037
4 6087 5185 5262 5556
4 5533 4571 6270 6056
4 5533 4571 3554 6270
4 5533 3752 3750 3554
4 4541 6056 6273 5533
4 5533 4571 5534 4132
4 4640 3081 3765 3076
4 3084 3109 5625 5396
4 3109 5396 1388 5625
4 3109 5396 1387 1388
4 3378 3381 3406 3484
4 4218 5274 1343 4675
4 4218 4675 1343 4694
4 4218 5529 4694 1334
4 4218 1333 3682 5530
4 3680 3689 3681 3683
4 4218 1333 5529 1334
4 6059 2921 2919 5525
4 5273 3681 4218 5274
4 5808 6170 6033 5536
4 3490 5883 3489 3658
4 2827 4795 5808 5055
4 2824 3966 3965 5877
4 4795 5808 5055 6170
4 3699 3700 6001 5516
4 2497 3699 5584 5516
4 2511 4895 3990 2512
4 4375 4378 4377 3948
4 4376 4330 5519 6326
4 4375 3464 5043 3004
4 3004 5587 5043 3946
4 3946 5712 5043 3948
4 6326 5519 4376 3949
4 6302 6168 3810 6187
4 5047 5043 4863 5712
4 5883 5900 5479 3591
4 5047 5394 4889 4863
4 6183 3803 6197 6303
4 6183 3803 4975 6197
4 6183 6197 4968 6303
4 4959 522 4941 523
4 3242 3509 3510 3932
4 4959 4987 4947 4953
4 4959 4947 4941 3118
4 3930 4964 533 3707
4 3931 5680 4126 4964
4 3341 3343 3340 5920
4 3343 3886 5922 5864
4 3341 5136 3344 4348
4 3659 6032 3653 5501
4 2593 3236 2463 2987
4 5864 4689 4284 3343
4 4150 4151 5856 5896
4 4150 5856 5841 5839
4 4150 5643 4155 5839
4 4150 4155 5890 5839
4 5538 4155 4150 5643
4 4150 5469 5890 4155
4 3140 2775 3694 2984
4 2217 2216 2481 2483
4 3144 4825 3863 3864
4 2619 4053 4058 4059
4 5592 6218 5212 5591
4 3860 3863 3859 3864
4 4009 4007 3748 4008
4 2783 2984 4007 2953
4 3692 4007 2984 4886
4 4007 4196 2984 4887
4 2604 2336 2337 2599
4 5922 3237 6226 5140
4 5922 6064 6240 6226
4 5922 5921 5140 5872
4 5767 5921 5922 5864
4 5921 5140 6234 5922
4 6235 5921 5140 6234
4 5920 3886 5922 3343
4 3542 3276 5751 3113
4 2778 4295 4292 5242
4 3618 5456 3237 2973
4 4138 4471 4486 4478
4 4138 4486 4471 4485
4 2402 3467 2395 3258
4 4677 4478 4477 6078
4 4136 4436 4137 6179
4 4409 4495 5822 5290
4 3549 3965 4650 4799
4 3326 5413 4352 5781
4 3549 4650 5055 4565
4 3549 4040 4041 4042
4 3545 4571 3554 3353
4 2722 3350 3545 3353
4 3545 3554 4787 3333
4 3545 3554 6270 4787
4 3545 6270 4571 4572
4 3300 3553 3544 3545
4 3553 3546 3545 4572
4 3389 5123 3400 3398
4 5123 3400 3398 5437
4 5119 4314 5123 5437
4 5119 5123 3710 3398
4 5119 5116 5124 5118
4 5443 5419 5123 5118
4 5124 5448 4447 4406
4 5443 5436 5422 5421
4 5443 5436 5421 5902
4 3754 3420 3753 3712
4 3659 5501 3653 6161
4 5273 3684 2901 3278
4 3611 4493 4294 5185
4 3612 2902 4306 3611
4 4354 4027 5264 4029
4 4020 4063 4282 4145
4 4327 3043 3075 3076
4 2333 3174 3927 2433
4 3110 3084 5396 3109
4 3320 2448 3040 3082
4 3042 5519 3044 4594
4 6302 6187 3810 6031
CELL_TYPES 31305
10
10
10
10
10
10
10
10
10
10
10
10
10
10
10
10
10
10
10
10
10
10
10
10
10
10
10
10
10
10
10
10
10
10
10
10
10
10
10
10
10
10
10
10
10
10
10
10
10
10
10
10
10
10
10
10
10
10
10
10
10
10
10
10
10
10
10
10
10
10
10
10
10
10
10
10
10
10
10
10
10
10
10
10
10
10
10
10
10
10
10
10
10
10
10
10
10
10
10
10
10
10
10
10
10
10
10
10
10
10
10
10
10
10
10
10
10
10
10
10
10
10
10
10
10
10
10
10
10
10
10
10
10
10
10
10
10
10
10
10
10
10
10
10
10
10
10
10
10
10
10
10
10
10
10
10
10
10
10
10
10
10
10
10
10
10
10
10
10
10
10
10
10
10
10
10
10
10
10
10
10
10
10
10
10
10
10
10
10
10
10
10
10
10
10
10
10
10
10
10
10
10
10
10
10
10
10
10
10
10
10
10
10
10
10
10
10
10
10
10
10
10
10
10
10
10
10
10
10
10
10
10
10
10
10
10
10
10
10
10
10
10
10
10
10
10
10
10
10
10
10
10
10
10
10
10
10
10
10
10
10
10
10
10
10
10
10
10
10
10
10
10
10
10
10
10
10
10
10
10
10
10
10
10
10
10
10
10
10
10
10
10
10
10
10
10
10
10
10
10
10
10
10
10
10
10
10
10
10
10
10
10
10
10
10
10
10
10
10
10
10
10
10
10
10
10
10
10
10
10
10
10
10
10
10
10
10
10
10
10
10
10
10
10
10
10
10
10
10
10
10
10
10
10
10
10
10
10
10
10
10
10
10
10
10
10
10
10
10
10
10
10
10
10
10
10
10
10
10
10
10
10
10
10
10
10
10
10
10
10
10
10
10
10
10
10
10
10
10
10
10
10
10
10
10
10
10
10
10
10
10
10
10
10
10
10
10
10
10
10
10
10
10
10
10
10
10
10
10
10
10
10
10
10
10
10
10
10
10
10
10
10
10
10
10
10
10
10
10
10
10
10
10
10
10
10
10
10
10
10
10
10
10
10
10
10
10
10
10
10
10
10
10
10
10
10
10
10
10
10
10
10
10
10
10
10
10
10
10
10
10
10
10
10
10
10
10
10
10
10
10
10
10
10
10
10
10
10
10
10
10
10
10
10
10
10
10
10
10
10
10
10
10
10
10
10
10
10
10
10
10
10
10
10
10
10
10
10
10
10
10
10
10
10
10
10
10
10
10
10
10
10
10
10
10
10
10
10
10
10
10
10
10
10
10
10
10
10
10
10
10
10
10
10
10
10
10
10
10
10
10
10
10
10
10
10
10
10
10
10
10
10
10
10
10
10
10
10
10
10
10
10
10
10
10
10
10
10
10
10
10
10
10
10
10
10
10
10
10
10
10
10
10
10
10
10
10
10
10
10
10
10
10
10
10
10
10
10
10
10
10
10
10
10
10
10
10
10
10
10
10
10
10
10
10
10
10
10
10
10
10
10
10
10
10
10
10
10
10
10
10
10
10
10
10
10
10
10
10
10
10
10
10
10
10
10
10
10
10
10
10
10
10
10
10
10
10
10
10
10
10
10
10
10
10
10
10
10
10
10
10
10
10
10
10
10
10
10
10
10
10
10
10
10
10
10
10
10
10
10
10
10
10
10
10
10
10
10
10
10
10
10
10
10
10
10
10
10
10
10
10
10
10
10
10
10
10
10
10
10
10
10
10
10
10
10
10
10
10
10
10
10
10
10
10
10
10
10
10
10
10
10
10
10
10
10
10
10
10
10
10
10
10
10
10
10
10
10
10
10
10
10
10
10
10
10
10
10
10
10
10
10
10
10
10
10
10
10
10
10
10
10
10
10
10
10
10
10
10
10
10
10
10
10
10
10
10
10
10
10
10
10
10
10
10
10
10
10
10
10
10
10
10
10
10
10
10
10
10
10
10
10
10
10
10
10
10
10
10
10
10
10
10
10
10
10
10
10
10
10
10
10
10
10
10
10
10
10
10
10
10
10
10
10
10
10
10
10
10
10
10
10
10
10
10
10
10
10
10
10
10
10
10
10
10
10
10
10
10
10
10
10
10
10
10
10
10
10
10
10
10
10
10
10
10
10
10
10
10
10
10
10
10
10
10
10
10
10
10
10
10
10
10
10
10
10
10
10
10
10
10
10
10
10
10
10
10
10
10
10
10
10
10
10
10
10
10
10
10
10
10
10
10
10
10
10
10
10
10
10
10
10
10
10
10
10
10
10
10
10
10
10
10
10
10
10
10
10
10
10
10
10
10
10
10
10
10
10
10
10
10
10
10
10
10
10
10
10
10
10
10
10
10
10
10
10
10
10
10
10
10
10
10
10
10
10
10
10
10
10
10
10
10
10
10
10
10
10
10
10
10
10
10
10
10
10
10
10
10
10
10
10
10
10
10
10
10
10
10
10
10
10
10
10
10
10
10
10
10
10
10
10
10
10
10
10
10
10
10
10
10
10
10
10
10
10
10
10
10
10
10
10
10
10
10
10
10
10
10
10
10
10
10
10
10
10
10
10
10
10
10
10
10
10
10
10
10
10
10
10
10
10
10
10
10
10
10
10
10
10
10
10
10
10
10
10
10
10
10
10
10
10
10
10
10
10
10
10
10
10
10
10
10
10
10
10
10
10
10
10
10
10
10
10
10
10
10
10
10
10
10
10
10
10
10
10
10
10
10
10
10
10
10
10
10
10
10
10
10
10
10
10
10
10
10
10
10
10
10
10
10
10
10
10
10
10
10
10
10
10
10
10
10
10
10
10
10
10
10
10
10
10
10
10
10
10
10
10
10
10
10
10
10
10
10
10
10
10
10
10
10
10
10
10
10
10
10
10
10
10
10
10
10
10
10
10
10
10
10
10
10
10
10
10
10
10
10
10
10
10
10
10
10
10
10
10
10
10
10
10
10
10
10
10
10
10
10
10
10
10
10
10
10
10
10
10
10
10
10
10
10
10
10
10
10
10
10
10
10
10
10
10
10
10
10
10
10
10
10
10
10
10
10
10
10
10
10
10
10
10
10
10
10
10
10
10
10
10
10
10
10
10
10
10
10
10
10
10
10
10
10
10
10
10
10
10
10
10
10
10
10
10
10
10
10
10
10
10
10
10
10
10
10
10
10
10
10
10
10
10
10
10
10
10
10
10
10
10
10
10
10
10
10
10
10
10
10
10
10
10
10
10
10
10
10
10
10
10
10
10
10
10
10
10
10
10
10
10
10
10
10
10
10
10
10
10
10
10
10
10
10
10
10
10
10
10
10
10
10
10
10
10
10
10
10
10
10
10
10
10
10
10
10
10
10
10
10
10
10
10
10
10
10
10
10
10
10
10
10
10
10
10
10
10
10
10
10
10
10
10
10
10
10
10
10
10
10
10
10
10
10
10
10
10
10
10
10
10
10
10
10
10
10
10
10
10
10
10
10
10
10
10
10
10
10
10
10
10
10
10
10
10
10
10
10
10
10
10
10
10
10
10
10
10
10
10
10
10
10
10
10
10
10
10
10
10
10
10
10
10
10
10
10
10
10
10
10
10
10
10
10
10
10
10
10
10
10
10
10
10
10
10
10
10
10
10
10
10
10
10
10
10
10
10
10
10
10
10
10
10
10
10
10
10
10
10
10
10
10
10
10
10
10
10
10
10
10
10
10
10
10
10
10
10
10
10
10
10
10
10
10
10
10
10
10
10
10
10
10
10
10
10
10
10
10
10
10
10
10
10
10
10
10
10
10
10
10
10
10
10
10
10
10
10
10
10
10
10
10
10
10
10
10
10
10
10
10
10
10
10
10
10
10
10
10
10
10
10
10
10
10
10
10
10
10
10
10
10
10
10
10
10
10
10
10
10
10
10
10
10
10
10
10
10
10
10
10
10
10
10
10
10
10
10
10
10
10
10
10
10
10
10
10
10
10
10
10
10
10
10
10
10
10
10
10
10
10
10
10
10
10
10
10
10
10
10
10
10
10
10
10
10
10
10
10
10
10
10
10
10
10
10
10
10
10
10
10
10
10
10
10
10
10
10
10
10
10
10
10
10
10
10
10
10
10
10
10
10
10
10
10
10
10
10
10
10
10
10
10
10
10
10
10
10
10
10
10
10
10
10
10
10
10
10
10
10
10
10
10
10
10
10
10
10
10
10
10
10
10
10
10
10
10
10
10
10
10
10
10
10
10
10
10
10
10
10
10
10
10
10
10
10
10
10
10
10
10
10
10
10
10
10
10
10
10
10
10
10
10
10
10
10
10
10
10
10
10
10
10
10
10
10
10
10
10
10
10
10
10
10
10
10
10
10
10
10
10
10
10
10
10
10
10
10
10
10
10
10
10
10
10
10
10
10
10
10
10
10
10
10
10
10
10
10
10
10
10
10
10
10
10
10
10
10
10
10
10
10
10
10
10
10
10
10
10
10
10
10
10
10
10
10
10
10
10
10
10
10
10
10
10
10
10
10
10
10
10
10
10
10
10
10
10
10
10
10
10
10
10
10
10
10
10
10
10
10
10
10
10
10
10
10
10
10
10
10
10
10
10
10
10
10
10
10
10
10
10
10
10
10
10
10
10
10
10
10
10
10
10
10
10
10
10
10
10
10
10
10
10
10
10
10
10
10
10
10
10
10
10
10
10
10
10
10
10
10
10
10
10
10
10
10
10
10
10
10
10
10
10
10
10
10
10
10
10
10
10
10
10
10
10
10
10
10
10
10
10
10
10
10
10
10
10
10
10
10
10
10
10
10
10
10
10
10
10
10
10
10
10
10
10
10
10
10
10
10
10
10
10
10
10
10
10
10
10
10
10
10
10
10
10
10
10
10
10
10
10
10
10
10
10
10
10
10
10
10
10
10
10
10
10
10
10
10
10
10
10
10
10
10
10
10
10
10
10
10
10
10
10
10
10
10
10
10
10
10
10
10
10
10
10
10
10
10
10
10
10
10
10
10
10
10
10
10
10
10
10
10
10
10
10
10
10
10
10
10
10
10
10
10
10
10
10
10
10
10
10
10
10
10
10
10
10
10
10
10
10
10
10
10
10
10
10
10
10
10
10
10
10
10
10
10
10
10
10
10
10
10
10
10
10
10
10
10
10
10
10
10
10
10
10
10
10
10
10
10
10
10
10
10
10
10
10
10
10
10
10
10
10
10
10
10
10
10
10
10
10
10
10
10
10
10
10
10
10
10
10
10
10
10
10
10
10
10
10
10
10
10
10
10
10
10
10
10
10
10
10
10
10
10
10
10
10
10
10
10
10
10
10
10
10
10
10
10
10
10
10
10
10
10
10
10
10
10
10
10
10
10
10
10
10
10
10
10
10
10
10
10
10
10
10
10
10
10
10
10
10
10
10
10
10
10
10
10
10
10
10
10
10
10
10
10
10
10
10
10
10
10
10
10
10
10
10
10
10
10
10
10
10
10
10
10
10
10
10
10
10
10
10
10
10
10
10
10
10
10
10
10
10
10
10
10
10
10
10
10
10
10
10
10
10
10
10
10
10
10
10
10
10
10
10
10
10
10
10
10
10
10
10
10
10
10
10
10
10
10
10
10
10
10
10
10
10
10
10
10
10
10
10
10
10
10
10
10
10
10
10
10
10
10
10
10
10
10
10
10
10
10
10
10
10
10
10
10
10
10
10
10
10
10
10
10
10
10
10
10
10
10
10
10
10
10
10
10
10
10
10
10
10
10
10
10
10
10
10
10
10
10
10
10
10
10
10
10
10
10
10
10
10
10
10
10
10
10
10
10
10
10
10
10
10
10
10
10
10
10
10
10
10
10
10
10
10
10
10
10
10
10
10
10
10
10
10
10
10
10
10
10
10
10
10
10
10
10
10
10
10
10
10
10
10
10
10
10
10
10
10
10
10
10
10
10
10
10
10
10
10
10
10
10
10
10
10
10
10
10
10
10
10
10
10
10
10
10
10
10
10
10
10
10
10
10
10
10
10
10
10
10
10
10
10
10
10
10
10
10
10
10
10
10
10
10
10
10
10
10
10
10
10
10
10
10
10
10
10
10
10
10
10
10
10
10
10
10
10
10
10
10
10
10
10
10
10
10
10
10
10
10
10
10
10
10
10
10
10
10
10
10
10
10
10
10
10
10
10
10
10
10
10
10
10
10
10
10
10
10
10
10
10
10
10
10
10
10
10
10
10
10
10
10
10
10
10
10
10
10
10
10
10
10
10
10
10
10
10
10
10
10
10
10
10
10
10
10
10
10
10
10
10
10
10
10
10
10
10
10
10
10
10
10
10
10
10
10
10
10
10
10
10
10
10
10
10
10
10
10
10
10
10
10
10
10
10
10
10
10
10
10
10
10
10
10
10
10
10
10
10
10
10
10
10
10
10
10
10
10
10
10
10
10
10
10
10
10
10
10
10
10
10
10
10
10
10
10
10
10
10
10
10
10
10
10
10
10
10
10
10
10
10
10
10
10
10
10
10
10
10
10
10
10
10
10
10
10
10
10
10
10
10
10
10
10
10
10
10
10
10
10
10
10
10
10
10
10
10
10
10
10
10
10
10
10
10
10
10
10
10
10
10
10
10
10
10
10
10
10
10
10
10
10
10
10
10
10
10
10
10
10
10
10
10
10
10
10
10
10
10
10
10
10
10
10
10
10
10
10
10
10
10
10
10
10
10
10
10
10
10
10
10
10
10
10
10
10
10
10
10
10
10
10
10
10
10
10
10
10
10
10
10
10
10
10
10
10
10
10
10
10
10
10
10
10
10
10
10
10
10
10
10
10
10
10
10
10
10
10
10
10
10
10
10
10
10
10
10
10
10
10
10
10
10
10
10
10
10
10
10
10
10
10
10
10
10
10
10
10
10
10
10
10
10
10
10
10
10
10
10
10
10
10
10
10
10
10
10
10
10
10
10
10
10
10
10
10
10
10
10
10
10
10
10
10
10
10
10
10
10
10
10
10
10
10
10
10
10
10
10
10
10
10
10
10
10
10
10
10
10
10
10
10
10
10
10
10
10
10
10
10
10
10
10
10
10
10
10
10
10
10
10
10
10
10
10
10
10
10
10
10
10
10
10
10
10
10
10
10
10
10
10
10
10
10
10
10
10
10
10
10
10
10
10
10
10
10
10
10
10
10
10
10
10
10
10
10
10
10
10
10
10
10
10
10
10
10
10
10
10
10
10
10
10
10
10
10
10
10
10
10
10
10
10
10
10
10
10
10
10
10
10
10
10
10
10
10
10
10
10
10
10
10
10
10
10
10
10
10
10
10
10
10
10
10
10
10
10
10
10
10
10
10
10
10
10
10
10
10
10
10
10
10
10
10
10
10
10
10
10
10
10
10
10
10
10
10
10
10
10
10
10
10
10
10
10
10
10
10
10
10
10
10
10
10
10
10
10
10
10
10
10
10
10
10
10
10
10
10
10
10
10
10
10
10
10
10
10
10
10
10
10
10
10
10
10
10
10
10
10
10
10
10
10
10
10
10
10
10
10
10
10
10
10
10
10
10
10
10
10
10
10
10
10
10
10
10
10
10
10
10
10
10
10
10
10
10
10
10
10
10
10
10
10
10
10
10
10
10
10
10
10
10
10
10
10
10
10
10
10
10
10
10
10
10
10
10
10
10
10
10
10
10
10
10
10
10
10
10
10
10
10
10
10
10
10
10
10
10
10
10
10
10
10
10
10
10
10
10
10
10
10
10
10
10
10
10
10
10
10
10
10
10
10
10
10
10
10
10
10
10
10
10
10
10
10
10
10
10
10
10
10
10
10
10
10
10
10
10
10
10
10
10
10
10
10
10
10
10
10
10
10
10
10
10
10
10
10
10
10
10
10
10
10
10
10
10
10
10
10
10
10
10
10
10
10
10
10
10
10
10
10
10
10
10
10
10
10
10
10
10
10
10
10
10
10
10
10
10
10
10
10
10
10
10
10
10
10
10
10
10
10
10
10
10
10
10
10
10
10
10
10
10
10
10
10
10
10
10
10
10
10
10
10
10
10
10
10
10
10
10
10
10
10
10
10
10
10
10
10
10
10
10
10
10
10
10
10
10
10
10
10
10
10
10
10
10
10
10
10
10
10
10
10
10
10
10
10
10
10
10
10
10
10
10
10
10
10
10
10
10
10
10
10
10
10
10
10
10
10
10
10
10
10
10
10
10
10
10
10
10
10
10
10
10
10
10
10
10
10
10
10
10
10
10
10
10
10
10
10
10
10
10
10
10
10
10
10
10
10
10
10
10
10
10
10
10
10
10
10
10
10
10
10
10
10
10
10
10
10
10
10
10
10
10
10
10
10
10
10
10
10
10
10
10
10
10
10
10
10
10
10
10
10
10
10
10
10
10
10
10
10
10
10
10
10
10
10
10
10
10
10
10
10
10
10
10
10
10
10
10
10
10
10
10
10
10
10
10
10
10
10
10
10
10
10
10
10
10
10
10
10
10
10
10
10
10
10
10
10
10
10
10
10
10
10
10
10
10
10
10
10
10
10
10
10
10
10
10
10
10
10
10
10
10
10
10
10
10
10
10
10
10
10
10
10
10
10
10
10
10
10
10
10
10
10
10
10
10
10
10
10
10
10
10
10
10
10
10
10
10
10
10
10
10
10
10
10
10
10
10
10
10
10
10
10
10
10
10
10
10
10
10
10
10
10
10
10
10
10
10
10
10
10
10
10
10
10
10
10
10
10
10
10
10
10
10
10
10
10
10
10
10
10
10
10
10
10
10
10
10
10
10
10
10
10
10
10
10
10
10
10
10
10
10
10
10
10
10
10
10
10
10
10
10
10
10
10
10
10
10
10
10
10
10
10
10
10
10
10
10
10
10
10
10
10
10
10
10
10
10
10
10
10
10
10
10
10
10
10
10
10
10
10
10
10
10
10
10
10
10
10
10
10
10
10
10
10
10
10
10
10
10
10
10
10
10
10
10
10
10
10
10
10
10
10
10
10
10
10
10
10
10
10
10
10
10
10
10
10
10
10
10
10
10
10
10
10
10
10
10
10
10
10
10
10
10
10
10
10
10
10
10
10
10
10
10
10
10
10
10
10
10
10
10
10
10
10
10
10
10
10
10
10
10
10
10
10
10
10
10
10
10
10
10
10
10
10
10
10
10
10
10
10
10
10
10
10
10
10
10
10
10
10
10
10
10
10
10
10
10
10
10
10
10
10
10
10
10
10
10
10
10
10
10
10
10
10
10
10
10
10
10
10
10
10
10
10
10
10
10
10
10
10
10
10
10
10
10
10
10
10
10
10
10
10
10
10
10
10
10
10
10
10
10
10
10
10
10
10
10
10
10
10
10
10
10
10
10
10
10
10
10
10
10
10
10
10
10
10
10
10
10
10
10
10
10
10
10
10
10
10
10
10
10
10
10
10
10
10
10
10
10
10
10
10
10
10
10
10
10
10
10
10
10
10
10
10
10
10
10
10
10
10
10
10
10
10
10
10
10
10
10
10
10
10
10
10
10
10
10
10
10
10
10
10
10
10
10
10
10
10
10
10
10
10
10
10
10
10
10
10
10
10
10
10
10
10
10
10
10
10
10
10
10
10
10
10
10
10
10
10
10
10
10
10
10
10
10
10
10
10
10
10
10
10
10
10
10
10
10
10
10
10
10
10
10
10
10
10
10
10
10
10
10
10
10
10
10
10
10
10
10
10
10
10
10
10
10
10
10
10
10
10
10
10
10
10
10
10
10
10
10
10
10
10
10
10
10
10
10
10
10
10
10
10
10
10
10
10
10
10
10
10
10
10
10
10
10
10
10
10
10
10
10
10
10
10
10
10
10
10
10
10
10
10
10
10
10
10
10
10
10
10
10
10
10
10
10
10
10
10
10
10
10
10
10
10
10
10
10
10
10
10
10
10
10
10
10
10
10
10
10
10
10
10
10
10
10
10
10
10
10
10
10
10
10
10
10
10
10
10
10
10
10
10
10
10
10
10
10
10
10
10
10
10
10
10
10
10
10
10
10
10
10
10
10
10
10
10
10
10
10
10
10
10
10
10
10
10
10
10
10
10
10
10
10
10
10
10
10
10
10
10
10
10
10
10
10
10
10
10
10
10
10
10
10
10
10
10
10
10
10
10
10
10
10
10
10
10
10
10
10
10
10
10
10
10
10
10
10
10
10
10
10
10
10
10
10
10
10
10
10
10
10
10
10
10
10
10
10
10
10
10
10
10
10
10
10
10
10
10
10
10
10
10
10
10
10
10
10
10
10
10
10
10
10
10
10
10
10
10
10
10
10
10
10
10
10
10
10
10
10
10
10
10
10
10
10
10
10
10
10
10
10
10
10
10
10
10
10
10
10
10
10
10
10
10
10
10
10
10
10
10
10
10
10
10
10
10
10
10
10
10
10
10
10
10
10
10
10
10
10
10
10
10
10
10
10
10
10
10
10
10
10
10
10
10
10
10
10
10
10
10
10
10
10
10
10
10
10
10
10
10
10
10
10
10
10
10
10
10
10
10
10
10
10
10
10
10
10
10
10
10
10
10
10
10
10
10
10
10
10
10
10
10
10
10
10
10
10
10
10
10
10
10
10
10
10
10
10
10
10
10
10
10
10
10
10
10
10
10
10
10
10
10
10
10
10
10
10
10
10
10
10
10
10
10
10
10
10
10
10
10
10
10
10
10
10
10
10
10
10
10
10
10
10
10
10
10
10
10
10
10
10
10
10
10
10
10
10
10
10
10
10
10
10
10
10
10
10
10
10
10
10
10
10
10
10
10
10
10
10
10
10
10
10
10
10
10
10
10
10
10
10
10
10
10
10
10
10
10
10
10
10
10
10
10
10
10
10
10
10
10
10
10
10
10
10
10
10
10
10
10
10
10
10
10
10
10
10
10
10
10
10
10
10
10
10
10
10
10
10
10
10
10
10
10
10
10
10
10
10
10
10
10
10
10
10
10
10
10
10
10
10
10
10
10
10
10
10
10
10
10
10
10
10
10
10
10
10
10
10
10
10
10
10
10
10
10
10
10
10
10
10
10
10
10
10
10
10
10
10
10
10
10
10
10
10
10
10
10
10
10
10
10
10
10
10
10
10
10
10
10
10
10
10
10
10
10
10
10
10
10
10
10
10
10
10
10
10
10
10
10
10
10
10
10
10
10
10
10
10
10
10
10
10
10
10
10
10
10
10
10
10
10
10
10
10
10
10
10
10
10
10
10
10
10
10
10
10
10
10
10
10
10
10
10
10
10
10
10
10
10
10
10
10
10
10
10
10
10
10
10
10
10
10
10
10
10
10
10
10
10
10
10
10
10
10
10
10
10
10
10
10
10
10
10
10
10
10
10
10
10
10
10
10
10
10
10
10
10
10
10
10
10
10
10
10
10
10
10
10
10
10
10
10
10
10
10
10
10
10
10
10
10
10
10
10
10
10
10
10
10
10
10
10
10
10
10
10
10
10
10
10
10
10
10
10
10
10
10
10
10
10
10
10
10
10
10
10
10
10
10
10
10
10
10
10
10
10
10
10
10
10
10
10
10
10
10
10
10
10
10
10
10
10
10
10
10
10
10
10
10
10
10
10
10
10
10
10
10
10
10
10
10
10
10
10
10
10
10
10
10
10
10
10
10
10
10
10
10
10
10
10
10
10
10
10
10
10
10
10
10
10
10
10
10
10
10
10
10
10
10
10
10
10
10
10
10
10
10
10
10
10
10
10
10
10
10
10
10
10
10
10
10
10
10
10
10
10
10
10
10
10
10
10
10
10
10
10
10
10
10
10
10
10
10
10
10
10
10
10
10
10
10
10
10
10
10
10
10
10
10
10
10
10
10
10
10
10
10
10
10
10
10
10
10
10
10
10
10
10
10
10
10
10
10
10
10
10
10
10
10
10
10
10
10
10
10
10
10
10
10
10
10
10
10
10
10
10
10
10
10
10
10
10
10
10
10
10
10
10
10
10
10
10
10
10
10
10
10
10
10
10
10
10
10
10
10
10
10
10
10
10
10
10
10
10
10
10
10
10
10
10
10
10
10
10
10
10
10
10
10
10
10
10
10
10
10
10
10
10
10
10
10
10
10
10
10
10
10
10
10
10
10
10
10
10
10
10
10
10
10
10
10
10
10
10
10
10
10
10
10
10
10
10
10
10
10
10
10
10
10
10
10
10
10
10
10
10
10
10
10
10
10
10
10
10
10
10
10
10
10
10
10
10
10
10
10
10
10
10
10
10
10
10
10
10
10
10
10
10
10
10
10
10
10
10
10
10
10
10
10
10
10
10
10
10
10
10
10
10
10
10
10
10
10
10
10
10
10
10
10
10
10
10
10
10
10
10
10
10
10
10
10
10
10
10
10
10
10
10
10
10
10
10
10
10
10
10
10
10
10
10
10
10
10
10
10
10
10
10
10
10
10
10
10
10
10
10
10
10
10
10
10
10
10
10
10
10
10
10
10
10
10
10
10
10
10
10
10
10
10
10
10
10
10
10
10
10
10
10
10
10
10
10
10
10
10
10
10
10
10
10
10
10
10
10
10
10
10
10
10
10
10
10
10
10
10
10
10
10
10
10
10
10
10
10
10
10
10
10
10
10
10
10
10
10
10
10
10
10
10
10
10
10
10
10
10
10
10
10
10
10
10
10
10
10
10
10
10
10
10
10
10
10
10
10
10
10
10
10
10
10
10
10
10
10
10
10
10
10
10
10
10
10
10
10
10
10
10
10
10
10
10
10
10
10
10
10
10
10
10
10
10
10
10
10
10
10
10
10
10
10
10
10
10
10
10
10
10
10
10
10
10
10
10
10
10
10
10
10
10
10
10
10
10
10
10
10
10
10
10
10
10
10
10
10
10
10
10
10
10
10
10
10
10
10
10
10
10
10
10
10
10
10
10
10
10
10
10
10
10
10
10
10
10
10
10
10
10
10
10
10
10
10
10
10
10
10
10
10
10
10
10
10
10
10
10
10
10
10
10
10
10
10
10
10
10
10
10
10
10
10
10
10
10
10
10
10
10
10
10
10
10
10
10
10
10
10
10
10
10
10
10
10
10
10
10
10
10
10
10
10
10
10
10
10
10
10
10
10
10
10
10
10
10
10
10
10
10
10
10
10
10
10
10
10
10
10
10
10
10
10
10
10
10
10
10
10
10
10
10
10
10
10
10
10
10
10
10
10
10
10
10
10
10
10
10
10
10
10
10
10
10
10
10
10
10
10
10
10
10
10
10
10
10
10
10
10
10
10
10
10
10
10
10
10
10
10
10
10
10
10
10
10
10
10
10
10
10
10
10
10
10
10
10
10
10
10
10
10
10
10
10
10
10
10
10
10
10
10
10
10
10
10
10
10
10
10
10
10
10
10
10
10
10
10
10
10
10
10
10
10
10
10
10
10
10
10
10
10
10
10
10
10
10
10
10
10
10
10
10
10
10
10
10
10
10
10
10
10
10
10
10
10
10
10
10
10
10
10
10
10
10
10
10
10
10
10
10
10
10
10
10
10
10
10
10
10
10
10
10
10
10
10
10
10
10
10
10
10
10
10
10
10
10
10
10
10
10
10
10
10
10
10
10
10
10
10
10
10
10
10
10
10
10
10
10
10
10
10
10
10
10
10
10
10
10
10
10
10
10
10
10
10
10
10
10
10
10
10
10
10
10
10
10
10
10
10
10
10
10
10
10
10
10
10
10
10
10
10
10
10
10
10
10
10
10
10
10
10
10
10
10
10
10
10
10
10
10
10
10
10
10
10
10
10
10
10
10
10
10
10
10
10
10
10
10
10
10
10
10
10
10
10
10
10
10
10
10
10
10
10
10
10
10
10
10
10
10
10
10
10
10
10
10
10
10
10
10
10
10
10
10
10
10
10
10
10
10
10
10
10
10
10
10
10
10
10
10
10
10
10
10
10
10
10
10
10
10
10
10
10
10
10
10
10
10
10
10
10
10
10
10
10
10
10
10
10
10
10
10
10
10
10
10
10
10
10
10
10
10
10
10
10
10
10
10
10
10
10
10
10
10
10
10
10
10
10
10
10
10
10
10
10
10
10
10
10
10
10
10
10
10
10
10
10
10
10
10
10
10
10
10
10
10
10
10
10
10
10
10
10
10
10
10
10
10
10
10
10
10
10
10
10
10
10
10
10
10
10
10
10
10
10
10
10
10
10
10
10
10
10
10
10
10
10
10
10
10
10
10
10
10
10
10
10
10
10
10
10
10
10
10
10
10
10
10
10
10
10
10
10
10
10
10
10
10
10
10
10
10
10
10
10
10
10
10
10
10
10
10
10
10
10
10
10
10
10
10
10
10
10
10
10
10
10
10
10
10
10
10
10
10
10
10
10
10
10
10
10
10
10
10
10
10
10
10
10
10
10
10
10
10
10
10
10
10
10
10
10
10
10
10
10
10
10
10
10
10
10
10
10
10
10
10
10
10
10
10
10
10
10
10
10
10
10
10
10
10
10
10
10
10
10
10
10
10
10
10
10
10
10
10
10
10
10
10
10
10
10
10
10
10
10
10
10
10
10
10
10
10
10
10
10
10
10
10
10
10
10
10
10
10
10
10
10
10
10
10
10
10
10
10
10
10
10
10
10
10
10
10
10
10
10
10
10
10
10
10
10
10
10
10
10
10
10
10
10
10
10
10
10
10
10
10
10
10
10
10
10
10
10
10
10
10
10
10
10
10
10
10
10
10
10
10
10
10
10
10
10
10
10
10
10
10
10
10
10
10
10
10
10
10
10
10
10
10
10
10
10
10
10
10
10
10
10
10
10
10
10
10
10
10
10
10
10
10
10
10
10
10
10
10
10
10
10
10
10
10
10
10
10
10
10
10
10
10
10
10
10
10
10
10
10
10
10
10
10
10
10
10
10
10
10
10
10
10
10
10
10
10
10
10
10
10
10
10
10
10
10
10
10
10
10
10
10
10
10
10
10
10
10
10
10
10
10
10
10
10
10
10
10
10
10
10
10
10
10
10
10
10
10
10
10
10
10
10
10
10
10
10
10
10
10
10
10
10
10
10
10
10
10
10
10
10
10
10
10
10
10
10
10
10
10
10
10
10
10
10
10
10
10
10
10
10
10
10
10
10
10
10
10
10
10
10
10
10
10
10
10
10
10
10
10
10
10
10
10
10
10
10
10
10
10
10
10
10
10
10
10
10
10
10
10
10
10
10
10
10
10
10
10
10
10
10
10
10
10
10
10
10
10
10
10
10
10
10
10
10
10
10
10
10
10
10
10
10
10
10
10
10
10
10
10
10
10
10
10
10
10
10
10
10
10
10
10
10
10
10
10
10
10
10
10
10
10
10
10
10
10
10
10
10
10
10
10
10
10
10
10
10
10
10
10
10
10
10
10
10
10
10
10
10
10
10
10
10
10
10
10
10
10
10
10
10
10
10
10
10
10
10
10
10
10
10
10
10
10
10
10
10
10
10
10
10
10
10
10
10
10
10
10
10
10
10
10
10
10
10
10
10
10
10
10
10
10
10
10
10
10
10
10
10
10
10
10
10
10
10
10
10
10
10
10
10
10
10
10
10
10
10
10
10
10
10
10
10
10
10
10
10
10
10
10
10
10
10
10
10
10
10
10
10
10
10
10
10
10
10
10
10
10
10
10
10
10
10
10
10
10
10
10
10
10
10
10
10
10
10
10
10
10
10
10
10
10
10
10
10
10
10
10
10
10
10
10
10
10
10
10
10
10
10
10
10
10
10
10
10
10
10
10
10
10
10
10
10
10
10
10
10
10
10
10
10
10
10
10
10
10
10
10
10
10
10
10
10
10
10
10
10
10
10
10
10
10
10
10
10
10
10
10
10
10
10
10
10
10
10
10
10
10
10
10
10
10
10
10
10
10
10
10
10
10
10
10
10
10
10
10
10
10
10
10
10
10
10
10
10
10
10
10
10
10
10
10
10
10
10
10
10
10
10
10
10
10
10
10
10
10
10
10
10
10
10
10
10
10
10
10
10
10
10
10
10
10
10
10
10
10
10
10
10
10
10
10
10
10
10
10
10
10
10
10
10
10
10
10
10
10
10
10
10
10
10
10
10
10
10
10
10
10
10
10
10
10
10
10
10
10
10
10
10
10
10
10
10
10
10
10
10
10
10
10
10
10
10
10
10
10
10
10
10
10
10
10
10
10
10
10
10
10
10
10
10
10
10
10
10
10
10
10
10
10
10
10
10
10
10
10
10
10
10
10
10
10
10
10
10
10
10
10
10
10
10
10
10
10
10
10
10
10
10
10
10
10
10
10
10
10
10
10
10
10
10
10
10
10
10
10
10
10
10
10
10
10
10
10
10
10
10
10
10
10
10
10
10
10
10
10
10
10
10
10
10
10
10
10
10
10
10
10
10
10
10
10
10
10
10
10
10
10
10
10
10
10
10
10
10
10
10
10
10
10
10
10
10
10
10
10
10
10
10
10
10
10
10
10
10
10
10
10
10
10
10
10
10
10
10
10
10
10
10
10
10
10
10
10
10
10
10
10
10
10
10
10
10
10
10
10
10
10
10
10
10
10
10
10
10
10
10
10
10
10
10
10
10
10
10
10
10
10
10
10
10
10
10
10
10
10
10
10
10
10
10
10
10
10
10
10
10
10
10
10
10
10
10
10
10
10
10
10
10
10
10
10
10
10
10
10
10
10
10
10
10
10
10
10
10
10
10
10
10
10
10
10
10
10
10
10
10
10
10
10
10
10
10
10
10
10
10
10
10
10
10
10
10
10
10
10
10
10
10
10
10
10
10
10
10
10
10
10
10
10
10
10
10
10
10
10
10
10
10
10
10
10
10
10
10
10
10
10
10
10
10
10
10
10
10
10
10
10
10
10
10
10
10
10
10
10
10
10
10
10
10
10
10
10
10
10
10
10
10
10
10
10
10
10
10
10
10
10
10
10
10
10
10
10
10
10
10
10
10
10
10
10
10
10
10
10
10
10
10
10
10
10
10
10
10
10
10
10
10
10
10
10
10
10
10
10
10
10
10
10
10
10
10
10
10
10
10
10
10
10
10
10
10
10
10
10
10
10
10
10
10
10
10
10
10
10
10
10
10
10
10
10
10
10
10
10
10
10
10
10
10
10
10
10
10
10
10
10
10
10
10
10
10
10
10
10
10
10
10
10
10
10
10
10
10
10
10
10
10
10
10
10
10
10
10
10
10
10
10
10
10
10
10
10
10
10
10
10
10
10
10
10
10
10
10
10
10
10
10
10
10
10
10
10
10
10
10
10
10
10
10
10
10
10
10
10
10
10
10
10
10
10
10
10
10
10
10
10
10
10
10
10
10
10
10
10
10
10
10
10
10
10
10
10
10
10
10
10
10
10
10
10
10
10
10
10
10
10
10
10
10
10
10
10
10
10
10
10
10
10
10
10
10
10
10
10
10
10
10
10
10
10
10
10
10
10
10
10
10
10
10
10
10
10
10
10
10
10
10
10
10
10
10
10
10
10
10
10
10
10
10
10
10
10
10
10
10
10
10
10
10
10
10
10
10
10
10
10
10
10
10
10
10
10
10
10
10
10
10
10
10
10
10
10
10
10
10
10
10
10
10
10
10
10
10
10
10
10
10
10
10
10
10
10
10
10
10
10
10
10
10
10
10
10
10
10
10
10
10
10
10
10
10
10
10
10
10
10
10
10
10
10
10
10
10
10
10
10
10
10
10
10
10
10
10
10
10
10
10
10
10
10
10
10
10
10
10
10
10
10
10
10
10
10
10
10
10
10
10
10
10
10
10
10
10
10
10
10
10
10
10
10
10
10
10
10
10
10
10
10
10
10
10
10
10
10
10
10
10
10
10
10
10
10
10
10
10
10
10
10
10
10
10
10
10
10
10
10
10
10
10
10
10
10
10
10
10
10
10
10
10
10
10
10
10
10
10
10
10
10
10
10
10
10
10
10
10
10
10
10
10
10
10
10
10
10
10
10
10
10
10
10
10
10
10
10
10
10
10
10
10
10
10
10
10
10
10
10
10
10
10
10
10
10
10
10
10
10
10
10
10
10
10
10
10
10
10
10
10
10
10
10
10
10
10
10
10
10
10
10
10
10
10
10
10
10
10
10
10
10
10
10
10
10
10
10
10
10
10
10
10
10
10
10
10
10
10
10
10
10
10
10
10
10
10
10
10
10
10
10
10
10
10
10
10
10
10
10
10
10
10
10
10
10
10
10
10
10
10
10
10
10
10
10
10
10
10
10
10
10
10
10
10
10
10
10
10
10
10
10
10
10
10
10
10
10
10
10
10
10
10
10
10
10
10
10
10
10
10
10
10
10
10
10
10
10
10
10
10
10
10
10
10
10
10
10
10
10
10
10
10
10
10
10
10
10
10
10
10
10
10
10
10
10
10
10
10
10
10
10
10
10
10
10
10
10
10
10
10
10
10
10
10
10
10
10
10
10
10
10
10
10
10
10
10
10
10
10
10
10
10
10
10
10
10
10
10
10
10
10
10
10
10
10
10
10
10
10
10
10
10
10
10
10
10
10
10
10
10
10
10
10
10
10
10
10
10
10
10
10
10
10
10
10
10
10
10
10
10
10
10
10
10
10
10
10
10
10
10
10
10
10
10
10
10
10
10
10
10
10
10
10
10
10
10
10
10
10
10
10
10
10
10
10
10
10
10
10
10
10
10
10
10
10
10
10
10
10
10
10
10
10
10
10
10
10
10
10
10
10
10
10
10
10
10
10
10
10
10
10
10
10
10
10
10
10
10
10
10
10
10
10
10
10
10
10
10
10
10
10
10
10
10
10
10
10
10
10
10
10
10
10
10
10
10
10
10
10
10
10
10
10
10
10
10
10
10
10
10
10
10
10
10
10
10
10
10
10
10
10
10
10
10
10
10
10
10
10
10
10
10
10
10
10
10
10
10
10
10
10
10
10
10
10
10
10
10
10
10
10
10
10
10
10
10
10
10
10
10
10
10
10
10
10
10
10
10
10
10
10
10
10
10
10
10
10
10
10
10
10
10
10
10
10
10
10
10
10
10
10
10
10
10
10
10
10
10
10
10
10
10
10
10
10
10
10
10
10
10
10
10
10
10
10
10
10
10
10
10
10
10
10
10
10
10
10
10
10
10
10
10
10
10
10
10
10
10
10
10
10
10
10
10
10
10
10
10
10
10
10
10
10
10
10
10
10
10
10
10
10
10
10
10
10
10
10
10
10
10
10
10
10
10
10
10
10
10
10
10
10
10
10
10
10
10
10
10
10
10
10
10
10
10
10
10
10
10
10
10
10
10
10
10
10
10
10
10
10
10
10
10
10
10
10
10
10
10
10
10
10
10
10
10
10
10
10
10
10
10
10
10
10
10
10
10
10
10
10
10
10
10
10
10
10
10
10
10
10
10
10
10
10
10
10
10
10
10
10
10
10
10
10
10
10
10
10
10
10
10
10
10
10
10
10
10
10
10
10
10
10
10
10
10
10
10
10
10
10
10
10
10
10
10
10
10
10
10
10
10
10
10
10
10
10
10
10
10
10
10
10
10
10
10
10
10
10
10
10
10
10
10
10
10
10
10
10
10
10
10
10
10
10
10
10
10
10
10
10
10
10
10
10
10
10
10
10
10
10
10
10
10
10
10
10
10
10
10
10
10
10
10
10
10
10
10
10
10
10
10
10
10
10
10
10
10
10
10
10
10
10
10
10
10
10
10
10
10
10
10
10
10
10
10
10
10
10
10
10
10
10
10
10
10
10
10
10
10
10
10
10
10
10
10
10
10
10
10
10
10
10
10
10
10
10
10
10
10
10
10
10
10
10
10
10
10
10
10
10
10
10
10
10
10
10
10
10
10
10
10
10
10
10
10
10
10
10
10
10
10
10
10
10
10
10
10
10
10
10
10
10
10
10
10
10
10
10
10
10
10
10
10
10
10
10
10
10
10
10
10
10
10
10
10
10
10
10
10
10
10
10
10
10
10
10
10
10
10
10
10
10
10
10
10
10
10
10
10
10
10
10
10
10
10
10
10
10
10
10
10
10
10
10
10
10
10
10
10
10
10
10
10
10
10
10
10
10
10
10
10
10
10
10
10
10
10
10
10
10
10
10
10
10
10
10
10
10
10
10
10
10
10
10
10
10
10
10
10
10
10
10
10
10
10
10
10
10
10
10
10
10
10
10
10
10
10
10
10
10
10
10
10
10
10
10
10
10
10
10
10
10
10
10
10
10
10
10
10
10
10
10
10
10
10
10
10
10
10
10
10
10
10
10
10
10
10
10
10
10
10
10
10
10
10
10
10
10
10
10
10
10
10
10
10
10
10
10
10
10
10
10
10
10
10
10
10
10
10
10
10
10
10
10
10
10
10
10
10
10
10
10
10
10
10
10
10
10
10
10
10
10
10
10
10
10
10
10
10
10
10
10
10
10
10
10
10
10
10
10
10
10
10
10
10
10
10
10
10
10
10
10
10
10
10
10
10
10
10
10
10
10
10
10
10
10
10
10
10
10
10
10
10
10
10
10
10
10
10
10
10
10
10
10
10
10
10
10
10
10
10
10
10
10
10
10
10
10
10
10
10
10
10
10
10
10
10
10
10
10
10
10
10
10
10
10
10
10
10
10
10
10
10
10
10
10
10
10
10
10
10
10
10
10
10
10
10
10
10
10
10
10
10
10
10
10
10
10
10
10
10
10
10
10
10
10
10
10
10
10
10
10
10
10
10
10
10
10
10
10
10
10
10
10
10
10
10
10
10
10
10
10
10
10
10
10
10
10
10
10
10
10
10
10
10
10
10
10
10
10
10
10
10
10
10
10
10
10
10
10
10
10
10
10
10
10
10
10
10
10
10
10
10
10
10
10
10
10
10
10
10
10
10
10
10
10
10
10
10
10
10
10
10
10
10
10
10
10
10
10
10
10
10
10
10
10
10
10
10
10
10
10
10
10
10
10
10
10
10
10
10
10
10
10
10
10
10
10
10
10
10
10
10
10
10
10
10
10
10
10
10
10
10
10
10
10
10
10
10
10
10
10
10
10
10
10
10
10
10
10
10
10
10
10
10
10
10
10
10
10
10
10
10
10
10
10
10
10
10
10
10
10
10
10
10
10
10
10
10
10
10
10
10
10
10
10
10
10
10
10
10
10
10
10
10
10
10
10
10
10
10
10
10
10
10
10
10
10
10
10
10
10
10
10
10
10
10
10
10
10
10
10
10
10
10
10
10
10
10
10
10
10
10
10
10
10
10
10
10
10
10
10
10
10
10
10
10
10
10
10
10
10
10
10
10
10
10
10
10
10
10
10
10
10
10
10
10
10
10
10
10
10
10
10
10
10
10
10
10
10
10
10
10
10
10
10
10
10
10
10
10
10
10
10
10
10
10
10
10
10
10
10
10
10
10
10
10
10
10
10
10
10
10
10
10
10
10
10
10
10
10
10
10
10
10
10
10
10
10
10
10
10
10
10
10
10
10
10
10
10
10
10
10
10
10
10
10
10
10
10
10
10
10
10
10
10
10
10
10
10
10
10
10
10
10
10
10
10
10
10
10
10
10
10
10
10
10
10
10
10
10
10
10
10
10
10
10
10
10
10
10
10
10
10
10
10
10
10
10
10
10
10
10
10
10
10
10
10
10
10
10
10
10
10
10
10
10
10
10
10
10
10
10
10
10
10
10
10
10
10
10
10
10
10
10
10
10
10
10
10
10
10
10
10
10
10
10
10
10
10
10
10
10
10
10
10
10
10
10
10
10
10
10
10
10
10
10
10
10
10
10
10
10
10
10
10
10
10
10
10
10
10
10
10
10
10
10
10
10
10
10
10
10
10
10
10
10
10
10
10
10
10
10
10
10
10
10
10
10
10
10
10
10
10
10
10
10
10
10
10
10
10
10
10
10
10
10
10
10
10
10
10
10
10
10
10
10
10
10
10
10
10
10
10
10
10
10
10
10
10
10
10
10
10
10
10
10
10
10
10
10
10
10
10
10
10
10
10
10
10
10
10
10
10
10
10
10
10
10
10
10
10
10
10
10
10
10
10
10
10
10
10
10
10
10
10
10
10
10
10
10
10
10
10
10
10
10
10
10
10
10
10
10
10
10
10
10
10
10
10
10
10
10
10
10
10
10
10
10
10
10
10
10
10
10
10
10
10
10
10
10
10
10
10
10
10
10
10
10
10
10
10
10
10
10
10
10
10
10
10
10
10
10
10
10
10
10
10
10
10
10
10
10
10
10
10
10
10
10
10
10
10
10
10
10
10
10
10
10
10
10
10
10
10
10
10
10
10
10
10
10
10
10
10
10
10
10
10
10
10
10
10
10
10
10
10
10
10
10
10
10
10
10
10
10
10
10
10
10
10
10
10
10
10
10
10
10
10
10
10
10
10
10
10
10
10
10
10
10
10
10
10
10
10
10
10
10
10
10
10
10
10
10
10
10
10
10
10
10
10
10
10
10
10
10
10
10
10
10
10
10
10
10
10
10
10
10
10
10
10
10
10
10
10
10
10
10
10
10
10
10
10
10
10
10
10
10
10
10
10
10
10
10
10
10
10
10
10
10
10
10
10
10
10
10
10
10
10
10
10
10
10
10
10
10
10
10
10
10
10
10
10
10
10
10
10
10
10
10
10
10
10
10
10
10
10
10
10
10
10
10
10
10
10
10
10
10
10
10
10
10
10
10
10
10
10
10
10
10
10
10
10
10
10
10
10
10
10
10
10
10
10
10
10
10
10
10
10
10
10
10
10
10
10
10
10
10
10
10
10
10
10
10
10
10
10
10
10
10
10
10
10
10
10
10
10
10
10
10
10
10
10
10
10
10
10
10
10
10
10
10
10
10
10
10
10
10
10
10
10
10
10
10
10
10
10
10
10
10
10
10
10
10
10
10
10
10
10
10
10
10
10
10
10
10
10
10
10
10
10
10
10
10
10
10
10
10
10
10
10
10
10
10
10
10
10
10
10
10
10
10
10
10
10
10
10
10
10
10
10
10
10
10
10
10
10
10
10
10
10
10
10
10
10
10
10
10
10
10
10
10
10
10
10
10
10
10
10
10
10
10
10
10
10
10
10
10
10
10
10
10
10
10
10
10
10
10
10
10
10
10
10
10
10
10
10
10
10
10
10
10
10
10
10
10
10
10
10
10
10
10
10
10
10
10
10
10
10
10
10
10
10
10
10
10
10
10
10
10
10
10
10
10
10
10
10
10
10
10
10
10
10
10
10
10
10
10
10
10
10
10
10
10
10
10
10
10
10
10
10
10
10
10
10
10
10
10
10
10
10
10
10
10
10
10
10
10
10
10
10
10
10
10
10
10
10
10
10
10
10
10
10
10
10
10
10
10
10
10
10
10
10
10
10
10
10
10
10
10
10
10
10
10
10
10
10
10
10
10
10
10
10
10
10
10
10
10
10
10
10
10
10
10
10
10
10
10
10
10
10
10
10
10
10
10
10
10
10
10
10
10
10
10
10
10
10
10
10
10
10
10
10
10
10
10
10
10
10
10
10
10
10
10
10
10
10
10
10
10
10
10
10
10
10
10
10
10
10
10
10
10
10
10
10
10
10
10
10
10
10
10
10
10
10
10
10
10
10
10
10
10
10
10
10
10
10
10
10
10
10
10
10
10
10
10
10
10
10
10
10
10
10
10
10
10
10
10
10
10
10
10
10
10
10
10
10
10
10
10
10
10
10
10
10
10
10
10
10
10
10
10
10
10
10
10
10
10
10
10
10
10
10
10
10
10
10
10
10
10
10
10
10
10
10
10
10
10
10
10
10
10
10
10
10
10
10
10
10
10
10
10
10
10
10
10
10
10
10
10
10
10
10
10
10
10
10
10
10
10
10
10
10
10
10
10
10
10
10
10
10
10
10
10
10
10
10
10
10
10
10
10
10
10
10
10
10
10
10
10
10
10
10
10
10
10
10
10
10
10
10
10
10
10
10
10
10
10
10
10
10
10
10
10
10
10
10
10
10
10
10
10
10
10
10
10
10
10
10
10
10
10
10
10
10
10
10
10
10
10
10
10
10
10
10
10
10
10
10
10
10
10
10
10
10
10
10
10
10
10
10
10
10
10
10
10
10
10
10
10
10
10
10
10
10
10
10
10
10
10
10
10
10
10
10
10
10
10
10
10
10
10
10
10
10
10
10
10
10
10
10
10
10
10
10
10
10
10
10
10
10
10
10
10
10
10
10
10
10
10
10
10
10
10
10
10
10
10
10
10
10
10
10
10
10
10
10
10
10
10
10
10
10
10
10
10
10
10
10
10
10
10
10
10
10
10
10
10
10
10
10
10
10
10
10
10
10
10
10
10
10
10
10
10
10
10
10
10
10
10
10
10
10
10
10
10
10
10
10
10
10
10
10
10
10
10
10
10
10
10
10
10
10
10
10
10
10
10
10
10
10
10
10
10
10
10
10
10
10
10
10
10
10
10
10
10
10
10
10
10
10
10
10
10
10
10
10
10
10
10
10
10
10
10
10
10
10
10
10
10
10
10
10
10
10
10
10
10
10
10
10
10
10
10
10
10
10
10
10
10
10
10
10
10
10
10
10
10
10
10
10
10
10
10
10
10
10
10
10
10
10
10
10
10
10
10
10
10
10
10
10
10
10
10
10
10
10
10
10
10
10
10
10
10
10
10
10
10
10
10
10
10
10
10
10
10
10
10
10
10
10
10
10
10
10
10
10
10
10
10
10
10
10
10
10
10
10
10
10
10
10
10
10
10
10
10
10
10
10
10
10
10
10
10
10
10
10
10
10
10
10
10
10
10
10
10
10
10
10
10
10
10
10
10
10
10
10
10
10
10
10
10
10
10
10
10
10
10
10
10
10
10
10
10
10
10
10
10
10
10
10
10
10
10
10
10
10
10
10
10
10
10
10
10
10
10
10
10
10
10
10
10
10
10
10
10
10
10
10
10
10
10
10
10
10
10
10
10
10
10
10
10
10
10
10
10
10
10
10
10
10
10
10
10
10
10
10
10
10
10
10
10
10
10
10
10
10
10
10
10
10
10
10
10
10
10
10
10
10
10
10
10
10
10
10
10
10
10
10
10
10
10
10
10
10
10
10
10
10
10
10
10
10
10
10
10
10
10
10
10
10
10
10
10
10
10
10
10
10
10
10
10
10
10
10
10
10
10
10
10
10
10
10
10
10
10
10
10
10
10
10
10
10
10
10
10
10
10
10
10
10
10
10
10
10
10
10
10
10
10
10
10
10
10
10
10
10
10
10
10
10
10
10
10
10
10
10
10
10
10
10
10
10
10
10
10
10
10
10
10
10
10
10
10
10
10
10
10
10
10
10
10
10
10
10
10
10
10
10
10
10
10
10
10
10
10
10
10
10
10
10
10
10
10
10
10
10
10
10
10
10
10
10
10
10
10
10
10
10
10
10
10
10
10
10
10
10
10
10
10
10
10
10
10
10
10
10
10
10
10
10
10
10
10
10
10
10
10
10
10
10
10
10
10
10
10
10
10
10
10
10
10
10
10
10
10
10
10
10
10
10
10
10
10
10
10
10
10
10
10
10
10
10
10
10
10
10
10
10
10
10
10
10
10
10
10
10
10
10
10
10
10
10
10
10
10
10
10
10
10
10
10
10
10
10
10
10
10
10
10
10
10
10
10
10
10
10
10
10
10
10
10
10
10
10
10
10
10
10
10
10
10
10
10
10
10
10
10
10
10
10
10
10
10
10
10
10
10
10
10
10
10
10
10
10
10
10
10
10
10
10
10
10
10
10
10
10
10
10
10
10
10
10
10
10
10
10
10
10
10
10
10
10
10
10
10
10
10
10
10
10
10
10
10
10
10
10
10
10
10
10
10
10
10
10
10
10
10
10
10
10
10
10
10
10
10
10
10
10
10
10
10
10
10
10
10
10
10
10
10
10
10
10
10
10
10
10
10
10
10
10
10
10
10
10
10
10
10
10
10
10
10
10
10
10
10
10
10
10
10
10
10
10
10
10
10
10
10
10
10
10
10
10
10
10
10
10
10
10
10
10
10
10
10
10
10
10
10
10
10
10
10
10
10
10
10
10
10
10
10
10
10
10
10
10
10
10
10
10
10
10
10
10
10
10
10
10
10
10
10
10
10
10
10
10
10
10
10
10
10
10
10
10
10
10
10
10
10
10
10
10
10
10
10
10
10
10
10
10
10
10
10
10
10
10
10
10
10
10
10
10
10
10
10
10
10
10
10
10
10
10
10
10
10
10
10
10
10
10
10
10
10
10
10
10
10
10
10
10
10
10
10
10
10
10
10
10
10
10
10
10
10
10
10
10
10
10
10
10
10
10
10
10
10
10
10
10
10
10
10
10
10
10
10
10
10
10
10
10
10
10
10
10
10
10
10
10
10
10
10
10
10
10
10
10
10
10
10
10
10
10
10
10
10
10
10
10
10
10
10
10
10
10
10
10
10
10
10
10
10
10
10
10
10
10
10
10
10
10
10
10
10
10
10
10
10
10
10
10
10
10
10
10
10
10
10
10
10
10
10
10
10
10
10
10
10
10
10
10
10
10
10
10
10
10
10
10
10
10
10
10
10
10
10
10
10
10
10
10
10
10
10
10
10
10
10
10
10
10
10
10
10
10
10
10
10
10
10
10
10
10
10
10
10
10
10
10
10
10
10
10
10
10
10
10
10
10
10
10
10
10
10
10
10
10
10
10
10
10
10
10
10
10
10
10
10
10
10
10
10
10
10
10
10
10
10
10
10
10
10
10
10
10
10
10
10
10
10
10
10
10
10
10
10
10
10
10
10
10
10
10
10
10
10
10
10
10
10
10
10
10
10
10
10
10
10
10
10
10
10
10
10
10
10
10
10
10
10
10
10
10
10
10
10
10
10
10
10
10
10
10
10
10
10
10
10
10
10
10
10
10
10
10
10
10
10
10
10
10
10
10
10
10
10
10
10
10
10
10
10
10
10
10
10
10
10
10
10
10
10
10
10
10
10
10
10
10
10
10
10
10
10
10
10
10
10
10
10
10
10
10
10
10
10
10
10
10
10
10
10
10
10
10
10
10
10
10
10
10
10
10
10
10
10
10
10
10
10
10
10
10
10
10
10
10
10
10
10
10
10
10
10
10
10
10
10
10
10
10
10
10
10
10
10
10
10
10
10
10
10
10
10
10
10
10
10
10
10
10
10
10
10
10
10
10
10
10
10
10
10
10
10
10
10
10
10
10
10
10
10
10
10
10
10
10
10
10
10
10
10
10
10
10
10
10
10
10
10
10
10
10
10
10
10
10
10
10
10
10
10
10
10
10
10
10
10
10
10
10
10
10
10
10
10
10
10
10
10
10
10
10
10
10
10
10
10
10
10
10
10
10
10
10
10
10
10
10
10
10
10
10
10
10
10
10
10
10
10
10
10
10
10
10
10
10
10
10
10
10
10
10
10
10
10
10
10
10
10
10
10
10
10
10
10
10
10
10
10
10
10
10
10
10
10
10
10
10
10
10
10
10
10
10
10
10
10
10
10
10
10
10
10
10
10
10
10
10
10
10
10
10
10
10
10
10
10
10
10
10
10
10
10
10
10
10
10
10
10
10
10
10
10
10
10
10
10
10
10
10
10
10
10
10
10
10
10
10
10
10
10
10
10
10
10
10
10
10
10
10
10
10
10
10
10
10
10
10
10
10
10
10
10
10
10
10
10
10
10
10
10
10
10
10
10
10
10
10
10
10
10
10
10
10
10
10
10
10
10
10
10
10
10
10
10
10
10
10
10
10
10
10
10
10
10
10
10
10
10
10
10
10
10
10
10
10
10
10
10
10
10
10
10
10
10
10
10
10
10
10
10
10
10
10
10
10
10
10
10
10
10
10
10
10
10
10
10
10
10
10
10
10
10
10
10
10
10
10
10
10
10
10
10
10
10
10
10
10
10
10
10
10
10
10
10
10
10
10
10
10
10
10
10
10
10
10
10
10
10
10
10
10
10
10
10
10
10
10
10
10
10
10
10
10
10
10
10
10
10
10
10
10
10
10
10
10
10
10
10
10
10
10
10
10
10
10
10
10
10
10
10
10
10
10
10
10
10
10
10
10
10
10
10
10
10
10
10
10
10
10
10
10
10
10
10
10
10
10
10
10
10
10
10
10
10
10
10
10
10
10
10
10
10
10
10
10
10
10
10
10
10
10
10
10
10
10
10
10
10
10
10
10
10
10
10
10
10
10
10
10
10
10
10
10
10
10
10
10
10
10
10
10
10
10
10
10
10
10
10
10
10
10
10
10
10
10
10
10
10
10
10
10
10
10
10
10
10
10
10
10
10
10
10
10
10
10
10
10
10
10
10
10
10
10
10
10
10
10
10
10
10
10
10
10
10
10
10
10
10
10
10
10
10
10
10
10
10
10
10
10
10
10
10
10
10
10
10
10
10
10
10
10
10
10
10
10
10
10
10
10
10
10
10
10
10
10
10
10
10
10
10
10
10
10
10
10
10
10
10
10
10
10
10
10
10
10
10
10
10
10
10
10
10
10
10
10
10
10
10
10
10
10
10
10
10
10
10
10
10
10
10
10
10
10
10
10
10
10
10
10
10
10
10
10
10
10
10
10
10
10
10
10
10
10
10
10
10
10
10
10
10
10
10
10
10
10
10
10
10
10
10
10
10
10
10
10
10
10
10
10
10
10
10
10
10
10
10
10
10
10
10
10
10
10
10
10
10
10
10
10
10
10
10
10
10
10
10
10
10
10
10
10
10
10
10
10
10
10
10
10
10
10
10
10
10
10
10
10
10
10
10
10
10
10
10
10
10
10
10
10
10
10
10
10
10
10
10
10
10
10
10
10
10
10
10
10
10
10
10
10
10
10
10
10
10
10
10
10
10
10
10
10
10
10
10
10
10
10
10
10
10
10
10
10
10
10
10
10
10
10
10
10
10
10
10
10
10
10
10
10
10
10
10
10
10
10
10
10
10
10
10
10
10
10
10
10
10
10
10
10
10
10
10
10
10
10
10
10
10
10
10
10
10
10
10
10
10
10
10
10
10
10
10
10
10
10
10
10
10
10
10
10
10
10
10
10
10
10
10
10
10
10
10
10
10
10
10
10
10
10
10
10
10
10
10
10
10
10
10
10
10
10
10
10
10
10
10
10
10
10
10
10
10
10
10
10
10
10
10
10
10
10
10
10
10
10
10
10
10
10
10
10
10
10
10
10
10
10
10
10
10
10
10
10
10
10
10
10
10
10
10
10
10
10
10
10
10
10
10
10
10
10
10
10
10
10
10
10
10
10
10
10
10
10
10
10
10
10
10
10
10
10
10
10
10
10
10
10
10
10
10
10
10
10
10
10
10
10
10
10
10
10
10
10
10
10
10
10
10
10
10
10
10
10
10
10
10
10
10
10
10
10
10
10
10
10
10
10
10
10
10
10
10
10
10
10
10
10
10
10
10
10
10
10
10
10
10
10
10
10
10
10
10
10
10
10
10
10
10
10
10
10
10
10
10
10
10
10
10
10
10
10
10
10
10
10
10
10
10
10
10
10
10
10
10
10
10
10
10
10
10
10
10
10
10
10
10
10
10
10
10
10
10
10
10
10
10
10
10
10
10
10
10
10
10
10
10
10
10
10
10
10
10
10
10
10
10
10
10
10
10
10
10
10
10
10
10
10
10
10
10
10
10
10
10
10
10
10
10
10
10
10
10
10
10
10
10
10
10
10
10
10
10
10
10
10
10
10
10
10
10
10
10
10
10
10
10
10
10
10
10
10
10
10
10
10
10
10
10
10
10
10
10
10
10
10
10
10
10
10
10
10
10
10
10
10
10
10
10
10
10
10
10
10
10
10
10
10
10
10
10
10
10
10
10
10
10
10
10
10
10
10
10
10
10
10
10
10
10
10
10
10
10
10
10
10
10
10
10
10
10
10
10
10
10
10
10
10
10
10
10
10
10
10
10
10
10
10
10
10
10
10
10
10
10
10
10
10
10
10
10
10
10
10
10
10
10
10
10
10
10
10
10
10
10
10
10
10
10
10
10
10
10
10
10
10
10
10
10
10
10
10
10
10
10
10
10
10
10
10
10
10
10
10
10
10
10
10
10
10
10
10
10
10
10
10
10
10
10
10
10
10
10
10
10
10
10
10
10
10
10
10
10
10
10
10
10
10
10
10
10
10
10
10
10
10
10
10
10
10
10
10
10
10
10
10
10
10
10
10
10
10
10
10
10
10
10
10
10
10
10
10
10
10
10
10
10
10
10
10
10
10
10
10
10
10
10
10
10
10
10
10
10
10
10
10
10
10
10
10
10
10
10
10
10
10
10
10
10
10
10
10
10
10
10
10
10
10
10
10
10
10
10
10
10
10
10
10
10
10
10
10
10
10
10
10
10
10
10
10
10
10
10
10
10
10
10
10
10
10
10
10
10
10
10
10
10
10
10
10
10
10
10
10
10
10
10
10
10
10
10
10
10
10
10
10
10
10
10
10
10
10
10
10
10
10
10
10
10
10
10
10
10
10
10
10
10
10
10
10
10
10
10
10
10
10
10
10
10
10
10
10
10
10
10
10
10
10
10
10
10
10
10
10
10
10
10
10
10
10
10
10
10
10
10
10
10
10
10
10
10
10
10
10
10
10
10
10
10
10
10
10
10
10
10
10
10
10
10
10
10
10
10
10
10
10
10
10
10
10
10
10
10
10
10
10
10
10
10
10
10
10
10
10
10
10
10
10
10
10
10
10
10
10
10
10
10
10
10
10
10
10
10
10
10
10
10
10
10
10
10
10
10
10
10
10
10
10
10
10
10
10
10
10
10
10
10
10
10
10
10
10
10
10
10
10
10
10
10
10
10
10
10
10
10
10
10
10
10
10
10
10
10
10
10
10
10
10
10
10
10
10
10
10
10
10
10
10
10
10
10
10
10
10
10
10
10
10
10
10
10
10
10
10
10
10
10
10
10
10
10
10
10
10
10
10
10
10
10
10
10
10
10
10
10
10
10
10
10
10
10
10
10
10
10
10
10
10
10
10
10
10
10
10
10
10
10
10
10
10
10
10
10
10
10
10
10
10
10
10
10
10
10
10
10
10
10
10
10
10
10
10
10
10
10
10
10
10
10
10
10
10
10
10
10
10
10
10
10
10
10
10
10
10
10
10
10
10
10
10
10
10
10
10
10
10
10
10
10
10
10
10
10
10
10
10
10
10
10
10
10
10
10
10
10
10
10
10
10
10
10
10
10
10
10
10
10
10
10
10
10
10
10
10
10
10
10
10
10
10
10
10
10
10
10
10
10
10
10
10
10
10
10
10
10
10
10
10
10
10
10
10
10
10
10
10
10
10
10
10
10
10
10
10
10
10
10
10
10
10
10
10
10
10
10
10
10
10
10
10
10
10
10
10
10
10
10
10
10
10
10
10
10
10
10
10
10
10
10
10
10
10
10
10
10
10
10
10
10
10
10
10
10
10
10
10
10
10
10
10
10
10
10
10
10
10
10
10
10
10
10
10
10
10
10
10
10
10
10
10
10
10
10
10
10
10
10
10
10
10
10
10
10
10
10
10
10
10
10
10
10
10
10
10
10
10
10
10
10
10
10
10
10
10
10
10
10
10
10
10
10
10
10
10
10
10
10
10
10
10
10
10
10
10
10
10
10
10
10
10
10
10
10
10
10
10
10
10
10
10
10
10
10
10
10
10
10
10
10
10
10
10
10
10
10
10
10
10
10
10
10
10
10
10
10
10
10
10
10
10
10
10
10
10
10
10
10
10
10
10
10
10
10
10
10
10
10
10
10
10
10
10
10
10
10
10
10
10
10
10
10
10
10
10
10
10
10
10
10
10
10
10
10
10
10
10
10
10
10
10
10
10
10
10
10
10
10
10
10
10
10
10
10
10
10
10
10
10
10
10
10
10
10
10
10
10
10
10
10
10
10
10
10
10
10
10
10
10
10
10
10
10
10
10
10
10
10
10
10
10
10
10
10
10
10
10
10
10
10
10
10
10
10
10
10
10
10
10
10
10
10
10
10
10
10
10
10
10
10
10
10
10
10
10
10
10
10
10
10
10
10
10
10
10
10
10
10
10
10
10
10
10
10
10
10
10
10
10
10
10
10
10
10
10
10
10
10
10
10
10
10
10
10
10
10
10
10
10
10
10
10
10
10
10
10
10
10
10
10
10
10
10
10
10
10
10
10
10
10
10
10
10
10
10
10
10
10
10
10
10
10
10
10
10
10
10
10
10
10
10
10
10
10
10
10
10
10
10
10
10
10
10
10
10
10
10
10
10
10
10
10
10
10
10
10
10
10
10
10
10
10
10
10
10
10
10
10
10
10
10
10
10
10
10
10
10
10
10
10
10
10
10
10
10
10
10
10
10
10
10
10
10
10
10
10
10
10
10
10
10
10
10
10
10
10
10
10
10
10
10
10
10
10
10
10
10
10
10
10
10
10
10
10
10
10
10
10
10
10
10
10
10
10
10
10
10
10
10
10
10
10
10
10
10
10
10
10
10
10
10
10
10
10
10
10
10
10
10
10
10
10
10
10
10
10
10
10
10
10
10
10
10
10
10
10
10
10
10
10
10
10
10
10
10
10
10
10
10
10
10
10
10
10
10
10
10
10
10
10
10
10
10
10
10
10
10
10
10
10
10
10
10
10
10
10
10
10
10
10
10
10
10
10
10
10
10
10
10
10
10
10
10
10
10
10
10
10
10
10
10
10
10
10
10
10
10
10
10
10
10
10
10
10
10
10
10
10
10
10
10
10
10
10
10
10
10
10
10
10
10
10
10
10
10
10
10
10
10
10
10
10
10
10
10
10
10
10
10
10
10
10
10
10
10
10
10
10
10
10
10
10
10
10
10
10
10
10
10
10
10
10
10
10
10
10
10
10
10
10
10
10
10
10
10
10
10
10
10
10
10
10
10
10
10
10
10
10
10
10
10
10
10
10
10
10
10
10
10
10
10
10
10
10
10
10
10
10
10
10
10
10
10
10
10
10
10
10
10
10
10
10
10
10
10
10
10
10
10
10
10
10
10
10
10
10
10
10
10
10
10
10
10
10
10
10
10
10
10
10
10
10
10
10
10
10
10
10
10
10
10
10
10
10
10
10
10
10
10
10
10
10
10
10
10
10
10
10
10
10
10
10
10
10
10
10
10
10
10
10
10
10
10
10
10
10
10
10
10
10
10
10
10
10
10
10
10
10
10
10
10
10
10
10
10
10
10
10
10
10
10
10
10
10
10
10
10
10
10
10
10
10
10
10
10
10
10
10
10
10
10
10
10
10
10
10
10
10
10
10
10
10
10
10
10
10
10
10
10
10
10
10
10
10
10
10
10
10
10
10
10
10
10
10
10
10
10
10
10
10
10
10
10
10
10
10
10
10
10
10
10
10
10
10
10
10
10
10
10
10
10
10
10
10
10
10
10
10
10
10
10
10
10
10
10
10
10
10
10
10
10
10
10
10
10
10
10
10
10
10
10
10
10
10
10
10
10
10
10
10
10
10
10
10
10
10
10
10
10
10
10
10
10
10
10
10
10
10
10
10
10
10
10
10
10
10
10
10
10
10
10
10
10
10
10
10
10
10
10
10
10
10
10
10
10
10
10
10
10
10
10
10
10
10
10
10
10
10
10
10
10
10
10
10
10
10
10
10
10
10
10
10
10
10
10
10
10
10
10
10
10
10
10
10
10
10
10
10
10
10
10
10
10
10
10
10
10
10
10
10
10
10
10
10
10
10
10
10
10
10
10
10
10
10
10
10
10
10
10
10
10
10
10
10
10
10
10
10
10
10
10
10
10
10
10
10
10
10
10
10
10
10
10
10
10
10
10
10
10
10
10
10
10
10
10
10
10
10
10
10
10
10
10
10
10
10
10
10
10
10
10
10
10
10
10
10
10
10
10
10
10
10
10
10
10
10
10
10
10
10
10
10
10
10
10
10
10
10
10
10
10
10
10
10
10
10
10
10
10
10
10
10
10
10
10
10
10
10
10
10
10
10
10
10
10
10
10
10
10
10
10
10
10
10
10
10
10
10
10
10
10
10
10
10
10
10
10
10
10
10
10
10
10
10
10
10
10
10
10
10
10
10
10
10
10
10
10
10
10
10
10
10
10
10
10
10
10
10
10
10
10
10
10
10
10
10
10
10
10
10
10
10
10
10
10
10
10
10
10
10
10
10
10
10
10
10
10
10
10
10
10
10
10
10
10
10
10
10
10
10
10
10
10
10
10
10
10
10
10
10
10
10
10
10
10
10
10
10
10
10
10
10
10
10
10
10
10
10
10
10
10
10
10
10
10
10
10
10
10
10
10
10
10
10
10
10
10
10
10
10
10
10
10
10
10
10
10
10
10
10
10
10
10
10
10
10
10
10
10
10
10
10
10
10
10
10
10
10
10
10
10
10
10
10
10
10
10
10
10
10
10
10
10
10
10
10
10
10
10
10
10
10
10
10
10
10
10
10
10
10
10
10
10
10
10
10
10
10
10
10
10
10
10
10
10
10
10
10
10
10
10
10
10
10
10
10
10
10
10
10
10
10
10
10
10
10
10
10
10
10
10
10
10
10
10
10
10
10
10
10
10
10
10
10
10
10
10
10
10
10
10
10
10
10
10
10
10
10
10
10
10
10
10
10
10
10
10
10
10
10
10
10
10
10
10
10
10
10
10
10
10
10
10
10
10
10
10
10
10
10
10
10
10
10
10
10
10
10
10
10
10
10
10
10
10
10
10
10
10
10
10
10
10
10
10
10
10
10
10
10
10
10
10
10
10
10
10
10
10
10
10
10
10
10
10
10
10
10
10
10
10
10
10
10
10
10
10
10
10
10
10
10
10
10
10
10
10
10
10
10
10
10
10
10
10
10
10
10
10
10
10
10
10
10
10
10
10
10
10
10
10
10
10
10
10
10
10
10
10
10
10
10
10
10
10
10
10
10
10
10
10
10
10
10
10
10
10
10
10
10
10
10
10
10
10
10
10
10
10
10
10
10
10
10
10
10
10
10
10
10
10
10
10
10
10
10
10
10
10
10
10
10
10
10
10
10
10
10
10
10
10
10
10
10
10
10
10
10
10
10
10
10
10
10
10
10
10
10
10
10
10
10
10
10
10
10
10
10
10
10
10
10
10
10
10
10
10
10
10
10
10
10
10
10
10
10
10
10
10
10
10
10
10
10
10
10
10
10
10
10
10
10
10
10
10
10
10
10
10
10
10
10
10
10
10
10
10
10
10
10
10
10
10
10
10
10
10
10
10
10
10
10
10
10
10
10
10
10
10
10
10
10
10
10
10
10
10
10
10
10
10
10
10
10
10
10
10
10
10
10
10
10
10
10
10
10
10
10
10
10
10
10
10
10
10
10
10
10
10
10
10
10
10
10
10
10
10
10
10
10
10
10
10
10
10
10
10
10
10
10
10
10
10
10
10
10
10
10
10
10
10
10
10
10
10
10
10
10
10
10
10
10
10
10
10
10
10
10
10
10
10
10
10
10
10
10
10
10
10
10
10
10
10
10
10
10
10
10
10
10
10
10
10
10
10
10
10
10
10
10
10
10
10
10
10
10
10
10
10
10
10
10
10
10
10
10
10
10
10
10
10
10
10
10
10
10
10
10
10
10
10
10
10
10
10
10
10
10
10
10
10
10
10
10
10
10
10
10
10
10
10
10
10
10
10
10
10
10
10
10
10
10
10
10
10
10
10
10
10
10
10
10
10
10
10
10
10
10
10
10
10
10
10
10
10
10
10
10
10
10
10
10
10
10
10
10
10
10
10
10
10
10
10
10
10
10
10
10
10
10
10
10
10
10
10
10
10
10
10
10
10
10
10
10
10
10
10
10
10
10
10
10
10
10
10
10
10
10
10
10
10
10
10
10
10
10
10
10
10
10
10
10
10
10
10
10
10
10
10
10
10
10
10
10
10
10
10
10
10
10
10
10
10
10
10
10
10
10
10
10
10
10
10
10
10
10
10
10
10
10
10
10
10
10
10
10
10
10
10
10
10
10
10
10
10
10
10
10
10
10
10
10
10
10
10
10
10
10
10
10
10
10
10
10
10
10
10
10
10
10
10
10
10
10
10
10
10
10
10
10
10
10
10
10
10
10
10
10
10
10
10
10
10
10
10
10
10
10
10
10
10
10
10
10
10
10
10
10
10
10
10
10
10
10
10
10
10
10
10
10
10
10
10
10
10
10
10
10
10
10
10
10
10
10
10
10
10
10
10
10
10
10
10
10
10
10
10
10
10
10
10
10
10
10
10
10
10
10
10
10
10
10
10
10
10
10
10
10
10
10
10
10
10
10
10
10
10
10
10
10
10
10
10
10
10
10
10
10
10
10
10
10
10
10
10
10
10
10
10
10
10
10
10
10
10
10
10
10
10
10
10
10
10
10
10
10
10
10
10
10
10
10
10
10
10
10
10
10
10
10
10
10
10
10
10
10
10
10
10
10
10
10
10
10
10
10
10
10
10
10
10
10
10
10
10
10
10
10
10
10
10
10
10
10
10
10
10
10
10
10
10
10
10
10
10
10
10
10
10
10
10
10
10
10
10
10
10
10
10
10
10
10
10
10
10
10
10
10
10
10
10
10
10
10
10
10
10
10
10
10
10
10
10
10
10
10
10
10
10
10
10
10
10
10
10
10
10
10
10
10
10
10
10
10
10
10
10
10
10
10
10
10
10
10
10
10
10
10
10
10
10
10
10
10
10
10
10
10
10
10
10
10
10
10
10
10
10
10
10
10
10
10
10
10
10
10
10
10
10
10
10
10
10
10
10
10
10
10
10
10
10
10
10
10
10
10
10
10
10
10
10
10
10
10
10
10
10
10
10
10
10
10
10
10
10
10
10
10
10
10
10
10
10
10
10
10
10
10
10
10
10
10
10
10
10
10
10
10
10
10
10
10
10
10
10
10
10
10
10
10
10
10
10
10
10
10
10
10
10
10
10
10
10
10
10
10
10
10
10
10
10
10
10
10
10
10
10
10
10
10
10
10
10
10
10
10
10
10
10
10
10
10
10
10
10
10
10
10
10
10
10
10
10
10
10
10
10
10
10
10
10
10
10
10
10
10
10
10
10
10
10
10
10
10
10
10
10
10
10
10
10
10
10
10
10
10
10
10
10
10
10
10
10
10
10
10
10
10
10
10
10
10
10
10
10
10
10
10
10
10
10
10
10
10
10
10
10
10
10
10
10
10
10
10
10
10
10
10
10
10
10
10
10
10
10
10
10
10
10
10
10
10
10
10
10
10
10
10
10
10
10
10
10
10
10
10
10
10
10
10
10
10
10
10
10
10
10
10
10
10
10
10
10
10
10
10
10
10
10
10
10
10
10
10
10
10
10
10
10
10
10
10
10
10
10
10
10
10
10
10
10
10
10
10
10
10
10
10
10
10
10
10
10
10
10
10
10
10
10
10
10
10
10
10
10
10
10
10
10
10
10
10
10
10
10
10
10
10
10
10
10
10
10
10
10
10
10
10
10
10
10
10
10
10
10
10
10
10
10
10
10
10
10
10
10
10
10
10
10
10
10
10
10
10
10
10
10
10
10
10
10
10
10
10
10
10
10
10
10
10
10
10
10
10
10
10
10
10
10
10
10
10
10
10
10
10
10
10
10
10
10
10
10
10
10
10
10
10
10
10
10
10
10
10
10
10
10
10
10
10
10
10
10
10
10
10
10
10
10
10
10
10
10
10
10
10
10
10
10
10
10
10
10
10
10
10
10
10
10
10
10
10
10
10
10
10
10
10
10
10
10
10
10
10
10
10
10
10
10
10
10
10
10
10
10
10
10
10
10
10
10
10
10
10
10
10
10
10
10
10
10
10
10
10
10
10
10
10
10
10
10
10
10
10
10
10
10
10
10
10
10
10
10
10
10
10
10
10
10
10
10
10
10
10
10
10
10
10
10
10
10
10
10
10
10
10
10
10
10
10
10
10
10
10
10
10
10
10
10
10
10
10
10
10
10
10
10
10
10
10
10
10
10
10
10
10
10
10
10
10
10
10
10
10
10
10
10
10
10
10
10
10
10
10
10
10
10
10
10
10
10
10
10
10
10
10
10
10
10
10
10
10
10
10
10
10
10
10
10
10
10
10
10
10
10
10
10
10
10
10
10
10
10
10
10
10
10
10
10
10
10
10
10
10
10
10
10
10
10
10
10
10
10
10
10
10
10
10
10
10
10
10
10
10
10
10
10
10
10
10
10
10
10
10
10
10
10
10
10
10
10
10
10
10
10
10
10
10
10
10
10
10
10
10
10
10
10
10
10
10
10
10
10
10
10
10
10
10
10
10
10
10
10
10
10
10
10
10
10
10
10
10
10
10
10
10
10
10
10
10
10
10
10
10
10
10
10
10
10
10
10
10
10
10
10
10
10
10
10
10
10
10
10
10
10
10
10
10
10
10
10
10
10
10
10
10
10
10
10
10
10
10
10
10
10
10
10
10
10
10
10
10
10
10
10
10
10
10
10
10
10
10
10
10
10
10
10
10
10
10
10
10
10
10
10
10
10
10
10
10
10
10
10
10
10
10
10
10
10
10
10
10
10
10
10
10
10
10
10
10
10
10
10
10
10
10
10
10
10
10
10
10
10
10
10
10
10
10
10
10
10
10
10
10
10
10
10
10
10
10
10
10
10
10
10
10
10
10
10
10
10
10
10
10
10
10
10
10
10
10
10
10
10
10
10
10
10
10
10
10
10
10
10
10
10
10
10
10
10
10
10
10
10
10
10
10
10
10
10
10
10
10
10
10
10
10
10
10
10
10
10
10
10
10
10
10
10
10
10
10
10
10
10
10
10
10
10
10
10
10
10
10
10
10
10
10
10
10
10
10
10
10
10
10
10
10
10
10
10
10
10
10
10
10
10
10
10
10
10
10
10
10
10
10
10
10
10
10
10
10
10
10
10
10
10
10
10
10
10
10
10
10
10
10
10
10
10
10
10
10
10
10
10
10
10
10
10
10
10
10
10
10
10
10
10
10
10
10
10
10
10
10
10
10
10
10
10
10
10
10
10
10
10
10
10
10
10
10
10
10
10
10
10
10
10
10
10
10
10
10
10
10
10
10
10
10
10
10
10
10
10
10
10
10
10
10
10
10
10
10
10
10
10
10
10
10
10
10
10
10
10
10
10
10
10
10
10
10
10
10
10
10
10
10
10
10
10
10
10
10
10
10
10
10
10
10
10
10
10
10
10
10
10
10
10
10
10
10
10
10
10
10
10
10
10
10
10
10
10
10
10
10
10
10
10
10
10
10
10
10
10
10
10
10
10
10
10
10
10
10
10
10
10
10
10
10
10
10
10
10
10
10
10
10
10
10
10
10
10
10
10
10
10
10
10
10
10
10
10
10
10
10
10
10
10
10
10
10
10
10
10
10
10
10
10
10
10
10
10
10
10
10
10
10
10
10
10
10
10
10
10
10
10
10
10
10
10
10
10
10
10
10
10
10
10
10
10
10
10
10
10
10
10
10
10
10
10
10
10
10
10
10
10
10
10
10
10
10
10
10
10
10
10
10
10
10
10
10
10
10
10
10
10
10
10
10
10
10
10
10
10
10
10
10
10
10
10
10
10
10
10
10
10
10
10
10
10
10
10
10
10
10
10
10
10
10
10
10
10
10
10
10
10
10
10
10
10
10
10
10
10
10
10
10
10
10
10
10
10
10
10
10
10
10
10
10
10
10
10
10
10
10
10
10
10
10
10
10
10
10
10
10
10
10
10
10
10
10
10
10
10
10
10
10
10
10
10
10
10
10
10
10
10
10
10
10
10
10
10
10
10
10
10
10
10
10
10
10
10
10
10
10
10
10
10
10
10
10
10
10
10
10
10
10
10
10
10
10
10
10
10
10
10
10
10
10
10
10
10
10
10
10
10
10
10
10
10
10
10
10
10
10
10
10
10
10
10
10
10
10
10
10
10
10
10
10
10
10
10
10
10
10
10
10
10
10
10
10
10
10
10
10
10
10
10
10
10
10
10
10
10
10
10
10
10
10
10
10
10
10
10
10
10
10
10
10
10
10
10
10
10
10
10
10
10
10
10
10
10
10
10
10
10
10
10
10
10
10
10
10
10
10
10
10
10
10
10
10
10
10
10
10
10
10
10
10
10
10
10
10
10
10
10
10
10
10
10
10
10
10
10
10
10
10
10
10
10
10
10
10
10
10
10
10
10
10
10
10
10
10
10
10
10
10
10
10
10
10
10
10
10
10
10
10
10
10
10
10
10
10
10
10
10
10
10
10
10
10
10
10
10
10
10
10
10
10
10
10
10
10
10
10
10
10
10
10
10
10
10
10
10
10
10
10
10
10
10
10
10
10
10
10
10
10
10
10
10
10
10
10
10
10
10
10
10
10
10
10
10
10
10
10
10
10
10
10
10
10
10
10
10
10
10
10
10
10
10
10
10
10
10
10
10
10
10
10
10
10
10
10
10
10
10
10
10
10
10
10
10
10
10
10
10
10
10
10
10
10
10
10
10
10
10
10
10
10
10
10
10
10
10
10
10
10
10
10
10
10
10
10
10
10
10
10
10
10
10
10
10
10
10
10
10
10
10
10
10
10
10
10
10
10
10
10
10
10
10
10
10
10
10
10
10
10
10
10
10
10
10
10
10
10
10
10
10
10
10
10
10
10
10
10
10
10
10
10
10
10
10
10
10
10
10
10
10
10
10
10
10
10
10
10
10
10
10
10
10
10
10
10
10
10
10
10
10
10
10
10
10
10
10
10
10
10
10
10
10
10
10
10
10
10
10
10
10
10
10
10
10
10
10
10
10
10
10
10
10
10
10
10
10
10
10
10
10
10
10
10
10
10
10
10
10
10
10
10
10
10
10
10
10
10
10
10
10
10
10
10
10
10
10
10
10
10
10
10
10
10
10
10
10
10
10
10
10
10
10
10
10
10
10
10
10
10
10
10
10
10
10
10
10
10
10
10
10
10
10
10
10
10
10
10
10
10
10
10
10
10
10
10
10
10
10
10
10
10
10
10
10
10
10
10
10
10
10
10
10
10
10
10
10
10
10
10
10
10
10
10
10
10
10
10
10
10
10
10
10
10
10
10
10
10
10
10
10
10
10
10
10
10
10
10
10
10
10
10
10
10
10
10
10
10
10
10
10
10
10
10
10
10
10
10
10
10
10
10
10
10
10
10
10
10
10
10
10
10
10
10
10
10
10
10
10
10
10
10
10
10
10
10
10
10
10
10
10
10
10
10
10
10
10
10
10
10
10
10
10
10
10
10
10
10
10
10
10
10
10
10
10
10
10
10
10
10
10
10
10
10
10
10
10
10
10
10
10
10
10
10
10
10
10
10
10
10
10
10
10
10
10
10
10
10
10
10
10
10
10
10
10
10
10
10
10
10
10
10
10
10
10
10
10
10
10
10
10
10
10
10
10
10
10
10
10
10
10
10
10
10
10
10
10
10
10
10
10
10
10
10
10
10
10
10
10
10
10
10
10
10
10
10
10
10
10
10
10
10
10
10
10
10
10
10
10
10
10
10
10
10
10
10
10
10
10
10
10
10
10
10
10
10
10
10
10
10
10
10
10
10
10
10
10
10
10
10
10
10
10
10
10
10
10
10
10
10
10
10
10
10
10
10
10
10
10
10
10
10
10
10
10
10
10
10
10
10
10
10
10
10
10
10
10
10
10
10
10
10
10
10
10
10
10
10
10
10
10
10
10
10
10
10
10
10
10
10
10
10
10
10
10
10
10
10
10
10
10
10
10
10
10
10
10
10
10
10
10
10
10
10
10
10
10
10
10
10
10
10
10
10
10
10
10
10
10
10
10
10
10
10
10
10
10
10
10
10
10
10
10
10
10
10
10
10
10
10
10
10
10
10
10
10
10
10
10
10
10
10
10
10
10
10
10
10
10
10
10
10
10
10
10
10
10
10
10
10
10
10
10
10
10
10
10
10
10
10
10
10
10
10
10
10
10
10
10
10
10
10
10
10
10
10
10
10
10
10
10
10
10
10
10
10
10
10
10
10
10
10
10
10
10
10
10
10
10
10
10
10
10
10
10
10
10
10
10
10
10
10
10
10
10
10
10
10
10
10
10
10
10
10
10
10
10
10
10
10
10
10
10
10
10
10
10
10
10
10
10
10
10
10
10
10
10
10
10
10
10
10
10
10
10
10
10
10
10
10
10
10
10
10
10
10
10
10
10
10
10
10
10
10
10
10
10
10
10
10
10
10
10
10
10
10
10
10
10
10
10
10
10
10
10
10
10
10
10
10
10
10
10
10
10
10
10
10
10
10
10
10
10
10
10
10
10
10
10
10
10
10
10
10
10
10
10
10
10
10
10
10
10
10
10
10
10
10
10
10
10
10
10
10
10
10
10
10
10
10
10
10
10
10
10
10
10
10
10
10
10
10
10
10
10
10
10
10
10
10
10
10
10
10
10
10
10
10
10
10
10
10
10
10
10
10
10
10
10
10
10
10
10
10
10
10
10
10
10
10
10
10
10
10
10
10
10
10
10
10
10
10
10
10
10
10
10
10
10
10
10
10
10
10
10
10
10
10
10
10
10
10
10
10
10
10
10
10
10
10
10
10
10
10
10
10
10
10
10
10
10
10
10
10
10
10
10
10
10
10
10
10
10
10
10
10
10
10
10
10
10
10
10
10
10
10
10
10
10
10
10
10
10
10
10
10
10
10
10
10
10
10
10
10
10
10
10
10
10
10
10
10
10
10
10
10
10
10
10
10
10
10
10
10
10
10
10
10
10
10
10
10
10
10
10
10
10
10
10
10
10
10
10
10
10
10
10
10
10
10
10
10
10
10
10
10
10
10
10
10
10
10
10
10
10
10
10
10
10
10
10
10
10
10
10
10
10
10
10
10
10
10
10
10
10
10
10
10
10
10
10
10
10
10
10
10
10
10
10
10
10
10
10
10
10
10
10
10
10
10
10
10
10
10
10
10
10
10
10
10
10
10
10
10
10
10
10
10
10
10
10
10
10
10
10
10
10
10
10
10
10
10
10
10
10
10
10
10
10
10
10
10
10
10
10
10
10
10
10
10
10
10
10
10
10
10
10
10
10
10
10
10
10
10
10
10
10
10
10
10
10
10
10
10
10
10
10
10
10
10
10
10
10
10
10
10
10
10
10
10
10
10
10
10
10
10
10
10
10
10
10
10
10
10
10
10
10
10
10
10
10
10
10
10
10
10
10
10
10
10
10
10
10
10
10
10
10
10
10
10
10
10
10
10
10
10
10
10
10
10
10
10
10
10
10
10
10
10
10
10
10
10
10
10
10
10
10
10
10
10
10
10
10
10
10
10
10
10
10
10
10
10
10
10
10
10
10
10
10
10
10
10
10
10
10
10
10
10
10
10
10
10
10
10
10
10
10
10
10
10
10
10
10
10
10
10
10
10
10
10
10
10
10
10
10
10
10
10
10
10
10
10
10
10
10
10
10
10
10
10
10
10
10
10
10
10
10
10
10
10
10
10
10
10
10
10
10
10
10
10
10
10
10
10
10
10
10
10
10
10
10
10
10
10
10
10
10
10
10
10
10
10
10
10
10
10
10
10
10
10
10
10
10
10
10
10
10
10
10
10
10
10
10
10
10
10
10
10
10
10
10
10
10
10
10
10
10
10
10
10
10
10
10
10
10
10
10
10
10
10
10
10
10
10
10
10
10
10
10
10
10
10
10
10
10
10
10
10
10
10
10
10
10
10
10
10
10
10
10
10
10
10
10
10
10
10
10
10
10
10
10
10
10
10
10
10
10
10
10
10
10
10
10
10
10
10
10
10
10
10
10
10
10
10
10
10
10
10
10
10
10
10
10
10
10
10
10
10
10
10
10
10
10
10
10
10
10
10
10
10
10
10
10
10
10
10
10
10
10
10
10
10
10
10
10
10
10
10
10
10
10
10
10
10
10
10
10
10
10
10
10
10
10
10
10
10
10
10
10
10
10
10
10
10
10
10
10
10
10
10
10
10
10
10
10
10
10
10
10
10
10
10
10
10
10
10
10
10
10
10
10
10
10
10
10
10
10
10
10
10
10
10
10
10
10
10
10
10
10
10
10
10
10
10
10
10
10
10
10
10
10
10
10
10
10
10
10
10
10
10
10
10
10
10
10
10
10
10
10
10
10
10
10
10
10
10
10
10
10
10
10
10
10
10
10
10
10
10
10
10
10
10
10
10
10
10
10
10
10
10
10
10
10
10
10
10
10
10
10
10
10
10
10
10
10
10
10
10
10
10
10
10
10
10
10
10
10
10
10
10
10
10
10
10
10
10
10
10
10
10
10
10
10
10
10
10
10
10
10
10
10
10
10
10
10
10
10
10
10
10
10
10
10
10
10
10
10
10
10
10
10
10
10
10
10
10
10
10
10
10
10
10
10
10
10
10
10
10
10
10
10
10
10
10
10
10
10
10
10
10
10
10
10
10
10
10
10
10
10
10
10
10
10
10
10
10
10
10
10
10
10
10
10
10
10
10
10
10
10
10
10
10
10
10
10
10
10
10
10
10
10
10
10
10
10
10
10
10
10
10
10
10
10
10
10
10
10
10
10
10
10
10
10
10
10
10
10
10
10
10
10
10
10
10
10
10
10
10
10
10
10
10
10
10
10
10
10
10
10
10
10
10
10
10
10
10
10
10
10
10
10
10
10
10
10
10
10
10
10
10
10
10
10
10
10
10
10
10
10
10
10
10
10
10
10
10
10
10
10
10
10
10
10
10
10
10
10
10
10
10
10
10
10
10
10
10
10
10
10
10
10
10
10
10
10
10
10
10
10
10
10
10
10
10
10
10
10
10
10
10
10
10
10
10
10
10
10
10
10
10
10
10
10
10
10
10
10
10
10
10
10
10
10
10
10
10
10
10
10
10
10
10
10
10
10
10
10
10
10
10
10
10
10
10
10
10
10
10
10
10
10
10
10
10
10
10
10
10
10
10
10
10
10
10
10
10
10
10
10
10
10
10
10
10
10
10
10
10
10
10
10
10
10
10
10
10
10
10
10
10
10
10
10
10
10
10
10
10
10
10
10
10
10
10
10
10
10
10
10
10
10
10
10
10
10
10
10
10
10
10
10
10
10
10
10
10
10
10
10
10
10
10
10
10
10
10
10
10
10
10
10
10
10
10
10
10
10
10
10
10
10
10
10
10
10
10
10
10
10
10
10
10
10
10
10
10
10
10
10
10
10
10
10
10
10
10
10
10
10
10
10
10
10
10
10
10
10
10
10
10
10
10
10
10
10
10
10
10
10
10
10
10
10
10
10
10
10
10
10
10
10
10
10
10
10
10
10
10
10
10
10
10
10
10
10
10
10
10
10
10
10
10
10
10
10
10
10
10
10
10
10
10
10
10
10
10
10
10
10
10
10
10
10
10
10
10
10
10
10
10
10
10
10
10
10
10
10
10
10
10
10
10
10
10
10
10
10
10
10
10
10
10
10
10
10
10
10
10
10
10
10
10
10
10
10
10
10
10
10
10
10
10
10
10
10
10
10
10
10
10
10
10
10
10
10
10
10
10
10
10
10
10
10
10
10
10
10
10
10
10
10
10
10
10
10
10
10
10
10
10
10
10
10
10
10
10
10
10
10
10
10
10
10
10
10
10
10
10
10
10
10
10
10
10
10
10
10
10
10
10
10
10
10
10
10
10
10
10
10
10
10
10
10
10
10
10
10
10
10
10
10
10
10
10
10
10
10
10
10
10
10
10
10
10
10
10
10
10
10
10
10
10
10
10
10
10
10
10
10
10
10
10
10
10
10
10
10
10
10
10
10
10
10
10
10
10
10
10
10
10
10
10
10
10
10
10
10
10
10
10
10
10
10
10
10
10
10
10
10
10
10
10
10
10
10
10
10
10
10
10
10
10
10
10
10
10
10
10
10
10
10
10
10
10
10
10
10
10
10
10
10
10
10
10
10
10
10
10
10
10
10
10
10
10
10
10
10
10
10
10
10
10
10
10
10
10
10
10
10
10
10
10
10
10
10
10
10
10
10
10
10
10
10
10
10
10
10
10
10
10
10
10
10
10
10
10
10
10
10
10
10
10
10
10
10
10
10
10
10
10
10
10
10
10
10
10
10
10
10
10
10
10
10
10
10
10
10
10
10
10
10
10
10
10
10
10
10
10
10
10
10
10
10
10
10
10
10
10
10
10
10
10
10
10
10
10
10
10
10
10
10
10
10
10
10
10
10
10
10
10
10
10
10
10
10
10
10
10
10
10
10
10
10
10
10
10
10
10
10
10
10
10
10
10
10
10
10
10
10
10
10
10
10
10
10
10
10
10
10
10
10
10
10
10
10
10
10
10
10
10
10
10
10
10
10
10
10
10
10
10
10
10
10
10
10
10
10
10
10
10
10
10
10
10
10
10
10
10
10
10
10
10
10
10
10
10
10
10
10
10
10
10
10
10
10
10
10
10
10
10
10
10
10
10
10
10
10
10
10
10
10
10
10
10
10
10
10
10
10
10
10
10
10
10
10
10
10
10
10
10
10
10
10
10
10
10
10
10
10
10
10
10
10
10
10
10
10
10
10
10
10
10
10
10
10
10
10
10
10
10
10
10
10
10
10
10
10
10
10
10
10
10
10
10
10
10
10
10
10
10
10
10
10
10
10
10
10
10
10
10
10
10
10
10
10
10
10
10
10
10
10
10
10
10
10
10
10
10
10
10
10
10
10
10
10
10
10
10
10
10
10
10
10
10
10
10
10
10
10
10
10
10
10
10
10
10
10
10
10
10
10
10
10
10
10
10
10
10
10
10
10
10
10
10
10
10
10
10
10
10
10
10
10
10
10
10
10
10
10
10
10
10
10
10
10
10
10
10
10
10
10
10
10
10
10
10
10
10
10
10
10
10
10
10
10
10
10
10
10
10
10
10
10
10
10
10
10
10
10
10
10
10
10
10
10
10
10
10
10
10
10
10
10
10
10
10
10
10
10
10
10
10
10
10
10
10
10
10
10
10
10
10
10
10
10
10
10
10
10
10
10
10
10
10
10
10
10
10
10
10
10
10
10
10
10
10
10
10
10
10
10
10
10
10
10
10
10
10
10
10
10
10
10
10
10
10
10
10
10
10
10
10
10
10
10
10
10
10
10
10
10
10
10
10
10
10
10
10
10
10
10
10
10
10
10
10
10
10
10
10
10
10
10
10
10
10
10
10
10
10
10
10
10
10
10
10
10
10
10
10
10
10
10
10
10
10
10
10
10
10
10
10
10
10
10
10
10
10
10
10
10
10
10
10
10
10
10
10
10
10
10
10
10
10
10
10
10
10
10
10
10
10
10
10
10
10
10
10
10
10
10
10
10
10
10
10
10
10
10
10
10
10
10
10
10
10
10
10
10
10
10
10
10
10
10
10
10
10
10
10
10
10
10
10
10
10
10
10
10
10
10
10
10
10
10
10
10
10
10
10
10
10
10
10
10
10
10
10
10
10
10
10
10
10
10
10
10
10
10
10
10
10
10
10
10
10
10
10
10
10
10
10
10
10
10
10
10
10
10
10
10
10
10
10
10
10
10
10
10
10
10
10
10
10
10
10
10
10
10
10
10
10
10
10
10
10
10
10
10
10
10
10
10
10
10
10
10
10
10
10
10
10
10
10
10
10
10
10
10
10
10
10
10
10
10
10
10
10
10
10
10
10
10
10
10
10
10
10
10
10
10
10
10
10
10
10
10
10
10
10
10
10
10
10
10
10
10
10
10
10
10
10
10
10
10
10
10
10
10
10
10
10
10
10
10
10
10
10
10
10
10
10
10
10
10
10
10
10
10
10
10
10
10
10
10
10
10
10
10
10
10
10
10
10
10
10
10
10
10
10
10
10
10
10
10
10
10
10
10
10
10
10
10
10
10
10
10
10
10
10
10
10
10
10
10
10
10
10
10
10
10
10
10
10
10
10
10
10
10
10
10
10
10
10
10
10
10
10
10
10
10
10
10
10
10
10
10
10
10
10
10
10
10
10
10
10
10
10
10
10
10
10
10
10
10
10
10
10
10
10
10
10
10
10
10
10
10
10
10
10
10
10
10
10
10
10
10
10
10
10
10
10
10
10
10
10
10
10
10
10
10
10
10
10
10
10
10
10
10
10
10
10
10
10
10
10
10
10
10
10
10
10
10
10
10
10
10
10
10
10
10
10
10
10
10
10
10
10
10
10
10
10
10
10
10
10
10
10
10
10
10
10
10
10
10
10
10
10
10
10
10
10
10
10
10
10
10
10
10
10
10
10
10
10
10
10
10
10
10
10
10
10
10
10
10
10
10
10
10
10
10
10
10
10
10
10
10
10
10
10
10
10
10
10
10
10
10
10
10
10
10
10
10
10
10
10
10
10
10
10
10
10
10
10
10
10
10
10
10
10
10
10
10
10
10
10
10
10
10
10
10
10
10
10
10
10
10
10
10
10
10
10
10
10
10
10
10
10
10
10
10
10
10
10
10
10
10
10
10
10
10
10
10
10
10
10
10
10
10
10
10
10
10
10
10
10
10
10
10
10
10
10
10
10
10
10
10
10
10
10
10
10
10
10
10
10
10
10
10
10
10
10
10
10
10
10
10
10
10
10
10
10
10
10
10
10
10
10
10
10
10
10
10
10
10
10
10
10
10
10
10
10
10
10
10
10
10
10
10
10
10
10
10
10
10
10
10
10
10
10
10
10
10
10
10
10
10
10
10
10
10
10
10
10
10
10
10
10
10
10
10
10
10
10
10
10
10
10
10
10
10
10
10
10
10
10
10
10
10
10
10
10
10
10
10
10
10
10
10
10
10
10
10
10
10
10
10
10
10
10
10
10
10
10
10
10
10
10
10
10
10
10
10
10
10
10
10
10
10
10
10
10
10
10
10
10
10
10
10
10
10
10
10
10
10
10
10
10
10
10
10
10
10
10
10
10
10
10
10
10
10
10
10
10
10
10
10
10
10
10
10
10
10
10
10
10
10
10
10
10
10
10
10
10
10
10
10
10
10
10
10
10
10
10
10
10
10
10
10
10
10
10
10
10
10
10
10
10
10
10
10
10
10
10
10
10
10
10
10
10
10
10
10
10
10
10
10
10
10
10
10
10
10
10
10
10
10
10
10
10
10
10
10
10
10
10
10
10
10
10
10
10
10
10
10
10
10
10
10
10
10
10
10
10
10
10
10
10
10
10
10
10
10
10
10
10
10
10
10
10
10
10
10
10
10
10
10
10
10
10
10
10
10
10
10
10
10
10
10
10
10
10
10
10
10
10
10
10
10
10
10
10
10
10
10
10
10
10
10
10
10
10
10
10
10
10
10
10
10
10
10
10
10
10
10
10
10
10
10
10
10
10
10
10
10
10
10
10
10
10
10
10
10
10
10
10
10
10
10
10
10
10
10
10
10
10
10
10
10
10
10
10
10
10
10
10
10
10
10
10
10
10
10
10
10
10
10
10
10
10
10
10
10
10
10
10
10
10
10
10
10
10
10
10
10
10
10
10
10
10
10
10
10
10
10
10
10
10
10
10
10
10
10
10
10
10
10
10
10
10
10
10
10
10
10
10
10
10
10
10
10
10
10
10
10
10
10
10
10
10
10
10
10
10
10
10
10
10
10
10
10
10
10
10
10
10
10
10
10
10
10
10
10
10
10
10
10
10
10
10
10
10
10
10
10
10
10
10
10
10
10
10
10
10
10
10
10
10
10
10
10
10
10
10
10
10
10
10
10
10
10
10
10
10
10
10
10
10
10
10
10
10
10
10
10
10
10
10
10
10
10
10
10
10
10
10
10
10
10
10
10
10
10
10
10
10
10
10
10
10
10
10
10
10
10
10
10
10
10
10
10
10
10
10
10
10
10
10
10
10
10
10
10
10
10
10
10
10
10
10
10
10
10
10
10
10
10
10
10
10
10
10
10
10
10
10
10
10
10
10
10
10
10
10
10
10
10
10
10
10
10
10
10
10
10
10
10
10
10
10
10
10
10
10
10
10
10
10
10
10
10
10
10
10
10
10
10
10
10
10
10
10
10
10
10
10
10
10
10
10
10
10
10
10
10
10
10
10
10
10
10
10
10
10
10
10
10
10
10
10
10
10
10
10
10
10
10
10
10
10
10
10
10
10
10
10
10
10
10
10
10
10
10
10
10
10
10
10
10
10
10
10
10
10
10
10
10
10
10
10
10
10
10
10
10
10
10
10
10
10
10
10
10
10
10
10
10
10
10
10
10
10
10
10
10
10
10
10
10
10
10
10
10
10
10
10
10
10
10
10
10
10
10
10
10
10
10
10
10
10
10
10
10
10
10
10
10
10
10
10
10
10
10
10
10
10
10
10
10
10
10
10
10
10
10
10
10
10
10
10
10
10
10
10
10
10
10
10
10
10
10
10
10
10
10
10
10
10
10
10
10
10
10
10
10
10
10
10
10
10
10
10
10
10
10
10
10
10
10
10
10
10
10
10
10
10
10
10
10
10
10
10
10
10
10
10
10
10
10
10
10
10
10
10
10
10
10
10
10
10
10
10
10
10
10
10
10
10
10
10
10
10
10
10
10
10
10
10
10
10
10
10
10
10
10
10
10
10
10
10
10
10
10
10
10
10
10
10
10
10
10
10
10
10
10
10
10
10
10
10
10
10
10
10
10
10
10
10
10
10
10
10
10
10
10
10
10
10
10
10
10
10
10
10
10
10
10
10
10
10
10
10
10
10
10
10
10
10
10
10
10
10
10
10
10
10
10
10
10
10
10
10
10
10
10
10
10
10
10
10
10
10
10
10
10
10
10
10
10
10
10
10
10
10
10
10
10
10
10
10
10
10
10
10
10
10
10
10
10
10
10
10
10
10
10
10
10
10
10
10
10
10
10
10
10
10
10
10
10
10
10
10
10
10
10
10
10
10
10
10
10
10
10
10
10
10
10
10
10
10
10
10
10
10
10
10
10
10
10
10
10
10
10
10
10
10
10
10
10
10
10
10
10
10
10
10
10
10
10
10
10
10
10
10
10
10
10
10
10
10
10
10
10
10
10
10
10
10
10
10
10
10
10
10
10
10
10
10
10
10
10
10
10
10
10
10
10
10
10
10
10
10
10
10
10
10
10
10
10
10
10
10
10
10
10
10
10
10
10
10
10
10
10
10
10
10
10
10
10
10
10
10
10
10
10
10
10
10
10
10
10
10
10
10
10
10
10
10
10
10
10
10
10
10
10
10
10
10
10
10
10
10
10
10
10
10
10
10
10
10
10
10
10
10
10
10
10
10
10
10
10
10
10
10
10
10
10
10
10
10
10
10
10
10
10
10
10
10
10
10
10
10
10
10
10
10
10
10
10
10
10
10
10
10
10
10
10
10
10
10
10
10
10
10
10
10
10
10
10
10
10
10
10
10
10
10
10
10
10
10
10
10
10
10
10
10
10
10
10
10
10
10
10
10
10
10
10
10
10
10
10
10
10
10
10
10
10
10
10
10
10
10
10
10
10
10
10
10
10
10
10
10
10
10
10
10
10
10
10
10
10
10
10
10
10
10
10
10
10
10
10
10
10
10
10
10
10
10
10
10
10
10
10
10
10
10
10
10
10
10
10
10
10
10
10
10
10
10
10
10
10
10
10
10
10
10
10
10
10
10
10
10
10
10
10
10
10
10
10
10
10
10
10
10
10
10
10
10
10
10
10
10
10
10
10
10
10
10
10
10
10
10
10
10
10
10
10
10
10
10
10
10
10
10
10
10
10
10
10
10
10
10
10
10
10
10
10
10
10
10
10
10
10
10
10
10
10
10
10
10
10
10
10
10
10
10
10
10
10
10
10
10
10
10
10
10
10
10
10
10
10
10
10
10
10
10
10
10
10
10
10
10
10
10
10
10
10
10
10
10
10
10
10
10
10
10
10
10
10
10
10
10
10
10
10
10
10
10
10
10
10
10
10
10
10
10
10
10
10
10
10
10
10
10
10
10
10
10
10
10
10
10
10
10
10
10
10
10
10
10
10
10
10
10
10
10
10
10
10
10
10
10
10
10
10
10
10
10
10
10
10
10
10
10
10
10
10
10
10
10
10
10
10
10
10
10
10
10
10
10
10
10
10
10
10
10
10
10
10
10
10
10
10
10
10
10
10
10
10
10
10
10
10
10
10
10
10
10
10
10
10
10
10
10
10
10
10
10
10
10
10
10
10
10
10
10
10
10
10
10
10
10
10
10
10
10
10
10
10
10
10
10
10
10
10
10
10
10
10
10
10
10
10
10
10
10
10
10
10
10
10
10
10
10
10
10
10
10
10
10
10
10
10
10
10
10
10
10
10
10
10
10
10
10
10
10
10
10
10
10
10
10
10
10
10
10
10
10
10
10
10
10
10
10
10
10
10
10
10
10
10
10
10
10
10
10
10
10
10
10
10
10
10
10
10
10
10
10
10
10
10
10
10
10
10
10
10
10
10
10
10
10
10
10
10
10
10
10
10
10
10
10
10
10
10
10
10
10
10
10
10
10
10
10
10
10
10
10
10
10
10
10
10
10
10
10
10
10
10
10
10
10
10
10
10
10
10
10
10
10
10
10
10
10
10
10
10
10
10
10
10
10
10
10
10
10
10
10
10
10
10
10
10
10
10
10
10
10
10
10
10
10
10
10
10
10
10
10
10
10
10
10
10
10
10
10
10
10
10
10
10
10
10
10
10
10
10
10
10
10
10
10
10
10
10
10
10
10
10
10
10
10
10
10
10
10
10
10
10
10
10
10
10
10
10
10
10
10
10
10
10
10
10
10
10
10
10
10
10
10
10
10
10
10
10
10
10
10
10
10
10
10
10
10
10
10
10
10
10
10
10
10
10
10
10
10
10
10
10
10
10
10
10
10
10
10
10
10
10
10
10
10
10
10
10
10
10
10
10
10
10
10
10
10
10
10
10
10
10
10
10
10
10
10
10
10
10
10
10
10
10
10
10
10
10
10
10
10
10
10
10
10
10
10
10
10
10
10
10
10
10
10
10
10
10
10
10
10
10
10
10
10
10
10
10
10
10
10
10
10
10
10
10
10
10
10
10
10
10
10
10
10
10
10
10
10
10
10
10
10
10
10
10
10
10
10
10
10
10
10
10
10
10
10
10
10
10
10
10
10
10
10
10
10
10
10
10
10
10
10
10
10
10
10
10
10
10
10
10
10
10
10
10
10
10
10
10
10
10
10
10
10
10
10
10
10
10
10
10
10
10
10
10
10
10
10
10
10
10
10
10
10
10
10
10
10
10
10
10
10
10
10
10
10
10
10
10
10
10
10
10
10
10
10
10
10
10
10
10
10
10
10
10
10
10
10
10
10
10
10
10
10
10
10
10
10
10
10
10
10
10
10
10
10
10
10
10
10
10
10
10
10
10
10
10
10
10
10
10
10
10
10
10
10
10
10
10
10
10
10
10
10
10
10
10
10
10
10
10
10
10
10
10
10
10
10
10
10
10
10
10
10
10
10
10
10
10
10
10
10
10
10
10
10
10
10
10
10
10
10
10
10
10
10
10
10
10
10
10
10
10
10
10
10
10
10
10
10
10
10
10
10
10
10
10
10
10
10
10
10
10
10
10
10
10
10
10
10
10
10
10
10
10
10
10
10
10
10
10
10
10
10
10
10
10
10
10
10
10
10
10
10
10
10
10
10
10
10
10
10
10
10
10
10
10
10
10
10
10
10
10
10
10
10
10
10
10
10
10
10
10
10
10
10
10
10
10
10
10
10
10
10
10
10
10
10
10
10
10
10
10
10
10
10
10
10
10
10
10
10
10
10
10
10
10
10
10
10
10
10
10
10
10
10
10
10
10
10
10
10
10
10
10
10
10
10
10
10
10
10
10
10
10
10
10
10
10
10
10
10
10
10
10
10
10
10
10
10
10
10
10
10
10
10
10
10
10
10
10
10
10
10
10
10
10
10
10
10
10
10
10
10
10
10
10
10
10
10
10
10
10
10
10
10
10
10
10
10
10
10
10
10
10
10
10
10
10
10
10
10
10
10
10
10
10
10
10
10
10
10
10
10
10
10
10
10
10
10
10
10
10
10
10
10
10
10
10
10
10
10
10
10
10
10
10
10
10
10
10
10
10
10
10
10
10
10
10
10
10
10
10
10
10
10
10
10
10
10
10
10
10
10
10
10
10
10
10
10
10
10
10
10
10
10
10
10
10
10
10
10
10
10
10
10
10
10
10
10
10
10
10
10
10
10
10
10
10
10
10
10
10
10
10
10
10
10
10
10
10
10
10
10
10
10
10
10
10
10
10
10
10
10
10
10
10
10
10
10
10
10
10
10
10
10
10
10
10
10
10
10
10
10
10
10
10
10
10
10
10
10
10
10
10
10
10
10
10
10
10
10
10
10
10
10
10
10
10
10
10
10
10
10
10
10
10
10
10
10
10
10
10
10
10
10
10
10
10
10
10
10
10
10
10
10
10
10
10
10
10
10
10
10
10
10
10
10
10
10
10
10
10
10
10
10
10
10
10
10
10
10
10
10
10
10
10
10
10
10
10
10
10
10
10
10
10
10
10
10
10
10
10
10
10
10
10
10
10
10
10
10
10
10
10
10
10
10
10
10
10
10
10
10
10
10
10
10
10
10
10
10
10
10
10
10
10
10
10
10
10
10
10
10
10
10
10
10
10
10
10
10
10
10
10
10
10
10
10
10
10
10
10
10
10
10
10
10
10
10
10
10
10
10
10
10
10
10
10
10
10
10
10
10
10
10
10
10
10
10
10
10
10
10
10
10
10
10
10
10
10
10
10
10
10
10
10
10
10
10
10
10
10
10
10
10
10
10
10
10
10
10
10
10
10
10
10
10
10
10
10
10
10
10
10
10
10
10
10
10
10
10
10
10
10
10
10
10
10
10
10
10
10
10
10
10
10
10
10
10
10
10
10
10
10
10
10
10
10
10
10
10
10
10
10
10
10
10
10
10
10
10
10
10
10
10
10
10
10
10
10
10
10
10
10
10
10
10
10
10
10
10
10
10
10
10
10
10
10
10
10
10
10
10
10
10
10
10
10
10
10
10
10
10
10
10
10
10
10
10
10
10
10
10
10
10
10
10
10
10
10
10
10
10
10
10
10
10
10
10
10
10
10
10
10
10
10
10
10
10
10
10
10
10
10
10
10
10
10
10
10
10
10
10
10
10
10
10
10
10
10
10
10
10
10
10
10
10
10
10
10
10
10
10
10
10
10
10
10
10
10
10
10
10
10
10
10
10
10
10
10
10
10
10
10
10
10
10
10
10
10
10
10
10
10
10
10
10
10
10
10
10
10
10
10
10
10
10
10
10
10
10
10
10
10
10
10
10
10
10
10
10
10
10
10
10
10
10
10
10
10
10
10
10
10
10
10
10
10
10
10
10
10
10
10
10
10
10
10
10
10
10
10
10
10
10
10
10
10
10
10
10
10
10
10
10
10
10
10
10
10
10
10
10
10
10
10
10
10
10
10
10
10
10
10
10
10
10
10
10
10
10
10
10
10
10
10
10
10
10
10
10
10
10
10
10
10
10
10
10
10
10
10
10
10
10
10
10
10
10
10
10
10
10
10
10
10
10
10
10
10
10
10
10
10
10
10
10
10
10
10
10
10
10
10
10
10
10
10
10
10
10
10
10
10
10
10
10
10
10
10
10
10
10
10
10
10
10
10
10
10
10
10
10
10
10
10
10
10
10
10
10
10
10
10
10
10
10
10
10
10
10
10
10
10
10
10
10
10
10
10
10
10
10
10
10
10
10
10
10
10
10
10
10
10
10
10
10
10
10
10
10
10
10
10
10
10
10
10
10
10
10
10
10
10
10
10
10
10
10
10
10
10
10
10
10
10
10
10
10
10
10
10
10
10
10
10
10
10
10
10
10
10
10
10
10
10
10
10
10
10
10
10
10
10
10
10
10
10
10
10
10
10
10
10
10
10
10
10
10
10
10
10
10
10
10
10
10
10
10
10
10
10
10
10
10
10
10
10
10
10
10
10
10
10
10
10
10
10
10
10
10
10
10
10
10
10
10
10
10
10
10
10
10
10
10
10
10
10
10
10
10
10
10
10
10
10
10
10
10
10
10
10
10
10
10
10
10
10
10
10
10
10
10
10
10
10
10
10
10
10
10
10
10
10
10
10
10
10
10
10
10
10
10
10
10
10
10
10
10
10
10
10
10
10
10
10
10
10
10
10
10
10
10
10
10
10
10
10
10
10
10
10
10
10
10
10
10
10
10
10
10
10
10
10
10
10
10
10
10
10
10
10
10
10
10
10
10
10
10
10
10
10
10
10
10
10
10
10
10
10
10
10
10
10
10
10
10
10
10
10
10
10
10
10
10
10
10
10
10
10
10
10
10
10
10
10
10
10
10
10
10
10
10
10
10
10
10
10
10
10
10
10
10
10
10
10
10
10
10
10
10
10
10
10
10
10
10
10
10
10
10
10
10
10
10
10
10
10
10
10
10
10
10
10
10
10
10
10
10
10
10
10
10
10
10
10
10
10
10
10
10
10
10
10
10
10
10
10
10
10
10
10
10
10
10
10
10
10
10
10
10
10
10
10
10
10
10
10
10
10
10
10
10
10
10
10
10
10
10
10
10
10
10
10
10
10
10
10
10
10
10
10
10
10
10
10
10
10
10
10
10
10
10
10
10
10
10
10
10
10
10
10
10
10
10
10
10
10
10
10
10
10
10
10
10
10
10
10
10
10
10
10
10
10
10
10
10
10
10
10
10
10
10
10
10
10
10
10
10
10
10
10
10
10
10
10
10
10
10
10
10
10
10
10
10
10
10
10
10
10
10
10
10
10
10
10
10
10
10
10
10
10
10
10
10
10
10
10
10
10
10
10
10
10
10
10
10
10
10
10
10
10
10
10
10
10
10
10
10
10
10
10
10
10
10
10
10
10
10
10
10
10
10
10
10
10
10
10
10
10
10
10
10
10
10
10
10
10
10
10
10
10
10
10
10
10
10
10
10
10
10
10
10
10
10
10
10
10
10
10
10
10
10
10
10
10
10
10
10
10
10
10
10
10
10
10
10
10
10
10
10
10
10
10
10
10
10
10
10
10
10
10
10
10
10
10
10
10
10
10
10
10
10
10
10
10
10
10
10
10
10
10
10
10
10
10
10
10
10
10
10
10
10
10
10
10
10
10
10
10
10
10
10
10
10
10
10
10
10
10
10
10
10
10
10
10
10
10
10
10
10
10
10
10
10
10
10
10
10
10
10
10
10
10
10
10
10
10
10
10
10
10
10
10
10
10
10
10
10
10
10
10
10
10
10
10
10
10
10
10
10
10
10
10
10
10
10
10
10
10
10
10
10
10
10
10
10
10
10
10
10
10
10
10
10
10
10
10
10
10
10
10
10
10
10
10
10
10
10
10
10
10
10
10
10
10
10
10
10
10
10
10
10
10
10
10
10
10
10
10
10
10
10
10
10
10
10
10
10
10
10
10
10
10
10
10
10
10
10
10
10
10
10
10
10
10
10
10
10
10
10
10
10
10
10
10
10
10
10
10
10
10
10
10
10
10
10
10
10
10
10
10
10
10
10
10
10
10
10
10
10
10
10
10
10
10
10
10
10
10
10
10
10
10
10
10
10
10
10
10
10
10
10
10
10
10
10
10
10
10
10
10
10
10
10
10
10
10
10
10
10
10
10
10
10
10
10
10
10
10
10
10
10
10
10
10
10
10
10
10
10
10
10
10
10
10
10
10
10
10
10
10
10
10
10
10
10
10
10
10
10
10
10
10
10
10
10
10
10
10
10
10
10
10
10
10
10
10
10
10
10
10
10
10
10
10
10
10
10
10
10
10
10
10
10
10
10
10
10
10
10
10
10
10
10
10
10
10
10
10
10
10
10
10
10
10
10
10
10
10
10
10
10
10
10
10
10
10
10
10
10
10
10
10
10
10
10
10
10
10
10
10
10
10
10
10
10
10
10
10
10
10
10
10
10
10
10
10
10
10
10
10
10
10
10
10
10
10
10
10
10
10
10
10
10
10
10
10
10
10
10
10
10
10
10
10
10
10
10
10
10
10
10
10
10
10
10
10
10
10
10
10
10
10
10
10
10
10
10
10
10
10
10
10
10
10
10
10
10
10
10
10
10
10
10
10
10
10
10
10
10
10
10
10
10
10
10
10
10
10
10
10
10
10
10
10
10
10
10
10
10
10
10
10
10
10
10
10
10
10
10
10
10
10
10
10
10
10
10
10
10
10
10
10
10
10
10
10
10
10
10
10
10
10
10
10
10
10
10
10
10
10
10
10
10
10
10
10
10
10
10
10
10
10
10
10
10
10
10
10
10
10
10
10
10
10
10
10
10
10
10
10
10
10
10
10
10
10
10
10
10
10
10
10
10
10
10
10
10
10
10
10
10
10
10
10
10
10
10
10
10
10
10
10
10
10
10
10
10
10
10
10
10
10
10
10
10
10
10
10
10
10
10
10
10
10
10
10
10
10
10
10
10
10
10
10
10
10
10
10
10
10
10
10
10
10
10
10
10
10
10
10
10
10
10
10
10
10
10
10
10
10
10
10
10
10
10
10
10
10
10
10
10
10
10
10
10
10
10
10
10
10
10
10
10
10
10
10
10
10
10
10
10
10
10
10
10
10
10
10
10
10
10
10
10
10
10
10
10
10
10
10
10
10
10
10
10
10
10
10
10
10
10
10
10
10
10
10
10
10
10
10
10
10
10
10
10
10
10
10
10
10
10
10
10
10
10
10
10
10
10
10
10
10
10
10
10
10
10
10
10
10
10
10
10
10
10
10
10
10
10
10
10
10
10
10
10
10
10
10
10
10
10
10
10
10
10
10
10
10
10
10
10
10
10
10
10
10
10
10
10
10
10
10
10
10
10
10
10
10
10
10
10
10
10
10
10
10
10
10
10
10
10
10
10
10
10
10
10
10
10
10
10
10
10
10
10
10
10
10
10
10
10
10
10
10
10
10
10
10
10
10
10
10
10
10
10
10
10
10
10
10
10
10
10
10
10
10
10
10
10
10
10
10
10
10
10
10
10
10
10
10
10
10
10
10
10
10
10
10
10
10
10
10
10
10
10
10
10
10
10
10
10
10
10
10
10
10
10
10
10
10
10
10
10
10
10
10
10
10
10
10
10
10
10
10
10
10
10
10
10
10
10
10
10
10
10
10
10
10
10
10
10
10
10
10
10
10
10
10
10
10
10
10
10
10
10
10
10
10
10
10
10
10
10
10
10
10
10
10
10
10
10
10
10
10
10
10
10
10
10
10
10
10
10
10
10
10
10
10
10
10
10
10
10
10
10
10
10
10
10
10
10
10
10
10
10
10
10
10
10
10
10
10
10
10
10
10
10
10
10
10
10
10
10
10
10
10
10
10
10
10
10
10
10
10
10
10
10
10
10
10
10
10
10
10
10
10
10
10
10
10
10
10
10
10
10
10
10
10
10
10
10
10
10
10
10
10
10
10
10
10
10
10
10
10
10
10
10
10
10
10
10
10
10
10
10
10
10
10
10
10
10
10
10
10
10
10
10
10
10
10
10
10
10
10
10
10
10
10
10
10
10
10
10
10
10
10
10
10
10
10
10
10
10
10
10
10
10
10
10
10
10
10
10
10
10
10
10
10
10
10
10
10
10
10
10
10
10
10
10
10
10
10
10
10
10
10
10
10
10
10
10
10
10
10
10
10
10
10
10
10
10
10
10
10
10
10
10
10
10
10
10
10
10
10
10
10
10
10
10
10
10
10
10
10
10
10
10
10
10
10
10
10
10
10
10
10
10
10
10
10
10
10
10
10
10
10
10
10
10
10
10
10
10
10
10
10
10
10
10
10
10
10
10
10
10
10
10
10
10
10
10
10
10
10
10
10
10
10
10
10
10
10
10
10
10
10
10
10
10
10
10
10
10
10
10
10
10
10
10
10
10
10
10
10
10
10
10
10
10
10
10
10
10
10
10
10
10
10
10
10
10
10
10
10
10
10
10
10
10
10
10
10
10
10
10
10
10
10
10
10
10
10
10
10
10
10
10
10
10
10
10
10
10
10
10
10
10
10
10
10
10
10
10
10
10
10
10
10
10
10
10
10
10
10
10
10
10
10
10
10
10
10
10
10
10
10
10
10
10
10
10
10
10
10
10
10
10
10
10
10
10
10
10
10
10
10
10
10
10
10
10
10
10
10
10
10
10
10
10
10
10
10
10
10
10
10
10
10
10
10
10
10
10
10
10
10
10
10
10
10
10
10
10
10
10
10
10
10
10
10
10
10
10
10
10
10
10
10
10
10
10
10
10
10
10
10
10
10
10
10
10
10
10
10
10
10
10
10
10
10
10
10
10
10
10
10
10
10
10
10
10
10
10
10
10
10
10
10
10
10
10
10
10
10
10
10
10
10
10
10
10
10
10
10
10
10
10
10
10
10
10
10
10
10
10
10
10
10
10
10
10
10
10
10
10
10
10
10
10
10
10
10
10
10
10
10
10
10
10
10
10
10
10
10
10
10
10
10
10
10
10
10
10
10
10
10
10
10
10
10
10
10
10
10
10
10
10
10
10
10
10
10
10
10
10
10
10
10
10
10
10
10
10
10
10
10
10
10
10
10
10
10
10
10
10
10
10
10
10
10
10
10
10
10
10
10
10
10
10
10
10
10
10
10
10
10
10
10
10
10
10
10
10
10
10
10
10
10
10
10
10
10
10
10
10
10
10
10
10
10
10
10
10
10
10
10
10
10
10
10
10
10
10
10
10
10
10
10
10
10
10
10
10
10
10
10
10
10
10
10
10
10
10
10
10
10
10
10
10
10
10
10
10
10
10
10
10
10
10
10
10
10
10
10
10
10
10
10
10
10
10
10
10
10
10
10
10
10
10
10
10
10
10
10
10
10
10
10
10
10
10
10
10
10
10
10
10
10
10
10
10
10
10
10
10
10
10
10
10
10
10
10
10
10
10
10
10
10
10
10
10
10
10
10
10
10
10
10
10
10
10
10
10
10
10
10
10
10
10
10
10
10
10
10
10
10
10
10
10
10
10
10
10
10
10
10
10
10
10
10
10
10
10
10
10
10
10
10
10
10
10
10
10
10
10
10
10
10
10
10
10
10
10
10
10
10
10
10
10
10
10
10
10
10
10
10
10
10
10
10
10
10
10
10
10
10
10
10
10
10
10
10
10
10
10
10
10
10
10
10
10
10
10
10
10
10
10
10
10
10
10
10
10
10
10
10
10
10
10
10
10
10
10
10
10
10
10
10
10
10
10
10
10
10
10
10
10
10
10
10
10
10
10
10
10
10
10
10
10
10
10
10
10
10
10
10
10
10
10
10
10
10
10
10
10
10
10
10
10
10
10
10
10
10
10
10
10
10
10
10
10
10
10
10
10
10
10
10
10
10
10
10
10
10
10
10
10
10
10
10
10
10
10
10
10
10
10
10
10
10
10
10
10
10
10
10
10
10
10
10
10
10
10
10
10
10
10
10
10
10
10
10
10
10
10
10
10
10
10
10
10
10
10
10
10
10
10
10
10
10
10
10
10
10
10
10
10
10
10
10
10
10
10
10
10
10
10
10
10
10
10
10
10
10
10
10
10
10
10
10
10
10
10
10
10
10
10
10
10
10
10
10
10
10
10
10
10
10
10
10
10
10
10
10
10
10
10
10
10
10
10
10
10
10
10
10
10
10
10
10
10
10
10
10
10
10
10
10
10
10
10
10
10
10
10
10
10
10
10
10
10
10
10
10
10
10
10
10
10
10
10
10
10
10
10
10
10
10
10
10
10
10
10
10
10
10
10
10
10
10
10
10
10
10
10
10
10
10
10
10
10
10
10
10
10
10
10
10
10
10
10
10
10
10
10
10
10
10
10
10
10
10
10
10
10
10
10
10
10
10
10
10
10
10
10
10
10
10
10
10
10
10
10
10
10
10
10
10
10
10
10
10
10
10
10
10
10
10
10
10
10
10
10
10
10
10
10
10
10
10
10
10
10
10
10
10
10
10
10
10
10
10
10
10
10
10
10
10
10
10
10
10
10
10
10
10
10
10
10
10
10
10
10
10
10
10
10
10
10
10
10
10
10
10
10
10
10
10
10
10
10
10
10
10
10
10
10
10
10
10
10
10
10
10
10
10
10
10
10
10
10
10
10
10
10
10
10
10
10
10
10
10
10
10
10
10
10
10
10
10
10
10
10
10
10
10
10
10
10
10
10
10
10
10
10
10
10
10
10
10
10
10
10
10
10
10
10
10
10
10
10
10
10
10
10
10
10
10
10
10
10
10
10
10
10
10
10
10
10
10
10
10
10
10
10
10
10
10
10
10
10
10
10
10
10
10
10
10
10
10
10
10
10
10
10
10
10
10
10
10
10
10
10
10
10
10
10
10
10
10
10
10
10
10
10
10
10
10
10
10
10
10
10
10
10
10
10
10
10
10
10
10
10
10
10
10
10
10
10
10
10
10
10
10
10
10
10
10
10
10
10
10
10
10
10
10
10
10
10
10
10
10
10
10
10
10
10
10
10
10
10
10
10
10
10
10
10
10
10
10
10
10
10
10
10
10
10
10
10
10
10
10
10
10
10
10
10
10
10
10
10
10
10
10
10
10
10
10
10
10
10
10
10
10
10
10
10
10
10
10
10
10
10
10
10
10
10
10
10
10
10
10
10
10
10
10
10
10
10
10
10
10
10
10
10
10
10
10
10
10
10
10
10
10
10
10
10
10
10
10
10
10
10
10
10
10
10
10
10
10
10
10
10
10
10
10
10
10
10
10
10
10
10
10
10
10
10
10
10
10
10
10
10
10
10
10
10
10
10
10
10
10
10
10
10
10
10
10
10
10
10
10
10
10
10
10
10
10
10
10
10
10
10
10
10
10
10
10
10
10
10
10
10
10
10
10
10
10
10
10
10
10
10
10
10
10
10
10
10
10
10
10
10
10
10
10
10
10
10
10
10
10
10
10
10
10
10
10
10
10
10
10
10
10
10
10
10
10
10
10
10
10
10
10
10
10
10
10
10
10
10
10
10
10
10
10
10
10
10
10
10
10
10
10
10
10
10
10
10
10
10
10
10
10
10
10
10
10
10
10
10
10
10
10
10
10
10
10
10
10
10
10
10
10
10
10
10
10
10
10
10
10
10
10
10
10
10
10
10
10
10
10
10
10
10
10
10
10
10
10
10
10
10
10
10
10
10
10
10
10
10
10
10
10
10
10
10
10
10
10
10
10
10
10
10
10
10
10
10
10
10
10
10
10
10
10
10
10
10
10
10
10
10
10
10
10
10
10
10
10
10
10
10
10
10
10
10
10
10
10
10
10
10
10
10
10
10
10
10
10
10
10
10
10
10
10
10
10
10
10
10
10
10
10
10
10
10
10
10
10
10
10
10
10
10
10
10
10
10
10
10
10
10
10
10
10
10
10
10
10
10
10
10
10
10
10
10
10
10
10
10
10
10
10
10
10
10
10
10
10
10
10
10
10
10
10
10
10
10
10
10
10
10
10
10
10
10
10
10
10
10
10
10
10
10
10
10
10
10
10
10
10
10
10
10
10
10
10
10
10
10
10
10
10
10
10
10
10
10
10
10
10
10
10
10
10
10
10
10
10
10
10
10
10
10
10
10
10
10
10
10
10
10
10
10
10
10
10
10
10
10
10
10
10
10
10
10
10
10
10
10
10
10
10
10
10
10
10
10
10
10
10
10
10
10
10
10
10
10
10
10
10
10
10
10
10
10
10
10
10
10
10
10
10
10
10
10
10
10
10
10
10
10
10
10
10
10
10
10
10
10
10
10
10
10
10
10
10
10
10
10
10
10
10
10
10
10
10
10
10
10
10
10
10
10
10
10
10
10
10
10
10
10
10
10
10
10
10
10
10
10
10
10
10
10
10
10
10
10
10
10
10
10
10
10
10
10
10
10
10
10
10
10
10
10
10
10
10
10
10
10
10
10
10
10
10
10
10
10
10
10
10
10
10
10
10
10
10
10
10
10
10
10
10
10
10
10
10
10
10
10
10
10
10
10
10
10
10
10
10
10
10
10
10
10
10
10
10
10
10
10
10
10
10
10
10
10
10
10
10
10
10
10
10
10
10
10
10
10
10
10
10
10
10
10
10
10
10
10
10
10
10
10
10
10
10
10
10
10
10
10
10
10
10
10
10
10
10
10
10
10
10
10
10
10
10
10
10
10
10
10
10
10
10
10
10
10
10
10
10
10
10
10
10
10
10
10
10
10
10
10
10
10
10
10
10
10
10
10
10
10
10
10
10
10
10
10
10
10
10
10
10
10
10
10
10
10
10
10
10
10
10
10
10
10
10
10
10
10
10
10
10
10
10
10
10
10
10
10
10
10
10
10
10
10
10
10
10
10
10
10
10
10
10
10
10
10
10
10
10
10
10
10
10
10
10
10
10
10
10
10
10
10
10
10
10
10
10
10
10
10
10
10
10
10
10
10
10
10
10
10
10
10
10
10
10
10
10
10
10
10
10
10
10
10
10
10
10
10
10
10
10
10
10
10
10
10
10
10
10
10
10
10
10
10
10
10
10
10
10
10
10
10
10
10
10
10
10
10
10
10
10
10
10
10
10
10
10
10
10
10
10
10
10
10
10
10
10
10
10
10
10
10
10
10
10
10
10
10
10
10
10
10
10
10
10
10
10
10
10
10
10
10
10
10
10
10
10
10
10
10
10
10
10
10
10
10
10
10
10
10
10
10
10
10
10
10
10
10
10
10
10
10
10
10
10
10
10
10
10
10
10
10
10
10
10
10
10
10
10
10
10
10
10
10
10
10
10
10
10
10
10
10
10
10
10
10
10
10
10
10
10
10
10
10
10
10
10
10
10
10
10
10
10
10
10
10
10
10
10
10
10
10
10
10
10
10
10
10
10
10
10
10
10
10
10
10
10
10
10
10
10
10
10
10
10
10
10
10
10
10
10
10
10
10
10
10
10
10
10
10
10
10
10
10
10
10
10
10
10
10
10
10
10
10
10
10
10
10
10
10
10
10
10
10
10
10
10
10
10
10
10
10
10
10
10
10
10
10
10
10
10
10
10
10
10
10
10
10
10
10
10
10
10
10
10
10
10
10
10
10
10
10
10
10
10
10
10
10
10
10
10
10
10
10
10
10
10
10
10
10
10
10
10
10
10
10
10
10
10
10
10
10
10
10
10
10
10
10
10
10
10
10
10
10
10
10
10
10
10
10
10
10
10
10
10
10
10
10
10
10
10
10
10
10
10
10
10
10
10
10
10
10
10
10
10
10
10
10
10
10
10
10
10
10
10
10
10
10
10
10
10
10
10
10
10
10
10
10
10
10
10
10
10
10
10
10
10
10
10
10
10
10
10
10
10
10
10
10
10
10
10
10
10
10
10
10
10
10
10
10
10
10
10
10
10
10
10
10
10
10
10
10
10
10
10
10
10
10
10
10
10
10
10
10
10
10
10
10
10
10
10
10
10
10
10
10
10
10
10
10
10
10
10
10
10
10
10
10
10
10
10
10
10
10
10
10
10
10
10
10
10
10
10
10
10
10
10
10
10
10
10
10
10
10
10
10
10
10
10
10
10
10
10
10
10
10
10
10
10
10
10
10
10
10
10
10
10
10
10
10
10
10
10
10
10
10
10
10
10
10
10
10
10
10
10
10
10
10
10
10
10
10
10
10
10
10
10
10
10
10
10
10
10
10
10
10
10
10
10
10
10
10
10
10
10
10
10
10
10
10
10
10
10
10
10
10
10
10
10
10
10
10
10
10
10
10
10
10
10
10
10
10
10
10
10
10
10
10
10
10
10
10
10
10
10
10
10
10
10
10
10
10
10
10
10
10
10
10
10
10
10
10
10
10
10
10
10
10
10
10
10
10
10
10
10
10
10
10
10
10
10
10
10
10
10
10
10
10
10
10
10
10
10
10
10
10
10
10
10
10
10
10
10
10
10
10
10
10
10
10
10
10
10
10
10
10
10
10
10
10
10
10
10
10
10
10
10
10
10
10
10
10
10
10
10
10
10
10
10
10
10
10
10
10
10
10
10
10
10
10
10
10
10
10
10
10
10
10
10
10
10
10
10
10
10
10
10
10
10
10
10
10
10
10
10
10
10
10
10
10
10
10
10
10
10
10
10
10
10
10
10
10
10
10
10
10
10
10
10
10
10
10
10
10
10
10
10
10
10
10
10
10
10
10
10
10
10
10
10
10
10
10
10
10
10
10
10
10
10
10
10
10
10
10
10
10
10
10
10
10
10
10
10
10
10
10
10
10
10
10
10
10
10
10
10
10
10
10
10
10
10
10
10
10
10
10
10
10
10
10
10
10
10
10
10
10
10
10
10
10
10
10
10
10
10
10
10
10
10
10
10
10
10
10
10
10
10
10
10
10
10
10
10
10
10
10
10
10
10
10
10
10
10
10
10
10
10
10
10
10
10
10
10
10
10
10
10
10
10
10
10
10
10
10
10
10
10
10
10
10
10
10
10
10
10
10
10
10
10
10
10
10
10
10
10
10
10
10
10
10
10
10
10
10
10
10
10
10
10
10
10
10
10
10
10
10
10
10
10
10
10
10
10
10
10
10
10
10
10
10
10
10
10
10
10
10
10
10
10
10
10
10
10
10
10
10
10
10
10
10
10
10
10
10
10
10
10
10
10
10
10
10
10
10
10
10
10
10
10
10
10
10
10
10
10
10
10
10
10
10
10
10
10
10
10
10
10
10
10
10
10
10
10
10
10
10
10
10
10
10
10
10
10
10
10
10
10
10
10
10
10
10
10
10
10
10
10
10
10
10
10
10
10
10
10
10
10
10
10
10
10
10
10
10
10
10
10
10
10
10
10
10
10
10
10
10
10
10
10
10
10
10
10
10
10
10
10
10
10
10
10
10
10
10
10
10
10
10
10
10
10
10
10
10
10
10
10
10
10
10
10
10
10
10
10
10
10
10
10
10
10
10
10
10
10
10
10
10
10
10
10
10
10
10
10
10
10
10
10
10
10
10
10
10
10
10
10
10
10
10
10
10
10
10
10
10
10
10
10
10
10
10
10
10
10
10
10
10
10
10
10
10
10
10
10
10
10
10
10
10
10
10
10
10
10
10
10
10
10
10
10
10
10
10
10
10
10
10
10
10
10
10
10
10
10
10
10
10
10
10
10
10
10
10
10
10
10
10
10
10
10
10
10
10
10
10
10
10
10
10
10
10
10
10
10
10
10
10
10
10
10
10
10
10
10
10
10
10
10
10
10
10
10
10
10
10
10
10
10
10
10
10
10
10
10
10
10
10
10
10
10
10
10
10
10
10
10
10
10
10
10
10
10
10
10
10
10
10
10
10
10
10
10
10
10
10
10
10
10
10
10
10
10
10
10
10
10
10
10
10
10
10
10
10
10
10
10
10
10
10
10
10
10
10
10
10
10
10
10
10
10
10
10
10
10
10
10
10
10
10
10
10
10
10
10
10
10
10
10
10
10
10
10
10
10
10
10
10
10
10
10
10
10
10
10
10
10
10
10
10
10
10
10
10
10
10
10
10
10
10
10
10
10
10
10
10
10
10
10
10
10
10
10
10
10
10
10
10
10
10
10
10
10
10
10
10
10
10
10
10
10
10
10
10
10
10
10
10
10
10
10
10
10
10
10
10
10
10
10
10
10
10
10
10
10
10
10
10
10
10
10
10
10
10
10
10
10
10
10
10
10
10
10
10
10
10
10
10
10
10
10
10
10
10
10
10
10
10
10
10
10
10
10
10
10
10
10
10
10
10
10
10
10
10
10
10
10
10
10
10
10
10
10
10
10
10
10
10
10
10
10
10
10
10
10
10
10
10
10
10
10
10
10
10
10
10
10
10
10
10
10
10
10
10
10
10
10
10
10
10
10
10
10
10
10
10
10
10
10
10
10
10
10
10
10
10
10
10
10
10
10
10
10
10
10
10
10
10
10
10
10
10
10
10
10
10
10
10
10
10
10
10
10
10
10
10
10
10
10
10
10
10
10
10
10
10
10
10
10
10
10
10
10
10
10
10
10
10
10
10
10
10
10
10
10
10
10
10
10
10
10
10
10
10
10
10
10
10
10
10
10
10
10
10
10
10
10
10
10
10
10
10
10
10
10
10
10
10
10
10
10
10
10
10
10
10
10
10
10
10
10
10
10
10
10
10
10
10
10
10
10
10
10
10
10
10
10
10
10
10
10
10
10
10
10
10
10
10
10
10
10
10
10
10
10
10
10
10
10
10
10
10
10
10
10
10
10
10
10
10
10
10
10
10
10
10
10
10
10
10
10
10
10
10
10
10
10
10
10
10
10
10
10
10
10
10
10
10
10
10
10
10
10
10
10
10
10
10
10
10
10
10
10
10
10
10
10
10
10
10
10
10
10
10
10
10
10
10
10
10
10
10
10
10
10
10
10
10
10
10
10
10
10
10
10
10
10
10
10
10
10
10
10
10
10
10
10
10
10
10
10
10
10
10
10
10
10
10
10
10
10
10
10
10
10
10
10
10
10
10
10
10
10
10
10
10
10
10
10
10
10
10
10
10
10
10
10
10
10
10
10
10
10
10
10
10
10
10
10
10
10
10
10
10
10
10
10
10
10
10
10
10
10
10
10
10
10
10
10
10
10
10
10
10
10
10
10
10
10
10
10
10
10
10
10
10
10
10
10
10
10
10
10
10
10
10
10
10
10
10
10
10
10
10
10
10
10
10
10
10
10
10
10
10
10
10
10
10
10
10
10
10
10
10
10
10
10
10
10
10
10
10
10
10
10
10
10
10
10
10
10
10
10
10
10
10
10
10
10
10
10
10
10
10
10
10
10
10
10
10
10
10
10
10
10
10
10
10
10
10
10
10
10
10
10
10
10
10
10
10
10
10
10
10
10
10
10
10
10
10
10
10
10
10
10
10
10
10
10
10
10
10
10
10
10
10
10
10
10
10
10
10
10
10
10
10
10
10
10
10
10
10
10
10
10
10
10
10
10
10
10
10
10
10
10
10
10
10
10
10
10
10
10
10
10
10
10
10
10
10
10
10
10
10
10
10
10
10
10
10
10
10
10
10
10
10
10
10
10
10
10
10
10
10
10
10
10
10
10
10
10
10
10
10
10
10
10
10
10
10
10
10
10
10
10
10
10
10
10
10
10
10
10
10
10
10
10
10
10
10
10
10
10
10
10
10
10
10
10
10
10
10
10
10
10
10
10
10
10
10
10
10
10
10
10
10
10
10
10
10
10
10
10
10
10
10
10
10
10
10
10
10
10
10
10
10
10
10
10
10
10
10
10
10
10
10
10
10
10
10
10
10
10
10
10
10
10
10
10
10
10
10
10
10
10
10
10
10
10
10
10
10
10
10
10
10
10
10
10
10
10
10
10
10
10
10
10
10
10
10
10
10
10
10
10
10
10
10
10
10
10
10
10
10
10
10
10
10
10
10
10
10
10
10
10
10
10
10
10
10
10
10
10
10
10
10
10
10
10
10
10
10
10
10
10
10
10
10
10
10
10
10
10
10
10
10
10
10
10
10
10
10
10
10
10
10
10
10
10
10
10
10
10
10
10
10
10
10
10
10
10
10
10
10
10
10
10
10
10
10
10
10
10
10
10
10
10
10
10
10
10
10
10
10
10
10
10
10
10
10
10
10
10
10
10
10
10
10
10
10
10
10
10
10
10
10
10
10
10
10
10
10
10
10
10
10
10
10
10
10
10
10
10
10
10
10
10
10
10
10
10
10
10
10
10
10
10
10
10
10
10
10
10
10
10
10
10
10
10
10
10
10
10
10
10
10
10
10
10
10
10
10
10
10
10
10
10
10
10
10
10
10
10
10
10
10
10
10
10
10
10
10
10
10
10
10
10
10
10
10
10
10
10
10
10
10
10
10
10
10
10
10
10
10
10
10
10
10
10
10
10
10
10
10
10
10
10
10
10
10
10
10
10
10
10
10
10
10
10
10
10
10
10
10
10
10
10
10
10
10
10
10
10
10
10
10
10
10
10
10
10
10
10
10
10
10
10
10
10
10
10
10
10
10
10
10
10
10
10
10
10
10
10
10
10
10
10
10
10
10
10
10
10
10
10
10
10
10
10
10
10
10
10
10
10
10
10
10
10
10
10
10
10
10
10
10
10
10
10
10
10
10
10
10
10
10
10
10
10
10
10
10
10
10
10
10
10
10
10
10
10
10
10
10
10
10
10
10
10
10
10
10
10
10
10
10
10
10
10
10
10
10
10
10
10
10
10
10
10
10
10
10
10
10
10
10
10
10
10
10
10
10
10
10
10
10
10
10
10
10
10
10
10
10
10
10
10
10
10
10
10
10
10
10
10
10
10
10
10
10
10
10
10
10
10
10
10
10
10
10
10
10
10
10
10
10
10
10
10
10
10
10
10
10
10
10
10
10
10
10
10
10
10
10
10
10
10
10
10
10
10
10
10
10
10
10
10
10
10
10
10
10
10
10
10
10
10
10
10
10
10
10
10
10
10
10
10
10
10
10
10
10
10
10
10
10
10
10
10
10
10
10
10
10
10
10
10
10
10
10
10
10
10
10
10
10
10
10
10
10
10
10
10
10
10
10
10
10
10
10
10
10
10
10
10
10
10
10
10
10
10
10
10
10
10
10
10
10
10
10
10
10
10
10
10
10
10
10
10
10
10
10
10
10
10
10
10
10
10
10
10
10
10
10
10
10
10
10
10
10
10
10
10
10
10
10
10
10
10
10
10
10
10
10
10
10
10
10
10
10
10
10
10
10
10
10
10
10
10
10
10
10
10
10
10
10
10
10
10
10
CELL_DATA 31305 
FIELD FieldData  2
density 1 31305 float
0.12413123709529972
0.172677639016763
0.07343219045954284
0.0909413912033919
0.21225761153837128
0.10108726123175202
0.15755451134270992
0.07606402410456782
0.061591142187476404
0.09890513737467238
0.08213485280458362
0.1079897052371963
0.12288390599331911
0.0692309752859864
0.11293648725604478
0.08253478301932132
0.3016138605288585
0.25818938122776386
0.09456144689824629
0.07756189076694575
0.06947384396639623
0.10388072215370263
0.08086877260930694
0.16885146557491273
0.020680673262492986
0.06361811030095169
0.09022024574410561
0.14283216489122258
0.1257245505863175
0.17156398499165898
0.24014732183231424
0.1133122759579233
0.11062975712024004
0.1330807456312907
0.12560018561793532
0.09626428807196565
0.12642767738563207
0.12571103282599705
0.07042481802453295
0.08299852045534492
0.0683535597597341
0.06776747406858888
0.04497018502912323
0.08791907258224994
0.14329575887303342
0.062353667679554504
0.20390530424119277
0.19728366113947257
0.1646866057135131
0.2179708847238223
0.17157607308866682
0.11039499414956411
0.21088163565929793
0.1543207736533776
0.13033137400752295
0.24424659794426445
0.08384581085618209
0.2146404112960769
0.09859533093191676
0.10307995593266359
0.07331559793773772
0.1574564149193211
0.08067911545430524
0.07680703620841958
0.14012688620972952
0.19370684510061287
0.15789341210091415
0.15233144149091088
0.0624344000631269
0.09342156632804642
0.36966844866230114
0.34477132509976877
0.23237570879640226
0.4008030125284929
0.3519235349544474
0.20020700187920062
0.4986091056497456
0.36906557775162196
0.16432359733750973
0.0970011772468477
0.1456530892603643
0.13202887924504972
0.06227044385347225
0.04887601369436067
0.09253066275895426
0.1365634320033446
0.10173176892360679
0.18178155284479955
0.17502299817439051
0.13894913964905173
0.1875729769059529
0.13448680662054208
0.19744895927569694
0.19709947105993536
0.14315677950686762
0.167726830157925
0.063250110023992
0.12492436502912277
0.1075595589736235
0.07957751005394667
0.08353328930985958
0.21735761585962202
0.26580587582456455
0.2142428464542236
0.17228250400646775
0.2777116544813971
0.2294370123845033
0.2819569464854228
0.24627133169119297
0.2580354664590297
0.2996189038947462
0.3253486702712024
0.02529263739491453
0.11897290466101874
0.10435698550674125
0.11697830586857208
0.10362450954444574
0.04028564810610507
0.020305452963476397
0.06278893065662315
0.017520188347349256
0.026684454186720257
0.13184787552055727
0.10759421696183602
0.05573373635267013
0.4348787531311921
0.19368887770540016
0.12944862799651952
0.24015103526770346
0.3810290601504643
0.30486877013574676
0.016233527202524908
0.21503782074237612
0.1492101035469074
0.12045828563426034
0.12417273199048133
0.2320240095623955
0.18338533164819484
0.20920145566383555
0.15592428826452437
0.1125748212381834
0.13976449434225885
0.0964830640278596
0.09145103295729498
0.15524952331255945
0.34783146448678054
0.23889875934257807
0.13973573191089647
0.22722279791772787
0.2710214625774983
0.17834233461523769
0.15294086264958387
0.12395663281548512
0.1819195296327046
0.06066824628685886
0.12107114359721066
0.1152292214301096
0.08142071714970653
0.14069084263722556
0.21457155126993815
0.042348021675098026
0.01453786377977958
0.02588468504157981
0.029654129810784337
0.20659840203725333
0.033459097622199015
0.07773542995148494
0.13549423256270307
0.07805305947111575
0.06575766465357653
0.10664434776812706
0.12502019932528521
0.07921112880993343
0.09424122364066288
0.08076384078562683
0.07607017511862224
0.21889278801772236
0.13343232658999554
0.06064094526401055
0.08526904154302518
0.06173266847981809
0.03281039936251245
0.060966074663931794
0.04997216742189796
0.40150371785165645
0.4464049245716503
0.3794754479075897
0.4431363015268367
0.5392635342465806
0.3724103379328592
0.09937093692399472
0.15008443036840222
0.1052754929060058
0.09227321393352565
0.11240201867276227
0.15315208650436926
0.1416306790165871
0.2610473927952242
0.22230926099526238
0.2503366920422176
0.3559870534187194
0.2629520062683735
0.2662002917950459
0.16557173538825642
0.26001787367201473
0.07831603367231747
0.08694487966246266
0.03673847536585552
0.12065627079376874
0.10276244403833708
0.05340549770293196
0.07357530149651803
0.15198920794942852
0.2172543019804949
0.12078622578704991
0.240090245200553
0.19108054183156212
0.13749638334043282
0.06536249313739825
0.07124950236743795
0.332714095712945
0.23925263064204363
0.2898434363139404
0.29374712579493745
0.2517284207836106
0.33396844074421533
0.3944427799411755
0.037045487041872445
0.26961518709937227
0.29121977419351724
0.08212355256498495
0.1357303076730299
0.1672774698723607
0.1609521045738149
0.236908352935519
0.34107909873432163
0.1303044204748147
0.08304634497661958
0.2632480723654048
0.08277746216342476
0.13833406420978464
0.22035727177748612
0.1860534279166497
0.15713989198729011
0.18643149131709266
0.27124701321255174
0.072187164050332
0.07950815732005778
0.09930365015318222
0.17849033228694552
0.13368214501446501
0.09338257362261525
0.0933248261034945
0.12416556925001755
0.16999844821655308
0.14195385995691936
0.12736836280132502
0.1477147160285814
0.19657409746357524
0.06487215162908685
0.06568792668105254
0.059218233557026746
0.17877207047925056
0.06461424546185031
0.05464599020530138
0.06567545329148824
0.03245911691956117
0.047019497042679326
0.0418256399335476
0.2592601210656403
0.21849957892090136
0.17038522666700115
0.18517189365756728
0.2456294286393242
0.15690363328929685
0.2651589734167109
0.26201142875926364
0.023586004271683395
0.07920271866215044
0.01912552974979549
0.029880006206388834
0.07839013127689556
0.058634323655362995
0.07098455140288218
0.062468643824526465
0.048276050217008246
0.04759888768680211
0.06834340700740879
0.048156419388810566
0.05292919133899945
0.0483582355131481
0.07365040583659284
0.05241316915649175
0.1423945125881627
0.0551850974146348
0.19353983749410195
0.19479163463206756
0.28275872689466464
0.2803183310264602
0.2167745885003921
0.2253992488953664
0.17454259538838338
0.20894265411794516
0.11916711074890884
0.24559996895732633
0.15908365243485928
0.1465254659149302
0.1333082627556003
0.05544078335347729
0.057156439331409375
0.1514427232870735
0.10728499591530692
0.07782381279977538
0.10704328420055671
0.16501385706173397
0.24015068713685134
0.3948033971708134
0.2806027313943176
0.2185740948438714
0.23318069575128975
0.30039150314418533
0.20318839200638672
0.22679868251429372
0.1618920696789952
0.15747815432601553
0.13928192317991553
0.20379242758262925
0.15334689484750766
0.252690414957657
0.2896929376410726
0.1822121849781978
0.18018369415946486
0.051731013897092004
0.06683049130134755
0.04865286231261104
0.04388459467707886
0.058612868142696097
0.05023491991597879
0.0627632511430767
0.02374648608727327
0.0475672846670667
0.03381362280552336
0.08318645944622458
0.035547333337621764
0.037876737866210215
0.02912776651463527
0.1609879304033339
0.3077475095424877
0.09589329757832238
0.0818081370967015
0.08477557194789266
0.10377686658550857
0.030161615397605764
0.09869353107217155
0.06675372300221252
0.06533836052056104
0.12740798718007904
0.0639403037029264
0.10719098247799815
0.05990492544225307
0.24187649468717326
0.15257262888580547
0.250125669444897
0.21534780526133965
0.3313074216980986
0.03729783840868787
0.09873331540638947
0.10048657274639164
0.15860781205141147
0.1576532265164332
0.13594201800121897
0.058462026341220504
0.08107192858227676
0.057616047656070125
0.07123174466311473
0.05245497948606105
0.2127135167619048
0.16167491948986676
0.1404303015221204
0.18986537199656853
0.09057252021415947
0.12853480813313298
0.3457176099128936
0.24435564504091442
0.2391194704133947
0.05101215541548672
0.03613769290543416
0.06031080949196562
0.0980970837724251
0.03914299140077896
0.037173271682086166
0.13120534542437232
0.18160875563562753
0.14522248146067404
0.13627836638748675
0.19193380768779286
0.1340086095310167
0.14053411473819846
0.20120224212554394
0.0642859694339372
0.045187941196384446
0.09436029890460096
0.06494538504000658
0.1060553056302401
0.05874501623396216
0.07091683097723049
0.2641898702509288
0.2066253405101964
0.150807692876751
0.1343557000389525
0.03715783589821038
0.12491956812031717
0.1100401468422111
0.15609041011524574
0.0609626692534075
0.042737072600056866
0.10952702377850457
0.0819445248458174
0.14115696343734055
0.06705935716224562
0.08874074374171276
0.16988406852655774
0.1277629041864755
0.11668528484796432
0.16615045197235925
0.24341530932883318
0.13826553141450337
0.18870441611398783
0.26084721059335025
0.25066184177616585
0.32229173090437635
0.2651852919511476
0.3045814228064071
0.2818487539476811
0.3254195219132805
0.3916721123504618
0.364647251467352
0.05465437056339797
0.06685768574495354
0.3463382596472737
0.4127886541782219
0.3539997879612667
0.3844812752389903
0.34538365633110907
0.10598671516000417
0.08601439038797296
0.035888310613442324
0.07821889193017022
0.10107932150632547
0.08192787856006985
0.23868303199145105
0.2148658862363288
0.129665592326054
0.14885571813798779
0.21932003808242503
0.3088500135072677
0.2856342526904786
0.09809367481391808
0.041402394658198866
0.03843616695214301
0.05972110389889077
0.10441242573509592
0.033183892351690294
0.024892513716693057
0.039233479766117046
0.03361968225019772
0.2815886572509395
0.07681632695967532
0.17215327423865515
0.11461305402522133
0.2247397392870738
0.39912529770916916
0.26891065982788465
0.12437023187997112
0.10588926995991779
0.08018269665014893
0.10847059011021465
0.2016193812668792
0.1413209832428445
0.06953755549311962
0.055805974955265236
0.13933151588944775
0.27594884265128394
0.25006962540285504
0.09414752085641559
0.3025100347924201
0.0702012917666793
0.09426902592533035
0.08221724451084277
0.0742528380864115
0.04643656001563512
0.06500668171636272
0.0925876550015609
0.06693622807707648
0.08904536435459746
0.09872386863088303
0.05083948409955014
0.1488152651165873
0.04201789148887297
0.13323674401472999
0.46541849797146545
0.11290916997462754
0.11637950846085506
0.21105993495225847
0.06384009267166181
0.13062636148449464
0.21041394710536304
0.2141458855624295
0.06077521485862597
0.052301779682354485
0.04249091319529567
0.05439653955711139
0.031166768213403917
0.03636495533253194
0.03487861507253342
0.05907159415554945
0.05013630235775742
0.04586671262369907
0.034111166653274294
0.03526573902037421
0.2220049523749667
0.03617596361950647
0.08031524761188692
0.023071183670119563
0.02209285345756125
0.0687261395066512
0.077086985681509
0.15813085345498892
0.23399592594786464
0.25674515157516964
0.12226368194384919
0.08573366366017215
0.16530445474119285
0.11618821411998548
0.07619562405366045
0.08005936943928318
0.07009531137784215
0.015235613748523592
0.05978778056744388
0.07297675830502222
0.06868608028106334
0.08398396047879149
0.19191748842857742
0.06794836965287304
0.06112969748675764
0.05336917882779249
0.06463164270198238
0.12223378187206412
0.16031076465774977
0.11813564647514835
0.07996377207982626
0.11783511087110073
0.1114805318567319
0.0862924187483852
0.08175227965380051
0.09211334042030718
0.04882355957608402
0.03572942687273097
0.030216753923679316
0.05016872977928008
0.03950641631300537
0.044891322744025595
0.046381580054025665
0.06998191090697857
0.1468184006430997
0.21658969908162407
0.23501437465054378
0.3838765913331345
0.26563169854058316
0.329688211605551
0.2812118000729171
0.39545642280519117
0.2639875305725316
0.2130683890536854
0.24769807121663587
0.24095748560210464
0.11232653575433536
0.2647874376145974
0.10098350045657535
0.08558477590546484
0.09793657770822924
0.12256973884513468
0.11450905062058653
0.09001384255077695
0.1653234368060145
0.10881050330432372
0.059618420527798976
0.052537380941527594
0.08734780085374641
0.07380545142614696
0.07253996822644376
0.2513815686047556
0.06230672469610554
0.0521426293264765
0.05614549435461357
0.08733451222300144
0.20047439028276676
0.11589116603767148
0.09242309539750691
0.11218021314646684
0.2949239318558734
0.16240822436104121
0.2511146769339108
0.15070615029321593
0.23631713826775144
0.08324811573187768
0.29245472950574963
0.22509144710137816
0.03430500450018158
0.051368645631437955
0.09844616987694953
0.16460449598809976
0.08563176927500483
0.03715732648198204
0.018246176754087358
0.1154605819016433
0.23488819362326088
0.214400980014825
0.180884169509473
0.15065748516001237
0.10653472707058254
0.161289648627879
0.15227850170367538
0.10155828375707887
0.10523012329342309
0.12469274093851526
0.16691818678936585
0.0879233556306957
0.13060998942542218
0.2586994838848716
0.06559935284864737
0.0784509516460956
0.18208266061714207
0.06460467359850834
0.2374227348023526
0.05585311699182076
0.08260091554127248
0.039645851999005735
0.0822451523499341
0.07373042913125222
0.08505302370456168
0.08782982755446435
0.047343833064067836
0.32261079549857175
0.025223270675256426
0.04180019503152306
0.07263721072441413
0.04081907571914548
0.07865553920328885
0.06313553091889193
0.05766701711515587
0.02505189384749607
0.1070797730632274
0.037577589100430374
0.0374287049386452
0.057606052211673864
0.029049032629765423
0.10686348433924572
0.0781614207676692
0.061625725672645675
0.21096793509253814
0.2942104283910894
0.17808038182473868
0.2262943060454307
0.1717979892274689
0.21268086876194484
0.21258314030144823
0.24504964322175152
0.21875426192095587
0.19528289714477223
0.07819831137751189
0.0443381868591574
0.05512059873984447
0.1671336813888148
0.13530530615348016
0.08803400454937224
0.10325224066349782
0.059628041602394065
0.10324010776835875
0.05895633189891024
0.25909929731427594
0.12143459751738298
0.11980283976252183
0.07182994674114683
0.09542210489461796
0.0740130100903161
0.07717607387026298
0.2114390780485456
0.14436302360551675
0.22418994246788465
0.24558156629559402
0.07948219778371905
0.10700684582492259
0.06870426147845962
0.06378300134231794
0.10802861770857485
0.06112463760358549
0.14382197776605446
0.1747387377269498
0.12283958554085998
0.18052958983923392
0.3171312136952886
0.16708132745513068
0.3391789775434139
0.06999868767388483
0.048620351473331894
0.09371923693351987
0.06416058586928851
0.07334520486481318
0.06226640114491017
0.03963973442370221
0.08866057852989702
0.08058140596238927
0.05515159493252709
0.049443911599850725
0.20383211425778727
0.3040572607336025
0.3259560560670161
0.32596805770700366
0.34895357354603773
0.34162219348386047
0.32574526517744967
0.3253850594169831
0.2079629093129486
0.11508728229675583
0.16574429272750874
0.17838987921701588
0.21078805447787247
0.16866379307798837
0.12274699768731522
0.13237465860587141
0.12509223174777614
0.15968369668244797
0.18833509446329408
0.14504082639604599
0.12410345820214547
0.11969820638746913
0.18274152095627805
0.2591057984504594
0.24711103160647654
0.18852206166390365
0.14718653354513964
0.29428721336988334
0.17547781095355158
0.28686627374552404
0.3207510995484389
0.1291867739674883
0.10015636535701265
0.11654110284102363
0.15969786667405123
0.12362447448386131
0.10206256977486669
0.06850505354604482
0.05496792113825335
0.04485110118955744
0.06753474808988966
0.2356507322014354
0.28299912674048955
0.2817060190104889
0.06134428297062523
0.14157391138908007
0.13998954860335325
0.25530221416521354
0.19475517629974112
0.36492613602345975
0.23989405482115223
0.05422485846213626
0.1061050891143906
0.07067550681875344
0.10423462939080742
0.053223211581866096
0.05388383767755735
0.29220687152168573
0.2889070214945937
0.27335029931177096
0.25433832042793153
0.27820504689104303
0.21867165245825942
0.16711292590263366
0.2803193926092181
0.2430305338174061
0.302428482450129
0.12405877281158538
0.1446679324736391
0.08652127603818421
0.10525216537826587
0.20011702052433364
0.1305269424155795
0.13358932290681672
0.16003534478932208
0.21583407014212055
0.09570414709041891
0.08755103086883619
0.04453090160551444
0.06707598597012815
0.07000483984412274
0.09510828875291173
0.0808035959588137
0.06486522437224648
0.3848769492477256
0.15623928031686538
0.1382653007038833
0.07857465052331296
0.11309188268027887
0.08636405651964944
0.0791049415426322
0.17806381931262047
0.05168305862964255
0.12447204716200168
0.09977838853213646
0.05695069374797318
0.10463722097428443
0.15644171008953678
0.06669016803870133
0.08543905725990306
0.05241988655649711
0.036863746688359206
0.14140567633252746
0.033442134476554496
0.040830458495382055
0.2255120520021955
0.1469309645954746
0.17558290563569606
0.10731886951903676
0.12301512565571773
0.07072111974808604
0.057164125352167416
0.09600335440538489
0.18412536765784496
0.11115863571592034
0.07687132199078425
0.2975002524828818
0.20758364277456273
0.199562153185823
0.34741107716721525
0.15298658163991147
0.14134860381565342
0.2789215452360001
0.22700486650193366
0.4010040611645745
0.3349127197803883
0.3689270756551606
0.15785798829809802
0.22262570609878668
0.19374416773103964
0.14060272133155166
0.152943572274866
0.19466214331620632
0.1401491673591145
0.23322522852080618
0.17163262409552676
0.18168313766980845
0.2175306343467282
0.02595338651166087
0.016633642821596323
0.20929199227378667
0.13150455416883378
0.012200220562545952
0.02743435953353455
0.04823776713638007
0.06090802642172697
0.07192758440025382
0.0844731568278598
0.07302488060071727
0.19757475649028158
0.30592678945979096
0.19298865516172295
0.2880009953336673
0.10956810554443443
0.20184818260723753
0.17884922030069886
0.18102075457470712
0.12796749578169234
0.14537001482925552
0.13793181656233297
0.06183698552269222
0.1289417891486594
0.06595472107133203
0.21452124687908902
0.06318803592621049
0.290567374857259
0.3127479639601848
0.32136478357732157
0.29844608472009027
0.27910050890695537
0.27222761541582485
0.09090273746184957
0.06073019712516234
0.04188813241656549
0.028924831366289653
0.1626407848535536
0.13585001123984322
0.0830257846014002
0.5035496659580369
0.2811687613444627
0.3196583051597488
0.40244115787814744
0.33116108566746466
0.01769930224531202
0.06292994938790876
0.2865945403570935
0.062058037948129495
0.1421647927592207
0.1445337425341859
0.02323316764027161
0.07155648298872863
0.052221582860853405
0.11527072820492248
0.05693192466518005
0.10658873236089256
0.0592291377628844
0.24265536042716124
0.11871828941847148
0.1278599595805502
0.30684651685362185
0.043959563357670726
0.12478156407198841
0.34129654613469634
0.16069879709412352
0.24331619288874787
0.24913167379597745
0.08834152878594476
0.11947467622796003
0.09424582900263476
0.16693380703390492
0.024269305661748113
0.02206588247418088
0.029296606355797644
0.012114374713270901
0.10992399005794583
0.0245550760518295
0.021878432908867807
0.024772708854036603
0.42519947885563336
0.3691556529384998
0.1786379560271874
0.22825616785186617
0.3695481487509988
0.3185738389266401
0.29648465193497975
0.29567487167645695
0.23742615343100287
0.23289011852396793
0.18730358863842717
0.29491613993815036
0.09191640695069198
0.0947564173045175
0.05762808346369355
0.08304152244004584
0.05686685760598337
0.12470543022620388
0.06934532465297157
0.11631023560809554
0.13331661439429177
0.134530878701811
0.07393579077213926
0.1091711358487923
0.11910998461911383
0.07653323157545028
0.07955002439456194
0.08168419514851204
0.13090886523744333
0.0989161881612379
0.05287704066454937
0.09445084689318968
0.15702632347516698
0.21254479042770835
0.15303463364926337
0.15520878437489086
0.10038357770931909
0.11444218018007003
0.1276019768495375
0.08700340580977166
0.10053346485747162
0.30414436358518393
0.2715424127137399
0.22047221543911336
0.211518351808895
0.25094171368274826
0.08441614132706148
0.0855175825156694
0.1212862061950751
0.08576828237021772
0.05461794447145626
0.06024248031722608
0.06602067583361267
0.17787759679166987
0.09796835897149415
0.05789208026329134
0.05438530148183045
0.3202171451492635
0.040573961529701316
0.2584558977449737
0.27181747103904713
0.28768606728824797
0.3168860724230238
0.07006523127638033
0.07694890869206962
0.04847385489170629
0.07164511385477147
0.04258616618486119
0.10679080036104663
0.11124619033198695
0.18616023956014022
0.20281635030335696
0.21520620858434739
0.13891851589015644
0.05306952380863203
0.17756470033660426
0.062435945682553354
0.1410023834007305
0.042781117162076866
0.16979709085735076
0.16406324928872976
0.10513005152790864
0.02547042578472684
0.015499270788903025
0.27381270895338145
0.38612868575074655
0.04176660014693711
0.09132981931223433
0.053086436642028424
0.05676065070875502
0.06486389244206597
0.05622331821868221
0.0776328657468453
0.08640429115593398
0.1416962565023698
0.050606428034286215
0.20480314306113584
0.07239957922055343
0.12991648543257872
0.045842832848066645
0.10367659486965139
0.08274482982618545
0.10785730419378839
0.04843914654602528
0.042722409746858675
0.1008086723512703
0.12529842612394443
0.061384713144915254
0.26633647182114023
0.20272977251092772
0.23862658732815234
0.2555091893070545
0.2600262969532946
0.0858270033040037
0.09599316003321921
0.08454647326950557
0.15936317137863562
0.2581099759290009
0.24131124286551164
0.08858105403122689
0.13696207223474927
0.13843375879648395
0.1108960464523496
0.07434792454485212
0.0391189626631122
0.15043393921551645
0.035693056670360504
0.041035342802416434
0.0476049001064797
0.04944435409051923
0.02868616021660451
0.03760538610980933
0.04589037892862687
0.1488310974169445
0.20044049964381352
0.14383087439938766
0.19495883004129366
0.1487609847454599
0.06756508911607395
0.10826575171376385
0.058737738105987355
0.07720063177610414
0.08436901459536866
0.14201566736477914
0.34608150405039273
0.22506323592752947
0.10234915286373981
0.13357728727202203
0.10333789579643841
0.16122520871685517
0.039806451389054955
0.11845989696601619
0.04551120506146761
0.06800152246802672
0.1341217996026103
0.03678747373536582
0.05556303237416746
0.056414534220619796
0.1113210350711844
0.04369225075002094
0.16883912831269138
0.12876501128024945
0.13218589242411627
0.134690387749245
0.24297405336200123
0.2065057350196349
0.24327282396051703
0.1598114621716504
0.2215059576181959
0.3954440801068907
0.3286912240101233
0.3099901607209201
0.32373159035682186
0.26164894959597773
0.26292888653827484
0.1492670225477301
0.26605515755292136
0.18268462926785528
0.12505975051875
0.062320977651525916
0.042381090355243844
0.13732615106566579
0.13509855276706478
0.1436066471053113
0.07109312953219478
0.1814562365752323
0.03943427715744064
0.048826869872843445
0.07337060372585415
0.18747527592481703
0.1720385009117508
0.06233976010320255
0.11018894795380264
0.1075818397910232
0.10869206869006684
0.06541431526514047
0.054866691115872744
0.07083598598112387
0.056486404506873436
0.0675861338092282
0.03232628665853327
0.1944556483197767
0.0432916714776306
0.21937425610774702
0.07942339872236494
0.14197922754110623
0.05522162475077135
0.0760430715266684
0.14506180267700472
0.10729316054034575
0.10002136952670987
0.36101055818474626
0.3148540629717364
0.28160588247343077
0.31205072961345404
0.036265503049053814
0.07674906734487379
0.081022666140689
0.04522980348478785
0.06860943095863273
0.08807140414335789
0.15655510211693105
0.08722896513906185
0.14857998122241764
0.1519401871902026
0.29185967156919734
0.33964632060268696
0.3677421967838072
0.24112384026126094
0.1390276765115592
0.07679984507186949
0.10476898356101984
0.1573762180932833
0.12677302555915745
0.15600299633346804
0.048107821710158885
0.07894720119108266
0.17047394022096726
0.10233341591726276
0.1056104897134345
0.15682611292198426
0.11939564314155912
0.0911442874714912
0.13041211242348527
0.10577180167697141
0.06524743788989247
0.15250163158150892
0.2686973702548271
0.10381920607156309
0.2122003070655662
0.1562139479142536
0.20982763117230496
0.20085501748934534
0.02598940317021048
0.0520052528193177
0.049513000349888606
0.10145758879186564
0.03746244671490419
0.03635082004862875
0.03963083430906386
0.05981773473362164
0.09916915639104475
0.09584993257110798
0.0835996301442484
0.0715693336892668
0.123630703922196
0.18153868339381238
0.17924555453576257
0.1359459115245397
0.2947725362238192
0.2111621241261777
0.16746279350276402
0.17627032237390744
0.1851718058665743
0.07768242306482766
0.22802543008487217
0.08653387424926122
0.08726091890345651
0.1496206968286197
0.15721418173191767
0.14447808233603784
0.2651637608361904
0.14021308078984143
0.05423939985329405
0.19817036524102008
0.1687024439584587
0.16081256542916417
0.2613814931214791
0.26606384091590396
0.3249836747974952
0.16333146291244044
0.20066460324567978
0.3193562144740979
0.34562836675827097
0.22910847907807233
0.289306384777559
0.4916381029352158
0.4697984704095174
0.39260110668676895
0.43316643992217385
0.3865366662632802
0.30853997687059653
0.3286935026365234
0.34804607610758326
0.14181594364640074
0.20104743866145136
0.07357046998823628
0.059456257569545
0.07516081194009147
0.07642154493833359
0.11056258003672459
0.10484085668989644
0.033183906139156415
0.07765381871055511
0.060464422493765116
0.04086873486695105
0.02576964896393477
0.06441299233200819
0.17268756377554134
0.21330116484867884
0.27191904814055456
0.13322328573539047
0.17355937252547324
0.3565338332435406
0.045925875992058544
0.1186778525067938
0.057276383069576796
0.13652920251326792
0.05096783589066812
0.23491008956304224
0.07726562069182079
0.14264455702560727
0.08428084596669529
0.3801566295586666
0.14723910098140378
0.19808913179082915
0.2587450640746926
0.2567286240272823
0.1044683139582019
0.24920491885752954
0.23528104907030076
0.307547176983883
0.10596544874660056
0.0864270478315228
0.05699689811226313
0.19377118248566683
0.07133104070111541
0.10136421550326472
0.04712632541692373
0.31623831292341914
0.28455765647979264
0.20049029038907645
0.24737673772891616
0.17340088160898243
0.1093717756500579
0.07999576803016675
0.23955839893131753
0.1793067908339893
0.1487172179670802
0.2069045816090047
0.08209880493311789
0.07538365234587013
0.09800117741773988
0.07242376746640522
0.1372756585741745
0.08976252925940534
0.0987500752272202
0.11253367691530498
0.13441055539900984
0.12591345068219065
0.09022816187493225
0.04756082473180537
0.0398974015736701
0.061236242072263095
0.05231766708397499
0.2711697099332355
0.0615674421567251
0.05941576315942412
0.04537413144221611
0.062189625017166794
0.03641873976836204
0.28370296637883546
0.11761633325453981
0.2767730125339989
0.2435047183302909
0.08033824879404916
0.058648643992700256
0.06910846551533384
0.2475827640059754
0.223826112179147
0.12411854472455011
0.06972560927303663
0.08163071616859882
0.06965628390871728
0.1913825776056192
0.29778664503147956
0.340892369228835
0.21845570776022474
0.21024233854025823
0.28093636877028144
0.24824222235882906
0.21285591824153563
0.22872737247326266
0.2929732547911568
0.2957619803205704
0.2533154948272544
0.03588963660712673
0.058941288210079296
0.0734428160771448
0.16502606905490516
0.17003320659703414
0.04220907230913989
0.14094325658967147
0.12166420021824728
0.08800817430650142
0.09786981737151791
0.15014337714199533
0.10083494314022075
0.16160490462960855
0.13273055394287864
0.03175696360861291
0.06092800356471685
0.07985555762996685
0.039173814013682244
0.09196877524680976
0.0524457954275109
0.06606690631374006
0.06938309254003006
0.03167588321080022
0.04869655482982696
0.08265902196006628
0.03469589723465533
0.08440152455506075
0.0536023999292296
0.04417248793898808
0.09281338020208983
0.04480197282405158
0.04009864164413862
0.42414132055230835
0.49116644786567576
0.3895490463083173
0.4391980678104571
0.34566935623429995
0.5096164788453004
0.061251151355465876
0.1898875176002271
0.12662378721902773
0.06488129992157145
0.07578135209206331
0.23754124330426682
0.19334643936360346
0.2900862022995527
0.18083107914234095
0.12698858535398044
0.24132790633264598
0.1956039838829396
0.060689055418953516
0.12662514924761084
0.2479801051015293
0.1020867266632453
0.08093513217993138
0.09416160093437963
0.21953400340668608
0.1231680637599727
0.1901767401455841
0.11925832209103605
0.22483433900936806
0.1537886774257259
0.10009504728131947
0.260018657114991
0.1503424060367035
0.07177716278537982
0.15285672432572833
0.15589852774860105
0.13935341343710345
0.07327937843592618
0.29848099867109157
0.16188709020261918
0.08210243283200694
0.030106774437219545
0.03791045467560118
0.47485932189665503
0.0639423651791847
0.12090321482756097
0.049080781829387375
0.03711448384367956
0.3295603963387933
0.2926043433033718
0.17369171907021344
0.2263025717323877
0.22624366301311175
0.35503709850339465
0.2591576996805961
0.40392318677319594
0.38576537165831126
0.05561097294575569
0.09701105497354183
0.126127146045168
0.21415206311382307
0.07439099027788446
0.08059136261845187
0.06409336055961767
0.06200743102065718
0.12191581532338704
0.11143679201661497
0.14048408269076498
0.2513643742875907
0.2582546344087232
0.3658522080507919
0.3072293939275821
0.3734276769859469
0.22636327042153004
0.09179397632785688
0.09357612129399008
0.13501756432604312
0.08575788362369595
0.11448310450523033
0.1431829637942443
0.14404642568042672
0.03847500897499928
0.0973767492010129
0.048931075208520775
0.12396064837354383
0.04260095023125479
0.12171001353134141
0.08877873674495139
0.02649452957068408
0.020871105278804335
0.041996943645464975
0.030245341986309893
0.050319368619459515
0.046381199842488334
0.07899934363801202
0.05585946536180936
0.24814687818044828
0.3585151717675014
0.2316136229382674
0.22776357072763426
0.14691770074683866
0.18288237501802904
0.09857577614371112
0.09044912588235145
0.06129254588218884
0.09869823010937932
0.04807212591256972
0.1366836011017655
0.06088978561791884
0.09946632893784128
0.08164507954973882
0.28575710359564804
0.06421100471507529
0.07829752819112515
0.09102557368170199
0.14810046333199275
0.1048559166505705
0.10548045232020371
0.1328076616069523
0.4111807193533702
0.30916585990247225
0.4623543789694596
0.3113010607558228
0.38976466950740907
0.1377556840100122
0.2199051370819567
0.1832523234411105
0.08884548536810252
0.21578109976144025
0.15591825239657447
0.12939522919250931
0.2594593142406195
0.08702911260651464
0.12006456511469608
0.16358727434941367
0.16394562500792
0.05208400919896849
0.1662506029688535
0.1513879225838353
0.07741591837641475
0.17461558349941042
0.11231447006913266
0.10350764328410648
0.1578542820601317
0.06007647484905752
0.24248923481730472
0.23165663746231174
0.19596766687654793
0.21891528058599882
0.16031301704196577
0.08103632397971519
0.08936073678302361
0.1257367229779188
0.16972340819073475
0.07387715202320798
0.06446078899204317
0.1477908338769464
0.05937801609010557
0.06665450459945037
0.1870065617423961
0.14127212388275845
0.06505648313721182
0.11223300554180113
0.07281406916142724
0.1373439474675787
0.15012595608349014
0.23567435764912995
0.26054044943768256
0.28277121136500255
0.17575317813705854
0.18029598969715904
0.05141190752766689
0.07189671699927429
0.05088020236897517
0.038854680233167016
0.054975268996561036
0.10867559874587371
0.04709464640804457
0.038610258827471544
0.35541105653478516
0.028709013331843586
0.11226782408028292
0.16850532306603946
0.11830657564900347
0.10758914776661575
0.13960975351362093
0.10667458610788585
0.27336373807660985
0.45237276207218957
0.2847904578306822
0.3821106139417304
0.42621649938054945
0.25804162820044646
0.15196508999273423
0.07163013399518635
0.03807413404059965
0.09870540764409119
0.07400635783578989
0.058367826449062445
0.0500974293307564
0.06138852638749381
0.04120394609174508
0.08784314216284977
0.24553303709053498
0.17106739192861126
0.13442542228784216
0.08418215044283517
0.09569016842096666
0.2507495066577744
0.18452465310668725
0.16771582493221004
0.08519173326112056
0.0617259936106387
0.09520876944161676
0.09136878545871473
0.15701665083290722
0.07288615434122685
0.1736784918677295
0.23691573961980206
0.22374886708775088
0.23683470073204763
0.08235245805862158
0.22935531864046596
0.15159983401383825
0.2588059078710187
0.06742181296828832
0.3122570986553685
0.2024212832067757
0.1763032251346057
0.22741752707448454
0.4340364033170939
0.3194624835571693
0.3487067795729743
0.2516646132086581
0.3174153453886823
0.07749170429776174
0.16243128888066394
0.17839582178249072
0.09262936097782094
0.10476372135523203
0.2196663975027947
0.33737345056451973
0.14390481881362419
0.1219126070765319
0.11982150633728755
0.07090521059643626
0.1764044868938936
0.07714022503247218
0.11302789428285001
0.037631751743949955
0.060379065230586955
0.07311364782866703
0.19034656051888318
0.1262292636704841
0.217980604731402
0.24002198283567186
0.2020910783591476
0.2025998138639961
0.047030510099612795
0.07825562748203516
0.14180089005255528
0.0668906277632282
0.06375110824946881
0.10879425437244218
0.09154997303883014
0.13998426189067836
0.07619289716447925
0.2124588204102631
0.10083687284502302
0.15111288104274584
0.17709811520424076
0.14348528285750045
0.13095273763592138
0.03537411325643252
0.13666014616713767
0.1366575223648122
0.1569313763403821
0.05193263693149837
0.057047534523165855
0.05252936577228045
0.12350530460936393
0.1441550747310056
0.21713800590621013
0.062248903659671215
0.11996612775493168
0.06787651831382008
0.11847828887115208
0.2012902323859982
0.20798814033608162
0.12268738698594017
0.058123030344538903
0.13613118397866034
0.06551482448269301
0.13078934314900928
0.12668761665705272
0.0960129802796567
0.1273674141523856
0.06473601484713645
0.03870152336307843
0.1237415360589532
0.06622490782623844
0.08089426955317049
0.03599524364988628
0.11088798025704424
0.0800650799777675
0.2788279414424326
0.13214665189363028
0.03449480046565355
0.2188566310827254
0.23671613818559611
0.3338260024989036
0.14842974006070708
0.1558268772454695
0.10544169906518232
0.20275939750530314
0.16999159708820194
0.19817141443102937
0.29238669887964946
0.2975292109409733
0.22211778046727476
0.26519261518033416
0.35081548198992973
0.42651529193681265
0.4103064640955123
0.2804599744799678
0.4480767464217872
0.32300130215483375
0.25068916740211816
0.3388062796481753
0.1905124093223734
0.3611458132241114
0.17321624942783068
0.32773434707115107
0.07431221293279366
0.29365996446493875
0.1950115325306696
0.3777235407575614
0.1932107214500003
0.3125739317017717
0.3121024951615978
0.3112514712681176
0.3087053217159329
0.13936440700811253
0.14214030280397522
0.16056002705728806
0.2304560565280147
0.2549603735151024
0.036421430507524104
0.14929992714878226
0.14906022782319764
0.0722012273256604
0.09908837702972392
0.14715648160578487
0.25219272613967425
0.09692719923353627
0.11406569431375387
0.2125873789514924
0.2551183922605949
0.07628097503751478
0.0536613571006572
0.08193635064769293
0.0529416512827894
0.051662455998635594
0.04391280089582163
0.05943083983599364
0.07968626332756296
0.08528525678029877
0.06622247735822986
0.17443932319179606
0.03770614291384291
0.22677593706590135
0.28343224765263425
0.1159504429927479
0.5059084131530139
0.2630055001128421
0.2417687210254269
0.07512052196515752
0.24360244134062917
0.14196283892878125
0.22705078074178764
0.13032323929444883
0.13859520436980033
0.18411126491119204
0.1704454558400159
0.016114885165583508
0.011945494480131148
0.019475884544392173
0.01995107450066628
0.029185662840667297
0.1962017182331342
0.21286907607561356
0.13965312480343914
0.19121818771977547
0.21491816001556463
0.18193225499094878
0.12177731131932801
0.1462175728280091
0.07052571773783879
0.16475014418031567
0.07618272884698904
0.101833564060837
0.08968553840495262
0.07907410069892513
0.04648483124328322
0.05640255881142255
0.07539004311506883
0.10765459614818947
0.04690711656652262
0.058542059554854246
0.10562272927972322
0.08193895705849803
0.07548903100462634
0.08126656573343176
0.08284597289174835
0.1936438951805752
0.12418552723859586
0.16930457557587553
0.08588642870865008
0.31781736254600357
0.3229250523801975
0.26106854181905
0.29938882952095974
0.05655428721379246
0.10976585389554727
0.23901686248955767
0.23535295611619714
0.11630971947347256
0.16715289588261106
0.07516967931091277
0.21663314223014762
0.09372826706412915
0.2859295374085197
0.14398935503273974
0.23070150708982262
0.05713203887976854
0.042271351096193364
0.06350807072307472
0.11789733876273596
0.07232612191491845
0.1529852460803592
0.11852515356512267
0.15657126500159993
0.1447037121203342
0.1344981327995811
0.17337319375510826
0.2635589312739498
0.15210226845937133
0.15093381248604038
0.2566643702750602
0.24170409413334223
0.2385423580260247
0.1350262320243818
0.22672089067547155
0.21282256451026707
0.2333110871104726
0.18454238604688072
0.17249178390633657
0.2620838202528061
0.2706271361999915
0.21794443329120927
0.2043467663683871
0.20993625338014288
0.39361404263361305
0.1708429173873505
0.2289812482749668
0.20448686482170475
0.1509465159801515
0.21538205120242798
0.13419498185789774
0.2146810089824838
0.28105579771966266
0.15790189360012805
0.18728107708968128
0.2246130246786061
0.20181053524553466
0.24498238938514913
0.1802362205783997
0.1734541355585496
0.15021608565809816
0.06432867742017452
0.10678658015048882
0.09052527405385868
0.10662094392959315
0.07517926006790544
0.06047785455893723
0.04581681434169414
0.13375711892909842
0.13299041232540554
0.09905753897405968
0.13279103435063952
0.09595739550809705
0.09771358170034501
0.08281495065940403
0.14669910979808198
0.28084250554744467
0.2381804303531994
0.2499307654718092
0.19389077604636212
0.0812026843706001
0.27334159749723763
0.19831959465144763
0.08292157266597373
0.1553623604826835
0.21529936707710334
0.1025911508248982
0.17863367819377002
0.1802241343947225
0.1330399362850671
0.16927655835754238
0.10502809987315695
0.06865649248410034
0.03580489556443106
0.10982399269386807
0.03261838167701016
0.03147915393132138
0.36159450642687324
0.2593110069502949
0.15499303048605337
0.19295046607635702
0.1733064463161472
0.12998378774001018
0.1394828944043981
0.12217967308318997
0.1115078014191747
0.04507803187962219
0.2923701769224271
0.08235722163445863
0.05972088746712948
0.049081595831971046
0.11927426553241208
0.07892243535463303
0.14501117590553544
0.09164491498406512
0.04891160658835706
0.08266493482596052
0.0991431551675448
0.014332228839692422
0.023691435228543157
0.02593265734584592
0.04745872705533484
0.11079446871953913
0.14992031779554113
0.07372715150093823
0.11693247542845003
0.24858360116360095
0.22888086152199708
0.2739615944008971
0.29042015801146903
0.2395070566632707
0.16167601244139476
0.12580595889329482
0.3220433353008809
0.09804955827808026
0.09739654128010981
0.14566026583397113
0.13052721172673337
0.38123739701537523
0.14489819894640743
0.12784287717910778
0.16773550307126647
0.04797304442605762
0.17838852748747197
0.14006497781527616
0.15573905477884534
0.14219494201176386
0.27544237608548167
0.25909053232386486
0.336493055114459
0.2666478793200103
0.23408656039272707
0.2820793977058706
0.2806332197093265
0.3613824646053796
0.1627569101815286
0.2905224434375658
0.08526892542151379
0.09175529069641292
0.0964836352869635
0.22687469645048283
0.07303410535069224
0.2959356400201531
0.08076679606949873
0.12415931446224758
0.04975011397133147
0.06931022175687797
0.04729984688607802
0.07389900968752594
0.09935004457794801
0.07568749635848389
0.12148446863138002
0.09839505073602112
0.2197170603357479
0.18659925484876733
0.0860658618288976
0.060305801655018074
0.13508247668377604
0.07082565665729862
0.13721468420821128
0.11652985502440433
0.084581351008913
0.07386046811633737
0.11769151580781163
0.10308979218022028
0.0938724965220297
0.11287689949399798
0.10718974508613345
0.20898912414675866
0.11572633549965201
0.42873168702976183
0.214056768259586
0.17543826722529965
0.17182692606044034
0.06535336641530985
0.06420346324744354
0.08343889267800145
0.16576789102609105
0.13853104750166934
0.17516704754825435
0.13673027682600217
0.1854160226834471
0.1956184826128754
0.1396377748388834
0.16779647999691277
0.21742979657089329
0.23912842448070915
0.2362436505062808
0.2346603648195152
0.3166486498642678
0.2930379316314357
0.2901110794048956
0.3030463959472536
0.23287246428155062
0.04308024937956673
0.021633746930017607
0.06705910087035905
0.0613530478503428
0.03717812662315412
0.05730990673744847
0.048550022509556014
0.06232659347034508
0.0673506756254186
0.05740730351680007
0.07014088283833664
0.24851997377518034
0.27076579778542836
0.1394773445318503
0.10279116964467032
0.19127513570997223
0.16631668622774062
0.3042406431683514
0.14723208002566668
0.09725295446968085
0.07362938562418898
0.09870793804896796
0.18322911186363097
0.14039514796395558
0.06616954344670577
0.09975459735799358
0.12559058747479965
0.18133202443309365
0.04772714929789118
0.038323025584519964
0.03822257001036911
0.03635839718476334
0.195209125089128
0.11616240598262058
0.26653001882564337
0.1909769569559506
0.22521875264287208
0.2540031072511683
0.2755552390933305
0.21329523089033475
0.26459311445007555
0.18161964276045572
0.02648240497035516
0.02386840250946969
0.11192959359939733
0.09820114519760598
0.05520443056107328
0.04210553753647
0.04143219484602202
0.07232318441225588
0.0735541439537069
0.17542315757972293
0.0891268295439284
0.08647490142472208
0.07301952354930277
0.12428342047315775
0.09059283303436834
0.09464341716416767
0.09840083243613776
0.051879228626671964
0.04932864012576622
0.2002160446045152
0.1617692720348345
0.2323658706542762
0.09152187515028634
0.13577506923398727
0.2126539613089837
0.26125497872554954
0.2385002567678006
0.2825044167824931
0.2656086987473988
0.31793864464305077
0.30623620669002005
0.19855732421214767
0.15485694186037224
0.16588842048254787
0.08737748515635584
0.3860644402605941
0.32518173907644693
0.40763486821522676
0.3706542252536371
0.4375449257257329
0.40815890857209597
0.16002369037437703
0.24136809535971532
0.21498131221766947
0.2947573981245762
0.1531068145237455
0.21033156054469837
0.2776386057933353
0.3072786221130747
0.053789480215443046
0.06760547129501668
0.06886712083786528
0.029162492094225112
0.03111206423482839
0.1575027509122542
0.1606370067927051
0.10276181747145442
0.08385406464234847
0.17485816573923416
0.08686187528791213
0.1613848831554766
0.057648082892192615
0.05457017012654947
0.059234375331760666
0.4324167157328162
0.14905805845693204
0.3970693521996027
0.3866110457927257
0.44387403796108127
0.1494698933296726
0.48782742416297
0.4842167052412864
0.35258938346985147
0.16908974913380603
0.18082048285309818
0.21650136638710862
0.1585914232929907
0.19542144817845872
0.2501500676328523
0.3244200559086605
0.25687628831889975
0.17512541652055458
0.3588605850110369
0.09259993953666341
0.05491317840548595
0.08483414995219386
0.3653741161302813
0.11495771324242725
0.4291262001456203
0.13726917001503627
0.08353187414521052
0.20344260333522057
0.12640874349441514
0.05617533497492605
0.07664491992262203
0.30636649312549635
0.10608998223273552
0.21084750178614514
0.16018134961280917
0.27106799879177246
0.42814893409861454
0.12410252502931648
0.2610173300693363
0.3920842234040962
0.49078320229595185
0.14034590518869153
0.1885544562483744
0.519165373054619
0.37311757724807487
0.3261678245948537
0.21870146495355033
0.3692009318607913
0.27398157648453947
0.341284607081206
0.33124342779619564
0.12275622575552235
0.058742406653863884
0.0822517189163256
0.10527764481006159
0.07667146882140403
0.12377121813733216
0.07303519305345915
0.12443263975018244
0.14817694469052606
0.12142807146691663
0.06250185680256681
0.025982090678618598
0.04421424400687401
0.052287656415143734
0.05934015845615675
0.15769096991764658
0.05701527611885856
0.07802284879886358
0.030123767727601156
0.18425745331684074
0.04977980149124349
0.046019071838839146
0.06774570171733707
0.029213928610666396
0.04045539547684146
0.14219851876458886
0.03808235595431792
0.05077332899693897
0.10591396427830957
0.37543538785439906
0.11968956125766486
0.22570753321861356
0.10413583470593417
0.2873668842453419
0.19559109048900564
0.19340912701819257
0.18269133460416775
0.2510748439516349
0.276109087093461
0.525636464714218
0.27172006016172956
0.08704670393228249
0.07034940737132277
0.07409278033527812
0.06067182100978994
0.12196584578006706
0.11008324167618591
0.14182178959082997
0.1649039839154009
0.0961613064958906
0.042981065623098946
0.11977079095344635
0.10397534140239137
0.16008781516091855
0.20682789198763715
0.16534532614426464
0.06874480407129561
0.35488501600452493
0.11377489552246323
0.28508847885338706
0.3211371372839394
0.19624610800945042
0.2758094821959622
0.24262662670880683
0.11359035455193234
0.2781077839262198
0.20810917206979251
0.13129401692475448
0.09524437440687747
0.20551344913108088
0.07487093583975639
0.15708909048013936
0.1815170928979329
0.11242372505972623
0.0773394694434664
0.29988048865865846
0.20960325039550864
0.19383041767217937
0.12829758211903697
0.06973147101701309
0.07510980823491756
0.09169306250584472
0.08321190476635701
0.017623173504095997
0.1385896100922735
0.10171866521355853
0.07509500899936264
0.09968285975991054
0.03370366352173405
0.07501983608050615
0.06266380995401616
0.05913895797518922
0.06025261787483954
0.0314803025639633
0.13355393788895106
0.10716378873720339
0.2183312193228843
0.060726814673617076
0.045870004504111245
0.07134466315521736
0.2005579358686029
0.182913665138612
0.06600180029695671
0.1356084487740934
0.17052550022490096
0.1566416512749579
0.08903459412559671
0.055268970925004685
0.08028025679922951
0.09642053053503809
0.40450917340850484
0.11210323764141869
0.06622585570080755
0.06351716142088644
0.24850147464277186
0.1301310584421886
0.1091668684466231
0.11133471335085174
0.17012352622322433
0.07684131844138033
0.10328523923436243
0.10196435594663195
0.13286480899861303
0.042977343539535584
0.3015100029063647
0.25072678874687737
0.3844778212946702
0.18397706003166955
0.24535654246684116
0.2045542303421828
0.07815191516429466
0.11561384937211663
0.10129032694179421
0.1772035686883553
0.053852074347424915
0.09477395119879492
0.07858391426388599
0.0845807179949015
0.061602608262374764
0.06545053558931344
0.06138142284113951
0.08391417165274563
0.06972434359624775
0.05507818184212048
0.4391964831995613
0.11483781042885956
0.07283028733159595
0.1417152904391184
0.12005172228494133
0.11511023676162346
0.12183519587923572
0.18100051073665258
0.4026289819009937
0.3129589764914914
0.2984837972203239
0.2865702867336096
0.294908692550212
0.02650187833258965
0.3313471755924135
0.3003728090104226
0.0714641556532179
0.20240591166531122
0.05425618024693001
0.038276413884036915
0.07402997715816655
0.05519877894574724
0.04076599259328316
0.17010691541277753
0.060141833236401876
0.08666910987186607
0.0686464285778504
0.04931253331787625
0.07798347372287937
0.08000213545803145
0.03622859904005833
0.11188561555457854
0.1766062935831519
0.19092513982212944
0.1444915605558793
0.3230400574316241
0.061719280536094254
0.10460606975744126
0.08968648060917311
0.05772628183122223
0.0403274617402136
0.052803379655612576
0.10740638468249038
0.33071097980925407
0.18704517976200014
0.15921697632894932
0.1916772078834794
0.2183406688912774
0.10763029978351901
0.16808531819777295
0.04627270973941805
0.10472039382444687
0.13920086008434257
0.1816242648829096
0.14060188372489826
0.09929856037693889
0.13981256351367874
0.05627690730792946
0.03175734295354974
0.061265227813788084
0.1236543040518287
0.034360183916122146
0.09144930455036705
0.05662961623585427
0.04010098406901452
0.29168992132940913
0.18769837034913717
0.4931676157180246
0.38025504477795463
0.4522402768405254
0.46261707980071104
0.41864564932865345
0.2955075865445701
0.31643250248016946
0.27891542419492843
0.27595559881694653
0.19596600666112068
0.15032118601793792
0.23343841879921515
0.24777608775688953
0.17067841817125246
0.24628917461931674
0.25578258672261805
0.3476525948810523
0.27377764696373813
0.27723288050118416
0.2994623233471986
0.032936981404352195
0.04396823822708907
0.20691796232392373
0.19102666771347687
0.15982738132063506
0.10264036583817372
0.2023826964982998
0.09211225942294951
0.1415511952824873
0.10835745786147802
0.05472417525389167
0.14187225639182632
0.16601071696029426
0.06127457866768884
0.04921151217657866
0.04751341218935355
0.05449078298576115
0.049334286799332376
0.187203988236818
0.13824488336145557
0.23331240389768385
0.22018942265581065
0.13677660743399808
0.053309001674108895
0.05247908354628919
0.020445989628959587
0.060195768101958334
0.09141447532137015
0.07730215246382065
0.025660006898695097
0.03734140117961179
0.01978747701020476
0.2449274981516885
0.21980762468534656
0.12170259957635886
0.1168128871645971
0.103009925901533
0.1343448867237346
0.02438765633023849
0.20202619368786576
0.15221110221967774
0.13272027915396117
0.10137241300518238
0.0965658080171572
0.13809501935320528
0.19063814403077656
0.14190825656273667
0.13504432823659593
0.14737151547787566
0.17102868078810585
0.17456522857516463
0.206176438140101
0.2512019286666255
0.07619411748209504
0.14359686983527203
0.06009295181821124
0.09397429571310917
0.138849885383477
0.31958184117448274
0.3578559060755851
0.023356189220716774
0.1416862679297786
0.3123525898415617
0.3874206126610846
0.3793648388958545
0.14339596148702904
0.3613761118173136
0.09188153897711418
0.15490044419642254
0.41022426054400185
0.11922750323668249
0.12148725908481779
0.1363315423632348
0.0976794519439024
0.16780171550542589
0.10875733901376881
0.07095939672094242
0.19078409744677424
0.14141952797769367
0.27803822899974984
0.07115706332160213
0.15501581365016268
0.21323746004813965
0.10286984815897092
0.1272823712718872
0.1914232493745352
0.06638907007490631
0.14842261347307653
0.10800409813416043
0.1311073632215352
0.15094627798555574
0.06292737401295566
0.14004798890006936
0.1901159154873675
0.11321695327702791
0.07638634846794336
0.10258319882975885
0.20192522489509854
0.15371554539443497
0.09543779734935444
0.02667173223573258
0.056284996474032845
0.2808625118178812
0.11685973175171113
0.2665859644034528
0.10639939186986061
0.10867276269869441
0.09654600176312403
0.32325463772096563
0.09113969594319796
0.1320160205728673
0.12355922517208608
0.051673483634888814
0.06432864639469567
0.07592834971989333
0.04724955128762091
0.055168032226489166
0.12508578712980709
0.10191364120458975
0.25058105055171126
0.1930096937585701
0.30900264339069966
0.11533013443834954
0.0380017864131067
0.17724731591831802
0.24102041347760764
0.17834605285002644
0.23399767043636982
0.3831779428217843
0.23302647823226363
0.21657050097908026
0.21493804078814271
0.06902740214211404
0.2022471562052401
0.2227786725813274
0.21853539037389003
0.026588160388604384
0.25205601181565457
0.21871354433994047
0.27793542539886956
0.20830616027176718
0.2362746369250896
0.21062227899702948
0.08022657160196563
0.21810197195144576
0.20503610535008673
0.21752431993783625
0.19677860757586005
0.27046265868282654
0.17980747378348086
0.19413652411724996
0.20657343345376983
0.19862837910798203
0.2555234421243992
0.25570182289583554
0.07762180352078321
0.2578195096502118
0.3013018540743079
0.18467618611005931
0.19255343080633588
0.11320961014111731
0.2396941334608227
0.16568978364652107
0.30659355048144005
0.19161366560563042
0.050960204093169585
0.14632958250853517
0.17574056997738932
0.2027637940197058
0.39290195048039345
0.05734280365135856
0.1985519026617671
0.18735459629589316
0.0626315435970115
0.0815297377708629
0.07904064826059927
0.09881662291789274
0.02233326624375946
0.2632401187636381
0.12748557170206776
0.02020602034986028
0.02189585655908069
0.40358118122720266
0.235899998584007
0.2022645185623061
0.2005695056377196
0.02686297595495622
0.1814350563390204
0.10218861790872376
0.1673587033899835
0.02779716963527679
0.09682285879656712
0.08622468979432504
0.1384251839787387
0.1504115558163025
0.15065559610872914
0.12544919644899163
0.13777735166968466
0.33149489257650566
0.1236162787118249
0.13353514538727357
0.1771461343650494
0.16331349238344148
0.12305523109615786
0.4359670793176993
0.3026623821971076
0.4023624975836128
0.36161330906017686
0.3506529606493298
0.06479982695221213
0.299514409173054
0.09375748893044604
0.2980841787737983
0.24537759854446023
0.2510545736044401
0.25105640398188894
0.24666255777797605
0.1615176787080173
0.12344365719627688
0.16403149177060455
0.1840404785793277
0.021886461431159923
0.18420258285998045
0.19020773681186837
0.12473143951265628
0.20415767962455195
0.3517680377559987
0.1712809975690067
0.03759923920503584
0.06916716474796578
0.04403105338646344
0.037397828967919
0.04184022491597074
0.22918045794029332
0.04219607780257563
0.030441669374563947
0.133089053379521
0.11601339987782319
0.11016174001108922
0.1920464031722254
0.024074414800978036
0.05029680687996654
0.08884880333890785
0.1658648508915998
0.30022701498872606
0.041071109539636795
0.09325576074782209
0.13112786138646026
0.05433462413040637
0.1392826159323483
0.15178420165086806
0.3150228610285478
0.07398449229211693
0.11868656114200393
0.11659940133137288
0.054113294497133944
0.25185708066992507
0.17192715325052998
0.18783345706986065
0.19393906637640618
0.05609643635274646
0.027461129694163967
0.06050523950927525
0.02765549459116745
0.2932601715291035
0.18667377136658372
0.38079491998641063
0.12610452833987063
0.1376955469690233
0.24591076383490493
0.18773132734835432
0.2787533288393246
0.296328773811025
0.0905630680390763
0.1695122008251701
0.3372071914538114
0.09912955405388955
0.313165708853567
0.1615255962123284
0.11400030711503424
0.26854072051106176
0.39830112831790115
0.21259931957289338
0.1638510660393733
0.09990865499526448
0.08187743014257307
0.06036741570840589
0.14402338320760683
0.061595114314880295
0.14877601509084687
0.039458640595032145
0.3344252280648962
0.08814246123491254
0.06068108349554493
0.056339329097882355
0.2710679897412093
0.2798766076278944
0.03748880055469647
0.30018862450535033
0.14216647845762664
0.29554530136972285
0.11182799241801583
0.12087087258942716
0.14254246990745603
0.18813733236250413
0.19992782611129248
0.03869845505827768
0.23916615110330056
0.13030795073374263
0.3021420395315285
0.08894143630327135
0.1554843344427003
0.21883012330844323
0.08317459178370497
0.1723803070008904
0.22887026072449973
0.04496047685377242
0.11122869054924663
0.09007060443484388
0.09821737285771569
0.16577814955186776
0.2550733667081957
0.2859152591892441
0.04218924717242047
0.30250093503523157
0.3014182200948604
0.3053234448047534
0.2663404776904883
0.3001706961342368
0.06393554325018352
0.31155667708257667
0.4517486244214001
0.29492003180398274
0.09648729199615773
0.34976033365280207
0.1793812265859783
0.18644046835822162
0.06866466134297806
0.22005682132911883
0.040537176077844184
0.2599971419778121
0.12997880119687058
0.08705385668698426
0.19689294731193308
0.15237925739376576
0.09102059147381694
0.24727418526624478
0.21873103027606222
0.1363753370353392
0.07321059605482587
0.18807945131880846
0.13561851483716036
0.042600860113193764
0.06551988315711098
0.1557802327101307
0.033833047152094224
0.26666610008122993
0.0477359150689144
0.15633218822722744
0.14313972498568764
0.044926130613716954
0.22056362634022691
0.1253288429817602
0.3094720780174026
0.03056463558413693
0.028304758121648316
0.1664434096669667
0.12473667580519308
0.1475835713165613
0.07060493575893308
0.03487129960567569
0.07792291694930661
0.10626599578170977
0.033644147788480315
0.19832499700172654
0.16604954553299733
0.3138609287603659
0.1964124210463495
0.247637790993171
0.3483017396596616
0.3203954212028088
0.10938909707956193
0.35444514095358004
0.2946955610136178
0.09432075695564378
0.31637355429761943
0.3499079368503307
0.12119137939050757
0.13941286233666203
0.08345516370986321
0.1336619164597505
0.1336804177518708
0.06662654582289551
0.15201563210467048
0.36754176125099247
0.15319891827595186
0.06992796993877785
0.1884832423366218
0.3009544365601178
0.19177890902000463
0.11107714620368883
0.17867841192191167
0.2397735444857741
0.06307422626341962
0.286504414413119
0.23361322561772677
0.1856303141451361
0.15099878166576067
0.09711635716126264
0.05322096025609793
0.08180589364904961
0.24015961976892214
0.05103023303412453
0.08887292814766641
0.05531083677900919
0.15326662958399015
0.10278601948621907
0.05276935869739852
0.10042571880565712
0.34192849979545115
0.06241247004126773
0.043047345219189126
0.06179808706184888
0.10683742927367905
0.08914734452386712
0.03650525365441375
0.2125760296962415
0.13610735727282347
0.27272952456896443
0.06336632051982316
0.0630594405544094
0.2326474489717722
0.251940351315712
0.08773346857462902
0.07708320159486863
0.17833835634325715
0.10128945336875902
0.2040421117710151
0.10909993436649998
0.09248490862139429
0.1302467358350062
0.09673276058026203
0.09806675075351566
0.0735157973084917
0.21529427032037338
0.08192855579109351
0.10665471795450111
0.0994360272240998
0.032994018834075295
0.10017914792071088
0.06448989005488329
0.26481636843086886
0.07239138371167637
0.24612628149714869
0.14407959765854583
0.17400054209532212
0.3932436719832606
0.1115437371119661
0.06080084801866652
0.08100397267938511
0.10770544597836941
0.19650843348468344
0.29761302084469027
0.37096471740456594
0.19803145028032726
0.15844519996786197
0.2050026337651359
0.3233339441171639
0.03573707841523556
0.40456765410092654
0.06267137424307324
0.09901277286259184
0.11115585951999046
0.12204795470354243
0.19413286301660027
0.14070020808986444
0.27889032391844715
0.10520772308281148
0.09649040951743237
0.14349426983223243
0.13103491119807126
0.11051604734769593
0.11071581977779037
0.09737735187852377
0.12857888782655627
0.172233470651555
0.33078195979006214
0.26915524885670117
0.10007871602885593
0.06711068222080845
0.09746097883210805
0.1961116590922468
0.054796165008774066
0.08032196377005453
0.05454990499364808
0.04696293766188971
0.1999594828433691
0.15341048399269236
0.38768263692692684
0.09270049209487788
0.24050056129198377
0.17339150438756087
0.3560065725410997
0.16537097331862824
0.394357832445713
0.312684608227305
0.34546770173069735
0.29880755506435625
0.4262206411714004
0.21714441047897365
0.3855799047209308
0.3023216842448113
0.33483881110446345
0.4351910301329296
0.07454343415813387
0.2197421087235891
0.19678427144624594
0.204906338202781
0.24752685393469936
0.04405367108497653
0.24155508988056656
0.16645330212620157
0.19028910174942648
0.1343157290674214
0.11537596616297845
0.10351384523954683
0.053937359449633536
0.3880494950956269
0.09248904959785739
0.23869976213149532
0.06951152488847025
0.07050041437290268
0.16858923584961116
0.14925504073081686
0.05886821557410439
0.036622655518000445
0.0879183513340222
0.14431906379510132
0.17590367121569292
0.055665804100707046
0.5443983479962142
0.07537601903533687
0.2401676104554541
0.09403723892260632
0.09214586931946228
0.04437487453577346
0.17091221579680435
0.14981188697486583
0.031043245098146443
0.15116280955421574
0.16762434409491336
0.058923461137463766
0.20210889673226412
0.17589772551614652
0.08725909467828191
0.10543491285597496
0.08016658470824907
0.17769684512124242
0.3575338654972053
0.05150518630798796
0.20580273352481282
0.31899204706623835
0.18454796568422396
0.058216554979493504
0.07401317849257445
0.299998625129915
0.12218622663290898
0.16141588317846603
0.0702523828101777
0.12852251302338452
0.2717170187329059
0.05050554063058171
0.03030761926184235
0.30478343873369446
0.06396103222371234
0.12418626732205454
0.2523696980879102
0.13953697446239569
0.1811197807050473
0.031796904731904524
0.05323118675356383
0.0880717977234621
0.11940928653792958
0.04569802864304972
0.08593266520013669
0.15195456194606885
0.027412028257430065
0.17984068484488588
0.09079886874304675
0.08078267571049914
0.10114434435588243
0.11410988834271256
0.09135026536729139
0.149306274824867
0.4153095424482248
0.0672248377671846
0.09279849097303167
0.12134277289670953
0.12575699875155957
0.052352607178880295
0.14458273608694502
0.18440457391769552
0.18667973642644992
0.4838113969140735
0.12301029984114117
0.21221146407935007
0.15523074267724557
0.20787658948097093
0.13993544435767907
0.0457983013979998
0.3871956812459308
0.04598869769053853
0.23851162561509193
0.30530730709018195
0.15493138539116055
0.08173729175758748
0.48299986869974165
0.12961407503811717
0.3531892263104529
0.06267581132524785
0.036532616874733234
0.030525629244901736
0.21017412528534302
0.06091651355599039
0.2129483646483931
0.16928063416585876
0.07589561652008366
0.3707531911896983
0.17891262535751867
0.0842653367620012
0.11982981044818532
0.04330554259260396
0.3802885874831027
0.4639818391135656
0.28806944131248857
0.34057848749009084
0.26615509670663057
0.2169069327001626
0.06596343529525764
0.06832943107931648
0.030866637591789675
0.49934409067605673
0.05816332110153552
0.4446497254982527
0.16828538683678385
0.35084180179488567
0.29055562223277
0.3201518557349652
0.29612704771112563
0.28508431129616724
0.24705634990725145
0.24215588583976455
0.14089926907665867
0.11156919663676498
0.11855150091602444
0.3763821534323451
0.07162299374386298
0.13290101754053213
0.0894218021426982
0.08741224644505112
0.29314842256758145
0.3451209696472352
0.09677704740584289
0.12498812728324925
0.11041790209399649
0.44684979216751297
0.030411055917933513
0.023537402402408123
0.23450697114008917
0.49548091719881016
0.3635005079287818
0.033584807441005345
0.04657381679669818
0.03054958373946366
0.08940027615016495
0.43046408486381665
0.10632040761113543
0.028434312722273355
0.4276238982107593
0.12609784671991736
0.07426592528253553
0.12779251522934817
0.0913887015072425
0.11112027426392851
0.1504452788414444
0.398278222498121
0.4980907296566682
0.3164914289650251
0.22018552584479228
0.5161525423043906
0.13573154156054523
0.24266233374942453
0.21026229607003946
0.14541495509313784
0.12905697788614465
0.10801596003179523
0.09596515805838753
0.13183600866060755
0.3463571543754949
0.05934671797061299
0.20192671862855416
0.038117336983635716
0.09152892034872245
0.15964741578022607
0.19493796779768516
0.20535851147855047
0.1326633713206538
0.1613206454597846
0.20076448785019724
0.22874961452248357
0.18441847850219442
0.24493073846833915
0.27920402065182565
0.30856962990927306
0.2556973856859623
0.27932077239502706
0.42845032326375326
0.12614568314768937
0.15549729785233782
0.09632216453276075
0.022802714664435685
0.15241790957234605
0.18866394962454672
0.13553803494872724
0.06483651634407592
0.24458715492345914
0.40828314898580925
0.2691895577777304
0.30661820443439297
0.14629140018437695
0.17472836549677523
0.20793301390598998
0.128557776775677
0.4700080586159393
0.35941285548887864
0.2643497628514148
0.2951460033100546
0.08680998820104809
0.22365425674783432
0.22561840310495893
0.3515739393905309
0.2780041328940224
0.23664967512950566
0.1543034469450265
0.16840506117575207
0.30693109637224775
0.08075197407449572
0.08458736161802956
0.1800076067926312
0.08705046481471582
0.12113837176447699
0.16061291576503525
0.23257671389333198
0.20505101737724069
0.2518090015286852
0.06211951853819674
0.03720534368206804
0.03759319791279259
0.053090536943416096
0.034599792634215046
0.05575643731944194
0.19568182320805033
0.045899555612966214
0.03907150416775497
0.04483345715103452
0.03459012210128005
0.04721311793365853
0.13281127047032654
0.28604842066524006
0.32414921632235594
0.27347839827448756
0.32760382611693534
0.1835873974601229
0.49358925347211186
0.2266248983162909
0.376842193215724
0.38424905666870396
0.12339246093374197
0.081092278700656
0.3532800413561212
0.35247954528972647
0.05530053048821564
0.3923641785548287
0.4380036475670027
0.08420156450640624
0.04385113506954816
0.04581536400082868
0.06174606684270296
0.12994316026552546
0.19601545729733888
0.07144590799721341
0.3041054130293951
0.44389263954586183
0.040156053159388645
0.055564292188504644
0.25744370258601146
0.10975016445589356
0.04871669258108367
0.08206038923620611
0.057841823026047935
0.2940244160394826
0.18334655386157017
0.42093685688218446
0.30651890927125525
0.0698179222380415
0.12047356422482373
0.03833612538235048
0.05745975079581521
0.061590084437568936
0.20424370967335786
0.07288282438943577
0.18227285639945795
0.05615889592901952
0.321044479320033
0.047834766876186784
0.03218631235423149
0.08273991301681703
0.20107346856172512
0.09033835176018336
0.19764285042515903
0.13450806716519698
0.07783889996765606
0.2159066131121682
0.18620442200428464
0.14704870396122818
0.15865425911336414
0.12911256487581962
0.056557605048237605
0.09390361414528092
0.2372189582774013
0.08492908675214837
0.4117713331289574
0.2276856378135605
0.11241827579802635
0.08616801417434578
0.1029795936472703
0.06878604579393333
0.13335379691853166
0.16979739641563982
0.2483694683031894
0.222827080409272
0.32868887449602385
0.2795908110211025
0.18292032949271875
0.3485674273201774
0.20309248882575082
0.19146318579616506
0.2976145883208758
0.04549541690257765
0.3334947508050154
0.13081903964768604
0.14014403875211157
0.052028473194858954
0.48703771144008146
0.04764616687553246
0.038591949672994466
0.14940316987084207
0.04626923300257228
0.08220908461203569
0.14007551084994005
0.05732421657030408
0.050332590007072756
0.10841703637651738
0.08762343653663109
0.1130077167168105
0.086556799417865
0.07879334074056552
0.164077236141565
0.11545520522604034
0.246076992121809
0.08004117332356184
0.09110719209486125
0.2752359035870415
0.156803755374365
0.37387653711390684
0.12397865271079063
0.17424984756861414
0.15102703275566295
0.16645409373236553
0.1267986212739363
0.03546361440450808
0.1740387794331477
0.06484019381609708
0.058099881764843785
0.1760630572186868
0.03816150655522451
0.13958702850102972
0.0433180451348148
0.03819678117106811
0.3841449830669768
0.17704926792579131
0.20042586597021161
0.2133938124171915
0.09094416396698228
0.08623262612878113
0.21805620187402555
0.03516332094311622
0.07730733531647158
0.07636908967489611
0.2669531604158034
0.19832262411784254
0.09407477917789499
0.13097512637590697
0.15026045862893148
0.10529171795183596
0.21629762582843245
0.20157679253467722
0.15094985850121728
0.05274367856353599
0.06536541688094757
0.04188075542664987
0.21510689945581637
0.23106487226635433
0.37157755534139136
0.037575542287160944
0.06245788997404716
0.2777189657038664
0.19226105884939385
0.32642847276374337
0.27172885264430957
0.45711787280842026
0.1522392712021934
0.34548969526480167
0.07060500345136117
0.06905262222062893
0.0385000440205478
0.24516650475211096
0.09619698603888141
0.05275319642594326
0.24953809376557873
0.015129172106998972
0.18558983648713412
0.10996232413565243
0.07977536465978691
0.09578728343723872
0.06895461328068918
0.06601703797394126
0.08339168576237353
0.1366919024554571
0.12120598748217629
0.07410848396669782
0.07656072679137574
0.08193761812531399
0.10923467253185201
0.16165443177999625
0.2467883248130334
0.1621488752010815
0.1368880750447024
0.15579773966211818
0.22469810206455043
0.17510886302994427
0.1867346236401534
0.23545432105214004
0.16134800683885986
0.22583244462549068
0.17713064968239423
0.025386411776780804
0.17745496035375877
0.0456665415282914
0.24633253301825445
0.1660681040915428
0.1368980875908769
0.04264789234588538
0.17195695051437895
0.08443732392594344
0.04130403754501425
0.1852005178929278
0.05940858091254671
0.2996343159378631
0.41902031721808125
0.2708219476671906
0.1904871061449187
0.17445866489658543
0.2630578888090112
0.16140957203895956
0.25620588850212817
0.199987792317723
0.09742112411502185
0.19758421730804182
0.190072102480832
0.04589162665883532
0.04263864546376515
0.2079345002308386
0.1687448033462685
0.08668734638863375
0.15485701142193764
0.0539414915187602
0.04762777940879122
0.08586898953108213
0.12748714256973517
0.1575513083566309
0.08798881803602718
0.39621288477201766
0.17500165216426122
0.1398222611511903
0.11557822898079266
0.14040290231216998
0.08867236194010253
0.1398176452406513
0.16568038246057176
0.16744225963442683
0.10745425401966731
0.14987093327179768
0.2579489717929544
0.04960824795372272
0.21676300747422472
0.09305790246934016
0.2039059764328934
0.24672131589961704
0.2818923831293404
0.21678456470651877
0.13893525593016479
0.2689034080399075
0.04988932859885048
0.08287211413225004
0.05849342542254833
0.0656297295357874
0.1309497421245218
0.0666279221978006
0.20479436368016796
0.1453327068327044
0.09702137290860935
0.02837301141952441
0.20840363452581923
0.10655337694973788
0.07966318385519391
0.1820685898827174
0.06324898766651929
0.03998836556277961
0.093001156613227
0.03521419769252022
0.17920166643827062
0.06009035305785028
0.053055326884055315
0.09418438834876135
0.1520537965584577
0.1831864887779602
0.032586386018121354
0.1775654709312794
0.03513703408076428
0.19043901108540054
0.07728600931201125
0.13677620722487746
0.11917430270128014
0.4154828783608022
0.19780852239614896
0.19712154029166487
0.07744289941653694
0.2654607378154493
0.06475118030160751
0.32725911994140194
0.1756751548126089
0.0961652137181682
0.21251390432479006
0.2502454280810249
0.15625163243305945
0.3564440843131192
0.07094584344103874
0.1891902815113701
0.09430100513978142
0.22351607307956614
0.04774541719972453
0.20683488238807235
0.2162958373543696
0.04666096495015248
0.11170952863387203
0.1070505112327038
0.1635365764091421
0.09056888055558664
0.18569498558114794
0.17573185805016886
0.14458365321105368
0.24253970336910508
0.01590405436691115
0.08063127379868372
0.2673659135384052
0.25633505541260765
0.09650779046513784
0.20929692799137412
0.09947645450804218
0.1047078995212172
0.28107817103399413
0.20169048041028975
0.10461115799064638
0.18228937359230574
0.212265387641478
0.1299913337379796
0.06327413555402668
0.04995243819022716
0.12947847554407307
0.14060376599017185
0.06270665459184026
0.11097721627214865
0.05421681633568514
0.028976223000394943
0.06304027760945992
0.03229169336729914
0.15701208035818473
0.37308476056855755
0.2695767470619767
0.06620684061909153
0.30622610725140514
0.3133147755318679
0.24023751313921604
0.08486437146362814
0.0191077692361682
0.25435169799818275
0.1288291834457321
0.051654064758473034
0.07135804569214045
0.08394727038921426
0.06527261219809208
0.06105075593050204
0.12048784546181311
0.15432160682602042
0.16843341227997188
0.06846790712801135
0.03254085858671891
0.07810909856740185
0.06901590258482194
0.12495834325732401
0.0510912161107642
0.10947527274945451
0.08184243981544054
0.012276378252165432
0.04398749557424973
0.04877406422003981
0.04762494967580341
0.03836146404693549
0.11288289492948893
0.07083908999191027
0.03170968637179152
0.03158485760289869
0.056530972876322264
0.20587625656968686
0.03196825496934345
0.06707144276734246
0.12692783882016268
0.08718130962263461
0.0850172346306092
0.19603193660314852
0.15969464636371364
0.10626163894068834
0.056433073663697306
0.060980894371462625
0.2347326320248114
0.16553772708465614
0.03378579778094682
0.21097739991812617
0.07334588291625961
0.07256317835976224
0.18693871998796746
0.0582242381041407
0.04579391674688455
0.09951129979623803
0.07987602321066578
0.12651202843478143
0.2271244584045368
0.06999592954535049
0.08011764163661987
0.0769802084062362
0.09182803518806457
0.06361574927540872
0.10536494403931547
0.1581965831346649
0.03785030605641755
0.07159512165631728
0.08250218664642557
0.06244469806315963
0.036589866511706995
0.030969824837806508
0.05361520258536228
0.10558509507598597
0.06981802327666413
0.04785696742763403
0.08973386495632533
0.10433664451928529
0.23556102948355484
0.0668098626833355
0.07485741507210418
0.24452578088989946
0.04715065862436886
0.15405555934182638
0.14827691113210942
0.058179795250176136
0.1505855399486157
0.1340188230496413
0.2987248355864054
0.07167926514108404
0.15252727100077887
0.14936159443798724
0.14533057848609177
0.13674518693726925
0.21172674173230166
0.10098767870735702
0.06351339385699684
0.108846633787471
0.1115522770521078
0.11730378055804234
0.16492014495083734
0.08602231376879714
0.157902885887898
0.1194861398035177
0.1528221318728021
0.045190029840074336
0.10163632851944336
0.15611188816629018
0.24331093957473754
0.14259650784553415
0.11500967052445715
0.1073924145999509
0.1620596559112739
0.09903895038126116
0.009452749596689965
0.16481819100367953
0.16741946178981038
0.21516327583340314
0.29196798882303243
0.09760661380249362
0.1827543855989356
0.14688273275940608
0.26647697718965907
0.12813453325516608
0.10692375392656438
0.1034593136513516
0.17655550802451705
0.1459375894032127
0.23398609255875716
0.09037831121758917
0.09587181397990036
0.2181516218052717
0.1457399758342732
0.13255419134143412
0.20037952444363322
0.17019073751426392
0.1311727557152195
0.1543513283946744
0.026641978411822295
0.08872491720208181
0.22892237568278667
0.36175907775234617
0.18038652989410542
0.17970096157006166
0.055842565234390136
0.005719842250598239
0.3654594870379758
0.2599940440813629
0.2645287732389899
0.4224781381024207
0.04128883094465291
0.3074361730899959
0.21359034232273488
0.09893024651257977
0.008975366670238703
0.06956424868535524
0.11097253016159517
0.1773531842172819
0.07618347768885242
0.12192994708018884
0.13616302465331148
0.10085581527210713
0.057394635156036586
0.01015777681396227
0.23171967589333628
0.03373620116521748
0.28878969039648045
0.010901799211816658
0.07845702950306888
0.24418921038902291
0.09163620631306628
0.16566574376501111
0.26033260395490326
0.07152286525014012
0.117521323730003
0.1343402894376505
0.21480755194532805
0.2520756352908309
0.2662369993075703
0.14636599463840183
0.10790851631703195
0.1381419770952086
0.22531253361098666
0.29626238754960343
0.31009491957913193
0.3075625727676801
0.12138791114551853
0.17687963764807116
0.30883310021775034
0.2995113939138994
0.32277083646869276
0.1470428207920047
0.2805297279053146
0.17978335608026647
0.19249841758369585
0.28714061309947747
0.021534885439573916
0.22429879677054282
0.23826212406964004
0.12489712653217622
0.012466751580163065
0.10139528946899114
0.20292896978924302
0.1524717388058006
0.06771840158524449
0.023469693726536896
0.11096641751941218
0.0739516947672502
0.09596399916493535
0.050895430398839
0.006925197354610279
0.05821279686823833
0.006496309059019246
0.11756370456213965
0.10812659157873238
0.08013666820252514
0.007437726711853024
0.15420713131750904
0.12130278148401502
0.12233315395227018
0.08048279835956708
0.08157220883371774
0.13903861135216491
0.18465139671365405
0.11680865957544644
0.08933411279602044
0.11861524453420227
0.17120814304050674
0.1319637037812775
0.3279921461433609
0.21145613036803831
0.19831729765945283
0.299884617633467
0.20706567091930606
0.26660810818922
0.24636479227329203
0.40522170884832415
0.2863364560938153
0.257335965458311
0.1947074436512851
0.2614547178058963
0.27787047725521835
0.15030899403318224
0.12046205187484041
0.07200847222618738
0.1432242717564443
0.0877003144289644
0.10997055631644759
0.14378846414223428
0.35864241747365677
0.25150335281518693
0.07266975239771857
0.11014680368484092
0.06527829719748578
0.07519131964482237
0.09255279185205172
0.15440976593331138
0.274243908870484
0.3238562599422995
0.14604089444296847
0.019156935384605927
0.004542558107973731
0.27006282363514655
0.005727004420545549
0.06914293313616002
0.3449672674614902
0.35049513186983206
0.015217039205731121
0.1766280409262335
0.39856826122468075
0.3409900752355645
0.02591332179016572
0.2894484993603374
0.3993066155227648
0.008966506244854403
0.19037200656082984
0.05463389455166045
0.3412880431402871
0.2435940410962564
0.1699509676481778
0.34979159415086486
0.11777197469405612
0.19940233147526445
0.1412620869969684
0.09730671185198106
0.11617874206172257
0.4187873114633435
0.3229410319668775
0.3021268840711094
0.13510881778878628
0.0819547240860845
0.24872229164634715
0.06471529916615452
0.17834360503876237
0.18168422923807584
0.11219506155866786
0.1961836448342181
0.3996140955830815
0.3037590093933337
0.19585166806751755
0.3632825475804418
0.09531536154598744
0.13047855508226588
0.17569445339970893
0.12041956116140305
0.13260443191574525
0.09451802639655085
0.2610487279045198
0.2780231157269171
0.24518199720225492
0.30096005755859506
0.07810571343826747
0.15285427771933363
0.07488627232557946
0.07824052486253669
0.26759771956243733
0.07628594890562657
0.06992733582950537
0.055713035263660574
0.04318334712248069
0.15183790024154117
0.04160802660725594
0.10161796328672797
0.09728844490941858
0.21831983075227945
0.10348590497611823
0.25135423264548984
0.16092123909495615
0.18563424183159288
0.014600324034763995
0.12195444641526273
0.13000107011082143
0.09645378894675391
0.13364580866059722
0.11770908960725115
0.4221172943673427
0.15659869590005604
0.09933383081253008
0.38781723624811815
0.057141575756415645
0.09055471595557843
0.05055368317785919
0.19131233083336951
0.018309673547515348
0.04170361886344923
0.03732238276428775
0.02638455799582841
0.2215846136034926
0.0760114139028476
0.05755411804570606
0.14596933223235348
0.03471031686693247
0.04253209855271324
0.04406357743951624
0.10830589808104847
0.10722160092098582
0.11529614826282619
0.13850899021601418
0.11764592451251427
0.29982864031920553
0.18517844786657012
0.13113475293314714
0.06807130835460377
0.20213467260742737
0.061975306818581335
0.15897343221928953
0.15221722752250944
0.21665263335695756
0.18002664757629344
0.17509238453248677
0.018112644726583034
0.48467418669607204
0.18484013116841647
0.09716882694841303
0.11491741098287159
0.02650106214524142
0.11155183346185264
0.03529278006256724
0.3238529220522906
0.1969035262735188
0.21121519107405243
0.3627188631967997
0.03925265106236595
0.27350733117105436
0.08551893724122442
0.06260469694415721
0.09084393114225711
0.11023324612978389
0.14908238721238237
0.15325064880882233
0.06129066111218798
0.1503218668287763
0.028616134901360373
0.039388825473140654
0.13200926551962136
0.12236372171132581
0.13213647954168797
0.06318828739838526
0.0685570053634264
0.07166381856527371
0.10607425665889733
0.10904400180364564
0.05491776379829686
0.05732211916571512
0.1349065548504276
0.08824580831514055
0.10096432090251777
0.08530571112430092
0.09517619181854137
0.13928242600761243
0.29999039399242516
0.03073959286189463
0.04293488749146958
0.09332891887187866
0.11949046772328492
0.17846715239768246
0.11013082476005343
0.11612202673527412
0.08309143529602087
0.31016400122603693
0.054151168636046076
0.06562537607961574
0.01006973305574983
0.1012461386501241
0.1423262701068784
0.06340026512343355
0.18908704164691056
0.029688470315458848
0.0973128239787081
0.05263997894771866
0.07223225068286053
0.05547983533952845
0.09280958733875781
0.08528334532184148
0.07097104890989815
0.07500240490906722
0.18414678459479134
0.05567865521371857
0.07566618106898618
0.07292424804948122
0.06556177835531452
0.07764125498088037
0.16774551622816486
0.15136946747180036
0.15374828297563028
0.19533525908379004
0.04659717947465074
0.12296631691475877
0.04929919754996787
0.1384851290279151
0.15585335578537596
0.12790593613477366
0.07637336945950272
0.09588062891101364
0.10121298962536361
0.04656152884376479
0.12425840219505283
0.0663072759377794
0.1180671440933505
0.0696482596085009
0.12926508967717662
0.3191532827540131
0.12589898300122726
0.09916641911493321
0.038359074346402476
0.13367146294219442
0.12452553110386595
0.037894076402525144
0.21442259013941867
0.07699266145629863
0.07390576437920075
0.08591608523835975
0.1980047958561097
0.04145705633550143
0.08374899781704523
0.12114055354854503
0.12806991087057285
0.23069725048773831
0.16355355573353075
0.090568928073355
0.06729074535175715
0.1481604190929582
0.04759500303825713
0.08902794687288201
0.058279831063435046
0.09995574193487422
0.04719086862356615
0.15711703893526563
0.109283487261095
0.07206647840976739
0.1293573042656541
0.07130830273233331
0.10101858175582379
0.12941028890432427
0.2632201322304905
0.08855432947891291
0.231446324974209
0.10534163193345174
0.16362544100328175
0.13423151426222002
0.07465714310858233
0.19241579279774176
0.24045850142011463
0.21804005990886877
0.10945626221073267
0.05460261835431352
0.12054466146129805
0.16644125393951112
0.18500733082576107
0.0720750537710376
0.1162922460297447
0.021553345875693047
0.05439889811102088
0.07944981414313924
0.17375976228085596
0.2501089056264633
0.05236394039023312
0.0687191043213025
0.03314484508515492
0.05345332351946574
0.09279796348671734
0.052505604371598597
0.05947347672856353
0.070950272963035
0.06985614759398484
0.07575872514291569
0.0498878234847523
0.03265386449871796
0.04795657964744395
0.08137635883064044
0.06953619174190749
0.06802610028461684
0.23868796197315958
0.1595609109075264
0.04500678070339227
0.06222213579991434
0.008313269637276511
0.0695220888050538
0.14788808208114151
0.08095847253682376
0.14106432091619764
0.08865128185421804
0.21186334846658586
0.1671436213704353
0.15191223115385907
0.06880088504116853
0.06129916464012603
0.20474424232501928
0.025090025979936873
0.16591055626756307
0.08389372226909547
0.0588246941441905
0.07626502254893683
0.043738388449713735
0.17600701512928235
0.09894064640939186
0.12490510137878846
0.32095434992499466
0.10249657322388919
0.03165863489570271
0.12017210079014198
0.0718323896284318
0.2802516063402788
0.052489340133535865
0.05157992295454367
0.35390383135457504
0.07597301446780873
0.13316259318237278
0.15254569088731826
0.10121793301768524
0.061072808677282854
0.19005016984091308
0.21664754306472553
0.06009786610569326
0.1005671091212867
0.05589838849305295
0.28713054903649493
0.041001038114045006
0.05727748200389995
0.04760062007327126
0.13681258941917301
0.06650438248718038
0.2751343728711831
0.1641963132050389
0.3488977839905848
0.03524569684839901
0.388940225550535
0.24526064044513982
0.16514988212244217
0.29004646657231287
0.23017689113706605
0.03342010699849513
0.0825332857929959
0.05194256349810103
0.17458808256741826
0.03362413229314892
0.26562685173235717
0.20632381791351245
0.09612508057233785
0.12779021592963954
0.08701264912034716
0.10257435549656319
0.0830073881280199
0.0989575092763939
0.2359711954230174
0.292107054113658
0.12698082267077496
0.20942016868403124
0.20139728977582771
0.10627023892696212
0.16147605970365314
0.012874485735870727
0.18391465280000785
0.04498572684012589
0.022807359047875772
0.1774282671878174
0.25106528334651057
0.14270888914485053
0.16654846452794977
0.09773515391028721
0.12000206332631892
0.13595597120684133
0.07361615563257454
0.3162961297180526
0.2241849795178893
0.06361712226848455
0.17889049375018903
0.13244016933239938
0.039699790867267604
0.026216552293914577
0.0239302810721007
0.12725330717318145
0.04691527827743956
0.08061725115449876
0.013228524114550954
0.04683833945176513
0.05917901368991197
0.208672278121457
0.06840213009000776
0.06118039896180687
0.17829439782227804
0.06908353841262511
0.047121846224457045
0.06849062966948806
0.041332213375332376
0.06903327130988621
0.06362951041826595
0.12414806883851842
0.1628982803104908
0.1188274123763618
0.044702657947944764
0.10291487057324249
0.14744679733434754
0.0697489896866324
0.22593170803776977
0.05143037559673177
0.1875983960409038
0.495580598883937
0.12751180448503768
0.2780375490241525
0.054330357589956066
0.2328452971672483
0.1328350151516264
0.34985832839382014
0.09213538573765627
0.26715910880137417
0.3794881075345799
0.18004369414308605
0.21902894718918017
0.13184337837127955
0.21069373051203083
0.0744053214127021
0.4285046318022212
0.16308717581627608
0.17926016090342328
0.17320829893341802
0.29277170824087206
0.3870176252218521
0.09773097726941611
0.2502644539175814
0.32819860123334393
0.09902451293946152
0.20830591636585577
0.025451935463473272
0.13995880323702029
0.09456416658502838
0.3109083103259355
0.18194301119871356
0.10467562797945912
0.38010558576075454
0.11081702155036913
0.1614988894284015
0.2066755780260391
0.02200400036981083
0.03716268820910317
0.13153459583194055
0.14655398629531888
0.03836062003894643
0.1581226088365015
0.20700808389663797
0.20586873612640133
0.1475501513247752
0.03855665671263834
0.07092017089750488
0.26594800008069325
0.13644443490869038
0.13939846312390125
0.26276415358440114
0.07824806797403956
0.038414615902387164
0.04028873741787747
0.2160721715974869
0.4544988685832885
0.31576882863372907
0.07363875339095435
0.05226366693450049
0.19475453214647048
0.17463476836152644
0.11892307481084517
0.18225631060009703
0.2847544858984646
0.17340027406095848
0.4507559965020131
0.12285984958663383
0.11655073824056598
0.16630465800139066
0.2162143406857597
0.16640315721726154
0.21296836410873776
0.053718510366813924
0.0520923224686745
0.08042147677014792
0.08146476843900408
0.06908912296715258
0.023233406335649607
0.028440892436348824
0.011723619856434792
0.018591154913983308
0.036743966561274294
0.03740254080359584
0.11442787495832141
0.07856482114307663
0.19982380187392587
0.117114328880749
0.08213853681791397
0.03626855805452577
0.10244351576900218
0.010848733660451092
0.033661297351151365
0.12416979197230969
0.1881636821308002
0.12587032175112445
0.1340995635516888
0.10178975438072119
0.04221570212355285
0.1001264228258593
0.1643990177020118
0.05399910909120287
0.16761380726185937
0.062349375650631075
0.040551845902680204
0.01435170011593431
0.02564032906374816
0.018363328337046073
0.01288759741037316
0.01581152985199643
0.31987746902884173
0.022531150669631385
0.012387229280973171
0.04933285415899139
0.17803164326415916
0.23469282571112648
0.27815765327353575
0.09544232447805517
0.2466614862018168
0.06071375160613248
0.1406271020902264
0.3273881340320545
0.36456439343055785
0.13381431135434088
0.28963153716294293
0.2525085676028298
0.10681331265154966
0.13130682594404872
0.1925385401114598
0.3198980341378443
0.27298484993106886
0.024174687871919762
0.23262891325503537
0.21611857016791106
0.13791619653134157
0.2240979709385554
0.2826248345654766
0.17560910260487553
0.22900963354359763
0.020463833148653906
0.3579783718663666
0.118395876005851
0.05589615684087981
0.14411662819563817
0.04055647237937313
0.21684637829420955
0.09893667313322208
0.17656863984974877
0.10660198610205224
0.0837569996476127
0.20282136549768962
0.1909083928973402
0.14106162823254006
0.010193935645924884
0.17955622755504222
0.012752923688994684
0.024796336797498472
0.5130728084318851
0.019455192144408023
0.2899334725007107
0.35922369090557865
0.4232360408214967
0.07015387577397016
0.27845711661595907
0.11100877484859187
0.1582349066838166
0.31752844137232106
0.22249540222208244
0.363086491057016
0.20032454306120262
0.13390560130117002
0.1322378117102136
0.2436868998837766
0.17277706051622002
0.14430710730832233
0.01817489980618214
0.0672450700401481
0.04587336200279806
0.12337644047528068
0.3941775307826175
0.07837296329840224
0.26077148171799486
0.07514095330058064
0.09943577024194669
0.04848107363268942
0.08065713149672996
0.27813955572923865
0.22696241493098182
0.08877451577705711
0.10551752851278097
0.09316616060950249
0.120765653334947
0.1052759225618785
0.07414404760472361
0.07805530867126675
0.029349103776531386
0.11723655991945495
0.04341934893294409
0.2177586297214766
0.15709049834362843
0.09062831730074392
0.09028105088342474
0.10511705228062833
0.18725515860201336
0.13570877593896347
0.20722627070094293
0.2996510835889118
0.041166486425291395
0.05978818913374852
0.043749257652361366
0.16158806616943303
0.05515556905403442
0.2271784207559969
0.037417170215646126
0.23019256001266641
0.05444489357752793
0.15739911934845827
0.19881598103027115
0.11489695357215711
0.3376644266696678
0.10351701630181354
0.15636442154923033
0.1824849889526668
0.11327064368491359
0.0970999317972608
0.10724398695753841
0.06254911305252531
0.05548812439110781
0.24037599112565666
0.3620899966249869
0.27641305118855986
0.08748362460127324
0.14096626621741434
0.12743175545044255
0.11085745810568008
0.09205751455374393
0.16879983482912791
0.21786663029030442
0.3205266893582735
0.2578532980943985
0.15651649351177208
0.15644373367474151
0.2370482023047093
0.054070163049955475
0.03807016960078651
0.22601677296372083
0.055325068878710346
0.08605582974913767
0.25172669496131456
0.13623585070067817
0.07220913757447832
0.1685959130284408
0.11492142682488184
0.12647964762021902
0.15250964296512282
0.20236041848568956
0.07998524472709057
0.20237624722665767
0.14431795374381148
0.13624853128283532
0.18087925820291664
0.12259983496897553
0.2369395988834097
0.21518914023270497
0.27298188832747816
0.1921378865662773
0.13442888170051312
0.15211389368418213
0.08994642602383288
0.33797823177564174
0.16746987350204856
0.1513376968562362
0.13322028300881741
0.4487351480021695
0.1488230370341195
0.06727726716905076
0.06504790998112743
0.11301738902385997
0.041396764412352655
0.208608276938484
0.07911730555401555
0.2062168027134948
0.11703602398353859
0.2455593946971622
0.1080904127047083
0.18277039333001213
0.17476031592069652
0.023271079450175793
0.21884512293801503
0.08720728549817482
0.08501015179536078
0.0607587517478817
0.16537338098504897
0.10508788629287584
0.06930179798739927
0.09212680302381512
0.1412778969355047
0.30201392351131956
0.27299303062334457
0.25492157836627366
0.2420458529017361
0.11445232586380666
0.3325973378057296
0.1702513511095217
0.11401806678077127
0.1361752538821245
0.0760773968389032
0.13556119778895734
0.05935562656166811
0.06923006860397621
0.14412282882425562
0.12321312498919175
0.10318767130941714
0.07269583061194086
0.08950497038058558
0.17805775390430414
0.10732731497677447
0.10853851544561985
0.07629045953207436
0.2235699041656834
0.1301947923024696
0.15554972758157604
0.11690344395521701
0.1346583546988003
0.06605988285651028
0.13436962480368034
0.06632596528310199
0.206956992244928
0.12290870338333022
0.13079696501461513
0.08273142890024743
0.09268338876489687
0.14894341265121613
0.08418220166988073
0.04038690814402057
0.11645700673633223
0.04292558881815803
0.1589443438756729
0.11463851837326945
0.16444801608167586
0.10250883336516046
0.10786737863673428
0.13220698937956551
0.191755823273678
0.09406377746410546
0.033520747197273326
0.055425200889239266
0.08246933039165683
0.08999640358676944
0.14152618540245415
0.07715728516683941
0.2747758759551634
0.28152384297426414
0.15738770926198545
0.07075459266706058
0.06527755121361903
0.22606906634086807
0.15960952019060395
0.15506052296428346
0.19256581771220965
0.18057244580030843
0.18730257517047244
0.11070721241051201
0.17620671894765608
0.19482174638949643
0.15287419713849137
0.10108718627787659
0.08029039027377645
0.02228359870938977
0.2878773476203283
0.20464144609085963
0.18116411877910435
0.02462556475847654
0.16281918062707385
0.2456843534703418
0.3264470079940675
0.20163789011364464
0.08557813306798814
0.04225154257927559
0.15874286232046528
0.12641475046779166
0.08276551663073235
0.13806125597378346
0.06755515836162046
0.08285575102221229
0.03960284997931458
0.2034324234339243
0.05492299954548801
0.13656805656185256
0.040890775639325874
0.23574995334214496
0.07547221819978109
0.10070280475461466
0.10640480580196157
0.0796468723457875
0.07111067603641043
0.09762536714527402
0.08799324419574416
0.031822286249853324
0.07708484943759812
0.06944069404285784
0.11228735029494931
0.13504403476652468
0.06841049340721819
0.07587674187877665
0.07395772911238012
0.22766397649235404
0.07144363145366929
0.07622760489625985
0.19022177476965846
0.0741601493162647
0.12689799501006388
0.2743258650737753
0.05195310248508399
0.04224548316666533
0.09519242114100394
0.15879321048364875
0.2280188101856332
0.04695505810418602
0.2702243193081786
0.05810141503026925
0.21580746732710182
0.1176160687038847
0.02992337849146262
0.02303477732811387
0.3216813486050094
0.305790754567754
0.105540673529846
0.08175285131157785
0.22626160287004377
0.09387977125627232
0.14121396229287486
0.13627044741567568
0.09893751041747498
0.13634806725536203
0.13226311051245634
0.18631635442533936
0.15155190848404765
0.046927509889257514
0.06756970180369314
0.021481758395018407
0.4048824923054278
0.07858197488842339
0.23658423422538866
0.26013446031459575
0.11314713361289332
0.24200408177547889
0.2562196869124999
0.03771996454890728
0.058260228090555415
0.06338302369118705
0.1313517009393953
0.2773837739977722
0.10484748638583666
0.17362502602768892
0.08264615453124013
0.1383921108387783
0.07151653251660432
0.03703561743447165
0.0734576248975413
0.05944249227768114
0.14305910030786786
0.09218773961501715
0.1798177138982536
0.10046700321148479
0.08819028441457945
0.03196003720529105
0.07693992603589311
0.11340129229577381
0.4128806362392571
0.24713580056783263
0.04464519161226655
0.12252300189897215
0.2907487953619961
0.1231850764241472
0.17234619693338976
0.17795294418821556
0.17039924085394914
0.24221032515476446
0.23028729069840326
0.3574915612574591
0.1471652893096685
0.17346757892199788
0.030334195910611005
0.048553361346152575
0.1434938311097286
0.09740518608688029
0.11664975156164163
0.1798711218429455
0.14712081534039007
0.26417087825484464
0.28260116527241014
0.2084413903639716
0.10345194586429961
0.28785881250389134
0.17622237404689758
0.08015996445916225
0.12749238848634006
0.2617051233860882
0.11792433104100232
0.10281485111333853
0.11674656220885435
0.0765684732826852
0.1192257405250586
0.0954433873738453
0.09078286801673584
0.11894793278299166
0.2554067058299176
0.07259657486954137
0.18980857214371424
0.038529486918641144
0.09368135599406134
0.06477442970017694
0.049535139507022305
0.32379016033469826
0.21159745111164818
0.1243325908051646
0.04922265470078201
0.07316251981992004
0.0902328231754784
0.04524761462161722
0.09416154899875182
0.07742720382603163
0.045436285447879345
0.061815853510134466
0.0732750778061248
0.06915551376107708
0.23693962439238944
0.10048389097327196
0.27482778832191207
0.09215794875613606
0.1667311382123831
0.33464083266341743
0.15980790552626223
0.20431837066936417
0.11900559842043462
0.1306437256609081
0.1834604302727748
0.14229869280221366
0.15221649760725134
0.22435766037157664
0.27139406775118163
0.1985677030690781
0.200447770248078
0.16384163630681026
0.14728401549504586
0.11642185650041179
0.17319496297994738
0.10814620091496722
0.1481889067183245
0.067533652837615
0.09108725358932296
0.14851873070729815
0.1066502661404054
0.1656559084639617
0.12089054585473927
0.22909513168558268
0.051133308046925785
0.04701810352592752
0.07857568762534003
0.0735375994091687
0.17183411055769401
0.03170251537085365
0.06031410970834237
0.06892011315266841
0.06911413664853307
0.12318347784881412
0.053172523942615055
0.06587442084476185
0.13927568081529204
0.05118896590288835
0.11394479234099192
0.13126271850825907
0.07894336423636418
0.04765450431085943
0.1549958043448832
0.06643736424908493
0.23679721254678182
0.05596897328517267
0.29320808169168655
0.11027169574958404
0.0821267404383885
0.15431767587510323
0.05381943974500622
0.11927693282254402
0.19822500798630135
0.05475720758685108
0.058858573677571885
0.20415802355119855
0.125683391039284
0.15060910587162263
0.09823025660702477
0.1823444613402928
0.15777292837740398
0.23103341377498762
0.1942495138004122
0.15902060837327675
0.14947827610482345
0.13252172796556183
0.10918084260754911
0.223561301955435
0.16836306764812906
0.24944521185242596
0.060717114470092086
0.08383014734311461
0.05998652770868986
0.024841217529194
0.0855250119455088
0.10741382778815238
0.10152329294522362
0.2740410075133353
0.07243504782551236
0.11397171203863338
0.03070183457931205
0.03237362473902404
0.06476458141838787
0.25044259833656596
0.1312325148847982
0.07958740605632152
0.051147959903108595
0.044653890001546286
0.04193954118318854
0.08691312235894126
0.06144064684151894
0.07830968455578415
0.22590012834919734
0.2055050005898063
0.08352236170106037
0.05725361327717822
0.03660103748250031
0.08933509020869122
0.0626153233169875
0.10701032454954773
0.05190774801244198
0.1854418385267735
0.25101779959216086
0.049839846242400086
0.13923493762935663
0.04920134512626558
0.29133962073243524
0.045778928782879494
0.23655124852096984
0.03499798301709577
0.13034754391538916
0.2115733195079878
0.20779487336743602
0.28653925789446544
0.1525573755622115
0.28914105135314927
0.17995836309029556
0.1396503507531535
0.11515710234777234
0.17540778236122348
0.2846634904099603
0.14962445689232332
0.028742296577702893
0.2948592890349861
0.14090094370085954
0.22830768837439583
0.22289242303445975
0.07105081624186287
0.3278691122505897
0.1375690050010945
0.1332486373426071
0.20152796341241067
0.03406730255475673
0.28292020441655835
0.18294235344665266
0.2639697375406386
0.118686295558499
0.3431200461065791
0.08055956124978807
0.051560071106807236
0.3555124433070417
0.3408505566700771
0.03219204772749236
0.1304941348892032
0.10999776654417577
0.19948916418399562
0.44026796464048784
0.05239010644154669
0.30971158985650143
0.22815017137272098
0.15730411523264107
0.1502837626414521
0.2416249664628683
0.14020805693588842
0.037542326569334365
0.050793543719845013
0.08609509857440945
0.1212356383459297
0.1837589709976587
0.08076860157770215
0.06943386991175489
0.2800850476620664
0.043977126507730106
0.09443816779345957
0.22200114941201143
0.27762827538127977
0.11442109796262014
0.08635693729696477
0.05729953979703271
0.14747543956903705
0.1556199259445029
0.06850466387693559
0.11781451446788802
0.2156286712517683
0.27622585073265793
0.01201343368400348
0.14718965671096235
0.14049862992466433
0.09108936575047272
0.1723667016181177
0.04660939737830543
0.1745753907843426
0.24749955039557237
0.2462422447499252
0.18014659150803286
0.08288117709984547
0.19332866431556192
0.359835768607953
0.12110263247841482
0.16430988255854967
0.11300522449667345
0.09506568253970626
0.09541689865058564
0.08135210985940257
0.11313414677157518
0.07279874079478937
0.06277119345840791
0.12132853455782805
0.029978720968325392
0.0329770638550429
0.04184816737158329
0.042440143884116384
0.05357127229380248
0.03370668176125887
0.035842070511730044
0.05816393785471957
0.030787245012078617
0.21326963936328905
0.034973764344768114
0.152863285340154
0.09267278692573436
0.30668776629651173
0.25569135310155033
0.2054128341179762
0.26887086807612265
0.11784047354223817
0.3446724568471551
0.14094661794448293
0.04383147731796897
0.25499115169763686
0.0877692003378288
0.1632190711396549
0.2512661190712943
0.2855027643593162
0.1272269141492085
0.13973544959198814
0.09974506481346633
0.2590979023598213
0.25343103518230503
0.27095064567539023
0.2797398476371976
0.1959354717285918
0.13053139775152553
0.22551416387909154
0.09600205982559523
0.2881119020109325
0.1601792398720817
0.1567739924507027
0.20027166660555182
0.2136648037991284
0.16727730480734365
0.15154455699783273
0.25742352183139444
0.2775008179440235
0.2472710305076019
0.2365860020957262
0.4530857818962609
0.13331992007763524
0.11556754850977043
0.03406826062592483
0.42601358265370104
0.07263903574699987
0.23268710871248502
0.26618755645439657
0.3908429767482891
0.20923950250350246
0.07938416293982868
0.22781854408385355
0.4258542611310907
0.31939183509614577
0.023630862740366358
0.12362265593098182
0.15588821657363913
0.24770535807537747
0.13043707055440767
0.24665871192774766
0.0313226054322975
0.2250171694286315
0.11718369838291677
0.12409245070416827
0.12479430747828242
0.1591680508590967
0.22176092841812892
0.028699568299534954
0.19392613095334957
0.11110384990393612
0.1973154433744017
0.15239417267064484
0.18469176799946888
0.07196371318295774
0.1481497882402127
0.16433597723529553
0.10688691844237089
0.031306904992082954
0.21447183105835899
0.09753852611703155
0.2696515378428457
0.3093705676140571
0.2010156053512982
0.09203612541983869
0.24913567454986082
0.12612381495386776
0.061282107890108836
0.05466257992336015
0.046135085593766806
0.06515090886229455
0.16317410994458903
0.32214279133117046
0.20872686210432181
0.12581731221642864
0.10181118475906879
0.07309137445529877
0.020462474041063244
0.07876684485850798
0.04166966264280299
0.039069323000915764
0.14927979310469955
0.03725608760087118
0.24198829504080402
0.15243095703231238
0.25884833212608616
0.16824741857738934
0.09103478905432177
0.07586912414120452
0.22786320049772438
0.11061410951080901
0.024085429657549964
0.23643708692086715
0.0655026296179409
0.031118064618990818
0.13262831231327735
0.32629283788035984
0.07471462478501599
0.06739412100217515
0.11268619629660151
0.16928840804147965
0.10053315812118804
0.06499633427033377
0.09241501115606086
0.11853980847304359
0.09670612188020004
0.04174793558031279
0.0401775198015344
0.049930468198745595
0.13010959460465032
0.01977603011422764
0.04453196655270519
0.015347149119696285
0.03925554723562569
0.16359608754221197
0.07076749844255276
0.051782210354786924
0.0913702441476038
0.3126965845567034
0.09122157653852704
0.19823842011804396
0.0562417396372438
0.09972447934969138
0.18703139611171998
0.09163060038742203
0.09079090346365228
0.23387371447389693
0.2608289205843471
0.3494151523600076
0.2196649291324568
0.15296536161413996
0.109736982965432
0.12437120039652523
0.39599337245988475
0.3006557250040826
0.29917811342973816
0.2204151218675868
0.15002771109684213
0.20680223973462167
0.09575536228586257
0.27654669153129263
0.33144727236046695
0.08556734036886228
0.18058415856744642
0.23271562533751763
0.2102538519118475
0.24302805140869618
0.25472032050026217
0.06285050558165227
0.21166023200034723
0.14320990276641354
0.2280058084744049
0.13580908826713187
0.2878115296070458
0.1644359909207743
0.07526588885050568
0.15320621824153235
0.08052023317764033
0.12123263688451151
0.11390951599522667
0.12852926353813124
0.01653648744258299
0.109605185991846
0.0988730306420599
0.11738588140551665
0.03963371083074612
0.11623280864931428
0.11615060654259621
0.2326387831815947
0.04043543184489916
0.10832748257587715
0.26290087203154067
0.056054444922858986
0.11244301136741174
0.2742161429181912
0.08080618401113109
0.11755008961495199
0.04024155364046132
0.20261383123059315
0.3924360729230691
0.036081149040508124
0.026436417241039314
0.2233378717172061
0.15728360968079017
0.0925465823688923
0.3551508269794096
0.18089619676633928
0.03752034174154648
0.11024754901481698
0.16933341849992276
0.04699243002981211
0.10499887926813094
0.045675825849434644
0.175624998595834
0.03930866463051555
0.11942641720961575
0.10234250484948976
0.05651100053728938
0.13430448806012352
0.1584464175753438
0.03010202497527181
0.10665626037297762
0.11737469310963755
0.10562180314668479
0.07544058755431807
0.13018391607016083
0.12603888322369194
0.035989082437163124
0.08724458680277782
0.10040351382869295
0.25608357791882697
0.1483312870329041
0.104783342752244
0.2600172556729067
0.21923367291854523
0.12597548494649888
0.239220140090221
0.17393929904324587
0.13768661389156364
0.14456392482557637
0.04812379248130741
0.24866326494941765
0.37181737248990604
0.26839301726920883
0.20053488635023156
0.1982809426919313
0.2738866558701495
0.14427232232211903
0.3381967174997688
0.3069344687521373
0.26040742272532236
0.2200557991383154
0.06754724986817716
0.33887856334549804
0.3914866485278528
0.24221779040148103
0.3590986147241676
0.1889494382622484
0.2319254178772818
0.37604486469239007
0.2681224039828231
0.13812791271193053
0.1755147738943653
0.13761939520697603
0.27496905301678887
0.1062153138250324
0.1872724456285767
0.14118503092753573
0.09300181556436225
0.20265251129575737
0.21946864684865028
0.349143452356761
0.3504169691110522
0.18177034866802902
0.1474796461574905
0.39188514218487086
0.31857222250066386
0.2238822775315822
0.21579729897614466
0.1264876557387204
0.23751264240400594
0.2729650674627597
0.2614622841012672
0.4277966445527822
0.2087972602266335
0.2664452258084946
0.11902443853018299
0.06910820652796468
0.41417065517606433
0.3255361942045216
0.07307442639246783
0.11277555684869776
0.10623194156234714
0.18101224299080207
0.23591673963474333
0.27983492601521937
0.241908556039717
0.06399267699235028
0.16912397897243084
0.5142929115338624
0.17190507341059838
0.3328634053128345
0.21478922269771858
0.21010626635914212
0.20376485469190825
0.21778413646906708
0.37350570535159455
0.2897469134849204
0.3455571302982329
0.21761885967019143
0.24037433349001897
0.09786809903849078
0.253876589937505
0.07039003691182001
0.2940890570343539
0.29189458034730525
0.313692641275966
0.013698198268029326
0.017703628744537334
0.02039279195882276
0.047554943118617014
0.019590414960853935
0.017909787738800555
0.1934586351545621
0.19775673216111853
0.09297817972035582
0.002751148676696699
0.1825392622951758
0.132437905139036
0.06687556132189293
0.1384551362524713
0.07401982712330703
0.016704471583710176
0.08866920289140709
0.08614321415230643
0.06642875592844763
0.0038239740723327756
0.08790085935332793
0.14468499344219474
0.07582419429898396
0.16835522299893063
0.14655923096258167
0.161234262331113
0.15624676370806015
0.0991821298214424
0.04637477296386832
0.226682572518185
0.21489884660779968
0.11565862773474785
0.20053351637288178
0.3137699827013841
0.10062919022121
0.16915791890613494
0.05234170408584119
0.1735566730374348
0.03954231877773457
0.05242880670940364
0.21009891159242824
0.04691355781503494
0.1600631511578484
0.28296006507426347
0.03468701194492274
0.04668972802422784
0.1092558770306626
0.11096494876924846
0.0936120646494346
0.029242157474946646
0.23343435314467517
0.06936451669635905
0.2778684073226659
0.07820098951444629
0.0828010843270147
0.08292171665088567
0.26124392528542023
0.03854171550957769
0.07058076691087686
0.08932481185485938
0.09792855165018087
0.08988182321842537
0.17207948641530774
0.006994779186154474
0.1933160178661487
0.25970404172021017
0.13245101859036762
0.14733445397650588
0.22527389233300785
0.2505519584946899
0.1927877923495293
0.05183627271020259
0.04358152056805958
0.09978650228499629
0.16754451315653893
0.2882566247519109
0.048174520055721586
0.06595185147488365
0.05093115154676671
0.0861066382138732
0.12854394356126536
0.13322354459929703
0.11195187643661485
0.26797362664805274
0.12521708602075407
0.14135362895544493
0.046545143399227544
0.08983662505992496
0.22804734399119722
0.21347855792158305
0.17639023382720617
0.15114994128488107
0.06028095707961548
0.18641967860164582
0.05721175719074983
0.28711398889736073
0.11257415930591648
0.23301188937716533
0.17639958486274537
0.07131976376947209
0.2123705247807281
0.04264760342033325
0.027538520312367157
0.27120417271457387
0.2018381613959136
0.1370405625765706
0.2423789100712976
0.06965457634432094
0.2480839210551792
0.12159406114661171
0.1326236679626448
0.06857100204611614
0.2094959714650068
0.26612927874510955
0.14907155191670068
0.132177194960888
0.13724528837431813
0.026349878814255906
0.14330431256767714
0.1509011209960719
0.14607424026547966
0.2971490271231818
0.2653781069099435
0.004074529039372726
0.15746470022835624
0.1803186985343986
0.07247753000808885
0.04191882760140977
0.09494484163206124
0.058014357338815006
0.10718338993855721
0.008016081702783721
0.18718700163849117
0.1056310411996469
0.04319570788717349
0.09887097516733805
0.21171610644264055
0.08188592953944476
0.027498483118031193
0.059994751722160865
0.2103755276331384
0.12309205120840758
0.18775511356488245
0.053174281850586314
0.03294991135572942
0.27993027459295866
0.06955021557966935
0.18054221492335382
0.2767911792392528
0.03241689356980243
0.023400144536813994
0.04308744778866395
0.06491915988924257
0.24944818913699912
0.015598447200846851
0.13238168266411005
0.02702598769294036
0.13380854981072593
0.038789361383209396
0.039027442675310775
0.2358458720871604
0.2496228278537066
0.15354131355011286
0.23195759191216317
0.10859901822481491
0.0632119417051572
0.07749760684193333
0.2089297624237444
0.29562649889151665
0.25089106637529535
0.22435421290396315
0.21391481481360253
0.1366821189819955
0.30521495881375516
0.12831040609381061
0.28650871651705845
0.301009300611975
0.10803825688150084
0.20799732758684036
0.18521269472596158
0.09431134400250493
0.1642128619344443
0.05485941426273688
0.20033841204080843
0.2620862177587065
0.15688931134865428
0.06623588691360362
0.008322537739050982
0.1420833868184597
0.14308652203575295
0.15149132875029758
0.15229976788811994
0.1610470676327595
0.15774128582950814
0.1923222877346802
0.3014573805161922
0.3162530333462713
0.21193249573260647
0.05649535544937778
0.10088127865669465
0.0738514575216145
0.2770711745609858
0.20680784118237316
0.23724807672815823
0.07637154337695494
0.2165977796707878
0.1563845953055093
0.0596113578057709
0.25849105475101053
0.229592267388279
0.24492943279175308
0.342344446358268
0.12945613089939895
0.4504182090390381
0.09696005062620391
0.4906616121272432
0.20621467046032746
0.3172188250839776
0.06393260099363895
0.046932633277179905
0.04849453282056656
0.138357418110813
0.19772582387751905
0.08875279509160616
0.07540690660780679
0.4917142323017402
0.11622008900758038
0.029237356889168554
0.09484611769426642
0.0899217364585217
0.026664785039545582
0.13282441036753714
0.1607808099854465
0.07935657213875154
0.20770470734878071
0.04553371127321905
0.034340567556307613
0.07430251977139762
0.05466622339239249
0.16498991046723227
0.041367144393733644
0.12572739378628894
0.08595663214140765
0.07640250626543386
0.07923384229574734
0.10401310508556526
0.16779236401567516
0.0703144579009525
0.06056004693204142
0.06258914214932722
0.28761346926354064
0.08650683956852949
0.03262530856503219
0.1090187049374891
0.25397339278396985
0.09787001679049044
0.2551971373334958
0.03552441105517227
0.22171839394811912
0.13069313167002153
0.07201585187058451
0.19572655734727062
0.03141149804564673
0.18455583869799
0.22237593965673388
0.09185168177959586
0.2553655888367837
0.19401865667520596
0.20443185650961734
0.24352400294181759
0.19924169837803937
0.12419004995445379
0.08819922607082264
0.055229327618146556
0.12100411565632303
0.2428606129932251
0.1320552897993244
0.14190620468674844
0.17387794033550297
0.09000573656461942
0.10692610991963584
0.16720909665815134
0.028041071087917813
0.015813294278626086
0.16289112368108905
0.11938839598980988
0.06455886640011341
0.07330103021667583
0.24894392453574582
0.046294867835839235
0.06898786314805778
0.21980885094544986
0.0910715761065925
0.07001994555604976
0.10305515473582592
0.08771660608101836
0.10103406245702636
0.07307717151270934
0.14602595268537413
0.05687610875472429
0.1369937816621589
0.3281863250133821
0.13147172092748205
0.02894093852219165
0.07886291750729066
0.12192467254504302
0.0908079046815494
0.060570017254647265
0.1343518879981057
0.1347888251934083
0.09851980059236926
0.014128837702609684
0.026251745041346624
0.03380873849708835
0.04399597290683759
0.04634954572832631
0.29367353815544517
0.07108900504268965
0.1356367160327729
0.04206816071058537
0.25090911186317066
0.06308485599830056
0.1056671092513316
0.05322109379390315
0.11656535491452476
0.04749338470460608
0.04836776252203176
0.1913507989292675
0.24962233933222944
0.03435035342714686
0.185221497046122
0.0975139696493272
0.07850380746184069
0.06601582134480173
0.13688286258871024
0.013112675128057402
0.1582072642643183
0.05395510463327998
0.061148554570196446
0.22214584432907888
0.06292215398847917
0.1081395581197573
0.1529583530381453
0.08811837409606077
0.06574406871119882
0.10798220080668453
0.07536453872079592
0.050656001940636665
0.07415756524463873
0.042654935569010656
0.09986442286424062
0.05720268058878651
0.06753854030347664
0.05789788594577184
0.03302582265889662
0.043575166664960314
0.026433450651232926
0.029289198203870544
0.051464953729695694
0.0565600662192568
0.11872427053406678
0.1722791388548103
0.014356212181307212
0.07761192106484131
0.24134038384806283
0.0765071993396884
0.07985604239627177
0.1437562391066808
0.023276658929578704
0.08400495308077972
0.019324004472415442
0.00933118792733973
0.18450467263584214
0.304839447098405
0.09595395866604885
0.25446935762794315
0.056417954818350324
0.10702336509845678
0.02536158949556158
0.0654418936679888
0.03894018739200591
0.1289200137624185
0.03715730023103465
0.03877688509893732
0.013795946325543814
0.012060096324422571
0.11614184819242063
0.034403008361512694
0.21856418736567734
0.10551000660715505
0.035262589042851775
0.0712865251163774
0.10850886930774818
0.19364920958919096
0.01955201368109391
0.13074443758330406
0.042723979215599076
0.06120442561999283
0.047962233105073866
0.0441238009218489
0.04310469662490369
0.1209895429074979
0.0397878550986694
0.15098881118769866
0.011872787210710105
0.016472024491721086
0.014979760937921794
0.05409702785402213
0.012807382943799774
0.056729888937374406
0.013269092517797901
0.01754023865931034
0.012228513147599932
0.14723453353336086
0.02032205172724797
0.04781468333938545
0.1605881965521362
0.04891209212940215
0.06501895211892408
0.06697918353284175
0.027468654524682296
0.03870844892723205
0.19922882023150573
0.03729595214180631
0.1448088843619229
0.11151764285816834
0.2865428885115733
0.24473401625394467
0.2453847569551625
0.16660351590737185
0.1338028689187354
0.1781278177288958
0.1976413610245751
0.1890377978104916
0.1323305340437076
0.08341610567733711
0.19420839868929263
0.06395563103625712
0.06999806184128908
0.15689991533989134
0.14709197195415424
0.16556629644115473
0.06268856898036089
0.1400744022038538
0.16469595412449656
0.17227004740341878
0.17724542090815493
0.18571642963883628
0.20670085651502693
0.33236347323507254
0.10095115525990711
0.0491601648196862
0.27490684580757885
0.047253576193364386
0.034911638528695416
0.20784451332152382
0.09917904236015718
0.34163247013082
0.13599055818395964
0.10931089861149296
0.1801203704592218
0.10977389625866259
0.14001076242940588
0.08083113099442152
0.39765413411945477
0.047060995868186385
0.2684501781611197
0.05390157026053373
0.15096234624208055
0.22383911488303773
0.2954307776504006
0.0947125075444003
0.0688998234390399
0.2405948268467726
0.17582513647294504
0.14091639537820752
0.41559445817198853
0.5203084217319248
0.5262681700927859
0.4280217489277601
0.29742993536322326
0.03384669376989981
0.03741951570469007
0.497523011984831
0.18818047392076714
0.37175130358007186
0.12209049070636566
0.04315513638264391
0.0227333330500696
0.0998811548497367
0.2894873867829803
0.2974147621570407
0.10656813364472101
0.04345536536910254
0.02921609941370889
0.08647135813765101
0.3016394086362454
0.07505318735698749
0.1094408836625848
0.10479369237884124
0.12427222748988964
0.10081063358233776
0.1027510954176624
0.15227783277151283
0.0350366319568418
0.1639333453714196
0.07322537473474963
0.06506443947285522
0.3241554564197283
0.1354698237011018
0.10344952474219272
0.05907431551043016
0.05567736268711477
0.3328636988205271
0.2509059404844935
0.30434152442175816
0.12836638929937352
0.32179359604493996
0.3422973318729507
0.06320067899186031
0.13324207384428086
0.051523651296255364
0.059197592251712276
0.15369129245138902
0.1403413436811819
0.1307858784537029
0.1628591033751285
0.03230199908224751
0.05096130211522298
0.14559970140239248
0.09629638177547244
0.16186832423899314
0.12088540922664134
0.02938109537429493
0.35543160895710335
0.34001840324043825
0.12669590942998057
0.11345317029556173
0.16162353303430865
0.20943520648831931
0.18501290971335968
0.023262648232836452
0.14265529376391411
0.08458650788198135
0.20740105949108115
0.1360725655954246
0.07145597442149224
0.0351154677192631
0.027617080069945472
0.013587943033468053
0.03101582164596676
0.0822379043393126
0.1537081498679262
0.03123601628159165
0.08971118527726711
0.07062099375644448
0.17979170674572278
0.09822300052466831
0.030844523397170084
0.16699313890234646
0.05640793134459601
0.2907008456936932
0.18899491688296605
0.031014711682667367
0.20827006543445456
0.16205944689800006
0.09987955592623349
0.1296036403340137
0.22500475665732103
0.35869772727837307
0.2365009430521788
0.034096241210542125
0.13919302197883673
0.15411091312205333
0.26584079986311937
0.10071479459016007
0.20579439520743512
0.11997376674757111
0.14141103176294176
0.06174595467979661
0.11135308643128569
0.13271576045073633
0.017159052122647612
0.03478879518912045
0.14798312526596563
0.17618514643009217
0.13897840130534556
0.15355986745195288
0.14517186888667616
0.0828866936909133
0.20259272474115417
0.17539077891876045
0.18135405303080782
0.21160872602898248
0.08270333730571897
0.2212619868302294
0.29504901076925627
0.2639893646501424
0.26580632951944705
0.1102694516522467
0.11287144847004757
0.10523533108068904
0.13020109276398567
0.13436049291987787
0.10512096575118009
0.20321495154859792
0.28560722942888844
0.1862725478363276
0.05613874033543341
0.09559135388159713
0.06747421067176589
0.23162782144188301
0.30354334613702144
0.3207271264168188
0.19186121841876852
0.2639157910704087
0.12828163335720488
0.34933521729523614
0.251344781482735
0.20127800597189754
0.05731093017337833
0.18221548388110784
0.1922939954393707
0.29155223271929726
0.28290242133131366
0.1858504087049463
0.128462481667216
0.10057892405350081
0.060581390617152495
0.23894174637491292
0.23018322241270855
0.06882250471892873
0.1327243175459908
0.19685379823890256
0.02743702539328041
0.1594419086527384
0.21444582920773653
0.32934147096633826
0.26809760450512404
0.21389719115043784
0.2346858853735981
0.19471524981867638
0.2879990326174154
0.3210348652077611
0.12822858226659567
0.09514634213099131
0.21651648179669308
0.1994920202726462
0.24355171898300387
0.24001586481574028
0.0663686310488611
0.09275321110061724
0.06308872393058555
0.2752009039214924
0.0822621892793857
0.3192373952457985
0.2961546543451902
0.25999519196664095
0.18438589617445308
0.08392206326952519
0.19382042952257975
0.09922472770002802
0.10971597392846076
0.12575780460049987
0.08902612730067101
0.12439353070568342
0.15275064133899272
0.05664064542199342
0.13476237211703115
0.11921431908758665
0.08781474996099768
0.1560093400693618
0.16270086117015883
0.04395748447106646
0.2515212618517922
0.27194786566106943
0.2271116160252601
0.29944866772732015
0.228229408145686
0.2368385152771014
0.21262533008279091
0.13417429471347525
0.1420479647539292
0.17344763880982259
0.08094875566548308
0.1769458059164466
0.1889579766893677
0.06598679125071413
0.27670192946948063
0.03999123411693575
0.12093063688372968
0.2986328570170589
0.08180551506383979
0.09761480599308411
0.2601058572041416
0.23665492476355193
0.09265026628771121
0.09697627345642044
0.11779372393997957
0.08240491184802719
0.16926959610255127
0.17916218133160883
0.0057395455551773195
0.18091952591112295
0.17206623973417107
0.011827124907996964
0.11635137433683891
0.2724666522740586
0.022563711507130033
0.36156635858401287
0.15196150993421137
0.27464081100124865
0.26082824559502604
0.2845115395747876
0.19229925585602364
0.24523480208173176
0.34848158312598276
0.06880306633518914
0.09348460908403268
0.25062094829002385
0.07628140774696894
0.14943390065923703
0.3739040042384754
0.2138959409028473
0.29401513631420956
0.1457875869781747
0.07492835026918192
0.09805082226630311
0.17482977388253598
0.11555807418016893
0.08139873024393963
0.11654573382734125
0.20148360150756126
0.10433153478169092
0.12272502757227652
0.130536107767166
0.07728230405263553
0.06520446757986985
0.20989669581143688
0.08167571967960065
0.16577045693535997
0.12465485591467268
0.14727188741263675
0.06363999926021859
0.15687771034180237
0.13087111363376133
0.16102546035084858
0.25413978985184427
0.3192254619135265
0.10904594472193176
0.06181753698473338
0.1883255450800976
0.18787975860657627
0.31095521783368835
0.08021203764933214
0.24159787864766447
0.30335057990944414
0.1829631520887832
0.14583848721993192
0.013609430356981651
0.3932782481936548
0.06590535533978878
0.03168980992729802
0.31265977961167446
0.39124892096608593
0.17514461350510463
0.35672660338804557
0.3013852254348489
0.18238358110396646
0.4435893239026613
0.09507349503968997
0.23690084578373172
0.10867982325409141
0.010123324468463476
0.1019374432325299
0.09242691830471231
0.08646844055335728
0.07795479667939798
0.08231258623747752
0.07628124775897376
0.15322663701549705
0.23069151822932285
0.20644144450437105
0.09019594462341449
0.23702269788889618
0.07194186179685186
0.1190940292655417
0.037434241164593186
0.10320394670774363
0.11845744645586863
0.2318233030092963
0.099035674025402
0.2544235723450672
0.0332958094586419
0.07237689295292496
0.07299037898597795
0.07626997371541018
0.10477767682017025
0.15086064305593969
0.038975548530991125
0.0925975756401895
0.04108251993060611
0.09218198270746664
0.09537379639816675
0.11852973143336136
0.08214193591469496
0.25602755514430475
0.1044163571922372
0.046184577904387396
0.022739177746381057
0.07725433745093402
0.03567030274987409
0.09206930344979615
0.24330344152663433
0.04449862275959707
0.11913132190269816
0.09388784355547572
0.03165844702855635
0.1614437404386085
0.17100437729004211
0.1306351672137532
0.15310058695888992
0.2508362516849889
0.2127265766268356
0.3123522542093801
0.20392577866958686
0.10568568896714754
0.23792283453621338
0.17772047899839538
0.24218478593317497
0.13636495937727275
0.16344105791004246
0.191737072342498
0.08028593143911188
0.05701828458810148
0.21184899697556087
0.12073675608046142
0.10225322805250785
0.11590550506304537
0.3560669477371001
0.016564452547496552
0.3029164436259185
0.11340237619077997
0.09358467916572259
0.15142580372601788
0.09224348777767555
0.18477224816740168
0.08078115613559005
0.1390836039232259
0.17699656726644267
0.140190960526674
0.3175655931523893
0.1820568237186784
0.22436548027577996
0.09835530502446707
0.26351360931089507
0.17361267138398306
0.23361723479583138
0.24259905166741194
0.21950206370820036
0.11220397126788313
0.2606404716494724
0.1880522651332822
0.26236078124925155
0.28785018419365105
0.1157257847240402
0.2590956910361355
0.34804932086250046
0.35473334423095
0.3170399454911149
0.19827898626159074
0.2237652325462303
0.19491446839638027
0.4241100409535673
0.14186927822371953
0.19103160175499648
0.10404046321917321
0.22085020027621957
0.17789541366075046
0.16190038562753206
0.2012196370021487
0.202144535078358
0.20590410921940952
0.2040657528185432
0.12736666580721534
0.078205972655961
0.09663016517061031
0.11640296029490037
0.05548706559909814
0.06870178837357273
0.14844301357460202
0.19011474446003668
0.15412600836211818
0.06114157935123461
0.06060404101618055
0.06312609842632638
0.04326579318929563
0.028564697770970444
0.11822719919092134
0.02935089574764552
0.030701359120160008
0.039095281009230404
0.023358425433740518
0.0851700880317594
0.18747331518175697
0.17514248505074345
0.09324958131707237
0.160442336990945
0.09507362714229835
0.148943257124821
0.25109825337169134
0.038509632397947184
0.0686863234132281
0.16861171256690138
0.18885073750079995
0.08283701823134948
0.21573623886725893
0.05792469687844735
0.14567170139966953
0.1379257861844185
0.1884207385683999
0.14011892214747665
0.1613160659780312
0.2244575147090213
0.34851365401819384
0.22617741401591696
0.13179968472016665
0.4268661242013814
0.11154452378790931
0.12869856863394596
0.15105208360774738
0.1554166462046211
0.15239851295553927
0.07780524563423792
0.1285994553976813
0.16697413738949637
0.10590036588440493
0.3749018237971671
0.13222337025099246
0.1853875161345846
0.07154232293164725
0.10517657247910957
0.05284344016214406
0.1515032281627729
0.02955499269312656
0.08993820576818636
0.0906758931578751
0.09108729989571125
0.12767724001198802
0.10320263096304429
0.05652937115430241
0.0665453839540815
0.04130186558896472
0.08723285510730558
0.15216488327754235
0.016230961334428275
0.07313438740596732
0.13386132224455774
0.07875861886876623
0.10408338992204715
0.2143435816627532
0.02112144161862686
0.19307122502936067
0.055861732539858135
0.01719993415323388
0.04410666094018756
0.08563432612970652
0.1067673283525931
0.04839679863669293
0.13473567526282149
0.04447577797950838
0.06265534658435906
0.08489314711865437
0.10878434669400361
0.14148014200154607
0.28632076543221674
0.08139834966981045
0.17352746163595043
0.08547460324541785
0.11669833450280552
0.12047362096230868
0.1723003280948107
0.17099409871909055
0.19413759796764327
0.3273445798731056
0.20331880350113007
0.08718455649762077
0.06374027086767758
0.196997099158472
0.25200075679731104
0.19729737193007016
0.054390588230255055
0.04536470291067255
0.10695885038321455
0.17611605857399673
0.09514217280090209
0.08536272616903978
0.16118496999468132
0.14069521972293456
0.06892106434935852
0.11507489715071346
0.1820759041837934
0.11033471250435521
0.15368859508528657
0.1881587746889255
0.12747965502058106
0.2939316012337278
0.04469622373380984
0.13651685599830565
0.10960674473807759
0.04085459486240525
0.026155463525017762
0.1284565454102777
0.13334941406963363
0.1765805187548872
0.12951443946669783
0.04098389531769066
0.07024903726936424
0.18789742981877303
0.27027550421084245
0.16866643285219882
0.005423640405798204
0.057072770735517205
0.08019262280519567
0.1749494785976833
0.1140259992828305
0.09847237166546875
0.22787001194285034
0.19417005612680246
0.3669682064983919
0.262363547652208
0.07379113441119416
0.060088148722908415
0.24677556296357897
0.08024570840403197
0.13560332479281792
0.1291399665840128
0.22675960817377697
0.2824304787222638
0.2277567046624494
0.2149499758574131
0.135915925405736
0.21552307012224764
0.22415526292722313
0.17856641583445093
0.07719377666521796
0.16222671278186995
0.1693097922680516
0.09948926332817627
0.0772640791512168
0.17080258266980228
0.4938876918619494
0.32299914936465934
0.35551859194012675
0.3727549274712943
0.18116388801094557
0.13851713702383878
0.30657770272132157
0.10420069437490044
0.36443547452289576
0.2744524562314237
0.3830656362577699
0.1820144008715449
0.3283860882713415
0.15220765596127622
0.060833846988128146
0.007360640402673677
0.10085807457856415
0.45444222516085947
0.1520306438044568
0.41707582627651674
0.16388924282268624
0.06920675192592912
0.17300857450518206
0.06791988353039685
0.14997778862675895
0.20332536620399802
0.24547300244348816
0.11398492787275562
0.17273828563278384
0.09729223794117867
0.07392451771082388
0.0950102922457543
0.07636427330808256
0.07471659737133546
0.20946195545778792
0.0534780729100664
0.22707372547304558
0.2728601728319539
0.05031505193892325
0.050114438114320765
0.07391163241835078
0.21413148935778337
0.1315017962508893
0.09224100675613797
0.15952160166721585
0.05869336082481026
0.16433281776429579
0.0981218585436589
0.06786580016942952
0.2662931947069127
0.33839076161137566
0.00518097695838317
0.005674501526347179
0.2045246283536397
0.04563295266378402
0.0708683353844503
0.22653828513641602
0.1788598428530262
0.006784325902573448
0.23047313047211498
0.014617843434367204
0.25560690291522203
0.22991936524087164
0.15506666337860003
0.10517538429127067
0.3294270336084546
0.024026262488040392
0.31953918941469484
0.08659831087084668
0.2579270544668512
0.18157037933760087
0.22204926601998615
0.03520601659744922
0.1376140523380591
0.2532278945251312
0.18166154725405523
0.3037751176094408
0.09744003008385813
0.09451825778785922
0.27271739331827116
0.08920024725716022
0.21601668579260275
0.09212999420447023
0.11592229478552356
0.1540179849375131
0.15210263201781996
0.06165422281199262
0.029872666955002746
0.03780988024532106
0.1308009473757962
0.1022508390892171
0.04910880459624047
0.08832495810922547
0.1459744722413496
0.033234990408213656
0.21557694779565126
0.16156387375496883
0.24613834317514885
0.13968742850859384
0.17168982306338845
0.2762364321656771
0.16775909557203583
0.24623981173495257
0.12985556332503825
0.09860259378665275
0.10892368156526389
0.11129109598430899
0.1576890265382729
0.09145011132023159
0.07003691981275634
0.10821509367793504
0.1841377765397892
0.016650556008791763
0.10389988520462035
0.2815056106048303
0.3910881169395736
0.008010269973775248
0.12906059008059792
0.05829593259926899
0.02335436189742783
0.012367279011566347
0.5230298089332752
0.003815982727636202
0.1523541189617155
0.28549871704388907
0.1096954150582074
0.32589457329542354
0.15483280724132054
0.16190755057331446
0.17851510346491073
0.2617511275170041
0.12363956517570544
0.07035599279252884
0.21949277201983122
0.015525527628714057
0.13539213530034938
0.2495056977568606
0.03238568522316043
0.20739741114939825
0.181156923822015
0.2982156582331777
0.15044389515128584
0.0825176914858775
0.08636013004510366
0.06466385762854583
0.2795496731066757
0.007393458903108324
0.14348785481153323
0.012239744558882392
0.13864066293245914
0.04472519661817095
0.08224981436638282
0.10988467434816511
0.08102371516131267
0.15046701616597274
0.061721149830216634
0.1920874163716055
0.3486735927164679
0.24997422679021772
0.11346526312570257
0.06754097351043419
0.3176956529583416
0.11981938026927437
0.21537827569826246
0.027106147055837342
0.0737105328785393
0.025023701686955314
0.08654512361759152
0.049713122821811916
0.05211450042865208
0.20392829049344824
0.01838655386116492
0.11712438158558955
0.03471913261354259
0.0511713376132492
0.015011217688714194
0.04008079660369448
0.11708510173773481
0.11667339400743126
0.06211771312377115
0.11371204189921374
0.1668181719637331
0.12035954016358935
0.11644549238254616
0.4756805427654869
0.026797404920711223
0.1482239767037101
0.20878777411870214
0.22053297117099377
0.13587847591961946
0.15367341162777384
0.15331388355731887
0.06166685407827859
0.05335588672526313
0.13767746170702413
0.09131110209623615
0.10219365955359173
0.14204656786366066
0.25550560076121603
0.13402445895188742
0.2219503643144998
0.15191524687734678
0.17812647119694663
0.0070505959024555155
0.06621214783202019
0.02058825438097937
0.49004932816440033
0.10558873451730587
0.1556808510393429
0.10629505063900171
0.06397967795087875
0.12241060070873656
0.11292432811516505
0.0954613534939372
0.09746934773444656
0.1309083181087957
0.1528872510663502
0.31353335459858084
0.1651556099665377
0.3366910594226265
0.28965398854715463
0.10202263120279764
0.06316290102283982
0.04904415436693826
0.12386345985764946
0.024558781219935946
0.08566339013238031
0.07888399457962016
0.10902148792355247
0.11243986704442886
0.08544179342200078
0.216212809441334
0.24137373669605444
0.017477532398111333
0.11009931675159154
0.12006086252021894
0.038042875846159147
0.31742701782238153
0.23284644238481847
0.1503328775716063
0.5110734973721717
0.024809389796635464
0.12168580748947425
0.07865727802049795
0.4440601393940297
0.16915176532739865
0.08785888448787205
0.04577687844770354
0.11272323417962175
0.22352235218437327
0.3389569016458562
0.10288859213872747
0.05448046537892698
0.10426894436447075
0.14439654193108825
0.2898020336438373
0.112514821066902
0.07698049022271475
0.257968104044065
0.1234557266116319
0.09368091936873855
0.10208283710943822
0.2683798556680834
0.12784698122006793
0.16427875497096836
0.14553563874463613
0.10195339274851994
0.1508184742679709
0.17030307883573645
0.17522542622119835
0.17661937769099184
0.16550554528933717
0.20336891574214236
0.23201225157883457
0.1443632337798008
0.20713177676589647
0.24384302245275405
0.2768419105264303
0.27490931802198065
0.10097815519590504
0.09412626663687426
0.5111169508883247
0.0740373219026494
0.10449966851434478
0.2206380245595079
0.15757820578434165
0.17310884714258964
0.06217231112724894
0.14655955396656384
0.08922310600893257
0.4774088673417531
0.32419896040190777
0.167820049400223
0.05740629600144336
0.20270185257235726
0.04459726605104778
0.055519099333472675
0.07933585465430888
0.09407854735033043
0.1640235001982142
0.4260393985179587
0.29721169798788044
0.04548905119679101
0.06428118185655152
0.13172217449883547
0.31607985332481453
0.053521758830904174
0.008956241981108719
0.08477676419357782
0.028040102913733003
0.12751209992553583
0.12297102201322221
0.01403981323612006
0.22977575172471895
0.19293952691005536
0.12497696280085263
0.02424511249079798
0.1910242836617592
0.27806132044073795
0.2105979150045985
0.14102015620053102
0.1439753132815543
0.2750970659234906
0.1357906045756776
0.3066321914884023
0.2613446309623782
0.3089453460117936
0.29825610249660567
0.1657779974249627
0.07754909980318885
0.17139894312558104
0.45321147471959927
0.39751686383791973
0.04178456140737882
0.40426366378008854
0.35521492539641963
0.21229954892671515
0.011809286379940769
0.0571216564717514
0.05483897171458948
0.14492000511866518
0.13736731240449637
0.007944400887435369
0.4010631087629049
0.3656842440124941
0.10856398625082983
0.34520614792397314
0.22250897265350467
0.10364249736894054
0.21991301145235234
0.18510997836406515
0.06696852772205707
0.07158887429976354
0.07609636451851497
0.0809390400898283
0.09444184615954587
0.027162059392530285
0.09675888978011805
0.09512405481783072
0.08766673619975457
0.1532860522645972
0.07954382761521482
0.19711113315861437
0.26358116937331005
0.025215411637662385
0.06710099176221422
0.12065003438641043
0.10176287903313286
0.14040405422174482
0.07635860058635392
0.0577408018053485
0.12668320868606983
0.09255726695330917
0.1636356186061761
0.04619469851670233
0.15570755030291072
0.05428323754922614
0.041558279703335685
0.0889583294002695
0.08034606422047548
0.04940183277402655
0.12911541024305395
0.044137766071662275
0.28359109053690346
0.0795479697914946
0.03235564341041976
0.037864563757878854
0.10583331421276461
0.056028870041240394
0.09870364226232464
0.09766829320529483
0.16086979459667652
0.053530493394691396
0.0981785595364317
0.07855138155625979
0.1080453076922644
0.03633479835841221
0.06630583298949004
0.2040340460621863
0.019681722723580774
0.05826704455427027
0.06435272675885603
0.04968332875430012
0.03385496199018811
0.07526898451946522
0.11252772798700704
0.08619237418602027
0.045064882808883606
0.0631436842436032
0.13237857242896006
0.08085138041018927
0.04809086462953018
0.05955307922561578
0.029946468273112425
0.05825851328594845
0.022905469839670307
0.2815512180394123
0.014803818313664813
0.3229534489592811
0.14093780769342024
0.11634747650028125
0.40514478909525015
0.25508070781671466
0.1584453638030266
0.21157749727655703
0.19752107779057365
0.1365480936238303
0.19660657840404996
0.22245064642005805
0.05004839417924772
0.08146793118374789
0.04299997329560971
0.08981662240200132
0.1383972375493748
0.218253968066801
0.22133713846383954
0.06243363846712144
0.04883673354157891
0.04282990957165588
0.026514044353609545
0.1963708919037536
0.02787667524046121
0.1328643721775179
0.10955155378317781
0.07597113516417688
0.3079335734591623
0.033706694923941787
0.2778386474926218
0.028003699716837967
0.094587587348204
0.15524679478795214
0.12724310400231892
0.03086966358219905
0.20530976872644052
0.02218656513610278
0.18991507582790015
0.02542787027592192
0.015058782423957754
0.18855957134282159
0.20595968173954207
0.068166635468728
0.18732727087346404
0.15447466971294138
0.14899106032979434
0.11489556520482302
0.12911658428735512
0.09566675349874244
0.09955775483690597
0.1602952976350163
0.06264384750939979
0.13868922989018317
0.16885283883766514
0.10576545589310574
0.13568963885934948
0.16177160668165802
0.17312976342066935
0.1608844204636323
0.04645791680631344
0.12129434364865532
0.23695810666170766
0.291729021450564
0.1310452266872136
0.3911690792039557
0.08505551829820629
0.30567442863219285
0.2909021086715849
0.07838335287503412
0.3030210408312394
0.059242725874124526
0.11459128702764741
0.1255001588608856
0.030852420850018995
0.20336161595854776
0.19342338255037483
0.1026558630820109
0.2312604987110087
0.2055704847914939
0.3131520255561027
0.12378416074653045
0.138569248343661
0.2515521746951386
0.21889926553427208
0.011135948135243157
0.24501135820614106
0.10474695493725542
0.051355370299825606
0.5157258805579611
0.11663474571892528
0.065780618557277
0.2409007423593235
0.029237047648953823
0.2939440792195245
0.2845309312630649
0.34237786339301596
0.11922290546117596
0.04547908828433243
0.039130437629178096
0.1143835259609818
0.1178626432013336
0.21192733400956085
0.2239808268868551
0.17173066847940965
0.16095993955018642
0.1794070839448189
0.18878609094414528
0.2148905210593227
0.06977220817442238
0.13081644317417676
0.1884571812539472
0.11701296969663985
0.28547710228084705
0.17246991200834313
0.12073024011865008
0.07757994364460964
0.07402400377815377
0.08178881808536317
0.07788739681840975
0.2663907222062342
0.11046459654891638
0.16187128954895913
0.08960660550693177
0.30155023279509985
0.02686536945803662
0.3455658537014249
0.3261631523067658
0.07415631406704874
0.16978832827068702
0.025560375178795447
0.04081056698213541
0.06707873741844665
0.32296098167875337
0.1719452882854792
0.2794219278284856
0.31467721703522517
0.22042741904589716
0.17061810804178823
0.1997140516949703
0.247825001243752
0.061825504475908157
0.1777469928125645
0.05866924615149241
0.058107298491256676
0.297426795451638
0.09529959736150097
0.13242840773118061
0.1347852173362185
0.14554898561182436
0.44943428204466906
0.2297376381896731
0.09569777910837542
0.027814077124861083
0.10544733209425405
0.18254872861906124
0.14298647393945402
0.1150126105003543
0.08597786701037409
0.0689083474232807
0.08040830181003515
0.4641656101395066
0.15581724165637628
0.05399125992343485
0.5170270366433504
0.39474879886506314
0.311140736163238
0.34341717067648075
0.2393744553827356
0.08708893091760037
0.13280559739186848
0.11159013908100684
0.23292407677193355
0.13993762938255308
0.16043593048309196
0.16825106753718735
0.1685342793580182
0.04268842171363389
0.2289859284151641
0.10405435369059753
0.08212790646426332
0.3246810062844149
0.2710725799325255
0.08669317615173609
0.04457434329976845
0.1583518284422265
0.018581129828306092
0.030685945401617835
0.3937246403372756
0.11840343094489827
0.06241749187299174
0.21726568822583378
0.1413355762194315
0.44215717736279625
0.19608618224554092
0.11295324768050798
0.16328014918429914
0.2579307405971607
0.15037162258019646
0.47577563258294525
0.13483192342813155
0.16193433276800695
0.10784679787487547
0.2846230834960628
0.12928710806021143
0.12894740613353117
0.07832310172664678
0.0784769394324702
0.07191385442849556
0.0721827104033765
0.1274728735567528
0.11448593217708491
0.42026532647407266
0.13546856660624337
0.39534880052446975
0.15772666465935783
0.04528144492058261
0.0229085675069757
0.035426334085541425
0.018482431188229245
0.053707460562357166
0.08532822324244266
0.03720963416641161
0.3264458096963653
0.13058298167732352
0.03066882451264683
0.09220446908593502
0.11878808837422142
0.1501680300838029
0.23044507139441908
0.09174566302853769
0.09995205585468113
0.10864103623559612
0.10203498649538528
0.04258660535910567
0.2641984748569285
0.06371358072906157
0.07748227711062422
0.0813349878287701
0.06678379583017965
0.11583504833901226
0.12301457814477369
0.07088751071864582
0.10506998694565332
0.37700950832018315
0.0833184825514711
0.12300678197846064
0.28244721994087235
0.10829498162457163
0.3757524602067676
0.06431275991669046
0.12903350568195399
0.23544003089085053
0.11943287580622881
0.0739700299578534
0.17884187306857488
0.35397933041782037
0.24231581256205098
0.14797712746282501
0.10049417556404715
0.3146571318481683
0.07413804432590697
0.10969097466360765
0.25410744033460114
0.11702285682920914
0.12415367844093791
0.0599084858290438
0.054733370304957896
0.2217385956069951
0.026411352934591376
0.08936012429388548
0.34803524681884573
0.1954422442109348
0.19835755948762018
0.05709541382361688
0.20386821040030145
0.2924260363987597
0.1754483237319879
0.18843350787348728
0.07431715671210248
0.22197660670771147
0.08333890265677416
0.20408652647855288
0.07013952150268807
0.04942004236467485
0.07146206174328125
0.3700347841347886
0.08935847868908584
0.11014098400564301
0.08851145959370771
0.15097688615854532
0.13219749425002275
0.13994461217230436
0.12633294847603385
0.09049900622123123
0.43833378830192304
0.1555756516055619
0.07384287326474333
0.4069964305957568
0.16999226883133595
0.05706432063617636
0.4682774908541258
0.2348393644373944
0.2869580699803868
0.34475888825779455
0.023326174757297178
0.020262148220426355
0.1271425650411405
0.09236065175484254
0.11151563362462295
0.1154844369204472
0.1183096997010342
0.18798908363850494
0.1030241572552153
0.11248180054742644
0.21286802073188846
0.07733516922444003
0.05710528758985495
0.10049892120943242
0.05316821958595828
0.06947060380725098
0.0700492485094728
0.04279686566108666
0.044697992541948194
0.12148758117864202
0.032430344903918995
0.040198516563734174
0.06534539542013834
0.07167927825231757
0.10053963396879352
0.35232521322738924
0.26352679709493854
0.026831449047270296
0.08664991213870919
0.0464656089352213
0.28626537123538975
0.15442501816347914
0.21676414648573047
0.18412922886557173
0.07351988423119943
0.22413654594003093
0.10668917022591595
0.1734780579463093
0.09913818980065875
0.10867662021024745
0.17483619440807424
0.08737633071321141
0.25067471665856944
0.30370362329389206
0.21806716259935274
0.273231206416563
0.3550355665510942
0.2866208735007585
0.4606926453194055
0.0316818366823268
0.41909546904621237
0.23897966612595067
0.2002033707231115
0.3923189392812915
0.2412610663167586
0.12663223408888047
0.10893971659541521
0.5061650873313523
0.3125259996503315
0.0679330256853415
0.08783263150049737
0.13432526134093997
0.33193054354619006
0.13518207472530197
0.132331960074344
0.14105926510907738
0.11953871334903556
0.14126274485975052
0.08505444119206863
0.12292464908580555
0.047188347676078976
0.15447022491060997
0.21609479328032855
0.08901741998128873
0.03694843945970831
0.17269607827342423
0.1858784024185083
0.08280859312310812
0.25577883409341734
0.33361717095253024
0.05029124629744049
0.08905335165370624
0.17718166113935696
0.47163491552453074
0.37434930220636226
0.05343729344379351
0.1027111627074993
0.12590896897171214
0.0804829643277205
0.07165590612719897
0.3327897247840423
0.10547650597110056
0.3375742656801012
0.0591715769633595
0.3127831823646344
0.19494247797565978
0.3590281128921587
0.14862357573828336
0.3062744077851603
0.07839233384950696
0.3526033143032595
0.08270069584109695
0.06353120924053346
0.39196871595581834
0.39101315275813076
0.08737285815779783
0.2262024625979137
0.1261958902262998
0.06709690567374457
0.15366225511448087
0.16187678961126334
0.29259194367457575
0.08242976572160227
0.0745854267238321
0.29307826539007553
0.16896279704959452
0.3398311301728481
0.23551873147139374
0.048562154699319404
0.01950388250312951
0.15780707739422856
0.14840253815938545
0.1552014974308189
0.11241966874159837
0.2344100404419572
0.2619072453023637
0.05097218835501023
0.1192367141843811
0.12938671226755125
0.11766545605980544
0.1044112164137105
0.10103169315197463
0.2279051335931348
0.1855456517229234
0.03742924773120275
0.15741473883822518
0.10092918705296211
0.1822941962949026
0.0921595682197329
0.19609467667019526
0.13033367544148278
0.0832460475560424
0.07015866773491097
0.07700554837388998
0.08022135479347187
0.18645326208521454
0.22015595605562585
0.1906716828156723
0.041497121890333014
0.1118756204998916
0.2787199867512995
0.2769313124495698
0.11539389391637499
0.0864409635315125
0.2155884642969735
0.08007152528241375
0.09218352524518476
0.054929604357423334
0.3754975815167982
0.0869630580465606
0.08310133772974897
0.09986453153447196
0.11082649027394635
0.15400665917365458
0.1647719353225769
0.07683688313555288
0.13466557221248832
0.1565492078748877
0.08400744108169088
0.09079785172679328
0.06523371008038448
0.12872320177389207
0.13902992118498678
0.17475224167226586
0.06588030380501182
0.1900980254574713
0.23851209901349385
0.10021024618310415
0.2274348050057038
0.1236803093235256
0.0877997980760616
0.08919800900389681
0.07149431635831635
0.2284127657233626
0.0684596522526863
0.05105398695960484
0.10611258733714284
0.07011593457886432
0.07785643725099202
0.1528198723432446
0.22133320377980817
0.06807498156949071
0.22547379763802414
0.13337097859634148
0.10635824816922408
0.08547194992610707
0.1946547055818964
0.06708454873671488
0.13156955107855864
0.0677533854366628
0.06396169341531367
0.06162777786109761
0.14980708316183022
0.12434552412409339
0.050980744848069234
0.05393209387768181
0.04339839053756072
0.14483333534049983
0.07455661115334206
0.12179412262778826
0.18087379420422875
0.09105979848693328
0.11419641628163386
0.19410732336866898
0.034161646266920996
0.05593329447220731
0.0982427721877988
0.13166125784960192
0.08341702320060139
0.14424611808070983
0.03951727653519386
0.1619494992331692
0.2169211673452031
0.25463109282555696
0.12482370025375973
0.1126513778553196
0.346039798311839
0.3732963074291828
0.22096081224221198
0.10306029111133198
0.32052247161827463
0.26583113650878565
0.44699952536678705
0.06221701279896548
0.39940632999399156
0.08433678838296424
0.05166373235110499
0.052983095853226886
0.06328315945666112
0.1904997071422422
0.07105498113391925
0.1686976148124835
0.19211655848627113
0.048316523854648165
0.10063604310213516
0.2133288635875747
0.02946040949683406
0.03803732400437392
0.2271617671716181
0.13385522888637855
0.09581371717702228
0.04324237357149586
0.29290273121185134
0.2814521611838683
0.23335047404241765
0.1526211585185636
0.12993062914231038
0.060338205110623114
0.12609338893279262
0.04949492517285674
0.23478796889209194
0.151260564461311
0.158740036736527
0.11341994822959346
0.16682315180725873
0.0646553624169983
0.08942192962997471
0.1427085538063723
0.17936262285838872
0.038076356928021825
0.176279707944478
0.1394643470327218
0.15012127899054314
0.1535587350129188
0.25298853042253566
0.09420776100387637
0.20423267539687792
0.2507586356980762
0.14581780802037586
0.13996451390741174
0.22672802265070083
0.24557809635975075
0.12811380104234005
0.21069621196331306
0.0880506211499981
0.09886933116543166
0.2704822267463951
0.03871502707505144
0.034945836210612403
0.1178821973595517
0.11150834323565509
0.225747216391862
0.10801899307342154
0.024259625153052997
0.21735920444972345
0.1627776268114254
0.03413314877807022
0.18679825418007204
0.1697375129864611
0.08384362582872482
0.1853622417449276
0.21488651146652174
0.06535123887087216
0.1432950937048992
0.21089620924206434
0.04568408218967215
0.1924358616418992
0.20748847436302015
0.055911777439228386
0.172312161218891
0.23787988825254355
0.21221636860960208
0.17815632809954018
0.05581591178904043
0.273538513197369
0.2877670593110513
0.14305147052995776
0.24232390804098594
0.10575384212440828
0.28099252655415635
0.2411066577519515
0.2164977780677425
0.3052907316711735
0.2245231883825907
0.2187360454548609
0.1853795220046396
0.30722528066000115
0.1927327219953798
0.04436614052201659
0.24109126225350702
0.19013476261253207
0.03411589895511266
0.20010065485036496
0.27815406645768387
0.08737333287958457
0.07450695683236576
0.064883367938047
0.08733942835702872
0.2443315905108445
0.11169549716898963
0.039138696602397896
0.07114441492512946
0.05160314546740262
0.05513104919905022
0.17817257411331494
0.22661326782737398
0.12718376951174817
0.20528960841072985
0.24799296717788605
0.11632822465244362
0.02769308866123484
0.1766263599229436
0.19166274472453823
0.29612280983235395
0.14577050091512975
0.10955089712356367
0.18970893628271734
0.2918884825688004
0.09408698303233913
0.21490040780100933
0.269049267022469
0.21827038661131212
0.10424028243339375
0.08575143123789294
0.12337554483140636
0.08222706719900773
0.27971935323619784
0.256484606149303
0.27701775905241194
0.2701465556071378
0.1558536369412052
0.25410833771170155
0.25852615746324603
0.3571004955676476
0.3965616165996458
0.2687973018743525
0.0880041081598778
0.15768447475069305
0.21574353839020288
0.2695534267499269
0.08358065387301489
0.054324873022905444
0.06488356025248569
0.06529715803207875
0.15769215042714405
0.05621219362754036
0.0976155936674192
0.04479729477284584
0.03229480454797956
0.2107701285073049
0.10431756114867696
0.2502661474738529
0.08374182362772079
0.15275106949277456
0.05641915548332701
0.1485008160377238
0.051046137760457126
0.11521263710588311
0.06684374460518493
0.13179872414330193
0.19345039786511922
0.16741692244534864
0.13383921075142982
0.16077156035024912
0.1385828810493423
0.146066922449652
0.19935855338980743
0.03148392455270915
0.1451796889241984
0.16259145350051604
0.14521417322290084
0.0787071376163187
0.1445827547566646
0.0203107764458414
0.020185884359521136
0.02779270667072809
0.022236996381325844
0.04405057941477136
0.0683375704627943
0.2517670743839468
0.2894927094987657
0.014490220102488367
0.06479229130122198
0.23079827884660573
0.09005562478441145
0.04191406694409911
0.2895063423625813
0.21795322949123777
0.04088097207416305
0.2962988373621739
0.14148761009619495
0.1417255350798318
0.0898809323262083
0.0859319686791905
0.2556532694791127
0.21994030674362747
0.21749173259974816
0.13522783697302584
0.09838217317082198
0.1343756356211015
0.15710184151722315
0.08777974933796892
0.19368474905736516
0.11074292841311376
0.20693151395132672
0.12986897521070218
0.14553223978059893
0.11621948586319572
0.0811304185074149
0.1453984870593808
0.1729153284957045
0.3051693231610894
0.19707787637952215
0.13981747353376223
0.2087663510239352
0.2008144192631027
0.1901657908067247
0.14310600651778468
0.08045230315191879
0.13861975206662439
0.07241797632289566
0.10165354463497248
0.10630033465544271
0.13879659437757177
0.10196797666071852
0.17011882601191217
0.21832536221645246
0.2166814117018939
0.19064723361775018
0.2706189670178939
0.13393012628892798
0.1722608673602645
0.15317524215281703
0.08169208364695932
0.17024688496118356
0.13106308446348636
0.1250420729137602
0.10255916497778383
0.28792954406292287
0.28394112234433816
0.1868004170508289
0.12475393485768213
0.06905857223098327
0.17886650266951748
0.4778261843043392
0.05917216470371354
0.09818301625836866
0.24467534592391008
0.055531540526892326
0.06811873919565244
0.1729900063595392
0.028313019386553343
0.10020332263837242
0.09692481100474497
0.1516592973374494
0.19161047468865977
0.16759832167781608
0.08297920691613277
0.08293852272174673
0.1321690966501191
0.12746442036949548
0.06800923638094569
0.2654947168481203
0.17171650662978924
0.26266858954790206
0.17749057616466785
0.05358983115686385
0.05230102370515636
0.05338408108866215
0.09498277111578583
0.09838228900663379
0.06033218966368174
0.2110138892541833
0.11428356927973446
0.11253367337274779
0.15322306859113974
0.23394058827973047
0.14331296306907726
0.10872950481744097
0.17196841091582338
0.1087582482829944
0.2561166762494982
0.10750684597679999
0.11745406787608696
0.17302461548033338
0.21411001868111235
0.19424207222675674
0.1078002753644329
0.20798559661022326
0.07190844627038394
0.0863367475374341
0.16367145057569396
0.10780031319369607
0.14264060346691593
0.0711248398026221
0.19956672145572854
0.15940881251993738
0.14997965812147102
0.029664241484221615
0.0787875812999674
0.09937058307827808
0.07924969288995669
0.12217915187437006
0.04758632753788391
0.06516144309285139
0.08798169172906006
0.09301889469651485
0.03375930838367411
0.13537859636933658
0.11062338235289278
0.03355741569947446
0.071384516473017
0.03138255161538536
0.04177526946080596
0.11031686300560174
0.2695373436740039
0.04246803450573756
0.11233895707269433
0.10178729038553498
0.048890017332684374
0.2253884500891391
0.10026999932348134
0.03379616163937168
0.05478371380191548
0.24932771984846833
0.2788282532723808
0.07610957842897988
0.07116571191960029
0.01090081546547169
0.044027978379827346
0.028374762553182664
0.0203686928503228
0.15485436736373884
0.08908864649307353
0.052313798254768853
0.1735150159075733
0.04770017924124566
0.0895231103104329
0.15538012910387333
0.11193315195595552
0.04755842308006431
0.05186828228236367
0.10145921609813517
0.04053399896636605
0.056242815460018025
0.09360788438577682
0.04391028453258398
0.15865531503328403
0.028091638900586996
0.19375569420634547
0.08003005629072395
0.18293307327188785
0.039537661588830444
0.06594971594111775
0.06356358642786192
0.0834215201629787
0.1679501103049046
0.13763307695277163
0.07249365723644817
0.022147673847528335
0.030355758058129574
0.4482763386541892
0.03479626594327996
0.0638074222972616
0.12192408705267965
0.1488625511791924
0.03917202308958746
0.10970309949021191
0.09714128100768013
0.06892966412698788
0.08018095676130753
0.2687803524979894
0.21578072595642186
0.10982023781527733
0.2516091093502309
0.19953581391473782
0.1875793264871817
0.3256785424322318
0.14431131362261307
0.12246091810467094
0.35162936098339115
0.29802941880283723
0.3837055369528194
0.3346737323998543
0.3706043162001957
0.08524703685912381
0.053182853732034845
0.0545189543901885
0.04781322290306787
0.04549095192648468
0.228697450388426
0.4382142667383228
0.04406059629260357
0.07011074444889201
0.06872800665557002
0.06028832614460322
0.08237737508233148
0.07957725599632179
0.3550375910369363
0.02410209923573742
0.2234543720343494
0.3623784462425506
0.1469924426455989
0.05885579373784546
0.046641342280246724
0.16685133994457155
0.08505273200350731
0.10854810383374607
0.10066951111842552
0.11921799705666496
0.10658504006179588
0.09257704375345904
0.06832726347372262
0.10588206817322611
0.11909494525951347
0.11476894211002032
0.16420423752320829
0.13881062936542382
0.08560732456401211
0.17491895885953787
0.26225321927140094
0.12132388581659925
0.06769275765663
0.09863221275947821
0.18883139037502858
0.15484604881637806
0.14793034347676964
0.2997362228819023
0.23804982273881553
0.028901220205615377
0.024615683137674142
0.31416016170020156
0.010563007651616416
0.026037428601858165
0.20000079969880485
0.20725566378642257
0.014527754658312714
0.013598210679015808
0.4322418293616556
0.025655127018745023
0.3408832458900336
0.40982979295282623
0.19418219246979218
0.1387775000509984
0.1426408028021704
0.039668876620359325
0.038551673235526426
0.21858758499689449
0.04765660203930809
0.110897660530809
0.1161776749769978
0.041949431970262976
0.1318683245057954
0.053494372679468175
0.2300821844958773
0.0520117506162903
0.017777693338990375
0.2668437228774457
0.0750328215043604
0.14087507283317707
0.18374894358170965
0.04113280767205315
0.28646372153292515
0.3089124711509199
0.21602198583820406
0.18496561758030677
0.22035266372756823
0.1544572980933185
0.23762635269677684
0.33180361012320403
0.1297271275164063
0.38769133773918774
0.3714597997596797
0.114247713961055
0.33218912135011647
0.0875356086081519
0.11159337223918839
0.226621278390044
0.049887977353755296
0.3771424118944808
0.07169518427159814
0.10073930651307315
0.10032088113694948
0.14729460775026895
0.022503836994780084
0.057232515043183226
0.34877634953448805
0.2691264970258943
0.266752736188
0.302190808894463
0.05814860438333953
0.15813397311528207
0.15400948018474578
0.22882311132893904
0.08891840478183279
0.125904151732344
0.19609918227319678
0.17367830838006382
0.21767887503731395
0.12995909551140666
0.15707159089292425
0.11239143650957692
0.10127226415924853
0.1585326962012509
0.0877830296011533
0.14876778391040912
0.1526094747308712
0.08686132634073238
0.16255381593174043
0.10841402181036827
0.16192763993027726
0.09939619184947916
0.05604448406258833
0.12532871300392484
0.14541011131096696
0.2352080946243662
0.0913649706365039
0.06972610314777188
0.24693857282008777
0.08426710858477472
0.17345501883866132
0.12746108196162637
0.20667512513303893
0.22203886362406958
0.08180896616237875
0.2323530107697986
0.14896082058293378
0.023099636525071382
0.07087669202976127
0.32844529155046737
0.26149999464834894
0.18978647382876548
0.045425182720322345
0.12301195720908485
0.09485417455262216
0.043064127071325106
0.09958615509454927
0.19337024921888327
0.07735201144496084
0.11385611712373786
0.1879371543024925
0.22354112772771945
0.08579487035671754
0.213887121131034
0.07902097798232577
0.22268176732649242
0.37841138037206035
0.412051978873378
0.02863106016099796
0.11862901369948767
0.17368944570716327
0.3290883786421507
0.23666041110799135
0.3770738190299419
0.09390062706317989
0.20426896640845138
0.108571621049247
0.14996296358863362
0.09302140798782875
0.04755383433708075
0.13958485510189797
0.0416832167507694
0.21127342675807917
0.4537738483369938
0.1488610217031525
0.06967836943003923
0.14128931231213812
0.13024677468272675
0.09323628522215406
0.17454260240700206
0.2725312030153897
0.14211652422692803
0.15891044293882517
0.08692544852153554
0.0972337943111568
0.1840485176202681
0.3418732739356058
0.04407464481510914
0.0820984197289794
0.15371708400128026
0.05508293724918342
0.11346435707660371
0.04319375919946165
0.15386197887667658
0.04688843666769733
0.12700028351416953
0.10402825750201096
0.19926433185176312
0.22475536268134988
0.040369191345330784
0.2767828706183368
0.23425989681730028
0.16049453277719622
0.07691567389954897
0.14787721102594198
0.11530189265432159
0.029505407431084412
0.25096437355248974
0.259436662759894
0.03293836754928857
0.08137597799682146
0.0318996569079439
0.03937850152473168
0.06765215176390833
0.28225586308960476
0.20451048972444388
0.337851921422409
0.273009109120803
0.15025437792826765
0.14918759247692748
0.17529847484896494
0.11291817465535833
0.1770151534791505
0.02820948436369832
0.1402027909611983
0.05669756734944183
0.05633035105080457
0.14813170147904395
0.04802774304458147
0.09154297681806106
0.033568109461314055
0.14313013362590785
0.02717098115074702
0.031556462108038745
0.09211848744031445
0.10406730649018181
0.041969125723272445
0.09087828346254215
0.22117857679615152
0.32709215495270927
0.030580187642717215
0.16614140702261915
0.14326055986003713
0.04056919500698626
0.1528673391484483
0.22505761557821885
0.029850957202469334
0.11888529712397206
0.2539214575776343
0.032195574379770185
0.27891509835719747
0.04054738466378177
0.21099727552686318
0.08803707254642469
0.1372899966111713
0.09716227889936006
0.2715836988435319
0.353969252647194
0.2839384587566581
0.24917572164505683
0.1865614743329251
0.195688332122421
0.2815448850881383
0.05050913520896931
0.0882232611123205
0.318972162340468
0.07515768921529052
0.17665301292559402
0.20191865432525544
0.10134047512002772
0.18583780475370698
0.20037576548889272
0.17875584630294597
0.38143231515943493
0.09386805043685913
0.11348770363383431
0.1551941566220814
0.08564202947244151
0.06475329017187342
0.049156944729939735
0.1262448459223049
0.01909003755235185
0.00963704674627992
0.06197032681881922
0.0911621719439508
0.06372773708031663
0.12728267565923124
0.056038601249456615
0.10100999148783205
0.04764602289127717
0.08688852977378306
0.07043389242617955
0.15348847407008576
0.0900704781628201
0.038085729204282
0.08223506146522767
0.1602325199437921
0.1361448764791365
0.08503901517783333
0.22036424066168436
0.02187793771360832
0.09678948769831358
0.02197750310243297
0.09024775598781122
0.11733212987972988
0.05668405158581598
0.24902787303400056
0.23191245708759672
0.11607905697284572
0.016484409650708257
0.20150114846748243
0.04770663259215996
0.06669607624107807
0.33374034844703465
0.34539240109301733
0.24609902325086377
0.121449256831493
0.036038603117826105
0.19638312646089706
0.18951881418640246
0.2325473008131823
0.23183776421397675
0.20845049892640233
0.2623422424788897
0.15629949963387715
0.039215581143573305
0.23489911168317365
0.36708247559850554
0.11279736962902405
0.2993868762251777
0.10760613926144189
0.42365344796111154
0.22442465208116663
0.06554826267764108
0.11340865126753968
0.19427301489218518
0.009919842743811129
0.06271648093835976
0.09294786187308178
0.36610555469501976
0.24945354048825752
0.12895746044686904
0.01063288557787492
0.06678257441591914
0.12350384707097219
0.09725805763577142
0.09687693369433746
0.10121716014114644
0.2784488916763744
0.030610859782083232
0.06166979598226425
0.22779830450649502
0.288042244309945
0.14739031380745157
0.1308118780700364
0.18038824246326027
0.2939803591576519
0.10534024379229241
0.1170442755646492
0.033889863728803656
0.03307548424524089
0.26516625771568786
0.14390911286066935
0.1319356360436318
0.08343754210410514
0.04365201670430467
0.2505802537987499
0.061951955336115645
0.0917247710080401
0.13398187186524746
0.045506348488915244
0.26128136336509233
0.10767364018358333
0.03620508861236879
0.06528722480544838
0.052082414244162295
0.0365016931254939
0.22156688312457637
0.11541259300795552
0.11562997025362465
0.07954140184394781
0.16789062091941362
0.05203787226505783
0.004157884550861445
0.023594126770113043
0.013626252888656626
0.36013264875442413
0.30111410098807406
0.010007374246192781
0.31639930210178024
0.04589574778152563
0.04218548502898724
0.22990839120952294
0.407575566751322
0.34629785763989457
0.18050342302619446
0.11508682046658324
0.01719079933990514
0.2440237369973662
0.12046804532061368
0.0853727653670979
0.05250896961753544
0.1888723280319959
0.19348933790432765
0.08302996354427968
0.16837631718922053
0.1225246081807213
0.07123954154355723
0.08182232742520035
0.2444378288394405
0.20715398700249382
0.2433470670297372
0.1992888555183611
0.21499191906186144
0.15760812984534703
0.2122742541345938
0.20614318351808025
0.24590031177786273
0.15117571200309454
0.12366821432133351
0.16830555475003317
0.09006230317137753
0.13259604205369668
0.16789404180179548
0.19541222927956517
0.22240662771274244
0.06975127853294502
0.07634406813560526
0.0714090617000878
0.00907402776875621
0.3430342545066629
0.06484402035965238
0.16477811559101346
0.17579913070600423
0.05775316144403423
0.3199066195567692
0.2666994480806812
0.2234184182938062
0.212094992265836
0.0804706997937689
0.22441604745512045
0.031756000645826926
0.017385153879899688
0.11890034506466567
0.06770567141030874
0.010685797783565702
0.3351258982181444
0.22377440621499387
0.1183223779070735
0.0700660320582258
0.365758663655655
0.1229837980227662
0.19468314160448177
0.12446547194737577
0.11400295139912632
0.12259173165420201
0.06753458426884003
0.25600162666723636
0.10658779758257472
0.24521720993041507
0.10413045007961773
0.1449217919567778
0.18250174329558733
0.20586979492300428
0.24301364770022085
0.020660160373210196
0.0345539112022189
0.23819416810562388
0.06708905795346991
0.04497231411575157
0.048950609134024436
0.027628177994658606
0.2365764276548379
0.07963224392921167
0.05002179973268156
0.04800043659937914
0.031664154316890104
0.15613954148888273
0.08483201510777336
0.16306520896382598
0.10603656721446231
0.13772917073926763
0.1738994925889672
0.23976583078029284
0.05748862273201552
0.15280100436440594
0.04822052012741809
0.30116852418435214
0.3502684644911087
0.009876520742855874
0.3205659452049914
0.08619990235214525
0.099499143291872
0.05090083220665812
0.00866618758739826
0.3774138030817847
0.01698652318851982
0.04859767128215668
0.06275567431508576
0.28761602576370443
0.33361441197878283
0.3300632604120716
0.04244288253086569
0.0076839331188364255
0.05099196088445036
0.1643182393034072
0.11673053804653923
0.12274644080085075
0.07585375216183954
0.22508719950629402
0.36715062166872814
0.2753478415951829
0.25100597582339584
0.05885189645501824
0.18475094398864195
0.25810243482888945
0.39815582183398607
0.037408083361835265
0.21935222725487483
0.08917397338548415
0.1107936741562274
0.02939585776145066
0.23640908257641097
0.03352837582195864
0.1422430651207305
0.16463523500818036
0.09336807553131664
0.040440132094236206
0.1782481319907022
0.033344201227629114
0.028200002403316386
0.10627636005917765
0.06386897571874497
0.07676275032974086
0.15103306367366706
0.07411289078565605
0.04851795469397981
0.033332760966336125
0.2506309216548196
0.15716983415762914
0.05861553610745301
0.12207507349238708
0.08561716990830928
0.04791797044742618
0.19598239765052694
0.03920975790489361
0.12326891034073793
0.11286216615699092
0.2515490895839203
0.050108872391131376
0.13605423551804438
0.02416752396353343
0.19662086292792405
0.03642685359576355
0.23131648316921835
0.03605227677684535
0.07312908264698186
0.20316103247379333
0.26196480988057713
0.05444639500844127
0.0552409849666876
0.1515760122591032
0.10845602178164862
0.06832488949930551
0.27048040058904793
0.0846400056520627
0.14264848831418675
0.15591403080886596
0.32940046581298305
0.29029476910017393
0.2360969375523287
0.08866829402568875
0.028667806736236794
0.12646431354452423
0.14177629242740028
0.22132695065045782
0.18614103151990327
0.05976541113129058
0.20753376625024061
0.2136530364564477
0.06843929139997228
0.07236904739889931
0.07129728617064922
0.10519165253012978
0.03920896334731585
0.08417604669852662
0.1477063009218708
0.07950274678951552
0.12650220969364268
0.10346983206419332
0.1510286255792083
0.12473407385279997
0.2747548203347586
0.06911799925451034
0.12235780915596882
0.21417787400664134
0.049194391761294705
0.05476474587367342
0.04211676419153043
0.09014780110401426
0.14912009123759642
0.06245413332687037
0.040478649714262564
0.024172982070439466
0.038832599359521824
0.06240803282181824
0.06596467445186209
0.07847102984540891
0.07504932772107836
0.14396255861484133
0.044845089314512046
0.10395515468718605
0.07094012560236378
0.15306960797884103
0.12432287038787866
0.08808767740006068
0.11601539621416414
0.051244828207953
0.20462363295383382
0.09688724761763969
0.28485905491826957
0.23973259077985462
0.15433890223026117
0.20971226031428244
0.17118438602592287
0.28227063482174714
0.1511455926855945
0.1945645520535206
0.16614959356937833
0.12315974543951201
0.13299203553620254
0.08518323997376244
0.11014915678269284
0.18967313712340164
0.14835985466346746
0.19389308063899674
0.17796387736363758
0.1840256564894937
0.13844716254361206
0.11969893249837515
0.06938577430746308
0.1752117133385334
0.18224257893313953
0.13702636202753044
0.07652816438322414
0.1091697061707047
0.26207618317705045
0.0973987853114697
0.17993230909719996
0.27428106948458336
0.010952651488574917
0.04609204421144837
0.048407477811550095
0.05163517158824497
0.03104959336205206
0.20734605277364862
0.05937300757608813
0.04529064123148191
0.27704265936651407
0.13545502835303252
0.020983190883736853
0.028474902338019387
0.10950208963752384
0.042063262293737226
0.10205141473678452
0.048496684521171785
0.055119047058022404
0.06636620241995121
0.19450071692807772
0.16594251600993243
0.1520181072470534
0.20382421772801482
0.07517302394253435
0.17780382562187313
0.10122782382849041
0.028611820753731344
0.02935704668045404
0.02451666994200465
0.1404823240844682
0.15067301292557697
0.1495175104934034
0.08309465918330292
0.03655620438693967
0.14689297234699958
0.1786990927094504
0.1566626416278538
0.023363273720202315
0.359971094513181
0.1909189150965881
0.18650806945255738
0.06922703942127285
0.3655078920530095
0.1966379147166097
0.08723492019195013
0.2121875346734899
0.30137517489138915
0.0604185016559104
0.15076344741233536
0.06267730966389728
0.04313091863757327
0.13737875766299337
0.18076179120413036
0.17321538544059972
0.30721718877806226
0.06139416775414798
0.29489590391998677
0.28977159383068574
0.17834966851800957
0.27965137728963696
0.2629593509451298
0.03460493933288985
0.16274246423560862
0.0500606615032493
0.3068738767158527
0.2692616728202868
0.04611859900988806
0.0458907042539967
0.030078486329955058
0.025466506718901015
0.02129201492050718
0.025822428639246876
0.05966902487054225
0.02721721569301569
0.36934672241434174
0.059674732993719566
0.061061236589733676
0.03872270079122049
0.34591818979203676
0.023273943446096332
0.11439956698830767
0.0846639953817888
0.03498639340817556
0.02945850844573843
0.03698248995174475
0.33880382813831866
0.06008979856572838
0.08183316219945562
0.08524982039715462
0.2745184290499241
0.04550404333152348
0.12232930784536103
0.35601807273977853
0.18090706448746996
0.08760274529689259
0.026753064814117974
0.13714171585384183
0.09054281873230853
0.17564338755780262
0.22368754813665223
0.45231204437484274
0.11993080501622451
0.14896931681620107
0.10404443824699564
0.14779476655098286
0.07734747552701186
0.14324440012058517
0.11368581496374694
0.10315404529249475
0.2101772696135211
0.13030136203139894
0.06519423092496013
0.07858906406301194
0.12742504301577823
0.16416906816596946
0.18900955894818405
0.22264162961781744
0.027647309661492925
0.038057046549122786
0.2610189890801615
0.1056925651434952
0.031937500576007485
0.02268223287388271
0.04272610425445385
0.23599275395582134
0.036660665205499376
0.0748514380948436
0.1532270837997606
0.040416500999329454
0.23211088778187322
0.34542446550366734
0.025597177938661266
0.0830210449536619
0.04078207669447223
0.01133521765058558
0.17537736839088006
0.32328555098380796
0.39080103425013774
0.30748316968228817
0.07530301298956164
0.04611079638203236
0.4967955916372898
0.1395904698121289
0.0980192574836015
0.02784124808735866
0.029088771407995123
0.1876996690794506
0.1119823467561717
0.24242826886777402
0.3660310418748979
0.1216251668957046
0.19997076062522348
0.16000473476588473
0.017283829638833216
0.1885295834057022
0.18260707233611242
0.18457210507844304
0.11648158859393234
0.1640182847379053
0.2202027911664321
0.14027064134630907
0.12257879733119079
0.048077785499958045
0.1553004659524579
0.07599356643948635
0.0855574391664554
0.03313823325383867
0.04062023577072955
0.07707812381212992
0.09270429353204936
0.1394353963533638
0.12546449131057694
0.13040098017465782
0.020908740232644506
0.13934727186337797
0.3569806429995138
0.02150004928442569
0.022688248385219222
0.11918952653088763
0.023189881025983676
0.030893817540517246
0.14566121016793676
0.22319640552319345
0.02962113803799678
0.227441436212061
0.042442646687152356
0.023857701970737454
0.017944300919296028
0.041412683385683324
0.022642903582690697
0.12774821125835645
0.21473133930652294
0.09954867565650342
0.20127910008639052
0.05608442038035328
0.1274505733644053
0.11725471086468617
0.10296876035527248
0.3893789401149031
0.1406224830393124
0.033710985754414675
0.3504480203371926
0.3794353203322834
0.1666806716556726
0.39691233799637077
0.28017204436879584
0.025091959447966154
0.0714969978976322
0.10927077019155947
0.3116576089194142
0.07271328352081677
0.143080358334056
0.12982120906730402
0.04847668285897193
0.06025262743556909
0.07999221389344784
0.10045156856715379
0.06752333390669184
0.06462798576149957
0.13932551092373044
0.12474614940090809
0.09933201378377779
0.23883670749776603
0.10721725157414509
0.1725383195452772
0.04609302872596228
0.1796393088554978
0.2157769268237121
0.10747549642578283
0.08122763275900197
0.19360021294760085
0.2625037368242978
0.05081441459592993
0.18651534176690618
0.16506077472840536
0.21039672737744827
0.1853067497414281
0.36207134161665727
0.1610165872182759
0.12870804348096634
0.14879017042226028
0.03789508806984325
0.06560793118550232
0.08155953015536815
0.16592699772483863
0.015144002073880364
0.11851004184982394
0.237984477656485
0.08956115508950774
0.10194867150236558
0.12143464181608564
0.13063393140669555
0.06026005463951173
0.1531640268198738
0.18390354833377198
0.22022421582436738
0.0906483450289749
0.06788642645221347
0.06236125939440247
0.08801425490353332
0.10059229892604954
0.3984894481908179
0.1666649553670588
0.066154751645556
0.11297844758680375
0.07322614591027915
0.21486730910820342
0.08005606210559335
0.19335157151913582
0.2367045036957396
0.18065245044159167
0.24561960219142254
0.25673414497401825
0.24122573909802053
0.028784566229738878
0.11143519204219053
0.21821330377602943
0.1603749549548953
0.2325427090971779
0.16267958519669756
0.13578450545626458
0.2095950542584735
0.09968424280346888
0.024117218462102023
0.1832189515010417
0.11006779964867046
0.10930755335402077
0.1803093708589452
0.07439793365721545
0.023874356282273256
0.05253003792136676
0.12733499487588243
0.15263889076572806
0.10083497460382082
0.0897069193238826
0.15165692412891826
0.09185268222965726
0.3965971722668286
0.42778768771655334
0.0922196863663024
0.1603773856183289
0.19097809064906562
0.014119108246303122
0.0701159082481744
0.07378224450746644
0.03449278818323731
0.29570152964304885
0.0376529813296403
0.11073193055652872
0.07597828476688845
0.051027397279053005
0.05518840179627678
0.15811490056762942
0.1432332567058828
0.06246191693629403
0.3545796244400861
0.3310893492845548
0.06513191777394745
0.2742209446186786
0.10061544482514516
0.06895854751042678
0.05601219374892818
0.05112362681764121
0.3345358402239731
0.07986613297093886
0.08579733524070655
0.2702235444881241
0.09982509140946128
0.3957916109200321
0.23104463968164513
0.06748027190916604
0.07219319039378293
0.11971958065055426
0.2106085909974005
0.14299883059771737
0.09092274644358239
0.13466601354671145
0.16752331515933513
0.05006993394260391
0.04841202812182617
0.08647283517007699
0.037912776366824476
0.16713371903451846
0.04728185784090875
0.21541577365419654
0.08196031849616763
0.10206452153958527
0.4172983885120338
0.040629624518526704
0.06309213313780418
0.02025288122835586
0.07039284234453298
0.07801371917690753
0.07114763586917286
0.04313609815759564
0.15704279425022385
0.06159215934979928
0.052114629716487296
0.09933822658022518
0.10056640964667514
0.0984910571050164
0.14831824734571833
0.33083399157705856
0.04910943616772256
0.09550340565585974
0.04905460776909299
0.10837229660565786
0.13323008902714165
0.11664074782637304
0.1457338405971164
0.05811215650072262
0.043765068256481895
0.08128937984333451
0.13821726814104948
0.11325662808642442
0.1392171864496471
0.15072876029311788
0.08335763006519355
0.09586819368039447
0.24912935363558134
0.10684756042287633
0.10709581836172516
0.34146355019351937
0.27240936166855517
0.27584994469709645
0.3535437396287749
0.18332644375290788
0.06859557321536855
0.31464006449296744
0.1364420336034445
0.15158775708206462
0.08617460691959694
0.12059867936813436
0.08399393320493685
0.09434278763781234
0.17504377634098195
0.10753799484655378
0.05714126937646663
0.1290442573145719
0.09531399513191244
0.26581086673311793
0.04629099518728875
0.08432809965067369
0.04549043205641455
0.1610178649376336
0.3522566221098965
0.06304228486230178
0.10733919425078871
0.3110472961082079
0.029032440840108746
0.32126893884557234
0.29955105714705815
0.2659981880702564
0.1444121433098468
0.20085844473947645
0.11766010539121875
0.07560984393725813
0.1173773093423674
0.21935871203351465
0.20944958488975612
0.08752258196872864
0.17322788167763883
0.18074346263236232
0.0686704302549687
0.1872356815963281
0.14340194827034153
0.11125578677411745
0.1383886088098391
0.0914115216494911
0.0655568065406608
0.07105012675623432
0.04895325239931811
0.10690779019759865
0.08763383622799081
0.0733443809068593
0.0393484429768115
0.06300053290962145
0.10171221224701577
0.0821947883420343
0.13533679810823224
0.07193569506557701
0.11383213556519137
0.028924717884322854
0.03690184843439352
0.09112138334343407
0.10957589418400782
0.10164008391170147
0.09869070423151369
0.0667213109626441
0.15912626401285504
0.11125801180564274
0.07125893315795809
0.15608449537495
0.15562002814857828
0.37103509827714215
0.1293984092273951
0.1602030561696238
0.1323753897478374
0.3040080840124691
0.11219759567634885
0.08090570969069479
0.05566875710147669
0.2978212739974636
0.20809878260892362
0.14810802947388735
0.07156965218860144
0.0597402381591851
0.0359209553154963
0.12970772142985432
0.17418561939233862
0.2939105877254365
0.16838197456517784
0.1882152749269482
0.09398066274861137
0.16960599078775898
0.06845164435279275
0.010209793927560145
0.008407316340207568
0.13728300259888798
0.07474992238458374
0.02598783578284063
0.04205930604818547
0.20605496825517022
0.17573776369601052
0.34107596801293094
0.050680243428177646
0.24343785609248808
0.1417738331621229
0.13079419803316658
0.11605634199655991
0.09770285991281578
0.2002123503869548
0.09012002921776728
0.03591761143627145
0.16773150286674954
0.11610965752867958
0.045706494919270015
0.03460013697165677
0.03224617718161073
0.07215502943658109
0.10721092534029221
0.12845045227478852
0.10925465417410996
0.17764595027421637
0.15294830796095746
0.06354566283040158
0.09931827491070971
0.11437072885570103
0.0957367988305591
0.11299191866530901
0.21663216900602494
0.12460962760094997
0.17308347191835408
0.22755625300088334
0.1203741175119983
0.17754945105847844
0.10450845856874537
0.13539685676450644
0.26538911335673593
0.09602239642514991
0.07281804908478544
0.2876913899258749
0.03651012876956794
0.18469936926665606
0.07839428466944086
0.1305935358863772
0.08840465109304585
0.08695821507575746
0.32700350373801956
0.12166746668020964
0.08941627142672806
0.08166102119967822
0.021400052394076382
0.10548118356498273
0.13326363088690438
0.23663984468258822
0.267138151247515
0.20729666442345354
0.04770088911917956
0.20177421682333363
0.09215392744433372
0.11938299097701963
0.040575896572343007
0.15372557662566608
0.09516411692951778
0.15251157359771378
0.058443670229182836
0.14781434665772955
0.019869946503659062
0.21316954803768393
0.13342137135997534
0.06466000199938776
0.028816295303738495
0.354291438869892
0.060879345655058134
0.03386250876473298
0.07001155285850752
0.10757555636980792
0.016585802907121333
0.08417789981456744
0.015886285908106722
0.22534708475322043
0.1858093518218376
0.2015709690434795
0.11822831099787881
0.0698919087852007
0.07476989492915626
0.19478819796036084
0.18739595735354558
0.189711432459109
0.2127342611131683
0.30973824225022495
0.10647568203694696
0.15971134887222072
0.14413521911542584
0.33060098019012496
0.0960789233127581
0.13733235053351114
0.06810631093012473
0.025053943136637023
0.12620703550271234
0.12083920665810434
0.10034710784387857
0.134323718396792
0.18065511442001256
0.11102212690824005
0.09531006816313362
0.0982451151682925
0.13910596090916164
0.12720535502845634
0.2797299917056017
0.08363738312727664
0.0418970878847819
0.08199814370836628
0.2584607310808288
0.07103296676278795
0.0386861083077107
0.10789948824153898
0.06514460728195763
0.038540837305437316
0.10849529698014802
0.3206065872755459
0.1337747209635661
0.3299334158731538
0.26491536661976794
0.29292604950755613
0.2333307823147609
0.20091164704793105
0.09998445016576792
0.14693888583641626
0.17303090871694812
0.3488568946468331
0.19250265317343562
0.1260493557379162
0.3184924371802453
0.3257250607806425
0.09395363119408184
0.3109302686340277
0.1252718072554922
0.15079861096892425
0.1086821424028847
0.10152481829989236
0.30769819454559294
0.07558739820671599
0.33511668082554724
0.5058458527963788
0.2110341779659028
0.011871716517528497
0.14949542566280016
0.13447353304593776
0.1160290872194647
0.15940694675134606
0.061670228858501465
0.08200940576725213
0.12917592270383474
0.04114468354268601
0.38867914746101473
0.2858185707356641
0.014104858918273195
0.152249636842772
0.022519859109846
0.25416531095105327
0.14520738386202928
0.30295822184715626
0.0917143939637492
0.19631556431963929
0.2790401886087996
0.045357631587797334
0.02839592954505169
0.20923104155102484
0.30704707430038863
0.40340188974445873
0.21147259307247837
0.035409934962046474
0.0259503825262219
0.0604806335887352
0.056333371935174466
0.023166138425323182
0.045270427724263304
0.017623591143753208
0.09828150046654334
0.23188943559192843
0.2564704685560024
0.3598042520106163
0.053803191334548466
0.18787052192323947
0.18464416342986517
0.36537835067555535
0.0895626543843687
0.15481107582773365
0.29596548963224845
0.10389547491696977
0.3296068373831732
0.1468344930040982
0.20105195378338228
0.3033635878957516
0.408947694816
0.18247988541096044
0.3135310715472311
0.1507445151507251
0.12312989104978193
0.21100486103805388
0.09741244504011624
0.0788470893673398
0.19802440028582138
0.11840943712772484
0.027373933793749902
0.25729018146235433
0.09765103378479935
0.1279801129042793
0.041671765819321034
0.15266302361574158
0.07744346066447254
0.11322221957090449
0.14206484183441728
0.08677748139291055
0.04459602590615755
0.2526271255991943
0.25264935552137985
0.31042734540562433
0.09811396952616513
0.025478952738711935
0.02617808954610948
0.024206926013276116
0.13598430345604684
0.14356515284704854
0.1664246397776549
0.13564822394515813
0.1691386819626314
0.18268204887232734
0.15742500684250904
0.20848352833419354
0.08121251984440991
0.04330455908426432
0.01716280097097061
0.27047238179536615
0.0876760108179724
0.09059526447295259
0.08472219471458593
0.05592864691328493
0.026403948771108344
0.07841327573137141
0.06784730209896467
0.12541085918714673
0.2015066912946845
0.11279305434634043
0.0925311099829281
0.06012401327045294
0.08456031176233536
0.07952169650866066
0.12002799391930616
0.18808955350082698
0.05833860582476022
0.07048404185395571
0.05497742816344107
0.17170643176820546
0.02133207846164138
0.03828218748288934
0.08278981864065205
0.09897725289287565
0.07251222124400089
0.19444331668250558
0.23531231284346507
0.15620170331474298
0.06521896488628513
0.3038172508933587
0.017932847903182902
0.23550457129697236
0.33335460972596886
0.2657191245608408
0.3083086640451169
0.137982635423069
0.2286260061048831
0.2098682166050045
0.2499115969261799
0.06387510566868436
0.07031265659546887
0.014432653654919567
0.02332371357673863
0.05578493282109855
0.33456514181924946
0.08538350669831941
0.2136825210175997
0.0698782284112081
0.04255561271256805
0.06446197024274697
0.10339348370714163
0.08318267983340408
0.06295875805774817
0.05172536417422411
0.18377031905286967
0.07032737581089134
0.1003844239377484
0.051516855232866705
0.07590607748722586
0.04560758881391373
0.178510717338175
0.045995255458915314
0.04609768269709261
0.07721611705290725
0.10658897285773775
0.04165573694533841
0.036682535275958265
0.031603785151439995
0.29722353022494247
0.08728311666998492
0.14672227985615227
0.03580584727724586
0.050193244471587975
0.06300287686622712
0.0729309260636967
0.05397710426623793
0.07629547354928964
0.20025407127960804
0.1100559080770716
0.09526076815984837
0.2533148197551091
0.05366792585287154
0.09851094584105402
0.11616883700131918
0.17919131477059425
0.052051293365459744
0.11846658092457064
0.11191014018152297
0.008472326570609066
0.10254704035023737
0.13423287499719186
0.1696843782441527
0.17309653806839534
0.027165364703297314
0.2435594804120159
0.1105754830576096
0.15781267980287664
0.17356668868062808
0.24368733118573296
0.3354852065704795
0.06422989463567924
0.061585769148376754
0.04885268492716699
0.14335200883464963
0.06602307595197468
0.06155951178210766
0.06505178704787334
0.1838827491958251
0.06880745233779913
0.07346925011766053
0.352050453509738
0.07160912159631207
0.30249813749724824
0.3391386416087409
0.3551689857118964
0.4100339718688533
0.03799483933581895
0.06346516151751795
0.12420164498900775
0.10903229422338433
0.23853589228633681
0.1455716847273056
0.12329838404753352
0.15830589838177617
0.12642766722318324
0.1280993491096551
0.1629699994891273
0.3449602890666564
0.16170165656378693
0.07410828268862549
0.06453922735737404
0.08561459691692716
0.06679954454207099
0.33611742544298484
0.108448719069392
0.133581440684067
0.06752091526466014
0.09597506263477512
0.2568576134270702
0.3610942405496822
0.35096880595619556
0.29660948807899734
0.1639953788618901
0.05458334396453796
0.06731762233392315
0.07884763679203383
0.10498582546128811
0.05851508733824801
0.10643586478791799
0.12099737280132775
0.049347752919812485
0.17014805320957088
0.09348546304806085
0.17272646047887555
0.1979790813774596
0.09816754363812613
0.11888887058433582
0.14678271534517676
0.09972225017777225
0.08923772434862053
0.03298364368714777
0.051942234213428966
0.17175002326488514
0.17403885853016113
0.04406767902961319
0.0456595814667439
0.04574659734632678
0.03709013762784417
0.2065235313573389
0.05855341401927368
0.17109136445977788
0.10561815215018518
0.14353078314618242
0.01899569937321152
0.3294847277374494
0.15519374336523403
0.18744699058115835
0.17315648018423024
0.025431889692715842
0.021124324669152574
0.024712579825629265
0.151454976658433
0.03181325404062041
0.3460128084645261
0.041458412080893674
0.04661667319210071
0.21361313418500438
0.2577038827123986
0.035115252503376285
0.05365099972742115
0.036777526039657706
0.11571696501347205
0.21836269563193814
0.26602883059968246
0.14854010884227103
0.10344421759927676
0.15010027930697648
0.043814532488899806
0.043587571633567426
0.0505867843847127
0.10157648796236485
0.22004194757890105
0.17034261516089352
0.32950148166811244
0.10393654977451366
0.2994419405988008
0.07952031142902717
0.10090712252691886
0.14304447603161735
0.0720381534789331
0.07286196058046586
0.0679619872467979
0.02518422912652015
0.17501600562694983
0.1295887275866458
0.07645661999665353
0.08289360901186134
0.11731777810642201
0.11001107782722722
0.08482204962235662
0.43993345091485087
0.03448393022977863
0.22668963056183236
0.19089127479334414
0.3228648447667333
0.15472993522615094
0.061139844905367446
0.27097948355138746
0.1278580244176153
0.21840442639841212
0.43626461128725114
0.10905762954864089
0.06373786775962144
0.047567177971651886
0.4010549255396696
0.18118653797339546
0.33270696250740495
0.03221950763776035
0.07150390495878566
0.13418962135505672
0.4367009781819662
0.26532950504732467
0.07721676568025758
0.17022658112718353
0.050559039491450616
0.2768819634145116
0.10502305323377363
0.07497897536879375
0.05494885929029731
0.18298068883364726
0.08930186530729964
0.05340099625196887
0.35659872342163934
0.4073770648295303
0.03331388306970824
0.3735579481131032
0.3087496410230202
0.10166511769918984
0.1794006105591534
0.2784629521168691
0.30646516570649396
0.06270579469477916
0.3475016132761767
0.05381765524790479
0.15471463647780248
0.12023881604922147
0.029208401198571113
0.1630703398568647
0.10007729754292512
0.10850093829268502
0.16316972924553652
0.04053617024129879
0.29486582725936145
0.17777014070568023
0.033077134510364654
0.11401134005967885
0.0343386501660693
0.15159053534717504
0.13266851587836864
0.18500285636926503
0.12328768268780499
0.07606254997144253
0.038954525212228135
0.4709503259487403
0.08463249842506917
0.041952917971960844
0.38043787682799984
0.31905612422646695
0.354298996406775
0.11556351604688488
0.0814657784450536
0.07343528511747296
0.03887038703031319
0.043537437317108386
0.1280854027457691
0.11103659575467678
0.1703988287054449
0.21678599861885683
0.17947889129976535
0.07760510415078337
0.07367441876966163
0.06037655681374147
0.10635056125867233
0.04971153089030842
0.34862839152860875
0.2927000822927053
0.07036688808566095
0.098985339886738
0.06399049421751245
0.2410569006530303
0.24964517884977486
0.23012531131310213
0.28940495273474764
0.09747671200196868
0.10750036906891108
0.22705416300142336
0.034338506817505283
0.30355994414894893
0.1363990171322174
0.06188491874693272
0.16319934073695902
0.06360558413218483
0.15492233254898755
0.0891392757750552
0.1243904335689127
0.1675575351587405
0.08481376577505446
0.0920384949808725
0.260970873018773
0.08634295253038184
0.24616877486092734
0.10285670579371602
0.14982648490105338
0.17047044262111316
0.16553271060249058
0.3460942699171201
0.4312320087070166
0.08816954629182737
0.1533485403021288
0.13978432528433807
0.0746709957157101
0.13091240574661772
0.08405907647955223
0.16233859383830174
0.10878211934122617
0.06518167601302075
0.04588933429854446
0.12467675035626538
0.07401348135655603
0.03578953553339569
0.3179952853766856
0.042481955616289785
0.09374018514410448
0.08765055672298154
0.08136787459256169
0.07965001526545121
0.048915233463864956
0.12398227492765002
0.2882478805055563
0.10333439588261016
0.14013459714077375
0.43942534226420377
0.11991451643542174
0.2272126920102007
0.2961009636064327
0.3184766405928405
0.32963208532138794
0.10894950323040879
0.1395730451056708
0.04538205418573621
0.02837828377219501
0.280440038697022
0.13249188354988858
0.05076214316209615
0.1768334480115686
0.40683544043875053
0.33885708439847584
0.05829067990471815
0.1169194877355926
0.08376038923237777
0.02620713680492192
0.08751790697552082
0.21981717421105493
0.08702764490069693
0.0756622686998385
0.08992661810825853
0.07696503749170615
0.04357637593073364
0.135741362272051
0.4826816468505165
0.19030212920180753
0.022402972423591766
0.11419902484268338
0.21302934581971675
0.06282868182647487
0.0711597228500587
0.24712744257115646
0.14528652652294824
0.38197550213931475
0.38526328854825004
0.0690845913739114
0.14315980755056376
0.5183692571788769
0.5585662301361487
0.18898954626737854
0.5493132990714134
0.04191022458942412
0.09461521691922697
0.11562798388505531
0.06052871750775993
0.14214867746608534
0.14258582948216153
0.032415074857101746
0.04308238802669963
0.06844250354726575
0.15468711552491632
0.12985119481690988
0.09084068394023533
0.06934171015933331
0.2256473319686646
0.06607985208977867
0.0958047559805621
0.2254385789015046
0.06498478639761439
0.10251649694043953
0.044607894522458266
0.14743328300619815
0.04338508868592171
0.09366642535074786
0.07630250142888341
0.11031524685282693
0.07750774676099112
0.13181179049262987
0.026834422697931196
0.27478521973003794
0.33920872300850236
0.1667139840530906
0.04641163617237129
0.11413591010474382
0.2988708453865933
0.35810948612115656
0.22153150783720266
0.3093901242963605
0.18618284925816259
0.2415096101649191
0.13844881142324467
0.13622898492383306
0.25608433875122427
0.05907997365219045
0.1736460395074323
0.3897161992392038
0.23539683340288697
0.3058700274709697
0.17292644919609026
0.11411427428667
0.26804512604693986
0.1561003814202763
0.15828339290149643
0.10029282222125767
0.0763708299052516
0.0532502949469599
0.3030496275143624
0.3507343616141801
0.016425113945606876
0.06274976697534931
0.027763579793028667
0.2899721177717019
0.29233691631827435
0.3932418411728946
0.021197892126407446
0.3295647375286587
0.08963898820785923
0.07022311398740778
0.39791443720015535
0.06332646302490884
0.06867898869893743
0.30402838406254923
0.0371443516959716
0.041326461556634914
0.05546590936229239
0.04805875901806344
0.1957745154765199
0.08324886696881185
0.06706150127187155
0.2110194066586211
0.14683874888823556
0.12101803041076879
0.2888918716049027
0.0833581998530175
0.13385931110608407
0.2059226642021441
0.06420201215410083
0.06734870016676733
0.08005013261196431
0.04951773139988479
0.0988565175885321
0.4447535979848305
0.029717058859259023
0.08061432519195537
0.04099103244677704
0.1418838374088349
0.17003975849315697
0.1067448207252825
0.15177432109404448
0.01205864415083736
0.18585952283435095
0.13122842194901826
0.18248610244198193
0.20575950999981935
0.12528664463141134
0.2381351710392947
0.19769684302782242
0.05722222493151404
0.1693510674414952
0.2150494545347772
0.17586744723973835
0.009524236627014387
0.16458375826214044
0.17836091792362482
0.19289602166076456
0.09975919686436452
0.0357141408409011
0.05591269644436905
0.04184242342450829
0.16864597199180545
0.00833581313633355
0.14419357380096995
0.08960049000422231
0.037698971508841925
0.12945222623531424
0.030762772913167147
0.029560270120632334
0.20624084882296043
0.0740099610145305
0.05248946910287242
0.07107142407038765
0.09558986071092519
0.04569142949296772
0.031255057044729986
0.07876555619421162
0.033377097354825636
0.1270616958092688
0.025455538958237007
0.10282493119184685
0.074998973026756
0.04286869775218435
0.0736839130081394
0.1209010964622919
0.05341835985937801
0.22378827646903973
0.1360181226197642
0.09442313161092103
0.2895778771218717
0.16298269315561786
0.12680988490257125
0.054932329139181016
0.05419854899937969
0.056962144267144105
0.07797639684192693
0.14669467233814076
0.30626154300271247
0.08456649861218371
0.03529817547878793
0.047542120960576265
0.03078278476159897
0.18465123227266764
0.2473869206703422
0.07782845718486442
0.12443822950542406
0.2664635644425425
0.10962355836819444
0.3994246434969914
0.15990132394715215
0.07461492287522982
0.1088674907048586
0.17025504899423458
0.10474732165273294
0.07054736132153461
0.041561182549893855
0.17067132576871077
0.15348246255367518
0.17603016528416907
0.13129425136079495
0.19563947652128746
0.09249792684639832
0.08452498401770364
0.3333829613601043
0.12266083259133272
0.17259431684656176
0.19347842903205129
0.1531441297355222
0.2576432598002705
0.2877951580957224
0.16388910819411723
0.2753664116064991
0.11446827687304553
0.23664683726221533
0.0748757666471265
0.39471093047263844
0.41241597419933945
0.11824604200423884
0.1387944091002709
0.09879483572369618
0.10224090471116959
0.08609698439171178
0.10444788946866355
0.17538054776208759
0.02968498820615071
0.03652380820464736
0.037835373252561276
0.2759571143245176
0.41094105797286035
0.4055278222092806
0.25114259761737234
0.009469206590998817
0.33825829297639115
0.4111342740769828
0.3465561275457348
0.04829346876902804
0.0785902264343921
0.013552602756366376
0.11323789207988279
0.15706144608314582
0.2579333264734154
0.1257758978549221
0.12335723187987715
0.1691014566334972
0.06526954326750302
0.056953990390204295
0.1390174391901049
0.10830877669645277
0.12789910409970484
0.054122064680448584
0.16432157682396303
0.16669698467919591
0.12509175784736007
0.0622567221139287
0.11064916329456481
0.09823888695785075
0.1594585257502463
0.07253416577133513
0.08361860292883537
0.062115945437527596
0.03295199842386218
0.2094194482358056
0.35005078093617736
0.10518348023986453
0.12136574103084234
0.20399526235127494
0.06713292716079666
0.1815381781230847
0.07110668902208898
0.28458131388645097
0.2096090033498256
0.13106837488641945
0.09319413835776377
0.15493503676117049
0.15006022633559254
0.23812063846056036
0.11585867379583886
0.1009509884564028
0.09561042640738794
0.11699699976385604
0.07037046715848153
0.11944656077001578
0.1367213561316199
0.01564831489663362
0.06503763200052716
0.24412117773588812
0.08330849175166169
0.10456275088987924
0.02253572182944617
0.04940945824944663
0.11789975289792697
0.04539225596256749
0.10850930188970104
0.09815858491914
0.18791674562992033
0.13545393127051705
0.16426412963209389
0.09723879015942608
0.04977998797097546
0.09307002723041434
0.05480252234882541
0.19151603586888707
0.17558077632821753
0.16956819862243788
0.0982728757332927
0.37974921449723953
0.056784878378609085
0.2380610032931105
0.11352299447841808
0.14577647518402007
0.26778158512853356
0.18089074732702118
0.23385491266948355
0.20241258686547473
0.07275132017570006
0.07648917305811441
0.059570284656275584
0.18675781324441235
0.1263648156911523
0.2551663824229307
0.19842500035744406
0.16556654649135039
0.15054620688514606
0.10907008807301415
0.0994491888871682
0.1704910456678091
0.19288132814844
0.26581219525893257
0.09808595807496975
0.18277560718960634
0.09092011313236745
0.13382806652624
0.10782703652995267
0.12118292725415312
0.15699882926103487
0.21148450017478376
0.09544922831102619
0.10535618294109073
0.4359639375622437
0.10446749410020739
0.0762213814523233
0.066797946952936
0.1075442177892046
0.04809479133677161
0.2084412502494932
0.061527791440319765
0.068101405684471
0.42665293035437557
0.05255024878498518
0.43241269136330224
0.06334465563144813
0.10465775001771818
0.05076032227973032
0.1060524494798555
0.12038915405870239
0.12332510037879127
0.26168379957934645
0.18015887892580873
0.23890319118693823
0.09189861244921763
0.1118581937042731
0.07148945234196324
0.06450806359194551
0.18718352551376446
0.06173977407139672
0.058580915969356204
0.2998649790604728
0.06751908172985227
0.21362261033025257
0.13131600135070778
0.08248820482997574
0.09886020986756074
0.2123612344519812
0.20784534141516314
0.12926701992833478
0.13924228667045294
0.1404040350711785
0.26202729193158075
0.16701107419160602
0.15245496353841195
0.2608125411040321
0.23540281006824199
0.1446753024482164
0.10792654499099472
0.223676424296624
0.07791340931390893
0.23117767580867812
0.18358649275409533
0.045893157921865275
0.2909558093641729
0.05772571186619267
0.058011444149650086
0.1045252954057345
0.04371151343423596
0.04672663211397584
0.07584378192385983
0.1835535654284589
0.4034652372771862
0.21826623751414062
0.056883492340615856
0.35933581618050703
0.13597164826571573
0.35985685255712807
0.10701931888237089
0.13499924507939545
0.062110947653567075
0.29153740250229737
0.3367000937637779
0.204808806436853
0.28150530028401777
0.15843371437171316
0.3048390270414104
0.018269856934669475
0.40180243362258383
0.05309872477477984
0.09087974484553332
0.16276774118047282
0.22887088982495943
0.06634631183148657
0.19125492733746083
0.20837869621209962
0.30631807726945565
0.16916827119294797
0.19909342438727756
0.13587974273936637
0.17450343709246774
0.32529614002185264
0.17113635888547568
0.07208275896790765
0.3078065382034134
0.13926644516317907
0.075459542235422
0.19579006315284858
0.211505649241352
0.19349624209812671
0.14974555786821675
0.14159910548484847
0.13508279154837718
0.12681253804117154
0.12829234645231116
0.1604408676882852
0.130890983410363
0.13590936485539673
0.15046503058972951
0.3498914138117099
0.14440055853738815
0.024810602412871776
0.05799463478714412
0.031491979478488565
0.04639341885131987
0.026331295529008307
0.24909015953761351
0.2429424967131475
0.5828756008174414
0.20545571653346512
0.046078829727598004
0.21959415744009847
0.5245369808360828
0.22441208004408023
0.24388875270999352
0.17488025508391145
0.1762146501781218
0.23109106084538342
0.4356778376331735
0.25596006783859554
0.3400041944012459
0.5400318735549118
0.22144615373175625
0.07749295595599304
0.052008691700490946
0.21604764550128341
0.07358530518733335
0.13448808408116325
0.27077765827821
0.14421867155385493
0.45427808146311244
0.10816068098981074
0.10036940947091365
0.09164301679865644
0.1227650739852499
0.19528966106690263
0.3433080434813254
0.17465338045709117
0.10993520451948735
0.17363687069324343
0.10913851511069105
0.15098330157410095
0.1645358148816213
0.12477124514248847
0.25080482401084253
0.13201755633651716
0.1650920351240934
0.10916291051599095
0.26405458649342867
0.10651201545059621
0.16389700132069404
0.15980145556238068
0.2578676265011635
0.15031052772195644
0.1519724221673178
0.1773383338093731
0.3150313349275781
0.028151486270199814
0.3087859835429121
0.11452399792217453
0.24700965639291284
0.2125265439700378
0.08473350083899184
0.24526205077669022
0.1457793646817537
0.21739712812281595
0.25244853339809986
0.24844355581788005
0.3046008885075066
0.407893297098791
0.1940712734781347
0.15044633516953895
0.5403931704650352
0.386984922962171
0.0752547231453378
0.3207948472464617
0.11904054620505211
0.11207261065489421
0.07519263802892454
0.15785782785551994
0.09028959202780405
0.10758654843040798
0.33641541850120066
0.13326622553213918
0.09527491135483644
0.13712425911632045
0.20743943691411473
0.01628322889444624
0.13740591935471158
0.23292593271569237
0.13990759945007156
0.08632885485101294
0.10075922998473608
0.13290948011495107
0.09461217852118496
0.3040988073291634
0.13055215259274022
0.14657978933599589
0.3174044567569762
0.1263708691415646
0.07054992419952068
0.1288033084522999
0.02098929088893331
0.34484591457928054
0.298030897302792
0.10930325616351598
0.2502378180824927
0.2878513498083338
0.2840391890514949
0.25837816405329483
0.09848249406514359
0.09990727452299086
0.26752818854491367
0.08941381754304145
0.2782028697101589
0.03907483657225232
0.2809351427369883
0.12318103624255937
0.19317481668699404
0.12098686128505003
0.10290125112999285
0.14623934486731183
0.10639033048363208
0.23679256009885224
0.21611232773305558
0.3166142645324996
0.29146162755114957
0.28046226556587356
0.26857638043505233
0.22865983217064179
0.32640615335187595
0.14930542084162882
0.032478355243715916
0.06060270671049052
0.38045473094072996
0.3053368506361484
0.24723711634365322
0.24922776500382263
0.1570301952764206
0.2491793184121051
0.26148312329178425
0.00872433684261464
0.2695438430339306
0.15007209415159004
0.05144011294137205
0.05041962034958605
0.11047200971207839
0.18087660028809283
0.024720129580340432
0.034228388514028915
0.0406268923132306
0.1644771463413668
0.07361829766034612
0.4189223702123715
0.20074817642624512
0.16414362247290543
0.10842065141196937
0.27986907566375874
0.3132324432068492
0.15003385187341423
0.08722009672696389
0.24489917334061814
0.2108691151320661
0.21747634522782752
0.11358423292255009
0.18759293115185058
0.37069664783155054
0.37843943393379453
0.05271252625979157
0.3180614000989215
0.350875149886818
0.3829386191936352
0.031899448649738135
0.038995671426106424
0.3485604429671547
0.1772749813732312
0.32359373319215273
0.07725740780158755
0.18150540159966883
0.2919771308893703
0.25701836094923575
0.19539488672378774
0.12184363040160047
0.24086418562080306
0.22713940363091248
0.30346663439716454
0.2943785134346753
0.2956436495834474
0.2389567686602425
0.08563677114892952
0.09337508459240046
0.05661898438230613
0.21315895163552598
0.25208971477535813
0.14606851580255897
0.03434862182977003
0.08815139426519333
0.18423807807423634
0.06262353385111416
0.3676819195311264
0.08542057694065891
0.05566351545047507
0.17045149401061455
0.1521844166443337
0.03943135977882821
0.17610202491782148
0.0913142530442459
0.08666600637582313
0.1056907126236083
0.14581686620758166
0.188041112337033
0.1115724445624512
0.15370248021526295
0.09208136028658646
0.1589220799054395
0.21261190422027754
0.23592444646606905
0.10639398958971949
0.13081200415452038
0.12754777881460078
0.10437840850712243
0.10304555745377875
0.14194983308417286
0.32152146725434955
0.125819800241094
0.09246205458420147
0.08612280694427926
0.11859402027431269
0.1074132094178316
0.06378704507394231
0.11060207917195952
0.113561471914733
0.09855003339412993
0.14091495160903145
0.2150619061880961
0.09282293855881045
0.11088070511549022
0.043264656352382025
0.05969000485502518
0.1277462509986545
0.2754243152530076
0.04325985248527345
0.15214875088111562
0.1868163714752959
0.36866228507744236
0.08884447659610918
0.06445036584567697
0.09871878435267055
0.08597309818310947
0.13295000037608287
0.12356455079042034
0.033108367614129476
0.15509909149512455
0.2595692538483193
0.07221455956884025
0.04037428645760683
0.10197914342346849
0.08625974853559698
0.1588468070123922
0.17840056879473373
0.36518017191185104
0.08139306080647905
0.06417891097717071
0.03486658516043405
0.1111997000817451
0.0899154522174215
0.06455608616026252
0.1191594894853531
0.1618680840375834
0.13386323637908928
0.19183485338704273
0.14340832323235947
0.13520530614917348
0.05279804953423029
0.18150187758829267
0.1250564095847727
0.07702970448283514
0.12832527384241055
0.13232666427349096
0.17514209176102535
0.12538716292832022
0.18929821398726732
0.1203537518147407
0.28055215595485866
0.3297314930188425
0.30947028737825977
0.20803329662353415
0.02956934701544385
0.20675186283558017
0.16177811096155112
0.23384175582726238
0.08443606750657949
0.10831623457818847
0.14644002466638162
0.1385703075659165
0.13498796328439816
0.08365598146464194
0.04681809338119491
0.10067994432252896
0.10290139793095404
0.09088390350229246
0.0327857919363876
0.08680957843846836
0.1216781477214238
0.047962416379282724
0.1339901075880807
0.05072514002608516
0.19920883665952288
0.3629064214519629
0.24116003789742138
0.2644050634474607
0.13770412841213667
0.17227439026666225
0.30307708946263645
0.053164040152813605
0.13647999494479318
0.24172975959913204
0.36667809185267647
0.036424498981242746
0.09978120755304902
0.17497631732869437
0.14123360056899492
0.0908415757753693
0.16350203877931915
0.1673777518038551
0.26720644721460274
0.16255636380410327
0.0889614632867771
0.10582075186001275
0.3077950276997495
0.1045286445770417
0.10452876066955415
0.34437810046253703
0.10070060103118045
0.14671858952465802
0.3693468524027292
0.09887179030524414
0.4121712278964765
0.16361563147127556
0.1667530903330056
0.20738373653856426
0.2333689105537679
0.05441129104896346
0.15731138829369076
0.38861399509560535
0.3536184687235419
0.36473862562771914
0.19535561689537365
0.34206937792128544
0.17711537615209466
0.30905406558655757
0.1612821193519303
0.08586978771712718
0.0440884793587597
0.08618152151613016
0.045453344272594974
0.09504413618671113
0.0730647277864273
0.1958080330697619
0.09151688760753468
0.10341060444622276
0.011699812622182698
0.07331458641429466
0.0391170105855057
0.06310734224421873
0.24516925489738262
0.10672003808552567
0.07047653448109807
0.06232425964144128
0.056508490226180125
0.11409905692346677
0.24100843508703781
0.3059949674565966
0.2770698205224789
0.10731268388899094
0.15826738713753374
0.029392355450466142
0.025828238525229443
0.13466359636020017
0.10300351529186917
0.17021648047673696
0.11296642072475382
0.17616876299481582
0.146613130673508
0.16113172376474275
0.18035339240022136
0.0692494244712032
0.0860780865644482
0.11842160770518059
0.12442032841568575
0.1466302910369889
0.1638054124018467
0.10859323434242073
0.1558014202154778
0.10031995230122609
0.14313688139685996
0.10952262869998163
0.08888309174831306
0.02521156633318025
0.04476292735501807
0.018074997142981074
0.04017316769434236
0.18172581145138567
0.036968549446867664
0.05844392489621377
0.10711307396377526
0.06106340214335294
0.0760191520918246
0.14763982353438582
0.03736422730467587
0.03520776666767956
0.04670652653810417
0.35353867955944834
0.3245018605194815
0.09799620036764614
0.08962463338902149
0.25562223363507186
0.27959161999599264
0.12533279054435476
0.2641503794653757
0.31912402490077507
0.23027429299897145
0.2771918933534959
0.3164709591836446
0.17175856777641382
0.3385940822348102
0.0746716867965372
0.12933040074355215
0.3280490173800185
0.32774357520437836
0.1914534788182404
0.3628305625106076
0.02718327552951863
0.1825641339903787
0.1356568321079865
0.2381399202541372
0.20645315129226138
0.1430947989665911
0.14662763155151648
0.015284001552707746
0.30117580362028074
0.15307093045931724
0.1700576674202603
0.13332091794825127
0.32673088396713906
0.13194353258160132
0.13736612465334608
0.11147539899500801
0.13080320442006285
0.3603017506655061
0.07490187080540298
0.19286648801640152
0.1537890337434318
0.08055659090712637
0.0799638805573557
0.16044918637018976
0.14156382205439463
0.08119808097731576
0.16754097094953382
0.15620619082587617
0.23282794168201273
0.12966813757006856
0.3319711974468593
0.01918666471480536
0.11385097738040931
0.17382975365076767
0.23379248395863297
0.45798850276832914
0.08364741220521701
0.24707620700582633
0.22793745204360852
0.060380260513186804
0.32505907379677207
0.309471231525742
0.06142439897779169
0.06009348186837829
0.10354260453744006
0.2700617644461608
0.04604076090477539
0.08462066329018032
0.1257010761768371
0.05221291493790201
0.07202354554951475
0.3280608020231925
0.36312002407851884
0.23212178949118034
0.11782585083044261
0.09409326555931724
0.25322700702881834
0.23756038790624856
0.11731855696059225
0.27917126492380157
0.1940099170349772
0.09994730102751796
0.1282623839520897
0.0964018302385374
0.1036598550841944
0.10817176938317109
0.07942340526767877
0.12301811916027827
0.1133286268574479
0.18470249663985103
0.12256913005269396
0.18084928185796945
0.21033109035807393
0.155315754302256
0.12095065473039836
0.03190436863089028
0.14154250515820568
0.14567747945785917
0.18788481956635164
0.1329262799374566
0.19601983408409523
0.15187610932122236
0.09586830349946651
0.023530797752608766
0.1164145710236897
0.07970872727889135
0.15954010800514792
0.10990307125200173
0.23194781521930802
0.04184506865065649
0.22146135512875445
0.2029283443211968
0.36502912443491303
0.1643236135017243
0.05209487586553633
0.07853800333314057
0.027881497028947263
0.18784966994468705
0.1649463958269748
0.2337652056336805
0.0998549915891968
0.06272863891997117
0.08786752361743251
0.1799443246668116
0.29372716390578135
0.3333229966196508
0.0947483681447971
0.15121926972612373
0.13599932709377774
0.18087390851879478
0.11847189959022242
0.11396916646092538
0.07344071066664287
0.1558954448090297
0.3151230377686565
0.0888913467542987
0.12981767631464425
0.31792549958435223
0.14590909853050182
0.1256636444477967
0.44464850164206615
0.19138553594780752
0.19837394024945149
0.16193021955046716
0.08048808788192291
0.16253119548815623
0.1907045284662065
0.16871014430279807
0.18396726658142423
0.10731553364669083
0.07291311556493185
0.06968688286117823
0.0700335370255412
0.12080831052152555
0.04114298664440263
0.16035589113615709
0.12938383009649967
0.0421907465354241
0.1296367869729572
0.06954029110572955
0.14919589260795368
0.06324699885432089
0.07133285237654909
0.1355456313054003
0.07542748487948701
0.1211540771025582
0.09059307707716767
0.01707272156150998
0.06361596807842405
0.021654854652949678
0.03282883979922947
0.16032116640140112
0.016578217211150728
0.08195377455035706
0.40922319253770595
0.055546771761539396
0.1493097015959889
0.11988067995166873
0.26330431383801367
0.18667788317327116
0.08937476196158055
0.255838659762078
0.10346809788575165
0.14400364784725508
0.19132189072806594
0.0915277845640179
0.08895511798893056
0.11016122849319628
0.26907807182966814
0.09389655048246302
0.05564552062659849
0.05785811993795901
0.179054281094601
0.16597323498659294
0.43452415302948416
0.439253750739671
0.2336803334353664
0.11672407854758873
0.2179513366989643
0.2453161057562785
0.08697924397312332
0.30193749199829134
0.15982380866260038
0.11076724378377625
0.12264058073019209
0.21614921450564314
0.033854061229162284
0.03095758781142142
0.1246756374646802
0.04045983338943591
0.054221431864250706
0.1635528230371488
0.03250182560573976
0.06818813738244363
0.048595261348822825
0.09329447499247466
0.19664361546810746
0.08115890417219365
0.07034116323018413
0.09720062625217817
0.2320168164053953
0.11228709082917075
0.06915487905669589
0.08844118015897266
0.2125300703202606
0.1473626539934148
0.1860897748369817
0.1254010344345821
0.0574711217526707
0.18091438082820033
0.10860298557966998
0.14735058306229387
0.06153429840912327
0.36205477429961147
0.03237992663249961
0.07108122519956696
0.06693288000193072
0.04320358047820844
0.08218068915667492
0.1401803089823931
0.029841346130244216
0.10260367401779388
0.30229222072039547
0.11146888121565385
0.16286033378285875
0.05969366606704057
0.29252919936150334
0.15102405630916788
0.1753857999401517
0.05899217191861916
0.06116946038563508
0.18871687894502845
0.06379729609316528
0.30413753949044736
0.18495725633458812
0.05697391861629329
0.10687092251359705
0.06649415159191031
0.08716261967634853
0.041704741090317306
0.09433428376904703
0.08656988470917756
0.1491303178239769
0.11167587957452807
0.26676336252426924
0.04544680412181031
0.1856198650603261
0.2658553801908902
0.1049416789952295
0.04214058216073912
0.1997844332662064
0.07556537788047783
0.07291671249439702
0.1351090663578121
0.19437232025178017
0.034489302589335025
0.13585898486735262
0.07282005841032536
0.12003478774843457
0.16534748988382408
0.18018295862605896
0.19639051517120426
0.3013446574344946
0.14524895901616328
0.07422009070178402
0.06155610987245121
0.31771245998002484
0.10313822218196718
0.04957186850473988
0.28909742945842465
0.28023778033393193
0.08936776368918052
0.28489580815780846
0.17198965590737023
0.24981129618343148
0.11399986446669638
0.2971415500170617
0.11398904244551517
0.17836898821120442
0.08497935681179654
0.30265517555580806
0.2648620056417629
0.13721052190084437
0.15130933608169356
0.09024227929025685
0.14714959860635896
0.09816649103913783
0.06505097368336511
0.1122000661958238
0.12769945822584972
0.05838309039552598
0.08916173079672918
0.14605152908790464
0.11613884192062846
0.3651870746127565
0.05573552534678343
0.10341175361782876
0.04782110481373875
0.14406459853872705
0.07284740085963994
0.04023548232555014
0.031220057647722673
0.029968488441727885
0.0280858456250998
0.05614893128683401
0.05797901773296344
0.05213272461569751
0.090499973732809
0.029692680702367257
0.1582034408789089
0.08465471598281525
0.09063212252238308
0.04598606370188841
0.033386244123116846
0.12893169265587065
0.05946279721881115
0.12355096340899153
0.16143720883424786
0.2571101939808165
0.02413671877725277
0.08130062693456906
0.10531050380313259
0.08603717893935778
0.21349476979213136
0.15461296687168607
0.17648484484752977
0.06958850411693664
0.07662739140920821
0.1627951956990928
0.12999191870699028
0.02175856952352479
0.04762453125080707
0.13043850504539192
0.04159301526365938
0.17070879487778953
0.13915668767039888
0.1276096097448261
0.14813348614874539
0.23261295386069294
0.08604203424985014
0.06269699600436401
0.034003951329625345
0.10206062811402004
0.07588225787114777
0.08308196398372426
0.15223912356483174
0.06726534949013804
0.20966471198309555
0.09931345409305822
0.08949502794016408
0.039238398930704244
0.3225307700143483
0.24990495641999563
0.07695526157114121
0.2786387382715403
0.39656161612860663
0.37875056030988336
0.16109318606735998
0.043937002765039104
0.23149852297313284
0.3497325519140983
0.34954030747846687
0.10797041441115464
0.44052797237743707
0.12435709757548741
0.09874023192435488
0.19342110100414953
0.03308195844191555
0.15081951217460432
0.273360416765449
0.06512318592858723
0.3306673159055892
0.10781980193428344
0.3602313148546189
0.14122465966522718
0.23552854868130874
0.04179358834487848
0.06150795512958495
0.055586070336932324
0.15474258121891546
0.0669909531968109
0.09857558146769588
0.07331877705358095
0.15802059835936202
0.24751324610223055
0.14220970932556526
0.04743412708046008
0.16043034109714013
0.23186493298144448
0.012504835143841576
0.08450165549675827
0.14929122086572277
0.13105488342591762
0.07421963260863965
0.1060711882419966
0.07367790149557892
0.11202954836505968
0.23187909230509457
0.09620840706188613
0.03737522769158426
0.04773517678279058
0.0488237274019069
0.03152005620068408
0.012993167797796187
0.05846239534690999
0.02679923994017249
0.06969179291111584
0.12472015332494091
0.02639566047138907
0.14513414893069926
0.06354771372278832
0.066903724856188
0.10658556645484692
0.0960978432332595
0.10450902713817031
0.16386640092956548
0.06972634658809006
0.12753096896558672
0.22413475365083554
0.06803711826335634
0.022237808529874455
0.24222917374511263
0.08654782838129502
0.10997360460564079
0.06094694888839482
0.060270507097033785
0.13007418731837425
0.0744882039092465
0.04760831650754621
0.3188448887806661
0.11499334192034995
0.055991097543147274
0.15877155004507842
0.09688970448463788
0.13907845997081372
0.14209403533820822
0.3209542368999737
0.03667626038057428
0.08758255700193565
0.11776517480575362
0.12020229833053811
0.16311774345780505
0.06224111871752607
0.08113835941720253
0.07831271127444665
0.2111625630043283
0.18175015006584574
0.10909870051628054
0.07465701793115888
0.21754204341888744
0.05768349291154561
0.10153301828382631
0.07831223859402539
0.06207217185464676
0.20754095719251392
0.2983323578897039
0.29568480366981237
0.028792884800895344
0.30102992215278274
0.33469493877907347
0.29211805584381184
0.29744292768874186
0.2823215368266185
0.07346632488087629
0.08259021615460717
0.07127297789785347
0.08458387248628531
0.2500001578790269
0.19555889444074553
0.03501695002403292
0.17774950757350363
0.0794167077602305
0.17902710278496473
0.026538831075571867
0.026973894132081334
0.058195795323888286
0.07241293364978628
0.1732952825846001
0.03837714951512175
0.06613783944206458
0.1324733571275056
0.15564488474010418
0.21812049019734586
0.19144377515378247
0.08183240469940595
0.048410853751973335
0.1532213175662827
0.1480589639491465
0.03196735850114587
0.044719237947107644
0.19534286296538322
0.0170513037198394
0.07869196648980566
0.021940416993787768
0.13115982372151408
0.06771565946433353
0.06497670872180172
0.10256049521040733
0.048781523793707815
0.058651817341303814
0.054093570829142075
0.06517207240845456
0.07657796799956856
0.03523180753374162
0.06367405704124156
0.07014350166280883
0.3481493069284754
0.04490034589995582
0.053935627910691473
0.2323561740828286
0.2197237159695003
0.3699820767516111
0.16133298483654301
0.2739216061445835
0.036519210018303966
0.22097754425408744
0.10703642676114586
0.2713012131592202
0.032164741356972684
0.20642441447216295
0.079581453240914
0.10975957801379597
0.1150428471568779
0.024082804917690662
0.13710114053224712
0.06536933532455112
0.05760665493969249
0.1082714688961807
0.1336372955726134
0.1971825467490692
0.1556549636600898
0.3991188099108501
0.08266072699289964
0.34746184544265796
0.15685061954465584
0.10143403281948067
0.03787181402846024
0.024279888098683144
0.07230787443646575
0.07748587299803725
0.08188322703341004
0.08058952349892598
0.22276348504150412
0.05660755269555351
0.08018717601831715
0.1996842849325497
0.10316108502758273
0.05539597935843647
0.14475940176341376
0.13011501643302908
0.053171541610894726
0.03153473662483872
0.036795132798926586
0.06344983506905086
0.03247874580564936
0.11597334152244357
0.11401668993709756
0.030900259891740355
0.06612306597934504
0.02069362651103122
0.07555772048423628
0.046030329822572845
0.096726312621386
0.030377107697062145
0.03831832139131427
0.021393016939514772
0.10872407888571735
0.09587353787152067
0.11297556033331961
0.11560072794639337
0.19191540156450093
0.14986540705267024
0.2016176778289353
0.19004590075617536
0.1750816325127108
0.0678534086729859
0.08809465700209139
0.10676418163391913
0.017855242775042163
0.06445128162651
0.028837560740987055
0.3509058999581873
0.1275916711454481
0.12282854769599205
0.02877398207829803
0.20614975557600262
0.16474681820274065
0.03726583346454517
0.23150642826289275
0.08014903667152481
0.2366591225671097
0.19595828591587022
0.13915998634574137
0.09194304979722702
0.08741635642499924
0.027633727204239306
0.037915009917012826
0.3239940310437674
0.21918903676843837
0.026353272074616258
0.11531142259153165
0.35342396249339125
0.08512266737645147
0.10464275548386598
0.07923505677778898
0.18410039775407924
0.2125035603524253
0.06770643711540004
0.10360194193135809
0.1160700037993366
0.15988025258882485
0.028462978947911208
0.17653262760038405
0.24803968896224513
0.0521067425924124
0.1309342039589425
0.16661851162651362
0.4355143710713954
0.013559079968555043
0.15563683869336487
0.15270039307761063
0.13036181292767393
0.20142993891221833
0.17761164483236289
0.14227605311375915
0.13971987101251038
0.14312041567964864
0.13664221742256094
0.1265444150372818
0.05422573781548412
0.03284445247984171
0.056874106596242674
0.10242895420857458
0.1153454004593009
0.05164138503662779
0.05906208314861683
0.1633288923451058
0.02892155079577051
0.18204645713285753
0.07655843591066927
0.1788384351959994
0.08381520965455204
0.08742339561590828
0.10822623019047047
0.34286714605218105
0.14948608534204957
0.23430031651117691
0.2730874237376916
0.3071845399808189
0.021211801813487023
0.06940460050290723
0.25999615425426936
0.09378974352943753
0.023894212865897057
0.121349318060807
0.24910470370737994
0.25052388079189447
0.34583684332116144
0.11372272411844966
0.20855263840330723
0.1941735663513402
0.03598481979080346
0.10900326561548765
0.010087198446083159
0.08781325633512725
0.09521321805880502
0.22233472250069178
0.01432939949167298
0.03320228690820683
0.18267668635306036
0.05237723454712844
0.06927833198405427
0.02421869165068031
0.16964691993178585
0.06954869088137047
0.06665785150445887
0.11666769977486421
0.11841704747369855
0.24868372535668706
0.2227609819562286
0.0927027650605359
0.25163337305061195
0.1246142058380038
0.1437418473425367
0.2603427639968013
0.1947949406274325
0.1332305881135678
0.15394622791565757
0.03650059455624124
0.11343289051584121
0.05579763263122929
0.09551468401154628
0.20441312704660808
0.22809778440230025
0.18266119958409965
0.13282964390991345
0.035450215113184906
0.10928264091382081
0.0527153897350033
0.2201494034634617
0.032778168568473015
0.24349777777984072
0.2120235090474385
0.19879088223450733
0.21479053124016156
0.015406847316841651
0.22803732354544537
0.05512510151155719
0.031124833476288204
0.0684220288625045
0.06226090648230895
0.06854114878221665
0.0986100705587839
0.215906632655437
0.09152098605568228
0.37784067020281004
0.04862967006187273
0.017176484213167413
0.23035901473789816
0.35371335948237564
0.26467905679729475
0.19073411779926613
0.05409561101600705
0.27409471880304787
0.051203519460999894
0.06823597953004054
0.1715113963153226
0.1291120966682247
0.22599647335764525
0.0943851903265801
0.3137259412983166
0.07251917684391972
0.10307542110763161
0.09755056005959198
0.14348841038667462
0.16560061076936763
0.07048789981203418
0.15443359447884816
0.10801933483224639
0.1155791569369351
0.03721351209354381
0.028660576713590655
0.14640571893962873
0.07869746725460344
0.03907449194831983
0.06509966257240363
0.2197949179248642
0.03872927839622274
0.15648959914990246
0.18142779102958898
0.06371836921077749
0.08490941336842553
0.0759312963567501
0.14714997499482133
0.1343823062727803
0.10454619601936142
0.21108850741000817
0.1895521101626172
0.3667885213757537
0.2539808886020706
0.10230870112182139
0.17095018212463686
0.31553789861077813
0.09860321333207832
0.10899423102335265
0.1835272106565508
0.19152933612876005
0.1858521072468816
0.20240235012267105
0.06333496224646636
0.059050175009775
0.10123655165378685
0.0770424230124454
0.07833572372026601
0.04591182749549125
0.21488565798872317
0.23958122970303405
0.0502253075291751
0.13852448114745827
0.23298549301809166
0.21065012876832406
0.20181857651216545
0.18801021529327644
0.20983850704908727
0.05337002010800301
0.08384512639844886
0.04037350116589498
0.1755121734176651
0.11401724585966351
0.08454734304453758
0.10926631886818963
0.15561312121263504
0.11760596355453369
0.01900811953638295
0.17952315471865488
0.186237581343296
0.05433731707870964
0.23612253956106985
0.1451363089415745
0.05892118775750644
0.18933131760767505
0.21640451891505957
0.07968736966760974
0.04617060053592344
0.43804566072103596
0.16333215024185888
0.36199984456785644
0.16226923094725682
0.13665063920138126
0.07885476588285044
0.1058413356025811
0.11371112931835944
0.12012510543970366
0.2166030703113613
0.15849777312467753
0.21167525124053543
0.11980880431786846
0.34128406484730617
0.15674353796792626
0.05763264555023771
0.20968148785724788
0.2948849923316957
0.09632518398219622
0.09212396865191441
0.03833482717046836
0.2839415723733019
0.05706465000080055
0.03583304860430622
0.11109835455472993
0.06585572873731566
0.17431969508714265
0.027742119647576936
0.06144614212815721
0.10434349519509929
0.0653116551490567
0.2795634356939368
0.28999406060174976
0.09332055747664085
0.13317907667506776
0.0829753292192434
0.1482996700258391
0.22104093284247953
0.26827278658010595
0.03411533553399695
0.03690535560118117
0.037799074980991554
0.05217621589806275
0.028794625831343113
0.033626340558730254
0.059858947282722536
0.1843818392316005
0.10774834887181169
0.08479446182569346
0.22425354382904983
0.12541309404486262
0.10228207292054844
0.03209243079342617
0.22470572683099058
0.07967058142019878
0.2552144341113756
0.2589030668175679
0.11732221860484221
0.15702102444113236
0.1845543779367925
0.07333481650742571
0.14264735954545746
0.04771204115475637
0.34490257788148243
0.07246030253200969
0.049335927551247036
0.11389840524920188
0.21124357180596526
0.15629098286028043
0.22456900646540268
0.24068289756381137
0.02803900611172575
0.18895680755057362
0.19364512153825128
0.08064007273993933
0.34917484734703996
0.0757045583390612
0.032087597117418966
0.12805274353354995
0.0413519007922972
0.11380617817885363
0.0757415575141212
0.062075618188322274
0.10722330022101355
0.06004637198459213
0.03939913100105782
0.12709091319420246
0.014540076483530655
0.026891717396384962
0.12691793772721482
0.11919564225645005
0.1009391044739151
0.13494782563655597
0.07776447067868072
0.17623216368655567
0.15692239005259395
0.13946955017967635
0.19218130462167696
0.09311859310759675
0.16873334711822593
0.15001735499737087
0.22265800824866902
0.09378599257613918
0.3059812624184471
0.0637801664255175
0.11031018575689096
0.06446992437093658
0.15290782715092135
0.14827422572680712
0.2122430291306445
0.0837087915933732
0.12600673672069698
0.08870711617305663
0.0590709800696054
0.2535180991187663
0.18083465074058455
0.12402822607632451
0.13066602496861135
0.12833660932268448
0.16108631703224477
0.18251536161974613
0.3201860240451267
0.31006373180634467
0.14008507028171277
0.3200987420925352
0.3287645076782453
0.11341977651238312
0.13537746287165148
0.22791589857451192
0.018342579621420455
0.13878502987232863
0.17024125354179817
0.05249030570931855
0.06542194844697079
0.2121625839015796
0.1978191224658811
0.21993902077033373
0.33307452292869644
0.08747407860584128
0.20513595910018337
0.15154787392414515
0.07493944200849398
0.0789878787388335
0.06131398093596891
0.21503650905587335
0.016815582876323378
0.20807091165012492
0.015147521720454377
0.17470159932822138
0.06240726711390769
0.05585912509268843
0.09237401513628701
0.22420697342632387
0.18226759251899374
0.09124048490928639
0.24856060139388594
0.3852506991973516
0.17372571491429403
0.018046100569796192
0.043828785349977986
0.12781499814446542
0.25242400024665396
0.27691935952201946
0.23808309097190253
0.10362109731497567
0.2576580313344356
0.05309130542307635
0.052590873240833926
0.16890812071980746
0.36382044479479014
0.08844435685083954
0.14828874681648474
0.2485169001544737
0.08820352898556906
0.3010889040120666
0.24557066922775989
0.17455486845442708
0.07922000353166468
0.12640445128833014
0.15101480242658583
0.043358984473609447
0.08005862644633886
0.0554116701349319
0.04197581663546397
0.0468242587084377
0.06306775978858306
0.14744645313743188
0.22171594347709728
0.26780884622550893
0.07837937608911502
0.027684804839240428
0.16623076654749902
0.29023273990862
0.15118127414056093
0.15082833100303097
0.1471923536858691
0.2653448601273127
0.1275251821913472
0.2183397683194087
0.1124916064643634
0.1922364355077678
0.20820457377883086
0.16163737015853372
0.10991129747885975
0.14339830599514897
0.1807020885805469
0.16270748669730042
0.19356269436057658
0.10688988843081783
0.05926064566686122
0.16411985153216738
0.12309496584967919
0.07146211618330646
0.0649597533962539
0.15902839063032556
0.13109968908983294
0.18060652371564265
0.04017210255477813
0.07334390421270712
0.14964591735355476
0.23725164550087705
0.0969652986833609
0.022534525976828694
0.15925838129549805
0.15183097788532748
0.017591156182875604
0.0697716812657115
0.21433447044868012
0.10059182253724065
0.1987843952465075
0.05976422817598309
0.08400933068750689
0.02170962781281559
0.32927647602380494
0.10827709088516543
0.06544770686352888
0.0767540074509713
0.06532813955500792
0.13312148430577725
0.14908274532509316
0.30942105616804755
0.045602918313847426
0.38715335675390256
0.09023089803128326
0.07101702049776085
0.07626950900928477
0.2052327835618123
0.1852844596582599
0.09305265759765874
0.046479722925976207
0.12402096424541172
0.023835817046962787
0.12231580465823254
0.0650420685160554
0.21612373367780638
0.2713199224686335
0.09281467091567987
0.17120724506389762
0.03183899587126008
0.16303607267111797
0.02804346441641452
0.13141595108392895
0.11617189138603665
0.030614267402311733
0.05253554282474954
0.11231970603030715
0.01963920777551762
0.3108861052674261
0.018220957178184748
0.016867530587301772
0.10585516759574444
0.03247070020314922
0.01983058282130585
0.2552316734867287
0.012478989056028792
0.1862609859515322
0.08780368046301118
0.23519888263194288
0.07216571038617524
0.3357965474956482
0.14211572187521854
0.10861642711279204
0.1219214864782739
0.15820825646943526
0.25443456177024204
0.11887538914021376
0.16197584412484908
0.20743899937156432
0.16326930745214477
0.08358338159759482
0.23698993468228272
0.10497978181785905
0.1721363915185114
0.34750829505462316
0.22060754261537224
0.2610583429952936
0.30563673741735786
0.16964369620907346
0.19681593956558402
0.1468777291688608
0.22526462760081983
0.11620662429181913
0.1486622904812362
0.18395239085249945
0.2354545625370619
0.14632799597962948
0.21020284353659993
0.06930523556068845
0.11013733789192655
0.1402100994203332
0.13202335324750564
0.11618741017531002
0.10862147538528023
0.07945193721260894
0.11650425837552515
0.1371724533412538
0.18263909223021296
0.13640148469682745
0.10232836305154987
0.1086277303622655
0.07820005533285032
0.15411540420828396
0.14419515260071034
0.1423908353368882
0.19456853711136338
0.2338735016231649
0.06339655700934342
0.10371180353348045
0.018871132479305334
0.3952531048308093
0.30894840934889994
0.14429059078111622
0.1669016333974996
0.23539092635330486
0.047510947918524594
0.047802196439116186
0.18052382470929498
0.08233397918774066
0.05997783202483164
0.11044804867665305
0.2895695123605765
0.029038641572760593
0.22094770516692375
0.35138489394462036
0.07096535963497327
0.21624531402422836
0.308540289294596
0.08239837640804917
0.23474712595773087
0.08746049030756367
0.21844221133540098
0.2392138102390686
0.3192288150453377
0.1014738900387814
0.13924394846237673
0.2235741065977421
0.20872420501605154
0.20858509979543166
0.14082632063147713
0.23836838850672395
0.20520950243666078
0.22982703448212569
0.43791395618445655
0.1224757238507777
0.11776738877755212
0.13448114642736594
0.06490409370298318
0.15643653758377266
0.13360544601881263
0.09680166300598486
0.060740774202400316
0.12540691797514203
0.44321906872458977
0.1335082472262951
0.1415398046558089
0.15580518291212536
0.2434079574457349
0.2585262274005974
0.024934708176935386
0.3899612703020974
0.11287900763892084
0.1252420439453207
0.10537323428364596
0.08004766984251135
0.19680928879625467
0.15699167043468354
0.21753206274064246
0.11897834795105146
0.09091444028456885
0.06204373365570783
0.055329645188515617
0.048736353427601756
0.08047744245854249
0.23863223579481366
0.32479056678600304
0.3376328666225872
0.19282344709913057
0.19555040858320621
0.13667767410609957
0.07057685792533748
0.1868429282863004
0.2030403602293753
0.22115736646298692
0.2726567419941236
0.09710574898199492
0.26621058484679566
0.3347653099861455
0.12654293262888128
0.1088198286607894
0.12264724589690426
0.25137122857926736
0.1278190645231754
0.22522257506635557
0.09629304987775941
0.1449280202059206
0.10161829450759745
0.09649484426835969
0.23415122788488205
0.16264980775581472
0.25941247467886086
0.06365326886077634
0.2776168705984004
0.42005789750789185
0.16432039924599984
0.25712185129964
0.04594637244569312
0.21428137809536132
0.12008366834295171
0.21443421312197797
0.16281955850467242
0.044838744944744595
0.0893033300955993
0.1219264383009505
0.0814799506295516
0.04617218883421671
0.16258550192261614
0.043872471917293175
0.05192556497518614
0.040875666180617685
0.05609438860402189
0.0868878570217658
0.10764392576616519
0.04571483823128622
0.12248178193906481
0.03342900476452036
0.28231399743008084
0.382834277253772
0.16083859882004542
0.08893161786780071
0.11284783055650771
0.07796784146205993
0.22830494360005843
0.039224448303112544
0.34381689295455015
0.08424545404606949
0.3444891594275374
0.2664199032239834
0.034912460235500264
0.07018604230363196
0.22511501439922119
0.3152233280022932
0.12512135787850978
0.05902525277622982
0.04828952200813793
0.17604326916829321
0.3459870975617244
0.12761643746055298
0.2834351184555999
0.054445024717371296
0.11374164504553225
0.07050891262389011
0.3184882839148071
0.3350004830558277
0.3614223377856028
0.15056032679866374
0.11629696785211602
0.12315874233258564
0.03842119793580831
0.029368782098221375
0.09400572749925896
0.19360329648353136
0.11939246152624408
0.15145746881520672
0.06352225162702495
0.2821773688681922
0.03661600912189146
0.11730815066615438
0.06979561005497757
0.08370244147164463
0.06667459826136263
0.07362131509600778
0.06411865016452124
0.03950532664033537
0.06846369459305496
0.07736888776545782
0.054451265215216337
0.1792024960631133
0.10358554285759573
0.07503680089474195
0.09772917345815492
0.09071605820140317
0.06437579019906021
0.28720941869834876
0.08116179162484861
0.03722717670088646
0.1847207693156901
0.2701953221475976
0.13092146959839315
0.1773004826578043
0.24059606954040877
0.22283000829651822
0.19464523336759704
0.13260592392994963
0.19346867488671243
0.1270488718005971
0.17949982364668143
0.3457377557183518
0.10801260734046392
0.0858080204928606
0.1174093230165989
0.26423944688509626
0.1435625999768576
0.17455408933413818
0.2866894840040596
0.11270614475641584
0.2642675141610568
0.11011826262107016
0.20907754284495084
0.26662766361031404
0.12989543190825623
0.19960375767910257
0.07786762120513796
0.1161715139813492
0.11470437098582989
0.08290928393366541
0.18603057118804037
0.029280870086655073
0.1446315539086462
0.0369619425590128
0.12406031624690353
0.13019768445184268
0.05930305000770667
0.1590502188779109
0.1231499166192429
0.15662453253021913
0.3636056540555009
0.14953017635130025
0.25457361544581275
0.1029635722068134
0.1562055936425408
0.18075555277808955
0.09681979078794335
0.2619087911705696
0.17118894024377979
0.19481528416494726
0.19411616945646426
0.2682223234332386
0.019260001786012976
0.17972685430069635
0.2626032164410637
0.1328122620464995
0.07937293619207934
0.26009756705781445
0.1865283290667382
0.13063265528823842
0.04886454090634592
0.030625119382938226
0.16656839925905198
0.07886080326688623
0.12051219641077417
0.11904175434708604
0.32146986127625193
0.5009777696952292
0.049646267285385855
0.16273393236272943
0.06540069935522004
0.03154107636786977
0.06686543908691935
0.03358499728067701
0.05015429570340609
0.048936048210161495
0.0823931380604178
0.0837477151367278
0.027146327209312756
0.05703930831272581
0.018392269280141944
0.032130023525678925
0.10973372002082066
0.20585520929690865
0.051961551585892496
0.19797189384568747
0.07973516513146328
0.08225751961346539
0.10920216499779951
0.07136608977803624
0.14375707589726536
0.1231151030806275
0.1364650492093323
0.032888613709062604
0.041254762322914695
0.17474436100586702
0.02864357043307831
0.15744747659404051
0.02980148177531043
0.051438485038176704
0.0681677955369044
0.05585863284960526
0.05825121913244365
0.33176419628173626
0.07069757702154848
0.05419298663020383
0.3096576144253932
0.05368654729240972
0.024977243859119733
0.175026525122641
0.10738791856232795
0.1055128854608026
0.31068409706947353
0.12375922772783234
0.09466591186613996
0.3095164588074424
0.19547960323032362
0.11670340482425692
0.09420702443632431
0.14125313696339753
0.11686637924114136
0.20051576479773653
0.0158369367951415
0.19902954660944194
0.20257415195141204
0.3747858012396008
0.10549139514971541
0.05241747608772478
0.1601658110011371
0.11187514529280228
0.03572679939594864
0.08916350428129909
0.06307308290065379
0.04499857415617928
0.057130660678282826
0.03151921853815599
0.04262484463837247
0.039338751575358946
0.06943389847886812
0.03705570520668627
0.057534226864804784
0.026220597937482003
0.044007082683102834
0.18075858939664036
0.2894510296195541
0.03780766453373888
0.08448899210668107
0.030363764620096767
0.08850560579845475
0.22734066353992083
0.02898463370975947
0.19601660073893346
0.122124939973226
0.06878905695054974
0.13625544879483692
0.10243491969010127
0.2722225722203756
0.18445535856043555
0.09484695826051362
0.05376616274399638
0.056399635808433976
0.08729209844107864
0.03884653255471437
0.06813773101013887
0.12692809397647636
0.20241517755740004
0.08101421415227866
0.10456162410627697
0.029198166286418584
0.08343595015839306
0.23059904333669157
0.19802384098907114
0.1339831604165342
0.07197256125560393
0.03234981496074344
0.02042444584520405
0.34765958201506936
0.013506950503492706
0.019018115380781575
0.0328456994968222
0.11392776945734329
0.05831148928086621
0.17115382785592057
0.15092298169983487
0.0496463155116042
0.06206714028705187
0.49063683837647915
0.22361614720451814
0.5061510419458618
0.0753383016921913
0.24130566593655076
0.10146456766672107
0.0827271427562614
0.10591626044564759
0.04707375275704674
0.13757052964873048
0.15886081028152235
0.11390290968016126
0.10171039497308881
0.22050455856723442
0.17619779837620286
0.14904715782121838
0.06620487367827935
0.201708494745408
0.1806535397962176
0.0796601498968471
0.15735257476219222
0.10717105967404675
0.18648555042593917
0.09245562795139718
0.02858608332009229
0.1092264432040695
0.18265061647620542
0.2078267346325023
0.04936258714153597
0.19883580496975656
0.11286094133851811
0.10886388409084839
0.023095745955736616
0.19579265614138652
0.013830379139241088
0.09113482096396831
0.018688440299750034
0.025200927088392146
0.19946324837975699
0.11764734696042531
0.15069168245598086
0.09933045757689257
0.10470314814476123
0.020933244459188934
0.2021833945451129
0.08179209645998183
0.15890391257093464
0.11159572107856897
0.4287465128089899
0.14077116553293798
0.2133453934999115
0.2603460845075974
0.24735870345529123
0.29051488488432947
0.3008788478192198
0.11374174702183037
0.1093868843524328
0.05495903564606084
0.13458366384302256
0.11403216197036213
0.32061726326642853
0.09811907153073374
0.199225169372178
0.19530236918056637
0.2030879030241278
0.12370557201062202
0.0407063233085864
0.11324904829098043
0.057735676644316454
0.26526704242772503
0.1110877989220407
0.3098210362709544
0.07062701189887835
0.25662893594534125
0.26234278229875035
0.22666941949899977
0.08257073559378465
0.20506211703476268
0.16785872028985807
0.22175588082692071
0.14419168955609035
0.06748534291380476
0.20561809369167255
0.08723203013174115
0.04262995091515609
0.20793417111147663
0.09525297910840665
0.1196305299881081
0.10456796291899517
0.09067671555703091
0.07070811709137877
0.011444307551826134
0.07328705961022071
0.03506773515184313
0.09977015324845855
0.12044248592123022
0.06757655749146578
0.06937322838607313
0.014638564767523655
0.010901281635452946
0.07080013154717921
0.044233036501087473
0.1053831338904206
0.12835307009960406
0.11330061705809079
0.22089158162429384
0.012021473067269701
0.08417699640993082
0.35097241768230214
0.32831192256958414
0.22746429452669384
0.060477193306943296
0.28193179120097256
0.39287064224571683
0.12595877319627447
0.09429324877980597
0.05715388626238026
0.05004346111862336
0.05122496149647207
0.33586427331494695
0.40996331681229536
0.13578237645097235
0.05376712288100835
0.1935313085469025
0.22679449132313284
0.27057690813985574
0.33113936107293573
0.3688410523819755
0.04596361316281081
0.3155857061030047
0.031013025757170735
0.13546485726071802
0.24638694761910768
0.38729334865753345
0.102196281624669
0.3560081893898325
0.09489040120443783
0.13190598132807704
0.29509488487144026
0.31243930372921064
0.06571118655146072
0.038713670135182975
0.005637153370728361
0.0542152531898527
0.28968885277115886
0.030966077870139344
0.007623670671457269
0.40245839378710385
0.0720776151442814
0.032351971052656976
0.15827407533932003
0.05932338048798515
0.152676082906816
0.21964540906959687
0.2600966465501929
0.19147461544284541
0.35443155721246594
0.12220065710181373
0.15356319925392528
0.27664620788663746
0.16557552913320658
0.3161845331138326
0.3278233923139228
0.19330667868375256
0.07190647066324757
0.14522172173441747
0.11613272452682108
0.18920463048462552
0.3390855265187388
0.09759377388817875
0.02756193815902379
0.0906880588718213
0.07088595267419397
0.09307846189019166
0.2449682616346426
0.23960877704195896
0.06292264901721917
0.03600546863218116
0.22156633209293303
0.11008469782969038
0.13651446944539897
0.10302122884141676
0.058720363539933505
0.10724213698509495
0.14352030524197992
0.37361668325387426
0.019112871899950964
0.03948094178958075
0.054704405555890914
0.14129957145691932
0.14337015939292527
0.11052731250544863
0.05531481006110961
0.043186930196538784
0.1010394463994852
0.06741272956887456
0.057457361583120016
0.05807409489132405
0.19281421900360016
0.1146930133221687
0.13969487363448987
0.012047776091242409
0.05569716162442871
0.34628353772397014
0.09070132619939773
0.047100111326217636
0.06606622843547136
0.014485666074887604
0.025563936582846142
0.018892482304015086
0.23308931195479296
0.1532131621255792
0.19944818176154913
0.017425902580577055
0.022604253654510496
0.18469323620358064
0.03775885163526634
0.2071205135100363
0.32895585970586405
0.056652916715912806
0.10948026539509202
0.33783730602922846
0.12444256822845666
0.2943261903371755
0.31674358811860304
0.3923150323691355
0.08529420795283438
0.06561075378101631
0.11880295947205004
0.39013921331641827
0.19429701951964914
0.36251346604663065
0.08063661683568926
0.33523499503671655
0.2265643946863674
0.28138077335896183
0.3575920109653622
0.07941881134560333
0.061083058749153436
0.1043004803898031
0.07693927937865998
0.2442111102718392
0.12497289536482677
0.2142860385293894
0.16520797399937376
0.28072140194573597
0.18626637031767476
0.09002821747373507
0.14796072891010092
0.059722235054361035
0.05967826497478069
0.15463631444595036
0.20816823931939885
0.19214466715827544
0.0768816051334049
0.08744218952742551
0.04603797235618973
0.27104148496295455
0.2877351066959945
0.07733844274630694
0.10566905649012232
0.035387611566121295
0.10157616778370701
0.13455583062485593
0.016206693326960352
0.194466551135499
0.030094399806230455
0.058480973400549724
0.3026011682597393
0.10345441731414051
0.49214777699153883
0.36866120227697563
0.3333098978967764
0.29617203155811944
0.3648293539915895
0.07437345419504614
0.10738528841688952
0.10781221983739207
0.029404746584838774
0.12137931853224868
0.12585707078017888
0.28544912977042014
0.35450616929155343
0.18802973144203292
0.1530496523217504
0.2951197688496025
0.12101267107524281
0.13198156540182368
0.08008496719134055
0.21110871938338518
0.05709236246345934
0.2602712710904111
0.06070879764169416
0.01738680802929293
0.17734684349814836
0.11598237125093208
0.07846783647796206
0.0783284506800605
0.09983842165527193
0.099071743671048
0.020705634863537055
0.11148622761013471
0.08856391271511015
0.0339271837257542
0.15192287503360163
0.07150132150139095
0.11420993987863685
0.06374901366105895
0.04420356244653602
0.051353143995829666
0.07987165093520089
0.18016017230188816
0.23744848909863667
0.11653070310609899
0.08933237775107586
0.02797045333471362
0.22879622799957963
0.053175171996923
0.37609090804436807
0.1080306383209201
0.11363335361152864
0.1746197130938974
0.19817396897513254
0.35612063592287996
0.24995427182799898
0.150792602351173
0.06162992918990183
0.2158721318138031
0.029924138055424494
0.1223015366289797
0.0377720960646237
0.1357892196011463
0.17039951530299915
0.1299922120704528
0.021727825598607524
0.027499263299371655
0.04247006943175749
0.28394924204091904
0.16144070817641723
0.2103137558670516
0.16582355353377864
0.05523208700977183
0.1051509586563139
0.07434370552110106
0.06087597610403973
0.06513720963363376
0.23979587127268256
0.05432227788783317
0.03284175363574277
0.11035177097670708
0.19910169231295302
0.1082616844750413
0.13286439320420518
0.13327346328398096
0.11684636760590657
0.2828673730658409
0.14437509145510158
0.05053533937321594
0.217803089806764
0.13546586074163403
0.055078550156569483
0.14037752867549738
0.16951391290813125
0.27686923407401265
0.11499241179768568
0.25613185159803453
0.2157712714707285
0.2730380656985351
0.04926307283366795
0.03990008025779913
0.2845675298879723
0.2713896339859101
0.13764417010896313
0.038826574533072936
0.053804508075755264
0.0554836458591549
0.11201942400720986
0.05015868866594877
0.10477565970020968
0.1096918332004645
0.09931691760905287
0.08168649358513608
0.0270622211672401
0.046706205287086675
0.10601141293670974
0.08181862291154844
0.04169250500890939
0.08570239296696262
0.3675766701287201
0.25172424703654683
0.2778915282269146
0.22269481504763972
0.037642775636342225
0.04848908324585885
0.35210382343003965
0.05307785127546397
0.02088335718524389
0.32320724403674966
0.4056767752112122
0.18907864069437963
0.13343874034904604
0.1125587074226078
0.22407281828319234
0.13288663573763787
0.18348578924350348
0.3635268076424354
0.2042252073508831
0.20025436876204294
0.21132563755229675
0.15649977195186335
0.22502079615106177
0.051133025106128806
0.19878381876297294
0.20277875552330735
0.263247673464258
0.07975041051685083
0.27241580596510107
0.20594927741479893
0.19954978562324982
0.19765941474376797
0.200289950228435
0.21748743973728268
0.2017818562616195
0.06474728964317344
0.05692024891988764
0.1313609733690647
0.13401044228819264
0.06842129068035865
0.05576846062180268
0.05084262339440282
0.03015348454278995
0.04874178773510547
0.08895804405511437
0.3571761797643024
0.17599232682682242
0.07223078513617859
0.053994573175680995
0.06865048984347646
0.19836751331180152
0.11863741026714014
0.027084001279160306
0.1990300056236604
0.10925322272030195
0.08433348760893518
0.42369478532593613
0.18221981002884127
0.21234346690804445
0.2270441581290232
0.2791561497483452
0.27990841024172197
0.16921682684861902
0.13696346360776682
0.13930490920397254
0.13272710713452282
0.26776557346966734
0.2281826330370905
0.05701598846946907
0.12237525411800426
0.03995262059586869
0.10722418651385555
0.036460453103753315
0.09609277075350672
0.2003759979779428
0.3376280135913445
0.1610616704781185
0.21671868188533755
0.0548732021267067
0.22182621850482515
0.21995010412415786
0.04798144114542257
0.06324386312039007
0.033056047744230474
0.27974153544729846
0.32738277613313965
0.1063176432619864
0.04730926882302807
0.048571928144323845
0.2529127621189581
0.2670818215629413
0.1720317400377307
0.06702893565553222
0.3175129285716167
0.05390606313492964
0.1158449366253562
0.26816039978137896
0.06281751789620514
0.48092938769903354
0.4572133590869901
0.10768242427350516
0.5195158614018065
0.3273074713234133
0.07577980434587442
0.2355900973757494
0.030305225500882715
0.48170196379932767
0.25115746096637315
0.16489220146966602
0.2553868596829713
0.23529163238773212
0.2569528727188456
0.19680714185953385
0.18393024249112366
0.25371798248246014
0.3318092348879376
0.2037652570365731
0.2033796392401563
0.21062583151984351
0.1782034806201631
0.29796784500084
0.2133564134873331
0.13991786598190228
0.35341727046183463
0.3283557201713595
0.2217611817208792
0.2929105060753129
0.030465032428929558
0.07530831316454474
0.1329550706649172
0.32256712054967007
0.33556991491822996
0.24012734661464305
0.33109326155642516
0.06280915931223949
0.3842634470916529
0.3860392615664031
0.2952616978905824
0.3278416408121448
0.2924331125704404
0.15818102201147813
0.05283199839574489
0.20500856720087615
0.1324349305162303
0.4619924663849146
0.19181336953649966
0.33489110033843994
0.08762863753224663
0.04443838701952265
0.26190880248271553
0.5136245804501982
0.023135140172504835
0.35603346451099216
0.16600368074491045
0.038825516626748824
0.16194677643799843
0.21661598016901687
0.13551093148526042
0.18814539775184297
0.11577357525395714
0.24306555174328875
0.145903198035119
0.18347511114543671
0.19311485925117097
0.1238423951115926
0.1817777656382236
0.22262119031342537
0.29258005074699284
0.25809966197816603
0.2055565157140219
0.2528650947336014
0.12855684202918785
0.10487050178170408
0.2005811326816037
0.18027780252019943
0.21317970508116324
0.10143118246594163
0.08356367443539621
0.09737614740081099
0.21053197932682152
0.4171534673503035
0.38687934675994706
0.15171514264018277
0.4624112880701065
0.025449603998363098
0.21167753315694993
0.15977333139726083
0.11056151255655554
0.14056159125986137
0.23051410209812867
0.11125747901136486
0.2432069955220904
0.08403221447039003
0.34076309993224774
0.475797953448333
0.22596186532154483
0.4134418103782524
0.35365932113674253
0.2082806378924677
0.3791964449171298
0.10370430995170928
0.19078730070885183
0.2071159896103596
0.07480280966797088
0.19670706797039045
0.25181349190385066
0.1862971404459727
0.15371109645674771
0.16186161806902008
0.14303332636699262
0.2387171650729514
0.010038466534849508
0.20671423040325315
0.04573699808008274
0.0966211989723507
0.0819879782687717
0.21813108762148106
0.04004233371510324
0.12341577129319205
0.07175680078339251
0.07837279368011696
0.2549148163083044
0.25385250539213267
0.06490052077728585
0.18152925126563044
0.14246412789808308
0.18850613361349794
0.07449433331752708
0.04728240060805005
0.08783498350143096
0.17258443800105772
0.3476678352757345
0.1126295745107953
0.10164574244197962
0.05662722358784318
0.1599627265306584
0.20154648158024027
0.021405614889160256
0.11793030509174983
0.09067182283163407
0.18539656695475518
0.20717516085422322
0.2477106202729875
0.23057988161904955
0.36563678323375437
0.06279877525043412
0.19590500933096291
0.36988717909009783
0.10299515712175447
0.36390594265522735
0.09909710523841579
0.08723484894710108
0.2853753673169552
0.1712723942727122
0.36952934782410984
0.1131948160053516
0.07732820404917333
0.34321944764490514
0.1549161032334866
0.13145165564805913
0.04104728760545114
0.03817506292741686
0.31730491052637877
0.0656174696366654
0.37352071600062087
0.35771673110388946
0.08503342268652243
0.44588747245804794
0.36780956685100646
0.08684415648110075
0.16153173584355407
0.28634758904729674
0.2899656490756177
0.30751599613501335
0.024207572088757328
0.05824204022107192
0.12098866278739998
0.15527437195017066
0.06370291932712346
0.19313058942505515
0.07097636747897443
0.07603864212711654
0.2091343149213725
0.06333413585474293
0.16946613751810385
0.4072955046368678
0.16577523367788086
0.025375958748629187
0.11768804613058192
0.09287322168600365
0.2517655826886398
0.08779980688415075
0.20511200346903286
0.08122042729667898
0.1774837252704727
0.20026116543575426
0.21234796671418155
0.2035007952578541
0.26464978311682397
0.2071760320160313
0.1547936536430679
0.15043357228399104
0.07413661280110295
0.27098147599019506
0.1711732492051673
0.20606084308835435
0.10108546952381299
0.10145540072762281
0.08207662292656062
0.32894953333630045
0.1622965786536598
0.2132914912682787
0.3319173992600784
0.20686686986767874
0.32690062378392176
0.361347026344226
0.20195104559398505
0.22109673534357488
0.29814573085209367
0.3681950596476499
0.26125537394927933
0.3991730612474916
0.38963503222443885
0.3892660949044623
0.2811369192390684
0.03798043013266421
0.04722691742047701
0.10400780627278544
0.22094033783345243
0.33395185011846906
0.4004627276519301
0.08826425927317455
0.030961117657848536
0.04865054933035823
0.05896840000817028
0.11101500669526052
0.16832888657111408
0.12841848098704806
0.04586166472044316
0.0426928761590201
0.03568286845909668
0.077318848110697
0.20806890543670906
0.09530721106286491
0.09972125812515749
0.1527514002165875
0.16412074844096397
0.10383174798162824
0.1782518434210073
0.10502481237353954
0.034751538391819076
0.07384031814440187
0.24667367590240505
0.051742801880247366
0.12904703809628512
0.09161661186577603
0.10347850829245721
0.09615402007559155
0.2139336430167748
0.32652241237396906
0.05499855624497666
0.141116308431327
0.20526885270093567
0.07330620993888946
0.22074610680895607
0.3245234109876973
0.18905224097195225
0.033602879506514506
0.0523275601057446
0.2529601427492839
0.4319515771903056
0.13888084653358118
0.2873191985886189
0.11830096188974744
0.05111791806986169
0.08946583877164696
0.3541804540435259
0.07681861628183097
0.24621042779224955
0.13898762515772606
0.3241327226436914
0.2255853121497773
0.16136992593350308
0.305138603683381
0.20815512289961535
0.15848303113305207
0.29468652056699346
0.08777111138971429
0.31562651865193286
0.09329482430737465
0.11117867523394227
0.17424636617726832
0.15646876264220203
0.44104698366439765
0.2351109119900353
0.2491679010059675
0.05339039977684757
0.11151931553636979
0.20673925152978598
0.23280397196943226
0.09848215738975406
0.12012245108949626
0.11809466478392833
0.2948154955861712
0.09832270132222416
0.12597887563748178
0.05156221050423643
0.07918588713483878
0.2865429676510028
0.059733848524664415
0.12358659754182678
0.14836709346933344
0.26428244943566315
0.010606317043455663
0.07797710056327252
0.029969968624525344
0.16532229200820261
0.22912539237484744
0.022009728038645492
0.031140879938840432
0.3564172043339192
0.28866012304398403
0.1179487620829572
0.19011563739617135
0.0401846842063699
0.16606901215118927
0.028050856762567272
0.1511044665266268
0.05870534272861746
0.16207828457903145
0.15088227264510615
0.05697100148242601
0.12165083444005384
0.24502624423151206
0.1302360216247857
0.312572589156793
0.10837286438133176
0.3217363499918004
0.237212249691356
0.06987394602658478
0.08893709345519878
0.3539172170426153
0.15934713517616272
0.13021989640408435
0.2123059437016401
0.041469471640171035
0.048432815127901735
0.1133864898123772
0.10836815220720013
0.07573368143542328
0.042610511188236
0.06170584379195272
0.06904715218428922
0.18484611705258705
0.15873839261966832
0.1407976085751096
0.20657934115161314
0.17746957516531636
0.25017597317055473
0.07704106122264916
0.0820958825291913
0.1936576800291355
0.20135523621946144
0.2124370822642165
0.18296454788031674
0.03674037241079859
0.1178432153905598
0.0682066307262779
0.30160971239835777
0.16616713460147245
0.058296867930463576
0.11794301034382416
0.018503113466850286
0.2907371196766105
0.014623659320463531
0.0292657366956629
0.04233502185231589
0.08436133950765203
0.09538858858867869
0.1302700093049956
0.067569180230496
0.03390332016392811
0.05819208850374681
0.08275236994251749
0.039226198033417585
0.26025927233324353
0.10661572907364245
0.3051496439354816
0.20271045787665914
0.23518160988815406
0.17166012924020627
0.1756012379240416
0.06195411788773353
0.19230511771956954
0.26455268859534636
0.00845496357113319
0.1239196028936172
0.3394506508300271
0.2594293759205667
0.09144181016870755
0.2083533334445134
0.11196345085961128
0.14524089848742663
0.06734701080060486
0.16383068117782942
0.0239391844733411
0.13733330836538046
0.09698822679605469
0.05305632289859882
0.19223156342965242
0.07910210102784296
0.18331445143516303
0.07432283104132031
0.01629134421508014
0.0772184376935582
0.09915270518078648
0.03006399681523572
0.21463354012014063
0.29274235038803004
0.044631038136163884
0.04761775312312259
0.04889300357755387
0.11726314159926907
0.13448830778128196
0.1730759857433938
0.09663271364264776
0.0557333533786557
0.05813967488696845
0.03117059578878266
0.2142670286973036
0.07477625671145119
0.07424452886263463
0.03760273492876353
0.050675841995295234
0.0375006516664361
0.2118699623194253
0.2560048429004391
0.050310905841331154
0.19718284353431464
0.13695095905112303
0.17244968614529374
0.12546557139796852
0.12440113003254122
0.15400351506191431
0.01969088005626436
0.1590939252668815
0.2355012708547166
0.14775798195766876
0.033135585736493965
0.18654407113873323
0.14347100217795658
0.49914236798505385
0.1646903737495379
0.0935294889869686
0.23567381933433576
0.1456592093430386
0.03900936471498569
0.11513607693292706
0.14196474134953826
0.27850536570660567
0.26058662265074145
0.010426250499672697
0.2574279417043067
0.22774173408035023
0.1691179179316079
0.09259576408262028
0.044612072441152804
0.04947154849137471
0.0506162070960751
0.04414061790709001
0.3266529251683363
0.016633775532278815
0.03591580946493119
0.03593902860393853
0.04080089640660494
0.0074124412414673605
0.024401170675943974
0.09936636214715783
0.5179211127165945
0.13692376490504854
0.061937276023747614
0.10572210457250915
0.02558774283487874
0.018553790421584115
0.1667456113163218
0.17830843503958768
0.012023428161826478
0.23908980522431303
0.07214378781597945
0.11989820184058063
0.33117005062428445
0.1723347922801148
0.10016941695692244
0.35776420765391703
0.07778672171363907
0.11349273029657342
0.1952485939485045
0.13325737187539022
0.11078425586206776
0.0509120025608884
0.0743843088106004
0.14349506726417702
0.06320310093927177
0.028769096073760467
0.027317267583686473
0.18642756375694913
0.07689814234568428
0.1106244645903549
0.08833310268207896
0.1626317730136819
0.1167849223595997
0.39784251302397716
0.09380239617381206
0.088863039268312
0.14713249448929314
0.14138436044050415
0.20995669172988743
0.04959388205312522
0.07126542917046899
0.1298276519689932
0.464474782452024
0.06406468986021643
0.2814601274856024
0.12308238862007996
0.10642567138198361
0.20594269161099552
0.039453719695548235
0.03210546759093809
0.02495824448619095
0.17443448315595717
0.03172544775296087
0.04238236299558442
0.037790122045137285
0.018155129887900016
0.2022414771937875
0.3350243889211531
0.02844978257137377
0.12847077830085082
0.026504495135178465
0.26670293711691995
0.044821078341143634
0.08019268950164218
0.2850948472818583
0.18406345563926724
0.03102760071558998
0.3209039164212568
0.10316557094450637
0.042443224183760925
0.1734412944817593
0.5337600944599571
0.08953914564294212
0.1131570044038569
0.25292055349601045
0.09324528531270297
0.079906218670735
0.27571639266793146
0.046954599055513746
0.08187947164644917
0.1474896435237487
0.1376134374355874
0.4101972628956055
0.1573299693434021
0.19286608594071464
0.1672489324533712
0.10472461997823887
0.08753464906272272
0.20866413223615446
0.08035089659916382
0.04244296893655267
0.19156320110144404
0.07407644857290663
0.19864026814544175
0.1473886987793192
0.09624954694136695
0.11756480074276719
0.0883307730328105
0.058450528296037384
0.19117025193805817
0.021232364040611157
0.01158992509515918
0.006551098371512239
0.05075044739148442
0.05272964699040323
0.15156894222759934
0.1526300649002347
0.2937370244538993
0.08993188666644857
0.2786596993650806
0.22654881600829926
0.14496501118868557
0.20696119717674785
0.16387961695002487
0.2264557371643786
0.14795488699703088
0.02783373208516313
0.14613760730669295
0.1375071522869013
0.20853971663730003
0.1783590340261297
0.12417671954071662
0.41819214583781444
0.1853967842731452
0.10106554445761941
0.03237470788344497
0.16509575784785738
0.07464359925061434
0.0877909417983348
0.36006433980499875
0.14856485720788112
0.023117339470134505
0.14065510900338765
0.18692115394423747
0.24493657734856203
0.04479036567380642
0.10101755107695437
0.0255181904687319
0.061096538760066474
0.0279660677313971
0.08355080368382047
0.08533748269753759
0.046590961921571354
0.3050461773401292
0.0830132319035149
0.052820692907221925
0.026408234343457567
0.10579565174025299
0.03839031032082503
0.02074083280130813
0.04316666082989211
0.0892475977323225
0.06164084808440603
0.051070561529420286
0.28500970621219024
0.1876339330615823
0.2540318540343215
0.2170831129988659
0.02823100880705187
0.18199792494873843
0.12473099722913561
0.011946784896527611
0.1383034642075986
0.1689421080553024
0.12138971898514944
0.14363892748506854
0.06995634171536706
0.31734240972031885
0.11736747487026022
0.18093474778483531
0.1378865385711066
0.1509354908296886
0.17390099974884896
0.18019792449575817
0.06786865425233989
0.15918660857733558
0.205877020717069
0.17882882153394275
0.10719558869000477
0.2864581935223499
0.1875389620586417
0.19056417489406619
0.25355164760882637
0.15774291025790854
0.14121715676077048
0.15214217668859517
0.1269142525917333
0.30068093249328737
0.15819325705669915
0.18716933041733794
0.3213287037103754
0.20711785439656238
0.1960678123029544
0.06511442848233753
0.3782024073102746
0.08275218487107369
0.07475043336182595
0.05674985973815548
0.15784602313493884
0.29738202965198585
0.03828125500185208
0.15639940033781427
0.32789942359551416
0.15091710390114849
0.13182079739869576
0.491915748867554
0.12959301064870313
0.3049517155267699
0.49004778407932115
0.5782680100650105
0.1436723542685922
0.37235179521715717
0.08924876493701463
0.3389270699872225
0.05055142567601609
0.06859511380822945
0.12528849384349294
0.06404436087481467
0.03876438043361154
0.3377979713684061
0.047183147822325196
0.2893454081792953
0.10457683740493438
0.23345748948227943
0.27336744768669735
0.11815919042962733
0.14807549822980628
0.2060174203615428
0.4855333689332956
0.16193884062003105
0.05354229229664523
0.11281392088508164
0.057633134388791786
0.17509625358203357
0.2583207800278976
0.06488422833668472
0.04185252241995656
0.39488172901886753
0.11900955346240912
0.0484707296572402
0.30058738427138065
0.14399401560233338
0.19899700373406018
0.07087350309877655
0.15567607588783708
0.14999090467917323
0.05822555959656561
0.24062790025656708
0.17656732925940416
0.12659260488373703
0.4590589913980793
0.36951196308714956
0.5228952736540011
0.17298592333630303
0.10590060703885229
0.07598163080584297
0.3497717954909636
0.3697592105000211
0.03255522611373171
0.032064739586517337
0.1906553808938478
0.02573342232375125
0.027542440088862485
0.34500885812923665
0.5109109766138218
0.10015816192345463
0.11003285783723578
0.13000931701439944
0.21312189522455352
0.09444515610457914
0.048899613046182976
0.06707950865192563
0.1970778981912878
0.16585781051538692
0.1149248707371751
0.09016737891827623
0.09499362707334175
0.11038569586070099
0.1709433107744681
0.09475910809557675
0.14472625840101253
0.41893745475861643
0.04060792485303308
0.1805077578818347
0.40163260294386427
0.1355023576075657
0.07858273416613333
0.4993574643729871
0.04239738728866951
0.09424889464449067
0.36172008361307767
0.10083556247441136
0.18440503846292006
0.5075200635453145
0.28777044835296184
0.05043710151202691
0.1618300966479298
0.050177294452142536
0.5448216356395685
0.5452766130228938
0.34236155193882783
0.09601453222188554
0.36206615063422365
0.08906962031665559
0.15859010255454328
0.17398937666947156
0.2548415998386329
0.0678481154574588
0.11817713144960759
0.19141472996624018
0.12865591554398978
0.054832277544702844
0.14162300206724165
0.3897984884739492
0.1843652922168605
0.04521696310072066
0.12436035036307777
0.2600402951689064
0.05952972200594532
0.08244577865051021
0.3033877554150179
0.24001904816829642
0.2638719308764627
0.10055873730593458
0.23694255699805805
0.31153439234046326
0.06200617056904037
0.16592266525049662
0.26747680491156495
0.12575916386430636
0.20401487880352737
0.10032965241941384
0.09475881414695056
0.3294017354379667
0.08585125834944667
0.3885093072110722
0.2969474336223191
0.07620420249409994
0.4839246438431031
0.12431122802277367
0.15023756165744637
0.1089820784889963
0.5393351272182968
0.05481608997896869
0.540375851499429
0.09448642190842914
0.526428299338935
0.07103011482311845
0.2712261355094985
0.2201416085133389
0.09187215412103138
0.2311152779254049
0.18598936899901644
0.4172634741209867
0.07383936987221827
0.25525229171863933
0.34560028970130613
0.05010828089725137
0.15891833424719884
0.18441991355539894
0.4109383496597464
0.21612876513401322
0.130964129656712
0.12800820024385684
0.09310731143039484
0.3880191030259138
0.09913886707173761
0.037623159660420395
0.23026014879848172
0.05287036449345718
0.07238793468687563
0.09290746860910344
0.12022509353614856
0.2651261716987099
0.17575165024449366
0.17499696682315538
0.10029576420310941
0.14106693436231996
0.13440434619266975
0.1263474021721389
0.12804364542822227
0.12657178130336
0.1362708956790278
0.09528192874862136
0.04617448162490751
0.011711203259926146
0.08253767911820463
0.10328893646632405
0.42802206594041375
0.4063865667200285
0.10391333136068671
0.35773727688444
0.09175958231599944
0.34020752924096903
0.16182131236268646
0.0607631570221897
0.09139298299388714
0.35748221972073363
0.20857364878013304
0.3463324218467055
0.30771286367500134
0.20402683811453237
0.15784096241830908
0.13240087862142474
0.04073190516597303
0.15221371059638225
0.14324634446933532
0.050784569293841966
0.3963653270015426
0.11102431468483033
0.11972898183258711
0.089906075987433
0.296031932907456
0.31583331156266214
0.1808417555094259
0.12628866249949885
0.08144575204192704
0.11247657171935588
0.0949643102065211
0.08686049257410801
0.07048363401568704
0.20685448491424133
0.13759117097117549
0.08833406628970496
0.23210727586994806
0.13865365392498175
0.07046298380639107
0.05109546121536555
0.24306310529195269
0.12585378644424267
0.17473795932287803
0.33051110043378856
0.1393853813915255
0.11169102605696947
0.10890114824982094
0.21959881009860585
0.2467649248395528
0.09581006620089835
0.2595562704680196
0.20035993457575854
0.07320094240769813
0.310783794195976
0.16581611604336358
0.30820239058693527
0.11877593302027976
0.11383814355857268
0.028395676689066576
0.5136607851269852
0.06492603318769584
0.23091194894286235
0.1048056038632613
0.49830505064183117
0.4671761635834618
0.12826645037347825
0.14539058501905885
0.036645689710315954
0.2795817536519642
0.24116730877955928
0.14267177854782748
0.3229662050239509
0.03047425968554891
0.22272646690817766
0.23803086179351501
0.3399242252380337
0.03906534439406735
0.11209881848334285
0.10717700294380852
0.11784837267847434
0.07617656858273372
0.034468628497702644
0.06530385358783114
0.2578919973802015
0.13106227454447084
0.17890455935079827
0.33605445631246234
0.12946515132896497
0.30179153991159735
0.034130587957544374
0.23114754055985287
0.1126906511319562
0.19990386157857767
0.1540409938812846
0.12039466209176425
0.14206460999715112
0.12453143657321282
0.3397526388958342
0.18677803899484463
0.0682455576898262
0.06047437865372164
0.12396165613650519
0.08991853659781351
0.05833290120150106
0.198608488606567
0.167132555219779
0.08528803905286154
0.08124607577591136
0.07970554216313051
0.13819870689508035
0.06076157966170996
0.11877378563667611
0.04777286615549377
0.0966650409861333
0.03217268890919889
0.43106657372374685
0.05071155091968548
0.09070424259622475
0.2783113177675539
0.19427571997412307
0.19924239663342252
0.15951754087166292
0.3432766845900686
0.3477646043343855
0.29953964092729146
0.3331568546575744
0.10482819463878926
0.10812172633201783
0.03260806288895435
0.13891877934339036
0.17200457957400375
0.19401467054166793
0.1339250946091385
0.1315342357754653
0.31631098594971907
0.3123636141860403
0.07571615952245779
0.20429795754314772
0.06114778594376936
0.08150601529160181
0.05000363421022704
0.06587287245552728
0.06366760380246289
0.06195464715069248
0.06223075862510242
0.07710476440877498
0.09107943975217309
0.04946474150454636
0.1196227179373942
0.24192196124162146
0.03622849859674641
0.08468186078774527
0.049259075719184406
0.25837791892951445
0.06738256343345278
0.13825432537678564
0.07005307318622236
0.06172495899259202
0.047211493839667724
0.1871716212312777
0.16392894697921664
0.27536246913182205
0.04581317378653162
0.08820797058838747
0.33168704131256715
0.30382336926965764
0.39283605422405404
0.08743246886945195
0.4043937561037648
0.2765748249291267
0.3442609376459622
0.10380558908079658
0.313512992655046
0.15595320983529945
0.09043805574070302
0.103868624199865
0.13087220963166163
0.050858876204101094
0.28478076766940036
0.11242156748686036
0.17822216865309312
0.13810163423537491
0.10450519618759033
0.06651364122478799
0.19317004070861862
0.08935333768975276
0.049538814022922706
0.061718580391925494
0.05149435537447815
0.17630100879635324
0.0837339446715578
0.06433488509067986
0.03998551988639759
0.03245454152099654
0.03806224450110917
0.04914071658851264
0.06575972274625543
0.049149344240221604
0.0464945027078369
0.09303869753098104
0.16555595096507528
0.04144779418465705
0.22050742545848015
0.29200202602202635
0.03750997668120578
0.2109772095935542
0.08827824455873097
0.09227554220919627
0.033005354536838366
0.10322145498409048
0.027779469435023067
0.4264762029163869
0.374142796994683
0.42091533575031337
0.39921936147414516
0.46112740768745414
0.0840628141175616
0.07003339757376599
0.14198043610667513
0.15775549725782403
0.10473364499690635
0.08349087032520784
0.23653520749401913
0.25442149811264886
0.21849076246171184
0.11736506810267257
0.23084200659420245
0.08686248164769855
0.12952053438438763
0.059566325716258216
0.12775836991595432
0.16932233637959873
0.17892466151217054
0.12422156326454006
0.14448118599073334
0.10698313355217237
0.22816718063820352
0.30841384702813623
0.1593502485521397
0.32010489972294026
0.048355431695505977
0.1751140796618357
0.03169929425036991
0.12468782794017468
0.0318988861297167
0.21745804855985776
0.210478932382178
0.21087909728634363
0.20107820654930467
0.24327713797436257
0.09203644828708833
0.0754495177738732
0.03001902740743242
0.21373494965030004
0.035081528619544056
0.0650248342451491
0.1169453950150703
0.04445711908824081
0.24799361874433634
0.03181535633198902
0.24792442014141117
0.11100019886019862
0.31431988343677136
0.40105645330176726
0.37775582808166114
0.08534369613760065
0.15428821339474624
0.30855937093373964
0.48938541352616566
0.28635675480018596
0.406883242688522
0.28837265387212224
0.3076512746923495
0.4221850495586915
0.21436230997012362
0.28577355125101894
0.39248584406342873
0.20146173796169806
0.1778716404099375
0.08131881919708392
0.06479594143133328
0.26621088379124097
0.12232872957400963
0.10826340687778944
0.12146490351060486
0.3041128145893657
0.2798674610116201
0.12838278450519694
0.09189275791156444
0.2877143922127255
0.15168834370528636
0.17659499690734087
0.0869845129274858
0.3282155107290418
0.1092041234972632
0.24895236917498453
0.1633146810346082
0.2749162523991939
0.16618484204976308
0.14309690237790296
0.03634291202710584
0.02747289420688454
0.05820447784873677
0.08279247811380182
0.07103523518701504
0.11880864628273188
0.14648922375640736
0.22768579778644546
0.12493815426456803
0.044433525676879373
0.05776561050524389
0.09447347493113592
0.3102275919095463
0.392313320816495
0.0681648016845302
0.055318217307747754
0.5011502691959686
0.2461324625672858
0.15187864911043658
0.14097135365527852
0.05552236373860981
0.06844304837003315
0.3236363017203874
0.3196622215055229
0.07335403743366598
0.12641426338458275
0.18144064796467851
0.27753412355747037
0.1890248417065018
0.25580538410319625
0.09299056758184404
0.11309814107333821
0.10655141000413877
0.166715516106415
0.17088420985661254
0.037434156841475476
0.1889026368767914
0.20754403953250292
0.16658215347309396
0.26020490477076835
0.23484401680657338
0.17315363586023835
0.05366887571521933
0.06361092774902277
0.09045397948780536
0.02904113103587336
0.12699882626342002
0.06067460332214118
0.11058230962866733
0.04457206687674068
0.18221220034530117
0.2180355724245591
0.062362214869201606
0.42753289084289364
0.10290475042281741
0.052259643552769956
0.07526843988585738
0.0731673550988138
0.10885785790799651
0.11266130120206573
0.16479372045896493
0.08986525966497093
0.13148888151525
0.16954672463312262
0.1932409060983927
0.44952836231561477
0.12550088843265567
0.22134622727807116
0.4528987486039361
0.16534923378830294
0.42933959485413414
0.17367814867950948
0.07306980048738317
0.16808271030970173
0.03083599800327168
0.17617663835691658
0.1965595560980787
0.17850930689287328
0.12243198062040515
0.0360621100109923
0.0581887789809989
0.03332451197681844
0.11181784815406343
0.09548227235052964
0.1291124600356553
0.1044962359539373
0.11875245334958771
0.09161103406017401
0.09944090466055339
0.12491963795906762
0.09686766658866376
0.029104517238321036
0.12357629888996946
0.08155444152052639
0.2505117288600655
0.10234775461709948
0.03057162303301882
0.16103146804045435
0.04212486851254658
0.13587651583075783
0.11596435711633832
0.1141811230608352
0.24068441058844486
0.12656504584017159
0.18638112800999376
0.07402657662057598
0.10886993086119122
0.09341020232741615
0.2907162031571706
0.33425178211128853
0.26895066812930163
0.07024460498276593
0.22509115642851885
0.10730616376508124
0.21707599409709571
0.14641072571189215
0.1005847372320105
0.1554035031086547
0.17007816737736767
0.10659981652848638
0.0649029754957864
0.0850937243599661
0.0941695447538765
0.0387138749618989
0.025945893798916125
0.28193153962152756
0.07614458160833719
0.02395616211016021
0.024825908317311556
0.23045444657203348
0.03378161955757003
0.07514082678403246
0.19789224182902893
0.04993451984995199
0.16470285296479242
0.21328990955639912
0.071656845314276
0.1702651943977469
0.08731927459240314
0.05863943052921398
0.0958419787352066
0.15282744626468497
0.2215558013270629
0.05884804872169891
0.09299978926828789
0.07269676789928853
0.05915623171289006
0.03290635864567213
0.08874060187704122
0.09979566796455089
0.09331763685852795
0.10131027787827392
0.06329145347831933
0.07847825740535196
0.1223558459636585
0.04944790834170835
0.0950847708416937
0.11037490227458564
0.14733386876930296
0.274930140346057
0.11904528878645143
0.0993680179301426
0.061323660600979296
0.17409115760552493
0.06838675616726966
0.1062951112435703
0.06059138884058919
0.0405925172364089
0.06342511364475176
0.08239691070464937
0.19058211942617828
0.04204887662697668
0.14565242882905655
0.11958483001240046
0.026421495940449704
0.19354871274726884
0.1647657292165967
0.16081627696784187
0.32440722342052764
0.1332345299658385
0.030653264649656523
0.05158851163039424
0.023458323540371615
0.054409531382976675
0.11125430490493508
0.06651992031716683
0.04434112437154788
0.156664965554191
0.045254899733442135
0.054195814908013236
0.12214615535317101
0.22035211331146853
0.15249169696831488
0.05768924141630406
0.17214146092087027
0.17455900487785367
0.2356098035743254
0.07919943613610954
0.16448332590158107
0.13042081231007713
0.27256614569005155
0.08259953124597592
0.10009155497051148
0.1134556143361614
0.060049617135888786
0.06667979224012242
0.07981582685324748
0.250255418056433
0.10819012521329775
0.12439490898038354
0.01679633370704717
0.08704480764492777
0.028531551383088972
0.03649852389102808
0.1490457666772259
0.05744653656877558
0.0737708599014339
0.17769094644471164
0.08562632040981998
0.04015961788984847
0.09188113126370351
0.0372314001988082
0.058154113548463615
0.23933058395688867
0.07100651711707019
0.23389735155787433
0.059680371775728144
0.02250175503076972
0.2777340390636681
0.16699643154196472
0.1241541081937309
0.058373375700781466
0.12760422748196276
0.13293779192621943
0.019177718899793996
0.07601226590001373
0.07362815849685662
0.16278850331857708
0.1630349965027067
0.20571615884489097
0.3682078566692401
0.17937253073112733
0.2934567717342852
0.11774188414921076
0.09300937305660441
0.09983691567746002
0.09107016255525911
0.09100357696977558
0.05847098067096197
0.1982727648807526
0.05940732976639801
0.058712205706689564
0.13419489261022713
0.0761285274671473
0.12153946646350157
0.10749072000196297
0.013726100071530183
0.14680820864398014
0.12473033601300143
0.11898590951427714
0.03179316943795739
0.023032780706972754
0.023558166133411527
0.038896453542142925
0.02377300620242718
0.1405461331513868
0.16367508261363017
0.104584150182506
0.07425035821973881
0.22443241330581887
0.12052113524735641
0.048700163091775564
0.17551808485893522
0.1497971301779398
0.24714736971060447
0.12089308497085645
0.2836302975039345
0.18516314087434477
0.06592222996718754
0.11425633934360513
0.19322136939938653
0.13677901637291454
0.0681405370872099
0.10399798811427013
0.17411562939645597
0.12954157519873993
0.0948952408552445
0.11422733415467023
0.19389362387851464
0.07145353402513657
0.014603846481587721
0.07815640448930258
0.2435630005973874
0.0909239673169111
0.06814938861554803
0.027322288557046097
0.05520083701190977
0.03210878922045338
0.13529251773370485
0.08659663971586629
0.10820252493238501
0.04409180432224154
0.015200877719977447
0.03835477976346801
0.05442361511089915
0.022568735665220514
0.039579364170937804
0.030562339760867804
0.072180979981397
0.06575009892763704
0.10970280834575522
0.05230647306137889
0.04927161654364509
0.028657382316046115
0.15243650879521833
0.08801899131418259
0.20271012573406866
0.05295105594519491
0.1759208342642742
0.17094558450376535
0.18302814987755628
0.1982568695587303
0.18696569338418317
0.05949340058633681
0.047096247396763186
0.1301599950448037
0.1396754788066028
0.08821514282404314
0.19012011431216497
0.12845093704194782
0.1965820743422053
0.152150336821888
0.05674294345514895
0.22041824430409607
0.2147150877924246
0.1427677508434486
0.11487460562627858
0.05823083330584756
0.18647807894663163
0.07624967295235978
0.1605572200978461
0.20413652034640728
0.07378233329073501
0.14261397705767062
0.09514186589758367
0.2316267406967217
0.1365602523112388
0.09977633627445744
0.1362382291877929
0.10578545106134356
0.11876622982645135
0.16172789701529378
0.19389671686186166
0.22210059433221763
0.10428364788023047
0.09536871897025259
0.05039852072888134
0.04060912376221807
0.07453649528165837
0.15909759452683833
0.025596087118360415
0.020850419578622433
0.07060565468610812
0.03633107769197799
0.07497475275570963
0.028177633590515293
0.02549159203080682
0.087421591871185
0.07586640224052817
0.07221528931408606
0.02418109056709089
0.06461396141792763
0.06657109092679236
0.08133190658185788
0.1579634522540924
0.26151736628889016
0.21807028604012607
0.14005645825228474
0.09644796783366354
0.25494261339038554
0.19932616427361327
0.19320183208461808
0.12232213109643451
0.10463473778810295
0.1513295540864237
0.20776276055115944
0.2169356919281809
0.13784888627250963
0.27168959341849536
0.24086431023783886
0.13442710372039807
0.27089971573595556
0.14222277095332497
0.15068980516740968
0.10925702861164664
0.10528537657726007
0.16018567443795248
0.20560860466711225
0.10899122654108605
0.11736257474560095
0.10812256740734183
0.1354282336026792
0.08146179527584978
0.145481423041459
0.14191378386871276
0.09985723192644456
0.05371113953809572
0.025444185881697206
0.03031522895656241
0.12211552401436987
0.073208032054348
0.11876287529392386
0.020800688642625038
0.04481803606314214
0.014659824100798007
0.024782703796539674
0.018762102229957573
0.026693959031938858
0.10730173673995824
0.11282230563082284
0.07448027929342081
0.026804114496383983
0.1848101082185207
0.1382508323486174
0.025420511110180736
0.11819167835928476
0.05486282140608606
0.024094561594995192
0.13379840154102243
0.11944552210809893
0.020979174810458995
0.1531889373384191
0.24955592687318867
0.16632318696476278
0.12834744781573795
0.15637554655517688
0.0895756403151454
0.20220895842239023
0.09763247716449042
0.02304072653394676
0.07635585521999319
0.03210504673350507
0.21244053930344517
0.2123778075001705
0.2409518701361627
0.05501973557034157
0.15202460712465624
0.11638416481610961
0.09357537980863811
0.09069104577247765
0.2657476263441837
0.13939817814351763
0.22873903073561197
0.0772760733903479
0.18910325902377934
0.14247861125938754
0.09139039129408905
0.09358902762336593
0.19618029136876214
0.08690546787489396
0.15335121304564103
0.09412067346597189
0.1180412388854481
0.0796421514318826
0.20076440709336363
0.34961774310728755
0.32716558297336223
0.11905356965151086
0.025207224284240468
0.0811268455562554
0.16121798375542107
0.28253591605561057
0.31072526980992554
0.06058361121311912
0.02781784282154399
0.17764467169188475
0.07870208392000938
0.061629973815302636
0.012603918329199833
0.02961475044995848
0.0522756069170749
0.0955099668342459
0.2393683188573413
0.020943898620086766
0.019714510998749726
0.02745130330634218
0.10160032671445866
0.11115756504962247
0.23661591590106457
0.10622164412277185
0.09106788368102327
0.1295408146893054
0.29699533758084035
0.09218500452662479
0.11408162452669834
0.15773475559386996
0.257513903968949
0.16403028875240447
0.05093868752443275
0.07665351384806128
0.21331543836680597
0.2914408834520568
0.08238486618891835
0.1371561515485732
0.18228617104759928
0.10162150996557599
0.17558495684296893
0.22341949918938972
0.11025751410987089
0.07046685847752232
0.1612870033166489
0.08311403767583292
0.16619413516004633
0.10577433820237787
0.12492319165205391
0.05105546720475148
0.08393930637586018
0.014669751368385935
0.018613038072276013
0.06004917677920121
0.021560854646784613
0.06223759437655689
0.033429380177169545
0.06515675051524406
0.02063706790754343
0.10061792670425738
0.04663169879415583
0.29874286640018977
0.14788903623376656
0.23640989780308772
0.10670068703859914
0.16772632256188405
0.19738074578489426
0.21708965855946405
0.35097046440849183
0.11374513215184655
0.2172074547958053
0.09802847576389075
0.12579596682917935
0.1493845957187743
0.1711571695051817
0.08090483396962553
0.27199041871581964
0.10372421115807227
0.09667424425216213
0.09608178171718275
0.29420137109653205
0.050248533268430595
0.10798646576876178
0.10784657356699938
0.15909289359924472
0.06629635198723859
0.3365904109393257
0.08917103705732847
0.047117750224970695
0.02230063423588902
0.03557296136154415
0.0639854444643909
0.06918392749840876
0.04562241113057163
0.09288277151576643
0.11287287834933307
0.1286657407716671
0.26129474397035646
0.02010763731660813
0.1894718008755979
0.04372810298083139
0.06403572982125327
0.015560930314878138
0.008767354396048595
0.01280325092955151
0.04643867018099732
0.02420950897325757
0.047168357571910895
0.023755081487000725
0.01952569856412003
0.06824081993996686
0.10695196906425683
0.13248586276374894
0.13945083258016117
0.051305883325899145
0.06570709967853701
0.062399026122008434
0.30704631465785764
0.11361046364368167
0.08454402799838764
0.21603885747821658
0.08528060179861358
0.09156112701763677
0.1601803268238262
0.08335291847806464
0.043142831474937984
0.12074503744638276
0.0461381110798096
0.12400683950366036
0.14534204935636458
0.3294864351307336
0.08306534926847862
0.08834006684506657
0.12511129736366805
0.3567784985215108
0.11172218911419525
0.29194378466639936
0.32661491025512596
0.05632800626834682
0.21788483952727888
0.3388150062733264
0.23360663934795903
0.029530237332407273
0.11630201436191964
0.31649014841829287
0.09045180635391491
0.11304714760114505
0.11878456301201216
0.19150173260821396
0.07862266474366844
0.27569379628228874
0.09822916419967148
0.09192807274558094
0.24423403118659617
0.18958606118353713
0.03816473594716496
0.13300210982844995
0.10328924407881174
0.09776877790922177
0.01862441770907256
0.08112471728028271
0.1298140063439442
0.2464604013941265
0.03305565274197347
0.15587208396191934
0.025641338703693603
0.06688079994658264
0.02184646896802899
0.021974580388919803
0.14170130769326475
0.2006874704274896
0.046016298883825676
0.2469371454545793
0.31791932789317867
0.07969778926965561
0.2159930871845151
0.08248379289955235
0.17310036701015646
0.08736702462493222
0.1486770662375044
0.09999994790652733
0.09647190660012661
0.04566619512588153
0.13069675138874118
0.19848595694022433
0.08599091355021732
0.19128908055096122
0.06965602443889131
0.08269621537995923
0.0721315969788496
0.0789093121099575
0.1422718694413147
0.3524657032210448
0.039058697710945514
0.1967999019969574
0.22442415698816026
0.15161060130555482
0.07447928400704555
0.09402936068687512
0.0699934659367607
0.29634756029793347
0.07386819801547577
0.2320208042628847
0.12098892958908283
0.06185677228317002
0.33187209861908135
0.05037807957650674
0.0874813463798737
0.08787336828376302
0.15353363599822317
0.050004745942604956
0.2093587952720241
0.1177100537314293
0.18209331352536512
0.08616840719685356
0.04151128365324844
0.28487246051943366
0.3684386756184862
0.07588268867549539
0.2167503992009476
0.04717805873381865
0.06220580087166746
0.04820356950915871
0.1263183666885888
0.030332987008171903
0.14965082227135007
0.18064014639624876
0.0961373794974218
0.1136708837701267
0.04422793101345601
0.2027129697312184
0.06553681634066119
0.04838500727621375
0.08289585145281853
0.29283307575944356
0.06382791250331502
0.14633142180917863
0.04923768077963882
0.16593821870969608
0.2325728691418481
0.13800157198197469
0.07998279579424197
0.20360449497096722
0.08158300122475474
0.0617739962024912
0.09474742269156664
0.1625610185448771
0.07318220914285324
0.22140105809811164
0.15472428455470574
0.2524767365802709
0.3926131415056655
0.17871587804702788
0.05545268270916725
0.32253741940064107
0.26452233647059153
0.030921882946000186
0.03183881307617853
0.05914997617852629
0.06295472317566797
0.05632453388073975
0.033339714747893205
0.14235866229944913
0.09831733255788074
0.17711972979799318
0.12626994990950105
0.13989529422252175
0.13913081674480895
0.15190085271692885
0.18032367283300987
0.05139915452023289
0.22222223442812727
0.36884663099402776
0.04763953497931726
0.12086503755598912
0.1599735987956245
0.1803029301784503
0.06424338806407764
0.09316678381097666
0.07200685853671723
0.18211794443034374
0.2297563786492447
0.06914357770919889
0.0251611335076469
0.08773265054287696
0.15271894953104978
0.19513834025785373
0.03966350458661191
0.06467254660847432
0.18272204509580053
0.049722061629963586
0.2514922298142145
0.15302595253458595
0.024913816231699
0.10526646300405712
0.3653138568221241
0.259044601885069
0.030421487964772457
0.06872054051726673
0.037087383375259284
0.27002102091547864
0.10630039345874218
0.07988103999882154
0.14430687003937087
0.15620682905052852
0.14905667683928644
0.17487311024064495
0.1427992534051321
0.2163304629675102
0.12408561444952079
0.18962086670349382
0.05092925569083982
0.18440458993473138
0.13087776392609557
0.14750763038185133
0.14592058359722537
0.05005089540798904
0.17798310003369755
0.07816345473467579
0.09844638572872276
0.12720233904311953
0.10984735202366859
0.09631048205911141
0.17733603629874628
0.29193168567937344
0.05274814414483996
0.2252812005979325
0.09987461497475876
0.11210968664461621
0.03895905603959347
0.22532858625527422
0.16957964253802976
0.18590419013212922
0.13891736867363377
0.21674318186045696
0.023286883525560433
0.21368558024051884
0.10958171128875051
0.25182161686568244
0.23604216109870765
0.11294472792896036
0.16444137528637862
0.02597194224734688
0.11958016534323863
0.20138722325177336
0.2312908518735313
0.016223162317034537
0.3335838362990095
0.23664939577728417
0.15591996009185274
0.06335356866658876
0.0910478671033428
0.21586942905282494
0.1225788148867458
0.15326420337904909
0.0228929214752964
0.055633604283616765
0.2270113866323863
0.04663679808788056
0.2525078004504683
0.1865828649461516
0.05981202057269888
0.3281442342623588
0.25844769267502893
0.15726357175571448
0.18666537780740663
0.17378765238024815
0.11582523516551292
0.16987788436374832
0.14351654372577252
0.12417721943348126
0.14101965520805265
0.1992546022232648
0.18103008436450757
0.13336941251297943
0.38341687852594586
0.13466974956466896
0.2240109644091114
0.37163429852200514
0.08950202985657725
0.31234506887104896
0.1745062908610413
0.14979431630577097
0.1801134561622208
0.1537320375645411
0.1728979232849297
0.18244768671265213
0.2206752732455666
0.1273261374052915
0.09768724843497459
0.08510522827782188
0.02938879766447959
0.1377728698914121
0.13664089754672645
0.09871213265648837
0.11548702749254712
0.062309684790705915
0.0377962366303761
0.17859581649707335
0.2364926310966386
0.1470715630222686
0.2137385255249466
0.05050507967786739
0.19708540674691952
0.1862076940587052
0.25804047526720064
0.053747443084546306
0.04359688317893116
0.14628997113525144
0.015549237888011665
0.037820228493272726
0.11991915558983163
0.16728853570517052
0.1040143088865373
0.17870183043309798
0.19631266791238536
0.2636373357829126
0.1283207495719765
0.044610392318113146
0.2868484555659335
0.07072135088765248
0.11557006766936925
0.1926336707100098
0.15507261120435425
0.17273451806985077
0.15790044044773413
0.0811079189041822
0.13253638205466345
0.15217782117901724
0.19051114834446967
0.22766756025607254
0.07704870171908784
0.03327875600889276
0.1339637856982055
0.27136211222002193
0.13589378779249184
0.06612975128181021
0.3109860544899812
0.14582283103974764
0.3846484474646518
0.28418566496150116
0.05741223356961442
0.1673194270218969
0.01469735775047307
0.06100217455125619
0.11851594292121331
0.031018995023906874
0.15351333840933346
0.16610023015762646
0.3138227653034652
0.105512464053218
0.2978305759869443
0.13479810543760737
0.03623427428270075
0.13327505518292146
0.3403503776230376
0.025494149059876296
0.14105814286674426
0.07664980089125879
0.2106486493661575
0.10949664244845204
0.2945600579868653
0.03703096209214301
0.02455024102605879
0.10392492532393796
0.23193854553149157
0.1007906787219351
0.022820629742908022
0.02310504830000056
0.03116257152449518
0.13404524689225925
0.11922430113664517
0.22865202348652966
0.049868914299415076
0.045379952979811476
0.22404312509437008
0.046106669705500376
0.26117917142580643
0.18255827728016005
0.043615947334031895
0.07964007401397137
0.08009803693927509
0.08588706784545237
0.19031732661998643
0.23194157706246274
0.29555908261675484
0.13293747944569398
0.11040530971792296
0.09312015063934068
0.04836787097404162
0.18790704034141867
0.1167392757139432
0.10422322217318097
0.07582840709094035
0.03987854292599875
0.1137980599820061
0.07332428635411964
0.10246795915658587
0.19582362992638588
0.026716493881090306
0.021043381451089617
0.08502109861723116
0.06899017617367705
0.10129649446282897
0.05295380585890714
0.0997437647918688
0.1076329399817621
0.1715835512574729
0.1604566426640066
0.06024429494959201
0.14465143978229392
0.12630539549988073
0.05831960804820192
0.07034979175086888
0.17560415330899684
0.11057269414728013
0.06596158334673632
0.05533602261666445
0.15409096862032992
0.24715829572609413
0.17112482185428976
0.34579695042604935
0.08846862685969095
0.11896869512905374
0.18419965042307115
0.33028908846275284
0.11465340467912867
0.09053811231325981
0.10904174933817723
0.07833857889145249
0.0918284222875666
0.35130187358092274
0.1514186207565239
0.05077477591961222
0.12767368527368375
0.07084924514646165
0.12958403140975921
0.32763479276225665
0.23661854127041534
0.1854658864888023
0.201160184225929
0.056168889707276314
0.1094090214253506
0.15596321295416057
0.15188112646836477
0.11360367305124641
0.21926413943813036
0.1810845875154275
0.05496236065322029
0.05643337088013515
0.27010475033717374
0.10284539652603211
0.20127886709418671
0.08332451665367305
0.08401062522480456
0.15717188370043353
0.11320928640791089
0.17483205896779117
0.14255283133779742
0.12995177762388693
0.04241565934628654
0.09959160263679145
0.07263174016665373
0.12690834043306537
0.02783393737356439
0.041532836821217445
0.06939383290952916
0.012351156401161426
0.06442982843243793
0.11256361295555783
0.07652416164056595
0.07742394942734807
0.19714232726042305
0.038934067499234455
0.23547756472582645
0.08986927220002397
0.08344349588396634
0.0811927794320525
0.20729576752308568
0.06573442235770008
0.24338109296256305
0.06601324570260468
0.11234635193816637
0.36634395902464906
0.17022188259233545
0.0851744217062118
0.082210321423096
0.1710083688726967
0.07061022170638975
0.10773413647966111
0.1929861411114345
0.06741570298264754
0.24590612185548244
0.2808789043847637
0.054048928467597415
0.24513690722713205
0.18623759681677263
0.09184715989440446
0.025754530903183234
0.08374876240438404
0.16329486825297296
0.30911276131566934
0.12977187224143136
0.21618458772161847
0.18836453205394402
0.09866774303124874
0.254405147522016
0.09849526269531579
0.2585274681111521
0.05051389519792607
0.19688530965797957
0.35285820955066666
0.09113971553611287
0.29176332380247016
0.047265806179105474
0.11012093917386974
0.2206435758520746
0.348584420113136
0.22098919017869248
0.3352161085156924
0.03630183091591955
0.044824466829105396
0.09628040081402887
0.06851283721917537
0.014639161009272351
0.29758882192071107
0.047795828994869734
0.194974115352906
0.318447708743001
0.07534761857303165
0.339350972155058
0.023831320366582906
0.09126884281806483
0.14620784527452665
0.09514096918779769
0.17402168914257557
0.08480418436279145
0.10021881626897455
0.07038506725054477
0.13914251887244497
0.18452907995907417
0.15465156287379905
0.13541622629146158
0.17116749025045985
0.09769732469507116
0.06130705872347158
0.1904928647189412
0.05534070556650002
0.3256214615660843
0.1163519727214096
0.24339824354655057
0.16613160297210003
0.07437077841939492
0.10575884705127667
0.023292706644512075
0.08803173693071546
0.036536872835107474
0.041124631629459674
0.2241811242656791
0.197876500285271
0.23139339428341116
0.13181171786050935
0.10397382853629175
0.04696704395491145
0.10596654266237548
0.049226961473145765
0.025673761818620463
0.0859527415378296
0.02524482085524093
0.2419307855635136
0.16126609761939303
0.012362935002079717
0.024239246659846073
0.013421792950440457
0.07108034230718768
0.04330134819454593
0.0568864561311934
0.04487669475111869
0.10008924882734416
0.1555377895761729
0.07179939843009776
0.05738059607508948
0.17368202704288113
0.1294981019197086
0.14694156291984886
0.23813517185052335
0.12359336105365208
0.042749525292299646
0.1435747855349752
0.06343488186808602
0.05643523530292604
0.10523162525472579
0.06607408849346663
0.06528105160007161
0.24848322180719187
0.1810712350530858
0.1044140828886566
0.018790081929552473
0.18291204438831182
0.16853783213524356
0.21026826037123444
0.1724068869691242
0.17066801717377073
0.055966260560432496
0.18625055504075752
0.2564649244867416
0.07082369806217025
0.04579017960616593
0.10294842144136782
0.021223853453223095
0.05059948093620965
0.050712281795153406
0.0355467444888925
0.01695118164514211
0.04179173916348066
0.02507027359379349
0.0340465522591554
0.02848801574997278
0.0365407806451425
0.03162985844330541
0.013906196501596583
0.012333557316628361
0.03563320725875983
0.17748474415283724
0.03777210145566744
0.18872302856391193
0.1301278131835999
0.18692263682721488
0.23703865426995044
0.15103287561598028
0.3005708613715735
0.19129597261071046
0.035664755616256864
0.18470872883922268
0.2809677935937135
0.2165501249680328
0.22872409130433388
0.14929333292723296
0.18582228098979442
0.1529281029027412
0.21483076756656858
0.07086547229626446
0.19741705869568762
0.181840861027007
0.18722084727348404
0.16442858275896405
0.2247485060797702
0.18750296366022914
0.12189577651765175
0.2095553476120403
0.07087953211058409
0.017905867471101778
0.09328626158023844
0.03922073425128892
0.1307843000269533
0.16150596236072784
0.13906549237527133
0.41788643520531493
0.142312352715558
0.17122710774449856
0.08217195537214164
0.10458125285951242
0.026806502167422207
0.03406443808482311
0.01704397659603088
0.29291102792852347
0.050777342392362874
0.07066734143417877
0.03542458443375294
0.02124316418661492
0.10311539544062175
0.08232804291870569
0.09074768842080952
0.019124427228544034
0.06899305499208573
0.10671433736026831
0.124583735050479
0.05815414198159606
0.02968581129792359
0.04529749217778383
0.2833882284809615
0.20664556301597986
0.15338585322017856
0.1278229037530871
0.0851935309827333
0.07346411669521788
0.12737087898580593
0.07493252464194362
0.115100672052396
0.16264564841261386
0.18361475846786074
0.1790247759208263
0.12991615742628812
0.3547000225133417
0.18052528468600865
0.03997692461338775
0.04343089316794733
0.3873813370266836
0.040900208260522694
0.26213195681032714
0.20088676811182635
0.1196651957202639
0.21943328832855571
0.045298663178753584
0.2958318132330153
0.17454942816639257
0.2011823343190343
0.24684343585701288
0.20031556730554448
0.22278765857530203
0.25715853922772175
0.2613214906475379
0.015028601175752603
0.02608340716471928
0.015470352542207234
0.017914769274139094
0.01698379505221208
0.01772892391869488
0.2989182023828624
0.11228364078130883
0.22603563430824292
0.27619989078474927
0.10377279054066836
0.09512554014182852
0.09522242528359083
0.09220797852294434
0.3318358720719303
0.07132520522233207
0.2710270881067167
0.382570044667262
0.13222148076941964
0.11037331485788587
0.13238028124012904
0.12691062526871585
0.21597966949876515
0.38845322750185235
0.15256478855938435
0.14735321374441995
0.13159739268755105
0.0968022935763658
0.09826100671649916
0.20125554581794644
0.22258738870712003
0.1880049884279815
0.019634378435500584
0.0366331929743578
0.19006791825433605
0.30843583419534537
0.18084370250655293
0.27650476539673713
0.14871012962688632
0.021468009789041446
0.1412642271519375
0.016974270828908733
0.03863559398399064
0.030427169179255146
0.2294737483837478
0.02545905905441584
0.03440832264602777
0.1338604941484354
0.02131967981673967
0.1790624595240476
0.07279950295102691
0.07056196195607198
0.24292037001344036
0.14766268009280104
0.20118801810180723
0.04528470652702742
0.14897919135128557
0.144386345315484
0.12509195265336448
0.04821228968764299
0.16936277939610955
0.06686924784067497
0.1813958074603397
0.3087484326908028
0.046166193717080285
0.13251291113558492
0.16748032051060477
0.15324141885622358
0.07524663066767454
0.22419173942656934
0.10838102313764583
0.11261303387841616
0.35074043802720667
0.03155934182311774
0.44204785843685784
0.07103121784113008
0.03966547005939242
0.07379074984829292
0.11830559672811233
0.18352726429751517
0.08705232676279326
0.11611494151481813
0.04475589502618318
0.11448523920109308
0.052104618937940446
0.2772695872816378
0.050230598153578644
0.08535109909770588
0.09534273858364811
0.27739152250085114
0.244626363515506
0.08914546093495583
0.2769394850578571
0.17309896545929065
0.07019215007247973
0.2187752297662382
0.19124429612952476
0.07173341373327334
0.1518839207697204
0.0688561362697514
0.17549293104745683
0.2365715566582468
0.30936947761957956
0.4848687535382042
0.2494659582369773
0.1884069576742753
0.06887528352141109
0.18034974586638094
0.11309134945591823
0.11682786293238716
0.2500150263495553
0.17606363035869949
0.25448033402248427
0.37474591281067
0.060777287875973335
0.0372852278060117
0.3228547208219108
0.34752571886042377
0.19590836923085048
0.018660473959003065
0.029518578511330627
0.04954550796067554
0.2187239477079507
0.08327683056514311
0.12882840776710391
0.13130618018585966
0.2560158730956778
0.15081626437463755
0.36741867772405723
0.4616780794451625
0.05989785310056033
0.29579433072521616
0.15333148865372936
0.21053930568667492
0.1681737567572871
0.09643209060690396
0.20571099715040836
0.20761547384520002
0.3267187247731552
0.25819802859322116
0.1601291183835272
0.02315626775172932
0.3274844066494931
0.30239098065472836
0.17496510701407517
0.07032229545064017
0.09002440485580049
0.07837548719353647
0.09886248851445184
0.06941886885829185
0.05769744151141318
0.04754760035945048
0.24814531964192324
0.3162860810632893
0.05387349323695977
0.0955996714334781
0.10430834837349992
0.4275389337913443
0.13503546021791846
0.17135613130823735
0.3970522386300882
0.10476489691517105
0.41875994405032146
0.08354489443575265
0.3869359752423786
0.14924173276179448
0.13699434488897397
0.299211948604862
0.22320149011302504
0.3229611142391389
0.21273723638673392
0.128194473777248
0.095756486877207
0.15085122193347159
0.12903607307881634
0.07727730013503145
0.06758705620088591
0.08210458863393476
0.06166432486499404
0.07043196018928978
0.12921120552768317
0.08669473025012284
0.062070482942557285
0.08403000055018649
0.07311642503727486
0.0797502414243912
0.05325069072699804
0.09780531229883944
0.07345405172842179
0.10882473841236347
0.06908111425756754
0.10632634552136574
0.07675775094752801
0.2851714592126835
0.10744276288368475
0.02420862806525257
0.27486671909773647
0.009011678907701125
0.017250851209931164
0.04763768993693971
0.04857023620611593
0.024272253484437588
0.32954275053638915
0.0656387970643798
0.027897990277056757
0.022029855024253243
0.02482029765878735
0.048436791954853994
0.11029010585286865
0.10116300243012259
0.13880611626711398
0.04971429357576712
0.044924281614774554
0.013346144229510862
0.09542878837576434
0.08259221424992932
0.10745668611275459
0.337180575126506
0.19247161812814137
0.019641924941088327
0.044228915985249806
0.027535957523761107
0.04010184079281435
0.06021753813611018
0.0389783153854771
0.038564780190346676
0.06244531116737176
0.008408969769990941
0.12880992328822394
0.10885782872987368
0.27656910742460267
0.00524364220360679
0.06228613260325887
0.24613241856723828
0.07554377443891107
0.007270644694645223
0.11065245262720731
0.006693789343394184
0.00417198250962364
0.1711936525260611
0.20620134993778294
0.12999583385553437
0.4129762584815308
0.3788613272434381
0.13213401254297652
0.11620076738991154
0.26438419757043974
0.17721427523993216
0.11414956080820643
0.25629953855242776
0.13468518624180376
0.21053501798923369
0.09189036276805429
0.1640502167404128
0.11667227028082958
0.010806837563265462
0.21850866342400804
0.1767033073453978
0.24508736222506683
0.4386758734366616
0.2964777461376706
0.14870195423759364
0.2504274830686663
0.29632652403331394
0.16705233316547136
0.34349493133620157
0.31608104248123137
0.4059037409209163
0.49651300400050835
0.5916990387702508
0.3579435168676016
0.010317771564616343
0.11358128738274265
0.0863357278996583
0.14127822243709154
0.10001601999973808
0.13926919345155844
0.06230287728742378
0.055770741341687725
0.025365880407999163
0.09153801050143302
0.41903236183008835
0.08996883280078738
0.5631529990693246
0.4477200127981099
0.54448948491722
0.13959114729339986
0.0757623097131057
0.1710657649807895
0.10607807188502108
0.09083601358002993
0.45006082300500433
0.17273019437861373
0.4786085063859511
0.38939586269081217
0.19874368108723708
0.0514477459610488
0.06061658940459999
0.10872150671794982
0.19744585554221336
0.3380239449993094
0.4307423582376328
0.14284147772694566
0.08084893934742793
0.39427954978630964
0.08756204923114945
0.09529540547929516
0.046768915746538076
0.06299464968331249
0.21761805014700447
0.14310682987805368
0.050004908142870466
0.08921527449464642
0.08622466333940564
0.3343494108189249
0.17873879693232214
0.29093362970177705
0.26554250382097055
0.06770980874869495
0.13433256729264048
0.19148413010341273
0.1638340903155005
0.09270414514847648
0.051865119861011284
0.05498716084232714
0.074230799198153
0.053513463368629464
0.14536466012172203
0.04036880930186314
0.053949596513618386
0.04980613093907064
0.048158513810170576
0.05431308714334634
0.03522453047109335
0.11811803572319352
0.039826407758312636
0.12253270035483028
0.05116792070767828
0.07767793962145342
0.04347894012880414
0.037730684250186455
0.11533213656997074
0.08741416032715484
0.07245098172769497
0.04618418380670244
0.06617785010412368
0.042591187224663415
0.11400706335988166
0.06000055706609735
0.12155653679835332
0.08167304133731379
0.09045523395799801
0.10612172197156618
0.15974165157522444
0.07443163908424813
0.10320710259800454
0.1462015419813652
0.06308272911725164
0.11148441010882705
0.2671089465939076
0.26371162278924437
0.15438603156411412
0.1551976451720126
0.026476870759325807
0.0686361545322224
0.10076029233224719
0.08838041759847998
0.0971140004213574
0.09866305821480992
0.0832551763237717
0.0780064734906013
0.12324780883611682
0.08259639374918035
0.11236115640125663
0.07395720144424132
0.140419905478166
0.3335099597625738
0.4317748249490758
0.06441268876561428
0.034044320476645615
0.21462094493252662
0.02866938105502667
0.0973918047190491
0.11978709682241037
0.08805560610611853
0.3455581693418053
0.2932273431132955
0.061599813050512514
0.06901495922125357
0.06464296112973014
0.1552723219523887
0.07045944877962428
0.10642020948526472
0.2561395776164372
0.02252435748010477
0.18201227590777527
0.014320048241133466
0.10265644178543992
0.039497318815127094
0.0378988084286733
0.33563975153835224
0.14348681423712545
0.18331729696183344
0.046676879274746626
0.406065451836481
0.14465422629348992
0.38807775912595205
0.3275415669806859
0.293309346540345
0.06513451447625311
0.09237229261153412
0.06596406070956515
0.055176248201105
0.11992876086627134
0.09228829245113215
0.15460178109152092
0.014198492393345741
0.040792462543526614
0.21923011757657657
0.06301528917791667
0.08004925869176506
0.15094235874291356
0.09940239372441069
0.10889558952869127
0.07558020037524286
0.2080884877984479
0.2540241506777114
0.13234118277546553
0.1381910877617322
0.18482585596770087
0.0584677242215407
0.062337205771147854
0.09092338596525308
0.07714856227163636
0.107300157182939
0.08651532722010749
0.06841776298279537
0.14166149945914747
0.10500541076422454
0.08205166212641926
0.03744061470700947
0.03584616175625815
0.33712011897498867
0.07910251616834582
0.08154461569368607
0.0952704129526056
0.15186481532770393
0.1388225882319703
0.09538833907878598
0.2655689980874082
0.12877409750172203
0.10669965190863809
0.026635579446305135
0.039121267057885274
0.05489458490450901
0.02249143707482549
0.09977266980138057
0.23780034083514595
0.161663817068756
0.032953309660166116
0.17522089545209982
0.025395604091839157
0.03876264689504531
0.07556498604828035
0.16004518025652698
0.048855885382630075
0.08211556889806827
0.2440908546864605
0.06089653114366115
0.05410930631595131
0.2688690196007861
0.20726563102563755
0.06861335699064147
0.06357860486379796
0.12544955429186055
0.27541299986978657
0.3836037040861905
0.2496566818548479
0.17924512344636168
0.4060858975663043
0.3509836780878786
0.21380486550242767
0.18356002450873
0.2092865349448881
0.2664853396475473
0.07353890229695415
0.29015928208549513
0.2528772863842678
0.24696106554803837
0.24996943720274725
0.07550378221236217
0.14217873277817697
0.08750055334365933
0.14927433405687904
0.05809265116659449
0.1622975404327792
0.08710439379635784
0.08143301747878068
0.129516003685697
0.05064908946310888
0.1205162723798638
0.09576559637292065
0.1825142352189187
0.05369448305507137
0.09668488391480826
0.2929974359921296
0.3567343129790075
0.1209610432368478
0.03237353211094682
0.2512732663328577
0.13939788549577045
0.19999148877323708
0.16843734442845765
0.3236086438461654
0.24191464398966447
0.2980189570001326
0.3297154640206981
0.13871833613015855
0.34072166352747985
0.15216725095424857
0.25182977356920555
0.2995450331503947
0.09843727032632887
0.08830890059494266
0.19661127904416625
0.11485386130732098
0.15058536822710222
0.29792126495031496
0.10555221148918985
0.2479738278716699
0.28626621747096087
0.28085853968745755
0.1831502459210403
0.4580071637765274
0.09395744444845913
0.19334517910294613
0.17842041588586044
0.18491897245320413
0.04882960339566679
0.26118071491365014
0.048184218393706825
0.08056379515684309
0.3021849966161161
0.047688461399293745
0.19048877822284546
0.14498553751554777
0.08690644261925888
0.04633513942634634
0.08774362827428588
0.10801691175306043
0.0826172195155193
0.2513242245871892
0.20865150888723666
0.27110083941542734
0.2091222200441055
0.12202685976546158
0.25890721898738983
0.04347576797238826
0.31858776668380095
0.18412243573646242
0.3535754470515509
0.037377554556593945
0.023644021209781884
0.05559825218907223
0.028888686821158763
0.012337513521387435
0.30905757604251316
0.03128068286586396
0.06221621458748355
0.3896084546592702
0.1886577861898187
0.05198239833306484
0.11128482769394288
0.038109489490316444
0.19423229685409435
0.3295943978421372
0.09651335661104504
0.20924002314540452
0.40659059462803554
0.05453036776885126
0.15812605426180815
0.22007054258420553
0.16394037282869625
0.22174328159973936
0.16505722806103543
0.11644867646220572
0.1899130127333841
0.1240572581925687
0.07922539273776448
0.17702347820613334
0.19217777251163276
0.1897730581968444
0.11928446359071898
0.20232499614344981
0.2015276258691742
0.14302601878301943
0.3392315650299569
0.139722517009574
0.11455246985661051
0.08186382464079935
0.0968007896663435
0.20553391946929167
0.06904399218008116
0.2690059384862632
0.12203840997371786
0.03219191809375417
0.13918334408243616
0.16013012002680058
0.10509635050508083
0.07007322676552169
0.0899339137655358
0.1247851093182429
0.08776219608399605
0.0858699226518178
0.10363927505578296
0.22189641997559234
0.011291046404677683
0.2527316639742595
0.010759021948077499
0.18838771947463145
0.06934206521960683
0.2162503912667637
0.3091183141249131
0.27670203912575386
0.20877317348238406
0.10284075220986462
0.19253592498065372
0.18220742870875467
0.16567650376822224
0.09105925047291567
0.2079028572855655
0.17221628780087342
0.08120252762696324
0.03942111730732697
0.036389575505673566
0.0680061170651478
0.07536903316486707
0.114609774709698
0.23866485621915484
0.17430624993126334
0.01659829610939039
0.11713153255249756
0.15657114057025334
0.2165205798483521
0.18515486642708864
0.3736201690470882
0.28723321639000476
0.0345224569138115
0.106513589918871
0.14710029303864683
0.1105873939963887
0.09800567569902047
0.03416384241193448
0.013995383539618874
0.049049004148973965
0.16640028497708695
0.2431694802023451
0.28997671906444505
0.30403702868048194
0.3138305157644893
0.29984756373417887
0.25776672554802166
0.32721351229535356
0.27204351821950995
0.304798514225486
0.3081108711130459
0.06713196387217656
0.09121768471354631
0.13564472572750177
0.14657902654691715
0.1256527163367887
0.25131541921924305
0.2166269293209405
0.09348979190652527
0.28281552043550634
0.2925820877951021
0.2797881631850396
0.22163817421313245
0.03713901048665148
0.30536634958245545
0.21687699455016402
0.03740749803174899
0.2728290982506273
0.07048502079285957
0.04723731692112116
0.4424907721052015
0.12319410402693912
0.18234077728841513
0.12250852562052814
0.2835314035363179
0.013356646617831779
0.3299379781739267
0.13646418882426448
0.18638330378706822
0.0734449688607216
0.318733735437745
0.12027041676100561
0.1449688003797597
0.07256477595726414
0.06881598912461588
0.04002148977030506
0.143242597402969
0.030257106921327444
0.07673579765889244
0.14481691750516032
0.11678996969941793
0.037222090680645005
0.056262849686446126
0.1622591186666083
0.025084769601350875
0.029796174595404068
0.05606566013367007
0.0435178662778267
0.3555803692359408
0.11151215846046958
0.06713518471898021
0.0793975867708718
0.19198799461681593
0.22264818117378685
0.06133389668798319
0.1640564833471306
0.21196112333614453
0.0898434270143909
0.09282922778613086
0.06080273654381435
0.3553859393765216
0.10243286721110473
0.04478650847091303
0.24564232440016648
0.11827280941659171
0.07810051312319245
0.05792598527387569
0.035869558424048376
0.0919522705416311
0.02056903152117682
0.08864290502007635
0.05808202431574813
0.17287955849173525
0.06227223018252271
0.28560694760806027
0.4746756170871534
0.27366832498919264
0.48229699006270477
0.5563297606307275
0.5388484048349127
0.5576990592971058
0.486354026491935
0.48753771818697117
0.09688645840873651
0.06872977995178563
0.08820687334168446
0.12670834919580512
0.02651299381180619
0.1324608877639718
0.1701156690511374
0.07226264606167049
0.14070306401016675
0.19956511888077913
0.1361728025978781
0.2165848112320011
0.11909190636427994
0.32155029919400063
0.15115628171581563
0.026747369599276
0.022365852079204895
0.07042019155862551
0.051810430428945224
0.021871334784250393
0.0216785786690024
0.049275829245729645
0.09864070448092857
0.31296052088720233
0.15320188990601474
0.25349473630212077
0.25141426629856833
0.10241923225768955
0.19895717192269935
0.07092585416922212
0.18319650205698274
0.2023896120597886
0.24169692657519973
0.20322192583802853
0.15727744958419182
0.15924224157884184
0.024757612514687187
0.02384962116709147
0.01854091311120377
0.04335926833966956
0.023587650254810227
0.04602155240886173
0.019061922928898602
0.0806856071908844
0.19757346275103407
0.032005077550535915
0.06138727290311929
0.02730245782929648
0.19271086156970801
0.0508164704192547
0.02495775351248405
0.03377955831879827
0.15525833089044253
0.25143673157242585
0.24863608201467602
0.02919141907025205
0.1702343687116711
0.08966723671568959
0.09669047327439177
0.02599627748549965
0.13185386265771573
0.049949638540321174
0.021358914603019395
0.03440817090585083
0.08754563425658762
0.02615749428294691
0.01813421034855803
0.019482063254036754
0.0177863991572366
0.016698901293352175
0.04010196365364122
0.03823010919460221
0.19453933872903278
0.19813664147861362
0.10865545982187234
0.05063438641930242
0.11861479241084309
0.026673754641817902
0.10314601853910677
0.057167108466350335
0.01546417789528489
0.05179531581351308
0.1468214858196346
0.11367700333508773
0.21538614285052293
0.1560817377790796
0.17156290048176845
0.17170839142312927
0.2155063999391194
0.2223332437334745
0.28511343065104716
0.38356588363811306
0.2134162260418618
0.15246514897082936
0.0032220681366366827
0.012995508873560616
0.022782234921062745
0.002275717937502734
0.06988034809009802
0.06298392120274414
0.03610997955564859
0.020676934696998276
0.07600286903134491
0.1251114021797205
0.07743424772421145
0.08201783366975701
0.04825727536591665
0.050604716552858545
0.02281800041282005
0.01740403953406803
0.014924957932834732
0.020899341391260304
0.051297576671443995
0.10749501248206836
0.11615935708431264
0.0066327539849587325
0.010950369063152592
0.061881637746684016
0.369721885099352
0.28757374967488436
0.3030057203075359
0.04279954150290094
0.30950608388324047
0.007582590943438666
0.07573104483388964
0.18120416501695816
0.15968420608416187
0.12108821321359965
0.19403203503766078
0.18030332603707946
0.08572254512254349
0.08478511231897004
0.10501216386592824
0.053890696935772864
0.1371693843705204
0.14452172993904583
0.1581590141513152
0.06867151274651377
0.11452344859383798
0.16294414490577636
0.059948477262467006
0.15568135808300246
0.042876103034503156
0.08428812743671987
0.35068771780618474
0.26563949397891573
0.31798285431467066
0.20812303118534642
0.21549590004997432
0.24948582977587674
0.22439010858337533
0.2428294972464341
0.19418267432247752
0.2314687969587208
0.24237438542294212
0.04976873483028036
0.25960546477169777
0.18586955070616737
0.11564083594045133
0.15821662483489313
0.37520484307831653
0.08991929555193436
0.1723585820375879
0.20337733493479238
0.19335452966553912
0.061779322581198136
0.14572351306923195
0.04236215467393965
0.1221332867598451
0.08242428669363838
0.11074644041849664
0.13824889247477812
0.03363689057893689
0.06118040095055296
0.06153505765876161
0.1606276269116261
0.05154937672486642
0.07537578722094457
0.09578991914947248
0.1983109684015972
0.0855679392323148
0.033071230362574325
0.035458859029954014
0.034136524595938786
0.06061227932008834
0.03676093811853054
0.05011062883568311
0.10401735137069072
0.16266176870848495
0.19695170226419992
0.12117723419443324
0.15763425937469716
0.17259601335808963
0.06126136087355432
0.07291496802889158
0.25369483917396957
0.04853693583436783
0.06623186692723818
0.0735838914947549
0.11748277185503077
0.1616798475351185
0.06758954555301457
0.1667056577672723
0.12786854210582746
0.07971932010631533
0.07638870426065279
0.23324964405080376
0.14314258804731592
0.13014514880654993
0.299916410747609
0.13522519657566257
0.19786547252596146
0.12719456987566286
0.10392298969925813
0.02378948169215201
0.3100950299077069
0.06383044628175916
0.04373595816678172
0.1824116028048914
0.12195710800805581
0.09507536207427236
0.22446154113123923
0.19796625338389945
0.07577294292735515
0.10910211414753417
0.11158339300164914
0.1120894466679219
0.043987057942867266
0.041841979808630525
0.24672934503306232
0.22822903665224673
0.23174910268784688
0.22076291639338003
0.22116431296966305
0.280275360688505
0.22034931260703014
0.18456804969460197
0.16032875266634727
0.12906881215657467
0.0545615361821275
0.3707882414102499
0.40206062947017845
0.38805711820675404
0.3100416520045408
0.07859552747826674
0.07616180703284246
0.12080964299898837
0.29359332749389183
0.30988552314808904
0.346865191816433
0.1284905047344429
0.223502884787584
0.0498691066112504
0.054381933395169564
0.04959228158913795
0.08868554048485103
0.08740684808697352
0.12441140763118089
0.22037938300505344
0.03551399750903389
0.06019838763785636
0.0363297447654629
0.22286366331766755
0.040718654693220405
0.3515309533171136
0.09995082278606966
0.2231053567706728
0.19952843373331638
0.2656120335907214
0.12589907726430727
0.2559812969443711
0.12372395427862504
0.12146363240293705
0.20730730224338176
0.2149328994794445
0.08432067113052219
0.21568572415375128
0.30069734388573083
0.24209605292991032
0.21192173542459752
0.3308055125682171
0.08219462646505717
0.19752073438385653
0.16716061577926533
0.06668153610992122
0.10469447529489069
0.07629311121055912
0.0745302591990885
0.06525325912835778
0.15103636739300383
0.17161903623470967
0.04892232302872476
0.22980713132147107
0.10372034466036535
0.10882813498177726
0.1340561433618586
0.08125296067729842
0.042679486606232955
0.18025211335946334
0.13827005436708278
0.24094962195208774
0.03667877874588535
0.09187701237947182
0.1136849958846467
0.2034368291239167
0.14835789007167868
0.08248491271850082
0.1397948671796133
0.020905728104006694
0.020758990707401167
0.020249006603270937
0.026108487072366182
0.02032535038120795
0.3173076730507804
0.26395465430920556
0.11499907149326402
0.11306853620484983
0.08229555686013015
0.20181103183381935
0.20998490320563054
0.1214191271278369
0.22103093230167686
0.09116695522301775
0.08520086315074052
0.15630556643730836
0.0687109155388676
0.027092677135023002
0.3033703892972159
0.39777148233085013
0.06385744668927242
0.137697470662195
0.23804953946133772
0.12674790537679356
0.24435963137257788
0.15767188885844566
0.09661334727749696
0.32374766080679473
0.0321084128995029
0.06266670769555292
0.0404782995169803
0.44736622347754884
0.08763613177829631
0.1563877312267608
0.09595612700197532
0.21786765101188268
0.282779064387515
0.2797544514399005
0.0920338104661716
0.21341643727608176
0.09576842401996354
0.27678842031529366
0.2969906932213099
0.12063443819018754
0.06319464359368279
0.13046497088521883
0.4087107319537804
0.17600673932141764
0.08119130316830744
0.255222488320799
0.11324664442453282
0.13816060853794573
0.0478883016052695
0.1385440299656603
0.05592929864895879
0.07527462821911024
0.04059348499990412
0.09768090697563844
0.08493047192601402
0.056477157810348
0.13294864686962368
0.21424030012578407
0.22026734071144083
0.14455476982117296
0.08661261094467933
0.10864087587819064
0.21977680702353838
0.16344855666894198
0.22920501126058523
0.31213934754870265
0.18648861091749758
0.16652374398665146
0.12847095285652196
0.2078008141037719
0.2130158508010441
0.03102369027642656
0.08799200436306814
0.20032170356033985
0.2197343354431956
0.10476837963959378
0.1923551440839552
0.20478994942854775
0.15757246037528683
0.1625752399346757
0.23484728849994752
0.145196869925916
0.20297928051363073
0.05575610071302189
0.11451585941879272
0.044478625962427576
0.07590085298465324
0.07895102290103753
0.030042535520121944
0.29393625585332467
0.24614600140805265
0.22918856894083764
0.18303165121134823
0.22872219803453622
0.24070662510051752
0.2605799396687498
0.2315953859700517
0.17731002815700814
0.04093109080343787
0.19765727287270657
0.2370898255640723
0.3982986201167356
0.1833404402889746
0.2778144757480925
0.24550107502317942
0.29930134841038697
0.13987274543201167
0.1413941502388611
0.26509948592976035
0.07098655719935337
0.23268472202699542
0.11502705903833013
0.08762805320432292
0.08584666982984396
0.10400633663354406
0.11710774829399152
0.09792307542866599
0.2922593242130887
0.11500333099945458
0.12852979014755486
0.1299957197064398
0.13864367524710575
0.14817718872323762
0.12059537640438275
0.08561723305126047
0.19816780422916977
0.1561108762535616
0.11330270966794523
0.11862198035887632
0.13799615028793588
0.036209710528152306
0.2794954986290813
0.3841507533332702
0.06604760720534526
0.12625146662729902
0.05336456220098018
0.09608553162799784
0.02752592086728316
0.10365212717200646
0.08098127036204139
0.24327751739840295
0.19475918572216963
0.16778175197224088
0.05879000329076453
0.06398359318786231
0.060532573428533874
0.07898837252684816
0.06413103480714359
0.15717417514535795
0.19992590859832388
0.18044358035507724
0.20894545219567903
0.17467677356912653
0.09444724876241135
0.1502250089466482
0.2181386489459195
0.24937745241558476
0.2161229410766727
0.06900805938809824
0.018377110530001687
0.0376402783908276
0.024440992312796443
0.0356785995966526
0.03174734918186463
0.05905489030182222
0.1326247920558191
0.025868492141297616
0.01873011201659805
0.021649892039086495
0.024417511831775828
0.32550372189556487
0.2858820468777154
0.4249752485734577
0.2275803095571752
0.2378400890664142
0.43514239708133556
0.16260607280318626
0.1618446291540839
0.07921152689309778
0.1260957090136757
0.08308043903887559
0.11092244073446443
0.21772769726508598
0.15679518915287965
0.13015854224151396
0.12621122494412834
0.1401849220717852
0.0972376658597457
0.1195180822785469
0.17860629156325036
0.1638315575530449
0.16438376372583058
0.10659486215667362
0.27937258696452333
0.22142148798149913
0.04952925906005314
0.17764891608588018
0.15965418311888577
0.24719089011959908
0.25759073372950103
0.11621115598298754
0.17873732963913583
0.2751236169842207
0.30653526438860573
0.4157064923365497
0.1431558002080968
0.10982044529166533
0.3529147853867883
0.14119790299028856
0.14652497818384094
0.13258894211205544
0.020955273479827456
0.04608898123748516
0.1787003226166768
0.1786108491594677
0.20823843951305282
0.0776460982692755
0.060584478425960014
0.05277235326646355
0.14835908640002882
0.04129858913230256
0.11467615790656703
0.12449797341498622
0.11342846501010885
0.16174673572625137
0.09763874733396576
0.09775258422073808
0.1934074638156512
0.14757499808239025
0.17557232343196266
0.043636478508767985
0.0799925908582738
0.06076180249789711
0.4581666850399672
0.34488410075625076
0.23572601004293417
0.49305055606594267
0.1145981725404429
0.26247025671070234
0.1841654375893064
0.43034912695791566
0.11981779294389691
0.04261694044087023
0.17509733748195275
0.0529417773561163
0.036178013556763436
0.0454772054004375
0.04391395769385353
0.2270594748925263
0.2281092192350679
0.3418912436286336
0.13017702159741346
0.24343996573181365
0.06906679393793963
0.08695671617835851
0.22250464611118495
0.32151469416429695
0.1437063289674333
0.14146554273198322
0.10793669156438315
0.06581756893480205
0.1470239667647826
0.143446617808271
0.06721203747536254
0.18995779782660965
0.06969185333693852
0.1941809361518
0.2041526059858943
0.16742058261937942
0.17847738975602037
0.2872121619063269
0.0468735420158605
0.10858347305133507
0.22041523285654674
0.2888938044027391
0.25522772116664916
0.3323226324613997
0.1298247985145446
0.16215263546039785
0.12597645278742828
0.09025198455611613
0.1422293121942136
0.08814534424373242
0.31794030018080016
0.21098777687577638
0.026877930982408777
0.21928497024846855
0.05891701156652664
0.12063333133466984
0.17429181055548915
0.4366733242764085
0.1555828462872395
0.37256418147896453
0.08399611374802113
0.16694265400167776
0.26306943126249993
0.15283556120658146
0.2540694778865893
0.20662465814296024
0.065667487219699
0.13003418217166912
0.10720669385877102
0.27337288135753585
0.3211962387956472
0.127014837223061
0.26780212521218405
0.233239453361117
0.287130284582836
0.053779373642854705
0.07399476315825397
0.12206545839822831
0.021400650980656934
0.336221107741419
0.10019275589066384
0.18835660905202625
0.043387652677045245
0.035841058521340785
0.0657029787678388
0.08214334343011645
0.03886024159252323
0.07684792123765506
0.03806724659214707
0.2877563995777857
0.06854137118917647
0.04174262758990831
0.09656321770968061
0.18942060273593667
0.22986186973379497
0.13922824114404425
0.19890713524396375
0.16432625016867294
0.37643787589737376
0.11418335765649681
0.1301559621534268
0.060040429215669065
0.09637456723733441
0.04859887389555939
0.09967987269415828
0.19587894369092732
0.1839619830252329
0.04731346009991609
0.08072559682211743
0.05748222425513612
0.03342938851868581
0.25536281120000903
0.1946044405654091
0.27398565915082845
0.23782981856738303
0.2739301785378625
0.11891377373420363
0.2396723812816182
0.23925542914752324
0.04115998038454623
0.098488526844233
0.06621843697027086
0.245964359410036
0.26537110164073385
0.11456300128931188
0.2473489347226507
0.11180871890346727
0.08812018163023135
0.23742249613989688
0.16337222239074656
0.2192132563036904
0.3069167404743183
0.04572010836483696
0.1965718788392649
0.19546002166040402
0.2912246935004768
0.16465357052965285
0.18110836555294263
0.08116674787209509
0.15228037864251726
0.08240014576467893
0.13991094343076513
0.10854813040563036
0.1621547023067834
0.04177507361366744
0.1662527779505927
0.22157182996566993
0.09986470558582154
0.11313517424496894
0.13632731778852894
0.3111292529704899
0.1587208785509073
0.11993958641130588
0.10968354862544806
0.10210591687420185
0.12528600074866328
0.08576224913676567
0.1750005886502642
0.12047534024919423
0.09899830910565151
0.25398405083119063
0.15577401180639427
0.0786385983787032
0.11038743163082188
0.15535141627211826
0.30451192804891924
0.0911916614730581
0.1046778839126166
0.062375098717670184
0.11784560833282316
0.28293373181608883
0.08602271766252255
0.1430898974795208
0.15398248014199847
0.19345032952550417
0.18239082663208755
0.13688313187303067
0.16409211027707443
0.20819404424058163
0.017321168020319206
0.08694037084204821
0.03125330299308678
0.015052106770384103
0.021719420099534564
0.020068317865444676
0.1670588059474647
0.17890423938807215
0.26616344079438015
0.051035323807742054
0.3372336981694427
0.05051067471818098
0.20321446678164343
0.047407912938393006
0.13734552445674975
0.14927617768910778
0.1488586543317274
0.07852789731474802
0.1019333565650453
0.06744632228243541
0.08413776539779148
0.21164056371817458
0.30442814886177977
0.0893234155302431
0.11074035688677089
0.20321616349847285
0.045649683404806615
0.399460039964756
0.32038565114725776
0.29801890942720255
0.377043768521039
0.1904817641684496
0.10677264862296425
0.0965253083836307
0.14560467073688987
0.17740359630080532
0.33024662622096046
0.18012531121775466
0.322013581527795
0.23861711867178795
0.2837632755649429
0.2910603948916337
0.1004776557771938
0.1392287754453068
0.25403127192829544
0.16643396833633856
0.2339908386328488
0.2515857590751644
0.1253652180000266
0.026477815132163397
0.0312929160516646
0.13433288766649235
0.14269202441411785
0.22700771621078933
0.02421927281163407
0.2926178453630703
0.23476630059651615
0.05811161880316912
0.111202352842253
0.08603534264177687
0.020255368355269275
0.05071921974173371
0.06930221484197013
0.05615424475007558
0.08544690593186323
0.17697348007636282
0.18803719565881663
0.19075869169310633
0.12341214088580262
0.13110890701130004
0.11238592070979693
0.1929919876154177
0.12228459912821499
0.11656130221843618
0.02663051264787283
0.12903528485649943
0.3404495553263961
0.32461739568023534
0.5211342640825648
0.31393436970472877
0.07708958216974283
0.08867414361456806
0.07549207252806944
0.07725370050424732
0.0929395049759665
0.26295992337214136
0.11917478630169849
0.08550167493906234
0.11402721274160015
0.0733979042401812
0.05054082596593935
0.20528595155016344
0.22585497625237275
0.18212394554184852
0.16894222675053294
0.07437961008327762
0.2272221073850346
0.18394026244328024
0.18749677353961006
0.24293004807166854
0.23350055361143074
0.21262598658951196
0.21149003490348123
0.2834084440244243
0.10433820133071534
0.3843936736234439
0.1589541322672152
0.08539069681581603
0.2088602756206554
0.29280943978369073
0.25851226006562933
0.07788870955355538
0.21472676236259933
0.12668196972947002
0.16113256023462205
0.05007708662511434
0.24973421940591725
0.21712387837540334
0.1295031657827146
0.09053499786076896
0.0675254744480595
0.08710192565046623
0.16017239393472793
0.10986784641841262
0.053205105416180384
0.2031887204768581
0.1584981113271545
0.024438328927202227
0.23767676124986792
0.10136505410798059
0.16749048652612958
0.15595422443740622
0.03897808366861446
0.04089645094906214
0.022838418914091916
0.1740676038431955
0.15301276758335225
0.06296006828683355
0.3449053501381342
0.22673306755946512
0.17209714988306968
0.11294911995972855
0.069838772737391
0.3139833171804611
0.25974382288221026
0.31525620113724645
0.20645670091846352
0.08689618022597682
0.0807242904645907
0.16275654688204805
0.25851620307991785
0.2931427941030072
0.2537729133819089
0.1429042986643951
0.04444729643352002
0.06403324440218994
0.11106277418179145
0.14949437734471524
0.08728810292373415
0.1265032207744668
0.17149116698967423
0.10166875074467985
0.08315409602668303
0.12089227121357468
0.1036314034857678
0.05388431948501823
0.06105833147403194
0.15853521310553917
0.09774619772012635
0.07017880433446215
0.12333544908411394
0.07180313678454582
0.2589973499880764
0.18681866054556628
0.19393907009767827
0.1707103047981987
0.1126294549337397
0.1409411533276559
0.03109541088052099
0.19097721580912616
0.3061203624293242
0.09110205292698939
0.09676050719224531
0.17583422740572244
0.14176008503170306
0.004650802840858686
0.004490718890644995
0.014288830498081505
0.009626372191797714
0.030257037977484014
0.03494264279992271
0.01360038850802996
0.019140177133769757
0.10031670890480648
0.10184061105534023
0.165939072429388
0.056932956082027024
0.035033014541140634
0.3341111738884244
0.09531212930323638
0.08014884597344246
0.28978140406612285
0.2408116191942812
0.2927276423270555
0.22683171529509252
0.04099677373194461
0.1620427615997702
0.046163954533582664
0.14589069703134436
0.05265338222648688
0.14194398203212402
0.06938216794642793
0.1113404990301513
0.37385910480232715
0.28755741691010744
0.21680300407661546
0.12413838127758778
0.38453114960135965
0.3876453709809495
0.333792743533987
0.15389816690255234
0.18802345171296606
0.33155119067404426
0.08206731886206098
0.24890353389008177
0.06445165971194326
0.11771703699641749
0.08858993875394418
0.0951213477104804
0.13071892785094938
0.1949579241929777
0.228402885254464
0.09877199223399717
0.28364453096620035
0.2928096450104833
0.05524469895483373
0.1012651785804686
0.1016798956917764
0.0399610046697562
0.05483477516485955
0.06325234780657783
0.3086169437384253
0.07147443173287278
0.1051370414506188
0.17269199055972856
0.02133238995576175
0.09690537241745237
0.062088639427598825
0.0464925910611471
0.055072171604694464
0.0540325093350467
0.023643908829433142
0.01459489157491688
0.06665986947888014
0.17856929559647935
0.14969166611030424
0.12171812107149459
0.31988187853232875
0.1999455938872015
0.08129132056238875
0.1415230474695101
0.025818929799570112
0.08739371967425724
0.1720585108843893
0.10555337350935888
0.10336193854586007
0.15279161275661074
0.0982447372829753
0.10593609718217945
0.07849626675269668
0.0656275116338601
0.05836836334465908
0.07799484105921117
0.30082072941595367
0.1412624439353038
0.031837886563074444
0.11578944751710575
0.24599179389917178
0.06258029524234006
0.07023939045736995
0.04441154316181873
0.08238276111762892
0.1190777935575549
0.010190575126576486
0.1300352697405722
0.18671424835423564
0.0499489128814193
0.014570758909369746
0.05032504721368676
0.007703141187386592
0.017844760551402234
0.0560201259156407
0.07491911727036575
0.13944402780700785
0.10491304806255523
0.05234135517855459
0.0840579343855826
0.05005166750856457
0.08426744018639347
0.030494082389784207
0.17530175311435225
0.12576690797027534
0.051575174859331746
0.011773452049731348
0.033392256062033575
0.0422772069603682
0.15281315696099376
0.17008617340541723
0.09081973203372301
0.0969575055567067
0.05970842251379733
0.024169088946183987
0.03834367323745983
0.15120181991400009
0.11704975499027238
0.13674377393420728
0.08440872683183512
0.2281259182865382
0.206990095227436
0.37686488450018135
0.07151008335568255
0.2080461354356428
0.18204615119799952
0.03009108131234713
0.05901920739560771
0.058950996137343496
0.11290262592508066
0.1655110763491808
0.09597242599902671
0.34080993188537884
0.32524149882900893
0.32743339220065604
0.07945737951168917
0.22465684964231367
0.2000892683345895
0.31353099236908183
0.07116827780650432
0.4487213566207821
0.23329657655566186
0.0095935215117058
0.16352397943381058
0.18117398440714508
0.33070998594574696
0.13648568660860322
0.2879156753131834
0.19475681262411199
0.12028959896592553
0.20038487958987589
0.18712470078358712
0.2014380729160974
0.16481792103599763
0.05982233214531677
0.054249856501820376
0.05461923268308095
0.06461730045250541
0.1328265756454655
0.29861961109812885
0.07038705767203006
0.24229456779621367
0.3768479597650386
0.07076408849940843
0.24347256319611715
0.13506959175084385
0.1737304402324549
0.1653304304827737
0.151199516507274
0.08035769325281235
0.14801128810720432
0.3799164178147691
0.23691217381842755
0.047163164978958665
0.018839308951802903
0.018557776792335504
0.035892886657145864
0.08069901374847699
0.011924535898011797
0.03869112124963526
0.24926858786126252
0.18850986182316826
0.237515819086216
0.30473356408208435
0.33110480681590526
0.2939081591346813
0.452061433529594
0.3346431729918465
0.08461202025155391
0.150709728710853
0.10033733805001999
0.15071037438147517
0.23763422326830574
0.09687746851114773
0.10829508224487204
0.12522388990708072
0.15489114749053332
0.1935840020046018
0.1987368041900635
0.13712314957051114
0.20038489610195295
0.12345426113112204
0.03565277383725567
0.04048272778252705
0.10532130818643712
0.09887275133279268
0.04511359038770917
0.1303689509054887
0.05851981802877446
0.03310385900821263
0.21174959072850463
0.18780701326877414
0.14456830455515465
0.15565352304676622
0.0868916533344392
0.23889330991759042
0.21828498207399924
0.18472923106138311
0.31916261807698904
0.3183894849790889
0.05779168446003758
0.34364999495209814
0.3171789624470689
0.10546016028504938
0.12459639259448149
0.18852949925129564
0.05356449654288481
0.04246227650304281
0.30697938786875256
0.0794257859946942
0.12256161618962837
0.0836521835955094
0.07407687471448811
0.19108793173184338
0.14072122517309404
0.09340663815209166
0.03994625819649971
0.15058187889829402
0.19221938830520816
0.02815182870824931
0.19509081066848252
0.3582053648085865
0.10836177119129181
0.1584762596634051
0.19745781007151345
0.09840420675065005
0.09201845971972387
0.14690547019147107
0.14784232961110783
0.1716145666239019
0.1075020603251937
0.10409129118843
0.1277004656781125
0.10186851997086949
0.1305403391118086
0.057030576554015465
0.04549365801099059
0.22110025111111903
0.3469143752973766
0.1906062944728416
0.03496555266929549
0.23114414661287205
0.10923929914412815
0.1680751504629952
0.0400654740158354
0.09619877764128229
0.14741102000436127
0.21001111598515235
0.19586738208725044
0.3013017062468317
0.13165106954245437
0.12105604124349148
0.1723481756521348
0.25073124299804334
0.1141918797058028
0.21470272202774895
0.1132352406869701
0.22067249972024458
0.26225359791627945
0.3050959158028792
0.26825072159857766
0.2963345005721183
0.2543388702103232
0.24011952218041346
0.3114699278294562
0.042661148853225264
0.20101184290846164
0.2656564762257108
0.06654059904469137
0.27291023713313783
0.1847116689741939
0.2641317266034108
0.19124727752689435
0.2643001561755541
0.01580845786785746
0.14454303695534979
0.1511752898056293
0.19878362870381855
0.15948499555980483
0.17540286243750408
0.17695930659642145
0.1816826544605852
0.14286047025075885
0.10596102785539738
0.20979956589095308
0.1351042701577776
0.1998333130098529
0.2719486841669638
0.07979110700229726
0.1956960858685359
0.08424881486864337
0.18776644030971987
0.19260494327644306
0.056340402701096956
0.16991875006068946
0.3664684842681824
0.08246690744824448
0.10342557857692815
0.09612872725699015
0.1930106284486537
0.24079813855157295
0.1015088606108655
0.03521609960551298
0.24392541016096014
0.3786223860437436
0.19639135257844564
0.03939334507380306
0.23526230911644816
0.13852553982733481
0.05374425962359919
0.10314937993645353
0.1328677832639006
0.17011856289954874
0.12200848791018394
0.10386863513986844
0.08619119093175927
0.149046890618785
0.10987651941935839
0.1761160834283508
0.05638001890022053
0.23143162204661427
0.11750508255458052
0.1050272434665293
0.07701669807435843
0.15342216917496387
0.06105123852169069
0.03470325568550966
0.05627919342677096
0.13130590116289895
0.08500354399003787
0.0729604970254592
0.022097080350613342
0.07120644062240954
0.07911806968910373
0.1365822170606416
0.2179392108741617
0.17833937097518957
0.23407234943587746
0.21585544410054472
0.1990606267921805
0.03034548552003124
0.04567027182143237
0.050912144882005725
0.05943726288957193
0.07699731321193504
0.035915627886709704
0.1400384714938357
0.03530907500156393
0.10225957447309075
0.025018346737599343
0.241112175213013
0.2604449659098714
0.2915134901611534
0.27540850524079685
0.1328255610393905
0.16913127727818017
0.2527473603304315
0.26143378018773833
0.20880437807178934
0.06663871104521768
0.2598406510660119
0.26185239644232644
0.08247718244552311
0.21845920788298054
0.2764226004645422
0.014390216871612706
0.16064847255937703
0.14295155635460735
0.06334851531809346
0.27416382388632393
0.21469877314236974
0.22811650082140428
0.19076014355581508
0.15278017655279885
0.09242313327108882
0.14322694055265545
0.19425175187117802
0.013243635781765819
0.5038163537540766
0.13728596906178903
0.12220536785505837
0.1604543138729359
0.16801860348969677
0.10270160384351108
0.1637247266658253
0.05504849555055254
0.19965374587310133
0.16410146049887323
0.11643956641481637
0.15402847180223908
0.21508683077486
0.08978139946510798
0.050755333604530196
0.05110547281427257
0.2821333463097739
0.21604409374743805
0.11183905819849152
0.19944044131551086
0.1144668853831637
0.2017750377198527
0.16368177424594205
0.15510273096991306
0.14087621426538036
0.3060546326269626
0.2570768046926091
0.20363919151400012
0.16146744700982274
0.2536709736877511
0.14547583523706237
0.14832877156667465
0.1603863230041648
0.1097022513571725
0.16999509560501774
0.10947857436623115
0.0778624245166757
0.12708823141629827
0.09904193037316833
0.13447748402446247
0.05878991615837134
0.05292900044452315
0.048635698070636516
0.15430282933204612
0.03785267209941195
0.19051377076873408
0.04572684728733419
0.19606037999925943
0.1795378768529179
0.28021049130205844
0.2630022013213081
0.2173084453892689
0.22511088137314567
0.23065377737695536
0.20808754683093927
0.24245270571231695
0.2910832873812168
0.07780843821223316
0.06826981433037022
0.04491301218405833
0.0685256008148271
0.07539542586598445
0.06666442041024766
0.13040589292256613
0.025754756351819844
0.05134741956256652
0.27352962600723585
0.03797271631846555
0.02813041241314842
0.18749621643423398
0.13375793267011907
0.08638686421104845
0.1489554814021538
0.10413675910184605
0.056888535412144586
0.15657147916200406
0.21086178132155617
0.28766239816675854
0.21765436820838013
0.2905756039678254
0.09960028767561464
0.07995343604576885
0.07359049515924186
0.06840609632404623
0.02985882857654985
0.1886945885343586
0.15056234976125002
0.13879000981325296
0.040974548127821774
0.18450484979163612
0.1967816771732797
0.07518316187686118
0.08495754736882044
0.05717913691507202
0.07053856789379527
0.21000022000684718
0.09256217926694857
0.2564434318955259
0.18181926954380834
0.21000380732190554
0.23780771699033496
0.16595485007611024
0.1924224840557471
0.26978723235772745
0.22747011942703954
0.16676890569091207
0.23147009943636673
0.11242015860549102
0.13616877366627192
0.10119164642872992
0.07044194817932388
0.20134945849266112
0.2099345233191064
0.25853642334259963
0.11112823431147442
0.12797863421867214
0.19869761966533248
0.1276217205703518
0.18758849099858432
0.11216572618672224
0.1270313672187327
0.2553505145955168
0.21901016548379793
0.11556227033308833
0.0746719294954383
0.13473586325590506
0.21521706105121385
0.18586292151084063
0.23603208026618266
0.08113445373858504
0.12448575447362432
0.2460931856156224
0.20948243442133704
0.20274262613698255
0.07171396304748479
0.15157534849738857
0.12203667619630516
0.09615838671613763
0.09664705025899492
0.16525602721117197
0.2046990864571303
0.2532730986786871
0.24142750711044472
0.11675006109340795
0.12923211411022908
0.1947268761009694
0.19010690534941185
0.10719308720597899
0.19597856849369483
0.239849586628926
0.06825845321265239
0.27297982384228503
0.3164202825150615
0.281590687589042
0.33174187875809313
0.18183453157989796
0.11603905054387455
0.0639596712516504
0.22194417432040303
0.2681887196138285
0.20038105740807616
0.11133527379285349
0.09558135197999773
0.1070194391042544
0.16380908640613964
0.16358266469330304
0.2797402416808888
0.04446302961400464
0.15557194015177772
0.02146018891095212
0.01672011190889938
0.0770686709822085
0.07504230101300748
0.03835997903539411
0.018469508111518245
0.026641463941765423
0.028860975262718875
0.151713341245216
0.01732553487535752
0.37513351927599625
0.1484312755980459
0.0493018142789118
0.24955306426777255
0.038280547795444514
0.3107874255177202
0.25369085702925415
0.0731915416175085
0.12448710231982614
0.2313137782323714
0.13151273130508362
0.020369704606202448
0.015962375311893998
0.051495506935713024
0.07597020384478746
0.11315522768152605
0.20837720948352073
0.3043234652429072
0.20689926608047163
0.1923813351799221
0.1803160445706536
0.26178743978935193
0.08283820358243887
0.12087378449337685
0.18290908130783787
0.10830350595095019
0.19763961075713132
0.22025759891834248
0.19200024486120057
0.17070152283381307
0.23615471580968547
0.332463531887332
0.30238522720557276
0.31577444972091323
0.25951200396866864
0.09905056847966574
0.11479904050628392
0.14825963563182107
0.2741213516474838
0.30141000763840076
0.044947827715228296
0.08640718917792264
0.06683716056622833
0.23529683382963204
0.05655133145095058
0.16805538037518844
0.09111185022053483
0.03628598123753487
0.11269320531479642
0.06959183323915084
0.08908197176351972
0.08249542492236804
0.044412215534236806
0.09496852478819577
0.21834230867629628
0.1356900114244062
0.17124322453820442
0.16896511589679777
0.15381396291972
0.18215000541272464
0.14705680278137154
0.12705036194475763
0.16688651728668544
0.05214492897618647
0.05820602736005448
0.28731620986712975
0.017948729993262493
0.17261981001465887
0.15304585188858974
0.23247783464773467
0.23660995923908779
0.2650360358928727
0.2785748650080228
0.2184056379008744
0.186434418947214
0.039659965120724734
0.28118231838160873
0.2374115200938893
0.19968174299394661
0.21101177355463926
0.18512169867135977
0.22956895164732383
0.25082426778314204
0.3000329944612774
0.2156280830422279
0.14045277136171286
0.06516633812399636
0.12264518076524414
0.13735709463875417
0.054773991171507636
0.05649516139188394
0.17984478327849257
0.1253470569417206
0.06775928240332403
0.14013970257252079
0.1543850158644695
0.3111817667638332
0.16468093970457306
0.21546705354474255
0.26837211229520624
0.14794587079880878
0.11135542953248394
0.3676968050350921
0.1674444426667729
0.3386040034060402
0.323225642076941
0.15745074291105907
0.10708748593382741
0.21595663650704772
0.16624741605024818
0.1287034815613888
0.07616801390253877
0.061313786484791966
0.024725391411514
0.10531254835268121
0.15672632460411012
0.12662779438298008
0.1294567944332699
0.10738556324890577
0.09546285217189088
0.13870411644991812
0.20366298809822772
0.24023896312115073
0.1973381633358985
0.06137013904064087
0.2582244071206751
0.13851364242495684
0.08471795609699717
0.0645373913919522
0.09735965448512998
0.12258254189692064
0.12268843090089795
0.2067931001571407
0.15546814959796415
0.09561697319515557
0.06592890074849211
0.05466711359586076
0.06387642155943422
0.05863541875269622
0.03387042342973689
0.37185064117998645
0.1489984516122052
0.2429837043025658
0.2828491995385964
0.29834701832659044
0.10106058885371166
0.13740662617602667
0.3206739141681138
0.130607856019227
0.03149538847614066
0.053751942118571774
0.07179366892698623
0.1899213022764049
0.08607679009896163
0.10455090262228307
0.27458962095217915
0.22341847004176407
0.07357815876478259
0.07620971355669144
0.08852631833923505
0.1187098039076806
0.09768570219840945
0.12772436625657438
0.11364650380547929
0.20834925614940025
0.13296183392991845
0.1858064089182715
0.1877792000965265
0.11750581315404901
0.2822798853723094
0.285371304309049
0.07665660349417082
0.2785451888275271
0.05213986823854411
0.0648902880668774
0.05350226733566171
0.10707722692654287
0.031345036573337606
0.04612146524263951
0.028896748689308988
0.028744259776614683
0.03703089537230108
0.30443198280568085
0.031426420634176236
0.3002493501342049
0.032861037034936334
0.26195152790911813
0.33919447261616636
0.034871349702069336
0.03067593540001396
0.054345891069000944
0.06504706117302049
0.19968241823824495
0.16699086312224581
0.2037327791074887
0.14963201849018137
0.16948815653315275
0.17989415921991211
0.20170416456956966
0.21747726884023877
0.10048996915497015
0.04573562069266194
0.060826366596293154
0.14170512865781276
0.16446639777168656
0.254980908602474
0.09885274803850629
0.05262030906567417
0.1626870837063177
0.08720602273392045
0.13544499700306858
0.14495914405811827
0.08872960119730158
0.14561805402317238
0.25659958606025485
0.11965532222804057
0.09286246681741556
0.1708928547717728
0.10488384369279001
0.04372892851653425
0.03725456991724115
0.1449858162577379
0.40046401086750555
0.19600204942265637
0.2542559332730537
0.2718918716909277
0.23528591808677612
0.18862744409705567
0.22723103637121225
0.0679076600609927
0.27779832261671156
0.09944605207665808
0.32809260565362747
0.23559570037941385
0.06218351901626028
0.1555837233638061
0.4464126858401101
0.1905095635535536
0.20687560171320354
0.06693331897715639
0.11211481458637751
0.11149110479196096
0.15782467688578725
0.08825599307684873
0.11629007523467005
0.059329818524913126
0.17761788538718226
0.06918978655612286
0.017273986565568625
0.03163551970971868
0.029524978916414212
0.06288044839274945
0.1305044000619248
0.018049575893480618
0.013363510142752714
0.016399732473083104
0.021516053687207357
0.34536981139303125
0.28464951744972655
0.3590810048203022
0.2749221235388327
0.23366802569229975
0.4118986155391199
0.31362240338169645
0.19952930359531837
0.05587723661380824
0.2565437710108067
0.17398210386319227
0.030169462962375673
0.036190159722228284
0.17493805442241742
0.22849158461146002
0.0706657417777783
0.11238994319490844
0.08206180637317362
0.07342280981331493
0.11031927402094854
0.368015148422115
0.1561999316099246
0.07763318642953249
0.06297408308218395
0.2768397703431375
0.2318688602182048
0.32939879499865204
0.1273014335214216
0.09648110103572068
0.0635834887460539
0.19378552693113094
0.08101588042201781
0.11449552910735926
0.13476613937196832
0.1219374283887638
0.12023647844987297
0.10765691974431091
0.276867404601862
0.15752060606389606
0.26518041495954986
0.19069075322215237
0.17966196772193957
0.0665607919064711
0.28041945216488845
0.14151971816529754
0.11150674739495804
0.3235488297713303
0.20652586375329948
0.0608470709682383
0.17235699046820893
0.16818014961377736
0.06337931021459986
0.2820042255069664
0.11297426886369011
0.07969004739160494
0.07690950372704806
0.015135395698293835
0.13092171601100647
0.08531384724568199
0.18060860415429877
0.021528289603984188
0.1665307188013856
0.22609030672213315
0.19346527680222184
0.18725802322085397
0.3182499527541675
0.01164664091342707
0.151761976678549
0.13086779499452927
0.10469565381511962
0.09212041581454716
0.08267952000818962
0.1207633149726785
0.25142133613484563
0.21535951580859433
0.1202080078599022
0.10381837041579114
0.09123599726212321
0.14130317886450963
0.14357912924055213
0.3360346968985112
0.11487507432332311
0.3714616219738176
0.24489804558779918
0.06506077136640914
0.03135248970693329
0.07351953278249054
0.3004645085876809
0.08556534697569862
0.06116641605731162
0.18159639722347776
0.0687456042525165
0.11685102793725394
0.2112769733176863
0.20397937737769042
0.22323757087804386
0.030898195513255358
0.058446083987792934
0.05272425505635929
0.057108506253717654
0.10861619038381097
0.06405524889082606
0.04509909317958152
0.015851554113867662
0.10357369491655541
0.13641832104177765
0.01812775254528421
0.01072366475264976
0.027891768297470983
0.08587934184904403
0.24719642636681088
0.15503458726414895
0.16938009284459182
0.26437659646836514
0.24903067975345394
0.10581265172178539
0.11324057508570157
0.3044501070845403
0.05068367761012414
0.10105954898771623
0.23757310986324334
0.19192596623457556
0.0583510673407711
0.03252172485444312
0.17882452725320805
0.04976721756524121
0.14705493401241368
0.0418578975096115
0.14031292323819994
0.1793090635934999
0.18819569921688717
0.13049541662687114
0.2949462627408529
0.12237031353808416
0.3277872935054208
0.2586687963622054
0.207859976844931
0.13554100753718518
0.09938016104924774
0.25266667328525333
0.26574857633242444
0.3005003562330707
0.15622104465203052
0.11853505873211159
0.1216061109568594
0.34593261948568377
0.2636674480318863
0.32567543813240757
0.1675200325900119
0.22215293437757785
0.12720983619104373
0.1417954343247951
0.1580571246355963
0.1405396589430885
0.17699648979534308
0.18394884677769482
0.2860511639712958
0.1597542017316353
0.14388729424899663
0.1350218921148768
0.13600065712958637
0.06036892433773439
0.2261251965226947
0.3072595434616306
0.31764344773560643
0.17914995047095852
0.162205351778154
0.2209743958482902
0.05450688024334859
0.12247728714801198
0.14338461819711462
0.1480753966509143
0.14337943210970364
0.28608744212904297
0.1377970246042355
0.038011918023718914
0.04077473306504451
0.06466423922885571
0.08426597952723662
0.17448891734592548
0.08258478688797688
0.11089065748137106
0.13572051925931686
0.022942062885792522
0.11517688740995041
0.14120646168182036
0.06531665442705543
0.17474768609508134
0.04383328612091974
0.028355785218235428
0.012452813389026707
0.021928750270966656
0.17287163566291502
0.08343310543278272
0.21787769517933195
0.09986862467282845
0.21243564582535177
0.1735020716845165
0.09177277811712992
0.09501261170021584
0.1299847800872607
0.11537390180119723
0.10697788694946646
0.14238180579551296
0.07387109818409393
0.035012176389182074
0.1610973421437771
0.2620732354297178
0.07385449096262
0.017486891050218546
0.09299698450625213
0.1561636095760079
0.28755064543657116
0.11838672406993576
0.1664949672122671
0.15275955865638233
0.1559626339651465
0.225480615100983
0.13969768066784044
0.29600006780187477
0.24683338630986343
0.2514340316770288
0.2458817950920731
0.29569681300069656
0.14973737271860468
0.11565917000778221
0.08917634516121185
0.15259327689177027
0.10218987546216707
0.3050529245189276
0.2252468492501052
0.13147799181950484
0.25669381511882744
0.29743045689077446
0.3625820840672264
0.20403152486903112
0.23984584836017092
0.5548534870585852
0.5304778090365865
0.5610478599655561
0.5173812285271981
0.3775618371619463
0.0741948119398115
0.08054018613253518
0.08747180431584065
0.2785833840176127
0.17177624105919603
0.11664389667958218
0.14891807276271846
0.032032497661585536
0.14559124917104968
0.1826541342458691
0.06422211110332177
0.06462181042939794
0.08555103502351775
0.08738862133686073
0.2195399978174878
0.053637859399412256
0.06233889242912052
0.03238932340087275
0.03912393516932086
0.07569328266762487
0.02399808851734657
0.03543633528803358
0.11591104332402981
0.1097652619313075
0.10894202829619762
0.13245280617717634
0.13958290668371262
0.04323820265318004
0.11280826656224995
0.178458131086924
0.1993945649588425
0.23576303938465107
0.2054301049684439
0.4421445796811096
0.5033556851595036
0.4514107486494246
0.20717871867869864
0.23104298892255862
0.2207481437202553
0.41713831895533676
0.3855856278084488
0.3146254758300483
0.04591912347481907
0.2856995057821558
0.4028369932860647
0.05219165364373808
0.2171257310753567
0.16796326862039457
0.3284551513793124
0.03916973799600908
0.19982298464213116
0.24243730643733263
0.17276837488389132
0.07061297300768977
0.1368655229499129
0.12418431066071792
0.1263344333065756
0.12362573711815691
0.14086143720702837
0.08271281010543914
0.11200111735440652
0.03979646825707961
0.04262791021739319
0.10180689111394384
0.06052065759824909
0.1525698233544638
0.03075515966609611
0.17949017450942042
0.034346530431522936
0.10776737559321418
0.061737484385614175
0.1020773138273422
0.18115150456015888
0.11476369013768203
0.02327137013509121
0.1496989144092811
0.15594241726499258
0.3317558325523478
0.13396523192058993
0.20571549816209492
0.08764628975516135
0.08858024521638677
0.06698587484143319
0.12670698264425861
0.011185449664720223
0.08155418567451855
0.3490408351324851
0.04578727119152002
0.4411989634774979
0.08650878498968569
0.17150143727390477
0.044494738243185304
0.3516462474733388
0.07551884001093802
0.20256140789070862
0.08589117822331227
0.18039175422222684
0.170284303280787
0.09318748575519586
0.2600489362271464
0.157073162488635
0.1971471146095556
0.14062973270033333
0.20292742709312592
0.05567593353911808
0.23283703106175338
0.22510796019477994
0.033217621300614036
0.028953433242288096
0.050357589519975696
0.04759283533924166
0.1558390729386296
0.07965384459785989
0.20246870429641298
0.11664809417933612
0.2221413784842276
0.14442091209216684
0.17202299416206746
0.11454277784470063
0.151697802538373
0.053726081361603534
0.053321767190120904
0.11403456550071009
0.16888634036731487
0.19993643101114233
0.08996969530505972
0.15347145958428282
0.040209399133193234
0.1761251384289618
0.16078996889920077
0.045436263157732096
0.041107750022402294
0.0447803672814169
0.10815171131712455
0.12436882792214696
0.11387782642520361
0.14841936827725766
0.1017323623648131
0.14582550575353959
0.1596370239074455
0.10261594312554288
0.21667616497347114
0.023854992515830536
0.07786996069050102
0.06403649626617901
0.1514296398595701
0.09720732600064938
0.31750336125575235
0.2718097561533401
0.14204784584327423
0.3646014245751106
0.1360063664684033
0.39858046290950216
0.2401897621601493
0.1294057323512923
0.10937863581167347
0.1240972911316779
0.07969776595474207
0.2122302549744259
0.12032226136753603
0.2436702318872589
0.2323419739163886
0.23991610564145122
0.24877336343769735
0.0851890407143434
0.08733014520132484
0.1982592454500547
0.05283690417628244
0.18873439556876104
0.06338327096369839
0.18310911334273763
0.09147195686938518
0.03020873437693024
0.2722914136854855
0.2533945316415384
0.19202686640177477
0.2063890780339476
0.13023505257094536
0.20920045333029955
0.17883158057391155
0.24076727047813523
0.08504159679165083
0.15630799003759116
0.40964105667290185
0.1475015417884742
0.14399104503214516
0.11358590687497638
0.052548744664218626
0.022003033262601123
0.029732056202064493
0.15917836361409693
0.2256293383215615
0.018123514617866775
0.021220377717054883
0.05245060999152965
0.01903550191468275
0.028932036118284373
0.015773753651085083
0.07396905032607815
0.06420282778880257
0.0552197129114822
0.36072606031600085
0.25950640863874475
0.37646868754180673
0.3458524649652514
0.26428018175434936
0.2514927119172607
0.23037038353852304
0.2709066528731386
0.22488080607755556
0.2836884781251042
0.2827323816098794
0.3392431497487835
0.22551902789305342
0.22988229927779238
0.09188816567121874
0.02462964295149608
0.027907732242195723
0.08040452248270727
0.06800950931490973
0.20707339942182915
0.2749292009306477
0.06033552341199656
0.30178610490862334
0.10634817537496748
0.040002576836116195
0.06129527450900179
0.030100913755336606
0.1870407470727877
0.048314796643303924
0.2234859230819213
0.12202642952205552
0.094426824642213
0.09876835124507999
0.04084572860003888
0.04895255982784722
0.0911937290494857
0.07575616318454971
0.1368613512679683
0.16042091192751598
0.24704835224573876
0.22271765936785615
0.1379518495263517
0.11870237053380026
0.1420777202500324
0.14676043609475592
0.1268272744129131
0.09082962043980199
0.07190354726805226
0.09430441484879286
0.37862322562448236
0.0701136599635261
0.07936431567211912
0.06894438251632545
0.08715903194289387
0.08715800063344568
0.020098817067428894
0.018242837388091643
0.16877170114390216
0.1646703682698684
0.20159321555002702
0.18700133564894272
0.11721124915239577
0.09627585514698678
0.09443799127874847
0.16763864245887158
0.08149112680156496
0.2861621005838947
0.1617510615853181
0.11365135184358685
0.1092896198351509
0.19912806731515537
0.3887818565272664
0.3325141076976657
0.42788528766285194
0.3439767095326389
0.43074000750044106
0.4278940138187749
0.2902207614854761
0.05474624851953303
0.06046868636528028
0.10170509899879904
0.022163466087206506
0.024437894381841012
0.07473839599843593
0.08754933338735604
0.0690411873198208
0.07135461218311309
0.11054836186799141
0.13956967257467512
0.10315183706985862
0.0836796306021478
0.2353327221373113
0.07250147809734056
0.10175227988316972
0.2766099129643046
0.032117765406805374
0.24804952333012728
0.13476766206058113
0.061782381950729014
0.35452609295175763
0.21455423989698236
0.07207940438652512
0.1813543566250961
0.17248780909968298
0.1994259452482524
0.23927117730553005
0.10874896287423208
0.05819559295038534
0.26255223411199363
0.1116734968553122
0.11155503246577357
0.1281172014730217
0.08950821738381319
0.10434746081092891
0.1628503248817217
0.24504452351242373
0.2973715159025155
0.049049064061437275
0.02315926184199968
0.0524210498171182
0.29884222784817804
0.21185504966197402
0.13691787440917128
0.2187572934933823
0.18707088708832512
0.32341231885970734
0.31969349541776465
0.2740741923185765
0.2756537153786277
0.25420966889019797
0.24879054045655757
0.16166055622171266
0.2761325539581022
0.1835050794971211
0.24167943836129976
0.060221076019805704
0.0556429441293619
0.023327595090706553
0.05246561093581867
0.1277238400928118
0.2473595726740289
0.08177589710074133
0.14158760986267677
0.1138244076866734
0.11186449438245505
0.17154958475979934
0.07912019758001017
0.12267024946975892
0.1332560937037521
0.25669044241634686
0.18139450794061893
0.2107109177114954
0.3508409228062664
0.1916804947163591
0.1627295595527195
0.11482700239928585
0.4021139204895224
0.46702446214090676
0.19135509818673346
0.02537752107743212
0.07610744405479475
0.02864837354443591
0.039071354456298
0.06913511343981271
0.07148719730483573
0.08484822289984081
0.1403484175370907
0.08208445686075293
0.05280183833305766
0.08527015009324013
0.10568914745857119
0.17236646334485137
0.10278692728103617
0.11002867740143907
0.18656378462822973
0.0853475716356798
0.12252321863065953
0.13779197903187554
0.06251924334958256
0.2560021896327583
0.05118748256129202
0.12558888944402136
0.1428461192724309
0.06723451486306599
0.05430237667317164
0.2295862752565191
0.17116254504132034
0.0966469267088756
0.05278299705805601
0.2865741056123236
0.17241842056247003
0.10907687257235872
0.2752491992583669
0.04894434866014941
0.06656975219846585
0.051048218128001234
0.050753159726214504
0.07688310590001353
0.0700236301008984
0.0715581940548782
0.08215818696727292
0.15184292575283442
0.12311562657465819
0.025236187929638595
0.03244206691790184
0.028199325058708813
0.07748501781053585
0.3152559079828238
0.03765698533533017
0.22105097405012417
0.1519951808693882
0.2822578051524537
0.07698336806572235
0.11841726194965628
0.18923157801589502
0.15660409207791837
0.16924889201452756
0.14531945481912137
0.11477243327721057
0.139793772951445
0.1904573805341114
0.1744834824761509
0.12914914060532331
0.11380667305694726
0.026536691830372404
0.07921308422000355
0.07882587024089213
0.1768781180294849
0.17206165062639656
0.1311488282174077
0.2360403833596209
0.08301191618631446
0.21122911316364462
0.21935912086462683
0.19154355541077792
0.10283557260300585
0.17380202219673282
0.0867177440131244
0.295201553350271
0.22841310264796627
0.07947344881786018
0.15337512621675034
0.05567261918004578
0.109887717402028
0.12303230107418921
0.39511042952033926
0.07076120508693999
0.024984210788030814
0.04587395617980666
0.05635254349806154
0.0326582646108496
0.07572109298472614
0.09699658529952875
0.05262603897431675
0.08007498886987538
0.03109787571335978
0.030775416542387468
0.02534177288083204
0.022077427358505698
0.042191994754222056
0.12120972085457267
0.021992447978549493
0.06660811562065165
0.038529043501031396
0.06264917728932004
0.11931250257338323
0.20140789186375754
0.10622217974030662
0.1573659842329806
0.10538896392297853
0.2898073825210848
0.3549637244383848
0.0414354050951347
0.1362072672516969
0.1980185270369134
0.19946379955384658
0.17383924348436597
0.05597137860491684
0.2522249367257771
0.13707304746828217
0.14830459208178415
0.1504926042000937
0.05494454172300759
0.052011231568701737
0.1727970456932419
0.21524577683434623
0.19815610972866712
0.19946275988022774
0.21844528634472415
0.2413123061267315
0.23695758701849923
0.14663366708706307
0.14875485164826127
0.12192059117287421
0.31526195327733125
0.1696090048033477
0.08495527894183486
0.08577994588047384
0.15113859169826088
0.19340203161804945
0.28776272820760734
0.24294381214029506
0.12894238133082975
0.11409030921462658
0.26383477934151484
0.12816829202948368
0.18704535928601354
0.09482910769567145
0.28489594251863015
0.0901191432993279
0.05022984435933724
0.07137410460780157
0.08891962184051701
0.08453624847227523
0.2172510503997551
0.15384158654404295
0.03126208381224579
0.07028554471674077
0.4156530398917061
0.205591667185087
0.1842393738288649
0.23063027652515436
0.19991960856799568
0.034715880723064245
0.032694355411897885
0.05479959916217221
0.31513164702040686
0.11164443131648288
0.1274733523729956
0.08667538031497797
0.27915428193659914
0.1795951589939551
0.1570820364204982
0.19883501120419264
0.24672675141595857
0.2033044503714415
0.2785524365261533
0.15412248343555457
0.1865532542566107
0.2678485783115505
0.1848509910912474
0.09043345863270055
0.2587881570555031
0.022451061794031005
0.06162149201846589
0.11521004356233303
0.14168156314854957
0.20693924817953152
0.1956307709742757
0.1227587133130802
0.17933056432502703
0.07217088757671321
0.17027349549576257
0.12215108410045344
0.1227604655450641
0.14559625067921053
0.10789677849213769
0.03818775951404496
0.17361625626128815
0.13790575523380938
0.12382815325766337
0.04033197464798733
0.02867103676371207
0.18688462489708743
0.11663121822061279
0.07937280571562927
0.038348912779599065
0.12078448505193867
0.10837501336652165
0.20202417173210588
0.19812048326082254
0.17662280600420546
0.16355783451491185
0.11677239334718689
0.12983011679671005
0.08358965479464832
0.23151619114645475
0.4739604248937562
0.22082720890528976
0.2549096163341971
0.17617309585631333
0.06424088206939413
0.027493921669113176
0.26180821944298005
0.34604455237555853
0.10950491453422233
0.09193841587761557
0.04866361182100276
0.14964269240404976
0.12450580348254409
0.2064836057866137
0.09595036966067981
0.14952347242111785
0.1584428003834761
0.062019954505750055
0.12203090801226232
0.0941820702185046
0.22085647519367638
0.12455152746612307
0.03616027782823079
0.13796417597996205
0.046252281579903146
0.10828647965499194
0.17776555836010893
0.2288200515386519
0.17105948859676162
0.18919467296881748
0.2640469974537409
0.22595485936591386
0.20383736478514694
0.14915824567062896
0.3243209701127825
0.14156563773870004
0.15842625644992672
0.13311977008987708
0.21427688723783042
0.16898567078444812
0.05575396686637157
0.1246725165109978
0.19812279464169996
0.0338333143034287
0.28679126864826837
0.19283106542530162
0.10206775441234248
0.10217614114362603
0.19393846482608262
0.15904269998044931
0.12815481187926486
0.17752297401211947
0.14389089573447872
0.025917277690298716
0.03632899667819196
0.1467185470170645
0.043037536501903555
0.09943349431274592
0.13237180540389534
0.08479933515803034
0.06559214232906112
0.05680426685278566
0.057928545781277416
0.09568135351010808
0.04872491853731243
0.06879642300620054
0.035519606131270295
0.1313919271209703
0.07058763574086475
0.09277188325765211
0.1044888361727367
0.14995920323272927
0.12021896168998446
0.29912360969909796
0.12444078408792993
0.20908817511226765
0.10098268845720003
0.267312586188486
0.17041342780202734
0.21475900402768794
0.30275159237394683
0.15253676911396075
0.2888792303398234
0.32357824991129674
0.2967490954537756
0.23276700947039541
0.06733719208415555
0.19581255016159171
0.08099932387591706
0.18881465729931182
0.028878117116895443
0.03267751994600928
0.025346180272457754
0.0634547119942504
0.09769030851526547
0.13871095829168978
0.12345135299693451
0.083801924571038
0.20572188686298926
0.17738549538800538
0.2203295555282748
0.1285645290656361
0.2310934779923254
0.21418237555270384
0.1649184881735303
0.13715111727504245
0.16086847048827782
0.3831270281823156
0.10739546835991114
0.23879958006672047
0.0189658645359082
0.17178228379385638
0.03131006816767673
0.1633228475076825
0.06221498709786298
0.09227722906784126
0.08531267480745296
0.07031390149931244
0.09533667178219306
0.11750075663622653
0.2942421376010051
0.5111013967341073
0.49349588722213994
0.022917263154921194
0.02844024895614317
0.015920053959051873
0.042632723244069685
0.013280107068574853
0.5181869473869605
0.10801325599258668
0.3326555430214024
0.3169991096386208
0.3421777088517252
0.11694382156791132
0.4716845891578783
0.47855027097981895
0.07207074276383302
0.01770428407019246
0.03803399149959192
0.04009091706461935
0.09636863477009178
0.012868500407717195
0.07114265819552
0.09025774822601179
0.011942766416251738
0.017360545625868435
0.06873385275364363
0.10208620136461485
0.09524874831860297
0.15289711091663707
0.1723480956783305
0.24070940826679973
0.24424780083470507
0.15272471127609188
0.2747785304731383
0.19185440491548952
0.13413693976360958
0.18094157734369856
0.14627020485878753
0.11400219318197484
0.08516088391038946
0.10242491338293194
0.24245033494902773
0.1442681676418507
0.020575277774629062
0.014218470910895308
0.18527497437825863
0.016423177561677736
0.03159174312849312
0.035907655418659555
0.17800526038414444
0.12147838331287111
0.2320266908171416
0.16430290458899965
0.2169132862883621
0.4624207824533471
0.1446352889574235
0.12570241464413814
0.22862173308046702
0.48048708719296646
0.16755911151324973
0.2602622813848044
0.03686248213549914
0.01533701673944739
0.12074572747678128
0.19892066004462128
0.029065983120889843
0.1020410056824209
0.3424009420625819
0.12897558386429384
0.1885451511993623
0.17895849525064436
0.14491136971373178
0.14254996560237987
0.11178400916256866
0.18084182567618684
0.17239273680572523
0.042563980224817
0.08443418562504498
0.1558528135095414
0.02369574006657711
0.1705542174510267
0.11788733552603173
0.14214252425556373
0.052172787569123
0.08833376079476318
0.03778145122892985
0.030097235039613264
0.06766802566151522
0.04995399821910384
0.03394192288047338
0.04701747819325511
0.16997905927062176
0.1017812985607658
0.08262587692511152
0.10851477992910487
0.08650955098368054
0.09906134168548203
0.11963662203721694
0.10050660416968471
0.13470695342892441
0.054244109605275904
0.05206123131873799
0.07858751066698562
0.09690174381115975
0.11609778411023003
0.17510802330018652
0.05469763711474564
0.15182502603806433
0.12758988190810736
0.11808133413320429
0.2822683188893928
0.23548364546095227
0.24189320655380986
0.019969168110142446
0.04519514244317629
0.17428992874848753
0.02115463516559947
0.030467066751833784
0.08085675892457236
0.038355962159625064
0.047583933932296846
0.016057381288521005
0.14650637610021644
0.03731882097634681
0.13581330449463772
0.13798160702454126
0.07761756536937266
0.09467491530013383
0.21339295103975298
0.11496480010964079
0.02415717549378325
0.09367372842133109
0.08463344210132248
0.0658606475427044
0.0681431861656652
0.057570478977119595
0.08136801940914788
0.098019570887235
0.061216072743326855
0.09647595252270953
0.08450635264750586
0.08427475909994006
0.1265284391832735
0.11860731086652801
0.06694080782367444
0.20973110599902428
0.11488959438554526
0.01567484578685007
0.07494583923053394
0.1787807169041387
0.020685064414970703
0.17536894023553776
0.16346665844609004
0.09619788918742396
0.10640664460154932
0.12805888260541573
0.051079895863274945
0.11418881421756254
0.16867128917552743
0.18522369687933568
0.2433864468189342
0.0657802820682402
0.10623546332359017
0.10469372965952412
0.07562729820812533
0.10491981799938824
0.08066527024615798
0.11983179018345015
0.18899030733005154
0.09721510721040608
0.11085288689231862
0.09873089648680666
0.09837816506490607
0.08192034446685921
0.28397830463372253
0.2770183956901953
0.11303652200957456
0.12616351986468946
0.1739522675769911
0.20195364518340375
0.1972726271577306
0.1061748616937384
0.03426293335184395
0.051615387943256645
0.04164677222501312
0.04079552525159429
0.02667450803091988
0.09222167967970937
0.1586526927296911
0.021776041921337856
0.020509636671652124
0.031041683732143017
0.011119616813539224
0.013032878396488253
0.37429718922379096
0.02723951469713385
0.045834869085744474
0.3415808876777142
0.31420701818802915
0.09290756029622368
0.12899362434898898
0.13567896933253656
0.08447253963681425
0.08828298702872647
0.10667653671984328
0.07431963397936117
0.11427055366201037
0.0855685558488627
0.41475921205667093
0.3067633264425309
0.42335845407587497
0.2215373034268814
0.2590950391931608
0.22037002642358483
0.23736993699438638
0.324431389397375
0.060512189876688036
0.21083769786666745
0.018741154626557982
0.0178233596775835
0.01737393592355605
0.017602088662003468
0.016672188789806305
0.01708274476886461
0.01838288554044776
0.21185588064927782
0.13485643602092207
0.09140363966911061
0.11398107077302523
0.13951298328344425
0.1040500907524481
0.11559406398793182
0.11920213275657564
0.10344067612194312
0.06646306331534092
0.07013677798464037
0.051673364796951476
0.07825815761108176
0.15396179120433326
0.059055795787099095
0.034991859615770546
0.02609428926790088
0.1586188899863939
0.21279382684967788
0.2500745953540121
0.18524615587575147
0.08360121460204413
0.13902729135477573
0.12010398290640047
0.2139015131697479
0.22329924468284268
0.1593201487434413
0.1112372320985669
0.04708603966209651
0.08347448581159665
0.041973628050453946
0.07142007292584342
0.07213033264672025
0.053196630486697774
0.04052955722977551
0.2331980740244784
0.05718821763786456
0.07746301484125631
0.0851084989274999
0.14811645523399178
0.17506843261556637
0.16902304992602074
0.036423277166035814
0.15736962792938472
0.051771913640881725
0.010009980591418659
0.4740084887950113
0.07379935891528185
0.23777239584136142
0.2842466949770759
0.2614989492688995
0.12075065517550267
0.12152646308813961
0.3896530354387705
0.24873820179455877
0.35375778141723047
0.3678009065262222
0.383526786045224
0.3477442767661592
0.34619274812524353
0.33953599949600866
0.20183047543633648
0.4243299519813716
0.03240602247000629
0.24556449461309515
0.049843332886296346
0.09265434274612243
0.10915116893827287
0.03233173769736994
0.27704840794212804
0.11959232811183929
0.061098555082691824
0.09401869986048071
0.12185292893723411
0.1340853968139339
0.11266071639137842
0.10378675224071009
0.1521986184352675
0.31487624104022177
0.03808285959880664
0.14570846472021
0.06449671012445157
0.12731646848752534
0.18051878870162255
0.11965321528868546
0.22095147929675918
0.11893629891359613
0.3049723347694445
0.02751225325472649
0.1045592801982165
0.3032146855176917
0.155632557129943
0.0697518019383139
0.12377687567603055
0.23365533873781213
0.23136664161845147
0.10001622188320798
0.03415776234842274
0.13346651766418716
0.21145612962899757
0.08312364175766511
0.19511502895079358
0.3009957789066697
0.28375773909482255
0.41523059230901715
0.04572977274905237
0.10277621617183282
0.09128070025604854
0.14509233388464177
0.06608813023039904
0.23740686755662524
0.07716614000764328
0.0690569842458647
0.07552681681123674
0.05909614555243609
0.0773028963597153
0.09667134189289253
0.1442071453246168
0.0381854310442809
0.18042092183102237
0.16489629056080982
0.11517148469932964
0.14099050506976094
0.10698710026546514
0.036098872300907796
0.09745555503888362
0.19276661834780673
0.22637164411394683
0.23946198487138934
0.17851772164314744
0.0938912650624456
0.06765590316659371
0.022469785893145543
0.020747434191206476
0.037723939528539356
0.11705674153799574
0.22875113348760873
0.16457697043792108
0.0619024478966201
0.23969504256917323
0.20355465990115512
0.30391852948333914
0.35489046953641384
0.15387469799779527
0.19582406405776323
0.29474472961804116
0.15998078430090865
0.08534096884532584
0.1275497684960163
0.020491284400322524
0.04621915143686776
0.1512767010936889
0.18676985228319493
0.05124622490686089
0.0352460580542357
0.18697898266702126
0.2431718861356202
0.08727770366445493
0.07724259029756063
0.07525783983973275
0.09270888534964149
0.09889201223661262
0.0876119210724996
0.09850526997304594
0.09609732132326836
0.07027624165719347
0.2523772112336784
0.2063386198047866
0.21578222754347806
0.22220805110762593
0.20054942117941857
0.18708851012876745
0.24237569741631382
0.1903043488709453
0.17421832240818705
0.3177744443666065
0.3295432148801297
0.3481145859490842
0.2102187841650356
0.19308942386494932
0.27612576329498584
0.2886468097268023
0.21447264076419084
0.34892069849760243
0.1954780712807878
0.18692567877735455
0.07273763573595408
0.1836360938562627
0.12230128464415374
0.181816935534667
0.11168247138190145
0.10332710483773933
0.0355998436765547
0.021672282404785567
0.15938644333571794
0.04043198863529654
0.22783995324441095
0.23376254118760253
0.15494142139940956
0.019499135515189288
0.2157844406821945
0.32912239533979376
0.07690579167511025
0.08086996083498733
0.013120069451184699
0.016951559243447954
0.08037518450375902
0.13728626995348525
0.1687301765875291
0.12243034079403088
0.13720795840849884
0.10682683856296478
0.09409740676782957
0.0925085222770551
0.21608380286148862
0.24468297786787163
0.32021811704333625
0.04283065114162088
0.08303144971602709
0.041842091815631574
0.0567208791526461
0.038086548512314314
0.10149439357651859
0.07996489632229913
0.06921908790449544
0.042103910960556615
0.06735899935080597
0.04770141432172301
0.08956214733899953
0.0963103100498658
0.1261561271214515
0.216548912866211
0.05961381743587298
0.08428267100394098
0.039502007654726085
0.04732647217671893
0.1601509433606006
0.21677248796152965
0.3873430721357359
0.1745443912102322
0.05684251459392524
0.1882875965824539
0.13272331902592133
0.17698902157462218
0.07029844318235064
0.20371847428151
0.20702725143501835
0.2267935805034646
0.18289355680297845
0.21031581756194412
0.11357436513959805
0.17840850513539777
0.24025551905719755
0.2365341976790437
0.1453439026605943
0.12762579797930124
0.01997594091176069
0.03607951287465136
0.026045124207204853
0.0322474989433866
0.13362065571766457
0.2555951135787436
0.19278919731708893
0.14593179387689462
0.12262801491185717
0.18205060288580305
0.20118910721861974
0.24263912290970946
0.2874825301368823
0.21525961389959203
0.05766006713838075
0.24811339202807828
0.24461505388589178
0.08660482092094282
0.17016403679998135
0.24106758485242302
0.21299592952508323
0.13524041650098756
0.05384226064342185
0.07076895083891893
0.019245273665088606
0.2503864684200465
0.11194636347426376
0.03352980126694281
0.0464601484267505
0.046962963735610645
0.06639963332411795
0.034500924489613054
0.2640045211626237
0.06482171487616725
0.1434886230654905
0.1422387757671233
0.23416741991643927
0.04447825332976782
0.05128406220734561
0.07991734711808923
0.07470255647982775
0.18242981019322987
0.20781794268042514
0.1568853055490082
0.16334479236585514
0.13257296589026737
0.17337665236684383
0.059909332408107606
0.2344811509840543
0.17209766265689147
0.13327441516678717
0.1252586260354977
0.16901518392056714
0.036217300874420495
0.13518361827616476
0.10152989170037306
0.09173530809273393
0.0705946294060095
0.25285051600731295
0.26727966035728296
0.1241920875372168
0.3073440640041464
0.39118267988347255
0.21142883568329524
0.15719603018999279
0.15044289846927228
0.23091838520476154
0.17859203519741845
0.22203054258924573
0.1765325935762144
0.21127765787348576
0.19588003254653288
0.10929017525256252
0.16251016526722972
0.2557536982683602
0.2347972158683759
0.25899850350678844
0.058803707840180595
0.10717283474413264
0.16977299136493096
0.042052816495949816
0.1492737432558077
0.326267442160751
0.049266229535320935
0.10507948380428053
0.07117365271735221
0.1230647151629871
0.19359128875436737
0.15496695760753845
0.06298692545594661
0.09517823580684534
0.11467625965417488
0.13324073438743286
0.08541870202040869
0.17045818284103761
0.13390420489236898
0.343082762216652
0.3281438625411403
0.21727200370446578
0.2778200011952232
0.20399775624014233
0.23525667799988179
0.25014740191205886
0.14089316463680612
0.08994761786862324
0.15938344604913113
0.1491223898127972
0.24212018974435048
0.13312254441108096
0.2697420428706792
0.07513444294932292
0.1660202620856736
0.08275190378572407
0.18533615241419452
0.24577442038240638
0.2069879176185753
0.10319629152592201
0.04541503067080457
0.20312730090041767
0.26098198700627834
0.32405148197834976
0.2969394554900712
0.16075428169231348
0.17833960422049136
0.19212390861357903
0.030209103438018685
0.05721841343242345
0.050703928994676996
0.09178101525955902
0.11015698979874214
0.16099652844550474
0.08284519400803095
0.06618495072213701
0.03954402707089804
0.07965585583901656
0.2816810311420428
0.1930673441603868
0.3470202351219222
0.3931890220675766
0.17357361532293986
0.16080821645286705
0.21767913639240966
0.2344233491597721
0.08861137298282526
0.04445359882670688
0.07141983057517975
0.17827035786466983
0.19524358025625152
0.08216602649864355
0.207853280241464
0.07009937484774473
0.12784747746268504
0.1332790963332577
0.22742302509018092
0.045996497166419174
0.056459147111902815
0.0380965650472766
0.044616687588774205
0.034988710973778175
0.058310209756301114
0.05560718353575328
0.15025835788679098
0.1761127319255309
0.15783337290384897
0.15113187433322342
0.17180226843300397
0.18797942491289413
0.14160496632655306
0.15689861239279856
0.10004390228691755
0.07676860924714167
0.09053010151476595
0.1009361695870012
0.1552819839124648
0.21302284234662172
0.12203577521568298
0.2008640471992008
0.20725445568417492
0.2712198096693435
0.008763609936412502
0.005907120809294145
0.011412355381690664
0.023064727703897465
0.11821053871445741
0.33012443277789977
0.1881844683371872
0.052394935420694996
0.13842605832985375
0.02933369990034904
0.1673391881928483
0.10675785954421815
0.236058774533197
0.19705247866133238
0.1618139908918721
0.17215427565306674
0.09971717227497108
0.13995084107946754
0.112957303018325
0.3677698497016365
0.21307028735282152
0.3190454788404404
0.4163419810992203
0.31869612069234216
0.4119872275398613
0.25901133059227965
0.2094632560149793
0.20817267362224073
0.11251846673303861
0.31684400038011484
0.21211584721847115
0.22782163179980638
0.3130326458185221
0.13571332100478217
0.09638175445493978
0.05349859841301133
0.04194899658044156
0.20088178998273767
0.11655014829806691
0.052669970145846186
0.0911745275905117
0.11502281718441651
0.19311092416509318
0.1394768215534973
0.07605127421051583
0.19116011400821342
0.18516326705906322
0.26150710642688946
0.22120222493123454
0.24801914467837205
0.2418917649254989
0.06014307874228706
0.12482664069481172
0.06824441969233384
0.30119978470536746
0.15166243073286123
0.264103154373468
0.091511935451056
0.06565030073970218
0.12559354490152239
0.2400125113157896
0.33951007011781337
0.3766241993588852
0.34325944526713326
0.39089393195163413
0.39291156267593447
0.14941546208004017
0.12032228508677253
0.20558262053630066
0.16378562368385766
0.2645126054572996
0.3321803923477966
0.3947285718387209
0.16830194047640332
0.408109126952718
0.24563521993932683
0.27011745123489506
0.23487120596097186
0.1282401039489269
0.18246489125324872
0.20077165627495228
0.10457274752296356
0.14939215064456962
0.11505807513622485
0.26020284452271897
0.20206216950251785
0.18028868256220584
0.1479815491430179
0.09683905145393772
0.09948104708031515
0.08748826629704044
0.16799983584549866
0.22774014016352404
0.20774501562553757
0.04346755199000007
0.28663044599027554
0.15859222669139855
0.16418856102224727
0.19440406306059768
0.22966157045815527
0.1699783703294731
0.1661518930526132
0.06654387093719005
0.10451456243457216
0.08449597457266614
0.1635282355188958
0.19585546769974274
0.0669994509168347
0.22400443133660095
0.20430000140119395
0.13143262232252573
0.12981862224464882
0.06401152058986566
0.29158146421007763
0.29681899721104527
0.08019802273040141
0.036124144769751655
0.13931301365616566
0.12495821625366946
0.07194389847343176
0.06510624996278591
0.18192922468366313
0.17808946867358466
0.24778077507451868
0.19585281193629261
0.20711957557942728
0.10456429594245444
0.24292892349819764
0.16586912045646257
0.09991022007998945
0.10282777427568067
0.13217242455607778
0.12566787657531533
0.16709803920703029
0.15635789382941107
0.16447619562086635
0.12073971814660588
0.14261468818576797
0.16367897033398482
0.15608416047045973
0.26411885405013696
0.16897933328625017
0.13311659500148992
0.1997142849625614
0.15523552787053624
0.23225636388767995
0.15254651533014543
0.13359598012677434
0.14940639037707246
0.1447181492723668
0.12485680689123324
0.16495999002995465
0.1779348079998473
0.22081220367739926
0.18644919381473504
0.19342697097522432
0.16553835447869092
0.1388416793563448
0.22561669935190654
0.09354937406404625
0.09823892553864542
0.11822671998376029
0.10971143480891801
0.137787510604651
0.2179792291394158
0.133672332541473
0.06932251359698297
0.2180428466290644
0.39822396127032134
0.4631415076728261
0.47233235051236905
0.34135973890048443
0.19746574637820621
0.4847014321970571
0.09318158888614178
0.08839144882650485
0.1296163636564716
0.10228742650792035
0.1488371416363288
0.01072400661511573
0.02306276753943521
0.09973422131988485
0.14398279087165228
0.22717353954879416
0.0836969620776534
0.05725087494070657
0.20217193644711032
0.044694281838769605
0.20042444728665212
0.08858298971382364
0.11607382919582408
0.04403637868824806
0.1822898525757354
0.15823881621310176
0.15904196904170576
0.076401501430883
0.09316078992614542
0.025106433592476756
0.023969785688988974
0.07532848468922775
0.1940604312981198
0.05687775694473036
0.0614977819677976
0.02427563177537521
0.12782728358993536
0.06014328332052721
0.1483109315899959
0.19938208163015686
0.06322194975694494
0.17641077469230732
0.10610324507551663
0.13213940397990004
0.18568090646865118
0.1233518853827413
0.16043772530665387
0.07758861387778719
0.032336638410911216
0.11721356211448564
0.02402316123260589
0.05467779015006078
0.2782581780427385
0.18877967707111087
0.17790049899113278
0.2016393734380216
0.2125002138340961
0.1606802794137684
0.0945912855100088
0.11102693462150183
0.04715215870701384
0.05223722269897115
0.0752097253789134
0.0938049123371511
0.0862096809870302
0.09245464329293404
0.10669220974238489
0.09987764470250496
0.03631821532072031
0.06912883713459406
0.2944277403139303
0.27456378668801584
0.15906116847520957
0.24295851748887487
0.07461823943368993
0.17451065915787511
0.13973399137687964
0.08409153748469787
0.09946846816526733
0.12847479049410657
0.11908120268139706
0.20842959729696167
0.12888916301268166
0.28129564212367114
0.0598872759961433
0.16685291043590825
0.047531550920656224
0.21724585468908253
0.1349343635839915
0.11339298845421575
0.07827795615510905
0.043325662949571145
0.040055920399706915
0.14337107456243792
0.23184794087710056
0.24194017857276506
0.029740369946793355
0.2206633244880901
0.19980334672012026
0.19082124637106965
0.17586775320872683
0.18217972065153298
0.1692366338960736
0.2706696842415676
0.27929954451506434
0.16847836752543283
0.23484913760224455
0.23725891021325593
0.12038798032677409
0.27824255648074114
0.16877953511459512
0.19914675542705346
0.1231713800892851
0.2693615543037529
0.14727701326511528
0.15798143479268673
0.08866462403398159
0.12719922602096134
0.12595319313488185
0.10068837295489141
0.017939463777409455
0.4151434719418384
0.19315779025940225
0.06691233524979699
0.15031215585296553
0.018717311227639
0.3080476927449766
0.2928794440624047
0.3208295874807582
0.1724414275584893
0.31007706057197915
0.232577456558
0.45581477724525443
0.31665324800621225
0.4159858551939202
0.13961213077930498
0.3788918735226292
0.45662691407874745
0.42101225453510627
0.0930758584813526
0.08403163577442364
0.09298126037570141
0.14927937569048152
0.1618572294318791
0.20651570271455116
0.2817865625866816
0.11501452585122607
0.1880951921359777
0.18818836844218018
0.17951564063026676
0.30628746188909295
0.23581017196136214
0.21882004957298185
0.22422074019392246
0.22242495318592506
0.18488014082718013
0.18597851008971453
0.15668849055655307
0.1420664766102645
0.11978077119891706
0.20195742671240327
0.20109014246233173
0.1584921084318827
0.10119899824084654
0.11214594726433316
0.055665248829780946
0.07263377264798153
0.09137676054384478
0.03754256588664397
0.042619861685403646
0.10887713705187105
0.03537934346862393
0.13754018047243932
0.10309756461203969
0.0904200798052642
0.08070799712998242
0.20653804224407787
0.039519367063868764
0.12905624242635544
0.0953512387864916
0.10399496829949792
0.11874191668143642
0.10679797679273328
0.09270173887475669
0.11032025548693503
0.09815468649310215
0.4697156750731385
0.35910845258467733
0.06479143581097901
0.2852670029643553
0.05809271789506187
0.19775953919572906
0.11512448283105298
0.025915883890420256
0.07024058422334886
0.1596099555001927
0.18299101298902107
0.29914956808140336
0.1587569967746388
0.19132490997411752
0.07400621902935665
0.04759484936696234
0.047261705123822585
0.05850103859328487
0.09707147263657313
0.09519018329516502
0.10496198295629001
0.1812830325537663
0.17296479517467997
0.06404448774839881
0.014897788128345246
0.2540613967824916
0.2428973069125439
0.2900884653717703
0.11805900073205665
0.08807759419150357
0.08145799859850306
0.12651611070171292
0.21034062508965135
0.030507273208793345
0.22067202785424614
0.24109976782211087
0.1761455508556612
0.1960854953383655
0.10507502888163134
0.09139426384858147
0.05772551177855232
0.03310585854093644
0.0233827069395334
0.014525631417428044
0.018760722158103878
0.017605205062492288
0.048101626312703705
0.23056538614625283
0.2199438570829565
0.21435575753054475
0.20160308699774843
0.10036874987778212
0.15635536329606778
0.08117302917177174
0.04432571239523874
0.059336664032508715
0.06672355688675508
0.0701439468665435
0.14732946418362466
0.133246970745527
0.1139623445252989
0.09464610094855225
0.16397961258677712
0.11197798671203897
0.1424280139049018
0.132639347051216
0.13443691274820116
0.15514442951341317
0.1212403431708671
0.03693758235180887
0.04682851330666036
0.04285210176287472
0.04018655795085588
0.048123660917253806
0.03072524288005663
0.3498328029787397
0.25185006920456066
0.5176059015128295
0.10132404466063598
0.2689040682075938
0.1532511028957585
0.19113393685471997
0.18725435320594777
0.18865235338417974
0.27586757855893834
0.2254434622161663
0.28468340069510834
0.16495610651641202
0.1971272577688014
0.05345954667907215
0.06196304514860582
0.014036262257379317
0.051023898386621476
0.06474617257153056
0.13819373505212484
0.06878590977973484
0.0661285223257981
0.26200727781475447
0.07353561773360134
0.10463918616995675
0.06107347999771186
0.056571198045874654
0.06014111940277166
0.03974313221619262
0.10344542813458397
0.037819619784028265
0.053850274536593724
0.032580344833991096
0.03289452254693937
0.05781458756182434
0.07232255677891039
0.13010280105721125
0.1189006550119622
0.12500636915124658
0.10814513941919177
0.08815116663399487
0.16744997992733496
0.02910474337097041
0.14574616109585792
0.16423698679965879
0.341305711460992
0.050506797057144885
0.1021902054706191
0.014965969021174627
0.10152622216027564
0.02645552999619315
0.04442716236576296
0.1616563812561314
0.2429126675012194
0.11197869438757224
0.19530960680390286
0.10240490061712892
0.2048617714847701
0.17179649077210457
0.07172584436826937
0.028201121518097953
0.17632842653129102
0.19428615438881214
0.20407546133008225
0.07608654241229647
0.10012236153002871
0.07985087469314613
0.11117712270244932
0.26725700939582225
0.32447838018786734
0.16099326772288547
0.34352651422900893
0.19745917431719495
0.2855726058980175
0.2899543607945713
0.17464106753637848
0.17750483408934337
0.08537417639623088
0.057793503236863907
0.12980247262777617
0.10052879159984986
0.0736185513173494
0.06106021193555805
0.12315482020954281
0.11342375524372637
0.14124001632575742
0.2462148025389585
0.3762124957260163
0.2720426665466042
0.3558764499178646
0.16705626425510772
0.227438702877383
0.194756225629022
0.31280631273039294
0.1621477666036361
0.11769469857983426
0.15488970017516612
0.11472799431703369
0.06321483596884547
0.08566412372723903
0.07480779112007528
0.13093959376490286
0.09386114139205037
0.2085174060360046
0.12083725475445262
0.23894421723034934
0.028292585110688637
0.08118903662090092
0.0975673431028487
0.0992069198172827
0.09639388773379873
0.13651737827452107
0.20938195379585908
0.1895139457411436
0.0924315705371101
0.2900094731825423
0.09322731310680077
0.025867676412711767
0.3205874604949433
0.3969032441583838
0.22328252915950414
0.1707371466812084
0.03657903880050241
0.07539738641250109
0.04689002675389553
0.1978266457282082
0.11240815724890474
0.14284771556516143
0.242065439120338
0.1193441828626448
0.16953574679676345
0.3216775667799857
0.17019018311320588
0.16634768278282108
0.17948390436117334
0.1480088975284403
0.1398636521469844
0.1492121734585707
0.22403752690528486
0.21781786307040454
0.25579786822297323
0.2382147927973582
0.24982171393722222
0.07642384342384281
0.22346941346559177
0.07929760418072145
0.2035568002044446
0.2553843107747789
0.1444213591365982
0.13764839775521334
0.13927559999951278
0.03400392452071837
0.09687124520111325
0.10050010539500102
0.02055692488988707
0.03640130161473174
0.06177747359089583
0.05098702042630265
0.06079255285335875
0.0946692520541898
0.05217300303013457
0.04611717900896767
0.024065426958183075
0.04218954859885589
0.027640028761734405
0.057357797624256225
0.06069514130918703
0.09282298065405334
0.06351686630751216
0.046680850686548155
0.26970540158989337
0.20717088264262973
0.3655307199486489
0.30491738525785034
0.28902429906771193
0.26994672839637857
0.36527384482493136
0.04895132170686492
0.4279901512401934
0.352500140550026
0.35899791125044356
0.3167507752089479
0.4700172049288503
0.15551440296267038
0.22325102138209107
0.1869261989442008
0.24115249632406083
0.18141647268437874
0.24445258608536363
0.1189258638640474
0.10796466709092345
0.12427235135748219
0.31099611946977035
0.09631231942074739
0.08094406968340832
0.0586804536096738
0.11121483596245922
0.18820920350797077
0.07335164538635289
0.2954754009256229
0.25628650675199993
0.12419059680756012
0.2790183854702777
0.4135933505614978
0.4404583924579309
0.3303831289821481
0.19419384210747664
0.20847738570083255
0.21832286463002037
0.22322520626519368
0.2093211467109163
0.1787290473809854
0.22241061567204032
0.2214498299916488
0.13377069528242705
0.15479658056190881
0.0924744095846714
0.28351809353390717
0.2811809735534224
0.2853842108708639
0.30670950069399466
0.12718260076377383
0.27625715613704355
0.2327388563735734
0.28905116794432667
0.08274745007832084
0.011874224440014253
0.15922002573749958
0.0603589540177741
0.29012487513620366
0.058516011621294835
0.02452071432516744
0.006342925285696776
0.03831966353763578
0.0558155118516004
0.055423744786067305
0.17766376260231181
0.1776111665825393
0.06624188345649175
0.043027228988906534
0.03983340338844806
0.02412632215052598
0.04340658053642972
0.1414654452794856
0.16455302627040375
0.19416385008304307
0.13908771406295586
0.10084704703073974
0.08729587038757121
0.06519917188825923
0.045564943591371025
0.13785405551019955
0.29021240492869205
0.16292870568718135
0.11979804866135252
0.07806445404928344
0.1298256859059478
0.2679032563626905
0.13251229556337157
0.0889228521907529
0.10618415952992888
0.12793711413715503
0.18396565627901318
0.13084716292007356
0.04688383922794291
0.18467808546629458
0.1500606524023819
0.035090203729148464
0.12654858181836512
0.2392513795067956
0.12746444056903772
0.13431547571510405
0.16324536847770665
0.06503992152985624
0.05007034627607722
0.02740926595694093
0.01225134888560107
0.047608555360753806
0.19209228166016531
0.018007067214294546
0.03489177842630793
0.0350119775065787
0.029660138291618
0.04269727828040586
0.02462464513954689
0.030921619040102037
0.07995881623234745
0.1015448537859092
0.1024900311943439
0.22064423642081016
0.1517278875752244
0.04807839392698485
0.15992825704292393
0.04058552272840471
0.05103830080571734
0.3896616162269242
0.27164654081603135
0.157748084806809
0.3567440973516364
0.11418723619512963
0.3492283431559049
0.3935272709777415
0.20544687718351756
0.438458166940938
0.21366117600848097
0.09671403234809212
0.26492425044150864
0.150880784991414
0.05401455173243805
0.12050561338848119
0.06578197591257257
0.08225663266570454
0.24620522767064465
0.14277627820263192
0.20766346462429755
0.26137881953008424
0.1555096120477488
0.12592857424327586
0.40629015509913236
0.2584923877251175
0.15870090501926476
0.15643587275750206
0.2839470840609135
0.1830854690729789
0.2542692991182298
0.22693704393531886
0.06548202744288732
0.2581541476538589
0.2757984154998785
0.22040094687203154
0.07854488488487935
0.2109579468013579
0.09970609020877746
0.03907943097109859
0.06079209834535532
0.05714598288432481
0.07817932125289423
0.08847551695853974
0.03503392666551526
0.05513438483856696
0.06048085843088889
0.020236644860129986
0.05577322052919796
0.03396822979028828
0.06698344652766662
0.014524747218268762
0.02631718855030586
0.0511105538191129
0.15529677322062163
0.1953379388082826
0.07383528261819439
0.09327932302979224
0.23817974984254006
0.17143012316379086
0.14870213256058296
0.18708839769210694
0.06924457056460566
0.09585770743376748
0.11063610346069375
0.13171764463412225
0.13792989643697864
0.05897443835767262
0.2603434807757939
0.11214230761762431
0.19275306459117564
0.2782299445537818
0.27138380917372684
0.2559193255666478
0.2722914808379552
0.21910069262873857
0.23980061695623056
0.029079795742213862
0.09131260291270792
0.05711620996979471
0.07143092565017885
0.0332020477717297
0.07953995607217021
0.05145679005145189
0.06469275431561101
0.05565680579681251
0.10526365693728555
0.09076366149318583
0.05619947784578503
0.07108146953291108
0.09591687860174994
0.08409307087030107
0.05638380054707487
0.11160032735348906
0.06460901092891176
0.07086386826992415
0.11903664338289302
0.13929119404779214
0.06664227202776761
0.2327139070973089
0.11508372881947308
0.2801942900902655
0.186043091550516
0.315546664944926
0.26940255427503307
0.2533370751728695
0.33403763384892754
0.31264295348046334
0.25684931233071906
0.2147698052531728
0.11371464385848581
0.2092655361136776
0.1587014567720303
0.22876615873294007
0.2119626287533765
0.039469795302443544
0.22764779350328185
0.03099389435095978
0.20671706179821892
0.20789785194858448
0.19209029301314173
0.09941699758943047
0.050880431443695515
0.0756407056566265
0.15116001563072115
0.08848344245981657
0.026528270044573945
0.03431783369993892
0.12519623949973183
0.16158197043306055
0.10392262728341019
0.06708438402604587
0.1539357022240584
0.05956126281769662
0.08561286434058202
0.048359508574812575
0.08724865928775016
0.035061912855124715
0.02010916976926087
0.02759222093754017
0.18815382054245813
0.11742301759578004
0.06518208778268399
0.08474957869158839
0.024767917034086578
0.0683416592953358
0.1893402020852504
0.12064466743325082
0.09662174885587073
0.14081851132126358
0.32988945669390857
0.32485588984422425
0.22436597243531675
0.11970602706244443
0.12854050297123643
0.37808863374400264
0.1583411719003789
0.12256676937176418
0.07953502525703735
0.10294335799639823
0.1160281258007086
0.11334950125239278
0.05016290275974707
0.07712809456616018
0.27561450422629724
0.2143518080182161
0.09428520871322939
0.10915278341915496
0.07832833831068617
0.04517861661555748
0.29570738016771303
0.25343078121913937
0.06035332936052404
0.12678829586553036
0.2709294550956952
0.4583006720117736
0.2936337280542301
0.3881887120688515
0.35215916077957926
0.2544931488617578
0.37742899478660213
0.18354997066318712
0.13530280825119045
0.15474732869676577
0.14108522003618487
0.18364838503836
0.1634619136828957
0.08193251710007284
0.04526426544758252
0.14003277151548665
0.47953700555823886
0.33049411528425837
0.3397822577971044
0.25512868881144174
0.14726894342267371
0.14508559927531214
0.307315332704517
0.315959031808117
0.2953918739903589
0.05158105346705703
0.09459099420130436
0.016237033589646403
0.025505178672485977
0.14446273170678722
0.08827697157407569
0.23011912888100713
0.07588644165497647
0.029618374022223493
0.2237895297598971
0.22868346414956045
0.23754659258958358
0.07763188407051322
0.1226785999817028
0.14038877106210507
0.021229197813965536
0.13056458301557716
0.059545018012032415
0.058651458526374864
0.013027510769987555
0.009836025607594685
0.021340830594717208
0.013477836361976022
0.022038777623594994
0.012975461835991086
0.12238851904599478
0.155243101194381
0.10044043359286903
0.05837366735991604
0.06306324814782094
0.16765782875630222
0.05979523671556963
0.009146804462224715
0.00795039197852579
0.007728995415280244
0.017792285444166778
0.018491526434245453
0.010532711202212604
0.00591405989978654
0.009102666210455409
0.07057948468127594
0.04993033621773571
0.06307900997124441
0.05331116460072146
0.15224105210703046
0.05742736796625216
0.051146148640464066
0.07278860733239137
0.05335787176986211
0.038616442453296596
0.055626199044688435
0.5189005696148288
0.46449974132529914
0.5118804631332412
0.4291623031991002
0.4102948665265068
0.430492851929521
0.36003626017013607
0.22634686641361287
0.34390787822635577
0.17102887472735429
0.17393188052336095
0.1533797928005868
0.1221365915034499
0.17287623882064196
0.23968410346018804
0.030368815653048827
0.037699651502087164
0.17836981252459871
0.07076278232573444
0.2343522482777394
0.06162878060914985
0.08977682134961745
0.06043059088202705
0.04717542700094768
0.06317891606781745
0.09013916065237736
0.05739085294998401
0.11241819650738913
0.04901108261973174
0.10576639047200323
0.04129254131791568
0.06822507636593127
0.1965740501343334
0.10110194128819802
0.03790357216205118
0.04357245000942346
0.0925476800081886
0.09080990955914621
0.14704916792320127
0.08005060500966817
0.059934493998953765
0.28194033108617
0.2952910437409532
0.07679035890583341
0.2858248879868793
0.28142622346810087
0.12567990376547283
0.14305184023763715
0.1294625015301203
0.15751370698045483
0.12190535696429278
0.20196172284921607
0.13278292161110755
0.0994724871610612
0.06012899825911278
0.019485570038948175
0.09005606324654308
0.2225422161895345
0.06721282307577747
0.21018185014612592
0.09164375263760152
0.15691793760135098
0.031815471160357246
0.08622012511104639
0.12954692182016506
0.05091649996224597
0.12027746320320491
0.11674482794107238
0.04174027045614343
0.10199483663296105
0.16667562667009797
0.017090670886963637
0.06404222234935192
0.02814542734166881
0.12530487737151874
0.06188327558928709
0.11403229817610691
0.037621701428044094
0.09216862897308761
0.08604456128371715
0.06407462607567113
0.2518548493572558
0.06512705878402343
0.192859239101303
0.04791494912550813
0.03546757140734962
0.05286890995837512
0.03225352568966749
0.011666683319395837
0.014034036221713286
0.021848105616501443
0.18441368318789883
0.23332762115551287
0.27477915805410924
0.13923243908607613
0.1369478388116104
0.17552152195140028
0.13117129108435618
0.1887662852987078
0.12109155281812584
0.1667995809721687
0.12995748314391756
0.18629250837171818
0.21892216867893097
0.21094119603382122
0.25111578191419764
0.04917369648605926
0.11270042884514112
0.24473047091793365
0.33256560628455334
0.261303188728692
0.24435089526738096
0.2834450242322463
0.2868593569248377
0.27976013434832475
0.20846484932195822
0.1956280312476587
0.2142125818815174
0.2146479375942115
0.22328214192596074
0.18326095277287552
0.21140644814295198
0.23987695467114029
0.1949563411024489
0.2021906544074509
0.16640825860041591
0.20966128877843207
0.12260463946059884
0.15166613557439437
0.12653389670453338
0.12649769566005903
0.11628470708918744
0.04206300036217532
0.059044223219690405
0.11690813724073924
0.11796939806520275
0.09734124566815831
0.1463052519574036
0.1383306438110844
0.13701440592444467
0.16924642277029692
0.11697212064271686
0.04691718227661683
0.027081082671663887
0.019719339736797584
0.035738551053068564
0.027004791593715837
0.04390276841276147
0.021804567882037006
0.136273388973711
0.17318559646940757
0.17170643276985584
0.11961814997031107
0.17220695697382776
0.18588871820783343
0.17753810218150634
0.06392556586295127
0.20120719872886622
0.06848166001065775
0.057559934818972064
0.1849997782389197
0.1282749861673689
0.068266106285679
0.10270687363208972
0.13495781276205057
0.026118642569201118
0.08310233587718739
0.06218115005404803
0.05104199877231003
0.04769869084684145
0.13746127362707827
0.10005849824481007
0.08933488899688673
0.17402420347638922
0.08510394091805754
0.08814086310453864
0.1982171611885216
0.053111710084197045
0.040819433476737096
0.25219586320494125
0.22039664969597897
0.22559031741293775
0.1836717563023134
0.14649197317482265
0.2721779829587941
0.25613471003520244
0.25411172098027385
0.04761922977654138
0.037967299965351496
0.08261803374400829
0.04715702278533635
0.04911150705025189
0.08238454294661716
0.07733838229791062
0.1523451197985125
0.024486781071690836
0.11305734138273114
0.15847974917521065
0.130066405146485
0.07229405629421753
0.09676108097532686
0.11058286331636036
0.2815330734549854
0.1232369926016132
0.16955607245413062
0.06545710548539094
0.18501212373566575
0.22486876511508108
0.13171995942514583
0.1365218926817819
0.1093378388540101
0.03357230192634012
0.025263841318183808
0.06336899812451455
0.038649122637765626
0.05726108454956769
0.1300538029891207
0.04535430822499191
0.014389337923965257
0.07638884717552484
0.21584652242089453
0.10241183177128302
0.2693576962377645
0.10105506252341591
0.21821603392509667
0.25692415850001216
0.1719572248772398
0.06380114449290358
0.14708749694273623
0.03412117259547285
0.12082684876588055
0.16003876855604132
0.057211517699968455
0.04423352613001338
0.02651026766254003
0.12847770560901803
0.037191272528949736
0.04555467346399821
0.12455896509733613
0.03768083611545059
0.17145411531445737
0.1986514416128816
0.07502474513135075
0.07761569022476462
0.1769090979778406
0.07866984506672085
0.006299032620619478
0.004540095704967599
0.013874918211009873
0.018607957743348977
0.05058575095555674
0.0689390197963102
0.018729015170903206
0.12383648883988942
0.11984679281488364
0.2452574529356519
0.2150320077271798
0.18550504172792542
0.1543071916214309
0.2964560342647557
0.16268039037961482
0.07456058986691168
0.12197998383134664
0.05043463988136045
0.06628035937119162
0.2750632495049036
0.030366520808128586
0.2310723525585841
0.19290483305309117
0.20068252043514542
0.1215760741509606
0.016274599993383387
0.18843439792105232
0.17262829528251183
0.1707345344437345
0.19431891650529326
0.2849993549741452
0.23937274314030557
0.22232658048112278
0.2071089651211395
0.032314569832335105
0.24545674025290062
0.15920899855105566
0.22998610499815603
0.01817000556712067
0.04941903567877749
0.07041629264907365
0.17829132983141793
0.39628206776352054
0.25233512010641757
0.015316148993335835
0.3681121689364576
0.30343878995322365
0.07390484570315073
0.08823120929173534
0.03547152296741312
0.2038331120087462
0.03413287935851425
0.04540893865426795
0.03608106391770249
0.01715145318282128
0.018996446078986602
0.015563622959846708
0.02757289595796584
0.017865465648350367
0.01986602157007922
0.03157385343902441
0.10286068105361904
0.33807759055124786
0.0707138275838165
0.19508306999675987
0.22223402717995505
0.11901566651703947
0.18409823489923705
0.1499917180799667
0.10178337495428375
0.1323296936988991
0.08668276736970992
0.2613388250632037
0.11435322748514075
0.12147145368292082
0.21292357397536513
0.11235488993584829
0.15677861167670137
0.1919577343917923
0.2913812891638729
0.18496179749303884
0.16690455454133513
0.2310772172483389
0.41218456047723
0.0605725441366766
0.08104379254521174
0.08749047947227225
0.16183694280339062
0.0632748929836985
0.08087022524716363
0.07876302216844788
0.06036820193206233
0.18614983443401725
0.12869555537001118
0.06881370949012039
0.0854724770910418
0.23286392042067605
0.10249820143271589
0.2135125562447973
0.017299651832792615
0.33276082442936183
0.22371462932179847
0.1841523358058915
0.19771237754767837
0.2542402357058905
0.17221443197231412
0.1797434339037105
0.37095746085319903
0.4338151983613452
0.4950318493619757
0.4312242856304134
0.08050868396710197
0.09376364157542902
0.06704635500596663
0.17898120363483813
0.14965268472664292
0.29278313053741845
0.4543551987606186
0.14725414905044146
0.07387194051286554
0.3285382439560702
0.3832998201537302
0.4106208713047284
0.36292264531853186
0.4509121384568367
0.09539803058193638
0.17947974541202635
0.08866526765980293
0.24455262522185198
0.1831208615403802
0.09666898009581698
0.3450726102290916
0.388944699342721
0.06560758642793213
0.06829872610995325
0.223427027588667
0.3366636800314897
0.2368537963532741
0.18522684695276034
0.13460175007919575
0.2761838898895151
0.170084843353724
0.19693479221275687
0.015088162579801685
0.18171486976284587
0.2134199164767938
0.18043444203996434
0.2385890527941221
0.06135551723388848
0.1929970976073174
0.03335377928959966
0.07497038887679687
0.04547387112710324
0.046537323391249955
0.06584289972367514
0.05202935792488699
0.08376207056643124
0.05179066186476055
0.10269377956611295
0.07705764020468381
0.05085872167770373
0.03579729822780392
0.0508964204627108
0.03725549733540588
0.16959298957757202
0.04223444467443369
0.1301382644686095
0.05873289617525309
0.11293435559368635
0.27904227232763473
0.0862316292612924
0.08808641866249908
0.11072355385801444
0.17517773016643326
0.10981736359960559
0.08372552323015588
0.15400864514143384
0.08400292131748899
0.06551401200930011
0.20875698342385896
0.22273509400337083
0.1675090843855672
0.17519462475937697
0.14159802249870668
0.18068713131727976
0.015127578790394731
0.042566683851239205
0.24029078008471458
0.3231276482292736
0.29183356801656535
0.19335217766413698
0.05219619427826969
0.3391511165395221
0.2389944203688822
0.22599417419235407
0.17251254033791166
0.15328671213574188
0.05686029410729364
0.14092032674416086
0.23022419550248105
0.031171495321078303
0.16465578392870184
0.22261782045192327
0.15860988973657186
0.12125952351370727
0.08878190548176597
0.11188538490710498
0.1705034641738736
0.15569534432938964
0.1800031055559925
0.2523710893677928
0.19378457805236826
0.18014982412012462
0.1630183214153829
0.16650991411741814
0.22860685786354484
0.19318995884717452
0.14629226945359788
0.23919094021195386
0.17331575532253943
0.11809803599957464
0.1986472283122472
0.16652042950718304
0.2890339770286786
0.1587819288001707
0.13028745363219751
0.24276527407381435
0.2144296780167921
0.17142099261957217
0.017878143108772462
0.232120715010967
0.22587785095825463
0.13597073522424302
0.22926655320140632
0.07892079689077706
0.2702460957038044
0.11253458035481852
0.1195113852776101
0.0659659726827545
0.12018301132283118
0.060316727010806766
0.0334505497689096
0.3440725978350027
0.48060308857174855
0.12853388303516514
0.28057492740330403
0.42474895957427317
0.08004959142565322
0.10198807821701925
0.10962556333521314
0.0941542648939802
0.092322544904612
0.1018164137114678
0.22935167241623272
0.3118411011071131
0.15014515881656487
0.23211839301069712
0.09187136551424621
0.29993146314487823
0.42457854405859097
0.24615576372134537
0.12960938522563104
0.10290133921708709
0.18167229651199926
0.07128891897955478
0.1491340629505824
0.06803447427180802
0.1513128056826418
0.21348382626877538
0.10692998293002894
0.10852603702661627
0.06908727339018188
0.24600345757316788
0.17948621348174973
0.1422852949986716
0.1634408343704752
0.05256007997693452
0.16891914289108634
0.15413971139621488
0.12589884640960092
0.05775789016227909
0.2269803646355917
0.13734429682480087
0.21215944095344288
0.12013424565713583
0.1140101774686025
0.06360903628967425
0.005524084547532158
0.08676668215983029
0.06608106668996407
0.035095237162344396
0.012814271488961106
0.1557402485376599
0.2563175581680137
0.020162937842461984
0.03030096562405484
0.2251052565040534
0.03636521877668469
0.02374048010624478
0.03623951056915043
0.18937766429720823
0.11063942928617819
0.05442793371664644
0.039938525294685126
0.07293451603592697
0.03322247369878136
0.234742771727088
0.14234340782677446
0.209931660503901
0.27396069885079816
0.2821273194958834
0.4387498850938571
0.47404184838586777
0.3476212278790174
0.3906172540718681
0.22693976854488074
0.4513913362049792
0.2385656861600163
0.1664590975965573
0.2785694812858345
0.3128683919843419
0.19327314492102068
0.40222307857133704
0.20379032072171846
0.18924245029670886
0.18227840235804535
0.10697952605309934
0.2304206518647072
0.1739302210565964
0.0639312106033731
0.059753307941023466
0.049819868972296774
0.22219346367826265
0.07517822103712293
0.30241633178233707
0.24869426628013316
0.1871088286480016
0.10433274992321993
0.04919264815986081
0.10849565664425247
0.0991620577773111
0.05996225767355978
0.06851378642516326
0.08160803661994959
0.0559676763789256
0.013749051593181863
0.0511998231815462
0.14452858318162767
0.1080166270223956
0.1440598173709018
0.1416300421315188
0.06273440473986613
0.06876060388261444
0.11240034546106491
0.14686431032644562
0.09080957517678118
0.21753612308604733
0.059895252602158194
0.06316114691839587
0.09397078615943139
0.08205640090990993
0.10312167183561657
0.12557961656701097
0.03873039449479086
0.1608212542768545
0.022705559411840968
0.044393970080365386
0.03833446990073466
0.026581908629314806
0.027305325717078003
0.03493051008604333
0.09564958285684648
0.036778625859250035
0.13328203469377142
0.1982271026109841
0.19463825863907033
0.12948505847648575
0.17977009428731966
0.18760665899212217
0.2645413790681896
0.21403596964307517
0.051021455483600334
0.0457264565083935
0.04746755411027482
0.08154597935139989
0.014436800306626932
0.019572421522612345
0.011854807590606472
0.027308814421660058
0.012817136278786084
0.019031469235889765
0.22130442428691505
0.07873379103623092
0.037994928940252935
0.053010683086904715
0.06677464009221025
0.22055127941931732
0.04157027599743451
0.062440171796179174
0.04499312052497481
0.029637555011483352
0.10609229687827162
0.29363519480130235
0.08033975120373052
0.14864314137949203
0.1634444046653984
0.19644396367515626
0.058701119363314035
0.09630161847911496
0.09140805021511142
0.08997241201518816
0.11419046237147051
0.05675122801506383
0.2580643797960762
0.11289558507512377
0.09323481891780896
0.03728726697496245
0.09410678499050334
0.1651223608123735
0.04592669165134085
0.20337048631148896
0.15097689676276918
0.25539526053017325
0.07439590821088918
0.1732811719175152
0.09776843084143137
0.14366582267818673
0.21264585454253251
0.18141836013100238
0.07637729995413092
0.07243861357719233
0.33210743090254774
0.2614937689513586
0.16779371766233347
0.3025678546206516
0.24573546557586506
0.1608963864923269
0.18256008409311333
0.3013081284397376
0.2708524985366073
0.25129033030510456
0.16266597527057625
0.31768327887502074
0.14693858190765727
0.2038325728135402
0.07713560333891872
0.051582988925904134
0.19066757062450299
0.11455634963395789
0.18054489079952604
0.1818203860828561
0.18111962971438136
0.24121768719860343
0.17373028449998992
0.15212324415893178
0.22658223517752463
0.2131900558760527
0.1949888633862294
0.20902404739539
0.08032005873297153
0.05808049446615712
0.05621467097870336
0.07413444069410136
0.08561103402374874
0.11193371619345671
0.14295698105559618
0.08383811612675404
0.08463205046388757
0.09438797502144966
0.0812323481374946
0.07371235216544177
0.09264918131104273
0.10831110856016929
0.0910990076430757
0.15367003841157467
0.08253209035453024
0.06356074919833211
0.23257985059021127
0.17102178782875996
0.12509828728243974
0.06638688207982844
0.19519644820036422
0.07212716651153135
0.13173303027154232
0.09170156247978044
0.08723912307431934
0.16106732557776685
0.45523411651243456
0.05661707582199537
0.13443841874384668
0.08266079062610222
0.14051447679175832
0.2233571247475291
0.5209116190719488
0.4683494419706338
0.20784221022281496
0.20397487678688442
0.15725856833583451
0.1602941019664984
0.41116384196798134
0.13694750616068602
0.1210552185797201
0.15078793412277652
0.10597737571696843
0.14466983603373182
0.1648185288427596
0.080227299315728
0.17269827824932604
0.062274097734278576
0.09890140243356065
0.1847535846099893
0.1341390070639751
0.07048617194414251
0.09067975049846468
0.1643859711237106
0.10541323963354271
0.07473715247227834
0.04218765421417332
0.051959389044063733
0.10486226048202771
0.13719999713518846
0.1413878418325578
0.1322703986401845
0.1939366188494021
0.16147173407790216
0.06167851969141983
0.06397935126533846
0.07698770223141689
0.04726397648304623
0.08833301017706764
0.13092041917570627
0.04281690590265033
0.2818425547724673
0.22192528386470867
0.17999531327618984
0.09928651469198504
0.1659566342739053
0.0635352199403129
0.18914122461217017
0.1824329520802416
0.08556556261601861
0.1384986793131698
0.1018706931211907
0.12145488737691557
0.03727873269353732
0.05050298056246191
0.047402479323489205
0.019782804664614732
0.03532058230725364
0.059206558089353
0.16069358894492775
0.03196460592682463
0.15707113013306342
0.013715941456979856
0.11141373504770564
0.029985162567916564
0.07154388567155387
0.14240441270503373
0.04675740293801496
0.044016146928959596
0.040216389874086385
0.03025083007514473
0.08004548717850495
0.1023122483067924
0.06306408670003624
0.12444743280788988
0.1264418713480377
0.13587704830152175
0.21990762376028897
0.5032433731815213
0.15128468707645518
0.25712808145144084
0.277160825359638
0.13097970205582543
0.17333887332692294
0.21404639404668732
0.22628113353354637
0.0806086198807955
0.2978532281524802
0.11658398814179004
0.13187801390547296
0.0719337458338523
0.1556379422541931
0.24516115441806016
0.07467962146780764
0.2242692395731685
0.09019590227665988
0.10165208640837252
0.14094452842548674
0.1547750160141034
0.056908579767011254
0.1125120282824545
0.1002141998938725
0.14812866317545975
0.015418273784986503
0.06236063211596794
0.11240258529179502
0.11165961485755306
0.0713802515711447
0.1770725442353994
0.11450102888498262
0.16916110625090497
0.22221338900365845
0.08064378785750442
0.2629563404035469
0.24939964393555972
0.05532164493587468
0.22153052630683767
0.1039672642849066
0.18158296221637096
0.11491501173491736
0.12675968702590545
0.10312823235144714
0.08158567654556392
0.10329087638904005
0.1606374024409814
0.10985455849656756
0.09504260345953251
0.1453055249827449
0.14510097037586406
0.11210542117806026
0.14570726165947584
0.302403465538444
0.09179503628593615
0.15201024428579052
0.17923866617876272
0.12550790106061646
0.17686019247015164
0.01864970711810445
0.06445875043549734
0.016949246231896878
0.21610636305595554
0.012938627841118853
0.2263555212650696
0.24416816052578172
0.21352143933378942
0.231450781264487
0.21300405522439023
0.1981936815605117
0.20477930532861713
0.10376696009262149
0.18922265850520245
0.1793928812853803
0.2006873859729141
0.39720334294351733
0.2907011524529698
0.24804993774614434
0.11501921122430173
0.2410573278379062
0.17596197166606292
0.2156252267489008
0.20160694636270968
0.23671036357927097
0.22736615583060124
0.22559298669292277
0.1420321606554667
0.04223666774950091
0.15547866236283892
0.16019196439620548
0.1877839674942898
0.27432650775933287
0.08643334677320498
0.19669232154342767
0.1820437350603881
0.23651175228615653
0.12007544475158625
0.1571947084017277
0.21594211509001668
0.13768405149553656
0.1820301283646271
0.20124021181608995
0.30782009320680537
0.04952426379748896
0.10234853617734399
0.32322980350500086
0.12134884469957179
0.12747498505999466
0.061664797191412685
0.06630232122882776
0.05137421732325499
0.18071637424373602
0.08698080339741078
0.03560532976483908
0.0512365239449442
0.23543465269302397
0.08477196782624759
0.1402175323238061
0.2280701979865149
0.2097260912908064
0.04021111946458961
0.03472097282198534
0.08759455257855084
0.1286604035142165
0.1043304321639567
0.09357284646446652
0.06346753607042645
0.12009238315346053
0.15481762487962106
0.11479830014713852
0.1351186271901229
0.06259954929121476
0.11329588766893826
0.12747555984132888
0.17950922714418324
0.14139871510101495
0.1492703520911221
0.1634059134226722
0.2116315367132251
0.3312481040312561
0.4472946389301205
0.4135251265493017
0.3510491675205907
0.4936936471808599
0.12694629132881868
0.0807528726161235
0.05089764206878356
0.1487714575178492
0.05851289443334058
0.05324778167686953
0.2069809754961968
0.06806231751882855
0.021452053386318202
0.03777241516325722
0.026883754344930597
0.01639530256227414
0.024028483908193305
0.09181968620639763
0.17539336055716528
0.03392891997027863
0.0697966718316052
0.03466524763247337
0.05705531420467557
0.08398787221767101
0.1569550138962985
0.1277618676096013
0.15973541935638597
0.05547774715463277
0.03152093629693296
0.13207700866404118
0.051490666935707405
0.05383438533070404
0.0307088302965546
0.04942946647042966
0.04130324484483905
0.2588654129713411
0.2673076688853349
0.22873204668324407
0.18476082689303544
0.20106333316179145
0.20173764974454855
0.2290184038577019
0.05996014116948481
0.22443791622600598
0.040801465688536015
0.09123027361937425
0.04618454559092573
0.06521595102968387
0.1066398915232274
0.08743441052074907
0.12061895982355449
0.08836876170482956
0.11250719248735394
0.12987426587929915
0.188446877432827
0.05447671180033318
0.09331037560572412
0.024714378709589035
0.24238019384034695
0.1292517100266533
0.2574136249460913
0.03740453468153213
0.19654553563167335
0.008732310946019419
0.0082914921281154
0.011755371541888358
0.015022053223431475
0.03944303436353667
0.01641561399072307
0.17242053800569374
0.11451996017989315
0.20631124798378025
0.1966848712282535
0.18710852508149103
0.026109775426342737
0.05770107681514444
0.13306676746571008
0.07930627468487672
0.3316908636935647
0.053805102152630895
0.0546997995858283
0.03787795601267872
0.13672971822743515
0.11490239166153116
0.1460695614767854
0.06186776866646466
0.0951419563235231
0.08996553900562698
0.042267331788179055
0.06609077036064077
0.07656342327698065
0.10748775677385639
0.11768328027126376
0.022708254867907993
0.07095527538193586
0.13884871206096422
0.13230114860034345
0.22721274874748223
0.26766798576686107
0.21699579468050795
0.17139740067078413
0.13895717527824836
0.20885747016491238
0.22756540130776715
0.1852396624100727
0.1906725000685858
0.09882574319803726
0.03879129464110524
0.07025918589391443
0.03955184599659247
0.09785873307167355
0.16031802083104243
0.11607367251881599
0.23230135393236792
0.29508049521553725
0.2061007236321006
0.19562204957848844
0.20583028483043062
0.17520859933327948
0.1593717524888767
0.09551142776226183
0.08878153651675591
0.0849697382885207
0.19036392960129
0.04220683307612815
0.10712317853373178
0.05365803234030056
0.19520368335280575
0.21798043466577124
0.29358802653582033
0.15478069679921994
0.1864637411432612
0.18999021129927846
0.0836774952301082
0.05325021406009101
0.0998990250330897
0.17562759875673364
0.03509217726160339
0.14398676148202444
0.21052179554760866
0.11889315368211674
0.04773623684490427
0.17664536237193176
0.1335388530405749
0.025504926668343506
0.2043308066461049
0.12028944199393982
0.17771220634165044
0.08253142891213629
0.17652341779105862
0.16109385651777824
0.1754037305864181
0.08494511755280076
0.03722232917330209
0.2109575869182736
0.20103571639881712
0.10549127174887976
0.11206098113629712
0.0922612280794301
0.10472337830916344
0.029676359978942347
0.040447069959860485
0.0809330010306274
0.14144774357299095
0.1994414751731952
0.19433558503586656
0.20347474225687373
0.11629908129660774
0.13458145714493003
0.07737819100955388
0.12966436244936397
0.1111951067007539
0.018813106408655435
0.19189864270786822
0.20442129981348892
0.42452866665262384
0.2925521805227679
0.05231638061322021
0.037218023073487705
0.028879254096933368
0.04070610489002063
0.020076750145456297
0.025023426480638853
0.016870612759754475
0.032243013804449466
0.21927967949456645
0.029602557955725077
0.05723798132017679
0.02948411554843516
0.01739815623749861
0.04382261190021612
0.20526695485583618
0.27666703891951483
0.1134528354330096
0.20508466871035858
0.2552293060900223
0.300195140890867
0.27492223341538413
0.17050406253549952
0.2185448811153647
0.21224145848041795
0.25674701357379265
0.09170384186300966
0.359843288514156
0.0915061732346872
0.024112878859040357
0.1785674603540308
0.11272851980584471
0.03907856886153898
0.043123494996691485
0.10055208181609973
0.03180658570309494
0.13326542902405916
0.03850429647069762
0.3326309902041737
0.2980399700301644
0.10138679164257741
0.21727265898796186
0.030984883153260933
0.06168419562287748
0.02814327398024914
0.021301795594278562
0.25783983806260613
0.015604112392804553
0.054688751942746326
0.059296962205958134
0.0665440451646974
0.05962814292362092
0.07553668866006429
0.08228584476029421
0.025747034662591747
0.030969178731173174
0.02623656570301757
0.04325598028791174
0.032651727238652485
0.026073730622030417
0.09229925406292981
0.11520906589520084
0.07118385089596313
0.22823385353022393
0.07071887348125748
0.07324970931039902
0.11328726966024924
0.2776825945951992
0.18074316220005554
0.19170242051614533
0.21885050210368165
0.17968669105902174
0.20487815966090836
0.215503857068832
0.12750085633491656
0.05749275432486239
0.05866100113228237
0.09984513358640287
0.06556733849183893
0.114271055341872
0.07250703405266534
0.06690416859384546
0.05921406567399926
0.08783669900025028
0.1649298619233069
0.14886708417282454
0.21683344013208353
0.24274303655506457
0.19375077140137023
0.056931196023541554
0.0532563797277093
0.06796943217012061
0.15835812720004624
0.05660495783982577
0.19396839850190373
0.18325819339633814
0.147733541397621
0.06971854519601327
0.26408287229177607
0.3072580440328332
0.32658459758229275
0.14045512510594954
0.028802071949092636
0.25009346032481566
0.1746068924180353
0.041809671663243834
0.07313310225765578
0.0313658265344098
0.04592466157448197
0.29738681029386205
0.0268804622483865
0.2857405742344809
0.10640704135860579
0.18552708930484654
0.22041860487739465
0.17505761457909205
0.18888735080115238
0.07012174828331796
0.13457190071291722
0.11654793830976004
0.11749125388033321
0.17477339523483526
0.12710010741084227
0.12009924655805952
0.12688223727298212
0.1659086309502819
0.16134401979401541
0.13418638720114964
0.140076635777643
0.129600618485389
0.14690110973756307
0.1570192126172021
0.10458389400243202
0.05781592237161756
0.2753000828973733
0.1544511347936507
0.017602779688027537
0.1664958757304026
0.03631249861069184
0.02438689193873283
0.09000971837803592
0.32665978377036226
0.05643796522439495
0.03013626116758213
0.15606965023589328
0.2622077967992217
0.16010669218838436
0.17027052929255904
0.028154724602981646
0.16957645230541615
0.0638947065109008
0.2912700859155228
0.2861682417557382
0.37671342092039733
0.23040000218386578
0.21317367827803513
0.2423885819097971
0.2503086581186103
0.16481250955710458
0.4820296444611313
0.3527182243731172
0.3533800043421707
0.2325927741790254
0.5089532106863939
0.4978467468425723
0.28538322216293616
0.27385419127859884
0.28216125192860503
0.14957269606458118
0.1829017375146651
0.15034873591787287
0.16721358346590623
0.15783622750392817
0.18638229439097534
0.31392943134735884
0.2800035285973458
0.22780825642254152
0.282989181307308
0.30331881593764215
0.21527829223453546
0.11697238221208774
0.18796039047382604
0.31416559507372444
0.19411839293241176
0.10211987003953209
0.38274666680224717
0.15080256535628775
0.11627548920232868
0.13549075806707161
0.466766135588708
0.2667990580056853
0.34006019234955565
0.12340694816963889
0.04561853233500016
0.2667556338756328
0.1688044082875938
0.16439107824044183
0.26103063136199217
0.28032317694696257
0.29914986644842967
0.13202597439784258
0.19001033521505162
0.16703209069269523
0.08165609507718105
0.1435392816631705
0.06324930600491142
0.0876465574237934
0.04740580829079087
0.026797472068236742
0.05186048055543467
0.037335594511065454
0.06732596771177891
0.08558221665093001
0.06713401328754437
0.06313062088112167
0.17018383191051445
0.2141458265348686
0.17546037996499167
0.13350745730272412
0.21876922793706377
0.14465584071774276
0.19183496783988002
0.19748348285811942
0.2027679513241172
0.28999964435178743
0.10209435590347637
0.0636658812156926
0.04724394239608841
0.1923421907353893
0.10843161468584472
0.3413507349822462
0.2967418806178609
0.15638541706062553
0.2808257647647553
0.15199222481256722
0.18345598583381298
0.16553641253642778
0.14116223741515876
0.16369981437445022
0.3143351961019471
0.327046172666114
0.23525851503759032
0.11836521371425211
0.18306434798562482
0.053128350977451846
0.12460399845253563
0.03135359247601078
0.1085111613763345
0.08543653006269848
0.0560006610436591
0.03471580553587941
0.19611553886728728
0.1717079287394904
0.18756600952999114
0.09205146590500105
0.1702115539628372
0.33809710378400337
0.32870959100721314
0.2959457899514415
0.3719847994103778
0.31799743292359983
0.16493323736567328
0.15195277726159417
0.04381480178939377
0.20440318235090196
0.24700019478015814
0.04889816575937505
0.06973388755419556
0.08879163581789853
0.19672324958907098
0.049074208207575444
0.03183613250201011
0.032765929282782845
0.02882263533878633
0.0938486080825629
0.045277612026119955
0.03666125352345866
0.05185628553327739
0.041396516893669695
0.1140840579610722
0.28657911136878256
0.20442468216478155
0.3538059321084543
0.30035504830108506
0.12260417580309053
0.28183488994735834
0.3129208924284512
0.1710370744922438
0.11478844181542108
0.1477814325118581
0.11372313744043057
0.2010765540408526
0.1276228187461728
0.10210163112829593
0.07035754883850882
0.061431092942778896
0.09977704798206834
0.19832164222793505
0.06292746742557143
0.11837104769296655
0.006970099462403976
0.02718542055963996
0.020570976039197185
0.0177740673488566
0.47107111576317096
0.40427056108148396
0.07593788344620099
0.326517829681735
0.44199047385143153
0.15064297934757173
0.07552690555059452
0.10009367144754144
0.17903297269736443
0.05448474266676244
0.1412469126772103
0.12017831957665978
0.15398456001658578
0.06435655647280357
0.061307940945801886
0.08103668135253998
0.0731241164199667
0.07189429471676986
0.08519330811733584
0.05176379793506579
0.041087849438632126
0.2537506859321875
0.30214378469900155
0.30413890989059805
0.11024189276955816
0.17022816405152338
0.3516902235051762
0.1241042453010646
0.030941070643359946
0.28296483902955283
0.023601138726966314
0.07890378210012892
0.16281994673807715
0.032717156103685814
0.22401212058989337
0.1857279279456893
0.15605532270699984
0.14593859843897222
0.030888875826182553
0.02136407484821435
0.049760254405756286
0.13098712690669578
0.26845511708031433
0.031799232913404356
0.06915375194275684
0.28338353178992226
0.10147836998435603
0.14263464759137046
0.2165020128815078
0.13164815285129117
0.3803183226454481
0.23088129204387012
0.4210889575200522
0.39877902673538196
0.45005176129330116
0.41839931751919374
0.37024682289832844
0.03646430691426132
0.05966806797939302
0.08584112092939133
0.04930105648732092
0.074065853694863
0.03439217333223612
0.07480422990958739
0.07847136920792463
0.040212303250835385
0.08150408558707578
0.02082600777500514
0.02928585028090449
0.05650574844628039
0.07770774216008036
0.029399459478172484
0.024503699490752328
0.097895005575787
0.08773827519020382
0.11085431893620347
0.10936552846817807
0.13461335032341126
0.18177997517227668
0.06342078792557429
0.1491480795222916
0.10178718738737298
0.29430518085630475
0.27130325207003897
0.26961445584302646
0.047178901992021814
0.05618387931143962
0.08510229980426007
0.05945742140167447
0.05857871081565927
0.042245597907103936
0.05867085076999075
0.03327604859502779
0.05587630488054246
0.12462220569065771
0.08941214507235853
0.10437895184766825
0.1912013764481597
0.14624322536745707
0.06471882049235539
0.33947152656070423
0.014215077434568256
0.09843552556644354
0.0975576835757336
0.233281647608375
0.3616556794379608
0.302644442705583
0.27419275383439556
0.3358129890809969
0.2877779501202269
0.22809153784634068
0.07541599041632135
0.128542121270261
0.08293465884522595
0.08288328568752021
0.18066242339262786
0.10480163609555894
0.0761503806876259
0.18664513237571417
0.2168801928978857
0.215118615165801
0.1515024245254391
0.31186357806336396
0.33943654077026986
0.13111444202975797
0.15490801914166585
0.18105691405965058
0.09192292050648147
0.03899505954390439
0.044490348359357515
0.03806079915350231
0.06346355301684739
0.023660653936797962
0.02960820011828895
0.20102165798798716
0.1749863591657351
0.17823083422998257
0.15919444523093476
0.2811279595051942
0.1326583658915286
0.07386167331670809
0.11431319735032293
0.17374167664130924
0.07408610597617726
0.11672152940036512
0.23711760890434955
0.14968833434426396
0.16112227051077807
0.14217818651971947
0.28861023036287464
0.16909030238032147
0.131196956859702
0.09578806114278099
0.03706595820814931
0.01973688794910221
0.019466880076847687
0.07560705999793516
0.0691637960035512
0.20591849337258236
0.1004556104303947
0.13361061771336155
0.25232977975372883
0.2523726312066926
0.1659793143756152
0.22399940134265134
0.22038902681967476
0.3990704251352449
0.26796851834609464
0.18026969363617323
0.243634380538248
0.1551776765216672
0.2789789337536839
0.27320029324372047
0.3122328234494329
0.28917898423522254
0.29924154347845
0.060528223701551725
0.10589086335382836
0.08116227831742041
0.10782873655082663
0.11997298634107603
0.015167885041948569
0.03232238779502581
0.013142825731583166
0.029776142911360107
0.07005666772351755
0.038683736629453035
0.08470443305196171
0.08418478424191149
0.08332112916951163
0.03505545642292229
0.04278415850338105
0.046078128812648424
0.04753082952146234
0.037351309836342016
0.04653396036859714
0.06541247519639508
0.04516272636778876
0.035387808873715974
0.11322246867259818
0.23326851755258593
0.032223995968532405
0.06436577453446014
0.07587701042655746
0.06675288416217544
0.07000843772328025
0.058724448194306056
0.15556737164793616
0.06870830057188806
0.0937621867358705
0.18101169822515986
0.23349035284202727
0.10018626100948191
0.20944548884132577
0.034176304285230656
0.2990319651741608
0.16392102719677318
0.11872394086644258
0.1213644278017841
0.0909250043412219
0.15399591487738282
0.16928409291931157
0.3633720731522487
0.31932079347685743
0.3287392651081881
0.19818443790095536
0.24358316518110096
0.37948742772698246
0.018144631851089537
0.05146203625108648
0.1538503470748228
0.06154364243096853
0.039794091763070874
0.1956515412394441
0.14800844886164444
0.02577889792267587
0.042029265139643196
0.11337073375919447
0.021676050913749786
0.025706348338385962
0.026150980552988038
0.053049866538009936
0.2459043800722288
0.1532979475266806
0.11938239623204717
0.26362807238375946
0.1322238024322068
0.3041557873507063
0.20982970066685494
0.18083642904983738
0.1773266172225641
0.22984627585139744
0.11067602202329829
0.14168717175743728
0.15171919135353817
0.13381251697994503
0.13223359052881928
0.18416088196965844
0.17192772950963847
0.16559807175931365
0.13659978289219968
0.10685308666156741
0.059379163440193464
0.10785360268121395
0.05120404475141383
0.06887693167850686
0.027513569724703976
0.10547489802368998
0.17966458075172237
0.13476057883678438
0.11837648132593759
0.16380210332280487
0.2155391264208733
0.12951636210478643
0.19788595911839585
0.22067127012982238
0.2192587851066586
0.2513102867449164
0.24644827654654353
0.025885249034887793
0.015704872943162553
0.034307855069160044
0.031958496966354395
0.07988804233669905
0.13016387624111844
0.02877108669958769
0.04366944050429238
0.1589966720555001
0.08123468916189727
0.09639127804775614
0.0500024635779431
0.045878572476427903
0.15751772379604354
0.10850689173859933
0.11929767384604453
0.19520267827560703
0.1867326561477669
0.1506373321013336
0.17195734599682957
0.17558651839983555
0.20939451677846752
0.1738167648690991
0.15975703096921554
0.15757776489797698
0.1028328849163862
0.13058901309730409
0.19561479770952636
0.07349196412773193
0.09154504448696478
0.100103244678544
0.0786750196293792
0.12636989031259435
0.07020254710944823
0.08715961729201684
0.12033275921771498
0.1993019381412798
0.204432982768615
0.24678325981025354
0.05100794629964316
0.03157013322846813
0.0602639909653465
0.06992265282022611
0.038631377980117426
0.027154045422698586
0.02289373223622404
0.027212038866583035
0.27364344117950157
0.1763241330675616
0.1897734410240095
0.20102439014363402
0.1966209375083227
0.2865360641370364
0.49462866199354216
0.231452821112147
0.467452635222997
0.31216080399975377
0.290912592832588
0.3170028850425906
0.17036625062362967
0.2116129303668425
0.3030537143799284
0.01164972154083492
0.03607898813208147
0.05969194705351143
0.026287317372554162
0.07058779156769292
0.1008807626418607
0.157440397059515
0.08171342726687071
0.1791308225901517
0.06906981330985432
0.033110751254655915
0.17803156117549712
0.1216636621781614
0.03882214214482571
0.13844608160622635
0.044282148087426566
0.1074153801135791
0.09163861800959458
0.2230558621077211
0.13106559661027112
0.2219449422953313
0.2847603237555122
0.22238723609539887
0.15706736917109548
0.23690432473126252
0.09973046941761252
0.07577414807795428
0.05120608508644165
0.26779757147505845
0.19783113895347415
0.19762743139458197
0.2264720859753717
0.21359347041261656
0.02944839777333429
0.07762818769371557
0.11226248377854849
0.07401840117049657
0.1402807674727017
0.034193819767298496
0.07201821757223217
0.04765915421986942
0.061084974682611294
0.09902599622686613
0.07104943165259636
0.06813853390146749
0.06729448711426207
0.06702943590010854
0.11429145146288885
0.11127741441755144
0.07801890404412588
0.10619320063801507
0.07270621268074322
0.03772594616514644
0.07549966059472384
0.08479606267191384
0.08527237939789481
0.07935928030661989
0.08909321068814222
0.09856632681754635
0.06192685768653195
0.14732297822708237
0.04216544671012367
0.10219863245430788
0.1865872808349105
0.09066589926503552
0.21776283375450528
0.18924426530416671
0.24823654015916305
0.2816912250045561
0.25220487104736755
0.17381793087202763
0.12336799838351374
0.1324551576408351
0.10877950179269567
0.12033900026668377
0.24578487100005983
0.09687053058700647
0.16753025300768437
0.10371160852126604
0.053741432691126086
0.08658676609339098
0.018251058181616844
0.07642249274051097
0.09335683787670826
0.02873387559141695
0.03406495106246327
0.041525411682006755
0.01921091859309652
0.03224851605747287
0.024544015243196177
0.015372996706684197
0.24030367584959558
0.23556304352638388
0.2515558886889323
0.19529293223913424
0.25905790601401346
0.3027103501497296
0.30775898543972846
0.12232956599419091
0.3355358518591755
0.28654607885173294
0.24719249960060433
0.29490743617137016
0.24804421337497937
0.20514963288493346
0.31444096134124105
0.1601713328900226
0.4635988192904811
0.3122574579966768
0.14459368437646478
0.23416227011589913
0.055866182395510625
0.08271859452639901
0.08537965991356576
0.13894530231292698
0.10515684447592864
0.05301588541902804
0.06131335960561731
0.05976516521982957
0.3567467532732825
0.2427368731758663
0.23522386180638896
0.3761373900536979
0.11641045649343489
0.06691963771983855
0.05381836644054729
0.09537506903390758
0.16374743886696613
0.09526763222653875
0.07822468579465927
0.09307503510522896
0.14352486436304485
0.029688577226825844
0.03688811394797879
0.09933991898994873
0.04160312397692797
0.028670086978848555
0.04628710830956097
0.08625999068390701
0.06116464983061288
0.07182265679275521
0.0447094928446111
0.07187240956359361
0.09217839846231159
0.22487410285576967
0.2018422397813438
0.0887712833766738
0.3364139093448221
0.2071048188095962
0.315695566047177
0.2490370266020924
0.06784797720213796
0.06136457763551215
0.10005130855498148
0.056840327954184235
0.1476461639868779
0.024927196105000996
0.1373734137374956
0.16834172556587243
0.2431752740324426
0.1703207281162353
0.04774941083104826
0.038845909798103775
0.03351137469251074
0.024060841567990113
0.04090742691297958
0.07092362062474845
0.024305307785264338
0.029750826832363818
0.03501516108115861
0.033230210853602137
0.2522334747280714
0.10526639178920547
0.15512783967424906
0.19400990970482226
0.09353578358254666
0.0927542558427303
0.06273990585662799
0.05852520590813618
0.0658747807528624
0.11626593037521564
0.11246474979774199
0.1352246107235951
0.1313448978239843
0.13502669359075758
0.12256086836484686
0.0995687631819253
0.13503187122707233
0.12282051839431427
0.12840248530697992
0.2358487414651035
0.09026399426751795
0.1213748974722119
0.14182485965606237
0.09189009996452872
0.0779957156439656
0.1947553009611993
0.22403809063584537
0.12268920646697054
0.1828628147099438
0.28834386206193835
0.29699151815684605
0.026831089358813696
0.04224340301537314
0.18025285328731594
0.21682883918689794
0.0549761780674273
0.09907365588397521
0.04149001923037621
0.07108194687788792
0.1017838189118871
0.1875274715701041
0.11605630309131681
0.20938856844078957
0.13869868951918266
0.23061936085935028
0.1584780061705345
0.15153084287719717
0.07251146268564905
0.14590972959009257
0.13272467607770483
0.02999741769766934
0.17882856973552322
0.17316937777956784
0.13002830232898793
0.056293501613617174
0.07938063979593009
0.09210648383944911
0.10633029767360594
0.06754079074549103
0.13725689614099162
0.07459760568496572
0.14969984460750999
0.2011640942781526
0.2397999167083387
0.21703115420233834
0.2133843353775799
0.10592495675084884
0.24314458209203282
0.2363347042180309
0.1254148294981312
0.04143909720505369
0.11299795135878751
0.08682400580475523
0.2939918813499128
0.14117454969501309
0.17956081429840412
0.13630852757859405
0.08817615438841718
0.08319885001585461
0.08647716125033343
0.10795249642313064
0.11990765890545463
0.08649647663684898
0.09419788625972508
0.06636244740435768
0.21272988986242242
0.031401149108204796
0.07475836836598687
0.027291436241554626
0.2163289874616657
0.09699368930247977
0.23538583869747656
0.013050409002185851
0.05009240464421276
0.07099682141909928
0.12461547479552108
0.03334243066495094
0.0410722996330516
0.03456153093845684
0.03646884298956133
0.07804562141686472
0.03456606901735063
0.034648106943800785
0.04780262637305542
0.05364441044727638
0.1094219861325493
0.12457984157075046
0.14487942932858563
0.12092849572279937
0.2023468245762869
0.14319329602235373
0.27182198035395205
0.2160726320639219
0.23803955959014625
0.18668081648016993
0.23532202541984243
0.16707225865779418
0.26681956190935124
0.24928276160801516
0.2960065259201272
0.24915829563054492
0.21254543749338878
0.1172157349096652
0.1664247470092115
0.13278391900696151
0.12472364943059194
0.16997897055206393
0.09647019779806762
0.3144859469636771
0.37372874484980084
0.41799845146256914
0.37195424287729684
0.40892220511268734
0.2281966123930896
0.15579456361379113
0.1941164449856721
0.151346970239449
0.28657317904687124
0.18253258399349884
0.11232851586766178
0.09999978575561944
0.09067119065697549
0.1352449755033499
0.1568409457143423
0.08577610652522139
0.13587707440346625
0.12108920100672046
0.11376849438324359
0.11274708887714772
0.0637031477693274
0.06581068563683144
0.056041798603268876
0.0930608082395702
0.2973224137876462
0.22366634934701504
0.04239400574582897
0.17289912009742056
0.23900627233539704
0.238359754363015
0.38848907197513877
0.2756154385661158
0.33364821459641547
0.14463627402206625
0.2145364576452059
0.02923604341902948
0.04652977653281615
0.09823321251348159
0.04104847158979702
0.09146117405321495
0.15714588192678225
0.15769453466635874
0.08924436035500843
0.07270256542006773
0.08471027355812165
0.0750874601020184
0.22880393965827092
0.09149615900021921
0.01302391445815056
0.17583570166420356
0.033558453848089274
0.10280736949853474
0.05756201865587554
0.022027331856702775
0.10564489358648924
0.03429815244086405
0.048404814490531696
0.029500438506693503
0.11477166975790952
0.037001827450625836
0.24048746798713674
0.295580467004365
0.13914544372740756
0.23417967819475916
0.17615638745060777
0.2005683660232656
0.05630521847221441
0.05551096770044381
0.030200673957890615
0.06361045990274215
0.03847190999723868
0.04315948561953099
0.10967486828377096
0.06039924640923958
0.1197676064126466
0.07051589913576882
0.06859779468636282
0.06643578572413433
0.1241759355732343
0.059215572179943665
0.06719664862667005
0.03648247959556695
0.10627003788544256
0.0676745056907427
0.04600440941771737
0.03639724432243827
0.13947715217356543
0.11677206567202378
0.1606782028658186
0.1242927259209297
0.11407314861479892
0.12033880214651058
0.08252756378909513
0.13382354926785933
0.06835310990021141
0.09570797817427266
0.1064146799485012
0.1689832240648175
0.09225520812477662
0.32293291074986774
0.1392127104895685
0.11543939667955008
0.22413593088492315
0.06046856768119649
0.03468014256639152
0.08581321573381406
0.08951468988124754
0.0904505440377263
0.06318270429974539
0.06446573665692258
0.04320221330027406
0.08518463207675356
0.0973433111159886
0.10133817667384304
0.10755701675895399
0.06699501405878698
0.1287461592871269
0.1984261516032574
0.27826176533836877
0.2117194662542195
0.12870267473354627
0.17471580904156392
0.13491359696072772
0.19050576485010962
0.07966520478778204
0.22530866692918985
0.11728616673024866
0.10766597513766132
0.1593522162675924
0.11316382265356255
0.13545230671060626
0.1490205990661716
0.11504507640663876
0.21533256105689708
0.2705035597017782
0.07272715814556127
0.07700278298162999
0.056482646333333636
0.08736245092038057
0.062008441386026424
0.05175961964979016
0.04309722575010583
0.12045174865749851
0.0309846757575057
0.154470108866247
0.1871478815272783
0.18914019846885302
0.17303785032145472
0.1408693012000316
0.22963649641990067
0.17042681012737898
0.08458465140706338
0.11498088351128857
0.040813168967149274
0.13536448835846024
0.2351357320101534
0.14874264743300789
0.07950604336787025
0.30488557477930484
0.2944288697772015
0.07536938056023212
0.08273364263656173
0.056036529300442325
0.0663877409405926
0.10688837614034484
0.04660727062177033
0.04675521304949911
0.02432909093534069
0.032650540702204474
0.04014841378476102
0.03126894626022378
0.0894155643905877
0.12382591046426192
0.181556934605304
0.16313003712998542
0.1500405250733658
0.04466818193078721
0.11831209396397491
0.12521676982921587
0.2938600129446745
0.10800787680645063
0.11675256078963317
0.09453141040889038
0.1574816650901772
0.43759919431811733
0.38462506179534517
0.44362939457601513
0.3043029360452087
0.26637170191497644
0.16819796852912774
0.09375133089738692
0.057773173148466535
0.08239199113344717
0.049247491298057014
0.05328707844948423
0.2021992507855317
0.2045854822076998
0.22692368925852344
0.0848360134091758
0.364245219733202
0.33804297587990345
0.4188130719738188
0.2820548216317794
0.06200210294113307
0.19562320551104254
0.23474796091112493
0.20264709077805634
0.23315683887097974
0.18666404619463714
0.2423719922899091
0.19013535103725396
0.21257763436041235
0.1230086000680852
0.09609864092328417
0.10253520112889096
0.10029182455245793
0.18920932339320043
0.1969214540076953
0.13241780913586115
0.11344236941553217
0.2233354450884782
0.15187577846978956
0.06237275053824349
0.06952550096684401
0.014839052331255344
0.11779233637923255
0.10146268186576989
0.057014289440092125
0.10463340278698208
0.09130938687787711
0.06059443524172994
0.01929504283765756
0.21464315190742952
0.08204804989165347
0.16283574637455586
0.12593879089234697
0.09108304782376213
0.15680838256790952
0.29137741710633697
0.15495650574886702
0.16430917564621073
0.1584363966532364
0.14684103393605336
0.1275395464665136
0.13368227492829574
0.16026758533649724
0.14549512872794762
0.1631027727508007
0.2131414654728775
0.1843744134369449
0.17382386293949648
0.0063219015474986345
0.0558647724720883
0.011457478843935217
0.008140811103317979
0.013724146662974467
0.03638827072402426
0.02894480366003189
0.033123088823744075
0.1394327237214464
0.07408139520725417
0.20670347781986237
0.09583861362221373
0.055739253036140295
0.07054459242766573
0.14259126068642533
0.02602723449904733
0.081045223617551
0.05441344019142824
0.03203960389182795
0.07612209473340954
0.13738430977341248
0.14395979748000706
0.05192520540054025
0.039126838716373465
0.030172396725555606
0.03348435750655978
0.03633738118719082
0.047260548536240995
0.21166442168547256
0.06227004126307499
0.05224412226452974
0.14867931747329863
0.29574652428902004
0.16005044696653672
0.037142813478347046
0.06877932016725083
0.02934293130198561
0.05876259780550606
0.24541742791434937
0.07397218089727302
0.05886349051423437
0.09326220610429539
0.06745229110208006
0.07092948378918103
0.06635349741924004
0.07460370475537483
0.05104846833895974
0.06627168733199891
0.03427132347041316
0.06451909441935494
0.06775232061462413
0.10045571677354512
0.1442325886470314
0.0989784076634845
0.13376584038608627
0.14522636743693548
0.1208616646880969
0.22595655846702375
0.1502083969803542
0.11729648718923953
0.0595365156316864
0.07513261309302378
0.2072317188049672
0.2930418611718696
0.06477194252293982
0.11868741867985806
0.3260433874766806
0.214170990343698
0.10124865002457605
0.061979897288569986
0.076149163182668
0.0972269505764051
0.10677104904108094
0.08213580908307526
0.19879732322926855
0.07180732865570413
0.06312947047339684
0.06954590943553109
0.20251659063716568
0.20120587187206926
0.18741192079928476
0.15747523640298394
0.20579812627549096
0.19384483087398366
0.10883244880334696
0.19672101719494212
0.2656437321007938
0.2298490485939927
0.2962222411035188
0.2808707828938344
0.258734985434619
0.3263339682331415
0.3430486631282244
0.3912184379066684
0.2108218658714348
0.310074541964159
0.05542172794472211
0.14222344639521783
0.17262463386175447
0.1631551936641727
0.06506979263866913
0.05222013874485056
0.062392815417159644
0.12063686412907366
0.09436828258926235
0.11310239681975275
0.09539228545660386
0.12880510824565983
0.10790449877738827
0.11080904594151597
0.11674962985109226
0.20189122648874103
0.1961491209206553
0.2000854478269399
0.22983047517501878
0.15550802382282058
0.1959271134083084
0.0968750542743644
0.08239429433268951
0.10722587933410055
0.07014430734799838
0.07786062874799969
0.1294822026463797
0.06573392228824523
0.13056877961105834
0.08618352421191731
0.16970544802243842
0.14038642674032867
0.2966561711763709
0.18090031740838336
0.17798619941011357
0.04743945814364138
0.02636833482654397
0.027535906737716363
0.036077224518493864
0.03749880623310521
0.04150982983556613
0.10247219286526707
0.18562512804518258
0.021810336113389315
0.13227773879783566
0.12883805774384885
0.03119202916000765
0.14536576123445044
0.01604280442728775
0.06844547177605279
0.07000291181185629
0.06083092204087144
0.042162709429486966
0.06731656634360396
0.3526365235605436
0.2958224955581652
0.2793096850249927
0.22771706910058628
0.2952028189507675
0.2506971417815715
0.2392364660334761
0.10349006666237304
0.041501733873825455
0.059439532666427985
0.06072379028768811
0.04292462466541239
0.3041693445344999
0.4379335620565039
0.2590187177613475
0.351546274647097
0.5065434248948852
0.457091376460756
0.3935241571110408
0.38423762846544296
0.2428092145441521
0.31422948881762264
0.37959398196733385
0.1305148847580104
0.3309568407327199
0.1573539404059392
0.1307790399588242
0.08807852245038854
0.0868253584315285
0.06271677189005535
0.06466097185066788
0.27974743556103226
0.04089968118925095
0.0918279451443939
0.05244583147764771
0.0394330066664819
0.012161673408120927
0.02410998425563928
0.0166075700650377
0.02646477839307376
0.06451547867824284
0.018940468643818036
0.027961863003146636
0.1053812287320106
0.09041843898134642
0.02922725618757323
0.08311892576697472
0.0643534267624544
0.08899024000889878
0.09815988764896247
0.131509027774335
0.179721701877828
0.27201158422381816
0.19645284166061563
0.08247468798465551
0.20362880069234596
0.21400255510417918
0.097556155049947
0.5479624478328824
0.1483429422471312
0.06923979081808854
0.09629878360521055
0.12001175335973509
0.0885545463145684
0.07171478119667728
0.1965434313417037
0.2051320521620939
0.08925365410675025
0.08912587911188975
0.12344152810802494
0.18762988341324552
0.12371756386836978
0.4871977534246425
0.13752156927249048
0.571883853615849
0.5526429019660953
0.3778912213100975
0.44845051640063827
0.5626123334889022
0.49859323744539785
0.4888535236185404
0.43282004027519433
0.148795407784664
0.15015141533811754
0.19152782157279893
0.12181195991313919
0.14205080874224127
0.11338008975668463
0.20199863775340007
0.2559306834010791
0.22678720142146336
0.14315339773458202
0.1267662239353803
0.20952195855788475
0.05762937782588821
0.02213079179498644
0.05947247901874494
0.07813339568097283
0.08483463487377592
0.09328880083937544
0.1297297675616636
0.2633882109014928
0.2150641075771567
0.1886066194158849
0.18897775014585866
0.22855885333919873
0.07074749133701075
0.06482703476529594
0.1789996401523908
0.057883512724617524
0.037391192440539005
0.04888310692431186
0.043779583193472055
0.10557886907178668
0.13497449543614995
0.14951920146479633
0.2333236677466376
0.28120101966910793
0.23459505631533334
0.18810413409374344
0.21212168352554844
0.3310475283291876
0.28680924590017975
0.06850430900010626
0.10622310149083546
0.06132134204045494
0.1655942026751658
0.09170232027951214
0.015579177317725262
0.015752168873152894
0.07669554241092229
0.03457345616994589
0.04701958381000986
0.23528693160033998
0.1776164967452488
0.17730277973706543
0.22248172992192275
0.2579011223406288
0.1295986100845059
0.20566486925325952
0.1144865539341108
0.36478665390372833
0.303219913090355
0.4063524329115283
0.3160189502860958
0.15963394873959755
0.3470492875319082
0.393949124559692
0.3024126414213741
0.3458591873496809
0.15007260036842596
0.17942803426688436
0.18732091637634316
0.20363975034266224
0.16946796270657885
0.12154488554351024
0.1187534445557
0.15480869054208693
0.08415446954839126
0.13784715773765005
0.08879628853593617
0.077804807218556
0.18154492644431
0.15030150356028843
0.1818989678461415
0.15893311690615664
0.1889497728761342
0.14883786992615436
0.15363996168379188
0.20011904285305973
0.1948146187404985
0.2052147900338094
0.2486553432636045
0.1633955617812992
0.20553674384298962
0.22474818580036873
0.15324778082526508
0.04064267419843957
0.03564595475241778
0.0200843520678856
0.03226052667059039
0.026108782105480472
0.0313539705987097
0.3512915769580509
0.14944241236608274
0.24771479363436874
0.1977369631381508
0.22793406750666967
0.1586628885594304
0.29338109086901326
0.14719251619092708
0.09970505050685786
0.168823120771556
0.11886947816670064
0.0764913252166784
0.12901499118749354
0.1868994268306076
0.1406920970766061
0.18392615537211307
0.07173062512923167
0.20517078720137485
0.1598326184611592
0.15711507164493274
0.14401054408783298
0.17293880054193897
0.10499091556035664
0.18390627336572976
0.21169936974405287
0.26197502594565275
0.05167781788017647
0.08996770214330034
0.1663954738291351
0.15579691216274605
0.20135395409130918
0.2108598412820796
0.19588365376083805
0.08022484387338967
0.24166834662120024
0.20526403541084545
0.17363651297106839
0.152487460209247
0.040399288862489426
0.053253385280924846
0.0393799098734787
0.062168881675955794
0.06484490261788833
0.030810773826147393
0.07033042909440122
0.12210647959300018
0.14178321594344936
0.024995387659961545
0.026000099946335363
0.022621090013573604
0.06139768112180766
0.1377166310511123
0.15542814139473565
0.2548374993893694
0.2688135105687907
0.03439727194139934
0.023670180667935695
0.014878442242676471
0.0159868188755086
0.018340783674385887
0.02677360274430927
0.030630081427701267
0.01948480579645459
0.017103691186188853
0.02851931786824657
0.24375643279563738
0.15935635347378527
0.1391754756044142
0.13118025912447204
0.20728923921240652
0.061134356209476354
0.047664661034268384
0.02168491129612707
0.051966469403617384
0.08012544487913165
0.09837734792269878
0.14291127810518048
0.06553153328900692
0.05537021248481681
0.058651362135281146
0.08776451024867371
0.15791460112008782
0.09754220855602122
0.06510532955924153
0.11218035388164979
0.1037370045516906
0.07836177948988417
0.07099192853238356
0.09667794677697794
0.09869577224698715
0.2667734498159711
0.11753165832914492
0.22968636116000532
0.1292841757142839
0.11832201421901684
0.20418791836177924
0.16118381279410005
0.09020167576902237
0.20922200049515283
0.1919168834938844
0.04490421308888575
0.06010121370430665
0.014548211480781708
0.0884910126451709
0.05072551471411025
0.06937578174605871
0.18176289835022874
0.1357061695759606
0.20036995916401815
0.3085004252912156
0.24082706406906484
0.2833298750153988
0.12841728854375298
0.15101316872577758
0.03237935442934217
0.02116568472913079
0.025934469441456224
0.04660835791416785
0.015220806657063792
0.019967162618884322
0.011138389218727729
0.023329024288932874
0.2276757743368972
0.27849660626459
0.41342944109269003
0.22522622618385793
0.18997804937519727
0.3320067456936618
0.1696528401297943
0.12907616625558796
0.18197354499999982
0.24772130331513162
0.14561785977548383
0.12083493953335557
0.1585308100200023
0.11687413143446108
0.22955844664828054
0.3306639844681921
0.4601221215415788
0.19749377926769163
0.3764822985263624
0.10457409800578107
0.10726062789626943
0.10881639259777111
0.08915580295873204
0.09805779498104271
0.11457671969773592
0.11638467200546403
0.08033977372806621
0.25546765354066425
0.2513160784180266
0.35407026829976146
0.20729157995253317
0.25913724540654604
0.24587254364239206
0.3699838172233154
0.37431949353108057
0.2499693137902683
0.08202857863246812
0.2663514473060427
0.13174304669211137
0.06328171475532153
0.14570307290501144
0.09223837474688855
0.12398696990197873
0.15272525500726225
0.10214074549830422
0.0835249629765692
0.06694618442701437
0.039803651630594836
0.4092355263702928
0.07180778076940096
0.04917413145642906
0.013444391898238425
0.070678745733523
0.08484152456317223
0.1374588690505608
0.06685854066310873
0.08949979292252516
0.10706913424533272
0.05906974234877674
0.14587074151848323
0.20144461855190882
0.1861355339552285
0.04414840457906065
0.041438052502427526
0.03584888460498752
0.043890237477317365
0.24451229768332072
0.056630546503241425
0.14015919589166906
0.06939633748164496
0.08218356801017279
0.041003292881837426
0.24090917912683688
0.03748448825920518
0.026271303648612476
0.044821261728275004
0.015744296558591508
0.021325165861730954
0.07883358036826382
0.02147390264124969
0.05010862734356046
0.13693536797292713
0.02437255981576849
0.27080352975674016
0.1469308390526369
0.28093368930201784
0.2627621081247709
0.24300286969214827
0.2647432130103394
0.41227646883573715
0.4992552116949685
0.1525773562618294
0.31120580872114134
0.2775119517169525
0.3743779037197687
0.1798148917790255
0.25294802802349814
0.13956690186230433
0.30429455171936376
0.02142127162378557
0.11939270336372795
0.3102087726620673
0.07125599148012235
0.15602425558444677
0.1647403796151405
0.18631964425945666
0.21869306098914887
0.1678231153255042
0.2960444559964257
0.10975274899129436
0.17479610098561288
0.1588462377906999
0.10560249887934363
0.2932292650517674
0.2020982192870896
0.21079062899214607
0.2996890122099549
0.34647039994375833
0.273622849120815
0.34745102745361073
0.30690320955783956
0.10713407387047498
0.1692408304456535
0.10733397120031016
0.18897120341314727
0.15665084622921932
0.10588222809549924
0.3560220447968643
0.14069692323960073
0.12440428977736416
0.038806642398551354
0.02429618649867444
0.12368451002137702
0.13253485939950174
0.1618065820217944
0.2625099148279786
0.1116156433173643
0.14703479551853632
0.026316645382335482
0.02504091737992705
0.136367440612032
0.05868202304784647
0.054323611010039845
0.08333169510141507
0.07782792084269956
0.11849136220710697
0.011855435041513103
0.04939498101523193
0.016240165716612683
0.04218424035921367
0.012235398169534947
0.012127579861752509
0.012216938989190858
0.00808409316517222
0.12137541958676838
0.029809804647088406
0.5030278470345805
0.4058959127195799
0.4406113050370324
0.37378454545631834
0.30644837117946006
0.35779066330049103
0.09265326072916187
0.19851970462195134
0.5223279668985906
0.37708771292869037
0.5165430876857647
0.038183783063325295
0.03806398086675137
0.03493243398406537
0.07096638042453106
0.03439526928103052
0.055846589598909
0.05285940680087624
0.14536579756282542
0.45725044826075417
0.5769911712454031
0.0850723981935144
0.02503873782766555
0.06059415166301376
0.14480698430990677
0.1729589358936733
0.15486411631296296
0.21469874681716833
0.21355867293620165
0.05211799227323754
0.07896307018328186
0.04933139808352101
0.05135732644937637
0.05717843488800137
0.05064053660509738
0.03703408920187619
0.18048736757429557
0.201429157022943
0.16276938197462534
0.23868309444715818
0.061074293213586005
0.08667173358790306
0.07929988013542144
0.16287658275607275
0.033451570105169644
0.1195218368234342
0.07309400837848223
0.09997766179142725
0.07093347500177659
0.068148527146723
0.07483712812261877
0.05238371959843524
0.0783255066709652
0.03752258698761108
0.03928841479218353
0.026967686859463685
0.022963810490154564
0.059708200628565355
0.048939364932590906
0.0638019313728346
0.043631835245297124
0.06410809515867145
0.2093628717388933
0.33223552369476905
0.13875354309139787
0.10137517006332601
0.12051711396878811
0.15366001179696034
0.11275328246543202
0.0995470033053174
0.1441741682561703
0.146224002727362
0.13648070170490076
0.0905748456274406
0.2195334081344866
0.03706058008736752
0.30169280413925803
0.1540521655284107
0.10216051422706193
0.08019201446336698
0.0728010685768388
0.08547803664557385
0.05258530862903643
0.104626288578608
0.10844081816231699
0.22737787942418064
0.13091420796457215
0.18981909577889813
0.04453656067674573
0.18600484008822332
0.10774781224682664
0.11958093933050833
0.2024741928671426
0.22271411403617475
0.15034343296152491
0.13586484064403273
0.2529671132772222
0.028467581824432923
0.06673415657203723
0.08762436018051946
0.2666822265709319
0.04059521737208518
0.04590099975927031
0.11753366616577254
0.032495189110113384
0.05995424797617901
0.043900019436692916
0.07795536395955444
0.04525710635007791
0.11121142456668828
0.1522190675345234
0.171562823059237
0.13065885605214486
0.16549760870152416
0.11131608213841429
0.23682087829486084
0.07661138203649011
0.06751329780290564
0.07915360933801341
0.11459525690205888
0.11188926166348616
0.18671502928764977
0.2520693778304381
0.1715425135996925
0.25346366661838876
0.18013719105109482
0.26970731487135485
0.3116582040708804
0.06195450679427943
0.14499978916668926
0.25482227488901826
0.1529965028694334
0.03814933781049272
0.04964183201604308
0.035940964462449106
0.055265049443900094
0.12574169158059886
0.11882490143779478
0.0982130490120463
0.06784841538374362
0.06304037983664622
0.06610520068536149
0.21402537412787742
0.29430423692926777
0.24641051493875266
0.375568228108018
0.2757256600334283
0.36563206436905493
0.2893610737702302
0.33213705729481857
0.3054226993948209
0.17164109460904656
0.15487809633401645
0.17553570993077725
0.16216908164994434
0.12259833818561948
0.12796144838034454
0.28254886888104697
0.08877049062165886
0.14122205663635232
0.16891465854308618
0.05593815472816016
0.04792530454150122
0.22592823344352675
0.03649846050616182
0.07661665401754325
0.13281130001473995
0.04976005049291313
0.03392733687252395
0.27539513762452467
0.28455769105006906
0.22495250395436792
0.27668052398855514
0.13261452497579018
0.29946319238620683
0.1295087152653806
0.20949761075103465
0.14015145620778777
0.14232754098428663
0.15403049831981216
0.13747674338052557
0.21437841711738653
0.1517630015222076
0.19351193428699343
0.3418276883371647
0.23122205905932053
0.2191370319245997
0.2169332662606752
0.037775774928638664
0.0334757063581033
0.05552925265900916
0.05056032713255259
0.0363848491123898
0.042248556929773376
0.35906801677981587
0.2883674161160598
0.2618521338191571
0.3004118553619592
0.4340793995432896
0.3404368249301948
0.42865151816922714
0.35090708073811383
0.35662935460493683
0.300570862920576
0.3326283671823459
0.36697679233822245
0.3445011684073493
0.3053855147594297
0.29307536929536704
0.10457729665468085
0.13440804111422683
0.18729208875695968
0.14712382959990916
0.24009959996201902
0.1467444994400219
0.19858899352836307
0.11861595832079186
0.03188040400199864
0.06531023988838108
0.04982233754526938
0.0300517180906275
0.1693304418992008
0.14386892070776428
0.15350442939060727
0.14333856464928926
0.10640687082237976
0.03336131987836431
0.021543226089992103
0.011332663902651124
0.014161114060596502
0.014321388522247045
0.01605956004731047
0.026022608221086905
0.04089666887277476
0.03322979842245344
0.041837514790274026
0.0457012138044564
0.041438200709391367
0.04320035209991769
0.04608964735797941
0.017399617820429623
0.03168335381232096
0.01362741818070114
0.2630567550067388
0.015165705746927268
0.06988452444409299
0.011425880098403007
0.017482063397275562
0.010045496422923836
0.29388276197556557
0.06493298618919349
0.08420923968872575
0.06716218297404786
0.08258110770520848
0.05679906504672882
0.33593203155482265
0.0932290987780248
0.07713926254825886
0.1562508269623452
0.3370089038787503
0.1408643296675771
0.06973604959053782
0.09784512583330066
0.09263129758298641
0.5251269504200589
0.4824005821465257
0.5070578683554905
0.5083939475993804
0.21262063544581142
0.32611609017442855
0.03131385328855461
0.07454422517083524
0.04771219336251295
0.07648290680937564
0.1622856171580806
0.06876412722100017
0.07824846408981156
0.09355885062817085
0.0743974082561402
0.023703444096349422
0.04526094231364811
0.025883477128682393
0.04380903078485564
0.01827739246473434
0.01590741206169359
0.03399048722232582
0.026655636640880172
0.02777324841964063
0.025495133444422877
0.02785798046390365
0.027678778368499527
0.028708395319421934
0.027995523984935263
0.157015253058538
0.15897381232436916
0.1329569755355821
0.16166045599221307
0.13095852695206125
0.24959031232792872
0.1304221316118386
0.09239699844501402
0.043211574071675626
0.05616271673442128
0.08245696712918704
0.04533399978649978
0.06846498957783391
0.05911163915617724
0.057386129306811376
0.061990050057821704
0.2670656623543186
0.2875705297909439
0.10702720297226243
0.2625015156728092
0.0611300515722954
0.16498724921534832
0.04864617810593208
0.21820488914782918
0.38949136628301523
0.04119959129145702
0.14856388697567616
0.18831058213396604
0.04688825347372737
0.15339229569249382
0.15334859733934417
0.03967824630397947
0.021666791117351602
0.07492857010423562
0.060584241652622765
0.08117704709351531
0.12773137557501607
0.12300001312342461
0.12809078722111145
0.19173448492559983
0.027867639990193246
0.15512474032722398
0.14328347947728762
0.04302458388504684
0.03588940528030992
0.027566509472758613
0.14514036915804407
0.13663358676187295
0.15674359932990117
0.13910677341481045
0.11460761986549389
0.06605865843131896
0.0605546831364379
0.07602425948365088
0.02858222289081144
0.02147037406867702
0.030690764930728722
0.023780149773545655
0.0716585891138904
0.06714493244433499
0.03955404273196698
0.2083097689660183
0.14070830358112665
0.125609609741087
0.14739924110936364
0.18816746869821177
0.18355047875012132
0.15946209943937503
0.11407987539802887
0.024239895914324978
0.050550214191593244
0.033508406753261236
0.06422620088713786
0.28212643809820787
0.273652873375948
0.24282511854168617
0.14020271460684525
0.22488173796701028
0.19013711496125327
0.0815560209013602
0.2547378717866584
0.30628286483159517
0.11496832071939865
0.18003551094434256
0.13390524777451948
0.13170238785001248
0.18171689268708885
0.151978086949999
0.1560862787189228
0.18191626462414465
0.13577449744247702
0.2781885909059269
0.27929460782966326
0.28469280110919776
0.2929890171061444
0.16085479793040025
0.02096852415937966
0.04505574686886443
0.03353450249223181
0.07066207259576934
0.05963129793342034
0.06337713341176616
0.15331852886508535
0.17450566293944736
0.13875872162018488
0.10904562834450407
0.18043108353451126
0.139443226318371
0.19152688995500902
0.20179681351236808
0.18952114353304103
0.03789320552336077
0.041854449961925805
0.06524875691799308
0.04681728277551386
0.13764230229696114
0.04457222245286644
0.06843284339853298
0.05358053035401009
0.06603620093289846
0.04361985592432839
0.040080596669237904
0.07604228352550924
0.038048265447675554
0.040311086163729984
0.04775075319239482
0.07470747734623587
0.03190890011379105
0.05077120932943574
0.048849101498716366
0.0666322362037404
0.2245233156074643
0.08436487801692073
0.050136996259031126
0.08149746440988809
0.3051193399657523
0.15642257096241424
0.08817333234090005
0.16439633433674145
0.14877648941761165
0.15945627833083906
0.1767804604101591
0.22129715260456376
0.06720692163015342
0.04834833907642908
0.1607960479508776
0.07636264548924332
0.03216202651119395
0.034242758438227154
0.04016158764522077
0.10923268393284882
0.11424325088335756
0.10348909897837415
0.16702425082961755
0.1437331044297735
0.026734137892659424
0.021213041276025326
0.056521754019049734
0.04525133072423954
0.05835255550649466
0.027859898287119256
0.018189664465990622
0.01839693183404541
0.17414449016840233
0.33199040013990955
0.07631996458691827
0.06885775493609518
0.12139352196491836
0.14850736087488273
0.09364785351663393
0.011436783829267123
0.03513369121813323
0.028676234761323416
0.027587798129808022
0.034890184968657506
0.03197252991471005
0.06713737335796079
0.08318683597844649
0.06581130744573131
0.07258934476295267
0.055198160772713646
0.05593461780620413
0.07295942214094121
0.14927437318952483
0.2926756122158455
0.19383608439154587
0.12265895737677349
0.22992121822133152
0.0749274961068432
0.09408160989863099
0.09085804952123866
0.14125863565115027
0.04979629874164101
0.08382283976109493
0.07026649412448954
0.07676886772278368
0.08774758569877816
0.15442393137036722
0.09252024329229948
0.14590520663455733
0.17069814525167876
0.11839598722194795
0.102527573446043
0.02142699411105337
0.08466196300540285
0.054326891179728755
0.025879892920116734
0.1661688439257489
0.06036607681159423
0.051635106320355346
0.06500450078543552
0.030059260643491483
0.2752179119180664
0.029233273546349192
0.029512620564842003
0.06212707741564136
0.08600942569399427
0.1097715128200782
0.1055596473851429
0.11886125373094575
0.13564924372689738
0.12320254009665688
0.08638203148079629
0.31441193394420586
0.20959491034526714
0.2101977833332975
0.32545388154487476
0.27186453222055906
0.10843136049428882
0.0766358260795175
0.04123096538282864
0.035438304700042306
0.1065602644386518
0.08263505977837461
0.03890512833797413
0.1058438270152473
0.3341764556073785
0.40444241110924173
0.3854085516124394
0.24898414131890076
0.06515736706501071
0.042899841026513535
0.020788760214289468
0.06625799318698418
0.051071688284358874
0.06976155679281563
0.13686345187276272
0.1500193402298295
0.15477490464164437
0.036717231732479975
0.027392509631999976
0.027921801353481022
0.029249077733285698
0.0723159259966558
0.05385626899723817
0.1536158311717321
0.06827629818397404
0.06342446274931782
0.10637989379094305
0.04431940267428977
0.051352043606348804
0.058004197279271766
0.05955713580366572
0.08262455309736712
0.04444536917879964
0.032135446244651825
0.05141228170145881
0.07719446411587885
0.056043458262426515
0.05224977689182501
0.09928704980404782
0.256589871517183
0.1389390765698046
0.16710733280880954
0.19739613209928966
0.11126182089728234
0.11867307696487374
0.06005243654807088
0.012449277067193166
0.022734264753010405
0.01872948490748262
0.03245215222829828
0.021148809677688674
0.08007902005879645
0.07127985359630282
0.07289647290112526
0.18117696258153723
0.06438478978260809
0.1462876522474839
0.13234503787776628
0.1566001063885169
0.16564253456894934
0.14052567123061066
0.11512276532618382
0.1338639727791713
0.09434122960741417
0.1472758770611726
0.17824230759978524
0.09896739300780377
0.08213699131831557
0.1587339719972709
0.18385674956876738
0.06299614145381839
0.06670825059558376
0.051845153594835804
0.04462100421582353
0.07719243248057947
0.05776823528003158
0.09812780815024509
0.08679427806669665
0.10577489720878518
0.05764807461231254
0.07000004259259962
0.06441066519157158
0.0619983898882158
0.07018229715769377
0.07160635034691161
0.07338896486597274
0.0740066769822518
0.1764408717651746
0.2585931787570391
0.18752843563186808
0.02657028835997846
0.19470482808745787
0.013478070967793531
0.2865186080204093
0.016974653209729358
0.03191079183580929
0.017957588505553176
0.24948554621118676
0.3211515767300737
0.29718883732925194
0.2025898163939852
0.1308328260112078
0.21178134158120285
0.15617831096943918
0.3265480486004908
0.3411404142503543
0.24939867082427986
0.07546345543705014
0.19048173829831622
0.32470034369986617
0.12338398935495244
0.09169947800819059
0.04241730401082111
0.18392675882171794
0.032398526337901516
0.04441923945450983
0.06387039813473455
0.031178187845145082
0.09626497302587855
0.08160466855706261
0.10096056537805387
0.09523280339651771
0.11244240055710293
0.12412156665523304
0.3246705401005486
0.37722517065502686
0.2834132586776546
0.1359595419243681
0.31674908592048034
0.3237146479694457
0.37839906499688997
0.1158474557553919
0.2563735099561046
0.09419399337068322
0.1281138560244986
0.15053065245649244
0.14573594676557686
0.15737743657802722
0.21320532353111893
0.13226708082000319
0.32621233864133947
0.06167612407443813
0.1586064767943657
0.24980707301804597
0.2502763557388126
0.2039318430934758
0.2972624738002699
0.3126213341091963
0.26954401778089376
0.22723740590742508
0.04536812917326998
0.23677265012098872
0.013864373532334474
0.028664114187974016
0.4424734341618481
0.05754669846339468
0.07498464897195031
0.048554059205152204
0.02804083033474202
0.01705390466252292
0.2547390493602485
0.25338913863138907
0.12576516017685566
0.23648837358474845
0.20992045333267564
0.24912906224263462
0.09618362411261794
0.08169388179651917
0.1434015399512397
0.22122925913534275
0.19974081761788298
0.06980482867187783
0.047548920756676855
0.06819519464150928
0.042960290792482494
0.10637780190959281
0.044275317657526125
0.1417775708948356
0.06068513674147194
0.054768264573561654
0.051349894816902907
0.1039417092205422
0.10279561166451658
0.05946953916972233
0.03821620649758559
0.3230850824036433
0.32656616308819186
0.23147553264801268
0.16120310918665717
0.1620309223760483
0.28916218014177847
0.02215234693682059
0.013502740619345387
0.013533135455955886
0.02454179583252216
0.023820572317418128
0.017755442662409276
0.15164677197589524
0.1990952811485111
0.20997895555254506
0.1632908839566412
0.2159782503713127
0.1669293194454162
0.23398189057290833
0.17282797310332093
0.14073405406715925
0.1411895415177684
0.19799477785307165
0.14765065460024643
0.1902374637554608
0.22055759769620475
0.19149093602050393
0.14564507523662
0.09630205529453646
0.26908217664515555
0.10568001536006953
0.13331830089144556
0.16366074476650128
0.18551604997601442
0.20930532255691037
0.12374100896315789
0.11605907024679527
0.09440868166791017
0.0851497345353955
0.0852361849675698
0.08514592428262197
0.09592935079047613
0.045902798657163735
0.028436824325780336
0.03095178892116098
0.042905206501781236
0.038762089654756866
0.04305112572171082
0.04309175719080245
0.08961704461991846
0.04748588774072328
0.0332666235298168
0.033127186286323246
0.029416149000322654
0.042406417892331516
0.04255098930332559
0.04999099420856258
0.050491780095228804
0.12468944824360413
0.15034699614360023
0.07779806812804076
0.12829911594740642
0.19083011912121456
0.16430494468944223
0.16746802546065123
0.19163084465497363
0.20130967746899622
0.17008472979907693
0.2615612002146087
0.24827611306660421
0.2816044591328325
0.19698229003206538
0.11366156132827239
0.15860851495007194
0.1421013696070709
0.20615493711679758
0.13515609733605694
0.12921608212129987
0.09166024071358614
0.048206320747984956
0.19048009192542628
0.08919501826904448
0.08811748224390469
0.08883499272692919
0.1063964459899702
0.06331520850031316
0.1090548853232009
0.21648138512635393
0.07493269624551464
0.17970498708439894
0.2204206026633039
0.11537777941051311
0.15408331336587727
0.059310739823083186
0.2583671183724609
0.29592532625823065
0.24488965229016876
0.21022197334113127
0.20072369339404808
0.17297987216762092
0.21107396660458816
0.2029745624676438
0.24443915502612681
0.15184331425426686
0.2860957046756133
0.2954876867707203
0.2772406868600761
0.1060400862980367
0.05591225641375419
0.09954620432631472
0.0861084529759379
0.16831152844506667
0.1852716808634968
0.1693985657399848
0.2306814337746497
0.12372706327148454
0.1576746487907582
0.37326813585670726
0.31009493524503445
0.09130757820363218
0.1808207702226274
0.256725185374253
0.06189658910957997
0.028561287423673174
0.06380440280782304
0.037973509472342785
0.0664814578538074
0.12867421634635096
0.1384637701474847
0.1532941166608333
0.15001524133395883
0.153553264280595
0.14931843321928498
0.16912250557811384
0.16299409710625387
0.05941985851211997
0.08174681846793963
0.23217781218688155
0.10783135566184196
0.21963135824153973
0.2604598573788404
0.09392613425682336
0.22530611519119656
0.11867234759552972
0.17567830661648812
0.07204789022850962
0.07321416482507268
0.05260275066012374
0.026688658927942893
0.040163184123647784
0.04352470973511348
0.03315851396640961
0.018845485399725238
0.12114813714458125
0.19254948035886388
0.2406171668008512
0.19041900889658317
0.19073392818902177
0.2284538443197928
0.18207158954150776
0.19584854539830204
0.25239608234489247
0.22268479665792154
0.22611784720988976
0.1726948490017719
0.2002563960745529
0.1952008666762793
0.20696387207378586
0.18137527994411048
0.2336322622080008
0.12222587868484713
0.06557682976748289
0.051356890604494894
0.014940494831655441
0.029326902990973756
0.02794204887705423
0.03956303560171272
0.050028876451163995
0.04608319696245084
0.05646211930260635
0.05575189061145641
0.07981999032753156
0.14007476586101264
0.13990677731753415
0.09226118747640089
0.06987285344583194
0.15529038884355978
0.2985622387603405
0.1274534139823335
0.07009055990670796
0.05233803417771403
0.10720732517905338
0.07924668908950698
0.10382024033712237
0.20327188540884383
0.17837030209770682
0.12472848198152306
0.1051195135032169
0.06457373796098753
0.08817952369760235
0.0363198953535863
0.04657961339505055
0.08540718759270949
0.022925592068149186
0.047560361584890395
0.08691102675632727
0.0196088777234611
0.1169374920636018
0.264005462997803
0.2478291254109104
0.4448638110212379
0.3612228323689413
0.2776360017728391
0.23688172206044222
0.3130278197147104
0.2695323640850348
0.2164195366496062
0.2241326337456718
0.15575772077488287
0.19781995906761868
0.1612944002540886
0.2611379469612491
0.060688126288927835
0.2927479822531917
0.1630259325725259
0.3959724212291296
0.37975706150570576
0.06339654592055674
0.07102203146472877
0.0769925909303281
0.1163832414671673
0.15271660208145196
0.044334671127402775
0.13887121946752917
0.08445005098540571
0.05532329014064081
0.10619887736350424
0.06032681822330604
0.12311824081421509
0.19478979238277214
0.19953312255926925
0.2784479614267637
0.11395725859177823
0.06765430613453907
0.13387764187759926
0.06819230996400122
0.11115781649424525
0.08438509162770866
0.10364060925339702
0.0698269424350409
0.021527303829775152
0.03245310390962327
0.018015771969519683
0.022410878511905746
0.022703616414564642
0.032306316620946685
0.18387807256031333
0.18205532252621487
0.27868908943426385
0.13188217008396116
0.1595337720354018
0.29839566826028957
0.07041313619173382
0.028050042117731877
0.039266706196338805
0.17330132619894717
0.024986499166477275
0.1346348256809476
0.05646756384002038
0.14109710711708465
0.2006204229508203
0.1361956633651069
0.25597989582959246
0.0923363606714526
0.07922593574288589
0.3616207574955262
0.356960514529636
0.10452718067331236
0.2311399656925415
0.26612101571309144
0.04544190127726006
0.10539271181162652
0.05289983487969618
0.050993772196237075
0.18935915555360802
0.05426303505491022
0.049552552876112016
0.04964741976933293
0.028215659055011926
0.036765927005499445
0.21368314684140158
0.3114316967455319
0.23605025338189783
0.14566205912703584
0.03951949865036368
0.045140051197179905
0.02346331141776138
0.1098840857760483
0.30255035545511183
0.28652314753427943
0.29296001231477603
0.22361867288967377
0.2523479873433282
0.23014154544676607
0.3569712643829168
0.32791288814396036
0.20885825048063802
0.391357684540491
0.4229106023295984
0.3908271833343104
0.12150643824374556
0.17543418398611815
0.06002972198808604
0.11519922041774604
0.21517897467199237
0.16306361627129667
0.39002533670468836
0.26382255652137093
0.20725656981779672
0.2747668438786377
0.2423984798664625
0.10646922385788697
0.1283849037988829
0.08742234358673748
0.08413110916958443
0.11099832446262271
0.11098943819128969
0.035773000714993244
0.027616411325204124
0.048393191319114466
0.192775154469902
0.15889001940784342
0.1655936645121948
0.1548882482469232
0.11054102683517315
0.07838153589409834
0.006541559581327808
0.007977656515698572
0.0064810062650233514
0.0104492317536742
0.06878434204915997
0.09453668484682301
0.09922691465282976
0.07478446194439864
0.1878756169616513
0.20311880830662257
0.18788701599582378
0.2129216240449893
0.2425782529803988
0.17994232762108447
0.11427911075035425
0.13203446760231752
0.1213951651504679
0.2014325546946911
0.21346920549894824
0.17066494802598606
0.2254125477667016
0.17297027542004695
0.1693668552017713
0.17874522239092164
0.15936809606806757
0.19639132458439554
0.11553213812416113
0.055220299549948317
0.040784045465711946
0.2151705500932945
0.14857455992661284
0.11971795615386464
0.07007951253274051
0.15051785181272323
0.2372726805428955
0.15006415534367692
0.24824725136286765
0.26429603468129176
0.09583881380350445
0.20748944881307416
0.22956247340831754
0.11086687006209253
0.18315819316192797
0.1033819027828397
0.05961751892201176
0.05528892354851786
0.07105714125033202
0.07229305857426548
0.18743113433573322
0.18788977865429746
0.13707255257397385
0.27374878831383403
0.2511009814776203
0.09140998519038884
0.25967154483900656
0.2444946848760233
0.2591601127225405
0.08836166906357805
0.09288199438857501
0.041731815334406085
0.09898162847628113
0.14074041053620232
0.0752174521104456
0.08882232013141776
0.1829536541732943
0.15773425932021368
0.11381805495847737
0.19364457095385496
0.17276054492949763
0.1725397209036593
0.05106761913239062
0.2238857880251152
0.10107329980276895
0.17783424012747048
0.15393055073243564
0.07497101577876335
0.28382642950359666
0.49212707444385967
0.3195316541212198
0.27265157978295834
0.12680320416261093
0.30586790797999586
0.15255203644988394
0.10794540070649375
0.10333152540529307
0.08807792696726406
0.15700185048150372
0.11498933448070241
0.15865489023771065
0.09737491391200631
0.25477932261042735
0.06066539912051973
0.04384489851802794
0.05337107363561297
0.04051772724757385
0.0941093880538972
0.13110383166210973
0.07928913795146794
0.058563013776736776
0.08631025353128688
0.10348433731087833
0.07174145049918682
0.12292064224917085
0.2476268325535741
0.02300313984549705
0.2578017637853587
0.12543134646973936
0.1265536774075231
0.011832335783360334
0.011477703118040406
0.013506824161862333
0.012471390677660704
0.0753176025041021
0.0776680956704949
0.06378713101118327
0.0857257945726209
0.08209436320393887
0.035565022010276996
0.029753038077067313
0.03673588402899688
0.06246862229945235
0.2690572976556219
0.0805046970531631
0.10153815977826852
0.0714077997043804
0.09517321017379683
0.07129094028273476
0.08086811921210471
0.32007489675329315
0.2744559553994065
0.24043692438790837
0.06034669763774105
0.28698127834320075
0.28935357830308417
0.24639139392125123
0.2118617696879146
0.2540995086881197
0.25159948932619586
0.05673056027188171
0.039106050762675294
0.03146581485939872
0.07823397075080651
0.058043942905732344
0.17573135462097506
0.1887855924086883
0.1980373680055336
0.17417217231285106
0.20510543804012354
0.2976761871224585
0.291556128747576
0.3092758312823964
0.11798221931744175
0.13817329779526213
0.25602506630847266
0.25311861715245537
0.1284841178107839
0.18722218574813096
0.16380778038645902
0.18569087635925938
0.22315316482587844
0.23360595386264443
0.1290739512307562
0.13829928034790148
0.13855746412296455
0.3532844620777815
0.2627377541338798
0.040639562210463116
0.34798070536620584
0.24356997287718937
0.2712115544747371
0.1810496700509863
0.31467014627149237
0.08000892463566756
0.10021860059096879
0.059410645422781835
0.12009452129007181
0.11455365132341615
0.10649749646137005
0.1297467457438579
0.08351852410095668
0.02581686297745477
0.02999208286631585
0.3435799073275623
0.23792776009575958
0.20082901134660422
0.04512969619098293
0.096985858195067
0.14553600452079654
0.24044977049744667
0.23290014816328988
0.2051192448657487
0.13389863086825607
0.27298278451528624
0.2672374979982786
0.057481261297233015
0.02392619094906201
0.03147027357634406
0.07121308008907493
0.0476974791936778
0.10747635219121164
0.5457336518787955
0.574755730809323
0.4734570546445176
0.5391914466247872
0.038574078544732875
0.06103708228770895
0.08226246925026713
0.09171117684259097
0.036178191304474284
0.051333398164532286
0.09426302226224745
0.03381547252062597
0.06500642357823598
0.04729960555599509
0.036447757427580885
0.1589517296730571
0.15182486227400174
0.1501004414052532
0.11280931923366606
0.07614743475471608
0.23880587201382575
0.2814231200870948
0.18137503376419636
0.05935812038667069
0.3212783426735904
0.2583638872737631
0.2713495520755996
0.23395351800058678
0.31827537126974803
0.07095645821086635
0.13275879772727595
0.06684009537386859
0.0814259472403309
0.024814718173665477
0.04482610032061285
0.021240115847477994
0.02967654606714571
0.017502322771950688
0.02449216876033846
0.034081691987343496
0.12362121670802241
0.20115674846673925
0.14228458698858698
0.12881156341929337
0.20221148706680545
0.3699034898526173
0.17206682385409797
0.15198708306804923
0.2305880488676279
0.4322239988668866
0.22073544619827834
0.17859332342318382
0.15806588328900556
0.15094262424179541
0.04882105174079047
0.22196537401366057
0.040953707020351164
0.04123732207182949
0.1918576325846853
0.19781181962701724
0.22536246715480568
0.17598915880393526
0.18513007579094598
0.18542617173440795
0.11383943721448253
0.3456765658265101
0.009364944407397862
0.02918733008262048
0.022916192542692858
0.04025398125471871
0.03404401357017786
0.2106494238973461
0.21924815120272997
0.14010503692981635
0.22995044317735117
0.17489669830895768
0.05975888716072093
0.10839616113934304
0.08171928514316813
0.11670664490264229
0.05922174324520772
0.1769809590165103
0.031950058286307904
0.09150316731254066
0.008151539065319943
0.009870012466341945
0.04694390390719007
0.14109982442148988
0.16829724246816807
0.13334893633586392
0.18930737817357454
0.10425252994020041
0.12768888405934875
0.1960830834216633
0.22468735844720591
0.027276287985441225
0.01643931543301806
0.058445554327460195
0.018275962847036108
0.02015754257630338
0.06375230591780151
0.22368652399657954
0.15745063119528466
0.2267057393880928
0.18550887843793828
0.3414721987625183
0.14955221814196992
0.015778814414722096
0.1665067208442645
0.20485029245087646
0.17402557164375598
0.18377127617917263
0.2709106542350045
0.1264495516122723
0.17264640842610665
0.053225840961774136
0.12002240922505983
0.12645967927351656
0.15274924075721846
0.11046100689597484
0.13344994137401836
0.008755165977466752
0.009484321926495235
0.0076905960642274125
0.020418515752541257
0.020415799110286677
0.010866160447580955
0.009784006048313303
0.017872791077745066
0.03903098642711709
0.027484790045806517
0.012889962458900905
0.07115181408786032
0.050295016590724786
0.06176109590809885
0.1482648656714241
0.06278059201296757
0.17714865220446901
0.030124221961489093
0.038601469657259496
0.043962387620364654
0.03133525249961648
0.016327994253774767
0.026928644394319454
0.042306624431774846
0.020181948930017315
0.025238814473337038
0.2845066868716722
0.29387815196543904
0.29477707935002295
0.25493395024917376
0.12478186840650879
0.1250688178297774
0.1873339178395079
0.2984351748375443
0.21749306138011415
0.15169491104623894
0.16639342185696002
0.1672612526489697
0.21381929027151453
0.16960069656421017
0.20365756808592386
0.23737908433264998
0.1729654420140607
0.1964955457756079
0.20051814021443648
0.12556294247956476
0.106211843168913
0.17826084145988605
0.08140088042277663
0.1485491526707145
0.33175379353012996
0.3810104835662789
0.37172190318157755
0.2585017191728291
0.21074994951900047
0.21103061138920198
0.281536406859032
0.2204553948889222
0.17084948877723102
0.18748816746165223
0.20741537327263176
0.21474185417931654
0.20911323415383354
0.05564966404708861
0.06454721115167979
0.1521504524350449
0.059636454545614025
0.04029399736366833
0.08286548012498143
0.02671319173780636
0.09141196198097219
0.1305287449849985
0.15560829634264026
0.1565744587281709
0.1393066302307331
0.11654054968627764
0.07567792317713304
0.05920554488565089
0.06610407199298379
0.06380081046666988
0.04678385338682004
0.05668468780508239
0.40631730216591094
0.36682341889923087
0.31687968566142166
0.2701296224420047
0.32647687175061274
0.11723484021123369
0.12284304636949288
0.14066333299184666
0.22442526243478808
0.30553150616584945
0.14392149062190346
0.07647474746298082
0.22011547929269096
0.058774219542363115
0.19188502567063392
0.06896542538024994
0.18310113242722634
0.06604463584572741
0.037857461772314346
0.03514090335560631
0.03699511696585905
0.13857823972340672
0.11868228713866168
0.11846025972857317
0.098796646091582
0.1420392140247499
0.12134970101153415
0.024675861286064457
0.12045931118257139
0.27408913669023316
0.0844348683037312
0.05996609360108688
0.017977609712215407
0.07737752792420993
0.07238883121753456
0.07083004461169172
0.011396417500538894
0.019268642056313536
0.012601104922246364
0.012630509904414448
0.03023273103488107
0.05872019631279821
0.04488943758689049
0.04412094598725799
0.014466910061416711
0.02053767622680474
0.023071538813763004
0.27853642815876367
0.2591887232262612
0.019950608747090277
0.023799959591355963
0.05868897418839526
0.030907220617994533
0.019209915703762816
0.02757750275294044
0.03983444372997865
0.04327805572106465
0.07628049337203832
0.01379382470998312
0.023876751891330796
0.016128635506149288
0.018092765332621007
0.16161759687186958
0.06016198232993978
0.07115971871078365
0.202174414263623
0.09526269188402273
0.3203928568064829
0.3321599198990334
0.3173960502505777
0.313888125455711
0.2805182316915504
0.34920422119747657
0.3984610459471092
0.3323355281863763
0.24169862996093894
0.4530309388155149
0.3490400458142137
0.5157146445600084
0.4001401860418149
0.20580048684672922
0.17707911475815638
0.1064837363981838
0.15810557446369533
0.10303131558630527
0.14454427641250958
0.0897294521129739
0.11134008106382176
0.14179208330035156
0.14378840507526797
0.12928268643266178
0.045198971800792194
0.03458582702541314
0.030482348018654654
0.03326185450164036
0.32867463560250487
0.40194918040694994
0.11252976345873929
0.37716631408946705
0.2824693076247878
0.3639941880163004
0.20364138309497948
0.18118846069505573
0.15478056400909054
0.12720801100291051
0.14248755979570285
0.03360623221963253
0.025925439903257
0.02724736036033722
0.028472394418289002
0.032451384355821504
0.029965667635723538
0.0734274113871016
0.10075685312598799
0.053254421646905546
0.025728048283877432
0.1707065515043893
0.05117256817174759
0.15985922572444267
0.08765299901984215
0.07510832459475689
0.2348987418697254
0.1988708365396869
0.23370335355676597
0.1472973269322308
0.14074710450890465
0.06998668025088617
0.1095663322263321
0.06263146072517074
0.17743474252463698
0.2141822060935929
0.13269389087742609
0.14823957482059694
0.16011429389492418
0.2124080588467972
0.13722332042136046
0.13085923676244346
0.07962503202842572
0.1211451976225618
0.19166800179234417
0.22005335312401728
0.1948768218951173
0.2737483099552182
0.29177858003255047
0.19583723912557835
0.17079357979627277
0.06947029937665222
0.09507119058569598
0.16824510607124477
0.165900216677721
0.07428003246187599
0.09785978089258598
0.06669246514973239
0.061513634710912625
0.0909766132150603
0.08001648052472932
0.08966639054236206
0.1123604707152322
0.13158763425535508
0.10541650601798216
0.15366398192530745
0.1266469327746203
0.03950464071461208
0.026443621352451502
0.027495659055074496
0.04443773782019528
0.04213648470680201
0.5626150059277478
0.4820503484699392
0.5151707274653584
0.5470514501667243
0.12537245368350172
0.21138567606097966
0.22668565612756766
0.11576466174334127
0.1351406009220636
0.2935132721778603
0.37137111449843624
0.3055268798784457
0.32873607493306456
0.20454368716013113
0.22824568162317102
0.19442633109732468
0.1956349132610253
0.36763900834650665
0.284950845847571
0.15987794672447425
0.29384489916183565
0.10014301322868178
0.1046845860311943
0.1499541224200419
0.12370924036163049
0.17221229194028448
0.06742423927503169
0.07297598683140712
0.15892223431721914
0.1317192363556174
0.12937786744014879
0.14590783836441729
0.11370667684837849
0.13539217725594932
0.1253971393792889
0.14422005972368818
0.20668870320323354
0.1639067467255152
0.20745097702907636
0.04292351300659818
0.03820791157712253
0.0607312166008377
0.08581666800233825
0.1711277454448305
0.19676558812127184
0.13744132384077085
0.2768817200474578
0.13005967754571482
0.03954536285392241
0.05285257605617913
0.08668922070554738
0.05636800725982278
0.1761022379395043
0.18458199937209524
0.17763810509566066
0.18498101095021238
0.39120205311555395
0.39463373906399063
0.34836791132475114
0.3929947158590886
0.3437329973517986
0.394562182895344
0.35688453149707855
0.3282076876272411
0.11002043349798649
0.08181075710261422
0.1429038699316389
0.12251002030367546
0.17608518454761962
0.12990465451920133
0.11999610987140163
0.14355665525259453
0.08184033023287368
0.17130317910967874
0.0856089976832607
0.07771152760886194
0.27425027887850717
0.034570544390416486
0.18918054580719526
0.3117642992150966
0.05703013712379822
0.19924093707658821
0.08648944428533838
0.08309349129939898
0.0814950909757945
0.04483404337698292
0.2872119799206427
0.14901639056324875
0.2202493649071946
0.14627870764136433
0.21126574565816353
0.20073601690442644
0.36845629783328454
0.34994888931931184
0.311387196899236
0.3829637940244556
0.2458521390853109
0.3407141046081238
0.2436170972937057
0.31000883315461464
0.37032836412633763
0.4813353303832689
0.3638786591329024
0.3308237306212094
0.40215570238084897
0.4106128300262692
0.253525726443148
0.49257624906222336
0.3045532964436924
0.2328217125824228
0.24149827071886812
0.2189855586810706
0.04102044621743014
0.02330175101522691
0.029203311073852285
0.11680849988583283
0.16618399032482783
0.3431795020532785
0.15149406342892163
0.122650154137647
0.10988563982381178
0.1899024606703218
0.24712116592119662
0.17681880753561163
0.2253677773599875
0.16506232477255123
0.1792288816001085
0.14333554797015044
0.20102011446256599
0.03485409694876464
0.07787353958655985
0.0578674563580834
0.03912279908311683
0.1647041748826273
0.18775089576552226
0.14682423216414883
0.17094038002845416
0.20270348103888206
0.2417340010066102
0.3426507968364635
0.17053677651746804
0.42943425877794567
0.33289612005056685
0.3913957329955556
0.3908925202595717
0.2414525377377537
0.1295637343741324
0.3159487444148494
0.08507706165513727
0.12242904862048791
0.11914522329009936
0.09424273300393626
0.15653571442925207
0.1536077981647118
0.20280794889785592
0.07109362042909953
0.1237751420410614
0.27702618171056054
0.2505020891556139
0.28073875428909467
0.15918079255751197
0.3007833186371465
0.1806052120737054
0.187674023249219
0.16173344709959112
0.16259718985991511
0.186310034588022
0.16210347597348346
0.06481839617630153
0.07125811179609187
0.18768832873108
0.21629022591009683
0.11976016885098231
0.09984985253724227
0.049825318123854594
0.038398994080892285
0.05745822196690488
0.03394489531912983
0.04565017215661845
0.10540861241475712
0.14246417524510183
0.0956710159545273
0.029817061957525055
0.032877748136781494
0.0444388845453004
0.05199839112979445
0.03554063013913078
0.060455146990615036
0.04434530968247493
0.05407765983604938
0.08899011573578601
0.2461598909642874
0.2257508695242846
0.2559916545241566
0.06931590764939256
0.21655111626934126
0.29856278533436476
0.19935626805886902
0.09187785255058821
0.15401866153914973
0.11065039401760252
0.10053803734272551
0.14832213810342806
0.16520098244769657
0.14326712842837552
0.1303382781335703
0.13698895863496593
0.16140911330012964
0.16468725845401877
0.22212842936091334
0.21590198820075865
0.2129679722034634
0.25176404965174226
0.1873566537666477
0.034091374061215575
0.2736570132118712
0.1323373052274569
0.16134383995377338
0.06149404793434451
0.02824990715257485
0.09675766849199348
0.03673896752598909
0.14650046683218895
0.2626663390552242
0.04324625268626633
0.2011990515497652
0.06598262652473046
0.308730994117258
0.19441308247823888
0.1402560577095662
0.14158671375921186
0.21496647275937497
0.17410288447286443
0.1543543596022615
0.18498423317216672
0.1946643915475129
0.23384598691075487
0.16549924692208715
0.1361742585384967
0.11885732853861662
0.15510943823754272
0.03585641383031244
0.03612611822048878
0.04031264757883008
0.03638668827210723
0.15959047595796003
0.14674819243706339
0.19011086736411367
0.14943850604034553
0.017335772926959665
0.028055333915132184
0.02250563954511204
0.02228694792561328
0.22205619966771736
0.2988045113352885
0.18772364609995157
0.2322720577712504
0.2740672677114225
0.2739047291585837
0.20766417361205758
0.1501500993716746
0.13855919911094264
0.10714414271611694
0.11232911634394965
0.2240677619677548
0.012771102983604763
0.049182778060998286
0.015071658724713298
0.012267310723253082
0.00959018311266039
0.09114028873481746
0.07937702713323573
0.07627595824165523
0.13230510928796543
0.13812615712735204
0.1370181934527178
0.0967440205937112
0.04606441904030172
0.04313123903686643
0.04249804794820808
0.04528239693174424
0.019376717714894257
0.019593751767710246
0.016170655867789926
0.020825024206968343
0.02382963307433137
0.022802153653871546
0.12752711847490475
0.055300204785315124
0.026014372317891638
0.03397797181646559
0.05681734905818888
0.06483616955583597
0.16042647290531029
0.05027396217830672
0.018498463968981242
0.17719071499738992
0.0455561143604956
0.2808742581331625
0.14339923452326964
0.11252005902525164
0.1412756468745617
0.0972726903938444
0.11922830444344483
0.27010101064242475
0.266893606522354
0.3083174897651438
0.3274838517068444
0.2532359304131203
0.15676820979726477
0.2960508421092501
0.2615757664220062
0.30087897495873156
0.2768495648155638
0.41113621602510486
0.20781857963216185
0.15566780321733295
0.4290352334912807
0.10284451644812613
0.1586469448286733
0.4146813851319742
0.035090689036042975
0.0899710398798471
0.0271187754513244
0.055086121335788586
0.07956692222927655
0.13791978798890678
0.30898096875793474
0.06012215870883863
0.39894843279345615
0.056426241721670656
0.2767633969667841
0.1101567067849265
0.26155680259122716
0.24821455223007374
0.10405173555875698
0.2535356779595482
0.02587489384091217
0.018590793157787024
0.049298443924362306
0.07803340844825297
0.07965484626372707
0.06523025116003602
0.06382182289895952
0.22690664221437568
0.25633861323467066
0.16980109743097727
0.2585562231298309
0.14027185235657752
0.1126062811423755
0.17443648953389956
0.15876377840165165
0.2227432183601146
0.2039741331143776
0.21053856344778768
0.20812561205634506
0.19135456772081783
0.05584553068762769
0.038916741898213786
0.024856002887657762
0.08135151280643749
0.13750358745067717
0.1304918445384845
0.060182266241951665
0.07006372062484187
0.07826447242851554
0.11245584489346011
0.17462489649477778
0.15369821407670145
0.18251256060411097
0.14503776425112264
0.10796812585123562
0.1789771131611852
0.0884561934596751
0.1393993501823399
0.051711528931493854
0.05447636929679012
0.05935326817717911
0.06428690735795857
0.2677660187589471
0.055138126372028584
0.029800420332768276
0.13613392731385313
0.03095938377485676
0.21100883477314133
0.25990447607274414
0.13126824244637952
0.15933645990060002
0.19951383897051317
0.23176077774640544
0.21681532369123038
0.24346392954637824
0.16675866505436152
0.013732835549828196
0.038449888755219756
0.04893555384590822
0.02278633371732919
0.03700306913968179
0.020319641727356574
0.006710846550555548
0.062182692129272424
0.0718149282914173
0.07905452275652167
0.07269534062821476
0.05952847092464272
0.07180103735340601
0.050137405786067166
0.2524893884949221
0.2375596623344852
0.17523483024289702
0.21557200542676416
0.2009956355398467
0.1253665344296935
0.18364851090343112
0.11213564897193082
0.0788856380129047
0.26330762221837134
0.18210432635347543
0.3029398771819212
0.39773070613019573
0.2444137044656597
0.20503140818434837
0.17417181350194066
0.15399531821462625
0.13228115539280544
0.1572638416953319
0.21944749752839726
0.4101419221371178
0.4205871557500071
0.2159990268476546
0.20803371898621867
0.25389260161436894
0.21476669465006173
0.1979155655902061
0.26946334952976103
0.22159980766035667
0.21931123097807245
0.3031823894945603
0.1490979311777442
0.15448811702591334
0.20396233494725177
0.11707701319076182
0.09969659646807918
0.10302725622849873
0.17585641740558233
0.2155480905928673
0.21260345027392016
0.25405866977216934
0.11665968084894807
0.2840999249865543
0.11535917249730704
0.11494801379335923
0.08082973092648212
0.12582387974993078
0.08511497230329619
0.2523519226374793
0.37510345181689825
0.08188153472854313
0.349606494994196
0.052489511803321724
0.08988201384777955
0.07485066723267621
0.02607965732845337
0.21984894285856058
0.3337247321881977
0.30493444223263316
0.26651725464225007
0.08857798308010338
0.2550102937447926
0.12243247606948009
0.1282134257930637
0.10670577538873137
0.10726871712962278
0.06997250886635982
0.18516167586270724
0.029074223828073096
0.11659991507131479
0.04079121600025261
0.19015047975978216
0.09430383004581364
0.24104464656888666
0.10865124162343916
0.2917836777589433
0.210975564491853
0.24920728785676596
0.2026247034755386
0.18712876693669495
0.14161493465262315
0.16556114396001304
0.1199184379060591
0.07508058601803572
0.07930960940461003
0.23346066813096672
0.27041671046144944
0.08906662413486564
0.3389142028758426
0.04771466922499879
0.14154704477939034
0.23062765722449197
0.04793790076107615
0.13448028396371617
0.13534977567757697
0.07334227364870985
0.06585442315263815
0.22382608625518735
0.15343280859703842
0.2064423536583168
0.09611917087880088
0.1799274414799101
0.10891400384832362
0.042234999637395514
0.0824109648592165
0.11061031257434402
0.17712187304194962
0.07658171644364581
0.10622291274638004
0.21023101038013775
0.06045335023935373
0.12652907193606353
0.027031378876787922
0.04076590454573024
0.05434701964580346
0.03134335216098268
0.015134171112554516
0.05551022469660788
0.05103321291907386
0.04978208326629342
0.06423683944048919
0.26545443509619265
0.08803443348437047
0.07594370298702888
0.3785438354319062
0.3127276021927394
0.35897441817905495
0.09312277349900626
0.09462763202530677
0.05921763629128834
0.06609095846826803
0.2731829523286695
0.23646030606212604
0.21982986661273948
0.2502202763061873
0.2833228257747569
0.1537902558634078
0.15610028994034827
0.13932130342189927
0.1337838795280661
0.10122264944909411
0.09226666050333204
0.14273403072672652
0.123933993498937
0.11868743949853795
0.1268591803969721
0.11870209831878828
0.028405341554223536
0.03178748971766724
0.030407652274115668
0.3561493069354675
0.32162609974042755
0.3630324779811817
0.3314216299428599
0.1298508314877577
0.0752278095215964
0.1039054535623858
0.08739014116769717
0.10715422903153597
0.1410634282072317
0.09319577578585557
0.11381244034306909
0.11363381956423133
0.1610035390846578
0.11767984917566635
0.10499755571195815
0.07722389574077912
0.0910863663186973
0.09810139461402512
0.06309278057270223
0.09865943900847056
0.13864990720397896
0.07144299166186713
0.28186702336624037
0.24197848160033003
0.28153699382737946
0.2945286194465849
0.12992813870626257
0.09380252764421473
0.09252549625863019
0.10178593851928729
0.12529589862041576
0.09889381012316274
0.075562073162682
0.050998507468789145
0.24315528943689027
0.15702680818664805
0.1999144946671994
0.13049906077313797
0.10420988267873778
0.4200441891906232
0.11612717304911245
0.10588737991312663
0.072422692063768
0.05448545913165432
0.18491410102394795
0.21273841587541428
0.21587225411858893
0.1930792282027344
0.29375287197191136
0.20338285416537208
0.0705930378786261
0.04837165649937283
0.09751001244832178
0.053478515917974666
0.30567509486192196
0.04222764896195854
0.03221398755312467
0.08280052897918903
0.0379124998950787
0.10442840215812564
0.04745344683663574
0.1856384922513934
0.06588828702493518
0.11324392762459777
0.15821097377374624
0.086673163014348
0.04692271857351179
0.07732872244005767
0.19511404508441885
0.035499384418000705
0.19597100553527966
0.07102878914968874
0.34059450167912064
0.1615551171849188
0.2173465600043189
0.02952073795173432
0.19090009731959184
0.17401798015950024
0.18607999739739545
0.26888808986415413
0.19729456185634295
0.06008698415330627
0.06400202154228184
0.026389119913028503
0.23647022091220468
0.11198521920629831
0.04111359719184793
0.037644415234506914
0.05882739853882583
0.055398450205709035
0.07588038065511798
0.07414839213633229
0.06359751581212024
0.13886724926732286
0.15604755074919666
0.09444606824815951
0.10787442021946456
0.16932141140073417
0.06901976629531824
0.16123768700781074
0.1472021274245631
0.02663242193157634
0.06027111244175644
0.17696407581672952
0.033075503166416706
0.09398944045418844
0.162936981648443
0.20490897603321082
0.14281587003243792
0.040009760515529985
0.0749422356487992
0.0441553566974578
0.1783514538901742
0.15028694805664675
0.025755106765584644
0.08944265627888286
0.28172370432746097
0.1721957781860547
0.07979806489902372
0.16276173033347824
0.1818232388916055
0.017863924004482334
0.00785311558798882
0.008819728437791215
0.16470857141282672
0.11251066852822253
0.13323641054736
0.056127176406222445
0.13984920412713125
0.08920201649574429
0.15344006769725835
0.07994778098113633
0.2031243040056256
0.29093323759757683
0.11957154554598896
0.03364091748233365
0.05479804637368206
0.028964757667496028
0.0982125143471422
0.07079348664981307
0.2544575076776606
0.07562965394736462
0.05580378419839911
0.03663617690732878
0.11228136506280555
0.03213465118905023
0.10366161426783732
0.3048273615507553
0.0716049908733215
0.32726605608561227
0.15223323697317273
0.08167918081177637
0.03897153965204802
0.025498350597665913
0.021522048006244392
0.034508415400539096
0.035010612803371886
0.04378844489486753
0.18371208182883964
0.14421319222702414
0.07757647182147576
0.1054724024066903
0.1347163097201165
0.1533978238401893
0.1316036613955986
0.2032726323249808
0.15976448964276832
0.12483906358636172
0.09839216908619162
0.06801088473216328
0.016633534033663723
0.05283394841254104
0.027950468258700487
0.07085259288107573
0.1821920142249173
0.06178381506201287
0.20171400922918772
0.2248814387160404
0.21467666884809197
0.20066488472800217
0.13390934975110652
0.142194349464924
0.17250983472782916
0.12848506997496198
0.11013847891701548
0.2832709307798732
0.19870965724180523
0.15525112020352513
0.21688201449238642
0.12220825988476393
0.07742202092861708
0.3271146934558939
0.143468106032159
0.09589292423794772
0.06790517131458619
0.12582719317854157
0.14405245749641352
0.17879086383099885
0.09176594612732383
0.042872249602175505
0.0386609949380693
0.11369067014235021
0.06475232684822338
0.08734899403406571
0.18860977992384723
0.12689958564480813
0.07424275733937274
0.15576847752514997
0.13499632640573422
0.055396050521655145
0.23549372758585924
0.20305944687633734
0.0769040817593218
0.10658679807414806
0.07292830460562655
0.16723671929072015
0.06617099430730844
0.0631488145656961
0.08957192792956449
0.0818411848806207
0.09475948732305028
0.10944762297723769
0.08220349237959926
0.11768301040324552
0.09868571374582989
0.12848022385020136
0.16077791428261698
0.15032140409550668
0.15111374715646775
0.21677784668622557
0.18280654045480724
0.14033290752563213
0.16453474313489494
0.03692563631898357
0.11048756140355974
0.06821239411027058
0.20510007722904025
0.14316440827391644
0.14342826917499774
0.2344358130213351
0.09947834000161569
0.1037690184377772
0.29873926239494036
0.32390944592217286
0.05887429286174618
0.09389169153389125
0.05893206843775688
0.1603538180658559
0.01911161329231089
0.18260009015735154
0.13953550885949853
0.04268596645869168
0.09099146911693858
0.24132127247345933
0.25930735350843537
0.03351001853283428
0.05896648360029084
0.12437309519054238
0.20330025057057127
0.13296086023096076
0.1560505569218323
0.2255244244149198
0.28413821906483866
0.06917372765309728
0.30893732298195326
0.0746489265236125
0.09420249448871353
0.13371139291041903
0.06192338406732831
0.07186240947433968
0.10435472886682706
0.19188141324671235
0.11195383203362733
0.1363416280675082
0.05572374894830213
0.3733843665503199
0.45552740839080036
0.3908954479121599
0.1457141039598189
0.07286520777774347
0.04088665566800994
0.07270657113602527
0.11933771871062585
0.14120580995078488
0.052524087222997805
0.041751093857306895
0.051076722918630024
0.27133490991807185
0.043653321319713376
0.19570699074849915
0.10482781135889871
0.14679002658557164
0.024871201608320532
0.03491490907962383
0.057995975305208405
0.03322167543645787
0.07456002677170856
0.17236907141022353
0.01974104141284266
0.08307962277679513
0.07944449455111126
0.11965701655305684
0.07084455423994765
0.12596157971151387
0.09460100646422107
0.09380101151638502
0.11504389525260919
0.07900677591176186
0.10178137764672208
0.11623550851354641
0.152673687271456
0.09170340739302028
0.10841649785010402
0.1856689135338896
0.13583824055628793
0.23594385937824353
0.13926717312275508
0.12121176257410014
0.1554082375938744
0.0545899188998046
0.033747482673808366
0.05529213618164914
0.03236860770750707
0.15030857600621414
0.06418593954056569
0.08941268915989517
0.06962288436588725
0.1228805257782319
0.08999162817511945
0.10657069803810498
0.06606987430662122
0.0333099700610739
0.025778817431665643
0.1726075778244124
0.09116499177454375
0.058506813890405185
0.07344941192122197
0.2428147235876643
0.2604962114052601
0.29906967414521857
0.18925690435595297
0.2733918880337109
0.13491718129658156
0.1789004770740462
0.3098982493246034
0.2830077584887946
0.35884999242778937
0.3131908460778942
0.09951676878835594
0.13201166143235596
0.17624411096405082
0.287340888723762
0.12605875441685077
0.15083975103867533
0.21976244116721172
0.1831108210535156
0.07880332678447065
0.16446141218830324
0.09924065200130634
0.134756313041344
0.22847422944351337
0.10423868977822034
0.14700567046458338
0.11632956528299239
0.08073583728029107
0.030886848860945997
0.08701168464495335
0.07094812796113983
0.24271489926608847
0.13855665831267916
0.1834959203790407
0.12510968497861635
0.20941398232004016
0.10232278477487253
0.1682613829800986
0.15938477441737606
0.18449477899625538
0.2777864637250606
0.11488783782398053
0.20580130168839222
0.1327759351725832
0.1253601978914352
0.4272938918789678
0.09696071114585594
0.026571435725829175
0.12078452377111001
0.23917099306686557
0.10274833379192176
0.03660881486724557
0.08552068756654843
0.07201500633455467
0.018736612413161817
0.044742075154423216
0.08986877042256448
0.3294272802206408
0.23577600254227862
0.17295164519814699
0.2140933840917728
0.09774025192722154
0.16335768063002565
0.15583973436781345
0.19999370497827643
0.15771599105693637
0.06900631220258446
0.17470645861013223
0.025149599730775015
0.06394709528956231
0.048960894249705074
0.17104078943741657
0.09801328998758088
0.1615718847612173
0.1778009411953639
0.14571618402028536
0.08797700827557191
0.11248961671322712
0.06895455138437953
0.1370981277963714
0.24571496253848216
0.20202839091716485
0.22477900986073895
0.300414700487359
0.2744426024512319
0.16730318987499532
0.21416325502685377
0.022259690975312694
0.01904749636313476
0.016487742131872957
0.04740040924210101
0.060873490699944334
0.04200066133664688
0.08508059304597598
0.04273595377549126
0.06340430691081958
0.055473607468981286
0.028999913338199606
0.05008266869536936
0.05665237048810914
0.14786736109795512
0.18463893754234315
0.22863050376497435
0.29710443108130147
0.25586071905750846
0.04779661815371563
0.0847553861961215
0.07562609137356681
0.1539423613433476
0.06758264961850231
0.0785772901304448
0.04676300703522546
0.1212890655495497
0.05262437426991387
0.2699535839114596
0.08076888600696813
0.10752924391341954
0.09741538424398785
0.17580308155543015
0.16089889929925816
0.12052206880892605
0.19679141777773035
0.18389346797729547
0.15492041969920686
0.06145465232534554
0.036257034727119525
0.16101568137676742
0.09608682282368201
0.09339380960441827
0.09015836656924162
0.07688585395369438
0.12551009557790793
0.13959481812982835
0.23244079576365345
0.1830031729809788
0.1442547277552922
0.17955247068969676
0.15222872059632292
0.05917639782622643
0.1695642255336003
0.13225474632349843
0.13767657574033773
0.0986486593198037
0.09726304038021999
0.2961210559338431
0.13642118944154166
0.027922376463822434
0.08179124518473666
0.09028968992785592
0.11837114331216442
0.20689560141878713
0.2579620179151193
0.09544984268380804
0.12550423832431987
0.10793874382620831
0.10444906165905957
0.03675119717239862
0.041754988688788804
0.06403430364882438
0.1792930212061631
0.2200995913779497
0.2714725159132406
0.16836924107828669
0.22957058165382754
0.2483887696646446
0.2094861243345411
0.16056078366206614
0.14507461768419813
0.19618555520897948
0.11513512737559503
0.09095503716932204
0.13154164605246127
0.22290678670695538
0.16873383057798266
0.12502995146367749
0.12331384303351345
0.08825606249996132
0.16150248474772366
0.1380219460183944
0.21585737308261874
0.2910467557312095
0.04621305266842749
0.2882510783139529
0.24242144632168533
0.08712146636660495
0.11070629937187408
0.08871395152024054
0.1486360577778438
0.06996258923181513
0.16092442998535514
0.19033017848693912
0.0965674121938776
0.3025252903114486
0.08455494301718225
0.1990265609121562
0.2139461630376624
0.18388172745092968
0.17597575877079216
0.13297805984267747
0.09933870660284415
0.14559822316569407
0.2598622405297666
0.25500952373562646
0.22676634547254013
0.11938828540166145
0.18145822827776056
0.16608768543083835
0.20751580838997685
0.2118137814694629
0.14291920187829946
0.13927578451457495
0.09018597650543168
0.20013668439093063
0.22364894527589524
0.2761508198098361
0.08927233742066931
0.056313712229296174
0.07411385788288663
0.2299945105957996
0.07532955100958906
0.06089938012248309
0.0811462417118184
0.05499108283638945
0.2567160788811886
0.11855621035201488
0.08813883603253247
0.1239205077487667
0.02701719439852367
0.04458688637874952
0.07647609213615851
0.0755400411429353
0.16012428889132135
0.11738218820997968
0.059012153738285805
0.11789583024842325
0.17989233929042742
0.24021552224778037
0.23082161703212617
0.14671421442344465
0.14553421567767666
0.2703288719114269
0.4996957252963847
0.5241405680846535
0.2021000132882256
0.11668122378141772
0.21170401040279996
0.22517565889517083
0.15088394101098296
0.1414261129524042
0.09937216423580149
0.13233285053793514
0.22842403416845153
0.32629678487626873
0.2754735935962836
0.24761711205182171
0.3204398729220004
0.08309960524631732
0.1560517563824013
0.14794184833535107
0.13515185355002673
0.13986314392426163
0.019021649374145102
0.03850866704140421
0.023145615101731704
0.026569915156825087
0.05145957468480265
0.03217487668727209
0.024922223550685976
0.023739030569195973
0.0808017587944344
0.030287406493059665
0.14569450274388684
0.016553761261478797
0.031181830176653935
0.04051191477354713
0.14656489622807783
0.10280434136651005
0.12624270096844356
0.16238669143165407
0.13075525406524516
0.03621367995468316
0.014055987382825957
0.045393398145299135
0.21360789041821138
0.04781036852785676
0.030382161272031746
0.05793937111699069
0.01857146433749235
0.042032209968751184
0.017248014386212155
0.14555175861947675
0.06121655254157979
0.07131862598477992
0.2107897062032891
0.10617763004523703
0.09284397826160883
0.13354195893331383
0.16895202657175487
0.09683601758029482
0.10629420308526323
0.1101643769769783
0.1179065842224521
0.08366077105428771
0.07512852547578405
0.08700851687128039
0.23364103468260203
0.24604863631337975
0.13703898995489086
0.17070862190180816
0.15255687771296997
0.08976547045205488
0.15048609465768018
0.06237114284961913
0.08270172655713555
0.23776346117931926
0.16705349609924383
0.10564411699066231
0.14842459590891946
0.09834469309926247
0.09796644189389092
0.34278876957764626
0.21421220088540557
0.3550095017622546
0.0745780141540821
0.065818099755387
0.046558834084789016
0.07111129761501671
0.02800388255156992
0.08129076196338642
0.09899963155945982
0.01860074669360397
0.22758186215522455
0.024726849137369795
0.06314891732603607
0.09315732550053232
0.11093705064402533
0.21748333550242896
0.1423674109822465
0.14707947448056014
0.14868596173053597
0.06114217037832078
0.21265449742049305
0.18814252212760585
0.2617335492336698
0.27544986294621004
0.2655113262981354
0.1607378163141548
0.2733308865750128
0.2130839980768959
0.059663512420795525
0.07232714381269703
0.05236839601590497
0.09301366255517796
0.0694406696055639
0.13976460626914214
0.05303097183300036
0.07901386837992845
0.11667801816651231
0.0585366784731754
0.050625024880276044
0.061394553249717314
0.09377398505780085
0.11348669928191527
0.11393169599501683
0.053273158295380874
0.2102780144052449
0.07275039097763096
0.11799542805114123
0.160112137501314
0.17420229079756308
0.16517980141484098
0.24370508099253968
0.26195895396727864
0.3503450122095252
0.05665233817211804
0.16938761550955833
0.062164084916777565
0.18261222452779308
0.15770071239085087
0.10815225936857066
0.20665999420096984
0.14209617094194188
0.09022347074151896
0.07965195740032467
0.027260370474320717
0.10044050808598079
0.1323111149775736
0.10599399296364728
0.14554668567331913
0.119569148077175
0.016656126652029268
0.10069285599484881
0.2391455325355353
0.10847084511966057
0.08752210409081239
0.09500636518530214
0.08804079085046419
0.10529899615662207
0.16779919021679826
0.24735141694351334
0.10292471148082145
0.37316076811334536
0.1646268156257633
0.13755570260772376
0.05922186690855114
0.08688562686251326
0.2783370617204137
0.29525872559487487
0.14286609303453665
0.1979456964139528
0.18464935231601806
0.204565202048297
0.2815150309217721
0.1464053009178068
0.11756791074922296
0.07632098794297369
0.08427000047832987
0.04240392436509159
0.13767047249721456
0.06414855975787714
0.05143066071889945
0.06978400325922003
0.14635506026147305
0.1294370404575166
0.08486596451004617
0.09278362368712224
0.06927540044467663
0.10146021895253998
0.07421611713598374
0.04602549809593831
0.10625503736033548
0.12068001875757957
0.10253137366800202
0.12824067075693663
0.09858035419194583
0.1264010742092798
0.12465888211119168
0.17746827373993002
0.21826696061618897
0.2830417190909072
0.2318145593396958
0.1629587076266408
0.11018871960669921
0.12085360435402659
0.16760553728637054
0.23184458908969
0.12890816295345045
0.1589822981317511
0.0612993338805172
0.18918691633895568
0.22204010569350252
0.28124051682336254
0.31724757943158527
0.22846360348833844
0.43158252589218604
0.3142502077568669
0.09488915945520901
0.35019660559890065
0.41668306993507154
0.13287408667258346
0.16957246444417337
0.31980069327188904
0.15909353564813322
0.1931421033658154
0.08080132827626077
0.1892748590395376
0.08085434052831153
0.07149879715963334
0.06972993764943354
0.06677475565847926
0.04127345164772926
0.08733050476292542
0.1513995369909894
0.14616495117682202
0.22848930447171314
0.06663639694139593
0.18378493725400394
0.27514958532970263
0.26290930193719314
0.2541721307252928
0.2359744325814034
0.23234044865420875
0.2791618914885401
0.24856750638348557
0.11403373346050649
0.04023589811328948
0.03540188646106993
0.04762864731766537
0.12162953625751781
0.09142206722656457
0.14373655085259573
0.15493182171345232
0.14378321510098138
0.20053351141038156
0.2106619348232455
0.12677492391631898
0.19177373570792056
0.0862018650900794
0.12601165517506474
0.0524951800828534
0.04170742972949137
0.1407717597566007
0.09915411570948149
0.047399337980714974
0.02537342016383361
0.19957407054293053
0.147116076049261
0.43201034090551244
0.37640851194759933
0.3620447114204934
0.3068062701151832
0.219307405139496
0.2818939368581127
0.26330661658415827
0.3877325833716708
0.32066030688237857
0.1438280696050459
0.33021310400676773
0.18925325698697237
0.07435562686564011
0.016872210483894038
0.03138639692400466
0.060648737366702614
0.09625864875243854
0.009024873573015051
0.013395370257873757
0.05801945092868258
0.16862645086345932
0.36850622840184544
0.05924753930650781
0.2819260785272973
0.1471840915195381
0.037367469702900974
0.1881488217687767
0.06391811913688973
0.08698113486585166
0.07486323759173036
0.1725782611242917
0.24741477888324923
0.06819691080367839
0.04234026928004693
0.14089620259300592
0.1129203700960283
0.19790142143833062
0.08144382134429995
0.03894917000308099
0.06137326778568944
0.0977066278317874
0.09745303533366893
0.042222849372598334
0.0768349438039208
0.10096064103184693
0.09526590457225305
0.055740679422029316
0.08798277638968148
0.09499887994283276
0.047382994254629836
0.07172647247340577
0.1003118654375613
0.12213873422212967
0.09023115543101311
0.09749600192057299
0.06419612268572449
0.09173124742382881
0.12861808776488903
0.05771663682635804
0.1217024148596025
0.1232495454904124
0.06831960949397405
0.03178850013303748
0.22464926433288807
0.1316319824101112
0.11815728867662685
0.13860035086076422
0.11125420153869525
0.07941869177776949
0.26064284154991807
0.2908122469082219
0.26550148412275315
0.27601549352350935
0.2504421522065992
0.3576967877072836
0.23747614677478154
0.0819727814361101
0.13395202512479895
0.22383502366733155
0.17350074442623042
0.034958593494675776
0.14056379925648438
0.1050245234314164
0.042948217671695016
0.12499719025538893
0.062294833611909586
0.11911654712496707
0.16529752717173848
0.14341272845028538
0.24460460171922888
0.1988267815136076
0.2315438731296024
0.14185667936968502
0.25122204934237113
0.1970043185459375
0.160883376984681
0.19581003803193145
0.2707318932007938
0.14857263720276695
0.12601116456488118
0.05495697178854288
0.05290332985890707
0.028554767983430325
0.25085369937163987
0.05232173947947287
0.029037320088514635
0.26302213155847076
0.07984447053336563
0.049635379699030514
0.13001127154223782
0.04854887742365986
0.21515277893525067
0.09477386546993362
0.2577984505761094
0.13458366505783181
0.033935675788596735
0.20924792648586998
0.16379730563245995
0.16770519116305338
0.07799748150012038
0.07440164278626615
0.06458587618474936
0.06225669041222488
0.0779573528464639
0.0925889170345313
0.08482011002864348
0.04576755589592738
0.04622996244991426
0.047023108996133496
0.15096506990474423
0.1469680170010973
0.08986554732275807
0.1822899986328191
0.07015255145608924
0.04818697673756067
0.10460283542370746
0.1528366897296943
0.11407029942895673
0.10287436448649197
0.09490052984531386
0.07706068831056401
0.06982048617091799
0.13187740228601558
0.1916470767487101
0.2160057628291421
0.034586442278088415
0.4309529969559811
0.2038639660067528
0.13785630723502695
0.06738014788541422
0.12654778749830137
0.24895276766878816
0.08229538110472615
0.22170325846136793
0.06541980753622374
0.09557232937443216
0.10006993044452225
0.07180826356866629
0.07164595108766919
0.12054995103989866
0.1935928205014814
0.2114377833812388
0.26050996370187224
0.17849841462006721
0.06157871793088559
0.19344783699936896
0.1455195974303741
0.3473590317227822
0.16448849475556135
0.30192137597420704
0.4145439469594396
0.3091724074060406
0.36885216219881845
0.07599612415827077
0.062167716094707726
0.22693030857584195
0.1779011574853585
0.11759814027480162
0.13890424126177295
0.11607346814734129
0.1067107330921836
0.110769020742259
0.11420331513291723
0.10109285426570361
0.076379821906989
0.07176974156403204
0.03617742527752668
0.2833312093177134
0.2096497549503282
0.08094878048555158
0.18925953284048022
0.1966659901460713
0.10899913969733842
0.13058086347400188
0.10136772284911579
0.10738215089528384
0.2598273472503007
0.050318398023469026
0.060867522827023714
0.09051343409927813
0.07119436011407757
0.09011779637013007
0.14032964587845007
0.11013010902969517
0.23036885955773567
0.1852279390725049
0.2209026261321113
0.12977471040451635
0.014396628098505011
0.08866620823453857
0.22703310382885283
0.45328371895396624
0.18947924305180408
0.36811560336691
0.21637718818777962
0.34176760079602453
0.3852460210152267
0.26643517513608694
0.23711718939564563
0.23483786578100416
0.35370582716392135
0.07816040042128317
0.12506071818282924
0.28719145278618524
0.2728685737592099
0.18465382906808356
0.052366302683105666
0.22995242510934163
0.09545052853038974
0.145485599510473
0.07903532474874056
0.021069829161215657
0.2071180120917159
0.07469001822566627
0.18755967747803273
0.03288145932441791
0.32155691038029605
0.1393793969198149
0.04605076550871695
0.03755621758839113
0.043172642394391336
0.16250683963623497
0.19300316998398018
0.2301290895645408
0.12283922482330872
0.22451152455417211
0.07353991249478897
0.17721017263744548
0.16240889407662526
0.0784251909028864
0.12524661807327586
0.15368742033234742
0.09486978004979645
0.10685921801359118
0.14127061065138755
0.17100878355124424
0.08218747952863889
0.09011179782229993
0.09475705570535568
0.343934470097234
0.03735071781575296
0.08756528219119523
0.08382369882342418
0.08323585361163899
0.08939333879524587
0.2902416290556237
0.15637850293848135
0.3734978529681985
0.2026018292525241
0.04644030563723221
0.07351149440226044
0.12335527413657105
0.09393100625133767
0.07909316212377913
0.12125185890486015
0.12401881479160484
0.22550903441881714
0.07155746019986232
0.05189772233973676
0.16314145067456745
0.10947671433413951
0.08307448690212119
0.13348778260999286
0.15132300950897623
0.13293870911795289
0.08237688445747945
0.351450085382323
0.2534389288168812
0.28102198210526863
0.2512016338205118
0.05448196404902499
0.3742113072880547
0.3235310063090569
0.25692279007281704
0.05826641501221667
0.0716380708183178
0.1963060574710424
0.18563468440364794
0.09793017239294668
0.08204848989718933
0.0457928268956784
0.09601770390269304
0.12461559928357657
0.08902079655928156
0.10571147078776517
0.11295879645392476
0.20974085500380776
0.040599671335762165
0.030748660418950375
0.20060556669891327
0.06477770576833566
0.28943906607810427
0.26685154511718023
0.23573410245991092
0.1485491849644297
0.3440294025580629
0.12459925513701697
0.062291074129984636
0.06510925692861709
0.0799905453968825
0.16749218242690656
0.09228981339217511
0.1185507500357538
0.31932104657534904
0.1626108028695546
0.07139163630653055
0.13217661342879397
0.15145770598454397
0.30685196035248147
0.36011894411836165
0.4490701395708108
0.27279084995839964
0.24673897423857094
0.046099748595898465
0.05061602180647417
0.03854389631153079
0.08120278234416872
0.07523120771260504
0.04839476540593329
0.06261159369794127
0.07246581879636338
0.12724513410219104
0.08909477854198153
0.047738924705643886
0.027898859443120178
0.06490958363686797
0.09456536810675566
0.09986421182610208
0.32860298156981754
0.20288581616850226
0.17620409488421968
0.16794202495117974
0.09068120442845894
0.19050783188027642
0.07302170192317894
0.14278102293339742
0.024277294336136936
0.034990286405321515
0.08900323869547896
0.14188067510697394
0.054236071466196974
0.05375982247722095
0.25005430936623396
0.0956378105097327
0.21661955581620804
0.21696800305407093
0.22398008975346523
0.25685895099138883
0.1561555323833152
0.12332863836524269
0.2405444840692032
0.18320200186310864
0.14252658764677675
0.10932212408158551
0.1652307874736391
0.10181160775052761
0.14328584099121866
0.2728855373429162
0.12411076569572538
0.05070896955227034
0.14595051596940917
0.13544024643631086
0.1297976975496569
0.12994533328554445
0.024030883097340628
0.2311393124021394
0.08871132260169043
0.06483244169856064
0.1875551919405782
0.13137491471580479
0.19853033837894246
0.14360593260801735
0.16854692424596338
0.09968973674768998
0.05675413026614768
0.1989807155912357
0.2783889828574531
0.04931016822867601
0.03786809163746601
0.22045936712618366
0.042533176833377616
0.10003137693598199
0.04248526588495081
0.040410205389837035
0.04806617754976529
0.06567030591989564
0.10564270834279553
0.1121504142571822
0.09841543558966526
0.12585418421376915
0.1119253627119785
0.17267608012751065
0.12256464929976102
0.07096068936762107
0.1694455719729146
0.23364073548872677
0.024876795714442217
0.07506266832178408
0.1854214565282674
0.09046110615356744
0.06285525617331973
0.03926989784787034
0.0517865730612709
0.04728922666424931
0.0690472941503773
0.06669048115940072
0.12072530070360907
0.029226685439128344
0.05349307676064252
0.10944746083338784
0.08053943784093211
0.15378861476349592
0.0871206951125378
0.16556283862477716
0.07344034889540949
0.1195491226228966
0.276804425972794
0.08409987685253113
0.15358779839674622
0.2984447759516374
0.31438027069245245
0.3205026622709828
0.07599816357126817
0.10455555040574008
0.0762743227361898
0.19868863249368499
0.14206814646119217
0.05891144686251568
0.08483887438255824
0.09262467894122743
0.07498779481553218
0.05634503082744703
0.07580799636379691
0.0758918274717025
0.2254673240590215
0.17761545094145223
0.08275806235534791
0.19201007825599445
0.1300119584460105
0.3832832437346372
0.31454491447195015
0.1634499143956927
0.19259496187882263
0.072996610838956
0.11050149845615707
0.028971697606583607
0.19086863461508669
0.06965809722089684
0.04321713574695009
0.04879914373041088
0.05170970261024859
0.04987197833635387
0.04983469227353967
0.05556946451650021
0.2736776551767446
0.15190217630070962
0.2112444271369984
0.1697089597408638
0.5122861347282784
0.5500368647104551
0.18901567506486494
0.24677690324981624
0.2815962995158959
0.12796814752977514
0.10836928080247131
0.10971085244259936
0.04858177200594766
0.06730082357038084
0.026583325674948612
0.07839273377934873
0.09462324563344245
0.17076926776160056
0.09849568711885104
0.23571538666252934
0.06162033798706947
0.3125013588556236
0.07539429452045424
0.12730150634595958
0.1476091570841729
0.05817775365700993
0.08528834833285721
0.25318211771744
0.06896764943164113
0.06674186255413127
0.12540884506219355
0.09385820639071722
0.0833668884333549
0.0852722522314164
0.11890811858016373
0.04685591092123512
0.09033358068522046
0.05363910854090216
0.1717610019721759
0.20339757983839385
0.22170205201379506
0.14206524939029216
0.03666141419956043
0.09530870265863405
0.12205442958155825
0.23263746578523242
0.18039498519482594
0.0931806415443228
0.05909076076340014
0.3621425912072165
0.09380032274849104
0.10226924297319963
0.21334699205949612
0.09093525215597822
0.12170383219516812
0.10382037620998731
0.16824150911138722
0.02977288692398055
0.07860019749146753
0.026253279989741203
0.04357853772428942
0.0414509625999889
0.11957484375629898
0.12455154973980097
0.20565103545575916
0.039934981950518124
0.09822878245704375
0.07090703410040214
0.15094400420621798
0.1464332350092732
0.24069418818242572
0.07341186987329887
0.1247858384662837
0.1552821373201384
0.2168848458024321
0.22275574241662918
0.24663173241154518
0.17332387471044255
0.27696444270641435
0.1470389434209905
0.3795470651843915
0.396474647859709
0.42080393517016257
0.3972044900886787
0.07178904558963804
0.2420614527880229
0.29117604564958355
0.334901983746709
0.4200544154252802
0.41606516334393795
0.3441991959525751
0.29014793093418256
0.11952994355773157
0.13244880556149968
0.027317046255930087
0.21482967253456298
0.3212617568994656
0.05706048929374546
0.39507854966029154
0.2444769941448608
0.05815878532345452
0.04186325520676612
0.1604275817761172
0.17197692076957558
0.08983651769548469
0.12160753947173228
0.12120744994542203
0.12211354590061267
0.09359816141844744
0.08557590441269133
0.05068771739184888
0.056662051699616675
0.028654236661446786
0.04759587951114456
0.09278138982783882
0.0766863047743318
0.09052012365568489
0.15077398250368204
0.040667244596240555
0.227638727681145
0.11367309938253119
0.2140389804826077
0.08581829376146398
0.12250877815235589
0.12672567601354373
0.13508670362204672
0.2247898418261899
0.2683936030710232
0.12733862204686164
0.21294797649464917
0.15217943918677976
0.18319793980881513
0.21567306816789514
0.22741130232023804
0.2540854900229752
0.28897362330704024
0.058807880113461115
0.061592767416651976
0.017669620822259553
0.048408235818501906
0.04665524934504239
0.125554050267459
0.12523351901036145
0.05932117004139908
0.09985831714371757
0.17658978423315655
0.20014145080774223
0.10164849171832414
0.1697291483039844
0.11734944036848742
0.07209968312074896
0.05050029476553968
0.07955681402665055
0.07743754272387204
0.23769300163838214
0.07995477791835927
0.08920665543958327
0.15944178300321724
0.21761312775344305
0.07258743039988894
0.19006641244458686
0.1453466011022695
0.06203782293184629
0.23170461093693412
0.11946848558060182
0.20802693058060767
0.20747829017039315
0.1528542450439576
0.15442757711939026
0.07679164002877623
0.27310663977288197
0.17224704850691136
0.1292837637528213
0.20099122299248218
0.219036330864032
0.15421512193135473
0.1737048088641503
0.1346184384285231
0.14180682355048357
0.046193670538820834
0.07027293230226277
0.05832166233573017
0.2740757720928607
0.10222299118744635
0.18585871401791318
0.0931097320779963
0.06323541697102049
0.03495702458618046
0.2323843042946477
0.11095065860890334
0.11476215346262728
0.24323017857934978
0.06677091756501757
0.0994984180285551
0.09129404004920587
0.11107233378869999
0.23682865933070432
0.08089858248621476
0.16073782139931336
0.16667503531719904
0.14288799885784392
0.08748524007809562
0.20980051171697742
0.1707472013107178
0.27146597209161244
0.2107523804457731
0.29149159709864825
0.28027633009598873
0.10193418571029945
0.20457618104963599
0.057481356372275944
0.0765312984340461
0.02264335039901284
0.03634287187608337
0.03730210583126867
0.06245006073496806
0.07813213950246473
0.1280962236541625
0.2044049520704279
0.17238058391471686
0.07267007862349628
0.15041978401018757
0.048633309384891854
0.0498518177723803
0.12291282961286197
0.04243000618108436
0.07984980985273163
0.06162101781516775
0.0744168589087092
0.0780136933097395
0.11511921467253224
0.03881608715452616
0.13293297704462398
0.23882176236316568
0.1111990136036325
0.07676050805604134
0.035829808484849145
0.1032309359709697
0.15496719104337942
0.09821680844927883
0.21363073658384588
0.12305447422865744
0.22059658896652146
0.23329308438615226
0.25005403699919715
0.27434905937202114
0.2752868360878331
0.23726557736519077
0.19240148329576626
0.3111384046625798
0.21841135915826707
0.18187954236162726
0.14856396165159927
0.26970864105300896
0.1490419039838884
0.24690279872378626
0.18330546926585514
0.36314739236789634
0.08664376618382315
0.03022573907008039
0.03852959449138653
0.18098660638129407
0.1345920413587632
0.17719874215359374
0.18446541985377216
0.15570424737476743
0.13753248247833794
0.07852782241855875
0.10971479374134682
0.06883121393754663
0.04823243898695642
0.10202538608765895
0.32359613017129696
0.13505282161935758
0.08239344014711371
0.0854587898696849
0.16599723479507028
0.06586637772303448
0.08655812821328025
0.11720161954571336
0.04066730984707305
0.12663609553524738
0.10524721241453128
0.05788691713555223
0.07492603548670156
0.1482500178254985
0.30237482189573583
0.023510328153402916
0.02302318108748855
0.017735926498588187
0.14493469671122267
0.16160468380888207
0.07507898230436633
0.0806384667945116
0.09064044893819825
0.04687555458316781
0.24808936469834905
0.07308085407204538
0.08745932049345045
0.11044475351481108
0.10029992397539417
0.1010943942957643
0.12336460214554151
0.41888086893895177
0.1477249323403728
0.10287460682880988
0.07660349803076065
0.19014461187331502
0.15585112577284127
0.25428588928156676
0.08302445035119031
0.03002207162917697
0.3677219950123351
0.1381896360121097
0.3318133754725884
0.2678406250449483
0.2933123615194144
0.09195091873748247
0.06820979917603846
0.0654234566184163
0.0656954458847397
0.07642380995894262
0.08287837934545646
0.06611764699068291
0.06787946145562129
0.07608098556719012
0.06813906938202831
0.08784852454003364
0.107613634813435
0.13202875895979116
0.11616185701323006
0.0919491739280998
0.055578495630272715
0.044635903819654224
0.16774938126600403
0.12844861989275907
0.04651147260733914
0.036189956248223645
0.06994931794524546
0.07998935740858483
0.03852797704811658
0.0335770002747432
0.16289090806370315
0.15357342257298767
0.1036421703589563
0.08300395808413795
0.10001013771812606
0.060848252994096345
0.09095483616249604
0.06613550242298703
0.29443470376693687
0.1652607264284663
0.06638186237030226
0.2997619824660053
0.19293267097843528
0.22861588955610543
0.17263787500831518
0.14493635248009187
0.3272745603483873
0.2970371488371076
0.20648986015666218
0.12007349664405152
0.38271049575501476
0.24169878865939612
0.14465040812684193
0.5421051900731265
0.2351421598048861
0.36132260488217427
0.06863549792109853
0.09265063906273388
0.09779051987734631
0.1035531613424245
0.0601450102937146
0.0989564388921058
0.07505019795988092
0.1865146908794505
0.12973592953322635
0.0960492755602899
0.10918068760929267
0.08560453146905492
0.07110322640692762
0.08263376557756434
0.09781339546992807
0.06425622434119228
0.14799344974593007
0.17095536896528646
0.04056415461474912
0.08261093559026864
0.32103266029423533
0.06390194772136679
0.09868152444678065
0.2514502456165191
0.11877437321996186
0.08332899184007589
0.201230220243334
0.0861531246008778
0.09781372951376696
0.07398327691452988
0.20959122191690402
0.19036198321432027
0.17303686632478768
0.34452273514572296
0.24485958012952755
0.11294298650906481
0.1381045349925247
0.1895335501170779
0.1796725772362303
0.20895954109156112
0.10832114126104611
0.26935049239672193
0.1886463360905326
0.285892251746334
0.04290542517205558
0.03912879926976977
0.032134129454260696
0.1755209246981949
0.12053257939593448
0.1251851681466564
0.022731879922841817
0.02107106755583508
0.24478292285610087
0.02244029405504145
0.08618358300063396
0.06380725288567311
0.1205560805097725
0.1362564539291065
0.15606352606180993
0.18049625996888696
0.12658395460354796
0.11251127929083611
0.032549915385774814
0.023589193207601562
0.09310706914671588
0.13187899527290967
0.3705398549149871
0.14288599144305197
0.25448899742051906
0.24009013367895962
0.09342199692732284
0.18385731806622926
0.14007789798170994
0.28097126651390475
0.16212603117885308
0.05004557994804712
0.09468252367530147
0.20359378062314956
0.24317729608173824
0.16189130843697755
0.12425357109863785
0.07488711146846193
0.12856208766493923
0.1359433510936743
0.0587863855436083
0.24964959359969605
0.05649353265436548
0.05246298425599331
0.06563264631600658
0.029609062057565284
0.08135080895984459
0.08902126756389953
0.0841219111315971
0.07172358146762284
0.08782947782362842
0.06263340159905091
0.09666752174239188
0.16693359299553243
0.23296390233780498
0.24548268515916552
0.18288664118018436
0.17441418873043263
0.03619262064030236
0.07206310499291653
0.1242854054312262
0.032326459040118855
0.06614253210288115
0.1376742621530069
0.09919098001588134
0.19035906145747739
0.12774194357698984
0.17684094185888138
0.12985257799601704
0.14430387528001226
0.20548028765319035
0.1704865255562025
0.08367794615792952
0.09634904393764815
0.07741086504488917
0.11334742441031753
0.09138859643887214
0.08327376147892514
0.175977920065544
0.13226605541823633
0.1704948652439372
0.17442541740848025
0.12817071361337795
0.20281877684590846
0.34249889214245144
0.10349071831308321
0.1678407864807911
0.1367935561541007
0.11562458710189968
0.10078729178799196
0.05174869956767439
0.24942355783300274
0.17919305375420969
0.08689257721841334
0.11423295904167755
0.06656961548976288
0.060230452025913074
0.24001337644646606
0.08666448036441125
0.1928807859809265
0.173122988572044
0.2203085678290705
0.17859268815486795
0.1358484317455492
0.1345904724587261
0.04816731082536783
0.04477504450318095
0.08797969370553203
0.06531259310515886
0.16073155283713436
0.0651752270110802
0.08248026326429035
0.07064312280763961
0.11136957680432728
0.10442361495368023
0.15678875661431602
0.14785728013540297
0.16569961122178056
0.049302737218979306
0.08715926490034098
0.09846363389311445
0.033169290083368254
0.038717572976489124
0.07670254248014108
0.02102364384437543
0.2029486276726067
0.242287717903046
0.20700537135422906
0.24177603016629173
0.2095534614193723
0.04243060689949817
0.06388291216632955
0.027403150881034177
0.11983853672838791
0.03190402138680929
0.20901633138445722
0.23525820020257837
0.18549668937062933
0.23829412624471916
0.1289039632954019
0.15516148317247783
0.25103995652071776
0.29266230293902673
0.2801045001167598
0.2597823288988731
0.3009596814690562
0.07689789965420712
0.07020338006016229
0.12369540182486839
0.1275938572833582
0.14216301543867482
0.07540988928730888
0.10926468146793422
0.14805538421911738
0.10971641448161204
0.11530086513624087
0.04230225247339655
0.13767907082124317
0.189050546167978
0.37585242768895366
0.3639756213052036
0.23685510917083447
0.17237919310715538
0.3590309437420496
0.02446648110578154
0.10583820349081756
0.012807311028080071
0.01753159309841024
0.015234641840917117
0.027463541974076237
0.02367417115919852
0.12585068029503746
0.1442705512839251
0.05608133964690442
0.1254708579405647
0.26253767086363633
0.11705586247426007
0.20200511740945953
0.11385192196418739
0.19437803131553436
0.07037793775967903
0.3002401607739329
0.0803899965613942
0.19143509226547709
0.27329172387691564
0.15608157375461454
0.14321209534626475
0.1381602190564745
0.11256854974077721
0.13746785660784788
0.06339821547118361
0.2381340809880032
0.19825982150417928
0.09515312002739096
0.08439740507309179
0.3333719140669828
0.30886089272837464
0.15584814311347422
0.21270587720194384
0.17618801490534153
0.14192876380001346
0.18842029456505927
0.24381687205731603
0.14747604940190528
0.23196924753405015
0.17504700432126638
0.044474506142471976
0.27234012363120136
0.023500808131822645
0.11088419024232984
0.01316059529138926
0.22114594740160268
0.18105867733155498
0.02803302412959657
0.23780024909908565
0.061542308894823004
0.08140074425423426
0.11193913857104391
0.0927850055681373
0.08893513092557781
0.07138024903904024
0.10490375879828728
0.11441254785657999
0.14462222034674285
0.22111567513742883
0.14353986288430506
0.1272259595174857
0.22094871354078965
0.31397749213007453
0.23700017042435542
0.3054433970891104
0.3510572526783506
0.19536645165840733
0.2152028632706775
0.30336204099551156
0.11924861166793571
0.18818768927109084
0.24883649783293707
0.21540283208861455
0.26468632016580973
0.04651115888443436
0.1672993414967652
0.09277493399627404
0.067218353221138
0.14426765815914563
0.02917216710129228
0.2086998977776333
0.034929716004622254
0.07595893903630499
0.04833410720292174
0.10350375504435497
0.197751610279805
0.08243520933766472
0.09843081844123369
0.12146819499542885
0.07804858065978224
0.10127999009091013
0.05248466196303554
0.3411256469664821
0.09776263445485803
0.1354317419419191
0.01838381380904037
0.028414468663825906
0.03945452946355251
0.04176405865829109
0.25852973902942583
0.2724268383605257
0.24408254808563046
0.2685279813276288
0.4089977445448021
0.16386005104528878
0.26619245239063194
0.39972296402440755
0.07706313278474536
0.12756267839212082
0.07168450800560444
0.07516699331902194
0.09834657285671758
0.05261790732165539
0.174208916298744
0.03060150076306524
0.2275531003807761
0.3408305142199811
0.30857176884378357
0.2468389188470994
0.03796057850604381
0.13879444602208726
0.2278951049492588
0.15681585227341568
0.05282761099523824
0.3278594995259812
0.13113692111251427
0.22218989371971284
0.23860672684893305
0.1945653800923515
0.21281988501086282
0.16989288965161342
0.13604905551024363
0.07346202604222038
0.04817644813870463
0.044180876143370684
0.145292949296563
0.02823012274748384
0.050377961592252454
0.16138659063945537
0.15355518137390078
0.20717324605915682
0.15612109623688564
0.1491143432415381
0.1841611581245321
0.1449434246607787
0.21470837887564068
0.18530598014014066
0.20134984201809536
0.06402412672490329
0.024033571835946597
0.27946509082484894
0.13750651587922097
0.07944542780526989
0.047844414296281876
0.048140689841216805
0.15642265553923992
0.15521664055505308
0.18139844025820118
0.24200894185888397
0.23299499698322276
0.24728177801918869
0.17514830480106336
0.2326808943132774
0.31534092455491114
0.17983273614133283
0.32893186895782994
0.17766610727208607
0.18008906413532103
0.2642540121979662
0.11779237103277727
0.1302255433831409
0.23294391859606062
0.07944231750860839
0.09240930116467924
0.08413819878387602
0.14171977701190566
0.11666310554120725
0.07503917253997099
0.14840589444241942
0.19346223828048065
0.0916475235372845
0.15900324118193346
0.12213879288791635
0.3333101605997569
0.02538539680018753
0.364070333457653
0.10397090633545603
0.13404829835638127
0.15918438271656343
0.04289600815443311
0.17234710715882823
0.08922768652128209
0.05668735372342636
0.07885911020223757
0.06719865528031355
0.10971076044855782
0.0737988827542556
0.07263810142258932
0.0947162297540257
0.06417541327073915
0.10100225200640185
0.14744467093127928
0.08164485586545644
0.09260546829409848
0.12042090012601851
0.08720616007603328
0.18496526903708113
0.24953396562072253
0.22315129727618413
0.130732897089344
0.22684071856934254
0.10939404646509139
0.19071514904721779
0.09475909973078359
0.09725253522722957
0.08985220525080291
0.08348347319470117
0.10311305109697741
0.10725627647833517
0.10454027251068788
0.21614941146754582
0.16298782404773732
0.1570729901396282
0.256704793322197
0.12369915794759338
0.19355791738924377
0.15478475938650044
0.04006258630933755
0.1656581536583476
0.17647386742433213
0.2118440697814828
0.2248650289755267
0.24184640897957077
0.2362517309649359
0.24406079295567615
0.2254079958151682
0.22521140213588195
0.24515170674917933
0.2947676603559596
0.17540043610367773
0.30032924638944153
0.08626061448865587
0.09925160969737858
0.05448767834027219
0.051429538564526596
0.01963310336534274
0.028266742172752143
0.028010017975108832
0.027725736066931503
0.09369441822343842
0.15640281015027235
0.09856386959592006
0.12388395094328572
0.10519060035140007
0.14447317074465038
0.08386187823571031
0.18734851658274995
0.1804651462922538
0.06195825770258258
0.05112630294656217
0.07095868111627991
0.07297387715765381
0.04898195788610602
0.06960415301979794
0.06198365682201332
0.07441671215478161
0.08071229852095839
0.042717976845012565
0.0972606172263088
0.16053768658322698
0.09985693296364585
0.13562863413867132
0.03687842054200603
0.12710427991429246
0.06446809616151485
0.13286551226860438
0.07378023641734824
0.15039514406841795
0.2463427364553187
0.2927850663234378
0.19122068994935196
0.17648091714193861
0.027313040382873337
0.01412820077030063
0.018510496466401787
0.06167811102582403
0.016177370125483495
0.01637042895171213
0.014356567457555966
0.055664406354189115
0.04008494544017119
0.2328923423165049
0.08684450618819192
0.22875415490124137
0.25666553996306984
0.1232159770980295
0.19557847604466358
0.043517940404703456
0.03327124800527178
0.34661189457322733
0.0684973748121327
0.036108488261610804
0.040244392147049175
0.03702221109462088
0.04013792018808123
0.02341542808536144
0.13775697111083898
0.1177209049894619
0.2343019760616747
0.11673471670044822
0.12257344888388892
0.1273873848424407
0.26495730537294
0.30919398149196314
0.2196306449023767
0.2557056998343036
0.1075779750355538
0.05835151614598254
0.06594316913918069
0.07644309724277018
0.10453558104186353
0.03359290535445701
0.060880261041039774
0.06879873941064404
0.09150544093491166
0.07287185798421282
0.10502381600372092
0.13855140370948993
0.09881144270226816
0.1604196375997489
0.17413131656184866
0.18961990525460007
0.17357650647507694
0.08510140805446492
0.06796689144033362
0.08807510187896496
0.06819426992511236
0.276876884788373
0.2719569748692582
0.16811953986067912
0.30443639585432725
0.15648353381501315
0.11424582784011872
0.2823212440783919
0.17931475297148658
0.226965856359852
0.04936381538541417
0.361645949781647
0.29322883718344145
0.36180277029779634
0.28023626835287613
0.32953801005459515
0.22163151549429289
0.2732176840675019
0.13371385500784874
0.08942158450914275
0.2891692458595585
0.37988220185702626
0.2543599032390843
0.1393143982553781
0.36111745346780955
0.22139530226139986
0.21383019057860767
0.22298862718401063
0.22376923708481278
0.23628153431435572
0.15517300142179605
0.17233609916700346
0.16583328079179413
0.12966808101654823
0.17059981905591518
0.18983101161291613
0.04667310355033784
0.04933632656677187
0.2232442839694579
0.09539983129082155
0.0676640522043041
0.2510276190106575
0.052420298633508756
0.0630779980568834
0.1338985392565281
0.13565079008059863
0.1635550523781134
0.1771624423965549
0.19714578358805399
0.15526714574064443
0.14817274784801776
0.10129062466204382
0.11881079945323479
0.03231302738867824
0.12793779502410377
0.03876348423828296
0.15935721539508607
0.08048820481484967
0.03348289617201169
0.11863748027384476
0.022438772917242906
0.040709498208292186
0.14542893842969445
0.10529164249749223
0.19539361880875641
0.17488633699725656
0.19937840103426321
0.270775440175843
0.4096335828278772
0.10542129855757212
0.0660565883492126
0.04572521992716963
0.09981029704876246
0.0883093860708542
0.0630220949690046
0.014748541924468183
0.014203003806367413
0.023747651878816143
0.0181265776501325
0.060307797169261323
0.1012016527075694
0.07220568571132667
0.038654773440295304
0.028150830715269002
0.20112607327605722
0.1652607904624278
0.21529536790367265
0.037824469130161784
0.16821576749612824
0.20862566339227054
0.20170274830678772
0.0864785133558012
0.08471104114077273
0.07203235071004666
0.06757769676336285
0.08428529100967966
0.047977811207006366
0.07727392264985515
0.1287685832336126
0.1482330253605846
0.1810380566630134
0.09169292760756587
0.18808450727202622
0.09584941120109869
0.19152172626927103
0.07749698522568049
0.0841296871490131
0.20091887979119452
0.11837341096376383
0.09807681807252826
0.11881915506817535
0.12132047292439165
0.21916550950601932
0.02107151115020756
0.05303943645449299
0.03490830361129543
0.17866474072174632
0.05588877950354299
0.06186789298662422
0.040702452275126436
0.055842431627514524
0.04874728411761506
0.13723515587864446
0.08404475722508178
0.20915710453620326
0.08045662803375436
0.16693773026075054
0.08293412650500012
0.1341636586567494
0.3089738468555124
0.06126683692587803
0.09831231713331641
0.1953131302665946
0.1139021417424945
0.057348481559534994
0.15653522517004184
0.18231239416664644
0.08195708189399808
0.2404655785381457
0.24744007900965376
0.18065666256169882
0.06104305300492184
0.1594689096380241
0.45716552920748427
0.4545682614312673
0.35951452104112847
0.22282697326407358
0.36947252317565116
0.19892559123352013
0.06649152112840895
0.030080847118858802
0.029096557046613646
0.1581092894410893
0.09243424180734579
0.056604380720307525
0.04503849093961525
0.3105932544893469
0.14108915462916788
0.060932808264820025
0.2702790527258659
0.042743463727224706
0.03617003308150333
0.13022149065206767
0.24483925376354063
0.27650565180776376
0.2511184467458757
0.23126909863425496
0.24645478519890837
0.22372854126922048
0.1584621570982945
0.1356161558393997
0.12227762010471356
0.3316726550065215
0.4483247624097794
0.2814065547493809
0.30609559610259696
0.13249720455351496
0.3199612592764392
0.41596146391898975
0.07530526763418442
0.16283326289353892
0.12632031422772622
0.12884564030600465
0.1400341516301711
0.1301700637926853
0.12768111740810742
0.13130736821359637
0.2860199890830958
0.029177970304262738
0.2270326926007067
0.052154392322664396
0.08091410026256445
0.03587169194954596
0.024185389795001785
0.027202043142620265
0.16719538523918767
0.04116196829040571
0.07657813058466506
0.05758103542899537
0.018291346912530558
0.21577082980383974
0.13301609938406106
0.032464195676474225
0.3540120127587226
0.4135912133126609
0.45827475207530227
0.10839264991420156
0.0978232709409313
0.1441848229055969
0.16401036400193025
0.03929958795878006
0.20555825392985336
0.14622599683218113
0.32210923540868486
0.36282442583500735
0.1205448990891146
0.43720385695981173
0.2242948635042662
0.1666932083274326
0.2072371799694677
0.03666529982337622
0.05561777650570298
0.039037650865146135
0.03817800752198162
0.02110151084899882
0.06887549841595937
0.07154764777576743
0.05884835220473503
0.02882272987738691
0.1693890520881237
0.07316967574055656
0.027873274937728416
0.021819731695411092
0.04022365125696726
0.050184587795787314
0.031192341629608145
0.012414065015026406
0.19993870639701308
0.23774152885689426
0.13735602113035833
0.32310356307029253
0.22939732671780932
0.07623188356750853
0.142212872691156
0.20458036446961808
0.12428584613113985
0.1268878154883368
0.028373806989559117
0.02106310545410366
0.18868848930117965
0.2004537138852514
0.1795590307975986
0.25375816646266375
0.12632771236675308
0.10637225328378333
0.17101010669968975
0.031458367182888004
0.09968018698679135
0.08017810509932015
0.21608985472904843
0.23347624054427174
0.13248140575311224
0.09710528037372641
0.08594281483621147
0.10045550257883024
0.10337211662302108
0.05295226235991684
0.08685538897927397
0.22884964622535853
0.03191710237706124
0.055319639270030876
0.13921713946230777
0.048193921987520996
0.21898789843233196
0.0949169288004385
0.06772617204433355
0.12346462355956898
0.11823998299427192
0.13143069371261654
0.23579946194959095
0.06406884654700828
0.05698152943930822
0.049483858549484054
0.05294846472571004
0.06565248003157612
0.03326557459825623
0.015755621354596912
0.05458899777120571
0.026019942459422216
0.12086235577308024
0.02160864379594209
0.08018222241837475
0.03678275574716088
0.11869755990395965
0.12750901368257972
0.2134507385928165
0.12684404965309434
0.15593859078781283
0.12887790035774416
0.4501445094413265
0.2951368537602335
0.046953217580404036
0.08117444183699458
0.10277967618698898
0.03347731905184757
0.019944029073084135
0.0779865226429104
0.04002825965797739
0.11143772865118699
0.08287685931559143
0.1351741293424303
0.12055167071292422
0.1412976367490345
0.12676524197310413
0.0812524052931731
0.015158128977313706
0.02169861711432109
0.028970474332518932
0.044104209862016026
0.02399097897720757
0.08456939784201908
0.05707131820825661
0.1281795831286639
0.13449439806110264
0.07340504058913391
0.15686078057712888
0.046017557526393846
0.059558838148446834
0.06198402252246498
0.08800276130757931
0.13559878712705162
0.11273015863666946
0.1299770374714732
0.3347562139708931
0.28052401035455543
0.1975593719202968
0.16672366840973743
0.38940959255323976
0.37757804869378214
0.31558735836597956
0.34266468286971513
0.4996243909515443
0.06847265736162772
0.11915852133817388
0.1649072765248385
0.04554554408151882
0.04866489696924479
0.05140003947541308
0.05825457917933883
0.09939629776193444
0.2336720872325397
0.10241073992259503
0.09753369150245411
0.10287556303404245
0.2245668966528161
0.20134588666770065
0.2527141971518286
0.14626455961485776
0.32720960926247
0.21711794999649667
0.21301517835084385
0.14356344349678293
0.12393823630452518
0.16573859772576222
0.15516171523121958
0.11998374506850965
0.16517660633684525
0.17525294256733875
0.1482727917676164
0.06097979662570486
0.04932227514315146
0.0642074701195683
0.13885747401111873
0.25833918853500376
0.17802937823517315
0.22058357841386342
0.227638316369871
0.17980095381127748
0.23800625281999413
0.16053813815914902
0.24149891853408698
0.17686449256397133
0.12448417225932373
0.1676277642749115
0.10479730989404747
0.15244594276749115
0.1542982820061555
0.074620020883774
0.20649078863535583
0.2791303088782977
0.2897830021486194
0.2761954737670831
0.042903343917669076
0.03749954409273554
0.07408575651589641
0.12059920049512454
0.11063735549626431
0.2906082075545676
0.028198130019865788
0.12559778171067226
0.05386061723245099
0.12269059564398709
0.10705438591012992
0.0948337560026263
0.11381100192696997
0.07474938102001541
0.12332021153009043
0.2275657001766595
0.1462169605531884
0.10850896542141229
0.15004045335441182
0.23114993902957887
0.06493577469304167
0.10906598077867743
0.292273274286378
0.14742942516625185
0.1503841306451188
0.2023599020127554
0.2659494119366581
0.027080845444285347
0.028060028729901144
0.027179194795859774
0.11801048051225752
0.01804669009343693
0.023402384571852976
0.027413818268024283
0.01955908321900339
0.14957947973408225
0.08164699746253706
0.03760731453225001
0.03601000771416568
0.09389834275250905
0.21558034812945942
0.12428688816616708
0.21522221621937995
0.14973088306083832
0.07879641245178741
0.07987311731385649
0.08813277751836321
0.10788894731047181
0.09870023225748917
0.08555005524090187
0.11775000722365658
0.14646498742124725
0.24378411591967264
0.11366263576322379
0.09702848497162295
0.11133316933886701
0.14122131034207155
0.24024250643123266
0.09497426769578093
0.09714828891666229
0.07305246501158315
0.2023624016899861
0.05751920851595139
0.054230694156142525
0.04825598071756856
0.07108022430390658
0.25770510908634336
0.27198949027270436
0.15308089134258562
0.10269978953976049
0.23544620761412782
0.18052752763206925
0.14263675560034275
0.19944174755415467
0.21710755769707382
0.11293080964013791
0.11916888385558994
0.13308735108077102
0.2283951674123
0.04469839447317654
0.12385257637448141
0.16531869691425247
0.12612894751612524
0.13500263725539088
0.17294947521898243
0.14013451344156153
0.18644819481957117
0.10390361071683732
0.13428681377736496
0.0986421458828578
0.09327380505781338
0.0699788222866035
0.13174993894940934
0.18396876908133802
0.26761065030057396
0.05327269024147118
0.09940741191762684
0.1363309601113182
0.13414497088396518
0.07391046781693486
0.10807280097383261
0.10117156613329263
0.10583430990007414
0.2660408267397327
0.013956578740794874
0.0524946726524678
0.053454398142853014
0.03339790755500765
0.1796405859681943
0.05832345624111808
0.20697550680387553
0.17099704534784588
0.15018912226079398
0.1744903096536942
0.08087420128398737
0.06118698250699523
0.03826047938119471
0.06430637540354575
0.02643628396682833
0.1177217721493221
0.053069203337673766
0.14024673213208422
0.11423649842561655
0.07322445915705396
0.07117493965909934
0.49835683064399405
0.06582546329058955
0.07204397533963874
0.07640136921978324
0.1548638454131937
0.06245707975787961
0.07614359473756036
0.06511819203758869
0.1009027831170866
0.016599952376103438
0.12792492414129802
0.11644178173879498
0.2171178466358733
0.036763493262378155
0.04872372985088551
0.014377052236138735
0.014364644894523382
0.02097681978768408
0.01940977846743153
0.018352477111369375
0.1146274567709353
0.09615317040783421
0.17498228610209463
0.15011348422223394
0.041821958464389984
0.0498559579963939
0.18370524999822757
0.18551119733693652
0.23642399331934336
0.19350294181404912
0.09953596341636077
0.1786653298015107
0.03786193223820103
0.16418196887617142
0.16853865361121953
0.2498481034567472
0.18596532003028657
0.13710249146272904
0.11181939879112775
0.1367209075898931
0.15981055882540243
0.13666149928619034
0.19086942614229538
0.16071674510657638
0.15414873653252148
0.18527526697818986
0.1571447411708271
0.12401705534927102
0.08053346912250915
0.18599906330824686
0.215877601462814
0.10703160786884423
0.26986719140216503
0.06391258794177435
0.09172301929767593
0.1548860397362877
0.13296896538920538
0.17177810253759748
0.13606172307438644
0.1315645457168751
0.17863135465680194
0.08174905285596151
0.35890150015533034
0.04924812677635029
0.221944704864765
0.25270091837569036
0.1027910740963709
0.1216378471128774
0.08892351887744536
0.1380595730522278
0.14116444342736129
0.10547563004390033
0.17238727380564212
0.10233936870307661
0.09374551080595701
0.10222031531960761
0.12644984206157342
0.12096895824062176
0.10463930021880467
0.08271537468527494
0.11140922043660359
0.04588787080568344
0.07462322326955065
0.054454139983155
0.17117360434953824
0.038359487151287605
0.2742996469238176
0.2359496630320285
0.11664839168719583
0.2217658248584052
0.14447282711715478
0.12021747410568424
0.3957766628772841
0.20617621469664257
0.08336838576879331
0.07513556486863353
0.0791463142595651
0.056589453797580895
0.12517116584589644
0.1111710943836419
0.10589747904855797
0.07177932577306345
0.05725265603593312
0.0741287119836368
0.05286773469706607
0.09868206678415802
0.07589513928030732
0.06620731361493824
0.06956907283981487
0.36062972384290976
0.10006168406029718
0.06326604746562012
0.12583635381389402
0.2746355252589454
0.08726505913787905
0.05518326087522519
0.04863392088385956
0.05986513914756657
0.06067839354211697
0.10073972146527145
0.11636986389610533
0.13493822460266292
0.06720077277179345
0.07124954535536843
0.10468151919102577
0.21771030865076782
0.2560037326352691
0.09358183058509825
0.10199701782283993
0.11577194147152182
0.03931493400561127
0.3047593022544693
0.030915615783649122
0.04510084101060743
0.04277975829881898
0.050254828394966644
0.021251832679927078
0.04417001345994856
0.022968196834696912
0.05294627683301016
0.025784705475932763
0.022230867385383157
0.06283201346518037
0.0637880146555301
0.06180541510979393
0.06466963072642377
0.23048112868337262
0.12728488803348526
0.05579123607103341
0.08985146870981356
0.08618334687191678
0.01786194519246983
0.019812757684565686
0.01819418767332875
0.04010146453712431
0.18084060840231897
0.16335182404189688
0.02005494709840902
0.028552136000154354
0.04944840171780353
0.06307707213128004
0.0885300340832494
0.2372165049289572
0.006466249504675896
0.014049417726865208
0.10758980252190083
0.0830058704727028
0.11113131215002547
0.15714903635310137
0.02069653861590777
0.07752917980993958
0.035257517491215626
0.1452799781899882
0.2660899797246515
0.35014284738833096
0.2808602480464685
0.37761746252067446
0.3299684778340591
0.2760058083944909
0.22639947873621852
0.08062458770643381
0.3402180413874021
0.18974683329840197
0.17828702328937918
0.0461531808731153
0.14150294435050045
0.05773973729492929
0.09843609488593716
0.09424606388309625
0.024121529830437576
0.021150730640681934
0.04241765751036239
0.06990177499004127
0.11996730121573389
0.056795328925797695
0.14564119958498623
0.12531027027561034
0.12934401519684957
0.18974603075342408
0.1936471331976206
0.14816425009289444
0.3868538613430017
0.012597334141834629
0.03829682464691755
0.02755431552964967
0.022259759030239103
0.04157901968414473
0.03490226409919459
0.033825633717727094
0.049441764375172205
0.04727625425746155
0.04629852033359541
0.07895681143167958
0.0776370938603976
0.31345845645549814
0.13351788368644602
0.008271137357035909
0.09825460095267553
0.09694068727421014
0.045851454711809354
0.17153763689954005
0.16235196924359716
0.07689831486644308
0.1442226092911226
0.060805853416657216
0.06560584391691446
0.18388947277737525
0.24242076626544531
0.12940364383689307
0.04626991654921135
0.08630436520036112
0.035684680232979285
0.06437720423616093
0.06782591233725296
0.0813558458914806
0.14213906956934927
0.03178854830901308
0.0630090313844555
0.15609706567803466
0.10793165901095204
0.028135904037699003
0.20437683384217561
0.12069427143654819
0.09906420300133223
0.3009430113721983
0.15518452355063342
0.4096383447327386
0.3396878256426277
0.14035710610599655
0.07072400361943597
0.18389051562967143
0.18641819789508376
0.11733681747225636
0.10077333941835884
0.14491824090633304
0.14426474905124337
0.1238424488131282
0.18130632039244451
0.18856825680405565
0.13661202353264482
0.3009408147472554
0.25738848850273477
0.1924782081124598
0.28562334099001
0.1302859815984273
0.07789374203460583
0.08657360235769937
0.07449072996705573
0.14897002660937886
0.2244439504042102
0.32493076651050595
0.19598850545641552
0.03931223908369161
0.02967763151999547
0.024751229451670773
0.024667176752092495
0.03126143248997331
0.028033826369006982
0.02551432740257612
0.3044730047929488
0.2027177588317847
0.19405303705564253
0.219144244430895
0.08226855062864855
0.17324400568971102
0.40807681359605724
0.1017276409808031
0.16002161410445784
0.03522922939030118
0.0293359439708776
0.1370527272487937
0.028156974432560745
0.10703601710101142
0.07644885325225795
0.04028838525081726
0.039427415317403944
0.05695090694133268
0.05691673806893819
0.034147621334238334
0.05018143216729874
0.13788786060441874
0.06868640778152865
0.08676328517121452
0.12421954254168639
0.19533896050077232
0.08468998067186499
0.09145541124279832
0.02704373278670464
0.023551063778978393
0.05751758414170709
0.2452558423880058
0.1715722961856309
0.11609251817251041
0.09520374083396042
0.20224066595069395
0.14181096466936968
0.24085782174450485
0.017036780126899746
0.030631497886011654
0.03483164305754118
0.022166710843204533
0.3831468476364833
0.023652500886694478
0.1280732495548209
0.13843752705638046
0.20075433070440096
0.15948024993577856
0.11479219341189674
0.23616110003921836
0.08291324399698266
0.06864733319945068
0.06596454400594098
0.10472367036998394
0.06201373259781258
0.09484582155160638
0.11190480972084325
0.06599179400804563
0.03795376251943257
0.12367037764513225
0.018922100922776103
0.1970812226774648
0.06880738274611368
0.12814942345154537
0.2125951689654228
0.25080110884484735
0.06693323194047897
0.09843565952627899
0.2517385145208738
0.23675418050631783
0.25665070660158945
0.25931505111160447
0.10155021288188897
0.23983113542551038
0.2397161596556126
0.2164731261361855
0.3584295342252621
0.26856103994559866
0.07760422185903026
0.20967703142190808
0.21379796855265637
0.19716517682384804
0.21628627093634326
0.25624911216149937
0.2068314161828855
0.04766835664005643
0.05440263013290093
0.2027581500979629
0.05883133105535237
0.13057826592414776
0.07135314326684047
0.14457686368674869
0.14588092814371037
0.1295908483605472
0.06147023910492857
0.09862478137909757
0.1228034346298534
0.15792421222341052
0.06379723283070043
0.06905585621220987
0.06622933620971057
0.05718249869965694
0.0708512042358314
0.12249655439045296
0.1110797839943439
0.07437815256166751
0.10193407419082519
0.12834435578675393
0.15106106526158672
0.15442043037724176
0.11215585315019116
0.196242554028655
0.15746264664368756
0.2656285411226157
0.1451999042668634
0.2199364743875737
0.2226994796013863
0.23080720319195577
0.14665657707990168
0.1507596046934247
0.15198870267182563
0.14039940207468812
0.01276438281879744
0.04592655102869978
0.12573152928683862
0.023002364774126507
0.1317369944638168
0.08937432778179667
0.17274297413152154
0.13264102849112144
0.14251290470306296
0.13108571287897203
0.24858282343167756
0.33359926861404066
0.1701647718171687
0.1374291486942087
0.24117623601433102
0.11984600524560987
0.15015754594888553
0.15436411530921457
0.17282892894041219
0.31548467918719314
0.4046385193048984
0.41773334554230745
0.389958973502248
0.1461917372141329
0.290224106177175
0.11840078382016662
0.05368956215696744
0.04778142811569289
0.3372165803932879
0.3002928814635263
0.22144422630437488
0.32562679220430846
0.32515394776556117
0.20874139950357778
0.22120356706672806
0.31124783040230813
0.2108150194753118
0.3581336208204626
0.11617037099526732
0.20384223477025848
0.2878943100691764
0.2952574376467988
0.2690839068356652
0.29722910716647083
0.06696233405314705
0.25819707216062066
0.10268249697568349
0.04576331837603
0.2653032361542201
0.044311355714655866
0.09019151822382464
0.1689499561832628
0.17342076997857603
0.2733193059196738
0.18706269603629636
0.108224754292206
0.129416070114189
0.09182406303290487
0.16767991502053942
0.16830225990394948
0.18219007164408788
0.06956487912553586
0.21518961828880406
0.05861678128896515
0.14104289141799872
0.18711908405626546
0.12878665434347472
0.16212074417421676
0.2086058178912508
0.07460822944462829
0.023190406867902653
0.07940599044359492
0.08529955153163132
0.0823318338633657
0.1366670241544741
0.045698977059295154
0.13508313428684157
0.04794834020350241
0.13058210761754627
0.17913281452220328
0.09346712265586714
0.17989544310039685
0.144059930170762
0.15677707243117725
0.12849062663480204
0.26209064116140396
0.13783053577431548
0.1174883448604442
0.08103982179469763
0.23186861661348673
0.2419610047899758
0.1167238222313005
0.17401451272135268
0.1741471821340946
0.18487352077751437
0.26478401837984955
0.0418500916311548
0.16530916167564627
0.19046916828124086
0.17253018570332115
0.09529776235394322
0.04956354910807089
0.05532971052977035
0.02871715220560009
0.023222300139258408
0.09830417797336269
0.2195283470544669
0.3191150779892311
0.329998495997364
0.272567544603101
0.34437548423265973
0.24008379564885318
0.039839842834963016
0.09633002778359352
0.21208835381104452
0.3647781050500799
0.30539826494384864
0.09261124875421155
0.07480669132297338
0.27414644041495223
0.10901573856463694
0.37193738241720153
0.06851190156476046
0.1370596756192474
0.3727882453963317
0.10263816811171528
0.07728024710377572
0.1943264330003125
0.118243729403117
0.08503796409365708
0.16572827778218924
0.0649472655838834
0.14467135234450806
0.04706440051070335
0.06795801199478067
0.0973520621393843
0.08192282553533431
0.08041251149123581
0.0769241836695215
0.054762706752471434
0.12710080778352276
0.1256301407703072
0.06269887725984927
0.16511918602369408
0.2936011001281623
0.25117172990561487
0.3857083926017947
0.32784951597089224
0.18286069032929783
0.22892826045072534
0.25525937391162007
0.18556055564772017
0.10148080058605607
0.22784464080770267
0.1705797450338033
0.24126265473763459
0.1072875089897681
0.09831931733120931
0.11162342572333044
0.16500047482889516
0.1047013822422042
0.06607389635863224
0.15478873217064706
0.19391477890445757
0.1968667698767577
0.22328121876124354
0.2139641897057811
0.09616918512591363
0.17887917754899313
0.1416141080380093
0.24638224217136193
0.15117987823961965
0.10277113143727383
0.2113056079823896
0.053601100502147385
0.11620482836849345
0.24926954894549871
0.1240318049539094
0.30648866024019883
0.22197590584858978
0.18011619012807348
0.15590165906063766
0.2866098224728612
0.24438367417421336
0.35326136678963443
0.20553001670722068
0.06490203296780167
0.12623146174548266
0.07632007679202353
0.12603353236838957
0.18854738241993055
0.14776223719742854
0.2059203907799398
0.2241768744584033
0.21198625170056945
0.24634784007263547
0.07774631491616867
0.07699485815781883
0.02185274180868215
0.03342598261313232
0.026896783611058916
0.04582946567754187
0.015101076493282052
0.01940206195138001
0.02156668417461266
0.031683311521912054
0.07599069647769452
0.08644783478613642
0.16459215611930755
0.15729058842750623
0.06904904086674431
0.1979267622556894
0.08071600200081001
0.11897652024605004
0.29558763889990813
0.06550223574331816
0.24070390807783146
0.027964401109935706
0.13606213980549667
0.0858473011468507
0.04503033355188605
0.13219105141748763
0.10412727387777215
0.061403474495985835
0.11229031311801492
0.15234810653327174
0.15229085426044953
0.17259659350774412
0.14891451770596137
0.10490565211355035
0.33752150244543305
0.17749504309642572
0.06546811282173078
0.24982630433286926
0.1805966731675691
0.14504140868462218
0.11624611433649992
0.2671040990088773
0.2711351510584242
0.2041727499049746
0.031740060110397254
0.12357868603948034
0.053997320401348255
0.254702801749668
0.22256223197199776
0.14086019931539498
0.18800352799729192
0.14947294744420053
0.14332684967147394
0.26219279949570445
0.08740218262251527
0.11939202653018556
0.14789019621621574
0.1441289871068116
0.040959321952935265
0.2555414263494682
0.14961943076628523
0.15253196062637134
0.13111780255378053
0.17807641330537166
0.07963453094227374
0.19686166892118756
0.19244126070453788
0.03356948608973642
0.03790120318253199
0.08298344435359528
0.33355789245601386
0.03281901945000464
0.10620651615689186
0.07969069684595248
0.08488010615820235
0.05045931946112093
0.07179343795614652
0.04698560408655453
0.11217686459618159
0.06317679426523218
0.051703050693866354
0.05557622934362721
0.041390085054902125
0.06493703107397394
0.14709404424529707
0.15833713932775237
0.3111506197963616
0.05732064577800021
0.2970779538683442
0.08916461731794893
0.1049885893016331
0.31788236869516523
0.03552876676634566
0.045106713866048906
0.10337046888465505
0.3445529772183245
0.1467169287086522
0.3452976568919988
0.3475444480342683
0.35615329428229564
0.35892140618939816
0.09912450176665807
0.3429956110538966
0.30132986505250503
0.07693288909631281
0.069749480237299
0.054305037933411245
0.13617085491700834
0.12346369599734068
0.050535492167977716
0.03414610225584955
0.09544385470023231
0.04702581332786726
0.08910328373712652
0.030590551394877354
0.30420582426531373
0.3419985303761988
0.05476811236473499
0.15645688097335156
0.309402497152033
0.21382375957499095
0.2592402828565475
0.054263095135324416
0.1536611879594371
0.09101758802160503
0.24333938860098078
0.23155970380767832
0.2533489904764257
0.08507785705246615
0.05331177988782729
0.07433309507450965
0.030814252199940502
0.08040061125760514
0.04108902918847274
0.17019030394295576
0.28404082605724956
0.10718783004536302
0.1302453056274643
0.08329860355709168
0.04657589510030214
0.031229586395772172
0.08053650646112731
0.05074848207537017
0.07394846158617575
0.1080102848930952
0.10106745578510781
0.03159306492085871
0.017461898785442822
0.08032337145261845
0.10529423790598177
0.026567341875391618
0.09774580292739352
0.18382014474852765
0.05237562882541855
0.041987334441859016
0.051331956831880333
0.03081051761184989
0.10625041806062643
0.13669013514733802
0.10800510943294576
0.17922908521521355
0.17181689658985125
0.18609206112281895
0.18659882079398477
0.22423562021459298
0.05606185023225555
0.1743613669377048
0.15482441801971283
0.0706934739545621
0.33143880440172047
0.10897407404059105
0.11247579708206448
0.06294675635088634
0.23043603882084346
0.12134466159691308
0.12076701525329288
0.1186415750941287
0.11179803781922654
0.1013459898055379
0.14991084869807217
0.11945629254070522
0.20612566135342833
0.09977551254099058
0.246923267349158
0.13065496048908892
0.07478837773659386
0.16910316114740445
0.062312431102002346
0.28502990186032273
0.29654424971286164
0.28263402980023306
0.3327181521504221
0.32173783611468726
0.14408485042055688
0.03474264346242404
0.021291222846694158
0.09003111133659808
0.11385549435749684
0.14101042554151594
0.12645859910099416
0.1437130423156134
0.12981953597489015
0.0903762848345101
0.12646114604019185
0.09708243579912552
0.24802106746103017
0.03566311055941324
0.15651331262324994
0.12610995732711058
0.02233555933494797
0.08562087441819032
0.30824255819646246
0.03199333509440191
0.026262896979498435
0.026721168654675363
0.04953034763101887
0.03176589445596385
0.5070367054259207
0.378396902401441
0.1850743459440085
0.4194029704139117
0.35857982531961696
0.3537441716487452
0.39603581311560454
0.1460468496927435
0.14984737797458828
0.16883292300347919
0.13221023127200793
0.13161936772928398
0.107211735867738
0.1406409581882681
0.1705783192865348
0.29751504101123794
0.23277465454510712
0.2645256901308411
0.2876032991696756
0.09667813645689279
0.08825588387220891
0.1607128713045279
0.2028835404112919
0.23292402113327493
0.13813555076186126
0.23135724461792195
0.20962121049252108
0.2183398090347303
0.2423903005461451
0.21479509968923544
0.058522596209643264
0.04850482800432014
0.058612945868686026
0.047357407038389594
0.041450586591216664
0.08012451628860949
0.03392057362644887
0.10563296525339506
0.04426952116111352
0.08230029206849196
0.04497237112949197
0.02978363536454402
0.2576119032210587
0.07245633947115744
0.039677200170538794
0.07885402437898185
0.07688515190676744
0.13182971665962107
0.16212218679162216
0.21908856901160606
0.11549314476680089
0.16253700340267094
0.09666641834493753
0.07871111925447614
0.0969798080287144
0.04221195582117886
0.20322164461855702
0.1643317121372496
0.2685948679031294
0.21853654703660244
0.1870327364887974
0.20405560219602495
0.20782484528277315
0.21117300546876822
0.2196027257906875
0.1499583837804838
0.05418022496232352
0.05064251086537088
0.1806493867367443
0.139835384037487
0.12682900426905885
0.2060397851185849
0.024779116511143524
0.05211624819178857
0.06467616379208876
0.04434783750281071
0.13583629159041677
0.041199997061635955
0.07628603400865311
0.0719982496799336
0.08579139966647506
0.13115506205345295
0.08564829673655365
0.062466228126073345
0.07403110817974647
0.12025540151683226
0.17111198471070002
0.1355393677731433
0.25306531278841154
0.04654064760205802
0.13489147469235188
0.16891885628192962
0.18170902188670596
0.16927914534743094
0.21632225316282366
0.20419769380196934
0.2248818470361194
0.22364310411098934
0.2378240126775497
0.25864845548033966
0.22127716540366876
0.18286207169109048
0.2172686072419065
0.08501536053090124
0.13542534068291126
0.07315726158432984
0.17657178736334858
0.20408446597727695
0.23924568693840234
0.05951758800446699
0.1277722842008172
0.08454906490436796
0.04962447161064433
0.10285607556590359
0.08416557767181244
0.13982088413901642
0.15498924732426145
0.13732060826605713
0.10770040304765754
0.08889882664654401
0.04439426923509427
0.0433370575370674
0.023528857271580213
0.019626798592194707
0.025981666800478878
0.021643159269001126
0.03288582559028853
0.10732793171931952
0.09177251619892628
0.11236853789989516
0.10549843673431859
0.10704172559046005
0.35707608580106753
0.3088014179706118
0.3554486151920601
0.3219542141967055
0.3795599804945697
0.3079354027675057
0.07532518382569499
0.16077708621184425
0.2165963016617068
0.09549245581760654
0.056980448944938256
0.07042732790994012
0.032603947686193555
0.06921407862158437
0.05249050193710565
0.06919834153912924
0.32249387671781665
0.3263072431474646
0.26668087088166453
0.324057248048106
0.3310157519695116
0.3207999193053679
0.30659286452914686
0.05841494338985599
0.11417883838773568
0.12927969835750674
0.18594960515257145
0.13915622903506217
0.3403681269536043
0.16023877113443832
0.21479771976037978
0.06934514593028966
0.09928447360911775
0.13544845240458178
0.04145676242952479
0.042614129726233706
0.06587966290207868
0.016475179302347986
0.18059076355408613
0.28697115934034767
0.06989910754917944
0.09143318684429495
0.12581850546773907
0.3405844321138866
0.05354583669675788
0.08048380758187464
0.0362777560468705
0.07393904449812876
0.049474335860739585
0.039128320690321516
0.12147104501927246
0.16497295041230964
0.17926421668279138
0.12032387546043626
0.17318034209901356
0.056801481621005304
0.1431970564413123
0.08762681187878935
0.02990956492251848
0.1026944139506114
0.025609625547687066
0.03421339275601252
0.020753819364015283
0.0717987644244494
0.034059136706139866
0.014599692631920493
0.0177344076062282
0.06261614656139323
0.3609140153210579
0.16920723827703532
0.15209126475823911
0.09230333147316913
0.12173218926361352
0.1548054974825353
0.10843509945234957
0.10599242346511933
0.255274403688105
0.27265138047489973
0.1759895794787616
0.11245268421055427
0.05227684493607987
0.2675899150474361
0.18203729436210572
0.33675178091516617
0.046529373217799826
0.04211410336073539
0.04809668562749198
0.05153956692698656
0.06778998836866766
0.053261152531599666
0.06914852641972322
0.10069671744119096
0.37705179867083327
0.1241518328139445
0.19207057266215888
0.18825197548113803
0.19131089052428518
0.08331891633344514
0.10102489225759481
0.11805252704182655
0.16272478994149292
0.12559384944869287
0.2432611659620178
0.19799696313676202
0.20576553386323257
0.1337144121970477
0.13463450123337634
0.1430733312775724
0.10908848895789401
0.13430521208479224
0.047107078949164626
0.03646352350229367
0.044439255318124614
0.0688923414035496
0.1151549448270698
0.28838645434082094
0.15680162794685717
0.05185641597266274
0.08505728174017016
0.16899711543831358
0.10262371832405048
0.16991607344613158
0.20629654130836997
0.3682592077789004
0.21977694662978536
0.09664700593362821
0.1496969688213294
0.1483300825515204
0.3947086972298581
0.09831278535332871
0.18602659311121517
0.1916156307213442
0.3489049214041467
0.11454830148572663
0.3927326443370651
0.08414922608368779
0.2682380152683966
0.3054943216495917
0.24451091674583014
0.26816463525955603
0.25938409272065505
0.17417260858496306
0.31876984408384923
0.29286016433489176
0.26778420166164063
0.16312967013424776
0.13740060848583982
0.2693829992972106
0.2913970857315719
0.14601960676839612
0.015810629311121066
0.08996467717274703
0.050890902608274835
0.011037690326412542
0.12766697349386555
0.15961912236857523
0.18957118439576046
0.07034343250813613
0.17798947071972288
0.11372764367711831
0.15598375259638586
0.027621546969330245
0.05496463345808795
0.06857569919049455
0.09682191476921084
0.25134970445665683
0.30711897470444116
0.203192106440017
0.17062991675795125
0.08395555641515158
0.04221598477792022
0.06927727792127296
0.13649045150302425
0.05728680417358315
0.23399754476778156
0.3833904291580681
0.3953664095636088
0.1981205317893013
0.06117425980821534
0.04347161473570336
0.19511345102724975
0.48410955957117335
0.44845118215147095
0.42649933389584843
0.1837532486052113
0.42590868364450785
0.2814981509347519
0.2733604115624675
0.13937037156028573
0.28337545759125154
0.24211606949321346
0.3145356363344057
0.27889253208496967
0.17838979898504684
0.15061452434195963
0.30329841335934754
0.27979753843115307
0.37689736059534446
0.12143905185162546
0.2662512666526635
0.025766680578697153
0.29385457268024856
0.13553665469362686
0.045134973776580996
0.05366619305847893
0.061555554620406856
0.03311285753751452
0.050006444852632885
0.0656607328625109
0.053557517350816326
0.06463163277766143
0.052213228096897706
0.0846946583735245
0.09955401223555171
0.07615785504551788
0.09339883377206264
0.1673370674286665
0.3067962011568973
0.2577365087718144
0.2773378457747566
0.042795357792538985
0.2393354214650954
0.4624215534117895
0.08351067461947626
0.07602128868703369
0.27911048812893013
0.1354981789738017
0.2694027862056877
0.2302803594786804
0.1009581407402197
0.07939595234486096
0.07343739720958366
0.2906559107154824
0.17087986223184443
0.18018999060390758
0.15951244506294662
0.14551108593315085
0.0953657193602423
0.1431997326100546
0.1513485737050667
0.12565560020933472
0.11223581675487126
0.10209350043868033
0.24248390950506718
0.25649522681946585
0.11645974247298328
0.23039179584932615
0.10943140913090213
0.09096066540841051
0.12518702466187376
0.11953498021703574
0.08772459830740509
0.19554924003209734
0.05441676573144047
0.10520881470176537
0.12921626132560018
0.1915906371784525
0.2036968133993054
0.12775539661659244
0.09509915716668234
0.13241804460853238
0.1862750977712101
0.16721443650785414
0.03814148650657959
0.055494409385362424
0.0161414616949092
0.03212016288047073
0.02393994403973852
0.033451932554467434
0.03834193224390791
0.026867298658695183
0.04174714161661037
0.027992059630793355
0.17054471293447734
0.14431100462180885
0.13561571233911782
0.12493026870499042
0.06670781952170071
0.070117668306008
0.06727271307612413
0.02607079854827785
0.088079929928179
0.05145295727922211
0.061147297014439723
0.10366017239794276
0.15140818096933045
0.14611586128277354
0.1735068396562693
0.11609829958296705
0.14501425283155328
0.13363611426884886
0.0649063823032679
0.04012163977090441
0.024580672512863954
0.12473289614616051
0.052498048963833505
0.060916875388026835
0.25063967825985856
0.0883177082796243
0.1353205827377271
0.07688795159838605
0.17346355048277676
0.13991963500174548
0.07594325984827204
0.13889067670404506
0.1384364668417642
0.12359520569351663
0.04456377754415649
0.20341402098685124
0.171342208384633
0.10190651105478798
0.11375211266932185
0.07039821032196228
0.018930963816129187
0.06311273044354591
0.020813391718645345
0.09000673116158014
0.012692207568168395
0.03182849612542674
0.371739260159602
0.4324359398895478
0.4413338461112299
0.46254638940679843
0.48218811741397216
0.2253862577440523
0.11254956605245245
0.19530165748403486
0.2004534638589434
0.29583599002061844
0.20129618243537206
0.12033428728596161
0.04127422250568085
0.05100353531540115
0.044167680394446976
0.04423750481522875
0.05406951498749859
0.07851800279139727
0.16089414629157697
0.10651448663833905
0.0995199249955398
0.09772090173638841
0.1810440980155723
0.12356532697026322
0.1654641420988247
0.0982436522062241
0.05328132817796537
0.05747336952904999
0.07024594490116111
0.08556846839714333
0.0810859060819711
0.06511727573529676
0.08255655017228591
0.045725572864631955
0.08244898653500753
0.09107579131076238
0.10490784799293468
0.09317985595525925
0.20932779779554442
0.15082392587715635
0.059708618102934395
0.3420030675377847
0.16217000620109276
0.3032754212644573
0.19632605762042818
0.17235457339203716
0.19051199551444686
0.11787713670647293
0.12516841106058707
0.11559443113294296
0.3334123313055825
0.07460811437242684
0.121789910801337
0.1377887710796625
0.0893720253697473
0.1224462866962637
0.07483527393500657
0.07448927288842794
0.09154462691286834
0.051800675431399774
0.07511603838823457
0.09782629803064562
0.1470739701405206
0.04231237070645818
0.061358288385990355
0.16922894262281193
0.29804839383373205
0.31547271625755124
0.23053273652201772
0.10960066531590891
0.13959695071773112
0.1650474564055456
0.2857060771348134
0.18980996236994718
0.2860694686265628
0.0939400789031199
0.0783022387696375
0.052694112353347006
0.11186683721806594
0.11647101905635968
0.05891159095033996
0.07552819870717319
0.04450482593419393
0.01441465043173518
0.03157218285914078
0.022511746527772856
0.026089819393094554
0.06922837962044558
0.020919933653991196
0.08570873883386841
0.10805693153273438
0.05048810331854479
0.10845877688401878
0.10120057333962242
0.020129669300756117
0.04296745862954727
0.06868848590947162
0.15848681525035505
0.18447150826325306
0.08828947003527422
0.17654627571393722
0.0892135429448058
0.07199908719088711
0.12925848887929328
0.06110959078813675
0.10876340528784717
0.03385529517323474
0.057913653301097816
0.18929987149695243
0.19346870300106525
0.17672666589073113
0.11353422737833244
0.14186328812592938
0.1496462249708468
0.09625245944123179
0.09585604491343597
0.09162670754461406
0.11761928013499294
0.13059940582780444
0.20252975890479824
0.16374897453044293
0.2881273407971661
0.09139160222694243
0.0817524102241879
0.06309982799045946
0.038514244081400896
0.03000013387851348
0.030617525932693297
0.0710525619463144
0.23405922809457613
0.0650784352704915
0.05480214232646994
0.31846163627180346
0.08679204209049382
0.071696161540309
0.144758557067576
0.15604037081929867
0.16823502615950608
0.1839979097435953
0.1577912649248937
0.14633611415460285
0.16440189495637578
0.16542543378796618
0.11408562037502779
0.10156820373036306
0.15282399314025086
0.4536391800433452
0.04283550876559191
0.04060218940073893
0.06576372348671834
0.11501270575696125
0.030600749654478353
0.07711743898377867
0.06128237621800614
0.032054380045022056
0.034216140060205354
0.26310562052634284
0.06354815709586256
0.09191694201335773
0.11277635553358235
0.2788980642517214
0.02930541221880646
0.024812144757334703
0.036077091773047146
0.031164084874359062
0.016784720794079284
0.14324109865115708
0.03573081184257787
0.036083586061822194
0.019316424978969193
0.2677270755554491
0.1794244223194468
0.28361148832827926
0.0813843982717374
0.07944961456310608
0.08100551060060886
0.15607000610008592
0.1530321472877822
0.08263706005308827
0.13963273704366722
0.12937088562076868
0.18776397156120833
0.291077117449342
0.31175011364593924
0.07548503407908827
0.178134476279205
0.163574572942663
0.24802667705513937
0.2745596835627245
0.2515087458156518
0.09746507657305484
0.15686107735306373
0.06752493943081482
0.1143724319548586
0.14236052482137795
0.10022115194902603
0.14886729999300966
0.09336572004195924
0.12293045062477509
0.13520610937843627
0.27146954879317187
0.28253716031260423
0.25070010579292057
0.1825359939612627
0.27717294206332754
0.09053381246359436
0.2998262052383947
0.1758382460403011
0.25175252277765003
0.20119758665405912
0.07786399417304933
0.0459282737183246
0.12368834748463946
0.20687825044326544
0.09783381245314811
0.137719864569076
0.25311091471711605
0.13686849771017287
0.09519926061343671
0.1714257064708525
0.3042376949858963
0.3368260515701304
0.3366585812898686
0.1827694762443627
0.30601943585588126
0.11098457209352804
0.1354732532345906
0.05272363611258511
0.08534757483345613
0.09381937723031725
0.08242690071527123
0.10272656823306849
0.07193263359223158
0.22293954945018046
0.031660321630319385
0.19984406213407657
0.26959120077124243
0.2202004804893468
0.1809756022554098
0.24193725172205097
0.0747614126970845
0.13665117852578154
0.12364851726803722
0.160269448808115
0.14814707386481565
0.13738347944622437
0.1474172214767489
0.10716530936314779
0.07901634799490238
0.11557141845729624
0.08955873409582558
0.09378477277242017
0.056219959826183705
0.10340961805325578
0.05605612452950211
0.04827244959040228
0.05676341258498412
0.09773137179025278
0.08704518519843658
0.1631136491195509
0.11776573352458967
0.20756159114694728
0.07153137400941997
0.19570249337598386
0.24291773584144793
0.1724476190736641
0.037268944256981566
0.14698694689803599
0.05713720956485646
0.2168449830041796
0.2464295273137877
0.05371618434522026
0.09325123706162591
0.04442204205911271
0.05097446531694586
0.07320947162925726
0.14252795710147473
0.07723401411647765
0.03900607681375027
0.09216822376644798
0.07845632984923408
0.030796889294916932
0.03474951485008971
0.32057705963605965
0.06289888768555062
0.1802121034306632
0.13476580416548312
0.335396235074762
0.10484129446099279
0.17949950464552217
0.03613138379848385
0.05239112715680817
0.050079841092156796
0.21642813924689588
0.1311495902817286
0.30780211233390903
0.16908163820279576
0.2573755505537576
0.14287732222902252
0.08855258189227436
0.15566679162110056
0.09396479216909563
0.16766535079225886
0.18388838682616657
0.29925059493333916
0.28114887569982894
0.1333060750257091
0.1441934394316857
0.10381606858085925
0.10121618069184163
0.19473217422111427
0.08828257732388595
0.07495139612045536
0.16226141445621792
0.2329819286102989
0.15053056032388895
0.3135691085018093
0.22560019948352344
0.28322732650033833
0.276988686080342
0.3429628733627765
0.09134646830169531
0.34582474011372033
0.07495890553069279
0.06323220104388223
0.022773404673465635
0.0438195384283918
0.040375884792005524
0.07966630656889036
0.3650733853252644
0.1416287062744304
0.05914171923247675
0.12603323251928467
0.2510175646417354
0.05152429708871351
0.16539434073071813
0.15128039448500177
0.17839874578707277
0.19140623052667333
0.21617389261409023
0.16894715682104366
0.036005555299444034
0.04482877310518016
0.027157611709041653
0.14840507089484814
0.03956489657199307
0.031228705100988578
0.03268887993581035
0.05686580569111067
0.04543415042218532
0.144584475944524
0.07896642080379018
0.35552216381097795
0.0517044438858185
0.15158827491496216
0.1766141393129945
0.2944995335433615
0.10783567503532804
0.05109220320357903
0.034268203514823764
0.02755207809880501
0.054613465774038694
0.11693012293619494
0.1190232792189496
0.05184393709933105
0.07792818876777492
0.06034394524312044
0.033873013963473274
0.09919496363158184
0.04578958767792801
0.042906979948175515
0.041429048475871644
0.055009366327226694
0.04371291335547517
0.04001978678777785
0.02490393748704796
0.05378100430712847
0.29577663241493524
0.055269841539261524
0.08065276793718247
0.28218404557424187
0.013749729674849533
0.03791824506364989
0.17506214940920817
0.06807274184350871
0.10987636550164248
0.12606232961855218
0.16043089582049472
0.2549740332898843
0.14631670651463122
0.2943034401746088
0.2655823698909551
0.23795365788461348
0.21337410230292522
0.1352883413032145
0.15146963145428263
0.06972421971231355
0.04103705269670103
0.05074233307340629
0.04307139790385501
0.04905362647797462
0.061731197387315515
0.037785258796198054
0.09268006246578388
0.29421539684591547
0.16089723331853495
0.027843834673163984
0.14035769930260705
0.01243777851824519
0.017905799804023594
0.028095358597633895
0.025137449365895022
0.02368655919195578
0.022013335777603317
0.03683744595366851
0.02289679952830671
0.02325475179551165
0.05818320875406501
0.1272929849875288
0.22633784303226653
0.4560421235384889
0.3357529153159231
0.12818762489119426
0.0790631285904958
0.07614353612232636
0.09378658174836299
0.15302908690607847
0.0948435493283692
0.35420794779460485
0.10933457566359346
0.12453822763601213
0.1700221554927858
0.21013444492213676
0.07268256711981147
0.1703045486331249
0.2688127071308209
0.017160318598669497
0.1791357192957601
0.09796256486995382
0.1238587520552352
0.17912812403900502
0.1769968236759915
0.020327126352050712
0.12853837242455388
0.17636254387804684
0.08317316466226204
0.2896342215429425
0.3139450502525987
0.32132760200158034
0.1891604180767852
0.2258520339525787
0.18669486492021828
0.22185268442862136
0.17856149042186714
0.1908324819896027
0.29224139359387225
0.3105113052706604
0.2808119397255175
0.2947063051416909
0.27182123233405825
0.28450783897743015
0.08470359412562405
0.10192890487596604
0.04535427339056355
0.11043354606662562
0.0699551974292957
0.024573817175544504
0.1942927590949451
0.1876871054979222
0.1605323872044995
0.09826573738180534
0.1396954639288473
0.21426006418134402
0.25653951663706037
0.09861308735076979
0.07536734653498935
0.10560017468121047
0.148037876388195
0.15145130896476988
0.07663138439921727
0.023151651308542492
0.08060128272695626
0.05914877676046934
0.04279511009359701
0.045639119937190116
0.059669949008387194
0.16004298811453055
0.027206419020936335
0.1123798923177971
0.31098252872431564
0.04300913167580871
0.14847390743480748
0.10637115499034823
0.02934908852055797
0.12669435982933197
0.17626980420288024
0.2205911769654001
0.08053337238662145
0.08901761428683146
0.08042564095543324
0.08133781883827931
0.186136446267716
0.08052097054977794
0.25383924899672267
0.12495950967155865
0.10622014035691713
0.09018815417817534
0.12610978612506302
0.15010462837571584
0.0950491132499361
0.10744391577269463
0.1298343489537824
0.14152098134953803
0.13702126743000131
0.10740425985856641
0.33194076564960107
0.0827408238013871
0.1286725254784663
0.13328635611294642
0.18043553880189941
0.15527217693339695
0.24456655246692302
0.17387339387013276
0.26492590657903436
0.09882014838811631
0.2323379422979245
0.0878778303900566
0.14416071922470408
0.04173026998496669
0.21187051613421629
0.1662902992693268
0.09503953279546147
0.08460775767812687
0.08136470910094325
0.06849952607002835
0.060992030380048766
0.07897893096898362
0.19226430987510343
0.1394506463577981
0.14783686878712496
0.17933088375846684
0.05924773795516622
0.0637000010162331
0.06622340789939307
0.06246678417628494
0.07379785482066437
0.08986047227599697
0.05174691980798948
0.04590003427772695
0.05067206667227913
0.2545411034705184
0.09513404647900035
0.31606020874926094
0.2229612917162113
0.0759100082638822
0.11156127142680886
0.17154698259259193
0.11486208787364995
0.118107081980967
0.12132353609820432
0.07567243517172459
0.08268080905827643
0.10915662930302833
0.2668185539848664
0.2022677972111446
0.30891175771465423
0.27311167620221777
0.13448381754148714
0.21349464983779537
0.05817358804816966
0.0720489363997998
0.12191686580244367
0.028275964377691094
0.041627466484276475
0.09859871522813793
0.0589429846924742
0.08376551701037473
0.17460360871487768
0.04862860840716818
0.2242706795113899
0.24080118180504403
0.2095095265884694
0.2892472891148798
0.25795569612899827
0.15906004470993682
0.1979930181732483
0.08299761745282015
0.3304207435548236
0.17418066152303102
0.1144144179103064
0.21974434741988155
0.2420794773962648
0.1566357928122236
0.1788463352200023
0.2714682594432417
0.1446009180594499
0.10410686838067895
0.17708848258392704
0.16129094224734825
0.19402101478445474
0.21342986245728707
0.05879085085103964
0.04616403356562914
0.08134784592554441
0.035115140508345945
0.1559364794517614
0.1728705288277593
0.09150898225374246
0.08575653468921514
0.050855707547938674
0.112076252449107
0.22681056393140633
0.0528274254141567
0.11312466523100549
0.33532235283306117
0.48873681458263746
0.48045077936826835
0.4503119347256765
0.31235791846866706
0.42137271432664797
0.3776427567273339
0.19759601645306218
0.2088280685500035
0.18724235028023115
0.2130822037582607
0.15358807471876135
0.23948393234417353
0.22410382458223693
0.3406796910539568
0.1465249032115775
0.2578458929492
0.27150995773783904
0.22748898834849096
0.08336412097871593
0.08909191866496391
0.09485495379507118
0.13239438390941308
0.1847221545692057
0.11652478443135426
0.12896695304658268
0.22946150563955695
0.022943753035190317
0.018417731721987563
0.012661724511635376
0.025886658992153685
0.057621006723307694
0.048040024996217595
0.05267251829413242
0.04945218904221243
0.06945204326048522
0.04810964754134667
0.10953762460610666
0.15049820972681774
0.06841135860420752
0.07341381659029751
0.25096799956144134
0.22348358715185165
0.22540166209612922
0.28174366728905037
0.34458015377618934
0.33760579696767706
0.22669149903201788
0.267057440156295
0.3092448298233156
0.3180170415663003
0.2594254980929575
0.07569223417402414
0.3178148095275916
0.1030937494834084
0.06210742119152171
0.18583004948101592
0.09010307427124124
0.09879950843179391
0.0851755529469418
0.1721566215422009
0.11169778695375773
0.12259561104058038
0.11884102334559155
0.12972776182622714
0.10509681748684255
0.11223227611938147
0.18055745684681504
0.15776039157950011
0.025802532209267183
0.03362278825388179
0.03797288995476522
0.019183379259479303
0.02980164193552341
0.17493665245676643
0.3727077466211369
0.4052705705046264
0.09995418777183583
0.06525687027203401
0.05228889239026433
0.1207568627873048
0.10318926147261274
0.1208943271331889
0.12274522424211398
0.14471634434784203
0.12230507093482869
0.1864893148305075
0.18745840786637183
0.14338628103027237
0.15313356672940986
0.09226661505153569
0.20221263031204656
0.1781290650717152
0.11721055993551416
0.08139324304489412
0.12843077187652419
0.09478938498946977
0.15886029863904472
0.12504637760060874
0.12042649935159508
0.09769123180996381
0.13222980797421655
0.1477658808498781
0.09760129068286905
0.0817268747452278
0.0770846012427568
0.12108757742836228
0.09670176056018684
0.09070283503380117
0.14968511813308039
0.10572558843736035
0.12618950906855778
0.12283766890907681
0.13788650021667942
0.04577363400495159
0.04754816809058846
0.03839604079764658
0.041114143875177804
0.03903073589849225
0.07221502358448492
0.11105078170223569
0.10455181731172336
0.31687455752980626
0.1182310857006416
0.1638783323387375
0.05130899754574692
0.0692942064884979
0.07963822242104994
0.07911769260316483
0.11424682831748421
0.0956918805127037
0.12755914729671858
0.0814109986391462
0.07812530290674695
0.047109791421384585
0.07842874912118508
0.04027955597117009
0.02703451596570397
0.02717481090278937
0.043377707445478794
0.12633016683841855
0.05360666070322714
0.04655133589291964
0.12251534287850066
0.07692864473698267
0.3939313705192333
0.15970109964727763
0.12142260483701868
0.2131337120885086
0.3399203370175491
0.11042387083478829
0.061339324483072465
0.23698876805639854
0.047782729144677426
0.13665333039546676
0.1607100541701229
0.16900031792684542
0.04311978000975144
0.09836890722741753
0.0337740015939337
0.03397512094652093
0.08685409864605399
0.03458287257721661
0.030450365039348427
0.08227989605173117
0.07435820204681465
0.16186964515362923
0.06272680812343844
0.08981983248238297
0.05131588012044526
0.03992201632025915
0.31054573930891627
0.20202683820398437
0.12046454023370301
0.1632142940705679
0.2829831771777728
0.21921380310059563
0.17217589774413602
0.20793354463608324
0.19377731916800725
0.17288502124005514
0.2914095479379225
0.25073500389250913
0.28917950690236244
0.22914760373322424
0.2606224870393979
0.2381089282567529
0.019557071025814297
0.11199343899665005
0.016493341773484972
0.025482191517882117
0.051473665207779656
0.03712620637415684
0.04223205663497992
0.10578845895512243
0.2273846758550242
0.33349868308940595
0.1667670913727249
0.17583582859752572
0.11300598498829371
0.13894560910936704
0.3506266135008477
0.19325500786726593
0.3180429465372536
0.17830514955957222
0.1741759446141542
0.13166385443503947
0.10624915215290119
0.3529004014983754
0.10300274150716775
0.06599201845636395
0.0688754645348091
0.13484306332795964
0.09653863500843457
0.12958718612035464
0.06403796124280554
0.055746883448547835
0.04590881959071146
0.06296235429997818
0.0446150313193274
0.05782557723500491
0.058611644157731894
0.07857276441622475
0.05085318770021837
0.04317366020316992
0.038809287409385745
0.12261527823443204
0.08890309203754762
0.04775980415115215
0.03772724455771409
0.08012406446182939
0.12491053019493496
0.1004314358853687
0.02681440261818671
0.08806467656889441
0.1352181531099716
0.16247915276409639
0.08534229443747798
0.05517327080373615
0.1607025182076821
0.06127192140525633
0.2149654839484686
0.0699896419046814
0.04593564853013772
0.019004060499549492
0.025952719888957036
0.22585084777045353
0.2668791137811027
0.060935210283424225
0.25628148427899855
0.07390246380730826
0.048527216078118565
0.06447198098510712
0.05678136055109627
0.047081297510566264
0.0809916172569734
0.16761396490395067
0.32953581583693586
0.3366217122820586
0.2755028544737764
0.1929864385876924
0.27283310665058896
0.20045600446503903
0.07065710723434437
0.11139971828149996
0.12948939265411638
0.1417978305318222
0.15347683954319116
0.14420766649686986
0.14876578831931003
0.2592252932962715
0.3016677058118035
0.18664677841543528
0.14272463306045632
0.29404443688403664
0.27053093431614084
0.042925599256024356
0.2806968127380885
0.20493176598523358
0.13976272079528035
0.11044780176039821
0.02203508256365071
0.12563367184608557
0.13261819489372142
0.12252688248212538
0.1282894845163503
0.12248967076983579
0.05647101583485111
0.18650890738790415
0.3320951849089612
0.1681618732322644
0.16629559897636495
0.15386170876300617
0.24623037671503475
0.1600662081681028
0.2267793167062296
0.21291842480599968
0.058881264170694794
0.048476252828503576
0.06346912888874054
0.05035047345508849
0.04202582840786854
0.0528658911761709
0.0645590565967234
0.10231976102439738
0.1404472603999899
0.14447462589985832
0.06490873421202062
0.12006596270104439
0.12703443891852298
0.1250124096620795
0.13492405156519582
0.07434084007446908
0.08907889933692269
0.07513079726064856
0.05924513107918866
0.03300194811226599
0.01885668389660346
0.13414887314189242
0.13422978498119406
0.16718100714162737
0.16148170550832358
0.06542983467604085
0.08255652073388435
0.029106507245136207
0.03793778200531795
0.15990466105852488
0.023095013406120225
0.05492895101855803
0.2216385998255818
0.05525318535419901
0.07956781438449878
0.15275721076828616
0.13942720403763498
0.29499390726078617
0.2704468395097089
0.11518184426681725
0.06722078016166377
0.04345351475242307
0.07042909058655998
0.03476250171326636
0.04292486621293362
0.13040194863439564
0.15572564556256643
0.1857237344603023
0.05343410547937404
0.12735692599365675
0.15771289856652276
0.05485205087434174
0.27771558409095487
0.07718751003610899
0.17763492457824623
0.21153652147449334
0.06124771348624199
0.05579054280399258
0.04123669512429363
0.04040777752777657
0.025623884946047202
0.048556451340747035
0.03721699698913496
0.19603702453765948
0.03754511563416864
0.020207211081889873
0.14118969167722561
0.01893095150004039
0.1214937351293373
0.0627839168469074
0.19849459540611364
0.26776703202071894
0.19601674139859412
0.26768437742945045
0.3507994107850475
0.33947827835636873
0.24277767237282827
0.21512417005099238
0.2108973071359726
0.1901902451517201
0.12124988070976611
0.28982391967819776
0.15728717494255826
0.17520273048990787
0.38046975809124556
0.10864878292125167
0.18610718592577327
0.08090075461869597
0.15618563607205307
0.06875846122355896
0.07892134559000247
0.03792113478535097
0.09249951940219225
0.11702820003289173
0.09141379267349552
0.04342252454730946
0.10550142674355618
0.19058359972224134
0.20179453995817978
0.14480464771547533
0.17453885473507796
0.18446587902319705
0.22002889267974102
0.24845053844342238
0.10065272511365346
0.20367373137683897
0.10484327163293013
0.16453702428651512
0.12182012370820614
0.32096992580875344
0.12108880766851464
0.16153904318661433
0.09195162079493564
0.10808035070497447
0.0983587009079467
0.10476857785802071
0.08325002396117388
0.09989904579861984
0.12620930827790233
0.10762543729585794
0.09090638651417964
0.09727447598536598
0.1706567812115246
0.1313893829827878
0.1270012075903816
0.09863197126557005
0.07865783816256522
0.1463067040727507
0.03163260549531861
0.07421909695532032
0.21214787005401556
0.027304277534296678
0.026294271370431575
0.032817793876100725
0.13662156844622145
0.07048020203191274
0.1847842194626151
0.10236854840907769
0.2598705677350884
0.1086960516916367
0.21131094876242623
0.07536232529799619
0.07758062982827572
0.19862280385327763
0.20313578000054908
0.21777016342006372
0.14593297317452072
0.17641661709420353
0.30913206595765613
0.16972001730879552
0.12339147801207628
0.0867084248753082
0.09188977376955593
0.15968256264072847
0.09680174323860026
0.06497748406135681
0.03942230299700776
0.09773520550997629
0.07905584201612713
0.07056576611804646
0.10019451952247588
0.09642749426560816
0.11563138952516817
0.07325201486958872
0.1586010102269208
0.21103108161483217
0.13408366359782062
0.08010915203996852
0.2707054170376727
0.09357943412882547
0.29114415023342716
0.19585051725542546
0.06457735220988543
0.06432191871865137
0.1850775131654835
0.13343967024600226
0.09196508480090183
0.2844194185496401
0.1934119706749448
0.28057059666645306
0.08155442685918918
0.2803283165493901
0.16488081511584451
0.2865799559887888
0.30116604075968934
0.3178049714594149
0.35171753639753117
0.31270205821942093
0.3683405152642009
0.1532166781992754
0.06286986843963356
0.08251748373266453
0.06696603435171707
0.07077202653919598
0.2829403698046626
0.03184928558070359
0.21131512385329806
0.09423984899306975
0.09500249786547296
0.1355182489697388
0.09041512700685324
0.13406318198347203
0.10587665087919322
0.11261571242468399
0.18094238770250368
0.20238942315358208
0.2106289479035138
0.2067894348969784
0.21894052946403192
0.2153632746339751
0.21598536580904185
0.2007841098636022
0.21212991083303845
0.2153972337909257
0.24422869568439676
0.18521344344090745
0.10311174871712135
0.20984603816056635
0.3067751432114083
0.26016671662762697
0.09155745626679236
0.1427135436824371
0.15241362397512925
0.2576633665193841
0.14220410379001094
0.2942577534157734
0.12913839876574804
0.2040395794421232
0.21350375871685132
0.2229079291084956
0.2678122493423645
0.24450079402391692
0.2124165845468397
0.2529367709931743
0.1427649628090618
0.3206641507179314
0.2654492529965663
0.3159374526635633
0.15365361617459947
0.19990066526477138
0.11230188581078678
0.1419966561483329
0.08008291669032408
0.32931152889266024
0.08721710891036784
0.1349998832217246
0.1413174229107022
0.18426715599608198
0.1925021719652882
0.045937391772689636
0.16978469048065017
0.16778579597770735
0.19160266431451026
0.1908104177057654
0.20519815803841496
0.15257691613696983
0.14421018633166727
0.15516956791719264
0.06833386146783214
0.086728546256199
0.4148386236044929
0.2876177601919831
0.40040979968070245
0.18476428818472082
0.32773995452902777
0.07111390306513272
0.06890155027793293
0.12848061627315965
0.11155542398440683
0.04772653088979208
0.13202297152358416
0.09866666382667302
0.22386350215417028
0.0881870241718939
0.16610140569464854
0.2075234610079099
0.19998858584154725
0.2145169395017614
0.1969020695566506
0.2250715938862172
0.18469521459285745
0.08440276516499802
0.08772306477848031
0.09627361068042989
0.09345739596796096
0.11755718113321251
0.11171075256719726
0.12739943165683118
0.2614358918263394
0.20723492116749032
0.2563760212093593
0.334788681622161
0.37673967191624924
0.23382740593770532
0.2552128202964605
0.27708623499092133
0.2800199099684641
0.3879459401179528
0.2139763816826116
0.06982342621523897
0.0919702752669837
0.1492869297590481
0.07443862218962734
0.1762019924870162
0.08771288053202593
0.11999145406740958
0.11678103911099981
0.10907171788747033
0.09959969246817163
0.09825143740109415
0.16630081689665635
0.02831720415220526
0.20227486876244533
0.10286937709160542
0.11221930943298714
0.15037144495965316
0.11959282078400092
0.054212856303921995
0.07864073462334546
0.03307184939061767
0.09690679659767944
0.1085843949207798
0.07288527832680021
0.293018953057199
0.09395904307075867
0.1785975048884922
0.11671623617291811
0.11584792559654063
0.09153144847706159
0.1834172553546353
0.1654558725069188
0.07102233922978922
0.2862003116747819
0.17957753466665544
0.0727977029431632
0.06852687062089408
0.3483510690950075
0.3180170525046643
0.16264807851360935
0.20857940850932094
0.22700895257727596
0.2893216664048378
0.13563925363390184
0.03797233534569917
0.02937377494872369
0.022607614850391252
0.04475838482508408
0.14669759150997783
0.1195028708236818
0.19082757046706142
0.15734343979978532
0.1754617918773828
0.13992662159703093
0.10704167188113228
0.03179349199914475
0.09393209803257986
0.06514839845113808
0.0387232901947983
0.062414728022504404
0.2152272402017503
0.25647834863677976
0.18673210209368565
0.17736773183283258
0.19660282994131184
0.19616297816875508
0.19135156009609347
0.15883912588885593
0.051387709274259355
0.07430076536955528
0.08710731711397736
0.09034264264148245
0.05506760724195958
0.13811385408504961
0.1027470170181659
0.10501673922011055
0.07585531160373714
0.07036175034145306
0.03856019388482454
0.039516448799977934
0.04803622510028973
0.062460872284562735
0.11387483114924811
0.09768783316628014
0.11506822814515183
0.12234017807654406
0.09855355279682002
0.0901838493350767
0.07681184960567264
0.08600066103903252
0.03850638060347457
0.05654358304166829
0.09026032077643528
0.07095721200741141
0.04926153019363196
0.16258722320286054
0.1326927568350486
0.11724152567997488
0.1912064133764542
0.15255587870757703
0.15663308482931204
0.1286572623745636
0.11089578687377678
0.18447662405129597
0.16674227447916085
0.13625722453915984
0.12926444973317944
0.12872040416251623
0.13743667968310075
0.20930012410362897
0.22733772888450546
0.09247947798262204
0.26572102340853404
0.12758642440662515
0.19998439978966645
0.13691276309777856
0.21700008208585483
0.15645322211640506
0.223806401790845
0.10421964037012522
0.13315725743891468
0.13917865080350847
0.038212542790622826
0.13943276922998193
0.053300983455121395
0.07442034205572469
0.09185169760772169
0.015261648545204842
0.10123702192450917
0.11155635725079564
0.14349459995014066
0.06756538345986106
0.06912706391916781
0.08300676905164545
0.19845189596770418
0.23405995715951866
0.24943977095848766
0.035492295623869054
0.019428727045794195
0.03764934326744559
0.08267226567134073
0.1292190216881244
0.12028972566969691
0.2102485720892884
0.3111796454701795
0.244427825079667
0.2720930999882281
0.1188745829613231
0.06075512986538105
0.10858222551320788
0.3733497791746248
0.04997338477189314
0.10911876113961494
0.07618103771982537
0.0916721485703078
0.1792354201746551
0.12865514137019446
0.16138346139464066
0.10724299645314953
0.21437887242144513
0.23139074624826836
0.18905799742279525
0.17265279428612998
0.23915323807060426
0.19142406130486278
0.28944895092200995
0.20658391642473825
0.0879406266678629
0.29766668436797405
0.2609746475832743
0.30720259396338406
0.2139280769316078
0.17157206475277836
0.2433933187003139
0.1388351688813436
0.26889850945546195
0.08990703534305433
0.12227910035316428
0.07550943529565073
0.19050460817369985
0.2544015663376092
0.0843197486554091
0.1731449747981186
0.08944340391060461
0.15779496102483864
0.08829028409895752
0.17026633613913292
0.11756266499108718
0.07937957146092937
0.10158240542209622
0.16256833369248036
0.1489905103136059
0.1703219998975216
0.16514225823309214
0.09693248523467489
0.22765993815700167
0.11171519695588869
0.20933708779195132
0.06101967425874091
0.10215893325240094
0.34730422928918914
0.08047358612677347
0.208709489541594
0.08456796616522501
0.038041156874807316
0.09943059339942714
0.043917615803694514
0.06161542262143621
0.12301054124139661
0.04375317266520114
0.09653740119644065
0.08762478141000818
0.05513997132969904
0.03873497092713795
0.185702791931567
0.09203005422624767
0.04302145147096829
0.3225255570142737
0.09994478259570418
0.34051749750316956
0.06363409428987975
0.36165385480755924
0.1394040879914002
0.07619835219023599
0.12188482277382506
0.048877705279514086
0.054977722587090154
0.08468477731556567
0.2666764272712698
0.15140989496435103
0.09587751958694084
0.05388371075438171
0.05874006314917831
0.05189087377568283
0.02901891233387191
0.04816602421319111
0.07045062150435921
0.12751628420165334
0.08618433569765413
0.04448764151596348
0.29239640616494833
0.2601539337705844
0.18439640006860966
0.09886165259102989
0.06271659272850193
0.097603865589939
0.24409616393460748
0.26533470424718286
0.06349084524097459
0.11000350915202584
0.14201731620419744
0.09722920735188234
0.2277051781299687
0.055824194458765415
0.15861970865410074
0.18953382075155667
0.1042639673894755
0.05733344316278962
0.0786707121652454
0.06640295559111294
0.32829329803488483
0.2251435791813993
0.19990390765156843
0.3212599130913099
0.17219101108272225
0.20978087411229895
0.1684004295058711
0.10119147949649246
0.08382800759079491
0.12117293409768268
0.1152181786705498
0.1281131221500911
0.12589836701713225
0.13455739278435927
0.12996309433990946
0.12867867325162077
0.12161849473318982
0.11551127358345542
0.22223586184026797
0.13718835323660303
0.14196934848090162
0.03731323928510243
0.17152283392026998
0.1434665947185378
0.1282349389492073
0.11666007152611928
0.15664258408279477
0.1443402604169739
0.11374195919959629
0.1460076863916772
0.1181009151971185
0.08098550791629286
0.09704632218238637
0.06395836459696637
0.04152528019962979
0.04312186211066927
0.139344766709869
0.15305407518902223
0.16663991286942512
0.20314176738054984
0.062289742581143046
0.07382907512443262
0.06633507705156308
0.11930403911669536
0.08028031637733991
0.0919164690820361
0.09187630349700895
0.11061291696771659
0.35782543082540463
0.08101332837828194
0.38031324466580424
0.3319912630930947
0.27578242708792666
0.10963991803860862
0.2184879808031124
0.19798531350602033
0.12641417902476107
0.13440512479938244
0.2074420996054899
0.09675804461507694
0.1791833384102453
0.13071779825198268
0.11339327016854807
0.1196821401028702
0.1128745650632093
0.13488184132349818
0.09125721796137055
0.12971003521871338
0.11898334666357323
0.08128306812081473
0.04679327445517425
0.04390160384165364
0.14930863389464635
0.057915502505936634
0.20652629057837815
0.20499158914598994
0.1094483532634422
0.22216419766490358
0.15900583594617398
0.1514063809241051
0.12645388204958583
0.14959746892069328
0.03076255483740007
0.03057304203786886
0.048330378906112734
0.10496254901039888
0.149857496164193
0.05501126917983796
0.11235011793367643
0.11753052931376826
0.0874399582223148
0.08627945481842528
0.11422796726639967
0.28381991147293734
0.2253054138056847
0.19766338687069418
0.24571565339040008
0.22745736152236787
0.08978374654102483
0.1992984766561759
0.333487297379576
0.4050905788743859
0.2816699865595957
0.12317592230696293
0.12197103208450051
0.0711843688212278
0.04441824386228397
0.23309572639943021
0.13692855080475771
0.2893417904914629
0.19884285818622965
0.12369526035614048
0.2117790520430959
0.14323833745839487
0.23015251125530425
0.1700421512022427
0.22208728736045466
0.22600689790927075
0.181136910125816
0.0348729951291872
0.03869729390722402
0.1081691951136635
0.29140030470075634
0.08775640692071185
0.12745995650763015
0.04968300201318315
0.08857619521379832
0.1592876374442552
0.24254392998143068
0.1878828484573545
0.14366488509186826
0.14001730752526026
0.19336436824812572
0.20935601190677633
0.16881097329695965
0.06847801591547761
0.21437705818333141
0.2366142092689998
0.18047381124615017
0.09776784341777721
0.12223513981530226
0.08878432559497743
0.10075156090676333
0.09970364693137349
0.07276307586929323
0.1197191054611453
0.06971969716151513
0.15495547873885424
0.08780000715052959
0.11110487444232175
0.17966875606865998
0.163265149560892
0.28540999572042364
0.2414710606647235
0.264890396420446
0.22103180896614377
0.2756878782553726
0.07058385454474038
0.07204184999590209
0.06858100469810241
0.057840114568318945
0.02456318642193055
0.3275737376766933
0.027217682572780316
0.04115075541682572
0.1363535379827755
0.0973094067046971
0.07069377404098512
0.14279192527840487
0.22167489002404175
0.18368246370435634
0.0673754566651369
0.2104997634507919
0.2482522081937107
0.22965892423443016
0.05241163630839013
0.05644089111433452
0.05442687831194103
0.07253075788200383
0.05052325527205151
0.05501284912710449
0.03445032132799451
0.06116674037426877
0.11378704120713838
0.09268837058209567
0.07719273810612787
0.12254760849129541
0.10137012623709252
0.07858868908759756
0.14994805042944287
0.09486287981152544
0.11192670370880872
0.13782324120985495
0.2144662567923527
0.11579112960774718
0.24654623199870662
0.11958355870030023
0.10962733448657193
0.2990122890639923
0.25408354484629203
0.32143824464692844
0.22520211788360364
0.3657274560107233
0.062078317913694336
0.05243023700023765
0.09000091466663679
0.06968921885491793
0.12739096898825128
0.14726945644981132
0.08802173024209131
0.037579432127109444
0.08853945899072868
0.08355026537586915
0.13776278612112333
0.15608894834064133
0.20116294354953212
0.1759905751831651
0.11356777687490668
0.04007948997461579
0.1940810314094563
0.07790487056574295
0.04893601610470842
0.027094513084082526
0.049293668271749615
0.13010928026065896
0.11699353065282453
0.17966606972595922
0.029327681105110824
0.0610130570095631
0.15287624481033132
0.20236442468953178
0.22645213709211398
0.225100805199903
0.2668314738913839
0.24036763830872088
0.2653606200670579
0.25690739401134816
0.24426051635907906
0.05936466777483413
0.050880701334911724
0.04384497090215373
0.1406635849344403
0.1263069101965103
0.11646630176491932
0.2434438514545664
0.20929328175222917
0.14124296251998505
0.21507199128139248
0.2646499661289629
0.21756782188225507
0.14626525673974092
0.14455054578846868
0.22218059769550388
0.31595340972596975
0.1912082466852631
0.09621317031951532
0.10438047041629529
0.10536101429197421
0.1123177739086523
0.27137190054262395
0.13626306967444624
0.09432673093133452
0.020425832728127875
0.02318611254499693
0.020648529592986825
0.014011286177552526
0.2377739152378093
0.15391975121693313
0.12042499776363272
0.2775333607414672
0.3010112062384188
0.24648689427441287
0.20946033323383917
0.24118229439126476
0.18657604359313684
0.16035705802459388
0.1423735044275172
0.2579190018914394
0.11839755851986473
0.11688321636912423
0.09460017976783927
0.10046666354927875
0.2744574270257931
0.2009261555410062
0.2107092989267683
0.17070660002493904
0.18826128762441008
0.17399647894630552
0.3989336937181159
0.24034438148435006
0.23911866872602786
0.3221687105874109
0.3771906641200455
0.27836001838337276
0.22535871219332082
0.1408481483125991
0.2297934353009235
0.09659073648542411
0.05747122762285453
0.22559139499343114
0.2772938580529107
0.13403904924274218
0.3235300180244939
0.22743168929362775
0.21481413058476853
0.2738246923807111
0.2957871458282267
0.053012804150096716
0.32657976549689827
0.3285000939724408
0.17382249997590543
0.07924202181583007
0.21285464749339406
0.11459268790876513
0.13589307098642497
0.1423032035693188
0.10685369149892508
0.08185842284011592
0.08218754274979512
0.09349298627432816
0.22558784784381702
0.09728953375588598
0.17965444601259004
0.1079486369898452
0.10661346091471247
0.10632440192702591
0.20156822977452557
0.0755472306838775
0.07368081503610366
0.050316068233347534
0.06305066850052742
0.09105384199037324
0.07468582683260588
0.08321764003755419
0.036775040600100374
0.18188035570982625
0.14480323619050067
0.1003292492558657
0.20228032105239985
0.18672099107213924
0.2154644780082259
0.1860157923129499
0.1247761931687571
0.08925065814261356
0.07988267034235627
0.04268561847603797
0.07775343020162792
0.08471226949404864
0.028801531582291432
0.06620033364081553
0.047851286238351144
0.09586770823003418
0.12199723262502442
0.125837293070278
0.10345755485902149
0.0943720944776521
0.22573360068481915
0.2122774951142235
0.1777550801397069
0.1831026565766642
0.07329671808067553
0.128128945696816
0.1081091092226988
0.1448189759798813
0.07973784356833762
0.1584766242186783
0.11823095643143988
0.13342859301058366
0.16435654411708114
0.22436481997931607
0.12371154160842494
0.09128765915476045
0.07815060206318276
0.09712460923447706
0.17619093595831614
0.15584178779344793
0.18943293317010018
0.09371960579813586
0.2567697777772781
0.09970824945584311
0.2472583446660539
0.164394189326175
0.38851998167127105
0.22094088237640286
0.08002749843966975
0.17268394347852628
0.14736512384837352
0.28981064128718
0.19289965419398833
0.17232707238023595
0.3138729503072816
0.18686683154654393
0.13375854717193092
0.13795771715525976
0.06315985450079432
0.0847506753777511
0.10132776729148187
0.11564507428512362
0.06871811599860139
0.05822219709063868
0.11926401981812511
0.0843414487660851
0.07563422494957575
0.21068796886826308
0.06100042334043475
0.05492344303270331
0.08016594980257499
0.11498592352674192
0.08530229834472419
0.060450190846687415
0.12479291167662175
0.1820467762918349
0.23063134853223785
0.19276857182885576
0.06987746323810992
0.06654619253237146
0.07248747069543768
0.0607569385753261
0.0551249725861251
0.0874950412803406
0.25434935688829496
0.09349446380361785
0.1347326580856661
0.19878805556781476
0.12645802052766303
0.2153764654534892
0.09272201594588851
0.021304535896360215
0.1171434660019063
0.020968349858458243
0.03648426268935358
0.019318497865678505
0.0156492210258337
0.02243209358993956
0.041869335207416015
0.024676846335580357
0.033671048862121765
0.07829324902760118
0.040407878304546674
0.02722696686799151
0.032322597656831036
0.20222184107128402
0.18446181618596114
0.10811031838146978
0.09459843756107933
0.10874235804746085
0.09957804253825209
0.12315072848067406
0.1851811682933354
0.12458161053739748
0.19605923381188345
0.03891323501075302
0.08277110088837211
0.32401428425682643
0.037417993037704704
0.055905884131676374
0.10548743128514727
0.0818184736655202
0.07902205402738413
0.07560146290728054
0.05799896775748843
0.03986000989642507
0.07490756314424503
0.07462079913408479
0.07223127163654976
0.2646448070596972
0.2135232109223174
0.0833578157070114
0.3107969486944837
0.04367850192762323
0.1925865011947848
0.1032979577849441
0.2901459195146175
0.22864126788882494
0.16290360141556395
0.14173033053226183
0.23923407925426843
0.18676902678157478
0.09544955775521048
0.17750495255529414
0.1390020694720913
0.17298355426290127
0.21267466658549952
0.19091245346529995
0.32037728954217204
0.4060413112989109
0.29054676606084057
0.08129323197629962
0.09840190389106056
0.18243934033857492
0.15560256894103386
0.19681567068902162
0.1481206089916252
0.17584847850506752
0.16205947644458849
0.12168716115152092
0.2318084646276711
0.27707205817628444
0.18634596859859892
0.15764022927849966
0.11567862997047153
0.16900047086045106
0.03532358951388423
0.12097066220068853
0.0386938654144995
0.04047381165158902
0.06977282878712705
0.12234868476677846
0.08691484389975675
0.11172353599191555
0.24175422174252678
0.12469153841122338
0.074849794702635
0.14442167620492566
0.08387610130548405
0.2078778459570244
0.24336778121762687
0.24114691840184566
0.10861721060466246
0.4507910968599906
0.4156391644014103
0.4933962766793064
0.22975341389764417
0.2856000344705027
0.19109129387476612
0.08399272442748988
0.08886214674107454
0.07496283002072078
0.11179250361943995
0.3023626490094415
0.1323930574783767
0.0454498727855245
0.1016147043615028
0.08817800020853679
0.017846218050015943
0.021934789763515528
0.018793475824698893
0.06810175401963454
0.026507576811393815
0.020417572661776892
0.19408874367413886
0.13637514164589049
0.3770048962012519
0.24188547556995718
0.2141518488041387
0.27580451392292155
0.22799914662623957
0.11624401186568116
0.04965923650276847
0.2381311863864841
0.058065843559675964
0.06371824598748228
0.13210855163748703
0.11575439914133388
0.1326959492405865
0.16237789052470147
0.25159375674079054
0.20183111043480073
0.0506699898264826
0.24813013550676555
0.06116552832600067
0.1618528670075027
0.19243145261236472
0.0719263755194192
0.0755923858235527
0.06385971003949993
0.045551894521232275
0.06510274542559039
0.0724685216075366
0.2126822001099476
0.07367906870927159
0.06907438261203057
0.07256278348781219
0.06644238718940126
0.11747722995325517
0.08476632580484166
0.1356493595219176
0.12257504378534481
0.09114730628111749
0.24695628280582244
0.23065284494962204
0.1779981066588226
0.071030291725034
0.19040402119924202
0.2183383116178527
0.18482027258963363
0.16581930751733392
0.23040148489006457
0.21462687534307817
0.3501622794817848
0.13145441651513293
0.14603866071909086
0.07929685751489844
0.14786851931230371
0.04573899966681964
0.06801704970527958
0.07177057151428698
0.06580006512569306
0.06556213549489871
0.13281537401050827
0.24968384102288826
0.22075391796808855
0.10666215288935665
0.11456400080865775
0.19614444329559994
0.06452612936393183
0.10388864586435939
0.157786711992952
0.4025745836465131
0.13188813022933005
0.08695642581826611
0.10132611603955852
0.12683648551888194
0.14090340907206453
0.10863690388692314
0.11799500276252708
0.17418310498063003
0.3159252985608134
0.05347529531616399
0.09644037992317696
0.368996215941493
0.040506203797287775
0.09764545424014696
0.04628295207030478
0.15687134618657403
0.17904887122829913
0.1669482769666824
0.2014617395640269
0.23115169424433715
0.06004875437837142
0.049675128587508714
0.08100109752846198
0.09769082906429623
0.06200560920779908
0.08915201714892605
0.05322753603422949
0.1721037353220695
0.10069849628325349
0.07017030642422359
0.09087241997907448
0.1332779119949349
0.09489375989004818
0.2320538185782614
0.20240159446326092
0.06700171556687474
0.10110128989568178
0.32556458460627963
0.17524065223614455
0.19988117063759095
0.14912333181252005
0.11932475601102929
0.08696153524143765
0.0883286355932062
0.06957985663225351
0.04916246242066237
0.08455572291389579
0.078061566184022
0.13645845636652532
0.12362697096019032
0.11022986810148276
0.08920105092447655
0.09639351009585988
0.14525768076351017
0.12477486605767277
0.145189155907986
0.17538321078845448
0.23775800564183036
0.05763127028609049
0.27355908827886416
0.18935788089987685
0.06779883453577754
0.2102902736369783
0.261656511852591
0.11080100940461077
0.2063224475831744
0.07023152418878566
0.09483250076410162
0.08375964461070107
0.05086099493171217
0.1585035466580132
0.05330473881592521
0.06922162929888345
0.1680095360481281
0.05703878962533762
0.17348654467611443
0.17132715358382145
0.08859604842619892
0.12131085238637736
0.11863234432417084
0.13877263305417117
0.14236659539698027
0.14020765623252324
0.2197101426081662
0.13589531663236384
0.32750785711765773
0.1188083019565775
0.1659428371699104
0.10824855735593758
0.09325063195350895
0.05931516722183214
0.0933449276724943
0.10071706345945362
0.0930601987821327
0.07770377827589028
0.09428682201170295
0.09546757698291297
0.11894378037133503
0.06405172175364622
0.08398021336569317
0.42781686518148276
0.10582156190505644
0.1541657804743547
0.1013060554790992
0.07935890581175441
0.09896942309969342
0.23596225326979658
0.21053650411649372
0.25312801004922353
0.23611041141914757
0.24469041003295403
0.1998827053508112
0.1556208679718751
0.15738453130920702
0.15986307701173333
0.1442959324337617
0.1749074019578369
0.1515131911545488
0.14204696162570452
0.11689119013460103
0.13816750476828613
0.13345010229967916
0.043376744955069414
0.0874063385948557
0.1244870421944212
0.06401708772542397
0.08531772683693155
0.02751899391511605
0.12170174312103053
0.019083106466831014
0.06180895890326966
0.12563054514189698
0.1997013748096185
0.04345816017078032
0.06043506441141893
0.11838562767768339
0.12662131932425844
0.1097476167537773
0.11441157581632315
0.3507917248780296
0.13835556016172076
0.0994447027927613
0.410981435774223
0.19854355894261155
0.1243476110622784
0.38340147490433385
0.2730157914621538
0.1331683851196106
0.18078851480127353
0.18565083431924587
0.17442130415849588
0.09944133923601847
0.11426118216659259
0.14025268506762878
0.4312440823092828
0.18071745775193082
0.14943237721834188
0.09740078807306028
0.09513497934318223
0.053944323469084544
0.06002519304452112
0.03687114488115022
0.028826763065496017
0.10174911200587747
0.039256058103346314
0.10858333530373286
0.13345294365502178
0.11614606752184926
0.05102898373484682
0.07987432499415975
0.09982042416045155
0.07105666749221409
0.08905545411991846
0.05794621548243189
0.0667863477264939
0.02711766383887225
0.0759817075180805
0.17562038490143575
0.03738193774260922
0.04714236551556148
0.14069995418819523
0.11602931015372303
0.11725130631077475
0.18062633683211746
0.1975508947073064
0.14891188697430832
0.2484173010986877
0.14219947935520322
0.1939158751262243
0.17084674976649405
0.21722514615690353
0.13538675859273722
0.14579370904910355
0.0921644500833018
0.11776803509257805
0.1455821769287664
0.10074974580502306
0.13164164225713618
0.2136617278214179
0.12443092434742258
0.02094472977764503
0.0344314039806652
0.031158907149677957
0.03401147879480716
0.0456408061376243
0.2525045473204703
0.13485278655010957
0.0836846745623913
0.22342303264811714
0.2024871514031085
0.06554409150022984
0.19108124696574313
0.20891371475710735
0.11283176655405926
0.09305083049005312
0.037263421391919474
0.037825505685807684
0.02442354539946096
0.03986384177131292
0.02551275669473423
0.1261971829056302
0.0919100697486633
0.06991313123573997
0.04745524300643116
0.03805751756589876
0.19100652831525608
0.04615978131404859
0.18888897618484055
0.14804368817823035
0.21759979215541417
0.029470167208152886
0.057420265395474075
0.05408419397814139
0.016917679869324884
0.02283874228398622
0.04334365932626269
0.017709435673484132
0.011831371803576764
0.030925767466573956
0.022529117160055137
0.02232346384394151
0.022813522020825698
0.04160697859045555
0.03800625772358683
0.03375590608318424
0.0683134425676639
0.03700090799495861
0.17233605814696418
0.21274950836749995
0.027738215754965267
0.02827867248226575
0.02268715667775344
0.03359250135090734
0.028469224412651595
0.1596885095939931
0.07209925375450102
0.053887693314148145
0.044733505883946166
0.13816231051117017
0.28206307062864294
0.28722106587495805
0.27538438812969845
0.24444585289158893
0.2279209794220345
0.29106790310207076
0.09303153312349054
0.18419429050073624
0.05469893326510653
0.04971610313818892
0.06367329322793525
0.15929216886132838
0.07196578269295732
0.3267864464982392
0.34162358081607197
0.09408185783504566
0.27576491829472816
0.28583823506462197
0.27173321112004784
0.3301721841693678
0.38512251333824093
0.30955842729671484
0.028220669052593347
0.3419022053830878
0.08986484137132962
0.32067796294986156
0.05224112771638039
0.05884753308081676
0.04500173960703621
0.04914770540926862
0.10571081381955441
0.05879708820152108
0.06020999537545302
0.026267040511990514
0.11109616781019473
0.2691168298053934
0.3210861769263833
0.22005302233082835
0.055304333752207516
0.17326150350919992
0.3261591455892968
0.24701822945815807
0.23963780321528047
0.21554663220137465
0.20398770037730973
0.23457602817158785
0.21807015970643792
0.17943804377996714
0.11614657344925076
0.1357894593227846
0.08116854419198302
0.14337398922283442
0.0626308476347039
0.15792069367732395
0.13823238197972312
0.1662620303623925
0.1875784077322294
0.27866553727390075
0.18848965051127858
0.17747044739803083
0.22013757014790633
0.24140773043945152
0.2296922294477646
0.22030407335173166
0.3138656990362528
0.1596654129822283
0.12259101016755239
0.13774828941171383
0.09698737138544314
0.11564032827312802
0.25694783723893705
0.06351362300739063
0.18296389568484453
0.044743041855950766
0.15925823487199622
0.13779091928099485
0.11188228294697938
0.1137839431774522
0.03470826136130531
0.04529133944710421
0.047872295685456465
0.0356457475368198
0.029803942005241318
0.06782185714680065
0.04174354599276644
0.1053887245272939
0.11346314826126451
0.1567941548113053
0.13102622287930693
0.2312467329221363
0.2606047575252371
0.2665240422779787
0.2051823125392867
0.1963684959912247
0.2095109433884509
0.045122917725734714
0.17855842567731042
0.41716864279629357
0.42339455032390466
0.30824173106308006
0.195857966445299
0.18813560821351302
0.2896497645731795
0.06534099871999872
0.1735645174351154
0.25724484476038273
0.03231519972677022
stress_iload_1 1 31305 float 
1.5170383844874525e-11 
6.7423933478794e-12 
5.539266874813365e-13 
5.549966000862037e-13 
1.8127018193035413e-12 
1.2248002506497879e-12 
1.5618141553098973e-12 
6.013742996507925e-13 
7.815841656223954e-9 
5.417324418898539e-9 
7.266661511454791e-9 
1.017899840789355e-8 
7.297983870603825e-9 
1.920219984710449e-8 
1.488081156110825e-13 
5.781792995457981e-14 
5.92313937530084e-12 
1.1157703991531854e-13 
5.487496084518923e-14 
4.5376479965315466e-14 
7.103319411943209e-15 
1.1958146869994154e-14 
8.020727450084061e-15 
1.096434151140089e-11 
3.19568201975472e-13 
1.1312455890794095e-11 
1.6225609026793078e-11 
5.479413423720514e-8 
9.228674508603106e-8 
9.08233828654582e-8 
8.879778240750096e-8 
3.7100471537183295e-14 
1.0197419563583166e-14 
1.67721314506709e-14 
1.0808685181326369e-14 
8.911577378946249e-15 
1.6772940072585593e-14 
2.1410778507037715e-10 
4.0574041702596525e-14 
1.9217031271475573e-14 
1.8860163779129732e-14 
3.951655228298987e-14 
1.6101797612151942e-14 
2.0872408029348796e-14 
3.510793612263716e-11 
2.008019570880378e-14 
1.6057104243623653e-9 
1.3710873372284617e-9 
6.542391298984582e-9 
3.025855891752288e-9 
4.74425150726721e-9 
5.931073381194084e-9 
0.00045989235724852844 
0.00032787010351926365 
5.864285032916728e-7 
0.0005156345090002811 
0.0006746507189346959 
0.00046328555074067666 
0.0006640874263381791 
0.0004279591450051093 
2.4921256435555487e-7 
3.5800188341356834e-7 
6.758504063484229e-7 
7.596302782370334e-7 
4.6311614053943643e-7 
3.0242181367066967e-7 
1.8363029794205281e-7 
1.496279920765802e-7 
4.5495253574074235e-7 
4.5902610838679444e-7 
6.544864047154244e-12 
3.719351184100174e-12 
1.9114032977794047e-15 
3.043846631409685e-11 
3.954902663214625e-11 
3.781895705389197e-11 
2.1546443963695455e-11 
2.195995834360672e-11 
2.3336621309163696e-6 
1.561394465296108e-6 
2.3585115306679342e-6 
1.847716830930779e-6 
4.577342484965024e-9 
2.8138040196459047e-9 
1.7244620009070874e-9 
8.340076621601264e-10 
3.5505086805414727e-9 
2.325940807842126e-9 
5.720158114806397e-15 
2.8626777540645285e-9 
2.2306520735798696e-9 
8.230819392919791e-10 
4.219384471480598e-9 
1.7144760156742486e-9 
3.064107909920402e-5 
1.881833499921602e-5 
1.2573334310093151e-5 
2.0294608576093632e-5 
3.786010648870693e-5 
1.6919984320625635e-8 
3.264238119296345e-9 
5.251813069284636e-9 
9.856879392880682e-10 
7.5733965835995e-9 
4.648481897872919e-9 
0.0040539552963381265 
0.0016273925162439175 
0.00263264755214187 
0.009475723612847944 
0.005064272522692107 
0.0018566483582038583 
0.0009438282747393764 
6.149615542076249e-6 
7.332576587263984e-6 
1.0148910398797693e-5 
1.1594516915600108e-5 
5.3314212685028775e-6 
0.0033940486693615724 
0.00196541888062251 
3.4976575458370347e-7 
0.0011601705063246234 
0.0015211922144090255 
0.004158246742298249 
0.0029619422775701873 
0.0013846733061636917 
6.409763986924877e-8 
2.6534063546394704e-7 
5.18545878567078e-17 
3.7479568874295353e-7 
1.8995329509942252e-7 
3.6339527765801633e-7 
1.2870954447361789e-15 
1.564729153165909e-7 
2.9087090545217325e-7 
2.8695377916592876e-13 
3.308057084483408e-13 
4.790742814755191e-13 
4.296012389881091e-13 
5.16543440375746e-13 
1.05436871663398e-12 
2.9791328312744646e-13 
5.510631278946408e-13 
9.568654940081282e-13 
3.5247164757256706e-13 
1.2744647885475532e-13 
0.00010329133736808042 
0.00022336426155984194 
0.00010934397092453848 
0.00012523416603477987 
0.00016248477935450106 
0.00019516362778820005 
2.2681709531296966e-13 
1.8235031389595084e-13 
3.7174012135125897e-13 
5.657274793900001e-7 
4.0546490361023724e-7 
2.9063103316583385e-7 
4.5847684123247824e-7 
1.3664933448678797e-5 
1.9634279943249763e-5 
4.323321834557883e-5 
0.020163126950607853 
4.647209072118833e-13 
2.7635715494675818e-5 
1.2135693904548542e-5 
2.0022461329033675e-5 
1.9325413547577607e-5 
9.596142786745529e-6 
1.2494363989455299e-5 
1.417787764080499e-5 
1.44896460517527e-6 
1.1104415258670246e-6 
1.3058536986846142e-6 
1.6923072697394683e-6 
8.735266659577391e-12 
9.87336036235295e-7 
3.3695994521006723e-10 
1.189918411359046e-16 
8.677549418690769e-7 
9.567258662787047e-7 
5.635167087900924e-15 
2.1753938340316663e-15 
3.3685356354397344e-15 
2.9400909026681254e-15 
1.2016543878248688e-7 
1.3252537501404403e-7 
1.0667924352141861e-7 
1.0245944124448853e-7 
4.861024926876653e-5 
1.12884351286605e-7 
1.4758617718086505e-14 
7.32364844755059e-15 
8.807143287909614e-15 
4.709427662012757e-15 
6.520991241273579e-15 
8.03647747342952e-15 
1.0431895449288265e-14 
5.879853168519043e-13 
3.432045228001539e-13 
6.41444608093252e-13 
9.646502529913174e-13 
4.815906659081454e-13 
8.746073381716331e-13 
8.978786966461782e-17 
1.1405480942972552e-12 
0.0016445869878146315 
0.0006929740809747316 
0.0008592970547361763 
0.0003165783129601636 
2.3294688230306736e-17 
0.0025304143231955935 
0.00016181885326430233 
7.836027999341547e-17 
0.00021396011127717326 
0.00024245911042925492 
0.0002790337553037827 
0.00019681854101323519 
0.00035498193636960494 
9.452032623992399e-14 
5.6615180231586053e-14 
0.0009582033558161452 
0.00033750955311965815 
0.0005576310296501088 
0.0008382573531345992 
1.9859894652558587e-13 
8.664263606035945e-14 
1.1054566487699508e-13 
3.7334107158083994e-17 
1.169563114826681e-13 
1.9221887038125595e-13 
2.1989649367935062e-13 
5.236381364084196e-13 
1.3464175730551833e-13 
1.5338911716672068e-13 
1.04421553831418e-13 
2.643013276319356e-7 
4.1321376271332436e-13 
2.4699437749372376e-11 
1.7683849857246924e-11 
2.451977198486648e-11 
6.164127193669951e-12 
1.5498206668010154e-11 
2.3121100429948994e-11 
5.998979390097953e-12 
1.5695234427455372e-11 
1.2263052186213942e-11 
2.273996413886164e-9 
5.521727172320174e-9 
4.958225715425043e-9 
1.7260986308124013e-11 
4.085620811825891e-11 
3.8938249685638003e-11 
4.741769230469254e-8 
5.2577307802010997e-11 
3.8240724334904046e-11 
6.274742691652548e-11 
3.420157763711148e-11 
4.082558696476408e-11 
4.254081376205263e-11 
3.266910402089084e-13 
2.1441099982302221e-13 
1.1251759526772113e-13 
6.556145900623832e-10 
3.8042086407432914e-9 
2.2974205663061666e-9 
2.4353367047045796e-9 
2.5399444834785653e-9 
3.90642165321679e-9 
7.539104593208982e-9 
0.0017800722573837247 
0.000848289673308136 
0.0005791953170782992 
0.0007168046195307061 
0.001508770370851431 
0.002474594431057115 
0.001699178553953729 
0.0007501359569741018 
5.6897795361326805e-6 
3.2346898301466628e-6 
3.485924864399036e-6 
6.884880193592827e-6 
1.5270244850520518e-14 
2.1986013471937966e-14 
2.267619025651159e-14 
7.114191689411745e-15 
5.37620569613734e-15 
8.77431292095188e-15 
3.9381072958663e-15 
1.2672149727645114e-16 
3.3697842094189986e-15 
4.854781656034343e-15 
3.280461736956946e-13 
2.352868730090904e-13 
4.873824448514824e-13 
2.511731262938883e-13 
4.2057769172580975e-5 
2.997174591262485e-5 
4.933296856427276e-5 
0.00020488379239233152 
8.526971747197143e-5 
0.00013836219629620688 
0.0024854449803410404 
0.0020559081833840006 
0.0032669781612625157 
0.019047077663465767 
0.01163294060557174 
0.006144481057508141 
0.00439435698158339 
3.2776314401636544e-15 
5.536432643063457e-15 
4.572408549567441e-15 
3.869904666966845e-15 
1.0609786127357501e-14 
4.993618412325836e-15 
5.3998542138819715e-15 
4.806731472978789e-5 
0.0001436161800800817 
0.00011889324133550037 
0.0001786834166577922 
0.00018161089989854163 
1.1797856019462424e-10 
5.0173929481824484e-5 
7.863837922807544e-5 
7.010332713823739e-5 
4.557635597710447e-5 
3.2287075249127293e-12 
3.6171855919329713e-12 
6.51217866009571e-12 
4.262931605785299e-12 
2.5100975259504464e-12 
3.2819095949219025e-12 
2.688929830890708e-12 
0.00015691766004257758 
0.0002048873904184973 
0.0004640643306598045 
0.0001396541283325408 
0.00039646512130234944 
0.00019036382636349083 
0.0010288628462465383 
1.0555056742553907e-16 
0.0005565393524113587 
0.0006974008725807569 
1.0242855638384142e-11 
0.0005873717719466852 
0.0011595670524414908 
0.0008574217987166879 
2.3720127799410473e-8 
1.7656095057713455e-12 
2.7318944237516952e-8 
1.6139717071728725e-8 
1.2523353534838651e-8 
1.2955151466623795e-8 
0.001577883274556808 
1.0790308914543458e-8 
8.86398245917345e-8 
1.8463857320780837e-7 
1.7783970106463908e-7 
1.1521076429582294e-7 
1.267577580113379e-7 
3.756536056949476e-7 
7.073224107788522e-12 
1.8137683217668234e-11 
1.1114574899384179e-11 
5.5329692567775374e-12 
1.725488039862847e-12 
5.0147115053030133e-17 
6.637913494585723e-12 
4.256507450508571e-12 
7.437349782991338e-12 
9.169339774358114e-5 
0.00013926311236384757 
5.491324063032907e-5 
1.3224829728684071e-11 
6.71192182250005e-5 
0.00014800095327904703 
8.894173244949731e-5 
7.024283466934688e-14 
1.200436818148294e-13 
5.298558691273286e-14 
1.1531820390783172e-13 
8.347962912757912e-14 
1.2887326524358237e-13 
9.039731890846913e-14 
7.772787404301798e-14 
4.351765200691908e-14 
1.0953579873003234e-5 
1.0329890668575125e-5 
5.208225684455703e-6 
3.2284157603218876e-6 
2.296366823140587e-6 
1.223992643675611e-6 
7.65917403121367e-15 
2.5115987321147036e-13 
4.5873665822538285e-15 
3.708092212224887e-15 
3.02892500086347e-15 
5.68616993336323e-15 
1.0869163136598297e-14 
2.2110134102493036e-12 
1.0514873672730339e-13 
1.3615152350651097e-13 
3.709791556967165e-13 
9.500165671143174e-14 
7.470810149371098e-15 
5.235593760079365e-15 
4.9165753492793156e-15 
4.2273470485335e-13 
1.3965455545739053e-12 
1.4842357927021511e-12 
4.2780475488248387e-13 
2.049055480864914e-6 
1.916034033721713e-6 
1.042812471042008e-6 
1.5907514610172444e-6 
8.499203366069393e-7 
1.5555418564669455e-6 
1.82283243170461e-6 
1.4417454412818327e-6 
7.615371640727882e-15 
5.42419899179133e-15 
1.6885140476269463e-14 
5.980084065250014e-15 
7.083687843902767e-15 
5.128059285459686e-15 
5.810964589407382e-15 
1.5977854872959762e-7 
2.2350981007333918e-7 
2.7360611664784846e-7 
4.649183031126818e-10 
8.754686371102783e-10 
4.4045582494794295e-10 
1.6047532589366621e-9 
6.257650158959201e-10 
7.059501114432019e-10 
4.5458622620377024e-12 
4.395899917073457e-12 
2.045236574802515e-12 
7.442474484116698e-12 
5.795729324630131e-12 
2.149867267369531e-12 
2.654257807085598e-12 
4.656896206440182e-12 
2.694672530804388e-12 
2.360509871976528e-12 
1.9573407221326494e-5 
2.0456462124474933e-5 
1.1304302317466258e-5 
1.5084737180644255e-12 
1.4328676718824541e-5 
1.067832721318709e-5 
2.5881369496355264e-10 
1.8601663088557902e-10 
5.746853784101508e-10 
3.7101561929799617e-10 
1.837171827728768e-10 
2.364293483806694e-10 
6.649125899718885e-10 
4.781663229281146e-15 
1.3568250871097232e-15 
4.425594785522529e-15 
2.0073878469316467e-15 
1.3045096566760682e-12 
5.0299024313924966e-9 
2.640801852012129e-9 
4.950866084114054e-9 
3.3766548385835144e-9 
4.550679837067531e-13 
1.5436970961302202e-12 
7.805005309528072e-13 
6.067149111810449e-13 
1.1590710174301186e-12 
8.743875011224963e-13 
1.6135275352871819e-12 
1.2793124825983359e-8 
5.5972063709128595e-12 
5.222886951035727e-9 
1.5245099586905956e-8 
4.6847075146658706e-9 
8.359241289746987e-9 
8.683176489015562e-9 
6.400262860153424e-9 
1.3053891961180652e-11 
2.5760945838696852e-12 
6.728243296422061e-12 
9.324545347853584e-12 
9.13977739787817e-12 
0.00014670569009569368 
5.360342708927712e-5 
5.767610571098916e-5 
7.123697064025579e-5 
9.406231421574585e-5 
4.830949024440988e-5 
7.993851471874292e-5 
2.936059058625314e-5 
1.3987338027284098e-5 
3.779577000532787e-5 
4.015845130226577e-5 
1.3436614043753789e-12 
2.01682712807546e-5 
4.654343365829717e-15 
2.8574094221777724 
2.510772817110986e-15 
2.852507397671256e-15 
4.1095103214344165e-15 
8.352229057962195e-12 
3.599221686938717e-14 
2.882261883074309e-15 
3.69824817735125e-15 
4.8324017807303454e-15 
1.4562050831487907e-14 
5.832574017553434e-15 
7.440645591090483e-15 
3.4934344356573172e-15 
2.9481974582740332e-15 
1.118974880197753e-15 
1.8473709708098554e-15 
2.1459165058976348e-15 
1.8609027698652356e-15 
1.4667330809187001e-13 
5.20471163241044e-15 
1.7192092468536837e-12 
3.2226717044192166e-15 
1.120329450653646e-15 
1.4550643564582066e-15 
4.539840238353379e-6 
4.732266360290911e-6 
1.7414703374035926e-6 
1.2282706066690805e-5 
4.015157102342956e-6 
6.496477415131756e-6 
7.1315942168267285e-6 
4.914753022604814e-6 
4.329155416224017e-6 
8.227877435375074e-6 
4.583341022675077e-6 
7.457666262555288e-6 
1.4724057834553276e-5 
4.160753815555051e-6 
4.666028462343515e-6 
9.173511960279055e-6 
6.026365559404233e-14 
4.039012053491718e-14 
9.764191562820839e-13 
6.089965268432068e-14 
2.135561177453648e-14 
3.1332680456917887e-14 
3.7987867881483314e-14 
6.921426985271924e-15 
1.0965961464734822e-7 
8.552947339161633e-8 
6.370391885846358e-8 
8.22545741318358e-15 
6.463988232404852e-15 
4.541989601493458e-15 
6.009491629641828e-15 
5.052717121957341e-15 
9.432314141297684e-7 
1.9699150072367193e-6 
2.3214652049806918e-15 
2.5430093929402057e-15 
2.3951849009407185e-15 
2.9923571138007217e-15 
2.247320913788688e-15 
1.4972644982767396e-15 
1.8618210450305516e-11 
1.7509378682126562e-11 
2.411363802445761e-11 
8.069661499528094e-10 
1.7131628040143941e-9 
4.450953398080025e-9 
3.5179917724748814e-9 
2.5781004487146124e-9 
1.5590895585006155e-10 
2.4202535430313345e-10 
2.413683297832491e-10 
1.1876326900222641e-10 
2.3045873356974233e-12 
2.372895024263853e-10 
8.6011617029249e-13 
8.180957510944267e-13 
2.1021946728908092e-12 
8.053148316105399e-13 
9.183808570237169e-13 
1.4803255769399641e-5 
6.392363981860468e-5 
2.5640982740713912e-5 
1.1785919207318573e-13 
3.281240388609729e-14 
1.1076208737756675e-13 
1.5607280937566872e-13 
9.796270329490394e-14 
1.8233786271146495e-12 
5.121096062785564e-14 
5.965226835506537e-14 
6.990332554027997e-14 
1.1162961010303815e-13 
1.5374987292791298e-12 
3.2570571567028654e-14 
4.7783415229557656e-14 
0.011146449139178985 
0.004424974164722675 
2.004311183600763e-12 
0.0009268781846130228 
0.012378146208056946 
0.004924455230538584 
0.008546067479384356 
0.008801823332669016 
0.01135372482869781 
5.603468110595162e-6 
1.1332446125557944e-5 
5.5803116471028894e-5 
9.005110075423887e-15 
4.116343978825961e-5 
3.05487022839271e-5 
6.313430531686697e-6 
2.4532996354650885e-5 
3.484841695770767e-7 
2.496067144058237e-7 
5.464558610024327e-7 
4.212426408548851e-7 
3.437864292763809e-13 
7.480147397473782e-7 
1.0005228535811101e-12 
2.588116446409872e-13 
2.7694828454596407e-13 
3.4412695121789973e-13 
3.6261267795770407e-13 
3.4590670810468737e-13 
9.06732731508848e-13 
5.729056724493411e-13 
4.4610466569379246e-13 
3.1919962864237737e-13 
8.545584683355213e-13 
3.140373536637652e-13 
4.70727551172972e-13 
0.003932580194297273 
0.0015169307385390289 
0.004115262928914414 
0.002242080402332915 
0.0012188615285348306 
0.001805254140915265 
0.0011415140085378735 
0.008671253007679867 
8.631009677415595e-9 
0.021054351692547862 
0.05540576165997764 
0.03752217877383247 
0.013186778771136894 
0.00824700230434021 
8.161807280856667e-9 
9.464297992066135e-6 
2.336175175286029e-6 
3.991303053396962e-6 
2.580792005855206e-6 
7.360547371075656e-6 
8.962899428313022e-6 
4.074491223111002e-6 
5.832109729474237e-9 
7.959642529493437e-6 
7.93953265682889e-6 
0.0005159093378188995 
0.0006644481575069244 
0.0007289276679310424 
0.00037602877505700055 
0.0003578469010660669 
3.092540999011142e-11 
2.9097347965557442e-11 
6.00621575932098e-11 
1.451530906945255e-11 
2.3546478039993166e-11 
5.668098509359515e-6 
8.043272930292869e-6 
7.69386970316801e-6 
0.0004686848475426458 
6.624250385776132e-8 
0.006414116338044183 
0.001286368501812554 
0.002270576129720072 
0.0008957602739356228 
0.0025629882776449947 
5.0711057925547096e-8 
0.0008829590244061086 
0.0005988724305541247 
0.0036525391238702715 
0.0039821302137842355 
0.003457912506183116 
0.0012988075229501028 
1.5407359561509811e-7 
0.0008439414219340318 
0.0005120861135435095 
0.0005546831361526466 
3.0174484323170246e-6 
3.005820053492147e-6 
5.926824394056067e-6 
3.5000687350608025e-6 
4.733620575809325e-6 
3.740648864437484e-17 
0.000499538293486366 
0.000290417175362788 
0.0006762213888224117 
0.0004552633550546032 
0.0003397014712278603 
0.0008692831929026084 
0.0006538550751462721 
0.0004277727033589884 
0.0005068880050946323 
0.0005206528139683498 
0.00022989877133895644 
0.0007757901833190958 
0.00035650924320251485 
0.00025543039746972755 
0.001049443032225598 
0.0002106741851124951 
0.0004675421478856244 
0.00038286846265973086 
1.2361488796626571e-8 
3.3724757081879245e-15 
5.4603319738570444e-15 
9.721833890263353e-15 
1.6642283300791986e-14 
6.7318518818203206e-15 
1.3764590490648043e-14 
1.563606729543572e-14 
2.4089697036070566e-7 
1.6642005363286436e-6 
4.272874535817459e-7 
2.6662546263242905e-7 
5.166955268036963e-8 
1.0915001410624158e-6 
1.235557793381637e-6 
9.982771423718514e-7 
1.7222493596676067e-11 
7.69383762709643e-12 
1.6913477676800228e-11 
1.2119970752932583e-11 
1.9251005798439195e-11 
1.3756170575432825e-11 
7.371275614932233e-11 
5.979839336013914e-11 
5.096267675632942e-8 
1.1496036821170682e-7 
5.564507714962054e-11 
2.3636994304833018e-11 
2.8856340881645073e-6 
1.159214357806698e-6 
7.482684451479907e-7 
4.640829654750687e-6 
2.5330140796050806e-6 
7.57486821359013e-7 
3.7335272283544164e-7 
1.2987949454508915e-6 
4.341752831795201e-6 
1.495258750941418e-6 
2.025279596751948e-6 
1.8402439538368805e-6 
1.4549131608633336e-6 
2.1307579967594162e-14 
5.712854185495379e-14 
1.1693419140407242e-13 
1.296329101464196e-10 
8.158302199425268e-14 
1.001540839123434e-13 
1.1334032907367732e-13 
9.309257903591893e-8 
5.414502267707091e-14 
2.5983186236020014e-14 
5.73763719556392e-9 
4.8776468437577416e-8 
1.3367215062967852e-9 
4.10191348644185e-14 
8.518224385601402e-13 
3.1881976840145704e-9 
4.78464699380497e-13 
5.815542341184413e-13 
2.047878309280595e-13 
0.0013393197769291834 
0.0006727681692784304 
0.00249874233027978 
0.002164342300815308 
0.0009159284044926357 
0.0021045809979300394 
0.0028822178367377276 
1.6547029096179366e-12 
1.5886389726838272e-12 
1.2382579455023929e-12 
1.2152102233342646e-12 
1.5164892497948191e-12 
1.4594124546266582e-12 
1.498875928625073e-12 
2.0597526605191172e-12 
3.9538926684742855e-12 
2.6066611713122942e-14 
5.2801816710524115e-14 
5.754673665617126e-13 
3.5505453204621794e-14 
9.392974576434414e-11 
6.77408845916044e-14 
1.4659248740424466e-13 
4.640618566564335e-14 
1.0280923620465029e-13 
4.2624972258216256e-14 
1.1830721623639486e-6 
1.7769537346261723e-6 
8.884729570394328e-7 
2.2284307983937782e-6 
1.0672470073661054e-11 
1.7229323408023825e-11 
1.5379572519011822e-16 
1.9852054661920606e-11 
1.5926770109027413e-11 
9.527399728666485e-12 
9.890882956513668e-12 
5.178083067700564e-12 
1.5799901568449132e-11 
7.451002076081703e-12 
2.494396088409861e-9 
3.061633132551317e-13 
0.00016982342164934596 
2.552944162463909e-13 
2.9953470952059013e-13 
5.693552440293597e-10 
9.638712056624172e-10 
4.790442343454534e-10 
2.774115880722843e-14 
2.119480299397502e-14 
6.793125311055967e-14 
7.48133528832087e-14 
2.7880353556018092e-14 
1.5473341122335454e-7 
2.6152427699379443e-14 
6.494465006708271e-14 
1.986816372118829e-10 
2.394426479351201e-10 
4.47158923559437e-10 
2.0118481918914523e-10 
2.24355008867823e-7 
5.254557683651479e-7 
2.509669946515162e-7 
3.1237946018250203e-7 
2.2898306404064115e-12 
1.6785626732313328e-12 
1.425268235959118e-12 
1.0653491674523532e-12 
2.2258106459779184e-12 
0.0001854293577009631 
0.0003776445518061168 
0.00018851724135720763 
0.0002221318529135967 
0.0006634338023375338 
0.001191527503590472 
0.0005394846454826691 
0.00037548314083029623 
0.0008614696129543249 
1.2243831062733382e-5 
5.56446026845097e-6 
2.568317914272924e-7 
2.28010123507175e-5 
6.217288301576014e-6 
1.4766943501977607e-5 
3.0013404249095676e-15 
2.3638796706962093e-15 
5.699071481350147e-15 
3.561036025682326e-15 
2.613730842669739e-15 
5.887457609219785e-9 
3.1361524857689086e-9 
5.930974900645065e-9 
5.166350917717027e-9 
9.602942402854807e-15 
5.397449842956668e-15 
5.149471263708157e-15 
2.87100654741052e-15 
2.309129576976573e-12 
5.869981171430416e-12 
3.253666880023085e-12 
3.7653079695150884e-12 
3.153118426229356e-12 
4.648592252670138e-12 
7.913807343070616e-7 
1.1171377657317189e-11 
3.701458969542081e-10 
5.768120909007278e-10 
2.490629032030247e-10 
3.028781786743312e-10 
4.487542151044965e-10 
2.1471574652860904e-10 
1.196172761146233e-8 
1.7318420322967434e-8 
6.100016349530026e-9 
7.582591414256153e-9 
5.426431802597865e-9 
5.403937110740773e-9 
6.99557151189583e-9 
1.0147615903489288e-7 
4.093786326090161e-8 
1.194789010663459e-7 
5.633545656422986e-8 
9.805572497414956e-8 
3.119530800941955e-6 
3.388106743281845e-5 
4.934722336770334e-7 
2.793708554501577e-16 
2.297731376023178e-5 
2.8499645688161334e-5 
7.373627505621049e-6 
1.1498779952500433e-5 
1.6725938518834127e-5 
0.05872911785766306 
0.11689603739603474 
1.1722970923109992e-9 
2.0054579129076207e-9 
5.993909223046441e-10 
1.119098873794607e-9 
9.946590708865796e-10 
6.886992799932385e-7 
3.784668224259933e-9 
5.447844123580603e-10 
5.1014234003640173e-14 
7.220038955370758e-14 
7.989860020486456e-14 
2.540384278199165e-12 
8.054325163993764e-13 
4.845031581849219e-10 
1.4464664624712117e-10 
2.0612157516571027e-10 
1.4412096741169393e-15 
1.5087319681606606e-15 
1.684815734185098e-15 
1.756798113350944e-15 
1.7531553446793162e-6 
1.6951401763876443e-15 
2.522635282071587e-15 
7.412734280970665e-16 
4.711209325842816e-8 
1.4577171635268704e-7 
3.8899465929928597e-8 
9.128432013859186e-8 
9.825382265206766e-8 
7.983040993024028e-8 
8.871188310266366e-8 
0.012692811604817989 
0.00243780010929426 
0.0021007947675071603 
0.011379149933366854 
0.00717312438670961 
2.879340141018012e-8 
1.7889355912329433e-8 
1.720438930837093e-8 
4.7746601519688786e-8 
5.621510931026747e-8 
5.46627567874149e-8 
1.9725561579133022e-8 
2.4806733302524057e-8 
5.7627915856396686e-8 
2.8384398941352636e-8 
4.66835527566007e-8 
2.8701117525813405e-8 
2.9959796455236586e-8 
2.8684354428550987e-8 
4.442869822439342e-8 
6.996275670894815e-15 
4.295771220611963e-14 
1.4222498202404868e-14 
2.6068520480861876e-14 
2.5578417294295315e-14 
1.7278253704246274e-5 
1.4736995105408674e-5 
3.273987272805026e-5 
2.1394482198509104e-5 
1.3720607088421084e-8 
1.5167521612377868e-8 
5.116712178850127e-9 
8.288029354354975e-9 
8.059929156127968e-17 
2.6922319278888456e-6 
3.3616442254649613e-6 
2.499561773613812e-6 
1.6224619650500473e-6 
2.0597081207159057e-6 
1.890826489010462e-6 
1.1870102403735133e-6 
5.047653157595659e-7 
1.3719151499548538e-6 
0.00031998322701657283 
0.00011570758040921661 
0.00029502250228934877 
9.611750126257627e-8 
0.000157888729738282 
0.0001848363714823917 
0.0001944481535850327 
3.579675031675265e-7 
0.00040863194240576623 
4.4768169322963416e-13 
2.2645394814376883e-13 
2.2296303375151047e-13 
6.615134057734992e-13 
7.713412954546237e-14 
1.3401279721063805e-13 
1.059686515211211e-13 
2.572093601668145e-13 
2.4402263325371413e-13 
1.8106857680812231e-9 
2.4704290840302354e-9 
2.024345103063686e-9 
3.3689649802951275e-9 
9.645176303741392e-8 
1.641642400423228e-7 
4.83900834058377e-7 
3.358621848385594e-7 
1.0149949433692824e-6 
2.0926442869872908e-7 
0.0030389212888795336 
5.00389563715699e-6 
0.01836974632928941 
3.481185343105498e-7 
0.002230683179201335 
0.0067892498786738436 
2.89511986858384e-14 
2.4331519475661127e-13 
0.0001696345293055751 
6.306080797917182e-5 
6.123509354077855e-5 
7.609717316514303e-5 
4.7467159632487816e-5 
0.0001004772204742771 
0.00011690726339895413 
5.379784001415242e-5 
3.6163152225246267e-6 
9.262537512443931e-5 
1.0146328683762353e-6 
4.053897157381997e-6 
3.3008529784872696e-6 
2.804445508553869e-16 
4.777349486195633e-6 
3.5928834757231474e-6 
1.6535395750796986e-6 
1.7814092778214943e-5 
2.624837753607296e-6 
0.0005929943940021689 
0.0005132914053416455 
0.0009775558548800502 
3.0724709066759494e-10 
2.2755021511737756e-10 
8.882250378667239e-11 
1.9362212852183442e-10 
1.7743917618567765e-10 
3.674501922272561e-13 
2.471139572462084e-13 
3.975031776791438e-13 
2.3226679140238195e-13 
1.8206167981652076e-13 
3.1119660542826345e-13 
6.077457089941069e-13 
3.801380134097509e-8 
5.432812192710646e-8 
1.7569075298196957e-8 
2.1647558465316902e-8 
0.0003582991054388987 
0.00031112621072220623 
0.0007884599478077673 
0.0003787579543397507 
0.00017686579654477101 
0.00019031804141409492 
0.0007338203646725549 
0.0009039510035008071 
0.0003235180776287694 
4.882346197574562e-10 
3.0531099641406514e-10 
7.316969787642311e-10 
2.3847957432663187e-10 
2.6197685283626257e-10 
1.610906058061448e-8 
1.2359801129596286e-8 
5.564645212794567e-16 
9.519112133668283e-9 
1.2552691329542647e-8 
1.7416602334490338e-8 
9.79175802200234e-8 
2.1553772473767778e-8 
3.8504857308872044e-8 
3.433914558190904e-8 
1.5851544959448293e-8 
3.2823372549154285e-8 
5.895164633498421e-15 
5.0817030114741175e-15 
3.3138847995745283e-15 
4.641524886241367e-15 
2.801236031010201e-15 
2.9397655592100992e-6 
5.830956087256954e-6 
6.178889286000589e-6 
3.5976182786922365e-6 
4.311081337637079e-6 
2.5077808618234726e-6 
7.438420030541962e-6 
0.0007273247947046374 
0.00038628254768700783 
0.0005937585928636146 
0.00032568407138363486 
0.0002778941003036625 
0.00026178213724885904 
0.00032021297038873606 
1.396038169131036e-7 
3.6394014958457595e-7 
2.9050648719542055e-7 
1.4255463153323914e-7 
1.6598751733299275e-7 
2.2985855872735604e-7 
7.167104881282335e-7 
2.5336258298060616e-7 
1.65980602881158e-7 
1.8142601921752864e-7 
7.230873010098574e-5 
2.0675979890251802e-16 
7.57703320035515e-5 
0.00018122864987754972 
0.00018664766882479082 
0.00011895075726895864 
2.6959283959601284e-15 
1.1008323147411343e-15 
2.3956381438504387e-16 
2.0676858799308297e-15 
3.2989398899464154e-15 
1.8904926105234944e-15 
2.601202588143639e-15 
0.27061537284094556 
0.7370501502961135 
0.09207627645320332 
2.058844092439757e-16 
0.2279526440654788 
0.6255832532214127 
5.242587458192682e-6 
1.4425166816647354e-6 
1.9425584387425854e-6 
1.3606817220350775e-6 
1.5928399425346267e-6 
6.56232614874054e-6 
2.063763442373876e-7 
1.1118284512504115e-7 
4.3860866150414633e-7 
1.1922691686717462e-7 
9.669970772328883e-8 
2.31968305544871e-7 
1.391714039457641e-7 
0.0009301789169016187 
0.0003545496171047587 
0.0004814413505133609 
0.0003310408408004829 
1.4749135054284703e-15 
1.9227991492391908e-15 
4.172604204600493e-15 
2.4948616950186204e-15 
1.9396931708290833e-15 
4.480959849531163e-15 
1.1293743748111478e-14 
7.727378392610383e-15 
3.798324346139689e-15 
2.571683946116604e-15 
1.6616586671118327e-14 
7.317848716856629e-15 
4.339816346953937e-15 
2.621336770808503e-15 
2.866722108595621e-17 
4.927204311218764e-16 
2.775024047692381e-15 
7.657909583408887e-17 
8.335443134785423e-15 
0.011516870782979742 
0.007990842633884008 
0.006067327426927603 
0.013284267043520991 
0.011061057127949855 
0.009187232672077083 
0.007599196238617318 
0.006492384150493998 
0.0025699822775284067 
0.00395837523036031 
0.01790596914771882 
4.924856303046639e-16 
0.0020208249420005852 
0.00036147751356736563 
0.000727510396130902 
0.0015269316323036632 
0.0024541620839427553 
0.07560891953507132 
0.016629634268515384 
1.112650263396855e-15 
1.6767341481831078e-15 
2.0658876475750776e-15 
2.649543724602871e-15 
1.3996993484648812e-15 
1.5166960153314025e-15 
2.766007167678047e-16 
7.580680254690405e-16 
0.0022369864371472163 
0.0010161233304052028 
0.001681334883057959 
0.0009784580630459322 
5.047589620955489e-10 
6.226141344505027e-10 
2.0264042099042742e-10 
4.765893695765365e-10 
5.918727168467692e-10 
1.6754394468535013e-9 
2.9255273731259346e-9 
2.5988099590736535e-9 
3.4968885143081433e-9 
3.422902246023911e-9 
1.9973166369360997e-9 
3.246312630696298e-9 
2.6540252740064795e-9 
0.006163095473655638 
0.028673839849346832 
0.013429305856659256 
0.006477200036192191 
8.299905422093747e-10 
8.301190510373355e-16 
3.375284252042559e-10 
5.303644865986808e-10 
5.730179738515585e-10 
3.909341210093039e-10 
1.7568115990888192e-10 
3.281873554633049e-10 
1.0075371978679587e-10 
4.431952073855721e-11 
1.0594965358194133e-10 
1.1865749382532719e-10 
1.3942385177256172e-10 
3.0815783582529756e-10 
2.2379938056948365e-11 
3.8756126882733995e-11 
8.92254541652457e-11 
3.473618282313584e-11 
5.3823038846441465e-11 
0.00011206045984373244 
0.0002337723126038767 
0.00038358735218422526 
0.00017534137581611014 
0.00014640626550177648 
5.42519288070379e-7 
2.524252795010443e-7 
4.198830802889002e-7 
1.030018185671553e-6 
1.302707496337727e-7 
2.2707106017625124e-7 
3.1890211765692653e-15 
2.1678577072252446e-15 
3.08329626592362e-15 
1.2215721023750222e-15 
3.2432361886086108e-15 
1.5200171001353847e-11 
1.290066638990045 
1.4873539518694156e-11 
4.199397057577159e-12 
1.3701968670681355e-11 
6.43915767139483e-12 
5.202379852702638e-12 
2.912610521295679e-11 
5.741772443222099e-12 
1.5855047582559059e-9 
3.0449547951623 
3.5764180733098394e-9 
7.98166381054015e-11 
1.7630564452086574e-9 
8.934492439075352e-10 
3.850683599918143e-9 
0.25769577350272727 
1.9872825338400458e-11 
2.960097096145362e-11 
1.2540213471810064e-11 
6.054502462452435e-12 
1.9138411034714688e-11 
1.1105461457507889e-11 
2.7656272798391557e-10 
7.453152408096604e-12 
2.6689833831043065e-11 
2.6575862064821003e-11 
3.3869367585283454e-11 
1.534670442779481e-10 
1.688782510289608e-11 
1.9379641073279244e-11 
2.0118319483705573e-11 
1.2900033543653078e-6 
1.0269602489292173e-6 
2.129543571958237e-6 
1.103208511284698e-6 
0.7646422874932312 
0.8172890127270608 
8.314401195640727e-10 
0.27181588833637743 
0.39125575304695226 
1.429574722919773e-16 
0.6901228432025165 
1.090143252221134e-13 
4.2285809301658636e-14 
2.1240071399983045e-14 
3.388137944316945e-14 
2.1198092857942048e-14 
4.380260042305904e-14 
1.8898162914203585e-14 
3.631304379286954e-14 
2.0205721386257144e-14 
1.1596733003939916e-14 
5.41134391175759e-14 
4.5341558733674666e-13 
3.2386595865181054e-13 
4.2895821333591594e-13 
9.235147329401703e-14 
0.9565769312555413 
9.189174182623717e-14 
1.6251886660696184e-13 
1.6298669107251143e-13 
1.3690363248021478e-13 
1.3671093650670988e-13 
9.450448717324138e-11 
3.6586486700655037e-7 
1.1904171374550147e-7 
2.3888330135844744e-7 
3.3486983918119393e-7 
6.893671514485952e-7 
5.08613350314826e-7 
3.806704831341727e-11 
1.3723974021852797e-10 
3.1190203263809474e-7 
0.0040442827714528016 
0.003049650869781169 
0.006668518674705489 
6.756475800384649e-12 
3.7774812485789914e-12 
2.43833511589565e-12 
3.50865570318681e-12 
8.931854760577068e-12 
9.92333486708004e-12 
5.5269797186886166e-12 
2.198291542636337e-12 
3.3675966162991282e-12 
4.1435498041642484e-13 
4.905917545549266e-13 
2.196032470150252e-13 
4.8201642835754796e-5 
3.498576846225005e-5 
4.930459077317621e-5 
6.722403664634861e-5 
2.908583442138467e-5 
4.110101448319541e-5 
3.9886679909001134e-5 
2.947111456803077e-14 
1.4429724641937004e-14 
2.0902713576019643e-14 
2.9491551600738576e-14 
2.058564752558353e-14 
2.6093851036868576e-17 
2.2033088344784676e-14 
3.108332230543619e-9 
2.6716603360512293e-9 
0.0005182326946721794 
0.0010777524823672392 
7.775320891419715e-6 
2.5926301787425154e-9 
2.780858375520386e-9 
1.7277987001122885e-9 
0.0031124771807918635 
0.0034651728716207216 
0.015691187937006548 
0.002322567363698233 
0.0013227822928735622 
0.0002607443520002004 
0.0006070266016807604 
0.024512911585668293 
0.00041327686321701834 
0.0034531676820753494 
5.191448580138109e-8 
1.4575589488769834e-6 
6.905797463891696e-8 
3.7657014860911895e-8 
4.384218225613487e-8 
4.6360422371174935e-8 
1.7645532965787078e-11 
1.2577148652756342e-11 
1.0713916490994255e-11 
1.0460411557475401e-11 
1.4385362700675735e-11 
2.497418176330885e-10 
1.1830512394588228e-10 
1.2509871389864676e-10 
3.6453626071026794e-10 
4.004472223214743e-10 
3.93620702544241e-10 
2.424787823307756e-10 
9.654022446383296e-13 
1.0407531536434725e-12 
2.4026385908818103e-12 
7.500257341995882e-13 
6.201160812652132e-13 
1.1002382981730617e-8 
7.730287637636944e-9 
1.4056155498820126e-8 
3.4222255592667146e-8 
1.0842395452771973e-8 
1.8041830558557347e-8 
1.2650277338101812e-8 
3.261342727966293e-7 
1.821769530322141e-6 
1.1494357268443129e-6 
7.646737472357626e-7 
4.063926520559833e-10 
2.0490986450719263e-6 
2.4696155248831543e-6 
2.7275679459665675e-6 
9.977184115303283e-12 
3.702524885582616e-11 
3.2063598968292326e-11 
2.140054545800163e-11 
1.5949819684771433e-11 
1.2216896997228078e-6 
2.1187330112647388e-11 
1.0260997897087863e-11 
3.4780840421659675e-11 
1.4158841477155866e-7 
1.6149537975066314e-9 
1.1219812666993185e-9 
7.329937632125203e-10 
7.556535873252035e-10 
8.250729895347417e-10 
2.1782508448663077e-13 
2.3718704932107055e-13 
4.7504115653283866e-14 
3.158093869174406e-9 
6.878366107594419e-10 
4.4240608471851755e-14 
6.658168338720916e-14 
5.170563458344409e-14 
0.0028188822202848507 
0.006831500650368368 
0.0012406954688625527 
2.6060209775489926e-9 
0.001550177467141897 
0.0011147898235585373 
0.0016873877047990505 
0.006884212999261843 
0.014787385366788712 
1.3669432797355715e-12 
1.9712323580820377e-12 
5.4544717457109684e-12 
1.8789335621642353e-12 
3.271085421166902e-13 
5.623309334011254e-13 
9.52052515410537e-13 
3.763111604855717e-13 
1.733435761684587e-13 
6.431079353174238e-13 
1.4204253716529689e-5 
1.4918127882929255e-6 
3.1861797548274355e-7 
5.431608849002257e-7 
2.4285197419278046e-12 
4.258521772789454e-6 
2.8001193322244696e-6 
4.9500210707577095e-6 
2.4327710406828905e-6 
2.880109478630063e-6 
3.8613344856828824e-6 
0.7844284024924416 
6.716379113569658e-7 
9.550300186761256e-7 
3.6486071933064347e-6 
9.35541596089055e-17 
9.568753407138402e-6 
1.0923631411855413e-5 
1.8625354192879196e-13 
7.2910634737344025e-6 
4.8503337834019975e-15 
4.335006444894977e-15 
1.7768853807665823e-15 
3.0696072447999404e-15 
6.841527429547337e-15 
1.5367763029151692e-15 
1.6518287363713247e-15 
5.0572964701424535e-15 
4.101574625153195e-9 
6.166623733845114e-9 
1.2175678776713577e-8 
9.53215145777677e-10 
5.706408608152629e-9 
6.573025841243349e-9 
3.936507113237112e-9 
2.0178017174143808e-14 
4.601387933094442e-14 
1.1822587085543023e-14 
2.0893949240575372e-14 
1.3681019854859438e-7 
2.882217314414622e-7 
1.1579432102953024e-7 
1.0384024879645449e-7 
3.388333076466228e-8 
5.252667284567709e-9 
3.1463714587505676e-8 
1.0528131432649357e-8 
1.3138226294106356e-8 
3.640965167659741e-8 
6.699053851102899e-9 
1.1467876012733933e-8 
4.636530179040733e-9 
1.609145648891939e-8 
2.8176787865520865e-9 
7.690110434638525e-13 
5.569781375521318e-13 
9.014648227873221e-9 
3.184346213888328e-9 
2.0155887240699926e-9 
2.0838065380981016e-9 
3.2878318428388523e-7 
1.8957561566339801e-7 
1.4889799632253397e-7 
1.7739439961583607e-7 
1.8359984173637773e-5 
9.852223408272934e-10 
9.36830841559503e-10 
1.3883275079339164e-9 
7.541050717354296e-10 
2.8848504994966283e-10 
8.5217757471831e-10 
1.355365112496541e-9 
5.411882914279895e-9 
3.195493231834294e-9 
3.3663710671911447e-9 
2.9337800843062912e-9 
2.555182796773102e-9 
5.161341513889215e-9 
2.834805734856963e-9 
1.8518493472827458e-9 
2.75304926362711e-8 
2.1493599774702215e-8 
2.596850317812407e-8 
5.8944892845909505e-8 
5.212749336856863e-7 
1.1444391768005557e-13 
1.2405769804110857e-7 
1.7541125895443357e-7 
8.166810405418253e-8 
2.9159951956680682e-12 
2.970245273345929e-7 
4.439891083916308e-9 
3.8877441958386414e-9 
4.353671058555533e-9 
3.0561425222271424e-15 
9.262902436256319e-9 
4.4068381982679355e-17 
2.388962531839873e-9 
2.814984751392713e-9 
1.041032850428198e-12 
2.727473607567668e-9 
1.5660592555823682e-14 
7.0417194564966234e-15 
1.28114417555637e-14 
6.361517379932952e-15 
7.184054806603302e-15 
1.1707309895638771e-14 
4.9612438611207416e-8 
5.2676504581372224e-8 
2.3654103462415993e-8 
5.975416542864503e-8 
3.632031382073429e-8 
3.45145833149685e-8 
0.004771186873238333 
0.01302303424074133 
1.4796255621573084e-11 
0.020541883015188018 
1.2178043224376843e-12 
4.5115509206434824e-8 
4.491909906301546e-8 
2.0446161346260648e-8 
1.5451962663983677e-8 
3.041976644483921e-8 
4.0853394724377544e-7 
3.441447733826509e-7 
1.1939292879736794e-6 
3.061479930110194e-7 
4.853740452078106e-7 
8.068686235862511e-7 
5.09749773480306e-7 
3.5151041298767754e-7 
1.010642487110512e-16 
6.234674996644153e-14 
4.256419423179781e-14 
1.8482078505293514e-14 
1.760672109055143e-14 
8.162220274392193e-14 
5.139952632844928e-5 
2.0189664933363608e-5 
1.8917285670700815e-5 
4.58149560105485e-13 
1.133710574544977e-12 
1.2905172029363373e-12 
1.672452048672503e-13 
2.3746627965125983e-13 
1.1683152150790058e-5 
0.004060134923503406 
2.3073314265078683e-5 
8.953764424077669e-6 
4.736941783832209e-6 
0.017138637770482516 
1.1241307089312315e-5 
7.934962780736926e-6 
2.2728069501794273e-5 
2.9346281959770104e-5 
3.5957422226712655e-12 
8.055568300638069e-13 
9.8041185310545e-13 
2.088624527448802e-12 
1.822203071991637e-12 
2.656249611238599e-13 
1.7030196984439862e-11 
1.0922067500069391e-12 
1.6227454209740264e-12 
9.85085535447117e-13 
1.8090253417051005e-13 
8.254902179981944e-16 
8.150421504891147e-14 
1.86006254918604e-13 
2.6447130769957185e-13 
2.511814940045044e-13 
1.0876346814768453e-13 
1.9174611563739662e-13 
3.3112292897950906e-13 
2.948420091195388e-5 
2.6565551663191667e-5 
3.8642703919998334e-5 
5.38077314231419e-5 
1.6521142018410317e-16 
7.234794079246357e-7 
3.634089462041248e-7 
6.083382629431611e-7 
7.725631996645846e-7 
3.075736053000046e-7 
1.2564464408368142e-7 
1.3676646723092655e-6 
1.0062075303649234e-6 
2.3402338945566623e-7 
1.8910491811791211e-7 
0.01562613606525917 
0.15380581850816444 
0.05000885456409999 
1.951116391422223e-15 
1.3519162256091404e-10 
0.01110938295359636 
0.020367663883103796 
0.013581980419376407 
0.00721380148507307 
0.002526858865388923 
0.003683974401918834 
2.1644925503574936e-5 
8.938086833286879e-5 
0.0001506651937875229 
5.343639178725932e-5 
0.00015388010675200132 
6.0742102149374756e-5 
5.262569444716813e-5 
0.004682358412917563 
0.0061944670973182415 
0.02319389234182339 
0.011129608904331397 
0.034823983188169205 
0.004259633435306601 
0.00773462609741615 
0.007120770675905888 
0.007929558722751407 
8.03354452243015e-12 
2.0431970820801345e-11 
3.153739931641466e-11 
3.615215558210436e-15 
1.0941939963857204e-11 
1.914121156717355e-11 
2.5133497618900764e-11 
1.4565464706415397e-11 
9.474957554161877e-12 
2.048710184729845e-15 
1.3087545243889958e-10 
5.952685555263358e-16 
7.496010158487655e-11 
2.1795410572319004e-10 
3.561339750859494e-15 
1.4902820646867003e-10 
5.83163700823901e-10 
1.1844962070338304e-15 
6.535386623116734e-16 
2.0335552072028224e-13 
3.777342847019032e-13 
2.058412405683235e-13 
9.656223895766691e-14 
1.6932666033846196e-13 
1.7303357645515354e-13 
9.104231179962717e-8 
1.5972898530836222e-7 
8.621350065176924e-8 
1.0359670675186501e-7 
8.596795826631745e-8 
1.5637149251674143e-14 
1.3630172827678904e-14 
7.444939883324206e-15 
7.05708378847077e-15 
7.1190605168987e-15 
1.0713652854265291e-10 
4.355790322260329e-11 
6.929524308174918e-11 
4.872586122394333e-11 
5.048043969363417e-11 
0.0004294127926820411 
0.00027281564755818875 
0.0004179064393650648 
0.0004212028361864069 
0.0005265832403344245 
0.0006758290853938195 
1.528878534977115e-5 
2.0102831905604555e-5 
1.4582580739463641e-5 
9.604610539599181e-6 
1.1064782285546885e-5 
1.3855601504727574e-15 
3.480496371287431e-15 
6.7422783859859545e-15 
5.139039751236736e-15 
1.2079582918217187e-14 
6.0354169849226075e-15 
5.231224260127298e-6 
4.148204990470278e-6 
2.4953374953055983e-6 
1.0084641118222903e-5 
8.89414242158618e-6 
1.592065732762379e-5 
9.300108029497219e-6 
0.044663052291514106 
0.034079213635360615 
0.07699388742577432 
0.11116042343337745 
0.23445527678712683 
0.09071440018481411 
0.042481229888963704 
0.10543223400528993 
2.919221410528385e-7 
6.085825763239644e-16 
1.3159455583775768e-7 
1.6208620643280852e-7 
3.221240839662771e-7 
6.73462081206163e-8 
2.672021930779181e-7 
2.890181625767523e-7 
8.100689686558516e-7 
2.645974224330483e-7 
1.0156373934033148e-6 
2.2049053961017883e-7 
3.4325755203257334e-12 
7.475224162013532e-12 
1.3387894801695581e-11 
3.1581405154579005e-12 
0.002271034362605524 
0.001419398257313422 
0.0018529024841893202 
0.006036659365025718 
0.005281323127115488 
0.013618479529527532 
0.016022019946987022 
0.010537534569748128 
0.009231707904036919 
0.009135374081236044 
0.0031036919908305678 
0.011800592009863197 
0.007484295644786385 
5.431552163411533e-15 
1.2294628253787794e-15 
1.8443929551022458e-14 
2.0640655907485712e-14 
2.226897099087984e-14 
1.807345859452888e-14 
6.813724325916292e-7 
9.962166886543989e-7 
6.933864366317957e-7 
5.202893412197433e-7 
6.395397246264023e-7 
1.719108327936538e-7 
1.036505281847899e-7 
2.688216811076426e-8 
3.4914811446163773e-8 
1.074809655296911e-7 
5.2168753803882534e-8 
0.0007845346470175417 
0.0005440347158295381 
0.0004921004521163114 
0.00037527405408466403 
0.0007821187655656367 
0.0007101516053007956 
0.0004599387801379646 
0.0017443530354431015 
0.0003770029931537167 
2.5338792553731677e-15 
1.0149339739745051e-14 
7.976123742463357e-15 
5.334844872441888e-15 
3.948680296788236e-15 
5.725442238855378e-15 
1.7764240649299356e-14 
2.1695361773646152e-14 
1.1042673071651303e-14 
3.6547883661897014e-14 
9.681898006447356e-15 
6.92442597962056e-7 
1.2749002151038127e-6 
1.2694500731211328e-6 
2.3939181455761113e-6 
1.1672682154121961e-6 
1.3475805340531428e-6 
2.5147930481194175e-8 
2.0223411352095523e-8 
1.9422419476999237e-8 
1.3965449570018772e-8 
1.515178700131937e-8 
2.450148768257112e-15 
0.0019246845908756577 
1.414766462142325e-10 
0.0024797970783000216 
0.004417636093914547 
0.0002718929140644095 
0.0008281424958596981 
0.0026177476692131876 
7.885545295993104e-11 
7.225407752062871e-11 
1.16565948566954e-10 
4.471122058098229e-11 
1.9779869810153432e-10 
5.96314618532368e-11 
8.111989595890557e-11 
7.917542133112595e-11 
1.0311943105431864e-10 
6.813410634105352e-17 
0.0027117100553884364 
0.004415285343310028 
0.00326094760156586 
0.0019546154453575376 
1.208849684619275 
0.005664594899782318 
5.47565493266858e-10 
7.861990162081413e-10 
2.4680097383381866e-10 
4.3228392241830214e-10 
7.592583357943178e-10 
2.354163743399413e-10 
3.5795485251493293e-10 
3.964394906934254e-10 
2.1146043993867912e-10 
4.001144701600739e-8 
4.1888964423639976e-8 
5.429481205247226e-8 
2.815754778335903e-8 
2.1212577924349086e-8 
1.8132867103346475e-8 
7.721187218814981e-9 
4.7685216453905345e-9 
1.2446804821811404e-8 
7.966490250262832e-9 
3.2959905308007253e-9 
2.409658932690791e-9 
1.2185817250032453e-8 
3.5890578417149922e-9 
7.32033015516087e-9 
0.023024278290671118 
0.02060351415867936 
0.0216587458067639 
0.012177828256496229 
3.505735291713429e-10 
2.333641542146066e-9 
7.544055413645362e-10 
3.0108032207127203e-10 
2.4290865292665866e-10 
2.1558298315608963e-9 
5.217158820662908e-11 
5.2647123852689286e-11 
6.612389963085818e-11 
3.314546681003573e-11 
7.16376553296005e-11 
9.662653145496496e-11 
7.83254062619532e-16 
9.263758834540433e-10 
2.665488075425823e-9 
1.5409374103342336e-10 
1.716352267927652e-9 
1.977373392597636e-9 
0.0001667119265834224 
0.00013470057256551856 
2.749604074932907e-10 
2.1853493715172242e-10 
2.0048668057206254e-10 
2.974157438207172e-10 
5.392614610388217e-10 
4.205004194501303e-10 
6.140355871016561e-10 
0.0008261986807917185 
1.3391397565226956e-11 
0.001717752648999147 
0.0021241166293058792 
0.0008251082241854811 
2.4297444831511663e-11 
0.0010299942101080518 
0.0007920314565432371 
0.09685423818562112 
0.012745405881649066 
0.14382451353409642 
0.0782930461547426 
0.0029034660741097257 
0.012442178607868663 
0.024804034550004194 
0.024095738625638533 
1.7464222144903156e-9 
8.156909412589915e-10 
1.823173874384345e-9 
2.68196462467623e-9 
7.263685609829299e-12 
2.09402814896818e-11 
1.03219799446129e-11 
8.838385561553302e-12 
1.0563864078704639e-11 
2.7628753012153503e-11 
2.9883805828024896e-11 
1.0697331283231286 
1.27864289701412e-6 
0.0003183700492272444 
1.5249626760777067e-6 
7.62644602630075e-7 
2.118423833992331e-7 
5.822531121748114e-7 
8.350530947525292e-17 
8.954383192205087e-7 
1.4549921088670882e-6 
3.258776920464574e-7 
8.496909617511547e-7 
1.9605243664102377e-10 
1.7510928058052415e-6 
3.77738462978993e-13 
5.379641448151861e-13 
3.361699946344289e-13 
1.7470169897632277e-13 
3.6993554065826553e-13 
4.736228972065714e-13 
3.5376330917708517e-13 
2.9571972411056967e-13 
9.462062924122314e-12 
1.0772880314737997e-11 
1.2516348021308408e-11 
5.185503897842554e-11 
1.8137461953152445e-11 
3.403379744323221e-11 
7.579086966181594e-7 
2.797727496320979e-13 
4.869665582167429e-7 
5.035321476831983e-7 
4.0795081367710545e-6 
5.796112193019922e-7 
5.103980319057511e-7 
4.505841818408786e-7 
1.668466827507542e-14 
1.1305633398240985e-14 
6.176949559593834e-11 
3.801581235841844e-13 
1.1505806963584447e-12 
3.070884377451127e-13 
2.405920504242801e-13 
2.4805498907063836e-13 
1.7120532473402817e-10 
8.62092773802111e-14 
2.5818014652009766e-13 
2.093262086910044e-5 
1.6104801485558752e-5 
8.79735896902026e-6 
4.062180989915416e-5 
2.6821659471247192e-5 
1.0359030749343637e-5 
2.4883918534189256e-5 
2.4062525764656016e-13 
1.6240804724308204e-13 
2.5680222838871548e-17 
1.5252523479085264e-13 
1.8608251608576478e-13 
2.921883193404078e-13 
5.5600179452468946e-12 
9.606730796295747e-12 
3.9716597221839625e-12 
8.337429619937339e-12 
5.013071329799122e-12 
3.8292194416234624e-12 
4.949625868192101e-12 
8.565900980707408e-12 
1.2803337918727876e-11 
5.7624765422755034e-12 
1.1155906984962775e-11 
1.833210676277111e-10 
1.2170005121537614e-15 
2.3895273548996376e-15 
1.2953639765530755e-15 
1.4808743597848527e-15 
1.302006007628001e-15 
3.5464393412073735e-15 
1.6340946691384671e-15 
2.4081097907761808e-15 
9.130293439544026e-16 
2.1545385359078196e-13 
1.334703669476534e-13 
5.018588962278205e-13 
6.301503576749523e-13 
3.2326928111520095e-13 
2.0282850020750161e-7 
4.845731609420659e-8 
6.775832165634794e-8 
5.259994749896577e-8 
1.1692760801897654e-7 
9.761157952154382e-8 
1.2421333148643243e-15 
1.909262747570214e-15 
2.307537664308817e-15 
6.921941504164368e-15 
2.3326371474062637e-15 
4.462062798537476e-15 
1.0435018957966674e-9 
2.9259500328876753e-9 
2.4014465191789936e-10 
1.8062918445831684e-16 
3.2713632589859374e-10 
2.3120570122859575e-10 
1.4909527796068012e-9 
3.7484629390265056e-9 
2.154824589096401e-9 
8.313062798253405e-10 
8.925279394544114e-10 
2.410843627436196e-13 
5.124881735427166e-13 
3.088839135809216e-13 
1.925758407626978e-13 
1.8123785645617427e-6 
1.8561883669309918e-6 
2.3502230333294043e-6 
7.681368913728876e-7 
1.762192690812815e-6 
1.230353842235898e-6 
8.004681826394797e-7 
8.193509834360189e-7 
9.696488837692755e-7 
2.894019567434786e-6 
2.3716286178555164e-15 
1.904861515936562e-15 
9.002557930423485e-15 
1.3368258974452236e-14 
6.646546216889031e-15 
3.1514486071073084e-15 
4.44370497046463e-15 
1.525974502880558e-8 
6.3314461680722616e-9 
8.774859183538827e-9 
1.389387313668287e-8 
3.105308621759994e-8 
9.394671234230454e-7 
6.867053815547233e-11 
4.0906857633963175e-7 
5.179727968110034e-7 
1.2552567743055548e-6 
1.602750042574134e-6 
7.168498439886785e-7 
1.3684903421486141e-8 
2.2333744694408206e-8 
1.534244764593573e-8 
9.47339065319001e-9 
3.616835671618511e-8 
3.9547187200513147e-8 
1.5145444538104195e-9 
4.1428561644423293e-10 
8.654293349702677e-10 
2.810710962353215e-9 
1.4016241895218886e-9 
6.430389261682296e-10 
1.6223102135373482e-9 
3.208729697459344e-9 
1.6459972837170885e-9 
9.600884514544361e-14 
1.3489783895653566e-13 
2.7856414607611898e-14 
6.624527853212398e-14 
7.433229760376255e-14 
7.67730594268969e-14 
1.7918356720353063e-13 
0.0023467762404680826 
0.002562095003025538 
0.0036480105555084293 
0.0012700407627563325 
0.008720692437863862 
0.02264195405085133 
0.02678591363283239 
4.614087365106201e-11 
1.1986974777239746e-11 
8.31591181261426e-11 
4.525464675064717e-11 
4.039735866331863e-11 
3.4018761793600186e-11 
2.299956124442754e-11 
2.747952697858173e-11 
3.831483479267954e-11 
0.0010139372248843237 
2.724884887759231e-10 
0.07597033507515355 
0.00038143811687665116 
0.0002826381519291827 
0.00037424859596119536 
0.00029692037295911297 
3.02797251659809e-8 
2.3982620906424295e-10 
3.695540702273944e-8 
2.0425435815813353e-8 
4.612997338292105e-8 
8.936465979207123e-17 
3.896777736200527e-8 
2.9268111111737205e-8 
3.9983720572115076e-8 
6.747026077641524e-8 
7.69003323801528e-17 
1.7931936339782674e-7 
5.368759420883611e-8 
7.544971477566009e-17 
1.1691301630296075e-7 
0.007925410506018412 
9.178767461014393e-8 
6.707139745332664e-8 
0.0001381979044828983 
0.00015374268043659819 
0.0007809669186959539 
8.29893541636915e-5 
7.042212767763303e-11 
6.439615742145987e-10 
2.532238396060496e-11 
7.882328356224766e-15 
4.772430869473026e-15 
1.66970640788421e-10 
4.0275066810418995e-15 
3.154178773146798e-15 
0.0002770015132567153 
0.00013581166667169238 
3.733123496779623e-15 
2.9684392803178667e-15 
0.0006410989210802992 
2.202460111363274e-7 
1.0654375747701642e-7 
6.058208781757757e-7 
2.945099613653549e-7 
1.2080626197509273e-7 
9.660677322074085e-8 
0.0015862178096332062 
1.3975334782491467e-8 
6.141658010601889e-8 
5.3211315559041385e-8 
6.370463077105497e-8 
1.2650174297729381e-8 
4.524505526707425e-8 
3.159166399442764e-8 
1.291601801774312e-7 
2.732228563871733e-8 
2.9878146783773607e-9 
1.9845742662288892e-8 
2.8278266043505004e-14 
2.151001280370253e-14 
7.934429279477533e-14 
7.88963899310424e-17 
2.7259193322895267e-14 
5.6401494786856934e-14 
2.2161846781953894e-14 
1.7882771962792534e-5 
9.769800940536017e-6 
1.0946442052229378e-15 
1.1099117198548617e-5 
2.0544678913993365e-5 
4.6713835614261757e-5 
2.965038411757751e-5 
1.3050172496486837e-5 
1.0856428432963586e-5 
2.6168243483973523e-9 
0.0002114525007801119 
6.766918822093258e-10 
2.049620582488339e-9 
9.325018348425435e-10 
2.9049817996738276e-9 
2.7175606478482527e-9 
1.165387197948231e-9 
7.509103545061868e-9 
4.696687556841665e-9 
3.688952599821198e-13 
6.390552419361296e-12 
5.133665752876265e-13 
6.982892676055149e-13 
3.0268347224611053e-13 
2.2997086932733722e-7 
1.890602216250719e-12 
3.388362582584914e-7 
3.627453435841577e-7 
2.521949992768006e-7 
2.3401910178739404e-7 
1.4770261700875207e-7 
2.8989647539631734e-7 
1.7746450772814044e-13 
1.424402223032374e-13 
7.678457476935409e-14 
7.210097062769292e-13 
3.7820387774756023e-13 
2.2089887726158094e-13 
3.1274345220598776e-13 
1.4679249857906133e-13 
1.8802861365673465e-13 
1.671255351055717e-10 
1.2536588007030322e-10 
1.8746965965308085e-10 
1.5656396158033687e-10 
3.301372935509843e-10 
2.662097713208e-10 
2.691102105223963e-10 
8.950661146154585e-13 
2.448565794470053e-10 
7.364701144667086e-8 
1.087499778349119e-7 
8.121027326260237e-13 
6.492251841021115e-12 
3.535853797773344e-8 
3.752148987282052e-8 
8.23727507742152e-8 
8.290265512848614e-8 
0.00106042653607708 
0.014422564258440296 
0.006397899217979235 
0.006357415750292246 
0.024104402631188862 
0.0499389842247301 
0.010116319556145956 
0.03039789429693475 
0.03231893241297768 
0.0015101513580684763 
3.509842131561701e-11 
0.017858647404054732 
8.918747418820509e-9 
1.2693937993148631e-8 
1.1364351127517413e-8 
3.78604418152054e-8 
1.9922767578255774e-13 
2.224389119475918e-8 
1.572101328002713e-8 
0.05364443524632433 
1.0511337252589013e-11 
0.031763137128837125 
0.013918597135282025 
0.012134078944740645 
0.09345804570787616 
0.22171524740215798 
0.056617480540957055 
2.359901418382093e-8 
1.6325009457256885e-8 
1.9395083986866992e-8 
1.0115063694727775e-9 
7.3537359020661344e-9 
6.382845996382654e-9 
2.3647895998061167e-9 
2.197005637101451e-9 
2.3700926438780002e-8 
1.3003633985894154e-8 
4.765727792344612e-9 
2.689146677138679e-8 
1.4327433791194717e-12 
3.391282525238495e-14 
2.093703698416785e-14 
1.5730429059529266e-14 
8.749518633126406e-9 
1.0847445342121416e-13 
7.273792505551982e-14 
3.016801925169759e-14 
8.061202738758389e-13 
0.012823329093752943 
0.011319515922401416 
0.003866088066624808 
5.831902031531466e-12 
0.010865626385988697 
0.0033482476247640586 
0.008322143081376536 
2.2571409299317295e-8 
5.475550332595573e-13 
2.744357458353384e-8 
1.623763655865367e-8 
2.1835685032972895e-8 
1.872558554257546e-8 
1.2009351121835722e-8 
2.4427246125669933e-12 
5.78367245303242e-13 
8.08357213629524e-13 
5.316831398261174e-13 
6.74767855244323e-13 
8.734619513622393e-14 
4.5897619094899694e-14 
8.983118633129054e-14 
7.901797494123475e-14 
1.0749121390809168e-13 
1.0145969129830692e-13 
1.3711441093190634e-13 
1.8566937126990584e-13 
1.3249814358724263e-13 
2.6189953841048343e-13 
6.257427044118827e-7 
1.7157751703709782e-13 
1.0928619003917484e-13 
2.1074066500474237e-5 
4.7691278858945404e-5 
5.407266474234635e-5 
2.1824948975707253e-5 
0.048257049874987155 
0.18732153702004092 
0.18079385459262537 
0.08483735318768526 
0.11053512118618213 
0.06848524416321566 
0.00511154567079832 
0.00145264187958657 
0.00042122419464825784 
0.02218393073349908 
6.21296137664643e-13 
0.03885656492343461 
0.0012470763775772227 
0.0007225508996051111 
0.00035193263011475085 
0.0010801509317455746 
0.0008590318952527477 
0.000231401406912287 
0.0008770117628420564 
0.0009233807472844062 
2.3604774769470785e-16 
0.0005250792964583542 
0.0022393675603994126 
0.0003524498947036444 
6.422389004767246e-14 
6.364200671670421e-14 
5.4159777330622437e-14 
5.12170345023497e-14 
1.2783488085990617e-12 
0.024829078177565453 
0.01229814132251634 
0.010169307882123483 
0.02406099131251357 
0.028534965361819212 
0.03690595308165506 
0.004412504255927026 
0.0005631684914276802 
9.626644594618345e-10 
3.9402722710823996e-10 
4.985554428444149e-10 
1.4897644029455475e-10 
4.363974904800995e-10 
2.9365929478407366e-10 
0.033316059153507396 
0.04380127016980589 
0.15685620334163206 
0.14803828309703734 
0.0424339305908885 
0.03972195105472439 
2.5266770594417986e-6 
4.45562418529651e-6 
6.899739108439582e-6 
5.499137166599106e-6 
3.121832760133822e-6 
2.231752949050422e-6 
1.2828215654753568e-6 
3.5350375580127454e-6 
2.7329509204530692e-6 
3.9454958275794535e-8 
3.4825349828828726e-13 
8.918964530919151e-8 
5.826389742501184e-8 
4.278345261565938e-8 
1.484311111381439e-7 
9.638329141623271e-8 
2.3542289388896427e-7 
1.0715524717022684e-10 
2.3676437537993906e-10 
1.2838426461620055e-10 
9.788849602944e-13 
5.041011335524438e-11 
0.0002453908000839947 
6.77107789829952e-5 
5.888523255196069e-13 
0.0009404763861893085 
0.0005618730182132036 
0.0003276044989103936 
0.00038963353616422485 
0.0005649041962797528 
0.00023334824331843704 
1.3107472727069153e-12 
1.9807418187313748e-15 
2.6561677618853878e-15 
1.1447450595734068e-14 
8.009703273599849e-15 
2.8408580407070286e-15 
3.611222176368826e-15 
8.58147937314246e-8 
1.1321471977650837e-7 
5.701119777007226e-8 
1.5300063299998759e-7 
6.032679944987898e-8 
6.910534731343247e-8 
1.8944205990066417e-13 
4.9178478069316477e-14 
4.994563891467404e-14 
4.869218892861173e-14 
7.114990279261644e-14 
0.002918291005403497 
0.0009520058547187809 
0.0001691348388434562 
0.004846538244828695 
0.0016178826392431703 
1.1665158350793216e-6 
1.788772688485077e-6 
3.075631857497684e-6 
8.283700980267097e-7 
8.177135035119991e-6 
2.079163282358677e-6 
3.086461644040276e-6 
1.7474887302291755e-6 
3.3089048001942757e-6 
3.3107461047669126e-12 
2.967630884859015e-12 
5.026352104082821e-12 
0.0034619213820362292 
2.059043351652868e-12 
3.493115199024868e-12 
3.7936920233780156e-13 
3.3081152786314828e-12 
3.675994248855042e-12 
2.9234818711512593e-12 
2.28828172898142e-12 
0.0013801744769941242 
0.09137369491508228 
0.20363125057118844 
0.05113740125090936 
0.009930698609048043 
0.08485303995360474 
2.2764261738040805e-5 
2.2355375329660484e-5 
4.7815428296877546e-5 
2.6162515654865675e-5 
2.901301217061384e-15 
3.900177928227269e-15 
4.506338616911242e-13 
1.389731748512956e-15 
1.7055367787435508e-15 
8.14225838786641e-5 
0.00011152779079250584 
4.0240743581534443e-13 
4.6029594672983174e-8 
0.00010458811128545426 
5.772665505305548e-5 
0.00014855613037900308 
0.0001214244479283927 
0.00018869142567798396 
4.7907402307066277e-11 
0.05034756195731005 
2.9755947633917732e-8 
0.02115021657880645 
0.0018038762131554955 
7.81814783047262e-8 
2.6475413492026593e-8 
5.321905861705152e-8 
0.004883856353482395 
1.0456431179189649e-7 
0.0003886484220603181 
1.3870995523202953e-16 
0.0017279208829858953 
0.0034561713867756728 
0.013594321304178751 
0.0006019585771358749 
3.6775445192200565e-16 
1.4455082492846869e-7 
2.2128788578987566e-14 
8.11026515409237e-15 
7.225103499105273e-15 
4.758660886370658e-15 
4.709231678824259e-14 
1.9335520028400316e-14 
1.2235434610706529e-14 
1.0760496865547814e-14 
4.610712172197742e-15 
5.57042805581652e-6 
0.001114680521605593 
2.122328580895191e-14 
0.004295443706924484 
5.705571311246417e-15 
5.252791836430735e-15 
2.960099697700201e-16 
1.6010681704806968e-12 
2.5078406069164398e-15 
2.7965550115689835e-15 
5.72806239652336e-10 
2.0558061593144728e-14 
4.465524165325362e-14 
1.4016066271695508e-14 
3.257723010916361 
5.942989826877792e-12 
0.022478125375731062 
1.9687723230987514e-16 
3.8616884701167245e-12 
7.841031752646568e-12 
8.030371392807188e-12 
1.1529240586878733e-11 
5.15347821553468e-12 
1.2240698989962507e-5 
1.150134916046457e-5 
4.438613726153527e-6 
0.0037232492249251116 
0.12661332070708786 
0.0033311812748748637 
5.198701250920288e-13 
3.479178960096145 
4.350714945379082e-6 
4.80095002542599e-6 
1.4661952422292077e-10 
0.0033312996905142753 
1.1170396264568378e-10 
1.56076887979838e-10 
7.349647330266425e-11 
2.7226656138143183e-6 
2.493632358677223e-10 
1.8827142304038734e-10 
4.563642697985228e-16 
9.468687081475217e-17 
0.0010803522734895187 
0.0011070246115552703 
0.0013106680527184397 
0.00014114211117066835 
0.05002875442290618 
0.0001442944004207177 
3.562937772106244e-5 
5.979309239707806e-11 
4.635889168898757e-11 
1.421100548997945e-10 
8.334825745680586e-5 
3.0779876610366346e-6 
1.996746411261523e-10 
1.5331557200087086e-10 
9.196924976762434e-11 
1.3362202470614316e-10 
1.052295489982762e-9 
9.007955677160008e-10 
3.023785452097232e-16 
1.2267621440932818e-6 
8.85290124670671e-10 
1.8361800576757919e-10 
4.431890858312136e-10 
7.80572273488815e-9 
0.02353298019566771 
4.810217956131087e-7 
7.187141153856012e-9 
1.7569691113694895e-9 
1.559133064833761e-5 
9.93425952891662e-6 
0.32172062269550367 
7.232183266978231e-9 
1.5499702350217537e-9 
4.115719439986535e-9 
1.7140494404984628e-9 
1.8255220551057396e-9 
9.072090407913708e-16 
1.5015045120807512e-9 
1.118665485443203e-9 
6.783569863191026e-10 
2.581791296251931e-16 
6.923435474203642e-10 
1.5221390846742272e-9 
2.1155186151792509e-16 
1.6975873815305486e-10 
2.767337661863791e-8 
1.3726674252247457e-10 
4.670913513255315e-10 
7.498353416249021e-10 
1.2419344950125138e-12 
3.66071960985811e-12 
1.1362059290298505e-9 
0.8365172261778798 
2.229347371185019 
1.9249774267372785e-11 
8.966458283529606e-10 
6.083803543280234e-10 
4.385196764302622e-10 
1.9776689971111818e-10 
1.2956029847181277e-11 
3.332770668502599e-10 
7.866975791335904e-10 
1.339630162283237e-14 
1.2210404727656828e-14 
1.1086841701452493e-9 
3.080547645405491e-10 
5.923304497937785e-6 
3.51443410093249e-11 
7.252605564288076e-11 
5.326547567111561e-11 
3.5377052753535394e-11 
1.5452567618045268e-10 
6.059001761225998e-16 
1.9834962213759133e-10 
6.02658196331295e-16 
1.802684683819645e-10 
2.9195023937900776e-11 
5.74785084723151e-11 
9.196708709745383e-11 
6.309612259040774e-11 
0.0004643498222275393 
0.0007625947581471856 
0.2468455575482411 
0.9645050098208824 
0.0008116832015699649 
0.0002337043915680095 
8.482267001074454e-5 
7.826261700703926e-5 
0.00045204571287101253 
8.188659384805562e-5 
0.00010811200212140629 
0.002252591192347052 
0.0007779840762655905 
0.0018030440330433985 
0.0024836854853353906 
0.008968656757670059 
0.0038882817319685447 
0.003422205459054322 
0.002048083870673672 
0.00022706663585780442 
0.0004067779375280108 
0.00048557195426541947 
3.907233633628667e-6 
1.7901806202553637e-6 
8.943373179086587e-7 
1.2037221205666885e-14 
2.041125386304483e-5 
2.2380715972010712e-5 
5.460921527013783e-6 
0.00036876664507005957 
0.0007100743301666508 
0.0014115952837878093 
0.00047473816725080234 
0.0005669596301503431 
1.632668634291525e-12 
6.013131913237363e-13 
5.807252898774571e-13 
3.924440636532554e-13 
4.142497145646888e-13 
1.0367515359668499e-12 
4.424768174774525e-13 
6.230304729337252e-13 
2.0994637275021942e-13 
5.906993052228268e-8 
1.6967137641775466e-8 
6.50543328972409e-16 
5.976100210366321e-13 
1.4016685949244479e-12 
4.8314316106268545e-9 
1.5372733017184417e-12 
1.5145499565578592e-11 
7.579593412769932e-10 
3.369375523749392e-12 
8.343117609818364e-9 
2.611605465957919e-12 
3.0747601600449475e-12 
1.9349180981144635e-13 
4.144921792941494e-12 
4.711038702238335e-12 
9.560160872246483e-12 
2.3316142610255175e-12 
1.6300000274814467e-12 
3.522419628037908e-11 
4.007841018614017e-14 
1.551716868061233e-9 
5.319696260505596e-10 
9.379115119878674e-10 
9.441684167707533e-10 
1.985076018937545e-9 
3.744224193000661e-9 
3.575046650667208e-8 
2.098827223102102e-9 
2.193228898021753e-10 
9.84563948850007e-10 
1.5873751080428103e-9 
1.2898921391816931e-6 
2.4059671279620397e-12 
1.6431433638996479e-12 
2.405985412543796e-16 
5.960991044792913e-16 
3.5709172037725704e-16 
2.631463611568106e-9 
1.1884879896008846e-9 
7.40501241446212e-13 
1.2223838057065175e-10 
1.6595668583079617e-11 
2.885329086963759e-12 
1.1629648309800911e-11 
8.215594040140392e-11 
2.0870480354643236e-16 
8.820502343343419e-11 
5.830057001839718e-5 
2.8255867677152498e-12 
6.5846375144836626e-12 
6.666753066870837e-13 
8.545379313443429e-12 
1.774517825291494e-13 
7.850839064859337e-17 
4.606543414727792e-12 
1.7391648324137445e-14 
4.156881871593761e-13 
4.319931516030564e-13 
3.0086718562625906e-13 
2.9338833947149823e-13 
9.994185652453652e-13 
6.137747170139435e-13 
6.208212295986765e-16 
1.3864236136899727e-12 
3.0153241631067844e-16 
4.114342802489646e-13 
1.8565636645134547e-13 
3.8078933290958866e-13 
3.8030683248714685e-14 
9.839536287316031e-13 
2.4253255482125663e-11 
4.6096423479142254e-11 
3.8867955171897635e-16 
1.5929508920129826e-11 
1.304805089966384e-11 
5.148257259908172e-15 
2.0168913954383128e-14 
2.1964018002723972e-15 
3.7235711929632815e-13 
3.145531601816492e-11 
0.5347428054695441 
2.7462336364506623e-11 
4.497972671007602e-7 
6.194484381009952e-7 
1.1679172741257093e-6 
2.3345405304868857e-7 
0.00016656259361108589 
1.8976539960682724e-14 
0.028607972910610693 
0.08319899368153987 
9.008181615616529e-15 
0.03180888344949338 
0.0004009576868047722 
1.078233907877543e-14 
3.2767228091812115e-13 
2.652962069821696 
7.014079528866391e-13 
0.22736410878144775 
8.018092548820816e-6 
1.1157688942989347e-13 
0.0049495627302182585 
4.1845375270917745e-13 
0.00011509223313016056 
2.4600018536187056e-13 
1.6269845739415156e-5 
1.3673213606356319e-12 
2.0697010320637765e-5 
3.533208389993914e-5 
1.4469078350898929e-7 
1.3836642478271052e-7 
8.93403221437944e-5 
1.4391160367905115e-11 
1.3927123340856567e-5 
1.3207280442343226e-12 
4.2580538132638086e-13 
3.2647489931778796e-13 
1.0419858059437e-13 
1.5555763656773347e-13 
1.9226419964497648e-13 
2.5096400070345356e-13 
5.245741413562163e-5 
1.0273955154047745e-13 
5.865830020929654e-6 
7.404007981913445e-7 
2.715544832468112e-13 
1.6759817350306535e-6 
3.413430340012335e-13 
2.1869796693599537e-13 
5.6203833224623284e-14 
2.556956035666387e-14 
1.0118412088293916e-5 
1.199921202981251e-13 
6.107604026214645e-9 
5.9971249514665696e-5 
1.2185696635375722e-12 
1.0163621761835278e-13 
2.005462265328911e-8 
1.8422428967647483e-8 
1.7409079796267118e-7 
8.65438974026048e-11 
2.7854272843010843e-15 
1.7071047545131597e-10 
3.027890610206832e-11 
5.835284000127746e-9 
1.1976589318162021e-10 
1.0008817135388261e-10 
1.263686684458273 
2.5985846010188766e-15 
2.9797092516480383e-15 
1.1005514492843101e-15 
8.107671724447156e-9 
1.768604331282699e-15 
8.040393332807173e-16 
2.129576741263738e-15 
1.8550429056894171e-10 
3.610170457984888e-15 
1.4610079854538842e-15 
7.209738460012348e-12 
1.6633774444479285e-9 
4.715063159249087e-12 
2.155279438969333e-15 
8.83372483319262e-9 
1.1863768063441956e-6 
1.6025183520516041e-7 
1.5407145599855798e-11 
1.2045476274957923e-9 
0.00019993499858610449 
4.079771044063021e-5 
6.966225505866307e-9 
7.319601691553097e-9 
5.953524677947521e-12 
7.50969119394703e-6 
8.687316162827723e-9 
9.369374485047344e-9 
1.2003910815309913e-14 
1.2071293744522545e-15 
1.6298237694727321e-15 
8.475986795145874e-6 
1.3056254114374019e-6 
3.172228835995672e-6 
9.936599863781355e-6 
1.0770839675183e-5 
1.837327790245735e-15 
1.814314576362807e-14 
8.924196174263614e-6 
5.7265045541896925e-6 
4.223003103867284e-7 
2.9772190839028143e-16 
4.3201893890223227e-7 
5.57985663363314e-7 
1.8626915791043882e-17 
5.403762462468732e-7 
2.075330593962544e-15 
4.482879777631308e-15 
3.2334158364701026e-15 
2.2805862838513053e-5 
3.145487725263258e-15 
0.009158984456357381 
1.5959548206206796e-16 
3.8364946062832125e-15 
1.6264336547258979e-15 
0.1235714666908563 
2.012700804607094 
0.06998449691667363 
1.5058934739263253e-15 
7.715481750386596e-10 
8.952620401300835e-10 
2.643381834680329 
1.4412179019623068e-5 
6.78792980834529e-10 
6.187501594493077e-10 
2.1194800381280808e-10 
1.1578803996081764e-9 
1.5234883653559725 
6.595091138216283e-10 
0.28178760840074213 
0.00010002084602044747 
4.107912445816248e-5 
4.032902556425718e-5 
1.8236383360942634e-5 
3.071149423528757e-5 
7.010896261760761e-5 
3.263314195235375e-5 
0.08168878972034052 
0.004252169216012262 
1.642440074571483e-5 
0.04111305470365452 
0.028969511901928792 
0.0004010726295978604 
0.00029456652347001106 
0.00023968377874623308 
0.001573997586883188 
0.0016561604520411123 
8.896764335502216e-9 
2.7675192476388226e-9 
5.031511171674942e-9 
3.794598298385053e-9 
3.869732776421636e-5 
2.0521857682697566e-9 
2.9930960304444802 
1.285682393031699e-9 
4.771346674312271e-8 
3.7380447160241813e-7 
4.49071221747856e-8 
6.037959888294799e-8 
2.9536954258716298e-8 
3.411122477154287e-8 
1.0804792831079662e-7 
0.00010579453620606941 
3.8091072806028416e-8 
1.939306199346911e-12 
3.5591327417783837e-12 
1.1823820025740517e-7 
2.2349170535562673e-9 
3.1691998269905005e-6 
2.1379223285567466e-12 
3.7883706535118546e-12 
3.070283902791738e-12 
8.88654304973003e-9 
4.742698780505027e-9 
9.058657207714415e-11 
5.120838123099913e-9 
2.182340094317744e-7 
2.4336273437992217e-7 
5.89710843567887e-9 
9.709047119989764e-9 
1.5438960843146185e-8 
2.9214604773727266e-7 
8.374909856404432e-10 
7.230624214423292e-11 
6.9975855618186816e-9 
5.336964688134607e-7 
1.3099816250351365e-7 
1.293868476711053e-6 
1.2093913947553905e-6 
4.6112454074308993e-7 
2.32260348581261e-10 
4.499813762643081e-7 
1.6096774626140454e-14 
7.757901771815512e-8 
6.560046230969181e-7 
8.684993095987006e-14 
5.227026867303533e-7 
0.0029879655668767985 
0.05661175836103534 
0.03454708222322472 
0.03275557209015186 
0.02370492433985759 
4.945869915333126e-13 
4.779825119725985e-13 
2.1202000685907065e-11 
1.990408277183038e-11 
2.946248348702911e-11 
4.3175589593816896e-11 
4.2426646741220364e-11 
2.469183484088737e-11 
0.0008207248806351804 
2.8085332859684504e-5 
4.130793284564222e-11 
0.00026198131375059316 
0.00047256315387848933 
0.00014295486130550412 
3.94518266490212e-5 
7.018220636568646e-11 
0.0004212897687468622 
0.0004892939897197035 
0.0005532732293344234 
0.00017929740446855546 
0.00013971915679495553 
6.58434741180826e-14 
2.8158985621405746e-15 
4.817796672249877e-16 
3.2288903723822915e-5 
2.5500716475744537e-5 
1.2132315316222212e-14 
0.00015329033521373016 
3.96446272579128e-10 
1.3123553654782495e-16 
2.977219083902814e-16 
2.44374649812422e-16 
5.420576327197791e-5 
6.120693632870417e-5 
3.640453232247248e-5 
1.0259722240704135e-7 
5.3562503242154165e-8 
4.0472685812877287e-16 
3.0637473249380205e-8 
0.9345170716660891 
3.582682538038471e-8 
1.620086969826099e-10 
1.0482736793466645e-11 
4.804385768157257e-12 
5.638010312022157e-12 
1.2043353744341192 
5.9050862532229026e-12 
8.298090737666413e-12 
4.081413636033015e-12 
5.899041177695849e-12 
1.037422420643414e-11 
1.0451931009123375e-5 
6.239550100496106e-6 
1.9300343612622454e-5 
4.17510429120026 
2.525461733446622e-10 
0.3306478305375398 
2.176771445123918e-5 
4.333700763134419e-5 
2.576291340688567e-5 
2.824189718865039e-5 
2.388687948910393 
3.9568765790133565e-9 
2.784427156834178 
1.9175027808489623e-5 
1.1097434705607532 
4.2790157523418234e-9 
0.045708509105011556 
1.0234780071466807e-9 
2.4397790094611405 
1.4911350732070593e-9 
2.979052393397446e-9 
2.0669133110978313e-13 
1.2551678399043111 
1.592924335316382e-13 
9.044854980427053e-13 
3.9762425023859946e-13 
2.601743670795235e-13 
2.6685146059088236 
2.9717996893276575e-13 
3.2070584402515284e-13 
4.4212178856891906e-13 
2.251144693921995 
1.4197965105951276 
1.5151396897055431 
1.632038956586234e-8 
1.2009963627478179e-8 
1.2131822229816548e-8 
5.773468926573489e-9 
1.1129403897733361e-8 
7.154608256653097e-9 
2.919750695058651e-9 
0.9219268254057954 
1.006041368844397e-8 
1.3169082999402557 
2.824472474141298e-12 
0.8177146469889971 
3.520786314276228e-12 
1.2230358816770369e-12 
2.9815954073399923e-12 
2.9985768441018226 
4.236874636246972e-12 
4.9771236284391995e-12 
1.237070776044027e-13 
6.85876491898854e-14 
1.6843413601883293e-13 
5.523113205103862e-5 
6.432803227096152e-14 
7.218080727086665e-14 
9.670853878589119e-14 
1.7107000615691816e-14 
3.1920844858766495 
2.6009417042521354 
0.17012734909398558 
1.7088307749241027e-14 
2.594111238403328e-14 
0.012184372483346287 
0.0011079186438382376 
0.0008677028499189108 
0.01503060704524906 
0.024512675134006633 
4.5849475800175044e-5 
0.0010796070481588276 
0.0010552505324227996 
0.0008501836951370547 
0.023556114764465 
0.011172463088481178 
0.42283677726671753 
0.0008357099089235927 
8.21864153452706e-13 
3.0750115402087044e-13 
7.313548665898613e-13 
1.7161126365760455e-12 
1.5935640766676464e-13 
6.423193255223876e-9 
0.21391359589214906 
1.7241044459787967e-9 
0.018732369108272022 
0.9096968470553412 
0.18009528021084498 
0.9790606421213655 
3.4043087814404513 
1.4418938828491388e-9 
0.00011650104858329172 
1.2014109205968423e-9 
0.8697839131951866 
1.9390450726878086 
1.6327700103448944e-9 
1.4070560371761949e-9 
1.0171792558725673e-9 
0.00033435868024779753 
3.9759715233318785e-10 
0.0010938650209664168 
0.0010231216485491082 
0.9968382200240343 
0.0003493484530021066 
0.00047580006852871685 
0.0005127961953155081 
2.003650259997184 
0.00033592216884150794 
7.830272301402514e-8 
1.5898409540362297e-7 
4.8739191534394193e-8 
9.638419192144424e-8 
6.69514893133576e-8 
4.9515153360137005e-8 
1.3190437564631962e-7 
0.940419618125941 
2.6960413260510014e-6 
3.992967164875955e-6 
1.4022058906408699e-6 
0.0006667951778238334 
2.146078709851822e-6 
2.178382567544459e-6 
3.6688404401673103e-6 
1.5112978032016035e-14 
0.08109878744378357 
0.35101964410591663 
0.010473280654783076 
1.0812192848631081 
3.664266515115996e-14 
9.652150020906313e-14 
4.3329579609383876e-14 
3.414753999780891e-14 
0.021595715738048873 
0.00998814011622419 
2.705323744625679 
0.46922921010388596 
3.477596974424572e-14 
3.416112244757866e-14 
0.8306609903682317 
1.9982375131810928 
1.0642189528742671e-8 
1.1806260154881867e-8 
0.7210606183545406 
6.268552541108105e-9 
3.4114519529835586e-8 
1.939653805785119e-8 
1.841695446921342 
0.06910774771806896 
1.1046383497535022e-8 
0.08290436784718203 
1.2429248821047536e-8 
1.0850693703518903 
0.33914176142087465 
0.4992227360270467 
0.06177311908834595 
0.030726553413247003 
0.012151933021330979 
0.009007986771627303 
0.01052314338393374 
0.2236421502311131 
0.01513187278565565 
0.004003216148318615 
0.02575466504057345 
0.011231614932490613 
0.012760989723274833 
0.01890818041522185 
0.0006103638523974596 
8.663726274081604e-13 
1.6870082910286193e-12 
1.773415625055326e-13 
1.4935419355693041e-12 
0.7942035455608353 
0.867996258608866 
1.2506447955104546e-12 
3.2159629948964306e-12 
2.8079883275685253e-12 
0.4573838127938497 
0.0003294744036701939 
1.3750871787502866e-12 
5.13938683043166e-12 
1.1468767163502912e-14 
0.22060619690787595 
0.042941287845937606 
0.0003678453900726302 
1.152953911739307e-14 
8.953757147679374e-15 
3.378258435293129e-14 
7.372990740839611e-14 
0.1125981814275378 
1.7203284028983217e-14 
0.023255188362050618 
0.028717453582289356 
2.5800244096681613e-11 
1.6282010608126088e-11 
0.0487255464117633 
0.008924066191957807 
0.004790773186916384 
0.031568700117291196 
1.0894909220599116e-11 
0.01677451659611827 
2.176607742463288 
0.8274093177540278 
0.7388654528315867 
0.055519025280095155 
0.052546310805784695 
0.03164388187845594 
1.5318727850165713e-11 
4.932359387872967e-11 
1.2261750939589242 
9.869169231461549e-12 
0.13729116839531702 
9.697805850061657e-12 
1.8382407375183514e-10 
0.026421968573218737 
0.01267179314400023 
2.3398123664531048e-8 
4.056418087124967e-8 
0.09255268176428891 
0.5151293391151284 
1.5605933543664422e-7 
0.004721944047861218 
6.597796248587428e-8 
5.5760737483513926e-8 
0.09115645368569555 
2.427649939454279e-7 
1.0775112169710941e-7 
0.009408293727987719 
0.020912269272089695 
0.25619812212982956 
6.463932094181407e-14 
0.00717281841637304 
7.141891123474658e-14 
6.68475005088718e-14 
9.339217282489429e-14 
0.0002422394181131373 
5.328829937112869e-14 
1.0685311367114253e-13 
1.8729695190740214e-17 
4.6637955721502306e-14 
8.733160295601039e-14 
1.2764967303946186 
0.15161708176092126 
0.0028295254764986295 
9.369390846796873e-14 
1.263232022425968e-13 
0.03363872680216066 
4.14333763117867e-14 
0.028905186671871322 
1.164831815479454e-13 
0.0007230593227321789 
0.0014863374957432862 
4.907214471981901e-15 
0.03829656449149539 
8.820721454301018e-15 
0.01400056500543525 
0.0020467000904453867 
9.971799651802786e-15 
0.05199386554899559 
5.207459595319299e-6 
0.02594158064884434 
0.03373347911685128 
1.3080667573867039e-5 
0.00027534886579286933 
5.22220646094486e-6 
2.4650850870909376e-6 
5.5772147865609e-6 
0.011862496328070191 
0.0030665025914145064 
0.058409242585999714 
0.0016825164188038054 
0.014508032550646602 
0.05251749402907614 
0.006095872561798213 
0.39180946001969075 
0.0038465608040292743 
0.029808641763833205 
0.003750992208695029 
0.013765666010062587 
0.019240642132344308 
0.0016581083433187375 
0.017861246301194095 
0.00655027990380898 
0.001508061982271785 
1.0289240774969919e-11 
1.3716412953883584e-6 
2.13443999726426e-6 
7.238464422314521e-7 
1.4423278347159763e-6 
0.014551877383743268 
2.527082350878006e-6 
4.443012645617837e-7 
0.010578549929072183 
5.056201055501618e-7 
3.086526018757015e-6 
0.002543225903418984 
1.9931578337131226 
6.146551368326701e-7 
1.5536481109450347e-6 
2.4183067425639026e-10 
1.0741172002245263e-10 
0.009983158915982086 
0.0021086436114105974 
1.88871475883853e-10 
0.0005701807732214786 
1.116988677466462e-10 
2.1005562717461898e-10 
1.7373195363367597 
0.0013418229423379762 
0.0014576552323799174 
0.006813918716119623 
0.0004253536195461022 
3.1771835501093457e-6 
3.0340028380363656e-5 
0.00696695267372802 
0.0006205914779152314 
1.6986247062098342e-5 
2.9329520563369686e-5 
1.7595162088895657e-5 
2.4205764985754436e-5 
1.199858698668078e-5 
6.797576168994787e-6 
1.712142498317436e-5 
6.773385048754751e-7 
7.446903728506847e-7 
1.065425824118191e-6 
0.030017693391160245 
0.008640073825223943 
0.00038084206703439865 
0.015380272599911772 
4.522573171247684e-6 
0.007456825421645779 
2.3923177441463003e-6 
0.007477112698721233 
4.236109898769607e-6 
2.592564934618319e-7 
1.944261659466128e-7 
9.512290345322243e-7 
2.406985226301218e-7 
6.754165130913422e-7 
2.112209936981282e-7 
3.105215694605275e-7 
3.704970868769319e-7 
4.153296650192221e-7 
9.926793921639709e-14 
0.0048855015999122045 
1.3495991946961885e-13 
1.2752103017492587e-16 
2.79040430831782e-13 
0.0018655822581287588 
2.1545783493666213e-13 
9.444921989659829e-14 
4.166825908854629e-13 
3.070887931668338e-17 
2.764084826312174e-13 
1.5775811420777256e-13 
3.507155318392658e-6 
0.6923997890753173 
0.038210222441884385 
0.844694744165012 
1.2042408236870156e-13 
0.009062997759526552 
0.0027945566013797283 
4.322597424720973e-13 
0.00030290597684714496 
0.002944655695615425 
8.316526941343509e-10 
0.0021229965918581964 
5.39514017565322e-10 
6.551697661701984e-8 
6.001112313843705e-10 
0.00023854949601085938 
1.2288014635265095e-11 
3.2609855826703575e-12 
6.176018851972941e-12 
1.9336071707335242e-12 
0.0032918546958780204 
0.002361367708038803 
0.010713492099336041 
7.528378074046586e-12 
4.666555245639002e-15 
2.5151475300763644e-15 
0.2530805927395458 
0.00758990460809931 
3.958603573514592e-15 
7.669258205004507e-15 
0.0003166746330880916 
9.23378612028679e-16 
1.0830620913126693e-14 
0.002409052143677528 
0.0053751506938266806 
7.425605807127521e-15 
2.187244350942215e-7 
3.828051022592482e-7 
1.4656947315381556e-7 
4.528826487890824e-7 
1.7522130177925436e-7 
2.1511858227731766e-6 
1.818537290673337e-5 
5.305814898606434e-17 
0.0007758429338282279 
2.7173977179475157e-7 
2.4462384066569433e-6 
7.306175329829289e-7 
0.00020981199274537832 
5.581556499344512e-7 
1.172765347488736e-6 
4.007999693745026e-7 
3.621909965651771e-14 
1.0822271577104853e-14 
1.2327119033498293e-14 
0.000744712792750129 
0.058864153308247645 
1.59236832312844e-6 
0.00011392641086304711 
0.0013195064549551723 
0.001081013148991313 
5.331616647917154e-6 
0.00014319382338703052 
2.715353588870821e-14 
6.515497443239312e-14 
0.00018383898894856702 
0.006806354340102633 
0.007220934315840159 
3.9230983942537687e-14 
0.0007815508331820619 
3.876340346467218e-14 
4.769064767122699e-6 
3.3003296071751396e-6 
2.515569342988143e-5 
1.1624115197417636e-5 
2.480744245182393e-6 
0.0014694513118198582 
9.888577428505829e-7 
0.00011497275995932629 
0.0004026731489730298 
0.0017225259110897988 
1.4417935114472363e-5 
0.004776200263927836 
3.3524962500176346e-6 
3.7042674307687456e-6 
4.7917144854999995e-6 
0.007329216879302859 
1.9676719766290565e-12 
4.971617754826848e-12 
2.2749656191419463e-12 
0.0046451211954623515 
0.000439893577188869 
5.378220332478375e-12 
0.000132649525682575 
5.418361135891899e-12 
4.1613557067194694e-17 
0.01018303327820936 
3.2476085545677775e-12 
1.37740878774838e-10 
4.702499957660032e-11 
0.01602685162118583 
0.00034721421333329774 
1.6729110450981658e-10 
0.0004894178476962945 
3.0338034878001985e-10 
0.0002859493489181964 
3.600671453307332e-10 
0.0006160431825624748 
0.0004456958944273174 
1.2875398571848357e-6 
5.294767815240318e-6 
0.027334697690826592 
0.0006347076772705796 
1.876506685987489e-5 
1.0768199134336871e-10 
0.0008290090071152165 
3.9822159654758207e-7 
0.0025555768504312627 
0.00011628407328898991 
6.49980835393317e-7 
3.163689561151413e-7 
3.0181935999080365e-7 
3.6033844850663035e-7 
0.00030145855872687575 
2.3065224439888172e-7 
2.1946624379857697e-7 
0.0015966995728057078 
0.0007530802576874232 
5.0776092452268224e-17 
0.003241299099444233 
1.0292276876447678e-5 
6.590485605110957e-13 
2.9061564152072345e-13 
1.6023449924009751e-12 
1.4376120975141399e-12 
3.614745924395853e-13 
0.0080658901166364 
5.920720939899845e-13 
2.3779896597630383e-13 
1.0673685723214245e-12 
0.0001564083825900809 
0.0023191701800998016 
0.19548458548524644 
0.08009573344193809 
0.0006507064358752201 
0.03579960886730822 
0.037234018486885435 
0.05137361069841815 
6.196567219167885e-7 
0.0016470804021467503 
0.04831922925969219 
7.349008496866481e-17 
7.528349472352065e-8 
3.486370974854497e-8 
1.7401764100168886e-7 
0.00018900086480860354 
0.00024344117537575537 
0.0003033708630206476 
5.067239428733039e-5 
2.6257867672338263e-7 
2.0418212557598116e-7 
0.0015074592836880837 
9.505662541573129e-8 
1.484241000866081e-15 
0.0005857748564963585 
1.4642914831842045e-5 
2.2668762480160757e-15 
5.1208802823149285e-15 
1.9152995241140723e-5 
3.180756887102488e-15 
0.00022121503438513794 
0.0002347555074024806 
6.277925264862942e-15 
8.887951133330106e-7 
0.00016414711952354496 
3.3061985771725338e-15 
1.503455245171899e-15 
0.0004012153331214008 
2.5424769294161278e-15 
7.326938037024231e-5 
9.981928728553481e-16 
7.121723727452941e-15 
1.0097122036580484e-14 
5.383028488574056e-15 
0.0012018477970701165 
0.0006101624068486332 
1.9232413952108513e-15 
9.155727469081573e-15 
0.002771625361567515 
1.6243006479577981e-15 
0.0009881735977477798 
6.06603969514378e-15 
1.0856063596899107e-14 
8.012703003496004e-15 
2.0350655206298535e-15 
8.878472634559202e-8 
3.1657325974923926e-14 
0.0001522845093868015 
0.0006896918494034219 
3.932811559735494e-14 
2.841122307497245e-14 
1.4350181970277616e-7 
0.00013584506811213374 
1.7272486545394952e-14 
1.0653072394768566e-14 
1.1640819103523578e-8 
7.1972213381596334e-9 
4.93033059311462e-9 
1.763911308942652e-13 
0.017456455225649786 
0.00041747718555127294 
8.43703647652234e-9 
8.419824780599106e-9 
6.359421713381609e-9 
2.7864868657609176e-9 
0.0002534478625208192 
4.540308538686223e-5 
0.0013928223035021723 
0.0008165102145174081 
0.00012688505458301487 
2.03956878155296e-5 
0.0010727321726331498 
0.00047078067862732644 
0.0008163688855862375 
0.00043910635524243755 
0.001364528056935427 
8.384586178102089e-5 
5.0025450531101856e-5 
0.00011678346005472146 
4.741088817761652e-5 
3.5561307672313917e-5 
1.054270208448969e-5 
0.00015872308865731767 
2.2250562445798152e-5 
3.0168560075536052e-5 
1.7244426867098912e-5 
3.7044490093044143e-5 
0.0019273196975194244 
1.2081621814871476e-5 
3.992175511461958e-5 
0.0027742849393712354 
0.00021225425293756346 
1.4523143043577378e-5 
1.1398188911553241e-6 
2.4583548810469836e-5 
2.055686767498516e-10 
0.00033848831407819066 
4.03759882764106e-17 
0.00036982296478330713 
4.4310556616061135e-10 
5.329750021479393e-10 
4.163055099569069e-6 
6.317626604364958e-10 
0.0007411067921159846 
0.0013453749909550048 
1.471300506911138e-10 
6.579475571075608e-10 
3.7421466331780896e-5 
1.4437664524282388e-10 
2.4954623639612543e-10 
0.00037546191710061377 
0.0005408978697332731 
3.8918816030131376e-5 
8.956527428277882e-13 
0.0012080294599278857 
0.00018811066888102038 
0.022267285378546685 
0.00010559236056347577 
5.846763655471816e-5 
0.0007758991919110551 
5.330069737541986e-7 
0.0011240331164770615 
6.046251160779636e-16 
2.60461287262558e-15 
1.1099460901692768e-5 
5.806216667698981e-5 
0.0003540820986407278 
2.2460828150099632e-15 
1.2896015397777377e-15 
1.3747873167205613e-15 
7.088187886903758e-16 
2.0866802428791604e-9 
3.7417396422987165e-6 
1.06073951838836e-6 
2.1417072992102956e-9 
1.0529095174352652e-12 
1.0293635764191434e-5 
9.749022753428407e-5 
2.7907277237764208e-5 
1.211441675819564e-9 
1.128563304291429e-9 
1.5342043166015207e-9 
4.676927201567987e-8 
7.629587618284943e-5 
8.312345520702688e-10 
1.8155068174897106e-7 
2.171067928653157e-9 
0.00023947257721266272 
2.5466524143466264e-9 
0.04405151703539318 
0.00448565152635509 
0.004386033077953904 
0.006273681251305976 
0.007047085182556352 
3.68285003013189e-7 
2.913957320815201e-7 
0.00015015811431499492 
0.003334560893204293 
0.0004732844536896611 
0.002192528789813566 
2.748271288564778e-5 
0.005487340827619022 
0.0023846672182785164 
0.02035252894133154 
0.0014777303964790874 
1.4231157654314899e-9 
0.00036798319881219653 
1.025328361751696e-9 
7.65233658265522e-10 
1.570353069278988e-9 
5.733466231575982e-10 
1.928218960316373e-10 
7.492227289815309e-6 
2.7992046590357703e-5 
2.8559179839245545e-5 
1.4443862748287683e-10 
1.8946472043695606e-10 
1.095740239165694e-11 
5.336227406538682e-12 
3.82569829467851e-6 
3.2783841679234326e-5 
4.2742631908240675e-12 
7.301647379703519e-12 
2.518563515510594e-12 
2.681659487665896e-5 
0.0009040494492776794 
0.00038747403686298804 
1.1204639764810048e-15 
0.0002066359255136304 
5.3134824895944496e-5 
8.370710537955718e-5 
0.00033441937019903074 
5.797802810649064e-6 
0.00017229316317757026 
4.054799995577966e-6 
0.0001755013770886053 
0.00020552952240875463 
4.774545313396855e-7 
1.1396109137687934e-5 
5.019896639147341e-16 
5.283522206784518e-16 
7.080443215165603e-16 
3.584541770214519e-16 
4.473508966682141e-5 
3.961162783762605e-16 
4.421698844209582e-5 
5.009659838898295e-16 
1.0004920873253157e-15 
4.595861286706697e-16 
9.41147947348487e-5 
0.0002022315234031138 
0.00033045381628503086 
0.0009650677053344205 
0.0006436009847492824 
2.911730898564939e-7 
0.01227053504126152 
0.0006414078967422319 
0.0011401712039915393 
0.0002195704818478166 
1.2000721265172081e-6 
9.283259944380353e-6 
1.2189364990922514e-5 
4.857769945428116e-12 
6.6155881189665234e-12 
1.3325282487193518e-6 
2.9238893488497096e-12 
6.713940531429963e-12 
4.831244261910335e-12 
4.430075105409005e-12 
2.453515816483169e-12 
1.8679758198781313e-6 
5.352321111533497e-5 
3.4489055082211093e-6 
9.980211495180439e-12 
1.7083292928210457e-11 
1.1367593449783928e-5 
4.290145797728481e-6 
6.2920686723774016e-12 
1.4887284366532244e-5 
3.590479520256475e-12 
8.138142440899943e-5 
2.5991702089910132e-12 
2.8589924377004923e-5 
0.00015633756048458148 
0.0009845504253767872 
4.436963258157841e-12 
1.4275955252833296e-5 
1.088550431716866e-5 
1.044739710654574e-6 
6.605137611113196e-12 
5.2146140891812394e-12 
5.987347315250759e-12 
1.8676250332785976e-5 
2.5168339940995174e-5 
3.0316505521338327e-5 
4.6833898657881397e-5 
6.757084708088068e-5 
3.1825559051883347e-5 
9.649593396709499e-14 
1.1093795941339746e-13 
1.4241852125428805e-5 
0.0001965261488217705 
1.1683885828014695e-13 
7.915790594373695e-14 
1.4408074304386123e-5 
3.270779540476141e-11 
6.221943742779964e-11 
4.774789794964035e-5 
3.6350443546891147e-11 
8.90761996178136e-7 
5.4818305768586944e-12 
1.849270935237771e-11 
8.864634147947802e-12 
1.2033193536621235e-11 
9.551808948755685e-17 
2.5799125682301944e-11 
2.924004453292416e-8 
2.732405836545876e-13 
2.8839514898263713e-12 
3.4018403446578242e-12 
2.6512183108664595e-13 
2.8507080463315078e-6 
4.804469609479225e-6 
1.1064671986397449e-13 
1.3527102581478525e-6 
5.079052071338763e-14 
1.5761996976486021e-7 
3.081843602796879e-6 
2.3467172301598502e-7 
1.1571140949796227e-5 
1.6555663448442809e-12 
4.520253500411596e-13 
6.839693306469429e-13 
7.520468953187958e-13 
9.536614494700736e-7 
3.0186179444031543e-6 
4.4871493676892273e-13 
1.158926420333971e-5 
7.506032191036234e-13 
6.599357143911631e-6 
5.179943105634234e-13 
1.0581106161760101e-6 
1.6964322732797162e-6 
6.72752247211284e-5 
7.119723124329557e-6 
2.536721567475902e-6 
7.34277389654782e-7 
1.0038122497442577e-6 
0.00011437412432642494 
2.6436956965586985e-6 
7.468738082374789e-7 
7.643516202040866e-7 
6.430782129722445e-7 
5.824655526921717e-7 
1.4873216658347409e-6 
2.891203203637326e-7 
0.000168430578124311 
1.3867665579806397e-7 
6.490777154231929e-7 
1.4527047682212654e-7 
4.293781002814763e-7 
3.2172675961519744e-7 
1.3316377959746057e-5 
1.6720283755833107e-14 
1.368185750646933e-14 
2.254120264583594e-14 
1.786140207095406e-14 
2.6949784226032677e-14 
8.062707019650787e-9 
1.0804095898704081e-14 
4.823611698565688e-14 
9.028699287620916e-9 
4.498252768361648e-14 
7.744904398464764e-14 
8.406820636345629e-14 
1.5121936976934746e-6 
1.5604915167129424e-6 
5.749882107491326e-13 
2.899143286392253e-13 
1.0638311050856386e-13 
1.44754465429542e-6 
6.3117538818513335e-6 
2.7284128392214094e-13 
5.20819228596205e-7 
1.262359560249481e-13 
3.667297493974833e-13 
2.3408859759690957e-13 
1.5292417762916774e-5 
3.107944878923526e-6 
8.794138255092944e-7 
2.1200474497184534e-7 
2.2048353179932373e-6 
4.912731568668185e-5 
1.1088629255845536e-5 
1.0866522425118413e-6 
1.9888004267768906e-6 
1.7625140297353921e-6 
8.337114531513337e-7 
3.04517064132033e-5 
8.71380362557851e-13 
5.243410772392395e-13 
1.310368241788855e-12 
1.21216308290628e-12 
1.541928883750328e-5 
1.874727595527887e-5 
1.9921690746305216e-6 
9.939481126040593e-13 
2.567312810831508e-13 
0.00019730344468119504 
3.419437744800105e-6 
1.2074881782877076e-5 
0.0010553293022926547 
5.727290054295477e-12 
3.6976301036537775e-12 
1.6639944188085719e-12 
1.6182425449595818e-11 
1.683833415472871e-11 
2.3518551470087903e-16 
6.6960943204020754e-12 
9.786130705855482e-7 
4.440656280732105e-7 
5.681803466491758e-7 
1.5079236758344325e-6 
5.444545831793109e-7 
2.5394980386149227e-7 
0.001206813396175281 
3.601751423293366e-17 
1.8785055375733335e-7 
1.0093111979586654e-6 
8.644545009038144e-7 
6.251556904278556e-7 
2.6375160181007715e-16 
0.011486099208186386 
1.5863357621884514e-6 
3.9287002549420395e-7 
5.284343225015371e-7 
6.410679474348783e-7 
2.3294688230306736e-17 
0.0013526486556906408 
1.63587712566041e-13 
1.1135826926477897e-6 
3.058116733521176e-7 
2.1353070166928078e-5 
2.9465521289701677e-6 
0.0006745275509293533 
0.0008141718104533854 
1.8729775129098934e-5 
1.2875211977891468e-6 
0.0001262421611789869 
1.3931830707938451e-13 
2.6919487550208043e-13 
4.125274081744475e-6 
2.8795539486828684e-6 
4.07395301441113e-7 
6.6975428382171644e-6 
0.00014018453851731677 
2.534958009212905e-13 
2.2616742204234369e-13 
5.143314097214016e-7 
3.472383134374976e-6 
0.0044368701105905 
2.1084150433339402e-6 
4.6966253690727957e-7 
4.967901239015606e-6 
3.450595337140612e-8 
3.680350568826588e-8 
2.2730254782331354e-8 
2.7477203360579474e-8 
1.011271067752531e-8 
3.5922505786578384e-6 
1.884265068378353e-8 
4.4994518732471614e-8 
2.578877370208599e-6 
2.5366874085052846e-6 
1.960145177917902e-6 
6.290459337907222e-6 
3.7346462709478503e-6 
5.660236751522948e-8 
3.212590374186746e-6 
2.4067826842811103e-9 
1.0450467606638242e-7 
2.6014998553009854e-9 
2.4609442222414117e-7 
2.323843182908062e-9 
5.7461797299913826e-8 
1.0835896085746889e-8 
7.08253171769979e-7 
6.418712634069232e-8 
6.742959936819128e-9 
1.042451907905842e-9 
4.538297453145882e-9 
4.0069336974279386e-7 
2.321826208695688e-9 
4.136169491564306e-8 
1.1501384962971628e-5 
1.5131146936251457e-6 
4.043405625015671e-9 
3.0866835294616793e-9 
1.0600760594797267e-6 
1.0748637786948626e-6 
1.8315671089164923e-9 
0.006649438672057635 
1.1166743881909207e-6 
0.0018776470902447957 
0.0017226556784122981 
1.2834005418948463e-6 
1.544192316926578e-7 
0.0015627957122476312 
2.8410289925961423e-6 
1.1733252108781532e-6 
0.0030015491085190085 
1.0533196562598313e-6 
1.7757626733765295e-5 
8.741584499700539e-7 
1.8881196801048058e-5 
2.8560941839878397e-6 
1.327414084993435e-6 
1.8037180994068489e-6 
7.724467717992779e-6 
3.507518675489937e-6 
1.0483715490985569e-5 
1.0809023233895645e-5 
4.961298001411861e-16 
4.3362664248133054e-6 
8.153706017014675e-6 
4.1718654661718855e-6 
2.3170260002058715e-5 
0.0012001871060403153 
3.086036404966168e-7 
0.0004121309490697383 
0.048342542311739414 
0.03198367371891364 
6.790123912990696e-8 
0.13457585209992687 
3.8833439170446463e-16 
0.032809687574492256 
0.03174096667684122 
1.741995543082583e-9 
5.938532538161742e-7 
7.68269064976681e-7 
1.4891487737591885e-8 
1.0883979734890798e-9 
2.2783430929050402e-9 
8.913378413128018e-9 
4.882798692980595e-8 
1.8131643098635718e-9 
2.0136429297741305e-7 
2.7783489740635542e-8 
1.7702280373254475e-9 
2.5564051265381084e-9 
1.4371780318177566e-9 
4.665899350374715e-7 
1.3999488473414435e-7 
8.292961950275073e-14 
7.492124008554516e-14 
2.566611860061791e-7 
1.1859635430958146e-13 
4.6786174290529175e-14 
1.1840320031052775e-13 
5.582538098723777e-7 
2.079409868728186e-7 
5.958061891936511e-7 
9.263734325104193e-14 
5.316643516831828e-7 
2.2014652664836034e-14 
9.138734213726685e-11 
8.19166136534912e-12 
2.0155385027936035e-6 
7.46301634689812e-12 
2.9160311175819204e-5 
2.377083576273481e-11 
1.8729695190740214e-17 
2.2604119375116738e-11 
5.688507525321412e-7 
1.3973313311100865e-11 
9.703303075473055e-5 
2.0989820908449244e-5 
4.390548916733978e-5 
4.7300765269160667e-7 
3.34516725718058e-5 
1.1649140911976531e-5 
2.1533300553556908e-5 
3.9013035424991554e-5 
4.7243518329257755e-6 
6.39314852741323e-12 
3.1396410981591255e-6 
5.948521578162674e-6 
3.081662619066248e-9 
1.371070858962751e-7 
7.189794989120605e-8 
1.3587884401109537e-8 
1.3917063815412496e-5 
3.2728433323518624e-5 
0.00012822712367229605 
5.22247579453012e-16 
9.186444934839087e-9 
0.00018659418485155582 
8.082173568067371e-7 
1.4163203336383828e-8 
0.00033498679620180024 
1.0701460856967596e-15 
2.8218712398084048e-8 
1.421130786998478e-7 
0.00011599471128223815 
1.9513325312067364e-6 
4.587262553753597e-16 
2.1155995380889459e-7 
2.192712706803104e-7 
1.0878691289004634e-6 
1.179938840603602e-8 
1.3573011392741587e-7 
1.1690492154054205e-6 
1.0791099135619357e-7 
6.067804202444816e-7 
6.830371930264894e-7 
3.5120136975840126e-8 
1.134251861735058e-12 
1.932472597634416e-12 
1.9230302115854873e-7 
4.093100694942333e-12 
5.1149745344004294e-11 
2.7424461929712158e-11 
1.4307773864788057e-11 
1.7363527140674816e-11 
1.0847469028144173e-7 
1.2640750132532904e-6 
2.0384821357340313e-7 
4.039459117029834e-11 
0.0007473303118116414 
4.0674727479553e-11 
3.800575080997784e-11 
6.052717340583237e-7 
3.1695309243022896e-11 
0.00011656682475678276 
0.00032566889528440926 
0.010212211233084694 
3.886119553022995e-11 
0.00045357420667592647 
0.0002849651373628079 
0.00028644303981908205 
7.44947543346135e-8 
2.6325235169077634e-8 
4.697568823672738e-11 
4.0394013766671525e-6 
4.320065392604386e-6 
2.113130290838886e-6 
4.744061098019105e-6 
7.381655564955559e-6 
5.8403960940112794e-8 
2.9610395331976754e-7 
1.4316106637072098e-6 
2.560064197021735e-6 
4.963022981000175e-6 
9.34314870609762e-6 
8.17714648571837e-7 
9.9088969287042e-6 
2.9716704865952285e-9 
7.699106329689933e-9 
5.863972169931395e-6 
5.312692394407214e-8 
3.7594960204052435e-7 
4.210530757774131e-5 
2.55052421846245e-5 
6.316779441668691e-8 
2.5667423317979015e-5 
1.855352467347856e-7 
1.061362843965813e-5 
3.8000730630209636e-8 
2.635502538540512e-5 
4.4057008289003864e-5 
1.0203909150954445e-9 
2.647598149274797e-8 
0.0001443994926816423 
4.648030023627116e-5 
5.364163674724492e-5 
3.820200844374815e-7 
3.971756487205375e-7 
2.67794347402229e-5 
2.166571646138274e-7 
2.1108954629093717e-14 
2.8412857197738767e-14 
2.0094016873298143e-15 
4.743389146282969e-15 
1.882883895420764e-7 
1.709279412086251e-14 
7.647049455970477e-15 
3.366711815049934e-7 
7.396956577262002e-6 
2.07498911722293e-5 
8.314407829372293e-5 
2.0523359321087562e-8 
5.419116611359912e-6 
8.99990031813248e-6 
2.9204763792846075e-6 
8.999074512472912e-9 
5.030036243976207e-9 
1.9818110475960412e-9 
4.460519995463252e-9 
2.203487395993828e-9 
9.517998631587438e-9 
6.57514050492725e-9 
5.1500523258708635e-9 
5.070148864785458e-8 
5.788305216377639e-8 
4.797504320183428e-8 
4.806778984625602e-9 
1.3684240089406654e-8 
1.2625855707428067e-8 
1.6129244783994522e-8 
4.7079869331483016e-7 
4.493366098922476e-8 
5.971740226265812e-7 
3.278631706988704e-10 
1.7905752677766285e-10 
5.843788160819174e-10 
3.932674321982644e-10 
0.0019445978203217803 
5.73995353396253e-11 
4.5570658468647786e-11 
8.463041445442229e-8 
3.815780919816065e-11 
5.463536013796541e-17 
5.9294831030576286e-8 
6.029532759857554e-9 
4.5841394323285335e-11 
4.337470756678132e-11 
8.103930197593893e-8 
1.5773277171568764e-8 
7.419751594521099e-7 
2.573743915310735e-11 
1.194319261737001e-7 
2.8805082331485134e-11 
1.3205577747071937e-10 
7.590282732801076e-11 
4.633835588364101e-8 
7.495495661514535e-9 
1.994052343285649e-7 
2.6075017943159443e-7 
0.4533009242606094 
7.485975390437051e-9 
7.548172991190063e-10 
0.0014368171348122566 
0.31923441214618603 
1.7445954785081916e-5 
1.8350900092877793e-9 
3.391438805945187e-9 
2.793038373048297e-9 
4.1178193939885437e-5 
3.6236302465937524e-9 
1.434075863002173e-8 
2.468485845400501e-5 
2.0901778827492267e-5 
4.0948633135512713e-10 
1.858365645378484e-9 
2.785157792253019e-5 
1.150175070788381e-8 
3.785344598065512e-12 
5.994694045199796e-13 
2.075978118245032e-8 
3.0976237224102324e-12 
2.919767257126745e-12 
7.61373604740883e-9 
8.402201345221275e-17 
3.552322274226251e-8 
0.011502525715573812 
0.9982039683644597 
0.0026886821765259 
2.8494766949921728e-8 
0.0027858658234015616 
3.44637271657648e-8 
3.048193063433582e-8 
0.0028896705220244293 
0.002459296756658314 
0.01157474072453455 
0.0014691479715091928 
2.6597684219342896e-7 
0.006815461823864064 
1.1376313852539754e-7 
1.1907552340908057e-7 
9.21147108292354e-8 
0.002968996847648297 
0.0018791407202770893 
6.389342993827195e-9 
0.016938142976323206 
9.205534995724272e-9 
3.568153318110156e-11 
0.0030167608159589383 
3.847262560128245e-8 
2.0603987591033097e-8 
0.0007940031357618055 
0.002634595400588274 
1.0477945762381478e-7 
0.0002733776207539804 
1.4081603727024713e-15 
4.422370573219414e-16 
3.711234713764841e-15 
7.593108199147674e-16 
8.345860523678375e-16 
1.4332657205919804e-15 
2.0991545837799568e-9 
1.918694406690099e-16 
1.5098363019348722e-15 
0.1488341995996405 
1.1095566532376372e-9 
1.581211096651743e-12 
3.331987546923674e-13 
1.9378391070866616e-9 
5.673988574379114e-10 
0.010210947177587864 
1.407530029706719e-9 
8.503673440984536e-9 
1.6397971921274446e-12 
1.3116969942847608e-8 
1.331969942483975e-12 
1.5115474447027504e-12 
2.936007729566851e-13 
1.9931819719800217e-10 
1.783251893672642e-8 
1.4999190237102344e-9 
4.566832868576683e-9 
1.6411685359432833e-8 
1.2981610020756207e-10 
1.9775554328382572e-10 
2.0701000057489595e-10 
1.3638042620417278e-9 
3.5527800521833856e-9 
1.776768568563323e-10 
1.1645452816106258e-10 
1.8654994210732446e-8 
2.2794182304987235e-9 
1.4593915735133784e-10 
1.6986596722386492e-8 
1.7552375849684507e-10 
5.118786897972262e-8 
7.390412661991257e-13 
4.076689805210295e-8 
2.933480228341995e-12 
2.6165183175947343e-12 
3.498855503761051e-12 
1.1751365301779487e-12 
3.630393674748487e-8 
9.010634259384088e-13 
1.5028112955027393e-15 
3.406532758890994e-12 
1.6413452148208923e-15 
1.1590372815031037e-15 
5.16494359057803e-8 
1.0973358976064644e-15 
8.759197128665688e-10 
2.4018338607924303e-9 
9.904266945087681e-8 
2.863870120334243e-9 
2.3228797858422088e-7 
7.966288837371968e-9 
0.020072966304237643 
4.509200548602512e-9 
0.004331691874501778 
0.08977733539898576 
3.871520782581962e-9 
8.744808290384923e-10 
9.649160766671734e-10 
0.015089975115708238 
2.3671142457605597e-10 
0.07872714044004904 
5.423475930695782e-16 
2.318748218627475e-8 
5.6886833930567596e-8 
5.554091411479809e-9 
5.797426480471867e-8 
8.801969905507481e-9 
5.028633165043766e-9 
1.3338293231627217e-8 
1.4739424480616157e-8 
1.0733321654557565e-8 
8.077875687691236e-9 
5.970457791881299e-8 
9.53866459984037e-9 
2.6533640687663794e-10 
1.2565021742192437e-8 
2.298588199011e-9 
1.1704877603216673e-11 
5.915279262872879e-14 
1.3325830454109132e-8 
3.047827338024192e-8 
1.611003169663994e-8 
1.7319993751022405e-8 
4.183056620929985e-8 
1.750944464354212e-8 
1.0915200910126826e-8 
1.2136457851221518e-7 
2.121868562133795e-8 
2.7469568319275092e-8 
9.979728749338237e-8 
1.1434365198234251e-8 
2.7377053477958915e-8 
3.4983781497654307e-8 
0.02099114310523982 
0.013296338611459964 
0.0305799710404397 
0.036437115306082554 
0.0066852585400728705 
1.4441273988225297e-8 
0.011222398846655003 
1.6685035686721124e-12 
7.498579358060418e-13 
9.493828365925566e-13 
5.477213672571592e-10 
1.1830727942746942e-12 
1.4326657914630714e-12 
4.0661276438571073e-13 
6.631117610995126e-10 
6.599888355227068e-10 
2.2933942227482204e-10 
1.2373570117485319e-9 
5.021708986963449e-10 
1.829588963778501e-10 
6.343372798587386e-10 
9.957679176850916e-10 
2.130022123623277e-9 
1.431695180381893e-5 
2.2063196340900674e-10 
5.271871262644306e-6 
3.47427456898969e-10 
6.14132607018005e-9 
2.7456567473323156e-9 
5.30675519694677e-6 
6.555480816351919e-6 
2.0134415082741906e-9 
5.038381713781291e-6 
9.566261596809783e-9 
5.568401549662248e-9 
9.855161884643734e-6 
0.0010592190250179158 
0.0008085263249624068 
3.2376515276186685e-9 
2.9318372525380586e-10 
0.004401256891804051 
0.0002549935486709965 
1.2232750638105595e-8 
3.0923082825189654e-9 
0.00017723132618859358 
0.00035295578053956447 
0.0006547667139844721 
0.00017328302129085963 
0.00032303709219039207 
0.00021960580333429847 
8.06741682596473e-10 
0.00011765080319724527 
1.1306780137176208e-8 
2.4550612284683356e-9 
8.778268098953304e-9 
7.337104890810518e-13 
3.9883120849039447e-13 
5.738771059231185e-13 
1.8401634336054122e-9 
6.468468218474513e-13 
3.2060047891227625e-9 
6.199698370633051e-13 
2.428000150821272e-13 
3.0104028133435976e-13 
1.886821443613232e-12 
4.913762877043208e-11 
1.8710754124631623e-13 
4.799036813507288e-8 
1.8701617942258244e-13 
2.0383633466784655e-13 
4.479461793648001e-13 
2.329362796216713e-13 
2.463284962001927e-13 
8.12098666466052e-14 
5.883795190847246e-10 
2.940021999254901e-13 
1.4718158172468968e-9 
1.3846704316247598e-14 
9.216828623043463e-10 
5.246849986788024e-10 
3.5118662993003243e-16 
2.803051831621996e-15 
1.2933183749383044e-14 
9.33301225209392e-11 
2.4752430972840928e-8 
3.7790050664720367e-10 
8.661392035479047e-15 
3.200616618219872e-14 
1.8788030926354522e-10 
4.813335243582946e-15 
1.967698726735768e-10 
1.1541402911350372e-8 
2.3325628174318863e-15 
5.1533760614663505e-15 
2.4833401802271356e-11 
1.4829141748223537e-9 
1.1483620714008762e-14 
6.967815218653834e-15 
5.077569176193107e-11 
3.7046346752952167e-9 
7.053696196968961e-15 
1.9721868405610366e-8 
2.5626730000219524e-10 
2.4441209992824353e-15 
7.071026194992868e-9 
7.853818985665753e-9 
1.0356317742887709e-14 
2.663981835199284e-9 
0.21973229892058835 
5.999053765154492e-9 
0.018192220933050136 
0.014489078100618271 
0.0047333221147864415 
0.028098950855329582 
1.41237131648524e-9 
4.0612895601060035e-9 
0.0384461320217952 
6.84442907282564e-11 
0.013972130416371532 
3.758141672095848e-10 
4.2952854464574304e-14 
7.4048692030978175e-9 
8.187521232325848e-14 
3.002980621695542e-8 
9.773269996815866e-14 
4.03818714299866e-14 
0.00035315697355841084 
0.00021347755486889468 
4.243359242854763e-10 
0.00010743758814380979 
0.0005603162242087067 
2.256108850824633e-10 
5.945991606685183e-6 
2.7621092473098294e-6 
1.249252398898047e-10 
3.2357936738604714e-10 
4.3625815553423975e-6 
6.4087827065314455e-6 
2.3868867527001297e-6 
7.379387491559873e-10 
3.053057112595892e-10 
2.3486619383017647e-6 
7.394839000160114e-10 
2.0534894294679085e-9 
1.113467096754729e-6 
3.845550609878486e-6 
1.5946500840077497e-6 
2.211879159349698e-6 
1.8872585058486627e-6 
6.826604427007074e-10 
2.1256284863980524e-6 
2.045924312860956e-10 
2.0832048265405183e-10 
1.0713332749282426e-9 
1.0471572199363043e-10 
4.571233227826899e-10 
1.7378862157767275e-10 
9.480263959892154e-10 
4.7031005574535565e-11 
6.47434707014698e-10 
6.34068603764232e-10 
1.1703881327284343e-10 
9.958080199340309e-10 
1.7946317288211855e-10 
1.255364243952129e-9 
2.1000560679567924e-10 
3.0433574459232613e-10 
1.806725235455284e-10 
3.8669333897613603e-10 
3.932120893416671e-8 
4.6555552925811607e-10 
3.767698848739314e-10 
1.2398530831286424e-9 
2.1623854639501956e-11 
5.204399494450018e-10 
5.756939534558547e-10 
2.8952748579546077e-10 
4.619719973732746e-6 
1.0646211571335552e-5 
5.982387110283844e-5 
0.00010427321121054146 
4.969295187226265e-5 
6.561150002007881e-5 
3.5585288077127866e-5 
1.4983157029467683e-5 
2.859400868926962e-10 
5.2512388577575344e-11 
4.425000922428442e-11 
5.0043891355690216e-11 
2.0454973896372386e-11 
1.0518277355964246e-10 
4.1530577430254554e-10 
1.167924942986072e-5 
1.257680016927168e-10 
3.990029175078709e-11 
3.01440287763053e-10 
4.4527912014262716e-6 
3.5474337692333115e-10 
1.7502686148666464e-10 
2.994514325544042e-6 
3.2129159959073283e-10 
1.1985198907784313e-10 
4.02733344043282e-6 
1.3609877776776895e-10 
1.7602486201317681e-6 
3.341397070440784e-10 
3.402949082475808e-10 
1.6916542600246803e-10 
1.6921907017536403e-12 
1.2420379646673993e-9 
7.036839192535462e-8 
1.8734251767694695e-6 
1.1874288695654876e-9 
2.420700025507838e-6 
2.3597079644926536e-6 
2.8684363025769032e-6 
1.238122133207772e-10 
7.004116543155521e-11 
5.242062596698296e-10 
6.571797296309824e-10 
5.793975311236145e-10 
1.965336216069235e-10 
1.946476543344153e-9 
2.0331955526664344e-10 
2.297399196540678e-10 
7.031420117650575e-8 
4.989882611611023e-10 
8.122413849864275e-10 
5.891946385403417e-10 
6.083786918615925e-10 
3.679155491948379e-10 
1.7619368691781014e-11 
1.5997401904692786e-10 
1.9592969698002897e-11 
2.5400585491952337e-11 
2.629681944139971e-9 
1.0658493965927403e-9 
5.444849416362664e-10 
1.413887134654607e-11 
5.995553544098882e-10 
3.9794198129993016e-10 
6.430549668830225e-11 
7.006151142143654e-9 
1.2886872075664152e-8 
3.999718259999028e-10 
5.289932153207747e-9 
8.233481722952156e-9 
2.322077362204157e-8 
4.9509954886498346e-8 
1.8154094590738652e-11 
4.96641102522114e-9 
2.5502527374632662e-11 
1.321769732300877e-8 
2.208308408828057e-8 
1.8144231308933815e-8 
1.774619900602087e-11 
1.2670772428398053e-8 
6.073898344164697e-11 
5.225020638507137e-10 
1.764628697346929e-10 
1.8940198119242467e-15 
1.919250031331369e-10 
9.259933895211436e-8 
3.716236813795393e-10 
1.9110302770401467e-15 
5.277635921932044e-12 
1.850879825520072e-10 
1.4631262731962247e-10 
4.0439289443239793e-10 
1.7962877911650943e-7 
6.873634244677879e-8 
5.265402956389529e-8 
3.1166756634923444e-10 
2.3472015921860633e-7 
2.4292369260426124e-12 
1.2436776611666134e-7 
6.553268593243525e-11 
1.0592081988403726e-6 
4.6575290540605457e-7 
7.269369617105172e-7 
4.6839014959155944e-11 
3.35180220646843e-10 
3.044257323741922e-7 
8.510880575268483e-7 
2.4675420897854184e-10 
1.5117703819603139e-10 
1.09452720704637e-6 
2.1079546310491643e-7 
6.148479464630267e-7 
7.623472832198548e-8 
2.182581775420611e-5 
5.585878573798247e-13 
1.1606460936359729e-11 
1.3340304080426476e-12 
4.116012913840228e-11 
6.194890973956509e-11 
3.468799488935646e-10 
5.6791602526072154e-11 
8.38353302013456e-8 
6.353976306943333e-12 
3.527758862261955e-12 
1.122140263556325e-11 
7.803426222228261e-12 
7.860457290138496e-11 
0.00016058944662578393 
4.389690462732052e-5 
4.099945672367263e-5 
0.0001656372874011157 
7.051610244478655e-9 
9.291664605816954e-17 
0.00010903580160425749 
4.0575598230313044e-11 
2.706248795688456e-10 
8.448696744916943e-5 
3.314542653313197e-11 
5.146301296447826e-12 
2.9092798342432078e-5 
7.792075436243937e-11 
0.00016763279678670925 
2.599400276407458e-7 
2.396338195302041e-10 
2.8421787364465143e-11 
2.85587875927871e-7 
2.3820206616312683e-7 
4.130178846492127e-7 
7.84964372525271e-8 
4.210074888301618e-7 
1.778841235234051e-10 
3.272703739036558e-11 
8.004331406248383e-7 
3.7433524361368316e-7 
1.9902525655066438e-7 
2.4056509156791555e-7 
8.754472281797682e-11 
3.3505679794946196e-10 
2.3160635343912508e-10 
9.165916254506573e-11 
1.6283417258814855e-10 
8.43787032870832e-12 
1.3232100657421204e-10 
4.415780040519278e-12 
9.925691943091794e-11 
3.199745021384979e-10 
1.6105878038951078e-13 
2.739048008416611e-10 
4.544388388701663e-12 
1.481630629016962e-11 
7.284112145614684e-12 
9.0232187812518e-12 
5.30573342250641e-12 
5.580095360940434e-12 
4.360676951527336e-15 
2.6067755869938528e-11 
2.6900584559418332e-11 
1.1440800714414024e-13 
1.3325747399293857e-15 
5.192941442044496e-15 
2.4316863094201026e-11 
2.6814998180471373e-15 
1.4972710439422968e-12 
1.2924719779267429e-11 
6.3700017553441716e-15 
1.0884694728155954e-10 
4.638475597376276e-15 
1.0942403945168656e-14 
5.1420696516303794e-11 
3.367455855596766e-12 
2.0045212853403933e-15 
2.2060065608621142e-14 
8.071722418744173e-15 
7.325672353995865e-11 
3.4693418906966905e-14 
1.6792604005717912e-10 
1.118961298912001e-11 
1.753839809692399e-14 
4.689734410564865e-11 
1.0428035777237453e-14 
2.2846503815271594e-11 
4.4031744983644476e-11 
1.0347009724374325e-14 
1.6455078463660854e-14 
0.027380872055344996 
9.508004316840712e-12 
0.011030520525631634 
1.8071784307685084e-11 
0.005006584371943749 
0.006103454313176183 
1.707755140600075e-11 
0.0160927160827325 
0.004115642352057366 
2.2557103299843725e-14 
4.739828416120877e-15 
1.4746184060400624e-14 
2.461631944071475e-15 
2.9341374181829527e-13 
2.7841218938534466e-14 
9.452859958787143e-11 
9.08491102910591e-12 
1.393501706122035e-11 
0.0018703487830562821 
5.369514451382978e-8 
0.000719544067745138 
2.0908129922880034e-11 
2.384414863573637e-14 
4.8800995309496035e-12 
3.3211116481007296e-11 
0.0012822651961928286 
0.0009959511248378587 
0.018925029568440648 
6.941696449145655e-11 
1.1430380421929847e-11 
0.0009242375095356006 
0.0013203175111304324 
0.24389157923936863 
0.09204750186838628 
0.1573929055784598 
0.20078246436970207 
0.5864414944797224 
2.0333394458175017e-10 
6.732587829404921e-11 
0.38419770003009907 
0.47251755595809086 
1.4162506549309717e-15 
1.4598177297516563e-11 
4.433523744996908e-15 
8.087825884745611e-10 
4.129957650224543e-15 
6.206046097167614e-15 
2.719163956072708e-15 
1.926055473662209e-15 
3.762514279141521e-11 
1.8679179920710294e-15 
0.0005883521025138817 
7.2615458036789624e-12 
0.001393144683205461 
9.259144981787685e-12 
1.9255194202565292e-11 
5.627618817482897e-11 
0.003142454650053624 
0.0009925936615961097 
0.0020136505667699913 
1.8388982529870223e-14 
6.33554487110143e-12 
1.1961262845962087e-12 
0.0013085511644900462 
0.0004359736095827013 
1.5240699823612418e-14 
0.0014711819335578077 
0.006942059061313957 
4.997544109284737e-9 
1.3386582676701558e-12 
7.06161523190172e-9 
6.3432526934777094e-9 
7.218033772821901e-12 
2.1774855862976127e-8 
8.533729518422065e-12 
1.1135278349646884e-9 
3.686298787674025e-9 
2.1585653600563629e-16 
3.751242149409694e-9 
6.202695015232472e-12 
7.755189124578449e-10 
9.608794167469733e-12 
3.0225410186924957e-12 
3.50137363779526e-11 
0.0018754837846545682 
2.3090357336563595e-9 
1.5359908114298481e-9 
0.0017500498203456868 
5.523925143418469e-7 
1.9333518479088995e-11 
2.2745901633797136e-7 
1.2833093517939744e-7 
8.976458992559259e-12 
1.4877329963021642e-7 
0.00031698060266342407 
3.940863066694749e-11 
0.0028792417816228895 
0.0010189070349773423 
4.483687819046516e-12 
9.401234984690328e-12 
3.2317402999059946e-11 
0.005126265352460336 
0.002841701185077056 
0.0006457968993508878 
1.2312699321924858e-9 
2.5203957268277217e-9 
1.392971721032228e-10 
8.091864003385219e-12 
1.8201692265514377e-5 
2.7937758655307344e-10 
2.136324798923681e-10 
1.9572968031756156e-5 
8.515968163968733e-10 
1.7275461582960974e-10 
3.07979182120866e-13 
2.9656384585776045e-13 
0.0002762201111439811 
2.425403369783501e-12 
2.4270901647064914e-12 
6.642267416601521e-12 
3.883928777642917e-12 
3.2566832882224208e-12 
1.5999076024313448e-12 
1.6828096967488278e-15 
1.8149598098634182e-12 
0.00011418198122162356 
0.00030539558876565973 
0.0005962403845151099 
0.00022308263772304843 
2.061217770149283e-12 
2.915246860703167e-12 
0.00024872589360443956 
1.143383928814427e-12 
1.2561721072678427e-14 
1.537381291159696e-9 
2.3144996891452076e-14 
1.4651214770176825e-14 
2.4230974562399894e-14 
6.949535418367209e-12 
5.492635312727743e-14 
2.062896017188971e-14 
8.531027697079907e-13 
8.03945441656026e-15 
1.412408225949306e-11 
9.343357552831996e-16 
1.3343171367512972e-11 
6.217236913355859e-16 
6.122494215475517e-12 
1.1845248282226353e-15 
6.839255387717496e-16 
2.267468245662973e-11 
6.029502076644026e-16 
1.4075280530470402e-12 
6.079044492207942e-16 
2.9361275203326957e-12 
2.8187285416881944e-11 
6.359667938049318e-12 
1.0519634017462237e-11 
2.4749354906023404e-10 
1.885351804148013e-12 
4.107459377507953e-12 
4.441503560118493e-12 
1.8581136370020624e-12 
7.092432437653218e-15 
7.400902881675104e-12 
1.790441641037817e-13 
4.6312503111405e-17 
7.063264913001452e-12 
6.660967658519908e-12 
2.5828840825761302e-5 
2.864005771802552e-5 
1.6113282825125478e-12 
2.862711031932572e-12 
4.656631627222398e-11 
5.54769006408896e-12 
6.30015693721305e-12 
4.0641356540601696e-12 
2.307102557351057e-12 
1.0388708604306278e-11 
6.7450602910984494e-12 
1.6895603107338481e-12 
1.9124832048743263e-12 
7.525338794087654e-13 
5.099893970699724e-12 
9.372741636932946e-13 
5.646340838521847e-13 
1.238684659673242e-13 
8.893295399514046e-12 
1.6160078051318626e-11 
1.8288997756658772e-11 
8.241905696635516e-11 
6.06646666576387e-13 
1.559783494810622e-11 
3.3891022903879855e-12 
3.218366206148264e-12 
1.3420240754390775e-12 
4.7211883237218784e-11 
3.471815814281733e-11 
1.051910220182437e-11 
1.986696147261883e-12 
6.614521747362093e-14 
1.5965014999363118e-11 
6.533253144038304e-12 
1.0247195591192588e-12 
2.4009364905933656e-12 
2.926539785947276e-13 
3.085766326892201e-11 
3.775130444036765e-12 
6.495920323920142e-13 
1.3898417707627866e-12 
5.866168874624408e-12 
5.102252055842136e-12 
2.9455664263490398e-12 
7.544492380468187e-8 
4.8575874742938075e-8 
4.893513321668528e-8 
1.6060883883410196e-7 
8.17792587242989e-8 
4.445409291878386e-12 
1.5756452692263566e-7 
9.064978995416042e-13 
1.0831342454536721e-7 
8.195158205492182e-14 
1.4134505917479076e-12 
1.0082240930871915e-12 
2.605184549787524e-5 
1.2158971085169715e-12 
2.0764684019181436e-12 
8.000868484846237e-11 
6.481829889692053e-13 
1.1915249654894281e-12 
6.20611511472532e-14 
1.1773232910145506e-6 
7.693957285793103e-12 
1.7575453187746427e-16 
4.77746334279157e-14 
3.3122151664309115e-13 
3.4997249782018745e-6 
2.153496982318781e-6 
5.477668562912618e-6 
9.684806619879777e-7 
2.8198806778998747e-6 
5.255032160718868e-13 
2.1418048530740848e-13 
2.5603094561823495e-6 
6.445528831024024e-7 
1.6378750821923791e-12 
1.2622796343735014e-11 
5.5573417877213496e-6 
1.792230071815873e-12 
4.5101248904910695e-12 
4.3917630796248697e-7 
6.686638390934349e-7 
1.0433977126630505e-11 
4.862283843697683e-7 
5.495306125490321e-13 
1.8503845912742145e-13 
4.3354716146007615e-7 
3.676229097455884e-11 
5.513010894065628e-13 
1.8409292170548096e-6 
1.5041444764119622e-6 
2.479607765393471e-7 
3.1618201427106654e-15 
1.8714919269760288e-6 
4.266291670537309e-14 
6.780344684422502e-13 
3.515495472922989e-12 
3.1626823181633273e-12 
3.3976985801398194e-14 
0.08482799115116557 
7.76071761418681e-14 
4.805033585699774e-14 
2.434317411546701e-14 
8.973287140070048e-15 
3.0739709916341463e-13 
4.811911757249931e-14 
5.6718911746160146e-14 
7.473491758459846e-14 
1.8207771167601076e-16 
2.8165241586005946e-15 
1.3623596146725797e-15 
6.581861997866268e-13 
3.759404434227222e-15 
4.535000714772445e-14 
7.814207950779414e-14 
1.0694984569290621e-13 
1.2914868516632973e-13 
0.15602727458434112 
3.5484705007427315e-12 
0.253747763179589 
1.3639408310782647e-13 
4.5168147021545435e-13 
0.328241707499176 
6.545631707019668e-11 
0.2454909006084183 
0.15032855706880904 
3.420091217476946e-12 
0.28094411061892094 
0.1684109367466832 
4.302808858450078e-13 
0.13994536086708848 
0.13466530526260995 
8.105530422838841e-13 
2.9791907280551203e-13 
1.2997089749651018e-12 
7.363614485118803e-13 
5.16698803023369e-13 
3.524161480412383e-13 
7.802669289820191e-13 
1.3225622662122487e-12 
1.1157622830905502e-12 
2.483047815812739e-13 
3.6071079974260677e-13 
4.4004739430783264e-13 
5.162969163676739e-13 
2.793909665568522e-13 
3.1358401225385526e-13 
2.844157514848752e-12 
9.236138697131025e-5 
4.372328460056957e-5 
1.9153160985842834e-13 
3.794099178247326e-5 
8.300418776622559e-14 
5.825810061275165e-5 
1.2003937083908024e-12 
3.061655014597096e-5 
2.146486437255511e-16 
9.486810066375071e-15 
1.1959310924367257e-14 
1.1637813119439092e-14 
2.6700779838371825e-15 
1.0569368099596306e-14 
2.1386967766249927e-8 
2.491248074848189e-8 
1.5574618380783714e-13 
1.372360576406973e-14 
1.3562272264797045e-14 
5.460573692151298e-14 
1.4503694736615897e-13 
1.4998057503764206e-14 
1.634775829595665e-8 
9.266764447911048e-9 
8.676669364480113e-10 
2.0840789514431537e-13 
1.8127334930272413e-12 
2.438282708307214e-13 
8.559158764038272e-9 
2.7308461311042887e-13 
3.4411335145839874e-13 
8.757678739503413e-9 
1.4889138275247278e-16 
9.226461496203889e-14 
9.593569746913913e-13 
9.790707419010977e-13 
0.24481607082136267 
3.0494862260281027e-14 
2.044418006458857e-5 
2.4536076678448226e-13 
3.5016228070082437e-13 
2.827859665559742e-5 
1.2758490277801263e-12 
8.260324046863663e-6 
5.799551096994358e-6 
1.7525638914976527e-5 
9.741856642359432e-13 
3.6932059810616603e-13 
1.4886666916589077e-5 
8.867825251523642e-6 
1.9115658645980383e-12 
8.403981953880774e-17 
4.68099966065664e-6 
7.442172728780904e-13 
1.203074109208231e-9 
1.3323714689355316e-9 
1.0159397876705841e-9 
1.586493238659018e-9 
3.91340110992992e-9 
1.2575409324183388e-9 
1.8676945606887034e-9 
1.0399513934672561e-13 
0.0013207193898249966 
3.0283431892965253e-13 
0.0010996751972345876 
0.00036904287643640244 
1.4972741877721644e-13 
8.854306382371312e-16 
0.0005240129166692465 
1.3557721505433607e-8 
1.166323962715333e-8 
8.092861702872903e-13 
3.224862631631661e-14 
1.282573587671591e-7 
4.5775823294241624e-14 
7.922203473381044e-14 
6.840090658184577e-8 
2.843451620119746e-8 
1.0058176724402202e-8 
5.324692655751169e-13 
3.91019833931165e-13 
1.5681440769019726e-13 
0.23339812298948676 
1.6192107762160817e-14 
1.2907986859875388e-12 
3.4904143765577753e-12 
6.178199874540709e-14 
1.0443631244227856e-12 
1.5842680571199362e-13 
9.372398475893223e-14 
2.199834181113814e-12 
1.7981149004491297e-12 
1.4183929138368107e-11 
3.826997168472468e-13 
1.4276778161800926e-11 
1.6563813039739072e-13 
1.16822800952381e-9 
2.3524331578861486e-10 
3.579720849680641e-13 
2.5593872290998715e-12 
1.4094833662640592e-10 
1.6386759127292042e-10 
4.99618196526126e-5 
0.0001713011740066459 
1.2064322752201913e-13 
3.1175220113659756e-14 
0.00015085315356237893 
0.00015242411744641193 
3.9628229892865615e-14 
1.2574647434963642e-13 
6.00230647440155e-13 
0.00035691016900514657 
4.5572364071902064e-14 
1.8238955198567456e-14 
7.44052934429868e-14 
6.950717586009417e-14 
1.8714460572118735e-14 
7.125006542587533e-7 
1.9570571385956336e-6 
1.1273595111433591e-13 
1.518609896236395e-14 
3.0696874425032905e-6 
0.0019675815359175017 
1.2664101360075395e-12 
0.0018778983851450205 
0.0017027738298645376 
4.4645310752242925e-14 
8.29344569273693e-15 
0.0014148335952005255 
0.0033509035497491795 
1.0847393739304071e-11 
1.5641960991933756e-14 
4.575672178401887e-11 
1.5532455303846793e-14 
6.169711105137616e-15 
1.79685606935457e-11 
5.214070597627322e-5 
2.8195588254756284e-5 
1.7693526805334183e-5 
2.925163757391194e-5 
6.344705207890118e-15 
1.4658931113393442e-5 
1.2591694200979532e-13 
1.587840447203003e-14 
9.821304188999494e-14 
2.4588782293282527e-5 
8.066777814128881e-14 
2.917496963251541e-5 
1.3479848553260324e-15 
1.8197524713275456e-15 
1.1494622171436573e-15 
2.526354246266347e-13 
3.3305725763103614e-15 
8.228753112590945e-16 
7.86698425021936e-14 
2.8127991396246175e-14 
0.0001860383862966871 
5.985798502784006e-14 
0.00042993753798866076 
0.0005855688853224321 
0.0004044799376801517 
0.0010615340898137368 
1.3024031839527255e-14 
6.112476393200622e-14 
2.277466853911082e-14 
1.8381375013362968e-14 
1.1477682832618737e-14 
1.829450720032713e-13 
1.5117396572946512e-14 
0.0018396152094626423 
9.264478743038402e-15 
3.4228063160713245e-6 
0.0014048413167514519 
2.1031066276478294e-13 
1.4421691680541888e-6 
7.389992567414402e-7 
5.186510863934397e-13 
2.6762252214661784e-6 
1.9920430492368392e-6 
2.78532714569004e-13 
1.571572862976418e-14 
1.1405461437405706e-13 
4.1624261599270894e-13 
3.9733305400749086e-14 
2.9056294843282327e-14 
8.216626921177617e-14 
3.5834008903205456e-14 
1.7077376349620664e-14 
2.744539954983602e-14 
9.83493890593313e-14 
1.1181847901520048e-14 
4.6453079018940274e-14 
1.1973950757503484e-13 
7.7463392991677e-14 
1.9268581064908386e-13 
2.3292891544198627e-13 
4.9890123891201635e-14 
8.343724888210266e-12 
6.551096057154126e-15 
6.967543931509115e-14 
3.312075875830444e-14 
1.1668222094756106e-13 
1.8568269378946404e-13 
4.449078144380464e-14 
1.1014685633496074e-14 
2.2282345027982302e-14 
5.342061817393237e-14 
4.2448646234931394e-14 
5.903022854554239e-14 
3.1088332801694966e-14 
2.7540117648750905e-12 
1.3170170222116791e-13 
2.855473732711852e-12 
7.919226027066476e-13 
1.5044622705452792e-13 
3.1734457345325864e-16 
9.109696275990612e-13 
9.151683200681867e-13 
1.7365417780432284e-12 
7.349156150772022e-14 
2.5285673091425923e-15 
2.4376856270053274e-13 
1.622909580071395e-12 
1.9084336846801153e-12 
6.32011403460413e-13 
7.934142623277052e-13 
3.333915753241547e-16 
8.107661256655596e-13 
6.128985605779222e-10 
2.8035262841790727e-10 
7.873855793249836e-13 
4.3681702176191256e-14 
2.9399864534338766e-12 
2.3279599672562704e-12 
9.28166390309908e-13 
1.1419946975635203e-7 
3.687113093838797e-7 
2.5366999859823085e-7 
1.423451432368461e-14 
2.3359218795100718e-7 
7.126701905168984e-14 
1.3245024795238955e-14 
7.017250234712063e-14 
6.637422730640351e-13 
9.117576868530805e-8 
2.584730680032218e-14 
1.147709995044575e-13 
1.0873639296900942e-7 
3.047210123900899e-7 
7.948876473780834e-14 
7.471643842249894e-14 
8.850895786250414e-14 
3.218609548238794e-7 
1.292600613874943e-13 
1.4981127127786447e-14 
7.013113505181306e-15 
8.463819902228639e-15 
1.6188305093279628e-14 
2.2941374320037713e-15 
2.981674284476529e-15 
1.6142329723638788e-15 
8.576898413462501e-15 
6.4791169644772156e-15 
3.138261839321715e-15 
5.2725167001433626e-15 
2.269064651764717e-14 
7.158072015183658e-15 
3.5722870194284435e-15 
4.55546131446766e-15 
4.3548749121065214e-14 
1.4042510330642529e-14 
5.714808003737249e-14 
2.131295501405008e-7 
3.569605051642672e-15 
3.063611654520611e-7 
1.2772822738468941e-14 
8.365100389690695e-8 
1.324804407308245e-13 
2.1867853042309826e-7 
4.142106912844121e-14 
1.590893842730284e-7 
1.0737085672290334e-14 
1.0374399388769673e-9 
6.793087165830454e-10 
2.2412645763449295e-16 
1.8397166568164334e-9 
2.8628732271289928e-9 
4.9791283145103994e-15 
3.468191931547444e-15 
4.072210740453738e-8 
0.00015496962044384924 
4.541926231910997e-14 
6.107583251916497e-17 
2.6307131437181574e-15 
1.246996134658084e-14 
0.00019201886618486644 
6.673205082475327e-15 
2.0374419518078695e-15 
1.1597353420768085e-15 
2.1894915792981127e-15 
7.441905234250408e-15 
3.592217997230127e-15 
3.1711925307136876e-13 
3.585344559965909e-14 
1.5322987913628961e-15 
7.546596856336596e-13 
2.315160349613208e-15 
5.871010411798778e-15 
3.708104519499829e-15 
5.908085598838843e-15 
0.14464960997376525 
4.32114698114214e-15 
0.04222492683993721 
0.12004111506157764 
0.27476106004092765 
7.857354067427085e-15 
3.672889996955203e-14 
0.00014529817119212144 
8.134823606384754e-5 
0.0001892129170518799 
6.191142696442676e-15 
4.0509329232257215e-5 
5.885108089393278e-15 
6.801211973463995e-5 
5.0980129693935424e-5 
0.00017997197361434476 
0.00013068746139395447 
3.261042500513698e-7 
2.0990815952725474e-15 
3.049698599155951e-7 
1.4887855271787516e-6 
2.5884050859161106e-7 
2.9975711939540013e-16 
7.43167731778087e-7 
1.1704255597198137e-13 
6.1687100509577e-14 
1.5101155076666494e-5 
1.3028812313582669e-5 
5.168806392503089e-8 
2.060931759982656e-8 
1.612706892780214e-5 
1.630469532085945e-5 
3.825878748885692e-5 
2.6343913078463557e-15 
2.3456874068595263e-15 
2.5501096643315413e-6 
2.547181338339995e-6 
4.80412214921727e-13 
1.16732100581577e-15 
2.7507039430326606e-15 
1.0625924129875893e-15 
5.700299406876456e-7 
3.7196224024077615e-16 
4.300132469144074e-6 
6.98669737896991e-7 
3.26755500193384e-15 
2.8404518428548568e-15 
9.455982282093123e-16 
1.1529693934613305e-15 
9.790498827056449e-11 
2.2006810558409339e-16 
5.091052765473396e-11 
4.347358465270598e-15 
1.7941520955613634e-11 
1.6342390045291687e-10 
1.5565401514969454e-10 
6.080590533099777e-11 
1.3600776854566324e-15 
3.054522904572646e-15 
3.0509678059252545e-15 
1.2497922884238442e-15 
4.386302685408373e-11 
4.4276698721701394e-15 
5.067217261263176e-11 
9.392434531579715e-11 
8.852249397548035e-16 
3.6390888055568075e-13 
4.929283298251918e-13 
1.4467885552402704e-14 
3.240505995923772e-13 
1.460690236632112e-13 
7.283522366717993e-13 
7.140519380153956e-10 
3.84964687974896e-9 
9.258708962485362e-15 
5.001965156369067e-10 
6.092695813409142e-10 
1.178755143807672e-9 
2.0818031727244863e-9 
1.0477897181788446e-9 
7.93749453952041e-10 
0.00014821164040637982 
0.0007013634188153024 
0.0003482647719973916 
5.393921399740257e-16 
0.0009413762417284834 
0.00011773484298989521 
0.00012006034871967544 
6.0148898226701135e-5 
0.00010702633542453322 
6.518436095233473e-16 
0.00025495692295696024 
1.279459212912496e-15 
0.00023503528611471168 
6.658993870716039e-5 
3.5004661394817123e-16 
2.2451655286719323e-15 
0.00033357023361253534 
1.663412127646661e-15 
2.061791026855032e-15 
5.444621093945664e-9 
1.5619228030741925e-8 
5.924205228989268e-15 
1.8703831479485144e-15 
7.972778630428838e-5 
1.1945054318957063e-8 
3.4718800726943405e-15 
9.257670808056117e-5 
2.863869576339145e-16 
3.2108114767563014e-8 
1.471206504059505e-15 
4.1640906972789803e-16 
1.0363110778502021e-16 
1.4662393504086608e-14 
4.067966182885853e-8 
3.122588027592505e-8 
3.860539588552669e-8 
1.7753323417125616e-15 
3.127911185292748e-8 
6.871488430711966e-8 
0.9271912511654821 
3.337764810132739e-14 
3.70462631883531e-8 
1.0592296645424056e-6 
5.911418782009716e-7 
6.388431701389302e-7 
3.769060995305737e-7 
3.487463353503588e-16 
3.3784373424935674e-15 
6.23297147089712e-7 
4.7036384508692285e-7 
1.3040599336717035e-14 
1.2584123191539015e-14 
5.895686564411276e-15 
2.2354367491961058e-7 
1.424537584035684e-6 
0.023754055719705607 
1.1829604826378064e-16 
1.8229715604310214e-7 
3.090895434215135e-16 
3.374843263123229e-7 
1.7317975190160746e-15 
3.21694969728807e-14 
7.419201981315853e-7 
6.602800365450736e-16 
7.694764059163816e-15 
3.9593754054634187e-7 
7.388334149658264e-16 
6.713597554334626e-15 
0.009001403754021468 
0.023058248937334654 
0.04513887441051495 
0.04244610851300387 
0.027654215941907718 
1.6451608830365922e-14 
1.2205198191642157e-9 
7.048625746662235e-16 
7.820929335401077e-9 
3.347409770962046e-10 
1.3991513084403498e-9 
1.1506817338215664e-9 
3.3690658513236074e-9 
3.482352626605629e-9 
2.4455230031642874e-9 
4.1064752951795246e-9 
7.665904498120727e-16 
3.729165368160272e-15 
3.2770589255016076e-16 
5.310401410272889e-15 
0.001193076032018755 
0.0007922667417488297 
8.398236537935075e-16 
0.0019367123416142663 
1.6390032536458283 
0.0015377796308904126 
6.03381933336302e-15 
1.0227298571567272e-15 
0.03360768135643033 
8.24341229382463e-16 
6.39181106021738e-15 
1.0985412527771749e-14 
0.0008914765937612194 
0.0005987131754063362 
1.6548234550361709e-16 
0.0007461108950440094 
7.099383522249293e-16 
0.0002826338188062331 
0.0002346242719211915 
2.0224328980410783e-14 
0.0005347278382820912 
0.0014991439474471373 
2.1397016263816076e-15 
0.001768094981183684 
0.0003920701722029509 
0.0010724498776902602 
0.0018729487328656633 
1.2837155849203353e-16 
1.4580291918969765e-9 
9.280802543587093e-10 
1.1762649216670432e-9 
9.656557014947611e-17 
6.457269074132144e-10 
2.292647487321722e-15 
4.0317304341118817e-10 
4.713073321282235e-10 
8.040115731221164e-16 
6.764304648775757e-17 
0.1322241455311466 
1.4260461057547428e-16 
1.0393297022938992e-16 
0.08195385765390685 
3.0503956708033775e-12 
1.577632921808061e-14 
2.921805460011957e-12 
0.0014530925017805433 
6.63690563710403e-16 
1.5019710146467039e-16 
6.147906286252442e-16 
0.0014478376388029084 
1.0865490976984001e-13 
0.0031124806471943462 
0.0010434295991629703 
0.002026291865785846 
0.002049503047785937 
2.2576051961142087e-16 
5.969082182100173e-16 
0.014258385297698762 
3.697746479141261e-15 
0.002409389336607348 
7.482235428270286e-10 
7.437633028863748e-10 
3.879197669129168e-10 
1.4625921646895812 
0.10046238158295712 
2.3523070624848384e-9 
6.99470969497305e-10 
9.74754387998911e-10 
4.692581902403156e-16 
4.7251061305880316e-14 
4.435303924101783e-10 
3.5152115790036666e-16 
3.8397149692833715e-10 
0.0037847542876357776 
0.0077133843855550785 
0.006582131674116435 
1.5763341095562631e-15 
0.007049969788069735 
5.060675851508383e-16 
0.00710754644213381 
0.005462937259659425 
0.005999592379839641 
3.5127634305429714e-16 
0.007619359628821525 
1.3487818255205424e-15 
1.3496933384464412e-15 
8.442921634138777e-16 
2.219105172131684e-15 
6.854323576740784e-16 
5.743609627920018e-16 
7.813584412052536e-16 
1.4607099442718863e-12 
9.132871249131792e-16 
2.322064733953463e-15 
5.448043054862367e-12 
6.833097591390779e-12 
3.2987433181864576e-12 
3.965801274903388e-12 
1.87989875293278e-16 
8.749689831657982e-12 
1.247096964794392e-15 
3.455413279989391e-15 
7.563891358749098e-13 
0.03802176091276053 
2.6586719822231815e-16 
6.279691956009426e-13 
1.1038387611782707e-16 
5.854017303420829e-17 
2.93101215858207e-13 
4.2731746252641757e-13 
4.917546004239612e-13 
1.760414722944201e-16 
0.05613687725649814 
3.7516474496608016e-16 
2.022022209467377e-16 
3.411307387045083e-13 
3.2444558765709876e-13 
5.223089059349564e-13 
1.0348843437886747e-16 
0.0011186258201499267 
2.07932266509357e-16 
1.0420948608626674e-16 
2.6222694991347274e-16 
0.004899796518508212 
0.021106672968972236 
1.256460182045279e-16 
1.1810833966549494e-16 
0.007603018733698428 
0.00947085513607483 
7.408113622320916e-5 
4.368813173458248e-5 
1.9765017246409222e-16 
1.587610189880975e-5 
5.593941560449346e-17 
2.334323187757263e-16 
9.368061889786492e-5 
2.7793393186535765e-16 
2.6065456120893983e-5 
4.305126882457974e-5 
1.8796086253090833e-16 
1.1212614098445339e-16 
2.061234940283564e-5 
6.367488314127314e-5 
4.075327119298477e-5 
0.014155638819386116 
9.348857831172737e-6 
2.583002787084986e-5 
3.5021839498334166e-5 
1.0163208064448004e-5 
1.3843497235303117e-15 
3.5474608257840498e-15 
4.523597676212748e-16 
2.167883324322764e-5 
1.838433008679947e-12 
1.0366637778088165e-12 
2.3239499149010536e-12 
1.7335590934703684 
3.692490514702747e-17 
3.467951127436244e-8 
6.94932473822702e-13 
7.647973027627547e-13 
4.91402184049727e-8 
3.4037578965274415e-17 
6.604117287595162e-16 
0.007342898677754606 
9.22581473052027e-17 
0.0010805166785435357 
0.004862920878990587 
0.0006954788647358526 
8.485897358771011e-17 
0.0010075841624346549 
8.948884270925321e-17 
6.208309478376062e-17 
3.3922089084694903e-16 
2.884718457885467e-16 
0.001360772607097524 
0.013083302496246965 
1.0420948608626678e-16 
0.0072787954443885704 
0.007408275355358759 
1.1905579695319946e-15 
2.885911810355053e-6 
2.175439557565321e-6 
9.167186324711265e-7 
1.9579194633430927e-6 
4.636500966118253e-17 
1.339322436262782e-6 
5.0122071397332246e-17 
1.085308106032154e-6 
2.5317787744213594e-6 
1.8770834282300406e-6 
2.6547188792220103e-16 
1.2449471480284724e-6 
2.0265695471187197e-6 
1.1991994883416075e-6 
1.4699924086640305e-6 
4.474016943468354e-16 
1.21668378125879e-15 
1.4630718982953235e-6 
2.9739295743709904e-7 
2.8463512277154825e-15 
1.6523136844704236e-6 
6.88204872187543e-16 
2.1986722142258854e-9 
3.0090509747512825e-9 
4.6942394730207657e-7 
5.085658913894697e-7 
4.818510136257257e-15 
1.5769015666383114e-7 
2.558673044411649e-7 
1.2184310243264595e-16 
6.153041146107658e-7 
1.278039747031546e-8 
1.2782623086207479e-6 
1.4499405890635851e-6 
3.9446049086607227e-7 
0.0017110105789805697 
0.003172504308768166 
4.00434074146534e-17 
0.0017911156165617205 
0.01661616794493828 
0.07988642998800019 
0.0027418767379057004 
7.41284090406259e-17 
4.7377896606923966e-7 
4.860497067030427e-17 
4.3891097302120794e-7 
2.0870480354643236e-16 
0.09599757461958776 
9.643131940614577e-17 
4.719401270837821e-16 
1.450030211931996e-7 
2.3860438455239906e-16 
1.010034484344806e-16 
3.0858381784474755e-7 
8.003869569970718e-7 
1.644542802735594e-15 
4.393727197630546e-9 
4.0992613928935993e-17 
8.459126784452621e-9 
2.911457765304869e-16 
8.64801456828193e-9 
1.1016812147894806e-8 
4.565734570752156e-9 
3.550558825772015e-12 
1.958995948432453e-12 
6.941049394903426e-13 
1.3319828872714806e-12 
4.33073116369166e-17 
3.992879117867611e-12 
9.190884656855069e-13 
2.3682943784858817e-16 
1.810848466525701e-16 
1.1411775163338052e-12 
2.6234894402593653e-12 
9.029884007169284e-13 
3.99562793083455e-12 
1.2558775423879899e-13 
8.890163064615442e-15 
0.02686156381273237 
7.651696114016546e-14 
6.666420030693519e-14 
7.166648799365604e-14 
3.1977413178967706e-16 
7.461557820893418e-14 
3.1101346466015653e-12 
3.872974239884343e-12 
3.9328796305157965e-12 
0.0002535414924191644 
1.8200160138398829 
0.0005428210219780946 
0.00014022633797814422 
0.00022972453088478104 
0.0001820557584132608 
0.4273391512893639 
0.07568133688319498 
1.395222879673797 
0.0001548798925356738 
0.0002749925065666604 
4.21905107913151e-12 
3.120885223054331e-12 
2.233672066563545e-12 
1.2645291133731368e-12 
0.18178120175819415 
8.201394393657417e-12 
0.3505274245122541 
4.4443942978926934e-12 
0.8689702699451056 
0.03373662885463294 
0.3745985907585783 
0.21675148573627082 
0.028720697382059856 
4.3849537219153485e-12 
1.0257622727402929 
1.2678891610986288e-15 
4.4474011824713506e-11 
6.274996395491687e-11 
4.288674976111741e-11 
1.4726623892917274 
2.2639458131765672e-10 
6.845792704453807e-11 
1.0815595721696597e-16 
4.86364525939567 
1.1180060093780482e-15 
2.430878420398221e-10 
0.30497318504538007 
0.24772922174104078 
0.10030940782646361 
1.3863640133533932 
1.5303083794766512 
0.09955626764613978 
1.770838770609496e-14 
7.28310354971708e-15 
2.4184066699933797e-16 
0.006251758185757219 
0.043897752650960166 
0.9364540247761062 
3.259120250345875 
0.1002155354760527 
2.8262177382079116e-15 
9.578565130225313e-15 
1.7209128367714616e-15 
3.0791002220515817e-15 
1.9746092929774999 
5.14241600471489e-15 
2.9434960675072833e-15 
3.5206844940274435 
1.0801610146427016e-14 
2.8638623616802567e-15 
0.4924166893344027 
5.045212187375399e-15 
1.7495601475792601 
1.54827899521835e-14 
9.761275727038562e-17 
8.119833077286007e-12 
3.4608851704372397e-12 
1.9252366352561532 
4.1706138977349525e-12 
3.638357466213653e-12 
2.235400724950177 
3.3771557038887643e-12 
0.021792608247879396 
1.8848798248196617e-15 
0.9438908430567828 
7.78794039974559e-5 
3.497663111544787e-5 
7.48645968631147e-5 
1.5224498573800078 
4.7098426645456494e-5 
9.507518918608486e-5 
0.0901617092590952 
0.8793386749989797 
1.1030777882582619 
0.34440117219372485 
0.044340551255910916 
0.021667601955820005 
0.07963160717904275 
0.057306061054598394 
1.517487428928561 
0.12789404513665942 
0.00014107216367624783 
0.00031591571322826605 
0.06301494182765456 
0.07899566076242366 
0.14827154223884034 
2.5379040458316227 
1.2097117191776045e-14 
4.755779900019332e-15 
3.5177566608942543e-15 
5.550204402029225e-15 
2.0313729204601323e-15 
3.502011526696387 
2.2047785979735948e-15 
2.830530319015088e-15 
2.368708667703958 
7.264505538414276e-15 
6.351082806635679e-13 
0.8107291611518607 
7.739611413840868e-13 
3.599378016921981e-15 
1.0408645894669694e-12 
8.112121183335724e-13 
1.5253189714776307e-12 
1.3021310989045467 
3.1235736545382237e-12 
6.013743433159002e-13 
5.022047742283728e-13 
1.3241391077430828e-12 
0.26745260942096266 
0.14959990086622788 
0.09763448524698569 
4.776826295997151e-12 
4.009645522217369e-12 
0.9366370418241424 
0.018247829162697342 
1.3455674504809535e-12 
0.06718404332329496 
4.751276100561964e-12 
2.0370852197638674e-12 
1.7171718145967254e-12 
0.3135177144646611 
1.105631316387901 
0.022934431333527634 
0.17139655164265843 
0.16788141597000314 
1.6904493514404306e-12 
8.044943814934216e-12 
1.0732682686897659 
0.0014635497448368588 
0.004230862109716325 
6.174276850211747e-11 
1.527294742618964 
0.06261033709755293 
7.20482550841237e-12 
0.13692570172763527 
1.9449383051250644 
0.16321621253044563 
4.502669887593324e-12 
8.699197534258538e-12 
4.219510706017703e-12 
0.4953775653713234 
6.088011222265412e-12 
5.030801774573361e-12 
0.20700414213477547 
0.6981302820429578 
1.4563108572407275e-11 
4.6284638413997657e-11 
5.252546421964732e-11 
1.717085408948909 
1.5430678913382428e-7 
0.32349495026932107 
0.43856924890508575 
0.1321949740691538 
1.1848823487935215e-7 
0.3444281995385871 
6.356998880762375e-8 
2.039742959209986e-8 
2.4199432857252146 
1.8370034280487012e-8 
0.00485800043499239 
3.0602298070989925e-8 
0.1468002749930231 
1.1145100318743664 
2.1001665925031458e-14 
1.403942448988034e-7 
3.5995415759688977e-8 
3.581370346478653e-7 
8.714233158648676e-8 
2.793514947599084e-8 
0.05273094693831866 
0.11187318705073383 
0.10189088661997178 
4.920656765253682e-8 
0.18631403205438252 
0.04804866079860222 
7.656585583821415e-9 
0.03119820217580027 
0.17817717967155275 
1.531233983270272e-7 
0.7826948579987729 
6.368445749658053e-15 
1.8884372716855986 
0.0087178875914898 
1.3158851009163795e-5 
0.7203817673715247 
1.41326202403398e-5 
0.032078235444470374 
0.6057500688913868 
0.003647621989722672 
1.435608733299282e-5 
0.01808844466418547 
0.06855658747309323 
7.803095907638598e-6 
0.00046255568091439796 
0.7297597826534142 
0.5094655753854987 
2.1131685702047353e-5 
4.0081247833284103e-16 
1.3088968553808275e-15 
0.3785802063508218 
0.2611957276672852 
1.019888457799504e-14 
0.02432464873237664 
1.5105755270866667e-15 
1.7611800744092526e-14 
0.17333851933382513 
2.7020405296606122e-15 
2.4790125873456944e-15 
1.508248787949978e-15 
0.42825658685356355 
0.1211799465106698 
0.017864741011437736 
2.279481696281766e-15 
2.402018883882711e-15 
0.06402989320705507 
4.595117098902525e-14 
0.04939986894653466 
1.367069376414101 
0.029171079746974995 
1.0717493808873342e-14 
2.4431690196655967e-14 
0.04656719679979477 
0.03818752716168872 
0.015398514910641274 
0.03467657797246719 
2.2367685904443846e-14 
1.9599139817897156e-14 
1.2936528563627938e-14 
1.3384693130391084e-12 
0.0044857964309356225 
4.665997410877948e-13 
2.276085704660683e-12 
1.3187547360198357e-12 
0.04169706471871933 
0.02715936917411109 
2.471633967951017e-12 
0.03950700358185872 
3.994398442002187e-12 
0.001112852635787659 
0.001126862318892061 
1.7364828878051407e-12 
1.240672037222815e-10 
0.06494357712610847 
0.5941325973079418 
0.05216726865270756 
1.4864639387313117e-10 
1.9597195333469352e-10 
0.09412467708611197 
2.9955502505059793e-10 
5.048575832394315e-15 
0.05782621878667573 
1.5106231401646063e-10 
2.0979212708123875e-10 
0.005734207434779318 
1.512171910828653e-14 
6.737831590064589e-11 
0.017825164881996078 
0.028652400681944138 
0.01432541640463825 
5.142540204440377e-10 
3.803758366114784e-10 
0.002714275361957384 
0.04119100988312764 
0.01851923248025317 
0.0007373456988557984 
0.007347511343753203 
5.978354535740826e-11 
0.0371270883520326 
0.009369852232075891 
0.012426990581214763 
0.0014535984092044916 
0.0015988545071332055 
2.741784406371307e-10 
0.001194638271185067 
0.0022275948017597756 
1.6847957153488858e-11 
6.094051496771935e-11 
0.006502392512816369 
0.0007369476086344629 
0.0008461078602271282 
0.005778970148390489 
7.793812101828183e-11 
0.0011213056857699707 
0.001559569097582142 
0.0008337754669139456 
0.0008013108501839136 
0.0034228657715598605 
0.000732465021868352 
0.0037302566361518026 
0.020427379784124403 
0.005779373676552911 
0.01162197569606633 
0.00028974145474405165 
0.001354999001794201 
0.06973127885290377 
0.041058975333612906 
0.11748779725934862 
0.00044859476886152514 
1.0391517006180157e-8 
0.7212195819702221 
0.0032056533998392352 
3.4238600853059497e-11 
0.016278217828916135 
0.008030536056335755 
0.24599315292764706 
0.014247668170973915 
0.48634281997460627 
0.003592271030663347 
0.00941032269951053 
0.046919090998797784 
0.07986103097864741 
1.1710614278916014e-11 
7.788285236822782e-11 
0.017242853516522185 
5.681792322220905e-11 
1.4119291948824515e-11 
0.052979643062641045 
0.26936696836637314 
1.6769272130571594e-11 
3.2667633290983036e-11 
1.5045725979268156e-11 
0.03288818473085675 
1.2019592129995065e-11 
0.004220380671120688 
0.0021503238995950018 
5.177035622222365e-15 
0.00011111888435818345 
1.9826990914114002 
0.004538952596153809 
0.0016837533768675865 
6.400107875210955e-15 
0.0011885387343402044 
0.0013946166735952375 
0.0013010001983138144 
6.64835285125365e-15 
6.499302510344258e-15 
6.580594724475522e-15 
0.0053949599699752 
1.1575701168525823e-14 
0.0004122423638691392 
1.038023151791338e-14 
0.011825865212104282 
2.0557718293645328e-14 
0.00018793306268014812 
0.005760983559187091 
0.00044288560280866183 
0.0009565917401972039 
1.1288889550352172e-14 
2.4561665874276996e-11 
9.87978794947313e-6 
0.006860349328210913 
0.0008945589232821479 
0.002981915418337437 
0.005124188050048247 
9.284498462028744e-5 
9.19898033845504e-5 
0.0041861276326833055 
0.0031404702089699037 
3.798056069026728e-5 
0.0037684620065059414 
3.926065869616825e-6 
1.342373462468217e-5 
0.003415370520900182 
0.003348704090452142 
0.004095379038159377 
8.66936428887806e-9 
0.01015886288501388 
0.013160228275382217 
0.011703950393098591 
0.011816542328388161 
0.009923995323511446 
0.01497292942987583 
0.018876255000658045 
0.012996070617880108 
0.0013003398322749978 
0.0034691815014942125 
0.15418789809549913 
0.0014228756233743481 
0.0006904191683849912 
0.0038896581719884515 
0.06648330681254738 
0.005275807949960275 
8.978751853436781e-6 
0.08294082733029876 
0.0013992238756136257 
0.06309728450543706 
0.0018332504020343713 
0.00022086975256763807 
0.00016650383497618436 
0.018962533533209425 
0.0013390374778275646 
0.00037132549970551084 
0.03648150692233452 
0.2253926326334548 
0.022638098553477894 
0.0002600463994700989 
0.0018034286438920813 
0.0002891249856508825 
0.03854288492189828 
0.0056696763619567695 
0.0032244133951788287 
0.021248763578490613 
0.019331205824540898 
0.00011526043099207157 
0.00030076522833178695 
0.0020186072199366426 
6.868906316124089e-5 
0.044100905744266165 
0.15076854529969994 
0.0008909390262828156 
2.8288780074213247e-5 
0.002376010293820189 
0.0017450203166386989 
0.9014538638731511 
0.03879767858261936 
0.0012736765610443246 
0.0051091752877915455 
0.003166231826742509 
0.08818942448452545 
0.038880006207561775 
1.0614752989659366e-5 
9.679922677708588e-6 
0.0031292819561841425 
6.943904607294408e-11 
2.2714697101061483e-5 
2.7128322547151316e-11 
4.699675494788757e-5 
3.4122071173988544e-10 
1.756965368875909e-10 
2.0247723083588635e-10 
1.734573341976713e-10 
0.0057732197344824866 
1.1020009925601137 
1.892782637890304e-10 
0.7711614154638243 
1.7533431898430019e-10 
0.0010149561635932236 
6.807666720519668e-10 
2.790744280256402e-10 
0.5973392098750162 
3.4547117195449674e-5 
1.3748663036619249e-8 
3.9961278458615546e-8 
1.1839653040846924e-8 
0.0012657200452959442 
0.9898086005259478 
4.066139679827698e-8 
0.00024398161877560326 
4.994241323827923e-8 
5.297380980094166e-8 
0.0002148506734610711 
0.0007763283111438674 
5.1141523764235864e-5 
0.8411409810126669 
0.0009269414031557728 
2.5536930981213264e-5 
0.000702849669651966 
3.7658980041143865e-8 
0.00016064878058992806 
4.069229230929752e-8 
0.001001258197568414 
0.0013717404702058079 
0.0009159315410840927 
3.942078107632413e-9 
0.0011941825371236815 
5.008487050393957e-11 
5.020508933783631e-8 
0.0001300526716137969 
0.0006173997205438589 
0.0009557521974001302 
1.6820897349871195e-10 
3.696087990025861e-10 
0.009012209071959803 
1.8344725741717247e-10 
0.005397958042140286 
1.5517187221157767e-10 
0.00037438295771898114 
0.00019470621558094662 
3.2979950458680266e-10 
2.182323707528603e-10 
1.0413766903447805e-5 
0.0008751099167536489 
2.3955022422802612e-6 
4.396121514432473e-6 
4.860529305940894e-6 
6.574711384332717e-6 
2.979644785358055e-6 
1.8393683034013236e-6 
0.0003755641607454676 
0.00016267548729604234 
0.00028401843270063664 
3.54758484477149e-14 
6.980084636322003e-5 
7.493065333814518e-5 
0.0007124682128834444 
0.00038718949874765567 
0.0006454056227457565 
0.00016850717740818832 
2.3367030384648094e-5 
0.00013224365644577346 
2.7088195765429917e-5 
0.00023233757697131789 
0.00012906442219152102 
2.7268706071004515e-14 
4.374023167885032e-14 
0.0002487767517844012 
0.0024524608603531603 
0.0003001348272395071 
1.0059783807580669e-13 
0.00030213269397157827 
0.0006552225101743663 
0.00034024590537292337 
0.001689692659819607 
6.976958658263622e-14 
0.0004899917612899946 
6.056654543886962e-14 
6.290099872821605e-14 
0.0005515919345974273 
7.09827179267041e-6 
0.00020395679695410035 
1.7109223863196204e-5 
3.509048650693006e-13 
0.011822494281468723 
0.0003253692357285451 
2.202502576102952e-13 
1.6048290922548112e-13 
0.0013565035238125359 
3.089587065455865e-13 
8.667910782227128e-6 
4.4584721236769484e-13 
2.5619455662522955e-13 
3.717357573559903e-11 
0.9676016322445478 
2.9867493019462684e-11 
0.004533858926897187 
0.0005515447211662171 
0.0012923032256751041 
0.00593759062348428 
8.441680503122218e-11 
5.528590481567205e-11 
0.0012339542525442223 
4.0681439317268005e-11 
5.369699196295623e-11 
2.6914842678761758e-11 
0.0005195335690503342 
0.0008112582172613042 
5.847248028757142e-10 
0.00028131907443364857 
5.097584130107912e-10 
3.1175635366842467e-10 
0.0005187006837511483 
0.00036093553705095113 
3.0557249894446614e-11 
1.421407161084993e-9 
0.00047270428572402615 
6.879746289151011e-5 
3.569105342029268e-5 
8.820984690512401e-7 
8.758197691391277e-6 
1.715122718270974e-5 
2.373691808635976e-14 
3.2519231058526416e-5 
7.52933245333588e-14 
0.0002511649454774535 
0.00010877602170675154 
0.00011276167482068348 
0.00018218693561614452 
0.00017089361491532835 
0.0004204660133147955 
0.0002481681706429504 
0.00025638473146511663 
0.003729696960684534 
0.0016720924525497425 
0.00033057884995530594 
0.00010740727626119992 
0.0003957901636864605 
2.829031667339902e-6 
1.1268922165609287e-5 
9.106683266186416e-6 
0.00040897322967958435 
0.0008485057059676545 
0.0002186677895469776 
1.786635633502322e-14 
8.834084315369174e-15 
1.685749296584797e-14 
9.089553776775111e-5 
2.6895660976453606e-5 
6.646456315393033e-5 
2.6676634849371132e-5 
0.0001295344982942758 
3.786492278650878e-6 
1.75504064564113e-14 
0.00016972826580074075 
9.689655774144566e-15 
0.00016823955630590153 
2.2228125681279028e-14 
0.003381073936376689 
0.0005135155399871706 
0.00016721268324798266 
2.6043427993253e-14 
1.8207494747850818e-14 
0.0001329838805218558 
5.333035935407891e-14 
7.949358231651499e-5 
5.463558000748381e-13 
1.551342502085292e-13 
1.2263297935042234e-13 
3.6627336352372616e-13 
3.991420095865443e-14 
2.012743382127981e-13 
4.764869403587483e-6 
1.6130749621166477e-5 
1.6199743274466122e-13 
9.134457691099071e-5 
7.23636495022338e-5 
9.430409251911189e-5 
5.772071986136024e-6 
6.621167704975443e-6 
4.182980071363279e-6 
6.273927300451558e-5 
6.892076680444584e-6 
6.21327670144413e-6 
4.057533372909448e-6 
7.199664932895546e-14 
5.1661401613126977e-5 
3.903100548427297e-5 
0.0003002179555239624 
3.0090878774729426e-6 
1.317839869422215e-6 
0.000600430918747403 
3.101223717549615e-6 
1.8519659354934946e-5 
6.746669373612259e-6 
0.00024371325717526137 
4.824982827547705e-14 
3.4568871491468503e-6 
5.701256843266379e-6 
3.145298302697456e-6 
4.237917228440099e-5 
4.18774402117137e-6 
9.911168881508656e-5 
1.0906035248582043e-6 
2.193868534330284e-6 
0.00011526884475545067 
1.2463614544870115e-6 
1.227854265493662e-5 
8.8360574350552e-5 
3.6786551207447743e-7 
1.2064679689781236e-6 
8.160729706237229e-5 
2.3606888770331174e-10 
5.236933934668234e-5 
1.2092382526781274e-9 
7.28734684371556e-10 
2.0979557890159306e-10 
2.9277022707367224e-10 
1.431220691837991e-10 
0.000317019830947432 
1.0660901720725613e-10 
0.0002461238128092582 
6.582776864775012e-5 
1.4458192169828085e-10 
7.053672077134735e-12 
6.122734204184273e-13 
2.5836855057556126e-13 
3.218836638349582e-13 
3.985754156945279e-13 
6.087774044915059e-13 
9.364076192946058e-14 
3.0777924422636005e-13 
7.4688886917607215e-6 
0.00011201660209897012 
3.84981349629235e-6 
7.853447934228125e-6 
1.4501201502733097e-13 
6.9845363139885195e-12 
2.727763024940653e-5 
1.1041637780458034e-5 
3.632333868525306e-12 
8.507656532729148e-12 
4.125020262264815e-5 
1.4572302934089872e-5 
2.5143413178406155e-6 
1.3913244908135479e-11 
2.4353992269093733e-5 
5.170291808244589e-12 
8.335407189777032e-12 
1.1593898051216216e-11 
6.827438352700496e-12 
2.676383676710596e-5 
9.840645732110035e-5 
2.117663227523669e-6 
1.6365855044642538e-13 
1.3497811947685328e-11 
1.581943251270993e-14 
6.362306739057132e-5 
9.752132309743881e-5 
7.957895643796152e-15 
3.705378257529497e-5 
2.2091603645711998e-5 
9.624750310765191e-15 
4.5913101439049735e-15 
2.5874985187169057e-15 
3.8112958730603936e-5 
5.658237821697673e-5 
1.7613627606131889e-15 
5.761221810651995e-15 
6.36776997878571e-15 
1.66085634010367e-15 
1.5072877600608265e-8 
5.859660977662629e-5 
2.5871556129775857e-5 
2.7852601446161836e-8 
5.889074034148633e-5 
1.4748367155254132e-8 
1.2501513073663255e-8 
1.5389910592413426e-8 
6.149842635199221e-9 
5.8206638652405806e-5 
8.434054568263362e-13 
1.9486413689042945e-12 
1.4473699865130349e-5 
2.3008724483570915e-12 
1.7244143765432194e-12 
2.0740108871784697e-5 
4.714135972533743e-5 
1.3752857589766936e-6 
5.9042979798018615e-6 
7.084206209090208e-7 
1.948704628831261e-12 
3.147665707978239e-5 
1.8230070711459305e-5 
6.04518316277599e-14 
9.93967843264274e-16 
1.403725233544322e-6 
5.907326539806367e-16 
1.2310300776132258e-15 
5.2366180971750566e-15 
1.0118272732166094e-5 
0.0003322532385025327 
1.2820751224217636e-5 
7.1437354057798254e-6 
8.12559713193454e-16 
1.2480298258042627e-15 
1.566818962595721e-5 
0.00016494675965604428 
1.6924825937255632e-15 
2.895594377207947e-6 
8.56846643971794e-16 
1.0973905763849932e-15 
0.000435068866717492 
0.00010804510384089981 
1.6902430973526618e-15 
8.62040384300683e-5 
3.076395892496433e-5 
0.0002606865465702603 
1.3618391838923212e-15 
1.6927177748584385e-5 
1.1818935215579518e-5 
4.967136935719381e-11 
3.079784389503026e-6 
9.266401992701195e-6 
1.766764047240214e-5 
7.4933427138876416e-6 
5.531517844936996e-5 
1.857841556452579e-5 
7.562766523816325e-6 
7.005158285540692e-6 
2.1359177442382206e-5 
9.755301337126987e-14 
1.4769973412097763e-5 
1.0007551384753634e-5 
6.909341439754332e-9 
1.1637840343796421e-5 
3.2252467998204807e-9 
4.067280145436145e-9 
4.146165403897243e-9 
3.456949590067728e-14 
5.55830854272291e-7 
9.649610992543635e-7 
4.656516831110929e-6 
2.3992391157050096e-6 
2.524244211111689e-6 
9.452166668886776e-6 
3.5169736163936572e-9 
5.286620930251414e-6 
5.3062546774576225e-9 
1.0911593699522976e-5 
8.013452179003828e-8 
4.025497471690653e-8 
2.6347720666842542e-6 
2.961944303275871e-6 
4.13459894268981e-6 
9.981444978370926e-6 
1.0409358073488325e-16 
2.054516767755802e-6 
1.1452476945924893e-5 
2.0359825981868056e-16 
2.5112008391480804e-16 
1.3361288835487635e-11 
0.00013062640471301777 
7.301349347366393e-6 
6.212332364954793e-9 
5.117015053090519e-5 
3.6754028090816886e-6 
6.077605113237299e-6 
1.2744941039168023e-5 
0.00023414611469992023 
0.0001585346023448942 
0.00027367103273012765 
0.00034671164742496394 
2.066742059092267e-5 
0.00010781927665992779 
4.528410199526382e-6 
2.5477829597209203e-10 
1.6298586275332337e-5 
7.275961025864447e-11 
1.0592130020492895e-10 
1.9130750305702058e-10 
1.0444021055685566e-13 
2.0554692142320298e-10 
1.8732305981848325e-6 
5.001388820486998e-6 
3.2371606509188667e-6 
6.828929085661416e-7 
6.0114275157432084e-6 
4.046843304767297e-6 
2.8082744886947583e-10 
6.380833202935864e-6 
6.965233252713466e-7 
2.242137302175478e-6 
3.5306892894736756e-6 
2.7693208228032324e-7 
3.718337044879647e-7 
1.89284183367769e-10 
1.7269707836121984e-10 
1.6627512779237855e-7 
2.628586001682373e-12 
1.2595692006026806e-7 
5.481190053868204e-6 
1.4093737131665668e-12 
2.316560446656693e-12 
3.405967144630037e-6 
5.998776344875195e-6 
1.0774332262560626e-6 
2.5835974132522035e-11 
9.090543247325103e-13 
8.707306111728173e-7 
1.2953012034239852e-6 
1.4414252131988981e-6 
3.8138910896586245e-7 
3.1042970275662167e-12 
2.661418260891384e-12 
1.4965714648940026e-7 
3.8666962543552295e-6 
3.9102472205802515e-6 
9.743455838214092e-15 
5.650925534370727e-6 
1.2387638058704977e-14 
1.7436315441663965e-11 
6.377465542578124e-6 
2.9216531348117294e-6 
2.162076409293439e-14 
3.8864479143852345e-6 
1.776951133288189e-14 
1.2481634446227186e-14 
5.873688925707225e-10 
4.586983197320536e-14 
9.897206237173716e-10 
3.5227274523919515e-9 
1.957207569855085e-9 
2.5403340035004095e-6 
4.697754364953615e-6 
1.0565581804336597e-10 
2.6461579749981477e-10 
8.439622658162762e-11 
1.2633073987517144e-6 
1.4892858247161167e-6 
2.2957438136793965e-11 
2.8211127238796545e-11 
1.6113797207677777e-7 
3.5617122150502645e-11 
5.8501268928666755e-6 
6.791408739732727e-11 
7.537096643062934e-7 
7.560699290435975e-10 
1.856488644077387e-6 
3.471922201172745e-10 
1.1269519659721183e-7 
3.211193440035359e-11 
2.6844676777031436e-10 
8.228630465178269e-10 
7.487274955980376e-8 
3.665324307015524e-7 
1.3785132786729627e-6 
1.6844417295862268e-6 
1.929775537837748e-6 
1.7132753187111998e-6 
4.908116066664329e-10 
2.471693991605495e-10 
5.955326204047128e-7 
2.571179508289547e-10 
6.096352253281557e-6 
1.447713416590088e-5 
6.241183197539973e-8 
1.8107043417370418e-8 
1.099725995045218e-11 
2.1389601558161122e-8 
2.827509428938468e-6 
6.221262027654327e-6 
9.046423980044381e-8 
2.876895031072095e-6 
1.2580853046446287e-7 
1.330660362950443e-6 
2.4125405760317976e-6 
9.219271691485906e-6 
5.19420178596915e-8 
1.5694194830533394e-8 
7.440354603572137e-7 
6.858480782636309e-13 
7.967535323070547e-12 
4.693680298589608e-7 
1.8564316497446598e-13 
5.474483500075318e-7 
1.9069336644800138e-13 
2.2431861476948836e-13 
1.062995015140192e-6 
2.715804006255102e-13 
3.1480589718854206e-7 
1.0978080266079316e-6 
1.7633597419671184e-7 
8.819180071257147e-10 
4.699839475910186e-12 
3.4838457891160007e-12 
1.1272933702826145e-6 
4.224920186680791e-12 
2.9522753245360094e-7 
8.644908048218548e-12 
7.49600685787489e-7 
2.5185094904550406e-7 
4.700408600363329e-12 
5.8019299301793216e-12 
1.4222277689705692e-6 
6.899879187553293e-12 
1.0796449677451744e-8 
1.0218034185687475e-6 
1.25260610597049e-6 
1.9603437640280933e-7 
1.074692665154637e-6 
3.943834825319257e-12 
1.4128249648551892e-6 
1.806169685147112e-8 
7.534949658135546e-7 
1.8233304610191728e-6 
1.1659671812276975e-13 
1.168295683983943e-13 
2.409923225127202e-13 
8.120469962427163e-14 
8.05887224685657e-9 
1.7172719162578283e-13 
3.03839640632555e-13 
1.8560810002893498e-13 
2.8366639837383016e-6 
1.6388393704774267e-13 
1.592969245130063e-13 
1.4715769572896869e-13 
3.3876049662382376e-13 
5.193893043454255e-13 
4.112167673383286e-6 
4.0923664694599e-13 
1.8204913364575355e-6 
2.931676687787721e-8 
6.655309556243098e-13 
5.561963490723914e-7 
5.644318419605238e-7 
9.061003800752299e-13 
8.16915328403023e-7 
4.4243018214739677e-13 
3.7485171787171536e-7 
2.606949140953525e-13 
5.917619438737708e-7 
1.4166231535091856e-12 
5.228514146539994e-8 
9.762884041363856e-8 
1.98061961774612e-12 
2.029765682048107e-14 
5.488514465579689e-7 
1.483637803442788e-6 
3.5514538075773934e-7 
1.4653769781883123e-6 
1.453359552700238e-7 
2.6743263633577465e-7 
1.0286733537731285e-6 
3.0292499239708966e-12 
3.954442451100292e-6 
2.6807443617397783e-11 
1.6002745156719046e-12 
9.117943838583043e-14 
5.719179289590256e-7 
1.2773015853675638e-5 
5.784043599975463e-7 
3.437492783201666e-7 
2.041510241614634e-13 
5.217703306201501e-6 
2.3305841678799485e-13 
1.4765928661193803e-8 
3.3610110528891173e-13 
3.465176516531755e-7 
2.3590029798094547e-7 
1.2853407771651856e-7 
1.2120010386505566e-9 
1.2824761834302262e-13 
3.970719443669253e-6 
9.405287230147702e-14 
1.3640344313282292e-13 
2.9602584919470695e-7 
1.9708733817364954e-7 
4.2951050511946156e-16 
5.091238066687676e-7 
1.4226250252114818e-13 
9.522191474930083e-12 
9.344848280855819e-7 
2.734484264899795e-11 
8.309743174367354e-11 
3.0767483176155674e-11 
3.0750978059608105e-12 
1.4116854419138307e-7 
2.3702629207317342e-7 
6.265198572108947e-7 
1.5091622735163184e-12 
2.690651398444725e-12 
2.2156652401387727e-7 
2.453113453614122e-12 
8.714416109104798e-17 
1.0835919283213265e-7 
1.5460508504465626e-7 
3.9065103597847114e-7 
1.4119108718150211e-8 
6.121147539762872e-8 
1.1268239881866824e-7 
4.762119743442685e-12 
7.9655039398781e-12 
3.544701992606517e-12 
3.791624105849073e-8 
5.037819408888221e-17 
3.790402918196191e-8 
7.839787833421285e-12 
5.3159667094566355e-12 
9.179512633000628e-5 
7.970493984413277e-5 
3.361611348910798e-7 
3.2108348681755396e-5 
1.703917602096718e-8 
1.6822529304953472e-7 
1.3054529036598952e-7 
8.806904724133076e-9 
5.151785381687478e-7 
3.597327114050571e-5 
4.514564858801175e-5 
6.794856830069452e-5 
2.5974888259994094e-7 
4.632036017044599e-9 
5.9861172271949854e-5 
1.6665860342715308e-8 
0.0001104937451798526 
3.850035111161196e-8 
5.069290741401058e-7 
0.00021685192278148678 
0.00023689772238703942 
1.1606022883754659e-7 
7.988077436469108e-9 
2.0758477261381435e-7 
7.2509154770477795e-12 
9.323613603296917e-9 
6.117679418655236e-8 
1.2597426837887584e-8 
1.0058934587218633e-7 
8.473139703931125e-9 
3.7175760710362166e-9 
3.408448264124365e-17 
1.3348140212017744e-7 
3.208141260439148e-8 
4.378770394141328e-9 
4.083108751365481e-9 
0.24437334210162906 
1.8581068851444782e-8 
9.534660970911334e-8 
3.374874830257789e-7 
0.42842461124629433 
7.67192092777225e-9 
1.2049464178698934e-7 
0.050641163321183104 
7.220135849854774e-8 
0.47488353012776763 
3.864456432693532e-7 
0.24349206948220156 
0.42131202371151505 
2.082379428694358e-8 
8.481086701693557e-8 
1.6495064776874084e-7 
0.13508798060173863 
2.2332906440788583e-7 
1.7767077914941348e-7 
4.5041102724757794e-11 
1.3890211443399885e-7 
8.542651523455382e-9 
1.1142013098682659e-7 
6.077219843650333e-12 
4.85505099823484e-11 
9.230205501227746e-11 
1.4551937343147002e-10 
1.769954261302263e-9 
1.7388450305769036e-10 
1.2069187971151391e-7 
7.594838463732466e-11 
1.1034112623254145e-10 
2.368576207277196e-10 
4.373504319482846e-8 
3.6307604189644276e-10 
1.866508580834307e-10 
1.5340573051201236e-10 
6.6792064124671225e-9 
3.631267523335818e-8 
0.012250239944187459 
0.004666385359711828 
2.7181702801163025e-8 
3.068596124987294e-8 
5.752581583418195e-9 
7.614084589949707e-8 
8.91498334946635e-8 
0.0057613390195661454 
8.876981005445619e-12 
0.0015013484208023433 
2.635965796962432e-9 
0.0013111079701638253 
0.0016359925667787214 
0.004225767523778035 
4.9677170589692575e-8 
1.5307145944316203e-8 
4.699607239297692e-8 
3.873007843004355e-9 
2.9980507453715574e-8 
2.5122328045527383e-16 
3.393228467959512e-8 
1.1654918947036034e-7 
1.220746823073125e-5 
1.8071538443441818e-5 
6.012181953242598e-10 
7.311664117130752e-8 
3.0320366371500342e-5 
2.1683081537091344e-5 
1.5168839191365696e-5 
2.36184134442784e-8 
1.2971349521287745e-12 
9.648822309933106e-6 
6.635582149710638e-8 
1.6158715339851393e-5 
5.052255584101373e-14 
4.671662006204469e-8 
1.5238950616563007e-8 
1.0573601504868357e-7 
4.874812329742803e-8 
1.7015741956393434e-13 
1.8522780348541457e-13 
8.908725835458665e-13 
6.583569950297317e-13 
2.3552679912168824e-8 
1.782314228448464e-12 
1.560133454810976e-12 
8.784817648577193e-10 
1.5324674565992658e-8 
5.133307803942239e-13 
1.2133267515156868e-8 
1.006807962521902e-12 
8.487862093256002e-13 
9.288286162427588e-13 
0.0018286832850099024 
0.0020087663748187498 
0.0006688899452735598 
0.0020469501978347547 
5.794122884905495e-8 
8.472811985580612e-8 
3.0415507049685355e-8 
0.0033874201025759563 
2.5502109433779708e-8 
3.615742829576457e-8 
0.008596919870534746 
2.3630608663403896e-8 
6.007965256586037e-8 
5.2599129621564704e-17 
4.88510207974243e-8 
0.002406657683564452 
4.055663714424418e-8 
6.65721938155028e-9 
1.6726855114440403e-8 
1.8384233705905638e-6 
7.941182106562967e-7 
6.528752202890352e-7 
3.45579454305464e-8 
5.450151905112095e-10 
1.502959203907844e-7 
1.1373326077228464e-5 
2.7724824124168388e-8 
4.590335410537107e-7 
1.5097232578165329e-6 
5.841706679035085e-7 
6.702793005428323e-7 
1.1756305674687313e-8 
5.208489295028764e-12 
5.462245232285679e-8 
9.61708999228577e-12 
3.849870976555206e-11 
2.433343487564862e-8 
2.9623187934934466e-11 
3.817255792307842e-8 
1.3641732280936404e-11 
2.8706604901902708e-11 
1.9278524672428733e-8 
8.717264785650163e-9 
9.542311088514245e-12 
8.150230184932034e-12 
4.02705010912232e-5 
6.12446649586008e-5 
1.4716793734113172e-9 
2.1756045675823366e-8 
2.4558800692873218e-5 
7.188597936008006e-5 
5.955527092559427e-5 
5.2705893702878714e-5 
4.015506049183385e-5 
4.633218481537057e-9 
1.7623168102150184e-8 
2.397740426945699e-8 
2.1694587859783675e-7 
2.418979814290262e-7 
5.1365903803926485e-8 
9.799383114409255e-8 
1.4837779416864778e-7 
3.3225647286590096e-8 
8.925332173435672e-7 
1.9094832633286412e-8 
2.01792385309814e-9 
2.4346231964934406e-6 
9.949274932823536e-9 
4.650412906208066e-7 
7.547184471320257e-9 
1.4801368704260476e-9 
2.1337223675554397e-9 
6.7537534956353696e-9 
1.029175101148564e-8 
4.831177255895375e-8 
4.944724584292631e-8 
1.0336679208626282e-9 
6.080294761346124e-7 
7.158033790250042e-10 
1.465962741780402e-6 
2.423534005870767e-8 
1.38993825188084e-9 
6.743283165614571e-5 
8.279064011418583e-9 
0.00010954646810763432 
7.52141375098455e-9 
6.476145481798637e-5 
4.813728975715259e-9 
2.7980986307431473e-9 
7.080519436002747e-5 
3.278667395723633e-5 
5.666771964539538e-5 
1.4693241780395645e-8 
3.0942384897444425e-5 
1.4917131603608313e-8 
4.580405699673947e-9 
5.360359532878565e-9 
0.5457507248087161 
2.580736681465667e-8 
5.306488263000361e-8 
4.975003868293036e-8 
1.2195834207071834e-8 
1.1343598999238856e-7 
3.370018705384452e-8 
2.4312423178339662e-8 
1.5410687216136415e-8 
6.504998612342185e-9 
5.797468072487806e-9 
5.0883232369011445e-9 
5.3266189453459414e-11 
1.7198307330867283e-9 
1.495337863655068e-9 
3.6569387129265965e-8 
7.199686657488928e-7 
7.394828671954222e-9 
1.8736277475034062e-8 
7.225431736181513e-9 
1.0118671886871806e-8 
4.335018932533759e-7 
7.030352724832248e-6 
1.2999398984738903e-16 
3.169629406149359e-7 
5.716275516714884e-9 
1.8645223925609456e-9 
7.130805653246805e-11 
3.8913267428073023e-7 
1.3146941189333225e-10 
2.3599180623809676e-8 
4.141127781831807e-8 
2.4188891526901585e-7 
5.43213071758192e-8 
5.349885784755816e-12 
2.363530561378142e-7 
3.024853003046775e-7 
8.493047407466418e-7 
6.2242851619898266e-9 
7.133019131645519e-9 
9.102089742536562e-9 
8.89516349199009e-13 
5.045019402110201e-8 
1.166728430663244e-8 
1.8963493696546245e-12 
1.8809946610630515e-12 
1.366687567238824e-9 
1.895425919254338e-12 
3.2436819708603913e-12 
1.3921736928752317e-12 
1.4958153873006386e-9 
6.769027778334174e-9 
5.287652840112238e-9 
1.4436939029065754e-9 
2.764256038068251e-6 
5.464236838484629e-9 
3.304322594577667e-9 
7.4914288474570066e-6 
5.48112669682747e-6 
9.635357057827103e-10 
1.920375547246335e-6 
2.321596092895969e-6 
1.2580862929487386e-6 
2.4016111135449146e-10 
2.2116366248140707e-6 
1.0721468159007286 
3.716986445331739e-9 
8.408016101137424e-10 
4.676925303583862e-6 
4.597718348519359e-9 
2.3218426676925344e-13 
1.474827572423752e-8 
9.233881158778894e-10 
4.4090562022825685e-8 
0.00024478674145128306 
7.575248501532696e-11 
1.2435918821575207e-9 
0.0005197351469823727 
8.844010366137533e-9 
1.711292058920008e-9 
3.458267945926261e-9 
5.068542259647328e-9 
5.873634925707303e-9 
4.7011058724998065e-9 
0.00041826988844841605 
3.3228196979857105e-8 
2.6301385964693427e-9 
3.2323647011990794e-9 
2.747427554635157e-9 
0.000431738893715648 
0.0003943649934636876 
1.4670959080282325e-11 
1.1972774475027906e-11 
1.4364860041846123e-9 
3.207782004942736e-6 
2.715579023727374e-11 
6.463669879178881e-9 
1.5515684640088405e-11 
3.014530035487835e-9 
1.6773223592837562e-9 
1.681123722325308e-11 
1.0119184130705615e-11 
0.3051771672464753 
5.453432116326001e-10 
1.7662494193570475e-9 
2.7510085157702386e-11 
3.6707299975611157e-9 
1.6790343007578072e-11 
0.0006807132020153086 
4.7448007070562564e-17 
5.129196949752192e-10 
1.3808780911634048e-9 
3.2302581769964685e-7 
2.652946417742048e-9 
6.118068138509875e-10 
6.523596223843262e-7 
6.684050669035647e-7 
9.604707202684476e-10 
2.1920093658656595e-9 
8.66969637474726e-7 
2.3903853047731355e-9 
7.03334694752856e-9 
9.02527107418777e-10 
3.68780765557121e-7 
4.2721499624673007e-10 
5.599129144506026e-10 
2.9772887737568523e-10 
2.848164113194191e-10 
1.4718856921914368e-9 
5.32794235847445e-10 
0.0014705737047080167 
6.996206965976822e-15 
1.7176878854107575e-9 
4.5004349422295634e-8 
1.821210339131152e-15 
1.1619619878344426e-9 
9.672600497246937e-15 
2.691969494807126e-15 
4.423819204010114e-10 
4.590697447664741e-9 
1.0293065075410824e-9 
3.1174911883715977e-15 
2.5867779072016494e-15 
3.042215689652768e-15 
0.0014194944213334491 
3.3202835035149967e-15 
4.080165698307398e-10 
1.4117523641475272e-14 
2.0639398899622842e-9 
0.8060502837005952 
4.669447936946568e-10 
1.7118341835752163e-14 
1.3522504165557628e-9 
7.641361036480943e-15 
1.3091822517201121e-11 
6.806938776062423e-12 
5.627869732451666e-12 
5.466168047090431e-10 
7.425304057360142e-10 
7.926482101674796e-10 
5.666802383909274e-12 
1.465441502827892e-9 
1.2087816999575242e-9 
8.400571755815055e-10 
7.773139397798742e-12 
3.060698302866555e-10 
0.0001446767519656674 
7.508772433954183e-10 
2.580689653622078e-10 
0.00012037304913967824 
1.2063350294526784e-9 
2.4360809752635387e-10 
6.011899893087691e-6 
2.477070893872425e-5 
1.0743313116207388e-9 
1.1544271050798256e-9 
3.0618662486418633e-9 
1.861475299197464e-9 
1.437631376576064e-11 
1.277667201783036e-7 
1.5491987695567472e-5 
1.011671423001224e-5 
1.968646146454091e-9 
8.005207782243545e-10 
2.6453088892920947e-5 
8.428392485788042e-10 
1.565679424881361e-9 
0.09283224036756652 
5.616583223315702e-10 
0.18857903954129235 
0.14799048938997297 
0.07231070331078787 
4.842326590889118e-10 
2.2589934633876272e-14 
2.2500412116864633e-10 
2.8135877026469986e-10 
2.5207194703888628e-14 
7.171703730929173e-10 
2.097347244673767e-14 
8.332204073715319e-15 
1.4538639372907143e-14 
2.8688283869951297e-13 
8.441042563234455e-11 
3.3920096493923183e-10 
2.730399739549969e-10 
8.033506804991363e-11 
1.1878294768102049e-12 
0.003662050791382426 
3.4668605187801975e-10 
3.6821030027966704e-13 
4.1104432283115375e-13 
1.1966482951450336e-12 
5.500758638183847e-10 
3.5762524790750497e-13 
1.2016195850818774e-9 
1.773968086685273e-10 
4.856335883817185e-10 
6.0969950718807e-9 
1.6892295797591768e-10 
5.819580934142746e-10 
8.197401162555478e-11 
6.487451980586688e-13 
6.197471280823238e-13 
1.875283047008388e-10 
7.199606202631278e-10 
2.811128813935215e-10 
1.6385434101904007e-10 
1.5099970053547223e-12 
0.0034450009473687704 
2.5862886118163385e-9 
2.3613929092862998e-11 
1.8680522797980672e-9 
1.0444525991968922e-12 
9.995749995092519e-13 
2.2139637084331424e-12 
1.1484493323709991e-11 
7.24763797238333e-11 
3.461259872078995e-10 
0.0005903997051135111 
1.374227337149395e-9 
2.858189011755332e-11 
6.629019630815592e-11 
1.7186052795078312e-10 
7.364545904837546e-12 
5.578310769828406e-12 
7.294386400973038e-12 
1.0579899440206686e-11 
5.776072532962072e-10 
1.22876356754492e-10 
3.375869947793496e-10 
3.944749842313836e-10 
9.917846459881377e-10 
5.220375574483502e-10 
7.039492997203165e-10 
1.0012899058581104e-9 
4.675450033379954e-10 
5.622847658101004e-8 
3.407527102386886e-10 
7.86810611707331e-11 
4.6991795142393093e-11 
1.1862469103005258e-10 
8.331381369496507e-8 
7.739920354410247e-8 
2.557763339241623e-8 
3.2415988069106394e-10 
1.6115126591224831e-10 
3.530116318634465e-10 
5.213664024203995e-11 
5.539558574809214e-11 
2.5463373894597835e-8 
3.2897768437261744e-15 
2.646778352207941e-10 
1.1369201515880057e-10 
1.3061971620523607e-10 
7.502547981520678e-15 
5.763050871874115e-9 
1.792593817003864e-8 
1.7393393014184552e-10 
1.2223763840636432e-10 
1.3618191392394852e-8 
3.7048432656942123e-10 
4.025175396548666e-8 
3.2890436845397225e-11 
1.4852006729937126e-10 
1.812353621610531e-10 
5.0208385438611477e-8 
5.78708417511248e-11 
3.379221686457353e-8 
0.00013828516390606386 
0.00013026996426656457 
9.762081040880376e-5 
5.6626427866444545e-11 
5.221731963721691e-10 
5.940184037823909e-10 
9.797957712000303e-12 
3.6949715395411563e-10 
3.368383464834647e-15 
0.00010115945047249703 
0.0001894530805740045 
9.936770362963737e-11 
6.8170367800656e-11 
0.00021899714206992355 
7.461667576187747e-16 
6.20442823078855e-16 
2.1533483239546375e-15 
7.371197411484638e-16 
2.6989793511741903e-15 
1.094093674110398e-15 
9.576230254042997e-11 
1.375554439423753e-10 
1.2589417201023462e-15 
1.7334712601716783e-15 
1.666558931654443e-10 
2.206005725677335e-15 
2.0179095997146877e-15 
1.7270864946802076e-10 
8.790217325702882e-11 
1.4505605020435603e-16 
6.001941685356093e-11 
2.9601696780731625e-15 
9.104792253483307e-10 
9.116793278594311e-15 
2.2102694042301242e-11 
1.0684833313493271e-10 
3.722309554136557e-10 
5.1053990591425824e-11 
3.401819268784513e-11 
1.5781573838037605e-15 
6.04686486571105e-15 
8.461490207859676e-11 
4.985494231548968e-15 
8.073781042532656e-11 
2.8535471384878986e-9 
3.711598097531868e-10 
8.421746651165625e-10 
4.245494870876396e-11 
3.1214921125426193e-14 
1.204336970083167e-10 
1.9803917672520496e-9 
2.5775643813194507e-9 
3.872507403053297e-12 
1.8579326406184088e-10 
1.6755669540082191e-9 
2.3516531425724827e-9 
2.1911917914337113e-9 
1.8428767489519975e-9 
1.4310682576468818e-11 
5.013015859572051e-11 
1.7073337983777502e-9 
2.4702979829218627e-10 
5.3039432683738906e-11 
1.2927626499876368e-9 
3.1548903554648777e-12 
1.0062579329646518e-9 
7.092732225492338e-11 
3.621541418761267e-9 
2.6906379320105516e-9 
6.136105231082389e-9 
3.400755370567147e-9 
7.852918103768666e-12 
1.3089336246364206e-8 
1.2013209228154734e-8 
2.467121471932727e-11 
5.16981226094e-9 
3.9368210789524504e-11 
4.060131726244169e-11 
8.729965911009447e-10 
3.837674896674034e-10 
8.23172908324034e-11 
2.48629289868891e-10 
8.856967335230412e-10 
0.004069064213143174 
4.582300891389976e-11 
0.07752728564676756 
0.0013762678985816434 
3.405055454659458e-11 
1.2909541272217845e-10 
1.9170107780881942e-10 
0.0001436531056953108 
4.943687526005838e-11 
1.0385581071117836e-11 
2.7265788243708505e-10 
0.001027553025218386 
0.0009841537660616475 
4.965443428950305e-11 
2.177547804155872e-11 
5.550902367629282e-11 
1.4909901678123297e-11 
2.4384009938184265e-11 
0.00026385587406792396 
1.4716618764006817e-11 
1.438996317047589e-10 
0.007997009765159078 
7.48053684239288e-11 
3.6272311860237536e-12 
0.041687120189512976 
0.10268173620287933 
0.06002711348533681 
5.694784382025581e-11 
4.6435335552777925e-11 
0.14871011446325672 
9.66948088304546e-12 
0.11840729900684147 
4.2817105380173563e-11 
0.08948539367032464 
1.2979610429371295e-11 
7.032189687339494e-10 
7.378406576855038e-10 
4.867301640355181e-10 
6.528397603776151e-12 
1.978733354279113e-10 
6.23895569568416e-10 
3.463108163472154e-11 
2.089198436860201e-10 
1.675225037762545e-10 
5.591252796696128e-11 
9.458292544192625e-15 
4.508638723609481e-11 
1.177930363915154e-11 
1.9050341120023233e-11 
4.5821061754316006e-11 
3.409083192783606e-14 
1.7219605144399925e-11 
1.616439875822593e-11 
8.905376711091056e-10 
1.3239065492808957e-12 
4.1286932268301906e-11 
1.4694690993108366e-9 
2.2334502458676703e-14 
6.81059854343637e-12 
7.548067294353692e-12 
1.542878015731553e-14 
4.518877745139809e-12 
1.6167795324629794e-12 
6.2799227741960056e-6 
4.894699866017669e-6 
1.6714896637671977e-5 
1.0241261527445503e-11 
2.5543613743691814e-11 
1.35709941596798e-5 
7.629033640010943e-6 
3.535309733409619e-16 
1.4910254759370163e-5 
1.2980790957193442e-11 
1.6669329895553226e-11 
1.2502817901650187e-5 
3.384443833686711e-11 
3.858690490349736e-11 
5.589856904854037e-13 
1.4214342430651928e-11 
3.532522931594101e-11 
4.011190601456375e-16 
0.005901067546817467 
9.164508130801647e-12 
5.566598549338184e-12 
0.01249368515517654 
0.010595429513241973 
0.002928962725579705 
0.0031760879968777693 
0.004176370820139347 
0.00562899474439237 
0.00021558010847087277 
4.636101266228654e-11 
0.0012117629542333988 
3.9737875295011183e-10 
2.688820661304191e-12 
1.1140000611620899e-11 
0.0011060803088234485 
0.001025961463619128 
1.4476882706964001e-11 
1.719797941989894e-11 
5.098924360048823e-12 
8.695651277228651e-12 
8.276439210858247e-12 
1.1477414828082626e-11 
9.475905169896459e-13 
5.140609050585429e-12 
0.006487286433454622 
0.23390226017608004 
0.04290341295754918 
0.11531933477292156 
1.5330075544786756e-15 
1.907558465325712e-11 
8.167021319115139e-16 
7.514505972902642e-16 
4.583485582893258e-11 
3.6794046643383417e-13 
8.829800038439338e-12 
7.925810925430294e-16 
4.271922893804232e-16 
0.031108751920283693 
7.056436407721013e-16 
1.557587398695101e-11 
1.915466128228321e-11 
9.526515852784342e-12 
6.717687940049538e-16 
3.64107569666107e-12 
9.244199133356746e-12 
9.87364169615488e-16 
1.2868056875193133e-5 
7.810578730667519e-12 
6.978621691335456e-11 
1.1621297572719913e-11 
9.138301753145255e-6 
1.0330134525287338e-11 
4.5158018712434173e-5 
8.246025749587163e-12 
4.414633723994627e-12 
1.030865132588003e-11 
6.483804036912905e-5 
3.5477134540075166e-5 
2.7151430076932643e-5 
2.8128902777766455e-5 
8.388127425065088e-6 
1.5215727619027402e-12 
0.0003896991415284034 
0.00013797508347185403 
0.0001424634722861532 
1.711155379788735e-12 
5.07637906043153e-5 
0.07383263145822316 
8.768251096242929e-12 
4.790883852953023e-5 
1.5879016860862295e-12 
1.0479279239576205e-12 
2.9456624078346185e-5 
0.0002332756092570958 
0.12435463371154368 
3.2911474274791746e-16 
8.8375140602142e-12 
4.625975025753535e-12 
1.0661293701164382e-12 
0.00012073298496544962 
0.00012698172997918308 
3.36485285406917e-12 
6.6949449451670806e-6 
9.291719219805527e-7 
2.3147875369183626e-12 
3.4690234523962804e-13 
4.657948523246954e-12 
4.404093490688122e-12 
5.34022583420608e-6 
5.540875266169899e-7 
8.988109155373533e-12 
7.042149442429309e-12 
4.903023683446656e-12 
8.157087104919097e-12 
8.845136214717655e-13 
0.0007985010189452899 
0.00018514898820995828 
4.723401174245898e-12 
2.437686132485974e-12 
0.0009975599680897458 
0.0011070645654295487 
6.163523743617682e-12 
0.0005844390822185939 
7.652385270256349e-12 
0.0009592297217155067 
1.3231900138907904e-6 
3.4181415966421074e-6 
4.089875710330699e-12 
1.794803343439223e-6 
4.428700947404422e-6 
7.762793983654499e-12 
2.4344189892823245e-12 
5.906752680084536e-6 
2.477968494357749e-6 
6.42770694609347e-12 
5.411945376386887e-16 
3.72984356857375e-11 
8.572441539142303e-11 
0.00025102062917093374 
0.00010893675098563963 
8.221106287434772e-12 
6.117741166142462e-12 
4.387281896098874e-12 
0.0010284457448769423 
0.0001183467873277532 
2.7460635922682525e-9 
6.295146326158699e-13 
4.200281728618554e-12 
9.000995404137411e-13 
2.016162616130486e-12 
1.65101146043967e-12 
8.35825803904127e-12 
2.461810517257353e-16 
1.1846745635369815e-8 
4.223358931121678e-12 
6.269793301035316e-12 
1.447505303197195e-12 
3.698402626234103e-13 
6.096543557269141e-9 
2.2136304085540295e-9 
1.806155201886081e-13 
2.71660871575894e-12 
4.0530335945131783e-13 
8.308049819960036e-10 
2.7606820266983894e-9 
5.486415647138166e-9 
3.1420334828106704e-12 
1.1769862596894116e-12 
1.3336509348163105e-12 
1.2066640327114476e-11 
2.2314156814660378e-9 
5.166019145763747e-14 
1.150440971924159e-13 
2.097917953672193e-12 
2.4620765572381276e-12 
1.799797722492021e-8 
4.6528406183130854e-12 
3.0475309193782755e-12 
3.499103377254668e-12 
4.200333852483809e-12 
3.304559311450146e-16 
1.421738281909158e-12 
1.8867932550668506e-8 
7.523801879923843e-8 
4.439403851369369e-8 
4.783139125544951e-8 
1.2588477766752796e-12 
2.5689742100245427e-7 
2.4617838336223884e-12 
4.4377073825365574e-8 
1.2799133082115302e-12 
0.0003070938878459903 
0.0010848872526994615 
2.016711090881132e-12 
0.002169815010741559 
0.002302962918335111 
7.676415391080905e-14 
0.0003374193826192022 
0.0002765720650747042 
2.5684519695168854e-12 
1.1314147746076256e-12 
0.0003706343781285076 
0.0003827886884949385 
1.739111721523763e-12 
2.800809480612957e-13 
2.8877995082129465e-13 
6.064419191842365e-10 
4.071392416362607e-12 
6.136865421768434e-12 
4.014724185257712e-13 
2.3166584536551377e-12 
2.9767726884292134e-13 
9.677446169974492e-13 
1.7857004920926502e-12 
1.6441506870062675e-12 
1.2689447761928703e-11 
3.9846916721771617e-10 
1.1553538361443486e-16 
1.2407034681908237e-9 
1.6973980038547037e-12 
1.814684693568696e-13 
1.4072894753070525e-12 
1.749909556940964e-12 
2.4855082522546963e-13 
4.100741576444524e-12 
1.2209638837024317e-9 
1.0062518750616548e-9 
2.9874069632852633e-12 
1.2074419445245852e-9 
1.4974965049797628e-12 
2.1128770333152554e-12 
4.034024678785828e-9 
1.5208625338832625e-12 
1.9979426575794986e-13 
1.2616919941936945e-12 
5.965144539279597e-15 
0.00015020020406801102 
0.00020407438538553314 
1.3537070462658862e-12 
8.807965345731011e-13 
1.0180062069514745e-12 
0.0005706427815996763 
0.00020503723460059815 
0.07389844885908775 
1.3157837174979631e-15 
1.114815285678016e-14 
1.3777303423710728e-13 
8.680197996340317e-14 
6.980752649228092e-13 
3.4881855092492186e-15 
1.37548479196705e-12 
2.277507157752163e-14 
1.0436292150954456e-12 
8.474378943575056e-13 
1.6721623184883915e-14 
6.302707965303395e-15 
4.890193440894459e-13 
9.881285325416308e-14 
1.4714165402518615e-13 
0.12878530090081225 
8.875565955982308e-13 
8.507361466271645e-15 
1.1332821418355198e-13 
1.2626606604624292e-14 
1.1325221707287636e-12 
1.1330085425303529e-12 
8.546958965121778e-14 
4.980527085595519e-13 
2.493754776597792e-13 
1.67895440980756e-14 
7.807135352326715e-15 
9.51341857903157e-13 
1.0952155392277633e-13 
7.778805649459129e-7 
5.594338266251408e-7 
2.4169194370681597e-15 
7.772806171708818e-12 
2.943865881623287e-14 
8.872553955388146e-7 
2.452868802944654e-6 
8.018936119064513e-13 
4.0165926491172655e-6 
2.6167634194817597e-13 
5.116237958809967e-6 
1.6411642168009387e-7 
9.420049016767375e-13 
1.7060433143353216e-13 
2.0266624789990082e-7 
3.042346655502963e-7 
7.460767793034465e-13 
3.446407817482408e-7 
2.8899615521484205e-7 
2.714443309191807e-9 
2.247215568285591e-13 
2.4974245155230944e-13 
1.818477870174895e-9 
1.0084521481232476e-9 
1.7549005617839664e-9 
2.5298255932310938e-9 
7.645401025747414e-10 
7.489118664899725e-14 
2.720317816445896e-13 
5.790402773062557e-10 
3.2605128494997806e-13 
4.650860525368703e-13 
1.839247374690429e-14 
8.216499668969398e-13 
6.383354910605238e-14 
2.0636063988910305e-13 
7.568783969782447e-14 
2.1676745228322984e-13 
6.392422588376803e-10 
1.28743141788866e-9 
6.845772209903066e-14 
1.0815240735399993e-11 
2.141436624508282e-12 
1.5475795255638561e-9 
5.605767610973871e-13 
1.4067990287142576e-13 
3.7243055795290387e-14 
6.207842334721359e-14 
4.283505681058225e-13 
3.326804403743228e-9 
3.182295178575501e-11 
3.488065562040005e-13 
3.50773970191593e-12 
2.03863135400361e-11 
8.638773928676875e-12 
4.791442990685738e-13 
2.4881226526559286e-11 
6.089378341791793e-12 
9.782775356175986e-13 
8.052386129889434e-11 
2.0593959607765376e-11 
3.00480886708039e-14 
3.803575978557311e-14 
2.3080157701384157e-13 
6.397195977019527e-13 
1.4439438135963921e-12 
1.3042911507061101e-11 
6.999740194460109e-12 
8.882363995575847e-15 
1.6665259691586081e-12 
6.489193148388442e-14 
4.5181093672645136e-14 
6.047066347318261e-14 
2.7402887779004164e-14 
2.2939449191089143e-14 
5.874760940771056e-14 
1.782241838887412e-14 
2.1727720781387346e-12 
2.7336435564680737e-13 
1.2666008232526445e-13 
4.260015331113438e-14 
4.149111975416404e-14 
2.5968994472068164e-8 
1.579691426242728e-8 
3.2624030628083365e-8 
3.2595549839851676e-12 
1.386918759945844e-13 
2.860842978796161e-13 
3.47354751712169e-14 
2.8366260064349593e-8 
0.00018881289886774294 
4.032977959772108e-15 
0.00013890851656069082 
8.676791970407156e-13 
1.8639382246996354e-14 
3.0090730172225655e-14 
1.6563852638689295e-13 
3.2244547671049804e-7 
0.0001813136997537949 
3.187723890661133e-13 
8.308420060195108e-14 
1.7625257855792122e-13 
1.81781735346405e-14 
6.967870991354337e-14 
0.0002985128013464956 
2.650290199353072e-13 
1.9031254511940047e-14 
5.381302194789721e-16 
2.5823533996530817e-13 
2.1046944710197312e-13 
4.526780299012367e-14 
4.698385695834257e-16 
4.1209206878162163e-13 
2.744222915270004e-14 
2.355682873479957e-13 
1.5331052716804396e-14 
5.135057590892633e-16 
1.5308459105372742e-12 
5.433438490554741e-16 
2.8846117932249216e-15 
2.041049759584726e-12 
1.3890618596185273e-13 
5.1293124881053856e-14 
2.0473603211794008e-13 
1.0363346548931168e-15 
1.7189213929779997e-15 
9.492982859509912e-14 
2.1915008847745178e-13 
2.5684278256338746e-13 
2.7776688255741206e-12 
9.278466917759017e-16 
4.545331792578404e-5 
8.422850753247808e-12 
5.462760910862462e-5 
1.0041377316292933e-5 
4.418876354009543e-5 
4.6273622553082405e-5 
1.2870927690852833e-10 
2.6116247239946364e-13 
7.526019924224508e-11 
3.1828798480574474e-11 
9.428099062828241e-11 
8.724387934809346e-11 
1.2435824683556146e-14 
1.8365573301425776e-13 
0.03748161706079183 
0.04195441012022568 
0.222814408692055 
8.352366997645815e-15 
3.103684415824155e-13 
1.528507809779291e-13 
9.0531765873629e-12 
2.012383280732129e-12 
1.2097067483453529e-14 
2.195852630055236e-14 
8.347189778836598e-13 
9.334845282929836e-12 
2.9526760591965853e-14 
1.5855758465865277e-13 
1.7643945157214921e-7 
1.788146847561811e-13 
1.8053753114025012e-14 
5.2278506565531075e-17 
1.2255977022025717e-11 
1.4831348126901394e-7 
2.2524825962958043e-14 
1.3198434952596252e-13 
8.324151071586256e-12 
9.192506069250567e-12 
1.8973043399607256e-13 
1.3734741092227884e-14 
1.4921269898846062e-13 
3.5338890865236447e-15 
1.0131834949244265e-9 
1.4304713051521587e-13 
2.3386710730679845e-10 
5.773919889503284e-10 
9.329697158363528e-10 
1.7905135384808014e-9 
1.1660365903595008e-13 
2.6145502315693036e-13 
1.764730969723467e-9 
4.0247110280641756e-14 
3.297255960127398e-9 
8.838922733667734e-14 
1.3778015646129113e-9 
1.498032759465557e-13 
8.32753447858384e-9 
6.2139508841290315e-9 
2.2958563541247668e-9 
1.95386882948388e-15 
1.3995895148640635e-8 
2.7121585608832157e-14 
1.4446133780864704e-8 
4.1656483101069664e-12 
9.807477847891448e-12 
7.327935634057326e-14 
1.37249668106749e-11 
8.313157790904854e-14 
1.4011565183948642e-5 
4.320407310344411e-16 
5.08165559275117e-14 
3.244459864646707e-5 
3.2024474415637875e-14 
3.0452447982797047e-15 
2.9779116046677697e-15 
5.357946462599895e-5 
8.554449954919849e-14 
1.8338848308473234e-13 
2.9629735492300594e-15 
1.3649166411343502e-14 
8.100479983286438e-11 
3.425327441733062e-14 
1.5450418162360033e-15 
9.511651270691931e-16 
6.524917269315506e-14 
1.2388011879219611e-10 
6.0702232887227416e-15 
1.8791475326984916e-10 
8.704633551590037e-14 
7.033095191409046e-15 
3.760899458111082e-14 
7.516703248661291e-14 
1.1877869022462018e-10 
6.475610376309391e-11 
8.578821634712457e-11 
8.178803580926201e-11 
3.811244096230385e-13 
1.8020615623389268e-11 
5.720808300092499e-14 
1.840503568934858e-10 
1.0516931399611573e-13 
8.482868710022766e-11 
1.5381291696010216e-10 
1.7157175895274982e-13 
5.415066195930518e-14 
2.967906923248666e-10 
1.2077325961941754e-10 
8.788541203084366e-11 
2.0469244729641667e-14 
1.0262613806528452e-8 
8.092768025741214e-9 
3.377290118720196e-13 
8.599464741546916e-14 
8.299459122930834e-9 
4.3068126667170956e-16 
9.127196904302388e-9 
3.1771546771089396e-14 
3.967729000407593e-13 
1.5064683754803596e-13 
1.4562304327236388e-12 
1.7615169718757495e-13 
4.065500651666632e-15 
5.266139052385646e-13 
1.6855544111746932e-14 
3.6154368868125047e-13 
9.131251250693283e-13 
4.706494704140085e-16 
9.736585175087622e-14 
5.004439211801189e-13 
7.92757876206568e-11 
8.015965051629197e-15 
4.4132303059668655e-14 
5.751654269075287e-14 
0.12048507012169987 
4.5490529439000166e-15 
0.10380153979947195 
0.08678100212978204 
4.4205435368633044e-14 
7.554450556537197e-7 
4.0905499639511495e-14 
8.797191544417295e-15 
3.4203049993638287e-14 
1.348914100637892e-12 
0.07630765724032898 
1.695820484193069e-14 
4.2069925859453144e-16 
1.2702998285848348e-10 
2.193973305280819e-15 
3.325453178068535e-15 
4.755657432221859e-15 
1.3867435866663686e-14 
3.814192531031008e-15 
1.6996822868769342e-15 
4.701431431442965e-14 
8.715618524687136e-14 
2.8085915591557797e-14 
1.6119188238968938e-15 
1.3607180552207855e-15 
3.96050949519553e-14 
2.641948827916852e-12 
8.541297843943234e-13 
3.895593793560342e-12 
6.301037642238368e-13 
3.720678907943374e-15 
1.509651531126505e-12 
4.643830888491058e-13 
1.741642474308832e-14 
4.0899906182721074e-13 
8.051010532280129e-15 
8.540146997766856e-13 
1.4081421047525174e-12 
4.875059081686413e-13 
3.516743658336074e-13 
1.9039063376288913e-15 
9.251638574131058e-10 
4.90795487040251e-13 
1.8424956140811838e-14 
6.947921179418616e-13 
2.348796367398352e-14 
9.063479799865832e-15 
5.233496377708094e-15 
1.0586921473923315e-12 
2.0658702814207596e-13 
5.746619544989191e-13 
7.610903984322944e-16 
6.998340918776619e-13 
1.0825948551495732e-15 
2.0561661045554693e-15 
3.1228683526314143e-13 
2.0830997648740965e-15 
2.0994732483881305e-13 
4.6915288816636256e-14 
2.2050992426339876e-13 
4.908999568900922e-14 
2.5112370453652515e-14 
5.017688753925818e-16 
2.91409391863322e-13 
4.070314542815132e-15 
9.796393391759119e-14 
0.0003936187112446143 
2.1554475209933695e-14 
3.571547483345298e-7 
1.2485110339484425e-14 
0.0006753239376089086 
3.6713322161287267e-14 
0.002441435927289518 
3.2919004762019146e-14 
2.377521170750336e-14 
1.7586076614439758e-14 
0.00023831114294249674 
2.554418646582513e-14 
0.0019605280317337914 
0.0013625897819431988 
1.6776123002207374e-14 
5.582209379037041e-13 
4.9532664206959386e-15 
5.9771496771284475e-15 
9.6069613460168e-17 
3.373869763688957e-10 
2.75221507305311e-10 
2.394243743815711e-10 
1.5457121201526103e-10 
1.3399115227003335e-14 
6.947784404441083e-10 
4.908295378741647e-10 
1.146711780173331e-14 
3.8601079309395534e-10 
3.735581564746031e-8 
5.000247830321991e-8 
9.339036819733565e-8 
1.2736821629063856e-13 
1.0957996331819128e-10 
5.6268157343819794e-5 
8.070433624909242e-15 
5.294735159187186e-5 
1.263384085729409e-14 
5.9985920570789725e-5 
3.475233247651467e-15 
8.655440353225177e-15 
5.774659229947415e-5 
2.683142207799158e-5 
3.221125221805223e-15 
9.558397415875256e-16 
2.5240832898110743e-5 
2.502329517733728e-14 
8.377476307294758e-10 
1.2313757098823801e-14 
1.197211202510478e-13 
3.723934184738676e-16 
0.00012409971671118044 
1.750125115148047e-13 
9.342191052918164e-14 
3.094192414055613e-14 
1.1038672038291415e-15 
3.926696540199437e-16 
1.712339970070103e-6 
2.669566784603846e-15 
5.5808488327699256e-14 
1.2135188205011562e-13 
3.1691803734754246e-16 
4.8719965470659994e-14 
5.1753444004547624e-14 
3.898140288231071e-15 
1.546986964094374e-14 
0.0218842993236915 
0.013751620172700221 
3.6885160123992336e-16 
0.016312182603743806 
6.871470388719428e-12 
6.305416464625221e-15 
5.804609693583273e-16 
0.01998187461117652 
1.0920247037653813e-14 
0.01751628734651956 
0.05982122310337592 
0.012229680768755753 
0.02158857087427986 
4.928352522255234e-10 
0.05114712522254248 
0.1672825333677255 
6.726808516496988e-16 
3.121181806724276e-15 
1.372080697720289e-15 
1.3484438515050817e-15 
2.674038901305949e-16 
6.119627898960561e-16 
0.01706699484672085 
2.5753720184299198e-15 
0.027103100543440756 
0.07244795591852322 
3.1057657203908976e-11 
3.6962648169683925e-10 
1.0835308618634164e-15 
1.3150450142148655e-8 
6.691994462955992e-9 
3.5221720415031786e-16 
2.4420067672423218e-8 
8.213744540343544e-9 
2.0382682267727602e-8 
7.855941924684487e-15 
4.548093847009745e-15 
1.0635767036796473e-14 
1.0532588742795832e-9 
1.0377672078448303e-9 
7.76959354839566e-17 
1.410753981224635e-9 
8.982863435800918e-10 
6.996562377453335e-10 
1.995401709979038e-10 
2.996931138429418e-10 
5.034630363798814e-10 
7.572779700520912e-15 
6.81358339545699e-15 
1.5029517809155424e-14 
2.8710538546978423e-15 
0.1426650136787753 
7.090692525660147e-15 
0.017918050692849918 
0.09224277670929507 
1.3549571673385986e-15 
0.11757603767662096 
8.363078267369904e-15 
0.0066198201120704694 
1.3078219916358043e-15 
0.0013378905076320935 
0.022609587569581483 
6.286127966730085e-16 
0.003189334002295857 
9.444627716109813e-14 
0.004208378173139374 
0.0016758976888588228 
1.4314371846967089e-5 
4.0640916657674393e-11 
3.419244534575323e-15 
1.1641107650052542e-5 
3.513051236083844e-5 
1.4813719982829246e-5 
2.3130840084932683e-6 
2.1888296868976634e-15 
1.4192183609415248e-16 
5.690452269058718e-5 
6.67321965907908e-5 
9.345473704578992e-12 
7.286287834415033e-16 
3.151885211713416e-5 
3.0901639074913926e-10 
7.307095131162366e-6 
9.968472086350154e-16 
1.2352233941070464e-13 
2.8586278000375033e-15 
2.6556188287706796e-15 
9.167957853375117e-13 
2.3680103248327613e-16 
3.1812269856274425e-12 
3.6526209869754017e-16 
2.2525686036186215e-12 
2.4681953789628437e-15 
9.994457727221749e-16 
3.6434710710579553e-16 
1.9370801419061344e-16 
1.5525087619308437e-16 
3.640414413192292e-13 
2.9531529524005234e-16 
5.653388342740946e-16 
1.9725329480551258e-16 
1.764594555055204e-15 
1.1268791571579269e-15 
2.212673559722133e-12 
2.0870480354643236e-16 
2.5926468607549095e-12 
1.6601320763068233e-15 
4.971107049506004e-15 
5.432235445872249e-13 
2.428679933542057e-12 
1.7419992166303575e-10 
5.401623381020238e-13 
9.082876761924672e-16 
2.0191415037894764e-15 
2.9840177873364613e-16 
2.866722108595621e-17 
1.207710586840348e-12 
7.693872873925636e-13 
1.3868334962489723e-12 
1.3770176660987666e-15 
1.303961785683889e-15 
1.1593577409999794e-12 
5.203966353456558e-13 
1.0208502404171154e-9 
1.627694861562932e-9 
7.731727308414249e-16 
3.148247797088615e-10 
3.9756966032329004e-10 
8.524597043642829e-16 
4.845543252960388e-10 
1.5053997186835464e-15 
7.012154144429207e-10 
6.423434887664725e-10 
8.668824417915977e-16 
4.33073116369166e-17 
7.10423065430613e-16 
2.926121349877327e-16 
2.873793798460449e-16 
8.277369020516538e-16 
5.787657520087607e-16 
1.7163854946063654e-11 
1.0770678194218943e-9 
1.506692529527923e-16 
1.55906670777639e-13 
2.1524760144149885e-16 
2.227879529727401e-9 
2.6781852213657834e-16 
2.342207974545138e-16 
2.0035142085551607e-11 
3.975243594806425e-16 
1.1946382154794527e-16 
9.827188311954682e-16 
2.3421240054239325e-11 
5.133691804909346e-12 
9.660005265838153e-11 
2.3518551470087903e-16 
1.96383886778226e-15 
1.1509448317686426e-15 
6.96367595434908e-12 
5.402105766417007e-11 
5.181548704830679e-11 
7.232723739019006e-12 
3.688516012399233e-16 
9.080405091263973e-16 
1.1058852009600745e-15 
2.9065035188806584e-15 
1.0684102737731212e-10 
1.3069911791808683e-11 
3.676511921663369e-5 
2.6218419094062878e-5 
9.734018080068307e-17 
1.487992321451598e-15 
7.747197965409047e-16 
2.059818306331038e-5 
6.206520635707793e-5 
1.1535442667165915e-16 
4.239625543722893e-5 
5.509236629820499e-5 
5.5778227503034295e-5 
9.989032980546033e-5 
2.998534673787098e-16 
6.744415058987196e-10 
5.166937405889782e-10 
3.991252786322584e-10 
5.535165469646857e-16 
1.363249363439004e-15 
2.678812817168123e-5 
6.420975722154764e-17 
8.609179298783631e-17 
2.2423987807044163e-16 
0.00010458847430499516 
8.341514735127866e-17 
3.5870519801247986e-10 
2.0905098856290938e-5 
7.110458498414115e-16 
1.0918694219656061e-16 
0.00014834151035685847 
0.0001444748736486412 
4.2185552811602117e-16 
4.709351191934429e-16 
3.972816346465049e-10 
1.2085195726656119e-11 
3.1728978395053795e-5 
2.4219973473553862e-5 
5.080673993985149e-5 
0.00010712566348847044 
7.1302074246660584e-9 
1.7172998109932372e-15 
5.506598334670522e-8 
9.783595530535611e-16 
4.2837635160199983e-16 
4.2421533825228075e-16 
1.8680767339891006e-16 
2.569290310307744e-10 
5.480322226168085e-9 
1.4062043086248992e-7 
3.6514021448822015e-8 
6.931247580041477e-16 
1.1569360292002604e-8 
5.222276851576973e-7 
2.579681960819188e-16 
1.7794892288164101e-6 
7.761664966572993e-16 
1.5223918780109748e-13 
6.446130816463395e-16 
2.8184793123397256e-6 
1.9649713225175356e-6 
4.449188189686699e-5 
1.6432256392842319e-16 
1.888499760399462e-9 
5.609277250376946e-16 
1.6912120204407893e-5 
9.04949195971201e-10 
1.7068152084595058e-9 
3.794061935629367e-9 
3.3714326589337615e-16 
1.1742525126186683e-9 
8.767015479369982e-14 
1.9367745820694614e-13 
2.7822355495535984e-13 
1.7087359618633601e-16 
2.3032214934400816e-13 
2.5048893865942972e-5 
1.0119395109887593e-16 
1.0189793115226502e-16 
9.63733564950619e-14 
3.0851351343817523e-16 
4.889164611206029e-17 
4.821648252207731e-6 
2.9371857040216542e-6 
4.0193640728478793e-16 
1.97672811432643e-6 
6.5776151637038e-11 
2.6227992097171813e-16 
5.761967440294819e-16 
4.513778239551768e-16 
1.8082132544450318e-16 
5.8780608131801924e-6 
3.887994696365706e-6 
8.895246829415773e-6 
1.877415950929227e-6 
3.484357971303994e-16 
1.0028898434154558e-15 
2.7755059152141936e-16 
7.633766442203294e-16 
9.921309285229816e-6 
1.0754390716859444e-15 
3.924346653286737e-16 
1.2438020381819115e-13 
6.07206713356856e-14 
6.182175344314022e-14 
2.0352579842628908e-13 
1.4842172552799312e-15 
1.3056878227252674e-11 
1.949851273246989e-16 
9.315901733933377e-14 
2.1402599858899357e-13 
7.041446374868266e-17 
2.512026344531062e-13 
1.4806593220294222e-13 
0.00030848799835043447 
0.00037441320127675284 
0.0012113548170653693 
0.0042803910343762585 
0.00020647032886712604 
3.059298202868083e-16 
0.0006594015899757038 
2.5680222838871548e-17 
0.0005762495264507615 
7.220898707925072e-11 
5.3399751574108035e-11 
7.227574442932244e-11 
3.525573220789215e-12 
1.3555306663194515e-15 
6.208845720389149e-11 
6.241472262353127e-11 
1.0417705601689605e-10 
5.91204838895779e-11 
1.454447389590764e-10 
3.2042963704635674e-16 
2.069299490848563e-10 
4.237701564971507e-6 
3.887529984929727e-6 
3.2608612465044172e-6 
9.88595525318028e-6 
9.62108686659406e-6 
4.0091292365607236e-16 
4.3069672347410283e-16 
2.44710705699421e-16 
3.7833578464604464e-16 
2.864491643672262e-16 
6.687109958462956e-16 
1.049252846616085e-11 
6.016861125123088e-16 
1.4251151185072356e-5 
2.39909723342469e-16 
6.340411706985377e-16 
3.8519308587536437e-16 
9.339144749493517e-15 
3.7196224024077615e-16 
6.1274023088284324e-15 
7.699358214895352e-15 
3.0584144669249153e-12 
2.9685464939795805e-16 
5.538441786075458e-12 
1.4521992725878066e-11 
2.357665068555309e-11 
3.8425895214935483e-16 
1.077601318373722e-5 
1.194351987790908e-11 
2.683057241522684e-11 
5.825777508824691e-11 
1.6298118399568444e-16 
8.183998261481966e-5 
7.658434935408149e-17 
2.0855701850638194e-5 
0.00010622619613666176 
3.394671913162845e-5 
5.956358982137628e-16 
3.811985055280671e-5 
8.620804302558857e-5 
2.5640409305149703e-15 
3.364945022495661e-5 
2.1554799880525883e-5 
1.819857358422172e-5 
0.2144777612636838 
3.9591972465000766e-5 
3.332644255931345e-5 
6.206981208662714e-5 
1.3158299961079007e-16 
3.2088445611414276e-16 
0.005981460928556028 
0.012609124935654973 
0.015632194275371287 
0.0016448345356390825 
0.002845910747054069 
8.442854925654291e-17 
2.523011870819152e-16 
0.00663943825091876 
3.6955227841786377e-16 
2.3476340452190322e-14 
1.2213570249022853e-15 
1.1304502272907775e-15 
0.009308530179617754 
2.3416178723960023e-13 
9.653483180859128e-14 
2.836666032860382e-16 
1.9115306041585867e-13 
1.2277590045484297e-13 
1.3601705769083542e-11 
1.9155473139966578e-16 
6.168983007706324e-16 
1.1946382154794527e-16 
1.2624066762954242e-12 
1.8680767339891006e-16 
2.2887977389345916e-16 
1.8448067621466383e-16 
0.012222871109305696 
5.238908372560354e-16 
6.591646946571801e-13 
2.535223238577076e-16 
3.0742519912910113e-16 
2.0046031157285642e-12 
3.5073602882638984e-13 
9.88207854504072e-16 
1.8328870269958137e-12 
0.095269845791661 
1.949851273246989e-16 
1.7472690474825984e-16 
3.5643822154054847e-16 
1.9450323514941814e-13 
7.05860750656109e-17 
6.416095198725732e-17 
2.144110016642488e-13 
6.917317782397381e-17 
8.491378625009279e-13 
2.5054014137923718e-11 
1.7734640032799248e-16 
1.6443448158325705e-16 
1.6679023247974093e-11 
3.888855125535624e-12 
5.994453454088908e-17 
2.7903423026080554e-14 
8.488605632663127e-14 
0.16378448472708546 
1.296236598361679e-16 
2.982764802848621e-14 
3.225369088127292e-14 
5.649975540296008e-16 
2.6195955874964787e-14 
4.092998409351687e-16 
4.568461234796229e-13 
3.3114718752720124e-16 
1.4855525395151137e-6 
5.593941560449346e-17 
7.986533687407635e-16 
2.316328639027168e-16 
5.890537363000392e-16 
3.2412762359929786e-15 
3.898118679692971e-16 
5.6390887692864224e-14 
5.879833389254295e-14 
5.4241709338516054e-17 
7.3874555237487e-16 
4.028058350815311e-14 
4.3231834559815583e-14 
4.963744513072028e-16 
1.0780416737878974e-15 
7.067975347134365e-16 
1.181083396654949e-16 
2.8143376233942623e-14 
1.0257903045094462e-9 
2.5593125173170127e-16 
5.201476008436309e-7 
1.7366658048213183e-10 
5.099133735833335e-10 
4.565079024291639e-10 
8.800011871893653e-16 
5.598945165649177e-16 
3.2162426674157193e-16 
1.0714619713784683e-15 
3.954391650452221e-16 
1.7706200948811504e-10 
1.252459315560345e-12 
1.6103934317406375e-15 
4.422260413677862e-17 
1.219518158277648e-7 
1.585564681167519e-6 
1.438491735523766e-15 
5.108115757740064e-8 
2.569698727989265e-8 
2.692043160863682e-8 
1.798310885941251e-8 
4.00545144280815e-16 
2.9667779774624986e-16 
5.021094822710605e-8 
7.486259296419862e-8 
1.841779859697413e-7 
3.2806825669323145e-16 
0.003363739360055801 
2.86551867692391e-16 
4.165969624719556e-16 
6.417024987764316e-8 
0.00013023857489786507 
2.2050026595367114e-5 
3.146254546761748e-5 
8.941067455575321e-5 
2.5101589069049066e-5 
1.506692529527923e-16 
3.137252689791865e-17 
4.833600597164107e-16 
4.796783991705712e-5 
3.967306638772979e-15 
3.6869091426314347e-14 
2.316328639027168e-16 
2.2556846200838986e-14 
3.6434710710579563e-16 
1.0772626201882227e-14 
4.702375924059263e-15 
2.1431578027215572e-14 
1.8101309863425534e-16 
1.365231119089694e-15 
2.7588571890795866e-16 
2.573961442134466e-16 
4.268270739911863e-16 
2.6738853706260395e-16 
1.4614309227021941e-15 
2.376689691217424e-16 
1.3575401909439249e-15 
2.274015340301763e-15 
1.0455972439868036e-15 
7.978157598260347e-16 
1.6119882533634115e-15 
1.8009810426488905e-16 
7.497402127081884e-15 
1.340291497807549e-14 
6.159413447022849e-16 
6.401031868052618e-15 
4.0975134379045975e-16 
3.177009988695713e-15 
1.3097083847786971e-14 
1.8448067621466383e-16 
4.893367003746661e-16 
3.0742519912910123e-16 
4.5639318855787877e-7 
1.0376231729966701e-14 
5.854017303420829e-17 
3.3798805101513235e-16 
7.330561208020354e-15 
2.911457765304869e-16 
4.0472685812877287e-16 
2.6103508076778942e-14 
1.479624436315563e-15 
4.352858134607873e-15 
5.486592680366684e-15 
6.781949310485751e-16 
3.1081442079642708e-15 
2.612545124709135e-14 
3.408676618928357e-17 
4.829152136975821e-10 
6.097264161571996e-16 
4.720520741516092e-9 
1.7857311100772513e-17 
1.420443324034791e-9 
1.5320698783477588e-16 
2.696386643260889e-9 
2.264425182569489e-8 
5.7034607968363467e-8 
4.2491356410397264e-8 
2.405985412543796e-16 
1.5320698783477588e-16 
1.9905493047335576e-8 
2.6747057347855182e-8 
6.701812899489744e-8 
3.6051318765381603e-9 
6.068885826031444e-10 
5.134928696859193e-16 
3.3762329794468183e-10 
2.42420933621935e-15 
3.405649510640589e-15 
1.471748152014941e-6 
1.793055705059858e-10 
3.5779119803895146e-9 
1.550332660878967e-11 
7.210068308285641e-11 
6.704951857684583e-8 
7.710008698048827e-10 
3.2241897197993473e-9 
1.7709303552065452e-9 
0.0002766827251963981 
2.8818686305072315e-15 
2.6982910751139346e-14 
5.257964204531086e-16 
3.6034499567542845e-15 
0.00023791668398353256 
0.00036928246277960356 
0.0006229932471226152 
0.0006363738089470703 
4.443458636158301e-16 
0.0040912597343515 
2.9772190839028143e-16 
6.140339657264382e-15 
0.003540903979607536 
4.893367003746661e-16 
6.183840590489476e-16 
0.004179017113347041 
7.45675668797215e-15 
0.04783496680884606 
1.1128242573020208e-15 
2.1867089024265033e-16 
1.7378324981034934e-11 
3.548600231558417e-17 
0.097100780345967 
4.434162861092511e-15 
2.5798053208964377e-11 
1.4159351546874685e-7 
0.1936863532899823 
1.0308817666347291e-11 
2.1542760743827565e-11 
2.6738853706260395e-16 
3.297379305137432e-16 
2.6597666037754417e-11 
1.8473215375196363e-11 
2.212505373196529e-14 
2.372155013099903e-16 
1.2712637420729544e-16 
0.0008956892889625975 
3.324251936892939e-16 
4.1002465175567015e-15 
4.893367003746663e-16 
4.878448312346648e-16 
4.367786187915406e-16 
1.4802965011720113e-14 
1.6795618572959785e-6 
1.2376636087174004e-16 
8.019187233311403e-15 
1.4478747734079365e-14 
1.5237809977512545e-14 
1.2951217738351973e-14 
5.363790406780019e-13 
5.6329597193851744e-15 
4.101098147185015e-15 
8.291379549027635e-14 
6.033068901710993e-17 
5.573313609272479e-16 
1.1081031956467613e-16 
5.353639310832403e-16 
3.408676618928357e-17 
3.3066117676027135e-14 
4.784695282232732e-15 
3.111956378267923e-14 
5.071502447547696e-13 
1.315205493895236e-14 
1.6521142018410317e-16 
1.0027155573269183e-5 
3.43154610523316e-6 
6.697687553173407e-5 
3.614488988697885e-16 
5.720604024957092e-15 
0.001350526894836781 
3.999445730588984e-15 
0.0842450301780992 
0.002835337180611767 
8.02595080205044e-15 
1.9322653420437187e-16 
0.007568608293204986 
6.79301869291639e-15 
0.0024970590000032637 
1.2879625219995286e-16 
0.003277888434160189 
1.725391552253624e-16 
1.0776786616525956e-16 
1.6031533697938823e-15 
0.018506407679678167 
0.0022765705160019433 
0.009281404467553976 
0.019992496063003986 
1.005747861181713e-16 
4.1716883602089906e-15 
0.007261612518186795 
1.0776786616525956e-16 
6.358221337671477e-16 
3.090895434215136e-16 
3.865050617299618e-15 
3.18383020995247e-16 
7.201225226007567e-17 
4.3357258645281304e-13 
6.272096305368218e-16 
2.113030532618271e-15 
1.6086667162564026e-15 
2.288535714535624e-16 
1.819742822961883e-16 
1.4516569371303287e-15 
3.614488988697885e-16 
4.658681107089365e-16 
1.1652551387964215e-15 
3.269782021896988e-15 
2.959692566819217e-16 
3.6016206999581735e-16 
8.522636044694402e-18 
8.798837508009099e-16 
1.8142488493342744e-15 
2.7993973159567733e-15 
1.4041286237931383e-15 
1.1882826859399968e-15 
9.31081613324675e-17 
1.2611400378836576e-15 
2.9100864297440012e-6 
2.959692566819217e-16 
1.8836346455305087e-16 
4.283775458872909e-15 
2.1294148989039795e-15 
9.554513437114616e-5 
4.611344755407758e-5 
4.229264811852406e-5 
6.7117644705943366e-9 
6.788111229407838e-16 
7.210043057509986e-8 
3.56018000451071e-8 
6.410350183249929e-17 
0.26994938982665156 
8.515071766822607e-17 
2.1002891466527555e-16 
1.0473250189322381e-6 
3.4351920531238873e-16 
3.880349275196189e-9 
9.287912724129153e-9 
1.0188893568577945e-16 
1.5408199634651348e-7 
2.7705159800639698e-16 
9.589756246450062e-17 
1.1580332096146575e-7 
5.7999359239251054e-8 
8.284504717424929e-8 
1.2795555679686715e-16 
6.841493532770701e-5 
0.0001130740322802028 
4.643305920578898e-5 
5.555971788367661e-16 
2.3765535077407687e-15 
5.754602080911428e-16 
9.1480189735754e-5 
1.8586460535247536e-6 
1.8438465033225947e-7 
2.646236360458956e-16 
4.5454163141887164e-17 
2.923789518872618e-7 
1.6897823107448575e-16 
2.5539412927273586e-16 
5.886189465545101e-15 
2.6467431220009395e-16 
3.782229086033449e-7 
3.271435044238907e-7 
3.691062919841577e-7 
5.070899380527369e-16 
4.7448007070562564e-17 
2.642048706832277e-16 
1.1517018162978985e-7 
1.9680008251353283e-7 
2.0486354994769908e-16 
0.0008451779006001305 
0.0009633380873376863 
2.900112333456587e-17 
0.00043888654475914967 
0.002778546499679717 
0.0006005834463019851 
0.0011214536212659206 
1.2297375067736789e-11 
2.940540055275933e-10 
8.380265909161551e-12 
6.113833148636751e-12 
5.518365298442176e-16 
4.595857799158982e-16 
8.730016241186793e-12 
3.214792146509039e-16 
1.1055480699118867e-15 
7.271504368624547e-16 
7.84144101547056e-12 
5.92126636703862e-7 
2.07825422327778e-11 
1.0810062050861348e-15 
3.7086231997926236e-15 
2.835849778401003e-16 
1.286450835671549e-11 
2.8966591572320706e-12 
2.6467431220009395e-16 
1.7425357199635385e-12 
1.6592206995417345e-12 
5.276010779361191e-16 
0.33457433364995687 
1.0882140381678145e-11 
1.1124323162784426e-15 
1.1117069901842379e-15 
7.533082191080085e-17 
2.842012874467525e-16 
7.328747865283367e-12 
0.006193904218155324 
2.554397461577842e-15 
1.915130767526855e-12 
3.0913519805953446e-16 
1.016557690616414e-11 
1.5026136855367862e-11 
8.712353725916026e-12 
2.900112333456587e-17 
4.292188281765485e-11 
1.9023503908597337e-11 
3.3730888631888774e-11 
9.410671006052058e-14 
3.053111733886287e-13 
1.165858084362074e-16 
2.6305166026324234e-16 
6.578968516824761e-14 
1.0663671317196711e-13 
3.274779918021063e-14 
3.85217339797145e-14 
4.46101094376501e-14 
1.0295534543506989e-13 
4.5285493818673346e-14 
1.1920668737784446e-13 
3.638710184276146e-17 
0.15872334456049644 
5.118832767721037e-17 
2.1002891466527563e-16 
2.2305343222399965e-5 
1.5962793217637598e-6 
8.195846526150001e-7 
4.3732873927301014e-7 
3.148386009360418e-16 
1.12815139136593e-6 
3.634680578435499e-7 
2.213660363052646e-7 
1.3142956751396545e-16 
2.4142836703169657e-7 
7.803024851541119e-10 
1.0491660226437324e-9 
2.016028664526082e-9 
1.820775856606091e-9 
1.8798987529327804e-16 
2.623618182324672e-16 
1.803570661938573e-9 
2.3469253626559835e-16 
6.535357966011184e-16 
2.344817640599867e-16 
1.94170631885087e-17 
3.236882535186478e-15 
5.268084859634372e-16 
6.415684974747395e-10 
3.0176328358516246e-9 
2.2084206321679146e-16 
1.1398667909549551e-10 
5.5258099915187776e-11 
9.65732137384811e-16 
8.613156857453474e-11 
7.654416939277338e-16 
4.865152600570316e-11 
1.2805618617076056e-10 
3.7996754434375906e-11 
3.971007440962289e-11 
8.889103520276861e-17 
3.026299003182966e-16 
9.063806830254134e-11 
7.959803689196184e-11 
9.853981213208609e-17 
0.0008952514234388531 
2.8715485322806095e-13 
0.5492933881435057 
0.0039323177962612785 
0.0006932094819808844 
0.0011468980098496766 
3.2386888906944294e-16 
0.0019626984711464453 
7.533082191080085e-17 
6.092569965448248e-16 
0.0012617892922909615 
0.0007125931188650748 
2.2512969988993034e-15 
5.126686936647302e-15 
1.3926900710480812e-16 
1.4916484291685188e-14 
2.946986948735857e-7 
2.5118733161044247e-15 
7.736372887964689e-15 
6.57268381008673e-15 
2.3448176405998663e-16 
1.4651156221457192e-15 
5.120480487856085e-15 
6.884164382113811e-15 
5.0640551650593245e-15 
6.132355804831812e-15 
3.620116813750361e-13 
4.034808914760592e-15 
0.00014242938852384834 
2.328096073035224e-15 
4.021413911789541e-10 
4.738526236885918e-15 
5.563016802231265e-16 
6.362251431277637e-7 
6.625552180758129e-7 
5.410956331453815e-7 
2.475782552546368e-7 
5.242823986900114e-17 
1.0699819225952216e-7 
2.7716205149079837e-7 
2.6769752236171114e-8 
3.898703111498212e-7 
2.7490309368630284e-7 
4.71888175856377e-13 
2.0486354994769908e-16 
6.228861792328503e-16 
1.8054448382265253e-12 
7.591274502798803e-7 
5.325863507422462e-13 
2.432782727501055e-7 
3.3819193406863403e-12 
8.372186837784962e-13 
2.6938866113519274e-12 
3.636240897182557e-16 
1.0953116472573129e-12 
7.819251083646438e-8 
9.426322633554193e-13 
1.0440978080129506e-12 
1.362257570119249e-12 
5.319396676222429e-12 
1.1558420658039544e-9 
6.675886002594762e-10 
6.611476799783555e-10 
2.5362948859652035e-13 
1.9485275231348112e-9 
1.2441635347930447e-9 
1.321246502953129e-9 
0.0019332303959289942 
4.634185932650085e-16 
2.1445546244697244e-16 
0.9294696367481503 
3.433859321727276e-16 
0.33805076913435395 
3.9934008464291892 
0.9472477860918919 
1.9610029066976211 
5.820663607847144e-16 
3.095728318950562e-16 
2.310764431767504e-12 
1.588253438450658e-12 
0.0024040871497268794 
5.90757652624263e-12 
4.890934798033632e-12 
6.320728790643708e-12 
1.7928263301474008e-12 
4.0963399515184656e-12 
0.1947672698107645 
0.8644175948195639 
0.0010046833159196608 
0.006375802177262404 
0.0024508711375256904 
0.0011356841593061287 
0.00039925719699477794 
0.5492557544952406 
0.0012039930406074933 
0.003892871999203844 
0.0005512627911357049 
8.947563327501006e-9 
0.7173110998993067 
2.5630826928561206 
1.3019602824134149 
2.568660822053894 
0.018871403412925997 
2.362987042112542e-9 
5.500746615084422e-9 
4.0117085965509815e-9 
6.923638344363856e-9 
3.0777875536507823e-9 
0.0005845985461409679 
0.0009410738099949174 
0.0003532611667497679 
1.146207731540405e-13 
0.0013936542575163986 
0.016296217313867285 
0.009062596594711972 
0.0011082178963519322 
0.0006096733689175505 
5.985006669809249e-10 
0.0012136971167168798 
9.8411371524824e-16 
9.95612235624026e-16 
3.012904843445226e-15 
7.183093650359742e-16 
1.616663707199547e-15 
8.797166646163618e-15 
5.007920375902002e-15 
2.5058250895846612e-15 
1.363138733090971e-15 
1.202673434094539e-9 
2.544883179516323 
5.554153263061928e-10 
3.67275981212172e-15 
1.573242112265555e-9 
1.7176851067774535e-15 
1.4832513996384658 
3.69209542372602e-10 
6.88988773729423e-10 
2.588607262182162e-15 
2.6634301096255638e-5 
4.242870693550012e-5 
3.0512552167552202e-5 
0.6412870834103797 
6.714339177525426e-5 
0.0052234034247954884 
0.1184110312948967 
0.00013005761708148787 
2.2437515045734413e-12 
0.3178483908983885 
0.1562633218625097 
1.8692550722467751 
1.0528228831764528 
5.660848556865263e-10 
1.6983220659483633e-12 
1.7315632912312413e-12 
3.8188930597041003e-13 
3.3617019526932104e-12 
3.8890456473141345e-13 
1.3270562544429516 
3.0190530248558263 
0.8422253070570725 
2.578819777220793 
3.1007355386149003e-12 
1.0273077981875626e-12 
0.003008716218979772 
0.00011054119325757567 
0.06908246744309028 
0.07738075734660524 
0.34888465619287123 
0.022916398542092643 
0.059753072396347466 
0.12226615532755129 
0.16919084434608284 
7.537670221059294e-16 
0.005502825066757259 
2.975219278145234 
0.6444172850029827 
0.10739104745803785 
2.769709137065557e-10 
0.005105560271282127 
0.14829690988481944 
0.6192083817755427 
0.038545870859046316 
0.004424396742995193 
0.011284589029918957 
0.5378649001226652 
0.006983783158497761 
0.05926550439556632 
2.811119333153424 
0.013306837125400645 
0.008628588304714448 
2.358524189957645 
0.03416974036804364 
0.19133973893208348 
3.135945033423095e-9 
2.771244322721959 
4.048718254001778e-10 
1.7126860891243725 
0.3048504225302692 
1.614784748923551e-8 
1.8090920672610074 
0.6410521069973099 
0.10578563130647513 
2.1047799226354552e-9 
5.538467252438701e-12 
6.746079929823161e-12 
0.24148078999508285 
7.748949552706852e-12 
8.005010646420664e-12 
0.018735862693924406 
7.033297957162628e-10 
6.26648244625403e-8 
9.078484988872912e-8 
0.12160850888773538 
0.8169376386040716 
0.015927256737743454 
0.26848917323398275 
1.0234516319051188 
9.527336550351476e-8 
6.59808447263381e-8 
2.702779155177758 
0.9885252844558047 
1.3723632965711874e-7 
0.6357628191584824 
0.8583519964803484 
1.6969458207482247e-7 
1.7444768748170412e-7 
0.25155676352846007 
1.6465969896230318e-7 
0.011148855915716646 
0.10333801671271992 
0.9186745177966263 
1.347219559547454e-15 
1.2528594481976517e-15 
2.767832675914973e-15 
0.2564928715275539 
1.7950139071324653 
0.023875770707215156 
0.06663669735352727 
0.47159496158252073 
0.0015404422190335935 
1.8008043624052176e-15 
5.4960327011092534e-15 
0.01981378325714608 
0.6732748338031329 
4.5959939866688266e-15 
0.007042488539950559 
0.39621564915439783 
0.9885893218600187 
0.13923489363300756 
1.5000498098688927e-14 
1.1523783454549148e-14 
0.3629718329229563 
2.9850220545754794e-15 
0.4391330847149559 
1.1591781776737906e-10 
0.10175848274746574 
1.594521104408771e-10 
1.0375509799602908e-10 
1.9143267890948985e-10 
5.04218895772961e-9 
2.548237933924737e-9 
2.4872977462878032e-9 
4.308746450543534e-9 
6.505763801919929e-9 
0.11068574262922637 
0.04034323868681619 
4.3589502926116114e-9 
6.601486192955039e-15 
5.417778595143066e-8 
7.175682865910466e-8 
7.11901159811355e-8 
1.0748657992090797e-7 
0.36767357589061067 
3.753440548757518e-8 
0.00030318153256295063 
2.2823212135759843e-8 
0.0023722324301685828 
1.037851624234719 
0.054853742327907684 
0.011297175779525982 
8.995385947605509e-8 
0.007522234706625303 
0.020240450191782767 
0.0007100064226902549 
9.410505108261878e-8 
3.683725307902646e-15 
2.010351953821156 
0.00523173235933386 
0.24332795420466796 
0.007407163189840541 
0.010486086220283852 
0.29993837733476564 
0.02521652328801638 
0.007055870508043333 
0.07027799126384221 
0.0854828454897533 
0.02192001968677547 
1.9622605470004417 
2.888185899435048e-14 
0.011485876185737121 
0.1976694990701374 
0.060574690987939404 
0.021058323951575857 
0.000119051132054704 
0.3170668805290649 
1.34567436583454e-16 
0.008637662589493372 
0.028096476919630187 
3.1270820217996224e-15 
3.570996847994395e-15 
0.1170659899992064 
2.1646925596266696e-15 
3.991669297526932e-15 
6.363110805311255e-15 
0.0070593874362841645 
8.075241907029663e-15 
6.7491146695576365e-15 
1.4329068908758142e-13 
0.0872980362462472 
2.190292662461319e-12 
2.0527204562411416e-12 
9.220027139102022e-14 
1.999976773668111 
1.0174085176874596e-13 
0.03920243293989648 
1.3272796545697058e-13 
0.06693664895061492 
0.012851686396965956 
8.084412827520616e-14 
0.0009045740622195105 
0.5757938359887087 
0.041347239850568616 
0.0004938669842068357 
0.035379054743761545 
4.9780242506019906e-14 
0.007003130297770419 
6.15011065339028e-14 
0.002218544372223508 
9.921772482545503e-14 
3.862801975782201e-14 
0.0054541606527626725 
0.002556274680289016 
0.089285475244881 
1.3229164199101237e-13 
6.695845570624153e-14 
0.49199282294971697 
1.3443396237184865e-13 
5.484706937254788e-14 
3.580685049202641e-14 
0.026605401050384562 
0.00356399032254114 
0.008574238221023954 
4.154870359910894e-14 
0.0004325984769251552 
0.0005651737578973276 
0.002926873044175424 
0.0415484640330471 
0.0003717555054420664 
0.05462591079408667 
0.01499446506029888 
0.0003691404960282344 
0.0005239175355946338 
3.536852778268416e-5 
6.167491544360259e-5 
0.000255844878248957 
7.500498390293066e-5 
4.3969778831799365e-15 
7.492094483079564e-15 
5.8309333755080545e-15 
0.043453701983497205 
0.0002164477821762136 
0.0002258663809548392 
0.00027874241341418007 
0.0005357783531337903 
0.0075195639398973994 
0.013795943460946869 
1.6970513852283623e-14 
3.9240734749653904e-10 
0.4020198305864428 
0.003537561415685158 
0.01566235824625322 
0.008991218819416147 
2.2707793776254242e-10 
0.00029920412331799787 
1.0232374573707395 
3.527537670856332e-8 
1.4282878241528788e-7 
3.373473861352107e-8 
6.424152876256721e-8 
0.0002988320219012813 
7.219009637803142e-15 
5.920773137601639e-8 
0.02995289492432178 
0.7217479486664569 
0.0007497590113946645 
0.019365871210191715 
0.0006411491500401323 
0.026846243951261957 
4.486764469317957e-5 
0.000859545398422559 
0.00013580743506334827 
0.004925920692249565 
0.0001684819573828555 
0.018964926238808 
0.002127299195561344 
0.01384823757416076 
0.0011379318657713162 
0.00016793063292238684 
0.004332546042938874 
0.00032861241820125096 
0.018927149478997162 
0.0003131859127322937 
0.005831192436812874 
0.0016381025780431307 
0.004735852871012738 
0.0001461863504134033 
3.085828107677766e-6 
5.590202128644629e-6 
2.1980846519599508e-14 
6.221479168798109e-7 
8.660208652456988e-7 
1.917536109949246e-11 
1.9093961695386527e-11 
0.004605618826617184 
0.033225113637518566 
0.008287248849382126 
2.3271222069416236e-11 
8.295457502011927e-12 
3.556344392648652e-11 
0.0056084820109088855 
8.229937855542797e-11 
1.2710922973662138e-11 
0.004974934281895862 
2.918145034697472e-11 
0.0037071836877554023 
0.00025586444116424767 
0.008133152221455385 
0.016026284836692717 
0.0036393964032604958 
0.0898679495279509 
0.006647780840380036 
8.009497553198224e-5 
0.12211121264649062 
0.0011653895387890776 
0.00015878434046990618 
0.0020862312320746685 
0.07565001925561184 
0.0492398292656855 
0.01948111628912996 
0.007912980664115983 
0.00265562859794536 
0.13300660075517967 
0.11125465972928231 
0.00026469757726465973 
0.008373643932187043 
0.1316107125090075 
0.007297972997155267 
0.0004997738752546418 
0.14636654173497315 
0.004255037699085342 
1.5857333943628437e-13 
0.004999687023789404 
3.8522127454691685e-15 
0.005813180095046005 
2.0368208032157753 
1.2665758909443382e-12 
0.0015764691830643808 
1.8361065743458715e-13 
9.73243108888005e-14 
2.019474129362108e-13 
2.857111245266383e-13 
2.514489676356233e-13 
0.0040352663532220645 
1.0023886049767226e-13 
6.450765894811581e-13 
3.032985674730003e-13 
0.0012697568160586815 
0.04077605987412127 
0.24334591565087135 
0.0754341498527639 
0.001325272082327747 
1.2263045221239413e-15 
0.008436650110971158 
0.006007411583489917 
0.007892494561177962 
0.0012754095235563091 
0.05111665426989024 
0.11313094951560734 
0.0036490578254501816 
0.001279205376123303 
0.002511116974316251 
0.0023584829454041745 
0.014235981677345886 
0.00015076202924073766 
0.044612720497623985 
9.968591188825693e-5 
8.037889544601928e-5 
6.600030550655712e-9 
0.0009139027575077775 
7.2319124408411966e-9 
1.220203877725436e-8 
0.0005156640907266133 
7.764103331017197e-9 
0.000372353431741165 
0.0032997821643715986 
5.871602162899893e-9 
0.0008426154842655266 
8.400534255533391e-9 
3.102488908686497e-9 
0.002425581533761704 
0.0022034125548260897 
0.0027474057234727844 
0.0001197167070472312 
6.103749947915804e-5 
0.001174234363654482 
2.7619579550899736e-9 
3.834377071605625e-9 
0.00021222000994914047 
7.607164648212448e-9 
0.0006960514271589517 
0.0006834086247172186 
2.099404952297823e-6 
0.0055076832578362074 
2.2225293938880017e-9 
2.436603151602732e-6 
9.731125370663289e-6 
0.0001266150034325797 
0.00045225869429039225 
3.219959235434127e-5 
0.0004704311148039732 
0.00047136378722682234 
0.00013585623845285656 
1.6106746404484797e-5 
0.0003939941318017565 
1.6492683691137193e-5 
1.3841503015191942e-5 
7.842237105258681e-5 
0.00010512207003748792 
0.002291307308321062 
0.0034580381265550586 
0.0005894661985446906 
1.0513374529233538e-5 
0.0012996638384551887 
0.18177393774200784 
0.002579298999737622 
0.00032558997130646835 
3.687271414536519e-13 
0.0004209034492121989 
4.479058669632593e-13 
4.0958398861007597e-13 
0.0020243197703713914 
1.1910872035712983e-12 
1.2888835078044324e-12 
9.751056825238828e-5 
3.799265150559749e-12 
0.001176201316176942 
3.5288974529418382e-6 
5.00789182090877e-5 
2.278347824111213e-12 
6.521903419270534e-13 
9.610953408347004e-13 
0.0012317298575454851 
1.1657732722569775e-11 
0.0011480207276852341 
0.0006190339027803155 
0.0006404696918422019 
0.0003122377236773534 
7.055186765887002e-6 
1.015003153135209e-11 
5.769351546953061e-12 
5.943186328654105e-10 
1.8558581954842768e-9 
1.0355612037947747e-9 
6.809752827355294e-10 
0.0013451028437997312 
2.0020892478969692e-9 
1.4955928410071383e-9 
6.4705313661611594e-12 
0.0003847472843469266 
2.1737461172190528e-12 
1.5746957825211645 
0.005109902426820541 
0.0005819344651506653 
9.736060756696494e-6 
9.848847610918832e-12 
0.00014190773018953298 
4.553792190895911e-12 
1.3427271332713222e-11 
0.0002692800141000684 
4.70912500074835e-5 
6.195601125810167e-5 
0.000573653320110327 
0.001137246080453399 
0.0003910527891652875 
0.0023457663567932386 
5.002831749768541e-6 
3.908432198216113e-5 
3.2999658910406896e-5 
0.023368585766136193 
3.090478412046758e-5 
0.0002881014672933931 
4.4459327795855525e-5 
0.00023493744686139715 
0.0011676943685402646 
3.022503817744136e-5 
5.287940670462304e-6 
2.07237439619352e-5 
0.0006700689475743215 
5.107068426806079e-11 
4.0492720889000764e-11 
0.0019068295771441466 
0.00034528025039306387 
6.415287217645446e-11 
3.7948162992562174e-13 
1.680237081656788e-12 
2.7042833301831376e-11 
0.0003775999688752978 
1.531990961470059e-10 
2.674904413375909e-11 
0.0003970887393193013 
0.0007211824174118641 
0.0001646158034737525 
9.163035752261692e-13 
1.5247455140467164e-7 
0.00020764670707447213 
2.292483826193163e-5 
0.0006312196063623427 
3.105762116480313e-5 
2.445741950602205e-5 
0.00022893072033969742 
0.00014832715699912384 
0.0006406934664206552 
9.24650634294971e-5 
6.072941613661823e-5 
6.545222881694813e-5 
9.21657120597598e-5 
9.234530121354131e-8 
0.00012931411544022357 
4.8133614054044695e-14 
0.0005819194947191518 
4.3404829780751394e-8 
0.00020091326677521126 
1.2880193526040595e-7 
8.216517953549736e-8 
3.2752936264129235e-5 
0.00016722654098634836 
2.2074083908246618e-7 
0.00044682093252459135 
0.00016519300160615578 
1.2149889535452692e-7 
9.591948100705171e-5 
1.9801132395139396e-5 
1.9297119886180395e-5 
0.00012124668592522422 
0.00046909164188049487 
1.3038711712438145e-6 
0.00014330356900551548 
6.042282896737267e-8 
0.00045267030380457976 
8.033724148597229e-8 
1.039036208442676e-5 
0.00016836274428052734 
0.00013648770173439365 
9.997309874122563e-6 
0.00016743943702051805 
0.00012788752986812814 
6.156612027950627e-7 
4.4417544153894665e-5 
1.0985260273149804e-6 
7.309853347714694e-5 
3.6679948964144346e-6 
1.781679931004502e-6 
1.0332647307837133e-6 
0.0001899833350944277 
9.910485205896481e-5 
3.2226725989880666e-5 
6.779654891860375e-5 
7.354376709490386e-8 
1.9787666938462785e-6 
6.684078109205028e-9 
5.46140500467755e-9 
1.3801050851397998e-5 
6.347461354657205e-9 
2.741167688784358e-9 
7.200027636577786e-14 
1.4266298530505292e-13 
1.5723542833932652e-7 
1.6826334258201952e-8 
1.650759170535483e-8 
7.8003609570823e-9 
4.5547934348907316e-5 
2.0221259927704196e-8 
0.0001438764050320645 
1.7374547807330865e-8 
3.258650487567942e-5 
0.00035144498464243553 
6.529326348833393e-9 
0.0002500766950536411 
1.0443469377454894e-6 
0.00010111071343002626 
0.00017316665948186624 
1.0306321576469691e-5 
6.995111511020735e-9 
3.711289419172995e-5 
5.7410382365557794e-9 
1.3805411037766594e-8 
6.583351010863387e-13 
1.2654192184764572e-5 
8.908595558984114e-9 
2.1971536385922515e-5 
1.615639851323687e-7 
2.791909671543477e-5 
0.00020228110476204795 
8.335294996647946e-9 
2.6036047011840907e-14 
7.362778932678699e-5 
0.00018419742819385238 
2.690037704767871e-14 
5.357431963006461e-7 
0.00023286791034568313 
8.65936092426285e-6 
9.96277354319462e-7 
1.1390745674090265e-5 
5.4477024331334907e-14 
6.398594559236194e-5 
1.912839079097925e-12 
2.546534337967031e-5 
0.0004681564954478523 
0.0011185132639524521 
2.403982588947919e-6 
2.6731234628318163e-5 
0.00016896185276336833 
2.6896447751057136e-5 
3.0808091156762945e-7 
0.00014416338306455308 
1.218042880209373e-11 
0.00028195907428048094 
0.00034595125342587403 
2.9308084394666384e-11 
4.0633455777203483e-5 
1.69510683822882e-5 
7.742988250799137e-11 
3.922137011443576e-11 
0.00012504971792453388 
0.00023391406308263164 
3.8848533699517615e-5 
2.6572082662567132e-11 
5.1052287979485626e-6 
2.2863915654822826e-5 
7.761178804575175e-5 
5.649094214258829e-5 
3.574989712858748e-6 
3.2182207571235234e-6 
2.802482593758026e-5 
2.0609133536360763e-5 
6.236722773405783e-6 
9.284562459584546e-6 
0.0005951450587902918 
4.684037543159314e-6 
1.816295838878e-6 
2.1730994665943713e-5 
7.953587763339733e-6 
1.4370885208955045e-6 
0.0019721820614816525 
6.19918453044482e-5 
6.709931787029569e-13 
7.317216670136244e-7 
5.131585993736171e-7 
1.7907457050031353e-5 
6.378309624205203e-5 
3.674917341632114e-5 
9.635826526921657e-6 
9.388775252837448e-5 
8.516217018876188e-7 
1.565566196743298e-15 
2.4603239083293157e-6 
2.0335776448978705e-5 
1.917662651145903e-15 
1.8965085916687232e-15 
1.1330553962697434e-15 
6.861960468858954e-5 
2.1240866358399995e-5 
4.719403419036561e-15 
3.391669296003782e-5 
1.6482957380164993e-15 
5.949775159811427e-15 
1.776899910717667e-5 
1.0478740422479934e-5 
5.238993259284354e-7 
1.1698802601758855e-13 
4.119122666735997e-14 
1.1477862220201198e-13 
9.11336925687914e-14 
7.155962956117958e-14 
7.841331030257221e-13 
4.655129616928057e-13 
4.815877436369407e-5 
9.084566967563386e-13 
2.9595518496686653e-6 
2.9559323059450137e-13 
3.932858518824826e-5 
2.680581983976306e-7 
1.9286148572575686e-13 
9.577777802685197e-5 
4.704434074420296e-6 
2.1496738838880226e-13 
9.536195182283008e-6 
0.00010106435942537535 
4.990852249053059e-5 
1.1774529604384239e-5 
0.00024149165994494871 
1.508269295966203e-5 
2.409958727360188e-6 
1.6968568711941985e-5 
0.009057740515875863 
1.5834006115722127e-5 
4.7793018180208105e-6 
0.006427160021619065 
7.5131484717601675e-6 
6.583545362665619e-6 
2.3918133566246375e-6 
0.006001262955769917 
0.04271919195327717 
8.807709233493307e-7 
2.7224247762459897e-5 
5.891315428531472e-13 
2.181436334922711e-5 
1.5397578158683437e-12 
0.004306270007590467 
8.566101321164653e-6 
1.0409944416408564e-6 
1.3106554070808128e-7 
8.796821090475803e-6 
0.013429150592083907 
2.7840107318199325e-5 
5.207787672734013e-6 
1.161246555818616e-5 
0.004624877628714695 
0.0033565544487649643 
1.4931375151618254e-5 
1.457143048931904e-5 
4.298195435585817e-7 
0.014168103465441955 
0.019327597489646586 
2.4211186698498085e-6 
7.471131756216507e-8 
2.9893018142281394e-6 
2.940698759140674e-6 
0.00863682828731063 
0.004806305035511883 
7.255925699534862e-13 
6.247648164986171e-13 
2.525169180309949e-6 
6.771090403691293e-13 
5.272993704325972e-13 
2.923658238141004e-13 
2.9792863352151096e-13 
1.1311631588922962e-5 
1.5846894239746994e-6 
8.009965029754201e-14 
3.2026111759747556e-5 
2.3543441839268924e-13 
4.978584442984234e-7 
3.256423515971596e-6 
2.767736129206039e-6 
8.240748035208123e-14 
1.4174250370718328e-13 
6.989273903610326e-5 
1.956927862951348e-13 
1.1558317528503226e-6 
4.70564551876818e-6 
2.202184457587574e-6 
6.466218753815126e-14 
2.005479783143552e-13 
3.03729505090326e-5 
7.561332721936639e-6 
1.5203021371777733e-6 
1.5366032990293281e-6 
3.2402811314451416e-13 
2.28185234040062e-12 
4.025848154460134e-6 
1.148593295298692e-7 
1.4418031860190356e-11 
7.0419789327766105e-6 
1.1701787956001933e-5 
1.6197911623914738e-11 
7.300969014995735e-12 
2.6456393777896873e-6 
1.3605156264722927e-12 
1.437709577269281e-5 
7.821447185920332e-7 
3.480763107690913e-12 
3.889722807121494e-6 
4.0917091706603206e-12 
6.812260200550293e-6 
3.5606844872128918e-6 
3.387547083356647e-6 
7.058564478631515e-6 
2.6987449947345624e-12 
2.3097339604683544e-7 
4.898149340658333e-6 
1.0746085847379218e-11 
2.2691593190198372e-6 
2.964116242965774e-6 
6.391684880110756e-6 
1.9427031156351087e-6 
1.1036933372118148e-7 
1.5521686710195063e-8 
2.853819517741105e-12 
3.5051093326957393e-12 
3.255873798798609e-12 
1.0447911562302336e-7 
1.1071320619178769e-7 
4.340018968050809e-6 
8.954357652811444e-8 
1.0280111029566635e-7 
4.683384380522953e-8 
1.065068913923984e-7 
6.24731249658916e-8 
1.1967685011796224e-5 
8.344632436391174e-7 
9.448056993204134e-6 
5.290005147064282e-6 
7.533600551444905e-8 
3.492198178770039e-8 
1.4915993787337115e-6 
3.627837507078607e-5 
5.841140572192942e-8 
6.78144126821107e-5 
4.246284549545676e-6 
3.9011669432133184e-8 
2.739313880747664e-8 
2.4682075137883e-6 
3.029613191584511e-8 
1.4109299540823379e-6 
6.975289782164208e-7 
0.0033430682428981337 
2.0077547923140185e-8 
1.7471664713300515e-6 
8.568101483073515e-7 
7.892729164311362e-8 
1.0651828445444625e-7 
1.6114805250233462e-5 
7.748252359071869e-7 
6.52777544508621e-8 
1.1001933837905513e-7 
2.3674715068815216e-6 
1.5813734281545166e-6 
2.9074994310038628e-8 
1.2555072779852406e-7 
2.304960889245806e-6 
1.1967415382657081e-6 
9.04691632674232e-7 
1.1937606781310457e-8 
5.447379632561243e-8 
5.17278583728376e-8 
1.5544405938341184e-10 
3.421127525548705e-8 
3.7314177188816216e-8 
2.8052684103141887e-5 
4.924699702310265e-10 
8.026721003801996e-10 
1.5826230246899784e-5 
8.395649697500766e-5 
4.219316668439227e-6 
3.812271698095039e-6 
3.427203038323969e-5 
2.2801820003995658e-5 
1.3511175897598505e-5 
2.690060932215846e-5 
1.205042628969446e-6 
6.7337997864113115e-15 
1.4310702457382582e-14 
6.513126590615602e-15 
4.577330355360016e-15 
3.989551247384274e-15 
1.5585785949166133e-14 
4.607751244168414e-7 
7.784650531536154e-7 
3.0618171238611306e-6 
2.5816046622989542e-14 
1.98481797962015e-14 
1.9831465032583635e-12 
1.0743818629838812e-6 
4.675813249102195e-7 
6.031183859233581e-6 
2.68073323091461e-7 
7.090349646731865e-15 
2.909433408650892e-14 
4.145038269482735e-6 
2.9893327812921397e-6 
3.533776237829577e-6 
2.7054113446553844e-7 
4.8829630591718366e-8 
6.852391231510049e-14 
5.018207981853287e-7 
5.845094590709983e-13 
5.06370881786602e-7 
4.485275057303599e-6 
1.040532322787966e-7 
7.913729162164644e-15 
1.522313228221752e-7 
7.380531767766759e-7 
2.2323489587079825e-6 
1.180733159189405e-6 
4.98994349204383e-7 
1.5027137863626022e-14 
1.5975818851160347e-7 
5.935492492943846e-14 
4.361413571367876e-7 
1.1578019392435323e-7 
8.165082307818588e-6 
1.1233138793918482e-14 
2.825918438612627e-14 
1.3481785787963788e-6 
1.2515987420264079e-14 
4.1545680340942405e-15 
5.984054487311659e-7 
5.6465180058081646e-14 
1.4137738474727049e-14 
5.5001050255691023e-14 
3.2086557031319944e-7 
6.2937556170804055e-6 
1.945608726909536e-14 
4.086137190412239e-6 
6.383356436440525e-9 
1.4160764592313833e-6 
2.3432415691633992e-7 
1.295912417975522e-9 
1.7271611652086596e-7 
1.4226634204230697e-7 
2.3048887495200784e-9 
1.2267562128871274e-9 
5.54013143230585e-10 
1.3666689083006466e-6 
9.826012498386326e-6 
5.668823443337281e-10 
4.889757735069028e-10 
1.6016614716686044e-9 
1.429456905152671e-7 
3.7588554883084115e-8 
8.665279659434103e-9 
7.673330161732127e-7 
2.1677804230774303e-6 
1.3064393247841121e-9 
4.994374537787461e-7 
1.0943276774908893e-10 
5.608754568986667e-6 
1.965103261806535e-8 
1.2442553070700462e-9 
1.0426368329903218e-9 
1.4755654696119964e-6 
1.1155653519994884e-6 
5.906770956375891e-7 
8.232270090635075e-7 
5.990539941601608e-10 
3.0856393670747705e-10 
2.101744939729334e-8 
2.142830383059539e-6 
6.399818856025624e-10 
6.970739740863566e-7 
9.836930574384748e-9 
1.632303074667169e-6 
5.351802606380077e-10 
3.959698972896e-7 
3.1576090034243624e-6 
5.776632110283724e-8 
2.3977032015627763e-6 
1.6917478211325538e-7 
1.6579509061188783e-7 
5.1141999047834265e-8 
2.2016632443000293e-6 
9.616329757248964e-7 
1.2281986436685375e-6 
1.8657458328827028e-6 
2.547563219324198e-5 
2.2725259933958394e-5 
1.2514580447731808e-6 
4.372116371267719e-5 
4.6704255110037985e-5 
2.1291210476287332e-7 
7.395047621248879e-7 
3.433003775956001e-5 
5.193573544790955e-8 
3.811529178283267e-7 
0.00010200252236506981 
2.1155305815091752e-7 
0.0008083479899363699 
8.210682559479969e-8 
7.841954192786584e-8 
3.1106736779455728e-6 
0.0009628399333776464 
0.0003792273888787884 
0.001472510190590058 
8.40471015611944e-8 
1.5683920850131285e-6 
3.1636177060075232e-9 
0.011347672651274062 
0.04120456568001439 
0.0015097797002689998 
1.5595046331678549e-6 
4.032733687557534e-12 
3.549477156398914e-7 
3.48239893554065e-7 
1.305022963613285e-6 
1.410362247563754e-8 
1.4526472397583775e-7 
1.0448766340373673e-11 
1.7301753605947651e-7 
2.3008546921239776e-11 
5.062731084806754e-7 
1.2709612171075685e-6 
3.0555625618959966e-7 
7.604462757607122e-12 
1.4413429458234777e-8 
5.13803483747791e-12 
5.520935248202296e-8 
6.5514880103332505e-9 
1.3650875333447433e-7 
1.0964394542932571e-11 
2.5455373260035275e-8 
1.0163087919594775e-7 
6.93709757849504e-9 
1.515989668003766e-8 
7.634601959377072e-8 
2.728952106281935e-8 
2.2183989048030942e-8 
1.0984577973709646e-8 
7.95814839138359e-8 
6.633939381916782e-10 
6.172268231704269e-10 
1.2869349047845473e-8 
2.8532754581092444e-8 
1.3126689771907586e-8 
2.8963334295425676e-8 
1.3713090048460828e-8 
2.7324177779928715e-8 
1.0301012622125555e-5 
2.8179318719354536e-9 
1.9903114758354295e-8 
2.469772869381892e-7 
1.8898648947518924e-8 
2.9280141514948096e-7 
6.914626539806435e-9 
5.564221767697524e-7 
1.0434204429745309e-8 
4.945627530415071e-8 
0.0028361519090225394 
0.033303539084606835 
2.095445492132694e-6 
2.642470011480074e-9 
0.005304355924458201 
0.005071606264690376 
3.008144322961612e-8 
0.008755533744397073 
0.0004179849737394808 
4.70061261443868e-6 
1.1541605955769965e-5 
1.1437773982175093e-6 
1.2732995333973673e-6 
1.2050313932220426e-8 
6.366907797404054e-8 
7.3553406270204e-6 
4.588074425100675e-8 
1.258052084459721e-5 
3.95724510339233e-5 
1.1786455128298283e-7 
1.5233508791433045e-7 
3.755440932921093e-9 
5.0305908733801104e-8 
1.6748286920005994e-7 
4.724357824576678e-7 
7.432958178975501e-8 
1.0116950318997449e-7 
1.0793004936373631e-7 
2.552855764070714e-7 
3.0404749666078644e-7 
7.471776116355547e-8 
6.972683377462087e-10 
1.8576878345671742e-7 
1.4510610389252454e-8 
2.789457193007256e-8 
1.0228746928163073e-6 
1.9416043007541347e-7 
1.841736459346915e-7 
3.9189050417361854e-7 
1.1093336972277966e-15 
8.768807073517801e-8 
8.954877663766783e-16 
2.6125373597405718e-15 
0.00020219766117946718 
5.575035973415056e-15 
6.118879478382621e-15 
5.469997883889375e-8 
1.5337633417850113e-7 
1.9820532395316317e-15 
2.954026526454032e-8 
2.6678096813755885e-9 
9.954257048954953e-9 
1.9235735425871127e-9 
1.241047793826518e-9 
2.8784911764296924e-9 
0.0011661319610682356 
3.8948983899027387e-7 
1.0437952757071668e-7 
2.9674184203424065e-8 
3.312480221412687e-8 
1.8099562128759372e-7 
4.568037173397012e-9 
9.583634505459203e-8 
2.6871269642571128e-8 
3.908688439396479e-9 
1.8484412674334392e-9 
4.214828743909551e-9 
2.523573304218646e-7 
1.3367431929169128e-7 
2.7348473495768643e-9 
1.7050731410117928e-9 
1.6644484858725507e-7 
1.4124131597060496e-8 
1.9000158060227478e-7 
6.297477097171154e-9 
5.202039281233813e-8 
6.899319431189152e-8 
1.1792677516191887e-7 
3.1392063145362717e-8 
2.1523467696135997e-8 
1.1785377816948002e-15 
8.766026730670231e-8 
2.158093402900145e-7 
3.554235555089415e-8 
1.8531160951970495e-7 
8.653243824821685e-8 
2.0422873560408667e-8 
1.8089820309540013e-7 
7.554132058989508e-8 
1.4367959291966576e-8 
4.6459512643837615e-5 
4.2147706245295984e-7 
2.3203229993076938e-14 
1.0103670644932529e-14 
2.017954251147645e-14 
3.167438626424272e-14 
3.286491622682453e-14 
1.0048812690215318e-14 
9.621473379687524e-14 
0.0006272586330348842 
2.64173242862606e-11 
1.3318182080809387e-6 
1.8017913552430598e-11 
1.8370764481523448e-8 
3.354071336072936e-11 
2.8768191050329256e-8 
2.303359551489168e-11 
5.247261001955275e-11 
2.958580072452987e-7 
8.908872615515327e-9 
5.071788241297821e-11 
0.002551160539846786 
8.486223396150211e-11 
7.751830008066729e-9 
1.2956929127106759e-8 
2.384989823284968e-7 
9.355790660199034e-11 
7.497621697246687e-9 
3.665385004494328e-8 
1.2027222922484475e-10 
5.619086422958078e-11 
3.33174523550334e-7 
5.215669768353283e-7 
1.7761761258673389e-10 
2.6913403819061793e-11 
1.5335243224290223e-11 
8.86985515463176e-12 
2.1713627105637693e-11 
8.17124080218884e-9 
1.3071314628564125e-9 
4.1862335949451994e-8 
1.2155295199191444e-8 
4.7020212303773724e-8 
5.464925707214569e-9 
2.239030906629602e-8 
3.0785480519402403e-9 
1.842488689351024e-8 
8.555936078998305e-9 
1.522908870371444e-8 
1.8179676125960186e-8 
1.343566634866985e-7 
8.944218166357697e-9 
1.1351575702390117e-8 
6.903099315453462e-10 
1.5629483309023203e-7 
1.0421961947069656e-7 
1.071872050031141e-7 
8.587474861118692e-9 
4.031909912802169e-9 
1.3896360806430965e-8 
1.4220114496170919e-8 
1.2929765293883698e-8 
9.442193812079572e-9 
2.2113585776349532e-8 
2.5320722572023517e-8 
6.516740633667145e-8 
1.6509383993524381e-9 
4.594372760025247e-8 
3.172576003583763e-8 
1.0200829294416666e-9 
3.176915271040643e-10 
4.1895433547260284e-9 
1.3076198185774784e-7 
1.3240661014740192e-11 
1.4359242276249289e-9 
2.9737413677540668e-8 
4.2297197926286856e-10 
1.0485135653569506e-8 
4.417724967403963e-9 
7.698432614997199e-8 
7.386418453537825e-9 
3.5353770179137065e-5 
8.813275210689834e-10 
2.107032779644252e-9 
5.674266183205583e-8 
7.0937038894438805e-9 
1.5246242811733333e-8 
3.920826177034671e-9 
1.0135799571003543e-9 
1.0659167202175283e-8 
1.6270524809787576e-8 
2.309494819181949e-9 
5.98336951454297e-10 
1.1892871975369933e-6 
1.03016445683397e-9 
3.0377101949197337e-9 
5.261000162019762e-7 
1.0974318187330534e-9 
4.6595599600014825e-9 
5.5646748663478635e-9 
7.281730844951802e-9 
2.7606582958393745e-14 
1.2436270403325411e-9 
3.5419338458242905e-9 
8.953885855006537e-10 
1.2355069086300717e-14 
3.7358845763034386e-14 
7.58587203624081e-14 
3.4763694090845974e-9 
2.1536571920482914e-9 
2.93573331848236e-14 
5.035550860462719e-14 
0.00380800095986862 
0.024150432259940315 
0.043974620850616375 
0.0033881331112600535 
0.005948659983782352 
0.028997256193450442 
0.000899374595737007 
6.487830343097662e-9 
1.3295702852441642e-9 
2.763392311042233e-9 
6.46185395423522e-9 
1.1266495914702997e-8 
2.1906783641902656e-9 
0.005921138511618881 
5.248781584827881e-9 
4.369309568658548e-7 
6.1522381311555535e-9 
0.0020144507220287607 
8.224098768534952e-6 
7.686673444914191e-6 
2.6609994978210952e-5 
1.6216591650014417e-5 
3.193532167437452e-10 
1.8787888784234515e-5 
2.2159162535925633e-9 
1.3344683048116801e-8 
7.249688243520714e-6 
4.93613685498525e-13 
5.624451276634622e-9 
4.607643551205961e-8 
8.48433842988914e-10 
2.8729673208537843e-9 
8.473094998028381e-10 
8.169676008878734e-9 
7.235683546814124e-9 
6.954283288198599e-13 
5.953165560266202e-13 
1.6897456478826672e-9 
9.399195290396348e-10 
2.1279953833681403e-9 
5.806765274497906e-8 
9.325469972627373e-8 
5.3095277113002486e-8 
7.468700994291788e-5 
2.866148861041443e-9 
4.444169849577289e-9 
5.0869573433104365e-9 
2.0844413981459792e-9 
0.00012202979621726257 
7.051024640144504e-8 
1.7159448698375762e-9 
0.00017624782379007856 
1.6527596366119545e-9 
5.165252114226362e-10 
0.00012332310957189848 
1.645137595780341e-8 
0.00027715469903114725 
0.0006227891547289058 
0.0007123227506770222 
1.2792123004911392e-8 
1.864181970909773e-9 
0.00047918243589761903 
0.0007960596326286169 
0.0005517685046554223 
3.125463632873433e-9 
3.1663163923916427e-9 
8.628330194009592e-9 
2.657409574965426e-8 
1.541480848530604e-8 
3.027459555524636e-9 
8.93626938803996e-5 
0.00027145634080615413 
1.5094590895892708e-8 
9.981267715007617e-10 
2.9309290433743743e-9 
1.1040331233717844e-10 
1.2275444387495008e-8 
6.614017851988458e-10 
5.817017635099812e-10 
1.5397921768327326e-9 
1.64036721123165e-10 
2.3218288734098312e-10 
1.8884867460599373e-10 
0.06049531569905137 
6.118392685691983e-9 
5.910554370662061e-10 
4.7680300976989446e-9 
0.07653432257772083 
2.991714404746668e-8 
2.095365958498755e-9 
3.207207749762198e-9 
0.01349563565990856 
5.4184625816958375e-9 
4.79995814675068e-9 
9.20092693680716e-5 
0.2927002524453001 
0.033348007508556446 
9.749142900494452e-9 
1.0661854530901462e-9 
2.2593543538599575e-10 
0.07616166344034954 
0.011381127247308328 
2.4842199771456746e-9 
0.03322405209333874 
1.527491867821973e-9 
1.3231084798802927e-9 
0.009554131961456517 
0.0005916938749876249 
0.0003005927873094198 
0.0010488659321048457 
4.1576758374696697e-11 
4.3279596932224707e-10 
0.000746120133510355 
0.0016128888181577334 
1.0556038959424674e-10 
0.0005177024932721045 
1.894284723783425e-9 
0.0018476769269316594 
0.0037258504632234997 
0.005902039098672235 
1.1935048190388858e-9 
0.0009149589553591714 
0.00023216874984891497 
0.0011213131434726043 
3.8014034157509184e-10 
9.524784660760014e-10 
1.2244656759055362e-9 
9.20473958109784e-10 
4.9940257338331466e-11 
3.922536299881478e-10 
8.712231960032311e-10 
4.646101680547202e-10 
4.92936194853938e-10 
1.1876005239143778e-9 
2.184314449783015e-10 
1.987305107966677e-9 
2.285120565978469e-12 
2.29692026176328e-9 
7.383313116925605e-10 
5.707797670942506e-10 
4.000620224504668e-9 
7.90156619487711e-10 
1.1757459206538325e-9 
2.5135018845937146e-9 
3.011534377174942e-10 
1.4048319447135923e-9 
3.0110933869936553e-9 
1.7542369071547086e-9 
8.346976187028694e-10 
1.56983185655183e-9 
1.4295732847000402e-9 
1.1593583088682146e-9 
8.162237973661321e-10 
0.0014630971504744643 
4.0106473180462074e-10 
1.727687602635836e-11 
7.391353932103139e-10 
5.650853811259185e-9 
6.605632570369964e-14 
4.965135467710162e-10 
5.162432884470152e-10 
3.468361054775687e-14 
2.2222354700208298e-14 
1.2916359426366134e-13 
5.5353167105481536e-14 
0.11695962582873048 
4.920274882012745e-9 
7.102331734870037e-14 
2.1548504825258535e-5 
5.256013813812305e-13 
2.876577709476083e-9 
7.636394632832988e-5 
3.010215087691232e-5 
0.005707451355339201 
1.2876729587506503e-9 
8.641836429398277e-5 
9.19697422556912e-10 
7.214277231300106e-10 
2.243038457389213e-5 
2.4839123701601338e-5 
4.987116644597587e-9 
2.2493635552508383e-6 
3.7756547027715426e-10 
2.5034844502388197e-5 
1.01607085156792e-9 
1.8333191772433105e-8 
3.171922366410451e-5 
1.5499430574077693e-11 
1.1882123843725438e-11 
1.2897202752824485e-11 
0.0029098413111361683 
4.1311599557640143e-10 
5.349930752727833e-10 
1.3796453279495501e-10 
2.1696074811292433e-11 
1.1343406115782515e-11 
5.816047357911031e-10 
0.002908359936378964 
7.786172840434257e-11 
6.670735974606081e-12 
6.836199547201238e-10 
1.9701118596193414e-9 
7.278966666789895e-8 
1.0909597569152679e-11 
0.0006679058389170449 
3.744657212621039e-10 
2.6547362255590523e-10 
2.5538794809917623e-10 
3.3352579088028333e-10 
1.6541072350669526e-9 
6.166680032062744e-11 
0.0005030824749430342 
0.022123357822247714 
2.9790818132571494e-10 
0.000942677560960869 
0.0002709909163939485 
1.9471540003129592e-10 
0.0003820281339083809 
3.0275370686760707e-10 
1.6206374861825914e-10 
0.0006560028848331284 
0.0006381570467846123 
6.089188420489804e-11 
1.525850039207884e-12 
3.6245868274553632e-9 
8.003285378798572e-10 
5.523819498402667e-11 
8.226909130956578e-12 
3.451547063662459e-9 
4.837771407569968e-10 
1.5495411728582633e-10 
2.3874532529545126e-7 
1.1042952265265267e-10 
8.18186460197936e-10 
2.317036638071211e-11 
1.041029807695718e-6 
3.861825633616604e-11 
2.727715638282089e-10 
3.8330708906075296e-10 
1.59987529626509e-8 
3.3085604189559224e-11 
3.3298231997577164e-10 
1.5147633588739338e-10 
6.045075161982096e-11 
5.844344503255532e-11 
3.6457103597083115e-10 
0.3881513598052544 
5.546808742711315e-11 
3.050155636262531e-10 
0.03293253124674552 
2.2796222858815912e-10 
6.840474079078983e-10 
7.107934778766285e-12 
7.829086243012081e-11 
1.715799211279107e-10 
1.6280962520394252e-8 
0.26865296552102363 
5.260759157863635e-11 
0.20279693449970845 
8.327192978624367e-11 
1.672827716404292e-11 
4.898116206939504e-11 
3.7831140377055046e-10 
1.041351041867862e-10 
1.328996756372353e-10 
0.174147413156979 
2.1153960045339057e-10 
0.09517977442139663 
1.8813377180865755e-5 
9.087194554657383e-11 
1.184329223679751e-10 
7.380265856352818e-6 
3.3130456311834656e-6 
1.28996524924911e-5 
3.12474262773844e-11 
6.506009600916862e-7 
2.4415514569541252e-5 
0.00010984934758947387 
9.869132613141704e-7 
1.8853251725646838e-5 
0.00036099351948526236 
0.00014853050860477978 
0.00019061772026712442 
0.00011204266266236348 
0.0003642665813434072 
0.0007482803592327453 
9.367632668240584e-11 
0.00026189109216748186 
0.00025653729541598116 
1.1804582771311806e-10 
1.4642624486999774e-11 
1.2457354033436701e-11 
3.820251948662076e-10 
3.4348860092107896e-11 
0.000288532934653589 
1.3405164972372327e-11 
2.101454144750643e-10 
1.250376681296385e-6 
1.873127294471925e-14 
1.3297136935135414e-14 
2.6978956777471007e-15 
1.1111835747392826e-14 
1.3559995121408232e-14 
2.582055231660094e-14 
1.4437715390331453e-14 
3.933154288967293e-11 
9.420175203535764e-11 
1.0540287429510551e-10 
5.4512341192367316e-11 
2.3888353989714346e-10 
3.022865865726968e-9 
4.341401040996171e-11 
4.081394967625719e-14 
4.2113870536952625e-11 
9.958298815429201e-11 
8.124256470038749e-11 
3.9787297684439466e-11 
1.9206110567949102e-10 
9.084007403931568e-8 
1.5516591164428148e-10 
1.4849197097273484e-10 
4.586180262558178e-11 
1.4280387518929411e-10 
3.7741504632325274e-7 
5.90398537248792e-11 
8.367018171135568e-11 
1.0196658182819214e-14 
8.130166863696826e-14 
7.522862106262272e-10 
7.685489150154011e-14 
4.033594146103299e-14 
4.612588526928191e-14 
1.998109278138288e-14 
2.1244502769197342e-14 
4.939434592208165e-16 
7.356993923409613e-16 
5.40303142239447e-11 
9.770133902472821e-16 
7.743974324084332e-10 
1.994400372653409e-10 
2.0368240850750938e-10 
1.8758397679786658e-8 
5.2549660251527575e-11 
1.1018279576910135e-10 
3.187491043546465e-16 
1.9839038050344727e-16 
5.085195807247068e-16 
8.177644343026333e-16 
0.11713225080739477 
1.2512141199192808e-11 
4.0570098839997786e-8 
0.0008228228196243869 
0.03260499818889164 
0.014235949199900776 
0.03322629890447462 
1.3021227516464461e-11 
8.326413342056069e-13 
0.03396518503723883 
1.0832575882716127e-6 
3.071267827984437e-11 
1.2714418317955177e-11 
1.5555260595257007e-10 
1.9977582265692938e-11 
0.027804178196860582 
7.107604411828964e-12 
0.008606478462588928 
1.5085791679840247e-8 
4.742326646904736e-9 
1.899099908160151e-9 
1.6003445000164328e-10 
3.6803098550126467e-11 
2.7650638950522837e-9 
1.3199924821675724e-10 
6.8993668600671145e-9 
6.898103117895974e-11 
2.624372131150199e-9 
4.455098132904446e-11 
1.653318916865666e-12 
3.814060677996447e-11 
5.991005014061584e-11 
4.0492159705963365e-12 
8.07586253895408e-12 
3.323835108619685e-12 
1.745030113438986e-12 
3.673085617771452e-12 
2.174932715633254e-10 
4.9692403287113245e-12 
3.072579077341738e-15 
1.773842741985765e-10 
2.8283552721200284e-11 
3.659392072124566e-14 
7.470632567803994e-12 
4.069573461438109e-11 
4.365797700046406e-11 
5.401575951484565e-11 
6.837605198016846e-17 
7.908511161115818e-14 
9.250860971596879e-14 
3.5972704972171034e-14 
1.6064917368273363e-14 
2.9933042420325788e-12 
1.0455028742276013e-16 
7.386590817140487e-13 
1.3928497316078943e-6 
1.5337380194545486e-12 
8.751931199493111e-14 
5.867186903184632e-14 
2.539450614681484e-11 
7.175117095654898e-12 
5.879296666915004e-11 
2.856603213686031e-13 
6.286245112791549e-14 
3.9483153086921244e-11 
1.809701078337992e-10 
1.229583540914871e-11 
1.3395070417679792e-14 
6.970992432558125e-15 
8.672130299083293e-11 
4.2823837804701186e-14 
1.1029235449205937e-14 
4.954477987027633e-14 
1.8525909120517805e-11 
2.6332051608451188e-11 
1.429462140724278e-11 
1.8476973059013106e-13 
4.242657193548836e-13 
1.8486017043048544e-15 
2.044052747649903e-10 
1.7095729187611162e-13 
4.382153762395587e-11 
9.176875689063778e-12 
1.8277763330219386e-12 
1.8643259917543844e-15 
4.895573380296864e-15 
5.4758572224525564e-12 
5.450744786794684e-11 
1.6728244230192536e-11 
4.1211702260175554e-11 
4.72477252756589e-11 
1.6930482467290144e-12 
2.3971717235262934e-15 
1.989361836764732e-16 
1.9172540207973485e-15 
3.01403383287803e-15 
2.5562993782657625e-15 
1.365697615553618e-16 
1.2561540236363849e-16 
5.273816294409689e-10 
6.883252324974471e-11 
6.204598212873496e-11 
5.046869754908337e-11 
2.0502924374511706e-10 
2.0853719851626583e-9 
1.1663619597487806e-9 
6.391921970777309e-10 
3.7366072914095766e-11 
6.259448636215214e-10 
1.3645774946450754e-10 
7.012162766246769e-16 
9.273724088359127e-10 
3.5137430664367396e-12 
8.828445823117934e-10 
1.3697861502203766e-13 
1.0802952025185994e-12 
7.685208505912785e-13 
9.83192780770426e-14 
1.6456375537541698e-11 
3.059315395718148e-11 
6.20358501112887e-12 
5.3177048493562174e-12 
1.5068276874837634e-11 
2.0677723433797923e-6 
2.1460207650623226e-12 
3.659297556971997e-11 
6.293305703807777e-13 
4.734755558556284e-11 
3.9641351264565203e-13 
1.1962332192775162e-13 
1.0136659845405598e-10 
5.843281356422406e-12 
2.091701261742851e-12 
0.0001000648227526921 
2.794816087767647e-11 
6.924950260251608e-13 
0.0002622387301411992 
7.731273411687754e-12 
0.0004837092046386215 
6.538560915446514e-10 
6.922785353344427e-13 
2.248891673670147e-11 
3.6236872732627352e-12 
0.00021514020780169453 
4.750042593401738e-5 
0.0001424008979136501 
0.00022397617462765825 
0.00028462825823640105 
0.00020085056346333814 
7.710496828339224e-5 
0.0002504319711307294 
7.922989441206164e-5 
4.710100590097876e-11 
2.4888868837517262e-11 
8.337962249800562e-7 
1.283554549418428e-11 
4.056486184571292e-6 
6.942634449285248e-6 
4.214180122783645e-6 
7.764023862497124e-17 
3.056626825292879e-11 
4.325548142303205e-5 
5.166043338223444e-11 
9.848500276949234e-6 
9.699267781066042e-6 
1.1399514008079733e-11 
1.4732065557485335e-6 
4.012562511869416e-14 
5.222451583580932e-12 
3.478548356257222e-12 
2.8713231745498176e-12 
2.5150492751877327e-12 
2.8103142647975442e-12 
2.747331222665456e-10 
6.224368178024385e-13 
1.2620310694916862e-12 
1.3849083495792174e-11 
5.236212159445548e-5 
2.420590169854949e-13 
6.085288789383131e-13 
1.5040409920107707e-12 
6.612152981149062e-16 
1.5652275065859508e-12 
3.2130884055153987e-12 
3.5875989421803536e-6 
4.600679156094385e-12 
1.119360475018177e-11 
3.1326876843028826e-12 
6.9861633010111595e-6 
1.1357991233287742e-6 
1.640125061334581e-11 
2.7354702676106944e-6 
1.0248996615789416e-6 
2.27872564145258e-6 
6.1765575202517295e-12 
8.583657798018066e-14 
1.0144817954031772e-16 
6.533291704438794e-12 
1.3517993334079914e-11 
2.965684326369755e-13 
1.5069796559655847e-12 
2.2326649471757896e-13 
1.1806748322544857e-12 
7.559007356654564e-8 
4.69642948461809e-13 
2.7591890778077237e-13 
9.548596958636165e-14 
4.7043627182823116e-5 
4.57290574064792e-13 
5.687100345207794e-13 
5.639504491180836e-13 
2.160192047148761e-11 
4.859503262935768e-13 
1.7197026576712813e-11 
1.1934957703136758e-12 
8.601990122746735e-11 
1.9009457599840226e-12 
1.9592834424809626e-12 
7.722188028395398e-12 
1.2728326346502878e-11 
8.635550829748843e-13 
1.2875631879107035e-11 
5.012042143853703e-13 
5.967692539396557e-12 
0.12263628290618721 
0.1604580942937161 
0.21809384569431237 
0.322692550959981 
1.1137246367431561e-11 
7.829036545321662e-12 
8.130956980143924e-12 
3.8204303510021017e-10 
2.329344872615496e-13 
1.0052449976833029e-11 
1.7917273574703008e-11 
5.954362390739405e-12 
0.34564248738496245 
4.6602797854154425e-9 
3.6537279275432136e-9 
4.1000972389585075e-12 
1.2098631311032963e-11 
3.019192023561805e-12 
1.203292090865145e-13 
5.292135521471126e-14 
8.24308553649402e-10 
5.175254896236847e-12 
4.085156691424448e-9 
1.479551696797138e-11 
9.063859392966949e-12 
5.018057039784481e-10 
3.160288975690424e-12 
1.5343317314959667e-13 
5.169579394461815e-12 
2.8953109756123977e-9 
1.2323776072789573e-9 
1.4718555033314406e-5 
1.1083293295499504e-10 
2.0828738056410978e-5 
2.656726686955951e-7 
6.293675725697774e-6 
5.914265964530907e-5 
3.3193156696506404e-6 
2.0376944281624498e-5 
3.379084882563774e-12 
1.5256885756358353e-5 
6.802134517291455e-12 
3.378512526938111e-12 
2.4283256865504552e-5 
3.887959749173922e-5 
6.452298413865233e-13 
1.190746419876551e-11 
2.942949736288191e-13 
5.416838642090057e-13 
2.439936059713221e-11 
2.728276648856948e-12 
2.8454218446706814e-13 
3.106177836567868e-13 
8.48886704563961e-13 
2.2525558120374213e-12 
7.809439174776039e-5 
4.607091358765857e-8 
2.775222201512822e-12 
5.338933858428565e-13 
1.6846200699831666e-6 
5.965115143655247e-6 
3.2662952765519655e-14 
6.558708358314067e-7 
6.52817999112079e-12 
6.659344142668865e-13 
3.6507139889484076e-12 
1.0605830245887747e-14 
1.2703822771721146e-13 
5.437661962775635e-12 
1.5872988006235106e-6 
5.3914910648231516e-12 
1.7359736234367427e-12 
1.3002965706530411e-6 
7.272255342661482e-11 
2.198730571906804e-12 
3.683316980102603e-12 
4.762920319705895e-7 
2.228775269745432e-12 
5.878179339347904e-8 
4.607299688441941e-10 
9.306591328066333e-12 
3.3035946949838093e-10 
1.517558001408778e-7 
3.3558320835554837e-12 
3.0121605572791743e-9 
5.78703342181628e-13 
4.5765607902932114e-10 
1.644261278696252e-12 
1.5001464590246869e-12 
1.6211183865174876e-13 
5.495420076283021e-10 
7.463049450812254e-14 
1.9894392203212415e-15 
3.811779829361368e-10 
7.466521161496047e-10 
2.4106062550157515e-11 
6.613026313958043e-12 
8.134334553970947e-8 
3.4671362628340557e-12 
5.122029595950719e-12 
3.4563865903034936e-12 
4.562252810096479e-12 
8.55888954936406e-6 
6.312752975364985e-13 
7.75095163782426e-6 
2.771146033142297e-13 
1.2751563754868148e-5 
6.12579267253806e-6 
9.135666330938383e-13 
1.673145768548626e-12 
1.8845310463098096e-12 
1.2008066087240258e-12 
2.252804316457279e-5 
1.013558220591188e-12 
3.93063331041242e-6 
1.124665787690543e-5 
1.1894596244098374e-13 
4.971935756385569e-6 
5.279671904480637e-11 
5.7993303065247e-14 
3.487721446800813e-14 
5.541357100157436e-12 
9.037671775393905e-5 
3.848749806920435e-11 
1.3367663166482274e-7 
1.140566355760633e-12 
3.053712405702698e-11 
1.4661802238478353e-13 
5.031908568498235e-13 
3.2223379835933276e-12 
9.528963119538034e-12 
1.1302556237637145e-12 
1.1133161448843731e-10 
2.2524311370009275e-11 
1.8031025175877178e-12 
4.690471334233098e-13 
2.6002484701948306e-12 
3.2003474066027216e-5 
1.5579878976615595e-11 
1.3920655855586973e-5 
1.30565459790182e-12 
3.527506863948311e-13 
3.075533361957317e-9 
2.587413168025473e-5 
4.463128230342015e-10 
0.00019802423395263722 
7.937657125790843e-6 
1.7030057468031643e-9 
0.00013934573491888248 
1.2949624165570464e-12 
1.3720052139667205e-12 
0.001822971573937313 
3.1438732820253434e-12 
5.235300801125333e-12 
1.2678475207217624e-12 
1.0241651617246683e-13 
7.214520788540849e-13 
1.508559687836347e-11 
5.3942918280560527e-14 
8.64134525701228e-13 
9.533595579956586e-12 
2.959780833032761e-13 
7.77171187368419e-13 
3.861882325172566e-12 
4.808194848439873e-12 
2.3472821315697263e-6 
1.2275975083087277e-13 
4.227350738535449e-6 
2.6727058579562958e-6 
2.9108709986355283e-12 
3.1276970611802914e-15 
1.4235552374340508e-12 
7.989612840166116e-6 
5.199814698629956e-14 
3.821952516578256e-13 
0.00010532866685277796 
7.179667187198399e-7 
1.8591191032131307e-11 
1.0337201160656955e-12 
2.037579966882506e-13 
5.978637950110998e-13 
1.224246115862218e-13 
2.9494438812036822e-9 
9.231855219964409e-5 
0.00010077252120185993 
6.923219008666553e-5 
8.156126248671687e-5 
4.130289003303484e-13 
1.1795378475658175e-12 
5.402959537014486e-14 
4.282554088146038e-13 
3.152820796795037e-9 
7.576244973473719e-5 
9.064083263357976e-5 
4.55804641704582e-14 
3.190673679101899e-13 
3.2341587153290612e-9 
3.0827050879726506e-14 
2.2115252431556233e-14 
6.104279999102366e-13 
8.980093157524499e-13 
7.512637578376115e-6 
3.8421382459798205e-14 
2.375496444264237e-13 
1.3089127097779593e-5 
1.218486924692807e-13 
7.206537834362293e-13 
2.0185939848012274e-13 
0.0001455626863535919 
1.4138866031054814e-13 
1.5026339400036553e-12 
9.879268958717187e-13 
1.035212614885167e-9 
1.9387360963817673e-10 
4.0148964672140647e-13 
2.340280750792806e-11 
7.294216923747182e-11 
9.486236071785139e-14 
1.1093794000622288e-14 
4.868755599270187e-13 
3.9518249568772346e-13 
1.0850060493995303e-13 
1.9268934277689375e-14 
4.703774890481904e-10 
2.2442311353705304e-12 
7.30387001566761e-14 
1.5107710068842103e-10 
1.0547224000614894e-5 
5.216073653856721e-13 
2.665913995835853e-10 
9.440934060581873e-11 
1.0530760644020543e-12 
3.589822661662098e-13 
3.591385092989885e-5 
2.9941116834975187e-10 
3.369614966017295e-13 
3.1616102052348015e-13 
5.1108526000855406e-14 
2.4758434092325593e-14 
5.246031377056057e-13 
5.706648308477196e-15 
2.7542457035455035e-10 
9.865252775226249e-14 
6.706925704110892e-14 
2.8575989895759754e-12 
1.7913859521631857e-13 
5.524506809821542e-13 
1.917229071399124e-13 
4.397250708730694e-13 
2.12300170938292e-13 
2.833792939563165e-13 
1.847200506354957e-13 
2.596851606959623e-14 
1.2496740467838997e-13 
2.3918931683666447e-13 
3.811618845849673e-13 
4.509558999987168e-14 
4.097791191896768e-12 
2.0968382394945337e-13 
1.3518031077877222e-5 
7.730919250950212e-6 
0.0022951042691597224 
4.8353253468894184e-11 
1.5832654190390823e-13 
1.9432133512927067e-13 
9.500241101634625e-14 
2.9685742985897376e-13 
0.0008136952643162278 
4.970835931855435e-13 
0.00011813115158332799 
0.00021127023320452787 
1.8713272905119547e-13 
9.464971180999983e-5 
0.00042259239241261126 
0.0005386405175015476 
2.0768103812148274e-13 
8.373007415228161e-13 
6.764595725423613e-14 
4.8337892248735284e-14 
1.3366866096909067e-7 
0.0002648829888450328 
0.00024479875672711756 
1.0895867581998029e-7 
6.241649185138368e-13 
5.685964443911431e-14 
0.00041948428118696333 
3.324931878933546e-13 
0.000659769839299047 
7.997794895768047e-5 
4.178064366372668e-14 
5.210917923815119e-15 
1.2918298545185304e-13 
1.7973927992066175e-13 
1.4973673812984027e-13 
8.207915342017935e-14 
4.0754941734027925e-14 
1.2504875382754785e-10 
1.836340140728001e-10 
1.6218389730396716e-10 
1.915658091540841e-13 
5.192993685532416e-11 
3.313758108313343e-14 
5.158902035914104e-11 
3.3460700353792047e-14 
5.407922305994924e-14 
1.4277243265927627e-13 
1.5616333881423563e-13 
4.3289836025503415e-11 
1.4161200092546594e-10 
2.7867813708342557e-11 
3.7916074161269127e-6 
2.4780077955629104e-6 
1.3869333639146613e-5 
3.4941900846460727e-6 
5.5166945980821524e-14 
2.0312395521685566e-6 
2.3588608274919117e-6 
1.4028562408535862e-13 
3.4257108199341876e-6 
9.822079162240771e-14 
1.3262219146993004e-6 
3.783606138161483e-6 
1.0602096732621083e-6 
2.391536760999212e-13 
9.32120174053401e-15 
1.0717858923780103e-11 
3.116521973921422e-14 
7.402787902465373e-14 
1.0623027673823684e-13 
4.0288307288787915e-15 
1.4271542053354818e-14 
9.848603539167172e-16 
1.6467752867761256e-15 
3.260380124821764e-15 
1.4715642348029274e-15 
7.797146281944103e-14 
5.805089954952419e-14 
2.773319399592517e-13 
6.140057259068174e-14 
1.3794167693148574e-13 
7.188993975397331e-14 
1.9427142938289532e-7 
5.604782380465125e-13 
6.128104729538768e-13 
8.282911486970602e-14 
1.676482886645285e-13 
1.2445036461945357e-13 
1.7490881527902412e-13 
8.979950019418742e-14 
4.531130573206695e-15 
3.117065806535995e-14 
6.617989190668816e-14 
4.631845450274243e-14 
2.3359266107363915e-13 
1.608658846212837e-13 
5.912733442397756e-10 
2.0723992661950914e-13 
2.2084206321679146e-16 
3.4838768952054505e-14 
1.2051460694379387e-14 
3.7383333322438445e-14 
3.742078544901082e-14 
6.02340860431947e-14 
3.838113928179821e-14 
1.8821138151870945e-14 
0.00016272070157002957 
4.342288561864559e-5 
2.4262780520910635e-5 
1.8912759457115783e-14 
3.38579721863148e-5 
1.53274031331768e-5 
2.6523080505278943e-5 
5.069888151259868e-5 
5.738445761223066e-14 
0.00011229285795665474 
3.0290555472463466e-5 
4.661067744879823e-8 
3.932900734854514e-5 
1.1549931393415137e-13 
1.4112354828857655e-13 
3.374433370273239e-15 
4.689353466493526e-8 
1.1045812950925117e-9 
0.0007962711726405954 
0.0016728074293016792 
0.0007672621019281108 
1.3282277928433076e-9 
1.5697063507206716e-13 
2.8762186319948203e-10 
0.0002713595742785546 
3.026674271001136e-14 
0.00038682539905393945 
0.0006909816321429473 
4.7323170680581237e-14 
1.4212839995765673e-13 
0.0002665604352336331 
1.6472961556039702e-12 
1.0174131661178847e-15 
4.5976845201801964e-14 
4.659144174881721e-14 
0.00043982518344375625 
3.5649499919165745e-14 
1.263553985493065e-13 
0.06383951994334444 
8.251962130524759e-14 
0.020587448624450368 
7.042928489680505e-14 
4.6417945930310485e-14 
2.161074209745249e-14 
1.021345018975481e-10 
2.7915739859378544e-14 
1.9335500571914785e-10 
3.737850076201892e-10 
0.013284380299351587 
0.008530130757786131 
0.0061752634647738985 
0.0017172003337297505 
0.021124005149758276 
0.004682566641241209 
0.010804686705584408 
1.0561121330815046e-14 
0.0039060143000868423 
5.530488045502267e-15 
4.629064336969476e-15 
0.0037074130228793864 
0.00037016929135722486 
3.9519552474508374e-13 
2.0629591572117894e-13 
1.2203602146961688e-13 
3.052212838739701e-14 
6.79293494420772e-14 
8.117179613038594e-15 
1.2523398542731035e-13 
5.8728120681759466e-15 
3.5009731469577023e-13 
3.369876997831714e-13 
1.735263670958838e-13 
1.4092128501954197e-13 
4.7479709113022694e-14 
8.512338453035996e-15 
7.46548287239426e-13 
1.9500101590772864e-14 
3.602211817189101e-13 
4.250145893218841e-17 
5.899888531110592e-15 
1.526333876609652e-14 
1.0626361450489936e-13 
8.840678574984632e-14 
6.321373387774713e-15 
6.348309688999683e-14 
3.9619814451292924e-14 
1.087491792983477e-13 
1.1952313990766606e-14 
1.0939551725162011e-14 
4.5576061856175936e-14 
3.7879406093272616e-16 
1.027665234028488e-13 
9.804662187553051e-14 
4.625183956169117e-14 
5.615786813468264e-12 
9.742930509288986e-15 
2.1788967886697467e-11 
9.530774332817845e-15 
1.028613988663604e-14 
1.6245148387304306e-9 
7.721398580097546e-11 
1.1654480764030435e-12 
1.733569803546189e-11 
5.0944915334842505e-17 
1.5968613700864284e-16 
9.041257455613819e-11 
6.319513906787119e-17 
6.598174937553274e-15 
2.2758561741674237e-15 
1.7258665153491725e-12 
2.623149528525425e-7 
7.474679435555452e-15 
2.7212456759704437e-14 
5.834747164728018e-12 
4.6153971959013023e-14 
3.6107086793011264e-14 
2.376198648851187e-15 
2.376712063378941e-13 
1.6808652003843402e-13 
1.7456320798663997e-13 
5.5592028627309595e-15 
2.3860734744686656e-14 
1.1654299242145107e-14 
3.754518113239706e-14 
4.7420707476326135e-15 
9.831186879157258e-15 
8.248219308011112e-14 
3.3259764888513084e-14 
5.611421760943275e-16 
2.977219083902814e-16 
5.598170141404372e-15 
1.9522250508138984e-13 
4.203157578688175e-8 
3.105192724461626e-8 
1.0975202765346068e-8 
9.554209171706742e-9 
1.7431129988026006e-14 
8.998434485566344e-16 
1.0841352069336725e-8 
6.493033894008566e-15 
5.403009619168585e-15 
3.457043820846605e-8 
4.8351670541385495e-14 
3.793092756489542e-14 
3.4351920531238873e-16 
1.7132452140773216e-8 
1.3070098070784413e-7 
1.8623967224189526e-14 
2.6242538788879104e-14 
3.4540399737393214e-15 
1.887247404742948e-14 
6.071193569156595e-8 
3.4792816526070197e-15 
1.9364182633065515e-14 
3.022826296417087e-8 
5.65791574523048e-15 
1.6414962506384147e-7 
8.343670411337808e-15 
2.165010123618331e-15 
1.1068359513162538e-14 
2.8489747636163764e-11 
4.795575938134811e-7 
1.0435940326100934e-15 
2.1728923450459985e-16 
1.9221206366161098e-15 
1.222728212144731e-8 
1.2939424957692347e-15 
1.2305661486239613e-7 
5.288424367354812e-15 
1.077184073788674e-6 
7.459482324577975e-8 
3.50261981291111e-8 
1.360033276700689e-6 
1.4915329950424982e-14 
2.4150325977400922e-6 
1.0831382577605998e-6 
1.0156916699092566e-15 
1.4383683749849705e-6 
1.2389609865283255e-14 
1.0116864905144548e-14 
1.3174669132462499e-6 
1.1341601948115567e-14 
2.199277027942408e-5 
0.0002993271565822156 
1.647370770870098e-5 
2.4577031103530123e-13 
3.417493012459428e-14 
6.338796098317356e-15 
1.0557200962347765e-14 
1.1853470883039352e-15 
0.0007103369244541304 
3.090895434215136e-16 
5.61497957543336e-15 
2.187595108196547e-5 
7.79617262658582e-5 
5.9443246488426396e-15 
4.948746223612193e-15 
1.1363166775330856e-10 
1.5831754831495944e-14 
2.655270645757839e-14 
4.4963352236994824e-15 
1.470333043483151e-8 
1.0599612064063603e-15 
4.934507581566142e-15 
2.727442270463076e-13 
4.681679722137627e-15 
7.643151769110798e-15 
3.463517745977653e-15 
5.463331316730335e-15 
1.5247443193999867e-15 
2.4127521699033425e-15 
2.696128848894599e-15 
4.048435504302169e-16 
5.945073112695145e-15 
1.5629668642673527e-14 
2.2008956102994747e-14 
8.928287127118959e-15 
2.7112007816781633e-14 
1.8920124530108412e-16 
7.293983484102183e-15 
7.984480271147292e-15 
2.6655306938571385e-14 
2.023076929844587e-16 
6.121357200733597e-10 
1.0010218031346155e-10 
5.4801747332578064e-14 
1.2089376168586476e-7 
2.4274239993028266e-7 
4.961959634744585e-15 
1.1044332592203625e-7 
1.8716470892461157e-15 
4.4929287634845524e-7 
3.711605837046457e-7 
2.7780294189439007e-7 
2.8021812757742895e-16 
1.8975528034078487e-8 
3.54890876317548e-7 
2.992325217481204e-15 
6.377122652389241e-9 
1.4470992382074622e-7 
4.8756448564151474e-15 
4.0210337908364103e-16 
1.9344101021996285e-16 
2.6071643560330962e-14 
2.8336291735547405e-9 
4.675561548629777e-11 
7.681797161028213e-10 
2.0633498018693494e-15 
8.406195742870502e-16 
1.660414839136947e-14 
2.8250579945430667e-9 
2.2060894091040386e-14 
1.4213839492078204e-9 
6.237287223721687e-15 
2.5868725486424064e-15 
9.746908957473989e-10 
3.157104111454427e-9 
5.399562109921032e-10 
2.341884698972646e-15 
2.1767648259149498e-10 
1.5164821646088288e-6 
3.3540224463105445e-15 
1.8062918445831684e-16 
3.411113286240046e-15 
4.6523911935922597e-7 
8.618628157669749e-8 
8.444203439762143e-8 
1.2518743363876457e-7 
3.780595128379492e-8 
8.08686241766064e-8 
9.632294166184965e-13 
4.059473601919115e-13 
2.6031118192877765e-16 
6.339995638994532e-16 
8.678980016417511e-16 
3.3962447866549047e-13 
1.2530458747253915e-15 
2.95395012965728e-13 
4.758117870748325e-13 
2.1623298997069857e-15 
5.28023039235016e-16 
1.2093142613058686e-16 
2.922387916008365e-15 
3.214792146509039e-16 
0.2061508727660168 
2.646236360458956e-16 
9.91175788986331e-15 
0.0942440331531677 
1.327057502039406e-10 
0.06682588217403866 
8.67400506070593e-15 
0.22436385609486859 
0.3819833826362995 
1.6280187674805675e-14 
2.2357410252744786e-6 
7.829785704387926e-17 
7.986090693290425e-15 
1.9986403717892728e-13 
3.676431996371708e-15 
0.006181945649356738 
1.1602962187371357e-15 
7.572550391322629e-15 
3.090073775533629e-14 
2.1915028184225504e-16 
1.3918306592386236e-16 
4.443313869436311e-15 
0.001533745905136508 
1.0026959867298164e-15 
2.6095531372311797e-15 
2.9462793227921763e-15 
4.0444734437454394e-7 
5.601697660458017e-16 
0.003991124866311656 
0.22146466652671967 
9.53833231369903e-8 
0.07124318267871224 
0.002093619363148988 
0.006481109841915797 
0.004199221688002901 
0.0009273514868000483 
0.0017335089111376167 
1.0214050548986843e-15 
3.857851488037763e-11 
4.520023915965621e-16 
4.947486489158213e-16 
3.341548836380604e-15 
4.0551795988757366e-15 
8.189822658929444e-5 
1.3142956751396545e-16 
1.3543163879024106e-7 
3.613594303683595e-11 
7.072756077073311e-11 
5.5459941804682366e-11 
4.0713377491913814e-11 
4.6958325399592027e-11 
3.595277209144198e-6 
2.6940580913908653e-15 
2.7027508541413405e-15 
7.732893612151596e-6 
2.3779040437255674e-16 
3.955328287916316e-6 
8.751918017396542e-16 
2.65037506814949e-15 
1.6443841267716833e-6 
3.862911807379719e-16 
1.7152717222535e-15 
1.6746769782263507e-6 
3.178022887137245e-15 
1.0137086399965486e-8 
7.1551966551727616e-9 
7.294410337778161e-9 
3.3275267617095487e-9 
8.792461185310148e-9 
1.2680949038017792e-15 
4.532656735475469e-6 
1.9650399580172735e-15 
3.699550984687301e-5 
3.83773172244449e-5 
4.344176427460942e-16 
5.929392579767093e-15 
6.645176648360199e-16 
4.44486893953531e-16 
3.6019889862119716e-5 
1.6268622352488617e-15 
7.667043962642403e-5 
3.068151354950007e-16 
1.2153825066946372e-6 
5.657340296055075e-16 
1.6780256404935049e-7 
5.097813038691258e-7 
8.329800868748181e-8 
8.67532894843511e-8 
1.7444840180535725e-6 
4.000266043707491e-17 
4.6571889341036737e-7 
5.774798744935149e-14 
3.281895978515193e-14 
7.699763917266448e-15 
2.3358731688568754e-16 
3.713701526733837e-15 
5.910605459898478e-16 
6.418005701379837e-5 
2.6064114665608223e-14 
1.1456006376614025e-14 
1.618462445006795e-16 
1.8097214901019377e-15 
1.6857079865675634e-15 
2.835849778401003e-16 
5.413100083099854e-16 
5.978965210138534e-16 
1.217449039879816e-15 
4.497575537772897e-15 
1.8993481702167107e-15 
1.661220091491022e-15 
1.1110404849372687e-15 
1.4030738448320222e-15 
4.937818191860535e-16 
8.820610997951213e-16 
1.2900598077498338e-15 
2.842012874467525e-16 
8.378890740717842e-16 
4.674809894422811e-16 
0.00014939945287063038 
0.00011445335976432819 
1.0484321858211482e-15 
0.00010914313197209575 
0.0707870392227727 
0.017248691808889133 
7.551848950434914e-16 
0.00014929114315727777 
5.1339375228286594e-8 
6.023607198619655e-16 
6.962961375392938e-16 
0.0005330523507636594 
8.28712615334929e-5 
2.789493136524493e-16 
6.007095564596136e-5 
4.381847322773729e-16 
1.50623308720004e-16 
2.0934935775351265e-7 
1.0175603639157984e-16 
1.6086880634074487e-16 
5.944944767439238e-16 
8.636129515653436e-17 
8.822679986207332e-17 
4.701188156025953e-17 
0.0006735596861836342 
5.701361028046545e-17 
2.6132701334677276e-11 
2.914430777597428e-7 
3.708651486307125e-11 
2.134819874431362e-7 
8.179319139807484e-12 
1.1980452220035112e-11 
1.3325497690703793e-11 
1.709410637375705e-10 
0.025112567821497157 
3.9463485477778176e-16 
0.036716745430870654 
1.3926900710480812e-16 
3.181164513501452e-16 
1.0237525741839826e-10 
1.9325819133125067e-16 
1.265165199253982e-10 
6.142328815170123e-16 
2.3874181106399816e-16 
6.435619025757076e-16 
6.476179472098342e-16 
6.008160871792317e-11 
5.402059647984852e-16 
1.8556888650328342e-16 
8.238549573788023e-16 
0.01518224435758217 
7.28165783240001e-16 
1.5867499035842726e-10 
3.8426251097126527e-16 
1.0407762350958973e-15 
8.19917816173097e-11 
1.1937657178855716e-15 
7.761319256728693e-16 
1.1193747660837458e-15 
6.636818259146338e-17 
3.569843245946763e-16 
2.879666123293155e-16 
4.722038944243602e-11 
8.247216276712158e-16 
2.1622926665001354e-16 
2.100289146652756e-16 
1.8003203880673376e-16 
2.3697179170987573e-14 
4.385834666996248e-13 
1.0176263011441348e-12 
4.783684594563789e-16 
3.816379227525387e-17 
1.2007494218874824e-16 
1.8939092111889072e-13 
2.374349626757293e-13 
2.402154749455986e-7 
2.037147686158368e-13 
2.1532388654506582e-12 
3.851242424858335e-12 
7.467836243201884e-15 
2.299775158263689e-12 
3.0778918086459565e-12 
7.277296318679334e-17 
5.973301843765328e-17 
6.125828814838172e-17 
3.6133724269195944e-17 
1.1461011979680899e-16 
2.503663719803996e-8 
3.7921852744571705e-16 
3.22527597257081e-8 
0.0037723779124398957 
1.804791730487496e-8 
2.1212079789030285e-16 
8.649308867335008e-16 
1.80504326331554e-16 
3.864550547422523e-16 
2.221718824548546e-8 
1.8556888650328347e-16 
3.524139712193238e-8 
3.12211597140325e-16 
3.177851388455738e-8 
2.335903001048522e-8 
7.65443316046403e-8 
3.148051648771434e-16 
3.025395129243814e-16 
1.005259233439434e-15 
2.8492946321460526e-16 
3.141292942312275e-16 
0.053963692908175834 
3.807341521412708e-16 
0.014753450495966021 
2.5308926923546305e-8 
3.4088897765373444e-16 
1.4542946338804915e-8 
2.0623281694607315e-16 
3.5981002683683005e-16 
4.832195397881087e-16 
9.760558922515088e-9 
1.2103514674032202e-16 
8.657204777045928e-16 
1.6441377991596655e-16 
5.5788683338296655e-9 
9.763007203735874e-9 
8.827227973517171e-9 
2.5367715597558697e-8 
9.244654909714769e-17 
1.6549126979314906e-16 
9.426812155613391e-9 
1.844799938033848e-8 
1.7056671513137264e-8 
1.9183032264465945e-8 
6.963453663243551e-9 
9.376443278364436e-9 
0.003135034679577175 
7.313169497117225e-6 
0.7156998533412148 
3.269004133901971 
1.6701479839215196e-14 
1.8597431168427647e-5 
2.3490518694434153 
0.8631807496322341 
3.624732984576307e-8 
1.2188813670881592e-8 
2.2545827904010223e-8 
1.4889529773893019e-8 
9.375762350248603e-9 
0.03947074889829637 
2.4200283329285124e-7 
1.0264025413934241e-8 
3.687447514366893e-9 
3.7356468273539686e-14 
4.120000236531169e-8 
3.080790519479796e-8 
1.978377437084115 
6.393450217184936e-12 
0.47796158562791174 
0.49779620915082173 
2.1645044765356736e-11 
4.525492055022718e-6 
7.824793062876253e-14 
1.103793822036084e-11 
8.051708334502562e-6 
2.382648224890286 
2.0105798450752775e-8 
1.4820695417762577e-8 
2.290667950627588 
0.6359407786344677 
7.152343639288697e-15 
2.4358486974586986e-15 
2.8925695462577345 
2.1545483400852157e-15 
1.013100890106137e-14 
1.8477794948753914e-15 
1.8755771047115868 
2.8496375944986636 
2.1182688433872238e-15 
2.430530984847846e-15 
1.9904638255356808 
2.33647146235595 
1.3990427635518098e-10 
8.869257546457096e-11 
1.0166568512951165e-10 
6.323219197549154e-11 
1.6613142085079178 
0.17827354182285246 
3.127762851774288e-6 
2.2079569797506133 
3.472402952727015 
0.07646441201324233 
0.08541261539282526 
0.38045528225807973 
7.989779732510352e-11 
7.497842452714308e-11 
6.111216882962384e-12 
9.100934099748735e-12 
0.031296931756829766 
1.306965156774349e-11 
2.7657398559359834 
3.033680557271607e-11 
3.202015879444638 
2.059908774974201e-11 
0.39622204876240524 
7.318517200927709e-11 
2.0259552972985987e-11 
1.8740585590741174e-11 
3.940264904894013e-7 
0.061185398977655514 
0.763921134798077 
2.6401825991104486e-7 
7.156733486666112e-7 
7.666075061447002e-7 
3.289476806373214 
1.2342902432043033e-7 
1.015978969312767 
4.314378008761074 
3.3008614741170387e-7 
0.6279548979480715 
8.229708166374857e-8 
0.8311355611688688 
3.25388503866001e-7 
0.2401909655614149 
3.349129325559155e-7 
1.6333978675033685 
4.0585923635651187e-7 
2.086040695907571e-7 
0.05327938021099553 
3.3360673528882923e-7 
1.9483208605969646 
2.8723487666865912 
4.2035949806588515e-7 
2.320262006120075e-6 
2.1986497427954888e-7 
4.867609599729324e-7 
1.3059323322835526e-6 
3.7951913056403668 
3.322586230194082e-15 
8.16136779471585e-16 
6.116759523272814e-15 
6.209167794888375e-15 
2.057086177438396e-15 
0.5642942739172601 
3.631813327111486 
0.9616638483984622 
1.679611196869016 
1.9618456116635295e-15 
5.991062552067097e-15 
0.27997629969118093 
9.140871080935419e-15 
2.629096227060732 
6.584480057495067e-16 
2.1964601420426746 
1.9465406913985022 
0.08868642046050522 
3.7462042487122737e-16 
4.511687410762307e-16 
0.003721353448133538 
0.23940049337299596 
0.009627346982074441 
3.2348639974191 
0.1062528976190036 
0.7077432656464003 
0.001200417943624869 
2.638292918034867 
0.2563284081475885 
0.002291799895375093 
0.0018560752596771552 
2.0326205310855184e-10 
1.0782969663072156e-10 
0.789856323146894 
0.0008395039175120822 
1.0362108892475923 
0.13396589787705834 
0.9674857964573497 
1.990215682496246 
3.1294364623923956e-10 
0.03679069843351212 
0.08390982130260467 
2.720883375702433e-10 
1.1216138510203996e-10 
1.900989586460499 
2.0363485356211312e-6 
1.2743690068775795e-10 
1.6912377232672202 
2.2680097940179222 
0.7999700949419477 
8.105622768904722e-11 
2.3180612377819423 
2.1659440605574083e-10 
0.022149164466245652 
1.8737254942312942 
3.836557458148323e-6 
0.005030129749775972 
0.16237263728360005 
1.5910815005024008 
1.5705927613582689 
6.321081221137197e-8 
3.000536349143618e-15 
1.066571355714384e-7 
2.958804343560936e-8 
6.533923842679023e-8 
1.155004666226781 
2.5095763271133274e-8 
6.955930771189985e-6 
0.19514503669795602 
6.21783495811757e-6 
0.2552058352090353 
0.029549911868297786 
6.352007827891594e-6 
2.2918658250801576 
1.5652605210465713 
1.1081945735083891 
4.948445224820669e-6 
1.0330691156985286 
2.0051753919948894 
3.589084307908855e-6 
7.5079544515972065e-6 
0.7641989369662753 
0.012827813645611625 
2.2080118207898027 
1.4976615448207343e-5 
0.006939178185942235 
2.0792433068471805 
1.225302556602305 
1.6601429425077097 
8.15240169890137e-6 
0.8861055989379206 
1.846036695720303 
1.3007242207651695e-5 
1.946710422212615 
0.07966504633054018 
1.3973301542604715e-5 
1.1671422038307323e-15 
1.5096944089678405e-15 
2.7836597493126075e-15 
1.1983427625575963e-15 
2.5251678367725436e-15 
0.3234986723393654 
1.7573954864392687 
1.5642306142755038 
0.09218011811287312 
1.718738500076902 
1.139446308474974 
8.241853868449903e-16 
1.4970251979984843 
3.02277507782779e-15 
0.00010849111330044996 
0.00017234030488673965 
0.0001733527334726931 
0.023823403520616217 
6.953214718766703e-5 
0.07265542257125798 
1.291592524241615 
0.00028933244842070736 
1.292174385280187 
0.009867293425135672 
0.3357344921825788 
7.92115246190878e-5 
0.04756223998106004 
0.9379645531170983 
2.3484254885870497 
0.14065412743080813 
1.1032787706769206e-15 
2.3345613318896954e-15 
1.7466789849725644e-15 
0.04569074302733756 
2.009052183178769 
0.1539667929937944 
2.047711932156519 
0.7467909832243397 
3.0017820631591506e-11 
0.7345817007273876 
5.913339116744749e-15 
7.297620804295794e-15 
1.6584526411637606 
0.007044793044650168 
3.2220168723211344 
2.948579322769239e-11 
0.0015744990356757697 
3.7035084229979814e-14 
0.05173460967739428 
0.3259758502184861 
0.009649056656690153 
0.07576248536775651 
0.023322288524688414 
1.2582579453877196 
1.6519734476757515 
0.01697221689152858 
0.1534645836247828 
0.050822446213788536 
0.019673733242514157 
0.5859295394973527 
0.7372244339004355 
1.879685125373631 
1.4638590598825285 
0.45195983010885177 
1.8171789966814865e-10 
1.8029532777942007e-10 
0.22084688265206784 
0.11266433273048872 
0.9598545998486869 
1.955734393248014e-10 
0.06608975166898721 
7.878561607359503e-11 
1.0280427445695046 
1.0495002755539977e-10 
6.62078983579884e-11 
1.557365768590643e-14 
3.698228850505908e-15 
1.196021233543178e-15 
0.78272560300412 
3.75841893849569e-15 
0.12337998174011808 
1.7327261607775006 
2.141984406375443 
1.65375910501221e-9 
0.6140539284570635 
0.3529005499584352 
9.080385258850651e-9 
1.0058069414515583e-8 
0.03030703461533918 
0.04843295103574943 
0.4454952975390375 
0.9101622306881618 
0.005503236044094344 
1.226147068198008e-8 
0.2538594455017746 
0.008993106699849759 
2.8101159339071534e-9 
0.48796025623414513 
6.230408358406951e-11 
1.8877264422297575 
1.5406771665733837e-10 
0.6911769310947303 
2.0600329177204024 
0.8677872389190525 
2.519425535484714e-10 
1.195225110286649e-10 
1.5498351278978395 
0.04032240228460935 
2.1556472000648028e-10 
2.1372273860587232e-10 
0.409557299484285 
0.09280737217623779 
1.7767431755745755 
2.0765894305934058e-14 
2.2547831538755125e-14 
2.4239895473190347 
0.6447018071099 
8.203744829739363e-14 
0.8382246198420221 
3.1361498815424984e-7 
2.5852585044126934 
1.1679583750910146e-7 
0.0007197668508991442 
0.21804159005644824 
7.084530590559607e-7 
1.756193888869515e-7 
2.3464586335941653 
0.947167705055575 
0.7227218606352735 
0.7634274310587333 
2.052815262324271 
0.0002277510830335385 
0.2860166450315389 
1.0009027991315424e-7 
0.038337157363488875 
0.21743331502899022 
2.793718514942374e-10 
1.9201256406155867 
0.030624314371911994 
0.0992320555715545 
1.7928804075242672 
0.09479052361299266 
0.09099139272453165 
1.7585322397005063 
1.7676024437726454 
0.08362644030741088 
1.8030236844951804 
0.0008137604867961278 
1.7568282322485922 
0.7429422764708123 
0.10614017489480387 
2.23363531481856 
4.7655263931246665e-9 
0.09674480086435654 
0.02230429897297858 
8.017918435771025e-9 
2.9146930548708863e-9 
1.1580746590743154e-8 
0.5095387116151396 
7.53510461218991e-9 
0.00531893130161287 
1.8789414447508834 
3.477802691204217e-9 
2.097468447258977 
1.5043741917411872 
4.977932188246799e-9 
3.2026139625389985e-14 
0.0639946818850615 
0.2961893670710615 
1.8476114557256003 
4.223577073322689e-14 
0.03104968096509365 
0.01766600304891052 
0.08970285869052452 
0.666272279420095 
3.852817393750831e-14 
1.804710290901995 
3.153684292570535 
6.847924723670788e-14 
3.6408639817071504e-14 
0.7957025255422576 
0.3477192080744057 
0.729016879558405 
1.0539590894991222 
7.129704144621894e-13 
3.1597529921604495 
1.8068482742040675 
0.1115071517128686 
2.4061272206711917e-14 
0.008087924792323488 
1.673154631831279 
8.585752285041662e-14 
2.1421183311760992e-13 
1.5678828661263612e-13 
0.2953940078623303 
1.372256415713996 
0.9933314148427802 
1.09169841342383 
2.0366662880952363e-9 
7.030035085426385e-14 
0.9901936764962427 
2.6606108067133687 
2.351465247737545 
1.2138333300736797e-13 
5.583010401951321e-14 
0.4152483022920099 
0.3111069765758169 
8.987305271326611e-14 
7.65052684824763e-14 
0.00032238753377323957 
2.930722058416412 
0.0008720129692658616 
2.4655985794434683 
0.000563799659683128 
0.12481677643709344 
5.676463358702863e-9 
0.0004325069906600542 
2.6379797264807608e-5 
0.8853181576811745 
1.8318427452538097 
1.9054656962852672 
0.000389708403171577 
0.9658080538057957 
2.401937243938349e-9 
2.1533396868587293 
0.7193095726111278 
0.41737406208710226 
1.8284885629834597 
1.9648894519281666 
0.15335898399175873 
2.990159259065046e-9 
0.09987301786101367 
8.507127385328946e-15 
4.131234346906845e-9 
1.9031986175221274 
3.8175902871282005e-15 
2.0836439544931413 
0.6022186541322895 
3.360136466188829e-15 
6.333342834532946e-15 
0.49504058158940395 
1.9238193650762113e-15 
2.128292887290317 
0.4458882861383907 
3.2366601717070753e-15 
5.345247711462534e-16 
1.0378516947235572 
2.0651086118979705 
2.5410761119319777e-15 
5.916784724045319e-16 
1.0747006879387616e-15 
1.341692743660756 
1.2767615518116917 
1.2157704450887202e-15 
1.4183612316682227e-15 
2.007557595034688e-15 
0.06301919038306164 
0.18641520530958444 
0.5348456070540953 
2.6423660942124583 
1.5572942447898969e-15 
8.134274643122765e-10 
6.881280479384891e-10 
1.0262661461713651 
2.8699241030139904 
1.1406208444454071 
7.668565575182582e-11 
2.1044410934246076 
0.5357168461269348 
0.23233870474658633 
2.6707716299415945e-10 
8.915601888310331e-10 
0.012115133214845895 
0.14744749526214931 
1.5889853340486612e-10 
0.45716858727171694 
5.04699461377851e-10 
2.0953717372741254 
1.0107110134411346 
0.27912014148702396 
0.5831470080926837 
2.2367823052090904e-15 
0.34325251847768895 
2.145876733147809 
1.1829666579603011e-15 
0.4317659645512328 
1.1382797981972648 
1.0314347351635496e-15 
1.1120304890274062 
0.3814757477993322 
1.7083161069739192 
0.2739023814627054 
6.131818140081116e-16 
3.2613365127997453 
8.792824017693844e-16 
2.045663486677393 
0.00013871720215794694 
0.00017506715709430024 
0.0005745524533916054 
1.717320315535953 
1.0255084261500251 
0.7247151771230558 
0.0003152788558971579 
2.7241576245842505e-5 
0.07365501859475981 
1.7204765713728835e-9 
3.5708483677358926 
2.088958345944303e-6 
0.6141956786624183 
0.1699529826981968 
0.03535621587554945 
1.6419868927182004 
0.15496316705199326 
1.9520672888750512 
1.2252166255840603e-5 
3.0774191033748193 
0.4999086474735944 
9.62585319309722e-6 
4.786126974192116e-6 
0.49008909787221333 
3.0108465952352246e-6 
6.311609860678719e-6 
0.0005359830757203774 
0.8472693619202558 
0.0003456609896302767 
0.5160025336786864 
0.8563651403241523 
0.5893261605253152 
0.010576579102953105 
0.13096067864334077 
1.7630405592143072 
1.540639401968507 
0.002676652967468886 
3.4196717685975426 
0.000764095307998081 
0.04669086132704023 
1.1345769299093709 
0.0043389968651332085 
1.6587971193032642 
0.14594359842345167 
0.0005602552753107239 
3.3897176474370636 
0.0003355114352364557 
0.0007535931342074624 
1.7153826947369479e-10 
0.0008019927558293756 
0.557609905735493 
0.00025337913925501185 
3.245340300240982 
1.8618314622590706 
0.00026392611014611987 
0.6792679092087299 
1.9759056183262684 
0.0006139473150411059 
0.25906899386857957 
0.4693744928188788 
0.7780598355846239 
8.515071766822609e-17 
0.504681056396425 
1.8414059312826724e-13 
0.09863348338665397 
7.619309638110395e-14 
0.14570953143230939 
4.675776825947814e-13 
0.053262896378806615 
1.2292834268222554e-5 
0.038799036480820955 
0.13875938187616832 
2.5588716593610636e-13 
8.352960194918609e-14 
2.1686991589384818e-13 
0.017643393957470752 
2.1379643518100942e-13 
6.402622099955858e-14 
1.9553061635364521 
0.0779521751733126 
5.520626584768086e-13 
0.15261636780400584 
0.013421347146208087 
0.4315873913089608 
4.384193638611533e-13 
0.00017817845362815495 
0.49915939282333416 
1.3020381822023377 
0.00021841377873692486 
2.095646757480837 
0.0005234222500112377 
0.6031295692809217 
0.0001159523886310774 
1.3149526616663898 
0.00027488542972778005 
1.1971022719051814 
0.14593010337716183 
6.994505805028967e-17 
0.013014284670178466 
0.0001242000237347254 
0.29851401743479744 
9.34716793684564e-5 
0.9462684819184435 
5.020451066665809e-8 
2.943861987814423e-16 
1.3290543437571822e-16 
0.019930643385603332 
4.289138752231655e-8 
0.6963903716308912 
2.0915911538305024e-8 
0.16132406757887297 
2.3872394872059426e-8 
1.484938149069812e-8 
0.5096818360463832 
0.11578459290806832 
1.5558479813163438e-8 
0.08948940076993919 
0.7606683285432765 
0.04983559628587356 
7.3866571764545844e-9 
1.6829423257802614e-8 
6.535925689523658e-9 
1.0693835759796072e-9 
0.006229439032122955 
0.0038038839734511644 
0.028790044199367093 
0.005052573043323135 
2.754343070892173e-9 
0.0016499699778496054 
6.911276120674179e-9 
1.318207714072717e-10 
1.2455360137406876e-9 
0.05808455376975597 
0.1409776404655886 
0.0015321075356250493 
0.03178551971887076 
1.3172519271767885e-5 
0.00645442284765124 
0.027500422961875017 
1.1397391337166227e-9 
1.621990821182199e-5 
0.00035733886658748294 
0.14147026550488645 
0.004381615730801638 
0.0005287261471875796 
1.8458515911258413 
1.0556073013412222 
1.7637070331625656e-5 
7.513553988634337e-6 
2.370009652969164e-6 
0.11037379251542634 
5.638361513911138e-5 
0.011489610948359819 
0.08541909745853472 
0.14413811946681343 
0.04219453164618794 
0.009129148381620709 
7.211536715462935e-6 
1.6131126246574784e-5 
0.0003466507582394274 
0.00017440651025842186 
0.07077094930816877 
0.04203539935940782 
6.983156979221559e-6 
1.4158909722602617e-5 
0.00011510936303077397 
0.07906378747951207 
0.057662536426976316 
1.1139542326582679 
0.12322649231077945 
2.9369200158475737e-13 
0.013859933383851449 
1.7331665587622667 
6.071541215384609e-14 
0.012315378441955951 
9.736514092045184e-14 
0.029540915012125853 
5.462388687255695e-13 
0.02262387634538408 
5.095014972426946e-13 
9.341036013713638e-5 
0.03671190327995602 
0.009644284108523547 
2.9452270929895673e-13 
0.0004721846311375461 
3.1938888465890475e-10 
4.658753648360041e-13 
2.8559822781764206 
0.5712268239101574 
0.007127007019666088 
1.212119114044818 
5.841808554713307e-7 
0.015123406375258615 
2.6539347694119374e-5 
0.0562714860030073 
0.009432707834267244 
1.3886958948611722e-16 
0.019637511079003328 
0.30946820741043507 
0.005574323260849013 
1.196248514313172e-6 
0.008659696425465532 
0.09160180682071979 
1.1192032843077187e-6 
1.1742675360112 
0.002968402973019115 
0.04028670413892426 
9.059688026695447e-7 
0.29890073722703664 
1.2512932765267007e-9 
0.06519593111702031 
0.0731219451512406 
0.009685461081987116 
7.500396651753358e-10 
1.5608859332778928e-9 
6.742432313581241e-10 
0.013825705431291933 
3.028541630597922e-10 
0.021101705131229952 
0.026475765426669847 
3.9312595578454985e-9 
7.658094118212139e-10 
3.376847440823533e-10 
0.0013065075446944518 
1.1513609217761864e-10 
0.014323787721653446 
0.0006165266577434881 
0.6128936440087215 
8.29737180586744e-11 
0.018920837994640994 
0.0009601580861375241 
2.7435108859428692e-11 
0.0004641170745009662 
8.256477978379041e-11 
9.124852262612724e-11 
4.80414595054497e-7 
5.083841800518077e-7 
0.013168031974550857 
0.0012300169308036308 
0.0023643921228301184 
0.002222787675615498 
1.35919934638259e-6 
2.488066638125891e-7 
4.736543535046305e-7 
0.0002890630649481922 
3.2940492930466823e-7 
3.137974035518964e-5 
0.013998077208796526 
0.7794485410462006 
5.544681387847454e-5 
0.0034473311839434834 
1.81067456583987e-5 
1.2974258883662775e-6 
0.0004732089496599106 
1.13748371075623e-9 
2.1406611128160473e-13 
0.00909018530786697 
0.00018279693682642266 
5.838492165678696e-10 
1.255517808739115e-9 
0.0073117870709682705 
1.0409558054873294 
0.0023586409696494757 
0.06897358203204483 
0.023111290437651363 
1.1944795610867202e-9 
0.0073168760844540695 
0.012223896909810539 
1.4510836244782468e-9 
1.6892542170427577e-9 
0.03390199956863954 
0.02884161453178078 
0.01512709162821399 
3.7038997445830046e-5 
8.101604433672256e-6 
0.00851864852364232 
3.517781807109067e-6 
0.003793069171807007 
0.0015704424457220285 
0.001566739752126007 
0.0014609120768382178 
0.0010615451176809421 
6.719729329097278e-5 
4.2746607121044526e-5 
0.0008502432955307241 
4.612001051614765e-5 
1.0358409624820282 
1.0393693098592234e-5 
0.00011444819710757688 
7.179384111455147e-6 
1.0555487052670581e-11 
3.6912219962078034e-12 
1.5020698985960457e-11 
0.00026225269504867674 
8.64014498788671e-13 
0.007349727825513506 
0.02602052781001033 
0.00029859629163122697 
3.8896840204885084e-12 
0.0011090398343883612 
2.335838036430641e-12 
0.002538280874451272 
4.980312422247549e-6 
3.549160609963301e-6 
0.0024153344643848464 
0.0010591740560294458 
5.778612721073133e-5 
2.2144176193694304e-6 
2.466852051689605e-6 
0.00026465555724657325 
9.44425623501792e-6 
0.0018703295615817965 
0.000623247491691838 
0.0003993950279751124 
1.7009057838901596e-6 
0.0006222195194960588 
0.0015074738791958564 
3.9569872555586114e-5 
4.345520407218207e-6 
0.00664489517359644 
0.0005609458069274453 
0.003253018317181969 
0.003651796426097327 
0.003544991202825344 
4.748811686941026e-6 
6.539491429399217e-6 
0.00014822171811932727 
0.000155835705820541 
0.0011817439133010243 
5.862080117916324e-13 
0.00022817371085047692 
0.00015899834931109593 
0.002353017775363993 
0.00038083579157289815 
0.00022821618859714175 
0.0003070418688820789 
0.002097419906626272 
0.4851363823362806 
2.1433592402803809e-13 
1.795979097103048e-5 
0.000530928843060266 
4.139350179829155e-6 
8.913779645496743e-5 
5.169215491009506e-6 
1.4754973618536662e-6 
0.005909280949421443 
0.003167042068456402 
0.007602926179710005 
8.568669195047144e-17 
0.008399976667775318 
0.0004750902955704046 
0.00012390136561040772 
0.00021529405520750268 
0.0017905227709600728 
0.002437506457392679 
0.0014479566012722633 
0.00114234752034169 
0.002724851909494484 
2.543491022118538e-5 
0.00086993124714729 
0.0017339967858358528 
0.0024709088567731606 
0.002443173092226296 
0.0014836623665447155 
0.0014777987590623765 
1.364924989917784e-13 
0.0001277498584530663 
2.7215111555193966e-13 
0.036203291280563044 
7.874065371255596e-14 
0.002821494069557391 
0.002326354166318743 
4.162361050791845e-14 
2.0887089040289605e-12 
0.001087150206112808 
0.0015360242985529616 
7.412645292269127e-14 
5.362076660390025e-14 
0.0005901535883196926 
0.0009040929467483618 
9.919227728878063e-11 
0.00033382036256285666 
0.0014324727725905032 
1.8958691821113739e-13 
0.00011751312696914693 
6.021930426286012e-14 
2.3068752524022424e-14 
1.605664732670723e-10 
5.127849447446887e-11 
0.0003708629466892278 
9.906012394809977e-5 
1.3777092769518963e-10 
1.6526481130180093e-10 
4.782942098658587e-11 
0.0009447920608286702 
0.0020988198919187325 
0.0008108680544707527 
0.0005564957060688607 
0.00033015846038131537 
4.350845592532674e-5 
6.496820365613215e-10 
6.13233026036347e-11 
0.0002591977946780818 
3.875120882136322e-11 
0.0007127445451484717 
0.0008433341781623514 
0.0006872379384938275 
0.00038821601886711836 
8.554915135618688e-5 
0.001545315416740243 
4.075944569964289e-5 
0.001566304122322863 
1.7798127036977332e-10 
0.00021339797971194405 
0.001574798309146649 
0.005981927769549234 
0.0024608893441163686 
0.0011018262777889214 
0.0006067978385014654 
1.627646240562956e-11 
5.986459615840172e-12 
1.0467875664441385e-11 
7.202641344210714e-13 
2.5515894220811216e-11 
0.00043861312663762906 
5.343613101186419e-13 
9.005888337289087e-12 
0.0006586643259554179 
1.2111484568484606e-11 
3.1858989277557396e-11 
9.557783085666897e-5 
2.2416706167693186e-5 
4.107747278438359e-11 
0.0003020595535888096 
5.259224441384348e-11 
0.0003955098923468276 
0.00017385238869030783 
4.066814750263395e-5 
0.0003299639816671465 
4.088615896306228e-11 
7.305790538203003e-11 
1.3141007127505845e-11 
0.00027462958917112137 
9.542207395092737e-11 
2.3969302434205587e-9 
0.0003097954160755047 
1.4651478056048157e-10 
0.00027099506662685746 
2.6383091776866863e-5 
0.000235996000492129 
0.0001631915396173997 
4.0972470981354e-5 
2.722669168644967e-5 
1.3176223033899868e-5 
5.679119071412282e-11 
0.00048210174800376567 
1.5462743111122018e-6 
1.081747707498366e-10 
0.0003993542558377896 
3.540620673029026e-10 
9.222396917953749e-5 
3.7442632340633907e-7 
0.00029497282077766025 
2.10285737756383e-6 
1.308987549558221e-5 
2.860811781306165e-12 
0.0011226782575550235 
0.00268366725550213 
0.002487986181967282 
0.0023159112970072373 
0.002131874793323179 
7.1638372214685305e-6 
1.304022165666477e-15 
0.0003606829934054992 
5.932351813538152e-15 
0.0002883170641124077 
7.51899617325044e-5 
6.091722523325341e-15 
0.00011807204767994992 
0.00022596713156634166 
0.00018162485522388313 
6.1027373644023196e-5 
0.0014860698275566638 
5.144679615217108e-15 
5.4362971424183834e-14 
3.610455080558659e-15 
7.20361863643964e-5 
5.80986949213196e-6 
7.373137839427191e-6 
9.226213543781173e-5 
3.3212193885771772e-6 
0.0010381142765778326 
5.39901565824686e-15 
4.9765072253688084e-14 
1.3714680724314516e-12 
0.00010708137821218705 
2.4950850005718223e-5 
0.011484861316667592 
0.00017452577942065202 
5.819766176455355e-5 
0.00014743612712290511 
6.166749769876512e-13 
7.566729862392655e-6 
1.5289750812514015e-13 
0.0001859516819110743 
0.0007493396452448228 
9.619993158297207e-14 
0.00032306658709399104 
6.203268980113952e-7 
2.29044263066295e-5 
1.4022718436237334e-6 
0.00029638612247176064 
2.889044541702588e-5 
1.6095899764412515e-13 
0.0003422272176486729 
0.0005694030016361692 
8.945142005503042e-7 
1.5007129580931831e-5 
3.169134063215142e-13 
8.980375083101475e-14 
5.626289714570755e-5 
3.195058273453788e-5 
0.0001479963202752863 
5.6951671576764276e-5 
0.001953103896354863 
2.642919379983381e-5 
0.0003228885496285572 
2.3909226966759634e-5 
0.0006040418189252744 
9.517683262356645e-5 
6.567727679656424e-6 
0.00043725118488670777 
1.20581220679087e-13 
6.736360781382875e-6 
0.00021305039190977287 
0.0004824461272293395 
0.0002940352449420946 
0.0003197838170253464 
0.00012644984539139526 
7.580725872969586e-5 
5.99807877913674e-5 
0.0007505646777486642 
0.0002749192993017271 
0.00025588394778262993 
0.00017067845781559268 
3.843779948224563e-5 
2.1583653223504284 
9.897149044431314e-5 
3.069514607149346e-5 
8.67463895290405e-6 
0.23710932341301177 
0.0002929481045191359 
0.00018628291628590107 
5.8380008939104326e-5 
0.0001491663453145538 
0.0005105266220840949 
3.470282225220166e-5 
0.00011327942228858624 
0.0001920056366639639 
2.2594330872087825e-7 
2.041023483706775e-5 
0.0005700518813829646 
0.21187094379737254 
0.0004985184079845877 
0.04781303435032402 
1.0935027225333014e-5 
0.0008500669784946078 
0.00012933598550190895 
8.847027817056388e-5 
0.00012051987105707906 
2.71719469494268e-13 
2.2388761972217998e-5 
1.1005776918332108e-5 
0.00010480163599065356 
4.256575746760099e-5 
4.437733721680828e-5 
2.6214224178700106e-13 
8.818431223720574e-5 
0.025138381022996512 
7.920158310648645e-5 
0.031425898864989255 
9.264246612719571e-6 
0.5029898429407252 
0.1227982242161681 
0.0970546324471322 
5.5070472875870696e-5 
0.09728249584627556 
2.3347664661330557e-5 
1.0823485275874868e-5 
0.0007593204221255413 
1.2979657706775883e-6 
3.4100438377434883e-6 
7.14316037477995e-16 
9.812933394568853e-5 
3.4819070597551025e-5 
3.180260135854513e-6 
5.440727310259218e-16 
8.504779754121714e-16 
6.548703463093512e-16 
3.68327765575134e-5 
1.5117698736623558e-5 
1.6469626859176564e-14 
4.745610744613144e-14 
8.586945025478584e-5 
1.5289813080410546e-12 
3.651542748063482e-14 
7.345524804222137e-5 
2.5961417963061945e-5 
4.612624082515651e-7 
4.8215531263364613e-14 
9.684056293733493e-6 
2.524304038563104e-6 
3.727999614388036e-14 
0.00015880660571519835 
1.8515925804792957e-12 
9.392497041524902e-13 
1.0756162433205909e-5 
0.0001106845977294071 
5.497447467753988e-5 
1.5774634631369447e-7 
1.1177678862228924e-6 
9.817561872243489e-8 
3.441687279650652e-5 
3.352378900849713e-5 
4.208772248601966e-14 
2.790734365818221e-14 
4.9199906591671454e-6 
1.939198891085818e-14 
1.3366555607487239e-14 
2.2077400315275746e-5 
8.36003865792139e-7 
8.708924500116923e-14 
3.2820057787183204e-6 
2.4926869396122243e-13 
1.4219711767397134e-5 
1.9593643854220924e-13 
1.225920933846798e-6 
5.447882591976743e-6 
0.00027975922094719666 
9.566622258031256e-14 
8.985921510538896e-7 
1.9224527375885774e-5 
1.0741197003896084e-13 
7.23204165566388e-7 
4.63927629591863e-12 
7.311836817719921e-14 
1.3696546742031634e-5 
1.178162984182519e-5 
6.654277296952032e-6 
7.2137308493709975e-6 
1.086773984087687e-5 
1.0469436889821924 
5.3081090600203866e-14 
3.854025871246518e-5 
0.06831718180912034 
1.0133316105709108e-11 
2.652595962953096e-5 
2.9146071203330487e-6 
9.968805285232379e-6 
7.06234135175407e-5 
7.149968678417554e-12 
3.9050207288363155e-7 
9.209393267139767e-12 
5.032124988187072e-12 
5.162222663178935e-5 
3.403807111833727e-5 
7.91584176864226e-6 
2.024610897689169e-6 
7.956311295059513e-6 
2.0904239177239046e-6 
1.1206474120907218e-5 
4.840529593061958e-6 
1.591703219954385e-5 
5.334741120781964e-13 
4.082676516432121e-12 
8.312353250653038e-6 
1.0029783467940511e-5 
1.0710783772016243e-5 
6.093745286665633e-6 
4.489624864087431e-5 
5.111536809098546e-12 
7.623542025789443e-12 
1.3145148249954889e-12 
1.9423091818293118e-13 
2.025482669981847e-6 
8.33047617264751e-7 
1.465177009175124e-13 
3.2399504536514946e-13 
1.0388359073682183e-5 
1.7377148648237757 
1.5912613207691542e-6 
8.797928569837678e-13 
5.426364307621613e-7 
1.0288488147264063e-13 
1.0098138634833838e-13 
9.530589755077968e-6 
0.00013450322283552218 
4.373293630931632e-5 
8.70133012298919e-6 
1.1149009029626134e-13 
4.775037194480487e-8 
1.044591344356962e-5 
9.128063556478893e-6 
4.3663902350251494e-8 
9.2842818016516e-6 
1.8834649207324705e-5 
2.1206353693013754e-7 
1.456218364706616e-7 
4.503623585412511e-5 
2.6534064198891395e-7 
2.3559233539334406e-5 
1.0065643395856656e-7 
2.549606471672349e-5 
7.682773685079563e-7 
5.615993972212633e-6 
2.3777641394120963e-7 
4.853816391659063e-8 
8.651522238742608e-8 
0.0001363089213260189 
8.385126240410479e-7 
4.074400548460057e-6 
6.096810063346256e-8 
1.2177671701219994e-6 
3.453853194194376e-7 
1.8756860148885502e-7 
3.7815954960270522e-6 
3.351652719945545e-7 
1.3893917836773845e-8 
2.0668633508584965e-7 
3.3867979567259535e-6 
3.0170613715387305e-7 
4.580093127082436e-5 
1.190396338077226e-6 
4.714941025123106e-8 
5.6380154421123995e-6 
8.107827499163142e-8 
1.5937387735062174e-6 
1.0255284434658915e-6 
2.733491155328022e-7 
2.5745145174752502e-8 
2.681189906685839e-5 
3.1348673040771505e-7 
3.3857145328213135e-7 
7.924673093031521e-6 
1.6616640069597938e-5 
1.102315983523119e-6 
1.0909752128344205e-7 
1.1705964133410926e-5 
1.1009349869345217e-6 
2.3717395265087228e-7 
1.6056253649563698e-7 
2.4449112561844746e-5 
4.557545937015863e-7 
1.3356772524770772e-7 
1.8772063045806845e-5 
1.3120274593569553e-5 
0.11311510968695372 
1.3037490976526471e-5 
3.9804133869559846e-7 
3.3296433326703596e-6 
1.4682940494711811e-13 
1.193364580485571e-6 
9.975149855232473e-8 
3.6916518102911524e-6 
0.06774866884138467 
1.6717474120118727e-6 
1.7386083247697726e-6 
2.275227663727311e-6 
2.618730547477863e-6 
0.48160480617607304 
0.47371229792783714 
0.23111600689943618 
0.30753226005805867 
0.0017315204514825394 
7.776895205015667e-7 
0.3277813396127201 
2.25620626071339e-6 
2.3944302738411943e-6 
7.074577385243798e-8 
1.263795068326942e-7 
4.7390465245842726e-8 
1.4422323790500282e-13 
1.0955364480542864e-14 
4.431565014508038e-7 
6.314519035397361e-15 
3.0952495417691697e-15 
4.754220648639479e-15 
2.9774945668328878e-6 
0.3409719749896912 
1.290636906511127e-14 
3.6842253430384654e-6 
8.772797620700906e-15 
9.727560445819885e-7 
4.2419277763450163e-14 
4.694262232517109e-6 
7.193656184253082e-15 
1.7713608764500604e-6 
4.962462601505009e-7 
3.2886381095528823e-6 
1.4990079628705712e-7 
3.079731991740284e-7 
0.6432716377083129 
4.048957725034266e-12 
1.101288601645812e-6 
2.9701484937319656e-12 
2.7792295709884874e-6 
1.8644762109764322e-12 
5.862130284642464e-6 
4.152415698661425e-6 
5.2653483876986246e-12 
5.929629379672141e-7 
4.890066849239188e-7 
2.019501426104624e-9 
7.28107875807521e-7 
5.007054898776938e-9 
1.2333623241816532e-6 
1.2907024346609661e-8 
3.5048329493773846e-7 
7.518548489886075e-7 
6.623393462996397e-9 
4.727560499050022e-9 
2.6701867222189576e-9 
6.690108735698516e-13 
3.127557797765558e-6 
2.142109278110305e-6 
3.809120579486343e-13 
6.3159420013339386e-9 
6.579713432235885e-7 
6.427793024343148e-14 
3.1774412395688583e-7 
3.9096514616386433e-7 
7.344920279373996e-7 
1.5646173821168403e-7 
1.7967273718604944e-5 
2.2785813876549868e-8 
2.1289936929380324e-9 
2.579062157699729e-9 
1.3563755795642242e-8 
1.2503791327940117e-6 
6.279519089422741e-10 
2.3163045034638084e-10 
1.4929014764048358e-6 
6.328778586983854e-7 
4.2554738578863414e-7 
6.28546271700723e-10 
1.6534823452781933e-6 
2.2256748271427955e-10 
1.52537690261602e-7 
4.73881136912312e-10 
1.7435660396914301e-9 
1.1577729696927214e-6 
3.5491481812784302 
4.451725834908843e-8 
2.7989945413555083e-7 
7.021188045714722e-9 
2.717711312706435e-6 
3.2737037155769784e-9 
5.825623900236883e-7 
2.748370855122153e-8 
2.5470561697491742e-6 
7.769479726797636e-7 
6.952843802970051e-9 
2.876780259398759e-6 
1.3367425790649573e-7 
3.419768311601266e-7 
1.3072087779178004e-7 
3.8703099236155426e-7 
2.585496412782636e-9 
1.966643028964233e-13 
3.6087840175957437e-7 
2.2686025356819228e-13 
7.118986377981952e-9 
1.879907913508028e-9 
0.05186772815300102 
0.2345860588264546 
0.08559305275497178 
2.5851026288789805e-7 
6.472783156016512e-7 
1.7443301476742327e-6 
1.7022681675939302e-13 
1.5261578833654016e-6 
2.4115724155623533e-7 
7.970007305371788e-8 
8.287924560874183e-8 
6.608235519530593e-7 
0.07683195268132868 
0.06117109496957903 
0.07875637875889653 
0.0668180835692436 
0.47693129538413165 
7.808547142732158e-14 
1.5089817102446993e-8 
2.2605206763549996e-14 
4.3514729040747647e-7 
1.2293450495240388e-9 
1.8717265487171634e-14 
3.862698398415554e-14 
2.4214153110956813e-14 
1.3293911125316002e-7 
7.275787383018388e-8 
6.48191792073604e-7 
1.9462806280076746e-14 
1.5973157649995988e-8 
0.09126487498819158 
2.8126126194460378e-14 
1.5502604971523537e-6 
1.2170460346271357e-14 
1.0096777557889923e-10 
1.4827299644538484e-6 
6.118205209342165e-11 
1.5920638239676838e-11 
1.814894219305519e-6 
1.2824133571176048e-7 
0.28528116477541027 
7.344560501527107e-8 
1.52649489472668 
7.366479559060976e-7 
3.704920445613844e-14 
1.2323160773836233e-7 
9.553399673457875e-8 
1.3469292646253927e-8 
3.76029678429114e-11 
1.2241038156817528e-7 
7.183053425162267e-8 
1.01057486265409e-7 
2.4648015821192624e-11 
9.390628485786913e-9 
5.448641319051549e-14 
3.202052928533777e-5 
1.2157906920217633e-7 
7.135184285835234e-10 
7.157139761172998e-7 
8.8432687830546e-9 
5.2452500718779076e-8 
1.0717289470450699e-7 
2.9861328408916622e-5 
5.811031470907328e-9 
4.2699365125459575e-6 
5.801088754423565e-8 
2.845180623447082e-8 
6.220634694783184e-6 
6.552488643981234e-8 
8.568976801159294e-6 
7.456814737178304e-15 
4.051331867001656e-6 
1.401023078681987e-5 
6.236929241808978e-6 
1.395811272238925e-7 
4.399962548200224e-7 
2.7235711440777543e-8 
1.0128947536999832e-7 
2.368135687905759e-7 
7.008616671416339e-7 
5.210312388398529e-8 
4.4051301195486994e-8 
6.132433489436691e-7 
1.0710052403566753e-8 
1.3002810218371141 
5.955865507427727e-7 
1.2972447103796745e-8 
2.794469727365203e-7 
8.187311123950602e-8 
2.4135682348310837e-7 
3.212859154964628e-8 
9.054361006946975e-8 
5.099671981193004e-8 
4.313229251517241e-9 
1.3082380134988811e-8 
1.0262942635686607e-7 
7.256993715473921e-8 
1.0357783848517124e-8 
1.5878937368481503e-8 
0.004741347260267232 
0.0003971228700607984 
6.657636054524495e-7 
7.553968729161964e-5 
0.0005888093348608177 
7.846388338190123e-8 
0.02081620788089746 
5.312921755634855e-8 
1.5346819562465512e-7 
0.018655520621326048 
1.2239079014795877e-7 
1.422272197683448e-7 
3.9189518522486855e-14 
4.3069587594848915e-9 
1.6201525527643692e-7 
3.424209726728199e-8 
0.00109433531696585 
7.348502168186385e-8 
3.1493699320003867e-9 
0.6479141331895836 
0.02790157316598173 
4.586471075291335e-15 
2.146192525338171e-9 
0.0022149258200768133 
1.4209691256952767e-7 
5.654735918234082e-14 
1.2449377097269888e-7 
0.040545234081926895 
2.5276076402742854e-8 
8.091069969373299e-9 
0.019196261189952598 
0.05530410735194716 
1.0610998705086903e-6 
1.1834387429571814e-7 
3.532218058492651e-10 
1.517157400668233e-6 
2.5336296406712577e-7 
1.1654021433481294e-6 
1.4729159227899775e-7 
1.9410341141352078e-7 
1.7672623956686498e-6 
8.315112160234958e-10 
1.2944364845007496e-6 
3.814560802955386e-14 
5.358979432342032e-8 
8.510430101226239e-8 
2.706812655825482e-8 
4.988903202566186e-7 
1.0337005615706204e-6 
6.682003300028867e-14 
2.8351473194338206e-8 
1.7235371882269717e-8 
5.495740482588794e-8 
4.559868203971945e-14 
3.38454936600262e-8 
2.8356045922036613e-8 
1.4435309410763551e-8 
8.892834711506061e-14 
1.933650112039213e-8 
3.974863867192455e-8 
3.581170475660776e-8 
0.006913866615774602 
2.3001054955039843e-9 
7.397070480228382e-11 
1.2788774280983825e-8 
2.972482549135725e-8 
5.347788820386657e-8 
7.304003293996477e-14 
6.43228419161771e-14 
1.376917796325314e-12 
1.7315522931698715e-8 
3.19744913442899e-14 
2.7492383838877776e-8 
4.686468045783307e-10 
2.8104781772207568e-8 
1.4337692188162852e-15 
3.0577700754447086e-8 
4.2229832494231764e-16 
1.4035538884748124e-8 
7.152932892896494e-16 
1.6248703057461077e-15 
1.4826005934064719e-8 
1.225431772148378e-7 
7.502978667998759e-8 
3.297618150833565e-7 
8.989450511720262e-8 
4.4247537025911964e-8 
7.878968882648718e-9 
8.865114641160562e-16 
1.6021616091661875e-15 
0.04249576373056854 
1.412697315964618e-7 
0.05677213038780518 
6.002520145957649e-8 
9.361782118511188e-9 
2.3701733432705263e-8 
0.09526767438805188 
0.13619167038142826 
3.004543655393607e-8 
3.732612580645051e-8 
1.1697596010745636e-8 
6.072558439103337e-13 
0.22144422736963118 
0.037832818027131385 
2.6170727232853194e-8 
8.511944584118304e-9 
0.10570937465812393 
1.6753317933977454e-8 
0.0001942391371430482 
2.594243396767836e-8 
0.0002667853619790914 
1.7660242620907508e-8 
0.0020170362864633615 
1.4033261122295887e-8 
1.0717008483761571e-8 
3.167536351592092e-8 
0.00013312639938179935 
2.6456422552204584e-7 
1.1490767787345053e-7 
0.00014402870447771508 
9.300013152990383e-9 
2.721719867710935e-5 
6.187406187701461e-12 
5.0852533722605784e-12 
3.3627438374983975e-8 
3.9668977637969697e-8 
1.2785101342330063e-11 
1.0737190298577143e-9 
5.7313292660966075e-12 
2.4640099140584635e-8 
4.6872630086839565e-8 
1.60990958334086e-11 
3.209867241170272e-12 
5.392339148412232e-10 
5.9359347701016396e-8 
7.516221928491287e-9 
1.6297389298255864e-8 
9.03441755301829e-12 
8.593129591900117e-12 
1.298824129148765e-7 
6.465935005286629e-14 
3.2937366998086937e-8 
2.672708328648933e-8 
5.578690412683511e-9 
3.964014643622554e-9 
3.954814369151966e-12 
9.120742286969444e-9 
1.5536758248861143e-8 
2.123657619867741e-9 
6.1480614905543786e-12 
2.465790372189567e-8 
1.1664389371667475e-13 
1.0402508835811792e-8 
9.192267748401238e-9 
2.804816836230916e-9 
1.677055137214285e-13 
1.0124362541661782e-9 
8.601272965396188e-14 
9.807864735474857e-14 
4.5770033027635315e-9 
3.3207606615393246e-13 
1.5206414517443555e-9 
8.021211916772308e-14 
2.1977968833399802e-10 
1.587971946857577e-8 
2.871890916025969e-14 
2.1129821424572671e-13 
9.935740066780936e-14 
9.152781830520062e-13 
7.529460045116462e-9 
2.0058086582422673e-14 
4.407152433653289e-14 
6.734897015397403e-14 
2.74457784935376e-15 
1.7639261708018595e-8 
5.730735070067907e-10 
4.8761066341577924e-8 
2.8776147411583457e-8 
1.0297834552905112e-7 
9.979749258943891e-9 
3.602570652083464e-10 
1.9681541293513814e-10 
2.780953404197058e-9 
1.970613953651826e-8 
2.2580647892814137e-8 
1.2175505264926603e-8 
4.8463275906847066e-9 
1.674957436559371e-9 
3.0718313138535565e-9 
6.030338043471577e-9 
1.523871675096666e-7 
1.0897279574854513e-7 
1.6432955291096276e-7 
2.367471860342809e-9 
7.967714752799604e-9 
4.948396263499692e-9 
1.929241885419538e-8 
7.060029090654899e-7 
4.91319136103731e-7 
5.649618044958571e-9 
7.820387451077689e-9 
4.943289209827355e-7 
4.792616502194752e-7 
9.458708608387636e-7 
1.3767592194065257e-6 
6.764942986454852e-10 
2.638437127219846e-9 
1.9880598401663208e-9 
3.604606782933608e-9 
1.7143325071353903e-6 
4.338034177958899e-6 
3.5722634561801386e-9 
1.5815212904806583e-6 
2.042035563047466e-9 
5.483082298737555e-9 
1.9208465215691998e-6 
6.346666615841884e-9 
1.5794037901370532e-9 
1.3355686578729724e-8 
9.981225419212751e-9 
9.192591002579395e-12 
6.339383504345417e-6 
6.77533573816647e-10 
9.247538411698602e-9 
6.991751842161899e-10 
3.0316407403337306e-9 
2.4929183285861354e-8 
4.717327366215117e-8 
1.033322325596728e-9 
0.0027893783509791202 
1.9381996783179292e-8 
8.24276037906677e-9 
2.3548796438279248e-8 
7.43952290660392e-11 
3.215881693226731e-8 
6.853971078189867e-9 
1.520630434053968e-8 
9.886170500514493e-10 
9.193303473077332e-9 
2.730816288948386e-14 
6.756956397801721e-9 
2.8343055688207e-10 
9.66382840815703e-9 
1.1630238819974912e-8 
3.5043363177944104e-8 
4.915029572689575e-10 
2.958809001277008e-9 
1.0234511567155253e-9 
3.2458865439851185e-9 
9.79146831086167e-6 
1.075904848612599e-9 
5.409930515384836e-10 
1.952868001938893e-8 
2.5515172185900007e-9 
1.3295666941886771e-9 
1.186793247008143e-5 
1.7157836111020635e-9 
2.3405744094961344e-9 
4.081134601706002e-10 
1.7043945450472984e-9 
5.391703618353966e-9 
3.2439730311247514e-9 
2.103443520333216e-6 
3.7167035806428677e-6 
2.306417746189867e-9 
3.5587699842246534e-9 
7.928643616805797e-9 
6.0308805338125135e-6 
3.3587483897943356e-10 
6.424549456732756e-10 
3.929301291863258e-6 
8.905936512380266e-7 
2.9405643651861966e-5 
7.92111669714098e-9 
6.135684117335648e-9 
7.454388527495887e-6 
5.7944960297423945e-9 
3.818225272589793e-14 
1.4911662293464699e-10 
7.37739408364336e-15 
1.7180315337552061e-9 
5.6330720654854384e-14 
4.155170142472162e-14 
2.2007873585102116e-14 
2.771592450668319e-9 
7.0721491505040565e-9 
5.500743225980959e-9 
9.602631842175457e-15 
8.799581935062766e-15 
9.722976331113872e-11 
2.219515022235377e-14 
1.9919031196670662e-8 
1.052135134199421e-15 
8.934684003032709e-14 
1.1595080291418115e-9 
2.4383671716647426e-15 
7.442875121542865e-11 
7.40099175810532e-15 
1.4952874493221178e-14 
5.36545456289907e-10 
5.849775415792821e-15 
1.6660306507556312e-9 
6.965697126059315e-10 
1.0499345855858459e-9 
1.1927571917643704e-7 
5.475810691272755e-10 
8.147877744898037e-10 
1.1823454893673447e-9 
1.5726682960219986e-7 
1.1634783110982782e-9 
4.9420804588115165e-8 
1.2542586987460047e-9 
6.389171800561639e-7 
1.0162004383327486e-9 
7.803117249802893e-9 
2.943171853799587e-8 
1.8469833519021625e-11 
5.506112400488517e-10 
0.008255020020433004 
2.264341961860052e-9 
1.0138965050161413e-8 
3.247706138786148e-10 
4.577014905540579e-8 
2.633451017359181e-10 
3.0597782602992025e-10 
1.049976453803915e-7 
3.489754085063486e-10 
5.291638259952283e-7 
2.5996103878140014e-8 
1.0027242711051284e-9 
4.486140752544269e-10 
4.104728673570929e-9 
3.0406991982603393e-9 
3.2978857267118974e-9 
4.766576015578525e-9 
2.3429473927191484e-13 
2.4165817371994533e-9 
2.2525555108333274e-7 
5.719590726601046e-11 
1.320546464217269e-6 
2.528264485323884e-9 
1.0714536964019343e-12 
1.6062014830982e-9 
8.848059387160522e-10 
1.267181428968793e-9 
3.311081205970077e-9 
1.2352752707922094e-9 
3.1457994261096832e-12 
2.568700162704582e-10 
3.306135620655684e-12 
7.316296363652895e-10 
9.111293191860803e-11 
3.7959886519641515e-10 
5.611533191218482e-10 
1.2530666175996976e-12 
2.7364503509876634e-10 
1.0924482506593193e-9 
3.777053811930168e-10 
7.351583525801221e-12 
4.751138767151863e-12 
4.616803144848557e-10 
3.592425323073134e-12 
5.810607381385428e-10 
3.3329489917932817e-10 
9.583938214253741e-12 
4.990239524821175e-11 
2.379084022719011e-10 
2.54344821420004e-7 
3.23425343918753e-11 
9.063298255937779e-11 
1.293421734056486e-10 
6.1144041783058285e-9 
8.418979011143842e-12 
0.004135244104698568 
5.945737233900489e-11 
3.762198489673654e-11 
2.1431630702920986e-11 
3.4676373193597333e-10 
1.995249301457772e-11 
3.7744214457557413e-10 
3.702120886648363e-11 
7.418483934527597e-11 
9.66374581346094e-10 
6.302318912180587e-11 
1.2909407779577092e-10 
1.2953456312210152e-9 
1.0488927319222691e-10 
1.4802063867884326e-9 
4.2615303392345374e-10 
1.3913544293621423e-9 
7.817192497738338e-11 
1.906251318613149e-10 
4.5333584332772794e-10 
2.838843030959691e-9 
9.704052420907671e-11 
2.09832667358616e-10 
4.658854622116414e-10 
8.36238986546528e-11 
2.0222564683495124e-10 
2.4183934926157697e-9 
2.7811845851842924e-10 
1.2743577272460527e-10 
1.4172623979777953e-10 
1.7767778613830137e-10 
1.0088244161674443e-10 
2.827569492972478e-11 
4.118539056139666e-11 
2.1847410302138535e-10 
5.342962640516163e-6 
3.6927790405815332e-6 
9.895587454264562e-10 
2.74003652930529e-6 
2.838868009985383e-10 
4.814278333962993e-6 
1.2442587808071222e-10 
2.9714075567926777e-11 
8.499783080540648e-13 
3.142759329648125e-6 
5.618219070595051e-6 
4.879488069152705e-6 
2.419323505753495e-10 
1.3968683667707093e-6 
8.974011678015848e-11 
2.64011232554391e-10 
1.2482588285360115e-5 
1.56729267829736e-7 
3.463723108560732e-7 
4.078555227999476e-11 
3.38901417616037e-10 
3.361668723514377e-6 
1.576089324241928e-7 
2.6983373230921243e-8 
1.7969305528352544e-7 
7.65652024142418e-10 
2.9656539254932246e-9 
9.154951599110396e-11 
1.1812403768584378e-6 
1.4686783078323396e-7 
6.797870147300088e-8 
1.1101015179641764e-10 
5.2440354397864027e-8 
6.563799669310982e-8 
4.4815448013541856e-10 
8.370576379771602e-10 
1.3389985620813887e-7 
1.6287049041976937e-12 
4.5822908936815134e-8 
7.112352908549776e-10 
7.840893136968238e-10 
1.791585329036619e-7 
2.2125964590913929e-10 
1.1173198116124822e-10 
2.769977884157771e-10 
6.030939896700801e-7 
2.0436252827621887e-7 
0.010361251661506593 
1.1732945365635245e-10 
0.023506004935011905 
1.1721740250657642e-11 
1.448118905941709e-11 
1.1787494166335041e-10 
0.053159914896181215 
1.1603882627712515e-10 
0.12186194844518655 
6.149970957405027e-11 
2.7057856459828644e-11 
0.07523869772415874 
4.19649484911919e-5 
8.137997803972903e-11 
1.562491781480789e-11 
1.0464902006822781e-10 
1.0089073144708582e-10 
1.3770618009073164e-5 
9.106424155404325e-11 
5.296307744186357e-5 
4.794694517494926e-5 
1.246890863912682e-10 
2.1172945379383425e-11 
1.4723587621382542e-5 
6.404627142196985e-15 
1.4798984845256446e-11 
4.309994132797131e-6 
9.530623556568567e-15 
2.295307850177817e-14 
1.352025779674858e-10 
1.015659229676752e-10 
6.707596954226214e-15 
1.0658772850064656e-14 
1.3798807485995783e-14 
1.3448144957082092e-15 
1.419275427432747e-10 
1.3114587303521742e-10 
7.324077055461651e-11 
5.779215106948282e-10 
9.766807161754095e-16 
2.1472463533669432e-11 
9.447261246935224e-16 
1.8424468008583208e-10 
1.0086090426489868e-15 
1.746089299960646e-11 
3.20112355110044e-11 
1.501134331625311e-14 
2.082384496195741e-10 
3.389169762031208e-10 
3.580725639833671e-15 
1.3326797481797323e-15 
1.5141367408039054e-10 
9.94732730858557e-16 
4.685280421551071e-15 
1.016611453877022e-10 
1.0588267688455131e-11 
2.739530223458844e-11 
3.3703505836624216e-15 
2.830880852513248e-11 
1.587538916790067e-11 
4.9956092265688236e-11 
3.36302072124883e-11 
7.13835835653842e-11 
3.705742428322905e-11 
6.121607646060572e-11 
1.0930911412625816e-14 
2.188977490811604e-15 
2.630659749523598e-14 
3.759922857682491e-11 
1.3377907433742475e-10 
4.3197811009031403e-11 
6.166578147592844e-11 
1.1562619750988915e-10 
4.165053512358962e-11 
2.2280534406700755e-12 
4.5774430101835774e-11 
1.372661820463071e-10 
9.712074233059462e-12 
1.4255304391174535e-10 
2.5847373028189733e-11 
1.5413590452611953e-10 
6.117703430730536e-11 
1.9117535252908078e-9 
2.2941018587395895e-10 
1.0739435041515374e-9 
2.4115946363541045e-10 
2.0879207196945212e-9 
6.365550718834149e-10 
5.740079481451187e-11 
1.2027413973434233e-11 
6.392301212786589e-11 
1.3876396705881767e-7 
4.6497331933259206e-8 
3.121255248427474e-8 
5.5001374318063874e-14 
1.5453201186649156e-10 
4.043698949264884e-11 
4.880403883104035e-11 
6.235567913308487e-8 
5.400958575317833e-8 
4.942498056047815e-14 
1.686921616389551e-10 
4.843121641503454e-12 
1.8187072421898386e-11 
4.7990017594466295e-11 
3.0853813421335825e-11 
3.6501607753970694e-10 
9.542023160609787e-12 
1.614486048386317e-12 
2.340939668222257e-12 
3.417037988447213e-11 
8.299118786055082e-11 
3.911094944603028e-11 
4.074120856853059e-12 
3.8852447913999206e-11 
4.358752690561229e-12 
5.5446614867395875e-11 
2.137641159050123e-11 
7.0225578069259334e-12 
5.389744758529594e-12 
2.9099359301943803e-11 
9.537858089758912e-12 
2.49418736239123e-11 
2.6050358433222283e-12 
1.7088080670829214e-12 
3.9758463616048296e-10 
1.977781875972469e-11 
2.849514817790759e-11 
0.0002634485874259472 
1.8166852594720642e-11 
8.77359437231502e-12 
5.7336631353545054e-5 
6.220606295606093e-13 
1.0752243272135588e-11 
2.6589249476272066e-13 
4.6337319437750735e-12 
2.48550085469631e-5 
1.773383526255028e-11 
3.186316718177566e-11 
1.205606876996693e-11 
5.5688969884748284e-12 
7.409417400046081e-5 
1.567589045447028e-5 
2.827967011168594e-10 
7.526160057377892e-11 
3.096674162714413e-5 
4.298391614508459e-5 
9.501768298844015e-11 
6.474514235639925e-11 
3.579292283925078e-5 
3.156380799186661e-11 
3.095664300055255e-11 
5.735247142644563e-12 
1.5983081992343126e-11 
1.339714852510552e-11 
8.199874784732521e-12 
9.493767162412406e-11 
1.76033618174597e-11 
5.9632858152557e-13 
2.9118378578618854e-13 
3.146140817095803e-12 
1.8923281283472817e-11 
2.2445882026033278e-13 
1.3867445550338292e-12 
7.338477467180472e-14 
7.1897997271259775e-12 
2.6914734077934453e-12 
2.797443847535774e-12 
5.220172079097612e-13 
5.624406678959756e-14 
1.2678733107512112e-11 
5.700665874841222e-13 
4.169697295269176e-12 
6.439208022033901e-13 
8.854900429391805e-14 
6.769387957927774e-12 
2.630565188211168e-11 
1.839704261469604e-11 
9.61647333641579e-12 
4.810761346999983e-14 
6.416132627752347e-11 
2.2371298665179822e-11 
3.956647921334355e-11 
4.098690991035774e-13 
2.916882078605523e-11 
6.200081567527177e-12 
4.448909595495958e-12 
1.674304178214137e-10 
1.8262972531787174e-12 
1.1816585852512687e-10 
6.67547255547192e-10 
1.3270100082540028e-11 
6.386593001176697e-12 
6.007117124748382e-11 
3.2718494441575625e-12 
4.5825098845973884e-11 
3.314020891673049e-11 
6.013186204671415e-11 
7.209841136012396e-11 
1.537186015795454e-11 
8.095571513841097e-11 
1.4732072132638622e-11 
1.7842486276802373e-11 
3.955271411024229e-12 
2.5678775393601053e-13 
3.589991284300948e-13 
4.837630330354338e-12 
0.014777893352018819 
8.585036438669415e-13 
3.0097971861247444e-13 
5.2274816242311174e-12 
0.05128857585967946 
4.462541122074274e-12 
3.910840107421436e-12 
0.015067774230571436 
0.016771916034237926 
8.891102083859318e-12 
2.7664123098970496e-13 
0.010394547206128106 
2.742676779649049e-12 
0.020858495527727134 
3.231830980957757e-12 
0.024072043999076625 
3.594968573342131e-9 
3.7932872583091746e-12 
1.8925309567890735e-12 
1.1807795341743705e-12 
3.434822889776676e-9 
3.9768925536075756e-11 
1.5292844813695295e-8 
4.595379765023469e-9 
5.074499825960158e-12 
3.1098180495993003e-13 
2.0234742665755778e-9 
1.398992036982541e-8 
1.4155020479561848e-11 
3.6167141002593266e-12 
7.543574995755928e-9 
3.96364010848167e-12 
5.701117262991037e-12 
2.5555457476397535e-12 
8.354361781332285e-9 
1.9467189240883668e-12 
6.6907065788543015e-9 
1.289616820360652e-10 
5.559440297694925e-12 
7.928109142571853e-12 
2.2107223350654053e-9 
3.4414696909333675e-12 
2.926765077172989e-11 
1.3610955873723097e-11 
1.257270904254438e-10 
1.2447975847107265e-11 
3.0386760739330395e-11 
2.150330927406466e-12 
4.4983836491385945e-11 
8.268084513182353e-12 
3.109997982260204e-11 
1.2283644900709948e-11 
2.6288882724160816e-12 
2.3337074353490124e-11 
1.3955514658824293e-11 
1.6299430066183178e-10 
2.785402777911772e-13 
1.2456192627615694 
1.6398646958954538e-12 
7.832983439047039e-12 
2.4401995925214147e-12 
2.2409298127518447e-12 
2.370555321932631e-12 
1.833647285455246e-12 
0.13023125423194762 
1.0450094063229363 
3.471186871868877e-13 
5.586366102933119e-12 
0.38331954719928074 
1.8236709082197573e-12 
4.777663533233159e-14 
4.40419746241266e-12 
6.17450292269914e-12 
1.1191149410190881 
1.696563393027462e-12 
2.414360538346923e-12 
1.6794230627691272e-12 
0.10605344822757787 
2.2357337202985303e-12 
4.648582106412529e-12 
4.37174428779846e-12 
1.282507736312123e-7 
3.0660471133458305e-8 
4.9974002874234295e-12 
1.0457627303169659e-12 
2.1867068696693475e-12 
6.010660579240008e-8 
1.3976564362737935e-12 
4.1526629150722845e-8 
8.296587943083548e-13 
0.020606985705165577 
2.1873056991384016e-12 
0.050579759342612766 
0.04242515432368999 
9.44678119486773e-13 
2.8072603138444226e-12 
6.493139825377275e-12 
1.3212433706005075e-12 
4.002561912032626e-12 
1.8739879262217355e-12 
0.047953916791789224 
1.8172017109463958e-9 
8.100331666641446e-12 
0.11845636260650769 
1.0506039849105824e-11 
1.580212173747351e-7 
2.1316267789717555e-9 
7.247153881595365e-12 
8.326069129013925e-10 
1.2059681848037764e-12 
0.12155263643068197 
6.147845951055962e-12 
1.8447641675979306e-12 
4.3913986908423024e-9 
1.290498285266267e-12 
2.471532969580364e-9 
3.5021202464417217e-13 
6.835456742545141e-13 
9.10498110980723e-13 
9.694726406505365e-13 
1.0773218482925101e-12 
9.239731380911897e-13 
1.953419137070779e-12 
8.324235212383423e-13 
1.266112156013259e-12 
9.752626189749356e-12 
1.370398861280706e-8 
1.2650287732349985e-12 
2.0662605805937516e-12 
2.089130447512416e-13 
2.779572223441282e-8 
3.3536246999149774e-11 
2.3424791995347043e-12 
3.6594639791713685e-12 
1.0816510264860459e-13 
2.8010081279279008e-8 
4.4902732576084605e-13 
1.9731603291285067e-12 
1.547001411274234e-12 
3.5953403362231476e-13 
1.7636448656520068e-12 
4.015392123472114e-12 
6.233950086479642e-9 
1.7180504394093901e-9 
2.8787287248732445e-12 
5.502738442955903e-9 
7.2073797432897784e-9 
9.513505740943877e-9 
1.409068286435196e-8 
1.2901389710647796e-8 
2.518605432538379e-12 
6.275840262067226e-13 
2.1738038910512562e-8 
9.623996209073206e-13 
1.687709902426161e-8 
7.243429117296207e-14 
5.491793512590468e-13 
6.5259984514183e-14 
7.073700069169411e-14 
1.1451931488959323e-12 
1.8572134990513208e-13 
1.9148482322523207e-14 
2.7759874019058426e-14 
8.81697507777959e-14 
3.4204630479630524e-14 
1.0362502065975425e-13 
3.312611919447519e-13 
0.0006135522970284829 
9.585586800756846e-13 
4.1765331395680323e-13 
1.2989115158172918e-12 
0.0001879362804094892 
0.0004003765043410682 
3.1462136694780024e-13 
1.7371231510768818e-14 
2.3950192633415108e-11 
1.3246200480378284e-13 
8.034889432021266e-13 
2.4563987850040773e-14 
1.9418245974142684e-14 
8.14999710021639e-15 
4.125242964712273e-12 
1.6319998923727558e-12 
3.3126325358636044e-13 
5.634863795009251e-14 
9.477632000245501e-15 
3.3859631972144844e-13 
5.269982549232427e-13 
3.33556143385089e-14 
2.203056476814081e-13 
1.0189231050930286e-12 
2.415860043272508e-13 
1.9877416510698912e-13 
1.3994114559493367e-13 
1.2494531549482286e-13 
2.7017747655041775e-13 
1.559332910817759e-12 
2.475923147676767e-14 
7.538117684796291e-13 
9.1600493763745e-8 
1.2101144035618865e-8 
7.080604027331399e-8 
2.0570603690397368e-10 
6.205388754577094e-8 
3.477931705097693e-10 
9.781555999280405e-11 
6.90842550643762e-9 
3.766388629963924e-8 
9.020586570164061e-8 
1.8031654954960706e-13 
1.4907376778674413e-13 
4.782037600407595e-13 
1.444878654877528e-13 
1.9855936737186248e-13 
3.895796100306789e-8 
3.8964696736024254e-13 
1.0928270842571302e-13 
6.324609905387389e-8 
4.446001789001861e-12 
1.0810734445979403e-13 
9.926067277370553e-15 
3.868251773636538e-13 
2.611701185711356e-15 
1.0982422680412596e-12 
1.218417600736028e-15 
6.013191705389967e-15 
1.2753188807550807e-15 
2.909974842536532e-14 
3.909616147898566e-13 
3.435135897373423e-14 
1.423696966347341e-15 
1.335380458264596e-13 
2.2199875613302039e-13 
5.471270041114678e-14 
5.919152491134405e-13 
4.1890229418265466e-13 
1.3320696597005135e-15 
1.1603723661166633e-11 
1.504463687044705e-15 
1.255865798516995e-15 
3.0291787583246978e-6 
3.2408756940171825e-13 
4.8614604072400807e-14 
1.26730501096085e-13 
1.1655778507719677e-13 
1.0524539695565552e-10 
1.5678022328692754e-12 
2.720184868233513e-13 
7.032203736302081e-13 
1.5760198456064979e-9 
6.909223363463096e-13 
3.3682555101299146e-13 
4.702710670605986e-10 
6.747578024912173e-10 
9.462027577867684e-13 
0.0005053336762985894 
8.599036260785569e-9 
9.46855092718755e-10 
1.2910986675279471e-12 
9.797927893381651e-14 
3.081304250347155e-5 
2.2870683608141635e-9 
1.0322910504784312e-13 
6.011193138345707e-10 
1.3632217684506491e-9 
4.006124193951131e-14 
1.091330595118479e-9 
7.810736462120523e-11 
2.1690041744309445e-13 
1.4477090877535229e-13 
4.271917501792966e-10 
1.7704376827490388e-10 
9.571381236661471e-14 
1.2632059353397495e-13 
5.531432426115201e-10 
1.2088981256711343e-13 
3.4883699921986334e-14 
1.497589970254448e-13 
1.4210661665635142e-6 
1.7372764075245393e-10 
8.091487900369355e-13 
1.0355365803532835e-10 
3.316620467583052e-8 
1.4901658870339063e-15 
3.8375153597812986e-6 
3.46939682401559e-13 
2.9741262430784016e-13 
7.964828728222065e-15 
3.6055643719454e-13 
8.752432645077369e-11 
2.5389469667306023e-10 
5.11519592437858e-6 
4.059765387829178e-14 
6.471583091433942e-14 
6.177216540409106e-14 
1.6871393801621578e-13 
4.528060948332819e-16 
0.00023308628478493698 
0.00030338028016382314 
1.2901222338573186e-14 
1.0031446397483702e-8 
2.5074904807984023e-13 
8.119994375311136e-6 
0.00088350477511341 
5.332921561019031e-5 
5.951488461027722e-6 
0.00013884389057035548 
0.00042784858581168696 
7.594184101584243e-14 
5.695509643098674e-13 
4.0443133600521506e-14 
8.866030822250913e-14 
8.27980340569637e-5 
0.010527958772800076 
1.156315554840465e-13 
0.003825492506044717 
7.871175290565772e-14 
8.048817464716428e-15 
0.0019718041577837884 
1.8201382940971764e-14 
2.3277736459998407e-13 
0.0016433598806489301 
2.8704038291120372e-8 
7.468950265365296e-14 
7.50751284359566e-13 
5.3652573425275616e-14 
0.0005536195907519754 
1.1401643146173475e-14 
4.653923067079271e-14 
8.070672820138466e-16 
3.95289700113261e-14 
6.9609955074833e-14 
3.232770589914847e-14 
0.003311094841312047 
0.052006422811537396 
2.320497933016234e-12 
3.8249528393843266e-14 
6.074552354150845e-14 
6.806016889981336e-12 
8.437957870952648e-14 
1.752791913486006e-14 
8.319652652336581e-13 
1.006506888330747e-13 
8.466510786072418e-13 
1.6356944532619654e-14 
2.3204230580918877e-13 
5.055473749182999e-14 
1.0973055564650786e-12 
3.1519417761459526e-13 
2.1928165777300775e-13 
1.6111877233432146e-14 
2.8418456404063683e-13 
1.348314942034689e-14 
4.3138259216027736e-13 
2.3265423541140015e-13 
9.690376548421274e-15 
1.2087952266517406e-13 
4.0997800016823817e-16 
4.250145893218841e-17 
4.3632566979072614e-13 
6.184748455995461e-13 
1.275466887845746e-12 
1.9107150626484093e-16 
3.307558751179743e-13 
4.5787008330066113e-14 
1.041119269882997e-8 
6.953342886827501e-7 
6.356353999366286e-14 
1.640266768639429e-6 
2.4606474163107318e-15 
3.82420508890764e-14 
1.870395884026304e-14 
2.530711369429022e-14 
5.962249928647551e-7 
5.907344323639735e-7 
4.2336373205322605e-14 
5.894241931881247e-14 
1.8207677496510777e-14 
2.9475011302735426e-14 
3.2260279128567235e-7 
3.7523830599414735e-15 
1.613578775585314e-6 
3.6562341493541804e-6 
2.8776196157778225e-15 
5.142776892808942e-13 
4.082712326195986e-15 
5.401603940332618e-16 
8.412864915014584e-6 
1.1375726682935413e-6 
3.485354909088844e-14 
1.9610076048093552e-14 
2.3648979851961785e-14 
4.334997456039596e-14 
4.934259816785183e-6 
7.983064170876585e-15 
3.5099872370536897e-9 
3.166187703809515e-14 
2.1963521016789543e-14 
2.9873625092032184e-9 
6.802147214886681e-9 
1.0010906790782237e-13 
6.072279194175561e-15 
1.996518476781402e-9 
1.042191904955945e-8 
5.047476188386687e-6 
5.769126585826949e-13 
1.3845766113287708e-13 
1.1273144229899607e-5 
2.1772041699322346e-14 
4.9385745453365576e-14 
1.4641005405419626e-16 
8.563611177239786e-6 
7.718094049222318e-14 
4.302837297289095e-14 
4.1017443523803406e-14 
6.447469145679037e-15 
2.4203301109608688e-14 
1.0973863959279652e-5 
2.0452040963169112e-5 
6.2083504392923515e-15 
2.4486791662685747e-15 
1.0838308707831176e-14 
6.979141521965383e-14 
4.5101384912857664e-5 
1.2566971672672735e-8 
5.85016290277592e-15 
1.9216113259617408e-15 
4.572138487757689e-6 
2.074515052243855e-14 
8.917909696011907e-6 
5.620371157422867e-6 
7.158445944888063e-13 
1.3036010225455362e-12 
2.7531456419525175e-14 
5.121545849838696e-14 
1.7337485667931555e-14 
5.5314739563073595e-15 
1.8930331384797836e-12 
4.6302566376807594e-15 
6.864411849659459e-14 
2.044207511055965e-6 
3.269370230822857e-14 
2.530595389197775e-7 
1.8978843511642815e-14 
1.9034873332064777e-14 
1.8908253006060703e-6 
6.97098482957576e-7 
7.273111285186742e-15 
2.224287473529257e-14 
1.619538885663097e-6 
5.527338293144221e-16 
1.7583104627591486e-6 
8.09342429776197e-7 
5.852031483413074e-15 
1.215449824222456e-14 
3.915430927726449e-7 
5.802024954125958e-15 
4.255278421307867e-14 
1.9047710369878595e-15 
4.571383588000952e-15 
2.898627981450751e-13 
1.1408259084478444e-6 
2.7490232138370088e-14 
3.950834352660775e-15 
9.01116277683814e-17 
2.6599312535971892e-14 
4.8004729377425596e-17 
2.1940052667549105e-14 
8.801092858323942e-15 
8.312879748840532e-14 
3.0408071542345587e-16 
8.410969491004834e-10 
1.9767393139566857e-9 
1.3027748059950402e-13 
1.2820737536046189e-9 
1.3577481868158781e-14 
9.80261188741475e-16 
1.5986359045485581e-9 
1.442434225589486e-8 
8.00653536800885e-9 
1.4607896348250662e-14 
1.7909166250502853e-15 
8.151688004627031e-15 
2.648691427244224e-15 
3.011848925289077e-15 
4.0133107123477896e-14 
6.752793445933532e-15 
1.4074974973245787e-8 
2.7788943836279923e-15 
9.610626523534063e-14 
6.208519926167896e-15 
2.689293810833202e-12 
2.0691181177292784e-15 
6.493222626192959e-15 
1.8905818617870343e-8 
7.287886230061844e-15 
6.769050995939231e-15 
4.069116555451679e-8 
1.498720906724087e-14 
1.0363969636373067e-8 
6.054804455775497e-15 
6.245785384138042e-14 
1.240984642558567e-15 
1.8001638120944064e-8 
9.578302209588676e-9 
3.1874212714703855e-8 
1.0401427229855863e-14 
2.062382087743879e-14 
4.241493451093638e-14 
3.133895742755304e-14 
5.646622833114159e-15 
6.022311735414734e-8 
1.0008758884907894e-14 
1.4978857815243056e-7 
8.654049252183978e-8 
6.500566677721787e-15 
1.4913035652879914e-8 
6.298470909096465e-15 
6.766461242819595e-15 
9.893913012864819e-8 
1.5083195077144025e-7 
2.248164285620417e-6 
7.843173006362765e-7 
6.485762029776926e-15 
5.372127394319093e-15 
2.2513133417639273e-7 
2.071576598580345e-15 
5.36060742931619e-7 
2.878628225239994e-7 
1.3663417274750499e-14 
6.999319468250613e-7 
6.909240248921607e-7 
3.368870536262269e-15 
9.377308976264214e-7 
3.090895434215136e-16 
1.1147440945890712e-8 
5.293778399141697e-15 
8.471824634153119e-10 
3.7642361990503275e-8 
2.144131002195976e-13 
8.336401389238976e-15 
4.4606652284953795e-7 
2.960099697700201e-16 
6.651058138432244e-15 
2.8162505460722196e-15 
1.9325819133125054e-16 
1.748932890777764e-15 
1.4558440042372634e-16 
1.1645080004631085e-16 
6.695160320857119e-5 
1.0901592999051065e-14 
5.511567972752517e-17 
3.162012346091719e-15 
5.52561598760071e-14 
1.016252215106059e-14 
6.475289100852052e-14 
2.1719136227786903e-15 
2.61046166172837e-15 
2.152232551939218e-14 
4.06986074758976e-5 
0.001126875807570216 
0.00026085702718274317 
9.6069613460168e-17 
1.5288857040043587e-16 
4.320042426023163e-15 
3.95877614906911e-15 
0.0004564746754307434 
0.0010128138193265426 
1.0805434125725626e-15 
5.993984807269423e-16 
0.00044874301312661333 
8.027472048467133e-8 
1.6106637387254343e-7 
8.5226360446944e-18 
7.075531630223731e-7 
1.4311492483275078e-8 
7.087146070269485e-7 
1.1806814232130475e-14 
1.3689430124628071e-15 
1.967342836264815e-8 
0.0012139337938821928 
0.000997458630338012 
1.0773386473388608e-14 
2.2478963519766132e-15 
0.0004782581007141909 
0.0006176372082703317 
0.001865590453304358 
5.582257435806633e-16 
1.786269162858781e-14 
4.289857795206028e-16 
1.455724031379007e-15 
1.679103457143358e-15 
2.4797347523172265e-9 
0.00944266425718299 
0.0004591644843208697 
1.0761025425397742e-15 
1.9873297388000495e-16 
4.0335481869500734e-15 
0.0035107746312229263 
2.0686584942248316e-15 
2.0772051032866124e-15 
4.527524996036057e-15 
0.0013151654240168222 
2.3002228256490527e-15 
2.480331388356119e-15 
0.0027438149633290613 
1.5861373403936602e-15 
1.3490744939088159e-15 
0.0015535685964497765 
1.6164799669030788e-15 
0.0016347344136333924 
1.258237840573422e-15 
1.0484733018688357e-9 
8.797397183971572e-16 
3.5576254889437225e-10 
7.589294832011352e-16 
1.9209740967721865e-9 
8.040091873874119e-16 
5.014749433357066e-16 
7.509866758366182e-16 
2.3512727353961457e-9 
5.44565453839715e-10 
1.5646624192033935e-15 
9.191626006486869e-16 
3.1673195805905726e-16 
3.2881824602255984e-10 
6.530572644136055e-16 
3.1440549660874647e-16 
2.0010757355283244e-15 
6.717943012718102e-16 
7.063602663001307e-16 
4.149078689816963e-6 
3.149637733404392e-6 
1.8836346455305097e-16 
6.261913798414061e-6 
1.67710545263113e-16 
3.425675976542703e-16 
3.750915358183342e-16 
5.477569955396085e-10 
3.37920750815049e-16 
1.8459501017798714e-6 
3.5011793123542844e-16 
1.2003237112797314e-14 
0.3657164627088481 
2.758662177213309e-6 
1.676224800769673e-6 
6.267156676775297e-10 
0.002312536103860582 
9.11060344559026e-16 
5.44229084241497e-16 
1.0511525485718883e-15 
2.3550223065449903e-16 
1.1081031956467612e-16 
0.0006780957213948597 
2.935942855981972e-15 
1.8964289951434888e-16 
0.0023781126871271576 
7.928693949419137e-15 
0.0005541235287752304 
1.4559408615225445e-15 
4.194987310707748e-14 
0.0004979881092886557 
7.174901042855699e-10 
0.0007978414428011219 
0.0029215564141330565 
0.0012171859463200286 
3.6046053739879046e-12 
7.134313583800446e-12 
4.157971190208696e-11 
1.1743998931433542e-8 
1.7068199857768357e-16 
1.9075885538569495e-16 
4.5062029491301484e-10 
1.9155473139966578e-16 
3.338545000373409e-16 
1.1806259736745125e-8 
8.360933947916454e-11 
1.9245843185344757e-16 
4.498553370341927e-10 
1.9150165703354608e-10 
3.901783795235239e-9 
2.97012438260646e-16 
7.874454689859522e-16 
3.852738392652425e-7 
2.5773071200595205e-15 
7.778225469580834e-6 
5.649082480284931e-9 
5.809735707040126e-9 
1.7986046467012094e-6 
4.850267999166154e-15 
1.754524591004082e-6 
3.9306363657652733e-16 
1.7485150992748167e-5 
2.2473928072053357e-6 
5.868510029927391e-16 
3.3764542061647933e-16 
4.318848804078321e-16 
1.890971589650806e-7 
2.2166438554815073e-16 
3.241486041885196e-16 
7.212055806456137e-16 
1.1620118125007106e-15 
2.862592394833319e-16 
1.8507409831720793e-16 
2.6897835799067695e-15 
4.0465825566050364e-16 
1.0650560483627773e-15 
5.425412726486041e-15 
6.515166268587667e-16 
1.1125707497267432e-16 
1.5114782069587293e-14 
9.734018080068307e-17 
4.10758961042121e-15 
1.901111226830704e-14 
1.4490572030826677e-15 
2.3233819664188696e-7 
2.3123370147181726e-14 
1.2996324531004074e-14 
4.9694517548847534e-14 
4.8949865206437876e-14 
6.098290549892666e-15 
2.675837112035492e-9 
2.985532612934432e-16 
1.1232969884196297e-14 
2.3887417590793208e-14 
8.232140180108938e-17 
3.097560326381761e-14 
4.8986280575154156e-5 
7.431666328176561e-5 
0.00014993217773908772 
4.996219142896601e-16 
2.142214940987364e-17 
0.00017734620865094217 
8.663363417255768e-5 
1.0889170433441341e-15 
9.854922527367486e-5 
0.10239203207330369 
2.220798468415605e-16 
0.22590755452097686 
4.498547345602446e-16 
3.270785588650846e-17 
1.2975243197858036e-15 
1.8915769886375817e-9 
1.115059378738063e-16 
1.119616159469071e-16 
0.022117111266563898 
1.5142990254964291e-16 
0.014000236095299615 
5.499369696907039e-17 
4.0042737544680447e-17 
0.001742632868077365 
2.6922474184200357e-16 
5.746835797931136e-9 
0.017927650521136346 
7.44626561467134e-17 
2.0776025936174388e-16 
1.3955238998788525e-16 
0.019922386956184823 
0.044118088292455004 
2.799033364072584e-16 
1.5892589225844665e-16 
4.5080542198934884e-7 
0.22473608345031826 
0.13530527523218305 
9.392834460454935e-17 
6.813594572956474e-17 
2.44374649812422e-16 
1.0444587582847583e-15 
5.854017303420829e-17 
0.5594354856210394 
5.403746725502117e-9 
4.1725050113265995e-15 
3.008735977307595e-7 
1.8050882891288694e-15 
1.9237326598093794e-15 
9.811495092710127e-16 
7.597954089599826e-15 
2.972939528756128e-9 
3.165293610867562e-14 
2.6429379433008463e-14 
4.2176788094703554e-14 
2.6024459766952447e-14 
3.735236943951769e-14 
2.2864203104984213 
2.15017757313154e-14 
1.9322653420437187e-16 
1.0804206193227846e-11 
2.767393595393707e-7 
3.2583461463068647e-12 
1.8646525764776552e-11 
0.5431612727100873 
4.1159659975882173e-11 
8.13650992287922e-12 
2.8464580210290573e-9 
7.636270265551882e-7 
2.1913072755050836e-11 
1.1117065251569545e-11 
1.373254446607272e-11 
1.79447912736505e-10 
8.019181428681883e-9 
1.3222116264022538e-10 
2.282229335938951e-11 
1.1229420236077544e-9 
3.348945271513618e-13 
1.4306720879711744e-16 
8.423054389999518e-16 
5.935112406775251e-12 
1.0962110563667951e-15 
3.1204042009291077e-16 
2.4446068758269102e-12 
2.2192448403241564e-11 
4.084468198843594e-12 
0.24639804486792638 
0.08970609912490311 
4.7931756446098996e-12 
0.5981697633065081 
1.4567166023015722e-6 
8.866886134983707e-16 
2.1642492675574994e-15 
1.1544658373062736e-16 
3.2816057203500534e-16 
1.6511720370458573e-11 
1.8406468163189861e-10 
6.278306370749087e-12 
1.7439146113304155e-10 
4.0039543607907074e-14 
4.134024616827849e-12 
2.62012820804703e-8 
3.894350219532908e-12 
1.174629755145206e-9 
1.991954361466844e-9 
1.2319984113159803e-9 
2.6827091919782097e-6 
5.971706626298002e-12 
1.3779795992851438 
2.017867726053508 
1.4588993189960987e-12 
0.9889114930042733 
1.2294795452976252e-6 
8.906280930433012e-12 
2.2251763793649153 
0.16871753993314997 
2.45406361384947e-8 
1.0729631767417148e-8 
2.0890985558463377e-8 
7.722715757314557e-8 
1.0619376263662566e-16 
5.337341746861896e-17 
3.2245071222774014e-8 
5.6399498705380287e-8 
8.457364704762245e-10 
3.2892239986458536e-9 
4.682963409856839e-8 
8.436393834146864e-8 
1.5049393675856053e-8 
0.35354937771297307 
1.757645717684161e-8 
5.778502652767055e-8 
0.26562534060397286 
0.002001147163554765 
0.5105722493463765 
1.2693567302385906e-7 
0.1884167694621672 
3.328697692637513e-8 
8.199832147234672e-8 
0.23864142468775387 
5.064790132950211e-8 
4.3119694758680886e-8 
4.350858068304444e-5 
6.615521247122236e-6 
0.0014859345557153788 
7.932306694240738e-6 
1.451455005785462e-5 
0.0006665070678029277 
0.00043830462132115846 
0.000495403663224118 
5.181439583678417e-6 
7.78778361195263e-6 
1.1799595290550207e-6 
1.378648925158683e-5 
3.596365467326887e-15 
0.0009644264173426411 
9.148038574455776e-15 
0.03890536399679351 
0.013598717882380195 
0.03777795122665496 
9.096475911826491e-15 
1.0457962091354958e-14 
0.015631818413840655 
8.198401567502758e-15 
6.145413395814476e-15 
2.435691333092699 
2.242584820975265e-14 
0.017930946252143542 
1.0704061320362753e-14 
0.005711057652703446 
0.003960750491800157 
1.068052802991357e-14 
5.428386017487864e-13 
0.001380162726386803 
2.398919887758978e-15 
1.6792002464342072e-12 
0.0035602934227312788 
0.0008977344062536615 
0.0013326860523299264 
0.000709748939748671 
2.0405073501861034e-12 
5.305830310231543e-13 
1.7942581702324415e-13 
0.0010987886828057387 
0.005136841146005178 
0.00494784488073459 
6.757255558704719e-13 
4.0707658638544386e-13 
8.027450978661858e-13 
3.1649412166494255e-12 
1.1294460633797645e-11 
2.334986795527752e-16 
1.0166359430704819e-16 
1.2577753264024985e-16 
0.003917543755403589 
6.839618311355805e-12 
0.00023938755802016743 
0.0012940130024191587 
2.2887240942191803e-11 
0.004168982515211303 
2.1423734977046864e-12 
1.7484430237762504e-12 
3.2355683143868e-12 
0.003675964545782843 
3.160287438440951e-12 
1.4447848921036816e-10 
2.6396971929727162e-14 
0.003300608710622367 
6.587664710588529e-7 
0.0010175698379082112 
0.004200263468984994 
5.999491995145655e-10 
6.752223602533193e-11 
1.2058125364477775e-10 
1.3451417712280831e-11 
2.2577376409053222e-9 
6.026733902163444e-10 
6.72946539442032e-10 
2.051493312676931e-10 
1.259652707278938e-10 
0.1300065053187271 
2.7649730106025694e-10 
2.6216042907661005e-11 
1.3410675674816475e-9 
3.978752316995585e-9 
2.458660233560617e-10 
9.959989788614356e-10 
0.0008693473448192852 
5.677787925872641e-6 
6.843314310444964e-6 
0.00022823262189647389 
8.07486761199176e-5 
5.6528010534797084e-6 
1.176688917820352e-13 
9.544053375195748e-6 
0.00011004268838563532 
0.00030484765429101147 
0.00011063040414644265 
0.00016309224903309513 
1.039820203756361e-5 
0.00014384592768729973 
3.0513448675638947e-5 
2.585639229348155e-5 
0.003164885397292381 
0.04114013882032371 
0.0030906208502390242 
0.003989776165287365 
7.376096871420517e-15 
3.0062385177623018e-15 
2.8894089748682085e-15 
3.5180805894033195e-15 
1.6422075379203003e-15 
9.148851457549185e-15 
5.687694026275692e-8 
6.709427928417626e-9 
1.639499174620983e-5 
5.825837173796948e-5 
3.560121379907114e-5 
1.2508829054280114e-7 
0.00019406187666317438 
1.1669057204898385e-8 
1.1602064388594456e-8 
9.97696498601844e-9 
2.3890226305211366e-5 
6.938572185620443e-6 
2.848218397996477e-5 
1.067363112664662e-5 
5.866277591701575e-6 
1.581906169770503e-8 
5.775061203422011e-8 
1.3078571076148846e-5 
2.4403476448717123e-6 
2.7312601751393975e-5 
3.9059614168749915e-5 
3.8438246412014883e-13 
8.459290215378874e-15 
2.071084129837778e-5 
1.8679756439649706e-6 
7.89734644059918e-6 
2.94787267444322e-11 
3.751882795163557e-5 
4.228864234116784e-12 
1.8891399077748767e-12 
1.3081596219843401e-11 
6.259910770914768e-11 
1.2305220570010827e-6 
4.1679377023761455e-9 
1.8982987995750216e-12 
4.945145851646178e-9 
7.3176830513803945e-9 
2.2749511293660855e-8 
4.274226143402727e-12 
3.47709190869132e-12 
3.879505282530073e-12 
6.531594739379637e-13 
2.5676107461647232e-8 
0.0016622839330577858 
0.003011987308378804 
1.5513347441608508e-6 
0.00506961369726254 
1.1748854719069278e-6 
8.991847198009379e-7 
5.169654429062179e-7 
7.945694676659968e-7 
0.0020264638655490036 
0.008090496501040455 
0.002173537338087288 
3.102988211259191e-7 
0.007226223453393086 
3.792381814230786e-7 
7.976351479238972e-8 
3.0833605887092363e-7 
3.1438903631608103e-7 
0.0042965371166758205 
0.0047730674691845365 
0.0054112113226732535 
4.1349000121028343e-7 
0.011688008380726781 
4.464622842398926e-7 
0.005472274490552131 
0.003024807928144821 
0.002823017524091697 
9.755789209957861e-8 
0.0028391034985638178 
4.749231266019293e-8 
0.0030988369544958454 
2.879480254894256e-7 
2.935005877496007e-7 
0.9132319987948421 
5.711595653094422e-7 
0.035390447235155525 
2.1835417526060585e-15 
0.0026503895947861383 
5.280093300934131e-16 
0.00029875713939877207 
0.0024940517302700226 
1.9317580924842743 
8.625995072904898e-7 
7.07990287110637e-8 
7.819901073341299e-8 
1.2258130601782519e-6 
8.418144327889017e-7 
1.0159056968965351e-7 
3.103202224597314e-15 
5.245086698483141e-7 
5.4730116214353623e-8 
4.947355380563393e-7 
0.000968561688196707 
1.1138677854545575e-5 
4.2419027256278975e-5 
0.00041971244855505707 
3.356749082752616e-6 
0.0001905552157625858 
5.943183676960194e-6 
0.0007833657016231676 
7.038755520461512e-6 
0.0003244250227771406 
1.354505377425793e-5 
7.076568037514366e-16 
0.00020392097880318692 
0.00027054283711692116 
0.00042097752194373265 
4.6219487641455164e-15 
0.0007331422893677159 
2.3825295483664278e-15 
1.1016924532790744e-15 
2.0182489206532916e-13 
1.175277010622524e-15 
1.1347532900393598e-13 
3.972146119599571e-10 
1.9088777700838805e-13 
1.4566766344071233e-13 
1.5240321232829204e-10 
3.1712745151642134e-10 
4.181778992234607e-10 
2.728760594115946e-10 
0.5171342120850096 
4.2598178790619134e-10 
0.281244112428103 
5.8503031902698675e-5 
6.254531884388732e-5 
0.0002462496625352295 
9.697645233037866e-9 
6.253184200225269e-9 
3.781251952947141e-9 
7.00548993081493e-9 
0.0001241134312156926 
5.6516490666425126e-5 
4.3479274617013287e-16 
0.0002831051196981692 
4.994407855512168e-12 
9.671848488005973e-13 
6.382637938304416e-12 
4.389044981478485e-12 
1.21280722570212e-8 
7.871070165603602e-9 
2.5761498996838473e-11 
3.2645676087298848e-12 
1.7604651168549547e-12 
5.204275976836942e-11 
9.611742217559707e-11 
3.711622597066318e-11 
6.127458114103302e-11 
6.80750697450146e-11 
1.2137333216351401e-10 
0.00018902670950604272 
0.0001680309946736437 
2.27056394097676e-16 
5.18938560010667e-16 
3.0495288321948525e-16 
2.179660180943618e-16 
1.947486572262895e-9 
1.5571268195031968e-16 
1.0778479907403715e-15 
4.16123566203194e-9 
0.00017981745746344525 
0.00017723183539933342 
0.00015540828286009844 
2.7782562343240957e-10 
4.595111343341651e-5 
8.606592354417231e-5 
2.108401784883753e-9 
1.106640431136897e-5 
5.146673860965119e-6 
1.2280454874781808e-9 
3.231878792371733e-10 
1.460528193049694e-10 
1.3317537942404916e-9 
1.2503777600853001e-11 
0.6623760449357323 
4.565525934587287e-16 
5.273831699634447e-10 
4.268270739911863e-16 
9.306091025650337e-10 
5.3832861341033015e-11 
1.1496966759398351e-11 
1.7333868838196442e-11 
1.833671043689542e-8 
4.8561336986737197e-8 
1.8626915791043882e-17 
2.6676018935288754e-8 
1.1932780823227862e-8 
3.347967141383691e-14 
6.612288462716149e-15 
9.597885858193166e-9 
7.651672689669472e-9 
8.600850886388744e-9 
2.0434814374815214e-14 
1.9344935285291265e-5 
1.2633428501323314e-14 
8.348162233651604e-5 
8.661266851996835e-6 
4.555088192494661e-5 
4.5078379815036726e-5 
8.664171399590878e-5 
4.613492260167041e-5 
3.119365976075619e-5 
2.7989960810896334e-14 
3.007492407522353e-14 
5.4740239940483206e-14 
1.6582269308609617e-14 
1.887136700459433e-14 
4.265936901389062e-15 
3.294454231408947e-14 
8.308546045250197e-9 
4.648881530843268e-9 
1.3092936330482131e-11 
8.889103520276861e-17 
2.68259545827318e-9 
3.78534867599447e-9 
3.084813801560543e-9 
8.08344714876566e-12 
2.852556455509453e-9 
6.955618722241903e-12 
8.8866265449236e-9 
1.5905485481300236e-11 
4.050823305028524e-12 
8.51917445101523e-15 
8.38824046598023e-15 
1.1174615894542646e-14 
5.949437593894107e-12 
2.9976310043198335e-15 
1.5071896883672635e-14 
5.5768697829361556e-15 
1.3305490424526238e-14 
8.00802153884376e-15 
1.4172568959450267e-14 
4.239745594615912e-15 
3.3220624049359332e-15 
1.183303031478713e-13 
2.2321500081977394e-15 
2.5985822056709813e-5 
4.635158327151703e-6 
7.85539994014569e-15 
1.5275121838472303e-5 
9.977963374480066e-6 
2.7531848362495854e-14 
4.1438564501283744e-16 
3.772763604842271e-14 
1.414103736597491e-14 
5.4784351503738674e-14 
1.699348669946875e-5 
1.0223661172870153e-5 
9.705503208757408e-6 
1.923736739166474e-5 
6.168536092844232e-5 
4.603068883272221e-6 
3.572921785270311e-14 
5.366052782937721e-15 
2.618431853798991e-14 
0.00673807258968218 
1.5997672608482612e-5 
0.008308199428022254 
2.5905330050451006e-16 
2.657518341149617e-6 
0.00018196609568094056 
0.0011173157320191185 
0.0016585592297571525 
2.502185659616804e-16 
0.005232214829747609 
0.0015399382941102017 
3.023785452097232e-16 
0.0024809333995577444 
2.3575278707804193e-6 
3.597518856959282e-6 
5.798547585546266e-6 
3.5603920083752738e-6 
7.098833625185929e-5 
2.142616513852116e-6 
4.421717501682147e-17 
6.576810100898482e-6 
0.2620943151868642 
1.1149442821153887e-5 
2.8298983561162853e-16 
0.0005182037343751438 
0.00030887008934363784 
0.000494698184707269 
0.0011048285629149592 
8.593901203665268e-6 
0.0004047248118896239 
0.0033928114173983033 
2.2115300300784556e-9 
9.687667800506809e-5 
3.688516012399233e-16 
7.41176027918287e-15 
0.00032744318860380186 
3.353086702928539e-9 
3.9203660684590115e-10 
3.776101976659234e-9 
7.058414974331086e-11 
2.968479111108644e-9 
2.7507292677466376e-16 
4.689250374547628e-9 
9.043616261208545e-11 
1.868141382454838e-9 
1.8235156345555612e-7 
5.2997762651255315e-11 
2.648980386434524e-12 
2.596931583376434e-7 
6.807489034764991e-11 
1.4671176361175002e-7 
2.194217800200708e-7 
9.701321243363363e-8 
3.625249982191348e-8 
1.0643281054213735e-7 
4.1840156981099407e-16 
3.32553765649823e-11 
8.442103091184436e-11 
2.139725073424131 
6.213646768486905e-8 
4.0530912242515485e-11 
1.0952388879860844e-7 
1.010642487110512e-16 
2.0430880386846172e-15 
1.255554258875911e-16 
3.1932803335352376e-7 
1.870870303734574e-7 
3.9633320867408836e-15 
3.227837022278769e-15 
8.471295527287048e-12 
6.186005409222531e-15 
1.5955458662744185e-14 
8.251451945354605e-15 
2.607009152714065e-15 
3.3179501011384614e-15 
0.0011048196283253123 
3.4019472053445324e-6 
1.926038618854382e-6 
0.007652638294621475 
3.6293975372829996e-15 
0.0034016870832488015 
7.673735999888086e-9 
1.707057273694631e-10 
1.0827105417223829e-12 
4.369761090940043e-9 
2.479474325993553e-9 
0.0012278111686804516 
0.0009960915049140485 
3.70166284123986e-9 
0.00292233044959907 
4.314761191517973e-9 
0.0005587430091520737 
1.1361971053527987e-8 
4.870518330930789e-10 
1.071015243468823e-9 
3.3281697451305784e-9 
2.9756437173261315e-9 
3.463902332485178e-9 
7.111133292554841e-9 
1.1342202818749017e-9 
9.458337325224228e-14 
7.251429613577645e-14 
0.007007675025681552 
3.1977086005415637e-10 
1.265507682229719e-13 
3.213594354361347e-14 
4.768062890693628e-14 
2.1266534262843266e-13 
2.3581134648413056e-13 
1.712033514786315e-15 
2.124665280911964e-15 
1.073627616574167e-15 
1.2270839072744147e-15 
0.007017610655095992 
7.675975315778032e-16 
0.003121731785535401 
4.76753698577942e-16 
2.913722412675613e-14 
1.4201816380216564e-14 
7.666343359452743e-15 
2.902858498919405e-14 
1.6425932759546099e-9 
1.6029643308708067e-12 
5.003513791817182e-14 
2.4101074354067503e-14 
2.8924467766866727e-14 
3.5568530710882566e-14 
7.285889479927056e-14 
1.089715304408117e-13 
1.5841732484067675e-13 
5.786296198406457e-14 
4.007447004402982e-13 
0.30703822312371204 
0.0009642045191794288 
8.760064378325747e-15 
0.0014345644107614625 
0.23279433054875898 
1.4323652309451536e-14 
1.4109569814498416e-14 
2.5712064554922758e-14 
1.4045856106355002e-9 
5.79587213943825e-15 
8.995298168817348e-15 
1.2073940574515304e-9 
3.0975310794929085e-14 
6.43025164939117e-7 
2.4098981868385883e-16 
4.1475685972407074e-8 
5.822986586516871e-7 
2.0404543505345311e-7 
8.458447462074696e-7 
5.5520741654473915e-8 
2.6422484132539828e-15 
1.780051487907261e-8 
1.3084542805076594e-7 
1.121497685100241e-7 
2.4870200918295364e-15 
0.054406820498978894 
1.8129917289335533e-7 
5.486671118274446e-13 
3.305800616652156e-12 
1.993126511953041e-11 
1.659642463329155e-11 
4.015922561048224e-12 
9.79275249935545e-12 
2.7690578209632015e-11 
2.559832422390575e-12 
1.0050773698818873e-16 
2.126615244766273e-11 
1.1402093241071022e-11 
1.0072475750957726e-16 
8.895368901380388e-16 
9.446465001386772e-17 
1.447942369522846e-11 
0.0002694766904640468 
2.220047303594245e-15 
0.0007003871123370867 
2.1828105793671988e-5 
1.6132658736171425e-14 
0.00018396906668923896 
1.689301139962419e-13 
4.506524498363846e-6 
3.4559756243722133e-15 
2.7356127931578427e-15 
3.972224599782252e-5 
0.9252998780029644 
0.00012631234602336372 
2.907851203009971e-15 
1.3684190068986608e-11 
0.016637066817617282 
4.563275713611615e-11 
1.0264357333540012e-11 
2.191789494331936e-11 
3.201147596717801e-11 
3.039411561687613e-15 
0.0010595982353051726 
2.0321182186940726e-11 
7.308568956560982e-11 
5.2763862961092126e-11 
0.00040357512631674405 
0.0003528811594287955 
2.1449447130064444e-5 
1.1704864586060504e-5 
7.23574649297273e-6 
2.8681113763850972e-5 
1.848626461934553e-5 
0.00010215151299372377 
2.211431847040369e-5 
0.00010795269073031354 
1.917913602725324e-5 
6.203818677505092e-6 
7.811430573455556e-7 
2.9719674792755994e-7 
6.0338605103408e-8 
9.727119100968007e-8 
1.9191908116083958e-7 
0.0031993383313710408 
0.002345676526783915 
0.9994411793689 
0.0008892357297675503 
0.7609058660628334 
2.4853263080226173 
0.0017460662371684222 
0.011137222441541568 
9.599701069362203e-13 
3.4037578965274415e-17 
5.161716153697258e-17 
6.598250963275642e-17 
9.589756246450062e-17 
1.2767891075272726e-16 
3.542963823193955e-16 
1.7459466460679023e-16 
0.0995374471318975 
0.3185205463074626 
0.045985022562701545 
0.8465805421068352 
0.0179908926668054 
0.7274985420381624 
0.015041039424471875 
6.972361010951964e-7 
1.2347726322133616 
1.233334444163207 
3.208990077571403e-5 
0.0018650188947930066 
0.00019549543384926124 
0.002449217973674654 
2.7250646360942293e-16 
1.8400792253113038e-16 
1.8400792253113029e-16 
7.112275091874088e-16 
1.7087359618633601e-16 
1.2801199821847266e-16 
2.850542695500355e-16 
1.0935722284851361 
0.31984446741943334 
0.8097347242081678 
0.0016275331442425168 
0.007702203315309643 
0.10172976142692534 
0.001127271274242505 
0.0005487116208290139 
0.00030264893122274126 
0.00013518445948588098 
5.497187606431562e-5 
8.282510042037013e-6 
0.004226422124134459 
0.00022017373708779693 
0.00042384736702167687 
0.0001477047973425209 
0.00029963305333660526 
0.00010416119482508667 
0.0005016651757964746 
2.3406280688496455e-6 
1.3528165384890553e-6 
2.0628530653884265e-6 
3.045568926050082e-16 
2.3443006193526235e-16 
1.0189793115226503e-16 
1.859300713106245e-16 
3.0234287080832326e-16 
6.831827475032162e-12 
4.304953040422128e-12 
7.382264640546003e-13 
3.856882232106753e-6 
1.0399597127332478e-6 
0.0002822646279314754 
7.12287500078328e-6 
6.0926388630236105e-5 
3.3778945066639333e-6 
6.202196092780844e-6 
0.0002676196590190224 
4.874503386397662e-6 
0.00043907586333934986 
7.120376160013912e-5 
0.001088584140003729 
0.0005827993514152259 
0.002608078214303874 
0.00142290575490678 
1.7330667937236134e-15 
8.863928821933344e-14 
1.6254083108884645e-13 
6.860624711465044e-13 
2.294907379930911e-14 
7.478452263567259e-13 
3.6160530892412284e-14 
4.224485944115828e-14 
1.939711359809854e-14 
9.789965995388389e-14 
5.0007572357827466e-14 
1.6609814539972384e-14 
1.5076106732214083e-14 
7.771387443863314e-14 
7.875910795719919e-14 
7.905442232975718e-13 
3.936489398487373e-15 
1.3937279970424672e-12 
1.178989040399518e-12 
1.714097602456253e-11 
6.9658312999255565e-12 
8.898452437336913e-11 
6.472324923820442e-12 
1.668906931616622e-11 
7.572820829827685e-12 
6.517157008423641e-11 
1.2993405779256856e-11 
9.388674241105887e-12 
6.641220175571319e-12 
2.0989227874235066e-11 
1.9558983558821403e-12 
4.097836656722746e-12 
8.036219429999725e-12 
1.0833899383603933e-11 
4.534018352392418e-12 
6.9839406112768755e-12 
0.0003643488765708132 
0.000500590700991509 
0.0011010473605744513 
0.0012291339982100134 
0.0016173503941341399 
0.0002746773164725399 
0.00017389394500321608 
1.0140888744029497e-6 
3.6511461171509806e-6 
7.686083512424217e-7 
7.219857158455945e-8 
7.559137868174365e-8 
7.552375218185412e-8 
4.036372031539857e-6 
1.2956739606729845e-7 
1.951892550402492e-6 
5.4803861748204e-7 
5.637755726917803e-12 
2.7609043822469508e-11 
1.1570949330311297e-11 
1.7585621726264364e-11 
3.384613121657281e-11 
1.9100640823932413e-12 
1.4848676524489994e-5 
1.0797951766726045e-5 
2.986387312277395e-5 
5.251457593717918e-5 
1.2936205037444718e-5 
1.5417218949491053e-5 
2.7776095158881307e-5 
0.9426235538400565 
0.020297555117693114 
0.724338043507806 
2.118838000540695 
0.9570489040507534 
1.4597482573431069 
3.2336440139790686e-5 
0.001473256967884883 
0.0002734426270199283 
0.00013461084935176092 
0.0001665872384014444 
0.0008092034545864677 
1.8563028008117343e-8 
0.000614152338024094 
5.140191083434096e-7 
9.017676592914822e-9 
1.695771792302743e-8 
5.144308187020548e-8 
0.0010140191490659095 
0.0015310123816748547 
0.004644904751302935 
0.005834548581970245 
0.0015421186796437025 
0.0002002377173735652 
0.2429610442114831 
2.6122844933939257e-8 
6.047347468586717e-9 
4.064170554423059e-7 
5.274747526827366e-7 
3.6063671606075167e-7 
3.0298982099240564e-8 
6.335305328557114e-8 
1.1290327874293522e-7 
3.5362747517433804e-9 
3.682158212957104e-16 
1.5536448474221734e-15 
1.784813837971401e-15 
8.14495379776723e-16 
2.0428806801114712e-15 
4.2065788346766747e-16 
3.0920840666901327e-16 
2.5661124711106105e-14 
5.205154168806357e-16 
4.206578834676673e-16 
3.843958359221278e-10 
5.866228361713143e-10 
5.468550041987247e-11 
1.6061098060997423e-10 
1.3003007218990036e-10 
6.215032910632994e-10 
5.827655434303477e-11 
1.6535995227241344e-10 
1.4820224758404428e-9 
1.2220473564260456e-9 
3.562544888163892e-10 
7.559257989972295e-11 
3.937483140874831e-12 
1.7588329368580782e-9 
3.823895774842676e-11 
3.467026386567294e-10 
7.719147953124101e-10 
2.655022790199912e-9 
1.5083110011088667e-9 
2.799356023118482e-10 
3.451906574449805e-10 
2.077883790147028e-9 
7.935085614411448e-10 
5.545127238839823e-14 
1.1777330153429794e-9 
8.223192963023145e-10 
3.3722260939723444e-8 
1.7526245795683047e-8 
1.0248248353095395e-8 
2.0186565741264239e-7 
3.986292454431195e-7 
1.2574218884599846 
0.12624358322478663 
1.1364546943870797 
0.9773274944407334 
1.448904814212381 
2.104377551535166 
1.987418587136194 
0.00015086465214971497 
0.0003147408368180401 
1.0877835058696095e-5 
0.00029991181850924116 
2.5689254174349876 
1.5326157851309874 
2.9024749087074704 
1.3836303427624466 
0.347386488312572 
1.9885824800104592 
0.7175463656447908 
1.7468410450992562 
0.5637916696973266 
1.6499569686991689 
2.361554112140382 
1.0705847344498047 
1.9082218666601113e-7 
1.351249398019013e-7 
2.5343507925557283e-7 
5.3678262392442074e-8 
6.2264723164899594e-15 
1.0247523825646163e-14 
2.5539412927273586e-16 
3.4958769793215674e-16 
1.119847319443666e-15 
1.779954432541754e-16 
1.2659089656744635e-15 
4.0454555763558285e-16 
1.3266787918251117e-8 
6.012939859932261e-6 
4.538170433794122e-9 
4.888085533939231e-8 
9.455275566463066e-14 
2.6739689189995392e-14 
5.96874343936359e-13 
6.776276883374493e-13 
1.5532649638817552e-14 
1.7530766304558347e-13 
3.3048534620480213e-12 
6.181324583644348e-13 
4.4437949500299933e-13 
3.1463340637607974e-15 
8.561514078334891e-16 
1.1454128990269068e-15 
5.652873935343037e-15 
7.619955603801197e-14 
1.3512909623679319e-14 
1.1525730997792128e-10 
1.0365709959227334e-11 
1.740434997365855e-10 
1.0430928741107622e-14 
3.622803361712018e-14 
6.571273800289904e-15 
4.522911350561681e-15 
2.68931182663153e-15 
1.7523288147888466e-14 
2.1946398415010053e-14 
3.94650920423864e-6 
1.0610793649426585e-6 
2.195693134122857e-6 
7.131170053182979e-6 
2.10780637764518e-5 
1.800434167432887e-6 
8.067741625825005e-6 
2.940438846164126e-14 
2.1234980316060375e-6 
4.117196768745309e-11 
5.166972296561699e-12 
8.231704546618774e-11 
1.4727226707791145e-11 
4.1755771941057935e-11 
1.5869258632519347e-11 
2.1787031434403358e-16 
1.6519518574833306e-16 
3.369660139234828e-16 
4.889164611206029e-17 
1.6047208418444576e-16 
0.9591451112310219 
0.9885880572588787 
1.2267908166414326e-6 
7.689804428653487e-7 
6.863146723166145e-7 
3.667542512034886e-6 
2.961985394477472e-8 
4.080345579777742e-6 
5.584667068534978e-5 
5.254038109112529e-7 
1.8217490810873476e-6 
4.2154558899438066e-6 
3.4560140025034537e-7 
2.2291656268651958e-7 
3.7997114824591555e-6 
9.282574303278268e-6 
1.0202629897354297e-6 
5.817108207280198e-6 
2.39699254257294e-6 
2.697736696235322e-7 
7.385783699929791e-6 
2.4262501405289823e-7 
1.6809599266059607e-8 
6.095915046955954e-6 
0.9254460550782071 
0.001985526186625658 
0.744253025536446 
1.9084114688701357 
9.097859588240144e-5 
0.26650165006895515 
6.734372214961254e-10 
7.74031030524784e-10 
5.913906459504274e-10 
1.4155752698028035e-10 
2.832021938843483e-10 
3.6519159545953484e-10 
3.1871028550524134e-9 
5.685384756594121e-10 
1.3656251070679293e-10 
6.519780467687721e-12 
4.925257822220544e-11 
4.935743173659841e-9 
1.6855530861082548e-8 
7.410009131431021e-10 
4.632318621572803e-10 
8.389466889461962e-9 
1.0330287927493592e-8 
6.579526989088973e-9 
1.5716585724545054e-9 
2.8801093824510177e-10 
9.932232429764791e-10 
1.7162006107903405e-8 
8.242368580612781e-10 
8.019329596735659e-6 
0.00018137437384374677 
0.0011980567478561443 
0.00018355462584493886 
8.241931137697781e-15 
0.0005204831602423574 
0.0008995731212734974 
3.8042683335587355e-6 
0.0002105316516996107 
7.024477063028517e-5 
0.00023113295583506338 
5.8308095432257307e-8 
2.3878988318624386e-5 
7.716841345307444e-14 
8.525514159652176e-15 
1.3793038044959907e-12 
2.7674686559823537e-14 
2.0864266495276216e-14 
2.4004669888591743e-14 
5.953279230085995e-14 
2.1964167893319347e-13 
1.4862665262157376e-13 
1.2288018789020078e-13 
1.7632012937988433e-13 
1.268439752389347e-13 
2.5313807428038296e-9 
2.0302502088281692e-9 
9.289386793981866e-10 
1.0631481907455151e-9 
3.471782540969084e-9 
1.7777032605666093e-10 
2.0150461811651577e-8 
8.913823247898295e-17 
3.8055774101498574e-16 
1.5719138474960364e-16 
1.7984172231329372e-16 
1.8965231480960019 
1.5990488874354303 
0.2772995070425855 
1.5774100652901037e-10 
8.844996965046884e-8 
1.3828849745772406e-9 
8.907446839235399e-10 
1.1720390008896722e-9 
0.000693409709862892 
0.00023847806742010878 
0.0026612695772712885 
0.007509032098511086 
0.01371808719389054 
0.004857285269191281 
0.016731669117492513 
0.0008909275242734215 
7.833722727929452e-5 
0.2629443479038136 
0.0023810081553241142 
0.008371793701090924 
4.242280225394416e-14 
2.2520059782110033e-13 
6.331915829700101e-14 
4.48563953322869e-14 
4.043062021478487e-14 
6.533636697717757e-14 
5.6704980462006266e-14 
8.538500590182324e-15 
2.07150905403847e-13 
6.8262213192415454e-15 
5.680211762630989e-14 
4.450458499068399e-14 
9.158516328786139e-14 
2.228139033031066e-14 
9.03670346111432e-14 
9.74267768715228e-13 
2.0180744310960142e-15 
2.15788909168466e-14 
3.937345462810901e-14 
2.1161279716291535e-14 
1.8479895450644445e-14 
0.0029785465235143307 
0.004280447834918876 
0.10696668803941183 
0.0029645483422536998 
0.004171559064360627 
0.0003416994381442683 
0.016463622413342614 
0.0029829744534298304 
0.04289499341104522 
0.002966466590974196 
0.8818873605794773 
0.07755468203456845 
0.7126387303826252 
0.0015750773128236728 
0.0010769052251112683 
0.0016314743206420838 
0.0015782866306770134 
2.23129977908795e-10 
1.1109153568770163e-9 
8.75873135680518e-10 
7.244577203436951e-10 
2.77977782044282e-10 
1.9987784697212612e-9 
7.563432404794285e-11 
4.348645035174228e-7 
1.447121869315587e-7 
4.489809395536801e-8 
3.257531258640763e-10 
5.999636519319993e-16 
2.5360159778838327e-16 
1.735043722875293e-16 
3.0510521921347557e-16 
2.6222694991347274e-16 
3.688516012399234e-16 
6.63132077145702e-16 
2.608579855534662e-16 
9.490660882310305e-17 
1.888904837706637e-16 
2.398300799638765e-16 
1.296988222867094e-16 
2.60657893269217e-13 
3.743261180230418e-13 
1.3433716226073194e-13 
8.980766574440142e-14 
1.6273984772998265e-13 
1.2961120148565861e-13 
4.757379456481913e-5 
3.150250448217279e-5 
2.538084083762497e-5 
9.369851142607008e-6 
0.00011852032181304648 
8.772299458665928e-13 
2.2230728608180622e-14 
0.00022291631321639426 
0.0013294409431106199 
0.0015458001744382218 
0.0016083298202207122 
1.0712893517436948 
0.16510075902977286 
0.4812761329864886 
0.4380046896301512 
0.34178458148034524 
1.2395224685282134 
1.1358159464193136 
3.1595141102532977e-10 
3.769506734595154e-12 
2.2779901793662622e-10 
1.6748003700939175e-10 
5.426397570780267e-10 
2.591781374501903e-10 
9.753809548824306e-10 
8.772776939264816e-10 
1.3849101001060482e-9 
1.948740319089259e-8 
1.1595938414481211e-8 
1.5866278125922938e-9 
7.823140452104369e-10 
2.471322622109196e-9 
3.0456896041058143e-9 
1.879008724347836e-8 
3.850681339367384e-9 
7.629228477527487e-8 
9.293673424818066e-8 
2.0391556621183075e-16 
1.9907344729031162e-16 
5.242823986900114e-17 
3.0342963998230846e-16 
3.0615025752320775e-16 
1.1316206763855538e-16 
7.797949042598341e-17 
7.628418871139879e-16 
2.3314770589423987e-16 
1.9818852775051448e-16 
0.0003545543939315511 
0.00010040125196864727 
0.0002130025145375659 
0.00012117105092151808 
0.00022488147376836755 
0.0003626168429825332 
0.000465625386593243 
4.970568087179108e-12 
2.0888873662376838e-10 
0.000472116146337351 
3.413971510322885e-5 
4.071176806802481e-6 
3.212951732711098e-5 
8.909724594914395e-5 
0.0004319525596594452 
2.480059851144203e-5 
1.077510989429414e-5 
1.0991778537422393e-5 
0.0017686708088524175 
0.003052433410732104 
0.00011393928265060153 
0.0008815946177189036 
0.00124588336893345 
0.0005951031100362906 
0.0007502011879122929 
3.381632027060559e-14 
8.238625932079554e-15 
3.273693287909192e-8 
1.0608837641448827e-7 
5.476334837588627e-8 
8.37016940479197e-8 
1.0631418186380056e-5 
7.723898993143317e-8 
1.5467612097975525e-8 
6.016090720659281e-7 
1.2083996068272752e-11 
1.31589972970153e-13 
8.635148088835572e-14 
2.255582625529232e-13 
2.588511013984638e-13 
5.810267461835733e-14 
4.2360368853671423e-13 
0.0006126607494608756 
0.018327387470192403 
0.011215258623195796 
0.0011966651382684895 
0.0021393951460243117 
6.115089464418288e-5 
0.00024267242524158585 
7.563464712390196e-6 
1.7708382988004348e-6 
6.637556329338431e-7 
6.015390927387593e-8 
1.4092280381175396e-6 
1.641971704204486e-6 
8.928253187859563e-6 
6.601783496713158e-6 
4.8389789597677695e-6 
1.3721043358003244e-7 
1.7174746494314366e-7 
5.6105697636498004e-8 
1.0934158144834833e-7 
7.364374306810577e-7 
2.883317331961768e-7 
2.977378202629968e-7 
4.675023374705905e-6 
6.7261089979177265e-6 
5.51554199429534e-6 
1.0143439481306165e-7 
3.381427704322224e-8 
2.2278814982322658e-5 
5.845237935288286e-8 
5.027277851618053e-8 
5.823277660186496e-8 
7.900674848325805e-9 
2.9684757664662402e-8 
6.575530009371958e-8 
1.4471736708703475e-8 
4.323937950740146e-7 
1.4977394324831774e-8 
1.569183485084178e-8 
1.2380977827457769e-8 
1.4394520015195748e-8 
6.15783709984017e-9 
1.1388705681473698e-8 
3.535939475524254e-7 
3.72596393715981e-9 
1.2475560800810122e-8 
0.0031016151437507013 
0.2704583100519696 
0.823543303738232 
0.1770120908237054 
0.0008426178174093142 
0.0017380037578570535 
0.0058220549001906565 
0.009343681718359833 
0.019836280323894794 
0.007125549364114564 
0.002605086543521312 
0.15342394282375107 
1.1386379431467403e-9 
5.893240086614626e-10 
2.9126949559616926e-9 
6.1315191438663726e-6 
3.533142005936409e-6 
0.00024583156313500397 
3.936694275199238e-6 
2.861846294797631e-6 
2.2718772064498777e-5 
4.673164675451349e-5 
1.2499009035312738e-6 
2.0974025556794778e-10 
2.7775547062339734e-10 
1.895515041388297e-9 
8.997207299319472e-11 
9.126732602584408e-11 
1.9488254865629815e-10 
4.326789232411366e-11 
4.291451428907988e-10 
1.2353557459230788e-10 
4.832269421568263e-15 
5.128240502892389e-10 
4.8577335441319885e-8 
1.7099443703094477e-8 
3.625677681081211e-8 
1.938061514072636e-8 
1.840992585502199e-8 
1.8676799932673912e-8 
1.0615350874468019e-7 
1.298835153488761e-14 
4.216163391512893e-7 
2.4518721710328364e-8 
7.8193813868658e-12 
5.792014672244084e-12 
5.026714104502684e-12 
7.005373527916323e-12 
2.132443242894345e-11 
2.84213994916009e-13 
4.29748613403442e-12 
0.00013008660423817915 
7.612642809212523e-5 
0.00023024580194971924 
0.002439181645836443 
0.00020129196019237058 
1.9560281112792772e-5 
0.00024244301009599043 
0.00010434031554366732 
0.00017234219597303692 
0.00014240563333310963 
0.00010131025706205416 
6.856930409263446e-5 
0.00033131103453450046 
0.0007602073837718226 
0.0002959906153174996 
0.0012168410524103926 
0.0002944516118298371 
0.0030079044977041267 
4.5947582038346877e-7 
4.791635424982357e-6 
1.7914373250770445e-6 
6.527124966444342e-6 
3.5045221693402497e-6 
7.66901284716348e-6 
1.884941680561527e-16 
3.108937458763411e-16 
7.492168623323969e-16 
5.030806863296806e-16 
2.30018248464232e-16 
3.2464164570511063e-16 
1.472859556783923e-16 
5.856605539334343e-9 
9.174864879303203e-8 
3.804578316528815e-9 
1.1775328741903332e-8 
1.5905015366019213e-8 
3.1036485047832187e-9 
1.2505886630263504e-9 
4.911494264417353e-7 
8.56758095482342e-15 
7.06081204820501e-15 
1.0609117000285823e-10 
1.8046715020543922e-10 
1.2203234247315938e-13 
2.0478085341056172e-13 
1.0009770360980416e-13 
1.1133816604763022e-13 
1.7612436441345341e-15 
1.4623432826983688e-13 
9.419535496973295e-14 
1.6556101916517202e-15 
7.835746332798672e-14 
6.866480855847592e-16 
5.447035011528982e-15 
1.192364360001551e-15 
1.6414146901049551e-15 
8.711573984047349e-16 
8.716372407344279e-7 
2.1827175345161765e-6 
7.562677782610525e-7 
7.402669349111172e-6 
1.0200903103984553e-6 
1.8050869077843827e-6 
1.087644224569422e-5 
1.0851308147959187e-6 
4.392542674948902e-7 
6.638965910638953e-6 
0.00011747808805406801 
8.567343231846801e-7 
1.5241455299190123e-7 
4.2911142129994747e-7 
7.429111461075859e-8 
1.4076553492884554e-7 
1.0839611696644507e-7 
1.8200472156430292e-7 
2.343178349020694e-6 
6.684741626265475e-7 
1.3829970802344482e-8 
4.094423290778536e-8 
4.0982107542353325e-9 
4.061369409527069e-9 
1.4764895439855086e-7 
1.2028744518439005e-8 
4.449211628026679e-9 
2.1117133743743426e-8 
1.9579428786125366e-8 
7.882971179884729e-8 
4.9883204189444176e-8 
1.9903934250462275e-8 
1.5125823035160535e-8 
3.1422118458555735e-9 
1.7377327268798554e-9 
4.5944745712937795e-10 
2.726706173350624e-10 
7.696939212245453e-10 
5.503740110986985e-10 
9.137625646195183e-10 
8.608518771158884e-9 
2.284587790802765e-9 
1.170366709203808e-9 
7.230795415991406e-10 
2.2061388772963648e-8 
1.7133900091279122e-9 
0.3702342621370846 
4.0067798683071495e-15 
0.3636311605365829 
0.9269746906690787 
1.769881383489949e-10 
1.024943284411418e-10 
8.281936803581951e-13 
2.2360840843372802e-15 
3.1411706069242e-12 
2.683159194306822e-12 
6.489326291085337e-13 
1.3776732073862393e-13 
4.108352518856368e-12 
1.851806586775698e-15 
1.1382561412524924e-15 
7.845033365644525e-16 
4.634301473076875e-15 
6.446011281216864e-16 
9.627061958891114e-16 
1.2040496683613178e-15 
8.715877955454024e-16 
6.713170419374606e-16 
1.4260182110928814e-15 
7.034817348274194e-8 
5.430854564361724e-7 
3.6929816395915143e-7 
2.0009024941204084e-7 
1.2973475746913524e-7 
1.0401918209195584e-7 
2.7658173434302635e-12 
6.098022754016644e-12 
3.950131966708382e-12 
2.8765460558906387e-12 
1.0193271708396372e-11 
1.2578283586729705e-12 
4.185049196093729e-11 
7.185373141716485e-14 
3.295068297679459e-14 
4.5167070389854437e-13 
4.397055430252956e-13 
1.3630049280246306e-13 
0.07783118571044285 
0.06517356508321606 
1.0125234865163242 
0.035449602545279 
0.04617604432948901 
0.4025400960462541 
0.2703345129691117 
1.2584728890630286 
1.5931115187118239 
0.29853976379561215 
2.407064244229329e-13 
3.7438066081385856e-14 
2.2214379608557728e-14 
6.979339350401481e-13 
7.641161261841992e-15 
1.9833887801304716e-14 
1.0759994980918642e-14 
1.5225495235639547e-13 
4.72195813325091e-13 
1.2239768911672714e-6 
2.011592561634034e-6 
5.608786387456978e-7 
1.1778270641276353e-7 
2.5291651326687464e-7 
6.013309739733087e-7 
7.914827172482638e-7 
2.144384176976961e-6 
2.7931518090695636e-6 
4.269215887950477e-6 
4.2053102401913635e-6 
1.4160455574105658e-6 
6.475633607947541e-15 
3.920389674112811e-15 
1.7550271124590433e-13 
6.316123499047297e-15 
5.0136133403442835e-12 
5.806691701093556e-14 
4.922285191473031e-14 
4.4454052049805426e-13 
9.582225248047903e-15 
4.9972604066414714e-15 
2.5360535669978573e-15 
2.50209661546542e-14 
4.03122185484505e-8 
4.052821370573755e-9 
2.4272087023244196e-9 
9.415049337812094e-9 
1.4570166493345075e-8 
2.171743352318183e-9 
2.100289146652756e-16 
3.0680288699273497e-16 
3.358205992631902e-16 
1.6264891129500675e-16 
1.9799004853267807e-16 
2.9308681300153615e-16 
2.1332152997480598e-16 
1.9507677889279536e-16 
8.515071766822604e-17 
2.863869576339144e-16 
6.656184883900363e-11 
3.769879815771686e-10 
3.7009327017067435e-10 
2.471933400238035e-11 
6.032941087623962e-12 
1.0213470260797495e-9 
6.115450399204003e-9 
8.21634685281352e-9 
4.564538003200419e-9 
4.0985344088902226e-9 
2.0126075769050814e-8 
1.6549840154660442e-8 
1.7851163592874598e-8 
2.848787112885105e-8 
3.6474912051214446e-6 
2.449141601508177e-7 
4.962685546524576e-7 
6.902720425349602e-7 
3.147377716481743e-15 
4.190974303330913e-14 
8.823781477485663e-14 
2.4554932714863286e-13 
7.739914639605383e-14 
3.59903939048312e-14 
2.225446276331007e-15 
1.8525589063277632e-14 
2.921755815804869e-14 
3.5509108574909455e-13 
1.613070167444636e-13 
1.9661118804970755e-12 
2.4839941346749417e-14 
6.171612112595159e-14 
2.1034068483209848e-13 
6.453357225992195e-14 
1.816989657939334e-13 
9.285308466311266e-14 
3.9249764109459444e-14 
1.0695049941241163e-13 
3.6772783802391544e-14 
2.2030719282699003e-11 
1.4150981239423728e-10 
1.9986198182821843e-11 
3.2669676067806324e-11 
1.2145543143000571e-11 
4.3970326579045614e-11 
6.466566649879208e-8 
2.5034679756141418e-8 
2.333431912625207e-8 
4.261991583918818e-8 
4.171258006011752e-8 
6.509670635879514e-13 
9.185837966761868e-13 
1.0839864466014493e-13 
9.840790489648838e-14 
1.1632138345922527e-11 
2.8103424318377366e-13 
4.9844836954145e-12 
5.633224456896936e-13 
0.0004336471174249356 
0.0003876732983479688 
1.4187237532553403e-7 
8.730676683635039e-8 
6.893932691149426e-8 
1.9911350685040938e-7 
2.5932133810107994e-7 
1.0990653068433505e-7 
4.2463956475818516e-8 
7.764909742559405e-8 
8.562682666490989e-8 
4.970875626606907e-8 
1.1839768638558719e-11 
4.70681992404007e-11 
6.467361521952394e-12 
9.430692388085567e-12 
2.5945226699786583e-11 
2.2032754663506844e-11 
4.489563561194338e-10 
2.5894411828933286e-11 
1.3626189947739245e-13 
1.096810246732936e-12 
4.2978296209374436e-13 
1.594450184143996e-12 
6.53576103608003e-8 
4.8666257459667165e-8 
1.495583592203047e-8 
2.271639373845945e-9 
3.3989479314151404e-9 
2.7218956624721955e-9 
7.124100336075556e-9 
2.066095271369004e-9 
2.7628293378663302e-9 
3.389276088004303e-9 
8.688353459254367e-6 
1.2128034153069915e-6 
1.1499796852850837e-5 
3.4757675600656996e-6 
1.3295026463216794e-6 
2.4709871275182683e-6 
1.1510302885912914e-5 
2.4734860721093053e-5 
3.286405724040049e-5 
0.0169800741717522 
0.0682085752789329 
7.791787727479382e-13 
0.17526927450250804 
0.1988280882434429 
0.0001307694900942801 
2.0101864637767897e-5 
0.012725505342202445 
0.005195068760021979 
0.00010788400398298626 
0.0005400968931232638 
0.001001762901637031 
5.0665556739848136e-5 
0.002424363784439758 
0.000999842998723716 
2.47382251899797e-13 
9.155396281207826e-13 
1.3568790608328365e-12 
1.740777921820038e-12 
6.329065466639647e-12 
1.2849332793572711e-12 
1.3061789523858355e-12 
3.181073623156014e-12 
1.624228758918975e-12 
0.0065401655338292695 
0.12493047401494731 
0.0026320633750791284 
0.004907961625222389 
1.8487557667031108e-14 
3.380294158936502e-14 
2.41332775895151e-15 
1.6747713053798638e-14 
4.417943311833635e-14 
8.010286915254436e-14 
3.3927110062437467e-14 
4.9138370310012594e-14 
2.226097374058802e-14 
1.9011118448003565e-7 
3.7940179099625295e-7 
7.384037974733006e-7 
1.6874017926226417e-7 
7.105890738104822e-8 
3.7593115882056076e-16 
4.275531591759576e-16 
2.01773608056204e-16 
7.650415924110101e-16 
7.20185677270479e-16 
8.797406704958028e-16 
7.911527103165514e-14 
4.791475887855784e-14 
4.8444321828534416e-14 
1.4228876387972084e-13 
9.761191601220157e-13 
2.574133931593419e-13 
1.1404216588772665e-13 
1.2582916338606816e-13 
1.0125022127145928e-13 
1.5034694873562034e-14 
4.9389189578929354e-14 
5.3076996738070264e-14 
5.002563684646643e-13 
2.7495303029761874e-13 
1.5439807635310022e-12 
5.587285773473178e-15 
4.6003717343557027e-14 
5.742263266873156e-13 
3.0842874202672354e-13 
1.064158302731932e-13 
6.877442445047987e-9 
2.8792863759632903e-9 
1.3869886196664235e-9 
2.204226069298253e-9 
4.115930693080225e-9 
3.402615124973661e-9 
2.9945890843615874e-9 
2.2566289477153556 
1.4986888794612883 
2.2640621789572823 
0.4677759061946845 
0.9382856558606362 
0.9345017228325746 
0.6696778739636196 
2.4990599976040112e-12 
2.005020020118491e-5 
1.4741550568987192e-5 
0.00010144215157654306 
3.083614531151945e-6 
1.4010972754427329e-6 
8.929132143630448e-6 
5.33571295874879e-7 
1.2313064051082855e-5 
7.31158505412833e-12 
0.04047897985930268 
0.0458248013310518 
0.0024368033297702874 
0.05451890217402227 
0.2953278437552712 
0.0022512237054903616 
0.004100871284939427 
0.06799332325188799 
0.00693350709708867 
0.00014705749151503882 
3.952182454457545e-5 
7.993291721428628e-6 
4.90698475146568e-5 
0.19927583495220344 
0.7333964138279291 
0.07412091818941052 
0.004592864461916481 
0.008232511237267863 
1.6162598608906287 
0.8642535944719543 
1.8826656151116992 
1.779383944140708 
0.3735479084019221 
0.05964093721482984 
0.011308273857579217 
0.00740526844344853 
0.009072812604610556 
0.022204994954458806 
0.00010077788807510196 
0.0011789118131047016 
0.011976976439539334 
1.8665799842903867e-7 
4.7323402236366055e-5 
1.3541826988828569e-5 
1.699122051425534e-5 
1.488382900714888e-5 
2.159466167922146e-5 
7.404698312091674e-6 
3.4484273004296103e-6 
9.034331229662512e-7 
4.999553197507319e-7 
3.686113307793778e-7 
8.363450385520023e-8 
1.774088140344129e-5 
3.3437330655900527e-6 
1.6339616188532125e-5 
2.3274461652959995e-5 
5.525303476963467e-5 
3.85574770618099e-5 
3.824314491904097e-5 
3.284982783238213e-5 
2.4394280587922612e-14 
5.446304514098667e-15 
1.5941483790662228e-15 
4.777239348160345e-16 
2.1617667459624176e-15 
3.854551270560038e-15 
1.5562958686738461e-15 
2.296473686075696e-15 
5.48419175006616e-15 
1.0472853316057132e-14 
0.014686887874832681 
0.005076373101409222 
0.026893644515916044 
0.011956184733120415 
0.006627828770498823 
0.00769796548257213 
0.0013911340995971682 
0.0012884721326533875 
0.021779234838235153 
9.174378034184913e-9 
2.402936402431554e-8 
2.186172333470235e-8 
8.028966527767586e-9 
5.923314077356856e-6 
4.9368844970795916e-6 
7.005790969588449e-6 
9.814727015511268e-10 
1.0840906130812163e-9 
1.0989339509869634e-8 
2.6895437816655134e-9 
2.987422873505446e-9 
4.04539775744203e-9 
2.5998151935713248e-8 
8.164480051842395e-9 
3.8567952921184973e-10 
5.005525455955684e-11 
1.4863751016171972e-10 
1.9589464013200892e-10 
5.159467369538571e-11 
2.301084436027004e-8 
1.369624930659967e-9 
7.838258691962516e-10 
5.282311858643063e-10 
6.436495492647287e-11 
1.1444468119228103e-9 
2.6756763679722823e-9 
1.3822489972540351e-12 
2.1567184567072433e-12 
9.855926632864339e-13 
5.372022417127041e-13 
2.3529121702771383e-13 
1.0973544304918184e-12 
2.143281016917182e-13 
4.33972177069145e-12 
3.3910207105063523e-13 
3.3814192303257885e-12 
2.7096075478401603e-12 
0.00036312118931171815 
0.04007634240167974 
0.5987495955294927 
0.010134328505166382 
1.1953470697821228e-10 
3.825936524380063e-10 
9.578919216373726e-11 
1.2308962653814856e-8 
1.917343805229206e-9 
7.875450042687748e-10 
1.5846109797843973e-10 
3.176920463047644e-11 
3.413932543622681e-12 
9.553770996041998e-12 
2.109418780131966e-12 
2.1608042394014054e-12 
3.959937242831639e-12 
1.1036825821968837e-8 
6.7147827360327954e-12 
4.4373213728468536e-9 
1.6380382882653374e-9 
9.052790140309486e-10 
0.011484218400493918 
0.006028883005660322 
0.007785493038017584 
0.04137393543208476 
0.008464982019222612 
0.022916260373855378 
0.4693859176759172 
0.04173098853656175 
0.006603832911746393 
0.001212759548060735 
0.015465741632850168 
0.01960897878783796 
0.014141772720910606 
0.0017516853737377218 
0.0030659887940576768 
0.01660009859668627 
0.004885523766586935 
0.0024098213161401175 
0.0019387877737971418 
0.0033163997494235027 
0.005246289923795342 
0.0040171683692487884 
0.001021492213244648 
0.0021154215173178393 
0.0023129131025492354 
0.004847473669262259 
0.0001982688446082802 
0.0016978898666216568 
1.5493480413736244e-6 
1.7743077119082075e-5 
6.312620366332525e-5 
1.2075930675942608e-5 
5.9364056369582236e-5 
2.373658650484652e-5 
1.0657477987460996e-5 
8.399101270254862e-5 
0.00022568512614662832 
2.309818476361647e-5 
2.5822126171498845e-5 
1.0220750403833214e-10 
8.082454651018885e-10 
8.054671448255576e-11 
7.618570120034563e-10 
1.1159947423513723e-10 
7.152710843109612e-8 
4.726830011242317e-8 
5.16966976211551e-8 
1.612203096374181e-7 
3.20848737281612e-8 
1.3379008068193414e-8 
4.458361795905669e-7 
8.570244768934435e-8 
1.424531004386551e-9 
7.70000589910645e-10 
3.298991789803339e-9 
4.018695862722407e-9 
5.719370053221407e-9 
2.4523899985762568e-9 
3.519229249752914e-10 
1.0952219069554376e-9 
5.170183076626641e-10 
1.278385389456215e-10 
2.531929266923379e-14 
8.318467826594125e-14 
7.699283356733798e-14 
1.737053455747725e-14 
1.1901888129978788e-12 
5.116375439713256e-13 
9.858288390876544e-13 
6.76222612159999e-12 
6.745607916461296e-13 
1.2267768386936783e-12 
3.9344270165731505e-13 
2.633648314832641e-14 
1.3118829529107702e-12 
2.870259881406313e-13 
5.067490583746453e-14 
8.743968922364733e-14 
3.011652743011392e-13 
3.24702646795777e-13 
2.3824699873883285e-13 
1.4955548045837905e-11 
8.066738303571632e-12 
4.089093912923313e-12 
3.976568732183274e-12 
1.116244774535355e-10 
8.068731518035588e-12 
5.1301852914921934e-12 
4.577009791780237e-11 
5.578295100574053e-17 
4.1810382524886553e-16 
6.449368577392843e-15 
6.206722753956392e-15 
7.969953077947779e-15 
1.7514547728422117e-14 
2.082808952229988e-10 
3.6089825528085574e-11 
1.5871637720775444e-10 
1.770954377027711e-10 
3.305884227523661e-11 
5.0955383343782164e-11 
2.2511656716472416e-10 
1.89819873466292e-10 
1.4580154068693442e-9 
0.016519266563588507 
0.1427280305954875 
2.198421995821915 
0.6123185597640857 
0.8455752037356922 
0.3905680931958511 
0.06619088002546153 
0.09755638661934422 
0.5075089873713892 
0.8717296730012387 
2.6652159846519856 
0.01085901758385771 
0.0072636497756347175 
0.0019974964519044857 
0.008764645671385305 
1.02259684172673e-6 
2.399451178912198e-6 
1.996626123244324e-6 
5.972394584440445e-7 
4.995077857030501e-7 
4.004237462877777e-6 
2.5146677320543473e-10 
1.0750274496423596e-5 
5.2688369072778e-7 
2.840573434815479e-6 
2.1177120280906573e-5 
2.2972146883819424e-10 
5.2950973158803635e-11 
6.766325763606993e-11 
6.45874828093378e-11 
2.2220004180381993e-10 
2.4341708469463063e-10 
3.1077291237072675e-11 
8.050691003834029e-11 
3.1888379462057527e-11 
1.206274344439032e-10 
0.00020454069879516102 
0.00033512498362280773 
0.00023278546280590347 
0.00037607651615434787 
8.72045670591803e-5 
0.18127406304824908 
4.348569124500591e-5 
0.0008591180042774264 
0.00018834219325226343 
0.0008866069077527308 
2.7694810816430575e-6 
1.0492287510048536e-6 
6.002744486655463e-7 
1.9658238515614114e-6 
2.2658701617385094e-7 
5.475226826022492e-7 
1.4502051368095305e-6 
1.4376632855867483e-6 
1.426417603316738e-7 
0.00557603185620939 
0.0012734588012055562 
0.0013356388797596103 
0.0001272070078268727 
0.000676900739077871 
0.023806605388532312 
0.0017343626727763144 
2.794147363184198e-14 
4.5435463825571087e-14 
2.1367385548562443e-14 
2.7081735753211497e-15 
1.395629575549481e-14 
6.8275007221499e-14 
7.369726234290663e-15 
9.738877156073402e-15 
6.660896678489124e-15 
4.645393640197113e-15 
5.568509434817851e-12 
4.395756248710968e-12 
1.6412558070648014e-11 
6.7054687285608245e-12 
1.7637160049376345e-11 
4.342071422960878e-12 
1.6725647414304145e-12 
6.411864393433925e-12 
2.2437056159583138e-10 
4.507297592423724e-12 
1.7142948816700072e-10 
3.549592629039816e-11 
5.563627581816276e-12 
1.1362530971352083e-12 
5.677079743477052e-12 
2.591499512848095e-10 
2.6568100092998085e-14 
4.8888384260329174e-14 
1.1822961773527148e-13 
1.0331112205036522e-14 
1.044185511765286e-14 
1.3674298279305057e-14 
4.333292958049479e-14 
3.7853484131477767e-10 
2.1112592074664222e-10 
6.130723562939526e-11 
3.27654957412329e-11 
3.6715255224392656e-10 
2.7117476727630456e-10 
3.3741047806174547e-10 
1.2435080730963758e-10 
2.079702783610343e-10 
6.820425053527128e-10 
1.0861948165260476e-11 
1.0829735908374511e-11 
4.331416545424393e-11 
6.175293912869346e-12 
6.838047574423785e-11 
0.7432806969813935 
0.07983699040022289 
1.790730783238583 
1.057515674878982 
1.5056506729776793 
0.268542307918598 
0.176971623748449 
0.07253384131576009 
1.3814459012136173 
0.038222373727434165 
5.375313068645212e-10 
2.017279564623267e-9 
4.377307365187055e-10 
4.020425508617676e-15 
1.3382606882380295e-15 
3.2999678520665683e-16 
8.396098313160705e-16 
3.626426624241582e-16 
2.6788199813327654e-16 
3.8189588087255013e-16 
4.5891850074108975e-17 
1.7616722564062968e-11 
8.45533184934291e-12 
1.0794501194283818e-11 
1.5180897345185414e-11 
1.8183386912728812e-12 
8.369337095107784e-11 
2.737451467928024e-10 
2.3859345904607715e-11 
2.3185890320371304e-12 
7.980338568420843e-12 
3.9432278848756876e-13 
2.8295413469894454e-13 
3.65518789198161e-13 
4.214691252418195e-12 
1.079473479139172e-12 
4.316227406683352e-13 
6.898734172581526e-13 
1.6891292413203776e-13 
1.4631437724240725e-12 
4.647619225026287e-13 
1.3375251452424775e-11 
1.8212901293105542e-11 
2.809435900560559e-11 
0.7345728276862274 
2.2972970791557064 
1.4184465133596904 
1.0814200171640165 
0.6888601177965428 
0.013526497131612053 
0.5876712724963769 
2.3620018666950762e-14 
3.354758876120906e-14 
7.592243510501603e-14 
1.7744686208783531e-15 
5.766902422928014e-14 
5.507327458168524e-14 
1.36690840000709e-13 
1.5902720100343706e-13 
9.355116810429668e-13 
7.557303731706559e-14 
3.19580779453677e-14 
3.4821267912063316e-13 
6.724570019057585e-6 
1.0452325221814915e-5 
2.290594940498773e-6 
7.344388875679799e-7 
1.106713045764795e-6 
1.1501918148671328e-6 
3.0314417821994174e-6 
2.8282343570527285e-6 
4.5529588403029405e-6 
5.467554755866706e-6 
3.5447023888147605e-6 
8.718567258392611e-16 
5.883681623297591e-16 
1.4382531263241915e-14 
1.9422200014842716e-15 
4.195331489002947e-15 
1.7079341956390582e-15 
1.3933431392108388e-15 
4.3553956602209237e-16 
1.3177786164021859e-14 
9.37908863787105e-16 
8.337027534596048e-13 
2.776689397057136e-12 
1.0116036353500353e-11 
4.2008565017742524e-13 
4.939058549784545e-12 
3.125108084794933e-13 
5.160308361988256e-13 
8.597137231935476e-12 
1.038592990441421e-12 
1.5141135530621993e-12 
9.150107506976725e-13 
1.9686706619593703e-6 
3.4486370621935816e-6 
1.087950429059419e-5 
5.459202936463096e-14 
1.2937928373432583e-12 
5.6218211235480394e-14 
2.3592402442992266e-14 
1.4839760699782495e-13 
3.1517216674611033e-10 
4.9033622828547775e-11 
1.8964837051116946e-10 
4.836462454206985e-10 
1.474060093027839e-10 
2.1421099202598917e-11 
6.054537006134908e-11 
4.165453845010521e-11 
5.834422617744437e-11 
1.42588983416208e-10 
1.3153928359854885e-11 
1.760935055731319e-14 
4.332495943209625e-15 
1.7253633761082372e-14 
4.012162851295555e-15 
1.6557040334407336e-14 
4.629797724341318e-14 
3.570959385725848e-16 
4.220192529867947e-15 
1.340989443847714e-15 
3.9720321236687124e-15 
4.644665546468693e-11 
1.0135947911751608e-10 
1.5632304890700032e-10 
5.257297887110335e-10 
1.7344771467074615e-11 
1.0381387089573835e-10 
9.25649241284327e-11 
6.83517140233869e-11 
7.096876877619255e-8 
4.43059845553661e-6 
1.6194032781132906e-6 
1.1982028722736019e-5 
9.514758775964317e-7 
1.1586578461273042e-6 
3.983977494712026e-5 
3.689425039816487e-8 
8.707112938833088e-16 
1.0098746558258754e-15 
1.435381754304292e-15 
5.364408332821983e-16 
2.5144221606942515e-16 
2.3661861908436896e-8 
4.738743165049294e-10 
1.4383923507683627e-7 
5.0579950399197004e-8 
3.80370946099812e-9 
8.324640393679222e-8 
1.2247490998045408e-9 
1.805159652523074e-8 
1.546689416462457e-8 
4.429340901948263e-14 
3.37203164165253e-14 
1.820629831461312e-13 
4.8418243309785417e-14 
2.3886442898290428e-14 
5.561500507327768e-14 
4.138400445880993e-14 
2.93762646577305e-14 
2.7806652882263365e-14 
0.003024033567713425 
0.0007876573382645246 
0.005661608468749549 
0.007207623193089724 
0.006056517030492931 
0.004663184282657514 
0.0005294040178019348 
1.4797790596616422e-11 
3.43205972453358e-11 
7.705519639219846e-12 
1.0088352188355436e-11 
1.9824912261706615e-10 
6.847030861009056e-11 
2.9134759538392804e-11 
2.5724999882204725e-11 
3.801271529962436e-11 
2.3025291137076483e-11 
2.6976443430956885e-12 
6.4432973223869865e-6 
5.713213329752763e-5 
1.653673433818398e-6 
7.959791849990473e-6 
0.09270424972119308 
0.06509221113939981 
0.001855676232519697 
0.1697951818695711 
0.5007569718268698 
2.717899950797079e-5 
0.0007096329757208267 
1.743748859445052e-5 
4.665729024975315e-5 
3.419128424574476e-5 
0.0001378979717312442 
0.00012755424688423147 
0.009518210230160537 
9.206853144618065e-7 
8.605074098905091e-7 
1.4216240170480431e-6 
7.638472485498766e-7 
1.1180328932171516e-7 
2.3234454634317082e-7 
5.222944803182097e-7 
9.072698733757218e-15 
2.1016483422401744e-14 
2.3056097059919878e-14 
4.7161956022068314e-14 
1.2126868208472019e-14 
8.885655496966041e-15 
5.2678426443161333e-14 
1.2753497911721344e-14 
5.1188664643474145e-6 
3.0971203425086876e-6 
2.7077375361575165e-6 
1.4187131376499012e-6 
7.32160797762609e-12 
3.139722367408877e-6 
7.155052520042444e-7 
1.6860388917673178e-6 
0.33401206071618644 
0.0029786107104102506 
0.061800641199424695 
1.3000265570305374 
0.27708868578972284 
0.9896632601227174 
0.8090769833786057 
0.7317563151477842 
0.2518316493038117 
0.19219098846097163 
0.5606729357503896 
1.7953170712983766e-12 
0.48322909360483285 
0.07059368426708934 
0.0012524441147784885 
0.16506852552432213 
1.0156527451892108 
0.795297837829861 
0.8237385012530745 
1.2130291251320107 
1.7505766166703394e-16 
1.599503949679292e-16 
6.468902292340804e-17 
4.57145724573893e-17 
8.195532953531893e-17 
4.5600514680569935e-17 
2.0478388590224037e-8 
1.2502397055949659e-8 
2.6705751314473073e-9 
3.3999484970043083e-9 
5.783566242380377e-10 
6.7279298287336965e-12 
1.7064322433591572e-9 
1.0616650086873081e-8 
1.9584110803244805e-9 
2.8817825281708988e-9 
5.051506944916169e-16 
1.2201244234954945e-16 
2.9220171010302668e-15 
1.3297739912004158e-13 
2.2876416922673254e-15 
1.7256481281441255e-15 
5.7246924201579e-16 
5.819112442679344e-16 
3.956457346064352e-16 
4.1171608001398663e-16 
1.266811556923502e-15 
4.920054318712743e-16 
2.211996773990209e-15 
3.956509232590034e-16 
7.28329297887787e-16 
4.867101356809088e-13 
2.3412393196994573e-13 
7.790041435715265e-14 
2.108261348238509e-13 
0.0023260667137036924 
0.0026993028005582744 
0.0018401511760717216 
0.0010138346495673568 
0.0008290166952465939 
0.0013478081502448982 
0.0007333143865154433 
1.5939807915185484e-5 
0.0006128483695216698 
0.0002351246520211515 
0.0005528534339778648 
0.0001416785979553872 
0.0003576056075040389 
0.00035487231935789023 
0.004617634884774135 
3.3511240854527867e-7 
1.076054350933474e-6 
4.335062734640581e-7 
2.101051617055278e-6 
1.3581044252383446e-7 
1.4340189203984858e-6 
4.915310186078262e-7 
2.120284438721131e-6 
2.5768161220888308e-11 
2.6880549511183045e-11 
2.1987846874538055e-13 
2.3164513424403933e-11 
7.583104750060955e-12 
2.0408004982871165e-10 
3.774012080501515e-11 
7.252614442939397e-10 
5.092695759577692e-11 
3.493684000742854e-13 
5.8046752873452064e-11 
3.8475412949188595e-14 
5.915538849581209e-13 
7.447290505987552e-15 
1.8452218620730347e-15 
7.755580674266863e-16 
8.111983278979702e-15 
3.983290627030504e-15 
1.4600073590986877e-15 
3.211212788626034e-8 
7.246944680601229e-9 
3.4777181503298403e-8 
7.243038229267815e-9 
4.821173278280172e-8 
2.397555233084242e-8 
1.4583365427922739e-8 
3.6407210687683556e-9 
2.2960106675694548e-9 
3.1052098726550346e-9 
1.5445888545698454e-8 
4.012076254876028e-8 
2.005445119196733e-11 
8.785105701858455e-12 
6.52704599869521e-16 
1.2500655622480994e-15 
2.5313489861529425e-15 
6.508381924752337e-15 
1.7597001647940228e-14 
6.443718400523077e-16 
3.6791172891496216e-15 
2.2205218445408744e-15 
5.350176222641462e-16 
9.83446795442361e-8 
2.9124325533122935e-8 
1.1412073512271023e-7 
2.002448041210474e-7 
2.033817116851271e-6 
5.93111823791392e-7 
6.520061139591841e-8 
1.121363724158839e-7 
0.035020126972182174 
0.02789031238015552 
0.8932839356582669 
0.09359844429071713 
0.009204692511052354 
0.34107289731364 
0.6117679285696963 
0.9707443873176751 
0.08710352564511514 
0.42090456449955777 
0.022533418743369192 
0.6373885877735157 
0.7199822164552981 
2.915969430653907 
0.9530813789464863 
0.8138555608695757 
1.8145581367550498 
6.514680878470162e-5 
3.8429445862359356e-5 
0.0015688667835294255 
2.4986640537076834e-5 
1.4216780475320204e-9 
0.0003700490921958324 
0.0003468942895007318 
2.792270059636611e-13 
6.740558295091505e-13 
8.606172020501559e-14 
1.423055156605677e-13 
1.0735563268021622e-13 
8.205276283378905e-10 
1.0906790824114038e-8 
5.492552854803855e-8 
1.0790482327949888e-8 
1.1647625664012524e-8 
1.6345695506251206e-8 
1.359351858539842e-8 
1.732811293997399e-8 
9.874454548943176e-9 
1.635053867933393e-8 
0.010765502590921756 
0.8705715310422033 
0.015595740329116906 
0.8410628894533596 
1.8129411726836344 
0.8883554971216188 
0.9400744457789889 
0.08976555561035625 
0.4211021899610725 
0.003367904911420831 
1.0845773019926466 
0.05351368645466483 
0.49730158030326543 
0.004561586133809308 
2.4679263858371243 
0.0731607009102945 
0.01427524273185447 
0.24691346758334273 
0.08061247673948178 
0.0042531195370267135 
0.013515647535923655 
4.657783869034599e-10 
1.9823898240643006e-11 
1.0672007144409853e-9 
3.7938508636639576e-11 
2.279177824063573e-11 
6.899731921183576e-12 
9.420605752264047e-12 
1.9481665114991433e-14 
2.4501763982575307e-14 
1.386775990484597e-9 
1.7775922862200979e-13 
1.2081839874163611e-13 
8.490057097313414e-14 
3.924145103030332e-14 
1.3076052402050234e-12 
7.264315851177135e-13 
1.0693843273994432 
0.0033503357222403256 
0.09090206822529219 
0.16670526713076617 
1.2168669917449702 
0.2193776804840666 
0.007847829754195226 
0.7895057856119235 
0.7686597486461219 
3.089925911363523e-8 
1.46301467115384e-8 
3.711705423363106e-8 
3.14357256278483e-7 
5.658132781135753e-7 
2.05094951639107e-7 
3.1719613574517937e-7 
7.978301183841523e-7 
2.7691013577889536e-7 
3.819532307758323e-7 
2.95533445782719e-14 
1.2335121903447185e-13 
5.902358269730953e-13 
2.396212705671616e-14 
5.0781005351167586e-14 
1.6679112871377933e-14 
1.5938159319015215e-12 
1.782250718061251 
0.2684199899158993 
0.06080987855455653 
0.022313674438059414 
3.9192828970896683e-16 
3.460027834050611e-16 
9.90533271199338e-15 
6.286919538317907e-16 
3.2609556893309617e-16 
2.260572105357893e-16 
2.433927592485759e-16 
6.28499823961599e-16 
4.436060922084086e-16 
1.8776201820249688e-16 
1.4950483186003014e-14 
1.766603279671733e-15 
1.0260852187500802e-14 
5.7746112047199796e-15 
7.097048197264993e-14 
6.303915304757428e-14 
1.9792701501808047e-14 
0.04134861047174528 
0.42408101240459817 
0.047730285283824864 
0.8374874434592134 
1.0564099672368636 
0.03515760442285846 
0.07267077637995263 
0.004753279785193913 
7.392801716467372e-14 
1.4240168115063482e-13 
1.1584330626294126e-13 
3.284340710031315e-13 
1.8029281561022354e-14 
7.770646560544053e-13 
1.4792674923458956e-12 
5.778694564995303e-14 
6.728241066647217e-13 
0.00011083542519243514 
3.8624249490559215e-5 
0.00011521989110947592 
7.814726731906294e-5 
0.00010800515796052539 
4.523092182995748e-5 
0.00020627619437687384 
0.0001965388412324505 
5.3490795576483626e-8 
1.4487956308013725e-7 
3.6250266816237254e-8 
6.581056246129637e-8 
1.2588310032475752e-8 
1.2378102962446824e-13 
1.1852937883277892e-8 
4.0127408704095916e-8 
8.1833270644768e-9 
5.104874517043653e-8 
5.7501853019576755e-8 
6.290257402086445e-8 
4.194158639448078e-7 
5.572012238516449e-9 
6.548608646427938e-8 
7.155318251687882e-8 
4.3619539744945596e-8 
9.195581032183589e-12 
1.719188401568153e-11 
1.138394462860797e-11 
9.609210842112072e-11 
3.78611819063352e-10 
1.5368615149721044e-9 
1.1581913477526294e-9 
1.0259604169094222e-10 
1.549152931243052e-11 
1.9490721978556356e-11 
2.0197182168584786e-5 
8.191444454134356e-6 
5.326033795780457e-6 
1.6196237867035356e-5 
2.75404507291719e-6 
7.83898184886726e-6 
5.36640913360337e-6 
1.419556707924145e-5 
1.345285807422622e-5 
5.9119464663027444e-5 
2.120931928742901e-15 
4.975602734549773e-16 
1.1946641933720233e-14 
3.888392919461968e-16 
3.4189251729691127e-16 
6.8554043712951354e-15 
2.9093967950110834e-13 
3.4747328156793416e-15 
5.397107100285813e-16 
3.019811253672668e-10 
3.200215887381243e-13 
1.0342465742246624e-10 
1.7121667212735053e-10 
3.287652607292348e-11 
2.04122275736426e-9 
1.6416935878574205e-11 
0.0017573482211489812 
0.0007112705284166888 
0.000286049721167633 
5.908013235401632e-5 
7.362759852949291e-5 
0.00011708197300033337 
0.0003125245501300376 
0.000395528395234133 
0.004689105957325051 
0.00034327610398538746 
0.00016156505311137716 
2.6608906608012133e-6 
3.0579069463084085e-6 
3.953114207353401e-6 
4.722611494981214e-6 
3.814802298925696e-6 
4.590906792526199e-6 
1.5067886128049596e-7 
1.6202469366578689e-6 
2.3368032611723167e-7 
0.0006549937209660241 
0.00015270391864649705 
0.0003471323675118771 
0.00028175854645869644 
0.0005430549634735196 
0.00047981328362136147 
0.0006578036723543391 
0.0003166099584249105 
5.3391550596260246e-5 
3.401350732215115e-5 
3.162682790703339e-5 
3.830149217656906e-5 
1.153964591308463e-5 
0.00011618817791042815 
4.493968409902552e-6 
4.1375513681506785e-6 
1.495290011262742e-5 
3.5333689420797097e-6 
1.7850012921646644e-6 
1.3892874094194022e-5 
5.387425996687457e-8 
4.6582160486477264e-8 
2.1236748276400148e-8 
4.174508670983728e-8 
1.9907370207123725e-7 
3.557807237140248e-16 
1.7905761449804964e-16 
1.3155937275377833e-15 
3.199888060355811e-16 
8.996608510962397e-16 
4.667506859018612e-16 
5.367359649204848e-16 
1.150281700520263e-16 
4.1112026253198497e-16 
3.0167249504371845e-16 
2.4039439457185507e-5 
4.8786428847712635e-5 
5.635525167018985e-6 
3.774017325038437e-6 
4.9517304734574685e-5 
3.048092712204687e-13 
2.1520377149229785e-6 
2.5923784589654763e-5 
2.4644687726929363e-5 
0.00011601606510148118 
1.5159469054162125e-6 
2.265911787586789 
3.177716396661278 
2.9619911807754 
0.24710793881031742 
1.2699474596369642 
0.2298361805070234 
0.30117129869349896 
4.658507068977726e-5 
0.00020463014214730982 
0.0018819487889995443 
7.747814185599763e-5 
7.084694245678906e-5 
3.321834051850288e-5 
0.0002246425662622009 
0.0005205193983732455 
8.283371203570278e-5 
5.598338038223427e-8 
1.0943020668026476e-7 
3.2500663476137856e-9 
3.3989692175992002e-9 
1.924483991981474e-8 
1.2594378333951003e-8 
4.981313920900813e-9 
1.0818527024556837e-8 
9.216824486348757e-9 
2.0157257705657076e-8 
2.2855685234804023e-8 
4.2673878788251564e-8 
3.466644235765517e-5 
1.4968834771725028e-5 
8.332185498981646e-7 
9.819873096532664e-5 
1.1237115086762878e-5 
2.264909361967846e-5 
3.7677863048038714e-5 
3.649718059207922e-5 
6.675209984033545e-5 
0.00018959498094648408 
8.93343071295259e-16 
9.513072245536382e-16 
8.236014283066209e-15 
3.536884500420445e-16 
9.202010506018851e-16 
9.00957561424308e-16 
8.51514917692815e-15 
2.2116872323124984e-15 
2.9483294237569276e-15 
3.683328582488105e-16 
6.28962161216216e-12 
1.490659562490087e-11 
1.6944661279788106e-12 
3.879037165046083e-12 
6.106850518271491e-12 
1.3108042574392303e-12 
1.694388423492282e-12 
1.0926368199852237e-12 
5.541985119906345e-12 
1.2973490078500562e-12 
5.2641242709815195e-12 
6.0943322666517876e-5 
0.00026079778830976274 
7.11298129030454e-5 
0.0003424975802030364 
4.790818611119186e-14 
5.9990624352996934e-15 
2.420424568841077e-15 
1.8819125746255113e-15 
1.8797697186714917e-14 
4.759558657928712e-15 
3.063399075780164e-14 
1.3369556789293644 
0.007067026358473584 
0.9079136425730251 
2.0737166146331996 
1.676142545460941e-7 
3.129266033415542e-8 
2.8784941008174054e-7 
9.206601525929877e-8 
3.312648342377096e-8 
1.1331295464664123e-7 
7.036648939895074e-5 
7.144785989247242e-5 
6.640017961328176e-6 
3.4824427372444885e-5 
3.1895152091872474e-5 
2.3388646703538465e-5 
1.3320221770418467e-5 
6.0346107785680115e-6 
0.00012571720644257017 
4.0717792830233423e-16 
3.7702311299698685e-16 
3.657119876675687e-16 
5.092080374803705e-16 
7.486751906603363e-16 
3.746147236384885e-15 
4.088697112844463e-9 
3.1452072363137443e-9 
1.2697993038948658e-9 
1.8961347332373503e-9 
2.014768431316175e-10 
6.021527697777308e-7 
4.273553059305499e-7 
1.73277173174235e-7 
2.447470361227339e-6 
1.1518729881623097e-6 
7.19777758807243e-7 
1.0479626234766997 
0.2962744772270218 
0.0183275149256833 
3.2884471353739353 
5.595030738084454e-13 
0.29158835137764716 
0.06054839852134443 
0.05303033600054923 
2.2964936120277302e-9 
1.8423450638390446e-9 
9.775531358020624e-9 
3.6293369721917285e-9 
2.466769039494158e-8 
1.350309961466756e-8 
2.292199148842818e-13 
1.2256934486323031e-13 
1.195807003051759e-12 
3.937393889835811e-13 
8.803480982333033e-13 
3.133054495950546e-12 
1.3516177108846686e-11 
1.2754360652850222e-13 
8.739846733385623e-14 
1.8413562220043338e-13 
2.5707094582661004e-13 
5.3071033789041326e-14 
1.075317693470891e-14 
7.464908280751094e-13 
1.1344538404275697e-6 
5.71050052657968e-8 
7.84550692680858e-7 
5.918611592666917e-8 
5.7452705285051866e-8 
1.329072299339492e-7 
4.345416427436204e-15 
2.428636578940141e-14 
5.226164332388486e-14 
4.493519064385673e-15 
2.4262560930102227e-14 
2.4191015338972407e-14 
2.2386699929713172e-14 
3.321003792054401e-6 
4.504517575776355e-6 
2.775122139496049e-6 
1.0348239408996081e-6 
5.148720106295844e-6 
2.7236957544718553e-6 
4.069173405713253e-6 
1.763648009952242e-6 
6.415633355831749e-16 
1.7960612013364636e-16 
7.745932314856706e-14 
2.5129989529903516e-16 
4.744915426017769e-16 
2.855810676162902e-16 
4.0902504392211714e-16 
2.298719765600454e-16 
4.844314434792653e-16 
4.17655088758975e-16 
3.859425771363246e-16 
4.401222686204018e-16 
3.627056220465761e-16 
0.012153602849049308 
0.006158238611954556 
0.012569067033465338 
0.023699995763805763 
0.004509570488890169 
6.962236926343306e-5 
3.545924332974913e-5 
0.0002450907443611832 
5.604418064575783e-5 
1.7417382177291048e-5 
0.00016508188083697283 
0.00014043154234135916 
1.8116153090890837e-13 
2.389542552573672e-13 
1.2773230655121595e-7 
8.129620618655295e-8 
5.218833636922575e-8 
2.3063000725524268e-7 
2.436452298088392e-7 
3.580478700826192e-8 
4.312771093267339e-8 
5.296266014810163e-7 
1.0084737854652434e-5 
1.711273539833226e-7 
2.312635980996139e-7 
2.7769399248078656e-7 
1.6460121580222693e-7 
4.038898729661876e-9 
3.917414597338201e-10 
1.6105613462856518e-9 
1.2190658058064445e-9 
2.0241787447183397e-8 
1.395651195688626e-9 
1.1714085606420609e-9 
3.9272515418739226e-9 
1.533984113368457e-9 
3.6556282318464136e-8 
2.629384581389735e-12 
6.566405432260816e-12 
7.820024583296836e-13 
1.3686934970859298e-12 
3.7171715756415296e-12 
3.477202817290061e-12 
1.4136448616607613e-11 
1.5973746453775557e-12 
4.879771926066226e-13 
4.782999506893605e-10 
9.398443131866628e-11 
1.0519335307019433e-10 
4.257196959446819e-14 
4.974200098394314e-11 
5.046514870149815e-11 
0.004195137312716004 
0.01047535794192019 
0.004964484478582932 
0.0038142493567786886 
0.003620998313164399 
0.000652599610301588 
0.000641254784451945 
0.0012081928481477966 
0.0006337554055637147 
0.0017095227130404238 
0.0006663362371557778 
0.001405396716859433 
0.4442905766021878 
0.0014559952052746767 
0.042485359049156755 
0.006402971724594972 
0.0001028926447320683 
0.004169282047199449 
0.011555104946857962 
2.448460328582633e-8 
1.954129877311502e-8 
1.4884592502116401e-8 
4.447600482174879e-8 
3.7895310507102686e-8 
7.167416769885555e-8 
9.178511696650731e-8 
6.478554762351115e-7 
0.004435979997328698 
0.0006614792950759403 
0.0028001706749471826 
0.0012220822490342255 
0.00014925671664139822 
0.0007949253288233847 
0.0018165039142831964 
0.012898685912130007 
4.4516705321106615e-12 
2.293835485738361e-11 
2.4094415038596683e-12 
5.484424801740626e-11 
2.150474486265466e-11 
1.106871741867824e-9 
8.306733756351555e-12 
4.782833221271874e-13 
9.362202810005957e-12 
8.603697584296713e-11 
7.29993494443413e-8 
9.494836412507213e-8 
3.419601725534813e-9 
1.7147301740965967e-8 
6.244761909001137e-10 
5.504880040547946e-10 
1.9789465960618384e-9 
2.022209813341241e-9 
3.0638019474804256e-10 
1.6886492747873932e-10 
5.969383004384397e-10 
4.490004367662574e-10 
1.0893327671482843e-10 
6.29953010904813e-11 
1.0974888462089973e-10 
3.367168780223851e-11 
5.0543626717964266e-11 
2.396952200375288e-10 
1.9421514171623825e-10 
4.756818016907848e-10 
3.9675451386838575e-10 
1.394135166689368e-10 
1.7580700347736184e-9 
0.8419402250156334 
1.100799444743185 
0.09015040940204404 
0.3532408781371418 
2.2060384621129683 
0.001335460394938107 
0.000297532890228286 
0.0007873595249522614 
0.001341872743757743 
0.0058077723681510636 
0.0010236230775221263 
0.0026449335266834446 
2.13249955136762e-10 
7.581013751983851e-10 
1.778106773222531e-9 
3.4291555262531857e-10 
3.088893190878917e-10 
6.196362406624211e-10 
4.511951847107761e-11 
8.926566926939852e-14 
2.6576802562074e-10 
3.8144647114055313e-10 
3.811953531038022e-10 
1.8339637728075186e-13 
4.0699502121579196e-10 
3.786105893881117e-10 
1.150173874837334e-10 
1.4252374795342723e-10 
2.108757295807238e-13 
0.22663793190534032 
0.3767583416485676 
1.5540603736146725 
1.041528524785887 
0.15534609284005468 
0.8082789211619271 
0.577186104420234 
0.871043167600151 
0.8456585308144584 
1.0119482941447644 
2.2806468419292027e-13 
5.509894675738537e-14 
4.8175113724080833e-14 
6.261613562947437e-13 
4.747323213043878e-14 
2.5170735066789784e-14 
2.3441572486632862e-14 
3.7966197805241316e-14 
1.0603914344364231e-13 
1.2195052407433734e-13 
1.6688267100876543e-14 
1.691814232587135e-14 
3.5789945156640347e-13 
2.2523568711651107e-10 
1.3851155740834912e-10 
1.0738153044900345e-9 
1.3853804757063226e-10 
1.0030384059160739e-10 
7.361292792618629e-15 
1.83779330830716e-15 
1.0170791693606814e-14 
5.299170455070924e-14 
6.305952039090914e-14 
1.9483106563927658e-14 
3.4868563830596014e-13 
1.204251739375235e-14 
4.0899378118958896e-16 
7.628287782200871e-14 
4.3139832417525147e-16 
5.827296708424439e-16 
2.9456327913510153e-16 
5.092536997612056e-16 
2.327562654523675e-15 
1.5160351149932927e-15 
7.818663054075281e-16 
1.1173229331346864e-15 
5.19187852760884e-16 
6.060571284565976e-16 
7.550519534599e-17 
3.285377204521773e-16 
5.267583595799081e-16 
1.7310062547139153e-16 
3.033908620333479e-16 
4.57410486931837e-16 
2.4797445289087745e-15 
1.415372092370722e-15 
4.125096455405783e-15 
1.4715804160899404e-15 
1.0464156700568251e-15 
8.880528147732148e-16 
1.5185069193868307e-15 
2.1977281441995632e-15 
2.316806357824308e-15 
7.036305170120558e-16 
3.8139138957768294e-16 
1.958671457576737e-13 
4.471798065630498e-13 
3.660161115595153e-14 
2.978910903059356e-14 
8.362835245345865e-15 
4.170348339552183e-14 
5.30052331776388e-9 
7.142813899416708e-15 
1.3764438611465268e-14 
1.0286911886991734e-14 
2.3282626270604254e-16 
1.0499006900515909e-14 
2.9954983775785715e-15 
3.953185237373501e-15 
3.837835726226403e-15 
2.1681935236267304e-15 
4.027528671176992e-15 
4.321010438001412e-15 
5.85133626013218e-14 
1.5925895760172612e-15 
2.456089551218006e-14 
1.470478686687212e-14 
2.2454545822638532e-14 
5.178282403535072e-12 
6.978858438859893e-13 
2.6908317586713125e-12 
1.6185115609957086e-11 
3.2470048694840956e-11 
7.430045751747774e-13 
9.235465157708784e-13 
1.984446833040113e-12 
2.219639863800688e-12 
9.369057095678213e-12 
7.052883772906252e-12 
1.1002287156910442e-11 
1.7539191270465807e-11 
2.6965317698290334e-11 
2.5349920094731397e-11 
7.823390775901606e-12 
1.4990439745821134e-11 
2.3982637985147646e-10 
2.538572143062528e-11 
3.5020048521263903e-11 
7.066578784800487e-15 
3.24730068607714e-15 
7.4671240068906795e-16 
2.393287394356418e-14 
5.2672253767617436e-15 
2.767208306989346e-10 
9.011636142912937e-5 
1.0797700050228418e-10 
1.0549672059825229e-5 
0.000188039398383205 
2.3159054803668095e-13 
5.200813855475843e-14 
4.959501684440391e-13 
5.549864859271782e-13 
5.708520464224845e-12 
2.0423351220975448e-10 
4.717429491432125e-15 
3.8529232413735257e-16 
2.3282794797992883e-15 
5.0142531905725955e-15 
7.918585553088158e-15 
8.644698206536624e-15 
1.5540811926901118e-11 
1.4818871698739084e-11 
3.71577850298947e-12 
7.800275027301975e-11 
1.083912925908717e-10 
2.4030479670958822e-11 
1.2526780255336613e-14 
1.1603585033011345e-14 
2.785876112115378e-14 
6.424752805356458e-15 
8.49288372009182e-10 
1.089395603484477e-9 
3.817940450125944e-10 
1.9425904245955269e-10 
1.339062454477748e-10 
2.624445756614251e-9 
4.805290503276879e-10 
1.6701620337127968e-9 
2.4567022362676983e-9 
1.0825581332797175e-9 
7.240242349047063e-11 
1.4925328391245044e-10 
6.846982787304882e-11 
1.3242865658586292e-10 
2.1823421949815556e-10 
7.149781615972174e-11 
3.134820268277584e-8 
3.810485194800934e-8 
1.1608403897123989e-7 
1.9713921543676602e-8 
2.409204131636259e-8 
3.8421215910005896e-7 
1.3468531169853466e-7 
3.4049694571850914e-7 
6.705020410391023e-7 
8.702058645491966e-10 
4.0612347893922585e-9 
1.0025463546794994e-9 
2.929430601855942e-9 
2.8012360340478223e-11 
0.014608228008767344 
0.0155933901611791 
0.014712487157498106 
0.35215379054722734 
4.6726649377615e-10 
1.091238408391663 
0.2961373024311494 
0.08937438812166634 
0.00084570264407501 
0.0013085726817707107 
0.000670665572691766 
0.00015362269972640305 
0.00017352466279766236 
0.0003985038077818685 
0.0006157629645054674 
0.0008018254047801526 
0.0004263701652079703 
0.0009476676346546056 
5.912218247904424e-14 
5.227790895994535e-15 
1.3024001660778977e-13 
1.4378385976515543e-13 
7.283381970201791e-14 
1.440597834890452e-14 
3.5147715244223793e-15 
4.61476649780441e-14 
9.355143703044245e-14 
0.0004442367950403111 
0.00013931459229853338 
0.0004612104241232943 
8.010519649199083e-5 
0.00042493885997109583 
0.0004216155826914885 
0.0005663721572918402 
3.4286028074328283e-13 
1.9565154824525052e-13 
7.480381662085528e-13 
1.6638114041410602e-13 
9.576293193689854e-14 
4.475018026732035e-13 
7.699781640181196e-13 
6.038367764304708e-13 
0.001715235636332401 
2.2749016974669445 
0.060605506208963905 
0.44489654191059036 
0.0010525282764876282 
0.01973415048211977 
0.007157647880686406 
0.016183296416384094 
2.993731006561697e-14 
1.1370295713670773e-13 
2.4192525553390102e-14 
6.504353481235262e-14 
5.999522601872706e-14 
5.35531767587104e-13 
7.044801796873697e-14 
1.2071323720732961e-14 
2.4604262379956147e-8 
9.150044145747553e-9 
7.438384580653626e-9 
4.21026335864039e-9 
2.8474897938840635e-9 
1.5076522484273586e-9 
9.735479857959693e-9 
2.0318077921264713e-8 
1.7042229762658768e-12 
6.227278397607969e-12 
6.637400294126272e-13 
3.657540518407294e-12 
4.1678384390670727e-13 
1.1330883517208e-12 
7.499833595351921e-14 
1.5519805207712183e-13 
4.3250520737779636e-10 
1.1370142117701494e-10 
9.976261981710108e-10 
1.4848708676533734e-9 
3.2120043592696906e-10 
2.1988829406639833e-12 
8.408558579732495e-12 
8.306801264079151e-13 
1.200450208407439e-11 
6.597395935351547e-13 
9.166403567780393e-13 
1.8960597167079093e-5 
5.086205722040487e-6 
1.2384650385177923e-5 
2.3388443410331937e-5 
2.435933591641406e-9 
1.1900013632324765e-9 
3.2170128552526126e-10 
6.7319814851799495e-9 
4.4555235640037994e-10 
5.719563102609759e-10 
3.519254414022316e-10 
6.389057903787982e-10 
7.436909202625159e-10 
1.9763394428786535e-14 
2.9404176316374995e-15 
4.498119363237677e-15 
2.320247717687478e-10 
1.5599388139453913e-14 
8.7776985915924e-14 
0.0016429446512451463 
0.00195964051013553 
0.003012311447372436 
0.0020808729489664875 
0.0013349400892110834 
0.014081786555917342 
0.0014524816173315039 
6.502375807771889e-17 
5.339977300611606e-16 
3.3576870560055756e-16 
2.785389735914314e-17 
6.227030818158483e-7 
4.1216478293869477e-7 
8.897246450657487e-7 
1.4364644604720565e-6 
1.3014689502268285e-7 
3.3727692220275504e-7 
4.1701632402853005e-7 
2.905901633127068e-8 
9.085436898418338e-8 
1.9918580451726773e-9 
5.8665810974762633e-8 
1.317790963212934e-7 
3.378046942469871e-7 
5.6311554228037295e-8 
5.7481291825870055e-8 
8.840084992795584e-7 
8.25967697137495e-8 
6.302757650033394e-8 
6.005469562910936e-5 
1.0116044197123696e-5 
3.7257316991284884e-5 
4.29689712307451e-5 
5.043081521862793e-5 
3.4236108808357346e-5 
2.0619177923601024e-5 
7.277727463341762e-5 
9.726820036705544e-5 
0.00010403010004492705 
1.1419838460318511e-5 
3.792614310993171e-15 
4.49729554981805e-13 
2.3153086371078482e-14 
1.152540670239065e-14 
5.598405096164573e-15 
5.635878755326039e-14 
6.326588029392854e-15 
1.1961344474927159e-14 
3.1829888492704854e-14 
1.2301059094545726e-9 
6.052675492039426e-10 
2.974546177880334e-10 
6.835029486779863e-10 
5.546269839609102e-9 
1.7247690744465224e-9 
2.2412711709729738e-8 
7.105469821645021e-9 
1.6961918705197863e-8 
2.230211236236917e-8 
2.8547510339772753e-8 
1.2908902105313997e-8 
3.244892588836329e-8 
2.154671809139504e-12 
2.1558093279053155e-12 
1.1245853440778542e-13 
1.1552573709883499e-12 
1.7664800445438204e-10 
8.327451139836697e-13 
4.4814344379305014e-7 
1.100671003633476e-6 
0.0012882511460931632 
3.6675291754692856e-7 
6.664804517735259e-7 
1.3191531971943645e-7 
3.5274602625586016e-9 
5.275557577607842e-7 
9.401101768521612e-7 
4.998615266329079e-5 
3.617612174183666e-5 
4.4226747986087015e-5 
0.00021761372970519597 
5.65129782316879e-5 
4.1809511337422985e-5 
0.00012991297839762443 
2.7938466504459624e-5 
1.59381022353456e-5 
1.876117237192026e-5 
0.00015504993471830315 
5.286391960152287e-5 
3.792701628487506e-5 
3.5109961709404355e-6 
0.010702881667633649 
0.0016827608926708241 
0.06093542145640033 
0.07999214220347867 
0.006766726251970507 
0.01590963154910018 
0.05604615555473763 
0.005022509780940476 
0.02477619175184092 
1.0388373394458014e-10 
9.349310970299327e-11 
4.921771733442185e-11 
1.7236881222104578e-10 
7.111505910270965e-10 
2.9620898306213097e-12 
2.3535181636133806e-10 
4.6067879453685805e-11 
7.980970144708428e-12 
6.015311969414535e-11 
4.413150824010502e-11 
9.172118528992374e-12 
1.4879539644254483e-11 
8.936909312556282e-11 
6.382542095050076e-11 
3.1417833218498844e-11 
1.3798164387607135e-10 
0.184058690263711 
0.0006457539327991548 
0.010240746338346457 
0.1904749083134709 
0.007127090185159702 
0.012614777213062981 
0.0011495791248674447 
6.567550096279982e-10 
5.046449008148927e-10 
1.4941399081313156e-10 
4.73246994403406e-10 
4.563097065528424e-10 
3.3842058550410904e-5 
2.377448600329593e-6 
1.878514063936402e-6 
2.409593151197185e-6 
1.7241950058199768e-5 
5.756944971911506e-6 
6.201090636928551e-11 
2.6723851971350134e-11 
1.373385576294777e-11 
1.5038159630302243e-8 
5.548294287301056e-9 
8.800653503599248e-8 
1.7147278911884907e-8 
1.1868511814637892e-8 
9.485991401711872e-9 
9.608760797342283e-16 
8.439685692926447e-16 
4.443000053174759e-16 
3.38354076145977e-16 
4.452796291544484e-16 
6.47353911862611e-16 
1.1380941060947989e-15 
4.750868481418239e-14 
1.8166078760956763e-15 
3.160159424818205e-15 
7.635878874858265e-14 
8.91135772992687e-14 
5.990043627885024e-14 
7.80922456928394e-15 
4.646227504426776e-15 
8.592776339807015e-14 
3.2876165247483063e-7 
2.731059272217431e-7 
2.4175871507310336e-6 
7.32485227833472e-7 
1.7528889526300235e-7 
3.797664669401008e-7 
2.199840811113983e-9 
2.0582571563581447e-8 
3.39163051648423e-8 
5.1854306782616595e-8 
3.284708943122375e-8 
2.4782642541771947e-8 
3.7194761369363116e-12 
8.3927487343250995e-16 
3.683446168078922e-16 
2.4838058736377472e-15 
3.742490306129005e-16 
3.6294728684302683e-16 
3.089200046931273e-16 
7.139011314870575e-16 
1.9486017877184326e-16 
2.703981263715936e-16 
1.113713823962431e-13 
7.511401673195604e-14 
1.8121443723288726e-13 
4.863344227036446e-14 
3.523643105910749e-14 
3.617478007923867e-14 
4.361754751848928e-16 
2.4377989150379336e-15 
2.0849543019006284e-12 
2.0302649384236953e-16 
3.340896503584508e-16 
3.7851179562120014e-16 
2.6987676328794254e-15 
1.2644005480795032e-14 
1.2048762183746443e-14 
1.05604767527923e-14 
7.11585423330045e-15 
7.801577906701925e-14 
3.720139944255223e-14 
3.0614426251589565e-15 
4.686418576904678e-14 
1.271078752343326e-13 
3.7095655612462147e-9 
1.8227066744153096e-9 
8.299482600226152e-17 
6.416095198725732e-17 
2.470201913700872e-16 
4.2078420853555737e-16 
7.805672448566223e-16 
4.16377554835186e-16 
1.0696535474052176e-16 
1.8821227205229761e-16 
1.6585810515468975e-16 
3.920130642856475e-16 
4.713861737711354e-6 
1.4328759715546202e-7 
1.3373712204479888e-6 
2.9644578385413133e-7 
9.698460861596137e-8 
1.4269561880713255e-7 
0.8295557556196598 
0.7664366166485219 
0.0058117379249421845 
0.47648761055362054 
2.6934006291155546e-15 
4.437564503064979e-15 
4.775664937323121e-12 
4.1315463518824294e-16 
5.544628352845186e-16 
1.5841809224850967e-15 
1.2192114918610795e-14 
1.7484785597476144e-13 
8.903888165883378e-14 
4.949813865601941e-16 
1.8043568350473624e-14 
6.653613193932417e-15 
2.3468775403465293e-15 
2.9204405213822156e-14 
1.6631295569637918e-12 
1.0164644246611042e-14 
1.2279227785304658e-14 
5.879734714015692e-15 
9.577677831154594e-15 
1.7017598299251097e-8 
2.5797506707782294e-8 
1.9843305794189856e-8 
7.929981056779121e-9 
0.06614523610795373 
0.018641687839876867 
1.4519483425533435e-8 
0.01122569776231664 
0.10669011977029717 
0.0010981530800263286 
0.40507805468784386 
0.7425882746898887 
1.1817267846816164 
1.013120782595923 
0.9816043845461326 
0.31572153593309293 
0.9227109718947643 
0.5282283058263791 
0.33169080505852244 
9.30657016957166e-11 
1.7820869541335128e-10 
2.862997696312871e-10 
5.944698059146144e-11 
2.0866955262169468e-11 
0.0010729056340506805 
1.761085950574913e-10 
2.9066628574900266e-11 
1.1733758168938873e-9 
1.809270839762815e-9 
3.3606966893555325e-9 
8.435408269553497e-10 
7.828090965995044e-10 
2.7578959485406997e-9 
3.857565083520197e-9 
1.7900909553289562e-7 
3.9877491310812984e-9 
0.00026965156614335635 
0.0002768153031204208 
3.823087942393354e-5 
4.484259278222168e-5 
0.0001713908546855347 
1.610675161782716e-5 
1.749762052962985e-5 
3.219792178895665e-5 
4.860245030955966e-5 
2.320799077441811e-5 
0.00012034431887735982 
0.0001135667437084012 
6.142232082540835e-16 
6.004080549990641e-16 
6.088156662994068e-16 
6.725716832976981e-16 
2.22433951116373e-16 
6.613385208096197e-16 
1.6124742030388273e-16 
3.409277615938344e-6 
2.7229349601967556e-7 
1.1048137764000624e-7 
6.715526227252105e-8 
7.95725691431782e-7 
1.9422867204693064e-7 
3.4678885026211827e-7 
3.7794339086247416e-8 
2.0631091793417153e-7 
1.552163862632823e-8 
2.0344657295713373e-9 
3.24736758323789e-9 
8.429008032565455e-9 
5.925902773853464e-9 
5.843720255041708e-9 
3.2649869787132388e-9 
1.2285270635584547e-9 
1.5237054030327062e-9 
1.1647903495005711e-5 
2.185588056321882e-6 
7.631764930198012e-6 
6.5862886544363255e-9 
4.040025722039039e-6 
5.195904128184076e-6 
1.4597529830305993e-5 
1.677666917492898e-5 
1.0199364400581736e-6 
2.312385375665632e-6 
2.2982688914681503e-16 
9.825549412865705e-16 
1.0109401711865364e-16 
4.4757570972831267e-17 
8.654557286970745e-17 
9.305337845351439e-17 
8.479830677196185e-17 
1.3921568515410296e-15 
1.5090250343614292e-15 
9.371232894971526e-9 
1.2073925305483876e-10 
1.9334761386259273e-10 
5.182548415716043e-10 
4.098597381951192e-10 
9.660002477182854e-5 
0.0003146452330628742 
0.00010649300030413905 
2.3220605193714605e-5 
1.4907089559385266e-5 
0.00012183545073379809 
0.019257553132653614 
0.048278678571869356 
0.045936836031342985 
0.002458704791219052 
0.007594834849194561 
0.7974171914208564 
1.2366004121466547 
1.6281856749734505 
1.6017361131526477 
1.9378701761811572 
1.471060703365423 
2.693442143450825 
1.6304109240172968 
0.9160494066648216 
0.05789787658040213 
0.023355694792196114 
0.016873315071686792 
0.2694305949062004 
0.015468318133484288 
0.01605718059984313 
0.002096692436789668 
4.850442078772637e-6 
3.693770398049939e-14 
1.7780242415623382e-14 
1.7389180889918835e-14 
6.318969266588828e-15 
1.248947079047182e-14 
4.2092532617735864e-14 
2.89295619368564e-14 
0.5701596450186225 
1.1593462031770205 
0.029790457401303625 
0.16815203725677128 
0.008573583245863181 
1.4450720484832613e-6 
0.19717867610419207 
0.49293673151731277 
2.279671203559212e-6 
0.4708592385153193 
0.05081193225476097 
1.4341817043039347 
0.009290420313530699 
3.1805876322953813e-16 
2.2842328020319932e-15 
1.5973584151254483e-15 
1.1653470848395712e-6 
3.745782111784984e-16 
2.6676049112375635e-16 
7.773376409288582e-9 
9.344795342263038e-8 
4.961279619488708e-8 
2.0738178481149076e-8 
2.1657404751998004e-8 
3.031503678619396e-8 
2.8843378762672718e-8 
1.3695793038279061e-8 
0.014605580813124647 
0.006623903277372852 
0.08093623888084493 
0.05109384280976688 
0.004608602476509438 
0.0604415790346134 
0.04931998900383804 
0.00018446133349135296 
0.00017265869704453848 
0.0002007413799788862 
0.00023974881232832434 
0.00017958885816236553 
9.197674150429872e-5 
0.0003589779656300997 
0.0029026041289004377 
3.3696318180186882e-15 
1.7187147272205746e-15 
3.1911114583844117e-16 
2.106472570210011e-15 
7.958955869781315e-15 
7.17627743539567e-16 
0.02796122134631274 
0.01126845627243575 
1.5433893667644677e-5 
0.030003582337742148 
0.08088985264740692 
0.011576025420061203 
3.378585187195548e-11 
2.2790061004844656e-10 
4.39754695788168e-11 
3.082276862426291e-11 
6.846888114649604e-12 
3.7348902257860294e-11 
0.4535562537264352 
0.03506631832996404 
0.00931902152094715 
1.2194923541348417 
0.06361960969035578 
0.08439867421075607 
1.7484404928176624e-16 
4.577308163142532e-16 
6.3315117820937385e-15 
1.993919656147304e-13 
3.129356064263248e-12 
1.8471321032467776e-12 
2.1129057499087633e-13 
3.738464117481192e-12 
1.999088951172484e-12 
5.078314233051054e-12 
4.2747528271472015e-12 
1.3011831845230478e-11 
1.1486053191301723e-8 
4.4264502324046125e-9 
9.167370622849666e-10 
3.959146540343733e-9 
9.616727420454517e-10 
1.0345810191068695e-12 
1.6251572234385354e-12 
1.5103138821078898e-12 
1.3796920858279717e-12 
1.2576151406291192e-11 
4.440760213251854e-12 
1.2773685953243832e-12 
7.797684062643277e-13 
0.0018184003998684781 
0.0025587279004549587 
0.0012701027642475686 
0.001302806077827938 
0.0036684680858745967 
0.0010467883598179334 
0.0014419310992869795 
1.0932906740676969 
0.9629725619172578 
1.658974258002911 
0.39233888218513774 
0.045627578555444026 
0.7129723456959449 
1.2385287054806622 
0.9194571427791116 
2.0765348376077117 
0.17801650203499422 
0.3104467290213251 
3.7332740570232253e-7 
9.808752116118285e-9 
1.0966909329190692e-7 
3.9919210926445564e-8 
5.140157198068946e-9 
3.241101990966399e-14 
7.727338518730423e-14 
1.1624918897215606e-13 
5.123712436776491e-14 
4.201072100373061e-14 
2.5373642261781596e-13 
4.268950108974114e-13 
6.506517210849595e-13 
1.1474049459187637e-11 
1.889344183782276e-5 
6.078481627249058e-12 
1.9036661269290155e-11 
1.7377930637775445e-11 
7.679969320343718e-12 
3.9094064476073275e-12 
3.205389963320167e-11 
4.2151029809623314e-10 
5.920285072163402e-11 
2.4948126852428775e-11 
1.007762954402301e-11 
0.07080141193694964 
0.8401734618546606 
0.06024104261006768 
0.3643371365450501 
0.514299362574205 
0.5962894817710123 
2.3521951560951975e-11 
6.171620684109524e-11 
1.1395422822717163e-10 
9.602797435551201e-11 
3.820805386560423e-11 
5.832818200847112e-11 
4.421925479798778e-11 
2.9062479184767774e-10 
6.358895235684093e-11 
6.420493068434912e-11 
4.102443103144418e-16 
2.7588571890795866e-16 
4.688357819352839e-16 
5.052067234904899e-16 
1.213464658107514e-8 
3.2958471932229325e-8 
2.3778950850290713e-8 
4.501676852831068e-8 
1.7385300218643843e-8 
3.1281001699866666e-6 
5.518483127121767e-7 
1.3650629977925114e-8 
1.5896153750165876e-15 
6.095130004675212e-16 
2.6653805243994724e-15 
9.178996439042648e-16 
1.735413545328107e-15 
2.2411526861476636e-16 
6.246566412106227e-16 
1.3868261600726344e-15 
0.00034475454889382434 
0.0004192537362868545 
7.015863326271206e-5 
0.00013658680535394782 
0.0003528841890879848 
0.00019824147566768207 
1.3536795489165119e-5 
9.704300085111035e-5 
0.00017262620572150656 
0.0008854269465088872 
0.007281671404557179 
0.0007815886578554572 
0.0006337254919672182 
2.4462403221405373e-9 
1.4136057524279893e-7 
3.69821592394636e-7 
4.33818080832042e-7 
2.4619930045538516e-7 
5.855209553352774e-7 
1.5044410093547035e-6 
0.0778055782239234 
0.01998576100366422 
0.02027119910845317 
0.832215083381849 
0.004916823154750838 
0.0646493151747002 
0.017492174454906625 
0.021115898358676072 
4.710293331508698e-13 
1.3568410532902676e-13 
1.3552540411433242e-13 
1.502649059704299e-14 
1.1400274355540536e-14 
7.962617264104731e-14 
6.367782376319744e-14 
5.689443679938475e-14 
1.7740940436294203e-14 
1.3270950584630308e-7 
1.2400730911354727e-7 
3.5083476061660706e-8 
6.790824647525876e-8 
1.222236792390664e-6 
9.371039002856189e-8 
2.733955109530654e-13 
6.651389123499465e-13 
5.670572227624858e-13 
2.6302968137767087e-13 
1.1657096706634918e-12 
2.525289503284403e-12 
2.6835342065785075e-13 
4.3476422468065666e-14 
1.194394442137742e-14 
1.1342968242206875e-13 
3.747736603847516e-14 
2.499127813842522e-14 
2.1220578190698052e-14 
0.7024395305800365 
0.009162250562293788 
0.27216515060173835 
0.003231662026511833 
0.013392616266876912 
0.01628334918591504 
0.0015283901481655286 
0.47610233745473074 
0.0782896810653058 
0.014776296298978775 
0.04916791722767055 
6.907132719240318e-5 
2.2700638122972533e-5 
0.00013488636409174267 
4.2882030685504126e-5 
4.778582522128417e-5 
0.00012495037092305264 
0.00019641404080443926 
0.013922870239745467 
0.012925202897181668 
0.026257933095121255 
0.05067678280953062 
0.202882972876864 
0.046954223385838524 
1.0621227294929165 
0.005955934553672728 
0.023565012220759393 
0.04304698658961214 
0.05496715636745616 
0.0397672429279899 
2.93943258708864e-14 
1.0854943770966496e-13 
5.755096696056294e-14 
5.889461891044189e-14 
9.031758763975833e-14 
7.559099204740586e-14 
2.105032415745719e-14 
1.0021002215502533e-13 
4.975417162088785e-9 
1.3341787298344365e-8 
3.829771485533627e-9 
1.6928862107148342e-8 
2.394690593686971e-9 
4.6361375918415384e-9 
9.019881037682293e-9 
1.170242368495407e-8 
4.341755848419119e-9 
7.0694132894247255e-9 
7.2577003189215315e-9 
3.2700609980709286e-15 
4.6232057730267185e-15 
5.473992716778341e-15 
1.2805205588168353e-14 
5.308239889981908e-15 
9.894161138932442e-15 
3.3544050522177323e-15 
0.01053220778187927 
0.05609679958376993 
0.0084288051757111 
0.008827006307271616 
7.992482453978018e-7 
0.03371827736708937 
0.01085567781552281 
0.04858902744143818 
0.07148932542807662 
3.892064123386109e-6 
4.554088301218029e-10 
2.3524337821299793e-8 
1.0473338250345937e-8 
8.49975728190856e-8 
5.382690812209658e-8 
2.296536579916253e-8 
2.0780833456617564e-8 
1.7769884511458987e-8 
0.7289607906382812 
0.2888635177234674 
1.0316564817118383 
0.5023515612519879 
2.263971972970665 
3.7168348889233016e-17 
1.890880695031473e-16 
6.834588632642241e-17 
3.468307822132641e-17 
2.0438098476910674e-17 
8.431270535601472e-17 
9.099749041643519e-17 
6.889162936355625e-17 
3.686956504037832e-17 
7.647536713763198e-14 
2.8548238504414245e-14 
7.605216145972538e-14 
3.485167316640516e-14 
7.837861950448305e-14 
1.3738736938021023e-14 
1.818487411336262e-14 
0.012853018196934221 
0.030783985637266274 
0.932359078460983 
0.3991640361037836 
0.07665128908570541 
0.2371318199064202 
0.7608755942860161 
0.006482839414958031 
0.26166029250248984 
0.0851087380718269 
0.2576895006563667 
0.015660341080220207 
1.2127784856364378e-16 
1.1120364939743306e-16 
1.1829957887531245e-16 
1.1025307723865381e-16 
2.749293632364428e-17 
6.536522088810436e-16 
2.640717216986858e-17 
3.2963929207191735e-10 
1.333729097769891e-9 
2.356284913896247e-9 
1.3231647152348521e-9 
9.624081435892177e-10 
1.0533774696972158e-14 
2.1048999519484058e-10 
5.442037932337999e-11 
9.226158248669899e-11 
2.778920194196129e-10 
1.3095000790119825e-12 
2.2842424029518556e-11 
1.2220205107401013e-10 
9.453302955723127e-11 
3.475994496082408e-10 
6.753689679180083e-11 
1.382144332364282e-10 
1.4033970603657901e-10 
3.8475302440308434e-5 
2.6797857472725753e-5 
1.611760259353343e-5 
1.4457497280572277e-16 
2.740942994702075e-16 
5.509551350813633e-16 
7.638515202082275e-6 
6.460257086316829e-16 
3.7067256358918395e-16 
9.77509610181962e-17 
3.1774574714621867e-16 
3.6102046134676854e-16 
0.0017475700543942757 
0.0008393549739575749 
0.0001532497122312976 
8.950081467809939e-5 
1.1692589889791659e-5 
0.00010112904982263362 
3.2099392318871337e-6 
3.60800240743601e-9 
3.6092493285325253e-7 
2.368701063125554e-9 
1.6365539691314e-8 
2.651358272424367e-9 
6.723180650092862e-9 
3.810071095131937e-8 
1.1680506463014464e-7 
1.0479458896013893e-7 
1.2661203732759834e-5 
9.17569538283613e-8 
6.02552348665532e-8 
3.8534997262982895e-8 
9.216313647828846e-8 
4.396956352195269e-9 
1.466119795010988e-9 
8.136620002368274e-10 
1.893993998075041e-9 
7.093147615699421e-9 
4.207301402085958e-9 
3.1136705763406483e-9 
3.3214520712811053e-9 
1.9264643060828547e-11 
4.860429131468123e-12 
4.1312574916139716e-11 
1.666997729983854e-12 
0.0013514360371112305 
0.0006241630140535886 
0.0006170575142112152 
0.0004061044730711474 
0.000217468526268483 
5.5196093788397015e-14 
1.3011613191679536e-13 
8.274066563901296e-14 
1.901404071074812e-13 
1.778988695649987e-13 
2.4237100476719283e-14 
9.427065248830289e-15 
1.8546217979213042e-14 
6.350306431862646e-15 
3.772930073519158e-14 
3.847673735890626e-8 
1.9095647887301896e-7 
1.4431881144113774e-7 
8.393305511905837e-8 
2.2391366785966632e-7 
1.0193827251735722e-8 
3.2175947814463805e-8 
8.28063075866359e-9 
3.7919863386750556e-8 
5.1197423345417314e-8 
1.869393877513901e-8 
2.9706762933041622e-8 
1.3346128456543162e-8 
9.08751683407081e-9 
1.6642785926733708e-8 
1.1250227464721069e-14 
1.260317352015724e-15 
1.2561693545100545e-5 
3.026878730480187e-14 
3.709354398970425e-15 
1.8833450947969577e-12 
1.2703741960762806e-11 
2.877311390542365e-12 
5.215453860676112e-12 
3.0392655603581973e-12 
1.3562323534147179e-11 
8.18308519003174e-12 
3.693372721158624e-12 
1.5931552064863324e-11 
8.17029635942115e-11 
2.059174087348498e-12 
5.573862240320907e-10 
2.703719209142547e-10 
2.0785050159723147e-10 
6.544474622757338e-10 
4.357631613527211e-8 
1.5088470532760338e-9 
1.9230310232177397e-10 
1.8981933826599095e-10 
3.9390853915423987e-10 
4.772637656052224e-10 
1.9872835221829875e-10 
5.213233764291061e-11 
6.445279035234297e-11 
3.360407639456179e-11 
1.350295964395351e-11 
9.352983970231948e-12 
6.808323144446615e-8 
1.6815870643446923e-7 
2.8343239468535293e-7 
3.286600822349123e-7 
1.8553301499309885e-7 
1.9551068790602e-7 
2.0868724249847198e-7 
1.5071448794924444e-7 
3.605006579314592e-8 
0.0013042199771871993 
0.000564340679064833 
0.0010636782256979933 
0.0003928602265539929 
0.0001635594522217404 
0.00047491406016531246 
0.0008080486281776303 
0.0005899622325550523 
0.0006600503624609993 
0.00076612910352726 
0.0034454874025317997 
2.139454885757842e-5 
0.002869110063084899 
0.0003166486954286531 
0.0009702293545746735 
0.0014030765104392864 
0.0005568160769615621 
0.005107126957901673 
2.566149581555938e-13 
2.755923042015543e-13 
4.740586196202403e-13 
1.263039336259042e-13 
2.5711102881841366e-12 
1.3028797416667762e-12 
9.017756207737769e-11 
5.0108651127416063e-11 
1.3852190527575288e-11 
3.532901055841315e-11 
5.228641991728457e-11 
2.3259319959521705e-10 
9.319390784213438e-9 
9.992914211095435e-9 
7.31766902647341e-9 
2.691857331568322e-9 
1.3273236209490462e-9 
6.747000913043551e-10 
1.0717514944738212e-9 
2.5074353416476866e-11 
1.3602351041937041e-11 
2.229079259783368e-11 
3.123533380491568e-11 
1.4511596157528918e-11 
3.4533930608614424e-11 
7.952157785375759e-13 
1.5900947044068465e-12 
2.197335284665921e-12 
1.3936151691259462e-12 
7.740717825091467e-12 
1.6194063395432776e-12 
1.571642067776329e-12 
2.8314078015271653e-13 
1.1606503099021717e-12 
1.3149262461142248 
4.3093751510304825 
2.888828194231641 
0.5021941384299471 
0.43139391081017187 
4.392075128927715 
2.665787151725774e-11 
2.973643668979151e-9 
2.1728417468289818e-11 
2.2292039269340676e-11 
3.102003804233828e-10 
7.194985500861617e-12 
1.3242203144489686e-11 
1.495093805473802e-11 
2.259847011251717e-6 
5.551852976102535e-12 
6.756513334388882e-12 
8.01626980001476e-12 
1.0182342182617617e-11 
5.668939462954666e-12 
1.0542035770475345e-12 
4.229711728842456e-12 
8.799075522430011e-12 
4.77808758166256e-11 
4.898856122949683e-10 
4.4138259910411643e-10 
4.272454757411931e-10 
2.644437359467785e-10 
3.6380936430370735e-10 
2.941996797059118e-11 
1.4655483969034742e-10 
7.217362238798665e-11 
2.1701681443759845e-10 
3.3890854639707986e-11 
3.9031429504585936e-11 
1.154361333219491e-11 
3.3022563712856916e-11 
3.2312664019510414e-11 
0.0005999627337995596 
9.40779952513376e-5 
0.00201056360668868 
0.0005120758111929815 
0.0004227560252557212 
0.00023494019045781022 
0.0010345992003576942 
0.00031097475679169934 
0.0002602634325328835 
1.3779775968843158e-9 
3.4610197925319107e-9 
1.7969928590883278e-9 
1.7478457341889203e-9 
8.851745735678437e-10 
2.604690315491679e-10 
1.2667276725361444e-10 
1.969878459670929e-10 
4.420909427140003e-10 
1.2642753089089842e-10 
1.7877930003537726e-8 
3.090201856938119e-9 
2.101789553852319e-8 
1.9247033360299514e-9 
2.107066317340039e-9 
9.777561952999506e-9 
1.0881882566077416e-8 
8.665280091345964e-9 
1.9622853125884332e-8 
3.4050766965250096e-8 
4.5511209093814564e-8 
2.2633442916058686e-9 
0.8815885391611292 
1.3195685825817718 
1.0616781274472376 
2.6407590756292786e-11 
4.438782113839091e-11 
3.691464724529098e-11 
9.582343958260503e-9 
5.677537882839801e-8 
3.535546469656823e-8 
2.2292221077692244e-8 
1.1383091338771807e-7 
7.626023025672388e-9 
0.22604294465211644 
0.053329619057277976 
0.4508462392137904 
0.2335077877446121 
6.336119409426911e-15 
2.1629066468252988e-6 
2.7887818693450624e-15 
2.168758956437525e-15 
3.853530913786013e-15 
5.93388398903418e-16 
2.9308670808959842e-15 
5.226812757591429e-15 
5.2322108968476256e-15 
1.9952685836371857e-14 
2.0167810378437204e-14 
3.5449045336777984e-14 
3.5802995017533835e-14 
3.787287087566468e-13 
6.631550432200628e-14 
1.840270027618604e-11 
1.2733788699552814e-11 
3.2866176173041893e-12 
7.476703546975425e-12 
1.3381831720887557e-12 
2.137164524795216e-11 
1.800465023177452e-12 
6.28217626651221e-12 
2.265794768316307e-12 
5.765694460233215e-12 
1.7414572529313861e-10 
5.523564642333317e-12 
2.3210390738537093e-12 
6.896557254104015e-13 
1.1082847151298221e-12 
4.1319244332683784e-12 
3.663545403321719e-12 
1.214647837633707e-12 
2.8005228000870646e-6 
7.020413203975336e-6 
1.4818393543688439e-5 
6.726748676591805e-8 
2.4549291444079517e-6 
5.637922942059176e-6 
5.676512187384939e-6 
1.2487211896245846e-5 
3.7967454361839807e-16 
2.158028322161864e-16 
2.4790788355365815e-16 
4.044732933231857e-16 
8.567152170774652e-17 
2.531853937667229e-16 
1.8137708152770675e-5 
7.440372661329476e-5 
1.950186765054302e-5 
3.079061778396754e-6 
3.170469124813607e-5 
1.4193471996669775e-5 
1.2096952277900544e-5 
3.87688856389232e-10 
4.139600931279549e-10 
3.707953248712581e-10 
6.153774440630757e-10 
2.739288966830415e-5 
9.561655299603704e-5 
3.604566413129354e-5 
0.0014662903698798484 
0.0001097326757810859 
6.491880023879838e-5 
7.094310923538705e-5 
3.3163466583378466e-15 
8.48004694867881e-15 
1.9576612835019443e-14 
2.5921314132181947e-15 
7.978700168027461e-15 
1.660901603268309e-14 
2.6847550759146563e-14 
8.113867330106899e-9 
8.345270806975285e-9 
3.90957780911666e-8 
1.678565847560036e-8 
0.7563279002435149 
3.6800565452658777e-5 
0.00021581940681307402 
5.026304976330035e-5 
2.115812396124229e-9 
4.575158536795366e-9 
4.532264677649714e-9 
1.0153710487530367e-9 
8.973337719794995e-10 
3.92540581173362e-8 
1.66136865230441e-9 
6.177695248006935e-10 
1.4040390718338453e-12 
0.0012032738378665215 
0.0008376781303375072 
0.0007179999402091056 
0.002739326663491665 
0.0007367510787646768 
0.0034314195140475383 
0.006678479858247197 
8.134049886164492e-17 
1.0954704056270811e-16 
5.2263293820867316e-17 
3.442819956028244e-17 
9.000102555352591e-17 
3.350340040699558e-5 
3.1550177172675004e-5 
0.000301635881959696 
0.00010511211553202154 
0.0002800768514552653 
0.00010768665054008815 
2.7618506972695745e-16 
5.224306835707743e-16 
2.492743974551484e-16 
6.585586670174664e-16 
2.9282546403235516e-16 
1.087667476468176e-16 
4.768170102337362e-16 
2.895687294005152e-16 
9.717367280545228e-16 
3.9388818200465383e-16 
6.47593425026604e-16 
8.430266992904458e-16 
5.511749222662038e-16 
4.785756724185623e-16 
2.9685464939795805e-16 
6.796475126553216e-16 
9.210129773137498e-16 
6.504229074585222e-16 
1.1846516414715436e-15 
3.953035289144567e-16 
3.8273954682059026e-16 
3.188839804530171e-16 
6.827970260600886e-6 
1.2160493661176493e-9 
1.0901967392451334e-9 
6.27698650178708e-10 
2.616573813592931e-5 
2.025125690243727e-9 
4.254537767006767e-10 
6.377686871767644e-10 
9.888536445872778e-10 
5.693589652839805e-10 
6.117357963930002e-12 
6.459047163962273e-12 
2.02750980494842e-11 
1.0962205194154405e-11 
1.4183708510265384e-11 
1.0259298279578724e-11 
1.1525710764183149e-11 
2.3882237082727136e-11 
1.7781014609275554e-11 
9.962076087050389e-11 
6.463269047655912e-11 
1.4493801552054917e-10 
1.0300165633676222e-10 
1.5992233685720512e-11 
1.2718152565873388e-10 
3.999121161096558e-12 
8.084045852030611e-12 
9.206272210105823e-7 
7.553693635920918e-12 
7.0491891382436185e-12 
2.340146831151615e-12 
1.2286193068237197e-12 
3.595058754549508e-13 
1.1880366781549335e-12 
8.714986306769979e-13 
2.089961394268508e-13 
4.906563232028792e-13 
6.391083022070688e-13 
2.0733474451327826e-13 
2.61990194398081e-13 
2.2937852719502345e-13 
1.98755030594469e-16 
4.483885284954559e-16 
1.0038094710938905e-15 
2.0323123702394774e-16 
6.425881149915692e-16 
6.37959553871798e-16 
1.1801113116016587e-5 
2.455206580824453e-5 
5.1207553988914915e-5 
2.7072908972749195e-7 
7.985697479621404e-15 
6.8824312605263326e-15 
6.326416799214264e-16 
5.297558751715252e-15 
1.8017802902342083e-15 
1.6873481032708012e-14 
1.2799945833388456e-15 
4.797533234081344e-15 
7.050017574635083e-15 
2.5723045999531594e-15 
4.389976973241206e-11 
2.175127967963823e-11 
1.700062302284303e-11 
5.0059585702995515e-11 
2.1674341219030037e-10 
1.2185069077192169e-10 
1.490653063321668e-10 
1.3932566621471576e-10 
2.5481939747298954e-11 
2.956966788164543e-11 
7.231025460981255e-10 
7.691549912965831e-11 
7.804992286380945e-11 
0.0026503017487426923 
0.00538628697195215 
0.005915733036115079 
0.0012000066388541267 
0.0008964217515457559 
0.0005287564548096075 
0.0018523919549770632 
0.0032352300260228084 
9.833147986541863e-9 
3.012045761766012e-8 
1.5414915044026776e-8 
8.20509013504042e-9 
4.468235198678513e-9 
1.3171182157491338e-8 
1.0121882844012704 
1.0081540090745291 
0.4582976791366608 
1.1014871344509458 
0.18299438056910186 
4.48365163947057e-13 
3.654705774665932e-13 
1.4844690653307903e-13 
8.858297991842972e-15 
8.006056904829267e-14 
5.737249087134902e-14 
0.00011700075942428551 
9.42665462290315e-6 
2.049488525952194e-5 
3.35393246351176e-5 
3.894255999416205e-5 
8.29227206493448e-5 
0.0008142419783636369 
2.9469372469442005e-14 
1.0758590380384618e-14 
6.054007885422614e-15 
1.7775718954499994e-14 
1.8998581862835498e-14 
9.979574416642939e-11 
6.935744843817452e-11 
1.6061397786251724e-10 
4.1965334630095886e-10 
3.7894589859218056e-16 
2.4845032442573703e-16 
1.0484772393994396e-16 
3.4331150769709416e-16 
2.2412645763449305e-16 
3.7259403490826333e-16 
1.2588438223120614e-15 
4.134065794007168e-16 
7.264413660647334e-11 
3.928883185412799e-11 
2.3120579191771414e-10 
3.243831159761829e-10 
4.994044597658009e-11 
1.3426112394665613e-12 
1.326944766057326e-12 
1.1398397569398343e-12 
5.990354429955207e-13 
3.395311612450345e-13 
2.3957093768788007e-5 
4.639957617604906e-5 
1.1914728997527105e-5 
6.97727159549317e-5 
1.5491925821631383e-5 
1.716132205947842e-5 
5.9583086887972405e-5 
7.241115895875899e-5 
7.223338723289796e-15 
2.7226379757562826e-16 
1.7100279371164953e-15 
8.330679517193189e-16 
6.194512437961191e-16 
5.756688842873893e-16 
5.56290121336584e-7 
9.481647830714999e-16 
8.490105959266509e-16 
1.8511085678071088e-15 
0.0006589640452934473 
0.00026820482592316105 
0.0034931713276922425 
0.0009174174819536049 
0.0016805845860456414 
0.002554649388623107 
0.0018923669868273255 
0.0010238819259910765 
0.0023391832470454482 
0.003832810060801163 
2.735293592865745e-12 
2.8667659139595388e-12 
7.090200123671149e-14 
2.840242267061898e-13 
1.2899394076474361e-12 
1.4144180554177818e-12 
1.404189994421626e-11 
3.9536710452811304e-13 
4.2018530379416934e-13 
6.996330243812395e-13 
2.177200049695219e-12 
0.9250243025408459 
0.062210907254814346 
0.027158995415939 
0.8860083774314786 
0.04063075457975254 
0.26712606391857624 
0.256377063190087 
1.9003596594739536 
2.444715468143748e-12 
1.8320734137592882e-12 
1.9123849362846794e-12 
7.617083061886341e-13 
3.4999176950505064e-12 
1.4853981966165178e-15 
1.4654940679314634e-14 
3.847217571267221e-15 
2.9735394007991665e-15 
3.843847683114316e-15 
3.770433804667637e-7 
3.710913182628634e-15 
1.1120582697218054e-13 
6.24846605415826e-14 
8.902176308472927e-14 
2.2134827080160128e-13 
3.286289396352162e-13 
2.2560993650661424e-13 
2.0516362282804094e-13 
2.403258092475546 
2.338864020366367 
0.6560824388354483 
0.1543751833913044 
3.050730325162287 
3.5775108428422544 
0.18445407570372477 
0.06249961923029428 
2.5671618194279084e-15 
8.465504855742296e-16 
4.176139623289921e-16 
8.752995210035332e-16 
1.9612753471226618e-16 
2.2177449284808775e-15 
1.4458860756429623e-15 
9.701347718568545e-16 
6.521456341070134e-16 
3.3128721919077156e-16 
0.5037896537826937 
0.7657134953625968 
0.5998088866994965 
3.322734310819148 
1.6182373362221965 
0.8694154414050548 
2.4639470850308506e-7 
1.077525551360848e-6 
2.3617142545086326e-7 
1.5509474053911078e-7 
3.080108877390609e-7 
1.0863550634134288e-6 
5.654162148148339e-7 
1.9923641281866874e-7 
3.3582181257230146 
0.2721693982730462 
0.03857476517767161 
0.08072935453101113 
1.2492438265898658 
0.0070562478361078755 
0.09001550305563408 
3.0939176555746075e-15 
8.700277471072722e-15 
3.669479918675226e-15 
1.0789489020346963e-14 
9.71157758220665e-15 
4.8032860056965717e-14 
5.828761079266149e-15 
1.7610948790174952e-14 
3.5396196168696554e-15 
2.5687334032720543e-8 
6.309206596542643e-8 
2.8320064244098192e-8 
1.0212664754761536e-8 
1.863821607999266e-8 
1.3705292612067781e-8 
1.1200895057902137e-10 
2.8616563436736255e-10 
4.830251783988151e-11 
4.3110224072890994e-11 
8.232454381134218e-11 
1.975295824477958e-10 
1.0134305335427052e-10 
2.8639004839701105e-13 
8.762299580568237e-14 
2.8513352898902987e-13 
1.1067101258639141e-11 
3.026629361384147e-10 
2.258917642290068e-10 
2.9033303394287904e-10 
9.161671325638104e-11 
1.3855738394344015e-11 
9.644332175243938e-11 
3.965366785664238e-11 
8.23257717257732e-11 
0.00012645012288668654 
3.276280176361536e-5 
3.7242078919433204e-5 
0.0002379803846656837 
1.5886250168523162e-5 
9.162115568547103e-5 
7.651087433760099e-5 
4.130173320768163e-5 
0.004821841426965919 
0.01092487021445569 
0.019295265173293247 
0.01501676937988068 
0.0137782832471842 
0.005353546787667852 
0.0028348091579239393 
0.0022978293837755803 
0.002683399934562543 
6.222049875370594e-9 
3.7237403670301874e-10 
6.308276407745176e-10 
3.951106093776748e-10 
1.2487296354747558e-9 
5.085997811683739e-10 
2.8001160056245086e-10 
1.8386790313008128e-10 
1.8671493373180456e-6 
2.1816197325384976e-10 
7.026688444403198e-11 
4.50712048526733e-11 
3.1217236080805546e-11 
6.036702540641454e-11 
2.5752213663374636e-11 
8.957791868583944e-11 
1.1271702852141909e-10 
1.3785518173522853e-11 
2.840325290374331e-12 
2.821748869886991e-11 
3.9941093032938317e-11 
3.094660269301656e-11 
6.406449254092331e-11 
4.1337500039088705e-11 
4.3593847387416094e-11 
7.727787075699528e-12 
5.3281707437392815e-12 
1.0131816499390383e-12 
2.6411416018773824e-12 
7.547201145023264e-12 
1.930680109347125e-12 
9.296607658258573e-13 
1.740346239740519e-11 
2.4074125048195504e-11 
3.589362763225156e-11 
5.612780433535272e-12 
1.2480716012994201e-11 
6.000267970189922e-12 
1.3581901147418587e-9 
7.936691068845767e-10 
4.735347915013203e-10 
2.24163281616969e-9 
7.341040386778783e-10 
4.818677234316774e-10 
1.4282456872529958e-9 
7.799094348772441e-10 
7.006619663630208e-10 
7.435221384692514e-10 
2.4399987842095997e-9 
1.4904785672830573e-9 
7.340969540900054e-10 
1.3747839650861377e-9 
1.7185312433501845e-6 
1.0666549869208391e-8 
7.205115145040761e-9 
1.3079079221682096e-8 
1.2486251143103676e-8 
3.382472253156711e-9 
4.9827054853597046e-8 
1.7517866372701838e-8 
6.5585757194910766e-9 
2.317025668276168e-8 
3.9070411522536255e-10 
1.2335607087163407e-11 
1.9457448732743706e-10 
1.1194143114082564e-11 
6.3993142468780864e-12 
6.177183880475894e-12 
5.951821213224668e-7 
0.10980809548925811 
4.77971495576344e-8 
1.2534431384046111e-8 
2.7701838680028153e-8 
4.842364038806015e-8 
5.463717446104586e-8 
9.374687078694068e-9 
2.5233559348210236e-8 
1.4493330068973698e-8 
1.0114428027649914e-7 
3.1725433890311934e-12 
3.160798009698448e-13 
2.3717724907481255e-13 
1.3779212470304077e-13 
3.5494376944937117e-13 
9.957371867847987e-12 
5.137193599763478e-13 
4.541662898389662e-13 
3.136879644890636e-13 
0.0007402858472508711 
0.002139007153531387 
0.13113000977767655 
1.087852760070336e-15 
1.1915924537959733e-15 
3.8715779478070576e-16 
1.383995212766565e-15 
0.2505463074492405 
1.5488746124645666e-15 
3.3518450192007363e-15 
6.435763502625032e-12 
2.1090121420641756e-11 
5.288192488062619e-12 
1.4721505872479803e-11 
8.379565491122556e-12 
2.8616022396670847e-12 
1.567678833433689e-11 
8.484862510615542e-12 
2.608544268106578e-10 
5.866624074108662e-11 
2.521975979245339e-10 
4.440012012655436e-11 
7.667227028838728e-10 
3.3207454305902106e-10 
2.0131177562527914e-5 
4.6846278959701826e-5 
8.074469001201568e-6 
0.00025177122387762355 
6.933014870315443e-5 
6.516292277592004e-5 
7.594041308492549e-5 
0.00010447516741678805 
5.6475616750820565e-14 
2.3442848194040245e-14 
2.052468062527641e-14 
3.266852846321847e-14 
1.2315282926064578e-13 
4.715786790590187e-14 
4.202882049162179e-14 
3.728361695064147e-14 
3.21738011147553e-14 
0.005712112747134576 
1.762130467777329e-11 
4.387456173205574e-11 
7.027324508315242e-11 
6.20548310463105e-11 
7.312270743343787e-11 
1.448522109780679e-11 
2.195101374696838e-11 
4.445377379343258e-11 
0.014761488763229488 
0.009501036234422987 
0.013032210522516768 
0.0053460624348812035 
0.017720906326464027 
3.9609540961399503e-17 
3.170472968165701e-17 
3.833894190391649e-17 
1.2705058124808278e-16 
5.775202617020934e-17 
1.927918997137975e-16 
5.924278178259283e-17 
2.9289249990800546e-16 
3.7995378914960173e-16 
9.956437107560201e-16 
3.697331053731311e-16 
2.4308701713420147e-16 
5.323894234090474e-16 
2.6266702133702233e-16 
3.073111319607889e-16 
3.8495564012326553e-16 
5.534650065576656e-16 
4.012319889734597e-14 
2.2514665538999666e-13 
2.1730211904304429e-13 
2.5449227344209206e-13 
8.260689358425933e-16 
1.353388783099815e-15 
1.1031544408686735e-15 
1.1610046964393778e-15 
4.18335279738662e-15 
1.4440341827648233e-15 
1.0520722933060952e-14 
2.3350571469047424e-14 
4.479124290875726e-14 
2.7242062192085744e-14 
1.8672676594896836e-9 
3.583354884754099e-8 
1.4001852373690031e-8 
3.325016314529388e-15 
9.422225582220149e-12 
5.348530623291005e-12 
1.330570419919931e-11 
1.3102245266377116e-12 
8.07111135878607e-12 
2.871848284584516e-11 
7.697118964497833e-13 
6.33087881931235e-10 
3.8037279269862445e-11 
3.147876092050144e-10 
2.7335235486092037e-10 
3.9378270871153276e-11 
1.9445042953283184e-11 
5.747713838363642e-10 
1.26602007448486e-10 
0.0567157892264007 
0.03237572519218345 
0.024777792905144144 
0.0032468585909054726 
0.047725302647520944 
1.0616674234136607e-10 
1.0921236173042478e-10 
5.258634251195221e-11 
1.2965604530726776e-11 
1.0118344727298782e-8 
1.468014010817027e-8 
1.1300027225830035e-8 
4.035303369542132e-9 
3.4312451746810406e-9 
4.017786442625279e-9 
2.249694379757538e-11 
1.1304287094730902e-11 
4.3301253805094114e-12 
3.052692780165598e-12 
3.138874015427782e-11 
3.671884237894827e-11 
6.564083759625106e-10 
2.1657766719025676e-10 
3.374150475127981e-10 
3.7435019299458053e-10 
4.421667388440763e-10 
7.24995150546766e-10 
3.811136815268802e-10 
1.648970886604609e-9 
2.498596976506929e-10 
1.89269380891474e-9 
0.0005065325901318921 
7.475541596409213e-10 
1.1502991246764197e-9 
2.936369973221954 
0.19925442156457673 
1.3244059959212968 
3.101726500356557 
1.0507928203600858 
0.895452416582941 
1.691267145380628e-6 
2.621071271800026e-7 
9.785593335752315e-7 
4.80853423653345e-7 
6.7250043759481425e-9 
3.99672593867704e-9 
3.863299120695331e-9 
0.00031215185139449753 
9.300460394124222e-9 
9.948245612338543e-9 
3.4714533150092694e-9 
6.514906667685047e-9 
1.3467594637869878e-9 
0.00010792611237434706 
1.2948672521585752e-9 
4.4971651222185595e-9 
3.0806476717874176e-9 
1.2932122852789316e-9 
0.3419714739326022 
0.10633187682341959 
0.02081901161698465 
0.027445020460233036 
0.2077660962862692 
0.00010483287359743715 
0.027262891921983584 
0.16625841446163828 
0.05797019320134162 
4.8405544781898204e-14 
2.3632919018099225e-14 
7.597809003562181e-14 
2.1894244243912741e-13 
2.2697547846492801e-13 
8.327633750843117e-14 
7.231239794207564e-16 
5.512793599353553e-13 
2.349517153959463e-13 
6.522151634684848e-13 
3.1736758220745164e-5 
2.9961378108625532e-5 
4.710579907834839e-5 
4.192188369917383e-5 
6.504769243052892e-5 
4.051589616083454e-5 
5.382407655214444e-7 
1.1087369723759161e-6 
3.5793583657808916e-7 
1.014565963706013e-6 
5.436463643675669e-6 
5.667338726972432e-6 
2.100152881936837e-6 
2.6586558395441257e-5 
2.0277532808681604e-5 
5.3177007689541985e-5 
1.1356821456136055e-5 
0.000128508847593145 
2.0830939326919604e-5 
2.9213457123048784e-5 
3.3118591533812896e-5 
3.4494191253096373e-12 
3.3109221186332754e-12 
1.4547692559255353e-11 
8.959654752885426e-12 
3.2972512946742157e-12 
3.390158107164867e-8 
7.945737369803092e-8 
1.9977774114806977e-8 
7.331903455641208e-8 
6.928322490430949e-8 
3.854290231690942e-8 
3.2417279210553555e-8 
3.453057830934211e-8 
4.4441094073882195e-8 
1.3346472372562544e-8 
9.372353927778995e-9 
6.087184855644474e-8 
4.820175971860305e-8 
7.937293540693171e-8 
3.168529337592988e-8 
8.511704556358483e-6 
7.236869516649912e-6 
5.764953419328325e-6 
5.737237678896139e-6 
1.2375166478513283e-5 
1.4422278993291748e-6 
4.3069303873356443e-16 
1.0315989068126066e-15 
2.4504633025103425e-15 
4.656758734004116e-16 
3.871318588830413e-16 
3.824810037335633e-16 
3.7186931940220626e-7 
1.5726397559386524e-6 
5.4848705202871226e-6 
2.752568194078106e-7 
7.190509729851654e-8 
3.030082631827781e-9 
6.019156445211489e-9 
1.3603084202701837e-9 
3.918347422492765e-9 
2.1124828910584987e-16 
0.007240467801824383 
0.013544750492154478 
0.0035329673667245996 
0.008576124196572553 
0.003404144953350258 
0.13479046470474904 
0.0166491665940472 
0.5326616244339435 
0.0046357850985346855 
0.0014815318737391964 
4.1766092611731e-6 
6.2394037131055455e-6 
3.6065909838810553e-7 
1.8753560743376286e-6 
3.5275359947118707e-6 
1.9428318843136268e-5 
1.7213102935868816e-5 
0.0005084580751353604 
0.0007150390591270925 
0.0004038210461717882 
0.0003516753031289734 
0.0002467867288036675 
0.0002318793699376705 
0.0001193813888456655 
9.012207104777278e-16 
0.07415717085624758 
0.001940340505703797 
0.13473057400724325 
4.734522456905548e-13 
8.86893550868794e-14 
4.242758735555342e-13 
1.0845332773183528e-13 
9.889924131259045e-14 
1.178887833815713e-13 
1.6476285050056584e-13 
1.8613927367481982e-13 
9.324535217240073e-13 
6.159937815714893e-13 
7.029927403984036e-13 
2.779684611741237e-13 
7.790742325209399e-16 
2.1835642580058547e-12 
7.78798496838264e-13 
3.6925924843955095e-12 
6.861429240044324e-13 
3.979950675208585e-16 
9.835900497936666e-16 
1.2093142613058686e-16 
2.7519324681160516e-16 
1.2498378283700284e-15 
2.653619959157206e-16 
0.00023983583847275548 
0.00092095561929271 
9.235226115451219e-5 
3.994294519065332e-5 
2.557350583975246e-5 
0.00010596001072506462 
3.175935428769706e-5 
4.43841458958606e-5 
0.00024261478473194836 
1.9576039997558786e-5 
6.0919775889031284e-6 
6.718443165174344e-6 
3.546749448791462e-5 
2.4805263406316765e-5 
2.7928691475683174e-5 
4.166962429083971e-5 
1.3475856396719498e-5 
3.4831437843112914e-5 
1.0051753641651894e-16 
2.4499221795439023e-5 
0.0001480738393522056 
6.731695151930541e-5 
0.00011704080749143268 
0.00012025951238920953 
0.012623888998435764 
0.0338120876312258 
0.11079530837704261 
0.24233275095345497 
0.16011013734366786 
3.2725834354433866e-10 
2.1623837774635616e-10 
2.702187850665324e-10 
2.579619643607763e-10 
9.767701150819093e-15 
2.327153545409606e-14 
4.334678776438196e-15 
3.6572635223846875e-14 
3.487421453596312e-14 
9.245457770995666e-15 
1.0133401362190886e-14 
5.700162425770609e-14 
5.8292588798382104e-5 
0.0001353826321271258 
9.652527918131923e-5 
0.0001154024752407988 
0.00010115103997614247 
0.0003582872191414605 
9.157433630073414e-5 
4.9336517583088385e-5 
2.14585574391538e-12 
5.724386293579565e-13 
3.645524063125111e-13 
1.281132715171122e-11 
1.5412632972691543e-11 
2.3104108934770172e-11 
3.3063699978910795e-11 
3.4413932384686666e-11 
7.766238681980733e-12 
7.188017877325225e-12 
2.639489256124813e-11 
2.5562067648210965e-10 
1.2653301285298965e-11 
3.554065743582229e-11 
3.3227277675503505e-11 
1.525115490163825e-11 
9.292508340352377e-11 
3.9001663628076835e-11 
1.3057962082609307e-10 
0.6702199694929896 
1.0510311697352304 
0.035899812122946226 
0.645680786839099 
1.9826278275755773 
0.8498325877974175 
4.191296257459129e-6 
1.1981113366208553e-6 
3.934567147232231e-6 
5.843879277845488e-7 
2.2353791558995415e-6 
3.078688591864421e-6 
1.1935456049431673e-6 
1.7866727328964458e-8 
3.122173718277028e-9 
4.8464700340273584e-8 
2.3736656047234563e-8 
1.3050145562465797e-8 
1.9619358798772226e-8 
1.598178677884134e-8 
5.699115725086382e-13 
1.722364150997177e-11 
1.4068480125241497e-12 
5.277388788737942e-13 
6.487656305544376e-13 
3.7418102805623505e-12 
2.21621933483409e-13 
3.313204436370715e-13 
5.424986808260777e-13 
0.005727413031521769 
0.005638334644387581 
0.000625660768191224 
0.00362164206184145 
0.005318188932991493 
0.01046712491996559 
0.012392315738418674 
0.00945468658896052 
2.7905587954827266e-13 
3.691009417145362e-13 
3.474479943247519e-13 
1.3982847620227968e-13 
2.823741602183056e-13 
1.4393021718331117e-5 
8.786932045011698e-6 
1.4796735140790018e-5 
5.276886924010411e-6 
1.5604280563920158e-5 
1.8025195355725904e-5 
0.00011212794053432048 
5.793785159364024e-6 
1.4328029619350705e-5 
1.1792377840626594e-5 
0.07643644976243398 
0.007536959551000856 
1.5146009462460732 
0.03175193352222401 
0.013724820597568072 
0.05045628882423019 
0.00715722995513343 
0.003595528285457966 
0.005044945651698915 
5.110362924980466e-15 
7.2296081817017e-15 
1.8120763325925952e-14 
7.522636554318453e-15 
2.0267032899159938e-14 
2.3258360152962993e-14 
1.0226349679293575e-14 
6.458343140047345e-15 
1.509936574155559e-14 
0.6194488498411268 
0.11064720227189391 
0.05003734274448308 
0.19934512540432234 
0.03347855325233676 
1.1578697372952067 
2.201209971174078 
0.6391063086997864 
0.9214163836552557 
1.574432551106324e-9 
1.2380628315231912e-9 
1.667874626169648e-9 
1.0898817110599275e-9 
7.552453813977229e-10 
1.0747774892722162e-9 
1.9693484879410488e-16 
6.954816523946045e-17 
6.201178513839353e-16 
3.9953126692373097e-16 
6.573278402605362e-16 
1.8629342271745396e-16 
4.475681466490646e-12 
1.3510176652399708e-12 
2.9470657512248407e-12 
2.166182023243408e-12 
1.419367533149896e-12 
4.0121220115600546e-14 
4.9904646495527437e-14 
3.205012398123986e-14 
1.507268107947582e-14 
8.861010120828963e-15 
6.966694009550404e-14 
1.6207455215880456e-14 
2.301863397765571e-13 
1.3555858016016404e-11 
3.324978912497308e-10 
1.1069867808710401e-10 
7.060604816701612e-11 
1.7158087523436768e-10 
2.648102761289666e-10 
2.5672492401456194e-10 
1.8624670239638037e-10 
3.7857551272884594e-10 
2.8124020926179373e-10 
3.8823286947484885e-10 
3.5802127686616855e-12 
7.830783505148584e-11 
2.147749641931591e-10 
0.3476136940992693 
0.9378158611263556 
0.038642022942885025 
4.3507500134946754e-16 
0.9715900017323589 
0.5053869648235992 
1.1322317111664166 
0.9885764727766507 
0.0003291765055208013 
9.208026226857787e-5 
0.00013600533955953134 
6.11287818876367e-5 
1.9663838688379999e-16 
0.0001327144231372541 
0.00017302841152438262 
3.680447461503392e-5 
0.0013920421675075812 
0.00020934840000088264 
0.0003362083422140509 
0.000115576219197649 
1.8500925348787314 
0.474948243728729 
6.2568158562278e-16 
2.4153190863685166 
3.2174526429029933 
1.6138784251261764 
1.6242993340147287e-10 
4.05659104507898e-10 
4.527697939526424e-10 
5.596309990009552e-10 
2.391189319013012e-10 
1.0373196323949677e-10 
1.0492218199900843e-16 
2.698976212972782e-15 
9.668677333933018e-16 
2.172286607592228e-15 
8.0543307358745e-16 
1.0872574292208503e-15 
2.2406324921900743e-16 
3.6635424659174717e-6 
9.718642788545556e-5 
0.00012303501993085017 
0.00012616114843321365 
7.885777337514768e-5 
3.0140632834036557e-13 
2.295876347126762e-13 
5.945261481606179e-13 
7.513217478866602e-13 
4.1939081708989613e-13 
2.56275949382309e-13 
4.088622951227755e-13 
8.182242595159059e-14 
2.097830479792485e-14 
1.6413673854219292e-13 
2.4275482152146436e-14 
1.0695001947347919e-13 
3.121668574743099e-13 
8.716029961928488e-13 
3.726986838020476e-12 
1.904259288566551e-12 
1.0100674169033563e-12 
1.6696070593187012e-12 
2.5102140063914694e-13 
4.672881914852578e-12 
2.5449211134787532e-12 
1.2127396166328425e-12 
3.643886587682322e-7 
1.5006808316820562e-6 
2.419361942128061e-7 
1.526730169469559e-7 
2.8411158168482814e-7 
5.143721753163562e-7 
5.097592680462952e-7 
1.4814833826896421e-6 
0.010258287509273375 
0.008684435168293354 
0.003547281344783002 
4.276894670589539e-16 
0.05544398895184371 
0.01878283471210295 
0.007241780606693807 
0.017557778751497145 
0.19728071404741737 
0.11837205971373829 
2.121552021564211 
1.4835952112249629 
0.8918527894308916 
1.848149578344178 
0.7219287224779907 
0.007516022763212321 
0.03796275100247854 
0.025251681066635077 
2.141757750364764 
2.3991886043810577e-6 
9.582275502958004e-7 
5.807414154458329e-7 
1.97183422706128e-6 
1.9152957570992577e-6 
2.417744642531542e-6 
1.559875397703951e-6 
6.760647714710223e-7 
7.08541840957542e-7 
6.089454010969008e-7 
2.0015729128789348e-9 
2.2212772187232643e-10 
5.915229507647611e-10 
6.215208735346587e-11 
3.058426133663977e-10 
8.292863509100061e-12 
1.5298819768103162e-10 
4.910720260650013e-12 
2.3023096352078201e-10 
5.70311699911432e-10 
0.685984488043239 
1.072581324985335 
2.2284825307037863 
0.053699914042438096 
0.06863720884493267 
0.9396473619880207 
0.07512410048700341 
0.167464137928633 
6.697842574326458e-16 
0.08307916234380498 
0.9401133153354243 
3.0059543199241836 
1.4166736377884257 
0.0004061876263031737 
0.00028808922438127517 
8.163270814791383e-16 
3.599863445589699e-15 
1.8405756371558e-15 
1.5404655818108833e-14 
3.631271303780306e-15 
1.1935384700246804e-15 
1.6645354711297877e-14 
1.3957114731768828e-15 
1.722695607687341e-14 
2.2485325476008947e-15 
1.0266880188504964e-15 
6.675953084380193e-16 
3.2394958028588925e-15 
2.532827667441568e-11 
2.97817580858784e-11 
4.459854312205104e-12 
2.5366905444115128e-11 
7.198006632443912e-12 
0.0061182369966086645 
0.015134072495385065 
0.017400507058533004 
0.009151885258211782 
0.0009641562551102789 
0.0031865121074218677 
2.1926525359083045e-15 
3.7067874080355834e-15 
8.201418343820269e-16 
2.8260022464815933e-15 
6.724178005926887e-16 
2.8875224918339123e-13 
1.645264500305187e-13 
3.1018828315206626e-13 
1.1352853927560618e-13 
3.952428947314351e-13 
4.784447093283868e-14 
4.002525855986634e-5 
9.569595189396648e-5 
3.914640140347382e-5 
0.00014814447450957333 
8.742357177023075e-5 
0.0002347594982054593 
6.015609679971725e-6 
7.117719492654832e-5 
1.072072587787574e-12 
7.537334970371487e-13 
1.6589762923501329e-12 
1.0832537887861127e-13 
4.95668671543398e-12 
5.142001466823284e-14 
5.795201513554134e-13 
1.1059097842826135e-15 
2.54722766138315e-13 
3.268375192968968e-13 
6.8587878896384445e-15 
1.2001766276215233e-14 
1.1046303649556926e-14 
2.7371874859534106e-14 
3.3811501138948165e-14 
6.592599931366719e-14 
0.0002342625371654102 
0.002177218964457723 
0.0006082845463488568 
0.003020698630336151 
0.00013754652599430608 
0.002287119160723748 
0.004665494920043421 
0.004342666412245032 
0.9401216134358642 
1.4920630007584421 
0.16978039559974417 
1.106598195657675 
0.9811252479835538 
0.9744244147784263 
0.8455455444032722 
2.214526663832858 
0.6213238279070125 
0.08201383751655388 
0.032960463550325746 
0.06096497655297514 
3.103820795942922e-16 
0.0850016999600349 
0.06752306906579812 
0.08564166096409018 
0.08892138395121756 
1.6129660290554584 
0.05741604484986442 
0.07057630135803193 
0.15196015303953975 
0.11694331407342835 
0.7951308352877389 
0.4720037875817303 
1.4395081382465795 
9.52255966951089e-5 
6.391267025176226e-5 
0.0002475049534575827 
0.00012920075319837368 
0.00010312670110182154 
8.726597545827195e-6 
1.4497643615072286e-5 
6.985823743341056e-6 
9.959450575204863e-6 
9.778966616220028e-6 
2.6815386474251436e-5 
3.291384666414904e-14 
0.4023218249802836 
0.027527266944779912 
1.0325769388345196e-7 
9.041606505739819e-8 
1.3070399714993475e-7 
1.5999106972796503e-7 
1.147082029434473e-7 
6.636053643575462e-8 
1.1543357169584514e-8 
6.559176953644087e-8 
3.2863551194811935e-8 
2.7272887579763153e-14 
2.6915080967509164e-15 
3.793082401675023e-14 
4.0832336069198844e-14 
3.0806314161036997e-14 
1.1415602491485206e-9 
3.035775892469856e-9 
6.094086810796135e-9 
1.4723575190987871e-9 
2.020258879865805e-9 
1.6791522436864648e-9 
2.3089534822118613e-9 
2.3317364878049136e-9 
5.264694117119244e-9 
5.304125269986506e-9 
7.607968840660192e-10 
4.747295629409635e-10 
4.946891537862419e-10 
1.0616978891436479e-10 
5.123960311927986e-10 
5.891411759124164e-11 
4.4827090117884614e-5 
7.760083549772027e-5 
3.745403456010036e-5 
8.309377937188128e-6 
1.0186947581011055e-5 
5.409692480642586e-5 
3.482159086889986e-5 
4.504927318778808e-5 
2.548046349224423e-5 
1.3160365331859697e-5 
9.046724031726615e-5 
7.621407150824798e-6 
1.1722379940561787e-5 
4.394548462375114e-6 
1.3725463869673492e-5 
9.529758360949982e-6 
1.4540765888136919e-10 
5.810297054046222e-11 
2.1990502977635557e-10 
4.2121760499033237e-11 
0.004181532105982636 
0.30600386345139363 
0.004248434110876579 
0.011792615500616464 
0.018181374504776908 
1.0065735917100332e-7 
2.6875483874905297e-8 
7.280863332846268e-8 
4.633466159310718e-8 
1.102775630812179e-13 
6.753299735734241e-8 
9.132070267273651e-8 
3.8058769266383944e-10 
9.276977805605825e-10 
2.8976487243811347e-9 
2.1498216910377645e-13 
5.541851504772301e-9 
6.700377210392671e-10 
5.632172239107237e-10 
6.49250415447333e-10 
7.49103548503673e-10 
6.945190675381105e-9 
9.479724946053631e-9 
2.1753202954392657e-8 
2.0567467999834268e-8 
9.222245896175983e-9 
2.1547771971019713e-9 
3.79188735874449e-8 
1.4375628798911864e-7 
9.442318564312653e-8 
1.1114360610472586e-7 
8.004943418568504e-8 
8.369989044611079e-13 
3.975476405991975e-13 
8.16726703517709e-13 
1.9072217650967466e-13 
6.719681828531018e-13 
4.632019841984524e-13 
6.574892643508047e-13 
3.0348369348707995e-5 
9.370127582976949e-6 
9.03763377140991e-6 
7.45836291166864e-7 
4.117798236270004e-6 
6.082277795639857e-6 
9.233605243679491e-7 
4.603539656301272e-7 
1.181543181012626e-6 
3.034744546296304e-7 
1.2749985266950774e-6 
2.2693560843287467e-7 
7.500592780603729e-7 
1.896076615431816e-6 
1.402655168041215e-6 
8.299870565024437e-7 
5.125593109604086e-7 
3.1239490268635207e-7 
2.141778018322751e-6 
1.9885248932752553e-6 
0.0010706023091317104 
0.0003521788082789365 
0.0017612177669537122 
0.005114986405708268 
0.0008572000830747593 
0.0005417813574985047 
0.00016399269685802692 
0.00030976715376407945 
2.3510123635419094e-10 
1.4168732857630595e-10 
7.789111095730216e-11 
3.406878068989709e-10 
8.420641308161194e-11 
9.69843711171475e-11 
7.286951245983144e-11 
2.0074452172240706e-10 
6.908917432629427e-7 
7.222809130452088e-7 
4.971678026028423e-7 
1.959221719885644e-7 
1.94170631885087e-17 
3.841206776620252e-17 
2.4180863212081564e-17 
8.124745482950379e-17 
8.506223339317588e-17 
1.3174029211057311e-16 
7.727027852012592e-8 
6.673367056228706e-8 
1.0979596909120036e-7 
2.0535009391707873e-8 
2.1350487977627563e-8 
4.067042644757696e-8 
6.142639899506807e-6 
5.1367781139795566e-6 
3.866288976863596e-6 
5.227101093509953e-6 
3.9650393837126706e-7 
2.3473176356871127e-5 
2.01477253132015e-5 
1.0001272948560724e-14 
1.6638569125831898e-14 
5.537111631691858e-15 
2.5084884294071335e-14 
4.6097989183326815e-14 
5.590496232939289e-9 
9.260624268831397e-10 
7.493956842372946e-9 
1.874293089926043e-8 
6.8836662406740044e-9 
3.19866254669492e-9 
6.752073956696484e-9 
0.002213512683786423 
0.000443653772069148 
7.571197152739703e-14 
0.0007496063410941111 
0.00011395464960507518 
0.0003001356163901401 
0.0001458144116619547 
0.0014559524457938133 
1.6941972921111691e-7 
9.427569077896112e-8 
1.6366643392244947e-7 
2.0600448331413096e-7 
8.317595834934411e-8 
9.023039929701353e-8 
1.320509750576485e-7 
3.906480928795465e-6 
5.625809975532918e-6 
1.9637841727379685e-6 
9.659736783060566e-6 
5.761156434269935e-5 
6.804611807575633e-5 
2.356162431972156e-13 
5.909666530321906e-6 
1.7925912652400917e-6 
2.0529843280354576e-6 
3.481252855699504e-6 
5.23531100269737e-6 
3.973371835859617e-7 
0.013975535091053794 
0.07496154538020304 
0.009056813472092027 
0.011430505552543484 
0.011566804228288522 
0.009856075866586668 
0.007069837737753523 
0.013267203722438663 
0.028862229141597865 
3.0457750149682064e-8 
1.9177309815449573e-8 
4.748635541391316e-8 
5.196810264414512e-8 
4.772143791643339e-8 
2.132337628255837e-8 
1.2532454276097793e-14 
1.3697266142612483e-14 
1.7078232572606535e-14 
3.413675126480285e-14 
8.308570421522476e-15 
5.245636780502232e-16 
8.642905259518021e-16 
3.202691813218492e-16 
1.2385615938254465e-15 
7.930353745518677e-16 
3.8005284168336443e-10 
1.8691926325424844e-10 
2.721584514863705e-10 
6.262085136455011e-10 
4.5527348981956353e-10 
5.602552626676764e-10 
1.0052997175085086e-10 
1.6858063518223902e-10 
1.146575028213881e-13 
0.0014315257924243394 
0.0010165095664384563 
0.5741288872085576 
0.00046674095897618394 
0.14614123602485884 
0.3792801023004013 
0.11128849779768706 
0.11454949403803218 
0.34755828864874305 
0.6603102542315448 
0.02956185584342136 
0.15784169960773728 
0.06334735446955907 
0.07036412022274711 
0.6995639820937336 
2.8993238357907183 
0.8322427484562798 
0.005422781233193341 
4.15464134418733e-5 
0.0015190856370576283 
0.0021912507348335044 
0.01195661478027107 
0.0007743820658168201 
0.001831831675975727 
0.001550372758029373 
2.4466654449620476e-11 
7.153689936352716e-11 
6.64919317660007e-11 
1.0380432841649938e-11 
5.880353591044778e-11 
7.351567615329107e-12 
8.667964298847323e-14 
3.6021655661027074e-14 
1.9148080582795093e-14 
5.86495006272774e-15 
3.774548982484961e-15 
4.1250593589429366e-14 
4.997135485548827e-15 
6.47703538316124e-15 
2.3911166220935574e-14 
2.1727963204791077e-14 
1.7245149349168978e-15 
6.417343359033157e-15 
9.075172337029593e-16 
4.823593871883114e-15 
3.750896519718983e-15 
8.031287478144225e-15 
5.002363388988863e-15 
4.456006186212054e-15 
1.560737807749195e-13 
7.191404173652567e-15 
2.019772596672042e-8 
8.320879842650636e-8 
6.24921395040811e-8 
5.563296976169129e-8 
9.061275070782276e-8 
9.513705202950347e-8 
2.204147917671953e-15 
3.5404473312455738e-15 
7.198466639371412e-15 
9.916671601418817e-10 
2.197738447294444e-9 
1.0223011284453694e-9 
4.1190262804876205e-9 
5.737653210794746e-17 
3.137252689791865e-17 
2.2118968354341085e-16 
1.1382851115821417e-16 
1.6420065583248098e-16 
4.526814101880918e-16 
1.841177886434698e-16 
9.439105720145944e-12 
1.2913957580469242e-15 
5.9116480163012365e-9 
3.6544542790797e-11 
2.1937152855595528e-11 
4.101972791175223e-11 
1.7080376563471864e-11 
1.297372237760291e-11 
1.259813828091363e-10 
3.472604739977063e-6 
2.6869850364057747e-6 
7.792506111616049e-7 
1.3965199369023397e-5 
1.3232873413451863e-6 
1.1944895982890181e-6 
1.2621360860396377e-6 
3.364009107976003e-6 
3.0251383154327574e-6 
7.661655293075704e-6 
9.308050645478974e-6 
4.0542814304170926e-5 
3.372773800682588e-13 
3.799953876398223e-13 
1.3471832103387778e-13 
3.999374044919853e-13 
8.865607007446209e-13 
2.260624481899383e-13 
2.0620123182843515e-13 
1.269353112298914e-13 
1.3989131181675676e-13 
1.1121075490186092e-12 
5.78523987449785e-13 
4.602916030318198e-13 
4.98791727454241e-13 
1.0774822945874386e-14 
2.2208011217345517e-12 
8.71696166681019e-15 
7.099358626858113e-15 
9.604654093458372e-14 
8.915138386685971e-15 
9.491485060673873e-15 
7.551219565947254e-15 
2.2425594247059772e-14 
2.611995016278942e-14 
1.7407059416206378e-14 
1.8667049095477728e-14 
6.596680377489258e-15 
2.178294314844861e-12 
3.405760527178932e-13 
9.728032489457283e-12 
8.24248504822137e-13 
0.0008130625690622388 
0.00010810440133507298 
2.9481978379428537e-5 
0.0009453401198153192 
0.0001816981675171371 
0.006128913067593906 
0.00013075764814258196 
2.1378668989626896e-8 
2.916503872643629e-7 
8.417460828978911e-8 
1.167639014690948e-7 
1.8032947261492876e-7 
4.743173952693774e-15 
6.185600783117998e-15 
4.0246600537804735e-14 
1.3247669759379995e-14 
1.2831642500762647e-14 
2.2259533958681406e-14 
3.1153944833463053e-15 
2.512485752616225e-14 
6.750716742261875e-9 
1.1419836854075047e-9 
1.9269334956774026e-9 
6.548358249010879e-9 
4.9577016022698155e-9 
1.8692494097631836e-9 
4.343400728146619e-9 
1.7340746673838423e-9 
3.2540441109548006e-16 
3.1268065159539256e-16 
2.0501617024583558e-16 
1.3822125397066487 
1.0618384503998438e-16 
0.7646428417131284 
8.964440916276201e-16 
2.7264618775425687e-15 
1.982863751519526e-15 
3.1355440984960375e-16 
1.6847528783920352e-16 
2.5971800622219573e-16 
6.557195929637275e-17 
8.654829069594042e-16 
1.141686888992452e-15 
1.5465638500626448e-15 
4.0992613928935993e-17 
4.131447969407201e-17 
3.2234383984864183e-16 
5.414555344573655e-16 
1.5688225547994008e-16 
0.49484151639408414 
0.9448603367479824 
2.0860770026376 
0.2139551638577959 
0.5149557960454926 
2.5460713611594588 
0.727365051629606 
3.3901925507720586e-10 
5.293107467163737e-10 
1.6284321592258385e-10 
9.801653962852679e-15 
1.5452670776764493e-15 
2.4704933114268378e-15 
4.987095949609739e-16 
5.012637807902279e-16 
8.595294357679036e-11 
3.7205322312323464e-10 
1.26955387562705e-10 
4.9520898831122415e-11 
4.972205056603601e-11 
1.1668678073553558e-10 
9.277395351005357e-11 
8.205425120518112e-15 
6.0291374168763445e-9 
4.925815016116083e-6 
3.280991774674993e-7 
1.953809347817494e-6 
1.9604504011258247e-6 
1.042570417489374e-11 
1.0581365030184546e-11 
4.183068643302211e-12 
2.645181300190645e-12 
2.101488847631665e-11 
8.826609060038943e-12 
1.7662792082264384e-12 
1.284134530948518e-15 
2.3531498800860643e-15 
2.28830447149953e-16 
7.290787451551177e-16 
2.6506067516777374e-16 
0.0005918169945831901 
0.0003221416840572553 
0.0005384068011581823 
0.00018370425529156873 
3.214405265178826e-8 
3.8302633777214167e-8 
8.317717625218862e-8 
2.0683501147580787e-7 
1.1602650208875893e-7 
7.790358446987041e-8 
3.971851263461125e-14 
3.308055368948707e-12 
3.130391597201306e-14 
3.5262806245302034e-14 
1.4560682683204845e-13 
9.882442506217468e-14 
6.106273853599932e-14 
1.3077758958518648e-13 
6.482696314820045e-15 
7.543771874810214e-5 
3.8331768001851496e-5 
3.413031252232391e-5 
1.7424643001445713e-5 
5.1991228277941225e-5 
3.3533126154783233e-14 
2.3694861960181182e-14 
3.2102360915895e-14 
6.269077731994181e-14 
2.1423133317667388e-14 
1.1124288349635955e-14 
1.591297740947002e-13 
3.03403690798836e-14 
5.465683399926696e-15 
1.0378790634263729e-14 
2.7908103576940937e-15 
7.323968714641968e-15 
1.2056334324923544e-14 
3.582512331306756e-15 
1.7726351515415732e-8 
3.0287590071814754e-7 
1.6483863179728977e-7 
1.8471559169341058e-7 
3.3398516194147824e-7 
3.066106200206682e-9 
4.026122977553294e-9 
1.88836798295798e-9 
3.924962743165148e-9 
4.6545374440289305e-9 
1.338890667308925e-9 
4.171017993993603e-9 
3.540404220269374e-16 
3.6067638990957695e-16 
4.255749782065841e-16 
3.057895556533492e-16 
3.436992048098723e-16 
6.589374121806476e-15 
2.4479360835932875e-15 
9.806675040899567e-16 
5.911040711967549e-15 
7.540247100464641e-16 
5.3288066055340885e-15 
5.4576904929132756e-15 
1.0260660134526595e-9 
1.1367589779940723e-10 
1.0317305082824092e-9 
9.543015599474755e-11 
1.1500370266768911e-9 
6.395950008166893e-10 
7.991940844907713e-11 
1.1219373933481384e-14 
9.583531542019827e-15 
5.134717118606257e-14 
9.201407969669682e-15 
6.149375340748108e-14 
1.0337129318062713e-7 
9.214990396227015e-8 
9.282912434987938e-8 
5.3927036889438377e-8 
5.7448033287291765e-8 
1.8633302454645307e-7 
1.4566505591455398e-7 
1.5515502506601256e-7 
7.818483434911153e-8 
4.714754752336172e-5 
5.631409471088652e-5 
2.8804576971764976e-5 
1.4453676017168219e-5 
6.209455238295813e-6 
1.8729815002845935e-5 
3.031623477109338e-15 
4.6418378154762735e-16 
2.4511350847294668e-15 
2.7742168818234347e-15 
1.8874646910935806e-15 
2.744262496150029e-16 
1.6458325684502888e-15 
7.60624816848042e-8 
4.065527384590514e-8 
8.77729640257736e-8 
2.958181212354697e-8 
8.528267653212215e-8 
1.154286978651537e-8 
2.204056518693547e-8 
4.269822499289873e-11 
1.46570314371246e-11 
1.205384783907892e-10 
9.54013461134182e-11 
4.047771471211714e-10 
3.91543690046613e-17 
3.5027192199000445e-17 
9.235142377323739e-17 
7.191183992205615e-17 
2.1738736046972954e-16 
1.257945193114392e-16 
0.0034725935108799546 
0.01206777238161734 
0.005057118835412738 
5.712995328404654e-14 
8.210033723940242e-14 
5.195460364331079e-14 
1.4333787181690604e-13 
5.830730436156488e-14 
3.972859301097048e-14 
2.857802900630292e-14 
4.271899818161546e-14 
3.805267622572825e-14 
8.14134751035434e-14 
1.7813987079015198e-13 
3.3251594119153815e-13 
4.492525372797384e-13 
3.814416291719032e-11 
5.735956627641173e-11 
6.199325411832533e-11 
2.089839446543561e-11 
6.069711521766238e-12 
7.792197921551705e-12 
1.157366493281184e-11 
2.619765114428935e-12 
1.0766498051124557e-11 
4.4493197710250877e-13 
2.645429333011667e-12 
1.9111159018102687e-12 
1.615482535372167e-12 
3.148232918663556e-12 
5.164508069461883e-11 
1.566938600985957e-12 
1.7128761756347861e-13 
2.0248786390375782e-10 
1.2855381921738403e-9 
1.6846273043187385e-9 
5.728474650013539e-10 
2.503006325511024e-10 
3.66227615904902e-10 
1.6568796748869064e-15 
4.040115560097036e-16 
8.588912034300446e-16 
3.9598655659520004e-16 
6.790194813817159e-16 
3.557529586493543e-16 
2.325748344764849e-16 
1.4559942214087987e-15 
1.2482447248569484e-15 
5.902666048155535e-16 
1.9906930771044603e-15 
1.8278691173540413e-16 
2.129887146704784e-15 
2.8637040643439356e-15 
1.0760606170677225e-14 
1.5160339416124151e-15 
1.1420968578185132e-15 
2.962162139227687e-16 
0.012455388335957029 
0.0009012589439111616 
0.007464274157105633 
0.0012076127777482628 
0.0002525195867629808 
0.0009283153393345101 
0.32743356099103454 
0.0007347823900990119 
0.00027340628024807265 
5.3273866736657304e-14 
5.5362198044329104e-14 
2.977621829291929e-13 
1.3935620981387715e-13 
0.011647394635951772 
0.0037546529255661244 
0.01044750696593151 
0.0031626352980690005 
0.01661992401688109 
0.0038707245120383647 
0.001856856233451085 
1.223901692555671e-6 
1.4363594388789347e-6 
1.3733410850635178e-6 
6.395016748215093e-15 
3.3189314574396224e-7 
1.0483018129468985e-6 
5.176465600339123e-6 
1.9915820512724773e-11 
2.4719493198344186e-11 
2.8821424518460812e-11 
1.3522654409574484e-11 
7.939007111915465e-12 
8.749904535541205e-12 
2.5852234043568204e-11 
9.871687685626612e-11 
1.4522339832888123e-11 
1.3853918685555248e-11 
3.29391145158707e-11 
5.615639292477867e-12 
0.15140559743599355 
0.05196410119466764 
0.018243214348818374 
0.027122116254408603 
0.3046139692516857 
0.02415737335916177 
0.03403377699187053 
0.05928200547771047 
9.260591550768961e-17 
1.728453010385454e-16 
1.9677198760565214e-16 
2.799592700068276e-16 
2.1763453995513486e-16 
4.622470298255684e-17 
2.972194050655691e-16 
2.7727097585699313e-16 
5.07157572051423e-16 
0.08490501183655952 
0.5313045282897694 
0.128131759633482 
0.07031594795234922 
0.025933822890129903 
0.3106892196166144 
0.382164421064685 
0.4062348720897117 
0.49682660591496064 
0.09441787464775393 
0.04701338465023121 
6.842148233214864e-6 
2.507769245862711e-6 
8.816752511013414e-6 
5.3756433185916e-6 
1.8039553833914345e-14 
1.8715187840186398e-5 
4.0688091207355516e-16 
2.120300640270582e-16 
3.008034355446833e-16 
3.360218988386388e-16 
1.9845112501363514e-16 
1.9611391707502128e-16 
6.278208532580623e-16 
4.3523636733559183e-16 
2.3221808265729847e-16 
6.678954304478145e-17 
1.7320547900704844e-16 
1.4584298211280333e-16 
5.110658222119475e-8 
3.958354018192501e-8 
6.228388564210883e-8 
1.2434506936378747e-8 
1.338261990689683e-7 
2.7678685406179635e-9 
2.7350578067164874e-8 
5.701717372881475e-8 
0.3284493770698541 
0.7736947776798506 
0.5802312297740341 
0.7218393602833089 
1.6418096815618095 
0.5283604040544022 
2.738451279533349e-11 
1.8224532812636666e-11 
1.3225243763953745e-11 
2.260438861915037e-11 
5.466951283286847e-15 
1.966262323376942e-14 
5.467884168271037e-15 
4.454812814711229e-15 
5.1945690667418645e-15 
8.636361114631357e-15 
0.5373323079876814 
0.15679492990470037 
0.2634382450614472 
0.496278099607672 
0.5067353837514971 
0.00046810100248393136 
0.0007250728394632229 
0.00032978969116654173 
0.00015818825934968653 
0.0003070774973129338 
4.7199498041427806e-11 
3.28183714960041e-11 
7.590717583353918e-11 
2.754527796985551e-11 
1.9975987280326426e-10 
2.8625676771273956e-10 
9.904036272732333e-11 
1.5917361424423726e-10 
4.349766240389493e-11 
7.163786297062649e-11 
1.8916568385393665e-10 
3.875364754283153e-11 
1.4226232186065831e-11 
2.027826353205342e-11 
6.2117759424043604e-12 
1.5750333223237503e-10 
1.855290132273957e-10 
2.7348470341381627e-6 
4.915408009339058e-6 
1.2679882048490156e-6 
3.245128499457017e-6 
1.0702368567084073e-7 
1.5237517998456026e-7 
4.7670360652912076e-7 
3.0177132274017245e-7 
4.755056186087021e-8 
2.6079862612998287e-7 
3.870317549227725e-13 
4.03353117532322e-13 
1.8712315978767183e-12 
3.4878058280668155e-13 
1.3205345591033834e-12 
6.246361240211918e-13 
3.4059081691555567e-13 
7.242468071697522e-13 
1.969043675787456e-13 
6.83927609767088e-13 
0.4414696682218206 
0.19852340453313014 
0.32095030420965026 
0.03293123117539475 
0.035897093557868985 
2.720702885162085 
0.2729877912611694 
0.36758299069095474 
0.4455787466016479 
1.01402598677122 
1.4600960878853207e-11 
1.1504472092349302e-10 
8.66901333216687e-12 
2.467178553708385e-12 
4.610950013395648e-12 
1.039891432908633e-11 
1.0611003879536972e-11 
6.03441917346492e-11 
1.3941666920364405e-11 
3.073277068987049e-8 
1.0266612933921682e-8 
1.0589599422479246e-10 
9.845689570487549e-9 
1.6768511880914e-5 
9.814300802142387e-5 
4.038570827855212e-5 
4.784696402275839e-5 
5.82418540310352e-5 
7.626764525395368e-7 
4.1482893324741823e-7 
8.924371285749326e-7 
7.145633063309e-7 
8.865761506649933e-7 
3.263107511021776e-7 
1.1531109878973397e-6 
1.2197533386209953e-6 
5.037026259290565e-7 
0.0004403420637529558 
0.0003732721979900648 
0.00045197068163864976 
0.0008276112828697122 
0.00021388960016777354 
0.0032164715268702864 
4.3508916684078e-15 
1.345336964951088e-15 
4.1834503380105785e-15 
2.729277591771313e-15 
4.663806881089869e-15 
1.8815129345433597e-14 
0.00026190073584870307 
6.183487556629636e-5 
2.2092071160632126e-5 
0.00010964846171899713 
0.00020543046688158796 
5.817703544119015e-5 
0.000208896960482115 
0.0001246446480518806 
0.000264476392545724 
4.312989427645978e-5 
0.00011153341293366178 
6.090460420010451e-15 
9.110836792060769e-15 
3.8568619363606294e-15 
2.2087040091864377e-14 
2.907985054720885e-14 
2.18879088337916e-14 
2.6078367300057528e-15 
5.221757343201026e-15 
2.3642870187937663e-15 
4.2058122051661e-9 
8.160428487525864e-10 
4.6078386786165763e-10 
2.56391926599067e-9 
2.8030204420613446e-10 
3.492643343833352e-10 
7.325703628122613e-10 
3.308063863443704e-15 
1.1272869212275971e-14 
3.8388489196102994e-15 
9.17693525183482e-15 
7.130904939687879e-15 
6.340586036570994e-15 
3.46996840701258e-15 
5.450086689349963e-15 
4.9143644925536516e-14 
2.3455574220267897e-14 
4.2312617907085735e-14 
2.8210408330396006e-14 
4.191612283325555e-16 
3.655253033080657e-16 
5.518529960679604e-16 
5.514344379001567e-16 
6.605143205510416e-16 
5.882677399338788e-16 
7.202421915188403e-16 
3.433469235178765e-16 
3.586753450977384e-16 
2.6781596263977573e-6 
3.184209958889106e-7 
8.345020494720449e-6 
5.540742454649087e-6 
2.457368322881166e-8 
1.2687658327510013e-7 
2.734435599533633e-8 
2.482404837655893e-8 
4.0184826327668836e-8 
3.27948260346207e-8 
8.69048194318948e-9 
0.0003415585041601856 
0.00010361559120531721 
0.0001098955512261309 
0.0010697333639543283 
0.0008822434799843962 
5.488061680598379e-13 
1.6652637287406879e-12 
2.929456970638076e-13 
2.5513845951890067e-12 
1.582123294475463e-12 
0.14061956597852104 
0.029451187616602887 
0.34286800556615893 
0.0733061478213171 
0.09142372973036174 
0.08279798287714549 
0.2727110734196721 
0.2413636385954162 
2.6283282196534232 
1.170227713884743 
1.170170794716801 
1.8986442401753534 
6.213777136406368e-12 
1.4665347110918326e-12 
5.983736251861351e-12 
3.973786879930032e-12 
1.936390112551509e-14 
4.76988852068893e-12 
1.2069034783523149e-11 
6.336860177415744e-12 
1.0661526123908404e-11 
2.959822421826414 
1.0377112604323342 
0.03604354133834739 
0.4499816147404356 
1.0348070806826521 
2.1749145449707394 
8.044061996800498e-11 
7.398020238249762e-11 
3.482756762496038e-11 
6.116506448619956e-11 
3.107365614504241e-16 
3.8676690275334134e-16 
5.394792617155126e-16 
6.422040095603213e-16 
1.1312474906850055e-14 
4.750948694412012e-16 
3.912072053123979e-16 
1.6215020627354998e-16 
3.1601271838942365e-16 
9.71947015834474e-16 
3.017184291323159e-16 
8.851717992258281e-15 
1.198770898443576e-12 
4.929420414664363e-13 
4.523306972991752e-13 
5.523613784446e-13 
4.854349311356974e-14 
1.4373341828539645e-12 
8.059985315717721e-13 
2.9041111412718655e-13 
9.16385233075802e-5 
6.124523993387019e-5 
8.478204495338679e-5 
7.361141247637215e-5 
5.9287343651666765e-5 
6.728504932920855e-5 
0.00015482045178295662 
6.532811339412708e-5 
8.332518813686433e-5 
0.6710513635451858 
2.1807161564215254e-9 
1.2060408101463482e-8 
4.45959321611787e-9 
5.2611678592508604e-8 
3.829116268885761e-9 
3.1352951065265603e-9 
1.1210332147617726e-8 
0.00023283390858338108 
0.0009475892321155566 
0.0004389275261432573 
9.803781161161282e-5 
0.00040560214892084226 
7.041777658372959e-5 
0.00021457523981603872 
0.00025741789018318185 
0.21811283455734481 
0.29435584275306914 
1.4341195672189764 
0.09944748025981612 
6.534248118094927e-15 
0.9804450538772678 
0.08456025480945129 
0.01146575458431367 
0.022645928588076864 
0.02365664910397026 
0.7326302156060575 
7.133507177476428e-15 
0.057585155038293014 
1.0127712010047587 
0.0418421422053574 
5.266185502793519e-15 
1.746474605268486e-15 
5.2969222944886735e-15 
5.26884607899702e-16 
2.82024538885048e-16 
0.030547035541691834 
0.0057543673022980996 
0.06874748806225066 
0.05030707056253604 
0.031491840380633275 
1.4942665122783438e-6 
0.008587467364096608 
0.7409280306002162 
3.4532886526318594e-6 
0.37751035880994516 
0.6439063195628978 
0.7726363519253008 
0.5494454051211929 
0.7675040367541605 
0.2767450159076751 
0.9199059304498126 
5.276084880751606e-8 
9.946112555691916e-8 
3.516566153944594e-8 
6.776161961493068e-8 
2.0834210181991332e-8 
6.514820554108114e-8 
8.121509295193826e-8 
4.779833395857101e-8 
9.690963359243367e-17 
2.241172601969127e-16 
5.826023619636779e-16 
1.3009642605119582e-16 
1.167200759261066e-16 
4.710745840932525e-16 
1.6584474364534094e-16 
1.2519915984079296e-15 
8.457655140244218e-7 
1.0309234081996539e-6 
6.268161422385143e-6 
7.232970356796801e-7 
2.2691187992108345e-7 
7.903379957811355e-7 
5.505128292702697e-7 
1.2143984187813616e-6 
0.022320087280792072 
0.41960127513721357 
0.0244773455287512 
0.07226819477267553 
0.066051701191378 
6.50942116180841e-12 
2.5923418750159246e-11 
1.621812445583088e-11 
1.5599250145475456e-11 
4.9633458682089275e-11 
2.8968311728090885e-11 
7.338788614500012e-12 
6.2375010433722576e-12 
5.98178263037151e-12 
2.405729287933086e-16 
2.4067609883879755e-16 
2.5494388881487183e-16 
5.483374294949921e-16 
1.606456702320934e-16 
2.4150111376479107e-9 
4.874205820691369e-16 
4.482419454784886e-16 
2.096674129445368e-15 
0.00010852938580156705 
0.00011477966435800193 
6.369143191057151e-5 
0.00013422418348751862 
3.9007814007066485e-5 
4.427207115806159e-5 
2.159743333633895e-5 
0.000627679669712473 
0.005350816382349756 
0.0010431343360108943 
0.009775530523357426 
0.0007026344908206606 
0.009009803097046756 
0.007723525801532021 
0.00848319767393817 
0.0024605026566863857 
0.008126854586697702 
3.5555382516633984e-6 
0.010883892934250619 
0.10105862166769887 
2.375645034394919e-13 
1.406209153037863e-13 
1.4832059159829775e-13 
1.174644476348053e-13 
3.691704318339369e-16 
6.242481318877417e-16 
2.893517244918834e-16 
1.3452437123575474e-16 
6.544487388037325e-16 
1.6530541965033871e-16 
9.043554779238494e-17 
0.1891902100277651 
0.014016053279317073 
0.12221310765079785 
0.47779761302051105 
0.01981905112458668 
0.058095828313947294 
8.20552347582366e-14 
5.3566493284274496e-14 
7.648185109657018e-14 
4.47267117177155e-14 
1.7127847032214645e-14 
5.0019077194470644e-9 
2.1524631686805796e-9 
3.6637790369899805e-9 
1.7821013535247517e-9 
5.550162040197774e-10 
1.945160720860113e-9 
7.597976742673342e-5 
7.850212161920352e-5 
5.070526711518322e-5 
4.1139983495438085e-5 
7.979082429285592e-5 
0.0002187021030068479 
7.1344915764426736e-12 
1.6669987981054703e-11 
8.781257644274506e-12 
1.1798981725166173e-11 
1.9999717022031784e-12 
2.968157673426576e-12 
0.000218466658835295 
7.719857199906637e-5 
3.311292601969516e-5 
5.744086496954221e-5 
0.00027913147493505223 
1.5609927321539944e-9 
0.001443474703245944 
2.982734302419044e-13 
1.2551605373003037e-12 
1.7637421911643619e-13 
2.2238610711512043e-13 
4.739330843957861e-13 
4.265117746574525e-8 
1.9368675910929128e-8 
4.6627049502439955e-9 
1.7350355567735364e-8 
1.4335918779366257e-8 
0.00938482256670754 
0.016005235829012605 
0.014722686031828478 
0.010443323651861873 
0.00020327542317260107 
0.0002152168015184883 
0.00018423700132014643 
0.0001848842574454032 
0.0002834233686578396 
0.0020337396086741806 
2.2210927105014048e-7 
3.720674785294216e-7 
2.675783074801224e-7 
6.340260401583496e-7 
3.1183512704564414e-7 
1.4143737044068618e-6 
5.001473448771686e-8 
7.145276915091243e-7 
1.0003610128278304e-7 
9.887023401391886e-10 
1.4614420429353894e-11 
3.3122771276472814e-10 
1.350778112483083e-10 
1.2018017845677956e-10 
5.877158765381378e-11 
1.5737803235239758e-10 
7.529331283459344e-11 
3.243911625210189e-10 
3.666356732752657e-14 
1.850833346062968e-15 
8.14100288819806e-14 
4.992645135738273e-15 
3.763253178753532e-15 
1.8371525928502994e-15 
2.1544335960033852e-15 
2.274187465409775e-14 
2.3106170827892503e-14 
1.8962303036711675e-14 
1.9663480149856485e-14 
1.2424804868022288e-6 
3.5520933047780795e-15 
0.3699715583259742 
0.1431827946063113 
0.24844117697179324 
0.0329902229873176 
0.5616207463966472 
0.1870718579760656 
0.0008447295105707318 
1.6019005778539287e-15 
4.3155399280779395e-15 
1.4950286711909155e-15 
5.36655523143112e-16 
2.4914865815242666e-15 
3.198756685739607e-6 
1.1324921865628954e-15 
5.699369235294841e-16 
1.9569035339553e-14 
7.781943259013153e-16 
1.805933364611568e-16 
3.009949343074623e-16 
1.5340269088610425e-16 
8.654877417918819e-6 
1.1173776812910783e-5 
1.854069159652587e-5 
4.49686153066114e-6 
1.6007330034801352e-5 
3.260068466039146e-6 
4.8405364464681915e-6 
1.427192383469016e-5 
1.4182029455778267e-12 
9.88921248122598e-13 
4.266153095495585e-12 
1.0373651127138044e-12 
1.6913942412875717e-12 
7.238784291121305e-8 
8.26543381743497e-8 
5.0673328697545143e-8 
4.4950492583700185e-8 
1.1955590941220835e-7 
7.494663200634809e-8 
9.365452493947032e-8 
3.6715131636893616e-8 
1.1691622632351909e-8 
1.8351979453436034e-8 
1.082783108515218e-8 
7.084766908876298e-8 
3.6847526552581287e-10 
2.3919322631727874e-10 
3.8569963075253566e-10 
2.8982323316189216e-10 
9.710019924919747e-10 
3.9906240332409323e-10 
7.108815675165994e-10 
4.909394631908057e-10 
1.919739530756913e-10 
1.9926501002591402e-10 
1.9560763393386285e-10 
7.668204930456216e-11 
3.969881669593528e-16 
3.7586870370584106e-16 
1.0179535734202421e-16 
2.730421321073237e-15 
3.5141477421341467e-16 
3.7269736067604103e-16 
1.8061733180222907e-15 
1.1247890640582088e-15 
9.171241807112816e-16 
2.4514996446404496e-15 
3.295490973191313e-14 
0.0023929725135554587 
0.0036245116400237115 
0.002504349943371461 
0.003790734572683572 
0.00227533344576349 
0.004224841392952629 
0.006992166368964836 
0.0016814273202609238 
8.315578108717459e-14 
1.839838839285816e-13 
1.4108585024132324e-13 
9.216850761154387e-14 
6.996208258744927e-14 
6.197727861913664e-13 
1.315271859310636e-16 
3.235003490647319e-16 
1.9270228116642166e-16 
2.654183157593983e-16 
1.400500354869408e-16 
9.705712489151863e-17 
2.527325147386553e-16 
8.350071138117e-17 
1.6113841410639787e-16 
7.822720251303865e-17 
5.739816247773803e-16 
1.2697759023705921e-8 
1.9353163903842944e-8 
2.7225925246828955e-8 
1.1750201500584955e-15 
4.2483035352005733e-16 
2.0175066512041553e-15 
1.0112651476456382e-16 
3.5078715735592293e-16 
4.942572527615468e-16 
6.246266172216219e-16 
3.5674697085444964e-16 
2.183771103247314e-6 
4.507600217338668e-6 
1.701441497709147e-6 
5.20825956538196e-6 
5.395433157675984e-6 
2.773909426512468e-6 
1.1238140049125316 
0.13455657711486851 
0.8524082603517262 
0.4273214096697798 
1.4278535856137993 
0.8256293850725502 
1.1215871042898935 
0.9285583317469258 
1.5331444068221785 
2.5091584825284754e-11 
1.4061372396314151e-11 
1.0599104099678851e-11 
2.6225282711249556e-11 
8.212565348500659e-12 
6.226472117292492e-16 
1.168680612369863e-15 
2.9899889111864705e-16 
1.4880192623633555e-15 
8.461457660519216e-16 
9.139452548983618e-16 
7.045011198268173e-17 
9.521937127213023e-17 
2.7292189001764486e-16 
3.3962624355275075e-16 
9.98474288877389e-17 
1.19658675191931e-15 
1.878602105299527e-15 
2.5466208687708863e-15 
8.260061008951779e-17 
2.1329242829286111e-16 
2.3971430242815145e-16 
1.0265329319034189e-16 
1.2387279977502152e-16 
2.2138684116038642e-16 
6.893471079199873e-16 
1.0335188337174858e-16 
1.1108605376724895e-16 
0.0011622609270667472 
0.0014167685550774264 
0.002074057531009727 
0.0006645717032828332 
0.001066732695192562 
1.2889726744422796e-9 
3.7059721813479193e-9 
4.561465247488206e-9 
4.299308042685773e-9 
6.46130135681799e-9 
5.773590973489676e-10 
2.838783447103326e-10 
6.907360260600632e-11 
7.034433423134468e-11 
3.5717685340411564e-10 
2.698804172694256e-10 
2.1600872501868988e-10 
6.092601176534586e-11 
1.1224844076882618e-10 
0.34681668573459645 
0.00023253359412828668 
0.5638051434129068 
1.8205867944127845 
0.8897336137473519 
0.04056651921660364 
0.8232733870705053 
0.6772896725958873 
0.0018990551582532622 
0.0035465533517843512 
0.0020672208323794885 
0.017769004336823734 
0.008167379410015635 
0.14494445861850544 
0.0036761218711624318 
0.017552352004776808 
1.7717627570608315e-14 
6.888432152637592e-14 
2.4373269268406518e-14 
5.234577452571517e-14 
3.9591591293157767e-14 
6.233381791948139e-7 
8.231781912221699e-7 
3.7291889937374633e-6 
3.651830260740366e-6 
1.3407186447576185e-6 
1.2377283974606724e-6 
7.510330300152034e-7 
1.699105397775596e-6 
1.1129229044894695e-13 
7.791660881842649e-14 
8.010863534175755e-14 
8.64773603098549e-14 
6.39202714117811e-14 
4.339273321174893e-16 
5.580470007283178e-16 
9.208281905070602e-16 
3.9877325731465607e-16 
3.0916658152909063e-16 
2.1358658788667603e-16 
1.1312288180439524e-15 
1.2163678924614786e-15 
6.256295422930386e-16 
5.026724458495042e-16 
3.921971537932628e-14 
5.590425659888072e-14 
3.5504597740252684e-14 
7.899603384098513e-14 
4.9065872253890166e-14 
2.843785508477092e-15 
2.617719384543937e-15 
2.1220407165493447e-14 
2.7280402925063803e-15 
9.628207852037028e-15 
4.5732295459710795e-15 
2.9502693769881782e-15 
5.34710306700483e-15 
8.486038632599057e-6 
1.1406561942054886e-5 
0.0007609114050459559 
4.034999536716475e-5 
1.3693179808962825e-5 
2.090010766891377e-5 
3.852517246846647e-6 
1.1138878992367771e-15 
6.183400774332186e-14 
2.8201298950081436e-10 
4.0366461923500945e-10 
1.9205421409172602e-10 
1.6049222906847714e-11 
1.0338876725388382e-11 
1.2592097482642676e-11 
0.18354395006870575 
0.055438691438728545 
0.029443512097001696 
0.04823615056729313 
0.03038901811310788 
6.487460826809541e-15 
9.586154867350591e-15 
3.0025556225370777e-15 
3.5649190056561484e-14 
1.0052981300922215e-14 
9.22842707764267e-15 
1.1567758537007913e-14 
4.2307976982903535e-15 
0.18967843059664735 
0.5658667256368963 
0.011853714040243405 
0.9811362206798474 
0.4586826027673353 
2.159945346314592 
1.9126809242578058e-11 
2.767886916015783e-11 
6.704216260752946e-11 
3.956161097712233e-11 
1.6311691039383798e-11 
1.424968637947437e-10 
0.26064577658440824 
0.30379912277785603 
0.30346113524958906 
1.206855267344448 
0.37570959522255126 
0.6385842696925866 
2.096363230382766 
0.917851942342404 
1.1397953982972648 
0.9644104389443341 
0.9700726753625917 
0.03530956849500118 
0.7871098358770005 
0.3732107573064742 
1.5774300088768374 
0.24364459630457208 
0.09526162067834304 
9.73256274313949e-16 
1.2929667890104994e-15 
2.031072161972207e-16 
5.042476347173495e-16 
5.527361051427582e-17 
1.5623826420934095e-16 
5.778897166410918e-16 
4.507586564928456e-16 
1.264803424765667e-15 
3.026291195680868e-16 
3.682302530533276e-14 
1.724255050388882e-13 
2.1047949959300252e-13 
2.808814592924102e-14 
8.560799673004982e-8 
3.721802170727984e-8 
4.7568835376138835e-8 
9.804278415565217e-8 
7.210424626967212e-8 
4.374253802759358e-5 
1.9951589114146936e-5 
1.3340485622492217e-5 
1.9652265168676578e-5 
4.091926869613552e-5 
0.0001097927025379154 
7.455560988445124e-5 
9.094736462654382e-8 
1.5809122350239284e-7 
3.148349163269026e-8 
2.3379540894718868e-8 
3.256399917964114e-7 
4.029096388714427e-7 
5.069381177971618e-16 
2.6714128947744745e-16 
5.278735572188483e-16 
2.8982925188119005e-16 
2.968008637152813e-16 
5.496910039495582e-16 
6.662943092936443e-16 
9.631272589864741e-17 
8.921982537002623e-17 
3.192827713992019e-16 
2.243661439520688e-16 
1.8542936794950776e-16 
1.1975816586562916e-16 
7.937016962208787e-13 
2.1961893655873651e-13 
6.495887214344998e-13 
1.780198619435679e-13 
3.0577123489932404e-14 
5.28004185720317e-13 
8.884281959816103e-10 
4.1024731568651983e-10 
3.7110104578048383e-10 
3.3192324822767173e-10 
1.2489725248302707e-9 
5.812064082521623e-10 
1.4312779730310804e-9 
0.1647850209125783 
0.0006049368182225826 
0.0016124762367969363 
0.00019603277536600085 
0.00013079702150024038 
0.003172789480250523 
0.004257715522308079 
4.809266084848187e-10 
2.0805317356881066e-10 
3.4757834963298906e-10 
8.199512694664336e-10 
2.736666775734556e-10 
5.336677654394719e-10 
3.6009127411848695e-10 
2.0232135803256447e-10 
1.3325541736072031e-14 
7.52679990481093e-15 
1.684887488627421e-15 
4.532382218766772e-15 
2.4086998521744082e-15 
2.0939075269957216e-15 
2.1082721629601317e-14 
1.8512810706611466e-14 
3.096679833411648e-14 
6.097197232810487e-14 
1.469778750759935e-13 
9.635703971846719e-14 
3.557292081108261e-14 
2.2518393324751098e-14 
0.0001957217629251198 
0.00034108634283985524 
0.0001552810044577983 
4.2943047934426934e-5 
4.976964882516828e-5 
0.00012133523424819196 
0.00012785506595273127 
4.9913117834118555e-14 
2.4130122483789596e-15 
2.308552866557953e-16 
8.979173233129088e-16 
5.083239374381307e-16 
0.00018516910876005275 
8.97835266500775e-5 
0.0002266825220484314 
4.003104433463258e-5 
0.0001551157897192285 
9.210930044323483e-5 
0.00025073156670782246 
5.061268280239614e-12 
3.0514001452163796e-12 
4.259741478984602e-12 
1.2040399507979743e-11 
2.2645887740365026e-11 
1.790180210295432e-11 
5.357238062729514e-12 
3.5825824143746268e-12 
2.1662510759147137e-12 
1.777600290655236e-12 
7.837823200098447e-13 
4.70588368056932e-13 
4.957950539060622e-13 
6.948293376151972e-13 
3.941076915745859e-13 
4.910919879233098e-13 
2.722291872680361e-10 
1.0235277246408049e-10 
5.687507483996367e-10 
6.374968070624216e-11 
3.9412963673305013e-10 
3.301680553432414e-15 
4.429845024946652e-15 
5.9475351610458936e-15 
7.18893970002163e-15 
6.308303838986484e-15 
1.173947156045257e-14 
3.0314596064573117e-14 
1.3779075587125168e-14 
2.959945972083838e-14 
6.167510282648447e-14 
3.538817053218182e-14 
0.44051198420648885 
0.644373214331431 
2.179580981209801 
0.9359335200410718 
0.9845252566212984 
4.222702560793328e-5 
2.415004371004822e-5 
7.506858757641764e-5 
3.650481167748729e-5 
3.301815745279591e-5 
1.2511185251969656e-5 
2.6401747737156833e-5 
6.309676088670284e-5 
0.00013855615819709436 
2.826694704505265e-7 
1.3533643833439292e-6 
3.8928237865898914e-7 
3.2565712783690955e-7 
2.5276235153506187e-7 
1.9163032425366285e-7 
2.0848267199443312e-7 
1.06737211609196e-10 
1.4541579092469242e-10 
4.501418545507875e-10 
2.142819254430797e-10 
3.655779817963411e-11 
4.3872651335609494e-11 
1.9183175399815475e-9 
5.450620320975546e-10 
0.005479598624485459 
0.010123565682083668 
0.02094829941608101 
0.00244058644038678 
0.024046655543311757 
0.0022406585931635703 
0.0030238995903886915 
3.930591834269461e-16 
3.8063235487032705e-16 
8.197907002632721e-17 
7.606836031304935e-17 
1.3072591338206598e-16 
2.2590135916602866e-16 
1.46143027467825e-16 
2.7425927861305717e-12 
4.387763118055278e-12 
6.719080492640782e-12 
1.6524827875721522e-11 
2.392357618702944e-10 
9.944727175873644e-13 
6.900505582972918e-12 
8.592262509211874e-15 
1.5204637278195859e-15 
9.695603387680637e-15 
5.479134047583323e-16 
2.274365500920306e-15 
2.880697896068386e-15 
4.675689347109575e-16 
1.6194298922294312e-9 
4.863433850207088e-10 
9.39489864980764e-9 
1.2204653558824536e-9 
4.0701079223374854e-10 
2.2644995822830166e-10 
8.442069766781827e-11 
1.0498054699323761e-9 
2.5014127863896627e-10 
4.653283151621383e-10 
2.9049737630715814e-6 
5.292081236778708e-6 
9.462300292326292e-6 
1.3345131420559896e-6 
6.4693276365441474e-6 
5.585353755638062e-6 
3.0434143309466314e-6 
2.903850830932204e-7 
1.3707681397434575e-7 
5.341348520398954e-7 
4.6019069275708076e-7 
6.43320238104789e-8 
4.210171891307597e-8 
1.9142056763991144e-7 
1.0998654357642748e-7 
1.3701392344805899e-7 
3.5147340020819924e-8 
1.2082534293756624e-15 
3.158739033574768e-7 
1.2619455983757175e-6 
8.207754804994705e-7 
4.93335556838084e-16 
2.535223238577076e-16 
4.408560670421218e-16 
5.496055197453024e-16 
2.615792555277118e-16 
4.4272386047832356e-16 
4.265357188710881e-15 
6.794954030764151e-15 
2.8167037661735297e-14 
2.0595276786902988e-14 
5.148484338270316e-15 
9.82464170707529e-15 
8.524750039469435e-15 
3.9039331823319786e-16 
1.9389434974804804e-16 
6.232733040708931e-16 
3.417718084135956e-16 
1.7709175958016028e-16 
2.5259592726291106e-16 
2.0236945623528848e-16 
1.2686098775213237e-16 
1.7084809550083902e-16 
3.637483341386234e-16 
2.0773420493127647e-9 
4.727865525467382e-10 
1.922671069419736e-9 
2.4702798425535384e-9 
1.0066777305855528e-14 
1.0964720523677467e-9 
5.548462508810853e-10 
2.70452273113351e-10 
3.2782191717825484e-10 
3.6941020376595965e-10 
0.04572512556017476 
0.03352852393245474 
0.02175116338566083 
0.033966661384855525 
0.04456129749891335 
0.050976615745925304 
0.025629494131905795 
2.9309355691594295e-9 
7.879438880728913e-10 
1.1159778739818602e-9 
1.869451743186713e-12 
1.8495344704027513e-12 
8.829585214656171e-13 
1.261314331228845e-12 
1.5685613652578255e-12 
1.2612412593680176e-12 
6.521355878351921e-7 
4.419668498971579e-6 
5.902827823243133e-7 
4.962330935562557e-7 
2.0699794592375205e-6 
4.02455638545627e-6 
3.2973374386000256e-16 
9.570004533190055e-17 
5.339980527561452e-16 
2.138024303694158e-14 
2.3165281470684717e-16 
2.4622581871927517e-16 
1.9675245586408507e-16 
8.400298458140267e-14 
1.2024612962345465e-12 
1.5258579384806278e-12 
1.0682875549098909e-11 
5.806324227138696e-12 
1.344670137500897e-12 
8.274253976301507e-13 
2.536137795650894e-13 
1.3855882101820577e-12 
2.1608152855488738e-12 
4.245613331931419e-12 
3.4438197467646577e-13 
1.1159579977953834e-12 
9.355891572477688e-13 
2.3894907734038994e-13 
4.050566586442436e-12 
0.005141718871172647 
0.002862773968540897 
0.002995877722546266 
0.0012443955153194988 
0.0030448497486151964 
0.008659621186428414 
2.1241724176024596e-13 
2.0236524433262952e-13 
3.0621757654513375e-13 
2.378636242162773e-13 
3.341728813131872e-13 
2.4353340766835445e-14 
7.097529031124826e-15 
2.2407181926014883e-15 
1.799125549940731e-15 
1.8955300801961133e-12 
5.937613179892093e-13 
5.946842906017629e-13 
1.088171478766196e-12 
1.2732463307396413 
0.4635536423970632 
1.4074273341021084 
0.5685975157301971 
3.0111403485259056 
1.2615694113085434 
9.351941305872546e-13 
9.217969316658555e-14 
1.2884201316071398e-12 
4.367370682387343e-13 
4.4981179400450733e-13 
3.6910330341646277e-13 
2.612961788334987e-13 
2.0188296369421897e-13 
5.010137262929012e-14 
1.2220885519454842e-13 
1.0428381418089778e-7 
1.0056871821584483e-7 
3.714368179876794e-8 
0.023535614362604262 
0.023310070520797994 
0.02692679742363755 
6.38405271086257e-11 
2.2551585527099438e-10 
9.960673077599765e-11 
2.1609325547516441e-10 
7.359615519652305e-11 
1.1097665186672993e-10 
0.025888564987467555 
0.8246576601844479 
0.9590462798393397 
0.808933133087134 
0.06866936520122235 
0.06688314942317895 
0.28979367303879755 
0.2546722723212485 
1.7781778388718126e-16 
1.777364939167789e-16 
1.3766920104452781e-16 
1.502503390365178e-16 
4.457567179168906e-16 
3.15043670124516e-16 
1.9194119752398798e-16 
4.821931010035758e-15 
1.5742023389501463e-14 
2.1533613551173073e-15 
4.192971715446977e-15 
1.5211276518414908e-15 
1.7648114769307983e-8 
4.68500010431025e-8 
1.1633155337461454e-8 
2.119869673874802e-8 
2.499751021398346e-9 
2.3012490559077167e-8 
2.0313756885293784e-8 
6.841565941746997e-10 
1.2988522725329965e-9 
2.068189609681921e-9 
4.1032096204595095e-9 
2.6633942116266922e-9 
3.066865100602218e-9 
1.34328302007077e-12 
6.418043715093523e-13 
1.4370080254977222e-12 
8.190390416477547e-13 
1.3011985711358486e-13 
1.1906071868609706e-12 
0.8031493310525133 
0.991135067469325 
0.9710844254362393 
1.0336700029247248 
0.4965348673085108 
0.3274295011908458 
0.4363681044388204 
0.2877312847309826 
0.6076534876615142 
0.03482645079371495 
0.2349356115715517 
8.234480678051665e-14 
1.5684562525924014e-12 
5.4324746986621546e-12 
6.8571307447397686e-12 
9.590853606702584e-12 
7.219870439674989e-12 
4.179391461558484e-12 
5.37366102388118e-12 
4.4836453340503e-12 
4.785386047305105e-12 
2.2941463889859502e-12 
1.6648841936778768e-9 
2.3421080908347137e-10 
5.346612447828229e-10 
8.615024538157259e-10 
1.0089378586379994e-9 
2.302821737883039e-9 
3.369528728167267e-8 
2.363446277044322e-7 
1.5868892384210055e-7 
1.3111857395850032e-7 
4.8013677270915496e-8 
2.5204205530082704e-13 
4.40605431256333e-8 
4.766434767750897e-7 
8.64499478425967e-8 
6.666044837187965e-8 
8.383337378402338e-8 
1.2030951924993263e-7 
4.959622417320545e-16 
4.0517039571806864e-16 
3.3734966163910467e-16 
2.0004898563665715e-16 
1.2516610085376232e-16 
1.7105553005949757e-16 
2.883322337364773e-16 
3.9401231693086126e-16 
5.234267880449631e-17 
3.777428257931162e-17 
1.0395276683355168e-16 
1.225253326863112e-12 
4.914080631375867e-14 
2.0356734160781296e-12 
4.414465649749514e-13 
2.7625692656617917e-13 
2.244035576697383e-14 
1.259276856491401e-13 
4.119547069600087e-14 
2.7144217516542646e-14 
1.0217214990318089e-14 
1.6651949082612585e-8 
9.924687365452951e-9 
6.692108065460825e-9 
3.037282355471979e-8 
7.367020145485423e-9 
1.2631717545534375e-8 
3.287161847798206e-13 
8.283622927476425e-8 
7.864548175997935e-8 
1.7936051278978487e-7 
1.826840359122756e-12 
1.5524406574851572e-7 
1.8295212263549952e-7 
8.430663252716869e-13 
6.773405337496144e-16 
2.550535213893897e-16 
4.09071962870201e-16 
1.6118315021643825e-6 
4.880464274270063e-6 
2.2430331919497414e-6 
5.952484932487419e-6 
3.48902812205694e-14 
5.939859732025383e-14 
6.63171534773478e-14 
8.444622529206738e-14 
1.5899623072383386e-14 
7.12718295653637e-14 
5.880363480171621e-14 
6.079272247629465e-14 
1.4085719082439429e-13 
9.522624086700112e-8 
1.290858312102854e-7 
4.1123562446527263e-7 
1.2178014108694592e-7 
9.859128038007617e-8 
0.022756177909339165 
0.19887774267093944 
0.07978730753895451 
0.08679246125820271 
0.060136950332704844 
0.014157808236256736 
2.7505466182974073e-15 
3.3704192524478174e-14 
3.680106158083033e-14 
1.4485750188554356e-14 
7.731364542692525e-15 
4.1576987596686884e-12 
6.6363581013017395e-12 
1.7164420564180102e-12 
2.4445235344518643e-12 
0.0007880998186008144 
0.0006358076363330816 
0.0004677363728832512 
0.0016955549047597727 
0.0006980785900426105 
0.00033877712393108605 
2.2887977389345916e-16 
6.329350602413897e-16 
3.2148226813073727e-16 
3.761957237482573e-16 
2.2299835321537726e-16 
2.2697998345450853e-16 
3.5015654253462753e-16 
8.007767200454204e-16 
1.520074462192259e-14 
6.974925539408503e-15 
9.049926298406254e-15 
2.749624937249335e-15 
2.85391059757877e-15 
9.803098113801112e-16 
2.7880407696085875e-16 
6.291302975024477e-16 
2.8102029416228043e-16 
2.150040667348514e-16 
1.7663948730069995e-16 
2.553955535510668e-8 
4.1289699213792725e-8 
2.02503778117541e-8 
4.426802410687268e-8 
3.240589454763104e-8 
6.717616631900065e-8 
1.5141861949842206e-8 
5.976817505941422e-8 
3.174640962942e-8 
9.916167581589526e-11 
1.7116429821990642e-10 
1.0158445024953895e-10 
4.1211763813806196e-11 
2.2800522138986803e-10 
1.4153002944981883e-13 
7.90494448488316e-14 
1.3559069483404753e-13 
7.39477055592517e-14 
5.6825032025327964e-14 
3.265855016109858e-14 
3.026965593387737e-14 
1.1587887230853863e-11 
9.762715987718857e-12 
5.117742029947697e-12 
4.260055481542833e-12 
3.411744101827044e-12 
1.1667688317475706e-6 
7.13573936943398e-7 
1.1807707775654851e-7 
2.344321600230087e-7 
2.697472865370628e-7 
1.0938625576155325e-6 
1.2723487402161346e-7 
2.534006991245043e-9 
1.329705292865487e-9 
1.4855769111417834e-8 
2.025026862877848e-9 
6.432542877619775e-9 
2.1093648196146023e-9 
0.000248435016545347 
0.0003565195597055752 
0.00047954390058514294 
0.0002136965645009013 
8.407543239010874e-5 
0.00018882936827744576 
0.00011458835674437233 
4.792368597725698e-6 
3.650606114692801e-6 
2.803566776946195e-6 
1.0400120296867935e-5 
3.0843289630872066e-11 
9.708868168555891e-12 
6.418726704502145e-12 
1.3272079441077002e-11 
3.370817749516198e-11 
7.512325550626856e-12 
1.7392761650725186e-11 
1.4114304078726381e-8 
9.849745131651224e-9 
0.0022259951166101665 
0.005889127558095325 
0.009936565293538773 
0.013193238811887506 
0.017479411001789805 
0.011926719477009047 
1.1710961329467245e-13 
1.6447621964305217e-13 
2.7540805819403547e-13 
5.1634655117719483e-14 
8.217302548575306e-14 
5.206881816857433e-13 
2.0916921554624112e-6 
3.845849898738496e-5 
8.297592277033917e-7 
1.3620263523512903e-6 
1.1085139560995768e-6 
2.8009085110637073e-6 
2.0280628814710893e-6 
2.1307891932414554e-16 
1.1789629049234708e-15 
3.8958632941632024e-16 
5.854017303420829e-17 
2.790362494595285e-16 
2.8661167968393255e-16 
4.137956438457265e-6 
3.0592978927963152e-6 
3.986929870481273e-5 
2.632478415151839e-6 
2.316904116244742e-5 
1.453231772703479e-5 
6.059520492488122e-6 
1.5474550539689e-5 
2.2599126559353677e-5 
1.608037035902407e-5 
1.1948876098524043e-5 
7.901471037540105e-6 
6.041488578050132e-16 
2.2202865576319298e-15 
1.2327300369297764e-15 
2.378991644197843e-15 
1.2947480247366752e-15 
4.725211662216763e-15 
5.256655320254881e-15 
1.8636281528187812e-5 
5.783044476463023e-5 
2.0374849650511404e-5 
2.28409615543589e-5 
1.4743825191330853e-5 
0.755828108229912 
0.005800300193681559 
0.7210474618667453 
0.019113122226767875 
0.7191364789303977 
1.0534217301768016 
0.6928332256537473 
0.021061117116601087 
1.4348986697359083e-10 
1.3950622881292215e-10 
1.7954146536740172e-10 
2.077897974583182e-10 
3.933001246589691e-16 
3.97699103972762e-16 
2.845946177220395e-13 
2.646560498072965e-16 
5.485265085446399e-16 
1.4133588092925278e-16 
5.452696084720749e-16 
1.4143009654913214e-7 
4.227210815714559e-8 
4.108928441816991e-8 
2.9650046970440576e-6 
1.794438433742819e-6 
1.1454046524683548e-6 
1.8033325252341674e-6 
9.932127784154818e-7 
2.6380164111312667e-6 
2.554859145850304e-6 
4.675727668101283e-8 
1.5547142206227412e-8 
2.7924702535748188e-8 
4.7097487942947135e-9 
2.5839613521189587e-8 
1.8826217914249055e-14 
2.367126055023971e-14 
1.07742580922807e-14 
7.124832009734703e-15 
9.473484560027967e-15 
1.574656057541554e-14 
1.5594782566788817e-14 
1.2376602167444243e-14 
2.4707532946823065e-14 
2.667621424161739e-15 
2.1461723551120792e-13 
7.583734309923057e-15 
9.573966310859446e-13 
0.09977211614471888 
0.10293238700167541 
0.21404338112552138 
0.21116521409737252 
0.11249022616590787 
0.05428377814639738 
0.08622321691085102 
0.052231893870536734 
0.02682579838528723 
0.7794203788531873 
0.07416158954897456 
0.9160772310973111 
0.9455942545905484 
0.9078447512550699 
0.0006239493581953872 
0.0002912352256924595 
0.0005197037880969292 
0.0002108216654451413 
0.00024972014351386815 
0.0017819890865747793 
0.0004777918158460376 
4.090531333972505 
1.9379282488208227 
3.2184150198878614 
0.4144118073855124 
1.902487278787363 
3.78865509988618e-13 
3.234048338928919e-13 
3.678345033895816e-10 
1.259240009803896e-9 
7.341350852756697e-10 
1.3865148494349381e-9 
4.4121275078524035e-10 
3.775396235281103e-10 
2.2795926104413536e-9 
5.648570633907962e-13 
0.0012346404869016283 
0.00028646675372487963 
0.0018190855085891814 
0.005190029897775599 
0.0009796376253831383 
0.0013439656223851195 
7.065896316969187e-7 
3.849244976705255e-6 
1.3383391620888395e-6 
1.218474179584716e-6 
2.4789723170313963e-6 
2.2407219647447292e-15 
2.0883945477502132e-15 
6.520274016794702e-16 
1.3000070281218162e-15 
9.73459988542866e-16 
1.4350059814168176e-15 
1.4875389287070823e-15 
8.450926126370214e-13 
2.1995017784421008e-12 
4.823172818237458e-13 
1.4126268117982035e-12 
2.9041684715246716e-11 
2.1335960314653122e-13 
4.157429803742548e-9 
8.283716566811725e-10 
1.3477720044780196e-9 
5.550113189801689e-9 
6.838347335412456e-9 
1.8805754343279949e-10 
6.562081347387041e-11 
1.8871494304421617e-10 
1.636506850121418e-10 
9.285304153803508e-11 
6.408315117996161e-14 
1.1997826437647726e-13 
1.7633208124268715e-13 
1.7470370905603935e-13 
2.7338009768063943e-13 
1.2619840476649058e-12 
1.4339452458781914e-13 
1.9166471832667796e-14 
5.6670491643342643e-14 
7.167490098381482e-13 
1.3666044639212327e-10 
5.2491326671297063e-11 
3.3340759048599514e-11 
4.128695836942895e-11 
7.820142611231933e-11 
2.785327331689295e-13 
1.9469135659581325e-13 
9.522236158988225e-14 
8.470941124748751e-14 
1.8721939034418504e-13 
1.205879128865102e-13 
2.987935342681189e-13 
2.581442850621329e-13 
0.015465039734612098 
0.012118981326296574 
0.031414686116967364 
0.039304654817746754 
2.106214922435101e-16 
1.0199800781909989e-16 
1.9446929345760425e-16 
1.3290451446254527e-16 
7.314685351013583e-16 
4.167181747139428e-16 
1.071715627784106e-16 
8.767146272936686e-16 
7.553117516777175e-16 
1.3160216528372989e-16 
9.866295893702296e-16 
2.0597355128585012e-15 
2.5860820726647615e-15 
2.3488719051046486e-15 
3.099649347374602e-15 
9.76116910794476e-16 
4.504336404123148e-16 
1.472396848304554e-11 
5.497931081304293e-16 
4.0383273053244167e-16 
5.152695022797011e-16 
7.260791706199652e-11 
4.0850494631836656e-16 
6.050119464245697e-16 
5.03424112059633e-16 
3.8680807331719306e-16 
1.2764243358277543e-15 
2.6141102080944584e-16 
3.370215011631675e-12 
5.675160440257218e-12 
5.458004131096119e-12 
2.740128193487426e-12 
8.300954516321889e-12 
5.645170167504045e-12 
4.389222303613955e-12 
7.04856615952606e-6 
1.3879282989696447e-5 
2.389441273382068e-6 
5.158735464971897e-6 
4.403413009195677e-6 
2.2038023268719764e-5 
0.00015455783133866722 
4.153052232632333e-6 
1.930672152971067e-5 
1.5232207783222801e-5 
0.0004121465336339957 
0.0004864402811202587 
0.0005154546848014977 
0.00011279036063474415 
0.0002686938620535399 
0.00011146386040639324 
1.2021355093599003e-8 
1.7438950624797693e-8 
9.319863156451958e-9 
5.513023778307182e-9 
2.1357566726386834e-8 
7.02554697362624e-9 
6.883569202847776e-11 
8.642531493658385e-12 
3.095373354032354e-16 
2.2635146769284726e-16 
9.818433636049366e-17 
1.6714253192152946e-16 
1.8737319100070935e-16 
1.3499968531901237e-16 
1.7889737969016037e-16 
8.576750633140225e-17 
7.842002547954034e-16 
6.742331251435267e-6 
1.1880019682594867e-5 
3.921197849510764e-6 
6.716201577407202e-6 
6.013711811899734e-6 
5.896367700505272e-6 
6.411572554313326e-5 
1.6767772384197434e-5 
6.577891431277879e-6 
4.583822571428506e-5 
2.0473742526972412e-5 
1.5014173349099222e-5 
3.846405313095699e-5 
0.3804417578249052 
0.2230383917851326 
0.45468090161129504 
0.29528066648565526 
2.9018885675958197 
1.4493296974271474e-7 
1.1841228101871672e-7 
1.1086947604345883e-7 
1.618018312509145e-7 
2.766080261144917e-7 
2.6339072470692587e-7 
6.508652140197892e-8 
3.3584276950393866e-7 
0.00388137554212403 
0.003998648233673657 
0.0141938832064794 
0.004001418685802311 
0.004859055209236062 
0.011637759072723006 
0.0506048788894149 
0.0034323787899592406 
0.0022903549631385646 
1.1408012246218873e-9 
5.3626495784598e-10 
1.844518815353461e-10 
8.734126170002385e-11 
7.349066627580235e-10 
3.1464166856978586e-7 
6.05442922147904e-7 
1.319791552003724e-6 
5.061509346750115e-7 
3.134224595176051e-7 
0.0005334287441363832 
0.0023052466858276763 
0.5223600266776923 
0.0009578664148355748 
0.0032444725093114966 
0.005460707602773395 
0.002003250586163553 
0.000802835926958849 
0.005922673974531531 
0.004707750632442365 
0.028115128986220483 
0.0034906074166192987 
0.004763613309833512 
0.004398148303142802 
0.004615754007669494 
0.2816341960090161 
0.013336026281620861 
0.004565400229424015 
0.005398534316609055 
0.06651440805240971 
0.11225340042425566 
0.01916072720085956 
0.00032981100703831693 
0.04678768254591232 
0.06208497425763489 
0.0316440442057871 
0.6813240970390245 
0.08650685568056016 
2.74152373543653e-11 
3.0185517591332744e-15 
2.1575240071125467e-15 
9.961125517764843e-16 
8.623108896424727e-15 
8.253620969941362e-16 
5.9575430889709795e-15 
8.446259213001622e-16 
2.566810986106986e-14 
0.07360027004999471 
0.056464875092683935 
1.0509877035531978 
1.14101700695263 
1.6404974317446337 
1.0811557382970147 
0.7964470926157586 
1.902964595462045e-5 
3.7396305322212513e-6 
1.5310111706638257e-5 
8.878937861223063e-6 
1.0108337954446065e-5 
4.396435701840983e-6 
9.322675986741909e-6 
1.0658020807662088e-6 
1.5399454869090656e-5 
1.0006021449176567e-13 
1.1061406608981687e-12 
1.583734370494303e-8 
1.6853927474136664e-14 
3.9715008150705357e-13 
1.2500348198676588e-12 
4.3653822869647695e-13 
1.2791239711297647e-12 
4.123137266446324e-13 
9.124065585636683e-9 
1.1313665136404232e-12 
6.945664859907577e-13 
5.040983743544589e-14 
0.6264066103264389 
0.17880430072558182 
1.4495049228116017 
0.318073677366493 
0.3037562996818592 
0.6581134362403538 
0.15335877224564204 
0.21012733033691727 
0.4491336332063998 
1.8733000631232128e-6 
1.6209056435080811e-6 
1.3643661420304085e-6 
5.00368338226329e-6 
2.6975589809345222e-6 
2.717909343967295e-6 
5.825390299256789e-5 
1.0784400810300194e-14 
2.5110707314590732e-14 
1.0889054096225961e-14 
3.55963396809783e-15 
0.0009238514840482728 
0.002283568220621232 
0.001436208991582285 
6.328803136597066e-9 
5.010651252541561e-16 
1.816367638809783e-15 
6.495166843348245e-16 
1.0628755547517723e-15 
2.8412750152222168e-8 
1.2664497781023556e-15 
7.183389604301398e-16 
5.521239310012128e-16 
9.857206306334698e-16 
2.061365215140728e-14 
3.0731367249723696e-15 
6.932893793046355e-15 
2.3152116515748548e-15 
1.1616795315595396e-5 
1.7116540149176235e-5 
2.8489255662370595e-5 
1.7914550800508866e-5 
3.977340711808647e-5 
6.298246010112682e-6 
1.8171190422877224e-5 
1.551903686874357e-5 
1.3691809252180194e-5 
7.091823508807381e-6 
1.9541706516794472e-5 
1.2601975584976768e-5 
1.1969596392373991e-8 
1.2256295287184946e-6 
4.3708290165950465e-6 
2.0806745832672725e-5 
4.362390962656782e-6 
3.3798098503626016e-5 
3.097520652659311e-7 
1.0798782196479562e-6 
6.512160343813155e-7 
2.136418721090554e-7 
2.2610068014663869e-7 
7.033722227957549e-7 
1.5218462157305498e-6 
4.4544173739896905e-6 
1.4181554683192673e-5 
3.088019831367659e-5 
2.9829459207249217e-6 
5.1911854477812284e-6 
5.23266712241259e-6 
2.3350709515813826e-14 
1.156061134009318e-14 
4.266002542333688e-14 
2.1843630772251604e-14 
3.1264884183409266e-14 
3.406137003314323e-8 
8.89839853322234e-8 
2.4636070538206354e-7 
7.467677795834418e-8 
6.260807777555336e-8 
2.7347859833588444e-7 
8.478544848389383e-8 
7.812170743988791e-8 
8.13003686255556e-8 
4.2825326431409675e-8 
1.1289145947407148e-7 
1.6224320003260846e-7 
6.14739857403074e-8 
5.42661571333691e-16 
9.326283260458016e-16 
1.2513746719613362e-15 
5.84344011261409e-15 
2.376031973267413e-7 
4.234069741221461e-7 
6.545034111478057e-7 
8.964585147665547e-7 
4.753504662763084e-7 
3.4049919552552095e-7 
2.423415091773046e-7 
0.0009151770455801593 
0.002031877875509718 
0.0017024040063267445 
0.002029767659631193 
0.00025337289213447494 
0.0002462052396673254 
0.00037083226490462214 
0.00019760765602725415 
0.00025108086247236625 
2.956716114371236e-13 
6.99049159572549e-14 
3.3653485873184754e-13 
1.195388376423217e-13 
2.0199298423754596e-13 
0.0030099032737786182 
0.00100005633976845 
0.0007217846753465584 
0.0014270810005600101 
0.002597806586663453 
0.0025573412255911637 
2.0630372288827495e-15 
2.851276074855262e-14 
4.641199477197133e-15 
2.9545553323237346e-15 
6.866225538525698e-15 
3.0529732824561036e-15 
7.792198241532854e-15 
5.968113915723307e-15 
0.7905774517220707 
1.1554957905256344 
0.00017954664706017187 
0.8607528165769868 
1.8686776582870999 
0.030719409378680132 
0.3549090474861839 
0.6326897630494096 
0.0017869699148325528 
0.0011675026296048743 
0.0017576115118088929 
0.0004745970298997773 
0.0006739528789904135 
0.0008682514170551279 
0.001741461648393238 
5.017273893962058e-9 
1.8153382306631426e-8 
2.0465420533561955e-8 
6.936226818396904e-9 
1.4192165170761328e-7 
3.6460705649454423e-16 
9.733213597528275e-17 
1.5680413787167788e-16 
2.966622359218117e-16 
4.804479324793253e-16 
2.213059576944587e-16 
2.4162374543056416e-16 
1.798278897959503e-16 
2.4373971957503417e-16 
9.992155866493876e-16 
2.2357270582813667e-16 
0.0010121682645690495 
0.0016832582345941171 
0.0011182439334188493 
0.00039248070966931643 
0.00016837790380414062 
0.00019954330622551516 
0.0003960901214770463 
0.0005407027570306568 
0.00030550529605049355 
0.000224012688904161 
0.0002889359519223797 
0.00022107977439881477 
0.0003063827103900485 
0.00011015893527296133 
0.0003461444416795207 
0.00033982624425241663 
0.00022669072261745008 
0.00016923070356419787 
0.0001183774722820827 
9.373280621691322e-5 
1.4385378246018465e-7 
2.871847984860224e-7 
6.486459431726445e-7 
2.6138644181284426e-7 
6.249608320393847e-9 
6.924928767692361e-9 
4.928395668850043e-9 
1.9503742196381427e-9 
2.0193541498505476e-9 
4.573023560349353e-9 
0.020264183212546392 
0.8100796988100976 
1.0794147456643766 
0.22685373031694414 
0.9860238674470805 
0.09019667581988289 
0.5728074465145684 
0.2035439839827444 
0.49922541117442465 
0.00048283615050825917 
0.00120541069304508 
0.0004330693742972373 
0.0006026371755444304 
0.00196886004976477 
0.0015214826051912617 
6.089201450601765e-13 
1.930103224286705e-13 
2.8366659441004973e-14 
1.1906403857485404e-13 
2.7769779272486923e-13 
2.4305442878026432e-11 
5.102597585307221e-13 
0.0007040240758566319 
0.00045709920332300024 
0.0003910473012895834 
0.0006852979693644309 
0.0010642906394510475 
4.875298578796723e-10 
4.6338706564306964e-10 
2.205350770944417e-10 
2.468292310763919e-10 
3.705395639278256e-16 
9.68647458747711e-16 
5.118547262947345e-16 
4.588213423945812e-16 
3.213410300421379e-13 
2.6567481270454123e-13 
1.3371747427790133e-13 
6.04713092649615e-14 
3.770258079916442e-16 
2.4403731603332003e-16 
5.592579271281848e-16 
3.197727152902472e-9 
7.854270096258148e-16 
7.232416069735723e-16 
4.486776633326571e-16 
3.496825592115011e-15 
4.837068367915293e-15 
1.0110154986668882e-15 
3.5391050158909105e-15 
2.0341874005113374e-15 
2.0520129511158972e-15 
0.08186864389790598 
0.10590365179273788 
3.090265458875424 
0.3879434468422842 
0.44560037056565077 
0.6769966400774192 
1.381585953185799 
0.5096935133576198 
0.3963296586231814 
0.23314596619809838 
0.3253325698884633 
0.16325545463577767 
0.1113434223441304 
1.1525837894540325 
1.1970553870863256 
0.23098356202604017 
0.014055031210411269 
0.5083793920552284 
0.18787883387970736 
1.16588987707706 
0.08537507002580873 
0.6008621097827991 
1.8782861276676808 
2.6484543299322986e-8 
2.460435425709737e-8 
4.7389200042837844e-8 
4.920808320328793e-8 
2.6854317054431787e-13 
3.0611920739015166e-13 
3.7798244728005033e-13 
4.280355278096132e-13 
1.0252976870035963e-12 
4.759927327070588e-16 
6.410280631979319e-16 
1.8828813675224574e-15 
4.573615391634382e-16 
3.099307049358421e-16 
3.0953032929436487e-16 
4.773454296157286e-16 
5.322086039273078e-16 
8.262174800457566e-16 
7.476346920485777e-16 
4.876658971064208e-16 
7.813904451560465e-16 
1.3459250005305765e-15 
1.2300285127929023e-15 
2.3436352549664247e-11 
7.047928181135559e-12 
1.8966917482486597e-11 
1.500373545208619e-9 
1.7458988756591498e-11 
3.523236051028107e-11 
4.891998162228499e-11 
8.457483820326463e-12 
4.318563951413382e-11 
8.325860057883972e-10 
2.3803674178130628e-14 
3.117527342457004e-14 
1.635923269114455e-14 
1.3918590700458423e-14 
1.3586005973097609e-14 
2.197273300673088e-9 
8.516041983679561e-9 
2.499187502759279e-8 
6.578498173840455e-10 
4.187907405528165e-9 
6.890963042707534e-11 
2.096475371726034e-9 
5.590785549116739e-10 
1.7360751648160565e-9 
5.306440159054128e-7 
7.422461868726481e-7 
3.5011652399687816e-7 
6.565934186195038e-7 
1.3200049594583788e-6 
1.2162454823030729e-5 
1.6472671241340524e-14 
1.2259570981450442e-14 
2.6405781241616938e-14 
1.0751177137602192e-14 
1.2863674022636988e-14 
1.6024549607596196e-14 
1.4080561561830892e-14 
7.256028981267929e-15 
7.708587795970153e-15 
4.849571783867491e-15 
3.29762685378257e-15 
1.4513380039415271e-15 
1.1243788494957094e-14 
1.4350952877908665e-15 
3.926404521678808e-15 
4.935720939033579e-15 
5.395655484697322e-10 
1.731510341261886e-10 
3.4284518974787125e-10 
1.2285290429036657e-9 
1.0909147037358967e-9 
5.120839803509147e-10 
8.279679002468501e-10 
4.793355418390684e-8 
3.465422721848911e-8 
6.331630797631156e-8 
3.606788400979481e-8 
1.1834245111278466e-15 
1.3361761834217582e-15 
7.684185433841342e-16 
9.500984855593044e-16 
1.6437270105198425e-15 
3.2234042336534755e-15 
3.722648356941042e-15 
9.759151526413128e-16 
2.8728285713444186e-15 
3.9522046092581865e-15 
2.4089162958194927e-15 
2.467020158979919e-15 
1.6788898951535163e-12 
1.3846879590342369e-12 
6.898777657084535e-13 
3.4571985165676633e-12 
1.0106246257805082e-12 
2.8769650208315432e-12 
2.344347922355606e-13 
3.5967053173951535e-12 
1.2152510625541794e-12 
3.1055729109356647e-12 
1.2906992497747517e-12 
2.3387085515528727e-12 
1.064087434045563e-10 
3.511213006856119e-13 
1.3004669540541163e-12 
6.209590808080709e-14 
1.278747809217708e-13 
9.174048128180465e-14 
3.9822201757510136e-14 
3.151951359436629e-16 
3.4258525185618496e-16 
3.699311317309997e-16 
3.3903421663920537e-16 
1.415724868260372e-10 
4.2845765307296645e-11 
8.514709597913045e-11 
2.0515685123331726e-11 
1.7610508382448045e-11 
1.9356682427436184e-11 
2.7770551488687216e-11 
1.4925653846893314e-9 
2.5470916899779064e-9 
1.1985893275880724e-9 
2.1718308579750243e-9 
1.1713778823251584e-8 
1.0796811442297237e-12 
7.003640952581999e-13 
2.0030258699488364e-12 
4.309873513340345e-16 
1.3741951760311976e-16 
1.5662402927901144e-16 
2.236615614738612e-16 
3.4968003737427977e-16 
2.0472363794021958e-16 
1.5707719968717793e-17 
1.23501450033528e-13 
6.628687810425542e-14 
7.755758246636145e-14 
3.0605207036749653e-13 
7.822924238547984e-14 
8.361456821463773e-14 
5.663581817929365e-14 
7.923915413612513e-14 
2.5672401557659876e-13 
1.882458177534654e-13 
4.2164220635655804e-13 
2.60385837811034e-13 
1.0626804030108773e-9 
4.532297009416314e-11 
1.6012530119289003e-10 
1.9887435073788176e-11 
2.592666895334286e-11 
2.494817223486168e-11 
2.3059980617322856e-11 
7.262090843278954e-11 
8.696371600734878e-11 
1.0182137215703544e-7 
5.04173484971887e-11 
5.245418562161155e-12 
5.582988378236512e-12 
2.398422909166258e-12 
4.618594782542504e-12 
1.6751610193267748e-11 
1.2333417437200787e-11 
6.1558456611239045e-12 
6.796513317333045e-11 
7.15954808588736e-11 
9.90351444485762e-11 
6.667802031455744e-11 
4.610110242598192e-11 
2.148591620788007e-11 
3.2685697735058052e-12 
3.58887762908949e-11 
5.171703159782737e-12 
7.827825594958146e-12 
3.316269531729299e-12 
0.00022273084272607995 
0.000460532485289376 
0.00028728547636455704 
0.0002150846913706147 
0.0002050346662469002 
0.00028288332157942606 
0.00028028896935415967 
7.921871032613106e-5 
0.0005096055924744287 
3.73883530778241e-12 
6.1981959727077105e-12 
9.713946854457447e-12 
7.585929999585482e-12 
7.01374735485759e-13 
2.1692268987468284e-11 
4.015239025273846e-11 
1.218069732652161e-11 
2.073476268796529e-11 
1.1269604119519106e-11 
1.0146350929026673e-11 
1.59682602400543e-11 
3.2946843297973082e-12 
5.035460138997367e-12 
3.17396317812442e-12 
1.4818107775138483e-11 
2.0107760192705576e-13 
2.9475016620664113e-13 
2.1686250324160372e-13 
2.3962588648212084e-13 
5.127113703422189e-7 
1.1866368210183998e-7 
1.4761162233848528e-6 
1.3864066899161625e-6 
8.025826610062837e-7 
4.979515593908111e-7 
6.411580980642917e-7 
0.9878990936919505 
0.7403538221241509 
0.46832255012995383 
1.0352770023111169 
0.0758271028737922 
8.09340004363503e-8 
7.192255000092938e-6 
4.5580001792831497e-7 
5.542663122252749e-5 
4.382395995024663e-6 
1.3367809551921236e-5 
2.1434758963489283e-5 
3.3722370589682127e-7 
1.0932515581209959e-13 
2.1064150501754863e-13 
5.378004810241643e-13 
1.4495669724520463e-13 
6.967370272419604e-15 
2.0678270992990194e-15 
2.91675125102827e-15 
6.058905548619576e-15 
1.0770526100189217e-14 
4.579783180873546e-15 
2.8214520282267903e-15 
4.683825717516399e-15 
0.0890510999851128 
0.742363319568564 
7.002629041786324e-5 
0.05233446817673664 
0.14322003171694417 
0.08977674507469872 
0.020717464497574733 
2.621179387792082e-14 
1.2328696818957024e-14 
1.2717458086697838e-14 
2.4706712864069807e-14 
2.1097181004153954e-11 
3.617464014467387e-11 
5.78621919415037e-11 
2.4054474197388544e-11 
2.0347988927214215e-15 
3.841161610226738e-15 
3.606011871861448e-15 
1.2762608807775914e-15 
5.5369569812494836e-15 
5.079058975001471e-7 
3.09507808720884e-6 
2.2195465675098142e-7 
1.2818238953872443e-7 
1.245402924978212e-6 
0.0008142817148157694 
0.0007285234926461621 
0.0005465267770303356 
0.0011089338768869605 
1.3621793122466814e-14 
8.453975330431873e-15 
1.4586595612472334e-14 
1.4753397093058544e-7 
1.5891722056466572e-7 
1.433887169254074 
1.4401047306729386 
1.9563050023023363 
0.60299915767823 
0.20772888839213752 
0.29841733244029384 
8.436902252543732e-17 
5.86028929667626e-17 
1.817714894409042e-16 
1.9331562029791823e-16 
1.2981475920987796e-8 
7.893849394492282e-17 
0.00537832049136125 
0.004159296749421541 
0.004847934699852063 
3.0883418394664494e-8 
0.0007396708472795412 
0.002049554966493901 
0.0025600340617499577 
8.618868540420587e-10 
5.856372698237835e-9 
1.428658199587443e-9 
1.7890765294896916e-9 
2.7961062253620208e-9 
3.6046874096461997e-9 
5.2307989231188124e-9 
0.09400508331326797 
0.0648623999308654 
0.08981745944843045 
0.09691207508396796 
0.596165349186142 
3.6136542835329174e-16 
5.080479268943998e-16 
3.3433019010629217e-16 
7.762743162356892e-16 
2.150455774626819e-16 
3.2677594120618686e-16 
4.82324420114699e-16 
2.0116236822643427e-16 
0.0036787581985814268 
0.0036008087776171196 
0.026934585171520475 
0.002477754544410083 
4.536751784129846e-6 
3.29246969776121e-5 
6.232398869344283e-6 
6.628756806833397e-6 
7.876915950232396e-13 
6.441088443127983e-13 
5.6958284806241e-13 
1.4155060835488624e-12 
1.9724900489465356e-12 
2.488331224632633e-10 
2.0504562476499619e-10 
2.680484073943228e-10 
1.0050463439680387e-10 
1.0285271742696333e-12 
2.3964814633181224e-12 
5.138682958219159e-13 
2.2299803019952424e-12 
2.5896726266302588e-12 
2.2911106155469843e-12 
2.9922612671869693e-12 
1.7492860041369506e-12 
2.331849627252889e-12 
4.856970075252117e-12 
2.7936346527885336e-12 
6.665672718555182e-12 
5.497377465375308e-12 
1.2033500434192915e-11 
2.068411845667071e-11 
2.6296970593791995e-11 
5.60211988737112e-12 
2.06629214460708e-11 
9.108694995642843e-11 
2.995346359806128e-11 
2.011619425864259e-11 
4.045954125441261e-11 
1.1481174506089277e-11 
1.4251602499868647e-11 
9.826875100883698e-12 
1.3507570432165565e-15 
1.6581830293644186e-15 
1.0734317511248883e-15 
1.4375359403488621e-15 
2.152838552638853e-15 
3.746187813525325e-12 
1.568576462489736e-12 
2.497188839224578e-12 
5.847574801884574e-13 
2.902638439473414e-12 
9.279262650301717e-13 
0.0035584735999883432 
0.004735585156260484 
0.018724644360136523 
0.01182680285122548 
0.025347515230855964 
0.004066269560924355 
0.0035361840905097897 
0.004622280886933614 
0.008711604718262014 
0.007807744277464597 
0.008789562048854642 
0.008763594079254965 
0.009402769619639787 
3.211280690857581e-12 
2.59137240953123e-12 
1.1967809892758682e-12 
2.1515658974693802e-12 
1.0782284447152367e-6 
1.953240727629317e-6 
3.021291169526464e-6 
1.3840404452788365e-6 
2.5377783258893144e-6 
7.245621992732324e-7 
2.668567913878963e-7 
4.140927477582048e-7 
7.234965891262258e-7 
5.173499956113533e-7 
9.12478712147356e-7 
4.385684929870971e-7 
8.92593294595558e-7 
1.6660213817349066e-12 
4.3416297879931446e-13 
2.1830312227051221e-13 
3.620494915191626e-13 
1.352702268744368e-13 
5.001068029929495e-5 
7.357969174490552e-5 
0.00022486926356238046 
3.3750359462732286e-5 
0.00017129323885252968 
1.7706705901809416e-8 
3.5691006126367185e-9 
8.243675601708942e-9 
5.525884120743782e-9 
7.747484404565415e-9 
0.09364644231585692 
0.10503246665891229 
3.3607441273065404 
0.11967563295359375 
0.09507961170466417 
4.799677447525842e-15 
2.4177182171780483e-14 
6.573084219507534e-15 
1.0871857332545662e-14 
5.6219067938299235e-14 
3.647377912098584e-14 
1.0517010024371395e-14 
0.006082114328688395 
0.01155134336135134 
0.02054981418513529 
0.008508607730286746 
1.4473999640274328e-8 
1.1071414626234159e-8 
2.137350565913971e-8 
6.513212735555737e-9 
1.8537641667205336e-8 
1.5764972938701725e-8 
0.19169157732413392 
0.11595324966375146 
0.2403764072086104 
0.20549830366082436 
0.1760668016388322 
0.7709457817608877 
0.45142446920375545 
5.063199845965717e-13 
2.060469941915554e-12 
9.177754977345688e-13 
4.4928974841996816e-13 
1.0118837285187985e-12 
3.083243561318296e-13 
3.3885007987773712e-6 
8.535331562868412e-6 
3.0260791906356053e-6 
7.825509183468337e-6 
4.1726122648443134e-7 
3.817202051951622e-6 
4.118905906753392e-6 
4.8365219333438395e-6 
1.619434648781175e-8 
3.025050585753357e-5 
8.957611074898323e-6 
8.767560926859798e-6 
7.784720422795703e-6 
3.2493053253437286e-6 
1.4498203548419497e-5 
0.0035905678851554774 
0.0024107209430292813 
3.8059371035610224e-8 
0.0026366031070617748 
0.005008614849405054 
0.004394982298683995 
0.0022258833947906673 
0.0023927262225152306 
1.075277217251323 
0.8833489840437042 
0.32684202782588667 
0.5826550080612659 
0.2557768718974234 
2.154091924143653 
0.00014042372947062538 
0.0001491504086592419 
0.0005352853820408066 
0.0003725094590676843 
0.00013239725523566032 
0.00010938709088571089 
0.0002351027308552749 
0.000136882928361014 
0.00013684782073356816 
0.0005505115024741426 
0.0002528835352779701 
8.946073501796668e-5 
0.002445368543122199 
0.0004375659372067863 
0.00045685605410655924 
0.8639873336547418 
1.012066952820852 
1.2519710647365911 
1.3455927752241559 
1.0081182442347932e-5 
7.065860545455015e-6 
3.372682166915236e-5 
1.4484822292793958e-5 
3.6669429592831676e-5 
7.900059115010634e-6 
1.585637408429682e-11 
5.2209272742965205e-11 
8.545320518577262e-12 
1.166416297447689e-11 
1.79084610383795e-11 
2.6506547838624266e-11 
0.06923921695574424 
1.2471746918797333 
0.44366200294216795 
0.09173996955517935 
1.3343305708972522 
0.23738449405877923 
3.245247285704321 
0.3327469088907373 
0.031245776150609517 
0.023611328487724095 
0.05646871748647917 
0.01706328087441405 
0.10455373357165676 
0.13723720055493657 
0.022734130111036525 
0.014079051349313183 
0.009596717686313996 
0.06333067333971834 
1.186698798236154e-8 
6.628256469404876e-16 
1.1420663295385152e-16 
1.1934321292191057e-16 
3.2389929199994204e-16 
2.5848915491080023e-16 
1.3904980968453807e-16 
2.1859333292080413e-8 
6.28359121931852e-8 
5.1991209503063524e-8 
6.531513199600463e-8 
1.569270744347765e-8 
4.4555707320038447e-10 
8.936436695361796e-10 
7.090465598026482e-10 
1.4503569281378613e-9 
1.7789243160959593e-9 
9.672125657881415e-12 
5.025473277399568e-12 
3.4800879851379034e-12 
3.803020523123527e-12 
0.4694875019168179 
0.226157098093773 
0.4384853105401436 
0.9145404280558398 
0.09855922331663973 
9.937463166418442e-5 
0.00011595088087850635 
0.0005737610077383936 
0.00022346676614875085 
0.0001515959458931039 
0.0005980918122353326 
1.1144091861363138e-15 
1.5778607259579383e-15 
1.3191032735118337e-15 
4.613814637533526e-16 
7.393079811560208e-16 
3.135622389421499e-16 
6.426381501916772e-6 
8.454849365251193e-6 
5.944962237910748e-6 
1.5129432943085256e-5 
0.00630468985170967 
0.010057087942984159 
0.010291203127479751 
0.058906529032457154 
0.04071201322285113 
3.4913036737522285e-7 
0.02190478942189712 
0.007825462928045462 
0.09616836037207835 
1.1551024787842702e-14 
8.579872713423646e-15 
1.0290147428478936e-14 
5.3445444385169035e-15 
1.2967729454760085e-14 
6.1148246324174944e-15 
4.349306210215728e-15 
4.388264533688024e-15 
1.0833393645379656 
0.9634370987850368 
2.092361708053376 
0.697354266824474 
3.810839013052511e-8 
0.9397766794257691 
1.1475770600258077 
0.9051819621510226 
0.39092759731523685 
0.2887729395711896 
0.38525562290020937 
1.2189245511904676 
0.5654074836175641 
0.2051528542954473 
0.0012911266569060383 
0.00398639738021436 
0.0025224340594591946 
0.004373200513395861 
3.4632251114847524e-16 
3.1452997473883503e-16 
4.0072233486730394e-16 
4.715147228854364e-16 
0.01106484909001646 
0.010550118060564941 
0.004054303304729117 
0.025176622572640098 
4.2809794407281175e-12 
3.690761533158305e-12 
2.307366663261449e-12 
4.280855582773988e-12 
1.853537772293777e-12 
1.3684901375983538e-12 
9.244225813231852e-9 
8.825143696690052e-8 
2.496728078169889e-9 
3.997530653322653e-9 
1.2426479088370135e-8 
3.976575514564556e-9 
3.2827367655844735 
0.7760751701944326 
3.4523030803619155 
0.587517497596184 
0.06361562406578937 
0.27575914695963555 
0.054304342208339136 
2.144091363830902e-9 
1.6987339787991202e-9 
1.0753899876985562e-9 
1.4099016257736366e-8 
2.8617101160476576e-10 
8.183201864793931e-6 
4.225560388574039e-5 
8.475018120554093e-6 
2.8674211147076257e-5 
8.407297109026893e-6 
1.2528827519591777e-5 
1.7664209736759415 
0.26328454322954364 
0.2913274861251888 
1.7016554605058785 
0.9154547302894908 
0.2464037402540453 
0.07608755118685209 
1.8468737188602409 
1.3005692249156805e-8 
0.0031599507946624274 
0.0055072488011567835 
0.0010100517784824015 
0.0016322281557514227 
0.001106967370613458 
0.0028697363730227515 
0.0015760655669731652 
0.009124432501593265 
0.0028473133713447026 
0.0024725389007234097 
0.0012618454959891173 
0.0007411543119201406 
0.0014498950758750511 
0.0010242849098345411 
0.0015058269008148331 
0.000777990927112847 
1.2504583892483782e-8 
6.211799429440665e-7 
9.677078381344425e-7 
1.594506025321889e-16 
1.5446793329805787e-16 
1.9922551012125503e-16 
2.3155832166286856e-16 
1.9996778100614254e-16 
1.2142668806366605e-16 
1.7175974630782237e-16 
1.3401499146124477e-16 
1.241572419645833e-12 
6.472506766912697e-13 
6.474858249257494e-13 
2.4756143049122866e-12 
1.2270713422513999e-12 
1.2234439284694367e-11 
3.774899953304504e-12 
0.8348138411745756 
0.9677852548135779 
0.14224343610021029 
0.3642228609761719 
0.10095311759098838 
0.79585680582199 
0.004219196928926123 
1.051712531175882 
3.0340395521425987e-7 
3.382725068371232e-7 
4.6254104509868716e-7 
5.9044368637373976e-8 
7.542583380907465e-17 
3.4380853464947267e-17 
1.4343499673501038e-16 
1.1631986562624863e-16 
1.877448336100466e-16 
1.9566161115234325e-16 
2.379647889255159e-16 
2.4999604954287932e-15 
1.7978856118786653e-9 
6.456370594563046e-10 
7.674921104742457e-9 
3.7518712355160375e-9 
3.6753999217253896e-9 
1.4563651132779134e-9 
3.088541944822874e-9 
2.5267188177049707e-9 
1.374392230377258e-6 
1.1769549815377503e-6 
1.0326836179525257e-6 
1.1980437002092202e-6 
1.1669877139477488e-8 
4.3809573021132e-8 
6.044201896576085e-8 
9.951513624034122e-10 
2.027702100212801e-8 
1.8405919725495125e-8 
2.188654988903597e-8 
8.347196216872665e-17 
1.3180459447251448e-16 
1.7281129420010372e-16 
1.5008074709291462e-16 
1.2964418466038198e-16 
7.550464682785551e-17 
1.3713915097142151e-16 
1.3037697748569015e-16 
6.312613487557313e-17 
3.411826434760729e-17 
4.2867170051308677e-17 
8.92950913195887e-13 
1.193578090395192e-13 
2.375087730464763e-9 
2.5818514933928394e-13 
1.1119775135294682e-7 
4.373374641494664e-12 
0.01376772543950714 
0.04340456114366797 
0.005448852846626239 
0.02027272699993153 
0.01690636879380486 
0.07398754628621966 
1.8097930745151622e-16 
1.6592950927449494e-16 
2.2914862087237227e-16 
3.9837694951464503e-16 
2.2254480846249297e-16 
9.400941236574881e-17 
0.001179444947756157 
0.00032195226648146696 
0.00013813874884877525 
1.4684249118820138e-12 
0.0005452670836032104 
0.20950734619945857 
0.08301741834560432 
0.24114514725205521 
0.18078870403212247 
0.08183897545851122 
0.25757956589787384 
0.13648024816169496 
0.2521214137480306 
1.7228033745702164e-10 
3.867479617067999e-10 
1.9695930924057614e-10 
3.0827110564449754e-10 
4.310290089598854e-9 
2.0120720326248296e-9 
2.463207926822225e-9 
1.5215805113428136e-9 
2.138831803444677e-9 
2.340571360527116e-9 
3.931542435541532e-9 
0.00015670599902703776 
0.5994252892689063 
0.2730546640439987 
1.4362213322521764 
0.008278962337394608 
1.0126590929358665 
0.19579247836455121 
0.6426015537348394 
1.4023399654706519 
0.2011427252267793 
3.4734781157232914e-14 
2.924598992706829e-14 
4.6352986084403205e-14 
6.381180993434425e-14 
9.502379306300888e-12 
6.078268022321983e-12 
1.1881383642873696e-11 
5.112016122116904e-12 
0.3514402826427524 
0.3023488271703631 
0.5947365478238428 
0.34834976010644886 
0.03677250769962135 
1.8183433876179824 
5.196611852172916e-6 
4.58744992755411e-6 
2.9004847069036633e-6 
6.836467372812211e-6 
1.4743444672374239e-5 
3.019828308716554e-6 
1.8109270192301946e-10 
4.455714153718805e-11 
7.800724044639688e-10 
4.586572463739969e-10 
2.922903654085011e-10 
6.333562723461577e-10 
8.088231985039919e-7 
6.275526486066437e-14 
5.3767645637661364e-14 
1.4535153361215874e-13 
3.132397340635157e-13 
2.458115225483896e-13 
5.651744525490469e-13 
0.013103004193514553 
0.06982047208982989 
0.0051304319620329 
0.0008639549399450166 
0.005136716975828868 
0.002610867875031869 
0.006948268143754246 
1.206127508656563e-5 
1.547919983155927e-5 
1.3050322222593438e-5 
1.1089316042806871e-5 
9.620146398046508e-6 
8.925379660047918e-5 
4.9815039280358314e-5 
3.032177391357082e-5 
7.378955547346259e-5 
1.74613342736464e-5 
4.0861885052016063e-7 
1.6393553923620558e-7 
4.183097939835211e-7 
3.1899283889105055e-7 
1.313998285913065e-15 
5.88585168139542e-16 
1.1066491539076486e-15 
2.1338656113939564e-15 
4.402542492833158e-15 
2.7221551061711727e-11 
1.3120015147965772e-11 
4.5198454447723936e-11 
5.973869611013076e-11 
4.8672728220133424e-11 
2.80470047726054e-16 
3.6921848668852067e-16 
6.659663015797659e-16 
7.894556780059622e-16 
1.2314180470648e-16 
1.674205315596845e-6 
5.622593554571961e-16 
1.813352597071772e-15 
2.3251698359958343e-16 
1.0577454962618771e-16 
2.4362782071615054e-16 
1.3339087298920886e-16 
1.4827837498173115e-16 
1.0825922275593835e-16 
3.4049384641336213e-13 
4.972676257884381e-14 
9.070146843183643e-14 
6.672604851643952e-14 
7.317893579157585e-13 
3.187451012538867e-12 
1.5392820513807913e-12 
6.582339937726683e-13 
2.715894001657506e-12 
1.3201974008946248e-12 
2.7967451959059946e-12 
9.080903407856099e-13 
8.825737365450367e-15 
5.2180662514960115e-15 
2.4033418530429897e-15 
1.0494306014498415e-14 
0.01008115771635983 
0.02619727148458238 
0.017930567743003514 
0.007661264526336533 
0.0077661721102744805 
1.9066553685571592e-10 
2.6086330283357634e-10 
3.4068259633964344e-10 
4.789184557296944e-7 
9.420136316838984e-10 
1.7389374480749698e-9 
1.0090417226815006e-9 
5.72788810940257e-13 
9.403139422342868e-13 
8.09590322534513e-13 
7.53074243494944e-13 
1.1630976494926204e-12 
9.29362882733967e-13 
1.1928280835269578e-14 
5.604440877457484e-16 
5.957979385346619e-16 
1.4897412683672096e-6 
3.3861800060291725e-16 
0.00013804852176789844 
2.249218474093971e-5 
9.665292024662166e-5 
7.739519306158091e-7 
0.0023532387623094388 
0.00010299131908764348 
3.8284990328247605e-5 
6.253228945705559e-5 
0.00014096001310962404 
2.9604113455482195e-5 
1.7556212181817776e-5 
3.7209382271121905e-5 
0.00011778670804521145 
4.979223202708261e-5 
9.506084194996255e-5 
0.00023000580488266034 
2.5525469128713097e-7 
1.1121450297903644e-7 
2.7708696056579544e-7 
1.0396181958066331e-7 
2.5926317914534296e-7 
4.110259657834578e-8 
1.1245729412591368e-7 
1.6589951029274953e-7 
7.492225925102748e-13 
1.902663209825399e-12 
1.0978852410926249e-12 
5.831619435047083e-13 
1.51676223408203e-12 
8.448375077270477e-13 
1.11378606768712e-12 
3.686305643177751e-8 
2.360090538983883e-8 
3.8733013369747935e-8 
2.46817037454891e-6 
1.866961715012234e-8 
1.5694073490799293e-8 
3.1672235567004325e-11 
1.082987712617924e-11 
9.169559917567675e-12 
1.2584131168966187e-11 
4.76666088085069e-15 
5.721301699654844e-15 
1.2376871808824343e-14 
2.1621688335693847e-14 
2.0748012849713012e-14 
5.948702405717406e-11 
3.185517787850105e-11 
9.222798782890891e-11 
7.712747751199107e-11 
2.490957865515538e-10 
3.659105835742294e-16 
3.987236839760911e-16 
3.987707025831463e-16 
4.025472682346167e-16 
5.081903981831579e-16 
8.098223883373328e-16 
0.008682613562024481 
0.012764002109115265 
0.004558013316570091 
1.5642097181501077e-6 
2.369985602224285e-10 
4.873513040232015e-11 
4.3475396968286794e-11 
1.4329836279138738e-10 
6.846218248192812e-11 
2.05772978066317e-10 
1.2099281639461166e-11 
5.2527183896901494e-12 
1.2136987199590203e-11 
2.695506637908705e-11 
2.6162431627625162e-11 
4.251602247030213e-5 
1.3971881351791305e-6 
1.2493384489699156e-6 
1.5120440887170785e-6 
1.0638717574347686e-8 
9.284354825893254e-9 
1.1088528819000024e-8 
1.6286975530218095e-8 
3.598987507181112e-9 
4.392110169823849e-9 
1.2157260473525288e-8 
8.219893987575767e-9 
4.233853115164659e-9 
4.942971015059649e-9 
2.9543649175457404e-9 
1.5859263747598749e-12 
1.186213263627064e-12 
1.465993429481077e-12 
6.336213277909116e-13 
2.218214156086042e-5 
9.011130575449002e-5 
3.7073472158795245e-5 
5.898015299821659e-5 
0.004400832996825677 
3.6338206938084436e-5 
3.3843036399681556e-5 
7.731189720624492e-5 
4.953010706423164e-5 
8.704610156714777e-5 
5.710791680515024e-13 
7.281622767368686e-13 
8.268358344977864e-13 
1.1257143529706176e-12 
3.627782735538643e-16 
2.8202045402545185e-16 
4.06582645995403e-16 
4.527037528875976e-16 
8.292716954292377e-15 
4.410980911476237e-14 
3.728952370012767e-12 
8.16499629240222e-15 
5.515981477951583e-13 
6.445485723392522e-13 
1.6595726326033712e-12 
1.9238727153149385e-13 
6.430043998463428e-13 
6.107986935840176e-13 
0.015359573527254552 
0.07991998430211412 
0.007682475001806472 
0.07827503485283573 
5.0476916022356345e-15 
3.537231796045873e-15 
8.864774604316719e-16 
4.705437846880461e-15 
3.3516711386591846e-15 
1.0291708079447732e-14 
1.4932270828864262e-5 
2.757718412280928e-5 
2.663497124580209e-5 
5.693651747620556e-5 
1.0385479274360729e-14 
8.583668254346752e-15 
4.333616094637445e-15 
3.245332298983841e-15 
9.509067755888374e-15 
8.032693075429221e-15 
2.800106434969872e-6 
0.05407463577552518 
0.03876894332614988 
0.28914700531641657 
0.14310063125227396 
0.06342339857126796 
0.040094703143951436 
4.3065931289477044e-13 
1.3961217269797874e-12 
2.860241214138653e-12 
7.45240554828039e-13 
1.3761613041925286e-6 
4.469538185825003e-13 
5.752208772920897e-13 
1.234397002357463e-12 
8.575321869274021e-6 
8.856773837117079e-6 
2.4540421690500174e-6 
8.646272956992373e-6 
4.604338080107815e-16 
3.8882514056089764e-16 
4.212344953571077e-16 
2.441585169214565e-16 
7.851070430004714e-13 
1.1485309029397794e-12 
2.0628721477544641e-13 
2.678996781348602e-13 
3.6497672782524326e-13 
2.7853070724125356e-13 
1.3720878202655993e-13 
2.4477491079681737e-15 
2.5570536369747e-15 
3.1986008194251423e-15 
4.2056412858477404e-16 
9.775934440757821e-16 
1.2624257940402284e-8 
2.333322061729449e-8 
2.932264639069742e-8 
7.939720555982736e-9 
2.599824579514457e-8 
3.5080679559293813e-12 
5.362732954019541e-12 
3.689993648072802e-12 
2.0057592225758225e-12 
1.801566455906426e-10 
3.8453481414960995e-10 
1.6124932656194217e-10 
5.462777317133727e-10 
0.00035973496066068117 
0.0005226183438153866 
0.00021199129603030216 
0.0003017542340735291 
0.0003315804107693064 
4.4694809704603994e-5 
8.178067471590703e-5 
4.6394413136418044e-5 
1.2235151969334461e-5 
0.005158296712171317 
0.002132035452656387 
0.004590284258247376 
0.002732254838046141 
0.4071403919305153 
0.23807535353492085 
0.11856047575773652 
0.2767570851946257 
0.029997563507297362 
7.392861555322876e-17 
6.208309478376062e-17 
1.8105955312907263e-16 
1.378428364733172e-16 
3.0730478031925034e-16 
1.6655932803296815e-16 
6.034813453759114e-6 
5.769646552123094e-7 
3.0420899947432758e-5 
4.005131299628165e-5 
7.479782999463601e-6 
5.957569580663146e-7 
1.120820422566157e-6 
7.798425715372523e-7 
1.1710689228850406e-6 
8.23080781617467e-14 
3.115142908001127e-13 
9.561381472715909e-14 
4.697571995582942e-5 
3.8615448987884e-16 
2.9853653902560034e-16 
2.0870480354643232e-16 
2.8703746177105065e-16 
3.054809666705251e-16 
4.550777194883567e-16 
1.1298749483201083e-16 
3.1627105014655553e-16 
3.205622531326167e-16 
1.7322941004461466e-16 
7.676465382990926e-17 
5.347226644773496e-14 
1.965832553292072e-13 
5.211361314759242e-14 
1.3994205801281996e-13 
4.539501202998037e-14 
2.976597905381449e-14 
0.22324670150238718 
0.9308996489118044 
0.6678320172016913 
0.3322554229020311 
4.0821340364279954e-5 
9.318949859380049e-5 
0.0003014058770925375 
0.0002509384489741686 
8.018138425456684e-5 
2.627816057708487 
5.20958245609642 
2.074816417209353 
2.434819505447852 
2.0110224661463936 
1.9789228643575603 
3.048327587150626 
3.525818865440771e-16 
5.2072738743774365e-16 
3.739555753916283e-16 
1.4705602444342973e-16 
6.060490141185285e-16 
6.704523305674277e-16 
1.772882927521037e-16 
1.5907258387558865e-16 
6.622162555532252e-16 
2.2705044359033397e-15 
5.122458084042481e-16 
1.0926457077575916e-15 
1.5677729940921541e-15 
6.325180006667074e-16 
3.4753716466697146e-16 
5.1188904649907405e-16 
1.1127432923981279e-15 
2.4467901765186785e-16 
6.122540147180318e-16 
4.818787781421612e-6 
2.380416977484829e-6 
5.816629247444686e-6 
5.736409533730864e-6 
8.627437497906311e-16 
1.3462265910157426e-5 
2.2231585385788133e-15 
1.6429958822216534e-15 
4.1912640318841496e-5 
6.989259213236745e-5 
2.4580793957491837e-10 
2.3078482028031413e-10 
8.449052156800529e-10 
2.8485122617039577e-10 
3.365657112174013e-16 
2.870302280828845e-16 
2.4967642586303883e-16 
3.7055944975778657e-16 
4.634457990709583e-16 
3.7078813986946807e-13 
2.1031848719984547e-12 
1.8125948919592454e-13 
1.3083709225579772e-12 
1.2640121455627956e-12 
0.0802040948170113 
0.05736597412645842 
0.28103305951073126 
1.0758889188588819e-14 
6.871150673021856e-15 
2.1236283978997722e-13 
1.1495760822771836e-15 
1.6881495945958527e-15 
1.2330432658080754e-15 
6.674534639042164e-15 
1.5318763151524046e-14 
1.9077037025817555e-14 
1.730018059065155e-14 
1.2914179643246258e-7 
2.88277901893627e-7 
1.883839163260226e-7 
1.723462045543991e-7 
0.00020011310605875962 
0.000543236120894073 
0.00021518145839660537 
0.0004023032084408154 
1.3946112088811404e-7 
7.95899637033926e-8 
2.7368490050019656e-8 
3.579605530980414e-8 
3.9080831498318145e-8 
1.0953086621884288e-6 
2.266025027296828e-6 
1.382695797571849e-6 
1.8606780454335198e-6 
3.963107792640839e-6 
2.0529791241260145e-6 
2.5067860585828932e-8 
2.5130692446428966e-8 
4.7703035654080974e-8 
1.5173355618084567e-8 
5.511197611300436e-9 
2.4609982868381386 
1.324073648122123 
1.89780344679896 
0.6771300069308582 
3.3112925671841466e-8 
2.2050504381734267e-7 
2.8075036981746545e-7 
1.1832597256151858e-7 
3.675033687190579e-7 
1.7230657158066187e-5 
3.861529988380109e-7 
2.1600188027982827e-6 
3.8693927254387755e-11 
2.155524434404536e-10 
3.242415664508857e-10 
2.0585084689325978e-10 
6.769992503744834e-11 
2.7533586777506634e-8 
1.3276655100009974e-7 
2.3923942757620565e-7 
1.3790423708409063e-7 
3.3331140893726984e-7 
0.004055796255220847 
0.025884089520179485 
0.9171564669895509 
0.01870076100681816 
0.025521739805627067 
0.004206463300714965 
0.027122000886679442 
0.0018985180948474902 
0.004286860443053221 
1.3627589152584948e-11 
9.212241054189797e-12 
2.783616685753348e-11 
1.5484725911637176e-11 
7.833894621440248e-12 
9.647990915749754e-16 
1.0332087608838012e-15 
3.2286438958977895e-16 
1.8554068621354699e-16 
4.120143593545906e-16 
3.48924835368329e-16 
1.8318994599944378e-9 
2.5974267061753896e-9 
1.451527632743211e-15 
1.0735658946812856e-15 
3.96620914685047e-14 
8.516088691305239e-16 
6.840289638118553e-16 
1.859701655206384e-15 
5.1818417200302934e-17 
1.7627545680192523e-16 
1.4305342525575894e-16 
1.6844260612414012e-15 
2.5462260685755336e-15 
9.06056606432209e-16 
1.0274966123920644e-15 
4.163185311764201e-5 
9.952289338661455e-10 
2.2597935091820784e-10 
1.7795428379735815e-10 
9.329079319265952e-10 
0.6604566500598389 
0.9777444055324895 
0.41327798773217506 
0.9944203839508241 
1.5506928899875933e-8 
1.3251265793699002e-8 
1.01529599476252e-8 
8.797311558168596e-9 
2.3669229955864858e-8 
0.4985731357784187 
0.9818893311781715 
3.042080299642101 
1.0566489703428226 
9.754501788596994e-6 
4.5062815827746005e-6 
3.7534230302498834e-6 
1.0213450058091826e-5 
4.50026216598378e-6 
5.690761081070088e-6 
1.5173908725528372e-12 
8.856170963720782e-13 
3.754216679510478e-13 
1.678632372713813e-13 
1.0987115930748916e-12 
4.1071326646212043e-16 
3.263007876672601e-16 
3.134852201036549e-16 
8.035219051795341e-16 
0.012476761599778756 
0.022493848995020826 
4.793095832813592e-5 
0.007500393533910379 
0.012868892392907618 
0.019040646763201014 
0.02753830886429207 
4.615910391008667e-10 
6.703136647674354e-10 
5.583948687179569e-10 
5.620110305440967e-10 
3.2328228461731356e-10 
5.998357209059153e-10 
3.4979914699050875e-10 
4.155896060824693e-10 
1.5521425668740752e-9 
1.4803930220404957e-9 
0.01624919636547929 
0.012732636575808037 
0.0025636754023094822 
0.006957178550226455 
0.03218255116725004 
0.0013589244688034113 
0.05996049657945026 
0.0001841300976638041 
0.0017383234888355599 
3.87506367483755e-17 
5.056780642338053e-17 
5.099430434495522e-17 
2.969584403209744e-17 
3.652073101247793e-17 
1.1778638746673077e-16 
2.1187247168276422e-5 
0.0001458754935489826 
0.00017658756161011418 
0.00024075467463549274 
0.0007647218440540465 
0.00020179941704112143 
0.0003208042554315943 
5.764065062693813e-15 
2.481741057673952e-15 
7.614309286931205e-15 
4.175723114224052e-15 
6.0690848078977515e-15 
3.798053193027022e-12 
1.3449217627697749e-12 
3.264374531693337e-12 
2.9749753839073984e-12 
6.49918069018917e-12 
0.8136428991891261 
1.2169229065007736 
0.3523356822017666 
0.002538482723222515 
1.0854197505732381 
0.6210973795129868 
0.42066688633438626 
0.8489968551302164 
0.12001126846278225 
0.4509055607094993 
0.18660931023101926 
0.3719374233840842 
6.715568763194661e-5 
6.836658444159725e-5 
0.00013573220299834926 
9.884626684343443e-5 
5.0655654758768825e-5 
3.496282253379939e-5 
0.0022086717805159155 
0.00041854528514010753 
0.0009391691021493269 
0.0007344473555555056 
0.0008414788899924482 
4.74454655321876e-5 
2.9106321847437253e-5 
1.645352296587024e-5 
4.981658352106508e-5 
4.037383258587417e-11 
4.088087380501123e-11 
3.39467207202425e-11 
1.6177627445989578e-11 
2.7897094973267673e-11 
5.618060584918234e-13 
7.481410034073072e-13 
1.4868133092493366e-12 
7.875099171507494e-13 
8.172240215938992e-13 
1.5985172886531693e-12 
1.660377915592077e-12 
7.843919275109682e-13 
0.008858006069305178 
0.005805044185285798 
0.000900934173501456 
0.003937947251289544 
0.005402838072035474 
4.029267524619758e-9 
1.1496224864969078e-8 
8.266051810972954e-9 
6.440300681034915e-9 
2.833203238234101e-8 
5.06876823390707e-9 
7.845964496754375e-9 
7.183082947343605e-9 
9.330870128979003e-9 
2.473192430533828e-9 
2.47784804600628e-9 
5.8091277174676055e-9 
6.0193412583294e-9 
6.874134421793743e-11 
6.500889725190638e-11 
7.238975438040045e-11 
2.007258780631386e-12 
3.089760986715856e-11 
3.0477955219199434e-11 
1.9748523850427894e-11 
1.988341237260724e-11 
3.9880452669617955e-11 
7.277403591081721e-10 
1.8823331379886681e-10 
7.009304918923893e-11 
5.052957238849974e-11 
4.54438415785889e-16 
3.986329187535499e-16 
4.111002735078804e-16 
9.16780643547167e-17 
0.0023289599629081853 
0.002122006633154787 
0.0011111137401027319 
0.004666359759655716 
1.2842215860081918 
4.631514471454301 
0.9199720063268018 
0.9212721470456733 
4.134753689361958 
2.3835312379736115 
1.2227248212280353 
1.0284535422751917 
1.680072403931259e-12 
2.4803586385959543e-12 
2.1714692147927207e-12 
1.3225472270150874e-12 
4.938730836864535e-12 
8.96106120110249e-13 
3.0273179472603297e-13 
2.6392488127194555e-12 
3.0625403105222497e-12 
1.7742978639681862e-12 
2.1997865959393105e-12 
3.1384825496403275e-8 
7.573068081414717e-8 
1.7820478379823539e-7 
3.5655107381474524e-8 
7.276295709144258e-8 
4.891033520480821e-7 
4.357090055120182e-8 
0.005432276225569163 
0.004348315513832243 
0.005212306022582386 
0.019871620722029932 
6.992286146630732e-5 
7.356593387305537e-6 
2.1876125709660755e-6 
2.447123365551951e-6 
1.4476367308695602e-6 
1.2334170722892262e-6 
0.013443822993964445 
0.022097514460354534 
0.023323918387476997 
0.03096553890067246 
8.749703486766593e-5 
0.00018199990348046914 
0.00012805649363435915 
6.108802201270704e-5 
1.1089270642137228e-8 
1.5313850226181483e-8 
1.174704091676313e-8 
6.585648723053315e-9 
3.6012737824140704e-7 
1.4143974909846444e-6 
1.3449912218511492e-6 
1.2857460300398105e-6 
3.1828316780048164e-16 
3.2202213530015414e-16 
4.1052254263810987e-16 
4.525897581021517e-16 
2.3687134994191716e-9 
1.4748138839384395e-9 
2.442924098230352e-9 
3.090537716728406e-5 
5.294250425234831e-5 
0.0006597581372887632 
1.887169076442756e-5 
1.27176428640085e-7 
1.695168802009599e-7 
1.9538284313314124e-9 
5.097263900449169e-9 
9.681680273162473e-10 
2.6406768143747946e-9 
1.8850346606637923e-9 
1.5737406829394404e-9 
1.7391218227166596e-9 
2.4154222123584433e-9 
4.7306092018394445e-15 
7.81215308469321e-5 
7.78096947187205e-15 
6.7760261730590784e-15 
0.17340063244914097 
0.2922700634942521 
0.3046816014828529 
0.06452587694119624 
0.42132074449566853 
0.1807653171429353 
2.5616035062777274e-9 
0.6929916984127876 
3.798705967587904e-7 
2.074606449994436e-7 
2.2706238601971035e-7 
5.428749575337571e-7 
9.732109710412744e-8 
1.5413853552985494e-6 
1.0108981117626302e-7 
3.2635962339809044e-16 
2.408213759091974e-16 
1.894897643088015e-16 
2.797431136244137e-16 
5.4084981009210955e-14 
8.807036123722316e-14 
5.5775406452550313e-14 
2.5406920011438543e-13 
4.67438870317611e-13 
7.871706181213703e-5 
5.7865687468161854e-5 
7.95148848727736e-5 
4.8957202577766064e-5 
0.0003177140930351938 
0.0009437850228027889 
0.0005734528116739823 
0.0003969577637122682 
0.0011122917901442786 
4.051833770716445e-6 
4.850743503378873e-6 
2.6773800683469312e-6 
6.480072485164989e-7 
9.167829034840776e-6 
8.488905242441607e-6 
2.9910595564004804e-6 
1.4361147602228866e-5 
2.009623112168238e-12 
5.747898828826556e-12 
2.8004310052317293e-12 
3.101517998264711e-12 
5.240379158149332e-12 
7.56078309339383e-12 
4.108735254680175e-12 
2.0450078162166876e-12 
6.232235177987212e-10 
6.751294974067384e-10 
2.9410767353215633e-10 
2.568943878783967e-10 
3.403280597923056e-10 
1.1500050019693213e-8 
2.208551251974465e-8 
1.6002721333785706e-8 
1.1246999199860166e-8 
5.5560174598905295e-6 
5.7446119516682335e-6 
0.00013822329625766218 
1.1585291161260285e-5 
1.312678953991623e-5 
1.6835165474133687e-5 
2.479714635624438e-5 
4.230104980369585e-6 
1.2833602909716735e-10 
2.3615492727425613e-11 
7.734485418360236e-11 
3.914188434354608e-11 
3.5980598296093763e-11 
4.702404418306239e-11 
5.487256788213725e-9 
4.4370829187302595e-9 
3.1020757956783697e-9 
2.6054487144759134e-9 
0.002168049040934502 
0.004788412884648607 
0.00203943362151105 
0.00542988579061276 
0.05538480850943238 
0.05927494382374858 
0.08990447866837084 
0.044988728721004144 
0.01611324194707462 
0.0301882170006936 
0.2557725013214526 
0.6503304082588908 
0.059216097310586635 
0.3828790748021794 
0.11377992894777332 
0.028511345869310003 
2.838468467679995e-10 
0.00024792969123935095 
1.8718832409702505e-9 
3.1615789359551505e-10 
1.6458845587985384e-10 
7.801708687020922e-10 
3.436018179485041e-10 
6.76675068944826e-10 
2.036155117941559e-6 
3.384430040521007e-6 
2.0693421542330565e-6 
1.8012025826808208e-6 
6.86155914779644e-13 
3.169993563571414e-13 
1.4045744414804485e-12 
1.686487133630812e-13 
5.819643459260735e-12 
5.243724545758248e-12 
1.3495909542885957e-12 
1.3493113292557193e-11 
9.346143723003213e-11 
8.842408833066332e-11 
1.0557567168743451e-10 
7.119571069388112e-11 
3.697594377291111e-16 
3.2654180996090494e-16 
1.2776614672955843e-15 
1.085732261784947e-15 
6.261195207757762e-11 
1.2038216645856393e-10 
5.739308660844252e-11 
4.376807528254537e-11 
6.612668578020762e-13 
3.3136468668999277e-13 
1.0798765805216183e-12 
6.398328498705811e-13 
1.168773638363123e-12 
1.8616170336928186e-12 
2.7598542342982026e-12 
3.0500983666574626e-12 
1.2213014168635654e-11 
2.8283545024574175e-11 
1.0068903892063298e-11 
6.627705259470403e-12 
1.0866527575100895e-11 
1.7947905031420776e-6 
7.100012227031892e-7 
7.335363590394984e-7 
6.512502100372855e-10 
3.4451886196395446e-10 
1.6463242680339606e-10 
4.078556450068209e-10 
1.0368441952841255e-15 
1.9183000851779134e-15 
8.850868434129007e-16 
1.4663698630117978e-15 
5.066826142778575e-16 
1.4500437961665165e-16 
3.456033402657937e-16 
3.5015139403342163e-16 
4.283909293159891e-8 
2.296987496629389e-8 
2.740547960963801e-8 
7.126242457272639e-9 
4.212331386010984e-8 
2.3399998814109836e-8 
1.7951793660614268e-16 
1.630764975302263e-16 
2.015795711096764e-16 
6.95009257441511e-16 
9.946207538900614e-17 
4.843541857661613e-16 
2.1853196708676534e-16 
4.756483693019232e-16 
0.0005233670302916951 
0.0018830504171152727 
0.0008178860378343484 
0.0009201331397881281 
0.0018537526090364113 
8.540167718528135e-17 
1.146210748895203e-16 
1.2019753499115202e-16 
7.956586146002347e-17 
7.782892075688406e-17 
9.499569437046357e-5 
6.203543296419662e-5 
5.7106556670335606e-5 
3.88219975947141e-5 
0.42850594877469106 
1.6634997071584499 
1.0359270881650067 
4.2543029606586214e-7 
3.016412484495271e-7 
1.5603019121672734e-7 
5.738705742112023e-7 
4.5353256000206574e-7 
2.2700612789372103e-10 
0.06045095316572712 
9.23938098095721e-11 
1.1393957604550075e-12 
3.5394287765209926e-12 
2.427271026733133e-12 
2.1965501927866337e-12 
1.535245671925426e-12 
1.0773747410150361e-12 
1.238397132914043e-12 
4.740930807204046e-15 
1.6536576861533132e-16 
3.7288606195925315e-15 
2.0832162886437764e-14 
9.48754443519888e-15 
2.6214875955723103e-15 
1.9627423748935566e-16 
7.469163653781726e-17 
1.9267346035711807e-16 
1.6743221858631214e-16 
1.9485590988448093e-16 
2.1784742027783304e-16 
2.8003291706582625e-16 
9.742554378272385e-10 
8.788470572535323e-10 
1.9693046583933153e-9 
4.743125912011677e-10 
1.705075778144099e-15 
1.2882770663376563e-15 
1.8524754101772564e-15 
5.576685425999267e-16 
1.5622113021457344 
0.9203413872335141 
0.05172786594714272 
0.865100517014827 
0.738579318459591 
0.12381955939446174 
5.968116523254027e-15 
1.768667765623983e-15 
3.515430321440782e-6 
1.3212783814753695e-6 
4.1685618405669546e-6 
3.0779636398393715e-6 
6.629377837013043e-6 
1.3702678140031507e-6 
2.583598870784877e-6 
8.808045936716976e-6 
4.732074145048513e-6 
2.062661014063132e-6 
5.273072714955551e-6 
3.440424373689769e-13 
6.70469519484108e-13 
3.1622913881210284e-13 
3.1554476719642734e-13 
1.1129089186108869e-6 
2.059249998802307e-6 
1.1485051270856494e-6 
5.1120892782274e-7 
4.066918535653904e-16 
4.1041385527701805e-15 
2.723511929668891e-16 
2.706843123979e-15 
4.588641127209161e-16 
3.8779285273434165e-16 
6.030625446177532e-5 
0.7461571886607836 
0.9452157099044947 
0.6758220042942901 
0.8398162770482029 
0.07393664941452588 
1.0562153003032138 
0.9426631914483373 
0.0014043147239754367 
0.0005811480942401248 
0.00032920211019859305 
0.0005868154707918421 
0.000641174247408275 
0.00042120406168219137 
0.0018671886786409675 
2.981403205009685e-16 
3.0078121812974944e-16 
6.613212511914583e-16 
3.6780844191191267e-16 
1.230239121658842e-15 
1.6942496883938533e-15 
6.267143926766792e-16 
7.501065813556665e-6 
4.345222601109096e-6 
3.928649531429056e-6 
2.016064116541303e-6 
8.92461812631301e-6 
2.5882659667273768e-14 
2.0515430122661793e-14 
1.6528377238556308e-14 
9.31840692233011e-15 
1.012735887947205e-8 
1.3217805541644893e-8 
2.9665281760392797e-8 
1.8584545793249258e-8 
4.3470784774864096e-8 
2.431292550743668e-10 
1.801776818022153e-10 
5.326505310621838e-10 
5.132419754859239e-10 
2.1219407669235422e-10 
0.6799695417399244 
1.87147275098898 
1.016266008095437 
3.111838853210242 
4.940011046623982e-5 
9.070143876905659e-10 
7.39160631465942e-10 
1.553552872712124e-9 
2.729269120675884e-9 
0.0001820551520336586 
4.3976287225462206e-5 
2.7024570758476124e-5 
1.424901607457666e-5 
7.835994305642836e-6 
7.381643940944825e-5 
1.652385470212672e-8 
1.8926229889712288e-8 
1.1094163868558474e-8 
2.9490665985427886e-12 
1.6375890167822029e-12 
2.9166399160059932e-12 
3.633542340771166e-12 
3.2269664415137012e-6 
2.350784171254609e-6 
2.4765002490220723e-9 
2.8134269904665393e-9 
1.0687121072891019e-9 
3.6453929378267246e-9 
9.533671668879567e-14 
3.0698556773291e-14 
3.1107353582864647e-9 
2.7380419047959774e-9 
2.817525240355933e-9 
1.2073630406555138e-10 
2.003187915851556e-8 
1.0608113618958746e-9 
9.305132593650698e-11 
2.0967911352038953e-10 
4.464479333990622e-9 
3.6152602844040703e-9 
2.73719128461179e-12 
2.617236715580378e-12 
1.959437321654577e-12 
5.997320829033896e-13 
2.419914990672909e-13 
5.23136000552161e-8 
3.717457904864668e-7 
5.203556587040777e-7 
1.751587145494387e-7 
1.4361982095431204e-6 
1.8262240080408282e-7 
2.624403392501171e-6 
7.673015180277804e-6 
4.406014049328993e-7 
4.4943790908782606e-7 
4.36765276255479e-6 
1.0582688216538204e-7 
0.04602474857628455 
0.17710465628078337 
0.022659475919194896 
4.574719991356264e-17 
1.4926220579509158e-16 
1.290371555520208e-16 
2.300176101596833e-17 
1.8440860987544535e-16 
5.553200726039307e-12 
3.0987102967083652e-12 
1.0636586586098263e-12 
2.1533402939478034e-12 
4.583625264164397e-12 
3.513588878246009e-14 
2.886661871555222e-14 
2.133152664201259e-15 
1.33247112713694e-15 
6.850052859181688e-14 
1.8106495996632086e-14 
5.602760732488293e-15 
2.282842323315444e-15 
3.400759260882063e-14 
3.391864260787323e-16 
4.3946135890935187e-16 
4.207025963757764e-16 
2.5875985064137026e-16 
1.8311614746426394e-15 
1.5035952260602493e-7 
1.589173118836747e-7 
1.2971370832318134e-7 
2.9261449572133434e-8 
1.8950876150172569e-7 
6.489382965698034e-8 
4.366835016001838e-8 
8.645666549826666e-8 
5.810246469859455e-8 
1.0328799803653742e-11 
9.788279421375951e-12 
1.2306035313105195e-11 
5.528853110483952e-12 
1.7388101252764834e-11 
1.6751688865214925e-11 
4.3153236341659276e-11 
7.319505446321729e-12 
1.0796049402892397e-11 
5.786204799926072e-11 
1.5870766126759227e-12 
6.351959685978515e-12 
0.24381076627469891 
0.9553320441084021 
1.193263118145752 
3.45203522184935e-16 
2.0199666683539828e-16 
2.80854611177248e-16 
5.446613679459915e-16 
0.899121517409498 
0.00017297191433166342 
0.9588127641948749 
0.7006813030039579 
1.179635645529493 
3.960037131281146e-10 
3.931019905232903e-10 
2.36848253198569e-10 
2.0582814010592323e-10 
1.5783185716067055e-10 
1.385534375647791e-10 
3.3543349728554436e-9 
5.367595622033691e-10 
5.5546828239798755e-9 
2.641582720939495e-9 
5.121887008276878e-9 
0.34634532066472057 
1.0227467294138604 
0.7874925975678545 
0.7845997671065223 
0.5554108371242081 
2.8914863447523533 
0.7129789459399397 
0.06059132108288464 
7.967492025595222e-17 
1.1957684545283253e-16 
1.0195313532298579e-16 
2.5655530368033045e-17 
9.910516140273352e-17 
8.355287443737538e-17 
1.3942045304638924e-16 
2.4359462425206808e-11 
5.678591023055956e-12 
7.174213417340646e-12 
1.224250398806912e-11 
2.1084926279317918e-7 
2.738730249125408e-7 
4.08268749240799e-7 
4.935941288187619e-7 
2.4985908279684703e-7 
3.6950091570522974e-7 
8.675856828530273e-7 
0.7260874178084701 
1.1560820979221482 
1.234392074741883 
1.1404604805422085 
6.625729072396046e-14 
1.2072904259290088e-13 
6.208367548488291e-14 
1.1941905741549925e-13 
5.25248379115244e-14 
5.390864033202945e-16 
8.020335610170986e-16 
5.238453066205784e-16 
1.061681619395224e-15 
7.199603680683823e-8 
5.366218790663918e-10 
2.777284717964829e-9 
1.3371351356624651e-8 
1.979047985220525e-9 
4.185575175797636e-16 
3.9889402846772646e-16 
2.1139737326047572e-16 
5.854735053919359e-16 
0.00013103007112210844 
7.178739362840346e-15 
9.287625567345624e-16 
3.782213847010522e-16 
3.1891022513871114e-15 
1.3941133618011277e-15 
8.92291223651214e-16 
1.4908892659057902e-15 
2.3858267046281737e-15 
2.9964427317706627e-15 
1.3735055904353105e-14 
0.0023468089362336203 
0.009017544591141577 
0.0016104013160327117 
0.0036014091207821185 
0.0064401017527638904 
0.00048040067242317944 
0.0004263567907258483 
0.0005232070061800577 
0.6381190590950486 
0.3574479683305105 
0.003436411103822234 
0.07286351009659696 
3.0996211460534826e-15 
0.00010799050250692956 
6.05917248869436e-16 
3.5273640233447807e-15 
6.126704353120863e-15 
7.295237420821546e-16 
7.6580226939982745e-16 
8.502298186540667e-16 
0.09242585424919084 
1.842314604065762e-15 
7.449724631350168e-16 
7.095273588386669e-16 
9.747227935391338e-16 
1.119553981849137e-14 
1.913224225083762e-14 
3.2319080942686157e-16 
3.9885853022592255e-15 
6.383949696501166e-15 
9.486079993644245e-15 
0.006776062748076603 
0.00384491578770759 
0.014015637849837871 
0.009011076720790271 
0.008974719975049141 
0.016888835574808872 
0.015308986727675333 
0.8757678131082512 
1.9108127250003368 
0.7542816100441853 
0.09994197474789425 
0.7535088051460411 
0.2926008580036683 
0.8079551894656981 
1.8007750952713388 
0.007592309438211707 
0.00015207857284503762 
0.0002412097396189423 
0.000437858446032546 
0.0015087198419682997 
0.00016590385304706605 
0.0003564280910320299 
0.0003405268724604153 
0.013951834957255937 
0.00042019409311612113 
0.021539601829476434 
0.0002306470241053591 
0.00028240720901170636 
0.0019720747892655456 
0.00015581406103420164 
0.00011301896695536357 
0.0004967841598526882 
8.3673326013614e-6 
2.940270720879632e-6 
7.028696216515345e-6 
5.0609032771909484e-5 
3.96617366087174e-5 
1.755809377168526e-5 
5.233789652231159e-6 
2.7042167728266387e-6 
3.1529453737198426e-6 
5.806443352206708e-7 
4.954749223609084e-6 
1.4083996467986381e-5 
1.5524467641194356e-6 
1.0607074713753662e-6 
0.00041716349629547403 
8.415685177907804e-9 
7.95785655838249e-7 
1.3282444855894242e-8 
5.181409158796207e-7 
0.16569516891301983 
1.5386680401241903e-7 
7.124715494051352e-8 
8.442696784199439e-7 
4.1636332790373323e-7 
3.951518795154336e-7 
4.9103168465121945e-8 
2.1880164654234476e-7 
1.1489490024778861e-7 
1.4709546282648082e-7 
1.4279373494416127e-8 
2.594686153989607e-9 
3.0718339062491648e-9 
1.7477895247914795e-7 
1.1881044581997473e-8 
5.687779384106549e-8 
7.260731216868004e-17 
1.0128191100502853e-16 
1.0909224571439497e-16 
0.06590775011656042 
1.5924331396032663e-16 
1.2453898690912964e-10 
7.331421176490768e-10 
3.493400004029429e-11 
5.379384386908081e-11 
6.50881014072373e-11 
1.5514240926617928e-10 
1.3926158032694422e-10 
9.509134425713631e-11 
5.1846572537985145e-11 
2.397414201726859e-11 
5.081520881999431e-11 
5.454880397646325e-11 
3.545874877915588e-16 
4.7923519888383505e-15 
1.8940149395501418e-16 
1.0314202847041416e-16 
0.06363251691404173 
3.9685690050807545e-16 
3.9709101700279114e-13 
5.071873906695132e-13 
8.613361593616259e-13 
6.601229974631314e-13 
2.9517359190005186e-13 
5.426431442892315e-13 
1.192070120772446e-16 
2.7348374697061273e-16 
8.951339778635437e-17 
2.6012820192564047e-15 
1.4814675418843828e-16 
7.959484816213539e-17 
1.0233594199209313e-15 
3.293253165788861e-16 
1.569653975518107e-12 
1.9460859457758446e-12 
2.664757121084703e-11 
1.7435102854941993e-10 
4.9420632316139336e-15 
4.119588077965557e-15 
2.318974451058517e-14 
4.436787071238526e-15 
1.6346489765301084e-14 
1.9056226089048273e-14 
4.433054358086134e-14 
0.6832213430228609 
1.4351078472092306e-15 
1.9271693693658744e-15 
9.10968028779632e-16 
6.159603128692252e-15 
3.617916375939082e-15 
4.6583474634616874e-15 
0.017773237998700606 
0.36557032394788164 
0.007775393187513421 
0.038983191550036454 
0.01292231588171478 
0.23886571910587312 
0.0260932344149453 
0.01255461048157259 
0.00010361862080535451 
0.000319438689187318 
5.883579543870528e-5 
0.00010489403473196171 
6.315887222071486e-5 
3.388705486302293e-5 
4.492806376221881e-5 
1.632655579166211e-6 
2.9227880163624546e-6 
3.7093605796010866e-6 
3.041445479629315e-6 
2.4266666522434374e-6 
2.3964125184747365e-6 
4.9149521206780256e-5 
0.00021720134123060268 
1.3607005928686834e-5 
0.3667375651083462 
7.978480397549969e-6 
8.00159951227994e-5 
6.11048770826492e-5 
3.4432483338487105e-5 
5.354369946248546e-5 
2.1902445136566687e-5 
1.0664164253780882e-7 
3.704253128989803e-8 
3.5271093091771863e-9 
3.2420073732716436e-8 
1.0338094898180153e-6 
5.82663320173339e-7 
6.35312823667366e-8 
3.011376828018949e-7 
2.2640776612495824e-7 
1.0464781577919704e-6 
2.4986085017906144e-8 
0.6956816641019127 
2.524722461242414e-7 
1.9300715038980347e-8 
1.3752307280021772e-11 
3.439967483405555e-8 
6.608149748489393e-8 
1.959286075107836e-8 
5.117365296018193e-8 
1.7998121830763343e-8 
4.999544220663121e-8 
3.6956205031467505e-8 
2.187797939025911e-8 
2.0903936048795777e-8 
1.2377753115902615e-7 
4.960839760868061e-8 
1.3811901233486666e-9 
6.618005554482322e-9 
5.714170080736505e-10 
4.3441956079067805e-10 
2.0701642593534576e-9 
1.1698568806568183e-10 
1.9671986702561525e-10 
4.792277780055689e-9 
1.159577916885427e-9 
1.833970407090797e-8 
6.509794243024745e-9 
1.1685126433213835e-8 
2.4608235562950336e-9 
1.0366874667041934e-8 
2.05195793763255e-9 
1.142686284809513e-10 
1.0522686035912229e-10 
9.540893718256725e-11 
5.317099603468861e-12 
2.4042035966932766e-10 
3.7671602176954217e-11 
7.279047890053558e-11 
8.990581735187439e-13 
1.1058220425107815e-13 
1.003553560337205e-12 
4.696266788721103e-12 
8.27329669323882e-14 
1.1173817032101536e-15 
3.2848594054210585e-15 
7.906018188515066e-14 
5.823605242060836e-16 
7.029887243771025e-15 
3.1817621184384716e-14 
5.845186910800379e-16 
8.950990049973293e-15 
1.2414827978237908e-14 
4.843122957429639e-15 
2.6475084553885453e-14 
1.303275284379651e-13 
1.8594342087817397e-14 
1.1211108479630169e-14 
1.8841755374335724e-14 
1.2535008738528705e-14 
2.0614006354473516e-14 
0.00030464934774386695 
1.1535134122617658e-14 
1.2270144328325788e-14 
6.760833410400304e-14 
5.534467466066086e-15 
3.0611889984308237e-15 
3.417873556701192e-15 
4.937117634680704e-14 
2.446593662253174e-15 
5.939583266510499e-15 
3.4646036607597777e-16 
4.94713376609008e-16 
3.2192953413202263e-16 
4.771796195479349e-16 
5.386252926853197e-16 
2.4763760472812403e-15 
1.929269011277931e-14 
1.0362934954433997e-13 
1.1049454261903841e-13 
1.5964449638734243e-13 
1.790263192539246e-13 
3.939053968113234e-15 
5.0207127560446985e-15 
1.7526696722504047e-14 
4.183208462494623e-16 
3.445482291269295e-14 
2.3459778760776647e-14 
3.6067749177852584e-14 
5.465632618976904e-14 
1.0104408310834543e-13 
2.5686265716533817e-14 
1.1320251247818518e-13 
4.322224348285717e-14 
1.057891486097275e-13 
1.11989789503986e-13 
1.388573409583903 
0.41561741142475384 
0.4230408727524648 
0.2894861614614713 
8.520111474479668e-15 
3.6334496947743205e-6 
1.698792067391047e-7 
8.3675439077817e-7 
8.281931955943985e-7 
5.324010314035312e-7 
4.150585517950965e-8 
5.152110815584119e-6 
2.2731607664251443e-5 
6.056177590028114e-7 
7.744313371377767e-6 
1.807170553724144e-5 
6.497715317538184e-6 
1.2322577430426722e-6 
1.229262167373455e-5 
1.1362811017860292e-5 
0.000523062603907401 
0.0009833909845774695 
7.1251349743710985e-6 
8.65735332932344e-6 
4.131486900821996e-5 
1.2239604241076852e-5 
1.1945093471581071e-5 
8.494743713081633e-8 
3.388177960670868e-8 
3.036316236077231e-8 
2.6555012891862638e-8 
5.746631595731285e-8 
5.197011537975781e-8 
1.8116151841175022e-7 
3.206295831812697e-8 
2.944775314536367e-8 
9.167665271818788e-8 
6.241879705739067e-8 
8.09430693822266e-9 
3.755625103872915e-12 
1.2609643836939217e-11 
1.620257966467116e-12 
7.447260022707222e-13 
2.796722071143041e-12 
1.4751245449523386e-11 
6.676462750517869e-12 
3.224949227272357e-12 
1.932212481500789e-11 
1.0063441852773167e-11 
7.518192998392361e-15 
3.8916392449576887e-13 
2.071948012012628e-12 
1.905310200172635e-12 
5.155696929533827e-14 
6.552253982774735e-13 
2.031839801771148e-13 
7.518791580682188e-14 
1.0454639154746207e-13 
8.588095132269012e-13 
9.94274949286677e-15 
1.3420517760876337e-13 
1.4952046983694173e-13 
4.074082272985653e-14 
1.2379417345972375e-11 
1.365182063561386e-10 
5.5166785635109e-12 
1.3066407692842387e-12 
2.5412721368326207e-11 
1.2360282629293722e-11 
1.4559267750482597e-11 
6.106075035980923e-13 
5.800859733396294e-11 
1.5592789107506207e-11 
2.9243026204476705e-14 
4.924498766547475e-14 
1.0095445475631783e-13 
8.310663292417605e-14 
3.5953466675244237e-14 
3.933701040737125e-14 
1.8817337098306308e-14 
8.710561614577072e-16 
6.95593402075372e-16 
8.354720249404912e-16 
2.0926117926028606e-8 
4.1715135879412185e-8 
3.716867882219227e-8 
3.4366702756044414e-8 
6.988465298946196e-8 
7.504831562386752e-8 
8.596106617277152e-8 
1.4937274674384771e-7 
4.056533306963502e-8 
4.5929010419140966e-14 
0.011164506653634294 
1.2650235997355125e-16 
2.874955636773264e-16 
8.132749295765524e-17 
1.3006273236597328e-16 
4.894376758479674e-14 
0.001330642771632577 
0.0020776345101531915 
0.0007338663180514766 
0.003134748241342389 
0.0017877965891612772 
0.0003835321477085834 
0.0014737010475663014 
4.278532085055042e-14 
0.0007462768307753948 
0.0032877031611723753 
1.5847464850380646e-12 
1.2093157389587826e-12 
1.0663926253750896e-12 
3.5476534968939705e-12 
1.157576197719684e-12 
1.6760252845262485e-12 
7.898401740484202e-13 
8.90425660159421e-8 
3.255575472886152e-8 
2.2241655424153047e-9 
5.718819120813608e-9 
1.2371139701999357e-8 
3.903965220193497e-9 
1.252564948417575e-8 
6.74806485459527e-10 
9.670858608631842e-10 
6.023494874080338e-10 
4.913420860131618e-10 
4.041312600720417e-9 
7.2194001674975006e-9 
4.016656744762913e-10 
2.919917333847164e-10 
3.8948097910647496e-9 
6.901766368833392e-10 
1.3414354084449467e-9 
3.196429130443523e-8 
4.206694753073541e-12 
2.854086442222683e-7 
3.9434444880125966e-8 
1.0960851317956349e-9 
3.3838681162686785e-9 
1.0596904385491378e-9 
1.384761477645392e-7 
3.5668837521162337e-12 
1.5437087692273307e-10 
1.3769817707193845e-10 
2.2940804300486695e-11 
4.2369301165913145e-10 
4.06596318096658e-10 
2.9374601740626476e-10 
2.872798361295202e-11 
3.1017355103711554e-11 
1.0964842917611356e-11 
7.780159290627674e-10 
7.463500982428204e-11 
3.6501478224618865e-12 
1.2416482298530917e-12 
1.6606860683371852e-12 
1.9822788018969118e-12 
8.918185157368594e-13 
2.9556302559801577e-13 
3.3164533869118783e-13 
1.9062012502261087e-14 
6.62256088632343e-14 
2.739123630502176e-14 
2.977649930914495e-13 
2.2225872143955427e-11 
3.06902661082076e-11 
7.181629727411181e-11 
4.604172949355444e-11 
6.189914284311609e-11 
1.7372253243313274e-10 
1.2233470633571337e-10 
4.092868433695613e-11 
4.246557808134952e-11 
0.0010963832751815187 
0.1571865182173623 
0.2705674227085134 
0.007002195194888756 
0.028866697698752768 
0.0037512520867110824 
1.9487973845237946e-10 
5.304537859931775e-11 
1.2011153172868602e-10 
8.964341641055478e-11 
1.0660440278749353e-9 
3.978144968652487e-11 
1.2615841577452029e-9 
0.0006527558119215698 
0.00028022836996401937 
0.00031535338360688046 
0.0005158249924027558 
0.0012416087077072428 
0.0017746898103815855 
0.0003043026755845499 
7.82023377959329e-11 
1.2822243195190522e-10 
1.6205497616402335e-10 
1.5485880012240926e-10 
2.420118725963957e-10 
2.4460452015585917e-10 
8.183948966918659e-11 
3.093551066387948e-11 
5.152727391982273e-10 
2.931723206645809e-6 
6.682090295732335e-7 
0.00025800700689879527 
1.7481607385675046e-6 
3.403039373468904e-7 
1.8661217990585284e-7 
1.9587078790880045e-6 
5.759906757488797e-7 
0.008834754040480496 
0.3316808957422413 
0.24816644015100328 
0.6795082460818573 
6.255037801566905e-13 
6.80467603168418e-12 
5.641645019789797e-12 
2.119455420552302e-12 
1.4925638639082593e-12 
6.109330504966756e-13 
8.481947328085992e-13 
0.09166276975754153 
0.2455168009422657 
0.03339093956302857 
0.32117527066527163 
0.15422437276056114 
0.11376108698766087 
3.189651680642414e-6 
7.842555334763147e-6 
2.047970891624944e-6 
9.812318360781723e-7 
1.8163036883273248e-6 
6.502442741140297e-6 
2.8078194425978065e-5 
2.2146912419617136e-5 
4.024788356330584e-14 
1.4911491802980692e-13 
2.548892928841147e-14 
2.8087876145635995e-13 
1.9486719853876702e-14 
1.9967244179094993e-14 
4.5176183983353525e-15 
7.061713215074816e-15 
1.5992814304601742e-14 
7.927225127398539e-15 
9.834094990231495e-15 
5.8558201188237135e-15 
6.323038798977256e-15 
1.0697532469830772e-14 
0.0012516117604645563 
0.001277387991209767 
0.0032523646800164912 
0.0007969982358804924 
1.0341870659015927e-11 
2.27940790691389e-11 
2.4818969487849147e-11 
2.530871251340823e-11 
6.354748978013302e-12 
1.0293001490472721e-15 
2.3472232422902665e-15 
1.3579931894511601e-15 
5.731949961655774e-16 
1.3308073553584536e-15 
1.2722459280455121e-14 
4.025525074712837e-16 
8.686116857805644e-16 
8.247062144643128e-16 
3.9747658360867905e-14 
1.3556860211819707e-15 
5.651370647431267e-12 
1.8993198881861524e-14 
1.010567188360077e-14 
6.630072192175448e-16 
1.2563427340387175e-15 
1.3861087602545372e-15 
1.953907363904619e-13 
1.0610663953492462e-15 
1.7854023046188052e-15 
3.751665868194011e-16 
5.025891913225532e-16 
1.4236306382677318e-15 
1.8025032886851237e-15 
2.7861319406362923e-14 
5.984979056486171e-16 
5.458915983099422e-9 
4.2949002525143796e-11 
8.048453598644184e-9 
1.2410014676770503e-8 
4.079805818916451e-9 
1.2225391207096814e-8 
8.986176003273897e-9 
1.014442937690841e-11 
7.94354570822442e-10 
3.1994385176950827e-12 
1.210977300002285e-15 
1.991205511755235e-16 
4.791793943570516e-16 
9.538853736261804e-16 
2.4043707759218533e-15 
6.114709455131264e-16 
6.636096763644021e-16 
6.248516260299214e-16 
3.6093630721888264e-16 
4.678660520929473e-12 
1.202149512011026e-9 
9.172609010339562e-10 
1.4483158801559754e-10 
7.511962712985317e-10 
2.987788525393772e-10 
2.9805050582414413e-10 
7.061237702953074e-16 
4.769441413388214e-16 
3.7314994687689085e-15 
1.5166150172613444e-15 
7.571919416801238e-15 
5.604945631681636e-16 
5.86146327777797e-16 
7.035796883305183e-16 
1.029836616169273e-15 
5.364461583454879e-16 
0.003441666466446361 
0.0006571688173302833 
0.0025017966464192447 
0.05428521567540627 
0.007103147972136822 
0.02047962797040944 
0.014157163208518867 
3.403145666177044e-16 
2.8367251366043843e-16 
4.637790943751308e-16 
1.420241033974014e-16 
6.126291503132267e-16 
1.3986730230167117e-15 
2.5626670400380867e-16 
5.9357954545356155e-16 
0.9768623661130372 
1.0148786566228887 
0.29458887901872693 
4.419093092986613e-12 
1.056192797628631 
0.24124489955005313 
0.0024747114121493547 
0.0009346684019611021 
0.002842749913178081 
0.00284428578088738 
0.0008978538946048579 
0.1616897101305615 
0.0002663722577151829 
0.0007330484147700715 
0.0005026793382806378 
0.00015811773940046652 
0.0002583751702688684 
0.00017234809181432333 
0.0005210097451612687 
0.00039821953849298344 
0.00027250388176243987 
0.0013506773294971867 
0.00019349305084269278 
0.00045552064644270324 
0.0009244137637822151 
0.0002784520640305275 
6.927617808076279e-5 
2.326585471426815e-12 
4.943679712874728e-6 
8.719397369156275e-5 
3.8147446698427406e-5 
3.724375109635928e-6 
0.00013743728379270783 
0.00020645266417594765 
4.278859032564219e-12 
0.003440354265891119 
0.00025240139948063577 
7.162852140076196e-5 
6.054596755406784e-5 
0.00014201765958008972 
7.605505487917003e-5 
4.042162097628982e-5 
2.394623192729402e-5 
1.8921527776098328e-5 
2.3201509320185867e-5 
2.313799002878555e-5 
9.343426143347528e-6 
1.8080207825708897e-6 
1.8655782757082846e-6 
1.1706479788698787e-6 
2.2545833537625727e-5 
1.052615794429306e-5 
7.138618498745675e-8 
6.588842496045183e-8 
1.741573005521825e-7 
1.9273797487469233e-7 
1.529022176527564e-8 
1.9875488306570327e-7 
1.1457243773202547e-7 
1.4542350677760367e-7 
2.2896892133892816e-7 
4.823321260571938e-7 
5.179993485985218e-7 
1.2274006119343437e-8 
9.176893502472122e-8 
1.0243396665945569e-7 
4.3905037523328835e-8 
1.1426487788511481e-8 
2.0457966413203298e-8 
1.7285034927719496e-8 
5.931511340688854e-10 
3.964937426527933e-8 
4.864914375247938e-9 
4.928815758986572e-9 
1.1302560546339394e-7 
1.3622331957779571e-8 
2.6501389273244426e-8 
1.5387465671696554e-9 
3.015735452459902e-9 
7.472292388523514e-13 
2.58487757561462e-9 
5.553001771027937e-9 
1.4892450377237973e-8 
7.555601136206207e-10 
2.7609767368389538e-9 
2.3811172155633375e-9 
1.5858714249040096e-8 
1.3050417289457883e-8 
1.100174020839306e-8 
3.3894476229262026e-8 
6.446947121143285e-8 
3.5481769907397283e-9 
4.5476051803047974e-10 
4.017314617910103e-10 
5.901022457286307e-10 
1.3382227890163143e-9 
7.404823857871016e-10 
9.02125325727072e-10 
7.656805403960573e-12 
1.3753010329000304e-12 
4.458982957569491e-11 
6.414090150262227e-12 
6.371616820732934e-12 
8.182208281670107e-12 
2.5400589950313757e-11 
9.703837530984444e-11 
4.204750178754958e-12 
4.53876596116211e-12 
4.211106785467355e-12 
2.490633441921725e-12 
1.0518352577992592e-11 
6.994660158379606e-13 
2.297978425199202e-13 
1.2109575957420395e-12 
9.838598483451928e-13 
1.367585258793361e-12 
6.45857322954319e-13 
2.735676639386297e-12 
4.387219447492862e-12 
4.44899804223518e-12 
4.927645174097362e-12 
7.063673665354125e-13 
4.764644243910657e-12 
5.28384178235351e-13 
8.531356614447954e-13 
7.1792382534979e-13 
3.5788080734014407e-13 
5.8577149834191e-13 
1.0521787774284197e-12 
7.650277575830944e-13 
3.706498571508271e-12 
1.2497454193537703e-12 
1.8521099847222057e-11 
1.1898397683882537e-13 
2.349731084186136e-14 
1.780394555140876e-14 
3.088170126605612e-15 
3.455518577869573e-15 
1.5817672779988443e-14 
3.553443398045774e-14 
2.2250767168786772e-14 
1.7889189548968257e-15 
9.449986447082158e-16 
1.2706340503676973e-15 
1.503338770521804e-15 
3.280572096228271e-15 
3.113709970277363e-15 
0.6376039260889719 
0.012307289340876708 
0.227637583387187 
0.10346282483094416 
0.20771395704888543 
0.013910526111856116 
0.00377302955606485 
0.005877053588730883 
0.021657014169792592 
0.351238405370993 
0.025877449548531915 
0.052499735126691705 
0.021619995882152476 
0.0061639778965103574 
0.0013618507021510484 
0.10428207389121634 
0.05612270649620672 
5.790185600336619e-5 
0.00012162810344775365 
6.745944696895907e-5 
0.00012408888968423696 
0.00025250086184127083 
0.0001497990905852635 
6.492232428109002e-5 
8.404323956604816e-5 
0.00019993258791745476 
6.849236753692804e-5 
4.9299065738639315e-5 
3.294879042387128e-5 
3.2898881649312334e-6 
1.0013290319195417e-5 
1.3382413089112897e-5 
4.499614526794482e-6 
1.2348639764051685e-6 
3.296403494679749e-5 
1.5046211471316201e-5 
2.393212413747441e-7 
1.2287507261186082e-8 
4.3402928915709067e-7 
2.8597748099397434e-6 
4.646109151446324e-8 
9.006740206568475e-9 
2.594020257871576e-9 
2.4232652225566506e-8 
1.5358583435648402e-7 
7.219788843190208e-13 
6.521409465079327e-10 
6.101762877853727e-10 
4.751652807855876e-10 
5.926453879247075e-10 
4.3316248762321124e-8 
1.1835582112384762e-7 
1.413052415570926e-7 
1.1149619673816175e-8 
1.78362832380536e-8 
3.55753044267213e-9 
1.646499982292104e-9 
1.534084961486257e-9 
6.51400376055605e-10 
6.695870027335317e-10 
3.592430277788417e-9 
1.001443373529799e-11 
2.9270005514921724e-11 
3.699607708693552e-11 
2.7783279051428477e-11 
2.6177428121671882e-11 
2.907361710672657e-11 
2.807108798031693e-11 
3.1562107176790416e-12 
3.0243781219811525e-12 
1.0714221324621537e-12 
1.0870324810498339e-12 
9.049514399562482e-13 
1.6341990387576381e-12 
2.0052965057279894e-14 
1.75268093344068e-15 
6.426332543338935e-13 
7.209400219121768e-15 
5.739046233199808e-14 
4.461913430935438e-16 
6.41111180364131e-14 
4.360900378096461e-14 
1.4130386851317276e-14 
3.105362495963019e-14 
3.1575128666864995e-14 
4.4820879525465596e-15 
4.751153641327023e-14 
4.020038842868221e-14 
3.142051677757956e-14 
5.785475336725847e-14 
3.304096789488399e-14 
3.509425401625262e-13 
1.4804915065722696e-14 
6.913580197343979e-13 
3.284539234123085e-14 
2.428957284694056e-15 
4.1799730807646114e-13 
2.3713042920565814e-15 
3.4432140768121912e-15 
2.4999115299140747e-15 
2.1696331221476655e-15 
2.3351811345220536e-15 
1.1744440841539418e-15 
1.4417505553131118e-13 
1.5578052806130995e-12 
6.01955686512616e-15 
2.9664587121951486e-15 
2.1605367978695947e-15 
1.1054404716925665e-15 
1.8755864302156142e-15 
1.6007994536557702e-14 
4.144879063210641e-15 
2.367138118042529e-15 
4.506694485845284e-14 
1.8700000162906028e-13 
1.3852910583248039e-14 
2.0973906978899865e-14 
7.105797786700247e-15 
4.62683508380544e-15 
2.8327679188123435e-15 
2.441750743315385e-15 
6.087394044964922e-15 
4.807932040429126e-15 
1.7413162987761126e-13 
6.785746738285054e-15 
2.0031630438220138e-14 
5.421947945944018e-14 
1.0470266867458568e-13 
3.9212090711484093e-13 
2.2735789507599918e-14 
3.5751740708402493e-16 
7.08848041722569e-16 
4.523733356019129e-15 
4.538380723106811e-16 
8.402249640023411e-16 
1.3905023553756358e-15 
0.009491674104434763 
0.030036562281748922 
0.004054133129484179 
0.00513604746056805 
0.007013131697657915 
0.006279153958027001 
0.028955729736207886 
0.00019626488759979174 
0.00033914479647918853 
0.0002135229452233538 
1.9702129927150716e-5 
0.00013777942426129288 
9.603892385392095e-5 
6.003080655154756e-7 
9.736407147291247e-8 
6.719814512420859e-7 
2.887408322143924e-7 
7.897913603235111e-7 
1.2527792946863226e-6 
6.708464950367079e-7 
6.49235716287441e-7 
2.568440316664377e-6 
3.3013016472538157e-6 
6.435948458947884e-6 
5.553777227563676e-6 
2.03376288550988e-5 
7.17626530862923e-6 
3.522893318500131e-5 
2.186158937681603e-6 
4.236877363256528e-6 
1.0617711937923863e-5 
8.127326943014068e-6 
5.209653163105885e-6 
1.5059167896431688e-9 
7.576115052450362e-8 
9.858117431835883e-8 
2.1203894663617187e-9 
4.513128235222394e-15 
2.1939524723356556e-9 
2.197295826942573e-8 
5.490476535551051e-10 
1.3781867327523771e-15 
2.252368425564071e-10 
2.353572752696468e-10 
5.399686142256217e-10 
1.0307078972644056e-9 
4.0887931445027297e-10 
7.165290989085363e-13 
2.0793580057289614e-12 
1.6703510724182432e-12 
6.4956839168695415e-12 
1.9886699994003416e-12 
8.658004741317262e-12 
1.1335421045483944e-12 
1.0345655804848492e-12 
2.117517045280856e-11 
1.1266351358687295e-10 
6.727721299268174e-11 
6.66719133287226e-13 
2.6647079581659007e-13 
6.659656292522027e-13 
7.21616845614167e-13 
3.960216761564901e-13 
1.3115977035821522e-12 
1.6232936602806828e-12 
3.242046391773274e-12 
1.855630417458854e-12 
6.21720216181606e-12 
1.219374194026899e-12 
3.889459917836036e-15 
6.371230493546103e-12 
2.8461112478111786e-13 
2.9626723415043215e-13 
1.29247886483483e-13 
2.766134478323083e-13 
1.5426972538621317e-13 
3.545755507303671e-13 
1.979100844835448e-13 
5.917493492954182e-14 
2.9172237592748454e-14 
4.535499574691484e-14 
2.3997191303964988e-14 
3.112758543709115e-14 
3.855919612896254e-16 
5.459681976608641e-16 
9.23949139814087e-16 
1.6952631964353386e-15 
2.875283571304788e-14 
1.4405382891142852e-15 
5.296422675118131e-16 
4.546212933767395e-16 
0.08577440308366358 
0.3684474530040815 
0.1778226597290979 
0.22835243215489218 
0.0841920297373572 
0.23790566165107854 
0.23396460473466196 
0.04267432734362688 
0.4905492290931727 
0.039771341823012445 
0.07523764119094752 
0.072155664824578 
0.01525973809688384 
0.009683325656490771 
0.010144452832246463 
0.00023755085950951676 
0.0006823678657824362 
0.0424162402201339 
0.0019110555856602341 
0.006788509252073421 
2.351549703022353e-15 
0.020677062070502315 
0.011510723362256973 
0.000592926517450584 
0.0009051602383966905 
0.0004419207126957285 
6.441910372428416e-5 
0.0005377901278255348 
0.00018615107267931421 
0.0009431040499333351 
0.00044294240377983594 
8.728879426910593e-7 
4.771907119906739e-6 
4.136240220467036e-6 
1.9375519877720624e-6 
6.05487853755624e-7 
2.6010357804451345e-7 
6.565619807035417e-7 
6.399036829860275e-6 
1.3528586068851903e-6 
3.7969063485291946e-7 
6.133808210009684e-7 
6.849906745073926e-7 
2.9224116209788716e-7 
3.1520225595548534e-7 
2.3057638684793163e-7 
2.1820535582115564e-10 
4.455315888130863e-9 
4.668287626924424e-9 
2.7032613513496838e-9 
1.383446554204166e-9 
7.3067286229800006e-9 
1.0773801303827941e-8 
6.450355069546898e-9 
9.135166549769608e-9 
1.1335524095843943e-9 
2.2064099787520398e-10 
1.7589192062472798e-9 
3.0828042447572897e-10 
2.6559275899724993e-9 
1.233063962874917e-9 
8.49841113510257e-10 
1.680088189180431e-11 
7.314792796686084e-12 
1.376440074831482e-11 
1.1133755147726897e-11 
2.1791537916034623e-12 
3.188094739648655e-11 
3.605563444474017e-11 
3.276009030342772e-12 
7.758440045681117e-12 
4.3322415121782025e-11 
1.1978798700493934e-15 
4.939117377614306e-12 
2.0370899162887267e-11 
7.889340451420727e-12 
2.3267989196786012e-12 
6.421798057762606e-14 
2.1375783982076343e-12 
4.387576992767288e-12 
9.899474493345784e-12 
6.166325110299233e-13 
1.2358373309322257e-12 
1.1538906237615765e-12 
3.4027167646249973e-13 
1.5814582707965757e-12 
9.55932790389084e-13 
1.0685863561017387e-13 
1.552202624075306e-12 
1.3930222925872199e-13 
4.1048919486911777e-14 
1.7609689457808312e-13 
1.3632758215625596e-13 
0.0003406000829767392 
0.00027961227665985615 
0.000722356723123812 
0.0002084145200065772 
0.0005936952390680617 
0.0008520164288795329 
0.00017711923105524546 
1.6603505856380035e-12 
5.6436654905467665e-12 
1.2510173440007467e-11 
7.002148111493727e-13 
1.8506059716353653e-12 
6.795605626813332e-13 
2.0222429070904914e-12 
4.4292079323982484e-11 
3.909062341458364e-9 
8.84425077576846e-12 
1.7219294772286805e-9 
6.934103906141462e-10 
2.530808620456288e-10 
8.211868330095488e-5 
0.00045865272510038825 
0.00028765498836111895 
6.213914723749319e-5 
1.7182699412688602e-5 
7.581332510148642e-5 
7.156929063560012e-5 
2.42900426601304e-5 
0.00014316134917249554 
1.804217035596681e-5 
2.8819375218270043e-8 
2.766157106088978e-7 
4.2767064763422235e-8 
1.3835931756175702e-8 
3.9905989468692446e-7 
2.2711249368095138e-7 
6.540720175619314e-7 
1.8999663050338529e-7 
8.285070804247217e-8 
3.1368088343230435e-7 
2.2867309069893762e-8 
5.934821217742677e-8 
6.754426305160662e-8 
2.070020734680126e-8 
1.4325563989364031e-8 
6.005559466436205e-8 
2.1318556081167242e-14 
5.695588269073315e-14 
1.748883992377175e-14 
2.270215757317438e-13 
6.504498830941426e-14 
0.3497418257784886 
0.27916258069124905 
0.021421894439762768 
0.03994295514834963 
0.06810276043741602 
1.247465919069281e-11 
0.02247122583449432 
0.05315788636344978 
0.3949885612146525 
4.470273940885797e-14 
1.185002292429091e-14 
1.3208735706473588e-14 
9.80339469298601e-11 
5.878555624391148e-11 
2.010810827457264e-11 
1.1205291179144606e-11 
7.072838559073436e-11 
1.1149214686555778e-10 
3.8603084725957685e-11 
9.838060724328108e-10 
7.535633593921878e-15 
2.4239568699677827e-15 
7.132402332847718e-14 
8.561832709925131e-15 
6.406555601216224e-15 
0.0025662465786897553 
0.005555649413416999 
0.007349831363325607 
0.010290345146348627 
0.0059955047822984765 
1.6072071430387177e-11 
6.834834304200325e-12 
2.6582719309851944e-11 
8.791632026088585e-12 
8.980042819027981e-10 
4.796189871269736e-16 
2.595003539374868e-16 
6.824406971540699e-16 
4.702587987304648e-16 
2.3254696442592053e-16 
6.173158335431899e-16 
8.734919131530473e-16 
1.6904651235786956e-15 
1.375052496874888e-15 
2.9517610424148995e-15 
2.4274305690201038e-15 
6.344208196635714e-16 
8.18439258402227e-12 
1.947817395796731e-8 
3.02069719556201e-9 
1.4611659106766737e-9 
5.739563075766138e-10 
2.5534375987483917e-16 
1.2036785611039214e-16 
3.9461979207607796e-16 
4.917183642117708e-16 
2.8230350221218655e-16 
4.2318178237869704e-16 
1.9968888808659775e-17 
2.6760216337238496e-16 
5.74198205715313e-10 
5.958460809477443e-11 
1.1800765758580506e-9 
1.4583604937738815e-9 
3.6259080373676105e-10 
5.952564098191777e-10 
1.0303208772133234e-9 
2.118621993698537e-9 
2.7843854608066125e-5 
3.494221201650104e-5 
3.601900741302892e-5 
4.209087094295786e-5 
9.347046942880515e-12 
1.4025033340250935e-15 
4.893367003746661e-16 
2.4240768457471943e-11 
0.008706306759622875 
0.13123362013134887 
0.008049331104189643 
0.10295981411385323 
0.010139460803846385 
0.004625875613006633 
5.39754030228518e-9 
1.2690799863960414e-8 
2.7534838754211857e-8 
2.4523992370159623e-9 
1.7138510080008877e-9 
2.862052849577635e-9 
5.710449636883694e-16 
5.30833721408063e-16 
1.774166638358899e-15 
4.848876660551884e-16 
5.112736341048559e-16 
1.4301596146077344e-15 
0.0008034867888449861 
0.0003844446592947909 
0.0018200542090943224 
0.0005546482521207718 
0.00031600294258574954 
0.0021824517156664785 
4.7080808816964585e-11 
0.3179678269971539 
0.27747534632196896 
0.27185614350721915 
0.24919334845662613 
5.091444415682671e-5 
0.30938422160622514 
0.26314453218046324 
0.014382678949627659 
0.01961298820337434 
0.004668337145324268 
0.004045233935600077 
0.25101753438169444 
0.04322943806583216 
0.0006116112640019187 
0.000422949405077396 
0.00015070686578503572 
0.00012980100401651623 
0.0001391430240402836 
0.0001639020628402724 
5.147459954015463e-5 
0.0002924986852609793 
8.835550249768829e-5 
2.8487164189651466e-6 
1.6939581167056196e-5 
2.654448764856141e-5 
1.8310999097852765e-5 
3.17212060698817e-5 
6.31592115837615e-5 
5.7932151091710044e-6 
4.6621115748957234e-6 
6.1292878190394775e-6 
1.630393301031989e-5 
9.565305268891563e-6 
2.1378238201799e-5 
3.771157494518627e-6 
2.020462651666643e-6 
5.554118689427999e-6 
7.666512618018303e-6 
8.21436594658016e-6 
1.5933913337547213e-5 
3.410086441048856e-6 
9.116379538195077e-6 
4.103180612015371e-6 
1.3141963851029164e-6 
2.020436560275054e-7 
8.871630751357573e-6 
6.49098838282414e-8 
1.5107945950423863e-7 
8.101442463334484e-8 
1.3846658117378852e-6 
7.5613321258388e-7 
8.605574356377124e-7 
4.4361581204567016e-7 
8.600413830499639e-7 
2.8245613905025004e-16 
1.211582719767908e-16 
1.3122798900899916e-16 
2.4366319637030353e-14 
6.374704764260641e-13 
6.241023044346409e-13 
1.8079668081844483e-12 
1.1906026521346315e-14 
1.6653635975021252e-14 
1.8708834643608786e-11 
2.8867358787550008e-11 
1.7100102715358708e-13 
2.32555945441254e-8 
1.4579348030637509e-8 
4.663274958734178e-9 
2.2462880295621335e-12 
1.623501330442329e-8 
1.7631082730263224e-9 
1.9860448857063585e-8 
5.746701709311673e-9 
1.3465149249619532e-8 
3.77470403430632e-11 
3.083810077178774e-11 
8.144389558413067e-11 
1.0236612891152883e-10 
3.575807242185615e-11 
2.592686434708377e-11 
2.2933818349015735e-10 
4.612533436535755e-10 
8.562998179979692e-11 
2.843270895708804e-11 
1.1963231892737582e-10 
1.1153978581502134e-10 
6.28448951468724e-11 
5.0673019628371574e-11 
7.728408436858941e-11 
1.0021424982255259e-10 
3.747708793323743e-11 
3.738965544065993e-11 
9.2734108167043e-12 
4.946801846453878e-12 
5.966449168497318e-12 
4.7008791321688456e-12 
5.4979567376704984e-12 
1.3349369040463812e-12 
9.86327883651221e-13 
1.2686722616718314e-12 
9.244235390227184e-13 
3.5238164429465964e-12 
3.3636342948710076e-12 
3.828343664711503e-12 
1.951780483479735e-12 
8.102524704094252e-13 
7.216107975435331e-13 
1.4948759632260369e-12 
3.854381345359409e-13 
3.650987761601327e-13 
8.214634638799861e-14 
1.7735825944837262e-13 
4.106745340429082e-13 
4.2446510262474815e-12 
2.001818857844651e-11 
8.27732582200125e-12 
2.1202822632389953e-11 
2.8970257435882007e-11 
6.642657372099018e-12 
8.502039213001525e-12 
3.586680622461269e-11 
3.305820874788093e-11 
6.839627668805792e-12 
7.889953069927854e-12 
1.207292820411764e-12 
6.327741644172767e-14 
5.755423210546394e-14 
1.162986623345783e-13 
7.855771260232991e-14 
3.863010865553237e-14 
1.6686949752697019e-15 
1.3843095610942602e-15 
1.983667390563276e-16 
1.5324608560237657e-12 
0.045971367460330426 
0.02159004288020169 
0.0219730220952496 
0.02615251234872079 
0.34265727463271867 
0.35676864085660576 
0.0041611269912681745 
9.670977431580071e-5 
8.764351323389377e-5 
0.00015027472126349667 
2.1416556013322663e-5 
0.00015416087583193885 
0.00011938641981396324 
6.213701840230181e-5 
4.934056524047811e-5 
7.047349283304744e-5 
2.8618240131869067e-5 
4.192888234421914e-5 
0.00012233204488743647 
0.00011513663969038456 
8.90449394179356e-7 
1.4721056916325359e-6 
2.7291616693464016e-6 
4.071589922124486e-6 
1.8523992694128951e-6 
3.836846875035247e-6 
2.686380938639252e-6 
5.37896649508522e-6 
7.294020643698802e-6 
1.3026015027767774e-12 
1.2390665594701124e-6 
2.818101073704063e-6 
2.521816870786404e-6 
8.447050160717994e-9 
6.792104056328495e-9 
3.1776927853883744e-8 
8.424115988774589e-8 
7.456699193361089e-8 
3.4061065594873494e-9 
7.059881266199277e-8 
1.1061890495692038e-8 
1.0648173324939784e-8 
6.99534909699189e-7 
7.13746544480399e-8 
2.6176485386206763e-7 
1.371307991079545e-6 
4.3110703591413177e-7 
2.44241085047417e-8 
7.299332662912868e-8 
2.1231482169711274e-10 
3.728235989827257e-10 
4.955050657381177e-10 
6.472489372701463e-10 
2.7627345234538607e-9 
2.3790958760130314e-10 
3.1879520404425703e-10 
3.473535838957511e-10 
2.112776352519485e-10 
2.2724254525356916e-10 
2.2984945682721161e-10 
1.2952031382061893e-10 
1.6203869694233767e-8 
1.5100443534372537e-9 
3.065855560930755e-8 
3.0175029384533056e-8 
1.3620358372581968e-8 
9.547128019445897e-9 
7.444088151780309e-9 
2.6500632174912458e-8 
1.7591512848593635e-8 
1.403354312237099e-8 
2.322623889634306e-8 
3.1209078345908824e-10 
3.3030823240201353e-10 
2.0580013826228607e-10 
9.377832134565991e-11 
8.204540202451755e-11 
9.51021751534018e-12 
1.4806694406629184e-11 
2.794258398909952e-13 
1.4925685425255937e-12 
4.974891931619557e-10 
7.0224587788686095e-12 
2.9905520007703584e-13 
2.821701016164521e-13 
2.378247777275679e-13 
1.2276710641759812e-13 
1.4018780867175648e-13 
1.5020194108404056e-14 
1.484198171561959e-14 
1.6450959462806962e-14 
8.955534733586116e-14 
4.306124897732854e-10 
3.3076216276402595e-15 
1.3087159371066117e-15 
6.099700313085536e-15 
8.084714568427092e-16 
9.85639982874215e-16 
2.1933740208453588e-15 
1.7010526946102234e-15 
1.1623980297043581e-14 
3.722277549566101e-10 
7.383031949508463e-14 
8.084963642497495e-14 
2.4943682803644366e-14 
6.265898305070141e-14 
4.248180099146532e-15 
1.976637092781079e-15 
7.533755983227276e-10 
1.6866385655623543e-15 
4.011220440123198e-15 
3.239728999286538e-15 
2.4042099493544176e-15 
3.863976854011162e-15 
4.87433049576237e-15 
2.5965113826329185e-10 
5.609297459183277e-15 
2.2162092565271266e-14 
2.9758195608188345e-14 
2.4232445478368055e-14 
1.2129091568857424e-15 
1.3290851274987023e-14 
1.4377820762305063e-15 
1.2095180098432535e-15 
9.413657890872245e-16 
9.012228177760522e-16 
3.145647555453025e-15 
3.80010468599219e-15 
1.0974481836934352e-15 
5.075235668758024e-16 
6.080232069972845e-16 
6.253760720275253e-16 
3.2504559393117786e-16 
5.441519617407806e-16 
8.907221414456663e-16 
0.20737957218215852 
0.09740644893838327 
0.3091018210811881 
0.07764149781691305 
0.04856087647319404 
3.0959221122921297e-10 
6.978580251253173e-5 
0.08162474543556485 
0.0010912793721492647 
0.00639514158077286 
2.622386979438267e-5 
3.883413846144433e-5 
3.907398975729306e-5 
3.402284497989719e-5 
1.8991807525753648e-5 
1.834523766416137e-5 
8.842097812619891e-7 
2.1401887906351878e-7 
1.9572911827472362e-6 
3.7060297331571012e-6 
1.2081693971532808e-5 
7.891327183865695e-8 
1.0733942774041067e-7 
2.9031105659753773e-7 
9.394977429168073e-7 
8.65033054099609e-9 
3.812725279463214e-9 
1.3073561567280414e-8 
6.2533497852972605e-9 
2.7791520936924445e-8 
1.407113956724334e-10 
8.185584287978608e-10 
1.0291087893581732e-9 
2.2382886860923445e-9 
9.54403228136962e-10 
1.1829850563265924e-8 
3.7516337636800544e-11 
1.8993868895739055e-11 
1.967589797354591e-11 
4.918429045262872e-11 
0.0003336828943593661 
3.17549002376383e-11 
3.5530110370688834e-11 
1.5626337047571603e-11 
8.335928801787034e-12 
7.000740233526685e-11 
2.4594421708851254e-10 
6.220530550734635e-11 
5.438457566815795e-13 
1.235350742926122e-12 
3.26489907401291e-12 
1.1140950797770183e-10 
1.4421019272912085e-11 
3.4881909754297746e-10 
7.241772354491326e-12 
7.585981103136265e-12 
3.787039129831983e-12 
1.3392977077326765e-10 
4.0722735398492515e-12 
3.920148760414283e-12 
1.184867784846992e-11 
1.4836845987091613e-12 
5.893747993357022e-12 
1.3504193079546161e-12 
4.251988545398143e-12 
9.141241139156638e-13 
2.2869237311393366e-8 
1.3742787683630432e-12 
4.2236317932483136e-14 
5.2055179570919367e-14 
7.025655842159493e-14 
3.8277643597903647e-14 
1.1891384934828722e-13 
3.5438933103385505e-14 
4.285163374664546e-14 
1.1284034049154782e-15 
3.0193899955153935e-15 
9.894216319142332e-16 
1.2291114912832117e-15 
8.2714541100914615e-16 
8.7715540624605e-16 
4.974620770872669e-16 
8.679306217718763e-16 
2.1722268842877797e-15 
2.6392713882865195e-14 
4.231956785266198e-16 
0.011296971284117344 
0.01389190427025089 
0.023151657169341745 
0.014812761213265347 
0.09272683377867554 
0.881825894990245 
0.7930126987352591 
0.770044454100417 
0.3532349697185968 
1.1130932051103386 
1.5685909721497895 
0.6449147793233657 
0.00021764989462349235 
7.806927355696491e-5 
0.00031491938234283647 
0.00010896680126985498 
0.00019162697577526479 
4.702017206643549e-5 
3.941752422506569e-5 
5.0105279334725613e-5 
2.1159315663813456e-5 
2.6848935368787126e-5 
3.538708457407297e-5 
5.4060126733965025e-5 
2.281416008540714e-5 
2.670073062639924e-5 
0.0015479499634656066 
1.616786902978021e-5 
2.3063152198474753e-5 
4.7067024389764725e-5 
3.176521115612542e-5 
0.00013989160322073392 
6.86656291423405e-7 
7.623113818621645e-7 
9.358708676898712e-7 
2.090831445631703e-7 
5.159013831750403e-7 
4.139648632791069e-7 
5.33081206535846e-10 
2.3061503743889873e-8 
5.274903906117603e-8 
2.3802126500312753e-8 
7.814219478766412e-8 
3.1457173641090764e-8 
7.85825102485353e-9 
6.292386713238106e-9 
7.3890105502738564e-9 
1.945465201233466e-10 
1.8907240272188515e-10 
6.721182000659014e-9 
3.5339931066372437e-9 
1.5422127238237459e-9 
7.878624934634876e-10 
6.360488163985854e-9 
5.141399586926816e-9 
2.665699217101629e-11 
5.3691845865028925e-12 
1.816576487119523e-11 
5.6794250794129845e-12 
4.935118718188501e-12 
1.3452496887495365e-9 
3.171288498637619e-11 
2.295948692489076e-11 
1.8563053838704243e-12 
1.8989888741420997e-12 
1.4963360657980747e-12 
3.935345651520253e-13 
8.132622579677204e-13 
6.63493621745116e-13 
3.583277024393028e-12 
6.54322529029439e-12 
5.488069922954435e-13 
3.1826246900523347e-12 
2.688640976320796e-12 
1.9859583580168358e-12 
3.044717155871819e-14 
3.8677196187767826e-15 
4.494184312001821e-16 
7.394452554187724e-15 
2.17823565114616e-14 
3.848999330380272e-15 
2.3905163969582205e-15 
2.2857574599678405e-15 
1.2988161216802398e-15 
9.764672221906549e-16 
2.3730607224134033e-14 
7.686191797778525e-16 
0.007108019622639992 
0.00011830522075831454 
0.0007309985473390257 
0.00010471439277231905 
0.0002996094337949221 
0.00013583397452323137 
0.0005756169946860214 
0.0021149500966543455 
2.594308572291289e-9 
3.5587502382510444e-13 
1.7545081331916817e-9 
2.9204531750711203e-13 
3.848294633298851e-13 
4.796410887035238e-14 
5.870669918773641e-10 
0.08572303580203432 
0.030946746701805684 
0.0009352532231790133 
0.05993188808573316 
0.13267586325108813 
7.276707877634811e-10 
0.1967319465231699 
0.31764645691381377 
0.2745811030704051 
0.011203831674265764 
9.461933038740262e-8 
1.3278244583187728e-8 
4.060178886122823e-8 
3.577023786738438e-7 
1.770384630809053e-8 
1.7747075765941674e-7 
3.1742885873276687e-7 
4.466293398325099e-9 
1.9728514234095884e-9 
3.411862760718936e-9 
7.463073562661377e-9 
8.898108990176616e-9 
3.445570058510974e-9 
5.277808875863126e-9 
4.301080592821789e-9 
9.883608741363944e-9 
1.8317506651916724e-14 
2.775779242600897e-14 
1.1050695694786931e-14 
2.5629074961737283e-14 
1.7231093548869442e-14 
4.7826202369698375e-14 
1.1636669016643201e-14 
1.4323316121016862e-13 
3.2568347830371903e-14 
1.2453489427783842e-14 
4.6099373772395815e-10 
4.4258299652031784e-10 
5.387593354724714e-10 
5.909673741128116e-10 
1.458033525763742e-11 
3.2788596914044304e-11 
3.622773113438485e-11 
1.8910183487989685e-11 
5.3292509371765875e-11 
4.6914045864887827e-11 
2.026973486573697e-11 
8.445141213558927e-11 
0.0024554875664651783 
0.0026281805454947244 
0.023681376696590706 
0.011284806885600532 
0.033469665879660424 
0.022969555744297328 
0.6252858911894933 
0.01467831791211986 
0.12308778644450324 
4.497063025402581e-14 
5.10161018064978e-15 
1.0009668877271907e-14 
9.874378632740967e-16 
4.095949798863365e-15 
7.291788753039006e-15 
5.454911743391337e-15 
2.378142988496827e-14 
1.5529398877417204e-7 
3.5420647432077663e-7 
4.587166261981996e-8 
7.565012099792225e-8 
1.547138646373627e-7 
2.4812518305823283e-15 
9.110608531187355e-16 
2.950684914104087e-15 
9.765776290249192e-15 
5.2525250204416204e-15 
5.293715699831616e-15 
1.8756315304498055e-15 
1.0566855759231819e-14 
4.580121133837737e-15 
4.949356001680684e-16 
9.440590916631896e-12 
9.363830657059222e-12 
6.797635938206593e-11 
1.079556787068532e-11 
0.0007874293166221231 
0.00032417976848080564 
0.0010868214922968148 
0.0002597758234413856 
0.0002959284841797721 
0.0005122628676873023 
3.8636891838856765e-6 
7.486380624677877e-7 
6.57879350829107e-7 
7.868808574068509e-10 
5.757536842724633e-7 
4.4334835273113053e-7 
5.056987192025906e-7 
1.4601909100340328e-6 
5.682435463880475e-5 
0.00010338707019118222 
5.7796786434846885e-5 
0.00011941253816843413 
9.024675430763887e-5 
5.535619030810412e-16 
4.63980070948102e-16 
7.446640071466481e-16 
2.0798885236665926e-15 
6.617868545808676e-16 
0.0020010388328769177 
0.00482391066130712 
0.00033120656958575536 
0.0031720563481331715 
9.287034637171968e-9 
1.0968014840954772e-8 
1.0466710907407187e-8 
4.996990236797465e-9 
4.465094888158474e-9 
1.3787378099221852e-8 
1.3989283654316022e-8 
9.909969806760768e-10 
2.2842893727449303e-9 
6.477239778434886e-10 
7.847607461087993e-10 
2.6526625005705906e-9 
3.2657234627372625e-9 
0.005835449108083649 
0.027238835581193804 
0.004129490230944954 
0.040893613596872 
0.08393238320411407 
0.2560195054181073 
0.07257311121687161 
0.4333725469812614 
0.279500695804079 
0.03162025947061474 
0.011045551144471227 
0.2671604102746559 
0.005964286792557543 
0.013239380836518289 
0.008728796707601997 
0.005519680184692159 
0.0010221256881504219 
0.002838329548993266 
0.0021330869675685628 
1.81075301148859e-6 
2.2464329115660245e-6 
7.705857977372397e-7 
1.1540162243528818e-6 
4.809946904994936e-6 
1.6704604710556112e-7 
3.6809487274951653e-6 
9.121568454758303e-7 
2.9256188455349398e-5 
9.831954848979611e-6 
2.1710203746979853e-6 
1.3056988397960642e-9 
1.4991396248734086e-6 
2.3201399626894017e-6 
2.9248188793192055e-6 
1.4969120534600668e-6 
1.8279413860001236e-6 
1.0317914732641338e-6 
9.337525179151258e-7 
4.939446552516898e-7 
4.018902076921589e-6 
7.833477235907374e-7 
8.848826886611644e-6 
5.250804970900492e-8 
0.00015668399975821896 
2.7434005379329094e-6 
2.850858748741202e-6 
1.7443157780780793e-8 
1.1901627871494048e-5 
1.2180310042056404e-6 
7.889983406461436e-9 
8.542997214475548e-9 
1.526074277252277e-8 
8.818754208717616e-9 
1.974737168733299e-8 
1.1963040846884459e-7 
1.7468148620544092e-6 
1.1327819319273653e-6 
1.3018267373739497e-8 
1.7156710147496354e-6 
2.640147190530647e-6 
1.3761358786654015e-6 
3.7459817941785766e-6 
5.216184741347219e-7 
4.15199050971784e-8 
2.9565552101503036e-8 
2.6973562444651868e-8 
6.007790516459007e-8 
6.084306149751194e-7 
6.254241996563487e-7 
1.7777163984907371e-7 
1.776682117029436e-7 
2.3717195075656406e-7 
1.0708932827873023e-6 
1.473878491098857e-7 
4.7291552333006655e-7 
1.5001632199317166e-7 
7.763591864906197e-13 
6.999178940561272e-13 
6.330761419124318e-13 
5.822933270450695e-12 
1.8032515420894241e-12 
1.4319656018780278e-12 
3.623976513505749e-13 
1.7299830629238024e-8 
6.379654904329396e-9 
1.946926235612818e-8 
1.8256568903621548e-8 
5.2434136845942646e-9 
5.6358347408800874e-11 
1.1760422944890884e-10 
5.866988792033802e-11 
3.8221353060796583e-11 
3.9678177598841424e-10 
3.651500919453776e-11 
9.829288027892193e-11 
2.1562370233271614e-11 
1.074016438626689e-11 
7.579426416987784e-12 
1.600115577212922e-11 
4.3922826347102845e-11 
8.225484181351406e-12 
1.5859748012167944e-11 
1.0893181280755165e-11 
2.288722750141937e-11 
1.1422970183638542e-11 
6.935595687374707e-12 
2.376348213411213e-12 
3.2882631455238295e-11 
3.2052787617745585e-11 
1.5199793259867104e-13 
3.450533639346313e-13 
4.816366760606363e-13 
6.572933648011722e-13 
2.7391250514747823e-13 
3.7067123836339454e-13 
7.945197313040811e-14 
1.7129795603478917e-13 
8.587984052741045e-13 
2.324630796287872e-13 
1.539335978408221e-13 
5.458711173431409e-13 
6.882781971660892e-14 
2.819850441152824e-8 
3.786059587414139e-14 
2.317248031351559e-14 
1.470042272271311e-12 
1.64605294410312e-14 
8.481908226877087e-14 
1.173534168454904e-13 
2.1052132179006063e-13 
1.3514403022972829e-11 
6.758567651987254e-12 
9.018627437731848e-12 
4.653136034743165e-12 
4.4442321681878504e-8 
4.571350969405391e-11 
2.0180374328628874e-11 
1.520865284132415e-11 
6.138122325471651e-12 
4.138710845029761e-12 
1.2891060980399707e-14 
7.60583819558494e-15 
4.496013263913575e-15 
2.147050238926488e-15 
5.8902586113952345e-15 
7.030906258077389e-16 
6.408071925742311e-16 
9.680665278064882e-16 
1.504361471551194e-15 
1.7803972337053934e-14 
5.065781354757599e-16 
4.916506941089791e-16 
0.0363611469154605 
0.02088798423297814 
0.01479469962959627 
0.04642817093965799 
0.05552155563500325 
0.0887673059074591 
0.5169498134274392 
0.007557884129259766 
0.014200149444492252 
0.02071899292670523 
0.0744846950008103 
0.7450830054051761 
9.903526144628588e-8 
7.943361084163503e-7 
0.007703482699012445 
0.2904642399801225 
0.344004794091945 
0.8188962256895114 
0.00019356824293774663 
0.00014195403439763528 
0.00012099926942057127 
0.00012158555516899114 
0.00011749679048669757 
0.00029393977501186426 
0.00011712653769850592 
4.37431864898073e-5 
0.00020486711607192864 
0.00020300531485943925 
8.441227754399273e-5 
8.962630488377031e-5 
1.5629110158142116e-6 
5.908539272591473e-7 
5.826172949305282e-5 
8.287310091833839e-5 
2.4820619518424082e-5 
1.044061030342191e-5 
5.264247117313655e-7 
1.131603956393743e-6 
2.090735147012599e-6 
5.533810066973032e-6 
4.501391533300538e-8 
4.4171533131325244e-6 
5.648055826748722e-6 
2.2776379590307936e-6 
1.5920730710956357e-6 
5.62754957808759e-7 
5.933255757141271e-7 
5.789493752979458e-7 
1.8714235103215332e-8 
1.3281980584440516e-8 
1.2621149577192376e-8 
8.22572714445056e-8 
6.315153523032104e-9 
9.237637390382523e-9 
2.6642127611552195e-7 
1.3804145857985706e-8 
1.4187666757254577e-8 
1.5396326277844226e-8 
2.4329744436540005e-9 
3.3842036720696398e-9 
1.591207149870846e-8 
2.4269085570256174e-9 
4.624735821182093e-8 
1.1652985919016681e-8 
3.7028682460032514e-9 
5.846851668921303e-10 
2.7251931353604095e-11 
9.701810843861255e-10 
4.5193366118534457e-10 
4.010940576492323e-11 
1.6537585727140632e-10 
4.2191412028086746e-10 
6.563838375202153e-11 
3.2298524211731116e-7 
5.69210331052639e-10 
1.7349682187483036e-11 
2.1246103021767187e-11 
1.898774628487935e-11 
2.0227945637959067e-11 
1.6768921921686167e-11 
1.4258978113717122e-11 
1.2756143205987897e-11 
3.0644572307026163e-12 
6.318293095839874e-12 
2.4566124988777887e-12 
6.401593547668944e-12 
5.4835127334599084e-12 
2.88092694733833e-12 
4.289066280090268e-12 
4.564291222766917e-13 
4.1804248271060737e-13 
3.6990578848911205e-13 
7.557591247811148e-13 
3.2111346045665084e-13 
3.443301572434164e-13 
3.7999607504699536e-13 
1.1742392577967695e-14 
9.058579251556154e-15 
2.2846778100833758e-14 
1.057161953415204e-14 
8.558746571017558e-14 
2.151210526127181e-14 
3.4807056916532785e-14 
4.219298620775271e-16 
2.939333492746654e-7 
1.8948699908018317e-15 
7.130662819351645e-16 
5.470964958259019e-16 
1.0772821710179181e-15 
9.02450056230079e-16 
5.260997999384916e-16 
9.229147047935634e-16 
8.628479339227659e-16 
3.138929393360977e-14 
6.474668577660524e-14 
1.2305115783145377e-14 
4.141321297745784e-14 
1.4263406902509688e-14 
1.903295097737878e-13 
4.6703068244819097e-14 
6.707053756497491e-15 
1.7150773639726342e-15 
4.722592585584836e-15 
4.193039374972127e-15 
2.4453739735986243e-15 
7.008956266841072e-15 
3.8319681613506215e-15 
3.3199093620618575e-16 
1.616118234072613e-15 
5.46336514296507e-16 
2.96991450389959e-16 
5.247514284074161e-16 
4.041258805166815e-16 
1.3496884506853529e-16 
9.191829227914598e-16 
5.896001309118956e-14 
7.717025102536506e-14 
1.6855300377338434e-14 
1.0679609839551877e-14 
5.6059258779513305e-15 
3.959748333235513e-15 
2.915063410765834e-14 
1.40178979285459e-14 
3.657863342450912e-14 
3.7051518438356456e-15 
1.3226508514344354e-15 
3.97723628005591e-16 
8.87213386295122e-15 
1.1475324771695104e-15 
5.156118141762236e-16 
1.9847362255625492e-16 
0.03430806048435737 
0.08023587988262727 
0.005565464830564672 
0.020990617159736158 
0.06314741855082165 
0.06337588607619328 
0.02399981356383787 
5.915090820898946e-8 
0.0030416738235805978 
0.002386188212572066 
3.920249751780111e-8 
0.000634781642317631 
0.005768580216355076 
0.0065132331154487445 
0.002352275448699747 
0.0020199688462751997 
0.0014716274781463902 
0.00019394217325632786 
0.000624332700042836 
7.978642970813227e-5 
0.0001157483436439549 
8.538150096034531e-5 
3.633245961820972e-5 
2.5313125265742177e-6 
1.130930132783774e-5 
1.3781856301819126e-6 
4.097563301311826e-6 
1.0835536342830147e-7 
5.76670769782724e-7 
3.9959917306851016e-7 
4.439613607120315e-7 
1.4645964076685458e-7 
6.057516201382782e-8 
4.987967129883011e-8 
2.850809623444409e-7 
1.1473581856181366e-7 
6.600418008374091e-8 
4.783046587812317e-9 
4.889262179141256e-9 
2.9583589106123813e-9 
4.233022742168947e-9 
4.117398115645199e-9 
2.1061902598949373e-11 
6.821379305568926e-12 
4.156140475006764e-12 
1.07539719650414e-11 
6.9085975343526485e-12 
2.832990973239343e-12 
3.6149784212669974e-13 
9.663906976775451e-14 
1.738007966047775e-12 
1.2130942658210602e-12 
9.11439353506892e-13 
7.039285457813717e-13 
7.730667033098762e-13 
2.2745682176293497e-12 
3.3597566476461046e-13 
1.590208690060119e-11 
1.521474496350671e-12 
1.7140995751564618e-12 
9.859819837332945e-13 
1.2191897083320776e-12 
1.0976029856705855e-12 
3.31599655279221e-12 
5.841093930212705e-13 
1.8775329752602814e-13 
2.1117863467300965e-13 
1.7506966432121602e-12 
1.739898157311561e-13 
1.851515740001365e-14 
1.5184134430973527e-14 
8.761751568902957e-14 
5.468498671866682e-14 
3.577566750506158e-14 
8.739988128812617e-15 
8.929947323356188e-15 
7.139254091009562e-15 
2.941406777600081e-16 
2.952714147679043e-16 
3.315302542486582e-7 
0.007832844105312861 
0.009930449651134128 
1.8230381804213737e-7 
0.026072093474231155 
0.007299503413172705 
0.009389775860546682 
0.039296909459996025 
0.0519609857380307 
1.1603128488210387e-7 
0.16720029068675885 
0.833127171026781 
2.5837545863558138e-5 
3.874980952607816e-5 
1.6789887973401197e-5 
1.099569374505664e-5 
1.53715907167017e-5 
2.6229937039987625e-5 
1.3902978577722662e-5 
0.002040727205086881 
0.0010948500863767 
0.003259669435630768 
0.001011139678190895 
2.323428568648391e-13 
1.8420398733256117e-13 
1.0199760942123839e-12 
1.3572842689032563e-11 
1.2884024339580377e-13 
1.1595841095601403e-13 
2.9872173740446625e-13 
2.125132842658515e-7 
1.256186226572353e-7 
2.979615387973945e-7 
4.976292102546274e-7 
3.280552808350663e-7 
1.7099334990417342e-7 
4.619602680703798e-7 
4.117440587652445e-8 
4.044009294826663e-8 
4.0310664572133746e-8 
1.8696067236901204e-8 
4.7581464015307985e-9 
2.6424535166128017e-8 
1.2460845670886632e-11 
1.367751095905888e-11 
1.799643602152862e-11 
5.842402374855643e-12 
1.2736214485654346e-11 
7.895857567610856e-11 
7.693356780569559e-12 
1.4087337071020628e-11 
5.0192615955489684e-11 
2.0256885679227146e-12 
2.305227308832408e-12 
1.7072535910551173e-12 
2.4816903562924735e-11 
1.9980266171160032e-12 
8.698450855153457e-13 
1.5404430618682323e-12 
1.1717906936362534e-12 
8.786515832821429e-13 
3.438805737242188e-12 
2.7407085432046146e-12 
8.976609318268343e-13 
1.0754247784549124e-11 
1.8032089602519357e-12 
8.257300840437246e-13 
3.5412741760028877e-13 
3.752312436251239e-13 
7.153654841801417e-13 
2.9146193349608996e-13 
2.1485547272764742e-12 
2.2065883356813413e-13 
1.3442801277761312e-14 
1.503289836077423e-14 
8.8857973638422e-15 
3.0937460559795323e-15 
8.002971949062576e-15 
2.0922148377922414e-14 
9.552052122768767e-14 
6.605849990674212e-15 
0.0011094824399675894 
0.0004529628140829402 
0.0012218420171021074 
0.0005743513571344347 
1.1806710845915297e-11 
1.5440107484987982e-11 
4.115009051783848e-12 
8.825034339557767e-12 
5.763479890182368e-12 
2.4512193628223274e-10 
4.054425967290131e-9 
7.121191231405489e-10 
1.8279850278720648e-9 
2.634966644937998e-10 
3.08191460439548e-10 
3.8415132444404237e-10 
1.2063575586182598e-9 
3.1361717034116114e-9 
5.607320870662205e-10 
1.9331139850216821e-10 
3.4274833105340266e-10 
2.7867899024056327e-9 
1.6076082430439598e-10 
1.1585901131624946e-7 
2.1473471395356795e-8 
1.0277536777221668e-7 
3.5616891221290165e-8 
1.0788024312537819e-7 
4.794342515982581e-9 
5.892177960069735e-8 
3.9230746213953826e-8 
3.140727069703468e-5 
1.0207564899560137e-5 
1.1690582503721355e-5 
5.323939689147314e-6 
1.1043611946590016e-5 
2.2126159567713194e-11 
7.923056796967726e-12 
1.5611115192589207e-11 
9.66519843488987e-11 
3.304191013456341e-11 
2.1064257421530014e-11 
8.482888792053017e-12 
6.262245269926093e-5 
1.297719045825591e-5 
1.3813800371690264e-5 
3.590523904659906e-6 
1.4266413762784845e-5 
6.4870544364627e-6 
3.5904449688602016e-5 
1.9345960981744547e-10 
1.8781401443310153e-10 
1.1198024525576417e-10 
8.826043566061884e-11 
6.739091201779407e-11 
7.236424423560425e-11 
0.12886924247233894 
0.03062527518515145 
0.026894008417076832 
1.1008238047447852e-11 
2.5949858890562765e-11 
1.755739412355736e-11 
1.0782245589400124e-11 
1.411299032897265e-11 
2.491433848382284e-11 
1.908344334579743e-11 
1.7008398896469413e-11 
1.2399090665480467e-10 
6.013057942462855e-8 
4.038643224757489e-8 
1.4135828001163053e-7 
1.5954721515261946e-7 
2.0168245966323158e-7 
1.8737498124528643e-6 
9.873172538642233e-9 
8.409353878934608e-12 
6.412422414615224e-8 
7.491474165390895e-12 
4.143573230897634e-12 
5.353808749000913e-12 
1.112612360935829e-11 
5.729868027051997e-12 
1.216635326686361e-12 
7.157551443976146e-13 
1.7961540882346458e-13 
3.338994729206171e-13 
4.1379054641127864e-13 
9.02880207830712e-13 
1.6574491879027103e-13 
6.814985106338151e-12 
1.778353665342624e-9 
6.2732214276588745e-9 
1.2692333656597652e-8 
6.615506030340138e-16 
7.788902086990651e-16 
7.450294309686837e-16 
1.0349083219898569e-15 
5.932827195712196e-16 
4.468112109339196e-16 
1.5699562374881336e-7 
1.6613210848170596e-7 
1.1738909097999613e-7 
1.248161430702666e-7 
1.9323336523891387e-7 
6.266958797890838e-7 
1.6503842412727626e-7 
1.2607506967981634e-7 
9.60806893073512e-12 
1.8547634920994912e-16 
4.528486165656013e-16 
2.1536954810129832e-16 
1.9103019796993552e-16 
4.646354208332312e-16 
3.26924080226869e-16 
3.255484721023568e-16 
4.219225801487081e-17 
1.0100325855982691e-5 
3.4688035556143266e-16 
1.182430892238636e-6 
1.999977033360199e-6 
7.392988322438799e-7 
9.766826892138104e-6 
2.253056169503511e-6 
5.6656505307357495e-6 
1.0718837285558111e-5 
9.661756535237183e-6 
1.9812079421397484e-5 
2.7659310630592463e-5 
3.269918363000444e-5 
1.3741700364979193e-5 
4.845663378511203e-6 
5.218484525278161e-16 
2.7958118968796294e-14 
5.092871122943425e-16 
1.1535240475247317e-15 
1.5335580314629707e-15 
4.639168759395733e-16 
3.945600205678057e-16 
1.3855398693121042e-5 
0.007255002142691582 
0.03749490316186065 
0.11266650990083897 
0.01892763989295426 
0.024522889240542977 
0.00028408665889920437 
0.010799024606890346 
0.0059862902945610665 
0.002770669259954284 
5.766908200167421e-10 
1.208193502638878e-10 
4.024537346403285e-10 
3.6030881432147617e-10 
1.1668939065081636e-10 
3.425960284792697e-11 
7.905813722725999e-11 
2.1166590349449552e-10 
3.8653899146881897e-10 
1.3971033324707107e-10 
4.2460808860863205e-6 
9.055900128623538e-11 
1.3180382928181292e-9 
0.018879816612300968 
0.004906686335956735 
4.587464673794038e-6 
0.01924512681411753 
0.2827064380813533 
0.3625565420397318 
0.002504161116923267 
0.0016734889943104431 
0.0010124340177485637 
0.005264416723041716 
0.0032284414011532173 
0.004250984450117406 
0.0015536325319970262 
0.011979645662368504 
0.0020300829283687993 
0.006454900544990864 
0.0031491344945440425 
0.01824218573240779 
0.008375784932157319 
2.409946131278851e-6 
1.1478235970037466e-6 
1.2697884459797618e-6 
3.805056115727641e-7 
1.1024124822520956e-6 
1.8826750393883342e-7 
1.7986717304735676e-5 
3.162837820083782e-6 
1.537485565143624e-5 
3.569238327260745e-5 
1.2361716518741662e-5 
2.3700601214452937e-5 
3.330247266780969e-5 
1.5708806779344146e-5 
1.4845984207218307e-5 
1.3350630339551247e-5 
2.9469882494070108e-5 
2.6417956859574642e-5 
1.0763888467364379e-5 
1.0964414896797112e-5 
1.355156901650638e-5 
1.0799376346546808e-5 
1.7326205108805615e-6 
2.0890946709150315e-6 
5.87522865854299e-6 
4.871731121037596e-6 
2.3217423394085457e-6 
7.510935311900084e-6 
1.129018232465592e-5 
2.149157815968222e-8 
1.1582851145577351e-8 
3.4467156760795606e-9 
2.7791454992200153e-8 
2.3703335686765626e-8 
1.2234874871646406e-8 
7.395677658268776e-7 
1.8202978764319475e-6 
6.153702755919379e-6 
3.297258343649608e-7 
7.717672494199958e-6 
6.872223878609412e-7 
3.2588662025533267e-7 
7.627349328836994e-7 
5.433430611889667e-7 
1.745757931673684e-7 
5.451603546467e-7 
3.3824060892879076e-7 
7.263154634729725e-7 
3.363293713130281e-7 
3.660176115919037e-7 
4.067660460939386e-7 
1.202698656414844e-7 
4.839651281670792e-7 
2.9627440337503207e-7 
5.163138860841053e-7 
3.9898801587870145e-7 
7.679051684484576e-7 
1.1811503743476538e-9 
4.835360346888499e-11 
1.1834522369951206e-10 
1.645649666752804e-10 
1.3173332903382054e-10 
5.708322413152508e-11 
6.07848983928004e-11 
4.9404438593593326e-11 
1.221785488376672e-10 
1.1302602145207533e-10 
8.341807299169822e-11 
3.702925378318289e-11 
2.6469380413433125e-6 
1.45099614999241e-13 
6.051217572670734e-13 
2.0605095506505553e-6 
2.437978863337102e-13 
1.630046160132657e-13 
3.1130914630584504e-13 
4.271187370964715e-12 
5.8047709664234835e-12 
9.78490648137538e-12 
2.166011828733903e-6 
2.287540669264636e-12 
8.46113152782418e-12 
2.672946366988965e-11 
1.0195221113363676e-11 
4.306430406541353e-12 
1.07273151630098e-12 
2.735297984691768e-12 
9.459632423382378e-13 
4.304366752229829e-12 
3.849481841876685e-12 
2.616013578596524e-12 
5.6830304840850165e-12 
1.8276415180553484e-11 
3.830187088527048e-12 
8.900590117652626e-14 
2.3915332592955506e-13 
5.106448650138652e-13 
5.0250822372902234e-14 
1.2279859686276414e-13 
2.5220294076187817e-14 
4.697738690282999e-14 
3.7816021317392184e-14 
5.217275388567494e-6 
6.790731742171321e-14 
5.454729270164547e-13 
9.289642571064129e-14 
1.8414834220139195e-11 
8.279073416256664e-11 
6.734557173405878e-12 
1.6082886599229617e-11 
5.229572084759759e-11 
6.053300445535971e-6 
5.89520513255408e-6 
1.085593858708357e-11 
5.969960059596001e-14 
8.586257549026031e-14 
1.1627143956822566e-14 
0.09757396274968524 
0.9445201477723953 
0.1303217767371099 
0.055300188311209746 
0.8130630608806888 
0.08350325873743597 
0.054080397897640436 
0.22714375172062176 
0.16985107304881691 
0.0026396224351056684 
0.0026842740297187122 
0.002279640087872807 
5.3146258185488614e-6 
0.0013659396327680945 
0.003133923275746799 
0.00110431197251514 
0.002020134977420657 
5.442679135277681e-5 
0.000195019784204478 
0.0004526471447716459 
0.0007258544538416544 
4.792326727028936e-7 
1.6685925618115914e-6 
3.3644729655829727e-7 
8.498049926558409e-7 
3.892460676232346e-6 
1.0674815078907937e-5 
9.643190981045498e-6 
1.0412073953708049e-5 
8.951641126115362e-6 
1.017245340377213e-5 
7.128615332890763e-6 
5.443545782267141e-6 
3.550282595687252e-8 
2.0680737635946617e-8 
2.1987782274327364e-8 
2.765760912623818e-8 
1.3290468648308162e-8 
1.2963831627167882e-8 
4.648217427030694e-9 
3.569244762226063e-8 
1.6289055344524933e-8 
1.119060258001639e-8 
9.18888878084032e-9 
5.767466640695848e-8 
2.1747547131699556e-8 
2.1786920926019464e-8 
1.1027657003165037e-8 
2.652861282440753e-8 
5.87990043727343e-8 
1.6694261470199903e-7 
5.644685455387011e-8 
7.492826140436386e-8 
5.858303924808079e-8 
4.1796528308366456e-8 
3.6917023127154584e-8 
1.624574054984244e-10 
4.893239420983286e-10 
3.610242349741367e-10 
2.750595745698746e-10 
7.095331799582543e-11 
2.741903700644357e-10 
2.551454636900064e-12 
2.2330057865904664e-12 
2.4415924104743725e-12 
1.9561369432151387e-12 
3.1271341768341084e-12 
2.0873022399237873e-12 
4.3965756262213424e-12 
6.922930627449422e-12 
3.060642916731011e-14 
8.413803104320175e-15 
3.0905247934129037e-14 
9.900180809848552e-6 
3.308378465806566e-14 
6.506180455681847e-14 
6.23097715019715e-15 
2.243593522929744e-14 
1.5843888732717463e-13 
1.6824195598626203e-13 
1.3702135335320593e-13 
6.678517769956125e-14 
1.360346506222248e-13 
7.629894102561144e-14 
1.2528186710910746e-14 
9.731854803435248e-16 
1.3150099345894463e-15 
9.021056208913122e-16 
2.3464964886318355e-15 
1.026311468918291e-15 
2.1124442323535256e-15 
6.682114998572115e-16 
1.5575337691738277e-15 
1.6948773654135906e-15 
2.7453453465622814e-15 
1.4303325371543415e-15 
1.7287612279508793e-15 
2.235092022603921e-16 
1.1590689372927757e-16 
1.539552417052073e-16 
2.2644806970060916e-16 
4.973267628808361e-6 
4.198665302127234e-16 
4.560204514538949e-6 
5.400365159793756e-15 
2.193072020375472e-15 
1.4882362719955708e-15 
2.930706689635896e-5 
3.1221131121974647e-15 
2.0143512571312472e-15 
2.219222363979563e-15 
1.6043871370702328e-14 
3.0400994321095706e-15 
6.424734760613393e-14 
3.972698135320128e-15 
6.298634578323174e-15 
1.6629572069466701e-15 
2.300011093499956e-14 
1.9580094289618457e-14 
1.8264196201792587e-14 
1.78454878438084e-15 
1.7585406523724736e-15 
7.614425199846672e-16 
7.740662052262483e-16 
6.544400077896024e-16 
1.6416404814551503e-15 
3.033549179064796e-15 
0.01092358634443886 
0.011582865109087598 
0.010029000638720097 
0.026517317646246933 
0.025174276129234605 
0.01458526424727796 
0.00011730208177501505 
0.0002072262968704041 
0.00011861268176808053 
8.994531336250841e-5 
6.717535296725718e-6 
0.0004326816786888832 
0.007448676663212859 
2.4637762616706734e-5 
1.4582976264335786e-5 
2.3413938514629077e-5 
0.00015805008749854437 
0.0001249019775602834 
7.227887619697831e-5 
0.00011362013361089036 
3.7931009186749485e-5 
4.996794938357175e-5 
1.2387746704405134e-5 
1.2789247819254374e-5 
2.8243069907814503e-5 
5.3933632716665695e-5 
1.8285912100414506e-5 
1.947480624102857e-5 
6.773778494720151e-6 
5.750343452696876e-6 
9.663136840680948e-6 
1.866045394137187e-7 
8.59173209936244e-7 
8.6050131549223e-8 
4.8184246111099226e-8 
2.1709024257515745e-8 
8.230065154504715e-9 
7.544600862222298e-9 
2.2698544106322898e-8 
3.724604345516947e-8 
1.5327876475331094e-8 
1.9686228843297772e-8 
1.9816336197139226e-11 
9.486666921993365e-11 
1.038906129755383e-11 
2.2796902850683764e-11 
1.7681809945077742e-11 
8.279308360817691e-12 
3.0963883678933893e-13 
7.891978662541035e-12 
2.341811124193273e-11 
1.773590202723846e-11 
1.646311169093628e-11 
1.170131855501467e-10 
0.0001011704769756656 
9.336864576123791e-11 
1.786512968178612e-11 
1.2171379365194426e-12 
4.7259673948054227e-11 
0.0001022405936697162 
3.691456085707066e-12 
5.099791966352827e-12 
1.6363885639694106e-11 
1.0968690453129734e-10 
1.7275778382597699e-10 
3.893060282514422e-11 
4.868882042320707e-13 
5.402668999578807e-13 
5.343875512064503e-13 
3.1117109958650037e-13 
7.118935996574525e-13 
2.389247458084032e-13 
1.0263958681501262e-11 
8.437780645505026e-11 
1.6810427949666418e-12 
8.048823207575744e-13 
6.557684999574445e-13 
0.00012073568479556355 
5.380172154690203e-13 
2.148300987317957e-12 
6.652147238191514e-10 
1.5075416957329264e-9 
2.6039265978376716e-9 
1.627961077189169e-8 
5.87254876924386e-9 
7.607024458472339e-10 
3.184108660676306e-11 
4.3889412413955255e-10 
1.7814003359604456e-9 
7.677185663834048e-9 
8.875186543368408e-9 
3.3453619491424287e-9 
2.162957395163916e-9 
1.0560660218109539e-9 
9.680957930112879e-9 
6.235202955292699e-10 
1.328926313345213e-9 
2.119043375381406e-9 
2.228923238508151e-9 
4.532643585992106e-10 
0.7344294413367866 
0.10732535220054104 
0.00011838807549433914 
0.33147680266566504 
0.0183923056497292 
0.050279993802994125 
0.009107852113063721 
0.01822863831053906 
0.002593321214295531 
0.010761313674633606 
0.019194565922528897 
0.3519343828146003 
0.0046625293362737045 
0.008936003995820438 
0.005580261059765186 
0.004278355051176893 
0.003974159560285025 
0.0019502667584519852 
0.004744104422639124 
0.0012242296290958933 
0.006380302945915713 
0.0020037482113648727 
0.0006914682006561458 
0.0018661308953339085 
0.001334096910043628 
0.0016140517490551174 
0.00013970054879878393 
0.00030596468560646726 
0.00013808371207744575 
0.0012540370882546544 
0.003815870730283666 
0.0005857172374001393 
5.2455047819618706e-14 
1.7677873328626869e-13 
1.7680920619297966e-14 
8.349451130810943e-14 
9.223995438377961e-14 
1.962792252196027e-13 
3.7550002034973083e-13 
4.93017396902684e-6 
3.5935949850417898e-6 
5.137437035939084e-6 
1.936108602574009e-7 
0.003293478986570573 
0.0018119764023510191 
6.7948546145567895e-9 
1.4969510236032405e-8 
3.783411467808267e-8 
1.2515747556396037e-11 
2.394127079186478e-11 
3.066131852680987e-11 
3.183601838390238e-11 
4.671617452037387e-11 
1.3564007966394654e-13 
2.5470732255794806e-13 
1.6628297103212184e-13 
6.260156496448922e-13 
3.4402001767021794e-13 
1.1912421813102918e-13 
2.2333791163708469e-13 
1.2784755752519942e-13 
1.6035542825822937e-12 
1.537519589650151e-13 
8.032696254588653e-14 
5.544526912821299e-14 
3.175140497172198e-14 
3.1550992368435214e-14 
2.853666931846592e-14 
1.2506582462274168e-14 
7.522833103392935e-15 
1.1918983886086631e-14 
4.144844171159818e-14 
3.231167000159448e-14 
7.486663274453026e-14 
6.126854148439279e-14 
1.4110973534235668e-14 
1.722100308178036e-14 
1.4645757006035562e-14 
1.3671263840998349e-14 
2.3120012420334264e-14 
1.1940186099390648e-14 
1.2029583803062258e-13 
0.001264131692448229 
0.002083421031133493 
0.001105770820095886 
0.0014117567889714597 
0.0020037774729839623 
0.0021349295619305006 
0.0009538637879560635 
4.477738208453575e-13 
4.240052596951697e-13 
7.493401877483668e-13 
1.1293532587522176e-12 
2.2054542958862146e-13 
5.788990489932368e-14 
3.6052703606608653e-13 
0.001866839049898668 
9.403523098381912e-5 
0.00010976624885045858 
1.9017828095772832e-5 
2.7392930673196483e-5 
1.597823645057418e-5 
1.920232348864834e-5 
9.669496015352942e-6 
0.00042824106667844884 
0.0003498876111944796 
0.0006617887742186176 
0.0015240616477063152 
1.220949101765282e-7 
2.8401341874963293e-8 
3.2127806065698396e-8 
2.386904797180365e-8 
4.6222182668269615e-8 
8.337143872866344e-8 
4.0088067486997814e-10 
4.985403329753302e-10 
1.3699154314140935e-9 
9.91381562685675e-10 
4.753579707046836e-10 
1.7537580358528587e-10 
4.743523162315869e-10 
2.7162316403784815e-10 
5.445483306455327e-11 
8.266553096152712e-12 
7.525136519140123e-12 
0.00018600799613852488 
8.989590388334416e-12 
1.6689517129471025e-11 
3.646687496013367e-11 
1.3318954075516915e-11 
7.61966829757593e-12 
0.00661150835256121 
0.01466167271969829 
0.006185579667859527 
0.006591320917247269 
0.0162972989765214 
0.0022360347692942056 
0.01987010910994868 
0.00016422685516545297 
0.00019745255718682023 
0.00013672134906664575 
0.00010504708354983461 
0.00041102989070358786 
0.5717326827540523 
0.13547406639246715 
0.010527798212715966 
0.020431870891125907 
0.022261767479604476 
0.03692140623508957 
0.04336548701560774 
0.2624807876561369 
4.746686461718141e-5 
3.4379083536899823e-16 
3.673025448470091e-16 
8.265610862056963e-16 
5.02738212790443e-16 
4.368366822056535e-16 
4.713193987911398e-16 
2.848120868277807e-16 
1.2152239451517136e-7 
8.72442570098001e-8 
7.952392095501353e-8 
6.263286012803714e-8 
9.798014842601182e-8 
4.976785879358314e-8 
3.159048498791053e-8 
3.169182790329226e-7 
1.0272541728205537e-7 
1.0337431498459676e-9 
8.799432787036726e-10 
0.00031070861960019925 
1.4895778692127362e-10 
3.8475675784033623e-10 
2.1190706098295997e-10 
0.03396246799847395 
0.44579200271481906 
0.25858732894881087 
0.18334799447172326 
0.10070470730037659 
0.8799059806266304 
6.068114950223109e-11 
7.057179471504758e-10 
1.4879883511564706e-10 
1.1763922993097403e-10 
0.00017315374924418934 
1.0515521269309532e-10 
6.18803453936296e-11 
3.27717326600903e-15 
2.8927387550686683e-15 
1.8638503223582244e-15 
2.756528119965275e-7 
1.7177977659393088e-7 
2.241918932439887e-7 
5.726015412694066e-7 
1.8975795820056576e-7 
1.6848228328739344e-7 
2.0638704038718884e-7 
1.009646887697124e-15 
5.29978401243638e-16 
3.979624798418816e-16 
1.571979975770258e-16 
0.00014964704923643374 
1.985993178896293e-16 
9.071594190744167e-16 
6.027614045503278e-16 
5.647536097683825e-16 
1.328856056899665e-15 
6.975536069670236e-16 
3.602999860291877e-15 
1.881657070496128e-7 
7.089205115938061e-8 
6.711212794286738e-8 
4.85456436079175e-8 
3.3000499968291426e-8 
5.0524936036954536e-8 
6.966324856110752e-8 
1.4862537643888467e-15 
2.0079078813420523e-15 
1.282586681210785e-15 
1.3499502865469157e-15 
6.272957838689713e-15 
3.55641736368563e-15 
1.3971777466884629e-15 
1.8235322035266223e-15 
1.0550393940587256e-15 
7.938771336332896e-16 
0.5701784426659846 
0.01605867743626955 
0.0022488875250040318 
0.0001661797280361792 
0.006473391818278261 
0.003640908413713935 
0.0003134034550748437 
6.157585577781731e-10 
1.3058751972743898e-9 
2.734749651081072e-9 
1.1784242737943326e-9 
6.831110704874321e-9 
6.6646299913065e-10 
5.090814135891274e-10 
2.7798803080176845e-9 
6.212898170412487e-10 
5.697741144651918e-10 
9.641647029888554e-10 
2.3403441839022825e-11 
7.017811378814467e-11 
1.2318134637988284e-9 
6.932745881887734e-11 
3.747648454963998e-11 
7.078661603200624e-11 
0.047407607090220065 
0.05110645563210612 
0.19173963174946315 
0.0062761268450324545 
0.016696479820929318 
0.010137358646789812 
0.13245228468181316 
0.0006777443357684105 
0.0002231658662744833 
0.0005143822116743722 
8.691810685387668e-5 
0.0008342489115269005 
0.2931000571533642 
0.3470295416348694 
0.08417520702460911 
0.2755420085176293 
0.6570754553232185 
0.15708647479206114 
1.0198952510332803e-6 
0.06353234809267551 
1.5810395829511962e-6 
1.2523166609208683e-6 
3.022593768790171e-6 
0.0002203248006817757 
0.00020692520364200406 
0.0030496287742911394 
0.0014717232861410122 
0.00031664335076801123 
0.00011654129735403599 
0.00025637497539437266 
0.0003290565579233013 
2.402594044920118e-5 
1.0847975492749647e-5 
9.891073089329928e-6 
1.902204717198888e-5 
0.004780000945675808 
3.7099197328298103e-7 
1.4900861648094633e-7 
1.3346707411803093e-7 
6.467384758956245e-8 
1.4901047362536972e-7 
1.3592804208374223e-8 
3.4006737654969974e-8 
3.224683882398618e-9 
4.961337418321777e-9 
1.314440348451623e-8 
3.2132956115200533e-9 
5.909315629622191e-9 
7.338187626976405e-9 
0.005087120150609695 
2.42681144244724e-7 
5.126477786501072e-7 
5.379350395340377e-7 
9.493116624088913e-7 
1.9612796464288305e-7 
2.483299713228596e-7 
2.26622963605525e-6 
4.546131099059176e-7 
4.5295460925809177e-7 
1.2950896070870591e-9 
1.7231899498328315e-9 
5.230451344693432e-10 
2.2245973488965373e-9 
2.9519725870542906e-9 
0.013563891852513417 
5.399672562971255e-10 
1.081096191040178e-9 
5.793911005090405e-10 
2.489696035470728e-9 
0.0007899014971116549 
7.805860620787183e-11 
1.7281198637059627e-10 
1.1024451596006479e-10 
1.9163536124775543e-10 
1.04695463476763e-10 
5.6954045450526535e-11 
1.4644139381053284e-10 
6.921500123254558e-11 
4.802991303177628e-11 
1.5585168993115754e-8 
3.4758161626207244e-9 
1.0805408874974558e-8 
2.0975241647498545e-13 
3.0327658136399425e-13 
6.1487187886742e-13 
9.420026838384925e-13 
7.226593444956988e-14 
7.050740368877757e-14 
1.0473093157671497e-13 
5.193234421566178e-13 
6.773398682608706e-13 
2.6876433211516133e-13 
7.189149977675849e-14 
6.210461595556847e-14 
5.946432048446787e-14 
4.4264736426496384e-14 
2.3916596438227557e-14 
2.449795484909872e-13 
2.0961351694752095e-13 
6.362854478749121e-13 
2.7925134276998213e-14 
1.1993144573634646e-13 
2.8641939498523628e-12 
3.5545883637332002e-12 
1.050541320126216e-11 
0.016015600755215846 
4.6538431887863307e-11 
3.028863834234047e-12 
7.224559747264244e-12 
1.292980841273957e-13 
8.720518479487125e-14 
3.6080394394592707e-14 
4.267999269646582e-13 
8.293222562407053e-14 
4.661592900375594e-13 
2.8049099014835005e-14 
2.440527607380161e-13 
2.5892004504186184e-13 
4.616584685036841e-16 
5.222668625026168e-16 
1.4124438310019486e-15 
7.079955462703459e-16 
0.017038968244382724 
0.00047515416019607834 
0.0003583729423268235 
0.00032090520892901034 
3.155555653709187e-5 
0.0007460118868581786 
2.3815943955527044e-5 
0.0026011259244774067 
0.00028107074886054754 
0.0005077072726500653 
0.010706827963220259 
0.008723561406116812 
0.004302779183569916 
0.002727528567679294 
0.0008290044738003536 
0.00047270594543800633 
0.0001218523526128698 
0.00013349848520066896 
0.0001495968708495929 
0.0004016995375516247 
0.0005134149551020315 
7.987977652660654e-6 
3.13336321220289e-6 
1.985768376972711e-6 
1.0039119534862013e-5 
3.469963210042651e-6 
2.9767236224827395e-6 
6.530445225995985e-7 
5.752977403384951e-6 
8.576313963351274e-7 
7.01369975173352e-6 
2.1396445940159713e-7 
1.27553651612815e-6 
1.1867208502149879e-7 
0.007681765348374781 
2.4560451377674254e-6 
2.1856934938094523e-6 
1.8747464377404538e-6 
7.121763649433555e-8 
1.350484997654389e-7 
6.977684122177826e-7 
1.758230053706099e-9 
2.277447031994476e-6 
1.3938940337758044e-6 
1.0388994970743798e-6 
4.3449374502864115e-7 
7.843562539360021e-7 
1.2017098645957196e-6 
3.7319441741104956e-8 
1.0220483942734586e-8 
1.505351148134784e-8 
1.5010367961423964e-8 
8.39251084029705e-8 
2.4128716822408832e-8 
1.6049826917463793e-7 
2.3188274297360313e-8 
8.464659907944372e-9 
1.026707184161159e-9 
4.2996464858031474e-10 
3.4822734694001467e-10 
2.755204924045614e-11 
8.654927488816878e-11 
2.8979313112494017e-9 
0.13835976290420945 
5.0290584124148696e-8 
5.468248027004203e-10 
1.9891243058320055e-9 
4.495573872158424e-9 
1.880357955319843e-9 
9.926940978929537e-10 
4.524278396724479e-10 
9.608943800931468e-10 
5.868559284049912e-11 
5.381095160705599e-11 
2.0812221605284372e-10 
1.6705860593077265e-11 
7.962703276607603e-12 
4.7512831241922805e-11 
5.330087844403764e-10 
7.716512155936602e-11 
9.458024959735507e-14 
1.6408970129727935e-13 
1.2414859932231932 
8.324348559132778e-14 
9.451692243134494e-14 
0.10881890301673351 
1.4562768004872189e-13 
1.9680401008631948e-14 
1.8140308053852693e-13 
1.477294363377682e-14 
3.622295566935017e-14 
1.9014624098839686e-14 
2.758036175465669e-14 
1.2004909237708446e-13 
3.2148654477004635e-14 
8.634062760818026e-14 
3.331075317472547e-14 
1.640800306519686e-14 
2.6819467095479762e-14 
9.144233381230373e-15 
1.1874714016985929e-14 
9.390882004750403e-15 
1.1647217806978333e-14 
1.6980306562972133e-14 
0.18980920494647338 
6.180043278814214e-14 
5.9838719840006556e-15 
6.674698087353612e-16 
1.0627482818548884e-15 
1.3564106763873623e-15 
2.1690934793331385e-15 
7.251524024652792e-16 
5.908860303046983e-16 
4.4039101203093257e-16 
6.613333812718544e-16 
6.576575294587896e-16 
5.94789103657773e-16 
1.0778045513675182e-15 
4.4323556312585314e-15 
3.98410774992427e-16 
0.3970604775154529 
1.2366743863992545e-15 
2.2780034100039626e-15 
6.181700324318117e-15 
1.2410671950216158e-15 
0.2360799697563366 
3.575116146244416e-15 
8.410045747240445e-16 
1.6553207722901525e-15 
4.674982053178659e-16 
7.499090489235431e-16 
3.0367769001628205e-16 
2.578152006726146e-15 
3.7948890983767104e-16 
0.00016325542416467418 
0.00013171286118698604 
0.00012409635585821822 
0.0003559949435236451 
0.0006103206869005739 
0.0002565805315560525 
0.00011039244371125843 
0.0002607262708180588 
0.00014069986498746728 
1.1630017951868267e-5 
0.00011388920570165426 
1.027205311147048e-5 
5.9196089443333735e-5 
3.946684673537536e-5 
1.9587720625997016e-5 
2.7670639948299774e-5 
4.550960199774635e-5 
8.314795781093802e-5 
3.1992300873513855e-5 
1.6973536539654866e-5 
0.00017129692371837656 
4.833481610889355e-5 
1.7838151423942548e-7 
2.714834082656025e-7 
2.0808310265066476e-15 
1.5553565097848584e-7 
1.214175368334497e-7 
3.896218732071514e-7 
2.2973952356626557e-7 
6.107898959179067e-7 
2.5360373354024884e-6 
1.6765022231208421e-9 
2.4679572389540507e-9 
2.4587967454200114e-9 
1.6733511523309323e-9 
1.8206154609624936e-9 
1.886235240655915e-9 
5.839308588270535e-11 
4.276077788424575e-11 
1.0450644803831379e-10 
1.4597698385194332e-10 
3.409213301341012e-15 
3.6754985543212724e-11 
2.484293391131396e-12 
2.2458363276243762e-12 
3.7561039437692937e-13 
3.976958109969482e-12 
6.59847531574706e-12 
4.965749623179682e-12 
7.6351674656325e-13 
1.4689375540803098e-10 
1.1010776422420101e-10 
2.257294587412716e-10 
4.07267575364932e-11 
1.8273702601231945e-12 
3.3014618594543386e-12 
2.1999261661608947e-12 
1.6295802019159178e-12 
5.9088129438427796e-12 
2.6632941819072996e-15 
6.405222124953185e-13 
8.647537141478596e-12 
5.12486494828358e-12 
7.042822293789564e-12 
3.023387461015527e-11 
3.821793285398826e-11 
1.939506083144218e-12 
2.7428459901021497e-12 
4.552810868847272e-12 
3.3451821841017786e-12 
2.085646312740171e-12 
2.155611724445542e-12 
1.051304904020158e-8 
5.074871889854349e-15 
1.098513750968251e-15 
5.706810070164155e-9 
2.197412267882877e-9 
1.899667380889802e-9 
3.6628837019437065e-10 
2.058095909749694e-15 
3.298975703288226e-15 
5.03008948084477e-15 
1.3581234927316692e-15 
8.459406272771353e-16 
2.321321363302643e-14 
3.9348423686973384e-15 
0.3529842608040653 
0.3079755497005944 
0.3543349270598117 
0.31310511377904027 
0.07622484115566418 
0.06595416479397621 
0.10172969627015117 
0.29602785417712224 
0.28275239151330284 
0.3215401392956104 
0.13759223499889478 
0.4472289737725895 
0.39494872610757564 
0.308196448828876 
0.00028205179918268684 
0.00033836044297170614 
0.0009623909025029033 
0.0010973396670765439 
0.008494739365117816 
0.0017500102677556917 
0.014288309244556156 
0.0006123709304480241 
1.6129315004386628e-15 
0.0006213506460141821 
0.0009204544007955126 
0.0008778611055444105 
0.0005535183441437034 
0.0005951212911323733 
0.0010851612636531124 
2.820410708405896e-15 
0.00035383081401180714 
0.0023253998445965326 
0.0012643348621155478 
0.0015531033218318814 
0.0005884484602256231 
0.006516035320828213 
0.09483907000260518 
0.00029875642110741674 
0.0025846346696832725 
0.006848837770922136 
0.011923240217994853 
0.0011517414754335985 
2.0063308752522384e-6 
2.032524794116911e-6 
3.1884113687100804e-6 
2.4896301517353043e-6 
1.0674549304186432e-6 
8.229903730249087e-7 
1.30299852972809e-6 
1.1139053531044948e-7 
3.0920812225037697e-6 
6.539684822920876e-8 
6.905603102842199e-8 
2.474009538568216e-7 
1.4219741290134067e-7 
1.6602893206229213e-7 
5.045693335076504e-7 
7.150852252429735e-7 
3.9925716899853914e-8 
0.0038204881149171335 
0.0043237444805906905 
0.001711682646008715 
0.0020486689108918507 
0.007733148571228858 
6.74963747358677e-11 
1.8123082820367804e-11 
5.309367537324124e-11 
6.055963052710516e-11 
6.24012602996178e-11 
1.191111565891493e-10 
1.4368458215290494e-10 
3.530161424979617e-11 
2.6469000846368703e-11 
3.8206188806538276e-13 
4.0922583644785043e-13 
4.2545043894278814e-13 
4.21394757077202e-13 
8.546628102473081e-13 
1.6466180167350753e-13 
8.477365705911285e-14 
1.024462920240078e-13 
6.022660588107712e-14 
1.4396413313520256e-13 
5.456222370293783e-14 
4.8122611543081904e-14 
4.5252621099076226e-14 
4.3237341868470964e-13 
1.2737385757819867e-13 
5.825228996257216e-14 
2.936262785642251e-14 
2.6560806964063094e-13 
1.2205637923274868e-14 
4.132514187383536e-15 
5.4156155995884586e-14 
5.532155897731402e-15 
1.5312427855546774e-14 
7.896271659487139e-16 
2.4443250471976925e-15 
5.8700336571556995e-15 
4.274353976786978e-15 
2.054356446683655e-14 
5.7973213770279175e-15 
1.3900353420037202e-5 
2.935143024276822e-5 
8.312838462613819e-6 
3.2016036325659135e-5 
6.579938102285704e-5 
4.711667636477643e-5 
0.00010012878780304357 
0.22216193507066492 
0.30319238661254144 
0.33855700320264404 
0.15240191565996114 
0.024442076430267783 
0.014516110655067808 
0.12955958449445312 
0.6531120557207212 
2.1293287098128387e-5 
5.5857930960184075e-5 
4.2993244147138e-5 
3.936966780642476e-5 
1.0106874180832004e-5 
8.789992209156259e-6 
6.878872505000557e-6 
0.002684008758371125 
0.005956289095700634 
0.0011318988852682848 
0.0023877346567914444 
0.0009116483349319984 
0.0005220705583940676 
0.0036614825094406847 
0.0011683553241197571 
3.9276943624574984e-16 
5.472345486157026e-16 
2.644599839603799e-16 
1.1220266594433078e-15 
2.089945979139126e-15 
4.0135190077837103e-16 
4.47271689311915e-16 
4.368766647598576e-9 
1.4692964787009363e-9 
3.1139684200994905e-9 
3.5205325060955953e-9 
7.954789523663166e-10 
4.84741304952999e-11 
1.870030922643725e-9 
1.745047054337162e-9 
4.1197740287892575e-9 
1.2323637863289637e-8 
2.476307725359063e-7 
1.971550791924366e-8 
1.8170888388152686e-7 
1.7916114668597845e-7 
1.3069077906981537e-7 
2.4753427484932553e-9 
5.441550959777402e-9 
1.4591809660429648e-8 
1.7542179615376042e-9 
1.904451424810872e-8 
7.051567130484417e-16 
1.3975295829464312e-8 
0.000997837283566515 
0.0010327419772186025 
0.0005849074094990802 
0.0019434095781012185 
0.00011924627238563507 
0.0005138628723843952 
0.1332634093881818 
0.07155367943708832 
0.057522263698535185 
7.570265999032104e-16 
0.13918890037031842 
0.3517533365061441 
0.6122932528521948 
3.9629398067152297e-16 
2.6696537984606067e-16 
3.101546446386854e-16 
8.128929383815949e-17 
7.656119262997558e-16 
2.8382235316372594e-16 
0.005850903892287402 
1.2189639481870463e-10 
0.003894204032256499 
1.7501559095095724e-10 
1.6159469892393597e-9 
1.5906889150874362e-10 
2.760630871861488e-10 
2.0974754233997174e-10 
7.163976578828671e-11 
5.042600292225669e-11 
4.4176496393168616e-11 
1.4671833611235299e-8 
3.349090187630072e-8 
6.253643077393019e-8 
1.311693136756945e-8 
4.759188226894332e-10 
1.3372486242421877e-8 
2.9275272528078396e-10 
9.252116861202793e-11 
4.446111613114121e-11 
2.579546144472983e-10 
3.235160503396221e-10 
4.618744763573059e-11 
1.0459902695410953e-13 
1.0392296551349529e-13 
5.2100027050140663e-14 
0.0035670483170727667 
2.3930864101610438e-14 
1.0841601889395716e-13 
4.2588055714922785e-14 
3.088059570763183e-13 
1.9424246151355641e-10 
0.01235751208152907 
1.7305638803611445e-10 
1.0855157623553856e-10 
2.1890697814831472e-10 
3.42616152858781e-10 
2.1408557899812857e-7 
2.059951697252486e-7 
2.618841413763755e-7 
1.5019783442829722e-7 
1.1137504464607939e-7 
2.654025183473828e-16 
2.2059828031801395e-16 
2.0868742762576695e-16 
7.483985891110878e-16 
6.159621067374776e-16 
5.614466852555047e-16 
1.7695606597917346e-16 
7.74020853835797e-6 
1.4305788850387159e-5 
5.040561897645617e-6 
1.494245894292461e-5 
5.283574263336525e-6 
2.0296700098782904e-12 
1.3875979873855905e-12 
2.1501408600449817e-12 
5.605507020825305e-12 
2.6365226396091147e-12 
2.5980556181615883e-12 
5.7646048582127114e-12 
1.584135997485652e-12 
7.826074238268614e-12 
2.2667479347178634e-11 
2.7262083757646284e-11 
2.1913536611121464e-11 
0.00010379515078408885 
0.0001151217770389902 
0.0001228069441819007 
8.893326006511397e-5 
1.652677442188154e-9 
2.249838385696482e-9 
8.60197137123744e-9 
2.0469361561298504e-9 
5.599839951200965e-9 
6.616468785626193e-9 
1.0828422857950077e-9 
1.1608338991268803e-10 
4.2622002807689726e-11 
2.037516370952184e-10 
6.886753865928241e-10 
9.844081934337532e-11 
0.11514336667951622 
0.09918701884277192 
0.16435663472948941 
0.006264942782995131 
0.022784245262681174 
0.04457161310697141 
0.0002922533885180775 
0.0002726607982903415 
0.0008377291337585074 
0.0028851668944435433 
0.00018126253889810178 
5.649483936061342e-9 
9.196395895030923e-5 
0.3567297822372691 
0.009205320019701271 
2.215205726323326e-9 
0.00016447557634244442 
0.0011473411306412342 
0.0015325693454507254 
0.0002866931864987781 
0.0006639972203286747 
0.0005382938374948246 
0.00036178558318749953 
0.00010163032644591269 
1.222161359270312e-5 
1.5481615216060936e-5 
0.0001009255356379457 
3.3752946221860236e-6 
1.892656160873602e-6 
7.910922956567305e-6 
1.5106033933326776e-5 
1.040404099909957e-5 
3.594740576641423e-5 
1.9370675354499093e-5 
7.795030746613134e-5 
4.9252085522702976e-5 
7.599024587438102e-5 
6.412926963412706e-5 
1.3379147427458044e-5 
2.787559722467331e-5 
6.66625670791981e-8 
1.8295286297675436e-7 
9.97369307773667e-7 
3.91705942057539e-7 
4.3193894841006483e-7 
1.480795005572895e-7 
4.0095383590884273e-7 
3.179639496807453e-7 
6.464311018298111e-8 
2.7697052966085046e-9 
8.063067283630285e-9 
3.2768095323957547e-9 
3.8122393850967956e-8 
1.3599041858980979e-8 
2.30095697613881e-7 
1.4169547878023233e-8 
1.5922871188378744e-7 
2.347810955514708e-7 
1.2682229081252174e-7 
3.5244770846928347e-7 
8.902357325460826e-8 
8.08860748683121e-8 
4.5223247875978745e-7 
2.2769371474991835e-6 
1.5096447462152097e-9 
3.0953226973982748e-6 
5.083416954662676e-6 
1.8752376281294419e-6 
1.6499111204501762e-6 
7.587534536495579e-7 
6.262020450350229e-6 
7.76328521972292e-7 
2.0661041593805296e-8 
1.4192039580224398e-8 
4.5536174686208574e-9 
1.1519677881654522e-8 
2.1082302869813783e-8 
9.806850990350325e-9 
1.0855824514037045e-8 
1.0708961509877125e-8 
5.542407235632183e-9 
5.866189907810912e-9 
4.166024576900485e-10 
2.3810695571830694e-10 
2.47193913581943e-10 
7.573874686709924e-11 
1.2104299876558902e-9 
1.2585422709734603e-8 
5.3117463360883475e-9 
1.2804223813177717e-8 
2.8879725208536113e-10 
1.501111729704164e-10 
7.881051841909965e-11 
6.588441113233104e-11 
7.888657963894715e-11 
2.63725881804388e-9 
4.008787578232023e-12 
1.5189587345535355e-12 
2.0539913039592707e-12 
1.3574769977727204e-13 
1.5120203866861828e-12 
5.656541114093454e-13 
5.042233322063162e-13 
1.419344899453044e-13 
5.023855317939026e-9 
2.843162776252024e-13 
2.8343832696286404e-13 
3.9729373936310054e-13 
2.4415170028623695e-14 
6.896429779992243e-14 
5.1948095555396395e-14 
1.0172224826198115e-13 
1.1627185363638861e-13 
2.5787342203307157e-13 
5.026911511619453e-14 
1.70410689252321e-13 
5.743775793232663e-14 
9.337695719312114e-14 
1.9922440274050523e-13 
1.5884054364581487e-13 
3.085755435605349e-13 
1.0331967402456685e-12 
0.005098683418840665 
0.012626760590555546 
0.018893470321656447 
0.002237204076151095 
0.011409605989125231 
0.022585561032352403 
0.04294368866905325 
0.010493905737072949 
0.00038250856661779505 
0.001897780564685918 
0.0004552700643065459 
0.006555648367881827 
0.0013897348281640023 
0.0031141682664845463 
0.0025277191308517564 
0.00035631346542811107 
7.454242104763243e-5 
0.0035729129323600266 
0.0019839430964769143 
0.0012260558482453734 
0.0029824639684013386 
3.6493365636560453e-6 
1.4562591936701085e-5 
1.0035704815104815e-5 
5.471548350730675e-5 
2.4435614474206475e-5 
7.04915924193937e-5 
5.248959803953659e-5 
1.8055388327034905e-5 
8.816865961818894e-6 
1.7259926319174344e-6 
1.6790189447406266e-5 
9.026506490215042e-6 
9.231214003720281e-6 
0.00015873621937642114 
2.2136057108936174e-5 
8.149452240242765e-6 
1.7027304221222186e-6 
1.127049433844111e-5 
7.5332510085932116e-6 
1.349295181241976e-5 
5.301667116345452e-6 
4.4605098533183005e-6 
3.966355149210381e-6 
9.776416022342011e-7 
8.15723890478239e-6 
3.306746463360231e-6 
6.322569668497106e-6 
2.5423119320714094e-6 
1.4000203154635805e-6 
9.812520332407685e-7 
2.3397633941193498e-15 
6.861189722490892e-7 
3.550900264644035e-7 
2.903802341468389e-7 
5.974415665476125e-8 
1.0417734781190139e-7 
1.1050423349299273e-7 
1.7253263668566537e-7 
7.96932161447946e-8 
1.709053004328105e-7 
7.590712778462151e-8 
1.4213961419310131e-8 
6.1151594935968834e-9 
9.956230718211767e-9 
1.2327937765345812e-8 
5.946568364718094e-9 
1.706955241882024e-8 
5.5460137893651036e-8 
5.885210689915626e-8 
1.4007838130757616e-6 
1.1220977691621307e-7 
6.629474520109326e-8 
6.946170420461901e-8 
2.594216963393868e-8 
4.952265067883635e-8 
3.658228756116613e-8 
2.6503071070705558e-8 
1.2287911905282942e-8 
1.426304555585242e-8 
9.443616377848725e-9 
5.447810269405223e-9 
1.634071844474695e-8 
2.445620796232944e-8 
2.0303220479960353e-9 
6.716175019928086e-9 
4.240943826593993e-9 
1.124255348690441e-8 
3.2264872032112057e-9 
1.2730003918343097e-9 
4.370523377184225e-9 
2.7284357516771894e-9 
6.033948166886925e-9 
5.284274410875622e-11 
6.60134620018192e-11 
1.495154809207557e-11 
4.036756332355468e-11 
2.337927130998868e-11 
9.273323222721196e-14 
4.201939679098414e-14 
1.2134141929033988e-13 
7.7257880731277e-14 
4.705878225224222e-14 
3.0935310447782754e-14 
5.558706346380915e-14 
1.612597495130405e-15 
1.0521340736989461e-14 
1.9493721734252053e-14 
1.1623483918924195e-14 
4.765446969814575e-14 
8.941292367756953e-16 
3.4473551935023517e-14 
1.9043101638052675e-14 
7.62539614595682e-16 
2.0742753671279293e-15 
8.580418612405777e-16 
6.756802617554544e-16 
7.877272073808358e-16 
1.4031480155689948e-15 
1.3110209899866666e-15 
2.9703825672850353e-15 
3.3787282187937223e-15 
1.0057045850082187e-15 
1.6664841402099356e-16 
6.269484309034871e-17 
1.2753318084640068e-16 
6.683170584537799e-17 
1.913204810768448e-16 
1.8906103526976935e-16 
1.532667781983346e-16 
1.4448022341172446e-16 
6.616644554254303e-16 
3.873600329529039e-16 
3.9244136228558403e-16 
5.2974357295572e-16 
7.044790275912723e-16 
4.814120381403146e-16 
1.3578749938624044e-15 
3.7306328112060334e-16 
2.709435971932886e-16 
2.5295587903284046e-15 
2.65216798906318e-15 
1.8870810830736937e-15 
4.426466441746594e-15 
1.3365101179716323e-14 
3.725308828471306e-15 
5.911823733713564e-16 
1.3358853637734889e-15 
1.6393421709497796e-15 
7.066630431454922e-16 
6.488237584915192e-16 
9.09550227249616e-16 
8.367683475524353e-16 
9.684025826986618e-16 
0.0014217308991398814 
0.0013835567954470936 
0.0017584151786035104 
0.00617108014998225 
0.004256842494347705 
0.0033858806961024252 
0.0008033700969103141 
0.0014134776190420197 
0.010369074145004396 
0.0014431726224278976 
0.0010570890823694112 
0.0018281796262937802 
0.00040815634058502276 
0.0011987047024842018 
0.0009585731922808142 
8.491981100557706e-5 
3.941136777610776e-5 
7.720757461531353e-6 
2.0687434544161153e-5 
1.2465953643768019e-5 
6.789782280867889e-5 
2.407602656937339e-5 
0.0016186961910028715 
2.4624770180008843e-15 
3.708943553470037e-8 
2.8101906318715412e-8 
8.491082750076492e-16 
2.779938062007195e-11 
6.155858393285247e-11 
9.358761006897403e-11 
5.1182652297733216e-11 
1.2737914075926875e-10 
1.5065907161618091e-10 
7.923775630706525e-11 
4.9251509259779163e-11 
5.951028653648374e-16 
1.7759994622737426e-10 
9.949471642553742e-11 
1.3076081281745537e-15 
6.808242845695104e-11 
1.9853858540239659e-10 
3.762974600726931e-12 
2.8008041941681876e-12 
3.491158692674389e-12 
1.1299899172541235e-12 
4.843744928296168e-12 
5.619144844628376e-12 
1.2521132388941083e-11 
5.051606809774636e-13 
8.887646446584587e-13 
1.2214364390091945e-12 
3.040120498492426e-12 
1.5221859561121901e-12 
1.435663801092682e-12 
2.7258107803870813e-12 
1.4033077829345468e-12 
9.659084305758274e-13 
1.6039099424646459e-15 
4.491876293663759e-12 
2.372239023486082e-13 
6.487416431531719e-13 
4.840093424225048e-13 
1.7819749098106513e-13 
2.4562550914954604e-13 
1.8190721815232527e-13 
1.262391006707795e-9 
1.6184815343847654e-8 
2.412888229208511e-9 
2.545142229705858e-8 
7.449926250048922e-9 
2.7421041728781055e-9 
7.574461449590907e-9 
4.080886075356767e-9 
2.4433796384564247e-9 
7.924012683891815e-16 
1.701942541990369e-15 
3.006858552394377e-15 
1.27841858042044e-14 
8.17266746056516e-16 
1.7443126453211692e-15 
6.82512726688044e-16 
0.10055681146208072 
0.18754404535216956 
0.09338148545277992 
0.062416637847743 
0.027410366148089213 
0.028460453754008522 
0.04650212444444763 
0.036564958963666336 
0.3848920804954295 
0.08956612968258483 
0.0011042482501345697 
0.0003733678613022215 
0.0012486295980502712 
0.0014158744229599734 
0.0002719005035939023 
0.0009198837697027913 
0.00030998065239785813 
0.0008348011638850494 
0.0006732483946600473 
0.0006822195681985255 
0.0005441543126123691 
0.0001645313739771815 
0.0007612228197728503 
0.0008525839060252009 
1.650160666864644e-5 
8.48577975495153e-5 
8.958771355084085e-5 
1.970906858773414e-5 
5.0566592435784285e-5 
1.3461847804698519e-5 
6.53857661958852e-7 
2.2890396809372813e-6 
1.2197762459775976e-6 
2.2794999689212865e-7 
8.5928169606459355e-16 
1.4403724904171779e-6 
5.449596673148942e-7 
4.268812716575494e-7 
5.368163576272315e-10 
8.343924031462331e-10 
9.915757173034402e-10 
9.269434984212351e-10 
3.859054781269019e-10 
4.35366660384306e-11 
2.783000663293879e-11 
4.228823476729266e-11 
2.8548455587765525e-11 
5.0363384546401776e-11 
5.540581692193639e-11 
1.3875854555644452e-11 
1.4112968606870874e-11 
1.464342674798984e-13 
1.3847706644288594e-13 
6.060939774278269e-13 
5.264579076053442e-13 
5.254136931838806e-13 
9.09984873895539e-14 
2.7283647988952966e-14 
2.974933498340502e-14 
5.748845022769457e-16 
1.1741245264139348e-15 
6.873466387421367e-16 
1.3548743261729672e-15 
7.624741568362467e-10 
7.837373593145575e-16 
3.6134743508583902e-16 
3.0257641908793463e-9 
3.3675798679626447e-9 
2.939113354056916e-10 
3.227753006524914e-10 
2.346367589700289e-10 
4.101798763614135e-10 
4.3781860151643435e-10 
2.3113333196117032e-10 
2.053293677468493e-10 
1.0054926141939032e-9 
7.751866893485532e-10 
8.993906683348033e-5 
0.0005879162621861354 
0.0002009977712905032 
1.3872374400729846e-5 
0.00362860011293502 
0.008282429311095803 
0.006400556442506537 
2.7631743991519853e-10 
0.016784022433806788 
0.00887270992633715 
0.044987156157944005 
0.02372651636921527 
0.08917579308938363 
0.10889619605255732 
0.11046201957468205 
0.2971938719009584 
0.7602010509182271 
0.10367847844930991 
2.3880499203902083e-15 
6.914763417203598e-16 
6.438274275407472e-16 
1.785735205632158e-15 
8.23782058330716e-16 
1.1555790782587611e-9 
1.147468272562372e-15 
1.1882264787791713e-15 
8.357608454093591e-16 
9.201165520785421e-10 
1.0391191474614528e-9 
1.0708281121926318e-9 
2.1986565556215886e-10 
1.7176739283487583e-10 
2.199073793901028e-10 
5.337108495236525e-10 
7.324634536021628e-10 
1.8221471446453903e-10 
2.863721128815883e-12 
3.320280120931634e-12 
4.0749687001838845e-12 
2.0300635181638195e-12 
2.744458853718384e-12 
2.0704845585395247e-12 
1.3877575849359386e-12 
7.013953458441964e-10 
1.870330835456749e-12 
8.700601425129263e-13 
1.5372934722321699e-12 
1.5294148376745924e-11 
6.20103669117549e-10 
2.5286989539428786e-11 
7.330411555275381e-10 
1.057448808055682e-9 
2.7431337047182623e-10 
2.161071589581632e-10 
9.506794515828698e-10 
3.6397690935593144e-10 
2.862858852224604e-10 
1.0588166037200272e-13 
4.2251526770615196e-14 
2.6376169001038667e-14 
1.1886576631599968e-15 
3.0807247315381226e-14 
3.940043411523692e-14 
2.3355272086664976e-14 
1.5286075360157336e-13 
2.11979711964885e-14 
9.368968203773315e-10 
0.019580116182854167 
0.025511690459712154 
0.035227565191243315 
0.0824586576302651 
0.014220509201602168 
0.03267751250507168 
3.6476863389753246e-8 
6.772589029757102e-8 
1.0926465852084944e-8 
6.374920166047013e-8 
3.916210135591108e-8 
2.5026390162835027e-8 
6.284764836369323e-9 
2.984197348125657e-8 
8.569377269466299e-9 
6.282579831292082e-15 
4.286190493048824e-15 
1.1587105593680512e-15 
1.105723803016152e-14 
5.464060794856415e-15 
1.179177017973115e-14 
5.559309094446814e-15 
2.4680975119002523e-14 
2.96213762714954e-14 
1.0733069272112754e-8 
3.0480872525828737e-15 
6.46238288235493e-15 
1.273042306061232e-14 
1.0253818102882819e-8 
2.856760623274916e-14 
2.94270590874363e-14 
7.381616456540912e-10 
1.5358304887396267e-9 
1.857540132636146e-9 
1.8164139673833256e-9 
3.2583695066285627e-9 
4.516196242708596e-9 
1.763990474405195e-14 
1.8683209909130533e-14 
1.5703835739068228e-14 
2.1631331417088723e-14 
1.5744211948786383e-14 
2.675306736000674e-14 
4.083666897294571e-14 
8.644998656759905e-11 
2.2592243867096218e-10 
1.154895116069706e-10 
3.3855830704336593e-10 
3.908384911096647e-10 
2.1431454985477972e-10 
0.00010750337420666025 
0.0001389350541181904 
0.00022525829936264117 
3.476659617672561e-5 
0.00012619879323234187 
2.5910296357120034e-11 
2.920252257449591e-11 
3.7611788931129555e-11 
2.2236713529560875e-9 
4.0608818158736776e-10 
2.4380260135951066e-10 
0.004752736536763957 
0.004867667946185229 
0.0036603873434151346 
0.002153876352355155 
0.0011960905290286181 
0.001272263603340891 
0.002576600885830762 
7.011221223369192e-10 
7.786662183375147e-10 
7.118151846822819e-10 
1.7950373068876428e-9 
3.0132797155935156e-9 
3.600089581141149e-9 
8.467270473756984e-10 
4.2028674191415674e-11 
2.4701735872557407e-11 
5.125406324572162e-12 
2.367676795449907e-11 
4.1511735219676225e-12 
8.926921129694362e-12 
4.752584105942402e-11 
6.938456817277692e-12 
1.9385914634646503e-12 
2.0789703679357623e-6 
4.51615193347178e-9 
1.648853994513995e-6 
3.7323301908299854e-6 
3.765654401939581e-6 
7.918216959484062e-6 
1.4982815927653994e-6 
1.0899681204607308e-6 
1.1498258557003705e-9 
4.2170449799687967e-10 
1.522315024093096e-9 
1.366401672112091e-9 
5.332858143013924e-10 
3.9154957505339976e-10 
3.282398663102424e-10 
2.557914984259581e-10 
6.076079043766419e-10 
2.4972756913746616e-10 
1.5054964951257077e-10 
4.842621591671157e-10 
1.3887634737380648e-9 
3.4536182881013705e-10 
0.23833932729324603 
0.2503943676875412 
0.37966280880163744 
0.10415715996599813 
0.1178902324312278 
0.2295635736701083 
0.0001514535989483467 
0.00011638438964567998 
7.705460431767932e-5 
4.866064635003787e-5 
0.00024413202297163955 
1.2891662209601891e-12 
0.00012248554542480583 
6.403557226446796e-5 
2.354424691109085e-5 
0.0003430825995271504 
0.0001100037291631169 
0.00011490329735559094 
0.012658967408057636 
0.18167867339425248 
0.3582073891891771 
0.601824341213737 
0.02166800061515124 
0.1882717074289205 
0.11814159276412617 
0.00962361413782429 
0.00996547848334868 
0.002270651639306405 
0.00032392708966199577 
0.002699979903537979 
0.001941874663250103 
0.0008903040530567854 
0.0004051788725986061 
0.000254667367852803 
0.00018298418726569063 
0.00028375019906406795 
7.364331422765445e-5 
7.70248300525321e-5 
3.472286918798494e-5 
0.00021445937790159163 
9.214023494714944e-6 
8.906225668421437e-6 
2.6862861374941126e-5 
5.2394912929338246e-5 
3.021064397993035e-5 
2.6992596988405196e-7 
1.3838954697825937e-7 
1.1117576675371238e-7 
1.4802793323125366e-7 
1.6333967110575027e-7 
6.652802088179153e-7 
6.472053627146769e-13 
3.620115905181278e-7 
5.791732142499221e-7 
3.5953619706338726e-7 
3.1991340618668175e-7 
1.43715165971849e-7 
2.829154190864991e-7 
6.493277172370895e-7 
2.81712888788363e-13 
5.261121237932437e-7 
1.7452024401730238e-8 
1.8466386815640313e-8 
1.6982333468249266e-7 
1.0739252680514496e-8 
1.9230499970070397e-5 
3.8187786552640487e-13 
1.2542337693157505e-5 
9.64040620643051e-7 
2.6039458613782434e-6 
4.1055267649123804e-5 
2.5519857514526463e-6 
2.5210470312213695e-5 
3.92404622178679e-6 
2.0169564633085822e-9 
3.731942062604362e-9 
3.616330551956807e-9 
9.286495107233607e-9 
1.3664360512299841e-8 
8.630368584677101e-9 
1.4536490202092341e-9 
9.41081547640883e-10 
1.0305151535803956e-9 
8.103979586585548e-10 
3.08488239485979e-9 
1.0855819514800036e-9 
3.731505483549117e-9 
1.1971167945183151e-9 
2.5233240908770383e-9 
2.329591080694456e-9 
4.732377880189008e-16 
9.364847950834797e-9 
9.203054828711874e-12 
1.615059313201294e-11 
3.1737657247657226e-11 
2.2648548314832456e-11 
1.6251543516572394e-11 
7.225113840827695e-12 
1.6646080145295927e-11 
1.4725198860119614e-11 
3.207766139239986e-11 
9.79580414964647e-7 
3.908255704258597e-9 
2.6428053957944815e-8 
3.981469456468067e-8 
1.062764631045158e-8 
1.5849051052292123e-10 
1.2260353208139503e-10 
5.366668958852526e-10 
4.736279673378962e-10 
2.1694934507615778e-10 
5.21023380889306e-10 
4.1554376582860745e-9 
5.06849608133164e-10 
1.1229042809861098e-15 
1.3273312075208561e-14 
2.127854907629294e-15 
1.1501812142148253e-13 
1.0616499635069479e-13 
6.72341827061429e-13 
1.1445900587910893e-15 
5.342892569198319e-12 
4.954578563701757e-14 
1.026021328234979e-13 
1.2112332089133666e-13 
2.854932622365291e-13 
4.890929250329996e-16 
5.097292153322609e-12 
6.6327250999644815e-12 
1.312798110653115e-12 
1.507714963515212e-11 
9.242186104483838e-12 
1.6764446011031822e-12 
9.969914547270277e-15 
1.4169873305512824e-14 
1.818503666710093e-14 
1.280923998314887e-14 
7.78690282329428e-15 
2.763489156298026e-15 
8.502579030266246e-14 
7.19255827726267e-14 
1.0739939142031817e-13 
1.0315767656930663e-13 
1.6328855579418438e-13 
1.7011091613641529e-13 
1.004281507199483 
1.0066683361484232 
0.8944580291048712 
0.27043265965904156 
2.227729820099582 
0.8109254775049036 
0.0028272200992734806 
0.000971720951251491 
0.00048340784782000516 
0.0013011464931962807 
0.003499543227271344 
0.0005464437889271748 
0.0001350094166385972 
0.0020253006291903863 
0.00037005309988786893 
0.0005817244595157665 
0.000969296475619041 
0.0006832578145709834 
0.0030043862155701585 
6.909851174713544e-16 
0.0016965623124105102 
0.0032954500854388037 
0.004116549261485422 
0.0010114944407094814 
8.253433465804155e-6 
8.99413818219862e-5 
1.123207715383916e-5 
4.068990622529939e-6 
1.2782363067588796e-6 
2.3463983117081733e-16 
2.601016431690945e-6 
1.4067156983901967e-5 
1.4641107697205721e-5 
6.703050642289717e-6 
1.3912149225514815e-5 
2.3931575143063698e-6 
4.0979510507142484e-7 
2.705116238275396e-7 
4.977657240923587e-7 
6.055113518830963e-7 
2.0236768191719327e-15 
2.2973973970545393e-7 
1.4575209725270756e-6 
3.3984160330644815e-7 
1.525744060213424e-7 
3.4488524147119135e-9 
7.518524090677658e-9 
9.44112562971431e-9 
4.3411078682883515e-9 
7.674274225233228e-9 
1.0056834124881553e-8 
4.640162933580836e-9 
8.13280930475529e-9 
3.938727221634129e-9 
1.1886976796185113e-8 
1.4993940146488103e-9 
5.27264530954354e-9 
7.687967242654616e-9 
7.819824511920405e-10 
1.9154443997547343e-8 
2.7490097896958067e-15 
4.5262517897443873e-10 
1.397749597821196e-7 
3.4439157602122196e-7 
1.38965286202353e-7 
4.2584923593982535e-7 
1.4920287920660116e-7 
5.232353423652024e-7 
2.302707935359359e-15 
8.354897595636835e-8 
6.741535705915582e-9 
6.781629286998858e-9 
2.5326564673788692e-8 
5.240820577668385e-9 
9.3421943887425e-9 
4.642383722312255e-9 
3.505558015832948e-11 
9.598322605854657e-11 
1.0538500426053245e-10 
5.4315701015726e-11 
3.575572566152995e-12 
4.371487939833975e-12 
1.8695970925765867e-12 
4.9405411212716e-12 
2.6752974018993673e-12 
1.8571730141166756e-12 
3.965211908123147e-12 
9.976505012195944e-12 
9.900616520768395e-12 
3.597977714539542e-15 
6.737955908166653e-12 
2.942684263584705e-15 
2.4494201008851854e-12 
4.662876210534486e-12 
1.81933073553075e-14 
7.699815161437577e-15 
9.79524971577944e-15 
1.86713366780423e-14 
2.1416612470028656e-14 
2.304258058611993e-14 
7.0970708850651716e-15 
8.31029998110566e-15 
2.953402134538862e-15 
1.5147886337048533e-14 
2.251924938353839e-14 
2.2561765845314494e-14 
1.1342573679909026e-14 
1.9730847611174707e-14 
7.832787078088304e-15 
1.0776264606328228e-14 
4.354909397395299e-14 
2.234164341347608e-15 
5.6305450398216e-15 
5.628442628260443e-16 
9.500188381254634e-15 
3.5174102493645196e-16 
2.5799446075237985e-16 
1.5995539746343435e-16 
6.120850995113712e-16 
8.896757964846708e-16 
1.5347298775228573e-15 
3.039640465315537e-15 
2.118901995843996e-15 
8.468405193370245e-15 
1.2243339587256212e-15 
2.967806351890118e-16 
1.3802444261427048e-15 
2.553156602777195e-15 
1.0914313103734421e-14 
4.248111639461963e-15 
3.1721244903218374e-15 
7.177147133987252e-15 
5.196337931722304e-15 
2.1299875487216203e-15 
3.2179396885312645e-15 
6.889962197389616e-15 
7.47418318593018e-15 
1.4371722841559084e-15 
4.699110145899205e-15 
8.349204116001085e-16 
0.004014415213864996 
0.003551729882499471 
0.003444726825647681 
0.002974131337451963 
0.005619265595711167 
0.0038917058832767465 
0.002205291355727699 
0.007194132458188672 
3.6885012248111807e-6 
1.8221304209782244e-7 
5.187315143216562e-6 
2.2913861773313444e-6 
8.487851655725216e-6 
1.3196774274832277e-5 
1.3529987408746071e-5 
8.13023896160989e-6 
1.8484405946479327e-5 
5.891088189618864e-5 
3.077408326364899e-5 
2.2376843986829853e-5 
6.709627322123981e-6 
1.5703684149162044e-15 
2.70304288021287e-5 
2.9259213376469044e-13 
1.6676774610308545e-5 
7.627934788879718e-5 
3.758742253506391e-5 
5.8718589271360713e-5 
1.380624346933205e-5 
2.1327105632932204e-8 
3.647754685291954e-8 
1.1866629941405238e-8 
6.242318448517206e-9 
1.9671986255760852e-8 
2.0483087522392152e-8 
5.071713613935081e-10 
1.3597290146153549e-9 
2.432729066790504e-9 
3.0890433915468794e-9 
5.125498772738083e-13 
7.292633645879487e-12 
2.037568656711437e-11 
6.106415635265496e-12 
6.935383890520887e-12 
2.5864284996488192e-11 
6.8026466813575636e-12 
2.39106443350776e-11 
5.6107178365692096e-11 
3.971314579082016e-13 
3.7372396573752894e-13 
9.611733191460496e-14 
1.535597018601399e-13 
3.740908806861792e-13 
6.836131198046664e-12 
1.877939421438088e-12 
1.901096154887741e-12 
3.3189434040925406e-12 
1.6148748746669438e-12 
3.116412029718792e-12 
2.094284364824118e-12 
1.9912526632981727e-12 
3.6255810391984617e-12 
4.792666530827112e-12 
1.2829329289021947e-13 
5.251193259941019e-13 
5.388756937344156e-13 
1.8910618029191614e-13 
2.06070603739188e-13 
5.041940751795136e-9 
5.203551329517888e-13 
2.526019423205472e-9 
1.1966165559580898e-9 
2.0598106412930464e-9 
1.8166698114063431e-13 
2.462417047262174e-15 
1.6963104836557864e-15 
1.4894983080275434e-15 
4.373981085014791e-16 
1.8492898013251125e-15 
1.2171924144279584e-14 
1.2645608628887473e-15 
6.485165021789484e-14 
0.0220071652197859 
0.0027951960320366444 
0.022657540092529165 
0.0031031920121291404 
0.010394607116035853 
1.3101212072751571 
1.2302263288949347 
0.8454397892138177 
0.0005260375200436729 
0.00035399599769760304 
0.00027982265276608955 
0.000416737561940973 
0.0007309115835310045 
0.0010881968218555474 
0.002591504353067839 
0.0004677751449965447 
0.0007033108036892635 
0.00022681519367895807 
0.0001530828782174995 
0.00022299958807653827 
0.00020385194731262706 
1.7394551596310694e-13 
0.00013773676011710002 
0.0002253798403885387 
3.1188173977654317e-12 
2.5264647102657428e-12 
5.2832232984570695e-12 
1.9687014640250374e-12 
9.800248590489236e-13 
2.757511613483003e-5 
1.710984040309537e-5 
1.6199114445553385e-5 
1.6019388939925704e-5 
0.21001567750735667 
1.4616512100411027e-6 
1.0920789699717627e-6 
2.1277040745913817e-7 
1.0980367425585606e-6 
1.2097410492999862e-6 
1.4087813577138302e-6 
5.0980876062863456e-14 
2.999833078531796e-14 
4.87209686901655e-14 
4.5416063620693676e-14 
3.2605918314155105e-14 
1.3334842892739235e-9 
2.3452879760249476e-9 
4.1191290478311406e-10 
9.673862151597272e-10 
1.1134537492461044e-9 
1.6885331728841433e-9 
3.2951402564045006e-12 
2.4434165328176126e-12 
1.0574951777364542e-12 
2.5865991917119837e-12 
0.15053113187933445 
4.80286424402417e-13 
1.570560258150802e-11 
9.734983860928833e-14 
1.7906887734235036e-12 
1.8537505084972796e-12 
5.551018423433406e-13 
1.5611552455099696e-12 
5.87418589164288e-15 
1.0663729679926176e-14 
1.2035114879363243e-14 
1.0712407835297139e-14 
3.1758052357372314e-15 
2.406340766439796e-15 
3.746244476219354e-15 
7.67471867154117e-15 
1.2439645720002603e-14 
5.167801998184685e-16 
1.2454758409589088e-15 
6.676124332964836e-16 
4.973396442713412e-16 
2.359075335341041e-9 
2.8272638826336456e-10 
3.152538713305892e-10 
9.742895961599145e-10 
1.0668801616648739e-9 
0.000461299767501793 
0.0002716951482527893 
8.170813174952127e-5 
0.0001385190548081859 
0.44514931700692384 
2.959031972589786e-5 
0.4909963583754598 
1.1529934988497769e-14 
6.426087722160912e-15 
3.9237827823636474e-14 
8.150638545133013e-15 
6.7454243695667835e-15 
1.0248627251279092e-11 
7.400392920995602e-12 
7.240620422259065e-12 
5.757562935110968e-12 
0.12356393832439429 
7.125899331525741e-12 
1.1971967314275803e-7 
2.007379825522833e-7 
1.265639125299394e-7 
0.14994290237297658 
0.10133196527292933 
0.04854582028244465 
0.04301019040456264 
0.3404410368178689 
0.001912969865219505 
0.000744581670998265 
0.0015785180720382576 
0.00010805595767781644 
0.0004819508676069377 
6.37764033231999e-14 
1.1013914800685976e-13 
5.743952809679019e-14 
4.3655747953937215e-14 
7.274940493617138e-14 
1.9914674241984233e-14 
0.030820949478391462 
0.1357195321707704 
0.012287754128150242 
0.007316364545574695 
0.044277256415155536 
0.038672023088766515 
0.037220757870116486 
7.1911812704555766e-6 
1.5904956616340955e-6 
8.732917993680809e-7 
3.0548895574086103e-6 
0.25424727741435565 
3.1133930985963797e-6 
2.4919683329617453e-6 
0.5720034364156482 
0.13624992479342615 
0.23254306025263355 
0.05475169326931949 
0.11338156686067861 
3.471067172345542e-14 
1.1862595850530687e-12 
1.7448168941072895e-13 
4.678152890302539e-14 
8.806096254093346e-14 
3.3189298539834085e-14 
1.9522327807756827e-14 
2.684440613609124e-13 
1.9984601236162673e-13 
2.3893612029358014e-10 
4.841783579854727e-11 
6.361396156222183e-11 
3.4979060673073335e-11 
3.963962514776275e-11 
1.2589112530003683e-10 
1.5337217191193682e-10 
3.975203746595414e-8 
2.6664005802640968e-8 
3.601908418012947e-8 
7.875166394313815e-8 
5.601236180038385e-8 
5.183334473810936e-8 
2.147405461766471e-9 
2.491162527435556e-9 
5.260242000354237e-9 
4.191805674603626e-10 
0.11465893039824057 
4.101225700064638e-9 
2.7332552111219952e-8 
1.2249786816491092e-9 
0.00022380618955109612 
0.0004989411379776253 
9.23609431320155e-5 
6.87333793220474e-5 
0.00019199537791178458 
0.00043489006220415817 
9.774467438153162e-5 
3.2898072434452346e-5 
5.498889349323763e-16 
4.679172447542045e-16 
1.3260682874336866e-10 
9.795052022686883e-15 
4.382502006986694e-15 
1.1389894279764072e-14 
4.7639346608504544e-15 
2.0084935765071655e-15 
4.115106428472649e-15 
4.636846985902059e-16 
9.657766415738263e-16 
9.714762606051987e-16 
2.629323654599611e-15 
1.7844302492586142e-12 
1.8365112333681704e-12 
6.58772210957832e-12 
4.594509843487986e-12 
4.12559076427631e-12 
1.4422337388053947e-10 
2.8412807667956093e-11 
8.695325734724898e-12 
7.525874996706953e-7 
8.625261529699011e-6 
1.1025180352089214e-6 
1.4322124104256772e-6 
1.3003351084384329e-6 
1.3513128972788972e-9 
1.1933987801036337e-9 
7.29847933117238e-10 
5.814454538168534e-10 
1.1175724756429107e-9 
1.4568106922882457e-9 
7.308376812657022e-16 
2.265987823111759e-9 
7.363975698912823e-10 
3.7567072705757235e-5 
0.0003086539214833906 
8.841432992087656e-16 
0.0002673165062414964 
0.0006050870049871112 
0.01558101484787878 
0.013687458391090897 
0.033846613738602545 
0.008990875888229487 
0.249399210480225 
0.09020087695017912 
0.1562282344743591 
0.3610640830961309 
0.47863011851658643 
0.00031716215363858987 
0.00037832707847238037 
0.00015392495191368923 
0.000530469893856748 
0.00020690722732444992 
0.00030311246233449894 
0.00035417081449300056 
0.00045899255252779687 
0.0002550297417586926 
0.00025487187779156046 
0.0006983788072519566 
0.00041244595565948655 
0.0001309411729775455 
0.0003775391444588417 
0.00012543599072185413 
0.0010130292768145367 
0.0016375532226383124 
4.920667662822465e-5 
3.873219633253549e-5 
7.753288437827924e-5 
3.3150008949100114e-5 
3.0851975138661665e-5 
3.146611843089162e-5 
2.6853469526236354e-5 
1.3603744395530078e-5 
3.4172005062252166e-7 
1.9833844188672861e-7 
6.945838296771572e-7 
6.906826629798113e-7 
1.205899142369111e-5 
5.493770423060445e-6 
1.0887299221973843e-5 
1.1661571079267088e-15 
5.922930495813491e-6 
1.1735604423203409e-15 
7.900391158937462e-7 
1.701672943273858e-7 
8.937160863725175e-7 
4.21198340631675e-7 
1.9262605068323704e-7 
1.1775248634761575e-6 
1.9752764726743882e-8 
4.6303183112059114e-8 
8.930577989946919e-9 
6.508563294681048e-9 
1.7994696499490633e-15 
1.0281212685391527e-15 
1.6434819241439764e-9 
3.3585560351936333e-9 
7.132630112450288e-9 
1.1585777410350025e-8 
8.796203124111873e-9 
1.1701571208865401e-8 
1.2430998388507497e-8 
8.944318072789953e-9 
2.4184449347340972e-8 
2.541917608636543e-13 
7.146810205668108e-16 
1.0223581769134957e-13 
9.24839407757665e-13 
2.7761819795549213e-11 
2.330575228402852e-15 
1.1429164905877975e-11 
3.462506659657359e-11 
1.6892521572334183e-11 
6.540151044932264e-11 
5.2810214781955835e-11 
3.26894074030158e-12 
2.9143510164084005e-11 
1.0168387519912202e-11 
2.287701518788205e-12 
1.1627498191325119e-11 
3.6523614104190564e-11 
9.949701208455751e-12 
1.451626856042476e-11 
8.790226568319474e-8 
1.7219663843265192e-8 
1.7175389907732375e-8 
1.793971467391213e-8 
1.2855851584495087e-8 
2.9579932715223115e-8 
4.184181704031051e-8 
2.840308031209195e-8 
6.16701496562762e-8 
1.0538685014017524e-10 
8.390849795063468e-11 
1.674747521553985e-10 
4.372059721549192e-10 
2.8165063654787536e-9 
3.566511266986003e-10 
2.648745563769441e-10 
2.487384345114099e-15 
2.01755327523578e-10 
3.7840550221031904e-10 
5.63516462087952e-15 
2.5118410261858725e-15 
3.140690842400086e-15 
1.4553127401956732e-14 
3.6005962144936965e-15 
2.94751063075003e-15 
1.5476168636241626e-14 
4.209097875359012e-13 
6.226349801791159e-13 
5.166879085284975e-13 
7.508343574936622e-13 
5.4144044531031886e-14 
5.442029446515192e-13 
4.878830551142884e-13 
4.027805674693733e-12 
2.968702409112582e-12 
7.860027476793796e-13 
2.3831101680859976e-12 
4.685848010624774e-12 
4.1698110535891345e-14 
1.1738317137114447e-14 
3.436851505999032e-13 
8.578494945910432e-15 
1.4235929196066798e-14 
2.9298302265148067e-14 
2.756408951110051e-14 
1.1939645912833744e-14 
2.222771786221416e-14 
1.8772786094280047e-14 
2.6430689911843696e-16 
4.4243008422603985e-16 
3.2776988825732335e-16 
2.714787157388843e-16 
2.9543140957378707e-16 
1.4330583255789536e-16 
7.460317028204781e-16 
0.3047334847199102 
0.04675590889085809 
0.027387790351239796 
0.06967866836112768 
0.08979876618454116 
0.10603696393728397 
0.33134128070024976 
0.577942852012309 
0.000656308674383297 
0.001088853998719852 
0.0006392072544157036 
0.00010860689184423015 
0.00019341514351832342 
0.0004898093654440136 
0.00023575245892529627 
0.0026213679133178934 
0.0015075061308328888 
0.0004001249545474597 
0.000493989529787251 
0.00017915628785467809 
0.00013707491587734084 
8.52018433129316e-5 
9.71405109117381e-5 
1.796608438934227e-7 
2.815998891893875e-7 
2.2818384921810623e-7 
2.8290363143774384e-7 
2.0491045796701468e-7 
6.93004614078672e-7 
7.570692570091044e-7 
6.51369533484241e-7 
3.157633834421876e-7 
9.541754434605859e-7 
8.615215294245368e-7 
3.8677476729999477e-7 
5.405200086935514e-7 
2.2293968093600948e-7 
3.4323294166157764e-7 
2.3872487331136153e-7 
2.938288307448584e-7 
1.3313653340045876e-6 
6.123462617937866e-7 
8.295643501131289e-8 
2.6290120910825335e-7 
2.2332575341665082e-7 
8.470410550421032e-11 
1.1211264673530476e-11 
2.2117274302218845e-11 
2.468068511649667e-11 
1.9248149932890006e-11 
1.4615221951632907e-12 
4.5604844396117416e-11 
2.351680784234546e-11 
4.5406056660144296e-11 
1.4360115622702418e-11 
2.6589718437943626e-9 
3.3342366257233554e-9 
6.5185611715011325e-9 
1.2982269366315376e-8 
6.953131898757457e-9 
3.531336943167067e-9 
1.5613603572386825e-8 
3.5095042583734638e-9 
8.479683535946779e-10 
3.945761151707042e-9 
4.83573941964389e-10 
3.237110176247166e-9 
1.6873054263692956e-9 
3.453277928873224e-9 
2.3816774032913413e-9 
2.2397191168980125e-13 
4.971637012769555e-9 
1.0380355476797582e-8 
1.626445850733899e-8 
4.648205533890801e-9 
8.692232527901622e-12 
2.695098167908795e-11 
8.011108571210333e-12 
4.6217339831799555e-11 
1.7796470422370845e-12 
2.801839079876187e-12 
5.710312121946446e-13 
7.232211212774793e-13 
3.94687316490619e-12 
7.432924108724778e-13 
5.55368679918503e-13 
4.759500152280202e-13 
6.424501474355073e-13 
2.918707405094822e-13 
9.012844738128522e-16 
8.81475264328364e-16 
1.2989153677396033e-15 
4.402679554730479e-16 
5.282404191004792e-16 
9.04438500216009e-16 
4.2399102365853456e-16 
1.3073371084606003e-13 
8.098166856039326e-14 
1.7637117393117047e-13 
8.868963004834288e-14 
5.0750458351657295e-14 
3.1229490155489995e-13 
1.167812666571016e-13 
5.472276660359671e-14 
4.976069024296297e-14 
4.74361670253005e-14 
8.922893530420805e-14 
8.524745105278954e-14 
4.627615161383154e-14 
1.7690363587118822e-14 
2.828996715523657e-15 
7.288733301170229e-16 
1.0707425287997429e-15 
1.7577465751633814e-15 
2.735786334655019e-15 
1.752208342052014e-15 
4.084751040372978e-15 
2.6436930116030896e-15 
5.397057372123014e-14 
7.050138923601207e-15 
3.876322538880092e-15 
1.9466850078154167e-16 
3.113798009735444e-16 
7.598747061082453e-14 
3.4174202832016634e-16 
3.4399956559068194e-16 
3.3814405798057023e-16 
1.9653273403151436e-15 
8.250056901413015e-16 
3.0886467447292462e-12 
3.551493602776424e-16 
2.210447140219144e-16 
7.327893176269811e-13 
1.6898739553005398e-12 
0.2889289965495269 
0.1459795559544172 
0.2834409060709323 
0.00023054489770418788 
0.5217884206656034 
0.06385415693149775 
0.07186698080230446 
0.03760781076674771 
0.27108801540315425 
0.0005251176266990311 
1.9848360087182836e-5 
1.3368535869273503e-5 
1.8610386032582504e-5 
5.913927619410182e-6 
5.661247050812553e-6 
0.0009339931658765166 
0.0008339067123878818 
0.00024229259374894502 
0.00029093390732897476 
0.0005170719473251311 
0.00020361508747593606 
3.115750350758999e-6 
5.357968601502827e-6 
6.571709004566008e-6 
3.0109950233851454e-6 
3.663249193807118e-6 
3.0328896897681907e-6 
2.6030250434938945e-6 
5.208105102566411e-9 
4.014831243797815e-9 
7.598587550219133e-9 
1.3685715426108457e-8 
2.240754739633888e-8 
1.0964953323706742e-8 
1.2093105118655499e-8 
2.5305277325641472e-8 
9.204978613536918e-9 
7.094570226712835e-9 
1.2937009069496813e-8 
0.0011482436572503045 
7.475629989163078e-11 
7.136223415871069e-11 
2.1502396300302467e-11 
1.71074917768315e-12 
4.976612137361157e-12 
8.99732427574737e-12 
1.4690138370272902e-11 
7.081274404222388e-12 
3.6826921465116836e-12 
2.986032310264945e-11 
8.256253096833806e-12 
4.183575251258243e-11 
9.360192115692553e-12 
1.1968387487689525e-11 
1.8735458017308144e-11 
2.2860005349858275e-13 
2.4093762318394367e-13 
2.8020784014282675e-13 
4.823837137059547e-13 
1.9950153905574416e-13 
1.8080769199223223e-12 
1.1549781640980713e-12 
7.512784255452799e-13 
2.0335164798233645e-12 
3.273923631732437e-13 
6.102471685688278e-14 
1.3646022834027278e-13 
5.723547446349646e-13 
0.0006417511670495956 
2.3914951886354077e-9 
6.428964323959898e-10 
0.0009772812564298571 
1.0609534532390455e-9 
6.708926730744825e-10 
1.3233492569552588e-9 
0.0003289016989182536 
1.8491074951473878e-9 
9.952074248805958e-10 
1.9429822861814926e-15 
2.56199414632638e-15 
6.0469218213337805e-16 
8.329934892791807e-16 
2.6386795543600506e-15 
0.010738675539355135 
0.004520205923966337 
0.00887531873921232 
0.012919583579543743 
0.013448389998440623 
0.01941041528337476 
0.000825437458602651 
0.023750140344407308 
0.006926058629368944 
0.012778180267636656 
0.006480773383481227 
5.09752478754869e-5 
0.00020003413167030685 
0.0001606666711055244 
0.0001455595223241117 
0.00011783741913258472 
0.00019057499116379364 
9.459187761557224e-5 
0.000292641102412573 
0.0002471572201516581 
0.0007189757563379732 
0.0002851737914860444 
0.00023935432458499473 
0.0003094067507482485 
4.37258602071812e-12 
2.454799396813329e-12 
5.255638919182147e-12 
4.374734779372802e-12 
4.023646611214409e-12 
2.7583648691281243e-12 
2.3400556948985655e-12 
1.5469781194677214e-12 
1.0490298024385777e-6 
5.436807223031227e-7 
2.471810259466603e-6 
2.236919645937638e-6 
2.3063007455413793e-6 
2.0658468080082757e-6 
1.2276269862620605e-6 
7.444031279775618e-7 
1.864538910760906e-6 
1.5546838229837664e-6 
9.313965257026222e-7 
8.242583394876187e-7 
2.6426974339710024e-9 
4.9379388380228016e-9 
3.0574822555129027e-9 
2.55477689682399e-9 
2.6433417985250677e-9 
3.0078075374966537e-9 
4.7995318560702595e-11 
1.935643636430287e-10 
4.054899368372664e-10 
4.5763590839507875e-11 
1.277262339137459e-10 
4.154399060582463e-11 
0.004314065334028751 
4.999635033156843e-11 
0.027370507388785194 
0.003947213357834442 
0.010623848023198913 
1.3868043567393329e-12 
8.005353327004827e-13 
1.7163078241389252e-13 
3.4084491042921957e-12 
1.4682676984142393e-12 
4.1308944686504616e-13 
2.1026172901933077e-13 
3.69724551192355e-12 
2.7763432477146855e-12 
1.653500266011817e-12 
5.076234202622752e-14 
0.011120364130879681 
4.9212266395148804e-14 
3.032847993010104e-13 
7.47895154122168e-14 
4.0468856469066187e-14 
8.723777828660596e-14 
2.934913008856558e-13 
4.271887962395024e-14 
7.300227010536166e-16 
4.36896517673157e-16 
3.638778966334607e-16 
4.85942553330686e-16 
9.911445417764013e-16 
7.08730762476098e-16 
9.653067946256984e-16 
9.727712797495234e-16 
3.284183702991295e-15 
9.389796388712412e-15 
0.0021865988418639706 
0.001879426296829918 
0.0003126249103071056 
0.0008648409087724689 
0.0015114187833584732 
0.008162739112996 
0.013885252716342264 
0.0396278637295458 
0.041516653811529095 
5.291396070395035e-14 
7.035085293178214e-15 
1.1452540028899204e-14 
8.308129831349181e-15 
2.2171355446826692e-14 
5.89724019280182e-14 
1.9261064238578816e-14 
1.4855429353807721e-8 
5.5686956441456294e-8 
5.991967252103901e-8 
4.8202057029717475e-8 
0.0015991402481064813 
2.1686642532367178e-8 
2.9246593613830863e-8 
1.6836427334395664e-8 
0.0004758806112033028 
0.000437120227449612 
0.0001777912080827202 
0.000531103329298095 
0.0003389857961507734 
0.0012820706511271762 
0.00024213933501126192 
0.20346409627325018 
0.42555636528666896 
0.0019509394694227924 
0.4981519547565008 
0.23396217715211218 
0.9977956160187028 
0.2970434261590186 
0.15785851350168534 
0.01822845431888142 
0.01849370498669017 
0.018980328562312708 
2.6453293878801903e-10 
2.9844089217744837e-10 
2.0502718743656277e-10 
0.027975877170727362 
0.06859721453425016 
0.0019515074773123358 
0.026442083985723952 
0.09991189958467465 
0.0457721088654799 
0.0040014058039467525 
0.019884660578346758 
0.007042882670403385 
0.031365346347310454 
0.15979457045102494 
0.11354919537962525 
0.012962493346899659 
0.11103337459776645 
4.8409541267026855e-5 
5.001656664969746e-6 
0.00015159123028350347 
0.00011954832140486338 
0.00010223989178591697 
0.0001106409840573893 
6.181303193837456e-9 
6.255954171557662e-9 
0.0022324754196034646 
2.5485245027326102e-8 
7.262992232969477e-11 
5.861602435522062e-11 
9.507438077196277e-11 
5.060474166170388e-11 
9.551311076411688e-11 
4.086896361815932e-11 
1.0674356012491818e-11 
8.548790761559069e-12 
2.4214800210091602e-11 
3.296776284517508e-11 
7.127968734596026e-12 
7.858479921809081e-12 
2.3284111639010698e-11 
6.516198021810091e-12 
4.531446355086434e-9 
1.3926026900088663e-8 
1.6509163046800682e-9 
0.004041206295863613 
3.6191625997847884e-9 
5.4176795057563736e-9 
0.002647461399927696 
1.062196005964337e-15 
1.361405434661273e-15 
1.808471240194304e-15 
1.379375810820184e-15 
1.707780702139785e-15 
7.893045206021861e-16 
7.209185897081158e-10 
9.060377466468386e-11 
3.4957801616153063e-10 
2.9062800871796883e-10 
3.9701990430955036e-10 
1.9940910416797718e-10 
0.0024067187809186383 
3.3802493904224337e-10 
1.2408771027696627e-10 
1.817540536461565e-10 
2.867050033418474e-15 
3.965804301247032e-15 
1.680920819923452e-14 
1.4765488234743128e-15 
1.038072793932162e-15 
1.661194139464835e-15 
5.443667889887845e-15 
3.297635461962423e-8 
7.2974556642767374e-9 
1.6089686239753513e-7 
5.8680641510234426e-8 
1.1221688566462031e-7 
1.4060084516823382e-7 
5.145117411596355e-11 
5.5957547804926455e-11 
1.333188062797624e-10 
1.463211324187556e-10 
6.757631534596104e-11 
2.967216761355607e-11 
1.6899805309867462e-11 
1.0532277132057746e-11 
2.1699695032454727e-11 
1.3452044843460906e-10 
1.6097837129513651e-12 
3.026462008182715e-6 
2.2837580458676732e-6 
1.520962420626129e-6 
6.454135725284876e-6 
4.554393597854547e-6 
1.6244027141238419e-6 
2.1948974901777926e-6 
6.752920834764697e-7 
1.4296394617566454e-6 
1.0647877165289823e-6 
1.547983680800268e-6 
6.67218974890676e-7 
0.025923049500668864 
0.03887837286196218 
0.036441276920583236 
0.23083075389881946 
0.053264113905810734 
2.1802643891782152e-14 
0.05864723563853017 
0.1848112199188817 
0.1936369385835486 
0.04639657882714357 
0.02978225491121692 
0.2140883000144161 
0.02056091304878344 
0.2703177259752697 
0.0012770741390517324 
2.7494261545986486e-14 
3.523906198733409e-14 
0.00019775722070536296 
0.0001306277196329227 
0.0002741840775085799 
0.2044984566780633 
0.11914679192863283 
0.08887253488572312 
0.2437454766668987 
0.0005537063876872021 
0.0006793200029852776 
0.00017336346827751082 
5.133242889044233e-5 
0.0002004658714611509 
0.00048433840201458445 
0.0006508548357017015 
0.0005379523182645519 
3.165609955869859e-5 
0.00021888786891017436 
2.5359072314416898e-5 
8.09781765752708e-5 
0.0001495924238645747 
4.944888105416374e-6 
0.00018479847970786378 
0.0002671998083445001 
0.0003686545619575418 
5.484212836042785e-6 
2.020544910997461e-6 
7.466239030138038e-6 
1.7948814809104451e-6 
3.787089578378823e-6 
5.9715149456923095e-6 
1.0028732944916827e-5 
1.5233702843835433e-5 
1.3985947606085663e-5 
1.2820435142701525e-5 
2.4820191280813366e-5 
1.6206711368071752e-5 
1.0393752670494387e-5 
1.5182494809935558e-5 
7.335772002612889e-6 
7.150205525769996e-6 
2.508465308274689e-14 
2.5253061793144147e-6 
1.1445367846738101e-7 
3.0329479278650734e-7 
8.393615366244831e-8 
1.674089891441635e-7 
1.042606260619886e-7 
1.5426059935422164e-7 
1.866759138595812e-7 
9.795341580072565e-15 
1.6309389829604783e-9 
2.5375312689613834e-9 
4.2003537512238475e-9 
4.9103925550818e-9 
2.6832038554291536e-9 
7.785558327049417e-9 
4.2449793228308865e-9 
2.9666822099480655e-9 
4.518097599801934e-9 
7.300810397586162e-10 
7.583875752422355e-10 
2.5661126279112494e-13 
3.3579552971900055e-13 
5.015783447486452e-13 
1.7368693329439136e-13 
1.0869952283357685e-13 
2.354152056928713e-13 
2.7243110745649003e-8 
1.5797187160676008e-8 
3.0726987040279924e-8 
1.6818879071939293e-11 
1.3949890292902432e-11 
4.8843094885542856e-11 
1.811280862849537e-14 
1.6605648769080454e-11 
4.4741943743648026e-11 
4.065123060430668e-11 
1.0811355929141966e-11 
4.7619357792636545e-11 
1.451833055059714e-8 
1.4138587166775272e-8 
3.476757706109657e-8 
4.34444538320963e-8 
2.4435592657156986e-8 
1.4429159843973113e-8 
4.3457647732369964e-9 
2.99589967699321e-10 
3.219713274762792e-10 
3.8296885403856915e-10 
7.48057944656121e-11 
1.394159446836507e-9 
1.8496899372690824e-10 
1.0934589511157729e-10 
1.5043459694876374e-10 
1.380557012858858e-10 
1.0204703998858347e-14 
5.901670169227763e-15 
4.24752084475559e-13 
2.9801103622576497e-13 
8.303726050043864e-13 
1.1301521980021048e-12 
1.7480480662693255e-13 
4.572637740049033e-13 
3.299505448428439e-13 
2.0851793609211946e-13 
4.1707242725729506e-13 
2.586815520070955e-12 
2.6779746630806925e-12 
6.869565141557486e-12 
1.8439593198729918e-12 
4.486955816349057e-12 
9.224792814824202e-15 
2.4810549455955923e-14 
6.558042845314058e-15 
1.7552166995636444e-14 
8.766405219447213e-16 
7.264210019747047e-16 
1.6358650895456847e-15 
1.4898893861690086e-15 
0.05112191042462147 
0.5164319178543184 
0.9085294283691505 
0.042425186804439435 
0.11038361939812673 
3.274904946631839e-10 
0.024909247106626 
0.002119073863872963 
0.001612183749372049 
0.00674348160419754 
6.734982513893523e-11 
0.0025818443056200933 
0.003377830782848352 
0.00011146703172967527 
0.0001242863717152926 
0.00043765368337019553 
0.0002184377983278728 
0.0001629728701645295 
0.0001866535746586088 
1.0354243309074846e-10 
0.00013207900349357973 
8.163880949919736e-5 
9.804793210055685e-5 
2.976762561017313e-7 
2.7922759026716953e-7 
2.931349218036181e-7 
2.727798605170064e-7 
3.3839259508493193e-7 
2.2923273850131817e-7 
1.0127876980428822e-6 
6.519795008809415e-7 
1.515231102166303e-7 
1.9105239684103076e-7 
3.1772155650138977e-7 
1.9430881304181927e-7 
3.4700282960016796e-7 
1.0582797999185429e-7 
5.128200393006751e-8 
3.59343832831156e-8 
1.0887578064983126e-10 
1.6926625360746792e-8 
3.475428416142055e-7 
1.0017395298304286e-7 
4.210048297969958e-11 
9.029584842573732e-12 
3.478759188566379e-10 
2.4836016597660972e-9 
1.1835918861086555e-8 
1.368343714093409e-9 
6.324118510706756e-10 
6.8348308193925856e-9 
6.48856570813257e-10 
1.105465738961685e-9 
3.86334600728426e-10 
3.753045512032059e-9 
2.3717359841992267e-10 
5.725182502364115e-9 
1.289776496662937e-9 
8.843218344934119e-9 
9.40747223359893e-10 
1.2092224316261787e-7 
4.669524822029023e-8 
4.671233700003727e-8 
4.253247395547504e-8 
3.289893476350367e-8 
3.6439698549836885e-11 
4.2484571072652514e-11 
5.9588617072601086e-12 
4.945246142842571e-11 
2.968615484568055e-11 
1.0708338459020543e-11 
3.69910446362688e-11 
1.3143764843051597e-13 
1.3399526043740038e-13 
2.553877263057042e-13 
2.962715584070594e-14 
2.588700425402696e-13 
2.0776745104121892e-13 
2.508363473751191e-13 
1.0620781085504756e-13 
5.366454242118853e-14 
1.1600293440949017e-13 
5.155670511437674e-14 
6.896126653121372e-14 
4.522349968833526e-14 
5.379105957839613e-14 
9.381337078608663e-15 
8.816900958224698e-15 
4.990225834286144e-15 
9.073254981281978e-15 
1.8839351456866485e-14 
1.0686355177896597e-14 
5.495665888169585e-14 
1.492461190807829e-14 
8.000555336378679e-15 
7.373472030819942e-14 
2.6264277058715165e-15 
2.628126556223667e-15 
8.073390664518153e-15 
2.703996535899662e-15 
6.679484571122271e-15 
8.38702194086819e-15 
1.6905254654277207e-10 
3.302886921167031e-15 
3.581020094434575e-15 
1.7946355006986305e-14 
3.4337690053999154e-15 
6.491821014764077e-15 
1.1103663374735797e-14 
2.430667600712616e-10 
6.845561401928164e-16 
8.672881354932003e-16 
3.932451791791018e-15 
8.475768607910835e-16 
0.08162897015824905 
0.06581777605684437 
0.0009121537968781953 
0.1978993676093553 
0.18756388442202146 
0.35077021669848546 
0.0035240264541218625 
0.17728013666333767 
0.16799350765143348 
0.14944512378641878 
0.006147433328822184 
0.14348843039723352 
4.810712444320052e-6 
4.647444683275796e-6 
7.41040912906107e-6 
8.51216700786315e-6 
2.9319159309908462e-6 
3.421269056756722e-6 
0.0006212451416479835 
0.00019860879486605204 
0.0006009269561930412 
0.00022930940130781526 
4.6388497363971856e-5 
6.107408518200318e-5 
2.3906596662320626e-5 
8.977741608627532e-5 
1.2085510215897342e-5 
0.00015036117974158474 
7.493542072239567e-5 
9.483963187667233e-5 
9.450027127936459e-5 
1.21494594950789e-6 
7.002025118520428e-7 
0.0008636749584526797 
2.5010779660794933e-7 
1.8594037194724714e-7 
4.705777544077967e-6 
8.200473448406073e-8 
5.3460274235966007e-8 
4.173647465052379e-8 
8.175663695475726e-8 
3.141112588578535e-8 
3.663734490249504e-8 
2.8939780979710695e-8 
5.4186249316296976e-11 
4.1072308429315185e-11 
1.19286466851068e-10 
3.22964174548047e-12 
2.299404259290469e-12 
0.003788511074838843 
5.486700990331583e-12 
2.778989295285101e-11 
1.4755006142711082e-11 
1.2130686839053144e-11 
0.0005179513287823048 
1.4481775981418117e-11 
1.4753019076430104e-11 
4.0193928313428754e-10 
1.576419194275129e-11 
1.1002510330625786e-11 
0.0021527749808804195 
6.91620592179864e-13 
5.835039605670079e-13 
2.5014288978314464e-13 
9.740353386885583e-14 
2.2748001735768035e-12 
7.62938901267088e-13 
4.873076828100948e-13 
4.116648543760426e-13 
6.054735751046795e-13 
1.1207015447425959e-12 
5.187296365081907e-13 
7.12478864090275e-13 
8.964792022678629e-13 
5.882424840065082e-13 
1.6837177462014294e-12 
2.2307879512777557e-13 
3.468203991170971e-14 
8.583870755759255e-14 
5.2930393476691776e-14 
3.9541823496329845e-14 
2.3410095233513973e-14 
2.492835195896488e-14 
4.372875534768545e-15 
2.0032671839993758e-14 
1.8550058815169053e-14 
8.47387912045388e-13 
7.812438046253331e-14 
5.440455512757664e-14 
3.090944091177636e-14 
1.8331475680006205e-14 
0.0027083642809994923 
0.00675841045143045 
0.00027116280792853845 
0.005004564282304761 
0.001419281374075453 
0.012493166975704897 
0.0005292023266937208 
0.004141441662535125 
0.004023919028217381 
0.0020458281675277677 
9.320515588815166e-5 
0.017283337086077228 
0.002673662703325605 
0.00043628078631674256 
0.00016510446312651642 
0.00402115599940621 
0.00020595418376095006 
0.10905577726981608 
0.1737652423146421 
0.022403064457919716 
0.2640542929251024 
0.03948595390457902 
0.12910357063659048 
0.6575582797005884 
1.1213999728933524e-5 
4.431201507298205e-6 
1.5719963266545213e-5 
9.7280353866012e-8 
4.2650909056752095e-5 
6.08677640199876e-5 
2.6910907195953343e-5 
3.130349659829706e-5 
7.880998715323263e-5 
8.91707218534929e-6 
3.325161335987312e-5 
9.453664278701272e-6 
5.552677209318757e-7 
4.1263768595266514e-7 
6.312352706096236e-7 
1.814992476176462e-7 
2.1223372737657495e-7 
6.982608758794072e-7 
5.70736037500658e-7 
2.7119637992358842e-9 
3.3177603405343655e-9 
2.770407710310073e-9 
8.310175025488285e-16 
3.1217278194179183e-9 
1.1305419716584444e-9 
2.3133283691256596e-9 
1.135993751083023e-8 
4.342732953082383e-8 
4.241112106780772e-8 
1.9420757654820728e-8 
2.9839025176741884e-10 
3.168510337920236e-10 
8.077541292459613e-11 
7.354992312813235e-12 
4.818832470533391e-12 
5.9664796350461425e-12 
3.898536532218558e-12 
1.868603377946321e-12 
6.244493317752256e-14 
4.481364810449675e-13 
1.1511924236713856e-13 
9.973979823718633e-16 
1.5380377830399943e-13 
9.916948764826389e-16 
1.3818477792317647e-13 
5.1540185347425455e-14 
3.660092464154776e-16 
3.218131510940252e-16 
6.55201150496361e-16 
3.8686669539650014e-16 
3.6300593910096387e-16 
1.3217163680154139e-15 
1.1058798323151983e-15 
3.7454266490990605e-16 
1.8050970454131604e-11 
2.0655737321625236e-11 
7.80078270253146e-12 
6.108868746044316e-12 
7.277936211300847e-12 
1.8983766643798637e-11 
0.0004856612587047274 
0.0003038525132081916 
0.001254741980203013 
0.0006341445036398626 
0.0010012919133206744 
0.0009573481574002041 
0.00027723872816999616 
2.1517653696750758e-9 
1.4643315163247535e-10 
2.4265837714930037e-10 
8.257343674933093e-9 
1.2814613363261123e-9 
5.876807635324644e-9 
6.7159306407095245e-15 
2.906653423467202e-9 
3.027240351061963e-10 
6.806725915435289e-10 
9.076265561851264e-15 
1.8448780180287923e-14 
1.446395951025864e-14 
1.3734118337822681e-14 
2.456007495449795e-14 
1.881983678014921e-12 
3.8415641050218845e-11 
2.612164533300537e-12 
6.073708362046759e-13 
1.4093613166391632e-12 
7.123088655371186e-13 
2.1964271360253423e-14 
2.1928065145925676e-7 
2.1392090796875829e-7 
2.538072479618839e-7 
9.018878543686582e-8 
1.0618807150088453e-7 
1.3433178648883667e-7 
1.8432301637676607e-5 
1.4377138263365985e-5 
0.000127977240051935 
4.384593847656859e-5 
2.320006610645397e-5 
1.4144922813390165e-5 
2.0954586096279405e-8 
2.0187112751981527e-8 
3.615749553160176e-8 
2.3688429508913092e-8 
7.40816121941167e-8 
6.772666647009828e-14 
4.951412808653965e-11 
2.1034129341469328e-10 
4.049271624431417e-10 
2.1668693737973438e-10 
1.0372163879207431e-10 
6.045467387180395e-11 
3.100327921608821e-11 
3.5695229941369525e-11 
4.565971327065294e-10 
1.8681703455680343e-10 
1.5497200517549769e-10 
0.0861383835317441 
0.026750163462583965 
0.03999461775714619 
0.013546775543736253 
0.11158214859152878 
0.011533397538917545 
0.014306137149207745 
0.06228211587257697 
0.08022000914298977 
0.40837491812902665 
0.35746492203070845 
1.144948713792921 
0.3188790947512177 
0.07735944415083776 
0.00011555080323619406 
0.00012959580962606775 
0.00019139157271969162 
0.00011984913322739548 
0.0003345181568639784 
0.00013060099739079564 
5.0029229287993294e-5 
4.823060740250243e-5 
4.3367017928054556e-5 
7.688453420769325e-5 
6.700169035031423e-6 
4.378556385626553e-11 
1.2967950787047966e-10 
2.5760750119434625e-11 
8.851770483151442e-11 
9.856392575270328e-11 
1.1688523310265526e-10 
5.802559951348536e-11 
4.065076436943937e-14 
4.646443077659467e-11 
4.5337216780683e-11 
3.4182199565493257e-16 
1.8454707064452356e-16 
9.130768996622393e-16 
1.1815315937269929e-14 
3.670072074282147e-16 
4.4372586164996556e-16 
2.3247386943309067e-13 
5.5542132738754374e-8 
3.2947973705467146e-9 
4.47654515215034e-13 
9.073361465142564e-10 
8.655049975413835e-9 
8.201428024019931e-16 
1.6560419830662826e-15 
1.1663994488416892e-15 
2.7382676532241572e-15 
5.401950799559464e-16 
1.925139424449159e-15 
9.373558517381182e-16 
2.68214771865061e-14 
1.378379440449297e-15 
4.038610526009056e-10 
9.661846951597137e-11 
1.0982760357893054e-10 
1.4212259764435013e-9 
1.5058055417418137e-10 
1.1536942195795508e-15 
3.3252646439263036e-13 
7.329765295332493e-15 
2.609762133197588e-15 
1.144553394586284e-15 
3.6414411849465947e-16 
8.951879788460505e-16 
8.382934691445725e-8 
5.72329975403885e-8 
3.550761279931965e-8 
5.3137204961346026e-8 
1.306855656061259e-7 
1.1713473651385344e-10 
8.702272699210416e-11 
6.494305688835895e-11 
8.056885934731683e-11 
1.206086189477435e-10 
3.5955980106878796e-11 
2.275570043283161e-11 
2.944274925963926e-6 
2.503874142927363e-6 
1.4165922787072417e-6 
9.850176705493957e-6 
1.8594759109588176e-6 
2.0401519623237635e-6 
2.9510792991107013e-6 
9.220124564712648e-15 
3.243590172357777e-15 
1.5453039258030705e-14 
5.760554852213995e-15 
2.2383814840482258e-13 
0.011325733407068293 
0.003039537207157136 
0.004921639299203495 
0.0032670146127944063 
0.7068210607389542 
0.3106052626258112 
0.7198414264349607 
0.8004699287008146 
0.000317050901574574 
2.4837069550431243e-13 
0.00011952427529539874 
0.0002461129048871618 
0.0001274134529866821 
0.000181097771320456 
0.008043147141900624 
0.017949433867549828 
0.07815215226138397 
8.21134650330604e-14 
0.02611746231134162 
0.00013885417192044264 
5.286883073825881e-5 
4.762237673805135e-5 
3.935379519711517e-5 
6.974097503006277e-5 
4.385663505887706e-5 
3.564752558847929e-5 
0.00010787200186744142 
0.00014847370502451412 
0.0002600364035490076 
6.380384595438628e-5 
0.00015103575921997006 
6.18398640538012e-5 
0.00011864078069488938 
0.00011372891911599499 
4.4040389927108484e-5 
8.318485149896061e-5 
0.00010407518736088997 
7.94602607633274e-5 
7.18216396059468e-7 
2.9221039438827365e-7 
1.1295786391915451e-6 
6.352967599450666e-7 
6.643088547519094e-7 
6.449288660080912e-13 
7.285020713540068e-7 
8.475497851604603e-8 
1.759078137123652e-7 
1.611613104016335e-7 
1.3473035717834026e-7 
8.957316760246641e-8 
1.6069759360092864e-7 
4.2059756551151303e-7 
1.5095954341597492e-7 
1.1875788282099069e-7 
3.547261752181147e-7 
5.907702829679621e-8 
2.1865755605421008e-7 
9.910219556208135e-8 
1.261707550212024e-8 
3.114922348873463e-9 
2.9094835891184064e-9 
1.153316087755956e-14 
1.0462871999146128e-8 
6.845854789364124e-9 
2.515319520941741e-9 
5.383095061227826e-9 
7.332718784404659e-9 
5.621689579142182e-9 
3.1902877093005804e-9 
6.4596019702003065e-9 
5.300955972832836e-9 
1.7075846956038433e-13 
7.224177426906304e-14 
4.4221433051313476e-13 
3.3830090995388704e-13 
3.857594583775269e-13 
7.295270778567382e-12 
1.2453747623528091e-8 
8.699417546521522e-8 
1.0237299402361019e-11 
3.4493111365642566e-8 
3.567719633651507e-8 
6.357733383545532e-8 
2.2225156420524994e-8 
2.3920785384204565e-12 
3.7448353895659415e-12 
4.9335801917887515e-12 
5.2237180888367105e-12 
1.6812339832824512e-12 
5.0981894266239686e-12 
1.3712150193750459e-12 
1.70443929122354e-12 
5.437869093289425e-12 
2.463228645155599e-12 
1.4018706467027928e-12 
2.0453574454287708e-11 
4.6935931907402474e-11 
2.1114458478559605e-11 
2.6079085587506404e-11 
2.5373945722399335e-11 
1.0947352289499289e-9 
1.1631031230598133e-10 
6.061328878481636e-11 
3.901370122728776e-11 
4.257578046918827e-10 
3.087402766653028e-15 
6.730476527493307e-15 
5.872277480248195e-15 
7.92431345512116e-9 
2.7161013562031567e-15 
1.689264953552106e-12 
1.8828279122459554e-12 
2.2711160053458706e-12 
1.382303680899202e-12 
1.3303479003441512e-12 
2.6112603096018244e-11 
1.2923034323595515e-11 
1.0574252720170758e-11 
1.1280048813630159e-13 
4.1981896756359865e-12 
2.5144972464350635e-12 
3.749892135455951e-11 
3.6421314391845774e-11 
5.128333304945668e-10 
1.1942031008690522e-14 
8.99432973202615e-15 
1.1609575176002008e-14 
8.660949430610498e-15 
1.700523659028196e-14 
4.9294710348525625e-15 
6.085246743611065e-15 
2.3625993514184617e-15 
2.3857461883777045e-15 
4.2671882069425835e-15 
9.467299170466895e-15 
0.34226559003546503 
0.05384935720874795 
1.3263092897751767 
0.5176978884175429 
0.10348907672235381 
0.004910925975607741 
2.3208779995422788e-10 
0.3548218528212442 
0.00016449468375383903 
0.0033098893534969855 
0.0030795533311020183 
7.441404412230734e-5 
9.43584306043813e-5 
0.0002559825417261117 
1.4415628332743902e-9 
5.112458670368299e-5 
0.00029415304962604076 
0.0001732808932714003 
8.758931150306753e-10 
8.439920723081334e-5 
2.653344616854563e-5 
2.569555434253831e-5 
4.6579112379436624e-5 
1.9398389825240182e-5 
7.307654832336579e-6 
8.594367539017919e-7 
1.281305299553199e-6 
1.8748339625597907e-6 
5.00917889810418e-7 
1.2536192639058573e-6 
2.193842363311344e-7 
3.494585168461576e-8 
5.5974861972285504e-8 
1.07665536634651e-7 
1.952286887626712e-7 
7.490799993029009e-10 
1.3890305129108442e-7 
4.8004100863806836e-8 
7.276787719398358e-8 
6.01341273453482e-8 
4.206072548898581e-8 
2.599288925050158e-8 
1.1251694846605436e-16 
1.3389058749890507e-16 
7.224433151025277e-17 
3.6509054708351e-17 
5.756340890439457e-10 
1.656746444945798e-9 
1.057752040178307e-9 
9.649965963742304e-10 
5.286522176050777e-10 
1.6603642588557398e-9 
7.975794933764282e-8 
3.517848156085678e-8 
1.108423896792156e-7 
7.955731441176976e-8 
4.799101919413462e-11 
5.303773406383449e-11 
3.0618704437400954e-11 
1.030910880457489e-10 
4.307665520544863e-11 
2.3366226327067565e-11 
2.0636097453452247e-9 
3.461713722020523e-11 
3.6766126464521107e-13 
2.6816081814618744e-13 
1.856411288818712e-13 
2.1921833169252054e-13 
4.173141790422673e-13 
6.359965142007231e-14 
3.002844638544486e-14 
1.1243342940777269e-13 
1.5074401141491985e-13 
6.541209095436181e-14 
9.763874735385766e-14 
7.247574374836138e-14 
1.1339483108854753e-14 
2.425141214110573e-15 
9.066864629831778e-15 
4.439372013489699e-15 
1.3691935554244618e-15 
5.213286296803431e-15 
9.293074015973674e-16 
4.717688689696344e-15 
1.49387066103613e-9 
1.8774859132813446e-14 
4.925600914909478e-15 
8.98323148230162e-15 
2.1522082622534783e-13 
9.132693293901386e-14 
6.487373969271792e-14 
9.934919997038483e-14 
8.187887870152598e-14 
5.262985335025672e-14 
2.931107556315663e-13 
2.654322862802763e-13 
1.234723070098599e-13 
2.007344979111344e-13 
3.7066662898992705e-16 
1.219514168433662e-15 
9.19146734587977e-16 
5.024718155856237e-16 
1.055592556401788e-15 
2.2562178676085664e-15 
1.1107710480877182e-15 
8.609847315784209e-16 
1.3775332204945161e-15 
2.188263472522047e-9 
9.215198050143747e-16 
1.4555965364669256e-15 
2.756354189106241e-13 
2.7972041224744375e-14 
4.7441174278460895e-14 
5.697993702383476e-10 
2.999695688490054e-14 
1.6979609542673057e-14 
3.6310492277500364e-16 
1.0703983668848888e-15 
7.924247542126839e-10 
6.731141522734744e-16 
7.880954805768492e-16 
1.7429125963937741e-15 
1.1229672942771731e-15 
7.032494884584819e-16 
6.852052665213991e-16 
0.00025269939974147554 
0.00045668047043741537 
0.0006207758129549581 
0.00012986409052143265 
8.163721412880872e-10 
6.528039286622215e-5 
5.567676418915352e-5 
0.0022525128060639538 
0.0017023675547313327 
0.0012294806266204634 
0.006942991959392582 
0.0032707944679048664 
4.68144869513229e-7 
7.418853105863626e-7 
5.513427871862652e-7 
1.0422953089111918e-6 
1.7821757798752823e-7 
2.5359862951956586e-5 
3.1663275295250604e-5 
9.3856362963606e-5 
6.447908059831316e-5 
1.923975642631474e-5 
7.292256898032004e-5 
6.377329010144119e-8 
3.166218132651647e-5 
1.625613762283579e-5 
8.731694075157559e-10 
2.0907992358098972e-5 
3.089864050645091e-5 
1.683015664508865e-5 
6.377693285084654e-5 
7.046644062351235e-5 
1.002046324495948e-5 
5.767492161607041e-9 
2.5087694354878232e-8 
9.669288054158778e-9 
8.126896136068564e-9 
9.2160623747965e-9 
2.2505727066813852e-8 
7.11546413976741e-10 
2.7652569091761456e-9 
3.1357353782956256e-9 
1.9243906050162213e-9 
1.2161209437063119e-10 
8.363101697577285e-11 
3.619715748154724e-11 
3.373898325460084e-10 
8.655651559468928e-10 
2.53444869906811e-10 
4.758018530669263e-10 
1.953798765160412e-10 
7.296554647036338e-11 
2.056810465974497e-13 
6.336427238542472e-14 
2.4558201505330783e-13 
3.376376323753291e-9 
1.2285193254517837e-13 
7.420982199904833e-14 
6.039920254342896e-13 
9.273050098130645e-13 
3.311575272973062e-13 
5.007399154696456e-13 
2.7415924932992674e-13 
3.377757746364003e-13 
5.352025285653038e-13 
7.10255833393811e-13 
2.027883500552142e-12 
2.0098307151719913e-11 
6.731017134442087e-13 
5.966785866265321e-13 
1.976665379975641e-12 
9.21718115708427e-13 
1.0397418393384263e-12 
1.1293059372915784e-12 
7.949595053213483e-12 
4.216574959602436e-14 
8.473290145547477e-14 
3.7361655055508535e-14 
4.713895688283932e-14 
1.850275696539717e-14 
2.6788488344569552e-14 
7.309349808119258e-14 
1.6589996870604098e-14 
2.516673336040033e-15 
1.7948250202116752e-14 
0.002149643822328945 
0.0006759512327808047 
0.011476381317636382 
0.0010173038590720407 
0.00033360904826591244 
0.0002686531783560451 
2.3383724802962213e-5 
8.424166750479731e-5 
1.8992418585035662e-5 
6.410501122114285e-6 
0.0006105076831460126 
0.0006460728724124936 
0.0009198813161986182 
0.0009578674908988079 
0.0007910044075268165 
0.0002726069596961095 
0.0005441912227020179 
0.2389795285958098 
0.26728859851025266 
0.31829129602825934 
0.09886977535819706 
0.1336891447672345 
0.25421451264918216 
0.08572060614036074 
0.6507068510730191 
0.23904870060397052 
0.013525257748060212 
3.163868022882843e-9 
1.1980765228747251e-5 
2.4670941715148813e-5 
6.5109209408477325e-6 
3.710195268498275e-5 
1.260240629080152e-5 
4.96604496421066e-7 
1.7169771722753278e-7 
6.51810239890693e-7 
1.399841211324006e-7 
7.541754421414698e-8 
1.1052655433414815e-9 
POINT_DATA 6348
FIELD FieldData 1
displacement_1 3 6348 float
1.3409754151257415e-5 -3.8200609570573604e-5 -1.3679234541559847e-5
6.00692980190263e-6 -3.937709985479959e-5 8.960304507146155e-6
0.0 0.0 0.0
0.0 0.0 0.0
3.997767730393212e-7 -5.3447012585902344e-5 2.3120829419885087e-5
0.0 0.0 0.0
0.0 0.0 0.0
6.177073668311801e-6 -4.2845082607662824e-5 -9.685766080515071e-6
1.995315608632724e-6 -2.9609836287093744e-5 -4.897903049659798e-7
-6.758551688264401e-8 -2.639860242297168e-5 3.469078520705646e-7
4.70674843570206e-7 -2.4425072609711935e-5 2.2115397107004666e-7
-6.055112267029995e-7 -2.3985155062903125e-5 -4.854056738915806e-7
-3.705169079031584e-7 -2.4872938905947383e-5 -1.1829492823895928e-6
-3.950747984359128e-6 -2.598733021549704e-5 -9.389697270209767e-8
2.6593248637221072e-6 -2.6277644894945872e-5 -8.572937430615919e-8
-7.702428339445574e-8 -2.9839813278731283e-5 8.604845330045781e-7
-9.569353313515691e-7 -3.259532185811185e-5 1.5597806031125088e-6
-3.4088222874167855e-6 -8.435303097937536e-6 6.78303436279542e-6
5.356358049594208e-7 -1.865481639276463e-6 3.431230290431041e-6
-8.665212346554123e-10 -5.696476950073035e-7 1.315547501402816e-6
-7.421330720002122e-8 -2.1199663712630902e-7 5.743998976739086e-7
-1.4402282886043274e-8 -8.090007049232643e-8 2.6759616028111296e-7
-7.996115573126124e-9 -3.722600209073811e-8 1.208388703757516e-7
-5.620035449962438e-9 -1.496358642683392e-8 5.7583253189712144e-8
-9.269894679189721e-10 -7.91780393370009e-9 2.7178965433270154e-8
-2.048009015162086e-9 -3.8641217359009784e-9 1.2482426011736507e-8
-1.2868284905316287e-9 -1.8788534181277035e-9 6.0983951313862554e-9
3.805458556599479e-10 -6.716540932217642e-10 2.8098961652805955e-9
-1.3230666732929181e-10 -2.8663090920367895e-10 1.1665619612308098e-9
-3.728159411858804e-12 -1.221847768207137e-10 5.689958350426547e-10
-2.7308705090505462e-11 -6.22076494509042e-11 2.692086958158827e-10
2.6801272157981583e-12 -3.4614747173147124e-11 1.32026201031825e-10
-5.406136816415704e-12 -1.592480740123752e-11 6.310520896107528e-11
1.4897424696747973e-12 -7.684622699562351e-12 3.193116966677674e-11
-1.4725394999887636e-12 -3.927708810325708e-12 1.4806700903413888e-11
-1.0493481987112453e-12 -1.8529039674123257e-12 7.87882113806488e-12
-1.6024759281321843e-12 -9.10823529062544e-13 4.314569694466722e-12
3.3413654542581946e-13 -2.577422105995666e-13 1.9899186594158483e-12
7.151130025440528e-14 -1.6594696806346236e-13 9.799941438920108e-13
2.926858346012865e-14 -1.1369489875645602e-13 4.607453072657871e-13
-2.250258816179717e-14 -6.155889289993781e-14 2.1269353115194625e-13
-1.72734087369292e-14 -3.041781595390376e-14 1.08354574053736e-13
-8.988962562380882e-15 -1.3083490849277016e-14 5.685882644623931e-14
-2.8988421218096777e-15 -8.033696788917692e-15 2.830252846767115e-14
1.7010796483694465e-15 -3.544966907278895e-15 1.3475730958467409e-14
-1.3353113787543405e-15 -1.8841563041918575e-15 5.964820639951117e-15
-5.839110837600247e-16 -8.880833056551539e-16 2.976539028481534e-15
-2.4968502729920112e-17 -4.3468373864739973e-16 1.5285970034248745e-15
-1.2737149991940601e-16 -2.41861085287081e-16 7.059430663450825e-16
-1.5488562505516904e-18 -1.05494528868968e-16 3.655036634840666e-16
-1.1313260019359046e-18 -5.310445475153636e-17 1.6872378343748996e-16
-1.2053016133311582e-17 -2.5812159734162062e-17 7.748491996614247e-17
-2.6679674538714394e-19 -1.1779514185505486e-17 3.9394046514924325e-17
-2.1639452264303295e-18 -4.6357292422662e-18 1.8695080412609354e-17
2.54162819271232e-19 -2.5503360150525087e-18 9.394351854825362e-18
-6.066241829573841e-19 -1.377750577592716e-18 4.299155353157901e-18
-3.118651778055704e-20 -6.205246370693026e-19 2.1200241479008322e-18
-1.002093955852869e-19 -2.5678394230484045e-19 1.0177041434579852e-18
-3.0218152811491905e-21 -1.4031359325837804e-19 4.874677161039581e-19
-3.035314781104639e-20 -5.70330821378852e-20 2.3244417972708783e-19
-5.96090575346954e-21 -2.2694699135571816e-20 1.0701719020549818e-19
-4.5397708540486396e-21 -1.2570915306176562e-20 5.2800164348645823e-20
3.3221404804270456e-22 -6.131204240605517e-21 2.6177033039095915e-20
-1.6243904465345147e-21 -2.8935505564279977e-21 1.2344447785789967e-20
-9.6790689054233e-22 -1.0447581528040182e-21 5.930363674754321e-21
-2.4353234937519026e-22 -8.11271505452051e-22 2.4014320278389885e-21
0.0 0.0 0.0
0.0 0.0 0.0
0.0 0.0 0.0
0.0 0.0 0.0
0.0 0.0 0.0
0.0 0.0 0.0
0.0 0.0 0.0
0.0 0.0 0.0
0.0 0.0 0.0
2.3379101268874736e-23 1.5114538385593386e-22 2.0284358327077062e-22
-9.287150584963002e-24 1.7154983006768308e-22 3.51904563862392e-22
2.9042827923579016e-22 5.8035101643009635e-22 1.162114515844246e-21
7.542556786584518e-22 1.6943089984853347e-21 2.665871962580914e-21
-1.6086083587681408e-22 1.6290536390617254e-21 3.892866525550943e-21
4.0136940942495435e-21 7.359955732877257e-21 1.2663089367129161e-20
5.189358888737406e-21 1.8612800217465162e-20 2.665114791795709e-20
1.0676095457415184e-20 2.6227987608135392e-20 5.459818414315184e-20
1.909905481016439e-20 4.7784355176453055e-20 1.1320315245337492e-19
4.4050317608085796e-20 1.3658815674555342e-19 2.6567529678225406e-19
1.70762905384799e-19 2.770799286298557e-19 5.069351996993386e-19
-2.899983554038587e-20 2.33463305808578e-19 7.652761773526783e-19
6.792803514146383e-19 9.710466483325075e-19 1.873184008483619e-18
1.6279356634402905e-18 2.0991306602568533e-18 3.557149443877341e-18
1.2849508527166052e-18 3.4125807860980613e-18 4.867281231227328e-18
-4.395643267143941e-18 3.37581894932077e-18 7.787624896610423e-18
2.3372742472571177e-18 1.8704971660566663e-17 2.986958153071997e-17
1.433997345567571e-17 3.5591360782334373e-17 6.028327501065861e-17
3.91186360231584e-17 7.928223700408366e-17 1.1813365369156007e-16
2.6551824402281392e-17 1.1544593763990589e-16 1.9038970210977647e-16
4.930940162783706e-17 3.5660599677478362e-16 4.473897198857822e-16
-1.2288570131364165e-16 5.048050726066202e-16 7.407963578059816e-16
-2.508452001209769e-16 5.681185688842177e-16 1.2690363019971886e-15
1.2100823960406319e-15 2.399821217173825e-15 2.974566332038119e-15
1.048284171237941e-16 2.1003985913885007e-15 3.5276256608221896e-15
4.583784252590266e-15 7.937702335659199e-15 7.460785510183222e-15
2.276978799621431e-16 7.198357398250246e-15 6.9347749405337815e-15
3.160059368258187e-15 9.673862084205142e-15 8.626208598269736e-15
5.856148017355574e-15 6.5383830415711504e-15 1.1004352331805937e-14
3.0282494554619466e-15 -8.619761801218606e-15 1.0617277707853157e-14
3.211881475522623e-14 -2.519642061874178e-16 -1.5741693385716268e-14
-1.0302803928169977e-13 9.43763027377277e-14 -1.4233035816473524e-13
4.268301274705284e-14 -1.5469585352945947e-14 -4.1584692164346443e-13
-9.77279176047411e-15 -7.643005923208637e-14 -1.4782847603614909e-12
-3.124649603235418e-13 -9.937001710378194e-13 -4.9462701337282226e-12
1.6819984280902903e-13 -2.767154550579348e-12 -1.3047405924605508e-11
1.895786614213339e-12 -7.122458669221004e-13 -2.9634632231035174e-11
-3.216514575740105e-11 5.316172788230028e-13 -1.1743311993162537e-10
-1.1795594062902028e-10 -2.0352441058134353e-11 -3.2333770850768746e-10
6.810781091405793e-11 5.843843941303051e-12 -6.659068498992145e-10
-3.078931865201293e-10 -1.4722598230393478e-10 -1.885727053902122e-9
-1.0487639236057062e-9 -4.5563844621519045e-10 -4.791504076830337e-9
-2.588642582088898e-9 -2.223195227175549e-9 -1.2914438080822884e-8
-3.35274098902365e-9 -5.043107735537567e-9 -3.1243925517267765e-8
-1.765208058622332e-8 -4.050638599040764e-8 -8.082104629838784e-8
1.857709367467089e-8 -1.7307460989163036e-7 -2.3747012142898498e-7
1.2180601167427042e-8 -8.83545944374123e-7 -6.305850822781636e-7
3.465815009175764e-7 -3.1812873305056553e-6 -1.4748521657549936e-6
2.5989233017548177e-6 -1.1793082570249515e-5 -4.9292833038132665e-6
-2.071794041397872e-6 -1.9020151451323953e-5 8.052240304954338e-6
5.501031947996867e-7 -2.1153519411529082e-5 6.827015412735212e-6
-7.684077051601166e-6 -2.3776532610162263e-5 7.543593737382932e-6
-1.4851039881934605e-6 -2.9892711908996663e-5 1.1551949854741909e-5
-9.372739630612022e-7 -2.3783683645467933e-5 8.58262518724526e-6
9.827808996310283e-8 -1.3586236874896319e-5 3.1362571460033624e-6
5.996296107291269e-8 -1.7013978150275832e-5 5.130155213188465e-6
-4.691724701646327e-6 -2.4564538495026518e-5 7.722505077142724e-6
-7.635648802969766e-7 -3.434057765549482e-5 1.4793291496656115e-5
2.06880538801394e-7 -1.2536033526175618e-5 8.353580115087523e-6
7.332283716822498e-8 -3.1503008709451047e-6 2.78253845946075e-6
-6.131123658242013e-8 -6.114439339775502e-7 1.0457810273892719e-6
-9.087638374267956e-8 -2.3347060526932044e-7 4.619799416734223e-7
-6.911752114569393e-9 -7.17143773528826e-8 1.900183667918233e-7
-1.0120229308424763e-8 -1.559802815759327e-8 8.520435904892353e-8
-2.2058735826193073e-9 -3.7001146694469932e-9 3.815982763602117e-8
8.036170493583579e-10 -1.4343936051882827e-9 1.6612807129840634e-8
-1.5462951924770573e-9 -4.2860897258871575e-10 7.82480639159638e-9
-2.3901591319714866e-10 -8.777423438430387e-11 3.6687804087752687e-9
5.820676947795798e-11 -3.9456832187260707e-11 1.738094101062263e-9
7.230026846286777e-11 -1.691228158595808e-11 7.42849935114358e-10
1.4772101543687366e-11 -1.8026719820252124e-12 3.5056628453940537e-10
-3.491407629135611e-11 8.232030575377875e-13 1.7010366982079675e-10
-9.724693993640576e-12 -8.083989769655725e-13 7.64180941100646e-11
-1.2085309078824014e-12 -1.2621944374785638e-12 3.5781314004833766e-11
-9.633252058404926e-13 1.5420947178795472e-13 1.4035485576113206e-11
-4.4069549154011384e-13 -6.204323883694829e-13 6.005777799259359e-12
-1.3954755857931937e-13 -1.1462628946166674e-13 3.087224586164039e-12
-2.2356903286777337e-13 2.973197459160799e-14 1.5332918205917437e-12
5.697067709098701e-14 1.8751056302309862e-14 6.896895049245522e-13
3.754430429599839e-14 1.2143415343899226e-14 3.2922957710358427e-13
-2.2870564026133325e-14 8.823481484687785e-16 1.6264833333602103e-13
5.203546362562355e-15 1.3959662616234163e-15 7.106878085417976e-14
-5.5375124565578495e-15 8.535487470116746e-16 3.59971179133255e-14
1.8089524423391476e-15 -7.371755997309796e-16 1.5756347864978358e-14
-6.219649249881382e-16 -2.6176700595334984e-17 7.900927722981516e-15
3.7857645729086206e-16 -2.9808982338079836e-16 3.714027317836727e-15
-4.785895732160112e-16 -2.0330074263406266e-16 1.9251391564772447e-15
-4.7667818232655875e-18 1.9008047474854982e-17 9.143208568610549e-16
4.357070502006006e-17 5.9520931765271854e-18 3.9203279869675196e-16
-1.6575438238121006e-17 1.5767325773562713e-17 1.8266256622736181e-16
1.034805011961494e-17 4.140080383722731e-18 7.780627372832856e-17
-5.224291895391613e-18 3.0911172637750642e-18 3.881481363954115e-17
4.249054639632571e-19 2.0665269023491334e-18 1.976599902562233e-17
8.073120721851339e-19 2.812748690905926e-19 9.218708848423611e-18
-7.294704373471006e-19 5.632771456736966e-20 4.855314498129279e-18
2.1474824562183458e-19 -2.3122124037015725e-20 2.3600075869646964e-18
1.0230662811895097e-19 3.4409021332237804e-20 1.193799291105383e-18
7.431124864306091e-20 3.2803054957367875e-21 5.717521006373061e-19
-2.9817984787349754e-20 -4.770689939169999e-21 2.9506692529508996e-19
1.2794443233384899e-20 5.411876600955411e-21 1.5029258282247291e-19
3.83319234185199e-21 6.081320100275128e-21 7.079228604514373e-20
3.919839622187227e-21 8.604730809472502e-22 3.374329190758005e-20
-1.8341177163208268e-21 -2.719486719847918e-22 1.6950060670507443e-20
8.128408070572761e-22 -5.189928348508177e-22 8.258497564850194e-21
1.8106759846686087e-22 -6.0483589947075e-22 4.345080805690929e-21
-1.432443869355144e-22 -2.2355847069750257e-22 1.994758603848587e-21
1.1537918203945353e-23 -1.8264569732103673e-22 6.929439896159029e-22
0.0 0.0 0.0
0.0 0.0 0.0
0.0 0.0 0.0
0.0 0.0 0.0
0.0 0.0 0.0
0.0 0.0 0.0
0.0 0.0 0.0
0.0 0.0 0.0
0.0 0.0 0.0
0.0 0.0 0.0
0.0 0.0 0.0
0.0 0.0 0.0
0.0 0.0 0.0
0.0 0.0 0.0
0.0 0.0 0.0
0.0 0.0 0.0
0.0 0.0 0.0
0.0 0.0 0.0
0.0 0.0 0.0
0.0 0.0 0.0
0.0 0.0 0.0
0.0 0.0 0.0
0.0 0.0 0.0
0.0 0.0 0.0
0.0 0.0 0.0
0.0 0.0 0.0
0.0 0.0 0.0
8.589014385198336e-7 -1.8020384413293637e-5 -6.579638767095149e-6
-4.9553162712922e-6 -1.8237439801287624e-5 -4.7645297731177945e-6
3.4109009489751245e-6 -1.7671738530568844e-5 -4.796746003308318e-6
-4.736597204875618e-6 -2.041988861613401e-5 -6.334390480912956e-6
3.4114591294579934e-6 -2.000661028655058e-5 -6.399034863885311e-6
-2.955589327871342e-6 -1.8565026159183624e-5 -5.300942839251401e-6
8.903278646247086e-8 -1.9027561245730076e-5 -5.648382085781804e-6
-1.7752198150224785e-6 -1.8421218499312273e-5 -4.019889109784882e-6
-6.944288837510216e-6 -2.0880195781330045e-5 -7.709848293853758e-6
-1.9379662310175593e-23 -5.960853995753298e-23 -3.2980266537242057e-22
-9.514317316402673e-23 -3.034326254261738e-22 -8.994232186525572e-22
-2.7767841597359544e-22 -4.093060670134238e-22 -1.5619691365441665e-21
-1.0207622684871872e-21 6.597518132526654e-22 -3.086989578650926e-21
-5.98198735070451e-22 -2.25305419785164e-22 -6.912039207950963e-21
-2.8926063736874955e-21 -3.4110334562196794e-21 -1.6222451991406236e-20
-1.186080389858845e-21 -3.6349240697725866e-21 -3.415774145322206e-20
-2.1433519460592512e-20 -9.22048591150489e-21 -8.242054298854013e-20
9.828049143942594e-20 -1.4364338685902145e-20 -2.298434346502752e-19
-8.174570547311907e-20 -2.703949041799994e-19 -6.676689011610512e-19
-3.167572266163854e-19 -5.0036883193664125e-19 -1.4888020685115316e-18
-2.885907429829259e-19 -9.18631576070702e-19 -3.0341593824623376e-18
2.2684266157315726e-19 -2.2177919840527207e-18 -6.664228792925274e-18
4.872746550707749e-18 -4.4458394860961854e-18 -1.4283451066186108e-17
4.190247443426834e-18 -8.489784594450979e-18 -2.776272275804516e-17
-2.774234143493084e-17 -2.076412235288411e-17 -7.541087912052435e-17
8.707730171135304e-18 -5.177723327916561e-17 -1.640292637574587e-16
-4.403848810847255e-17 -1.0330985936585688e-16 -3.405693670123505e-16
1.6801468793924974e-17 -1.7273746703859115e-16 -7.490887584231582e-16
5.639570579435493e-16 -5.594204409427812e-16 -1.800859494053428e-15
4.815374557592655e-16 -1.3882712084288813e-15 -3.591536364042644e-15
-4.063547551087878e-16 -2.975060768802314e-15 -7.339620251116487e-15
3.1918209400954412e-15 -5.0870326820700614e-15 -1.5191860530511933e-14
1.4076063636555403e-15 -1.1407321438550283e-14 -2.939122179072965e-14
4.578070161222037e-15 -2.2550569642515536e-14 -5.975914041140808e-14
1.4123621094563053e-14 -4.005161467070111e-14 -1.188124638779739e-13
2.663910255890946e-14 -8.421597106307038e-14 -2.319401567335139e-13
1.869090039503872e-13 -1.7879113579672633e-13 -5.048863275793545e-13
3.096832202186162e-13 -4.730785472010514e-13 -1.0864105846925271e-12
3.352186965848335e-13 -8.409019088595589e-13 -2.3924378945809514e-12
1.5465980145318435e-12 -1.3963030938694888e-12 -5.288643516255111e-12
1.9441917822787667e-12 -3.4877482435387244e-12 -1.1327945990044737e-11
1.4830098126132414e-12 -7.32542604894369e-12 -2.3468321309550696e-11
1.905502963206256e-11 -1.4851167085057927e-11 -5.3022931130526335e-11
-2.763756641019736e-11 -4.128125390681248e-11 -1.1678160734927579e-10
6.920865347977346e-11 -1.0374913209155903e-10 -2.8647426402270076e-10
1.468177978981483e-12 -1.8295146564289295e-10 -6.400840340049575e-10
-2.2262032022576156e-10 -3.70107551634873e-10 -1.3424424388059332e-9
-2.52219916057778e-10 -7.034223222304565e-10 -2.9621540372452912e-9
-1.7905134187364643e-10 -1.8004227434193747e-9 -6.065210247624653e-9
-1.9632047958133286e-9 -4.602336968366981e-9 -1.4322979305504414e-8
8.560690102423914e-9 -1.2194004228103266e-8 -3.8235103690323105e-8
-1.332450893555404e-8 -2.524102640696733e-8 -8.527447838717488e-8
-3.666893426320518e-8 -6.432355133609938e-8 -1.990121285790509e-7
1.1469275896081466e-7 -1.617996555768209e-7 -4.674973953365985e-7
-6.296619645596705e-9 -3.8391386497131205e-7 -9.72896949946932e-7
-1.684161325443819e-7 -1.0013182248612467e-6 -2.0703869009230156e-6
-8.0753356014738e-7 -2.7000482833071493e-6 -4.131055690578251e-6
-1.8175263263998224e-6 -1.1181864850927873e-5 -7.231522699479524e-6
-2.170082693943719e-6 -3.535254350586999e-5 -1.6895730479736604e-6
1.3925726949573953e-6 -3.051673603638569e-5 -8.761097000592691e-7
-4.379496672257665e-6 -2.9533750089619696e-5 7.612434536203677e-7
-8.130074729804037e-7 -2.6969845668276012e-5 -6.098644323076668e-8
2.545591070360085e-6 -2.7149363967625462e-5 -3.958946968857921e-7
1.056537623132394e-6 -2.7965566655262495e-5 1.2827064201773507e-7
-3.2999246341718636e-6 -2.8754964529158897e-5 1.8145991746602535e-7
3.540882978889252e-6 -2.9087562269384675e-5 -4.158069749430019e-7
4.561654123116321e-7 -3.7246096525371845e-5 2.0370669509958936e-6
-1.3116069975386916e-7 -6.821816175642725e-6 -5.108127320134588e-7
-1.370430717345896e-7 -5.2496919452776835e-6 2.692228598780712e-7
3.559613167915897e-7 -5.12493185415996e-6 4.2971307817619905e-7
3.2369199826703095e-8 -5.408511998679202e-6 5.814827686970703e-7
-1.7106920799882458e-6 -6.957641980089362e-6 -6.411119087830222e-7
3.9836094512287744e-7 -6.7241111992072836e-6 -8.141353355743393e-7
1.4580935640210867e-7 -6.306836005465083e-6 -4.1266778673316267e-7
-4.085798468355943e-7 -5.885563962702375e-6 2.0272752907215035e-7
1.0016346243021094e-6 -6.942664608845407e-6 8.473849603467267e-7
8.720631918808822e-8 -1.5684125996406442e-6 4.446779086881518e-10
2.947075148298963e-7 -1.0967164405142447e-6 1.1620751769460902e-7
-2.445430612335306e-7 -1.1182800912374249e-6 -3.616387086185363e-9
-1.53248112773041e-7 -1.3913452179766298e-6 -1.2006590562342796e-7
-6.533842147150562e-8 -1.3048932974568103e-6 -1.3572883247873027e-7
-7.176557145325816e-8 -1.6298237644128795e-6 -2.8848914434514753e-7
4.2622224844509275e-7 -1.38523749739883e-6 -2.163118431441886e-7
3.1537323871417914e-8 -1.4602283131352694e-6 1.7961524117345608e-7
-2.6413020523137766e-7 -1.6861799585809123e-6 1.0629440863783282e-6
-1.972057481895249e-7 -6.855986554643655e-7 -1.1803151733595691e-7
-1.726033894096098e-8 -4.613446000574728e-7 1.88631659092569e-8
7.490666819779962e-9 -3.336662724071419e-7 -1.3061031913823818e-8
8.67887602350394e-8 -3.5799491752605917e-7 -4.342891795979439e-8
-3.914027638667739e-8 -5.169682900084648e-7 -7.846715398164849e-8
5.39827961595487e-8 -4.774065110491889e-7 -4.9077930180120195e-8
1.1683719182854432e-8 -3.608948375798931e-7 -7.64013911888077e-8
6.573414373774722e-8 -3.463592002197849e-7 1.1972551342385958e-7
-2.8821175018703937e-8 -3.563610611598293e-7 5.368815759694276e-7
-3.705520737055754e-8 -1.743523876924266e-7 -7.979759910489764e-8
-1.4705077246768178e-8 -1.3684801065289704e-7 5.653802986554874e-9
-1.175820988786113e-8 -1.368959368501446e-7 -2.20847859883911e-8
3.89941625788948e-8 -1.5339258119507578e-7 -2.4407862889828346e-8
3.948820383227189e-8 -1.7933162943628254e-7 1.807706117388116e-8
-1.258662286557269e-9 -1.3955395467394904e-7 1.514428299597912e-8
9.842585893273062e-9 -8.383339516317205e-8 -4.2374291259896695e-9
2.7180125830835126e-8 -6.031454702815132e-8 9.824032965074391e-8
-1.834621809754068e-8 -7.72142658904081e-8 2.682034606346511e-7
-1.2119184423143093e-9 -2.67319206204157e-8 -2.4385871193784207e-8
-1.076781307940909e-8 -3.008642588327891e-8 -8.882497233420373e-9
1.0212117264321184e-10 -3.385114022072903e-8 -1.4709131966309424e-8
1.9414568805983376e-9 -3.2322820538167286e-8 -8.64518547525859e-9
6.771650197063075e-9 -3.219597035990215e-8 1.3494480385005255e-8
4.088080106725039e-9 -2.8327858072732104e-8 1.548816343640217e-8
4.7853411576009865e-9 -1.3806612632949065e-8 1.3968101484555058e-8
3.450322669448135e-9 -2.9324952544390342e-9 5.2089622723857274e-8
2.9714067261599252e-8 -6.885073370598426e-9 1.2935940163531448e-7
-3.82382347905928e-9 -2.866760665665885e-9 -1.28494197595126e-8
-4.302834276760805e-9 -3.3413423722309843e-9 -8.007392960738583e-9
-1.8662887458275775e-9 -3.52848625415768e-9 -7.43753931919102e-9
1.4379904900821264e-9 -3.5625912445393446e-9 -1.9301282891285527e-9
4.4342078906235863e-10 -3.962915165404808e-9 5.955343457959742e-9
4.602327323748943e-9 -2.6808681234756826e-9 1.1989473744741451e-8
3.0850653655097955e-9 7.567609224063119e-10 1.393083507701212e-8
8.097874905397657e-9 6.147238273638775e-10 2.85783917509523e-8
9.41232979313352e-10 -3.219703713608794e-9 6.35063926302062e-8
-1.6860105532814071e-9 2.147061603703379e-10 -5.354720942372819e-9
-6.960404001721599e-10 1.1897349097160502e-10 -4.907444096947949e-9
-5.875718411560156e-10 7.564780531317022e-10 -3.3090610673727054e-9
1.6470154708151736e-10 8.494002983743836e-10 -7.050654124200637e-10
-1.084905270637064e-9 8.680471804613709e-10 3.2555403770919243e-9
4.4878490039487786e-10 5.355387783423663e-10 6.22082212184445e-9
4.1088502878535575e-9 3.3673631412888282e-9 1.0238615276233617e-8
2.4005617640532832e-9 2.4365971404215723e-9 1.4142861716349182e-8
4.812975085755569e-9 -7.916166395217474e-10 2.7264924854729243e-8
2.9158450012966354e-10 1.887102892607183e-10 -2.73523062910492e-9
-9.960336009375766e-11 5.907645051735575e-10 -2.2369970392145036e-9
-2.672763674437026e-10 9.299329518427692e-10 -1.7330355598682416e-9
2.0807067172257346e-10 1.363294439855056e-9 -1.6411655606863921e-10
1.0613795598917124e-9 1.5938852388646781e-9 1.6698854422986982e-9
1.3432545206811127e-9 1.043561388874504e-9 3.439633675995235e-9
5.991687828930962e-10 1.1398190058459079e-9 4.774489261720565e-9
1.2454040837791624e-9 9.351631284379773e-10 6.844817455586586e-9
2.4517923053865465e-10 -3.6939386299086913e-10 1.3021336828176248e-8
-1.4981884716235947e-10 1.0243248692468494e-10 -1.1054673508800522e-9
-2.3982119089197443e-10 3.4573801871248325e-10 -1.0772792336185096e-9
-4.392453821780297e-11 6.160535282054895e-10 -8.342159008433177e-10
4.9922587982540384e-11 8.996189341553828e-10 -2.8689516286656577e-11
3.0928267262431295e-10 9.133632463409609e-10 8.068614526104893e-10
3.803431611273714e-10 7.832544290564348e-10 1.6690719485944989e-9
4.255063769680962e-10 5.941212896880564e-10 2.06471701419924e-9
4.5596470378076645e-10 3.6960268466106617e-10 2.827484766681732e-9
1.8256258436323094e-9 -4.758025337417887e-10 5.146156642977129e-9
-2.940806492839874e-12 6.143863462592948e-11 -4.3285232420303534e-10
-1.2579511671807494e-10 2.5054633233931564e-10 -5.089648296631544e-10
1.187939598776744e-12 3.4444866653003353e-10 -3.413637995036393e-10
-2.703147338896531e-12 4.443514449980936e-10 -4.7709431592410785e-12
4.691815443083987e-11 4.765584751978662e-10 3.7277588730786767e-10
1.9993545471442727e-10 4.990214394220096e-10 8.313410022290834e-10
8.09983866996271e-12 2.0983198526462176e-10 8.332086519700089e-10
1.8747585754273777e-10 2.015149585286633e-10 1.2556325125802974e-9
-3.4512228477698077e-10 -3.3149707710461444e-10 2.763679020076249e-9
-3.7320016780008004e-12 2.2662495487023364e-11 -1.7934079675831893e-10
-5.7220468700975026e-11 1.1140142978344297e-10 -2.369026398945696e-10
-7.24404337923723e-13 2.0697694043277786e-10 -1.635002612949098e-10
1.2330023889218677e-11 2.5823256321782365e-10 1.0059651666911709e-11
5.0740505142871674e-11 2.72400525468585e-10 2.4254259053346137e-10
1.0568286663207018e-10 2.391195854391847e-10 3.85596758033561e-10
4.7992734242468023e-11 1.4113902856625944e-10 4.2497995724610723e-10
1.0495503273518727e-11 9.437168400527948e-11 6.738634856819202e-10
1.1687816152278592e-11 -1.2862325671641349e-10 1.3593772492210954e-9
-2.7739664132909393e-11 2.3906340220224442e-11 -7.574330181929054e-11
-2.5734500178683783e-11 6.013789027446806e-11 -9.968660636420484e-11
-1.8810315055526303e-11 7.580452077159759e-11 -5.408136050128071e-11
-5.326768696304414e-13 9.279505983325149e-11 4.65048275651911e-12
1.6219388538373825e-11 1.0839108203506919e-10 1.1701744102299318e-10
-1.3684033102723473e-11 6.278362331984967e-11 1.2326856641452796e-10
3.073592033103456e-11 6.683436764230179e-11 2.430052145374671e-10
7.855420184005959e-11 6.163169345741413e-11 3.72572094336234e-10
1.1582781864027684e-10 -1.124003302354521e-11 5.204383124563335e-10
-1.0314578706511879e-11 2.8766491057229005e-12 -3.215968242821774e-11
4.753441980086756e-13 1.714800678878662e-11 -3.075018727579243e-11
-4.7119453548142744e-12 2.543852293581236e-11 -1.5705531382695855e-11
1.4273715886747205e-11 4.8748433295333774e-11 1.7809683609610358e-11
1.561504943910796e-11 4.606332994377766e-11 5.254083930601124e-11
5.489907084227527e-12 3.937888668389402e-11 6.241780732460247e-11
3.776830686584302e-11 3.1579324439029483e-11 1.2005379872219813e-10
3.944434053000842e-11 1.642760682026004e-11 1.709760024672896e-10
-1.2522890562377837e-11 -5.152745840813565e-12 2.6657052506927266e-10
-1.4338816980563636e-12 2.3281538845287884e-12 -1.1178711143238393e-11
5.198615753206756e-13 9.14282044954089e-12 -1.036964616403082e-11
1.2200306006801042e-12 1.5921117566949337e-11 -2.857504532268506e-12
1.22594233937158e-11 2.586385910693584e-11 1.5665824640677747e-11
9.282112497389698e-13 1.75540417352235e-11 2.0862543377182757e-11
9.29975067344248e-12 2.299707250210043e-11 3.7342404025820904e-11
9.655339695606697e-12 1.1627050764585936e-11 5.144968372675641e-11
8.003639257185293e-12 7.773370086230027e-12 8.007588233840883e-11
4.319909866211415e-12 -3.844837427242638e-12 1.2406995642293547e-10
-4.1042662963567027e-13 9.075332323802036e-13 -3.305906669124315e-12
-2.0069557298251392e-13 3.851252338547057e-12 -3.2773758095746115e-12
-1.0252713656343939e-13 5.925908498129963e-12 -1.0699509380381388e-12
3.302076475848076e-12 8.266850162609247e-12 5.37816327618995e-12
2.050085862884462e-12 1.0289137031208794e-11 1.2155442632973735e-11
9.216228319386429e-12 1.3172381512885973e-11 2.2176300300215004e-11
3.313507743019259e-12 6.781103095341856e-12 2.825807815367159e-11
4.002867854033827e-12 4.940203306286573e-12 4.14367716934119e-11
-8.484518637516788e-12 -5.6321372961203165e-12 6.943914411817541e-11
-2.5434701667752504e-13 5.798626639247393e-13 -1.425201108321902e-12
-3.7872891296417834e-14 1.6417696862835152e-12 -1.049619218139676e-12
2.9493203249293434e-13 2.5279977071572223e-12 -2.4619541520421284e-14
1.0999650638767581e-12 3.8418877466198264e-12 2.806433142020973e-12
-4.0449739660562773e-14 4.427783371191112e-12 5.892425688218786e-12
5.172690298773857e-12 5.37963794619674e-12 1.2463538350448654e-11
2.053436837937732e-12 2.9278465539459996e-12 1.2770940047491957e-11
2.6421556624444202e-12 7.734369787022059e-13 1.6015864331839678e-11
5.903859248904533e-12 -2.71385511668223e-12 2.7200789563259746e-11
-2.349509372656029e-13 4.2565802159895654e-13 -4.656997140134814e-13
-4.255629644588199e-15 4.4567256248351215e-13 -3.91655674218291e-13
2.306864787219414e-13 9.897867861861629e-13 2.469472613441789e-13
9.577751744318964e-13 1.961899796242469e-12 2.030198086126839e-12
-4.989359899376776e-14 1.714816347077824e-12 2.459109969845478e-12
3.4462924261071767e-13 1.3883990265771887e-12 4.3819709674958546e-12
8.826233513983696e-13 5.995451780957677e-13 5.926948407104785e-12
2.24853012996135e-12 3.972466557975125e-13 9.424158776846389e-12
-1.507631648005769e-12 -1.1785852874132456e-12 1.539357404603133e-11
-4.2589976548926554e-14 2.3321041951728157e-13 -2.4214022170889764e-13
3.879236960387482e-14 2.8003703667711164e-13 -1.235253350977153e-13
-3.048197324651309e-14 5.409112621240698e-13 3.012812362817977e-13
3.005377014252302e-13 9.176682956642515e-13 1.0638340455990682e-12
6.572831955564584e-13 1.0500246533119082e-12 1.559543674147186e-12
4.2426794952900313e-13 8.460411059965189e-13 2.2704008567194048e-12
6.122807667359583e-13 3.1876250753229007e-13 3.070460293124339e-12
1.0827705139758028e-12 2.326241540177639e-13 4.705042700145533e-12
6.449814152020275e-13 -4.99269880116613e-13 6.366513631949547e-12
3.060714670725779e-14 4.951922654797298e-14 -8.431201777708584e-14
4.215772822407607e-14 1.3331058086499162e-13 -1.9885778792766342e-14
3.096111162577736e-14 2.443191147640873e-13 1.4317486141654174e-13
1.2647627638601884e-13 3.773408251706259e-13 5.255491340153917e-13
-4.9100830327159205e-14 3.562245760420729e-13 8.764880078969848e-13
4.007384114480617e-13 4.749810925223722e-13 1.3776212155879992e-12
4.598329358393726e-13 3.746160508578692e-13 1.814242609743059e-12
3.6415445868953866e-13 1.8596798088140565e-14 2.395299451169921e-12
-2.4396033498620397e-13 -3.7314034722734987e-13 3.505126343923071e-12
4.152139122017149e-15 1.3646675108259058e-14 -1.933990265273593e-14
1.3468998494389412e-14 3.711553601904165e-14 2.3996619265041413e-15
4.3800990303917845e-14 9.611028646247612e-14 9.958958845996148e-14
1.2874537705029951e-13 1.8477045375605234e-13 3.8868327804055007e-13
1.994190955393525e-13 1.785349668579756e-13 3.9679374445823625e-13
2.528315561750704e-13 2.1192714296403688e-13 7.449248387545861e-13
2.1387002672192684e-13 1.1520832286236319e-13 8.901426276599404e-13
9.479943166792165e-14 -2.922898011584469e-14 1.0440338756637478e-12
-3.5042679281806075e-13 -2.9465924291767263e-13 2.0239561344845615e-12
2.0360242715399094e-16 1.641215845576627e-14 -2.5863604766027906e-15
1.648382491040271e-14 5.69731377691293e-14 3.389007180626442e-14
3.288661479346094e-14 8.760858389564714e-14 8.343978378078745e-14
5.771021459914024e-14 8.32455082247036e-14 1.8361191004188113e-13
2.887609235671337e-14 1.2086075165199621e-13 2.0666467997752361e-13
3.908057149497698e-14 8.867280748257197e-14 3.302027097898505e-13
3.876607541803343e-14 4.1275856195204385e-14 4.327836112000337e-13
1.3514949308775154e-13 1.1858181269157224e-14 5.767063890121184e-13
9.1232900414157e-15 -6.34811027794651e-14 1.0293446894122818e-12
9.369000019102103e-15 2.3931896954942036e-14 1.2422226369168385e-14
8.447590734245433e-15 3.55291075167114e-14 2.637152599279806e-14
1.111244513047736e-14 4.345809513536391e-14 4.6779024175329937e-14
3.562671230761467e-14 5.532658873318855e-14 1.0842991114730693e-13
3.3927819925578674e-14 6.289611151510565e-14 1.0472173905710491e-13
5.274605719907206e-14 4.3118279267113765e-14 1.6624579380286466e-13
3.321869598798825e-14 2.2683346114649678e-14 1.9439538542927685e-13
1.0972075226110868e-14 -2.138433154870626e-15 2.354588791760963e-13
3.609504818080563e-14 -4.451390485621401e-14 5.361836559695611e-13
1.5259615177305245e-15 1.0313766739198586e-14 8.4053540631193e-15
5.654007840918701e-15 1.5505714074196786e-14 1.7267820793933533e-14
1.3884582620702035e-15 1.4614048168793723e-14 1.6750713184783926e-14
1.6566617336665323e-14 2.437552703731559e-14 5.00521811176356e-14
1.0105292088551507e-14 2.558652898548031e-14 4.9193951378866604e-14
3.503805571940624e-15 1.2603370211593504e-14 5.96460616756847e-14
7.817566152929073e-15 1.2544791077138976e-14 8.004392229714315e-14
3.951543769228225e-15 1.7847278226368533e-15 1.0356315801633509e-13
-4.5393522532933065e-14 -2.7585484451933523e-14 2.753643441310815e-13
3.325321632768403e-15 7.499558550242513e-15 6.68673751483304e-15
3.1900579950300453e-15 7.5903540331105e-15 9.760615080222863e-15
3.007643659226938e-15 9.131920132310895e-15 1.3399015695697425e-14
7.962805184817788e-15 1.192338011244831e-14 3.017460970475219e-14
5.509262618008924e-15 9.176204941913647e-15 2.419436243877054e-14
9.076912160511254e-15 6.556572212698581e-15 2.6539767881085744e-14
3.8504953782367915e-15 8.72933909803816e-15 2.971581691081755e-14
-8.422161352203156e-16 6.378374471935079e-15 4.500311102579113e-14
1.5515820817162267e-14 -1.5317757975059192e-14 9.732045190879384e-14
-3.047311845146545e-16 2.032185192624768e-15 2.6512389763265618e-15
1.423885376214993e-15 4.023602272978921e-15 5.768388185159494e-15
2.6359098009540006e-15 5.2163952467917565e-15 8.704173539101626e-15
5.710475170974133e-15 4.728838801810504e-15 1.5705591271017927e-14
2.6750674424007222e-15 2.7919625791519067e-15 1.0486039285071277e-14
2.643112183641186e-15 2.2070265714547216e-15 1.3319456103898076e-14
5.534717217078755e-15 2.6930284565553183e-15 1.825868820712489e-14
6.117229486347167e-15 2.127396459767791e-15 2.539560147229677e-14
1.8731139394053336e-15 -4.458305026602101e-15 4.9104691703760227e-14
1.392390806126868e-15 2.1620265362638538e-15 2.043321228185871e-15
9.781038621148495e-16 1.962255583474943e-15 3.2743278439758405e-15
1.809826215697295e-16 1.831371330696764e-15 3.5167509386814443e-15
2.8504597649402945e-15 2.454580236473978e-15 8.28148831748083e-15
2.2078518146208528e-15 1.5987986632875418e-15 6.1279638364807175e-15
1.6408273249829988e-15 1.6107187963893309e-15 8.26209822832621e-15
5.217185605606312e-16 1.7563258787171903e-15 9.489504225332168e-15
1.1179607441072644e-15 2.4460139963858383e-16 1.4732601615460875e-14
-3.8560364719795795e-15 -2.6105193685699306e-15 2.6889023035201408e-14
2.240871675395792e-16 6.158949648112355e-16 7.710398035456221e-16
-1.5531032909255086e-17 5.924406630254933e-16 1.3402579311998148e-15
5.955159252276271e-16 9.77590621849883e-16 2.1808679294809578e-15
7.108825517243295e-16 5.450180515830643e-16 3.004282468527425e-15
5.13637922646725e-16 3.218918767885719e-16 3.0163131916570237e-15
6.480107903111263e-16 5.455826594657214e-16 4.053050472218151e-15
1.1521622149509458e-15 4.119607447788822e-16 5.0111054442314e-15
1.0190401114513085e-15 3.766903507674192e-16 7.340974945123935e-15
-2.623809658321782e-15 -1.3470100344061407e-15 1.4817150841954282e-14
2.5793554340005974e-16 5.813426499577745e-16 6.391739804140823e-16
4.147699044290042e-16 6.017913151772537e-16 9.405539783467262e-16
6.098767432693686e-16 6.291194563706185e-16 1.3786283264662713e-15
9.538807971778193e-17 3.18362306577677e-16 1.3448734256818636e-15
6.144529805465151e-16 3.9225476739113177e-16 1.849609953719177e-15
5.387357846822583e-16 1.445663948697504e-16 1.986085637894364e-15
4.2551308989676056e-16 2.469947266362236e-16 2.3954535880476987e-15
1.0646977713661936e-16 1.1614302989419058e-16 3.768202939598314e-15
4.116721374678283e-16 -8.355883599401469e-16 7.934248518845088e-15
5.246904284171182e-17 2.7153712074482245e-16 3.4920529954981593e-16
1.1997290469149422e-16 2.0796150311076442e-16 4.50008821291829e-16
1.2884992843293896e-16 2.18022471317921e-16 5.334670319468667e-16
7.765405935879147e-17 1.9437643399735058e-16 5.935639710951859e-16
1.6661040055516893e-16 1.5077517555217447e-16 8.420232638371646e-16
7.640905474727647e-17 1.271609065995668e-16 8.679452565394137e-16
1.5069317073821656e-16 2.24481352708827e-16 1.1760819143811067e-15
2.395244129981123e-16 1.151279171099323e-16 1.880230706769247e-15
4.529722334764878e-16 -4.740179936801045e-16 3.1485485671010905e-15
1.0490171199409985e-17 1.2356052260615335e-16 1.82113378622714e-16
3.1626439549699277e-17 1.0104895048792267e-16 2.280586996032984e-16
2.3475033198294816e-17 7.09413680424066e-17 2.6276637609095547e-16
3.0550343854996257e-17 6.242796228101074e-17 2.837925451438503e-16
1.731494402280507e-16 1.1644995686818344e-16 5.462237679329049e-16
1.0223853992027631e-16 9.812609975119604e-17 4.800666052330377e-16
4.335916344719506e-17 8.460488231342106e-17 5.01416048864328e-16
1.5622688620934053e-16 1.440951700956168e-17 8.537762959873336e-16
-1.7601409667911672e-17 -1.9295025406363612e-16 1.5852382629811062e-15
5.033633388668499e-19 5.958759101336181e-17 8.344628004908699e-17
3.888109769196625e-17 5.889978863262e-17 1.2275355532213537e-16
3.961112128582163e-17 4.338192532336539e-17 1.432568281653019e-16
2.843551141990441e-17 7.023908138058748e-17 1.5127128599284733e-16
3.525187028647148e-19 3.1643254812963915e-17 2.1932705436008756e-16
8.273009745267405e-17 3.03920023410368e-17 2.490148577763867e-16
8.61746719668492e-17 3.477034905884522e-17 3.1113859469153297e-16
4.149420465291023e-17 -1.4679013424036225e-17 4.902993041470399e-16
-1.2656087593202592e-16 -1.2469910461652303e-16 8.381734519033958e-16
1.946300000951425e-17 3.6758211594728e-17 5.5411142528457585e-17
1.1747721541025869e-17 2.4550894749178586e-17 4.8705662516427324e-17
1.702227583894803e-17 2.3399584441915687e-17 6.959709136745269e-17
3.824933994337488e-17 3.597626726073797e-17 8.928083434408314e-17
4.2855763473686393e-17 2.29396575242129e-17 9.116244376267023e-17
-4.293502633200057e-18 1.5490532740778563e-17 1.1836717583697627e-16
2.517608867735997e-17 1.2836729435217437e-17 1.4432327401136468e-16
6.638578218047798e-17 -6.706614399174395e-19 2.2657152567272734e-16
8.679080819398917e-17 -5.741302731518622e-17 3.4706855765677284e-16
3.105677436436457e-18 7.01977680702969e-18 1.7419655044787774e-17
3.236303443948392e-20 6.296406876920754e-18 1.861807993150953e-17
5.507692783249295e-18 7.88056208737061e-18 3.196783342999071e-17
1.453534046954782e-17 1.0324442547362443e-17 4.599229617760845e-17
6.1695907219012354e-18 1.4265773064368784e-17 4.70138378927572e-17
2.3431251053960382e-17 7.431138933480088e-18 6.682447791983263e-17
1.7304703222975636e-17 4.089841425429669e-18 6.99942632607847e-17
1.9737454521701992e-17 -2.8529649340111797e-18 9.898581310806934e-17
-2.722639721086127e-17 -3.193915616566107e-17 1.8514090246878354e-16
2.3606835245590046e-18 3.937176648938423e-18 8.98681117550479e-18
3.872764814719377e-18 3.749309465031655e-18 1.3235264819783168e-17
1.5659753197572205e-18 3.1506023620915946e-18 1.3881915727897374e-17
5.104353046776859e-18 7.74254649024874e-18 2.4082796588210336e-17
1.5631546311834295e-18 5.934881313238249e-18 2.086344484544937e-17
1.1672649938798278e-17 5.679376898034361e-18 3.609399558735343e-17
7.260560798006893e-18 5.214435850268657e-19 3.4470317617544534e-17
4.623088170596768e-18 -4.2463559880366485e-18 4.352267135746352e-17
7.54441200986384e-18 -1.180356790763947e-17 7.456220634980411e-17
2.5580216155389005e-19 2.1059908669212137e-18 3.565668066532542e-18
2.6663684903815668e-18 1.6778773717719238e-18 7.989395204513195e-18
2.59088331486177e-18 3.0820196829360284e-18 9.92265179568327e-18
2.924467966784059e-18 4.3774890556136646e-18 1.391780263703602e-17
9.852022234660624e-19 4.6372141983349046e-18 1.0992728484635513e-17
2.6073755319236576e-19 1.7609524492418684e-18 1.0640142447488122e-17
5.824771079189617e-18 1.593686909206406e-18 1.629254710375537e-17
4.605221041708158e-18 -1.24657235086677e-18 2.277823174742934e-17
9.451360285417632e-18 -5.0501751663379634e-18 3.204466606007695e-17
6.245733046571226e-19 9.791962126524762e-19 1.8948108626578062e-18
1.0639003898500313e-18 1.4188343933865834e-18 4.384726779880151e-18
1.8731893820795796e-18 1.7240744324843575e-18 6.0823930801493384e-18
2.5912720941176684e-18 1.7556813200774425e-18 7.422901371266714e-18
2.782208799523956e-18 1.9171024383223677e-18 6.969100521104813e-18
6.869829104195076e-19 2.992295697127099e-19 4.409233632044597e-18
2.2567615961747578e-18 9.404536604446495e-20 6.923688403565626e-18
2.1765277350027333e-18 -6.295850894417423e-19 9.773609838300723e-18
-1.154858177489092e-19 -2.686169455330161e-18 1.7793748698598654e-17
3.588421269949614e-19 8.160299132436148e-19 1.133629195336945e-18
5.137622103223111e-19 9.568162205752446e-19 2.246579109837747e-18
5.129741111131158e-19 7.331807682630136e-19 2.8976240628732223e-18
8.55407975176589e-19 4.554561356481657e-19 3.162829175312716e-18
3.915012868694066e-20 2.9378585121243056e-19 1.9643157774105826e-18
5.003691225424214e-19 1.0320382404442679e-19 2.0875239762453837e-18
3.6955096536238003e-19 2.300749603377533e-19 2.6793560336910395e-18
7.336513924519545e-19 -2.774968575308491e-19 4.0828799159949986e-18
1.6402966698388675e-18 -1.2380636339144923e-18 7.93534601941006e-18
3.445323038211678e-20 3.380746090285265e-19 6.271685290682762e-19
2.8773292639103027e-19 3.396172963561647e-19 1.0931395828847122e-18
1.3025959489561415e-19 2.174976582017963e-19 1.1922349349056648e-18
2.77733854583081e-19 2.2858452748817755e-19 1.441937298090174e-18
1.8333534612888284e-19 3.6841206314481905e-19 1.2508528411421191e-18
1.679909370463987e-19 1.347824307493323e-19 8.342305645551198e-19
1.5825169495409766e-19 1.0268093201912806e-19 9.012460717093928e-19
6.698838013212138e-19 -8.388833301583e-20 2.2540351109299583e-18
-1.9305429423097064e-19 -3.63190669317915e-19 4.617829290555483e-18
5.936062114445852e-20 2.1334476146569311e-19 3.5899578490638475e-19
2.0037411934673167e-19 2.413769768700729e-19 6.121008836485572e-19
1.9398407489723346e-19 1.8014113309606814e-19 6.4884098669075325e-19
1.5159244994140246e-19 1.6231771364627877e-19 7.888614553943038e-19
1.41613536983689e-20 1.2977529215522614e-19 5.623568519260592e-19
2.3571346613126697e-19 1.0261767786942607e-19 4.344227278760238e-19
1.0807655229902661e-19 7.655382301882625e-20 2.960438517933215e-19
7.64087411663371e-21 3.3877813478171806e-20 1.008644742980288e-18
4.2010229610792164e-19 -2.2551682103404437e-19 1.7793759911528307e-18
-8.66015116279448e-21 8.665202528835991e-20 1.3549792279903268e-19
3.411351399431088e-20 9.025229634711235e-20 2.4928964791870718e-19
5.38970409730254e-20 5.4876118422347e-20 2.8248374336068645e-19
1.0456308873457686e-19 5.009178881246592e-20 3.330206575707015e-19
1.4777158120097814e-19 7.735329810038136e-21 2.3048984093413037e-19
1.321518713056176e-19 2.5716139744783047e-20 2.5490508503854533e-19
9.517825809064772e-20 3.3228606734659394e-20 2.327707490060046e-19
9.110380855458021e-20 1.8041494903966388e-21 5.380450149781886e-19
-1.8765789368533474e-20 -9.610496855724924e-20 8.422760591540419e-19
-7.149623342637296e-22 4.177203149048028e-20 7.121374514903987e-20
4.663216512232023e-20 5.1556141674653494e-20 1.3791861052954251e-19
3.540730915089082e-20 2.5253296849313315e-20 1.348381235936123e-19
8.08053627056154e-20 4.475610694162619e-20 1.7995392032015346e-19
-1.019198510705034e-21 8.305419720884065e-22 8.160096926008973e-20
3.135256913227369e-20 2.1596684305932136e-20 1.309026780747621e-19
1.83099986118845e-20 1.7221353755656516e-20 9.633266987615373e-20
7.362249709074256e-20 8.926656284008308e-21 2.4743116779464335e-19
6.201977133962132e-20 -5.3167418954368924e-20 3.9368978572646343e-19
1.62039171127642e-20 2.835151151132024e-20 5.2734999090502085e-20
1.670684995349815e-20 1.803348617569007e-20 7.210951427276603e-20
1.80033050349199e-20 8.267283524112785e-21 6.734483490143909e-20
2.4769565599355712e-20 1.1093633214199287e-20 7.890957686779381e-20
-1.8330895371086225e-21 8.999287871536657e-21 2.1392465667369404e-20
2.2886865717955836e-20 2.9514649375901843e-21 4.2230338087291285e-20
1.4474724762879282e-20 1.3008851989238956e-20 4.5395891558180235e-20
1.1545687094886766e-20 6.179722772328016e-21 9.974762406492849e-20
1.5977518541770708e-21 -1.7007334504100628e-20 2.1485635746948295e-19
7.512757364490631e-21 9.814232920542343e-21 2.6656174570262464e-20
6.892654382075883e-21 5.567467448338967e-21 3.306380108816964e-20
1.2430408530390974e-20 6.7622795620541444e-21 3.9866448749476144e-20
4.929820747128658e-21 4.4703207817280174e-21 3.67313502019718e-20
1.8672834875440958e-20 1.2427097350267643e-20 1.8160608238732325e-20
9.572343679547361e-21 -9.450526948405976e-22 2.3051406645363882e-20
8.51463906197564e-21 9.671981374618166e-21 2.3052103731061447e-20
2.8761090688473444e-22 3.0265244313435747e-21 3.258996794525934e-20
7.807209376170662e-21 -6.667169183452775e-21 8.330854513994623e-20
-2.4328400016180174e-22 3.0887514281137477e-21 8.853450775280591e-21
2.686941988843452e-21 3.6145782159662265e-21 1.6181596871884817e-20
2.0109137176764223e-21 2.437344734080967e-21 1.732572169620662e-20
3.085129557191451e-21 9.742670954123856e-22 1.567784507736324e-20
1.0604004906511678e-20 3.8730085238005156e-21 8.874070489678797e-21
5.121181255066662e-21 5.223486473320936e-22 1.4507939758096313e-20
6.857024860851538e-21 7.054010503118329e-21 1.4084329338846312e-20
3.457118011728451e-21 3.38916709119049e-21 1.9348278206768657e-20
-6.696210491004496e-21 -7.451351037793222e-22 4.5795461266369786e-20
-9.875385096982771e-23 2.145608301681721e-21 4.166032900581293e-21
1.5288364233779943e-21 1.902786797260775e-21 7.888391928255446e-21
2.824108467602739e-21 2.2911529322207814e-21 9.792283835231223e-21
4.777398205466438e-21 1.1942729305570046e-21 9.71942718289106e-21
4.377477964347939e-22 5.358253663622787e-23 3.900004292808304e-21
2.3028062816806118e-21 6.672482761562229e-23 6.3157125414552715e-21
3.0746779089671133e-21 2.0151665720416325e-21 6.4346803599668214e-21
2.5435232618158755e-21 1.056678436785985e-21 9.700746215110674e-21
3.9720223200826534e-21 -1.5089911447883532e-21 1.9675450997643677e-20
-4.079326770447737e-22 9.020179841945371e-22 1.668442161483895e-21
8.820885636303507e-22 8.626290046747816e-22 3.9082409585602496e-21
1.700611153055434e-21 1.5563209843265726e-21 5.352206042802679e-21
2.8816513090917064e-21 6.136398620619874e-22 5.604916352875238e-21
2.2361064644905794e-21 2.0383355047921926e-22 3.7091144615381804e-21
1.6687657083510798e-21 2.3285323694186724e-23 3.5945533017806814e-21
1.2018474863134235e-21 1.0052027667086477e-22 3.363797095799291e-21
8.018923452022668e-22 4.167536686080186e-22 5.0414839701620746e-21
-1.463794412551938e-21 -7.377224240022535e-22 1.1842081097113063e-20
5.121795847707255e-22 7.300626855979786e-22 1.173918836879987e-21
6.648509981779814e-22 6.771628834293183e-22 2.1084916974420114e-21
6.172030112959744e-22 5.430632090515935e-22 2.3650561657629283e-21
1.3129092789466e-22 -1.3270351865526326e-22 1.9220680457358106e-21
1.4396262855264632e-21 3.9586063849479375e-22 2.20695245988691e-21
7.852386760431703e-22 1.7710954996248292e-22 2.0951579987818243e-21
8.495612391710166e-22 2.3384978966502857e-22 2.0887513512689333e-21
1.197916146160671e-22 2.3604574993258493e-22 2.3262976227900584e-21
1.1544894514986108e-22 -3.1050360390922424e-22 4.478956017000051e-21
2.654636629127414e-22 4.840416279733818e-22 6.981732285522552e-22
2.471650741474858e-22 5.367343365259464e-22 1.087024825704641e-21
3.216175291992971e-22 2.5318763529647425e-22 1.2332971984510165e-21
3.160079012297579e-22 -2.4576385718880373e-22 1.087318042189824e-21
8.526290084942132e-22 -4.258289146932751e-23 1.5289360315687245e-21
7.459480308859316e-23 -4.1476456761332615e-23 8.092091019520439e-22
6.964123070801222e-22 2.6574483166599156e-22 1.1146504026999892e-21
2.422051077827877e-22 1.673218772472281e-22 1.3628599548044394e-21
-2.733647604599913e-22 -4.345173398661371e-23 2.5989406064172097e-21
6.49980361366118e-23 2.1061919276493733e-22 2.3078781876480164e-22
1.4088896957932938e-22 4.136444812651654e-22 3.917177333301628e-22
9.030188850992924e-23 5.906437181130704e-23 4.0936424860600975e-22
3.171707214442364e-22 -1.3343601684594237e-22 5.58855292589974e-22
3.8399419136156265e-22 -1.6784728555204743e-22 6.052045200774177e-22
1.9803837896521373e-22 -9.941889564731452e-23 3.876613041633351e-22
3.8204279371964047e-22 1.724500608003819e-23 3.4679101310296915e-22
1.4864084898638487e-23 1.491247112333054e-22 6.666568279816242e-22
-1.1724790473781017e-22 6.036072951386755e-23 1.2152591132212959e-21
-4.200618936621267e-7 -3.46079393476123e-6 4.270298654991826e-6
-7.824700073471326e-7 -3.0158300740335476e-6 3.914958832983006e-6
-6.555967608262694e-7 -2.8920560525931294e-6 3.7503235986329663e-6
-1.5899556871646808e-7 -4.428969416282623e-6 5.6092479139069386e-6
-8.302103458099567e-7 -4.078351990143131e-6 4.4930277752473155e-6
9.01074925828393e-8 -1.8428090174444805e-6 1.7798828106354782e-6
-1.5905839151417932e-6 -2.684886114106573e-6 3.2305254770944215e-6
3.4223719667201473e-7 -3.3543333851088527e-6 3.902220791230622e-6
2.5457567363667145e-6 -1.4263210740373838e-6 5.546287396103299e-6
-1.4430823286510815e-7 -7.924574560914627e-7 1.3169418550324214e-6
-4.414480992840222e-7 -8.087249406205067e-7 1.5051836955012115e-6
4.152471800291618e-7 -6.096664614681127e-7 1.1188433213042084e-6
-1.3406120452735427e-7 -7.665144266783433e-7 1.981668575103569e-6
2.024302843457524e-7 -6.002199243130892e-7 1.4264432724289107e-6
-3.1241715105270496e-7 -3.4005029632643416e-7 5.826038776880687e-7
4.2761407110654086e-7 -6.969582958955715e-7 1.1515716677646327e-6
5.307361052901087e-7 -1.4915056394710594e-6 1.991283733798183e-6
5.736955671762291e-7 1.0632252833947381e-7 1.68353129167889e-6
-9.467973993825853e-8 -2.9591144407748557e-7 5.753958340919318e-7
-1.9934656379497252e-7 -2.391542600063793e-7 5.884903351390609e-7
1.106565988961943e-7 -5.939491392728401e-8 4.3407522621514587e-7
-9.1758732518254e-8 -2.0363325307021104e-7 4.6699123262213934e-7
-4.953075009460889e-8 -1.6104707466059377e-7 5.336680704791324e-7
8.260798538254745e-8 -1.2840830972631254e-7 2.985934324310494e-7
3.305812389394429e-7 -2.523771702410104e-7 6.803977055192689e-7
-7.231159839077163e-8 -2.0235970258579488e-7 6.391590140493593e-7
2.050799125554759e-7 -7.003161789406084e-8 7.121561609693232e-7
6.697088923947639e-9 -4.390315021014726e-8 1.6099087127880042e-7
-5.194278571439292e-8 -6.658952576242186e-8 2.5440015315783567e-7
-7.720744037775764e-8 -2.9729404158340465e-8 1.744385659673291e-7
-9.78200429283499e-9 -5.022593360777689e-8 1.8621099427806872e-7
-2.0101577134925108e-9 -4.131142984632779e-8 2.027412464029286e-7
1.285511140699587e-8 -5.1942520024996925e-8 1.2688649869948213e-7
2.2009112205318475e-8 -5.155396038612061e-8 2.5688680104198224e-7
-8.209651049066339e-8 -4.16422052449244e-8 2.3814598478041364e-7
4.077165489394719e-8 2.7156850530735358e-8 1.5703851354688498e-7
1.1120814114631883e-8 -1.3264843030251037e-8 2.8526116292005775e-8
7.929256437928207e-11 -2.2897976693689454e-8 1.0450505148698271e-7
-6.074504595702991e-9 -8.852595292793803e-9 6.800195790527522e-8
-2.472106541278509e-8 -1.5634178319470533e-8 6.480539845931e-8
-5.247394373625274e-9 -1.1848219648345665e-8 8.960890353633278e-8
-6.054636734059179e-9 -2.3675472600072375e-8 4.993444277215697e-8
-4.973518504302312e-9 -2.021716784187222e-8 8.313122041499943e-8
1.1292751460134412e-8 -8.960175910731732e-9 9.199764865068411e-8
4.218703285086764e-8 -2.41005964623477e-9 5.2861812388055115e-8
4.137010385766486e-9 -6.436465432799372e-9 1.372272783198169e-9
-1.3232175889839015e-8 -1.3352090439886378e-8 4.5627497500575235e-8
4.2525757215901035e-9 -4.429337938484424e-9 2.3704781747792134e-8
-5.203824020849173e-9 -4.777999005996725e-9 2.3600609310266172e-8
1.597585229161851e-9 -1.4149220182409437e-8 3.84905389403972e-8
-6.1094127361856515e-9 -1.170667343574049e-8 2.281334222304686e-8
8.227987685577001e-9 -1.0590988938219928e-8 3.553824893330844e-8
-3.5785631351014393e-9 -1.0520033098090467e-8 4.372170260369462e-8
-7.399890943518497e-9 -8.736139437652558e-9 2.8498260304093743e-8
1.4204839345957805e-9 -2.8930869090584514e-9 -3.0861356680765555e-9
1.8571175900976436e-9 -6.367512037692522e-9 2.0179199580148667e-8
-2.1369614581443265e-9 -4.902682621551643e-9 1.1409049940489087e-8
-1.1325688407737898e-9 -2.8561779697716173e-9 8.579055296335843e-9
2.3807907887719565e-9 -5.011659979974142e-9 1.636608368349027e-8
-2.0170270980381368e-10 -5.03174332481232e-9 9.525109424125576e-9
-5.978484963494489e-10 -3.6241197083678588e-9 1.2252338201010341e-8
-1.0085570891791783e-9 -4.205862634089483e-9 1.7976091643559167e-8
1.7978605801092895e-9 -4.7311675887611e-9 1.0039588116426694e-8
1.198977566240558e-9 -1.8338653686681313e-9 -2.0028289803337705e-9
-9.873313796617723e-10 -3.1142604544443456e-9 9.236668498230436e-9
6.305463219256247e-10 -2.1072015103219588e-9 4.401604141968747e-9
6.332488175422591e-11 -1.172105209156744e-9 3.198170261613583e-9
6.157225583910956e-10 -3.397168116166989e-9 8.091580050751204e-9
-1.3635301501533196e-9 -2.9001534272588305e-9 5.7015457755404136e-9
-1.0796620702411818e-9 -1.9024419003695062e-9 4.882267228842283e-9
2.9826895465371065e-10 -1.6875869439939715e-9 7.324460172572005e-9
2.1338655608186634e-9 -2.2605554062270707e-9 4.0962382322234384e-9
2.0187002526812458e-10 -1.1376833733033738e-9 -7.30493789776856e-10
-4.292765494331077e-10 -1.1720957440719392e-9 4.076005612567485e-9
-9.212441811546304e-11 -7.415923612746992e-10 1.4105106511465312e-9
4.628075142158398e-10 -7.395809601647169e-10 1.4922728432788638e-9
-5.446933290032144e-10 -1.5528999960884849e-9 3.8532207990594046e-9
-1.005611140761122e-9 -1.655795578824592e-9 3.399359617667289e-9
2.2258969727659103e-10 -1.0540565905545494e-9 2.6093111016669243e-9
-2.3477517501009316e-10 -7.291004171513897e-10 2.9704070891148336e-9
1.3782500812412353e-10 -7.584032695762597e-10 6.278769401956664e-10
-3.18585542886105e-10 -7.624722669622169e-10 -1.9508447999393642e-10
1.9272175075275922e-10 -6.598157425166634e-10 1.990910274718733e-9
-9.352951879165545e-11 -3.5706610993177883e-10 4.815395374757389e-10
1.6697991747566538e-10 -2.4307385268643846e-10 5.811825401785823e-10
3.1084997889837485e-10 -9.228002995819216e-10 1.918123424524855e-9
-2.1763125300659957e-11 -7.046958594734752e-10 1.794924810480953e-9
-6.324858083824088e-11 -4.73393190411728e-10 1.1825177593154805e-9
-8.519856149415925e-11 -5.343296927606512e-10 1.4031380407324475e-9
3.6215598732103186e-10 -5.028752870465718e-10 1.1609663431128603e-10
-5.355519856025838e-11 -2.352365687728503e-10 -1.7444487909319717e-10
1.1227208727475255e-10 -2.7992950487734354e-10 9.397902182425256e-10
-1.4628711242912613e-10 -2.301994366504039e-10 1.8637387041880356e-10
1.4646587426515533e-10 -1.3482523967343481e-10 2.842376761722664e-10
9.08213134619082e-11 -3.0879090211624606e-10 8.275359587019871e-10
1.3812865293157503e-10 -4.186099641610024e-10 9.163383271259756e-10
-4.231286446293953e-11 -2.6619062953981063e-10 5.566114681099289e-10
-4.431195702344499e-11 -2.374074710673478e-10 6.26539220815133e-10
1.55150095541785e-10 -2.0083063029478945e-10 7.320436999429196e-11
-5.4126436362487846e-11 -1.1809114847750448e-10 -9.463845924840207e-11
3.8597601529047297e-11 -1.2998415961747857e-10 4.2879635092166106e-10
-3.196804693798969e-11 -7.437925788105797e-11 4.8730317411032274e-11
2.9691214380075985e-11 -8.56449714451138e-11 1.42290649717298e-10
-4.503645933971191e-11 -1.1929066540656783e-10 3.1052821505704746e-10
-3.196019655165728e-12 -1.7125571473026395e-10 4.013823093266862e-10
4.769770725992705e-11 -1.0558098230560434e-10 2.5007679839890005e-10
-9.391169940335258e-11 -9.813768986419501e-11 2.979006883246305e-10
1.3990232498864648e-10 -3.612552860544992e-11 1.929390729517764e-11
-3.6177305441755585e-12 -4.556956000487705e-11 -5.926733281227862e-11
9.962519369654242e-12 -5.734537143638539e-11 1.990790155934185e-10
-8.627931988496495e-12 -5.1167135470280907e-11 3.369587972049436e-11
1.362199386629179e-11 -4.0580969498537937e-11 6.9927695002639e-11
1.9449305422063587e-11 -4.020099546307504e-11 1.230492974122575e-10
-5.1953201313600796e-11 -7.835534175301169e-11 1.7952994413886454e-10
1.9370394717958115e-11 -5.936434408400367e-11 1.223373924266188e-10
1.0087357608782183e-12 -5.647411147676954e-11 1.2590152739816182e-10
4.064886674518649e-11 -2.414778515104305e-11 -3.3239873968466833e-12
-1.4305205435454555e-12 -1.5535171990072582e-11 -5.0237667393853256e-11
-1.7667245046838013e-12 -2.243430074111633e-11 9.48242588464099e-11
6.315248530947724e-12 -2.253980918200145e-11 1.474866304226937e-11
1.4212354211011097e-12 -1.754401508514894e-11 2.8648367041818578e-11
7.562063235988256e-12 -2.1300789269317183e-11 5.792683626241858e-11
3.934658052537523e-12 -3.5518503913474394e-11 8.960643112006584e-11
-1.2649326396730988e-12 -2.674967168458404e-11 6.278849376112785e-11
-9.129577220212615e-12 -2.6688523729138634e-11 6.46302261943032e-11
6.0162353189524926e-12 -1.4217860133951056e-11 -1.7296154126315673e-11
1.2885659203652514e-12 -5.663075948398973e-12 -2.851211419539336e-11
1.9562323980346518e-12 -8.130031458786622e-12 4.571644649324665e-11
-1.3664755460356803e-12 -1.002828090282577e-11 3.3447948201254003e-12
5.600155848529898e-12 -8.775612251433263e-12 1.4729418849233154e-11
-1.1315304856755027e-11 -1.2516629701342686e-11 2.325067151875165e-11
4.709170820959239e-12 -1.5843421793393397e-11 4.154309688928822e-11
-8.53746492340976e-13 -1.2674623375900821e-11 3.030354881582139e-11
-7.271371739233562e-12 -9.688551375320627e-12 3.417751133812665e-11
1.2203025924396564e-11 -5.088905236033822e-12 -1.7809439470538047e-11
-3.0067271652033386e-12 -4.2414796275023845e-12 -1.598743887567106e-11
1.5064186015826033e-12 -4.122899986585486e-12 2.183848500635617e-11
-8.485658995802688e-13 -4.410753020330951e-12 -5.758455945642884e-13
2.0699378945721272e-12 -2.89651665773157e-12 6.7967660404706145e-12
2.6306155719824223e-12 -6.718829381206345e-12 1.4213176812546532e-11
-3.2799619766664616e-12 -1.0347997307325632e-11 2.2030807634064107e-11
-1.2527127388714285e-12 -7.993918203364373e-12 1.501772737261777e-11
-2.9802996615466694e-12 -5.081162224443624e-12 1.62688627252996e-11
3.2659502658061783e-12 -1.5882291359673142e-12 -7.585050360223554e-12
-4.706311028093373e-13 -1.2781953707393097e-12 -7.490290067950534e-12
5.106741594061854e-13 -2.424288021754922e-12 1.112720743038778e-11
-3.004061528621016e-13 -2.838410285725641e-12 1.0243314151665509e-13
5.739440519346274e-13 -2.1236850481222283e-12 3.3911275812357674e-12
-5.631219808487214e-13 -3.841091976762323e-12 7.922814452400552e-12
-1.6631643236117418e-12 -3.8953693034033795e-12 1.0094084021156847e-11
-4.698380060182996e-13 -2.4663055653841515e-12 6.06296187774082e-12
9.110451169966245e-13 -2.6438671375871646e-12 7.268822793191801e-12
5.736104123158043e-13 -1.6535518184788596e-12 -2.0012927946650306e-12
2.0382417290436258e-13 -1.3849930228198682e-12 -3.345649418119891e-12
1.1146304725535151e-14 -1.469576731635775e-12 5.454817982104789e-12
-8.265141619660394e-14 -1.144328336560817e-12 -2.2575468561352126e-13
3.0901432378463685e-13 -1.3886353901138227e-12 1.897266469012336e-12
1.0133738578962659e-12 -1.99562227882561e-12 3.7350910741930076e-12
-5.681672180592054e-13 -1.7092734935907983e-12 3.9953299322480785e-12
7.240232931847384e-13 -1.1762202871783392e-12 2.811250966651056e-12
-4.863424688787317e-13 -9.029254968136885e-13 3.1624535479692297e-12
5.507635201225692e-13 -7.951132593123398e-13 3.4840200763940595e-14
1.12965604945788e-12 -5.375549748231723e-13 -2.22293860974826e-12
-2.977906787315596e-14 -7.364823449642304e-13 2.737603892082734e-12
-7.828947993638427e-14 -5.478763249556035e-13 -2.2425077855154572e-13
8.405829386150903e-14 -5.701351261519864e-13 8.842055790179456e-13
-2.2607416831453674e-13 -9.92334766018272e-13 1.904123425729351e-12
2.7306436610125055e-13 -1.0538359236953507e-12 2.188600610993674e-12
-3.195861325132618e-14 -7.170737553653579e-13 1.229330869280678e-12
-3.012102228585493e-13 -6.318947264086548e-13 1.6391315077992551e-12
1.3656345350158973e-13 -3.2306148076512907e-13 4.3959758559444253e-13
3.0422461288690306e-13 -2.2526067389300684e-13 -1.0893339013792463e-12
-9.28498503950561e-14 -3.321303164234543e-13 1.4453711905153528e-12
-9.373052750320274e-15 -3.3197723587467384e-13 -1.1859001017849212e-13
4.237862180719641e-14 -2.8673041773499933e-13 4.625526111950624e-13
1.3114787093189595e-13 -5.347812634429203e-13 1.0238032836385745e-12
-5.003017787897533e-15 -5.420692710550942e-13 1.2324647398022657e-12
-8.968952878144621e-14 -5.171378184378385e-13 6.976952865389493e-13
-1.6607661178858658e-13 -3.963955826167187e-13 8.529658499609906e-13
1.039238213121757e-13 -1.4918125409503102e-13 -6.607903761937443e-14
-1.6721724542235931e-13 -2.563302318396478e-14 -4.94992371042753e-13
2.019351994004356e-15 -1.6066902952783544e-13 7.166171779662979e-13
-1.6222864536883381e-15 -1.5682668215313934e-13 -8.118667587490437e-14
1.8943059505553742e-14 -1.9672691619074822e-13 3.3154662826365e-13
4.370660577937188e-14 -3.066344758205513e-13 5.22834534502751e-13
-7.970974150358378e-14 -2.5989352427135675e-13 5.435974296506194e-13
7.093225170687407e-14 -2.7709481597971184e-13 4.2301189781146914e-13
3.0419898429760507e-15 -2.296228027237445e-13 4.788099390172006e-13
2.6686568026745418e-14 -8.583213677912408e-14 -7.636360262138511e-14
3.782148945159883e-14 -4.215022143831754e-14 -2.4727790433601603e-13
6.988595079148485e-14 -1.183931191372516e-13 3.5971699632781153e-13
-2.5466098944284477e-14 -9.106103609169444e-14 -5.080476645484596e-14
7.054582567793197e-14 -9.326351994868449e-14 1.9700353691393548e-13
7.011799851805002e-14 -1.5319890923543336e-13 2.8343616159724783e-13
-1.881781557173782e-14 -1.4061246826890868e-13 2.689549349224172e-13
-5.500412125896711e-15 -1.239353943297629e-13 2.031941399642879e-13
-2.4285528668296753e-14 -1.0333744168022074e-13 2.2915417345828354e-13
7.15875236405731e-15 -5.676082535775374e-14 -1.6853442567397752e-14
1.0632989274150531e-14 -2.1965046463949084e-14 -1.0856508345579332e-13
4.575048183782432e-14 -5.704943439146792e-14 1.9002216414955553e-13
-1.8411641402878697e-14 -4.8450237278637195e-14 -2.0801776989182564e-14
1.486762534962954e-14 -4.259645743473364e-14 9.278047386922135e-14
-7.601251943745784e-15 -6.050761167130197e-14 1.1586916185486497e-13
-2.6093597700253466e-14 -6.221087902833407e-14 1.309915734293986e-13
1.3438189788008871e-14 -5.4238253199943596e-14 9.363772644084898e-14
-3.096688467186342e-14 -4.416332381238183e-14 1.0581276647297868e-13
1.3093654483282656e-14 -1.5368214927790337e-14 -2.6789320267143705e-14
1.6245916553515614e-14 -2.0175877459941005e-14 -2.938143868953355e-14
2.0344468457946787e-15 -2.543758751722441e-14 8.592446048066633e-14
-6.445295605654607e-15 -2.1710212401422767e-14 -7.47015469123052e-15
3.533077815548229e-15 -1.0838438215500156e-14 3.525927079163898e-14
-8.063902383101432e-15 -1.9599389431589104e-14 4.4045485730665706e-14
2.506596608915053e-15 -2.6904686226886894e-14 5.856624687406843e-14
2.8664231946747656e-15 -2.2682387985811494e-14 3.8722406394745007e-14
-3.429271355927318e-15 -2.2814867347292373e-14 4.9950300499088447e-14
4.6947853166468504e-15 -9.843056341613449e-15 -1.5622577319449054e-14
2.025315767764711e-14 -6.407936081479316e-15 -2.945760376812814e-14
4.132726449742842e-15 -1.484414905162985e-14 4.44055417530847e-14
-4.1179231542842307e-16 -1.3841271840424021e-14 -1.3632886947862064e-15
-1.5682255228408576e-15 -7.989251335327692e-15 1.5773283056668758e-14
9.138302481725708e-15 -1.346264536410926e-14 2.4988507225657745e-14
3.888405183615737e-16 -1.4583477468759996e-14 2.8737691158861325e-14
2.7289611080696817e-15 -1.3384659623528644e-14 2.0590715679987105e-14
-1.9526451768984714e-15 -1.3186720410164404e-14 2.718170611954647e-14
4.706179452751109e-15 -4.651812463619253e-15 -1.0717106596701925e-14
3.8694086489635245e-15 -3.3931520095306467e-15 -1.499156979482783e-14
-5.905367328470363e-15 -6.330610677136727e-15 2.2493447994241156e-14
2.895393526541758e-16 -6.405966090352286e-15 -4.915215454971255e-16
6.609648309317451e-16 -4.1524350234433094e-15 7.0980773028504164e-15
2.308475496197546e-16 -7.837545943685607e-15 1.0944877741360977e-14
-1.608023142254968e-15 -6.965548159355794e-15 1.1881961114856847e-14
1.9317901540662677e-15 -6.236706863229026e-15 9.699874173250373e-15
-2.133544079884081e-15 -5.735587222229662e-15 1.2647627695227563e-14
1.0045317743128856e-15 -2.7649949804589876e-15 -3.185395952407462e-15
3.07750853070631e-16 -1.9100651883967707e-15 -6.737770956518116e-15
-4.2675511752054184e-16 -3.2253836720325917e-15 1.114041010547548e-14
-4.2117516790256297e-16 -3.873951998917677e-15 1.2313571829037815e-15
6.103185658625195e-16 -1.8254192687190012e-15 3.2070117628965735e-15
1.813891465050932e-18 -4.213084223191072e-15 5.4594318950563334e-15
6.733726357229178e-16 -4.413377477271212e-15 6.9104643231033984e-15
1.8784500213406352e-16 -3.981409973162847e-15 4.863756293933199e-15
-1.0277267907481533e-15 -2.9962091049066154e-15 6.321129965126443e-15
7.821056800061421e-16 -1.1508989049439148e-15 -2.0837464965571935e-15
7.1979800955944e-16 -5.653619532678196e-16 -3.626337955870216e-15
-3.7168006993190025e-16 -1.6866188016520187e-15 5.627836119172917e-15
2.300891058354954e-17 -1.6174382756794274e-15 7.740276535496043e-16
4.636601791219054e-16 -5.800916852728134e-16 1.4883831548129072e-15
-5.451846543629043e-16 -1.8187079621741716e-15 2.383582529922792e-15
1.8934806915825814e-16 -1.69224207031548e-15 3.164062181834953e-15
3.892021660830821e-17 -1.662563521169968e-15 2.327233158626005e-15
-2.104473681106176e-16 -1.2516062298976113e-15 3.1842562193531704e-15
2.0855277155761762e-16 -4.4341129055362002e-16 -1.041868495104855e-15
7.293041132827966e-17 -5.402334916308293e-16 -1.4039810667017321e-15
-1.294539707033525e-16 -8.930981945137877e-16 2.7731307300237227e-15
-3.468669802979892e-16 -8.68649018141811e-16 6.021813050724428e-16
2.801631472516996e-16 -3.7058509358785074e-16 7.286160479706674e-16
9.546918139156147e-17 -9.60685976218881e-16 1.2444760335370462e-15
-3.1736162740676354e-16 -8.255475454289809e-16 1.6301883169744026e-15
5.2868339757703675e-18 -6.658843485028146e-16 8.672001808095854e-16
-2.2633385899840666e-17 -5.038363987755328e-16 1.3945581024821675e-15
2.462232095715637e-16 -2.716736671785929e-16 -6.350243471257032e-16
-1.06763014205876e-16 -1.8982024013951518e-16 -5.447369538153367e-16
4.4306718154091956e-17 -4.069921443478242e-16 1.3345855563730963e-15
-1.0386673198672523e-16 -4.421050103888779e-16 3.663411034207725e-16
1.6444020877965893e-16 -3.0362703548104034e-16 4.329802794531377e-16
8.880548421565507e-17 -4.665908418094582e-16 6.91976389472709e-16
-4.0712367701378186e-17 -5.371570289491335e-16 8.312620745091376e-16
5.594224228204909e-17 -4.525649772055285e-16 4.962402351698801e-16
-1.1981057781495768e-16 -2.869338658739897e-16 6.191591100809984e-16
-6.186432626956602e-18 -1.667676554396095e-16 -1.9590628823422303e-16
6.256453905724318e-17 -7.693662465398366e-17 -2.8963458563397743e-16
-2.852610015641436e-17 -1.8401404832343507e-16 6.211068795706044e-16
-7.550974804028721e-17 -2.0785939632583022e-16 2.126834490111585e-16
4.418127765252993e-17 -1.4564614233738366e-16 1.9996850024773213e-16
2.0019668085618875e-17 -2.348690352575306e-16 3.5359578638880953e-16
8.586695700972928e-17 -2.6419429610986194e-16 4.635434972738242e-16
-1.546272879992211e-17 -2.0751913361917122e-16 2.7882101203287205e-16
-5.1174330616213326e-17 -1.5329988002341126e-16 2.9826001295428526e-16
1.7855989083103525e-17 -7.681893044248637e-17 -4.8180137876568294e-17
-2.942220745728126e-17 -7.528949184993953e-17 -1.080166460406515e-16
-3.0831219510930474e-17 -7.646918918926219e-17 2.804967766954911e-16
-1.3805793548026656e-17 -9.627655782823483e-17 9.926706039219498e-17
1.9512246919799305e-18 -7.313981587307782e-17 9.123573425808498e-17
2.964027623830017e-17 -1.329061314649605e-16 1.8220089061410955e-16
-1.2772820396703441e-17 -1.6453154145685955e-16 2.411185230754642e-16
2.047320152770781e-17 -1.2866653056471593e-16 1.6386756025869314e-16
-3.115496491025331e-17 -6.911025528452207e-17 1.5368681737533939e-16
1.2760719616259822e-17 -1.509772407408299e-17 -4.838629262732475e-17
-3.2230566855763955e-18 -2.1292569822919e-17 -6.386616641527182e-17
-2.1420580213289077e-18 -3.643071721543586e-17 1.3686858991859483e-16
-1.247112562333034e-17 -4.3148653223441334e-17 4.2695517124465714e-17
-1.7677700359486984e-18 -3.6823664058981273e-17 3.705294953733201e-17
4.699782324661514e-18 -7.475067084502583e-17 9.910077604183542e-17
-9.911833725030864e-18 -8.475600720552419e-17 1.2428355531326482e-16
-1.6150982900996293e-17 -7.728762130410383e-17 9.688289829505866e-17
-7.66115842343528e-18 -3.776300617219668e-17 7.214681842717979e-17
6.203020859839398e-18 -1.201919829432452e-17 -1.527275708876987e-17
-4.230040382858918e-18 -1.540022975114039e-17 -3.108510207185951e-17
5.376425507429753e-18 -1.5714108203196103e-17 6.454651282682724e-17
-7.414160771669285e-18 -2.1036051479939058e-17 2.097982078924417e-17
7.130863442505267e-18 -2.017462476976302e-17 1.835870219722915e-17
1.450276719444439e-18 -4.101774662003458e-17 5.432402127150541e-17
3.931756771616562e-18 -4.674863204223568e-17 6.921645510304899e-17
-2.052516124499484e-18 -4.2751179890769144e-17 5.420917952366707e-17
-8.472710957770775e-18 -1.7809355289220538e-17 3.6739609462704517e-17
1.523155267704875e-18 -2.9587336148901684e-18 -1.1906525800716146e-17
-3.9485402016600014e-18 -6.326243046802821e-18 -1.4361260694744122e-17
4.201027819615459e-19 -9.675818761774403e-18 2.9904591306325786e-17
-4.2821053869641744e-19 -1.2454785316135566e-17 1.0626530270471359e-17
-4.0534510231548834e-18 -1.0994674538827717e-17 9.353812596475807e-18
6.203483001215772e-18 -1.880668777698951e-17 2.539368307113197e-17
-4.946520966348577e-18 -2.4131484820238812e-17 3.4193256720640523e-17
8.992015237165598e-19 -1.9682794606600637e-17 3.0034899079599544e-17
-3.640891141909299e-18 -1.1261090406877023e-17 1.8513660940328225e-17
-3.926078968439657e-19 -3.657321341380453e-18 -3.3848565026242437e-18
1.2474824612518137e-18 -3.2516505435429492e-18 -6.011889815025379e-18
-1.7332328975831796e-19 -4.790760973265109e-18 1.4501234840832445e-17
1.6688465323445378e-18 -6.755233154446032e-18 5.609897311760341e-18
-1.5736559292889198e-18 -6.424788070571358e-18 5.931807643134388e-18
6.291805574015742e-18 -9.979410040413365e-18 1.3338621346777305e-17
2.3783423294473813e-18 -1.3247035559418184e-17 1.887810871124001e-17
1.9453604933470238e-18 -1.1562292927120437e-17 1.6989340766330478e-17
-2.507513501164286e-18 -6.078052960530623e-18 9.53155852749857e-18
6.003333645852615e-20 -1.109240771360016e-18 -1.045008386432815e-18
-3.7297719114869666e-20 -1.556876269228373e-18 -3.386214426363396e-18
3.2212326228552292e-19 -2.6320260209581637e-18 6.767417764671354e-18
5.445218357636649e-20 -3.460339185845567e-18 2.3497683477818253e-18
3.639701675027668e-19 -3.1932056277035286e-18 3.665333323585548e-18
-1.736418327371189e-18 -4.447204665267458e-18 5.709323397435581e-18
-1.5280968932938926e-18 -5.342851694884942e-18 8.959044142273226e-18
1.7233033155039377e-19 -5.089890929898664e-18 7.918810088199858e-18
-9.183243807604786e-19 -2.4546678767099633e-18 5.0719947044899776e-18
9.008686425539575e-19 7.056620459714264e-20 -2.015994509445518e-18
-1.649259979355818e-19 -7.56168983420322e-19 -1.6868269702824663e-18
5.96854093218235e-19 -1.5173133256845067e-18 3.487782668636979e-18
-2.4269069371546987e-19 -2.0013050758000075e-18 1.3838078241636735e-18
4.006302574744543e-19 -2.0428280870893417e-18 2.2875512678529742e-18
5.480105866212545e-19 -2.6476896397300816e-18 3.3926561792002544e-18
4.258789017775855e-19 -2.6182318674352258e-18 4.146286586465807e-18
-4.541483288075848e-19 -2.545411978971065e-18 4.382028696608753e-18
-7.410832468337538e-19 -1.5285965059340668e-18 3.165523436365875e-18
2.724408954159879e-19 -1.2312681424309602e-19 -1.113830874622933e-18
-2.0006929221438682e-19 -6.264192042422777e-19 -4.93448050701558e-19
5.539583261529342e-19 -1.0076271731089228e-18 1.9461432836794692e-18
-4.017219414895648e-19 -9.944421991701552e-19 7.44140928419679e-19
6.021852782316805e-19 -1.4573785878436322e-18 1.6209612532082142e-18
-1.8770181845227245e-21 -1.48295582395658e-18 1.9787230349471718e-18
3.094986170369738e-19 -1.654336001636535e-18 2.320149914030162e-18
-1.9694952812462337e-20 -1.3914147694759432e-18 2.3947933960441975e-18
-6.239059133358345e-19 -8.690083448461394e-19 1.89819044424013e-18
1.653581643015561e-19 -1.048819265173326e-19 -4.451814357914879e-19
1.782367389635198e-19 -2.817263649767887e-19 -1.9050661877477023e-19
-1.0504509971938597e-19 -4.324735011634423e-19 8.86550742887802e-19
4.159374015261213e-20 -5.389746299776073e-19 4.441250196101758e-19
3.096843650414311e-20 -6.608545739264056e-19 7.833562254027601e-19
-1.2848728924357753e-19 -6.870146305815662e-19 9.965487713368851e-19
-9.067221229416595e-21 -8.48075719815929e-19 1.2176279091483634e-18
-5.2254425020191056e-20 -7.050353756939027e-19 1.2862888664356517e-18
-1.1964241880483164e-19 -4.460085934953106e-19 1.0159722980770184e-18
-4.960399328861605e-20 -9.828370378021526e-20 -1.8082243486706672e-19
2.660449468330151e-20 -1.0289001350204942e-19 -1.5054310331070744e-19
5.607269659472181e-20 -2.434533249857476e-19 4.930865263508849e-19
-2.290070334587183e-20 -2.715678641714277e-19 2.4958375207714048e-19
4.769326643312626e-20 -3.259012537939759e-19 3.728904741742777e-19
9.548440497124049e-20 -3.360615927463007e-19 4.854511559760751e-19
-1.6407855621245818e-19 -3.6295743312293044e-19 5.622407662850494e-19
8.115606370823432e-20 -2.8613547772234777e-19 6.054580882320946e-19
-1.1730392768700719e-19 -2.2967233360598214e-19 5.32683919375609e-19
4.1403207687544695e-20 -1.957241510713118e-20 -1.4835555247509966e-19
3.9575648551244626e-20 -7.215038721383859e-20 -7.317522494146544e-20
-2.5666707452383494e-20 -1.2248205749540225e-19 2.498207385320767e-19
3.3230598787279774e-21 -1.4106132597558545e-19 1.214466018558193e-19
4.454859922317876e-20 -1.8953879721635306e-19 2.241254467754293e-19
-9.708940440224129e-21 -1.6719821985228358e-19 2.2445287238237215e-19
6.787702498281e-20 -2.1275394619220129e-19 3.0779953248529103e-19
-2.3978215872890066e-20 -1.6439147855343656e-19 3.0058714134852013e-19
-8.247950654738943e-21 -1.2824501481541768e-19 2.7766463366628334e-19
-1.4268445066169148e-20 -2.0439115036930324e-20 -7.336325480065132e-20
5.522532746315236e-21 -3.913294868663781e-20 -2.5656773533154022e-20
-1.6836211936557775e-20 -7.056286541995218e-20 1.3390362661710862e-19
3.167177998824073e-20 -8.297271864865514e-20 6.230092947996558e-20
-1.4459730954503112e-20 -8.132813708264323e-20 1.0702619318273713e-19
2.9476004990656117e-20 -7.424296955903932e-20 1.1149590927122173e-19
-4.4845708822492776e-20 -9.567165652716143e-20 1.3315292824369717e-19
4.898467064810849e-20 -7.823657539828193e-20 1.4222018628267076e-19
-3.2228075505704287e-20 -5.829440888113562e-20 1.2924779032101653e-19
-8.916099127204666e-21 -1.558867685373453e-20 -1.8085576753352186e-20
9.714761178856167e-21 -1.6162763430618485e-20 -1.8409605290039812e-20
-9.428455786109309e-22 -2.45596943952795e-20 6.508416225402616e-20
2.7487250529151036e-21 -4.741739381976809e-20 3.6269532268644363e-20
-7.591805788210384e-21 -4.9400380973175926e-20 5.948826404911376e-20
1.726528372189299e-20 -3.712168396912124e-20 5.428111011315992e-20
2.4224110770736676e-21 -4.819878032938966e-20 6.556908840346404e-20
2.6009341724132415e-22 -3.326004145042986e-20 6.165416798552813e-20
-8.310967023721092e-21 -2.8487623674920596e-20 6.362347878281843e-20
-2.343053119069527e-21 -7.04539868516568e-21 -4.1966908424862085e-21
-3.209057112265741e-22 -6.488178235090962e-21 -9.171591591634675e-21
1.0889191394631903e-20 -2.0790730777204593e-20 3.6602804901749754e-20
1.4376557524548456e-20 -2.620401363545518e-20 2.249725727682569e-20
-9.539878348645892e-21 -1.82660034427371e-20 2.6207669870044388e-20
5.896780071523661e-21 -2.5713573637049096e-20 3.1580887347091816e-20
-1.1602372133638099e-20 -2.3533158049875878e-20 3.438508404166842e-20
-1.6080026958803291e-21 -1.8457959564208344e-20 2.766326286307369e-20
-3.931429981828908e-21 -1.368371519310126e-20 2.964044254742778e-20
9.331833478428637e-22 -3.2675597440424485e-21 -3.0042134741972333e-21
6.858045963683738e-22 -3.947280596505571e-21 -2.8670539499600378e-21
-4.836972830048952e-21 -6.4391222859875455e-21 1.5215121311344272e-20
5.5556205233386634e-21 -1.27619176678788e-20 1.210871712174941e-20
6.1741130508697266e-21 -1.5221314385914264e-20 1.599393884351818e-20
-4.56306003076678e-21 -1.3773465999117628e-20 1.3459375165444734e-20
4.242555974284932e-21 -1.521336667621258e-20 1.69463555283834e-20
7.513200097625629e-22 -1.2886305627364758e-20 1.5767654254709507e-20
-5.870696167547266e-22 -6.931458521497036e-21 1.3585294010889392e-20
-9.070240816992127e-22 -2.7006826699202407e-21 -1.0436042790080792e-21
2.4660603045386425e-21 -2.9251716146465922e-21 -1.814417735871899e-21
-8.308214499210334e-22 -3.673931051647148e-21 7.574629398510903e-21
1.2511114928719939e-21 -6.754287222660848e-21 7.1745346650476e-21
-2.1814236896798246e-21 -8.742207171925735e-21 9.333737866855051e-21
-5.448771729447251e-23 -7.227533740424355e-21 7.65814220331969e-21
-1.1926470772603261e-21 -8.967439618988926e-21 9.469155888925988e-21
-6.519354389447436e-22 -8.865651335863983e-21 1.0017680678258184e-20
-3.704396647342542e-22 -3.637382453148412e-21 6.83927283636032e-21
-1.0414302740157306e-22 -1.8300234917484645e-21 -2.243272792224019e-22
2.2680736864159583e-22 -1.2942092317930173e-21 -7.409112139328006e-22
3.515310311113141e-22 -2.625588731022407e-21 4.093697880456559e-21
1.191915118429942e-21 -4.7426880699034125e-21 4.1148969489343e-21
1.0063485826180617e-21 -5.904834259699563e-21 5.811196738426637e-21
8.044651880270365e-22 -4.9620526172582794e-21 4.432687514677455e-21
1.158283779408214e-22 -3.917290916281117e-21 4.7484796000239425e-21
8.911923184845236e-22 -4.233155242843846e-21 5.2667896611742955e-21
-7.546266787360196e-22 -2.4553741181274544e-21 3.388676074641736e-21
3.5843736235245887e-22 -7.221764250905422e-22 -2.785461195031457e-22
1.8635017416467607e-23 -5.785847627931761e-22 -1.7815734692574862e-22
6.401806356563586e-22 -1.4957696737408757e-21 2.1167959809884393e-21
5.77607700012788e-22 -2.4877164130243423e-21 2.3909839756032555e-21
5.36311918588674e-22 -3.2407901959292486e-21 3.0300989716006073e-21
4.8914428529941275e-22 -3.425520735896244e-21 2.6531655339165538e-21
1.0380530317578917e-23 -2.7818755515763443e-21 2.3153951555341987e-21
2.248930816161785e-22 -2.389041680789693e-21 2.4435242330830882e-21
-8.259385413598525e-23 -1.54177743859098e-21 1.506958752645567e-21
1.5590392499703733e-22 -4.709033071272918e-22 4.7060193269069494e-23
0.0 0.0 0.0
0.0 0.0 0.0
0.0 0.0 0.0
0.0 0.0 0.0
0.0 0.0 0.0
0.0 0.0 0.0
0.0 0.0 0.0
0.0 0.0 0.0
0.0 0.0 0.0
0.0 0.0 0.0
0.0 0.0 0.0
0.0 0.0 0.0
0.0 0.0 0.0
0.0 0.0 0.0
0.0 0.0 0.0
0.0 0.0 0.0
0.0 0.0 0.0
0.0 0.0 0.0
0.0 0.0 0.0
0.0 0.0 0.0
0.0 0.0 0.0
0.0 0.0 0.0
0.0 0.0 0.0
0.0 0.0 0.0
0.0 0.0 0.0
0.0 0.0 0.0
0.0 0.0 0.0
0.0 0.0 0.0
0.0 0.0 0.0
0.0 0.0 0.0
0.0 0.0 0.0
0.0 0.0 0.0
0.0 0.0 0.0
0.0 0.0 0.0
0.0 0.0 0.0
0.0 0.0 0.0
0.0 0.0 0.0
0.0 0.0 0.0
0.0 0.0 0.0
0.0 0.0 0.0
0.0 0.0 0.0
0.0 0.0 0.0
0.0 0.0 0.0
0.0 0.0 0.0
0.0 0.0 0.0
0.0 0.0 0.0
0.0 0.0 0.0
0.0 0.0 0.0
0.0 0.0 0.0
0.0 0.0 0.0
0.0 0.0 0.0
0.0 0.0 0.0
0.0 0.0 0.0
0.0 0.0 0.0
0.0 0.0 0.0
0.0 0.0 0.0
0.0 0.0 0.0
0.0 0.0 0.0
0.0 0.0 0.0
0.0 0.0 0.0
0.0 0.0 0.0
0.0 0.0 0.0
0.0 0.0 0.0
0.0 0.0 0.0
0.0 0.0 0.0
0.0 0.0 0.0
0.0 0.0 0.0
0.0 0.0 0.0
0.0 0.0 0.0
0.0 0.0 0.0
0.0 0.0 0.0
0.0 0.0 0.0
0.0 0.0 0.0
0.0 0.0 0.0
0.0 0.0 0.0
0.0 0.0 0.0
0.0 0.0 0.0
0.0 0.0 0.0
0.0 0.0 0.0
0.0 0.0 0.0
0.0 0.0 0.0
-1.914903337548976e-6 -3.7319896392509375e-6 -3.658992956710931e-6
3.3965152318918634e-8 -3.308377437596781e-6 -2.7311077369693615e-6
-2.2997210744889835e-7 -3.0270932705128684e-6 -2.6066286066539628e-6
-6.025189475511393e-7 -3.7208128553962926e-6 -4.3133023324475615e-6
-1.1314716941877685e-6 -3.5671577869744677e-6 -3.836367084112477e-6
-1.857557995112075e-6 -3.1044183969334067e-6 -3.5634135831056838e-6
-9.768479602988207e-9 -3.3690596851294735e-6 -3.5487962533867096e-6
-1.329835081864103e-6 -3.1813074741319272e-6 -2.5565019815771906e-6
5.293017942369141e-7 -2.044674346284999e-6 -3.1534544980971342e-6
-1.8170665434088107e-7 -8.789380716413093e-7 -1.4013298698622862e-6
3.589732163910141e-7 -9.042508317211497e-7 -1.20435265561863e-6
-6.569633049752443e-7 -7.553108797643627e-7 -1.0454640128604323e-6
8.457436474213864e-7 -5.644481576495623e-7 -1.6113065910954778e-6
5.350025212213789e-8 -7.15004121476158e-7 -1.2982742512309944e-6
1.9412581718691894e-7 -5.435669298346515e-7 -1.204150401149324e-6
-3.9570513384482374e-7 -8.259115685134051e-7 -1.357809769001103e-6
1.476673019385968e-7 -1.0187006132570606e-6 -1.1387657782616777e-6
4.476582236423999e-7 -5.298110676384842e-7 -1.5626436276087076e-6
-2.3826021042808903e-7 -8.844486331648544e-8 -4.1361126645099454e-7
1.8791229851667066e-7 -2.098105197340853e-7 -4.2703353086279546e-7
-3.0980148888824574e-7 -2.400630802999436e-7 -4.316314206784524e-7
1.5228391043558384e-7 -1.1866655900275085e-7 -5.733535342493362e-7
6.13637947448269e-8 -2.5427490187693337e-7 -5.277457700110298e-7
3.218543797967092e-8 -1.8422328532464613e-7 -4.866162635484955e-7
1.7215664815202083e-7 -2.2933997768086336e-7 -5.147298852142817e-7
-2.535938462849846e-7 -2.437202320543775e-7 -3.905160081918644e-7
3.632447679213017e-7 1.1917798530851512e-9 -7.285226524361685e-7
-1.263430856211107e-7 -4.213859251474182e-8 -1.1097273379606718e-7
1.064955068103741e-7 -7.123130245056244e-8 -1.8250473524833373e-7
4.236222404681927e-8 -6.857297074262715e-8 -2.120521434214938e-7
5.934693702419136e-8 -5.637307315291075e-8 -2.5150500925329314e-7
-2.149907820668208e-8 -6.548482206390817e-8 -1.8590016808266474e-7
-2.2823549337520793e-8 -7.137335518552196e-8 -2.524031466361255e-7
1.2965927603948562e-8 -1.147583588412182e-7 -2.5935822006144776e-7
-1.7582271973871484e-7 -7.174499011096506e-8 -1.6541100502026809e-7
-4.440178941397152e-8 1.5600046018412461e-9 -2.243149595450609e-7
-4.862700789959391e-9 -2.6774818993413887e-8 -4.1235079791747564e-8
9.228842034354004e-9 -2.681525909243864e-8 -8.484292383054401e-8
-1.0370283727722299e-8 -2.9270607396850508e-8 -8.883340314214356e-8
1.7459052178638638e-8 -2.107251128223073e-8 -1.0373957999333794e-7
-1.1707714023980028e-8 -2.5056842437915792e-8 -7.62805007246815e-8
-7.24722462297141e-9 -2.4367486328962856e-8 -1.0248784776729983e-7
-9.665912785930772e-9 -2.0849223205311888e-8 -8.605056309097896e-8
-2.5622950118032322e-8 -1.4657594352897238e-8 -6.301885382831433e-8
3.8038126393178933e-10 -1.300911714000188e-8 -8.60191315934234e-8
-4.765800959455523e-9 -1.002148094219363e-8 -1.3768706346415233e-8
5.498211970750949e-9 -8.118017187747838e-9 -3.2542731842822465e-8
3.971434406499213e-9 -1.090860586868778e-8 -3.005610066196772e-8
-3.965728403062355e-11 -7.575034506237171e-9 -3.7638762715665457e-8
-1.0942376942130345e-9 -1.011814248016346e-8 -3.058520500618174e-8
6.983670768133588e-10 -8.120991084776273e-9 -4.2585723904173415e-8
-7.322105883223131e-9 -9.117092637144732e-9 -3.154985788590733e-8
2.545346367231454e-9 -5.2909241827406224e-9 -2.419281425583017e-8
3.508901339380856e-9 -6.382179211791631e-9 -3.3071592471285925e-8
-3.1390034443368675e-9 -3.4112753920555213e-9 -1.852048690434074e-9
-4.670057600751562e-9 -4.505934001643212e-9 -1.1993014111836367e-8
1.9509497233098302e-9 -3.3329685936246674e-9 -1.1285498093440729e-8
-1.1112969168933508e-9 -4.2610585289119705e-9 -1.6254767168605562e-8
-3.023652584216587e-9 -4.942909097651342e-9 -1.320452571268937e-8
2.461292097442746e-9 -3.533098467113294e-9 -1.6976199495211754e-8
-3.6625380696276963e-9 -3.700205758688818e-9 -1.1011848439586977e-8
4.467553937036386e-9 -2.2971983803452045e-9 -9.931071814665525e-9
-6.560345013459236e-10 -3.4934223519682316e-9 -1.2967717517872235e-8
-2.5784909977439366e-9 -3.81746203392752e-9 -3.355061878506814e-9
3.190482466925423e-10 -1.626929135696143e-9 -4.100169654308087e-9
2.234522411321563e-9 -1.076514813368266e-9 -3.387920768820937e-9
-1.7384122755864788e-9 -1.77387855698215e-9 -6.045805323920204e-9
4.944472028663259e-10 -1.7515565825636784e-9 -5.854003146471794e-9
1.1993769493242076e-9 -2.3336984832539765e-9 -7.847615614881204e-9
-4.971764323737671e-10 -1.932409856265385e-9 -5.035768290085645e-9
4.2469126909490934e-10 -5.759277743020857e-10 -2.885436648816626e-9
-1.0691198514328915e-10 -1.39614550673628e-9 -4.772543644024997e-9
-1.555227156728628e-9 -1.8584653366371498e-9 -3.853806603434319e-9
-4.693448599190669e-10 -1.0100111356426435e-9 -2.516813490727127e-9
2.3899118062497895e-10 -3.1024065564674536e-10 -1.3071198280373295e-9
4.807009957102517e-10 -5.763184977299668e-10 -2.36802956309892e-9
6.229658578205314e-10 -9.950801763223623e-10 -2.7435218846709038e-9
-7.406975184012257e-10 -1.1641039555368937e-9 -3.579739132950633e-9
4.211612385479373e-11 -9.906257997472848e-10 -2.1828912876153502e-9
1.8662784499694315e-10 -3.5955628086647073e-10 -1.1431122670100667e-9
1.375645854086129e-10 -6.042396091951856e-10 -1.953645436273045e-9
-2.0390758375550381e-10 -8.12277014656124e-10 -2.007160479882981e-9
6.291143659122292e-11 -3.609352603137475e-10 -1.0507160393792264e-9
-9.94769598547454e-11 -9.884139128488333e-11 -4.154197321995539e-10
-1.2276912280494512e-10 -1.625643451970093e-10 -9.179425342141007e-10
2.48209798357515e-10 -4.833118338378217e-10 -1.4199227792649272e-9
1.3399858415304574e-10 -6.272739731481725e-10 -1.7926027841469887e-9
-2.1645621235397375e-10 -5.275151856920215e-10 -1.1603383950711104e-9
7.356389337109616e-11 -2.1694209460740062e-10 -4.2706507571453333e-10
-1.3030040608367846e-10 -1.776318153637162e-10 -6.32007087217361e-10
-1.1629327295150317e-10 -2.4759118600930415e-10 -9.090874523450258e-10
-3.7830567697964006e-11 -1.176843192430336e-10 -3.4993291050089667e-10
6.985752986845981e-11 -2.3599676923877285e-11 -1.8577888078503121e-10
-2.655776269531078e-13 -4.705937474027601e-11 -3.8039977537143194e-10
-6.58188030809648e-11 -1.2498446164509642e-10 -5.877683680394438e-10
-9.305985602531e-11 -1.6882124012454118e-10 -8.389115312184856e-10
-7.014769794271106e-11 -1.9167160107733188e-10 -5.5257240864021e-10
2.8677095397252318e-11 -4.949014951306473e-11 -1.3404191044521938e-10
-8.356728441988526e-12 -7.083481853200153e-11 -2.9601322381031145e-10
2.967838167576112e-12 -9.46505280528465e-11 -3.9529433511057157e-10
4.420559699000197e-12 -6.316427499438582e-11 -1.5235290830613341e-10
-4.492779654145468e-11 1.686387943678874e-12 -6.116473992889207e-11
6.325904165661181e-11 -1.236628264805348e-11 -1.5908958360918715e-10
3.1848834795598945e-11 -3.680809116805794e-11 -2.390982473826055e-10
-1.0506250852261777e-11 -6.41576870001247e-11 -3.8224087719914086e-10
-3.342446098348929e-11 -4.861553374173887e-11 -2.4853211483403746e-10
2.3486765279744668e-11 -1.3741010682523218e-11 -4.7320919686552385e-11
3.245202755582969e-11 -2.2821679912088187e-11 -1.1637615677696843e-10
-9.163854390917103e-11 -1.034322196897645e-10 -2.240525532189061e-10
-5.283372745251974e-11 -4.8040825281159305e-11 -8.942218148114361e-11
-5.599945280793748e-12 9.177562936492871e-13 -3.432694148079697e-11
1.270190264522214e-11 -1.1751671834318133e-11 -6.929491760672457e-11
2.9138706430042404e-11 -2.5749412418657076e-11 -7.783637224887747e-11
-1.8521772420055016e-11 -4.884462687122408e-11 -1.5817328609131092e-10
-5.9105996314412595e-12 -1.7327608080243443e-11 -9.140348237209126e-11
-1.5477037592251977e-12 -8.65401082105109e-12 -2.1240846013336636e-11
2.9441886790435547e-12 -8.558874564541774e-12 -4.0572553996985744e-11
-4.285556605635281e-11 -5.124902315922172e-11 -1.1711260619773255e-10
-1.5480435843151642e-13 -1.4083097689700963e-11 -2.8445922642854645e-11
-4.362859744460555e-12 -5.758848007383058e-12 -1.7155269363457282e-11
1.0306839563124417e-11 -7.22064954075897e-12 -3.604304281664144e-11
1.2245143704395808e-11 -1.3518661676553592e-11 -3.7437715530592084e-11
-7.276734548656972e-12 -1.478383209569712e-11 -6.6913176657051e-11
2.135266527103807e-12 -1.0800167593067888e-11 -3.6664524232159574e-11
-2.4995880649442633e-12 -4.325037282975553e-12 -1.0059535295225604e-11
-1.1461763419935466e-12 -3.065244489849724e-12 -1.6825432710982844e-11
-7.910544560131755e-12 -1.6408972326165506e-11 -5.4999058056916104e-11
3.809384821181134e-12 -4.5177057873275015e-12 -7.549584929113548e-12
-1.3147075732288057e-12 -1.088220257396144e-13 -7.075733252098941e-12
1.440862925378522e-12 -2.805532757154922e-12 -1.6461405407166377e-11
2.1003898294752915e-12 -6.962499998682917e-12 -2.0296204257818222e-11
1.3293326305722378e-12 -9.745516527718498e-12 -3.1377602101094865e-11
-1.187580912689244e-12 -4.146497891530968e-12 -1.4641427658054968e-11
-4.312931273653246e-13 -1.7755819331665396e-12 -4.68044486336045e-12
-5.259689508835157e-13 -1.7488476878181926e-12 -7.0626219589198165e-12
-4.231113280714482e-12 -1.0033137322591252e-11 -2.6888021928160416e-11
4.2229801416718903e-13 -2.8227685165819583e-12 -3.3693678757455315e-12
-1.0086204518261689e-12 4.3832204794200984e-13 -2.383816178211529e-12
2.424275593338315e-12 -7.085106809795291e-13 -6.803162146643754e-12
9.696373380617576e-13 -5.07131318744404e-12 -1.162931680964025e-11
1.1466838146759916e-12 -6.653373017277574e-12 -1.5092208256210187e-11
-1.575994901378937e-12 -1.0783814753241027e-12 -6.403490288909641e-12
6.464295045468476e-13 -1.1396571666383365e-12 -2.427981588978022e-12
-2.813303748276112e-13 -5.532104722710975e-13 -2.9860005871979986e-12
-3.655507191719708e-12 -4.696407905675573e-12 -1.1596584422218582e-11
1.8383052113492526e-12 -2.5641496826317347e-13 -2.603486773814653e-13
-6.617891451140849e-13 8.174489379998187e-13 -2.4355166834197086e-13
8.43421928004749e-13 1.6743975015483954e-13 -2.247332869179944e-12
-9.071603295575091e-13 -5.304424996970184e-13 -4.564915396156874e-12
1.817227060781747e-13 -1.3933106348408734e-12 -5.992495397897531e-12
-4.139091044775732e-13 -1.074984915986419e-12 -2.8598823183450265e-12
1.6236003871462246e-13 -6.353299946768796e-13 -1.2270792497789358e-12
-1.0141796944537161e-13 -8.997305348328581e-14 -1.1839303631944773e-12
-1.4286323663693872e-12 -2.194966503207747e-12 -6.2062700388202695e-12
-1.9937417857568452e-13 -3.233343175669578e-14 -3.072992322290426e-13
-1.0747869250885665e-13 4.383450400909576e-13 1.6723958957642131e-13
2.684659221908289e-13 1.312295384768657e-13 -6.175298625291918e-13
8.680224615377811e-15 -4.159723728913395e-13 -1.851247835004537e-12
1.4489863388895055e-13 -5.596778195976007e-13 -2.4939065528772527e-12
-2.556463676138437e-13 -6.458789035513308e-13 -1.0866341296655533e-12
-1.70910162156864e-13 -3.9463445431772386e-13 -8.357481636482125e-13
-1.7997458522290174e-13 9.716759535195883e-14 -4.978303654317154e-13
-1.30992608485099e-13 -1.016692648683236e-12 -2.7852825029434425e-12
-1.1703563339603579e-13 -1.3216662277927002e-13 -7.874527383146599e-14
1.175808135115095e-14 2.0550884462020964e-13 1.190110286286181e-13
1.442080770544223e-13 -3.955110347864621e-14 -2.871798103027678e-13
2.266220269320893e-13 -1.4331581045433165e-13 -7.990121558678515e-13
-1.1605546024152318e-13 -4.4886520821590074e-13 -1.1846466247248117e-12
-3.1285888028141963e-14 -1.864832076425572e-13 -6.196821280948725e-13
-1.2752812166118719e-15 -7.201748547578903e-14 -3.668617229600875e-13
-3.857946098503138e-14 7.103204799354166e-14 -1.6657685860810314e-13
-1.7191517467300358e-13 -4.2013138929868363e-13 -1.035883017489907e-12
4.8918228709562504e-14 7.393311425794837e-14 -1.227284981076727e-15
-6.60126556498243e-15 1.1295960026719147e-13 6.743522396235696e-14
5.1676104269721396e-14 5.761298087967676e-14 -1.2529248010434322e-13
8.768889494183869e-14 5.270572122987841e-15 -3.6873408688639614e-13
-9.450574084573844e-14 -8.724341755161769e-14 -4.946131983670755e-13
1.1444652227580384e-13 -5.2136073978702345e-14 -2.4557294346256026e-13
-4.7990291807855253e-14 -1.2263526655816401e-14 -1.3172177922837158e-13
1.0073140772721344e-14 2.1462437057173714e-14 -4.092115661373757e-14
-1.9565488441337065e-13 -1.8457089982735508e-13 -4.405114252821251e-13
-1.0056225118522393e-13 6.330353908394464e-14 -3.150886597450732e-14
1.2689642200964975e-14 7.63376126348867e-14 6.412607560984587e-14
3.140661299912408e-14 4.568424551869234e-14 -7.271860475152762e-14
2.9799528994351484e-14 1.1220716316816824e-14 -1.5993525892823062e-13
4.710699438571362e-15 -4.441249273039966e-14 -2.0955610079437537e-13
-1.695912074193796e-14 9.353034223873822e-15 -1.0319264060462585e-13
9.541763961843632e-15 5.4196630783309845e-15 -4.651630710929013e-14
-6.902470161368831e-15 2.8045660927499546e-14 -5.806619547921936e-15
-1.2771124808759382e-13 -8.426510924708212e-14 -1.68808973153552e-13
1.9603910901945403e-14 2.3527292180184313e-14 1.2761567330391631e-14
-2.1774275657889512e-15 4.350105155027351e-14 4.2218454465998416e-14
4.253533197613117e-15 2.0966567564694982e-14 -1.6940453023438325e-14
-7.79578978913705e-15 -1.5709615261301217e-15 -5.98291934418689e-14
-1.285859944428128e-14 -1.6096169199914343e-14 -8.9707956508599e-14
3.1755448008425964e-15 3.4972265598387612e-15 -3.683948497263657e-14
-2.9363229165167155e-15 1.4835021711153458e-14 -8.213613835284331e-15
1.2566998039477685e-15 2.0114980057514102e-14 3.2673821621896856e-15
-1.7914840355965335e-14 -2.731770324304854e-14 -6.473970130905395e-14
4.365005234527934e-15 6.138115745359032e-15 9.378595088898494e-15
5.770906312610958e-16 2.248672367969358e-14 2.4187187270053443e-14
7.493920245297253e-16 1.1899780750654209e-14 -1.3890068830197113e-15
3.934020659102648e-15 6.6193510535559605e-15 -2.0212933654296433e-14
1.5880127492222616e-16 -2.3529103778013396e-16 -3.725882876172419e-14
-3.1741645593856736e-15 -2.604712524837464e-16 -1.5994557091761496e-14
-1.7339125250275355e-15 9.93817598091372e-15 1.372288501372742e-15
3.5319174689785423e-15 1.2811526001394024e-14 6.351461409743218e-15
-1.525595732587295e-14 -1.4921853393855293e-14 -3.01078667423708e-14
1.7903303487909263e-15 2.5603696647212847e-15 5.669133906489779e-15
5.175184668440978e-15 1.2328862510442006e-14 1.57619651798538e-14
-2.522478022289353e-15 8.382930977494922e-15 1.0479150654651968e-15
-4.063672087533602e-17 6.991193951406478e-15 -6.234678745895824e-15
1.726500015441882e-15 2.8873569535753994e-15 -1.4578740996904982e-14
-9.406286778234938e-16 4.1907290963464936e-15 -5.23987485413884e-15
-7.825563969074687e-16 7.362917887965903e-15 3.883887947955845e-15
1.9048690358366685e-15 8.785519313327534e-15 5.498592938948972e-15
-6.018009678141398e-15 -7.705686048662807e-15 -1.4123118306240875e-14
-4.915035857796645e-15 7.25269043497179e-16 -6.126798293965514e-16
-1.1711953095139113e-16 6.974974555031264e-15 8.492010438407768e-15
-1.6583732763412436e-15 7.369066203226995e-15 2.3149318564787805e-15
1.2065010191357562e-16 6.342740447344327e-15 -1.36763297971561e-15
-4.547995171831659e-16 3.584404215833314e-15 -5.405284717925776e-15
-9.182021877625308e-16 2.8387135938414265e-15 -5.681286787148156e-16
-5.429863331679239e-16 4.56113230570596e-15 3.3005448569865716e-15
-2.4790204493086026e-16 4.248650902840738e-15 4.095223677963426e-15
-1.770451042769543e-15 -5.375099636404764e-15 -7.720101805548038e-15
-4.3346386098032755e-16 1.8599848759233445e-15 5.182896282916163e-16
7.352857789994564e-16 4.707091507257332e-15 5.243728377016067e-15
-1.1089058896391118e-16 4.009980420034036e-15 2.531002553403444e-15
9.952547320158174e-16 3.398863497411153e-15 6.511272323793557e-16
4.567271457223919e-16 1.7556479332417916e-15 -1.4266183508470078e-15
-2.348153216466653e-16 1.4480893775689746e-15 7.686230894371889e-17
-2.9459574440983533e-16 2.640027033101663e-15 2.345149412276344e-15
2.7409914618442373e-16 2.6498414544221458e-15 2.944361079849192e-15
-1.5301795004335335e-15 -2.0093355331005358e-15 -2.8999672348312033e-15
-5.604879804582924e-17 6.832481306702517e-16 3.796803891700951e-16
-5.391095280415536e-16 2.165966373722841e-15 3.0614768478652473e-15
-7.458123216505042e-16 2.3556368575363447e-15 1.8456171979026546e-15
4.625839204865329e-16 1.464383570696468e-15 8.663472437059834e-16
-1.0783861879108878e-17 6.654593779040835e-16 -3.723030297290834e-16
-9.934531034131193e-17 8.192856200259389e-16 2.672082815646692e-16
-4.099509533466746e-16 1.473867994837616e-15 1.636033386379232e-15
-2.607272341660988e-18 1.2962486041994136e-15 1.6000288280490402e-15
-8.719553542665704e-16 -1.0740862112588425e-15 -1.5886144922370584e-15
-2.8976220151425563e-16 4.4100917398073816e-16 -5.98018853934793e-17
7.679963406049467e-17 1.2719479234783692e-15 1.6999709672996586e-15
-1.3694911610209933e-16 1.3004776002111487e-15 1.0450493179471209e-15
2.2830587565462373e-17 7.995201645910544e-16 6.118339097175236e-16
-4.439527363157816e-17 3.984751207021683e-16 -3.8529238842781076e-17
-7.293380884856604e-18 4.240819700185072e-16 1.5403325507278735e-16
-1.585035210136218e-17 7.452156095359215e-16 9.062663499417942e-16
-2.1981759618767282e-17 7.614212661747624e-16 9.279686834498457e-16
-3.4209130310358786e-16 -5.737202744173213e-16 -8.508006747109103e-16
-1.4492101445323078e-16 2.6466645865801277e-16 2.589933973597003e-17
1.3289509896637537e-16 7.374517769860076e-16 9.001341365585757e-16
-3.1170762973731407e-16 5.963773251547347e-16 6.434437391772563e-16
6.74089443217288e-17 5.270913040020091e-16 4.4032979343081937e-16
7.429394883174309e-17 3.4423441620791873e-16 1.0958366748598272e-16
4.72000215296593e-17 2.6136316917044343e-16 1.2249926421026935e-16
-1.930920235967485e-16 4.611518355408843e-16 5.754371344671564e-16
-6.800192486566702e-17 4.3149224804287822e-16 5.230428411255452e-16
-1.1702417328390034e-16 -1.860691730608383e-16 -2.2667832770298123e-16
-3.9215047503645564e-17 1.0595219730026148e-16 -3.186032369625712e-17
4.729449094011492e-17 4.416218492355262e-16 5.224884817218882e-16
-2.2499960338670987e-17 4.62925049855671e-16 4.624844366670053e-16
-9.569264433912498e-18 2.8300949554792413e-16 2.408163423052411e-16
2.840162373060446e-17 1.8625104310565994e-16 9.694306482595562e-17
-3.5323743111201514e-17 1.758676043022201e-16 1.1010064248067732e-16
-3.7135576451916596e-17 2.254511145409492e-16 2.830527977044098e-16
-1.907311121363885e-17 1.4151044377383378e-16 2.227752294820265e-16
-3.9301631339407986e-17 -2.346453081579599e-17 -6.806609472819866e-17
-5.2219737756287114e-17 9.498885352456242e-17 5.0459847149897387e-17
2.5385146496648964e-17 2.0863733159103903e-16 2.7085334163545957e-16
1.2259053630824143e-17 2.401715645471126e-16 2.7518321257675575e-16
5.564847123933961e-17 2.063459957544997e-16 1.959785812373895e-16
-2.074153274430041e-17 9.29502854514099e-17 6.17226199958175e-17
-1.5169731608525634e-17 8.702735362789867e-17 6.432342268092312e-17
5.193370309822568e-18 1.0569424849739356e-16 1.2906942765128188e-16
6.400237782761801e-18 9.142168823051357e-17 1.241253531830489e-16
-2.7096035704848622e-17 -8.574856145473111e-18 -2.7190432475373004e-17
-1.5567911958082473e-17 3.133680543447869e-17 1.8211722780494667e-17
6.354906565659724e-18 1.0612855216608541e-16 1.5194283449475317e-16
-1.376492761685666e-17 1.1659967719833404e-16 1.5797438873064957e-16
1.3156372903078866e-17 1.0737403369287006e-16 1.0845803865307143e-16
2.1512999659033217e-17 6.400273349505834e-17 5.103546928138436e-17
-1.9752029767974584e-17 3.857270139501414e-17 3.156952885524302e-17
4.5146825727441424e-18 5.46168879064022e-17 6.534754574463565e-17
-2.3313471456414076e-18 4.5842015278531536e-17 5.699694101931616e-17
2.644927374626889e-18 -9.274667558662105e-18 -1.40880511938949e-17
-1.7042421518662923e-17 1.9399721770800318e-17 1.8065058966601713e-17
2.4128225219704596e-19 5.654382030218941e-17 8.034006023862271e-17
-1.2018238220644879e-17 6.45122292476551e-17 9.123628087868147e-17
7.702103389138137e-19 5.994651475999218e-17 6.17766923805013e-17
1.2534659967293378e-17 4.1613706968558864e-17 3.707442918496621e-17
-3.859941533284733e-18 2.4345388638891196e-17 2.064116309126416e-17
2.3199007475341825e-18 2.3050885916657504e-17 2.949595199558787e-17
1.311762693271986e-18 2.124383672405756e-17 2.66383538534038e-17
3.474133013301908e-18 -2.7393626978708765e-18 -2.207317242469479e-18
-6.037079757766674e-18 1.0391759522537393e-17 6.148833436581065e-18
3.2737662579210954e-18 2.8652143401408205e-17 4.366522369481064e-17
1.5141952273347374e-18 2.812044645978535e-17 3.895360479057466e-17
-4.083054541102699e-18 3.1830314269558765e-17 3.832193457596071e-17
3.784750507328625e-18 2.6774268275106438e-17 2.7307008713442383e-17
2.573967048472527e-18 1.848190615878006e-17 1.6432573812706102e-17
-4.681057822466101e-18 1.5680214626614777e-17 1.7735029674512956e-17
2.956088001484295e-18 9.830265111705962e-18 1.2979102106490536e-17
-1.83213676542326e-18 -5.069571265756819e-19 1.4324222748953706e-18
-3.278826045832372e-18 8.239079043856108e-18 4.2843278262876215e-18
2.7038135139477004e-18 1.5652305672907452e-17 2.378652360405732e-17
2.1697271978067133e-18 1.475438880187559e-17 1.9092096944980403e-17
6.220734616829886e-19 1.3404782439123075e-17 1.542723644126516e-17
1.584356942817539e-18 1.3642796988230712e-17 1.5787135067364387e-17
-1.6908647894246677e-18 1.175208996042046e-17 1.0872983718223142e-17
1.8337492077621854e-18 6.545671975088432e-18 8.003323644307407e-18
-9.77343653948512e-19 4.5062635084737256e-18 7.370612026541681e-18
-1.1518217610822724e-18 -5.319952541612623e-19 -4.572174939160373e-19
-2.2107233497564958e-18 2.8942638788655296e-18 1.7305082561053787e-18
2.9197084346166005e-18 7.7012850956101e-18 1.2051699128289016e-17
-1.5720195403368388e-18 7.860838446892699e-18 8.547751114912238e-18
5.666167647745967e-19 8.423098429623845e-18 8.860797121488802e-18
1.310260345806957e-18 7.614299446305086e-18 8.098661715303136e-18
1.739028351960116e-18 5.792061958258388e-18 7.093402451283208e-18
-4.37739913123286e-19 3.2716482841555867e-18 4.977859727295907e-18
6.835447691179965e-19 2.578070777371544e-18 4.014320539894238e-18
-1.6975159273347652e-19 -5.53480184972103e-19 -1.9953880640439388e-19
-8.206564147414058e-19 1.4197791282961453e-18 7.974275425687461e-19
-2.276854106509241e-18 4.128854598421891e-18 6.507218581746656e-18
-1.9828574216103422e-18 4.426926409104773e-18 5.564347787747709e-18
-6.073601918636552e-19 4.170791883912027e-18 5.108042776884997e-18
7.294330039122761e-19 4.192512691956258e-18 4.518865201647646e-18
2.5840067751117403e-19 2.7721753678831273e-18 3.238065920659066e-18
3.2906455054945593e-19 1.6905824427880269e-18 1.9828578335451426e-18
-1.0046052292485829e-19 7.352433054725078e-19 1.5186592234171831e-18
2.214655023657298e-20 -2.8276464771464616e-19 -3.130744495581837e-19
-6.581073364801361e-19 8.126821425841297e-19 6.459642253813678e-19
-1.0628149828915047e-19 2.048528478706423e-18 3.1585607226804898e-18
-1.405852619681361e-19 2.208502466562176e-18 3.021665400987818e-18
-2.393073122467769e-19 1.9817648248261716e-18 2.5653868920232843e-18
2.88695732806672e-19 2.2368607003686065e-18 2.696526320611245e-18
1.132189734949583e-19 1.5240456542652266e-18 1.7424934779527358e-18
4.402455959138298e-20 7.249533993666521e-19 9.285552347640336e-19
6.469255293394373e-20 3.086881136476357e-19 5.547582315490379e-19
-1.1547353119816858e-19 -1.3749695016830908e-19 -1.8642641075670264e-19
-1.574136207955333e-19 4.494228701131558e-19 2.8991720019486625e-19
2.216828374776261e-19 1.1261186695498296e-18 1.604746046446026e-18
-6.330458317198948e-19 1.30917225526973e-18 1.6647045868410367e-18
-2.8859972351708476e-19 1.0184304430788534e-18 1.4963398321095019e-18
4.84858897272703e-19 1.0925616606572926e-18 1.5808334131382048e-18
-5.64685869983309e-20 6.401102249611806e-19 8.950679827909781e-19
-7.904655151773866e-21 4.556409264415243e-19 4.912314534727603e-19
8.908995444110152e-20 3.0306785177479464e-19 3.3021000665265205e-19
-1.042449128438131e-20 -7.79643687215889e-21 -2.2649614473988145e-20
8.00122402873632e-20 2.263164371080884e-19 1.6767054508539288e-19
-6.642323772777002e-21 5.512017413592179e-19 9.16532952065103e-19
1.450072593718843e-19 6.038341376272141e-19 8.036142316490041e-19
1.339174239564172e-19 5.7884335578590075e-19 7.667032908485401e-19
6.250557678873564e-20 5.75813707647246e-19 8.026197764714994e-19
-5.063249467404485e-20 3.5810239950213416e-19 4.699766269532152e-19
1.7421020395982233e-21 2.7581808574877204e-19 2.679107590196088e-19
2.9212233852827066e-20 1.4192897810567014e-19 1.1691464234119539e-19
-1.2500310869420754e-21 1.1132682623752924e-20 1.710161906727447e-20
-1.5225553066298266e-20 1.0327503902489041e-19 1.0901776516508947e-19
2.3880716567677742e-20 2.356731087833243e-19 4.078091520175549e-19
-1.5876520598561366e-19 2.4905023547361346e-19 3.960479145926199e-19
-7.550652591746554e-20 3.1004319193674906e-19 3.9454529069370657e-19
-9.383764205623434e-21 3.0901773357803535e-19 4.272559156636232e-19
2.5177175505624863e-20 2.5008302887041463e-19 2.8662634158501186e-19
8.707785515465095e-20 1.4851063023795071e-19 1.6507468896318534e-19
-2.982227583653099e-20 4.284485472192672e-20 4.566021688910485e-20
-1.319160925910443e-20 1.5227647024374354e-20 7.526422423578846e-21
-1.143992578486862e-20 6.151363152846061e-20 5.493805179890177e-20
1.485567223267128e-20 1.4551857660539765e-19 2.0617854521569207e-19
1.0088221639478357e-20 1.2170093808017975e-19 1.5258788627795849e-19
-8.11564981087725e-20 1.5801570353843824e-19 2.2618866332095487e-19
2.8954134259559636e-20 1.8404436598057203e-19 2.2967826169358973e-19
4.13257804954395e-20 1.5054452324247504e-19 1.8087792942588513e-19
-9.216944565023041e-21 5.3865224297050947e-20 5.62575045174359e-20
4.500621396838765e-21 3.1206280282652277e-20 2.098067761119059e-20
-1.0292779418404433e-20 5.281968034426847e-21 6.786311778324276e-21
1.6405802689362423e-20 4.022561820740621e-20 2.3261304183251787e-20
-2.3333358727256532e-20 7.054784651346219e-20 1.194877119224103e-19
-1.046228377179185e-21 6.090258365343741e-20 8.272484151925857e-20
-2.6854829679006436e-20 8.712220773194163e-20 1.137790619978479e-19
2.3460077950065146e-20 1.2116848330767541e-19 1.5299306599238713e-19
4.6584886707978574e-20 9.717051731334828e-20 1.2619899051687482e-19
-1.9001121888804382e-20 3.511159267790416e-20 3.47196402287225e-20
-2.6554083223016608e-21 2.4795467477543694e-20 2.0225346477438084e-20
-5.25206312016753e-21 3.8263327655946636e-21 3.335872865972929e-21
-7.604375887620494e-21 2.2671381228383094e-20 1.3081775681118035e-20
3.551656426425028e-21 4.5435400082753756e-20 6.894212484385569e-20
6.578094077349351e-22 4.854856030461933e-20 6.128976885344837e-20
-4.301413536198599e-21 3.753725199224615e-20 4.994060990395424e-20
1.5291899220897716e-20 6.035417087839021e-20 8.793156843770338e-20
1.3173873591605455e-20 4.529550681406659e-20 6.189325833290507e-20
4.261878985511688e-21 2.2235665359777408e-20 2.1454437980979517e-20
-9.80909114219763e-22 1.1106095690485858e-20 1.1043096872728816e-20
1.15493593205701e-21 2.052424921771016e-21 1.8464718302412296e-21
-8.156941953432539e-21 1.0206109264633117e-20 8.217724471987885e-21
4.8518740332226264e-21 3.194981783714441e-20 4.4762265557787283e-20
1.2517383289001974e-21 3.075274831948282e-20 4.133969896950105e-20
6.172754554522036e-21 3.01079873799833e-20 3.136686739829521e-20
4.666986819828528e-21 2.976031107826195e-20 4.1629617726120284e-20
3.501655367680042e-21 2.4786263416008565e-20 2.893798040645645e-20
-1.0756397627099444e-22 1.410955744408758e-20 1.527111440199207e-20
2.245523921903759e-21 5.825565236565371e-21 6.035465079571819e-21
-1.3578567941004787e-21 2.7699460789241893e-21 2.7567091676703294e-21
4.057799270748368e-23 4.384978197830865e-21 3.4730082517812045e-21
1.4380769298869598e-21 1.2136877336392031e-20 2.0633706755290805e-20
3.534193428651851e-21 1.1497643281851635e-20 1.9475146230357808e-20
-4.856119236233226e-21 1.4152597021897687e-20 1.576861055929951e-20
-5.347614707617039e-21 1.6017894800582267e-20 2.3863737285784118e-20
-1.6810267108283769e-21 1.1198768254158978e-20 1.606561479087404e-20
1.0546725647324732e-21 8.175190854709644e-21 7.809918183026006e-21
1.8834190245828104e-22 3.068652272384333e-21 3.4561785647545714e-21
1.8836160568920925e-22 5.127779987093767e-22 1.1867300876020923e-21
-1.4080623399457903e-21 3.500196627652792e-21 2.841948522610462e-21
-8.810762230406433e-22 6.031535971257415e-21 9.46387536759215e-21
-1.0452403941340026e-21 6.3702316454347586e-21 9.86939608781046e-21
1.1261425817390636e-21 7.120071640560385e-21 8.662869873297517e-21
2.271201421569859e-21 7.397529782014601e-21 1.1752997201790821e-20
7.523519031000695e-22 7.408564731882837e-21 9.554674782362731e-21
2.0227132493150073e-21 4.273236005602115e-21 4.8282620711602756e-21
-2.290538268529248e-22 1.7028843555872847e-21 1.7800269254871423e-21
-4.010809736206648e-22 3.7836023176153124e-22 7.661103085103132e-22
-7.629351892469579e-22 1.9013851993228442e-21 1.5377905073607234e-21
1.2844971790660842e-21 3.221725404891949e-21 4.107646069325745e-21
-3.141588119342502e-22 3.859279148101904e-21 4.920119393098249e-21
4.169519348468926e-22 4.783169646593109e-21 4.654437666617532e-21
1.289022701186751e-22 4.7939547356374034e-21 6.065479629658396e-21
-7.349654967014755e-22 3.821050522326587e-21 4.843913242170383e-21
6.132947882034831e-23 2.3715865880714723e-21 2.0566671580901802e-21
5.0393659971875193e-23 1.0062309963590688e-21 8.696923647417994e-22
-2.0838672515716624e-22 3.187917047272582e-22 3.060057940367739e-22
-5.477310631033075e-22 1.1131585287635677e-21 8.559329039842156e-22
8.921328747036824e-23 1.6877845706910372e-21 1.7274323640583167e-21
-7.634394565630881e-22 2.419087310921191e-21 2.5109691058700257e-21
-3.990189938229355e-22 2.5249702487400047e-21 2.5263382853538756e-21
-6.471266581277048e-22 2.889686928188538e-21 3.1181853129360576e-21
1.3137229283402334e-22 2.3416645332813362e-21 2.2130639638499176e-21
-2.795128079036855e-22 1.3449878802201963e-21 1.0787359883647284e-21
1.2262045117638275e-22 5.728552869329509e-22 4.0138831375929206e-22
-5.269852978618231e-7 -1.1116610604432464e-5 -8.535351428030852e-7
-3.0354673300013134e-7 -8.39456866397954e-6 -7.353180329022308e-8
1.2903443642816782e-6 -1.1228525390715925e-5 -7.553864242740237e-8
7.66326059089037e-8 -1.0097592786880758e-5 -2.567912847099002e-7
1.259635235259682e-6 -1.2620284180616913e-5 -3.318417686370359e-8
-7.52346614956021e-7 -1.3043854204651508e-5 1.0618204423059647e-7
-1.0788620224658178e-6 -1.5392624676606782e-5 -5.158422791935842e-7
3.4058035066379775e-7 -1.427228952078422e-5 -4.4302152698110956e-7
-2.6493580241639066e-6 -2.287940841815684e-5 2.2823472504957987e-6
7.87368734210904e-7 -1.474931930599114e-5 3.524335375356056e-7
7.127888351745245e-8 -1.4596983364513552e-5 7.107095479876579e-8
2.4675504668190076e-6 -1.6736616804271785e-5 -3.6136954120921056e-7
-1.912152532275334e-7 -1.4778324428260278e-5 -4.904533820247689e-7
1.7822962837330463e-6 -1.3626934198295002e-5 5.237335391364533e-7
1.5805676957505815e-6 -1.1917858300366706e-5 2.6868327262227186e-7
-1.5018173844010283e-6 -1.224630516012892e-5 1.8695666127883852e-7
1.4488745215887925e-6 -1.3219097847717924e-5 1.4308809268117543e-7
-1.917603888047699e-7 -1.800838924621956e-5 2.494892755638983e-6
2.2398350378304913e-6 -1.537186290555604e-5 -2.516557064214736e-8
-1.0576841365105515e-6 -1.3741544321855085e-5 1.963517520375742e-7
2.7492822553087556e-6 -1.7109557976819708e-5 -3.7808187678054455e-7
1.255956597996798e-6 -1.364163078856895e-5 9.058346481328453e-8
-2.5902298185727465e-6 -1.1839965714774461e-5 4.957448723011424e-7
-2.6938441549343007e-8 -1.2823509244604367e-5 8.891813848947774e-9
-1.4241455200096212e-6 -1.2339871454213631e-5 -4.5433104271833697e-7
3.1736069952708545e-6 -1.316719219494741e-5 3.9496805005759333e-7
-1.2894859668694923e-6 -1.438222927991822e-5 8.413972856506709e-7
4.2303046902139633e-8 -1.6674062619449576e-5 -2.4335283484985825e-7
-7.536517762357207e-7 -1.491135416134387e-5 1.88676453259554e-9
8.231287482274734e-7 -1.3612323646933043e-5 -9.035795288500241e-8
-2.623432413691855e-7 -1.0879792087022554e-5 1.3960310500945547e-8
9.375497572027723e-7 -1.09517939263022e-5 2.7242723176753697e-7
4.99658370098358e-7 -1.17272354986015e-5 -6.165924720934641e-9
2.4459021078906533e-6 -9.770867680431077e-6 -6.871146328780008e-7
-1.4697712273913674e-6 -9.007305860302435e-6 1.306330996506066e-7
-1.0265557930766386e-6 -9.543855728043392e-6 1.8440755411088158e-7
-4.2810795532321563e-7 -1.4222776162716028e-5 -8.696568954895086e-7
6.339883796394377e-7 -1.3818225781340307e-5 -3.996747051348447e-7
-7.962122526350879e-7 -1.2247249622429497e-5 7.987999068656853e-9
-1.1047081102051507e-7 -1.1273872846615913e-5 1.636812006304742e-7
1.817843754497834e-6 -1.1920659188497432e-5 3.988913744515231e-7
-7.704952152250913e-7 -1.1733938146553083e-5 -1.8736461679282649e-7
-3.2791333845257517e-6 -1.0947005564168106e-5 -1.7938908264773512e-7
2.2514841259254643e-6 -1.2100874298859294e-5 -2.0005512679768352e-7
4.3637781340738786e-7 -1.6504281398068692e-5 6.062308797638987e-7
8.096411444891035e-7 -1.2728951139405217e-5 -5.513815355088906e-7
5.614897162865673e-7 -1.2490448001361464e-5 3.317346002100369e-8
-1.8602048641213612e-7 -1.1106759649365911e-5 -1.0445227370252365e-7
-1.8283151591039527e-7 -1.0339052960759236e-5 8.302620070013151e-8
-1.2377944021101616e-6 -1.0670350087501636e-5 2.62176671310729e-8
9.481317765822229e-7 -1.1094376996294653e-5 -1.6632839681342044e-7
9.529516456567536e-7 -1.2584945032763426e-5 2.2284219453810698e-7
1.1733439009836981e-7 -1.3594147110059801e-5 -1.1391743190063428e-7
-2.9045685161850935e-6 -1.9016959349071265e-5 1.1654030977596708e-6
4.699672654116245e-7 -1.5049397829765646e-5 -3.225373279188145e-7
2.1885166317468636e-7 -1.426518808894209e-5 2.1887529108843228e-7
2.3340453369834825e-6 -1.3082823081088101e-5 -2.3784052121276613e-7
-8.263433546820111e-7 -1.1582184112125417e-5 2.9466327185228315e-7
4.20387004760003e-7 -1.1199679911830703e-5 -1.5605302731029236e-7
6.872233337601462e-8 -1.1888492614383682e-5 -3.606650260892427e-7
-9.670557941658592e-7 -1.3032103416200598e-5 -3.300296470523963e-8
9.290936274796914e-7 -1.280107939608953e-5 2.4723593157747656e-7
5.06408644589078e-7 -1.49864953902498e-5 4.64480422879043e-7
1.2528461194891825e-6 -1.655593238516055e-5 -1.91221526095344e-8
3.866638043100801e-7 -1.532250921259467e-5 4.0350530678720813e-7
7.307770212271934e-7 -1.4530847444426727e-5 3.941385913496438e-7
-2.463410595718797e-6 -1.379847187193991e-5 3.385410835076001e-8
7.022676160749572e-7 -1.1926262566904344e-5 6.333404069331018e-8
7.338873530501534e-7 -1.24706641815739e-5 -2.75387433605303e-7
8.539026666849928e-7 -1.394699993158088e-5 2.9109173993769263e-7
5.183349194439981e-7 -1.285796154441595e-5 -1.589116538182682e-7
-2.6267704870448625e-7 -1.4282516046029774e-5 2.1601377410791117e-7
3.24965235791203e-6 -1.8719472734681385e-5 -5.361024791228159e-7
-5.811676154923267e-8 -1.4938312489450977e-5 2.9781085135877585e-7
1.036725312422583e-7 -1.3521749525245814e-5 4.6047433438334513e-7
-9.820477719099392e-7 -1.1859205543277224e-5 -8.345979621956465e-8
-1.5073066417109904e-7 -1.0272750991006477e-5 -3.63326669622481e-7
-9.857192215159058e-7 -1.404720900389115e-5 3.52349031815422e-7
-4.3825430153601196e-7 -1.1068437255963868e-5 6.519300327065432e-9
7.148421669841428e-7 -1.0826275244021749e-5 -1.5827542945041416e-7
-3.046189783980135e-6 -1.0556216273653986e-5 7.016991294578148e-7
1.1128708411066084e-6 -8.655016627326429e-6 6.101522895342971e-7
3.970447068465311e-7 -7.0568968569682465e-6 -5.3644058310202734e-8
-9.115828639744954e-8 -8.867371117693124e-6 1.7600735899245757e-7
8.86316600251017e-7 -9.488375199184275e-6 -1.1760175626331233e-7
8.521294275067191e-7 -7.12425171753313e-6 -3.4540557149913666e-7
-6.732394276362191e-7 -8.617579309048312e-6 2.1608096422886868e-8
-6.69249936067079e-8 -8.940257672792558e-6 4.132040436362225e-8
6.123846684958796e-8 -9.396368983544282e-6 -1.2147517243524305e-7
-9.325889026653689e-7 -1.0152357198298645e-5 -3.41632584428684e-7
-3.8712410647473873e-7 -2.234848946290027e-6 6.421302814004635e-7
8.145752408300667e-8 -2.2477089390181807e-6 2.4157313933318646e-7
-1.1377869603232464e-7 -2.6087095155416433e-6 1.5624574546194354e-7
3.6970599274420687e-7 -2.3596612172672303e-6 -1.6377037677683298e-7
-2.2059673634775092e-8 -2.2240191719334654e-6 7.686767320724498e-8
-4.923864468424853e-8 -2.2132944557097797e-6 -4.916062166769764e-8
-3.721990015289339e-8 -2.0773587888833455e-6 -6.1964975125764775e-9
-6.905968794864032e-8 -2.2473848767955774e-6 -5.4783004236836225e-8
-5.075087042878407e-7 -2.167820434822235e-6 -1.210458851632514e-6
-6.58292122684265e-8 -4.721884653353652e-7 3.214546796428343e-7
-1.4546249998434495e-8 -5.456187285436272e-7 2.0433183056166638e-7
-1.4138641039717082e-8 -5.340490119966133e-7 5.4246585958494846e-8
7.580468280399925e-8 -4.904154479339357e-7 -1.8996376895771303e-8
3.329559365065472e-8 -4.22783727121019e-7 7.330421796372655e-9
6.322226842649786e-8 -4.7512500815090447e-7 -6.114353589672881e-8
-4.08047885662042e-8 -6.120016700753417e-7 5.5580841756904895e-8
-2.7382845821827005e-8 -6.820614556275553e-7 -1.8383480852841404e-7
8.554875003191046e-8 -6.278413343880061e-7 -8.551528962476923e-7
-4.2028616281099724e-8 -1.4261337908953184e-7 2.046343311857273e-7
-8.399145845126165e-9 -1.309069912044514e-7 1.1080264329051089e-7
-2.7279190527951556e-8 -1.5331046354294674e-7 5.461340756519536e-8
-4.853571322759139e-9 -1.2089673952844128e-7 -5.231070640680742e-9
1.6854697605629266e-8 -1.1979539184456762e-7 5.127808463394731e-9
1.2001905784357522e-8 -1.269333553842616e-7 -2.4514975572196372e-8
8.576858962557495e-9 -1.2545844991598235e-7 -2.169220846568729e-8
-2.127915118577241e-8 -1.1494622045327325e-7 -1.5230274727814417e-7
-2.3735892302913435e-8 -1.472936691616793e-7 -4.605548320322983e-7
-3.962518121453412e-9 -4.0023145764862424e-8 1.0744515822280667e-7
-9.427905576881117e-9 -2.5297204856404057e-8 5.751778389594683e-8
-1.0518723777314374e-8 -2.6627155251160344e-8 2.345692835658387e-8
1.0010499910498685e-9 -2.3480244255902237e-8 5.330996406558676e-9
7.780604317687985e-9 -2.79006578567538e-8 -1.0642888835252265e-9
1.2167059747001423e-8 -3.4187836505626917e-8 -1.7638688768001507e-8
2.5568168646083956e-9 -1.764732989647069e-8 -2.933554612145961e-8
-1.5894913296708443e-9 -1.2815675967867853e-8 -8.439665410394536e-8
-2.768971833622176e-8 -4.908909341605569e-8 -2.1044843847405465e-7
-5.079106561845515e-9 -8.08710138073352e-9 4.8413911696697504e-8
-2.787094748007041e-9 -2.1718647758553844e-9 2.5669479481195116e-8
-2.410736299113852e-9 -3.43075225848946e-9 1.2556950035732333e-8
6.152151706992524e-11 -4.895527740874472e-9 4.9632704697143185e-9
3.1157166812297208e-9 -4.217468789240779e-9 -8.66739823390303e-10
1.3232618022653923e-9 -2.463329161248148e-9 -1.0537476476808087e-8
3.97765541706904e-9 4.334391782095625e-9 -2.3100002481613357e-8
1.3618228255758928e-8 5.650692712739631e-9 -5.478754307635355e-8
1.3694691619883082e-8 -8.452792816387189e-9 -9.396551445165472e-8
-3.893485783068924e-9 -1.0308561966619212e-9 2.3154297179735205e-8
-2.5377497725465854e-9 1.126471866818965e-9 1.32213054658201e-8
-1.0721105916493724e-9 9.80375026335463e-10 7.075236081233531e-9
-7.326464053255872e-10 1.4157619098001384e-9 2.888571050865106e-9
5.43942457370353e-10 1.3988735904503672e-9 -3.672676613945476e-10
-7.89499853160751e-11 2.5825614767589267e-9 -5.994303614722712e-9
2.5609348272996598e-9 4.891948162602911e-9 -1.3239148930314923e-8
-2.6687919686710935e-9 1.9331543088239118e-9 -2.3727293258970105e-8
-2.441428916838824e-10 -2.673263067867084e-9 -4.218450660339972e-8
-4.2754270549208505e-10 8.469166864623778e-10 1.0452357906148715e-8
-8.852867095711194e-11 9.46676096350698e-10 5.929948076529767e-9
-6.605703409490416e-10 1.2508105157963413e-9 3.612576149282898e-9
-6.526374554321464e-10 1.6132730897086232e-9 1.5150120763289107e-9
1.461469380345444e-10 2.0459809258781964e-9 -9.370740363046907e-10
2.2475555530575613e-10 2.5749184861873096e-9 -3.764774558494919e-9
8.883089259217965e-10 3.39214713560585e-9 -6.991277412080111e-9
-2.4515503392743917e-10 2.7295754943264933e-9 -1.1226566852986238e-8
-1.3445773179919924e-9 -1.907893016155003e-9 -2.1470583342971724e-8
-6.085323155768183e-10 4.680653269412026e-10 5.245232703168652e-9
-9.384929244129904e-11 7.810099375551483e-10 2.8159453946078434e-9
-3.6093127822876775e-10 8.512190029993232e-10 1.8453933691845987e-9
-1.4954567235670698e-10 9.876737338127178e-10 6.007417766510419e-10
1.61416567395644e-10 1.3413931658718862e-9 -6.511881922566483e-10
4.1675053138131347e-10 1.7315351737723741e-9 -2.049493051301706e-9
1.2187392664014969e-9 2.000036297476531e-9 -3.948350022219732e-9
4.526150412036213e-11 1.6479840266278312e-9 -4.994279688363541e-9
6.111120463099826e-10 3.3996758035202464e-10 -8.217937111700965e-9
-6.267155711699732e-12 3.181241651858422e-10 2.305777492071915e-9
-1.369466353894255e-10 4.723321867169158e-10 1.381038222385862e-9
-2.435171182216817e-10 4.948734511923212e-10 9.334028623551088e-10
-7.029040516809258e-11 5.211536637408666e-10 2.96674854792075e-10
-4.979534119991127e-11 6.204316688100473e-10 -3.1329904646666245e-10
-4.577602464325075e-12 6.579881506956141e-10 -8.324505763826034e-10
-5.577562099661459e-11 7.896610129906405e-10 -1.7594197468865404e-9
-8.446388386156772e-12 6.5849254565956e-10 -2.4280731978289272e-9
8.445297821784501e-10 4.7489787270271696e-11 -3.9254962627439984e-9
6.27750436604998e-12 1.4860509554715085e-10 1.1319756773110898e-9
-4.1125899946270706e-11 2.2384958257845186e-10 6.929881906279249e-10
6.757432684890808e-13 2.3221005355257127e-10 3.944054670980762e-10
5.821720471761247e-12 2.786989839933255e-10 1.1653665067813162e-10
3.3394590345668503e-11 2.822013992070297e-10 -1.8748775242338339e-10
1.473580669056748e-11 3.3343971186248234e-10 -4.729055116087612e-10
2.0291772886716633e-10 3.760457966756267e-10 -9.502749264581635e-10
4.1147714249461893e-10 2.7305112771994e-10 -1.2125112849515529e-9
6.261260296855253e-11 -4.540277340021221e-11 -1.9204775520435518e-9
2.6750988349068174e-12 7.852702312088136e-11 5.288921271502635e-10
6.2630550179511535e-12 1.0461836035926511e-10 3.353453957829613e-10
7.41067658862386e-12 1.198679174119723e-10 1.9199139174917958e-10
-2.786717621689432e-13 1.3228882492252042e-10 4.50426356389206e-11
2.015605546604959e-11 1.4771138394664512e-10 -1.1707960119264312e-10
1.713550657402677e-11 1.296337700448227e-10 -2.0249505001550527e-10
2.650415478131029e-11 1.4731454146285192e-10 -3.954210877022242e-10
1.1544911384615709e-10 1.332393523396283e-10 -5.582307642491547e-10
-5.513794561244985e-11 -4.866209308101942e-11 -9.120935320310488e-10
6.759948896327906e-12 3.4578738150940383e-11 2.438514005817632e-10
1.1305051624772903e-11 5.2255081103228566e-11 1.5685072548298738e-10
-2.6430370231084697e-12 6.21402055679573e-11 8.648889056347081e-11
-7.369687959223615e-12 7.863344144036718e-11 1.6535634326383878e-11
-4.262010213507466e-13 7.099786091958703e-11 -4.771830545689429e-11
3.078104964179159e-11 8.331572328405952e-11 -1.0625471166267616e-10
1.1341797380930018e-12 6.576745090997186e-11 -1.7437598203573967e-10
-7.605931135122026e-12 5.110530038111805e-11 -2.2956638385249203e-10
4.825794653355387e-11 -9.344717607066255e-12 -4.210705689854246e-10
-2.3657512299978697e-12 1.911491612672236e-11 1.2123035735375588e-10
-8.961759104819379e-12 2.312188025116285e-11 7.67456192856917e-11
-1.8204611572018924e-12 2.929743969336202e-11 3.864905518892746e-11
-2.248809423195188e-12 2.8216721909207876e-11 8.373430210942828e-12
4.159423422548679e-12 3.6617975713053533e-11 -2.8037838751456447e-11
1.7327787251080557e-11 4.1106273813236055e-11 -5.507926299571465e-11
1.535663947307788e-11 3.79558347191536e-11 -9.850567752865464e-11
6.031216084951085e-12 1.945627986165244e-11 -1.2232391392042992e-10
-4.4037330756680966e-12 -2.5453919932365798e-11 -2.0817611352741682e-10
-8.639822882385654e-12 7.762208586538249e-12 5.4472965215882856e-11
3.0479134707955763e-12 1.2786347977005927e-11 3.346916202719577e-11
1.624753901811578e-12 1.6007036045422093e-11 1.588388610897558e-11
-2.0693203804767068e-13 1.8925465792957096e-11 1.4955890577222857e-12
8.89565141412401e-12 2.1037782436332227e-11 -1.747050953188661e-11
8.186718013136609e-12 2.0226937010749584e-11 -2.8171678634912968e-11
4.254756982182174e-12 1.6160933116391668e-11 -4.2663195913692273e-11
6.328545841291524e-12 9.554065459880572e-12 -5.3893821636658134e-11
-3.5351813466904284e-12 -1.1554664215301755e-11 -8.315800135602799e-11
-1.0390686536509157e-12 3.248305837472903e-12 2.4866491670919817e-11
1.100175546143042e-12 5.458537190627044e-12 1.4969116838150738e-11
1.8217223509163475e-12 7.1056172573565964e-12 7.42850224612083e-12
-4.78248387933953e-13 9.154909458140768e-12 -2.3803590707806613e-13
1.4968884393471856e-12 8.452805257461724e-12 -8.119012476036575e-12
4.021727236365335e-12 7.014335343644679e-12 -1.1677744907077098e-11
3.346069134270233e-12 5.608888608166683e-12 -1.896686697004127e-11
5.519116793336128e-12 2.5420037158022884e-12 -2.755514213795038e-11
8.613089779220056e-12 -6.0291233315838726e-12 -4.946210708236844e-11
8.057599842769754e-13 1.5049578098730974e-12 1.0096487559117148e-11
-9.98846245980543e-13 2.341468962370499e-12 5.974651915243815e-12
6.579698074126094e-13 3.0626638943883244e-12 3.4212529033927352e-12
6.152856036835418e-14 3.54852732089501e-12 -1.813074029924818e-13
-4.780833113103702e-15 3.298630762993772e-12 -4.075701851664756e-12
-1.5079297550440567e-13 2.442826584215308e-12 -4.907533865521484e-12
2.4942883891870584e-12 3.0853810572634896e-12 -9.871565674956228e-12
3.184483275527926e-12 1.6928484316510236e-12 -1.3179816697797896e-11
5.590560208550758e-12 -6.795367722470981e-13 -2.500861487397539e-11
-5.372818878006783e-14 2.7059353387458833e-13 3.811744485075773e-12
-2.6239505262411033e-13 1.3399240459345692e-12 3.139156790397021e-12
-4.515137556013878e-15 1.3692302758801016e-12 1.6266670163727682e-12
3.6664833048109e-13 1.862217008305937e-12 -5.62536577968855e-13
8.089297028879004e-13 1.7048544723342922e-12 -2.3519442990095254e-12
6.706826068642822e-13 1.668873667135468e-12 -3.864275195703946e-12
4.1973255824425696e-13 1.2404718105508187e-12 -4.442005269343912e-12
1.0305291582201568e-12 7.23893400376291e-13 -6.589627022447742e-12
9.96983443802924e-13 -9.406010798382617e-13 -9.904923311769256e-12
3.074864770630831e-14 3.4305817596403115e-13 1.936301205126481e-12
2.2120595211432013e-14 5.375062545162153e-13 1.3178566265170978e-12
6.046428396213745e-14 7.173754887379015e-13 6.6396026892797e-13
2.010841661448122e-13 8.468131373495434e-13 -2.6242912944193644e-13
3.2195744684733884e-13 8.934219770655206e-13 -1.2377883043709396e-12
1.896572695144434e-13 7.679565658652319e-13 -1.8620634835489074e-12
3.6295967426269244e-13 5.269381660715425e-13 -2.0969923465537556e-12
2.4473630015389786e-13 1.8663998359268943e-13 -2.6206950645780856e-12
-3.2866670278655493e-14 -7.484489803354553e-13 -4.523463140257101e-12
-1.9018743037419287e-13 1.6223153405563382e-13 1.0702597567096204e-12
-1.1134199429184092e-14 3.230578652799315e-13 6.487120750922837e-13
1.43945525227658e-14 3.692192160567324e-13 3.1986175231914227e-13
4.883542542535908e-14 3.982308134928994e-13 -1.274500415523414e-13
6.787487724299917e-14 4.2722687087582413e-13 -5.969298237410352e-13
6.594021108466281e-14 4.519989321873348e-13 -9.563240270457065e-13
3.27487349771531e-13 3.3652995739425277e-13 -1.072412648362506e-12
3.1950191001484187e-13 1.3561672817554093e-13 -1.2804600162957373e-12
3.59655162216031e-13 -2.6203195108347307e-13 -2.2324975291117676e-12
-1.1544747966081364e-14 8.092621568966665e-14 4.719148662993225e-13
1.3493655663488943e-14 1.3814676462969773e-13 3.1422099985082135e-13
-2.6799893347463634e-14 1.8115599109064888e-13 1.448177079925666e-13
-9.518720681708116e-15 2.0764279655996739e-13 -7.569061786214333e-14
6.826795963919659e-14 1.9540657659556167e-13 -3.18407117805601e-13
3.675097823548401e-14 1.3974678684627243e-13 -3.840386497735475e-13
-5.122599278893551e-15 9.701189295744203e-14 -4.569121858995922e-13
7.780164170348972e-14 8.538441299739122e-14 -6.035806280859577e-13
-1.0799598503304515e-14 -1.6673916320854386e-13 -9.315524208478136e-13
-3.4194009785405917e-15 4.6705660895210175e-14 2.166805399126569e-13
-4.0175881990228786e-14 7.315419793103044e-14 1.4066628233385845e-13
1.7989243964192794e-14 8.62289139659471e-14 5.3789982904194175e-14
-8.967893942956494e-15 8.260961138179015e-14 -2.7780106231500152e-14
9.204343352983889e-15 7.415592703561432e-14 -1.3378522362777082e-13
2.1883167878353352e-14 5.642310172850691e-14 -1.6895079848401014e-13
4.3184281871725415e-14 5.041307481754943e-14 -2.3922157501003084e-13
4.335812756976311e-14 1.487809054477813e-14 -2.852414011358886e-13
1.1779266471524973e-13 -3.978274231805491e-14 -4.544563640198311e-13
-6.26205672478076e-15 2.4645562817366175e-14 1.0618706684077609e-13
-7.822483422019288e-15 2.8239901624343383e-14 6.094918902303067e-14
2.3996997365898738e-15 3.839881605752568e-14 2.8191093201892767e-14
4.834756657125356e-15 3.489541274530664e-14 -1.0174281238026906e-14
9.37270020814559e-15 3.424326841777694e-14 -7.228855718100327e-14
2.1337751732700646e-14 2.493177496084771e-14 -8.298129465708447e-14
1.217813914127242e-14 2.3931485451009437e-14 -1.102610177284488e-13
2.783767278263452e-14 9.517213799713076e-15 -1.5236778430553263e-13
6.06238761648333e-14 -1.502977251348708e-14 -2.3426785554765333e-13
-1.3177627332686397e-15 9.131161565821743e-15 4.7026805771931916e-14
1.6684860111410083e-16 1.0670155408103644e-14 2.6851610181100383e-14
3.6926284768798466e-15 1.726921150995586e-14 1.1085094303313787e-14
7.631199311943542e-15 1.6556838752344886e-14 -8.452383429286898e-15
4.629234854254427e-15 1.666080188253978e-14 -3.4568683129700403e-14
1.2738799072451396e-14 1.6915515989155417e-14 -4.245181750192872e-14
4.757571775703361e-15 9.545678058914802e-15 -4.9234558440633836e-14
2.144600337722205e-14 6.6750059020939724e-15 -7.60575537529987e-14
7.378279168903442e-15 -1.8071906535808507e-14 -1.0502004207053451e-13
-1.8013771255862812e-15 3.6477131274281546e-15 2.4148532095040585e-14
-1.6376435390008836e-16 5.18804897525577e-15 1.223363909804805e-14
1.584712641502347e-15 5.75392615718939e-15 5.512497425956593e-15
2.501176927039438e-15 7.946530530250156e-15 -4.048155573905267e-15
2.8668524341700024e-15 7.645898090593646e-15 -1.7301784591723148e-14
1.700302382742049e-15 5.3766383412186095e-15 -1.6885916379646295e-14
6.495321513678293e-15 5.713392707934198e-15 -2.2383422053584375e-14
3.5467205046011114e-16 -5.064457191815059e-17 -2.853708214462583e-14
6.490692979593334e-15 -8.119353509074118e-15 -4.998171736185407e-14
7.477029544775696e-17 1.7936330517177018e-15 1.1618606299912882e-14
7.346714574838259e-16 2.407105389217236e-15 6.0963754912425095e-15
-2.468492357738263e-16 4.496066047354942e-15 3.4451034477488526e-15
-1.406090320563487e-15 5.7636561386316444e-15 -1.3633724680348144e-15
-2.031039962012194e-16 5.004568757073534e-15 -7.224539691201037e-15
1.1858506496430969e-15 2.6342387563949855e-15 -6.555087090205768e-15
3.478721856696966e-15 2.4163321400038054e-15 -1.1607244117157601e-14
2.4122835550354013e-15 4.87483938272615e-16 -1.5258252396999184e-14
2.0422630104061644e-15 -4.295463598777708e-15 -2.5306980911099717e-14
1.0108143446553131e-15 8.583233725622548e-16 5.8351850889168255e-15
1.103230663183302e-17 1.3994603005937443e-15 2.762693569388204e-15
-4.411384371507853e-16 2.0458685976905286e-15 1.2293063819473123e-15
-2.774889529075203e-16 2.7353969894236917e-15 -7.880398105955379e-16
1.5052882759905546e-16 2.274285302638003e-15 -3.0529419640534934e-15
1.2171239178783812e-16 1.4061880501911327e-15 -2.7260915145965834e-15
8.872124965260013e-16 1.2232929296011583e-15 -5.2236472403673545e-15
1.6491313283366935e-15 4.788119473105419e-16 -7.541673384087152e-15
1.085025236108264e-15 -2.360649015952981e-15 -1.2761643526622803e-14
1.3904489696312554e-17 2.755123073615391e-16 2.5871586427333654e-15
-1.1868710369300817e-16 5.155008248535913e-16 1.2332981433590519e-15
7.844960503234953e-17 7.944933231585137e-16 4.1892495940149656e-16
5.986150043655828e-17 9.87027412955271e-16 -4.0704076665070916e-16
2.0923823908923193e-16 9.61666967613175e-16 -1.1241066899212875e-15
-5.2957730090036464e-17 7.34739923566564e-16 -1.1524819949515038e-15
3.0794184544204673e-16 7.239529607742537e-16 -2.5211664096556312e-15
5.345756344834967e-16 1.3300329283146219e-16 -3.864710303167309e-15
-9.297521633790183e-17 -1.1086498269675372e-15 -5.83170926526305e-15
-1.1454604769416226e-16 1.0421825462995265e-16 1.2263584816335573e-15
-1.1652640369732427e-17 2.938513124532184e-16 5.737562078446373e-16
-3.80917313509075e-18 4.327073074431719e-16 1.342762603028694e-16
4.2337849242905525e-17 4.4016941185653057e-16 -3.2926322501104894e-16
6.230699533573607e-17 4.494675806038379e-16 -6.363133071732314e-16
1.972445656535275e-16 4.996639344913744e-16 -1.044749430482677e-15
1.990650612807073e-16 3.8491067791804353e-16 -1.3113856300692835e-15
4.0154701281498494e-16 1.60959430190597e-16 -2.1797864151271464e-15
-2.664696315639448e-16 -5.838057281545868e-16 -2.487099029013476e-15
-4.1859733900050776e-17 9.250612473448931e-17 5.314330010053489e-16
1.7844895625745924e-17 1.4364618567252115e-16 2.47289427513851e-16
3.284022101159379e-17 1.8706018323512572e-16 3.939647509535318e-17
3.4418684998259344e-17 1.776612731014963e-16 -1.5270785195140592e-16
8.347764037923965e-17 2.0574179122161051e-16 -3.207839727335338e-16
6.79039513367691e-17 1.620373543458361e-16 -3.632840748183888e-16
-5.915658032521224e-17 1.2862312289249583e-16 -4.824946877587547e-16
7.540222620518833e-17 5.44805629337675e-18 -8.31523867122969e-16
3.1632755884885936e-16 -2.4022751805483414e-16 -9.259574053137872e-16
2.5640632944377392e-18 5.405001444844955e-17 2.34274736528614e-16
-9.112120664628987e-18 5.384637431711814e-17 1.1563637694244579e-16
-1.2152745385472442e-17 5.614994682433861e-17 3.465814948705118e-17
-8.946777172946775e-18 5.50107137551968e-17 -3.8983969253903184e-17
-1.405218427809856e-17 8.077606194011454e-17 -1.1920481221242753e-16
9.332636950762718e-18 5.882783303874474e-17 -1.3838610632158477e-16
6.148480349616831e-17 6.822261697612002e-17 -3.0685745965933657e-16
1.2350923708367725e-16 7.356920272660606e-17 -5.425975521022482e-16
8.44425250153086e-17 -1.0567563001034745e-16 -4.663214320178563e-16
1.1572105815330841e-17 3.2758585669312514e-17 1.1516319479828003e-16
-3.900264232232213e-18 3.010099369743387e-17 5.663745308770728e-17
9.836493174815666e-20 2.85137037351703e-17 1.554357531597632e-17
-5.859355358146063e-18 3.313866456496795e-17 -2.397704463986508e-17
-5.00390161429804e-18 3.422412433480612e-17 -6.092635214884726e-17
1.5458943571154837e-17 2.8975208503903406e-17 -5.571668883402329e-17
3.424961966048912e-17 3.610004287812387e-17 -1.4711570000750076e-16
7.474078592729032e-18 -3.3958141700036525e-18 -2.0768003850403161e-16
2.768319626887726e-18 -2.4607522293490492e-17 -2.1944650938054055e-16
-1.875947231561525e-19 1.48654804816958e-17 5.541898803548688e-17
-1.2629078915511855e-18 1.640211320051694e-17 2.984557947931338e-17
-2.6427436201975253e-18 1.735016989880933e-17 8.616407901740592e-18
-3.84117868616193e-18 1.9428010663677526e-17 -9.60239915089587e-18
5.786566382278189e-18 2.1875169239181382e-17 -2.991969709461663e-17
1.0962727591503185e-17 2.0461636091076256e-17 -3.289927271678395e-17
-1.5669863909658519e-18 1.5260235127024843e-17 -5.170665356476292e-17
2.1303031746652986e-17 3.608694518010315e-18 -1.0065807027266019e-16
5.439404975265927e-18 -1.2811332093954836e-17 -1.0978812379351043e-16
-3.520827049623935e-18 5.267737837110724e-18 2.810924791349561e-17
6.186750938375779e-19 8.440308850541498e-18 1.5258908328881994e-17
6.418676956378909e-19 9.680355338416403e-18 3.222544549654472e-18
-1.6956330996186489e-18 1.2090341902424393e-17 -5.910645397736635e-18
6.379647587284397e-19 9.354634792449794e-18 -1.5720249938353085e-17
9.312638193889584e-19 7.698572372076068e-18 -1.6527900843495593e-17
4.8008454481674e-18 3.406173427392636e-18 -2.0181506677110642e-17
-4.3029201339736683e-19 -6.015206426463117e-19 -4.756044357268149e-17
-3.698935823272048e-18 -5.999642130289308e-18 -4.4551883279780504e-17
-3.8815175532087874e-19 3.337897257063584e-18 1.3747778813258244e-17
8.535934320042719e-19 3.931466815973446e-18 7.346662929081991e-18
2.6156247253908478e-18 5.019881984851049e-18 2.832703445994431e-19
-1.6890581537964506e-18 7.235138514655613e-18 -1.7798858189816708e-18
-3.1876666720261765e-19 4.4226537609609775e-18 -6.7120929874140935e-18
2.4752325819017494e-18 4.705027345993598e-18 -9.311541148053857e-18
1.4571022581794448e-21 3.39572076344096e-18 -9.16564038805095e-18
3.577987650156559e-18 -8.87790703573723e-19 -2.2544252688517117e-17
1.9474594909250497e-18 -4.753475568232361e-18 -2.1960559085368983e-17
8.589626097370764e-20 1.5028572527166391e-18 6.586202785625048e-18
3.9758335325012183e-19 1.7797363253608413e-18 3.57754300016761e-18
1.1453672594012988e-18 1.9683002779715028e-18 -1.0168792592733394e-19
4.639551845537502e-19 2.992620368068028e-18 -1.2978524137053058e-18
2.6624743741285792e-20 2.2312776622108125e-18 -3.4371175598896754e-18
1.0827568741394471e-18 1.3936683622423608e-18 -3.819763532154565e-18
-3.930529487818402e-19 1.2131894728530675e-18 -3.517923240998537e-18
1.3361576288942472e-18 2.5783944585402245e-20 -9.613723066048067e-18
2.193778015409869e-18 -2.1321083381227814e-18 -1.0083198950317783e-17
-1.5630657858983766e-19 5.359141346382646e-19 3.298767932308203e-18
1.4367755170588164e-19 8.381111571769026e-19 1.8908925317861347e-18
3.2307380549537355e-19 9.05139613562079e-19 1.0657782240186824e-19
1.2755202206483733e-19 1.2238739661953732e-18 -6.414078237624203e-19
8.917033247838158e-19 1.0503555485984711e-18 -2.1133712821321848e-18
1.1243368556572006e-19 6.696554257222523e-19 -1.7953752695844063e-18
-2.4515747250089153e-20 6.343313623241068e-19 -1.3533990065246535e-18
-3.5253344512153563e-19 -1.8981197875399015e-20 -3.225922320977127e-18
-2.8285349599757084e-19 -6.510200330657981e-19 -3.744466358071228e-18
2.8429671580219167e-19 2.6140401773196327e-19 1.6608676826346811e-18
-1.9638864296397158e-20 4.208177507749583e-19 8.900839953403122e-19
-9.820722047488238e-21 4.400341005595573e-19 4.7459674833542286e-20
4.991274187204323e-20 5.392365683852852e-19 -3.9761173735595493e-19
3.651271217900483e-19 4.389820092508296e-19 -1.1415713823752336e-18
1.8580624207642062e-19 2.5864589764235443e-19 -7.335639329967694e-19
1.0233392865780047e-19 1.4105314749488318e-19 -5.598419255024846e-19
1.1689151594134924e-19 -7.280975460480024e-20 -1.4190520058498496e-18
2.3312988640942416e-19 -2.0800879829777953e-19 -1.763004819657848e-18
-1.0731595488529555e-20 1.2665330802835345e-19 7.905747580867813e-19
3.813293233130223e-20 2.2942781799582657e-19 3.742349155798217e-19
-7.292568271752243e-21 2.4646653722325267e-19 -1.1622089360666167e-20
6.100302861618901e-20 3.171182850632688e-19 -2.4263661261299565e-19
3.575398726854853e-20 9.885711559037171e-20 -4.688917373872223e-19
3.655882638838804e-20 1.2250653416382294e-19 -2.7035151689440987e-19
-1.7482286730097125e-20 1.144203275321404e-19 -2.6964447661765903e-19
1.0164681446316315e-19 -4.571639383791606e-20 -6.270120047006043e-19
-5.440226067142016e-20 -2.0367933526031423e-19 -9.335395191067458e-19
2.772927565205375e-20 8.130935935918569e-20 3.592135054825327e-19
-1.572611935275566e-20 1.0349226089554587e-19 1.6214550175925606e-19
-1.0037072696573433e-20 8.979495392833581e-20 -9.996990695278097e-21
-8.541744780852523e-21 9.432865666630428e-20 -1.2633881548261416e-19
-1.2965529145570116e-20 4.8784976344122696e-20 -2.192989687306338e-19
-1.1716303732535941e-20 6.667641542969001e-20 -1.3257766101115738e-19
-1.6757516566770244e-20 9.014822306741277e-20 -1.0895295247252715e-19
-3.1424035530971855e-20 5.120769006037407e-20 -2.562938871890454e-19
6.164690542017649e-21 -7.666068071221444e-21 -3.5066063898593455e-19
-3.3397808411651505e-21 3.5184405007075724e-20 1.9227470042496038e-19
3.912355243185606e-21 5.791261779008316e-20 9.221990393955328e-20
-1.850640531316256e-20 4.7335296808560435e-20 -1.1091255109435675e-20
-2.3348839705150734e-20 5.2205109318447875e-20 -8.940920637181791e-20
-2.003925810145498e-21 3.304992356338452e-20 -1.1121735954436508e-19
-2.1781667792718516e-21 2.2898334760557192e-20 -7.605746577451952e-20
7.845821354763557e-21 4.360629641497726e-20 -5.193825254599523e-20
5.819563489904763e-21 2.3102288003612072e-20 -1.0226860502160091e-19
2.0434057756219617e-20 1.2058825208576428e-20 -1.5502270052441962e-19
1.5945896100008737e-21 2.1693354200778275e-20 9.380082186784374e-20
-1.457748187382841e-21 2.7425233961830106e-20 4.425413292606602e-20
-4.7700660538175345e-21 3.0809848946395816e-20 -1.1004911136613341e-20
-1.622195984043241e-21 1.5854831237126982e-20 -4.43445216426655e-20
-3.9213537289013735e-21 6.650627708476794e-21 -4.692013137503607e-20
-1.2820028533233455e-21 1.2243467789853172e-20 -3.94394495065024e-20
6.736069705125066e-21 1.3940566077201806e-20 -3.336527790653772e-20
-3.838167083265111e-21 1.4400678412041347e-20 -4.3003671006561754e-20
-3.567932741593046e-21 -1.210364079858925e-21 -5.365280136868363e-20
1.4573749969278782e-21 1.1542333183793964e-20 4.515393388349698e-20
8.604774797861125e-22 1.3400986091025255e-20 1.8342268105025094e-20
1.0438122641396884e-21 8.393475009824994e-21 4.513936953416815e-22
1.485606999197874e-21 7.508025869091894e-21 -1.4560409653851023e-20
-4.137521990926392e-22 6.858170644041114e-21 -2.1186096525497148e-20
-1.1380114370307367e-20 6.7269017939288226e-21 -1.1312912112906754e-20
-4.7207697764124595e-21 7.68771537060226e-21 -5.050616567326161e-21
-1.4483459323155681e-21 8.41811389205655e-21 -1.4911872244556344e-20
-5.081948213959137e-21 2.7295998875635035e-21 -2.2374725268201625e-20
-9.352257163864195e-22 4.6309527656953205e-21 2.1816084632770264e-20
-1.553563464477572e-21 5.0962534990423135e-21 1.028515315118239e-20
3.489223675842025e-21 4.19676871738295e-21 5.987932664626893e-22
-1.6879402321282205e-21 5.548692522223314e-21 -4.831172052245204e-21
-5.094158493603877e-21 4.09562470658422e-21 -7.293212202879744e-21
8.620276114639899e-23 1.1165268143936078e-21 -7.564459116495165e-21
-1.5642966402958352e-21 1.5084245490503966e-21 -2.1751467703224722e-21
2.5965202896914397e-21 1.532573318994708e-21 -6.994240180052685e-21
-3.305211323497554e-21 9.072858805549287e-22 -9.633587910811365e-21
2.0993894584750887e-21 1.5954832896827934e-21 1.1181448961596587e-20
1.0932944898253857e-21 1.1355505320712756e-21 6.3579658303561886e-21
4.550276219280503e-22 2.1867923822207698e-21 1.9220393533082e-21
5.190071366834559e-22 2.7932144333923362e-21 -1.3087722896878175e-21
-1.935536488212355e-21 2.4060090295079226e-21 -2.8141809774259913e-21
-1.553151358099761e-21 3.871210587168576e-22 -3.994088048300295e-21
-1.90804566051769e-21 1.2361596687857059e-21 -2.0744911299509306e-21
5.2168244192476e-22 6.313098097649757e-22 -4.142632565175156e-21
1.4979906042983934e-21 2.9307286741182394e-22 -3.771232680172071e-21
1.3721017211601935e-22 -7.278851561127074e-22 5.616695929448657e-21
1.0030367008284189e-21 7.053783086471985e-22 3.012649561640222e-21
-5.952995776462693e-22 8.627467668931977e-22 1.3625448880178768e-21
-1.097617027928487e-21 1.101411721167501e-21 -1.7222481850546106e-21
4.478604845667478e-22 9.365848317192371e-22 -2.8356883284838796e-21
1.0076465567909105e-22 3.3912365848097176e-22 -2.3245729789090628e-21
9.579312754394832e-22 3.604170674037754e-22 -1.1202799528328844e-21
2.263471035741289e-22 2.815823593721027e-22 -1.4329924909851232e-21
9.843482332615836e-23 7.034473262276987e-23 -1.6855317246401624e-21
-6.398192909872677e-22 -4.359461053293928e-22 2.7867128251846722e-21
2.3001251018088763e-23 3.802858690294538e-22 9.277277129367961e-22
-2.5801096065299334e-22 6.174591908734207e-22 5.676656258133182e-22
-2.044491801458233e-23 5.976240495378015e-22 -5.547565909594756e-22
4.625649226745703e-22 3.5012400743438023e-23 -1.5633836336072123e-21
2.1007228642969955e-22 6.063601939262897e-23 -9.097605458343852e-22
-6.690135668375589e-22 1.277554345011755e-22 -9.02898151071225e-23
-2.3174215278464876e-22 9.885155678548193e-23 -3.6671029719401464e-22
1.881879478152115e-22 1.961118368176556e-23 -7.229057004175914e-22
-3.49423704375593e-22 5.587503720824645e-25 1.1544418053458771e-21
-6.075581314559927e-23 4.843765225290648e-22 -1.3837487768586888e-22
2.4207483537602414e-23 2.0748020860348063e-22 2.1284824592438817e-22
-1.063534346890346e-22 3.8059549621457707e-22 -3.0505748276155996e-22
-5.836874938247992e-23 -7.794466490083998e-23 -6.751950396409942e-22
-1.3128174560858698e-22 -1.741518725119069e-22 -2.2015924184227685e-22
-1.449835021512876e-22 -2.668620935372667e-23 -2.263025743120655e-22
-1.288542160534587e-22 -8.56177461049834e-24 -4.304367648127572e-22
-1.1687957471622118e-22 -5.59761567136078e-23 -4.618292241880114e-22
2.2661014097059345e-23 8.292456780896901e-23 2.0616835081511548e-22
2.3732179573352826e-26 1.1285420410964451e-23 -1.4262290258619912e-22
3.025715738531135e-22 9.688663662222742e-23 -1.0560109137203506e-22
-2.3870510548550017e-23 1.0263451660754358e-22 -1.915375150147265e-23
-3.056243623622359e-23 -5.514037110293563e-23 -2.0913675852394764e-22
-6.829459479766713e-23 -1.1960459333746185e-22 -1.4086624938717097e-22
-1.3768317166202616e-22 1.5071791010794782e-23 -1.2281404806966225e-22
-6.3575403064475345e-24 2.2003379570756968e-23 -1.479376050176243e-22
-3.0662862318770097e-23 3.666312515330216e-23 -1.7542199469136152e-22
1.7901018331023737e-17 -1.6457696033396374e-17 1.1342868272390704e-16
1.1837600394486025e-17 -2.2002419556820158e-17 8.421745813470381e-17
1.2384921991637838e-17 -7.060965056000083e-18 1.0623107140891988e-16
-1.191970780196595e-17 -3.1727305338274817e-18 4.454109657863117e-17
2.9154311080438327e-18 -3.8800394803731616e-18 1.2624608591750033e-16
-1.972093540927489e-19 2.72062581063735e-19 4.8274743975147866e-18
3.701864162810908e-20 4.252340064734121e-19 9.267905895583868e-18
-4.485927244951533e-19 -4.943463848806315e-19 4.420363186665649e-18
5.901168608537705e-19 2.0696774218684121e-19 5.335794842137655e-18
5.342038170135525e-20 7.534364781504215e-19 7.41013495316141e-18
1.1383088909006676e-18 8.157896079838762e-20 1.0457937108739617e-17
-3.2143450345431273e-18 -4.201010739956276e-19 2.0496666460966578e-17
1.5709513552567361e-18 -9.71213230268756e-19 6.231995397887556e-18
-2.7117562854340448e-18 1.909141240155356e-18 1.3415709614100958e-17
-2.0145363286747347e-18 6.871033264204209e-19 1.3514366030700876e-17
-8.332282155932351e-19 -2.361886354074211e-19 5.590951134793944e-18
-1.0793397068739596e-19 -5.077040629817112e-19 4.441223295753416e-18
1.7083647992054704e-14 2.0527526796425573e-14 7.874886394722752e-14
1.4190989928625568e-16 2.5229539646481626e-14 6.791018506432124e-14
-1.5411648129104559e-15 5.055698929447153e-15 5.365179699279221e-14
-1.562881727119208e-14 4.692880178541214e-14 1.342695346388012e-13
-9.650666573574141e-16 2.420001437806459e-14 3.89375713116958e-14
8.022336589793778e-16 8.445389296696194e-15 3.2717403961208994e-14
6.378746029417773e-15 3.692209998457724e-14 6.720672905957855e-14
1.1082339493425837e-14 2.429056366393157e-14 9.18278356911442e-14
2.7561587743534484e-15 9.201324127933446e-15 4.148375053779675e-14
5.6604551651501594e-15 1.0791743826168061e-14 2.9663088414479014e-14
1.3491678550089006e-14 4.447732781385903e-14 1.8642999990188455e-13
1.7275574712819455e-14 6.122409857331658e-14 1.7969720226998467e-13
9.024211179567854e-20 -9.141572091614999e-21 8.125263072768517e-19
9.611924987532624e-20 9.102454523592039e-20 7.908218522546893e-19
1.0865766074962275e-19 2.749070209673746e-20 1.4436812091075984e-18
1.634977337488012e-19 1.0756618124008139e-19 1.2375932919562314e-18
7.568245746557102e-20 -1.9055561108719282e-20 4.978639137923692e-19
1.3120217630771143e-19 -9.805898084565608e-20 4.865445604610731e-19
-3.84707438785752e-19 1.1957858193673285e-17 1.5253880649867212e-17
3.2385532229219746e-18 2.624144511581706e-17 4.76151659220323e-17
-1.9643644917387155e-18 1.6088906615709925e-17 1.943298418763206e-17
-4.994598250595262e-18 2.388409889846912e-17 2.987155933802303e-17
-1.9055930859647157e-19 -2.29450257590105e-20 2.0618084331520522e-18
1.753593117096665e-21 4.2758549062063587e-20 8.7336661364036e-19
-1.6815715480652273e-20 -5.501669565277297e-20 9.018248116620762e-19
-8.455525467870104e-21 -6.77184126449506e-20 3.283978761839273e-19
7.242176807890657e-21 -6.75365404107457e-20 2.8468781747106087e-19
6.503765597692132e-21 1.3350407589678346e-20 5.983239634834807e-20
5.2624932499509646e-21 -2.8208421598252053e-21 4.8121115590832314e-20
-2.5281786792150224e-21 1.968444165104382e-21 3.616049486893604e-20
3.0123177265451876e-21 2.2302938710212742e-21 2.6100781140529514e-20
-1.7776433612061962e-21 2.777828390128061e-20 1.603003272799762e-19
-2.2100004989148535e-20 -5.498521053253865e-21 8.93880235477259e-20
5.011009127989769e-21 1.1626675259083385e-20 7.659461734554754e-20
4.9032304625819806e-21 3.0281663542553885e-22 7.090929066103898e-20
-5.338457562300343e-18 -1.584377503991745e-18 5.16879626218305e-17
9.534708100967029e-20 8.627254133799135e-19 1.3836724164869662e-18
-2.696705779357374e-19 1.3980567693027866e-18 2.517531933606251e-18
-3.9918083709312335e-20 7.184565052029566e-19 1.2026494406858125e-18
-9.09573459455662e-20 1.167853187205343e-18 2.074987017814755e-18
-8.03947365591946e-18 -3.196650090192379e-17 1.861066659371638e-16
-1.9361932330879662e-17 -1.588199162146345e-17 2.280694496012929e-16
1.4624230807776388e-17 -1.3903752015562445e-17 1.2344389412081864e-16
3.3166926037293997e-18 5.767856063835205e-18 1.0037802845186511e-16
-1.0036515682590065e-14 1.8987976835062364e-13 4.2906000802732704e-13
2.6711511670033543e-15 2.4397067720245144e-13 4.273119874632548e-13
3.9975372903078786e-14 1.6081982252391475e-13 1.6862577083123925e-13
-1.3575982480943553e-14 1.2114308134998476e-13 3.981432905170154e-13
2.9622608245609653e-13 2.2019746690697943e-13 1.3497020045410238e-12
4.695343883696121e-14 8.79913124818779e-14 6.42115171159645e-13
8.714334502876893e-15 1.2467769110869776e-13 5.792076887734902e-13
3.46517023448508e-14 1.524919169024994e-13 7.89775211247566e-13
8.648256765288773e-14 3.476151641803054e-13 1.286371530968228e-12
-1.0291701037243542e-13 4.3694487629616086e-13 3.2473652572349173e-13
-6.880537887779821e-20 8.546547759133002e-20 3.7898268404967936e-19
-7.006787651903632e-21 3.0316521391723695e-20 2.1082185099274748e-19
-1.4385796430975792e-20 5.102095442446562e-20 2.0920193350566377e-19
1.2804334010583792e-20 1.1251377157946809e-20 1.0043322158976756e-19
2.5238435551699772e-20 -3.539127450858142e-21 1.4832976608026757e-19
7.346822615395753e-21 1.0443624284052383e-20 9.868929348560084e-20
7.815455522204706e-21 2.4412525329568408e-20 6.55844565552519e-20
8.427563894662616e-16 3.1705601849783288e-15 3.0849057897784116e-15
1.8592023212829387e-16 1.4442303297339878e-15 1.2968883909723755e-15
-2.002771890681867e-21 -1.8629722328180186e-21 1.6850738478274666e-19
2.2988129095999637e-20 -4.35154867428119e-20 2.7208452777610884e-19
6.488733800819818e-21 2.9259174490042625e-20 4.1527469509103776e-19
-1.7382864206715103e-20 6.840892927461395e-21 3.006765697310285e-19
3.559797292863411e-21 -3.1714462104870025e-20 1.3033590598644529e-19
-1.3647926184684585e-20 -1.9883024422385963e-20 8.993456714468092e-20
-2.7783008555131904e-20 4.002274197860033e-20 2.1669373695987597e-19
4.053000985089539e-21 -2.426062807754036e-20 1.4488087104218384e-19
4.2721340119360405e-21 -7.229876371463283e-21 7.000883416417289e-20
-3.1256167343059816e-17 6.73854101572037e-17 1.8875696605963124e-16
-2.2397060269954682e-17 1.6606608354316122e-17 1.4538156291312626e-16
1.1832984973526084e-16 1.2010106031434288e-16 4.939901631513429e-16
-3.555595166413121e-18 4.4764477667616783e-17 2.1115707340875e-16
9.27245625424056e-16 4.1096611559121784e-15 5.9345725296517716e-15
2.347730471176169e-15 7.79102892458588e-15 2.7485891504227565e-14
-4.641410991776712e-16 4.51556428952017e-15 1.3597833763567338e-14
5.62170015775941e-15 1.119756490416004e-14 2.281209336580725e-14
1.948322756207632e-16 2.643534739569752e-15 9.371399108338725e-15
4.284135333644349e-15 1.4257384666169834e-14 1.702691034039757e-14
-4.3970995012541055e-16 3.310398375256352e-14 3.0635701309471396e-14
6.743632622268702e-10 2.5924795031370494e-9 9.428494896653483e-10
6.002524893456409e-10 1.5193292191380466e-9 2.970503804131039e-9
1.430773390228255e-9 2.3287766121893865e-9 4.8152558789422515e-9
3.5379709428803085e-10 1.924446118437145e-9 4.435916427208258e-9
-8.090290558344814e-11 1.72451239038976e-9 1.1858282785546704e-9
1.7918583772178436e-10 2.3705833304051146e-9 -1.3235349985196726e-9
3.9610178568655215e-10 2.102377718276086e-9 7.204787615120814e-10
3.0200991128328623e-13 2.116355783407636e-12 1.8721941232452525e-12
-5.126148086371811e-13 1.285491615880031e-12 -8.031960751112096e-14
3.102494717685837e-13 3.701903110994979e-12 2.3738305458995164e-12
-8.61255045206592e-14 1.886236068862718e-12 -5.559889024380526e-13
-1.2453517106589313e-9 2.8700396120568647e-9 -5.063454719832871e-9
-6.109047645177921e-11 4.253104609734531e-9 -7.039897259128721e-10
2.052271503149194e-9 2.2447463393971367e-9 -4.45026802932623e-9
2.1930473809203616e-10 3.6768580101742374e-9 -3.1158470304463793e-9
-5.824115062473196e-11 2.5327378615522632e-9 3.2978529152160306e-9
1.644098737358813e-9 2.4361235368595188e-9 6.29249019226803e-9
-4.1040393031809763e-13 2.194968659122555e-12 -1.953414919280436e-14
-4.748892743420424e-13 3.213970298974661e-12 1.4218228312929168e-12
1.550432290254642e-13 1.2235422279165992e-12 6.74264703764291e-13
1.0214672574334654e-13 3.055584181657092e-12 2.545179140334152e-13
-4.899282048655462e-13 2.01997143029403e-12 2.118833373026731e-12
-1.1197355184636594e-13 1.0040190566312804e-12 1.4042044567169093e-12
-2.684799444437852e-13 1.5301078000224047e-12 1.5778770271438838e-12
-2.018127726463029e-13 2.011310387277791e-12 3.9325170770448044e-12
1.9721258259767462e-13 4.082377097000986e-12 4.049649192331173e-12
-7.623111852172237e-13 5.076011189132288e-12 3.939790315472143e-12
-1.4350279238019553e-12 5.684498580859199e-12 5.3051540912657674e-12
-6.594503508621751e-14 7.948325023355296e-13 8.188426647594159e-13
-1.1499370366673178e-13 2.000065074962971e-12 1.656726923154404e-12
-1.5027424431148204e-13 9.357018670629926e-13 4.3512821368498324e-13
1.7694425694125699e-13 2.5216044803171237e-12 3.4693343769046064e-13
5.425328087722076e-19 1.437934254741099e-19 3.119932362189473e-17
9.504512148798152e-20 3.297120844106564e-18 2.1189125770006204e-17
8.979495420431211e-18 5.961427522360089e-18 5.1813356289127985e-17
1.7669497564678644e-19 6.501167823636645e-18 4.4876815441801934e-17
-6.059280013637784e-19 -2.858204551926094e-19 3.14958865665271e-17
3.510806281918095e-18 5.562980139850424e-19 2.0715807214682215e-17
-5.309897799830291e-21 -8.626118429832017e-21 1.8155726997084973e-20
-1.081645436271642e-20 -1.1436987929341985e-20 1.3830287556575418e-20
-6.881937504688502e-21 -1.006718606018059e-20 4.798903652511134e-20
-5.2200470846937415e-21 -2.528025807940807e-21 6.318971129616868e-22
-6.555347138833982e-19 8.084150472901759e-17 3.4735412563827723e-16
2.329158458146216e-17 1.8157721936394596e-16 4.762987609034689e-16
-2.461040533906854e-17 3.0754142432217176e-17 2.538246584552421e-16
-8.785793645028653e-18 4.170896867076521e-17 6.519135653054094e-16
1.571834791747468e-16 2.57783031983086e-16 6.678214330160541e-16
1.0830435038935525e-16 1.1713502982349577e-16 9.300988253502007e-16
5.5311284461582374e-17 8.025516733576482e-17 2.2542158845967476e-16
1.2575551779758737e-17 2.0047668934454416e-17 1.6539903387835828e-16
-7.930202788340142e-18 8.029085889583325e-18 1.6844904569074328e-16
3.2425031308174497e-17 6.395128115460744e-17 2.235929326822282e-16
6.199029097710141e-13 1.2268036553011835e-11 -1.75754713647812e-12
-2.4877259155420597e-12 1.6481067526650173e-11 -1.2840068436114299e-11
-1.1345312358886143e-13 7.204855926610666e-12 -6.351265497551204e-12
-2.9083299144394186e-12 1.185179925314019e-11 -1.8008045785185296e-11
-1.6748714117174358e-12 5.724347573123159e-12 -1.0802902748438386e-11
-2.6080867638501916e-12 1.28452704575605e-11 -8.177695403538984e-12
-2.608866217089947e-12 1.8114567228827786e-11 -2.9024729426908227e-11
3.2419256789356115e-15 1.3946897852725702e-15 1.8606927165147933e-14
6.7294837293143726e-15 1.7466717528911793e-15 4.096772267534274e-14
2.0557129068063794e-15 1.4331207456652898e-15 2.3044124908207468e-14
-1.1683288650437845e-15 -4.933332961083181e-16 2.2260323494885553e-14
-1.4241713858114732e-15 -1.3539896261499427e-15 1.5230104513081894e-14
5.772720419229001e-15 7.574892765730393e-16 1.5945011563720085e-14
-4.2629008293591503e-16 -6.639825193337034e-17 6.235485759306877e-15
1.2470649231510957e-15 6.985422790260146e-16 8.790226146830019e-15
1.7029664737296318e-15 1.6454610564539325e-15 1.403881404291714e-14
-6.196880791021424e-21 -1.769056224278965e-20 4.603317362737336e-20
6.465786981911843e-23 -4.1959641115616544e-21 8.516264931530328e-21
1.3911423915416514e-20 -2.8405290585939e-20 6.359298368754039e-20
2.3045380617964286e-16 2.36206960262002e-15 8.683290566890159e-15
-2.9200445461472053e-15 5.360000580103174e-15 2.3001848143602313e-14
1.3120016968019796e-11 9.089064749789265e-11 2.1966155867361068e-10
5.1251306378280856e-11 1.986031591458356e-10 3.1868189784234064e-10
4.8047378525872594e-11 1.02347668193147e-10 1.132738674203226e-10
1.566414411238603e-11 8.244815766070661e-11 1.5961129443419428e-10
-1.3840822934556872e-11 4.689595297550381e-11 1.5507913797754233e-10
-1.1590656072299046e-11 8.95894046006903e-11 2.4695105619326077e-10
-1.9108941814737036e-11 8.839160751226497e-11 1.9077777366349117e-10
1.6551597252888324e-11 3.723126784056273e-11 8.0806811533164e-11
-7.614119863056783e-12 2.4203381598604777e-11 1.556244684713937e-10
4.7819085801230824e-11 6.065950948198609e-11 3.1525832166774425e-10
4.918711184598497e-11 2.1474486346355178e-10 3.9885556822385863e-10
3.5190183214307934e-14 5.23128119923404e-14 1.1648140158547448e-13
1.6207527356350814e-15 1.7322732273026655e-14 3.3246918688543764e-14
5.4777417567904975e-15 1.5360347781502882e-14 1.1922319813221009e-14
-4.412961527286064e-16 5.359943448112263e-15 7.283800186861285e-15
6.444139547882236e-16 6.146967987174739e-15 4.5886065083793e-15
7.562788493264438e-15 1.9480633528560673e-14 3.164046842664227e-14
-4.971351348041856e-15 2.832811591828867e-14 2.935809390659739e-14
5.440031712819114e-9 -7.481804431807443e-9 1.3142533079117662e-8
-2.687493888482668e-9 -1.9659528128903238e-8 9.217655259369857e-9
-6.097705795818002e-9 -3.316336400537971e-8 4.256253074103894e-9
-6.949382059387373e-11 -3.4829415914166248e-9 5.680069261712321e-9
-1.3858034910665847e-10 -4.011204682989507e-9 1.3760677635024642e-8
9.968875055859657e-10 -2.3926781241714112e-8 8.715425574983189e-9
8.690747952080578e-10 -3.4402487970673457e-9 4.8220719094826785e-9
3.7308833939239825e-9 -1.986069161005645e-8 3.7265992740803364e-8
5.963428284470765e-10 -4.064920715704262e-10 8.743926299120436e-9
9.734821609370607e-9 -8.026492577878432e-8 1.6321434369130897e-8
-3.899838498396645e-10 -2.294865372210624e-9 7.166699983472051e-9
7.125887522212138e-12 4.929967447234505e-11 3.944263176211008e-11
-2.4410164858258923e-12 3.712902974181615e-11 1.5211679003035697e-12
7.668882075894019e-12 2.5985453232794656e-11 -3.726161102932541e-14
-9.748391039823142e-12 8.469503509890355e-11 3.71873720689084e-12
-5.837139225130273e-13 1.8368046394802004e-11 5.621315899953394e-11
-8.43249585354644e-13 2.9060514943448768e-11 3.4425033752878493e-11
7.245211665079708e-13 1.1444604362293788e-11 2.1904960041520192e-11
-1.177690584297559e-11 5.0373455884438346e-11 1.1001186967143639e-10
1.8100508393607965e-12 1.0589964969886569e-11 1.474943645317943e-11
1.4298673796927682e-12 1.9846103836881303e-11 1.871456303583606e-11
4.765734466570406e-9 1.874071758416823e-9 1.22041806979509e-8
2.137725303848841e-8 -3.00393934425335e-8 2.0175589352533795e-8
1.2724044970833166e-8 1.0005605591550618e-9 -4.159017627346205e-8
-2.0396042888630995e-9 1.0309174703763863e-9 7.495459747323854e-9
-1.4581137761038862e-9 5.317685443155014e-9 9.751830480317945e-10
9.451349728514506e-10 -1.1463947564831443e-9 1.2574503187321959e-8
-5.070471029981457e-9 9.598894175226672e-9 -4.319856694678934e-9
-1.4463513773145543e-12 1.5261554442029608e-12 7.2734399684765e-12
1.1712681992258835e-13 1.10650905806939e-12 4.232077847492843e-12
-2.0519846969345737e-13 5.567217682287002e-14 5.880555783490593e-12
2.4766358395661395e-13 1.5065976455375683e-13 6.49076436446166e-12
-1.2317802580179658e-9 1.9799435276330126e-9 7.356014808687143e-9
1.1173866131008145e-9 -3.971492966719609e-8 9.97691723771944e-10
2.3887815215495773e-10 -4.2030475292394755e-9 1.3441340629300012e-9
4.2761879601294404e-9 -3.0147005302940698e-9 1.2357736860047353e-8
1.3879287190476484e-13 9.761537134902868e-13 3.437209740436857e-13
2.1977136978721846e-14 4.560047416233112e-13 2.646560521359927e-13
-5.589095929081062e-15 4.008552582868941e-13 -2.701049245250967e-13
6.94735830928722e-14 5.768141870398097e-13 -1.6009401660070492e-14
3.1012493224990796e-14 1.2784672737178952e-12 -1.0369549664102586e-12
1.595140633203661e-14 2.352870049200997e-12 2.7720230867892894e-12
-1.0879698158090666e-22 1.8601653989361554e-22 5.742978300943765e-23
-1.5284036380308504e-22 3.5019193607188766e-22 2.316366824175884e-22
-7.596179457555567e-23 9.164508704293154e-23 1.9284369161127814e-23
4.649844734554545e-13 2.1886286214769773e-12 5.853423046935103e-14
-1.8035422758175873e-13 1.1300928282338227e-12 -4.909222679341212e-13
-1.2101782178290846e-13 8.533876898666232e-13 1.133491602076333e-12
1.6896110810152917e-13 8.280567694673405e-13 1.575286122021754e-12
2.611584335974128e-22 2.8397418820725217e-21 4.562506747085605e-21
-3.992855955813459e-22 7.644878794734294e-22 2.3828788840757353e-21
7.341002268594e-23 4.318252560285946e-21 1.0748823966864253e-20
-1.4841292310769208e-21 2.024156905688324e-21 4.700360624833191e-21
-1.342500493604975e-13 6.855936548635359e-13 1.148978742213497e-12
-3.89087249533511e-14 9.224023603313725e-13 1.0710555428630242e-12
-7.148937682473536e-14 4.775025476179766e-13 5.008229918161166e-13
6.017067177306689e-13 1.2511520464349854e-12 2.615410499584593e-12
1.3712591768482312e-13 1.1012625816059257e-12 6.298218933127321e-13
-4.808450973490311e-19 1.020008470557858e-18 4.907969562561767e-18
5.445140740379179e-19 6.595849883123367e-19 6.80031211891667e-18
4.661371672323395e-19 6.924657127095044e-19 3.0107951489098468e-18
1.5425357624564162e-19 5.785469241416983e-19 4.417573133264126e-18
3.2038290628788127e-19 2.600256968803746e-19 2.5789847653732667e-18
1.4105208926700487e-21 -3.316944210955177e-19 7.806005402899917e-18
5.318020750925565e-19 5.916171456007289e-19 2.717430211515671e-18
4.910328259261493e-19 4.819229094162259e-19 4.185188834033328e-18
2.7138380170740585e-19 3.729925911904045e-19 2.807606141345188e-18
6.40904982040276e-19 1.565448221230158e-18 8.272286453653263e-18
-1.1879384426663274e-18 2.7710781635026757e-19 7.830465170700188e-18
-4.620150437961477e-19 5.139376896243418e-19 6.198805912713077e-18
1.0107931195815646e-19 2.710048297825205e-19 1.3318130203339076e-18
9.993422632408844e-21 2.668060959366189e-19 1.8773565229849795e-18
2.466843544971379e-20 2.3379799537023763e-19 2.102132639171388e-18
-1.9405721119043688e-19 -2.1160277329029206e-20 2.728489020126807e-18
1.9325929424347492e-19 1.5102972670913622e-20 2.1477132160295415e-18
1.3293034455094302e-20 1.4685634375753245e-19 1.3738109957163237e-18
2.2979454829703343e-10 1.1475307117249881e-9 9.023852719085129e-10
8.893915069902176e-11 9.33083183110671e-10 1.0269042135319764e-9
-2.8287508104532264e-11 4.181720900169962e-10 6.353869654467835e-10
9.691609754759412e-11 5.016216378895875e-10 2.224605514372402e-10
-3.218634315937764e-11 9.560502695354818e-10 8.212006378229718e-10
-1.290461057213725e-10 7.367699825706066e-10 2.368190568213839e-10
1.4266235373660696e-10 1.0701070791693611e-9 -4.2780889168360786e-10
-3.706100645227617e-19 4.673937750572696e-19 2.274373795730157e-18
-9.294986326075561e-20 6.329405125239442e-19 2.045254811105558e-18
-2.327425794824412e-19 3.5783874819179352e-19 1.6734047389084544e-18
-4.999400877940248e-20 3.019141003374062e-19 9.948367574372688e-19
-8.415500973471421e-20 1.3466394874660133e-19 4.920184867266076e-19
-5.545235163817952e-20 9.808671334227008e-19 5.021522935996164e-18
-2.0573594175518395e-19 4.356941268811067e-19 1.5336391409379214e-18
-1.0100983259358039e-18 -2.3658647566844176e-20 1.8338474438505676e-18
-8.413366981840752e-15 -9.973963664491901e-14 3.034527233296292e-12
8.280246263531701e-13 -7.255060217860848e-13 5.813835540287887e-12
1.855645253912111e-13 -7.159760246234266e-13 4.243587592829768e-12
7.364792782780676e-14 -1.847708015745894e-13 1.5994517566095471e-12
2.691806512549152e-14 3.955435395785546e-14 2.958742052418096e-12
-1.0278683084616043e-13 8.406707682248979e-14 4.084242293138491e-12
4.03988253646191e-13 6.957208569112105e-13 7.1214034888975555e-12
2.5718267948846345e-13 -1.2420642569937017e-14 1.540409197355355e-12
5.742365886022203e-13 7.596311292046094e-13 2.4292216886014457e-12
1.705873991495132e-13 6.348817755221987e-14 2.467417218869327e-12
-1.7219909447706155e-11 3.6104401307494264e-11 1.5014798543173528e-10
-1.4761440107620188e-11 3.3853463247830155e-11 9.775100158660833e-11
-8.869788178652828e-13 7.489776100085289e-11 2.7573664135794327e-10
-1.121582194608761e-11 -9.195476878611646e-13 1.54054511394591e-10
3.6572012807369147e-11 6.184639376907906e-11 3.528641882444791e-10
-5.180719648961112e-11 4.380814012733964e-11 1.7392246892431871e-10
3.2889250958172374e-12 5.8023494958266565e-11 2.770158838437937e-10
-4.0792048423886025e-11 1.4376216184341897e-10 2.8268242260685363e-10
1.4720991282826382e-9 -4.4739802942462874e-8 -1.4470593001532065e-8
5.7378244725353e-9 -6.540903304815479e-8 -3.078976228015842e-8
2.1392120688172126e-8 -1.207451699549875e-7 -1.5140677718245088e-8
3.3201109594886096e-19 1.7066030811542978e-18 3.14160143842037e-18
-1.8013455127884622e-11 7.092286442196999e-11 1.3319212931051964e-10
9.897576872153643e-12 1.1706727479589724e-10 1.2970138070171212e-10
-1.1539008556108596e-11 7.759355895904418e-12 7.464096243320799e-11
-1.1804999650782469e-11 2.427692767300585e-11 6.737142989416702e-11
-1.1323056349447953e-11 -1.471447654881239e-11 1.3582365429673228e-10
-2.2544935438266467e-11 1.6045874337459264e-11 1.0985413869198074e-10
-1.4082722883287029e-11 2.0351273637011632e-11 8.349287910216177e-11
-1.3381416634979715e-12 9.19018563232536e-13 1.1933792844301851e-11
-1.9782753529055653e-12 4.922843099829624e-13 1.688371688935165e-11
-1.2017917456424304e-12 6.3489427599001546e-12 1.888729864690557e-11
1.059579271892348e-12 3.6310489335664312e-12 2.5844461108114155e-11
-7.044574348529983e-13 -1.9181694407031682e-12 3.691576273231804e-12
-3.081697583214505e-12 -2.594843969044869e-12 1.6605561523019078e-11
9.107854428723506e-14 -1.2241997051476756e-12 5.155142861308652e-12
2.9991753582045797e-13 -1.8454613965747183e-12 1.1008327491280087e-11
2.163907967258093e-13 2.306916412969331e-12 6.697726804881575e-12
-5.0754386670308285e-18 1.458396038717148e-17 2.5626138868377237e-17
1.8677054410936597e-18 7.470940923658871e-18 -6.639698862300447e-18
-1.5425803608990992e-17 -9.841152057907144e-18 6.119748054290964e-17
-4.1897246322142784e-18 4.1614900414241924e-18 1.6867729378641816e-18
9.959605935443736e-13 2.27742714174208e-12 1.602095550619652e-11
-1.6031496580281327e-12 -1.531227107047243e-13 1.0333608636934393e-11
2.8560932741099267e-16 1.183776345269532e-15 4.266959250329776e-15
2.9808297669239493e-16 1.2530382651860419e-15 5.32178812464481e-15
1.3847264442238525e-16 1.239247044610996e-15 2.472123653601468e-15
1.2784382237875514e-16 6.962891088857102e-16 3.1930947572756124e-15
-2.1089828041443043e-22 4.653697639672393e-22 4.99513228210863e-22
-1.0568863860087821e-22 7.549535648714956e-22 9.67633614041779e-22
5.2698914322342495e-22 -2.851584883937008e-21 3.9316457904545816e-20
1.1730415675302186e-21 2.413970310153867e-22 5.85769899503464e-20
3.756080815577095e-21 -2.5078104718742568e-21 4.342338088284646e-20
2.1431547363993737e-20 6.012419781294123e-22 8.680525885461232e-20
1.0513353672669384e-21 -4.525390191409624e-21 2.4656053226240355e-20
2.055057699276017e-22 -2.6223645912703136e-21 1.541881217646691e-20
1.579016690803377e-21 -3.045098375738699e-21 2.432253604558725e-20
9.311985713370915e-21 6.7367918836325164e-21 6.265122012981341e-20
-3.899289958502084e-21 -3.181286860493705e-21 5.598487223827641e-20
2.155972003121016e-14 4.3632214398118353e-13 6.291789678599378e-13
-6.435393136087114e-11 -2.113359201208141e-11 -2.8179396456925846e-10
-4.718234161074069e-11 6.270213468808899e-12 -4.843594775947285e-10
-3.748486450737955e-11 -5.744985562663005e-11 -4.798703269314955e-10
-2.4652133315761724e-11 -2.990099632661714e-11 -1.337562376245388e-10
1.5820216114993405e-21 5.309529829967874e-24 1.364743794598089e-19
-5.273988065390613e-21 1.981364069592925e-21 4.7569260403580324e-20
-1.369078758640405e-21 1.1273572200918858e-20 3.8543626246159855e-20
-7.37956043405093e-22 6.071635099904967e-21 4.037138446045529e-20
-1.7475806498092088e-21 8.375571156471595e-21 7.57821990011151e-20
-5.518787699700279e-20 3.0182915709449383e-20 2.237525727110815e-19
-6.118638726407194e-21 1.869267475825994e-20 1.0084520869490469e-19
3.8910148461456685e-19 1.6492872253049044e-19 3.778202639920014e-18
2.4003606636472222e-18 5.003311135594797e-19 1.2354606468880025e-17
7.186867163784341e-19 3.7782009409552573e-19 8.117584823427079e-18
-1.2032586922666997e-18 -1.2211949234331159e-18 2.0113637252894597e-17
-6.106063099233991e-20 -1.1323380832491946e-18 6.788413466415403e-18
2.254327441084503e-18 -4.609734045040528e-19 1.3213694284121985e-17
5.67601354525958e-19 -2.701605596365138e-19 3.851311510825419e-18
-8.810069388573728e-19 -1.5380990924944042e-18 7.235958445201033e-18
-2.0090807160202755e-19 -8.240081319904433e-19 5.816460909575403e-18
-3.797205982560627e-11 3.729113712362622e-9 -1.4552561641410035e-8
-6.588861833013376e-9 -1.1825571318889464e-8 -6.159754433219549e-9
2.618893102598578e-9 2.0693364459414093e-9 -1.969715845053944e-8
9.53633001692049e-10 6.738935032596376e-9 -7.04647940378726e-9
2.8501304961992935e-10 3.068232850926841e-9 -6.659102831357374e-9
-9.382435420975717e-23 1.1827409440310039e-22 1.0385905043065907e-23
2.1524292596976904e-11 1.0686909994167956e-9 -4.1272017235127126e-10
-2.0541527785760817e-23 4.166768499278346e-23 2.3003826999183344e-22
-5.843680926479916e-22 2.7665333480893596e-22 6.607601373138349e-22
-8.079614320621334e-23 -5.14254069393872e-23 8.357742685028048e-22
-2.783591639441861e-10 2.013519041582678e-9 6.564715426347867e-10
5.57258837929455e-10 1.5997078915437905e-9 2.599340691367244e-9
5.451249905282624e-11 8.598497530549191e-10 1.2140876296620453e-9
-2.8980053041625797e-10 1.8858750265439684e-9 1.91493978746534e-9
-9.970114687350115e-11 2.3367424760930484e-9 2.8853753529348256e-9
-3.2353744842579213e-10 1.0931489282176004e-9 7.549314486934785e-10
9.785263485783197e-21 2.1649440436589926e-19 7.405757244895868e-19
-2.138494715270611e-19 1.8942121589435592e-19 7.346987519576923e-19
-7.327925970876261e-20 1.5912004599034182e-19 7.351116829266038e-19
-2.813159385833662e-20 1.0845930940084984e-19 3.798306577497612e-19
-8.822674890421723e-20 1.8794689824601224e-19 4.542421436883179e-19
-8.061239458406016e-20 1.6096517318496714e-19 4.2906274888680756e-19
-5.646747851499575e-10 1.0765188447266e-9 3.515686301809512e-9
-1.9672754365024214e-11 3.4271767555194106e-9 9.190954560486136e-9
-1.1279520033423578e-19 2.787501087611327e-19 1.2706510010815132e-18
-2.8346569037424872e-21 1.5323003961908982e-19 7.950147216595029e-19
3.991907778044294e-20 1.7697507161959197e-19 7.915522513011825e-19
-1.5465213678199577e-19 1.0282008206164938e-19 1.6502306341357188e-18
-7.07442592156887e-23 1.239655084467416e-22 1.7878026025526863e-22
5.774346576022565e-20 3.42765114434304e-19 1.377131565345714e-18
-2.4824716229712264e-14 5.914406160175307e-13 -8.007408737799548e-13
-2.142445095686669e-17 2.626452862379131e-18 2.1609411715633945e-16
-1.7679726219358657e-18 2.2407464838807334e-17 3.9939108043612074e-16
-1.0201177554972128e-17 -5.977998270338737e-17 3.9939042070184934e-16
-1.7471606078803835e-17 -1.5055964225724274e-17 1.1405247537588021e-16
1.0919267120404675e-18 1.142054342983686e-17 9.060193069434301e-17
-2.4948779318920402e-18 2.5348756401327365e-18 4.986301236145716e-17
-4.7656435598447415e-18 -2.9159297324444175e-17 1.285963731614266e-16
5.2740869840877115e-18 -7.096293671747507e-18 4.3162828859500276e-17
2.1533616767421106e-19 2.2633772993536382e-18 5.839551004405398e-17
-2.1535778415826937e-17 2.9270568635461694e-17 1.2866429507680934e-16
1.2184071118888631e-17 6.348131619929543e-17 2.763721766068758e-16
4.207502342644516e-18 2.065403233698147e-17 1.0733285080442934e-16
-1.9410714716909747e-17 -1.2092689996445506e-17 6.917885489968026e-17
-1.6584301379434466e-17 -3.0145224429559036e-19 8.091589930550581e-17
2.8526509075758796e-17 -5.45603042110708e-18 3.705795593345819e-16
-1.0592805778244338e-17 -1.5019865751808637e-17 2.049634025327694e-16
9.804568087154236e-15 2.8700896638402976e-14 1.3433853784687069e-14
2.037177329072957e-15 1.68814117929141e-14 1.5316836271706083e-14
6.051838798780611e-15 3.235133355372886e-14 2.0117284197929998e-14
2.2434909282045237e-15 1.2097397453182759e-14 -6.158620607702721e-15
8.414235446631059e-15 3.938967244202848e-14 5.874905238802735e-14
9.007693982961487e-15 6.235795006844204e-14 4.953807297027454e-14
1.263067671073193e-14 5.2842394256992995e-14 5.382100139017538e-15
-1.3364209248524809e-17 2.274136196625154e-17 1.0716707122884476e-16
-2.915830775385044e-17 1.8307044391701665e-17 2.0076989764051612e-16
-5.230215364814514e-14 1.5448809788550224e-13 3.935651802026437e-13
-2.881463188171563e-14 6.031361182563353e-14 5.709275423791889e-13
-1.5140401375147605e-17 3.697343612639676e-17 5.269285423851358e-16
-9.720419939753199e-18 1.1893017666051621e-17 6.38521983959615e-16
1.6883697262450112e-17 9.801267925480888e-17 5.601500621591731e-16
-1.8657996045518658e-20 3.483573979863762e-17 1.1429721568773647e-16
-1.1416889144156084e-18 5.578104178674413e-17 3.586125896498533e-16
-4.4637147883737223e-20 9.930759277032289e-20 2.025313533393786e-18
7.436180445623074e-20 -1.437548384267442e-19 1.966117987192759e-18
4.652970827300956e-20 5.545872767527584e-20 8.247967187716843e-19
-1.9781241148018245e-20 -4.7100900503848894e-20 9.411565288284404e-19
-1.52230166867598e-19 -6.98748738632259e-20 1.5317311658827506e-18
1.9573673896571236e-16 3.5428504358529555e-16 5.3287389297948166e-15
6.965599086713063e-16 -1.5046289945060165e-16 3.931380493367729e-15
8.06563631577725e-17 -6.208859057760017e-17 1.0243691187794894e-14
5.443240473253149e-16 4.354479266734486e-15 1.2935083408187029e-14
-1.3339151508277704e-15 8.300927407106755e-15 1.647114808823879e-14
1.4015473116974709e-15 8.17493997761264e-15 1.1775295229547545e-14
1.3123743723643408e-16 1.6766347228918677e-14 2.577230285674086e-14
6.121296162333662e-16 1.009848901547456e-14 9.956488748290138e-15
1.3552595993594416e-10 -2.2939113273862907e-9 2.6071717802609096e-8
-3.243545299629544e-9 3.3761688464059937e-9 1.528814058934106e-8
-1.2614078958649502e-9 1.6688004961893814e-9 2.779139657318787e-9
-2.3125014341127215e-10 3.2922438384560537e-9 6.2599179185751345e-9
-6.787476060644675e-10 2.0533424744051718e-9 6.223885591843505e-9
-1.2071955358451242e-9 2.9705925221970536e-9 2.3306715580328703e-9
1.0761853585857942e-10 -7.478955290885317e-10 1.303565643303799e-8
-8.512395278768692e-10 1.9532111452301388e-9 7.818083491246258e-9
1.5335192957996763e-11 -9.969484306783173e-9 2.3240090042524903e-8
1.2029869682034604e-9 1.862150557468425e-9 1.0852299407053716e-8
-2.448307435205176e-10 1.716264617186869e-9 8.951385408514647e-9
2.0241497979078614e-12 1.8950481384033223e-11 3.6821803902642034e-11
-1.3350128626856189e-12 2.384112045376689e-11 3.908262610050767e-11
-2.214958461117519e-11 5.696981142816031e-11 2.875326480825381e-11
2.177275438310351e-12 1.0146828253735544e-11 5.72415079190286e-11
-2.4085676394370413e-12 6.937821521878872e-12 3.059371487617615e-11
8.79684636090823e-13 1.1327056969263985e-11 1.4840610521964018e-11
-2.8840577775838467e-13 1.760779606182903e-11 7.365150281059515e-12
-4.19649397184427e-13 1.6489048097246367e-11 3.7670650188357786e-11
-6.2392559796382636e-21 -5.059363672213899e-20 1.4830432814371428e-19
-7.051705868408414e-21 -3.4864067311758447e-20 7.386898308277579e-20
3.3222086761991152e-21 -1.8486880344657112e-20 5.694254043063111e-20
-9.161081270660696e-21 -1.7570099792057327e-20 7.111694575434942e-20
1.5324347591740275e-20 -4.699669961763965e-20 1.2617981716740719e-19
3.1194518085599745e-21 -1.4439149181209912e-20 8.218255116835917e-20
1.324993215856259e-20 -3.2450803133733314e-20 1.5328809534237558e-19
-1.059710657490286e-21 -7.514482001637234e-21 4.0431339827851043e-20
3.5015769117295695e-21 -8.706504273738814e-21 3.117431864075354e-20
-4.402918498297302e-22 1.14679993792929e-21 1.848031083250747e-21
7.740720912771566e-23 1.4229196298316173e-22 -3.454416457649379e-23
-2.0639163148621584e-22 2.451180253370551e-22 -1.1476505287560978e-23
-2.2079510356321597e-22 2.6968423758077094e-22 4.676708056216078e-22
3.5617009341666396e-22 -7.446809465759879e-21 4.367534094739557e-20
8.118057512075052e-20 -2.8470487398005783e-19 2.5928185280404934e-18
-1.4273452553444338e-19 -3.1957402230243857e-19 2.1426815648259995e-18
-2.2231726854952933e-19 -3.5618308211623206e-19 2.2005710709645e-18
-2.495276670301492e-11 1.7535804378312957e-10 5.663276991002046e-10
5.1254278545732466e-11 5.0972027900555985e-11 4.443663864962596e-10
-9.29730765790993e-13 5.752310335892488e-11 5.135931090946355e-10
5.1472089461728284e-11 7.044251868954347e-11 2.8051905612191236e-10
-1.1522339797774587e-10 5.37354543401633e-10 6.791385530795474e-10
1.4012153747475065e-10 1.3197836995371717e-10 1.0042060391533177e-9
4.650657678656836e-10 5.618900627638595e-10 2.06771103574574e-9
2.6769244107162985e-10 1.5537061260662564e-10 1.0309625043679776e-9
-1.8627369252927628e-9 -2.4619062447599577e-7 8.295678409532546e-9
-1.6450215998352022e-8 -1.4421404999331714e-7 3.1290439059149093e-8
-2.3722881133328722e-8 -1.3842812586880477e-7 3.552755921117761e-8
-2.3085217503596028e-8 -7.636771628602595e-8 -2.598291179382424e-9
-7.903875638586228e-9 -2.459850988779671e-8 -1.5406628094841767e-8
8.811609218117514e-22 -6.127034009723175e-22 1.9097434206303235e-20
3.842381540692474e-21 -2.93628346847116e-21 2.55161922955535e-20
3.7440399352338645e-21 -3.642521073581512e-21 2.5264002262034768e-20
9.26317014883073e-22 -1.521433663562637e-20 5.2558458845440046e-20
-6.0375250478986e-21 -7.865591819233374e-21 7.96766901829865e-20
2.374033165112761e-21 -1.5789362279065234e-20 5.959571653298263e-20
2.4248814804289756e-21 -1.3768302343169976e-20 8.386957187729159e-20
7.41537911365691e-23 -1.1111930748474598e-21 3.974045773057851e-20
7.344358732653142e-11 6.048292538026667e-10 1.3207074334085445e-9
9.016657594996771e-11 6.255952683248453e-10 1.3293907960819961e-9
-7.938561242680572e-11 2.777369448562156e-10 6.38194695055975e-10
3.1035986248084873e-16 4.466679674886621e-16 1.1436782236604465e-15
4.8430170537378327e-11 2.1589100888253226e-10 1.0207194362331162e-10
-4.3219365796984593e-11 3.914155436280153e-10 3.073084536499829e-10
-1.3793583687985081e-18 9.365604050135066e-18 2.3725099737882965e-17
2.693107489378653e-18 2.3563395073007743e-18 1.1273414566052119e-17
3.3211258544850727e-18 6.025751651483168e-18 2.6527953710620913e-17
4.777470272193319e-19 3.8864493874030034e-18 1.2945334710484271e-17
7.238399980017469e-18 2.7418817369388902e-17 5.664923533229868e-17
1.3746689726117912e-17 2.0339833382503117e-17 5.73482934599913e-17
2.008657510850166e-18 1.664114669239869e-17 3.9033387326256384e-17
1.0237002458459508e-18 1.88937863766779e-17 2.5539055238061016e-17
7.32614686697657e-18 7.16993077525692e-18 3.614625252296986e-17
7.396362302261336e-18 3.723598617404402e-18 3.725187254766543e-17
-1.8810808910637397e-19 3.199572172399162e-18 9.618651921068987e-18
5.014872231622471e-10 1.9792961773877334e-9 -3.1605988214055798e-9
-2.7690474078885435e-10 8.097828525067945e-10 -2.0505001737074103e-9
6.170172182524514e-11 7.458854397812156e-10 -1.087385975808485e-9
6.05151673333257e-11 1.2251646500503407e-9 -1.7504237230586666e-9
3.8099182375396485e-11 9.028717234834256e-10 -1.5327210759379591e-9
-5.287653532979112e-12 8.522678734459411e-10 -7.226518969158613e-10
5.174559797897879e-10 8.9020597155388e-10 -5.772529671350698e-9
1.1415004117029366e-9 3.1728704958746495e-9 1.6012431678444738e-9
1.73472689862666e-10 2.2526927655959177e-9 -7.193218671172183e-10
-1.8101435403255326e-9 4.6420229809145595e-9 -3.0568875051260993e-9
1.6768606272614397e-10 1.9708506419553826e-9 -2.266458512500039e-9
-1.741053598000825e-18 4.0229853240367984e-17 5.81037676647924e-17
6.68795514841528e-18 4.3279576962704397e-17 6.906770190695021e-17
2.6493026613791495e-18 4.8646517372730036e-17 9.818182826512087e-17
1.1463748294849803e-14 1.502142768566542e-13 1.3290245046656359e-13
-2.2397764405116845e-14 6.806005133189263e-14 7.218001404632095e-14
-2.7411278705516795e-14 1.0097281909793624e-13 1.464906976077173e-13
-1.6477635638093095e-14 1.0272236595839272e-13 1.0267931699292035e-13
-2.7500048413646516e-19 4.563484681184535e-19 1.1769647532113107e-17
4.052673441928836e-18 7.374750676252008e-19 1.966786491651108e-17
-1.0636844185332681e-13 1.0055588976441992e-13 -5.619330924787399e-14
-2.6469983511028758e-14 1.924517973352938e-13 2.464654231589362e-13
-2.103629451406817e-14 4.4637847052264404e-14 -4.015930241406757e-15
-9.371579328743862e-15 4.5299536784160886e-14 7.454483334429178e-14
-6.755392678851508e-14 6.146441495718206e-14 -3.1264983793583496e-14
-2.077782791475062e-14 3.9696887801138953e-14 3.555411327641287e-14
-5.41261057403072e-10 -3.877111763282589e-9 -1.1572038944206216e-8
-6.727867636532029e-14 4.490042064382697e-14 -1.1093519180222859e-14
1.867773216710776e-13 -1.8209875246861455e-14 9.331605480841838e-13
-1.4461350386089775e-14 -1.380165683677012e-13 7.70989682918006e-13
2.3187782591172447e-17 -2.604132608597404e-13 2.6880501733624544e-12
1.841093795504225e-14 4.4043290995652375e-14 1.4000590117261911e-12
-1.1132684910330546e-13 -7.490221265703084e-14 9.082878572000798e-13
-9.91299364115386e-15 -1.6726746100388534e-13 1.520966147999808e-12
1.511106984952726e-17 4.739184683147053e-17 1.2239118609854027e-16
-1.869019175428513e-17 5.989478680333881e-17 1.4731409416643928e-16
1.0638817813650166e-18 2.940951714309346e-17 6.330631779358961e-17
-3.744480368566017e-18 1.2390035340572827e-17 3.413226341592114e-17
7.338259971641757e-18 -3.919643236589119e-19 3.2123336277881514e-17
1.992659910626476e-18 2.2143467008428423e-18 3.0335768465118545e-17
-1.9032709533510229e-22 3.8266117174691376e-23 2.322936682016938e-22
-8.299531708345884e-19 2.4659914176583212e-17 3.139565492152944e-17
-1.053129081699658e-11 2.542638846631639e-10 1.3635105957092502e-10
-4.409570788187978e-11 3.900564568908412e-10 2.658390770717549e-10
4.1214898460038717e-11 4.3721166565481515e-10 -8.266883285052367e-11
4.255580324948279e-18 -1.0161111593260482e-17 7.845777323505711e-17
-1.2268437505698073e-10 3.3040821702055244e-10 4.839897715347373e-10
5.469247620525112e-11 5.232225821620581e-10 -3.2615358200512807e-10
4.708767964372974e-20 6.019314576414098e-20 4.2163136203903697e-19
-4.145878811179152e-20 1.093569798252077e-19 4.779981882899882e-19
4.450146797580343e-20 -7.460246039448987e-21 3.8648873500063753e-19
1.7349537194529643e-12 8.506215853087611e-11 -2.761267104714182e-11
-6.734583808787981e-13 1.947008416050687e-11 1.1107326403912303e-11
-1.5908957808002912e-12 1.4452391269420994e-11 5.834983549701421e-12
-1.9745644003160216e-13 3.785649255489412e-11 2.3681713555189836e-11
-2.616901400782234e-12 7.665243541421221e-12 -1.2003514537033487e-11
9.55364382079321e-13 8.99015844825913e-12 1.7079036131628414e-12
8.701049815594622e-13 9.635578172009888e-12 7.383606093327939e-12
-1.3430358569773793e-22 5.2905591263475616e-20 1.117316189795114e-19
1.2078857614034198e-20 1.115970463908716e-20 5.72592004574155e-20
-3.7077402215736026e-19 5.544342149438839e-19 3.419092114214565e-18
2.6947053187218354e-19 1.2343650074069152e-18 5.4057957982079805e-18
1.4598235125819543e-21 9.833573535662264e-21 3.3888971255414464e-20
-1.0720312584149954e-22 2.946320572727261e-21 3.174338209558695e-20
9.566135475141811e-21 9.05852990171799e-21 5.216777166768627e-20
-2.425102573927344e-21 1.23288566435217e-20 4.399347700313084e-20
9.868004752916975e-22 9.812116658727765e-21 2.833868414023991e-20
-2.7675760036369875e-21 2.0621537690599813e-20 7.78468023426268e-20
-3.48171545553219e-21 7.875383801132795e-21 2.833922946547416e-20
-3.1935024535318593e-20 3.4555344941689165e-18 1.558271008684264e-17
1.986859625702366e-19 1.1684538274194273e-17 1.9923391531074963e-17
1.4032777364470963e-18 3.3425975710376016e-18 1.3844219469015657e-17
6.784709694602922e-20 -3.870410080672534e-19 1.6724821021833302e-18
-9.895948145314206e-20 -3.7218832321966267e-19 2.3152052116651606e-18
-2.198993280384464e-19 -2.91995728997163e-19 1.2888065939805394e-18
-3.7429041758693878e-19 -4.2769430265461105e-19 2.103926814555418e-18
-3.589274184747518e-18 1.6314941079657819e-18 1.543060880415921e-17
1.7755429640467703e-18 8.398501269282366e-19 9.821172774452362e-18
3.3158963954765216e-12 4.1513099659187354e-12 1.1544963751470369e-11
2.1910898309362716e-13 8.285292758012058e-12 4.094818648559029e-12
8.485912757453156e-13 6.2138194126766454e-12 9.666857970506616e-12
4.696611066230003e-13 1.2653221903791075e-11 3.0799576767054354e-11
1.0980526611742798e-12 4.744205047053002e-12 1.5132313157533815e-11
-3.2564629899882875e-13 2.492761139719353e-12 7.862095230725456e-12
-7.328342768127802e-13 1.307722318893057e-12 3.757287557746769e-12
-1.1113729239471911e-13 4.240987904442134e-12 4.2421771274221815e-12
-5.986711444488054e-13 6.559549275223264e-12 2.7563278063300697e-12
-1.6313479138615087e-12 8.71143946779562e-12 1.9059644441617857e-12
-1.869057917498612e-12 1.0784117561559528e-11 -5.50256706490822e-12
-1.398060616686665e-13 8.156474947791407e-12 -2.9275734113300473e-12
-5.620070165563194e-21 3.092956123727595e-21 1.7287068482369833e-20
5.1183145140653695e-14 6.164554781204832e-13 2.5618671600000763e-12
2.506489576387501e-16 1.993310136283238e-15 3.90614485115987e-15
3.18016892622655e-16 2.4975109823216883e-15 5.363119557461525e-15
-2.4525206434440666e-16 5.331556828838599e-16 4.261321606517698e-15
2.53636467126985e-16 9.170594082093949e-16 2.6751856431915446e-15
-1.1767420841584433e-15 1.202504371047895e-15 6.313716377643538e-15
2.0955281696181917e-18 7.20649751001382e-19 3.437592478877262e-17
1.8414691451149824e-19 4.4693060083384446e-18 3.168981450423868e-17
-8.648547034733204e-18 2.201258357761115e-17 3.540472498910369e-17
-1.4263233938005803e-18 1.995882549036236e-17 2.517828403345329e-17
2.673855056394824e-18 2.1783497422896376e-17 5.515972640937249e-17
1.0627715318690967e-18 9.799819940800307e-18 1.7563006295354572e-17
-9.596376317627655e-19 1.35660912270166e-17 1.6164804169091947e-17
-9.171864739118334e-19 -4.991427365822552e-19 1.6511653946845423e-17
-2.4054398734529847e-18 -1.7180638210570664e-18 2.1687086031512642e-17
-5.9296326885762895e-18 9.017329953039864e-19 3.394664440961369e-17
-4.4555366566615995e-18 1.776860836964197e-18 4.8309551421128283e-17
2.4001872342724327e-11 2.731131915547278e-10 -1.6469017926409226e-10
6.120363881165089e-12 8.965094034451759e-11 -7.784716048319542e-11
-6.062296817590473e-11 1.3164068862637464e-10 -1.8442094533357619e-10
1.438915387070888e-12 6.680835771943974e-11 -6.658837729415018e-11
-6.4646035432518785e-12 1.5383121416420878e-10 -2.6478059252620803e-11
-2.4579662819961326e-12 8.930525781541429e-11 -6.0955102021464584e-12
8.974258828402813e-19 2.542475508164559e-18 6.955182748706838e-18
-7.220491505865483e-19 3.2553748229039673e-18 5.99368728439328e-18
-2.2608388202165672e-18 5.578117356941008e-18 7.04507310542496e-18
4.293529617067217e-11 2.1653063234565024e-10 -5.1248555330168156e-11
-4.607193115386973e-17 2.4758223293052515e-17 1.3931265789587289e-15
2.8792167893068726e-16 3.5131535665380163e-16 2.505554313292345e-15
-1.2198720266929726e-16 2.3430847188818123e-17 1.796409034028942e-15
-3.15276863348361e-16 1.1395387934406516e-17 2.8094960330801014e-15
1.9745993374229914e-17 3.761976894791913e-16 1.7133407617175247e-15
-9.532243079654316e-16 3.1919671918611706e-16 2.048015312513159e-15
6.490448060870123e-17 1.4596235192611684e-16 1.1810462598871156e-15
5.0652267067198545e-16 1.0974800759043941e-15 6.608534253494028e-15
2.2390601910894236e-16 7.047310219718824e-16 2.9101685202948537e-15
-6.292018289085591e-16 6.347662116705015e-16 3.685266628750416e-15
-2.408152391185838e-16 4.997573796340552e-16 4.43507728016055e-15
-1.15603133295335e-22 -3.112316405052037e-21 2.65938989043422e-20
-1.7425420576876048e-22 -1.7178282103400285e-21 2.3226713707580343e-20
-2.369333208055863e-21 -1.44457286057401e-21 1.6946922626322263e-20
2.165410379548216e-21 -2.9236141228035337e-21 2.0224087465603684e-20
3.1285437737526434e-21 2.221006883305534e-23 1.444073621337059e-20
-4.854301809241016e-19 7.146475906774433e-18 1.8736101920788355e-17
2.296716146365164e-18 4.081942727667935e-18 1.044200842236454e-17
-2.217424190300639e-15 -9.819409212764382e-15 8.015063788711913e-14
1.17121477186229e-15 2.790839169955089e-15 6.479386033311985e-14
-2.8874458903501185e-15 -5.523288520837177e-16 2.7593408809421288e-14
4.36208440169153e-15 -6.622297803993726e-15 2.342586025872828e-14
3.4919351155002938e-15 -2.797854448133269e-15 4.214189443184153e-14
-1.4265941039701278e-18 -2.2113428893116374e-18 9.433147700115765e-18
1.9286704230354542e-18 1.230608666750151e-17 1.8149936822834932e-17
5.672334822243509e-18 1.2146170179156789e-17 4.4447361483043853e-17
3.3168168873102634e-18 8.586249675910863e-18 2.087465319845223e-17
1.9198545108621972e-14 7.3669116777217e-14 6.017635587100933e-14
-5.33285162362912e-15 2.5117865919890166e-14 7.97449744231361e-14
1.9812893624096273e-15 2.564063932431323e-15 6.311405192237853e-14
5.4244671358904556e-11 1.892359861155504e-10 -2.5372585442446583e-10
9.273349924832813e-11 3.370672704550145e-10 -5.401570997413442e-10
4.497744150126215e-11 2.9431102439940676e-10 -1.3867903921465942e-10
-7.627515699987927e-11 3.326774815358964e-10 -6.472281688189288e-10
4.410655776625558e-11 2.0237117776271067e-10 2.643976296204145e-10
2.2228249214011588e-11 8.837167147953195e-11 6.479796606638277e-11
-5.358804338362616e-20 4.266253242104901e-18 7.414488559088673e-18
1.1817158308103902e-18 9.424682637556644e-18 1.5307701284256612e-17
7.324744544350527e-22 7.585134398810187e-21 1.7717397052337458e-20
-6.437781984331838e-21 7.768781937910647e-21 1.803910562420889e-20
-3.0909809436686686e-7 -8.804371373074534e-6 -2.296759492607526e-6
-4.451601978748049e-21 7.102797903173728e-21 1.879253249247022e-20
-8.819404001596024e-21 1.0495068118963882e-20 3.3005773653589844e-20
7.275855871738434e-22 9.434515727245924e-21 2.0922697991000322e-20
4.1235900384511105e-22 1.972016644222674e-21 9.922206379191955e-21
3.758027089953593e-22 3.686213652391126e-21 1.4760744730842833e-20
-7.520892344371115e-21 -1.911199909199778e-20 6.796373946407875e-20
-3.1530671624202784e-21 -3.92617841095218e-21 2.7643254722664696e-20
-2.191218789460431e-20 1.5236225365526871e-21 3.9593858523536336e-20
-1.9003407895413204e-21 -3.667582929680419e-21 3.872310058110707e-20
-1.5781578259998264e-21 -2.5818986435729924e-21 1.1716237849147341e-20
3.580108450684816e-21 -5.7951435266325954e-21 1.867945437690434e-20
2.9531653767497506e-21 4.396969697976155e-21 1.428559583816666e-20
-2.7245922209871283e-22 2.476982481999929e-21 7.030042149399368e-21
2.1055815112087653e-21 1.6596380010084271e-21 5.4886408876600185e-21
-3.622207409908136e-21 3.851967367970345e-21 1.4019045918852337e-20
3.6504552413105213e-22 2.6808043178135525e-21 8.980198299596234e-21
-6.014092143964434e-22 7.172176311519187e-21 1.543898365725616e-20
-2.126030622263238e-19 -1.8247997604775825e-19 5.3402186862774745e-19
-2.4093679066402524e-21 3.970932606631281e-21 1.9685806232403613e-20
-1.0060616540561086e-18 -4.042179327630969e-18 7.101616031587444e-18
3.6596677259854176e-18 -7.33192173055137e-18 1.9987310342940336e-17
-1.3028319554682799e-18 -5.016593598494166e-18 4.871156769790803e-18
-3.790006594863163e-19 -2.8192172954089542e-18 9.359365283409678e-18
3.273485216391732e-22 1.6269386028417582e-21 4.1340230507115874e-21
-1.4623644186399845e-21 2.1812784525077836e-21 5.872493939589055e-21
-1.3180259741292902e-21 4.182697360467708e-21 1.233164089758434e-20
9.402945582547918e-13 4.519495374854913e-11 -4.237785789008861e-11
1.78768868205767e-11 6.629215748744441e-11 3.844339372240452e-11
-4.6622140316553e-12 3.979527839827459e-11 -1.676453632634221e-12
-7.246041209541194e-12 3.0841635931175123e-11 -5.514719758537166e-12
-1.3692222438946532e-12 1.9192862531576775e-11 5.854210718843052e-12
6.031407173126398e-12 1.4947788488927887e-11 9.61071681022787e-11
2.521630298575469e-12 -4.250128862412324e-12 3.682560792651538e-11
-3.491780508514516e-13 -1.8325314265113205e-12 5.415308240674431e-11
4.631478420225821e-13 2.061408791487531e-12 2.799379418331884e-11
5.617329479436573e-12 9.78481539877247e-13 6.490532076287503e-11
-6.150581727551684e-13 1.3597152617297337e-11 6.30089896967318e-11
1.075646473192506e-19 -1.0907848763608094e-19 9.30397128409997e-19
-1.3786879917093792e-18 -5.13269738660362e-18 1.3715116070019257e-17
-8.813410484079731e-20 -2.432961218415745e-18 9.725579687140483e-18
4.3163978253315353e-19 -3.003738882607609e-18 3.009147847363944e-18
-4.3964231575631054e-21 2.5992265573784478e-20 8.060468460616282e-20
-1.3700629368381115e-20 4.516090420081999e-20 1.2379729896202218e-19
1.1444730851347487e-20 5.118963860303213e-20 9.19071834787266e-20
2.6137362678185707e-20 5.1067010679755806e-20 1.3204466629130065e-19
-6.147008190615271e-14 4.5132692022041516e-13 6.507693317975274e-13
-4.192056048886167e-14 3.3095487647969576e-13 2.528111622257319e-13
-1.7735056848128737e-13 5.174562182661294e-13 9.779344685380075e-14
-3.867474505045878e-13 4.411098960326109e-13 -1.1592655178186265e-13
-2.8445784665092306e-13 4.2370433020557626e-13 -3.6422338425154104e-14
-7.341859669591101e-14 7.770207627369061e-13 -1.225728279068108e-13
-3.1511019955712444e-21 3.5385490098878045e-20 7.105979493088705e-20
8.142132249493721e-21 2.3275997542886716e-20 3.358369965653821e-20
4.2511335550773024e-21 1.810251330594595e-20 3.509680593021745e-20
7.741281330222534e-21 3.258622278050335e-20 6.825856272203405e-20
4.135111864897497e-13 5.798670703605162e-12 1.4315542002091506e-12
1.8213361179093673e-21 -2.2629963725443988e-21 1.281529836170634e-20
7.605531379958975e-22 -9.590363708259606e-22 8.9496716941029e-21
-1.3461431432778724e-18 2.3098005532383034e-17 6.977540424482156e-17
-2.050349187887636e-17 4.6090934073392455e-17 1.6736156104307354e-16
-1.7073102719069386e-15 6.4462543196194994e-15 1.3166059800002468e-14
-3.5842037283267807e-16 3.0829560259517597e-15 7.15894407858262e-15
-2.665660183690241e-15 4.399132918737843e-15 6.112195873329397e-15
-3.617284188038709e-15 8.46369563254329e-15 1.5358531185069646e-14
-1.477990750952058e-15 7.259329968109125e-15 5.381891853846283e-15
-1.1077111401853818e-16 6.399991618388412e-16 1.933039522053924e-15
-7.577976663778137e-18 3.373864578380193e-16 9.123334831788796e-16
-2.7557521355161727e-18 2.5426051118196516e-16 1.0404545736653847e-15
-1.177373653059953e-16 5.5029879704006935e-16 1.4091903658012938e-15
-1.942651127412595e-16 5.867906906028449e-16 7.514335716122999e-16
-9.30888501532121e-18 3.734260807658817e-16 5.187153007067743e-16
2.386842096801624e-16 9.53787505332859e-16 1.5264667378132028e-15
9.590170602684593e-17 6.220431226633826e-16 1.1795802306898554e-15
2.813810462251132e-18 -1.2728413137624249e-17 1.9574986739629588e-17
2.3797198946110754e-18 -1.0931740009088657e-17 1.2395074325002854e-17
7.178674937387373e-20 -3.737701490461621e-18 2.101684699056438e-17
4.859617447025041e-18 -5.5858414482115725e-18 4.494800050601426e-17
5.893793378346904e-19 2.2000689384734416e-18 1.1541751365674815e-17
8.941719577235141e-19 1.037205301978893e-18 6.2273949838035414e-18
-1.5186151038818105e-20 1.496449562694377e-18 5.0065290155542925e-18
4.798830867885307e-20 2.596660808912903e-18 9.222029172325275e-18
-7.301599820771193e-19 1.636091463531167e-18 8.570663324182443e-18
-4.816513509807279e-20 6.507651952815748e-20 4.0130257069824744e-19
-1.4530981209204096e-19 1.1587514908428826e-19 2.0416123579369823e-19
-1.2713030419114645e-19 5.912942243363379e-20 3.0293216028633065e-19
-1.3888693830637872e-19 6.879364754893014e-20 7.409765508477863e-19
-1.096914522644576e-19 4.433248314162729e-20 7.494492772939736e-19
-2.8884052042466677e-18 -2.6450991895574854e-18 1.5464359963043506e-17
-6.9207745521921425e-19 7.996618655739431e-20 8.479943211324526e-18
3.317290665698957e-18 -1.3650007592537616e-18 2.200501629824359e-17
-1.6557128902842226e-19 -1.0180284445931807e-18 1.0373852227106977e-17
-2.049836575540866e-20 2.154728210887539e-20 1.886363416607429e-19
-6.645022629058155e-20 1.1241900721346073e-19 5.453382779210135e-19
-6.052288497601736e-19 -5.8247558925087814e-18 3.226369182885734e-17
2.158212713690554e-19 -2.1011448327220816e-18 1.7576112698946647e-17
4.4643064244329996e-20 6.934113980369552e-20 2.416900002387102e-19
-4.062692247757234e-21 5.877569414209379e-20 1.5660642310221734e-19
1.5593648680665275e-8 -6.878129298180579e-8 2.274546494063098e-8
2.4442164274006748e-9 -1.3073453070837117e-8 8.542054780799097e-9
1.0037118089352058e-8 -6.09714401002675e-9 2.491384673454917e-8
1.8857365943455458e-20 9.350854829170916e-20 1.3023101685590505e-19
-2.1688168580376286e-12 3.982180216855965e-11 -4.60758326343739e-12
-7.533337845681926e-13 5.148445241814234e-13 3.890096092693443e-12
-4.5144357234613387e-13 4.800881540065943e-13 6.109110251457686e-12
-9.23545571846542e-13 1.2779940979392847e-12 5.012615651482945e-12
-7.364102448915054e-13 7.20374259945937e-13 2.2616520014865596e-12
-8.646206556672516e-13 1.2503976580108412e-12 1.8641560844557134e-12
-3.5358876422458333e-13 1.3702021495599555e-13 1.6912674242125308e-12
-6.677801633516493e-20 8.33869570211471e-19 2.7531093994948805e-18
-5.860317636696602e-13 1.7765453865122008e-12 2.0687700560867996e-12
-5.000824289653941e-13 4.7643086792026575e-12 9.573254797485876e-12
-4.638188511160791e-19 2.8666422399939504e-18 7.37190096322141e-18
-1.5413306265889028e-19 1.2500118259625533e-18 2.3229957316694268e-18
-3.0784769934517625e-19 4.165983229962113e-19 1.3318438219857776e-18
-1.381142165029062e-20 4.250334520003921e-19 1.1326722740952079e-18
4.1285738793690544e-20 1.2395908942289828e-18 4.308446029196369e-18
-1.3270847560904444e-19 1.1009387848773864e-18 2.459897856621014e-18
-1.837504538379691e-19 9.25625157446851e-19 1.348689010013441e-18
1.4164363672817396e-9 1.9874397156737514e-9 -2.361213234788233e-8
1.5018029698855192e-9 -5.30069618820259e-9 -3.6900937525343714e-8
-7.650547847037055e-10 1.1923198282734757e-9 -3.0329436671196544e-8
1.8278020829466614e-9 1.8674628625694625e-9 -3.1778163836105836e-8
2.567318380026135e-10 1.934832402110193e-9 -1.3138050350535886e-8
-1.4434524432910213e-9 2.1975419605025415e-9 -7.979264097493679e-9
9.962317503439832e-10 7.977629532617703e-9 -1.1059848596235909e-8
7.874602508432215e-10 3.749594493921427e-9 -7.396430306685751e-9
-1.3055353214819357e-9 5.7828075830063124e-9 -2.8503176436016765e-8
4.5845884493741677e-10 2.5077694598654665e-9 -3.958043488335919e-9
4.6312635337023366e-9 -4.5133345769504206e-8 5.9141843549222066e-8
-1.723740256493174e-8 -2.1402557902317127e-7 -6.082931903614352e-9
8.916735258428054e-9 -7.758631532590238e-8 -6.503961296961893e-9
-1.2323804966762783e-14 6.396940452548769e-14 5.1346304262841934e-14
1.6431129507468463e-16 2.3421451386613457e-14 2.6882678274085618e-14
1.3166809402701e-15 2.187881076045472e-14 5.158617967474523e-14
-7.522616604040231e-15 3.110592706397773e-14 4.5767979189066225e-14
2.5497141420566124e-8 -3.027072332682708e-7 1.0707057863617734e-7
-2.2746234157189422e-8 -7.895321753347664e-8 4.708807866837964e-8
1.0415802776280654e-8 -1.4862572627933228e-7 9.501394316431256e-8
-8.031157011089032e-8 -4.600728438858956e-7 1.4649287485292653e-7
-1.9101518741165148e-8 -2.598195289085052e-7 6.020463687102225e-8
7.005521104475507e-9 -3.1317494942205087e-8 3.542911882054919e-8
-8.33794500077381e-15 1.6237971521610679e-15 4.106180952233235e-14
-9.157491309022208e-15 6.419274349290766e-15 8.264850604556497e-14
-1.4447525606939629e-15 -6.4606059762916665e-15 4.151618628662445e-14
7.053809699983492e-15 -7.584243800053176e-15 4.287530146511329e-14
7.522863419775457e-15 3.782018740291924e-14 4.89717373756371e-16
-2.1048777905479196e-12 1.576808732586309e-11 7.040282157218798e-11
-4.84082582149709e-10 6.452961159966203e-10 4.579495399239972e-9
9.0807004886568e-11 7.917973788329611e-10 6.377606967772509e-9
-4.57874641215104e-10 1.4748844374444424e-10 3.392280021952264e-9
-6.642348217329762e-10 1.2895768251196825e-9 3.7118624725768828e-9
4.223211015724e-10 1.4533282207634998e-9 3.3963392896474856e-9
-5.227360227987393e-10 -4.721577662363534e-10 4.945151074154508e-9
2.2274344822480184e-10 -5.597862642977452e-10 9.943608918618442e-9
-5.360996195465833e-10 3.803528013915352e-10 4.382662883893414e-9
7.05237756795663e-11 5.422157753761668e-10 1.444406021100789e-9
-2.1838837306698743e-10 2.8306817579340654e-10 2.4105924917945284e-9
-6.406406118620196e-10 8.997073167932581e-10 3.4121174031435796e-9
6.226501583252378e-11 -4.584243602525644e-11 1.7446432297616994e-9
-1.420016906956371e-17 1.0977082463715061e-16 3.6953155116452907e-16
1.9475744587949612e-17 9.872858139046915e-17 2.1962051188396527e-16
-3.6878829933098826e-18 1.4869772134807996e-16 5.144383692858705e-16
2.415487282733355e-12 -3.0962704187647323e-12 2.4948037294836958e-11
-1.1245813537994352e-9 -4.5571256426388697e-8 -3.5505658595256735e-8
1.534457853143123e-8 -3.918772079352993e-9 -6.198504870961168e-8
-1.2196006584176197e-13 4.828248753343666e-13 3.365836135946084e-13
-1.4875462517304562e-14 1.4943162490372909e-13 2.7224910793998837e-13
-5.312849847984725e-14 3.9533086207827535e-13 6.361845339912519e-13
7.408335598692891e-10 5.311977660376688e-10 7.233214825407987e-9
-1.773372421029574e-13 6.347405468959411e-13 -3.0246078707938736e-14
-3.1518284556675047e-14 1.0645105110897065e-12 -2.6999806772292603e-13
-6.236102504097527e-15 4.1314889822123244e-13 -6.999934076990683e-13
4.166894239744828e-12 6.269154192648267e-13 2.085915890986998e-11
1.0193406603484727e-12 -2.6989280636480182e-12 2.0608679932257495e-11
4.854560573674741e-13 -1.1302553230549357e-12 1.5349544049099647e-11
1.1901394841507064e-12 -3.485768732579371e-13 1.2552274311882903e-11
-1.6113939225619513e-13 2.2685713356616758e-12 3.291788926835331e-11
9.117502676315332e-13 -1.315365895804531e-12 2.6137899035572138e-11
1.2043894260850562e-22 9.060983372405065e-23 -2.0607384101029428e-22
-4.987889633638525e-23 -5.084646064138673e-23 -1.0975910898913977e-23
-2.8302819762834637e-10 -1.2623754337347608e-9 4.845799129314559e-9
7.597568630963296e-10 -2.9415689376436644e-9 9.744924831588858e-9
-6.102426169917959e-10 -1.331392769927745e-9 6.86974858056178e-9
7.085976465304039e-11 8.945177752383092e-10 2.448947726941212e-9
5.433727261012922e-10 2.497582544783574e-9 -2.247399839541674e-9
2.717603105439731e-10 8.229348120511398e-10 -3.842181502487534e-9
1.9521132129954368e-10 6.421433167476067e-10 -1.4066165180565456e-9
-2.3670809301689646e-10 1.0720451236618742e-9 -3.312051884355129e-9
-1.3766177826146586e-14 1.0979130745939772e-13 2.8233779627813624e-14
-5.558944628515733e-15 4.7792728434836475e-14 1.9790949891114188e-14
-3.2178738215546386e-14 9.544337818743509e-14 -4.878184424898219e-14
-7.527326855999947e-21 -6.414172599983832e-21 5.520211849419623e-20
-4.341140327585868e-21 -3.1293478313761547e-21 3.0316850247499705e-20
-3.854437429435151e-21 3.812691417865477e-22 9.281820638208138e-22
4.8139534020221605e-22 2.0659918925644484e-21 1.7112832319090182e-20
-7.951504870870076e-21 -4.234485042087411e-21 4.020421803479909e-20
-2.66738393833505e-20 -1.2884613572520254e-20 8.031448422636698e-20
-1.7945826533171672e-22 -3.339879382447478e-20 1.3381721572034467e-19
-1.4498676146571092e-20 -1.526056644804473e-20 1.034504276350757e-19
-4.213543662682391e-21 -1.902237836985465e-20 7.119305778045894e-20
-1.3097620165072885e-20 -1.9835743983906657e-20 1.6088016715284639e-19
-2.277804993374591e-20 -2.989481063811736e-21 1.2013476046132634e-19
-2.5268751200597337e-16 3.85242628995195e-12 -2.3018729562335602e-12
4.139550855448462e-14 7.274803816755631e-13 -9.82115100078352e-13
-6.146975299599622e-14 6.576841650957174e-12 -1.6892875078342097e-12
-1.0240232327691392e-13 4.1043647048638284e-12 3.0271675559639404e-12
-3.5831460276087145e-13 2.3809419270390124e-12 3.600463194458609e-13
1.842012264440475e-13 4.536043742206329e-12 -1.4296941737951463e-12
1.6120410439020072e-13 3.6107197492077052e-12 -2.618028773161289e-12
-1.1936955649581173e-13 1.89276880091128e-13 5.239014420344476e-13
-8.328450603256584e-13 1.469368311690426e-12 -5.864031504885878e-12
1.7067720688031185e-14 1.1149720866456677e-12 -3.840175236429684e-12
4.560668556395445e-18 3.9187524134674466e-17 1.0841326866207062e-16
6.286980090909086e-18 7.855687582509702e-17 1.66395648575804e-16
-2.3372329727355518e-18 3.37784177438348e-17 7.962510133697997e-17
3.543014248992967e-18 3.3313995205092854e-17 4.4949872448418697e-17
3.4528204789457265e-17 8.065591872014896e-17 1.3364168380992984e-16
-4.405909964606371e-18 1.0852270326428839e-16 2.0631094920403912e-16
7.637789073597285e-17 2.1600697473603658e-16 3.7690123597931145e-16
4.248474817292144e-17 1.0450153943634089e-16 1.1537825055828244e-15
2.6337511788107445e-15 1.362025063795003e-13 8.843416121860234e-14
1.1945501768983434e-14 1.4809482210235028e-13 2.1380199996940866e-13
1.5000255587694062e-15 8.714049005685946e-14 8.973819491060616e-14
-5.568848526411248e-14 1.62068617795047e-13 1.0991641520776076e-12
-2.287580314927381e-14 -1.2000637370346135e-13 4.408077228782812e-13
8.228610698430466e-14 -5.004196793341682e-14 8.497665396215623e-13
4.909225420886719e-14 -1.557298063560797e-13 9.625994369472776e-13
-1.313708099876661e-12 1.1568072873234757e-12 1.4571896093873028e-11
2.4263739807918825e-13 9.499119988360697e-13 5.206520444407278e-12
8.505939747918382e-13 2.898719175983759e-12 1.2014649221089076e-11
3.428887466994319e-13 1.4437502110590955e-12 9.097700792031206e-12
4.5409165110204427e-13 -6.922014778385898e-13 7.765248549594355e-12
-1.1955976970492063e-13 -3.596666326180985e-12 1.4537136337940413e-11
1.3167830417446973e-14 -1.1237873859392912e-12 1.28400381262469e-11
-9.340394933850314e-13 6.474158295956003e-12 -1.5866060606101846e-11
1.4679523603696415e-12 4.9692343295034846e-12 -1.829762427937585e-11
8.632195669050725e-13 7.294545563734606e-14 -9.573270952925769e-12
2.821268520802268e-13 3.5574294804429472e-12 -7.193235749963596e-12
1.4690865921418878e-20 5.2659759629515795e-20 3.55960412988997e-19
1.7286034478440774e-20 1.6668410955761557e-20 1.8741344499361806e-19
2.564823895858175e-20 3.825244995183114e-20 2.206421534065797e-19
6.095676624060564e-20 1.0677698006094843e-19 3.820370995999308e-19
3.1617550971289783e-16 7.099841731142977e-16 1.4626212669244781e-15
-1.6570606153480911e-16 4.057633350038677e-16 6.703632754292768e-16
3.760388583063049e-16 7.5995612730851815e-16 1.5601447340828732e-15
8.049425124067253e-16 9.313965702564953e-16 2.4722544177781455e-15
-2.1680825488178962e-14 -1.1992137609300962e-13 4.854158453240376e-13
2.9777055638860973e-15 -1.347790889648221e-14 3.4720243201191896e-14
-7.180292277424554e-15 -1.1832198502113037e-14 6.20509888431507e-14
-9.434633436513136e-15 -5.68169154275632e-15 4.62461599172819e-14
-1.6220440289787818e-13 -4.139191420874305e-14 9.318658043719793e-13
3.7843634492546676e-14 -1.6155391456396847e-14 4.918853881901672e-13
-7.498015504710857e-16 -2.5215086020694643e-15 6.880846260301755e-15
1.4326877775765633e-15 -4.287513444502356e-15 1.2951282779369145e-14
-3.646115318718975e-20 2.119938905237469e-20 -2.853689744414519e-19
-1.1521580716938811e-19 1.7032956302889754e-19 5.735528409406042e-20
-2.6173864694322986e-19 2.512947287569028e-19 2.193442140520678e-19
-1.5246218732868087e-18 5.386171464123717e-18 6.392884370274443e-18
-3.013563607639012e-19 2.217285955811636e-18 3.423673923623801e-18
-2.673652160640189e-19 2.0560149644950486e-18 3.3406571110707885e-18
3.4577221575618717e-15 -4.447069485834035e-15 1.5686337396236506e-14
5.151557610818526e-19 7.831791500367266e-20 3.3976349121228656e-18
7.876856063765209e-20 -4.04123868807835e-20 2.1427724809050827e-18
-2.4019670010367566e-19 2.73768097231039e-20 8.580931825917868e-19
2.876624386646725e-19 -4.512452492790966e-19 3.785108455099775e-18
-7.616227442855837e-9 -1.001773945451001e-8 5.169359827619651e-8
5.647306902390821e-10 1.206489485974227e-9 1.5780137094975604e-8
-4.417203706716679e-19 2.352826686674258e-18 7.761182631060423e-18
1.2823436703939513e-18 3.500120709199637e-18 1.4548787277609954e-17
-2.714310726267066e-18 3.2660015377164008e-18 1.747746433736433e-17
-7.990615411359038e-19 1.510687285378924e-19 4.800303774352636e-18
-2.7698145436505735e-20 1.3390123817593243e-18 1.9461132872475932e-17
-3.7896991239872376e-20 1.1777751895747782e-18 2.8500081909891926e-18
-1.1353899235615634e-19 1.3765289215552957e-18 4.2154402087694205e-18
-4.676519889598872e-19 4.576492968554694e-19 1.393313839841049e-18
4.135067425026509e-20 -4.055930165383221e-20 4.627643938964885e-19
1.3484197994635677e-16 6.22899281226923e-16 6.586335376759974e-16
-1.1679985585071043e-17 1.302078200786773e-16 1.9102854127160196e-16
5.810859689531462e-20 -1.1287647708255432e-19 7.44376091789336e-19
-1.1161420260369448e-19 -1.4526947402984574e-19 1.0801120676101748e-18
-3.4574744266820007e-22 3.150253120760556e-22 7.982741800346522e-22
-1.533610507280626e-17 -3.750593636183477e-17 1.0535026154339867e-16
-3.4145820875786053e-18 -1.857359522606709e-17 5.993938431123745e-17
3.1364970831159763e-18 -4.800146728490977e-17 1.3997268933354035e-16
1.3279659365186088e-18 -8.604037789824625e-18 3.4286212298143815e-17
7.63296357438482e-18 -2.251064377094394e-17 5.806689249888211e-17
-6.847111361901858e-19 1.4735557145556056e-18 2.5968107893121245e-18
-2.2071661959008264e-10 -2.263014870571862e-10 1.410861282638361e-9
2.8492504891478365e-19 1.5436938871617944e-18 1.817191765176959e-18
4.618088357259684e-16 -2.2698543194065847e-16 3.704600176086346e-15
1.0545992751647299e-15 -7.195669614151894e-16 5.55803667868825e-15
4.633174240128062e-20 8.383183989450537e-20 2.4643310071678417e-19
3.04026172724146e-20 7.715840505899972e-20 3.0771467882537716e-19
2.7303762977677703e-20 -3.442423433431724e-21 3.672481412995801e-19
7.267720186267427e-21 1.4635800562171136e-20 1.4761209910460723e-19
-4.180029546293541e-13 1.0224075113286554e-12 1.160571147048837e-12
-5.986307851256628e-14 6.648138149097024e-13 1.4953117463922176e-12
-7.426974651230668e-21 1.068165086554575e-19 3.2317219648713175e-19
-4.31516352728578e-16 4.3538102957196343e-16 2.4477136138793894e-15
2.445956799618112e-16 -1.273108488111862e-16 1.4253924450182622e-15
4.947313882330056e-16 -8.548928662406054e-17 3.1976632424667655e-15
3.572247358299315e-13 8.91046262048064e-13 2.5815675985100446e-13
1.6469728670659823e-18 1.4225401359319568e-18 1.8330334496376627e-17
-1.5970620337725505e-10 5.274865901340244e-10 2.3987247950737243e-9
4.693708536152103e-10 7.61336312324138e-10 2.891107540209758e-9
-6.995664671817566e-10 2.371857997077264e-10 4.535377607565243e-9
-1.779425758650116e-10 2.4818012493021367e-10 2.3082991920477223e-9
2.896427916405272e-10 3.71335412405412e-10 1.240728169284583e-9
2.8722151251936603e-11 4.675309694943274e-10 1.8791023831787328e-9
-3.852788638057338e-10 -5.5026724073347836e-11 3.183326091774417e-9
2.5081192400913672e-9 1.6764640267917167e-9 1.2404765365984744e-8
-8.455506436659474e-10 1.0276555054249941e-9 2.9800601749674825e-9
-2.68048483673545e-10 1.632247509227823e-9 5.4052824601863216e-9
-8.34429841071178e-12 7.322512810947103e-11 5.1328140356136814e-11
-6.8209705160508615e-12 3.4235950887693486e-11 2.234235364763156e-11
-1.4053999926923865e-15 1.5760863905132395e-14 2.3025818008410926e-14
-5.101127504628291e-16 1.2556115526310888e-14 5.085956645509429e-15
8.958744599781508e-21 -2.445462816858229e-20 5.721906155278197e-20
4.7255177067231135e-21 -1.846883182435617e-20 3.269813981710016e-20
-5.908014014050644e-22 -1.2292558592184313e-20 2.3195967271889534e-20
1.3305247468752656e-20 -2.8770162216519446e-20 5.473002362395865e-20
-2.573613299955845e-22 -1.707865427077396e-20 3.2927592150843794e-20
2.9064945916283957e-21 -2.1679399529106646e-20 4.951624126531886e-20
5.368060896941671e-19 2.081609965189999e-19 2.8767163563849315e-17
-4.4945016330669845e-18 -1.8620615665913524e-19 1.1788184601193633e-17
-2.2214986953393567e-18 -2.0442918062471732e-18 1.666928432477289e-17
-3.157989495076358e-19 -2.054815127197312e-18 2.867260250830566e-17
-8.751734383441406e-19 2.4261345084606186e-18 3.453973099232608e-17
1.7097749038727194e-18 4.371993121495237e-19 4.1655504818455425e-17
1.1239518476456653e-17 -3.4654550278736676e-18 6.165503705429334e-17
1.7293676294960428e-18 -2.558421504816083e-18 2.4257026452355328e-17
-1.4817066836700611e-18 -4.136686422915928e-18 5.957733200964616e-17
-5.759155660535969e-18 -8.489131715364916e-18 6.677469285778331e-17
1.2370035492045712e-17 2.354088103402879e-19 5.942999589316248e-17
4.1455681307387775e-18 -2.945414120063558e-18 5.703584192193669e-17
-2.970013840396336e-18 -5.295907833587801e-18 2.4431246006317323e-17
-7.997130844627773e-13 2.4628633215035348e-12 9.92647710983742e-12
-6.888615590697125e-17 1.4138974015617413e-16 1.1454451244042161e-15
-2.0007699358296554e-16 8.154867535729256e-17 2.275566754641648e-15
-1.616027726156729e-16 3.648780191082137e-16 1.109935753026123e-15
-2.4710906441872106e-14 1.0524364198044433e-14 1.4985743836313645e-13
-1.2840358277509363e-14 2.9486452609288655e-15 9.173243611617516e-14
-1.7032390785382573e-15 1.084192675411272e-14 4.361906835870928e-14
4.2129788850741003e-14 4.27165802616441e-13 2.6972360828059057e-13
1.0657307918390029e-14 1.4475238662247669e-13 4.1654782269801286e-14
-3.269395122660163e-15 1.8001155421870813e-13 2.576095491891624e-13
-2.4860227590275602e-14 3.46081573876712e-13 7.22736627164094e-14
-1.467378548192505e-12 2.0803430771338826e-12 2.956928649120087e-12
-1.0258301625050427e-22 9.989915078144083e-24 -2.774550707916852e-22
-1.1519636577241522e-22 5.995835087709711e-23 1.3551176600572237e-22
-1.1111258134700727e-21 4.2732471979858075e-22 4.401341010063405e-21
-1.1290976810640936e-22 1.4637429360078443e-22 8.163047127562157e-22
1.325209812009223e-11 2.0510949470956363e-10 1.4650179127358465e-10
2.2638110311574496e-7 -8.75524905109075e-7 1.2408830024423086e-7
-5.5226835087850035e-8 -8.167650658561771e-7 3.050194767805344e-7
-6.075047914446075e-16 7.122318631812236e-16 1.0142769297797453e-14
2.0008864815538653e-17 3.398833945241479e-16 8.292702123054755e-15
2.4078950615479943e-16 -2.1278289421556964e-15 1.4234034660768555e-14
-6.0164923209833625e-16 -5.40585182100541e-16 4.4842561016994556e-15
1.6202555619087381e-15 1.6759922286750796e-15 1.063752558442406e-14
6.276457971483767e-14 3.3006931986058993e-12 5.495790325976912e-13
-8.168916277839955e-21 1.6765045593214213e-19 5.695505498652681e-19
-2.661207249864638e-20 1.1017206608059938e-19 3.576676184361043e-19
-1.2649148300410005e-19 2.1197854300061338e-19 6.122314040757867e-19
-2.8029655897487544e-20 1.3850145524731203e-19 2.927905824991124e-19
-7.52815828385491e-19 -1.3660929967639226e-18 1.5680230421640806e-17
-6.515090878092322e-19 -2.6551159162494173e-19 4.6131651484017765e-18
1.261561474126341e-16 1.2465314956617875e-15 2.418388301503826e-15
-1.6325279033311923e-16 7.445772755785475e-16 1.842431654052353e-15
-2.050131752239318e-16 5.784111667370349e-16 2.867121096755145e-15
-6.040620502575141e-16 2.052252877639844e-15 5.148190274000977e-15
-9.59396619913731e-18 5.019067499825128e-16 6.302186175406433e-16
5.023844290042362e-16 1.3000187678434884e-15 1.3383299572351816e-15
6.390351126375665e-16 1.9122028105751412e-15 3.4973026684623458e-15
2.1769510770499846e-22 -3.1503154316290054e-21 1.5318397374866956e-20
8.744366378960306e-22 -3.293954755502219e-21 1.3573693169478265e-20
1.933082705180538e-21 -3.688952478369143e-21 8.900516450207121e-21
5.954382425072913e-22 -7.387655396660733e-21 2.039397218595461e-20
9.695959068942693e-22 -1.5870568608865333e-21 4.114252877333774e-21
-1.7968063168030786e-22 -2.9163096268502822e-21 7.149708932070169e-21
1.2135634335708293e-22 -2.6849244212734894e-21 9.83279352821371e-21
-1.1189167341757846e-14 3.0943228105214937e-13 2.0524106913940896e-13
3.571991105989265e-14 4.880800378556785e-13 5.365341845941967e-13
2.271321060047861e-14 3.5077808366641454e-13 9.060480379088638e-13
-2.1094495891290215e-14 3.3826680387720975e-13 5.40261000117775e-13
5.894287172296205e-9 -1.8791433116442355e-7 1.6463692754818147e-8
-2.0255751718856464e-9 -4.95280867589816e-9 6.818560009666413e-9
-2.1838802913686947e-14 4.023801700371342e-14 1.8793369107377633e-13
-1.6620800147121367e-14 6.82021450028489e-14 2.706429571573224e-13
-6.914498763786482e-15 4.000438819198436e-14 2.9401768462597593e-13
-3.214008801161402e-16 2.4848988309286267e-14 1.33144802032512e-13
2.5845790628310507e-14 1.3967024351027392e-14 1.6278918245716473e-13
5.095292261683075e-14 1.9378022043646908e-14 3.3299081916465593e-13
-3.477245529870009e-14 4.5836160638007066e-14 1.9883287421459566e-13
-1.7419094581915015e-14 9.197829448220272e-14 2.951127229728298e-13
1.6704650825421765e-14 3.9869722629792895e-14 3.655555716261669e-13
-1.4897040038243284e-14 8.156758491594268e-14 2.1985145352247457e-13
1.2160580051608451e-14 -1.2558032247213569e-13 4.924348294362713e-13
4.2367326211988185e-15 -1.216352445120256e-13 3.036940073063278e-13
2.9101787014098835e-14 -1.296610370887832e-13 3.7195821942301815e-13
-2.1661295414519622e-14 -5.218039916989528e-14 1.9043979382093008e-13
-1.3806605425379327e-15 9.47552731902959e-14 8.765035464445032e-14
-3.1717225168627914e-14 8.22177836034659e-14 1.031855709554848e-13
4.7119003646623495e-21 1.7056309484993355e-20 1.4700251863057733e-19
2.6165530249936577e-11 1.4906813545759143e-10 -6.587271076418618e-11
3.8913000878392025e-12 9.51237267213465e-11 -1.4248337791526512e-10
-9.337568809153328e-15 -5.6008496416057614e-15 9.132171191586678e-14
-1.3517804131420839e-14 3.794708131439404e-15 1.9458166054308413e-13
3.9402452041229935e-15 -2.5774019371273497e-14 1.4677393202183475e-13
-6.7512361693980245e-15 -1.9094639246938352e-14 5.222815616548507e-14
4.85865150295388e-15 -8.578146041640295e-15 3.789411128631523e-14
-2.1130922763563852e-22 1.8589583495624466e-22 4.280135390622097e-22
1.808467735414166e-12 5.896360280249636e-12 1.9179385631420613e-11
-2.063719688420447e-12 5.148157190535903e-12 1.764535513260904e-11
2.3182351192325373e-12 6.933555769782951e-12 3.648389083637919e-11
2.137297026350332e-13 3.4291578793060917e-12 4.12429868709046e-12
-2.5798905898370793e-13 2.8680061327827374e-12 6.81787708838912e-12
-4.2696376893206353e-13 6.187074065775691e-12 1.1861234945289107e-11
-1.9017393553871012e-13 2.1519427123887125e-12 1.0681125129804528e-12
-2.0027037035584328e-13 7.808098129181018e-12 4.992278918750459e-12
2.5202412558313442e-11 1.3482927676823457e-10 -3.7783416824606954e-10
-2.5962395743268884e-11 9.036488601743087e-10 -6.990832696713404e-11
1.0887707499948854e-13 1.2052762571615366e-13 7.306874215844421e-13
-3.5366741927151756e-13 -4.2760085849191266e-13 2.5365713952571006e-12
-6.059828133307734e-13 2.6457301384595634e-14 1.4845561015262533e-12
7.898376884758762e-11 5.327958049412924e-10 5.93048108888082e-11
3.783341055573824e-11 5.396220629111336e-10 -8.664346709259298e-10
1.7274184969132128e-12 1.088453396686532e-9 -4.974578672137794e-10
-4.5279757661466066e-13 1.0066267719591882e-12 3.4825571434127614e-12
-5.781621006888576e-19 6.88433122274495e-19 3.616780625639702e-18
-2.4122781996258667e-19 1.2857986554864638e-18 5.8616234567099896e-18
-2.466803556356926e-19 5.212726749289531e-19 1.7463779454173163e-18
1.263578452742983e-19 4.1420506897205836e-19 2.4327942337772507e-18
-9.60985342495929e-21 2.5573452613122503e-19 8.716598014051906e-19
2.1402868132298071e-19 2.5047666455514886e-19 1.6474441378024402e-18
-1.0880961733709242e-18 6.265444915973517e-19 7.396540073265037e-18
2.9689485384961356e-19 2.6445917220599705e-19 3.606298286398139e-18
-1.65293915977938e-19 4.974220360629223e-19 4.143229424384191e-18
-3.3885776439902914e-20 -1.0675750573310668e-19 4.74160461339146e-19
-5.513806488535005e-20 -1.1783554022695466e-19 5.893640974800069e-19
-9.315374324534954e-20 -2.492769162148916e-19 1.033121034898363e-18
-7.915137062875371e-16 -9.02349950465029e-16 2.2285106198556643e-14
2.0527959139448982e-15 -3.9592393388878696e-15 1.487126765120621e-14
-6.432267939811955e-16 -6.256360766822605e-16 8.42461318016517e-15
-8.449866473265102e-17 -2.8818775367951096e-15 1.0836324401935737e-14
5.867705699085949e-16 1.8714997344850073e-15 1.3737512669785305e-14
-3.620674344812094e-15 1.3595107255639935e-15 3.468234973692498e-14
-2.2489893769197362e-14 6.089090584155097e-13 1.6909109931784266e-12
-3.170467908986061e-14 5.173833444779941e-13 2.557278349976765e-12
5.216191200903541e-14 7.365388547237438e-13 2.562451665623309e-12
-5.617988382550716e-12 -9.82212413128721e-12 1.8443860146204595e-11
-4.927099638635874e-9 -7.037529034494232e-9 1.4708861124108043e-8
5.1851683218393984e-20 3.6263076951199287e-19 1.866198760500259e-18
-2.4342065641090178e-11 5.309812131582606e-10 -7.162233244240824e-10
2.9631932362720624e-12 3.6262190366953023e-10 -2.0373688314356004e-10
-2.640756010317926e-10 7.568807705013828e-10 1.3441469220898024e-9
-1.7020396547202333e-12 7.166323579384907e-12 2.1258071947456694e-12
-7.889640563275757e-13 1.0791344322454325e-11 3.6726369849081913e-13
-1.3915755048077082e-21 7.771904916791393e-22 2.6789067223624158e-21
-7.059111262808428e-22 1.230484107066566e-22 1.2327982341305685e-21
1.109690578692484e-10 3.0323236975708084e-9 3.9139662593146464e-10
-1.3908956803066963e-10 1.6612451214727051e-9 1.2223021884690771e-9
-4.96117033370531e-16 1.4811143467315443e-15 3.722369836963103e-15
7.668659916414363e-19 1.1258903155131237e-18 3.6340074375920885e-18
7.246304974148922e-20 1.6020314824032336e-18 7.667942980639466e-18
2.156600936838124e-19 1.7437222957555993e-18 4.009130709684691e-18
4.2587484998419593e-19 8.461679976684291e-19 1.9556169396017195e-18
-6.584227841360109e-20 6.320233957459774e-19 1.7560683659500063e-18
3.0658641798323574e-19 7.876592141134876e-19 1.3429744274759377e-18
1.401569138488701e-19 7.6451798154200425e-19 1.2574144659788591e-18
5.2942612043541246e-20 3.013664532659491e-19 8.430925596444462e-19
6.7148156709128005e-19 8.968033347740122e-19 2.7830718378188057e-18
1.031628170006982e-19 1.6013437475005096e-18 4.505591209188993e-18
-2.951192465284871e-14 -1.559247497196387e-14 2.995434825546673e-13
-3.4380146909317536e-14 9.859304858768776e-14 4.431602100964563e-13
5.473076768914125e-15 2.3204497904620648e-14 1.8513382870089603e-13
1.5439182174744788e-10 3.592041869204297e-11 -2.258576292800237e-9
-4.135113989454648e-10 8.205830342143386e-10 -1.7296574043160955e-9
-2.455095868884527e-11 1.7598750680389815e-11 -1.4669813681295328e-9
-1.7634298950031603e-10 4.085264010744332e-10 -4.538084561059608e-9
3.121852306154104e-10 2.512031737175731e-9 -4.2002673976266364e-9
-2.0027392463270326e-16 -9.434591751131912e-16 3.8742790430744865e-15
2.3971605830333297e-17 -1.0283312467211214e-15 3.8001609201007695e-15
1.85618547458944e-16 -9.726260261482288e-16 6.395206715472591e-15
2.696700758208045e-16 -2.824626934083227e-16 2.1456804469472173e-15
-3.6101887617543026e-16 -5.59780597247681e-16 1.837039758301771e-15
7.698738919860436e-17 -1.264223750700925e-15 2.6299658571534865e-15
-2.1026985150053036e-16 -6.060460489326806e-16 1.2272123494006935e-15
-1.9625611700287183e-16 -5.4887843659187e-16 1.8875612930059442e-15
-1.7623939270629262e-16 -8.701444966599986e-16 3.5066023192607764e-15
-1.845867502693559e-14 3.927564610262357e-14 3.143220826229961e-14
-6.425137406247089e-15 1.0374556894478439e-13 1.504560782400154e-13
-1.5023925553733824e-22 1.8053951368767766e-22 3.2643232058645585e-21
-7.623143743308576e-16 1.901662571896234e-14 3.693635847862516e-14
2.7481293100984622e-14 1.1238604242537218e-13 -1.9965380418628046e-14
-3.462362714535833e-21 2.0794896708215125e-21 2.3667539038690654e-20
9.499662222361367e-12 1.1863638380232694e-11 -5.941131526536657e-11
-1.2343230377835338e-12 2.596581175919212e-11 -2.8874773123851422e-11
3.839571265256947e-12 1.4748149494412135e-11 -5.3228883899014045e-11
5.291483145063482e-10 -4.261759251709361e-10 6.856040521566886e-9
-1.8621642139054045e-10 4.400070221410882e-11 1.5492978597994104e-9
-3.664516263312401e-13 1.245662427146778e-12 2.491503125572698e-12
-8.22030765445825e-15 -3.7784013237890944e-13 1.3763420848005439e-12
-2.2435035242330042e-13 -3.8556061476849343e-13 3.2399525432425166e-13
-1.0906214186014637e-13 -1.6180332806233963e-13 7.865863644536676e-13
1.777351854185905e-13 -3.7258781828513947e-13 1.9482441705839155e-12
7.902092381852168e-13 -8.199582691772666e-13 1.855870891810019e-12
-3.125256187376135e-14 -8.012337620419277e-13 6.157257986637776e-13
-3.9601079059199946e-13 -4.956298427822303e-13 3.3234985709327397e-12
-9.625299767654227e-12 2.6601266687849644e-10 6.582795489829288e-10
-6.601957899837338e-22 3.970314094306087e-22 7.066744794494467e-22
1.0661641624794354e-10 2.558001324056857e-10 6.584396636517326e-10
3.4069505735158237e-10 3.9007637322465223e-10 1.5675979960352812e-9
-4.927029175692381e-22 4.3593613829916914e-21 8.165219854132136e-21
-1.1482088104707569e-21 6.129210754425744e-21 1.0462325964241658e-20
-1.1600674634820504e-22 2.199831701264166e-21 4.7003333048268704e-21
-6.523072158648624e-8 -1.6427562084116607e-6 8.559621105311656e-10
-6.761775873102988e-7 -4.094011966384674e-6 -2.1197112676992724e-7
-3.675535131242445e-8 -1.5699814717325253e-6 -3.2660729299266904e-10
-1.088306772093445e-7 -4.330149840270753e-6 -1.3470148667290852e-7
-1.6402533463625738e-8 -4.3507260199964455e-6 -1.237399125049798e-7
1.962594940622437e-8 -6.526452514777024e-7 5.181161317885304e-9
2.152410772443309e-7 -1.2047371096890047e-6 2.3408613719591732e-8
3.0697956449159536e-22 5.586877755618861e-22 1.5977958985652474e-21
5.070526858904444e-9 -6.553178245757123e-7 -1.5327978889018838e-8
-2.2784988510712793e-7 -1.7162050603046052e-6 7.22815603961157e-8
2.2124290076427375e-7 -2.1164418701654774e-6 -1.0047106374122329e-7
-3.3157428206682864e-7 -3.940848461014509e-6 3.391055022588647e-7
-4.407312407370407e-12 1.4139110196869835e-11 -3.899852203763802e-11
4.244860154764872e-14 2.7477690596688855e-13 5.827895715082562e-13
-1.1311387119787205e-13 2.7865310512447013e-13 1.235189984070071e-12
9.657173676452109e-14 2.3967248601287315e-13 1.0404603188369028e-12
2.829993086860608e-13 9.283104911421616e-13 3.6052209899127595e-12
-3.6893801371618946e-13 -8.847828639133116e-14 2.0660531375324033e-12
-1.54942420445059e-13 1.1685494768785392e-13 1.7695632029944045e-12
3.1497586035489163e-13 9.352574239594009e-13 1.2383607357847398e-12
-1.0151217084866424e-21 -4.500864482533172e-22 1.0254294493635733e-20
-6.21377545494609e-22 -1.4049259137266317e-21 8.667071871444615e-21
9.033226034636253e-22 -2.8791186794947954e-21 9.292501864531756e-21
-1.098312426396906e-21 -3.716999000346097e-21 1.1905838055848863e-20
-3.245434562839891e-22 -5.258788113729076e-21 1.627345422840384e-20
3.085576426223861e-21 -6.104866317455356e-21 2.4857984313060973e-20
-3.0620697180924926e-22 -8.311179104898566e-21 3.6332086971629297e-20
-1.1979402290291536e-23 6.790037512253988e-22 2.5921249141771574e-21
-1.2194291336222999e-21 1.6910549313506908e-21 6.390253043751177e-21
-4.331374236128634e-22 4.522727974632613e-22 1.922673546845737e-21
-1.7850957370429553e-22 4.573886217002899e-22 2.5629862361819907e-22
-2.8435553614714257e-8 -4.561824699954678e-8 8.024626152438905e-8
5.741325075606392e-9 -2.83783810836507e-8 6.18025832669753e-8
-6.642215230708874e-9 -1.5229204438596595e-9 6.775461005191265e-8
-1.0444287196235076e-8 -1.5199203417361047e-8 2.3325983696651784e-8
-2.7431386261254018e-8 -7.167669055988196e-8 -1.893515637497953e-8
9.433592317005953e-9 -1.104556705742817e-7 7.909963871808206e-8
-3.8504809418353915e-8 6.185980418729129e-10 2.3050614119758552e-8
2.3997993799394207e-9 -3.8595228922931985e-8 3.865845574626954e-8
-6.920806925482102e-9 -5.160694353749093e-9 6.313771574390342e-8
-3.946492639331859e-8 -2.6740760327499675e-8 1.0868898944712949e-7
-6.1841221105170996e-9 -1.1716603476615602e-8 3.019374377524828e-8
-9.209325028906074e-9 -9.55940703640023e-8 6.400194484494075e-8
1.8425891798997e-8 -4.755211062040049e-8 6.160269788521604e-8
2.905325937905666e-9 -6.974180294283487e-8 2.6673208783556907e-8
-4.5297179207249374e-10 -6.122108435191953e-8 2.5057192956724133e-8
8.277282832509541e-9 -6.579653347856073e-8 1.7138363197918765e-8
-1.150992974126483e-8 -9.808325450648113e-8 4.447834872650509e-8
8.554741931941484e-10 -2.2270896341102303e-8 3.042300448301874e-8
-3.3465769190834985e-9 -7.611544980369091e-10 3.269785012854558e-8
-8.408530344323806e-8 -5.444328067394169e-7 1.1911536387932167e-8
-1.1058584568273483e-7 -1.3409491514903965e-6 -9.000160028576523e-9
-7.374469737278099e-8 -5.509331411284127e-7 7.942344963195284e-8
-1.152572189626239e-7 -2.345432876674584e-7 -1.1227196286510355e-8
8.404861847028869e-22 -1.5125427968846147e-21 6.393882414495139e-21
-1.784417135394742e-21 -1.0252283096007492e-22 9.630329899652987e-21
-1.2935292636730374e-21 8.635091414058257e-22 8.229767246476013e-21
-8.764072590665912e-22 -6.641272365232686e-22 7.738237379099603e-21
-7.537758182522727e-22 6.338304716741868e-22 7.398471069744837e-21
-1.989653992010811e-21 -3.0540440834790143e-21 1.5697948791033083e-20
-7.8020126701988455e-22 5.405303990128456e-23 7.78127258227843e-21
-6.801854757483662e-22 9.143532543885516e-22 2.8574995083366204e-21
2.7945463254722106e-9 3.8915412320610066e-10 1.564714511423579e-8
8.930091646849886e-10 -9.849321665231477e-10 1.0459785398922415e-8
5.813435832404654e-10 1.8106107980017854e-9 9.642215852933596e-9
-3.013766600153982e-10 1.3494388185581048e-9 8.729917564753409e-9
1.2385652309706388e-9 -1.3834934240325852e-9 2.240272241777414e-8
-3.739308135428597e-9 4.04634501782451e-9 2.064625632684286e-8
4.000511645456048e-17 1.0183357921772408e-15 5.297527371655211e-15
5.690827142926089e-17 5.945383480531481e-16 1.7741076713986397e-15
-1.0009252994722544e-15 2.2269533841260015e-15 7.457413194134277e-15
-3.169219654350355e-16 1.426144912894428e-14 1.2209834126846435e-16
-2.6035720220231843e-15 7.887873291442258e-15 7.507065222470546e-15
1.9793147084046538e-16 8.772547722756334e-15 1.0755976630661053e-15
-1.900114198035049e-16 7.10554397726135e-15 -2.863011856474105e-15
6.504598345092629e-16 2.1756640037184952e-14 5.3022618298592364e-15
-8.17607384496296e-15 3.8297227179879445e-14 -1.245281530606213e-14
2.1184053960435917e-15 -4.881700395314416e-15 1.7391210490786962e-14
6.5836445725506215e-9 -8.75054920539566e-8 -6.75382615321825e-10
1.3241943947665146e-9 -2.1043541556475413e-8 3.870673027822165e-8
-1.841854492460457e-8 -1.445118716134419e-7 -4.101615334110891e-8
-1.9493059578068537e-8 -4.0325637971862325e-7 -4.1497569244777e-8
2.2175450638368097e-8 -9.616749088292018e-8 -2.3898775846466758e-8
9.159826214050495e-9 -3.6623454218662255e-9 3.426969669937511e-8
-4.030107699845228e-8 -1.0195973128162865e-7 8.411603039114491e-8
3.5526177183711915e-16 4.998250933416312e-16 3.6487795562038674e-15
2.0260041224449072e-16 2.0221524877564188e-17 1.4987200880654368e-15
2.5943739003197027e-16 1.005542053517122e-15 2.088744394915362e-15
-6.134114558395461e-17 2.5754336395062823e-17 4.154354104595367e-16
2.4746517919060237e-17 1.3361186409939054e-17 2.723436976097615e-16
-1.2988491366536928e-17 -2.2862228515811667e-17 3.2092895508330555e-16
-1.0069340045783433e-16 -6.057895706255716e-17 5.458808884446904e-16
1.1398136462159709e-16 -4.2187171052644787e-17 5.695453883200415e-16
-8.797299417801345e-11 8.959225046152645e-10 8.716197006079178e-10
-5.43946169687134e-14 -6.694744336057232e-13 2.4784178190287235e-12
9.789870537971868e-14 -7.092140967744568e-14 1.5833021446267813e-12
-1.5213992724931112e-21 -5.54308686594681e-22 1.1489598827314015e-20
2.1950650728892336e-22 -4.1653741983412836e-22 7.092104070293672e-21
-3.481140578277031e-17 6.200931213912668e-17 -5.4876865018115434e-17
-4.586167015656273e-7 -6.115121738062742e-6 -1.178239113140656e-6
-3.8325995297925715e-15 8.414473543309647e-15 1.9870237787003033e-14
-1.4030173807790634e-15 4.635313321088963e-15 9.700966932509756e-15
-7.124836274184819e-17 -1.310148674226171e-16 8.314045222441989e-16
1.1320289070662602e-15 2.8069839727409767e-15 6.864868982902734e-15
6.392208345467186e-17 1.796365162981084e-15 5.286527533568956e-15
7.844477944718605e-8 -4.308138668769352e-7 -4.0000691074578933e-7
2.3973786966021852e-18 -4.886161984252932e-19 6.560788401846065e-17
1.1804482488034085e-16 -2.818000501423525e-16 2.422585508992282e-15
-1.4263641142689033e-17 -7.170629304648707e-18 1.1832989460205084e-16
-2.6094934994679384e-17 4.0111469079522676e-17 1.4666718279914704e-16
5.2520007390316323e-17 1.0671045573101527e-17 1.2729032094572576e-16
-4.940620080382515e-17 -4.188270823258884e-17 2.9359160470256627e-16
-6.618729562361773e-17 -1.8340487639410385e-16 1.3703805759391773e-15
-1.5715541420732424e-12 5.1297797461588994e-12 4.0236054674366335e-12
-1.8592610878576317e-12 4.7792351323761866e-12 -1.74242288314114e-12
-1.6959279222821255e-12 1.1262253854990777e-11 -1.4432525595565422e-12
4.69324926703289e-7 -3.84283903830431e-6 -2.1766181314536164e-7
2.4428406992927542e-8 -2.7061587496495178e-6 -1.5549460742488224e-7
1.015006326059206e-7 -4.193857901953661e-6 1.7719526971051889e-7
3.494649476052616e-16 -3.164669925615902e-17 3.825801384895545e-15
-3.0103379987606864e-18 4.659191411220388e-16 4.126398561645437e-15
-8.038755445543365e-16 7.148833416305475e-16 7.35780572801524e-15
1.034398768339717e-8 -1.6420856165809158e-6 1.245886465040839e-8
6.634080185080737e-8 -1.1854786357181086e-6 -1.0409619242150525e-7
9.61574188677159e-8 -4.53923649757533e-6 -1.9817255035616472e-7
-5.1001729153858156e-21 7.089217523833523e-21 2.0910517500591371e-19
4.2538716504441216e-20 -3.024992905332359e-20 9.755393704898224e-19
-6.831190330803169e-7 -6.3260289156343515e-6 3.3406450364191263e-7
5.464351489799487e-9 -6.591347704901602e-6 -2.9107666651376287e-7
7.76262674913242e-7 -6.301798664423063e-6 -4.137201616693024e-8
-1.6362521820436005e-19 -1.1717911338714823e-19 1.0981236441437494e-18
1.41560038356365e-16 -1.3693721842077156e-16 1.083835040300614e-15
-4.0852867976405355e-17 -3.5822329329232273e-19 3.017816945562078e-16
-1.3216523451339581e-17 2.92757606860748e-17 2.240152537484695e-16
1.251034908955969e-17 7.892531588586186e-17 4.3687873013963025e-16
-1.6153288634337034e-9 -4.111550745654113e-8 5.5923220445427675e-9
-4.592327615982114e-9 -1.5369559336715045e-8 -2.0974705939625513e-8
-5.067428186777297e-9 -4.593239410030343e-8 -3.322713041766153e-8
-4.143762022257917e-8 -9.325173490555913e-8 -1.1826469347122976e-9
-1.632553088513842e-17 2.7685543001997545e-17 9.631336318497466e-17
4.681750501928662e-18 6.8928126557921564e-18 4.698093131482723e-17
-1.0693167859380402e-18 1.9513924241473887e-18 2.3636658095521884e-17
-4.1741006198324695e-18 4.669466690707611e-18 1.2568895788116578e-17
4.12045870351181e-19 2.6313060418728102e-18 1.419961847210279e-17
-1.5725587053060344e-17 7.481724809818203e-18 6.66159493023232e-17
-2.8547722379746264e-18 2.9881571687310512e-18 1.0108094303928341e-17
1.1619554225417158e-18 -3.8181776996323253e-19 5.6407749474192906e-18
-8.391931192692273e-11 2.3288333274366506e-10 9.401191837688765e-10
-1.5362911463800033e-10 5.569404064621532e-11 5.923867368812476e-10
6.848038385046806e-11 8.781876672760462e-11 4.81239861032981e-10
-1.3179112881098905e-11 6.345032076751975e-13 4.811779674862505e-10
1.1474793340264194e-11 5.594505852943826e-11 4.731745123814822e-10
1.473003556332192e-20 6.354936397467735e-20 2.734157172565433e-19
2.1401089197717384e-20 5.688115825154745e-20 1.9559847641604834e-19
3.7637642008355884e-20 5.739638837338008e-20 1.3944614331553296e-19
-8.200259716868947e-11 1.2680334360883318e-9 -5.057508043533444e-10
-4.6134053287777786e-10 2.0614104628684467e-9 -2.9504039981895135e-9
-4.988823017076289e-10 1.4605455793423892e-9 -3.002390971045501e-9
4.373484534165069e-11 3.947527783852434e-11 -5.8176804545586e-9
-1.0673243860606865e-11 5.405021903199641e-11 -1.2796145185946208e-11
-9.588941596230351e-12 8.196084925015484e-11 2.737287359998061e-11
-5.889078621262287e-16 -1.7545142456284533e-15 2.298209501771879e-14
1.3477865208223362e-9 5.260747070440876e-9 -2.1962661930982876e-8
-4.2006318923033615e-9 -8.33570013452814e-9 -5.291471171274203e-8
-2.617055533802108e-10 7.615067758085686e-10 -1.486366043803659e-9
-8.490250611702718e-10 3.0961877503229656e-9 -4.9929779651235285e-9
2.3416096475211576e-8 -4.598820555900205e-8 -8.163284078390733e-8
7.850935368044509e-9 -1.6954823591462208e-8 -4.334881025749376e-8
-3.2019200676850496e-15 2.1813019683657555e-13 -1.8927239866683783e-13
6.5381996941849936e-15 2.1069691158101474e-13 -3.2578722054309005e-13
3.818746201577201e-14 1.8434273136979918e-13 -6.038582006495074e-13
1.3469886572308429e-13 3.582459603341116e-13 -3.188299755993235e-13
1.3573391792949672e-13 5.195961707028264e-13 1.5161961897901038e-12
-2.6586176858042234e-14 1.072055064962551e-13 -1.0891258803045311e-13
3.6378586091941373e-14 2.2889140511287435e-13 -1.671082316875392e-14
7.701864606199594e-18 -8.014658717941238e-17 1.6179001965675953e-16
4.581012474669621e-18 -2.5406085735585762e-17 6.614614752142407e-17
-1.9645938839641377e-18 3.687507002919622e-19 3.467885286027047e-18
-2.783047403639766e-14 1.6080032398662304e-13 1.82475153114618e-13
-5.036993675907753e-13 7.118809288510581e-13 -3.1621863193098483e-13
4.2857414208230285e-14 1.5334719294392195e-12 -2.2915303231413763e-12
-5.593473029673258e-13 1.110469862454317e-12 -1.0017387422302008e-12
1.520911027859911e-16 1.3909969149634387e-15 2.301602955471745e-15
2.869614743214721e-13 -1.5148894064149766e-12 1.4457696511120581e-11
-8.140906086258425e-18 -3.71897958999468e-19 1.0243667962474191e-16
-1.455165714703741e-17 -6.112363092225743e-17 1.949365009649339e-16
5.608131976013243e-17 -6.044899837856982e-17 3.985287176884873e-16
4.317726194945847e-17 -1.0586721430966424e-16 3.959399337976378e-16
-1.4607022641005982e-17 -5.216663071784097e-17 2.383414361169151e-16
8.383853573991833e-13 -8.862097799186967e-13 6.2941246627331536e-12
1.4123048179179974e-12 -3.884898042706349e-13 2.557212796561073e-12
-6.456465800185123e-14 8.144434813743838e-15 8.643780082672146e-13
-9.36457300882802e-17 2.9328694950247875e-15 1.8332720363325394e-15
3.464775466840697e-16 2.3541677199627584e-15 2.6975231072709916e-15
6.338780829021439e-20 1.5921052258348719e-19 8.534010014304499e-19
-4.689708210887706e-16 1.0347635563914408e-14 3.19373449652039e-14
6.579020555775288e-16 8.843797231888984e-15 2.0125362728230988e-14
-7.325102987718434e-16 2.435520317496607e-15 3.9885785382605105e-15
-1.1347684491489029e-15 2.0781495549355415e-15 3.4691350153135394e-15
6.752465405511125e-9 -1.2545887274822443e-8 -5.981267524237608e-8
5.44006324542343e-10 2.5491123566319677e-9 -3.878169779301438e-9
3.863256733354076e-10 3.475264124523471e-9 1.301885647852354e-9
-4.57305941825728e-15 7.049208539385889e-15 7.132231183654943e-15
5.365734580484004e-16 3.4230688527735466e-15 1.0736700019852615e-14
-5.100366405592956e-15 1.0036956452816137e-14 2.3833664453402072e-14
2.454869344208973e-9 1.0900444586206142e-8 -2.1839795355894075e-8
-1.8399122519824185e-10 5.346367233481812e-9 -2.028649461627046e-9
-6.266920043010944e-11 2.9842329874050885e-9 -4.7030044694009875e-9
-2.670278794675992e-9 1.8344353180938257e-9 7.789439236375766e-9
7.638218387793243e-9 1.2377262694018654e-9 -4.399668378574948e-9
-2.5191391015434303e-9 -1.7708689104881307e-8 3.348323928894975e-9
3.0501437375903163e-8 -2.171732388064177e-7 1.9293161550888445e-8
-2.0576423548424863e-8 -4.639084765073908e-8 2.039094046802662e-8
1.119601083634862e-19 2.2321111695411718e-20 1.415751021922982e-18
-5.2721917859469435e-11 -4.007667369114829e-11 1.8416593403613876e-10
-1.636316812018507e-11 -2.4528672649757742e-11 9.54072382281447e-11
-3.983094622151318e-12 -3.373151969054752e-11 1.3800401453273328e-10
-1.7689540817791702e-13 -5.986287036731393e-13 1.963464515657416e-12
2.3121149383422374e-18 1.0711988918097129e-17 1.6535871008894082e-17
5.415187086334382e-12 4.009147298528247e-13 -2.5648633351365366e-11
2.5058378232393412e-8 2.2371883507622497e-8 1.0228621196490594e-6
4.520270987425982e-12 1.1142240770776716e-11 -2.790770315752924e-11
-1.8056819732269866e-11 5.94775137312006e-11 -4.377387385616775e-11
-6.261938523391808e-11 7.869618221080171e-11 -7.32553891926806e-11
-1.9512984107298313e-19 4.0961857522640954e-19 3.8287629131156544e-19
-2.188235556668525e-19 7.214982926706302e-19 1.2016860996861418e-18
-1.0226431438144109e-11 8.56193084109278e-11 5.7247376612382216e-11
-4.665844791185422e-22 1.328862294451908e-21 7.47526700129752e-21
-1.8118263606142597e-16 8.109416435632633e-15 4.0701301404485695e-14
6.3874678876482586e-21 1.0142453870792102e-19 2.1001796178004365e-19
-5.607710090501994e-20 1.538131320388137e-19 3.53260958713072e-19
-1.2619122382578765e-20 5.115378713097522e-20 6.879214675439268e-20
1.2736056444769677e-18 1.5176514505128886e-18 1.2387293582192346e-17
-1.8563272268776168e-15 2.2284832569636812e-14 4.5692628036316404e-14
-3.1673545466769913e-13 3.3294614097986407e-13 1.1920958415897223e-12
-4.981586129872034e-13 3.9540823781692606e-13 8.684744896590681e-13
-9.725457220220498e-15 4.232081423189898e-13 6.876738723926423e-13
9.168923358910062e-14 1.8909441250841491e-13 6.032821556765896e-13
5.050247679413702e-14 2.3025603918038077e-13 4.008664744118738e-13
-1.4476103694830174e-16 2.721224702976907e-15 4.6948444856053864e-15
1.086353088882573e-15 2.472211277981289e-15 3.150976122776975e-15
7.435450682773319e-16 4.563897540342145e-15 1.0278802556795353e-14
-3.805913955955732e-16 5.012294379147421e-15 8.504902172627001e-15
2.337489175987228e-16 1.898576924684888e-15 5.101089463674962e-15
2.105290743850488e-16 1.6065615584677944e-15 2.807616662350942e-15
5.370135385799693e-16 2.3354951313713285e-15 6.712405668794266e-15
4.62118858021452e-16 2.969943663454935e-15 2.8954512434346975e-15
-7.312566811616455e-16 1.3284540551805332e-15 2.522551288218516e-15
-1.1600121692287998e-15 -3.0772155532931897e-16 5.5056704242422755e-15
-4.8997974901919925e-16 -6.495035559401547e-15 2.640566093875804e-14
-1.7131691725175844e-15 -4.9184402516224986e-15 2.681415769317534e-15
2.6554338579507113e-15 -3.136131046546326e-15 3.8040907934447156e-14
-2.0076387132552655e-15 5.576121165171434e-15 9.276445125906527e-14
2.4364059096696275e-17 -1.0293230123325617e-15 1.4196876118535904e-14
-2.5985323171918205e-15 -1.097353220629842e-15 1.4985826516885108e-14
-3.381600605956104e-14 1.1049133994788637e-15 5.307605230629201e-13
-4.864475755507888e-14 3.2101445948873333e-14 2.0658382375630068e-13
-2.5320942869745383e-14 -5.190135505630747e-14 2.6018469378626765e-13
2.9714884165110056e-14 -1.6422075201154905e-14 3.6395927513306575e-13
-2.847843363489375e-19 4.1073101147534373e-19 9.684557510922277e-19
-7.881453106269489e-20 2.6523785388271356e-19 4.081632779057788e-19
-1.2698366589768332e-13 9.325064061554088e-13 7.406790931046576e-13
-3.062154466397134e-19 1.1430417305664044e-17 1.4175693416316853e-17
-6.575936000675274e-19 5.449780916763239e-18 7.355972624863853e-18
2.3003090285181065e-15 1.8244021958396522e-14 2.4408249337122137e-14
2.2717398460863863e-21 -4.244502838394742e-21 2.1711944195260608e-20
1.460417745571665e-21 -6.656645700180987e-22 1.2634831325027539e-20
-3.40491118094666e-22 -4.857336550142122e-22 6.769325512545445e-22
2.5907187444496904e-22 -3.3645073536992574e-22 6.187684651522204e-22
-3.6106011509541554e-15 1.1403051927276573e-14 2.3736722768999112e-14
-1.4001576226094697e-15 9.319698003503125e-15 1.4917962967381506e-14
2.269845763043529e-20 2.083520122013596e-18 5.410018032201608e-18
-7.83355071639928e-14 3.074049403432009e-13 1.3102486851649937e-14
-3.642888062325734e-9 -8.328078749501094e-9 6.894565764202379e-9
1.3519221284791226e-18 3.080261223372336e-17 1.0998595944152757e-16
8.349694511670289e-19 5.5120814124859335e-17 1.2408607188002966e-16
1.02104750756079e-17 8.790832053550879e-17 2.1354807065879997e-16
5.3142745019029326e-8 -2.7695379014215726e-7 3.843100803112257e-8
-1.8674097935931146e-18 5.060532403347038e-18 1.017303010122185e-17
6.611588002888556e-14 -1.6106318079441661e-15 5.234758479655354e-13
-8.42227559774258e-15 -7.437083607368217e-15 2.0947590676473027e-13
6.567912319798598e-13 -9.53740659742286e-13 3.223575199939755e-12
2.370989010147318e-20 -4.252580952815116e-20 2.9136942653915953e-19
5.893003825651635e-20 -1.1559854445494215e-19 5.182809394604916e-19
-3.6574626030403984e-11 2.1283925820085423e-11 1.8932063821354233e-10
-3.04385920090534e-19 -7.184720337055209e-19 3.475218378267836e-18
-2.9321791041451616e-19 -6.439420645587154e-19 2.2963919831380327e-18
3.04486075769811e-21 -3.189029485018936e-19 1.61788933264832e-18
2.2485978205266774e-12 -3.3487215939554577e-12 6.063754591816616e-11
-3.8206084172136207e-10 -1.2567417063890781e-11 -1.700360974825134e-8
-3.6499794265753986e-9 -2.411550222515782e-9 -3.521602168110271e-8
3.799838246381585e-12 3.9578993751940976e-11 -5.922296254702893e-11
3.838864745819006e-11 2.0924699801659175e-11 -1.3091112645442592e-10
-1.831527456115733e-11 1.4468608633497084e-11 -2.1989612486130615e-10
1.2480146678574178e-11 1.8555840338281348e-11 -5.122814809284185e-11
1.702182987016531e-11 2.4764524301709325e-11 -6.919646384341209e-11
1.6531628283942117e-11 2.6132274047854995e-11 -3.688610174056881e-11
1.4459972880199574e-8 -3.2831174093782847e-8 -1.1002131082220565e-7
2.5664351610438858e-11 2.2648759693946778e-11 -9.73499351805546e-11
3.57306284961098e-12 5.785072768844344e-11 -1.182949862040566e-10
1.3043681728323756e-12 3.013665990750901e-11 -1.4226701714755702e-10
3.343982971782706e-18 1.0648049358293266e-17 1.1719272593793119e-17
-7.063233427751479e-19 1.1102660617563685e-18 2.49933577904664e-18
-1.5871631830544405e-18 4.269654113817223e-18 1.1617152100127818e-17
-5.2883969485978114e-20 1.3044820372792919e-18 2.0196633347485623e-18
2.810072778619245e-19 1.1961259261501993e-18 3.333878130065298e-18
-2.13781208738905e-22 -9.22520024830553e-21 1.3617698107497067e-20
-3.112871660959162e-21 -1.0034381796314731e-20 1.6901985060627017e-20
-5.485255312930014e-22 -4.127501552878354e-21 6.468560304427066e-21
4.696352896602649e-22 -3.159633213084238e-21 7.277999531495781e-21
-1.0161754689937584e-11 -1.7587738417670637e-11 3.670661028469847e-10
-5.475104182936326e-11 1.477219664962049e-11 2.707653368407281e-10
-3.277348251908279e-22 1.5689576010715744e-22 1.3060682195191676e-21
-2.2309204500731797e-7 -1.6767289423569117e-6 3.230328056858319e-7
3.710910485346811e-8 -8.639340548450746e-7 3.1815267003596455e-8
-1.7941806454354267e-21 -5.5524368329983866e-21 1.3513614446316456e-20
-1.0605251550533533e-21 -3.0546527769761722e-21 4.856136765366472e-21
-2.6935378398947608e-21 -4.7952709253431145e-21 9.301102226492632e-21
-7.074362308225662e-17 2.1010952324781263e-17 1.1839545072348554e-15
-5.485991799614103e-9 -2.154039921975315e-7 -4.506304992645919e-9
-2.1320012938708483e-8 1.3177736383184413e-9 -8.09267797587684e-9
2.819200522958334e-8 -3.9989006083555075e-7 1.0136759399890928e-7
-2.9682623357836458e-8 -1.408631387400043e-7 8.281110533003384e-8
-2.8301034536525976e-8 -7.022274907506226e-8 9.648524951482448e-8
-9.873456044665368e-18 -2.5601882986269075e-17 1.2687541530738667e-16
1.6242245943216993e-18 -3.3554608763461037e-18 2.9145908636685006e-17
1.8484484971219027e-21 -4.6491648573716966e-23 6.036775408949933e-21
-9.390834922695043e-22 -2.0010153949374985e-21 1.1130891341038781e-20
-7.545576367816845e-22 1.0253582820708333e-21 3.1568105996133473e-22
-6.182342188270696e-17 2.8280263988544285e-16 1.273478039002109e-15
1.723382073119877e-16 3.8563584912517914e-16 2.091250207521921e-15
-8.581413482996993e-22 2.2347801662415587e-22 3.870808707165772e-21
-3.954343737306224e-21 -4.111242571270375e-21 1.656277816971261e-20
-1.761632859379406e-21 -9.029205180978786e-21 2.580351520687637e-20
-1.5080422859647035e-16 3.5528125617415654e-16 1.1270992334197462e-15
1.953026964165375e-22 -1.975244291261009e-21 5.3119236025878155e-21
-1.1916181171773984e-21 -2.693940963917402e-21 6.840406181030861e-21
-2.6493594404455352e-21 -1.8512713913612147e-21 5.387023427353721e-21
-1.2920312754396844e-21 -2.3080521806792094e-21 6.0433911471537826e-21
-1.2612554573244326e-21 -9.987102650597799e-23 2.305728059136801e-21
-8.099075151314259e-22 -6.8568832913553515e-22 2.1931284096611087e-21
-3.870603564205624e-20 -2.522801721478925e-19 1.7477969977286672e-18
-3.1723605355714446e-20 -5.2499573644175295e-21 9.156123367649337e-19
-5.133545186138654e-21 -1.9435866824665526e-19 7.521578708174442e-19
-2.849106677001702e-21 -3.7533705058677684e-20 1.161521717755647e-19
9.43079926807813e-21 -3.445756995935399e-20 9.606046850793346e-20
8.28023969018236e-12 5.0064865631042476e-11 -1.1816944958076524e-10
-1.90924016308057e-12 9.617180429467155e-11 -2.368658100474735e-10
-4.9789591616242895e-12 4.4201095707463356e-11 -1.0297507723354222e-10
2.0911175467331583e-13 4.679659852255371e-12 -1.4760599653295696e-11
-1.8829830737437593e-12 1.523516183815752e-11 4.457914015476633e-13
1.3736776294086959e-11 5.848016882357067e-11 -1.226976963048593e-10
4.306329364806882e-8 -4.0035402557189933e-7 2.594945282930973e-8
-3.246759470553989e-9 -9.558491751248183e-7 -1.4238257601502378e-8
3.526624505041112e-22 -2.2776635807725786e-21 7.24298220278159e-21
3.71385377503789e-22 -1.4925793744955225e-21 3.1809415795876346e-21
-6.360511164356064e-22 -7.595302327735659e-22 3.30955690371685e-21
-4.9263198128157726e-18 1.9046973676551742e-17 6.23803637990813e-17
-3.2715376357419303e-18 9.176764022821682e-18 3.470915599664487e-17
-3.0129010385653426e-18 1.4430934638112123e-17 3.9882244969750626e-17
-7.526615802264048e-18 2.822981279018105e-17 6.757823598101472e-17
-2.822508799057174e-9 9.427341817494961e-9 -1.3334492066633318e-8
1.3013541523555589e-9 1.0455935339289147e-8 -4.1315209634100584e-8
-2.7830325005149522e-9 5.472681040465711e-9 -1.0264272276214766e-8
2.7633180051940386e-8 -5.3544809779748597e-8 1.9699282128457894e-7
-4.160392051894783e-9 -2.3723119689440315e-8 1.2913758887985086e-7
-6.355554360185766e-9 7.876791496483264e-9 6.053467317624025e-8
-2.812846328124921e-9 1.0844932674181697e-8 2.133697658022853e-8
2.804592897330164e-9 2.514201940593309e-8 2.3921677999163466e-8
-4.972048997163745e-8 -4.283248623359049e-9 -6.011616152185543e-9
4.259096252287994e-20 -5.873295619691923e-20 2.6127310970625183e-19
-7.128568368205183e-21 -8.207385595162701e-20 2.224983098390231e-19
7.446839751171667e-21 -2.855083756416575e-20 6.777854769565866e-20
4.288185958226548e-21 -4.241266757128525e-20 9.56540076327094e-20
-1.0832587869766298e-12 3.702867844362842e-12 -3.689417467255248e-12
-5.16738482856831e-14 1.1356033432185573e-12 -3.0532540748727625e-13
3.0282099837169874e-13 1.5004972578115219e-12 -2.630746739884722e-12
-2.3386196194538462e-14 5.68943692206851e-13 -3.970381881872167e-12
-7.366583423921766e-10 2.331042310819693e-9 -9.327163710160797e-10
-2.669930343579779e-10 1.708849559051693e-9 2.8341004748381068e-11
6.146001935138624e-21 -6.281287789194916e-20 2.76264656247514e-19
-2.1876113990384173e-12 3.8403638349788234e-14 2.0263365295774232e-11
-6.8451486889191184e-15 2.7962067668517607e-14 8.865396683657588e-14
-2.5598049483414957e-14 3.2437829775729266e-14 6.998796942505759e-14
-1.2186730703832794e-14 1.1467075803929548e-14 1.0541616740358375e-13
2.241221363349537e-16 1.2900469416128134e-15 1.3661226431797409e-15
-1.148958707494917e-16 1.5341378518391242e-15 7.740571800169475e-16
1.3109579975300796e-16 7.095230339032576e-16 3.8644331022395117e-16
-7.543088481722265e-17 8.450677965620032e-17 3.4064852956980806e-16
-4.519646982180572e-17 1.343798152410267e-16 3.5655353292712164e-16
7.564300382330183e-17 2.735016095181641e-16 7.601717129998481e-16
-9.007863280210819e-18 2.0796774471868068e-16 6.04331780745039e-16
-4.489571906455622e-17 1.5525133241257463e-16 6.333275925389088e-16
-6.045978478208318e-17 1.8016292880543253e-16 8.45073747055847e-16
1.5976387809483982e-22 -9.601807793476916e-24 3.6801753831012344e-22
-4.012456883196889e-9 -7.786252113383055e-9 3.93662242932843e-8
6.685114975856606e-7 -5.459061436278753e-6 -3.349797438040248e-7
-1.814059074541915e-7 -7.720118945612353e-6 1.178425503630439e-6
1.7882290855949236e-7 -4.18318441871457e-6 -5.382717784112868e-7
-3.899548411699506e-9 -2.587952209943608e-9 2.0126366794255947e-8
-2.6014026991435374e-16 2.3077593331853797e-15 2.429720638939669e-15
1.3127015239525701e-15 -1.954968291874148e-14 3.665472496924582e-13
2.2705907065862335e-14 -4.1459260141661396e-14 2.5948128461656295e-13
-6.704623138921128e-14 -6.096504156085477e-14 2.655886807287804e-13
1.6557136494309658e-14 -2.3188563255737482e-14 2.562890349666106e-13
-5.381298312461998e-15 -2.434237646192267e-14 1.2448622050077133e-13
-1.0110782640946043e-14 -6.166733420216976e-15 1.487053474423233e-13
-3.026880512757305e-15 1.7391773744532907e-14 4.255924472113959e-14
-4.700929069972956e-15 1.731795922826666e-14 7.677018822423246e-14
-8.845813943036411e-9 -3.6736949792881987e-7 -1.1733452036737345e-7
2.5257248845926274e-8 -3.2961194771641763e-7 -8.905159966571996e-9
1.391745548103898e-15 1.268239289353296e-16 1.3033647600013916e-14
-1.97628846882756e-16 1.4494725521933007e-15 1.3531845987316351e-15
5.3402866444131813e-17 8.492245169824432e-16 8.51136821386444e-16
5.947992672690995e-17 3.3539081182702233e-16 8.127236756934922e-16
2.5588505904282507e-17 1.4626116329233556e-16 6.467775368054538e-16
-9.971354691346556e-17 1.3836148029313026e-16 6.0245776968627055e-16
-1.6753238365953407e-22 -1.0219831376890465e-21 2.6263044165709085e-21
1.2677992391968072e-15 4.287115986319496e-15 4.5121484536726445e-15
-3.5306910400874973e-16 1.341464567296205e-15 3.138775295329231e-16
6.333491234641596e-17 4.742379069099472e-16 3.0795971121231146e-16
-5.773108049987241e-16 5.3328728422083645e-15 8.699710241507753e-15
-4.850249474245529e-16 5.755479101263499e-16 4.387686207316317e-16
-1.3748218206408835e-16 5.710251371814614e-16 -5.510536996732378e-16
1.0150402693953809e-16 6.185887621603133e-16 -8.81868178905795e-16
-2.1558296828238434e-16 1.7441201566983674e-15 -8.144131187304945e-16
-1.1169825967332855e-16 3.8212991212133506e-16 1.947008770553652e-15
4.208187646859115e-10 1.4159283031289537e-9 -1.3710035751736602e-8
4.848299819370122e-10 -7.526455345975284e-10 -1.4042323754475357e-8
-2.509044407065535e-10 -6.050553856137087e-10 -6.56415152296375e-9
-5.826501311552115e-18 -2.069259619613858e-17 1.6690977673786092e-16
-8.883122731927455e-10 -5.262583947785999e-10 -6.039405535999735e-9
-3.355497543562257e-10 -2.6611917348038526e-10 -2.7822362168471124e-9
5.79908922523454e-8 -5.006341663876976e-7 -3.5865612335794057e-9
-1.4196606881398827e-8 -6.77794689705141e-8 4.304256387635322e-8
-1.8098928516206288e-7 -4.443261926622347e-6 1.0056093382324468e-7
-2.9347413694360753e-7 -3.7647936831385953e-6 -3.636145715354718e-7
6.244888492503082e-10 1.0816596709833266e-10 -6.555943076924574e-10
-2.0687727646866647e-12 7.806039672296049e-12 5.560554432847558e-12
-6.785992815201355e-13 7.577608228027385e-12 9.469234974114286e-12
-8.02547422603488e-13 5.053835889173659e-12 2.665407905892454e-12
2.138898482045404e-13 4.373078902231084e-14 3.968774339632491e-13
1.0438605780993848e-13 -9.159366349015748e-14 2.3042994625995757e-13
-1.096618719533281e-12 6.40977003596673e-12 -4.545858161089979e-12
-7.43065253541471e-13 2.0036315202834534e-12 -3.775616820190179e-12
6.204815242557713e-17 1.0594035584117816e-15 1.36633953903014e-15
2.3672493600121163e-17 4.1458433258015343e-16 2.94520631272397e-16
6.35498163393801e-19 -5.433171701675172e-19 3.299899280345582e-18
1.4349200294451334e-19 -1.4558926481658623e-18 7.850075355352677e-18
-1.4489712017379994e-18 1.889880056976397e-17 9.358366184723078e-17
-1.5549786654058663e-17 1.788097681449613e-17 1.038157289266825e-16
7.54974264022026e-19 -1.099873660367312e-18 4.489274105542881e-18
3.6732855382707307e-20 -7.594786232850056e-19 4.017055486538643e-18
5.66121926699154e-17 -1.989734813274622e-16 5.114212911410625e-16
6.921831199274854e-17 -1.2909405920272308e-16 6.012930647901887e-16
3.061035581809432e-11 2.987907373465842e-11 2.1872316346527334e-10
-1.7408504928892418e-11 -8.615409348065518e-12 1.3382184679891976e-10
-1.561222491344359e-11 1.9488265305124263e-11 8.392136346394271e-11
8.578544487102304e-11 -4.689272582079117e-12 3.629066210656862e-10
3.14276492897282e-11 -8.33833685880159e-12 1.6958213357716988e-10
1.4111802780732723e-23 -1.22309347558272e-22 1.6272621878239633e-22
8.983140315528152e-18 4.0216932276815646e-17 8.897032566346738e-17
-8.87600367437989e-18 -7.404200891298379e-18 3.994665812009914e-17
1.9071632882300172e-17 -9.918830853996788e-17 1.6741479868890937e-15
-3.3234873869231768e-21 -1.0183479351244692e-21 1.8566043282435698e-20
7.195391113649799e-22 -5.926479323781397e-22 3.7592006263496254e-21
5.567535605106018e-22 -2.5917222916101385e-22 -5.191310285049869e-22
-2.1885061649334005e-21 3.6959496806040805e-22 8.204158230697482e-21
-7.353643709324239e-22 8.736662698604188e-22 8.519697294972609e-22
-1.0393386010740177e-21 4.1461778011063265e-22 2.731887400942994e-22
-1.3207550332571581e-18 8.974425975340855e-19 -7.653386060147584e-19
-1.946885308515242e-18 -3.8337933521372543e-20 2.0572218267984097e-18
-1.1770018276762405e-18 3.299343190360851e-19 1.0179284515773957e-19
-1.9159585587877618e-19 1.3268657315496813e-19 -1.3686395481799427e-19
1.1128817017704203e-18 4.268992757323402e-19 7.370662074278336e-18
4.283760038603204e-19 3.9517177682134227e-19 7.702511374216667e-18
-5.907676505742489e-14 -2.0958399234271315e-13 4.873785152855103e-13
1.3725686594174359e-14 -1.374030692362313e-13 1.0828343265491148e-12
-9.126468862214517e-14 -7.392890238396294e-14 5.882073950536943e-13
-5.146576054954514e-22 8.237182114118192e-22 6.121554601233337e-21
-6.380068002746888e-22 2.403092349377264e-21 1.2416553039314986e-20
-1.5169015103602788e-21 1.8710852448528964e-21 6.29838141416209e-21
1.0208406380024598e-16 -3.3824513210548974e-16 1.0109697001013272e-15
-2.498249162373578e-16 -6.489716287618169e-16 1.7527847773912768e-15
1.1340326876986458e-16 -4.780256345850562e-16 8.738291432092935e-16
1.1641060931317566e-22 1.1088204712212926e-21 9.922612026524819e-22
1.3107916169398544e-16 -4.100950799374847e-16 1.7611925122767382e-15
8.250440068120252e-17 -5.554408804881288e-16 1.5024443228656165e-15
-1.1110897274033741e-19 1.9385367862026519e-19 1.3945447462764062e-18
1.69539566087283e-19 -1.1106496699085453e-20 5.153906117687848e-19
-1.3971748786352828e-21 6.708092939128409e-21 2.82555334533852e-20
5.988692628677509e-23 1.8136742084030052e-20 4.4687011228600023e-20
5.232858446524396e-21 1.2160665433682531e-20 4.4757531763070644e-20
2.1278732098431316e-21 8.25522824861264e-21 2.2086464168678108e-20
-3.4790090818159054e-17 -2.0355311823285196e-16 6.97708798555341e-16
-9.823073654421502e-15 2.976932500464966e-14 8.457747898728767e-14
-3.877204378258919e-15 9.478679746531573e-14 2.2316289435615356e-13
8.543308769243803e-20 2.9404839613425417e-19 8.987905627607446e-19
2.124435374680209e-20 5.575238758998909e-20 2.630536822418915e-19
6.964869153025513e-10 -1.140324911787173e-9 1.3067747949068957e-8
-4.911146703783211e-9 -1.2586860908600823e-8 1.7581366550362445e-8
-5.1208594281961474e-8 -4.0484518736491374e-7 -1.695907325891338e-8
5.4113736399820086e-17 1.6716356521883444e-16 4.264926443313653e-16
-7.697975006296156e-17 1.4385982037858262e-16 2.415854290155924e-16
2.546396877585933e-18 7.155852482213877e-17 1.1280093248153403e-16
2.5695709481008045e-8 -5.069707518242129e-7 6.921749414950543e-8
-3.1521929602964944e-10 1.373553570178464e-9 -9.909742832194556e-10
3.7011191102890804e-14 2.445210266144278e-13 -1.4536266109716653e-14
5.980907403338506e-14 9.889165220138709e-14 -8.382978244850448e-14
-1.7737757248689172e-14 7.278120562348489e-14 -2.1948193089821513e-13
-1.1108646357841718e-13 2.485005460950807e-13 4.466722097147863e-13
-3.997500037759104e-22 4.330234170490496e-22 8.73901564225352e-22
1.1369618631144078e-9 7.28976307094682e-9 -5.8189519252186315e-8
2.5432155203799693e-16 -4.2401523314673307e-16 3.4709606166072195e-15
-8.890674638222703e-17 1.7715963893675345e-17 5.358514715795895e-16
-4.772408765191549e-10 1.8306055881198323e-9 4.829967843560983e-9
1.3602050982065262e-10 1.8893429179745637e-9 4.655823181595226e-9
4.1771838857581516e-10 1.0724759674060107e-9 4.2094873516496766e-9
-1.9425234608517576e-11 8.142577556335116e-10 1.5835073356126648e-9
-8.65002139668373e-11 6.694099271048017e-10 6.700784274114144e-10
-8.93405026352975e-11 7.418593293000694e-10 2.089660762673946e-11
-5.380207205183644e-10 -6.488339233989986e-10 3.4618138788090464e-9
-3.5928537556011236e-10 1.2760448163202277e-9 1.0714829089638936e-8
4.572372837526641e-10 2.255304033156258e-9 1.1806248203566819e-8
7.787860566239108e-21 -7.569741308266503e-20 1.8851144048594359e-19
1.7429171343957765e-20 -6.481494540873335e-20 3.0891516330160097e-19
-5.030199068367928e-22 -1.246874633241693e-19 3.2944762573346925e-19
2.499868026612843e-20 -5.973707398119902e-20 1.5521955632476547e-19
-1.1360133110020617e-21 2.763176693309033e-21 4.8048156603267635e-21
-9.021928050970108e-16 8.681150593985036e-16 1.1444917931155346e-14
-7.842922962157469e-15 1.6654443950140333e-15 2.2251213523825066e-14
1.239014102615872e-10 2.657234057419298e-10 1.2916183758248782e-9
-8.488509139290123e-16 -2.5957020174148037e-16 4.367927562401548e-15
-9.248657727489763e-16 3.110201568375235e-15 1.4787081638038453e-15
-5.880622931211393e-18 -9.076192410642371e-16 6.24710712972885e-15
-7.940329334938603e-16 1.500213321799831e-15 -3.8945827506380926e-17
-3.795759894514574e-15 3.451878103556309e-15 2.8408920568003642e-14
-2.747858607774315e-14 3.814267751450072e-13 -1.3076146141444356e-12
2.797827984510526e-13 8.592172617276977e-13 -8.031086002421839e-13
-1.2595286965223538e-19 2.6871663822873466e-19 9.431076586520718e-19
4.3671936554043786e-17 1.0714803846150098e-16 2.079102871676484e-15
-6.251336244192014e-17 8.555768844544914e-17 1.4542661401121218e-15
-2.0737564709437448e-16 1.3136040473567776e-16 1.0427973721036398e-15
-8.939054766582308e-16 1.2192626602754301e-15 5.629918099389514e-15
-4.439739868502115e-14 1.7088398453162045e-13 1.69933022117597e-13
-1.2221874810573042e-13 1.76166247592074e-13 -1.1151660906047938e-13
-3.50280407796889e-14 4.880947260214522e-13 2.6209124206682075e-13
5.689115206249699e-8 -2.2121402921439562e-7 2.8019556979214275e-8
-1.0513567991993871e-7 -6.409124187661738e-7 4.7969337878509695e-9
-9.626334476594885e-9 -1.3690623549478522e-7 8.527834089327033e-8
-1.0086696648223099e-9 -2.3605808958370664e-7 9.797405208853533e-9
-1.8292790875569428e-7 -3.963523869984689e-7 -1.6549892774170767e-7
-2.6849327896253012e-9 -2.841158607084974e-8 -5.281484801258438e-9
-2.3063867221562615e-8 -1.3999621993196638e-7 -5.502251441810971e-8
2.5630499272338336e-8 -1.0628930819104258e-6 1.1916242779674805e-7
5.7835877234307934e-8 -1.2612315641641023e-6 -7.516373634723701e-8
1.709729143106028e-8 -1.1952005728826765e-7 4.612926372072249e-8
-2.6470338104920787e-14 7.607764966081436e-14 5.745686704304196e-14
-6.018410648869466e-15 5.732467806817762e-14 6.853093746090836e-14
-9.20512718556773e-15 4.8265237957973844e-14 2.257116759906201e-14
2.480678953420705e-15 1.0768206100077055e-13 1.039135770918312e-13
-7.433667592668484e-19 -3.258830918736321e-19 6.5719484489992526e-18
2.261411828426547e-11 3.0831391081473654e-9 4.923445830593002e-8
-3.60198017972735e-8 -1.6249965565586867e-7 6.386214823081342e-8
1.034977849289832e-8 -7.097512771437755e-8 8.984837010041076e-8
-5.0399224676216255e-9 1.9825388933383296e-9 3.7098250217825606e-8
2.2976897299566342e-9 -1.4522552957033991e-8 9.413604716037394e-8
-9.903539587738915e-10 -2.0622665766030936e-8 1.1915704002108912e-7
-3.34770946910292e-9 4.9536252013324636e-9 4.460467958275495e-8
6.930428825884562e-19 -2.5717361440564904e-18 8.115665914583246e-18
2.356449833532863e-14 -3.080431479360864e-13 1.282305610752696e-12
5.247311855208065e-13 -1.4740746061085352e-12 8.147904200678656e-12
-1.3730333476765594e-13 -1.1535292110023527e-12 1.3232702929399758e-13
-4.3368802975718953e-13 -8.845505389984405e-13 7.027357015591179e-13
-1.6113890101791773e-11 1.9325137296478722e-10 -1.0916198743515792e-10
1.8503612050784222e-11 1.1379965875173677e-10 -6.421824597472367e-11
2.067432829360312e-11 1.6691443550453644e-10 -1.0769988600292548e-10
-2.07702761356178e-11 1.5644114737280193e-10 -3.1970621356356304e-10
-3.062446519604754e-11 2.998888232638588e-10 1.1279951753223269e-10
9.406827501860653e-12 1.8854578082447126e-10 1.9446557145190077e-11
4.0807363368159194e-8 -6.383487756256628e-7 1.6020377434526978e-9
1.4643912383920008e-8 -2.470523892500987e-7 7.556345533352216e-8
1.1205341481009776e-8 -3.179052140616651e-7 6.854633740729384e-8
4.771848626373685e-7 -1.8114047177207143e-6 -3.786054664400479e-8
3.3500324026297732e-9 -1.166694818752742e-6 -4.942910998472497e-9
-2.0294759410367004e-7 -1.8479349036375594e-6 3.4404253593802045e-8
-3.2771842052395507e-9 -7.382240932921242e-7 3.391194776530294e-8
4.2831365182478924e-8 -1.0906991113167065e-6 9.282249076210467e-8
3.462461290950572e-20 -1.2279398336750294e-18 3.77441237037874e-18
-3.0613741060834455e-23 9.937193693511392e-22 1.373312742343772e-21
-4.199587772857815e-20 -8.220628093988867e-20 3.1837759085101536e-19
1.7002956835337718e-18 4.395163386162639e-19 1.5987372098386692e-17
8.890944940287986e-17 1.0933005679957714e-15 2.7588448429136006e-15
-8.655817070095802e-16 1.0558451729759114e-15 1.6147370886312102e-15
7.947890887024393e-8 -5.530798236002366e-7 -4.671902482229621e-8
-1.1536541955478612e-8 -1.3333626305214345e-7 -1.0493973756014252e-7
-1.647476619705914e-7 -2.270044853321328e-6 -3.59763570559551e-8
4.982186672448677e-8 -7.249186409756608e-7 -2.3399313755354087e-7
1.4530985721014983e-8 -5.161005092786125e-7 -2.078775517975176e-7
-1.7400732436212166e-8 -8.228388397220272e-8 -1.3906299933687464e-7
-4.352090945765319e-12 7.868294154371265e-12 3.793302677834479e-11
-7.267539284317202e-12 3.933140824279941e-12 4.271881185971065e-11
-5.6276198422133774e-12 1.4406644830275197e-11 2.639922684947786e-11
-2.4440374789496897e-13 1.565308569188464e-11 8.288107148783441e-12
6.7174040441209875e-19 -1.2961516990854301e-18 4.5598588263701754e-18
-1.1885829213696855e-19 -7.856806763466887e-19 2.2876349312905953e-18
9.588528514828541e-20 -1.7206645005564434e-18 4.5427296806456035e-18
3.7397840610369894e-19 -1.5516533384799654e-18 3.2001706918087568e-18
-4.2926720628142484e-19 2.9509333189379276e-18 4.8205745663868866e-18
-2.063066916281961e-21 -9.749933184146549e-22 1.5227300396375466e-20
-4.911879004836172e-14 -2.2651861122516378e-13 6.690714886736748e-13
-7.51529167628148e-20 2.179878687216082e-21 8.779366989308297e-20
2.117640922019413e-20 2.983673229757814e-20 2.883784870317357e-19
-6.6335228329771635e-18 5.7785014063510746e-18 3.6950622565596804e-17
5.0797808418058424e-9 -4.204386139962874e-9 3.9503428144226865e-8
-4.51550743574298e-9 -8.228327637018337e-9 4.746143972293169e-8
6.377726138934203e-10 -1.5022244022163827e-8 6.084495394980457e-8
2.9336353746976634e-9 -2.2835448708909245e-9 3.0393098043196104e-8
1.069161507542491e-18 6.3535369466356634e-18 1.58701394054872e-17
-2.2919818929511316e-18 8.830398904052307e-18 2.126152277131403e-17
1.265232470019207e-18 1.4879128027429342e-17 3.059980957065686e-17
-4.782604118096133e-18 1.4939284717817245e-17 3.4863646291624095e-17
1.5894965688826122e-7 -1.3883328292154724e-6 3.1733917892371705e-7
-4.2933420704060244e-8 -1.0586135349642363e-6 -3.6001959159648205e-8
2.4515572921454475e-9 -3.831558581785182e-7 -1.331185472405267e-7
-6.650164462944298e-8 -2.577130586289724e-7 -3.750426800700556e-7
1.4276690372771982e-8 -5.68015915956562e-8 -1.1202096416890353e-7
4.110323273763942e-8 -3.311465935886814e-8 2.187584915799313e-7
3.748380144285997e-8 -2.7143667969253067e-7 3.799317603956948e-7
-2.2872854398635214e-8 -5.477582829824162e-7 6.499339866468705e-8
-5.544556946880209e-12 8.443310295863965e-11 7.733413506394669e-11
-1.3716420342844512e-11 8.373300859840093e-11 6.859724127361242e-11
-1.6800346612644025e-21 -5.988558909179961e-21 9.944585393712767e-21
7.900640477327045e-22 -3.243965065408336e-21 6.28179586293189e-21
9.473327310472094e-11 1.4706583252233427e-10 5.463799003874183e-10
2.8121816594653445e-12 1.7746196164522847e-10 1.787380497011737e-10
-4.4575535336911326e-11 4.1577989715215493e-10 3.3223172258415407e-10
-1.0518602092488784e-13 1.2064934927086253e-13 2.1849299366808433e-13
-1.60876274506205e-11 2.577822613018551e-10 -8.05725111683362e-11
3.173278779128278e-11 2.3383899411050163e-10 2.2316826579653113e-10
-5.093193048910415e-11 1.7329051571549047e-10 1.8288161802229038e-10
1.107365283004321e-10 -9.595338650786473e-11 3.217620456169858e-10
1.1516332936992727e-7 -1.1204027920733605e-6 1.596195346172029e-7
-6.013564038045581e-8 -1.895678929254463e-7 2.0751449661438104e-7
1.0975053631250738e-8 -3.1310484303895406e-8 1.485007316992696e-9
-4.499590652862452e-9 -3.946727509879931e-8 3.260599162336905e-8
-1.4567060691061897e-9 -6.917405029351426e-8 1.4820532507462957e-8
1.0564250941189595e-22 3.9844372351578586e-23 -3.188015549052232e-22
3.377694130250937e-9 3.1809930655827588e-9 2.1634693540968778e-8
-1.8380459415724782e-13 6.79261100859288e-13 3.165865488458431e-13
-1.809966943882675e-20 5.643786490503492e-20 7.860048020131777e-20
9.256027093415109e-12 4.2468662848420517e-11 4.0832656099985745e-11
-4.203221563882997e-12 3.1716298884761666e-11 9.57524966624912e-12
3.6574315445579074e-12 6.040660725158888e-11 2.455181773210239e-11
-7.0157748822678545e-12 2.5269353442860776e-11 1.1035481650660693e-11
1.0850352191044643e-9 -1.3275023226133066e-8 -2.8337102776013894e-9
-4.138812869809753e-23 -6.869972513549414e-22 2.599115016142335e-21
8.278124453001313e-19 7.627990224365363e-18 1.0128191787719213e-17
-4.127985324355983e-16 2.0685037903381994e-15 -4.204304749553084e-15
-3.101682736023295e-20 7.957927798477501e-20 1.5782406415259746e-19
3.3232551266337164e-20 1.5089718967474912e-19 3.7010120587569974e-19
1.1468021898835104e-21 8.268677830441947e-20 2.402161319728637e-19
-1.1920521334939611e-6 -1.0209075071186474e-5 5.167423547196587e-7
5.764579935402299e-18 2.3565000914699822e-17 6.584397904418536e-17
-3.980318899554072e-18 2.3378015440161746e-17 9.810592668640494e-17
7.929803568988161e-9 3.583999656541271e-9 -7.522687508416478e-8
-7.412057633301474e-8 -1.952479115559633e-8 -1.0414121556629593e-7
-8.400717242576357e-22 1.1426393142101674e-22 1.5681244066245737e-21
-3.054546125983734e-18 6.386607684055647e-18 9.967117717235833e-18
-5.647450083959337e-18 1.6835987735759748e-17 7.376098775130212e-17
-2.3189565950479725e-17 4.1565137190443034e-17 1.3437225218236051e-16
-1.6418315197533592e-18 8.714781337834951e-18 2.884442471854744e-17
-7.717398233664925e-18 1.962672384494781e-17 2.2013373035041873e-17
-8.269017483504013e-12 1.789873917079293e-11 4.790226480746428e-12
-7.662405723125655e-12 3.521252760972494e-11 -2.2977132792882974e-11
1.5394436133937735e-9 3.753221270442044e-10 1.1794637876780062e-8
-6.827706900722517e-10 -1.1415042387014686e-8 2.7484674090951438e-9
-3.267007808925346e-7 -9.206999519554856e-7 -8.124348831682512e-8
-2.9239467802561317e-10 2.523579246877951e-9 1.3465626704446766e-8
1.7106135882264825e-7 -7.56058915103261e-6 -2.205850718412227e-7
-2.014262381143279e-9 3.2108158240633517e-9 -2.200645074565361e-8
-1.3252740420496319e-17 8.138451149018016e-17 4.670463107575986e-16
-3.6734913059602857e-22 9.176347313405265e-22 3.1077756559885842e-21
-2.1760302126861967e-22 4.48225694145485e-22 3.1553125793236213e-21
-2.569954418547512e-22 8.400771396844706e-22 2.8000835215849088e-21
2.13957322696836e-22 -5.44821287670516e-22 6.151868817550825e-22
-1.9837832297531333e-22 -1.7870484597803348e-22 2.453214053720557e-22
1.4739934171657472e-22 -4.258503067836938e-22 8.074501831934801e-22
9.659639855391323e-23 -1.5190824371641833e-22 5.447529460444379e-22
-5.097410800938748e-10 1.1698789015576621e-9 8.914328404969592e-9
-3.7934596180501807e-8 -8.762621104527317e-8 2.3202398816541942e-7
-1.2615904734111664e-8 -6.01595896522739e-8 2.825691748937609e-7
4.1682286367615175e-11 1.9096637337340875e-10 2.9161086400339694e-10
-2.523883816282639e-16 -1.2110614442481135e-16 9.142386962540475e-16
-1.8615961485110694e-17 -1.2965793159861905e-16 4.02691332710249e-16
-2.2720561504830767e-16 -2.1150575593767205e-16 8.570702547044922e-16
-1.0197028727102165e-16 7.656632010828715e-17 9.292380166069136e-17
-4.084303583204975e-17 8.80455734691985e-17 5.649085585613827e-17
-9.946660476775699e-18 3.868977925071124e-16 2.7134463011760993e-16
-3.470320012759612e-11 3.483993736870843e-10 -4.1390268411962315e-10
-4.1258016604467474e-11 2.1633068397415963e-10 -4.497943693224207e-10
9.4393166631093e-13 9.816766481576527e-12 -2.102046548368497e-11
-3.2278524676513883e-16 1.9869816020073842e-16 3.123615394593634e-16
3.520255375597689e-17 -4.19798353040911e-17 4.450693096993637e-16
3.1781391473227265e-16 5.795972110316149e-15 1.8307692758243116e-15
2.7099272981058547e-16 4.363524578062103e-15 6.1670024892143235e-15
-1.1475536872040567e-15 3.880076421080964e-15 -3.01378807106567e-16
-1.0277516701447284e-12 4.58030831791931e-12 -8.137638981818568e-12
1.396225449912489e-8 -2.7591112089822095e-8 2.7144722740566425e-8
9.464401857096271e-9 -1.1683370416507722e-7 1.1379972720119874e-7
-1.8462069596777145e-8 -1.1869084763937916e-8 8.179633582032255e-8
-3.516488847017681e-13 1.6216436357354974e-12 -2.7103326336358287e-12
-1.0176526156168795e-12 -1.718185703362036e-11 6.59323501944316e-11
3.6229319185847508e-12 4.650379987341943e-12 -3.34969502691199e-11
8.738818035435467e-9 -1.6980024554605203e-7 2.848545059882608e-7
1.9792464994046503e-21 4.624438013978279e-21 9.901399363315082e-21
6.499653089739912e-22 1.2235350139641961e-21 1.9031232618059995e-21
1.492049038247733e-21 2.500580416537494e-21 4.421888997578478e-21
4.917895042459426e-22 1.118489009300273e-21 2.733216375011619e-21
1.2425484900808592e-15 8.975075695575453e-15 4.3358294741816455e-16
7.856152458887724e-16 5.365677769977101e-15 1.3169667136468505e-15
-5.0472394555294127e-17 6.594900502869424e-15 -4.3498829219288295e-15
2.3956866234998026e-22 1.3067092615668324e-21 1.615787906724617e-21
-3.933225700636153e-15 2.641705169686183e-17 4.8136450303679944e-14
-2.5128637765265594e-17 -6.657582651544435e-17 1.7324708038263695e-16
-1.978114960050174e-16 1.6564982210983195e-15 -3.227369368504152e-16
3.8789309848662026e-17 1.6017252970093423e-15 -2.944429303591093e-16
2.786216608077581e-16 3.339199979158339e-15 -7.748107675126323e-16
1.0529253806727433e-15 5.84321241224068e-15 -4.0163260275444735e-15
-3.321370264996292e-7 -1.785637215461377e-6 -1.0185168994386797e-6
1.1609542582870155e-7 -4.796424510488652e-6 1.218557324346362e-7
5.0631273319910393e-20 5.1165246380990724e-17 8.525701418615996e-17
-4.161529352267377e-16 9.996428699414017e-16 1.7508313896134931e-15
4.9412963106006614e-18 -2.9452158105712014e-17 4.317477006027015e-17
-1.2352583027517387e-20 3.346081868116608e-20 5.185153226606744e-20
-4.1036695604960884e-13 4.3038821789160023e-11 4.3355287986509763e-11
-2.537621000682413e-12 1.5217595311149653e-11 1.3761240546289969e-11
-2.0903823053276998e-17 1.6390209776005785e-18 4.596116049476666e-16
2.0788895647741135e-22 -3.969754761460311e-22 5.186586154131754e-21
3.4690271732440683e-22 -1.2940196849871804e-21 1.3278707139445519e-21
2.149877870153809e-7 -1.3004232591570368e-6 8.289892817719829e-7
-6.845765090238139e-7 -4.541114862224412e-6 1.7340865162827781e-7
-7.21587325083771e-10 -7.586157205270227e-10 -2.9235581632740175e-9
1.0722266685489796e-10 -1.1156665284382623e-9 -7.792138810078086e-9
-9.540689039754148e-10 2.191266723975634e-9 -9.641947080600442e-9
9.97376026878969e-10 -4.152872134372917e-9 -5.583276960549759e-8
-1.0530350468382811e-10 -2.804396725405011e-10 7.48659368264922e-9
-2.4963928604592713e-10 7.808865189373273e-10 3.941131914447818e-9
6.81997372726205e-10 5.526883377487117e-10 5.184356321654147e-9
-2.6761639202741372e-9 1.0659287772136727e-9 1.0030582207891518e-8
-2.5106624500847807e-12 -1.460616672182975e-12 2.7846453415347253e-12
-1.6090961051157957e-12 -5.494497445736271e-12 8.947869705354764e-12
2.3557784326197493e-12 4.749023514573371e-13 6.70500066763529e-12
1.4978584063389977e-13 1.6929825875951855e-13 -9.016598739097898e-12
1.5116331293011094e-21 -2.2361741047179205e-20 4.402588385228775e-20
4.006319541000395e-12 8.398097872152115e-11 1.606475831511214e-11
-1.5293299579249184e-11 8.171956859114814e-11 -1.3612817961930228e-10
-4.032821696916865e-11 1.1231618441985122e-10 -2.5857565733749147e-10
-2.5367622254183004e-12 4.33428391949023e-11 -1.1460562786001554e-10
1.5753790203023833e-12 -2.0606246855047923e-12 3.548677874776357e-11
2.0724606756776436e-9 -2.597130787616946e-9 1.6146614828844733e-8
4.603188441353989e-19 -1.9912736255619986e-18 5.181118468215127e-18
3.812699409676081e-19 -2.8615368001906402e-18 8.530881497636781e-18
2.6396987018225044e-19 1.1123595610183414e-18 2.803849758945743e-18
-4.144333609594242e-19 3.4161605646819527e-20 2.5084781497278187e-18
-3.33408764308945e-19 -2.938321441589583e-19 1.898180846425011e-18
2.646504429269103e-19 -9.624528566770863e-19 2.7698970973536622e-18
6.380739227274317e-19 -9.054515216040018e-19 3.0669366286126465e-18
4.759580611638916e-14 1.5819044460863562e-13 4.887910646252108e-13
-4.171191098221075e-15 -2.8562594305440695e-14 2.596415162705303e-13
-3.289056149721553e-14 -2.871739919767432e-14 1.0968037793353636e-13
2.856711269254777e-15 -8.445757019786517e-15 1.324204282877883e-13
6.860310833540991e-22 2.2633295178432954e-23 6.899636455188878e-21
4.777648473465064e-16 -2.1820224328937365e-15 1.1774370308837712e-14
9.081260129977045e-18 1.8874408223391207e-17 1.3903116223232032e-16
-2.750925951055775e-15 4.395768647274994e-15 -5.352266079104071e-16
1.5403907502726479e-16 2.9218540416510977e-15 -5.478380928096679e-16
2.946055736192822e-18 4.406862072532418e-18 3.017019135529806e-17
-1.3944181962676724e-19 4.797397274446616e-19 1.184713348145788e-18
-5.741519288191948e-18 -2.5289107489021855e-18 1.0468908266281948e-16
1.724043021672469e-18 -1.5322636315559845e-16 2.8847822515104594e-16
7.3009432212563e-20 7.480986630689925e-20 3.69759059236597e-19
-3.999908452762002e-16 -2.3818246317020696e-16 1.643476882455834e-15
8.148851282715245e-16 4.893510323974549e-15 2.5939544547287477e-15
-1.814619242829224e-14 1.0899003524408689e-13 2.1325295074493383e-13
-1.4437697576243657e-14 1.2862054753305986e-13 4.530582103812095e-13
9.777236249485485e-15 7.748443393145282e-14 1.7019418224364452e-13
1.8417514270527855e-14 1.3211257437258328e-13 2.9545200052343646e-13
-2.7041761290238626e-16 -7.490915791757335e-17 3.4687118193744317e-15
-2.075300399462638e-16 -4.315366984116779e-16 3.0784119819751423e-15
8.546442675011528e-15 5.791618416871045e-15 2.3463663714019795e-14
2.875920740360097e-13 5.538436944818892e-13 4.730950317555896e-12
8.324775801684752e-13 2.378663693216137e-12 9.568289466137911e-12
-1.1800242015460884e-18 -1.1852277376491655e-18 4.258653531186579e-18
3.223269004067186e-22 -1.130133662901745e-22 1.9471823214300728e-21
5.874981301052623e-22 1.1280733394995144e-21 2.0455447922336013e-21
-5.643901180310139e-22 3.337297386029315e-21 5.834405462282355e-21
1.4119379765940724e-21 -3.540324230792079e-22 4.300091603452618e-21
-3.467273966087369e-19 1.1591417095532164e-18 2.9068896454055942e-18
6.606184134701357e-17 -1.0030544105994747e-16 1.13608063705882e-16
-2.5417871717080837e-19 3.2677283662321544e-18 9.238882325517506e-18
-1.1919951855408597e-18 7.237736103472875e-18 1.6011488137855432e-17
4.642837500708677e-22 -1.1963601195076883e-21 1.2551936893706157e-21
1.2844886885027632e-10 1.6668978192485476e-10 -4.910228081736325e-10
-4.64878841022759e-18 -9.704012907802176e-18 -7.453913173403394e-19
8.174196982138148e-18 1.8401960482078209e-19 2.427383518810218e-18
-3.623422562270128e-18 -3.0871626712345834e-18 -1.2397020537166746e-19
9.53427637517361e-19 3.951558671455996e-18 6.971934502300539e-18
5.48900772335896e-19 2.4582700132132086e-18 3.0401335240104657e-18
5.168271387854849e-19 1.852732841467427e-18 3.508571030626909e-18
-1.6869959533769798e-18 4.4834251659358485e-17 7.510797656843866e-17
-6.229039011949316e-20 7.396535263818721e-20 -5.906256596486707e-20
-2.092258110964206e-22 2.9204416395236804e-21 3.673502926366763e-21
-5.447472489627655e-20 -5.503861217889619e-20 1.213866257843182e-19
3.714063408873711e-22 3.9687677476949007e-22 4.6981585761473236e-21
-1.1871361533460153e-21 -7.841766561122271e-21 1.897170860170668e-20
-7.200594725651917e-20 6.428437238213576e-20 5.697643014915627e-20
6.304509592014284e-7 -3.2714345487389898e-6 -1.2929229755007157e-7
1.864911030743859e-10 -1.2478410963370417e-11 6.945641427992288e-10
2.434857695512777e-9 -1.1989998800433773e-7 4.401752875257593e-8
-4.767699186579973e-9 5.318313369469627e-9 6.13330932378739e-8
-1.9472624310902803e-10 1.5437202010644342e-9 -9.119699229753716e-11
3.4083286982506165e-7 -7.124721221302935e-6 -3.7785848187513657e-7
2.3388958449294174e-9 -6.234013293580023e-7 2.8155336264678868e-8
-1.3387802397912292e-19 1.0515292554313829e-19 -1.4116066922722622e-20
2.2988603428451886e-9 4.48345660486253e-9 1.5115638488089244e-8
-6.951862859215658e-10 7.989153403857156e-10 2.0064258115496492e-8
5.993973277360685e-9 2.1370994624132114e-9 4.4999709746330824e-8
8.084234942643397e-10 -8.522686980213022e-10 1.7590992989880547e-8
6.277711909727057e-11 -7.199833132658898e-12 -4.322854246666102e-10
2.743458980583728e-12 -3.714647762989784e-11 1.9913399525257216e-10
-7.610175147070158e-12 -2.150211039615339e-11 1.119659546576959e-10
1.3123812854529831e-11 -3.0752872262553654e-11 4.042767678930466e-11
-6.879874353553771e-12 -5.91214000054979e-11 1.0030493908862414e-10
-1.2077067496536621e-13 -1.985967064388666e-13 -8.605727285284987e-13
-6.613308011418953e-13 5.800640474826504e-10 1.0616170464538006e-9
-1.870078841922563e-11 3.126509439414047e-10 5.471906320866801e-10
1.3693252397944946e-11 4.975871943373874e-10 6.107086240323482e-10
8.195255223724364e-18 1.3709432934184707e-16 2.812438155857195e-16
5.558107354632361e-12 -4.045175266146613e-11 1.3247380483325425e-10
2.3738507262163417e-12 2.8554369232640662e-12 -2.5324340016683555e-11
-7.586074313183485e-12 6.479589073182174e-12 -5.392748117808522e-11
-4.314252872765772e-14 -6.043333270096576e-13 9.586129106241584e-12
5.332379962491647e-13 1.3528607445319641e-12 6.107203932447146e-12
-2.1739682323864834e-19 2.5699722548299655e-19 6.879220713997081e-19
-6.027315756768913e-16 3.147444336498977e-14 -5.79577972817446e-15
-6.014886089618902e-11 -1.9444919775349046e-10 8.565075310842977e-10
9.242575124661039e-11 -1.3033844678184182e-10 5.70069054833267e-10
-7.3455722581439555e-19 -5.201912873084295e-18 1.1404158727063784e-17
-2.3315104275228754e-14 -6.088829090235221e-14 2.0327193082104413e-13
6.720754597844935e-14 -1.4046355369236274e-14 -7.080515666666796e-13
5.0769703968883036e-17 6.092007699942442e-16 9.822874156983402e-16
4.2641843868611223e-17 2.0839624638035966e-16 4.297866860966847e-16
-1.1037997507708183e-17 2.1705013381011135e-16 2.723162254002304e-16
-2.7145695945392485e-17 3.297317320554257e-16 4.197135208204049e-16
5.101936397866958e-18 6.16015445071425e-16 1.0377097738128295e-15
-1.0140351857491798e-16 4.1959380588709044e-16 1.5085675285956447e-16
1.2383489651875802e-15 9.603759508687867e-15 2.629261994972987e-14
-6.620691550741685e-15 1.2330391804474287e-14 2.1911457492738104e-14
1.3827215797793418e-15 6.125593727204981e-15 1.3670518496877319e-14
4.8470683290623864e-17 6.184762476717112e-16 7.482990698485604e-16
-2.9361363136402823e-17 6.652503448109731e-16 1.021529108448642e-15
5.3910822675447685e-17 5.592710884922162e-16 6.092502171199626e-16
9.847788826217793e-17 3.826899812047539e-16 6.044659527173779e-16
8.757370334630702e-7 -6.525073202396152e-6 -2.83530392181601e-7
1.0532175945786347e-6 -5.431487118854607e-6 2.0961319419449343e-7
-3.2198115314178882e-15 3.725948869679325e-14 7.177429633000788e-14
7.802948592219166e-22 -2.2095805797725474e-22 2.1694931608093124e-21
4.68364096809091e-22 -4.341376125536718e-22 3.4807419129738036e-21
3.435695128543254e-22 -5.691004271537428e-22 2.041110577419076e-21
-1.2874966798994253e-16 -4.484267834787936e-16 7.636667020352866e-16
1.682834048926018e-15 3.517057453249634e-15 1.3941006985879865e-14
5.856434679487307e-18 1.4200706000655487e-17 3.775882482672724e-17
-4.145561881221951e-15 9.456193706890502e-15 3.268296278275202e-14
3.984259147951325e-13 5.247923007187066e-12 -4.85575304011057e-12
-3.461312302133212e-14 5.5244221583742e-13 8.944984726643218e-13
-1.2342770615190317e-17 -3.1742571261147283e-18 -4.5424506311794885e-17
-1.0067689551989436e-17 1.2702546554295465e-18 -1.747696355235204e-17
-1.3909950763241137e-10 1.4088474695925682e-10 -2.273841806903989e-9
-1.3098660630277144e-10 1.0529253478062002e-10 -9.386242019986093e-10
-3.684684190013615e-10 2.921708341174536e-13 -1.3932533964565948e-9
-2.6954626472787496e-11 -5.2373337388274304e-11 -5.74779084974285e-10
3.885375201432828e-18 1.9692390524569622e-17 3.1729664519849714e-17
5.684528978880237e-12 2.9114091008002256e-12 8.82457509349578e-11
2.2727964783270223e-20 4.4508575724245814e-20 9.944947423596322e-20
2.5068442484879407e-21 9.957992785133754e-21 2.0980563147928697e-20
1.715445300166479e-21 6.515890508709761e-21 6.298149699219685e-21
-3.4895909563671706e-21 -1.4643424092506354e-20 2.338169938604636e-20
-6.913350289479836e-12 2.373059191856589e-11 1.6158472958538328e-11
9.071805946325413e-13 -4.395437857677606e-12 4.957254702750808e-12
1.9975782624439754e-13 -2.7336265446535908e-12 1.797701200861055e-12
-5.0697792478107754e-12 2.866642252209047e-11 -2.7541543933835676e-11
1.1667642837131867e-13 3.596504120771423e-11 -2.560896925270007e-11
-9.388177195431023e-12 5.0532448867208034e-11 -4.409695809081742e-11
-3.512540787219024e-21 -2.2164621956831218e-21 1.1010223717993814e-21
-1.2760652337073234e-20 5.0995928924136255e-20 1.4166302037158737e-19
-9.058345246353848e-12 9.57283747559806e-11 -5.997357888120734e-11
5.753373596508345e-13 4.066133131333943e-11 -5.735819387341079e-12
-9.518718449948098e-12 1.2749123291387913e-11 4.015672265405219e-11
-1.0171965122354076e-12 -1.5218225151406932e-12 6.560724197639158e-12
-2.8860133543297316e-13 -1.614454143369639e-12 1.480074600545464e-12
-1.1804938185419242e-21 -3.32967940941382e-22 2.1252193755928433e-21
-1.399583593505539e-13 -2.336197695861543e-12 6.478406643462773e-12
2.3797531156437515e-21 4.574283614753094e-21 1.2469474568951301e-20
9.83347798039725e-12 1.725580532760822e-10 3.5636187737888297e-12
-5.309374537816171e-11 1.0873698011100935e-10 -1.8243174688822824e-10
4.674440170218586e-21 4.426079622969907e-21 2.884905828953113e-20
-1.495125359837151e-8 2.608545271088868e-9 -9.09604433390353e-8
-5.359065509245387e-22 8.395631092596589e-22 1.0163592150966438e-21
1.0911734301277983e-21 1.2606578460392595e-21 7.979175240483836e-21
-2.153178669525942e-8 -2.065156840646533e-6 -4.268297374828987e-7
-8.733715238562805e-8 -5.282310597554211e-7 -3.5214651269266414e-7
2.7496593663842293e-7 -4.2356397986481465e-6 -3.200313665933786e-7
3.3583748061824035e-9 -7.754840930376408e-8 2.044194005188038e-8
4.616898131324993e-8 -1.0971896783087987e-6 1.2169615007519013e-7
3.518695807116435e-21 2.8243907211206095e-21 1.5541300865513226e-20
8.436431205293881e-7 -5.208783198627513e-6 -4.74667841966356e-7
-1.0343106170909079e-11 1.9651721623150152e-11 -5.1642311015730563e-11
-4.1165682675930694e-16 -9.648443529903513e-16 4.760776056347772e-15
-2.0260658483720746e-16 -1.6188465278926906e-16 2.5192294862023564e-15
5.582267243208769e-16 -4.2094749856115446e-16 4.350743320264253e-15
8.025825111266667e-16 -1.3947551446254827e-15 4.946286700382743e-15
1.2968047646903522e-16 -8.303172249610195e-16 2.0410230661312656e-15
-7.81048201915628e-17 -4.36711017735768e-16 1.788451327061583e-15
-1.633727836884919e-16 2.9143866762572e-16 8.243283135325998e-15
8.111639811079463e-7 -4.541807806328705e-6 -2.1532808845001983e-7
-4.8335873345602664e-8 -6.726518368059884e-7 -2.4850555547242894e-7
3.555732705004954e-8 -8.258206506200964e-8 -2.508537863981431e-7
-2.361910035442058e-8 -1.0708394084322033e-8 -1.4329368770791982e-7
-1.0255658664924144e-8 -4.26900293620941e-8 -2.315056754823916e-7
-4.554950796490304e-9 5.936195706006931e-9 4.7117065728495175e-8
-6.648760804261953e-10 -4.547483247381611e-10 2.0812428555551184e-8
-2.5595928617977614e-9 2.1620120978612347e-9 2.0503362272199108e-8
-3.259488247886337e-8 -3.569761530844354e-9 -1.3792079314062256e-7
-4.133435555967086e-9 -2.8029879682994728e-8 1.008353669716617e-7
-3.8459349927089725e-10 2.3139719158963407e-9 2.7750462169699136e-11
-8.232235838175805e-11 -1.4942233043950253e-11 -8.06736666515125e-10
-1.1958523077302959e-6 -7.040828339342165e-6 4.52735195266196e-8
-4.398161444269835e-14 1.8032667564988214e-12 -1.4253165740680383e-12
-2.5238711419207517e-14 2.7040007319894137e-14 -2.5294287684869104e-13
-8.478014950083033e-14 1.0473400529600923e-13 -3.9002229363088024e-13
9.090746439734375e-15 1.2223708850700803e-13 -1.7011045011399242e-13
-3.5443648496110974e-16 4.810450227336921e-14 -8.03504367123238e-14
1.9919880595069244e-11 1.1159225543671312e-10 1.9312968642584693e-11
5.1347952940747214e-11 2.1744041358420936e-10 1.0578383579330888e-10
2.2366885301839074e-14 2.026358923478609e-14 1.978964776019358e-13
-8.842481741604716e-16 -4.129177020621551e-15 8.641596956499349e-15
-4.488682320013863e-12 1.1567533050094813e-11 -2.7159474020506182e-11
3.7334862358725754e-13 2.438361976649069e-13 -1.3549650424820238e-12
-9.381654394634257e-15 2.714321473032827e-14 4.234215519831502e-14
1.6167390318445843e-15 2.7177965742518872e-15 8.816290211426729e-15
-4.033952950848195e-15 -9.70299515081692e-15 -3.004816661249729e-14
-1.0775068436942568e-13 -1.4004127754406926e-13 4.506916225087225e-13
5.70048054931204e-17 -2.240536043135161e-16 1.5363302727900736e-15
-1.8855184159611234e-16 -7.538479358175112e-16 2.8766210847001504e-15
6.394980601709368e-17 -4.149696052503823e-16 8.346753564540017e-16
-9.638270509972611e-17 -4.458602582731532e-16 5.07955360349908e-16
-6.053588956772578e-20 8.753651016199e-20 -7.914465469078452e-20
-1.5600601118681775e-20 2.236369946435598e-20 1.0584568654004724e-20
-1.9169139830697653e-19 2.0838236956615337e-19 6.157074980388579e-19
-5.287954647195892e-19 -9.700318448428334e-19 -2.4719235571320955e-18
2.7965067832688893e-19 1.649286512772317e-18 4.598478354850913e-18
2.059662278735266e-17 7.524044267864989e-17 1.206307432737216e-16
-1.300316896525257e-10 6.072720836922373e-10 -1.2473174426139443e-9
8.760769476454953e-10 -5.3286511351195665e-11 -3.002496016525686e-9
-2.992742180493939e-11 1.1913778695507045e-10 -1.640359215191046e-11
-2.5073357663302604e-17 9.805584333996637e-16 1.0471237431670472e-15
2.779464944773653e-20 -7.930537780438501e-21 4.514630188687867e-20
-5.36079211586339e-22 5.855700937221417e-21 1.0501916799453899e-20
-1.0382678289566797e-21 5.848022703886926e-21 8.188455080482526e-21
-5.764610760030843e-22 -5.581157355784951e-22 3.904908134763507e-21
-2.831227807790943e-20 4.6720140922197616e-20 2.5973198472803228e-20
-1.2047687004206937e-16 1.867478386886109e-15 2.2704773737211865e-15
7.040252641532066e-16 1.6315528089118148e-15 2.276006499973311e-15
-1.7345418221892526e-7 -4.484679956380242e-6 2.71182127805733e-7
6.957486756400202e-7 -4.811983485156874e-6 4.2499765113364577e-7
5.459074084256153e-7 -3.6205279657573237e-6 3.7810141225590704e-7
3.4136476892503195e-17 2.0324216610931077e-15 1.9882665609788258e-15
-3.266017626010574e-7 -2.8903348169964802e-6 -1.328136298466558e-6
3.310400250394772e-7 -2.868769695903704e-6 3.954386203376257e-7
5.552471535361425e-7 -6.17522771289942e-6 -5.512806342298564e-7
5.858816252339754e-8 -8.864033082264044e-6 4.5273347699268605e-7
2.996190343980214e-7 -7.341584147677632e-6 -9.688270814859278e-7
-1.5085270343063374e-7 -7.944168441949813e-6 4.244348151362456e-7
2.997830772674171e-7 -4.95186622951236e-6 -4.5732365533182964e-8
6.688295783879641e-7 -8.448154166437318e-6 -1.0891547570284006e-7
-1.3822731571894435e-14 6.288237346805614e-14 1.563606022098517e-15
-2.939288678422914e-14 1.2846416195366997e-13 -9.108311265070929e-15
-7.129952157627846e-15 3.762746566180715e-14 -2.0496086946075988e-14
-2.88082083140098e-15 2.67574187960661e-14 9.457551154874639e-15
-4.962163402810499e-15 3.106715563838853e-14 -2.3643926467044822e-14
2.0152424298482703e-7 -4.020067538979256e-6 -9.56458302990303e-8
-2.398601069360526e-7 -7.390408566089075e-6 -7.006828699502455e-7
2.5731965023185714e-8 -6.1855827909766054e-6 3.7667129379194534e-7
-6.242991337630969e-8 -2.354222599320349e-6 9.579889602022016e-8
-5.040774729129757e-21 -1.5318813285277436e-19 4.710978468827665e-19
-2.021206471199574e-19 -2.502527391752092e-19 6.915166370540571e-19
-1.0743051442580629e-19 -9.756826724348173e-20 4.667018386732164e-19
6.962814644305002e-21 -9.862149023862673e-20 3.7319550538990792e-19
-1.4470769940462983e-19 -2.485235385361928e-19 6.0894325185321e-19
-3.665853113742174e-19 -2.687783156521577e-19 8.499072103664435e-19
-1.3366360086424996e-19 -3.137838894552575e-19 1.3472226035947036e-18
-4.883107450530136e-11 2.5848685403199877e-10 -2.877875476133983e-10
2.2566725986872904e-12 1.724099783252917e-10 -6.582167178541073e-10
-1.1707848397354416e-19 -9.948140441022671e-20 5.991472974571919e-19
4.013848431735718e-20 -3.0660120500381276e-20 1.8890021277912245e-19
-8.266109317453885e-8 -8.019508377198722e-7 -4.1507175625458315e-8
-7.628014145891291e-20 -8.224802654320955e-20 2.8126040147385e-19
-3.088408632176077e-9 2.0391002779459254e-9 4.834996980159487e-8
-9.240917186544808e-10 3.913356419657499e-9 -3.6610621193992904e-9
1.2230241030171523e-10 -2.65911124077763e-7 -2.545875288246136e-8
-3.7255430129612336e-10 -6.397117492103134e-8 -1.637513631496453e-8
-1.2419442427926422e-8 8.26731864214818e-9 -4.410034657888127e-8
-2.589669002767351e-7 -2.6664323772423027e-6 -2.389854186000417e-7
3.268308491023011e-7 -4.542008196513966e-6 -2.546746040182916e-7
-1.0175329278143502e-7 -1.6498442366679151e-6 6.922573322214422e-7
-7.263449704555427e-7 -5.488782368952887e-6 2.295611976935182e-7
-1.4483102860376304e-8 -2.414326117119139e-7 4.358746401964186e-7
4.372205212631032e-7 -7.577423224336245e-6 7.763362587903095e-8
2.663986494856383e-6 -8.880711684830681e-6 1.1357674340371888e-6
-3.6067085671365176e-10 2.3067758924314456e-9 2.9897809262228698e-9
-1.8074338963378384e-9 3.819626235277971e-11 6.029151226859297e-9
7.222494614916975e-7 -4.5603517131678405e-6 2.06688649023237e-7
3.840752362812346e-11 1.1264126582778752e-9 1.2759213634717285e-9
-8.021231700785045e-10 -5.821291644157866e-10 -4.179624285994272e-9
-1.0887511102239025e-12 6.319342009912476e-12 2.034106223908087e-11
1.5816868659859305e-12 2.6012960759184342e-12 2.2876431799714e-11
4.086996561615895e-7 -1.701259714624713e-6 -8.487809659767362e-7
-1.4314503549835906e-8 -1.0642575970380533e-7 -4.839224452272465e-7
-2.5045096033325057e-7 -9.276995684096711e-7 -6.892737043601134e-7
-2.0443454611238414e-9 -1.8268177649523967e-8 2.9880054704867087e-9
-4.301087337982105e-7 -6.273718431381259e-6 -2.469716476767045e-7
-1.2770863296859813e-20 -4.227325413573171e-20 1.8159024886984151e-19
4.1682272330854226e-20 -9.020854516545644e-21 1.5967895004448577e-19
4.0581805959464975e-20 -5.0963664621249897e-20 3.5147751334404653e-19
-6.357774068050501e-7 -3.597708151247257e-6 1.2275823210568916e-7
1.796799349305491e-20 1.0701430959892927e-20 1.491517146147804e-19
1.6675556505691042e-7 -4.792769382462703e-6 4.229856295172437e-9
-1.4315900626152815e-6 -5.323746682164464e-6 9.025474256235853e-7
-1.9530125064852013e-7 -5.728519127236183e-7 7.041351024028509e-7
6.350279675410123e-7 -3.1296338081905654e-6 -3.443828765824669e-8
2.8542899164318056e-8 -4.7039088056597517e-7 3.6765568523502044e-8
1.0428782219641965e-7 -2.662097688097679e-7 3.56031659403746e-8
2.4621794304348187e-9 -1.4455212127990966e-7 2.0080064642266553e-8
-1.1250955394667494e-8 -3.0914131231924966e-8 1.77378847472374e-8
4.787615317860115e-9 -4.440553381485943e-9 -7.073902860115226e-8
3.285050069018511e-10 8.948629800710657e-10 2.4861810276413524e-9
6.676356684947513e-11 3.1388113216046266e-10 4.458365423235543e-9
-1.7337657846801538e-10 1.6232608533004108e-9 7.097785387111645e-9
-3.888258711627063e-19 -1.8524186993108034e-18 1.0238760894599421e-17
-4.618657578860926e-7 -1.6546162708523493e-6 -7.623284801710617e-7
-1.4816610937734457e-8 -1.5186684133907803e-7 -2.2038212370084707e-7
-2.484314578916111e-10 5.173346692799238e-10 1.93656544843224e-9
-5.549143485184177e-9 -6.315452402688353e-8 -6.02855345886322e-8
-1.633849513486221e-8 3.283495079944774e-8 -1.920550142147651e-7
-2.20226784845558e-17 -6.683657819743141e-17 1.4283790916554944e-16
3.0502708920739425e-18 -7.569900853732645e-17 2.231080474183658e-16
5.401676672963543e-19 -1.3051462362378473e-16 2.6366489708467167e-16
-2.9778035530196103e-8 -2.3205028893578972e-7 3.488974561931116e-7
2.0280765359054255e-8 5.5372005518385905e-9 9.732683759237577e-8
-3.146823590282291e-8 -3.2804287245235234e-7 4.1306852496284644e-8
3.0387061494207587e-18 -4.139518683622507e-17 7.61587112707117e-17
9.838730626399064e-9 1.047902614862882e-8 4.417885796407106e-8
6.2499971708071175e-9 2.9100345109658295e-8 1.1130751499685444e-7
-1.8566473465572807e-7 -4.235222984234662e-6 -2.4731291225288167e-7
-4.313271320612177e-7 -2.133220337827525e-6 -6.085139526164624e-7
-6.606651487507012e-7 -5.967851547856252e-6 4.779341591048431e-7
-2.866446731895314e-7 -7.022415241125603e-6 3.9382291619062255e-7
2.1726461273126863e-8 -2.5065787674101975e-7 2.7358220397463365e-8
-1.8126612649486335e-9 -2.5943775058827783e-8 2.7596960135921328e-8
7.972741069872525e-8 -4.3494884179868123e-7 9.178869319010061e-8
5.177503126931685e-8 -1.9526259247167785e-6 4.948288550880234e-7
-5.3558004721004265e-9 -6.686055879885398e-9 4.653756497120286e-8
-1.5514951216113752e-14 9.695993363458172e-14 5.298105035666707e-13
2.584856644646412e-9 -5.348048784928974e-8 -9.273976102802787e-8
2.276239625421261e-20 -6.135708720135648e-20 4.739826142849538e-19
-1.5645555176712197e-23 8.846141272880319e-23 6.52409263882978e-23
-2.797153617719193e-7 -5.788270773757539e-6 -2.870761624477066e-7
5.195071797476358e-9 -1.994988165041378e-9 1.495490642117558e-8
8.613488945812224e-11 6.905121249644807e-11 4.422002011174282e-9
1.189551477796202e-19 -1.1113990690080377e-19 6.700607419654561e-19
2.3918529008455503e-20 2.4226647715373193e-20 2.795270560306494e-19
-3.136132357814149e-9 6.249274726814284e-10 1.4751151124063145e-8
4.323523945325828e-9 -4.346499197767629e-8 2.5836444860795687e-8
2.8890361959514693e-9 -7.178679190376975e-9 -4.4780776236824837e-10
-5.012647443313043e-12 -4.706993062043061e-12 1.6106178306652113e-11
-4.056200282748684e-8 -3.0194574137171715e-8 1.627472061456007e-7
-2.8479663061043476e-10 3.3201612136632327e-9 2.7060791484333958e-8
-2.7539599567220496e-10 1.0470674622008274e-9 7.941558637634853e-9
7.096367814016217e-11 -9.85826595171525e-10 1.7445162700394124e-8
7.587551393371301e-9 1.073257121185263e-9 1.2042554665526494e-7
-5.558355306867495e-9 7.273219265790852e-9 9.227847713624011e-8
-9.791885001677539e-19 -2.1510393676114474e-17 5.2143334978751543e-17
-2.4427673675865927e-18 -6.411760846614632e-18 2.0668493807732242e-17
-3.4760721315572748e-9 -5.2068974219754355e-9 -1.7318946965761065e-9
-1.0278899057577862e-16 2.7029081314967084e-16 3.1513525151118233e-16
-1.2169197350232284e-10 1.5150848708968887e-9 4.001276095868524e-9
-1.7782614522095209e-9 1.8139388908073596e-9 8.127312255522211e-9
4.230281291183302e-9 -1.2509301018975144e-8 4.056062353053463e-9
-1.0713106389371011e-8 -7.3271885696559295e-9 5.71322641364616e-8
-1.0436190706000166e-10 -8.92097567296483e-10 1.4840557698844786e-9
-2.8967854457837276e-10 -1.4208512589287026e-9 2.9006352800791514e-9
-8.112117462523879e-14 7.112476270574246e-12 7.697711491270694e-12
-3.683867194861452e-11 3.984608755524001e-11 -1.2000597167824828e-10
-4.994854603749746e-11 3.5732138134910045e-11 -1.2239004381495644e-10
-2.071955523796495e-12 2.6981777154615667e-12 1.3676620147617116e-11
2.746301997394178e-10 1.8627685275273545e-9 2.8645072980646704e-9
-6.346215192791029e-13 1.5419188796736386e-12 -3.923400726700763e-13
-4.975559813063738e-13 1.1415611973809017e-12 -2.8529932547299395e-13
2.5865519899524052e-14 8.3421842872982e-13 -2.308720788212626e-13
-3.596719190987833e-13 2.0508748631742828e-12 2.7423288433425245e-13
-2.114787738106672e-13 2.9693121996567867e-12 -1.5041599360754953e-12
1.4093475600672853e-19 -2.5537238408375726e-19 6.598059784910652e-19
-8.784742918763547e-20 -4.121579690354352e-19 1.621977532233639e-18
-7.387235846787366e-23 -2.547646998444911e-22 8.004096037140956e-22
1.2685340467259294e-9 2.501969827300264e-9 -1.1527941713860487e-8
-9.886870165963171e-20 -4.549187464828388e-19 1.1094984064418542e-18
1.1160569242963654e-20 -2.4782887872911643e-19 1.3783204714616038e-18
9.975251716162652e-20 -3.785173095553658e-19 1.2344030432700316e-18
3.960591470009801e-8 -1.682839082850355e-6 -3.150856418326544e-7
-2.3615709733108115e-8 -2.0982025086638537e-8 -1.5400865896731945e-7
1.1355889773137576e-6 -6.854792597416971e-6 -1.9610741947864165e-7
-2.88058107209521e-9 -2.172035996152558e-8 5.583172446726649e-8
2.340761281533808e-9 -9.662506619943914e-9 1.519372328362808e-8
3.8627518599864997e-10 -1.2243862090204281e-9 1.6609132429435102e-9
9.627078009695467e-18 -9.338794868821706e-18 2.5982330841909858e-17
-1.4218729549771034e-17 -4.612201608750212e-17 1.3649708994223147e-16
-5.559734738889354e-18 -2.887059835669157e-17 5.760716077223207e-17
-9.271474546682229e-18 -4.6137026863706533e-17 8.470357998159558e-17
-1.1750943124539703e-18 -8.108483857875944e-18 1.279112422415679e-17
-8.5109320139275e-19 -2.4238194333568248e-17 4.467348135892385e-17
-3.2811711720760267e-18 -1.1498551519456692e-18 -2.8457948773093444e-18
-7.396300835149796e-19 2.0262525505054892e-19 8.318908076806296e-18
1.7161905142444051e-18 -2.483469164337059e-19 3.087780501542799e-18
-1.0040797753886304e-9 -3.4334849772839267e-10 9.731853686461034e-9
1.561542151456073e-10 1.0284921493103612e-9 2.0237854852601828e-9
3.703270347601839e-12 8.255082515031853e-13 -1.515709734034636e-10
-8.103020819350322e-10 9.721187607474888e-10 -1.5957563097464021e-9
7.837163750079454e-21 -6.001917182627658e-20 2.1554971242885578e-19
-8.787102410409332e-21 -1.9154389367152894e-20 6.474491264431175e-20
-1.755798996060928e-20 -5.327290307827126e-20 1.5542180384099542e-19
-6.250135980816384e-20 -3.6703827301874237e-20 2.0781447667054976e-19
2.073610378245556e-10 5.361983269109628e-10 -3.658256191182664e-10
-1.4665552556973906e-8 -1.2455530202787054e-7 -2.0569176250516894e-7
5.5822932499911064e-8 -1.2976958598559058e-7 -3.270828744359577e-7
2.7644396563322617e-11 5.429242182519079e-10 -4.178381034786055e-10
-1.602294869523003e-13 2.4872733776889777e-11 7.816811427067081e-11
2.4054953319898643e-12 1.3376444386855282e-11 6.635830796248937e-11
-2.141552386817207e-12 1.2641346934425307e-11 3.4327066864103543e-11
7.544067720218947e-12 9.40902409793558e-10 -8.515884373517038e-10
-1.7690019468994424e-10 3.5633774262784103e-10 1.194832748131625e-9
-2.8727823802959374e-9 3.574983673102673e-9 -1.630574516669591e-8
7.033973643895338e-9 9.560436691780549e-9 -2.837981928838256e-8
2.706351923590075e-12 6.183336314661648e-12 1.3247741368732724e-11
2.7275987332853286e-13 6.661211208365751e-12 1.0071097933154854e-11
2.5872220118570606e-10 5.128421786008421e-10 3.3823730400435296e-9
-6.366876745950247e-11 -4.493116018590493e-10 4.29580350597843e-9
4.129237129556417e-13 2.42399112718455e-12 4.477653211330838e-11
7.094871150939496e-9 -6.379306451311961e-9 3.5124355380570985e-8
-1.805854795638007e-9 1.2083292684377389e-9 -2.2951135504966396e-8
1.067352978856755e-10 2.3832499869584626e-11 -1.8642496894029755e-9
9.996707261530728e-11 -2.1301719983501672e-10 -3.4376399345500137e-9
2.99233366767834e-11 1.104504437482674e-9 1.5505244344288924e-10
-1.4586880466678617e-10 -5.251768716499537e-9 -6.000878675645004e-8
-1.0144343357019598e-8 -8.937286665793127e-9 -4.379981782520831e-8
5.621150519817692e-11 6.280619052505081e-10 -2.5139897266789254e-9
-2.4062581730310424e-10 1.745800240726926e-9 -1.8157920242468395e-9
1.320621245628754e-10 1.7986886001285828e-9 1.3628720824793809e-9
7.355157143664882e-12 3.154336032289585e-11 3.8851144787857294e-11
-1.3107108767788487e-13 1.5014652720893018e-11 1.6933700407710765e-11
-1.4406477780903597e-12 -5.004605397376873e-12 5.59435545706348e-11
4.591744484262933e-18 3.742456615738307e-16 6.271169701376869e-16
1.8133357954941393e-9 2.35250760343333e-10 -6.437299792598605e-9
1.410366986588294e-9 8.624134840060559e-10 1.916144117340503e-8
3.421302477338395e-10 -6.468236844935709e-11 2.017416731554665e-9
-1.583440737077893e-9 8.357262878440273e-10 8.924713563456638e-9
1.4289588179593675e-11 9.336684353262038e-11 8.208234731526993e-11
-1.437468776693396e-10 6.79006229298922e-11 8.825966794739953e-10
-1.3993021574885558e-7 -1.3920500517999673e-6 1.490771651043907e-7
-1.5771167352767818e-8 -7.820836351151893e-7 2.392840149108714e-7
-3.137425523042719e-8 -1.000029305354927e-6 2.270543649260118e-7
-1.5543124611745317e-9 -1.2147182779374277e-9 -9.427646304966503e-9
-2.853046430665308e-9 1.163566303189371e-9 -1.0438895504950395e-8
3.1582723377745934e-10 1.4298717720066676e-9 -3.219637689735048e-9
-4.503526722854805e-10 1.923486671923588e-9 -2.192573978737469e-9
-2.361523054888669e-11 -1.2058840973405518e-11 -4.981486978536326e-10
-3.928615905299873e-9 -3.4133990561617527e-9 2.969111863038771e-8
1.4347262717297906e-9 1.1004532564820089e-10 7.25702990664733e-9
-1.0184749819915345e-13 1.457219579266663e-13 6.645189212764077e-13
-8.790753516583268e-12 -3.4913538901837875e-10 -2.7087974705800737e-9
5.553792076496429e-12 -7.36926269296213e-12 5.616741517255357e-11
-1.823307251779677e-12 -7.0547683287674156e-12 5.525421629924442e-11
9.007879377844344e-22 -1.0340889973309558e-20 2.2286771936192327e-20
-5.5148752006728255e-12 -8.069326059645368e-12 5.4214615815739795e-11
2.4527165314797234e-10 1.3301278608013798e-9 9.359870034747654e-10
8.168564630302195e-13 9.417744559520369e-12 9.163662421610502e-12
5.536302741424209e-13 3.812055776000366e-12 4.567619146485905e-12
2.7611386016859246e-10 5.371313764105378e-10 1.3456046614354901e-9
1.945476234876697e-11 1.6558892269146179e-10 6.360647093783086e-10
-5.010693468707429e-10 -2.6584208948663487e-9 1.3550003923186528e-8
-3.0310117230233884e-22 4.866653293823348e-21 1.3437994625457104e-20
6.453861573523025e-10 -6.099705232192222e-11 4.741721165321619e-9
-1.7656980518980697e-21 4.241820384491643e-21 4.2581833980841863e-20
-3.0286778193843453e-13 1.0653349901242504e-12 5.46024486813897e-13
-6.367127376223396e-14 5.073727083283255e-13 5.071186364639967e-13
-5.3064587064345e-14 4.696241256962689e-13 1.0558020745568006e-13
1.3788020969493703e-14 4.000484876576516e-13 5.01609515397901e-13
-2.356651401010175e-10 -3.5045532591587516e-10 1.7783645131788643e-9
-4.205562573689269e-11 3.621412489897497e-10 -9.97255191700146e-10
-3.2063033328555765e-15 -1.1568602945530483e-14 2.471254137465653e-14
1.2782544311756647e-8 -2.5459320248277238e-8 -1.2420088899985967e-7
-3.3097805694908666e-10 1.381989605590295e-9 -6.344740192856354e-9
-5.307590148387421e-15 6.9905082257548346e-15 3.9989492836476245e-14
-5.546443022749456e-15 -2.3948637580178996e-15 3.6008901344329895e-14
-4.327902977201384e-11 1.4474463934149004e-10 -3.9983740357783603e-10
-1.2197182354599198e-11 4.788100073538342e-10 -1.590850679042648e-11
-1.6022138058955726e-12 8.390913655085579e-11 -1.7569929013936296e-10
-1.5886111374544687e-11 2.078679947780811e-9 -1.8241709033227134e-9
-1.4982040058095348e-11 6.308410152578652e-11 4.881425623793684e-10
5.55011624218384e-11 3.2086661040571135e-10 2.704989028591047e-10
1.1398091051391854e-10 7.412050482932502e-10 4.785647398673071e-10
-2.6016840355831744e-11 4.207524009849431e-11 1.756253250392676e-10
-1.188055210583671e-11 1.2234898044864733e-11 -9.009970574719365e-11
-5.234291117915054e-12 4.144959388546027e-12 2.0237854350826914e-10
-2.637906283570448e-12 8.611972980018e-12 8.690121547458402e-11
1.849784916771432e-11 3.709389728119489e-13 2.5957138970955776e-10
-3.3669287039829442e-9 -5.339583561784653e-9 1.433020422743704e-8
-3.394681665311989e-12 1.0988530337487044e-11 6.068580126493646e-12
1.8372935679192227e-13 3.3432695269474767e-12 -2.1397832947000543e-13
2.5715545617094497e-13 7.747501678311214e-12 -3.1666901646529684e-12
-4.5246173404291486e-12 6.126912080082056e-11 1.0537037145321967e-10
-1.447947406697024e-10 -7.082447143324117e-11 7.498513597212888e-10
5.297081547497549e-12 9.022821458564084e-12 4.10119693027125e-11
-7.669234921624899e-12 6.719612985164876e-11 3.1729378485820646e-10
-5.902439895335482e-19 -2.4740351258602745e-19 -3.0262897644698405e-18
-4.0972708456329335e-12 4.6095715104765495e-10 -9.453203825945356e-10
1.163200863513729e-10 -4.8329150648762766e-11 -1.3157759874517724e-9
3.72799877210824e-11 2.3058116090449257e-10 -1.8768319741428681e-10
3.395143266923377e-22 1.3042973236197008e-22 6.62907323074196e-21
-1.1516239325924384e-21 -1.7529749414415007e-22 1.1372309666257787e-20
1.0890297107695448e-11 2.5205819172268595e-11 -6.003285860617545e-11
-1.6554455172718685e-11 2.591963535827211e-10 7.230053036265335e-11
4.9171769732068804e-11 1.563219688856348e-9 -5.951060099588232e-11
2.8051662811885874e-10 1.7944984626492094e-9 -2.283018987280563e-9
1.8370167854433417e-22 3.408724605549481e-22 5.2982526374041884e-21
3.5814364640021527e-22 8.529127096823979e-23 2.7348148509355323e-21
-9.470762510379122e-13 -3.205574714231746e-13 1.0787391359180119e-11
3.247529213859642e-11 2.1891864911953064e-10 6.296082783621688e-10
-2.8386209177278506e-11 -5.868199689296404e-12 1.4063898435660346e-10
-2.3566782518840347e-11 1.5508958784784526e-11 1.3848353956723148e-10
1.1633930836407164e-13 4.4769805653615985e-13 -1.814034945701112e-13
-3.8751736771177635e-13 4.135732932328812e-13 -2.219790837133731e-12
-3.3391080329439216e-11 -6.397647942446564e-11 3.22591920686905e-10
2.394407534471595e-8 -3.2700039708800927e-8 -9.535938074045704e-8
-6.158411688347387e-13 1.8313276686738668e-12 1.370976456392892e-12
4.243655885730576e-13 1.2701951336362e-12 1.6779206160447665e-12
-2.3981752953994077e-13 -2.1031212018432967e-13 1.0811456387026624e-12
5.78761373618859e-13 3.204179251095135e-11 3.174102681851304e-10
-8.545614077959012e-12 7.65228113643455e-12 6.02444103337194e-11
9.496147281388462e-12 5.150631008748758e-11 -2.5660848552553635e-11
3.25554820205504e-11 1.279210537429442e-10 -8.472853815620725e-11
1.5118929764132817e-11 1.2241233114914206e-10 3.175330727209603e-11
6.824678119211848e-13 1.1957532353701695e-12 3.6797100401106637e-11
-5.734213192383536e-13 -2.5476464441899205e-12 2.616068683914689e-11
-3.791726958611338e-12 1.646605417883955e-10 1.5617367704238625e-10
4.8183603339887987e-23 -1.2458604341529548e-21 1.903253741994501e-21
-3.0507341127424354e-21 -1.701368760785064e-21 4.016757079748868e-21
1.7517181782278653e-21 -1.187015548506618e-21 2.113396695565609e-21
-2.6050589166120763e-21 -3.617349358560908e-21 5.575445451302505e-21
7.032642375768414e-11 1.0636574563342177e-10 3.385489031066074e-10
6.343011801843442e-12 2.5036996487647986e-11 4.5212125667820827e-11
-4.612820021847578e-12 6.9662234082111195e-12 7.748846193406068e-11
-7.460467196376383e-22 -2.2293852059812163e-21 3.5766827886435735e-21
5.322084330067989e-23 -9.31650763515974e-22 1.2204438828663614e-21
2.719580084118491e-22 -2.4786239183825765e-21 3.2392073802251545e-21
-4.714720043396648e-22 -9.05866676574797e-22 8.1987218457421675e-22
-7.088706746607596e-22 -1.6145742351243156e-21 2.816648660354754e-21
3.6770518526700074e-10 9.79091756756356e-10 1.0153345980366322e-8
-1.7482821592420247e-15 1.2414772900023212e-12 -1.748782703726141e-12
8.101768938382421e-11 -3.2719869615718716e-10 6.610514396195363e-10
-7.723875851923015e-19 -4.9629940566937026e-18 2.4114349822866536e-17
1.6956774827908555e-18 -2.0344850226679384e-18 1.8356379814492643e-17
8.52484593604883e-13 7.855967119868414e-13 -6.958024450885203e-12
2.850340919836893e-12 1.9074786018333203e-11 -1.1206822257435039e-11
-3.2903033288457645e-11 -1.615152816640813e-10 7.318300589318358e-10
-1.88056640704285e-11 -8.609500199790394e-11 2.9786333165040507e-10
1.0253988606794436e-11 2.0447632803068428e-11 -2.3859677641792394e-10
-4.163889400425384e-10 -1.2439349687160688e-10 -1.2697861189309457e-9
-1.2093350298188337e-9 2.7787211773195642e-9 5.1221124922203645e-9
9.53404729906441e-12 1.9985058867261e-11 8.74967832270395e-11
-1.1460318390296989e-12 5.373714520195109e-12 -1.2513317613505975e-12
1.5094916227193522e-12 5.4162193548072895e-12 1.6408000975261265e-10
-1.658533391938448e-11 -5.404535260430471e-11 2.474814022954002e-10
9.038998036793501e-12 -1.914223412892465e-11 3.7601040184855154e-11
-1.7062528351615304e-11 4.45030274572817e-11 1.6720838984775482e-10
-8.860340912282507e-11 -1.0582753470929094e-10 5.405753531112935e-10
-5.326838734882486e-11 -1.4903266073988407e-11 1.022050439443589e-10
2.0789186046553106e-20 2.762060729403028e-20 6.114904330575097e-19
-2.635383659120861e-20 1.6311131371735886e-19 6.769252831334952e-19
-1.7681197031883392e-10 -2.2266035000846763e-10 1.2178835517855997e-9
1.124373411870116e-19 7.255851740684915e-20 8.653733582279977e-19
-5.051533524599217e-15 2.881718476870994e-13 1.1238686042722671e-14
-3.7986533942164695e-13 4.2359294843818526e-13 -2.557460891843655e-12
-1.7766065501929863e-13 1.585347911417604e-13 -2.1675407863084798e-12
5.4191103594550364e-12 5.543029509740846e-12 -9.220865831211497e-11
-2.328050483129788e-11 3.243129740434918e-11 -4.819886665364144e-10
4.509316464470029e-12 1.7405341461837406e-11 2.473328384745059e-11
-3.739569707693998e-11 -2.9493882897354885e-11 -5.259751080510124e-10
1.865927866455347e-20 3.259198695906291e-20 1.1643650338876258e-19
-3.8773925033471084e-15 2.1830161093376632e-14 4.890102398191831e-14
8.766475695068167e-13 -4.897515163924457e-12 1.4996527844087543e-11
-5.95386194672705e-13 -1.7971124084442591e-12 7.1229852936330824e-12
-5.641377585955134e-20 2.863969288405987e-20 2.796623075120696e-19
4.874932229346495e-12 -2.2760218563308563e-13 -6.24030567413593e-11
-1.3096170220356658e-19 -2.633316160053461e-19 1.0689229924954217e-18
8.070299888683744e-14 1.747798014507772e-11 1.6875743621125288e-11
-1.346135584065378e-13 1.3729673130053322e-12 4.403942329766433e-13
1.9642657518310508e-12 -3.388429962067162e-12 1.5835292851812335e-11
-5.085979163520665e-13 -1.4036744160343472e-12 2.740354151266788e-12
-7.215305194906367e-13 -4.4922170502230837e-13 8.282716163359567e-13
-9.330891593634559e-13 -4.021829391510491e-13 2.544650285101035e-12
-6.106630085516128e-12 -1.7877695066000619e-12 1.8969584401818973e-11
-1.0889997226525182e-11 -4.543726382488707e-11 1.0523783800480143e-10
5.163494547633146e-13 -4.501985652900008e-12 9.839914439449968e-12
2.9477537168666537e-18 -7.238864213163693e-18 2.291769901591902e-17
2.1700739439284785e-22 -1.0066564205599141e-21 1.4892222192014857e-21
1.37406018592489e-12 2.8716641268882666e-12 -5.030026338972905e-12
-1.3462270039913281e-9 2.226115300059947e-9 2.208503226918944e-9
4.7918056854355535e-14 8.235250936920278e-13 -6.991493707631417e-13
-2.4393947117065567e-14 3.196821908501157e-12 5.364597635392633e-12
-2.5163778143064035e-14 1.2652374067750903e-12 4.1831722511387905e-12
-3.34637297909538e-13 1.0110437626532704e-12 9.34884448954009e-13
-1.2143880014410945e-12 8.061426392487095e-11 -1.2500379762225238e-10
-1.762943781370027e-11 7.1524956312901305e-12 -2.0491269100160272e-10
7.244488693100715e-11 1.6647332318767155e-10 -3.040406081917802e-10
1.3963734865729973e-12 5.439176925394864e-12 2.1825182864355238e-11
1.697231979628168e-10 5.687707155415871e-10 2.413014070921567e-10
-4.8044425691014086e-20 -2.2465739826819047e-19 8.24110971151779e-19
1.7946497631188093e-19 -5.232970190154249e-19 1.6026364301868683e-18
-2.426017079730664e-13 -4.24822529160813e-13 6.943579658861352e-12
-4.3504548295263815e-12 -7.010516482719906e-13 1.473769883696192e-11
-1.87782796306135e-12 4.894536926985191e-13 1.7300567263804827e-11
6.737693875226501e-9 3.1929917031288684e-9 -3.033245339952446e-8
-2.135126268074231e-12 -2.337627869205507e-12 1.2877023278141895e-11
-1.8911656716099384e-13 1.514733637394242e-14 1.857272792844854e-12
1.0723686331850653e-14 -6.036833518568138e-14 2.2787609102802426e-13
1.6766652845273297e-15 -9.452571200251374e-14 2.0876788462884024e-13
3.6316872801120585e-14 -6.003029597928331e-14 1.58239187727907e-13
-6.331995920999991e-15 -4.799285830362942e-14 1.1642569309598383e-13
8.04545649030625e-15 -1.712370048791926e-14 1.0061330590461721e-13
5.8821411153655585e-15 -2.1542235684245167e-14 6.687033242701177e-14
-2.9716710180104545e-12 8.277030770032702e-12 -4.220174876298834e-12
-2.8971101868193055e-12 2.035426924675702e-11 -3.803029621205054e-11
-8.274990771225853e-12 2.5761847072668217e-11 -5.6475100070813954e-11
-6.124804479506268e-12 -4.547606762428027e-12 5.2865781982937315e-11
3.859119807609325e-14 4.616630082949982e-13 -1.42883944654297e-13
-2.15419854860063e-12 6.200874653857262e-14 -1.0144449124219841e-11
-5.148356364616461e-13 -6.930348415699474e-14 -4.888354684734879e-12
-1.0383476105162433e-13 2.175360130096721e-13 -4.729069051681045e-13
-2.2777155012460297e-14 1.5229898537724123e-13 -1.1604802838360854e-13
-4.106465351309501e-14 1.5693780655996979e-13 -4.227346327312012e-13
-1.8805969200086402e-11 6.328983404860321e-12 -1.0796137245058862e-10
1.2663608456583647e-13 6.997692605308444e-13 1.7746986865331308e-12
-3.156303002395533e-12 -2.5109422284821087e-12 1.8211234533593e-11
3.35895562902328e-13 5.797080173709889e-14 8.82708003151275e-12
-5.271939096939678e-13 -9.992426510827215e-13 2.9201940078407103e-12
1.0006197627861328e-21 -2.4939760143414532e-22 4.070673810496717e-21
-3.1662510853471477e-22 3.503408353067314e-22 3.959621795036212e-21
-8.701260723465583e-15 -1.3489897675623275e-12 -5.168570688073648e-12
-4.309885779925018e-13 -6.49052870599536e-14 -1.3269704713133303e-12
1.9426063466639613e-14 8.742018003269932e-14 2.2908888145813594e-14
1.682344685997696e-14 -2.597528127738889e-15 4.492212013276237e-13
-7.61645738271301e-15 1.8219308857453197e-13 1.583815861549353e-13
3.6528589269380593e-16 -2.7611176771731665e-15 7.204570175063104e-15
1.1185417721796243e-14 2.3123007062688185e-13 2.1824205579537756e-12
-9.582654244363692e-20 2.0226934376433888e-19 4.729352384058779e-19
-1.5943916600234153e-13 -3.3151702704356973e-13 4.712398859765217e-12
-3.048991887132924e-20 6.610951445621035e-20 2.3380299770891657e-19
-3.4311030164171456e-18 4.059793299322516e-17 9.075274766319786e-17
-2.0804890019550273e-13 -1.8245582523062322e-13 4.110979312339177e-13
-2.3771517776792113e-19 2.891423171384096e-17 5.1255482450931114e-17
-4.399164996397192e-18 2.5253306896644386e-17 4.027974957317972e-17
-1.0147826290728557e-18 1.778125590703469e-17 4.060563972401496e-17
-8.27031520720597e-16 2.8966238111969393e-14 9.022223053662648e-15
6.11248301434339e-17 1.839235786221282e-14 9.707239947157212e-15
9.734221202287475e-15 6.777709721051123e-14 1.2036387727182777e-13
-1.0911723256173432e-10 2.83044996012463e-10 -1.0114907147333171e-9
-5.431578880190471e-15 6.923682702780943e-14 4.3001754898599636e-14
-3.305498861983322e-11 8.955720696469061e-10 -1.9790122022772925e-10
7.496747056935416e-15 -1.372191301460081e-13 2.3933962366903894e-12
-2.4528119872684317e-12 1.0250125300844944e-11 -1.207710733624919e-11
-2.2321537536433244e-12 9.865412315811785e-12 4.683612830116336e-12
-3.6357540776156056e-22 3.9606606129440544e-22 2.461593108414907e-21
2.564283264079064e-13 2.193682814259493e-13 1.1492300049005049e-12
2.991138982212939e-14 1.3575361969198574e-13 1.9523261560082788e-13
-1.7293066221836495e-13 -8.218712631215466e-15 3.960937031561191e-13
-1.2263768960612495e-13 -1.160396952563296e-13 7.079699193944297e-13
-5.039079937867737e-17 2.0304918887769014e-16 3.697210155996638e-16
-5.75354666787677e-10 1.7547178405405983e-9 -6.190294882612583e-9
-3.0476073110597687e-15 2.728773321084027e-13 3.2369949942425886e-13
-3.2587358060055457e-13 -5.064607935832455e-13 1.8710555849725704e-12
-1.140257240898551e-14 1.368220645342792e-11 1.8825323172088108e-11
-5.718751872012666e-16 1.0764518126223311e-14 8.808579007819126e-15
2.2338618896629874e-13 -6.492271180961991e-13 2.9856538985610298e-12
4.9313236569402526e-14 -8.973434185919547e-13 5.704681802839196e-13
3.87170535015043e-14 6.160032735920894e-14 5.316457321605687e-13
-1.5378121898886034e-11 1.3033186419242746e-10 1.566705225204636e-10
1.902343116365933e-14 7.465041667880508e-14 2.442270824266496e-13
-8.782789520129034e-14 -5.674156115849156e-14 3.2078272236847703e-13
-2.159560240298377e-21 3.978729038229338e-20 1.0512949284009438e-19
6.470787464730418e-12 6.064282202231454e-11 -5.445971338893286e-11
-3.295833529084191e-15 9.223975078605272e-16 9.86364909900975e-14
8.483283538147279e-15 2.6684028041544524e-14 -2.4822868942899868e-14
3.3623778118970275e-15 3.9357790368513566e-14 3.1273617031982675e-14
-1.5962010076520316e-14 1.083057296229663e-13 -1.6855659681973013e-13
-4.323198524016252e-14 1.263037131830398e-12 -1.1814825252990007e-12
3.853796659396532e-14 1.1317187728481902e-13 -1.296939223441101e-13
1.9527165791305142e-13 2.052697399164741e-12 -6.783449533883855e-12
-6.006587110843674e-17 1.002404010102978e-16 -1.5059536383214033e-16
-4.037897481679863e-17 8.927186489376859e-17 8.46648097366686e-17
-6.92585119016019e-17 -9.389612859417898e-17 6.262585976792524e-16
-2.6903649801322003e-17 2.1475019276171576e-17 2.8815180717413765e-17
3.5959260674934326e-14 -2.077414044279756e-13 1.0760128968204993e-13
3.775683941677324e-15 -1.5149871458731103e-14 1.228004681668029e-14
-7.817786864160892e-15 -1.8209265876478612e-14 5.0626602195410907e-14
6.457494568344524e-15 1.058053158342695e-14 1.0229718700978218e-13
-1.2119633025657088e-13 -3.6811867676337856e-14 8.456614555251551e-14
-4.3249730947407246e-14 -6.669182690977734e-14 6.175035313531485e-14
-9.291844200607825e-14 -4.264309639275188e-13 1.5883964130169963e-12
-6.634587141638935e-16 2.2074969505987072e-14 1.991545595948494e-14
-8.801276431349411e-15 1.6563045180823058e-14 -4.8401207871150206e-15
-5.203459315167712e-15 7.845076973446458e-15 -3.746386247372228e-16
-1.106691108699995e-14 6.747087717605237e-14 1.2407116967585665e-13
1.8125384212697897e-16 -1.5420775197242593e-16 8.147036841485191e-16
-7.046843353167579e-16 -5.938787833876126e-16 5.5586006419330665e-15
-4.505646933969055e-16 -1.4401993901643674e-15 1.41931378314853e-15
-6.909295893732273e-19 6.4225220336249085e-19 1.7443690273406245e-17
-2.1959037702362275e-18 2.169316368066143e-18 1.4670828657948457e-17
3.990359072865119e-15 3.5872732230184964e-14 3.4418508213036776e-14
-6.150390069591763e-16 5.2495716265052637e-14 1.708424890028875e-14
5.145369100021925e-15 2.369601581510509e-14 1.1104631241304955e-14
-2.2144471769704264e-23 6.933837695797482e-22 6.312076092516758e-22
-1.093701599673048e-22 4.72444535215286e-23 -1.0121148073306155e-22
8.946630861208568e-7 -6.666969807670474e-6 -4.4430281841853923e-7
-3.982343848725858e-14 9.065353624634933e-15 2.199771809255136e-13
7.8610155663422e-9 -1.7761843512790616e-9 -3.337699714313504e-8
6.209343815139192e-11 -2.8794669239349456e-8 -9.615358491863166e-8
2.1127702613889966e-9 -4.7227839067847884e-8 2.6378948805266167e-8
-9.786611159224421e-14 1.1904589866320802e-14 -2.372852892138993e-12
5.775312938287313e-14 1.3540377936556909e-14 -8.478890970904777e-13
-2.175430745269145e-9 2.2191348967451785e-8 -4.091280121591415e-8
5.381064683231209e-14 -1.7235261895857254e-13 4.0933029752440194e-14
-6.88605204421894e-9 2.910472226670575e-9 -2.4114378008589055e-8
-1.1050976675185978e-14 -7.02560068245018e-15 2.1537546552352535e-14
2.8613798308945347e-15 -1.979765711043118e-14 2.684699720660966e-14
8.743201908078308e-15 -4.306354626323381e-14 3.702957370696394e-14
2.744501782926357e-14 -5.854675504956485e-14 5.222442969894078e-14
3.0939621243876108e-21 -7.555194723670944e-21 1.5647904987935256e-20
1.5461128252258865e-21 -2.5682642468242577e-21 5.540911597930272e-21
1.4831770932341336e-21 -1.749160867940739e-21 6.150634017883881e-21
1.3739071270774037e-21 -3.639178536147672e-21 1.1095463405579998e-20
-6.851364472367694e-21 4.218389882587907e-21 6.161808074294154e-22
-6.1112239242333166e-21 7.72770282673329e-21 -4.201086670094333e-21
-9.78248833080377e-23 2.2179954727181924e-22 1.899736221076726e-22
-1.267890925091364e-22 1.0866115303318914e-22 3.816740931283999e-23
3.572344734387544e-22 1.0093887682605112e-21 9.589079162211177e-22
-1.828975008701414e-22 3.3165744327169447e-22 1.8785448230596532e-22
3.460446459613964e-16 5.472034288659151e-15 6.198370121115325e-15
6.718343158302415e-16 4.657983996560321e-15 3.587540787123604e-15
-1.931390137055256e-15 1.0228508981114002e-14 -3.0565315264917783e-15
1.1094440048927656e-15 -6.538153288457725e-15 6.022158449244664e-15
8.81249626487999e-16 -3.968646693687793e-15 2.461848449854204e-15
2.0532569932456224e-14 3.9686660360023907e-14 1.1733031899369428e-13
-2.1633526237806162e-16 1.3609562138810525e-14 4.203498918203896e-14
1.4573442796240267e-16 9.757896512737635e-15 1.4923203628888116e-14
9.97796058384876e-16 1.407801107264553e-14 6.6400921100212785e-15
-1.3375840382583087e-14 -2.6450696091405198e-14 4.722789960294787e-14
2.6637633943336974e-14 -6.528299925316568e-14 2.976499064695072e-13
-1.391299041558816e-14 -1.1006975331171367e-13 2.8275566748896985e-14
-5.646004094131295e-21 2.1951215774084033e-21 -1.996074128795694e-22
-7.637853467472689e-21 8.58619593435045e-21 8.538208253020755e-21
4.15026997558411e-22 1.4425368243605552e-20 1.0315868000819337e-20
-3.4988552150696284e-21 2.1125379431640514e-21 1.4249113918556547e-21
-3.4598632715887655e-22 8.803742773589098e-22 3.4616204849922147e-22
7.016602039330888e-17 1.002783753673093e-14 1.0433601174770085e-14
1.9451042227823795e-15 8.427521083398779e-15 -1.583300988172082e-14
1.4969811126630803e-14 -2.5523425893272452e-14 9.44159721947475e-14
5.008384638880463e-15 -1.3105963205298517e-14 1.2152091043813132e-14
4.168931135989338e-15 -3.0713329027820476e-14 9.569378691440246e-14
-6.7059672554668045e-9 -6.852479673779929e-8 4.2978546402096795e-8
-1.3905762643808108e-14 5.537784745836493e-15 5.019295457541385e-14
1.2280439447349378e-15 -2.3763948651289155e-15 6.468116604666262e-14
1.4247991290439526e-15 4.8317071079033147e-14 -4.364927191932773e-13
4.401602846227876e-17 6.482578886086922e-16 7.018273317924635e-16
-2.3855770834134953e-16 1.17968804807382e-14 8.78083773580755e-15
-1.3313391684174088e-15 -3.4170908934295798e-15 2.372312771054008e-14
-1.661525982234878e-14 -1.1126223760554365e-14 6.584131020599383e-14
-1.5803718453525654e-19 4.033385078209856e-18 6.530873406105807e-18
-1.3027715658002755e-19 4.015645006424914e-18 4.813989690261279e-18
9.937570195149912e-19 2.009420843878633e-18 3.0585514729683428e-18
6.650529076454991e-16 5.734209931017126e-15 8.18522281479081e-15
-2.7055094235497537e-16 2.812415600419685e-15 4.308595333621092e-15
4.61978801958506e-16 3.307684217516451e-15 4.242138559182559e-15
-8.125799675767614e-16 -1.0016834963292997e-16 9.171246802144405e-15
-3.949190788577124e-16 5.627085316247678e-15 2.1650670735316047e-14
3.883451662657904e-15 1.0749609295216462e-14 4.215010063035172e-14
-1.1018639389451457e-12 3.3728705554815767e-12 7.816976511295766e-11
-5.092261691952148e-15 2.2566968438063143e-14 -5.0251047548814635e-14
-1.281691492066182e-14 2.74076933776541e-14 -1.5911246255389965e-14
1.826292399284524e-15 1.531364463297201e-14 2.159741636900499e-15
4.0818576824121545e-15 2.568023172235821e-15 2.7950676564275757e-14
1.3241676084270029e-11 -9.880933557555405e-12 6.267243693051241e-11
8.199225315057436e-15 -2.8039513367983555e-14 1.3842611908666769e-14
-2.0657278505199455e-15 4.664133270166692e-17 3.344046030521257e-14
-7.83147414090195e-17 -3.5339482040891954e-16 2.0179957848965886e-15
3.8870667045480355e-17 -5.507895829265381e-16 1.2664324447574599e-15
2.0087514678842883e-16 -8.050697073941237e-16 2.954833990388097e-15
-3.2712738024393585e-17 -1.0181843436567629e-15 3.0967769314754822e-15
-1.1973949739144785e-15 4.531376067630842e-16 6.3701551734562105e-15
-2.1635478508121477e-19 4.529783532482985e-19 1.1885271891335202e-18
-7.12837655153794e-16 -2.1731225204041284e-15 4.1431876982404605e-15
-2.589930271469938e-16 6.832005046704764e-15 4.71737968007872e-15
-1.1606538799995357e-15 6.5720482017778585e-15 1.3785267763789978e-15
-3.0398261009595653e-17 1.670825017735106e-15 7.473123611978748e-16
6.152390016107429e-22 8.212835708078676e-22 1.1605872356947078e-21
1.916777297793319e-23 4.7911455533404505e-22 5.733732133553251e-22
-1.2253979289156838e-21 6.6393905201598286e-21 1.2063481559187948e-20
-2.0283403229720084e-16 1.1935462200153088e-15 1.0431847718312115e-15
-1.8144556110338072e-14 -1.6006301490417538e-13 5.62466447180066e-13
-3.500770085359505e-16 3.7286847230315684e-15 1.5964339046746413e-15
4.156708718790916e-17 -3.2873820138173176e-16 6.385552570849831e-16
-5.0216983462049205e-18 9.152081849811782e-16 7.910116741992618e-16
-6.275514110393823e-15 5.099841782048732e-14 1.1930044062892674e-13
5.31882004107675e-18 -1.1204019190610763e-16 3.1847779765627897e-16
-2.1810097432988453e-16 2.199610400581492e-15 1.1103120467836113e-14
-1.9609592565016213e-20 -3.9302840854278986e-20 9.494911856750595e-20
-4.193475316079461e-14 6.610423097401345e-14 1.1990452590143483e-13
-2.7578018188965115e-14 8.204561797068008e-14 -3.8202667420523356e-14
1.995573888972445e-21 -1.4756053728719247e-20 3.6569851291067916e-20
-1.368054442334454e-15 -8.73665343092291e-15 2.619661599028295e-14
5.2525725171126336e-8 -1.7520565886336404e-6 3.7170300118423677e-7
2.1946510444157207e-17 8.40780201142989e-17 7.167689933449844e-16
2.7304016341025946e-16 7.268976457181575e-16 3.3488836041765963e-15
-1.9079156729700223e-16 2.386970562931082e-16 2.117345811538872e-15
-1.131061016324377e-16 2.20906757826363e-15 1.4352313000568376e-15
2.2204385562423878e-17 6.44981662178878e-16 -1.500912273821539e-17
-4.670078199310372e-17 7.849797988420481e-16 9.486122051744389e-17
-2.642745134595978e-16 -7.796149964891964e-15 3.1928234271252815e-15
-4.497786164011591e-16 1.2296971086303375e-15 5.7184203751331616e-15
-1.3582953140678794e-16 -1.1446002229534915e-16 1.4873809814568093e-15
-4.6823913510666516e-17 -2.2576884528660454e-16 8.188331870839714e-16
4.7876142057529175e-17 3.0192289686855974e-16 3.0315567396452966e-16
1.3608848921091985e-16 8.567456312163383e-16 3.5746922774026274e-15
-8.669071166087e-17 -5.348094099990116e-16 1.7363224267655474e-15
4.7235234426673735e-17 -4.599667699684726e-16 2.331169118675841e-16
1.1493927852608739e-17 -9.601093914254753e-16 6.479146430285417e-16
-1.8348431165815335e-17 -2.26275327469398e-17 2.984947212108073e-18
2.5533556265500306e-17 -1.013208637267888e-16 1.6333621677866973e-16
-6.479946836566212e-17 3.578190757285341e-16 1.337593303541148e-15
-9.12743652028736e-16 2.545445331637257e-15 8.023261801591167e-15
-4.470143253799403e-12 2.7601528547031632e-11 5.877073034523274e-11
-1.2059836219293638e-17 1.236210401175863e-16 2.6374381594048177e-16
1.9371740324709752e-16 7.750259170908114e-16 1.3677106885440883e-15
-6.851818960255315e-16 -6.904923855999834e-16 -1.835726792551625e-15
-2.3471682053947533e-16 3.4774784050918735e-16 9.400751900811578e-16
1.0567595656950441e-17 1.8161383006212446e-16 3.2462943621149206e-16
-9.861400626543574e-12 1.378954810977221e-11 -1.4531271021953447e-11
6.587034918304552e-17 3.973583556756745e-16 6.475865324647495e-16
4.461477670052278e-12 1.0302732352762218e-11 -1.3492063271493096e-11
-3.564141062597979e-16 -1.989460388438337e-15 1.5727690714987642e-15
-4.144957594815155e-17 2.2054171884812919e-16 1.4562532058877485e-15
1.4286964416624389e-18 1.4786466516992436e-17 2.139492959697321e-17
-5.961478177562771e-16 -2.2083166480970006e-15 6.8414591659705804e-15
-1.6557557887900223e-16 -4.515481037930015e-16 7.220040049927223e-16
-4.622144900910198e-17 7.468503405167825e-17 7.71638694839459e-16
-9.30653291312176e-17 2.7760131158876287e-17 7.575047281512341e-16
1.0645720011236958e-13 -3.8587274948868457e-13 1.372659755876596e-12
-1.2374442531802278e-17 -8.922683342989546e-18 4.7694496614161437e-17
9.455049823649274e-18 1.536480562215836e-16 1.8396968653553877e-16
4.597939172893366e-18 3.193215048101438e-16 3.720288270054815e-16
5.834861501532853e-15 4.5692517111200673e-14 4.1005553212960094e-14
-1.9983522042077147e-14 8.527041493186238e-14 1.9782710921941002e-13
1.2710369826210093e-17 7.452121683448912e-17 8.138269609757782e-17
-1.4232835154756707e-14 1.1938520791437811e-14 -1.32988340708386e-14
-1.4216754432013814e-17 9.086775152512066e-17 1.2234684473194312e-16
-8.12900769371193e-18 1.0801305261376344e-16 1.602211424660402e-16
3.1035050128145085e-17 1.8233348569546215e-16 3.9752564706022697e-16
-7.705221519765063e-16 1.501852621276686e-15 6.5020054053703814e-15
-6.646115351007846e-17 4.283079383092075e-17 1.858258823873468e-15
-6.956426456656142e-17 1.5061038673745974e-17 7.696745947009545e-16
1.128669527001766e-16 -1.0198713969141026e-15 3.429889886518658e-15
-3.647221777536922e-16 -8.47079038911163e-17 3.0256696261525914e-16
-1.0830292270922353e-16 -9.252447965153603e-17 6.7791249770856935e-16
-6.95574442966312e-17 -1.698722768156335e-17 3.752556186433332e-16
-9.12930327646777e-17 -2.6413670619283193e-16 7.995316285214707e-16
-8.36760964038909e-14 1.6966419259841654e-13 4.56345549097814e-13
-4.186279979908871e-20 4.8021448629024407e-20 1.566547634197426e-18
-2.7333414225314433e-19 -1.7311351507940522e-19 2.9368205814216e-18
-1.5294047435488166e-17 1.3860389332872798e-16 4.218151007367082e-16
-3.002165709804878e-16 1.6295727741260213e-15 3.61467559784796e-15
-5.655297827817149e-15 2.388960775586346e-14 -8.883584563992253e-14
-9.353878743338615e-11 3.894279574045313e-10 8.184615442339475e-10
-1.0121960368820912e-17 -8.967858115841746e-16 1.0426541388249403e-15
-3.035245201154752e-11 2.0778243760736696e-10 3.7904999380079426e-10
1.6815548827625027e-17 3.560475883747557e-18 3.5073785937500143e-16
1.037322179053477e-18 4.397801740164355e-18 1.7525405647833174e-16
-4.5905926906108587e-14 6.830589294866156e-13 -2.018295546672108e-12
3.071440904272823e-18 -2.0534002400848311e-16 8.30933167567583e-16
7.258495093528798e-17 -1.8461937215018115e-16 6.977305160503644e-16
2.4986198899794792e-17 -2.9646327685401516e-16 5.411117637496022e-16
1.3707976530051292e-20 4.666450914153452e-19 9.347071437513038e-19
-4.2978231831891314e-18 2.358230195520388e-17 4.4725432304146136e-17
2.8077735551598366e-17 8.457781319926432e-17 2.2317301133968854e-16
-1.662906222943827e-19 1.2479989215661763e-19 3.5952735361027283e-19
-1.7041286849932946e-20 1.298716921953205e-19 2.1099650176232629e-19
-1.4696541512696152e-19 3.9965217325604686e-19 1.046912150480957e-18
-1.7621214435124604e-18 -1.3169066757623229e-18 1.3208490366042726e-17
1.337566160143773e-18 -2.5843949874968805e-19 1.3803870850342421e-17
5.622352437276419e-18 2.9813259363590054e-17 8.969495397323657e-17
-1.8229878867924846e-18 4.555032554010283e-16 1.7505599860251125e-16
2.078553664228125e-17 5.092831093054221e-19 4.388841850256956e-16
-9.387071400062037e-18 -2.783701125502577e-17 2.6874657771779477e-17
2.730796039635968e-18 -4.8397701649543925e-17 5.670267528075885e-17
-1.6655361870333585e-16 -6.683337717437186e-17 1.8737305336479497e-16
-3.2636139979359826e-18 1.471174361088514e-17 9.024345758069645e-17
-8.254052335153452e-17 -2.756485353217598e-16 2.5020517292366703e-16
4.9131950631326e-17 -1.0687633007925416e-16 4.6785920564547024e-17
1.3623287866633764e-10 1.4979117036610163e-10 7.205870951939195e-8
-4.5310962301058205e-18 -1.8083640060695433e-17 1.0193490026593136e-16
-1.7214229918232927e-18 -5.189040055611081e-17 2.829063472289876e-16
8.269628112880093e-18 -3.2328706712858037e-18 1.7954677221402364e-16
2.299360599415384e-21 1.738962799047933e-20 2.524695979997052e-20
-1.976665760396245e-19 1.8185559520199014e-20 -1.1309581134711247e-18
-3.677523996888182e-19 -1.5531381031853348e-19 -1.3798125656346976e-18
3.5193368416661774e-20 1.7204342927957922e-20 1.2452353696943378e-19
-2.3046983960031237e-10 1.1295530672223607e-11 -6.294499208283062e-10
3.087245513970711e-20 1.9178465995451784e-20 1.0775592925086623e-19
-2.2618693604974084e-20 1.5501210564124218e-20 1.2426881482314322e-19
4.17173717284069e-17 -1.402839513487692e-16 2.570130326560872e-16
-3.6015797716909186e-8 -1.3357420930264479e-6 1.2575580799816013e-7
3.931717270247214e-7 -3.4640975521496453e-6 -3.993466432565751e-8
-9.659064052299295e-17 -4.223541963004767e-16 2.055346824298156e-15
1.703655696492013e-7 -5.035474250712049e-6 -2.746856331418419e-8
-9.415671242599425e-18 -9.611385319155227e-18 1.2442300749203592e-16
-1.7339263549973297e-17 -1.4047506037056068e-17 2.2835067485080474e-16
2.3158704981509542e-18 -7.206184780296565e-18 1.7556269975248727e-17
-1.2519393521674903e-17 -1.810907920074381e-17 4.44899664106998e-17
-2.9597188931158243e-18 -4.696107313165479e-17 1.887669184527886e-16
2.6273695748260718e-17 -9.67325251985856e-17 3.8365667850640184e-16
-1.131127895071101e-17 -2.7079720391153668e-17 1.6209349650431958e-16
-4.143029985709726e-18 -2.9382061180661463e-17 2.0792232337009332e-16
-2.1878984327927446e-20 3.037979916318676e-20 1.1615640168288094e-19
1.8908425004592688e-20 5.475457450692101e-20 2.191191929672397e-19
-2.9080017072791785e-15 1.7679216663864108e-14 2.427842442494276e-14
-4.239344647096148e-15 3.272740741169271e-14 2.6604538505114073e-14
5.6385849966801834e-18 1.2109476022210066e-17 5.0991848113510263e-17
-7.306247161154355e-16 -1.4012421909920404e-15 4.425690419750169e-15
1.3618738636762708e-15 -1.6293633538101289e-15 8.250263114035353e-15
-7.181176472692824e-16 1.3300476112160334e-14 1.0455126620235783e-14
6.41912604049319e-18 1.0475653625692068e-17 4.988293907730269e-17
9.577659916805013e-18 -2.0737922722160303e-17 8.738161797396743e-17
-2.2284321315931703e-17 -2.5774099862375375e-17 6.306615299796264e-17
-1.7231171444164546e-9 -3.44770337493493e-10 1.353731584718638e-8
-2.2068067836316987e-18 -1.5414369823564386e-17 4.935649660618322e-17
4.53229837831648e-18 -1.1484061135917464e-17 7.245702206159196e-18
5.815014198822167e-18 -2.1097140188139126e-17 8.045065162862263e-18
-3.163896686773506e-11 1.5241176865108405e-10 6.427860585619444e-11
-2.3668070505473324e-19 -3.357986804645189e-19 -1.2819372639991035e-18
8.434597097926317e-20 6.626155643183221e-19 9.352680739580396e-19
-1.4256218703914018e-17 7.896558734926628e-17 5.0002621414176704e-17
2.286024312142957e-18 7.293295863879143e-18 2.502151022181923e-17
-2.663576170380821e-18 1.8202631297949483e-17 1.8034599743835544e-17
2.2117405331549673e-16 -4.4917218332271345e-15 1.2008218895566874e-14
-3.9875371334956656e-18 -2.9827091520917494e-18 8.05263858644913e-18
-9.585299874610404e-19 -3.0233818603152143e-18 8.761286863448869e-18
5.699225325763633e-19 -2.504061973929948e-18 2.0035343407995072e-18
4.938887607725836e-22 -7.613318910415276e-22 2.4017080825995195e-21
1.453803685611411e-23 -6.988955466159475e-22 2.7360150876427248e-21
1.2704562494399583e-18 -1.6125442612865964e-18 3.023379245965464e-17
-8.914207276879054e-22 -1.1480304187405508e-21 7.719056973256092e-21
-8.215388065220792e-18 -4.465277519302738e-17 1.8941156571638098e-17
-9.197587611134174e-19 4.308231338644525e-18 1.0412284867965709e-17
2.734675820370335e-21 -6.464749665359323e-21 1.0187527595085741e-20
1.3385107510571553e-19 -4.871848516277417e-19 3.9089159962651593e-19
-4.240419090151197e-20 -6.880855362170333e-19 1.4339854505802623e-18
8.725487221659362e-12 1.1981188363784167e-12 -3.3492736537381233e-10
-3.263354115933179e-17 -4.710758565040275e-17 2.3301728987553134e-16
1.3646390941879718e-16 -1.0929237291678747e-16 3.7511939540561973e-16
-4.872918548340821e-19 -2.8208586103396434e-18 4.089629782898114e-18
-9.563396541030535e-20 -2.534240328802795e-19 1.5202170902473128e-18
-8.425696330364896e-20 -6.168118980871972e-20 7.887287509375149e-19
1.5499241176342515e-19 1.0230824098799033e-18 4.910914950212816e-18
-1.6869055176454496e-18 -3.526324974670327e-18 1.9601751782311265e-17
-2.7520716525963586e-17 1.0449080839931354e-16 1.7683168321693343e-16
-1.3350289858150395e-17 2.91510375388613e-16 3.3241300214342626e-16
2.0655793527557548e-18 1.0862545314693138e-18 1.3596120561800768e-17
1.0229493457206284e-19 2.878743652061909e-19 4.432876005983689e-19
9.464930687780317e-20 6.186528388031985e-19 7.718402753791645e-18
-7.994068324705632e-20 6.780383124066821e-18 1.1939864089684761e-17
-1.930498204222738e-19 1.8512211401946827e-19 8.674467343467407e-19
-4.4263745258732625e-20 1.9848746708022802e-20 3.04978870244357e-19
-4.2587551987322656e-18 -8.880391970299287e-18 1.3088262956786444e-17
-3.973162532748746e-18 2.749741341023493e-17 2.4198987952209015e-17
1.6672920030615247e-19 -5.092537911824979e-19 6.8407810500489934e-18
-4.57732394256616e-16 -1.6992076423145884e-16 -7.900210374197238e-16
-1.7977804871350521e-16 3.5706432553501755e-17 -9.593094001520519e-16
-6.081348396462879e-17 -3.84313169951414e-17 -2.8660995717717134e-16
-3.576766400886433e-17 8.583264292370388e-17 -8.141902092433828e-17
3.551526716685236e-21 1.348143696727525e-19 3.544609734348952e-19
-5.558638517304351e-19 1.2484131379554688e-18 1.7017818212506722e-18
-4.073744784967136e-17 2.8262828163423983e-17 3.5975498152484504e-17
-6.034862572124667e-17 4.176084326476648e-17 -2.9578341563961323e-16
-5.0176849024845435e-17 4.6926950183750763e-17 3.979960168138942e-17
2.167867948493335e-17 8.539142004468032e-18 7.87223077669943e-17
-9.475018252051357e-20 6.797344221224012e-18 3.7974624491431e-17
1.8920938207778955e-18 1.7252405219070465e-17 8.986776226175237e-17
1.96440874529706e-21 1.0339324799480714e-20 1.440008798404432e-20
-2.567251085140813e-18 -4.765170984384014e-18 2.5332542061575593e-18
-8.463389072170598e-8 -1.3035217864125615e-6 -6.657076448040763e-8
2.680552573618994e-8 -4.7581525137960884e-7 3.0172409830335183e-8
-5.3858345749189754e-21 3.6373123268460335e-21 7.943169676467702e-22
-1.509232518207069e-20 2.865739290916907e-20 1.6794949544513436e-20
-8.040074026716043e-21 6.437038445691906e-21 -1.0302191497401832e-20
-1.0517749620024032e-20 5.533652817027965e-19 1.0793847566549438e-18
-4.185406309114242e-20 2.9949351944562635e-19 4.777343892378581e-19
6.182225547352392e-20 5.585464392521902e-19 8.225154658806288e-19
7.056064931458597e-8 -1.3941074672933205e-6 -1.5757753926638556e-9
3.933343919308709e-8 -2.4809798943038307e-7 2.6350307418119033e-7
-1.9610838269796124e-7 -2.7581100458970886e-6 -4.197762646523761e-7
-5.191560465267881e-7 -2.025809454331189e-6 -1.0520596247382067e-7
-1.2602749818903438e-7 -1.6871389844869422e-6 1.149690785238671e-7
-1.0028717903990696e-17 -1.400936677361535e-16 2.5844285140233456e-16
2.007930463543621e-7 -5.111004163949179e-6 -3.5017432534791686e-7
-5.61082871292621e-8 -1.6301780767720362e-6 -2.8053350138095876e-7
5.3806841261144856e-8 -1.2528066366153496e-6 8.96347463513366e-8
4.981069338299002e-9 -2.4514185278196634e-7 4.973668063850147e-8
-3.6244462873082745e-12 2.0756346850065387e-10 7.581712566199783e-10
-1.7657331552036195e-10 -6.560616678244651e-12 8.182032261492292e-10
1.960321307915892e-19 -1.3218664950147741e-18 5.176391240820259e-18
3.183536649034827e-21 7.982557217365532e-20 1.9563874442400236e-19
1.347511841077828e-20 6.329832901432104e-20 1.3138971215700918e-19
3.026536349657781e-20 6.848901622639911e-20 1.2230523009726306e-19
-1.3302935102449401e-20 5.4077134121814146e-20 7.186314950221195e-20
1.1279588656850179e-20 6.872592134568293e-20 1.283500498722431e-19
-3.661006721644219e-21 4.839401104044126e-20 7.605812429461439e-20
-6.643816588206885e-14 -4.5587523711879645e-14 -1.2102280853409493e-13
-2.7419841589794823e-15 -2.2073901718533756e-14 -6.924125802288915e-14
1.4216393511006977e-19 3.460070422273097e-19 6.061800788026912e-19
1.8874389053865272e-19 3.7021468910987166e-19 6.057378623398497e-19
-1.5138979893615242e-18 2.5904921576734893e-18 -4.307616002499195e-18
1.9122565447875426e-19 2.799469073490066e-18 3.404108969447033e-18
2.4152286203468803e-20 1.158767531315597e-19 1.4730806567773608e-19
2.192177673866757e-11 7.111922964156401e-12 1.8877746648748317e-10
3.018439620418643e-12 9.626114796436549e-12 9.211960549402138e-11
7.455859149337505e-21 5.3990406907504505e-19 1.0520515426750563e-18
7.290374182093939e-19 -7.500254305764028e-19 3.617463022864718e-18
1.1286839077815106e-11 2.0648946012630958e-11 1.2916501451265553e-10
-9.154971866847713e-20 -6.962501791471134e-19 1.9525203794149252e-18
1.2769128640344576e-19 -6.396862380001495e-19 2.4535256688852012e-18
3.2983810777027085e-19 -3.3396985604588756e-18 1.0562451597503345e-17
5.934156619847107e-20 -5.403056838108006e-19 1.1279182208467417e-18
-3.195252965345265e-16 -2.9092454370458493e-15 8.096184531507552e-15
-1.2663891232615957e-15 -3.311164195269388e-15 6.56985801276596e-15
8.378920101472896e-16 -5.2012048744867136e-15 1.2368494390764835e-14
3.004494510401078e-20 1.4702222878273312e-20 7.21385739653442e-19
-1.4427418698851736e-19 -4.1627392943993433e-19 1.2581434901658847e-18
4.129538342307068e-21 5.33974722947704e-21 1.5230818096482556e-20
-9.69197711264008e-19 1.6426613733840796e-18 -1.4239737173067333e-18
-1.2022878063920408e-20 2.7319338434242055e-19 3.457286258100861e-19
-2.2782077190748762e-20 1.8426910742359136e-19 1.8610151118602934e-19
7.392214933991016e-21 1.5383921638789877e-19 3.1882246025473645e-19
-7.414003522010792e-20 5.2372640083420226e-20 -1.3926498190717985e-20
-1.3549756132315375e-18 -1.588624822796517e-18 8.970258024700033e-18
1.913899206299587e-18 -3.14875429603712e-18 1.5993192918786028e-17
2.4469058917272223e-19 -1.5862352621403735e-18 9.35350754664057e-19
-1.4959910723349943e-17 6.045216529223978e-16 -1.1972846997952687e-16
-6.512605815384032e-18 3.1240813455933445e-18 3.709377532871899e-18
-7.706862626893566e-17 2.1138961586489797e-16 -2.6825498695985954e-17
-1.0606265580578151e-10 6.845305135694983e-10 6.938402625337249e-10
-1.6863322151679753e-19 2.974341984920667e-19 -3.8199197213696654e-19
1.933530261960659e-20 9.414681654959572e-20 -2.83181341979844e-19
2.9955876293113727e-21 4.2216463753921695e-20 2.670759894983979e-19
3.376899295065612e-20 3.614905416993577e-19 6.356280908823179e-19
-3.807127355929524e-21 1.222556223269945e-20 5.344996305583506e-20
-1.0955574499682038e-20 3.974386228555417e-20 1.0141249587081958e-19
-2.1778319254017288e-13 1.5729765960727595e-13 -2.3052794162641384e-12
-1.1544006173736575e-12 -4.773637392356596e-13 -6.3655568758788515e-12
-1.273809880812892e-13 1.195368190673638e-12 3.30737001428536e-13
-2.5840578901526117e-12 -2.7237908598128813e-12 -9.260506689813016e-12
1.3124024453925484e-20 8.018033945571053e-21 3.631575302187723e-19
-8.479785540488734e-21 1.7218025575050887e-19 2.8560951449302803e-19
4.038637008184452e-21 6.231037929407127e-20 8.097704031601748e-20
2.1144156617482863e-20 6.2198850598016e-20 1.4876664204334376e-19
5.6203135947158784e-21 4.0009137469139705e-20 4.960975848054721e-20
1.5466481788678074e-21 1.8350507995094213e-20 4.2389208095853646e-20
-2.4885708875591973e-11 2.0159004069993482e-10 -2.003947764877614e-10
-2.976855265898408e-11 8.643090567046021e-11 -2.1109521437562e-10
4.9172919652175514e-23 1.2041361899848683e-20 3.347202036876038e-20
-1.221634632006884e-19 6.198734984407544e-19 9.951247262589755e-19
-1.1966589339430651e-21 -1.4008361767103475e-19 5.913946054482016e-19
-1.5839847377704626e-11 2.3812882514562004e-11 -2.9174978130420125e-10
-2.4931418134238374e-21 1.1750903648648077e-20 2.0595505302168603e-20
2.725146804086239e-22 6.2517163967195685e-21 9.221798289850909e-21
-1.6546325341546866e-19 -4.610755481323596e-19 7.244922945380464e-19
-1.2706153547646628e-20 -5.051449438736507e-20 1.1784619265130933e-19
5.776662224709099e-20 -9.333757768063707e-20 3.4185403460239475e-19
9.111702864517085e-21 -3.9550080504663577e-20 1.2700641887948098e-19
-1.3113069310731263e-21 -5.4860144696831074e-21 9.981850006511574e-20
1.4536346212511802e-20 -1.689635531254032e-20 9.523651169423205e-20
-1.5357923239112022e-20 -1.1783277801740345e-19 2.7543678097784915e-19
-3.596719385678824e-10 -4.9627084776065055e-11 -5.875688742407253e-9
-2.4036384122314122e-12 3.440124575775431e-12 -6.4201513935264464e-12
-1.519568909470171e-12 4.825935696266428e-12 -3.986711464325756e-12
-9.595200367193287e-14 3.2873461204974054e-12 -2.2778493104885476e-12
3.491880127023281e-20 -2.269602267807994e-19 4.0631185944322127e-19
5.0735035743973606e-20 8.320524578728881e-20 1.790756595447539e-19
8.125420044742072e-21 4.0653723449612666e-19 5.495124490405517e-19
-5.405693580333821e-21 4.8091390251068963e-20 -5.49239585670953e-20
-1.0577721208859481e-20 2.8764085355444555e-20 2.82085480241211e-20
-1.4198109518449818e-20 9.975037215727939e-21 1.8175868050511362e-20
-4.2759270298061455e-21 1.468661277706608e-20 2.051814395827906e-20
8.452013285652185e-21 3.668799791851811e-21 4.7974148526069087e-20
-8.59094443734745e-21 1.0666048175342105e-21 2.308541721085271e-20
-3.7387538894780467e-19 5.933696259059731e-19 -1.2524459852452175e-18
-5.893579088550892e-20 1.99615494431013e-19 3.269736806186646e-19
1.1583658291276403e-20 1.2567294416217992e-19 1.8691553859438056e-19
-1.4696602731267633e-17 4.725260690059048e-18 -5.408995391418605e-17
-5.4253801070365066e-18 8.038349038964663e-18 -3.5757485904057854e-17
1.0133655367132156e-20 1.4214007719697267e-20 4.325075536172757e-20
-1.9744602138675576e-21 -3.233415593649053e-20 3.3263643154812295e-19
-1.6639224948919846e-20 5.1047970507033e-20 1.1606702380971987e-19
3.962813523691507e-20 2.815984547273119e-19 7.907451765939488e-19
4.59937196385882e-20 2.4395535907293423e-19 4.3269497875754623e-19
-2.188648669181708e-21 -3.473205154936361e-22 3.808881741393606e-21
7.233616793979775e-20 -1.4252961950531163e-19 7.923804804307277e-19
6.304460226884086e-22 -2.973948072620398e-21 4.3718954155657005e-21
8.035974241337273e-22 -1.1088768195435509e-20 1.571780040612615e-20
5.248486539391471e-22 2.767263538018042e-21 3.402835113014816e-21
3.121315316847573e-19 -8.705785757571124e-19 4.825210307541159e-18
-4.0009857269079904e-19 -6.698067896426582e-19 3.0248311720361068e-18
8.558235846271152e-17 4.074172770097045e-15 3.3856577629946165e-15
9.602869002774683e-21 2.825670857471825e-20 6.614556244376705e-20
-2.240143869771452e-20 3.1495201314128474e-19 5.63864645817531e-19
-1.0003901129471467e-19 -1.0401582251457049e-20 -2.6655840906611097e-19
-1.9550404387601543e-20 2.1054798019891814e-19 2.8584812303508803e-19
-5.965380793715904e-20 1.3040548738549613e-19 -1.2907856707759104e-20
-9.28758999063944e-20 -4.184306377113587e-19 5.611603724244577e-19
5.798266278082377e-21 -1.10739751256903e-21 1.6194391952881783e-19
7.303531210029386e-22 -3.280030784568173e-21 3.6876372846047773e-20
-1.4943922901666544e-22 -2.638351320377189e-21 1.688077118058487e-20
-4.12407280748495e-21 9.933787480392595e-21 3.6836091354872627e-20
3.3189960012415375e-21 1.3017070335383298e-20 1.9575041757345397e-20
1.5270955129913375e-21 1.8109496710177153e-20 4.4111510687251265e-20
4.179277817086307e-21 7.327862538446379e-21 2.4454832867543598e-20
1.55884407453921e-20 -2.9071828315762047e-20 1.6472594484663114e-19
7.868740105275567e-22 7.401719042704566e-21 9.94770592672664e-21
-4.52645691482513e-21 -1.0719046998057664e-20 7.197443252737383e-20
8.768629634568681e-20 -3.3433309668525523e-19 6.96092034169709e-19
-5.498858862423701e-21 -3.2825161416761965e-20 5.834071344701974e-20
1.0684607134654524e-20 3.0801030065129875e-21 6.437792616882057e-20
2.047933932807866e-23 1.355795655984988e-21 1.25389819123993e-21
-3.9869170293827555e-11 5.180706074192464e-10 7.891981735326556e-10
5.751377930989539e-11 7.033496119489236e-10 2.3287849845226614e-9
1.2334097927072383e-19 3.70876809165217e-19 5.049846690069731e-19
-5.062625167023615e-22 6.467408416637168e-21 1.7927045098775538e-20
5.078726976148976e-22 5.789442644354364e-21 2.796313960807095e-20
-2.6228342519085967e-20 -1.3259252055828483e-19 2.7877447778687935e-19
-3.040507426826128e-20 -2.5467344855629277e-19 5.230260014736095e-19
1.2367316146994182e-19 2.7818350357795532e-18 4.357479826915701e-18
5.256981362462698e-21 4.2970339830515816e-21 3.491294263434534e-20
6.541411400335479e-8 -3.682736601218304e-7 -1.6946523416104562e-7
-3.627193938545061e-8 -4.131979246758877e-7 -4.558564715337683e-8
3.1014169636623565e-11 1.1441263891227807e-9 1.1900857149732262e-9
-1.3545779433949803e-10 3.253185972565689e-10 -7.129834108901195e-10
-2.1670992581319691e-10 5.78054183236164e-10 -4.617281801116903e-10
-1.0258303462291224e-11 1.9069201310140718e-10 -1.708242056316103e-10
6.01225069451794e-21 -5.936654478915353e-22 3.8136137983277546e-20
-2.0901938772290556e-10 5.265564751739138e-10 -2.7207587807355876e-10
-4.43102151757215e-11 8.517133300861839e-10 -1.564664924341448e-9
-5.129935707338533e-11 6.231410070105894e-10 -8.482245321267284e-10
-7.983172995362134e-22 1.1915528930040931e-21 1.5943870576068205e-20
1.5457087203267748e-22 9.550165401048391e-22 2.1655149595108877e-21
6.976028012532196e-22 1.0215848925598204e-21 2.1828353959308906e-21
3.7793596462414476e-20 -1.2879507028179526e-19 1.3191724942639518e-19
2.760127126067721e-11 8.20278070344284e-11 -2.030805100518654e-10
-7.186843390914186e-12 6.121915065350441e-12 -1.2674561303044606e-10
7.504746614892696e-23 7.567222596473511e-21 1.263667737990466e-20
3.525590046077389e-22 4.218796079230032e-21 7.765289341415591e-21
3.808041034363585e-22 -1.7562121075679908e-21 2.540737700874469e-21
3.0813536903594925e-21 4.866334329748973e-21 1.1073432357779703e-20
2.820370374010554e-22 -3.3404548529501186e-23 8.150110506788427e-22
2.747345997778325e-23 -5.538409391816913e-23 1.5033185311317158e-21
-6.544613476746566e-22 -2.1019860031243314e-21 4.0310325009856955e-21
-8.273285835572517e-22 -9.172513890380616e-21 1.1409650487288405e-20
1.1558437988781615e-21 -9.431747287401797e-21 1.3470440149627516e-20
7.176795312534815e-22 -2.5900925577617102e-21 3.773261716143062e-21
-4.758362918827182e-21 -7.894349162199966e-21 2.36055969321246e-20
1.388792285911495e-10 6.616640131292185e-10 -2.469979741301515e-10
3.687439215554555e-10 1.0330125122812954e-9 -2.930068092585248e-9
5.4683553706791874e-21 2.146412511851106e-21 1.231538011197994e-20
1.4928361987610738e-21 1.9973442470215332e-21 7.737300292596177e-21
1.4443298710704801e-10 1.667433324655873e-9 8.72284537328315e-10
3.8056994950656556e-11 5.260977011731787e-10 2.923519894773404e-10
-3.617611942603965e-11 3.428485917594919e-10 -1.5401607315181212e-10
-2.666141838436977e-11 9.388174543181368e-10 -1.989356600534712e-9
-1.1099683281279479e-10 6.53369741080354e-10 -2.7994243037798637e-10
5.1665252963016305e-21 3.399377564636512e-21 2.1389261806860997e-20
-1.580239027261965e-21 -2.8926099921978693e-22 1.2452968185408424e-20
8.891181888794074e-22 7.706048056699182e-21 -2.1357467758322812e-20
-3.142877182262842e-11 1.9410591100687262e-10 4.249103106230905e-10
-2.295347927195555e-22 -4.835297028862164e-23 7.531364031575169e-22
-1.0508120246995693e-20 1.8774293494184822e-20 6.494238310303962e-20
2.95791127354598e-14 6.445796872762915e-14 2.58133687637068e-13
-4.542764895989367e-7 -2.6665650148050764e-6 -2.9457657173125496e-7
-4.109255725950286e-7 -1.0366271179750246e-5 -2.2467895547156192e-7
5.7995861583034235e-8 -2.5823052574280063e-6 -1.1320491429213282e-7
-5.862223831057816e-13 -1.6621776115653783e-12 8.221966651765155e-12
3.0573430191087514e-22 -2.551149842294478e-22 3.395122299001492e-21
1.0195302841120569e-20 -3.309556944578815e-20 2.7212582966448536e-20
6.233454157003351e-21 -4.214612658506423e-20 9.78419104316589e-20
8.350302200939886e-21 -2.4791690207190863e-20 8.315463349427691e-20
-3.06420404948012e-8 -3.716366016369084e-8 2.220072399169331e-7
7.1728727211302716e-9 -4.0576493876495647e-10 7.587444874651342e-8
-4.212129991046162e-13 8.152399176621638e-13 -1.233428456462759e-12
-1.8788348572899951e-13 5.485907016142701e-13 -6.170656253675585e-13
4.642529237696381e-22 4.0133271530829538e-22 2.4838298121678987e-21
-6.967082388026595e-21 -3.073283892143559e-21 -3.275796424626059e-20
-1.0739393047873137e-22 2.0733331175111644e-21 4.813949949951767e-21
2.322210496148108e-8 -2.654239647791327e-7 -1.9183819346061035e-8
-8.35085373229269e-9 -4.3040942640719265e-7 1.5864253484028872e-7
-1.6892676915578424e-8 -2.3904417307352177e-7 -5.8253264515452394e-8
3.9199915718262197e-22 7.148208658225638e-20 8.913530581962142e-20
7.892029260984547e-21 2.082795114731764e-22 6.634707743519506e-20
1.8726580897309208e-21 -1.0125613205687413e-21 2.1256855333900993e-20
-2.564456164920166e-10 1.9413098420291492e-9 -9.813948518470986e-9
-1.57979494985596e-6 -1.6039662934318267e-5 3.1138250373365747e-6
-7.442791413243489e-7 -5.690975023095058e-6 9.655418982434316e-7
8.426295209889646e-22 -2.008537705573996e-21 7.180103240058143e-21
2.4865715325219992e-8 -6.085922781337128e-8 1.6790096808106566e-7
-1.6667213319039592e-22 -3.520536278986199e-20 4.746728736013175e-20
-2.371671820424655e-20 -6.416665083296149e-20 9.632273683691979e-20
3.0075368333250534e-11 2.82406686422101e-9 1.4437916526119162e-9
-5.564676370650797e-22 -5.267502220804892e-22 3.1821076589086955e-21
3.3926592277506074e-16 3.788867573641043e-15 5.4326321633719596e-15
8.658126002651599e-22 1.0432711721096108e-20 1.0964002935689524e-20
-5.574143895271773e-16 9.076339055568672e-16 1.1912453950127484e-16
8.045272398202671e-22 1.13423726128972e-21 4.532101743405275e-21
1.5386666854414704e-22 4.0221259143423775e-22 3.3808408029435565e-22
-9.65733009914771e-8 -2.60686411034991e-7 5.425553122824654e-8
1.0928736714606783e-21 -1.409394706600457e-22 2.457444524391657e-21
-3.4204865484438935e-9 -4.907563259842016e-9 1.1886255837846827e-8
-5.260529685037165e-9 -3.6850602814075836e-9 -1.4892538475135136e-8
-5.292990329249427e-9 -1.2690078219080818e-8 1.587445337598016e-8
5.703383914855773e-22 4.410492460135577e-25 2.027798508508017e-21
-1.6496006678204024e-22 -4.308214453176913e-22 2.3450899310256392e-21
3.0234711262009905e-21 2.2795649544232385e-22 2.7676392022303094e-20
2.0666618796177352e-16 1.4061566930975796e-15 1.75925484373994e-15
4.85828288393804e-17 1.955522174394004e-15 1.4616916215443615e-15
-1.3539876797204768e-16 6.225597044078394e-15 4.6407783513282816e-15
-7.11192382913795e-21 -1.0798415591512464e-19 2.091202037267377e-19
2.424224273998636e-20 -1.8823416540419465e-19 3.8952959775815057e-19
6.508239494227706e-22 -8.05578432977091e-23 1.857580803671593e-21
2.1880344704208486e-22 -3.5271957622859185e-22 1.1886943120989975e-21
-1.2831925450133487e-21 8.108935603659019e-22 3.032336608464999e-21
1.9739164821125284e-22 -9.831812283185084e-22 1.3114662204310697e-21
-1.4426526378830437e-18 -1.6596817404719935e-18 -7.05970148250978e-18
-1.8313445600306944e-21 7.478199874738534e-21 1.2473619978605936e-20
-4.549130370330677e-22 5.215728499381049e-21 6.913905919227346e-21
-5.836256641974726e-18 5.4629960879622925e-18 5.440429178769234e-17
-1.0455595955247137e-18 1.3814503949765275e-20 1.287915641085589e-17
-3.1137607303871427e-22 1.0557256050451303e-21 1.308756955880303e-21
-9.777120243636787e-22 8.093256324144999e-21 1.4817889766602196e-20
1.313068308853843e-7 -2.783776762118973e-7 -1.033137172260723e-7
5.8970380973021825e-22 5.992415729846066e-22 2.2971571139572887e-21
2.8998003410919636e-22 5.050739593019907e-22 1.580266102610828e-21
-3.131252994508787e-19 -1.4243459045997704e-18 1.62354987862413e-18
2.440630728127316e-7 -1.1883146880777126e-6 7.131943087233266e-8
2.675979372676229e-8 -9.191815084103293e-8 -1.3837230547360011e-7
1.476213183816673e-21 5.0182191875945425e-22 3.2058219645044e-21
5.070232749768527e-22 1.7571691206463125e-22 1.6318060631874013e-21
4.4691279699084575e-22 -4.8286391291057095e-23 7.896136262146511e-22
5.307871659291996e-10 -3.9609866536935476e-10 9.549661305302945e-9
-4.873854779530665e-22 -5.5941465247085e-23 1.5744532800705647e-21
6.27980269326602e-22 -1.918665553536233e-22 9.997082526283797e-22
1.0494998311090904e-22 4.541834212277303e-23 3.107507452320414e-22
5.1437535850767285e-23 8.77949567548059e-23 6.965756285614152e-22
7.684919580951055e-11 -6.616108512021015e-11 6.800097705232357e-10
-4.7486738246883595e-11 4.2124486625963854e-12 -8.54254234483347e-11
6.845914260235916e-12 -2.9291525315834975e-12 -3.8026337886382597e-11
-8.600371689849794e-12 6.437258685113813e-11 -3.410074396403271e-10
-1.2599289929220371e-11 3.411979000667834e-11 -1.83103321265967e-10
-6.462921649335718e-12 3.0363483904499898e-12 -1.9937569386308714e-11
-1.673870118395825e-11 1.6457263213102325e-11 -8.482488730003867e-11
1.0178722031395382e-6 -6.673614342449973e-6 -5.688033517193743e-8
7.027563434000326e-14 -8.847898489211645e-14 -3.130761804121209e-13
2.261672232133909e-22 1.7997023689442883e-21 1.801327730388634e-21
2.0677914274871688e-23 2.2970558256820056e-23 3.0656629417932474e-22
8.809105745264094e-23 1.3941124680166e-22 4.698717714276811e-22
-3.0321187731487796e-23 -3.6988257459861e-22 5.584641072011676e-22
-6.561044341359172e-23 -1.6681037485782737e-21 1.3133141234175595e-21
-1.5915761780278603e-8 -4.100459199244304e-8 -1.0823099846179257e-7
-1.4191208775688155e-12 7.326076059929726e-13 1.2428000571233612e-11
2.0244587823147117e-21 -8.033260631878708e-22 8.982592155942544e-21
4.63375358567473e-22 -2.670995178812437e-21 4.7976117463055e-21
2.9605945827383086e-22 -1.480773350260981e-21 1.513223230758038e-21
-6.35368036760954e-16 1.0291319603422853e-14 1.3257758447446982e-14
-5.320921111783498e-13 -2.3007078633926744e-13 -1.7962365137908402e-12
2.834755707374858e-13 4.3725463806783054e-13 -4.74270385628651e-12
3.0372281948010607e-21 2.1869862511299704e-20 3.6873516611706066e-20
2.089560089603696e-9 5.945287167004955e-9 -2.265651904482329e-8
1.7959597392040038e-9 -2.163373504995063e-9 -2.067769084776589e-8
-7.43662624295527e-10 -1.4375245036305041e-8 -6.873469219509361e-8
7.748871771351383e-9 -6.494079891264673e-8 -1.3386000881386286e-7
-7.380225969081366e-23 -1.0583260769649232e-22 3.1621880585267115e-22
1.2683227652077507e-22 6.376357648697778e-23 4.1880226811391126e-22
-9.145235369316903e-22 -6.1690797095213304e-21 7.930961124170749e-21
-1.3722897989782088e-20 1.1157617842934036e-21 9.425293236438306e-20
-9.5740329719718e-20 -6.040205043577468e-19 1.3652023407868006e-18
-4.481937646640381e-20 -1.3248933505326843e-19 3.4938368940859567e-19
-8.480679856871392e-23 -6.558880399419432e-22 1.5203863291292077e-21
5.844545630818523e-20 -1.710885302273032e-19 3.4626959079400944e-19
-2.9163887910736646e-19 8.24959853581028e-18 1.1275724065073621e-17
2.5500877518264412e-18 1.3595205862550521e-17 2.296024432171695e-17
9.329604076627729e-11 2.7306825105598962e-11 -1.0665771760179065e-9
-6.712941339384275e-11 2.086009387442028e-10 -5.606472920553426e-10
-2.0679170312220396e-7 -1.6092218363638542e-6 6.80779524803633e-7
1.5073379047839268e-7 -1.331229762535562e-6 3.213379529806774e-7
-1.6542716362868818e-7 -1.6391830318981483e-6 2.891126539759524e-7
2.7737588567060553e-7 -5.2350204420233545e-6 5.213806668058355e-7
-9.856357659654877e-8 -4.951077202896336e-6 3.6329961652433855e-7
5.026099404545193e-7 -2.9814929437347055e-6 -2.5404957022380315e-7
-4.403450364158598e-17 -1.3045307082756089e-16 5.419647185200096e-16
-4.031906689631704e-7 -3.817176317571766e-6 -3.0645809768759047e-7
6.444408520904079e-7 -3.2027192970113213e-6 -2.202533164315257e-7
2.963831996959809e-23 -4.0951369747970076e-22 7.018186211775693e-22
4.475770105113797e-8 -4.592374041686418e-6 7.443019775411383e-7
-1.4598337201938315e-7 -4.593230510575168e-6 2.1730756326665244e-7
-1.2203440316812834e-7 -2.184059624928133e-6 8.565242005418802e-7
-1.4211794464301097e-22 -2.57651764083264e-22 2.1146266270256467e-22
-6.331117366828126e-18 -1.3026344493836424e-17 4.3386870868244524e-17
-1.00163683430749e-18 -2.0971368374672022e-17 3.644788658213267e-17
-7.189948845127745e-19 -1.6811406332646996e-17 3.9014642618071166e-17
-3.0062658955436088e-19 -5.4159913102310034e-18 1.0851904058478132e-17
-4.3292071241970566e-19 -1.0045014532148136e-17 1.9034067168327964e-17
1.1172341899453614e-18 -1.6526724601919098e-17 3.002718210908811e-17
-9.939225639656342e-7 -4.6292902985558375e-6 -2.664034478388905e-7
-1.5820658903152653e-11 1.4038461723589253e-10 2.4349136514697973e-11
-8.470749054020652e-8 -1.372193939143449e-6 -1.5676764240932686e-7
-4.6108869872864384e-7 -4.6642190893614496e-6 4.9740387925797725e-9
-2.5237139567793373e-8 -8.429838206810234e-7 1.5552901618355182e-7
-8.692470203125951e-11 1.0232155036520916e-10 3.429432790861288e-10
-8.7534706268497e-8 -2.0576037061542147e-6 3.2727291372769715e-7
-3.3483790346051684e-21 3.05477502875943e-20 4.602920942646761e-20
1.5454473262291281e-21 5.827019520419384e-21 1.0194640636892577e-20
3.400083656178526e-8 -9.363749611403608e-7 -6.733691927286739e-8
-9.690475512352659e-8 -6.252865822811661e-7 7.923718514783456e-7
7.346778055308095e-8 -7.014214597906659e-7 6.000612004075263e-8
1.8267548670678557e-8 -2.675531009109857e-8 2.2427372265914308e-7
-5.554430045343073e-8 -3.8184909029246415e-7 5.327032455691147e-7
-1.0347802929780069e-7 -1.1747662865988341e-6 5.824591979094046e-7
-9.472372003861046e-18 -2.3783183842270536e-19 4.228314516410734e-17
-1.5298915684056006e-7 -9.364876432032626e-7 5.725299325309721e-7
-2.3029514186637525e-8 -1.4412969723080639e-6 6.964869024214336e-7
-1.0220168491651533e-16 1.0779479785163922e-16 -1.546471793536766e-17
-1.8150850382509664e-16 2.4910568592897775e-16 -2.4053326585821695e-16
-2.7954440412900773e-9 9.688185470985928e-8 1.7497819494593454e-7
-4.511716617026699e-7 -2.353250334962834e-6 1.5802548903150266e-6
9.323211903860991e-22 1.2526539101009081e-19 1.764092454307279e-19
-2.639467530954714e-16 2.5206438558136694e-15 -5.1113105223160015e-14
-2.4117634400460227e-16 -1.010238637266229e-14 -1.189473492985597e-13
-5.973964520305621e-15 -8.028016347782923e-15 -5.815136251442807e-14
-7.084684622414722e-22 3.3475688832910806e-20 4.4803316841599074e-20
-9.983512540965977e-8 -4.558680914263982e-6 -1.2771697101229228e-7
5.725490171035108e-7 -3.70031580270316e-6 1.4340984674934575e-8
-3.062574275326765e-10 1.0313221363273763e-9 4.332160516306562e-9
1.8730977281997056e-7 -4.495007034339613e-6 -2.43080046849269e-7
-1.3911340998355813e-7 -3.326160064493568e-6 -1.256008135676832e-7
4.7768579594060745e-8 1.2682055188849583e-7 2.417761065321255e-7
-4.2459097915459555e-7 -3.6084563249142342e-6 2.705530107291994e-7
1.0534587413154118e-8 -1.571948967158715e-8 9.060202817125648e-8
-6.43944040974117e-19 -1.5972054458047232e-18 5.390989310965453e-18
-1.4989904731954822e-18 6.036713928313966e-19 1.1524079204200585e-17
2.525332929491559e-18 -3.594703783693509e-19 7.124691303230706e-18
-1.972502002987096e-10 9.722679532532387e-11 4.058945641675042e-9
-2.9127105188158396e-17 3.9039114372532627e-16 6.902797161062003e-16
2.459650297769837e-9 -8.095439958232397e-8 2.9046408506926635e-7
1.181438555780469e-8 -1.3142238744624292e-8 3.994620643725095e-8
-2.286387550179733e-8 -2.5142402475617414e-8 1.1166129984350133e-7
1.8506752418399184e-11 -3.2848948150035486e-10 3.577414732983161e-9
-6.668383885811424e-15 8.976079305460546e-15 -8.88802377004792e-14
-5.252640410493658e-15 8.139066705011829e-15 -4.117539346410158e-14
4.5340546652414213e-7 -1.8498152913727014e-6 -8.699452152264629e-8
2.5699582416798795e-7 -5.054628383657621e-6 3.3464098426642374e-7
-2.4435811629315787e-17 -2.7937480355989275e-17 1.8593062414217232e-16
1.8058351127710286e-18 -8.03666965802333e-17 2.6239454000640356e-16
-5.043648959386069e-10 -3.9776272122050313e-10 8.02757745529573e-9
-1.3180812916967881e-17 -2.03080159300003e-17 1.5401143008546455e-16
1.0670012882233888e-16 -9.166663327757547e-17 4.550068711909497e-16
9.458051882068942e-18 -7.967565902956085e-17 2.389676370905851e-16
1.4883626512896893e-17 -4.283870399835167e-17 4.9244069741181555e-16
-4.256524735263755e-17 -8.771844053637192e-17 4.660135499942532e-16
-7.220320680130767e-18 -3.3692868358513786e-17 1.113357474032353e-16
-1.1345543794418826e-7 -9.231565579469294e-7 -5.899900316818291e-8
-1.6788121246335088e-8 -9.143973823021193e-7 -1.1787130422240741e-8
-1.0996772404438031e-17 -8.911216029801879e-18 4.439000136074587e-17
1.325800041609857e-10 -2.14492935081949e-9 6.065757272298474e-9
3.0699496156204665e-21 -1.9521202986692788e-20 2.62096174519249e-20
3.416369088948834e-10 1.3181180737551341e-9 1.7453704171825181e-9
6.874259405421358e-10 -8.922998918757296e-10 5.821487900480567e-9
-4.5058020274082984e-9 2.46441084601783e-9 -2.8471549103049327e-8
7.605574155621931e-11 -6.236924134677476e-10 -1.2196104409549538e-8
1.7070193670943763e-10 7.132523976391952e-10 -1.0181546369426754e-8
-1.1699249672234487e-14 6.714067056366366e-15 -4.9722544795855856e-15
-9.785833993802809e-15 1.3203552745044073e-15 -1.3187917522457117e-14
7.065258681293675e-9 -2.4099858070430156e-8 -1.1682075016144057e-7
2.3893302732537257e-10 -6.459603136678729e-8 -2.0632091475780834e-7
-2.1134093804617057e-8 -9.89060575284648e-8 -2.6409150892696453e-7
1.4673503570163195e-8 -8.332811268455712e-7 -7.012351070840784e-8
2.8980655735167956e-10 -1.5152114297907316e-10 7.937287770165672e-9
2.3068839706107514e-11 -5.144772740817557e-10 2.7871376853149493e-9
-4.375242459557848e-11 9.173142003480441e-10 5.167443454057149e-10
-3.583077476997844e-8 -3.385857336493776e-7 9.268032352958783e-8
-1.1754744587146423e-10 5.6067602697795986e-11 -4.866966289458474e-10
1.1882959535661377e-8 -5.89581790554419e-7 5.203887617902786e-8
-7.684203411092559e-10 1.3650427077816566e-9 3.057007051150313e-9
-1.4790903790294546e-15 -1.5090982242852052e-15 5.513692412105872e-15
7.20898672264514e-8 -1.4297129400656882e-6 2.4728169819312006e-8
9.130488565054337e-11 -1.0535344371897653e-10 4.060026054702792e-10
6.636729282867268e-11 -3.717788377881699e-11 1.3759389259882565e-10
-1.70193603794761e-15 2.1605755627613272e-13 2.128160332849529e-13
-4.483240473769534e-14 2.7198430825178575e-13 1.170007917896775e-13
4.139622190416657e-14 1.4257864428060492e-13 -3.483796672996904e-14
9.417237564554278e-14 3.0931813011164107e-13 -1.4279936822364802e-13
-8.590526055614631e-11 -1.871323905764406e-10 9.112926183237973e-10
-3.6135668475368376e-10 -4.038893389721485e-10 3.673574963220112e-9
-4.601470949904651e-15 -1.025562852467476e-15 -7.887952794935511e-15
-7.324195451467923e-14 1.896499108970829e-13 8.532465169927532e-14
7.572516908802625e-10 -2.1268265750786e-10 2.1637530754003226e-9
7.829657122839939e-13 -1.9392001205534812e-10 1.1446944358816659e-9
-2.2020855578780363e-11 1.858963980377346e-10 8.11170266848514e-10
1.9907433693143214e-10 -4.762770832021361e-11 -1.0237649693509782e-9
-3.2576374814822635e-12 8.345339062610107e-11 -4.666760834321544e-10
3.5382554457338055e-20 -1.5665703354508978e-19 4.048290381913823e-19
5.381155492079891e-10 -2.2946708750840375e-10 1.1993865096490238e-9
-3.8405344281872935e-9 4.713050724007641e-9 -1.651428598223993e-8
-4.948504962261129e-9 2.6060812790219364e-10 -1.6366867181703034e-8
-2.8057861517875777e-10 -3.2013070231078335e-10 1.6928236449195436e-9
-2.919021118026278e-12 7.387061052277089e-11 7.724820416304157e-11
6.994580287296156e-11 -1.7876036777899222e-10 1.3475516014100175e-9
-2.7202103960423065e-19 -5.0847749002780865e-19 2.20441558069554e-18
1.9111111900649687e-17 1.8479717995722304e-16 2.1659537357049742e-16
4.164347427012628e-10 -1.2988069638570205e-10 2.89031425287617e-9
1.4200712128828051e-9 1.837711619784008e-9 5.090161978084978e-9
3.593259987490084e-9 -1.0719188966168756e-9 3.334030321724056e-8
4.964439580299847e-10 -2.8632552809822076e-10 2.8879605605666084e-9
1.3681936964674304e-10 8.668850985656152e-10 1.2693083994855087e-9
-2.6998356835843416e-18 4.1072952536862644e-17 3.5114199911530785e-17
7.405892582347176e-21 -8.174962831103951e-20 7.99559483787461e-20
2.5482587871995355e-10 -9.869364551216573e-10 2.6623335602592988e-9
3.547124306791017e-10 5.7341535234436544e-11 -8.239609247720942e-10
-4.9168125171597335e-12 1.4273855711310413e-12 -1.0556836050974439e-11
-2.6250909994474093e-12 -2.5974000686125467e-12 -1.7812427618091254e-11
-6.52517247074401e-12 -5.7044036171971684e-12 -3.031752454768452e-11
1.5479006369907078e-12 1.934711541824579e-12 -6.138688699950821e-12
2.576102069665863e-12 -1.090058599242673e-11 1.471789308854209e-11
-1.7378346448904916e-10 1.5718636814300419e-9 7.315907719006921e-9
5.181440671500779e-10 4.2718754280642266e-10 2.1104888966745853e-9
-5.941932835115897e-13 1.3489896508268767e-10 -3.5186442469439924e-10
-1.3956901602934782e-10 3.0931593185866635e-10 -1.1128907465274148e-9
-5.270641724013297e-11 -5.395445203198942e-11 6.574980599669836e-10
-2.2655187453003895e-10 7.394927324045598e-12 9.33048585095258e-10
1.2818404702851827e-11 -1.6921859711592367e-10 6.073251055941362e-10
1.1129372327478532e-10 -2.4948565072658024e-10 1.6892629192963654e-9
2.408747357186585e-9 5.323069225263434e-10 1.3484153644899108e-8
1.2143601002638743e-10 -2.1414261227204353e-10 1.074672541610882e-9
7.718925716207711e-11 2.6922499364882626e-11 2.3255555455234587e-10
-1.0281266770759361e-11 -1.2383799819975792e-10 4.165084489455686e-10
-8.446845432565258e-20 2.682980316693537e-20 -8.67315914204103e-20
-2.2862021062072208e-11 -1.3784345784143799e-10 2.7423338363404773e-10
-2.4078339367840773e-12 2.306772814132421e-12 3.776344060753465e-11
-2.140650796694327e-12 1.6111063606917424e-11 -5.062457957419369e-13
2.5441553038620353e-20 7.785165144819293e-20 -3.5370348530506974e-21
-2.3190453274910413e-11 1.2911743096591107e-11 -2.6113066845390136e-10
-7.009878580164283e-12 6.324027838958152e-13 2.954510655366064e-11
-1.1358568498251468e-12 4.230447748700967e-12 -1.0856571770341861e-11
6.83453330602432e-15 1.1181406930403172e-13 -9.945767847550492e-13
-8.042469560664253e-13 -3.513321689208426e-13 -5.217570671895027e-12
3.3764080541992775e-11 -2.6797375014902558e-11 5.000427862749754e-10
3.140277994020703e-11 7.511209149274972e-12 9.283491266102857e-11
-4.0475361340008083e-13 -1.0024948903360048e-11 4.3048822815465106e-11
1.0122366551591913e-12 -8.43930125551242e-12 2.9184163756348725e-11
1.5316338012458013e-11 -2.345643439256303e-11 1.5349987713511332e-10
-1.4663840422021267e-12 7.70781460639037e-12 -1.7544803227637706e-11
-1.5113018054271578e-17 8.468629079701741e-18 8.368383678269444e-18
-6.026697215037059e-12 2.242643923658884e-11 -2.0084024219877406e-10
1.620685243323665e-11 -1.0766398629568625e-10 5.245090363920965e-10
9.940045957219995e-21 7.586722433148883e-21 4.78119460076368e-20
1.9381844467373185e-13 -2.5678942371687856e-11 1.297086061305732e-10
-1.7450388511319545e-14 7.617152274901088e-14 1.229689403899951e-13
-8.165386862763951e-15 3.636158621398093e-14 8.097005889365229e-14
-2.334097059139314e-15 1.911515261176832e-14 6.232392701536096e-14
-9.635965465174869e-15 9.663844304144461e-15 7.693508686025438e-14
-2.9532473676086245e-18 1.6836090335301117e-18 4.2665759718256065e-18
-2.0439545941891623e-18 1.0053493174827918e-18 2.5881044802877833e-18
-1.6383208354404242e-18 3.5506023867771444e-18 -9.286800450430641e-18
2.615488755794827e-13 -5.60871866151147e-12 7.904745926970923e-12
-2.664052528635545e-10 1.4317583621005143e-9 -7.303092066612707e-10
1.730418968454056e-11 4.777586496505769e-12 3.886016064214132e-11
5.021087103728193e-12 -5.362757120644363e-12 2.153693596429873e-11
-8.99667606361882e-12 4.36935496260274e-12 -4.633560990130327e-11
-2.8861182180226637e-11 -9.853145483655428e-12 -6.471079923952438e-11
-1.638933997609007e-11 5.834842650459621e-15 -1.0823068476317929e-10
-4.210445446336668e-12 7.854966014630931e-13 -3.3673036901616134e-11
-1.8107429067466816e-12 -8.311158762307304e-12 2.5537217726539117e-11
-1.1407665972388364e-13 1.070222239390395e-13 -2.7290072249271125e-13
2.7845837953178666e-13 -2.8996256775160505e-12 2.8054300283307394e-12
-7.588680147907922e-12 -2.0438933251284485e-11 6.525977251015527e-11
3.163997323475869e-11 1.0770515827261716e-10 4.597993651615255e-11
1.4599179466884242e-12 -8.666523567017532e-12 3.1623181401529694e-11
-9.227283470296701e-12 1.1089303633349901e-10 -9.25710952479908e-11
-1.62492923357061e-10 3.338737080400372e-10 -5.954785467107828e-10
-4.2048643738984036e-13 -4.3296285602231746e-13 1.998520731806806e-11
-5.268096767024481e-16 7.107471903436016e-16 5.341009582410526e-16
-2.352051284884554e-16 3.7487841496978194e-17 -5.039482363811163e-16
-1.679109704541032e-16 -3.2745133028930047e-16 -2.556473328854138e-15
-1.5373529627978871e-16 1.3561244166680645e-16 -7.20671732852779e-16
-2.0791165308251383e-16 3.114767534126859e-16 1.3234297311701925e-16
-4.4330810949482186e-13 2.1121210348758166e-12 -1.851896172759205e-11
-7.877899023049887e-12 7.276399683158443e-12 -4.2053231536558075e-11
-4.09943734146611e-13 -1.0202919854223746e-12 4.228511133887468e-12
-3.834680271394756e-16 7.687509470735328e-16 1.4666939568537204e-15
-5.413065308627053e-18 5.8486036646294196e-18 6.7999591436239176e-18
2.427011735279331e-13 -4.917825443826518e-13 1.332491767732677e-13
-1.0874408491379392e-17 9.488484689370528e-18 1.0625762985428482e-17
2.4884204055128624e-19 2.0709905175001905e-18 -1.432810302476879e-17
5.310736695431613e-13 7.58976326015924e-13 -9.144894189221646e-12
8.268658928323796e-14 -1.5273463909227822e-13 -3.6221140978508056e-12
-6.3665667906461985e-18 2.5549229505878935e-18 -1.9896426588790336e-17
-1.1102688719629679e-20 7.7115023841871e-22 4.064684081107306e-20
6.87468794341715e-12 5.758911198811652e-12 2.3921496547183e-11
-1.148636389652232e-12 4.2621009314328975e-12 -4.025330675324965e-13
-1.5518511679557454e-13 4.058274170558845e-12 -7.96274998863074e-12
3.637051182517946e-13 5.6545144359170365e-12 -5.538561629931955e-12
7.255781705458139e-14 -4.0730190970118697e-13 1.4479994506725023e-12
-1.9855772815818983e-15 -1.0013806844349732e-15 -4.693372325970332e-15
-1.2318856003890935e-17 -5.871317414089089e-18 3.998648481676885e-17
-2.902105422867679e-18 -7.73112945058898e-19 -4.823067840934143e-19
-1.2374078319386906e-18 -2.4736472395010758e-18 -1.686920572190382e-18
7.3010125276434e-18 5.288827942688307e-18 8.918644944137606e-17
-2.352802566096175e-18 -1.2251959650042638e-17 2.3382908489093377e-17
-1.6346729726004812e-14 7.314109343259288e-13 -4.805977264802369e-13
-3.892031863123e-18 -3.565794846184715e-18 1.674225002255625e-18
6.451906195384315e-15 -6.641110770560598e-14 3.917302575777951e-14
-1.2205966477236575e-19 -1.3901556200046072e-19 -6.063021005038259e-19
-2.522570437989843e-19 -1.1779733419105702e-18 2.6766685953369894e-18
-9.946592240618572e-20 -5.759835133091042e-19 1.2142291590150545e-18
5.633498025780451e-20 -2.586095807275234e-19 5.597828164907079e-19
-4.14360215046316e-20 -4.117833170994809e-19 8.906107166692956e-19
2.6653343235405434e-14 -5.5064294926680734e-14 1.5332019876745798e-13
1.1020221057206606e-13 -1.759456879331375e-12 1.7781826237597977e-12
-5.706154075874843e-14 -3.3551131830262835e-14 2.2824670127369646e-13
-1.9183869614587424e-14 -2.0725945584813263e-13 8.054514074954794e-13
-6.34697228213473e-20 3.770516027836556e-20 -8.144625050777173e-20
-5.886210585009241e-13 -1.4171642331875201e-12 4.788043528813145e-12
-2.2532130923878388e-13 4.957969753688493e-13 -7.525316558211484e-13
-8.983353438341297e-14 3.983220909947446e-13 -1.5010541450561999e-12
2.4350408281386604e-13 9.819732094758248e-13 -3.3858296020321066e-12
-1.0175909393904441e-13 -6.792001974245242e-13 3.6057032697893984e-12
-3.938426174940942e-12 2.0210241894853007e-12 -2.1104064403768215e-11
-2.118233501422165e-13 -6.451175829910862e-13 2.1850536069519146e-12
-3.07234024891302e-13 -4.971231267863076e-13 -1.6814997140606284e-12
6.617393791004036e-16 2.5567752705442396e-15 -1.1776404549731023e-13
3.5167558048647e-15 1.1247255761642419e-14 -4.254294800016942e-14
-4.1312105079562707e-16 -3.4085270326074377e-15 -9.020627099868825e-15
6.831828825588611e-13 2.3343726923237193e-12 1.0550217394578895e-11
-1.3351439809453948e-14 -4.310428015821569e-13 1.073899434530993e-12
2.41323414128304e-19 -1.6587676951692402e-17 8.073629915380012e-17
5.034864071510587e-18 -1.8278650768687172e-17 1.774315936793386e-17
-2.874642657732718e-14 6.460793064224526e-14 -4.5958162673558026e-14
-1.0687764016306132e-15 -1.9095795719791326e-14 4.860497064303751e-14
8.190837848336352e-11 3.710168962495674e-10 -2.682746971515677e-10
1.1644271374824648e-13 5.238168353939517e-13 5.324041965504646e-13
-2.16027338442475e-15 2.0867120700625748e-14 2.1817667629255594e-14
-5.504490659425532e-14 1.2794393065306908e-13 -6.88437010322314e-14
4.406497621594497e-8 -1.8830528288250757e-6 3.2292015529924244e-8
1.4165432927269453e-13 -3.5283539961179845e-13 1.2704601891541911e-12
-5.94241733075927e-14 -8.168688902351595e-14 2.6305476398878747e-13
6.26937577779178e-15 3.588355930973059e-14 -9.272618334541558e-14
3.4183901623734967e-14 8.469866002814558e-14 4.84622188881969e-13
3.8394526783921775e-16 -9.469570512885882e-16 2.856334853724053e-15
3.713585484369333e-15 -1.5728292533168957e-15 6.697286016097432e-15
-1.5955075326779113e-16 1.1525766261950703e-17 9.948911575983213e-16
-3.2877949009931403e-14 -6.418660139950812e-14 1.1688398306750827e-13
-5.6501275941390465e-14 2.889980985622509e-14 2.93750609380653e-13
-1.2847263885273105e-14 -1.2337797574005455e-14 5.271302037573719e-14
-4.966455756235189e-15 -2.6551923871767822e-14 7.651013308053824e-14
-2.122511175725987e-15 -6.2578706043529076e-15 8.273986550811918e-14
7.294801728043039e-10 9.399516081691553e-9 1.2912793278575817e-8
-2.0503996277254814e-10 -1.8752454091642326e-9 2.0534785258180384e-9
-1.0794927034120591e-15 -4.3114806876362385e-15 -3.0725543280764494e-14
-1.719207794373369e-13 4.798162117391531e-13 -3.0364672791097545e-13
6.101228299787678e-16 -1.7026559640673937e-15 3.913681908910616e-15
2.8478800928913336e-14 -1.467958357017322e-14 1.040682622943199e-13
-1.436862911426205e-18 8.720895475311588e-19 2.170600474286673e-18
1.356863441619423e-14 3.519424339469363e-13 3.6855534475074216e-13
1.0090445284285625e-13 7.667974706808004e-14 2.7793864368540004e-13
8.880028783610935e-15 1.2462835299357522e-13 1.337628015945884e-13
-2.6606339994887827e-16 -1.5486031843723351e-15 1.2285714106850858e-15
-1.0775705240268077e-16 -3.2639088943399893e-15 6.155042160239459e-15
-8.760871909086511e-16 -5.535585089939225e-15 1.308287539279472e-14
-1.9182407727205596e-15 5.1953865380219206e-14 -6.325768456032554e-15
2.1090266768231994e-9 -3.7159522066016845e-10 -2.681804811870542e-8
1.0701008642422599e-14 -1.2657296128950476e-13 4.644689113727452e-13
-4.44873954708906e-16 9.957575293561505e-16 5.936506553899142e-15
-2.126249636137343e-13 5.955669448167295e-13 1.2425233283625707e-12
3.264044249358783e-14 -9.349878974080483e-14 2.178337926929974e-13
3.992823048997916e-13 3.9405385841955606e-12 3.900359032028014e-12
-2.891748073550491e-14 -6.252860849169886e-14 1.0058480708959203e-13
-7.426091254436989e-18 7.529927372324309e-18 1.6224199301029517e-16
-2.0302640905054513e-14 6.978758142382003e-14 7.772063036685727e-14
-9.809318013166099e-15 -3.906069587135474e-14 1.023835024405954e-13
-7.466088871173529e-15 -2.022336531756758e-14 5.925587409187984e-14
-2.3761631944209794e-15 -2.1928128068361602e-16 -2.3924535622038872e-14
-1.8561040331785455e-16 2.5246781579232904e-14 3.3706091063203434e-14
-9.962521711096589e-15 3.0433447776820257e-14 -6.092230942995253e-14
1.8559303356382726e-15 3.21524101185256e-15 1.2532455007625508e-14
-1.1121234581978141e-15 -1.313078954367316e-14 3.036590244293031e-14
-7.663044680584037e-16 -5.715481971377675e-15 2.0155791447682303e-14
-2.9609474325912734e-15 -5.614464598534589e-15 -1.676396836897317e-14
1.2625752211619751e-15 -6.050589316268102e-16 3.548139302871945e-15
-4.227599276578719e-15 -1.1093966961920634e-14 2.406882944066297e-14
-5.0113834699913264e-15 -9.685140401952685e-15 1.1595706613825036e-14
-5.571383925272394e-14 1.4729843134848777e-13 8.384621509240862e-14
9.871393755360821e-15 -4.736461091542314e-16 1.209598066130918e-14
-1.5953243087237038e-15 -4.193462702109597e-15 8.157892628388988e-15
-3.4160947939862535e-17 1.266754529330658e-16 1.9928923059227141e-16
2.7941931009411852e-15 -5.859996637756201e-16 1.8693938548391522e-14
-1.6967751767150052e-14 3.594998855079315e-14 -3.2178647903979054e-14
1.8368368067167993e-14 -9.704509648221144e-15 1.1368575132072936e-13
-3.1776108121770514e-17 -2.0037217971006668e-14 8.423118681095543e-14
-6.458106547715196e-14 1.8679908028179665e-13 -1.4795529667274419e-13
-7.501404345005995e-14 2.3643962288367843e-13 -1.5924772721185112e-13
3.76147960462749e-15 2.5125775548757946e-14 -6.795003285302172e-15
9.22608366966665e-16 -8.476457676375871e-16 1.4923616852266158e-15
-2.266205827194366e-15 1.7001802361862325e-14 1.7024003797363306e-14
-1.9055340146878977e-12 1.6324058586046683e-11 -2.816000097400537e-12
-2.1915171551495734e-15 2.3090855651628097e-15 -1.9415123535856585e-14
6.524045031747726e-16 2.459336790506958e-15 4.591934747690752e-14
3.210483617568525e-15 -6.286337582451399e-15 2.7009238789944274e-15
-3.1246284519988295e-15 7.973846474613937e-15 -2.247959095041567e-15
-3.605582518201953e-17 6.455961563938996e-17 -2.1540367709852784e-16
6.647593593119593e-15 8.651773142237363e-15 1.8699653598716717e-14
9.3987312670127e-16 4.726030492586514e-16 8.843232764259873e-15
1.1651542260367565e-18 9.219612153810572e-17 1.7235468599177637e-16
-3.3485636040854283e-16 -2.1630203906617874e-15 1.209396166404475e-15
1.3884497417203462e-17 1.2023319225887959e-16 1.264331948759032e-16
1.1526161016799698e-17 1.0188056717569387e-16 1.20987539961476e-16
-7.837134187077063e-18 1.155032609170376e-16 1.6823110633081226e-16
-1.3701932375756379e-15 -4.499957250808132e-15 1.3836763380637295e-14
2.0412908497904558e-10 -6.420728028039661e-12 -9.20455852846962e-9
3.336358419544691e-21 -1.9855302550434543e-20 4.0873663595616134e-20
-4.270072072900063e-15 5.5370254191611884e-15 1.482153062571411e-15
4.696844153546169e-21 1.3395147684727505e-20 8.438889620254111e-20
1.2329339799428835e-21 1.909019160465358e-20 5.0298321529441e-20
9.540203644208266e-21 3.62561921873702e-20 8.412780513795582e-20
9.155607904550847e-16 -7.23905048432714e-17 6.932166639762302e-16
-2.683365751522878e-16 7.077435954875866e-16 2.48308121885909e-15
-4.69623655044533e-15 1.5199746285007325e-15 7.724992532043662e-15
2.800044988336681e-18 -1.847774197824303e-17 3.605093011635153e-17
-5.422383459508512e-15 1.3155933442714954e-14 2.943660180728583e-15
1.9830192328052977e-17 4.983928086726514e-21 2.2281829126420628e-17
-1.083386605290351e-15 -2.1552501475617193e-15 -1.4245471232189678e-14
-9.266614078218964e-16 -9.399870773330694e-16 -5.3856056922954625e-15
-1.0967614614413185e-9 -2.7426878582880365e-7 8.972154390996679e-8
-6.84566514924905e-7 -2.7563043833300452e-6 9.240614200863906e-8
-1.4928822286288482e-7 -5.521462434440118e-7 -5.645944844359823e-7
-3.840540307316981e-8 -3.8624234685750385e-7 -2.4970623887925163e-7
5.451818964758108e-8 -1.3345826725741724e-6 -2.2610936520592795e-7
8.086820981483028e-21 5.203637946974046e-20 1.3823829563658345e-19
-3.2856594172419298e-21 2.785894129170954e-20 4.91135542528417e-20
-2.847286848362993e-16 -1.1760561948799655e-15 2.9099940081490545e-15
2.4876562551136054e-16 -4.800763717628006e-16 1.4074524360955576e-15
1.7781697997143716e-17 -8.668845813458715e-17 4.370537594242797e-17
3.431801417519498e-10 -4.4169172877557764e-10 -1.631093386764967e-8
-1.516174219585788e-15 4.302018435916628e-16 -1.1776608217704129e-14
-1.1911085407356648e-16 -1.7291574976253767e-16 1.2533852692333166e-16
-5.712065113619295e-17 -1.8209896997722433e-16 1.1812293764271467e-16
-4.0418562632835915e-16 -6.262256157316118e-16 3.597602975777128e-16
-8.911856952319334e-16 2.5955546005062394e-15 5.9783592795382944e-15
-1.4083149954474957e-16 5.010974627083849e-16 -2.1729073641009547e-15
5.748497533032844e-17 -1.545249484487471e-16 2.862233975407608e-16
-3.4628027655995635e-17 -2.653222504612471e-16 4.821377917467967e-16
2.1962664218184542e-11 1.3826996586222022e-10 -4.151467946803042e-10
-7.607543131992503e-19 -5.26923221992816e-17 9.89452799448349e-17
-9.671484137832256e-18 3.5974964599387283e-17 5.834786292095109e-17
-2.2916506849143175e-17 -1.4906242567584626e-17 1.5188039981272678e-16
4.80374810850519e-18 -1.1201793160340462e-18 9.63335588182957e-18
-2.9735690921408997e-17 -1.9680786188641827e-16 3.0223125621353806e-16
2.827801272023892e-22 3.007493423516832e-21 8.593578646331253e-21
-2.238591393620853e-10 2.634482371061289e-11 -1.1495422321043193e-9
2.2866417876152888e-17 -1.862673303200014e-17 7.526290327852087e-17
1.8267914468129233e-22 2.4298425350891384e-21 6.590406185686421e-21
6.112888521810471e-22 2.0783253265415373e-21 4.275968615125997e-21
7.447838489463007e-17 -1.7384771538751083e-16 1.125960887831153e-16
7.67280773102293e-21 5.614016072151048e-21 4.038011953899811e-20
6.848969948925508e-18 -1.2237628595426727e-16 1.3673982737941998e-16
-2.9832628301265372e-21 2.880688299494869e-21 2.0875277747698435e-20
-1.0999332207186441e-16 3.3695016705327147e-15 1.848415807309553e-14
2.3430436123281434e-17 -8.857077477426084e-19 1.824916562201442e-17
6.371075379189466e-15 7.761170958240546e-15 4.744045990348729e-14
-7.85373663584945e-18 -4.070988465966652e-17 7.24205945591845e-17
-7.128220287063027e-15 1.0219023116773367e-14 1.2491601992943521e-13
-1.431263115878555e-9 -7.053279726556307e-10 -1.2258101055600457e-8
9.690663685722708e-18 1.969413049444666e-16 2.3623811055528384e-16
1.4013641630930127e-17 1.8859586377738284e-16 1.0935493505039277e-16
-5.711322906002356e-17 -2.270994987891678e-16 3.8592557874764554e-16
-1.0455177996318739e-17 -8.086400345495197e-17 1.462479240660391e-16
-2.7686835888970414e-19 2.0442339041837333e-18 3.266071217873608e-18
-9.679777507561013e-16 6.121174371434539e-16 -2.2057598679111837e-15
-1.3255901832340914e-11 7.736806857565875e-11 8.653515360261295e-11
-3.878741862213671e-18 -4.7170742991706185e-17 7.563851009504182e-17
-1.1417687650442392e-17 -1.0109718760458177e-16 1.6553543861735415e-16
-1.1979393048849393e-22 -1.4481305578303142e-21 2.9592296904161807e-21
4.920762946997277e-19 5.403916336505725e-20 1.117974861120943e-18
-3.6085872809592723e-19 3.1394120631746775e-19 7.386009992564379e-20
-2.0283161116497104e-18 3.3411884887211894e-19 1.650603031511219e-21
1.5191286537681517e-17 -5.1910264091819115e-20 9.224533645484998e-18
4.472420684445878e-22 -1.068830517808678e-21 3.048652471350793e-21
-7.434574693915218e-9 -3.166401273596182e-8 -1.1604688074142703e-7
-3.3450463106082564e-19 -9.976314278245104e-18 4.4416039233510605e-17
-7.399731448892256e-22 -3.039690227505037e-22 2.9895459635888138e-21
-5.9926572778732755e-18 5.441529123452938e-17 5.721921020515489e-17
-4.0790030227568126e-18 -7.41553574611858e-18 1.3079194123655748e-17
-4.2881018697871705e-11 1.1340370604918284e-9 1.0622240796615393e-9
-4.7439681349188735e-11 4.632936805276052e-10 4.95251890930477e-10
-1.465298740210718e-22 -5.442225020766096e-22 1.5185924633002703e-21
1.3307753448422572e-18 -6.218804333778888e-18 2.1835417449624193e-17
4.163076865062101e-19 -1.2326570438015701e-18 2.1049272979026e-18
1.6870361047064635e-18 2.40121806282224e-19 1.0119441514011378e-17
6.189406842100725e-19 1.4789358783508543e-18 1.961752838938321e-17
-9.702180066184424e-19 -1.1463513423281893e-18 2.2118256718502272e-17
-1.1725622837997144e-18 4.689542185390767e-18 -3.511430795430469e-18
2.8672592059993975e-18 4.2446129436167665e-18 -4.674691145353547e-19
5.607471728890013e-19 1.6506788800315602e-19 1.8818506994285145e-18
3.1925615964629747e-19 -3.1258118603380384e-18 6.1624960677387346e-18
2.2476235533091045e-19 1.4877194236688993e-19 -2.6564698183190403e-19
9.521466180541662e-20 -1.7557093964703526e-18 2.4129086011827635e-18
-2.0076066158970675e-19 -9.854912424284475e-19 1.283079845567501e-18
-1.2152668522168402e-17 2.1872187571345106e-17 -4.10515571019162e-17
6.527070068707952e-19 -9.58289683948921e-19 -4.598463676534893e-19
5.327295923076187e-19 -1.5224718372072953e-18 2.651547792548284e-18
-2.3993219508544595e-20 -5.546689995412614e-20 1.0445970452950079e-19
-7.045299072035247e-19 -2.2353023086889996e-18 5.477878347333646e-18
-6.099626346022053e-20 -2.7634924549962115e-19 6.007536786060275e-19
2.320451268599739e-19 -1.332078154775208e-18 2.785890866190858e-18
-1.154553490682007e-19 -1.7725431934350413e-18 5.154776633275537e-18
8.179229907465181e-21 -8.892388111890536e-20 1.8977958609120534e-19
-6.888273322135397e-20 -9.184950687354148e-19 6.111294768099794e-19
-3.3323574267487308e-21 -3.0778292784656626e-20 7.663111218771721e-20
-6.207045085568917e-18 1.046096205179435e-18 5.434078250328754e-18
2.5997787638592657e-19 1.4109159411088816e-18 1.9832276555710827e-18
-2.2286394617829384e-19 -8.874871768814171e-19 1.7317186518209942e-18
5.959244189154011e-19 2.2317895288894805e-19 4.795186543154515e-19
-1.7051524805492356e-19 -2.095903618950671e-19 1.9014291315686815e-20
-8.633503063744904e-19 -1.4804871892205025e-18 3.3582925524404364e-18
9.872428268158037e-20 -3.111097405914442e-20 4.578486978663838e-20
-1.6298501798962378e-17 4.8214880634534174e-17 9.584110429001939e-17
4.2073147763929794e-19 -2.6866011182663723e-18 5.3541597262149936e-18
-1.1475645256719277e-19 -3.8633862287389587e-19 7.333760293460794e-19
-2.6221313909120058e-20 -2.1563938673883517e-19 1.83071465955475e-19
-1.5675778122563873e-19 -1.6739434225038692e-19 1.2506585829693009e-19
-1.08461133400975e-20 -1.2644554864783991e-20 3.0589169917722405e-20
3.503714410551357e-21 -6.083580443491399e-21 1.0004334321957895e-20
1.103142038202567e-20 -2.9403399151324683e-21 8.807313052064054e-22
9.027896037805748e-21 -6.743994053209784e-20 -3.246984369375579e-20
3.0678941217123243e-20 9.194276446168995e-20 3.4590664400175005e-19
-1.0908438335286897e-19 7.53434934222861e-20 9.460805614723812e-19
4.2803182496374257e-19 -5.053809494694795e-18 1.6572311673001488e-17
4.895702420374413e-19 4.2004481648590616e-19 6.793822639305734e-19
-9.003471416740874e-20 -5.2672028435154167e-20 1.844965721478217e-19
1.8682870146335268e-19 -5.748979845423291e-20 1.1984693304723996e-19
2.493593268883784e-10 -5.88537299055357e-11 1.6176940747925039e-9
2.330575329407725e-20 -8.778677631197115e-19 1.0781786792191898e-18
1.9607135943509024e-21 2.2402494416878933e-19 2.9561896719822805e-19
2.4890409776963574e-19 -1.480721537606632e-18 1.5037437235871908e-18
1.4640694326042314e-18 -3.9564499487222326e-18 1.1818103509961364e-17
9.315525901286412e-22 -6.4512160923637145e-21 1.1427732963560072e-20
8.907409941075443e-20 2.2477230664322098e-20 8.083648492442006e-20
-1.8596875168276578e-11 7.465737052040405e-11 -2.0145383341458266e-10
-1.0676467008513906e-21 2.1698683230163066e-20 -9.292784786024736e-21
2.517338053790839e-20 -1.466281332673283e-20 7.55218858146184e-21
-3.8067654509565733e-13 4.791554290074103e-13 -3.2326491565069933e-13
2.6409914622877372e-20 3.273065025813164e-20 -6.887398127117165e-21
-1.0985467220981466e-15 2.2603861624217662e-15 -4.626904015277866e-16
8.299006956845847e-16 3.105029431023968e-15 4.2326759614796884e-15
-3.5660152477960497e-16 2.0392334204008506e-15 -8.965496145447309e-15
-9.479712297822021e-20 -1.5393330203788477e-19 7.023620716842336e-20
-3.762587224954841e-21 -1.3049214286819106e-21 2.598902223372675e-21
4.426178830199003e-23 8.439282902852316e-22 2.5475737471056682e-21
6.899622254783397e-20 -2.188916512033214e-19 3.0606194611471926e-19
8.297898527043069e-20 -5.430244088819865e-19 1.0469884528998341e-18
-1.3377091788666675e-20 -1.1475106867956367e-18 1.911229751064203e-18
-6.983041244007176e-20 1.264508813051466e-20 3.377866720197204e-19
-1.0354759996119729e-20 4.550054278012451e-21 1.1711521764395468e-19
-5.3635198418158896e-20 -2.0454057037839025e-19 3.3983623760614684e-19
-9.352428986856564e-21 -2.1162627514370867e-20 4.616732096647175e-20
4.59215766966136e-21 -1.8762709458158292e-20 4.231666816618672e-20
3.5601844975881823e-19 -1.845528767956696e-18 3.721397514328043e-18
-8.953266856593188e-20 7.278875284111645e-19 9.425296997795112e-19
1.985637544957919e-21 4.0547504662880843e-19 6.531263822360951e-19
-2.6400166892285688e-20 -4.4313530295298963e-20 1.4836982481011722e-20
-8.21097513106193e-15 1.0962077133900155e-14 8.177684506649919e-15
-9.179177074323308e-21 -2.1849861347728055e-20 1.3200833863911458e-20
2.9851311104338746e-7 -1.2861452358378786e-6 -2.931183426770144e-7
7.434688708473691e-13 -1.615941407495585e-13 5.993599023966366e-12
-3.055958548071828e-20 -1.1902059731684064e-19 1.9965432184086577e-19
-1.643919362057867e-18 1.3386440336132436e-18 3.080425339063411e-18
-2.205889145283717e-20 -5.60040869070239e-20 1.4375541152776547e-19
3.784577931576588e-21 -6.242062496519795e-21 1.8734369023390565e-20
3.0286793807028127e-21 -8.500529951168694e-21 2.721178754043805e-20
1.8789936247425714e-18 3.0311521463787574e-18 -1.1720204597779192e-18
-2.9916173300535388e-21 -1.543924892619744e-20 3.3265069960367874e-20
3.393145608559882e-21 -2.8749510501794696e-21 6.041812874938935e-21
-3.255416333466693e-20 -8.166368156364791e-20 1.4253637218260188e-19
-7.377399394400107e-21 -5.298698533580323e-21 -3.0366295542174383e-21
-2.4977863761092572e-20 -7.742136102689843e-20 1.5703647526172266e-19
2.2251489165773685e-21 -2.8172396565697357e-21 5.257991392703196e-21
-4.836812228856866e-14 1.0092938513566287e-13 -3.3077728611461907e-13
-1.7916064903161764e-16 3.317330829563594e-16 -8.096033904492262e-16
-5.730118873820565e-17 1.6786859824234043e-16 -3.5343283202389285e-16
-8.969973199964781e-21 -5.680491850800185e-19 1.912035129888323e-18
-2.13129307049989e-19 3.9818684002052853e-19 6.5236037690920775e-19
3.118367540674383e-22 1.0265799633335743e-19 2.565715265664904e-19
4.487119739190673e-20 1.3687671373051154e-19 2.6035505097976795e-19
-8.729837015868529e-20 3.084856267012744e-19 6.1909949205822045e-19
-3.4990876893034648e-22 -2.8969303789236175e-21 3.497564911699467e-21
1.402021931027107e-8 -7.270161381749014e-8 1.3057319275478591e-8
2.8086552206733427e-9 -2.074634084608049e-8 2.098609216671515e-8
-1.261373617424635e-20 1.4164363694881465e-20 -2.3463476057972027e-20
-3.8731793442435063e-22 3.0050490713894797e-22 7.466454496383713e-21
-9.632954935563213e-22 5.204437830137435e-22 1.9911504219441906e-21
-3.160482988660325e-22 -1.0725504737004976e-21 1.612284756687756e-21
1.9279205451970443e-21 -8.576048982406681e-21 1.9967721483616368e-20
5.525733232885647e-22 -5.666113492525105e-21 8.150676756688275e-21
-1.0499293129667044e-20 4.412328641384354e-20 8.992329188363145e-20
-1.2059725241975965e-20 2.3435623578376598e-20 5.2720073962616866e-20
4.272278654885238e-24 -1.594004740281638e-21 2.7880363848181583e-21
4.9051193079951714e-20 -3.157945219354291e-19 6.304415933349346e-19
-3.366056525805473e-17 1.5774330344103116e-17 -1.166606405173823e-16
-2.4777331950480026e-21 -5.4887939898989116e-21 9.871942558028989e-21
-1.632604343926106e-17 2.138799495633261e-17 -6.087504872068797e-17
-4.744803986018407e-23 1.3770531751894918e-22 1.7736305250443256e-21
1.9315233753261156e-21 -8.55916833149948e-21 1.1474107932731175e-20
-6.517534190329722e-22 8.903923725077314e-22 9.879279048711952e-21
-2.6895172322725514e-22 -7.831787506354332e-22 1.0635671632192632e-21
-7.964503386192714e-22 -1.5887247338203836e-21 1.7557631615246033e-21
-7.801614611854744e-21 1.1337170853228677e-22 4.931648764026046e-21
-9.581513981555095e-21 9.791339774106363e-21 -2.8596211037990283e-22
-1.1092552030187193e-21 -2.1273345779614748e-21 3.381294988187939e-21
-7.613768902483741e-22 -6.26802656699419e-21 7.997966009554507e-21
-4.701565948526169e-22 -9.588059199040944e-22 1.0744416896711925e-21
3.2290055623821285e-22 -2.9047501407258798e-21 2.939643825003548e-21
2.3780278522133787e-22 -2.9189274212803186e-22 1.1566885490758625e-21
-3.874150244859621e-22 -4.85911787026828e-21 6.737171410187219e-21
-8.21842616210976e-22 -1.3818443997141765e-21 1.3843094023983715e-21
-1.119958016709196e-22 -3.2825030110161435e-22 4.8670419380373175e-22
-1.1875729471767766e-15 3.404669288978161e-15 2.5617453282394754e-15
8.746900587730794e-23 -6.405827462679645e-23 2.15989054437359e-22
-3.244775078153219e-23 8.867967943065819e-23 6.180306006692188e-22
-2.551604552611604e-17 2.6300642358250205e-17 4.934734357283476e-19
-3.4157697849302745e-22 -3.894214446363822e-21 5.070746814832544e-21
8.517418766318322e-23 -3.523453358500972e-21 4.088181249306944e-21
5.725884944467135e-15 8.528767071204619e-14 1.2498953760308441e-14
4.595119870442839e-16 7.81967465038843e-15 6.049680443426397e-15
-1.408353330982858e-22 -9.24671258259027e-22 2.3680021473016783e-21
-5.70655766564983e-12 1.8604348415993513e-11 -2.6616817868249576e-11
-3.1402718957137975e-22 5.32020701113553e-22 5.299189773945528e-22
-1.0872793758045483e-22 -1.5918828574924852e-21 1.5849722874345724e-21
-7.122980455438003e-18 7.561439663193819e-18 6.739260971288561e-18
-8.181102648553646e-18 8.484363684899626e-18 -1.1813628802260057e-18
3.497391591972506e-21 4.244921503197852e-20 6.706752193980026e-20
-1.728991376012597e-22 -7.332912055881812e-22 8.081694141712158e-22
2.1680574284963476e-19 4.825960757972475e-19 1.1219824259931807e-18
2.1114334535260915e-8 -3.217457436269861e-7 -2.035892570270026e-7
-6.052931912212059e-22 -1.187996651084844e-21 4.715471642978834e-21
-9.116827932588636e-20 2.5923464917443456e-20 2.3960006341573547e-19
6.402035722856297e-22 -1.3834935811200088e-20 1.8832893940909728e-20
-2.2901067923419834e-14 2.6531091790993067e-13 -1.323234801968036e-13
-1.0741843729025706e-13 1.3417199935162882e-14 -4.715161690145441e-13
-1.5033547157161195e-14 -2.06728201796285e-14 1.2179645621088146e-13
1.3733382541492863e-12 -1.4400305311914909e-12 8.216182716490993e-12
-3.815960844731442e-20 5.013346393064859e-21 -2.9565172457256106e-21
-5.947796565361128e-21 4.380724747162118e-21 9.729359722664774e-22
2.432885091813491e-21 1.947863609698455e-20 1.8718045598781456e-20
2.871202816868868e-20 -9.234105670813284e-20 2.0364604236885002e-19
-1.2986644151487234e-21 3.270003856816902e-20 4.0220995464455976e-20
-2.3840909113192193e-21 1.2439723254213812e-21 2.142441743436431e-21
2.878526158219024e-22 2.0082865414028163e-21 4.607065116368231e-21
4.2137702764681684e-23 1.3438863352783565e-21 1.8124643016625278e-21
-6.578657605143526e-22 1.6790281850260153e-20 2.253919569018961e-20
-2.932508331597061e-22 9.721969215756874e-22 9.977707158733084e-22
2.0000002188433025e-23 -2.5937290854725206e-23 8.751744626211607e-22
4.9547567066760884e-23 3.4216798002800846e-22 8.950974527491723e-22
5.804791872591832e-22 3.3739535113597813e-21 4.470883800263328e-21
1.0296495192260947e-20 4.184498670392125e-20 4.1642559352312635e-20
-3.129315282967154e-22 1.0121261333515658e-21 1.086917133539631e-21
1.4903079118785783e-24 1.0008690498067792e-21 1.6039660263102662e-21
2.601829371203743e-22 2.9281349351269464e-22 1.7273040825102315e-21
-9.643718731428718e-21 3.913422733725048e-21 4.592147666671272e-22
-3.356607703270002e-22 -4.800733652657298e-22 4.820276049835496e-21
5.918362744296123e-21 1.8466016557176558e-20 2.0605913914291168e-20
1.1578587431360523e-21 4.130849875482897e-21 5.514946610218764e-21
7.656436169196646e-12 -1.4649736588004294e-10 7.19704084734492e-10
1.2665594437434752e-15 1.4117249466602206e-14 -6.529742544884212e-15
2.1028673968750196e-22 6.786451179649456e-22 8.631236431240418e-22
-1.6801963712791394e-10 -1.1063533999473659e-11 8.965164566212719e-10
-5.654348678737894e-22 1.348596254866203e-22 7.447070512295962e-22
1.923481648624714e-22 8.200275669002157e-22 2.0653578280207553e-21
-2.1865901657824083e-22 7.50871727623408e-22 1.4852226676454903e-21
4.393670564536803e-22 1.213012066213349e-21 1.47193524779566e-21
1.5641157286039317e-22 2.18596137037621e-21 2.1909456711169384e-21
2.0876210143585525e-22 4.5342956692450104e-21 6.240555103158963e-21
-9.335489965403942e-22 4.1968661815006914e-21 5.2042368826630076e-21
6.381905579036947e-20 -2.1086417201792527e-19 6.038563100584179e-19
6.737463875953126e-20 -7.23458016152148e-20 3.5232967629254887e-19
3.631897784169277e-16 -1.7696250777166187e-15 6.274166934849065e-15
-6.540402719262442e-23 8.12840011115799e-22 7.7092246407751965e-22
-5.497233536034316e-23 1.8953821793410663e-21 2.3022050120164353e-21
2.932678020942095e-22 1.2318071533675175e-21 1.4239750372692086e-21
-2.559807363803106e-21 1.0765222717545175e-20 2.313530065679214e-20
1.907133940515995e-22 2.692368844337286e-21 2.750054646175185e-21
-3.1881216203325517e-22 2.664249583527154e-21 3.0294208373751104e-21
-4.535558304214363e-19 -1.9725298875274224e-18 8.005730462058402e-18
-1.984779714356184e-22 1.8472079895533844e-21 2.2472435682050154e-21
-2.8517152256175724e-22 4.99176739785809e-22 -8.518887413429231e-23
-6.776286188731662e-19 -8.574562193902678e-19 4.05005643405316e-18
2.5474225854857294e-6 -8.517855850654308e-6 -3.038637442844954e-7
-3.012837249899605e-7 -1.0272345209573993e-5 1.5867573711737728e-7
-4.74670129186621e-8 -2.223161276113869e-6 -5.396588932434096e-7
5.667558622102931e-7 -5.380270620658263e-6 1.1836852414022444e-7
-2.8178911987465434e-7 -3.1598531563276407e-6 3.147678414475965e-8
-8.214847687939325e-19 -1.815017896519379e-18 5.25685243385035e-18
-2.33447665885817e-15 4.393901370659523e-15 -1.907521898526196e-15
-6.670198256090719e-15 7.0200115513508036e-15 -6.821638972427957e-15
-1.2481305169148027e-11 1.0597431209800638e-10 2.679513299828688e-10
-1.5459860798653035e-8 -3.7890477989785546e-7 -4.7635184415469825e-7
-7.259830049921613e-8 -4.815090794057051e-6 -6.19869004567738e-8
-1.1526271689777002e-7 -5.770933611397152e-6 2.2457332538592486e-7
3.6876813286111384e-11 8.29517010961685e-11 -8.133071315302294e-10
3.094310903860926e-7 -1.8598603821516823e-6 -6.048216514827236e-7
2.2996010108588932e-8 -1.653734361802816e-7 3.391541639873294e-8
-2.827899905618554e-8 -8.179853472703992e-8 -2.2220373122809403e-7
3.704504839699484e-8 -7.72525630042412e-8 -1.9835185289209276e-7
1.2220077189481663e-8 4.2954941564478923e-8 1.139714561201344e-7
4.105543930724207e-9 1.956665822614824e-8 1.995816148240681e-8
4.526156619971524e-7 -6.028887382332931e-6 5.730369302486691e-7
2.263222599795484e-7 -1.9279784544566126e-6 1.2926551307529807e-7
8.23405414243873e-7 -5.445455199702393e-6 3.5374945045144724e-7
5.252308211985921e-7 -2.260107892344889e-6 -8.423062245337221e-7
-3.92719469653265e-9 1.8125684408867152e-9 -3.547694598767744e-8
4.101417133021518e-9 -1.2084356392962525e-8 -6.312804636668778e-8
1.73243944938779e-7 -2.6117524478960064e-6 -5.1752663751445334e-8
4.988457809975525e-7 -5.338633685110867e-6 -4.819893202951355e-7
-2.2555866582017347e-9 -1.990962574026168e-9 -3.343880748806611e-8
-5.0906654852629945e-8 -1.1718009309586252e-6 2.339504740942981e-8
-4.708137957915033e-7 -1.7242991676578149e-6 -6.557041618876777e-7
1.2841180150760132e-7 -3.12609388813779e-6 2.286185902837788e-7
-1.0653842054008312e-9 3.8922519617427075e-9 -3.510266566130907e-8
-2.776116969980431e-8 -1.563699213197161e-7 -2.820078464390616e-7
7.458802509894143e-8 -1.6525836609458437e-7 -4.955389846050995e-7
-1.3073729877812515e-13 2.300216647338836e-13 -1.3884310374730838e-13
-9.602265259518021e-11 1.1064659694968734e-9 -2.991555506226959e-10
-1.3425503826264836e-20 1.111166382187117e-20 3.3837545000340844e-20
1.8647562628993516e-9 -4.212021259172495e-10 -3.499345251568547e-8
1.750177331994604e-7 -5.313121126439713e-6 5.84883764606694e-7
1.7426734312897227e-20 3.15057740598344e-19 7.10388145153254e-19
-1.8329396956259512e-8 -7.322677120299662e-8 -1.8934259384638289e-7
-7.448393653450303e-11 -4.751786396431128e-11 -2.2753975479167533e-10
-1.267353389010397e-9 4.703676703880774e-10 -3.5327608622121963e-9
-6.121225540985872e-10 5.550840381856471e-10 -2.5422445843980153e-9
-3.0144472729421284e-8 -3.6436092536634124e-6 3.920476154474217e-7
3.947982000410416e-10 2.168252655979987e-9 3.5195863393719413e-9
-3.495210301403271e-9 -7.907249492614277e-9 -4.503084263804041e-8
2.022280836345538e-10 2.6574824423147184e-11 1.7017310903793307e-9
-6.001691269151853e-9 -4.1029608022965914e-8 -1.727750523197072e-9
-1.8672828269750205e-9 8.691025341464303e-10 -6.1111203614279365e-9
-1.2663957038659626e-9 1.624135866683643e-9 -1.0392058058782857e-8
-6.346336677806652e-20 1.1518035153961998e-18 1.8591308527549758e-18
3.036275576955599e-15 -1.4407379811071796e-14 4.7985573817993237e-14
4.209514788301561e-10 1.558844265300568e-9 4.608658614728315e-9
-1.5123033894591517e-12 -6.677457197919687e-13 -2.3805802645476943e-11
-1.6529522578163138e-12 -1.1935610755147338e-12 -1.1510157474748664e-11
-2.479918260054352e-7 -1.764324337212335e-6 3.638235017946106e-9
6.457986000046874e-8 -8.845779473339402e-7 -1.0453747502647565e-7
-7.549548686421034e-12 -2.1461782139636987e-12 -4.9966437144154666e-11
-3.4014720867500205e-11 1.5179865485801493e-10 6.439793324504329e-10
-4.8440693148288345e-16 4.5661192626728985e-15 1.6323615989250545e-14
-2.4036087377072323e-9 -2.491428305170746e-9 -9.053609211407283e-9
-5.093836982608185e-12 2.518467438381419e-10 -9.157411836568883e-10
-9.734530274326806e-11 -1.5875739620413176e-10 -1.4995198207381868e-9
-3.957911607967054e-12 4.4318179447265175e-11 -7.026686596325044e-11
2.7865353686699226e-11 -6.722049723518029e-11 -1.7136438884560432e-9
-8.881956309745411e-11 1.009237960377222e-9 -2.1565625466807685e-9
-9.612951766073055e-11 4.3953578426678127e-10 -8.900950366837403e-10
-5.223178093117552e-11 1.1078501833744085e-9 1.4015264730127304e-9
-1.2031424292028999e-12 9.538535494533157e-13 -1.2939067444864327e-11
-6.737347375470368e-11 -2.4052636312059434e-11 -5.042777961577195e-10
8.595060343652114e-12 -2.0277479799515255e-11 -8.208980277726661e-11
-4.2411297376613934e-14 4.3454789862925885e-14 -1.7335032787219262e-13
-1.2228512613422765e-14 2.1254844228699037e-14 1.699070698820467e-14
2.428079658579801e-12 1.564578523983368e-10 -8.645044888093442e-11
6.978782684162105e-12 -5.311010287524036e-13 -3.1674490682401716e-11
-3.551400077421696e-17 4.460247234371377e-17 9.225956115675708e-17
-2.569548875745852e-20 2.385345371429894e-17 2.85821058009161e-17
2.9557246120201275e-12 -8.181527677493791e-13 -6.299509737201531e-11
9.5844437021095e-10 2.8625778516231616e-9 6.652201622492842e-9
3.196464177759819e-20 1.7017207349739064e-18 2.139192298179488e-18
-1.4250579512863902e-11 -3.1393696922284083e-12 -2.399892230657502e-10
7.642563803917881e-13 7.169522306816033e-13 -1.2682300842056438e-11
1.2225016698313697e-13 -3.5682946680183664e-12 -3.324106907000345e-11
-1.204995297782471e-14 7.845261720591975e-13 -4.1666270316711655e-13
-4.6304743645479556e-11 4.0644166766587354e-11 4.6047471101765115e-10
6.338671227490486e-11 7.110762976515262e-11 1.6074381937629686e-10
6.957340865320456e-12 1.9020532076073545e-12 -6.190797520567427e-11
-7.255481686631763e-14 1.7835571208129087e-13 -3.471993894550678e-13
7.203804899711683e-14 2.362817863359039e-13 -7.196822505406413e-13
-1.5819320141526233e-11 7.596235293824671e-13 -2.5018227563468017e-11
1.5153141328045659e-12 4.585487502322061e-12 -1.0193388346496464e-11
2.345834799191616e-12 9.684625523142617e-12 -8.2724951969381e-12
-6.446148126087508e-13 6.044287443701718e-13 -1.7232785251185694e-12
-1.8961127975601755e-12 2.5000747388177672e-11 3.518335978201733e-11
-2.2350281327125693e-13 6.181236393686467e-13 2.7345496630830713e-13
-3.688274184250393e-13 -1.6401635535431262e-13 -2.187309207316741e-12
-5.035009368333931e-14 2.6377609651026163e-14 -8.671863146151551e-14
-4.03654958212597e-14 4.4740079719847136e-14 -1.460109479460693e-13
-4.542203743723162e-11 1.4584229837641415e-10 -2.4335724280760763e-10
9.527311034743318e-14 1.5603294660837983e-13 -4.0072862859995774e-13
8.895505880891212e-16 -1.7446539006587227e-15 -3.677156225283652e-15
-1.4788139732751021e-12 2.1822516294512772e-11 -1.5267759751113492e-11
2.718251725532252e-13 5.038694489674751e-12 -1.3704598602530281e-11
-5.190016344885681e-21 6.821227030282156e-21 7.186790414593565e-20
4.039502651968638e-12 1.459291913197372e-11 3.1167052575930284e-11
2.0263848530236264e-11 3.520116530072421e-11 6.684062611693172e-11
-5.172654729879084e-13 -2.5322908515742875e-13 -2.6882460311287226e-12
-4.1288029095586656e-14 1.8556027355995868e-13 2.273413017059412e-13
3.169428298087873e-20 1.3020219678556855e-19 1.8159634481919971e-19
-1.1014652279894121e-14 8.223047412455461e-14 7.329749613209805e-14
3.417578818667111e-14 1.107469744703775e-13 -2.32065362555635e-14
-1.1248983342625095e-13 7.412942122473473e-14 -2.4602730627739563e-14
-4.141684587495664e-14 1.2442933518159266e-13 -7.615765439384859e-13
-7.393457864294964e-14 5.35416384900287e-14 -4.1738829788868437e-13
2.9332395039861354e-14 -4.7735528600376486e-14 -1.145212893088697e-12
-2.2329247674688557e-15 4.276274725483593e-14 -1.4560300868481598e-14
-1.9249444404869497e-15 3.5764782046847e-14 2.8289500137270656e-15
2.888562174433288e-15 4.7201030356997117e-14 -4.078056185643533e-14
1.0869558360774806e-14 3.0928658699959136e-14 -2.3126832148297022e-14
-1.303516455278262e-15 1.2702131351429337e-13 1.2086058113577277e-13
-1.2981618181287802e-13 -3.045915421687694e-14 -5.686287600781904e-13
-4.385474434304457e-14 2.052176905712221e-12 -4.0083246770214815e-12
-4.246000863817888e-15 8.991911639919622e-14 -9.685492597850075e-14
-3.1349428981449925e-14 9.592407572186133e-14 -2.9220324534618204e-14
-6.029663557281e-14 1.2087633900801015e-13 -2.036391951381951e-12
7.207161525058746e-15 1.9732371107005243e-14 -8.557595292137224e-15
-5.040498181146258e-14 2.9236249032712936e-13 1.777185731588904e-13
1.2436348290212582e-20 1.0356061646095509e-20 1.133017108337776e-19
6.476730813792667e-14 7.83887608243041e-14 -1.0564354971881554e-13
3.4450806341725474e-17 -7.236931321644299e-17 1.3640300033720169e-16
-1.6030594730551918e-15 4.732521437496779e-15 -1.1199282920940545e-14
-1.3291864800119317e-14 4.301522320844495e-14 -1.158888212544918e-13
-1.2970773490700966e-14 -5.034618086607372e-14 2.4911134018713787e-13
-2.0925977383839886e-15 1.270846293769057e-14 -4.373409194273016e-14
4.660466991056346e-15 1.2934154061743966e-14 1.6431477913866507e-14
-4.949315097101309e-16 5.533020105253665e-15 7.576535924168918e-15
8.245360199703636e-17 -2.729528655037167e-16 5.676789577887301e-16
-5.63884151394609e-16 2.5150130714337187e-16 -9.413062989321458e-16
-8.382506497458514e-17 8.22537979691429e-15 -1.1174597234698506e-14
-2.690287866458057e-16 6.337925456349671e-16 9.75932610182037e-16
-1.5431784721474694e-16 1.2989983260962026e-15 1.8929301321094e-15
4.849045646009905e-16 2.4864587808907234e-15 2.715422600821948e-15
-5.00758651852653e-17 3.7427566197266225e-15 4.896584503812658e-15
5.428936377035642e-12 1.787222023666651e-10 2.5504200737220636e-10
-1.5713907003144918e-11 1.4025140763648777e-10 1.6997834247648961e-10
-1.5773761613158726e-15 7.081138047102695e-15 -2.3236346980873344e-14
2.410657064392077e-16 2.215249813685477e-15 3.136023004573971e-15
-5.987824249884692e-16 -3.442406113653791e-16 2.4589076034234354e-15
2.4710858756212685e-7 -4.3624131599778715e-6 -2.1596576464447786e-7
-1.936808744326039e-17 6.766370119670918e-17 8.834668883984527e-17
-3.9044764628754608e-16 8.088196653983494e-16 -4.42703166963494e-15
-1.1466755607032485e-7 -1.6159946546645936e-6 1.145773586850468e-7
8.247367808607263e-17 6.029985655739104e-16 6.255262023554371e-16
-2.1383076464442687e-10 -1.7370494575182625e-11 1.7589087881657335e-9
-1.2006563863314739e-17 4.388797564023572e-18 -1.183750636355654e-16
8.164467820209509e-21 1.2903748777682121e-20 7.236062861379489e-20
-1.0406531328402042e-20 2.914519074166284e-20 6.557040946385466e-20
1.221461525550443e-16 2.0092274610513175e-16 3.7273091727521687e-16
-2.2846148974623435e-17 1.0472459455240847e-16 1.8249818162797485e-16
7.339147694551587e-18 1.5485314913974232e-16 2.223458116564668e-16
-1.7517955501793461e-15 -2.9379420619692226e-15 1.0399213130669167e-14
-2.5825448042937785e-15 1.806204952590476e-15 7.119227472797534e-16
-5.521028880440027e-17 2.5033479289130227e-16 -4.779685901089234e-15
-4.811361855563649e-22 2.543160133476361e-21 5.713895329633154e-21
4.007216518160017e-17 2.1077112857694863e-16 2.91407642944807e-16
-7.51030635917186e-17 2.5550115367924075e-16 1.0641165647346985e-16
-7.327293337188805e-18 1.4842563365282666e-16 8.285385524699355e-17
7.904647866315846e-17 3.303699635717422e-16 1.7641075599430504e-16
-9.680164011282722e-17 7.304775674236813e-17 -3.1021146431883776e-17
6.185015745243317e-18 3.683575901287039e-17 4.5808632300665454e-17
-2.5020821452746966e-17 1.0431293823087757e-15 7.182181726894095e-16
-6.477072926773414e-17 4.2504488386718446e-16 6.075217503712113e-16
5.948533810328402e-18 2.121708417423516e-17 -1.657800953632362e-16
-6.764992119503943e-19 -6.485420904396047e-19 1.075347280593756e-18
-9.145737806875836e-20 -3.4431448973765053e-19 6.812548310348558e-19
-4.837465171696442e-20 -4.174831394627853e-20 1.8053877312698477e-19
1.8188803037484362e-20 2.051699130260139e-20 1.7725165122461488e-19
-1.3706158889611315e-18 5.228254340705151e-17 6.824588728201161e-17
1.2404570439055618e-17 1.1759499989966302e-16 1.0555160354637295e-16
-3.267740320484965e-17 3.637796604552268e-17 -8.137907692551947e-17
3.835407461555665e-18 5.7751140385178265e-18 -9.7400870817369e-18
1.922341303769547e-16 1.902688471574478e-16 -2.4944024574227642e-15
-7.690226790174582e-14 -3.903900953714739e-13 1.030355965898567e-12
-4.248303392707594e-13 -4.757711273592198e-12 -2.026594002481513e-11
-3.3549980038167206e-18 2.184453639028943e-17 2.8719816503312454e-17
1.2600503591234898e-19 9.374466741240873e-20 2.1781083547768014e-19
-3.3468709460615453e-18 1.247897168810746e-17 -7.588587682263487e-18
-1.731309454787151e-14 1.8911323851328998e-13 -4.0005548382288695e-14
-9.097994109633043e-15 3.428727426648599e-13 -1.4935315385500582e-13
-8.362824517594282e-18 2.7468544368271126e-16 2.2170612757365788e-16
-1.544615029907696e-18 3.1009034591819136e-19 1.5992008825237685e-18
4.43054160126963e-19 4.28924307554164e-18 5.426865964998555e-18
-1.5832558511766979e-18 1.3360920159171654e-18 -2.0184200213690103e-18
-3.401634137571563e-20 4.05349064444082e-19 7.211858975073144e-19
-1.4396916925963968e-21 1.3181791362333804e-19 1.2646940807962952e-19
-2.603655541804234e-20 2.6483537843698564e-19 2.6649475629942343e-19
3.6463579995419263e-19 1.2466530550781437e-18 1.7983954416736086e-18
-2.692622085076408e-18 1.160603985842607e-18 -6.4550707054577606e-18
-8.926194742458258e-19 3.44821868481929e-19 -3.945074697318985e-18
5.750326253507236e-22 6.079965883598948e-19 9.615980514862334e-19
-4.797426103254392e-21 1.7928257382267378e-19 2.5613711657667914e-19
-5.358205641111066e-9 -3.726673694501742e-9 -1.9998461515525513e-8
2.6122903124474488e-20 3.2179862489650673e-19 4.710226804388421e-19
-5.848143375489865e-20 7.648912088322289e-20 1.9748119540233676e-20
-6.813272662898043e-15 7.502053201530867e-15 1.2012165944957358e-13
-3.8004194758190804e-20 2.3587231828339188e-20 4.579914103227913e-20
9.055865557342109e-21 2.435757825068199e-20 3.103445940598209e-20
-2.8246948672957706e-20 1.7866373604985582e-20 4.1432265954027666e-20
2.0595682459739896e-20 5.497842226918485e-20 9.599787432073089e-20
-1.1225349883388856e-20 4.182866534506896e-20 5.2679826306695143e-20
-2.5337971326732815e-22 3.159458124323202e-21 8.32479467138773e-21
-5.027380779082414e-21 3.244938339552007e-21 4.2280896497948445e-21
-1.2178107906155063e-21 1.3884072786450795e-21 4.128131112984269e-21
1.6000676440338324e-21 -2.505308113047523e-21 -7.842542748909737e-22
-1.1184768161441752e-20 2.6173286982359576e-19 4.074419139090378e-19
3.370614831178864e-20 1.5598998236797784e-19 2.2451656551846185e-19
-1.918010827580426e-21 2.3261495873882913e-22 2.0833229752050417e-23
-1.2088077372193842e-21 1.541334001506392e-21 7.756284066649571e-21
-1.1651403824742539e-20 -7.752641086962291e-21 3.438754902691106e-22
-7.063935902130644e-21 9.06870991549739e-21 6.231927340142586e-21
-1.5942016094634994e-14 1.204962928134647e-14 -3.326881092765851e-14
-2.046413830400489e-20 -3.113442067335865e-21 -1.0119372074495336e-20
2.402924768519497e-22 2.745038142830163e-21 3.487364431035437e-21
-3.0842276816666914e-22 1.7362425621669894e-21 2.8895225847530655e-21
-2.6778941071352522e-22 4.694667610653758e-22 9.07742676110772e-22
9.94821712614907e-22 2.8450765324235398e-21 3.307491866018497e-21
-2.1192361462599085e-21 7.941444495161032e-22 2.0558276075755776e-21
4.563653908549299e-22 3.856663904827625e-21 6.673537392762133e-21
-4.337134762105124e-22 6.013619215069676e-22 1.5194057727382961e-21
-2.115489933742292e-7 -9.281511399431684e-6 -1.018813648412913e-6
1.360541571971804e-7 -1.9859875475229365e-6 -7.177192934969083e-8
-1.0212613939776424e-6 -4.515944443297404e-6 -2.0060157684172164e-7
-4.962454620163008e-7 -5.699857481551575e-6 -9.689382088669338e-7
1.952938994164107e-7 -6.841511298197496e-6 -6.135967454306327e-7
-3.2809614024008287e-7 -4.871417790201848e-6 2.0296851700749194e-7
7.620476312368687e-7 -4.698453133300611e-6 -1.7276490170678144e-8
-9.950729164681939e-8 -3.1339629355911574e-7 -5.67742702526881e-7
7.340982367079458e-12 2.120844631397347e-11 7.75611954810603e-12
-3.945172082359296e-8 -4.591495339074269e-6 1.39570329095402e-7
5.899803335690626e-8 -1.1690389685969865e-7 -4.3839690923681456e-8
-2.1817179685627646e-8 -4.522059142722956e-6 2.5413612904781216e-7
-1.1918066920607327e-7 -5.052395977466841e-6 -5.008716444219005e-8
-3.5704557522610425e-7 -4.813842070927622e-6 1.9001283167500709e-7
-2.6412014866914594e-22 8.658351976576847e-22 3.512760843975455e-21
1.1180726207247338e-9 2.1658933536352707e-9 -6.550494652011057e-9
-2.272519791884788e-7 -2.6507894155301316e-6 2.7493253717918953e-7
5.168819664290186e-10 4.7803684566865045e-11 -4.514487890463738e-9
3.5721978178480495e-9 3.4202204730521524e-9 -7.216962256766299e-8
3.761966884648791e-11 4.241507072404149e-10 3.683444143618501e-10
1.0164584094153497e-17 4.0642226273500135e-17 6.784003609174973e-17
-6.253600524442074e-19 3.061152665257356e-18 -8.682138703788809e-18
-2.809424219118139e-10 9.267361118527719e-10 -4.31604645983019e-10
2.1819647888876132e-11 4.7651072196987625e-11 3.5821252486363155e-12
4.8262628852932e-10 -4.317971949200471e-10 4.809700392727168e-9
-2.1818010994586792e-20 7.353129641971688e-20 1.5737628705301022e-19
-5.2580420647166815e-18 8.639373873716226e-19 -1.5982030446818102e-17
-1.148501794069904e-12 9.665343843189245e-13 -2.0220118572162546e-12
-7.866349668758994e-13 8.924165199146634e-13 -4.892465561774349e-13
-1.2171190507807355e-13 1.3640340945797267e-12 2.5622397985775806e-12
4.725757452557782e-13 1.5114523866849217e-12 2.126485583702997e-13
-3.157845529704097e-13 -6.956989668786798e-13 -5.201727495219497e-12
-1.1733773336667247e-14 1.7089954961420342e-14 -1.95732969162999e-16
-3.741633882410439e-15 -7.77886096491101e-15 4.593921198719219e-14
-2.20375310071541e-13 4.862752868026459e-13 -4.537396269793088e-12
5.550463691091003e-21 2.1869447160309175e-21 -1.8889833328470084e-20
6.789532339487334e-17 1.50067201700854e-14 4.5141689433904954e-14
-4.035278300209034e-14 1.0123925534618779e-13 -1.9143055039709129e-13
-8.77670247914607e-20 -1.196832390573696e-19 2.674409205014755e-19
-5.940893173005725e-9 -1.7386827045849226e-9 3.023355139215159e-8
-1.045034604923217e-18 5.40811287774315e-16 4.489581030854445e-16
-1.731908028849363e-14 2.2482901126942775e-14 -2.1876316973554797e-13
-3.874812415010199e-14 -2.2769546344405643e-14 -2.665582387466606e-13
-1.6035394785392478e-9 -1.2166883957767142e-9 1.2328425572249756e-8
-2.1527807448316357e-16 6.840884619894422e-15 6.157195049164221e-15
9.646051773932233e-16 6.019987460242562e-15 7.359930677789845e-15
3.939504978993082e-16 1.8650973577256663e-16 1.1841584776938038e-15
-4.392153239840174e-15 3.287761917932925e-15 -1.0365215019201076e-15
1.0268015284806266e-17 4.2053044246487234e-16 4.984956095324946e-16
-2.62225563206666e-17 -2.2593842626371618e-17 1.2257611829203796e-16
-2.342493012765806e-16 1.2960197760618213e-17 4.1413742187131285e-16
1.7145020298655228e-18 5.409341313065537e-18 4.907590531887274e-18
-1.573082943089851e-20 -3.926795444092266e-20 1.31118584695728e-19
3.6412983723199055e-22 -2.1368853617012503e-21 4.136538308641372e-21
-2.936730078984375e-17 1.58028296361557e-18 -1.0294315399320197e-16
-1.055797242304499e-17 1.6914173798025741e-18 -4.361514226849445e-17
-2.6193643956079003e-17 2.5878788643243146e-17 -4.567064340378481e-18
-1.1829238805673147e-17 9.97525321032626e-18 -3.657484073463498e-18
5.413584074204542e-19 -2.788448453182043e-18 6.392028095938226e-18
-4.2922902054031096e-18 -3.0245151783259885e-18 -1.5354681296250783e-17
-2.78285325583635e-18 6.617764770866865e-18 6.19189622573235e-18
-1.4632073681109225e-20 1.3651223249385325e-19 2.810512179375537e-19
-6.492425489484112e-20 -8.077317397355367e-21 1.9028850961960247e-20
-9.544435973809571e-21 5.689029177228613e-21 7.585634950853244e-21
-6.032752128339212e-19 7.1757792018916525e-19 4.053649751652147e-19
-1.9426775490535448e-20 2.452719298440844e-19 3.512938120310784e-19
-1.411655749823128e-21 2.7223986604594858e-21 1.7481695051570836e-20
-7.551908852706858e-21 4.649514899660162e-21 -4.2437793447494785e-20
1.797074393915582e-20 1.3704973311881526e-19 2.4436544922450163e-19
5.0500347335009443e-20 -1.1693219383518912e-19 3.43175580625223e-19
-2.0072850457995117e-20 2.0925627575869663e-20 1.3750569401092384e-20
-1.3451760220918834e-14 1.4976678170005977e-13 8.944273552455845e-15
-1.1425146382629061e-20 1.5643808830703342e-20 -8.90661267642756e-21
-6.667804235593007e-22 -4.250100398254051e-21 1.1238444164913464e-20
-4.129033233610994e-22 4.237063988325827e-22 -4.365661294523614e-23
6.234627601071723e-14 3.4501462952237665e-14 5.066401670949617e-13
6.288800713229515e-10 -3.0792512356839534e-9 8.634244451953378e-9
9.612168952829935e-21 -4.7524931631602976e-20 1.512880216940655e-19
-2.741478210219576e-17 2.2916804348885916e-17 3.8718866125408225e-17
-1.0500310846496991e-12 2.7762071397418137e-12 -2.5268400777094012e-12
-2.1481029927024155e-9 -2.625986569729391e-10 -1.9550987180406268e-9
-4.4402356541716425e-9 -1.5663673284045788e-8 -2.32023116153376e-9
-3.1624528171968573e-21 2.3390751970317724e-21 6.6578895266804374e-21
-2.433966088011938e-16 -6.038962723073867e-16 2.2951388528294676e-15
-2.776486577096984e-9 -1.5974770122347867e-6 -7.185835402894645e-8
-2.8980549676263027e-10 1.5112689723910556e-9 3.964877030279825e-9
-3.992675009504712e-17 7.910008686097694e-16 1.1192161201639683e-15
5.806998659281444e-17 3.029442480329095e-16 2.953758225368826e-16
3.383383574153579e-11 -8.267580092157042e-11 4.873506479269109e-10
1.0834025591825455e-8 1.347935551893743e-8 3.5820122259922706e-8
4.5286753265929387e-10 3.9773346775782865e-10 3.6210305015922094e-9
1.993536091248866e-15 -6.324527987912239e-15 2.444819831656966e-14
2.4916519142274044e-22 -6.765987713763966e-22 2.6891621322037262e-21
