# vtk DataFile Version 1.0
Bar_TO_3D
ASCII
DATASET UNSTRUCTURED_GRID
POINTS 6348 float 
-5.0 -5.0 50.0
-5.0 5.0 50.0
-5.0 5.0 0.0
-5.0 -5.0 0.0
5.0 5.0 50.0
5.0 5.0 0.0
5.0 -5.0 0.0
5.0 -5.0 50.0
-5.0 -4.0 50.0
-5.0 -3.0 50.0
-5.0 -2.0 50.0
-5.0 -1.0 50.0
-5.0 0.0 50.0
-5.0 1.0 50.0
-5.0 2.0 50.0
-5.0 3.0 50.0
-5.0 4.0 50.0
-5.0 5.0 49.0
-5.0 5.0 48.0
-5.0 5.0 47.0
-5.0 5.0 46.0
-5.0 5.0 45.0
-5.0 5.0 44.0
-5.0 5.0 43.0
-5.0 5.0 42.0
-5.0 5.0 41.0
-5.0 5.0 40.0
-5.0 5.0 39.0
-5.0 5.0 38.0
-5.0 5.0 37.0
-5.0 5.0 36.0
-5.0 5.0 35.0
-5.0 5.0 34.0
-5.0 5.0 33.0
-5.0 5.0 32.0
-5.0 5.0 31.0
-5.0 5.0 30.0
-5.0 5.0 29.0
-5.0 5.0 28.0
-5.0 5.0 27.0
-5.0 5.0 26.0
-5.0 5.0 25.0
-5.0 5.0 24.0
-5.0 5.0 23.0
-5.0 5.0 22.0
-5.0 5.0 21.0
-5.0 5.0 20.0
-5.0 5.0 19.0
-5.0 5.0 18.0
-5.0 5.0 17.0
-5.0 5.0 16.0
-5.0 5.0 15.0
-5.0 5.0 14.0
-5.0 5.0 13.0
-5.0 5.0 12.0
-5.0 5.0 11.0
-5.0 5.0 10.0
-5.0 5.0 9.0
-5.0 5.0 8.0
-5.0 5.0 7.0
-5.0 5.0 6.0
-5.0 5.0 5.0
-5.0 5.0 4.0
-5.0 5.0 3.0
-5.0 5.0 2.0
-5.0 5.0 1.0
-5.0 4.0 0.0
-5.0 3.0 0.0
-5.0 2.0 0.0
-5.0 1.0 0.0
-5.0 0.0 0.0
-5.0 -1.0 0.0
-5.0 -2.0 0.0
-5.0 -3.0 0.0
-5.0 -4.0 0.0
-5.0 -5.0 1.0
-5.0 -5.0 2.0
-5.0 -5.0 3.0
-5.0 -5.0 4.0
-5.0 -5.0 5.0
-5.0 -5.0 6.0
-5.0 -5.0 7.0
-5.0 -5.0 8.0
-5.0 -5.0 9.0
-5.0 -5.0 10.0
-5.0 -5.0 11.0
-5.0 -5.0 12.0
-5.0 -5.0 13.0
-5.0 -5.0 14.0
-5.0 -5.0 15.0
-5.0 -5.0 16.0
-5.0 -5.0 17.0
-5.0 -5.0 18.0
-5.0 -5.0 19.0
-5.0 -5.0 20.0
-5.0 -5.0 21.0
-5.0 -5.0 22.0
-5.0 -5.0 23.0
-5.0 -5.0 24.0
-5.0 -5.0 25.0
-5.0 -5.0 26.0
-5.0 -5.0 27.0
-5.0 -5.0 28.0
-5.0 -5.0 29.0
-5.0 -5.0 30.0
-5.0 -5.0 31.0
-5.0 -5.0 32.0
-5.0 -5.0 33.0
-5.0 -5.0 34.0
-5.0 -5.0 35.0
-5.0 -5.0 36.0
-5.0 -5.0 37.0
-5.0 -5.0 38.0
-5.0 -5.0 39.0
-5.0 -5.0 40.0
-5.0 -5.0 41.0
-5.0 -5.0 42.0
-5.0 -5.0 43.0
-5.0 -5.0 44.0
-5.0 -5.0 45.0
-5.0 -5.0 46.0
-5.0 -5.0 47.0
-5.0 -5.0 48.0
-5.0 -5.0 49.0
-4.0 5.0 50.0
-3.0 5.0 50.0
-2.0 5.0 50.0
-1.0 5.0 50.0
0.0 5.0 50.0
1.0 5.0 50.0
2.0 5.0 50.0
3.0 5.0 50.0
4.0 5.0 50.0
5.0 5.0 49.0
5.0 5.0 48.0
5.0 5.0 47.0
5.0 5.0 46.0
5.0 5.0 45.0
5.0 5.0 44.0
5.0 5.0 43.0
5.0 5.0 42.0
5.0 5.0 41.0
5.0 5.0 40.0
5.0 5.0 39.0
5.0 5.0 38.0
5.0 5.0 37.0
5.0 5.0 36.0
5.0 5.0 35.0
5.0 5.0 34.0
5.0 5.0 33.0
5.0 5.0 32.0
5.0 5.0 31.0
5.0 5.0 30.0
5.0 5.0 29.0
5.0 5.0 28.0
5.0 5.0 27.0
5.0 5.0 26.0
5.0 5.0 25.0
5.0 5.0 24.0
5.0 5.0 23.0
5.0 5.0 22.0
5.0 5.0 21.0
5.0 5.0 20.0
5.0 5.0 19.0
5.0 5.0 18.0
5.0 5.0 17.0
5.0 5.0 16.0
5.0 5.0 15.0
5.0 5.0 14.0
5.0 5.0 13.0
5.0 5.0 12.0
5.0 5.0 11.0
5.0 5.0 10.0
5.0 5.0 9.0
5.0 5.0 8.0
5.0 5.0 7.0
5.0 5.0 6.0
5.0 5.0 5.0
5.0 5.0 4.0
5.0 5.0 3.0
5.0 5.0 2.0
5.0 5.0 1.0
4.0 5.0 0.0
3.0 5.0 0.0
2.0 5.0 0.0
1.0 5.0 0.0
0.0 5.0 0.0
-1.0 5.0 0.0
-2.0 5.0 0.0
-3.0 5.0 0.0
-4.0 5.0 0.0
5.0 4.0 0.0
5.0 3.0 0.0
5.0 2.0 0.0
5.0 1.0 0.0
5.0 0.0 0.0
5.0 -1.0 0.0
5.0 -2.0 0.0
5.0 -3.0 0.0
5.0 -4.0 0.0
4.0 -5.0 0.0
3.0 -5.0 0.0
2.0 -5.0 0.0
1.0 -5.0 0.0
0.0 -5.0 0.0
-1.0 -5.0 0.0
-2.0 -5.0 0.0
-3.0 -5.0 0.0
-4.0 -5.0 0.0
4.0 -5.0 50.0
3.0 -5.0 50.0
2.0 -5.0 50.0
1.0 -5.0 50.0
0.0 -5.0 50.0
-1.0 -5.0 50.0
-2.0 -5.0 50.0
-3.0 -5.0 50.0
-4.0 -5.0 50.0
5.0 -5.0 1.0
5.0 -5.0 2.0
5.0 -5.0 3.0
5.0 -5.0 4.0
5.0 -5.0 5.0
5.0 -5.0 6.0
5.0 -5.0 7.0
5.0 -5.0 8.0
5.0 -5.0 9.0
5.0 -5.0 10.0
5.0 -5.0 11.0
5.0 -5.0 12.0
5.0 -5.0 13.0
5.0 -5.0 14.0
5.0 -5.0 15.0
5.0 -5.0 16.0
5.0 -5.0 17.0
5.0 -5.0 18.0
5.0 -5.0 19.0
5.0 -5.0 20.0
5.0 -5.0 21.0
5.0 -5.0 22.0
5.0 -5.0 23.0
5.0 -5.0 24.0
5.0 -5.0 25.0
5.0 -5.0 26.0
5.0 -5.0 27.0
5.0 -5.0 28.0
5.0 -5.0 29.0
5.0 -5.0 30.0
5.0 -5.0 31.0
5.0 -5.0 32.0
5.0 -5.0 33.0
5.0 -5.0 34.0
5.0 -5.0 35.0
5.0 -5.0 36.0
5.0 -5.0 37.0
5.0 -5.0 38.0
5.0 -5.0 39.0
5.0 -5.0 40.0
5.0 -5.0 41.0
5.0 -5.0 42.0
5.0 -5.0 43.0
5.0 -5.0 44.0
5.0 -5.0 45.0
5.0 -5.0 46.0
5.0 -5.0 47.0
5.0 -5.0 48.0
5.0 -5.0 49.0
5.0 -4.0 50.0
5.0 -3.0 50.0
5.0 -2.0 50.0
5.0 -1.0 50.0
5.0 0.0 50.0
5.0 1.0 50.0
5.0 2.0 50.0
5.0 3.0 50.0
5.0 4.0 50.0
-5.0 -4.0 49.0
-5.0 -3.0 49.0
-5.0 -2.0 49.0
-5.0 -1.0 49.0
-5.0 0.0 49.0
-5.0 1.0 49.0
-5.0 2.0 49.0
-5.0 3.0 49.0
-5.0 4.0 49.0
-5.0 -4.0 48.0
-5.0 -3.0 48.0
-5.0 -2.0 48.0
-5.0 -1.0 48.0
-5.0 0.0 48.0
-5.0 1.0 48.0
-5.0 2.0 48.0
-5.0 3.0 48.0
-5.0 4.0 48.0
-5.0 -4.0 47.0
-5.0 -3.0 47.0
-5.0 -2.0 47.0
-5.0 -1.0 47.0
-5.0 0.0 47.0
-5.0 1.0 47.0
-5.0 2.0 47.0
-5.0 3.0 47.0
-5.0 4.0 47.0
-5.0 -4.0 46.0
-5.0 -3.0 46.0
-5.0 -2.0 46.0
-5.0 -1.0 46.0
-5.0 0.0 46.0
-5.0 1.0 46.0
-5.0 2.0 46.0
-5.0 3.0 46.0
-5.0 4.0 46.0
-5.0 -4.0 45.0
-5.0 -3.0 45.0
-5.0 -2.0 45.0
-5.0 -1.0 45.0
-5.0 0.0 45.0
-5.0 1.0 45.0
-5.0 2.0 45.0
-5.0 3.0 45.0
-5.0 4.0 45.0
-5.0 -4.0 44.0
-5.0 -3.0 44.0
-5.0 -2.0 44.0
-5.0 -1.0 44.0
-5.0 0.0 44.0
-5.0 1.0 44.0
-5.0 2.0 44.0
-5.0 3.0 44.0
-5.0 4.0 44.0
-5.0 -4.0 43.0
-5.0 -3.0 43.0
-5.0 -2.0 43.0
-5.0 -1.0 43.0
-5.0 0.0 43.0
-5.0 1.0 43.0
-5.0 2.0 43.0
-5.0 3.0 43.0
-5.0 4.0 43.0
-5.0 -4.0 42.0
-5.0 -3.0 42.0
-5.0 -2.0 42.0
-5.0 -1.0 42.0
-5.0 0.0 42.0
-5.0 1.0 42.0
-5.0 2.0 42.0
-5.0 3.0 42.0
-5.0 4.0 42.0
-5.0 -4.0 41.0
-5.0 -3.0 41.0
-5.0 -2.0 41.0
-5.0 -1.0 41.0
-5.0 0.0 41.0
-5.0 1.0 41.0
-5.0 2.0 41.0
-5.0 3.0 41.0
-5.0 4.0 41.0
-5.0 -4.0 40.0
-5.0 -3.0 40.0
-5.0 -2.0 40.0
-5.0 -1.0 40.0
-5.0 0.0 40.0
-5.0 1.0 40.0
-5.0 2.0 40.0
-5.0 3.0 40.0
-5.0 4.0 40.0
-5.0 -4.0 39.0
-5.0 -3.0 39.0
-5.0 -2.0 39.0
-5.0 -1.0 39.0
-5.0 0.0 39.0
-5.0 1.0 39.0
-5.0 2.0 39.0
-5.0 3.0 39.0
-5.0 4.0 39.0
-5.0 -4.0 38.0
-5.0 -3.0 38.0
-5.0 -2.0 38.0
-5.0 -1.0 38.0
-5.0 0.0 38.0
-5.0 1.0 38.0
-5.0 2.0 38.0
-5.0 3.0 38.0
-5.0 4.0 38.0
-5.0 -4.0 37.0
-5.0 -3.0 37.0
-5.0 -2.0 37.0
-5.0 -1.0 37.0
-5.0 0.0 37.0
-5.0 1.0 37.0
-5.0 2.0 37.0
-5.0 3.0 37.0
-5.0 4.0 37.0
-5.0 -4.0 36.0
-5.0 -3.0 36.0
-5.0 -2.0 36.0
-5.0 -1.0 36.0
-5.0 0.0 36.0
-5.0 1.0 36.0
-5.0 2.0 36.0
-5.0 3.0 36.0
-5.0 4.0 36.0
-5.0 -4.0 35.0
-5.0 -3.0 35.0
-5.0 -2.0 35.0
-5.0 -1.0 35.0
-5.0 0.0 35.0
-5.0 1.0 35.0
-5.0 2.0 35.0
-5.0 3.0 35.0
-5.0 4.0 35.0
-5.0 -4.0 34.0
-5.0 -3.0 34.0
-5.0 -2.0 34.0
-5.0 -1.0 34.0
-5.0 0.0 34.0
-5.0 1.0 34.0
-5.0 2.0 34.0
-5.0 3.0 34.0
-5.0 4.0 34.0
-5.0 -4.0 33.0
-5.0 -3.0 33.0
-5.0 -2.0 33.0
-5.0 -1.0 33.0
-5.0 0.0 33.0
-5.0 1.0 33.0
-5.0 2.0 33.0
-5.0 3.0 33.0
-5.0 4.0 33.0
-5.0 -4.0 32.0
-5.0 -3.0 32.0
-5.0 -2.0 32.0
-5.0 -1.0 32.0
-5.0 0.0 32.0
-5.0 1.0 32.0
-5.0 2.0 32.0
-5.0 3.0 32.0
-5.0 4.0 32.0
-5.0 -4.0 31.0
-5.0 -3.0 31.0
-5.0 -2.0 31.0
-5.0 -1.0 31.0
-5.0 0.0 31.0
-5.0 1.0 31.0
-5.0 2.0 31.0
-5.0 3.0 31.0
-5.0 4.0 31.0
-5.0 -4.0 30.0
-5.0 -3.0 30.0
-5.0 -2.0 30.0
-5.0 -1.0 30.0
-5.0 0.0 30.0
-5.0 1.0 30.0
-5.0 2.0 30.0
-5.0 3.0 30.0
-5.0 4.0 30.0
-5.0 -4.0 29.0
-5.0 -3.0 29.0
-5.0 -2.0 29.0
-5.0 -1.0 29.0
-5.0 0.0 29.0
-5.0 1.0 29.0
-5.0 2.0 29.0
-5.0 3.0 29.0
-5.0 4.0 29.0
-5.0 -4.0 28.0
-5.0 -3.0 28.0
-5.0 -2.0 28.0
-5.0 -1.0 28.0
-5.0 0.0 28.0
-5.0 1.0 28.0
-5.0 2.0 28.0
-5.0 3.0 28.0
-5.0 4.0 28.0
-5.0 -4.0 27.0
-5.0 -3.0 27.0
-5.0 -2.0 27.0
-5.0 -1.0 27.0
-5.0 0.0 27.0
-5.0 1.0 27.0
-5.0 2.0 27.0
-5.0 3.0 27.0
-5.0 4.0 27.0
-5.0 -4.0 26.0
-5.0 -3.0 26.0
-5.0 -2.0 26.0
-5.0 -1.0 26.0
-5.0 0.0 26.0
-5.0 1.0 26.0
-5.0 2.0 26.0
-5.0 3.0 26.0
-5.0 4.0 26.0
-5.0 -4.0 25.0
-5.0 -3.0 25.0
-5.0 -2.0 25.0
-5.0 -1.0 25.0
-5.0 0.0 25.0
-5.0 1.0 25.0
-5.0 2.0 25.0
-5.0 3.0 25.0
-5.0 4.0 25.0
-5.0 -4.0 24.0
-5.0 -3.0 24.0
-5.0 -2.0 24.0
-5.0 -1.0 24.0
-5.0 0.0 24.0
-5.0 1.0 24.0
-5.0 2.0 24.0
-5.0 3.0 24.0
-5.0 4.0 24.0
-5.0 -4.0 23.0
-5.0 -3.0 23.0
-5.0 -2.0 23.0
-5.0 -1.0 23.0
-5.0 0.0 23.0
-5.0 1.0 23.0
-5.0 2.0 23.0
-5.0 3.0 23.0
-5.0 4.0 23.0
-5.0 -4.0 22.0
-5.0 -3.0 22.0
-5.0 -2.0 22.0
-5.0 -1.0 22.0
-5.0 0.0 22.0
-5.0 1.0 22.0
-5.0 2.0 22.0
-5.0 3.0 22.0
-5.0 4.0 22.0
-5.0 -4.0 21.0
-5.0 -3.0 21.0
-5.0 -2.0 21.0
-5.0 -1.0 21.0
-5.0 0.0 21.0
-5.0 1.0 21.0
-5.0 2.0 21.0
-5.0 3.0 21.0
-5.0 4.0 21.0
-5.0 -4.0 20.0
-5.0 -3.0 20.0
-5.0 -2.0 20.0
-5.0 -1.0 20.0
-5.0 0.0 20.0
-5.0 1.0 20.0
-5.0 2.0 20.0
-5.0 3.0 20.0
-5.0 4.0 20.0
-5.0 -4.0 19.0
-5.0 -3.0 19.0
-5.0 -2.0 19.0
-5.0 -1.0 19.0
-5.0 0.0 19.0
-5.0 1.0 19.0
-5.0 2.0 19.0
-5.0 3.0 19.0
-5.0 4.0 19.0
-5.0 -4.0 18.0
-5.0 -3.0 18.0
-5.0 -2.0 18.0
-5.0 -1.0 18.0
-5.0 0.0 18.0
-5.0 1.0 18.0
-5.0 2.0 18.0
-5.0 3.0 18.0
-5.0 4.0 18.0
-5.0 -4.0 17.0
-5.0 -3.0 17.0
-5.0 -2.0 17.0
-5.0 -1.0 17.0
-5.0 0.0 17.0
-5.0 1.0 17.0
-5.0 2.0 17.0
-5.0 3.0 17.0
-5.0 4.0 17.0
-5.0 -4.0 16.0
-5.0 -3.0 16.0
-5.0 -2.0 16.0
-5.0 -1.0 16.0
-5.0 0.0 16.0
-5.0 1.0 16.0
-5.0 2.0 16.0
-5.0 3.0 16.0
-5.0 4.0 16.0
-5.0 -4.0 15.0
-5.0 -3.0 15.0
-5.0 -2.0 15.0
-5.0 -1.0 15.0
-5.0 0.0 15.0
-5.0 1.0 15.0
-5.0 2.0 15.0
-5.0 3.0 15.0
-5.0 4.0 15.0
-5.0 -4.0 14.0
-5.0 -3.0 14.0
-5.0 -2.0 14.0
-5.0 -1.0 14.0
-5.0 0.0 14.0
-5.0 1.0 14.0
-5.0 2.0 14.0
-5.0 3.0 14.0
-5.0 4.0 14.0
-5.0 -4.0 13.0
-5.0 -3.0 13.0
-5.0 -2.0 13.0
-5.0 -1.0 13.0
-5.0 0.0 13.0
-5.0 1.0 13.0
-5.0 2.0 13.0
-5.0 3.0 13.0
-5.0 4.0 13.0
-5.0 -4.0 12.0
-5.0 -3.0 12.0
-5.0 -2.0 12.0
-5.0 -1.0 12.0
-5.0 0.0 12.0
-5.0 1.0 12.0
-5.0 2.0 12.0
-5.0 3.0 12.0
-5.0 4.0 12.0
-5.0 -4.0 11.0
-5.0 -3.0 11.0
-5.0 -2.0 11.0
-5.0 -1.0 11.0
-5.0 0.0 11.0
-5.0 1.0 11.0
-5.0 2.0 11.0
-5.0 3.0 11.0
-5.0 4.0 11.0
-5.0 -4.0 10.0
-5.0 -3.0 10.0
-5.0 -2.0 10.0
-5.0 -1.0 10.0
-5.0 0.0 10.0
-5.0 1.0 10.0
-5.0 2.0 10.0
-5.0 3.0 10.0
-5.0 4.0 10.0
-5.0 -4.0 9.0
-5.0 -3.0 9.0
-5.0 -2.0 9.0
-5.0 -1.0 9.0
-5.0 0.0 9.0
-5.0 1.0 9.0
-5.0 2.0 9.0
-5.0 3.0 9.0
-5.0 4.0 9.0
-5.0 -4.0 8.0
-5.0 -3.0 8.0
-5.0 -2.0 8.0
-5.0 -1.0 8.0
-5.0 0.0 8.0
-5.0 1.0 8.0
-5.0 2.0 8.0
-5.0 3.0 8.0
-5.0 4.0 8.0
-5.0 -4.0 7.0
-5.0 -3.0 7.0
-5.0 -2.0 7.0
-5.0 -1.0 7.0
-5.0 0.0 7.0
-5.0 1.0 7.0
-5.0 2.0 7.0
-5.0 3.0 7.0
-5.0 4.0 7.0
-5.0 -4.0 6.0
-5.0 -3.0 6.0
-5.0 -2.0 6.0
-5.0 -1.0 6.0
-5.0 0.0 6.0
-5.0 1.0 6.0
-5.0 2.0 6.0
-5.0 3.0 6.0
-5.0 4.0 6.0
-5.0 -4.0 5.0
-5.0 -3.0 5.0
-5.0 -2.0 5.0
-5.0 -1.0 5.0
-5.0 0.0 5.0
-5.0 1.0 5.0
-5.0 2.0 5.0
-5.0 3.0 5.0
-5.0 4.0 5.0
-5.0 -4.0 4.0
-5.0 -3.0 4.0
-5.0 -2.0 4.0
-5.0 -1.0 4.0
-5.0 0.0 4.0
-5.0 1.0 4.0
-5.0 2.0 4.0
-5.0 3.0 4.0
-5.0 4.0 4.0
-5.0 -4.0 3.0
-5.0 -3.0 3.0
-5.0 -2.0 3.0
-5.0 -1.0 3.0
-5.0 0.0 3.0
-5.0 1.0 3.0
-5.0 2.0 3.0
-5.0 3.0 3.0
-5.0 4.0 3.0
-5.0 -4.0 2.0
-5.0 -3.0 2.0
-5.0 -2.0 2.0
-5.0 -1.0 2.0
-5.0 0.0 2.0
-5.0 1.0 2.0
-5.0 2.0 2.0
-5.0 3.0 2.0
-5.0 4.0 2.0
-5.0 -4.0 1.0
-5.0 -3.0 1.0
-5.0 -2.0 1.0
-5.0 -1.0 1.0
-5.0 0.0 1.0
-5.0 1.0 1.0
-5.0 2.0 1.0
-5.0 3.0 1.0
-5.0 4.0 1.0
-4.0 5.0 49.0
-3.0 5.0 49.0
-2.0 5.0 49.0
-1.0 5.0 49.0
0.0 5.0 49.0
1.0 5.0 49.0
2.0 5.0 49.0
3.0 5.0 49.0
4.0 5.0 49.0
-4.0 5.0 48.0
-3.0 5.0 48.0
-2.0 5.0 48.0
-1.0 5.0 48.0
0.0 5.0 48.0
1.0 5.0 48.0
2.0 5.0 48.0
3.0 5.0 48.0
4.0 5.0 48.0
-4.0 5.0 47.0
-3.0 5.0 47.0
-2.0 5.0 47.0
-1.0 5.0 47.0
0.0 5.0 47.0
1.0 5.0 47.0
2.0 5.0 47.0
3.0 5.0 47.0
4.0 5.0 47.0
-4.0 5.0 46.0
-3.0 5.0 46.0
-2.0 5.0 46.0
-1.0 5.0 46.0
0.0 5.0 46.0
1.0 5.0 46.0
2.0 5.0 46.0
3.0 5.0 46.0
4.0 5.0 46.0
-4.0 5.0 45.0
-3.0 5.0 45.0
-2.0 5.0 45.0
-1.0 5.0 45.0
0.0 5.0 45.0
1.0 5.0 45.0
2.0 5.0 45.0
3.0 5.0 45.0
4.0 5.0 45.0
-4.0 5.0 44.0
-3.0 5.0 44.0
-2.0 5.0 44.0
-1.0 5.0 44.0
0.0 5.0 44.0
1.0 5.0 44.0
2.0 5.0 44.0
3.0 5.0 44.0
4.0 5.0 44.0
-4.0 5.0 43.0
-3.0 5.0 43.0
-2.0 5.0 43.0
-1.0 5.0 43.0
0.0 5.0 43.0
1.0 5.0 43.0
2.0 5.0 43.0
3.0 5.0 43.0
4.0 5.0 43.0
-4.0 5.0 42.0
-3.0 5.0 42.0
-2.0 5.0 42.0
-1.0 5.0 42.0
0.0 5.0 42.0
1.0 5.0 42.0
2.0 5.0 42.0
3.0 5.0 42.0
4.0 5.0 42.0
-4.0 5.0 41.0
-3.0 5.0 41.0
-2.0 5.0 41.0
-1.0 5.0 41.0
0.0 5.0 41.0
1.0 5.0 41.0
2.0 5.0 41.0
3.0 5.0 41.0
4.0 5.0 41.0
-4.0 5.0 40.0
-3.0 5.0 40.0
-2.0 5.0 40.0
-1.0 5.0 40.0
0.0 5.0 40.0
1.0 5.0 40.0
2.0 5.0 40.0
3.0 5.0 40.0
4.0 5.0 40.0
-4.0 5.0 39.0
-3.0 5.0 39.0
-2.0 5.0 39.0
-1.0 5.0 39.0
0.0 5.0 39.0
1.0 5.0 39.0
2.0 5.0 39.0
3.0 5.0 39.0
4.0 5.0 39.0
-4.0 5.0 38.0
-3.0 5.0 38.0
-2.0 5.0 38.0
-1.0 5.0 38.0
0.0 5.0 38.0
1.0 5.0 38.0
2.0 5.0 38.0
3.0 5.0 38.0
4.0 5.0 38.0
-4.0 5.0 37.0
-3.0 5.0 37.0
-2.0 5.0 37.0
-1.0 5.0 37.0
0.0 5.0 37.0
1.0 5.0 37.0
2.0 5.0 37.0
3.0 5.0 37.0
4.0 5.0 37.0
-4.0 5.0 36.0
-3.0 5.0 36.0
-2.0 5.0 36.0
-1.0 5.0 36.0
0.0 5.0 36.0
1.0 5.0 36.0
2.0 5.0 36.0
3.0 5.0 36.0
4.0 5.0 36.0
-4.0 5.0 35.0
-3.0 5.0 35.0
-2.0 5.0 35.0
-1.0 5.0 35.0
0.0 5.0 35.0
1.0 5.0 35.0
2.0 5.0 35.0
3.0 5.0 35.0
4.0 5.0 35.0
-4.0 5.0 34.0
-3.0 5.0 34.0
-2.0 5.0 34.0
-1.0 5.0 34.0
0.0 5.0 34.0
1.0 5.0 34.0
2.0 5.0 34.0
3.0 5.0 34.0
4.0 5.0 34.0
-4.0 5.0 33.0
-3.0 5.0 33.0
-2.0 5.0 33.0
-1.0 5.0 33.0
0.0 5.0 33.0
1.0 5.0 33.0
2.0 5.0 33.0
3.0 5.0 33.0
4.0 5.0 33.0
-4.0 5.0 32.0
-3.0 5.0 32.0
-2.0 5.0 32.0
-1.0 5.0 32.0
0.0 5.0 32.0
1.0 5.0 32.0
2.0 5.0 32.0
3.0 5.0 32.0
4.0 5.0 32.0
-4.0 5.0 31.0
-3.0 5.0 31.0
-2.0 5.0 31.0
-1.0 5.0 31.0
0.0 5.0 31.0
1.0 5.0 31.0
2.0 5.0 31.0
3.0 5.0 31.0
4.0 5.0 31.0
-4.0 5.0 30.0
-3.0 5.0 30.0
-2.0 5.0 30.0
-1.0 5.0 30.0
0.0 5.0 30.0
1.0 5.0 30.0
2.0 5.0 30.0
3.0 5.0 30.0
4.0 5.0 30.0
-4.0 5.0 29.0
-3.0 5.0 29.0
-2.0 5.0 29.0
-1.0 5.0 29.0
0.0 5.0 29.0
1.0 5.0 29.0
2.0 5.0 29.0
3.0 5.0 29.0
4.0 5.0 29.0
-4.0 5.0 28.0
-3.0 5.0 28.0
-2.0 5.0 28.0
-1.0 5.0 28.0
0.0 5.0 28.0
1.0 5.0 28.0
2.0 5.0 28.0
3.0 5.0 28.0
4.0 5.0 28.0
-4.0 5.0 27.0
-3.0 5.0 27.0
-2.0 5.0 27.0
-1.0 5.0 27.0
0.0 5.0 27.0
1.0 5.0 27.0
2.0 5.0 27.0
3.0 5.0 27.0
4.0 5.0 27.0
-4.0 5.0 26.0
-3.0 5.0 26.0
-2.0 5.0 26.0
-1.0 5.0 26.0
0.0 5.0 26.0
1.0 5.0 26.0
2.0 5.0 26.0
3.0 5.0 26.0
4.0 5.0 26.0
-4.0 5.0 25.0
-3.0 5.0 25.0
-2.0 5.0 25.0
-1.0 5.0 25.0
0.0 5.0 25.0
1.0 5.0 25.0
2.0 5.0 25.0
3.0 5.0 25.0
4.0 5.0 25.0
-4.0 5.0 24.0
-3.0 5.0 24.0
-2.0 5.0 24.0
-1.0 5.0 24.0
0.0 5.0 24.0
1.0 5.0 24.0
2.0 5.0 24.0
3.0 5.0 24.0
4.0 5.0 24.0
-4.0 5.0 23.0
-3.0 5.0 23.0
-2.0 5.0 23.0
-1.0 5.0 23.0
0.0 5.0 23.0
1.0 5.0 23.0
2.0 5.0 23.0
3.0 5.0 23.0
4.0 5.0 23.0
-4.0 5.0 22.0
-3.0 5.0 22.0
-2.0 5.0 22.0
-1.0 5.0 22.0
0.0 5.0 22.0
1.0 5.0 22.0
2.0 5.0 22.0
3.0 5.0 22.0
4.0 5.0 22.0
-4.0 5.0 21.0
-3.0 5.0 21.0
-2.0 5.0 21.0
-1.0 5.0 21.0
0.0 5.0 21.0
1.0 5.0 21.0
2.0 5.0 21.0
3.0 5.0 21.0
4.0 5.0 21.0
-4.0 5.0 20.0
-3.0 5.0 20.0
-2.0 5.0 20.0
-1.0 5.0 20.0
0.0 5.0 20.0
1.0 5.0 20.0
2.0 5.0 20.0
3.0 5.0 20.0
4.0 5.0 20.0
-4.0 5.0 19.0
-3.0 5.0 19.0
-2.0 5.0 19.0
-1.0 5.0 19.0
0.0 5.0 19.0
1.0 5.0 19.0
2.0 5.0 19.0
3.0 5.0 19.0
4.0 5.0 19.0
-4.0 5.0 18.0
-3.0 5.0 18.0
-2.0 5.0 18.0
-1.0 5.0 18.0
0.0 5.0 18.0
1.0 5.0 18.0
2.0 5.0 18.0
3.0 5.0 18.0
4.0 5.0 18.0
-4.0 5.0 17.0
-3.0 5.0 17.0
-2.0 5.0 17.0
-1.0 5.0 17.0
0.0 5.0 17.0
1.0 5.0 17.0
2.0 5.0 17.0
3.0 5.0 17.0
4.0 5.0 17.0
-4.0 5.0 16.0
-3.0 5.0 16.0
-2.0 5.0 16.0
-1.0 5.0 16.0
0.0 5.0 16.0
1.0 5.0 16.0
2.0 5.0 16.0
3.0 5.0 16.0
4.0 5.0 16.0
-4.0 5.0 15.0
-3.0 5.0 15.0
-2.0 5.0 15.0
-1.0 5.0 15.0
0.0 5.0 15.0
1.0 5.0 15.0
2.0 5.0 15.0
3.0 5.0 15.0
4.0 5.0 15.0
-4.0 5.0 14.0
-3.0 5.0 14.0
-2.0 5.0 14.0
-1.0 5.0 14.0
0.0 5.0 14.0
1.0 5.0 14.0
2.0 5.0 14.0
3.0 5.0 14.0
4.0 5.0 14.0
-4.0 5.0 13.0
-3.0 5.0 13.0
-2.0 5.0 13.0
-1.0 5.0 13.0
0.0 5.0 13.0
1.0 5.0 13.0
2.0 5.0 13.0
3.0 5.0 13.0
4.0 5.0 13.0
-4.0 5.0 12.0
-3.0 5.0 12.0
-2.0 5.0 12.0
-1.0 5.0 12.0
0.0 5.0 12.0
1.0 5.0 12.0
2.0 5.0 12.0
3.0 5.0 12.0
4.0 5.0 12.0
-4.0 5.0 11.0
-3.0 5.0 11.0
-2.0 5.0 11.0
-1.0 5.0 11.0
0.0 5.0 11.0
1.0 5.0 11.0
2.0 5.0 11.0
3.0 5.0 11.0
4.0 5.0 11.0
-4.0 5.0 10.0
-3.0 5.0 10.0
-2.0 5.0 10.0
-1.0 5.0 10.0
0.0 5.0 10.0
1.0 5.0 10.0
2.0 5.0 10.0
3.0 5.0 10.0
4.0 5.0 10.0
-4.0 5.0 9.0
-3.0 5.0 9.0
-2.0 5.0 9.0
-1.0 5.0 9.0
0.0 5.0 9.0
1.0 5.0 9.0
2.0 5.0 9.0
3.0 5.0 9.0
4.0 5.0 9.0
-4.0 5.0 8.0
-3.0 5.0 8.0
-2.0 5.0 8.0
-1.0 5.0 8.0
0.0 5.0 8.0
1.0 5.0 8.0
2.0 5.0 8.0
3.0 5.0 8.0
4.0 5.0 8.0
-4.0 5.0 7.0
-3.0 5.0 7.0
-2.0 5.0 7.0
-1.0 5.0 7.0
0.0 5.0 7.0
1.0 5.0 7.0
2.0 5.0 7.0
3.0 5.0 7.0
4.0 5.0 7.0
-4.0 5.0 6.0
-3.0 5.0 6.0
-2.0 5.0 6.0
-1.0 5.0 6.0
0.0 5.0 6.0
1.0 5.0 6.0
2.0 5.0 6.0
3.0 5.0 6.0
4.0 5.0 6.0
-4.0 5.0 5.0
-3.0 5.0 5.0
-2.0 5.0 5.0
-1.0 5.0 5.0
0.0 5.0 5.0
1.0 5.0 5.0
2.0 5.0 5.0
3.0 5.0 5.0
4.0 5.0 5.0
-4.0 5.0 4.0
-3.0 5.0 4.0
-2.0 5.0 4.0
-1.0 5.0 4.0
0.0 5.0 4.0
1.0 5.0 4.0
2.0 5.0 4.0
3.0 5.0 4.0
4.0 5.0 4.0
-4.0 5.0 3.0
-3.0 5.0 3.0
-2.0 5.0 3.0
-1.0 5.0 3.0
0.0 5.0 3.0
1.0 5.0 3.0
2.0 5.0 3.0
3.0 5.0 3.0
4.0 5.0 3.0
-4.0 5.0 2.0
-3.0 5.0 2.0
-2.0 5.0 2.0
-1.0 5.0 2.0
0.0 5.0 2.0
1.0 5.0 2.0
2.0 5.0 2.0
3.0 5.0 2.0
4.0 5.0 2.0
-4.0 5.0 1.0
-3.0 5.0 1.0
-2.0 5.0 1.0
-1.0 5.0 1.0
0.0 5.0 1.0
1.0 5.0 1.0
2.0 5.0 1.0
3.0 5.0 1.0
4.0 5.0 1.0
-4.0 4.0 0.0
-3.0 4.0 0.0
-2.0 4.0 0.0
-1.0 4.0 0.0
0.0 4.0 0.0
1.0 4.0 0.0
2.0 4.0 0.0
3.0 4.0 0.0
4.0 4.0 0.0
-4.0 3.0 0.0
-3.0 3.0 0.0
-2.0 3.0 0.0
-1.0 3.0 0.0
0.0 3.0 0.0
1.0 3.0 0.0
2.0 3.0 0.0
3.0 3.0 0.0
4.0 3.0 0.0
-4.0 2.0 0.0
-3.0 2.0 0.0
-2.0 2.0 0.0
-1.0 2.0 0.0
0.0 2.0 0.0
1.0 2.0 0.0
2.0 2.0 0.0
3.0 2.0 0.0
4.0 2.0 0.0
-4.0 1.0 0.0
-3.0 1.0 0.0
-2.0 1.0 0.0
-1.0 1.0 0.0
0.0 1.0 0.0
1.0 1.0 0.0
2.0 1.0 0.0
3.0 1.0 0.0
4.0 1.0 0.0
-4.0 0.0 0.0
-3.0 0.0 0.0
-2.0 0.0 0.0
-1.0 0.0 0.0
0.0 0.0 0.0
1.0 0.0 0.0
2.0 0.0 0.0
3.0 0.0 0.0
4.0 0.0 0.0
-4.0 -1.0 0.0
-3.0 -1.0 0.0
-2.0 -1.0 0.0
-1.0 -1.0 0.0
0.0 -1.0 0.0
1.0 -1.0 0.0
2.0 -1.0 0.0
3.0 -1.0 0.0
4.0 -1.0 0.0
-4.0 -2.0 0.0
-3.0 -2.0 0.0
-2.0 -2.0 0.0
-1.0 -2.0 0.0
0.0 -2.0 0.0
1.0 -2.0 0.0
2.0 -2.0 0.0
3.0 -2.0 0.0
4.0 -2.0 0.0
-4.0 -3.0 0.0
-3.0 -3.0 0.0
-2.0 -3.0 0.0
-1.0 -3.0 0.0
0.0 -3.0 0.0
1.0 -3.0 0.0
2.0 -3.0 0.0
3.0 -3.0 0.0
4.0 -3.0 0.0
-4.0 -4.0 0.0
-3.0 -4.0 0.0
-2.0 -4.0 0.0
-1.0 -4.0 0.0
0.0 -4.0 0.0
1.0 -4.0 0.0
2.0 -4.0 0.0
3.0 -4.0 0.0
4.0 -4.0 0.0
4.0 -5.0 49.0
3.0 -5.0 49.0
2.0 -5.0 49.0
1.0 -5.0 49.0
0.0 -5.0 49.0
-1.0 -5.0 49.0
-2.0 -5.0 49.0
-3.0 -5.0 49.0
-4.0 -5.0 49.0
4.0 -5.0 48.0
3.0 -5.0 48.0
2.0 -5.0 48.0
1.0 -5.0 48.0
0.0 -5.0 48.0
-1.0 -5.0 48.0
-2.0 -5.0 48.0
-3.0 -5.0 48.0
-4.0 -5.0 48.0
4.0 -5.0 47.0
3.0 -5.0 47.0
2.0 -5.0 47.0
1.0 -5.0 47.0
0.0 -5.0 47.0
-1.0 -5.0 47.0
-2.0 -5.0 47.0
-3.0 -5.0 47.0
-4.0 -5.0 47.0
4.0 -5.0 46.0
3.0 -5.0 46.0
2.0 -5.0 46.0
1.0 -5.0 46.0
0.0 -5.0 46.0
-1.0 -5.0 46.0
-2.0 -5.0 46.0
-3.0 -5.0 46.0
-4.0 -5.0 46.0
4.0 -5.0 45.0
3.0 -5.0 45.0
2.0 -5.0 45.0
1.0 -5.0 45.0
0.0 -5.0 45.0
-1.0 -5.0 45.0
-2.0 -5.0 45.0
-3.0 -5.0 45.0
-4.0 -5.0 45.0
4.0 -5.0 44.0
3.0 -5.0 44.0
2.0 -5.0 44.0
1.0 -5.0 44.0
0.0 -5.0 44.0
-1.0 -5.0 44.0
-2.0 -5.0 44.0
-3.0 -5.0 44.0
-4.0 -5.0 44.0
4.0 -5.0 43.0
3.0 -5.0 43.0
2.0 -5.0 43.0
1.0 -5.0 43.0
0.0 -5.0 43.0
-1.0 -5.0 43.0
-2.0 -5.0 43.0
-3.0 -5.0 43.0
-4.0 -5.0 43.0
4.0 -5.0 42.0
3.0 -5.0 42.0
2.0 -5.0 42.0
1.0 -5.0 42.0
0.0 -5.0 42.0
-1.0 -5.0 42.0
-2.0 -5.0 42.0
-3.0 -5.0 42.0
-4.0 -5.0 42.0
4.0 -5.0 41.0
3.0 -5.0 41.0
2.0 -5.0 41.0
1.0 -5.0 41.0
0.0 -5.0 41.0
-1.0 -5.0 41.0
-2.0 -5.0 41.0
-3.0 -5.0 41.0
-4.0 -5.0 41.0
4.0 -5.0 40.0
3.0 -5.0 40.0
2.0 -5.0 40.0
1.0 -5.0 40.0
0.0 -5.0 40.0
-1.0 -5.0 40.0
-2.0 -5.0 40.0
-3.0 -5.0 40.0
-4.0 -5.0 40.0
4.0 -5.0 39.0
3.0 -5.0 39.0
2.0 -5.0 39.0
1.0 -5.0 39.0
0.0 -5.0 39.0
-1.0 -5.0 39.0
-2.0 -5.0 39.0
-3.0 -5.0 39.0
-4.0 -5.0 39.0
4.0 -5.0 38.0
3.0 -5.0 38.0
2.0 -5.0 38.0
1.0 -5.0 38.0
0.0 -5.0 38.0
-1.0 -5.0 38.0
-2.0 -5.0 38.0
-3.0 -5.0 38.0
-4.0 -5.0 38.0
4.0 -5.0 37.0
3.0 -5.0 37.0
2.0 -5.0 37.0
1.0 -5.0 37.0
0.0 -5.0 37.0
-1.0 -5.0 37.0
-2.0 -5.0 37.0
-3.0 -5.0 37.0
-4.0 -5.0 37.0
4.0 -5.0 36.0
3.0 -5.0 36.0
2.0 -5.0 36.0
1.0 -5.0 36.0
0.0 -5.0 36.0
-1.0 -5.0 36.0
-2.0 -5.0 36.0
-3.0 -5.0 36.0
-4.0 -5.0 36.0
4.0 -5.0 35.0
3.0 -5.0 35.0
2.0 -5.0 35.0
1.0 -5.0 35.0
0.0 -5.0 35.0
-1.0 -5.0 35.0
-2.0 -5.0 35.0
-3.0 -5.0 35.0
-4.0 -5.0 35.0
4.0 -5.0 34.0
3.0 -5.0 34.0
2.0 -5.0 34.0
1.0 -5.0 34.0
0.0 -5.0 34.0
-1.0 -5.0 34.0
-2.0 -5.0 34.0
-3.0 -5.0 34.0
-4.0 -5.0 34.0
4.0 -5.0 33.0
3.0 -5.0 33.0
2.0 -5.0 33.0
1.0 -5.0 33.0
0.0 -5.0 33.0
-1.0 -5.0 33.0
-2.0 -5.0 33.0
-3.0 -5.0 33.0
-4.0 -5.0 33.0
4.0 -5.0 32.0
3.0 -5.0 32.0
2.0 -5.0 32.0
1.0 -5.0 32.0
0.0 -5.0 32.0
-1.0 -5.0 32.0
-2.0 -5.0 32.0
-3.0 -5.0 32.0
-4.0 -5.0 32.0
4.0 -5.0 31.0
3.0 -5.0 31.0
2.0 -5.0 31.0
1.0 -5.0 31.0
0.0 -5.0 31.0
-1.0 -5.0 31.0
-2.0 -5.0 31.0
-3.0 -5.0 31.0
-4.0 -5.0 31.0
4.0 -5.0 30.0
3.0 -5.0 30.0
2.0 -5.0 30.0
1.0 -5.0 30.0
0.0 -5.0 30.0
-1.0 -5.0 30.0
-2.0 -5.0 30.0
-3.0 -5.0 30.0
-4.0 -5.0 30.0
4.0 -5.0 29.0
3.0 -5.0 29.0
2.0 -5.0 29.0
1.0 -5.0 29.0
0.0 -5.0 29.0
-1.0 -5.0 29.0
-2.0 -5.0 29.0
-3.0 -5.0 29.0
-4.0 -5.0 29.0
4.0 -5.0 28.0
3.0 -5.0 28.0
2.0 -5.0 28.0
1.0 -5.0 28.0
0.0 -5.0 28.0
-1.0 -5.0 28.0
-2.0 -5.0 28.0
-3.0 -5.0 28.0
-4.0 -5.0 28.0
4.0 -5.0 27.0
3.0 -5.0 27.0
2.0 -5.0 27.0
1.0 -5.0 27.0
0.0 -5.0 27.0
-1.0 -5.0 27.0
-2.0 -5.0 27.0
-3.0 -5.0 27.0
-4.0 -5.0 27.0
4.0 -5.0 26.0
3.0 -5.0 26.0
2.0 -5.0 26.0
1.0 -5.0 26.0
0.0 -5.0 26.0
-1.0 -5.0 26.0
-2.0 -5.0 26.0
-3.0 -5.0 26.0
-4.0 -5.0 26.0
4.0 -5.0 25.0
3.0 -5.0 25.0
2.0 -5.0 25.0
1.0 -5.0 25.0
0.0 -5.0 25.0
-1.0 -5.0 25.0
-2.0 -5.0 25.0
-3.0 -5.0 25.0
-4.0 -5.0 25.0
4.0 -5.0 24.0
3.0 -5.0 24.0
2.0 -5.0 24.0
1.0 -5.0 24.0
0.0 -5.0 24.0
-1.0 -5.0 24.0
-2.0 -5.0 24.0
-3.0 -5.0 24.0
-4.0 -5.0 24.0
4.0 -5.0 23.0
3.0 -5.0 23.0
2.0 -5.0 23.0
1.0 -5.0 23.0
0.0 -5.0 23.0
-1.0 -5.0 23.0
-2.0 -5.0 23.0
-3.0 -5.0 23.0
-4.0 -5.0 23.0
4.0 -5.0 22.0
3.0 -5.0 22.0
2.0 -5.0 22.0
1.0 -5.0 22.0
0.0 -5.0 22.0
-1.0 -5.0 22.0
-2.0 -5.0 22.0
-3.0 -5.0 22.0
-4.0 -5.0 22.0
4.0 -5.0 21.0
3.0 -5.0 21.0
2.0 -5.0 21.0
1.0 -5.0 21.0
0.0 -5.0 21.0
-1.0 -5.0 21.0
-2.0 -5.0 21.0
-3.0 -5.0 21.0
-4.0 -5.0 21.0
4.0 -5.0 20.0
3.0 -5.0 20.0
2.0 -5.0 20.0
1.0 -5.0 20.0
0.0 -5.0 20.0
-1.0 -5.0 20.0
-2.0 -5.0 20.0
-3.0 -5.0 20.0
-4.0 -5.0 20.0
4.0 -5.0 19.0
3.0 -5.0 19.0
2.0 -5.0 19.0
1.0 -5.0 19.0
0.0 -5.0 19.0
-1.0 -5.0 19.0
-2.0 -5.0 19.0
-3.0 -5.0 19.0
-4.0 -5.0 19.0
4.0 -5.0 18.0
3.0 -5.0 18.0
2.0 -5.0 18.0
1.0 -5.0 18.0
0.0 -5.0 18.0
-1.0 -5.0 18.0
-2.0 -5.0 18.0
-3.0 -5.0 18.0
-4.0 -5.0 18.0
4.0 -5.0 17.0
3.0 -5.0 17.0
2.0 -5.0 17.0
1.0 -5.0 17.0
0.0 -5.0 17.0
-1.0 -5.0 17.0
-2.0 -5.0 17.0
-3.0 -5.0 17.0
-4.0 -5.0 17.0
4.0 -5.0 16.0
3.0 -5.0 16.0
2.0 -5.0 16.0
1.0 -5.0 16.0
0.0 -5.0 16.0
-1.0 -5.0 16.0
-2.0 -5.0 16.0
-3.0 -5.0 16.0
-4.0 -5.0 16.0
4.0 -5.0 15.0
3.0 -5.0 15.0
2.0 -5.0 15.0
1.0 -5.0 15.0
0.0 -5.0 15.0
-1.0 -5.0 15.0
-2.0 -5.0 15.0
-3.0 -5.0 15.0
-4.0 -5.0 15.0
4.0 -5.0 14.0
3.0 -5.0 14.0
2.0 -5.0 14.0
1.0 -5.0 14.0
0.0 -5.0 14.0
-1.0 -5.0 14.0
-2.0 -5.0 14.0
-3.0 -5.0 14.0
-4.0 -5.0 14.0
4.0 -5.0 13.0
3.0 -5.0 13.0
2.0 -5.0 13.0
1.0 -5.0 13.0
0.0 -5.0 13.0
-1.0 -5.0 13.0
-2.0 -5.0 13.0
-3.0 -5.0 13.0
-4.0 -5.0 13.0
4.0 -5.0 12.0
3.0 -5.0 12.0
2.0 -5.0 12.0
1.0 -5.0 12.0
0.0 -5.0 12.0
-1.0 -5.0 12.0
-2.0 -5.0 12.0
-3.0 -5.0 12.0
-4.0 -5.0 12.0
4.0 -5.0 11.0
3.0 -5.0 11.0
2.0 -5.0 11.0
1.0 -5.0 11.0
0.0 -5.0 11.0
-1.0 -5.0 11.0
-2.0 -5.0 11.0
-3.0 -5.0 11.0
-4.0 -5.0 11.0
4.0 -5.0 10.0
3.0 -5.0 10.0
2.0 -5.0 10.0
1.0 -5.0 10.0
0.0 -5.0 10.0
-1.0 -5.0 10.0
-2.0 -5.0 10.0
-3.0 -5.0 10.0
-4.0 -5.0 10.0
4.0 -5.0 9.0
3.0 -5.0 9.0
2.0 -5.0 9.0
1.0 -5.0 9.0
0.0 -5.0 9.0
-1.0 -5.0 9.0
-2.0 -5.0 9.0
-3.0 -5.0 9.0
-4.0 -5.0 9.0
4.0 -5.0 8.0
3.0 -5.0 8.0
2.0 -5.0 8.0
1.0 -5.0 8.0
0.0 -5.0 8.0
-1.0 -5.0 8.0
-2.0 -5.0 8.0
-3.0 -5.0 8.0
-4.0 -5.0 8.0
4.0 -5.0 7.0
3.0 -5.0 7.0
2.0 -5.0 7.0
1.0 -5.0 7.0
0.0 -5.0 7.0
-1.0 -5.0 7.0
-2.0 -5.0 7.0
-3.0 -5.0 7.0
-4.0 -5.0 7.0
4.0 -5.0 6.0
3.0 -5.0 6.0
2.0 -5.0 6.0
1.0 -5.0 6.0
0.0 -5.0 6.0
-1.0 -5.0 6.0
-2.0 -5.0 6.0
-3.0 -5.0 6.0
-4.0 -5.0 6.0
4.0 -5.0 5.0
3.0 -5.0 5.0
2.0 -5.0 5.0
1.0 -5.0 5.0
0.0 -5.0 5.0
-1.0 -5.0 5.0
-2.0 -5.0 5.0
-3.0 -5.0 5.0
-4.0 -5.0 5.0
4.0 -5.0 4.0
3.0 -5.0 4.0
2.0 -5.0 4.0
1.0 -5.0 4.0
0.0 -5.0 4.0
-1.0 -5.0 4.0
-2.0 -5.0 4.0
-3.0 -5.0 4.0
-4.0 -5.0 4.0
4.0 -5.0 3.0
3.0 -5.0 3.0
2.0 -5.0 3.0
1.0 -5.0 3.0
0.0 -5.0 3.0
-1.0 -5.0 3.0
-2.0 -5.0 3.0
-3.0 -5.0 3.0
-4.0 -5.0 3.0
4.0 -5.0 2.0
3.0 -5.0 2.0
2.0 -5.0 2.0
1.0 -5.0 2.0
0.0 -5.0 2.0
-1.0 -5.0 2.0
-2.0 -5.0 2.0
-3.0 -5.0 2.0
-4.0 -5.0 2.0
4.0 -5.0 1.0
3.0 -5.0 1.0
2.0 -5.0 1.0
1.0 -5.0 1.0
0.0 -5.0 1.0
-1.0 -5.0 1.0
-2.0 -5.0 1.0
-3.0 -5.0 1.0
-4.0 -5.0 1.0
4.0 -4.0 50.0
4.0 -3.0 50.0
4.0 -2.0 50.0
4.0 -1.0 50.0
4.0 0.0 50.0
4.0 1.0 50.0
4.0 2.0 50.0
4.0 3.0 50.0
4.0 4.0 50.0
3.0 -4.0 50.0
3.0 -3.0 50.0
3.0 -2.0 50.0
3.0 -1.0 50.0
3.0 0.0 50.0
3.0 1.0 50.0
3.0 2.0 50.0
3.0 3.0 50.0
3.0 4.0 50.0
2.0 -4.0 50.0
2.0 -3.0 50.0
2.0 -2.0 50.0
2.0 -1.0 50.0
2.0 0.0 50.0
2.0 1.0 50.0
2.0 2.0 50.0
2.0 3.0 50.0
2.0 4.0 50.0
1.0 -4.0 50.0
1.0 -3.0 50.0
1.0 -2.0 50.0
1.0 -1.0 50.0
1.0 0.0 50.0
1.0 1.0 50.0
1.0 2.0 50.0
1.0 3.0 50.0
1.0 4.0 50.0
0.0 -4.0 50.0
0.0 -3.0 50.0
0.0 -2.0 50.0
0.0 -1.0 50.0
0.0 0.0 50.0
0.0 1.0 50.0
0.0 2.0 50.0
0.0 3.0 50.0
0.0 4.0 50.0
-1.0 -4.0 50.0
-1.0 -3.0 50.0
-1.0 -2.0 50.0
-1.0 -1.0 50.0
-1.0 0.0 50.0
-1.0 1.0 50.0
-1.0 2.0 50.0
-1.0 3.0 50.0
-1.0 4.0 50.0
-2.0 -4.0 50.0
-2.0 -3.0 50.0
-2.0 -2.0 50.0
-2.0 -1.0 50.0
-2.0 0.0 50.0
-2.0 1.0 50.0
-2.0 2.0 50.0
-2.0 3.0 50.0
-2.0 4.0 50.0
-3.0 -4.0 50.0
-3.0 -3.0 50.0
-3.0 -2.0 50.0
-3.0 -1.0 50.0
-3.0 0.0 50.0
-3.0 1.0 50.0
-3.0 2.0 50.0
-3.0 3.0 50.0
-3.0 4.0 50.0
-4.0 -4.0 50.0
-4.0 -3.0 50.0
-4.0 -2.0 50.0
-4.0 -1.0 50.0
-4.0 0.0 50.0
-4.0 1.0 50.0
-4.0 2.0 50.0
-4.0 3.0 50.0
-4.0 4.0 50.0
5.0 4.0 49.0
5.0 3.0 49.0
5.0 2.0 49.0
5.0 1.0 49.0
5.0 0.0 49.0
5.0 -1.0 49.0
5.0 -2.0 49.0
5.0 -3.0 49.0
5.0 -4.0 49.0
5.0 4.0 48.0
5.0 3.0 48.0
5.0 2.0 48.0
5.0 1.0 48.0
5.0 0.0 48.0
5.0 -1.0 48.0
5.0 -2.0 48.0
5.0 -3.0 48.0
5.0 -4.0 48.0
5.0 4.0 47.0
5.0 3.0 47.0
5.0 2.0 47.0
5.0 1.0 47.0
5.0 0.0 47.0
5.0 -1.0 47.0
5.0 -2.0 47.0
5.0 -3.0 47.0
5.0 -4.0 47.0
5.0 4.0 46.0
5.0 3.0 46.0
5.0 2.0 46.0
5.0 1.0 46.0
5.0 0.0 46.0
5.0 -1.0 46.0
5.0 -2.0 46.0
5.0 -3.0 46.0
5.0 -4.0 46.0
5.0 4.0 45.0
5.0 3.0 45.0
5.0 2.0 45.0
5.0 1.0 45.0
5.0 0.0 45.0
5.0 -1.0 45.0
5.0 -2.0 45.0
5.0 -3.0 45.0
5.0 -4.0 45.0
5.0 4.0 44.0
5.0 3.0 44.0
5.0 2.0 44.0
5.0 1.0 44.0
5.0 0.0 44.0
5.0 -1.0 44.0
5.0 -2.0 44.0
5.0 -3.0 44.0
5.0 -4.0 44.0
5.0 4.0 43.0
5.0 3.0 43.0
5.0 2.0 43.0
5.0 1.0 43.0
5.0 0.0 43.0
5.0 -1.0 43.0
5.0 -2.0 43.0
5.0 -3.0 43.0
5.0 -4.0 43.0
5.0 4.0 42.0
5.0 3.0 42.0
5.0 2.0 42.0
5.0 1.0 42.0
5.0 0.0 42.0
5.0 -1.0 42.0
5.0 -2.0 42.0
5.0 -3.0 42.0
5.0 -4.0 42.0
5.0 4.0 41.0
5.0 3.0 41.0
5.0 2.0 41.0
5.0 1.0 41.0
5.0 0.0 41.0
5.0 -1.0 41.0
5.0 -2.0 41.0
5.0 -3.0 41.0
5.0 -4.0 41.0
5.0 4.0 40.0
5.0 3.0 40.0
5.0 2.0 40.0
5.0 1.0 40.0
5.0 0.0 40.0
5.0 -1.0 40.0
5.0 -2.0 40.0
5.0 -3.0 40.0
5.0 -4.0 40.0
5.0 4.0 39.0
5.0 3.0 39.0
5.0 2.0 39.0
5.0 1.0 39.0
5.0 0.0 39.0
5.0 -1.0 39.0
5.0 -2.0 39.0
5.0 -3.0 39.0
5.0 -4.0 39.0
5.0 4.0 38.0
5.0 3.0 38.0
5.0 2.0 38.0
5.0 1.0 38.0
5.0 0.0 38.0
5.0 -1.0 38.0
5.0 -2.0 38.0
5.0 -3.0 38.0
5.0 -4.0 38.0
5.0 4.0 37.0
5.0 3.0 37.0
5.0 2.0 37.0
5.0 1.0 37.0
5.0 0.0 37.0
5.0 -1.0 37.0
5.0 -2.0 37.0
5.0 -3.0 37.0
5.0 -4.0 37.0
5.0 4.0 36.0
5.0 3.0 36.0
5.0 2.0 36.0
5.0 1.0 36.0
5.0 0.0 36.0
5.0 -1.0 36.0
5.0 -2.0 36.0
5.0 -3.0 36.0
5.0 -4.0 36.0
5.0 4.0 35.0
5.0 3.0 35.0
5.0 2.0 35.0
5.0 1.0 35.0
5.0 0.0 35.0
5.0 -1.0 35.0
5.0 -2.0 35.0
5.0 -3.0 35.0
5.0 -4.0 35.0
5.0 4.0 34.0
5.0 3.0 34.0
5.0 2.0 34.0
5.0 1.0 34.0
5.0 0.0 34.0
5.0 -1.0 34.0
5.0 -2.0 34.0
5.0 -3.0 34.0
5.0 -4.0 34.0
5.0 4.0 33.0
5.0 3.0 33.0
5.0 2.0 33.0
5.0 1.0 33.0
5.0 0.0 33.0
5.0 -1.0 33.0
5.0 -2.0 33.0
5.0 -3.0 33.0
5.0 -4.0 33.0
5.0 4.0 32.0
5.0 3.0 32.0
5.0 2.0 32.0
5.0 1.0 32.0
5.0 0.0 32.0
5.0 -1.0 32.0
5.0 -2.0 32.0
5.0 -3.0 32.0
5.0 -4.0 32.0
5.0 4.0 31.0
5.0 3.0 31.0
5.0 2.0 31.0
5.0 1.0 31.0
5.0 0.0 31.0
5.0 -1.0 31.0
5.0 -2.0 31.0
5.0 -3.0 31.0
5.0 -4.0 31.0
5.0 4.0 30.0
5.0 3.0 30.0
5.0 2.0 30.0
5.0 1.0 30.0
5.0 0.0 30.0
5.0 -1.0 30.0
5.0 -2.0 30.0
5.0 -3.0 30.0
5.0 -4.0 30.0
5.0 4.0 29.0
5.0 3.0 29.0
5.0 2.0 29.0
5.0 1.0 29.0
5.0 0.0 29.0
5.0 -1.0 29.0
5.0 -2.0 29.0
5.0 -3.0 29.0
5.0 -4.0 29.0
5.0 4.0 28.0
5.0 3.0 28.0
5.0 2.0 28.0
5.0 1.0 28.0
5.0 0.0 28.0
5.0 -1.0 28.0
5.0 -2.0 28.0
5.0 -3.0 28.0
5.0 -4.0 28.0
5.0 4.0 27.0
5.0 3.0 27.0
5.0 2.0 27.0
5.0 1.0 27.0
5.0 0.0 27.0
5.0 -1.0 27.0
5.0 -2.0 27.0
5.0 -3.0 27.0
5.0 -4.0 27.0
5.0 4.0 26.0
5.0 3.0 26.0
5.0 2.0 26.0
5.0 1.0 26.0
5.0 0.0 26.0
5.0 -1.0 26.0
5.0 -2.0 26.0
5.0 -3.0 26.0
5.0 -4.0 26.0
5.0 4.0 25.0
5.0 3.0 25.0
5.0 2.0 25.0
5.0 1.0 25.0
5.0 0.0 25.0
5.0 -1.0 25.0
5.0 -2.0 25.0
5.0 -3.0 25.0
5.0 -4.0 25.0
5.0 4.0 24.0
5.0 3.0 24.0
5.0 2.0 24.0
5.0 1.0 24.0
5.0 0.0 24.0
5.0 -1.0 24.0
5.0 -2.0 24.0
5.0 -3.0 24.0
5.0 -4.0 24.0
5.0 4.0 23.0
5.0 3.0 23.0
5.0 2.0 23.0
5.0 1.0 23.0
5.0 0.0 23.0
5.0 -1.0 23.0
5.0 -2.0 23.0
5.0 -3.0 23.0
5.0 -4.0 23.0
5.0 4.0 22.0
5.0 3.0 22.0
5.0 2.0 22.0
5.0 1.0 22.0
5.0 0.0 22.0
5.0 -1.0 22.0
5.0 -2.0 22.0
5.0 -3.0 22.0
5.0 -4.0 22.0
5.0 4.0 21.0
5.0 3.0 21.0
5.0 2.0 21.0
5.0 1.0 21.0
5.0 0.0 21.0
5.0 -1.0 21.0
5.0 -2.0 21.0
5.0 -3.0 21.0
5.0 -4.0 21.0
5.0 4.0 20.0
5.0 3.0 20.0
5.0 2.0 20.0
5.0 1.0 20.0
5.0 0.0 20.0
5.0 -1.0 20.0
5.0 -2.0 20.0
5.0 -3.0 20.0
5.0 -4.0 20.0
5.0 4.0 19.0
5.0 3.0 19.0
5.0 2.0 19.0
5.0 1.0 19.0
5.0 0.0 19.0
5.0 -1.0 19.0
5.0 -2.0 19.0
5.0 -3.0 19.0
5.0 -4.0 19.0
5.0 4.0 18.0
5.0 3.0 18.0
5.0 2.0 18.0
5.0 1.0 18.0
5.0 0.0 18.0
5.0 -1.0 18.0
5.0 -2.0 18.0
5.0 -3.0 18.0
5.0 -4.0 18.0
5.0 4.0 17.0
5.0 3.0 17.0
5.0 2.0 17.0
5.0 1.0 17.0
5.0 0.0 17.0
5.0 -1.0 17.0
5.0 -2.0 17.0
5.0 -3.0 17.0
5.0 -4.0 17.0
5.0 4.0 16.0
5.0 3.0 16.0
5.0 2.0 16.0
5.0 1.0 16.0
5.0 0.0 16.0
5.0 -1.0 16.0
5.0 -2.0 16.0
5.0 -3.0 16.0
5.0 -4.0 16.0
5.0 4.0 15.0
5.0 3.0 15.0
5.0 2.0 15.0
5.0 1.0 15.0
5.0 0.0 15.0
5.0 -1.0 15.0
5.0 -2.0 15.0
5.0 -3.0 15.0
5.0 -4.0 15.0
5.0 4.0 14.0
5.0 3.0 14.0
5.0 2.0 14.0
5.0 1.0 14.0
5.0 0.0 14.0
5.0 -1.0 14.0
5.0 -2.0 14.0
5.0 -3.0 14.0
5.0 -4.0 14.0
5.0 4.0 13.0
5.0 3.0 13.0
5.0 2.0 13.0
5.0 1.0 13.0
5.0 0.0 13.0
5.0 -1.0 13.0
5.0 -2.0 13.0
5.0 -3.0 13.0
5.0 -4.0 13.0
5.0 4.0 12.0
5.0 3.0 12.0
5.0 2.0 12.0
5.0 1.0 12.0
5.0 0.0 12.0
5.0 -1.0 12.0
5.0 -2.0 12.0
5.0 -3.0 12.0
5.0 -4.0 12.0
5.0 4.0 11.0
5.0 3.0 11.0
5.0 2.0 11.0
5.0 1.0 11.0
5.0 0.0 11.0
5.0 -1.0 11.0
5.0 -2.0 11.0
5.0 -3.0 11.0
5.0 -4.0 11.0
5.0 4.0 10.0
5.0 3.0 10.0
5.0 2.0 10.0
5.0 1.0 10.0
5.0 0.0 10.0
5.0 -1.0 10.0
5.0 -2.0 10.0
5.0 -3.0 10.0
5.0 -4.0 10.0
5.0 4.0 9.0
5.0 3.0 9.0
5.0 2.0 9.0
5.0 1.0 9.0
5.0 0.0 9.0
5.0 -1.0 9.0
5.0 -2.0 9.0
5.0 -3.0 9.0
5.0 -4.0 9.0
5.0 4.0 8.0
5.0 3.0 8.0
5.0 2.0 8.0
5.0 1.0 8.0
5.0 0.0 8.0
5.0 -1.0 8.0
5.0 -2.0 8.0
5.0 -3.0 8.0
5.0 -4.0 8.0
5.0 4.0 7.0
5.0 3.0 7.0
5.0 2.0 7.0
5.0 1.0 7.0
5.0 0.0 7.0
5.0 -1.0 7.0
5.0 -2.0 7.0
5.0 -3.0 7.0
5.0 -4.0 7.0
5.0 4.0 6.0
5.0 3.0 6.0
5.0 2.0 6.0
5.0 1.0 6.0
5.0 0.0 6.0
5.0 -1.0 6.0
5.0 -2.0 6.0
5.0 -3.0 6.0
5.0 -4.0 6.0
5.0 4.0 5.0
5.0 3.0 5.0
5.0 2.0 5.0
5.0 1.0 5.0
5.0 0.0 5.0
5.0 -1.0 5.0
5.0 -2.0 5.0
5.0 -3.0 5.0
5.0 -4.0 5.0
5.0 4.0 4.0
5.0 3.0 4.0
5.0 2.0 4.0
5.0 1.0 4.0
5.0 0.0 4.0
5.0 -1.0 4.0
5.0 -2.0 4.0
5.0 -3.0 4.0
5.0 -4.0 4.0
5.0 4.0 3.0
5.0 3.0 3.0
5.0 2.0 3.0
5.0 1.0 3.0
5.0 0.0 3.0
5.0 -1.0 3.0
5.0 -2.0 3.0
5.0 -3.0 3.0
5.0 -4.0 3.0
5.0 4.0 2.0
5.0 3.0 2.0
5.0 2.0 2.0
5.0 1.0 2.0
5.0 0.0 2.0
5.0 -1.0 2.0
5.0 -2.0 2.0
5.0 -3.0 2.0
5.0 -4.0 2.0
5.0 4.0 1.0
5.0 3.0 1.0
5.0 2.0 1.0
5.0 1.0 1.0
5.0 0.0 1.0
5.0 -1.0 1.0
5.0 -2.0 1.0
5.0 -3.0 1.0
5.0 -4.0 1.0
-0.0871739984 0.997173786 16.1921673
0.209237874 2.08339024 15.7936916
0.933094978 0.924556255 15.7507229
-0.00154559338 0.633104205 15.0772619
0.56958282 0.0100621935 16.0450287
1.4933219 -0.832872152 11.0212889
1.52163041 0.050348971 12.169199
2.16457176 0.443547308 11.2894144
0.74313271 -0.135375604 11.4906301
1.11800241 -1.04243302 11.9100809
0.777781844 0.518514931 12.6637573
1.55832553 0.474300802 13.3876591
1.84826994 1.50390041 12.1619558
2.36534691 -0.136781842 13.2653294
1.59657264 -0.65298152 12.8189096
2.25194216 -0.409297198 11.6836424
1.35692334 1.28379905 11.294302
0.296766609 0.511268377 26.1053715
1.3089149 -0.673283279 25.6611347
1.0874263 0.777275145 25.4572296
1.66666913 0.0 26.6666622
-0.169470519 -0.358463645 25.7573605
0.483435005 0.00713886786 25.0266609
-0.486111283 0.347220093 26.6777725
-0.0828349367 1.32567573 26.8835907
-0.542110562 1.63343251 25.9711647
-0.651530981 0.531158388 25.2560806
0.970841706 0.796062946 26.9843197
0.556844354 0.00146007899 27.441227
-1.07256901 0.648053348 8.33540916
-0.0185534544 -0.47543782 8.25599098
-0.0662419796 0.580420971 9.30807495
-0.96539408 -0.00136189582 9.08243084
-0.275517851 0.840112329 7.64785099
0.0167608205 1.69068277 8.04847622
0.587319136 -4.21726227 14.6858435
0.746876359 -3.56992483 15.7938633
-0.361317307 -4.26781082 15.234374
0.432734489 -4.30668497 15.9281807
-1.66101563 0.986703038 10.0340443
-2.564852 0.178908765 9.01839638
-2.3986311 1.3404665 9.11357117
-1.41639698 1.39425194 7.57891369
-0.667072415 1.97255087 7.55758905
0.0995545834 -1.11918068 4.2251029
0.0133307427 0.378797054 3.82663751
0.770091891 -0.470481157 3.59434867
-0.345744163 -0.647961497 3.05123401
-0.000231205573 -0.969505131 5.65185356
-0.470370322 -0.111111693 4.90158796
-0.734692097 -1.65027881 4.67669153
0.725928485 -0.222223386 4.5428586
0.882806182 1.18178988 14.7592115
-4.65076971 -4.27664089 13.5982113
-4.03622532 -3.9278183 13.9397593
-4.34509373 -4.34607887 13.3039093
-4.282516 -3.44158983 13.3680096
0.428300411 1.8024596 16.7698269
1.09568 0.758347929 16.8801079
1.83641195 1.45846379 16.381712
1.68991005 0.0880798176 15.9704094
0.0238490123 0.830667794 29.1051464
0.546918333 -0.065098621 28.9318695
-0.489721894 -0.0487400331 28.8203831
0.928350508 0.721747756 28.2937164
-0.310743451 1.66506016 30.571516
0.522543609 1.68876982 29.1946907
-0.572376311 1.72169602 29.2360401
1.28255749 1.17121768 29.2447433
0.703707397 0.833334565 30.2608509
-0.555555284 0.0 30.0158749
0.11574214 -0.85069716 7.08965111
-0.709873915 -0.578704357 6.27861691
-0.669070899 -1.76894748 6.40143776
-1.55492711 -1.45442235 5.19054461
0.478399158 0.28934902 5.62396288
1.24259377 -0.979168236 5.17487001
-0.422304899 -2.67971683 4.9492259
-4.35194111 -4.30178213 24.6447887
-4.31930971 -4.31581926 23.510416
-0.800791562 0.478164792 5.938694
0.0909873098 1.34121406 6.90283394
-0.555555284 0.0 7.22539711
0.555558503 0.0 6.7650795
0.200623095 2.02546215 5.85240364
-0.848761976 1.44675779 5.60659409
-1.69592774 -0.0337591805 7.01650143
-1.29629683 1.47569335 6.44626617
-1.91650093 0.873082876 5.36257696
-4.06034994 -1.63224792 19.1122036
-3.6039691 -0.675608039 18.0695362
-2.70888996 -1.32182753 19.1168003
-2.76168394 -1.14764428 17.9558449
-0.568819523 -1.11859155 23.5698986
1.01728547 -0.913806736 24.5648899
-0.507192194 0.0390579067 23.925869
0.0677464008 -0.982291102 24.9480419
0.673650682 -0.818432868 23.0567074
-0.851853192 -1.03703618 25.2663116
-0.0925930813 -1.38888991 26.4232769
0.39970693 -0.608992279 42.6449699
1.59833992 0.020593131 42.0372963
0.704866588 0.372418344 42.892189
1.98660696 -0.419701457 42.9384689
0.532989025 -0.0540482625 41.7818451
-0.296066642 -1.36592138 42.0862007
1.26432073 -1.14777732 42.1122208
-4.20485973 -1.35795259 33.2690582
-3.31691313 -2.41662717 32.1596336
-3.3679018 -1.05617869 33.2161789
-3.37619352 -2.46354294 33.1389122
0.371594846 -2.46357775 42.9283714
1.4376235 -1.93775916 43.0013046
0.27778241 -1.73610997 43.9027786
-0.777332127 -1.43128288 43.3589134
-0.596431196 -0.044163432 43.1855392
1.43495679 -1.28412843 43.7474785
2.25007367 -3.12808156 33.0024223
2.38522434 -2.0688622 33.3343353
1.313254 -2.60882235 32.1733475
0.993303478 -3.04172468 33.2482109
1.47478747 -1.59694314 32.6659737
2.24668479 -0.843738794 31.9496021
1.00116444 -1.02694547 31.9973068
1.61838198 -0.147702351 32.7671318
1.15503335 -1.02218831 33.322876
1.42568958 -1.82266629 33.696743
2.30440998 -0.885317802 33.9303551
1.75925899 -1.73611307 31.4884205
2.36298418 -1.38296402 32.655571
2.59715438 -2.16396999 31.7358475
0.437725991 -1.84329116 32.769516
-0.354938567 -0.0115729468 14.282032
0.0925930813 -1.38888991 13.9989443
0.478392839 -0.289352179 14.9852104
-0.709877133 -0.578704357 15.1323204
-1.08392024 0.786960423 14.4373417
-1.64820111 -0.0654216781 14.3691521
3.45347643 3.41597676 4.98415709
3.6355207 4.26587582 6.32391405
3.28678036 2.48086739 5.70423555
4.2277174 3.52948928 5.7427392
-1.97912598 -0.497408688 18.5352707
-1.00855041 -0.908764601 18.8157806
-1.38761663 0.287309349 17.8477783
-0.768533647 0.741017044 19.00037
-1.81877697 -1.25481284 19.8048077
-1.26484644 0.257898718 19.8317108
-2.15856695 -1.92836535 18.5014076
-2.43625426 -0.34477818 17.5289154
-2.15997314 1.00641572 17.8476582
-1.41494012 -1.20128393 17.7299538
-1.89550245 -0.896244645 34.8406792
-2.49997187 -2.11223078 35.7026901
-2.47407389 -2.10000229 34.6926003
-1.65353477 -2.31452298 35.1953354
-0.992654204 -2.56034207 33.8173332
-0.863027036 -1.40428877 34.6196709
-0.744117677 -2.49976301 35.6650429
-0.087506555 1.13605547 24.1841106
0.734574914 1.8833245 25.0714455
0.88812077 0.685749412 24.2743568
0.895272315 2.17858362 24.1382122
0.247440636 2.87132621 24.0569973
-0.485585541 2.20894432 24.5057182
-0.637402058 2.09741449 23.0662956
-0.035627827 1.38917172 23.1914711
-1.15221143 1.58499336 23.8188095
2.58257246 3.43345976 5.454144
3.62008381 4.3427372 5.33011341
2.67131758 4.26900482 6.32792377
0.0128081553 -0.0137836523 22.8365803
-1.43763626 1.14830625 24.6356239
1.01454902 0.868053377 37.8032341
1.62557149 0.0146578001 38.6310616
0.559986234 0.0514384881 37.5560455
1.67570198 0.0303449389 37.6451569
2.218256 1.21527982 37.4652748
2.07407856 0.865741313 38.482933
0.0511439405 1.48148298 37.8117294
0.196157336 1.1203208 36.4626961
1.20172417 1.9965266 37.0335655
1.47354591 1.73611307 38.0509224
0.533863187 1.11429048 38.784565
0.860882878 -0.682024777 26.9349937
1.31944263 -1.77546239 25.0687122
-0.0370403975 -2.07407546 25.4850063
-1.09771657 -0.778557837 24.2602463
-0.685185611 -1.90740788 24.3264542
-1.49788272 -0.0351749174 26.1980572
-0.996790528 -0.691228628 26.4959183
0.0596415363 0.777097762 44.3733101
-0.865896523 -0.259694517 45.1188545
-1.4347477 0.729368031 45.2788315
-0.528393388 -0.104276881 44.1960297
1.07407343 0.828571081 44.2407379
0.448177755 -0.0384973101 44.907299
0.555558503 0.0 43.9460297
0.481477678 1.65714216 45.0338631
-0.140614167 1.69383729 43.6658325
-0.110668287 0.386512369 45.6973457
-1.44444573 1.24999869 44.1198463
0.865576625 -0.531585932 36.4307785
-0.733992159 -0.614097834 35.8511925
0.382540703 -1.51082385 35.7726212
-0.110164702 -0.866130888 37.0074501
1.82268536 0.580921412 36.0131645
2.13236141 -0.646704137 36.3303909
1.68267608 -0.00732573261 35.1056328
1.67567027 0.487653732 36.9729958
2.19926548 -0.870802522 35.1888351
0.498352528 -0.421186864 35.4120293
1.2615273 -1.4814893 44.630024
1.03391957 -1.67415953 45.6449471
1.06322253 -2.92840862 45.4570312
2.4732852 -2.11005807 45.4448433
2.43937707 -1.86918616 43.7433777
2.70082307 -1.1555084 44.6862984
2.12451959 -2.56394625 44.3648338
-2.4607811 1.57568181 32.6868896
-0.404007971 1.7512207 32.3860855
-2.30589557 2.24028707 32.2668152
-1.49300206 2.46683669 32.9977417
2.24398613 -0.86901623 43.8269806
0.0916049108 -0.812605202 45.3363876
0.340638638 -0.841005504 44.2153625
1.62604022 -0.0725732073 44.6734734
-0.000652443094 -0.996166587 31.2154961
-0.0915669054 -0.828583777 30.0437469
-1.04764938 -1.77076542 30.2463398
-1.14657378 -0.792879879 30.5456085
-0.437317401 -1.89469802 31.7431259
0.331232071 -0.323212713 32.5599899
4.3158164 -4.31931257 1.51041687
3.6562531 -4.31931257 0.68418318
4.50000143 -4.50000143 0.500001013
-0.690018773 -0.436436921 32.4108353
-1.18911874 -1.24552655 31.9398975
1.16386986 -0.900349319 31.0307846
0.555697858 -0.0185756255 31.0813141
2.60609221 -3.96968555 2.57597685
3.64857602 -2.48566246 2.4960556
2.3700788 -3.24858069 3.30162024
3.44183373 -3.26528454 3.54323959
-1.12844789 0.758455634 30.7439137
-1.63979542 -0.00670179445 31.5996208
-1.68309104 -0.0040540155 30.0711994
-1.12384915 1.00854409 31.8917503
-0.518185496 -0.0263004247 31.3449974
-1.11728346 -1.3621397 11.8654337
0.0 -0.555555284 12.0444469
-0.0279093627 -1.65839326 10.9121351
-0.837870002 -0.500452399 11.4192038
0.0 -0.555555284 10.6547623
0.0 0.555558503 11.9555559
-1.612396 -1.5079639 11.0159845
-2.20199871 -1.09260786 11.5983438
-1.77584875 -0.561554015 10.8201399
-0.694443345 -0.879629493 12.6259251
-1.12847316 0.532406271 12.1981821
-1.6871134 -0.426441252 12.15312
-0.0352604315 -1.6563915 9.71563339
0.868053377 -1.15740871 9.76435089
-0.865823686 -0.526603937 10.2003603
0.0 0.555558503 10.3841276
0.877073586 -0.00152342301 9.81846619
-0.0160672031 -0.607392848 9.49986458
1.09683919 -0.464333624 40.9294624
0.833733618 0.449919701 40.7497787
2.06944823 3.16719957e-6 39.7619057
0.669647336 -0.817603052 39.6368828
-0.438140899 0.306185842 40.9426689
-0.482430995 -0.272299975 40.1847458
0.0624603443 -1.33208609 40.9597206
2.29882312 -1.64534116 10.8500643
1.79675865 -2.87987757 10.7399216
1.56805515 -1.79691696 10.0375443
2.35925341 -2.58518553 9.97407341
3.17284346 -1.8529954 9.75801945
1.99778712 -1.95379794 11.8434439
2.71240878 -2.93190837 11.1655302
3.01264024 -1.58841074 11.6562681
0.426343083 2.30194592 31.451067
0.111181371 2.63538885 32.5524902
1.24652112 3.32802367 32.1340218
0.146666676 3.34221911 30.920002
1.31975305 2.07281184 31.1131268
1.74310625 2.53035808 31.8077049
1.01852703 1.73610675 32.3101807
0.495312005 2.39103293 30.3715839
0.204100668 1.11025548 31.2096939
-0.656725168 2.63830256 31.7470093
-1.35813951 1.85634005 37.3875465
-0.375990927 1.88006234 36.8412895
-0.274472684 2.29514289 38.4877281
-0.234565973 3.35185361 37.5839539
-2.2800734 2.15939045 38.6084747
-2.50108671 1.86985123 37.6341667
-1.27777815 2.33333302 38.3388901
-2.34814906 1.03703618 38.4899445
4.19802189 -1.73158717 45.7789001
4.30887985 -0.498301834 45.5782089
4.25259876 -1.64821696 46.3835144
-4.35462093 -3.83527279 14.2105675
-2.27778029 0.777775526 37.5944443
-0.8681674 0.752317607 37.7677498
-1.24999869 2.60416651 36.6875038
-1.43981528 1.3715241 36.4206047
-1.65159953 3.27317405 38.0710144
-2.40249181 2.59688187 37.1227875
-2.49935126 1.87645173 36.4889717
-1.00687492 2.49083781 33.7971191
-1.96193123 2.22484374 34.2091217
-0.648148417 1.73611307 34.5982819
-0.865421474 2.60500264 35.1834335
-1.65383875 3.34109783 33.467247
-1.5570935 3.37413168 35.16642
-0.706405878 3.44408894 32.829483
-0.678341329 3.48009992 33.8640175
-1.10016799 1.46591294 33.2139282
3.98049212 0.951990485 17.8014679
4.27234316 0.686800897 16.6612606
3.34044528 1.85012591 17.3214951
4.176054 1.62960649 16.8792171
0.46296224 1.73611307 33.5712967
-0.178918272 2.56450677 33.4076805
0.0659315959 -0.623073697 21.7348652
1.53393805 -0.904811919 22.3270454
0.114000179 -1.63331211 21.7116451
1.46790826 -1.41131365 21.5322609
3.66666698 -3.33333182 0.666668534
2.6652112 -3.35047603 0.791500568
-2.06386757 0.291268349 4.16578102
-1.09679174 -0.669628322 4.27774477
-1.00741017 0.310182869 4.09051895
-1.66666913 0.0 5.2603178
-2.36444426 1.34222114 4.03111172
-2.56124783 0.739743829 3.34684467
-3.10850501 0.326392591 4.21102476
-2.34355021 -0.834652126 4.70690966
-2.77777982 0.0 5.09523726
1.05962467 -0.808798254 29.9748287
3.45833492 -4.25687122 38.2708321
4.33333731 -3.66666698 37.6666641
4.30922222 -4.32267332 37.6014366
3.35544515 -4.27039528 37.3278542
1.66666913 0.0 5.75555372
1.92222404 -0.333335072 4.18412876
1.44369197 -2.38761568 4.65783072
1.55398643 -1.33805311 4.05964518
2.23938751 -0.946555614 5.26695633
1.06481886 -0.868056536 6.47136307
1.75925899 -1.73611307 5.80688143
-2.39787412 0.303322703 11.3115091
-1.38888991 -0.0925930813 13.1185198
-2.25694323 0.509260356 12.4408054
-0.00522587914 0.582099617 13.4057913
-0.774921894 2.09082055 12.4087477
-1.4552902 1.07518828 13.0176382
-0.915719748 1.12572408 11.2261438
0.0 1.66666913 11.8666687
-1.5432117 1.80041361 11.9074078
-0.535677969 -2.41393495 43.8055954
-0.23311539 -1.68003786 44.7955246
0.421123534 -2.56677771 44.4741669
1.25000501 -2.60416651 43.6874962
1.48148298 -3.29861307 42.8356476
4.50000143 -3.49999928 0.500001013
-1.21621418 -1.08249819 40.8292503
4.51059246 3.03686929 0.723434269
4.22366953 2.04519367 1.16567671
4.30148792 2.82607961 1.43371677
-0.938466549 -0.470287949 41.6501503
0.0387475193 0.844875813 41.9851723
-1.09791923 0.993189454 41.3834229
-1.06481564 0.868053377 42.488163
-1.69710267 0.00476980256 42.7933159
-1.66804361 -0.0175906271 41.1901283
1.5245949 -2.40916204 9.08800793
2.2769568 -1.68480134 9.17575264
1.40277803 -1.56018782 8.59020996
2.46287131 -2.46214938 8.439147
2.5424695 -3.35272455 9.09323406
1.64444172 -3.24444437 8.45555687
-0.485943437 1.7526902 42.1809502
0.874679148 1.62992954 42.9986687
-1.31337118 -1.37035537 9.5877161
-0.911586523 -1.06416011 8.61919022
-1.84655654 -0.564413965 8.81012154
-2.55511618 0.0506656915 9.99974346
4.32027578 -2.64060521 0.665563226
-0.875163734 -2.26080418 9.98630238
-0.92658639 -2.4734149 30.8969517
-0.42871213 0.459839374 17.0636177
1.02984023 -0.0693775043 17.6291103
0.505776405 1.54180539 17.838562
-1.05655873 1.09509087 16.5761929
-0.532760978 0.0507702082 16.0084953
-1.63778424 0.0525121689 15.9621077
-0.500864089 2.07413554 17.2274857
-0.481480837 1.55555737 15.1693106
-1.09708631 0.771080077 15.5810461
0.059261471 -0.777775526 16.398941
-0.191216514 -0.826949477 17.4900341
-1.07607186 -0.817736089 16.4450741
-1.29891288 2.14715219 15.9941788
-2.38025188 1.35441494 16.4537582
-0.313074499 0.935014307 18.1745205
-1.19794261 1.35368013 17.676981
-0.0182177313 -2.43164587 26.3677292
0.777775526 -3.11111164 25.703701
0.777775526 -3.11111164 26.8666649
-0.51851809 -3.3703723 25.949995
1.42985129 -2.05155659 26.4796467
0.704385161 -2.10347986 27.1584587
-0.694446504 -2.08333325 27.4722214
1.08368897 -0.865665317 15.9870214
1.95725334 -0.13046962 17.047842
1.70008934 0.00619820971 28.7740917
2.37722397 1.7554394 29.0731201
0.0609274171 -0.0795917287 18.1837177
1.44018269 0.56072104 18.5659981
1.21087742 -0.736225069 18.3838444
1.64696276 -1.58837914 16.9622459
2.22500205 -0.121965691 18.2226906
1.73611307 -0.648151577 9.81124496
1.71723664 0.480350167 10.1457109
1.08768606 -0.545287251 8.33844948
2.19282961 0.40228501 8.89177227
0.986899376 1.12627518 9.37675571
0.836818457 0.996540368 22.1276894
0.0208338387 1.65972662 21.8663025
0.719011307 2.01983714 23.0465088
1.36304235 -1.41235244 23.8133163
1.68605864 -2.15533304 24.2029018
0.425924987 -1.90740788 24.2947083
1.59259462 -2.5972209 25.5138836
0.767292082 -3.10262036 24.5734158
0.988134623 2.72408295 43.9341164
1.77976346 1.46945393 43.8110809
2.95916533 0.679180622 42.8472519
1.85905743 0.558795333 42.9442368
2.09741449 1.35791779 42.569912
3.39485145 0.902898908 43.6864319
2.27291536 0.828571081 44.3476105
2.47407699 2.09999895 43.3883629
1.65819371 1.24154222 45.0093727
2.53097892 1.81115675 44.9392319
1.61601293 2.28922653 42.6842346
0.00057643035 1.03737187 35.2860374
0.709243655 0.393511891 35.9560204
-0.55826962 0.102031335 36.5964737
0.281069964 2.27976918 35.6051712
0.46296224 1.73611307 34.6141548
-1.16511452 0.870827854 34.7689362
-0.553471267 -0.09471827 34.8767357
-1.04640162 1.5234673 35.5791817
-0.4873465 2.72407031 6.75630951
-0.280243307 3.3648138 5.98086834
-0.515183032 2.54805636 4.67305565
-1.50996244 2.43261838 5.30888987
-1.549999 3.13055515 6.72500181
-2.48999858 2.0439713 5.77770519
-2.4173429 2.45167208 6.7709136
-1.62649 1.66754961 4.65777731
-1.39777696 2.52000141 3.96047378
3.21188879 -3.1996603 1.59782839
4.33886719 -3.6292274 2.36929178
4.33333731 -3.66666698 1.33333242
4.28745699 -2.68608284 1.34757841
-2.50992966 2.10029674 4.87308311
0.868053377 1.06481254 10.4310179
0.434026688 1.96759737 9.95215034
1.5202558 1.74845886 10.1278162
1.44117081 1.33513927 39.0652809
0.72883594 2.25694633 38.6365738
1.62962556 2.42129874 38.6972198
2.48148179 1.73148263 38.3277779
0.679383337 0.719112635 39.788765
0.682537854 2.08333325 39.6468277
1.14262426 1.60494041 40.5541725
1.71007872 2.36449194 39.7501373
0.10266161 -0.570165575 46.6814842
-1.43259716 -0.240545645 46.3567047
1.27864909 -0.586844087 46.4251938
-0.522556245 -1.69410026 45.8236923
-1.69777739 -1.67999673 45.3311081
0.804455996 0.522049487 2.55266309
0.144709349 1.26492882 2.92697525
-1.0503732 1.33925664 3.30010629
-0.567777514 1.80666566 4.01638746
1.32667017 0.839998364 4.71301603
0.872354448 1.94130325 4.40019512
-0.0446891859 1.04800737 4.82017517
1.08857286 0.48693794 3.58252239
2.07651114 0.66979301 40.4625168
-0.412290215 1.54212213 40.674984
-0.031748008 1.66666913 39.3333321
-0.596595883 -0.612238705 19.9164791
0.0171978939 -0.416664094 38.4510536
-0.277826756 0.415523916 39.423008
-1.64354217 -2.38219643 14.6647472
-2.33333302 -1.55555737 13.6444464
-1.29640448 -1.4408319 14.4145412
-1.55555737 -2.33333302 13.5777798
-1.09183192 -2.52850223 16.1592941
-0.965726674 -1.67601871 15.618125
-2.21964622 -2.57000518 15.7721167
-1.43948269 -3.36284065 15.6388979
-2.61324382 -1.68469357 15.3133383
-1.93515897 -0.77474767 15.244278
-2.70893741 -2.59342337 14.0690088
-1.03981376 -2.20324016 42.1082687
-0.837565899 -2.90185475 40.8111115
-0.754072189 -2.13209224 40.398201
-0.191564903 -2.2580328 41.4923744
-1.78267407 -2.43287158 41.0416679
0.705538034 -2.22437811 40.9589539
-0.558906198 -3.13333583 41.9932098
2.36882448 -1.35995436 42.9556351
2.39712024 -2.06525159 42.1815643
2.31308198 -2.46516132 43.0190086
1.3738488 -2.67418385 42.1050301
-1.3611294 -3.23173118 16.8850174
0.0183634236 -3.3327775 16.7842426
-1.20960104 -2.42247701 17.0265713
1.34257591 -2.3749752 28.7060738
2.27486634 -2.43726778 27.6500969
2.33183813 -1.55339098 28.1341839
2.23978662 -3.07738423 28.3784637
-2.08333325 -0.694446504 13.7222233
-2.77079916 -0.0399922282 14.2369061
3.28644466 -2.54321384 28.9434738
2.30530334 -1.59307921 29.0536098
3.23333073 -1.68333173 27.5166626
2.3505435 -1.54279041 27.0442944
3.27561283 -2.54966545 28.0198174
2.54303312 -3.32667112 27.3804283
4.30001163 -0.634757459 44.3924522
3.20354629 -3.39030337 28.0445023
-0.703976631 2.59388566 29.8428249
0.669970393 3.61817074 29.2445602
1.17706442 3.10660481 31.2951946
1.61988962 1.92578399 29.8626022
1.33829379 2.78850389 29.4395008
1.23235106 3.11723375 30.3005867
-0.400790095 -1.63600743 16.7192364
0.142872378 -2.29704642 17.1947479
-0.112913832 -2.59173536 15.8913498
-0.420341223 -2.31021881 14.6906071
-2.09056067 0.610085011 14.8075237
-2.77387142 -0.0487527028 15.0256014
4.35043383 -1.56029236 0.536699355
-0.612355888 -3.7645936 15.9854403
-1.31894541 0.0694883615 38.5690689
-1.97441006 -0.0668880865 39.4100685
-0.583065629 -0.889121592 39.3275757
1.28324163 1.86899614 15.4889345
-1.08649516 1.07845044 39.8993988
-0.0243969392 -1.46971357 39.9647408
-1.78163838 -0.176188141 7.90494823
-0.825372219 -0.853040874 7.68909121
-2.15133929 0.696194828 7.59621954
0.46296224 -1.73610997 37.3379593
1.89491022 -1.75700402 35.7477531
1.2417196 -2.34226131 35.4312363
1.22590899 -1.71964049 36.5648727
0.460352451 -2.99548984 35.166893
0.26577872 -1.5869633 34.2230759
1.39069831 -1.28432798 34.6250992
-1.30371749 -3.20533586 5.94608307
-1.62544799 -2.36606908 4.736938
1.32629645 -1.84085238 11.1287651
1.03728318 -2.3907702 12.0407858
-1.7137717 -2.23431993 3.75792193
-2.00629735 -1.29889071 3.56370592
-2.55703545 -1.81999958 4.5829649
-0.44888404 -2.30166721 3.7712431
-2.50243926 -2.77017212 4.26405001
-2.48373055 -2.1075623 5.58172226
-1.62278438 -3.25036716 4.30545139
0.678319156 -2.12284708 13.4904604
-0.319165021 -3.24287987 14.3158922
-0.694443345 -2.08333635 13.5793667
1.04166663 2.59259367 10.2718248
2.08333325 2.40740728 10.8716898
2.17803884 2.41204429 9.79574108
2.44967675 1.17541111 10.434556
0.0 -0.555555284 13.2253971
-1.67824209 -1.21913743 13.0486135
0.0189651903 0.855175555 33.7951736
-0.582166135 -0.0687313974 34.0367355
0.541306078 -0.0141510479 34.0010223
1.04870415 0.845255911 34.81353
1.06481254 0.868053377 33.7189827
1.11415744 0.857652307 32.8267708
0.58551383 0.630190372 31.9934483
-0.609451532 0.39904815 33.2693634
1.24961865 -2.574965 34.2208633
2.42848206 -2.11792541 34.934269
1.47297585 -3.36746788 35.5718918
2.20193839 -3.12684321 35.0154381
0.688663185 -1.50603509 2.90147948
1.50791001 1.05500686 31.0285625
-0.0299142003 -1.67032087 22.7638874
-1.02885842 -0.570659697 22.8146324
0.00576430326 0.515854478 21.7769852
-1.38425624 -0.113274895 21.8998241
-0.944078863 0.858988881 22.610281
0.683944106 0.400302351 14.1975975
1.18055463 -1.04166973 14.171031
-2.51916528 -3.19742417 16.6587715
-2.75000024 -4.25000191 16.75
-3.40000153 -3.13333583 17.0666656
-3.32855892 -3.4461 15.8792915
-2.75000024 -4.25000191 15.75
-0.0229685307 1.66347027 13.660327
0.884098411 1.18018091 13.5565815
2.08841968 0.964976013 14.5650873
1.66666913 0.0 14.8380976
-1.35593832 -1.44197524 38.768734
-0.699669242 -1.83342218 37.1765213
-1.71295774 -2.39059591 38.156105
-1.88205135 -2.03377914 37.1346321
-0.991875052 -0.859492421 37.891098
-1.91153479 -0.915453672 37.2098007
-3.48568988 -3.25317955 14.4825315
-2.6391387 -3.45725179 14.2507935
-2.75163126 -4.23707008 14.7498083
0.431828648 -1.56865382 38.4937134
1.08246017 0.582359314 19.7438011
0.702560902 -0.207318544 20.4214859
2.16330504 0.810936093 20.2566376
0.542769313 1.13005042 20.8227959
2.02250385 -1.10311973 20.5547848
2.83236313 -0.132227421 20.8043404
1.91277945 -0.193104163 19.7499294
1.65812397 0.32903403 22.3907814
2.95200729 0.289722741 22.0812855
2.48786068 -0.994358122 21.9078217
1.15412116 -0.088497892 21.517519
-1.2419318 -0.280141979 3.27435374
-2.27717209 -0.243158579 3.4557488
-0.818866789 0.658612788 2.50087929
-1.75173378 0.518825293 3.03427386
-1.40237892 -0.701198995 2.53730202
-3.36866188 -2.56972957 15.3566151
-4.23576212 -3.44448471 15.2557211
1.52332163 2.34200478 26.169014
2.16792917 1.53146136 25.7162628
1.662444 1.53220248 24.3625412
1.12485623 3.26702332 24.6376667
2.13575029 2.43875003 25.2745514
0.618585765 1.95918536 12.5624647
-2.53205895 -3.39304948 15.4791412
-3.32805204 -2.44203448 16.3643665
-4.20269346 -3.42560506 16.319479
-0.758195877 -0.435049713 27.4265881
-1.21602726 1.18579948 26.7715359
0.509045005 1.55360007 25.9962177
-0.197604746 -2.29735661 38.4185143
-0.728180349 -2.10057235 39.3390465
0.984010875 -2.09145713 39.5437431
-0.0908479542 -2.78446245 39.7731476
-0.576721728 1.11111057 38.6666679
1.06481886 -0.868056536 37.5023117
-4.33660555 -4.25860071 15.5876369
-4.32889366 -4.3154583 16.6561489
-0.904330492 -3.36371803 3.60390735
0.23309955 -3.34930086 3.61064696
-4.45833397 -4.45833397 49.4443703
0.201750606 -2.71150613 2.96712589
0.690797925 -2.4006803 3.85003996
-0.839998364 -2.68444562 2.95111251
0.0600691065 -1.99385667 2.27417445
-1.14777732 -1.73111212 2.74778152
-2.32222247 3.14999533 5.62777948
-3.3727634 2.54603577 5.04044151
-3.38906503 1.82259035 5.89623117
-3.34394836 1.05546927 5.29357672
-3.45504737 2.26810765 3.99127483
-2.59592557 2.6533277 3.81074119
1.58608282 -2.01867795 3.18463016
2.59793973 -2.13237739 2.42799568
1.56939173 -1.35844362 1.71102405
2.14792514 -1.18196404 2.66366386
1.57942545 -2.89406657 2.58537698
1.40287304 -3.34235215 3.55650067
-4.32019949 4.30885458 10.4661455
2.70666337 -1.00444567 3.64888787
-0.431974351 4.29242325 13.3959227
-0.741634607 3.11992598 14.3413477
-1.6584059 4.23158121 13.6651754
-0.844552755 3.16904926 13.0807896
1.83270001 -2.43008137 1.60847974
0.951059341 -2.54016995 1.62614954
2.48635936 -2.49638677 3.43913054
-1.34980977 -1.72984838 36.1909447
1.7592653 -1.73611307 37.4675941
1.20966125 -2.60670972 37.3614464
2.42589116 -1.88462305 36.5492439
1.59223354 -2.70892787 36.3517685
0.185186163 2.77777338 36.6018524
-0.740738273 3.47221994 35.6759262
0.280246496 3.3648138 35.8246918
0.939290047 2.55461884 34.6411018
1.17973113 3.24904013 35.9250336
1.26921093 1.74075627 35.4965286
0.818353713 0.911013305 8.42256355
-1.69751763 3.22958064 13.9324589
-2.62690377 3.37428379 13.5100079
-1.67145479 4.1661787 12.8070669
0.616172314 -2.46576619 5.41117764
-0.143246099 -2.55624056 6.15523243
0.76805222 -3.50655246 6.08735895
1.25000501 -2.60416651 6.31250286
2.59259367 -1.04166663 30.9675922
2.53216338 -2.32372689 30.7169342
2.13619375 -3.16256285 31.3611622
3.19187832 -3.33587193 31.1052837
3.33843112 -2.50744033 30.9474945
3.35821962 -1.09883142 31.699749
-0.360753536 -3.39528227 5.65028858
0.429187208 -4.16102886 5.21272135
1.04210365 -3.38605309 4.75532389
1.49945366 -3.21888828 5.67137909
-0.136702672 -0.898233652 33.4230423
-2.13703632 1.22222233 2.52963114
-1.51178038 0.742226899 1.8273617
0.46296224 -1.73610997 15.5657425
0.690481186 -1.56495452 16.8044586
-2.29053783 -0.792148292 24.6118088
-1.63479435 0.0168463346 23.4158516
-2.11111259 -1.03703618 23.7936516
-1.66298568 -0.0257651694 24.9158058
-1.75426745 -1.66101885 24.6063328
0.38845703 -1.2280215 20.6118584
0.269408315 -1.39536047 19.5601196
1.45676613 -1.13871908 19.6234627
1.26174891 -2.08912277 20.3261166
-0.852160394 -2.19582582 20.9270916
-0.967563629 -2.03662324 19.863533
-0.891943574 -1.25507569 21.3366394
0.128366604 -2.19427395 20.7728977
-1.22583604 3.64317894 15.0894299
-1.79999864 4.1999979 14.8000021
-2.66089416 3.4442029 14.5282726
-2.21411324 3.14704347 15.6520195
0.830173671 -1.61009657 12.7735577
0.0 -1.66666913 12.1333342
-0.0327076688 -2.75335431 12.1953287
0.01133224 -2.74140763 13.0491552
-0.00165327813 -1.66205764 13.0115957
2.1111095 -1.03703618 7.80740499
3.39281178 -2.59026241 8.9736824
3.18236423 -1.65374064 8.47145557
3.22997355 -0.903687537 10.0933723
2.36614513 -0.603481352 8.84873867
-1.47414768 2.05914855 13.5128746
-3.06474376 1.2722894 13.1255007
-2.33372259 1.55252957 14.1379118
-3.11343312 2.24377084 13.1885757
3.63680029 -0.737643957 8.99209309
0.0 -1.66666913 8.39682388
-1.31250334 2.35801172 14.7630377
-0.652126372 2.10045505 14.1279259
-0.0694440156 -2.1354177 7.26736259
0.46296224 -1.73610997 6.30463219
1.36287761 0.762978375 45.9420891
-0.666283786 1.74911129 44.8197441
1.91595304 -0.857402086 45.2132454
-1.73333228 -4.23873615 7.0666666
-1.96651423 -0.838129699 36.2289467
2.30447984 1.88717592 31.7666836
2.41670632 2.10799313 32.6560211
1.95149541 0.86263746 32.0993462
2.61846948 1.07743061 31.2358418
3.33972335 1.07432675 32.0041351
2.38841057 2.08145833 30.7029476
0.426381081 -2.62267876 11.1008778
2.75822544 0.00375629868 32.9157104
1.66666913 0.0 33.8666687
0.817492187 -3.16254067 12.5281982
0.891699731 -3.59432173 11.3329573
1.04999638 -2.6259284 10.1272488
0.0171598867 -2.79829359 9.8634243
-0.835466087 -2.31050682 11.6629448
-0.688789904 -3.06433201 11.0667953
0.0622037984 -3.84535074 11.0699377
-1.7397902 -2.50568247 44.581852
-0.865266263 -2.80160332 44.9821396
-0.222590789 -3.38111234 44.2883339
-1.47900939 -3.39444613 44.1672783
-0.280243307 -3.3648169 43.175312
-2.32222247 -3.15000176 42.8777771
-2.6072576 -2.21214962 44.1847916
-1.59969234 -2.06273055 43.0835457
-2.58888793 -3.35555601 44.5888824
-1.57039571 -1.29821932 44.0636215
2.11041903 -1.31517327 46.0899124
1.52228284 -2.66211987 46.9990196
2.46099019 -2.54377437 46.4906731
-2.33333302 -1.55555737 27.5777779
-2.33333302 -1.55555737 26.5111084
-3.12833476 -0.795888722 26.3385849
-2.1330235 -0.591401696 26.5243225
2.14630985 -1.77551305 47.0298729
3.40514493 -1.75447655 46.5567856
2.55242705 -0.826110184 46.8041344
1.82797456 -0.899285138 47.3594551
0.490263492 -1.51349699 46.8746758
2.09364557 -0.0962638631 45.7128067
-1.34002626 2.05729246 25.5436554
-1.44444573 2.07407856 26.4888878
-0.810799897 3.14150715 25.564661
-1.76307547 3.17053151 25.8090611
0.0 -2.77777982 27.2222214
1.98955238 1.44528186 36.1588631
1.61727345 2.45093107 41.675209
0.200635761 2.54846811 41.9596558
0.882850528 2.82849932 41.192379
0.579572201 1.71417713 41.7405128
1.22375524 0.905850768 41.9477844
1.3338598 3.54990506 41.7308159
1.27555799 3.27247095 42.6756477
2.32222247 3.14999533 42.1222229
2.43969393 1.64699447 40.5895004
2.34080124 3.0473907 41.0604782
2.47438741 2.09805441 41.9986649
1.63696706 3.30423808 40.5993576
0.819164515 -1.8923384 18.1107864
-0.390816599 -2.06014609 17.9315453
0.00356626674 -1.07793736 18.5723419
0.0315009654 3.48794198 34.8822594
0.231116891 -2.51999807 46.0244408
-0.164935082 -3.39740753 45.4013596
-2.00542641 -0.912609577 30.0121384
-2.60718179 -0.0911836773 29.0621433
-2.80832744 0.00992283598 30.0558262
1.61425197 -0.0265538003 43.7529678
-2.38280153 -2.03775716 30.7594948
-2.1108942 -1.69502509 31.8168392
-2.22222114 -3.12499976 31.1527729
-0.138888031 2.60416651 34.3878975
1.50597167 3.31548142 34.6161232
2.07519984 2.66052365 33.8899612
1.17338407 2.71187663 33.3112907
1.90000308 2.0895853 34.6312523
2.32222247 3.15000176 35.1222229
4.30623245 0.507809758 0.635515988
4.29939127 -0.40473327 0.652846873
0.499315351 4.18219185 41.4589424
0.65373534 4.21534634 42.3949776
1.67432737 4.26179028 42.283638
2.24879408 0.811746895 41.3881531
-1.52072132 -1.2731477 42.2233276
-1.57989419 -3.02592659 41.8444481
0.183425203 -3.00926089 40.9598808
0.438175738 -3.24558139 42.1065407
-1.18878305 -1.02517498 28.2537079
-1.38889301 -1.38888669 26.9722214
-1.44238389 -2.07295108 28.1997204
2.73626399 1.60791755 5.48006105
2.89815855 2.05064774 4.61006308
4.21109581 1.73801339 4.74983168
3.2711091 0.839998364 4.63999939
2.32444572 1.11999774 4.53058243
3.42374897 2.51169062 6.63565826
2.38049245 2.06346226 6.43678999
3.20766377 1.64259839 6.8154254
2.02333379 2.2995832 5.3091054
1.45833707 1.30208647 5.92688656
2.2685194 0.868053377 5.97982931
-1.64537287 -1.82916856 33.2754631
-1.49978304 -2.60290599 31.7134361
-1.209126 -0.911152661 33.4511642
-2.30793524 -0.325778157 33.2865677
-2.8005805 -1.48163497 32.6077194
-2.61172986 -1.80648196 33.6577187
-0.679795027 -1.86770713 32.8898125
-2.17039323 0.822090983 29.4026299
-2.32222247 -3.15000176 33.6277733
-1.72375154 -3.20237446 32.8416748
0.819411516 -2.79261804 16.8641987
1.41433835 -2.42952704 17.4125614
1.55963671 -3.34532285 16.4858074
0.6663028 -4.24127913 16.6642818
1.3163451 -3.61139607 17.4872894
0.848302722 -3.11029124 17.95051
-0.695121109 -2.05661798 18.9081287
0.406586081 -0.0742138177 19.2271767
-2.23583698 -1.50887918 28.6970901
-3.17936802 -0.818660915 28.9174576
-1.97671258 -0.580851734 27.8259335
-1.7033453 1.67309856 30.1095676
-1.50600338 3.10005498 29.1250248
-2.51757526 2.39523268 29.4062519
-2.21992183 3.10702276 29.9194279
1.75925899 1.73611307 33.4675827
3.35555291 3.12221909 33.5888863
3.33333182 2.49999738 34.6111145
2.77777338 2.08333325 33.5277748
2.24714708 3.15525293 33.0586052
1.64996529 4.11474991 34.1746483
2.48872852 3.41237879 34.0414124
-1.30123448 -3.25740767 34.7265472
-0.280243307 -3.3648169 34.5253143
-0.644445956 -4.18889046 33.5888863
-0.232716322 -3.07129669 33.399231
-3.10334253 -0.389818937 8.12961388
-2.77868247 0.0389280505 7.06144714
-3.0726428 -0.751101375 7.30179644
-2.07407546 -1.44444573 7.62539577
-3.11668897 -2.2411325 21.4040852
-4.20777655 -2.56791162 21.2352409
-4.23950243 -2.40261531 22.3341045
-4.08914614 -1.59238875 22.1769428
-2.51111102 3.37778044 28.9555607
0.669919729 4.27431297 25.3035564
1.66367924 3.24064684 26.0327663
0.254775882 3.08312941 25.4493942
-3.35555601 2.58888793 30.0777817
-3.35555601 2.58888793 29.0777817
1.13940001 3.26998782 23.1008015
1.73284459 3.20014477 23.9775238
4.44700146 -1.74498761 11.8073845
4.14384365 -1.54455769 10.7892981
4.16114283 -0.672640324 11.9496651
-1.62670219 -4.26691771 13.9716492
-2.55000114 -3.36666656 13.0833359
-2.72977757 -4.26167583 13.7635927
0.0211410578 3.91074395 23.971426
-3.23139238 0.838699758 11.8930635
-3.20803738 1.22760653 10.8932705
-3.36326194 0.239319935 10.5621748
-2.40165257 1.49016738 11.3763199
1.66841733 2.54219079 45.2859688
2.32222247 3.14999533 44.1222191
2.1027987 -2.48300838 12.6071215
1.51819706 -2.31813669 13.5534306
2.29305243 -1.56764662 13.5996275
2.71902823 0.476346821 12.504837
2.24283981 -0.472026765 14.1625624
-3.40000153 -3.13333583 13.0666666
-3.12499976 -2.22222114 13.0277796
-3.40000153 -3.13333583 12.1333342
0.839174867 0.780689359 7.32032156
-3.71083355 -4.32559013 21.6699867
-4.55709028 -4.33112955 20.3990784
-0.880630314 1.90666044 8.95059013
-0.004256716 1.70535326 9.16689682
4.24906445 -1.26795673 2.25375533
1.70017803 3.05283833 16.1228771
0.786535978 2.91479278 15.4570913
0.172333658 2.81068683 16.8051968
0.0913768783 2.3191123 14.7312164
-0.323865145 2.94905543 15.5374784
-3.47672987 -3.92232323 13.530345
2.65762877 4.26855516 40.3290482
-2.75000024 -4.25000191 12.750001
-1.07138765 2.14208484 22.2164631
0.0559105724 2.73824048 22.6897221
0.694446504 -2.08333325 7.88491917
1.48148298 -1.47569335 7.25380087
1.69713128 0.00759811187 7.67781925
2.2685194 -0.868056536 6.62268543
2.77777982 0.0 31.7777748
1.66666913 0.0 30.8666668
1.55555737 -2.33333302 7.9481492
-0.813834131 0.308339536 20.9456558
-1.0237782 1.7438221 20.7349167
1.50583875 1.53106856 21.2320518
0.575252116 -1.83720374 31.237154
-0.833334565 -0.833334565 13.6761913
-0.583607197 2.47906208 41.1955757
-1.32593548 2.47520447 41.8372459
-0.659331799 3.46326947 41.9864197
-1.51632845 3.22260666 41.4269447
-1.51552403 2.33245873 40.4658585
0.0973945558 2.32427478 40.4272881
-0.0253407639 3.33675885 40.9783554
-0.41174227 2.73532653 43.3839836
-1.76897597 1.78242385 42.0056381
-1.7254777 1.7651943 42.9257164
-1.71665382 0.0249955393 37.2042961
-1.63711917 0.192439049 36.1183319
-2.26414871 -0.784100413 25.5630016
-1.69136059 -1.64197767 25.6748676
0.471342653 3.18940806 5.23502445
-0.213329896 3.76888514 4.47999907
0.295753092 3.32308912 3.56089997
0.511116326 4.17777681 5.37777996
0.946992695 3.76478672 4.45582056
1.53148663 3.31111073 5.27870321
-4.24032593 1.64689946 15.2655869
-3.23944974 1.64923048 14.2660027
-3.43923664 2.52888846 14.3804464
-3.29408073 2.1271863 15.2496777
-3.21456194 0.854757488 15.5714207
-2.31706619 1.5086385 15.2821579
-3.24394083 1.68939698 16.0699501
-2.47791243 2.49131918 14.3926306
-4.20267725 2.63684559 16.2234173
-3.35555601 2.58888793 16.4111099
-4.22134829 1.6628114 16.291275
-2.51447463 2.30439115 15.9596624
-3.39687538 3.12812901 15.1825113
2.2685194 0.868053377 33.6226807
-1.89849865 0.73232621 20.6728802
-1.72127473 1.37844765 21.4986515
-1.75245905 -0.693414032 20.9623585
-0.694687247 2.03626871 27.3854523
-0.171681225 2.26810765 26.4726524
-1.87141585 0.785750568 25.4976883
0.640401423 -1.7196722 30.0536404
-0.437589794 -1.56343734 28.6796265
0.88199538 -1.2277807 28.6519718
-1.15231907 -0.944208682 29.3839607
3.33333182 1.04166663 32.9583282
4.31331396 0.372120619 1.35759628
4.28114796 -0.693442523 1.37371421
3.17085457 0.0392257683 1.6583662
3.66666698 -0.333331913 0.666668534
1.08793938 -0.826613724 38.5284004
1.74960542 -2.02649474 47.8490715
2.45838022 -1.29076052 47.9410896
1.37655365 1.06614268 23.0363846
2.47353864 1.10086787 22.7250805
1.6950599 2.2162416 23.3979797
0.817004442 2.18779373 22.2317066
1.40835226 -0.0819576234 23.3332615
4.21936846 2.61666417 33.7666702
-2.07870269 -1.92592657 8.43108368
-1.27777815 -2.33333302 7.45317602
-0.868056536 -2.2685194 8.47982693
-2.18094301 -3.13328528 7.93171453
2.35348272 1.51019049 13.8840542
3.13055515 1.5500021 12.6999998
-2.49000788 -1.40880835 21.9955788
-2.34062386 -0.484179288 21.8010044
-3.24339294 -0.0230857171 21.8783836
-3.09867716 -0.826683402 22.8990231
-1.82480741 -2.55770373 20.8668461
-1.73148263 -2.48148179 22.2203712
-2.06294274 -0.710079789 22.8315105
-2.36648083 1.93777502 3.17018771
-0.74222374 2.00888491 2.32000065
-2.53048801 2.901896 2.69688463
-0.839998364 2.68444228 2.95110941
-2.62222266 1.97777677 1.68888855
-1.84999931 2.66666794 2.04999995
-3.3390646 1.62175822 3.33393192
1.30718565 -2.58106494 30.0060749
1.54737341 -1.67349756 30.565073
1.65411437 0.0855175555 29.964819
2.2685194 -0.868056536 29.979826
-0.62881583 0.692026794 46.5067215
-1.66666913 0.0 44.3333321
2.48884869 1.06297553 27.4783344
2.93989611 1.07841241 28.3302021
1.81560981 1.68234038 27.7020969
2.12555194 1.1533041 26.6170082
0.713437021 2.01931787 27.2645035
-0.613410532 2.15719223 28.448555
0.0804056972 1.37726939 27.8612423
-1.35262859 1.18481135 28.3781986
0.725364745 2.08567691 28.2826691
1.66666913 0.0 27.7238102
-0.61115551 3.68815327 29.1308575
-0.547589779 4.4263134 28.4549332
0.586850405 4.30359697 28.3877754
0.000506751938 3.85920095 27.8780022
0.0831263214 -1.26953709 27.86726
-0.862970054 0.450008392 27.6309605
-1.98303747 -0.870986223 6.11095142
1.48888791 -2.33333302 38.7481499
0.688891232 -3.11111164 38.5777779
2.43835092 2.7175777 26.4217625
2.18591881 2.37626123 27.3321285
1.51622713 2.84571624 27.0964451
2.62771773 4.22434092 26.3349686
2.47136593 3.38775063 25.444891
4.24756956 1.34103668 0.747197747
2.2685194 0.868053377 34.6226883
2.80525208 1.6906575 34.6168518
2.642591 1.92222404 35.500927
-1.8215673 0.496724576 32.847187
-2.98577929 0.695802093 33.1498642
-1.8939569 0.865658998 33.9801559
-1.88570631 -0.50770843 32.2085457
-1.59847617 -0.0531804487 34.125267
0.975839555 -3.30947661 39.7563515
1.56289268 -1.58360934 41.1317139
3.42025876 2.49148393 30.6285706
2.60579443 3.31979513 31.4012146
3.36902618 2.46708369 31.5850773
2.03811836 -1.41145301 40.3731422
1.38508606 -3.00411725 40.8468094
2.42993259 -2.08229113 41.1922112
3.33333182 2.50000358 32.9444466
-3.25212169 -0.227151558 12.0764732
-2.84259319 -1.15432072 12.4870377
-4.22028399 -0.489731401 12.2658176
-3.33541584 -0.789415002 11.3453569
-4.24119997 -0.446296424 11.1775999
-4.26362085 0.652778864 11.3055544
-3.11574197 0.222223386 12.9231482
-4.15423203 0.609318495 12.3183365
-3.68658853 -0.574571192 12.8703032
1.57425654 2.37185884 8.61877155
2.25192332 1.57494068 8.40799141
0.920717597 2.21595025 9.23940086
-1.81851411 2.38991809 24.5832253
-1.5672729 3.22446251 24.5414906
-1.51169169 2.37921929 23.2636909
-2.25465345 3.11209655 23.6470966
-2.15888047 1.02260637 23.8713722
-2.84482932 1.58439159 24.8609276
-2.80525517 0.955563128 30.8280468
-1.59498584 1.72503424 31.2493343
-2.29026842 0.79243964 31.7047405
-1.65731001 4.24945688 35.6867714
3.21568942 -1.6906575 45.5212936
-2.58448243 -1.46718931 10.5240479
-1.72586405 -2.28381705 40.0364838
-2.34324622 -1.48962903 39.5096703
-2.05712152 0.695257306 40.5780945
4.27020836 2.66041589 34.6791725
4.26778889 2.65833187 35.6833382
3.19895387 -1.03895235 1.48781884
3.99554896 -0.309128165 2.28338146
3.33492804 -0.986500323 42.7099991
2.28127694 -0.919178307 42.0794907
0.945288718 -1.99578547 22.0397301
-2.02574086 -2.2502985 11.7679882
-0.777778685 -2.27778029 12.5944471
-1.0519917 -3.34495854 12.1973591
-1.79337931 -3.35424161 11.3723888
-1.89382386 -2.57177877 10.7614489
-3.24253774 -2.77488184 11.2483683
-2.58888793 -3.35555601 12.0555573
-3.12778687 -2.21302056 10.37677
-3.13568592 -2.1635108 11.8303595
-2.08333325 -2.77777648 12.5763903
-1.59313309 2.33772278 28.5021629
-2.23395252 1.48893213 28.7735786
-2.48148179 1.73148263 27.5685234
0.66661948 -4.12264252 41.4353142
2.22222114 -3.12499976 41.3472214
1.41604865 -4.24044609 41.2760658
1.36921835 -4.26298714 42.3121033
2.2736249 -3.14521933 42.3525352
1.79008853 2.85315895 21.6674576
2.56039572 3.32492614 22.420557
2.01443386 2.41285491 22.4167938
3.0918138 2.20986271 21.8577271
2.58888793 3.35555291 21.4111099
1.76960313 4.08195019 22.2016239
1.6754992 4.27230501 21.3258514
1.53254449 3.21658254 20.7681866
0.924188852 3.3298924 21.9403267
3.11111474 -0.777778685 27.1111088
1.03668141 -1.39409995 27.6935387
3.40000153 -1.13333488 2.40000081
2.51253319 -2.32228255 26.4587612
0.0351844206 -2.38475871 28.4173775
1.624596 -0.399387032 2.90938163
-0.280243307 -3.3648169 36.1141968
0.35895139 -2.56927347 36.2057686
-1.29788351 -3.24632263 36.0580254
0.32271862 3.49962258 42.1924133
0.754819691 3.0925169 40.2202377
1.60860169 -0.102351218 31.8435192
-1.40865636 3.36959624 31.3636703
-1.66666591 4.26362085 30.6874981
-1.32748735 3.3395586 30.3234158
-2.22222114 3.12499976 30.9027786
-1.56568933 3.38636971 32.5056038
-1.66666591 4.26708555 31.682291
-2.24747014 3.12835073 31.8589573
-2.07936478 1.44444573 39.6814842
3.83644795 -1.44156039 0.898377717
-1.04762089 2.1111095 39.4518509
-2.3601687 1.62636328 40.6544685
0.866666138 -3.35555601 2.41111135
-0.411108851 -3.35555601 2.41111135
0.167715892 -3.12835073 1.55572045
0.3381809 1.37153673 48.4069939
-0.74731338 0.692204118 49.2450333
-0.474829733 0.374597371 48.4037476
0.273810744 0.476188451 49.2261887
-0.312501252 1.66666281 49.2636261
-0.193078816 1.02424705 47.6221161
-0.911111474 1.33332765 48.3333282
2.47880244 -1.71524441 0.79699564
0.740104854 1.05264413 47.5617371
1.45300984 1.36664033 48.3112488
0.695770383 0.369048417 48.4412689
0.833334565 1.66666281 49.1666641
-2.35345411 -3.14173532 36.0439987
-3.89494276 -0.0502349511 30.0995216
-4.04444408 0.899997771 30.6555614
-3.28474379 1.08902252 30.049263
-3.33333492 1.04166663 32.0416679
-2.50419712 2.11167336 30.6885242
-3.40531921 1.8191191 30.8121967
-2.75626493 -0.00653709983 31.2314529
0.353364468 0.87935394 1.76656413
-0.624913812 1.30817378 1.65720391
0.144443303 1.92221773 1.65555382
1.52444279 2.00888491 2.29777956
0.340112895 2.36138177 2.68413663
1.37202454 1.84746552 3.3224225
1.83427095 2.29501605 4.10481882
1.68333495 -0.916666746 0.780633867
2.31996107 -0.789079249 1.79139185
2.67708182 -0.322918177 0.725964844
4.31833744 1.43403196 1.32917702
1.7252686 2.61423182 46.3213272
0.777775526 3.31428432 45.549202
1.75543308 3.44568515 45.6342545
2.36449194 1.05201066 45.9941444
2.58408022 1.43726254 46.973423
0.841569245 1.72580707 46.2331657
2.48796201 3.24433994 46.194603
-3.3953805 2.01638484 45.5970726
-3.334548 3.24205327 45.0900726
-3.48954773 3.38983464 45.9532051
-2.53093457 2.18478489 45.1758232
-3.37795448 2.61142564 46.4358101
-4.21337938 2.61503005 46.0738106
-4.21177053 1.78751671 45.9703903
-2.3555572 1.32698691 45.7460327
-2.30343151 2.11112213 46.2910576
-3.60198641 1.17321944 45.9750404
-3.357656 1.08273888 44.9445915
-3.35138178 2.43633032 44.377636
-0.736665308 -0.189541057 47.4536972
-1.37391853 -1.28621876 48.2877159
-2.28067517 -0.405420542 47.3158112
-0.978417635 -1.463943 46.7220879
-1.66666591 1.66666913 1.66667068
-0.690557182 -0.0467763692 1.66420341
0.326702982 -0.828992307 1.79886317
2.16616178 0.244913206 1.74180925
1.22647274 -0.491786927 1.81113923
2.1540947 1.2197392 2.71875739
1.0210861 0.509165347 1.29855657
3.00242281 -2.10181689 1.58577085
0.448798507 3.00648952 43.0452347
-0.441336602 4.18719006 42.5895309
-1.21794975 2.4018774 43.8660698
-1.49783838 3.26283002 42.9784317
-0.495891601 4.14929104 43.6773376
-1.21197641 3.20524406 44.4525833
2.48679018 -0.272689551 22.6946774
2.57911396 -1.68661928 21.1643372
2.27672243 -1.33631432 22.9445896
-1.10493779 -2.50617337 25.8124313
-2.41283917 -2.09406686 24.931572
-2.31171989 -3.17056632 25.9519405
-1.03605747 -3.33261299 24.9576073
-2.31932759 -2.62087989 26.671299
-1.55555737 -2.33333302 27.244442
2.48289442 3.37445474 24.5465622
-0.518214047 1.93864918 45.9547119
-0.000152025576 2.44738388 45.1650581
-1.47222209 1.66030931 46.4821396
-0.331814826 2.02501249 47.3409309
-1.08518398 2.80952144 46.4892845
-0.722758114 3.3020463 45.5747185
0.214812145 2.65396762 46.4772415
2.34648943 0.94358474 21.5402241
-0.183836937 0.864145041 19.9490509
1.50415373 -2.77654767 21.2419662
-1.84639502 0.956316888 19.0716801
-3.08196712 0.172973439 18.3784561
-1.95952415 1.87223935 18.5944061
-2.19702625 2.40836382 19.3683739
-1.24570072 1.72244978 19.6769676
2.0795579 -0.681435645 41.2428551
-0.664234579 4.2759223 31.6711807
-1.2407726 2.49790692 30.8633289
-2.35358405 -0.535741329 2.57130194
-2.30480599 0.0846845806 1.85904312
4.29891586 -0.35467568 18.639452
0.592329681 -4.40609407 49.2884178
2.09102941 -0.685546696 24.4501324
2.62738848 -1.99934542 23.816227
0.551713526 1.26308548 18.9096432
1.05218172 -2.0436101 23.1101322
2.00561023 -2.47690535 22.9598522
1.6770829 -4.2740407 47.6770859
1.9977175 0.826765776 15.5446959
0.691494703 2.25220203 20.8395214
2.59686303 0.866317749 17.1837482
3.21611381 -0.730695128 17.9318962
3.10925889 0.692026794 18.1675644
2.05511975 1.46107352 17.8781471
1.41356552 1.70337689 19.7105999
3.33333182 1.04166663 33.9583359
4.21936846 1.76666391 33.7666702
4.16666651 1.66666281 34.8333359
-1.66666591 1.32812083 49.2757378
-1.04071009 1.81574917 49.1497879
-0.398877114 -0.332983524 49.2439575
-3.32401705 1.36915505 22.1505146
-2.36772871 1.17510068 22.1347141
-3.17234302 0.843805313 22.9599113
-1.25738144 -0.38352254 48.4160118
-1.53199983 0.751753807 48.2657089
-1.66666591 0.312501252 49.2636185
1.66666913 0.0 6.63809395
2.5723424 -0.141364783 9.8713932
2.08335853 -3.64300489 49.2984581
2.13246918 -2.62528849 49.2652512
0.734505236 -3.47469974 49.2600822
2.55955958 1.49667287 9.47139168
-0.291398197 2.08277583 19.9869499
-4.17213297 0.547703803 18.9894505
-4.24363899 -0.53753078 18.9012566
-3.22065568 -0.259932071 19.1824436
-2.73691964 -1.73667693 45.6978149
-2.33259177 -2.51851916 45.4629593
-1.15777612 -2.51999807 45.8855515
-2.4680562 -2.56333184 46.6158333
-2.21853137 -1.75270927 16.6159439
-3.29826474 -1.05873775 15.9124842
-3.12616849 -0.796043932 14.7031364
-4.10775328 -1.62548602 15.2129955
-4.2555728 -0.461150587 14.8569927
-2.27473021 -0.75944376 16.430603
-3.32297206 -1.99890518 14.538518
-3.0488255 1.73485887 12.24366
-3.22569466 1.58980751 39.6674614
-3.2976408 2.61387706 39.0364914
-3.34933567 1.78123939 38.5653992
-2.51068974 3.3296833 38.9548149
-1.48888791 3.11111474 39.3111115
-1.59675956 -1.59076715 6.78939104
-2.76155734 -1.9222368 7.12551308
-2.40857601 -3.0916903 6.88260794
3.19001603 -1.63646984 41.3266296
3.35555291 -2.58888793 41.9222221
4.16420889 -1.80653584 41.7803993
0.511116326 -4.17777681 42.3777771
-3.27664542 -1.81874216 36.7006493
-3.29405546 -1.02236247 37.2329102
2.74864793 2.5175879 24.7060528
1.26790595 -3.3648169 44.123455
0.377777219 -4.25254822 45.2333298
3.35555291 -2.58888793 40.9222221
3.38931537 -2.58732963 42.9172592
1.57777846 -3.35999966 46.4177742
2.32222247 -3.15000176 45.7222214
-0.819763124 -2.33080864 29.2473164
-1.61358047 -2.7259264 30.0218678
-0.744073391 -3.37781191 30.2713547
-0.12891452 -2.60255766 30.1321373
4.29051638 3.60328484 31.8567333
-1.57492483 -3.06615639 28.9331551
0.472862899 -2.49158835 29.2186394
-0.133133233 3.43162274 17.4589138
-1.23764336 3.2590611 16.5665226
3.12533545 -0.813865781 12.3424931
-1.54457355 -0.0406256691 29.0275116
4.02777815 0.833334565 31.3611107
4.3632226 0.585368156 32.5537453
3.98603463 -0.0833321884 31.833334
1.13186216 -3.32620239 22.0480556
0.69857657 3.44236588 34.1547852
-1.97930658 0.599918246 16.8570118
-0.910189807 2.63787818 17.9518375
-0.291398197 2.08277583 18.5115032
0.643669963 2.58219886 18.0371647
1.44678938 1.9685539 17.1779175
4.38873768 4.58333683 33.5833321
4.31701326 4.3280921 32.3424416
-4.26778889 2.65833187 30.3166637
-1.27777815 -2.33333302 23.6865082
-1.16666651 -1.61111319 22.8931179
-2.63392878 -1.26676893 9.40063667
-2.76473403 -0.00139356777 25.0930958
-3.35255051 -1.02853227 25.0331192
2.45809531 -3.42313457 22.9059181
3.1073966 -2.18018937 22.7696457
-1.93184924 -3.35703826 45.2059212
-2.47407389 -2.10000229 42.6592598
-2.6259284 -1.04999948 43.7740746
3.33394003 -0.995539486 24.9594193
2.8491621 0.0210270379 23.9123306
2.74158502 -0.12330541 25.0072174
-3.40000153 -3.13333583 44.3999977
-3.37222195 -1.78055525 43.6638908
-3.3777771 -2.51111102 43.0444412
-3.36666656 -1.04999948 44.283329
-3.38333249 -2.09166622 44.8416634
-1.53855586 2.32886076 45.6033287
-2.66296244 0.822224021 46.663887
-2.09656262 -0.148807704 45.3095207
3.17756891 -0.752114892 11.0216055
0.667012215 4.27048111 37.3327522
0.655559659 4.23318386 36.3722229
1.66874683 4.27626419 37.3312492
1.69272876 4.15232515 31.1900501
-1.9934386 -3.30725312 14.9538107
0.513010323 -4.16776848 35.4589844
3.56652641 4.25821733 47.9694366
0.74074465 -3.47222304 36.1574059
2.26896286 -2.50131798 37.8811073
3.18688059 -1.68514967 37.823288
3.31511402 -4.22944021 11.3641481
2.58539772 -4.18839979 11.0013866
2.2685194 -0.868056536 37.6226845
-0.613106489 -1.31805861 1.70184875
1.62695241 0.0262972582 24.9067822
-1.03737819 -3.18366575 6.94893885
-0.792252779 -3.14920044 7.88225555
-0.574995577 -4.2442565 6.01250219
-3.11111164 -0.777778685 13.711113
2.1585288 -1.01650953 26.0740986
2.36710167 0.86653316 30.3176327
3.39285612 1.05541229 30.6946125
2.77777982 0.0 30.7777767
2.18681836 0.697506011 29.4298477
2.77777982 0.0 29.9206371
-3.18889165 -1.9405812 23.2454987
-2.33762121 -1.56104302 23.0603752
-3.11111164 -0.777778685 23.8888893
-3.25100684 -1.64345038 24.1529617
-4.26362085 -1.37499857 23.291666
-4.26773167 -2.3658886 23.32164
-4.21722126 -1.65630603 24.1675587
-2.46214938 -2.46287465 23.5394173
-3.13034606 -2.21577907 22.4187794
-0.784097254 2.96287727 23.4650898
-2.50553679 3.44006014 24.8972149
-1.73350966 4.2295351 23.7129917
-3.28391409 2.56566596 25.0593128
-2.45737004 1.75451458 26.4117603
-0.798178613 2.85222793 24.3686829
-2.49144578 2.12217569 23.8362064
1.55947208 2.31106758 28.6501713
3.0457437 2.21470857 27.9055882
1.65566623 3.2583642 28.1858482
0.701433361 3.10014367 28.3011398
3.38748455 -4.2915616 13.3065786
3.54936028 -3.9865098 12.2715473
-2.25598049 -0.88931483 31.2334347
2.59999847 -4.20000124 15.0999994
2.53333521 -4.21936846 14.0833311
2.22222114 -3.12499976 26.0972195
-3.39346743 1.67211032 4.5627799
-4.10359144 0.525742471 4.22764301
3.64115834 3.50971317 0.74671638
4.33602285 3.70310879 1.70713794
2.40740728 -2.08333325 25.3240738
2.22222114 -3.12499976 25.0972195
-4.23873615 -1.56666481 14.166667
-2.41632318 -2.0820694 29.786665
-2.24016976 -0.86166513 44.7815933
-3.1006155 -2.21367288 17.4041462
-1.92134356 -2.64872909 17.9252014
-3.09784412 -2.20644236 18.4051781
0.499879122 0.64144659 46.7175903
-1.64444482 -3.24444437 13.8111105
-0.037236765 2.54205132 28.8656368
0.0467383638 2.80212283 27.7002277
1.64282644 4.20861912 32.3540649
2.33333302 1.55555737 7.400002
0.90188539 1.89705753 7.97253942
0.457007885 2.51735997 37.6192131
-2.07908273 2.34887767 11.2256403
-1.04658842 2.53750324 11.1000481
-0.836571455 1.95373774 10.0522785
2.32222247 3.14999533 36.1222229
-4.31930637 -4.31429577 43.5097656
-4.30278635 -4.32285357 44.40308
1.54983115 -3.45900011 37.8059006
0.389419854 -4.26897001 37.586319
0.362238944 -4.32034826 38.3739815
1.64142013 -4.06341887 37.1380119
0.746584952 -3.44575167 37.1001701
2.5360527 -3.30822229 37.3336372
-4.42764378 -4.53516388 45.5161438
2.33798862 -4.27026224 38.3253708
1.63917148 -3.25787973 38.7223549
1.46010435 -4.25622511 38.257206
-1.80871797 -4.12119818 14.9517517
2.92632771 -3.09696054 12.1056623
2.2188766 -3.1197772 13.3452501
3.28268194 -2.29953265 12.9468956
2.16523075 -3.51104665 11.6940908
1.88929152 4.26263237 3.375036
1.41100013 3.35921431 3.51282811
1.99999785 4.1999979 2.40000081
2.72814345 3.71730423 2.89998126
0.271606356 3.23148108 38.3253098
-0.75051862 3.12119913 38.6985245
3.33984351 0.576575994 0.722138882
1.07225537 -2.35407186 48.3721581
0.644531429 -0.309764773 47.7037392
1.48402297 2.7111609 2.85590982
1.97975945 3.43228793 1.6447283
0.866666138 3.35555291 2.41111135
-4.20563269 1.67404866 21.2373219
0.55192256 -2.56142831 47.099678
2.61719012 2.24055934 46.3033257
1.22222233 1.99364448 47.3904724
1.92450452 2.74647522 47.2024879
0.920628905 3.34088874 46.5413513
2.46785021 2.3039794 16.9496479
2.72796607 1.95407975 15.2661095
3.54058695 1.27309382 3.86815619
3.44596386 2.60988641 4.0375824
4.15157795 1.80315006 4.04102516
-2.72668958 -0.247576818 20.6620827
-2.55975294 0.436104387 21.3980923
1.66328657 0.124781325 0.865894914
2.74857187 2.23535872 3.22039747
2.32222247 3.15000176 4.39999866
-2.49893951 -1.44470859 20.9868374
1.98910272 2.48024035 1.5963335
0.965356112 2.52920532 1.61041796
3.46630359 2.56387329 2.29321241
3.50282145 3.25451303 3.48495674
4.20647192 2.63635159 3.64872003
4.26724386 3.5181632 2.95564485
-2.03737092 2.09430432 10.0900755
-3.23497128 1.22214627 9.54284
-2.02316904 2.42555547 9.10296059
1.25000501 2.60416651 6.09821606
2.22976542 3.15015364 6.35233355
-1.75109708 -3.14541245 36.9841576
-1.36944962 -3.15188289 37.8893127
-2.58888793 -3.35555601 37.5888824
-2.31827617 -3.17312217 34.9083557
-2.66291499 -1.06655765 35.4370995
-0.183409363 -2.66720653 37.1464882
1.73410511 0.998155594 47.3755569
1.60491502 -0.0654026717 48.0088882
-0.961279929 2.49980736 1.58709478
0.324777305 2.34951735 0.728036225
-0.833331406 1.66666913 0.833336115
1.38888669 -1.73610997 15.5392866
2.40741372 -2.08333325 15.0740757
0.972222567 -2.3437531 14.6969252
1.33760977 -2.58981919 15.9251747
3.34912992 -2.52748537 44.4897232
3.1357429 -3.37931967 45.0648346
2.50737691 -3.3263166 43.3718147
1.99999785 4.1999979 46.7999992
1.79879832 4.12575245 46.0349731
2.59569097 4.15777922 46.020401
2.56578636 3.36886144 45.0849037
3.40000153 2.59999847 45.8666687
2.77717161 3.36391425 47.1427841
-1.55555737 2.33333302 7.37777758
-0.786390305 3.14400935 7.86830091
-1.30123448 3.25740147 5.80432224
-0.66869086 3.68347836 6.69383049
0.78652966 -3.51644659 34.3240395
0.736513257 -3.45684314 32.3966599
-0.188907623 -2.85045123 32.2252617
0.488553196 -4.16148806 33.3770218
-1.89814699 -0.868056536 43.1405411
-2.10714412 -0.694443345 41.6111145
0.710263491 2.16486335 7.06332541
-2.44415951 3.32698488 34.583725
3.22425985 0.815984607 26.9392262
2.77777982 0.0 26.7777748
3.10944247 2.16633272 26.8406372
-0.705506384 -2.33797598 21.9652309
-0.746629298 -3.11933374 23.2004757
-1.04166663 -3.33333492 21.875
2.33790636 -1.28921807 18.4070969
1.64282644 -2.22235751 18.514101
0.934710264 -2.09435201 19.3561363
2.13373613 -2.36485934 19.528616
2.39262915 -1.47010005 19.3528728
2.65630484 -0.685679734 19.8428955
-4.31489134 -0.575812697 0.624307275
0.296285182 3.33965993 44.5519791
-0.32812503 3.6562531 49.2757568
-0.53385365 4.32019949 49.3088531
-1.29790568 3.60649657 49.1714516
0.626478434 4.10757923 43.4295731
0.0 -2.77777982 22.9841251
-2.47643328 2.48297668 28.3110161
-2.3930316 3.31617188 28.0196209
-3.47500062 3.42500329 28.4750061
-3.3727541 2.58589172 28.0179482
-1.58639956 3.15251637 27.2439423
-2.78518462 2.59907365 27.0953693
2.68036294 0.0690069422 25.7909126
1.92000711 0.510717273 25.7968674
-1.41011643 2.30290246 47.4286613
-1.36625075 0.971126735 47.3133659
2.08333325 0.694446504 23.6349182
-2.58888793 -3.35555601 22.8666668
-2.58888793 -3.35555601 21.922224
-3.12913942 -2.20655322 20.408556
-3.27662945 -0.943689287 19.8485146
-2.35051823 -0.219518602 19.6454601
3.20934224 2.96489143 1.47609079
0.74577415 -3.17839551 23.3674603
-1.68333173 -3.23333383 23.044445
-1.81527722 -3.34444547 21.398613
2.23509264 -3.18533492 24.0330029
3.55849433 -0.948645949 21.3345909
4.22824955 0.572110236 21.637907
4.25532913 -0.41111201 21.7027779
4.25932598 0.617603898 22.7004261
3.35586333 1.16117775 21.7543831
-1.30123448 -3.25740767 43.0265427
-0.644442737 -4.18889046 42.5888863
-0.433944345 -4.29321814 41.609642
-1.89739645 2.55536628 17.4153557
-1.79999864 -4.20000124 41.7999992
-1.79999864 -4.20000124 40.7999992
2.61017156 -2.60702014 47.4640579
3.30019021 -0.955373108 46.2489014
-3.36458254 1.68228972 49.2723198
-2.60502791 1.94960773 49.2019768
4.29535627 0.653507292 43.5945396
-3.36666656 -1.04999948 34.3833351
-2.77897048 -0.00319253723 34.2097015
-4.16850328 -1.66076541 34.1054001
4.30529451 4.3541646 30.3541641
3.84278226 4.33229208 31.398035
-3.41653419 -2.50726295 34.5574226
-3.32677579 -3.30729437 33.95961
0.114696965 -2.87283993 21.6369953
-1.04166663 -3.33333492 20.8750019
-3.1862123 2.27040076 11.4572697
-2.39406395 2.56429148 12.6119547
-3.35625911 -0.956639946 17.0044403
-4.1729598 -1.63841772 18.1831894
1.31241786 2.2563827 11.77209
0.0 1.66666913 10.7174597
1.65716755 3.22565341 19.1904182
2.55578446 2.96969938 19.7614613
2.40120602 2.4465034 37.7201004
2.32222247 3.14999533 37.1222229
2.642591 1.92222404 36.500927
1.5500021 3.13055515 38.0944443
1.30123758 3.25740147 37.0290108
4.43047523 4.48722506 0.672774911
-4.286304 -3.42819262 18.3805599
3.17006898 1.57578945 15.9502277
2.28779483 1.96841455 20.8020229
2.9133296 0.649814308 3.68641281
3.46591091 0.917772114 2.47341967
4.20346928 0.745748818 3.24273562
3.63135266 0.0208876804 3.84725904
4.30312204 0.641465604 4.61032915
4.19735003 1.60355949 3.28710175
3.88889027 0.0 13.999999
3.52837443 -0.054051429 12.7916336
3.8594923 -0.836416245 13.2247381
4.27495909 0.667303622 12.0114155
3.11136174 -0.750946164 13.8179007
3.04088521 0.711353004 13.6343937
1.66350818 4.25089502 29.3239555
2.23272371 3.11094379 30.1315098
2.29837966 3.14004397 29.1388893
-1.57777846 -1.24444652 1.65556014
-1.98666716 -1.89037156 2.27555847
-0.622221708 -2.51111102 1.62222528
0.464305133 3.08997059 20.0774174
0.87548995 4.02816486 21.156189
0.79551816 4.14209509 20.2438202
-2.34374976 -4.31581926 0.680689752
-0.156516671 2.87884498 20.931406
-0.0674550161 3.83778429 21.0492954
3.14953923 0.177540541 11.294755
3.26165175 -0.000538423948 10.4768353
2.67010117 -1.71207726 4.31997919
2.21896529 -3.08396864 5.13029814
2.50842834 -2.06522942 5.06870556
2.31271458 -3.14791775 4.27642393
0.669387639 2.63902473 19.1525803
-1.99428105 0.633839011 26.6738834
-2.10705543 0.718042135 28.0579319
-2.0776577 -2.41473937 9.32048035
-3.1092968 -1.46350908 8.15691471
-1.95736098 2.24332118 44.6307831
-2.2651937 0.906927586 44.5976486
-2.20547318 1.23963559 47.5064735
-3.20470881 -2.20543194 19.4496593
-2.08480597 -2.64894128 19.2699718
-2.53984714 -3.33475709 18.5526848
-4.29840946 -0.282267153 47.0096664
-2.7596221 -2.01211882 41.3214417
0.909455001 -3.42838597 30.036665
0.322085202 -3.67567134 29.0350494
-0.720439732 -3.62549329 29.0865746
-1.12469471 0.860160708 29.6239204
4.30616236 1.83354247 2.48366237
-3.66666698 -4.33333397 44.6666641
-0.00835190527 2.72122622 21.9072132
3.49910307 -0.0300028808 19.843977
-2.2685194 0.868053377 42.1273155
-3.38343692 1.02336013 42.2882538
-3.39783192 1.82396495 41.8559189
-3.11111164 0.777775526 40.8888893
2.77777982 0.0 40.920639
3.11273003 -0.713769615 40.6959267
1.66874683 4.27626419 41.3312531
-2.59499431 1.01544213 43.34758
-2.38288069 2.1131618 43.6702881
0.370372325 3.12499976 7.08664227
0.0166531354 2.69871378 8.03830624
0.823820293 3.17454123 7.97221994
1.48344028 3.10482478 7.23972273
1.73187542 -4.27478838 2.28395152
2.84676123 1.39306736 23.5808125
3.13530588 1.68258739 24.5641212
-0.777778685 3.11111474 40.2222252
3.12237096 2.21550035 22.8521957
4.16666651 1.66666913 23.833334
3.37778044 2.51111412 23.622221
4.26362705 1.66666913 22.6874981
2.44642091 0.783007741 24.5537128
-0.707213521 -3.4330163 31.2219887
0.163959593 -2.63932562 31.4664268
0.694446504 -2.08333635 9.3730154
-3.19272399 1.20475209 21.141695
-4.07157421 0.544992685 21.170454
-3.15493941 0.497940779 20.1213856
-2.12697077 0.632280707 22.8352509
2.07055044 -3.07831836 29.4019451
3.19068742 -1.68489003 29.7205849
1.2588352 -2.62534237 31.0029449
-0.429488093 -2.438411 47.1504745
-0.223911509 -1.50770736 47.8820534
-2.80408955 -0.971025407 46.3416176
-1.53333318 -2.68444562 47.071106
2.52900243 2.25906849 47.7376633
3.45128465 1.31528091 45.6808624
3.61646056 1.62594521 46.605114
2.34028172 1.18806088 48.3467216
3.1438067 1.08076882 48.3702011
2.22059321 0.297057986 46.6703835
-3.14170361 -2.19030547 28.1595345
-4.23888159 -2.51106358 28.2513523
-3.47299266 -3.15315628 28.0945053
-4.16933012 -2.55846381 29.1587296
-4.08522177 1.66894317 13.143281
-1.705423 3.23333693 45.7075386
-2.38015366 2.90003991 46.9177246
-1.62224281 3.61731553 46.7770996
-2.22757697 3.1083529 44.8275108
-2.5148294 3.4127779 46.022789
-2.74759316 4.2305932 45.6896095
-1.67588246 4.1595974 44.8732224
-3.39264727 3.19429803 13.4207563
3.41621113 3.42048693 32.5149269
2.6473608 4.27037334 33.3406296
3.66666698 4.33333731 33.3333321
3.48075223 4.30671978 32.5092545
-2.4555583 -1.64629769 38.6574097
-2.50674033 -1.71963096 37.765873
-3.16461515 -2.22343421 38.3870125
-2.01892829 -2.64832044 39.0028305
-3.13472319 -0.846852183 39.170475
-2.00343108 -0.790726185 38.3179855
-2.925596 0.621379197 47.6065407
-3.32021022 0.0289767087 46.5804672
-4.18954611 0.736684263 46.7757072
-3.3843143 -0.226942524 48.4244423
-2.21059442 0.184159979 48.1822395
-3.36785436 1.27692616 48.5029716
-3.3220787 -0.0774760395 47.5740013
-4.23522997 0.237229586 47.802227
-3.40000153 3.13332963 12.0666676
3.5745647 -4.183671 2.57043409
-2.3857882 1.99268162 7.82573366
-2.07516503 0.701598048 13.6177654
2.2070694 -2.49668765 21.8656197
3.2403872 -2.24315643 21.8843918
3.50000262 -2.43333411 47.5666695
2.39999604 -3.40000153 46.8000069
2.67473173 -2.72280025 48.3548203
3.25000286 -3.41666722 47.75
1.8938967 -3.40564537 47.6250992
3.43333292 -3.23333383 46.7666664
-2.35907912 1.8329978 35.2048378
-1.61055899 2.66599035 35.8734016
-2.24407482 0.865196586 35.2616959
-1.67276907 -0.0428490415 35.0095787
-2.5647285 3.33964729 11.9615231
-2.43561459 3.36509895 11.0052786
-1.70635724 2.95276761 12.0286198
-1.01124251 3.41238523 11.6537819
-3.64049006 -4.31105566 14.4289808
2.60008717 0.365646869 2.82959032
-0.664234579 4.2759223 29.6711826
3.6941328 0.325961858 8.86144924
2.77777982 0.0 7.77777576
2.2685194 -0.868056536 15.0532417
1.31254447 3.30945754 44.706974
0.200236693 4.21466208 44.3621979
0.862466455 4.1347599 45.016037
1.77145278 4.17953777 44.2047119
0.85456115 -3.14616299 13.575819
2.23395896 -3.09890199 14.3580542
0.715052307 -3.34092689 14.8305178
2.19641495 -3.10938239 15.2614756
-0.333331913 -2.51111102 48.3777771
0.299997151 -3.40000153 48.3999977
0.917829096 -3.39092731 47.5344086
-0.2054784 -4.12310791 47.5460701
0.434824824 -3.36725879 46.5135269
-2.65105057 4.14311504 46.7174683
-3.08714867 4.19384718 47.5491371
-2.10619712 3.68836856 47.9824562
3.33333182 1.04166663 37.9583321
2.77777982 0.0 37.7777748
-0.066666387 3.66666698 2.40000081
0.0666695535 3.13332963 1.6000011
2.33333302 1.55555737 39.3481407
3.11111474 0.777775526 38.9333267
3.11111474 0.777775526 39.8222198
-4.28394461 -0.438539952 29.3568497
3.09425902 -0.84098649 39.1681061
2.03790283 -0.704730392 39.0329056
2.77777982 0.0 38.7777748
1.66666281 4.26362705 38.3125
-3.42606115 3.29311466 48.3418732
-4.05030012 3.57353854 47.1617622
-4.26362085 -1.37499857 45.2916641
-3.28876305 -0.791473687 45.3746185
-4.11735296 -1.7495389 45.9828606
4.24983692 0.585304797 2.24268603
-2.30759311 3.13147998 43.9637985
-4.29707575 -2.5479455 31.8964386
2.59999847 -4.20000124 7.19999933
-4.32034826 -0.626016021 36.6397934
-3.36666656 -1.04999948 36.0833359
-4.24977064 -1.41666615 37.2916679
-4.22207022 -1.49999833 36.25
4.29298687 0.653342605 44.6045036
1.79999554 1.80000186 0.800001323
-3.66888404 -4.32855797 15.6449127
4.24684715 -0.555343091 23.1659164
-0.018515449 -3.29166746 7.03426313
0.00942241866 -2.80722833 8.28586483
0.777775526 -3.11111164 7.86666632
-4.38873768 -3.41666722 49.4166641
2.47037768 -1.91018558 16.1722221
2.0040772 -0.833923638 16.310873
3.50000262 -4.25000191 45.2499962
4.31842613 -4.31583214 45.5130196
4.1999979 -0.799999774 3.20000052
3.34444237 -2.0819428 15.3652773
3.29967713 -0.936597943 16.9073181
2.51761317 -1.76722765 17.3015289
3.36766434 -1.10577393 15.9158669
3.37024236 -2.39508057 16.520649
3.05556202 -0.520833313 35.7430573
3.33333826 -1.04166663 36.7083321
4.2740345 2.67708182 44.6770821
4.16666651 1.66666913 44.8333321
-4.33333397 -3.66666698 47.6666641
-4.27407265 2.66742182 43.3334923
-4.38186502 2.60416651 49.3748894
-4.27700233 -3.49230003 44.3181877
2.86650562 -0.0417341888 18.9605427
-0.833331406 -1.66666591 0.833336115
0.293447375 -0.643258214 0.782458186
0.124508947 -1.70672786 0.870629847
-3.64583302 4.3541646 0.69471091
-4.4197793 4.44660902 0.612338424
-3.66666698 3.66666698 0.666668534
-4.33333397 3.66666698 1.33333242
2.32222247 3.14999533 43.1222229
-3.66666698 4.33333731 46.6666679
-4.31756115 4.32061148 46.5091248
-4.37193918 0.535826802 38.594101
3.25657153 1.85335648 20.8576679
3.39369869 2.7812953 20.2907162
3.40000153 3.13332963 21.6000023
4.26778889 2.65833187 20.6833344
4.16356277 1.70005774 19.9040966
4.26861858 2.65705872 21.6770382
4.31658268 -0.639524102 39.3607941
4.27053165 -1.48756075 38.9441223
-4.27232742 -3.36458588 36.3177071
3.62796378 0.881951034 20.6775322
3.10857463 1.37016857 19.585556
-2.31680012 -3.19661641 24.8619289
-3.44430113 -2.51993799 24.337326
-1.56399477 -3.05237603 24.1097412
-4.27704668 -3.33593845 35.3320312
4.25686836 2.72916317 45.7291679
4.33354616 3.66069365 46.6893501
4.33333731 3.66666698 45.6666679
-4.25805616 -3.5713532 34.3309441
1.66874683 4.27626419 36.3312531
1.35936844 -4.23936319 36.3009224
2.62660933 4.28234529 47.0746155
-3.2572937 -3.39227033 3.62846565
-4.33600378 -3.67888594 3.31787419
-4.2568779 -3.43756437 4.2678566
-4.25000191 -2.75000024 3.25000119
0.377777219 -4.25255156 25.2611103
0.0218378417 -3.72699904 24.1026688
-0.703707397 -4.20837212 25.1689644
-4.34377003 -4.33799601 3.40968513
4.32019329 4.30885458 27.5338554
-4.30885458 4.32019329 18.5338554
-1.51092839 -4.17321634 23.8198986
-0.750775158 -4.1490345 23.4847488
-1.82587159 -4.1495986 24.7265091
-1.75747907 -4.17073011 25.8040371
0.678426802 -4.30482578 48.6196365
-1.72916746 -3.54166698 49.2568665
-3.93189764 -4.27815199 18.4157124
3.34764123 -0.85440594 22.3932171
-0.466664702 4.202703 16.0500011
2.59999847 -4.20000124 6.20000076
2.96296597 0.694446504 36.8796272
2.96296597 0.694446504 35.8796272
-3.01347327 1.14057195 19.0349751
-4.18005753 0.674942911 3.31319952
1.34374774 4.31931257 0.684180021
-4.31230354 4.3349905 48.5677147
3.66666698 0.333335072 49.3333359
3.4161098 -4.25994349 41.2992592
3.48835373 -4.19283056 42.509964
0.74074465 -3.47222304 43.3240738
-0.372221977 -4.26640129 44.6916656
4.32019949 4.30885458 42.5338593
-2.6252346 2.27136993 41.6842613
-2.28585982 3.07787824 42.0781021
-2.93464804 1.75847352 42.7857437
3.66666698 4.33333731 34.3333397
3.66666698 4.33333731 35.3333359
4.30885458 4.32019949 34.4661446
-1.42395711 -4.27626085 33.8510437
-0.663886189 4.26639509 5.65694618
4.16666651 1.66666913 37.8333359
4.10270166 -0.841667473 37.3416634
4.1999979 -1.79999864 37.7999954
4.1999979 -1.79999864 36.7999992
-4.33333397 3.66666698 35.3333359
-4.16666651 1.66666281 44.1666641
1.03096151 3.37022972 11.8744221
1.10395908 3.28850341 12.8525734
-4.23873901 -2.46666884 13.2666655
3.10716844 1.06752992 11.7661352
3.14999533 2.32222247 11.8222237
1.04166663 3.33333826 10.874999
0.0 2.77777982 10.9206324
-4.27745485 0.647837996 29.4009132
-4.26778889 2.65833187 28.3166656
-4.33333397 3.66666698 27.3333321
-4.20000124 2.59999847 27.2000008
-4.26778889 2.65833187 4.3166666
-4.33333397 3.66666698 24.3333321
-4.26883698 0.485214978 17.766592
3.97425914 0.842050672 23.867609
3.86165881 -0.0152944066 23.9272594
-4.35748053 0.592595696 15.448451
-4.26779175 -2.36666775 12.3166676
-4.20339012 1.70700026 17.3005276
2.56547594 4.16214371 19.2268925
-4.24852562 -0.364351481 9.58555031
-4.25687122 3.54167032 21.270834
-0.139740005 -2.94910622 23.9724083
-2.84325218 0.00789582822 28.3171101
-3.11111164 0.777775526 28.8666687
-3.82633185 -0.0086211171 28.1226616
-3.83815169 0.0374869741 29.0863266
-4.26778889 2.65833187 22.3166656
-4.25687122 3.54167032 22.270834
-4.31330156 0.642289042 25.3911552
-4.26779175 1.68333495 32.3166618
-4.16666651 1.66666281 33.1666603
-4.30885458 4.32019329 13.5338535
-2.65984583 -0.668608487 0.726959348
-0.67708075 -3.64583302 0.725961685
-1.68230557 -3.49789953 1.78901005
-4.28074598 1.73182476 3.33212042
-4.24977064 -1.41666615 13.25
4.32019329 4.30885458 20.5338554
-4.27754068 -2.33889771 15.3268623
-4.29388952 -2.51185203 16.1846867
-1.39583242 4.01299381 0.713365734
-0.842459261 -3.08346844 38.6655846
3.66666698 4.33333731 17.333334
4.32019949 4.30885458 16.5338535
3.66666698 4.33333731 16.3333321
-0.0113797477 -3.82692409 13.0851345
-0.646339893 -4.298913 12.3615656
-0.024267083 -3.90105867 12.1197186
1.6457783 -4.17794466 17.0492516
4.29966354 0.376694053 9.9072237
-3.45553517 -4.29372835 3.59336042
4.22207355 1.66666913 10.749999
-4.15518856 -0.168514013 3.36334896
2.67968512 4.25717878 4.30679417
4.1978507 -1.74773037 9.76201057
4.33333731 1.66666281 48.6666641
-0.015874004 2.77777982 39.2222214
-3.80477262 -0.625357211 45.9258766
-0.773845017 4.18483353 45.2574539
-4.22207022 -1.49999833 42.25
1.38559282 -4.32128906 49.3539848
4.25686836 -1.89583504 47.7291679
4.26640129 -0.372221977 10.68472
3.12221909 3.35555291 43.4111137
2.59999847 4.1999979 44.2000008
3.66666698 4.33333731 44.3333321
3.66666698 4.33333731 43.3333359
-0.634576917 -4.27881718 38.2720985
-3.47500062 3.42500329 37.4750023
-2.6679697 4.27704954 36.6679688
-3.66666698 4.33333731 36.6666641
-3.66666698 4.33333731 37.6666641
4.28202868 -4.35139656 29.6150284
-4.2365346 0.768571675 40.3278961
-4.32552052 0.467852384 39.6915627
-3.86371732 -0.0627517253 40.1299896
-4.26571751 -3.42378712 20.1487522
2.67708182 4.2740345 37.3229141
-4.31930971 -4.31581926 36.5104141
-4.47189283 -4.47187662 37.4932404
-2.62127256 3.27606249 33.4476547
4.25000191 3.50000262 33.7500038
3.14999533 -2.32222247 10.5722218
0.708337843 -4.0902009 27.8958397
-0.610205352 4.3203454 39.6397896
-1.66666591 4.16666651 39.8333321
1.67918587 4.25432825 13.3224182
-2.65833187 4.26778889 27.6833344
-1.53458107 -4.30150032 30.9422493
1.64154685 -3.49344325 20.5211658
2.48670769 -3.31398344 19.6381588
2.66012454 -4.27530146 19.6765842
1.66355896 -4.26936579 19.6857872
0.656009376 -3.1958406 20.8096943
-1.79999864 -4.20000124 21.8000011
-4.2703352 -0.67824626 25.8014984
-4.12658882 -1.7051506 26.1576366
-4.2222476 -1.44116449 25.2045765
1.53713059 -4.24537754 20.955164
2.35820818 -4.19774628 21.1706753
0.810188651 -4.05700541 20.5525036
1.04166663 -3.33333492 19.7916679
2.52397299 3.83714461 49.3514252
1.34346271 4.32113695 49.3138046
-4.3203454 -0.626016021 27.6377583
-2.68337488 0.236520126 0.757354975
-3.17961192 1.06422973 1.58774722
-2.53192258 1.13911498 0.813075542
1.68818069 4.22588015 20.2833233
-3.84742212 -0.0321217366 24.1236458
-4.23873615 -2.46666884 17.2666645
3.03333473 0.824884474 25.3778973
4.29890966 0.646343112 33.6384354
-4.0440259 -0.888332963 31.0648079
4.31842613 -4.31583214 17.5130215
4.3065424 -4.34491634 16.6497097
4.23027658 -3.80379725 40.1104355
4.33333731 -3.66666698 38.6666641
4.31232595 -4.34363365 39.5104179
3.38463426 -4.27933311 39.3668556
1.6066823 -4.24043036 15.6849117
-0.740738273 3.47221994 36.842598
-4.27403784 -3.35416579 8.32291698
-3.38643956 -3.14129496 5.17257357
-3.66508007 -4.31718445 4.5600214
1.66874683 4.27626419 4.33125162
3.5697062 1.18450725 36.3603592
-1.63574457 4.17106247 34.7543983
-1.71537113 4.28408098 33.7233543
3.88889027 0.0 35.8888893
4.40609407 0.461384952 36.4139557
3.88889027 0.0 36.8888893
4.39624405 -0.552780867 6.42739582
-4.15358257 -1.52512062 9.21446514
4.3203516 0.376016259 37.3602066
4.22207355 1.66666913 36.75
3.37778044 2.51111412 35.9555588
-2.7063024 4.20985413 32.7266617
-1.6498735 4.14557266 32.8096542
2.62934566 1.11748934 0.7086941
-0.513887644 4.27055073 32.9965248
-3.36253667 -2.35166144 3.24087644
2.28889084 -1.55555737 38.9185181
3.22638822 -2.40555453 38.4680519
-3.36296415 -1.19259322 4.19259453
3.42500329 -3.47500062 45.875
4.28819799 -0.427337557 4.57266188
-3.33188438 -1.50792587 2.41528249
2.62000251 -4.28385258 48.6343651
2.67708182 -4.27403784 47.6770859
-2.35976315 0.683690727 49.273037
-4.20000124 -2.60000157 46.2000046
-4.29166937 -2.70833564 47.7083321
-3.34113264 -1.26367462 3.28373194
-1.4661442 -4.32019949 49.3088531
3.39195681 -2.56639767 36.627285
-3.1860919 2.3545785 22.3743286
-3.12480021 2.20723414 21.3566151
-2.10210848 2.21752119 22.3046532
-1.57555199 3.1303966 22.9435654
-1.62737048 3.237391 21.9330673
-1.32013941 2.46944022 21.2931767
-2.28883386 1.5816741 22.9847927
1.67499888 2.6624999 49.272625
4.33333731 -3.66666698 47.6666641
4.33333731 -3.66666698 46.6666679
4.33333731 -3.66666698 45.6666679
4.31147099 -4.31758022 46.5182343
-4.33333397 3.66666698 44.3333321
-4.30885458 4.32019329 43.5338554
-4.33333397 3.66666698 43.3333359
3.50000262 -4.25000191 46.2500038
0.872392476 4.20984173 45.8704453
-2.6259284 -1.04999948 42.4407425
4.31103373 -4.33409071 38.6512451
4.38873768 0.416664094 49.4166641
-2.25207853 -2.37557387 32.7379112
-1.78011191 -4.18353176 29.7914085
-2.00939488 -3.66686964 30.4708881
-2.32945323 -3.1549077 29.6641006
-0.767010212 -3.22338247 28.1497746
4.1999979 2.59999847 39.7999992
4.26362085 1.66666913 39.6875
4.32019949 4.30885458 29.5338593
0.761743188 4.24514961 23.3946514
4.1497283 -1.79788613 34.809639
0.441697657 -4.22862625 32.0178986
4.24893141 2.63208842 27.5895348
-4.23934412 -0.634291887 23.9458237
4.3256216 -4.36074591 25.312273
2.85740304 3.97456932 29.096962
-2.58888793 3.35555291 20.5888901
-2.50000048 3.33333182 21.6111126
-1.0897193 3.35852385 21.0237465
-1.66874993 4.27625799 20.6687508
4.21133041 -2.70786691 9.76038551
4.25525284 -2.74334264 8.68915653
-4.08292246 -1.70042515 11.0342808
4.33015108 -4.30832911 13.3518887
-4.20000124 -2.60000157 14.1999979
-0.668101728 -3.1507237 17.6851215
-2.32222247 -3.15000176 40.8777809
-2.75000024 -4.25000191 41.75
3.15301061 -0.758262396 38.1329498
-3.66666698 -4.33333397 22.6666679
4.30885458 4.32019949 10.4661455
1.44668806 -4.27774334 3.26247692
0.799996614 -4.20000124 3.20000052
1.85648572 1.06879687 0.942161083
3.35668039 -4.27496243 8.3202219
-3.39824057 -3.13764 23.1461296
-4.29692078 -3.30879545 23.3506546
2.44725704 -0.71966058 49.2229271
2.59999847 0.200002313 49.2000008
1.62956214 -0.631501615 49.1395264
-3.68317127 -4.30598831 23.6942558
-4.37499857 -4.33310604 48.6250038
-4.33333397 -2.33333302 48.6666641
-2.53385472 -4.30885458 49.3201981
-4.41649532 -2.44791913 49.3506165
-3.45833492 -4.45833397 49.4443703
-4.33333397 -1.33333397 49.3333359
-0.67708075 -3.64583302 49.2740364
-4.47562027 -0.572917879 49.4999428
-2.41278219 -2.80081153 27.8095284
-2.73400903 -2.77653193 28.842186
-2.57302022 -3.6776824 28.0384026
-3.05858684 -3.33987522 27.1293583
-1.69529736 -3.40758061 27.4336452
-3.47049689 0.668621182 49.2007446
-4.50000143 0.499999464 49.5
-4.31581926 1.65624905 49.3193092
-4.31272793 1.33334029 48.6542282
1.59031427 3.28348637 8.67237377
0.759469092 3.11390185 8.96511745
3.18246555 2.27210474 8.85268211
2.3189981 2.44209456 8.37141705
2.50000358 3.33333182 9.38888931
3.12221909 3.35555291 10.411109
1.75004244 3.31440473 10.1536379
3.13875818 -2.25800753 39.3355103
4.25000191 -2.75000024 38.7499962
3.37778044 2.51110792 9.95555496
-2.35535455 1.68612838 6.86671495
-4.25000191 1.74999809 47.75
-2.22222114 3.12499976 7.65277624
-4.30885458 4.32019329 44.5338554
3.25042081 -1.89622772 43.3907318
4.22709036 0.853015542 46.7226639
4.26753521 0.691260338 45.7067909
-4.24839306 -3.50772429 45.2741623
-4.33333397 2.33333302 48.6666641
-2.32037592 3.65380812 49.2458687
-2.66666794 4.33333731 48.6666641
-3.46666789 -1.66666591 49.2666702
0.249999732 4.25000191 47.75
-4.33333397 3.33333826 49.3333359
-4.44010639 4.38173819 49.4296227
-2.77777982 0.0 42.2222252
2.7543931 -0.00438340427 43.9889183
-3.49999928 2.75000334 49.25
2.77038741 0.0255212933 41.8188744
4.29171991 -4.32143784 40.6087151
-2.7320168 1.09842277 34.355381
-3.32535362 2.46141458 34.3801994
-3.33333182 -4.33333397 48.6666641
-3.66666698 -4.33333397 47.3333359
-4.44436646 -4.54166603 47.5416679
-4.26778889 -2.36666775 45.3166656
2.46614623 -4.30884838 49.3201981
-3.35784602 2.57772684 7.42545366
-3.31118679 1.08449352 7.28031969
-3.22648954 1.62685108 8.23120785
-4.28791618 -0.790418983 48.6419296
-2.04652715 0.669831038 6.53575563
-1.57510531 -1.91768551 49.2793388
-3.64583302 4.3541646 49.305294
-4.3177228 4.34383345 47.6403351
-4.31692791 0.328717321 48.685688
3.2568059 -0.125449613 47.555851
2.5488925 0.620619118 47.4374809
3.31885147 -0.00201433897 46.6624222
3.27838087 -0.0955322385 45.8199425
1.41666305 -4.24977064 45.2499962
-4.23873901 1.73333228 41.2666664
-3.33435178 2.58506823 41.4650993
-4.27360058 2.66299415 42.3292389
1.81709206 2.4579432 13.2035685
-0.325537443 -4.27832603 48.6620331
-4.43694878 -4.4197731 46.4218025
-3.28686595 1.7619828 40.7043114
-4.2740407 -3.35416579 46.3229179
-3.66666698 -4.30540562 46.0000038
1.02990997 3.53462648 16.9265938
1.4974519 3.00514674 17.6797504
0.858501136 3.88785791 18.0075741
1.32291389 4.2740407 47.6770859
-1.66853464 4.26403856 45.9417648
-4.27000904 -1.67896414 46.680603
0.62482512 4.27678347 16.185503
2.65394855 4.26398182 45.2991905
3.64629555 4.3307209 45.3552513
-1.28536355 2.68087602 49.2442665
1.65071905 -4.33717251 48.6873703
-2.60416651 4.34718418 49.3122711
-1.4661442 4.30885458 49.3201981
-4.19501305 1.77672291 46.7778244
-4.26778889 1.68333495 45.3166656
-4.05360365 2.60773277 47.382309
-1.66666591 4.33333731 48.6666641
-4.25786591 2.65837002 45.3061066
-3.16614175 1.67250311 29.0178776
-1.57777846 -3.35999966 46.4399948
1.85185528 0.92592448 7.85714293
4.67242384 2.57703638 0.481415868
3.43229413 -4.31230354 49.3349876
4.32019949 4.30885458 43.5338554
4.33333731 3.66666698 42.6666641
-3.13630342 2.23157716 9.14291763
-3.70108175 0.777230799 8.27526093
-3.32707357 2.56030703 43.0228729
-4.3119173 0.568499684 45.4102821
-4.22207022 -1.49999833 44.25
-0.621173322 4.23524284 34.7726593
-4.32324982 3.62795115 46.3311157
-4.20754242 2.62443662 44.2089958
-4.10104227 0.833119154 43.1794167
-3.32655096 1.11006546 43.9758835
-4.30884838 4.32019329 45.5338554
-4.31457758 3.64712524 45.3531036
2.58501124 3.36393332 16.4058323
3.3562181 2.51046181 15.6564569
-4.27626419 -2.33750105 44.3312492
3.29089761 -1.55735636 20.3162117
-4.20000124 1.80000186 42.2000046
-4.15160942 1.82422459 43.170166
-4.32034826 -0.626016021 44.6397934
-2.6679697 4.27704954 44.6679688
-3.66666698 4.33333731 40.6666679
-3.66666698 4.33333731 41.6666641
2.77777982 0.0 34.7777786
3.41412711 -2.59879804 37.5912094
3.17712569 -3.39446521 38.0860901
-2.76987123 1.57258427 33.6372757
-3.88063979 0.012222223 42.1344872
3.36017704 -2.51786351 32.9145927
3.29919577 -1.81260419 32.4460793
3.37164235 -2.52643704 31.9287186
3.33256531 -0.993281305 32.8865356
3.33846283 -1.7734164 33.4298325
-3.36452889 3.13798523 9.44442272
-1.73104882 2.89327478 10.5138092
3.53140211 2.35471797 0.759714544
-4.25000191 -3.49999928 43.25
-1.02341092 3.3324008 10.0726023
-3.19356346 2.34329057 10.2185431
-2.49859118 3.3705337 9.98031902
-1.49559915 2.70492148 48.4212379
-0.549996853 -4.24842119 46.1749954
4.41408825 -0.511173368 49.3500061
-0.435714811 3.53298569 46.3412247
-4.30963039 0.615348876 44.3965073
-4.32034826 -0.626016021 43.6397934
3.40924954 3.37957287 17.0336533
2.27961087 3.37479043 17.3771076
3.41385484 3.38240457 17.9694252
2.6679728 4.27704334 17.3320293
3.42619419 3.4283669 16.0778694
2.6679728 4.27704334 16.3320312
4.26778889 2.65833187 17.6833344
4.27489614 3.65104628 17.6744804
4.25686836 3.54167032 16.729166
-4.30885458 4.32019329 42.5338593
-4.298913 0.646343112 41.3615646
-4.43632174 -4.51020288 38.5001106
-4.26779175 -2.36666775 43.3166618
2.36358595 2.41397619 7.41016197
3.42760682 3.44702792 7.00167274
2.66625619 3.32832146 7.4313159
3.3400209 2.48103213 7.90488529
-4.21514368 -1.52082908 43.2395782
2.66770697 -4.27091455 46.6927147
3.37499952 -4.27060747 47.3125038
-4.27227974 -2.34085822 40.331398
-3.33333492 1.04166663 36.2916679
-3.34444547 1.81527412 35.8513947
-3.30214119 1.08553863 35.0413971
-4.26779175 -2.36666775 41.3166656
-4.17422342 2.60643411 40.1843071
4.2165308 -2.70185566 43.7265816
4.25742579 -2.76849341 44.7203522
-4.26290798 0.604833782 34.069458
-3.84523368 0.0600881092 34.1468658
-4.27626085 2.66562915 41.3312531
-4.30885458 4.32019329 41.5338593
-3.35555601 2.58888793 35.4111176
-3.66666698 4.33333731 44.6666641
-3.66666698 -4.33333397 43.6666641
-4.31108427 -4.33168697 41.3885078
-3.66666698 -4.33333397 41.6666641
-4.22087002 -1.45860314 41.2951279
-1.79999864 -4.20000124 44.7999954
-2.75000024 -4.25000191 44.7499962
-4.24164343 -3.54543281 41.2780838
-4.2193718 -2.53333521 42.2333336
-4.32034826 -0.626016021 42.6397934
-2.77817249 0.0151518825 36.2366333
-2.74351072 0.0119783487 35.0659676
3.66666698 4.33333731 37.3333359
0.126662642 -2.65366673 19.8396492
-2.75000024 -4.25000191 42.75
-1.66666591 4.19436693 43.7916679
-4.33333397 3.66666698 40.3333397
-4.33333397 3.66666698 42.3333359
-4.32034826 -0.626016021 37.6397934
-4.33333397 3.66666698 39.3333321
-2.33524919 -1.01880896 48.3877029
-2.4013865 -1.549999 47.5625038
-3.63975525 -0.905157149 47.5907784
4.23213243 -4.19561481 41.6793785
3.85684466 -3.49975872 42.6003418
4.26756716 -2.77991438 41.7410698
4.04182196 -0.906712234 41.835186
-3.66666698 -4.33333397 39.6666679
-2.6679697 4.27704954 43.6679688
-1.60652077 4.08552265 42.6592484
3.18698192 1.72524965 29.9998875
-0.639790177 -4.32034826 40.3622437
-3.47500062 3.42500329 35.9749985
-2.75000024 4.25000191 35.75
-0.937776148 3.35999966 3.58222151
-4.32019949 4.30885458 36.4661446
-4.30963039 -0.615342557 41.6256828
-4.32234383 -0.63267976 34.6370926
-4.29213524 -0.628635287 33.6683769
-4.27263451 1.67499888 40.3250008
-4.26451063 2.59243512 39.2982521
-2.6347394 4.31497383 42.6266708
-2.08101487 -2.76011944 2.68072248
-4.33333397 3.66666698 41.3333359
2.77777982 0.0 5.01587343
-3.20215273 -1.58422685 31.5916653
-3.36944103 -1.07089031 30.3923092
-3.35505557 -2.54483533 31.0721798
-4.15031433 -1.77190244 30.9563618
-4.30885458 4.32019329 40.5338593
-4.27489901 -3.34895873 40.3255196
1.66874683 4.27626419 25.3312511
-1.79999864 -4.20000124 45.7999992
-4.25000191 -3.49999928 42.25
3.11843729 1.66925991 25.5312786
3.38400698 2.52802062 25.6127834
-4.25686836 -3.45833492 39.2708321
-4.13283777 -1.67969263 40.1337166
-4.26373768 -3.41666722 38.2916679
-3.3777771 -2.51111102 42.0444412
2.54278612 2.59634352 38.7699585
-4.30471849 -0.618462205 39.6326218
-4.32034826 -0.626016021 40.6397972
3.33333182 2.50000358 37.9444466
-2.71355844 -4.30577612 37.7516708
3.33162785 3.35709858 37.9374275
3.40000153 3.13332963 36.9333305
2.49295354 3.45060062 38.1866035
-3.66666698 4.33333731 43.6666641
-4.2617774 -1.37406731 35.2914848
-4.2493968 -2.43932009 34.2638893
-4.20000124 -2.60000157 35.2000046
-4.298913 0.646343112 37.3615608
-4.30884838 4.32019329 39.5338554
-4.20000124 1.80000186 35.2000046
-4.27263117 2.6624999 38.3249969
4.20116377 -3.76005507 13.8605061
-3.40677929 -3.14691377 40.4652596
-3.66666698 -4.33333397 40.6666679
-4.26778889 -2.36666775 39.3166656
-3.33985639 -0.431429595 2.5076952
-3.25009775 -0.0361884236 3.34313273
-4.25000191 -3.49999928 37.25
-4.01893234 -1.36275101 39.3666534
4.04760504 0.80595094 42.39011
4.22855997 -0.225640804 42.6812325
-2.48277736 -1.16200757 1.56177294
-3.43673134 -0.561376631 1.58304071
3.38762403 3.43938875 34.4000893
-4.25527525 1.6491102 39.3271179
-4.33333397 3.66666698 37.3333359
-4.26778889 2.65833187 37.3166618
0.738825321 -3.49066567 31.1479588
-1.29654384 -3.39806318 32.0756493
-4.30885458 4.32019329 38.5338554
-0.617774963 -3.35999966 46.4399948
-2.96296597 -0.694443345 32.1203728
-4.2187953 -0.687538862 31.847023
-4.33333397 3.66666698 31.3333359
-4.33333397 3.66666698 38.3333321
-4.33333397 3.66666698 36.3333359
-4.26779175 -2.36666775 37.3166618
-4.27626419 -2.33750105 38.3312492
-4.26362085 -1.37499857 38.3125
-2.51433206 3.34723592 35.6183281
-2.75000024 4.25000191 34.7500038
-4.27177 -0.551127553 38.6459503
4.29589462 4.45218945 3.52915192
4.33333731 3.66666698 4.66666746
4.37498569 4.3270154 4.62239647
3.66723704 4.27977991 4.32525921
-4.18512487 1.75659859 38.2032433
-4.298913 0.646343112 36.3615608
-4.26778889 2.65833187 36.3166656
2.91486883 3.85001612 1.8919884
2.66666794 3.66666698 0.666668534
2.24999762 4.25000191 1.49999988
3.66666698 4.33333731 1.33333242
3.67103124 3.42587113 2.29306984
-2.43390727 3.34945297 42.8773537
1.37499535 -4.26362085 33.3125
-3.64583302 4.2740345 39.6770821
1.53958833 2.29190588 14.192894
0.683164954 2.09252453 13.9881067
-4.31424522 -4.34427357 35.3902397
-4.23873901 -2.46666884 36.2666664
1.78618026 4.20280409 39.2169647
2.66826439 4.24685335 38.3588562
-1.79999864 -4.20000124 37.7999954
-1.79999864 -4.20000124 39.7999992
-2.76151609 0.0187941622 43.127491
-4.26779175 1.68333495 36.3166656
2.22949314 -3.14287853 34.0892296
-2.53610969 3.29752994 37.6372414
-2.758672 4.27129793 37.7500954
-1.6706028 4.26471663 36.6889381
-4.27626419 1.66874683 37.3312492
-2.65499687 4.25731182 38.6777229
-4.30885458 4.32019329 37.5338554
-3.39918733 0.329205066 9.59278393
-4.26640129 0.663889349 10.315279
-2.65680528 4.26801062 39.6766815
-3.44643879 -0.826645434 10.1034155
-4.2612896 -3.3908608 31.3302193
-4.30490208 -4.33911085 34.3526878
-3.86356854 -4.26595497 33.6467514
-3.65276599 -4.29578352 37.6897202
-1.79999864 -4.20000124 38.7999954
-4.32657194 0.439816326 35.655674
0.448963195 -4.44896221 39.440834
2.40741372 -2.08333325 6.49074316
-4.20388079 -1.3813076 27.2644653
0.450515151 4.2232008 33.7801857
1.66030931 4.26116276 33.3272247
3.52463078 0.683785737 9.76553535
-0.644442737 -4.18889046 35.7222252
3.12499976 2.22222114 10.8472195
-4.32034826 -0.626016021 35.6397934
-4.18587875 -2.5790031 33.1901741
2.74999714 4.25000191 34.2500038
-4.30885458 4.32019329 32.5338554
-4.30885458 4.32019329 31.5338573
-4.33333397 3.66666698 32.3333321
-4.30885458 4.32019329 35.5338593
-1.68470943 4.19470882 37.8682632
-4.30885458 4.32019329 34.5338593
0.691995084 3.25217557 14.2366838
1.67990804 3.67104411 0.655450344
1.46708488 -4.21844053 34.3043251
3.36981797 -1.03715014 43.9942665
-4.25146198 -3.34808159 33.3179512
-3.91594148 -0.0479862392 33.1277008
-4.298913 0.646343112 32.3615608
-4.19561481 -1.63075304 31.7813931
-3.40000153 -3.13333583 38.0666695
-3.64447117 -4.31059361 38.6626015
-3.4324367 -3.11993551 39.3507652
-4.26708889 1.66666913 34.3177109
4.27574492 1.66666281 40.6692772
-0.00737640774 2.79573774 8.94901276
0.0068031447 2.79398322 9.95314789
-4.33333397 3.66666698 33.3333321
-4.33333397 3.66666698 34.3333397
-4.27687216 2.66754842 34.3266678
1.79506099 -3.25740767 44.9228363
-2.67708182 4.2740345 33.6770897
-4.20000124 2.59999847 31.2000027
1.02091515 3.83922863 27.8119659
1.78316498 4.21956491 28.2072773
0.652544439 4.31624699 27.3442917
1.68003464 4.26294947 27.3187447
0.767646849 3.15896487 26.6106091
0.776280642 4.20896101 26.2394199
3.33333182 -1.04166663 34.9583359
4.3203516 -0.626016021 35.3602066
4.17291212 -1.79053831 35.785778
-1.64212644 3.42881036 36.4020691
-4.26681328 -3.43402982 32.2818031
-2.75000024 -4.25000191 34.7500038
-2.75000024 -4.25000191 33.7500038
-4.39385605 -4.35229588 32.4125595
-4.39041662 -4.33889866 31.3528633
-3.66666698 -4.33333397 31.6666641
-1.79999864 -4.20000124 36.7999992
-4.298913 0.646343112 31.3615608
-3.47500062 3.42500329 34.4750061
-4.26875496 2.65965581 33.3265533
-4.30884838 4.32019329 33.5338554
0.0234372765 0.55902338 0.756325662
-0.804018974 -0.238800511 0.828224242
4.53195238 -4.35349321 31.6268463
3.50000262 -4.25000191 31.25
-4.21585608 -3.52226472 30.2786255
-4.20000124 2.59999847 29.2000046
-4.2368865 -2.50633168 30.2319355
-0.977008224 4.00801516 23.8069515
-4.26779175 1.68333495 31.3166637
0.779675841 -3.13053918 8.80900955
-4.27626085 2.66562915 32.3312492
2.40740728 -2.08333325 7.49074221
2.43631768 -2.74968338 16.8632832
-4.30885458 4.32019329 30.5338573
-3.51334286 -3.92374229 17.5826969
-4.16196632 -4.32538128 17.55583
-4.26373768 -3.41666722 17.291666
-4.31883764 -4.31386185 29.5096931
-4.34204674 -4.31045389 28.5099926
-4.26362085 -1.37499857 28.3125038
-0.866666138 -3.11111164 39.9333344
-4.24192238 -3.41385794 29.3191986
-2.20445633 -1.12405491 40.6870308
-3.36995411 2.58643651 31.412199
3.88889027 0.0 34.8888893
3.36666989 1.05000269 34.966671
-1.6792239 -0.657114744 0.77685225
-4.2702117 1.67916691 30.3208313
-4.23052979 -1.5842396 29.1913967
-4.33333397 3.66666698 29.3333378
-4.33333397 3.66666698 30.3333359
0.427635282 -2.90170598 18.8412609
4.20369101 -1.75869203 42.7929153
-4.15433025 -1.63665032 30.0984116
2.69787121 4.25727987 31.2826538
-3.88885546 0.0640281066 35.1113548
-4.36668158 -4.34548664 27.0609474
-2.6679697 4.27704954 31.6679688
-3.66666698 4.33333731 31.6666641
-4.27626419 1.66874683 29.3312531
-2.67492175 0.0528700612 38.1156578
-4.298913 0.646343112 28.3615646
-4.32019949 4.30885458 29.4661446
2.22222757 -3.12499976 6.34722471
-3.3777771 -2.51111102 37.3777771
4.25211763 3.62914824 28.6820278
-0.755092025 -3.17012596 26.956728
-4.28363752 -3.46249342 28.2831821
-3.66666698 -4.33333397 30.6666641
4.26362705 1.66666913 32.6874962
0.687447011 -4.28068256 29.6600914
4.1999979 -1.79999864 32.7999954
4.26866913 -0.416727453 19.5910664
3.52781057 -0.94883281 19.102972
2.3018384 1.66374266 19.0811539
4.16303062 0.744342566 18.7555943
-1.66666591 4.22206688 29.7500019
-3.66666698 4.33333731 25.6666641
-2.67553926 4.24671412 25.6673107
-4.27626085 1.66874683 27.3312492
-4.30885458 4.32019329 28.5338593
-3.66666698 4.33333731 28.666666
-2.6679697 4.27704954 30.6679688
-4.29637289 -3.31443 27.3139305
3.83702421 0.0197791606 25.9077644
3.7650528 -0.0060271807 24.9691505
-4.28174639 -0.433820814 28.4096546
-4.30885458 4.32019329 22.5338535
-4.25000191 3.50000262 23.2499981
-3.66666698 4.33333731 22.6666679
2.77777982 0.0 14.7777777
3.3059926 -0.999327481 14.9460382
1.64444172 -3.24444437 27.122221
1.58333373 -4.19436979 28.2083359
1.37499535 -4.26362085 27.3125
3.65400457 -4.29259109 1.64480114
4.32019329 -4.30884838 2.46614456
-0.606987476 -4.41866159 49.3059578
-4.20000124 1.80000186 28.2000046
-0.566665828 -4.21103907 43.8583298
-2.59999847 -3.40000153 46.1333351
-3.40000153 -2.60000157 46.4666634
-0.852160394 -4.19392014 31.668108
-0.436389416 -4.30165577 30.7135201
-3.40000153 -3.13333583 45.4000015
-3.66666698 4.33333731 29.666666
3.3994503 -2.54932022 45.8233109
-4.32019949 4.30885458 25.4661427
-3.66666698 4.33333731 26.6666622
-4.30884838 4.32019329 27.5338554
-3.66406035 4.27704334 27.6679726
-1.94166434 3.56666589 3.44166756
-3.24999976 3.41666722 2.25000238
-3.40191126 2.23858309 2.54925203
-3.19999909 3.13332963 3.33333349
4.27129173 -3.61373663 5.56389093
4.33333731 -3.66666698 6.66666842
-4.26071644 -3.5883832 0.738706529
-4.32942867 -4.33058786 0.684037447
-3.60642052 -4.31946802 1.30104601
-4.32070637 -4.30889893 1.51312792
-4.27253008 -3.40952206 25.3325424
-4.37910652 -4.43645477 25.4508133
-2.44451737 -4.25933886 26.9482327
-3.66666698 4.33333731 24.6666679
-3.66666698 4.33333731 23.666666
-4.3203454 0.376016259 27.6377583
-4.44896221 0.504066169 26.5591679
-4.16250801 -2.53112149 26.2200947
-3.35764337 -4.27403116 26.7373619
-4.30885458 4.32019329 26.5338554
-0.82282263 3.18485355 28.2675686
-1.66666591 4.26362085 28.6875
4.36448336 -4.30623245 5.49218845
3.513026 -4.26588202 5.00911474
3.52397823 -4.21473169 6.27809715
4.32019329 -4.30885458 4.46614552
4.25289011 -3.60148287 4.36040545
-4.27196312 -3.53520608 26.344305
-0.612647235 -4.29383564 26.3881073
-2.51111102 3.37778044 26.622221
-1.66642523 4.27193165 25.6703129
-2.6679697 4.27704954 26.6679668
-3.19026303 0.365659535 45.6677895
-4.26779175 1.68333495 26.3166618
-4.15905237 2.64153957 26.189373
-0.531943858 -4.23052645 29.8236332
-4.34702587 -4.30249786 22.650692
1.37499535 -4.26362371 26.3125
-4.33333397 3.66666698 25.3333359
-4.33333397 3.66666698 26.333334
1.49415171 -4.23444462 13.2470541
0.804455996 -4.14418888 13.1495113
1.64677274 -4.17285824 12.2131157
-4.20000124 -2.60000157 25.2000027
-4.27226734 -2.35942435 24.3216782
-4.15156221 -3.52607489 24.2545547
-3.23979187 1.62072575 23.1824703
-3.92922783 -0.0239313599 25.0613079
-3.88889027 0.0 26.1111107
-2.50737691 3.34106612 36.6020203
4.26199293 -0.482050955 26.5576916
3.86600423 -0.0288056806 26.885788
0.555558503 -3.98148346 26.4629612
-4.26804209 1.67534089 25.3159924
-0.87247479 4.24852562 36.4144554
-1.66666591 4.26362085 26.6874962
-4.24868441 2.63151836 25.3281784
-0.762227774 3.14374971 22.1451588
-0.646339893 4.29891586 21.6384354
-0.850564122 4.01602173 22.8309746
0.0293251015 3.9050684 21.9360123
-4.26778889 2.65833187 23.3166656
-4.16666651 -1.66666591 12.1666689
-4.30884838 4.32019329 23.5338554
-3.69123173 -4.26069736 25.5999622
-2.75000024 -4.25000191 25.75
0.0379303806 -3.82677841 23.0258427
-4.28165483 -3.30094099 2.36572862
-4.32824755 -4.35491848 2.36224461
-1.77391052 -3.59061289 3.21719861
-2.75000024 -4.25000191 22.75
-3.47500062 3.42500329 29.9749985
-2.76718545 -4.24633121 24.7088585
0.0 3.88889027 20.1111107
0.626016021 -4.32034826 21.6397915
-2.77777982 0.0 27.2222214
-0.240909874 3.30465603 18.6431828
-4.15604353 1.59673738 24.1672745
0.755738139 3.48206353 6.07800627
2.83843803 0.0245933048 27.8373871
3.35222745 -1.07587552 28.6699219
-1.62999928 3.25500059 4.60499907
-2.70334411 4.2719059 24.719244
1.37649024 -1.2489661 48.3005219
-4.25697613 -0.34418276 20.2960148
-4.2671237 0.665796041 22.3409901
-4.26077032 1.67851448 22.3231201
-2.7242415 -4.24503231 23.7136288
-0.695830584 -4.24834538 22.3486099
-1.79999864 -4.20000124 22.7999992
-1.65140951 4.24242592 24.6870594
-4.30189943 0.661729336 23.3953075
-2.21033168 2.15695786 20.8812981
-1.46499455 2.73293209 20.2944317
0.52373445 -4.43904543 19.4786434
-3.99768996 -0.557607651 22.3367653
-2.67708182 4.2740345 20.6770821
-3.66666698 4.33333731 20.666666
-3.66666698 4.33333731 21.6666679
3.65104628 4.27490234 18.3255234
2.65507603 4.26213837 18.3297787
-3.39328694 -1.01733613 20.9239845
-2.77777982 0.0 23.2222233
-2.2685194 0.868053377 36.3773155
2.66559124 -2.70446539 18.7098618
-4.27705288 -3.37276983 22.3421021
4.32540655 -4.30885172 21.4713535
-4.16666651 -1.66666591 21.1666679
1.59338009 -3.21775126 18.907423
3.31737542 -1.79500401 35.7791786
-4.24280262 -3.36858606 21.3302002
2.45682836 -3.343014 36.3499908
-1.64791298 4.22723579 22.7372856
-4.20936012 -0.442141056 21.2765541
-3.66666698 -4.33333397 16.6666679
-2.6679697 4.27704954 22.6679688
-4.30885458 4.32019329 21.5338554
-4.19486713 0.636018038 20.1871243
-4.20450497 1.6285423 20.3658714
-0.62777698 4.25255442 30.7388897
-4.33333397 3.66666698 16.3333321
-2.75000024 -4.25000191 19.75
-2.75000024 -4.25000191 20.7500019
2.37529826 -4.26401043 28.3171539
2.78697085 -0.0551599488 28.9382858
0.400479704 -4.28702641 17.3673496
3.3861227 -2.68952894 26.9631824
2.39655662 -4.26565742 18.2751007
2.65845227 -4.12673759 18.909399
-4.2730813 -2.36114717 20.318388
-3.9418838 -0.0208528414 23.1423302
-4.26778889 2.65833187 21.3166676
-4.26891327 2.65783787 20.3204727
-2.671875 4.27575731 21.671875
-4.31581926 4.31931257 20.510416
-4.33333397 3.66666698 20.333334
-4.33333397 3.66666698 19.3333321
-3.47500062 3.42500329 20.4750004
3.16261983 0.810334325 29.4853115
-4.18330669 1.58859766 11.2844362
-4.25943995 1.67380798 12.3053856
-4.22207022 -1.49999833 20.2499981
3.30565047 0.465065241 22.9810028
4.1999979 -1.79999864 26.7999954
-3.03004408 0.761686146 39.9288864
-1.63174438 4.21965981 21.6897278
-3.1509645 0.470107436 38.9434624
-4.1935401 1.73913467 19.2452717
-4.20000124 1.80000186 18.2000008
-2.58359551 -3.35303807 32.4627075
-2.67708182 4.2740407 19.6770802
-0.465267956 3.00241661 19.5946712
-0.899997771 4.04444408 20.4555569
-4.26186609 -3.52135897 12.2988167
2.51325512 -3.32819772 16.1628418
-4.23380136 -2.50106788 19.3746014
3.41517234 -3.419806 10.9158115
3.42863297 -3.42444277 9.98033237
2.51110792 -3.3777771 10.3777771
-4.28155041 2.63803029 14.3645182
-4.22207022 1.66666913 14.249999
-4.23873901 -2.46666884 18.2666664
-0.604672253 -4.298913 21.4032307
-4.20000124 2.59999847 19.1999989
-1.66951323 4.26351929 16.6821003
-1.65105796 4.20089769 17.6435986
-4.30885458 4.32019329 19.5338535
-4.30870247 -0.65342176 17.644907
-1.66666591 4.16666651 19.8333321
-3.66666698 4.33333731 18.6666679
1.79624557 4.21369314 45.2160759
-4.33333397 3.66666698 17.333334
-2.8815341 2.77214837 18.3399944
-3.184654 1.61741912 17.4736729
-0.492946118 -4.20547104 4.18633604
4.27037334 -2.66980982 12.3321552
4.3187871 -3.66964722 12.6362095
-3.84021688 -0.0041236938 7.14044666
-4.3195343 -4.32209063 40.4759636
-4.29110575 0.563976884 7.40346336
-4.24300528 1.55329597 8.36218739
0.108501926 4.22942781 18.4886208
2.48851943 0.0292870943 48.422905
0.708926976 -0.671861231 49.2348175
-3.35555601 3.12221909 21.4111099
1.35647988 0.298698604 49.2669563
-4.2752347 2.6631968 17.3283081
-4.27626085 2.66562915 18.3312531
-4.31931257 4.3158164 15.489584
-4.31931257 4.3158164 16.4895821
-2.67708182 4.2740345 17.677084
-2.67708182 4.2740407 18.6770821
-2.51111102 3.37778044 17.622221
-4.33333397 3.66666698 18.333334
-4.27255201 -0.329933524 8.33367348
-4.26687336 0.443312913 8.90273952
-3.15889192 -1.74704313 25.8912315
-3.14790177 -2.19667149 27.0007572
-4.19943428 -1.48210692 17.262392
-3.38762403 3.43938875 22.434597
-3.3777771 2.51111412 23.377779
-3.42187095 -3.11829495 26.0906181
-4.26576471 -0.602844775 16.5721111
-2.6679697 4.27704954 16.6679688
-4.30884838 4.32019329 17.5338554
1.76666391 4.21936846 43.2333336
-3.47500062 3.42499685 16.4750004
-3.48394799 4.30920935 15.4573984
-3.66666698 4.33333731 16.6666679
-3.15287113 -0.744276047 38.1840019
4.33082247 -4.34810257 12.6474056
0.428173721 -4.3263154 10.3838043
-1.79999864 -4.20000124 18.8000011
-4.25698853 -1.38552308 16.3251991
-1.79999864 -4.20000124 15.8000011
-3.47500062 3.42500329 23.9749985
-4.30884838 4.32019329 14.5338564
-4.31421375 3.61866498 14.3613701
-3.66666698 4.33333731 13.666667
0.181664228 1.63411665 0.770799756
0.999998927 1.66666281 0.833332896
-4.25321627 2.5893631 15.2702961
1.57777846 1.33332765 1.66666746
-3.66666698 4.33333731 17.666666
-0.777778685 -3.11111164 13.5111132
-4.31930971 4.3158164 5.48958492
-3.66666698 4.33333731 10.666667
-2.6679697 4.27704954 10.6679688
-4.31581926 -4.31930971 39.4895821
-1.90214086 3.13177133 18.3180981
-1.28363752 2.92191887 19.0580959
-0.646339893 4.29891586 12.6384363
-4.20000124 2.59999847 11.1999979
-4.27626085 2.66562915 10.3312511
-4.29064655 -0.619307876 13.6081877
-4.33333397 3.66666698 15.333333
-3.79136276 -4.15990782 19.4061775
-3.64474678 -4.32301521 20.6538544
-4.30014181 0.623887658 14.397584
-4.25231695 -3.49041224 11.25488
-4.31176519 0.398427367 13.5612564
1.69005573 -4.09729528 14.1919565
4.19436693 1.66666281 12.7916679
4.26778889 1.68333495 11.6833353
-0.504062951 4.44896507 14.4489622
-1.78211355 -4.177495 16.7992935
-4.19287491 2.60424876 13.2367201
4.30552912 -4.38353729 20.5985203
4.28850222 -3.71989799 20.6876774
4.32444382 -4.23822594 19.6945515
3.56370139 -4.31931925 19.7405586
-4.26501417 -1.64960742 10.2606163
3.50000262 -4.25000191 14.249999
3.40906596 -2.56725907 17.6568699
4.25505018 -2.74111295 18.9653358
3.17455387 -3.45563316 18.1220493
-4.02933025 0.895677686 16.6244144
-3.92118001 0.0444453098 16.1296711
-3.84295654 0.0993360505 17.1085968
0.667164266 -4.19476557 4.150455
-3.66350293 4.30325508 14.6367073
-1.72587359 1.808604 48.331562
-2.68206072 2.25051069 47.4256363
4.3158164 -4.31931257 6.51041794
3.35416579 -4.2740407 7.32291842
4.42633867 -4.33569336 7.54004908
-3.64811659 -4.2773757 12.6793976
-3.68129945 -4.30931377 11.6536617
-2.75781059 -4.138165 11.6656847
-2.44025445 1.28091049 48.3370476
1.93332827 3.66666698 47.6000023
2.79775214 3.36471891 48.8444252
1.5666616 3.46667099 48.9333305
2.00199962 2.83856463 48.3186226
1.69807506 4.14530039 18.2373123
2.72162533 2.50763035 49.2420425
3.42407203 2.68365049 48.241993
0.95555681 2.51110792 48.3777771
1.07777905 3.35555291 47.5888863
3.40208554 2.49045134 39.663559
1.69970298 3.27759552 39.19347
-4.33333397 3.66666698 13.3333321
2.22222114 -3.12499976 7.34722376
1.46171963 -3.39811373 6.74652624
0.555558503 -3.98148346 7.46296263
0.36435464 -4.24852562 6.58555317
1.41666305 -4.2497735 7.29166794
1.3541615 -4.27055073 6.32291937
4.31147099 -4.31758022 27.5182285
4.31138229 -4.35415173 26.6275978
-4.20619297 -2.60911059 11.1706514
-4.30694151 -4.37252808 12.4684868
4.2843914 -0.901730239 14.4328632
-1.79999864 -4.20000124 12.8000011
-2.73233366 -4.24054432 8.76735115
-3.36243844 2.57540202 37.4984741
-3.35555601 2.58888793 36.4111176
0.864797533 -3.57868528 10.2752962
-4.15288258 2.57383752 12.2294683
-3.34444547 1.81527412 36.851387
-4.30885458 4.32019329 12.5338554
-4.33333397 3.66666698 12.333333
-2.72916627 4.25686836 13.729166
-4.32019949 4.30885458 11.4661446
2.58888793 3.35555291 23.4111118
1.75221515 4.18259096 23.234808
1.78626251 4.17528105 24.2677937
-4.26517916 1.67772257 10.3219013
-4.33333397 3.66666698 11.333334
-4.20859385 -1.55307746 5.23899317
4.30446482 0.6094262 14.505867
-4.31758022 -4.31147099 11.5182323
-4.33330536 -4.32091236 10.6614571
-4.1607976 -2.59778786 10.2355137
4.26583767 -0.364205778 9.68157005
-0.027754169 2.68473363 12.817874
0.0352762677 2.78177047 13.7534485
-3.66666698 4.33333731 12.6666679
4.27170324 1.68683147 21.6851616
4.27624512 1.66697943 15.6743965
4.23505259 1.61893308 20.7913799
3.11111474 0.777775526 40.7111168
3.98380494 -1.84484947 11.988698
4.29446936 -2.61547661 10.9775152
-4.13758183 1.63335645 9.17608833
2.59999847 -4.20000124 10.1999998
-4.40268946 -0.598261833 7.57777023
-4.16564322 -1.14951611 8.54150772
3.35416579 -4.2740407 32.3229141
3.41666722 -4.26373768 33.2916641
2.36667085 -4.26778555 33.3166656
4.31049538 -4.34721279 32.6510429
-3.48519897 -0.750227213 9.12395954
-4.25000191 -3.49999928 10.25
-4.32892227 -4.31545496 9.65594769
-4.25687122 -3.45833492 9.27083492
-4.35415173 -4.31138229 8.62760544
-4.2740407 -3.35416579 7.32291842
2.01631522 -2.80049801 39.4837379
2.53321481 -3.30451989 39.100441
-4.2081728 -2.46031237 7.28033543
-1.7460233 -4.19792366 10.8159657
-4.33333397 3.66666698 10.3333321
1.38544083 -4.26426697 39.2922554
1.41904473 -4.25830603 4.27773523
2.63511634 -4.24075365 3.81492186
-1.66666591 4.16666651 9.83333302
-4.30884838 4.32019329 8.53385258
-4.33333397 3.66666698 9.33333302
-2.50000048 3.33333182 6.61111259
-3.12347627 0.787340462 6.42223644
-3.35346889 2.49185133 6.39742184
-4.30885458 4.32019329 9.53385162
-4.32451963 -4.30915546 42.6014595
3.25040197 -2.59219456 34.8538475
3.34444237 -1.81527722 34.4402809
3.3139677 -2.59934592 33.9259872
0.436098039 4.27532673 8.56167316
-4.26779175 -2.36666775 9.31666756
-2.78835821 -4.23087168 10.7313356
4.21412992 1.6488694 8.66189003
4.16666651 1.66666281 9.83333302
3.93840003 -0.0640471131 7.93542337
4.34897661 -0.598287165 8.42288971
-4.27357531 0.669273615 6.33810949
-4.27471209 1.66267204 6.32875347
4.19182014 -1.76930225 12.9374294
2.46621585 -4.23491335 9.28091908
2.36561942 -4.26323128 8.31731129
4.25000191 -2.75000024 16.75
4.12706995 -1.65611279 16.8880253
-4.07841253 -1.65172946 7.13221502
-4.21936846 2.61666417 9.23333168
3.35555291 -2.58888793 7.92222214
1.64444172 -3.24444437 9.57777786
1.49999833 -4.22207022 9.25000095
3.20153213 1.19295108 1.61548555
3.29120183 1.35196352 10.4136143
-4.30885458 4.32019329 4.53385401
-3.52083325 4.26717424 4.95833158
-4.30528831 -4.3541646 4.35416603
2.09999895 2.47407699 12.1407423
3.35308242 2.46853447 12.9730158
-3.66666698 -4.33333397 24.6666679
-4.20000124 -2.60000157 8.19999886
-1.79999864 -4.20000124 9.80000114
4.27394581 -3.51465082 10.9896927
-0.64336592 -4.2559433 8.44190884
4.20634508 0.519471407 10.8828068
-0.626016021 4.3203516 9.63979149
-4.27038288 2.66030192 8.32256603
-4.33333397 3.66666698 6.33333349
-4.33333397 3.66666698 5.33333445
-4.23873901 1.73333228 7.26666594
-2.74984193 -4.18852329 4.69620132
-2.32222247 -3.15000176 5.02777863
-3.37499952 -2.30000138 4.67500019
-4.33333397 3.66666698 8.33333397
-2.66257906 -4.20046043 3.76634979
-4.33333397 3.66666698 7.33333206
-2.6679697 4.27704954 9.6679697
-4.30885458 4.32019329 7.53385401
-4.26778889 2.65833187 7.3166666
-1.34374774 -4.31581926 0.680689752
3.24444747 1.64444172 40.1666679
3.39044905 2.49489188 40.9604263
0.60405463 -4.28764725 9.58996201
-4.21598291 -2.579041 6.22141695
-4.25168371 -1.41475642 6.30044174
2.66707349 4.27374315 8.3293314
2.64845657 4.27470589 9.29359722
2.53333521 -4.21936846 13.2333307
-4.32034826 -0.626016021 6.63979149
3.48434401 2.13699198 47.4256172
3.38246155 1.15284801 47.5206528
3.36666989 1.05000269 41.716671
3.31260562 -2.6553421 40.0130653
3.24563837 -1.65435505 40.2932663
3.88889027 0.0 38.8888855
-4.20717478 2.61622095 6.17571783
3.88889027 0.0 39.8888893
4.1999979 -1.79999864 40.7999992
4.2485323 -0.68952471 40.3469772
-4.19788551 2.58498597 5.2063899
1.3223058 -2.66141367 0.727127194
0.215730637 -2.58980632 0.815859497
-3.66666698 4.33333731 8.66666603
-0.0629607588 -3.29166746 37.8898125
-0.663886189 -4.26640129 36.7819443
-4.21547604 -3.47603965 6.24542141
-4.26717138 -3.39583349 5.30208349
-0.460304946 3.64910173 0.711351395
-4.27054739 -2.37748051 5.31455278
-3.61747074 0.352990717 0.725480258
-3.86555123 0.394354343 1.49561024
-4.30885458 4.32019329 3.5338552
0.766664982 4.21936846 3.23333549
-0.331251055 4.27626419 3.33125257
-3.58333158 4.26373482 2.70833397
-4.31570864 4.34026051 6.65625143
-3.30556512 -1.77540219 40.2810745
-2.58888793 -3.35555601 41.9222221
-4.32034826 -0.626016021 4.63776016
-4.1833353 -1.73333549 4.18333387
-3.13333583 -0.777778685 41.6666641
-3.20654559 -0.790963769 40.1140404
4.29890966 0.646343112 39.6394539
-3.40000153 -3.13333583 41.4000015
4.3203516 0.376016259 40.3602066
-4.3203454 -0.626016021 5.63979244
-4.22463894 1.67275012 5.25072098
4.24253988 2.60424256 7.76855612
3.22433591 1.69572496 39.2412796
-4.26373768 1.29166639 1.58333206
-4.06652594 -1.75457788 7.93866014
-3.33333492 1.04166663 28.0416698
4.33333731 3.66666698 48.6666641
4.50000143 3.50000262 49.5
4.33333731 2.66666794 48.6666641
0.740738273 3.47221994 33.157402
-4.24731302 2.62294173 3.30201292
-3.66666698 4.33333731 6.66666842
-2.6679697 4.27704954 6.66797018
-3.47500062 3.42500329 6.47500229
0.245774686 4.2298522 46.7623672
0.00775330467 4.09167957 45.6909523
-3.42619729 -3.4283638 32.8670273
-3.10130906 -3.41632843 31.7137527
-1.59583473 -1.86458421 0.729794025
4.48073864 -4.5838213 8.78523064
-4.23873901 -2.46666884 4.26666594
4.15814686 -0.931134522 46.7730217
3.41111183 -1.23289263 47.5655556
4.28202868 -0.274447352 46.6355515
-2.69876122 -4.24086142 7.73321962
-3.84784651 0.0220658798 6.15303087
-4.29890966 0.646343112 5.36156368
-3.06133604 -3.38762403 43.4000854
4.50000143 4.50000143 49.5
3.46589828 4.28856564 49.2817039
-4.33333397 3.66666698 4.33333254
1.20000124 4.1999979 46.7999992
-1.73333228 4.23873281 5.73333597
-1.66666591 4.26362085 6.68749905
-3.36666656 -1.04999948 43.0333328
-4.33333397 3.66666698 3.33333349
1.57307196 -3.21616125 23.2919445
-3.6713798 -4.32145357 5.67533827
3.24285769 -3.32745671 22.076786
-4.20000124 -1.80000186 3.20000052
-3.47879505 -4.44278288 0.593420744
0.0895620659 3.31888318 47.5627861
-1.72549987 0.268363148 0.767702222
2.78281546 0.0104169194 44.8431969
4.17330503 -1.76722455 44.8053589
3.29234195 -0.819186687 45.3066902
-4.28107214 -0.317856967 2.29623389
-1.79166901 1.58333373 0.805632591
-3.88889027 0.0 5.11111116
1.67477083 -4.16188383 22.2208176
0.708331525 -4.21505165 22.770834
1.36207318 -4.24126339 24.2803841
-2.67708182 4.2740407 7.67708111
-2.75000024 4.25000191 8.75000191
-4.2249999 2.67499781 2.45000148
-4.33333397 3.66666698 2.33333445
1.00046134 -1.66845536 0.866902053
-4.30884838 4.32019329 2.53385615
4.31049538 -4.34721279 14.651042
-0.199999154 -4.20000124 3.20000052
-0.249999732 -4.25000191 2.25000238
-2.75732279 0.0971475095 16.0297585
-3.17155766 0.790013611 14.1212997
-2.73504782 -3.52426958 0.764858067
-1.36435676 -4.27645445 3.72418475
-0.996321797 3.39295745 47.438797
-4.25000191 -2.25000072 2.25000238
-3.92051482 -2.57197833 1.49507499
-1.66874993 4.27625799 11.6687498
-3.32917023 -3.10416913 47.970829
-3.23333383 -3.43333626 46.7666664
-4.27091455 -1.29479241 2.38229299
-4.273911 -1.686993 1.62931037
-3.62710547 -0.682610691 0.661946237
-2.77777982 0.0 44.2222214
-4.21097565 1.69155693 2.2931776
-3.66666698 1.66666281 0.666668534
-4.38626432 1.34590781 0.681484699
-4.09160376 -1.39530659 0.732267559
0.777775526 3.11111474 39.0666656
3.4283669 -3.42619729 36.9221306
2.39081764 -4.2574892 37.3150024
4.25000191 -2.75000024 37.75
4.25000191 -2.75000024 36.75
3.1289587 -3.36488032 35.4902763
4.2418685 -2.73176336 35.7631378
4.3158164 2.3437531 49.3193092
4.32447529 -4.36014748 28.3129158
-3.64439511 -4.2374754 2.42842007
-4.33333397 0.333335072 0.666668534
-4.33623505 -2.62430048 0.702483237
-4.32019949 4.30885458 1.46614575
0.343748838 4.31931257 0.684180021
-2.75000024 -4.25000191 45.7500038
-2.69629717 2.44583821 33.3900261
-4.19436979 1.66666281 4.2083354
-2.75000024 4.25000191 2.25000238
-3.66666698 4.33333731 1.66666746
-3.38120723 -2.33171129 25.3519268
-1.85787606 -4.17730188 32.0114441
-0.586077631 -4.13731909 32.59272
-1.79999864 -4.20000124 4.99999952
2.51110792 -3.3777771 44.3777771
0.647223592 -4.26501417 43.7138863
2.59999847 -4.20000124 45.2000008
2.59999847 -4.20000124 46.0000038
-4.34718418 3.60417175 0.687730432
-4.51835537 -1.69149995 0.64248383
-0.802910447 4.22382164 2.40453315
-2.76589322 -0.0153577505 6.06932211
0.882768214 4.01096678 10.0797472
2.51739168 3.34442329 8.39257336
2.71086955 2.69669938 0.753215432
1.66540861 4.26410198 8.32255363
0.9188236 -4.13275528 14.1567249
1.5869633 -4.08610535 14.992672
-0.111111693 -3.88889027 39.8888893
-1.727777 -3.23333383 39.7611122
-3.66666698 4.33333731 48.6666641
-4.29560614 3.62482834 48.3076553
-2.34839606 -2.35308671 48.3533211
-2.54946256 -2.06195784 49.3132591
-2.1585288 -2.75264168 49.203804
0.749999166 3.50000262 49.25
1.47747326 1.96375239 18.5207081
-0.199999154 2.59999847 49.2000008
0.668747842 2.66562915 49.2762566
4.31504965 4.3520298 2.37131882
0.533856809 4.30885458 49.3201981
2.53968239 1.2241416 49.2371483
-0.666666985 4.33333731 48.6666641
3.54167032 4.44436646 0.458333343
2.29827213 3.17371774 15.1424932
1.66392624 4.2090497 15.2900028
1.26762092 3.71950841 14.92173
0.499562383 4.28765345 13.5695353
1.66307116 4.03688097 14.1693363
0.35467568 4.29890966 14.6394539
3.66666698 2.33333302 49.3333359
4.20097351 1.65973926 38.8144569
-0.137557805 2.29457283 48.3666611
1.81287336 1.79601121 49.1647453
-1.48888791 -2.00888824 47.7022209
4.2740345 3.64583945 39.6770821
-3.13333583 -1.93333459 48.3999977
-0.710323691 -4.15547657 5.0554285
-1.010077 -4.19526958 3.26068425
0.416619778 3.4283669 48.4261932
4.40922308 4.45099878 47.5404854
4.34917307 3.64725208 47.6879311
-0.744231701 4.2295289 46.7402458
-0.889143765 4.23449516 47.7163391
0.333335072 4.33333731 48.6666641
2.85714984 -0.150774539 15.8857689
1.33333397 4.33333731 48.6666641
2.66927791 4.26457071 48.3426018
4.29828262 0.617293537 19.9234886
4.26108074 -0.318354219 20.6549721
3.49034905 3.54596496 47.5220528
4.50000143 4.50000143 48.5
-0.769296944 -4.11694431 7.43146467
4.25000191 -2.75000024 25.75
4.25838232 -3.6448195 26.6586742
4.33333731 -3.66666698 25.6666641
1.3541615 -4.27054739 5.32291746
1.66491449 0.94374311 49.1381073
-2.48624206 2.82687759 49.1880417
4.15174246 1.67826736 43.8281403
3.66666698 1.33333397 49.3333359
4.33333731 0.666663826 48.6666641
3.64341974 4.30003738 46.3458176
-1.70002925 2.25488138 49.2719841
-3.66666698 4.33333731 45.6666679
0.0 2.77777982 11.7777777
3.15651989 0.84120822 14.5369692
3.12499976 2.22222114 13.8472195
2.6624999 4.27262831 42.3250008
2.79100585 -2.82347298 20.3976479
4.38873768 4.41666603 46.4166679
4.32019949 4.30885458 44.5338554
4.32019329 4.30885458 45.5338554
-1.78467262 4.26358891 41.8334999
4.22482872 -2.74156594 26.6807442
4.1999979 -1.79999864 25.7999973
1.30652678 -3.44698358 48.4728241
0.716667593 -2.43333721 49.2484207
3.28270102 1.68205535 18.4176407
2.51966572 2.90785027 18.5555592
2.61666417 4.21936846 43.2333336
-3.44879842 2.65866756 17.4315491
-3.35555601 3.12221909 19.411108
-3.47500062 3.42500329 18.4750023
-3.25690722 2.15842748 19.0673599
-2.51111102 3.37778044 18.955555
-3.47500062 3.42500329 17.4750004
4.2740407 0.67708391 47.6770859
4.27470589 1.67365599 47.6795006
3.06098437 0.521720111 16.3841534
-3.66666698 4.33333731 42.6666641
-1.79999864 4.1999979 4.80000019
4.24103212 1.64108443 42.7926826
-2.70949173 4.22987747 41.7615166
1.58333373 -4.19436979 44.2083244
2.40122509 -4.25495529 43.3122025
1.66666913 -4.16666651 43.1666641
3.14723992 -3.42779684 26.0511684
3.35974622 -4.29209375 26.339365
0.933335721 -4.18333244 45.8999939
0.999998927 -4.20000124 46.7999992
0.281785756 -4.16831636 46.7884598
4.2740345 2.67708182 47.6770859
3.66666698 4.33333731 42.3333359
-2.67708182 4.2740407 40.6770859
4.2497735 1.66666913 41.7083321
-4.02094984 -1.01776373 46.8296204
1.59457099 -4.18339539 40.1274376
-3.35555601 1.53332996 47.5888863
4.25000191 2.74999714 42.75
-2.51111102 3.37778044 22.622221
-3.08375645 2.44044757 48.3973083
-0.585361838 4.34118557 38.601368
-1.67558157 4.25694418 38.7001152
-3.29058099 -1.67349446 29.4162979
-3.36602044 -2.46553493 30.0504856
1.62845361 -4.00268459 30.269865
1.70912862 -4.18666744 31.1532478
0.695833743 4.24834204 39.3111038
-0.87247479 4.24852562 41.4144554
3.33594155 -4.27704668 25.3320293
2.56099749 -3.49058962 30.3494892
2.65833187 4.26778889 41.3166656
3.66666698 4.33333731 40.3333397
4.33333731 3.66666698 40.6666679
-0.639790177 -4.3203454 39.3602104
-0.111111693 -3.88889027 38.9999962
-1.56018472 2.81481695 8.26574039
-1.66666591 4.27573824 40.6692772
3.43905926 -3.47923851 43.555088
3.71741819 -4.33836985 43.2951813
-0.406503737 4.28819799 40.4065056
-3.87198067 -0.0205962993 37.1011276
0.0 3.88889027 40.0000038
2.50000358 3.33333182 11.0555553
-0.971506774 -3.26297259 19.0419331
3.66666698 4.33333731 41.3333359
4.27575111 2.671875 43.671875
4.33333731 3.66666698 44.6666641
4.32019949 4.30885458 41.5338593
4.27704334 2.6679728 41.6679688
-1.74805975 -4.16257429 17.8380299
-3.66666698 4.33333731 7.66666746
0.393049479 4.29605293 40.6135101
0.749036372 -4.06356764 40.5084267
3.17670751 -3.41465926 34.4422646
3.49340844 -4.16196966 34.3072472
3.39083552 -4.26440001 35.3606453
2.39458656 -4.23161602 35.3287125
-3.66666698 4.33333731 35.6666641
3.42499685 3.47500062 42.4749985
4.33333731 3.66666698 41.6666641
3.44032621 -3.26940203 38.8972092
4.25000191 -2.75000024 39.7500038
-3.45522475 3.43317461 38.8999786
-2.28433323 3.31140852 39.8991547
2.73884225 4.24162149 39.3170395
1.66901278 4.26531219 40.3223686
4.33333731 3.66666698 43.6666641
4.32019949 4.30885458 40.5338593
4.32019949 4.30885458 38.5338554
3.64452195 4.30968428 39.3711052
4.39956951 -4.3309207 9.82682133
-3.66666698 4.33333731 38.6666641
-4.27626085 2.66562915 35.3312531
4.22207355 1.66666913 35.75
3.65947747 -4.3103652 10.5280132
2.64868474 -4.22160149 39.2292404
3.2939508 3.32642746 35.4386673
-3.22588468 -3.39689112 34.9033966
-3.66666698 -4.33333397 32.6666641
-3.66666698 -4.33333397 34.6666679
4.32019329 4.30885458 39.5338554
4.32019949 4.30885458 37.5338554
0.64072448 4.2194128 35.3154488
1.68155491 4.26379156 35.3207512
-0.823763251 4.19829416 37.4602203
4.3203516 -0.626016021 34.3602104
3.88317037 0.18602863 16.9386845
-2.75187516 -4.22615576 38.7687798
0.452238083 4.34982538 38.5710144
-3.36666656 -1.04999948 5.08333492
3.66666698 4.33333731 38.3333321
-3.13917947 -0.81135416 27.864706
-3.88889027 0.0 27.1111088
-2.78311634 0.00543174706 26.1789837
-3.33333492 1.04166663 26.291666
3.22149181 -1.65215695 13.8880987
3.3276372 -2.54163337 13.9668636
4.17933512 -1.75894547 15.2007103
-3.66666698 4.33333731 34.6666679
3.86917138 -0.0352129266 41.8903656
4.32019949 4.30885458 36.5338593
3.66666698 4.33333731 36.3333359
-2.75000024 -4.25000191 36.75
3.35416579 -4.2740407 36.3229141
4.33333731 -3.66666698 35.6666641
-1.73333228 -4.23873615 35.2666664
0.713101327 4.31157207 34.3872299
3.41416502 -4.24418354 30.2967987
-3.66666698 4.33333731 33.6666679
2.6679728 4.27704334 36.3320312
4.27625799 2.66562915 38.6687469
2.6679728 4.27704334 35.3320312
3.88889027 0.0 37.8888855
2.2151711 -3.09191203 40.3489075
4.32019949 4.30885458 35.5338593
3.26249433 -2.89027548 21.2097244
3.54167032 -4.25686836 21.1041679
4.33333731 -3.66666698 21.6666679
4.26827002 -2.68376136 20.3217239
3.34123087 -3.51467299 20.5430031
4.25000191 -2.75000024 33.7500038
4.23213863 -2.74618053 34.7579842
-3.45188642 3.37798309 32.4636383
2.50583124 -3.38839054 21.4491768
3.35555291 -3.12222219 14.8555546
-3.66666698 4.33333731 30.6666641
3.40000153 -3.40000153 15.6999998
4.24823427 -2.61465955 15.0919447
4.25000191 -2.75000024 32.7499962
-1.79999864 -4.20000124 32.7999954
4.15517569 -1.76809549 16.0331917
3.36733484 1.01671541 5.73838425
4.27704954 3.66406345 35.6679688
3.33333182 -1.04166663 33.9583359
4.30962753 -0.615342557 33.374321
3.88889027 0.0 33.8888931
-3.48760295 3.40435314 31.0160065
3.44609046 -4.28125572 24.1499577
3.40841985 2.46945906 16.5768642
4.23731375 2.64012051 15.7671251
4.17775774 2.60497737 16.7879829
-3.21191716 0.658733189 16.5855331
2.67708182 4.2740345 15.3229198
1.58333373 -4.19436979 32.2083321
3.66666698 4.33333731 15.333333
-1.66666591 4.16666651 27.8333321
4.30474997 -4.33036613 11.5133677
1.66666913 4.19436693 11.208334
1.80000186 4.1999979 10.1999998
1.66728354 4.27150726 9.32954502
2.65000224 4.25810337 10.3000002
-0.640239894 4.28364992 27.5973701
-3.66666698 4.33333731 32.6666641
-4.33333397 3.66666698 28.3333378
-2.6679697 4.27704954 29.6679707
4.28662109 -3.63364267 9.60965538
0.658568501 4.26311398 32.3027649
4.04444408 -0.899997771 30.8444462
4.18570137 -1.82004702 30.758646
4.1999979 -1.79999864 31.7999973
2.57310891 4.24758816 32.2361336
-2.75000024 -4.25000191 35.75
0.50211513 4.27056313 30.9631462
4.33347034 -4.31488514 30.341711
-0.614576101 -4.33390427 28.3734035
-0.615342557 -4.30962753 27.3965054
4.31027365 -4.33504438 23.6569023
4.2740407 3.64583945 34.6770859
1.8843317 4.17339373 30.3447514
-2.51111102 3.37778044 16.622221
-1.66666591 4.16666651 15.833333
3.88889027 0.0 27.8888912
1.71614075 4.23312044 26.3064327
-3.17764807 -2.23203945 39.5147438
4.24290085 2.62500024 31.791666
2.59999847 -4.20000124 27.2000008
3.88889027 0.0 28.8888912
-0.081713751 -0.643033385 48.5780067
0.627504587 4.26187229 30.0566502
3.67528176 4.33375502 30.3327541
4.22814798 -0.719191849 27.346077
3.94629908 3.49583459 30.6915398
4.30885458 4.32019949 24.4661465
4.32019949 4.30885458 25.5338573
-2.96871114 1.87007296 19.951189
3.67551613 4.33462286 29.3524475
3.40745711 2.55667758 28.9223557
-3.43523335 3.45953202 25.9694347
-3.47500062 3.42500329 26.9749966
-3.31583309 2.61029816 26.3696938
3.37795782 2.45795584 43.9821053
3.37733698 1.05560231 44.7080193
4.33333731 -3.66666698 24.6666679
4.29891586 0.646343112 30.6384392
0.698126793 4.25093269 22.3569031
4.32019949 4.30885458 28.5338593
3.05321836 -3.26793242 13.0398941
4.26778889 2.65833187 30.6833363
4.2740407 3.64583945 29.6770859
4.1646266 2.56921339 29.7810707
3.66666698 4.33333731 23.333334
2.62122512 4.23851728 23.2464447
2.6679728 4.27704334 24.3320312
4.26759863 1.66954494 27.6817055
-1.79999864 -4.20000124 43.7999954
-2.75000024 4.25000191 28.7500019
-4.24081039 1.67560697 23.2788734
-3.88942885 0.0202035662 31.0791931
2.61124206 4.19562721 28.3587017
2.77777982 0.0 33.7777786
3.65734267 4.31440973 28.3413391
-3.06591249 0.605289817 17.4932747
4.16328382 2.66893578 28.8668976
2.67708182 4.2740345 27.3229122
-0.663021564 4.22279549 26.6325073
4.25839472 -2.74269986 24.7163963
-4.21933079 -2.50049782 27.2792244
-2.61947036 -4.2915144 28.7981873
-4.29996729 0.648325741 24.3596592
3.66666698 4.33333731 27.3333321
-0.588886917 4.22762871 24.8111115
4.32061148 -4.31756115 24.4908886
4.26374102 3.58333802 24.7083321
2.73766398 4.2296114 25.2447739
3.66666698 4.33333731 26.333334
3.11111474 -0.777778685 29.5111122
4.3158226 4.31931257 26.489584
-4.30885458 4.32019329 24.5338554
3.17240644 -2.21925664 19.3525848
-4.27626085 2.66562915 24.3312531
4.18383265 0.604168653 26.9895782
-0.727087677 3.21186972 26.7432079
-0.00685065286 3.88885236 27.0428696
4.25221252 0.683373988 29.6347523
3.88889027 0.0 29.8888893
4.22465801 1.63419902 26.7474709
4.32019329 4.30885458 23.5338554
4.26453924 2.66384912 26.675272
-3.37222195 -1.78055525 35.297226
4.1999979 -1.79999864 24.8000011
-3.37170887 1.81955612 25.7058544
3.63933396 4.2860446 25.3443756
4.14084721 0.696954906 24.7028561
4.18452311 -1.64385891 19.2114716
4.33333731 3.66666698 26.6666622
4.26374102 3.58333802 25.7083321
2.21342278 -3.1804924 17.9990158
3.66666698 4.33333731 24.3333321
0.431796998 -4.2709465 18.376318
0.122190557 -3.86733747 17.9630585
1.48001969 -4.25111341 18.2433529
-2.77645898 4.2032032 23.7418327
-3.66666698 -4.33333397 42.6666641
1.66666913 4.27573824 5.33072805
4.2497735 1.66666281 24.7083321
-3.34159517 -1.01308262 6.03849888
-3.41358542 -2.43797398 6.11745691
-2.37125063 -3.24689579 5.99613094
4.30885458 4.32019949 22.4661446
4.27262831 2.6624999 23.6750011
4.1999979 2.59999847 24.8000011
-0.0573864877 3.74971724 15.0214081
4.27017689 1.67076743 25.6770134
4.32019949 4.30885458 18.5338554
4.33412266 -3.65368772 23.6705608
4.33333731 -3.66666698 22.6666679
-3.41973615 -1.69903469 46.8467102
-4.38186789 -3.60416865 48.6041641
-2.33203125 -4.27704668 47.6679688
-1.97222471 -3.43000102 47.3366699
-2.36666775 -3.50000262 48.2333336
-3.34226656 -2.63998747 8.04010201
-3.38780141 -3.24164462 7.0084219
2.70833564 4.26373482 22.2916679
2.6679728 4.27704334 21.3320312
3.66666698 4.33333731 19.3333321
-2.75000024 -4.25000191 43.75
4.27203274 -2.75219512 23.7734318
3.66666698 4.33333731 21.333334
3.66666698 4.33333731 20.333334
3.66666698 4.33333731 22.3333321
3.15192103 -0.841322243 23.5321484
4.1999979 -1.79999864 21.8000011
-0.833334565 4.02777815 19.4722233
0.682145119 4.24539661 19.2915783
-2.58888793 -3.35555601 39.5888863
3.42499685 3.47500062 18.9750023
4.1999979 2.59999847 19.7999992
3.40647507 2.26851296 18.9650154
4.27661276 2.66927147 18.6692715
4.32019949 4.30885458 21.5338554
3.28572893 -2.56898832 4.16147041
-2.75000024 -4.25000191 40.7500038
4.32019949 4.30885458 19.5338535
3.37598777 -1.78055847 3.32961822
1.69607973 -3.42877531 1.72903919
-3.66666698 4.33333731 19.6666679
3.28721738 -1.04425108 5.73884058
-1.66666591 4.16666651 18.8333321
3.24978757 -0.85264498 4.57420111
-3.31295729 0.999384463 24.2457275
4.27704954 3.66406345 19.6679688
-3.13474536 0.782051265 25.4728374
1.80923104 4.15276861 16.1237431
-3.34444547 1.81528044 27.2263889
-1.79999864 -4.20000124 42.7999992
0.0859926343 -3.79074526 19.0105953
-0.899997771 -4.04444408 19.9000015
1.67869806 4.27098751 19.3141575
1.70055175 4.24485826 17.2695999
2.33887553 -4.27445555 12.3281956
3.48120213 -4.06576252 23.2198086
-2.81180167 -0.00463044597 37.2318382
-0.774532318 4.00645685 17.3438587
0.360205621 4.3203454 17.6239853
-1.69950032 3.24777317 1.2008357
4.27060127 3.62500572 14.6875
4.21184349 2.59002185 13.7262926
4.21587849 2.63654804 14.692111
4.30885458 4.32019329 17.4661484
-0.82672143 2.57045484 0.772738039
1.80000186 -4.20000124 46.0000038
-2.67914057 4.26848555 15.6726007
-1.26067209 0.880500495 0.81980896
-0.844441891 -4.04444408 17.3999996
2.6679728 4.27704334 14.3320293
-2.77777982 0.0 41.0793648
-2.79411936 -0.0525818467 40.182827
-2.30835009 2.64318633 0.758292437
-2.66233206 4.33620644 14.6912661
4.32019949 4.30885458 15.5338545
-3.88889027 0.0 14.1111107
-3.85391808 -0.01210187 15.0731764
3.12899685 0.781493843 15.4372454
4.24404097 0.684159458 15.6373587
3.81857848 -0.0438467115 15.8663692
4.32019329 4.30885458 14.5338564
2.67243862 4.27684689 13.3285723
3.66491222 4.30455351 13.316926
-0.504062951 4.44896507 11.4408321
-1.66666591 4.16666651 10.8333321
4.29890966 -0.604672253 17.3884373
3.66666698 4.33333731 14.333334
0.626016021 4.3203454 11.3602076
0.653862 4.24924183 6.39828014
1.66666913 4.19436693 12.208333
-1.06466365 3.32891035 9.16470242
-2.67708182 4.2740345 11.677083
-2.67708182 4.2740407 12.6770821
0.636176348 4.30963373 7.3638196
-3.66666698 4.33333731 11.666666
1.66371095 4.26647758 6.32852888
4.09875536 1.71899128 14.8908024
-1.44999778 -4.25810337 11.7500019
2.65000224 4.25810337 11.2999992
4.32019949 4.30885458 13.5338535
3.66666698 4.33333731 12.333333
2.6679728 4.27704334 12.3320312
4.30885458 4.32019949 12.4661465
-3.41656899 -3.2237308 18.0276699
0.615348876 4.30963373 12.3743229
0.690455854 4.25451803 9.30552197
-3.66666698 4.33333731 9.66666794
3.66666698 4.33333731 11.333334
4.32019949 4.30885458 9.53385162
4.32019329 4.30885458 8.53385258
4.2740345 3.64583945 8.67708302
3.66666698 4.33333731 9.33333302
-3.11908984 -2.20543194 8.96423721
3.42272925 3.20652986 13.8553085
2.58658862 3.3380003 14.0321274
4.29220772 3.61606765 13.6668825
4.25723553 3.63910604 12.6644163
4.32019329 4.30885458 11.5338564
-3.29399514 3.1447947 40.0963745
-0.504062951 4.44896507 10.4408302
-2.7447679 -4.20217085 9.73275852
4.2740407 3.64583945 15.6770821
-0.0244856197 3.85561585 13.8332777
-1.07777584 3.35555291 2.41111135
4.33333731 3.66666698 10.666667
-2.60417914 -3.34039474 38.5502052
4.2740345 2.67708182 9.67708206
4.2740345 2.67708182 10.6770811
3.88889027 0.0 30.8888874
4.19885159 -1.77718532 8.76527691
3.44011092 -2.55104303 23.8418159
3.34444237 -1.81527722 24.440279
4.15064049 -1.69247866 23.801775
3.66666698 4.33333731 10.3333321
4.2740345 2.67708182 4.67708111
-0.683332801 -2.65833187 0.732210577
-0.473971426 4.37933111 8.45463181
0.0247263275 3.86025262 9.96789742
-0.0105119357 3.85752869 10.894022
3.16109943 0.832549095 8.14642811
3.21292758 0.750233591 7.11957788
-1.68333495 4.26778889 8.6833353
-2.67708182 4.2740345 5.67708349
-3.47500062 3.42500329 5.4749999
-0.00324954675 3.85968232 11.9569302
-0.646339893 -4.298913 10.360548
-0.104314886 -3.89458823 9.91202831
3.66666698 4.33333731 8.33333397
3.23333073 -1.68333173 26.0277748
3.66666698 4.33333731 7.33333206
-0.475836903 3.14276147 48.3267021
-3.35039353 2.54046774 32.4751663
-1.66666591 4.16666651 7.83333158
3.15966797 -3.41413665 13.9357433
2.67708182 4.2740345 7.32291842
-3.47500062 3.42499685 4.349998
-2.58888793 3.35555291 4.58889055
3.8468616 -0.0350355618 14.9519901
2.58650613 4.1814003 5.18187571
4.3158226 4.31931257 7.48958302
-0.429367751 4.37394047 7.42479801
4.2157135 2.63344407 6.80217409
1.70422578 4.24326849 7.32117319
4.32019949 4.30885458 6.53385496
4.1999979 -1.79999864 28.7999992
4.17084694 -1.71916544 20.9127674
4.20229721 -1.66055954 19.9963627
-3.36648607 3.1645391 11.0477514
-2.52643085 -3.3623054 10.548686
-3.43688655 -3.15273499 9.40736961
-2.68848372 -3.363832 9.03835583
-1.05253959 -3.39390779 8.99886703
1.23447299 4.21366119 1.52817845
-4.29956865 -0.535240889 45.5206299
-3.88889027 0.0 44.9999962
4.21936846 2.61666417 8.76666737
-4.13576412 -0.918494225 3.74885416
4.18366146 -1.7525984 3.23620486
-3.0 4.00000191 1.16666806
-2.70833254 4.26374102 4.58333206
-3.64583302 4.2740407 3.6770823
3.13332963 -3.40000153 7.39999866
3.13332963 -3.40000153 6.39999962
4.32019329 4.30885458 5.53385639
-0.041550491 3.84828687 9.1000433
4.32280302 -4.31232929 18.46875
-2.38256383 4.23168278 3.30329561
3.64587736 -4.44711876 18.8741512
-4.27403784 0.67708391 2.32291746
-1.29999924 4.25810337 3.30000186
4.16102266 -1.67999983 5.75045156
-2.33333302 3.66666698 0.666668534
0.691013277 3.63591981 0.69848305
4.28237677 2.6234293 5.6979804
4.2298522 1.64289606 6.76699257
3.61003733 4.31444788 3.31744051
-1.69557297 4.27255201 2.67213607
-2.65625119 4.31931257 0.684180021
-2.00000095 4.25000191 1.49999988
-3.29166746 2.70832944 0.708333075
1.15415919 4.27020836 2.55833244
3.6337471 4.31831837 2.32422256
4.42085934 4.50580359 1.51627612
-2.66256332 -3.40020418 24.0566235
-4.33333397 2.66666794 0.666668534
-4.27403784 2.67708182 1.35416627
3.35236049 -4.27370834 18.3229313
-0.738286912 4.01219559 1.56340098
0.230407432 4.21705675 1.53771806
0.822198689 -3.11569786 28.1647797
1.37499535 -4.26362371 25.3125019
1.66796768 2.6679728 0.722959161
-3.40000153 -3.13333583 36.1333351
-4.2773695 -3.66691399 1.66598654
-0.608723104 4.32377863 0.67686379
3.33594155 -4.27704668 16.3320312
3.50000262 -4.25000191 17.2499981
-1.79999864 -4.20000124 5.8000021
2.49999738 4.50000143 0.500001013
-1.08444285 -3.34794521 9.97490025
-0.944443107 -3.35555601 47.5888863
2.43218112 1.82731581 1.58028841
3.09335947 -0.729938149 8.12585449
-1.45833075 4.21936846 4.08333588
-3.48272538 -3.39590931 30.8462963
-2.42123222 -4.27657127 30.7675457
2.53348088 3.30577731 27.0842705
-3.42811346 3.31079412 33.3888168
4.29891586 0.646343112 7.63843489
4.44896507 0.504066169 5.44083214
-3.76650333 -4.30298901 6.52255774
0.0221703965 3.839463 7.9758935
-2.74838185 -4.24603939 6.7547164
4.2740407 3.64583945 7.67708111
-2.14999962 -2.75000024 1.28333497
-1.66797078 -3.66406035 0.722959161
2.55416918 -4.25568056 4.89166546
1.41666305 -4.58333349 0.611264706
-4.30630207 -0.383424342 1.31666338
-3.52058315 -2.72810221 0.777777076
-2.54166818 -4.29166651 2.54166651
-3.69579887 -4.25082207 7.64211845
0.65625006 -4.31581926 0.680689752
0.278783232 -3.50759435 0.733148098
-2.63001084 -1.88460088 0.744302928
4.27394581 1.67180634 5.68489695
-3.38866591 0.602813125 2.4690299
-4.42333603 -4.56865692 6.88405561
-4.42168951 -4.49285936 5.57542562
0.0 3.88889027 39.1111107
-1.48830187 -3.19948602 26.3637581
-3.53652978 -3.52060843 0.981599033
2.54807544 3.33883023 39.5165062
4.30400229 -2.6155653 3.07660341
1.77728033 -1.80691898 0.76164335
2.01691699 -2.66159725 0.750102103
1.34145474 -3.57479596 0.801065505
-2.33333302 -4.33333397 1.33333242
-1.24999869 -4.25000191 2.25000238
0.777712166 -4.28021669 2.29699397
-2.58888793 3.35555291 8.92222404
-3.35409284 2.50258803 8.38816452
-0.021540124 3.82100463 22.8542919
2.66666794 -4.33333397 0.666668534
1.66666281 -4.33333397 1.33333242
-0.343748838 -4.31581926 0.680689752
3.09990287 -3.31250429 5.05079794
0.651296616 -4.27062654 1.36833942
-1.33333397 -4.33333397 1.33333242
2.44299412 3.43541694 13.0072851
2.6659205 -4.21914387 1.66554308
4.32019329 -4.30885458 3.46614671
2.51111412 3.37778044 12.0444469
4.3541646 -4.30529165 49.3541603
4.50000143 -3.49999928 49.5
3.66666698 -4.33333397 48.6666641
3.33722758 -3.6296773 49.2688942
4.33333731 -3.66666698 48.6666641
3.3921721 3.16838408 14.9559803
3.35555291 -2.58888793 24.9222221
3.35555291 -2.58888793 25.9222183
-3.33434534 1.05062973 38.0038757
-1.32552052 -4.27489614 47.6744804
-0.668747842 -2.66562605 49.2762604
-2.67708182 -3.64583302 49.2740364
2.40005946 -4.21691704 40.3422623
-2.33333302 -4.33333397 48.6666641
4.23730135 2.69519186 46.6933098
-0.999998927 -4.20000124 46.7999992
-1.6927098 -4.27091455 46.3885422
3.44984674 3.4599185 45.8723831
3.37778044 2.51111412 44.955555
-3.66666698 -3.66666698 49.3333359
-1.53333318 -2.7333343 48.3999977
-3.53881669 -2.69447923 49.2464409
4.32268906 -4.36109114 48.6145821
4.41096497 -4.51033306 43.4694481
4.30921555 -4.32266998 44.6014481
4.2740407 -2.32291913 48.6458359
3.66666698 -2.66666794 49.3333359
2.33749461 -4.27626085 44.3312492
-4.29711723 -1.67399478 47.6502151
-1.33800244 -4.29552412 48.6544762
-0.815826297 -1.64623117 49.14991
4.33333731 -3.66666698 43.6666641
-2.75000024 -4.25000191 46.7500038
4.33696651 -4.31655073 47.3417854
3.39601707 -2.75754142 29.9782352
4.44896507 0.504066169 41.4408302
3.31300473 -2.44319987 6.06182194
3.50000262 -4.25000191 44.25
1.8497206 -1.49571955 49.2382622
-1.90364218 -3.33228993 9.43326473
1.66874683 -4.27626419 46.6687508
4.30832243 -4.33243752 36.654953
3.89780283 -3.47733498 41.026783
3.14962173 -3.4424293 41.4513283
0.674385488 -1.35262227 49.2652206
3.20856309 1.62010491 42.8446732
4.20540142 -2.70598555 45.7406845
3.11455441 3.34211135 40.3700027
4.23456478 1.66774595 45.6554985
4.29498863 -0.668104887 43.3797035
4.17903757 -1.76562822 43.7634735
1.55680525 -4.18284464 11.2416849
-0.0572281294 3.89582658 25.9431667
-3.83397102 -0.0250240434 43.1936531
4.30632734 -3.48633599 33.65242
4.29680014 -3.66338253 32.6903343
4.27715731 -0.691406012 48.3456993
4.25824928 -0.285706729 47.7011375
4.3347497 -3.8068378 34.5855179
-2.22522998 2.36848879 39.7132683
-2.72646785 -0.0162984096 24.091938
4.42574978 -4.57926369 41.4131012
3.14224839 -3.41900134 40.3262558
3.50000262 -4.25000191 40.2500038
4.3203516 -0.626016021 36.3602066
2.40000248 -4.25810337 41.2999992
4.25000191 -2.75000024 40.7500038
4.15808964 -1.83131599 39.9901085
-3.88889027 0.0 41.1111145
-3.66666698 -4.33333397 35.6666641
-2.75000024 -4.25000191 39.7500038
4.3738265 -4.38319826 35.3863831
4.1999979 -1.79999864 27.8000011
3.16498876 -0.762199223 26.1207905
4.29891586 0.646343112 38.6384354
-3.66666698 -4.33333397 36.6666641
3.28666639 -1.74333119 17.9848461
3.8925643 -0.0177743249 17.9311943
0.381121784 -4.24838018 36.5888138
3.37778044 2.51111412 42.9555588
0.780100286 -4.13319874 12.0870991
4.33333731 -3.66666698 36.6666641
0.680118084 -4.27288485 34.6662216
-0.642342925 -4.24470949 34.8328934
4.16666651 1.66666913 31.833334
3.37640572 3.1210978 38.9405823
4.2740407 3.64583945 38.6770821
-1.79999864 -4.20000124 36.0
4.27019596 -0.673957884 29.3336792
4.1999979 -1.79999864 29.7999992
2.45677781 -4.25408411 36.2775688
1.67470109 -4.18799114 35.2183037
4.30963373 0.615348876 34.6034927
2.53333521 -4.21936846 34.2333374
-3.86065483 -0.0117661469 36.1100616
2.33749461 -4.27626085 32.3312492
-2.75000024 -4.25000191 32.7499962
3.49469423 -4.25945902 28.3090076
-2.75000024 -4.25000191 29.7500019
4.30963373 -0.615342557 38.3743172
0.359850883 -4.18393421 30.6127014
4.37248993 -4.39025497 22.3840103
4.29891586 0.646343112 35.6384392
4.1999979 -1.79999864 33.7999992
2.77777982 0.0 5.92063475
4.2740407 3.64583945 36.6770859
4.27704954 3.66406345 37.6679688
4.33333731 -3.66666698 30.6666641
2.34166265 -4.27505112 31.3291664
0.0102332216 -3.85712647 8.12806797
2.51903224 -4.16044903 29.2330761
1.37499535 -4.26362371 29.3125038
3.15878105 -3.42790127 29.090559
4.21032286 -2.74080586 29.6557388
4.25000191 -2.75000024 28.7500019
4.26407051 -3.60431743 29.6152821
-4.30192184 -4.34963226 30.3886986
-3.59726405 -4.2410512 28.6214638
-3.66666698 -4.33333397 29.666666
0.0 -3.88889027 28.0000038
2.42074776 -4.2727294 30.3351288
4.33333731 -3.66666698 28.666666
4.29891586 -0.35467568 32.6384354
4.25406837 0.682290792 28.6380291
4.24326849 1.66522491 28.7109756
4.25000191 -2.75000024 30.75
0.0 -3.88889027 27.1111088
-4.24707842 -2.65157628 31.0023823
2.77777982 0.0 6.77777719
3.40105295 -4.22410345 29.4029198
-0.979212582 3.72915578 18.2188702
4.3054533 -0.645696998 24.3551102
-1.83070159 -4.17768526 28.8103065
2.48664451 3.26644683 28.1773987
-1.50785625 -4.27476311 27.6958199
2.33749461 -4.27626085 26.3312492
2.53333521 -4.21936846 25.2333336
2.67708182 4.2740345 20.3229179
3.34360003 -4.27621651 22.3256645
-1.72962034 -4.15878344 26.7954159
4.26778889 2.65833187 22.6833324
2.36717772 -4.27097511 22.3128376
1.66666913 -4.16666651 23.166666
2.50600243 -4.24880457 24.2760487
-3.88395262 0.0679459348 39.167366
-3.85977745 0.00439607305 38.103756
4.29433632 -0.620862961 25.3975849
2.33749461 -4.27626085 23.3312492
4.2740345 3.64583945 23.6770821
3.23326731 -1.82684386 49.0693283
-2.75526738 -4.2428565 18.4972095
4.12415648 -1.73270202 22.8581867
3.13332963 -0.866666138 48.3999977
-2.75000024 -4.25000191 21.75
-2.30282331 3.09188986 40.7584953
4.25000191 -2.75000024 17.7500019
3.3132329 -1.12363684 6.77365017
3.35555291 -2.58888793 6.92222357
-3.41352844 -3.20683718 20.0968399
-3.49836826 -3.2246685 19.1190968
-2.60197473 -3.3351593 19.6691589
3.37556958 3.19071293 24.6063995
3.13711762 -3.40215182 24.0220947
4.17326689 -2.75371861 22.7597256
-3.25329041 -2.91687989 2.23655128
1.72310865 -4.1566391 19.0048485
-1.79999864 -4.20000124 20.8000011
-1.79999864 -4.20000124 19.7999992
-0.418697447 -4.3632164 20.5853672
3.47249222 -3.47815204 19.1241131
-2.66124272 -4.27574158 17.7111645
0.0 -3.88889027 22.1111126
-3.40000153 -3.13333583 21.0666676
4.31793833 -3.63449144 18.8546982
3.38762403 3.43938875 12.4000912
3.40000153 3.40000153 11.5000019
4.2740345 3.64583945 11.677083
4.26778889 2.65833187 11.6833353
2.34714818 -4.27273607 17.3267365
-0.400055319 -4.30603266 18.6040535
4.25969362 -1.39436913 17.9855976
4.03213024 -0.68694973 16.3685989
4.25000191 -2.75000024 21.75
2.77021003 4.17271566 30.3012466
4.31180668 -4.33803082 33.6681366
2.58499861 -4.2600069 16.2538033
3.59167409 -2.60876846 11.5601883
4.42274714 0.568208277 17.4567318
4.15620852 1.68362629 29.8601246
4.26551485 1.66491449 30.6791058
-1.85697663 -3.3664577 20.2377014
4.26362705 1.66666913 13.6874981
-0.64062947 -4.31211996 13.3588505
4.20421028 -1.72200954 13.7702503
-3.42562723 -3.22861147 10.4783993
-3.66666698 -4.33333397 9.66666794
-3.69071555 -4.30830669 10.6509418
-0.657060862 -4.27702427 11.4036713
4.236516 -3.31568432 14.43262
4.21483946 -2.74165463 13.722724
1.37499535 -4.26362371 10.3125019
-1.62623346 -4.1578393 8.24869442
4.30538321 -4.40397835 42.623661
-0.635492265 -4.31450176 9.36096668
3.50505114 -4.20050478 9.31423473
3.4469583 3.25583673 27.8883152
4.11644077 -1.80010319 7.74370003
-2.79617167 -4.18918514 5.78371
4.04968262 -0.902591705 7.80793381
-3.23854709 -3.43741226 7.88996744
-3.66666698 -4.33333397 8.66666603
3.70760608 -2.6381855 4.92215586
4.22952271 -2.75761414 5.74637508
4.1999979 -1.79999864 4.99999952
4.22987127 3.49240756 6.59792423
-1.70335162 -4.18776941 9.03877068
0.626016021 -4.3203454 8.63979244
4.30052471 -0.651907861 5.3481698
3.86694789 -0.0130868685 5.90432978
3.87727928 -0.0108666616 6.92193842
4.25000191 -2.75000024 6.75000048
3.41783905 -4.25049257 27.287693
4.16916227 1.6049974 7.80156136
-2.80122018 -3.60133076 1.76975667
3.66406345 -4.27704668 3.66797018
3.50000262 -2.25000072 0.750000715
-0.333331913 -4.33333397 1.33333242
4.22917414 -1.71692622 4.25360107
-2.70317006 -3.53086376 2.7804606
4.29095364 -2.70687246 4.25042439
4.44436646 -2.45833588 49.5416679
3.75000238 -2.9166677 48.25
4.16667271 -1.58333063 49.3193665
3.65105891 3.33423138 49.3277588
4.3158226 1.34374774 49.3193092
-3.32752323 3.655056 49.308403
3.66666698 -0.666666985 49.3333359
0.668361485 -4.2766571 47.6667976
4.1999979 2.59999847 36.7999992
-1.66666591 -0.687497675 49.2636185
4.25686836 -2.72916627 46.8958397
-2.62621021 -0.0140275266 49.2322807
-3.49999928 -0.749999166 49.25
-2.60000157 -0.799999774 49.2000008
-3.15366292 -1.90158033 1.56366062
4.25000191 -2.75000024 42.75
-0.0136379618 -1.69818902 49.0966454
2.46666574 -4.23873615 42.2666664
4.33333731 -3.66666698 44.6666641
4.26373482 2.70833564 40.7083359
-2.55128384 -3.36077571 17.5841579
4.304142 -0.582448006 15.4268799
3.83544064 0.0341867507 40.9024315
4.27625799 2.66562915 37.6687469
-3.47500062 3.42500329 41.4750061
3.18294692 -3.37700748 8.40490341
4.33333731 -3.66666698 15.333333
3.11566925 -3.40346313 33.0854187
3.14784789 -3.38282561 32.0826302
-3.88889027 0.0 32.1111107
4.23194218 2.8401103 32.8250046
4.33333731 -3.66666698 31.6666641
4.05196333 0.924904644 25.8879433
3.47499442 3.42500329 26.5249939
4.25000191 -2.75000024 31.75
4.30025244 0.388381004 8.34493923
4.33333731 3.66666698 27.6666679
4.29891586 -0.521340072 28.4717693
3.39999509 3.40000153 9.00000095
-3.4431355 3.43196487 43.9790077
0.0 -3.88889027 21.1111126
4.25000191 -2.75000024 27.7500038
4.31112242 -3.62975645 27.6494389
-3.41751289 3.45372343 42.8800583
-3.2939477 -3.32642412 25.065403
4.26778889 2.65833187 25.6833363
4.27060747 3.62500572 22.6874981
3.13332963 -3.40000153 25.0666695
-2.58888793 -3.35555601 20.922224
4.27704334 3.66406345 20.6679707
4.2740407 3.64583945 21.6770821
4.33333731 3.66666698 18.6666679
3.38762403 3.43938875 8.06133842
-2.44444466 3.38889098 1.77777922
4.33333731 -3.66666698 17.666666
4.33333731 -3.66666698 16.6666679
4.26779509 1.68333495 18.6833344
4.26694012 1.63860774 17.7242107
0.017688809 3.89141774 12.8745031
4.39563608 -4.33499336 15.651041
3.35416579 -4.2740407 15.3229198
4.26870728 2.66318417 12.6830492
4.33333731 3.66666698 9.66666794
4.05124712 0.810980439 6.39645576
3.9925909 0.60000062 13.2666655
0.015611127 -3.8636477 9.05354309
4.25432205 -1.69305503 6.78915977
4.30609941 -3.7108779 8.65915394
1.37499535 -4.26362085 8.31250095
-3.47500062 3.42500329 8.47500038
4.25000191 -2.75000024 7.74999952
-3.42608333 -3.16623354 29.4272823
4.33333731 -3.66666698 7.66666746
3.12147164 3.46534705 3.97251868
4.33333731 -3.66666698 3.33333349
3.3423965 3.10887885 29.8854237
-3.88465905 -0.00648642471 44.0962067
-3.47500062 3.42499685 7.474998
3.14095616 -3.39080071 17.0740681
3.88889027 0.0 32.8888855
3.91710377 -0.0457628667 43.8939476
3.8857801 0.00177363178 44.8846741
3.88889027 0.0 4.99999952
3.40000153 3.13332963 22.6000004
3.42500329 -0.0249987058 48.4749985
3.37778044 2.51111412 41.9555588
-3.40000153 -3.13333583 22.0666656
0.0 -3.88889027 19.9999981
-0.888887227 3.88889027 39.1111107
3.12221909 3.35555291 44.4111137
3.12221909 3.35555291 41.4111176
-3.47500062 3.42500329 24.9750004
-3.58333468 2.08333325 1.75000286
CELLS 31305 156525
4 2202 2203 2204 2205
4 2202 2204 2206 2205
4 2207 2208 2209 2210
4 2208 2210 2207 2211
4 2208 2212 2213 2214
4 2208 2215 2216 2217
4 2208 2218 2212 2214
4 2208 2210 2218 2209
4 2219 2220 2221 2222
4 2219 2223 2224 2220
4 2219 2225 2226 2227
4 2219 2228 2225 2227
4 2219 2223 2228 2224
4 2229 2219 2230 2226
4 2231 2232 2233 2234
4 2231 2235 2236 2233
4 2237 2238 2239 2240
4 2241 2231 2242 2243
4 2235 2231 2232 2233
4 2231 2244 2245 2235
4 2246 2247 2248 2249
4 2246 2250 2251 2252
4 2246 2247 2253 2248
4 2204 2254 2205 2203
4 2255 2256 2257 2258
4 2204 2259 2260 2261
4 2204 2261 2260 2262
4 2263 2264 2265 2266
4 2263 2267 2268 2269
4 2263 2264 2270 2271
4 2263 2264 2271 2272
4 2250 2273 2274 2275
4 2250 2276 2252 2275
4 2250 2277 2278 2253
4 2279 2250 2246 2252
4 2250 2251 2252 2276
4 2246 2250 2278 2253
4 1472 98 2280 2281
4 2282 2283 2284 2285
4 2286 2283 2287 2277
4 2283 2287 2277 2282
4 2282 2288 2284 2289
4 2282 2251 2290 2287
4 2282 2284 2274 2285
4 2291 2292 2293 2294
4 2287 2251 2277 2282
4 2295 2296 2297 2298
4 2299 2295 2296 2297
4 2298 2223 2224 2228
4 2298 2223 2228 2300
4 2298 2223 2300 2301
4 2298 2224 2223 2220
4 2302 2303 2304 2305
4 2306 2307 2308 2302
4 2309 2310 2311 2312
4 2302 2304 2303 2306
4 2302 2313 2314 2315
4 2302 2307 2316 2317
4 2302 2314 2318 2315
4 2302 2313 2307 2308
4 2319 2320 2321 2322
4 2323 2324 2325 2326
4 2327 2328 2320 2329
4 2323 2328 2320 2327
4 2323 2326 2325 2327
4 2323 2330 2325 2324
4 2321 2331 2330 2323
4 2332 2321 2331 2330
4 2323 2333 2322 2328
4 2320 2327 2331 2323
4 2334 2335 2336 2337
4 2334 2338 2339 2337
4 2340 2341 2342 2343
4 2344 2345 2346 2347
4 2348 2344 2349 2345
4 2348 2344 2350 2293
4 2344 2346 2351 2352
4 2344 2345 2353 2346
4 2354 2355 2356 2357
4 2357 2358 2359 2360
4 2357 2358 2356 2359
4 2357 2354 2359 2356
4 2361 2362 2228 2221
4 2361 2362 2363 2364
4 2365 2366 2367 2368
4 2368 2366 2367 2369
4 2361 2224 2221 2228
4 2297 2368 2369 2361
4 2370 2371 2372 2341
4 2368 2297 2363 2361
4 2373 2368 2297 2363
4 2361 2228 2366 2374
4 2361 2224 2228 2297
4 2361 2297 2228 2374
4 2375 2376 2377 2378
4 2375 2379 2380 2378
4 2375 2381 2382 2377
4 2375 2383 2384 2379
4 2375 2385 2381 2377
4 2219 2220 2222 2386
4 2298 2387 2220 2388
4 2298 2228 2224 2297
4 2298 2389 2295 2390
4 2223 2225 2391 2392
4 2223 2392 2301 2225
4 2393 2394 2395 2396
4 2393 2397 2398 2399
4 2393 2400 2397 2401
4 2393 2400 2402 2398
4 2393 2398 2402 2394
4 2393 2395 2403 2396
4 2403 2393 2317 2401
4 2404 2405 2406 2407
4 2404 2408 2409 2410
4 2404 2411 2409 2408
4 2404 2378 2409 2411
4 2404 2412 2413 2410
4 2414 2415 2416 2417
4 2414 2418 2419 2420
4 2421 2422 2423 2424
4 2414 2417 2420 2419
4 2425 2418 2419 2414
4 2414 2426 2398 2427
4 2414 2427 2398 2428
4 2414 2318 2428 2425
4 2429 2430 2431 2432
4 2433 2434 2333 2325
4 2435 2436 2437 1671
4 2429 2438 2439 2433
4 2429 2325 2440 2441
4 2429 2434 2325 2441
4 2442 2443 2444 2445
4 2446 2432 2447 2448
4 2446 2449 2447 2450
4 2451 2452 2453 2454
4 2454 2455 2456 2452
4 2454 2457 2458 2459
4 2454 2460 2461 2462
4 2454 2458 2462 2459
4 2454 2460 2462 2451
4 2455 2463 2464 2453
4 2454 2465 2455 2453
4 2455 2210 2452 2211
4 2455 2466 2467 2468
4 2455 2465 2468 2463
4 2469 2470 2471 2472
4 2469 2306 2308 2303
4 2469 2473 2474 2475
4 2469 2472 2474 2470
4 2469 2306 2470 2473
4 2469 2475 2308 2306
4 2476 2477 2478 2479
4 2476 2479 2478 2480
4 2476 2481 2482 2483
4 2484 2485 2486 2487
4 2484 2488 2489 2490
4 2484 2267 2491 2492
4 2484 2491 2493 2487
4 2494 2381 2495 2496
4 2494 2497 2496 2495
4 2498 2499 2500 2501
4 2502 2503 2504 1793
4 89 1562 2505 1553
4 2494 2506 2507 2501
4 2494 2495 2508 2497
4 2494 2507 2506 2509
4 2510 2494 2499 2511
4 2494 2511 2510 2508
4 2494 2512 2511 2508
4 2494 2509 2512 2508
4 2513 2514 2515 2516
4 2514 2517 2518 2513
4 2513 2519 2517 2520
4 2521 2514 2515 2513
4 2522 2523 2524 2525
4 2526 2515 2527 2521
4 2528 2529 2530 2531
4 2436 2532 1237 2533
4 2513 2519 2520 2527
4 2513 2424 2521 2514
4 2534 2535 2536 2537
4 2534 2538 2539 2540
4 2534 2540 2541 2542
4 2534 2542 2290 2540
4 2429 2430 2432 2450
4 2429 2430 2441 2440
4 2430 2543 2271 2441
4 2430 2543 2441 2440
4 2544 2545 2546 2547
4 2430 2272 2432 2450
4 2274 2251 2277 2250
4 2278 2253 2548 2549
4 2246 2251 2250 2253
4 2246 2278 2550 2551
4 2246 2278 2551 2253
4 2278 2548 2253 2277
4 2278 2552 2553 2554
4 2461 2459 2462 2555
4 2454 2461 2459 2462
4 2461 2462 2556 2557
4 2461 2558 2559 2560
4 2461 2561 2562 2456
4 2461 2561 2559 2562
4 2436 1672 200 1671
4 2461 2561 2563 2559
4 2564 2565 2566 2315
4 2302 2314 2313 2308
4 2313 2314 2567 2568
4 2316 2313 2302 2315
4 2569 198 199 1229
4 2313 2566 2567 2315
4 2474 2473 2570 2475
4 2571 2572 2195 2573
4 2574 2575 2576 2577
4 2574 2307 2475 2306
4 2302 2574 2575 2306
4 2574 2317 2577 2578
4 2574 2576 2579 2577
4 2580 2581 2582 2478
4 2580 2583 2584 2585
4 2575 2586 2401 2587
4 2574 2317 2575 2577
4 2575 2586 2577 2401
4 2302 2575 2304 2306
4 2454 2465 2457 2459
4 2588 2234 2589 2590
4 2234 2588 2591 2590
4 2592 2199 2200 197
4 2234 2465 2588 2468
4 2465 2588 2463 2593
4 2455 2207 2467 2210
4 2454 2466 2455 2465
4 2233 2465 2241 2234
4 2465 2468 2234 2233
4 2465 2588 2468 2463
4 2439 2429 2433 2594
4 2455 2468 2465 2466
4 2595 2596 2260 2597
4 2595 2598 2599 2600
4 2601 2202 2598 2203
4 2202 2598 2602 2603
4 2595 2604 2605 2606
4 2202 2595 2598 2599
4 2598 2607 2603 2608
4 2595 2609 2601 2610
4 2598 2603 2599 2600
4 2611 2612 2613 2614
4 2611 2615 2301 2616
4 2611 2616 2301 2617
4 2596 2604 2206 2618
4 2618 2596 2619 2206
4 2206 2596 2619 2260
4 2620 2621 2266 2270
4 2596 2622 2623 2597
4 2595 2604 2596 2605
4 2596 2619 2624 2625
4 2596 2626 2619 2623
4 2596 2619 2626 2624
4 2596 2605 2624 2622
4 2467 2627 2628 2207
4 2467 2627 2464 2629
4 2467 2630 2631 2628
4 2368 2632 2633 2634
4 2388 2220 2615 2387
4 2387 2635 2636 2637
4 2387 2296 2635 2637
4 2387 2638 2639 2636
4 2612 2387 2615 2638
4 2387 2639 2638 2612
4 2400 2587 2640 2641
4 2641 2642 2643 2644
4 2645 2646 2647 2642
4 2646 2647 2642 2641
4 2641 2643 2397 2587
4 2641 2648 2646 2649
4 2641 2640 2650 2587
4 2641 2644 2650 2647
4 2651 2652 2382 2653
4 2651 2515 2654 2655
4 2656 2653 2657 2651
4 2651 2653 2382 2658
4 2286 2659 2660 2661
4 2662 2659 2289 2287
4 2663 2662 2659 2289
4 2289 2664 2665 2662
4 2662 2290 2666 2287
4 2662 2666 2290 2664
4 2662 2666 2667 2661
4 2668 2669 2670 2671
4 2662 2672 2667 2666
4 2662 2672 2666 2664
4 2218 2673 2674 2675
4 2673 2628 2675 2218
4 2208 2212 2218 2210
4 2218 2210 2628 2209
4 2676 2385 2677 2384
4 2676 2384 2678 2679
4 2676 2376 2680 2385
4 2676 2681 2680 2682
4 2676 2385 2681 2677
4 2676 2681 2683 2678
4 2426 2565 2396 2427
4 2426 2427 2396 2398
4 2414 2565 2426 2427
4 2402 2684 2685 2394
4 2426 2402 2686 2398
4 2565 2394 2687 2426
4 2688 2565 2394 2687
4 2247 2248 2249 2689
4 2247 2690 2691 2692
4 2247 2693 2694 2695
4 2247 2695 2253 2693
4 2247 2695 2251 2253
4 2247 2692 2695 2694
4 2696 2247 2693 2694
4 2375 2380 2676 2376
4 2680 2697 2470 2471
4 2680 2698 2470 2682
4 2680 2385 2699 2681
4 2680 2473 2470 2698
4 2345 2700 2349 2348
4 2376 2701 2472 2680
4 2680 2473 2474 2470
4 2680 2472 2474 2702
4 2680 2702 2701 2472
4 2703 2704 2705 2706
4 2703 2707 2708 2709
4 2703 2710 2707 2709
4 2711 2705 2708 2703
4 2712 2711 2705 2708
4 2703 2711 2705 2704
4 2703 2711 2713 2709
4 2714 2715 2716 2717
4 2718 2714 2715 2716
4 2717 2716 2714 2570
4 2717 2719 2716 2475
4 2717 2714 2715 2720
4 2717 2570 2307 2475
4 2314 2318 2721 2305
4 2671 2199 2190 2191
4 2314 2722 2721 2723
4 2313 2724 2314 2568
4 2707 2725 2726 2727
4 2314 2721 2418 2723
4 2314 2724 2723 2568
4 2314 2723 2418 2567
4 2728 2729 2730 2731
4 2339 2732 2712 2733
4 2734 2731 2735 2730
4 2729 2730 2736 2737
4 2734 2738 2731 2730
4 2731 2738 2739 2729
4 2740 1802 1810 1801
4 2741 2731 2738 2739
4 2491 2742 2487 2743
4 2484 2491 2744 2488
4 2491 2492 2271 2488
4 2491 2745 2268 2746
4 2491 2268 2271 2267
4 2491 2744 2488 2747
4 2707 2748 2708 2606
4 2707 2748 2727 2749
4 2707 2708 2750 2751
4 2751 2707 2703 2710
4 2752 2339 2753 2733
4 2592 2199 197 2754
4 2707 2710 2755 2725
4 2707 2725 2755 2726
4 2707 2749 2726 2750
4 2680 2702 2474 2473
4 2469 2475 2474 2472
4 2756 2702 2757 2758
4 2204 2203 2259 2759
4 2474 2760 2702 2757
4 2474 2579 2570 2473
4 2474 2570 2761 2475
4 2234 2762 2763 2589
4 2234 2232 2468 2589
4 2231 2762 2288 2284
4 2231 2234 2762 2763
4 2231 2284 2235 2232
4 2466 2233 2465 2241
4 2234 2242 2591 2241
4 2234 2241 2231 2242
4 2231 2764 2762 2242
4 2404 2406 2765 2407
4 2404 2407 2377 2653
4 2404 2766 2406 2413
4 2406 2767 2766 2768
4 2406 2767 2769 2770
4 2406 2771 2767 2770
4 2276 2279 2772 2773
4 2774 2775 2477 2481
4 2776 2276 2777 2778
4 2778 2773 2776 2276
4 2773 2776 2252 2779
4 2773 2780 2781 2778
4 2773 2782 2279 2772
4 2751 2783 2784 2785
4 2675 2674 2631 2673
4 2675 2673 2631 2628
4 2218 2786 2787 2675
4 2675 2788 2787 2789
4 2695 2693 2277 2253
4 2666 2692 2287 2536
4 2692 2287 2536 2695
4 2461 2555 2462 2557
4 2461 2790 2460 2452
4 2454 2451 2452 2460
4 2462 2791 2451 2460
4 2792 2657 2793 2794
4 2792 2655 2795 2796
4 2792 2526 2797 2422
4 2792 2798 2797 2434
4 2792 2799 2434 2794
4 2767 2770 2800 2769
4 2767 2771 2766 2801
4 2767 2802 2800 2803
4 2246 2779 2535 2249
4 2246 2248 2551 2804
4 2250 2276 2274 2251
4 2773 2779 2279 2782
4 2773 2279 2252 2276
4 2252 2535 2777 2276
4 2777 2252 2779 2535
4 2492 2805 2441 2271
4 2492 2449 2422 2267
4 2492 2449 2450 2798
4 2373 2806 2295 2807
4 2373 2299 2806 2528
4 2373 2808 2528 2809
4 2373 2295 2299 2297
4 2373 2809 2810 2808
4 2373 2810 2368 2808
4 2335 2811 2812 2790
4 2334 2336 2811 2205
4 2212 2213 2558 2790
4 2813 2814 2815 2816
4 2816 2817 2813 2814
4 2213 2790 2812 2811
4 2811 2558 2818 2819
4 2811 2820 2254 2821
4 2811 2820 2819 2254
4 2811 2821 2812 2213
4 2822 2823 2824 2825
4 2825 2826 2822 2823
4 2826 2407 2827 2653
4 2816 2828 2829 2830
4 2765 2823 2831 2407
4 2826 2825 2827 2823
4 2832 2833 2834 2835
4 2836 2837 2838 2833
4 2839 2837 2840 2841
4 2841 2842 2839 2837
4 2833 2837 2838 2834
4 2842 2808 2835 2833
4 2373 2808 2842 2528
4 2843 2535 2844 2777
4 2843 2691 2845 2846
4 2843 2691 2247 2845
4 2843 2845 2847 2846
4 2816 2848 2828 2849
4 2362 2850 2221 2851
4 2362 2221 2852 2851
4 2362 2853 2854 2364
4 2362 2363 2364 2852
4 2218 2562 2212 2855
4 2816 2856 2817 2830
4 2208 2212 2452 2216
4 2208 2210 2211 2452
4 2212 2216 2790 2452
4 2855 2558 2562 2212
4 2212 2216 2213 2790
4 2301 2225 2386 2223
4 2857 2816 2858 2848
4 2219 2221 2224 2228
4 2386 2225 2859 2230
4 2223 2391 2225 2228
4 2225 2860 2227 2228
4 2219 2227 2861 2228
4 2219 2228 2861 2221
4 2204 2203 2759 2254
4 2205 2602 2818 2338
4 2821 2336 2262 2204
4 2602 2203 2607 2598
4 2205 2599 2337 2336
4 2761 2475 2719 2472
4 2862 2831 2863 2864
4 2831 2863 2864 2761
4 2474 2761 2758 2472
4 2761 2570 2758 2716
4 2761 2864 2865 2863
4 2761 2831 2758 2472
4 2701 2756 2702 2866
4 2701 2407 2377 2867
4 2826 2831 2862 2823
4 2826 2701 2756 2758
4 2868 90 2869 573
4 2407 2826 2701 2653
4 2779 2279 2870 2871
4 2872 123 1247 0
4 2779 2871 2873 2874
4 2246 2779 2804 2874
4 2779 2873 2875 2876
4 2816 2815 2813 2857
4 2250 2277 2285 2553
4 2779 2535 2877 2777
4 2776 2777 2252 2779
4 2672 2664 2878 2879
4 2672 2664 2880 2881
4 2672 2538 2290 2881
4 2672 2664 2879 2880
4 2672 2538 2882 2883
4 2672 2883 2882 2879
4 2884 2885 2886 2887
4 2884 2873 2874 2804
4 2884 2888 2873 2804
4 2889 2884 2873 2874
4 2890 1068 56 1059
4 2884 2887 2551 2891
4 2892 2893 2894 2895
4 2887 2551 2804 2884
4 2804 2896 2897 2886
4 2884 2885 2898 2888
4 2404 2413 2406 2405
4 2406 2360 2899 2359
4 2406 2766 2767 2771
4 2768 2900 2765 2901
4 2768 2902 2900 2903
4 2768 2900 2902 2409
4 2404 2768 2409 2867
4 2654 2515 2658 2516
4 2516 2904 2905 2508
4 2906 2904 2905 2516
4 2654 2907 2908 2909
4 2654 2909 2908 2383
4 2495 2654 2383 2382
4 2651 2413 2653 2657
4 2651 2654 2382 2909
4 2654 2383 2382 2909
4 2235 2233 2232 2910
4 2235 2285 2232 2284
4 2911 2912 2894 2913
4 2235 2284 2244 2289
4 2244 2235 2289 2245
4 2235 2236 2283 2245
4 2235 2284 2283 2285
4 2914 2915 2916 2917
4 2332 2330 2324 2918
4 2919 2920 2921 2332
4 2332 2922 2918 2923
4 2914 2915 2279 2924
4 2279 2924 2925 2914
4 2914 2279 2874 2926
4 2914 2927 2550 2554
4 2914 2916 2926 2927
4 2928 2770 2327 2794
4 2928 2359 2770 2793
4 2845 2929 2846 2691
4 2845 2847 2846 2930
4 2247 2690 2845 2691
4 2247 2249 2845 2689
4 2536 2843 2691 2247
4 2843 2847 2845 2249
4 2619 2206 2262 2618
4 2604 2931 2618 2932
4 2604 2605 2606 2748
4 2389 2933 2934 2935
4 2298 2389 2390 2300
4 2389 2297 2936 2228
4 2228 2389 2298 2300
4 2389 2300 2933 2937
4 2938 2939 2940 2941
4 2942 2943 2944 2938
4 2945 2938 2942 2530
4 2938 2700 2939 2943
4 2946 2947 2948 2949
4 2938 2944 2528 2700
4 2950 2211 2951 2452
4 2950 2952 2951 2775
4 2950 2953 2954 2952
4 2950 2954 2953 2783
4 2950 2216 2481 2211
4 2381 2382 2495 2383
4 2381 2385 2677 2496
4 2381 2866 2377 2385
4 2581 2583 2582 2955
4 2581 2956 2583 2957
4 2478 2958 2581 2627
4 2581 2627 2958 2959
4 2464 2478 2582 2627
4 2960 2961 2962 2963
4 2964 2581 2958 2959
4 2581 2959 2964 2957
4 2581 2959 2955 2582
4 2273 2965 2629 2232
4 2960 2966 2338 2967
4 2273 2968 2275 2969
4 2273 2965 2232 2763
4 2402 2398 2970 2686
4 2971 2395 2393 2402
4 2911 2948 2947 2894
4 2393 2394 2396 2398
4 2426 2686 2402 2684
4 2426 2394 2402 2398
4 2686 2972 2415 2426
4 2402 2685 2395 2394
4 2684 2426 2394 2402
4 2406 2407 2405 2899
4 2406 2407 2899 2823
4 2701 2377 2866 2385
4 2973 1623 1631 1622
4 2826 2862 2831 2822
4 2653 2826 2701 2507
4 2407 2405 2974 2653
4 2701 2407 2867 2831
4 2975 2976 2489 2490
4 2975 2977 2978 2979
4 2975 2805 2490 2488
4 2975 2805 2488 2980
4 2951 2981 2774 2775
4 2329 2982 2326 2983
4 2984 2985 2952 2775
4 2981 2453 2986 2987
4 2981 2951 2453 2988
4 2981 2453 2989 2988
4 2981 2952 2990 2985
4 2455 2211 2453 2207
4 2208 2216 2452 2211
4 2218 2212 2562 2456
4 2467 2628 2210 2207
4 2208 2217 2211 2207
4 2218 2210 2212 2456
4 2218 2628 2210 2673
4 2218 2855 2212 2214
4 2564 2565 2991 2992
4 2564 2316 2313 2714
4 2564 2993 2994 2995
4 2996 2997 2994 2998
4 2997 2994 2998 2991
4 2991 2997 2994 2999
4 2991 2565 3000 2688
4 3001 3002 2415 3003
4 3004 3005 3006 3007
4 3001 3008 3003 3009
4 3001 3008 3010 3011
4 3011 3001 3012 2686
4 3001 3010 3013 2686
4 3012 3002 2415 3001
4 3014 3015 3016 3017
4 2654 2658 2382 2495
4 2651 2657 2794 2413
4 2651 2795 2655 2909
4 2651 2792 2657 2656
4 2382 2509 2658 2653
4 2382 2658 2509 2495
4 2651 2658 2656 2653
4 2611 2617 3018 2616
4 2382 3019 2909 2383
4 2909 2652 2408 2382
4 3020 3021 3022 3023
4 2650 2644 3024 3020
4 3020 3025 3026 3027
4 3020 3028 3029 3030
4 3020 3025 3031 3022
4 2605 2932 3032 2749
4 2605 2345 3033 3034
4 2605 3032 2624 3034
4 2605 2932 2749 2748
4 2353 2605 2345 3033
4 2654 3035 2516 2906
4 2651 2654 2658 2382
4 2495 2382 2507 2509
4 2316 2427 2396 2565
4 2266 2264 2620 2270
4 2416 2566 3036 2415
4 2414 2565 2427 2315
4 2991 2565 2688 2992
4 2564 3000 2565 2316
4 3037 2992 3036 2566
4 3038 2448 3039 3040
4 3041 2399 2318 2428
4 2399 2318 2428 2427
4 2414 2428 2398 2972
4 2414 2426 2565 2415
4 2426 2972 2415 2414
4 2414 2566 2565 2315
4 3042 3043 2310 3044
4 2565 2394 3000 2688
4 2396 2316 3000 2317
4 2302 2427 2399 2317
4 2654 2907 2655 3045
4 2907 3046 3047 3048
4 2908 2907 3046 2909
4 2654 2908 2907 2906
4 3049 2909 3050 3046
4 3051 2197 3052 195
4 3025 3022 3053 3031
4 3020 3031 3025 3029
4 3025 3054 3026 3055
4 3020 3029 3025 3027
4 3020 2682 3028 3056
4 3020 3025 3022 3026
4 2302 2575 2317 2304
4 2574 2307 3057 2570
4 2717 2313 2724 2307
4 2313 2307 2714 2316
4 2307 2570 2714 3057
4 2714 2715 2720 3058
4 2717 2714 2307 2570
4 2717 3059 2719 3060
4 2564 2313 2316 2315
4 2307 2308 2719 2475
4 2313 2714 2717 2720
4 2717 2720 2715 3059
4 3061 3004 3062 3063
4 3064 3065 3066 3067
4 3064 3067 3068 3065
4 3069 3070 2342 3071
4 3070 2342 3071 3064
4 3064 3072 3068 3073
4 3064 3072 3073 3070
4 3064 3071 3070 3074
4 3043 3075 3076 2439
4 3075 2354 2359 3077
4 3075 3078 3079 3080
4 3075 3076 2439 3081
4 2448 3082 3039 3040
4 3075 2358 2356 3083
4 3075 3084 2358 3083
4 3075 2358 3084 3081
4 3085 2932 3086 2625
4 3085 2932 2750 2749
4 3085 2238 3087 3088
4 3085 3088 3087 3089
4 3085 3089 3090 2726
4 3085 2749 2726 3090
4 3091 2345 2943 2939
4 2939 2345 3092 3034
4 3039 3093 3094 3095
4 3096 3097 3098 3099
4 2345 2353 3033 3091
4 2605 2353 2345 2346
4 2907 3048 3047 3100
4 3047 3101 3102 3103
4 3047 3103 3104 3101
4 3047 3049 3050 3046
4 3047 3048 3046 3105
4 3047 3105 3046 3106
4 3075 3084 3076 3081
4 2358 3083 3107 2357
4 2357 2358 2360 3107
4 2358 3108 2360 3107
4 3108 2358 2360 2770
4 2358 3109 3110 3108
4 2358 3081 2359 2770
4 2762 3111 3112 3113
4 2234 2590 2762 2589
4 2762 2589 2590 3114
4 3115 3116 3117 3118
4 2231 2234 2763 2232
4 2231 2763 2762 2284
4 2234 2762 2242 2231
4 3098 3099 3097 3119
4 2762 2590 2242 3111
4 2762 3111 2764 3112
4 3120 3121 3122 2853
4 3123 3124 3119 3098
4 3125 2853 2364 3126
4 3127 3128 3129 2108
4 3130 3131 3132 2829
4 2853 2365 3122 3133
4 3134 3135 2555 3136
4 3134 3137 2557 2555
4 3134 3137 2555 3135
4 2393 2396 2399 2398
4 2393 2399 2396 2317
4 2641 2640 3138 3139
4 2397 2399 2428 2398
4 2393 2397 2399 2304
4 2641 2397 2400 2587
4 2587 2397 2400 2401
4 2950 2775 3140 3141
4 2950 3142 2216 2812
4 2208 2217 2216 2211
4 2216 2481 2211 2217
4 2208 2212 2216 2213
4 2950 2812 3141 3142
4 2208 2215 3143 2213
4 2216 2812 3142 3144
4 2216 2812 3144 2213
4 2273 2763 2968 2965
4 2468 2629 2965 2232
4 3145 3146 3131 3147
4 2235 3148 2232 2285
4 3149 3150 1499 528
4 2233 3151 2236 2231
4 3152 2233 3151 2236
4 2235 2910 2232 3148
4 2590 2234 2242 2591
4 2234 2232 2589 2763
4 2907 2526 3048 3100
4 2526 2655 3045 2515
4 2526 3048 2490 2485
4 2907 2526 2655 3045
4 2202 2204 2203 2259
4 2202 2595 2599 2206
4 3153 2189 2188 2180
4 2202 2260 2595 2206
4 2203 2202 2598 2602
4 2203 3154 3155 3156
4 2203 3157 2602 3158
4 2203 2602 3157 2254
4 3154 2259 2203 2759
4 2759 3154 3155 2203
4 2227 2228 2366 2362
4 3131 3159 2829 3145
4 3160 796 804 795
4 3131 3161 3159 3145
4 3131 3147 3161 3145
4 3162 2633 2367 2810
4 3163 2634 2367 2633
4 2634 2367 2633 2368
4 2968 3164 2969 2273
4 2273 3165 2969 2553
4 3165 2629 3164 2582
4 3165 3166 2629 2955
4 3166 2553 3167 3165
4 2324 3168 2918 3169
4 3165 2553 3167 2554
4 3165 2582 3164 3170
4 2835 3171 2633 3172
4 2835 2633 2632 3173
4 2842 2835 2632 3173
4 2835 3171 2833 2808
4 2323 2325 2321 2333
4 2325 2327 2326 2434
4 2325 2440 2324 2330
4 2325 2321 2333 3174
4 2334 2811 2558 2205
4 2334 2558 2790 2556
4 2334 2811 2790 2558
4 2950 2783 2335 2954
4 2790 2954 2335 3175
4 3176 2586 2698 3023
4 3176 3177 3178 3179
4 3176 3177 3179 3180
4 3176 3023 2698 3181
4 3176 3178 3021 3182
4 2586 3183 2401 3021
4 2576 3176 3177 2586
4 2586 3184 2577 3185
4 2586 3183 3185 2401
4 2653 3186 2507 2509
4 2653 2405 2974 3187
4 2326 3168 2977 2982
4 2701 2376 2377 2385
4 2653 2657 2413 2405
4 2382 2377 2653 2652
4 2247 2689 2845 2690
4 2247 2248 2689 2696
4 2246 2804 2551 2874
4 2248 2549 2696 2253
4 2247 2843 2535 2536
4 2223 2301 2392 2300
4 2392 2391 2300 3188
4 2392 3189 2301 3062
4 2392 3007 3095 2391
4 3190 2286 2660 2661
4 3190 2661 3191 3192
4 3190 3193 3194 3191
4 3190 3194 3193 3195
4 3196 3197 3198 3199
4 3199 3200 3201 3202
4 3199 3203 3201 3197
4 3204 3205 3206 3199
4 3206 3199 3200 3196
4 2949 3207 3208 3203
4 3209 2983 2326 2982
4 3199 3205 3207 3208
4 3171 2528 2944 2700
4 3171 2633 2810 2808
4 3171 2349 3210 3172
4 3171 2810 2809 2808
4 3211 3171 2633 2810
4 3171 3212 3210 2349
4 2227 3213 2860 2226
4 2227 3213 2226 3214
4 2366 3122 3016 3014
4 2362 3122 2227 2861
4 2227 3215 2228 2860
4 2227 2228 3215 3014
4 2227 2228 3014 2366
4 2429 3216 2430 2440
4 2430 3217 2264 3218
4 2429 2432 2439 2450
4 2430 2432 3219 2431
4 2432 3219 2448 2272
4 3187 2653 2657 2656
4 2826 2822 2831 2758
4 3209 2977 2976 3220
4 3221 3222 3223 3224
4 2701 3225 2377 2376
4 2375 2385 2377 2376
4 2404 2413 2653 2652
4 2404 2407 2867 2377
4 2404 2377 2411 2652
4 3008 3226 3012 3002
4 3008 3010 3011 3227
4 3228 2632 3229 2839
4 2852 3228 2634 3230
4 2368 2632 2808 2633
4 3228 3231 2632 2634
4 3232 2839 2373 3228
4 3103 3233 3101 3102
4 2634 2852 2364 2363
4 2368 3228 2632 2634
4 3234 2590 2588 2589
4 3234 3235 3236 3237
4 3234 2588 3236 2589
4 2214 3238 2819 2213
4 2214 3238 3143 3239
4 3240 3241 3242 3243
4 3240 3244 3245 3115
4 3240 3246 3241 3243
4 3247 2846 2538 2539
4 3247 2691 2929 3248
4 3247 3249 2667 3250
4 3247 3251 3249 3252
4 2327 2794 2983 2326
4 2882 3253 2883 2538
4 3247 2538 3253 2539
4 3247 2846 2929 2691
4 2543 3254 3255 3216
4 2430 2441 2271 2272
4 2543 3218 2620 2735
4 2543 2620 2264 3256
4 2543 2441 2440 3169
4 2543 2440 3255 3257
4 2543 3169 2440 3257
4 3258 2402 2685 2395
4 2394 3259 2395 2396
4 2426 2394 2398 2396
4 2687 2426 2394 2684
4 2395 2393 2402 2394
4 3260 2266 3261 3262
4 3260 3263 2229 3262
4 2266 3262 2229 3264
4 3265 3266 2269 3267
4 2266 3268 3266 2268
4 2266 2264 2265 2230
4 2266 3266 2229 2230
4 2266 2264 3269 2620
4 3270 3271 3272 3273
4 2230 2265 3274 2264
4 2263 2266 3266 2268
4 2265 2266 3275 2263
4 2264 3218 2230 3269
4 2266 3266 2230 3275
4 2263 3266 2266 3275
4 3276 2274 2537 2288
4 2762 2288 2284 2763
4 2282 2285 2274 2277
4 2235 2289 2245 2283
4 2273 2763 2284 2274
4 2831 2867 2900 2765
4 2831 2901 2900 3277
4 2831 2901 2862 2765
4 2831 2864 3278 3277
4 3279 2850 3263 3280
4 3279 2850 3280 3281
4 3279 3121 3282 3283
4 3279 3281 3121 2850
4 3284 194 3051 1193
4 3049 2796 3100 3285
4 3286 3103 3049 3102
4 3049 3286 3102 3287
4 3049 2655 3100 2796
4 3049 3286 3287 3285
4 2907 2526 2527 3048
4 3078 3288 3289 3290
4 3078 3077 3291 3288
4 3078 3292 3288 3290
4 2717 2307 2719 2475
4 2719 3293 3059 2865
4 2719 2724 3294 2308
4 2980 3295 3296 3297
4 3294 2864 3298 3299
4 2719 3299 3059 3293
4 3300 3294 3299 2724
4 2976 3301 3220 2979
4 2719 3299 2724 3060
4 3302 3303 3304 3305
4 3306 3302 3307 3304
4 3304 3305 3306 3302
4 3302 3308 3309 3310
4 2631 2910 3311 3312
4 2675 3313 2631 2674
4 2467 2628 2631 2673
4 2631 2910 3313 3311
4 2628 2675 2218 2789
4 3314 3315 3316 3317
4 3314 2366 3014 2374
4 3314 2374 3318 2369
4 3314 2374 3319 3318
4 2450 2446 2432 2447
4 2446 3320 3321 3096
4 2421 3322 2423 2449
4 2449 2798 2434 2450
4 2449 2422 2521 2799
4 2449 2450 2438 2447
4 2415 3003 2416 2417
4 3323 845 836 837
4 3012 2684 2415 2687
4 2489 2486 3296 2744
4 2414 2417 2416 2420
4 2972 2417 3324 3001
4 3234 2589 3114 2590
4 2588 3325 2457 2459
4 2761 2716 2475 2570
4 2701 2702 2758 2472
4 2702 2757 2758 2474
4 2758 3326 2570 3327
4 2758 2822 3327 2757
4 2474 2760 2757 3328
4 2474 2761 2472 2475
4 2831 2863 2822 2862
4 3329 1888 3330 1889
4 2761 2758 2863 2716
4 2526 2796 2797 3100
4 2651 2792 2515 2655
4 2907 3049 2909 2655
4 3222 3331 3153 3332
4 2495 2516 2904 2654
4 2792 2526 2515 2655
4 2792 2526 2655 2796
4 2381 2382 2377 2507
4 2651 2792 2794 2657
4 2721 2305 3333 3334
4 2721 2305 3334 2308
4 2721 2305 2318 2425
4 2938 2700 2528 2833
4 2531 2945 3335 2530
4 2944 2700 2348 3212
4 3171 3212 2944 2809
4 2938 2942 2530 2944
4 3336 2451 3337 2988
4 3336 2988 3338 3339
4 3338 3336 3337 2988
4 3340 3341 3342 3336
4 3336 3325 3343 3344
4 3336 2457 3325 2458
4 3336 3339 3345 3342
4 3267 2269 3346 3347
4 3267 3348 3347 3346
4 3267 3275 2860 3213
4 3267 3266 3275 3213
4 2717 2719 2724 3060
4 2574 2307 2317 3057
4 2724 3349 3060 3299
4 2724 3299 3350 3351
4 2761 2719 2716 2865
4 3294 3299 2724 2719
4 2724 3060 3352 2568
4 2724 2723 2568 3353
4 2724 3300 3350 3299
4 3354 3355 3356 3357
4 3354 3358 3359 3355
4 3354 3173 3356 3231
4 3354 3358 3360 3359
4 3354 3360 3361 3362
4 2730 3269 3363 2737
4 2729 2616 3364 2615
4 3331 3365 3332 3223
4 2729 2737 3366 2615
4 2729 2615 3364 2737
4 2730 2728 3218 3364
4 2430 2271 2543 2264
4 3218 3274 3367 3217
4 2730 3269 3218 2620
4 2264 3218 3274 2230
4 3218 3269 3364 2230
4 3218 3367 3274 3364
4 2884 2551 2874 2550
4 2246 2804 2779 2249
4 2248 3368 2551 2804
4 2246 2874 2551 2550
4 2874 2279 2246 2779
4 2406 2360 2359 2770
4 2360 3108 2769 3369
4 2406 2823 2360 3370
4 2357 2360 2359 2899
4 2406 2359 2899 2405
4 2404 2768 2766 2409
4 2360 2899 3371 2823
4 3025 3026 3054 3372
4 3025 3053 3022 3372
4 3020 3027 2650 3030
4 3020 3022 3031 2682
4 2682 3028 3029 3020
4 3022 3031 3373 3053
4 3022 3373 2682 3181
4 2429 2440 2325 3174
4 2325 2441 3374 2440
4 2543 2441 3169 3256
4 2441 3374 2440 3169
4 2441 2271 2805 3169
4 2492 2798 2441 2805
4 2484 2492 2490 2422
4 2492 2441 2798 2450
4 3375 3376 3377 3378
4 3375 3379 3380 3381
4 2760 2756 3382 2866
4 3331 3383 3224 3222
4 2760 2698 2702 2699
4 2760 2473 2698 2576
4 2760 3180 2698 3384
4 2760 3328 3385 3382
4 2779 2873 2871 2875
4 2888 2889 2884 2873
4 3331 3383 1210 3224
4 2873 2897 2888 3386
4 2873 2871 2875 3387
4 2873 3387 2876 3388
4 2873 2874 2871 2889
4 3389 3390 3391 3392
4 3389 3393 3390 3392
4 3389 3394 3391 3395
4 3331 3383 3396 1210
4 3389 3397 3398 3399
4 3389 3399 3400 3392
4 2360 3369 2769 3370
4 2358 2770 3110 3081
4 2359 2770 2793 2657
4 3075 2354 3080 2356
4 2360 3108 2770 2769
4 2357 2899 2355 3401
4 3320 3402 3403 3404
4 3320 3404 3096 3082
4 3405 2423 3322 3320
4 3320 3406 3404 3407
4 2448 3320 3408 2446
4 3322 2446 2447 3408
4 3320 3040 3402 3404
4 2393 2401 2304 2317
4 2302 2399 2304 2317
4 2304 3024 2303 2306
4 2575 2304 2306 3024
4 2845 2690 3409 3410
4 3411 2690 3412 3413
4 2247 2695 2692 2536
4 2690 3412 2689 3409
4 3250 2690 3248 3413
4 3413 2692 3250 2690
4 2695 2694 2286 3073
4 2246 2247 2535 2251
4 2690 3413 2694 3414
4 2694 2692 3192 3413
4 2694 2693 3072 3073
4 2694 3072 2693 3068
4 2694 3415 3072 3068
4 3190 3195 2694 3194
4 2571 1175 1166 192
4 3416 3417 3396 3418
4 2247 2694 2690 2692
4 3419 2187 2196 2195
4 2695 3073 2277 2693
4 3420 3421 3422 3138
4 3420 3423 3424 3425
4 3420 3425 3138 3423
4 3420 3426 3138 3422
4 3427 3428 3429 3430
4 3427 3431 3432 3433
4 3427 3434 3435 3436
4 3427 3430 3434 3437
4 3427 3430 3437 3438
4 3427 3435 3430 3431
4 3431 3436 3433 3427
4 3417 3396 3418 3331
4 2397 2398 2428 2648
4 2302 2574 2317 2575
4 2318 2305 2314 2302
4 2427 2398 2399 2396
4 2427 2399 2398 2428
4 3439 3440 3441 3442
4 3442 2684 2687 2685
4 2845 3443 3248 3410
4 2689 2249 3444 3445
4 2689 3446 3368 3447
4 2689 3414 3448 3412
4 2689 3449 3446 3447
4 3449 2689 3445 3447
4 3365 3331 3153 3450
4 3396 3331 3417 3450
4 3178 3183 3451 3452
4 3183 3185 3453 3454
4 3183 3451 3452 3455
4 3183 3453 3456 3454
4 2841 2839 3457 2840
4 2842 2531 2841 2529
4 2841 2531 2836 3458
4 2841 2529 3459 3457
4 3460 3189 3461 3462
4 3460 3463 2937 2390
4 3460 2300 2388 2390
4 3460 2301 2300 3189
4 3460 3464 3465 3189
4 2611 2613 2612 2615
4 3460 3464 3189 3462
4 2853 2854 3466 3283
4 2611 3460 2388 2614
4 3467 3425 2400 3468
4 3467 3469 3470 3471
4 3467 3472 3471 3473
4 2402 2395 3467 2971
4 2632 3173 3231 3356
4 2885 3450 2886 3417
4 2839 2632 2842 2373
4 2373 2839 3232 2299
4 2842 2632 3474 3173
4 2368 2810 2633 2808
4 2842 2632 2835 2808
4 3171 2833 2808 2528
4 2942 2944 2943 3244
4 2943 2345 2350 2348
4 2345 2347 2700 3092
4 2700 2349 3475 2347
4 2945 2531 3476 2941
4 3171 2809 2944 2528
4 2344 3477 2352 3478
4 3477 2346 2352 2610
4 3477 3479 3480 3481
4 3477 3479 2610 2352
4 3477 3481 2349 2347
4 2469 3298 2471 3482
4 2575 3024 2470 3023
4 2470 3024 3056 2682
4 2469 3294 2475 2472
4 2469 2473 2475 2306
4 2484 2486 2489 2744
4 2484 2491 2487 2744
4 2493 2485 2519 2424
4 2493 2519 2485 3483
4 3375 2487 2493 3484
4 2493 3321 2267 2422
4 2691 2534 2666 2538
4 2846 3485 2847 2844
4 2846 3485 2539 3486
4 2845 3409 2690 2689
4 3247 2846 2691 2538
4 3487 2036 2045 2044
4 1242 212 3488 213
4 2202 2205 2206 2599
4 2205 2818 2602 2254
4 2202 2205 2602 2203
4 2602 2338 2603 2966
4 2334 2205 2337 2336
4 2203 3156 2601 2259
4 2602 2966 2607 3158
4 2635 3489 2636 3490
4 1716 3488 212 213
4 2387 2635 3489 2636
4 2347 3092 3491 3475
4 2635 2636 3492 3493
4 2635 2299 2529 3492
4 2635 3232 2296 3489
4 3494 1250 1251 1259
4 2595 2596 2604 2206
4 2596 2932 2604 2618
4 2204 2254 3495 2821
4 2604 2618 2931 2336
4 2595 2260 2596 2206
4 2204 2206 2205 2336
4 2835 3496 3172 2633
4 2204 2254 2821 2336
4 3497 3498 3499 2626
4 2596 2619 2260 2623
4 2619 3500 2260 2623
4 2835 3173 2834 3501
4 3497 2260 2262 2619
4 2260 2206 2262 2619
4 2619 2260 3500 3497
4 3286 3285 3209 3502
4 3286 3503 3103 3102
4 3286 3287 3504 3102
4 3106 3047 3101 3102
4 3390 3395 3505 3506
4 3390 3392 1720 3507
4 3508 3242 3509 3510
4 3511 3390 3512 3513
4 3390 3507 3511 3391
4 2195 2572 3284 3419
4 3390 3507 1729 3513
4 2273 2232 2629 2285
4 2285 3166 3148 2629
4 2284 2288 2274 2763
4 2232 2285 3148 2629
4 2250 2273 2969 2553
4 2273 2232 2285 2284
4 2285 3514 3148 3166
4 2285 3148 3514 3073
4 2285 2553 2277 2548
4 2285 3514 2553 2548
4 2285 2283 3148 3073
4 2217 2207 2209 3515
4 2207 2209 3515 2628
4 2467 2210 2628 2673
4 2467 2629 2910 2630
4 3516 1708 3517 3518
4 2631 2910 3312 2630
4 2467 2631 2630 2910
4 2675 2631 3519 2628
4 2628 3515 2627 2630
4 2675 2789 2628 3519
4 3481 3491 3520 3475
4 3375 2493 3381 3484
4 2446 2432 2272 2450
4 2446 2272 2492 2450
4 2493 2422 2424 2423
4 2422 2521 2421 2449
4 3321 2422 2423 2449
4 3478 3521 3522 3523
4 2938 2836 2531 2941
4 3321 3096 3406 3484
4 2565 2688 2992 2687
4 2688 3524 2997 3525
4 2688 3525 3526 3527
4 2711 3528 3529 2857
4 3530 3529 3531 2711
4 3532 3530 3529 3531
4 2703 2711 2709 2708
4 2711 2709 2708 3528
4 3528 2711 3533 2606
4 2711 3529 3528 3533
4 2711 3531 3534 2848
4 2711 2704 3534 3530
4 3134 2557 3137 3535
4 2461 2563 3137 2557
4 3137 2561 2555 2241
4 2498 3536 3537 3538
4 3384 2498 2501 3382
4 2501 3384 2866 2500
4 2498 2510 3539 3540
4 2498 2510 3540 2500
4 2498 3536 2501 3382
4 3384 2498 3540 2500
4 3541 3235 3542 3543
4 2275 3541 2274 2276
4 3541 2275 2274 2763
4 3541 2763 2288 3114
4 3541 2763 3235 2275
4 2571 191 2194 192
4 3541 3235 3114 3542
4 2362 2364 2854 2852
4 2853 2854 2364 3126
4 3544 3545 3546 3333
4 3349 3547 1306 1305
4 2827 2974 3548 3549
4 2854 2364 3126 3550
4 2364 3125 3230 2634
4 2364 3125 3126 3230
4 3551 2416 2420 2566
4 2416 3552 2566 3551
4 3001 2415 3012 2686
4 2414 2416 2566 2420
4 2414 2427 2318 2315
4 3300 3553 3545 3350
4 2723 3353 2722 3554
4 2416 3003 3002 3555
4 2722 3545 3554 3353
4 2416 2417 3003 3556
4 3557 3558 3559 3560
4 3561 1914 1905 1906
4 3557 3559 3558 3562
4 3557 3563 3217 3216
4 3557 3219 3217 3063
4 3557 2430 2431 3216
4 2601 3564 3156 3565
4 2202 2599 2598 2603
4 2202 2595 2601 2598
4 2601 2607 3565 3156
4 2202 2260 2204 2259
4 2833 2834 2835 2842
4 2835 2832 3501 2834
4 2835 3172 3520 3475
4 3354 3173 3231 3496
4 2632 3229 2839 3474
4 2632 2842 2373 2808
4 2842 2835 3173 2834
4 2217 2207 2208 2209
4 2208 3143 2214 2213
4 2216 2213 2790 2812
4 3142 3566 2483 2216
4 2216 3566 2217 2215
4 2859 3274 2386 2230
4 3095 2859 2391 3275
4 2859 2230 2265 3274
4 2859 3275 3567 2265
4 2859 3274 2617 2301
4 2859 3275 3095 3567
4 2859 3274 3061 2617
4 3568 3569 3570 1918
4 2796 3100 3209 2797
4 2526 2797 2422 2490
4 2526 2527 2422 2521
4 3493 3492 3335 3571
4 2983 2797 2794 2796
4 2792 2526 2796 2797
4 2907 3048 3572 3046
4 2595 3573 2598 2600
4 2601 3574 2610 3575
4 2595 2259 2601 2597
4 2259 3576 2597 3577
4 2601 3576 2259 3156
4 3578 1905 3579 149
4 2595 2260 2259 2597
4 2598 2601 2607 2610
4 2601 3156 3564 3576
4 3580 445 453 444
4 2389 2934 2297 2807
4 2389 2295 2390 3581
4 2295 2299 2637 2806
4 2295 3581 3582 2806
4 2373 2299 2295 2806
4 2465 2588 2593 2457
4 2454 2561 2465 2459
4 3234 2588 2590 3583
4 3188 3584 3585 3006
4 3493 3490 3586 3587
4 2273 3164 3165 2629
4 2232 2589 2965 2468
4 2762 2589 3114 2763
4 2991 2688 2997 3525
4 2991 3525 2999 3588
4 2997 2998 3589 3590
4 3489 3591 3592 3593
4 2997 3594 3595 3596
4 2997 3597 3595 3598
4 2997 3595 3594 3598
4 3467 2971 2395 3599
4 2395 2685 3600 3601
4 2790 2334 2335 2811
4 2334 2556 2790 3175
4 2811 2205 2336 2254
4 2461 2460 2790 2556
4 2211 2452 2453 2951
4 2211 2774 2775 2951
4 2211 2774 2481 2775
4 2207 2464 2627 2478
4 2207 2476 2958 3602
4 2476 2207 2774 2481
4 3603 3604 830 3605
4 2928 2770 2794 2793
4 3606 876 885 884
4 2928 2770 2333 2327
4 2709 2848 3607 2856
4 2769 3608 3369 3108
4 2767 2803 2766 2903
4 2767 2768 3370 2903
4 2406 2770 2413 2771
4 2406 2413 2359 2405
4 2406 2769 2360 2770
4 3609 733 724 725
4 3110 2328 2322 2333
4 2770 2328 2771 2800
4 2767 2903 3370 3610
4 3222 2197 2188 2189
4 2900 2903 3611 2901
4 2900 3611 2902 3612
4 3613 3614 1582 1573
4 2900 3615 2409 2867
4 2843 2847 2249 2877
4 2779 2535 2249 2877
4 2249 2804 2876 3445
4 2246 2247 2249 2535
4 2247 2690 2696 2689
4 2249 3445 3616 3444
4 2248 3368 3447 2689
4 2843 2877 2249 2535
4 2387 2296 2220 3489
4 2219 2223 2220 2386
4 2222 2386 2230 2219
4 2298 2389 2297 2295
4 2220 3489 2296 3617
4 2220 2301 2615 2386
4 2298 2220 2296 2224
4 3618 3237 3235 3543
4 3618 2968 3235 3619
4 3618 2924 3620 2772
4 3618 2973 2772 3620
4 2543 3255 2440 3216
4 2429 2441 2450 2434
4 2429 2440 3174 3216
4 2543 2271 2441 3256
4 2430 3217 3557 3219
4 2859 3062 2301 2617
4 2543 3257 3255 2735
4 2859 3274 2265 3061
4 3274 2301 2386 2616
4 2263 2264 2272 2265
4 2225 2392 2301 2859
4 2219 2223 2225 2228
4 2300 2228 2391 2223
4 2219 2386 2230 2225
4 2363 2299 3232 2296
4 2704 3146 3534 3621
4 3336 2457 2458 2451
4 2387 2220 3622 3489
4 2298 2224 2296 2297
4 2296 2363 2297 2224
4 2224 3617 2296 2363
4 3623 3169 2805 3256
4 3623 3624 2978 3625
4 3623 3626 3627 3256
4 3623 2805 3169 2978
4 2411 2382 2377 2375
4 3628 3629 3630 3631
4 3628 3631 3630 3632
4 3631 3633 3634 3632
4 3628 3635 3629 3631
4 3628 3629 3636 3243
4 3315 3637 3316 3317
4 3315 3638 3639 3317
4 3014 3640 3641 3017
4 3640 3314 3014 3319
4 3314 3014 2366 3642
4 3314 3642 3315 3016
4 3314 2369 3643 3316
4 3314 3016 3014 3642
4 3314 3016 3315 3017
4 3314 3640 3643 3319
4 3262 3280 3644 3645
4 3262 3268 3281 3264
4 3280 3262 3644 3281
4 3646 3644 3647 3281
4 2439 3077 2438 3291
4 3648 3649 1563 1564
4 2432 2447 2439 2450
4 3043 2594 2439 3076
4 2432 3038 3650 2448
4 3651 3652 1546 1547
4 2439 2450 2447 2438
4 2387 2220 2615 3622
4 2613 2612 2615 3653
4 2612 2615 3653 2638
4 3654 2881 3655 2540
4 2638 3366 2615 3653
4 2193 3656 2571 3657
4 2638 3658 3366 3653
4 3659 2612 3653 2638
4 3532 3530 3531 3660
4 2638 2636 3659 2639
4 2252 2279 2275 2276
4 2779 2279 2782 2870
4 2914 2924 2916 2915
4 2914 2924 2925 2916
4 2246 2250 2914 2278
4 2275 2276 2279 2772
4 3219 2272 3567 2448
4 3219 2430 2431 3557
4 3219 3061 3063 3093
4 3219 3661 2431 3038
4 3219 3661 3557 2431
4 3219 3061 3093 3567
4 2394 2688 3601 3662
4 2398 2686 3013 2970
4 2350 3663 3664 3665
4 2402 3666 2686 2970
4 3667 3130 3607 2829
4 3668 3265 3268 2268
4 3266 3265 3268 3669
4 3266 3275 3213 2226
4 3266 2226 3264 2229
4 2266 3269 2230 2229
4 2976 3296 2975 2489
4 2975 2489 2488 2490
4 2489 2490 3048 2486
4 2484 2744 2489 2488
4 2489 2980 2488 2744
4 2489 3048 2976 3104
4 2486 3296 3104 2489
4 3670 2486 3296 3104
4 3656 1175 1174 1165
4 2235 2910 3148 2236
4 2273 2274 2284 2285
4 2285 3073 2277 2283
4 3148 3514 3073 3671
4 3148 2910 3672 2236
4 2381 2496 2677 3673
4 2900 3225 3615 2867
4 3225 2867 2378 3615
4 3137 2563 2561 3674
4 3607 2829 2830 2856
4 2561 3675 2563 2559
4 2561 2241 3676 2466
4 2465 2561 2241 2459
4 2909 2383 3677 2908
4 3678 118 3679 321
4 3680 3681 3682 3278
4 3680 3683 3681 3684
4 2901 3683 2903 3685
4 3686 3679 1283 119
4 3680 3687 3688 3689
4 3680 3688 3687 3685
4 3680 3278 3688 3277
4 3680 3611 3277 3688
4 3607 2829 3690 2830
4 3691 3692 3693 3140
4 3692 3694 2984 3140
4 2713 2848 2828 2829
4 2856 3607 2829 2848
4 2482 3691 2481 3694
4 2595 2346 3573 2606
4 2984 3141 3692 3140
4 3140 3141 3692 3142
4 2950 3141 3140 3142
4 2910 2236 2233 3152
4 3695 3696 3697 3698
4 2580 3170 2583 2585
4 2958 2476 2478 2480
4 2218 2209 2628 2789
4 2628 2207 2627 3515
4 2478 2582 2627 2581
4 2476 2477 2479 2482
4 2476 2207 2481 2217
4 2496 3673 3699 2677
4 2496 3699 3673 2497
4 2496 2497 3673 2495
4 2496 3700 2500 3384
4 3701 1201 1192 1202
4 2493 2422 2485 2424
4 2492 2422 2449 2798
4 2422 2424 2521 2527
4 2792 2521 2422 2799
4 3375 2493 3379 3381
4 2491 3484 2493 2487
4 2422 2798 2797 2792
4 2526 2485 2422 2527
4 2446 2267 2492 2272
4 2484 2492 2491 2488
4 3442 2688 2685 2687
4 3226 3002 3702 3012
4 3012 3703 2686 2684
4 3704 3705 3706 3697
4 3707 534 533 525
4 3708 3002 3036 3012
4 2415 2684 3012 2686
4 2684 2415 2687 2426
4 2688 2687 3526 2992
4 2991 3525 3588 3526
4 2991 2992 2688 3526
4 2381 2383 3673 2384
4 2760 2698 2699 3384
4 2680 3181 2699 2698
4 2758 2822 2757 2756
4 2760 2702 2698 2473
4 2831 2758 2822 2863
4 2701 2385 2866 2702
4 3467 2971 3468 2400
4 2402 2971 3467 2400
4 3467 3666 3470 3258
4 3709 3420 3423 3424
4 3420 3710 3711 3712
4 3425 2970 2648 3423
4 3421 3468 3138 3425
4 3420 3425 3421 3138
4 3425 2648 2970 2400
4 2261 3713 3714 3154
4 2261 3497 2260 2262
4 3500 3577 3497 2260
4 2692 3413 3250 3192
4 2261 3713 3154 3577
4 2204 2259 2261 2759
4 2259 2261 3577 2260
4 2202 2206 2204 2260
4 2598 2203 2607 2601
4 3715 3716 3065 3717
4 3212 3718 3719 3210
4 3449 3720 1199 1190
4 2944 2700 2943 2348
4 2943 2944 2938 2700
4 3721 3415 3722 3696
4 3244 3723 2944 2348
4 3240 3212 3241 2809
4 3724 3705 3725 3704
4 3726 3727 3728 3729
4 2561 3675 3730 3674
4 2561 3674 2563 3675
4 3137 2241 2555 3135
4 2241 3135 3730 3731
4 2241 3730 3732 2243
4 2241 2243 3731 3730
4 2594 3044 3042 3558
4 2594 2429 2433 3174
4 2594 2431 3558 3042
4 3042 2594 3043 3076
4 2594 2431 3560 3558
4 3072 3073 2693 3068
4 3072 3733 3734 3195
4 3072 2370 3065 3722
4 3190 2286 2694 3733
4 3072 3722 3065 3415
4 2622 3092 2623 3491
4 2345 2622 2346 2347
4 2596 2260 2597 2623
4 2345 3092 2622 2347
4 2596 2624 2605 2932
4 2317 2575 2401 2304
4 2302 2305 2308 2303
4 2644 3020 3056 3024
4 2470 3024 2306 2303
4 2304 2643 3024 2587
4 3024 2650 3023 2587
4 2899 3735 2823 2825
4 2825 3736 2823 2824
4 2825 2823 3736 3735
4 2825 3401 2899 3735
4 2825 3737 3401 3735
4 2690 3248 3411 3410
4 2279 2246 2779 2252
4 2843 2535 2777 2877
4 2246 2249 2248 2804
4 2252 2535 2276 2251
4 2773 2252 2279 2779
4 2357 3401 2355 3738
4 2974 2355 2354 2899
4 3739 2974 2355 2354
4 2825 2355 2899 3401
4 2899 3371 3735 3401
4 2360 3740 3370 2823
4 2974 2407 2827 2899
4 3397 3470 3666 3394
4 2970 3666 3741 3425
4 3425 3397 3741 3710
4 3742 3397 3398 3741
4 3397 3703 3742 3399
4 3389 3397 3470 3710
4 3397 3666 3703 3394
4 3389 3397 3399 3394
4 2446 2492 2449 2450
4 3411 3743 3744 3745
4 2432 3650 2439 2447
4 2492 2271 2441 2272
4 2449 3321 2422 2267
4 2429 2431 2430 3216
4 2441 2450 2434 2798
4 2429 2434 2450 2438
4 2449 2799 3288 2438
4 2429 2450 2439 2438
4 3075 3078 3077 3291
4 2492 2272 2267 2271
4 3746 3747 3748 2812
4 3746 2625 2618 2932
4 3746 2618 2931 2932
4 3746 3748 3749 2931
4 2420 3750 2417 3751
4 2420 2419 2417 3750
4 2420 2418 3750 3752
4 2420 2417 3556 3751
4 3556 2420 2416 2417
4 3426 3420 3753 3754
4 3426 3422 3754 3755
4 3420 3138 3426 3709
4 3426 3422 3756 3138
4 3426 3422 3755 3756
4 3426 3709 3756 3757
4 3420 3709 3426 3711
4 3426 3709 3757 3758
4 2286 2659 2661 2287
4 3721 3412 3704 3724
4 2283 2286 2287 2659
4 2659 2663 3759 3760
4 2659 3761 2663 3762
4 2659 2289 3759 2663
4 3110 2322 2800 3763
4 2358 3110 3109 3084
4 3110 2322 3764 3765
4 3110 2333 3765 3081
4 3110 3766 2322 3763
4 2491 2746 2747 2745
4 2491 3484 2742 2267
4 2263 3267 3266 3275
4 2268 2269 3668 3265
4 2268 2270 2745 2271
4 2268 2742 3668 2269
4 3259 3000 3767 2317
4 2307 2316 2313 2302
4 2317 3057 2316 3767
4 2574 3768 3057 2578
4 2575 3023 2586 2587
4 3020 3024 3023 2682
4 2317 2396 2403 3259
4 2396 2403 2393 2317
4 2574 3057 3768 2570
4 2690 2694 3413 2692
4 2696 2693 3068 3414
4 2694 2693 2696 3414
4 2696 2549 2693 2253
4 2690 2694 2696 3414
4 2247 2248 2696 2253
4 3073 3769 3671 3070
4 3148 3769 3073 2283
4 2694 3072 3733 3073
4 3514 2548 2285 3073
4 3073 2548 2693 3074
4 2424 2521 2421 2422
4 2799 2656 2793 2792
4 2792 2515 2521 2656
4 2792 2797 2796 2794
4 2792 2526 2521 2515
4 3770 2514 2517 2518
4 3260 3263 3771 3772
4 3262 3260 3280 3645
4 3260 3263 3280 3773
4 3260 3263 3773 3771
4 3771 3261 3645 3260
4 3414 3696 3721 3704
4 2394 3000 3662 3259
4 3245 3774 3775 3776
4 2395 2403 2396 3259
4 2393 2971 2402 2400
4 2427 2399 2317 2396
4 2302 2318 2427 2315
4 2393 2398 2397 2400
4 2940 2624 3777 3778
4 2940 3779 2624 3778
4 3780 2940 2836 3781
4 2940 3780 3778 3781
4 2940 2833 2838 3092
4 2940 3092 2624 2939
4 2938 2941 2940 2836
4 3782 2838 3781 2836
4 2838 3781 2836 2940
4 3783 70 71 712
4 2400 2641 3138 2648
4 2640 2401 2400 3468
4 3183 2401 2640 3468
4 3183 2640 3451 3784
4 3785 1733 3786 3787
4 2640 3451 3784 3788
4 2944 2806 3582 3774
4 2295 3582 2935 2807
4 3240 2944 3582 3245
4 3240 3246 2809 3241
4 2295 2806 3582 2807
4 3581 2806 3774 3582
4 2807 3246 2809 2944
4 3789 3774 3775 3581
4 3581 3774 3775 3245
4 3790 3346 3791 3097
4 3792 3790 3124 3793
4 3790 3791 3792 3119
4 3790 3794 3348 3795
4 3790 3346 3348 3794
4 3790 3793 3795 3348
4 3796 2220 2222 3797
4 2220 3797 3617 2221
4 3018 2616 2617 3367
4 3460 3062 3465 2617
4 2611 3460 2301 2388
4 3460 2300 2301 2388
4 3274 2616 2386 3364
4 2617 3460 2301 2611
4 2301 2615 2386 2616
4 3469 3471 3435 3798
4 2395 3258 3469 2685
4 3469 3258 3799 2685
4 3467 3469 2395 3258
4 2842 2841 2531 2836
4 3228 2839 3800 3232
4 2835 2808 2632 2633
4 2839 2373 2842 2299
4 3245 3801 3636 3802
4 2839 3232 2299 2529
4 2345 2939 3091 3034
4 2348 3803 3804 2293
4 3723 2944 2348 3212
4 2348 3804 3805 2293
4 2348 3805 3804 3723
4 3718 3805 3210 3212
4 3726 3705 3806 3724
4 2636 2637 3807 2639
4 2638 2639 3659 2612
4 3808 3809 3245 3776
4 2636 3659 2639 3810
4 2387 3658 2636 3489
4 2470 2697 2682 3056
4 2698 2682 2680 3181
4 2841 2837 2840 3811
4 3812 2840 3813 3814
4 3814 3815 3812 2840
4 2841 3457 2839 2529
4 2837 2842 2839 3474
4 2840 3474 3229 3815
4 2839 3457 2840 3229
4 2717 3060 2720 3059
4 2204 2336 2205 2254
4 2714 3816 2998 3058
4 2720 3817 2995 3816
4 3817 3060 3818 2720
4 2601 3565 3819 3574
4 2720 3820 3818 3817
4 3820 3821 3058 2720
4 3008 3822 3227 3226
4 3001 2686 3013 2972
4 3008 3226 3227 3011
4 3008 3822 3226 3002
4 2419 2417 3324 2972
4 3001 3010 3009 3823
4 3001 3008 3009 3010
4 3003 3008 3001 3002
4 3492 2299 2637 2635
4 2635 2299 3232 2529
4 2635 3492 2636 2637
4 2635 2299 2296 3232
4 2618 2336 2262 2821
4 2604 2932 2748 2931
4 2604 2337 2931 2708
4 2604 2337 2336 2931
4 2604 2336 2206 2618
4 2932 2596 2625 2618
4 2597 2622 2595 2596
4 3824 3825 1749 1748
4 3078 3077 3292 2354
4 3826 1818 1809 1810
4 2354 3080 3827 3828
4 2309 2312 2311 3829
4 3830 151 3831 1923
4 2312 2311 3829 3080
4 3221 2196 2187 2188
4 3080 3829 3832 3827
4 2358 2770 3108 3110
4 3075 2439 3043 3291
4 3833 3832 3083 2312
4 3776 2942 3834 3835
4 3075 2356 2359 2354
4 3134 3136 3307 3135
4 2462 2458 2555 2459
4 2241 2459 2555 2591
4 3137 3730 2241 3135
4 3836 3674 3837 3535
4 2461 2555 2561 2459
4 3137 3535 2557 2563
4 2555 2591 2459 3305
4 3528 2294 2350 2353
4 2294 2351 3533 3838
4 3839 2291 3665 2294
4 2294 3665 2350 2293
4 2353 3528 3664 2350
4 2344 2350 2294 2353
4 2770 2333 3110 3081
4 3134 3302 3136 2555
4 2928 2333 2434 2327
4 2323 2325 2333 2327
4 2406 2769 2767 3370
4 3110 3765 2333 2322
4 2770 2333 2327 2328
4 2323 2333 2328 2327
4 2250 2275 2274 2276
4 3541 2274 2276 3276
4 2942 3244 2943 3835
4 2476 2207 2627 2478
4 2218 2855 2214 3840
4 2218 3840 3841 2562
4 2455 2210 2467 2466
4 2218 2675 2787 2789
4 3361 3842 3843 3501
4 2631 3519 3311 3313
4 2218 3840 2786 3841
4 2383 2384 2379 3844
4 2383 3845 3844 3846
4 2383 3846 3019 3677
4 2383 2384 3844 3847
4 2375 2383 2379 2411
4 2383 2904 3848 2908
4 2383 2384 3847 3673
4 3303 3336 3345 3344
4 2588 2589 2463 3236
4 3849 191 1166 182
4 2588 2459 3583 3325
4 3336 3344 2458 3325
4 2454 2458 2457 2451
4 2707 2709 3528 2708
4 3850 547 556 555
4 2709 2813 2710 2725
4 2709 3528 2857 2813
4 2711 2848 2709 2857
4 2703 2709 3607 2710
4 2205 2203 2254 2602
4 2204 2759 2261 3495
4 2202 2205 2603 2602
4 2204 3495 2254 2759
4 2261 3713 3851 3714
4 3361 3501 3852 3496
4 3715 3853 3854 3855
4 3715 3853 3856 3067
4 3715 3066 3067 3857
4 3715 3854 3853 3721
4 3068 3715 3721 3065
4 3715 3067 3068 3853
4 3715 3066 3065 3067
4 3715 3721 3065 3716
4 3716 3715 3858 3717
4 3859 3860 2089 3861
4 2098 3862 3129 2089
4 3860 3863 3566 3861
4 3860 3864 3143 2215
4 3860 2089 3861 3129
4 2747 3865 3866 2746
4 2746 3647 3268 3668
4 2746 3646 3647 2743
4 2746 3865 3646 2743
4 2491 2747 2746 2743
4 2746 3866 2745 3867
4 2877 2847 3868 3869
4 2877 3870 2876 2875
4 2779 2873 2876 2804
4 2535 2777 2541 2844
4 2249 2876 2877 3616
4 2843 2877 2777 2847
4 2373 2295 2297 2807
4 2298 2388 2301 2300
4 3361 3871 3872 3873
4 3874 206 207 1231
4 3875 3871 3876 3872
4 3354 3358 3361 3360
4 2295 2299 2296 2637
4 2361 2221 2224 2363
4 2635 3232 3489 3459
4 2635 3459 2529 3232
4 2299 2529 3492 3335
4 3877 3129 3566 3602
4 3860 3143 3877 3566
4 3877 2209 3878 2217
4 3877 2209 2217 3143
4 3049 2655 2796 2795
4 2907 3049 3047 3046
4 3047 3049 3100 3103
4 2526 3100 2490 3048
4 2796 2797 3209 2983
4 3100 2977 2797 2490
4 3100 2797 2977 3209
4 2526 3100 2797 2490
4 3047 3048 3104 2976
4 3047 3049 3102 3050
4 2884 2550 2898 3879
4 2884 2550 2889 2898
4 2246 2874 2914 2279
4 2914 2554 2917 2927
4 2550 2927 3880 3881
4 2550 2874 2889 2926
4 2550 3880 2926 3882
4 2386 3269 3364 2737
4 2220 2296 2224 3617
4 2225 2391 3275 2860
4 3274 2386 2230 3364
4 2386 3269 2230 3364
4 2792 2526 2422 2521
4 3883 3501 3871 3520
4 2449 2447 2438 3288
4 2434 2449 2438 2799
4 2792 2797 2794 2434
4 2799 2793 3292 3077
4 2928 2793 2799 3077
4 3275 2860 3884 3885
4 3267 2860 3275 3885
4 2859 3061 3567 3095
4 3275 2860 3213 2226
4 2263 2264 2266 2270
4 2859 3061 2265 3567
4 2374 2934 2369 2297
4 2528 2806 2530 2299
4 2373 2297 2368 2810
4 2297 2936 2228 2374
4 2389 3581 2390 2937
4 2297 2369 2810 2934
4 2295 2806 2637 2390
4 2298 2295 2296 2637
4 2296 2297 2363 2299
4 2231 2244 2235 2284
4 3234 3886 2588 3583
4 2590 3111 3114 3887
4 2590 3583 3111 3887
4 2588 3340 3886 2593
4 3583 2590 2591 2588
4 2591 2588 2459 3583
4 2971 3456 3888 3599
4 2395 2403 3259 3889
4 2395 2403 3889 3888
4 2393 2403 2971 2401
4 3467 3471 3472 3599
4 3469 3890 3435 3600
4 2395 3469 3600 2685
4 2294 3478 2292 3523
4 2350 3528 3664 3663
4 2350 2293 3891 3892
4 2350 2293 3665 3891
4 2350 3892 3893 3664
4 2350 3892 3665 3893
4 2345 2350 2353 3091
4 3091 2943 2345 2350
4 2350 3091 2943 3892
4 2714 2998 3589 3058
4 3173 3496 3852 3501
4 3894 298 297 289
4 2317 3057 3767 2578
4 2574 2570 3768 2579
4 2570 3057 3768 2718
4 2718 3057 3768 3895
4 3563 3254 3896 2728
4 3357 3173 3852 3474
4 3218 3217 3563 3216
4 3897 3898 3563 3367
4 3557 3898 3563 3560
4 3221 2187 2196 3419
4 3563 3560 3896 3254
4 3563 3560 3897 3896
4 3557 3217 3563 3367
4 2263 3899 2267 2269
4 3900 3419 2572 2186
4 2446 3899 2267 2272
4 3267 3899 2269 3347
4 3900 2186 2185 2177
4 2446 3899 2272 2448
4 3901 1283 1292 1291
4 3899 2272 2448 3567
4 3899 2269 3347 3096
4 2469 2470 3056 2697
4 2719 2475 2308 3294
4 2313 2995 2714 2720
4 2472 2475 2719 3294
4 2344 3523 3805 3478
4 3875 3876 3902 3362
4 3477 2346 2610 2347
4 2695 2694 2661 2286
4 2692 2667 2666 2661
4 2838 2834 2837 3903
4 2695 2694 2692 2661
4 2690 2692 3250 2691
4 3904 3905 3906 3907
4 2471 3908 3482 3909
4 2247 2696 2693 2253
4 3414 3192 3696 3413
4 3025 3910 3027 3029
4 3374 2434 2441 2325
4 2440 3255 3174 3216
4 2325 2333 2327 2434
4 2798 3374 2434 2441
4 2429 2431 2594 2439
4 2594 3560 2431 2429
4 2403 3911 3889 3912
4 3217 3063 3061 2617
4 3557 2431 3560 3216
4 2430 3219 2432 2272
4 2432 2448 3219 3038
4 3274 3217 2265 3061
4 2543 3218 2728 3216
4 2430 2264 3217 2265
4 2430 2264 2272 2271
4 3218 3563 3367 2728
4 2228 3014 2366 2374
4 2219 2861 2226 2229
4 2659 3769 2283 2286
4 3073 2283 3769 2286
4 3148 3769 2283 3672
4 3284 3051 194 2196
4 3769 2236 2283 3672
4 3769 3913 3914 3915
4 3769 3913 3915 3916
4 2407 2831 2765 2867
4 2823 2407 2899 2827
4 2442 1655 3917 1664
4 2652 2411 2382 2377
4 2701 2866 2507 2756
4 2701 2758 2702 2756
4 2381 2677 2385 2384
4 2826 2407 2823 2827
4 2382 2411 3019 2383
4 3918 3550 2852 3919
4 3176 3180 3179 3920
4 3921 3230 3229 3918
4 3918 3919 3922 3923
4 3921 3924 3923 3918
4 3918 3925 2852 3800
4 3918 3800 3592 3925
4 3314 2374 2369 2366
4 3014 3122 3016 3214
4 3014 3016 2366 3642
4 2207 2464 2774 2453
4 2811 2818 2205 2254
4 2454 2456 2455 2466
4 2461 2790 2452 2456
4 2951 2451 2452 2453
4 2325 2429 2433 2434
4 2967 2893 2960 2966
4 2439 2433 2438 3081
4 2333 3081 2433 3765
4 2594 3926 3765 3076
4 2594 3765 3926 3927
4 3216 3174 2429 3560
4 2439 2594 2433 3076
4 2580 2478 3928 2986
4 2581 2582 2627 2959
4 2580 2478 2582 3928
4 583 582 591 2505
4 2453 2464 2774 2986
4 2464 2774 2986 2478
4 2478 2774 2986 2477
4 2476 2774 2478 2477
4 2627 2476 2478 2958
4 3719 3508 3929 3930
4 3719 3210 3718 3931
4 3719 3929 3210 3931
4 3719 3210 3211 2809
4 3932 2810 2809 3509
4 3719 2809 3932 3241
4 3508 3242 3719 3509
4 2559 2562 2558 2461
4 3719 3210 3929 3211
4 2440 2330 3255 2918
4 2543 2735 3255 3254
4 2963 2911 3837 2912
4 2338 2603 2752 2339
4 3933 3254 2919 2735
4 3934 2919 3257 2735
4 3255 2330 3935 2919
4 3255 2330 2919 2918
4 2565 2316 2427 2315
4 2402 3425 3666 2970
4 2394 3601 2688 2685
4 2565 2687 2992 3036
4 3442 2687 3012 3936
4 3442 2684 3439 3937
4 3524 2688 3938 3527
4 3442 3526 3936 3939
4 3442 3938 3441 2685
4 2394 3000 3259 2396
4 2596 2622 2624 2623
4 3012 3936 2687 3036
4 3269 2737 2222 3363
4 2730 3269 2737 3364
4 3772 3269 3260 2222
4 2620 3261 2266 2621
4 88 1562 2505 89
4 2264 3218 3269 2620
4 2730 3218 3269 3364
4 3424 3940 3711 3710
4 2608 3205 3207 3202
4 3741 3423 3425 3424
4 3941 3423 3942 3709
4 3423 3942 3709 3424
4 3424 3943 3940 3741
4 3424 3943 3944 3940
4 3424 3945 3741 3423
4 2263 3267 3275 2265
4 3015 3213 3348 2860
4 3275 3095 3885 3884
4 3490 2635 3493 2636
4 2227 3214 2226 2861
4 2227 3214 3014 3015
4 3014 2374 3215 3319
4 2228 3014 2374 3215
4 3267 3266 3213 3265
4 2860 3015 3641 3348
4 3641 2860 3215 3015
4 3267 2860 3885 3348
4 2849 582 583 2505
4 2235 3148 2283 2236
4 2282 2285 2277 2283
4 3073 2283 2286 2277
4 3946 3947 3948 3949
4 2231 2284 2232 2763
4 2235 2231 2236 2245
4 2287 2659 2289 2283
4 2961 3197 2963 3950
4 3951 3435 3471 3952
4 3951 3471 3953 3952
4 3951 3954 3430 3955
4 3199 3197 3201 3200
4 3956 3954 3957 3955
4 3951 3599 3456 3472
4 3951 3471 3472 3953
4 2225 2859 2230 3275
4 2830 1560 1552 1561
4 2430 3219 2265 3217
4 3061 3004 3093 3095
4 3898 3563 3367 3557
4 3267 3275 3567 3885
4 3061 3062 3004 3095
4 2791 2705 3175 2732
4 3336 3337 2791 3345
4 3336 2791 2451 2458
4 3303 2704 3345 2791
4 3837 3958 2963 2912
4 2629 2955 2959 2582
4 3165 2273 2629 2553
4 2629 2553 3166 3165
4 2464 2468 2629 2965
4 2627 2959 2629 2630
4 2627 2464 2629 2582
4 3519 2675 3313 2631
4 2455 2464 2467 2207
4 2467 2629 2464 2468
4 2210 2207 2628 2209
4 3959 3960 3961 3962
4 2464 2463 2468 2965
4 2629 2464 2965 2582
4 3963 3964 2824 3965
4 3963 3966 2822 3327
4 3963 3967 3327 3968
4 3963 2822 3964 3968
4 3969 3970 3971 3600
4 3969 3972 3973 3974
4 3975 3969 3976 3972
4 3441 3969 3890 3600
4 3969 3441 3975 3970
4 3600 3441 3799 3890
4 3001 3003 2415 2417
4 2587 2397 2401 2304
4 2577 2317 2575 2401
4 3002 3008 3001 3012
4 3535 3837 3977 2963
4 3010 2686 3011 3945
4 2564 2993 2992 2994
4 2564 2991 2565 3000
4 2714 2716 2718 2570
4 2313 2720 3060 2995
4 2302 2427 2316 2315
4 2714 3057 2570 2718
4 2564 3000 2316 2998
4 2997 3000 2998 3590
4 3978 1662 1654 1663
4 3000 2998 3590 3767
4 2688 3000 2997 3662
4 2313 3060 2717 2724
4 2231 2284 2288 2244
4 2231 2244 2764 2243
4 2244 3979 2764 2243
4 2231 2764 2244 2288
4 2557 2961 3308 3980
4 3008 3011 3001 3012
4 2402 3425 2970 2400
4 3420 3709 3423 3138
4 3420 3425 3424 3710
4 2686 2970 3741 3945
4 3666 3741 3425 3397
4 2398 2648 2970 2428
4 2393 2317 2304 2399
4 3335 2529 3459 2531
4 2841 2529 2531 3459
4 2531 3476 3981 3335
4 2531 3476 2941 3458
4 2841 3982 3459 3981
4 2842 2837 2841 2836
4 3008 3009 3983 3003
4 3822 3984 3002 3003
4 3822 3226 3985 3227
4 3822 3986 3985 3987
4 3822 3984 3988 3986
4 3822 3003 3988 3984
4 3989 2514 3990 2658
4 2651 2656 2658 2515
4 2658 2653 2509 3187
4 2658 2509 3991 3187
4 2656 3290 3991 3989
4 2656 2657 3292 2793
4 2656 2514 2521 3290
4 2651 2792 2656 2515
4 2656 3292 2657 3992
4 3219 3038 3567 3093
4 3674 3993 3994 3836
4 3174 3216 3935 3560
4 2431 3558 3042 3661
4 3557 2431 3558 3560
4 2594 3174 3927 3560
4 2594 3559 3558 3560
4 2594 3927 2433 3765
4 2700 2833 3092 3475
4 2938 2700 2833 2939
4 2940 2833 3092 2939
4 2895 3837 2911 2913
4 3777 3778 2624 2625
4 2575 2586 2576 2577
4 2676 2385 2680 2681
4 3995 3996 2913 2895
4 3451 2587 3021 2650
4 3020 3023 2650 3021
4 2470 3024 2682 3023
4 2304 2303 3024 2643
4 3020 2650 2644 3030
4 2470 2682 2698 3023
4 3997 1561 1552 1553
4 2845 3444 2689 2249
4 3696 3413 3704 3414
4 2694 2286 3073 3733
4 3073 2277 2693 2548
4 2696 3368 3998 2549
4 2696 3414 3068 3448
4 2742 2269 3265 3668
4 2742 2269 2267 3096
4 2743 2487 3999 3270
4 2491 2743 2487 2747
4 3270 2487 3999 3377
4 2742 3097 3377 3270
4 2467 2629 2468 2233
4 2959 2630 3515 4000
4 2959 4001 2630 4000
4 2959 3166 2630 4001
4 2581 2955 2959 2957
4 3889 3888 3430 2395
4 2403 3912 3185 3911
4 2403 2401 2577 3185
4 3468 2401 2971 3183
4 2403 3185 3912 3453
4 3290 3292 2799 2656
4 2359 2354 2657 3292
4 2652 2651 2413 2653
4 2656 2521 2799 3290
4 2651 2654 2909 2655
4 2651 2794 2792 2795
4 2770 2794 2657 2413
4 2359 3292 2657 2793
4 2359 2657 2405 2413
4 3748 2750 2931 2751
4 3746 2812 3748 2931
4 3746 2812 4002 3747
4 4003 4004 4005 4006
4 3142 3141 3747 2812
4 4007 3748 4008 3141
4 2505 88 582 591
4 3748 3749 2931 2750
4 3748 3749 4009 4010
4 3748 4010 4009 4008
4 3748 4008 3141 3747
4 3183 3177 3454 3178
4 3708 4011 3937 3936
4 3708 3702 4012 4013
4 4014 4013 3708 4012
4 3708 4015 3036 3002
4 3952 4016 4017 4018
4 2380 2379 4019 4020
4 2380 2679 4019 2379
4 2375 2378 2380 2376
4 2380 2376 2378 4020
4 2690 2696 2689 3414
4 2694 2692 2661 3192
4 583 591 592 2505
4 3413 3250 4021 4022
4 3413 3250 3192 4021
4 4023 2380 4024 4025
4 2380 2471 4025 4023
4 3997 1561 1553 1562
4 4026 459 451 460
4 2682 2697 4023 3028
4 2471 4027 4028 4029
4 2676 2471 4023 2697
4 4030 812 813 821
4 2680 2682 2470 2697
4 95 1499 519 96
4 3952 4031 4017 4032
4 2430 3218 3216 3217
4 3467 3470 3425 3473
4 2997 3525 3598 2999
4 2263 2271 2268 2267
4 2230 2266 3275 2265
4 2264 2270 3256 2620
4 4033 4034 4035 3598
4 2270 2745 3626 2621
4 2403 2401 3185 3453
4 4036 2179 2187 2178
4 2401 2587 2640 2400
4 3888 3954 4037 3438
4 3435 3436 3600 3431
4 3021 3183 2401 3451
4 3857 2170 2169 2161
4 4038 422 430 421
4 4039 1609 1610 1618
4 2278 2551 3881 2550
4 2693 2277 2253 2548
4 2246 2535 2252 2251
4 2250 2273 2553 2285
4 2250 2278 2553 2969
4 2695 2287 2251 2277
4 2275 2969 2915 2250
4 3190 3192 2694 2661
4 4040 4041 4042 4043
4 4044 1809 1800 1801
4 2695 2277 3073 2286
4 2395 3888 3430 3599
4 3190 2694 2286 2661
4 2695 2286 2661 2287
4 4045 1181 1191 1190
4 3997 4046 1553 1552
4 2694 3696 3194 3415
4 2247 2690 2694 2696
4 4047 1991 2000 1999
4 3618 2968 3619 4048
4 2968 3164 4049 4050
4 3618 2968 2275 3235
4 4051 1752 1753 9
4 3746 4052 4002 4053
4 4054 4055 1266 1275
4 3855 4056 3332 2179
4 4052 4057 4010 3747
4 4052 4058 4053 4059
4 4052 4053 4060 4002
4 4052 4059 4061 4058
4 4052 4060 4057 3747
4 2404 2867 2409 2378
4 2404 2377 2867 2378
4 2409 4062 4063 2902
4 4064 1799 4065 1808
4 4066 294 285 286
4 4067 327 328 336
4 2830 3997 3132 1561
4 4068 1758 1759 15
4 2768 2766 2409 2902
4 2409 2410 2408 4062
4 2945 2938 2531 2941
4 4069 313 321 312
4 2938 2836 2940 2833
4 2838 3903 2837 3782
4 2838 3903 4070 2834
4 2406 2771 2413 2766
4 2838 2836 3782 2837
4 2940 2833 2836 2838
4 3616 4071 4072 4073
4 4074 4075 4076 4077
4 2641 2650 2640 2647
4 2650 3026 4078 3027
4 2587 3021 2650 3023
4 2683 3028 3029 2682
4 4079 4080 735 744
4 2575 2698 2473 2576
4 4081 371 379 370
4 4082 4083 4084 4085
4 4082 4086 4083 4085
4 4082 4087 4084 3357
4 4088 1847 4089 1856
4 4090 393 384 385
4 4082 3474 4091 3815
4 4082 4092 4091 2834
4 4082 4086 4091 4092
4 4082 3852 3358 4083
4 4093 3635 4094 3461
4 3635 3461 4093 4095
4 3416 1199 1200 1209
4 4096 402 393 394
4 3635 2937 3581 2935
4 3635 3245 3629 3581
4 3635 4095 3808 3581
4 2219 2225 2223 2386
4 4097 4098 1789 4099
4 4100 403 411 402
4 2392 3189 3007 3188
4 2361 2297 2374 2369
4 4101 840 839 831
4 2903 3683 3684 4102
4 4103 741 732 733
4 2225 2391 2392 2859
4 2389 2937 2933 2935
4 2220 2224 2221 3617
4 2298 2295 2637 2390
4 2298 2300 2390 2388
4 4104 4105 4106 4107
4 3463 2388 2614 2639
4 3463 2639 2614 4108
4 4108 3463 4109 4110
4 4111 78 1661 1652
4 3463 2937 4095 3461
4 3460 3463 2390 2388
4 4111 77 78 681
4 3930 533 532 524
4 4112 154 923 914
4 4113 47 48 563
4 4114 3463 4115 4095
4 3463 4116 4095 4114
4 2505 89 582 88
4 90 564 2869 573
4 3463 2614 4117 4110
4 4118 1251 1242 1243
4 4119 1725 1726 1735
4 4120 546 93 1517
4 2839 3232 3457 3800
4 3459 3335 3493 3492
4 2841 3981 2531 3458
4 2841 3811 2840 4121
4 4122 1017 1008 1009
4 2841 3457 3459 4121
4 2373 2297 2810 2807
4 3762 1108 1107 1099
4 4123 1627 1618 1619
4 2842 2839 2299 2529
4 2841 3458 2836 2837
4 2408 3019 4124 4125
4 2344 3477 3478 3805
4 3805 3477 4126 3210
4 2344 2349 3477 3805
4 2344 2294 3523 3478
4 3171 2349 3172 3475
4 4127 686 694 685
4 2349 3210 3172 3481
4 4128 1154 1155 185
4 3171 2700 3212 2349
4 2344 2345 2350 2353
4 2345 2348 2344 2350
4 2345 2943 2700 2348
4 2345 2622 3092 3034
4 2586 2576 3184 3177
4 3177 2576 3184 3180
4 4129 17 293 284
4 4130 1684 1694 1693
4 4131 4132 1303 1302
4 3176 2698 3920 3181
4 3920 2698 3384 3181
4 2760 2866 3384 2699
4 3176 2586 3023 3021
4 2676 2376 2380 2471
4 2680 2698 2702 2473
4 2993 4133 2566 3551
4 2564 3816 2714 2995
4 2993 2566 3552 3551
4 2993 2566 4133 2995
4 2993 3037 4134 3552
4 4135 788 779 139
4 2564 2993 2566 2992
4 2993 4134 2992 2994
4 3184 3177 3180 4136
4 3184 3185 4137 4138
4 3904 3184 4136 4138
4 4139 4140 4141 851
4 3105 857 849 858
4 4142 1380 1389 1388
4 4143 1116 1107 1108
4 4144 1863 1871 1862
4 4145 4146 4147 1874
4 4148 401 409 400
4 4136 3907 3385 3904
4 3184 3185 3177 4137
4 4149 326 318 327
4 3184 2576 2577 3904
4 3184 3185 3904 2577
4 3840 4150 2855 4151
4 2218 2787 2214 2789
4 2218 2673 2210 2456
4 4152 593 602 601
4 2214 4153 4154 3239
4 2218 3840 2562 2855
4 3840 4155 2787 2786
4 3840 3841 2562 4156
4 3840 4155 2786 4156
4 4157 461 460 452
4 4158 472 4159 4160
4 4161 688 687 679
4 3997 2256 1562 2505
4 2212 2213 2214 2819
4 4162 508 499 500
4 3532 585 3531 576
4 4163 559 551 560
4 3814 4164 4165 1990
4 2703 2705 2708 2751
4 3282 931 930 922
4 2705 3175 2732 2339
4 4166 578 586 577
4 4167 602 610 601
4 2711 2713 3534 2704
4 2240 1549 1548 1540
4 4168 570 569 561
4 2705 2337 3175 2339
4 2791 2705 2732 2704
4 4169 985 993 984
4 4170 631 639 630
4 2389 2933 2300 2936
4 4171 535 527 536
4 2373 2632 2368 3228
4 2637 3807 2639 4172
4 2636 3807 2637 3492
4 2387 2612 2388 2639
4 4173 4174 4175 4176
4 2296 2387 2635 3489
4 4171 4177 4178 526
4 2636 3490 3489 3658
4 4179 496 487 488
4 4180 425 4181 426
4 4182 608 599 52
4 2830 1551 1552 1560
4 4183 1205 1195 1196
4 3387 3870 4184 4185
4 4186 696 695 687
4 2297 2228 2389 2298
4 2637 2390 4172 2388
4 4187 602 593 594
4 4188 986 161 162
4 2625 3087 3086 3085
4 4189 2849 2848 4190
4 2932 2931 3749 2750
4 3779 2940 3780 3778
4 4191 1161 1160 188
4 2622 3034 2624 3092
4 2862 2865 4192 3278
4 4193 4194 4195 1013
4 3746 4052 4053 2625
4 3338 4196 4197 4198
4 2932 2931 2750 2748
4 3602 2207 3515 2958
4 2573 2185 3900 2186
4 4199 1530 1538 1529
4 4200 2116 2124 2115
4 2981 2453 2774 2986
4 2211 2774 2951 2453
4 2453 2951 2981 2774
4 2454 2451 2462 2458
4 2462 2732 2557 3308
4 2557 2556 3980 2732
4 4111 4106 4201 4105
4 2557 3980 2560 2961
4 4071 4073 1216 1207
4 3134 3309 3302 3308
4 2462 3302 2555 2458
4 2557 2560 3535 2961
4 4202 2114 2105 2106
4 2461 2790 2558 2556
4 2346 2606 2351 3573
4 2622 2609 2346 2347
4 4203 694 693 685
4 2344 2294 2351 2353
4 2353 2606 2727 3528
4 4204 1128 1119 1120
4 4205 2118 2127 2126
4 2877 3869 2777 2847
4 1553 89 582 2505
4 2595 2605 2346 2606
4 4206 1773 1772 1764
4 2353 3091 3664 3033
4 2323 2321 2325 2330
4 2323 2324 2331 2330
4 2327 2328 2329 2771
4 2333 3174 2321 3927
4 2681 2699 3181 4207
4 2278 2553 2969 2554
4 3970 3894 307 4208
4 4017 736 728 737
4 2553 2554 2552 3167
4 4209 747 748 756
4 4210 333 341 332
4 2278 2548 2553 2552
4 2209 2789 3878 3515
4 4211 211 212 1241
4 3877 3602 2217 3878
4 4212 1784 1775 1776
4 4042 387 386 378
4 3877 3602 4213 3129
4 4214 4215 4216 4217
4 2673 3841 2466 2456
4 4218 1342 1333 1334
4 2628 2789 2209 3515
4 4219 4220 4221 4222
4 2208 2213 2216 2215
4 2381 3673 2383 2495
4 2384 3847 3673 2677
4 4223 1419 246 1410
4 3580 454 453 445
4 4224 361 4225 4226
4 4227 538 546 537
4 2382 2507 2509 2653
4 2461 2556 2462 2460
4 2454 2452 2461 2460
4 2555 2459 2458 3305
4 2231 2241 3151 2243
4 2465 2457 2593 2453
4 2241 2591 2243 2242
4 2465 2241 2591 2459
4 4228 831 822 823
4 2465 2234 2588 2591
4 4229 111 1355 4230
4 3381 2423 3379 4231
4 2459 3325 2458 3305
4 4232 1905 1897 1906
4 2465 2233 2466 2468
4 2476 2480 4233 2479
4 2958 2480 2964 4205
4 3128 4205 4233 2958
4 2411 4124 2379 4020
4 2958 2964 3515 3878
4 4234 1440 1432 1441
4 4235 4236 801 810
4 4237 1038 1046 1037
4 2958 3878 3602 4213
4 4238 917 916 908
4 3949 449 457 448
4 4239 1398 1407 1406
4 4240 4241 4242 4243
4 2773 2780 2776 2782
4 4240 3571 3476 4244
4 4245 1488 1496 1487
4 4246 4247 486 4248
4 3571 4249 4240 4250
4 4240 4251 4252 4243
4 4253 4254 1706 130
4 2689 3414 2696 3448
4 3368 3998 2887 3417
4 3998 2689 3448 3446
4 4255 469 477 468
4 3368 3417 3447 3446
4 3486 4256 4257 4258
4 3447 2248 3445 2804
4 3361 4259 3843 3842
4 3368 2549 2891 3998
4 2551 2887 3368 2891
4 4120 92 546 555
4 3585 3584 3630 4260
4 4261 565 556 557
4 3368 2887 2804 3447
4 3797 4262 2851 3263
4 4263 1908 1899 1900
4 4264 450 442 451
4 4265 234 4266 2057
4 3634 504 503 495
4 4267 4268 4269 4270
4 2380 4029 2376 4020
4 3796 3593 3622 2220
4 2222 2221 3263 3797
4 3651 1538 4271 1547
4 2904 2508 2497 4272
4 3772 3263 3796 2222
4 3263 3796 2222 3797
4 4273 637 645 636
4 4274 4104 4275 4106
4 4276 4204 1128 1119
4 3846 4125 3287 4277
4 2517 4278 2520 4279
4 4278 2518 3770 2517
4 3846 4124 4277 4019
4 4277 4280 4281 4282
4 4283 2144 2152 2143
4 4284 630 639 638
4 4277 4285 4281 4286
4 3846 4277 3287 4287
4 4288 4289 4231 3379
4 4290 1201 1191 1192
4 2517 2519 3379 4289
4 2517 2520 2519 4291
4 2437 1238 6 200
4 2517 2520 4291 4279
4 2877 2777 3869 2776
4 2252 2276 2777 2776
4 2778 2776 4292 2777
4 3611 4293 4294 3612
4 2777 4295 2778 2541
4 3003 4296 3984 3556
4 4297 4056 2170 2171
4 2777 2541 2844 4295
4 2777 4298 3485 3869
4 3986 4299 3987 4300
4 3825 4301 1739 1748
4 295 4302 296 4303
4 2777 3485 4298 4304
4 2299 2530 2529 3335
4 2389 2295 2935 2807
4 4305 214 1725 1734
4 3612 4063 4147 4306
4 3508 4307 3509 4308
4 4309 4310 3162 4311
4 4309 3162 4312 4311
4 4309 3643 4313 3316
4 4314 1705 1714 1704
4 4309 3211 3162 3509
4 4315 1777 1778 1786
4 2822 3326 3327 3966
4 2701 2758 2831 2472
4 3963 2824 2822 3966
4 3963 2822 2824 3964
4 3963 2822 3968 3327
4 2761 2831 2472 2864
4 2822 2825 3964 2826
4 4316 4317 1796 4318
4 4319 4320 4321 329
4 3612 4147 4063 4145
4 4322 1267 1266 1258
4 4323 748 749 757
4 3057 3767 4324 3589
4 2714 3589 2718 3058
4 4269 4325 4268 1859
4 2564 2994 2991 2998
4 2998 3058 3816 2996
4 2219 2861 2227 2226
4 2362 2227 2228 2861
4 3014 3319 3215 3641
4 3314 3014 3319 2374
4 4294 3612 4293 4027
4 3314 3642 2366 2369
4 4326 272 271 1764
4 3314 2369 3318 3643
4 3219 3038 3093 3661
4 4327 3075 3084 3076
4 3557 3558 3661 3562
4 3558 4328 4329 4330
4 3558 4328 3562 3559
4 3557 3367 3898 4331
4 3557 3560 3559 3898
4 4332 1844 4333 1853
4 3093 3219 3661 3557
4 2334 2790 2335 3175
4 2334 2335 2337 3175
4 4334 152 153 905
4 4335 955 946 947
4 4336 1893 1902 1901
4 2335 2785 3175 2954
4 3748 2335 2812 2783
4 2705 2785 2335 2751
4 2226 2861 3264 2229
4 2228 2391 2860 3215
4 4251 1495 1504 1503
4 3319 3640 3641 3014
4 4337 1404 1395 1396
4 3483 874 882 873
4 2225 2226 2227 2860
4 2219 2229 2221 2861
4 4338 1951 1952 1960
4 2323 2331 2320 2321
4 4339 496 505 504
4 3521 542 550 541
4 242 4340 1455 1446
4 2433 3081 2333 2434
4 4341 903 894 895
4 2328 2801 2771 2800
4 2769 2770 2800 3108
4 2422 3321 2423 2493
4 4342 4343 4344 4345
4 3075 4327 3079 3043
4 4346 4347 2127 2128
4 2429 3560 2431 3216
4 2799 2438 3077 3288
4 4348 612 621 620
4 2928 2438 3081 3077
4 2414 2398 2426 2972
4 3666 3741 3742 2686
4 3666 3439 3258 2684
4 3666 3258 3439 3394
4 2970 3945 3423 3741
4 4349 1563 230 1554
4 4350 584 593 592
4 3091 3033 4351 3664
4 2596 2605 2604 2932
4 2345 3034 3091 3033
4 2293 3803 3892 2348
4 2348 2350 3892 2293
4 2353 2727 3033 3664
4 4352 3820 4353 3821
4 3612 4089 4354 4027
4 2350 3664 3091 3892
4 2574 2576 2575 2473
4 2575 2470 3024 2306
4 2469 2472 3298 3294
4 2760 2702 2757 2756
4 4355 1489 1481 1490
4 2469 2470 2306 2303
4 2576 2579 2577 3904
4 3176 3182 3021 3181
4 2474 2760 3328 2473
4 2574 2579 2576 2473
4 4356 2103 2112 172
4 4357 1647 4358 1656
4 4290 1191 3720 4359
4 3225 4293 4028 2864
4 2701 2866 2377 2507
4 4360 1600 1608 1599
4 2676 2682 2683 2681
4 3633 4361 4094 4362
4 2436 200 1672 201
4 4290 1201 1200 1191
4 3418 1210 1200 1201
4 2474 2758 2702 2472
4 2760 2699 2702 2866
4 2826 2756 2701 2507
4 2491 2271 2268 2745
4 2263 3267 3899 2269
4 3720 1191 1200 1190
4 2263 3899 3267 2265
4 4363 4364 4365 1702
4 2263 2268 3266 2269
4 4366 1480 1472 1481
4 2607 2946 3158 2966
4 2607 3158 2946 3565
4 2607 2603 2608 3201
4 4367 1256 1247 123
4 2203 2607 3156 3158
4 2203 2602 2607 3158
4 2602 2607 2966 2603
4 2607 2603 3201 2966
4 2607 2949 3207 3565
4 2768 2900 2867 2765
4 2768 2900 2409 2867
4 2831 3277 3278 2901
4 2872 0 217 8
4 501 2281 98 97
4 4368 278 287 286
4 3278 2831 2901 2862
4 2680 2701 2385 2376
4 2701 3225 2831 2867
4 2701 2653 2377 2407
4 4051 276 8 9
4 2364 2365 2366 2362
4 4211 1707 212 211
4 3612 4354 4145 4063
4 4369 216 1246 1245
4 2366 2369 3642 3637
4 3686 1274 120 1283
4 2369 2361 2368 2366
4 4370 277 9 10
4 2366 2365 3637 3642
4 2362 2366 3122 2365
4 3519 2628 3515 2789
4 4371 4369 216 1246
4 2631 2233 2466 2674
4 2454 2561 2461 2456
4 2561 2466 3841 2456
4 3152 2233 2674 3676
4 4372 278 10 11
4 2465 2561 2466 2241
4 2455 2207 2210 2211
4 2457 2988 2453 2451
4 4373 1726 1725 1716
4 4372 11 279 278
4 4374 12 279 11
4 3063 3562 3093 4375
4 4375 4376 3946 3948
4 4375 4376 4377 3562
4 4375 4378 3464 4379
4 2219 2222 2221 2229
4 2219 2220 2224 2221
4 2221 3925 2363 2852
4 4380 1757 1747 1748
4 2221 3263 2861 2229
4 4381 13 280 12
4 2338 2603 2966 3201
4 4382 4380 4381 4383
4 2338 2560 3980 2960
4 2338 2560 2556 3980
4 2205 2338 2337 2603
4 4382 13 14 281
4 2602 2338 2967 2818
4 2602 3157 2254 2818
4 3311 4384 4385 2788
4 2788 4386 4387 4388
4 4389 2787 4390 2788
4 4294 4089 4391 4392
4 2788 3519 4386 4393
4 2788 4388 4384 4390
4 2788 3311 4387 3519
4 2665 4394 2289 3759
4 4382 1757 1758 14
4 4382 281 4381 13
4 4395 290 291 299
4 2665 3979 4394 3759
4 2665 2663 4396 3759
4 3686 3679 119 312
4 2723 2567 2568 3752
4 2723 3752 2418 2567
4 4397 21 329 320
4 3686 120 119 1283
4 4294 4027 4293 4391
4 2314 2318 2567 2418
4 3333 2722 3554 4398
4 2721 2723 4398 2418
4 4399 4400 1791 1792
4 3686 303 4401 312
4 4402 283 292 291
4 2723 3554 4398 3752
4 2558 2819 2855 2818
4 2218 3841 2673 2456
4 2208 2218 2214 2209
4 2452 2954 2460 2951
4 2455 2467 2464 2468
4 2223 2301 2220 2386
4 4031 4403 4018 4404
4 2300 2933 2937 3188
4 3686 119 120 303
4 4405 1745 1755 1754
4 4406 730 731 739
4 4380 1747 1757 1756
4 4407 16 4408 284
4 3318 2374 2934 2369
4 3181 4207 2699 3384
4 2637 2806 3492 3789
4 4068 4402 282 283
4 4407 284 283 16
4 2637 2388 4172 2639
4 3463 2390 2388 4172
4 2389 2937 2935 3581
4 3904 3907 4409 3905
4 2390 2806 3789 3581
4 2721 2425 2318 2418
4 2305 4410 3041 2425
4 4407 1759 4068 4411
4 2304 3041 2305 2643
4 2305 2643 4412 2303
4 2305 2314 2302 2308
4 4408 17 284 1
4 2302 2306 2303 2308
4 2263 2272 3899 2265
4 2446 3899 3096 2267
4 3899 2272 3567 2265
4 2441 3256 2271 3169
4 2439 2432 2431 3043
4 3219 2272 2265 3567
4 2543 2264 2271 3256
4 4367 122 1256 123
4 2514 3990 2658 2516
4 2514 2518 3990 2516
4 2513 2516 2520 2518
4 1320 1850 4413 257
4 3989 3290 3991 4414
4 2514 3989 3770 4415
4 3290 2514 3989 2656
4 2665 2662 2663 2289
4 4416 1256 4417 1255
4 4418 1265 1256 122
4 4401 304 4419 313
4 4420 211 1241 1240
4 2665 3979 4421 4394
4 3979 2243 3151 3732
4 3979 4422 4423 4421
4 2244 4394 3979 3759
4 3686 312 119 303
4 4401 313 312 304
4 4211 1698 1707 211
4 4424 280 288 279
4 2244 4425 2289 2288
4 3979 4422 2764 4423
4 4411 1749 1759 1758
4 4382 1757 14 13
4 2391 3095 3884 3007
4 3275 3095 3884 2391
4 4383 290 282 291
4 2392 2301 2859 3062
4 3218 3563 3217 3367
4 3262 3260 2266 2229
4 4426 1727 1728 1737
4 4016 4017 737 736
4 3269 2230 2229 2222
4 3976 290 298 289
4 2859 2617 3061 3062
4 4427 125 717 124
4 4428 18 19 302
4 4429 289 280 281
4 4430 3010 3011 4431
4 3424 3741 3945 4431
4 3423 4432 3424 3945
4 3942 3423 4432 3424
4 3945 3423 4433 3013
4 4014 1261 1252 1253
4 4434 1269 1277 1268
4 4004 766 3788 3455
4 3945 3423 4432 4433
4 3010 2686 3945 3013
4 3010 3945 4433 3013
4 3010 3945 4431 4432
4 4435 4436 4437 3906
4 2214 2855 2819 4438
4 2461 2556 2558 2560
4 2561 2555 2241 2459
4 2212 2819 2214 2855
4 4129 293 17 18
4 4381 4380 1757 1756
4 2790 2556 2460 3175
4 2811 2821 2254 2336
4 2213 2811 2820 2819
4 4118 4012 4439 3518
4 4269 256 1859 257
4 2558 2338 2560 2556
4 2334 2337 2205 2338
4 2282 2289 2290 4425
4 4418 121 122 285
4 120 4440 303 294
4 4441 3907 3906 4435
4 2282 2289 2287 2290
4 2287 2289 2662 2290
4 2284 2289 2283 2282
4 2244 2288 2764 4425
4 4303 287 295 286
4 2244 2245 2289 3759
4 4442 304 303 295
4 3686 4440 4443 303
4 3576 4444 3577 3156
4 4444 4445 4446 3576
4 4447 732 3753 741
4 4033 306 314 305
4 3956 3957 755 4448
4 4449 305 296 297
4 4444 4450 3156 3564
4 4451 4452 760 751
4 4453 1731 1732 1741
4 4301 1748 1738 1739
4 4454 1241 1242 1250
4 4449 305 297 306
4 4032 293 301 292
4 3971 299 308 307
4 4444 3154 3577 3156
4 4444 3154 4445 3577
4 4455 4403 4456 1742
4 4444 3154 3155 4450
4 4428 302 293 18
4 4444 3154 3156 3155
4 3171 2528 2808 2809
4 4457 309 308 300
4 4458 309 317 308
4 2229 3260 2266 3269
4 3267 3899 3567 2265
4 4459 300 292 301
4 4460 720 729 728
4 3321 2267 3096 3484
4 4461 310 318 309
4 3899 3096 3347 3082
4 3347 4462 3082 3096
4 4032 301 293 302
4 3096 3099 3406 3484
4 3406 3404 4462 3096
4 3525 3526 3527 4463
4 3442 2687 3936 3526
4 4017 726 727 735
4 2910 3312 4464 3672
4 3679 118 1292 119
4 2588 2589 2468 2463
4 2234 2468 2232 2233
4 2464 2582 3928 2965
4 4269 256 1320 1329
4 2232 2629 2233 2468
4 2589 2763 2965 3236
4 4465 192 193 1175
4 2231 2242 2243 2764
4 3979 2243 4423 2764
4 4466 210 4420 1240
4 4066 294 286 295
4 4135 4467 4468 1815
4 2241 3731 2243 2591
4 2243 3730 3732 4469
4 4302 295 296 304
4 2243 4470 2764 2242
4 3971 307 298 299
4 2243 2242 3731 4470
4 4136 4436 4471 4137
4 3906 4436 4437 4471
4 2692 2666 2691 2536
4 3686 120 1274 4440
4 2672 2666 2664 2290
4 4472 316 307 308
4 4473 315 323 314
4 2666 2287 2290 2536
4 4016 4448 746 737
4 2508 2495 2516 2904
4 4457 308 3433 3971
4 4457 308 299 300
4 2658 2516 2508 2495
4 4435 354 353 345
4 2516 4474 2518 2905
4 2654 2516 3045 2515
4 2654 3045 2516 3035
4 4475 302 310 301
4 4476 327 319 328
4 4080 19 311 302
4 4138 4477 3911 4478
4 3432 310 309 301
4 4479 20 21 320
4 3427 3430 3435 3434
4 4381 4429 4383 4380
4 3435 3955 3430 3431
4 3890 3435 3798 3469
4 3951 3435 3430 3599
4 3469 3599 3435 3471
4 3435 3952 3798 3471
4 2313 2567 2566 4133
4 4480 319 311 320
4 2416 2566 3552 3037
4 2564 2566 2565 2992
4 3713 3154 4481 4482
4 3108 2770 2800 3110
4 2771 2983 2794 2410
4 2333 2770 3110 2328
4 2770 2771 2794 2413
4 4401 304 312 303
4 2357 3083 3107 3738
4 2325 2434 2326 3374
4 4419 305 313 304
4 2329 2327 2331 2320
4 2771 2413 2410 2794
4 4483 314 323 322
4 4426 1726 1727 1736
4 2328 2329 2801 2320
4 2767 2771 2801 2800
4 2835 2833 3475 2832
4 2941 3780 2940 2836
4 4033 306 315 314
4 4473 315 324 323
4 3458 2837 4484 2836
4 4138 4485 3905 4486
4 2838 3777 4070 3781
4 2837 2842 2833 2836
4 3507 1728 1719 1729
4 3352 1296 1305 1304
4 4487 316 324 315
4 4488 764 763 755
4 4489 789 4490 790
4 2410 4491 3285 2408
4 4294 3611 3277 4293
4 4458 318 317 309
4 4477 326 4486 335
4 2900 2901 3611 3277
4 2831 2900 3225 3277
4 2900 3277 3611 4293
4 2900 4293 3225 3277
4 3611 4492 4294 4493
4 3684 3683 2903 2901
4 3680 3611 3688 3685
4 2521 4494 2424 2421
4 2513 2527 2521 2424
4 3292 2799 2656 2793
4 4479 320 311 20
4 4461 318 310 319
4 343 4495 4477 334
4 4397 22 329 21
4 2404 2405 2653 2413
4 4319 329 328 320
4 2658 2514 2516 2515
4 3954 3428 3956 4488
4 2658 3989 2509 3990
4 2332 4496 4497 2320
4 2332 4497 4496 4498
4 2328 2771 2801 2329
4 2332 2330 2331 2324
4 2331 2329 2982 2326
4 2331 4497 2923 4499
4 2331 4497 4500 2320
4 2331 4497 4499 4500
4 2331 2982 2329 4499
4 3730 4469 4501 3732
4 4483 322 313 314
4 3730 3676 4502 3675
4 2572 4503 2571 4465
4 2561 3676 3730 3675
4 4504 322 330 321
4 4505 3676 4502 3732
4 3676 4502 3732 3730
4 3137 3836 3674 4506
4 2571 192 2194 4465
4 3137 3730 4506 3674
4 3730 4502 3732 4507
4 2405 2974 3187 3992
4 4508 3787 4403 4453
4 4509 1279 1270 1271
4 4326 4130 4510 1684
4 3994 3730 4507 4502
4 3712 3473 4511 3421
4 4512 317 325 316
4 3730 4502 3994 3674
4 4513 325 333 324
4 4512 325 317 326
4 2810 2369 3316 4313
4 4487 316 325 324
4 2810 2934 2809 2807
4 3254 3216 3935 3255
4 3932 2369 2934 2810
4 3181 3920 3182 3373
4 4514 4515 4516 4517
4 4514 4195 4518 4519
4 4514 4516 4520 4521
4 4514 4518 4195 4522
4 4523 24 347 23
4 4476 319 327 318
4 4320 22 23 338
4 4514 4516 4521 4193
4 2884 2891 2551 3879
4 2884 2551 2804 2874
4 4017 727 728 736
4 4319 320 328 319
4 2246 2253 2247 2251
4 2246 2252 2535 2779
4 4524 344 352 343
4 2804 2886 3447 2887
4 2278 2550 3881 2554
4 4067 336 328 337
4 4321 337 328 329
4 2246 2550 2914 2874
4 2450 2430 2441 2429
4 2492 2805 2488 2490
4 2271 2805 3256 2745
4 2271 2488 2805 2745
4 2491 2271 2492 2267
4 2515 2656 2514 2521
4 4525 375 112 366
4 193 2572 2195 4465
4 4526 323 331 322
4 3381 3406 3484 3321
4 2796 2795 2794 2983
4 2797 3374 2798 2977
4 4210 333 342 341
4 2797 3374 2434 2798
4 2434 2799 2792 2798
4 2326 2797 3374 2434
4 4527 3070 3916 3734
4 4527 3070 3734 3069
4 4528 4529 3069 4530
4 4531 332 323 324
4 3986 4300 4532 4533
4 2657 3292 2354 3992
4 4534 350 358 349
4 4486 327 335 326
4 3054 776 784 775
4 3991 4535 4536 4537
4 4538 350 349 341
4 4529 4387 3916 4527
4 4387 3672 3311 3916
4 4539 364 363 355
4 4540 4541 1813 1812
4 4320 338 329 22
4 3312 3672 3311 4387
4 4486 335 327 336
4 4527 4530 4387 3312
4 2359 2899 2405 2354
4 2359 2657 2354 2405
4 2375 2382 2381 2383
4 2826 3186 2653 2827
4 4414 4542 4543 4537
4 3817 1298 1307 1306
4 2928 2359 2793 3077
4 4225 361 362 370
4 4544 346 354 345
4 4545 356 347 24
4 2404 2652 2653 2377
4 4321 337 329 338
4 2657 2405 3992 2354
4 3989 4415 4537 4546
4 2652 2795 2410 2413
4 4547 754 762 753
4 3141 3747 2812 3748
4 2811 2558 2205 2818
4 3748 2751 2783 2784
4 4548 1300 1291 1292
4 4549 4550 339 1310
4 2812 2821 3144 2213
4 4551 351 350 342
4 2335 2931 2812 2336
4 192 2194 4465 2195
4 4552 1281 4553 1290
4 2812 3144 2821 4002
4 2938 2945 2943 2939
4 2945 2943 3835 2942
4 4443 3901 1282 1283
4 4554 339 340 348
4 2945 3834 2942 3835
4 4555 332 340 331
4 2945 2530 3834 3335
4 4556 342 333 334
4 3335 2945 2531 3476
4 4490 790 789 781
4 4556 342 334 343
4 3290 4414 3289 3828
4 3991 4557 4537 4558
4 3429 3431 4032 4475
4 4485 336 344 335
4 4559 833 832 824
4 4560 2945 2943 3835
4 4561 4353 1308 1309
4 2805 2977 2490 2798
4 4562 774 773 765
4 4224 362 361 353
4 2805 3374 2798 3169
4 2805 2798 3374 2977
4 2805 2745 2488 2980
4 2975 2977 2805 2978
4 4563 365 364 356
4 2484 2493 2267 2422
4 2441 3169 2805 2798
4 4564 338 346 337
4 4485 344 336 345
4 4465 193 192 2195
4 4523 23 347 338
4 4565 379 388 387
4 3860 3863 3861 3859
4 2214 4153 2789 2787
4 3143 2213 3864 3238
4 2214 2213 3143 3238
4 2214 2787 4154 4153
4 4547 763 762 754
4 2218 2789 2214 2209
4 3877 2209 3143 4153
4 3143 3566 2215 2217
4 4566 374 373 365
4 4545 24 25 356
4 3973 4567 3972 3975
4 3441 4568 4567 4569
4 3351 1304 1305 1313
4 3441 2685 3799 3439
4 3441 3799 2685 3600
4 3441 4569 3970 3938
4 2493 3483 3379 2519
4 4570 4571 1831 4572
4 3969 3441 3970 3600
4 4465 4503 2571 1175
4 2268 3668 2746 3268
4 3266 2268 3265 2269
4 2491 2271 2745 2488
4 4538 341 349 340
4 4551 342 350 341
4 4573 1829 3546 1838
4 4574 1337 1336 1328
4 2975 2805 2980 2978
4 3623 3626 2745 2621
4 4575 4562 4576 773
4 3623 4577 2745 2980
4 2843 2844 2846 2847
4 4578 1324 1315 1316
4 4579 4221 4220 4580
4 2692 2667 2661 4581
4 2692 2666 2287 2661
4 4582 825 834 30
4 2534 2539 2846 2844
4 4583 352 351 343
4 4583 351 342 343
4 2536 2691 2534 2666
4 4584 4585 3829 414
4 4586 354 363 362
4 2534 2538 2846 2539
4 3247 2691 3248 3250
4 4524 352 344 353
4 2249 2876 2779 2877
4 4587 373 372 364
4 2888 2896 2897 2804
4 2278 2969 2914 2554
4 2282 2274 2251 2277
4 2535 2541 2276 2537
4 4523 4490 4545 780
4 4544 354 346 355
4 2843 2847 2777 2844
4 2695 2251 2287 2536
4 4575 4588 772 773
4 4589 2776 3869 4292
4 4590 355 347 356
4 2884 2550 2874 2889
4 2693 2549 4591 2548
4 2695 2251 2253 2277
4 2248 3368 2696 2549
4 4592 4593 4594 4595
4 2659 2289 2283 2245
4 4566 365 373 364
4 4596 26 365 25
4 2282 2274 2284 2288
4 2250 2273 2275 2969
4 2432 2448 3650 2447
4 4597 349 357 348
4 2695 2286 2287 2277
4 2282 2251 2274 2537
4 3279 2854 3121 3283
4 3279 2851 3263 2850
4 2853 4598 3121 3283
4 3649 1564 1572 1563
4 4509 1280 4599 4134
4 4600 340 4554 339
4 3279 2851 4601 3773
4 4601 3279 4602 2854
4 2854 3919 3550 4601
4 2852 3919 3550 2854
4 2724 2307 2719 2717
4 4603 367 366 358
4 2997 3589 2998 2996
4 2313 2314 2315 2567
4 4604 351 359 350
4 4605 367 375 366
4 2317 2427 2396 2316
4 4606 4538 4555 4210
4 2564 2998 2714 3816
4 2302 3041 2304 2399
4 2564 2995 2313 2566
4 3844 4607 2678 2679
4 4608 369 360 361
4 4609 352 360 351
4 4608 370 369 361
4 2679 3844 4610 2379
4 4611 1345 1354 1353
4 4224 361 352 353
4 4610 2379 4019 2679
4 3844 4610 4607 2679
4 4612 3844 4613 4610
4 3844 4614 4612 3845
4 2641 3139 2649 2647
4 3844 4613 3846 3845
4 4081 380 379 371
4 4615 772 771 763
4 4539 355 363 354
4 3844 3846 4613 4610
4 3832 4616 4617 4618
4 4619 379 380 388
4 2840 3813 4121 3811
4 4563 356 364 355
4 4465 1175 2571 192
4 4620 26 374 365
4 3229 3356 3474 2632
4 2842 3173 3474 2834
4 4621 407 399 408
4 3354 3362 3231 3356
4 4596 25 365 356
4 4588 782 781 773
4 3474 2840 2837 4091
4 3474 3229 3357 3356
4 4622 373 381 372
4 3474 4082 3357 3815
4 3852 3474 4082 3357
4 3020 3030 3029 3027
4 2587 2644 3024 2650
4 4603 366 357 358
4 2084 2092 2093 4623
4 2397 2646 2648 2428
4 2575 2698 2470 2473
4 2426 2415 2686 2684
4 4624 4597 4574 4625
4 4626 359 367 358
4 2403 3911 3185 2578
4 4100 403 4617 412
4 2971 2403 3453 2401
4 4627 3485 3486 4628
4 3485 4304 2844 4628
4 4629 4230 375 384
4 4630 359 360 368
4 4631 3826 4632 1819
4 3485 3868 2847 3869
4 3485 3486 3868 4633
4 3485 4634 4627 3486
4 3485 4634 4298 4627
4 2387 2638 2636 3658
4 2767 3610 2802 2903
4 4635 3329 3102 3233
4 2937 3189 3188 3461
4 4349 2093 4623 2084
4 4629 376 385 384
4 4636 363 371 362
4 4637 4638 382 391
4 2937 3631 3461 2933
4 3463 3461 3462 3460
4 3460 2937 2300 2390
4 3560 3559 3896 4639
4 4636 371 363 372
4 3635 2937 3631 3461
4 4640 3076 3926 3044
4 3460 3463 2388 2614
4 4641 27 28 383
4 2388 2639 2612 2614
4 2686 3703 3666 2684
4 3138 2640 3468 4003
4 4015 3036 3037 4642
4 3425 2400 3138 2648
4 3468 3138 3425 2400
4 4592 3079 4643 4644
4 4645 437 445 436
4 4646 373 374 382
4 2395 3599 2971 3888
4 4620 374 26 27
4 2393 2403 2395 2971
4 4647 400 391 392
4 2398 2428 2970 3013
4 2641 2647 2640 3139
4 3467 3425 3470 3666
4 2397 2428 2399 3041
4 2810 2297 2368 2369
4 4554 340 4555 4538
4 2373 3232 3228 2363
4 2806 3492 2299 2637
4 2299 2297 2363 2373
4 3171 2809 2810 3211
4 3171 3210 3211 3172
4 4648 377 386 385
4 4649 368 376 367
4 4650 369 377 368
4 2835 3501 3475 3520
4 3171 2528 2700 2833
4 2337 2606 2599 2600
4 2338 2339 2337 2603
4 4651 4278 4652 4580
4 4653 378 369 370
4 2337 2708 2751 2931
4 2705 2337 2708 2751
4 2705 2337 2339 2712
4 4653 379 378 370
4 3024 2644 2587 2643
4 3176 3023 3181 3021
4 4654 4655 4656 4657
4 2575 2473 2470 2306
4 4658 372 380 371
4 2469 2470 2474 2473
4 2302 2427 2317 2316
4 4040 388 396 387
4 4641 383 374 27
4 4659 398 397 389
4 2469 3482 2308 3294
4 2469 2308 2475 3294
4 2449 3288 3322 2447
4 4660 391 399 390
4 3705 3698 3726 4661
4 4661 4662 3705 4663
4 4661 3698 3697 3705
4 1156 4663 4664 1147
4 4622 381 373 382
4 4663 4664 1147 4661
4 4638 381 382 390
4 4661 3698 3726 4665
4 4665 4661 3806 3726
4 4661 3698 1147 3697
4 4646 382 374 383
4 3185 2577 2578 3904
4 3185 3904 3911 4138
4 3184 3904 3185 4138
4 3912 3454 3185 4666
4 2322 4667 3764 2319
4 2402 3467 3425 2400
4 2586 3177 3183 3021
4 3183 3185 3454 3177
4 4620 4668 798 4596
4 4584 406 414 405
4 4629 376 384 375
4 4648 385 376 377
4 2819 2254 4669 4670
4 2202 2603 2205 2599
4 4671 110 109 1373
4 2819 2213 3238 2820
4 2336 2262 2204 2206
4 2254 4669 2759 2820
4 2254 2820 2759 3495
4 2811 2334 2335 2336
4 4229 110 4671 1364
4 1343 4218 1342 1351
4 4672 394 385 386
4 2604 2748 2708 2931
4 2604 2337 2606 2599
4 4042 378 386 377
4 4043 387 396 395
4 3528 2727 2813 2709
4 4565 387 378 379
4 2707 2709 2710 2725
4 4673 813 4674 4030
4 2703 2709 2713 3607
4 4675 1344 1353 1352
4 4676 1326 1335 1334
4 3911 4477 4677 4478
4 2709 2710 2856 3607
4 4619 388 380 389
4 4678 390 399 398
4 2800 4679 2801 2803
4 2711 2857 2709 3528
4 2711 2708 2606 3528
4 2712 2708 2606 2711
4 4680 4681 4682 4220
4 4683 389 381 390
4 4637 383 391 382
4 4684 818 817 809
4 4685 28 392 383
4 4681 4222 817 826
4 4686 3731 2242 4470
4 4686 4687 3136 3731
4 4647 392 401 400
4 4688 808 4668 799
4 4686 2591 3136 4689
4 4686 3136 4687 4170
4 4660 399 391 400
4 2595 2346 2609 2610
4 2344 2349 2345 2347
4 4582 29 30 401
4 2605 3033 2353 2748
4 2322 2800 3763 4679
4 2337 2708 2606 2712
4 2595 2604 2606 2599
4 2707 2727 2606 3528
4 3573 2595 2610 2346
4 3656 2571 1175 1166
4 2353 2606 2748 2727
4 4690 439 438 430
4 2981 2988 2952 2951
4 2950 2775 3141 2783
4 2212 2855 2558 2819
4 3302 3305 3306 3136
4 4229 111 110 1364
4 4043 395 386 387
4 2478 2464 2582 3928
4 4671 109 110 393
4 2627 2959 2630 3515
4 3375 3378 3380 3376
4 4672 394 386 395
4 411 4691 108 4692
4 4693 4629 4230 375
4 2811 2558 2819 2213
4 2461 2557 3137 2555
4 2212 2210 2452 2456
4 2558 2560 2818 2559
4 2767 2803 2800 2801
4 4616 404 395 396
4 2454 2461 2452 2456
4 4040 396 388 397
4 2452 2460 2451 2951
4 4659 389 397 388
4 3308 2462 3302 2557
4 3047 2976 3100 3048
4 2796 2795 2983 3285
4 4694 1335 1344 1343
4 2658 2495 2508 2509
4 4695 398 406 397
4 2928 2799 2434 2438
4 2515 2527 2521 2513
4 4696 1324 1333 1332
4 2359 3077 2354 3292
4 2928 2327 2434 2794
4 2928 2359 3081 2770
4 2800 2328 2322 3110
4 3076 3084 4640 3081
4 3110 3108 3109 3766
4 2333 2321 2322 3765
4 4668 799 807 798
4 2446 3899 2448 3096
4 2434 3081 2333 2928
4 2432 2439 3650 3043
4 3075 3081 2439 3077
4 2433 3081 3076 3765
4 4219 4637 4222 4221
4 2968 2915 2917 4048
4 2250 2252 2279 2275
4 3165 2554 3167 4697
4 3165 2553 2554 2969
4 2250 2273 2285 2274
4 3947 466 457 458
4 2278 2277 2553 2548
4 2553 2273 2629 2285
4 4698 468 476 467
4 2232 2629 3148 2910
4 2285 2553 3166 2629
4 2467 2631 2910 2233
4 4618 403 394 395
4 4699 4700 866 857
4 2214 2209 4153 3143
4 2214 2209 2789 4153
4 2789 3515 3519 4701
4 4096 402 394 403
4 4702 1361 1370 1369
4 2788 2789 4703 2787
4 4100 411 403 412
4 2789 3515 4701 3878
4 2209 3515 3878 2217
4 2789 4703 2787 4153
4 2383 2904 3673 3848
4 4704 405 396 397
4 3829 414 413 405
4 4705 422 421 413
4 4704 406 405 397
4 2496 2497 3700 3699
4 3673 3603 2904 2497
4 3503 1907 1898 1899
4 4706 850 858 849
4 4542 415 407 416
4 4707 4708 4709 437
4 2381 2496 3673 2495
4 2791 2732 3303 2704
4 2791 3175 2556 2732
4 2791 2460 2556 3175
4 2462 2791 2460 2556
4 4710 30 410 401
4 4711 827 818 819
4 4542 415 406 407
4 2460 2451 2951 3337
4 3336 2457 2451 2988
4 4620 4641 4566 374
4 2909 2907 3046 3049
4 4712 31 32 419
4 2397 2401 2304 2393
4 3155 4670 4669 2759
4 4713 3155 4670 4669
4 2334 2558 2556 2338
4 2259 3154 3156 3577
4 2205 2206 2599 2336
4 4714 1163 1173 1172
4 2203 3158 3156 3155
4 2358 3110 3084 3081
4 3081 3084 4640 3110
4 4617 412 403 404
4 4617 4618 4616 404
4 2322 3763 4715 4679
4 4617 413 4705 412
4 2419 2425 4716 2418
4 3222 2189 2198 2197
4 4717 412 420 411
4 2327 2983 2771 2329
4 3829 413 404 405
4 2322 4667 3766 3764
4 4056 2171 2180 2179
4 2970 2648 3013 2428
4 2327 2771 2983 2794
4 2309 414 423 422
4 2800 2320 2322 2328
4 2322 4679 2320 2800
4 2569 199 1238 1229
4 2997 3662 3597 3598
4 2675 2787 2788 2786
4 4718 4719 4542 3289
4 4644 2311 4720 3079
4 4721 4722 4723 4605
4 4724 408 416 407
4 2313 2724 2568 3060
4 2723 2721 4398 2722
4 4285 1872 1863 1864
4 4584 415 414 406
4 4725 1845 1844 1836
4 4726 4727 3152 3313
4 2674 3676 3841 4727
4 4728 418 4729 419
4 4724 416 408 417
4 4719 425 433 424
4 4474 846 837 838
4 4646 374 4641 383
4 2674 3152 3676 4727
4 4156 3841 4727 2786
4 4180 426 434 425
4 4730 417 409 418
4 4731 3551 2416 2420
4 4732 4652 854 853
4 4733 435 436 444
4 4729 418 410 419
4 4734 3281 3647 3669
4 3646 4734 3272 4735
4 4734 4736 911 4737
4 4736 4738 4737 4734
4 4739 4736 4738 4737
4 4062 4740 4741 4742
4 3281 4738 3669 4734
4 4734 3646 3647 3281
4 2516 3035 3045 2520
4 2516 2520 4474 3035
4 2518 2520 4278 4474
4 2518 4743 4651 3990
4 2518 3990 4651 3770
4 3790 3119 3098 3097
4 2518 4743 3990 2905
4 2387 2636 2639 2637
4 4744 420 421 429
4 2224 2363 2221 3617
4 4705 413 421 412
4 2373 2299 3232 2363
4 4744 430 429 421
4 2220 2386 3622 2222
4 3083 4142 4745 4746
4 4747 4748 4744 4749
4 2221 2861 3263 2850
4 2373 2368 2363 3228
4 3232 3617 3489 3800
4 2309 422 413 414
4 2368 2365 2366 2364
4 4690 430 438 429
4 4750 1353 1362 1361
4 4542 424 415 416
4 3314 3638 3315 3317
4 2221 3617 2363 3925
4 4542 416 425 424
4 4584 3827 3829 4585
4 2363 3800 2852 3925
4 3599 2395 3434 3430
4 4585 423 415 424
4 3888 3453 4037 3456
4 3438 4478 3912 3888
4 4181 425 416 417
4 4751 442 433 434
4 3888 3438 3430 3954
4 4752 4652 3770 4732
4 4753 426 418 427
4 2395 3888 2971 2403
4 4181 425 417 426
4 2826 2825 3964 2827
4 4708 34 446 437
4 2823 3736 3735 3740
4 4707 33 34 437
4 4728 419 427 418
4 4709 427 428 436
4 2825 2823 2899 2827
4 4754 32 428 419
4 4220 836 835 827
4 2825 3964 2827 3548
4 4755 1197 1198 4756
4 2357 2355 2899 2354
4 2406 2360 2823 2899
4 2404 2406 2766 2768
4 4220 835 826 827
4 2641 2587 2644 2643
4 4720 423 431 422
4 2317 2578 2403 2577
4 3666 3258 3394 3470
4 2402 3666 3258 2684
4 3402 4264 450 4593
4 3397 3394 3703 3399
4 1207 4756 4071 4072
4 3258 3799 2685 3439
4 3258 3439 2685 2684
4 2369 2367 3316 3637
4 4757 1392 4758 1401
4 3829 2309 413 414
4 4759 439 447 438
4 2369 3318 4313 3932
4 2368 2365 2364 2634
4 3215 3015 2227 3014
4 4760 463 462 454
4 2363 3228 2634 2852
4 4720 431 423 432
4 4761 440 448 439
4 3318 3932 2369 2934
4 2362 2364 2361 2366
4 4762 3315 3317 3637
4 4763 434 435 443
4 4644 432 424 433
4 2580 2479 2478 2986
4 2629 2959 3166 2630
4 4644 441 432 433
4 2627 2958 2959 3515
4 2581 2479 2583 2956
4 2580 4764 3928 3164
4 4719 433 425 434
4 4763 435 444 443
4 4180 434 426 435
4 2581 2956 2480 2479
4 4765 427 435 426
4 2583 3170 2955 4766
4 2624 2838 4070 2623
4 3746 3749 2932 2931
4 4707 437 428 33
4 4052 2625 4767 4059
4 4647 4637 392 391
4 4052 4053 2625 4059
4 4465 1175 193 1184
4 2625 4767 4059 3086
4 4288 872 871 863
4 2619 2625 4053 4059
4 2676 2678 2677 2681
4 3673 2495 2497 2904
4 2385 2866 2702 2699
4 4768 455 446 35
4 2866 2494 2501 2500
4 2495 2904 2508 2497
4 2826 2653 3186 2507
4 2680 2385 2701 2702
4 2654 2655 2515 3045
4 4769 4770 3850 4771
4 2651 2909 2652 2795
4 2651 2382 2652 2909
4 4772 4773 1427 103
4 4720 432 440 431
4 4038 431 439 430
4 4774 468 467 459
4 2658 3990 2509 2508
4 2494 2501 2499 2506
4 4352 2715 4775 3326
4 4756 1198 4755 4072
4 4776 457 456 448
4 3768 2718 4777 2570
4 4778 4180 4765 4763
4 3949 449 458 457
4 3057 3895 2718 3589
4 3444 3486 3868 2847
4 4690 4759 438 439
4 4720 441 440 432
4 2718 2570 3326 4777
4 4491 4062 4779 4780
4 4756 4071 3616 4781
4 4644 442 441 433
4 2332 2324 2331 2923
4 2928 2434 2799 2794
4 4255 4698 468 477
4 3403 4763 4782 443
4 2792 2521 2799 2656
4 3403 451 442 443
4 2439 3081 2438 3077
4 2928 2770 3081 2333
4 4783 458 450 459
4 2790 2452 2954 2460
4 2334 3175 2337 2339
4 4751 434 4763 443
4 2811 2819 2818 2254
4 2344 2348 3805 2293
4 2596 2625 2624 2932
4 2605 2346 2606 2353
4 2605 2353 2606 2748
4 4784 455 464 463
4 4708 34 870 35
4 4785 454 446 455
4 3091 4786 3033 3032
4 4398 3554 4787 4540
4 2624 3034 3032 2939
4 2605 2748 2749 3033
4 4768 35 879 36
4 2932 3086 2625 3032
4 2576 2473 2579 3328
4 2576 3385 3904 3184
4 4015 3936 3036 4642
4 95 1508 3150 1499
4 2317 3259 2403 2578
4 2575 2470 2698 3023
4 2574 2578 2577 2579
4 4239 1416 1415 1407
4 4761 449 448 440
4 1499 95 528 3150
4 3049 2655 2795 2909
4 2653 2657 2405 3187
4 2907 3100 3047 3049
4 2651 2795 2652 2413
4 2653 2509 3187 3186
4 4788 441 449 440
4 4789 877 886 885
4 4584 3827 4543 4790
4 3049 3287 3102 3050
4 2904 2495 2654 2383
4 2383 2495 3673 2904
4 4584 4543 4585 415
4 2404 2406 2768 2765
4 4791 101 102 465
4 4776 456 447 448
4 2654 2906 2907 3035
4 4788 450 449 441
4 4792 4793 871 880
4 2756 2866 2501 3382
4 2507 2506 2756 2501
4 4794 453 462 461
4 2823 3740 2862 3736
4 3403 451 443 452
4 2404 2407 2765 2867
4 4158 472 471 463
4 2756 2757 2501 4795
4 2826 2758 2756 2822
4 3634 503 494 495
4 4796 461 469 460
4 3326 2758 2716 2863
4 3225 2376 2701 2472
4 2761 2758 2831 2863
4 4785 454 445 446
4 4768 36 455 35
4 2507 2653 2377 2701
4 4797 4768 36 455
4 2554 3881 4697 4798
4 3148 3671 3769 3672
4 2696 2549 3998 3853
4 2278 2551 2549 2552
4 3580 4760 454 4784
4 2250 2253 2251 2277
4 2914 2250 2279 2915
4 4797 37 36 888
4 4799 2825 3737 3401
4 2826 2756 3186 3968
4 2676 2384 2677 2678
4 4800 1951 1950 1942
4 2766 2412 2413 2404
4 2900 2902 2409 3615
4 2767 3370 2769 3610
4 3062 3465 3004 3005
4 4772 103 104 447
4 4791 474 101 465
4 2611 3460 4801 2617
4 4248 494 486 495
4 4802 456 457 465
4 3460 3062 3189 3465
4 3062 3189 3465 3005
4 4749 4803 1408 1409
4 4328 1424 1415 1416
4 4157 460 451 452
4 4802 466 465 457
4 3061 3062 2617 3063
4 2225 2859 3275 2391
4 3274 3217 3061 2617
4 4804 3301 3220 3503
4 4805 1422 1413 1414
4 4806 1919 1910 1911
4 2810 3211 3162 2633
4 3171 2700 2349 3475
4 3932 3719 3242 3509
4 3509 2810 2809 3211
4 2420 2567 3752 3551
4 3903 3487 4807 4808
4 4809 2623 3500 4070
4 3376 890 881 882
4 4070 3903 4810 4092
4 2435 2670 2437 2436
4 4811 899 890 891
4 4812 4813 934 925
4 4070 4808 3781 3777
4 4070 2624 2626 3777
4 4760 454 462 453
4 4814 471 479 470
4 3828 2311 3827 4543
4 537 528 94 3150
4 4815 38 473 37
4 4070 3498 3777 2626
4 2940 2838 3781 3777
4 2838 2834 2623 2832
4 4816 898 907 906
4 2226 3264 2861 3214
4 4797 4785 4768 455
4 4817 889 880 881
4 4118 1243 1252 1251
4 2860 3215 3015 2227
4 2373 2842 2299 2528
4 2414 2318 2427 2428
4 4439 1253 1252 1244
4 2507 2866 2494 2501
4 4772 456 4773 103
4 4818 466 474 465
4 4773 465 102 456
4 2760 2702 2756 2866
4 4262 4819 3796 4820
4 4821 460 468 459
4 2831 3225 2900 2867
4 2375 2381 2384 2383
4 4822 4823 4178 4824
4 4246 487 495 486
4 2377 2376 3225 2378
4 3947 466 458 467
4 3144 4825 4002 4826
4 3144 3863 3142 2215
4 4821 468 460 469
4 3144 2213 2820 2215
4 3144 2215 2820 3864
4 4827 4828 4234 4829
4 4830 2435 2669 4831
4 4796 469 461 470
4 3442 2688 3526 3527
4 4439 4832 3488 1716
4 2992 3036 2566 2565
4 4833 462 470 461
4 2993 2994 4834 4134
4 4158 463 471 462
4 4833 470 462 471
4 4463 3588 3526 3037
4 2992 3588 2994 4134
4 3525 4835 3527 4836
4 2997 3662 3590 3597
4 4837 3926 4337 4838
4 3525 3588 4839 2999
4 4797 888 897 37
4 4815 37 473 464
4 4797 897 4840 4816
4 3324 2417 3750 4841
4 2993 2995 4834 2994
4 4842 933 41 924
4 2688 3938 2685 3601
4 4812 924 4843 925
4 537 3150 94 1508
4 2997 3598 3525 3524
4 4844 4815 38 473
4 4845 907 916 915
4 2565 2316 3000 2396
4 2564 3816 2995 2994
4 4840 897 888 889
4 2574 2475 2307 2570
4 3249 3250 4846 2667
4 3249 4847 3251 4848
4 3247 3249 2883 2667
4 4848 3247 4849 3253
4 3247 4848 3249 3251
4 4850 2155 4851 2156
4 4773 4791 102 465
4 4852 4853 4854 4855
4 3247 3251 2929 4848
4 3945 4431 3742 3011
4 4856 483 492 4857
4 2462 2557 2732 2556
4 3134 3302 2555 2557
4 4858 1452 1443 1444
4 483 1454 4791 100
4 3552 2416 4434 3551
4 4859 4860 942 943
4 4698 477 476 468
4 2558 2560 2338 2818
4 4861 4862 478 479
4 2960 2818 2338 2560
4 2212 2452 2790 2456
4 2211 2481 2207 2217
4 3240 3244 2944 3245
4 4255 477 469 478
4 4863 485 484 476
4 4246 477 478 486
4 4160 480 472 481
4 2942 2530 3834 2945
4 3774 2942 2530 3834
4 3240 3723 2944 3244
4 4791 4864 1436 1445
4 4246 486 478 487
4 3774 3244 2944 2942
4 2945 3835 4244 3834
4 4160 480 471 472
4 4179 488 497 496
4 2942 3776 3244 3835
4 4865 4844 39 482
4 2942 3244 3776 3774
4 4844 38 482 473
4 2960 2911 3837 2963
4 4865 39 40 491
4 3203 2960 2966 2962
4 2966 3201 3207 3203
4 3199 3208 3203 3198
4 3203 3197 2963 2962
4 4866 4867 3791 3097
4 3203 3198 3958 2963
4 4868 223 2165 2156
4 3203 3201 3197 2962
4 4868 222 223 1626
4 4869 4868 4850 4870
4 3563 3254 3216 3560
4 4871 4850 4872 4869
4 4873 1454 4791 483
4 4863 475 476 484
4 3216 3935 3255 3174
4 4874 1451 1450 1442
4 2325 2333 2433 3174
4 4875 4876 4813 4877
4 3600 3970 4878 3601
4 4247 477 485 476
4 2395 3601 3434 3889
4 3973 3969 3890 3441
4 4862 487 478 479
4 100 4857 1463 99
4 4110 1460 4116 1469
4 2395 3434 3601 3600
4 4116 1470 1469 1461
4 3439 3666 3703 2684
4 4868 1635 222 1626
4 3262 3263 2229 3264
4 2266 3264 3266 3268
4 4879 480 488 479
4 3218 3216 3563 2728
4 2386 3364 2615 2737
4 2223 2392 2391 2300
4 2230 2219 2229 2222
4 2225 2226 3275 2230
4 2850 2861 3263 3264
4 4880 489 480 481
4 4881 1414 4838 1415
4 4862 487 479 488
4 4882 1490 1481 97
4 4843 924 915 916
4 4883 1440 1448 1439
4 1508 94 537 1517
4 3127 2108 2099 2100
4 2227 3214 3015 3213
4 4865 491 482 39
4 4833 4814 470 471
4 3218 3274 2230 3364
4 3266 3669 3268 3264
4 3095 2392 2859 3062
4 4884 490 491 499
4 2745 3256 2270 3626
4 4885 490 482 491
4 2266 3269 2264 2230
4 2742 3097 3096 3099
4 4842 41 500 40
4 3218 3364 2728 3367
4 2543 2735 3254 2728
4 3010 4433 3945 4432
4 3423 3941 3942 4432
4 3425 3741 3424 3710
4 2402 3467 3258 3666
4 2970 3423 3013 2648
4 3884 3641 2860 3215
4 2970 3423 3945 3013
4 2984 4886 4887 4888
4 2208 2209 3143 2217
4 2208 2452 2212 2210
4 4889 4890 4891 493
4 2455 2452 2210 2456
4 2562 2558 2461 2456
4 2211 2453 2207 2774
4 3632 504 512 503
4 4890 494 502 493
4 1472 99 2280 98
4 3508 4307 4892 4313
4 3508 4892 3510 4313
4 3509 3508 3929 3719
4 3508 4308 3509 3929
4 4889 493 485 494
4 4893 4894 3585 3584
4 4743 2508 4272 2510
4 510 96 4882 97
4 4743 4651 3990 4895
4 98 2280 2281 501
4 4896 4819 4897 1972
4 4898 1449 1440 1441
4 2518 4651 4743 3323
4 4743 2508 3990 2905
4 4899 497 488 489
4 4743 2905 4900 4272
4 4901 926 917 918
4 4896 1972 1963 1964
4 4743 4682 4900 3323
4 2314 2318 2315 2567
4 2313 2717 3060 2720
4 4902 490 498 489
4 4903 4904 4905 4906
4 2566 3036 2415 2565
4 2469 2303 2308 3482
4 4884 4885 491 490
4 4876 936 935 927
4 2308 3334 3294 3482
4 2308 3294 3334 2722
4 2302 2318 2305 3041
4 2574 2306 2475 2473
4 2302 2574 2307 2317
4 2473 2570 2475 2574
4 4907 508 516 507
4 2472 2864 3298 3294
4 4842 40 500 491
4 4162 500 509 508
4 4812 925 933 924
4 3303 4187 3621 3310
4 3303 3310 4908 4187
4 3303 3621 3308 3310
4 4822 43 527 518
4 2462 2451 2791 2458
4 4909 42 518 509
4 3146 3303 2704 3345
4 2465 2588 2457 2459
4 3336 3303 2458 3344
4 3303 3146 2704 3621
4 3150 94 1508 95
4 2590 2591 2242 3583
4 3347 3082 4462 4174
4 2467 2628 2627 2630
4 2467 2630 2627 2629
4 2210 2456 2673 2466
4 2630 3519 2628 3515
4 2465 2453 2593 2463
4 2629 2582 2965 3164
4 4910 4911 4864 1453
4 2455 2468 2464 2463
4 4339 504 495 496
4 2279 2772 2924 2915
4 4890 502 494 503
4 4109 1468 4115 4912
4 4913 4914 4105 690
4 2776 2780 4589 4915
4 3541 3276 2276 2781
4 4355 4916 1480 1489
4 3124 4760 4917 4784
4 4918 1471 1470 1462
4 2777 2276 2541 2778
4 2282 2289 4425 2288
4 3871 3873 4919 3876
4 2276 2773 2776 2252
4 4920 1494 1485 1486
4 4921 3095 3004 3007
4 2776 4915 4589 2875
4 2779 2870 2776 2875
4 3576 3574 3575 4922
4 4923 498 507 506
4 3190 3733 3195 4924
4 3190 2660 2286 4924
4 3150 528 94 95
4 4876 935 926 927
4 3190 2661 2660 3191
4 2730 4925 4926 3363
4 3118 521 513 522
4 2692 4581 2661 3192
4 4812 4859 4842 933
4 4813 934 925 926
4 2662 4927 2661 2667
4 4928 935 944 943
4 3012 3702 3226 4929
4 4812 925 934 933
4 3002 3036 3012 2415
4 2687 3526 3036 3936
4 2394 3601 2395 3259
4 2402 2684 2686 3666
4 4860 952 951 943
4 4859 942 933 934
4 3012 3708 3936 3036
4 541 4930 540 549
4 2415 3012 2687 3036
4 4931 4932 524 515
4 4527 4387 4530 4529
4 4812 933 4842 924
4 4388 2788 4384 4387
4 3270 3647 3668 4866
4 4387 3519 3311 3312
4 4387 3312 4530 4386
4 2714 3058 2718 2715
4 2717 2570 2475 2716
4 501 510 2281 97
4 2570 2579 2757 4777
4 2574 3057 2317 2578
4 4933 1480 1479 1471
4 2909 3285 3287 3019
4 2909 2652 2795 2408
4 4934 1478 4935 1487
4 4362 502 511 510
4 2909 2795 3285 2408
4 2904 2654 2516 2906
4 2792 2656 2793 2657
4 4108 1458 1450 1459
4 3118 512 513 521
4 2651 2792 2655 2795
4 3632 504 513 512
4 4936 944 935 936
4 3100 2490 2976 2977
4 3049 2796 3285 2795
4 2526 2655 2796 3100
4 2526 2515 3045 2527
4 2907 3048 2527 3572
4 4937 506 514 505
4 2795 2794 2983 2410
4 4312 3211 4938 3172
4 4312 3875 2633 3172
4 4907 516 508 517
4 4312 3875 3172 4939
4 4312 4903 4311 3162
4 2944 3774 3582 3245
4 4937 514 506 515
4 4940 4252 4251 4243
4 3240 3242 4941 3243
4 4932 515 516 524
4 3930 524 3707 533
4 2809 3246 2807 2934
4 3240 3582 2944 3246
4 4823 509 517 508
4 3930 524 532 523
4 4115 1469 1477 1468
4 4942 4943 4944 970
4 2835 3171 2808 2633
4 3270 4866 4867 3271
4 3719 3241 3242 3718
4 4904 972 963 964
4 4822 4909 43 518
4 4945 4946 994 1003
4 3240 3242 3241 4947
4 3241 4948 3242 3243
4 3241 4947 3242 3718
4 2509 3989 3991 4949
4 2512 2494 2506 2509
4 2385 2677 2496 2699
4 2760 2757 3328 3382
4 2500 2494 2496 2866
4 2756 2757 3382 2501
4 2676 4023 2679 2678
4 2375 2411 2382 2383
4 3117 511 512 520
4 3778 3781 4950 3777
4 3778 3777 4950 4059
4 1490 96 4882 3149
4 3086 4059 2625 3778
4 4951 520 519 511
4 4952 238 2021 239
4 3370 3684 3740 3369
4 4953 531 530 522
4 4954 4241 3780 4252
4 4362 510 501 502
4 2406 2767 2768 3370
4 4941 514 522 513
4 4953 522 530 521
4 2766 4062 4955 2412
4 4931 515 523 514
4 4956 528 520 529
4 2766 4957 2903 2803
4 3116 530 529 521
4 2767 2766 2803 2801
4 4943 969 4944 970
4 4958 954 963 962
4 4959 523 531 522
4 4960 1544 4046 1543
4 4961 952 953 961
4 3097 3119 3099 4811
4 2769 2800 2802 3763
4 4962 44 45 536
4 2767 3610 2769 2802
4 2766 2412 4955 2801
4 2771 2766 2412 2413
4 4963 532 533 541
4 4964 534 542 533
4 2373 2807 2809 2528
4 2373 2807 2810 2809
4 4177 525 517 526
4 3211 4308 4938 3929
4 4822 527 43 44
4 4309 4938 3211 4308
4 4309 3211 4312 3162
4 3375 3377 4965 2487
4 4309 3509 4313 4307
4 4309 3509 3162 4313
4 4177 4178 526 517
4 2810 3509 4313 3162
4 2809 3509 3719 3932
4 4966 580 571 572
4 3149 4951 519 4882
4 4967 1515 1507 1516
4 3477 2347 3479 3481
4 2298 2387 2637 2296
4 2295 2806 2390 3581
4 3582 3629 3581 2935
4 4120 93 92 1526
4 2944 3582 2806 2807
4 2944 2528 2806 2530
4 4968 1506 1497 1498
4 2386 2737 2615 3622
4 2386 2222 2737 3622
4 4362 3633 511 502
4 4828 4969 1421 1430
4 3274 2617 2301 2616
4 3274 3367 3217 2617
4 2730 2735 4970 2620
4 3088 4971 1531 1530
4 4972 2736 3366 2729
4 4973 1510 4974 1511
4 2386 3269 2737 2222
4 2730 2735 2734 4926
4 2729 2730 3364 2728
4 4227 538 547 546
4 3364 3367 2616 2728
4 4975 538 530 539
4 3242 4976 4931 4941
4 3707 525 533 524
4 2888 2897 2873 2804
4 4977 535 534 526
4 2430 3218 2543 3216
4 4944 4824 961 960
4 2873 3386 2888 2889
4 4960 4770 2869 1535
4 4943 978 969 970
4 4978 543 535 544
4 4171 527 535 526
4 2492 2271 2488 2805
4 3899 2267 2269 3096
4 3899 3082 3567 2448
4 4822 4962 4944 4178
4 2325 2440 2330 3174
4 4190 574 566 575
4 3377 3484 3099 2742
4 4963 541 533 542
4 2792 2793 2799 2794
4 2484 2492 2422 2267
4 2484 2490 2489 2486
4 4227 3150 528 537
4 4979 962 971 970
4 2975 2489 2980 2488
4 3100 2490 3048 2976
4 4980 969 978 46
4 4981 4982 4983 4978
4 2526 2490 2422 2485
4 2492 2272 2441 2450
4 2492 2490 2422 2798
4 3623 4984 3626 2621
4 2701 2867 2377 3225
4 4985 3134 3535 4986
4 546 1517 537 93
4 2713 3607 3667 2703
4 4227 529 538 537
4 4987 531 539 530
4 3814 4164 4988 4165
4 3522 541 550 549
4 3647 3272 3270 2743
4 3746 2932 3749 2625
4 4009 3748 2784 2750
4 3839 557 548 549
4 2932 2748 2750 2749
4 4930 532 540 531
4 2474 2702 2760 2473
4 3382 3384 2866 2501
4 2760 3382 2756 2757
4 2469 2697 3056 3482
4 4989 1965 1974 1973
4 3284 2196 3221 3051
4 2757 3328 3382 4990
4 3521 542 551 550
4 4991 971 962 963
4 2757 4992 4990 3382
4 550 541 3522 3521
4 4771 565 564 556
4 2757 2501 4795 4992
4 4993 542 543 551
4 2474 2579 2473 3328
4 2747 2980 2744 2488
4 4942 971 979 970
4 551 3521 550 559
4 3297 2976 3296 2975
4 3623 2805 2980 2745
4 2975 2489 3296 2980
4 2431 3042 2594 3043
4 3075 3077 2439 3291
4 4981 536 544 535
4 4994 560 551 552
4 4327 4995 3084 3083
4 3043 4327 4995 3076
4 4327 3079 2310 2312
4 2310 4327 4995 3043
4 4996 980 989 988
4 4980 45 545 536
4 3875 2633 3172 3496
4 3875 4939 3520 3172
4 3875 4997 4939 4344
4 93 537 94 1517
4 4903 3875 3876 3902
4 4770 91 92 555
4 3875 4344 3876 4998
4 3875 3496 3362 3902
4 4999 610 609 601
4 3902 4903 4906 3876
4 4199 5000 4271 3087
4 3087 3089 4199 4767
4 3085 3087 2238 3749
4 4120 92 93 546
4 3087 4271 3088 2238
4 4769 1525 4120 1526
4 2534 2536 2290 2537
4 2291 540 548 539
4 5001 547 539 548
4 5002 5003 5004 4233
4 3247 2691 2667 2538
4 2692 2691 2666 2667
4 5001 2291 548 539
4 2534 2843 2535 2844
4 3198 5005 5006 3196
4 5007 556 548 557
4 2534 2843 2536 2535
4 5008 1495 1486 1487
4 2534 2843 2844 2846
4 2286 3733 4924 3913
4 5009 544 552 543
4 5010 1007 5011 1008
4 2689 2248 3445 3447
4 3148 3073 3769 3671
4 3761 2662 2661 2659
4 4982 545 553 544
4 2235 2284 2289 2283
4 5012 46 554 545
4 5013 567 558 559
4 2665 2289 2663 3759
4 4998 4345 981 5014
4 2282 2290 2251 2537
4 4994 560 552 561
4 4113 5015 996 987
4 2282 2283 2287 2289
4 2282 2537 4425 2290
4 3426 3758 3755 3753
4 4163 569 568 560
4 3422 4003 4005 5016
4 5017 572 571 563
4 3422 3756 3138 4003
4 3422 4005 4323 5016
4 5018 3479 5019 3819
4 3420 3711 3753 3712
4 3422 3712 4323 3421
4 2250 2969 2915 2914
4 2279 5020 2870 2871
4 3618 2915 2924 2772
4 2779 2776 2870 2782
4 5021 2092 5022 2101
4 3111 3113 5023 3112
4 4904 4991 963 972
4 3839 549 558 557
4 5007 548 556 547
4 2414 2419 2972 2417
4 4157 3404 4174 4794
4 5024 4550 4549 1319
4 3522 558 549 550
4 4470 5025 5026 4422
4 4261 557 566 565
4 5027 991 1000 999
4 2318 2418 2414 2567
4 2418 2318 2414 2425
4 3442 3527 3526 3939
4 4920 1494 1486 1495
4 4163 560 568 559
4 2318 3041 2428 2425
4 2414 2315 2318 2567
4 3742 3741 3398 3943
4 3945 3742 4431 3741
4 3227 5028 3742 4929
4 3399 3742 4365 3703
4 4365 3703 5029 3399
4 5030 4942 4943 4944
4 4996 5014 989 980
4 4365 3742 5028 4929
4 3742 3399 4365 5031
4 2690 3410 3411 3409
4 5032 562 570 561
4 2248 2804 2249 3445
4 4958 962 4961 953
4 2248 2689 2696 3368
4 2696 2693 2549 3068
4 2779 2877 2876 2875
4 2691 2690 3248 3250
4 5033 561 553 562
4 3409 3411 2690 3412
4 2397 2304 2587 2643
4 3204 571 579 570
4 2640 2650 4078 2647
4 5034 5035 50 581
4 5036 5037 5038 5011
4 5039 562 554 563
4 2640 2650 3451 3026
4 2401 3021 2587 2586
4 3021 3183 3451 3178
4 4470 5040 649 5025
4 4770 92 91 1535
4 2849 574 583 582
4 3054 3788 3372 3026
4 2317 3000 3767 2316
4 641 5041 650 5026
4 2640 3451 3788 3026
4 2994 4834 4134 4552
4 3464 5042 5043 3005
4 2849 574 582 573
4 4375 3464 3004 3465
4 4375 4379 4377 4378
4 5044 558 566 557
4 4375 3004 3946 3093
4 5013 559 568 567
4 5045 4307 5046 4907
4 3464 3462 4379 4378
4 2443 2668 2671 2669
4 3464 4378 5043 5047
4 5048 567 568 576
4 3463 4093 3461 4095
4 4168 561 569 560
4 3532 576 577 585
4 5036 1006 997 998
4 2995 3816 3817 4834
4 3189 3461 5042 3188
4 5042 3189 3462 3461
4 3060 2995 3817 3547
4 2323 2326 2331 2324
4 5017 563 571 562
4 2325 3374 2326 2324
4 3174 3560 3935 3927
4 5049 1016 1015 1007
4 3174 3935 2321 3927
4 2574 2575 2306 2473
4 5050 48 572 563
4 2640 3026 3788 5051
4 2397 2304 2643 3041
4 3196 579 587 578
4 5052 5053 4966 5054
4 5035 49 50 581
4 3425 3423 2648 3138
4 3423 2648 2649 2646
4 2641 2647 2649 2646
4 2366 2364 2361 2368
4 3228 3232 3800 2363
4 2938 2945 2939 2941
4 3204 579 571 580
4 3964 5055 2827 3549
4 2842 2938 2531 2528
4 2833 3475 2832 3092
4 3963 3968 3964 5055
4 2839 3800 3457 3229
4 4959 4953 531 4987
4 5022 4349 5056 2093
4 5057 1584 1585 1593
4 2578 2579 3768 4409
4 4190 566 574 565
4 2335 2751 2785 2783
4 2205 2603 2337 2599
4 5058 1515 1523 1514
4 5059 567 575 566
4 2858 574 573 565
4 4358 1648 1657 1656
4 2791 2705 2785 3175
4 2474 2757 2570 2579
4 2586 3176 2698 2576
4 2575 2586 3023 2698
4 3020 3022 2682 3023
4 4189 574 575 583
4 5060 1542 1551 1550
4 3022 3031 2682 3373
4 3660 584 585 593
4 2781 3543 2772 3541
4 5061 5046 4907 4823
4 3541 2763 2274 2288
4 2968 2763 2275 3235
4 2273 2275 2968 2763
4 3206 578 570 579
4 2232 2589 2763 2965
4 2274 2537 2288 2282
4 5062 5063 4182 5064
4 2968 3164 4050 2917
4 5034 50 51 590
4 5065 4755 5066 3409
4 4966 580 572 581
4 3409 3445 4072 3449
4 5067 579 580 588
4 3449 3409 5068 5066
4 3449 3446 4359 5068
4 5035 581 572 49
4 3449 4755 5066 1190
4 5006 588 596 587
4 3449 4755 1190 1199
4 2812 3144 4002 3142
4 5069 997 1005 996
4 3573 2598 2600 2608
4 2598 2600 2608 2603
4 2842 2938 2836 2531
4 2338 2960 3980 2962
4 2607 3207 3201 2608
4 2337 2339 2712 2600
4 2703 5070 2784 3667
4 5071 680 671 60
4 2708 2751 2931 2750
4 5072 1060 5073 1069
4 2195 2571 2194 4465
4 2604 2708 2748 2606
4 2604 2337 2708 2606
4 4525 4722 4605 4603
4 5074 113 4525 1337
4 2868 89 573 582
4 3748 2784 2750 2751
4 3479 3574 5075 5076
4 2750 2784 2710 2751
4 4199 1538 1530 1539
4 2784 2785 2703 2751
4 2703 3667 2784 3607
4 2707 2751 2750 2710
4 4971 1530 1522 1531
4 3531 576 584 575
4 2703 2706 2705 2785
4 4350 584 592 583
4 2204 2262 2821 3495
4 4189 583 575 584
4 5077 1054 1053 1045
4 5078 5079 624 625
4 2708 2750 2931 2748
4 2598 3573 2595 2610
4 2604 2599 2206 2336
4 2605 2622 2345 3034
4 5080 603 594 595
4 2596 2625 2618 2619
4 3196 587 579 588
4 5081 581 589 580
4 3532 594 585 586
4 3150 5082 5083 1508
4 2605 3032 3034 3033
4 2353 2606 3528 3533
4 5084 586 587 595
4 5085 619 618 610
4 5035 5050 49 572
4 2707 2708 2748 2750
4 5086 596 604 595
4 5087 1548 1557 1556
4 3239 5088 3862 5089
4 2595 2597 2601 2609
4 3748 2812 3141 2783
4 3950 597 605 596
4 2791 2785 2705 2706
4 2603 3201 2600 2608
4 5081 589 581 590
4 5090 1035 1026 1027
4 2742 2269 3346 3265
4 2742 3270 3668 3097
4 3377 2742 3270 2487
4 3375 3377 3484 3378
4 3377 3270 3097 4811
4 5091 1533 1542 1541
4 3377 3099 3484 3378
4 5092 606 598 607
4 2742 3099 3377 3097
4 5085 610 618 609
4 2790 3175 2460 2954
4 2791 2706 3345 3337
4 4525 112 113 366
4 2462 3303 2791 2732
4 2460 3337 2954 2785
4 5093 5094 5095 5096
4 2462 3308 3303 2732
4 2791 2451 2460 3337
4 3234 3236 2588 3886
4 2796 3209 3100 3285
4 5048 576 568 577
4 3332 2188 2179 2180
4 5097 621 630 629
4 5098 1555 3648 1554
4 2658 2656 3187 3991
4 2651 2795 2413 2794
4 2406 3370 2360 2769
4 2799 3288 3292 3290
4 2771 2410 2412 2329
4 4187 594 603 602
4 5092 2963 3197 3950
4 2771 2410 2413 2412
4 2327 2434 2794 2326
4 5005 589 597 588
4 4950 5099 5100 5101
4 2654 2906 2904 2908
4 5063 590 598 589
4 5062 51 599 590
4 3075 3078 3291 3079
4 2328 2770 3110 2800
4 5102 5103 5104 568
4 2450 2449 2438 2434
4 4986 605 606 614
4 5078 625 624 616
4 2323 2322 2333 2321
4 3497 2626 3499 3500
4 4187 593 4152 3660
4 2792 2796 2795 2794
4 2359 2413 2770 2657
4 2434 2429 2433 2438
4 5105 4358 1647 1648
4 2770 2657 2794 2793
4 3541 3235 2763 3114
4 3660 4187 593 594
4 4182 52 53 608
4 5106 1024 1032 1023
4 3541 3543 3618 3235
4 3798 3890 5107 5108
4 2273 2968 3164 2965
4 3165 3170 4766 2955
4 2273 2763 2274 2275
4 2968 2969 2915 2275
4 2627 2476 2958 2207
4 2630 4000 4701 3515
4 2630 4000 3519 4701
4 2631 3519 2628 2630
4 2573 2571 2572 4503
4 5109 2156 4851 2147
4 5109 4851 4870 5110
4 591 2255 2505 88
4 5111 1617 5109 224
4 2231 3151 2244 2243
4 2910 3312 2630 4464
4 2467 2233 2910 2629
4 3147 5112 5113 5114
4 3890 3512 5115 3973
4 3198 5067 5005 3196
4 3391 3511 3390 3512
4 2631 2910 2233 3152
4 4152 601 592 593
4 5116 5117 5118 5119
4 5120 992 993 1001
4 5119 5121 3940 5122
4 3890 3512 5107 5115
4 3531 575 5059 576
4 3512 4301 3973 3513
4 5119 5123 5118 5124
4 5022 2092 2093 2101
4 5119 3711 3940 3710
4 5119 3758 3940 3711
4 5086 605 604 596
4 3309 605 614 613
4 3134 3302 2557 3308
4 3950 605 597 606
4 3336 2457 2988 3340
4 2457 2988 3340 2593
4 2460 2954 3337 2951
4 5087 1548 1556 1547
4 2334 2556 3175 2339
4 2233 2674 3676 2466
4 2457 2593 2453 2988
4 2563 2559 3995 3837
4 2563 3675 3995 2559
4 3137 3730 3135 4506
4 3137 3535 3836 3135
4 5067 5005 588 589
4 4607 4023 5125 2683
4 4607 2678 5126 3847
4 4985 614 615 623
4 3847 4607 3844 4614
4 4687 623 631 622
4 4607 2678 2683 5126
4 5127 607 599 608
4 3844 4610 4612 4607
4 4056 2170 2171 2179
4 5128 4050 2917 5129
4 5129 5130 5131 5132
4 5129 4048 4050 2917
4 5109 2156 224 223
4 5129 5133 2927 4798
4 5134 1437 5135 244
4 5135 1976 244 243
4 4999 609 600 601
4 5129 5133 5131 2916
4 5129 2917 2927 2916
4 5136 611 620 619
4 4999 5137 600 609
4 5129 2917 5128 4798
4 2860 2391 3884 3215
4 2853 2850 2854 3121
4 3228 2632 3231 3356
4 4687 3307 622 3306
4 5060 1542 1550 1541
4 4167 610 602 611
4 2861 4738 3264 2850
4 4908 603 611 602
4 3304 604 612 603
4 3797 3617 2221 3925
4 3153 2181 2190 2189
4 4348 611 612 620
4 5138 2073 2082 2081
4 3130 5139 1568 1569
4 3512 5115 3973 4301
4 5140 1606 1615 1614
4 4895 2511 5141 5142
4 2981 5143 2990 2987
4 5144 607 615 606
4 4680 2511 5141 4895
4 3859 4826 4825 3863
4 2511 5145 5142 2512
4 2510 2511 4743 2508
4 2511 5145 2512 2499
4 5146 53 617 608
4 5147 608 616 607
4 2511 2512 5142 4895
4 4743 3990 2511 4895
4 5148 1042 1033 1034
4 3383 2190 2199 2198
4 2511 2508 2512 3990
4 5149 54 55 626
4 3230 5150 3125 3126
4 3126 3230 5150 3550
4 3126 5150 3125 5151
4 3126 5152 5150 5151
4 2362 2854 2853 2850
4 2853 4335 3125 3133
4 2853 4335 5152 3126
4 5153 623 624 632
4 3451 3178 3372 3021
4 5154 626 625 617
4 3451 3021 2587 2401
4 2304 2305 2303 2643
4 5113 1588 1579 1580
4 5155 674 665 666
4 3176 2586 3021 3177
4 3274 3364 3367 2616
4 2616 2617 3367 3274
4 5156 2071 2079 2070
4 5157 85 5158 1589
4 2431 2439 2429 2432
4 5159 628 619 620
4 5136 619 610 611
4 3267 3082 3899 3347
4 3557 3217 3367 3063
4 3367 2617 3018 4331
4 4887 1566 1558 1567
4 4888 1566 1574 1565
4 3306 613 621 612
4 3512 3505 5107 5115
4 2964 4205 2126 5160
4 2338 3980 2556 2339
4 2237 1557 1548 1549
4 5097 621 629 620
4 2818 2855 2559 5161
4 5078 616 624 615
4 3306 621 622 630
4 2818 5161 4670 2855
4 2818 4670 5162 3157
4 2618 2262 4053 4002
4 5163 1051 1050 1042
4 3746 2618 4053 4002
4 3307 622 614 623
4 3815 3229 3921 3357
4 3815 3924 3812 5164
4 5149 1050 1059 55
4 3851 2525 2523 5165
4 4082 3815 4091 5166
4 5166 3815 3812 5164
4 2380 2471 2376 4029
4 2697 3028 5167 4025
4 5168 5169 3127 5021
4 2244 2764 3979 4394
4 2676 2697 2680 2471
4 2697 5167 3028 3056
4 5170 633 641 632
4 5171 1592 1591 1583
4 5149 626 617 54
4 2682 2681 3181 3373
4 3111 5023 4470 4422
4 5040 3113 5172 5023
4 2590 3111 3583 2242
4 5153 632 624 633
4 5173 3113 5172 5040
4 5174 5175 5176 1384
4 5177 250 1922 1913
4 3111 2242 5178 3583
4 3111 5173 3887 5178
4 5177 249 250 1383
4 3888 4478 3912 3889
4 3130 1551 1560 1559
4 2403 3259 3889 3911
4 2971 2401 3468 2400
4 5179 627 618 619
4 83 5180 636 627
4 3453 3912 4037 3454
4 2971 3599 3468 3456
4 2346 2352 3573 2351
4 5181 628 637 636
4 2294 2351 2292 3478
4 5182 5180 83 1607
4 5183 646 654 645
4 2605 3033 2749 3032
4 3688 3277 3293 5184
4 3687 3688 5185 3685
4 3680 3277 3611 2901
4 3611 3277 3688 5185
4 5186 647 655 646
4 3680 3277 2901 3278
4 5187 1587 1596 1595
4 5026 642 650 641
4 5188 626 634 625
4 3688 5185 3277 5184
4 4687 631 623 632
4 3688 5185 5189 3687
4 2444 2445 2898 3882
4 2444 2888 2889 2898
4 2444 5190 4357 5191
4 2890 55 635 626
4 2444 3882 2889 5190
4 2444 4357 2888 2442
4 5192 1080 1079 1071
4 5170 641 633 642
4 3294 3298 3300 3299
4 5193 58 653 57
4 2305 3334 2308 2303
4 3041 2643 2646 4410
4 2305 3333 4716 2721
4 2305 2643 3041 4410
4 2663 2662 2878 3761
4 5194 643 635 644
4 2665 5195 2663 2878
4 2664 5196 4425 4394
4 2664 2879 2880 5197
4 5198 56 57 644
4 2665 2664 4394 5197
4 3678 5199 117 330
4 3761 2663 2662 2659
4 5200 5201 4336 5202
4 3678 117 5199 1301
4 2786 4155 4727 4156
4 2412 4740 2801 2329
4 5201 2329 2320 2801
4 5156 2080 2079 2071
4 5201 4955 5200 4336
4 5201 4955 2801 5200
4 5139 1569 1577 1568
4 5181 636 627 628
4 5203 1090 1081 1082
4 2476 2207 2217 3602
4 5204 628 629 637
4 2964 4000 4701 5160
4 5205 1588 1597 1596
4 5206 4200 5207 4701
4 4000 2964 5208 5209
4 4284 638 629 630
4 3515 4000 4701 2964
4 5210 4422 5196 5211
4 5041 632 640 631
4 2630 3515 4701 3519
4 4000 5206 3519 4701
4 5057 1594 1593 1585
4 2090 2099 2091 5212
4 2585 2584 5213 5214
4 5215 5216 2055 2064
4 5217 648 656 647
4 2580 2582 3170 3164
4 5041 641 640 632
4 2580 2585 4764 3170
4 5072 1060 1068 1059
4 5218 642 634 643
4 5025 650 658 649
4 2583 5219 4766 2957
4 2580 2583 2581 2479
4 5220 2584 5213 2585
4 2585 5221 5220 4764
4 2585 3170 4050 4764
4 2893 2960 2966 2911
4 5198 644 635 56
4 2960 2895 2911 2893
4 2563 2559 3837 2560
4 5114 1579 1588 1587
4 5222 2572 3900 3419
4 2895 2960 3837 2559
4 2559 3837 2560 2960
4 2911 3203 2963 2960
4 2788 4703 5223 4393
4 5224 5225 1122 1113
4 5149 2890 5154 626
4 3203 2966 2960 2911
4 2560 2960 2818 2559
4 3131 3667 3345 2713
4 3146 3345 2704 2713
4 5226 672 681 78
4 4438 5227 5228 3239
4 2280 2281 4366 1472
4 2280 5229 1463 1472
4 3146 3534 4350 2713
4 4423 3731 4469 5170
4 2713 2848 3534 2828
4 2709 2848 2713 3607
4 2713 3131 3145 3146
4 3626 3623 2745 3256
4 2492 2805 2490 2798
4 2975 2979 2978 3297
4 5230 638 646 637
4 2978 2980 3297 3624
4 5231 1596 1605 1604
4 5173 639 647 638
4 5089 2105 2096 2097
4 2461 2557 2556 2560
4 2271 3256 2270 2745
4 5040 640 648 639
4 5021 5022 5232 2101
4 3623 2621 2745 4577
4 3168 3169 3374 2978
4 5233 1612 1603 1604
4 5223 5234 5207 4202
4 5235 1081 1080 1072
4 2978 2977 3168 2979
4 4385 2786 2788 4390
4 5040 648 640 649
4 2534 2844 2535 2541
4 5172 648 649 657
4 5236 643 651 642
4 2804 2249 2876 2779
4 5237 5238 670 671
4 2776 2780 4915 2782
4 5239 650 651 659
4 2780 5240 5241 4274
4 2780 2778 4292 5242
4 2773 2781 2780 5241
4 5243 644 652 643
4 2780 2778 5242 2781
4 4274 2780 2781 5241
4 5240 2780 2782 5244
4 2243 4423 4470 3731
4 5025 658 650 659
4 5193 57 653 644
4 3096 3098 3406 3099
4 5211 660 668 659
4 3320 2423 3322 3321
4 5245 653 662 661
4 3123 3404 4462 3406
4 5246 1078 1069 1070
4 2446 3321 3320 3322
4 5247 58 59 662
4 3320 3082 3096 2448
4 5248 660 652 661
4 3918 3800 3230 3229
4 3230 3921 3356 5150
4 5249 205 1232 1233
4 3228 2634 3230 3231
4 3918 3919 2852 3925
4 2692 3250 2691 2667
4 2696 3068 3853 3448
4 4747 429 4748 106
4 3028 5250 5125 5251
4 5252 1602 1594 1603
4 4852 73 74 709
4 5253 656 665 664
4 5207 2124 2123 2115
4 5251 5250 5125 4725
4 4591 2693 3074 3068
4 2672 2882 2538 3654
4 3253 2883 2538 3247
4 2534 2540 2539 2844
4 2662 2666 2661 2287
4 5254 665 657 666
4 1562 2256 2257 2255
4 5255 1083 5256 1084
4 2538 3253 2539 2540
4 5257 3652 1555 3648
4 2672 2538 2881 3654
4 2538 2290 2881 2540
4 5258 658 666 657
4 5172 657 649 658
4 5119 5117 3758 5116
4 5239 651 660 659
4 3940 3709 3711 3758
4 3940 5259 3944 5260
4 3940 5121 3944 5122
4 5210 658 659 667
4 3113 3111 5040 5173
4 3028 5250 5261 5167
4 4391 5184 5262 5263
4 3028 5261 5250 5251
4 5248 660 651 652
4 4025 4024 5264 4029
4 5265 660 661 669
4 4088 5266 4027 5263
4 5263 4027 4089 4391
4 5263 5267 3544 3553
4 5263 3544 5268 3909
4 3765 3926 4640 3076
4 5269 670 678 669
4 3075 3291 3043 3079
4 2358 3084 3109 4142
4 2439 2433 3081 3076
4 5270 5271 1217 1226
4 3078 3075 2354 3080
4 5072 5073 5246 1069
4 5193 5198 5272 1077
4 5273 3740 2901 3684
4 5273 5274 3740 3684
4 4748 106 1409 1400
4 4748 105 106 429
4 5273 2862 3740 3736
4 5273 3740 2862 2901
4 5273 3681 3278 3682
4 5275 663 654 655
4 5275 663 655 664
4 2410 4491 4062 2412
4 2767 2802 2769 2800
4 5139 1569 1578 1577
4 4275 1652 1651 1643
4 5253 664 655 656
4 5276 664 673 672
4 2797 2798 2490 2977
4 5277 1161 1162 1171
4 2795 2410 3285 2408
4 2326 2983 2797 2794
4 5105 1648 1647 1639
4 5254 665 656 657
4 5278 665 674 673
4 5276 672 663 664
4 2349 3475 3481 3172
4 4256 5279 5280 4257
4 3477 3478 4126 2352
4 3193 1109 1117 1108
4 2344 2352 2351 3478
4 4126 3210 3931 3805
4 3477 3805 2349 3210
4 3891 2293 3803 3892
4 5281 5224 62 689
4 5224 61 689 680
4 5211 668 660 669
4 5282 5283 1126 1135
4 3723 2348 3803 3804
4 5237 662 670 661
4 2344 3477 2346 2352
4 3805 3931 3804 3718
4 5284 1140 1131 1132
4 2453 2451 2988 2951
4 2988 3337 3338 2952
4 5285 59 671 662
4 2988 3340 2989 3339
4 2453 2593 2463 2987
4 2988 3337 2952 2951
4 2810 3211 3509 3162
4 3228 2852 3800 3230
4 5071 60 61 680
4 3228 3800 2839 3229
4 3228 3229 3230 3800
4 4313 2369 3643 3318
4 2363 3925 3617 3800
4 2634 3163 3231 2633
4 2634 3125 3231 3163
4 3895 4551 5286 4538
4 3895 4324 4606 3589
4 3589 3895 2718 5287
4 5288 684 5289 675
4 3057 3589 2998 3767
4 4777 5290 5291 5286
4 5286 5290 5291 4551
4 4025 4024 5292 5264
4 3327 4777 5286 3326
4 4111 5226 78 1652
4 3895 5286 4352 4624
4 5278 673 664 665
4 4624 3895 4538 5293
4 4025 5292 5294 5266
4 4105 682 690 681
4 5295 675 666 667
4 3895 4352 5287 5293
4 5269 4161 5296 678
4 4021 1144 1135 5282
4 2362 2861 2221 2850
4 3217 2617 3367 3063
4 5297 2140 2131 2132
4 5296 669 677 668
4 5298 5250 4025 4333
4 3062 3465 3063 3004
4 5295 675 667 676
4 5250 5294 4025 4333
4 4781 1197 1206 1196
4 3790 3347 3348 3346
4 5244 1651 1660 1659
4 3416 3418 1200 3720
4 712 5280 5299 704
4 5172 5217 5300 648
4 3347 3885 5301 3348
4 3347 3885 4174 5301
4 3267 3275 2265 3567
4 5269 678 670 679
4 3267 3346 2269 3265
4 3096 3346 3347 3098
4 5302 5303 5304 1762
4 5272 1087 1086 1078
4 3347 4174 3885 3082
4 2359 3075 3081 2358
4 2928 3077 2799 2438
4 2485 3048 2486 5305
4 2975 2490 2977 2976
4 5306 688 696 687
4 5238 679 671 680
4 2489 3048 2490 2976
4 2484 2493 2422 2485
4 5307 1096 5308 1105
4 5308 1106 1105 1097
4 5309 5237 5265 5248
4 2491 2493 3484 2267
4 2526 2485 2527 3048
4 3712 5310 4323 5311
4 3153 3332 4056 2180
4 5312 5313 4744 2310
4 5314 1224 1223 1214
4 5312 4705 2312 2310
4 5109 1617 1626 223
4 225 2138 5315 226
4 5312 3833 3083 2312
4 4106 673 681 672
4 5111 224 225 1608
4 5312 3833 2312 4705
4 5316 674 682 673
4 5020 1648 1639 1640
4 3823 3324 2502 3009
4 2503 3823 5317 4433
4 3010 3823 5318 3009
4 4432 4433 5319 5317
4 3823 5317 4432 5318
4 5320 1615 1624 1623
4 2368 2363 2364 2361
4 5316 682 674 683
4 3797 3925 4262 3593
4 3246 3582 2944 2807
4 3232 3592 3800 3489
4 2368 2634 2367 2365
4 3489 3617 2220 3593
4 2298 2223 2301 2220
4 3925 3617 3489 3593
4 3800 3617 3489 3925
4 5289 683 675 684
4 5254 5217 657 656
4 5065 5066 1190 1181
4 5295 5321 5322 667
4 2997 2996 5323 3596
4 2997 3589 2996 3596
4 4161 679 687 678
4 2997 3594 5323 2999
4 5324 5302 5325 725
4 3595 3594 3598 4483
4 5225 1113 1104 1105
4 5326 680 688 679
4 3712 5124 5327 5310
4 3655 4127 4203 685
4 5328 1116 1115 1107
4 5329 1107 1106 1098
4 3595 3596 4526 4531
4 3595 3589 5330 3590
4 4036 3332 3221 2188
4 3595 3596 4531 5330
4 5331 689 698 697
4 2308 2307 2719 2724
4 2717 2716 2719 3059
4 5308 1105 1096 1097
4 2720 2715 3059 3818
4 2564 2566 2313 2315
4 5281 62 63 698
4 2313 3060 4133 2995
4 3349 3818 3060 3059
4 3060 2568 3547 3352
4 3060 4133 2995 3547
4 4077 707 715 706
4 3493 3810 5332 3586
4 3493 5332 3492 3571
4 3492 2529 3459 3335
4 4914 690 699 76
4 3981 3586 3587 3493
4 5333 1634 1643 1642
4 5334 3981 3586 3587
4 3982 3981 3587 3459
4 5335 693 692 684
4 5336 207 1679 208
4 3389 3470 3397 3394
4 4111 690 77 681
4 4855 75 1679 76
4 3710 5337 5123 5124
4 2237 2784 2239 4009
4 3620 1631 1630 1622
4 2755 2750 2784 2710
4 2428 2425 4410 2972
4 3486 4258 5338 4256
4 4913 699 690 691
4 5226 4106 681 672
4 2972 2425 4410 2419
4 2100 2109 3127 2108
4 2419 2972 5339 4410
4 2419 2425 4410 4716
4 2420 2419 3750 2418
4 2419 3324 5340 5341
4 5342 694 702 693
4 5343 1179 3745 1188
4 3712 5124 5310 5337
4 2881 5322 5344 5321
4 2414 2972 2419 2425
4 3493 3459 3490 3587
4 3493 3571 3586 5332
4 5332 3571 5345 5346
4 5302 1761 5303 1762
4 3394 3703 3391 3439
4 2636 3493 3490 3810
4 5332 2639 5347 3810
4 2636 2639 5332 3810
4 5306 696 688 697
4 5348 5272 5349 1087
4 5332 5346 5347 3807
4 5350 696 697 705
4 5332 5345 3571 3586
4 4841 2502 5340 3324
4 3823 2503 2502 5341
4 3001 3823 3324 5341
4 5281 698 689 62
4 3001 3324 3009 2417
4 5351 697 698 706
4 3823 3324 5341 2502
4 3003 2417 3009 4841
4 2417 3009 4841 3324
4 2896 2897 5352 5270
4 5341 3823 4433 3001
4 3411 3409 5068 3412
4 3413 3414 3412 3704
4 5353 698 63 707
4 3413 3411 3248 4022
4 3411 3725 3744 4022
4 3411 3743 3745 3410
4 3411 3409 5066 5068
4 5354 2084 2075 232
4 3411 3409 5065 5066
4 5355 5356 1657 1658
4 3199 3201 3207 3202
4 3201 2600 5357 2752
4 3201 5358 2752 3200
4 3201 2962 2752 5358
4 5359 1222 1223 1232
4 3201 3202 2608 3207
4 5356 1667 1666 1658
4 5360 1650 1649 1641
4 3837 2911 2913 2912
4 3470 3473 5361 5337
4 5362 692 701 700
4 2895 3837 2913 3995
4 5363 709 700 701
4 3284 1193 1192 1183
4 3995 5364 3994 3993
4 3995 3996 5364 2913
4 3995 4502 3674 3994
4 5362 700 691 692
4 5365 3527 5366 4836
4 5367 701 693 702
4 5368 701 702 710
4 3995 2559 3675 3996
4 2563 3674 3995 3675
4 3837 2559 3995 2895
4 3783 5369 1203 1194
4 3662 3590 5370 3259
4 5371 704 696 705
4 5279 1186 1195 1185
4 5343 1188 1187 1178
4 3588 3526 3037 2992
4 2394 2684 2685 2687
4 5299 714 713 705
4 5369 1204 1203 1194
4 2688 3601 3662 3938
4 3662 4034 3524 3938
4 2698 2702 2699 2680
4 2383 3848 3673 3847
4 5372 1176 5373 714
4 2494 2381 2507 2495
4 3783 1194 1203 70
4 5350 705 697 706
4 2496 3699 3700 4207
4 5351 706 698 707
4 2381 2385 2496 2866
4 2494 2500 2496 2497
4 5374 3783 5369 1203
4 5299 713 704 705
4 2381 2382 2507 2495
4 2496 4207 2677 3699
4 2677 2678 3847 5375
4 3527 5366 4836 4835
4 5376 5377 3685 4957
4 5378 5376 4493 4492
4 5376 4492 5378 5379
4 5376 5380 4957 4306
4 2877 3870 3868 3616
4 2845 3248 2690 3410
4 4111 4201 5226 1652
4 5376 5381 4306 5379
4 2213 3238 2820 3864
4 2562 2855 2559 2558
4 4826 3144 3142 4002
4 5303 5382 1762 274
4 4852 4853 74 1230
4 5134 1428 1437 244
4 2960 5161 2967 2818
4 2855 4438 4151 4670
4 5134 5383 1428 245
4 4852 73 1221 1230
4 5384 1669 1660 1661
4 2688 3525 3527 3524
4 5385 70 712 713
4 2997 3000 3590 3662
4 3525 3588 4835 4839
4 2564 2565 2315 2316
4 1175 1184 4465 4503
4 3000 3767 2316 2998
4 709 5363 5368 701
4 5386 72 1212 1221
4 5387 64 716 707
4 5388 1154 185 186
4 2991 2997 3000 2998
4 3525 3588 4463 4835
4 5279 1195 1194 1185
4 4553 2999 5389 4552
4 2999 5389 4552 3588
4 2689 3448 3446 5068
4 3048 3572 3105 4700
4 3286 3209 3100 3103
4 2797 2977 3209 2326
4 3049 3286 3100 3103
4 5386 72 73 710
4 3047 3103 3100 2976
4 5385 69 70 713
4 3048 3046 3105 3572
4 2907 2526 3100 2655
4 3048 4700 5305 3572
4 1183 3284 4290 1192
4 2489 3048 3104 2486
4 4494 4414 4542 3289
4 4494 4542 4181 3289
4 4494 5390 4181 4415
4 5353 1131 1140 64
4 3655 5391 686 677
4 2514 4414 4494 3290
4 2449 2422 2799 2798
4 4304 4298 2777 4292
4 2514 4494 5390 2424
4 5392 5393 5284 1141
4 3461 5042 3585 5394
4 3461 5042 5394 3462
4 4640 3084 4995 5395
4 5395 3084 5396 4640
4 2782 5397 5241 5240
4 4640 3926 4239 3044
4 4640 4837 4239 3926
4 4854 4853 5336 1679
4 4740 2801 2329 5201
4 5135 1437 1446 243
4 2410 4491 2329 2983
4 2771 2329 2412 2801
4 2319 2322 4679 2320
4 2723 3752 2568 3353
4 2420 5398 3551 3752
4 4853 3 75 708
4 2993 4834 2995 5399
4 4296 5400 4054 5401
4 4318 263 4055 1796
4 2993 2995 4133 5399
4 5386 710 73 709
4 3291 3288 2447 3322
4 68 5373 1176 714
4 2438 2447 3291 3288
4 4191 1161 1170 1160
4 4055 262 263 1266
4 5402 67 715 716
4 3868 3616 3870 4071
4 2264 2270 2271 3256
4 4075 65 66 716
4 5374 1212 5386 5403
4 2439 3650 3291 2447
4 3078 3077 3288 3292
4 5404 1143 1134 1135
4 3464 3189 3005 3465
4 5385 1185 1194 69
4 3464 3465 3005 3004
4 5065 1180 1181 1190
4 3465 4331 4379 4801
4 2617 3063 3465 4331
4 2392 3189 3062 3007
4 3746 3749 3748 3747
4 3748 2751 2335 2783
4 3141 2783 2775 2984
4 2950 3141 2812 2783
4 5402 1167 67 66
4 2812 3142 4002 3747
4 3140 3693 3142 3692
4 4074 190 1150 189
4 4075 5402 716 66
4 2481 3693 2483 3142
4 2950 2790 2954 2335
4 3141 2783 2984 4007
4 3748 2783 3141 4007
4 2788 4384 4385 4390
4 3276 2537 2542 5405
4 4532 5401 4322 1267
4 4384 4390 5406 4385
4 4387 3916 4384 5407
4 3915 5203 4385 4384
4 3656 3806 5408 4503
4 4384 3916 3915 5409
4 2784 4009 2750 2755
4 4009 5410 5411 2237
4 4009 2238 2750 2755
4 4578 5412 4775 2715
4 4407 16 283 15
4 2715 3818 3821 4578
4 3326 4352 5413 4775
4 3821 2715 4775 4352
4 3326 3895 4352 2718
4 5414 4428 4129 726
4 4080 20 311 19
4 4408 124 717 17
4 2715 3059 2865 2716
4 2715 5412 4775 2865
4 3207 2966 2949 2607
4 3201 5358 3197 2962
4 2338 2752 3980 2339
4 2752 5358 3980 2733
4 4395 290 3976 4383
4 2752 3201 3200 5357
4 5415 293 292 284
4 5357 2752 2712 2753
4 5414 717 718 726
4 4017 4428 5414 726
4 5416 5417 5418 4426
4 4428 4129 18 293
4 4475 311 310 302
4 2752 2603 2600 2339
4 5118 1715 5419 1714
4 3444 4781 3616 3868
4 4070 2623 3500 2626
4 3500 4070 3499 4809
4 2623 5420 2597 3491
4 4455 719 718 126
4 2833 2842 2938 2836
4 2623 4809 5420 3501
4 2573 3657 2185 2194
4 4408 124 1 1760
4 2845 3410 2930 3443
4 3501 2623 2834 2832
4 3390 3513 3511 3507
4 3441 4567 3511 3973
4 3511 3512 3439 3973
4 5421 1722 5422 1723
4 3786 1724 127 1733
4 3511 3391 3439 3512
4 3072 3073 3070 3733
4 3064 3073 3068 3074
4 3729 2184 5423 2175
4 2416 4015 3036 3037
4 4079 4080 4428 735
4 4460 728 719 720
4 5424 128 129 721
4 4406 731 740 739
4 2689 3368 3998 2696
4 2554 2917 2927 4798
4 3368 3998 2891 2887
4 3448 3721 3414 3068
4 5425 1703 1694 1704
4 3715 3065 3068 3067
4 3853 3068 3715 3721
4 4455 125 126 718
4 2549 2552 4591 2548
4 2551 2891 2549 3879
4 5426 721 730 729
4 2535 2777 2276 2541
4 3400 1721 1712 1722
4 2288 3113 3276 3541
4 3656 1165 5427 1166
4 5428 3154 5429 5430
4 5431 4713 5432 5433
4 5031 1712 1711 1702
4 4713 5432 5433 5430
4 5430 5433 1028 5432
4 5434 1696 1695 1686
4 4669 5430 5432 4713
4 5016 759 758 750
4 2536 2691 2843 2534
4 5424 129 722 721
4 4025 5298 4333 4024
4 5298 2679 4019 4024
4 5298 4023 4025 5250
4 3786 721 720 128
4 4024 5298 4333 5435
4 5298 5250 4333 5125
4 3710 5337 3470 5436
4 5119 5437 5121 4314
4 4254 723 722 130
4 3940 5437 3943 5121
4 3710 5124 3711 3712
4 5124 5337 3712 3710
4 3425 3666 3397 3470
4 3442 2685 3441 3439
4 131 4253 5325 1697
4 3440 3442 3937 5438
4 5439 1851 1842 1843
4 3905 4485 4524 344
4 3442 4568 3939 5438
4 3441 3938 4568 4569
4 4568 5440 4567 4569
4 4253 130 1706 1697
4 2924 5131 3620 2925
4 2924 5441 2279 2925
4 5020 1639 5105 2925
4 5020 1649 5360 5442
4 5020 2870 5442 5360
4 5324 133 725 4
4 5020 2782 2870 5360
4 5020 5441 2782 5360
4 5325 725 724 132
4 5441 2279 2925 5020
4 3950 3134 4986 3535
4 5302 1770 1762 1771
4 2961 3308 5086 3309
4 5242 4274 2780 2781
4 3950 3197 5358 2961
4 2560 3535 2961 3837
4 2960 2961 3980 2962
4 5118 1705 4253 1706
4 2961 3197 2962 2963
4 2961 5086 3308 5358
4 3146 4350 3145 2713
4 2703 2713 2706 3667
4 5443 5422 5419 5421
4 3609 4098 5444 5445
4 4016 736 737 745
4 2336 2811 2812 2335
4 2705 2704 2712 2732
4 3825 1749 1739 1740
4 4480 319 310 311
4 3345 2704 2713 2706
4 3953 5446 738 5447
4 2713 2711 2848 2709
4 2706 3337 2785 5070
4 2791 3345 2706 2704
4 4459 4402 291 4395
4 4068 3824 4411 1758
4 3431 3433 4457 3432
4 5415 4459 4402 292
4 5447 729 737 728
4 2706 5070 3667 3345
4 4052 4060 4053 4058
4 5426 720 721 729
4 3438 4476 4486 4149
4 4397 4319 4320 4615
4 2625 3778 3032 3086
4 4068 15 282 14
4 4448 737 738 746
4 3085 2750 2932 3749
4 5447 739 738 730
4 3393 1730 1721 1731
4 5448 4406 730 731
4 2705 2708 2337 2712
4 4053 4002 2262 5449
4 4052 3747 4002 4060
4 5118 5450 4253 5451
4 2618 4002 2821 2262
4 2618 2821 2812 2336
4 5451 732 724 733
4 5118 5422 4314 1714
4 2336 2812 2618 2931
4 4807 5452 3903 5453
4 3487 4070 3903 4810
4 5325 132 724 131
4 2594 3560 3927 3926
4 5444 134 135 743
4 3609 733 725 734
4 4447 740 731 732
4 3559 3560 3926 4639
4 5451 732 5450 723
4 2431 3038 3661 3042
4 3557 3562 4331 3898
4 4254 129 130 722
4 3896 2728 3897 3563
4 4005 4006 767 758
4 3219 2265 3061 3567
4 5454 4103 5451 3609
4 5455 134 734 133
4 4048 5131 5130 5456
4 3623 3624 4577 2980
4 3626 3256 4970 3627
4 2484 2493 2485 2487
4 4577 2745 3866 2621
4 2620 4970 3261 2621
4 5337 5447 5310 5446
4 4017 735 727 736
4 4017 4079 4428 735
4 2621 4970 3261 4984
4 4428 726 735 19
4 3432 309 300 301
4 5457 5458 5459 1975
4 4448 755 746 747
4 5447 729 738 737
4 2270 2620 3626 3256
4 4404 718 719 727
4 2925 5460 2916 5131
4 3505 1739 1730 1740
4 4472 317 316 308
4 2383 3848 3677 2908
4 3392 5461 3400 1712
4 2383 3845 3846 3677
4 4016 745 737 746
4 5462 4018 4403 4508
4 4149 326 317 318
4 3846 3287 3019 3677
4 4209 757 756 748
4 4399 1790 1781 1782
4 3846 4613 4287 3677
4 3826 5463 1809 1818
4 4365 5029 1710 1711
4 5450 722 723 731
4 3845 2383 3847 3848
4 3331 3450 3365 3417
4 2884 2898 2885 2887
4 3609 742 733 734
4 5444 5455 5445 1770
4 5131 5456 3620 1621
4 4451 751 759 750
4 2884 2886 2885 2896
4 5129 5132 5131 5133
4 3609 743 742 734
4 2550 3882 2926 2889
4 2696 3448 3853 3998
4 3448 3998 3854 3853
4 3944 5464 4130 5465
4 743 3609 742 5466
4 4451 759 751 760
4 3414 3704 3721 3412
4 3415 3414 3696 3721
4 4032 302 4080 4475
4 2968 2763 3235 3236
4 4079 736 744 735
4 5467 1741 1731 4453
4 4479 744 753 21
4 3541 2781 3543 3542
4 3235 3237 3542 3543
4 4079 745 744 736
4 3956 754 745 746
4 3956 755 754 746
4 4080 744 5468 4479
4 3541 2772 3618 3543
4 3618 2968 2915 2275
4 3618 2924 2915 4048
4 2819 4438 2855 4670
4 4562 773 764 765
4 3840 2855 5469 2562
4 3238 5470 5471 3714
4 3238 4438 5471 3239
4 5310 740 748 739
4 4399 1792 1791 1783
4 3238 3714 4669 2820
4 5446 747 739 748
4 3238 3864 5470 2820
4 4590 355 346 347
4 3055 777 5472 786
4 2819 4669 4438 4670
4 4240 2941 3780 4252
4 5327 749 741 750
4 5451 732 723 724
4 5466 743 751 742
4 4240 2941 5473 3780
4 3834 3476 2945 3335
4 5474 135 752 743
4 3476 3335 3834 3571
4 5131 5460 2916 5133
4 3755 751 750 742
4 3476 2941 3458 5473
4 4244 4249 4240 3571
4 4216 761 769 760
4 5129 5131 4048 2916
4 2945 2941 4244 4560
4 4452 752 761 760
4 4452 760 751 752
4 4216 4452 5475 761
4 2806 2530 2299 3335
4 2530 2938 2531 2945
4 4217 779 778 770
4 5476 136 137 761
4 5468 754 753 745
4 4490 789 780 781
4 5468 4547 754 4488
4 2945 2939 4560 2943
4 5468 753 744 745
4 4397 762 4547 4615
4 4397 4480 4479 320
4 4590 4564 4545 347
4 4564 347 346 338
4 2530 2806 3834 3335
4 4437 345 336 337
4 4458 4476 4149 318
4 3713 3851 2524 3497
4 2626 4070 3499 3500
4 4488 755 763 754
4 2714 3816 2720 2995
4 4437 346 345 337
4 4523 23 771 24
4 4070 3499 4809 4092
4 4477 334 325 326
4 2564 2994 2998 3816
4 4477 335 334 326
4 2720 3060 2995 3817
4 2995 5399 4834 1297
4 4137 3179 5477 4576
4 2993 4834 5399 4134
4 4448 756 755 747
4 5399 1287 1288 1296
4 3957 764 755 756
4 4526 4531 4555 332
4 2565 2394 2396 3000
4 3258 3439 3394 3799
4 3425 3470 3710 3473
4 3983 4315 3986 3988
4 4539 4435 354 4586
4 5457 5478 1974 5479
4 5480 3517 5481 3518
4 4575 773 772 764
4 4809 5482 3500 5483
4 5016 750 758 749
4 4215 760 769 768
4 3389 3394 3399 3391
4 3970 2685 3601 3600
4 5304 1772 1771 1763
4 5484 778 777 769
4 3467 3473 3425 3468
4 3442 3937 3012 2684
4 3394 3391 3395 3799
4 5018 5485 4994 5033
4 5018 5486 5487 5488
4 5475 761 137 770
4 5018 5487 5486 5489
4 5485 5018 5490 5033
4 5476 761 752 136
4 4206 1773 5491 5492
4 5018 5490 5487 5038
4 5018 5490 5033 5487
4 5018 3819 5038 5075
4 4098 1780 1788 1779
4 2619 2262 3497 5493
4 4615 771 762 763
4 4523 5494 771 4320
4 3761 4143 3191 4927
4 4236 809 800 801
4 4253 1705 1696 1706
4 4320 762 771 23
4 3454 4137 4666 4576
4 3761 4143 3762 2660
4 4512 4477 325 326
4 5494 781 780 772
4 5399 1297 3547 1296
4 3761 4927 5495 4143
4 2663 2878 5328 3761
4 5195 2663 2878 5328
4 4547 4615 762 763
4 2661 3191 3761 2660
4 344 4495 4477 343
4 2662 2664 2665 2878
4 4004 766 757 758
4 2659 3914 3769 3913
4 4631 5496 1818 1827
4 3957 765 764 756
4 4435 353 344 345
4 5463 1817 1808 1809
4 3761 4927 2878 5495
4 2626 2619 3497 3498
4 2904 2905 2508 4272
4 4004 766 765 757
4 4490 781 5497 790
4 5498 5499 1286 5500
4 3455 774 765 766
4 4587 372 363 364
4 3059 5412 2865 3293
4 4006 759 767 758
4 3788 767 776 775
4 2375 2384 2381 2385
4 4004 766 758 767
4 2651 2658 2654 2515
4 2904 2908 3604 3848
4 5051 777 776 768
4 5484 769 777 768
4 4216 769 761 770
4 5501 5458 5502 5459
4 4323 5327 749 5310
4 4015 3037 5503 4509
4 3708 3036 4015 3936
4 3036 2416 3002 4015
4 4015 5504 5503 3555
4 4015 3555 3002 4013
4 4015 5504 4013 5505
4 5475 770 137 138
4 2650 3451 3026 3021
4 3788 3784 3455 3451
4 5506 1781 1780 1772
4 5507 779 787 778
4 2650 2647 3030 4078
4 2641 2649 3139 3138
4 2686 3011 3945 3742
4 4575 772 763 764
4 4743 4895 2511 4680
4 3002 3702 3012 3708
4 4588 773 781 772
4 3008 3011 3012 3226
4 5494 772 780 771
4 4489 4668 798 799
4 4586 362 353 354
4 3002 3003 3984 3555
4 4437 4590 346 4564
4 4563 356 4596 365
4 3822 3987 3002 3984
4 3002 3226 3702 3987
4 2416 3002 4015 3555
4 4688 5508 800 799
4 4576 782 773 774
4 5509 1835 1826 1827
4 3894 3938 5510 4208
4 3788 775 766 767
4 3455 775 774 766
4 3970 3600 3436 3971
4 3970 3600 4878 3436
4 5294 1846 1845 1837
4 5511 1313 1314 1322
4 3452 783 774 775
4 4225 371 370 362
4 3969 3600 3971 5512
4 3969 5512 3976 3974
4 5513 1817 1825 1816
4 4637 392 391 383
4 5500 1295 1287 1296
4 3055 776 777 785
4 1707 3488 212 1716
4 4208 3970 3894 3938
4 3055 786 785 777
4 4467 138 779 770
4 4217 770 778 769
4 3969 3441 3973 3975
4 3441 3970 2685 3938
4 2909 3677 2383 3019
4 2382 2652 2408 2411
4 4135 139 140 788
4 2623 3501 5420 3491
4 4030 3605 3847 3603
4 2619 2624 2625 3777
4 3673 3603 2497 3699
4 2944 2809 2807 2528
4 3210 3481 4938 3172
4 4938 4939 3172 3481
4 4312 4939 4938 4342
4 4467 779 138 139
4 4211 3488 212 1707
4 4938 4342 4939 3480
4 4439 3488 4832 1243
4 4312 2633 3875 3902
4 4545 780 789 25
4 4309 5514 4311 4343
4 3211 3929 3509 4308
4 5515 5462 4411 3825
4 5516 5517 810 819
4 3562 3093 4375 4376
4 4376 5518 3661 3093
4 4376 3949 3946 3948
4 5497 790 781 782
4 213 1243 3488 1242
4 4376 3661 5519 4330
4 4539 355 4563 364
4 3935 3254 5520 3896
4 2920 5520 5521 4639
4 4235 810 801 802
4 5477 791 782 783
4 4711 4684 5517 818
4 4118 3488 1243 1242
4 4576 783 782 774
4 4683 4622 4638 381
4 3053 794 793 785
4 3560 3935 3896 3254
4 5522 803 4673 812
4 2543 3216 2728 3254
4 4526 4504 322 331
4 3452 784 783 775
4 5523 792 783 784
4 5501 5459 5502 5524
4 5472 778 786 777
4 3091 3032 3779 4786
4 3935 3254 2919 5525
4 4668 808 807 799
4 5526 787 796 795
4 3910 785 786 794
4 3241 3718 3723 4947
4 3240 3118 3243 4941
4 4400 1792 1800 1791
4 3118 4947 4941 3240
4 4217 770 4467 779
4 3242 3718 4947 4959
4 5527 796 797 805
4 5528 1843 1842 1834
4 3930 3242 3719 3508
4 3242 3718 4959 3930
4 3991 4949 4535 4557
4 5507 787 779 788
4 2658 2514 2656 3989
4 2658 3991 2509 3989
4 4141 1887 148 147
4 3991 4949 4557 3187
4 3991 4537 3989 4414
4 3992 3290 3828 4558
4 3057 3895 3589 4324
4 3181 2682 2680 2681
4 2469 3056 2470 2303
4 5193 5247 58 1086
4 4685 29 392 28
4 2681 2683 5375 3373
4 4620 798 27 26
4 4620 4566 4563 365
4 5497 791 790 782
4 4775 5412 5529 5530
4 4638 391 390 382
4 2677 2699 2681 4207
4 4658 381 380 372
4 4688 808 799 800
4 2682 2681 3373 2683
4 2763 3235 3236 3114
4 2244 5531 3151 2245
4 5508 800 799 791
4 4004 766 3455 765
4 5532 800 791 792
4 2245 2231 2236 3151
4 5497 5508 791 5532
4 5523 784 793 792
4 5477 792 791 783
4 5533 4132 5534 5499
4 2244 5531 3979 3151
4 5535 801 792 793
4 2762 2288 2763 3114
4 2762 2764 3111 2242
4 3053 785 793 784
4 4040 5536 4659 388
4 5535 5537 4235 802
4 4565 4619 5536 388
4 5538 4150 4155 5227
4 3552 5498 4434 1278
4 3910 794 786 795
4 2787 4155 4390 2786
4 5538 4389 2787 4390
4 4477 343 335 344
4 2789 4153 5223 4703
4 4712 419 410 31
4 2787 5227 4154 5538
4 2214 4154 2787 5227
4 3091 5539 3892 3664
4 4832 3488 213 1243
4 2932 3032 2749 3086
4 2992 3588 4134 3037
4 5540 788 796 787
4 5541 1817 1816 1808
4 5542 1807 1806 1798
4 3778 3779 4786 4954
4 3778 3032 4786 3779
4 5543 140 797 788
4 2619 2624 3777 2626
4 3091 3779 2939 4560
4 3032 3090 2749 3086
4 3904 3906 4136 3907
4 4138 3904 3906 4136
4 4309 3162 4310 3316
4 5544 1835 1834 1826
4 4310 4311 4903 3162
4 4310 4311 4905 4903
4 4596 789 798 26
4 4489 798 789 790
4 3664 5539 5058 5545
4 4309 4310 3317 3316
4 5508 799 790 791
4 4236 810 809 801
4 4582 401 392 29
4 4752 3770 4231 4732
4 4678 398 389 390
4 4683 389 380 381
4 5193 5272 5546 1086
4 5517 819 818 810
4 5193 5198 1077 57
4 5547 794 802 793
4 4688 809 808 800
4 3385 3180 2576 2760
4 5532 801 800 792
4 5548 1323 1315 1324
4 2302 2427 2318 2399
4 2586 3184 2576 2577
4 5535 802 801 793
4 3888 3954 3430 3599
4 3788 3054 3452 775
4 5497 5532 791 5477
4 4622 372 4587 373
4 2578 4677 3767 3259
4 5549 5550 5551 5552
4 5553 835 843 834
4 4621 398 399 407
4 5554 5544 5555 4468
4 2317 2403 2401 2577
4 5547 802 794 803
4 2288 2537 5405 4425
4 3276 2288 2537 5405
4 2664 2290 4425 5196
4 5556 4392 4391 5557
4 4582 4685 29 392
4 5558 4688 5559 3539
4 4660 390 4638 391
4 5560 814 813 805
4 4754 33 428 32
4 2664 4394 2880 5196
4 5561 803 795 804
4 2659 3913 2286 2660
4 3160 804 796 805
4 2659 3769 2245 2283
4 5562 1815 1806 1807
4 5563 806 141 142
4 5527 805 797 806
4 4425 5405 2288 3112
4 2282 2288 4425 2537
4 5564 143 144 824
4 2244 4425 2764 4394
4 5565 806 815 814
4 3877 2789 2209 4153
4 2631 3152 2674 3313
4 2789 4701 3519 5223
4 2673 2674 2466 3841
4 2959 2964 4000 3515
4 2675 3519 2788 2789
4 3285 4125 2408 4491
4 4710 31 410 30
4 5566 227 228 1581
4 4620 4641 807 5567
4 5567 816 807 808
4 4641 807 816 28
4 4148 410 409 401
4 5568 408 399 400
4 5568 409 408 400
4 5567 817 816 808
4 3846 3019 3287 4125
4 3285 2408 4125 3019
4 3287 3504 4287 5569
4 2111 5232 2120 5566
4 5517 818 809 810
4 4222 817 825 816
4 4573 1829 1837 1828
4 3049 2909 3285 3287
4 3286 3102 3504 3503
4 3055 786 5526 3910
4 3287 4287 3504 3102
4 4220 826 4681 827
4 4580 5553 835 844
4 4556 4210 4531 333
4 5566 5570 1590 1581
4 2909 3287 3677 3019
4 3846 3287 3677 4287
4 4287 3050 3102 3287
4 5571 1331 1330 1322
4 5572 4287 3050 3102
4 5522 811 803 812
4 3833 2312 4617 3832
4 3833 3832 5573 3738
4 4685 28 816 29
4 4728 428 427 419
4 4647 4582 4710 401
4 5516 810 811 819
4 5312 4692 4717 5574
4 3833 5573 4100 5575
4 4673 812 804 813
4 4311 4903 4991 4905
4 4674 814 823 822
4 4309 3317 3643 3316
4 4309 5514 4310 4311
4 4311 4343 4312 4309
4 4312 3875 4903 3902
4 4312 4344 4939 4342
4 5576 815 806 142
4 4312 4938 4939 3172
4 5576 815 142 143
4 5577 144 833 824
4 4343 4344 4991 4311
4 3528 2857 2813 3663
4 3877 3566 2217 3602
4 3566 5212 3861 3693
4 3860 3877 3143 3862
4 3566 5212 3129 3861
4 3566 2483 2217 3602
4 5566 228 2120 2111
4 5168 3566 5212 3129
4 4729 418 409 410
4 4684 817 808 809
4 4730 417 408 409
4 5578 839 5579 848
4 5566 2120 228 227
4 2261 2759 3154 3714
4 4222 826 825 817
4 4682 836 827 828
4 2254 2759 4670 3157
4 2759 4669 3155 5428
4 5580 828 819 820
4 4221 834 825 826
4 5581 1892 1901 1900
4 5582 3498 3499 3497
4 5580 829 828 820
4 3154 3714 5428 4482
4 3713 4515 3154 4445
4 3156 2259 2203 3154
4 3154 3155 5430 5428
4 4611 5583 1345 1344
4 4236 5532 801 800
4 4278 854 845 846
4 5112 1571 1580 1579
4 3033 4351 2749 3090
4 2250 2914 2278 2969
4 5584 820 812 821
4 4674 822 813 814
4 2274 2537 2276 3276
4 3603 830 829 821
4 4145 1873 1864 1865
4 2276 2778 2781 2541
4 2778 5585 2781 2541
4 2779 2877 2875 2776
4 4030 821 813 822
4 3605 821 822 830
4 4304 4295 4292 2777
4 2778 5585 2541 4295
4 2773 5241 2780 2782
4 4589 4104 4915 2780
4 4921 3885 3884 3348
4 5586 815 823 814
4 4559 832 823 824
4 4921 3095 3885 4173
4 4025 4333 5294 5292
4 4921 4173 5301 4175
4 4921 4175 5587 4173
4 4921 5587 5588 3006
4 4921 3884 5589 5590
4 5262 4391 5556 5185
4 5591 5138 3861 3863
4 5591 4057 5592 5593
4 4711 828 827 819
4 5591 4057 4826 3747
4 3566 3142 5591 3863
4 4681 827 826 818
4 4681 826 817 818
4 4753 426 417 418
4 4752 5594 4148 5553
4 4289 3380 4288 872
4 5591 3142 5592 3747
4 5516 819 4711 5517
4 4900 837 828 829
4 5157 5085 618 609
4 3411 3725 5068 5066
4 4542 4724 4181 416
4 3449 4755 1199 4072
4 2690 3413 3411 3248
4 2249 2247 2843 2535
4 4580 844 835 836
4 2642 5595 4631 4632
4 5551 1365 1356 1357
4 4682 837 836 828
4 3411 3248 4022 3743
4 2845 2930 3444 2847
4 3605 830 822 831
4 5584 820 811 812
4 2248 2689 3445 2249
4 4699 856 857 865
4 3413 3411 3725 3412
4 3248 3250 3743 3252
4 4632 1820 1828 1819
4 3160 804 4673 5561
4 3247 3252 3248 2929
4 4332 1852 1843 1844
4 5596 842 833 145
4 3910 795 5561 794
4 2845 3443 2930 2929
4 3735 5274 3740 3736
4 4750 3371 3401 3735
4 2605 2932 2624 3032
4 4140 842 851 850
4 2825 3964 3548 4799
4 3735 4675 3736 3737
4 5597 842 841 833
4 5577 833 144 145
4 3735 4675 5274 3736
4 3735 5598 3401 4750
4 3735 3401 5598 3737
4 2825 3964 3737 2824
4 5157 5137 4999 609
4 2825 3964 4799 3737
4 5376 5599 5380 5600
4 3188 5589 2391 3584
4 4221 835 834 826
4 3188 2933 3585 3584
4 3188 3007 5589 3006
4 2392 2300 2301 3189
4 5193 5243 644 653
4 4765 436 435 427
4 4709 428 437 436
4 5601 1362 1371 1370
4 3323 846 845 837
4 5602 856 848 857
4 5377 1348 1340 1349
4 3461 5042 3188 3585
4 4580 845 844 836
4 3188 5042 3005 3006
4 4900 838 837 829
4 5603 1411 1410 1402
4 900 3999 3270 901
4 4695 398 407 406
4 5604 853 861 852
4 4652 853 5594 844
4 3604 838 830 839
4 3656 3849 5427 4664
4 4732 862 853 854
4 5578 838 839 847
4 3656 3806 4503 2573
4 3656 3806 2573 3657
4 2619 4053 2262 5449
4 3298 3544 3482 3300
4 5605 832 840 831
4 4829 1431 1439 1430
4 5606 1853 1861 1852
4 4474 855 846 847
4 5607 841 850 849
4 5597 833 841 832
4 3300 3334 2722 3544
4 3300 3482 3334 3544
4 3300 3545 3544 2722
4 3300 2722 3350 3545
4 4124 5608 4285 4019
4 3300 3299 3298 5609
4 5610 4141 851 147
4 5094 5611 5612 5613
4 5610 147 146 1878
4 5611 4484 5614 5473
4 5611 5615 5614 5094
4 5611 3458 4484 5473
4 5157 5137 609 86
4 5611 5613 5334 5612
4 3770 4652 4651 4278
4 5553 844 843 835
4 4621 4724 407 408
4 4707 4793 4708 870
4 4712 4710 31 410
4 4712 843 852 32
4 5611 5473 3981 3458
4 4148 410 4712 4729
4 3379 2424 2517 2423
4 4652 854 853 845
4 5549 5616 5202 5617
4 4733 445 444 436
4 5618 3381 4792 4288
4 5611 5612 5334 5619
4 5611 5473 5619 3981
4 4751 443 442 434
4 4057 3747 5620 4010
4 5621 889 888 880
4 5579 840 848 839
4 4057 5622 5623 4061
4 4057 3747 4060 4826
4 4707 861 34 33
4 4474 847 846 838
4 4496 4806 5616 5624
4 5032 4168 4994 561
4 4057 5592 5623 5620
4 3766 1378 1386 1377
4 4278 855 854 846
4 4542 4718 4543 415
4 5625 1389 1398 1397
4 4057 5626 4060 4061
4 4057 5626 4061 5623
4 4782 452 443 444
4 5607 841 849 840
4 5579 848 840 849
4 3072 3733 3070 3734
4 3105 848 849 857
4 3064 3074 5627 3071
4 4971 2726 3089 3088
4 4140 850 841 842
4 3578 149 869 148
4 4527 4530 3671 3071
4 5628 5610 4140 5597
4 3769 4527 3070 3916
4 3769 3070 3733 3916
4 3474 2837 2840 2839
4 5157 1589 86 85
4 2373 2368 2632 2808
4 3489 3925 3592 3800
4 2296 3617 3232 2363
4 5594 852 843 844
4 4652 853 844 845
4 2622 2597 2609 3491
4 2842 2528 2531 2529
4 3491 2622 2347 2609
4 4728 428 4709 427
4 4707 4754 33 428
4 2601 2259 3576 2597
4 2597 3577 5420 3500
4 3378 4817 4792 3376
4 2597 3577 3576 5420
4 4042 387 4043 386
4 2597 3575 2609 3491
4 4279 863 854 855
4 2807 2934 3246 2935
4 3035 4699 2520 4474
4 3171 3172 3211 2633
4 4782 453 452 444
4 2293 2291 3891 3804
4 2842 2834 3474 2837
4 2635 3492 2529 3459
4 4794 461 452 453
4 4792 872 3380 881
4 4291 865 864 856
4 4415 4724 4753 4181
4 4291 864 855 856
4 4474 856 855 847
4 3581 2390 4172 3789
4 2530 3834 2806 3774
4 4279 864 863 855
4 2806 3335 3789 3834
4 4895 4682 3323 4220
4 5610 146 851 842
4 3790 3347 3098 4462
4 3346 4866 3794 3791
4 3206 4168 570 569
4 3267 3346 3213 3348
4 4139 859 850 851
4 4281 1882 1881 1873
4 2742 3265 3346 3097
4 3960 867 858 859
4 2268 2742 2269 2267
4 4704 4790 4584 406
4 5610 4141 147 1887
4 5628 1879 1888 1887
4 2269 3096 3346 3347
4 4159 4885 481 482
4 5629 5630 4499 5631
4 3303 3308 2462 3302
4 3533 3529 3838 5357
4 4289 872 863 864
4 3305 2591 3325 4689
4 873 4291 864 4289
4 3302 3305 2555 2458
4 3134 3136 3302 3307
4 5604 862 861 853
4 3136 3302 3307 3306
4 4645 446 445 437
4 4288 871 862 863
4 5632 4817 5621 4793
4 5633 1473 1464 1465
4 4518 5634 5635 5636
4 4518 5635 5634 4482
4 4732 863 862 854
4 4514 4518 5634 4481
4 4792 881 880 872
4 2608 3200 5357 5637
4 3503 1908 1907 1899
4 4289 873 872 864
4 4514 4519 4518 4481
4 4518 4481 4519 5638
4 4699 865 857 866
4 4514 4481 4517 4519
4 3794 4901 3017 4875
4 865 4291 864 873
4 3579 149 878 869
4 5639 1395 1394 1386
4 4700 866 858 867
4 4518 4519 4195 5640
4 4700 858 866 857
4 4867 5641 908 909
4 3103 3502 3220 3503
4 3578 4139 860 3961
4 5566 228 5642 1581
4 2788 3519 4393 5223
4 2788 5223 2789 3519
4 2788 4388 4389 4393
4 4813 925 4877 926
4 4390 5538 5643 4155
4 4390 5538 5644 5643
4 4390 2786 4155 5406
4 3329 1889 1898 1897
4 4390 5644 4388 5645
4 4390 5646 5538 4389
4 4390 5644 5538 5646
4 3345 3338 3336 3337
4 3336 3340 2988 3339
4 4141 1887 1896 148
4 2981 2952 2988 2989
4 3578 4139 4141 860
4 5647 919 918 910
4 3337 2953 2785 5070
4 5648 870 861 862
4 2421 3405 3289 4181
4 2706 3337 5070 3345
4 4708 35 446 34
4 3134 3137 3135 3535
4 4708 4793 5621 879
4 2561 3676 3675 3841
4 5648 871 870 862
4 3980 2733 3308 2732
4 4784 5649 463 464
4 5650 890 4811 899
4 2961 3308 3980 5358
4 5651 5315 2129 5566
4 4792 880 871 872
4 5652 874 865 866
4 5653 5654 1928 5655
4 3670 875 866 867
4 4817 890 889 881
4 4965 891 882 883
4 5656 876 867 868
4 2752 3980 2339 2733
4 5601 5657 1371 1362
4 5018 5019 4994 5485
4 2962 2960 2966 2338
4 2243 3730 4469 3731
4 3483 874 873 865
4 5628 1887 5610 1878
4 5658 874 875 883
4 247 5659 1410 1401
4 2465 2234 2591 2241
4 4741 1883 1891 1882
4 4156 3676 4727 3841
4 5660 5661 1432 1433
4 3841 3675 4156 3676
4 150 3831 151 1914
4 4789 877 885 876
4 4264 450 441 442
4 5662 5633 1473 1464
4 3676 3152 3151 4727
4 5663 1888 3329 1897
4 2241 2233 3151 3676
4 2241 2466 2233 3676
4 5664 884 885 893
4 5658 883 875 884
4 4661 4663 3705 3697
4 3561 1915 1914 1906
4 2589 2965 2468 2463
4 3565 2949 5665 5666
4 3579 878 149 150
4 3479 5019 2352 4126
4 3479 3480 5076 5075
4 3479 2610 2352 3819
4 2708 2751 2707 2703
4 4708 4768 5621 4645
4 4793 880 879 871
4 4793 871 879 870
4 2705 2335 2785 3175
4 2703 5070 2706 2785
4 5621 888 879 880
4 2703 2784 2710 3607
4 2186 3419 2572 2195
4 3403 4782 452 443
4 3380 882 881 873
4 3483 883 882 874
4 4861 478 469 470
4 3376 891 890 882
4 4838 1406 1415 1414
4 3202 4168 3205 3206
4 2710 2725 2813 5091
4 2710 2755 5060 2239
4 4158 463 5649 472
4 2754 2199 196 2198
4 4811 900 899 891
4 5485 5032 4168 4994
4 2710 2725 5091 2755
4 4607 4023 5298 5125
4 2678 3847 4607 3844
4 878 886 3831 877
4 5298 4019 4610 5435
4 4925 3261 5667 3771
4 4965 892 891 883
4 3999 900 891 892
4 5668 4598 929 930
4 887 878 3831 150
4 2384 3844 2679 2379
4 2380 2384 2679 2379
4 3326 3327 5669 5286
4 5670 1916 1925 1924
4 5671 1439 1438 1430
4 2863 3966 5413 3326
4 3269 3363 2222 3772
4 4777 5286 3326 3895
4 3261 4984 4970 5672
4 3606 884 875 876
4 2718 2715 3058 4352
4 3326 4352 2715 2718
4 887 886 3831 878
4 3121 3283 5668 3282
4 3830 152 896 151
4 559 4163 5013 568
4 3121 2850 4738 3122
4 5649 473 472 464
4 4814 471 480 479
4 5649 472 463 464
4 4739 3120 3121 3122
4 2853 3120 3121 4598
4 3052 196 2754 1211
4 5650 898 889 890
4 3272 902 910 901
4 2362 2852 2221 2363
4 4335 3125 3126 2853
4 3389 3400 5436 3393
4 5660 1433 1432 1424
4 3999 901 900 892
4 884 5658 883 892
4 3399 3703 5029 5673
4 4880 481 490 489
4 5674 892 884 893
4 3397 3741 3742 3666
4 3271 909 900 901
4 3399 3392 5031 5461
4 4337 1387 1395 1386
4 3389 3399 3392 3391
4 3399 3400 3392 5461
4 4821 4176 4796 460
4 5674 901 893 902
4 2745 3866 2747 2980
4 3399 3703 5673 3391
4 3830 151 896 887
4 3865 893 894 902
4 3871 4997 4922 3883
4 5675 887 895 886
4 5667 5676 3363 4897
4 5677 1924 1932 1923
4 3199 3204 5067 3206
4 4919 4997 4922 3871
4 4997 4939 3481 3520
4 3210 3211 4938 3929
4 5678 5679 157 941
4 4938 3480 5680 4342
4 5677 1932 1924 1933
4 4939 5489 3480 4342
4 4939 4342 4344 4345
4 4343 4312 4309 4938
4 5681 896 905 904
4 4310 4905 4311 4958
4 4312 4342 4938 4343
4 4939 3481 3520 3172
4 4879 480 4880 489
4 2621 4984 3261 5682
4 3526 3936 4642 3036
4 3526 3036 4642 3037
4 4238 908 5641 917
4 4159 473 481 472
4 5683 5684 5685 4875
4 5650 899 898 890
4 4840 898 897 889
4 2649 3138 3756 3139
4 3204 3206 579 5067
4 2649 2647 3139 5686
4 3006 4246 4247 4698
4 2649 2645 2646 2647
4 2649 2647 5686 2645
4 5687 3423 4433 3941
4 4881 1415 1424 1423
4 4861 479 478 470
4 3271 910 909 901
4 5688 4340 5459 5524
4 3669 3281 3647 3264
4 3331 1210 3396 3418
4 4867 908 899 900
4 5689 1936 1935 1927
4 2360 2823 3371 3740
4 3370 3740 2765 2823
4 3125 5690 5151 3359
4 5674 893 901 892
4 2823 3736 2862 2824
4 2765 2823 3740 2862
4 2825 2899 2974 2827
4 4112 5691 154 914
4 5692 3691 3692 3693
4 3370 3369 3610 3684
4 4334 3830 1932 152
4 5273 3278 2901 2862
4 2581 2480 2957 2964
4 5691 153 154 914
4 5641 918 917 909
4 5693 1933 1924 1925
4 5694 5695 1942 1933
4 3877 4153 5234 5223
4 3877 4153 3143 3862
4 2211 2207 2481 2774
4 3566 3863 5591 3861
4 4736 911 919 910
4 3566 5591 3142 3693
4 3142 2481 2950 2216
4 5696 5697 5698 949
4 4737 912 920 911
4 2950 2452 2951 2954
4 5699 3771 3261 3645
4 2208 2217 3143 2215
4 3860 3143 3566 2215
4 2216 3142 3566 2215
4 2994 5700 3816 4834
4 2998 2994 2996 3816
4 2313 2717 2714 2307
4 2991 2992 3526 3588
4 4844 39 482 38
4 4816 898 906 897
4 4159 482 481 473
4 4599 3588 4463 3037
4 4885 490 481 482
4 4845 915 4844 906
4 2972 2398 2426 2686
4 4867 909 908 900
4 5701 907 898 899
4 196 197 2199 2754
4 4865 915 40 39
4 2995 2994 3816 4834
4 5701 908 907 899
4 4879 480 489 488
4 5647 910 918 909
4 4635 5572 3102 3329
4 4279 4278 855 854
4 3209 2982 2326 2977
4 4735 903 911 902
4 5702 516 515 507
4 3320 3402 3040 5703
4 3370 3740 3684 2901
4 5704 904 912 903
4 2484 2490 2486 2485
4 3285 2983 5705 4491
4 3209 3220 3103 3502
4 3209 2983 2982 5705
4 5699 1952 1953 1961
4 3573 5357 2608 2600
4 5706 905 913 904
4 3573 2351 5707 5637
4 2259 2260 3577 2597
4 5708 1943 1952 1951
4 2595 2346 2605 2622
4 5709 921 912 913
4 2600 3573 3533 2606
4 2595 2346 2622 2609
4 5710 927 918 919
4 4739 920 928 919
4 3573 5707 2351 2352
4 2598 3573 2610 2608
4 5055 2757 4795 4992
4 2757 3327 3967 3968
4 5711 1993 1992 1984
4 5706 913 905 914
4 3967 4653 5055 4630
4 3967 5286 4630 5669
4 3967 5669 4630 3965
4 3967 3327 5286 5669
4 3963 5669 3967 3965
4 5679 157 941 156
4 4843 924 916 925
4 4865 4159 4844 482
4 4837 3765 3926 4640
4 3927 4337 4639 3764
4 4845 907 915 906
4 4784 455 463 454
4 4640 4995 3076 3044
4 4238 916 907 908
4 2928 3081 2359 3077
4 5641 917 908 909
4 4899 498 497 489
4 2358 3107 4142 3109
4 4880 4885 490 481
4 2422 2797 2798 2490
4 5712 466 467 475
4 4923 506 497 498
4 3230 2852 2364 2634
4 5713 1426 1435 1434
4 4877 926 925 917
4 2743 3270 3647 3668
4 2270 3644 2266 2268
4 5714 506 505 497
4 5625 4995 3083 3084
4 5714 505 496 497
4 3084 3109 4142 5625
4 5715 914 922 913
4 5698 5152 939 948
4 2471 5266 4025 3908
4 5457 1974 5478 1975
4 2471 3909 3482 3298
4 5716 936 927 928
4 2471 3298 4027 3909
4 5717 242 1985 4340
4 5678 5679 5718 1977
4 2471 4028 4027 3298
4 4028 4293 4354 4027
4 2823 2826 2822 2862
4 5709 921 913 922
4 2831 2765 2862 2823
4 2730 2736 4926 2738
4 5719 940 939 931
4 5720 931 923 932
4 5118 4254 5450 5419
4 2730 4925 3269 2620
4 2735 4970 3257 5721
4 2430 2264 2265 2272
4 5722 155 156 932
4 3174 3255 2330 3935
4 2543 2728 3218 2735
4 4861 470 4796 4833
4 4158 472 4160 471
4 5723 509 500 41
4 5723 42 509 41
4 4884 500 499 491
4 3781 3777 4808 5724
4 5725 508 507 499
4 5725 507 498 499
4 2735 5721 3934 4926
4 4500 2329 5201 5629
4 4901 927 926 918
4 4862 4879 479 4814
4 5726 4897 3771 4819
4 5710 928 927 919
4 2326 2977 3168 3374
4 2412 2409 2404 2766
4 3383 2199 2754 2198
4 2446 2449 2492 2267
4 3120 929 938 937
4 5152 939 947 938
4 4935 1479 1488 1487
4 2326 2324 3374 3168
4 4114 1470 1479 1478
4 5727 5647 3273 5728
4 5729 5730 4984 5672
4 3291 3408 3322 2447
4 4984 3626 2621 4970
4 5102 569 578 577
4 2271 2805 3169 3256
4 2333 3765 3927 2321
4 2928 2794 2799 2793
4 5726 5731 1962 1971
4 3062 3005 3004 3007
4 3004 5587 3093 3095
4 3566 5591 3693 3861
4 4735 3646 2743 3272
4 5722 932 923 155
4 3142 3747 4008 5592
4 3142 4002 3747 4826
4 5678 5718 1986 1977
4 2213 2558 2790 2811
4 3141 4008 3142 3747
4 5591 3142 3747 4826
4 5732 158 959 950
4 5679 156 941 932
4 5733 1961 1969 1960
4 4823 517 509 518
4 3992 4558 2354 2974
4 4842 4859 5723 933
4 4909 43 518 42
4 3739 4557 2974 4558
4 3739 2974 4557 4041
4 4936 3639 944 945
4 4790 4558 4041 3827
4 4558 4041 3827 3739
4 3739 2356 3827 2354
4 5690 964 3872 4906
4 3739 2356 2355 5734
4 4254 129 5424 1715
4 4928 935 943 934
4 5702 515 506 507
4 3739 2355 2974 4041
4 4813 935 934 926
4 2233 3676 3152 3151
4 5684 4880 4160 4885
4 4339 4260 4976 505
4 3626 4984 3627 4970
4 4210 5290 5330 4606
4 5008 1487 1496 1495
4 4936 945 944 936
4 2578 4324 4677 4409
4 4598 938 929 930
4 5735 1983 1992 1991
4 5716 945 936 937
4 5736 5590 4879 4899
4 5737 932 940 931
4 3120 937 938 946
4 2578 4324 3057 3767
4 2919 3257 2735 3255
4 5716 946 945 937
4 5720 5737 931 932
4 5678 157 158 950
4 4324 3590 3589 3767
4 4324 3589 5330 4606
4 3087 3089 3088 4199
4 3085 3089 3087 3086
4 5738 1989 1980 1981
4 2907 3572 3045 3035
4 5739 2037 2036 2028
4 5740 5741 5722 1968
4 4767 3089 4199 5742
4 5743 940 941 949
4 5698 948 940 949
4 3089 4971 5744 5745
4 5745 4971 2726 3089
4 4253 4254 723 5450
4 4905 964 963 955
4 5678 1977 1986 158
4 3089 3090 5744 5746
4 5723 933 942 42
4 5742 3089 4199 5746
4 5323 4504 3596 4600
4 1211 2754 1220 197
4 4860 4909 4824 4823
4 4824 952 960 951
4 2975 2979 2976 2977
4 4859 943 942 934
4 4177 525 516 517
4 2976 3296 3104 3959
4 2976 3103 3220 3301
4 4822 4962 4178 527
4 5747 952 943 944
4 3100 3209 2976 3103
4 4899 489 4902 498
4 5712 467 3947 4774
4 3639 953 944 945
4 2976 3301 3297 3959
4 4177 4932 516 525
4 3639 954 953 945
4 4931 515 524 523
4 4932 525 524 516
4 5698 940 948 939
4 4958 962 953 954
4 5323 5748 4548 4504
4 3194 5749 3195 4276
4 4762 954 945 946
4 3272 3865 4735 902
4 3194 3192 5282 3696
4 5750 1980 1989 1988
4 2534 2290 2666 2538
4 3190 3194 3192 3191
4 5332 3492 3571 3807
4 5733 1961 1970 1969
4 4762 955 954 946
4 2694 3415 3194 3195
4 3194 3722 3195 3415
4 3194 3195 3722 4276
4 4504 3596 3594 5323
4 2778 5242 2781 5585
4 5690 956 964 955
4 2781 3542 3276 5751
4 5741 1978 1977 1969
4 4254 5450 722 723
4 3359 957 965 956
4 2781 3542 5752 3543
4 5743 949 941 950
4 2781 5753 4274 5241
4 5665 3207 3565 3819
4 2607 2966 2949 2946
4 3158 2893 2966 2946
4 5754 159 160 968
4 5755 5756 1988 1987
4 4178 527 526 518
4 3158 2893 2946 5757
4 4860 951 942 943
4 4178 526 517 518
4 4962 536 527 44
4 3158 2946 3565 4122
4 5045 4824 4944 4178
4 3028 5261 3030 3056
4 4961 953 962 961
4 4171 4977 526 535
4 3028 4023 2683 5125
4 4822 44 4962 527
4 4991 4979 962 971
4 2825 2355 3401 3548
4 3964 2827 5055 3968
4 5747 952 944 953
4 5714 4937 505 506
4 4601 5750 4602 5758
4 5718 1978 5756 1987
4 5759 4945 995 1004
4 2310 4705 4720 4038
4 3735 3736 2825 3737
4 3964 2827 3548 3549
4 5760 5662 5761 2003
4 5697 949 957 948
4 3964 3737 2824 3965
4 4905 963 954 955
4 5696 950 958 949
4 5365 4303 5440 5762
4 4335 955 947 956
4 5365 4368 5440 4303
4 5365 4303 5763 4368
4 5365 5764 5765 5766
4 5754 1995 160 159
4 3234 3542 3237 5767
4 4904 973 972 964
4 3360 975 974 966
4 5767 3237 3543 3542
4 3922 1997 1988 1989
4 3542 3114 3541 3113
4 3542 5186 5767 5217
4 3542 5768 5186 5752
4 2561 2241 3730 3676
4 3873 974 982 973
4 5769 966 958 967
4 5770 976 975 967
4 5771 986 994 985
4 2961 3535 3950 2963
4 5700 2996 5772 2999
4 4980 46 545 45
4 3535 3674 3837 2563
4 3535 5144 3977 3836
4 3134 2961 2557 3535
4 4824 961 960 952
4 3535 3837 3836 3977
4 5725 4823 4907 508
4 5012 47 554 46
4 4979 962 970 961
4 3797 3593 3617 3925
4 4981 545 544 536
4 4937 506 5702 515
4 4964 534 543 542
4 2561 2562 2456 3841
4 2461 3137 2561 2555
4 4998 981 972 973
4 5690 965 964 956
4 3872 965 974 973
4 4991 972 971 963
4 2704 2712 2732 3530
4 2997 2999 5323 2996
4 5760 5773 1993 2002
4 4445 4446 3842 5120
4 5688 1993 5760 5773
4 2713 3667 2829 3131
4 3146 3303 4187 3621
4 2704 3530 2732 3621
4 3085 2749 3090 3086
4 5774 5775 976 977
4 5776 967 959 968
4 5323 5287 4606 2996
4 5756 1987 1978 1979
4 2595 2598 2610 2601
4 3091 4560 2939 2943
4 5770 967 975 966
4 3085 2749 2750 2726
4 2203 2759 3157 3155
4 2707 2748 2749 2750
4 2337 2603 2600 2599
4 3232 3592 3459 3457
4 4251 1494 1495 1503
4 5774 967 968 976
4 2938 2530 2531 2528
4 3587 3982 3459 4121
4 3459 5777 3490 3587
4 2529 3232 3459 3457
4 2635 3490 3459 3489
4 4962 960 969 45
4 3038 3040 3650 2448
4 4944 969 960 961
4 4982 554 553 545
4 5009 553 552 544
4 4113 5039 4982 554
4 3038 3042 3650 4593
4 2594 3558 3559 4329
4 3557 3661 3093 3562
4 4944 970 969 961
4 4978 543 534 535
4 4110 4114 1469 4116
4 5009 544 4982 553
4 4113 5015 987 5012
4 2386 2230 3269 2222
4 2886 2884 2804 2896
4 4959 4953 3118 522
4 3873 973 3872 974
4 4345 980 971 972
4 2926 5105 5460 2925
4 3017 4875 4876 4813
4 3266 2226 3213 3264
4 4964 533 3707 534
4 4087 2014 2005 2006
4 3260 2222 3263 3772
4 3814 2007 1998 1999
4 2270 3626 2620 2621
4 5009 553 5033 552
4 5778 2010 2019 2018
4 3360 966 974 965
4 3268 3668 3647 3669
4 5779 4919 5780 991
4 2266 3644 3262 3268
4 5413 2863 4775 4192
4 4775 4694 5529 4676
4 4694 3966 5781 5413
4 4259 983 975 984
4 5754 1995 2004 160
4 4335 5151 956 947
4 5782 5783 5784 5785
4 5786 160 977 968
4 3881 3879 5787 3882
4 3326 5413 5781 3966
4 5413 5788 4676 3821
4 4188 977 161 986
4 5789 162 163 995
4 4775 4352 5413 3821
4 2442 2888 2444 2885
4 2442 2885 2444 2443
4 2891 2887 5790 2898
4 2887 5790 2898 2885
4 2896 2884 2804 2888
4 2888 5791 2897 2896
4 4113 563 554 47
4 5792 979 987 978
4 2898 3882 2445 5787
4 3368 3998 3417 3446
4 4942 980 979 971
4 2696 2689 3448 3998
4 2689 5068 3409 3412
4 4943 979 978 970
4 5039 562 553 554
4 3383 2592 2754 2199
4 4113 5012 47 554
4 2891 2549 3856 3998
4 4177 4907 517 516
4 2554 4697 5793 3167
4 4993 552 551 543
4 4996 980 988 979
4 4979 4944 961 970
4 5037 989 4996 5794
4 4993 4994 3521 551
4 2549 5795 3879 2891
4 2914 2917 2969 2915
4 4345 981 980 972
4 2278 3881 2551 2552
4 5014 989 980 981
4 5737 941 5743 940
4 4979 4942 970 971
4 1463 2280 99 4857
4 5779 982 990 981
4 3164 2969 2273 3165
4 4998 982 981 973
4 3314 3638 3643 3640
4 3643 3640 5061 5046
4 4166 587 586 578
4 5775 977 985 976
4 3317 3643 3638 5061
4 5796 3643 5046 3319
4 3319 3643 5046 3640
4 4892 3643 5796 3318
4 5782 5785 5797 5783
4 5027 1001 1000 992
4 4892 3643 4313 5046
4 4307 3509 4308 4309
4 5789 4188 162 986
4 5514 4309 4310 3317
4 5636 2050 4520 2051
4 4313 4309 4307 5046
4 5775 985 977 986
4 3643 3319 5796 3318
4 5736 3640 4899 4902
4 5736 4880 3640 4902
4 5736 5798 3319 3641
4 5799 1011 1019 1010
4 5736 3640 4880 5685
4 5736 5800 4879 5590
4 992 4446 1001 5120
4 5736 5800 5590 3641
4 5033 561 552 553
4 5050 49 572 48
4 3230 3231 3125 3356
4 2373 2807 2528 2806
4 5792 988 987 979
4 3231 3902 3496 2633
4 3231 3125 3356 3362
4 3816 4834 5700 5801
4 5794 989 990 998
4 4440 121 120 1274
4 2564 2714 2313 2995
4 5802 5539 5803 4560
4 4996 979 4942 980
4 4978 4964 3707 534
4 3299 2719 3294 2864
4 5037 989 997 988
4 5034 590 581 50
4 4978 4977 535 534
4 3816 5801 3058 2720
4 2302 3041 2399 2318
4 5014 990 989 981
4 5794 990 999 998
4 3873 983 5780 982
4 5744 5746 1512 1521
4 5027 991 999 990
4 2475 2306 2307 2308
4 5038 5036 5010 5049
4 4996 4942 979 4943
4 3420 3426 3753 3711
4 5792 988 5015 987
4 5102 577 568 569
4 2686 2970 3666 3741
4 3397 3741 3710 3398
4 4431 3010 3011 3945
4 5789 995 986 162
4 5804 983 992 5780
4 3742 3666 3703 3397
4 4517 1003 1011 1002
4 3012 3011 3703 4929
4 5805 1001 1002 1010
4 2684 3937 3703 3439
4 4193 1012 1003 1004
4 4164 1998 1990 3814
4 1989 4164 1998 1990
4 3814 4988 4121 4047
4 4450 1010 1018 1009
4 3814 3812 2007 2008
4 3814 4164 3924 4988
4 5771 994 986 995
4 3924 3815 3812 3814
4 2007 3814 3924 3812
4 4113 987 996 48
4 3762 3761 5328 4143
4 5015 996 987 988
4 5036 5010 1007 5011
4 5038 5010 5036 5011
4 5015 997 996 988
4 2665 4396 2663 5195
4 5039 5017 562 563
4 5032 571 570 562
4 4856 492 483 484
4 5692 5257 3692 5806
4 5037 998 997 989
4 5760 5662 5633 5807
4 2665 2664 2289 4394
4 5011 999 1007 998
4 3205 5032 3206 4168
4 2665 4394 4421 5197
4 5062 52 599 51
4 5127 607 598 599
4 4949 2512 3989 4536
4 4535 3991 4536 4949
4 4949 2506 5808 3186
4 5809 1000 1008 999
4 5810 1001 1010 1009
4 2509 4949 3186 2506
4 2509 4949 2512 3989
4 4191 5811 1170 5277
4 5145 4535 2512 2506
4 4946 994 1002 993
4 4519 4517 1012 1011
4 4949 2506 4535 5808
4 4945 995 1003 994
4 5120 1002 1001 993
4 5812 5813 2077 5814
4 5815 164 165 1013
4 5759 163 1004 995
4 5811 1170 5277 5816
4 2414 2415 2566 2416
4 4517 1011 1003 1012
4 4194 166 1022 165
4 4434 2416 5817 4731
4 2415 3002 2416 3003
4 3324 5340 4841 3750
4 2416 4434 3551 4731
4 3556 3751 4731 2420
4 2417 4841 3556 3751
4 2576 3176 2698 3180
4 5789 2022 2031 163
4 3183 3454 3455 3452
4 4910 4857 1463 1454
4 5067 589 588 580
4 5490 5032 5033 5017
4 3022 3021 3026 3372
4 3372 3053 3178 3452
4 5035 4966 572 581
4 5049 1015 1006 1007
4 3206 578 569 570
4 5054 5049 5818 1015
4 5054 1014 1005 1006
4 5011 1008 1007 999
4 3860 3239 3143 3864
4 4122 1027 1026 1018
4 3001 2417 2415 2972
4 3987 3226 3702 3985
4 3008 3822 3002 3003
4 3012 4929 3937 3702
4 2846 2930 3486 2929
4 5036 1007 1006 998
4 3444 5819 5338 2930
4 4756 3444 5819 5338
4 5779 5014 981 990
4 4349 5022 5056 3648
4 5010 1016 1007 1008
4 2930 2929 3443 4257
4 2930 3443 4258 4257
4 3686 1274 4443 4440
4 5819 3443 4258 2930
4 2726 4351 5820 5745
4 5810 1009 5809 1000
4 5805 1010 1002 1011
4 5816 1180 3744 3745
4 5428 5429 5821 5432
4 4971 1522 1530 1521
4 2930 5338 3486 4258
4 2906 2904 2908 3604
4 4193 1012 1004 1013
4 4085 4087 2015 2014
4 5429 1019 1020 1028
4 2508 2510 2494 2497
4 5815 2040 2049 165
4 3673 3699 3847 3603
4 4195 1013 1021 1012
4 4521 2050 2049 2041
4 5785 2041 2032 2033
4 2497 3603 820 5584
4 2497 3699 3603 5584
4 2497 3603 5580 820
4 2497 3699 5516 3700
4 2497 2510 5580 4272
4 5165 2061 2069 2060
4 3904 5822 2579 4409
4 3327 2757 5823 4777
4 2757 2579 5823 4777
4 5063 599 598 590
4 2472 2864 4028 3298
4 4440 120 121 294
4 5054 1015 1014 1006
4 3967 2757 5823 3327
4 5005 598 597 589
4 5062 5106 5063 5064
4 4992 3967 5055 2757
4 2576 3904 3328 2579
4 4418 294 4417 4440
4 5816 5343 5824 1178
4 3088 4199 1530 1539
4 4271 1539 1548 1547
4 5146 54 617 53
4 3328 3907 3385 4990
4 2757 3328 4990 5823
4 2946 5090 2947 1026
4 2516 3035 2905 2906
4 2513 2517 2424 2514
4 2948 5148 5106 5825
4 5147 617 616 608
4 5666 1025 1016 1017
4 5010 1017 1016 1008
4 2654 3035 2907 3045
4 2438 3077 3288 3291
4 4122 1018 1017 1009
4 4450 1019 1028 1027
4 5757 5433 5090 1027
4 4122 1026 1017 1018
4 3958 5005 5063 5127
4 2641 2646 2643 2642
4 2682 2698 3023 3181
4 4520 2050 2041 2042
4 2523 2061 2052 2053
4 3904 4138 3905 3911
4 3183 2640 2401 3451
4 5799 1019 1011 1020
4 2397 2428 3041 2646
4 4194 165 1022 1013
4 2397 2304 3041 2399
4 5602 5579 3046 3105
4 5602 3035 3572 5578
4 4195 1021 1013 1022
4 5602 857 4699 856
4 5602 3572 3046 5578
4 4193 1004 4945 5815
4 5826 1031 1022 166
4 5602 848 5578 5579
4 5602 4699 857 3105
4 3573 2352 2608 5707
4 5816 3745 3743 5343
4 3805 2348 2344 2349
4 2344 2347 3477 2349
4 3176 3182 3181 3920
4 3180 2576 2760 2698
4 4521 2049 2040 2041
4 5034 1014 1023 51
4 5053 1023 1014 1015
4 3020 2650 3027 3026
4 2474 2761 2570 2758
4 3017 3314 3014 3640
4 5092 606 597 598
4 5053 1024 1023 1015
4 5064 1042 1041 1033
4 5067 589 5063 5005
4 2892 1045 1044 1036
4 5818 1024 1015 1016
4 5816 5811 1169 5824
4 5736 3641 5590 5798
4 5818 1025 1024 1016
4 5102 4168 3206 569
4 5006 597 596 588
4 3145 5112 2258 4999
4 5736 5798 5590 4899
4 3319 4923 5796 4899
4 3836 5078 4506 4985
4 2947 1034 1025 1026
4 3836 5144 5078 4986
4 4892 3643 3318 4313
4 5046 3319 4923 5796
4 3319 3584 3215 5798
4 5666 1026 1025 1017
4 3532 3530 5827 5828
4 5084 596 595 587
4 4450 1027 1018 1019
4 3319 3584 3318 3215
4 2582 3164 3928 2965
4 2464 2965 3928 2463
4 5090 1036 1035 1027
4 5053 5106 1023 1024
4 5518 4783 3946 3949
4 2816 2814 4960 2817
4 5429 1028 1020 1029
4 5829 5830 5493 5831
4 5433 1028 1037 1036
4 5816 1178 5824 1169
4 5832 167 168 1040
4 4783 3946 3094 5518
4 5518 5519 4593 4788
4 4788 5518 3094 4593
4 3038 5518 3661 4593
4 5832 2067 168 167
4 2439 2438 2447 3291
4 5638 1029 1021 1030
4 4593 4788 4026 3094
4 5833 1039 1047 1038
4 2577 3904 2579 2578
4 3183 2401 2971 3453
4 5640 1030 1022 1031
4 2640 2400 2641 3138
4 3788 3372 3026 3451
4 5256 1075 1083 1074
4 3185 4138 3911 3912
4 3184 3180 2576 3385
4 5826 1031 166 167
4 5834 1040 1048 1039
4 3180 3176 3177 2576
4 3177 4136 4137 3179
4 5106 1033 1032 1024
4 5144 616 615 607
4 3996 5364 5835 5836
4 2839 2373 3228 2632
4 5825 1033 1024 1025
4 5837 2053 2044 2045
4 5154 625 616 617
4 5825 1034 1033 1025
4 4986 615 614 606
4 5092 5127 607 598
4 5062 5106 5064 1032
4 2892 1044 1035 1036
4 3819 3565 5665 5038
4 2280 5229 4891 4856
4 4036 2179 2188 2187
4 3463 2937 2390 4095
4 2947 1035 1034 1026
4 4507 5246 5072 5073
4 2894 1043 1034 1035
4 5146 53 1041 54
4 2890 56 635 55
4 4182 1032 53 52
4 2374 3318 2934 2936
4 2809 2934 3932 3246
4 5431 1036 1037 1045
4 3918 3230 3550 3923
4 5635 2068 2059 2060
4 5838 1031 1039 1030
4 2361 2362 2221 2363
4 5432 1037 1029 1038
4 5839 1055 1063 1054
4 5832 1040 1031 167
4 5840 2660 3193 4924
4 2698 3384 3181 2699
4 2303 3334 3482 4412
4 5830 2070 2061 2062
4 5841 1047 1056 1055
4 5838 1039 1031 1040
4 3020 3021 2650 3026
4 2469 2470 2697 2471
4 4418 121 4440 1265
4 2845 2691 3248 2929
4 2914 2969 2917 2554
4 3676 5842 3732 4505
4 4356 1076 1067 171
4 2894 1044 1043 1035
4 3072 3065 3068 3415
4 4182 1032 1041 53
4 3073 3769 3070 3733
4 5064 1041 1032 1033
4 5163 1041 5064 1042
4 2659 3762 3760 3913
4 2289 2662 2290 2664
4 5843 1060 1051 1052
4 5188 635 634 626
4 4985 624 623 615
4 1265 1274 121 4440
4 5844 1051 1042 1043
4 2662 3761 2661 4927
4 3676 3151 5842 4727
4 3762 5845 3913 5840
4 4182 5064 1041 1032
4 5148 1043 1042 1034
4 3307 622 613 614
4 3977 5147 3958 5163
4 5846 1059 1050 1051
4 2659 2660 3762 3913
4 5840 5847 3193 1109
4 5077 1053 1044 1045
4 3309 613 604 605
4 2520 2527 2519 5305
4 2517 4289 4291 2519
4 2371 1121 1120 1112
4 5032 5017 4966 571
4 2250 2274 2285 2277
4 855 4474 4279 4291
4 3989 3990 3770 4651
4 5848 2078 2069 2070
4 3989 3990 4651 2512
4 5849 1578 1587 1586
4 3989 4414 4537 4415
4 4837 1406 4838 1405
4 5848 2079 2078 2070
4 5850 1065 1057 1066
4 4837 4838 1406 4239
4 4337 3765 3926 4837
4 5851 168 1049 1040
4 4640 4239 4837 5395
4 4640 5395 4837 5396
4 3925 5738 3919 4262
4 5852 1049 1058 1057
4 5850 1057 1065 1056
4 3925 3919 5738 4164
4 3800 3229 4988 3457
4 3918 3919 3925 4164
4 3918 3919 3923 3550
4 3356 3921 3230 3229
4 4356 171 172 1076
4 5853 1056 1048 1057
4 2297 2810 2807 2934
4 5854 169 170 1058
4 5149 5146 54 617
4 3916 4924 5840 5847
4 5163 1042 1050 1041
4 5079 634 633 625
4 5078 5144 5154 616
4 5194 643 634 635
4 5846 1060 1059 1051
4 3918 3800 3229 4988
4 3918 3921 3230 3923
4 5079 633 624 625
4 3663 5855 5007 4261
4 5005 5092 598 5127
4 3918 2852 3230 3800
4 5844 1052 1051 1043
4 3877 5223 5234 3878
4 5349 5272 1078 1087
4 2480 2958 2581 2478
4 5364 1061 1052 1053
4 5688 5760 5717 5633
4 4444 4450 5810 1010
4 5856 1046 1054 1045
4 2239 1558 1549 1550
4 5820 1531 1522 1523
4 3713 3714 4482 3851
4 2913 1053 1052 1044
4 3713 3577 3500 4445
4 2261 3495 3714 3851
4 5856 1046 1055 1054
4 3577 4445 5420 3500
4 2204 2206 2262 2260
4 5857 5645 5409 1082
4 4501 5194 5858 5272
4 5850 1057 5859 1066
4 5814 2078 2077 2069
4 5841 1055 1046 1047
4 2202 2601 2595 2259
4 2204 2261 2262 3495
4 5860 5861 5862 5863
4 5087 1547 5411 1548
4 3234 5864 3886 3583
4 3234 5864 3887 5767
4 3234 3237 3886 5864
4 3112 2762 3113 2288
4 2762 3113 2288 3114
4 2588 3886 3236 2593
4 5861 173 174 1094
4 5865 5833 5866 5821
4 5859 1057 1058 1066
4 5834 5867 5868 5851
4 3234 3235 3114 3236
4 3234 3114 2589 3236
4 3347 4462 3348 5301
4 2860 3884 3885 3348
4 3885 3567 3082 3039
4 5432 4151 4438 4669
4 5869 1067 1058 170
4 5188 625 5154 626
4 5218 642 633 634
4 4921 3885 5301 4173
4 3536 4441 5870 4539
4 5237 671 670 662
4 3536 3537 4587 4539
4 3140 3142 2481 2950
4 5243 653 652 644
4 5247 662 653 58
4 5072 1068 2890 1059
4 3406 2423 3381 4778
4 3536 4441 4224 4990
4 5843 1061 1060 1052
4 5246 5349 1078 1079
4 5073 1061 1069 1060
4 5245 661 652 653
4 5252 1602 5221 1593
4 3536 3385 4441 4990
4 5149 5846 1059 1050
4 5236 652 651 643
4 3449 3409 4755 4072
4 5364 1062 1061 1053
4 5871 1072 1071 1063
4 5872 1597 1606 1605
4 3447 3445 4072 5352
4 3950 606 5144 4986
4 5194 644 5243 643
4 5836 1070 1061 1062
4 5285 60 671 59
4 3447 3445 5352 2886
4 5826 5873 5812 2067
4 3447 2886 3416 3417
4 2779 2777 2877 2776
4 4151 4713 5874 5162
4 5871 1063 1071 1062
4 5858 1078 1077 1069
4 5839 1063 1055 1064
4 3447 3417 2887 2886
4 3250 5875 4021 4022
4 5876 2103 4356 5869
4 5859 1066 1058 1067
4 5644 1074 1073 1065
4 4669 5428 5471 5866
4 2845 2689 3444 3409
4 3736 2824 5877 3966
4 3713 4481 4514 5634
4 3736 4694 4218 4192
4 3735 4750 3371 5274
4 5273 4192 3736 4218
4 4675 3736 4694 4218
4 4312 3875 4939 4344
4 5813 2087 2086 2078
4 3575 3491 3520 3481
4 3477 3480 3479 4126
4 3210 4938 5680 3929
4 3481 3172 3475 3520
4 5878 2123 2122 2114
4 5869 1067 170 171
4 3711 3712 5116 3753
4 3424 5259 5260 3942
4 3389 3710 5436 5123
4 5210 5211 659 5239
4 2257 88 1571 1562
4 5072 1069 1068 1060
4 2203 3158 3155 3157
4 2205 2818 2558 2338
4 5026 651 650 642
4 5348 1097 1096 1088
4 2255 2257 1562 88
4 2607 3158 3565 3156
4 5879 2114 2113 2105
4 5073 1070 1069 1061
4 3168 2923 5880 3570
4 5836 1071 1070 1062
4 5041 650 649 641
4 2190 3383 3222 2198
4 3158 3156 4450 4122
4 3377 3378 3376 3099
4 5041 649 640 641
4 5192 1079 1070 1071
4 2759 3154 3714 5428
4 3155 4670 3157 4713
4 3309 614 3307 613
4 3541 3276 2781 3542
4 3994 5836 4507 5073
4 5881 2136 2135 2127
4 3490 3586 5882 3810
4 5646 1066 1074 1065
4 2841 4121 3982 3811
4 3459 5777 4121 3457
4 3490 5777 5883 5884
4 3493 3586 3490 3810
4 5646 1074 1066 1075
4 5867 2086 2085 2077
4 3459 3490 5777 3489
4 5255 1084 1092 1083
4 2362 2853 2364 2365
4 5885 1075 1067 1076
4 2853 3126 5152 3466
4 5088 2088 2096 2087
4 3797 3263 3796 4262
4 3279 2854 2851 2850
4 4601 2851 2854 3919
4 2340 4655 2343 5886
4 3773 4601 3771 3263
4 5255 1092 1084 1093
4 3263 4601 3771 4262
4 2707 2750 2726 2755
4 2725 5820 2726 4351
4 5198 1068 1077 57
4 2725 4351 5545 5820
4 5858 1077 1068 1069
4 4293 4294 5185 3277
4 3870 5271 5887 4073
4 5272 1078 1086 1077
4 3277 4293 5184 5185
4 5349 1079 1087 1078
4 5224 62 689 61
4 5258 666 5254 657
4 4294 5556 5185 4493
4 5888 1089 1080 1081
4 4505 5889 5871 5890
4 5265 670 669 661
4 5193 5546 5243 5247
4 3812 2016 2017 4091
4 5891 4001 5892 5208
4 5296 678 677 669
4 5326 689 688 680
4 5893 1088 1079 1080
4 4082 3357 5164 4087
4 5894 1115 1114 1106
4 4082 4092 3852 4083
4 5078 625 5188 5079
4 5309 5307 5895 5237
4 5348 1096 1087 1088
4 5645 1074 1082 1073
4 4091 5453 2837 3903
4 4091 2016 2017 5452
4 4091 2837 2834 3903
4 4082 5166 4091 4086
4 3996 5835 5077 5896
4 4091 5452 4092 4086
4 5409 1083 1092 1091
4 2833 2838 2832 2834
4 5863 1076 1084 1075
4 4809 3501 2623 2834
4 3173 2834 3501 3852
4 5057 1594 5897 5898
4 5860 172 1085 1076
4 3212 3719 2809 3210
4 2835 3173 3501 3496
4 2832 3491 3092 3475
4 5899 1085 1094 1093
4 2737 5900 2736 3366
4 3772 3622 3363 2222
4 2257 87 1571 88
4 5859 5869 4356 1067
4 3622 3363 2222 2737
4 3900 3726 3729 2185
4 2729 2728 2616 4827
4 5901 1094 1102 1093
4 3302 3310 3309 3304
4 3134 4985 3135 3307
4 2960 2961 2963 3837
4 3137 2561 3730 3674
4 5238 679 670 671
4 3950 3535 5144 2963
4 5546 1096 1095 1087
4 591 2258 2255 600
4 2214 4438 3239 5227
4 5226 672 78 79
4 2255 2257 87 600
4 2961 3309 5086 3950
4 4240 4244 2941 4252
4 5265 5248 661 660
4 5349 1088 1087 1079
4 5888 1090 1089 1081
4 3798 5436 3470 5902
4 5210 668 667 659
4 3798 5902 3470 5361
4 3798 3395 3470 5436
4 3128 2108 3127 2109
4 5618 4778 5903 4765
4 5893 1089 1088 1080
4 5130 5129 5131 4048
4 5904 1097 1088 1089
4 3692 5905 4008 3652
4 3798 3395 3799 3470
4 5321 3113 5258 5751
4 2166 3729 2167 4655
4 2941 4244 4560 4252
4 3247 4849 3253 2883
4 3249 2883 2667 4846
4 5217 648 657 656
4 5207 2123 2114 2115
4 5225 1114 1122 1113
4 2883 2667 4846 4927
4 5234 2115 2106 2107
4 5409 1091 1082 1083
4 5906 1093 1102 1101
4 2883 5907 2879 5908
4 5908 5907 4846 2883
4 5234 2116 2115 2107
4 3238 5470 3714 2820
4 5470 3859 5156 5909
4 5470 3714 2820 5829
4 5470 4825 3864 3859
4 5910 1111 1119 1110
4 5470 2820 4825 5829
4 2559 2562 3675 5469
4 5861 1094 1085 173
4 3675 4502 3674 3995
4 5911 1094 174 1103
4 2562 2559 2855 5469
4 2334 2339 2338 2556
4 2255 87 591 600
4 2559 2855 5469 5161
4 5238 5269 670 679
4 2635 3459 3493 3492
4 2214 3143 4153 3239
4 5247 1086 1095 59
4 3308 5086 3310 5827
4 5546 1095 1086 1087
4 5307 1105 1104 1096
4 5895 2879 5269 5907
4 3535 2961 3950 3134
4 2241 2591 2555 3135
4 3302 3136 2555 3305
4 5353 5331 698 5351
4 2255 88 591 87
4 5331 697 688 689
4 5322 676 667 668
4 5143 2981 2477 2986
4 5322 677 676 668
4 2467 2468 2466 2233
4 5845 1099 1090 1091
4 2465 2588 2459 2591
4 5912 1098 1089 1090
4 5904 1098 1097 1089
4 5391 686 677 678
4 5406 5890 1063 1072
4 5913 2140 5297 2141
4 4686 2591 5178 2242
4 2724 3299 3351 3349
4 5912 1099 1098 1090
4 4289 863 4279 864
4 5236 5248 651 652
4 2313 4133 3060 2568
4 4284 5097 630 629
4 2567 2568 3752 3551
4 1099 3762 5912 1107
4 5914 1092 1100 1091
4 5840 1100 1109 1108
4 3060 3059 3299 3349
4 5845 1099 1091 1100
4 2568 5500 3551 4133
4 2568 5500 4133 3547
4 5847 1110 1109 1101
4 5139 5849 3342 3345
4 5915 175 176 1112
4 5910 1120 1119 1111
4 3383 1220 1219 1210
4 3508 3929 3707 4308
4 3508 3707 3929 3930
4 2938 2944 2530 2528
4 3240 2944 3723 3212
4 5901 1102 1094 1103
4 3474 3229 3815 3357
4 4309 4938 4308 4343
4 5911 1103 174 175
4 3162 4312 2633 3211
4 3934 4926 5916 2734
4 2919 2735 3934 3933
4 3934 2918 3257 2919
4 5857 1073 5645 1082
4 4484 5917 5614 5918
4 2384 2678 3844 3847
4 5285 1104 60 1095
4 2375 2384 2676 2380
4 5307 1096 1104 1095
4 2677 5375 3699 4207
4 5071 1104 1113 61
4 5894 1114 1105 1106
4 4607 2678 4023 2683
4 2676 2380 2679 4023
4 5225 1114 1113 1105
4 5391 678 687 686
4 2384 3844 2678 2679
4 5840 1108 1099 1100
4 3490 5884 5883 5882
4 5025 5026 5239 650
4 5919 5072 4501 5188
4 4072 3416 5352 1208
4 2678 5375 5126 3847
4 3886 5920 3340 3343
4 5864 3343 5921 5922
4 5921 5204 5181 5159
4 5322 668 5296 677
4 5387 65 716 64
4 3770 4279 4732 4652
4 5133 1628 1620 1629
4 3886 2593 5923 3236
4 5406 1064 1072 1063
4 4663 5924 1146 1155
4 3234 3886 3237 3236
4 3234 3542 3887 3114
4 5915 1112 1103 175
4 2341 1103 1111 1102
4 4208 5925 307 4472
4 4208 5926 4878 4034
4 5816 1180 1179 1170
4 4208 5925 4035 306
4 3495 4825 5829 5449
4 2341 1111 1103 1112
4 4654 1139 178 179
4 4208 5762 4035 4034
4 5927 2131 2122 2123
4 3970 4034 3938 4208
4 3441 3975 3970 4569
4 4208 306 307 5925
4 5762 4208 5510 3938
4 3463 4093 4095 4116
4 3424 4432 5260 4431
4 5028 4431 3742 3943
4 5353 64 707 63
4 3193 4143 1108 1117
4 5928 5289 684 5335
4 5238 5326 679 680
4 3365 4056 5929 3153
4 5930 4847 5392 5393
4 2970 3741 3423 3425
4 5931 1115 1123 1114
4 3425 3470 3397 3710
4 3424 3709 3940 5259
4 3781 3780 4950 5724
4 2840 4121 3814 4988
4 5281 5932 1131 1122
4 4901 5727 5647 3794
4 3794 3015 3017 5727
4 4036 3419 5222 3900
4 3791 4875 4238 5641
4 3794 3017 4901 5727
4 4875 3794 5641 3791
4 5933 5934 4851 5110
4 3194 1118 1127 1126
4 5749 1109 1110 1118
4 3629 2935 3630 3631
4 3629 3246 3243 3630
4 5299 5373 5385 713
4 4094 3633 3634 3631
4 3628 4361 3635 4094
4 3582 2807 3246 2935
4 3212 2809 3719 3241
4 3240 3243 3629 3246
4 3240 3582 3629 3245
4 5749 1119 1118 1110
4 2371 1112 1120 1111
4 3620 1639 1630 1631
4 5935 176 1121 1112
4 3012 3708 3702 3937
4 5297 5862 5927 2131
4 3442 3012 2687 2684
4 3012 2684 3937 3703
4 4657 1121 1130 1129
4 3703 3937 5673 3439
4 5862 2131 2130 2122
4 3423 5339 3013 2646
4 4656 177 178 1130
4 2641 2400 2397 2648
4 3420 3473 3710 3712
4 4297 2170 2161 2162
4 3423 2649 3138 3709
4 5888 5936 5203 1081
4 2648 2646 3013 2428
4 2400 3138 2640 3468
4 4750 3735 4675 5274
4 5937 2039 236 2048
4 5225 1123 1122 1114
4 2827 2974 4557 3186
4 2827 3186 4795 3968
4 2653 2827 3186 2974
4 2410 2329 4491 2412
4 5938 1132 1123 1124
4 4077 716 715 707
4 3225 2472 4028 2376
4 3963 3327 5669 3966
4 1510 5096 1509 5939
4 4186 3253 5391 4127
4 2862 2823 2824 2822
4 4952 1491 5093 238
4 2360 3369 3740 3371
4 5932 1132 1131 1123
4 2467 2673 2631 2466
4 5931 1115 1124 1123
4 5282 1135 1126 1127
4 2462 2458 2791 3303
4 5372 4258 5279 1186
4 2950 2790 2335 2812
4 5940 694 695 703
4 2950 2216 2790 2812
4 5941 1134 1133 1125
4 5942 2154 2162 2153
4 3745 1180 1189 1179
4 4076 1159 5943 1168
4 5280 712 703 704
4 2561 2466 3676 3841
4 3858 2178 2177 2169
4 3705 5924 4714 5944
4 5929 2181 3153 2180
4 3695 1129 1138 1137
4 5283 1134 1126 1135
4 2460 3175 2785 2954
4 4191 1160 1170 1169
4 2558 2562 2212 2456
4 4276 1127 1119 1128
4 4276 1127 1118 1119
4 5070 3345 5139 3667
4 2334 2205 2558 2338
4 3875 3496 3172 3520
4 3130 5070 5139 3667
4 5945 2158 2343 2149
4 5946 2142 2150 2141
4 3284 3701 4290 1192
4 2571 191 192 1166
4 3131 3667 3130 5139
4 2713 3146 3345 3131
4 3130 3607 3690 2784
4 4656 1130 1121 177
4 4657 1129 5947 4204
4 2784 2237 1558 5410
4 2829 3667 3130 3131
4 2934 2935 4948 3246
4 4948 2935 3630 3246
4 4655 2166 2157 2158
4 2944 2807 2806 2528
4 2810 3932 2809 2934
4 5281 5353 5284 5331
4 3628 3629 3635 3636
4 5932 1123 1131 1122
4 3635 2937 2935 3631
4 3582 3629 2935 3246
4 5392 1133 5938 5948
4 5402 1158 1167 66
4 5353 5284 1140 1131
4 4075 2 66 65
4 4191 5949 5950 1151
4 5950 1150 1141 1142
4 5940 4127 695 694
4 1501 1510 5096 1509
4 2937 2933 2935 3631
4 5951 1177 1176 1167
4 2631 2674 3152 2233
4 4186 695 686 687
4 2389 2300 2937 2390
4 5951 5943 5824 1168
4 5342 694 703 702
4 2202 2259 2595 2260
4 5392 1141 1133 1142
4 4076 1159 1168 1158
4 5281 5932 5284 1131
4 3479 3481 2347 3575
4 2203 2607 2601 3156
4 5918 5917 5453 4484
4 4714 1173 1163 1164
4 5946 2151 2150 2142
4 5950 1151 1142 1143
4 2261 3851 5493 3495
4 2346 2610 2347 2609
4 2601 3575 2610 2609
4 2601 3565 2607 3819
4 5816 1169 1179 1178
4 1129 3698 1138 5947
4 5952 1146 1145 1137
4 3695 1137 1128 1129
4 2345 2943 2939 2700
4 2346 2610 3573 2352
4 3963 3967 3968 5055
4 3963 3965 2824 3966
4 4503 1175 1184 1174
4 5947 1130 1138 1129
4 5953 1138 1139 1147
4 3963 5055 3964 3965
4 2822 3326 3966 2863
4 5954 2184 2193 181
4 3225 2472 2864 4028
4 3326 3966 5781 5669
4 2822 2757 2756 3968
4 3327 5291 5286 4777
4 3419 5222 3221 4036
4 3463 4095 2390 4172
4 3635 3808 4095 5955
4 4095 4116 4093 5955
4 5284 1141 1140 1132
4 5392 1141 1132 1133
4 3225 2376 3615 2378
4 5956 67 68 715
4 5951 5957 4076 5956
4 5387 1140 1149 65
4 2761 2719 2475 2716
4 714 68 5373 69
4 4952 238 5093 2021
4 2826 2701 2831 2407
4 5335 684 692 683
4 4076 5402 1167 5956
4 2681 3181 2699 2680
4 2471 2697 3482 3908
4 5393 1141 1149 1140
4 4022 5944 3744 5277
4 5093 237 238 1491
4 5937 5958 4265 1518
4 2375 2676 2384 2385
4 3225 4028 3615 2376
4 4028 4293 4027 3298
4 2469 2472 2471 3298
4 2736 3366 2729 2737
4 3654 5391 5296 4161
4 3216 3935 3560 3254
4 684 685 5928 693
4 5959 1144 1152 1143
4 2882 4849 3253 5306
4 5824 1178 1168 1169
4 2806 3774 3834 3789
4 2729 2615 4827 2616
4 2440 2330 2918 2324
4 2728 3254 3896 3933
4 5960 1145 1154 1153
4 2728 2616 4827 5961
4 3080 4327 3083 2312
4 4074 5949 189 1150
4 3739 3827 2356 5734
4 3705 3721 3698 3704
4 5406 1063 5839 1064
4 5952 1137 1145 1136
4 3739 2354 2355 2356
4 2357 2355 2356 3738
4 2496 2866 3384 2500
4 3657 2184 2185 2193
4 2639 2612 4108 5962
4 4654 1139 1130 178
4 3848 4101 3604 3605
4 2639 4109 3807 5347
4 2636 3490 3658 3659
4 2387 3658 3622 2615
4 5963 4714 1172 5944
4 3463 2388 2639 4172
4 3313 3672 3914 4385
4 2674 3313 4727 2786
4 3840 2218 2786 2787
4 5943 1169 1159 1160
4 3313 4727 2786 4385
4 2497 5580 2510 3700
4 4075 190 2 1149
4 4074 1159 1158 190
4 2788 4384 4387 3311
4 5393 1141 1150 1149
4 4075 1158 66 2
4 2357 2360 3371 3107
4 2355 3832 5964 5734
4 5353 5284 5393 1140
4 5573 2355 3832 5964
4 5093 5612 5094 5096
4 5950 1150 1142 1151
4 5949 1150 1151 189
4 5811 4191 5959 5277
4 5965 4914 4855 5384
4 2355 2974 4041 3548
4 2355 5964 3548 5734
4 2825 3548 2827 2974
4 2356 3832 2355 5734
4 5950 1151 1143 1152
4 5960 1153 1144 1145
4 5959 1152 1144 1153
4 5966 187 1152 1153
4 4711 5580 2510 4682
4 5404 1144 1143 1135
4 5816 3745 1179 1180
4 2591 3136 3135 3731
4 3234 2590 3887 3583
4 2244 3979 2243 3151
4 2243 2591 3731 2242
4 5913 2150 2149 2141
4 4265 1527 234 1518
4 4662 1164 1165 1174
4 3151 3152 4726 4727
4 2457 2458 2459 3325
4 5427 183 1157 182
4 3676 4502 3675 4505
4 2233 2231 2241 3151
4 3895 5290 3768 4777
4 4324 5330 3589 3590
4 2997 3596 3595 3589
4 2997 2994 2999 2996
4 4606 4551 5290 3895
4 5427 1156 1157 183
4 2718 3058 5287 4352
4 3849 191 182 5
4 3589 3058 2996 5287
4 3777 2838 2624 2940
4 3781 4808 4484 5724
4 2836 4484 3781 3782
4 5967 5968 1527 4266
4 4657 2371 4656 1121
4 2624 3778 3779 3032
4 3778 4950 3781 3780
4 3781 3777 5724 4950
4 4070 3782 3781 4808
4 2940 2941 2939 3779
4 4191 1152 188 1151
4 2836 3458 2941 3780
4 4062 4779 4741 4740
4 2410 2408 4062 4491
4 4062 4125 4780 4491
4 4900 4272 5580 4682
4 4124 4282 4063 4062
4 4665 2185 3726 2573
4 4665 3726 2185 3729
4 5387 5351 5353 707
4 4191 188 1152 187
4 4661 4665 3806 4664
4 4665 3698 3727 5947
4 1510 1518 5958 5939
4 4665 3806 2573 3726
4 3603 4272 829 3604
4 4665 3806 4664 3657
4 4661 3698 4665 5953
4 5966 187 1153 186
4 2782 5441 2279 2772
4 5277 1161 1171 1170
4 2772 2782 5397 5241
4 2772 5753 5969 2973
4 2338 2603 3201 2752
4 5944 1172 1171 1162
4 3158 3156 4122 3565
4 3156 4122 3565 3564
4 4444 3154 4515 4445
4 5960 5944 5388 5924
4 4900 828 5580 829
4 2601 3819 2610 3574
4 2601 3575 2597 3576
4 2601 2609 2597 3575
4 5427 1165 5970 183
4 4607 5298 4023 2679
4 5427 3849 182 1157
4 2380 4020 2378 2379
4 3028 4023 5125 5250
4 5298 2679 4610 4019
4 3716 3721 3727 3728
4 5298 4023 2679 4024
4 2676 2678 2683 4023
4 5111 5109 2147 224
4 2379 3844 4610 3846
4 2380 4019 2679 4024
4 3371 2899 3735 2823
4 3441 4568 3440 4567
4 2824 3966 4192 2863
4 2822 3966 2824 2863
4 3736 2824 3966 4192
4 5372 714 5956 1176
4 5949 188 189 1151
4 3435 3434 3430 3599
4 3427 3437 3434 3436
4 3430 3428 3429 3955
4 2971 2403 3888 3453
4 3888 3912 3438 4037
4 4074 4075 190 1158
4 5371 704 695 696
4 3951 3599 3430 3954
4 5388 1154 186 1153
4 5315 1599 225 226
4 4581 5283 5875 5941
4 5952 1145 1144 1136
4 3427 3438 4461 3428
4 2588 3340 2457 3325
4 2588 3325 3886 3340
4 4128 1155 184 185
4 2593 3236 2987 5923
4 2593 3340 5971 2989
4 1509 1518 1510 5939
4 5408 1173 1183 1182
4 4191 1152 5966 187
4 4076 1167 1158 1168
4 3621 4187 5080 3310
4 5824 1177 1168 1178
4 4128 1164 1163 185
4 5970 1164 184 1165
4 3936 3939 4642 5972
4 5970 1155 1156 184
4 2454 2466 2561 2456
4 5388 1163 1162 186
4 5963 1172 1173 1182
4 3308 5827 2733 5358
4 3134 2557 2961 3308
4 3697 1138 1147 1146
4 3308 3621 2732 2733
4 3937 3936 4011 5438
4 4662 1174 1173 1164
4 4664 1157 1156 1148
4 4664 1156 1147 1148
4 3305 3325 4348 4689
4 3849 181 182 1157
4 5427 1165 183 1166
4 3302 3304 3303 3310
4 3849 181 5 182
4 3309 5086 604 3304
4 2604 2605 2748 2932
4 5954 180 181 1157
4 5954 1157 1148 180
4 2707 2726 2749 2727
4 2750 2238 2726 2755
4 2571 191 2193 2194
4 2480 5003 2956 4346
4 2958 3602 4233 3128
4 4568 5416 4567 5440
4 5402 66 67 716
4 2480 2957 5881 2956
4 2480 4346 2956 4205
4 5819 1188 5343 3745
4 4529 5409 5407 5255
4 5331 698 5351 697
4 2462 3303 3302 2458
4 5280 4257 5299 5940
4 4279 4288 4732 863
4 3783 1203 71 70
4 5816 5277 5811 5959
4 4258 1178 1187 1177
4 5816 5811 5824 3743
4 5111 225 2138 5315
4 5973 5222 4290 4503
4 2235 2910 2236 2233
4 2959 5974 2964 2957
4 4465 2572 2195 2571
4 5959 1152 5950 1143
4 2959 4001 2955 3166
4 2480 2479 2956 5003
4 5960 5959 1153 5966
4 5404 5959 1143 1144
4 1144 4021 1135 5404
4 5369 1195 1204 1194
4 2480 2964 5881 2957
4 3459 3592 3489 5777
4 5957 5299 5371 705
4 4289 4288 4279 863
4 4121 5778 3982 3811
4 3459 3587 4121 5777
4 4121 3457 5777 4988
4 3655 686 4127 685
4 5973 4045 4290 4359
4 4128 1154 5924 1155
4 5960 5952 1145 1144
4 5960 5924 5388 1154
4 4121 3811 3813 5778
4 5354 1554 231 1545
4 3697 1146 1137 1138
4 5427 3849 1166 182
4 2330 2321 3935 2920
4 4279 4732 4652 854
4 1125 5975 1116 1124
4 3935 4639 3896 5520
4 3254 5525 5520 3933
4 2735 3254 2728 3933
4 2728 3897 5961 3933
4 3729 2176 2175 2167
4 5953 1148 1147 1139
4 2430 3219 2272 2265
4 5313 5976 4749 4690
4 5313 3044 2310 4995
4 5423 1148 1139 179
4 2398 2400 2970 2648
4 5423 179 180 1148
4 4665 5953 3657 4664
4 5313 3044 5977 5976
4 3293 3299 5609 2864
4 2826 2827 3968 3186
4 2831 3278 2864 2862
4 3294 2472 2864 2719
4 2864 5184 3277 4293
4 5951 1167 1168 1177
4 5956 1167 1176 67
4 1142 1143 5948 5950
4 2864 3277 3293 3278
4 3072 3065 2370 2342
4 2235 3148 2285 2283
4 4258 1187 1186 1177
4 3064 3070 3073 3074
4 3745 1188 1179 1189
4 3072 3070 2342 3734
4 3074 4591 3068 3064
4 3073 3074 3070 3671
4 5367 701 692 693
4 3853 3855 3856 3854
4 5966 186 1162 187
4 5924 1146 1154 1145
4 4756 1197 1198 1207
4 4256 1196 1195 1186
4 3448 3853 3854 3721
4 4107 691 682 683
4 5288 675 676 684
4 5282 1136 1135 1127
4 3655 685 677 686
4 3998 3854 3853 3856
4 2873 2876 2897 3388
4 3855 2169 2170 2178
4 2915 2250 2279 2275
4 3541 2781 2276 2772
4 5924 1155 1154 1146
4 2554 3881 5793 4697
4 4663 1147 1155 1146
4 5935 1112 2341 5915
4 3276 2541 5751 2542
4 5970 184 183 1165
4 4755 1188 1189 1198
4 5963 1182 1181 1172
4 4288 4279 4231 4289
4 3276 2541 2542 2537
4 3284 193 194 1184
4 4714 1164 4662 1173
4 2773 2276 2778 2781
4 5065 1189 1180 1190
4 3720 1190 1200 1199
4 3541 2288 2274 3276
4 4581 5941 5975 5283
4 5585 2541 5751 2781
4 2541 5751 2781 3276
4 4756 5819 4755 1197
4 3695 1127 1128 1136
4 3618 2968 4048 2915
4 3051 1202 1193 195
4 2842 2632 2839 3474
4 3066 2160 2169 2168
4 3318 3215 3584 2936
4 2571 1166 2193 191
4 3318 3932 3510 4313
4 5372 1177 1186 1176
4 3319 5796 3318 3584
4 4734 3646 4737 4735
4 3281 3262 3644 3268
4 3268 3281 3264 3647
4 4183 1205 1204 1195
4 5372 1186 1185 1176
4 3646 3281 5978 3280
4 3647 4734 3272 3646
4 2746 3647 3646 3644
4 2364 2852 3550 2854
4 3815 3924 3357 3921
4 5367 5368 702 5342
4 2842 2833 2528 2808
4 5283 1125 1126 1134
4 4204 1120 1129 1128
4 5979 4288 5604 4732
4 3173 3474 2834 3852
4 2228 2366 2362 2361
4 5937 5939 1518 1509
4 5937 236 1509 235
4 4747 4748 1400 106
4 3232 3457 3800 3592
4 3919 2851 2854 2852
4 3918 3925 3592 4164
4 5523 3179 5532 3920
4 4657 1129 1120 1121
4 4686 2242 5178 5040
4 5343 1187 4258 1178
4 3722 3695 4276 4204
4 5523 3053 3178 3182
4 5523 3179 3178 5477
4 5523 3053 3452 3178
4 5523 5477 3178 3452
4 2897 5270 5271 5352
4 3423 3941 2649 3709
4 4290 1182 1192 1191
4 5980 2143 2142 2134
4 3423 5687 2649 3941
4 4755 1199 1198 1189
4 2888 3917 4357 3386
4 3013 5341 2972 5339
4 2925 1630 1639 1638
4 3012 3011 2686 3703
4 5981 2152 2160 2151
4 3855 2170 2179 2178
4 2240 1531 3088 2726
4 3284 193 2195 2196
4 3389 3398 3397 3710
4 2927 2916 5460 5133
4 3090 2726 3089 5745
4 4747 4692 1391 5574
4 5436 3470 3389 3395
4 2726 2238 3088 2240
4 3085 2932 2625 3749
4 4256 1196 1186 1187
4 4634 4256 4183 5369
4 3085 3090 3089 3086
4 3085 3088 2726 2238
4 2659 3762 2663 3760
4 5367 692 5362 5335
4 5374 71 5403 711
4 3057 2998 2316 3767
4 1188 1197 5819 1187
4 5768 5183 5275 5982
4 4755 1190 1199 1189
4 3715 3858 2169 3855
4 3725 3724 5963 3705
4 5983 3762 5845 3913
4 4752 4732 5604 5594
4 3284 3051 3701 1193
4 5984 1624 1633 1632
4 3762 3913 5983 3760
4 2659 2245 3760 3759
4 2661 2659 2660 3761
4 2256 2505 2255 1562
4 5495 1124 1115 1116
4 5985 2140 2139 2131
4 5842 5235 5889 5936
4 72 71 5403 1212
4 5289 683 674 675
4 3224 1201 1202 1211
4 5986 4185 5359 5987
4 3051 195 1193 194
4 2663 3759 3760 4396
4 5190 1647 1646 1638
4 3762 5912 5904 3760
4 4350 2505 583 592
4 3762 5912 5329 5904
4 3701 1192 1193 1202
4 2904 4272 2906 2905
4 2657 3992 2405 3187
4 2678 2681 5375 2677
4 4072 1207 1198 1208
4 5988 1637 1636 1628
4 2420 2566 2567 3551
4 5982 1625 1634 1633
4 3011 4431 3742 4430
4 4731 3556 2420 2416
4 5988 1636 1627 1628
4 5989 1236 202 1235
4 3001 3823 3009 3324
4 4143 1117 1116 1108
4 2419 4716 5341 5340
4 5990 703 712 711
4 2640 4006 3139 5051
4 5368 711 710 702
4 5991 1222 1221 1212
4 5992 1660 5244 4201
4 4015 4642 4509 5505
4 4003 3139 4006 3756
4 3420 3422 3754 3426
4 3712 3422 3754 3420
4 5990 703 711 702
4 5993 1624 1616 1625
4 4003 4004 3784 4005
4 5991 1222 1212 1213
4 5288 676 685 684
4 5314 1214 1205 1215
4 5585 2542 4295 5344
4 5986 5991 1222 5359
4 5372 714 5957 5956
4 3159 5112 1570 1571
4 5928 5367 693 4203
4 5928 4628 4295 4304
4 5928 4295 2540 5288
4 5994 1234 5995 1235
4 5996 5991 1213 1222
4 5928 685 5288 4203
4 4072 1208 1198 1199
4 4072 1199 3416 1208
4 5928 5288 685 684
4 5928 5289 4295 5288
4 4073 1207 1208 1217
4 4106 682 5316 4107
4 3052 195 196 1202
4 2930 3444 2847 3486
4 5997 5946 2151 2150
4 2845 3444 2249 2847
4 3247 2691 3250 2667
4 5981 2161 2160 2152
4 3701 1193 3051 1202
4 2929 2539 5998 3486
4 2658 3989 2656 3991
4 4073 1216 1207 1217
4 3396 1209 1210 1219
4 5999 6000 5982 1634
4 80 663 6000 79
4 3699 6001 3700 4207
4 3603 3699 3847 5584
4 2677 3699 5375 3847
4 2859 2386 3274 2301
4 3387 3386 5355 5356
4 3885 3082 4174 3039
4 3557 3093 3219 3063
4 5386 1212 72 5403
4 3389 3393 5436 3395
4 5374 1203 1204 1213
4 5996 1205 1214 1204
4 4288 4732 862 5604
4 4071 1207 1216 1206
4 3460 4801 3465 6002
4 3062 2617 3063 3465
4 5280 5342 5940 703
4 2446 3320 3408 3322
4 5996 5314 1223 1214
4 6003 1221 1222 1231
4 2594 3926 4329 3559
4 3557 3563 3216 3560
4 3267 3899 3082 3567
4 4914 76 77 690
4 4607 5126 2683 6004
4 5126 3847 5522 4030
4 5126 3847 4030 4614
4 4627 5367 4634 4298
4 5938 5931 1124 1123
4 4106 682 681 673
4 5126 5561 3031 6004
4 3110 3763 3108 3766
4 2594 3174 2433 3927
4 5987 1224 1233 1223
4 4855 4853 75 708
4 4640 3084 3076 4995
4 6005 2182 2191 2190
4 6006 1217 1208 1218
4 5969 1632 1640 1631
4 5271 1216 1217 1226
4 3110 4640 5396 3084
4 4337 3765 3927 3926
4 2440 3374 2324 3169
4 2888 3386 5791 3917
4 1211 2754 197 196
4 6007 5270 6006 1218
4 3935 3927 4639 2321
4 2594 3560 3926 3559
4 6008 1227 1236 1226
4 2721 4716 2425 2418
4 4398 3752 2418 2723
4 2592 198 1229 1220
4 2722 2721 4398 3333
4 4398 3554 4540 3750
4 4398 3554 3333 4787
4 4398 2418 3750 4716
4 2608 3207 3205 3819
4 3171 3211 3210 2809
4 5357 3201 3200 2608
4 3573 5637 2608 5357
4 4127 694 686 695
4 5271 2897 3388 5270
4 3201 3200 2608 3202
4 5887 1216 1225 1215
4 3655 676 677 685
4 5992 6009 6010 1668
4 2610 3819 2608 2352
4 4288 871 4792 5648
4 2608 5707 5019 5637
4 4915 5992 1659 5244
4 1649 1658 1650 5360
4 5270 1227 1217 1218
4 3573 3533 2606 2351
4 2338 2962 3201 2966
4 5271 1225 1216 1226
4 3199 3196 3197 3200
4 3199 3203 3197 3198
4 5986 5987 5359 1223
4 3399 3392 3391 5673
4 3199 3202 3207 3205
4 1659 5442 5360 1658
4 6011 5355 5356 1657
4 5336 208 1230 207
4 4184 1234 1233 1224
4 2607 2608 3819 3207
4 3601 4034 4878 5370
4 2882 4849 4161 5907
4 3203 3201 2962 2966
4 3416 3418 1209 1200
4 3819 3565 5809 3574
4 5019 3205 3819 2608
4 3158 4450 3155 5757
4 2592 197 198 1220
4 5018 5489 3480 5075
4 3479 2610 3819 3574
4 3479 3481 3575 5076
4 3151 4726 2236 3914
4 592 2258 591 600
4 2669 2191 2182 2183
4 6005 3153 2443 5929
4 5531 6012 5842 5893
4 3151 5531 3732 5842
4 5531 3760 5904 5893
4 5531 6012 3732 5842
4 3760 5842 5893 5531
4 3732 4423 4469 6013
4 3979 6013 3732 5531
4 2243 4423 4469 3732
4 2569 2200 2201 198
4 5325 5451 724 3609
4 4853 3 708 74
4 5996 1214 1223 1213
4 2404 2377 2378 2411
4 3078 3290 3828 3292
4 2521 2514 2424 4494
4 2449 2422 2423 2421
4 4854 1678 1669 1670
4 4494 2421 3288 3289
4 3291 3288 3322 4643
4 3375 3380 3379 3483
4 2533 1228 1237 1227
4 2493 2267 3321 3484
4 2365 3163 6014 3125
4 3550 2364 3126 3230
4 2853 2854 3126 3466
4 2366 3637 2365 2367
4 5359 1231 1222 1232
4 5249 1677 206 205
4 2365 3125 2853 2364
4 5989 6015 6016 1673
4 2930 3486 4257 4258
4 6017 204 1233 1234
4 4853 1230 208 74
4 6018 4869 4123 5988
4 6019 1675 1674 1666
4 2634 2367 2365 3163
4 2854 3126 3466 3550
4 5995 1234 1225 1235
4 4938 3481 5680 3480
4 4997 3883 3520 3575
4 6019 1674 1665 1666
4 4939 3481 3480 5076
4 4871 221 2174 222
4 4997 3575 3481 5076
4 3171 2700 3475 2833
4 5489 5486 5018 3480
4 5018 5488 3479 3480
4 2532 1229 1238 1228
4 5270 5271 1226 5995
4 4939 4342 5014 5489
4 3480 5486 4342 5489
4 4831 1662 219 1653
4 3595 5330 3589 3596
4 3159 2257 1571 1562
4 5302 3609 5325 725
4 2687 3526 2992 3036
4 2575 2587 3024 3023
4 2714 3058 2720 3816
4 5249 6017 6020 1676
4 2564 2998 2991 3000
4 5336 1230 1231 207
4 6011 1657 1665 1656
4 3767 3590 3259 5370
4 3767 4677 3590 5370
4 2880 2879 5296 5269
4 2672 2883 5908 4927
4 6015 1237 201 1236
4 2289 2664 4425 4394
4 4692 1382 1391 1390
4 2880 5296 3654 2881
4 2880 5197 2879 5265
4 2672 2883 2879 5908
4 6017 205 1233 204
4 2672 3654 2880 2879
4 2551 2550 3879 3881
4 2279 2871 2926 2925
4 2278 2552 2554 3881
4 2550 3882 3881 3880
4 2505 592 2258 591
4 2926 5190 3882 5460
4 3028 5250 5167 4025
4 2551 2891 3368 2549
4 5045 5514 4979 4961
4 2926 5190 5105 2889
4 6016 1665 1674 1673
4 4496 4497 4806 4498
4 4497 4806 4500 4496
4 4498 4497 4806 5655
4 2332 2331 4497 2923
4 2436 200 1237 1238
4 2332 2923 2918 2324
4 2332 2320 2321 2319
4 3557 3063 3367 4331
4 4497 5655 4498 2923
4 2332 2331 2321 2320
4 4438 5228 5227 6021
4 6008 1236 1235 1226
4 6022 1672 1663 1664
4 4438 4669 5471 5866
4 4692 1382 5575 4691
4 2255 2257 88 87
4 1382 4692 1391 108
4 4438 5432 5866 4237
4 4438 4151 4237 6021
4 2213 2215 3864 2820
4 6023 221 220 2183
4 3840 4151 5227 4150
4 4747 4748 4749 1400
4 6024 5227 6021 4151
4 5227 6021 4151 4438
4 2819 3238 4438 4669
4 2819 4669 2254 2820
4 4762 3133 3637 6014
4 4310 4905 4762 3637
4 4762 4905 4958 954
4 3649 3648 1563 5056
4 4762 4936 3315 5716
4 4762 3133 946 5716
4 4762 5716 945 4936
4 3678 330 117 321
4 6022 1673 6016 6015
4 6022 4830 1672 6015
4 6025 4466 209 1680
4 6022 2533 4830 6015
4 5763 286 285 277
4 6026 1681 1680 267
4 6025 6027 6028 6029
4 6025 266 1769 7
4 6022 3917 2442 5791
4 6022 5791 2533 6016
4 5430 5757 5433 4713
4 3714 5471 6030 5814
4 3678 117 118 321
4 3714 5829 3851 3495
4 3714 5848 3851 5829
4 3713 3851 4482 5634
4 3238 4669 3714 5471
4 3714 5471 5428 6030
4 4303 295 287 296
4 6025 1680 6026 6028
4 3451 3026 3021 3372
4 2991 3588 2999 2994
4 2991 3526 2688 3525
4 5801 3817 2720 3816
4 4324 3590 4677 5330
4 6026 6028 1680 1681
4 3767 5370 3259 4677
4 3662 3259 5370 3601
4 2998 3589 3590 3767
4 5900 2736 4989 3363
4 4368 277 278 286
4 6025 7 1680 209
4 4466 210 1240 1239
4 4420 1240 210 211
4 4302 305 304 296
4 5900 5883 6031 3658
4 2737 5900 3366 3622
4 5900 4972 3366 6032
4 5900 4989 6032 5479
4 5900 3622 3591 3658
4 4138 3906 3905 4485
4 4138 3906 4485 4471
4 3904 3328 2579 5822
4 5642 5056 3649 1572
4 4138 3912 4666 4471
4 5400 1268 1276 1267
4 4419 314 313 305
4 4137 4666 4138 3185
4 3184 4136 4138 4137
4 99 4857 492 483
4 4138 3911 3912 4478
4 3447 3416 2886 5352
4 3409 3444 3410 4755
4 2247 2536 2692 2691
4 3445 4073 2876 3616
4 2249 3616 2877 2847
4 2672 2538 2666 2290
4 2672 2881 2880 3654
4 2667 2672 2538 2666
4 3249 4846 3250 5875
4 483 4910 4857 4856
4 4832 1716 1725 213
4 4911 4918 4116 1461
4 2661 3761 3191 4927
4 99 100 4857 483
4 3247 3249 3250 3252
4 4370 10 278 277
4 1454 4857 1463 100
4 100 4857 483 1454
4 2661 4581 3191 3192
4 2501 6033 2506 4795
4 2501 2506 6033 2499
4 2498 2499 2501 3538
4 4508 3506 5467 5107
4 3536 2501 4992 3538
4 4069 312 4401 313
4 4014 1262 1261 1253
4 3536 4992 3382 4990
4 3950 5092 5006 3197
4 4424 279 287 278
4 6034 1254 1263 1262
4 6035 1717 1718 1727
4 4832 214 1244 1243
4 5045 5030 4343 4307
4 5358 5006 3196 3197
4 5084 5358 5006 3196
4 2093 2102 230 5056
4 3199 3203 3207 3201
4 4349 5056 2093 230
4 4119 1735 6036 1734
4 4305 214 215 1244
4 4373 1726 1716 1717
4 4369 1734 1743 215
4 3201 3200 3197 5358
4 3203 2963 3197 3198
4 4069 313 322 321
4 5609 6037 3351 5511
4 4322 4533 1258 1257
4 3424 3711 3940 3709
4 6038 1246 1255 1254
4 4322 4054 4055 1266
4 5259 5492 3942 6039
4 3940 3944 5259 5122
4 5259 3944 5492 5122
4 5938 5284 4847 4849
4 2649 3709 3757 3756
4 4369 215 216 1245
4 6038 1245 1246 1254
4 3940 5122 5259 3758
4 5045 4177 5030 4307
4 4553 1290 5772 5700
4 5259 5454 3758 5122
4 4367 1247 2872 123
4 4509 6040 6041 1271
4 3422 3756 4451 3755
4 3426 3755 3758 6042
4 5763 276 277 285
4 2649 3941 6043 3757
4 3424 3940 3710 3741
4 4371 1743 1752 216
4 3426 3711 3709 3758
4 3426 6042 3757 3756
4 2872 8 217 1752
4 5259 6039 3942 3757
4 5259 5122 5506 5454
4 2854 4602 4601 3550
4 4051 276 2872 8
4 5045 5030 4944 4979
4 4371 6044 2872 1752
4 5418 6035 6045 4426
4 3262 3264 2850 3263
4 6046 5417 1745 1744
4 6047 265 1778 266
4 4318 1257 1266 263
4 2634 2368 2363 2364
4 3528 3838 3529 2857
4 3528 3664 2813 2727
4 4315 1786 1778 1787
4 2727 2707 2709 3528
4 2725 2707 2709 2727
4 6048 6049 1284 261
4 5045 5030 4178 4944
4 3625 3257 5721 2918
4 3934 5654 2918 2922
4 4533 1258 1257 1249
4 6027 1239 1240 1248
4 6048 1823 1814 261
4 4533 1248 1249 1257
4 6029 6050 6051 1768
4 2332 2919 2918 2922
4 3255 2918 2919 3257
4 3516 1708 1707 1698
4 3516 6028 1690 1689
4 2332 2923 4497 4498
4 4299 1249 1240 1241
4 4439 1252 1243 1244
4 2918 3257 3169 3625
4 2918 2324 2923 3168
4 6034 1262 1253 1254
4 3168 2918 3169 3625
4 6052 1277 5400 4434
4 6053 297 296 288
4 5481 1717 3518 1708
4 2689 3409 3445 3444
4 2877 4589 3870 2875
4 2777 3485 2847 3869
4 5766 6054 4119 6038
4 3507 6055 1719 1728
4 4509 1280 1279 1271
4 5365 5764 4416 4417
4 4118 3518 4439 3488
4 4504 331 330 322
4 2777 4295 2844 4304
4 2541 2540 4295 2542
4 4599 1272 1280 1271
4 4381 4374 4429 1756
4 2541 4295 2540 2844
4 6056 6049 6048 1814
4 4367 285 122 276
4 5763 4051 277 276
4 4418 4417 1256 1265
4 2773 2276 2781 2772
4 2535 2251 2537 2276
4 5365 5416 5418 5766
4 2534 2666 2290 2536
4 5416 5766 6045 5418
4 4240 4242 4241 4250
4 6057 1272 1263 1264
4 2941 3780 3458 5473
4 2940 2941 3779 3780
4 2531 3981 3476 3458
4 5900 3366 4972 2736
4 3366 2615 3653 4827
4 5900 3366 3622 3658
4 3591 5883 5735 5479
4 2638 2615 3366 3658
4 4533 6058 1248 1257
4 4533 1257 4318 6058
4 6032 3653 4972 3366
4 2660 1108 3193 4143
4 3934 2919 6059 2922
4 2440 2918 3257 3169
4 2440 3255 3257 2918
4 2330 2920 3935 2919
4 3517 6051 6028 3985
4 3934 3933 6059 2919
4 4531 332 324 333
4 3254 2919 5525 3933
4 3455 3452 774 775
4 3517 1700 1690 1691
4 5505 1270 1269 1261
4 5925 307 316 315
4 2332 2330 2919 2920
4 5925 315 306 307
4 4434 1269 1278 1277
4 4600 340 339 331
4 2919 5525 2921 2920
4 3194 3191 3193 1117
4 5425 4364 1694 1703
4 3951 3953 4448 3955
4 4417 1255 1256 1264
4 3951 3953 3472 4448
4 3467 3599 2395 3469
4 5416 4426 4567 5417
4 5503 1269 5505 1270
4 3467 3599 3472 3468
4 4302 296 4303 4449
4 4418 285 294 121
4 3686 4443 1274 1283
4 4365 1711 1710 1701
4 6013 4396 5531 3979
4 3599 3951 3435 3471
4 5764 6038 1255 1254
4 4018 3798 5108 3952
4 5389 4599 1272 1281
4 5261 6060 4725 5509
4 4416 5764 6038 1255
4 3153 3332 2180 2188
4 3552 1279 1288 1287
4 3471 5361 3470 3473
4 3881 5795 3879 2552
4 3881 6018 6061 3880
4 4318 6058 264 1787
4 2874 2889 2926 2871
4 2551 2549 2552 3879
4 2554 5793 3881 2552
4 6062 1285 1284 1276
4 2554 4798 4697 2917
4 3881 4697 4798 6061
4 2981 2453 2987 2989
4 4322 1257 1258 1266
4 2950 2783 2953 2775
4 2954 2783 2785 2953
4 2588 3583 3886 3325
4 6063 4365 1710 1701
4 3886 3237 6064 5922
4 4532 1267 1259 1268
4 3886 2593 3340 6064
4 6065 1268 1259 1260
4 4323 749 758 757
4 3928 2463 3236 2987
4 3349 1314 1305 1306
4 6054 4305 1245 1244
4 6065 1268 1260 1269
4 4526 332 331 323
4 4509 1262 1270 1261
4 2589 2763 3236 3114
4 3679 119 1292 1283
4 3234 3583 3887 5864
4 5534 5499 1294 1285
4 2968 2965 3236 4049
4 2910 3672 3311 3312
4 4134 1280 1288 1279
4 4487 324 4473 315
4 1273 6057 4417 1264
4 2910 3672 3313 3311
4 3148 4464 2910 3166
4 5766 6036 4416 6038
4 3152 2236 3313 2910
4 2959 4000 2964 5974
4 3979 4396 5531 3759
4 3686 4440 303 120
4 4321 4320 338 329
4 4134 1289 1288 1280
4 3148 3672 4464 3671
4 2317 2578 3767 3259
4 3545 3333 4787 3546
4 2414 2565 2566 2415
4 4443 6057 4417 1273
4 2305 3333 3334 4412
4 4442 4440 294 303
4 3686 3679 3901 1283
4 4410 3333 4716 2305
4 2305 2643 4410 2642
4 6066 1886 253 1356
4 2546 254 6066 1877
4 3482 3544 4412 3334
4 6066 253 254 1347
4 2666 2691 2538 2667
4 2663 3761 5328 3762
4 3762 5328 1107 4143
4 262 261 6049 1814
4 4573 3333 4412 3544
4 3294 3334 3300 3482
4 3553 6067 4572 6068
4 2721 4716 4398 3333
4 6062 6049 1275 1284
4 5400 1276 1268 1277
4 2663 3762 5904 3760
4 3719 3509 3211 3929
4 5028 5031 4365 4364
4 3594 4483 4069 4419
4 3552 1278 1279 1287
4 6052 1277 1286 1285
4 2835 3520 3172 3496
4 4513 334 333 325
4 6069 4365 5029 1710
4 4462 3124 3793 4833
4 3096 3406 3098 4462
4 4462 4794 3124 4833
4 4462 3098 3124 3123
4 4555 341 340 332
4 3762 5840 2660 1108
4 4794 3123 3404 4462
4 5389 1273 1281 1272
4 6054 1253 1244 1245
4 2650 2644 3030 2647
4 4443 1274 1282 1273
4 3183 3185 2401 3453
4 4599 1281 1280 1272
4 2864 2865 3278 3293
4 3020 2650 3023 3024
4 2697 3028 4025 4023
4 4215 4217 769 4216
4 2697 3056 3908 5167
4 5389 1282 1281 1273
4 3678 321 4069 4504
4 4553 1290 1281 1282
4 4473 4526 323 4531
4 3028 3056 5167 5261
4 6052 4434 4731 5498
4 3029 2682 3031 2683
4 4443 1283 1282 1274
4 3030 2644 5261 6070
4 3678 3679 118 1292
4 3678 4548 1301 5748
4 5772 1299 1290 1291
4 5564 824 815 143
4 3739 5734 2355 4041
4 2355 3548 4041 5734
4 2663 5328 5195 5329
4 2358 3083 3084 4142
4 4757 5177 249 1922
4 3478 5104 2292 4163
4 3478 5104 2351 2292
4 6071 4541 5340 1803
4 6049 262 1814 1805
4 6048 1284 1293 260
4 3478 3521 4126 4163
4 2351 2292 5104 3838
4 2344 2294 3478 2351
4 4541 1812 1803 1804
4 3477 5680 3481 3480
4 5044 2294 3839 3663
4 5499 1285 1286 1294
4 2346 2353 2351 2606
4 2398 3013 2972 2428
4 4554 349 348 340
4 5475 1797 1806 138
4 4552 1289 1280 1281
4 5534 6056 6062 6048
4 3008 3010 3227 5318
4 5700 1298 1289 1290
4 5522 5584 812 4030
4 3742 3703 3011 4929
4 3054 776 785 784
4 6072 5527 5528 5439
4 4065 1808 1799 1800
4 3442 3936 3937 5438
4 5448 4447 731 5450
4 4552 4599 5389 1281
4 6073 1799 1790 1791
4 3678 4548 1292 1301
4 2686 3666 3703 3742
4 3010 4430 3011 3227
4 4549 4554 348 339
4 4552 1290 1289 1281
4 5119 5122 3940 3758
4 3679 118 119 312
4 4716 6074 2740 6075
4 4430 5028 3742 3227
4 3423 3013 5339 4433
4 5192 4507 4505 5836
4 4553 1291 1290 1282
4 3761 2660 3191 4143
4 4483 4473 314 4033
4 5324 132 5325 1688
4 2462 2732 2791 2556
4 4561 1308 1299 1300
4 3730 4506 3674 3994
4 3676 3730 3732 2241
4 2477 5220 2986 2479
4 2477 6076 3694 2985
4 2476 2774 2477 2481
4 5534 1293 1284 1285
4 2476 2482 2479 4233
4 2477 3694 2481 2775
4 2981 2985 2477 2775
4 4570 1832 1841 1840
4 3442 3936 3012 3937
4 3937 3702 4929 6069
4 3708 4013 3002 3702
4 3000 3662 3259 3590
4 2539 4628 4127 5998
4 6062 6048 6049 1284
4 3588 3037 4599 4134
4 2394 2685 2688 2687
4 4413 1311 257 258
4 3439 3440 3442 3937
4 3937 5438 4011 3440
4 4834 1289 1298 1297
4 4065 1809 1808 1800
4 3547 1296 1297 1305
4 4834 1289 1297 1288
4 3442 2685 2688 3938
4 4597 5024 348 357
4 3936 5972 5438 3939
4 4597 358 357 349
4 4534 350 359 358
4 2853 3121 3122 2850
4 3547 1305 1297 1306
4 2853 2854 3283 3121
4 2861 4738 2850 3122
4 4600 5287 4606 5323
4 2362 3122 2861 2850
4 4600 339 330 331
4 5700 1299 1298 1290
4 2362 2228 2221 2861
4 5199 339 1310 116
4 3121 5668 3283 4598
4 3122 3642 5716 3133
4 3678 118 1301 1292
4 5772 1300 1299 1291
4 5772 5700 1290 1299
4 5529 1333 1325 1334
4 4608 4630 360 369
4 5748 1301 1309 1300
4 3122 3016 6077 5716
4 3122 4739 3120 6077
4 4409 6078 3905 4495
4 4738 3121 5668 3281
4 4353 1317 1308 1309
4 5563 806 797 141
4 6079 6080 5624 1912
4 6056 1814 1822 1813
4 2365 3122 3133 3642
4 2656 2657 3187 3992
4 2768 2900 2901 2903
4 5522 803 811 802
4 3768 2578 4324 3057
4 5074 366 4525 113
4 5555 5528 1833 1834
4 5561 803 794 795
4 2471 2697 4025 4023
4 2378 4020 2411 2379
4 3351 1313 1305 1314
4 2375 2377 2411 2378
4 2831 2765 2900 2901
4 4604 360 359 351
4 4609 361 360 352
4 3817 1306 1297 1298
4 4548 1300 5772 1291
4 3820 1317 1316 1308
4 2411 2378 2409 4020
4 4600 4526 331 4504
4 6081 6082 1774 1775
4 5801 1307 1298 1299
4 4549 5024 348 4554
4 2555 2591 3136 3135
4 5548 1314 1315 1323
4 2562 3675 4156 3841
4 2559 5469 3675 3996
4 3678 5748 5199 4504
4 2895 5161 2967 2960
4 2461 2560 2559 2563
4 5781 5788 4676 5413
4 2338 3980 2752 2962
4 5801 1308 1307 1299
4 1365 6083 1904 5550
4 2498 6084 3539 3537
4 2212 2819 2558 2213
4 2855 2559 2558 2818
4 2950 2452 2216 2211
4 4561 1309 1308 1300
4 3087 3749 2625 4767
4 5748 1301 1310 1309
4 5293 4554 4600 4555
4 4550 1309 5748 1310
4 5788 1326 1317 1318
4 2908 5579 5578 4101
4 4767 4059 5742 5099
4 4767 4061 4059 5099
4 4095 2937 3635 3461
4 2933 2936 6085 3584
4 2934 6085 2933 2936
4 2934 3932 3246 4948
4 4570 4413 1841 6086
4 2300 2937 3189 3188
4 2300 3188 2936 2933
4 2600 2339 2712 2752
4 6087 6067 6088 4267
4 3203 2966 2949 3207
4 5325 131 1688 132
4 5051 4006 768 767
4 5496 1826 1817 1818
4 6089 4063 4742 4147
4 2598 2607 2602 2603
4 6037 1313 1322 1321
4 2602 2967 2966 3157
4 3819 3207 3205 5665
4 6090 1312 1304 1313
4 2824 2862 2863 4192
4 2822 2824 2862 2863
4 3820 1308 1316 1307
4 3818 1315 1306 1307
4 4578 1316 1325 1324
4 5562 1816 1815 1807
4 4741 1883 1892 1891
4 2826 2701 2758 2831
4 4626 368 367 359
4 4033 305 4035 306
4 4630 360 369 368
4 4210 332 4531 333
4 2822 3327 2757 3968
4 4555 332 4210 341
4 2995 3817 3547 1297
4 5877 3966 4694 3736
4 5598 1354 1363 1362
4 4605 376 375 367
4 4550 1318 1309 1310
4 3091 3034 3032 3033
4 2294 2350 3665 3663
4 4504 3594 4548 5323
4 4549 116 1319 1310
4 2344 2293 3805 3523
4 2892 2894 1044 2913
4 2868 90 573 89
4 2294 2291 3665 2293
4 4353 1318 1317 1309
4 3805 3212 3723 2348
4 2294 3533 2353 3528
4 4550 1319 1318 1310
4 4554 4550 4549 5024
4 5024 115 1328 1319
4 2868 4046 2869 1544
4 4223 1949 246 1419
4 4269 1320 4270 1329
4 3966 5669 3965 5877
4 4413 1320 257 1311
4 2826 3968 2822 2756
4 3225 2864 3277 4293
4 2715 3326 2716 4775
4 5262 6091 6092 5267
4 4413 1311 6088 1320
4 2570 3326 2758 2716
4 3326 5669 3327 3966
4 2570 2757 3327 4777
4 2863 2862 2865 4192
4 2487 2742 3270 2743
4 5571 1321 1322 1330
4 3913 5983 3760 3914
4 5513 1826 1825 1817
4 3273 3647 3272 3270
4 5291 6093 4609 5290
4 2491 2268 2267 2742
4 2746 2743 2747 3865
4 5586 824 823 815
4 5511 1322 1314 1323
4 2326 2324 3168 2982
4 3546 1830 1838 1829
4 4235 811 810 802
4 3865 2747 5674 2743
4 4696 1324 1332 1323
4 4649 377 376 368
4 4650 369 378 377
4 5529 1325 1333 1324
4 3821 1325 1316 1317
4 5573 6094 4745 5657
4 6095 1335 1326 1327
4 2491 2742 2743 3668
4 4600 4554 4550 339
4 2491 2746 2268 3668
4 2904 3603 3604 4272
4 4625 1319 1328 1327
4 4676 1326 1334 1325
4 4648 4629 385 4090
4 5788 1327 1326 1318
4 4625 1319 1327 1318
4 3110 3081 3765 4640
4 5074 357 4603 366
4 2329 2983 5705 2982
4 6095 1327 1336 1335
4 4090 393 385 394
4 2354 3992 3828 4558
4 2356 3832 3083 3738
4 4624 4597 4554 4538
4 5074 1337 1328 114
4 5074 357 366 113
4 5074 114 357 113
4 5521 1395 1403 1394
4 2356 2355 3832 3738
4 2611 2613 2616 3018
4 2298 2220 2301 2388
4 5600 1356 6096 1886
4 2611 3018 2617 4801
4 2612 2614 4898 2613
4 2631 3519 3312 3311
4 2675 2674 2786 3313
4 4223 5659 247 1940
4 2735 2728 2731 3933
4 2730 2738 4926 2734
4 2736 5676 3363 4926
4 2544 1339 1338 1330
4 5916 4926 6097 2738
4 2546 1338 255 4325
4 4926 6097 2738 2736
4 4228 823 832 831
4 3349 1314 1306 1315
4 5900 3363 4989 6098
4 4673 812 803 804
4 5175 1384 1383 1375
4 5189 1331 1322 1323
4 4725 1844 1835 1836
4 3683 1341 1350 1349
4 2736 4989 3363 5676
4 6099 1863 1854 1855
4 3363 3622 5900 2737
4 2730 2736 3363 4926
4 2894 2913 1043 1044
4 4619 4659 4535 5536
4 2737 3622 3366 2615
4 4750 1361 1352 1353
4 4644 432 4720 423
4 5583 1336 1345 1344
4 4624 6095 5788 4625
4 2737 2736 5900 3363
4 2244 2245 3759 5531
4 4694 6095 5583 1335
4 4676 1325 3821 1326
4 5531 3760 3759 4396
4 2329 5629 4499 5705
4 4624 5293 4625 5788
4 5598 4629 6100 4693
4 4691 4100 402 4671
4 4042 386 4648 377
4 4423 2243 4470 2764
4 5583 1344 1335 1336
4 2948 2894 5148 5825
4 5074 4603 4525 366
4 4412 2644 5261 3056
4 2998 2996 3589 3058
4 5657 1363 1372 1371
4 4525 112 1346 113
4 2570 3768 2579 4777
4 4611 1353 1344 1345
4 4223 246 247 1410
4 3895 2718 4777 3768
4 4120 4770 1526 92
4 3768 5822 2579 4777
4 3768 2579 5822 4409
4 3778 4059 5742 3086
4 5435 1862 1853 1854
4 3687 1339 1331 1340
4 2838 3781 4070 3782
4 3777 4059 6101 4950
4 2544 4325 1329 1338
4 5509 1836 1835 1827
4 3689 1331 1332 1340
4 4070 3487 3498 6102
4 4062 4741 4280 6089
4 4101 839 830 831
4 3682 1341 1332 1333
4 3603 829 820 821
4 2409 2766 2412 4062
4 4955 2766 4957 2902
4 3604 838 829 830
4 3683 1340 1341 1349
4 2404 2407 2653 2405
4 2902 4063 3612 4306
4 4556 4495 334 6078
4 6103 1351 1359 1350
4 2771 2410 2329 2983
4 2378 2409 4020 3615
4 4702 1360 1361 1369
4 2329 2412 4740 4491
4 6070 5463 6104 5686
4 4694 1335 1343 1334
4 2894 5148 1043 5844
4 2329 2983 4491 5705
4 2331 2326 2982 2324
4 4722 5583 1336 1345
4 4218 1343 1342 1334
4 4722 1345 1336 1337
4 3549 5808 4557 5536
4 4218 1334 4694 1343
4 5201 2329 4740 5629
4 4203 4628 2540 5928
4 2514 4414 3989 4415
4 4525 1346 112 4230
4 2776 4589 2780 4292
4 5928 5288 684 5289
4 5928 4304 5335 5367
4 4723 4605 4603 4626
4 4721 4605 4626 4649
4 4295 5155 5585 5288
4 4525 1346 4722 1337
4 4295 4304 4292 5289
4 4295 5242 5585 5155
4 4525 4605 4693 375
4 5598 1362 1353 1354
4 5176 1376 1384 1375
4 2789 5223 3878 4701
4 3519 4386 4393 5207
4 4153 5223 4703 4202
4 5223 4202 4393 4703
4 5223 4701 5207 5234
4 6105 2984 4888 2985
4 2984 4888 2985 3694
4 2546 6066 2547 6106
4 3694 3692 5806 3691
4 6107 1369 6108 1378
4 2477 3694 2775 2985
4 6066 253 1886 254
4 6109 1925 1916 1917
4 3694 3614 5004 2482
4 6110 5586 5560 5565
4 4102 1350 1358 1349
4 2477 3694 5004 2482
4 5377 1340 1348 1339
4 2682 3028 4023 2683
4 6111 1861 1860 1852
4 2547 1347 1339 1348
4 2681 4207 3181 3373
4 2823 2831 2407 2826
4 3608 1368 1360 1369
4 3681 1342 1350 1341
4 3525 4463 3527 4835
4 4565 4042 4650 378
4 3401 5657 5601 6112
4 4839 3598 4836 3525
4 3685 5377 5376 4493
4 4286 1881 1880 1872
4 5569 1890 1889 1881
4 3662 3524 4034 3598
4 3524 3938 5762 3527
4 3080 2356 3827 3832
4 4675 1344 1352 1343
4 5844 2894 2912 2913
4 5274 1360 1351 1352
4 2894 5148 5825 1034
4 3598 4836 3525 3524
4 5601 1370 1361 1362
4 4618 395 404 403
4 4717 421 420 412
4 4693 1346 1354 1345
4 3951 3955 3435 3952
4 4721 4693 4605 4629
4 4704 4043 4040 396
4 112 1355 4230 1346
4 3888 3599 3456 3954
4 3183 3468 2640 3784
4 4799 4042 4648 4650
4 4693 1346 4230 1355
4 4617 404 413 412
4 3434 4878 3600 3436
4 3434 3600 4878 3601
4 6100 1355 1363 1354
4 3934 6113 5653 6114
4 4229 384 393 110
4 4704 405 4616 396
4 2394 2685 2395 3601
4 2395 3889 3259 3601
4 3336 2791 3337 2451
4 3303 2732 3308 3621
4 3287 5569 4780 3504
4 3303 3305 2458 3344
4 3303 4908 3310 3304
4 3343 3336 3341 3340
4 3340 3325 3343 3336
4 6115 1357 1348 1349
4 2803 2801 2766 5380
4 3979 3732 3151 5531
4 6066 1356 253 1347
4 3886 3343 3325 3583
4 4667 1377 1386 1385
4 6115 1357 1349 1358
4 5581 1892 1900 1891
4 3928 2987 3236 4049
4 2958 3515 3602 3878
4 5292 1846 1854 1845
4 2986 4764 5220 5143
4 4715 1368 1376 1367
4 2902 4955 4063 4306
4 6116 1359 1367 1358
4 2580 2986 5220 2479
4 2981 2986 2774 2477
4 5274 1343 1352 1351
4 5578 848 847 839
4 6117 3503 3504 1899
4 6118 1375 1366 1367
4 2454 2451 2457 2453
4 2868 2849 4046 3997
4 4695 4659 6119 4535
4 6120 1385 1394 1393
4 2353 3528 2727 3664
4 6115 5377 3683 1349
4 4144 1872 1871 1863
4 2748 2749 3033 2727
4 2339 2603 2600 2337
4 4616 396 405 404
4 2868 3997 2505 2849
4 5274 1361 1360 1352
4 4291 855 4474 856
4 2752 2339 2712 2753
4 6100 1364 1363 1355
4 3851 5634 2524 2525
4 5601 1362 6112 5657
4 4229 4671 393 4090
4 4229 6100 1355 1364
4 2357 3738 3371 3401
4 3851 2523 5830 5165
4 6121 1390 1399 1398
4 5657 1371 1362 1363
4 2261 5493 3851 3497
4 6094 4229 4671 1364
4 6108 1379 1378 1370
4 6094 4090 4229 6100
4 4745 1380 1371 1372
4 5977 1399 1408 1407
4 6122 1429 1428 1420
4 3851 5829 5848 5830
4 3714 4482 3851 5848
4 3851 5829 5830 5493
4 4328 5977 4239 4329
4 1407 5977 4239 1416
4 5552 1366 1357 1358
4 2594 3044 4329 3926
4 4329 4239 3559 3926
4 3559 4328 4239 4329
4 1416 4328 5977 4239
4 2594 3558 4329 3044
4 5610 851 146 147
4 5652 875 874 866
4 4281 1881 1872 1873
4 5551 1366 1365 1357
4 3558 4330 4329 3044
4 4329 4330 6123 5976
4 5552 1366 1358 1367
4 6124 1856 1864 1855
4 4329 3044 4330 5976
4 4089 1857 1865 1856
4 5602 856 847 848
4 4329 4330 4328 6123
4 2730 2731 2735 2728
4 3608 1360 1368 1359
4 2735 4926 3934 2734
4 3504 1899 1898 1890
4 6118 1375 1367 1376
4 2419 5339 2972 5341
4 3934 4926 6113 5916
4 6108 1370 1378 1369
4 6094 1373 5575 1372
4 2922 6059 2921 2919
4 3560 4639 3935 3927
4 1346 4230 4525 4693
4 4671 109 402 4691
4 3257 3256 4970 2620
4 3935 2920 2321 4639
4 6094 1363 6100 1364
4 4617 3829 404 4616
4 3933 2735 3934 2734
4 6125 3926 4838 4337
4 6094 5575 4671 4096
4 6094 1372 1364 1373
4 5575 1381 1372 1373
4 4759 448 447 439
4 6125 3559 4639 3896
4 6125 3559 3896 4881
4 4952 5612 5093 1491
4 6125 4805 1414 4881
4 6125 5520 4805 3896
4 3685 3688 5185 3611
4 4952 6126 239 2012
4 4952 238 239 1482
4 2900 4293 3612 3615
4 4607 6110 6004 5125
4 1365 6083 6096 252
4 6127 1891 1890 1882
4 2864 3293 3277 5184
4 2900 3615 3225 4293
4 1904 1365 252 6083
4 3688 3293 3277 3278
4 5201 4500 5629 6128
4 2548 4591 2693 3074
4 3074 6129 2548 4591
4 4591 5627 3064 3074
4 3064 4591 3068 3067
4 3068 2694 3414 2693
4 3070 3734 3733 3916
4 5174 1384 1393 1392
4 4667 1385 1376 1377
4 6107 1377 1368 1369
4 3073 3514 3074 3671
4 3074 3671 5892 3071
4 2868 90 1544 2869
4 3109 1379 1387 1378
4 4585 415 423 414
4 4613 6130 4559 6131
4 4644 432 423 424
4 3064 3072 2342 3065
4 3165 4766 3170 2917
4 4142 1379 1370 1371
4 5628 5596 5610 5597
4 4613 5628 5597 6130
4 6132 5659 1940 1931
4 5521 6133 1394 1403
4 3928 4049 3164 4764
4 4692 1390 1381 1382
4 2207 2478 2774 2464
4 4617 3829 4705 413
4 5734 4672 4043 4618
4 4038 431 430 422
4 5753 2781 3543 2772
4 4692 1391 5574 1390
4 4100 5575 4671 4691
4 5573 4096 5964 4618
4 4671 110 1373 1364
4 1373 4691 1382 109
4 2968 2969 2917 2915
4 4692 411 4717 420
4 2968 4048 4049 3619
4 4692 4691 108 1382
4 4747 107 420 106
4 5380 4955 5381 5200
4 3165 2969 2917 3164
4 3164 3170 4764 4050
4 5174 1383 1384 1392
4 3618 3620 2924 4048
4 2924 2925 3620 5441
4 4758 1401 1392 1393
4 2968 4048 4050 4049
4 4048 5131 5456 3620
4 4048 6134 4050 4049
4 5176 1376 1385 1384
4 4742 1884 1892 1883
4 4048 6134 5456 5130
4 5569 1881 1889 1880
4 3122 2227 3014 2366
4 5177 249 1922 250
4 6120 1393 1384 1385
4 2934 3318 4948 6085
4 3580 445 4785 454
4 2920 6120 5639 6133
4 3314 3643 3318 3319
4 2389 2297 2934 2936
4 3637 3316 4310 2367
4 5177 1392 249 1383
4 6089 1882 1873 1874
4 4958 4310 3639 5514
4 4309 3316 4313 3162
4 4309 3643 5046 4313
4 4763 4782 443 444
4 6133 1403 1402 1394
4 6135 6136 4969 1421
4 4746 1389 1380 1381
4 4142 1388 1379 1380
4 2366 2369 3637 2367
4 5618 4288 4792 5648
4 3815 5164 3357 3924
4 5628 5597 6130 5596
4 4805 6136 5520 1413
4 3228 3230 3356 3231
4 3228 3356 3230 3229
4 3109 1388 1387 1379
4 4542 4718 415 424
4 3110 3765 5396 4640
4 5625 1397 1388 1389
4 3474 3356 3357 3173
4 3356 3362 3359 3354
4 4748 438 105 429
4 4745 5657 1372 1371
4 3231 2633 3163 3902
4 3833 5575 4746 4745
4 2221 2851 2850 3263
4 5573 4100 4096 4618
4 3356 3355 5150 3921
4 6121 1398 1389 1390
4 4635 5607 5572 4140
4 4747 429 106 420
4 4635 4140 5572 5663
4 420 1391 107 4747
4 5977 1407 1398 1399
4 4038 431 440 439
4 4635 3101 4706 3961
4 4635 4232 3101 3961
4 4635 3101 4232 3233
4 5201 2801 4955 4740
4 2498 4680 2499 5141
4 4743 4680 2510 4682
4 5201 2801 5202 5200
4 2510 3539 5517 4684
4 2498 2510 2500 2499
4 5639 1394 1385 1386
4 4617 3829 413 404
4 2510 3539 4684 4680
4 6133 1402 1393 1394
4 4337 1387 1396 1395
4 2719 2865 3059 2716
4 3568 1927 1926 1918
4 3820 3817 2720 5801
4 3865 903 902 894
4 4760 454 4784 463
4 2802 3608 6116 4102
4 3453 3183 3456 2971
4 4324 3768 5290 4409
4 2971 3888 3456 3453
4 6137 2734 6059 6138
4 4618 4096 394 403
4 4818 4802 4791 3948
4 2395 3469 3599 3434
4 3441 2685 3970 3600
4 3259 3911 5370 3889
4 5549 5552 2803 6118
4 3088 2240 4271 1539
4 5396 1388 1396 1387
4 4837 1405 1396 1397
4 4724 417 4181 416
4 6136 1422 1421 1413
4 6139 6140 1948 6138
4 3087 3086 3089 4767
4 4837 1405 1397 1406
4 3085 3089 2726 3088
4 5575 1381 1373 1382
4 4100 3832 4618 5573
4 4239 1397 1398 1406
4 3088 4271 2240 2238
4 4759 6141 438 447
4 3748 4010 3747 3749
4 4747 4744 4748 429
4 4791 4773 6142 4802
4 4747 4749 5574 1400
4 2749 4351 2726 3090
4 4805 3897 1423 4881
4 4747 5574 4744 4717
4 6142 1426 6143 1427
4 4805 1423 3897 1422
4 4747 5574 4749 4744
4 4805 3896 3897 4881
4 4748 105 1409 106
4 5660 5661 4331 6144
4 5977 1416 1407 1408
4 4047 1991 5884 2000
4 5347 1458 1466 1457
4 6135 1420 1411 1412
4 3897 1422 6136 4805
4 4234 3897 1422 6136
4 4805 3896 5520 6136
4 6135 1421 1420 1412
4 6125 1413 4805 5520
4 5628 3330 1879 6130
4 2228 2936 2391 3215
4 6145 1403 1412 1411
4 4758 1401 1393 1402
4 3214 3213 3264 3669
4 5603 1401 1402 1410
4 3122 3016 5727 6077
4 2320 5202 2801 4679
4 3266 3275 2226 2230
4 5704 913 912 904
4 3556 2416 5817 3555
4 3708 4014 3936 4015
4 5602 3105 857 848
4 4874 1442 1450 1441
4 4642 3526 3037 4463
4 4015 3037 4509 4642
4 5520 1412 1403 1404
4 2416 4015 3037 5503
4 2724 2308 2722 3294
4 2656 3187 3991 3992
4 2494 2507 2509 2495
4 2803 4715 6118 6116
4 4139 4141 5663 4232
4 4234 1423 1431 1422
4 6125 1405 1414 1413
4 3991 4536 4949 3989
4 4026 451 459 450
4 2506 5145 4535 6033
4 2501 6033 4992 3538
4 4749 1408 1399 1400
4 3375 3379 2493 3483
4 4377 4864 4858 1435
4 4748 4749 4690 4744
4 3375 3377 3376 4965
4 2484 2492 2488 2490
4 4749 1408 5977 1399
4 5313 4594 3044 5976
4 2747 3866 5664 3606
4 2493 2485 2487 3483
4 3379 4289 3483 3380
4 4748 1409 4749 1400
4 4892 3318 3510 4313
4 1398 4239 5977 5395
4 6143 1426 1417 1418
4 6123 1416 1417 1425
4 2517 2423 4231 3379
4 3375 3484 3381 3378
4 3375 2493 2487 3483
4 2424 2423 3379 2493
4 2538 3654 2882 3253
4 6146 6139 6140 1948
4 3247 2929 2539 3253
4 2691 2843 2534 2846
4 3176 3920 2698 3180
4 2534 2538 2540 2290
4 2662 2672 2664 2878
4 3272 911 910 902
4 4223 246 1949 247
4 2667 4846 4927 4581
4 6145 1411 1402 1403
4 4601 2851 3919 4262
4 3797 3925 2221 2851
4 3925 4164 5738 3592
4 3461 2933 3631 3585
4 5042 3585 4248 4246
4 3185 4666 4138 3912
4 6147 1918 1909 1910
4 6125 1413 1404 1405
4 5520 1412 1404 1413
4 5729 6148 4984 6149
4 4838 1414 1405 1406
4 4698 4247 3006 5043
4 4239 1407 1415 1406
4 4783 458 449 450
4 5042 5043 4247 4863
4 3460 3463 6002 3462
4 3188 3006 3005 3007
4 3570 1919 1927 1918
4 2319 5639 2920 6120
4 5042 3006 3585 4246
4 5042 3585 5394 4248
4 3650 2448 3040 3408
4 4774 467 458 459
4 6150 6138 6114 1938
4 4234 6144 6151 1432
4 6152 439 4038 440
4 3038 4593 3650 3040
4 3650 4592 3042 3043
4 4803 1409 1417 1408
4 6141 105 1418 1409
4 5109 4868 4850 2156
4 2432 3650 3038 3042
4 3650 4592 3043 4643
4 5977 4803 1417 1408
4 5312 5313 2310 4995
4 3043 2432 2431 3042
4 4803 1418 1417 1409
4 3291 3650 3043 4643
4 1400 4749 5574 1399
4 6123 1426 1425 1417
4 2680 2471 2472 2376
4 4644 4720 2309 423
4 3074 3514 6153 3671
4 3514 6129 3167 2548
4 2284 2244 2289 2288
4 3151 2245 3914 2236
4 3671 3514 6153 4464
4 2914 2279 2250 2246
4 3148 2910 4464 3672
4 2586 3183 3177 3185
4 5037 5038 5011 5075
4 3102 3503 3233 3329
4 3819 5038 5075 5011
4 6136 1413 1421 1412
4 4265 1518 234 235
4 6154 1419 1411 1420
4 3819 6155 5075 3574
4 5075 5489 5794 5037
4 3561 1923 3831 1914
4 5458 5502 5459 5135
4 5075 5489 5076 5794
4 2647 3139 4214 4078
4 3719 3930 3929 3931
4 4247 476 4698 477
4 4828 1430 1421 1422
4 5655 1920 1928 1919
4 3931 3718 3930 4930
4 3120 937 928 929
4 4881 1415 1423 1414
4 3931 4963 3929 4964
4 3931 4963 4964 4126
4 5312 3833 4705 4717
4 4142 1389 5625 1388
4 3931 3718 3719 3930
4 5019 4126 4163 5707
4 2608 2352 5019 5707
4 5019 5102 3202 5637
4 5019 3202 4168 3205
4 3794 3795 4875 3015
4 6156 1982 1991 1990
4 4788 450 4783 449
4 6157 1434 1433 1425
4 3562 4328 4330 6157
4 4772 4773 6142 1427
4 3794 3348 3795 3015
4 4772 103 1427 104
4 3794 3015 3213 3348
4 3795 5800 3641 3348
4 5713 1425 1426 1434
4 3795 3791 5684 3793
4 4038 4594 4720 2310
4 6143 1427 1426 1418
4 4759 6143 4772 4776
4 4907 4932 5702 516
4 4592 3042 3043 2310
4 4592 3042 4594 4593
4 4592 4264 4593 4595
4 3281 3121 5668 5978
4 2362 2850 2853 3122
4 3646 3281 4737 5978
4 3646 6158 4737 4735
4 3646 3280 5978 6158
4 5978 3281 4737 5668
4 4969 1429 1420 1421
4 3262 3261 3260 3645
4 245 5383 1428 1419
4 5662 1464 1473 240
4 3644 3281 3646 3280
4 3269 2620 3261 2266
4 2632 2634 3231 2633
4 3241 3932 3719 3242
4 4969 1429 1421 1430
4 5654 1937 1928 1929
4 5018 3479 3819 5075
4 3241 3932 4948 3246
4 4805 1422 1414 1423
4 4312 3902 3162 2633
4 2861 3263 3264 2229
4 2611 2388 2301 2615
4 6114 1938 1946 1937
4 4234 1440 1431 1432
4 4607 5298 4610 6110
4 4889 4248 4890 494
4 4858 1444 1443 1435
4 6113 1937 1945 1936
4 2219 2230 2226 2225
4 5660 1424 1432 1423
4 4247 485 477 486
4 2389 2807 2935 2934
4 6159 1442 1433 1434
4 6157 1425 1433 1424
4 5883 5884 6156 5735
4 4911 1453 1462 1461
4 4542 4718 3289 4543
4 4858 1444 1453 1452
4 6159 1442 1434 1443
4 4288 4792 872 3380
4 2389 2295 2807 2297
4 4858 1443 1434 1435
4 6142 1427 1435 1426
4 2391 3215 5589 3884
4 3769 3733 3913 3916
4 947 2853 4335 5152
4 4818 466 475 474
4 4856 493 492 484
4 3074 3514 2548 6129
4 3671 4001 5892 5891
4 2630 4464 5891 4001
4 6142 1436 1435 1427
4 4864 1436 1445 1444
4 3916 4527 4387 3672
4 3671 4530 3312 5891
4 3941 4400 5687 4065
4 3941 4399 4432 4400
4 3941 4432 4399 3942
4 3013 5339 2428 2646
4 2649 3757 3709 3941
4 3424 3945 4432 4431
4 3025 3026 3027 3055
4 5671 1438 1429 1430
4 5962 1458 1457 1449
4 4234 1441 6151 1440
4 5502 1437 1438 1446
4 5726 1963 1962 1954
4 6160 1439 1448 1447
4 4400 5687 4433 3941
4 3120 938 4598 5152
4 2322 2319 4679 4667
4 5726 1972 1971 1963
4 3423 2646 5687 5339
4 5145 5141 5142 4638
4 5145 4678 4536 4535
4 2506 5145 6033 2499
4 2506 5145 2499 2512
4 2280 5229 4910 1463
4 5145 2499 5141 6033
4 4883 1440 1449 1448
4 3946 3948 3947 5712
4 5145 4536 5142 2512
4 5227 6024 4154 5538
4 5661 1433 1441 1432
4 5519 3949 4761 4788
4 5884 1992 2001 2000
4 5716 937 936 928
4 4889 493 484 485
4 5661 1433 1442 1441
4 4772 6141 447 104
4 2214 3840 4438 5227
4 2216 3566 2483 2217
4 5738 1981 1990 1989
4 3591 5777 3592 4165
4 4248 486 494 485
4 2742 2743 3668 3270
4 2743 2747 5674 2487
4 2746 2743 3647 3668
4 3298 2864 5184 5609
4 4864 1444 1435 1436
4 5712 467 476 475
4 4818 5712 475 466
4 4791 1436 102 1445
4 2864 3299 5609 3298
4 4329 4239 3044 5977
4 4910 4873 483 1454
4 3299 5511 5609 3351
4 5047 4856 4873 4863
4 4891 502 501 493
4 3299 3293 5609 5511
4 5135 1976 1967 244
4 2308 3482 2303 3334
4 2724 2568 3352 3353
4 2724 3352 3060 3349
4 4737 920 912 921
4 6161 1456 1447 1448
4 2313 2314 2724 2308
4 2397 2400 2398 2648
4 2724 3352 3349 3351
4 6160 5502 1438 1447
4 5524 1455 1446 1447
4 3773 3279 4602 4601
4 3260 3773 3280 3645
4 2266 3269 3260 3261
4 6160 1447 1438 1439
4 5074 5024 357 114
4 2644 6070 2647 2642
4 2225 3275 2226 2860
4 2636 5332 2639 3807
4 5688 1985 1994 1993
4 3361 3843 6162 3358
4 5676 1955 1963 1954
4 4339 505 513 504
4 5690 956 3359 965
4 4108 1449 1450 1458
4 3361 3843 4259 6162
4 3875 3362 3361 3872
4 3354 3362 3361 3496
4 3010 4432 4430 5318
4 5712 4873 475 4863
4 5334 5761 5807 6163
4 6164 1451 1442 1443
4 4432 5317 4430 5318
4 4157 4794 4796 461
4 6164 1452 1451 1443
4 4379 3462 6164 4858
4 3010 3001 3013 4433
4 4896 6098 3363 4897
4 4246 495 487 496
4 5074 114 1328 5024
4 3226 3227 6063 3985
4 3424 5260 4432 3942
4 3949 4776 448 457
4 4911 1461 1452 1453
4 4114 1469 4116 1470
4 4432 5260 4431 4430
4 3941 4400 4432 4433
4 6142 1436 4864 1435
4 4432 5319 4430 5317
4 5394 4889 4247 4248
4 4910 1453 1454 1462
4 4432 4433 4400 5319
4 3259 5370 3911 4677
4 2578 3768 4324 4409
4 4138 3911 4477 3905
4 4245 1488 1497 1496
4 3924 5755 1997 6165
4 4138 3905 4477 4486
4 2403 3889 3888 3912
4 4243 1502 1503 1511
4 2586 2587 3023 3021
4 5962 1457 1448 1449
4 3041 2643 2397 2646
4 2393 2971 2400 2401
4 2565 2415 2687 3036
4 5524 1455 1447 1456
4 3022 3023 3021 3181
4 3328 2576 3385 3904
4 3911 4677 4477 3905
4 3628 3243 3636 3632
4 3633 3628 3631 4094
4 6161 1456 1448 1457
4 4911 4858 1453 1452
4 4987 540 539 531
4 6166 1474 1475 1483
4 4339 514 513 505
4 5346 1476 6167 1467
4 4890 4094 3633 3634
4 3461 4094 4093 5394
4 3635 3629 3245 3636
4 4110 1459 1450 1451
4 2817 1543 1552 1551
4 4246 4894 4893 487
4 4941 3632 513 3118
4 4905 6014 4906 964
4 3464 3189 5042 3005
4 3582 2295 2935 3581
4 4117 1452 1460 1451
4 4339 4893 496 495
4 4918 4116 1461 1470
4 3631 3632 4339 3630
4 3120 947 946 938
4 3631 4248 4094 5394
4 4117 1461 1460 1452
4 4910 2280 4857 4856
4 4110 1460 1459 1451
4 3631 4339 3585 3630
4 3631 3634 4094 4248
4 2640 4003 3788 3784
4 4891 501 492 493
4 2291 540 549 548
4 4116 1469 1460 1461
4 4874 5661 1441 6151
4 2580 2581 2583 2582
4 3801 4933 4361 4916
4 4857 2280 99 492
4 3165 3167 2955 4766
4 3170 4766 5128 2917
4 3928 3236 2463 2965
4 3164 2917 3170 4050
4 4567 3441 3975 3973
4 5717 1455 241 242
4 3928 2965 3164 4049
4 2756 3186 3968 4795
4 5098 4349 5354 1554
4 4898 4108 4883 1449
4 2757 2501 4992 3382
4 4992 3538 6033 4081
4 3013 5339 4433 5341
4 6168 1465 1456 1457
4 6169 4990 5823 4992
4 4108 1467 1458 1459
4 5755 5756 3923 3922
4 4992 6170 5055 6169
4 2756 2501 2506 4795
4 4162 4884 5723 500
4 4732 4652 853 5594
4 3924 1997 3922 1998
4 4992 6170 6033 4795
4 3922 5756 5750 1988
4 5668 929 920 921
4 2756 2757 4795 3968
4 3663 3838 5044 2294
4 2294 3838 5044 2292
4 2294 2292 2351 3838
4 2417 4841 3003 3556
4 5347 1466 1458 1467
4 4110 1460 1468 1459
4 3117 521 520 512
4 3522 2293 2292 3523
4 5013 3522 3839 2292
4 5346 1476 1467 1468
4 2416 3556 3003 3555
4 4935 4245 1487 1488
4 2292 3838 5044 5013
4 4110 1469 1468 1460
4 5758 5750 1979 1980
4 5653 5730 1936 1937
4 2292 2294 3839 5044
4 3818 1306 3349 3547
4 4918 1462 1470 1461
4 3633 511 502 503
4 3633 512 511 503
4 4114 1478 1469 1470
4 5735 1983 1991 1982
4 4951 519 510 511
4 3818 3349 1315 4578
4 3010 4432 3823 4433
4 98 2281 1481 97
4 2714 3057 3589 2998
4 2574 2570 2579 2473
4 5229 1463 1471 1462
4 2715 3059 3818 4578
4 5955 4918 4114 4116
4 2281 4362 4882 510
4 2715 3818 2720 3821
4 3060 3818 3349 3547
4 3479 3480 5488 4126
4 2603 3201 2752 2600
4 5688 4340 5717 1985
4 4047 1999 1990 1991
4 3477 3805 4126 3478
4 5637 5104 5357 2351
4 6171 1982 1981 1973
4 6172 1466 1474 1465
4 5345 1476 1484 1475
4 4789 877 3831 886
4 3805 3478 3523 4126
4 6167 1475 1466 1467
4 3477 3479 2352 4126
4 4752 4729 5979 4730
4 4975 538 529 530
4 3813 2000 2009 2008
4 6163 1473 1482 6126
4 4238 4877 916 917
4 2610 2609 3575 2347
4 6172 1474 1466 1475
4 4249 1494 1493 1485
4 4935 1479 1487 1478
4 3479 3480 3481 5076
4 4933 1479 1470 1471
4 3517 3985 3702 6063
4 4930 541 540 532
4 4941 522 514 523
4 3003 3009 3983 3988
4 4115 1469 1478 1477
4 5755 6173 1987 1996
4 5044 567 566 558
4 4956 528 519 520
4 4934 1486 1477 1478
4 4821 4774 459 468
4 3226 6063 3227 4929
4 3149 1498 1490 1499
4 3227 3985 3983 6174
4 4240 4252 4251 4244
4 5058 1515 6175 1524
4 5001 4975 539 538
4 4121 6176 4047 5777
4 4934 1487 1486 1478
4 3116 521 529 520
4 3227 4430 6177 5318
4 96 510 4882 519
4 3226 3227 3011 4929
4 2510 2494 2497 2500
4 95 519 1499 528
4 6178 1497 1488 1489
4 4535 2512 2506 4949
4 2907 3035 3046 3572
4 2506 3186 4795 5808
4 5937 235 4265 2048
4 4180 4181 3405 5903
4 2507 2756 2506 3186
4 2498 3536 3382 6084
4 5979 4730 4728 4753
4 2511 5145 2499 5141
4 4441 4136 3385 6179
4 4441 4990 3907 4224
4 3536 4539 5870 3537
4 6179 4441 3536 3385
4 4441 3907 3385 4136
4 3907 3906 4136 4441
4 4249 4242 4243 4240
4 4441 3907 4435 4224
4 4544 4436 4435 4539
4 5346 1485 1477 1486
4 5746 1512 1520 1511
4 6180 2056 2055 2047
4 5346 1485 1476 1477
4 4242 4243 1511 1502
4 4436 4435 4539 4441
4 5744 1521 1513 1522
4 3872 3876 4906 973
4 5390 5979 4415 4231
4 4697 5128 4766 2917
4 4697 6181 3167 4766
4 663 654 5982 5275
4 2554 3167 5793 2552
4 4697 4766 5128 6182
4 3913 5845 3916 5840
4 2695 2692 2287 2661
4 4807 2026 2027 2035
4 4169 6162 985 984
4 4249 1485 1493 1484
4 6183 6184 6185 4967
4 4916 1479 1480 1488
4 3466 5719 6186 5698
4 4227 537 528 529
4 3769 3672 3916 3915
4 519 1499 528 3149
4 4355 1481 1489 1480
4 97 96 4882 1490
4 4091 3903 4092 5452
4 2837 3903 4484 3782
4 2742 3097 3668 3265
4 4916 1489 1488 1480
4 2938 2945 2942 2943
4 3149 6178 4355 1489
4 4882 97 2281 510
4 2423 5903 3381 4778
4 96 1499 3149 1490
4 4091 3903 5452 5453
4 5041 650 5026 4470
4 4470 4423 5170 3731
4 6187 5773 5760 6188
4 5040 4686 4170 5178
4 3111 2242 4470 5040
4 4470 4423 5026 5170
4 3111 4470 5023 5040
4 4470 5023 5040 5025
4 4913 6189 5363 5362
4 4913 4292 4104 6189
4 6190 5746 1511 1512
4 4913 6189 5362 4292
4 5884 2000 1991 1992
4 4250 1492 1483 1484
4 4959 531 523 532
4 5726 6148 1953 5699
4 4940 1513 1512 1504
4 4250 1492 1493 1501
4 4913 5965 5384 4914
4 4913 5965 699 700
4 4913 5362 691 4107
4 4107 4913 4292 4104
4 3938 3970 3894 4569
4 6191 1497 1505 1496
4 2730 2620 4970 4925
4 3021 3178 3372 3182
4 5108 3600 3431 3435
4 3469 3435 3434 3600
4 3435 5108 3600 3890
4 5001 547 538 539
4 5156 2079 5848 2070
4 5512 5108 3600 3431
4 3075 2358 2359 2356
4 4967 1507 5082 1516
4 3665 5007 5001 2291
4 4087 2005 6165 2006
4 6192 1506 1515 1514
4 3971 3894 307 3970
4 5968 1519 1527 1518
4 3427 3435 3431 3436
4 3622 3796 2222 3772
4 2220 3622 2386 2615
4 2635 2296 2299 2637
4 3149 1498 1489 1490
4 6193 1496 6191 1505
4 3366 3622 3658 2615
4 519 1499 3149 96
4 2729 3366 4972 2739
4 6178 1498 1497 1489
4 5900 3366 3658 6032
4 3149 96 4882 519
4 2212 2790 2558 2456
4 5083 1499 1507 1498
4 5083 1499 1508 1507
4 2618 4002 2812 2821
4 2206 2618 2336 2262
4 2819 2254 4670 2818
4 2950 2790 2216 2452
4 2819 2820 3238 4669
4 5093 237 2030 238
4 3144 2821 4825 2820
4 2779 2874 2279 2871
4 4249 1493 1494 1502
4 6191 1497 1506 1505
4 6153 3671 5892 3074
4 233 4266 1536 1527
4 5810 1000 1001 1009
4 6193 1496 1504 1495
4 5614 6194 5100 2029
4 2572 1184 193 3284
4 3165 2582 3170 2955
4 3148 2910 2629 3166
4 2968 3164 2965 4049
4 2548 2285 3073 2277
4 5059 567 576 575
4 3284 2572 2195 193
4 3660 585 594 593
4 5979 5648 4728 5604
4 3531 576 585 584
4 2589 2463 3236 2965
4 3151 2244 2245 2231
4 4120 1516 1517 1525
4 6195 1525 1534 1533
4 5083 1499 3150 1508
4 2467 2210 2673 2466
4 2236 3313 2910 3672
4 6193 1505 1504 1496
4 6196 4920 5346 1486
4 5803 1505 1513 1504
4 2659 3769 2286 3913
4 2695 2694 3073 2693
4 4940 1503 1504 1512
4 3165 2629 2582 2955
4 2250 2278 2277 2553
4 4464 3671 3672 3312
4 5083 1508 5082 1507
4 4967 6192 6185 4968
4 6191 1496 4245 1497
4 2631 2910 3152 3313
4 2258 600 592 601
4 3191 5495 4143 1116
4 4935 4933 4916 1479
4 3159 3161 1570 5112
4 6197 4975 4227 3116
4 6192 1506 1514 1505
4 5967 1527 1528 1536
4 2804 3368 3447 2248
4 2661 4581 2667 4927
4 6195 2814 1533 1534
4 4968 1507 1506 1498
4 4967 1507 1515 1506
4 3522 558 550 559
4 1508 537 3150 5082
4 2868 1553 1544 90
4 3191 4927 4143 5495
4 3900 2186 2177 2178
4 3191 5975 1125 5283
4 3191 3192 5283 5282
4 3194 3191 1117 1126
4 3900 3419 2186 2187
4 3284 3701 1192 1193
4 3228 3229 2632 3356
4 3521 4930 3523 4963
4 6198 5100 2029 2038
4 4242 1502 1510 1501
4 5614 2028 2019 2020
4 2934 3318 6085 2936
4 3314 3643 3317 3316
4 3509 3932 4313 3510
4 2260 2597 3500 3577
4 2810 3932 2369 4313
4 5680 3210 3931 4126
4 3444 4755 5819 3410
4 4889 493 4856 484
4 4010 5622 5000 3651
4 2633 2367 2810 2368
4 6199 6200 6201 6202
4 6199 6021 5833 5853
4 6199 5865 6021 5228
4 6199 5834 5865 5868
4 4120 1525 6175 1516
4 5803 1514 1513 1505
4 3529 5103 5357 5828
4 5048 5104 5103 568
4 5101 5958 4974 4973
4 4558 3290 3828 4414
4 3532 577 586 585
4 4446 5780 992 5027
4 5833 6199 5865 6021
4 5001 4227 538 547
4 6199 6200 6024 5853
4 6199 6201 6200 5852
4 4953 4987 530 531
4 2869 4771 564 4770
4 4960 1543 1535 1544
4 5126 3847 5375 5522
4 5082 6175 4967 1516
4 5146 1050 54 1041
4 3022 2682 3023 3181
4 4771 3850 5007 556
4 3031 5547 3053 3910
4 4892 4923 5046 5702
4 3532 586 595 594
4 6175 1524 1515 1516
4 5102 569 3206 578
4 2683 6072 3031 3029
4 4607 3847 5126 4614
4 2683 2678 2681 5375
4 3028 2683 3029 6072
4 5547 5522 5561 3031
4 3031 3160 6072 6004
4 5126 3031 2683 6004
4 3031 5522 5561 5126
4 3031 3160 6004 5561
4 5739 2036 2027 2028
4 4973 1511 1519 1510
4 2770 2771 2327 2794
4 6203 1520 1529 1528
4 3369 3107 4702 3371
4 2769 3610 3369 3608
4 3369 6103 3608 3610
4 4036 3419 3900 2187
4 6204 1522 1513 1514
4 3736 2824 4192 2862
4 5744 1521 1512 1513
4 3371 3735 5274 3740
4 3369 6103 3610 3684
4 3487 2036 2044 2035
4 4732 4288 4279 4231
4 4686 2242 5040 4470
4 3158 3157 2966 2893
4 2205 2602 2338 2603
4 2705 2339 2732 2712
4 3980 2732 2339 2733
4 5091 1533 1541 1532
4 3636 3115 3117 3118
4 2560 3837 2563 3535
4 5833 1048 1047 1039
4 6185 4967 5058 6192
4 5126 4614 4673 6004
4 4908 612 611 603
4 2563 3137 3535 3674
4 2339 2733 2712 2753
4 3698 5947 5953 1138
4 3203 2960 2962 2963
4 2755 2240 1531 1540
4 3046 2908 5578 2906
4 2755 1532 1540 1531
4 5058 1524 1523 1515
4 2858 4771 4261 565
4 2909 3677 3287 3050
4 2797 3209 2983 2326
4 3893 5058 6175 5545
4 5602 3105 3046 3572
4 3047 3104 4700 3106
4 3046 3105 5579 3050
4 4771 4261 565 556
4 2257 5112 1571 5137
4 3419 2195 2186 2187
4 4770 3850 4771 555
4 1534 4769 4770 1526
4 3841 2674 2466 3676
4 4960 4046 1544 2869
4 3303 3304 3305 4908
4 2561 2559 2562 3675
4 5664 893 885 894
4 2559 3996 5161 5469
4 4502 3994 3996 5836
4 4507 4505 5836 4502
4 2380 4020 4024 4029
4 2561 3675 2562 3841
4 4502 3996 3995 3675
4 5890 3675 5469 3996
4 6205 2046 2045 2037
4 3675 4505 3996 5890
4 6203 1528 1519 1520
4 2950 2952 2775 2953
4 5453 3812 3813 2017
4 2214 4438 2819 3238
4 2335 2954 2783 2785
4 4199 1521 1529 1520
4 6205 2054 2045 2046
4 2950 2775 2211 2481
4 5001 547 3850 5082
4 5806 1565 1573 1564
4 2814 1542 1533 1534
4 5443 5118 5123 5124
4 5443 4406 5902 5426
4 5443 5337 5123 5436
4 5443 3785 5902 5421
4 6195 1533 1524 1525
4 4519 4517 1011 5805
4 4058 4060 6206 5216
4 5334 6188 5761 6207
4 3342 3161 5114 5849
4 5032 3204 3206 570
4 4120 5082 546 1517
4 2858 4190 565 4261
4 5443 5426 5902 3785
4 3014 3015 3017 3641
4 3318 6085 2936 3584
4 2814 1534 1543 1542
4 6175 1516 1525 1524
4 2239 1541 1549 1540
4 3304 604 613 612
4 5179 628 627 619
4 3318 3932 4948 3510
4 4769 1534 4960 2814
4 3319 3215 3641 5798
4 4120 1517 1526 1525
4 4960 4769 4770 1534
4 2810 3316 3162 4313
4 2858 564 565 573
4 5857 5406 5645 1073
4 4960 1543 1534 1535
4 2374 3215 3318 2936
4 3317 4762 4310 3639
4 2404 2768 2867 2765
4 4809 3501 3843 3842
4 2765 3740 2901 2862
4 6208 894 885 886
4 2827 4557 2974 3549
4 2496 3384 2866 2699
4 6209 1913 1904 251
4 3847 4614 3845 3605
4 5216 2064 2063 2055
4 2756 4795 2506 3186
4 6210 1529 1537 1528
4 2065 5215 2064 5623
4 2507 2501 2756 2866
4 2500 2498 2501 3384
4 2984 2985 6105 4198
4 6203 4973 1519 5968
4 2981 2774 2775 2477
4 3140 3692 3694 3691
4 2202 2203 2601 2259
4 5593 2063 2064 2072
4 2467 2207 2464 2627
4 2476 2483 2217 2481
4 2950 2481 3140 2775
4 5825 5818 2948 2947
4 2375 2376 2676 2385
4 5525 2920 5521 6133
4 2811 2336 2812 2821
4 2454 2461 2561 2459
4 3078 3828 3290 3289
4 3990 2514 3989 3770
4 5158 84 85 618
4 4494 2424 2421 5390
4 2755 1541 1540 1532
4 4189 4350 583 584
4 5048 576 5059 567
4 5230 647 646 638
4 5002 2482 6211 4233
4 6212 2052 2043 2044
4 2907 3045 3572 2527
4 4190 2858 2857 4261
4 2816 2817 4960 4046
4 3292 3992 3290 3828
4 6183 6197 5083 4968
4 3534 4189 3531 4350
4 2239 1550 1549 1541
4 2449 3288 2421 3322
4 2858 573 2869 564
4 5695 1934 6213 1943
4 3240 3629 3582 3246
4 4514 4516 4193 4517
4 4095 5955 3808 4114
4 6109 5693 1925 6214
4 2817 1551 1542 1543
4 2301 2388 2220 2615
4 2830 3997 1561 1552
4 4095 4172 4109 3775
4 2868 2858 2869 4046
4 4046 1544 1552 1543
4 5849 1578 1586 1577
4 3463 4172 4109 4095
4 5169 2109 2110 2118
4 5109 2147 224 2156
4 4095 3808 4115 4114
4 4109 4095 4115 3463
4 5082 1508 1517 1516
4 3202 5102 3200 5637
4 5525 2921 2920 6133
4 3204 3199 3208 3205
4 3651 1546 1537 1538
4 3651 1547 1546 1538
4 3205 3206 3199 3202
4 2509 2512 4949 2506
4 5080 595 604 603
4 4648 3548 4672 4042
4 6105 1575 1567 1576
4 4042 4799 4648 3548
4 2825 2974 2355 3548
4 2258 4152 592 4350
4 5593 2064 2073 2072
4 5866 5432 5833 4237
4 5138 2081 2072 2073
4 3736 2824 3737 5877
4 3130 1551 1559 1550
4 3548 4672 5734 5964
4 3548 4042 3549 4041
4 6201 2103 2094 2095
4 2357 2360 2899 3371
4 3892 3803 6215 3244
4 6202 6201 2104 5879
4 4170 631 640 639
4 4770 1534 1535 4960
4 3967 4226 4608 5291
4 3892 3891 6184 6185
4 5670 5693 1924 1925
4 2817 1542 2814 1543
4 6184 3892 3665 3891
4 3147 5085 4999 4167
4 5470 3864 5471 6216
4 3534 2713 2711 2848
4 2350 3664 3893 3665
4 2868 582 1553 89
4 3805 3718 3804 3723
4 3850 547 546 5082
4 6217 1567 1558 1559
4 4886 1565 1557 1566
4 2868 1553 4046 1544
4 5669 4626 3965 4723
4 537 1517 546 5082
4 3964 3549 4799 3965
4 5090 1035 2894 2947
4 4197 1568 1576 1567
4 5717 5662 241 1464
4 2499 2512 2494 2506
4 5807 6188 5334 3586
4 4210 4606 4551 5290
4 2653 2407 2827 2974
4 5633 1456 1464 1455
4 4777 3327 5291 5823
4 5257 1556 1565 1564
4 5593 2064 5623 2073
4 2564 2714 2998 2316
4 4009 2750 2238 3749
4 3746 2618 2625 4053
4 3141 3142 4008 3692
4 3877 4213 3878 5234
4 2961 3837 3535 2963
4 2619 5493 4058 5449
4 5159 629 628 620
4 6105 4196 4198 1567
4 4450 1027 4122 1018
4 6218 2091 2090 2082
4 2216 2213 3144 2215
4 4002 3747 4826 4060
4 4002 4825 2821 5449
4 3107 3108 6108 3109
4 3305 3306 3136 4689
4 2360 3369 3107 3108
4 2358 3108 3107 3109
4 3851 5634 2525 5165
4 5182 636 645 82
4 6217 1559 3130 1568
4 2357 2899 3401 3371
4 6219 6220 6221 5179
4 2258 2505 2255 2256
4 4192 4694 5529 4775
4 3075 3080 3083 2356
4 1508 5082 1517 537
4 6105 1566 1567 1575
4 4152 4167 4999 601
4 3132 1561 1570 1569
4 3127 5212 3129 5168
4 5717 1464 241 1455
4 3967 4630 5286 5291
4 5823 3327 5291 3967
4 2570 3327 3326 4777
4 3326 5286 5669 4352
4 2258 4152 601 592
4 3132 1569 1560 1561
4 5169 5232 2119 2110
4 88 2255 2505 1562
4 5662 2003 241 240
4 4624 4352 5781 5669
4 5286 5669 4624 4534
4 5906 1101 1092 1093
4 6222 1577 1586 1585
4 5717 1994 1985 242
4 3769 3671 4527 3672
4 4387 4384 3916 3311
4 1563 229 5056 230
4 4349 231 2093 2084
4 6209 1913 251 250
4 3312 3672 4527 3671
4 5642 229 5056 1572
4 251 1365 252 1904
4 3313 2236 3152 4726
4 3840 2855 4150 5469
4 2631 2673 2674 2466
4 3326 2863 4775 5413
4 2788 2675 3313 3519
4 5257 1564 1555 1556
4 2083 6223 5623 6224
4 3628 3635 3631 4094
4 3808 3245 3809 3802
4 5843 1061 5364 5073
4 3851 2524 3497 5493
4 4935 3809 4245 3802
4 3306 613 622 621
4 4273 646 645 637
4 3130 1560 1568 1559
4 5835 1063 1062 1054
4 2477 5143 5220 6225
4 5204 638 637 629
4 4095 3581 3775 3808
4 2239 1559 1558 1550
4 5876 2103 6201 2104
4 3808 4115 4934 3775
4 252 6083 6096 1895
4 6105 1584 1575 1576
4 3635 3636 3245 3801
4 3808 3775 4934 3776
4 6217 1568 1567 1559
4 3159 1562 1570 1561
4 5669 4723 5877 5781
4 4095 4115 3808 3775
4 3161 1570 5112 1579
4 3147 3161 5112 5114
4 6221 6220 1597 1598
4 6220 1598 1607 1606
4 4197 1577 1576 1568
4 81 5999 654 645
4 3808 3245 3802 3801
4 6219 3341 5114 5920
4 3341 5113 3147 5085
4 2830 2817 4046 1552
4 4167 4999 601 610
4 3161 1578 1569 1570
4 5002 6211 2482 3691
4 3159 1562 1571 1570
4 3344 3336 3341 3343
4 2257 1571 87 5137
4 5136 3344 3147 3341
4 6226 1605 1613 1604
4 5231 1604 1595 1596
4 5187 1595 1586 1587
4 5002 3613 3649 3691
4 3341 5085 3147 5136
4 4971 5820 2726 1531
4 3343 3341 5136 6219
4 5600 6096 1895 1886
4 251 6209 1374 1365
4 6227 4132 1302 1293
4 1507 1516 1508 5082
4 5642 2111 2102 229
4 4348 3341 5136 3343
4 5136 3343 5159 4348
4 3341 3343 4348 3344
4 3904 4677 2578 3911
4 5806 1565 1574 1573
4 2474 3328 2757 2579
4 2724 3350 3300 2722
4 5642 5022 5232 3649
4 2469 3482 2471 2697
4 2314 2721 2308 2305
4 3176 3177 3021 3178
4 5854 2094 170 2085
4 3130 1560 1569 1568
4 5203 1082 1091 1090
4 3306 622 631 630
4 6109 6214 1925 1926
4 2574 2578 2579 3768
4 2718 3895 4352 5287
4 3568 6109 1926 6214
4 3159 3997 3132 2829
4 2580 3164 3170 4764
4 3059 3818 4578 3349
4 5112 1579 1570 1571
4 2314 2723 2724 2722
4 2761 2864 2719 2865
4 5205 5231 1596 5872
4 5183 646 655 654
4 5857 1082 1081 1073
4 3161 5849 1578 5114
4 5137 87 1580 1571
4 5113 1580 1589 1588
4 3343 5159 4348 5097
4 2836 3781 4484 3780
4 4250 5619 5473 4240
4 3476 5619 5473 3981
4 5857 1081 1072 1073
4 3778 3090 3032 3086
4 6221 5158 5157 5085
4 3778 4954 4786 3090
4 5157 609 618 85
4 5002 3613 5232 3649
4 5205 1596 1587 1588
4 5642 228 2111 229
4 3779 4252 4954 3780
4 2941 3779 3780 4252
4 3778 2624 2625 3032
4 2802 4957 4102 6115
4 2767 2903 2802 2803
4 2406 2407 2823 2765
4 2802 2903 4102 4957
4 5566 1590 227 1581
4 2802 4715 6116 6107
4 2802 3608 6107 6116
4 2091 3127 5021 5212
4 2767 2768 2903 2766
4 2101 5021 2100 5169
4 2800 3108 3763 2769
4 2802 4102 3610 3608
4 2802 6116 2803 5552
4 3613 5806 3614 1573
4 5206 5927 5207 2123
4 5820 1523 1532 1531
4 5003 5002 5232 5169
4 5213 1601 1600 1592
4 3862 2098 2106 2097
4 2534 2542 2541 2537
4 5173 648 647 639
4 3485 4304 4628 4627
4 4298 2777 4292 3869
4 2534 2844 2541 2540
4 5928 4627 4203 4628
4 3862 5089 2097 2106
4 2590 2234 2762 2242
4 5114 1587 1578 1579
4 2958 3878 5160 2964
4 5252 1602 1593 1594
4 4393 4202 5207 5879
4 3568 3624 6109 6214
4 2214 3840 5227 2787
4 3660 3621 4187 5080
4 6228 1604 1603 1595
4 2459 3305 2591 3325
4 5231 5187 1596 1595
4 5897 1595 1594 1586
4 3313 3519 3311 2788
4 5230 647 5186 646
4 6221 5113 5085 5157
4 2788 3519 4387 4386
4 3878 5160 4200 4213
4 5849 1587 5114 5187
4 3877 2789 4153 5223
4 2280 99 492 98
4 5113 5137 5112 4999
4 5995 1225 1226 1235
4 5158 1598 84 5180
4 5131 1621 1630 1629
4 5570 5002 5232 5003
4 3878 5234 4200 4701
4 5570 1582 1590 1581
4 5223 5234 3878 4701
4 6229 1590 1591 1599
4 3385 6179 6084 3536
4 4992 3538 4081 4636
4 4081 4992 6170 6033
4 6229 5566 1590 1599
4 2498 3538 3537 5141
4 2497 2508 2510 4272
4 2498 5141 2499 3538
4 3538 3537 4622 4587
4 5566 5232 2120 5651
4 4587 3536 4636 3538
4 3538 4658 6033 4081
4 6158 4341 6230 5704
4 3538 3537 5141 4622
4 6225 1592 1584 1593
4 5897 1586 1594 1585
4 5186 647 656 655
4 3669 3273 4866 3647
4 3584 4893 5796 4260
4 3025 3055 3027 3910
4 3372 3053 3452 3054
4 5523 3452 3053 784
4 4857 2280 4910 1463
4 5921 5920 6219 5872
4 1472 1463 2280 99
4 3022 3053 3373 3182
4 6221 1589 1597 1588
4 3053 3182 5547 3373
4 3053 784 3054 785
4 5204 5159 5097 629
4 6222 5849 5187 1586
4 5523 3053 3182 5535
4 4166 587 5084 586
4 5155 666 675 674
4 5180 5179 627 5158
4 5158 85 84 1598
4 3053 3182 5535 5547
4 6221 5205 1597 5872
4 5136 4167 611 610
4 4568 3938 5762 4569
4 5872 1605 1596 1597
4 3601 4034 3938 3970
4 6064 5920 5872 5231
4 6219 5179 6221 5085
4 5140 1605 5872 1606
4 3480 5680 4342 5486
4 5456 1622 1621 1613
4 1472 2281 1481 98
4 2280 501 492 4891
4 2688 3938 3527 3442
4 2688 3938 3662 3524
4 3434 3436 3437 4878
4 3430 3954 3438 3428
4 2402 3425 3467 3666
4 3430 3889 3434 3437
4 3467 3469 3471 3599
4 4360 1609 1608 1600
4 3951 3456 3599 3954
4 4360 1608 5315 1599
4 5915 2139 176 175
4 2971 3183 3456 3468
4 3185 3911 3904 2578
4 5022 2102 2093 5056
4 3339 5971 5920 3340
4 3340 5920 6064 5971
4 4213 2117 2116 2108
4 5221 1602 1601 1593
4 6231 2136 2145 2144
4 2591 3583 3325 4689
4 5768 6232 5984 5982
4 3336 2791 2458 3303
4 3342 3340 3339 5920
4 5235 1080 1071 1072
4 6228 1603 1594 1595
4 5233 1604 1613 1612
4 3074 3514 6129 6153
4 3336 3339 3338 3345
4 5456 1613 1621 1612
4 2988 3339 2989 3338
4 5373 1185 69 68
4 6233 2135 6231 2144
4 5181 627 636 5180
4 3325 4689 3583 3343
4 2580 2582 2583 3170
4 6234 5320 6235 5993
4 2762 2590 3111 3114
4 2580 2585 5220 4764
4 5136 4348 620 611
4 6226 1614 1622 1613
4 5182 5180 636 83
4 5181 5179 627 5180
4 5986 1224 5314 5887
4 2464 3928 2986 2463
4 2476 4233 2958 3602
4 6221 1589 1598 1597
4 2759 2820 3714 3495
4 5181 636 5182 5180
4 2353 2748 3033 2727
4 5182 82 1616 83
4 5230 638 5300 647
4 4260 3510 4937 5796
4 2344 3477 2347 2346
4 3144 2215 3864 3863
4 2619 4053 2618 2262
4 5956 1176 714 68
4 5957 714 705 706
4 4809 2834 2623 4070
4 5299 5373 713 714
4 4123 1627 4870 1618
4 5111 1617 224 1608
4 2791 2706 2705 2704
4 3561 1914 1915 1923
4 5110 1618 1617 1609
4 5214 1601 1609 1600
4 2203 2759 2254 3157
4 3111 4422 2764 3112
4 2764 4422 4470 4423
4 6236 5942 6237 6238
4 3305 2591 4689 3136
4 5057 5898 5897 2990
4 5221 1601 1592 1593
4 5911 6239 2139 5985
4 5130 1612 1621 1620
4 4039 1618 1610 1619
4 3542 3234 3235 3114
4 5258 667 666 658
4 3762 5840 1108 1099
4 5233 5923 6240 6228
4 6241 1603 1611 1602
4 6242 2153 2162 2161
4 4290 1183 1192 1182
4 6181 4283 6243 6244
4 3305 4348 3344 4908
4 3562 4328 3898 3559
4 5519 4376 3949 5518
4 4377 3562 6157 4379
4 3562 4379 3063 4331
4 5140 1606 1614 1605
4 5226 1652 1643 79
4 4379 3562 6157 4331
4 4273 5230 5183 646
4 5230 5300 5186 647
4 3562 6157 3898 4328
4 5897 5231 1595 5187
4 4170 5040 639 640
4 4071 1216 1215 1206
4 2859 2230 3275 2265
4 3623 3256 3627 3625
4 3618 3619 3235 3237
4 5320 1623 1614 1615
4 5020 1649 1648 1640
4 5767 5186 5230 5300
4 3626 3256 2620 4970
4 2372 1111 5910 1110
4 5131 1629 1620 1621
4 2735 2620 3257 4970
4 5993 1616 5182 645
4 3257 3256 3169 3625
4 6234 5993 5984 5320
4 5460 1637 1629 1638
4 5993 1615 1616 1624
4 3477 2610 3479 2347
4 3081 2438 2434 2433
4 1634 6000 1643 80
4 5226 1652 79 78
4 672 79 6000 663
4 2859 2225 2386 2301
4 79 6000 80 1643
4 3484 3099 2742 3096
4 5111 2138 225 2147
4 2798 2799 2792 2422
4 2263 2268 2271 2270
4 2621 3644 3262 2266
4 6107 3108 3766 1378
4 5214 1610 4039 1609
4 6107 3608 3108 6108
4 6107 4715 3766 3763
4 6242 5942 6238 2162
4 6107 3763 2802 4715
4 3620 1622 1630 1621
4 5328 1115 1106 1107
4 2802 3763 6107 2769
4 4123 1628 1627 1619
4 2826 2507 3186 2756
4 3020 3056 3028 3030
4 4293 3615 4354 3612
4 6224 2091 5021 5212
4 5130 1620 1611 1612
4 3193 1109 1118 1117
4 2925 1638 1629 1630
4 3715 3857 3717 3066
4 4398 2722 3554 2723
4 5314 1224 1214 1215
4 3620 1639 1631 1640
4 4028 3615 4029 4354
4 5184 3298 5263 4293
4 5933 5934 6245 4851
4 2290 2537 5405 2542
4 4342 4983 4942 4996
4 5984 1632 1623 1624
4 1622 6226 2973 1614
4 2534 2537 2290 2542
4 3122 4739 6077 4738
4 4275 1642 5333 1643
4 82 5999 1625 81
4 2099 2091 5212 3127
4 5993 645 5999 1616
4 2662 2667 2672 4927
4 2780 5240 4104 5244
4 2664 5197 2878 2879
4 663 5999 6000 5982
4 81 5999 1634 80
4 5982 1625 1633 1624
4 5289 684 5335 683
4 6181 6153 6243 6129
4 2880 5197 5211 4422
4 4697 4766 6182 6181
4 3881 6018 3880 5787
4 3165 2554 4697 2917
4 5368 5403 710 711
4 3167 2552 6129 5793
4 3167 6129 2552 2548
4 6181 2955 4001 3167
4 5374 5996 1204 5369
4 4952 6126 1482 239
4 4938 4308 4342 5680
4 3167 2955 4001 3166
4 3406 3123 3404 3407
4 3407 3123 3580 4733
4 4870 1626 1617 1618
4 3407 3123 4782 3580
4 4869 1626 1627 1635
4 3320 3322 3405 3408
4 3320 3406 2423 3321
4 2423 3407 3320 3405
4 4184 6017 1234 5995
4 6246 1437 1428 1429
4 3407 4733 4778 3123
4 5020 5355 5105 1648
4 3017 4936 3638 4876
4 3407 3403 4782 3404
4 6247 2142 2141 2133
4 6248 5359 6009 4854
4 4105 682 691 690
4 5407 5256 5409 5645
4 2228 3215 2374 2936
4 5789 4188 986 5775
4 2810 3316 2369 2367
4 6000 1643 5333 1634
4 6000 5276 672 663
4 2973 1632 1631 1623
4 3314 3317 3643 3638
4 6235 1615 1606 1607
4 3317 3643 5046 4309
4 5360 1649 1640 1641
4 5984 5982 1633 1624
4 3314 2369 3316 3642
4 3314 3315 3642 3316
4 4892 4313 4307 5046
4 6000 5276 663 5275
4 4342 5030 4983 4308
4 6094 1372 5575 4745
4 5333 1642 1633 1634
4 3874 206 1231 1232
4 5297 2141 2140 2132
4 5575 4691 1382 1373
4 3377 3270 4811 3999
4 4867 3999 3270 900
4 2742 2487 3377 3484
4 3270 3097 4867 4866
4 2491 3668 2268 2742
4 5692 3692 5905 5592
4 5692 6224 5592 5905
4 3656 3806 3657 4664
4 6020 1668 1677 1676
4 6249 1653 1644 1645
4 5692 5021 3693 6224
4 4357 1647 1655 1646
4 5692 6224 5905 4623
4 5692 5905 3648 4623
4 4283 2144 2153 2152
4 2896 5270 5352 6006
4 6250 1228 1219 1229
4 5355 1658 1657 1649
4 5887 1225 1224 1215
4 3390 3393 3395 3506
4 5987 1233 1232 1223
4 5130 5132 1611 1620
4 3394 3391 3799 3439
4 4342 5030 4942 4983
4 3940 3758 5259 3709
4 6232 1641 1632 1633
4 3391 3799 3512 3395
4 3390 3512 3505 3395
4 5023 5321 3113 5258
4 6094 4096 4671 4090
4 4852 4855 708 4853
4 5969 1641 1640 1632
4 5850 5646 5644 1065
4 5355 1648 1649 1657
4 2416 2566 3037 3036
4 5276 5253 5278 664
4 1658 5442 5360 1649
4 3276 3113 3112 5405
4 4854 6009 1669 1678
4 4913 691 700 699
4 5240 1650 1641 1642
4 2991 2688 3000 2997
4 1643 5226 79 6000
4 5244 1659 1650 1651
4 6000 5999 80 1634
4 3579 3561 3831 1914
4 4201 1652 1660 1651
4 2641 2648 2649 3138
4 3389 3400 3399 3398
4 6113 5916 1946 6114
4 5028 3742 4431 4430
4 2414 2567 2420 2566
4 2993 2566 3037 3552
4 3013 2972 2428 5339
4 3041 4410 2428 2425
4 2428 2646 5339 4410
4 4869 1636 1645 1644
4 5742 4954 6190 4950
4 4871 6023 2174 221
4 6249 1654 1653 1645
4 5460 1628 5133 1629
4 5910 4204 4276 1119
4 4636 3536 4225 6169
4 2533 1237 1236 1227
4 6146 5383 1949 1419
4 5789 163 5759 995
4 4243 6190 4252 4241
4 4954 3780 4241 4950
4 3778 3779 4954 3780
4 4954 4786 5802 4252
4 3047 3106 3046 3050
4 5988 5191 1645 1646
4 5190 1638 1646 1637
4 3285 3287 3019 4125
4 5929 2181 6005 3153
4 2909 2408 3285 3019
4 2442 1664 1663 1655
4 5105 1639 1647 1638
4 2907 2527 2526 3045
4 1182 4290 5408 4045
4 5938 1133 1132 1124
4 3047 2976 3104 3103
4 4358 1656 1647 1648
4 2220 3797 2221 2222
4 2391 3884 5589 3007
4 3214 3015 5727 3016
4 2362 2854 2851 2852
4 2860 3348 3641 3884
4 4275 1643 1651 1642
4 5572 3050 4287 3677
4 5999 80 663 6000
4 2701 2472 2831 3225
4 2498 6084 3382 3384
4 3868 4071 3870 5314
4 5241 6232 5397 5969
4 4107 5335 692 683
4 4107 691 683 692
4 6084 3384 2498 3540
4 4275 5240 1642 1651
4 2496 2699 4207 3384
4 4111 77 1661 78
4 2514 4415 4494 4414
4 3387 6010 6251 5356
4 2429 2325 2433 3174
4 2517 4231 4279 4289
4 2268 3268 2746 3644
4 2742 3096 3097 3346
4 2517 2514 5390 2424
4 6023 4831 220 1653
4 3381 3321 2493 2423
4 2958 3878 4213 5160
4 4701 4000 5206 4200
4 2125 5209 2964 4000
4 6023 1653 220 1644
4 5988 1646 1645 1637
4 5929 5790 6252 4056
4 4990 4225 6169 4226
4 4200 5234 4213 2116
4 2124 4000 2125 4200
4 6005 2182 2190 2181
4 4357 1656 1655 1647
4 4915 2780 5244 2782
4 5270 1227 1226 1217
4 6011 3917 1656 1665
4 2886 3417 3396 3416
4 2442 1663 1654 1655
4 2246 2248 2253 2551
4 2776 2782 4915 2870
4 3917 1655 1656 1664
4 6010 1668 1667 1659
4 6019 3388 3387 3386
4 6011 1656 4358 1657
4 4589 6248 6253 6189
4 4358 5355 1657 1648
4 4184 1234 1224 1225
4 4589 4292 3869 6189
4 3447 5352 4072 3416
4 4990 4226 5823 3907
4 6169 3536 4225 4990
4 6011 1657 1666 1665
4 3536 2501 3382 4992
4 3942 4399 1781 5492
4 3425 3468 3473 3421
4 4589 6248 5986 4185
4 2718 2716 2715 3326
4 5134 245 1428 244
4 4111 1661 4201 1652
4 5992 1669 1668 1660
4 2586 2577 2401 3185
4 2680 2385 2702 2699
4 5367 701 5362 692
4 3326 2822 2758 2863
4 4111 5226 681 78
4 4111 4105 4914 690
4 5670 5693 3561 1924
4 4855 75 699 708
4 4913 4914 690 699
4 3917 1664 1656 1665
4 2532 2569 1238 1229
4 4831 219 2192 220
4 2437 218 199 2201
4 3183 3178 3021 3177
4 2670 2192 2200 2191
4 4767 4059 3086 5742
4 3962 878 3831 877
4 2605 2624 2622 3034
4 3579 3831 150 1914
4 4052 4767 2625 3749
4 2812 2618 2931 3746
4 4767 3087 3086 2625
4 3982 3458 5917 5611
4 5259 3709 3757 3942
4 3978 1662 1653 1654
4 4055 1275 262 1266
4 6015 201 202 1236
4 6251 6019 1666 1675
4 4484 3458 5917 3811
4 6007 1228 1227 1218
4 4484 4808 3782 3903
4 3387 6019 5356 6251
4 5989 1674 202 1673
4 6010 1659 1667 1658
4 6009 5249 6020 1677
4 5724 5918 4808 4484
4 5356 1658 1666 1657
4 5994 1234 203 204
4 6251 1667 1676 1675
4 3942 6073 1790 4399
4 3443 5819 5343 3745
4 4484 3780 5473 3458
4 4184 6251 6017 5995
4 6020 1676 1667 1668
4 4484 5473 5724 5614
4 3485 4633 3869 4298
4 5992 1660 1668 1659
4 5367 4627 4203 5928
4 5336 208 4853 1230
4 6009 5249 5987 6020
4 4914 1661 77 1670
4 3781 4484 3780 5724
4 6237 2163 2155 2164
4 5965 4852 4854 4855
4 5996 1222 1213 1223
4 701 709 710 5368
4 2764 4425 3112 5196
4 3339 3338 5849 6222
4 2791 2460 2785 3337
4 6254 2163 2164 2172
4 2437 218 1671 6
4 4830 1671 1663 1672
4 2453 2593 2987 2989
4 3339 3338 6222 2989
4 151 3831 1923 1914
4 3339 5187 5971 2989
4 2703 2785 2705 2751
4 2711 2704 3530 2712
4 5182 1616 82 645
4 3175 2556 2732 2339
4 2732 3530 2712 2733
4 2435 2201 219 218
4 2670 2436 2532 1238
4 2435 2669 4831 2192
4 2435 2437 2201 218
4 2532 1228 6250 1229
4 3558 4330 3562 4328
4 5791 6007 2533 6008
4 1424 3898 1423 5660
4 3138 3139 4003 3756
4 6157 5660 4331 3898
4 5989 1235 6008 1236
4 6016 1673 1664 1665
4 6015 1673 201 1672
4 6022 1673 1672 1664
4 3898 3897 1423 5660
4 5994 203 1234 1235
4 3898 3897 4881 1423
4 5989 203 202 1674
4 3898 6144 3897 5660
4 3898 3897 6144 4331
4 2543 3218 2264 2620
4 5994 1675 203 1674
4 4184 1234 6017 1233
4 6251 1675 1666 1667
4 5249 5987 1233 1232
4 6017 1676 204 1675
4 3424 3940 5260 5259
4 5249 1677 205 1676
4 4399 3941 6073 4400
4 4833 4814 3793 5301
4 6020 6251 1667 1676
4 3346 3348 3794 3213
4 5359 1232 3874 1231
4 6009 1669 1677 1668
4 3874 1677 1678 206
4 3795 4160 5684 5685
4 4855 76 699 75
4 6253 4104 6189 5384
4 1230 6003 4852 5336
4 5800 4879 5590 4814
4 5736 4879 5800 5685
4 3795 5685 5800 4160
4 3795 5800 3348 3793
4 4914 4855 76 699
4 4855 1679 1670 76
4 4160 5800 4879 5685
4 2226 3214 3213 3264
4 3795 3641 5800 5685
4 5800 3641 3348 5590
4 3641 4875 3017 5685
4 5736 3640 3641 3319
4 2502 5340 1802 1803
4 2654 2383 2908 2904
4 6029 1769 1778 1777
4 6026 268 1681 267
4 6220 5180 1607 1598
4 3848 2908 3604 4101
4 3517 1700 1709 1699
4 6025 266 6047 1769
4 3262 2621 3645 3644
4 2229 2222 3263 3260
4 2850 3264 3281 4738
4 5728 5727 4738 3669
4 2854 2851 4601 3279
4 4532 6065 1259 3494
4 3561 1924 1923 1915
4 3279 3280 3263 3773
4 3593 3797 2220 3796
4 6220 1597 1598 1606
4 5978 3280 3645 6158
4 3645 5978 6230 3773
4 6028 1681 1690 1680
4 2600 3533 5357 2712
4 5444 743 734 134
4 6081 1767 1775 1766
4 2259 3577 3156 3576
4 5572 5597 4613 5628
4 6221 1589 5158 1598
4 3573 2610 2608 2352
4 5572 4613 5597 5605
4 6255 269 268 1767
4 3261 3269 3260 4925
4 3260 3261 4925 3771
4 3516 1689 1690 1699
4 6256 6028 6029 6051
4 2551 3881 3879 2552
4 3881 6236 3879 6238
4 5324 4 725 132
4 3881 3879 5795 6238
4 3073 2693 3068 3074
4 3879 5787 5790 6252
4 5455 734 725 133
4 6257 270 1683 269
4 2248 2549 2551 3368
4 3879 2891 5790 2898
4 4363 1693 1702 1692
4 5434 6258 1696 1687
4 3476 5473 3458 3981
4 2941 3779 4252 4560
4 2941 3779 4560 2939
4 3091 3779 4560 4786
4 4510 1684 270 271
4 6082 1775 1784 1783
4 4287 3102 3329 3504
4 5419 1714 1715 1724
4 6259 1686 1685 272
4 5466 752 751 743
4 5474 136 752 135
4 6081 6082 1775 4212
4 4484 5473 3780 5724
4 4240 4252 3780 4241
4 2262 5449 3495 5493
4 3085 2238 2750 3749
4 5476 5474 4099 1788
4 3087 3749 5000 4010
4 5303 1688 274 275
4 3778 4954 3090 5742
4 4253 130 131 723
4 3778 4059 2625 3777
4 5450 723 732 731
4 3777 2838 4070 2624
4 4059 6101 4058 3498
4 4059 4950 5099 6101
4 2805 2978 2977 3374
4 5491 6082 5319 1783
4 5121 4314 5437 1704
4 2493 2423 3379 3381
4 5652 5658 2486 2487
4 2490 2485 3048 2486
4 6259 273 272 1763
4 2272 2450 2430 2441
4 5324 5302 6258 5325
4 5303 1688 1687 274
4 2747 2744 3606 5658
4 6259 5465 4206 1764
4 2742 3346 2269 3096
4 5121 1705 1695 1696
4 2747 5674 2487 5658
4 5444 1770 135 134
4 2446 3322 2449 3321
4 5382 1687 273 274
4 5658 2486 2487 2744
4 2486 3606 2744 5658
4 3555 6065 5504 5817
4 2489 2744 3296 2980
4 5464 1694 1685 1695
4 5324 275 132 1688
4 2449 2799 2521 3288
4 3286 3100 3209 3285
4 2486 2744 3606 3296
4 2486 4700 5652 5305
4 5305 4700 3048 2486
4 5324 275 5303 1761
4 2550 3879 3882 2898
4 3248 3252 3743 3443
4 3195 2694 3733 3190
4 3194 3193 5749 1118
4 3192 5282 3706 4021
4 5302 1761 1762 1770
4 5303 275 274 1761
4 6260 4403 1751 1750
4 724 131 4253 5325
4 3194 3191 1126 5282
4 2694 3072 3415 3195
4 4253 5325 5451 724
4 3191 2660 3193 4143
4 4466 209 210 1239
4 6248 6189 5986 5991
4 6051 1682 1691 1681
4 6257 1682 1683 1692
4 4300 1259 1258 1250
4 6248 6189 5991 6003
4 6248 4854 6003 5359
4 3889 3430 3888 4478
4 4300 1258 1249 1250
4 3430 2395 3434 3889
4 6257 6255 269 1682
4 5260 3944 4430 5491
4 6257 6081 1766 1767
4 2640 2650 3026 4078
4 3516 1699 1708 1698
4 4299 1241 1250 1249
4 3912 3438 4037 4471
4 3912 4037 3454 4666
4 3245 3244 3776 3809
4 3245 3115 3244 3802
4 6261 1693 1683 1684
4 2645 4044 3826 5463
4 6063 1701 1691 1692
4 6262 1252 1261 1260
4 1691 1682 6174 1692
4 4130 1684 1685 1694
4 3808 4935 3801 3802
4 5310 749 748 740
4 2504 1784 4212 1785
4 3930 3718 3719 3242
4 3245 3774 3244 2944
4 4254 129 1715 1706
4 3286 3504 3287 4780
4 3723 3244 3115 3803
4 6259 5382 5434 1686
4 6258 1696 1687 1697
4 5448 721 722 730
4 2700 3212 2349 2348
4 5434 1687 1696 1686
4 3212 3241 3719 3718
4 5972 4463 4642 6040
4 5437 1713 1712 1703
4 3330 4613 5628 4287
4 2503 5340 2740 1802
4 4103 741 733 742
4 5325 1697 6258 1688
4 4253 724 723 131
4 5518 5519 3661 4593
4 1125 5975 1124 5941
4 3560 3174 2429 2594
4 4376 5518 3093 3946
4 3558 3661 4330 3042
4 1690 6051 3517 1691
4 3562 3661 3093 4376
4 3991 4558 3187 4557
4 4118 4439 1243 3488
4 3846 4286 4287 6263
4 6054 6034 4439 1253
4 4317 4318 4322 4055
4 4287 3330 4613 6263
4 3516 3517 1699 1690
4 6257 6255 1767 269
4 6063 1700 1710 1709
4 4536 4621 4537 4535
4 3517 1690 1700 1699
4 6069 1710 1719 1709
4 4536 4546 4621 5568
4 4536 4546 5568 4660
4 3507 3513 6264 1729
4 4316 6071 6265 1795
4 3517 1709 1708 1699
4 4536 4546 4660 5142
4 2503 1793 1802 1801
4 5481 1709 1718 1708
4 4439 3518 1716 3488
4 4365 1701 1702 1711
4 4536 2512 4546 5142
4 4364 1703 1693 1694
4 5425 1694 1695 1704
4 5145 5142 4660 4638
4 5437 1704 1713 1703
4 4459 300 291 292
4 5145 4535 4683 4678
4 4304 4627 4298 5367
4 3655 5288 4203 2540
4 2777 2847 3485 2844
4 4628 3485 3486 2539
4 2539 4628 2844 2540
4 5454 5117 5302 3609
4 3392 1720 1711 1721
4 4314 1713 1704 1714
4 5327 740 741 749
4 5121 1705 1704 1695
4 4253 1706 1696 1697
4 2539 3253 5998 4127
4 5422 1713 1714 1723
4 2540 4203 3655 4127
4 2676 2471 2680 2376
4 5870 4441 3536 6179
4 3536 6179 6084 5870
4 4839 4836 5366 4835
4 2500 3540 3384 3700
4 6065 3494 1260 1259
4 4211 212 1242 1241
4 6084 3385 3180 6179
4 4369 1245 4305 215
4 4839 4836 4302 4442
4 6054 1254 1253 1245
4 6084 3382 3384 3180
4 4509 1271 1270 1262
4 6069 1709 1719 1718
4 3518 1707 1708 1717
4 6053 287 288 296
4 2845 2929 3248 3443
4 2538 2540 3654 3253
4 3654 2879 2882 4161
4 5474 1788 136 1779
4 5417 1736 1737 1746
4 6262 1252 1260 1251
4 6063 1700 1701 1710
4 5031 1712 1702 1703
4 5789 4188 2022 162
4 3392 1721 1711 1712
4 2662 4927 2672 2878
4 2672 2878 4927 5908
4 5118 1705 1706 1715
4 4400 1801 1800 1792
4 6258 1687 1688 1697
4 5789 5771 986 995
4 5554 4214 4468 4217
4 2968 3235 3619 3236
4 3469 3471 3798 3470
4 5447 729 730 738
4 3951 3955 3952 3953
4 4447 740 732 741
4 3467 3473 3471 3470
4 4253 130 1697 131
4 3786 128 720 127
4 4016 3431 3955 3952
4 5506 1780 1771 1772
4 4018 4031 4017 3952
4 3467 3469 3258 3470
4 4254 5424 5419 1715
4 5117 1696 4253 1705
4 5118 1714 1705 1715
4 5422 1723 1722 1713
4 4254 5424 722 5450
4 4930 4959 531 4987
4 4930 531 4959 532
4 5448 722 731 730
4 5448 4447 4406 731
4 3518 1707 1717 1716
4 4930 4963 532 3930
4 4014 1252 4439 1253
4 3931 4963 4930 3930
4 6036 1734 1744 1743
4 4930 4959 4987 4947
4 3931 4930 3523 3804
4 5441 2279 2772 2924
4 5020 2871 5105 5355
4 2871 4358 5105 5355
4 4119 4373 1725 4305
4 2926 5105 2871 2889
4 5764 1255 1264 1263
4 5029 1720 1719 1710
4 6035 1726 1717 1727
4 6002 2614 4874 4117
4 6025 6027 6029 6047
4 4424 288 287 279
4 3062 3004 3095 3007
4 4375 3465 3004 3063
4 3894 298 307 306
4 3894 306 297 298
4 6027 6029 6047 4315
4 4369 6038 4305 1245
4 2503 1801 1792 1793
4 4375 3946 3004 5043
4 6025 1239 6047 266
4 4839 3598 4419 4302
4 6002 3462 6164 4379
4 4416 4369 6038 6036
4 2838 3782 4070 3903
4 3400 1712 1713 1722
4 4082 2834 3852 4092
4 6029 6047 1778 1769
4 5421 1732 1731 1722
4 3505 1740 1730 1731
4 2944 3246 2809 3240
4 2834 3852 4809 3501
4 4456 127 719 126
4 4448 747 746 738
4 3173 3231 3496 2633
4 2835 2832 3475 3501
4 5424 3786 5448 3785
4 5446 738 739 747
4 5419 1723 1714 1724
4 4423 4421 4422 5239
4 4423 5026 4421 5239
4 4403 1741 1742 1751
4 4456 3787 4460 5426
4 4423 5170 4469 6013
4 4411 1759 1749 1750
4 3407 3320 3406 2423
4 4832 213 214 1243
4 3320 3082 3040 3404
4 4473 324 4531 323
4 5764 1263 1254 1255
4 3407 3405 2423 4778
4 3320 3405 3407 3403
4 4119 1735 1734 1725
4 5417 4426 1736 1735
4 6055 1728 1718 1719
4 6266 1738 6264 3513
4 3390 1729 1720 1730
4 4441 4224 4435 4586
4 5461 3742 5031 3399
4 3320 3407 3404 3403
4 3600 3890 5108 5512
4 3894 297 288 289
4 5094 2029 2021 2030
4 6264 1737 1728 1738
4 3798 3471 3952 3953
4 4457 4395 299 3971
4 4374 12 280 279
4 3798 3890 3799 5107
4 3890 3799 5107 3512
4 5421 1723 1732 1722
4 3513 1730 1739 1729
4 3890 3973 3799 3512
4 3393 1721 1722 1731
4 4561 1308 3820 5801
4 3390 1720 1721 1730
4 3393 3400 1722 1721
4 3969 5115 3890 5512
4 5462 1749 1740 1750
4 3014 3214 3016 3015
4 4032 301 4459 292
4 4209 4448 747 756
4 2615 2616 2613 4827
4 2638 3658 3653 3659
4 2729 3366 2739 4827
4 4455 4404 4460 4403
4 4375 3948 3946 5043
4 4319 329 4321 328
4 4456 127 720 719
4 3366 3658 6032 3653
4 3785 1732 1723 1733
4 4455 126 4456 719
4 3617 3593 3797 2220
4 3769 2283 2236 2245
4 6041 1271 6040 1262
4 4416 1247 1256 1255
4 4051 2872 6044 1752
4 3151 2245 3760 3914
4 6041 1271 1263 1272
4 4835 4463 6041 4599
4 4303 295 4066 286
4 5763 4370 4368 277
4 3672 3311 3916 3915
4 4426 1736 1727 1737
4 4370 1753 1754 10
4 2910 2629 3166 2630
4 2245 3759 5531 3760
4 6046 4370 1753 1754
4 5972 4011 6035 4012
4 6267 4374 1755 1756
4 6267 4372 1755 4374
4 2454 2455 2452 2453
4 4374 1755 1756 12
4 3513 1738 1729 1739
4 4395 291 300 299
4 2762 3111 3113 3114
4 3957 4562 4488 764
4 6267 1747 1756 1746
4 3886 5923 2593 6064
4 2988 3340 2593 2989
4 2593 5971 3340 6064
4 5414 4404 727 718
4 4427 718 717 125
4 4403 3787 1742 1741
4 4407 4427 6260 5414
4 4378 5047 3462 4911
4 3136 3306 4170 4689
4 3787 1732 1742 1741
4 3787 1732 1733 1742
4 4455 4403 1742 1751
4 3732 2241 3151 3676
4 5097 3343 4284 4689
4 4404 719 728 727
4 4031 4018 4403 5462
4 3343 3583 5864 4689
4 5178 4689 4284 5864
4 2642 2643 2644 4412
4 4371 216 217 1246
4 2721 2418 4398 4716
4 6036 1734 1735 1744
4 2643 2642 2646 4410
4 4417 1265 1264 1256
4 4378 5047 5712 5043
4 4412 2643 2644 2303
4 4675 4750 1352 1353
4 1744 5418 5417 1735
4 6268 1738 1747 1737
4 6268 1747 1746 1737
4 3024 2303 3056 2644
4 4405 1755 1745 1746
4 4378 4873 5047 4864
4 5417 1745 1736 1746
4 6035 1718 6055 1727
4 4429 290 289 281
4 4426 6264 1737 1728
4 4301 1748 1747 1738
4 5512 5515 4395 3974
4 4378 4873 5712 5047
4 3976 299 298 290
4 2251 2290 2287 2536
4 4378 3948 4864 4377
4 4381 13 1756 1757
4 3247 2846 2539 2929
4 3825 1749 1748 1739
4 4382 282 4068 4402
4 2884 3879 2551 2550
4 2279 5020 2782 2870
4 4427 6260 4404 4455
4 2873 3388 3386 3387
4 4403 1750 1741 1751
4 4402 282 283 291
4 3192 2694 3414 3696
4 3445 3616 4072 4073
4 4403 5462 4453 1741
4 6260 1750 1751 1760
4 5352 2876 2804 3445
4 2876 5352 2897 4073
4 2876 3870 3388 3387
4 4416 2872 4371 6044
4 6044 1743 1753 1752
4 4073 2897 2876 5271
4 2876 5271 3870 4073
4 2897 2876 2804 5352
4 3894 3976 3971 298
4 4303 286 4368 287
4 5440 4405 6046 5417
4 6044 1744 1753 1743
4 3445 5352 2886 2804
4 3508 4313 3509 4307
4 4309 4343 4307 5514
4 6046 1753 6044 1744
4 4372 1754 1755 11
4 6266 1738 3513 4301
4 3210 3931 3805 3718
4 6267 1756 1755 1746
4 5418 6045 6035 4119
4 4424 6053 4368 287
4 3162 3163 2367 2633
4 3162 4903 2367 3163
4 5016 4006 758 759
4 5365 4303 4066 5763
4 4312 4311 4344 4343
4 4424 289 288 280
4 4310 2367 4903 3637
4 3824 1748 1749 1758
4 4380 6266 4301 1747
4 3974 3824 4402 4383
4 3974 3973 4301 4380
4 3068 3065 3721 3415
4 5515 3974 3824 4402
4 3824 1758 1757 1748
4 3998 3223 3854 3332
4 4383 281 282 290
4 4411 3825 5462 1749
4 3448 3446 5068 5222
4 4427 4408 124 717
4 5414 718 727 726
4 6260 1759 1750 1760
4 4031 4459 5515 4402
4 3448 3854 5222 3721
4 4407 1759 1760 16
4 3721 3858 3728 3716
4 5324 1761 133 275
4 3028 3029 3030 5251
4 2717 2715 2716 3059
4 3589 4606 2996 3596
4 5382 273 1687 1686
4 5118 4253 4254 1706
4 5303 5304 5382 6258
4 2578 3259 3911 4677
4 2827 5055 3968 4795
4 5506 6039 1780 1781
4 4378 5047 4911 4864
4 4326 1685 1684 271
4 2358 2360 2770 2359
4 5465 1765 1773 1764
4 5491 1774 1782 1773
4 4098 1789 1788 1780
4 5382 1763 1762 273
4 5445 5302 5454 5506
4 4364 1703 1702 1693
4 5273 3740 5274 3736
4 4510 1684 1683 270
4 4206 1772 1763 1764
4 3740 5274 3369 3684
4 2974 3187 3992 4558
4 6259 5464 5465 4326
4 2357 3107 3371 3738
4 2653 3187 2974 3186
4 3177 3178 3179 3454
4 4253 5451 723 724
4 4136 6179 3179 3180
4 4326 4130 5465 4510
4 6261 1683 1693 1692
4 1765 1774 6081 5465
4 5476 4452 752 761
4 5445 1780 1779 1771
4 6259 1685 4326 272
4 4510 270 1766 1765
4 3911 3912 4478 3889
4 6257 1683 1682 269
4 3904 3905 4138 3906
4 3442 4568 3527 3939
4 6081 1765 1766 1774
4 2394 3259 3662 3601
4 6257 1767 1766 269
4 4212 1776 1785 1784
4 4666 3454 3185 4137
4 6255 1682 1681 268
4 4441 4136 6179 4436
4 4136 3906 4471 4436
4 5093 1500 237 1491
4 3547 3817 3060 3818
4 6050 1767 1768 1776
4 3059 3349 4578 5548
4 6025 7 267 1680
4 6025 6029 1769 6047
4 3059 5412 5548 4578
4 6047 1248 265 1239
4 6026 1769 1768 267
4 3818 4578 1315 1316
4 1776 1777 4212 1785
4 6256 6051 6029 6050
4 3985 3517 3516 6028
4 5374 71 1203 1212
4 5444 5455 134 734
4 2467 2631 2233 2466
4 4098 5454 3609 5466
4 4506 4469 4501 3730
4 5444 1770 1779 135
4 2562 4156 3675 5469
4 5445 1780 5506 6039
4 2827 3549 5055 5808
4 5116 5451 732 5450
4 5444 3609 734 743
4 3840 4156 2786 3841
4 4686 2591 2242 3731
4 4506 3994 3730 4507
4 2503 5319 1793 1792
4 4502 3675 4505 3996
4 3151 2236 4726 3152
4 4326 1685 271 272
4 6082 5319 1783 1784
4 3995 3674 3837 3993
4 5492 1781 1772 1773
4 4215 768 759 760
4 5465 1774 1773 1765
4 3674 3836 3837 3993
4 3544 5268 3909 4573
4 6081 1766 1775 1774
4 4363 1692 6261 1693
4 3544 5267 5268 4573
4 4363 1701 1692 1702
4 3544 3333 2722 3545
4 1767 6081 1775 6050
4 5263 5184 5262 5609
4 1242 3488 4211 4118
4 5263 3544 3300 3553
4 6259 4206 5382 1763
4 5492 1782 1781 1773
4 3783 71 711 712
4 5400 5817 1268 5401
4 3909 3298 3544 3482
4 4420 4299 1241 4454
4 5263 3298 3544 3909
4 4466 4420 1689 6028
4 3557 3562 3898 3559
4 4634 5374 6269 5368
4 72 710 5403 711
4 3987 3494 4532 4300
4 3898 3897 3559 4881
4 3985 6174 3517 6051
4 3933 2728 3897 3896
4 6058 265 1787 1778
4 3897 6136 3933 3896
4 6144 1423 4234 3897
4 5122 5302 6258 5304
4 5445 1779 1770 1771
4 3262 3263 2850 3280
4 5474 135 1779 136
4 6257 6081 4510 1766
4 5476 5474 136 752
4 3794 3017 3015 4875
4 2861 3122 3214 4738
4 3122 3642 3016 5716
4 4762 3642 3637 3133
4 4006 768 767 759
4 5484 769 4217 778
4 6039 1781 1789 1780
4 4731 6052 5398 5400
4 2366 3122 3642 3016
4 4540 6270 1821 1822
4 3315 4936 3017 3016
4 5030 4943 4983 4171
4 2365 2367 3637 3163
4 4399 1791 1782 1783
4 6082 1775 1783 1774
4 5472 787 786 778
4 4399 1791 1790 1782
4 5583 4722 5877 4611
4 6052 1277 1285 1276
4 5319 1793 1792 1784
4 3639 3315 3317 4762
4 3688 3278 3689 5189
4 4556 5330 4495 6078
4 5491 1783 1782 1774
4 5051 776 767 768
4 3826 1810 1819 1818
4 6069 5029 1719 1710
4 4314 1714 5422 1713
4 4675 4611 4750 1353
4 2769 3370 3369 3610
4 2771 2412 2766 2801
4 3986 3988 4315 4533
4 3327 2822 2758 3326
4 4097 1799 1798 1790
4 4532 1267 1258 1259
4 4315 1786 6265 1777
4 2504 1785 1793 1784
4 6265 4296 6071 4316
4 3685 3680 2901 3683
4 3611 3612 4294 4492
4 5526 3910 786 795
4 5559 4236 4688 5532
4 5444 1779 5474 135
4 6265 1794 1785 1786
4 3610 3684 2903 3370
4 2900 3611 3612 4293
4 2760 2576 3385 3328
4 4316 6058 4318 1787
4 4316 1796 1795 1787
4 6026 1681 6255 6051
4 4318 263 1796 264
4 2476 4233 3602 2483
4 4099 1798 1797 1789
4 6264 1728 1729 1738
4 2479 4233 5004 5003
4 5542 5475 1797 1806
4 2580 2584 2479 5220
4 5476 5466 4099 5474
4 3337 2954 2953 2952
4 3471 5361 4511 3953
4 2454 2465 2561 2466
4 5609 5262 6087 5185
4 5476 1788 137 136
4 4097 1790 1798 1789
4 3694 3614 3613 5806
4 6074 1811 1819 1810
4 5045 4307 4343 5514
4 3694 2775 2985 2984
4 3785 1723 1724 1733
4 3937 4011 6271 6055
4 6073 1800 1799 1791
4 6271 1718 6069 1719
4 3100 3209 2977 2976
4 5498 1286 1277 1278
4 2494 2496 2866 2381
4 6265 1795 1794 1786
4 5498 1287 1286 1278
4 711 71 5403 72
4 5319 1784 1792 1783
4 4118 6262 4439 4012
4 4215 4006 759 768
4 2796 3209 3285 2983
4 2502 1802 1793 1794
4 5317 6082 1784 5319
4 2520 5305 4291 4699
4 4363 1693 6261 4364
4 5562 4217 4216 4467
4 2504 1794 1793 1785
4 2520 3572 5305 4699
4 4315 1778 1248 6058
4 3246 2935 3630 3629
4 4055 262 1805 263
4 4318 1266 4055 263
4 4209 3957 4448 756
4 4172 4109 3775 4912
4 2638 3659 2636 3658
4 4172 4109 4912 3807
4 4316 4317 6071 1795
4 3635 3808 5955 3801
4 4054 1276 1275 1267
4 4317 1796 1804 1795
4 3062 2617 3460 2301
4 2934 3318 3932 4948
4 5030 4308 4977 4983
4 5543 141 797 140
4 5615 5619 5473 4250
4 4099 1789 1797 1788
4 5540 797 796 788
4 5304 5434 4206 5382
4 5473 4250 4241 5615
4 5476 4452 5466 752
4 5526 795 786 787
4 2619 2626 3777 3498
4 5555 4468 1825 1824
4 5473 5615 6194 5614
4 5473 5615 4241 6194
4 3078 4643 3291 3079
4 2309 4720 2311 2310
4 3552 1278 1270 1279
4 6075 1812 1820 1811
4 3352 1304 1295 1296
4 5500 1287 1295 1286
4 3080 2356 2354 3827
4 4327 3079 3043 2310
4 3078 3079 3080 2311
4 3179 5532 6179 5477
4 3075 3080 3079 4327
4 4675 5583 4611 1344
4 5925 4033 306 315
4 5029 1720 1710 1711
4 5877 5781 5583 4694
4 4064 1808 1807 1799
4 4693 5877 4611 3737
4 3080 3083 2356 3832
4 4131 6272 6090 1303
4 5883 5777 3591 6156
4 5865 5834 5838 5867
4 4216 760 4452 761
4 5261 6060 4631 5595
4 3490 3587 6176 5882
4 5883 3591 5735 6156
4 6071 1795 1803 1794
4 3516 1707 4211 1698
4 4570 1831 4571 1832
4 6041 1262 6040 6034
4 6273 1813 1805 1814
4 5882 5883 5735 5884
4 4054 1276 6062 1275
4 4054 5400 1267 5401
4 6031 5883 5735 5882
4 6031 3810 3659 3490
4 4317 1796 1805 1804
4 4317 4055 1805 1796
4 6273 1813 1804 1805
4 2864 4293 3298 5184
4 2768 3370 2901 2765
4 4216 761 5475 770
4 2768 2903 2766 2902
4 4064 1807 1798 1799
4 5541 1816 1807 1808
4 4468 1824 1815 1816
4 4044 1810 1809 1801
4 5463 1808 5541 4064
4 5576 5527 5439 5563
4 4622 4646 382 373
4 5463 1818 1817 1809
4 4028 2376 4029 3615
4 6174 6063 3517 1691
4 2494 2495 2509 2508
4 2469 3294 3298 3482
4 2974 3548 3549 4041
4 4002 2262 5449 2821
4 3746 4052 3747 4002
4 3819 2607 2610 2608
4 4131 1312 6088 1311
4 3140 3141 2775 2984
4 4005 4323 757 5311
4 3894 4208 306 307
4 3821 1317 1326 1325
4 5591 4057 3747 5592
4 4468 1825 1824 1816
4 3747 5620 4010 4008
4 5340 1803 1811 1802
4 3107 4142 6108 5601
4 4558 2354 2974 3739
4 2740 1811 1810 1802
4 5507 4135 788 779
4 5189 1331 1323 1332
4 3108 6108 3109 1378
4 3107 3109 6108 4142
4 5823 5291 5822 6093
4 2360 3369 3371 3107
4 5772 4561 1299 1300
4 4468 5513 5544 1825
4 4513 4531 324 333
4 2359 3292 2793 3077
4 6074 1820 1819 1811
4 4132 1294 6272 1303
4 2676 2380 2384 2679
4 3369 4702 3107 3108
4 6062 4054 1275 6049
4 6087 6088 6067 4131
4 5534 1294 1293 1285
4 4540 1813 1821 1812
4 4135 4467 139 779
4 3371 3401 5601 6112
4 3369 3108 3608 4702
4 5565 806 814 805
4 3029 5526 3160 3910
4 5541 5513 1816 1817
4 5834 5852 5833 1048
4 5560 813 804 805
4 6060 1828 1837 1836
4 5340 1803 1812 1811
4 5544 1826 1834 1825
4 5540 5555 5528 5543
4 4631 1827 1818 1819
4 5399 1296 1288 1297
4 5119 5117 5118 4314
4 5834 5852 1049 5854
4 5599 1348 1357 1356
4 3058 3820 4352 3821
4 3107 5601 6108 4702
4 5439 1843 5528 6274
4 3107 4702 3371 5601
4 2769 3763 6107 3108
4 3524 4035 3598 4836
4 3525 3598 2999 4839
4 5542 1806 1797 1798
4 71 5403 1212 5374
4 2502 1803 1802 1794
4 5555 1834 1833 1825
4 6274 1844 1843 1835
4 5251 4725 6274 5544
4 2996 2999 5700 2994
4 3588 4552 2994 4134
4 6075 1812 1821 1820
4 6272 1295 1304 1303
4 6270 1821 1822 1830
4 3689 1341 1340 1332
4 4570 4131 1302 4132
4 2313 2566 2995 4133
4 6270 1830 1822 1831
4 2993 3551 3552 5399
4 4413 1311 258 6086
4 4132 1293 1294 1302
4 2675 2788 3313 2786
4 2546 255 254 1877
4 2476 2958 4233 2480
4 4317 6273 1805 4055
4 4387 3519 3312 4386
4 1293 4132 5534 6227
4 4571 1832 1831 1823
4 6153 4001 5892 3671
4 2075 5354 6223 2084
4 4131 6086 1302 1311
4 4135 1815 1824 140
4 2630 4464 4001 3166
4 3313 3311 3672 4385
4 5543 1833 141 1824
4 5496 5541 1817 5513
4 4919 5780 991 982
4 5563 1842 142 1833
4 3451 3788 3452 3455
4 3313 2236 4726 3914
4 4725 4333 1844 1845
4 4387 4386 5407 4388
4 4464 3166 6153 4001
4 3931 3929 4963 3930
4 4963 4993 3521 542
4 5496 1827 1826 1818
4 4539 364 4587 363
4 4963 3930 533 532
4 4963 533 3930 4964
4 3523 4963 4126 3521
4 4787 1821 1830 1829
4 3055 5051 777 776
4 4787 1821 1829 1820
4 4437 4544 345 346
4 3053 3910 5547 794
4 3687 1339 1330 1331
4 5030 4307 4177 4308
4 4963 4930 3523 3931
4 6060 1836 1827 1828
4 4930 3522 3521 3523
4 2403 2578 3185 2577
4 4572 3546 1830 1839
4 3818 1307 1316 1315
4 4632 1829 1828 1820
4 4392 4146 1866 5378
4 3951 3456 3957 3472
4 4027 5263 4089 4088
4 3183 3456 3468 3784
4 5030 4308 4177 4977
4 2575 2576 2586 2698
4 3456 4562 3454 4037
4 6056 1823 1822 1814
4 4571 1822 1823 1831
4 4437 337 4564 346
4 6091 4572 1840 1839
4 2725 3664 4351 2727
4 2725 3664 2727 2813
4 2725 5545 3664 6275
4 6224 2083 2091 2082
4 2294 2351 2353 3533
4 6067 6091 4572 1840
4 5692 5905 5257 3648
4 2725 3664 2813 6275
4 5555 1825 1833 1824
4 3528 2813 3664 3663
4 2350 2353 3091 3664
4 5439 1852 1851 1843
4 3681 1342 1351 1350
4 3892 5058 5539 6192
4 5576 5563 142 806
4 3091 2943 3892 5539
4 3350 3352 3351 6090
4 5294 1837 1845 1836
4 2547 1338 1339 1347
4 5267 1847 1838 1839
4 2348 3892 2350 2943
4 3091 3034 2939 3032
4 3033 2749 4351 2727
4 4267 1859 1858 1850
4 2700 2939 2345 3092
4 3228 2363 3800 2852
4 6037 1321 1312 1313
4 2836 3780 4484 3458
4 4573 1838 1837 1829
4 5379 4147 1875 1884
4 5268 1846 1837 1838
4 4088 1847 6092 4089
4 4145 1864 6124 1865
4 6099 1864 1863 1855
4 5605 841 840 832
4 2623 2624 2626 4070
4 3546 1839 1838 1830
4 4706 3105 5579 849
4 2834 2623 4070 2838
4 4324 3767 4677 3590
4 2529 2530 2531 3335
4 6087 6037 5571 4270
4 4692 1381 5575 1382
4 5547 794 3910 5561
4 2795 2413 2794 2410
4 2406 3370 2765 2823
4 5354 2084 232 231
4 4570 6067 6068 4571
4 4570 1840 1831 1832
4 4570 259 1841 1832
4 6272 1295 5499 5500
4 6272 5499 1295 1294
4 2410 2409 2404 2412
4 6253 4589 4104 4915
4 5528 1834 1842 1833
4 2276 2781 3276 2541
4 5576 806 5527 5563
4 4332 1853 1852 1844
4 2772 5397 2782 5441
4 6072 6274 5439 5528
4 5294 6060 1836 4725
4 6274 1843 1834 1835
4 5292 1846 1855 1854
4 1297 5399 3547 2995
4 5241 5240 2780 2782
4 5834 5868 5852 5854
4 2773 2779 2782 2776
4 4333 1845 1854 1853
4 4102 1359 1358 1350
4 4682 827 4711 828
4 4333 1845 1853 1844
4 6116 1368 1367 1359
4 3456 3455 3454 4562
4 2278 2549 2548 2552
4 2958 4205 2964 5160
4 5138 2071 6276 2072
4 2544 1338 1329 1330
4 5435 1863 1862 1854
4 6071 1804 1803 1795
4 5268 1847 1846 1838
4 4088 1856 1855 1847
4 4218 5530 5529 1333
4 3877 3143 2217 3566
4 5597 5605 832 841
4 3860 3129 3877 3862
4 6088 6037 1312 6090
4 4572 1840 1839 1831
4 2958 3602 3128 4213
4 5267 1848 1847 1839
4 3109 4142 5625 1388
4 4146 1866 1874 1865
4 4715 1368 1377 1376
4 3553 4572 5267 3546
4 5142 4895 4219 5141
4 3928 2987 2986 2463
4 6091 1840 1849 1848
4 6067 1841 4267 1840
4 3766 1378 1387 1386
4 4285 1873 1872 1864
4 3515 3878 2217 3602
4 2629 3166 2959 2955
4 6124 4146 1865 4089
4 4559 5586 824 823
4 5576 5527 806 5565
4 4332 4333 5435 1853
4 5399 3547 2995 4133
4 5596 146 842 145
4 3372 3053 3182 3178
4 4219 4637 4646 4222
4 5523 784 3053 793
4 5586 5560 5565 814
4 4286 5569 6263 1880
4 3176 3182 3179 3178
4 5865 5834 5867 5868
4 5380 5600 5617 5381
4 5547 5561 803 794
4 3020 3026 3022 3021
4 5523 3179 3182 3178
4 3031 3373 3053 5547
4 4089 1848 1856 1847
4 4088 1847 1855 1846
4 4081 370 4225 371
4 3053 793 5547 5535
4 5523 3182 3920 5535
4 5523 3182 3179 3920
4 5557 1857 1848 1849
4 3682 1341 1333 1342
4 6259 272 4326 1764
4 3179 3920 3180 6179
4 5606 1862 1861 1853
4 5597 833 5596 842
4 4206 5465 5491 1773
4 4489 4596 789 798
4 5557 1849 1858 1857
4 6111 1860 6131 5564
4 3177 4136 3179 3180
4 5523 3179 5477 5532
4 4354 6124 4027 4089
4 4089 1857 1856 1848
4 5294 5268 1837 6277
4 5653 1919 1927 3570
4 3687 3689 1340 1331
4 3178 3454 4576 3179
4 4568 3939 5438 5416
4 4267 1849 1850 1858
4 3442 4568 3938 3527
4 5377 3689 3680 3683
4 2314 2418 2721 2318
4 5609 5185 6037 5511
4 4392 1866 1857 1858
4 4267 4268 1858 1859
4 3648 1555 1564 1563
4 4492 5379 4147 5378
4 4286 4144 1872 1871
4 4268 1859 1867 1858
4 2544 2547 1338 1339
4 2546 1347 6066 254
4 5021 5212 3693 6224
4 5564 1851 1860 144
4 4015 4014 4642 5505
4 6111 1852 1860 1851
4 3526 4642 3936 3939
4 3605 4101 831 5605
4 6259 5464 4206 5465
4 3936 4011 5438 5972
4 5438 6045 3939 5972
4 6131 1869 5577 1860
4 5438 5416 3939 6045
4 6278 1870 1861 1862
4 4277 4285 4019 4124
4 6179 5508 6279 5497
4 3960 868 867 859
4 4139 5607 4140 850
4 4756 3444 4781 3616
4 4269 4270 4268 4325
4 5378 1875 1866 1867
4 406 4695 4790 407
4 3444 3445 4072 3409
4 3444 4756 4072 3616
4 3444 4756 5819 4755
4 6124 1865 1864 1856
4 6278 1871 1870 1862
4 3165 4766 4697 3167
4 2583 2957 2956 5219
4 4392 1867 1866 1858
4 3651 5087 4008 3652
4 2581 2583 2955 2957
4 4089 1866 1865 1857
4 3673 3848 3603 3847
4 4804 1916 1907 1908
4 2583 2584 2585 6280
4 5610 842 5597 5596
4 5201 6128 5629 4336
4 2583 5128 5219 6280
4 4325 256 1868 1859
4 6223 6281 2075 2074
4 5098 1554 1545 1546
4 5379 1884 1875 1876
4 4268 1868 1867 1859
4 2545 1876 1867 1868
4 6109 1926 1925 1917
4 4806 1910 6128 1911
4 3623 3624 3627 4984
4 5577 1869 145 1860
4 6131 1869 1860 1861
4 5974 2957 2955 6181
4 2957 2955 6181 4766
4 5610 5663 4141 1887
4 4766 6231 2957 5219
4 4766 6231 5219 6182
4 6131 1870 1869 1861
4 3959 3579 1905 3561
4 5213 2585 5221 5220
4 4706 850 859 858
4 2478 2477 2986 2479
4 6263 1871 1879 1870
4 3928 4764 2986 2987
4 6107 1377 1369 1378
4 6103 1359 1351 1360
4 3182 5537 3373 3920
4 5220 5171 5004 6225
4 4263 1909 1908 1900
4 4565 5536 6170 5055
4 5252 5143 5221 4764
4 3670 867 876 875
4 4518 5428 4481 5638
4 5143 5221 4764 5220
4 4145 1874 1873 1865
4 5377 1339 3687 1340
4 5579 4101 5607 840
4 6263 1880 1879 1871
4 5551 6096 1356 1365
4 6259 5464 1685 1686
4 2580 5220 2585 2584
4 5378 1876 1875 1867
4 2686 3945 3741 3742
4 2749 2726 4351 2727
4 4146 1875 1874 1866
4 846 3323 4474 837
4 4900 829 3604 838
4 2546 255 1877 1868
4 4009 2239 2238 2755
4 4765 4733 4763 435
4 2262 3495 5449 2821
4 4052 4010 4057 5000
4 2545 1877 1876 1868
4 2545 5378 5376 4493
4 5381 1894 1893 1885
4 5175 5177 6209 1383
4 5381 1893 1884 1885
4 6117 1900 1899 1891
4 5610 5596 146 842
4 5628 5663 1888 3329
4 6130 1870 1878 1869
4 3860 2215 3566 3863
4 3087 4271 4010 5000
4 5628 1887 1878 1879
4 4286 1880 1871 1872
4 5607 840 4101 5605
4 3330 1880 1888 1879
4 5516 3700 2510 5580
4 3087 4010 4271 2238
4 4052 4059 4767 4061
4 3141 3692 4008 4007
4 3135 3731 5153 4506
4 4142 1371 1380 1379
4 4806 1911 5624 1920
4 3135 3731 4687 5153
4 3535 4986 3836 4985
4 4147 1875 1883 1874
4 6259 273 5382 1686
4 4635 4139 5663 4232
4 2461 2558 2790 2456
4 5396 1397 1396 1388
4 5187 3339 5971 5920
4 3730 3731 3135 4506
4 6089 1883 1882 1874
4 5571 1330 4270 1321
4 2498 3539 2510 4680
4 4537 6119 4557 4535
4 3136 3135 3731 4687
4 4797 4816 4840 4784
4 6115 5377 1349 1348
4 4147 1884 1883 1875
4 4970 3626 2621 2620
4 5377 2547 1339 1348
4 4282 4124 5608 4285
4 3623 3256 3625 3169
4 2805 3256 2745 3623
4 6066 1886 6106 1877
4 2491 2747 2487 2744
4 6106 1877 1885 1876
4 3257 3256 3627 4970
4 6106 1886 1885 1877
4 6282 6080 6283 5624
4 5550 1374 1365 1366
4 3380 881 872 873
4 3266 2269 3267 2263
4 2543 3257 3256 3169
4 4270 1330 1329 1321
4 3961 869 868 860
4 6127 1890 1881 1882
4 3038 2448 3567 3039
4 3961 868 859 860
4 4751 5703 6284 433
4 3408 2446 2447 2448
4 5663 1896 1887 1888
4 5670 3561 6285 1915
4 3275 3885 3095 3567
4 2446 2449 2267 3321
4 3330 1889 1888 1880
4 4797 4768 888 36
4 4089 1866 4392 4146
4 2521 3290 2514 4494
4 2734 6138 6139 5916
4 3049 2909 2795 3285
4 5664 3865 2747 5674
4 6107 4715 6116 1368
4 5630 1909 1900 1901
4 4667 1385 5176 1376
4 3219 3217 3061 2265
4 3681 5274 1351 4218
4 4804 1917 1916 1908
4 3569 1918 1917 1909
4 3681 3683 6103 3684
4 3681 6103 1350 1351
4 6118 6116 4715 1367
4 2310 4038 4744 4705
4 3681 6103 1351 5274
4 5629 5581 5630 5631
4 4667 5639 1385 1386
4 4797 37 4815 464
4 6033 4658 5141 4683
4 6147 3570 1918 1919
4 5689 3568 1927 1926
4 1886 6096 1895 253
4 5600 1894 1885 1886
4 4568 5438 3440 5416
4 5600 1895 1894 1886
4 6147 3570 3569 1918
4 6115 5552 5551 1357
4 3127 2091 5021 2100
4 5174 6080 5177 6286
4 6154 1411 1419 1410
4 3578 148 869 860
4 3440 3441 3442 4568
4 3578 4232 1905 1896
4 4232 1897 1905 1896
4 5663 1897 1896 1888
4 3329 1897 1888 1889
4 5416 5440 6046 5417
4 5416 4426 5418 6045
4 4568 5416 3440 4567
4 5416 5440 5417 4567
4 2414 2972 2425 2428
4 3101 3959 3960 3961
4 5416 3440 4567 4426
4 3504 1898 1889 1890
4 6117 1891 1899 1890
4 5701 5650 899 898
4 4789 5677 5675 3831
4 5521 1404 1403 1395
4 2099 2091 3127 2100
4 2274 2251 2276 2537
4 3569 1909 1917 1908
4 2925 2914 2926 2279
4 2692 4581 3250 2667
4 2279 2874 2926 2871
4 4336 1893 1901 1892
4 5365 5416 5440 6046
4 3541 2772 2276 2275
4 5617 1902 1893 1894
4 2772 5241 2781 2773
4 4715 3763 2802 2803
4 2583 6280 5219 2956
4 6083 1895 1903 1894
4 5129 4048 2917 2916
4 4336 6128 1901 1902
4 5656 876 868 877
4 4704 3827 4041 4616
4 4797 4840 897 888
4 4768 879 888 36
4 5440 4405 4368 6046
4 4670 4713 4669 4151
4 5630 1901 1910 1909
4 4438 4151 4670 4669
4 5601 5657 4745 1371
4 3143 3238 3864 3239
4 5550 5551 1366 1365
4 5549 6083 6079 5616
4 2335 2931 2337 2751
4 6282 5175 6118 5176
4 6282 4679 5176 6118
4 3919 5750 4601 5738
4 3579 1914 150 1905
4 4601 6287 3771 4262
4 3233 1906 1897 1898
4 3771 4601 3773 6287
4 3962 869 878 877
4 3962 869 877 868
4 3773 6287 5731 3771
4 3279 3283 3282 6288
4 3919 3550 4602 5756
4 3694 6076 5806 4888
4 5663 4232 4141 1896
4 3504 1898 3329 1889
4 6076 1575 1584 1583
4 3919 5738 4601 4262
4 3233 1907 1906 1898
4 5857 5936 5889 1072
4 6285 1916 1915 1907
4 5654 5655 1929 1928
4 4585 2311 4718 4543
4 5174 1384 6120 1393
4 4285 4144 6099 1863
4 4925 2620 3261 3269
4 3918 3230 2852 3550
4 2854 3550 3283 4602
4 4234 1432 1431 1423
4 6128 1902 1910 1901
4 2806 3335 3492 3789
4 2835 2833 3171 3475
4 5616 1903 1911 1902
4 3233 1907 6285 1906
4 6132 6150 1930 1939
4 2390 2937 3581 4095
4 5616 1912 1911 1903
4 3582 3629 3245 3581
4 4337 1404 1396 1405
4 2839 3232 2529 3457
4 2361 2224 2297 2363
4 6128 1911 1910 1902
4 6026 6255 268 1768
4 4341 903 895 904
4 5603 1410 5659 1401
4 3015 3017 5727 3016
4 6079 1904 1912 1903
4 3315 3638 3017 4936
4 5174 6286 5177 1392
4 4328 1416 1425 1424
4 3960 4706 859 858
4 5624 1920 1911 1912
4 3017 4876 3016 4936
4 6209 250 5177 1913
4 3378 4917 3099 3123
4 5174 4758 6286 1392
4 4758 6133 1402 1393
4 6289 1929 1920 1921
4 4813 5683 3638 3017
4 3129 2089 2090 2098
4 887 150 3831 151
4 3861 2090 3129 2089
4 3017 3638 4813 4876
4 3460 3463 3461 2937
4 3969 3976 5512 3971
4 3890 5108 5115 5107
4 3798 5107 3799 3395
4 5670 1915 1916 1924
4 6285 1915 1906 1907
4 3233 4232 1897 1906
4 6076 1575 1583 1574
4 5630 4806 1910 6128
4 3568 1918 1926 1917
4 6138 1939 1948 1947
4 5704 903 3865 4341
4 3503 4804 1907 1908
4 3469 3798 3890 3799
4 3258 3799 3394 3470
4 3394 3470 3799 3395
4 3441 3439 3799 3973
4 6255 6051 1681 1682
4 2480 2964 2581 2958
4 4821 469 4255 468
4 4000 2125 5160 2964
4 6147 1919 1918 1910
4 4108 1458 5962 1449
4 4000 5209 6290 2125
4 2480 5881 2964 4205
4 2964 2125 5160 2126
4 6132 5603 1401 4758
4 5729 1936 5730 1945
4 4806 1920 1919 1911
4 2964 5881 5209 2126
4 6135 6145 1411 6154
4 4568 5440 4569 5762
4 2964 5881 2957 6233
4 6209 1383 5177 250
4 2964 5209 6233 5208
4 2624 3092 3034 2939
4 6080 1913 1921 1912
4 3779 4786 4954 4252
4 3777 6101 4059 3498
4 6080 1922 1921 1913
4 5653 1937 1936 1928
4 5365 6046 5440 4368
4 5639 5521 6133 1394
4 6257 6255 6051 6050
4 1931 4757 1401 248
4 5206 5207 5927 4386
4 5675 886 3831 887
4 5675 896 895 887
4 6291 1960 1959 1951
4 2619 2625 4059 3777
4 4334 905 896 152
4 5681 904 895 896
4 3830 887 5675 3831
4 4954 5744 5802 4786
4 4338 1952 1961 1960
4 3312 4386 5891 4530
4 3964 2826 3968 2822
4 5689 1927 1935 1926
4 3126 4335 5152 5151
4 4757 6286 4758 1392
4 4828 1422 1431 1430
4 5729 1945 1944 1936
4 6214 1926 1934 1925
4 3963 3965 3967 5055
4 6032 5457 5479 5478
4 3107 3108 4702 6108
4 6213 1943 1934 1935
4 6292 1954 1945 1946
4 2899 2974 2405 2354
4 6113 1946 1945 1937
4 2494 2499 2511 2512
4 6247 5206 4530 5891
4 2654 2516 2658 2495
4 2511 4680 2499 2510
4 3186 4557 4949 3187
4 6150 1938 1929 1930
4 6289 1930 1929 1921
4 5916 1955 1946 1947
4 6146 1949 4223 1419
4 5655 1929 1928 1920
4 4757 249 1931 1922
4 3267 3346 3265 3213
4 3267 3885 3347 3348
4 6286 1930 1921 1922
4 3275 2860 2391 3884
4 6257 6255 1682 6051
4 6286 1931 1930 1922
4 4921 3884 3885 3095
4 4667 4337 5639 1386
4 5603 6154 1410 1411
4 6132 1931 1939 1930
4 5134 6122 1428 5383
4 6138 1947 1938 1939
4 5691 914 905 153
4 2391 5589 3215 3584
4 4112 1959 155 1950
4 4334 3830 152 896
4 4334 1941 153 1932
4 4601 2851 3263 3773
4 3794 3015 5727 3213
4 3138 4003 3468 3421
4 3784 3468 2640 4003
4 5390 4753 5903 4181
4 2719 2472 2864 2761
4 2641 2642 2644 2647
4 5693 1934 1933 1925
4 2402 3258 2685 2684
4 4735 912 911 903
4 6208 886 5675 895
4 3442 2688 2687 3526
4 5664 4789 885 3606
4 5653 1936 1927 1928
4 4386 5206 4530 5927
4 4829 1431 1440 1439
4 6208 895 894 886
4 4748 429 4690 438
4 2649 5687 2646 2645
4 5134 1958 5383 245
4 5479 1974 1983 1982
4 6255 6050 1768 6051
4 5337 3712 3710 3473
4 5993 5999 1625 1616
4 6287 5738 1980 1981
4 3426 3709 3138 3756
4 6150 1939 1938 1930
4 4386 5407 4388 6293
4 5654 1938 1937 1929
4 3711 3712 5124 5116
4 6145 1403 5520 1412
4 5699 1953 1962 1961
4 3712 3754 4323 5327
4 3712 5327 5124 5116
4 5390 2423 5903 4231
4 5603 6154 4223 1410
4 6187 6168 6172 5807
4 4494 4414 4415 4724
4 6132 1940 1939 1931
4 3288 4494 2521 2421
4 5603 4758 6133 1402
4 6140 5659 4223 1940
4 2795 3285 2410 2983
4 6168 1466 1465 1457
4 3106 4706 3101 3960
4 4386 6293 5927 4530
4 5695 1942 1933 1934
4 5694 1941 1932 1933
4 5681 4334 5691 905
4 2424 5390 2423 2421
4 4415 5390 4231 2514
4 4686 4170 4687 5041
4 5691 4800 1950 1941
4 5709 913 5715 922
4 5694 1942 1941 1933
4 4170 3306 4687 631
4 5695 1943 1942 1934
4 5708 1951 1942 1943
4 5704 913 5709 912
4 4170 4689 5097 4284
4 6230 4338 4800 5708
4 6158 4735 5704 5709
4 6213 1944 1943 1935
4 6294 4575 4547 4488
4 5502 1447 1446 1438
4 4920 4251 1495 6295
4 6296 1965 5478 4989
4 4736 920 919 911
4 5729 1944 1935 1936
4 5097 4170 3306 4689
4 4170 5040 5178 5173
4 2483 3142 3693 3566
4 6296 1965 1956 1957
4 4170 4284 5173 5178
4 6148 1954 1953 1945
4 4109 4115 3775 4912
4 6292 1955 1954 1946
4 3868 3870 3869 5314
4 6297 1967 1966 1958
4 3868 3616 4071 4781
4 5726 1962 1953 1954
4 3868 5314 3869 4633
4 3444 2847 3868 3616
4 6137 2741 4969 2731
4 6140 1948 1939 1940
4 6114 1947 1946 1938
4 4223 5659 1410 247
4 6146 1958 1949 5383
4 6296 6139 1957 1956
4 5726 1971 1962 1963
4 3485 2847 3868 3486
4 2877 3616 3868 2847
4 3394 3439 3666 3703
4 6140 1949 1948 1940
4 4432 3010 4430 4431
4 5134 6297 5383 1958
4 5715 923 922 914
4 4112 155 923 154
4 4431 4430 5260 3944
4 3944 3424 5260 4431
4 4800 1950 1941 1942
4 5704 904 5706 913
4 1953 6148 5726 1954
4 2952 2984 2953 4196
4 4431 3943 3944 3424
4 4432 4399 3942 5260
4 6230 4341 5682 4800
4 4112 5740 5715 5722
4 3010 3227 5318 4430
4 6148 5726 1954 5667
4 3176 3182 3920 3179
4 6149 1944 1952 1943
4 2682 2683 3373 3031
4 6149 1953 1952 1944
4 6294 4575 6298 4615
4 4737 911 4735 912
4 4739 929 928 920
4 6148 1953 1944 1945
4 3180 3920 2698 3384
4 2922 5654 6289 6150
4 1407 1398 4239 5977
4 3181 3384 3920 4207
4 5961 2613 4234 6151
4 2376 2378 4020 3615
4 3495 4825 2821 2820
4 3495 5449 2821 4825
4 6139 1948 1956 1947
4 6139 1957 1956 1948
4 2619 2262 5493 5449
4 6187 5807 5760 5633
4 3851 5493 3495 5829
4 5916 1956 1955 1947
4 6122 1420 1428 1419
4 3577 3154 2261 2259
4 3714 3495 2820 5829
4 6299 4856 4889 4891
4 6146 1957 1948 1949
4 3947 4802 457 466
4 5134 6246 1437 1428
4 4444 4450 3155 3156
4 5582 3498 3497 4058
4 6146 1957 1949 1958
4 1590 5566 227 226
4 5134 1958 245 1967
4 6145 6133 1403 1402
4 6246 1438 1437 1429
4 5741 5733 1969 5740
4 2759 3155 4670 3157
4 5720 931 922 923
4 6291 1951 1959 1950
4 5737 941 940 932
4 2759 4669 3714 2820
4 4112 154 1950 155
4 4384 5645 4390 4388
4 4112 5706 6291 5691
4 5722 1959 1968 156
4 5679 5741 1977 1968
4 4390 2786 5406 4385
4 5756 1988 1987 1979
4 2786 5406 4385 4727
4 4385 4384 5857 5406
4 4598 939 938 930
4 3841 4727 2786 2674
4 5717 5633 5760 5662
4 2581 2957 2480 2956
4 5807 1474 1473 1465
4 6097 1956 1964 1955
4 226 5315 1599 5566
4 2476 2207 2478 2774
4 3313 3914 3672 2236
4 2952 3338 4196 2953
4 3772 6098 4819 4897
4 3618 2772 2275 2915
4 3235 3236 3237 3619
4 2581 2478 2479 2480
4 2884 3879 2898 2891
4 6097 1965 1964 1956
4 1468 4108 1459 1467
4 3898 1424 4881 4328
4 6297 1966 1957 1958
4 2734 5916 6114 6138
4 5478 1974 1965 1966
4 6163 1473 1474 1482
4 5229 1471 1463 1472
4 4827 4829 6160 5671
4 6246 6122 1429 1428
4 3562 3898 6157 4331
4 5458 1967 1975 1966
4 5457 1983 1974 1975
4 4108 2614 4874 4898
4 6031 5457 5735 5479
4 5459 5135 1446 1976
4 3559 3926 4239 4838
4 3926 4639 6125 3559
4 2325 2324 2440 3374
4 5678 950 941 157
4 5740 1968 1959 1960
4 5731 1962 1970 1961
4 2859 3061 3095 3062
4 2797 2794 2434 2326
4 3078 3291 4643 3288
4 5740 1969 1968 1960
4 5719 939 930 931
4 2327 2329 2331 2326
4 2485 2487 3483 5652
4 2513 2424 2517 2519
4 2518 2520 2517 4278
4 3922 5750 1989 1988
4 5758 1971 1979 1970
4 3319 4899 3640 4923
4 5731 1971 1970 1962
4 5602 4699 3035 4474
4 5602 3572 3035 4699
4 5479 1982 1973 1974
4 3572 3035 4699 2520
4 4898 1449 1441 1450
4 4989 1965 1973 1964
4 3045 3572 2520 3035
4 4896 1973 1972 1964
4 6156 1990 1981 1982
4 4879 479 4814 480
4 5676 1955 1964 1963
4 4120 93 1526 1517
4 3035 2905 2906 5578
4 4941 4931 514 4976
4 5478 1966 1975 1974
4 3814 1999 1998 1990
4 5524 5502 1447 1446
4 3790 3794 3795 3791
4 3790 4462 3793 3348
4 5524 5502 6160 1447
4 4575 764 4488 4562
4 3346 3213 4866 3265
4 5135 1446 1976 243
4 3273 4866 5647 5727
4 5612 1492 1491 1483
4 3790 3793 4462 3124
4 3017 5727 5710 4901
4 5458 1976 1975 1967
4 6161 1448 4883 5962
4 5459 1976 1446 4340
4 1599 5566 1590 226
4 5459 1984 1975 1976
4 3814 2008 2007 1999
4 3795 3015 3348 3641
4 5800 5301 5590 3348
4 5800 5301 3348 3793
4 5696 959 958 950
4 5741 1977 1968 1969
4 5732 159 959 158
4 6287 1981 1980 1972
4 2908 4101 3677 5579
4 6186 6173 5718 5755
4 6173 1996 1995 1987
4 3282 930 921 922
4 6300 1978 1969 1970
4 5696 949 5743 950
4 2906 4900 3604 838
4 6300 1979 1978 1970
4 5152 948 947 939
4 5732 6301 5696 5754
4 5151 956 947 948
4 5740 6291 1960 1959
4 6171 1973 1981 1972
4 3046 3035 5578 3572
4 3035 5578 4474 2905
4 5758 1980 1979 1971
4 6287 1980 1971 1972
4 4896 3363 5676 4897
4 3046 2909 3050 2908
4 4952 1491 238 1482
4 6167 1467 1476 1475
4 2908 3677 3050 5579
4 5655 4498 5624 4806
4 3848 3603 3605 3604
4 3282 5709 5720 922
4 5459 1985 1984 1976
4 2906 3604 5578 838
4 5457 1984 1983 1975
4 3769 3672 4527 3916
4 4250 1493 1492 1484
4 2665 2878 2664 5197
4 5711 1992 1983 1984
4 2665 3979 3759 4396
4 4470 5026 4423 4422
4 2244 3759 2289 4394
4 6031 5457 5711 5735
4 5671 6246 2739 4969
4 5717 1994 242 241
4 4425 2290 2537 5405
4 4425 2290 5405 5196
4 3812 2017 2016 2008
4 3769 2286 3913 3733
4 5458 5478 1966 1975
4 2929 3251 3443 4257
4 226 5566 227 2129
4 6187 6168 5807 5633
4 2883 2667 2672 2538
4 5453 2018 2026 2017
4 2664 2881 2290 5196
4 2878 2662 2663 2665
4 5754 968 959 159
4 2881 5211 5196 2880
4 5718 1986 1977 1978
4 5732 6173 1995 1986
4 5718 1987 1986 1978
4 2268 3644 2746 2745
4 5776 967 958 959
4 4164 3922 1989 1998
4 5697 958 957 949
4 2491 2488 2745 2747
4 5750 1980 1988 1979
4 3093 3567 3039 3038
4 5151 957 956 948
4 108 109 4691 402
4 6186 5718 5741 5756
4 2617 3465 4801 4331
4 3262 3645 2621 3261
4 6204 1514 1523 1522
4 3922 1998 1997 1989
4 4575 4547 4488 763
4 4858 1453 4864 4911
4 5668 921 930 929
4 5346 1477 1476 1468
4 2432 3219 2431 3038
4 6166 1484 1483 1475
4 5345 1476 1485 1484
4 2743 5674 902 901
4 6176 2001 2010 2009
4 109 4691 1382 108
4 3261 2266 2621 3262
4 5773 1993 2001 1992
4 3872 973 964 965
4 2225 2860 2228 2391
4 6302 5688 5459 5524
4 5688 5524 5717 4340
4 4896 6171 5479 6098
4 2958 2207 3515 2627
4 4898 4883 4829 1440
4 108 4692 1391 411
4 5937 6198 5095 2039
4 4671 4691 5575 1373
4 5688 1985 1993 1984
4 2713 3534 2704 3146
4 5662 2003 1994 241
4 5760 6188 5761 5807
4 5662 1473 2003 240
4 5717 5662 5760 1994
4 5760 5761 5662 5807
4 2946 2911 2948 2947
4 5786 161 977 160
4 2966 2949 2946 2948
4 6173 1987 1995 1986
4 5774 977 976 968
4 3814 3924 4164 1998
4 5755 1996 1987 1988
4 2946 2911 2894 2893
4 6165 2005 1996 1997
4 5769 966 957 958
4 5732 5696 6173 5743
4 2608 2600 5357 3201
4 2966 2893 3157 2967
4 5755 1997 1996 1988
4 3158 2946 4122 5757
4 3359 957 966 965
4 3924 2006 1997 1998
4 3207 3565 3819 2607
4 5744 3090 4786 4954
4 6165 2006 2005 1997
4 108 4691 411 402
4 3778 3086 5742 3090
4 5779 982 4998 4919
4 1493 4242 1502 4249
4 4739 6077 5728 928
4 3664 3893 5545 5058
4 4575 772 4615 763
4 2624 2838 2623 3092
4 4786 4351 3090 5745
4 4786 5539 4351 5802
4 5761 5613 2011 2012
4 3033 4351 3664 2727
4 5334 5761 5613 6207
4 3091 2943 5539 4560
4 2348 3892 3244 3803
4 5884 5773 2001 1992
4 3892 6185 6215 3803
4 5095 236 2039 237
4 5760 1994 2002 1993
4 6215 6303 3244 3803
4 5761 6126 2003 1473
4 6188 2010 2001 2002
4 5760 2003 2002 1994
4 6215 3244 3809 3835
4 6163 1474 1483 1482
4 4121 5777 3587 6176
4 5717 5524 1455 4340
4 5917 2027 2018 2019
4 6207 2019 2010 2011
4 6301 2004 1995 1996
4 6215 3244 3835 2943
4 6162 984 975 976
4 5678 1977 158 157
4 6301 2005 2004 1996
4 4188 5786 6304 2013
4 6162 985 984 976
4 6305 2013 2004 2005
4 3813 2017 2008 2009
4 6215 6191 5803 3835
4 6215 5539 5803 6192
4 4259 983 974 975
4 2658 2508 2516 3990
4 2509 3990 3989 2512
4 4961 961 4824 952
4 2513 2518 2514 2516
4 5786 2004 6305 2013
4 2518 4278 4651 3323
4 6178 4916 1489 1488
4 5452 2034 4086 2025
4 2563 3837 3995 3674
4 2518 3770 4651 4278
4 3989 2512 4651 4546
4 2509 4949 3991 3187
4 3924 2007 2006 1998
4 2513 3045 2515 2527
4 6304 2022 2013 2014
4 2008 4047 3813 2000
4 4949 4536 4535 2512
4 3375 3377 2487 3484
4 3379 4231 4288 3381
4 4249 1502 1494 1503
4 6176 2009 2000 2001
4 6079 6209 6080 1913
4 3377 4965 2487 3999
4 3668 3097 4866 3265
4 108 411 1391 107
4 4047 5777 6156 4165
4 5735 1982 5479 1983
4 4920 5008 6196 6295
4 5390 2423 4231 2517
4 2484 2493 2491 2267
4 2746 3644 3268 3647
4 5917 2019 2028 2027
4 3668 3265 4866 3669
4 3270 3272 3271 901
4 6188 2011 2010 2002
4 6126 240 2012 2003
4 2270 2745 2621 3644
4 5968 1519 1528 1527
4 2746 3644 3646 3867
4 5761 2003 2011 2002
4 5761 2012 2011 2003
4 2487 4965 3483 5658
4 5612 1483 1491 1482
4 5612 1500 1491 1492
4 5613 2012 2020 2011
4 2486 5652 3670 3606
4 2487 5652 5658 3483
4 3427 4458 3436 3433
4 4188 5786 161 977
4 3469 2685 3799 3600
4 5815 1013 1004 164
4 5759 4521 2040 6306
4 5804 992 983 984
4 3442 4568 3441 3938
4 6305 2014 2013 2005
4 5108 5107 5515 5115
4 4169 994 993 985
4 5789 5797 6306 2031
4 5108 5512 5515 4459
4 4612 5586 6110 6111
4 4087 2015 2014 2006
4 5797 5783 5785 2032
4 3812 2008 2016 2007
4 5164 2007 2015 2006
4 4612 4614 4228 3845
4 5164 2016 2015 2007
4 4612 4228 4614 4674
4 4612 4607 4614 3844
4 4259 5804 983 984
4 5797 2032 2031 2023
4 4612 4610 4613 6278
4 4528 3069 2343 6239
4 5782 4946 5483 4169
4 6079 5616 1903 1912
4 4528 5901 6307 5985
4 4528 2372 4529 5906
4 5778 2010 2018 2009
4 3813 2018 2017 2009
4 4528 6307 5906 4529
4 4528 5901 2341 5906
4 2251 2536 2537 2290
4 3249 5948 5875 6308
4 5093 5095 237 1500
4 5453 2026 2018 2027
4 4807 2027 5918 5739
4 4366 1480 1471 1472
4 3249 4847 5938 5392
4 4973 1520 1519 1511
4 3252 5824 3251 6308
4 6207 2020 2019 2011
4 3252 6308 5875 5811
4 6309 6310 2057 4265
4 4807 2027 2036 2035
4 2285 3166 2553 3514
4 5612 1482 6163 1483
4 5613 2021 2020 2012
4 2779 2871 2870 2875
4 3448 5222 3854 3998
4 5094 5614 2029 5095
4 2891 4056 3856 5795
4 2550 2927 2926 3880
4 5100 2028 2029 2037
4 4945 1004 1003 995
4 5759 164 1004 163
4 3879 2898 5787 3882
4 5783 2032 2023 2024
4 4519 1020 1011 1012
4 6304 2023 2022 2014
4 4946 1003 1002 994
4 5775 986 5771 985
4 5804 992 984 993
4 4085 2023 2014 2015
4 2278 2554 2914 2550
4 3879 2898 5790 5787
4 3165 2917 4697 4766
4 6192 6185 4968 6215
4 4091 2837 5453 3812
4 4085 2024 2023 2015
4 5166 2015 2016 2024
4 3244 3809 3802 6303
4 2291 3522 2293 2292
4 3144 4826 3863 4825
4 982 5780 991 983
4 3244 3776 3809 3835
4 4519 1021 1020 1012
4 3245 3776 3244 3774
4 4086 2024 2025 2033
4 3245 3244 3809 3802
4 2017 5453 5452 2026
4 5045 5061 5747 4860
4 3240 3245 3636 3115
4 4164 3592 4988 4165
4 3240 2809 2944 3212
4 3639 5747 4928 944
4 4047 5777 4165 4988
4 4243 1503 1512 1511
4 4199 6203 1520 1529
4 4243 6190 1511 1512
4 3650 3042 4592 4593
4 3038 5518 3093 3661
4 4376 3562 3661 4330
4 2479 5004 2584 5003
4 5614 2029 2028 2020
4 5612 1501 1500 1492
4 4994 3521 551 4163
4 3661 5519 3042 4593
4 3255 2919 3935 3254
4 2630 4000 4001 5891
4 5094 2021 2029 2020
4 2707 2755 2710 2750
4 5744 5746 6190 1512
4 4242 1502 1511 1510
4 6198 2048 2047 2039
4 5094 5613 2021 2020
4 2709 2727 2813 2725
4 5060 2710 3690 2856
4 2710 2784 2239 3690
4 5100 2046 2037 2038
4 5095 2030 2039 6198
4 5096 1501 1509 1500
4 2710 3690 2856 3607
4 5797 2031 2022 2023
4 2755 2240 1540 2239
4 4169 4946 993 994
4 5027 991 5780 992
4 4521 5785 4520 2041
4 2237 4009 2239 2238
4 5759 163 2031 164
4 6306 2041 2040 2032
4 5783 2024 2033 2032
4 2238 2239 2240 2755
4 5826 5873 2067 2058
4 3982 5778 6188 6207
4 2601 3576 3564 3574
4 4086 2025 2034 2033
4 2469 2303 3482 3056
4 5120 5780 992 4446
4 6311 2033 2034 2042
4 6084 3539 5559 3540
4 5812 5873 2068 2067
4 4517 1002 4946 1003
4 2477 2481 3694 2482
4 4002 5449 4826 4825
4 2494 2381 2866 2507
4 4199 1530 1529 1521
4 5746 1521 1520 1512
4 4810 2034 6311 5452
4 4010 3651 5000 4271
4 5669 4352 5781 3326
4 2499 2500 2501 2494
4 5778 2009 6176 2010
4 5095 1500 1509 236
4 2501 3538 2499 6033
4 2498 3537 3536 6084
4 2038 6198 2030 2029
4 5612 5096 4242 5615
4 2501 4795 4992 6033
4 4940 5802 5744 1513
4 6198 5095 6194 5939
4 6312 2042 6311 2043
4 3577 3497 2260 2261
4 2595 2606 2600 2599
4 5759 4521 6306 4945
4 4938 4939 3481 3480
4 6306 2032 2040 2031
4 2894 5844 1043 2913
4 5854 1058 1049 169
4 5640 1030 1021 1022
4 2595 2606 3573 2600
4 2453 2986 2987 2463
4 5856 6313 5431 1045
4 2788 4393 4386 4388
4 5785 2042 2041 2033
4 5636 2059 2050 2051
4 2784 2953 4007 4196
4 3337 3345 3338 5070
4 630 5097 4170 3306
4 4450 1019 1018 1010
4 5851 169 1049 168
4 6312 2051 2042 2043
4 2557 2560 2563 3535
4 4701 2964 3878 3515
4 6311 2043 2042 2034
4 4945 994 5771 995
4 4515 4946 4516 4517
4 4052 4767 3749 5000
4 4686 4170 5178 4689
4 6215 2943 3835 5539
4 6205 2037 2045 2036
4 5100 2038 2037 2029
4 5228 5813 6216 5088
4 3576 3842 4446 3883
4 6212 2522 2525 2523
4 5837 2045 2054 2053
4 3240 3115 3723 3244
4 5967 1537 1536 1528
4 5612 4250 1501 1492
4 3635 3461 3631 4094
4 6180 2055 2046 2047
4 6210 1538 1537 1529
4 6303 3809 4245 6191
4 6314 4266 6310 5967
4 5100 2047 2046 2038
4 5937 1509 1518 235
4 6198 2038 2039 2047
4 3802 3809 4245 6303
4 3892 5058 3664 5539
4 6215 6191 3809 6303
4 5958 1510 4973 1519
4 4265 235 2057 2048
4 5967 4266 1527 1536
4 5849 5187 1586 1587
4 5591 3861 5212 3693
4 4516 4521 6306 5785
4 3433 3436 308 4458
4 5832 5812 2076 2067
4 5832 5838 5851 5867
4 4519 1012 4195 1021
4 3436 4457 5512 3431
4 5821 1038 1029 1030
4 4522 2058 2049 2050
4 4878 3970 3436 4472
4 3970 4208 4472 4878
4 5638 1029 1020 1021
4 3161 5114 1578 1579
4 3436 308 4458 4472
4 4520 2051 2050 2042
4 3436 4472 3971 308
4 5638 5429 1020 1029
4 3600 5512 3436 3971
4 3189 3188 5042 3005
4 6312 2052 2051 2043
4 5830 5165 2061 2070
4 5873 2068 2067 2059
4 3188 3585 5042 3006
4 4940 5802 4252 6190
4 4921 3006 3004 5587
4 5042 3005 3006 5043
4 6212 2053 2052 2044
4 4886 5257 1565 5806
4 3461 3631 5394 3585
4 3367 2728 5961 2616
4 6205 2055 2054 2046
4 6210 5967 1528 1537
4 2392 3188 3007 2391
4 4826 5909 5449 5831
4 5430 5429 5428 5432
4 6312 4520 2042 2051
4 4375 4379 3465 3063
4 6206 2063 2062 2054
4 3062 3189 3005 3007
4 3811 5917 5453 2018
4 6281 6310 2066 2065
4 2240 1540 1539 1531
4 3460 3464 3462 6002
4 5216 2063 2054 2055
4 4070 4808 3777 3498
4 6312 4520 5482 6311
4 3212 3241 3718 3723
4 6309 2048 2056 2047
4 5539 4351 3091 4786
4 3651 5411 4008 5087
4 3091 3779 3032 2939
4 5215 2064 2055 2056
4 2624 3032 2932 2625
4 6309 2057 2056 2048
4 4057 4010 5620 5622
4 5100 6180 6205 2046
4 6309 2056 5215 6180
4 3811 2837 5453 4484
4 3649 5806 1573 1564
4 5325 6258 1697 4253
4 5826 4194 166 1022
4 4193 1013 4195 1012
4 5821 1039 1038 1030
4 4522 2059 2058 2050
4 2525 2052 2060 2051
4 5873 2067 2058 2059
4 5117 3758 5454 5122
4 5117 4314 5121 1705
4 5834 1049 1048 1040
4 5432 1037 1028 1029
4 5117 5122 5302 6258
4 5636 2060 2059 2051
4 5876 2104 5879 2113
4 4002 4060 4826 5449
4 4010 4271 2238 5411
4 5117 5451 4253 5325
4 2525 2061 2060 2052
4 2523 2062 2061 2053
4 5830 2062 2071 2070
4 5117 3758 5116 5451
4 2240 1540 1548 1539
4 5215 2064 5626 5216
4 4009 5411 4010 2238
4 2263 2267 3899 2272
4 2730 2735 3218 2728
4 5582 2524 2523 5493
4 5635 2069 2068 2060
4 6206 2054 2062 2053
4 3038 4593 3661 3042
4 3130 1551 2830 1560
4 3095 3567 3039 3093
4 5905 5257 3648 3652
4 5765 6057 4835 6041
4 4271 1539 1547 1538
4 5416 3939 5765 3527
4 5366 5365 5764 5765
4 6276 2072 2071 2063
4 5623 2074 2073 2065
4 6310 2057 2065 2056
4 3651 1547 4271 5411
4 5623 2073 2064 2065
4 3652 1556 1555 1547
4 5765 5764 5366 6057
4 2639 5347 3659 5962
4 4271 4199 1539 1538
4 3494 1251 1260 1259
4 233 234 2066 4266
4 2263 2272 2271 2267
4 3622 3658 3489 3591
4 6310 2066 2065 2057
4 5883 3489 3658 3591
4 6315 5354 6314 1545
4 4014 1253 6034 1262
4 6281 2074 2065 2066
4 3652 1547 1555 1546
4 2611 6151 3018 4801
4 5832 5826 167 1031
4 3658 3659 6031 6032
4 5852 1057 1048 1049
4 5867 2085 5851 2076
4 5814 2069 5848 2078
4 5814 5635 5848 2069
4 4151 5162 6313 5161
4 5812 2076 2067 2068
4 4237 1047 1046 1038
4 5814 2077 2068 2069
4 5853 1056 1047 1048
4 3088 1539 1531 2240
4 2729 4827 2739 2731
4 5165 2070 2069 2061
4 5431 1046 1045 1037
4 5867 5868 2085 2086
4 2730 2735 4926 4970
4 3564 3574 3576 4922
4 5433 1028 1036 1027
4 5831 2523 5582 2062
4 5406 5644 5645 1073
4 3279 5978 3281 3280
4 5643 1065 1064 1056
4 2237 1558 1557 1549
4 2073 5623 2082 2074
4 2089 3861 2081 2080
4 4887 1566 1557 1558
4 2784 5410 4009 2237
4 2851 3919 4262 3925
4 3490 3810 3659 2636
4 4057 5593 4060 5626
4 3622 3591 3593 3796
4 2220 3593 3622 3489
4 3214 2861 4738 3264
4 104 105 6141 438
4 3260 3269 3772 4925
4 6281 2066 2075 2074
4 5098 1554 1546 1555
4 4803 6141 1418 1409
4 5098 3652 1555 1546
4 4748 6141 105 438
4 2231 2288 2762 2764
4 5812 2077 2076 2068
4 6200 5879 5876 6201
4 4686 4689 3136 4170
4 5832 2067 2076 168
4 5854 5851 169 1049
4 3113 3114 3541 2288
4 2762 3112 2764 2288
4 2910 4464 2630 3166
4 5860 173 1085 172
4 2580 2583 2479 2584
4 2454 2465 2453 2457
4 3000 2396 2317 3259
4 5834 1039 5838 1040
4 6216 2079 2087 2078
4 5138 2080 2071 2072
4 3294 3482 3300 3298
4 2305 2303 4412 3334
4 5813 5814 2078 2077
4 4200 4000 5206 2124
4 5488 5009 5033 4994
4 5089 6316 4154 5088
4 5643 1064 1055 1056
4 6317 2121 2112 2113
4 4766 6181 2957 6231
4 2246 2278 2914 2550
4 2237 1549 2239 1558
4 4886 1565 1556 1557
4 5813 2078 6216 2087
4 2583 2582 2955 3170
4 4697 6181 6182 6061
4 6076 6225 1583 1584
4 5835 1062 1053 1054
4 2585 2584 5214 6280
4 2477 2479 5004 5220
4 6315 1537 1546 1545
4 1572 229 5056 1563
4 5021 2101 2100 2092
4 5642 1572 1581 228
4 5057 6076 1584 6225
4 2464 2453 2463 2986
4 6223 2075 2083 2074
4 5160 2964 3878 4701
4 6224 2083 2092 2091
4 4577 6214 3295 3624
4 104 438 6141 447
4 4577 3295 6214 6213
4 5611 5334 6207 3982
4 4577 6213 5682 5695
4 3586 6163 6172 6166
4 5334 6166 5619 5612
4 4772 104 1418 6141
4 2621 5682 4577 4984
4 4577 5729 6213 3624
4 5854 5868 2094 2085
4 5885 1075 1066 1067
4 5867 2077 2085 2076
4 4389 5850 5885 5646
4 6316 2095 2086 2087
4 4577 5729 4984 6149
4 5813 2086 2077 2078
4 5645 5409 1082 1083
4 4577 6149 5682 6213
4 4518 4482 4481 5428
4 5256 1084 1083 1075
4 6247 2132 5206 2133
4 6216 2088 2087 2079
4 6318 5981 6243 5627
4 5470 4825 3859 5909
4 3721 3704 3696 3698
4 2549 3068 4591 3853
4 3412 3704 3724 3725
4 5876 2113 5878 6317
4 6319 2088 2079 2080
4 5863 1085 1084 1076
4 3414 3448 3412 3721
4 5644 1065 1073 1064
4 3862 2089 2097 2088
4 4686 3731 5041 4687
4 4197 4196 1567 4198
4 5022 4623 2093 2092
4 2846 3486 2930 2847
4 5809 5010 5011 1008
4 2549 3856 3853 4591
4 3413 3704 3412 3725
4 6083 1903 6079 5616
4 6319 2089 2088 2080
4 5252 6320 6241 1603
4 6200 5859 4389 5850
4 3129 2090 2099 2098
4 3212 2348 3805 2349
4 5623 2083 2082 2074
4 3861 2090 2089 2081
4 4888 1575 1574 1566
4 3189 3460 2937 2300
4 5022 2092 6224 4623
4 5692 5021 3649 3691
4 3581 3789 4172 3775
4 2839 3229 2840 3474
4 4349 231 230 2093
4 3022 3021 3372 3182
4 104 105 1418 6141
4 2637 3789 3807 4172
4 2084 2092 4623 2083
4 3649 1573 1572 1564
4 3965 4649 4626 4630
4 2934 2935 2933 6085
4 5642 5232 2102 2111
4 2842 2529 2299 2528
4 2935 2933 6085 3630
4 5899 1093 1084 1085
4 2934 4948 2935 6085
4 2834 4809 3852 4092
4 5868 2086 2094 2085
4 5868 2095 2094 2086
4 2842 2841 2839 2529
4 2837 5453 4484 3903
4 6202 2096 2104 2095
4 5645 1083 1082 1074
4 3173 3356 3357 3354
4 6316 2096 2095 2087
4 4050 5130 6241 6134
4 5088 2097 2096 2088
4 5175 6209 6079 5550
4 3361 3496 3871 3501
4 5138 2072 2081 2080
4 3361 3871 3873 3842
4 3669 5727 3273 5728
4 4283 2144 6321 2153
4 5550 6083 1904 6079
4 5856 5841 5839 1055
4 6218 2082 2090 2081
4 4528 3069 6239 5913
4 3861 3859 2080 2089
4 3852 4083 3843 3358
4 3354 3852 3361 3358
4 4229 4090 4629 6100
4 4213 2108 2116 2107
4 5089 2106 2105 2097
4 6202 2105 2104 2096
4 3862 2098 2097 2089
4 2885 2668 2442 5791
4 6084 3382 3180 3385
4 6084 6179 3180 5559
4 2372 1111 1110 1102
4 3367 4331 3018 5961
4 5021 3693 6211 3691
4 4693 4611 1345 1354
4 4441 3906 4136 4436
4 3536 4992 6169 4636
4 4229 384 111 4230
4 3536 5870 6084 3537
4 4441 4435 3906 4436
4 3613 1582 5570 1581
4 5022 4623 4349 2093
4 5570 1590 1582 1591
4 2100 5169 2109 2101
4 3536 6084 3385 3382
4 3473 3472 3421 3468
4 5232 2102 2110 2101
4 2640 3138 3139 4003
4 3613 1573 1582 1581
4 1608 6322 5315 5111
4 2566 4133 2567 3551
4 6229 1600 1599 1591
4 3614 1574 1583 1582
4 2394 2688 3662 3000
4 3668 3647 3669 4866
4 6201 2104 2103 2095
4 5006 5005 5092 597
4 4356 5869 171 1067
4 3030 2644 3020 3056
4 5899 5861 5911 1094
4 5879 2113 2104 2105
4 4850 2156 2164 2155
4 6241 1612 1611 1603
4 6323 1610 1601 1602
4 5245 5243 653 652
4 3941 4065 5687 6043
4 3469 3470 3798 3799
4 2556 3980 2732 2339
4 3128 2109 2118 2117
4 5876 2112 2103 2104
4 5638 1020 5429 5799
4 3129 2098 2099 2107
4 6317 2122 2121 2113
4 2855 4670 4151 5161
4 2106 5234 2107 2098
4 2218 3840 2214 2787
4 4205 2118 2126 2117
4 5406 1064 1073 1072
4 6323 1611 1610 1602
4 3840 4151 2855 4438
4 3239 5089 4154 5088
4 4153 5089 3239 3862
4 5570 5651 5566 6229
4 6225 1592 1583 1584
4 2372 1102 1110 1101
4 3239 3862 5088 6319
4 3239 6319 3860 3862
4 4347 2137 2136 2128
4 5232 2102 2111 2110
4 3806 4503 2573 2572
4 1176 68 1185 5373
4 3239 6216 5471 3864
4 3239 6216 5228 5471
4 3840 4438 5227 4151
4 5350 5351 706 697
4 3614 1573 1574 1582
4 5860 4356 6317 2112
4 5727 4738 3669 3214
4 4497 4499 4500 4806
4 2580 3928 4764 2986
4 5202 4500 6128 4496
4 2343 2148 6239 2149
4 5876 2113 2112 2104
4 4170 631 5041 640
4 5914 1101 1100 1092
4 5201 2320 5202 2801
4 2320 4500 2329 5201
4 4202 2115 2114 2106
4 5256 1074 5646 1075
4 5878 2114 2122 2113
4 6323 5214 2585 5221
4 4500 2320 4496 5202
4 5988 1637 5190 1646
4 5201 4500 6128 5202
4 3991 3187 4558 3992
4 4143 5328 1116 5495
4 6222 1585 1576 1577
4 5934 6061 6245 6237
4 3443 5343 3743 3745
4 2411 2382 3019 2408
4 2513 3045 2527 2520
4 2585 4764 6323 5221
4 4200 2125 2124 2116
4 3128 2117 2108 2109
4 5899 5256 5863 1084
4 4743 2511 3990 2508
4 5206 2132 2123 2124
4 3232 3800 2363 3617
4 5214 1610 1609 1601
4 4360 1600 5214 1609
4 3016 5716 3642 3315
4 3017 5710 3016 4876
4 5213 1600 1591 1592
4 5315 1599 1608 225
4 3122 3120 3133 5716
4 3016 5727 6077 5710
4 3991 3989 4537 4536
4 2985 1576 6105 4198
4 5171 1592 6225 5213
4 2900 3615 3612 2902
4 4346 2127 2118 2119
4 5232 2119 2110 2111
4 5372 5373 1176 1185
4 3611 2903 2902 3685
4 5232 2120 2119 2111
4 227 5566 2120 2129
4 5651 2119 5232 2120
4 5315 4360 6229 6322
4 5860 5861 2121 5862
4 3615 2902 4063 3612
4 5273 3684 3681 5274
4 5911 5861 174 1094
4 5935 177 1121 176
4 2341 5901 1103 1102
4 5256 1075 5863 1084
4 4028 2864 4293 3298
4 2391 2392 2859 3095
4 5927 2132 2131 2123
4 6318 2143 2151 2142
4 2404 2652 2410 2413
4 5847 1109 1100 1101
4 2409 2411 4020 4124
4 2408 4062 4124 2409
4 2713 3534 4350 2828
4 3534 3146 3660 3621
4 5256 5645 1083 5409
4 6324 5272 4501 5349
4 5160 2125 2116 2117
4 6247 2133 2141 2132
4 2848 3607 2829 2713
4 5913 5985 5297 2140
4 2987 4764 6320 4049
4 2354 3992 3292 3828
4 5132 1619 1610 1611
4 3291 3650 3408 2447
4 5329 1106 1097 1098
4 5132 1620 1619 1611
4 4414 3991 4558 3290
4 2520 2527 5305 3572
4 6290 2125 2133 2124
4 4346 2128 2127 2119
4 2514 5390 4231 2517
4 3449 1190 5066 4359
4 3110 3108 3763 2800
4 2799 3077 3292 3288
4 6325 2145 2137 2146
4 5160 2126 2125 2117
4 2799 2798 2434 2449
4 5988 4123 5460 1628
4 2129 5566 2120 5651
4 6239 2149 2148 2140
4 5881 2135 2126 2127
4 1576 2990 2985 1584
4 2513 2520 2517 2518
4 5651 2120 2128 2119
4 4360 5111 1608 5110
4 69 713 5373 714
4 5651 2129 2128 2120
4 5385 5373 69 713
4 226 5315 2129 2138
4 5110 1617 1608 1609
4 4689 3583 5864 5178
4 2185 3900 2176 3729
4 5332 5347 2639 3807
4 2614 6151 4874 4898
4 4388 5644 5256 5645
4 4874 4108 1450 4110
4 5862 2130 2121 2122
4 2343 2158 2157 2149
4 4898 4108 1450 4874
4 3061 3093 3004 3063
4 3464 5043 3004 3005
4 5209 2134 2125 2126
4 5945 5913 2149 6239
4 5206 2133 2132 2124
4 5460 1629 1637 1628
4 6321 2145 2153 2144
4 6226 1605 1614 1613
4 5133 1620 1628 1619
4 3004 3946 3093 5587
4 5240 1642 1651 1650
4 4384 5203 4385 5857
4 5749 1119 5910 4276
4 3851 5165 5830 5848
4 5913 2149 2140 2141
4 6290 2134 2133 2125
4 3093 3094 3095 5587
4 6233 2135 2143 2134
4 5980 2134 2142 2133
4 3558 3661 3562 4330
4 5566 5315 1599 6229
4 4376 3948 6142 6326
4 5209 2135 2134 2126
4 5246 5192 1079 1070
4 5997 2159 2150 2151
4 5518 3093 3946 3094
4 4375 3562 4379 3063
4 4376 3661 5518 5519
4 4347 2128 2136 2127
4 2964 5208 6233 5974
4 6241 4764 5221 6323
4 6241 4764 6134 6320
4 6325 2145 2136 2137
4 3661 3042 5519 4330
4 6322 2129 2137 2128
4 3076 3043 3044 4995
4 2431 3043 2594 2439
4 4360 5111 6322 1608
4 3093 3562 3063 3557
4 6327 2137 2138 2146
4 5315 1608 5111 225
4 3408 4592 4593 3650
4 3291 3408 3650 4643
4 2514 4494 4415 5390
4 3078 3289 3288 4643
4 5985 2139 2130 2131
4 5911 5915 5901 1103
4 3291 3043 3079 4643
4 4657 4204 1120 1129
4 4327 3076 3084 4995
4 4592 3079 3043 4643
4 4528 3734 4529 2372
4 2928 2438 2434 3081
4 2328 2800 2320 2801
4 3194 1118 1126 1117
4 2770 2327 2771 2328
4 5314 1206 1215 1205
4 3260 4925 3772 3771
4 6232 1633 1642 1641
4 3789 2390 4172 2637
4 3669 5727 4866 3273
4 2674 2218 2786 3841
4 6231 2136 2144 2135
4 2331 4500 2329 2320
4 4045 1182 1191 1181
4 6233 2144 2143 2135
4 2370 5910 3722 5749
4 6007 1218 1219 1228
4 5945 2158 2149 2150
4 4503 1184 4465 2572
4 3656 3849 2193 1166
4 2758 2570 2757 3327
4 5328 3762 5329 2663
4 2671 2592 2200 2569
4 6181 6321 6061 5942
4 5456 1613 6226 1622
4 5219 4347 6231 5881
4 3731 5153 4506 5170
4 6318 2152 2151 2143
4 6245 2154 2145 2146
4 5245 653 5247 662
4 2499 3538 5141 6033
4 2997 3595 3590 3589
4 3768 4777 5290 5822
4 3383 1220 1210 1211
4 3383 3052 1211 3224
4 5915 2139 2148 176
4 6239 2148 2139 2140
4 3057 2714 3589 2718
4 2721 2305 2425 4716
4 5935 4655 2371 4656
4 5947 1139 1138 1130
4 2305 4412 2642 3333
4 3377 3999 4811 3376
4 4592 2310 3079 4720
4 3052 196 1211 1202
4 3075 3083 4327 3084
4 3213 3669 5727 4866
4 3322 2421 3405 3289
4 5847 5749 1109 1110
4 6242 2161 2152 2153
4 2620 4970 4925 3261
4 3030 2647 6104 4078
4 6070 5686 2645 5463
4 5933 5110 5214 4039
4 6321 2154 2153 2145
4 6070 4631 2645 2642
4 6070 2645 5496 5463
4 6070 5686 2647 2645
4 3066 2168 2159 2160
4 4123 4039 5132 1619
4 3447 4072 3720 3416
4 5997 2160 2159 2151
4 6318 2151 5946 2142
4 2296 3232 3617 3489
4 3551 4731 4434 5498
4 2721 2722 2308 3334
4 4871 4869 1644 1635
4 3383 1211 2754 1220
4 4869 1627 5988 1636
4 2414 2972 2415 2417
4 4851 2147 2155 2146
4 4869 1636 1635 1627
4 6233 6321 2144 6231
4 2314 2568 2723 2567
4 5109 4850 4870 4851
4 4869 5988 1645 1636
4 2567 2568 3551 4133
4 4850 2156 2165 2164
4 4868 222 2165 223
4 3551 4731 5498 5398
4 2343 2149 2157 2148
4 2568 3752 3551 5500
4 6328 4657 5947 4204
4 4109 5346 5347 1467
4 4655 2157 2343 2158
4 6299 5955 4094 4093
4 3695 1136 1128 1137
4 6299 5047 3462 5394
4 4655 2167 2166 2158
4 5816 3744 3743 3745
4 5886 2167 2158 2159
4 6299 4094 4889 5394
4 6299 5229 4910 4856
4 5945 2159 2158 2150
4 5947 1130 4654 1139
4 3728 2176 2167 2168
4 4109 1468 5346 1467
4 5945 5886 2343 2158
4 5963 4714 1173 1172
4 4657 4204 5910 1120
4 5886 2168 2167 2159
4 3729 2175 2166 2167
4 3548 4043 5734 4672
4 5734 4618 5964 4672
4 3396 1219 1218 1209
4 2825 2899 2355 2974
4 4634 5990 5279 5369
4 4297 2171 2170 2162
4 6254 2164 2173 2172
4 4108 4109 1468 4110
4 6252 2163 2171 2162
4 3828 4558 3827 2354
4 6251 1676 6017 1675
4 5214 5110 1609 4039
4 6027 6047 1239 1248
4 5734 4041 4616 4043
4 4616 3832 3827 5734
4 4110 4108 1459 1468
4 3451 3372 3452 3788
4 5942 2163 2162 2154
4 6252 2163 2172 2171
4 6245 2155 6237 2154
4 4183 5369 1195 1204
4 3224 1201 1211 1210
4 3183 3454 3452 3178
4 3880 5460 3882 5988
4 6023 2183 2174 221
4 4138 4471 4666 4137
4 5988 4123 1628 1627
4 3179 3454 4576 4137
4 5109 4850 4851 2156
4 2956 4346 5881 4205
4 4576 3179 5477 3178
4 3463 4110 4117 4116
4 3454 3452 3178 4576
4 3454 4562 3455 4576
4 3454 4666 4037 4562
4 2254 4670 2818 3157
4 3746 2812 2618 4002
4 2609 2597 2622 2595
4 4772 1427 6143 1418
4 5954 5423 180 1148
4 3656 4662 1165 1174
4 3356 3474 2632 3173
4 5408 1174 1183 1173
4 3857 2161 2169 2160
4 4772 4759 447 6141
4 2832 3475 3501 3491
4 3728 2168 2177 2176
4 4109 5346 3807 5347
4 2345 2349 2700 2347
4 4772 103 447 456
4 5929 2172 2180 2171
4 3655 686 5391 4127
4 5670 1924 3561 1915
4 5460 1638 5190 1637
4 4062 4063 4955 4742
4 4772 447 4776 456
4 4772 104 1427 1418
4 2412 4740 4955 2801
4 5988 1636 1637 1645
4 4955 5380 4957 2766
4 3854 4036 3900 3855
4 2409 2867 3615 2378
4 2766 5380 4957 2803
4 3721 3726 3698 3727
4 5270 6006 1217 5352
4 3721 3716 3715 3858
4 5670 6109 5693 1925
4 6329 2182 2173 2174
4 2442 6249 1654 3978
4 4871 2165 4850 4868
4 4871 222 4868 1635
4 4872 2165 2174 2173
4 6329 2183 2182 2174
4 3716 2340 3722 3065
4 5423 4654 179 1139
4 3721 3698 6328 3727
4 3068 3853 3067 4591
4 5947 1139 5953 1138
4 3656 4503 1174 1175
4 3541 3618 2772 2275
4 4503 1184 1183 1174
4 3064 3065 2342 3066
4 4001 5208 5974 6244
4 3715 3717 3065 3066
4 5670 3301 3959 3297
4 6307 5906 4529 5255
4 4528 5906 6307 5901
4 6293 4530 5407 6307
4 4386 6293 4530 5407
4 3195 5749 3722 4276
4 4818 465 4791 4802
4 3858 2168 2169 2177
4 4528 6307 5297 5985
4 6307 6293 5255 5407
4 4830 2436 1672 6015
4 6307 6293 5862 5899
4 5435 6110 5606 4610
4 5250 5294 4725 5167
4 3028 5251 5125 6072
4 2445 2669 6329 3978
4 3052 2198 196 195
4 5125 4725 4332 5251
4 3028 4025 4023 5250
4 6251 5356 1667 1666
4 5250 4025 5294 5167
4 3470 5361 5902 5337
4 6005 2181 2172 2173
4 3798 5107 3395 4508
4 4872 6023 6249 6329
4 2669 2192 2191 2183
4 5191 1654 1646 1655
4 4773 102 103 456
4 3153 2181 6005 2190
4 3153 2189 2180 2181
4 3710 3470 5337 3473
4 6005 2173 2182 2181
4 3435 3434 3600 3436
4 2670 2201 2200 2192
4 2435 4831 219 2192
4 2640 2587 2401 3451
4 3729 2175 2176 2184
4 4773 1436 6142 1427
4 2686 2970 3945 3013
4 4465 1184 193 2572
4 3729 2176 2185 2184
4 3657 2185 2194 2193
4 3526 4463 3939 3527
4 4568 5762 3938 3527
4 5963 5408 1182 1173
4 3900 2185 2176 2177
4 5670 3301 6109 4804
4 5438 5972 4011 6045
4 3442 3440 4568 5438
4 2573 2195 2194 2186
4 3284 2195 3419 2196
4 3418 1200 1210 1209
4 3726 3858 3728 3721
4 3284 1193 1184 194
4 3937 5673 6055 6271
4 4773 4802 465 456
4 2534 2846 2538 2691
4 5670 3561 3959 6285
4 3413 3248 3250 4022
4 2845 3444 2930 3410
4 3486 4628 5998 4627
4 2915 4048 2916 2917
4 4773 103 1436 1427
4 2583 5128 2585 3170
4 3170 5128 4050 2917
4 2959 5974 2955 4001
4 3514 3167 6153 3166
4 5974 6181 2955 4001
4 3516 1698 1689 1699
4 4766 6182 5219 5128
4 5989 202 203 1235
4 2261 3713 3497 3851
4 5670 6109 1916 4804
4 3748 2931 2335 2751
4 4058 3498 3497 2619
4 1775 6050 1776 1767
4 2595 2596 2622 2605
4 3497 2522 3499 5582
4 4773 102 1436 103
4 2329 5629 5705 4491
4 5482 2524 3499 3500
4 3713 4514 2524 5634
4 3497 2524 3499 2522
4 4082 4091 3474 2834
4 4773 4776 456 4772
4 2700 3092 2347 3475
4 2351 3478 2352 5707
4 4773 102 4791 1436
4 2218 2456 2562 3841
4 4661 4664 1147 5953
4 1650 5360 1659 5244
4 4450 3154 5429 5799
4 5316 4107 683 5335
4 4256 1195 4183 5369
4 3144 3864 2820 4825
4 3479 3575 2610 3574
4 2606 2600 2712 3533
4 5438 5416 6045 3440
4 6041 1262 1263 1271
4 3533 5357 2712 3529
4 6029 1769 1777 1768
4 5629 4779 4491 4740
4 6237 2154 2155 2163
4 5191 1654 1645 1646
4 3383 3224 1211 1210
4 6006 5352 1208 1217
4 3839 2291 549 548
4 3361 3842 3873 4259
4 5757 1027 4450 5433
4 5770 3360 966 975
4 4421 5026 6013 5236
4 2240 2237 1548 1549
4 4112 5691 6291 1950
4 2755 1531 5820 1532
4 474 4791 101 100
4 4864 1453 1444 1445
4 1454 4910 4857 483
4 5629 4740 5581 4779
4 5820 1531 2755 2726
4 5462 1740 5467 1741
4 5462 1741 1750 1740
4 2240 2237 1549 2239
4 5424 5448 3786 721
4 5629 4740 4336 5581
4 2725 3664 5545 4351
4 6028 1690 1689 1680
4 4080 19 735 20
4 3867 2621 3645 5682
4 2730 2736 2737 3363
4 2222 3269 3260 2229
4 2918 5653 3625 2923
4 3284 1183 4503 1184
4 3221 3224 3701 3051
4 3268 3668 3669 3265
4 3268 3264 3669 3647
4 100 4791 101 1454
4 100 483 474 4791
4 2266 3268 3262 3264
4 2491 2487 2742 3484
4 3795 3641 5685 4875
4 264 265 6058 1248
4 4877 916 917 925
4 3096 3097 3346 3098
4 1787 264 265 6058
4 4044 1809 4065 1800
4 1778 6058 265 1248
4 2743 2487 5674 3999
4 264 1248 6058 1257
4 2543 2735 2620 3257
4 4462 3082 3404 4174
4 4318 263 264 1257
4 3567 2448 3082 3039
4 2430 2543 3218 2264
4 5273 3681 3682 4218
4 6103 3684 3683 4102
4 116 117 5199 330
4 3681 1350 6103 3683
4 3681 6103 5274 3684
4 4550 5199 339 1310
4 4555 4210 332 4531
4 116 5199 339 330
4 3369 3608 6103 4702
4 6103 3610 4102 3608
4 5629 5630 5581 6128
4 3369 4702 6103 5274
4 2926 2871 5105 2925
4 1310 116 117 5199
4 2916 2926 5460 2925
4 261 262 6049 1275
4 6273 6049 1814 1805
4 4055 6049 262 1275
4 4798 2554 3881 2927
4 5129 2927 2917 4798
4 261 1275 6049 1284
4 2927 4123 4798 5133
4 2927 3880 4123 5460
4 3516 4420 1689 1698
4 3618 4048 3619 5456
4 6048 1823 261 260
4 3074 3071 5892 5627
4 6227 259 1832 260
4 4571 1823 6227 1832
4 3881 5793 4697 6061
4 3667 3131 3345 5139
4 4132 6227 4571 5534
4 80 5999 663 654
4 3667 3345 2713 2706
4 4571 6056 1823 1822
4 4570 6068 4131 4132
4 4132 1294 1303 1302
4 6090 1312 1303 1304
4 2703 2706 2713 2704
4 2791 3336 3345 3303
4 3336 3344 3341 3342
4 4787 1821 6270 1830
4 5533 6062 6052 5499
4 6227 260 1832 1823
4 3337 2952 2953 3338
4 3344 3146 3147 3342
4 2988 2989 2952 3338
4 2335 2337 2931 2336
4 2595 2206 2604 2599
4 4854 1670 1679 1678
4 5363 709 5965 700
4 5965 700 709 708
4 4540 1822 1821 1813
4 3158 3155 4450 3156
4 4131 6090 6088 1312
4 4572 1830 1831 1839
4 2261 3713 3577 3497
4 259 4570 1302 6227
4 5470 3714 5829 5848
4 5470 5471 3714 5848
4 2254 3495 2821 2820
4 1302 258 6086 259
4 4057 5000 4010 5622
4 2945 2941 3476 4244
4 5245 5236 652 5248
4 6086 259 4570 1302
4 5629 5630 6128 4499
4 258 1302 6086 1311
4 259 258 6086 1841
4 3459 3981 3335 2531
4 4070 3782 4808 3903
4 3811 3458 2837 4484
4 3573 2351 5357 3533
4 5712 476 4863 475
4 3982 3459 4121 2841
4 2840 4988 3815 3229
4 2938 2833 2940 2939
4 2840 2837 3812 3813
4 6265 1777 1786 1785
4 2842 2833 2938 2528
4 3085 2932 2749 3086
4 2368 2810 2369 2367
4 2613 6151 3018 2611
4 2840 3813 3814 4121
4 3459 5777 3457 3592
4 4413 1850 1841 258
4 4743 3323 4900 2905
4 2906 4900 4272 3604
4 255 256 4325 1329
4 2546 4325 255 1868
4 4743 4272 4900 4682
4 5157 1589 1580 86
4 4900 4272 3604 829
4 4268 4325 1868 1859
4 4269 4325 256 1329
4 255 1329 4325 1338
4 255 256 1868 4325
4 4900 4682 5580 828
4 2546 254 255 1338
4 2546 2547 6066 1347
4 4900 829 5580 4272
4 2419 3324 3750 5340
4 4208 4878 3970 4034
4 3662 3597 3598 4034
4 3601 3889 5370 4878
4 5020 2925 5441 1639
4 5020 2870 2871 5355
4 5105 1638 2925 1639
4 5105 2925 1638 5460
4 2884 2891 2898 2887
4 2916 2914 2926 2925
4 3560 3559 3898 3897
4 2611 2615 2616 2613
4 6066 5599 1356 1347
4 2546 2544 1338 4325
4 2546 254 1338 1347
4 2742 3484 3096 2267
4 2715 2716 2865 4775
4 3367 3063 2617 4331
4 4925 3772 3771 4897
4 4925 3772 4897 3363
4 252 253 6096 1356
4 4062 4282 4063 6089
4 1886 6096 253 1356
4 1356 1365 6096 252
4 6209 1365 5550 1374
4 4925 5667 4970 4926
4 3644 2266 2268 3268
4 2408 2411 4124 3019
4 3285 3287 4125 4780
4 3225 4028 4293 3615
4 5580 5516 4711 2510
4 229 230 2102 5056
4 5245 5237 5248 661
4 253 6096 1895 252
4 2516 2518 4474 2520
4 2654 2907 2909 2655
4 4120 1517 1516 5082
4 4680 2499 2510 2498
4 91 564 2869 90
4 4960 2869 1544 1535
4 4769 1525 1526 1534
4 4963 4126 4993 4964
4 2513 2516 2515 3045
4 3215 5589 3884 5798
4 2869 91 1544 1535
4 3215 3884 3641 5798
4 3062 3007 3095 2392
4 3213 4866 3265 3669
4 4770 92 1535 1526
4 2869 91 90 1544
4 4770 564 2869 91
4 2868 1553 90 89
4 3214 3213 3669 5727
4 3453 3456 3454 4037
4 3183 3455 3456 3784
4 4757 248 249 1392
4 3420 3712 3421 3473
4 4757 1931 6286 1922
4 4757 249 5177 1392
4 4757 248 1392 1401
4 4757 248 1931 249
4 4410 2972 5339 2428
4 3456 3455 3957 4209
4 3456 3468 3784 3472
4 6132 4757 1401 1931
4 4511 3473 3472 3421
4 247 248 5659 1401
4 4223 6154 1419 1410
4 1401 1931 5659 6132
4 5659 248 1940 1931
4 4003 4004 4006 3788
4 4004 4005 4006 767
4 4004 4005 767 758
4 248 1931 5659 1401
4 4004 4005 758 757
4 1940 247 248 5659
4 5311 4005 3421 3784
4 4004 3455 3784 4209
4 3784 4005 3421 4003
4 245 246 5383 1419
4 4005 4004 3784 5311
4 6122 5383 1419 1428
4 2649 6043 3941 5687
4 3406 3407 2423 4778
4 2331 4499 2324 2982
4 5481 1708 1718 1717
4 2423 3405 2421 5903
4 3552 1269 1270 1278
4 2340 6328 3716 3722
4 4069 4504 321 322
4 3726 2573 2185 3900
4 5595 3333 2642 4412
4 5533 4571 3752 3554
4 6055 1727 1718 1728
4 2423 2424 2517 5390
4 5383 246 1958 1949
4 1958 245 246 5383
4 5390 5903 4753 5979
4 5390 2423 2421 5903
4 1949 5383 246 1419
4 2777 3485 4304 2844
4 5903 3381 4231 2423
4 5134 1967 245 244
4 5618 5903 3381 4231
4 3058 5801 5287 3820
4 2497 3603 4272 5580
4 2497 820 5580 5516
4 4549 115 116 339
4 3046 3035 2906 5578
4 2385 2677 2699 2681
4 3046 2908 5579 5578
4 4549 1319 4550 1310
4 2652 2795 2408 2410
4 4549 1319 115 5024
4 3603 5580 829 4272
4 3869 5986 5996 5314
4 5290 3895 5286 4777
4 4549 115 339 348
4 4549 115 1319 116
4 2781 5585 5242 5752
4 339 1310 116 4549
4 4628 4304 5928 4627
4 3869 5986 6269 5996
4 86 87 5137 600
4 3869 6189 4298 6269
4 2257 5137 87 600
4 4938 4342 4308 4343
4 86 600 5137 609
4 86 87 1580 5137
4 2835 3171 3172 3475
4 3211 3509 3719 2809
4 3875 3496 3902 2633
4 3242 4941 3930 4959
4 6047 1769 266 1778
4 3242 4948 3510 4976
4 6027 1249 1248 1240
4 4027 4293 4391 5263
4 5263 4293 4391 5184
4 2724 3300 3294 2722
4 242 243 4340 1446
4 5717 1455 242 4340
4 5524 1455 4340 1446
4 4340 243 1985 1976
4 3300 5609 5263 3553
4 5609 2864 5184 3293
4 2445 6329 6005 6254
4 2719 3060 3059 3299
4 2602 2818 2967 3157
4 5470 5156 3864 6216
4 2261 3497 2262 5493
4 5430 3155 4713 4669
4 1976 4340 243 1446
4 4340 1985 243 242
4 4444 3564 4446 5810
4 3157 5162 2967 2893
4 2818 3157 5162 2967
4 4809 3843 4092 5784
4 2623 3491 2832 3501
4 2596 2623 2624 2626
4 4809 5483 5420 3842
4 4809 3842 5420 3501
4 4938 5680 3929 4308
4 114 115 5024 348
4 4625 5024 1328 1319
4 5940 695 704 703
4 5948 1142 1134 1143
4 5338 1197 1196 1187
4 5386 5363 5368 709
4 3232 3459 3592 3489
4 5951 1167 4076 1168
4 5284 5932 1132 1131
4 2389 2228 2936 2300
4 4549 5024 115 348
4 114 348 5024 357
4 5024 114 1328 115
4 3162 2633 3902 3163
4 5074 1337 114 113
4 5286 4624 4538 4534
4 2374 3319 3318 3215
4 2409 2408 2411 4124
4 2802 2903 3610 4102
4 239 240 6126 1473
4 4952 6126 6163 1482
4 4952 5612 1491 1482
4 2003 6126 240 1473
4 4444 3154 4450 5799
4 4416 1246 1247 1255
4 4665 3698 3726 3727
4 239 1473 6126 1482
4 4756 1197 1207 1206
4 6126 239 2012 240
4 4445 3500 5483 5420
4 4444 3564 5810 4450
4 3154 5805 4481 5799
4 2266 3266 3264 2229
4 3644 2270 2266 2621
4 2437 199 6 1238
4 3644 3647 3281 3268
4 3797 2851 2221 3263
4 83 84 5180 627
4 6235 5182 1607 5180
4 2229 2222 2221 3263
4 3214 3015 3213 5727
4 3279 5978 3121 3281
4 5158 84 627 5180
4 4293 4027 3612 4354
4 5180 84 1607 1598
4 5609 3298 5263 5184
4 3611 2902 4306 3685
4 4391 4294 5185 4293
4 5184 5189 5185 5511
4 5184 5609 5511 5185
4 5184 5609 5185 5262
4 3688 5184 5189 5185
4 2659 2245 3769 3914
4 5158 85 1598 1589
4 2243 4469 4423 3731
4 5158 6220 1598 5180
4 1607 83 84 5180
4 2247 2536 2535 2251
4 2764 4425 2288 3112
4 2615 4827 2613 3653
4 5671 4827 4828 2739
4 233 234 4266 1527
4 2532 1237 1228 1238
4 5671 3653 6160 4827
4 4827 3653 6160 4883
4 2613 4829 4883 4827
4 6310 4266 2066 2057
4 4898 2613 4829 4883
4 6314 6281 6310 2066
4 4827 5961 2613 4234
4 2057 234 4266 2066
4 6314 233 2066 4266
4 3072 3722 3195 2370
4 3064 3068 3072 3065
4 2278 2551 2253 2549
4 4266 5968 1527 4265
4 3194 3696 4276 3722
4 3190 4924 2286 3733
4 3195 2370 5847 3734
4 3195 5847 4924 3734
4 81 82 5999 645
4 5186 647 5300 5217
4 645 5993 5999 654
4 1616 5999 1625 82
4 2109 2101 5169 2110
4 81 5999 80 654
4 2381 2384 3673 2677
4 4743 2508 2905 4272
4 1616 5999 82 645
4 2411 2379 4124 3019
4 2383 3844 2379 3846
4 5407 4529 4387 3916
4 3857 2170 3855 2169
4 4387 4386 4530 5407
4 4527 3071 3070 3069
4 3165 3170 3164 2917
4 111 112 4230 375
4 111 1355 4230 112
4 4693 1346 1355 1354
4 4525 4230 112 375
4 5516 819 811 820
4 5572 4140 5607 5605
4 3916 5407 4529 5409
4 3916 4924 5847 3734
4 3916 5409 4529 5914
4 2991 2994 2992 3588
4 111 375 4230 384
4 2992 3036 3526 3037
4 4503 1183 3284 4290
4 4229 110 111 384
4 4777 5291 5290 5822
4 3598 3594 4419 4483
4 4483 3594 4526 3595
4 3450 2533 6007 6250
4 2993 2566 2992 3037
4 2997 3590 3595 3597
4 3416 1209 1208 1199
4 2688 3662 2997 3524
4 5380 2801 2766 4955
4 5201 4955 4336 4740
4 4955 5200 4336 4742
4 6089 4062 4742 4063
4 4352 5286 5669 4624
4 4955 2801 5200 5380
4 2592 197 1220 2754
4 4955 5381 5200 4742
4 3799 3512 3395 5107
4 4955 4147 4063 4306
4 4290 3418 1200 1201
4 4267 1841 1849 1840
4 5609 3350 3351 6090
4 4267 1850 1849 1841
4 4131 4413 6086 1311
4 4955 4063 4147 4742
4 4267 1850 4413 1320
4 5339 5687 3423 4433
4 2937 3461 3188 2933
4 4270 1329 4325 4269
4 5816 1180 1170 1171
4 5840 4924 3193 5847
4 6091 1848 1839 1840
4 3771 5731 3773 5699
4 2295 2935 3581 2389
4 2298 2637 2387 2388
4 5166 4087 5164 2015
4 3188 2391 2936 3584
4 3365 3153 3332 4056
4 3460 3465 3464 6002
4 5452 4091 5453 2017
4 3463 6002 3462 4117
4 2978 3169 3374 2805
4 5452 2026 2035 2034
4 3692 4008 5087 3652
4 2975 3297 2980 3296
4 4998 4345 972 981
4 3623 3626 4984 3627
4 2975 2978 2980 3297
4 2332 2330 2920 2321
4 4577 5695 5682 6330
4 2621 3866 6330 3867
4 3729 2167 3728 2176
4 5452 2025 2026 2034
4 1501 4242 1502 1493
4 4466 209 1680 1689
4 6330 2621 5682 4577
4 4940 6190 4252 4243
4 2980 4577 2745 3866
4 3656 1166 1175 1165
4 3696 3695 5282 4276
4 4830 1662 2435 4831
4 2975 3297 2976 2979
4 4577 3295 2980 3624
4 2147 5111 6327 5109
4 2661 4927 3191 4581
4 6314 2075 233 232
4 2549 3879 5795 2552
4 2659 3759 2289 2245
4 3761 5328 4143 5495
4 3191 4927 5975 4581
4 4927 4581 4846 5975
4 2646 5687 5339 4410
4 6209 1383 250 1374
4 5550 1374 1366 1375
4 6227 259 260 1293
4 6318 5997 5981 5627
4 6227 1302 259 1293
4 4375 3464 3465 4379
4 3873 974 983 982
4 2892 2893 5090 2894
4 4375 5043 4378 3948
4 5042 5047 3462 3464
4 2649 3756 3757 6043
4 5199 117 1310 1301
4 4379 4378 4858 4377
4 3678 117 1301 118
4 3462 3464 4379 6002
4 4600 339 5199 330
4 4375 4379 3562 4377
4 3932 2810 3509 4313
4 2634 3163 2365 3125
4 3797 4262 3925 2851
4 4601 6287 4262 5738
4 3550 6186 3283 4602
4 2854 3283 3550 3466
4 3356 3230 5150 3125
4 3886 5922 5864 3237
4 2593 5971 5923 2987
4 3001 2972 5341 3324
4 4362 510 2281 501
4 5187 5231 5920 5971
4 6064 5922 5872 5920
4 5872 6064 6240 5922
4 3886 3325 3343 3340
4 3886 6064 3340 5920
4 3409 3449 2689 3445
4 5222 3446 3998 3448
4 3448 3721 5973 3412
4 2249 2847 3444 3616
4 2415 3036 2416 3002
4 2884 2885 2888 2896
4 4570 6227 4132 1302
4 2885 2896 2886 3450
4 3237 3542 3234 3235
4 5767 3542 5217 5300
4 3887 5300 5864 4284
4 3234 2590 3114 3887
4 4873 484 483 475
4 2461 2563 2557 2560
4 3111 3113 3114 3887
4 3887 5864 5178 4284
4 3111 2764 4422 4470
4 3111 3887 5173 3113
4 4470 3731 5170 5041
4 2627 2582 2629 2959
4 2981 2986 5143 2987
4 5566 5642 5570 1581
4 5022 2101 2093 2102
4 3440 3507 6055 5673
4 3030 2644 6070 2647
4 3074 5627 5892 6153
4 3185 3912 3453 3454
4 4118 3494 4454 1251
4 5913 3069 5946 4530
4 3071 4530 6247 5946
4 4527 3734 3916 4529
4 5633 1455 5524 1456
4 3070 2342 3734 3069
4 5627 6129 6153 3074
4 5717 5633 1464 1455
4 4527 3070 3071 3671
4 2320 2800 4679 2801
4 4663 1155 1147 1156
4 3563 3897 3560 3898
4 2323 2327 2331 2326
4 2439 3291 3650 3043
4 2327 2329 2326 2983
4 3038 3093 3094 3039
4 6245 2155 2154 2146
4 5961 3897 2728 3367
4 2332 2321 2920 2319
4 5639 2321 4639 3764
4 4870 1626 1618 1627
4 4442 294 295 303
4 2321 3764 5639 2319
4 6315 1545 1536 1537
4 5622 5967 6281 6310
4 6101 5724 5739 4808
4 6101 5100 6205 5739
4 6314 2075 2066 233
4 6101 5099 4061 5216
4 3777 6101 4808 5724
4 6314 1545 232 1536
4 3656 2571 1166 2193
4 6101 6205 5099 5216
4 4058 6205 3498 6101
4 2573 2194 2185 2186
4 3365 5929 5790 2443
4 4075 4076 4077 5402
4 5837 4058 6205 3498
4 3328 2579 5822 5823
4 1625 5999 1634 81
4 5287 3589 3058 2718
4 2381 2507 2377 2866
4 2129 5315 226 5566
4 3384 3180 3920 3540
4 5171 1582 1583 1591
4 2974 3187 4558 4557
4 3191 1117 1126 1125
4 3194 4276 3696 5282
4 2760 3384 2866 3382
4 6035 1717 5481 1718
4 3328 3385 3382 4990
4 5982 5999 1634 1625
4 4810 2043 2035 2044
4 6041 1272 4599 1271
4 5166 2025 2024 2016
4 4810 2043 2034 2035
4 5746 5742 6203 4199
4 6215 3809 6191 3835
4 2538 3654 2540 2881
4 2714 3057 2998 2316
4 3893 3892 5058 3664
4 983 5780 991 992
4 6215 3809 3244 6303
4 2302 2307 2574 2306
4 4409 4677 3905 6078
4 5274 4675 4750 1352
4 5379 1885 1884 1876
4 5964 4629 6100 5598
4 4492 4147 4146 5378
4 5599 1348 1356 1347
4 2546 1877 2545 1868
4 2546 2547 1347 1338
4 2546 2545 4325 1868
4 5379 1885 6106 5381
4 6103 4102 1350 1359
4 5624 1912 1921 1920
4 5603 4758 1402 1401
4 6120 5639 1394 1385
4 5654 6114 1937 1938
4 3483 4289 873 3380
4 5323 3594 4548 5772
4 4487 3597 6331 5926
4 6268 5417 4426 1737
4 3678 321 4504 330
4 3507 1729 1719 1720
4 4456 1742 1733 126
4 4504 5748 5199 4600
4 3901 1291 1282 1283
4 4007 2984 3141 3692
4 4852 73 1230 74
4 4852 74 708 709
4 4852 5386 1221 73
4 6003 1231 1230 1221
4 5965 699 700 708
4 5384 1670 1669 1661
4 6003 5359 4854 5336
4 5365 5766 4416 5764
4 3511 3512 3973 3513
4 6057 1264 1273 1272
4 6268 1746 5417 1737
4 4443 5389 1273 1282
4 4426 6264 1728 6055
4 3754 750 5016 749
4 4765 4753 4709 427
4 3506 1731 3505 1730
4 4456 1742 3787 1733
4 6111 5576 5564 5565
4 4135 4467 1815 139
4 4631 1819 1828 1827
4 5484 4215 768 4006
4 4191 1160 5949 188
4 5949 1160 189 188
4 5949 1160 1159 189
4 4191 5950 1152 1151
4 5943 1169 1168 1159
4 4077 5957 715 5956
4 5930 5949 4074 1150
4 4373 1716 3518 1717
4 4567 6268 4426 6264
4 4373 4832 1725 4305
4 4834 5700 5801 1298
4 4541 1812 1804 1813
4 5505 1269 1260 1261
4 6272 5500 3352 1295
4 4131 1303 1312 1311
4 6067 6088 4267 4413
4 5571 6037 1322 1321
4 5571 1322 5189 1331
4 2409 3615 4063 4020
4 4540 6270 1822 6056
4 5294 1836 6060 1837
4 4600 331 4555 340
4 3351 1314 5511 1313
4 6088 1312 1320 1311
4 6037 5511 1322 1313
4 3352 3351 6090 1304
4 2406 2359 2413 2770
4 4700 857 3105 858
4 5616 4806 1911 5624
4 4074 5393 4077 4076
4 4074 190 1149 1150
4 4074 189 1159 190
4 4074 5949 1159 189
4 6308 5951 5943 5824
4 5034 1023 5062 51
4 5034 5062 5081 590
4 2894 5148 1034 1043
4 4695 4621 407 398
4 4728 4753 418 427
4 4409 4495 3905 3907
4 4704 4695 6119 4790
4 5558 5567 4646 4566
4 4558 4041 6119 4790
4 4660 400 5568 399
4 4641 807 28 27
4 4660 4148 5568 400
4 5509 5544 5513 1826
4 4624 4723 4574 4597
4 5507 5540 787 788
4 5544 1825 5513 1826
4 5562 1807 5541 1816
4 5562 5513 4468 1816
4 5295 5254 5258 666
4 4908 612 4348 611
4 3304 3306 612 613
4 3309 5086 605 604
4 5173 638 4284 639
4 2913 1052 1043 1044
4 5193 1086 58 1077
4 5193 5194 5272 5198
4 5245 5243 5247 653
4 5193 57 1077 58
4 5194 634 5218 5079
4 6332 5546 5308 5307
4 5546 1096 5307 1095
4 2890 5858 5198 1068
4 5246 1070 1079 1078
4 3958 5147 5092 5127
4 5895 5908 5931 5894
4 6276 2071 2062 2063
4 5060 1541 5091 1542
4 6203 4973 1520 1519
4 4265 1518 5968 1527
4 6198 2030 2039 2038
4 1519 1510 1518 5958
4 5101 6180 6333 5099
4 5215 2065 2064 2056
4 4940 1512 4243 1503
4 5013 5044 558 567
4 5545 1532 1523 1524
4 5820 5545 1532 1523
4 4444 3564 3576 4446
4 4166 586 5084 5828
4 5828 5048 5103 577
4 3529 5048 5103 5828
4 5052 5049 5665 5818
4 4166 5103 577 5828
4 5545 1524 1533 1532
4 4620 4596 26 365
4 6279 4590 4437 4564
4 4545 789 4596 25
4 4596 25 789 26
4 4590 4564 347 346
4 4489 790 799 798
4 3537 5870 5559 5558
4 5174 5175 1383 5177
4 6079 1904 1913 1912
4 6080 6286 1921 1922
4 6120 6133 1393 1394
4 5639 5521 1394 1395
4 6214 1935 1934 1926
4 5607 840 5605 841
4 6120 1385 4667 5639
4 5175 5550 6118 1375
4 3766 4337 1386 1387
4 4770 1535 91 2869
4 2260 2597 2623 3500
4 3089 3090 5746 5742
4 2353 2606 3533 2351
4 2344 3523 2294 2293
4 5410 4887 1557 1558
4 5596 1878 146 1869
4 4559 5577 5596 833
4 5577 145 5596 833
4 4332 5606 1853 5435
4 6130 1878 1870 1879
4 4144 5606 5435 1862
4 5596 145 1869 146
4 3825 1740 5462 1749
4 4457 3433 308 309
4 5443 5421 5419 3785
4 5467 3505 1731 1740
4 3390 1721 3392 3393
4 3506 4453 5467 1731
4 3612 4145 4146 4147
4 3054 5051 3055 776
4 4725 6274 5544 1835
4 4332 4725 1844 6274
4 6274 5544 1835 1834
4 4409 4677 6078 5330
4 4969 6122 1420 1429
4 2724 2723 3353 2722
4 2979 3570 3569 6334
4 6246 5502 5135 1437
4 6296 1966 1965 1957
4 5603 6145 1402 6133
4 3060 3349 3352 3547
4 4478 4477 4512 4149
4 3551 3552 5498 4434
4 4215 5016 759 4006
4 3183 3454 3456 3455
4 4563 365 4566 364
4 5437 5119 3940 3398
4 6135 1412 6145 5520
4 6246 5671 5502 1438
4 6289 1930 6150 1929
4 6132 1930 6286 1931
4 6289 6150 5654 1929
4 6097 5916 6139 1956
4 6139 1947 6138 1948
4 6146 1948 6140 1949
4 5726 4897 4819 1972
4 3729 4654 2166 2175
4 4276 1128 3695 1127
4 3697 3695 1138 1137
4 3695 3698 1138 1129
4 1136 5952 5282 1144
4 3744 1171 1181 1180
4 4128 4663 1155 5924
4 3113 3887 5300 3542
4 3446 5222 4290 4359
4 3744 1172 1181 1171
4 4931 3508 4932 3510
4 4307 4907 4932 5702
4 4939 4998 5779 5014
4 4308 4977 3707 4932
4 4978 4981 544 535
4 4961 962 4991 4979
4 3892 3244 6215 2943
4 4951 4882 510 519
4 4948 5796 3510 4260
4 3643 5046 5061 3317
4 513 3632 4941 4976
4 4920 4244 4251 6295
4 6210 4199 1529 6203
4 5884 5735 1992 1991
4 5779 5780 4919 4922
4 965 3872 3360 5690
4 5761 6126 2012 2003
4 4339 4893 3585 4260
4 5882 5884 5711 5773
4 4905 4958 954 963
4 1998 2007 3814 3924
4 3591 6171 6156 4820
4 5150 6186 3923 6173
4 5767 5922 5921 6234
4 4047 4165 6156 1990
4 4164 5738 1990 1989
4 6154 1420 6122 1419
4 6297 1966 5458 5478
4 6137 6154 6135 6122
4 6140 1940 4223 1949
4 6132 6140 1940 5659
4 5424 3786 128 721
4 4456 3786 5426 720
4 3785 1724 3786 1733
4 3785 5426 3787 3786
4 3786 127 1724 128
4 5424 5419 1715 1724
4 4456 127 3786 720
4 5547 803 5522 802
4 5522 3373 3031 5547
4 6089 4282 4145 1873
4 4409 4495 5330 6078
4 6255 1682 268 269
4 6257 269 1766 270
4 6257 4510 1683 270
4 6081 1765 4510 1766
4 3944 5425 5121 3943
4 5437 5461 1703 1712
4 4929 6069 4365 5029
4 6051 1691 1690 1681
4 6050 1777 1776 1768
4 6255 1768 1767 268
4 5464 1685 1686 1695
4 6063 1691 1701 1700
4 4223 1940 247 1949
4 6146 6140 4223 1949
4 4757 6132 1401 4758
4 6146 1419 6154 6122
4 5131 3620 2925 1630
4 2772 5441 3620 5969
4 6006 1208 1209 1218
4 2442 3978 1654 1663
4 4203 5342 4127 5998
4 5929 2181 2180 2172
4 5945 5886 2158 2159
4 1663 1664 2442 6022
4 4774 4698 467 468
4 4704 4040 4041 6119
4 4234 4828 1431 4829
4 5977 1408 1417 1416
4 3341 6219 3343 5920
4 4346 2118 5169 2119
4 2560 2960 3837 2961
4 5098 3652 3648 1555
4 5566 6229 1590 5570
4 4197 1577 6222 1576
4 4009 4007 5087 5410
4 3339 3338 3345 5849
4 4198 2990 2985 1576
4 6232 1632 5984 1633
4 4274 5276 5275 5253
4 5295 675 5155 666
4 6232 5984 5982 1633
4 6240 6226 1604 1605
4 5204 4284 5230 638
4 3776 6196 5008 6295
4 4769 1526 4120 4770
4 4951 4362 3633 511
4 5245 661 5248 652
4 5348 5349 1088 1087
4 5895 5225 5238 5071
4 5265 5211 5239 660
4 5210 659 5211 668
4 5236 643 5243 652
4 5040 5173 639 648
4 4704 4041 4790 6119
4 4745 1372 1381 1380
4 4704 4584 4790 3827
4 4659 4535 5536 6119
4 4659 4678 389 4683
4 5734 3832 4618 4616
4 4537 6119 4695 4790
4 5204 5230 5864 5921
4 3109 1378 6108 1379
4 5027 4922 4446 5780
4 5430 4450 1028 5433
4 4082 4085 5166 4086
4 4810 5452 2035 2034
4 3842 5120 4446 5780
4 5809 1000 1009 1008
4 5387 1149 4075 65
4 5930 4076 1159 5943
4 4075 65 1149 2
4 4075 1158 2 190
4 4074 190 4075 1149
4 6257 6255 6050 1767
4 6174 1691 6051 1682
4 5630 4499 5631 6334
4 4263 1909 5630 6334
4 6147 1910 4806 1919
4 5617 1894 1903 1902
4 5519 4759 5976 4761
4 4704 4616 4043 396
4 5273 4218 3682 5530
4 4499 6147 3570 6334
4 4806 4496 5616 6128
4 6128 5202 5617 4336
4 5625 6121 1389 4746
4 6150 5654 1938 6114
4 6115 1358 5552 1357
4 5380 5551 5600 5599
4 4806 5655 1920 5624
4 6089 4280 4062 4282
4 3286 3287 3285 4780
4 6120 5176 4667 1385
4 4742 1884 1893 1892
4 4289 3380 872 873
4 4866 5647 5727 3794
4 4900 4682 828 837
4 1735 4426 1736 1726
4 5339 6335 5687 6336
4 6035 4426 1727 6055
4 6266 4301 1747 1738
4 4624 4538 4534 4597
4 3511 5673 3391 3507
4 3163 6014 3362 4906
4 4171 4178 4962 527
4 4962 969 4980 45
4 5792 978 4980 4943
4 4977 534 525 526
4 4979 4944 4824 961
4 3591 4819 6171 4820
4 4980 45 969 46
4 4982 545 5012 554
4 6210 1528 6203 1529
4 4963 542 3521 541
4 4858 4377 1435 1434
4 3946 5712 4774 4698
4 4864 1453 1445 1454
4 6167 6172 1466 1475
4 4698 4255 5588 477
4 6159 1433 6157 1434
4 4801 4331 5661 6144
4 2639 5962 4108 5347
4 3808 4114 3801 4935
4 5773 2002 2001 1993
4 2736 2738 4972 6097
4 3659 6168 5962 5347
4 3739 4558 4041 4557
4 4441 4539 4586 4435
4 4787 1820 6075 1821
4 4489 4668 4563 4596
4 5767 4273 5921 5230
4 5523 5532 5477 792
4 4563 355 4590 356
4 5572 3677 5607 3050
4 3544 4573 3546 5267
4 4696 3278 5189 3682
4 5413 4676 4775 3821
4 4639 2920 5639 5521
4 5189 1332 3689 1331
4 5871 1072 5235 1071
4 5210 5196 5023 5321
4 3692 4007 5087 4008
4 4384 5407 5409 5645
4 5893 3760 5904 5888
4 6324 5272 5546 5243
4 4050 4764 4049 6134
4 4505 5871 5889 5235
4 5538 4389 5646 5850
4 5836 5073 1061 1070
4 5871 5889 1072 5890
4 5406 5889 5890 1072
4 4909 518 4823 509
4 4822 4909 518 4823
4 4822 960 44 951
4 4859 4860 4162 5723
4 4822 951 44 43
4 4904 3876 973 4906
4 4865 924 4842 40
4 6003 4852 1221 1230
4 6009 1678 1677 1669
4 4852 5386 5991 1221
4 5336 1679 207 1678
4 6257 6261 1692 1683
4 4326 1765 1764 271
4 5443 5426 5448 4406
4 4082 3357 3815 5164
4 3377 4811 3097 3099
4 4339 4260 3630 4976
4 6299 4910 5047 4856
4 4891 4094 4889 6299
4 2649 5687 2645 5686
4 3553 6068 3545 3350
4 5541 1807 4064 1808
4 5562 4467 5475 1806
4 5476 1797 137 1788
4 3139 5484 4006 4215
4 5116 5327 4447 3753
4 3030 6070 6104 2647
4 5522 811 5584 6001
4 5491 1774 6082 1783
4 5484 5051 768 777
4 6042 4064 5542 4099
4 5252 4764 6241 6320
4 5857 5406 1073 1072
4 5252 6225 1593 5221
4 5252 6241 4764 5221
4 6241 6323 1602 1611
4 5214 2585 5221 5213
4 5169 2110 2119 2118
4 3193 5847 5749 1109
4 3134 3307 3302 3309
4 4360 1609 5110 1608
4 5221 5213 1592 1601
4 5214 1601 6323 1610
4 6225 5221 5213 1592
4 5570 6229 1590 1591
4 5220 6225 5221 5213
4 2455 2453 2211 2452
4 5981 5627 6337 6243
4 5891 5980 6247 6290
4 5128 4039 5214 6323
4 5214 6323 1601 5221
4 5878 6317 2113 2122
4 2995 1297 4834 3817
4 4839 4401 3594 3901
4 4300 1250 3494 1259
4 5499 1295 1294 1286
4 2416 4015 5503 3555
4 4572 5267 3546 1839
4 4511 4209 5446 5311
4 3751 4731 2420 5398
4 1790 3942 1781 6039
4 5700 5801 1298 1299
4 3390 3505 3513 1730
4 5510 6053 5762 4569
4 4031 6260 4403 4404
4 4512 4487 325 6331
4 4477 6078 6331 325
4 4477 4149 4486 326
4 4486 4149 4476 327
4 523 4941 4931 514
4 4823 518 4178 517
4 4822 4178 518 527
4 4907 5702 507 516
4 4171 536 4981 535
4 4822 4823 518 4178
4 3842 5780 5804 5120
4 3080 2311 3079 2312
4 3297 5693 6109 6214
4 4867 4238 5701 908
4 4084 6338 5769 3355
4 5948 1134 1142 1133
4 5950 1151 5949 1150
4 5387 4077 707 716
4 4074 5387 5393 1149
4 5343 1188 1178 1179
4 5816 1169 1170 1179
4 5404 5959 5950 1143
4 4258 4256 1186 1187
4 4074 4077 5387 4075
4 5943 5949 1160 1159
4 4074 1149 5393 1150
4 4074 4076 1158 1159
4 5854 170 5869 1058
4 5852 1058 5859 1057
4 5869 2094 171 170
4 6202 2104 6201 2095
4 6201 2094 5868 2095
4 5869 2103 171 2094
4 4653 4630 369 4650
4 4653 378 4650 369
4 4992 4795 5055 6170
4 4040 4042 4565 387
4 5286 5291 4604 4551
4 2783 2953 2775 2984
4 5767 5921 4273 6234
4 5788 1318 4625 1327
4 4561 1300 5748 1309
4 4600 4504 330 5199
4 5287 5801 4561 3820
4 3507 5029 1720 1719
4 4430 6177 6082 6339
4 3226 3702 6063 4929
4 5491 6082 1774 5465
4 5491 1773 5465 1774
4 4363 1702 4365 1701
4 6063 1700 3517 1691
4 4822 4178 4944 4824
4 4061 5626 5215 5623
4 4345 4979 971 4942
4 4983 4171 4978 4977
4 4822 4824 4944 960
4 4171 4943 4962 4944
4 4177 4907 516 4932
4 4171 526 4178 527
4 4962 960 45 44
4 4255 4698 4774 468
4 5712 4774 4698 467
4 4864 4858 1435 1444
4 2639 4172 3807 4109
4 4873 474 475 483
4 4234 4898 2613 4829
4 5729 6149 6213 1944
4 3465 4379 6002 4801
4 4158 4833 4794 462
4 6137 6138 6059 6140
4 3396 1219 6007 1218
4 2533 6007 1228 1227
4 2436 201 1237 200
4 4830 1662 1663 1671
4 6022 1672 4830 1663
4 4831 220 1653 219
4 2436 2532 1238 1237
4 2930 3444 5819 3410
4 5989 1236 6015 202
4 6015 1673 202 201
4 4632 1829 4787 4573
4 6092 4089 1847 1848
4 5548 5511 3351 1314
4 6037 1313 3351 5511
4 6070 5509 5261 6340
4 5496 5509 1826 1827
4 4483 322 4526 4504
4 4058 4060 5216 4061
4 3801 6341 3636 3802
4 3351 1313 6090 1304
4 4146 1866 5378 1875
4 5551 1357 5552 1366
4 3278 5189 3682 3689
4 4268 2545 5378 1867
4 4573 3546 5267 1838
4 3682 3689 1332 1341
4 3680 3681 3278 3684
4 6115 5599 1348 1357
4 5772 4561 5801 1299
4 5399 5500 5498 1287
4 5788 4676 1326 6095
4 3352 3351 1304 1305
4 3547 3352 5500 1296
4 3349 3351 3352 1305
4 6272 6090 1303 1304
4 5767 5922 3237 5864
4 3542 5768 5767 5186
4 3933 5520 3896 6136
4 5689 6214 1926 1935
4 4881 4239 4328 1415
4 3403 452 4157 451
4 2383 2411 3019 2379
4 5525 5520 5521 2920
4 3897 1423 4234 1422
4 5629 5705 5631 4499
4 2726 1531 3088 4971
4 4507 6012 5246 5192
4 4501 5194 5079 5188
4 2981 2990 2952 2989
4 5144 607 5147 616
4 5233 1604 6228 6240
4 5078 615 5144 616
4 3452 4576 783 5477
4 4015 3555 4013 5504
4 4397 762 22 753
4 4523 5494 4320 4321
4 4523 780 24 771
4 2510 4711 4684 5517
4 6093 4495 3907 4524
4 4287 6263 4286 5569
4 4139 851 860 859
4 4139 3961 859 860
4 5693 5677 5695 3295
4 3960 859 3961 868
4 4700 858 3960 867
4 5610 147 1878 1887
4 5597 842 4140 841
4 5607 841 4140 850
4 3568 6109 1917 1926
4 3568 3570 5880 1927
4 4811 4867 900 3999
4 4965 3380 882 3376
4 865 5652 5305 4291
4 6109 4804 1917 1916
4 2484 2487 2486 2744
4 4102 6116 1358 1359
4 3371 4702 5274 6112
4 5376 5380 5381 5600
4 5674 3999 892 901
4 4867 4811 900 899
4 3845 3605 4228 5605
4 6208 895 4341 894
4 5695 5693 1934 1933
4 6213 6214 1935 1934
4 4338 5699 5731 1961
4 6149 1943 6213 1944
4 6292 1945 6113 1946
4 6135 6154 1420 6122
4 6282 4679 2319 5176
4 2731 4828 4969 6136
4 5520 6136 1412 1413
4 6135 6154 1411 1420
4 6135 1412 6136 1421
4 4828 4829 1430 1431
4 4234 1431 4828 1422
4 2747 5658 2487 2744
4 3653 5501 4972 2739
4 5458 1976 5459 1975
4 2740 1802 5340 1811
4 3986 6027 6028 4299
4 3390 3392 1721 1720
4 4212 6050 3983 1777
4 6074 1811 6075 1820
4 2419 5339 4716 4410
4 4044 1800 4400 1801
4 5498 1286 6052 1277
4 4317 6071 1795 1804
4 6052 1285 6062 1276
4 5533 6062 5534 6056
4 6262 3494 1251 1260
4 4898 1450 4108 1449
4 5347 1457 5962 1458
4 4898 1449 4883 1440
4 4102 1349 3683 1350
4 6115 4102 1349 3683
4 6087 5556 4267 4270
4 6083 1895 1904 1903
4 5175 5550 1375 1374
4 5377 1340 3687 3689
4 2864 2862 3278 2865
4 3077 2359 3075 3081
4 6341 3149 4951 4956
4 5612 6166 1483 6163
4 3490 5883 3658 6031
4 2619 2623 2626 3500
4 5346 6196 1486 1477
4 5346 6196 1477 4912
4 2350 3892 3891 3665
4 3923 5755 3924 6165
4 6341 4355 3149 6178
4 6018 5934 4870 4850
4 3635 3629 2935 3581
4 6145 5521 1403 6133
4 6135 5520 6136 1412
4 5520 5521 1404 1403
4 3933 6135 5520 6136
4 6135 6137 5525 6154
4 2731 4969 6135 6136
4 6125 5521 4639 4337
4 6018 6061 4798 5934
4 4720 422 2309 423
4 3261 4970 5667 5672
4 5815 2049 4194 165
4 4194 165 2049 166
4 6312 6311 2042 4520
4 4193 5815 1013 1004
4 5782 4169 4945 4946
4 5832 5838 5812 5640
4 4194 2058 166 2049
4 5560 805 5565 814
4 4332 6274 1844 1843
4 5576 1842 5439 1851
4 3752 5498 5499 6052
4 4725 6274 1835 1844
4 4024 6099 4019 5435
4 5576 5563 5439 1842
4 6072 3160 5526 5527
4 5251 4725 4332 6274
4 4534 4538 4551 350
4 4574 1336 1327 1328
4 5074 5024 4597 357
4 4550 4625 1318 1319
4 4353 4600 4550 5748
4 4352 4353 5788 3821
4 3818 3547 3817 1306
4 5788 4353 1318 1317
4 4069 4504 3594 4548
4 4995 5625 6121 5395
4 4040 396 4043 387
4 3829 4616 405 404
4 5964 5657 5598 6100
4 4672 4043 395 386
4 4040 4043 4042 387
4 5423 2184 180 2175
4 5423 2175 180 179
4 5423 5947 4654 1139
4 3698 5953 1147 1138
4 3858 2177 3728 2168
4 3284 3419 5222 3221
4 5954 5423 3657 2184
4 1436 4791 4773 6142
4 4917 4840 5621 5650
4 4874 1442 6164 1451
4 5661 1433 6159 1442
4 6159 6157 5660 4331
4 4378 4864 4818 4873
4 4117 1451 6164 1452
4 2311 2309 4585 4718
4 5933 6327 4360 5110
4 5131 5133 5132 1620
4 5792 979 4996 988
4 4308 4978 3707 4977
4 5220 5213 5171 6225
4 3649 1563 1572 5056
4 5021 3649 6211 5232
4 5171 5213 1591 1592
4 6318 2152 4283 6243
4 5022 2102 5232 2101
4 3613 1572 1573 1581
4 6018 3882 5787 2445
4 5143 4764 6320 2987
4 3449 5066 5068 4359
4 6325 2145 6321 6231
4 5942 2153 6321 2154
4 5942 6245 2154 6321
4 5442 5355 1658 5356
4 6094 4671 5575 1373
4 6094 1372 1363 1364
4 2449 2521 2421 3288
4 5657 5598 6100 1363
4 3766 3763 4715 2322
4 4672 395 4618 394
4 2827 3186 4557 5808
4 4584 3827 4585 4543
4 3833 4100 4617 4717
4 3548 4672 4042 4043
4 3967 4226 5823 6169
4 4753 4180 4181 426
4 5658 3606 5664 884
4 3078 3289 4643 4718
4 4026 4788 450 4783
4 5650 4817 890 889
4 3646 4735 2743 3865
4 4797 4768 4840 888
4 4621 5568 4730 408
4 5652 5658 874 875
4 4338 1960 6291 1951
4 4867 5701 899 908
4 4179 4862 4894 5590
4 2933 3630 3584 6085
4 3999 4965 892 891
4 5683 4813 4843 4877
4 5710 4901 927 4876
4 5660 1424 6157 1433
4 4238 5641 4901 917
4 4811 3376 891 890
4 5701 4816 898 907
4 3271 4867 900 909
4 3095 5587 3094 4173
4 4247 4248 485 486
4 4889 4247 4248 485
4 3632 3118 512 513
4 3801 4935 4114 4933
4 4094 4889 4248 4890
4 4115 4110 4114 1469
4 4339 3634 495 504
4 4338 5733 1960 1961
4 5698 5719 5743 940
4 5738 5750 5758 1980
4 5738 1989 5750 1980
4 4866 5647 3271 3273
4 3591 6156 6171 5735
4 6050 4212 1776 1777
4 6018 6061 6237 6236
4 4454 1251 1250 1242
4 5481 3517 1708 3518
4 3982 5917 6207 5611
4 2622 3491 2623 2597
4 5138 5909 6276 2071
4 6018 6236 4850 4872
4 6206 5626 2063 5216
4 3206 579 5067 3196
4 6319 5156 3864 3859
4 5835 5364 1062 5836
4 4009 4010 3749 2238
4 3696 3697 3698 3704
4 3856 3857 3067 6337
4 4665 3698 5947 5953
4 3191 1125 1116 1117
4 685 5928 693 4203
4 3066 5997 2160 2159
4 6242 6337 5981 2161
4 6242 4297 5795 6337
4 6238 6254 6252 2163
4 3698 3697 3695 1138
4 6125 3559 4881 4838
4 3296 3104 3959 5656
4 3579 3962 878 3831
4 4789 5656 3296 3959
4 5674 5664 893 884
4 5674 3865 902 893
4 2523 2525 2052 2061
4 6212 2525 2522 6312
4 2523 5493 5830 5831
4 5640 4195 1022 1021
4 5805 4444 3154 4515
4 6276 5830 5909 5831
4 5805 5120 1002 1001
4 4393 5879 4703 4202
4 4202 5089 2106 2105
4 5406 4155 5643 5839
4 5839 1055 5643 1064
4 4155 5890 5406 4727
4 5447 739 4406 5310
4 5260 4399 5492 5491
4 5426 3786 721 720
4 4016 4017 4079 4032
4 4460 5426 5447 729
4 5443 3785 5448 5426
4 5448 5426 3786 721
4 4456 3786 1733 3787
4 4456 126 1733 127
4 5443 5419 5448 3785
4 3996 4505 5836 5890
4 4686 2591 3731 3136
4 5218 642 5170 633
4 3958 5127 5063 5064
4 6234 4273 5993 6235
4 5041 649 4470 5040
4 5026 5239 650 651
4 5246 5073 1070 1069
4 5406 1064 5839 5643
4 2517 3770 4279 4231
4 4537 3828 4790 4543
4 4291 4279 855 864
4 3380 3376 881 882
4 4792 3380 3376 881
4 4289 4288 863 872
4 4288 5648 862 871
4 6080 5624 1912 1921
4 6209 5177 6080 1913
4 1365 6209 1904 251
4 6209 1374 250 251
4 4757 6286 5177 1922
4 5297 5927 2132 2131
4 6318 2143 5980 6244
4 4153 5223 4202 5234
4 5980 2142 6247 2133
4 6210 5967 6203 1528
4 4388 5646 5256 5644
4 5409 5914 5255 4529
4 3864 6319 3860 3239
4 5209 2126 5881 2135
4 6325 2136 4347 2137
4 4657 1120 2371 1121
4 5876 5879 5878 2113
4 2741 6139 6146 6296
4 5798 5589 5590 4894
4 4902 499 498 490
4 5736 4902 4879 4880
4 4865 4842 4885 491
4 6302 5501 5459 5457
4 5996 1214 1213 1204
4 4781 4183 1196 1205
4 4184 1224 5887 1225
4 5374 5368 711 5403
4 5280 704 5940 5299
4 5363 5362 701 700
4 5279 1186 4258 4256
4 3783 5990 5369 5385
4 5374 1213 1212 1203
4 4781 1206 1205 1196
4 5779 991 990 982
4 3707 524 4932 525
4 4977 3707 4932 525
4 3522 3839 549 558
4 3087 2238 3749 4010
4 3463 4108 2614 4110
4 5685 5683 3017 3640
4 4902 489 4880 490
4 4901 4876 926 927
4 2611 3460 2614 4801
4 4842 40 924 41
4 4865 924 40 915
4 4159 4845 4844 5649
4 4865 4844 915 39
4 4414 2514 3989 3290
4 3764 5639 2319 4667
4 4746 1381 1390 1389
4 3827 4585 2311 3829
4 6233 5208 2143 6244
4 5888 5904 5893 1089
4 5256 5645 5644 1074
4 4390 5645 5406 5644
4 5256 5645 1074 1083
4 6293 5899 5255 5256
4 6318 6243 4283 6244
4 4200 5207 5234 2115
4 5860 5885 6317 4356
4 6105 1584 6076 1575
4 6320 5143 5898 5252
4 3142 3692 5592 4008
4 5002 6211 5232 5169
4 6225 1593 5221 1592
4 5198 1068 57 56
4 5193 5198 57 644
4 2890 56 5198 635
4 5858 1077 5198 1068
4 6324 5243 5194 5272
4 5072 1069 5858 1068
4 5858 5272 1077 1078
4 3664 3893 3665 6275
4 4904 4344 4345 4998
4 4807 3487 5739 4808
4 6193 4251 1504 6342
4 5007 556 3850 547
4 6303 6191 6178 4968
4 5681 5675 4334 896
4 4736 911 4737 920
4 4734 3273 3272 4736
4 6330 5694 5695 5708
4 5681 4341 895 904
4 3309 3950 4986 605
4 3996 2895 5161 5896
4 5112 5137 1580 1571
4 4908 5136 4167 611
4 4767 6333 5742 6203
4 3977 5846 5163 5843
4 4057 5622 4061 5000
4 5844 5843 5163 1051
4 4513 6331 6078 325
4 4600 4526 4555 331
4 5677 3830 3831 1923
4 5681 895 5675 896
4 5681 4341 6208 895
4 5664 885 6208 894
4 3830 151 1923 152
4 3830 1932 152 1923
4 5706 4800 5681 4341
4 6330 3866 6208 4341
4 5693 6213 1934 6214
4 5681 5694 4334 5675
4 5482 2522 2524 6312
4 5166 2016 5452 2025
4 3746 3747 4052 3749
4 4444 5805 5799 1010
4 4946 5483 3842 5120
4 5810 4446 5805 1001
4 5514 4979 4961 4991
4 6311 4086 5452 2034
4 1585 2990 1576 1584
4 5591 4826 5138 3863
4 4886 1566 4888 1565
4 4887 1566 4886 1557
4 2918 2922 5654 2923
4 3272 902 4735 911
4 3017 4876 4875 4901
4 6287 1980 5758 1971
4 5758 5731 1971 1970
4 6287 5758 5731 1971
4 6288 6291 5740 5715
4 6287 4819 4820 1981
4 3591 6098 6171 4819
4 6156 1981 6171 1982
4 4710 843 31 834
4 4279 4732 854 863
4 4101 831 5605 840
4 4148 4710 5594 4712
4 4707 4728 4754 428
4 5594 853 852 844
4 4710 4582 5553 834
4 4710 30 834 31
4 4220 4222 4681 826
4 4054 1275 1266 1267
4 4316 1795 1786 1787
4 5591 6218 5138 5593
4 4315 1787 1778 6058
4 3985 6256 3983 6174
4 4534 4597 349 358
4 3965 4649 4630 4650
4 3001 3823 4433 3010
4 4487 4473 4033 315
4 5294 4725 1836 1845
4 3596 4555 4600 4526
4 5523 3452 784 783
4 4574 4722 5583 1336
4 3911 5370 3889 4478
4 4513 4531 4473 324
4 4152 3146 4350 3145
4 2505 3997 2828 2849
4 2505 2868 582 1553
4 4046 1544 1553 1552
4 3532 5059 3529 5048
4 2849 4190 4189 574
4 2814 5091 1533 1542
4 5060 3690 1550 1551
4 6217 1558 4196 2784
4 4488 754 3956 755
4 3940 3710 3741 3398
4 5399 1287 3552 1288
4 3955 3954 3957 3951
4 5904 5195 4396 5348
4 5193 5194 5198 644
4 5265 669 5211 660
4 5236 5026 642 651
4 5194 5218 634 643
4 5193 5194 644 5243
4 6324 5349 5348 5272
4 5193 1077 5272 1086
4 5546 5272 1087 1086
4 4644 6284 5703 433
4 423 4644 4718 2309
4 3080 3827 2311 3829
4 4720 422 4705 2309
4 6137 6140 6146 6139
4 5973 5408 4503 4290
4 3416 1199 3720 1200
4 1210 1219 3383 3396
4 3449 4359 3720 1190
4 4665 3727 3726 3729
4 3444 4781 3486 5338
4 4501 5188 5072 5858
4 5194 5198 644 635
4 5246 5858 1069 1078
4 5188 2890 635 626
4 5149 1050 55 54
4 3977 5147 5154 5144
4 5835 5364 1053 1062
4 5871 5836 1062 1071
4 6228 1595 5231 1604
4 4766 6182 6181 6231
4 3519 5223 5207 4393
4 6226 6064 6240 5923
4 6222 1577 5849 1586
4 4197 5849 6222 1577
4 4826 5593 5138 6276
4 5768 5186 5752 5253
4 6221 6220 5872 1597
4 5080 3310 3304 5086
4 3161 1570 1579 1578
4 5085 5136 619 610
4 4234 1440 4829 1431
4 4601 5758 5738 5750
4 6160 4883 6161 1448
4 4883 5962 1448 1449
4 4896 6171 6098 4819
4 4969 1430 5671 1429
4 6246 1429 5671 1438
4 4372 4370 10 278
4 4370 1753 10 9
4 4051 9 4370 277
4 5766 5365 6036 5418
4 6046 1744 1754 1753
4 6046 1754 1744 1745
4 4405 4368 4370 4372
4 4057 3747 5592 5620
4 5580 4682 4711 828
4 3371 6112 5274 4750
4 4641 816 4685 28
4 5552 4102 6116 1358
4 5552 6116 1367 1358
4 6083 5551 6096 5600
4 6118 4715 1376 1367
4 3615 4063 4020 4354
4 3713 5634 4482 4481
4 5446 5310 748 739
4 4475 4480 311 4479
4 4321 338 4564 337
4 3969 3971 3970 3975
4 5447 5426 730 729
4 4486 4149 327 326
4 4512 4472 5926 3437
4 4457 3971 299 308
4 4461 4458 309 318
4 4607 4614 5126 6004
4 2510 3700 6343 3540
4 3845 4101 3605 5605
4 4332 5606 1852 1853
4 3969 3973 3972 3975
4 5031 4365 1711 5029
4 741 742 4103 750
4 4005 5016 4006 758
4 4323 3754 5016 749
4 3400 5422 1722 1713
4 3393 3400 5422 1722
4 3392 5029 1711 1720
4 5437 4314 1713 1704
4 3973 6266 6264 3513
4 3755 750 3753 4103
4 6048 261 1814 6049
4 6227 6048 1293 260
4 6227 1823 6048 260
4 6048 261 1284 260
4 5609 6087 6090 6037
4 4570 1302 4131 6086
4 4317 6273 4541 1804
4 3042 3043 3044 3076
4 5273 3682 3278 5530
4 3681 3683 3689 1341
4 3689 3683 1340 1341
4 5377 3689 3683 1340
4 4145 4354 3612 6124
4 5376 4306 5381 5380
4 5377 3683 1349 1340
4 425 4719 4542 424
4 2312 4617 3829 4705
4 2319 4679 4667 5176
4 4337 5639 1395 5521
4 6131 6278 6263 1870
4 4277 5569 4287 4286
4 4285 4144 1863 1872
4 3846 2379 4019 4610
4 5586 814 4674 5560
4 5435 4333 1854 1853
4 5292 5435 4333 1854
4 6099 1863 5435 1854
4 5845 5914 1091 5409
4 5197 5265 5211 5239
4 3249 5875 5948 4846
4 1161 1170 5277 4191
4 5211 5296 668 669
4 5265 5269 669 670
4 5281 5331 5326 689
4 5975 5283 5941 1125
4 5307 5071 1104 5225
4 5307 1104 5285 1095
4 4215 4451 760 759
4 4215 4451 759 5016
4 6039 1790 1789 1781
4 4323 5016 758 749
4 3427 3428 3430 3438
4 4215 760 4216 769
4 5686 5463 5541 4064
4 5463 4064 4065 1808
4 5476 4099 5466 4452
4 4338 5699 1961 1952
4 4734 3273 3669 3647
4 5708 5695 1943 1942
4 4338 5733 6291 1960
4 4704 4040 4043 4041
4 4616 4043 396 395
4 4799 5964 4629 4648
4 4108 4883 1449 5962
4 6302 5501 6161 5524
4 5961 6136 4234 4828
4 6160 1439 4883 1448
4 4829 4883 1439 1440
4 6160 5502 5671 1438
4 6097 1955 5916 1956
4 5457 5479 1974 1983
4 4976 3632 4941 3243
4 6193 3835 6191 5008
4 6197 4968 6303 6178
4 3501 3871 3520 3496
4 5487 5033 5488 5009
4 4159 481 4160 472
4 5725 499 4162 508
4 5714 497 4923 506
4 5702 4932 515 516
4 3931 4963 4126 3523
4 3510 4976 4948 4260
4 4928 5747 943 944
4 5106 1033 5064 1032
4 5148 5825 1034 1033
4 5144 5147 607 5092
4 5146 1050 5163 5846
4 3996 5835 5890 5836
4 5146 4182 53 608
4 5364 1052 2913 1053
4 5430 5432 1028 5429
4 5844 5364 1052 2913
4 5062 52 4182 599
4 5062 5063 590 599
4 2644 6070 2642 5261
4 5466 4452 751 752
4 5902 3785 4453 5421
4 3957 4448 756 755
4 5770 5774 5775 976
4 3242 3243 4976 4941
4 3852 4083 4092 3843
4 5727 3122 4738 3214
4 5678 5679 941 5737
4 5732 159 5754 959
4 5786 5754 160 968
4 4188 5775 6304 5774
4 4195 4194 1022 1013
4 3154 5428 5429 5799
4 4482 5848 5635 5165
4 5826 2058 167 166
4 4522 4194 2049 2058
4 4813 4843 4877 925
4 4518 5634 4481 4482
4 5683 4812 4843 4813
4 5725 4907 507 508
4 4923 5702 506 507
4 5476 5542 4099 4452
4 6042 4451 3755 4452
4 5542 4216 4452 5475
4 3755 4451 750 751
4 4215 4451 4216 760
4 5476 5542 4452 5475
4 5304 1771 1762 1763
4 5327 749 5310 740
4 4452 4451 6344 6042
4 5339 4410 5687 6335
4 4097 4099 1789 1798
4 4097 1789 6039 1790
4 6344 4216 4451 4452
4 4214 4468 5562 5513
4 6344 5542 5562 4216
4 2502 3823 2504 2503
4 3941 6043 6073 4065
4 5484 5051 4006 768
4 5554 5484 4217 5507
4 5484 768 4215 769
4 3422 4003 5016 3756
4 5484 4215 4217 769
4 5554 5544 4468 5513
4 5484 3055 5051 777
4 3788 5051 767 4006
4 5562 4467 1806 1815
4 3160 5526 795 3910
4 4214 5484 4215 4217
4 3285 3209 3502 5705
4 3677 3845 4613 5605
4 5584 4030 821 812
4 3605 831 4101 830
4 3847 5584 4030 3603
4 4610 4144 5606 5435
4 4949 5808 4535 4557
4 5522 5584 4030 3847
4 5576 1842 143 142
4 4228 5605 831 832
4 4674 4228 3605 822
4 3873 5804 5780 983
4 3814 4047 1990 4165
4 5166 5164 2016 2015
4 4958 4991 4961 962
4 5917 5614 2028 2019
4 3042 5519 4594 4593
4 6125 4805 4881 3896
4 6123 5977 1417 1416
4 5653 1928 5654 1937
4 4881 1424 3898 1423
4 5660 5661 6159 4331
4 5903 4778 3405 4180
4 4720 440 4038 431
4 4860 5747 4961 952
4 4860 4824 951 952
4 4859 934 4928 943
4 4812 4928 934 4813
4 4936 4813 4876 935
4 4860 4909 5723 942
4 4307 4177 4932 4907
4 4162 4823 508 509
4 5690 6014 955 964
4 4983 4981 4171 4943
4 5214 5221 1601 5213
4 6323 5221 1602 1601
4 5252 6241 5221 1602
4 5132 5133 1619 1620
4 5470 5156 6216 5848
4 6216 2078 5848 2079
4 5471 6216 5814 5848
4 4450 5433 1027 1028
4 5814 5635 2069 2068
4 5848 5165 2070 2069
4 6319 6216 2079 2088
4 6202 4202 2105 5089
4 5830 5848 5165 2070
4 3977 5843 5919 5846
4 5153 633 5170 632
4 5153 5079 633 624
4 4985 4986 615 614
4 5078 4985 4986 615
4 5919 4506 3836 5078
4 6309 6310 5215 2056
4 5215 2056 6310 2065
4 6206 2054 5216 2063
4 2062 2523 5582 2053
4 3802 3808 4935 3809
4 5101 4973 6203 5968
4 4514 4516 2524 4520
4 5539 5058 5803 6192
4 3221 2188 2197 2196
4 3720 1190 4359 1191
4 5172 657 5217 648
4 5275 5253 655 5186
4 5993 5320 1624 5984
4 5040 5041 649 640
4 4171 526 4977 4177
4 5039 5033 553 562
4 4171 4981 4980 4943
4 4171 4962 4943 4980
4 5075 6155 5794 5076
4 4308 4978 4964 3707
4 4980 4981 536 545
4 4983 4996 4943 4942
4 5678 158 5732 950
4 3755 3754 750 5016
4 5448 5450 731 722
4 5324 5302 1761 5303
4 5436 3506 3393 5421
4 4253 4254 130 723
4 3943 5461 5028 4364
4 5124 4447 5116 5327
4 5443 5123 5337 5124
4 5448 730 5426 721
4 4314 1705 5117 5118
4 4254 1706 130 129
4 3427 4461 3433 3432
4 4839 3588 5389 2999
4 3139 4006 3756 4215
4 2503 2502 1802 1793
4 3579 1905 150 149
4 6127 6117 4780 3504
4 3828 2311 4543 4718
4 4263 3220 6334 5631
4 3296 3670 5656 3606
4 4741 4779 6127 1891
4 3808 5955 3801 4114
4 3677 5607 4101 5605
4 4263 4804 3220 3503
4 4741 4740 5581 4336
4 4612 4613 3845 4228
4 3357 3924 5164 6165
4 5786 6304 6305 5774
4 5804 5120 5780 992
4 6183 6197 4227 5083
4 4905 4958 963 4991
4 5770 967 5774 976
4 4085 5783 2024 4086
4 5804 3842 4169 4259
4 6304 4085 5783 2023
4 4188 2013 162 161
4 5261 5294 6060 6277
4 6340 5513 5509 5544
4 5509 4725 1835 1836
4 5509 5544 1826 1835
4 3920 4235 6343 4236
4 3799 3512 3973 3439
4 4696 5530 3278 3682
4 3820 1308 4353 1317
4 5529 1325 4676 1334
4 4561 4353 3820 1308
4 3738 4142 5601 4745
4 2803 6116 6118 5552
4 2329 5629 4500 4499
4 6118 1367 5552 6116
4 6282 5174 5176 6120
4 4806 6147 3570 4499
4 6079 5549 5616 6282
4 4715 1367 6116 1368
4 6120 5176 1385 1384
4 5498 5500 1286 1287
4 5500 1296 3352 1295
4 6074 4787 1820 6075
4 5263 5267 5262 6092
4 3350 6272 3352 6090
4 4322 1267 4054 1266
4 6272 1303 1294 1295
4 3237 6226 5140 5320
4 5114 6219 5205 5113
4 3113 5173 5300 3887
4 5254 665 5253 656
4 5753 3543 5752 5768
4 5204 4284 629 5097
4 5300 5217 647 648
4 3542 5217 3113 5751
4 5186 5217 656 647
4 5768 5984 5993 5982
4 4771 564 555 556
4 4960 2817 2814 1543
4 6184 5001 3850 5082
4 4120 546 3850 555
4 3850 546 547 555
4 4960 1543 2814 1534
4 2868 2869 2858 573
4 6195 1533 2814 5091
4 3242 4931 3930 4941
4 2240 1540 2239 1549
4 2019 5614 6207 5917
4 6191 6192 1505 1506
4 2602 2338 2966 2967
4 2947 1025 5666 1026
4 5818 1016 5666 1025
4 3801 4361 4933 5955
4 4050 5130 5132 6323
4 5233 6134 5923 6320
4 2477 6225 5220 5004
4 5173 5300 638 647
4 4470 650 5025 649
4 5921 6234 6235 4273
4 4170 5040 640 5041
4 4951 4362 511 510
4 4941 522 3118 513
4 4227 529 4956 3116
4 3891 5001 4987 2291
4 3930 3707 524 4932
4 3789 3581 2806 3774
4 5030 4171 4177 4178
4 3775 4934 6196 4912
4 5611 6207 5334 5613
4 4339 513 3632 504
4 4163 5013 568 5104
4 3839 5044 557 558
4 3891 4987 3804 2291
4 5007 557 4261 556
4 4446 3883 4922 3576
4 5902 3787 3785 5426
4 4399 1783 5491 5319
4 5419 5422 1714 1723
4 4453 1731 5421 1732
4 3785 1733 3787 1732
4 3985 6256 6174 6051
4 5361 5902 5447 3787
4 4406 5310 739 740
4 5419 1724 3785 1723
4 4406 5327 5310 740
4 3632 4339 4976 513
4 3634 4248 495 494
4 3243 3632 4941 3118
4 5295 5585 5288 5344
4 3386 5356 6011 5355
4 6011 1666 6019 1665
4 4184 6251 6020 6017
4 4072 1208 4073 1207
4 5271 1226 5995 1225
4 5791 2896 5270 2897
4 2670 2436 1238 2437
4 5783 4086 2033 2024
4 5782 6306 5797 5785
4 6311 4086 2034 2033
4 4946 5120 993 1002
4 2525 5636 4520 2051
4 4997 3481 4939 5076
4 6338 6305 6301 4087
4 4515 5483 4516 4946
4 2523 5582 5493 5831
4 6311 2042 5785 2033
4 5144 4986 606 615
4 3996 5469 5890 5896
4 5227 4150 4155 3840
4 5818 5825 1024 1025
4 5006 588 5005 597
4 2895 5161 5896 6313
4 2963 5144 3950 5092
4 5078 4985 615 624
4 5062 5064 4182 1032
4 5844 5163 5064 1042
4 5782 4945 5771 6306
4 5805 5120 1001 4446
4 5804 993 5120 992
4 4407 6260 1760 1759
4 4427 1760 1751 124
4 4427 125 4455 718
4 4427 124 1751 125
4 5415 283 284 292
4 3429 3428 5468 3956
4 4068 4411 1759 1758
4 5876 6317 2112 2113
4 6307 5255 6293 5899
4 5885 5863 1075 1076
4 2371 2340 2370 5910
4 4703 6202 5089 4202
4 5885 1067 4356 1076
4 5859 5885 1066 1067
4 5850 5859 5885 1066
4 5162 2818 5161 4670
4 5002 5003 5570 5171
4 6293 5878 5862 6317
4 5832 5851 5838 1040
4 5617 4336 1893 1902
4 4742 1883 4147 1884
4 4062 2412 4491 4740
4 4679 6118 4715 5176
4 5616 5624 1911 1912
4 5630 1901 6128 1910
4 5581 1892 4336 1901
4 5617 5616 1902 1903
4 5200 5381 4336 4742
4 3604 839 5578 838
4 4280 4125 4780 4062
4 4869 1645 6249 1644
4 4872 2173 2164 2165
4 5934 4870 5110 4039
4 3386 6011 4358 5355
4 5988 1637 5460 5190
4 5109 1626 4868 223
4 4869 1635 1636 1644
4 6023 6249 1653 1644
4 4123 4039 1619 1618
4 2445 4869 5191 6249
4 5080 4187 594 603
4 4520 5636 2524 4514
4 3205 5052 3204 5032
4 3950 606 4986 605
4 5063 589 5081 590
4 5086 596 3950 605
4 2892 2894 1035 1044
4 3497 2524 5582 5493
4 5148 5064 1033 1042
4 2894 2947 1035 1034
4 3958 5148 5844 5064
4 5579 849 3105 848
4 5602 5579 3105 848
4 2908 5578 2906 3604
4 4501 5194 5218 5079
4 3143 2213 2215 3864
4 5235 5192 1071 1080
4 5888 5893 1080 1089
4 4727 5936 5842 5889
4 5030 4944 4171 4178
4 5037 989 5794 998
4 4942 4943 970 979
4 4977 4177 525 4932
4 4345 4991 972 971
4 5779 5014 990 5794
4 3883 3871 5780 4922
4 5014 5794 989 990
4 5037 988 4996 989
4 4345 4942 971 980
4 3713 4515 4514 4481
4 5767 5186 5300 5217
4 5993 1625 5982 1624
4 5320 5984 1623 1624
4 5993 5984 1624 5982
4 2973 1623 5984 1632
4 5233 5923 6226 6240
4 4275 5226 1643 6000
4 5295 5585 5155 5288
4 5253 665 5278 664
4 5768 5982 5275 6232
4 3149 1499 5083 1498
4 4935 4916 1488 1479
4 3802 4245 4935 4916
4 3631 3634 4339 3632
4 5008 6191 1496 4245
4 4934 6196 1477 1486
4 4227 4956 529 528
4 6178 4968 1497 1498
4 4264 3408 4593 5703
4 4652 4580 844 5553
4 4732 5604 853 862
4 3604 830 3605 4101
4 5652 866 3670 875
4 4700 3960 858 3105
4 5606 6110 5435 4332
4 3867 4341 5704 3865
4 4656 2166 178 2157
4 4656 2157 178 177
4 5935 177 4656 1121
4 3066 3717 2168 2169
4 3729 2175 5423 4654
4 3346 4866 3097 3265
4 3814 4988 4047 4165
4 4815 37 897 38
4 4815 906 38 897
4 4246 4248 486 495
4 4158 462 4760 463
4 5046 4923 4907 5702
4 4238 4877 917 4901
4 5647 5641 909 918
4 4423 6013 5026 5170
4 5203 5409 1091 1082
4 4687 5153 623 4985
4 5904 5893 1089 1088
4 6013 5236 5026 5170
4 5246 1078 5349 5858
4 5041 5026 641 5170
4 5026 641 5170 642
4 5236 5026 5170 642
4 4467 1815 139 1806
4 6345 5526 3027 5472
4 4467 1806 139 138
4 5475 1806 4467 138
4 5542 4099 1798 1797
4 5542 5562 1807 5541
4 5463 4065 1809 1808
4 5035 5050 5054 1005
4 5036 5037 998 997
4 5011 998 5794 999
4 5069 5049 5054 1006
4 3242 4959 4947 4941
4 3875 4939 4997 3520
4 5027 5809 999 1000
4 3564 4922 3576 4446
4 5015 5037 5036 997
4 5805 5799 1010 1011
4 2752 2753 3200 5358
4 4672 4648 386 385
4 5877 4675 4694 5583
4 4090 394 4096 393
4 4042 4672 386 4043
4 1777 4212 1785 6265
4 6027 4299 4300 1249
4 3026 5051 4078 3055
4 4299 4454 1250 1241
4 3516 4299 4454 5480
4 4630 4650 368 369
4 2720 3821 3058 2715
4 5877 4675 5583 4611
4 4608 4653 369 370
4 4626 4630 4649 368
4 4551 4604 350 351
4 4609 6093 4226 352
4 4134 1280 4552 1289
4 3078 3289 4718 3828
4 3833 3083 3738 4745
4 4584 3829 4616 405
4 3833 4746 3083 4745
4 4749 5574 5313 4744
4 5574 1399 1390 1391
4 2312 2309 4705 3829
4 6235 1607 1616 1615
4 3234 3887 3542 5767
4 6235 6220 1607 1606
4 5233 1604 6226 1613
4 2973 5320 5984 1623
4 2772 3620 2973 5969
4 5233 5456 6226 3619
4 2664 5196 2880 2881
4 4652 4580 845 844
4 4278 3323 846 845
4 4652 845 4278 854
4 4415 4753 4724 4730
4 2261 2759 3714 3495
4 4752 4732 5594 4652
4 2513 2527 2424 2519
4 3045 2520 3572 2527
4 3742 5028 5031 4365
4 3455 3784 4209 3456
4 5972 4014 6034 6040
4 3513 1739 4301 1738
4 6264 3507 6055 3440
4 5419 1723 5421 5422
4 3505 1739 3513 1730
4 6268 6264 1738 1737
4 3392 3507 5673 5029
4 3703 3937 4929 5673
4 3516 4420 4454 4299
4 3203 2966 2911 2948
4 6054 4439 4832 1244
4 5972 3936 4014 4642
4 5330 5370 6331 3597
4 5902 5426 5447 3787
4 5417 4426 1737 1736
4 6069 3507 6271 1719
4 3516 1699 3517 1708
4 5481 1708 3517 1709
4 5427 4664 3849 1157
4 5954 3849 4664 1157
4 5954 2193 3849 181
4 3849 191 2193 1166
4 3849 2193 5 181
4 3849 5 2193 191
4 4861 5588 5301 4175
4 477 4255 5588 478
4 3462 4117 6164 4858
4 4902 490 4884 499
4 4093 4911 4116 4117
4 3495 5449 5829 5493
4 4889 4863 485 484
4 4246 4247 4698 477
4 4936 4876 936 935
4 4246 486 4247 477
4 1143 5948 5950 5404
4 5957 714 706 715
4 2880 2879 3654 5296
4 2787 5538 4154 4703
4 2845 2930 2846 2929
4 5326 5224 5225 5932
4 5065 1189 3745 1180
4 4755 3745 5065 1189
4 5065 3745 3744 1180
4 5996 1205 5314 1214
4 3411 5065 3409 3410
4 4184 5887 5271 1225
4 2689 3449 3409 5068
4 3868 4633 4781 5314
4 3869 3870 5986 5314
4 6319 6216 5156 2079
4 5813 5088 2087 6216
4 6316 5088 5089 2096
4 5865 5838 5812 5867
4 4523 24 4545 347
4 4545 780 25 24
4 4523 4545 4564 347
4 4545 25 4596 356
4 4490 5494 781 780
4 4590 347 4545 356
4 6345 5472 3027 5554
4 4682 4220 4681 827
4 5523 3452 783 5477
4 4556 4210 333 342
4 4524 3905 344 4495
4 4775 2865 5412 5530
4 2586 3184 3185 3177
4 5532 5477 792 791
4 3954 3955 3956 3428
4 4719 425 4180 434
4 4542 416 4181 425
4 5618 5648 4792 4793
4 3770 4279 4652 4278
4 4264 4788 441 450
4 4765 426 4753 427
4 4288 4792 871 872
4 4542 407 4724 416
4 5017 563 5050 572
4 2619 3498 3777 4059
4 4155 5227 2787 5538
4 5027 5810 5809 1000
4 5062 51 1023 52
4 4930 3930 532 4959
4 5009 4994 4993 552
4 2389 2936 2934 2933
4 5779 5076 5014 5794
4 3674 3137 3535 3836
4 3478 2292 3523 3522
4 5922 5921 5872 5920
4 4156 5469 4155 5890
4 5025 659 5210 658
4 5975 4846 5908 5931
4 3869 4633 5314 5996
4 5309 5197 5248 5265
4 5333 5982 1634 1633
4 5254 666 5155 665
4 5728 4734 3273 3669
4 5726 5699 1962 5731
4 5708 4800 1942 1951
4 5699 5731 1961 1962
4 5682 6149 5695 6213
4 4734 4738 5728 4736
4 4739 920 5668 929
4 6160 5671 4829 1439
4 4829 5671 1430 1439
4 2614 4898 2613 6151
4 5676 6097 4989 1964
4 6292 1946 5916 1955
4 4126 4993 4994 3521
4 2522 3497 2524 5582
4 4871 2174 4872 2165
4 4283 5942 2153 6321
4 4869 5988 5191 1645
4 5988 1628 5460 1637
4 4798 4123 4039 5132
4 4850 2164 6237 2155
4 6245 6321 6325 2145
4 4851 2147 2156 2155
4 6236 6238 2164 6254
4 5677 1933 5694 1932
4 6330 5694 5681 5675
4 5677 3830 1923 1932
4 5670 6109 1925 1916
4 4635 3101 3106 4706
4 5656 3962 877 868
4 3558 3559 4329 4328
4 5693 1925 6214 1934
4 3894 3971 307 298
4 4013 3987 3494 5504
4 3507 1729 6264 1728
4 6041 6034 1263 1262
4 4134 4599 4552 1280
4 3702 6271 5481 6069
4 3511 6264 3507 3513
4 6035 6271 6055 1718
4 4118 4439 6262 1252
4 4206 3944 5464 5122
4 4472 3970 3436 3971
4 3440 6264 4426 6055
4 6268 6264 6266 1738
4 4369 1743 216 215
4 4439 3518 4373 1716
4 4426 6055 1728 1727
4 6264 3513 1738 1729
4 6124 1856 4089 1865
4 4146 1865 4089 1866
4 5323 4561 2996 5772
4 4285 1863 6099 1864
4 5678 5679 1977 157
4 6070 6104 5463 5496
4 4267 5557 1849 1858
4 5364 5836 5073 1061
4 5077 5364 2913 1053
4 5871 5836 1071 5192
4 5836 5192 1070 1071
4 5836 1070 5192 5073
4 5047 4873 4910 4864
4 5726 3771 5699 5731
4 4867 3270 3999 4811
4 5641 4901 917 918
4 5647 5641 918 4901
4 3121 2850 3281 4738
4 5709 6288 6230 5978
4 3794 4866 5647 5641
4 4739 929 5668 4598
4 3645 4338 5708 5699
4 3422 3755 5016 3754
4 5031 4364 1703 1702
4 4097 1790 6073 1799
4 5437 4314 5422 1713
4 5031 4365 1702 1711
4 5118 4254 5419 1715
4 5425 1694 5464 1695
4 5445 5454 3609 4098
4 3944 5425 3943 4364
4 4841 4541 3750 5340
4 6063 4363 4365 1701
4 4430 5317 5319 6082
4 3227 6063 6174 4363
4 6071 4541 1803 1804
4 3518 1707 1716 3488
4 5505 1269 5504 1260
4 5817 1269 4434 1268
4 3227 6063 3985 6174
4 4315 4533 6058 1248
4 3324 5340 5341 2502
4 4434 1268 5400 5817
4 2840 4988 3814 3815
4 5013 3839 558 5044
4 5747 3317 5514 3639
4 4993 551 3521 542
4 4993 4994 551 552
4 3838 5048 5104 5103
4 5019 5102 4163 4168
4 5878 2113 5879 2114
4 5860 2121 173 2112
4 5678 5743 941 950
4 3313 4385 4726 4727
4 5863 4389 5646 6293
4 5876 5869 6201 2103
4 5860 172 2112 173
4 3532 3530 3660 5080
4 4986 3950 3535 5144
4 5425 1703 5461 4364
4 5339 4433 5341 6336
4 4399 5492 1782 1781
4 4447 5450 732 731
4 5425 1704 5437 1703
4 3399 5461 3398 3400
4 3712 5327 4323 5310
4 5031 4364 1702 4365
4 5437 3400 1712 1713
4 5525 5520 6145 5521
4 2731 2739 4969 4828
4 6145 5520 1403 5521
4 6150 5654 1929 1938
4 6283 6080 6289 5624
4 3580 4733 4785 445
4 4733 436 4645 445
4 2484 2485 2422 2490
4 3407 4763 4778 4733
4 4719 4751 4180 3405
4 5194 5858 5272 5198
4 4507 5192 5246 5073
4 5154 5147 617 616
4 5193 5194 5243 5272
4 5858 5198 1077 5272
4 5349 5858 1078 5272
4 6276 2071 5830 2062
4 5118 4254 1715 1706
4 5123 5437 5422 3400
4 5444 5474 5466 743
4 4098 4099 1788 1789
4 5352 4073 1208 1217
4 2896 6006 2886 3396
4 5441 3620 5969 1640
4 5887 4073 5271 1216
4 3331 3418 3224 1210
4 1210 3418 1209 3396
4 6007 5270 1218 1227
4 4072 5352 4073 1208
4 4072 3416 1199 3720
4 3450 3153 2671 3383
4 5132 1619 4039 1610
4 5109 4870 1626 1617
4 4123 1619 5133 1628
4 6018 4869 4870 4123
4 2234 2233 2231 2241
4 3613 1581 5642 1572
4 3916 3734 5847 5914
4 5447 5310 5446 739
4 3512 3513 3505 4301
4 5512 4457 3971 4395
4 3505 3513 1739 4301
4 1739 1740 3505 3825
4 4080 4479 5468 4475
4 5415 293 4032 292
4 6294 4575 4615 4547
4 4348 5097 620 621
4 3306 4348 621 5097
4 4689 4348 3306 5097
4 4908 602 4167 4187
4 2663 5195 4396 5904
4 3198 5005 3958 5092
4 3621 5827 5080 3530
4 5136 4348 5159 620
4 2855 4150 5469 5161
4 5788 1327 6095 1326
4 3966 4694 3736 4192
4 4574 4625 1328 1327
4 5788 6095 1327 4625
4 5781 4676 5788 6095
4 4723 4574 4722 5583
4 5788 1326 4676 3821
4 4578 4676 1325 3821
4 3949 449 4788 4783
4 5395 1399 5977 1398
4 4748 4759 4803 6141
4 4749 1400 1409 1408
4 4772 1418 6143 6141
4 2787 4154 4153 4703
4 6326 4776 6142 6143
4 4805 1414 4881 1423
4 4776 4802 456 457
4 6123 5977 4803 1417
4 4038 4594 5976 6152
4 4328 4239 1416 1415
4 3322 3405 4643 3289
4 4377 6159 1434 4858
4 6152 4690 4038 439
4 4594 6152 4038 4595
4 5976 5977 4749 4803
4 5707 4163 5102 5104
4 2294 3528 3663 3838
4 3850 6184 5082 5855
4 4930 4963 541 532
4 4959 4941 522 3118
4 2636 3492 5332 3807
4 2810 3162 3316 2367
4 4930 2291 3804 4987
4 3522 549 3839 2291
4 3521 4163 559 551
4 4221 825 4222 826
4 4895 4580 4220 3323
4 4651 4278 4580 3323
4 4221 826 4220 835
4 4621 399 5568 408
4 4678 390 4660 399
4 4647 4148 400 401
4 4647 4582 401 392
4 5145 4678 4638 4660
4 4681 4684 818 817
4 5020 5105 1639 1648
4 2897 5352 5271 4073
4 5131 5130 1620 5132
4 3388 5270 5995 5271
4 4781 1196 5338 1197
4 5441 3620 1640 1639
4 4154 5228 6316 6199
4 5020 5355 1648 1649
4 6011 5356 1666 1657
4 3875 3876 3871 4919
4 4154 5538 6200 4703
4 4903 4904 4344 4991
4 3929 3930 3707 4964
4 6155 5794 990 999
4 4899 4902 5725 498
4 5069 1006 1005 997
4 3455 4562 765 774
4 4513 4531 3597 4473
4 3025 3029 3031 3910
4 3699 5522 5584 6001
4 4673 813 4030 812
4 5261 4725 5251 5509
4 6060 1827 4631 1828
4 3160 5526 796 795
4 4214 6344 4216 4215
4 4573 1828 4632 1829
4 5535 5532 792 801
4 5964 4672 4096 4090
4 3371 3401 3738 5601
4 4672 4090 394 4096
4 6112 5657 1362 5598
4 4618 4616 395 4043
4 4702 5601 1370 1361
4 2744 3296 3866 3606
4 4618 4616 404 395
4 4747 1391 4692 420
4 5543 141 5563 797
4 5527 806 5565 805
4 4631 3826 1819 1818
4 5540 5543 5563 797
4 5528 1842 5563 1833
4 5563 1833 142 141
4 5555 1825 5544 1834
4 5528 1834 6274 1843
4 6106 1876 2545 1877
4 5379 5378 2545 1876
4 2546 6106 2545 1877
4 2547 2544 1338 2546
4 5379 1884 5381 4742
4 6037 3351 1313 6090
4 6127 5569 4281 1881
4 6127 5569 1881 1890
4 2496 3700 2497 2500
4 5572 4140 5628 5663
4 3504 3330 5569 1889
4 5597 832 4559 833
4 3580 4760 453 454
4 4840 4816 897 898
4 4866 3271 5647 5641
4 4797 4784 4815 4816
4 4797 897 4815 37
4 4661 4665 4664 5953
4 5408 4503 1183 1174
4 3716 4655 5886 3728
4 5963 5066 1181 4045
4 3724 5973 5068 4045
4 4290 4045 1191 4359
4 4290 1200 3418 3720
4 3383 6250 1219 1220
4 4045 4359 1190 1191
4 5066 4045 1190 1181
4 4674 823 4228 822
4 4030 3605 4674 4614
4 4286 5569 1880 1881
4 4125 4280 4780 4277
4 3605 4030 822 821
4 3239 4154 5228 5088
4 6127 6117 3504 1890
4 3603 3605 821 4030
4 3603 3604 829 830
4 3373 5375 4207 5537
4 4491 3502 4779 5631
4 4372 11 4374 279
4 4374 11 1755 12
4 4381 4374 12 280
4 4424 6053 287 288
4 4405 1745 5417 1746
4 4424 3976 288 289
4 3972 6268 6266 6267
4 6343 4236 810 5517
4 5535 4236 5532 801
4 2564 2991 2994 2992
4 5537 6343 3700 3920
4 4236 5517 809 810
4 6033 6170 4619 5536
4 3030 6340 6070 5261
4 4590 4545 4596 356
4 4688 4236 5517 809
4 4159 5649 4844 473
4 3377 4965 3999 3376
4 4879 4899 488 489
4 4902 4880 4884 490
4 4845 4844 915 4843
4 4877 917 4901 926
4 5683 4884 4880 4885
4 4877 926 4901 4876
4 4875 4877 4901 4876
4 5641 4875 4238 4901
4 4865 4885 482 491
4 4845 906 4816 907
4 5558 4219 4681 4680
4 5808 6033 4535 5536
4 4494 2421 3289 4181
4 3536 4636 4224 4586
4 4743 4895 4680 4682
4 4678 4683 390 389
4 4612 4559 4674 5586
4 4081 371 4658 380
4 4684 5567 808 817
4 3907 6093 4224 4226
4 4274 5316 4104 4106
4 1144 5952 5282 4021
4 3191 4143 3193 1117
4 5816 1169 5811 1170
4 5282 3695 5952 1136
4 3857 3066 5981 2160
4 3072 3415 3195 3722
4 5952 3695 1137 1136
4 3695 4204 1129 1128
4 3698 3697 1138 1147
4 1526 1534 1535 4770
4 4120 4770 555 3850
4 2858 565 4190 574
4 6195 5545 1524 1533
4 2815 2858 4771 4261
4 3531 3660 584 585
4 2813 2814 5060 5091
4 594 3532 5080 595
4 4190 565 4261 566
4 2239 5060 3690 1550
4 5060 5091 2814 1542
4 4294 5185 5556 4391
4 5609 6037 6090 3351
4 5250 4725 5294 4333
4 6074 4632 1819 1820
4 4385 3915 3914 5983
4 5210 5322 5321 667
4 5322 5211 5296 668
4 2340 2343 2342 5886
4 5912 1107 1098 1099
4 5211 659 5239 660
4 6013 5236 5170 5218
4 4453 1732 3785 3787
4 3954 4037 4488 3957
4 3390 1730 3513 1729
4 5421 3785 1732 1723
4 4794 452 4782 453
4 3124 4158 4833 4794
4 4797 464 36 37
4 4157 4782 4794 452
4 4238 4845 5701 907
4 5632 4645 5621 4785
4 5583 6095 1336 1335
4 5669 4626 4534 4604
4 4629 4090 384 385
4 4723 4574 5583 6095
4 4525 4693 4722 1346
4 4626 368 4649 367
4 4721 4648 4629 4649
4 6103 4702 3608 1360
4 4609 5290 4551 5291
4 5994 1675 6017 204
4 6017 204 1676 205
4 5249 1233 6017 205
4 5989 6008 5994 6019
4 6251 3388 3387 6019
4 5105 2889 5190 4358
4 4598 5152 938 939
4 3282 931 5719 930
4 5718 5741 1978 1977
4 5756 3923 3922 3919
4 4905 4904 964 4906
4 6282 5174 5175 5176
4 6118 4715 5176 1376
4 2319 6120 4667 5639
4 5175 6209 5550 1374
4 5174 5175 1384 1383
4 5175 1375 6118 5176
4 4206 1764 5465 1773
4 5491 5492 1773 1782
4 3426 3753 3755 3754
4 5325 1697 1688 131
4 2214 5227 3239 4154
4 5506 1772 5492 1781
4 6039 4098 1780 1789
4 5445 6039 4098 1780
4 5714 4893 496 4260
4 5714 4937 5796 4260
4 4880 4884 490 4885
4 5043 5712 4698 4863
4 6123 1417 6143 1426
4 3946 3947 4783 4774
4 5850 5859 1057 5853
4 5868 6199 6202 6316
4 5833 4237 5432 1038
4 5146 5163 4182 5127
4 5470 3864 5156 3859
4 4519 1021 5638 1020
4 5429 5799 1020 1019
4 5538 5644 5850 5646
4 5644 1074 5645 1073
4 4389 5850 5859 5885
4 5644 1065 5646 1074
4 4393 5878 5879 5207
4 4202 5879 2105 2114
4 6024 5850 5841 5853
4 6289 5624 1921 1920
4 2920 5639 5521 6133
4 4496 4498 5624 6283
4 5525 6145 6133 5521
4 4462 4174 3404 4794
4 6150 6138 1938 1939
4 5768 5183 5982 5993
4 5864 5300 5230 4284
4 3886 3236 5923 3237
4 5183 5230 5186 646
4 5140 6226 1605 1614
4 5140 5320 1614 1615
4 4273 636 5181 637
4 4724 4537 407 4542
4 5607 4140 841 5605
4 4139 4140 851 850
4 6285 4232 1906 1905
4 5628 3329 1888 3330
4 4287 5628 3329 5572
4 4287 3504 3330 5569
4 4706 3105 849 858
4 5930 1141 5950 1150
4 5387 4075 4077 716
4 3760 4726 3914 5983
4 5279 4256 1195 1186
4 5930 1150 5950 5949
4 1170 4191 1169 5811
4 5816 1170 5277 1171
4 4191 5943 5949 1160
4 5350 5371 4186 696
4 6308 5811 5943 5950
4 5277 5966 1162 1161
4 5816 1171 5277 3744
4 4191 5966 5277 1161
4 5475 1797 138 137
4 5475 138 4467 770
4 5476 137 5475 761
4 5476 5475 4452 761
4 4216 5475 4467 770
4 5439 4332 5606 1852
4 6110 5439 4332 5606
4 5439 1842 5528 1843
4 5586 815 5564 824
4 6131 6130 1869 1870
4 6111 5576 1851 5564
4 5576 1851 143 1842
4 5171 3614 1583 1582
4 5004 3614 6076 6225
4 4965 5674 892 5658
4 6114 1938 6138 1947
4 5916 6114 6138 1947
4 432 441 4644 4720
4 5653 5880 2923 3570
4 3933 6135 5525 5520
4 3254 2919 2735 3255
4 4806 4498 5624 4496
4 4957 6115 5377 3683
4 2921 6283 6133 4758
4 2922 6289 5654 5655
4 1928 5653 1919 1927
4 5653 1937 5654 6114
4 6171 1973 5479 1982
4 6163 5334 3586 5807
4 6156 1982 5735 1991
4 3591 4820 6156 4165
4 6097 1956 6296 1965
4 6160 1439 4829 4883
4 5524 1447 6161 1456
4 5688 5717 5760 1994
4 5711 5773 1992 1993
4 2741 6297 6296 6146
4 2784 3130 3667 5070
4 2759 5428 3714 4669
4 5841 5643 1055 1056
4 4151 5874 5431 6313
4 2946 1026 2947 5666
4 5432 4237 1037 1038
4 4516 2524 3713 4514
4 5431 5432 4237 1037
4 3675 5890 4156 4505
4 4361 4951 3633 3117
4 4951 3117 4956 520
4 97 4882 2281 1481
4 3886 3343 3583 5864
4 4227 5082 5083 3150
4 3776 3809 4245 4935
4 5400 4434 4731 6052
4 5498 1277 6052 4434
4 6062 1276 1284 1275
4 6075 4541 1812 5340
4 4541 5340 1803 1812
4 4590 355 4544 346
4 4436 6279 4544 4437
4 4523 4545 4490 4564
4 6279 5494 4490 4564
4 4486 4485 336 4437
4 4435 4485 345 344
4 4486 4067 336 327
4 5415 4129 4407 5414
4 4476 4149 318 327
4 5450 5448 4447 5124
4 4397 762 4615 4320
4 5558 4688 4684 4668
4 4067 4476 328 327
4 4397 4319 320 329
4 5706 5691 914 905
4 5708 6149 1952 1943
4 4338 1951 5708 1952
4 5694 5695 5708 1942
4 5694 4800 1941 1942
4 5694 4800 4334 1941
4 5693 5695 5677 1933
4 2485 3048 5305 2527
4 4512 6331 3437 5926
4 3053 3054 784 3452
4 3455 4576 4562 774
4 4576 773 4562 774
4 2718 3895 4777 3326
4 3904 4409 2578 4677
4 4576 782 4588 773
4 3957 3955 4448 3956
4 4122 5010 1008 1017
4 6155 5011 5794 999
4 4122 5010 1017 5666
4 3576 3575 3883 4922
4 4126 3521 4994 4163
4 2636 3493 5332 3492
4 5809 5011 999 1008
4 3694 4888 2985 6076
4 4767 5099 5742 6333
4 3210 3477 4126 5680
4 4026 450 3402 451
4 5689 5880 5730 1936
4 4179 4899 497 488
4 5587 4821 3094 4175
4 965 5690 964 3872
4 3359 3360 965 966
4 5151 5152 948 947
4 5698 5697 948 949
4 3359 5770 3360 966
4 3872 3360 974 965
4 4762 4936 945 3639
4 5769 5776 967 958
4 5779 982 4919 991
4 3873 4259 3842 5804
4 3872 3360 4259 974
4 3842 3883 5780 4446
4 5789 2022 5797 2031
4 4259 3360 975 974
4 6162 5770 976 975
4 5769 5770 966 967
4 5334 3587 3586 6188
4 5100 2028 5614 2029
4 5501 5524 6160 6161
4 3825 3505 1739 4301
4 1740 3505 3825 5467
4 4018 5447 737 728
4 3825 5107 3505 5115
4 4453 3787 1741 1732
4 5543 140 1824 141
4 5543 5563 141 1833
4 5528 5543 1833 5563
4 4135 1824 5543 140
4 5542 1806 5562 5475
4 4135 1824 5555 5543
4 5484 5472 777 778
4 4244 3834 6295 4920
4 6196 3807 4912 5346
4 4047 1990 6156 1991
4 6176 6188 2010 2001
4 5778 6176 6188 2010
4 5662 5807 5761 1473
4 5612 5096 1500 1501
4 5971 2987 5898 5923
4 2000 1999 2008 4047
4 3981 3587 3459 3493
4 501 2280 2281 4891
4 5971 5923 5898 6228
4 4366 4916 4933 1480
4 4918 4933 1470 1471
4 4355 1490 1481 4882
4 4361 4366 4916 4933
4 5971 2989 5187 5897
4 4569 4424 3976 288
4 5515 4411 4402 3824
4 4382 14 282 281
4 3824 4301 3825 1748
4 5108 5512 5115 5515
4 4407 4411 6260 1759
4 5415 292 4402 283
4 4424 4429 4374 6267
4 4429 4380 1756 6267
4 4382 4068 3824 4402
4 5088 2087 6216 2088
4 5923 5898 6228 6320
4 5089 5234 4202 2106
4 6216 3239 6319 3864
4 2480 2956 5881 4205
4 4202 2114 5207 5879
4 4213 2108 3128 2117
4 5232 5566 5642 5570
4 3129 2108 2099 3127
4 3129 2099 2108 2107
4 5160 3128 4205 2117
4 3128 4205 2117 2118
4 6218 5212 2091 6224
4 4933 4916 1479 1480
4 3801 4935 4933 4916
4 3632 503 3634 504
4 4951 511 3117 520
4 4366 4933 1471 1480
4 4798 4123 5132 5133
4 5109 5110 4870 1617
4 5980 5892 6247 5946
4 6228 6320 5252 1603
4 6012 5904 5531 4396
4 5132 1610 4039 6323
4 2207 3602 3515 2217
4 5881 4205 2127 2126
4 1206 1207 4756 4071
4 6064 5971 5231 5923
4 1197 5819 1187 5338
4 1197 5819 4755 1188
4 4781 1206 5314 1205
4 3486 4781 4183 5338
4 2897 2873 2804 2876
4 2875 3387 4185 3870
4 4297 6238 6252 2162
4 5391 5296 678 677
4 4161 5306 687 688
4 5816 3744 4022 3743
4 5372 5299 5957 714
4 5342 4203 4127 694
4 4127 4203 685 694
4 4056 2179 2180 3332
4 3858 2169 3855 2178
4 2886 3416 3396 6006
4 3882 5191 5988 5190
4 5988 5191 1646 5190
4 6018 4869 5988 5191
4 4297 5795 4056 6252
4 5986 4589 3870 3869
4 3411 5065 3745 3744
4 4276 3695 1128 4204
4 5282 1127 3695 1136
4 3194 3415 3696 3722
4 4661 3806 3705 4662
4 4756 4072 1207 1198
4 5256 1074 5644 5646
4 6199 6024 6021 5853
4 5860 5885 1076 5863
4 6307 4529 5407 5255
4 5862 6317 2122 2121
4 5860 2112 6317 2121
4 4902 5725 499 4162
4 6290 2133 6247 5206
4 5328 5329 1107 1106
4 3193 4924 5749 5847
4 3365 5929 2443 3153
4 5894 5308 1106 1105
4 2880 5269 5296 5211
4 3191 5283 1125 1126
4 3191 3192 4581 5283
4 5941 1125 5283 1134
4 3722 5910 4204 4276
4 2341 5915 1112 1103
4 5888 5912 5983 3760
4 6328 4655 3727 4657
4 5914 1091 5409 1092
4 5255 1093 5906 1092
4 5845 5914 1100 1091
4 2949 5818 5666 2947
4 5084 587 5006 596
4 4166 578 3196 587
4 5032 562 5017 571
4 4113 5069 996 5015
4 5063 5127 598 599
4 5005 5092 597 598
4 5433 5432 1037 1028
4 3532 5084 586 5828
4 3565 5665 5038 5010
4 6275 6195 2814 5091
4 2815 5855 3663 4261
4 3665 3839 5007 2291
4 6191 4968 1506 1497
4 5001 539 4975 4987
4 4199 6203 5746 1520
4 5001 2291 5007 548
4 4344 4903 3876 4904
4 4967 1506 4968 1507
4 5803 1505 6192 1514
4 6181 6233 6231 6321
4 6061 6237 5942 6245
4 6242 2153 5942 2162
4 5128 6323 5132 4039
4 6321 2144 6231 2145
4 3508 4932 4307 4308
4 2474 2758 2570 2757
4 3718 4947 4930 3804
4 3846 4610 4019 4286
4 6072 5527 5540 5528
4 5849 1578 5114 1587
4 5205 1587 5114 1588
4 5139 5849 1577 1578
4 3304 4908 4187 603
4 2337 2606 2600 2712
4 3930 4941 4931 523
4 5847 5749 1110 5910
4 3854 3858 3855 3900
4 3194 4276 1127 1118
4 2370 5749 5847 5910
4 2289 2664 2290 4425
4 3069 5913 5945 6239
4 4168 4163 560 569
4 4994 4163 551 560
4 3154 5428 5799 4481
4 4993 4964 543 542
4 4963 4993 542 4964
4 5488 5009 4994 4993
4 5182 1607 83 1616
4 4273 5182 636 645
4 5140 1606 6235 1615
4 5182 82 83 636
4 4094 4890 4248 3634
4 4339 495 3634 4248
4 1469 1468 4115 4110
4 1478 4115 1477 4934
4 4114 4935 1478 1479
4 3631 5394 3585 4248
4 4109 3807 5346 4912
4 4110 1451 4117 1460
4 2614 4801 4874 6151
4 4857 2280 492 4856
4 5009 4978 4982 544
4 5792 978 4943 979
4 5489 5794 4996 5014
4 5009 543 4978 544
4 4345 4343 4344 4991
4 5486 5015 4982 5792
4 5704 4735 3865 903
4 5704 903 4341 904
4 5689 5729 3624 6213
4 3645 5708 6149 5699
4 3261 5672 5667 6148
4 3580 4733 444 4763
4 5632 3123 4733 3580
4 3321 3381 3406 2423
4 4708 35 4768 446
4 4047 6156 5884 1991
4 5457 1984 5711 1983
4 5633 1456 1465 1464
4 5501 3653 6160 5671
4 2344 2351 2346 2353
4 5817 6065 1268 5401
4 5503 5505 1269 5504
4 4532 1268 5401 1267
4 3702 4012 5480 5481
4 3508 3930 4932 3707
4 6035 1727 4426 1726
4 4012 5972 4373 6035
4 4532 4533 4300 1258
4 3817 5801 3820 1307
4 3820 5801 1308 1307
4 3596 4555 4526 4531
4 5527 5563 806 797
4 3160 5527 805 796
4 3055 5472 5526 786
4 5472 5540 5526 787
4 5540 788 5543 797
4 5555 6274 1834 5544
4 5555 5543 1824 1833
4 4001 4464 3671 6153
4 5752 5751 5155 5254
4 3135 5153 4687 4985
4 5231 5920 5971 6064
4 4048 4049 3619 6134
4 5172 5173 5300 3113
4 2550 2898 3882 2889
4 5233 5456 1612 1613
4 5143 5252 5221 6225
4 5287 3820 4561 4353
4 4696 5530 5529 5412
4 4436 6179 6279 4137
4 4608 4630 5291 4604
4 3820 3821 1317 4353
4 3349 5548 3351 1314
4 3820 3821 1316 1317
4 5843 5073 5846 1060
4 5072 1059 5846 1060
4 5149 5146 617 5147
4 5149 2890 5072 5154
4 5072 2890 1068 5858
4 5149 5146 5846 1050
4 5146 5163 1041 4182
4 5146 5147 608 617
4 5339 6336 4716 6335
4 4119 4305 1725 1734
4 5365 4303 4836 5366
4 5481 4012 3518 6035
4 3595 3597 5330 4531
4 1271 4509 1280 4599
4 4552 1281 5389 4553
4 5498 4434 1278 1277
4 6221 1588 5113 1589
4 6221 5113 5157 1589
4 5204 637 5181 628
4 5113 1588 5205 5114
4 5157 4999 5085 609
4 4152 4350 593 592
4 5113 1579 5112 1580
4 6235 1615 5993 5320
4 6291 1950 4800 1951
4 4338 5733 1961 5731
4 5720 5715 5722 923
4 5740 5733 1969 1960
4 5679 5741 5718 1977
4 5756 1978 6300 1979
4 3773 4338 5699 5731
4 5706 5715 913 914
4 5638 1030 5821 1029
4 5432 5429 1029 1028
4 5471 5813 5814 6216
4 5757 5433 4713 5874
4 3676 3675 4156 4505
4 5090 2947 1026 1035
4 4703 5879 6202 4202
4 3732 3730 4507 4501
4 4342 4942 5030 4343
4 4978 4964 534 543
4 4961 952 5747 953
4 3639 4961 5747 953
4 4979 970 4942 4944
4 3958 3203 2912 2948
4 5052 3204 4966 5081
4 3198 5092 5006 5005
4 5052 5490 5049 5054
4 3958 5092 5005 5127
4 3950 5092 606 597
4 6130 5596 1869 1878
4 5597 4559 6130 5596
4 5628 1878 5610 5596
4 6278 5606 1862 1861
4 4890 3634 494 4248
4 4890 3634 503 494
4 4362 4890 3633 502
4 3004 3005 5043 3006
4 3632 3633 503 512
4 3633 4890 503 502
4 2281 4366 4362 4891
4 4339 3632 3634 504
4 4856 4891 492 493
4 6233 5974 5208 6244
4 6318 4283 2143 6244
4 6318 2142 5980 2143
4 3930 4931 4932 524
4 4527 3071 3069 4530
4 5002 3613 5570 5232
4 5772 5700 1299 5801
4 5748 1301 5199 1310
4 4548 1292 1301 1300
4 5199 4504 330 3678
4 4561 1309 5748 4353
4 5389 4553 1281 1282
4 3678 5748 1301 5199
4 3383 3153 2671 2190
4 3446 4290 3720 4359
4 3729 4654 5423 5947
4 3052 2198 195 2197
4 4708 870 4793 879
4 5621 879 4793 880
4 5979 5604 4288 5648
4 4707 870 4708 34
4 4645 4785 445 446
4 5903 4765 4778 4180
4 4708 879 35 870
4 4926 2734 2738 5916
4 3627 3625 5730 3624
4 3919 5750 4164 3922
4 4577 5729 6149 6213
4 5689 3624 5730 5880
4 5664 3606 885 884
4 3646 3867 4735 3865
4 4264 4788 4595 441
4 2486 3104 3670 4700
4 4639 3935 2920 5520
4 5689 1935 6213 6214
4 6110 5565 6111 5586
4 4285 4286 4144 1872
4 6111 5606 6278 1861
4 4612 6110 5586 4674
4 5606 1853 5435 1862
4 6131 1861 6278 1870
4 4144 1862 5435 1863
4 6111 1852 5606 1861
4 6111 5564 1851 1860
4 6111 1851 5439 1852
4 4559 5586 6131 5577
4 6233 4283 6244 2143
4 3691 2481 3694 3140
4 2585 6280 5214 5128
4 2370 5847 2372 5910
4 6233 5881 6231 2135
4 5234 3129 4213 2107
4 5881 6231 2135 2136
4 6280 6327 6322 4360
4 6280 5214 4360 5213
4 4860 5045 4961 5747
4 5045 5061 5046 5514
4 4307 4308 4932 4177
4 4923 507 4907 5702
4 4902 4162 499 4884
4 3640 5725 4899 4902
4 6143 4803 1418 1417
4 4772 6142 4773 4776
4 6123 4328 1425 6157
4 5713 6123 6143 1426
4 6143 4803 6141 1418
4 6141 6143 4772 4759
4 3947 458 4783 4774
4 5470 5829 5830 5848
4 2711 2705 2704 2712
4 2089 3862 3860 6319
4 2784 2953 2783 4007
4 3930 4959 523 532
4 2952 2984 4196 4198
4 5655 1919 2923 4806
4 4500 4806 4499 6128
4 3053 3054 3055 785
4 4806 5655 1919 1920
4 4679 4667 5176 4715
4 2319 6283 6120 2920
4 4179 4879 4899 488
4 3579 3962 3961 869
4 3578 3579 3961 869
4 4619 4683 380 4658
4 4081 4636 4658 371
4 4683 380 4658 381
4 4620 807 27 798
4 3538 4658 4587 4622
4 4493 2544 2547 2545
4 6088 6037 4270 1321
4 5571 1331 3687 1330
4 3688 3687 5189 3689
4 5189 3687 1331 3689
4 5262 6091 5557 6092
4 4493 2545 4268 2544
4 4325 2545 2546 2544
4 6103 1359 3608 4102
4 3001 2417 3009 3003
4 4716 6336 2740 6335
4 5317 5319 1784 1793
4 4316 6265 1786 1795
4 6071 2502 1803 5340
4 4399 5319 4400 1792
4 1784 4212 6082 5317
4 2503 2502 5340 1802
4 2502 3009 2504 3823
4 4935 4245 1488 4916
4 3776 4245 4934 4935
4 4934 4935 4245 1487
4 4114 4933 1479 1470
4 3633 4890 3634 503
4 2711 2848 3529 3531
4 3358 6162 3360 5770
4 3843 6162 5782 4169
4 5815 165 4194 1013
4 4188 5786 5774 6304
4 5789 4188 5775 5797
4 4516 4945 4193 4517
4 5784 5783 6311 5785
4 4188 2022 162 2013
4 5789 2022 163 162
4 5789 5759 2031 6306
4 4084 5770 5774 5775
4 3983 4212 5318 6174
4 4716 6075 2740 5340
4 2504 2502 1793 1794
4 4118 6262 4012 5480
4 4841 5340 6071 4541
4 6071 1794 6265 1795
4 3454 4576 3455 3452
4 5697 5151 5152 948
4 6301 1995 6173 1996
4 4084 6305 6338 4087
4 5732 5696 959 5754
4 5696 5776 958 959
4 4493 2544 3687 2547
4 2802 5552 4102 6116
4 5549 5616 6282 5202
4 6115 4102 1358 1349
4 6106 5600 1885 1886
4 4741 1883 4742 1892
4 2940 2838 2624 3092
4 5803 6191 6192 1505
4 6204 1514 5058 1523
4 5676 1955 6097 1964
4 4989 5479 1973 1974
4 5916 6114 1947 1946
4 6292 5676 1954 1955
4 4828 6136 1422 1421
4 6097 4989 1964 1965
4 4657 4656 4654 1130
4 4656 178 4654 1130
4 4654 2166 179 178
4 4654 2175 179 2166
4 5423 5947 1139 5953
4 3729 4654 4655 2166
4 4657 5947 1129 1130
4 6324 5194 5243 5218
4 5269 5296 669 678
4 3194 3193 3195 5749
4 5194 5188 5858 5198
4 5893 5192 1080 1079
4 5246 5893 1079 5192
4 5265 5248 660 5239
4 5237 5285 5071 671
4 5246 5893 5349 1079
4 6289 1929 5654 5655
4 6059 5654 6150 6114
4 6080 1913 5177 1922
4 6080 1921 6286 6289
4 6132 6140 1939 1940
4 2921 6289 6286 6150
4 6346 4902 4162 5725
4 5134 6297 5458 6246
4 2741 6297 6146 6122
4 5134 6297 1958 1967
4 5525 6059 5603 6154
4 4972 6297 5458 5478
4 2709 2857 2848 2856
4 5994 6019 6251 1675
4 5994 1234 6017 5995
4 3881 5793 6238 5795
4 6016 1665 6011 6019
4 5989 1674 5994 203
4 5994 1675 204 203
4 5994 5995 6251 6019
4 6008 5995 1226 1235
4 6016 6019 1674 1665
4 3147 5136 5085 4167
4 3341 3147 5113 5114
4 3339 5187 5849 5114
4 4687 632 5041 631
4 6221 5158 5085 5179
4 5085 5136 5179 619
4 5811 5950 4191 5943
4 5907 5331 5326 5932
4 2784 2785 2783 2953
4 5824 5943 1169 1168
4 5816 5343 1178 1179
4 5819 4258 1187 5338
4 5110 5109 4851 6327
4 6322 2129 2138 2137
4 6182 6325 6321 6231
4 5110 1609 4039 1618
4 5933 6182 6245 5934
4 5004 5003 5171 2584
4 5214 1600 5213 1601
4 5111 5110 1617 1608
4 2584 6280 6229 5213
4 5002 5171 5570 3614
4 6288 5733 6300 5741
4 5758 5750 6300 1979
4 3656 1166 5427 3849
4 5427 182 1166 183
4 5427 5970 4662 1156
4 4664 5953 1148 1147
4 3697 4663 1146 1147
4 4661 1147 3698 5953
4 5954 5423 2184 180
4 5970 183 184 1156
4 5954 2184 181 180
4 5954 5953 5423 1148
4 4142 5601 1371 1370
4 6121 5395 1399 4749
4 5575 1381 4745 1372
4 4643 5703 4644 6284
4 6125 4337 1404 5521
4 5395 1398 6121 1399
4 5302 1770 5455 1761
4 1696 5117 4253 6258
4 3757 6043 4097 6073
4 5455 734 3609 725
4 2870 3387 5355 5442
4 1649 1640 5020 5360
4 2829 2816 2856 2848
4 5316 683 4107 682
4 5289 5335 5316 683
4 2883 4927 4846 5908
4 4528 5906 2341 2372
4 2787 5538 4390 4155
4 4389 5885 5863 5646
4 5945 2159 3066 5886
4 5899 5901 1093 1094
4 5985 5862 2131 2130
4 2341 5901 6239 5915
4 5207 5927 4386 4393
4 2703 3667 2706 5070
4 5878 2114 5207 2123
4 5860 5863 5862 6317
4 5206 5297 5927 2132
4 5206 5207 2124 2123
4 5134 5135 1967 244
4 5135 244 1437 243
4 4972 6296 6297 5478
4 6246 1438 5502 1437
4 4447 740 4406 731
4 5448 5443 5124 5450
4 4925 4897 3771 5667
4 4323 748 5310 749
4 5447 4406 739 730
4 2640 4078 3026 5051
4 5107 5462 3825 5467
4 3507 6271 1719 6055
4 4832 1725 4305 214
4 4305 214 1734 215
4 4305 1244 215 1245
4 5764 1254 6054 6038
4 5418 1735 4119 1726
4 4012 4011 6035 5481
4 5365 6044 4416 6036
4 5095 2039 2030 237
4 5095 237 1500 236
4 5093 5094 2021 2030
4 5937 236 5095 1509
4 6309 2047 6198 2048
4 2575 2304 2587 2401
4 2020 2019 5614 6207
4 5918 5739 2027 2028
4 3584 4260 3585 4893
4 3460 2937 3461 3189
4 6164 1443 4858 1452
4 1452 4911 4858 4117
4 4911 4117 1452 1461
4 6159 4858 1443 1434
4 6159 6164 1443 4858
4 4337 5639 1386 1395
4 6159 1443 6164 1442
4 4270 1329 1320 1321
4 6088 4270 1320 1321
4 2544 1330 3687 1339
4 4325 4270 4268 2544
4 4268 2545 1868 4325
4 4354 6124 4145 5608
4 4145 1865 4146 1874
4 5571 5189 1322 5511
4 4694 5583 1344 1335
4 4675 4611 1353 1344
4 3536 4225 4224 4636
4 4676 6095 1335 1326
4 4871 221 1635 1644
4 4871 222 1635 221
4 4871 4872 6023 6249
4 4871 2174 2165 222
4 4872 6023 6329 2174
4 4872 4850 2165 2164
4 6005 6329 2669 2182
4 3738 5601 5657 4745
4 4705 413 2309 422
4 4720 4038 422 431
4 4717 421 4744 420
4 4705 413 3829 2309
4 5312 5574 4717 4744
4 5312 5313 4995 6121
4 4748 4749 1409 4803
4 4720 4038 4705 422
4 4925 3261 4970 5667
4 5716 4936 3315 3016
4 6287 4262 4820 4819
4 6077 5710 928 927
4 6288 5737 3282 5720
4 4739 6077 4738 5728
4 4602 6300 5758 5750
4 5756 1979 5750 1988
4 5698 939 5719 940
4 5628 1878 6130 1879
4 3233 5663 1897 4232
4 5628 5663 5610 1887
4 3622 3772 3363 6098
4 3330 4287 5628 3329
4 3330 1880 5569 1889
4 6263 6130 1870 1879
4 6263 1870 6278 1871
4 4263 3503 1908 4804
4 4139 850 4706 5607
4 3701 3418 1201 3224
4 5105 4358 1648 5355
4 3383 3224 3222 3052
4 3221 3051 2197 3052
4 3221 3222 2188 3332
4 3221 3222 3224 3052
4 3331 3153 3450 3383
4 3698 3695 3722 4204
4 5790 5795 6252 4056
4 3622 3772 6098 3796
4 4366 1481 4355 1480
4 4366 4933 5229 1471
4 4891 493 4890 502
4 4910 1462 1454 1463
4 4587 364 4566 373
4 4489 4563 4590 4596
4 4620 4668 5567 807
4 4658 372 4622 381
4 4711 5517 819 818
4 4620 4563 4566 4668
4 4397 4479 21 320
4 4479 744 21 20
4 4080 20 4479 311
4 4461 4319 4476 319
4 4461 3432 4480 310
4 4424 4405 6267 4372
4 5763 4368 4370 6046
4 4051 9 277 276
4 4051 1752 9 8
4 4051 8 2872 1752
4 4416 4371 2872 1247
4 4371 1752 217 216
4 4371 217 1247 1246
4 4416 4369 4371 1246
4 4443 4440 1274 1265
4 5765 5972 6034 6040
4 2395 3600 3469 3434
4 3943 3398 3742 5461
4 4016 746 3956 745
4 5446 5310 5311 748
4 2993 3551 5399 4133
4 5549 5380 5551 6083
4 6293 6317 5862 5863
4 5899 1085 5861 1094
4 5860 5861 5863 1085
4 5878 2122 5862 6317
4 5862 2122 5927 2131
4 5899 1084 5255 5256
4 6293 5862 5899 5863
4 4402 291 4383 282
4 4382 1757 3824 1758
4 4472 307 3971 308
4 4395 4383 291 290
4 5926 4472 4878 3437
4 5549 6118 6282 5175
4 5515 4395 3974 4402
4 3227 4363 6177 5028
4 5549 5200 2803 5380
4 5673 3507 6271 6069
4 5504 1260 6065 3494
4 6054 1244 4832 4305
4 3556 5817 5400 5401
4 5996 5314 1205 4183
4 5020 5442 5355 1649
4 5244 1651 4201 1660
4 5549 4679 6282 6118
4 4072 4071 1207 4073
4 4256 1196 4183 1195
4 4896 6098 4897 4819
4 6113 1937 6114 1946
4 5729 6213 1935 1944
4 6148 6149 1953 5699
4 2741 6297 4972 6296
4 6148 6149 1944 1953
4 5681 4341 4800 6330
4 6149 5699 1952 1953
4 3686 4443 4401 303
4 4552 1280 4599 1281
4 4568 5365 3527 5416
4 5365 5765 5366 3527
4 4553 5772 1290 1291
4 5259 6039 5506 5492
4 3755 4103 5466 742
4 4534 349 4538 350
4 4551 4538 341 350
4 4554 4538 4597 349
4 4555 4210 4538 341
4 4534 4597 4538 349
4 4534 4604 359 350
4 5788 4353 4352 5293
4 4834 5700 1298 1289
4 5282 4276 3695 1127
4 3696 3697 5952 3695
4 5944 1162 5388 1163
4 4021 1135 5404 5283
4 2660 3913 5840 3762
4 5068 4359 5066 4045
4 4035 4449 306 305
4 4302 4419 304 305
4 4020 5608 4354 4145
4 4302 304 4442 295
4 5510 3938 4569 5762
4 4208 4034 4035 5925
4 3487 6205 2036 5739
4 2029 6198 2030 5095
4 2029 6194 5100 6198
4 5739 5724 6101 5100
4 4810 6311 2034 2043
4 5166 2025 5452 4086
4 3937 3702 6069 6271
4 3983 3988 3009 6265
4 3757 6042 6043 3756
4 1692 6174 6063 4363
4 4532 1259 6065 1268
4 4532 4300 1259 1258
4 3857 2169 3066 2160
4 3854 3726 3858 3900
4 3067 5627 3064 4591
4 5021 3693 5212 5168
4 6315 5622 5967 6281
4 6315 1545 6314 1536
4 6319 2088 5088 6216
4 5626 5216 2064 2063
4 3692 4886 3652 5087
4 3651 6210 4271 1538
4 5622 4061 5215 5623
4 6310 2057 4265 4266
4 3279 3773 6288 5978
4 5720 5740 5722 5715
4 6186 5743 5737 5718
4 5733 6300 1969 1970
4 3918 3924 4164 4988
4 5138 6276 5593 2072
4 3651 5620 5098 5905
4 6276 2063 5593 2072
4 5866 5821 5833 5432
4 4122 3564 5810 5809
4 2522 5582 2524 2523
4 4518 4522 5873 4195
4 3692 4886 4888 5806
4 4135 5555 1824 4468
4 4135 1815 140 139
4 4217 4467 4135 779
4 5484 5472 778 5507
4 4217 769 4216 770
4 5507 4217 4468 4135
4 4468 1816 5513 1825
4 6029 6050 1768 1777
4 6255 1768 6050 1767
4 6026 267 1768 268
4 4212 6050 1776 1775
4 4316 4322 4318 4533
4 3985 5480 3516 3517
4 6257 6081 1767 6050
4 5465 6081 4510 4130
4 4466 6028 1689 1680
4 6256 3983 4315 3986
4 1774 6081 5465 6082
4 5632 4765 4645 4733
4 4776 4759 447 4772
4 4720 4595 440 441
4 5976 4803 6123 5977
4 4379 6159 4858 6164
4 6202 2105 4202 5879
4 5089 5088 2097 2096
4 3862 3129 2089 3860
4 6202 5879 2104 2105
4 5223 5207 4393 4202
4 5850 1056 5853 1057
4 5841 5850 5643 1056
4 5841 5853 1047 4237
4 2725 5545 6275 5091
4 2380 4020 4019 4024
4 5637 5357 5104 5103
4 5803 6342 1513 5802
4 5803 6342 1504 1513
4 6195 5545 6175 1524
4 6275 6195 5091 5545
4 6193 5008 6191 1496
4 4121 5778 3813 6176
4 6193 1504 4251 1495
4 2291 2292 2294 3839
4 4971 4199 1521 1530
4 4430 5491 6082 5319
4 5028 4365 4363 4364
4 5318 5317 6082 4212
4 6050 6081 1775 4212
4 6174 6081 6257 6050
4 6257 6261 1683 4510
4 4967 1507 5083 5082
4 4227 3116 4975 529
4 4245 6303 6178 3802
4 3809 6191 3835 4245
4 5083 4968 1498 1507
4 4227 4975 538 529
4 4987 2291 539 540
4 3149 4951 4882 4355
4 3149 5083 4968 1498
4 4355 1489 6178 4916
4 4191 5959 1152 5950
4 5966 187 1162 1161
4 5959 1153 5966 1152
4 5388 186 5966 1153
4 4821 3094 4026 4783
4 4796 5301 4794 4174
4 4861 4796 4175 5301
4 4159 473 4844 482
4 4861 4833 4814 470
4 3770 2518 3990 2514
4 2977 2982 2979 3220
4 3949 4783 3947 458
4 5442 5355 1649 1658
4 4104 6189 5384 4913
4 2782 5240 5360 5397
4 4106 5278 5316 673
4 5316 673 5278 674
4 5280 5998 4257 5940
4 6010 5356 1658 1667
4 3387 5442 6010 5356
4 5527 5540 797 796
4 6345 5555 5554 5544
4 5125 4332 4333 5435
4 4673 804 5560 813
4 6345 6274 5555 5544
4 5527 5540 5528 5563
4 4612 6111 6278 6131
4 3160 805 5560 804
4 3160 5561 795 804
4 4570 1840 6067 4572
4 3751 4317 6273 4541
4 6067 6068 4571 4572
4 4398 6075 4540 4787
4 6346 4812 4859 4884
4 2440 2324 2918 3169
4 3670 5656 876 867
4 3569 4804 1908 1917
4 3568 3569 2979 3570
4 4263 3220 4804 3569
4 3233 1897 3329 1898
4 750 742 4103 3755
4 6042 4452 5466 4099
4 3754 749 5327 750
4 5304 5382 1763 1762
4 4097 4064 1798 1799
4 3753 5327 741 750
4 4323 757 5311 748
4 6042 5466 5454 4098
4 3535 3135 4985 3836
4 5406 5644 1073 1064
4 6199 5834 5868 5852
4 4202 5207 2114 2115
4 5160 2117 4205 2126
4 5234 3862 2098 2106
4 6200 6201 5876 5859
4 4393 4389 5879 5878
4 4200 2115 5234 2116
4 4797 4815 4784 464
4 4797 4784 455 464
4 4845 4844 4815 906
4 4815 5649 464 473
4 3285 4491 5705 3502
4 3124 4917 4760 3123
4 3338 4197 6222 4198
4 4197 1568 5139 1577
4 4908 602 4187 603
4 3131 3161 3342 5139
4 3997 2828 2829 3159
4 2856 2830 3690 2817
4 3161 5139 1578 5849
4 5872 1597 6220 1606
4 5140 6235 1606 6220
4 5113 1580 5157 1589
4 5205 1597 5872 1596
4 5140 5872 1605 6240
4 5140 1614 5320 6226
4 5028 5031 4364 5461
4 3712 3753 3754 5327
4 6081 6339 4130 5465
4 6073 4065 1799 1800
4 1790 4097 6073 3942
4 4015 5505 5503 5504
4 6074 1810 2740 1811
4 5117 5118 4253 5451
4 4399 1782 5491 1783
4 6073 1791 4400 1800
4 4399 1783 5319 1792
4 4696 1332 5189 1323
4 3682 5189 1332 3689
4 6087 4267 5556 5557
4 5185 5571 5189 3687
4 2544 5556 4493 5571
4 5189 5511 1323 1322
4 5126 2683 3031 3373
4 1277 4434 1268 5400
4 5817 1268 6065 1269
4 3984 5817 5401 6065
4 5504 5817 6065 1269
4 5318 6174 4212 6081
4 3987 3555 6065 5504
4 5481 1709 6063 6069
4 5503 4434 2416 5817
4 5503 4434 5817 1269
4 5504 6065 1260 1269
4 6262 5505 5504 1260
4 6262 5504 4013 3494
4 6324 5236 5218 5243
4 6012 5893 5246 5192
4 4469 6013 5170 5218
4 4501 5349 5272 5858
4 5153 5218 633 5079
4 4686 4470 5041 3731
4 5245 652 5236 5243
4 5218 5079 634 633
4 2611 2388 2615 2612
4 6246 4969 1429 6122
4 4828 1430 4829 5671
4 6135 6145 1412 1411
4 2639 4108 2612 2614
4 4874 4801 5661 6151
4 3460 2617 3465 4801
4 6159 4377 1434 6157
4 4874 5661 6164 1442
4 4377 6142 1435 5713
4 1434 4377 1435 5713
4 5993 5982 1625 5999
4 654 5993 5999 5982
4 4273 5993 5182 645
4 5993 1624 5320 1615
4 6235 5182 1616 1607
4 6235 5993 1615 1616
4 5183 5186 5275 655
4 4033 305 4419 4035
4 5510 4035 4449 306
4 4302 3598 4419 4035
4 314 4033 305 4419
4 3209 3502 5705 3220
4 4302 4035 305 4449
4 4302 304 4401 4442
4 5510 4449 297 306
4 6053 4569 5510 297
4 2513 2516 3045 2520
4 3635 4094 4361 5955
4 6326 4330 6123 5713
4 6326 4776 6143 4759
4 3790 3348 3347 4462
4 4157 452 4794 461
4 6326 6123 5976 6143
4 6326 3949 4776 4761
4 4783 459 4774 458
4 5763 277 4051 4370
4 5365 6036 6046 6044
4 6268 4426 6264 1737
4 4012 3518 5480 5481
4 1726 5418 1735 4426
4 2592 2569 198 2200
4 4831 1653 3978 1662
4 4830 2532 2436 2533
4 2569 2201 199 198
4 2437 2569 199 1238
4 4830 2435 2436 2670
4 2670 2532 2671 2569
4 2670 2671 2669 2191
4 2670 2569 2200 2201
4 5876 2112 4356 2103
4 5860 4356 172 1076
4 4356 2103 172 171
4 4356 5869 2103 171
4 4389 5863 5885 6317
4 5860 5885 5863 6317
4 5876 5885 4356 6317
4 3753 750 3754 5327
4 4399 3942 1781 1790
4 5303 6258 5382 1687
4 3944 4364 3943 5028
4 5116 5451 4103 732
4 5443 5436 5902 5337
4 3398 5437 3400 5461
4 4097 1799 6073 4064
4 3944 5492 5122 4206
4 5451 733 4103 732
4 4103 3609 742 733
4 3755 3753 750 3754
4 3052 3224 1202 1211
4 3051 3052 3224 1202
4 3383 2754 3052 2198
4 3383 1211 3052 2754
4 3052 2198 2754 196
4 3331 3417 3223 3418
4 3221 3222 3052 2197
4 5045 4907 4823 4178
4 4822 4909 4824 951
4 4860 951 4909 942
4 4823 4907 517 4178
4 4823 4907 508 517
4 5210 5258 5023 658
4 2841 3458 2837 3811
4 6162 4259 975 984
4 3871 5780 3842 3883
4 3872 3362 4906 3876
4 2525 5165 2060 2061
4 5120 4946 5804 3842
4 5453 3811 3813 2837
4 4996 989 5014 5794
4 3635 3808 3801 3245
4 4982 4983 4978 5486
4 4345 980 4996 4942
4 5792 4943 4980 4981
4 4685 825 29 816
4 4622 4637 4638 382
4 4660 4638 4647 391
4 2443 2671 2190 2191
4 2896 3396 6007 6006
4 3870 5887 5986 5314
4 2409 4124 4020 4063
4 3446 3418 3417 3720
4 2886 3416 6006 5352
4 2671 2200 2199 2191
4 3416 1209 6006 1208
4 3418 1209 3396 3416
4 5507 788 4135 5543
4 5554 4468 4214 5513
4 5251 5544 5509 4725
4 5565 5560 6110 6072
4 4277 4285 4124 4282
4 4674 5560 814 813
4 4287 6263 5569 3330
4 4378 3948 5712 4818
4 3374 2978 2977 3168
4 5394 5042 5047 3462
4 3947 4774 467 458
4 4818 4873 4864 4791
4 5712 4698 476 467
4 5519 6326 4330 5976
4 3295 5695 5693 6213
4 4789 886 6208 885
4 3846 4610 6263 4613
4 5677 5693 1933 1924
4 5695 5693 6213 1934
4 5695 6149 1943 6213
4 5677 5694 5675 3830
4 3283 5668 5719 4598
4 3125 6014 3133 4335
4 5718 6173 1986 1987
4 5756 6300 1978 5741
4 5978 5709 3282 4737
4 5733 5731 1970 1961
4 6300 5741 1969 1978
4 6300 5741 5733 1969
4 4169 5771 4945 994
4 4481 4519 5638 5799
4 4946 5805 5120 1002
4 6212 2525 6312 2052
4 5507 778 4217 779
4 5555 4468 5544 1825
4 5555 1833 5528 5543
4 5555 5528 1834 6274
4 5540 5528 5563 5543
4 6200 5859 5852 6201
4 6316 2087 5088 2096
4 6202 6316 2096 2095
4 5834 5838 5867 5851
4 5854 6201 5869 2094
4 3733 3913 3916 4924
4 5753 5984 6232 5969
4 6241 1611 5130 6323
4 2535 2251 2536 2537
4 5132 6323 1611 1610
4 5677 5695 3295 6330
4 5677 5693 3561 3297
4 5694 4334 3830 1932
4 3830 5675 887 896
4 3830 887 3831 151
4 3948 4802 3949 3947
4 5976 4690 4759 4803
4 2617 4331 4801 3018
4 4788 4761 440 449
4 6152 4595 4761 440
4 4330 6123 6157 4328
4 3949 4783 458 449
4 3949 457 3947 4802
4 4772 6142 6143 1427
4 3946 3949 4783 3947
4 2343 3069 4528 2342
4 5945 5913 2150 2149
4 2904 2497 3603 4272
4 5847 5914 1101 1100
4 3194 1118 5749 4276
4 4522 5636 5635 2059
4 3487 2044 4810 2035
4 4521 4520 5636 2050
4 4520 5785 2042 2041
4 4514 4522 4195 4193
4 4481 5805 4519 5799
4 4521 5815 2040 2049
4 4518 5638 6030 5428
4 4946 5804 993 5120
4 4169 5483 3842 4946
4 2525 6312 2052 2051
4 3359 956 5151 957
4 3358 3359 5770 3360
4 6301 6305 2004 2005
4 3922 1988 5755 5756
4 6230 5704 4341 5706
4 5150 5697 5151 5152
4 2840 3815 4091 3474
4 6301 6165 4087 2005
4 6338 5769 5697 5776
4 6301 5754 1995 2004
4 3924 5164 6165 2006
4 2597 3491 3576 3575
4 3842 4946 5804 4169
4 5789 2031 5759 163
4 5759 2040 4521 5815
4 4517 5805 1002 1011
4 4917 3580 4785 4784
4 5621 4817 5650 889
4 4792 4817 880 881
4 5632 4793 4792 4817
4 5632 4917 5621 4817
4 4768 4785 446 455
4 4817 881 3376 890
4 4817 4811 890 3376
4 4797 4840 4785 4784
4 2568 3353 5500 3352
4 5323 5748 5287 4561
4 4561 5801 1299 1308
4 3596 4555 4531 4210
4 4555 341 4538 340
4 4489 4545 789 4596
4 6179 4137 5477 5497
4 5497 5508 790 791
4 4490 4545 780 789
4 6179 5532 5497 5477
4 2996 5700 5772 5801
4 4020 4354 5608 4029
4 3598 4033 4483 4419
4 4526 332 4555 331
4 3816 3058 5801 2996
4 5287 4353 4561 5748
4 4526 323 4531 332
4 4483 4033 314 4419
4 5642 5232 5022 2102
4 2092 6224 2091 5021
4 5692 3693 5592 6224
4 6218 5212 2090 2091
4 2074 6223 5623 2083
4 6223 4623 6224 2083
4 4084 6305 5774 5776
4 6162 5775 5771 985
4 5789 5771 5797 5775
4 4085 5783 2023 2024
4 5797 2022 6304 2023
4 6162 3360 5770 975
4 4842 41 5723 500
4 5723 41 933 42
4 4842 5723 4884 500
4 4909 5723 42 509
4 5061 3638 3317 5747
4 4860 952 4961 4824
4 3243 4339 4976 3632
4 5166 4086 4085 2024
4 6311 2033 5783 4086
4 4083 5797 5775 6304
4 4188 5797 6304 5775
4 5783 5785 2032 2033
4 5166 4086 2024 2025
4 5635 5848 2069 5165
4 5635 2060 5165 2069
4 6030 5838 5638 5640
4 2525 5165 5636 2060
4 5428 5799 5638 5429
4 4522 5873 2059 5635
4 5470 5829 4825 5909
4 5832 5838 5867 5812
4 4518 5873 5640 4195
4 4371 1752 2872 217
4 2872 1247 217 0
4 2872 123 8 276
4 5763 2872 4051 276
4 4416 6044 4371 6036
4 2872 0 8 123
4 4954 3090 5746 5744
4 6002 4874 4801 6164
4 5482 6311 5784 4092
4 4807 3487 2035 2036
4 3808 4935 4115 4114
4 5545 5091 1532 1533
4 5958 4974 1510 5939
4 3089 5744 3090 5745
4 3991 4414 4558 4537
4 4166 3200 3206 5102
4 5032 570 3206 4168
4 5665 5666 5049 5010
4 5019 4168 4163 4994
4 5818 1015 5049 1016
4 2893 2894 2895 2911
4 5010 5666 1016 1017
4 6155 999 5809 5011
4 6197 4968 3149 5083
4 3632 3628 3631 3633
4 4362 4361 4094 4891
4 4362 502 4891 4890
4 3117 512 3118 521
4 3632 3118 3117 512
4 5095 6194 5939 5096
4 5094 2030 5095 2029
4 4241 4242 4243 6190
4 4250 6166 1484 1483
4 4241 4974 4242 6190
4 4973 6190 5746 1511
4 5101 5958 4973 5968
4 4070 3499 4810 6102
4 4973 1511 5746 1520
4 3027 3055 5526 3910
4 5439 6110 4332 6072
4 3788 3054 775 776
4 5472 787 5526 786
4 3055 786 3910 785
4 3160 3910 795 5561
4 4078 5484 5472 3055
4 3053 794 5547 793
4 1838 1837 5268 4573
4 6186 5737 5741 5718
4 4602 5756 6300 5750
4 6186 5698 5719 5743
4 5756 1979 6300 5750
4 5718 1987 5755 6173
4 5774 5776 968 967
4 4087 2006 6165 5164
4 3357 4087 6165 5164
4 3355 5697 3359 5151
4 4087 2006 5164 2015
4 5478 4989 1965 1974
4 6160 5671 1439 1438
4 5458 1967 5135 1976
4 3653 5962 6161 4883
4 6302 5688 6187 5711
4 5502 1446 5135 1437
4 5134 6246 5135 1437
4 5458 5135 6246 5502
4 2741 6246 6297 6122
4 5134 5458 1967 5135
4 6297 6296 1957 1966
4 6187 5688 5633 5760
4 4373 6035 1717 3518
4 3516 4211 4420 1698
4 3516 4211 1707 3518
4 5037 5011 998 5794
4 5489 5037 4996 5794
4 5027 4446 1001 992
4 3282 922 5720 931
4 3867 6330 4341 3866
4 6148 6292 1945 5672
4 4734 4737 911 4735
4 5674 892 3999 4965
4 5710 4901 918 927
4 5107 5115 3825 5515
4 3435 5108 3798 3952
4 5440 4424 4368 4405
4 5438 3440 6045 4011
4 4123 1619 5132 5133
4 6107 2769 3608 2802
4 4591 5627 6243 6337
4 2549 5795 2891 3856
4 4123 5133 5460 1628
4 3998 3332 3365 3223
4 5105 5190 1638 1647
4 2926 5460 5105 5190
4 2549 2552 5795 4591
4 5845 5203 3915 5409
4 5912 5904 1089 1098
4 4200 4701 5234 5207
4 5888 5842 3760 5936
4 5227 4150 4151 6024
4 4726 5936 5983 3760
4 5759 164 5815 1004
4 5815 2040 165 164
4 5759 4521 4945 5815
4 4514 4517 4193 4195
4 4522 4193 4194 4195
4 4945 4517 4946 1003
4 4522 5873 2058 2059
4 4522 5815 2049 4194
4 5838 1030 5640 1031
4 4514 4519 4517 4195
4 4082 2834 3474 3852
4 4519 5799 1011 1020
4 5428 5638 5821 5429
4 4522 5873 4195 4194
4 5636 5635 2059 2060
4 5634 5635 5636 5165
4 5493 2524 2523 3851
4 5636 5635 2060 5165
4 4729 409 4730 5568
4 4752 4546 4651 4579
4 4678 4683 4638 390
4 3560 3896 3935 4639
4 4415 4621 5568 4730
4 4148 5568 400 409
4 4695 4678 4621 398
4 5145 4678 4683 4638
4 1223 1224 5314 5986
4 5374 1204 5996 1213
4 5996 1204 4183 1205
4 5996 5986 5991 1222
4 3783 1194 5385 5369
4 6269 5374 5369 5996
4 4493 5377 2547 3687
4 4025 2380 4024 4029
4 4294 3612 4089 4146
4 4062 4280 4741 4779
4 5185 5571 3687 4493
4 5377 3687 1339 2547
4 5379 5381 1884 1885
4 5755 1996 6165 6173
4 3923 5755 6165 6173
4 5755 6165 1996 1997
4 3240 3636 3629 3243
4 4145 6124 1864 5608
4 4270 5556 5571 6087
4 4088 4027 6124 4089
4 3452 3178 3372 3451
4 5294 4725 1845 4333
4 5294 1845 5292 4333
4 5292 4333 1845 1854
4 5183 654 5275 5982
4 4274 5752 5253 5275
4 3543 5767 5768 6234
4 5752 5253 5186 5217
4 4273 5183 5993 645
4 3237 5320 2973 6226
4 4273 637 5204 5230
4 6135 4969 6122 1420
4 6137 6135 4969 6122
4 5525 6133 5603 2921
4 6135 1421 4969 1420
4 6260 4455 4403 4404
4 4574 1336 5583 6095
4 4574 4625 5024 1328
4 4525 366 4603 4605
4 5688 5760 1993 1994
4 5688 1985 5717 1994
4 5501 2739 5671 6246
4 6161 5962 1457 1448
4 6168 1457 5347 1466
4 5134 6297 1967 5458
4 3659 6168 6161 5962
4 5884 6176 2000 2001
4 6223 5098 6281 5620
4 4576 5477 4137 4666
4 5477 4588 4666 4576
4 6279 4490 5497 5508
4 4037 4575 4488 4562
4 4485 336 4437 345
4 4486 4067 327 4476
4 6294 3428 4319 4476
4 2435 218 1662 1671
4 2435 218 219 1662
4 2435 2192 219 2201
4 2670 2201 2437 2569
4 2670 1238 2532 2569
4 2544 1339 3687 2547
4 5571 3687 2544 1330
4 6091 1849 5557 1848
4 2544 4270 1330 1329
4 6091 4267 5557 1849
4 5556 4268 4267 4270
4 4258 4256 1187 5338
4 3251 5343 4258 5824
4 5940 5299 704 5371
4 3486 4256 5338 4183
4 5280 4634 5990 5279
4 5279 5369 1194 1195
4 4256 1187 5338 1196
4 4256 4183 1196 5338
4 2930 3444 3486 5338
4 5065 1180 3744 1181
4 5065 3744 5066 1181
4 3725 5963 4045 5066
4 5960 5277 5966 5388
4 5277 5966 5388 1162
4 5944 1172 1162 1163
4 4756 1206 4781 1197
4 3387 5442 5356 5355
4 2930 4258 5819 5338
4 2898 2443 5790 2445
4 5271 5352 1217 4073
4 5270 5271 5352 1217
4 5271 4073 1217 1216
4 3369 3371 4702 5274
4 5732 158 1986 159
4 5678 6173 5732 1986
4 5732 5696 5743 950
4 5273 3736 5274 4218
4 3919 5750 3922 5756
4 3355 3359 5697 5769
4 3359 957 5769 966
4 3359 3356 3355 3125
4 5697 5151 948 957
4 4120 555 4770 92
4 4770 4771 564 555
4 4120 3850 546 5082
4 1516 4120 5082 6175
4 6175 6195 4769 5855
4 3893 6175 6195 5545
4 5058 4967 1515 6192
4 6175 4967 1516 1515
4 5802 5539 4351 6204
4 6162 976 5770 5775
4 6162 5775 4084 4083
4 6305 2005 4087 2014
4 4082 5166 4087 5164
4 5797 6306 2031 2032
4 4188 2013 6304 2022
4 2816 2857 2813 2856
4 5855 5007 4771 3850
4 6107 1377 3766 4715
4 4261 3839 5044 557
4 4261 5044 566 557
4 5059 575 4190 566
4 2858 4190 2849 574
4 5147 5092 5127 607
4 5147 607 5127 608
4 5144 606 5092 607
4 4507 5073 5836 5192
4 5844 5843 1051 1052
4 5149 5154 5147 617
4 5149 5846 5072 1059
4 3977 5147 5163 5846
4 5836 5364 5073 3994
4 4186 687 5306 696
4 5391 4161 5306 687
4 4186 5391 687 686
4 5350 5957 5371 705
4 5326 5331 688 689
4 5350 696 4186 5306
4 3687 3689 3680 5377
4 4145 6124 4146 1865
4 5378 1867 2545 1876
4 3764 4337 5639 4667
4 5040 649 5025 5172
4 5749 1110 5910 1119
4 3715 3857 2169 3717
4 5910 4204 1119 1120
4 3067 3857 3066 5981
4 4530 5913 5297 5946
4 5913 6239 2140 2149
4 2342 3066 5945 5997
4 5749 4276 1118 1119
4 3194 5282 1127 4276
4 4242 6190 4974 1511
4 5742 4973 6190 5746
4 6198 5939 5937 5095
4 4973 4974 6190 1511
4 5917 5778 2019 2018
4 1492 4250 1483 5612
4 4953 3116 521 530
4 3117 3118 3116 521
4 3478 2292 3522 4163
4 5001 4987 2291 539
4 4941 513 4976 514
4 6197 4227 4956 3116
4 6183 5083 4227 5082
4 5499 1286 5500 1295
4 6273 6056 1813 1814
4 6052 1276 5400 1277
4 4132 5499 6272 1294
4 6272 3352 1304 1295
4 6068 6090 4131 6272
4 4132 1293 5534 1294
4 5498 6052 1286 5499
4 4865 4159 4885 4843
4 4238 916 4845 907
4 4843 4877 925 916
4 4812 4842 4865 924
4 5683 4843 4812 4885
4 4845 4843 915 916
4 6036 1744 6046 6044
4 5418 1726 6035 4426
4 4416 1255 6038 1246
4 6036 6044 1743 1744
4 4418 1256 4417 4367
4 2890 55 1059 56
4 5149 1059 2890 55
4 2890 5198 56 1068
4 6181 6153 6244 6243
4 5188 635 2890 5198
4 5072 1069 5246 5858
4 3160 5565 5560 805
4 4559 6131 6130 5577
4 3605 4674 4614 4228
4 4607 2678 2679 4023
4 4674 4030 813 822
4 6110 5435 4332 5125
4 3027 5526 3055 5472
4 6332 5308 5546 5348
4 5307 5285 5247 1095
4 5248 5239 651 660
4 5236 5026 651 5239
4 5904 5329 1097 1098
4 3117 521 3116 520
4 3809 3808 4935 3776
4 4361 4355 6341 4916
4 3117 3633 512 511
4 4633 4781 5314 4183
4 5887 5271 1225 1216
4 5386 5368 5403 710
4 5887 4071 1216 1215
4 5249 1232 205 206
4 1224 5987 5986 1223
4 4589 2875 4185 3870
4 6008 5270 5995 3388
4 4342 5486 5680 4983
4 4975 530 4987 539
4 3115 4953 3116 3118
4 5045 4307 4907 4177
4 2291 3522 549 4930
4 4182 5127 599 608
4 5063 4182 5127 599
4 5163 1041 4182 5064
4 5146 608 5147 5127
4 5844 5843 1052 5364
4 5577 6130 5596 1869
4 5577 1860 145 144
4 5577 5596 145 1869
4 5564 1860 5577 144
4 4559 5586 823 4674
4 4559 824 5577 833
4 5586 814 5565 815
4 6131 5564 1860 5577
4 2693 2253 2549 2548
4 5960 5959 1144 1153
4 3706 5960 4021 5952
4 3706 4022 5960 5924
4 3725 3744 5963 5066
4 3725 4022 5924 5944
4 4337 3766 4667 3764
4 3697 5952 3695 1137
4 3697 5952 1137 1146
4 5282 1144 1135 1136
4 4666 5477 4137 5497
4 5523 5535 3920 5532
4 4575 764 4562 773
4 3888 3453 3912 4037
4 4471 4476 6294 4067
4 4471 6294 4666 6298
4 4576 5477 4588 782
4 5497 781 4588 782
4 4523 4564 338 347
4 4523 338 4321 4320
4 4190 566 4261 5044
4 2705 2335 2337 2751
4 3148 3514 4464 3166
4 3877 2789 5223 3878
4 3308 3310 3621 5827
4 3310 5086 5080 5827
4 2707 2708 3528 2606
4 5406 5890 5839 1063
4 3159 2256 2828 2258
4 5849 3338 3345 5139
4 3208 5067 5081 5063
4 4411 5462 1750 1749
4 3971 299 3976 4395
4 5108 4032 3431 4459
4 4411 1758 3824 1749
4 5512 3431 4457 4459
4 5107 5462 4508 5515
4 3974 4380 3824 4383
4 6260 4411 1750 1759
4 5354 231 232 1545
4 4349 2084 5354 231
4 6314 5354 232 1545
4 4623 5098 4349 5354
4 6314 5354 6281 2075
4 5276 5278 673 664
4 6234 5993 4273 5183
4 5253 5186 656 655
4 5253 656 5186 5217
4 5254 5253 665 5278
4 3766 3764 4337 5396
4 5752 5253 5254 5278
4 3147 5113 5112 4999
4 6219 6221 5113 5085
4 6219 5179 5136 5159
4 4908 611 4167 602
4 3146 4908 4167 4187
4 4152 4187 4167 602
4 2258 601 4999 600
4 6259 1763 5382 273
4 5434 5464 1686 1695
4 5302 725 5455 3609
4 5444 5455 734 3609
4 5382 1762 274 273
4 5303 5382 274 1687
4 5304 5492 5506 1772
4 5445 4098 1779 1780
4 5281 1122 63 62
4 5281 1131 63 1122
4 4076 5393 4847 5930
4 5948 5392 1133 1142
4 4074 5387 4077 5393
4 5907 5269 5326 4161
4 5907 5238 5225 5326
4 1124 5941 1133 1125
4 5948 5941 1133 5938
4 4077 706 5351 707
4 5763 4367 4416 6044
4 5365 5763 6044 6046
4 4416 4367 1247 2872
4 4051 4370 9 1753
4 4051 6044 1753 1752
4 6046 4370 4051 1753
4 5670 6285 1916 1915
4 3110 5396 3766 3109
4 4789 3962 3831 877
4 4789 3296 3831 3959
4 5670 3301 4804 6285
4 3101 3960 4706 3961
4 3961 3962 868 869
4 4789 3606 876 885
4 5424 1715 129 128
4 5107 5515 3825 5462
4 5124 4406 5327 5310
4 5337 5447 4406 5310
4 4254 722 5424 129
4 3951 3471 3599 3472
4 5447 5446 738 739
4 6239 5915 2139 2148
4 3069 5945 5913 5997
4 5911 6239 5985 5901
4 5985 5861 5862 2130
4 2124 4200 5207 5206
4 6293 5899 5256 5863
4 4528 5913 5985 5297
4 5901 5906 1093 1102
4 6247 5946 5297 2141
4 5682 5708 5695 6149
4 3867 3865 5704 4735
4 5708 5695 6149 1943
4 6230 4338 6291 4800
4 4338 6291 4800 1951
4 5708 1952 6149 5699
4 4091 3903 2834 4092
4 4082 3357 4084 3358
4 5166 2015 4085 4087
4 5166 2024 4085 2015
4 4082 5166 4085 4087
4 3474 2834 4091 2837
4 2017 4091 5453 3812
4 3836 4986 5078 4985
4 5919 5079 4501 4506
4 3977 5846 5154 5147
4 3158 5757 4122 4450
4 4980 978 5012 46
4 4980 5012 4981 545
4 5012 46 978 47
4 5012 987 47 978
4 5069 5015 997 996
4 4983 4996 5792 4943
4 5792 5015 988 5037
4 4113 4982 5012 554
4 4609 4604 351 360
4 3538 5141 6033 4658
4 4608 369 4653 4630
4 4539 4587 364 4566
4 2497 2510 2500 3700
4 4225 362 4636 371
4 4658 4636 372 371
4 4637 383 4685 392
4 5534 6048 1284 1293
4 4054 6273 6049 6062
4 4296 4316 4317 6071
4 4322 4318 1266 4055
4 5400 1267 5401 1268
4 6052 5499 1285 1286
4 3752 5498 5500 5499
4 4132 5534 5499 1294
4 4541 5533 3750 4540
4 6077 5727 3122 4738
4 5045 4177 4907 4178
4 4961 4979 961 962
4 5030 4944 4979 4942
4 4177 517 4907 4178
4 4977 4177 526 525
4 4308 4977 4932 4177
4 4977 3707 525 534
4 6107 3766 3108 3763
4 4342 4308 4983 5680
4 4982 5792 5012 4981
4 5488 5009 4993 4978
4 5009 4993 543 552
4 4978 4993 4964 543
4 5033 4994 552 561
4 5486 5037 5792 4996
4 4308 4977 4983 4978
4 5032 4168 561 570
4 5818 2947 1025 5666
4 3564 6155 3574 4922
4 5487 5009 5039 5033
4 4113 996 5069 5050
4 4445 5420 5483 3842
4 5075 5011 5037 5794
4 5009 552 5033 4994
4 2815 3663 6275 2813
4 2857 5059 4190 5044
4 3531 4189 575 584
4 5059 566 4190 5044
4 5059 566 5044 567
4 3692 5087 4007 4886
4 2830 2828 2829 3997
4 5742 6190 4973 4974
4 5100 2046 6205 2037
4 5100 6180 2047 6198
4 6203 5968 1519 1528
4 6210 1529 4199 1538
4 5958 1519 5968 1518
4 6168 6161 5962 1457
4 6168 6172 1465 1466
4 6168 1456 5633 6161
4 6302 5688 5524 5633
4 5761 1473 6163 6126
4 6302 6168 5633 6161
4 5678 5718 5679 5737
4 5678 5732 5743 950
4 5732 1995 159 1986
4 5696 5697 949 958
4 3466 5698 5152 4598
4 6186 5755 5718 5756
4 5150 5698 5697 5152
4 5718 5755 1987 5756
4 6107 3766 1377 1378
4 5706 5691 5681 4800
4 6288 5733 5740 6291
4 5709 4737 912 921
4 6230 6291 4338 5733
4 3120 4598 938 929
4 6230 5682 5708 4800
4 4112 5706 914 5715
4 6288 3282 5709 5720
4 4112 1950 6291 1959
4 2835 2633 3173 3496
4 3499 2522 4810 6102
4 2833 2832 2838 3092
4 6311 5783 2033 5785
4 5837 6212 2044 2053
4 6311 4520 5785 2042
4 1386 3766 4667 4337
4 4430 5260 5491 4399
4 4329 6123 4328 5977
4 5713 1425 6123 1426
4 4328 6157 1424 1425
4 3949 4788 449 4761
4 450 4593 4026 3402
4 5660 5661 1433 6159
4 4805 6136 1413 1422
4 3897 4331 5961 6144
4 4788 440 4595 441
4 2784 4196 5070 2953
4 6076 1583 3614 1574
4 5021 3693 5168 6211
4 6076 3614 1583 6225
4 4150 6024 5643 5841
4 4052 5000 3749 4010
4 4886 5806 1565 4888
4 5806 4888 1574 1565
4 5002 3649 6211 3691
4 3333 6335 2645 4410
4 5686 5463 4064 4065
4 3944 4430 5491 6339
4 5306 4161 4849 5331
4 5907 5269 5238 5326
4 5391 678 4161 687
4 5269 4161 678 679
4 4430 5028 6339 3944
4 2539 4628 2540 4127
4 5225 1114 5931 1123
4 4769 4771 2815 4960
4 6185 6175 5058 4967
4 2815 4771 5855 4261
4 4769 1534 6195 1525
4 3663 5044 4261 3839
4 6195 5545 1533 5091
4 3665 3663 6275 5855
4 4769 4770 4120 3850
4 4343 4345 4942 4979
4 3805 2293 3804 3523
4 4978 4977 534 3707
4 541 3522 3521 4930
4 4171 527 4962 536
4 4171 4978 535 4981
4 5055 3965 4630 4650
4 5781 4694 6095 5583
4 4546 5142 4651 4579
4 4597 4625 4554 5024
4 4534 4604 4626 359
4 4630 4604 360 359
4 4608 4630 4604 360
4 5823 5291 6093 4226
4 5159 620 5097 629
4 5129 4050 4048 5130
4 5204 629 4284 638
4 3343 5097 5204 5159
4 5159 620 4348 5097
4 5179 5136 5159 619
4 5158 618 5179 627
4 5157 5085 5158 618
4 5864 5230 5204 4284
4 3001 2972 3013 5341
4 5082 537 3150 4227
4 6197 4227 5083 4956
4 4953 530 4975 3116
4 6215 6191 4968 6192
4 4975 3116 530 529
4 5001 5007 3850 547
4 3891 5001 4975 4987
4 3149 5083 1499 3150
4 3709 3941 3757 3942
4 5817 4731 5400 4434
4 3751 4054 5400 6062
4 3556 5817 4731 5400
4 4317 4322 4054 4055
4 3051 194 2197 195
4 3051 195 3052 1202
4 3051 2197 194 2196
4 3221 3051 3052 3224
4 3221 3222 2197 2188
4 3284 1184 4503 2572
4 3284 193 2196 194
4 3221 3223 3701 3224
4 3388 4184 5271 5995
4 2873 3386 3388 2897
4 4633 5996 4183 5314
4 4634 5990 5368 5342
4 3870 5887 4071 4073
4 4184 5987 1224 1233
4 4184 1225 5271 5995
4 5314 4071 5887 1215
4 5887 1216 4071 4073
4 5136 620 5159 619
4 4908 5136 611 4348
4 5085 4167 610 4999
4 3344 5136 4908 4348
4 5289 5316 674 683
4 5155 5278 665 674
4 4915 6010 3387 5442
4 2882 5391 4161 5306
4 5258 5254 5217 657
4 3654 3253 3655 5391
4 5753 5241 5969 6232
4 5230 638 4284 5300
4 5140 5872 6220 1606
4 3236 4049 5923 3619
4 2612 4108 5962 4883
4 5729 5730 5672 1945
4 3794 5647 4901 5641
4 5269 5211 669 5296
4 5099 6205 6180 5216
4 4061 5215 5626 5216
4 3089 4971 4199 5746
4 5354 6223 2084 4623
4 4199 1520 5746 1521
4 6203 4973 5746 1520
4 6224 6218 5212 5592
4 3982 5778 6176 6188
4 4940 5744 6190 1512
4 6168 5347 6172 1466
4 3586 6167 6166 6172
4 6194 5096 4242 4974
4 5099 5100 6180 6205
4 6207 6188 2011 2010
4 5345 6166 4250 5619
4 4055 1805 1796 263
4 6273 1805 4055 6049
4 4055 1805 262 6049
4 3751 5533 3750 4541
4 4432 4430 4399 5260
4 4983 4978 4171 4981
4 5009 4978 543 4993
4 5680 4964 4978 4993
4 5487 5039 5490 5033
4 4112 5722 5715 923
4 4112 155 5722 923
4 5722 1959 156 155
4 5679 5722 156 932
4 5679 5722 5720 5741
4 4112 5715 5740 6291
4 5487 5039 5015 5069
4 5485 5032 4994 5033
4 3199 3206 5067 3196
4 3206 579 3196 578
4 5032 5033 561 4994
4 5032 561 5033 562
4 6188 3587 5882 6176
4 5334 5612 6163 6166
4 5346 1485 5345 1476
4 5345 4250 3571 5619
4 6166 6172 1475 1474
4 6167 6166 6172 1475
4 6166 5334 3586 6163
4 6302 6031 3659 6032
4 3571 5345 4920 4249
4 4889 4248 494 485
4 3544 3553 3546 3545
4 4117 4116 1460 1461
4 5047 4873 4856 4910
4 4372 4374 11 1755
4 3974 3976 4429 4383
4 4372 1754 11 10
4 4372 4370 1754 10
4 4405 4368 6046 4370
4 4405 4372 1754 1755
4 4100 4618 403 4096
4 4100 412 4717 411
4 4617 4618 404 403
4 3833 4717 4617 4705
4 3282 5709 921 4737
4 6288 5740 5733 5741
4 5758 1970 5733 5731
4 3553 6087 6091 6067
4 3283 5668 3282 5719
4 5712 3947 467 466
4 5043 4247 4863 4698
4 4863 4247 476 4698
4 4873 4856 483 484
4 5263 3300 3544 3298
4 1444 4858 1453 4864
4 4378 3948 4818 4864
4 4863 476 4247 485
4 5047 4863 4889 4856
4 5028 3742 5031 5461
4 4929 3227 3011 3742
4 2502 2504 3009 6071
4 2503 5317 1793 5319
4 1775 1784 4212 6082
4 3553 5609 5262 6087
4 3442 2684 2685 3439
4 3936 5972 4012 4011
4 2504 5317 1784 1793
4 6219 5920 5205 5872
4 5179 628 5181 627
4 6221 1598 5158 6220
4 5867 6316 5868 2086
4 5868 2086 6316 2095
4 6202 5868 6316 2095
4 2929 5998 2539 3253
4 6021 5833 5853 4237
4 5813 6316 2086 2087
4 5471 5865 5814 5813
4 4221 4685 4222 825
4 4637 4646 4222 4685
4 4641 5567 4222 816
4 4685 816 4222 825
4 5558 4566 4646 4587
4 5558 4219 4622 4646
4 3381 4288 3379 3380
4 4753 4181 417 426
4 4792 4793 5648 871
4 4707 870 34 861
4 4148 410 4729 409
4 4730 5568 409 408
4 4728 419 4754 428
4 3538 4622 5141 4658
4 5141 4683 4622 4638
4 4646 4641 4685 383
4 4660 391 4647 400
4 4646 373 4587 4566
4 4683 4638 390 381
4 4622 382 4638 381
4 4683 381 4658 4622
4 5067 588 3196 579
4 3204 580 5067 579
4 5017 572 4966 571
4 5032 3204 570 571
4 2848 2857 5059 4190
4 4844 915 39 906
4 4844 38 906 39
4 4865 4844 4843 915
4 4844 4815 906 38
4 4844 4815 473 5649
4 4865 4885 4159 482
4 5691 1950 154 1941
4 5691 6291 1950 4800
4 5691 1941 154 153
4 5706 5691 4800 6291
4 4112 5706 5715 6291
4 4334 153 5691 905
4 5681 896 4334 905
4 6330 6208 5681 4341
4 6230 4800 5706 4341
4 6263 1879 3330 6130
4 4613 6131 6263 6130
4 6263 3330 1879 1880
4 6263 3330 1880 5569
4 4286 6263 6278 1871
4 4635 4139 3961 4706
4 5066 4045 4359 1190
4 2689 3446 3449 5068
4 3696 5952 5282 3695
4 4714 3705 5944 5963
4 4756 4781 1206 4071
4 5963 3744 1172 1181
4 5648 4793 870 871
4 5594 5604 852 853
4 4754 32 852 33
4 4709 4645 436 437
4 3792 3124 3119 4917
4 3653 6161 6160 4883
4 6032 5478 5479 4989
4 6160 1448 6161 1447
4 4827 4883 6160 4829
4 3251 6347 5372 4257
4 4461 309 4458 3433
4 4480 4479 320 311
4 4461 319 4476 318
4 3957 764 4488 755
4 4458 4149 317 318
4 4459 4395 291 300
4 4461 309 3432 310
4 5436 5422 3393 3400
4 2994 2999 5700 4552
4 4512 4477 6331 325
4 5964 6094 4090 4096
4 6094 6100 4229 1364
4 3083 5625 4746 6121
4 6094 4229 4090 4671
4 4229 4090 393 384
4 4648 4649 377 376
4 4042 377 4650 378
4 4539 354 4544 355
4 4563 4590 355 4544
4 4539 354 4435 4544
4 6279 4490 4489 4590
4 4539 4544 4563 355
4 4620 4563 4668 4596
4 3536 4539 4636 4586
4 3249 3252 6308 5875
4 5454 5445 6039 4098
4 2647 4214 3139 5686
4 2686 3742 3703 3011
4 5078 5144 615 4986
4 5188 5079 625 634
4 5154 616 5144 5147
4 5194 5188 635 634
4 5072 5188 5154 2890
4 5149 5154 5072 5846
4 5072 5188 2890 5858
4 5919 5073 5072 5846
4 2868 573 2849 582
4 2505 2258 2828 2256
4 2849 583 4350 2505
4 3146 4152 3660 4187
4 3249 4847 4848 4849
4 2830 2817 1552 1551
4 3997 1562 1553 2505
4 2849 2848 4190 2858
4 2258 2505 4350 592
4 5994 6019 6008 5995
4 2885 3417 2887 3365
4 6250 1219 1220 1229
4 3450 3396 6250 6007
4 5791 6011 3386 6019
4 5270 6006 1218 1217
4 4620 798 4668 807
4 4489 4490 4545 4590
4 5558 4566 4668 5567
4 5567 4222 816 817
4 4681 5567 817 4222
4 4620 4641 5567 4566
4 4646 4685 4641 4222
4 4641 4685 816 4222
4 4620 27 4641 374
4 4722 5877 4611 4693
4 3548 3401 4799 5964
4 4693 6100 1355 4230
4 4649 368 4630 4650
4 4649 368 4650 377
4 4722 1337 1346 1345
4 4626 359 4630 368
4 4693 1345 4722 1346
4 4603 4626 4605 367
4 5280 5385 5372 5279
4 3965 4626 4721 4723
4 5781 4694 4676 6095
4 4192 5529 4218 5530
4 4676 4694 1335 6095
4 4676 4694 1334 1335
4 4317 6273 1804 1805
4 4317 4318 4055 1796
4 4318 1787 264 1796
4 4318 1257 264 6058
4 4316 4315 6058 1787
4 4171 536 4980 4981
4 4980 4943 978 969
4 4980 46 5012 545
4 4962 4943 969 4944
4 4273 6235 5181 5182
4 4273 5181 636 5182
4 6235 5993 1616 5182
4 6235 6220 5180 1607
4 5181 6235 6220 5180
4 4273 637 5230 646
4 5181 6235 5180 5182
4 5921 5872 6219 6220
4 4725 5250 5125 4333
4 6072 5527 5439 5565
4 6072 5560 3160 5565
4 4332 4725 4333 1844
4 6004 3160 4673 5561
4 3058 4352 3820 5287
4 4626 4630 359 4604
4 5669 4626 4604 4630
4 4482 5814 5635 5848
4 5814 6216 2078 5848
4 5865 5813 5812 5814
4 6306 2032 5785 2041
4 5759 2040 164 2031
4 5789 5759 5771 995
4 5782 4169 6162 5771
4 5797 2023 5783 2032
4 4521 6306 2041 2040
4 5759 5815 4945 1004
4 5782 4169 5771 4945
4 4952 5093 5612 5094
4 6194 5096 4974 5939
4 5096 5939 5095 1509
4 4242 4974 5096 1510
4 5096 4974 5939 1510
4 5093 5612 5096 1500
4 5096 5095 1500 1509
4 5619 4250 5612 6166
4 5107 3505 3506 5467
4 3506 1731 5467 3505
4 4511 5311 5446 5310
4 5436 3393 5422 5421
4 3393 5421 1731 1722
4 3393 5421 1722 5422
4 4752 4579 5553 4148
4 4724 417 4753 4181
4 4728 4754 419 4729
4 4765 4180 426 435
4 4753 4730 418 417
4 4728 4753 4730 418
4 4707 861 5648 870
4 5684 4238 4877 4845
4 5061 5747 4859 4928
4 4158 4159 472 5649
4 5727 5647 5728 5710
4 4159 4845 4843 4844
4 5684 3793 4159 4160
4 4880 4160 481 480
4 5212 5592 3693 6224
4 5482 3499 2522 4810
4 4826 5138 3859 5909
4 5692 3649 5257 5806
4 2080 3861 2081 5138
4 4826 4060 5831 5449
4 4390 5643 5406 4155
4 6319 2080 5156 3859
4 6319 2079 5156 2080
4 5542 1798 4064 1807
4 5542 5562 1806 1807
4 4078 6104 3027 5554
4 6073 4065 4064 1799
4 3757 6039 3942 4097
4 5542 5562 4216 5475
4 6042 6043 3756 6344
4 6042 4099 4097 4064
4 5228 6316 5813 5088
4 5813 5814 6216 2078
4 5834 1040 5851 1049
4 5813 6316 2087 5088
4 5867 5813 2086 2077
4 2383 3019 3846 2379
4 4281 1881 4286 1872
4 4610 4286 6263 6278
4 5578 5579 839 4101
4 4285 4019 4144 4286
4 4799 4650 4648 4649
4 6004 4673 5560 4674
4 6127 1881 4281 1882
4 4565 6170 4619 379
4 4741 1882 6089 1883
4 4080 744 20 735
4 4461 310 4480 319
4 4407 1760 4427 4408
4 747 4209 748 5446
4 4397 4479 4547 753
4 4080 4475 311 4479
4 3429 4480 4461 3432
4 4319 4476 319 328
4 3428 4461 4319 4476
4 4347 5881 2127 2136
4 4347 5881 2136 6231
4 4346 5881 4205 2127
4 6327 2137 6322 2138
4 2138 5315 2129 6322
4 5232 4346 5169 2119
4 4697 6181 6061 5793
4 6325 6231 2136 2145
4 6280 4360 6322 6229
4 3702 5481 3517 6063
4 4430 5028 6177 6339
4 3987 3494 5504 6065
4 3470 3389 3395 3394
4 6262 5505 4013 5504
4 6063 1709 3517 1700
4 5481 6069 1718 1709
4 4011 6035 6271 6055
4 5481 6271 1718 6069
4 5717 5662 1464 5633
4 3457 3592 5777 4988
4 2298 2637 2388 2390
4 5773 6176 2001 6188
4 5773 6188 2001 2002
4 5760 5761 2002 2003
4 2533 6007 6250 1228
4 3383 2199 2671 2592
4 4357 6011 1656 4358
4 2897 3388 6008 5791
4 6022 3978 2442 1663
4 2533 6008 1227 1236
4 3838 3529 2857 5059
4 2817 4046 1552 1543
4 2816 2830 2817 4046
4 2848 4189 4190 5059
4 4960 2817 1543 4046
4 5193 58 5247 653
4 5247 1086 59 58
4 5193 5247 5243 653
4 5285 5247 59 662
4 5245 5237 5285 5307
4 5003 6280 2584 2956
4 5193 5243 5546 5272
4 5919 4501 4507 4506
4 5797 6306 2032 5785
4 4084 6338 5776 5769
4 6305 4085 2014 4087
4 6304 6305 2014 2013
4 5786 2013 161 2004
4 5769 5776 5774 967
4 5786 160 2004 161
4 6166 1474 6163 6172
4 3813 5778 2009 6176
4 5334 6163 5612 5613
4 5778 3982 5917 6207
4 2711 3534 3531 3530
4 5094 5096 5614 5095
4 4251 1503 4249 1494
4 5902 3787 4453 3785
4 4453 5421 3785 1732
4 4018 5361 3953 5447
4 3252 5824 5811 3743
4 4453 1741 5462 5467
4 4508 4453 5462 5467
4 3506 1731 3393 5421
4 1740 5467 1741 1731
4 5439 5528 1842 5563
4 5576 5439 5527 5565
4 5439 6274 4332 1843
4 6110 5298 5435 5125
4 3251 6347 5951 5372
4 5439 1843 4332 1852
4 6087 5262 5557 5556
4 5185 5189 5571 5511
4 4570 4572 1831 1840
4 6088 1320 1312 1321
4 6037 6090 1313 1312
4 5571 6037 5511 1322
4 6257 4510 270 1766
4 1765 5465 6081 4510
4 3249 6308 3251 4847
4 4510 1765 271 270
4 4326 4510 271 1684
4 5304 4206 1763 5382
4 6166 1483 6163 1474
4 5807 1474 6163 1473
4 5346 3571 6196 3807
4 3586 5807 6187 6172
4 4952 5613 5612 6163
4 5615 5094 5096 5614
4 6005 6254 2173 2172
4 6018 5787 6236 4872
4 5191 2445 2442 2444
4 4357 1655 5191 1646
4 4871 4872 6249 4869
4 2444 2889 4357 5190
4 3978 2443 2669 2668
4 2357 2899 2359 2354
4 3540 4236 6343 5517
4 4224 353 4586 362
4 3180 3920 5559 6179
4 4207 3920 3700 3384
4 5843 5073 1060 1061
4 3977 5154 5078 5144
4 3993 5844 2913 5364
4 5146 5127 4182 608
4 5843 1052 5364 1061
4 5364 5836 1061 1062
4 3614 5806 1574 1573
4 5220 5143 5221 6225
4 4360 1609 5214 5110
4 5171 1583 6225 1592
4 5003 5570 6229 5651
4 5642 5022 3649 5056
4 5806 3649 5257 1564
4 6076 1574 5806 4888
4 4189 5059 575 4190
4 4189 4190 575 574
4 3531 4350 4189 584
4 3532 3660 585 594
4 4350 2505 2258 2828
4 2830 2816 2856 2829
4 3130 3690 2830 1551
4 4196 4197 6217 3338
4 4778 4765 4733 4763
4 4765 4753 426 4180
4 4708 4709 4645 4793
4 3407 4733 3580 4763
4 3378 4792 3380 3376
4 3381 4288 3380 4792
4 5618 4728 5648 4709
4 5903 4181 4753 4180
4 6042 4098 4097 4099
4 6073 1800 4400 4065
4 3422 5016 3755 4451
4 3251 6347 4848 4847
4 5476 5466 5474 752
4 3755 4451 5016 750
4 3756 5016 4215 4006
4 4451 5016 750 759
4 5440 4368 4424 6053
4 3975 3894 3976 3971
4 4382 14 4068 282
4 4424 4429 280 4374
4 6268 6267 1746 1747
4 4380 6267 1747 1756
4 6268 1738 6266 1747
4 4461 3433 3432 309
4 300 3432 4459 4457
4 4457 300 3432 309
4 4403 5462 1741 1750
4 4139 4706 850 859
4 3578 4139 4232 4141
4 3959 1905 3961 4232
4 4635 4139 4706 5607
4 4706 849 5607 850
4 3578 148 1896 149
4 3578 1905 149 1896
4 3960 3961 3962 868
4 3101 4232 3233 6285
4 1905 3959 6285 4232
4 2853 3120 947 3133
4 3476 3981 3571 5619
4 3362 5690 4906 6014
4 5489 5014 5076 5794
4 3354 3357 3358 3355
4 5810 4122 1009 4450
4 2349 3481 3475 2347
4 3573 2600 3533 5357
4 4958 4991 962 963
4 4311 4958 4905 4991
4 5440 4405 5417 6268
4 4405 1754 4372 4370
4 4405 6046 1745 1754
4 5762 4836 4303 4449
4 4568 5365 5762 3527
4 4405 5417 6268 1746
4 5762 4449 4303 6053
4 5467 3825 5107 3505
4 3252 6308 5811 5824
4 5415 5414 4428 4129
4 3825 5462 1740 5467
4 4068 14 1758 15
4 4427 1751 4455 125
4 4477 6078 325 334
4 2302 2305 2304 3041
4 5938 5284 4849 5932
4 5894 5495 5931 1115
4 5225 5932 1122 1123
4 5245 5237 662 5285
4 5894 1115 5931 1114
4 5907 5326 5225 5932
4 5309 5308 5195 5894
4 5326 5224 689 680
4 5195 5328 5308 5329
4 5931 5495 1124 1115
4 5938 5932 1123 1132
4 5281 5331 5284 5932
4 5225 1123 5931 5932
4 3891 3665 6184 5001
4 4168 4994 560 4163
4 5052 3208 5081 5053
4 4168 560 4994 561
4 3204 579 3206 570
4 4473 314 4033 315
4 4839 5366 4442 4443
4 5925 4033 4035 306
4 4552 1290 4553 5700
4 3595 4473 4531 4526
4 4483 314 4473 323
4 5404 5941 5283 1134
4 5975 5931 5495 1124
4 4021 5952 5960 1144
4 5875 5404 5941 5283
4 4191 5959 5966 1152
4 3613 1573 3649 5806
4 3613 3649 3691 5806
4 5692 3649 5021 5022
4 3613 5642 5570 5232
4 5056 3648 1563 4349
4 3613 1572 5642 3649
4 5558 4646 4622 4587
4 4539 5558 4587 4566
4 4711 818 4681 4684
4 4688 800 4236 809
4 4688 4684 809 5517
4 5870 4688 4668 5508
4 4221 835 4580 5553
4 4684 809 5517 818
4 2892 2895 6313 5874
4 2892 2895 5077 6313
4 5431 1037 4237 1046
4 6199 6202 4154 6200
4 4052 3747 4010 3749
4 6293 5863 4389 6317
4 5856 5841 1055 1046
4 3250 3252 5875 3743
4 5077 2913 1044 1053
4 5406 5643 5644 1064
4 4528 2341 6239 2343
4 6307 5927 5297 5862
4 6307 5985 5899 5862
4 6293 5862 5878 5927
4 5255 5409 1083 1092
4 5256 5863 1075 5646
4 6072 5565 3160 5527
4 6344 5542 4064 5541
4 6104 5496 5513 5541
4 3139 5484 5051 4006
4 5261 4631 6060 5509
4 5562 4468 1815 1816
4 5542 5541 1807 4064
4 5562 4217 4467 4468
4 4130 4364 1693 1694
4 4326 1765 4510 5465
4 6339 6081 6082 5465
4 5425 4364 4130 1694
4 4326 5465 1764 1765
4 6259 5464 4326 1685
4 6261 4510 1684 1683
4 5464 4130 1685 1694
4 6259 4206 1763 1764
4 4103 750 3753 741
4 3758 4103 3755 3753
4 3609 742 5466 4103
4 3251 5951 6308 5824
4 4103 3753 732 741
4 5116 4103 3753 732
4 3758 5451 5454 4103
4 5118 5451 5116 5450
4 5117 5121 6258 1696
4 5116 4447 5450 732
4 5444 3609 743 5466
4 5466 4098 5444 3609
4 5506 6039 1781 5492
4 3391 3392 3507 5673
4 5122 5492 5304 4206
4 5303 6258 1687 1688
4 4392 4268 1867 1858
4 4268 2545 1867 1868
4 4267 4269 4268 1859
4 2544 1329 4325 4270
4 4268 4325 2544 2545
4 4228 3605 831 5605
4 4228 3605 822 831
4 3846 6263 4287 4613
4 4613 4228 5597 5605
4 4613 3845 4228 5605
4 4674 822 3605 4030
4 5203 5409 4384 3915
4 5440 4569 4424 3972
4 4836 4035 4302 4449
4 6330 6208 5677 5675
4 3866 3865 5664 4341
4 4789 3831 5675 886
4 3561 5677 3831 1923
4 4789 5677 6208 5675
4 5664 6208 4341 894
4 4739 919 4736 920
4 3295 5693 6214 6213
4 3262 2850 3264 3281
4 5904 5348 5893 1088
4 5895 5237 5071 5238
4 5236 5218 642 5170
4 5235 1080 5893 5192
4 5893 5349 1079 1088
4 5679 5741 5720 5737
4 5679 1977 157 1968
4 6288 5715 5720 5709
4 5698 4598 939 5152
4 5698 940 5743 949
4 5698 5719 939 4598
4 4602 5756 5741 6300
4 5719 4598 930 939
4 5668 5719 4598 930
4 3283 3466 4598 5719
4 3922 5755 1988 1997
4 3359 5769 957 5697
4 2840 3457 4121 4988
4 3361 6162 3360 3358
4 3356 3921 3357 3355
4 4922 3871 5780 4919
4 5558 4684 4681 5567
4 4637 382 4646 383
4 4681 4684 817 5567
4 4221 4580 835 4220
4 4895 4219 4579 5142
4 4658 4587 4622 372
4 4680 4711 4681 4684
4 3699 6001 5375 5522
4 4678 4660 390 4638
4 4579 5553 4647 4221
4 3539 4688 5517 4684
4 4221 5553 834 835
4 4221 4582 834 5553
4 4647 5553 4148 4710
4 4682 3323 4220 836
4 4580 835 4220 836
4 6178 1488 4245 4916
4 6178 4245 1488 1497
4 3801 6341 3802 4916
4 6191 1497 6178 4968
4 6344 4215 4451 4216
4 5119 5121 5117 4314
4 6073 4064 6043 4097
4 4451 4216 760 4452
4 3755 4451 751 4452
4 4334 1932 153 152
4 4334 5691 153 1941
4 4334 3830 896 5675
4 5694 1942 5708 4800
4 4385 5936 5857 5203
4 4334 5691 1941 4800
4 5681 895 6208 5675
4 5955 4366 5229 4891
4 4856 6299 4889 5047
4 4246 496 4893 495
4 4385 5936 4727 5889
4 3948 3947 4818 4802
4 4093 4911 4918 4116
4 3463 4093 4116 4117
4 4911 4918 1461 1462
4 4110 4117 4116 1460
4 4879 4899 489 4902
4 4879 4902 489 4880
4 5684 4843 4159 4845
4 4880 481 4160 4885
4 4879 4814 4160 480
4 5736 4879 4902 4899
4 4845 4816 906 4815
4 5650 4817 4811 890
4 3099 5650 4817 4811
4 3119 5701 4917 5650
4 4917 5621 4840 4785
4 5832 2076 5851 168
4 5854 5851 5868 2085
4 5834 5833 1039 1048
4 5867 2086 5813 6316
4 5851 168 2076 169
4 5851 2085 169 2076
4 5832 5867 5851 2076
4 4219 5141 4638 5142
4 4579 5568 4660 4148
4 4580 836 4220 3323
4 4231 5979 4732 4288
4 4580 4278 845 3323
4 4580 836 3323 845
4 4765 4733 436 4645
4 5618 4709 4765 4753
4 5979 4729 4728 4730
4 4792 880 4817 4793
4 5618 4753 5979 4728
4 4792 4817 881 3376
4 3766 4667 4715 1377
4 2802 2800 2803 3763
4 4142 4745 1380 1371
4 4667 4715 1377 1376
4 4667 1376 5176 4715
4 5313 4995 6121 5395
4 3108 2769 3608 6107
4 5549 5175 5550 6118
4 6067 4267 1841 4413
4 6087 6088 4131 6090
4 4540 1821 4787 6075
4 5534 6227 6048 1293
4 6068 3353 6272 4132
4 3545 6270 4572 3546
4 6091 1848 5557 6092
4 3553 4572 6067 6091
4 4345 4991 971 4979
4 4345 4996 4342 4942
4 4345 4996 980 5014
4 4343 4345 4979 4991
4 4345 5014 980 981
4 5014 4345 4996 4342
4 5486 5018 3480 5488
4 5030 4983 4943 4942
4 6289 1920 5655 5624
4 6289 5655 1920 1929
4 4498 6289 5655 5624
4 2921 6283 4498 2332
4 4853 74 208 3
4 4852 74 4853 708
4 4853 208 75 3
4 4852 5336 4853 1230
4 4853 1679 75 208
4 4854 4855 4853 1679
4 4840 5650 5701 898
4 4816 4815 897 906
4 4784 464 4815 5649
4 4845 4844 5649 4815
4 3792 4816 4845 5649
4 4238 907 5701 908
4 5579 840 5607 849
4 3050 4706 5579 5607
4 3677 5579 4101 5607
4 5579 839 4101 840
4 2982 6334 4499 3570
4 2376 4029 3615 4020
4 2383 3677 3848 3845
4 5236 5248 5239 651
4 4421 5236 5239 5026
4 6129 5627 6153 6243
4 5236 5218 5243 643
4 5236 642 5218 643
4 4928 4813 935 934
4 4310 3639 5514 3317
4 4813 926 4877 4876
4 4814 4160 5800 4879
4 4921 5588 5590 5589
4 4812 4859 933 934
4 4813 926 4876 935
4 5533 3752 5499 6052
4 4573 1829 4787 3546
4 4385 5983 3914 4726
4 6335 4716 3333 6074
4 5294 5167 5261 4725
4 4631 5496 1827 5509
4 3482 4412 3909 3908
4 4677 4478 6331 5370
4 4917 5650 5621 4817
4 4768 4840 5621 4785
4 5621 4817 880 4793
4 5621 880 4817 889
4 4840 5621 889 888
4 4768 5621 4645 4785
4 2487 5658 5674 4965
4 5598 6100 1363 1354
4 4629 3737 5598 5964
4 5734 4618 4043 4616
4 4693 6100 5598 1354
4 4675 1344 4694 5583
4 5877 5781 4723 5583
4 5645 4390 5406 4384
4 3401 6112 5598 5657
4 4671 4090 4096 393
4 5573 6094 5964 4096
4 5734 3827 4616 4041
4 5657 5598 1363 1362
4 4100 402 411 4691
4 5468 4479 744 753
4 738 3953 737 4448
4 4488 3956 3957 755
4 4397 4319 329 4320
4 3429 3430 3431 3427
4 5468 753 4547 4479
4 5468 4547 4480 4479
4 4475 4480 310 311
4 4397 21 753 22
4 5976 6143 6123 4803
4 6123 6143 1417 4803
4 6123 1416 4328 5977
4 4329 5977 5976 6123
4 6123 1425 4328 1416
4 6326 5713 6123 6143
4 5861 5862 2130 2121
4 5861 2130 174 2121
4 5861 2121 174 173
4 5860 173 5861 1085
4 5899 5862 5861 5863
4 5960 5388 5966 1153
4 3721 5973 3724 3726
4 5924 1145 5952 1146
4 3697 5924 5952 1146
4 4022 5960 5924 5944
4 4951 4362 510 4882
4 4951 4355 4362 4882
4 4366 1480 4355 4916
4 2281 1481 4366 1472
4 4951 3117 511 3633
4 4362 4891 502 501
4 1481 4882 2281 4355
4 6341 3116 4956 3117
4 4384 5409 5857 5645
4 3678 4548 5748 4504
4 3596 4526 4600 4504
4 3943 4364 5425 5461
4 6345 6340 3027 3029
4 4431 4430 3944 5028
4 6339 3944 4130 5465
4 4430 4399 5491 5319
4 4399 5491 1782 5492
4 3894 3976 289 288
4 4380 3973 4301 6266
4 3552 1270 4509 1279
4 299 3976 4395 290
4 3976 3971 298 299
4 297 4569 5510 3894
4 4429 281 4383 290
4 4381 12 1756 13
4 4429 6267 1756 4374
4 3594 4548 5772 3901
4 5273 4192 4218 5530
4 5323 4561 4548 5748
4 4548 5748 1300 1301
4 3686 3679 312 4401
4 3595 4483 4473 4526
4 2996 5772 4561 5801
4 4548 4561 1300 5748
4 5050 1005 49 996
4 5050 48 996 49
4 4113 996 5050 48
4 5069 5054 5017 5050
4 4113 5039 563 5050
4 5069 5054 1005 1006
4 3519 3312 4386 5891
4 5904 5329 5348 1097
4 5308 1097 5329 1106
4 5895 5907 5238 5225
4 2880 5211 5265 5269
4 3672 3914 4385 3915
4 2924 2772 5441 3620
4 5908 5894 5495 5931
4 6324 5546 5272 5348
4 6332 5243 5245 5236
4 4275 1651 5244 5240
4 3620 1631 2973 5969
4 4304 4298 4292 5335
4 5295 5751 5585 5344
4 5240 5397 6232 1641
4 5397 5969 1641 1640
4 5238 671 5071 680
4 5894 5931 5225 1114
4 2580 2581 2478 2479
4 5237 662 5285 671
4 3795 4875 5684 3791
4 3040 4593 5703 3402
4 5653 5721 5730 6113
4 4881 3559 4328 4239
4 5519 4594 4593 4595
4 4788 4761 4595 440
4 5935 5915 176 1112
4 2371 5910 2372 1111
4 5911 175 5915 1103
4 5150 5698 5696 5697
4 5698 5697 5152 948
4 6186 5743 5718 6173
4 3466 5698 4598 5719
4 5956 68 714 715
4 5956 1176 68 67
4 5951 4258 1177 5824
4 4077 5957 706 715
4 5350 5957 705 706
4 5350 4847 4848 6347
4 5951 5824 1177 1168
4 3498 5582 5837 4058
4 6318 2152 5981 2151
4 2362 2851 2854 2850
4 4807 2035 5452 2026
4 5101 5100 6198 6180
4 4954 6190 4252 5802
4 5099 5100 6205 6101
4 5837 3498 3487 6102
4 5453 2017 3813 2018
4 4754 4712 32 419
4 5594 5553 844 843
4 2485 5652 2519 5305
4 4712 843 32 31
4 4732 5594 853 5604
4 4288 862 4732 863
4 4707 4754 5648 861
4 4729 4730 409 418
4 4752 5568 4729 4730
4 4282 4280 4062 4124
4 6089 4147 4742 1883
4 5379 5378 1876 1875
4 5852 5853 5833 1048
4 5850 1065 5643 1056
4 5850 1066 5646 1065
4 5833 1048 5853 1047
4 5841 1047 5853 1056
4 5852 5854 1058 1049
4 6200 5859 5850 5853
4 4154 6202 6316 5089
4 5852 5869 5859 1058
4 5833 4237 1038 1047
4 5833 1047 5853 4237
4 5227 3239 4154 5228
4 6199 5852 5853 5833
4 6318 5980 5946 5892
4 5821 5833 1038 1039
4 6247 5206 2132 5297
4 5927 5207 2123 5878
4 5143 2990 2987 5898
4 6290 5206 2124 2133
4 5206 5927 2123 2132
4 5546 5307 1096 5308
4 5348 5308 1096 1097
4 5348 5893 1088 5349
4 5348 5308 1097 5329
4 5546 5247 1086 1095
4 5309 5245 5307 5237
4 5592 6218 5593 5623
4 3861 2081 6218 2090
4 2725 2755 2726 5820
4 6224 2083 4623 2092
4 3025 3372 3054 3053
4 5263 6092 5268 5267
4 6110 6111 5565 5439
4 3054 3452 775 784
4 4236 5532 5559 3920
4 3594 3901 4069 4548
4 6169 4081 4225 4636
4 6326 4761 4776 4759
4 2310 4720 4705 2309
4 4594 4761 6152 4595
4 4720 4038 440 4595
4 4038 421 4705 422
4 5911 2139 6239 5915
4 5911 5985 2139 2130
4 5899 5255 1084 1093
4 3734 2372 5847 5914
4 5847 1101 2372 1110
4 5906 2372 1101 1102
4 5847 2372 5910 1110
4 5840 5845 5914 1100
4 6346 4812 4813 4928
4 5045 5046 5061 4823
4 4899 5725 4923 498
4 3638 4936 4813 4876
4 5683 4884 4902 4880
4 3640 5725 5061 5046
4 4859 5723 933 942
4 5061 5725 4823 4907
4 4914 4855 5384 1670
4 4854 3874 6009 1678
4 4854 1670 4855 1679
4 4455 4456 126 1742
4 4855 4853 1679 75
4 4455 4404 718 719
4 5945 5997 3066 2159
4 2340 5910 4657 4204
4 2340 4655 5886 3716
4 3066 3717 5886 2168
4 3728 2167 5886 2168
4 4655 5886 3728 2167
4 3656 3657 2193 3849
4 3727 4657 3729 5947
4 4655 4656 2157 2166
4 2340 4657 2371 4655
4 5385 1194 70 69
4 5385 5373 1185 69
4 5279 1195 4256 5369
4 4257 5279 5280 5372
4 5990 5385 5279 5369
4 4407 4427 1760 6260
4 4382 4402 3824 4383
4 4427 6260 1751 1760
4 4427 4455 4404 718
4 5414 726 4129 717
4 4455 1751 1742 125
4 4031 4411 4407 4402
4 5334 3982 6188 6207
4 3586 5619 6166 5345
4 4242 4250 1493 1501
4 6318 5980 5892 6244
4 3716 5886 3065 3717
4 4927 5495 5975 5908
4 3066 2168 5886 2159
4 3857 3066 2169 3717
4 4084 6305 4087 4085
4 3361 3360 3872 3362
4 2837 3811 3813 2840
4 4083 6304 4085 5783
4 4169 985 5771 994
4 6162 975 4259 3360
4 6162 5775 985 976
4 3071 5946 6318 5997
4 3797 3593 4262 3796
4 3991 4537 4557 4535
4 5670 6285 4804 1916
4 3504 5569 1890 1889
4 3504 1889 3329 3330
4 5049 1007 5010 1016
4 5049 1016 5010 5666
4 5665 5818 5049 5666
4 4151 4713 5432 5431
4 5036 998 5011 1007
4 5034 5035 5053 1014
4 2949 5052 5818 3208
4 3716 3728 5886 3717
4 2846 2847 3485 3486
4 5947 3729 4665 5423
4 4655 3716 3727 3728
4 3728 2168 5886 3717
4 3553 6087 6067 6068
4 6091 4267 1849 1840
4 5267 3546 1839 1838
4 5268 5267 1847 1838
4 3865 903 4735 902
4 4734 911 3272 4735
4 5674 5664 3865 893
4 3866 5664 6208 4341
4 6208 5664 4789 885
4 3865 894 4341 903
4 3128 2118 5169 4205
4 5106 3208 2948 5053
4 2119 5651 5232 4346
4 3128 5169 2118 2109
4 5169 5021 2100 3127
4 5169 2101 5232 2110
4 3128 5169 2109 3127
4 3128 5169 3127 5168
4 5627 6153 6243 6318
4 1857 4089 1866 4392
4 4146 4147 1875 5378
4 4294 4392 4146 4089
4 4146 4147 1874 1875
4 4493 4268 2545 5378
4 4346 5169 2118 4205
4 4346 4205 2118 2127
4 2956 4346 4347 5881
4 4233 5169 4346 4205
4 6322 2128 5651 2129
4 4346 2127 4347 5881
4 5004 6225 5171 3614
4 2956 4346 5651 4347
4 6325 4347 2136 6231
4 6280 6327 6325 4347
4 6327 5109 4851 2147
4 6182 6325 6245 6321
4 5219 4347 6325 6231
4 2248 2253 2551 2549
4 6137 6135 3933 2731
4 6132 6150 1939 6138
4 5603 1410 4223 5659
4 6140 6138 1939 1948
4 6132 5603 5659 1401
4 5884 5882 5711 5735
4 5457 1983 5735 5479
4 5884 5735 5711 1992
4 5711 5735 1983 1992
4 6302 5459 5501 5524
4 6302 6161 3659 6168
4 5457 1984 5459 5711
4 3331 3224 3418 3223
4 3701 3223 3418 3224
4 4290 3720 1191 1200
4 3418 1201 3224 1210
4 3701 3418 4290 1201
4 6234 5768 5984 5993
4 6232 5984 1632 5969
4 4274 5276 5253 5278
4 5241 5240 5397 6232
4 5360 1658 1650 1659
4 6232 1641 5397 5969
4 6232 5969 1632 1641
4 4108 5347 1458 1467
4 1484 6166 4250 5345
4 6168 5962 5347 1457
4 5615 5612 4250 4242
4 4108 5347 5962 1458
4 5882 3490 5884 6176
4 5615 5619 4250 5612
4 5878 5207 2114 5879
4 5878 5862 2122 5927
4 4393 5927 5878 5207
4 5878 5927 2122 2123
4 5646 6293 5256 5863
4 4917 4817 3099 5650
4 3123 3580 4794 4782
4 4917 3124 3119 3123
4 4794 453 4760 462
4 3119 4867 5701 5650
4 4768 5621 4840 888
4 3099 4811 4817 3376
4 3580 4782 444 453
4 3097 3791 3119 4867
4 4582 4685 825 29
4 4582 825 30 29
4 4637 4221 4685 4222
4 4710 4582 30 401
4 4579 4148 4647 5553
4 4221 834 4582 825
4 5289 5278 5242 5155
4 4292 5316 5289 5335
4 5240 1641 6232 1642
4 4274 5752 5242 5278
4 1650 1641 5360 5240
4 4111 681 4105 690
4 4275 1652 5226 4201
4 3790 3347 3346 3098
4 3792 4784 4840 4816
4 4867 5650 4811 899
4 3792 4784 4816 5649
4 3124 3123 4760 4794
4 3793 4158 4159 4160
4 4845 5701 907 4816
4 5027 991 5779 5780
4 5027 6155 5779 990
4 3873 3872 973 3876
4 3873 4259 983 974
4 3875 3872 3876 3362
4 2592 2200 198 197
4 2592 2569 1229 198
4 2532 1229 2592 2569
4 4830 1672 2436 1671
4 1219 6007 6250 3396
4 2443 2190 2671 3153
4 3438 4149 3437 4458
4 5468 4547 753 754
4 3429 3428 4461 4480
4 6219 6221 6220 5872
4 3343 5204 5097 4284
4 6219 6221 5872 5205
4 5113 3341 5114 6219
4 5205 1596 5231 5187
4 5921 4273 5204 5230
4 5921 6235 5140 6220
4 5920 5231 5205 5872
4 6221 5205 1588 1597
4 5231 1596 5872 1605
4 3161 1569 3132 1570
4 3161 1579 5112 5114
4 2830 1561 3132 1560
4 4169 5804 984 993
4 5782 5771 6162 5775
4 4169 4259 984 5804
4 4481 4519 5805 4517
4 4519 4517 4195 1012
4 4519 5805 1011 5799
4 4193 4945 1003 4517
4 4518 5638 4519 5640
4 4517 4946 1002 5805
4 4151 6021 6024 5841
4 5821 1029 5432 5429
4 5821 5833 5432 1038
4 5821 5432 1029 1038
4 4522 2050 5636 2059
4 2623 3500 2597 5420
4 6030 5638 5838 5821
4 5865 6316 5867 5813
4 4114 1470 4918 4933
4 4890 4891 4094 4889
4 4889 485 4863 4247
4 4911 4117 1461 4116
4 5229 4918 4910 1462
4 5955 5229 4933 4918
4 4104 6253 5244 4201
4 4105 4107 691 682
4 4292 4107 5316 5335
4 5986 5359 1222 1223
4 4201 1652 1661 1660
4 6189 5986 5991 6269
4 5359 5987 1232 1223
4 4274 5242 4104 5316
4 2539 4628 5998 3486
4 4275 6000 1643 5333
4 4274 5316 4106 5278
4 4854 1669 5384 1670
4 4915 6010 5442 1659
4 5244 5240 1651 1650
4 6318 6153 6244 5892
4 4913 4107 4292 5362
4 4589 6248 4185 6253
4 6009 6020 1668 1677
4 3598 4836 4302 4839
4 3818 1307 3817 3820
4 2993 5399 3552 4134
4 3139 4078 5484 4214
4 3030 5251 3029 6340
4 4576 5477 782 783
4 3507 5029 6069 5673
4 3333 4573 4787 3546
4 2645 4632 3826 6335
4 5188 5198 2890 5858
4 4501 5194 5188 5858
4 5188 626 5154 2890
4 5919 5078 5188 5079
4 4320 762 23 22
4 4523 4320 23 338
4 4397 22 4320 329
4 6294 4319 4321 4476
4 4079 5468 745 3956
4 4575 4588 4615 772
4 5494 771 4615 772
4 3960 4706 858 3105
4 4699 4291 4474 856
4 3233 1898 3503 1907
4 5753 5241 6232 4274
4 5670 3959 3301 6285
4 4635 3961 4139 4232
4 4706 849 5579 5607
4 4967 5083 1507 4968
4 4967 6192 4968 1506
4 6183 5083 4967 4968
4 4967 6192 1506 1515
4 1525 6195 4769 6175
4 6195 1524 6175 1525
4 6184 6175 4967 5082
4 2945 4244 3835 4560
4 5855 6175 4120 4769
4 5001 548 5007 547
4 3892 6185 6184 3893
4 5058 1514 6192 1515
4 5444 3609 5445 5455
4 5474 1779 4098 1788
4 5474 1788 4098 4099
4 5259 3709 3758 3757
4 5119 5123 4314 5118
4 5466 5474 4098 4099
4 3755 751 5466 4452
4 3755 742 5466 751
4 5299 712 713 5385
4 5990 5368 702 711
4 5280 5990 712 5385
4 6269 4183 5996 5369
4 5940 5342 694 703
4 3783 70 5385 1194
4 694 693 5342 4203
4 6347 4847 5951 5957
4 5367 5368 4634 4298
4 6262 4014 1261 1252
4 6045 4426 6035 6055
4 5764 1263 6034 1254
4 5764 6057 1263 1264
4 4014 6034 6040 1262
4 4568 5365 5416 5440
4 6054 1245 6038 1254
4 4418 4066 285 4367
4 3516 4299 5480 3985
4 6262 4012 4014 4439
4 4836 4303 4302 4442
4 4148 4710 410 401
4 4148 5594 4729 4712
4 4710 834 5553 843
4 4647 4221 5553 4582
4 5753 5984 3543 5768
4 4710 4582 834 30
4 5963 1181 5066 3744
4 4663 4662 1156 4664
4 4128 5970 184 1155
4 4128 4663 5970 1155
4 3656 5427 4662 4664
4 3656 5408 1174 4503
4 5387 64 1140 65
4 5387 5353 1140 64
4 5387 65 4075 716
4 4077 5402 5956 715
4 5387 5351 4077 5393
4 4074 4076 4075 1158
4 2743 3272 3865 4735
4 4157 4026 460 4176
4 5729 3624 4984 5730
4 4921 3095 4173 5587
4 5632 4785 4733 4645
4 3016 4876 5716 4936
4 3347 4462 5301 4174
4 3999 891 4811 3376
4 4408 717 4129 17
4 4129 717 18 17
4 4129 726 18 717
4 4407 4427 5414 4408
4 4427 5414 4408 717
4 4427 6260 5414 4404
4 5036 5037 5011 998
4 5036 5049 1006 1007
4 5036 5049 1007 5010
4 5069 5050 996 1005
4 5225 1105 5307 5894
4 5328 5308 5329 1106
4 5894 5895 5225 5931
4 5894 1114 5225 1105
4 1104 5225 1105 5307
4 5328 5495 5894 1115
4 6339 6261 4130 4364
4 5318 6082 6081 4212
4 6177 6261 6174 6081
4 6174 6050 6257 6051
4 6261 6339 4130 6081
4 4269 1850 257 1859
4 4269 257 1320 256
4 4267 1850 4269 1859
4 4269 1859 256 4325
4 4267 6088 4269 1320
4 4251 4249 1503 4243
4 4249 1503 4243 1502
4 1502 4242 4243 4249
4 4242 4243 6190 1511
4 4250 1484 4249 1493
4 5345 4249 1484 1485
4 4920 5345 1485 4249
4 4250 1483 5612 6166
4 6194 5614 5096 5095
4 3812 5166 5164 2016
4 4240 3476 5619 5473
4 4242 4974 1510 1511
4 3498 6205 3487 4808
4 4950 5101 4974 5742
4 5837 6205 4058 5216
4 4244 4920 4249 3571
4 5093 5095 5094 2030
4 4724 4730 417 408
4 4536 4621 4535 4678
4 4494 4181 4542 4724
4 4724 4753 417 4730
4 5977 5395 3044 5313
4 4239 5977 5395 3044
4 6121 4746 1390 1389
4 5395 4239 1397 1398
4 4748 4744 4690 429
4 4720 2311 2310 3079
4 3977 5144 5092 5147
4 3994 5073 5919 5843
4 6315 6314 5354 6281
4 5919 5846 5843 5073
4 5148 5844 2894 2912
4 5844 1051 5163 1042
4 5843 1060 5846 1051
4 5844 1043 2913 1052
4 5364 5073 3994 5843
4 3977 3958 5844 5163
4 4253 5451 5450 723
4 5451 4103 733 3609
4 5451 3609 733 724
4 4447 741 5327 740
4 3758 5454 5466 4103
4 5324 1688 5303 275
4 5451 5116 5117 5118
4 3609 5117 5302 5325
4 5325 725 3609 724
4 5121 5434 1696 1695
4 3478 4163 5707 5104
4 6341 6197 4956 3116
4 2725 6275 2813 5091
4 5006 3196 3197 3198
4 3838 5103 3529 5048
4 5048 5013 567 5044
4 569 568 5102 4163
4 3892 6192 6185 5058
4 5102 4168 569 4163
4 4861 469 4796 470
4 5588 5590 5589 4894
4 3475 2347 3481 3491
4 3188 3584 3006 5589
4 6131 1870 6263 6130
4 3373 5522 5375 5537
4 5586 824 5564 5577
4 6111 6131 5586 5564
4 4612 4674 4614 6110
4 3561 1905 3959 6285
4 3301 6285 3233 4804
4 3233 1906 6285 4232
4 3233 3503 4804 1907
4 3579 1905 3561 1914
4 3959 3961 3579 3962
4 3286 3502 3103 3503
4 3960 4706 3961 859
4 6285 1907 4804 1916
4 2645 3826 5496 5463
4 6340 5496 5509 5513
4 5496 5463 1818 1817
4 5496 5513 1817 1826
4 5509 1835 4725 5544
4 2640 4003 3139 4006
4 5333 1633 6232 5982
4 5276 664 5275 5253
4 5333 5240 6232 1642
4 5333 6232 1633 1642
4 5275 5333 6232 5982
4 5183 5230 5767 5186
4 6092 5267 1848 1847
4 5185 5511 5571 6037
4 5571 5189 3687 1331
4 5557 4089 1848 1857
4 6087 6088 6037 4270
4 2497 5580 3700 5516
4 5268 6092 1847 5267
4 5263 3553 5262 5267
4 4267 4268 5557 1858
4 4392 5378 1866 1867
4 5557 1857 4392 4089
4 3071 5997 2342 3069
4 3190 3191 2660 3193
4 5209 6233 2134 2135
4 4530 6247 5946 5297
4 4528 6307 4529 4530
4 4530 5927 5206 5297
4 6318 5980 2142 5946
4 6247 2141 5297 2132
4 6247 5946 2141 2142
4 5061 6346 3638 4928
4 4961 4979 4824 961
4 5045 4178 4823 4824
4 4936 4928 935 944
4 5045 4178 5030 4177
4 4958 953 3639 954
4 4958 3639 953 4961
4 5224 5071 61 680
4 5071 1104 61 60
4 5071 5225 1113 1104
4 5285 60 5071 671
4 5895 5071 5237 5307
4 5238 5265 670 5269
4 5895 5071 5307 5225
4 5245 5237 661 662
4 5922 6240 5140 6226
4 5140 1615 6235 5320
4 5922 5872 5140 6240
4 5140 6240 1605 6226
4 4184 1225 5995 1234
4 3874 206 5249 1677
4 6010 5442 1658 5356
4 6010 1658 5442 1659
4 6020 6017 6251 1676
4 4185 5887 4184 5987
4 5992 1659 5244 1660
4 6003 1231 5359 5336
4 6248 5384 4854 1669
4 3832 5573 5964 4618
4 2446 2447 2449 3322
4 4750 5598 1362 1353
4 3401 5598 3737 5964
4 4759 6143 4803 6141
4 2594 3076 3044 3926
4 6141 438 4748 4759
4 4759 439 4761 448
4 5976 4803 4759 6143
4 4759 438 4748 4690
4 6142 5713 6143 1426
4 5508 791 5532 800
4 4688 4236 800 5532
4 4688 4684 808 809
4 6298 4588 5497 5494
4 5497 782 5477 791
4 3130 1560 2830 3132
4 2868 2858 2849 573
4 3159 3132 3997 1561
4 2868 2858 4046 2849
4 2849 2868 582 2505
4 5259 5122 5492 5506
4 3823 5318 3009 5317
4 4460 5447 5426 3787
4 5447 4406 730 5426
4 5902 5447 5426 4406
4 5447 3953 737 738
4 4018 5447 4460 3787
4 4466 4420 4299 1240
4 4466 1689 210 209
4 6028 3517 3516 1690
4 6025 6027 4466 6028
4 6028 6051 1690 1681
4 1531 2755 2726 2240
4 6315 3651 1546 1537
4 6310 5215 5622 6333
4 6210 4271 1538 4199
4 5753 3543 5984 2973
4 5837 5216 4058 6206
4 3499 2522 6102 5582
4 4053 4002 5449 4060
4 3087 4199 3088 4271
4 4832 1725 214 213
4 4832 214 4305 1244
4 4463 6040 6041 4509
4 6054 4832 4373 4305
4 4832 1716 213 3488
4 6035 4373 1717 1726
4 5615 5096 6194 5614
4 5611 5473 5614 5615
4 4242 1510 5096 1501
4 4242 5612 4250 1501
4 4781 1205 5314 4183
4 5986 5996 1223 1222
4 5314 1215 5887 1224
4 5887 5987 5986 1224
4 3618 4048 5456 3620
4 4781 4071 5314 1206
4 5314 4071 1215 1206
4 3900 2187 2186 2178
4 5222 2572 3284 4503
4 3726 3721 5973 5222
4 3854 3223 4036 3332
4 2772 5753 2973 3543
4 3130 1550 3690 1551
4 3338 4197 5139 5849
4 2713 3145 2828 4350
4 1560 3130 1569 3132
4 2968 4049 3236 3619
4 2239 3130 1550 3690
4 3130 1569 3132 5139
4 3146 4152 4187 4167
4 4641 28 4685 383
4 4641 5567 816 807
4 4646 5567 4641 4566
4 4646 4641 5567 4222
4 4294 4146 4392 5378
4 5556 4392 4268 5378
4 3553 6091 5262 5267
4 5556 4268 4270 2544
4 4392 4268 5378 1867
4 5437 3400 1713 5422
4 5501 5671 6160 5502
4 4972 6296 5478 4989
4 4829 5671 4827 4828
4 2738 6097 5916 6139
4 5457 5711 5735 1983
4 6246 4969 5671 1429
4 5478 4989 1974 5479
4 4224 4226 6093 352
4 334 343 335 4477
4 4477 4486 4485 335
4 4224 4226 352 361
4 3905 344 4495 4477
4 2864 2865 2863 2862
4 4583 4551 342 351
4 4556 4583 5290 4210
4 4424 289 4429 3976
4 3511 3973 4567 6264
4 4368 4372 278 4370
4 6053 4449 296 297
4 2772 5753 5241 5969
4 4424 278 4372 279
4 6053 297 5510 4449
4 4841 4296 6071 6265
4 3987 4532 3494 6065
4 3009 2504 3823 5317
4 6035 4012 3518 4373
4 2772 5241 5397 5969
4 2504 1785 6265 1794
4 6174 4363 1692 6261
4 3988 4316 4315 4533
4 2773 2776 2780 2778
4 3856 5795 4297 6337
4 3882 5190 5988 5460
4 6238 2164 6254 2163
4 5929 4056 2171 2180
4 5389 1272 6057 1273
4 4839 4442 4302 4401
4 5765 6041 6040 6034
4 6041 1263 6057 1272
4 5366 4443 4417 4442
4 4752 5979 5604 4732
4 3525 4836 4839 4835
4 5440 4567 6268 5417
4 4752 4546 3770 4651
4 3972 4429 4424 6267
4 4424 287 4368 278
4 4424 6267 4374 4372
4 4424 4372 4374 279
4 6268 6267 1747 6266
4 3973 3972 4380 3974
4 4424 279 4374 280
4 6139 5916 6138 1947
4 6146 6140 6154 4223
4 6137 6146 6154 6122
4 6139 5916 1947 1956
4 2741 6296 4972 2738
4 6059 6138 2734 6114
4 6146 4223 6154 1419
4 6297 6296 6146 1957
4 4831 2192 2183 220
4 1219 3383 3396 6250
4 1655 5191 2442 4357
4 2443 2671 2191 2669
4 4830 1662 3978 1663
4 2533 2896 6007 5791
4 4831 2669 3978 6329
4 6249 1645 5191 1654
4 4745 4746 1380 1381
4 4142 4745 4746 1380
4 3684 2903 3370 2901
4 5575 4745 1381 4746
4 4100 4692 4691 411
4 5573 4100 5575 4096
4 4142 4746 1389 1380
4 3832 3829 4617 4616
4 3420 3425 3710 3473
4 5443 5419 5118 5450
4 4447 4406 740 5327
4 4447 741 3753 5327
4 3424 3741 4431 3943
4 3663 4261 5007 3839
4 4954 5744 5746 6190
4 5007 4261 557 3839
4 5007 3839 557 548
4 6183 3891 6185 6184
4 5007 3839 548 2291
4 2813 6275 2814 5091
4 5837 6102 6212 5582
4 2524 2525 5636 4520
4 5989 202 6015 1673
4 6016 6008 2533 1236
4 6008 6007 1227 5270
4 2896 6007 5270 6006
4 2668 2671 2670 2532
4 4791 483 474 4873
4 5787 6254 2445 6005
4 6011 6019 1666 5356
4 6011 1657 4358 5355
4 5576 5564 5565 815
4 5564 1851 144 143
4 5564 144 5577 824
4 5576 143 5564 815
4 6111 6131 1860 1861
4 6111 6131 1861 6278
4 4612 6111 5606 6278
4 5330 3597 4513 4531
4 2999 4553 5772 5700
4 4513 4487 4473 3597
4 4034 4487 5925 5926
4 4483 323 4526 322
4 2999 5700 4552 4553
4 3588 5389 4552 4599
4 4839 4553 2999 5389
4 4483 4419 314 313
4 3901 5772 4553 1291
4 4752 4730 4415 5568
4 4839 4401 4443 4442
4 4417 1273 1265 4443
4 5078 5188 625 5154
4 5078 616 5154 625
4 5153 624 5078 5079
4 5919 4501 5072 4507
4 5350 5306 697 696
4 5998 5371 5940 4127
4 4186 696 5371 695
4 5940 695 5371 704
4 5350 4848 5371 6347
4 4075 4076 5402 1158
4 5280 5279 5990 5385
4 4018 3787 4460 4403
4 3429 4079 5468 4475
4 5512 3976 4395 3971
4 5115 3825 4301 3505
4 301 4459 3432 4475
4 4457 299 4395 300
4 5231 1605 5872 6240
4 5920 5205 5231 5187
4 5231 6240 1604 1605
4 5923 6228 5231 6240
4 3234 5767 3237 5864
4 4909 42 942 43
4 4909 951 43 942
4 4909 5723 942 42
4 5725 4923 498 507
4 4822 4909 4823 4824
4 4860 943 5747 952
4 4609 361 4608 360
4 4636 4587 372 363
4 4658 372 4636 4587
4 3538 4658 4636 4587
4 3967 4992 6169 5823
4 4224 4435 4586 353
4 4522 4521 2049 5815
4 5759 995 4945 5771
4 5782 4516 6306 5785
4 4193 4517 1003 1012
4 4522 4194 4193 5815
4 4514 4521 4520 5636
4 5557 4392 1858 4268
4 5557 4392 1857 1858
4 4493 5571 3687 2544
4 5556 4392 5557 4268
4 5557 6092 1848 4089
4 4856 4873 483 4910
4 4548 5772 1300 4561
4 3694 6076 3614 5806
4 6105 1567 4887 4196
4 6076 1574 4888 1575
4 6076 3614 5806 1574
4 6105 6076 4888 1575
4 2741 2738 2734 6139
4 5134 6246 1428 6122
4 5501 5502 6246 5671
4 6297 5478 6296 1966
4 6296 5478 1965 1966
4 2504 1794 6071 2502
4 4317 6071 1804 4541
4 6071 2502 1794 1803
4 3751 6071 4317 4541
4 6088 6037 1321 1312
4 4131 6090 1312 1303
4 4267 4269 6088 4270
4 6088 4269 1320 4270
4 6087 4270 4267 6088
4 5533 3752 6052 5398
4 4733 4763 435 444
4 3580 4763 444 4782
4 3580 4733 445 444
4 4763 4180 435 434
4 4765 435 4763 4180
4 4719 4180 425 4181
4 4462 5301 4833 3793
4 4751 4763 434 4180
4 4264 451 3402 450
4 3630 3246 3243 4948
4 6175 5855 4120 5082
4 4953 3116 3118 521
4 4953 4975 530 4987
4 3803 4953 4947 4987
4 3803 4975 4953 4987
4 4959 4947 3118 4953
4 3520 3491 3575 3883
4 4953 521 3118 522
4 3164 4049 4050 4764
4 3067 6337 3857 5981
4 3135 4985 4506 5153
4 3276 5405 2542 5751
4 2696 2549 3853 3068
4 2845 3410 3409 3444
4 5913 2141 5946 2150
4 5255 1092 5914 5409
4 5906 2372 5914 1101
4 5906 5914 1092 1101
4 5255 5901 5906 1093
4 4752 3770 4415 4231
4 2371 5910 1111 1120
4 6027 4466 4299 1240
4 3987 4299 3494 4300
4 6027 6029 3986 6028
4 3984 5401 4532 6065
4 3985 6174 6063 3517
4 6047 1248 4315 1778
4 4131 1302 1303 1311
4 3655 5391 677 5296
4 5295 5751 5344 5321
4 5391 4161 678 5296
4 4186 4127 686 695
4 3191 1126 5282 5283
4 4752 4415 4730 5979
4 6236 6238 6254 6252
4 2885 2896 3450 2668
4 5132 4050 6323 5128
4 6236 4850 2164 6237
4 5929 2172 6005 2181
4 6254 2172 6252 2163
4 3383 3450 6250 2671
4 4229 384 4629 4090
4 4648 385 4629 376
4 4605 4649 4629 376
4 4229 6100 4629 4230
4 4648 376 4629 4649
4 5964 6100 6094 5657
4 5964 4648 4672 4090
4 4611 4722 1345 5583
4 2894 2947 1034 5825
4 2892 2893 2895 5874
4 5818 1025 2947 5825
4 2948 2947 2894 5825
4 2947 5825 1025 1034
4 4744 4038 4690 430
4 4690 430 4038 439
4 5976 6152 4761 4759
4 6152 4759 439 4761
4 4749 5395 1399 5977
4 5313 4744 4038 4690
4 1399 1400 1391 5574
4 4845 4816 4815 5649
4 4845 4843 916 4877
4 4814 3793 5301 5800
4 5684 4885 4159 4843
4 4159 472 5649 473
4 3636 3632 3117 3633
4 3245 3582 3581 3774
4 3628 3635 4361 3636
4 3632 512 3117 3633
4 3632 3633 3634 503
4 5754 5776 959 968
4 5732 6173 6301 1995
4 5696 959 5754 5776
4 6301 6305 5776 5754
4 6301 6305 2005 4087
4 5786 968 5774 5776
4 5786 5774 6305 5776
4 5387 1140 5393 1149
4 5930 5949 5950 5943
4 4076 5402 1158 1167
4 4357 2889 4358 5190
4 2896 3450 6007 3396
4 5791 6007 6008 5270
4 4357 3917 1655 1656
4 4357 4358 1647 5190
4 3444 3868 3486 4781
4 2871 3386 4358 5355
4 2585 4764 4050 6323
4 4575 773 4576 4588
4 4575 763 4488 764
4 4615 4320 762 771
4 6294 4476 4321 4067
4 4321 328 4067 4476
4 4523 4564 4321 338
4 4397 4547 4479 4480
4 5494 4320 4321 4615
4 5169 6211 5168 3128
4 2483 3128 5168 6211
4 5002 3613 3614 5570
4 5021 6211 5169 5232
4 4233 4205 3128 5169
4 2952 4198 2989 2990
4 3657 3656 2571 2573
4 3729 3657 2184 2185
4 2177 3900 3858 3728
4 3656 3806 4662 5408
4 3656 4664 3657 3849
4 5954 2193 3657 3849
4 5954 1148 4664 5953
4 2573 3657 2194 2571
4 5954 4664 1148 1157
4 5954 3657 5953 4664
4 5423 3729 4665 3657
4 4776 4759 448 447
4 4776 4759 4761 448
4 3949 448 4761 449
4 5938 5907 5931 5932
4 5350 5957 6347 5371
4 5938 4846 1124 5931
4 5957 715 5956 714
4 5387 4077 5351 707
4 5284 5393 1140 1141
4 3251 3443 4258 5343
4 5392 1142 5950 1141
4 3578 4141 148 860
4 5610 4141 4140 851
4 5610 4141 5663 4140
4 4141 860 147 148
4 4141 860 851 147
4 3578 1896 4141 4232
4 4380 6267 6266 1747
4 3974 4395 3976 4383
4 4380 4301 1748 1747
4 4381 4383 4429 281
4 4382 4381 281 4383
4 3974 3825 3824 4301
4 5464 4326 4130 5465
4 4326 4130 1684 1685
4 4326 4510 1765 271
4 6309 6198 5937 2048
4 4265 1527 4266 234
4 5742 5746 6203 4973
4 4265 2057 235 234
4 6314 2066 6310 4266
4 4106 673 5316 682
4 4106 5276 5278 673
4 4104 4106 5316 4107
4 4274 5276 4275 5333
4 4275 5226 4106 4201
4 5816 5959 5811 3743
4 5386 710 5403 72
4 5386 5991 1221 1212
4 6248 5384 5965 4854
4 6248 4185 5992 6009
4 6003 5336 1230 1231
4 4292 5362 4107 5335
4 2690 3414 2689 3412
4 2776 3869 4292 2777
4 704 712 713 5299
4 5374 5996 5991 1213
4 5996 4183 1204 5369
4 5374 1213 5991 1212
4 5386 5991 5374 5368
4 4634 4183 6269 5369
4 5992 6009 1668 1669
4 6250 2592 1229 1220
4 3383 2592 1220 2754
4 4135 140 5543 788
4 4135 4468 1824 1815
4 4214 4217 5562 4468
4 5507 5555 5540 5543
4 6104 5554 4214 5513
4 6168 6161 1457 1456
4 5688 5711 1993 5773
4 5688 5711 1984 1993
4 5459 5502 1446 5135
4 5457 1975 5459 1984
4 6168 5807 1465 6172
4 3636 6341 3117 3115
4 6341 3149 6197 6178
4 3149 4956 528 519
4 4361 4951 4362 3633
4 3149 4355 4882 1490
4 4956 520 3117 3116
4 3149 528 4956 3150
4 4956 3116 529 520
4 3944 5425 4130 5464
4 3544 3333 3546 4573
4 5304 4206 1772 1763
4 6259 5434 5464 1686
4 5425 5437 5461 1703
4 3008 3010 5318 3009
4 5121 5122 5434 5464
4 5437 5461 1712 3400
4 6298 4575 4588 4615
4 3954 4488 6294 3428
4 3438 4458 4461 4476
4 4016 3953 4448 737
4 3954 3957 4488 3956
4 5515 4402 4459 4395
4 4666 4576 4575 4562
4 3428 5468 3956 4488
4 4273 5181 5204 637
4 4050 6241 6323 4764
4 5921 6220 5140 5872
4 6064 3237 6226 5922
4 5158 6220 5180 5179
4 3233 6285 1907 4804
4 4635 5663 3233 4232
4 5572 5663 5628 3329
4 4287 3504 3329 3330
4 3504 3503 1898 1899
4 4706 3106 3050 3105
4 3078 3828 4718 2311
4 5663 4232 1896 1897
4 5246 5192 1070 5073
4 4506 5153 5078 5079
4 5919 5188 4501 5079
4 4501 5858 5246 5349
4 6012 5246 5893 5349
4 3443 3743 5343 5824
4 3725 4022 5944 3744
4 4021 5875 5283 5404
4 5816 5343 1179 3745
4 4258 1178 5824 5343
4 1177 4258 1178 5824
4 3251 5824 3443 5343
4 4186 2882 5306 5391
4 5930 5392 5950 1141
4 3252 3743 3443 5824
4 5179 6220 5180 5181
4 5179 5181 628 5159
4 5921 5179 5159 5181
4 3341 5085 6219 5113
4 5179 619 5159 628
4 6000 5275 663 5982
4 6000 5333 5982 1634
4 5129 5128 4050 5132
4 5999 663 654 5982
4 5753 5768 6232 5984
4 4274 5275 5333 6232
4 5275 5253 664 655
4 5768 5253 5275 5186
4 5964 4648 4090 4629
4 3401 6112 4750 5598
4 4352 5287 4353 3820
4 4294 5556 4493 5378
4 3737 4611 5598 4750
4 4648 377 4649 4650
4 4672 394 4090 385
4 5938 5931 1123 5932
4 4050 6134 6241 4764
4 2281 4362 4355 4882
4 501 4891 2281 4362
4 2281 4366 4355 4362
4 5855 4771 5007 4261
4 4771 3850 556 555
4 4771 556 5007 4261
4 4533 1249 4300 1258
4 4322 1266 4318 1257
4 4316 4533 4318 6058
4 6027 1249 4533 1248
4 4532 4296 3984 3988
4 5911 2139 175 2130
4 5911 2130 175 174
4 5911 5915 6239 5901
4 6307 4530 5407 4529
4 2341 2372 1102 1111
4 2341 5901 1102 5906
4 2341 5906 1102 2372
4 6239 2139 5985 2140
4 6054 6034 1253 1254
4 6054 4439 4373 4832
4 5765 5366 4835 6057
4 4119 4305 4369 6038
4 4119 6038 6054 4305
4 4373 4832 1716 1725
4 4227 537 546 5082
4 5001 4227 547 5082
4 4227 4956 3150 5083
4 6183 5082 4967 5083
4 4227 546 547 5082
4 4227 4956 528 3150
4 5365 4416 5763 4066
4 5440 4303 4368 6053
4 5416 5418 5417 6046
4 4424 4368 4405 4372
4 5365 5763 4416 6044
4 4424 278 4368 4372
4 6046 1753 4051 6044
4 5418 1744 6036 1735
4 4119 4369 6036 6038
4 5418 6046 1744 5417
4 4119 6036 4369 1734
4 4015 4013 3708 4014
4 4119 6054 4373 4305
4 4416 4369 1246 6038
4 4371 1743 4369 6036
4 4303 286 5763 4368
4 3440 5673 3439 3511
4 5281 63 5353 698
4 5353 63 1131 64
4 5387 5353 5351 5393
4 5948 5950 6308 5392
4 4077 5402 715 716
4 5951 5372 1176 1177
4 5938 5392 4847 5284
4 5387 5353 5393 1140
4 4849 5284 5331 5932
4 5353 5331 5351 5284
4 5085 619 5179 618
4 5085 609 4999 610
4 5085 5136 610 4167
4 6221 5113 1588 5205
4 6146 1419 6122 5383
4 5134 5383 6297 6122
4 6146 1957 6296 6139
4 6146 6139 1948 1957
4 6137 6154 6146 6140
4 4605 367 4626 4649
4 4605 367 4649 376
4 4605 376 4629 375
4 4721 4605 4649 4629
4 5074 4525 4722 1337
4 5669 4723 4624 4534
4 4534 4626 4603 358
4 4744 421 4038 430
4 4744 4038 421 4705
4 4744 430 4690 429
4 6326 4330 5976 6123
4 5312 4692 6121 4746
4 5312 2312 3083 4995
4 3388 5995 6008 6019
4 5989 6016 6015 1236
4 5989 6019 6016 6008
4 6008 5270 1226 5995
4 6008 1226 5270 1227
4 3486 4256 4634 4257
4 3486 4183 4634 4256
4 5279 5385 1194 5369
4 5279 5385 1185 1194
4 3251 5951 5824 4258
4 4077 5957 5351 706
4 5280 5990 703 712
4 5372 1185 5385 5373
4 5139 3131 3132 3130
4 4152 602 4167 601
4 3131 3161 5139 3132
4 3145 4152 4167 4999
4 4048 4050 6134 5130
4 3660 4152 4350 593
4 6173 6186 5743 5696
4 6338 5696 5776 5697
4 6338 6165 6301 6173
4 5696 5697 958 5776
4 5696 949 5698 5743
4 5732 6301 5754 1995
4 5678 1986 5732 158
4 4018 3787 5361 5447
4 3184 4137 3177 4136
4 3455 774 3452 4576
4 6345 5251 6072 6274
4 6084 5559 3180 3540
4 6294 4319 4615 4321
4 6294 4488 4037 4575
4 4164 1998 3924 3922
4 3902 3362 3876 4906
4 3924 3229 3921 3815
4 3923 3924 5755 3922
4 3924 2006 6165 1997
4 3924 3922 1997 5755
4 3813 6176 2009 2000
4 3924 5164 2006 2007
4 5753 5969 2973 5984
4 5752 5254 5253 5217
4 5752 5254 5155 5278
4 2542 5751 5405 5344
4 5254 656 5253 5217
4 5254 5155 5278 665
4 2663 5904 3762 5329
4 6332 5245 5243 5546
4 5348 5893 6012 5904
4 5349 5348 5893 6012
4 3136 4687 3306 3307
4 4469 4501 3732 6013
4 5904 1097 5348 1088
4 5840 5845 1100 1099
4 5286 4551 4534 4538
4 4554 5024 348 4597
4 4534 350 4551 4604
4 4603 358 4626 367
4 4723 4603 4534 4626
4 4603 4597 358 357
4 4574 4625 4597 5024
4 2580 2582 3164 3928
4 4274 5333 5240 6232
4 4111 4201 5384 4105
4 4104 4201 4275 4106
4 4111 5384 4201 1661
4 4688 4668 5508 799
4 4668 4684 5567 808
4 4489 5508 799 790
4 5558 4219 5141 4622
4 4620 5567 4668 4566
4 4668 5567 807 808
4 4489 798 4668 4596
4 5034 5081 5053 4966
4 5067 580 5081 589
4 4966 5081 580 581
4 5034 5035 581 4966
4 5485 5490 5038 5665
4 5034 1014 51 50
4 5034 4966 5053 5035
4 3205 3204 5052 3208
4 5063 5005 589 598
4 5591 5592 3142 3693
4 5905 6224 6223 4623
4 5692 3648 5257 3649
4 5905 5098 3648 4623
4 5257 5806 1564 1565
4 3648 4349 1554 1563
4 4887 4886 1566 4888
4 5786 6305 2004 5754
4 5770 5775 4084 6162
4 5150 5696 6338 5697
4 4084 6305 6304 5774
4 6301 1996 6165 2005
4 5183 655 5275 654
4 5993 5183 654 645
4 5982 5183 654 5993
4 5768 5275 5183 5186
4 5183 5186 655 646
4 6307 5297 5985 5862
4 5255 5256 1083 5409
4 5914 5255 4529 5906
4 5255 5906 5914 1092
4 5407 5256 5255 5409
4 5899 5863 1085 1084
4 4382 3824 4380 4383
4 3974 3824 4380 4301
4 3824 4380 1748 1757
4 4382 3824 1757 4380
4 3824 1748 4380 4301
4 6111 5564 5586 5565
4 4612 4674 4559 4228
4 6110 4332 6072 5125
4 5586 4674 814 823
4 6131 5577 1869 6130
4 4613 6263 6131 6278
4 4603 367 4605 366
4 5074 4574 4603 4597
4 5074 4603 357 4597
4 4100 4717 4692 411
4 4100 4617 403 4618
4 4692 4746 1381 1390
4 4717 4617 4705 412
4 4717 412 4705 421
4 5312 4717 4705 4744
4 4717 4744 421 4705
4 3873 4919 3876 973
4 4904 3876 4998 973
4 3872 4906 964 973
4 4904 4345 4991 972
4 3478 3523 4126 3521
4 4083 5775 4084 6304
4 3918 3919 4164 3922
4 5045 4961 4979 4824
4 4839 4419 3594 4401
4 4302 4419 4401 304
4 4443 4440 4442 303
4 4069 4483 322 313
4 4401 303 4442 304
4 3598 4473 4483 4033
4 3594 3901 5772 4553
4 2885 2442 2668 2443
4 6022 5791 6016 3917
4 4830 2435 1671 2436
4 2670 2671 2191 2200
4 4830 2533 2436 6015
4 2533 6008 6007 1227
4 2533 6015 1236 1237
4 6312 6311 2522 2043
4 6212 6312 2043 2052
4 2524 2525 6312 2522
4 5482 3499 2524 2522
4 4082 4083 3358 4084
4 2523 5165 2525 2061
4 5820 1532 5545 5091
4 2781 5753 3543 5752
4 3879 6236 6252 6238
4 2927 5460 4123 5133
4 6242 4297 2162 6238
4 6061 5942 6321 6245
4 5793 6243 6242 6337
4 6238 6252 2162 2163
4 5524 1447 6160 6161
4 6168 1465 5633 1456
4 5459 1976 4340 1985
4 2639 2612 5962 3659
4 5769 958 5697 5776
4 5769 5770 967 5774
4 4083 5784 3843 5782
4 5769 5697 958 957
4 6338 6301 6165 4087
4 3359 5697 957 5151
4 4754 4712 5604 852
4 4712 4729 410 419
4 4712 4710 843 31
4 5594 5604 4729 4712
4 5594 4710 5553 843
4 4148 5594 4710 5553
4 4728 4729 418 4730
4 2921 6132 6286 4758
4 6120 4758 1393 6133
4 5174 1393 4758 1392
4 6283 5174 4758 6286
4 5603 6140 4223 6154
4 5603 1402 6145 1411
4 5603 6140 5659 4223
4 6154 6059 5603 6140
4 6059 6132 6138 6150
4 5603 1411 6145 6154
4 3998 3446 3223 3417
4 4757 6286 6132 4758
4 3766 1378 3109 1387
4 3833 5575 4100 4692
4 5944 5388 4128 1163
4 5388 1163 186 185
4 4128 185 5388 1154
4 5952 3697 3706 5924
4 5388 5966 186 1162
4 4022 5960 5277 5959
4 5985 5297 2131 5862
4 5899 5985 5911 5861
4 6307 5255 5899 5901
4 6307 5255 5901 5906
4 5985 2131 5297 2140
4 5840 3193 1108 1109
4 3069 5913 5946 5997
4 6269 5363 5368 5991
4 5368 709 710 5386
4 4634 4633 6269 4183
4 6189 5363 6003 5965
4 5336 6003 4852 4854
4 5359 4854 3874 6009
4 6003 5359 1231 1222
4 6003 5991 1222 1221
4 5359 4854 5336 3874
4 6248 1669 4854 6009
4 5718 5756 1978 5741
4 5678 6173 5718 5743
4 5678 5743 5737 941
4 6186 5719 5737 5743
4 5840 3193 2660 1108
4 5678 1986 5718 6173
4 6301 6165 1996 6173
4 6301 5696 5754 5776
4 4084 5769 5776 5774
4 6301 2004 6305 5754
4 4016 3956 4079 745
4 4079 5468 744 745
4 4475 3432 301 310
4 4016 4017 736 4079
4 4448 5446 738 3953
4 4017 726 5414 727
4 5468 745 3956 754
4 4858 4117 6164 1452
4 4117 4911 4858 3462
4 3460 6002 3463 2614
4 5826 2067 167 2058
4 5873 2059 5635 2068
4 5873 5814 2068 5635
4 4518 4522 5636 5635
4 5826 4195 4194 1022
4 5865 5834 5821 5838
4 5604 5648 861 862
4 4754 4712 419 4729
4 4288 5604 862 5648
4 4707 4754 4728 5648
4 4754 861 33 852
4 5594 4712 843 852
4 2896 5352 2886 6006
4 3222 2190 2189 3153
4 3416 1209 3396 6006
4 3979 4423 6013 4421
4 3396 6006 1209 1218
4 3396 1218 6007 6006
4 1228 1219 6007 6250
4 3731 4506 4469 5170
4 5692 5806 3692 3691
4 5591 4826 4057 5593
4 3085 3749 2625 3087
4 5215 5622 6333 4061
4 3651 5098 1546 3652
4 2239 6217 1559 3130
4 4167 5136 3344 3147
4 5060 3690 1551 2817
4 1558 2784 6217 2239
4 4271 5411 1547 1548
4 5867 5851 2085 5868
4 5865 5821 5834 5833
4 5812 2068 5814 2077
4 5834 5838 5851 1040
4 5428 5821 6030 5866
4 6273 6062 6056 6049
4 6056 6062 6048 6049
4 1823 6227 6048 5534
4 3353 5499 4132 3752
4 5533 5499 5534 6062
4 6056 1814 6048 1823
4 5897 1586 5187 1595
4 2990 5897 2989 5898
4 2477 6076 5143 6225
4 5057 1593 6225 1584
4 2990 4198 2989 6222
4 5233 1603 6228 1604
4 4528 5985 6239 5901
4 5935 2371 2341 1112
4 5913 5997 2150 5946
4 5638 1029 5821 5429
4 6030 5873 5635 5814
4 6030 5814 5812 5873
4 4518 5873 6030 5640
4 4367 123 276 122
4 4418 4367 122 1256
4 4367 123 2872 276
4 5763 4051 2872 6044
4 4371 6044 1752 1743
4 4416 4371 4369 6036
4 5812 5873 5814 2068
4 5865 5812 5813 5867
4 5865 6030 5838 5821
4 5812 5867 2077 5813
4 5812 5867 2076 2077
4 5852 5853 1048 1057
4 5841 5850 1056 5853
4 5854 6201 2094 5868
4 6202 2096 5089 2105
4 6201 5869 2094 2103
4 5694 4334 5675 3830
4 5694 1941 4334 1932
4 4341 4800 6330 5682
4 6041 1272 5389 4599
4 5366 4443 5389 6057
4 4839 5389 4443 4553
4 6304 6305 4085 2014
4 5786 5776 6305 5754
4 4188 5774 977 5775
4 4084 5776 6338 6305
4 6304 2014 4085 2023
4 4083 3843 3358 6162
4 5762 4449 5510 4035
4 1719 5029 6069 3507
4 6271 1719 6055 1718
4 6035 5481 6271 1718
4 4031 4404 4017 5414
4 3758 5116 4103 3753
4 3389 3390 3395 3391
4 3937 5673 3440 6055
4 5372 5279 5385 1185
4 5385 5280 5299 712
4 5299 5371 705 704
4 5957 5299 705 714
4 3252 3251 5824 3443
4 5279 4258 4257 4256
4 5280 703 5940 704
4 4869 5988 1627 4123
4 4870 1618 5110 4039
4 4870 5110 1618 1617
4 4869 4123 1627 4870
4 4871 4869 4868 4850
4 3282 5709 922 921
4 2746 3867 3646 3865
4 5978 3282 5668 4737
4 5668 4737 921 920
4 4602 5741 6288 6300
4 5709 912 4737 4735
4 5704 5715 5709 913
4 5045 4823 4860 4824
4 4860 4909 951 4824
4 4162 4909 4823 509
4 4162 4909 509 5723
4 4859 943 4928 5747
4 4812 4842 4859 4884
4 4349 1554 230 231
4 4349 230 1563 5056
4 4349 231 5354 1554
4 4886 1565 5257 1556
4 5021 6211 5168 5169
4 4349 4623 5354 2084
4 5324 133 5455 725
4 6258 5117 4253 5325
4 5324 5302 5455 1761
4 5455 133 1761 134
4 5455 1770 134 1761
4 5117 5302 5325 6258
4 5302 5304 1771 1762
4 5302 1771 5445 1770
4 4929 6069 6063 4365
4 4432 4430 5319 4399
4 6174 4212 6081 6050
4 3164 2273 2965 2629
4 5967 5968 1528 1527
4 5967 6203 1528 5968
4 6314 232 233 1536
4 6333 6309 5101 5968
4 6333 6210 5967 6203
4 5622 5215 6310 2065
4 4265 6310 4266 5968
4 6210 5622 6333 5967
4 6210 4199 5000 4271
4 4010 3651 4271 5411
4 6187 5688 5773 5711
4 5807 1465 6172 1474
4 6168 5807 5633 1465
4 5633 1456 5524 6161
4 6302 5633 5524 6161
4 5688 5717 5524 5633
4 4026 4783 450 459
4 6059 2921 5603 6132
4 6059 6140 6132 5603
4 5313 2310 4594 4038
4 3935 3254 5525 5520
4 3676 4505 4727 5842
4 3792 4158 5649 4159
4 3570 4806 2923 1919
4 5653 6114 6113 1937
4 5653 5730 3625 5880
4 3377 3099 3376 4811
4 3625 5730 3624 5880
4 4663 5970 1156 4662
4 4714 4128 5944 5924
4 4714 5970 4662 1164
4 5970 1165 4662 1164
4 5427 1156 4662 4664
4 5427 5970 1165 4662
4 4663 1156 5970 1155
4 4661 4662 4663 4664
4 4075 5402 66 1158
4 5402 5956 67 1167
4 5402 5956 715 67
4 5592 6223 5620 5905
4 5531 6013 3732 6012
4 3651 5620 5905 4008
4 3648 1563 1554 1555
4 5692 5022 3648 3649
4 5651 5570 5566 5232
4 5171 3614 6225 1583
4 6229 1591 5213 1600
4 4346 5651 5232 5003
4 6322 5111 2138 5315
4 4972 2738 6296 6097
4 4828 5671 4969 1430
4 4828 4969 6136 1421
4 6292 5916 6097 1955
4 5900 5479 6098 4989
4 4234 4828 6136 1422
4 3977 5919 3836 5078
4 3865 5664 4341 894
4 5664 2747 3865 3866
4 3865 5664 894 893
4 6315 5622 3651 6210
4 3320 3096 3404 3406
4 5658 5674 892 884
4 3837 3836 3977 3993
4 3697 4663 5924 1146
4 1183 1182 4290 5408
4 3705 4714 4663 4662
4 4139 5663 4141 4140
4 5663 1896 4141 1887
4 4635 5572 3329 5663
4 5628 3330 1888 1879
4 5860 5885 4356 1076
4 4389 5885 5876 6317
4 4386 4388 4393 6293
4 5885 5863 5646 1075
4 5876 5885 5859 4356
4 4389 5876 5885 5859
4 5876 5859 6201 5869
4 5852 5859 5869 6201
4 5885 5646 1066 1075
4 5677 3830 5675 3831
4 5677 1932 5694 3830
4 4789 3959 3962 5656
4 3296 5677 6330 6208
4 5695 5677 1933 5694
4 3436 3433 308 3971
4 4508 5515 5462 4018
4 4569 288 297 6053
4 5415 4428 4032 293
4 4448 738 5446 747
4 4448 3956 746 755
4 6327 5111 4360 5110
4 4360 6229 5213 1600
4 6280 4360 6229 5213
4 4360 1599 6229 1600
4 1599 5315 4360 6229
4 5634 5636 2525 5165
4 2524 2525 4520 6312
4 2525 2060 5636 2051
4 2525 6312 2051 4520
4 5554 5507 5555 5540
4 5526 787 5540 796
4 5507 4135 4468 5555
4 5507 5543 4135 5555
4 5484 3055 777 5472
4 6345 5528 5555 6274
4 4128 1164 185 184
4 4714 4128 5924 4663
4 4128 5388 5924 1154
4 5963 5944 1172 3744
4 4128 5970 1164 184
4 4128 5388 185 1163
4 4714 4663 4662 5970
4 3706 5924 5960 5952
4 6307 5901 5899 5985
4 4528 5913 6239 5985
4 5906 2372 4529 5914
4 5913 2141 5297 5946
4 5913 2140 6239 5985
4 5935 4655 2343 2371
4 6347 5299 4257 5371
4 4847 5393 5351 5284
4 5930 5392 1141 5393
4 5350 705 5371 696
4 5957 5372 5951 6347
4 3792 5649 4760 4784
4 3792 4845 4816 5701
4 3791 4238 4867 5641
4 4158 4760 5649 463
4 3792 3791 4238 5701
4 3792 4917 3119 5701
4 3793 4158 4814 4833
4 3082 4174 3040 3404
4 4158 4833 462 471
4 4951 520 4956 519
4 6341 4956 4951 3117
4 3149 4951 4956 519
4 3149 6178 1489 1498
4 6341 4916 4355 6178
4 5859 5869 1067 1058
4 5859 5885 1067 4356
4 5850 1066 5885 5646
4 6221 5157 5158 1589
4 5158 84 618 627
4 5158 5085 5179 618
4 6221 5158 5179 6220
4 3819 5809 3565 5011
4 5052 5818 5054 5049
4 5818 1016 5049 5666
4 5053 3208 2948 5818
4 5034 5053 5106 1023
4 5656 3960 868 867
4 3561 1906 6285 1915
4 3295 5677 3297 5693
4 3561 5677 1924 5693
4 3561 3959 3579 3831
4 3561 6285 1906 1905
4 3561 5677 1923 1924
4 4818 474 4791 465
4 4873 1454 4910 4864
4 6326 3949 3948 4776
4 4818 475 4873 474
4 4379 4801 4331 5661
4 4873 475 4863 484
4 6279 4544 4539 4436
4 4435 345 4544 354
4 2578 4324 3767 4677
4 4539 363 4586 354
4 4586 363 4636 362
4 4224 4524 4435 353
4 3700 5537 4207 6001
4 5594 843 4712 4710
4 4752 4148 4729 5568
4 5594 852 5604 4712
4 4148 4712 410 4710
4 5937 5095 236 2039
4 6309 6310 4265 5968
4 5958 4265 1518 5968
4 5958 4973 5968 1519
4 4950 4954 6190 4241
4 6309 5101 6180 6333
4 5958 4973 1510 4974
4 2741 4969 6246 6122
4 2741 2739 4972 6246
4 5399 4834 1297 1288
4 4054 5400 6062 1276
4 4055 6273 6049 4054
4 6049 4054 1275 4055
4 4296 4054 4322 5401
4 4054 1267 5400 1276
4 6199 6202 6201 5868
4 5850 5643 1065 5644
4 6199 6200 5853 5852
4 6202 6316 5089 2096
4 6202 2095 6201 5868
4 6024 5841 5850 5643
4 6282 5616 6079 5624
4 5376 2545 4493 2547
4 5175 1375 5176 1384
4 5174 1392 5177 1383
4 5616 4806 6128 1911
4 6079 6209 1913 1904
4 6079 6080 1912 1913
4 5408 4662 1174 1173
4 3698 5947 6328 3727
4 3728 3900 3858 3726
4 3284 1184 1193 1183
4 5222 3284 4290 4503
4 5222 3419 3284 2572
4 5617 4336 1902 6128
4 5616 6128 1902 1911
4 4294 5378 4492 4146
4 5202 6128 5617 5616
4 6066 2547 5599 1347
4 5599 1347 2547 1348
4 5380 6115 5551 5599
4 5551 5599 1357 1356
4 6066 6106 5599 2547
4 5376 5599 2547 5377
4 5599 5377 1348 2547
4 6115 5599 5377 1348
4 5935 2341 2371 2343
4 2343 6239 2148 5915
4 4657 2371 1120 5910
4 5935 176 2148 177
4 5935 2157 177 2148
4 2341 2371 1111 1112
4 2343 4528 2341 2342
4 5586 6131 5577 5564
4 5586 5564 815 5565
4 4559 4674 823 4228
4 4559 4228 823 832
4 4612 4559 5586 6131
4 5031 5461 1703 4364
4 756 4209 765 757
4 5031 1703 5461 1712
4 4016 4448 3956 746
4 3392 1712 3400 1721
4 3392 1720 3507 5029
4 3390 3391 3392 3507
4 5124 4447 5327 4406
4 5786 5774 968 977
4 5786 5754 2004 160
4 5786 6304 2013 6305
4 5786 5776 5754 968
4 5222 3701 3223 4290
4 5973 5408 4290 4045
4 3977 5919 5078 5154
4 2896 2668 2533 3450
4 4290 1191 4045 1182
4 3701 1202 3224 1201
4 3446 4290 3418 3720
4 5313 5574 4749 6121
4 4690 4759 4803 4748
4 4749 5977 1408 4803
4 6094 4745 5657 1372
4 6094 5657 1363 1372
4 4671 393 4096 402
4 4096 5575 4671 4100
4 5573 5575 6094 4096
4 6094 5657 6100 1363
4 5964 4090 6094 6100
4 6097 6296 1956 6139
4 6097 1965 6296 4989
4 2738 6296 6097 6139
4 2739 4828 5671 4969
4 4972 6097 6296 4989
4 5285 5247 1095 59
4 5285 59 1095 60
4 5309 5307 6332 5308
4 5285 5071 60 1104
4 1104 5071 5307 5285
4 2973 1632 5984 5969
4 2973 5969 1631 1632
4 2973 5320 1614 6226
4 2973 1614 5320 1623
4 5768 5752 6232 5275
4 5897 2989 5898 5971
4 5258 5254 5751 5217
4 6315 6281 5354 5098
4 4418 4440 4417 1265
4 1264 1273 1265 4417
4 4418 1265 122 121
4 4418 4066 4367 4417
4 5764 4417 1264 1255
4 4417 4442 4440 294
4 1265 4443 1273 1274
4 4066 295 4442 294
4 4443 4417 4442 4440
4 4031 4403 6260 5462
4 5415 5414 4017 4428
4 4403 1741 4453 3787
4 6260 4403 4455 1751
4 6260 4403 1750 5462
4 4550 5748 1309 4353
4 1319 4625 5024 4550
4 5788 4353 4550 1318
4 5293 4554 4555 4538
4 4550 4353 1309 1318
4 4550 1310 5748 5199
4 4600 339 4550 5199
4 4408 1 124 17
4 4408 1 284 16
4 4408 1 16 1760
4 4408 17 4129 284
4 4427 124 4408 1760
4 3977 5919 5154 5846
4 3977 5919 5843 3993
4 4910 4911 1462 4918
4 4910 1462 4911 1453
4 4910 1453 4864 1454
4 5047 4864 4910 4911
4 5955 5229 4366 4933
4 6299 4891 5229 4856
4 1445 1454 4791 4864
4 3977 3958 5147 5092
4 4572 6270 1830 3546
4 3553 3545 6068 4572
4 3750 4541 4540 6075
4 4540 1813 6056 1822
4 3353 4571 4132 6068
4 4572 6270 1831 1830
4 3578 4232 4139 3961
4 4635 5572 3050 3102
4 4139 4706 859 3961
4 4635 5663 4139 4140
4 4139 851 4141 860
4 4274 4106 5276 5278
4 5276 5275 664 663
4 5226 6000 5276 672
4 5226 4106 672 5276
4 4275 5333 1642 5240
4 4274 4275 4104 5240
4 4275 4201 5244 1651
4 5592 6218 5623 6224
4 3652 1547 5087 1556
4 5257 3648 1555 1564
4 3651 5087 1547 5411
4 6215 5803 5539 3835
4 5021 3649 3691 6211
4 4162 500 5723 509
4 4162 4860 4823 4909
4 4162 5723 4860 4909
4 4162 4884 500 499
4 5685 4875 3017 5683
4 4240 4250 4249 4242
4 4249 4250 1493 4242
4 4250 5345 4249 1484
4 5093 5612 1500 1491
4 5615 4241 4242 4250
4 5153 5218 5170 633
4 4506 5153 5079 5218
4 4506 5078 5153 4985
4 5153 5078 624 4985
4 3977 3836 5919 3993
4 2829 2713 3607 3667
4 5153 4985 624 623
4 5767 3237 5922 6234
4 5153 4506 5170 5218
4 2985 2952 2775 2981
4 6197 6178 3149 4968
4 3149 3150 4956 5083
4 3149 6178 1498 4968
4 3149 1489 4355 1490
4 6341 4951 3149 4355
4 3159 1570 3161 3132
4 5113 1580 5112 5137
4 3147 5085 5113 4999
4 5157 86 609 85
4 2257 2258 4999 600
4 2257 4999 5137 600
4 3159 1561 3997 1562
4 3342 3161 5849 5139
4 4296 4322 4532 5401
4 4322 4054 1267 5401
4 4322 4533 1257 4318
4 4532 4322 4533 1258
4 6023 3978 4831 1653
4 6023 4831 6329 2183
4 4872 2174 6329 2173
4 6005 2173 6329 2182
4 6236 2164 4872 6254
4 6023 220 221 1644
4 6023 4831 2183 220
4 4871 4869 6249 1644
4 5787 6236 4872 6254
4 4831 2669 6329 2183
4 5945 2150 5997 2159
4 5935 2148 2343 2157
4 5935 5915 2343 2148
4 5935 2341 2343 5915
4 5910 2371 2372 2370
4 4106 4105 682 4107
4 5992 4201 5384 1660
4 3664 5539 5545 4351
4 4106 4105 681 682
4 5944 3744 1171 1172
4 5960 5944 5277 5388
4 3835 4560 6342 5803
4 5816 5277 4022 3744
4 5816 1171 3744 1180
4 4191 5959 5277 5966
4 5944 5277 1162 1171
4 3192 5283 4021 4581
4 4714 4128 1164 1163
4 2814 2815 2816 4960
4 2858 4771 564 2869
4 4771 4960 2869 2858
4 2815 2858 4960 4771
4 4769 4960 4770 4771
4 4770 4960 2869 4771
4 2858 4771 565 564
4 4621 4724 408 4730
4 4678 4621 399 5568
4 4415 4724 4621 4730
4 4678 399 4621 398
4 4536 4678 5568 4621
4 4144 6278 1862 1871
4 5560 6110 6072 6004
4 4277 4281 5569 4286
4 4144 1862 6278 5606
4 4610 4144 6278 5606
4 6091 5267 4572 1839
4 6091 1848 5267 1839
4 4570 6067 1840 1841
4 6091 6092 5267 1848
4 3553 4572 6091 5267
4 6087 6088 6090 6037
4 5713 6123 1425 6157
4 5713 1434 6157 1425
4 4772 6142 4776 6143
4 3948 6142 4776 4802
4 4330 5713 6157 6123
4 4776 6142 4773 4802
4 5803 4560 6342 5802
4 4770 91 555 564
4 4201 1661 5384 1660
4 4854 5384 4855 1670
4 5965 4854 5384 4855
4 4913 691 4105 4107
4 4111 77 4914 1661
4 5965 4855 4914 699
4 4914 77 76 1670
4 4913 699 5965 4914
4 4185 6010 6020 6251
4 5617 1893 5381 1894
4 4306 5379 4742 4147
4 4742 4336 1892 1893
4 3371 4702 6112 5601
4 3685 3683 4957 5377
4 6083 5617 1903 5616
4 5074 4574 1328 1337
4 4230 4525 4693 375
4 3401 3737 4799 5964
4 4574 4722 1336 1337
4 4525 4605 375 366
4 4693 375 4605 4629
4 5074 4574 4722 4603
4 4429 3976 290 4383
4 3972 4429 3974 3976
4 3972 6266 4380 6267
4 4429 3976 289 290
4 4381 280 13 281
4 5574 1399 4749 6121
4 5574 1400 1391 4747
4 4747 4717 4744 420
4 5574 6121 1390 1399
4 4747 4692 5574 4717
4 1391 420 411 4692
4 4747 420 4744 429
4 4692 1390 6121 4746
4 3901 4553 1282 1291
4 4548 1291 3901 1292
4 3679 1292 3901 1283
4 4548 3901 1291 5772
4 3594 4069 4401 4419
4 4443 5389 1282 4553
4 4443 1265 4417 4440
4 3679 4069 321 312
4 4069 4419 4483 313
4 4335 5690 955 956
4 3359 966 5769 5770
4 3875 3361 3362 3496
4 3873 4919 973 982
4 5690 5151 3359 956
4 5312 4692 5574 6121
4 3833 4692 4746 5575
4 4617 4100 3832 4618
4 4692 5575 1381 4746
4 4692 5574 6121 1390
4 4677 6331 4478 6078
4 4512 317 4149 326
4 3973 4301 6266 3513
4 3590 5330 3597 5370
4 4512 4458 4472 3437
4 2503 5341 5340 2502
4 5370 3437 6331 5926
4 4513 4473 4487 324
4 3598 4033 4419 4035
4 5925 5926 4487 316
4 4399 6073 1791 4400
4 5687 4400 4044 4065
4 6336 4400 5687 4433
4 3941 6043 3757 6073
4 4065 6073 4064 6043
4 6177 6081 6339 6261
4 2503 1792 4400 5319
4 4433 4400 2503 6336
4 2503 6336 4400 1801
4 5765 6034 5766 5764
4 3441 3440 3511 4567
4 4642 5505 4014 6040
4 5293 4625 5788 4550
4 5505 4014 6040 1261
4 4509 5505 1261 1270
4 6041 5764 1263 6034
4 3702 5480 3517 5481
4 5972 4014 4439 6034
4 5100 4950 6101 5099
4 5793 6238 6242 5942
4 4851 2155 6245 2146
4 5942 6237 2163 2154
4 5934 4123 4870 4039
4 6237 2164 6238 2163
4 5934 4870 4851 5110
4 3856 3332 3855 4056
4 2957 5881 5219 6231
4 5366 4066 4442 4417
4 5366 6057 5764 4417
4 4368 4370 278 277
4 5763 6046 4370 4051
4 5763 6046 4051 6044
4 4405 4370 6046 1754
4 4405 1755 6267 4372
4 6066 5600 6106 1886
4 6079 5550 6209 1904
4 5381 4742 1884 1893
4 5381 4742 1893 4336
4 5379 4742 4147 1884
4 2802 5552 6115 4102
4 1895 1904 252 6083
4 5549 2803 4679 6118
4 6083 5600 1895 1894
4 3862 5089 5088 2097
4 5692 3692 5592 3693
4 3093 5587 3946 3094
4 6280 5651 6229 6322
4 5138 6218 2081 2082
4 6218 6224 2082 5623
4 6218 2082 6224 2091
4 4007 4887 5410 4196
4 5021 2091 2092 2100
4 4921 3004 3006 3007
4 3651 3652 5905 5098
4 4886 5257 3652 1556
4 3127 5169 2109 2100
4 6046 5416 5418 5365
4 4416 4417 1256 4367
4 4371 6036 6044 1743
4 5365 4368 5763 6046
4 5763 4066 285 286
4 5763 285 4367 276
4 4416 4066 4417 4367
4 4416 4367 1256 1247
4 4416 6044 4367 2872
4 6117 1899 3504 1890
4 3504 3329 1898 3503
4 4263 1899 6117 1900
4 4741 4742 4336 1892
4 5629 4779 5581 5631
4 5630 1900 5581 1901
4 5266 2471 4029 4027
4 5214 4039 1610 6323
4 4360 5213 5214 1600
4 5933 6280 6327 6325
4 6061 6236 5942 6237
4 4044 5463 4065 1809
4 4003 3784 3468 3421
4 5463 5541 1808 1817
4 5587 5588 4698 4255
4 5960 5404 1144 5959
4 5404 5283 1135 1134
4 4186 3253 5306 2882
4 3443 3745 3410 5819
4 5301 5590 3348 4921
4 5948 5875 5404 5941
4 3411 3743 4022 3744
4 5948 5404 1143 1134
4 5948 1133 5941 1134
4 4798 5128 5132 4039
4 6245 2145 6325 2146
4 6018 5934 4123 4870
4 6245 6321 2145 2154
4 4221 4220 826 4222
4 4221 825 4582 4685
4 4219 4647 4637 4221
4 4647 4637 4221 4582
4 4637 4582 392 4685
4 4537 4695 6119 4535
4 4647 4148 401 4710
4 6066 5599 5600 1356
4 5551 6096 5600 1356
4 5551 1356 5600 5599
4 5600 5381 1885 1894
4 5617 5600 1894 5381
4 5587 3946 4698 5043
4 5175 6209 5177 6080
4 1904 5550 6209 1365
4 5379 1876 6106 1885
4 4957 6115 5380 5599
4 5376 5600 6106 5599
4 4757 6132 6286 1931
4 6286 6289 1921 1930
4 6286 6289 1930 6150
4 2921 5603 6132 4758
4 6132 6140 6138 1939
4 6080 6289 5624 1921
4 4757 5177 6286 1392
4 4125 2408 4062 4124
4 6106 1885 5600 5381
4 2546 2545 6106 2547
4 4148 409 4729 5568
4 4647 4710 4582 5553
4 4895 4651 5142 4579
4 3541 3113 3276 3542
4 5204 638 5230 637
4 5231 5872 6064 6240
4 5204 628 5181 5159
4 5204 5159 629 628
4 4784 4816 5649 4815
4 4797 4816 4815 897
4 4784 454 4785 455
4 3580 4785 4784 454
4 4917 3580 4784 4760
4 4797 464 455 36
4 3580 453 4794 4782
4 4917 5701 4840 5650
4 4840 5621 5650 889
4 4840 898 5701 4816
4 4840 889 5650 898
4 4797 455 4784 4785
4 4917 4840 4784 4785
4 5791 6008 6016 6019
4 5270 2897 3388 6008
4 4357 1656 6011 3917
4 2778 4295 5242 5585
4 5618 4709 4793 4645
4 5632 5618 4792 4793
4 5618 4793 4709 5648
4 4708 4709 437 4645
4 4708 4768 4645 446
4 4765 436 4733 435
4 4733 4778 5632 4765
4 4716 2740 6074 6335
4 4540 6270 4787 1821
4 5533 6270 3554 4540
4 6075 1811 5340 1812
4 4551 4538 4210 341
4 4551 341 4210 342
4 4606 4551 4538 4210
4 4556 342 4583 4210
4 4524 344 4435 353
4 5854 2085 170 169
4 5854 5869 170 2094
4 5834 5852 1048 1049
4 5834 5854 5851 5868
4 5854 5851 2085 169
4 4321 4067 337 4564
4 6298 5494 4615 4588
4 4471 4666 4137 6298
4 6298 4321 4564 4067
4 5494 4615 771 4320
4 4321 4067 328 337
4 5288 4203 2540 5928
4 3915 5409 3916 5845
4 2672 3654 2879 2882
4 3065 2340 3722 2370
4 5585 5752 5751 5155
4 5265 5269 5211 669
4 5309 5195 2878 5894
4 5895 5225 5307 5894
4 4012 4439 3518 4373
4 4439 1716 4373 4832
4 4624 4723 4597 4534
4 3518 6035 1717 5481
4 1707 3518 4211 3488
4 6262 4014 5505 1261
4 3983 6174 6050 4212
4 4439 4832 1244 1243
4 4523 4490 5494 4564
4 5494 772 4615 4588
4 5494 772 4588 781
4 4490 4590 4564 4545
4 4490 790 5497 5508
4 6298 4564 4437 4067
4 5497 781 5494 4588
4 4862 5588 4894 5590
4 4814 4160 480 471
4 4879 4880 480 4160
4 5685 4880 4879 4160
4 4881 1415 4838 4239
4 4913 5965 6189 5384
4 5965 5363 4852 709
4 5363 5362 5368 701
4 4913 4105 691 690
4 6248 1669 5992 5384
4 6248 6003 4854 5965
4 5362 4107 692 691
4 4913 691 5362 700
4 5362 692 4107 5335
4 5367 5362 4298 5335
4 5367 702 5368 701
4 5497 782 4588 5477
4 6298 6279 4564 5494
4 5497 4588 4666 5477
4 6179 5497 5532 5508
4 4554 349 4597 348
4 4554 340 4538 349
4 4549 4554 339 4550
4 5293 4550 4554 4625
4 4550 4625 5024 4554
4 3160 805 5527 5565
4 5527 797 5540 5563
4 3160 5526 5527 796
4 5527 5439 5563 5528
4 6072 6110 5125 6004
4 5559 4688 5508 5532
4 4688 5508 5532 800
4 4539 4586 363 4636
4 5870 4489 4668 4563
4 3920 5537 4207 3700
4 4688 4668 808 4684
4 6059 6138 6132 6140
4 2921 6286 6132 6150
4 6132 6286 1930 6150
4 6132 5659 5603 6140
4 5688 1984 5459 1985
4 5688 5459 1984 5711
4 5688 1985 5459 4340
4 5501 5524 5502 6160
4 5459 5524 1446 5502
4 5459 5524 4340 1446
4 4013 3987 5504 3555
4 5480 3518 3516 3517
4 3516 3518 1707 1708
4 4299 4300 1249 1250
4 4420 1698 210 1689
4 4299 4300 1250 3494
4 3516 4454 4211 3518
4 4454 3494 1250 1251
4 3516 4211 4454 4420
4 4437 4590 4544 346
4 4437 4067 4564 337
4 6279 4544 4437 4590
4 6298 6279 4437 4564
4 4437 4067 337 336
4 4471 4485 4486 4437
4 3310 4187 3304 4908
4 3861 3129 2090 5212
4 5891 5980 5208 5892
4 5919 5079 4506 5078
4 6316 4154 5088 5228
4 4444 3564 3156 3576
4 4150 5890 5469 5896
4 3350 3353 3352 6272
4 4787 3546 1829 1830
4 3333 4573 5595 4632
4 4787 1830 6270 3546
4 3554 4787 4540 6270
4 4962 45 4980 536
4 4962 4944 969 960
4 4171 4962 4178 4944
4 4962 4980 969 4943
4 5994 6017 6251 5995
4 3870 4184 4185 5887
4 6251 6019 5356 1666
4 6010 1667 6251 5356
4 5692 4623 5022 6224
4 5022 3648 4349 4623
4 5642 5022 5056 2102
4 3648 5022 5056 3649
4 6010 1668 6020 1667
4 5359 6009 3874 5987
4 6010 6009 6020 1668
4 5714 4179 496 4893
4 4185 4184 6251 6020
4 6010 6020 6251 1667
4 4184 6017 5249 1233
4 5224 5071 1113 61
4 5224 61 1113 62
4 5326 4161 679 688
4 5224 5071 5225 1113
4 5224 1122 62 1113
4 5224 1122 5225 5932
4 6027 4533 1249 4300
4 3986 4315 6027 4533
4 4420 1698 211 210
4 3985 3516 4299 6028
4 6047 265 1248 1778
4 6025 6026 6029 6028
4 6047 266 1239 265
4 6029 1778 6047 4315
4 6027 4466 6028 4299
4 3494 3987 5480 4299
4 3986 6027 4299 4300
4 6027 4299 1249 1240
4 4299 4454 3494 1250
4 3516 4420 6028 1689
4 4211 1241 4420 211
4 4459 291 4402 292
4 3429 3431 3955 4016
4 4382 4402 4383 282
4 4402 4395 4383 291
4 4411 1749 3824 3825
4 5108 4031 4459 5515
4 5515 4411 3824 3825
4 4068 15 283 282
4 3792 4158 4760 5649
4 3792 5684 4159 4845
4 3123 3580 4760 4794
4 4760 463 4784 5649
4 5163 5846 1050 1051
4 5163 1051 5843 5846
4 5146 5846 5163 5147
4 3977 5844 5843 5163
4 5163 5064 4182 5127
4 6249 3978 1653 1654
4 4871 6249 6023 1644
4 3247 3252 2929 3251
4 2445 4872 6329 6254
4 4872 2173 6329 6254
4 4872 6254 2164 2173
4 2885 3365 5790 2443
4 5350 5331 697 5306
4 5350 4849 5331 5306
4 5281 5353 5331 698
4 5331 5306 688 697
4 5281 5326 5331 5932
4 5281 1122 5224 5932
4 5331 4161 688 5306
4 5101 6198 6194 5958
4 6309 6310 2056 2057
4 5939 5937 5095 1509
4 5714 4937 4260 505
4 5099 5101 6180 5100
4 4954 5746 5742 6190
4 5937 2048 6198 2039
4 6309 5958 5968 4265
4 5937 235 2048 236
4 5714 4260 496 505
4 5315 6322 5651 2129
4 5651 4346 2119 2128
4 5651 4346 2128 4347
4 6229 5651 5566 5315
4 6322 5651 2128 4347
4 5714 5796 4923 4899
4 3263 3772 3796 3771
4 4734 4737 3281 4738
4 4335 5151 947 5152
4 4179 5798 5590 4894
4 4997 3871 3520 3883
4 927 5716 6077 4876
4 4958 3639 4961 5514
4 3638 4936 3639 4928
4 3579 3962 869 878
4 3578 3961 3579 1905
4 3579 878 150 3831
4 3959 1905 3579 3961
4 5550 6118 1375 1366
4 6083 5600 6096 1895
4 5245 5285 662 5247
4 6332 5245 5248 5236
4 5546 1087 5348 1096
4 5309 5245 5237 5248
4 5197 4422 5239 5211
4 5546 5348 5308 1096
4 5309 5894 5307 5308
4 5237 5265 5248 661
4 5307 5894 1105 5308
4 6327 2147 2146 2138
4 5109 5111 6327 5110
4 4869 4868 1626 1635
4 6322 4347 2128 2137
4 4851 6245 2155 6237
4 6327 6245 6325 2146
4 5934 4850 4851 4870
4 5613 6207 2011 2020
4 5094 2020 5614 6207
4 5761 6207 6188 2011
4 5760 5761 6188 2002
4 5761 6188 2002 2011
4 4952 2012 239 2021
4 5761 6126 5613 2012
4 6152 4690 439 4759
4 6152 440 4761 439
4 6152 440 4038 4595
4 5976 4690 6152 4759
4 4106 5276 673 672
4 6000 5276 5275 5333
4 4275 5226 6000 5276
4 4275 5226 5276 4106
4 5281 5326 5932 5224
4 5907 5932 5225 5931
4 2878 5328 5495 5894
4 5326 5331 4161 688
4 5895 5238 5907 5269
4 5238 5224 680 5071
4 5238 5224 5071 5225
4 5326 5269 679 4161
4 1558 4196 2784 5410
4 5410 4196 4887 1558
4 5139 3338 5070 6217
4 3088 1539 4271 4199
4 5060 2817 1551 1542
4 4009 4008 5411 5087
4 3147 3161 3145 5112
4 2848 3531 4189 5059
4 3530 5827 5080 3532
4 4060 4061 5626 5216
4 3692 4886 5257 3652
4 4886 1556 3652 5087
4 5615 5612 5096 5094
4 3649 5257 1564 3648
4 5257 3652 1556 1555
4 5194 5218 643 5243
4 5194 635 5188 5198
4 4501 5246 5072 4507
4 5194 5079 5188 634
4 5994 1674 6019 1675
4 5994 204 6017 1234
4 5994 1675 6251 6017
4 5994 5995 6008 1235
4 3813 2837 3812 5453
4 5918 5614 5100 2028
4 4240 4252 4241 4243
4 4807 4810 5452 2035
4 4445 3576 4444 3577
4 6333 6203 5101 5742
4 5100 5739 2028 2037
4 4859 4162 4884 5723
4 4859 942 4860 5723
4 5061 4162 4859 4860
4 4859 5747 4860 943
4 4812 924 4865 4843
4 2828 2830 4046 3997
4 2830 3997 1552 4046
4 2830 1551 3690 2817
4 4847 5393 4077 5351
4 4074 4075 5387 1149
4 4075 5402 4077 716
4 5930 4074 4076 5393
4 3221 3223 3222 3332
4 3383 3450 3396 6250
4 3222 3052 2197 2198
4 3613 3614 5570 1582
4 5003 4346 5169 5232
4 2111 5232 5566 5642
4 5642 2102 5056 229
4 3613 5642 5232 3649
4 5171 1591 5570 1582
4 5171 6229 1591 5213
4 2479 5220 2584 5004
4 3159 2258 2257 2256
4 2258 4152 4999 601
4 3159 3145 3161 5112
4 3145 2258 4350 4152
4 5714 5796 4937 4923
4 4113 4982 5015 5012
4 4113 987 48 47
4 4113 5039 5050 5069
4 5487 5039 4982 5015
4 5009 5039 5033 553
4 5069 997 5036 1006
4 5792 5037 988 4996
4 5792 987 5012 978
4 5689 3624 6214 6213
4 5015 988 5037 997
4 4516 4521 5785 4520
4 4521 2041 6306 5785
4 4522 4521 2050 2049
4 4516 4521 4945 6306
4 4516 4946 4945 4517
4 4193 4945 1004 1003
4 4521 2041 4520 2050
4 5792 4981 4980 5012
4 5792 4996 979 4943
4 5792 4980 978 5012
4 5792 5015 5012 987
4 5487 5015 5037 5036
4 6309 2048 4265 2057
4 5968 6310 4266 5967
4 5100 6205 5739 2037
4 5622 5215 2065 5623
4 6333 5967 5968 6203
4 5215 2064 5623 5626
4 5788 1318 4550 4625
4 5788 1317 3821 4353
4 5293 4550 5788 4353
4 4624 4554 4597 4625
4 5788 3821 1317 1326
4 3029 3160 3031 3910
4 5526 5527 796 5540
4 4333 4725 4332 5125
4 6345 5472 5540 5526
4 3204 4966 5081 580
4 3204 571 4966 580
4 5035 5017 5054 5050
4 5052 5017 5054 4966
4 3958 5844 5163 5064
4 5032 3204 571 4966
4 5035 1005 50 49
4 5035 1014 50 1005
4 5069 1006 5036 5049
4 5054 1006 5049 1015
4 5053 5035 5054 1014
4 5035 5017 5050 572
4 5053 5054 1015 1014
4 5052 5053 5054 5818
4 5034 5062 1023 5106
4 5069 1005 5054 5050
4 3159 3145 5112 2258
4 3145 4999 2258 4152
4 3161 5139 3132 1569
4 3161 5139 1569 1578
4 3670 5656 867 3960
4 2743 5674 3865 902
4 2767 2800 2770 2771
4 4700 3670 866 867
4 3301 4804 3233 3503
4 4263 1908 3569 4804
4 3670 3606 875 876
4 6260 4411 5462 1750
4 4407 4411 4068 4402
4 4407 5414 4031 5415
4 4068 4402 4411 3824
4 4080 4428 19 302
4 5689 5729 1936 5730
4 4678 4536 4660 5145
4 3080 4327 2312 3079
4 6169 4081 4992 6170
4 4579 4660 4647 4148
4 4619 380 4683 389
4 4619 4659 389 4683
4 6282 5176 2319 6120
4 5072 1060 5846 5073
4 5149 1059 5072 2890
4 3977 2963 3958 5092
4 5919 5078 5154 5188
4 5933 6327 4851 6245
4 6327 4851 2146 2147
4 5111 5109 1617 5110
4 6327 6322 5111 2138
4 6322 4347 6280 5651
4 6327 6325 4347 2137
4 6327 2146 4851 6245
4 6327 2146 6325 2137
4 4569 3938 5510 3894
4 4567 6266 6268 6264
4 2719 2865 2864 3293
4 3894 5510 297 306
4 3894 289 3976 298
4 3894 288 297 4569
4 4208 4034 5925 5926
4 5193 5546 5247 1086
4 5546 5348 1087 5272
4 5546 1095 5307 5247
4 5245 5546 5247 5243
4 6184 5007 3665 5855
4 5855 6184 5082 6175
4 6183 5001 4227 4975
4 5001 4227 4975 538
4 5238 5326 5269 679
4 5895 5238 5269 5265
4 5238 5326 680 5224
4 5238 5225 5326 5224
4 5895 5237 5238 5265
4 6118 1376 5176 1375
4 5550 1366 5551 5552
4 3765 3927 2321 3764
4 5689 3568 1926 6214
4 6118 5552 1367 1366
4 4600 4554 340 4555
4 4600 5199 4550 5748
4 5293 4600 4554 4550
4 4600 4504 331 330
4 6280 6322 6327 4347
4 4360 5315 1608 6322
4 5315 5651 6322 6229
4 5689 1927 5880 1936
4 5689 3568 5880 1927
4 6259 272 1764 1763
4 6259 5434 5382 4206
4 6259 1686 272 273
4 6259 1764 4326 5465
4 3944 4206 5465 5491
4 4206 5492 1772 1773
4 2669 6329 2183 2182
4 2435 2670 2192 2201
4 4830 4831 3978 1662
4 6023 6329 4831 3978
4 5660 5661 6144 1432
4 4830 2435 2670 2669
4 5534 6062 1284 6048
4 5534 6062 1285 1284
4 6048 1823 5534 6056
4 3557 4331 3562 3063
4 3545 4572 4571 6068
4 5533 5534 4571 6056
4 6062 5499 1285 6052
4 5678 5737 5743 5718
4 5679 1968 5722 5741
4 3283 5737 6186 5719
4 5737 5719 940 5743
4 5737 5719 931 940
4 3283 3282 5737 5719
4 5679 156 1968 157
4 4066 4417 294 4442
4 5365 5366 4066 4303
4 5365 4417 4416 4066
4 4418 4066 4417 294
4 5763 277 4368 286
4 5791 3388 6008 6019
4 5989 6019 5994 1674
4 6016 6011 1665 3917
4 6016 3917 1665 1664
4 5989 5994 6008 1235
4 6022 6015 1672 1673
4 6022 6016 1664 3917
4 6016 1236 2533 6015
4 3679 3901 4069 4401
4 3679 321 118 312
4 4443 3901 3686 4401
4 3678 3679 1292 4548
4 4678 4660 5568 399
4 4219 4220 4222 4681
4 4660 5142 4579 4638
4 4536 4678 4660 5568
4 1553 3997 2505 2868
4 2868 1553 3997 4046
4 2849 4189 4350 583
4 2849 4189 583 574
4 2703 2711 2704 2713
4 5611 5094 6207 5613
4 5094 5614 2020 2029
4 5094 6207 5613 2020
4 5093 1500 5096 5095
4 5063 4182 5064 5127
4 5062 4182 5063 599
4 3996 5835 5896 5890
4 5063 5005 598 5127
4 5062 1032 52 1023
4 5148 1033 5106 5825
4 5062 590 5063 5081
4 3208 5106 5063 5081
4 3208 5067 5063 5005
4 5053 1024 5818 5825
4 5106 1024 5825 1033
4 5053 1015 5818 1024
4 5034 5081 581 590
4 5485 3205 5052 5665
4 5490 5049 5069 5036
4 5485 3205 5032 5052
4 5035 5054 5017 4966
4 5032 5033 5017 562
4 5039 4982 554 553
4 5039 5050 5017 563
4 4113 5015 5039 5069
4 5018 5487 5033 5488
4 5490 5033 5039 5017
4 5069 5015 5036 997
4 5490 5054 5069 5049
4 4850 2156 4868 2165
4 4871 4869 1635 4868
4 4850 4851 2155 6237
4 5109 4870 4868 1626
4 6018 4872 4850 4869
4 5593 5623 2064 5626
4 6206 5626 6276 2063
4 4057 5623 5593 5626
4 3692 4886 5806 5257
4 5593 5626 2064 2063
4 5593 5623 2082 2073
4 4319 328 4321 4476
4 4319 4321 4320 4615
4 4319 319 4480 320
4 4461 4319 319 4480
4 3431 4457 4459 3432
4 6294 4319 4547 4615
4 4575 4547 763 4615
4 3428 4547 4319 4480
4 3429 5468 4480 4475
4 5468 4488 754 3956
4 4547 754 4488 763
4 4397 4615 4547 4319
4 4397 320 4319 4480
4 5062 1023 5106 1032
4 5062 4182 52 1032
4 5062 5106 5081 5063
4 5034 5062 5106 5081
4 5174 6080 5175 5177
4 6080 6286 1922 5177
4 6079 5616 1912 5624
4 6282 6079 6080 5624
4 5175 6079 6209 6080
4 6283 6080 6286 6289
4 4707 4709 4793 5648
4 4765 4709 4645 436
4 4765 4709 436 427
4 5618 5903 4753 4765
4 4728 4754 5604 5648
4 5903 4765 4180 4753
4 4707 870 5648 4793
4 5841 4237 1047 1046
4 5643 5644 1064 1065
4 5406 4155 5839 5890
4 3143 4153 3239 3862
4 5890 5406 4727 5889
4 4622 4587 4646 373
4 3540 3920 6343 4236
4 4646 4641 374 4566
4 4219 4681 4222 5567
4 4646 4566 374 373
4 3897 5660 6144 1423
4 3948 4802 4791 6142
4 4802 4776 456 4773
4 4377 1435 6142 4864
4 6142 5713 1426 1435
4 4316 4315 1787 1786
4 4316 4315 1786 6265
4 6026 6255 1681 268
4 6027 4533 4315 1248
4 4316 4315 4533 6058
4 5309 5237 5895 5265
4 5891 5980 5892 6247
4 3415 3068 2694 3414
4 5847 2372 1101 5914
4 2659 2245 3914 3760
4 6324 4501 5272 5194
4 5912 5904 1098 5329
4 1813 6056 6273 4541
4 6273 6049 6056 1814
4 4317 6273 4055 4054
4 6273 4541 1804 1813
4 5134 6246 5458 5135
4 5501 5458 6246 5502
4 5458 5459 1976 5135
4 5501 5458 5457 5478
4 6297 5458 1966 1967
4 5457 5458 1975 5478
4 6029 4315 1777 1778
4 6027 6047 1248 4315
4 6256 6029 1777 6050
4 3227 6174 3983 5318
4 3986 6027 4315 6029
4 6026 6028 1681 6051
4 6025 6027 1239 4466
4 3958 5064 5163 5127
4 5006 3950 3197 5358
4 5106 3958 5064 5148
4 3958 5127 5163 5147
4 5148 5844 1042 1043
4 3993 5843 5844 5364
4 6083 6079 1903 1904
4 6083 5617 1894 1903
4 5175 1374 1375 1383
4 6083 6096 5551 1365
4 2921 6289 6283 6286
4 5617 5616 6128 1902
4 5549 6083 5551 5550
4 5200 5381 5617 4336
4 1423 5660 6144 1432
4 4675 1343 4694 1344
4 4750 6112 1362 5598
4 4750 6112 1361 1362
4 5274 4750 6112 1361
4 6108 1370 4142 1379
4 3681 1341 3682 1342
4 6071 4841 2502 5340
4 5533 4540 4541 6056
4 3563 3216 3254 2728
4 5534 6062 5499 1285
4 6052 5400 1276 6062
4 3751 6273 4054 6062
4 5533 4132 3752 4571
4 3750 6075 5340 4541
4 5424 3785 1724 3786
4 5419 5421 1723 3785
4 3389 5123 5436 3400
4 5448 3785 3786 5426
4 5448 4406 5426 730
4 5424 1724 1715 128
4 5870 4563 4668 4566
4 4539 364 4563 4566
4 4563 4590 4596 356
4 5870 6279 6179 5508
4 4489 4668 799 5508
4 4609 4604 5291 4551
4 4583 5290 6093 4495
4 4609 4604 4551 351
4 4583 5290 4210 4551
4 2996 5323 3596 4606
4 4556 343 4583 342
4 4352 4624 5781 5788
4 4666 4575 4576 4588
4 4524 343 4495 344
4 4495 3907 4524 3905
4 4369 6038 1245 1246
4 4369 1734 6036 1743
4 4369 215 4305 1734
4 4119 1734 4369 4305
4 4611 5598 1353 1354
4 4611 4750 1353 5598
4 4218 5274 1351 1343
4 4721 4605 4693 4722
4 5273 2862 4192 3278
4 4693 6100 1354 1355
4 5099 6180 5215 5216
4 5100 2038 6198 2047
4 5101 6309 6198 5958
4 5215 2055 6180 2056
4 6205 2046 6180 2055
4 6309 6180 2047 2056
4 4031 4018 4017 4404
4 4456 1742 4403 3787
4 4460 5426 729 720
4 4460 729 5447 728
4 4456 5426 3786 3787
4 4018 4403 4508 3787
4 4455 1742 126 125
4 4018 4404 4460 728
4 3952 5108 4032 3431
4 4475 4459 3432 3431
4 4032 4079 4080 4428
4 4475 4480 3432 310
4 4032 4080 302 4428
4 4017 735 4428 726
4 5468 4475 4479 4480
4 3429 5468 4079 3956
4 3430 3954 3428 3955
4 4080 4479 20 744
4 3795 3015 3641 4875
4 3856 2170 3857 4297
4 4036 2187 3900 2178
4 3858 2178 3900 2177
4 3715 3855 3854 3858
4 3854 4036 3223 5222
4 4036 2188 2179 3332
4 5134 6297 6246 6122
4 6297 6146 6122 5383
4 6297 1958 6146 5383
4 6297 1957 6146 1958
4 4972 5458 6297 6246
4 5807 6163 1474 6172
4 5662 5807 1473 5633
4 5807 5633 1465 1473
4 5717 5633 1455 5524
4 6187 5688 5760 5773
4 3204 5067 580 5081
4 5067 5063 589 5081
4 5067 5005 3196 588
4 3208 3204 5081 5067
4 5972 6054 4439 4373
4 6054 6038 1245 4305
4 6054 1253 4439 1244
4 5418 4119 1735 6036
4 5766 6038 5764 6054
4 4539 4587 4636 363
4 4539 3536 4636 4587
4 3906 4435 4485 4437
4 4563 4544 4539 6279
4 4435 354 4586 353
4 4435 345 4485 4437
4 4657 1121 4656 1130
4 5935 4656 2371 1121
4 5935 4655 4656 2157
4 4654 4657 3729 4655
4 4655 2158 5886 2167
4 4656 4654 178 2166
4 3737 4693 5598 4611
4 4693 4230 4629 6100
4 4693 4611 1354 5598
4 4693 4611 4722 1345
4 3428 4547 5468 4488
4 3429 4475 4480 3432
4 3429 3432 3431 4475
4 4079 5468 4080 744
4 4316 4317 4318 4322
4 3623 2805 2978 2980
4 4316 4317 1795 1796
4 3751 6273 4317 4054
4 4316 1787 4318 1796
4 5328 1106 5894 5308
4 5328 1115 5894 1106
4 5195 5308 5328 5894
4 5328 5495 1115 1116
4 4697 5793 3167 6181
4 5210 2881 5211 5196
4 5295 5254 666 5155
4 2534 2535 2537 2541
4 6261 1693 4130 4364
4 6261 1684 4130 1693
4 4363 4364 1702 1693
4 6339 4363 6261 4364
4 3627 4970 5730 5721
4 6261 1692 6174 6257
4 6257 6081 6261 4510
4 6261 4130 1684 4510
4 4455 4460 4404 719
4 4404 4460 728 719
4 4018 4460 4404 4403
4 4427 6260 4455 1751
4 4455 4456 4403 4460
4 4427 718 5414 717
4 5323 4548 4561 5772
4 3679 1292 4548 3901
4 3678 3679 4069 321
4 3679 4548 4069 3901
4 5944 4128 5388 5924
4 5963 4045 1181 1182
4 5944 5277 5388 1162
4 5944 5277 1171 3744
4 4397 753 4547 762
4 4397 4320 22 762
4 4397 4547 4480 4319
4 4397 4479 753 21
4 5006 5005 588 3196
4 5006 587 3196 588
4 5358 5828 5084 5827
4 2711 3529 2712 3530
4 5865 5866 5833 6021
4 2946 5090 2894 2947
4 6230 6288 5733 3773
4 2268 2745 2270 3644
4 5758 1979 6300 1970
4 5758 5733 1970 6300
4 3214 3264 4738 3669
4 6300 5733 4602 5758
4 4407 15 1759 16
4 4407 4408 4129 284
4 4407 4408 16 1760
4 5415 284 4129 293
4 5415 4031 4459 4032
4 4031 4411 5515 5462
4 5415 4031 4032 4017
4 6346 4162 4902 4884
4 4762 955 3133 6014
4 3639 5747 944 953
4 3061 3093 3567 3095
4 4311 4343 5514 4991
4 4559 5577 6130 5596
4 2380 4024 2679 4023
4 5597 4228 832 5605
4 4559 5586 5577 824
4 5597 4559 832 4228
4 5597 4559 5596 833
4 5434 1686 5382 1687
4 5304 1772 4206 5492
4 5325 5451 3609 5117
4 5303 1762 1761 274
4 5303 5382 5304 1762
4 5122 5302 5304 5506
4 5302 5455 5445 3609
4 5324 5302 5303 6258
4 3262 3260 3263 3280
4 4217 4135 4467 4468
4 4217 4216 4467 770
4 5554 5507 4217 4468
4 5472 778 5507 787
4 4078 6104 5554 4214
4 5562 1815 4468 4467
4 4214 5513 5562 5541
4 5562 4216 5475 4467
4 4214 5562 4217 4216
4 4214 6344 5541 5562
4 5562 1816 5541 5513
4 5472 5507 5540 787
4 5507 779 4217 4135
4 5554 5484 5507 5472
4 5484 4217 5507 778
4 5507 5543 5540 788
4 5726 3771 4897 5667
4 4644 4718 424 423
4 5652 4700 3670 866
4 6005 6329 2173 6254
4 3153 3383 3222 2190
4 2443 3450 3153 2671
4 3331 3383 3222 3153
4 3331 3153 3332 3365
4 3153 3222 2188 2189
4 3153 2188 3222 3332
4 3331 3222 3223 3332
4 3607 2829 3130 3690
4 4197 6217 5139 1568
4 3146 3660 4152 4350
4 6315 5622 5620 3651
4 2829 3130 3690 2830
4 3088 4199 4971 1530
4 2711 3533 2712 3529
4 5425 5464 1694 4130
4 5121 5434 6258 1696
4 5122 5304 5492 5506
4 3944 4130 5425 4364
4 5260 5492 3944 5491
4 5121 1704 5425 1695
4 3422 4451 3756 5016
4 5464 4326 1685 4130
4 4768 5621 888 879
4 4708 5621 4768 879
4 4768 4785 4645 446
4 4797 4840 4768 4785
4 2671 2592 2199 2200
4 2670 2191 2669 2192
4 2532 6250 2592 1229
4 6005 2669 2191 2182
4 4830 6022 3978 2668
4 2668 6250 2532 2533
4 6005 6254 2172 6252
4 2779 2874 2873 2804
4 4791 102 101 1445
4 1445 4791 1454 101
4 4818 465 4802 466
4 4773 4802 4791 465
4 6142 3948 4864 4791
4 4791 6142 1436 4864
4 4791 3948 4864 4818
4 1454 4791 4864 4873
4 4671 109 393 402
4 6094 4671 1373 1364
4 4671 1373 109 4691
4 4671 4100 402 4096
4 3465 3063 4379 4331
4 4821 4783 459 4774
4 3627 3625 5721 5730
4 6299 5394 3462 4093
4 3346 3791 3097 4866
4 5681 4334 4800 5691
4 5681 5694 4800 4334
4 2532 2671 2569 2592
4 2532 2671 2592 6250
4 6022 6016 2533 6015
4 2532 2533 6250 1228
4 2532 2533 1228 1237
4 4830 2669 2668 3978
4 2436 2533 1237 6015
4 4830 2670 2436 2532
4 2670 2671 2200 2569
4 2435 2437 2670 2201
4 2435 2670 2669 2192
4 3338 5070 4196 2953
4 5920 3341 3342 3340
4 4892 3510 5796 4923
4 3305 4908 3306 4348
4 4577 3866 6330 2621
4 2607 3565 2946 2949
4 3942 4097 6073 3757
4 3942 5260 4399 5492
4 3784 3472 3421 5311
4 3942 4399 3941 6073
4 4399 6073 1790 1791
4 3942 6039 5492 1781
4 5930 5943 5951 4076
4 4077 5956 4076 5957
4 5930 5949 5943 1159
4 4847 5951 5957 4076
4 5930 1150 4074 5393
4 4077 4076 5956 5402
4 4523 5494 4490 780
4 4489 4596 4590 4545
4 3539 5517 4688 4236
4 6315 3651 5098 1546
4 4490 5497 781 5494
4 5443 5419 5450 5448
4 5454 5445 5506 6039
4 5302 1770 5445 5455
4 5302 5506 5445 1771
4 5444 5466 5474 4098
4 5444 5455 1770 134
4 5444 5474 1779 4098
4 5445 1771 5506 1780
4 4977 4171 4978 535
4 5045 4979 4944 4824
4 5030 4171 4977 4177
4 4171 4962 4980 536
4 4936 935 4928 4813
4 4936 944 3639 4928
4 4899 5714 5796 4179
4 4899 498 4923 497
4 3638 3639 5747 4928
4 4902 499 5725 498
4 3640 4923 4899 5725
4 2757 3328 5823 2579
4 6259 5464 5434 4206
4 5304 5506 1771 1772
4 5304 6258 5434 5382
4 4323 3754 749 5327
4 5434 6258 1687 5382
4 5454 5302 5445 3609
4 5122 5434 5304 6258
4 5302 5304 5303 6258
4 5302 1771 5304 5506
4 5876 4356 2112 6317
4 5876 5859 5869 4356
4 5876 2104 6201 5879
4 4389 5878 5876 5879
4 6333 5968 5101 6203
4 6333 6310 5968 5967
4 5215 6180 2055 5216
4 5000 4199 6210 6203
4 5424 5450 5419 5448
4 5424 5448 722 5450
4 5424 5448 5419 3785
4 5123 4314 5118 5422
4 4406 5443 5124 5448
4 5118 4314 1705 1714
4 2902 4957 4955 4306
4 5380 6115 5552 5551
4 6115 5552 1358 4102
4 6115 1357 5551 5599
4 4306 5379 5381 4742
4 6115 5599 4957 5377
4 3361 3501 3871 3842
4 4997 5076 4922 3575
4 4903 4905 6014 4906
4 5514 4958 4991 4961
4 4312 2633 3211 3172
4 5045 4824 4860 4961
4 3103 3104 3101 3301
4 5852 5854 6201 5869
4 5852 5854 5868 6201
4 5852 1058 5854 5869
4 5852 1057 5859 5853
4 5834 5854 1049 5851
4 6199 5834 5852 5833
4 2416 5503 3037 3552
4 3442 3939 3936 5438
4 3889 5370 4878 3437
4 3041 2428 4410 2646
4 4834 4552 5700 1289
4 5533 3751 3750 5398
4 4552 5700 1289 1290
4 4612 6278 4613 6131
4 4610 4286 6278 4144
4 4286 4144 1871 6278
4 4286 1880 6263 1871
4 4277 4282 4124 4280
4 5558 4684 3539 4680
4 4637 4646 4685 383
4 4219 4622 4637 4638
4 4622 4637 382 4646
4 4637 4685 4221 4582
4 4708 4645 437 446
4 4708 4645 5621 4793
4 4708 4768 35 879
4 4707 4709 4708 4793
4 4657 4655 4656 2371
4 4655 2158 2343 5886
4 2166 4654 4655 4656
4 2340 2371 4657 5910
4 5910 4204 2340 3722
4 5797 2023 6304 5783
4 5789 6306 5797 5771
4 5789 5775 986 5771
4 5789 4188 5797 2022
4 4083 5797 6304 5783
4 3729 2167 4655 3728
4 5947 4654 4657 3729
4 3727 3729 4655 3728
4 4657 5947 1130 4654
4 2573 2186 2572 2195
4 3047 3106 3050 3102
4 4073 3445 2876 5352
4 3698 4204 1129 3695
4 5372 4258 1186 1177
4 5951 5956 1167 1176
4 6347 5371 5957 5299
4 5372 1186 5279 1185
4 5372 5299 5373 5385
4 5372 5299 714 5373
4 3147 5114 3342 3161
4 5205 5114 1587 5187
4 6219 5085 5136 5179
4 5205 5187 1587 1596
4 5826 5873 4194 4195
4 4519 5640 1021 4195
4 5832 2067 5826 5812
4 5826 4195 5640 5873
4 5826 5873 2058 4194
4 5838 5638 1030 5821
4 5640 5638 1021 1030
4 5832 5838 5640 1031
4 5911 1103 5901 1094
4 5911 5861 2130 174
4 5911 5915 175 2139
4 5911 5861 5985 2130
4 6042 6039 4097 4098
4 4097 6039 1789 4098
4 4097 6039 3942 1790
4 4097 1798 4064 4099
4 4451 6344 6042 3756
4 5917 2018 3811 5778
4 4249 5345 4250 3571
4 4047 1999 2008 3814
4 2976 2977 2979 3220
4 5884 5773 6176 2001
4 5884 1992 5711 5773
4 3810 6168 5347 6172
4 5148 5106 1033 5064
4 5148 1042 5844 5064
4 5063 3958 5064 5106
4 5005 3958 5063 3198
4 3837 3993 2912 2913
4 3977 3958 3993 5844
4 5129 2916 2927 5133
4 3388 4184 5995 6251
4 3416 1208 6006 5352
4 4635 3106 3102 3050
4 3331 3223 3222 3224
4 2681 3373 5375 4207
4 2500 2510 2494 2499
4 4607 6004 2683 5125
4 3048 3104 4700 3047
4 4666 4588 6298 4575
4 5263 5266 4027 3909
4 5580 5516 820 819
4 5522 6001 4235 811
4 5522 5537 4235 6001
4 2904 3603 3848 3604
4 4711 4681 818 827
4 4192 3278 2865 5530
4 4723 4534 4603 4597
4 4534 359 4626 358
4 4534 358 4603 4597
4 3821 4352 5413 5788
4 2319 6120 5176 4667
4 2332 2330 2918 2919
4 6283 4758 5174 6120
4 4838 4239 1415 1406
4 3320 3405 3403 5703
4 6137 2734 6138 6139
4 2747 5664 5674 5658
4 4751 3405 3403 4763
4 6030 5838 5640 5812
4 5838 5640 1030 5638
4 5834 5821 1039 5833
4 5832 2076 5812 5867
4 5838 5821 1030 1039
4 5832 5826 5640 5812
4 5834 5838 1039 5821
4 3792 5701 4238 4845
4 4867 4238 908 5641
4 4158 4833 471 4814
4 3103 3049 3102 3047
4 4238 4845 916 4877
4 4875 4238 4901 4877
4 5937 4265 235 1518
4 5937 5958 1518 5939
4 5937 5939 6198 5958
4 6309 4265 5937 5958
4 5899 5911 5985 5901
4 5899 5862 5985 5861
4 5899 1094 5911 5901
4 5899 5255 1093 5901
4 5899 5861 1085 5863
4 6191 6178 1497 4245
4 6191 6192 1506 4968
4 6191 6303 6178 4245
4 3803 4953 4975 3116
4 3171 2944 3212 2700
4 4714 1164 4128 5970
4 4714 1163 5944 4128
4 4714 5970 4128 4663
4 4714 1172 5944 1163
4 3725 5963 3744 5944
4 3705 3697 4663 5924
4 5476 5542 5475 1797
4 5542 4064 1798 4099
4 6344 5562 5542 5541
4 3050 3105 5579 4706
4 4982 5012 545 4981
4 4982 5792 5015 5012
4 5486 5792 5037 5015
4 4982 544 4978 4981
4 5486 5792 4983 4996
4 4982 544 4981 545
4 5035 1005 5054 1014
4 5053 5035 4966 5054
4 5034 4966 581 5081
4 5035 5050 1005 49
4 5035 4966 5017 572
4 5273 3278 4192 5530
4 6117 3502 4780 3504
4 3102 3329 3504 3503
4 6117 4779 3502 5631
4 5740 1968 5722 1959
4 4112 5740 5722 1959
4 5740 5733 1960 6291
4 6230 5704 5715 5709
4 5740 5741 1968 1969
4 5679 932 5720 5722
4 5720 922 5709 5715
4 5720 5715 923 922
4 3282 931 5737 5719
4 5720 923 5722 932
4 5720 5740 5741 5722
4 5826 5640 1022 1031
4 5826 4194 2058 166
4 5826 1022 5640 4195
4 5826 5640 5812 5873
4 3549 5055 4650 3965
4 5609 6087 6037 5185
4 4294 4027 4391 4089
4 4333 4024 5292 4025
4 5533 5398 6052 6062
4 6343 3700 2510 5516
4 5264 5608 4029 4024
4 4025 5266 5264 5292
4 4696 3293 3278 5530
4 5556 4270 5571 2544
4 5832 5838 1031 1040
4 5832 5826 2067 167
4 5832 168 5851 1040
4 5832 5826 1031 5640
4 5960 5924 1145 5952
4 5960 5924 1154 1145
4 5960 1154 5388 1153
4 5960 5966 5277 5959
4 5933 6327 6245 6325
4 5234 4202 2106 2115
4 3200 5358 2753 5828
4 5173 5172 5300 648
4 2892 5077 2895 2913
4 6319 5156 6216 3864
4 4438 5866 5471 6021
4 5835 1053 5077 1054
4 4151 6313 5856 5896
4 4151 5431 5856 6313
4 3758 5466 6042 3755
4 4103 5454 5466 3609
4 6042 6344 4452 5542
4 5466 743 5474 752
4 3880 5988 4123 5460
4 6018 4850 6236 6237
4 4869 4868 4870 1626
4 6181 5793 6243 4283
4 4869 4870 1627 1626
4 4123 1618 4870 4039
4 5376 6106 2547 5599
4 5376 6106 2545 2547
4 5379 1875 4147 5378
4 5379 6106 1876 2545
4 5245 5247 5307 5285
4 5237 5238 671 5071
4 5237 5238 5265 670
4 5237 5265 661 670
4 5245 5546 5307 5247
4 5071 5307 5285 5237
4 3105 3106 3050 3046
4 5764 6054 1254 6034
4 6041 1263 5764 6057
4 5766 4119 5418 6036
4 5766 5764 6034 6054
4 4416 5764 1255 4417
4 5764 4417 6057 1264
4 3303 3146 4187 4908
4 3337 2954 2785 2953
4 2816 2856 2813 2817
4 3660 593 4350 584
4 3106 3960 3101 3104
4 602 4187 593 4152
4 2828 3145 2258 4350
4 5410 5087 1548 1557
4 5617 5381 1893 4336
4 6083 1894 5617 5600
4 5549 5380 6083 5617
4 5380 6083 5600 5551
4 3724 5963 5408 4045
4 2572 3726 3806 5222
4 5963 4714 4662 1173
4 5408 4290 1183 4503
4 3159 1562 3997 2256
4 3159 2828 2829 3145
4 3159 2257 5112 1571
4 2257 2258 5112 4999
4 2255 2258 2257 600
4 2505 591 2258 2255
4 2257 5112 5137 4999
4 2780 4274 4104 5240
4 5289 5155 674 5278
4 4295 5155 5289 5242
4 5363 5362 6269 5368
4 4915 6010 5992 4185
4 4338 1952 5708 5699
4 6158 5709 4737 4735
4 5704 4735 903 912
4 3773 4338 5731 5733
4 4338 5708 1951 4800
4 4519 5640 5638 1021
4 4519 1020 5638 5799
4 4518 5428 6030 4482
4 4518 5640 6030 5638
4 5917 2019 5778 6207
4 3814 4047 3813 2008
4 5778 6207 2019 2010
4 5778 6207 2010 6188
4 5870 4668 4489 5508
4 4489 4490 789 4545
4 4489 790 4490 5508
4 6279 4590 4563 4544
4 5870 6279 4489 4563
4 3673 2677 3847 3699
4 5126 4673 4614 4030
4 3700 6001 5516 6343
4 4219 4647 4638 4637
4 6056 4540 4541 1813
4 4540 1812 6075 4541
4 5533 6273 6062 6056
4 4540 6075 1812 1821
4 4428 4129 726 18
4 4017 5414 4404 727
4 5415 4031 4402 4459
4 4428 726 19 18
4 4032 302 4475 301
4 4852 5386 73 709
4 5386 72 1221 73
4 5991 5363 5386 4852
4 5991 5363 5368 5386
4 4913 5363 700 5362
4 5374 5991 5386 1212
4 4660 4647 4148 400
4 5618 4231 4288 5979
4 4647 4637 391 4638
4 4647 392 4637 4582
4 4579 4221 4580 5553
4 4100 4717 412 4617
4 3833 4745 5573 5575
4 4100 4692 5575 4691
4 4100 402 4096 403
4 5566 5642 228 2111
4 5642 229 1572 228
4 3613 3649 1573 1572
4 5298 5435 4024 4019
4 4191 188 5949 1151
4 4191 5950 5949 5943
4 4191 187 1161 188
4 4191 1169 5811 5943
4 4191 1169 5943 1160
4 4191 187 5966 1161
4 5374 5368 5990 711
4 5990 702 5342 703
4 4634 6269 5374 5369
4 5990 5368 5342 702
4 3783 712 5385 70
4 5003 4233 5169 4346
4 3862 2088 6319 2089
4 5171 5570 1591 6229
4 5171 1582 5570 3614
4 4233 5169 3128 6211
4 5002 5169 4233 6211
4 6256 6029 3986 4315
4 4929 6063 4363 4365
4 6177 6339 4363 6261
4 3742 3943 5461 5028
4 4673 4674 813 5560
4 3160 4673 804 5560
4 6072 6004 3160 5560
4 4673 5561 804 803
4 6004 4673 3160 5560
4 5324 5325 132 725
4 5324 4 275 133
4 5324 5455 133 1761
4 5324 6258 5303 1688
4 5324 1688 5325 6258
4 5324 5302 725 5455
4 5324 132 275 4
4 4914 1670 5384 1661
4 4111 681 4106 4105
4 4913 4914 5384 4105
4 4914 4855 1670 76
4 5940 5342 4127 694
4 5940 5371 695 4127
4 4257 5940 5371 5299
4 5280 703 5990 5342
4 5342 4127 5998 5940
4 2782 5244 5360 5240
4 5948 5392 1142 5950
4 5938 5284 5932 1132
4 4161 4849 5331 5907
4 5392 5284 1132 1141
4 5930 5950 6308 5943
4 3251 3443 4257 4258
4 4849 5907 5932 5331
4 5930 1159 4074 5949
4 5930 1150 5393 1141
4 4229 6100 4230 1355
4 4229 4671 110 393
4 4229 1355 111 1364
4 4229 4230 4629 384
4 6000 79 672 5226
4 3845 4612 3844 4613
4 4275 6000 5333 5276
4 6000 5275 5982 5333
4 4612 6110 5606 6111
4 4607 4614 6004 6110
4 5229 4918 1471 4933
4 5229 4918 1462 1471
4 6299 4910 5229 4918
4 5229 1462 4910 1463
4 5249 1676 6020 1677
4 4184 1233 5249 5987
4 5359 3874 1232 5987
4 3874 5987 5249 1232
4 5249 205 6017 1676
4 3861 6218 5212 2090
4 3651 4008 5905 3652
4 5692 5021 3691 3693
4 4826 6276 5138 5909
4 5593 6218 2082 5623
4 4418 4066 294 285
4 4418 294 4440 121
4 4418 4367 285 122
4 4528 3734 2342 3069
4 4528 2342 2370 2341
4 5842 4505 5889 5235
4 5945 5913 5997 2150
4 5945 2343 6239 2149
4 5947 4204 1129 3698
4 4273 646 5183 645
4 4273 6235 5182 5993
4 4273 5230 5767 5183
4 6234 5320 5140 6235
4 3407 3580 4782 4763
4 5632 3580 4733 4785
4 5632 4792 3378 4817
4 4733 445 4645 4785
4 4620 4566 365 374
4 4620 4596 798 26
4 4620 4641 27 807
4 4620 365 4563 4596
4 4747 1391 107 1400
4 4747 106 1400 107
4 4748 1409 105 6141
4 4748 6141 4803 1409
4 4748 4749 4803 4690
4 4728 5604 4754 4729
4 4754 852 5604 861
4 4754 861 5604 5648
4 4754 4729 5604 4712
4 4754 4712 852 32
4 4707 4709 4728 428
4 4112 5706 5691 914
4 5706 905 5681 5691
4 5706 904 5681 905
4 5706 5681 904 4341
4 6230 5733 6288 6291
4 4407 283 4068 15
4 4407 4068 283 4402
4 4407 15 4068 1759
4 4382 4068 1758 3824
4 5519 4783 3949 4788
4 4837 5395 4239 1397
4 5625 6121 1398 1389
4 2920 5639 2321 4639
4 3766 5396 4337 1387
4 4612 5606 4610 6278
4 4643 6284 4644 4718
4 3833 4745 3738 5573
4 1501 5096 4242 5612
4 4952 2021 5093 5094
4 4952 2021 5094 5613
4 5611 5094 5614 6207
4 4240 4250 4241 5473
4 5525 6137 3933 6059
4 6283 6120 6133 4758
4 5174 6120 4758 1393
4 6120 1394 5639 6133
4 5174 6120 1384 5176
4 3456 3957 3455 4562
4 2416 5503 5817 3555
4 4424 280 4429 289
4 4209 748 5446 5311
4 4209 747 4448 5446
4 3957 4562 764 765
4 3436 4457 3433 3971
4 3438 4478 3437 4149
4 4004 4005 757 5311
4 6309 5958 5937 6198
4 5101 5968 6309 5958
4 6309 2048 5937 4265
4 6309 6180 6198 2047
4 6333 5215 6309 6310
4 4104 4106 4105 4201
4 4104 4201 4105 5384
4 4111 5226 4106 681
4 4111 4914 77 690
4 4111 1661 4914 5384
4 4111 4914 4105 5384
4 4873 484 4863 4856
4 3464 4378 5047 3462
4 5942 6245 6237 2154
4 5942 6237 6238 2163
4 2583 4766 5219 5128
4 5942 6238 2162 2163
4 5787 6005 6252 6254
4 6018 4869 4850 4870
4 4831 2669 2183 2192
4 4830 4831 2669 3978
4 2435 219 4831 1662
4 5109 223 4868 2156
4 5109 224 1617 223
4 4871 2165 4868 222
4 4871 4872 4850 2165
4 6110 4607 4614 4612
4 3810 6167 6172 5347
4 6167 5347 1466 6172
4 5345 6166 1475 1484
4 6167 5347 1467 1466
4 4420 4299 1240 1241
4 4466 4299 4420 6028
4 3516 4420 4299 6028
4 4211 4454 4420 1241
4 4375 3004 3093 3063
4 3948 4776 3949 4802
4 3949 458 3947 457
4 3949 4802 4776 457
4 3949 4776 4761 448
4 4381 1756 4429 4380
4 4381 281 4429 280
4 4381 4374 1756 12
4 4381 4429 4374 280
4 5628 5596 6130 1878
4 5628 5663 1887 1888
4 5572 5597 4140 5605
4 6130 3330 4613 5628
4 5597 841 4140 5605
4 4613 5597 4559 6130
4 6315 5622 6281 5620
4 5905 5098 3652 3648
4 5098 3648 4623 4349
4 5098 3648 4349 1554
4 5098 5354 1545 1554
4 5353 707 5351 698
4 5387 5353 64 707
4 5353 5351 5393 5284
4 5281 5284 5353 1131
4 4839 3901 4443 4401
4 3686 3901 4443 1283
4 2863 4775 4192 2865
4 3901 3686 4401 3679
4 4443 3901 4553 1282
4 4443 4401 303 4442
4 4443 5389 6057 1273
4 2280 5229 4856 4910
4 2280 492 4856 4891
4 98 501 492 2280
4 2280 4366 2281 4891
4 5334 5613 5761 6163
4 5761 1473 5807 6163
4 5761 2011 5613 6207
4 5761 5613 6126 6163
4 5760 5773 2002 6188
4 5760 5662 2003 1994
4 4457 309 3432 3433
4 301 300 3432 4459
4 5399 3552 1287 5498
4 4834 4134 1289 1288
4 3708 4015 3002 4013
4 2414 2567 2566 2315
4 3970 3894 3975 3971
4 2760 2576 3328 2473
4 2994 3816 5700 2996
4 2437 1671 200 6
4 2436 2437 200 1238
4 2437 6 199 218
4 2435 2437 218 1671
4 2437 2569 2201 199
4 4830 2532 2668 2670
4 3848 3605 3847 3845
4 4609 6093 5291 4226
4 4696 5548 1324 1323
4 5529 1325 4578 4676
4 3818 1316 3820 3821
4 5548 1323 5511 1314
4 4578 3821 1325 1316
4 2341 2340 2370 2371
4 2341 2343 5915 6239
4 2341 2371 2372 1111
4 2341 1103 5901 5915
4 4528 6239 2341 5901
4 4193 4521 5815 4945
4 4518 4522 5635 5873
4 4514 4522 4521 5636
4 4193 1013 5815 4194
4 4193 4517 1012 4195
4 3390 1730 3506 3505
4 3506 1730 3393 1731
4 5117 5121 5122 6258
4 4487 3597 4033 4473
4 3506 5421 4453 1731
4 5436 3506 5421 4453
4 3943 5425 5437 5461
4 5121 5434 1695 5464
4 5259 5492 3944 5260
4 5122 4206 5304 5434
4 5492 3944 5491 4206
4 5464 5122 5434 4206
4 5074 4574 4597 5024
4 4723 4574 4597 4603
4 4574 1327 6095 4625
4 5074 1328 4574 5024
4 4574 6095 1327 1336
4 5074 4574 1337 4722
4 3353 6272 5499 5500
4 6068 6272 4131 4132
4 4131 4132 6272 1303
4 6272 1304 3352 6090
4 3545 3546 4787 6270
4 2546 6066 6106 1877
4 6066 1356 5600 1886
4 6066 6106 5600 5599
4 6066 1877 254 1886
4 5039 5017 5033 562
4 5487 5015 5486 5037
4 5009 4982 5039 553
4 5039 5069 5017 5050
4 5487 5036 5069 5015
4 3309 3134 4986 3950
4 3308 3310 5086 3309
4 5358 5086 5006 3950
4 3980 3308 2733 5358
4 2892 2895 2894 2913
4 3950 596 5006 597
4 3950 597 5006 5092
4 3950 5144 606 5092
4 3679 4069 312 4401
4 4069 313 4401 4419
4 4483 4473 4526 323
4 3594 4069 3901 4401
4 3598 4033 4034 3597
4 3283 4602 5741 6288
4 3121 5978 3282 5668
4 3773 5758 5733 5731
4 3282 5668 921 930
4 4739 4736 5728 4738
4 6287 4601 3773 5758
4 3282 5668 4737 921
4 4842 4884 491 500
4 4842 491 4884 4885
4 4842 4859 4884 5723
4 4812 4859 934 4928
4 4842 5723 41 933
4 4812 4885 4842 4884
4 6193 6295 3835 5008
4 4244 3835 6342 6295
4 6193 6342 3835 6295
4 3748 2784 4007 4009
4 3892 5539 6215 6192
4 5803 6204 1513 1514
4 6193 5803 1505 6191
4 4940 6342 5802 1513
4 4940 4251 4252 6342
4 4976 4260 3510 4937
4 3776 5008 6196 4934
4 4920 1495 4251 1494
4 4940 4252 5802 6342
4 3701 1201 4290 1192
4 3701 3223 4290 3418
4 5222 3701 3221 3223
4 3701 1202 3051 3224
4 4523 771 5494 780
4 4523 4545 24 780
4 4523 5494 4321 4564
4 4523 4320 771 23
4 6025 209 1239 266
4 6025 7 209 266
4 6025 6029 6026 1769
4 6025 6027 6047 1239
4 6025 6026 1680 267
4 6025 1769 267 7
4 6025 6028 4466 1680
4 6026 6029 6051 1768
4 5620 6281 6223 5623
4 5622 6281 2065 6310
4 6223 5623 6281 2074
4 4623 5354 6223 5098
4 3651 6210 1538 1537
4 6315 1546 5098 1545
4 6315 5098 5354 1545
4 6281 5623 2065 2074
4 6314 6281 5967 6310
4 6314 5354 2075 232
4 6314 4266 5967 1536
4 4736 4734 3273 5728
4 3119 4867 5650 4811
4 3580 4794 453 4760
4 3791 4867 4238 5701
4 4867 899 5701 5650
4 4497 2923 4806 5655
4 3119 3791 5701 4867
4 4461 4458 318 4476
4 3438 4458 4476 4149
4 3427 4461 4458 3433
4 4458 308 3433 309
4 5263 3298 3909 4027
4 4613 6130 6263 3330
4 4635 3233 5663 3329
4 3106 3960 3105 4706
4 3233 5663 3329 1897
4 3233 1898 3329 3503
4 5476 5475 137 1797
4 5476 1788 4099 1797
4 5476 5542 1797 4099
4 5476 5474 1788 136
4 5576 5565 806 815
4 5576 5563 1842 142
4 6111 5439 5576 5565
4 5576 5564 143 1851
4 4112 5715 914 923
4 4112 5691 1950 154
4 4112 6291 5740 1959
4 4112 5722 155 1959
4 3578 3961 1905 4232
4 3578 3961 860 869
4 3578 4141 1896 148
4 3578 149 3579 869
4 4184 5887 1224 5987
4 4184 5987 5249 6020
4 4185 4184 6020 5987
4 4184 5249 6017 6020
4 5717 5662 1994 241
4 5662 1473 5761 2003
4 5662 1464 240 241
4 5074 4525 4603 4722
4 4525 1346 1337 113
4 2575 2304 3024 2587
4 4525 4693 4605 4722
4 107 420 411 1391
4 4747 420 4692 4717
4 5046 5725 4907 4923
4 5736 3319 4899 3640
4 5725 508 4162 4823
4 5725 4923 507 4907
4 5061 4823 4162 4860
4 5061 4907 5046 5725
4 6346 4884 4859 4162
4 4378 4858 4864 4911
4 6327 5111 2147 2138
4 2719 3293 2864 3299
4 6327 4360 5111 6322
4 6327 4347 6322 2137
4 5415 4129 4428 293
4 4031 5414 6260 4404
4 4031 5462 6260 4411
4 5415 4428 4017 4032
4 5414 4408 717 4129
4 4427 5414 718 4404
4 5047 4873 5712 4863
4 4407 5414 4129 4408
4 3101 3301 3959 6285
4 5693 3561 3297 5670
4 3296 3831 3561 5677
4 5656 868 3960 3962
4 4789 6208 886 5675
4 3106 3960 4700 3105
4 4789 3831 3296 5677
4 5423 5953 1139 1148
4 5423 4654 2175 179
4 3729 3657 5423 2184
4 5954 3657 5423 5953
4 4389 6317 5876 5878
4 4388 5407 5645 5256
4 6200 6202 5879 6201
4 6199 6316 5865 5228
4 6199 6024 4154 5228
4 6111 1852 5439 5606
4 6110 6111 5439 5606
4 6111 5576 5439 1851
4 6110 5560 5586 4674
4 3920 4235 5537 6343
4 4078 5484 3055 5051
4 6104 5463 5496 5541
4 5496 1826 5509 5513
4 5496 5463 1817 5541
4 3107 3371 3738 5601
4 4702 5601 1361 6112
4 6108 5601 4142 1370
4 4679 2322 4667 4715
4 2516 3990 2508 2905
4 5601 6112 1362 1361
4 4142 1371 5601 4745
4 3549 4041 4040 5536
4 3208 5053 5106 5081
4 5053 5054 5818 1015
4 5053 5825 5106 1024
4 5052 5053 5081 4966
4 5052 3208 5053 5818
4 6314 4266 1536 233
4 6314 6281 2066 2075
4 6315 6314 6281 5967
4 4952 2021 5613 2012
4 4952 5613 6126 2012
4 4952 5612 5613 5094
4 4952 6163 5612 1482
4 4952 5613 6163 6126
4 4865 4844 4159 4843
4 4159 4160 481 4885
4 3792 4845 4159 5649
4 5684 4845 4877 4843
4 4900 4682 837 3323
4 4682 3323 836 837
4 3699 4207 5375 6001
4 3848 3845 3677 4101
4 4682 836 4220 827
4 4682 4711 827 4681
4 4680 4682 4681 4711
4 4277 6127 5569 4281
4 3843 4169 4259 6162
4 4169 994 4945 4946
4 4169 4946 5804 993
4 4169 6162 5771 985
4 4083 5782 5797 5783
4 4169 6162 984 4259
4 6288 5720 5741 5737
4 3282 5720 5737 931
4 3282 5668 930 5719
4 6288 5741 5720 5740
4 4069 322 4483 4504
4 3678 4069 4548 4504
4 3594 4069 4483 4504
4 3678 3679 4548 4069
4 4836 4302 4303 4449
4 5765 5972 5766 6034
4 4303 4066 295 4442
4 4302 296 4449 305
4 4302 305 4035 4419
4 5765 3527 4463 4835
4 6045 4373 6035 4119
4 4011 6035 5481 6271
4 4014 1253 4439 6034
4 6339 5491 5465 6082
4 4013 3987 5480 3494
4 4014 1262 6040 1261
4 5955 4114 4918 4933
4 3300 5609 3553 3350
4 5394 4247 4889 4863
4 4114 4918 1470 4116
4 4114 4935 1479 4933
4 4931 3510 4937 4976
4 4095 5955 4114 4116
4 4172 4912 3775 3789
4 5549 5175 6079 5550
4 5549 5617 6083 5616
4 5549 6118 5550 5552
4 5550 5552 6118 1366
4 5146 1041 5163 1050
4 5146 5163 5127 5147
4 5146 4182 1041 53
4 5149 5146 5147 5846
4 5034 51 5062 590
4 5034 5053 1023 1014
4 5034 5053 5081 5106
4 5034 5035 1014 50
4 4188 986 5775 977
4 4188 5786 2013 161
4 4188 5786 977 5774
4 4188 5797 2022 6304
4 2445 6329 6249 3978
4 6023 1653 6249 3978
4 4869 6249 1645 5191
4 2442 1654 6249 5191
4 4113 5039 554 563
4 4113 5012 987 47
4 4113 48 5050 563
4 4113 5039 5015 4982
4 4151 5161 6313 5896
4 4150 5469 5161 5896
4 4151 5841 5856 4237
4 6021 5841 4237 5853
4 2858 574 2849 573
4 4960 2869 2858 4046
4 2848 2816 2858 2849
4 3748 2750 4009 3749
4 5820 6204 5545 1523
4 5082 5001 6183 6184
4 5058 6175 1515 4967
4 5058 5545 1524 6175
4 5058 5545 1523 1524
4 4728 4729 5979 5604
4 4728 427 4709 4753
4 5618 4728 4709 4753
4 5732 5696 950 959
4 5732 6301 6173 5696
4 5732 5754 159 1995
4 5678 5743 5732 6173
4 5281 5331 689 698
4 5281 5224 1122 62
4 5281 5353 63 1131
4 5281 689 5326 5224
4 4871 6023 221 1644
4 6023 6329 2174 2183
4 4871 4872 2174 6023
4 6023 3978 6249 6329
4 4158 4814 471 4160
4 4158 4794 4760 462
4 3792 3119 3791 5701
4 5684 4159 4885 4160
4 4794 4833 461 462
4 3124 4158 4794 4760
4 5336 1231 3874 207
4 3874 1678 207 206
4 3874 5249 206 1232
4 5992 1660 5384 1669
4 5965 708 4855 699
4 5987 4185 5359 6009
4 4854 1678 5336 3874
4 3616 4073 3870 4071
4 4435 4437 4544 345
4 4486 4437 336 4067
4 4544 4435 4436 4437
4 4486 4485 335 336
4 4471 4486 4067 4437
4 3783 5990 712 711
4 3783 5990 5385 712
4 5374 5369 1204 1203
4 5374 71 3783 1203
4 5374 3783 5990 5369
4 5571 6037 1321 4270
4 4391 5557 4392 4089
4 4391 5557 4089 6092
4 5571 1330 2544 4270
4 4416 1246 4371 1247
4 4371 217 2872 1247
4 4371 4369 1743 216
4 4700 3670 867 3960
4 3296 3959 3561 3831
4 892 5658 883 4965
4 3670 876 5656 3606
4 3959 5656 3960 3962
4 5093 2021 238 2030
4 5444 5445 4098 1779
4 5093 5095 2030 237
4 2829 3132 3130 2830
4 2856 5060 2817 3690
4 4009 4010 5411 4008
4 2239 6217 1558 1559
4 2813 5060 2814 2817
4 3532 594 5080 3660
4 5060 2817 1542 2814
4 2342 5886 5945 3066
4 2179 3855 4056 2170
4 2343 2342 5886 5945
4 5767 5864 5300 5230
4 5840 5847 1109 1100
4 2694 3192 3194 3696
4 4854 5336 1678 1679
4 5336 4853 208 1679
4 5336 207 3874 1678
4 5359 5336 1231 3874
4 3656 4662 5427 1165
4 5427 183 5970 1156
4 5427 4664 1157 1156
4 4822 951 4824 960
4 4822 4962 44 960
4 4822 4909 951 43
4 4822 4962 960 4944
4 5935 2371 1112 1121
4 5935 5915 2148 176
4 5935 4655 2157 2343
4 5935 4656 177 2157
4 4456 3786 127 1733
4 4456 4460 719 720
4 4456 4460 720 5426
4 4455 719 4456 4460
4 4456 4460 3787 4403
4 5444 5445 1779 1770
4 5111 224 2147 225
4 5109 4870 4850 4868
4 4148 4579 5568 4752
4 4752 4231 4415 5979
4 4652 4580 4278 845
4 4652 5594 5553 844
4 4579 4652 5553 4580
4 4752 4729 5594 5604
4 4279 854 4652 4278
4 5610 5596 1878 146
4 5610 4140 842 851
4 5628 5610 5663 4140
4 5610 5597 842 4140
4 5149 5154 617 626
4 5149 5146 1050 54
4 5149 55 2890 626
4 5149 5154 5846 5147
4 4707 4709 428 437
4 4707 4754 861 33
4 4707 34 4708 437
4 4707 4728 4709 5648
4 3868 5314 4781 4071
4 2881 3655 5322 5296
4 4847 5331 5284 5351
4 5928 4295 5289 4304
4 4755 1189 5065 1190
4 4781 4183 5338 1196
4 5184 4391 5262 5185
4 6063 6069 1710 4365
4 6063 6069 1709 1710
4 3702 5481 6063 6069
4 5481 6063 1709 3517
4 3002 3987 3702 4013
4 1691 1692 6174 6063
4 6063 1692 4363 1701
4 4413 258 257 1850
4 257 4269 1320 1850
4 1850 4269 1320 4267
4 4267 4413 1850 1841
4 4267 4413 6088 1320
4 4131 4413 1311 6088
4 4413 1841 6086 258
4 5963 5408 4045 1182
4 5963 5408 1173 4662
4 3705 4714 5924 4663
4 3705 5963 4662 5408
4 4275 4201 1651 1652
4 4275 1643 5226 1652
4 4111 5226 4201 4106
4 4693 3737 5598 4629
4 5964 4096 4672 4618
4 4672 4618 395 4043
4 4672 4618 4096 394
4 4672 4648 385 4090
4 5860 5863 1076 1085
4 5860 4356 2112 172
4 5860 6317 5862 2121
4 5860 5861 173 2121
4 6230 5978 6288 3773
4 5704 912 5709 4735
4 5704 913 5706 5715
4 6230 5706 6291 5715
4 5704 5706 904 4341
4 5346 5345 6167 1476
4 5345 1475 6167 1476
4 5332 6167 5346 5345
4 3586 5345 6166 6167
4 5345 6167 1475 6166
4 4382 4383 281 282
4 4382 13 4381 1757
4 4382 4381 4380 1757
4 4382 4068 14 1758
4 5294 5266 5292 1846
4 6299 4911 5047 4910
4 4889 494 4890 493
4 4889 4856 493 4891
4 4889 4863 484 4856
4 5294 5268 6277 5266
4 1351 4218 1342 3681
4 3737 4675 4611 4750
4 4042 377 4648 4650
4 4042 4672 4648 386
4 5294 1846 5268 5266
4 4865 40 4842 491
4 4865 915 4843 924
4 4812 4843 4865 4885
4 4522 4521 5636 2050
4 4522 5815 4193 4521
4 4514 4522 4193 4521
4 4522 2058 5873 4194
4 5175 6209 1374 1383
4 6083 5550 1365 5551
4 5679 5737 932 941
4 5679 5722 1968 156
4 5679 5737 5718 5741
4 5679 5720 932 5737
4 5157 86 1580 5137
4 5157 5158 85 618
4 5714 497 4899 4923
4 3133 4335 946 947
4 4179 5798 4894 4893
4 3508 4932 4308 3707
4 2741 4972 6297 6246
4 2365 3133 6014 3637
4 4963 4964 542 533
4 3812 3924 2007 5164
4 4179 4893 4894 487
4 5042 3006 4246 4247
4 5410 4886 5087 1557
4 2709 2710 2813 2856
4 4886 5087 1557 1556
4 6315 5967 1537 1536
4 5591 5592 3693 5212
4 5689 5729 6213 1935
4 5632 4792 5618 3381
4 4497 4500 2320 4496
4 3375 4965 3376 3380
4 5305 4699 3572 4700
4 3375 3483 2487 4965
4 2405 2974 3992 2354
4 2906 4900 2905 4272
4 4289 3483 873 4291
4 3104 3670 3960 5656
4 3287 4287 3050 3677
4 3174 2330 2321 3935
4 4080 4475 302 311
4 4080 4428 735 19
4 4079 4080 5468 4475
4 2436 2437 1671 200
4 2436 6015 201 1672
4 2436 6015 1237 201
4 2670 2569 2437 1238
4 4830 2533 2668 2532
4 2710 5060 2755 5091
4 3531 4189 5059 575
4 3531 584 3660 4350
4 2816 4046 4960 2858
4 3532 3531 5059 576
4 4000 2964 5974 5208
4 3672 4527 4387 3312
4 4655 6328 3716 2340
4 5907 5326 5331 4161
4 5971 5923 6228 5231
4 3195 5749 4924 5847
4 5931 5895 5225 5907
4 2881 5322 3655 5344
4 3543 5320 3237 6234
4 6009 1677 3874 5249
4 4185 6009 5987 6020
4 6009 3874 1677 1678
4 6009 3874 5987 5249
4 2804 5352 2886 2897
4 4751 443 3403 442
4 4264 3402 442 5703
4 4264 4593 3402 5703
4 4821 4026 3094 4176
4 3320 5703 3403 3402
4 4157 3404 3402 4176
4 3040 3094 4593 3402
4 2491 2746 3668 2743
4 3040 3404 4176 3402
4 6205 2055 6180 5216
4 5837 2045 6205 2054
4 5837 3487 6205 2045
4 6205 5216 2054 2055
4 5100 6180 2046 2047
4 3487 2036 6205 2045
4 6205 2036 5739 2037
4 4052 4767 5000 4061
4 6102 3498 5582 5837
4 2940 2624 3779 2939
4 5622 5620 5623 6281
4 4058 5449 6206 4060
4 6027 1239 4466 1240
4 4466 4420 210 1689
4 6025 209 4466 1239
4 5989 203 5994 1235
4 5989 6016 1236 6008
4 5989 1673 6016 1674
4 5989 1674 6016 6019
4 4211 4454 1241 1242
4 6277 5167 5261 5294
4 4211 1242 212 3488
4 4118 4211 4454 3518
4 4211 211 4420 1698
4 4361 5955 4366 4933
4 2280 4366 4891 5229
4 2280 1472 4366 5229
4 4366 1471 5229 1472
4 4361 4916 4366 4355
4 2281 4366 1481 4355
4 5683 3638 3640 6346
4 5514 5061 5747 5045
4 4812 4885 4865 4842
4 6346 4859 4812 4928
4 4812 4813 925 4843
4 5972 6045 6054 4373
4 6035 4119 4373 1726
4 4119 4373 1726 1725
4 6026 6029 1768 1769
4 6026 6255 1768 6051
4 6025 6026 267 1769
4 6026 6051 6029 6028
4 5444 135 5474 743
4 5954 181 3849 1157
4 5954 3657 2193 2184
4 5954 3849 3657 4664
4 3221 3051 2196 2197
4 3284 3419 3221 2196
4 3284 3221 3701 3051
4 4036 3223 5222 3221
4 5759 2031 6306 2040
4 5759 5815 164 2040
4 5759 5771 4945 6306
4 5789 5759 6306 5771
4 2332 2331 2320 4497
4 5396 5625 5395 1397
4 5625 5395 1397 1398
4 4142 4746 5625 1389
4 5625 5395 1398 6121
4 3833 4100 4717 4692
4 3083 5625 4142 4746
4 5424 5448 721 722
4 5424 3786 1724 128
4 5424 3785 5419 1724
4 4254 5419 5424 5450
4 5113 5157 4999 5085
4 5113 4999 5157 5137
4 5113 5112 1579 5114
4 5113 5137 5157 1580
4 5113 5114 1579 1588
4 4756 5819 1197 5338
4 3417 3450 2886 3396
4 5222 5068 4359 3446
4 3387 6251 4185 4184
4 3644 6158 3867 3645
4 6299 5955 5229 4891
4 3591 5735 6171 5479
4 4238 3792 5684 3791
4 3188 2936 2933 3584
4 4665 5423 5953 5947
4 3657 5423 5953 4665
4 3656 3806 4664 4662
4 5973 5068 4359 5222
4 1846 5294 5268 1837
4 3722 4276 5749 5910
4 3727 4657 4655 3729
4 3900 3728 2176 3729
4 3064 5627 3067 3066
4 3192 3706 5282 3696
4 3446 5222 3223 4290
4 3449 3447 3445 4072
4 3655 5322 676 5344
4 2881 3655 2540 5344
4 3069 5946 4530 3071
4 4512 4458 4149 317
4 4472 4458 317 308
4 3438 6294 4471 4476
4 4037 3957 4562 4488
4 4003 3788 3784 4004
4 3904 4409 3907 5822
4 2403 2578 3259 3911
4 4677 5330 6331 6078
4 5673 3507 6055 6271
4 4508 4453 5902 3787
4 3662 4034 5370 3597
4 4431 3742 3943 3741
4 4295 2844 4628 2540
4 5294 1837 6060 6277
4 4755 1188 5819 3745
4 3194 5282 1126 1127
4 2290 2881 5405 5196
4 3870 5314 4071 5887
4 5992 1668 6010 1659
4 3485 3868 3869 4633
4 5972 6054 6034 4439
4 2549 3856 3998 3853
4 5981 2160 5997 2151
4 5981 2160 3066 5997
4 6318 2151 5997 5946
4 2370 3734 2372 5847
4 4697 4798 6182 5128
4 4297 6252 4056 2171
4 5934 4850 6237 4851
4 3069 5945 2343 6239
4 2914 2927 2917 2916
4 4512 316 4472 317
4 4512 317 4472 4458
4 5925 307 4472 316
4 3436 3437 4472 4458
4 3427 3436 4458 3437
4 4208 3970 4472 307
4 307 3970 4472 3971
4 3507 1728 6264 6055
4 3390 3507 1720 1729
4 3392 3393 1721 3400
4 3389 3710 3470 5436
4 5123 5437 4314 5422
4 3399 4365 5031 5029
4 3390 3506 1730 3393
4 3390 3393 1730 1721
4 4841 4296 3751 6071
4 3299 3349 5548 3351
4 6070 4631 5509 5496
4 2724 3351 3350 3352
4 3816 2996 5801 5700
4 5263 5268 3544 5267
4 6345 5540 5555 5528
4 4573 4632 1828 5595
4 5972 6040 4642 4014
4 4632 3333 4787 6074
4 5765 3939 4463 3527
4 4573 5595 1837 6277
4 4573 5595 1828 1837
4 5533 3752 5398 3750
4 3059 3293 5548 5412
4 3908 6277 5266 5167
4 3022 3181 3021 3182
4 5572 5607 3677 5605
4 4780 4062 4779 4280
4 2518 4743 2905 3323
4 4219 4646 5567 4222
4 5141 4622 4683 4658
4 4219 4622 4646 4637
4 4537 4695 4535 4621
4 6127 1890 3504 5569
4 6127 4780 4779 4280
4 3766 4667 1377 1386
4 3287 4780 4277 4125
4 3846 3677 3845 4613
4 4635 3106 3050 4706
4 4494 3289 3288 3290
4 6179 4137 5497 6279
4 6230 3773 5733 4338
4 4494 4181 5390 2421
4 3793 4158 4160 4814
4 4643 3289 3405 6284
4 5766 5972 6054 6034
4 5632 4645 4793 5621
4 3403 3402 442 451
4 2797 2977 2326 3374
4 3483 5658 883 874
4 5653 5655 1928 1919
4 3934 5721 5653 6113
4 2486 3296 3606 3670
4 6059 6150 6138 6114
4 2921 5603 4758 6133
4 5961 4828 2731 6136
4 3591 3592 3593 4820
4 3318 3584 5796 6085
4 4640 3044 5395 4995
4 2729 2738 2739 4972
4 3934 6114 6059 2734
4 5965 4852 708 709
4 5965 4852 4855 708
4 6003 5965 4852 4854
4 5765 3939 5972 4463
4 4913 5363 5965 700
4 3776 6295 3834 6196
4 1468 4115 4110 4109
4 5008 4245 1496 1487
4 3776 5008 4934 4245
4 5008 1486 4934 1487
4 4934 1477 6196 4912
4 4115 4114 4935 1478
4 4920 1486 5008 1495
4 5008 4934 1486 6196
4 6193 1495 5008 1496
4 5008 1487 4934 4245
4 3835 6191 5008 4245
4 2443 5790 2445 6005
4 6018 4798 4123 5934
4 3365 2443 3450 3153
4 2668 2532 6250 2671
4 5415 4031 4017 5414
4 6022 2668 4830 2533
4 5856 5077 1045 1054
4 2892 1045 5077 1044
4 5856 6313 5077 5896
4 2892 1044 5077 2913
4 3996 5077 5835 5364
4 3996 2913 5077 5364
4 2573 2186 3900 2572
4 4665 3729 2185 3657
4 4503 2571 3656 2573
4 3721 3698 3696 3722
4 2177 3900 3728 2176
4 2573 2571 2194 2195
4 3858 3716 3717 3728
4 4665 2573 3657 2185
4 2816 4046 2828 2830
4 3308 3621 2733 5827
4 4807 5453 2027 2026
4 3875 4919 4998 3876
4 5209 5208 6290 2134
4 5980 2133 6290 2134
4 5891 5206 6290 6247
4 5980 6247 6290 2133
4 4000 6290 5891 5206
4 4200 5207 2115 2124
4 2959 2957 2955 5974
4 5415 4407 284 283
4 3655 677 5322 5296
4 3655 676 5322 677
4 5295 667 5322 676
4 5210 5322 668 5211
4 2881 5296 5322 5211
4 5210 5322 667 668
4 3712 5311 4323 3421
4 5122 5454 5117 5302
4 6042 6043 4064 4097
4 3758 3755 4103 5466
4 3784 4004 4209 5311
4 5121 5119 3940 5437
4 4432 4399 5319 4400
4 3420 3712 3422 3421
4 4224 362 4586 4636
4 4224 352 4524 353
4 4608 4226 4225 361
4 4224 362 4225 361
4 6169 4653 4081 6170
4 4081 379 4653 370
4 6169 4225 4081 370
4 6117 1900 5581 5631
4 6117 1891 5581 1900
4 4741 5581 1891 1892
4 4741 4336 5581 1892
4 5202 5201 4336 6128
4 5581 4336 6128 1901
4 5298 5435 5125 4333
4 6345 6072 5251 3029
4 4610 4144 4019 4286
4 6260 4407 5414 4031
4 2899 2405 2974 2407
4 4614 4673 4674 4030
4 5558 5567 4668 4684
4 5264 5608 4024 6099
4 3278 3293 2865 5530
4 6099 1863 4144 5435
4 4965 3376 882 891
4 2263 2270 2266 2268
4 3283 6186 3466 5719
4 5708 6230 3645 5682
4 3209 2976 3103 3220
4 5652 875 3670 3606
4 3790 3124 4462 3098
4 5658 3606 884 875
4 3483 3380 873 882
4 5305 865 4699 866
4 4821 4176 3094 4175
4 5415 4407 4129 284
4 2922 2923 5655 5654
4 4861 4175 4796 469
4 2292 5013 4163 5104
4 4821 4774 3094 4783
4 4796 461 4794 4833
4 3792 5684 3793 4159
4 3272 3273 3271 910
4 5647 909 3271 910
4 2743 3270 901 3272
4 3790 3097 3791 3119
4 4866 3271 5641 4867
4 3271 5641 4867 909
4 3866 2747 2980 2744
4 3999 4811 891 900
4 3592 4165 5738 4820
4 5758 6287 5731 3773
4 3360 5690 3359 965
4 5690 6014 964 4906
4 3133 955 4335 6014
4 3361 3873 3872 4259
4 3812 3815 4091 2840
4 2853 5152 3120 4598
4 3125 5690 4335 5151
4 3669 4738 5728 4734
4 5712 4863 476 4698
4 4818 3947 466 4802
4 4818 5712 4873 475
4 6157 4379 6159 4377
4 4110 4874 1451 1450
4 3802 6197 6303 6178
4 3723 3803 3115 4947
4 3808 4935 3776 4934
4 3202 3206 5102 4168
4 4903 4905 4904 4991
4 6184 3850 5001 5007
4 6197 5083 3149 4956
4 5161 2559 2960 2895
4 4153 4703 4154 5089
4 2911 2895 2913 2894
4 2946 2947 2949 5666
4 4501 3730 4507 4506
4 2888 3917 2442 4357
4 2845 2691 2690 3248
4 6324 5218 4501 5194
4 5938 1132 5392 5284
4 5309 2878 5197 5895
4 3916 5840 5845 5914
4 5930 6308 5950 5392
4 2664 2880 4394 5197
4 5309 5197 5265 5895
4 5131 5133 1620 1629
4 1612 5130 5456 6134
4 5220 2584 5004 5171
4 4048 3619 5456 6134
4 5456 1622 3620 1621
4 5129 5132 4050 5130
4 6241 1612 5130 1611
4 5130 5132 6323 1611
4 4441 4436 5870 4539
4 5912 5983 3762 5845
4 2541 2542 5585 5751
4 2968 2763 3236 2965
4 5295 5751 5258 5254
4 4295 5288 5289 5155
4 2693 4591 2549 3068
4 5842 6012 5192 5893
4 4274 4275 5276 4106
4 5753 2772 5241 2781
4 5819 1187 5343 1188
4 5343 5819 3443 4258
4 5819 5343 1187 4258
4 4755 3745 1189 1188
4 4756 4781 5338 1197
4 2689 3412 3448 5068
4 5003 2956 4346 5651
4 4213 3129 3602 3128
4 2987 2989 5898 2990
4 2987 5143 5898 6320
4 3129 3602 3128 2483
4 2925 5460 1629 1638
4 6181 5942 4283 6321
4 6233 2957 6181 6231
4 3721 3854 5222 3726
4 3769 3672 3914 2236
4 5881 2964 4205 2126
4 4764 4049 6134 6320
4 5235 5889 5936 1072
4 5235 1072 5936 1081
4 5888 1080 5235 1081
4 5842 5192 5235 5893
4 5888 5893 5235 1080
4 4505 5871 5192 5836
4 4505 5871 5235 5192
4 5763 4367 6044 2872
4 5763 4416 4367 4066
4 5763 276 4367 2872
4 5763 4066 4367 285
4 5309 4421 5197 5195
4 3107 5601 3738 4142
4 4592 3042 2310 4594
4 3103 3233 3102 3503
4 4263 1908 3503 1899
4 3833 2312 4705 4617
4 5519 6326 5976 4759
4 4062 4491 2408 4125
4 2827 2826 3968 3964
4 3075 3080 4327 3083
4 4040 4041 6119 5536
4 3965 4721 4626 4649
4 4957 4102 6115 3683
4 4500 4499 5629 6128
4 4020 4124 5608 4282
4 3549 4040 4042 4565
4 3906 3905 4435 3907
4 3545 4571 3353 6068
4 4557 4041 5536 6119
4 4659 4678 398 389
4 3736 5877 4675 4694
4 3548 4799 3549 4042
4 3548 4799 4648 5964
4 4157 3402 4026 4176
4 4821 4026 459 4783
4 4157 460 4026 451
4 4821 4026 460 459
4 4593 4264 450 4788
4 4788 4593 4026 450
4 2432 3043 3650 3042
4 4173 4174 5301 4175
4 2264 3218 3217 3274
4 3404 4174 3040 4176
4 2743 5674 901 3999
4 3946 4774 5712 3947
4 2857 4190 4261 5044
4 3664 3665 3663 6275
4 2828 4350 2849 4189
4 3534 3531 3660 4350
4 2816 4046 2858 2849
4 3665 5007 3663 5855
4 2709 2813 2857 2856
4 5818 5053 5825 2948
4 3893 6185 6175 5058
4 4769 2815 4771 5855
4 5309 5195 5308 6332
4 3134 3308 2961 3309
4 2704 3621 3534 3530
4 4237 4151 4438 5432
4 3886 6064 3237 5923
4 2791 2706 3337 2785
4 3344 4167 4908 5136
4 6064 5923 5231 6240
4 6219 6221 5205 5113
4 2950 2790 2452 2954
4 5309 6332 5307 5245
4 4502 3732 4507 4505
4 4153 5234 4202 5089
4 5233 5456 6134 1612
4 3665 3839 3663 5007
4 3835 3834 3776 6295
4 4450 3155 5430 3154
4 5873 6030 5635 4518
4 4515 4517 5805 4946
4 4514 4516 4515 3713
4 4445 5120 5805 4446
4 6030 5640 5873 5812
4 4445 3842 5483 5120
4 4515 4946 5805 5120
4 5921 6220 5179 5181
4 5920 6219 5205 5114
4 3341 5136 6219 5085
4 3343 4689 5097 4348
4 3343 5204 5921 5159
4 5923 3237 6226 6064
4 3542 5767 5768 3543
4 6236 6237 2164 6238
4 6236 4872 2164 4850
4 2445 4872 4869 6249
4 4926 6097 6292 5916
4 6113 5730 1945 5672
4 4926 5672 5721 6113
4 6292 5676 1955 6097
4 5653 6113 5730 1937
4 6113 5730 1936 1945
4 6113 1936 5730 1937
4 3934 5653 5654 6114
4 5721 6113 5672 5730
4 5233 6320 6241 6134
4 4035 4836 4302 3598
4 5374 5403 5386 5368
4 4634 5374 5990 5369
4 5374 711 3783 71
4 5374 3783 711 5990
4 5233 6228 1603 6320
4 3912 3438 4471 4478
4 5370 3597 5926 6331
4 4436 6298 6279 4437
4 4478 4477 4149 4486
4 3788 5051 776 767
4 3818 3060 3059 2720
4 3026 3055 3054 5051
4 5233 1612 6241 1603
4 3024 2643 2303 2644
4 3438 3428 6294 4476
4 3863 4826 3144 3142
4 5592 5620 6223 5623
4 6224 2083 2082 5623
4 6223 2075 6281 5354
4 5354 6223 5098 6281
4 6223 2083 2075 2084
4 6223 2083 2084 4623
4 6152 4038 4690 5976
4 2741 6296 2738 6139
4 2387 3489 3622 3658
4 5961 3018 6151 6144
4 2729 2730 2737 3364
4 5479 5883 5735 6031
4 2736 5676 6097 4989
4 4109 4108 1467 5347
4 3492 2637 3789 3807
4 5346 6167 5347 1467
4 2944 3774 2530 2806
4 3462 4379 4378 4858
4 2616 4827 5961 2613
4 3807 3571 6196 3789
4 5619 3571 3586 3981
4 3591 4820 3593 3796
4 3789 3807 4912 6196
4 5696 6186 5743 5698
4 3885 5301 4173 4174
4 2946 5666 3565 4122
4 5625 5395 3084 5396
4 3038 3094 5518 4593
4 6002 3462 4117 6164
4 2221 3925 2852 2851
4 2639 4108 3463 4109
4 2744 2980 3866 3296
4 5757 4450 1027 4122
4 4240 3476 5473 2941
4 3812 5164 2007 2016
4 3663 2294 2350 3528
4 3981 3493 3571 3586
4 5332 3586 6167 5345
4 5334 3586 5619 6166
4 5473 5724 5614 6194
4 4950 4241 6194 5724
4 2815 2857 4261 3663
4 3335 3492 3789 3571
4 2622 2624 2623 3092
4 2238 4271 2237 5411
4 4151 4237 6021 5841
4 3690 2784 2239 3130
4 5162 6313 2895 5874
4 6313 5896 2895 5077
4 3995 3993 2913 5364
4 3977 3993 5843 5844
4 4530 6247 5297 5206
4 6293 4393 5878 4389
4 6324 6013 5218 5236
4 4502 4507 3994 5836
4 5487 5009 4982 5039
4 3574 5076 3575 4922
4 5680 4126 4964 4993
4 4997 3575 4922 3883
4 549 4930 540 2291
4 5030 4343 4942 4979
4 3875 4998 4997 4344
4 5487 5009 5488 5486
4 3480 5075 5489 5076
4 5339 6335 4716 4410
4 5440 4569 3972 4567
4 3390 3505 3512 3513
4 4878 5370 5926 3437
4 3798 5361 3471 3953
4 4034 5926 5370 3597
4 3354 3496 3231 3362
4 2293 3891 2291 3665
4 4939 4342 4345 5014
4 3210 4938 3481 5680
4 2367 3637 3163 4903
4 4939 3480 5489 5076
4 4310 3316 3637 3317
4 6279 4564 4490 4590
4 6279 4489 4490 5508
4 6279 4489 4563 4590
4 6279 4490 5494 5497
4 4436 4437 4471 6298
4 4471 4486 4476 4067
4 4539 6279 5870 4563
4 4983 4943 5792 4981
4 4983 4982 4981 5792
4 5030 4171 4944 4943
4 4342 5030 4308 4343
4 3210 3211 3172 4938
4 4342 4343 4345 4942
4 4939 5014 5779 5076
4 5486 5009 4978 4982
4 5045 5046 4823 4907
4 6117 5631 5581 4779
4 5312 3083 4746 6121
4 4436 5870 6279 6179
4 3286 3502 3504 4780
4 3301 2979 6109 4804
4 3168 4499 2923 3570
4 4474 4279 4278 855
4 4291 864 4289 4279
4 3426 6042 3756 3755
4 3398 5437 3943 3940
4 4431 5028 3944 3943
4 5122 3944 5464 5121
4 2829 3997 3132 2830
4 2784 2755 2710 2239
4 2858 2848 4190 2857
4 3607 2856 2830 3690
4 2848 4189 2828 2849
4 3159 3132 1561 1570
4 3345 5139 3131 3342
4 5259 5454 5506 6039
4 5117 5451 3609 5454
4 3758 6042 5466 5454
4 3944 5464 5465 4206
4 3940 3424 5260 3944
4 4430 5491 6339 6082
4 4336 5202 5617 5200
4 4955 4740 4742 4336
4 5549 5380 2803 5552
4 5549 5200 5202 4679
4 5629 6128 5581 4336
4 5380 6083 5617 5600
4 5376 6106 5600 5381
4 5376 5379 6106 5381
4 5409 3916 5845 5914
4 3313 4385 2786 2788
4 4384 3916 5409 5407
4 6200 5852 5859 5853
4 6307 4530 5297 5927
4 2665 4421 3979 4396
4 3193 5749 1118 1109
4 3195 3193 4924 5749
4 3071 4530 5891 6247
4 3071 5997 3069 5946
4 3071 5892 5946 6247
4 3734 2342 2370 4528
4 2342 3069 5997 5945
4 3761 5495 2878 5328
4 6298 5494 4564 4321
4 6298 6279 5494 5497
4 6298 5494 4321 4615
4 3906 4471 4437 4485
4 3893 5855 6195 6175
4 6184 5001 3665 5007
4 3892 6185 3893 5058
4 6184 3665 3893 5855
4 4769 2815 2814 4960
4 4755 5066 3409 3449
4 2883 3253 2882 4849
4 3247 3248 3252 3250
4 5280 5998 5940 5342
4 2930 3443 3410 5819
4 3190 4924 3195 3193
4 5811 1169 5824 5943
4 3249 5948 5392 5938
4 2930 2929 4257 3486
4 3762 5912 3760 5983
4 3413 4022 3706 3725
4 3155 3157 5757 4713
4 3916 5847 5840 5914
4 5840 5847 1100 5914
4 4357 6011 3386 3917
4 2444 2445 3882 5191
4 2885 2886 2887 3417
4 3137 2561 2241 3730
4 5791 6016 3917 6011
4 3879 6236 5787 6252
4 4297 6252 2171 2162
4 2885 5790 2898 2443
4 2885 5791 2888 2896
4 6018 3882 2445 5191
4 3276 2288 3112 3113
4 5791 6019 6016 6011
4 4739 6077 928 3120
4 4083 4085 4086 5783
4 4739 5668 920 4737
4 4739 5728 919 928
4 3283 6288 5737 3282
4 3646 6158 5978 4737
4 3772 4819 3771 4897
4 5430 3154 5429 4450
4 2367 3316 4310 3162
4 5430 5757 4450 5433
4 3448 3412 5973 5068
4 3656 1174 5408 4662
4 4022 5277 5960 5944
4 3698 6328 4204 3722
4 3698 3695 3696 3722
4 3855 4056 2170 3856
4 3715 2169 3857 3855
4 3726 2572 2573 3900
4 5973 3806 4503 5408
4 2946 4122 5757 5090
4 2365 3642 3133 3637
4 3230 2634 3125 3231
4 2944 3774 2942 2530
4 4047 3813 2000 6176
4 3982 5917 3811 5778
4 3354 3362 3359 3360
4 3726 4661 3806 3705
4 3697 3706 5924 3705
4 3722 3721 3065 3415
4 3715 3856 3857 3067
4 3064 3072 3070 2342
4 3705 5944 5963 3725
4 4661 3697 1147 4663
4 5875 5950 5404 5959
4 3411 3412 5068 3725
4 4755 5819 3410 3745
4 3456 3472 3784 4209
4 3053 785 3910 794
4 3455 3957 765 4562
4 5443 5124 5337 4406
4 4209 3957 756 765
4 4209 748 5311 757
4 4448 3472 4511 3953
4 5280 4634 5998 5342
4 4634 5374 5368 5990
4 5367 5362 701 5368
4 5367 693 5342 702
4 5367 4298 5362 5368
4 4628 4627 4203 5998
4 4634 5369 5279 4256
4 4634 6269 4298 5368
4 6174 6257 1682 6051
4 1682 6174 1692 6257
4 6174 6257 6081 6261
4 5757 4122 1027 5090
4 6051 3517 1691 6174
4 6050 3983 1777 6256
4 4512 316 4487 5926
4 4513 324 4487 325
4 4512 325 4487 316
4 4034 4487 3597 4033
4 4513 4487 3597 6331
4 3937 3440 5673 3439
4 4583 4495 4524 343
4 4524 4435 344 4485
4 3177 3454 3179 4137
4 3907 4524 4224 6093
4 4583 343 4524 352
4 4224 6093 4524 352
4 3818 3820 1316 1307
4 3821 3818 2720 3820
4 5548 1315 4578 1324
4 3818 3817 1307 1306
4 5529 1324 4578 1325
4 2314 2308 2721 2722
4 2720 5801 3058 3820
4 4775 4578 3821 4676
4 4696 3293 5530 5412
4 2893 4713 5874 5757
4 2409 2766 4062 2902
4 5263 6092 4391 4089
4 4089 6124 4146 3612
4 6103 1360 3608 1359
4 5556 4267 4268 5557
4 3299 5609 3350 3351
4 5757 2893 5090 5874
4 3259 3601 3889 5370
4 2307 2714 2316 3057
4 4696 1323 5189 5511
4 4696 3293 5548 5511
4 6087 5262 6091 5557
4 4609 5291 4608 4226
4 2498 5141 3537 4680
4 4081 6170 4653 379
4 4565 378 4653 379
4 5055 4565 4653 6170
4 5055 4653 4650 4630
4 3740 3369 5274 3371
4 4699 865 4291 856
4 4700 3047 3105 3048
4 4635 3106 3101 3102
4 3846 4019 2379 4124
4 3549 5536 4557 4041
4 2743 3272 902 3865
4 3403 451 4157 3402
4 4592 3408 4264 4643
4 2978 3168 3169 3625
4 4921 3884 3095 3007
4 2324 2923 3168 4499
4 3560 3926 4639 3927
4 4640 3044 4239 5395
4 2321 2920 2319 5639
4 2323 2328 2322 2320
4 6282 4496 2319 5202
4 3367 3897 4331 5961
4 3076 2594 3044 3042
4 4592 4595 4594 4720
4 3267 3885 3567 3082
4 4827 2731 4828 2739
4 3261 3645 5682 6149
4 2728 3933 5961 2731
4 3463 4109 4110 4115
4 2730 2620 3218 2735
4 3653 2739 5671 5501
4 5501 2739 6246 4972
4 6137 6139 6138 6140
4 2741 2731 2739 4969
4 6137 2741 6139 6146
4 2612 3653 4883 5962
4 2612 4883 4898 4108
4 5138 5593 2082 2073
4 4234 4898 1440 6151
4 6098 3363 3622 5900
4 6137 2734 2741 2731
4 4110 4108 1450 1459
4 4898 6151 1441 1440
4 4874 1450 4898 1441
4 5800 3793 4160 4814
4 5684 3791 4875 4238
4 4901 3794 5641 4875
4 4796 4174 4176 4175
4 3270 3668 3097 4866
4 3638 4936 4928 4813
4 4931 4937 5702 515
4 4931 4976 4937 514
4 4937 4976 505 514
4 4937 4976 4260 505
4 5714 4923 4937 506
4 4937 4923 5702 506
4 5048 567 5013 568
4 5138 5593 2073 2072
4 559 3521 550 3522
4 5048 5059 5044 567
4 3838 3529 5059 5048
4 2292 5013 5044 3839
4 3522 4163 559 3521
4 4930 3804 4947 4987
4 5048 568 5013 5104
4 5048 5103 577 568
4 3532 5048 577 576
4 5048 3532 5828 3529
4 3838 5048 5013 5104
4 5086 604 5080 595
4 3304 4908 603 612
4 4826 3859 5138 3863
4 5080 4187 3660 594
4 3532 5080 595 5827
4 5591 5212 3861 6218
4 2946 2894 2911 2947
4 4166 5828 3200 5103
4 2966 2946 2893 2911
4 4166 3206 3200 3196
4 5138 5909 2071 2080
4 3838 5048 5059 5044
4 5830 5909 5156 2071
4 5830 2070 5156 5848
4 5156 2071 5909 2080
4 5156 2080 5909 3859
4 5156 2079 6216 5848
4 5470 5830 5156 5848
4 5138 2082 5593 6218
4 3838 5059 2857 5044
4 5162 2893 5874 2895
4 3778 4954 5742 4950
4 2985 2990 5057 1584
4 3887 4284 5173 5300
4 4470 5025 4422 5023
4 5025 658 5172 649
4 5258 5172 658 657
4 3113 5258 5172 5023
4 5023 3111 5040 3113
4 4170 639 5173 4284
4 5288 5344 3655 676
4 3654 5391 3655 5296
4 3253 4127 3655 5391
4 4127 4628 2540 4203
4 3250 4581 3192 4021
4 4628 4295 2540 5928
4 5436 3395 3393 3506
4 4511 5446 5337 5310
4 4508 3395 5436 3506
4 5119 5116 3711 5124
4 5443 5337 5902 4406
4 3435 3431 3952 3955
4 3598 4839 4419 3594
4 4034 5925 4487 4033
4 3524 3527 5762 4836
4 3398 3742 5461 3399
4 3010 3823 4432 5318
4 4835 6057 5366 5389
4 4509 5503 5505 1270
4 3588 4134 4599 4552
4 3060 3547 2568 4133
4 5440 5762 4303 6053
4 5365 5762 3527 4836
4 5516 810 4235 811
4 5516 811 4235 6001
4 4235 810 6343 4236
4 4235 6343 6001 5537
4 3182 5537 3920 5535
4 3920 5532 5535 4236
4 5522 812 5584 811
4 5516 811 5584 820
4 5522 811 4235 802
4 5522 4673 4030 812
4 3699 5516 6001 5584
4 3603 821 3605 830
4 4752 5553 4652 5594
4 4579 4638 4647 4660
4 4219 4220 4579 4221
4 4546 4660 4579 5568
4 4729 5979 5604 4752
4 4219 4638 5141 4622
4 4219 4638 4647 4579
4 2747 5658 3606 5664
4 5726 3771 3261 5699
4 3103 3301 3101 3233
4 2656 3992 3290 3292
4 6330 5677 5695 5694
4 4331 4379 6159 6157
4 2362 2853 2365 3122
4 5641 4866 4867 3791
4 2747 3606 2744 3866
4 5138 3863 3859 3861
4 3918 3229 3921 3924
4 5150 6338 3355 5697
4 3358 5770 3359 5769
4 3923 6173 6186 5755
4 4796 4794 5301 4833
4 3098 3123 3099 3119
4 4462 3406 3098 3123
4 4921 3884 5590 3348
4 3790 3791 3795 3793
4 4601 6287 5738 5758
4 6287 5738 1981 4820
4 5738 4820 1990 1981
4 5738 4165 1990 4820
4 4164 1989 3922 5750
4 6287 1972 4819 1981
4 3089 5744 4971 5746
4 4954 5744 6190 5802
4 6204 5802 5744 5745
4 4940 5744 5802 6190
4 4940 4243 1512 6190
4 6204 1522 5744 1513
4 4971 5744 1522 1521
4 5829 5831 5449 5909
4 5829 4825 5909 5449
4 5470 5830 5909 5156
4 2523 2061 5830 5165
4 5830 2071 5156 2070
4 2523 2062 5830 2061
4 4421 5236 5248 5239
4 2879 5907 4161 5269
4 5138 3861 2081 6218
4 5197 5265 5239 5248
4 3519 4386 5207 5206
4 3253 5371 5998 4127
4 3760 5936 5983 5888
4 6012 4396 5531 6013
4 5308 5348 5195 5329
4 5348 5329 5904 5195
4 4396 5348 6012 5904
4 5309 5895 5894 2878
4 4170 4284 5097 630
4 3343 4284 5864 5204
4 5040 5025 5023 5172
4 4687 5153 5170 632
4 4170 4284 630 639
4 2555 3305 3136 2591
4 5300 3542 5217 3113
4 5138 5909 2080 3859
4 3236 3619 5923 3237
4 2875 2870 4915 3387
4 3837 3977 3958 3993
4 2883 4849 2882 5907
4 3191 4581 5975 5283
4 5975 1116 1124 5495
4 5907 5938 4846 4849
4 3191 1116 5975 5495
4 3250 4581 5875 4846
4 2989 5897 6222 5187
4 2784 3607 3690 2710
4 2772 5441 5969 5397
4 5768 5752 5275 5253
4 2782 4915 5360 5244
4 4274 5276 5333 5275
4 2780 4589 4104 4292
4 3543 2973 5320 5984
4 5254 5217 5752 5751
4 4274 5278 5242 5316
4 6013 3979 3732 4423
4 2458 3305 3325 3344
4 4394 4421 5197 4422
4 2880 5196 4394 4422
4 2126 5209 2964 2125
4 5209 6233 5208 2134
4 5934 6237 6018 6061
4 4589 4185 2875 4915
4 6181 6233 4283 6244
4 3881 3880 3882 5787
4 3336 2457 3340 3325
4 3881 2552 5793 5795
4 4200 5160 2125 2116
4 4205 4233 2958 2480
4 3877 3602 3878 4213
4 3840 4156 5469 4155
4 5933 5110 4360 5214
4 6269 4633 5996 4183
4 6189 4298 6269 5362
4 3881 3879 6236 5787
4 4185 6020 6010 6009
4 3869 6189 4292 4298
4 4589 6248 6189 5986
4 4208 5925 4472 5926
4 4208 3894 306 5510
4 5925 316 4487 315
4 5925 316 4472 5926
4 5925 4487 4033 315
4 4034 5925 4033 4035
4 4208 5510 306 4035
4 4583 4551 4210 342
4 4556 5290 4583 4495
4 5822 5290 4495 6093
4 5877 4721 4722 4723
4 5788 4352 5413 5781
4 5286 4534 4551 4604
4 2982 5705 6334 3220
4 5632 4785 4917 3580
4 3048 2527 3572 5305
4 5312 5313 6121 5574
4 2312 3832 3829 4617
4 4585 3829 414 2309
4 4585 2309 414 423
4 4718 2309 4585 423
4 3608 4102 1359 6116
4 3608 6116 1359 1368
4 6103 4102 3683 1350
4 2903 4102 4957 3683
4 5274 1352 4750 1361
4 2509 4949 3187 3186
4 3611 3685 4493 5185
4 5734 3832 5964 4618
4 3548 4041 5734 4043
4 2827 3549 5808 4557
4 3548 4041 4043 4042
4 5964 6100 4629 4090
4 3459 3490 2635 3493
4 3899 2448 3096 3082
4 6140 6137 6154 6059
4 6002 4117 4874 6164
4 2279 2925 5020 2871
4 2612 4898 2614 4108
4 2730 3363 3269 4925
4 5332 5347 5346 6167
4 2871 2875 3387 2870
4 5619 4240 3571 3476
4 4920 5346 1486 1485
4 4109 5346 1468 4912
4 2639 4109 5347 4108
4 5346 1468 4912 1477
4 3534 4350 2828 4189
4 2712 3529 2753 3530
4 5070 2784 2785 2703
4 3532 5048 576 5059
4 595 5084 586 3532
4 3838 5357 5103 5104
4 2733 5827 3530 5828
4 2828 2849 3997 4046
4 6101 4808 5739 6205
4 3835 6295 4244 3834
4 3779 4786 4252 4560
4 3692 5905 3652 5257
4 5692 5022 4623 3648
4 5905 4623 6223 5098
4 3863 3864 4825 3859
4 3142 5592 3692 3693
4 5592 5623 6223 6224
4 5098 6281 5620 6315
4 2710 2813 2856 5060
4 2813 2817 2856 5060
4 5820 6204 1522 5745
4 2560 2960 2961 3980
4 2782 4915 2870 5360
4 2858 2857 4261 2815
4 6222 2990 1576 1585
4 6222 1576 2990 4198
4 5897 1585 6222 1586
4 4198 2989 6222 3338
4 5897 1586 6222 5187
4 3339 5187 6222 5849
4 5538 5850 5644 5643
4 5233 1603 6241 6320
4 5233 6134 6241 1612
4 4050 6323 6241 5130
4 6241 5130 1612 6134
4 6241 1602 6323 5221
4 4185 5359 6009 6248
4 6189 5363 5362 6269
4 4589 6189 3869 5986
4 5360 1659 5244 4915
4 3543 3237 5320 2973
4 6189 4104 4589 4292
4 2898 5790 5787 2445
4 6248 5359 6003 5991
4 4569 3975 3894 3976
4 6266 3972 4380 3973
4 3974 4383 4402 4395
4 5115 3974 3973 4301
4 3969 3971 3975 3976
4 3974 4383 4429 4380
4 3972 4380 3974 4429
4 4532 1267 4322 1258
4 6256 6050 6174 6051
4 4532 1268 6065 5401
4 4532 4300 3494 1259
4 3227 3008 5318 3983
4 4005 4323 5311 3421
4 6042 4099 5542 4452
4 6344 4452 5542 4216
4 5261 6277 6060 5595
4 4410 4716 3333 6335
4 3469 3600 3799 3890
4 4138 4478 3912 4471
4 3467 3473 3468 3472
4 5020 2871 2925 5105
4 3823 2504 2503 5317
4 3756 4215 5016 4451
4 3054 3055 785 776
4 5687 5686 4065 5463
4 3350 3353 6272 6068
4 4293 3298 5263 4027
4 3022 3372 3053 3182
4 3553 3350 6087 6068
4 3353 3352 6272 5500
4 2724 3350 2722 3353
4 5549 2803 5200 4679
4 5549 6083 5550 6079
4 5549 5617 5200 5380
4 5549 6282 6079 5175
4 3209 5705 2982 3220
4 2332 2320 2319 4496
4 5705 6334 3220 5631
4 4741 6089 4742 1883
4 6282 5624 4496 5616
4 4263 6334 3569 1909
4 4263 3220 3569 6334
4 6147 3569 1909 1918
4 3568 3569 1918 1917
4 3568 6109 3569 1917
4 3569 6109 4804 1917
4 3240 3115 3636 3118
4 6302 5457 5459 5711
4 4827 2739 5671 3653
4 3584 3630 4260 6085
4 3659 3490 3658 6031
4 5501 5459 5457 5458
4 5501 4972 6246 5458
4 6032 5478 5501 5457
4 5501 5478 4972 5458
4 3630 6085 4948 4260
4 3774 3776 3834 3789
4 2933 3585 3584 3630
4 2531 2836 3458 2941
4 3593 4820 4262 3796
4 4164 3592 4165 5738
4 5777 3592 4165 4988
4 5482 6312 6311 2522
4 3565 3564 4122 5809
4 5784 6311 4520 5785
4 5782 5785 5784 4516
4 4522 4518 5636 4514
4 4351 5802 5745 4786
4 4445 3576 3842 4446
4 5636 2524 4514 5634
4 2759 3154 5428 3155
4 3491 3883 3576 3575
4 2871 5355 3387 3386
4 3851 4482 5634 5165
4 5482 4092 3499 4810
4 2726 4971 5745 5820
4 2753 5828 3529 5357
4 3306 630 5097 621
4 2967 2895 5162 5161
4 3748 2335 2931 2812
4 4971 5820 1522 5745
4 3308 5827 5358 5086
4 5080 3530 3660 3621
4 2214 3840 2855 4438
4 5470 6216 5471 5848
4 2948 5053 5825 5106
4 3692 4886 2984 4888
4 2482 4233 2483 6211
4 5829 5909 5830 5831
4 2099 5212 2090 3129
4 4213 2107 3129 2108
4 2099 3127 5212 3129
4 3129 3128 3127 5168
4 2721 2722 3334 3333
4 1820 4632 1829 4787
4 3025 3910 3053 3055
4 3909 4573 6277 5595
4 4716 6074 6075 3333
4 3545 3554 4571 6270
4 3544 3909 4412 4573
4 2948 5063 3208 5106
4 2240 2238 4271 2237
4 2608 2352 3819 5019
4 3535 3836 4986 5144
4 2912 5844 3958 5148
4 3310 3621 5827 5080
4 2948 2912 3958 5148
4 4971 5744 5745 1522
4 4876 5716 6077 3016
4 2619 4058 5493 3497
4 5061 5725 4162 4823
4 3510 3508 4932 4892
4 4309 4312 3211 4938
4 4025 3908 5266 5167
4 2645 4631 5496 3826
4 2865 3059 2715 5412
4 2831 3225 2472 2864
4 4020 4019 5608 4124
4 4025 5266 4029 5264
4 2680 2470 2472 2471
4 3612 4492 4147 4146
4 2676 2682 4023 2683
4 4020 4145 4354 4063
4 4926 6113 6292 5672
4 4498 5655 2922 2923
4 3934 4926 5721 6113
4 2741 2731 2734 2738
4 2921 6286 6283 4758
4 4498 2922 5655 6289
4 6283 5174 6286 6080
4 2332 4496 6283 4498
4 2921 6133 6283 2920
4 3568 1918 3570 1927
4 2734 2738 5916 6139
4 3934 5916 6113 6114
4 2332 4498 2922 2923
4 6137 3933 6059 2734
4 2738 2731 2730 2729
4 6330 5681 5694 4800
4 3916 5914 4529 3734
4 4384 5645 4388 5407
4 3913 3915 5845 5983
4 2788 2787 4703 4389
4 4385 4726 5936 5983
4 3398 5461 3943 5437
4 4508 5436 5902 4453
4 2504 6071 1794 6265
4 4433 3823 5317 4432
4 4430 6082 5318 5317
4 3089 4971 3088 4199
4 3983 3008 5318 3009
4 2504 4212 6265 1785
4 3517 3985 5480 3702
4 3541 3618 2275 3235
4 3542 5217 5752 5186
4 5921 4273 6235 5181
4 4342 5489 4996 5014
4 4939 5076 5489 5014
4 5018 5485 3819 5019
4 2601 2607 2610 3819
4 5486 4983 5792 4982
4 5680 5488 4978 5486
4 5487 5038 5036 5037
4 3231 3362 3163 3125
4 6318 6244 6153 6243
4 5793 6337 6242 5795
4 3313 4385 3914 4726
4 3071 5892 6318 5946
4 5329 3762 5328 1107
4 3456 4037 3954 3957
4 3428 5468 4547 4480
4 3428 4461 4480 4319
4 3712 3421 4511 5311
4 3468 3784 3472 3421
4 6204 4351 5545 5539
4 2292 5104 3838 5013
4 4971 5746 5744 1521
4 5485 5490 5052 5032
4 3241 3243 3246 4948
4 6248 5991 5986 5359
4 6269 5991 5374 5996
4 6269 4298 5368 5362
4 6248 5359 5986 4185
4 6003 5359 1222 5991
4 4913 5363 6189 5965
4 4634 6269 4633 4298
4 2877 3616 2876 3870
4 3879 5795 6238 6252
4 5942 5793 3881 6061
4 3715 3856 3853 3855
4 3449 3720 3447 4072
4 3087 5000 4767 4199
4 3266 3264 3213 3669
4 3925 4820 4262 3593
4 4820 3592 3925 5738
4 3918 4164 3592 4988
4 4665 2573 3806 3657
4 1175 4503 2571 3656
4 5973 5222 4503 3806
4 3806 3726 2572 2573
4 3806 5222 4503 2572
4 4665 5947 3727 3729
4 2571 3657 2194 2193
4 3806 4664 4662 4661
4 4047 5884 6176 2000
4 3092 3491 2622 2347
4 6187 6188 5760 5807
4 3490 3489 5883 5777
4 5345 5619 3571 3586
4 3591 4165 3592 4820
4 5332 3810 5347 6167
4 3659 3653 5962 6161
4 6033 4081 4619 6170
4 4081 371 4225 4636
4 4619 379 4081 380
4 2757 4992 3967 5823
4 4971 4199 5746 1521
4 3409 4755 3410 5065
4 1188 1197 1198 4755
4 5487 5490 5069 5036
4 4209 3472 4511 4448
4 3470 5436 5337 5902
4 3784 3472 5311 4209
4 4032 4428 302 293
4 3951 3955 4448 3957
4 3955 3430 3431 3429
4 4246 4894 487 478
4 4814 5301 5590 5800
4 4861 5588 4175 4255
4 4246 495 4893 4248
4 3585 4248 4246 4893
4 4246 4893 496 487
4 6242 2162 4297 2161
4 3857 2161 4297 2170
4 6242 5795 4297 6238
4 3715 3857 3856 3855
4 3856 3857 2170 3855
4 4297 5795 6252 6238
4 3911 4478 4677 5370
4 3905 344 4477 4485
4 4149 4486 3438 4478
4 4477 4495 6078 334
4 4477 4485 344 335
4 4478 6331 5370 3437
4 5487 5486 4982 5009
4 3390 3395 3391 3512
4 3703 3742 4365 4929
4 3507 3511 3440 6264
4 3393 3389 3390 3395
4 2471 4029 4028 2376
4 3511 3513 3973 6264
4 5673 3511 3440 3507
4 5503 5504 1269 5817
4 3936 4014 4642 4015
4 3662 3601 5370 4034
4 5533 4540 6056 6270
4 3985 3702 6063 3226
4 5972 4014 3936 4012
4 4398 4787 3333 6075
4 4583 4524 4495 6093
4 4609 351 4583 352
4 4583 5290 4551 4609
4 5290 6093 4609 4583
4 4583 352 4524 6093
4 4088 6124 4027 5264
4 4412 5595 3333 4573
4 5263 5262 4391 6092
4 2802 2903 4957 2803
4 5376 4306 4492 5379
4 5376 5379 2545 6106
4 4020 4019 4024 5608
4 4354 5608 4029 5264
4 5266 4088 4027 5264
4 4695 397 4659 398
4 4695 398 4659 4678
4 4040 388 4659 397
4 4659 4683 4535 4678
4 4619 4659 388 389
4 6033 4535 4619 4683
4 4752 4579 4652 5553
4 4474 846 4278 3323
4 4536 4546 4537 4621
4 6103 3610 3684 4102
4 4062 4742 4955 4740
4 5808 4557 5536 4535
4 3401 5964 5657 5598
4 4557 4535 6119 5536
4 4537 4790 4558 6119
4 3828 4543 3827 4790
4 3408 6284 3405 5703
4 2404 2410 2652 2408
4 3270 4867 3097 4811
4 3407 3123 3404 4782
4 4782 4794 3123 3404
4 4585 4718 415 4543
4 4585 4718 424 415
4 4585 424 4718 423
4 2309 4644 4718 2311
4 4585 2309 2311 3829
4 6022 1663 4830 3978
4 4830 1671 2435 1662
4 4830 2668 2669 2670
4 5002 5003 4233 5169
4 4888 3692 3694 2984
4 3694 5806 3692 4888
4 2216 3144 3142 2215
4 2964 6233 2957 5974
4 4000 2124 6290 5206
4 5487 5069 5490 5039
4 5487 5486 5015 4982
4 3693 6211 2483 5168
4 4861 4814 5301 5590
4 3795 3793 5684 4160
4 4893 4179 5798 5796
4 3203 2966 2948 2949
4 5684 4238 4875 4877
4 3640 5725 5046 4923
4 4845 4238 3792 5684
4 5683 4885 4812 4884
4 5683 4877 4875 4813
4 4252 4560 5802 6342
4 4950 4974 5101 6194
4 4786 5744 5802 5745
4 6194 5095 2029 5614
4 4241 4974 6194 4242
4 4950 6194 4241 4974
4 2018 3811 5778 3813
4 4312 3162 3902 4903
4 4560 4244 3835 6342
4 5918 5100 5724 5739
4 4904 972 4998 4345
4 4998 973 3876 4919
4 5680 5488 4993 4978
4 4939 4998 5014 4345
4 4342 4996 5489 5486
4 4998 973 4919 982
4 5779 981 4998 982
4 5779 4998 981 5014
4 568 5102 4163 5104
4 5102 5103 568 577
4 4166 577 5102 578
4 4166 3206 3196 578
4 4166 3200 5102 5103
4 3198 2963 5092 3958
4 5358 5084 5086 5827
4 5086 595 5084 596
4 5084 5827 3532 595
4 5828 5827 3532 5084
4 3198 3208 5005 5067
4 5084 5006 587 3196
4 5086 3950 596 5006
4 5086 5084 5006 596
4 5086 595 5080 5827
4 5086 5084 595 5827
4 603 3304 5080 4187
4 3309 4986 614 605
4 5220 2584 5171 5213
4 2483 3129 5168 3128
4 3862 3239 3143 3860
4 3197 5358 3200 3196
4 3479 5019 4126 5488
4 3713 4445 3154 3577
4 5019 2352 4126 5707
4 3479 3574 5076 3575
4 3205 3206 5032 3204
4 5052 5032 4966 3204
4 5075 5794 6155 5011
4 5779 5076 6155 4922
4 3565 5010 4122 5666
4 2261 5493 2262 3495
4 2214 3238 3239 4438
4 5057 1593 5252 6225
4 5057 1594 5252 1593
4 5252 4764 6320 5143
4 6228 1603 5252 1594
4 5252 1603 6241 1602
4 2539 3253 4127 2540
4 4628 5998 4203 4127
4 5280 4257 5372 5299
4 3199 3208 3198 5067
4 4459 4457 4395 300
4 4459 4032 4475 301
4 3526 3939 4463 4642
4 4443 5366 5389 4839
4 5365 5766 6036 4416
4 3511 6264 4567 3440
4 4034 4487 5926 3597
4 5126 6004 4673 5561
4 5126 5522 5561 4673
4 5522 5561 4673 803
4 4024 5608 4029 4020
4 5522 4235 5537 802
4 5126 4030 5522 4673
4 5266 4088 5292 1846
4 6099 1854 5292 1855
4 4088 1855 5292 1846
4 4024 5292 6099 5435
4 5435 4024 5292 4333
4 5294 5266 6277 5167
4 4025 5266 5294 5167
4 2521 2799 3290 3288
4 2520 4278 4474 4279
4 5602 5578 847 4474
4 2907 3046 3035 2906
4 4474 4278 846 855
4 2905 4474 2518 3323
4 3323 4474 837 2905
4 838 4474 5578 2905
4 4474 2905 838 837
4 3198 2963 3197 5092
4 4494 4724 4415 4181
4 4579 5568 4752 4546
4 4546 5568 4415 4621
4 4896 3363 4989 5676
4 3366 3653 4972 2739
4 3266 3669 3213 3265
4 2745 2621 3644 3867
4 3623 4984 4577 3624
4 6288 5720 5715 5740
4 2745 2621 3867 3866
4 5668 3281 4737 4738
4 3367 2616 5961 3018
4 4263 3220 3502 3503
4 5653 5880 3625 2923
4 3297 2979 3624 6109
4 4558 3828 3827 4790
4 3322 4643 3405 3408
4 5519 4761 6326 4759
4 4577 3624 6213 6214
4 4084 3357 4087 6338
4 6338 3355 5697 5769
4 3125 3362 3359 3356
4 5150 6173 6338 5696
4 3283 5741 4602 6186
4 4084 5769 5774 5770
4 3354 3852 3358 3357
4 3361 4259 3872 3360
4 6338 6301 5776 5696
4 6338 5776 6301 6305
4 6338 6301 5696 6173
4 3357 4087 6338 6165
4 5736 5800 3641 5685
4 3316 4313 2369 3643
4 4462 4833 5301 4794
4 4462 4794 5301 4174
4 3795 4160 5800 3793
4 5587 3006 4698 5588
4 4861 4814 4862 479
4 3260 3645 3771 3773
4 3794 3795 3791 4875
4 4861 470 4814 479
4 4796 461 4833 470
4 3814 3812 2008 3813
4 4121 6176 3982 5778
4 3813 2009 5778 2018
4 4091 3812 2016 5166
4 2027 5917 5453 5918
4 4444 4450 1010 5799
4 3565 5011 5809 5010
4 5227 4154 6024 5228
4 2967 5162 2895 2893
4 3508 4892 4307 4932
4 5428 4481 5638 5799
4 5871 1063 5890 1072
4 5835 5890 5871 1063
4 5835 5871 5836 1062
4 5871 5235 1072 5889
4 5871 5235 5192 1071
4 5041 632 5170 641
4 5767 5183 6234 4273
4 650 5041 649 4470
4 4687 5153 632 623
4 4892 5702 4307 4932
4 3413 3192 3696 3706
4 3485 2844 2539 4628
4 5908 2878 5495 5894
4 2929 5998 4848 4257
4 2882 4849 5306 4161
4 3249 5938 4846 5948
4 5269 2879 5296 4161
4 5309 5895 5307 5894
4 4931 3510 5702 4937
4 2593 6064 5923 5971
4 4506 5170 5218 4469
4 6324 6012 5348 5349
4 3913 3914 3915 5983
4 2672 2290 2664 2881
4 2247 2843 2845 2249
4 4931 514 4937 515
4 2883 2882 2879 5907
4 5895 5908 5894 2878
4 4846 5907 5908 5931
4 5907 5908 5931 5895
4 4927 5908 2878 5495
4 5210 5196 5321 2881
4 3930 523 4959 4941
4 5405 5344 5751 5321
4 4423 5239 4422 5026
4 6332 4421 4396 6013
4 2244 4394 2289 4425
4 3654 4161 2882 5391
4 2880 5197 5265 5211
4 6318 6243 5981 2152
4 6242 5981 2152 2161
4 6318 2151 5981 5997
4 3857 5981 2161 2160
4 3067 5981 5627 6337
4 5981 5627 5997 3066
4 3869 5996 6269 4633
4 5986 1223 5996 5314
4 5986 5887 4185 5987
4 3387 4185 6251 6010
4 5986 6269 5996 5991
4 3870 5986 5887 4185
4 3869 4633 6269 4298
4 4303 287 4368 6053
4 4303 6053 296 287
4 4303 5763 286 4066
4 4303 6053 4449 296
4 4303 4302 4442 295
4 4115 4912 1468 1477
4 4025 5266 2471 4029
4 3988 3003 3822 3983
4 3752 4571 3353 3554
4 5533 6273 3751 6062
4 6099 1855 5292 5264
4 6124 6099 1855 1864
4 6099 5435 5292 1854
4 6124 5264 6099 5608
4 6099 4019 5435 4144
4 4285 6099 4019 5608
4 3084 3083 5625 4142
4 2322 3765 2321 3764
4 6107 4715 1368 1377
4 3608 4702 1369 1360
4 3370 2765 3740 2901
4 3558 3044 3042 4330
4 6283 2920 6133 6120
4 6282 4496 6283 2319
4 6282 5174 6080 5175
4 4896 4989 5479 1973
4 3591 3796 4819 4820
4 2736 4972 4989 6097
4 6098 4896 3363 4989
4 4926 6292 6113 5916
4 3808 4934 4115 4935
4 6014 3362 3125 3163
4 4762 3133 955 946
4 5150 6186 3550 3923
4 5698 5150 5696 6186
4 6230 3645 3773 4338
4 6198 5095 2029 6194
4 6194 5958 5939 4974
4 6194 6198 5939 5958
4 4810 3487 4807 3903
4 4436 6279 5870 4539
4 3487 4808 6205 5739
4 4807 5739 2036 2027
4 4807 5739 3487 2036
4 4052 4058 4061 4060
4 3805 3931 4126 3523
4 3718 3723 4947 3804
4 4807 5739 5918 4808
4 5592 5905 6224 6223
4 5620 5098 5905 6223
4 5622 6281 5623 2065
4 4115 4934 1478 4935
4 3573 2351 5637 5357
4 4115 3775 4912 4934
4 3838 2857 3663 5044
4 2857 3663 5044 4261
4 2848 2857 3529 5059
4 4115 1477 4934 4912
4 2848 5059 3529 3531
4 2816 2815 2857 2858
4 2815 3663 5855 6275
4 2753 2733 3530 5828
4 3158 5757 3157 2893
4 5358 5086 5084 5006
4 3200 5084 4166 3196
4 2961 3980 2962 5358
4 6059 6137 6154 5525
4 5063 3198 3208 5005
4 6228 5252 6320 5898
4 5897 1595 6228 1594
4 5897 5231 6228 1595
4 6228 5231 6240 1604
4 6228 1594 5252 5898
4 5233 5923 6228 6320
4 5233 6240 6226 1604
4 4283 2153 6242 2152
4 5793 4283 6242 6243
4 6242 2161 4297 6337
4 6242 5981 6337 6243
4 6242 5981 6243 2152
4 3223 3446 3998 5222
4 3417 3416 3720 3418
4 3447 3446 3417 3720
4 2549 3856 4591 5795
4 2553 3514 3167 2548
4 3447 3417 3416 3720
4 6041 4509 4599 4463
4 6041 5389 4835 4599
4 6041 5389 1272 6057
4 1271 4509 4599 6041
4 5765 3939 6045 5972
4 1705 5117 5118 4253
4 5121 4314 1704 1705
4 5121 5425 1704 5437
4 5121 5437 3943 5425
4 5121 5425 5464 1695
4 4253 6258 1697 1696
4 3944 5121 5425 5464
4 3536 4224 4441 4586
4 3540 5517 3539 4236
4 4136 3385 6179 3180
4 4441 3385 3907 4990
4 2697 3056 3482 3908
4 4088 6124 1855 1856
4 4088 4089 6124 1856
4 6124 6099 5264 1855
4 6124 5608 6099 1864
4 6124 4354 3612 4089
4 4354 4027 6124 5264
4 5189 3293 5184 3688
4 2825 2824 2822 3964
4 4028 4354 4293 3615
4 2640 2650 2587 3451
4 2823 3740 3735 3371
4 5376 2545 5379 5378
4 5556 5571 6087 5185
4 5571 5556 4493 5185
4 3553 5609 6087 3350
4 5630 1910 6147 1909
4 5630 6147 4499 6334
4 6147 3569 6334 1909
4 3570 1919 2923 5653
4 6147 3569 3570 6334
4 1919 6147 3570 4806
4 4095 3775 3581 4172
4 5647 910 4736 919
4 3272 4736 910 911
4 5647 919 4736 5728
4 4734 4736 3272 911
4 4734 3647 3272 3273
4 4739 4737 4738 5668
4 4739 4598 3120 929
4 3622 3796 2220 2222
4 3231 3362 3496 3902
4 2836 2837 4484 3782
4 3122 3214 5727 3016
4 6002 2614 4801 4874
4 2935 3630 6085 4948
4 4310 4762 4905 4958
4 3015 3641 4875 3017
4 4179 4879 4862 5590
4 4070 4810 3487 6102
4 4810 2522 2044 6102
4 3903 4810 4092 5452
4 4810 2044 2522 2043
4 6311 2522 2043 4810
4 4110 2614 4874 4108
4 4086 6311 5452 4092
4 6311 5452 4092 4810
4 2784 6217 3130 5070
4 2712 2753 2733 3530
4 2239 1550 3130 1559
4 6217 3130 5139 1568
4 2952 4196 3338 4198
4 5896 2895 5077 3996
4 3748 4007 2784 2783
4 1530 3088 1539 1531
4 6217 3130 5070 5139
4 5410 1548 5087 5411
4 2755 1541 2239 1540
4 2732 2733 3621 3530
4 3167 4766 6181 2955
4 2926 3880 5460 3882
4 2885 2888 5791 2442
4 2782 5360 5441 5397
4 5129 5132 4798 5128
4 2780 4274 5242 4104
4 2884 2888 2898 2889
4 6018 5191 2445 4869
4 2876 2875 3870 3387
4 5787 6236 6254 6252
4 5131 5130 1621 1620
4 2888 2897 5791 3386
4 2426 2565 2415 2687
4 5263 3300 3298 5609
4 5323 4600 5748 4504
4 5413 5781 4694 4676
4 5548 1324 4578 5412
4 5609 5263 3553 5262
4 3350 6090 6068 6272
4 2418 2414 2567 2420
4 3460 6002 2614 4801
4 3341 3344 3147 3342
4 2300 3188 2391 2936
4 2985 5143 2981 2477
4 3135 4985 3134 3535
4 2588 2593 3236 2463
4 6176 3490 5884 5777
4 5337 5902 4406 5447
4 5361 5337 4511 5446
4 2641 2587 2650 2644
4 5361 5902 5337 5447
4 3399 3742 3397 3398
4 1467 4109 1468 4108
4 5443 5123 5422 5436
4 5443 5422 5123 5419
4 5123 5422 5436 3400
4 3420 3425 3473 3421
4 4498 2332 2922 2921
4 5525 6154 6145 6135
4 6145 5525 6133 5603
4 4498 6289 2921 2922
4 3933 6136 2731 6135
4 6059 2921 6150 2922
4 2921 6150 2922 6289
4 6302 6032 5501 5457
4 6302 3659 3810 6168
4 6302 5688 5711 5459
4 5900 6032 4989 4972
4 6032 5501 5478 4972
4 6302 5711 6031 5457
4 6031 5479 6032 5457
4 6302 5457 6031 6032
4 6032 4989 4972 5478
4 2372 4529 5914 3734
4 3671 5891 3071 4530
4 4528 4530 3069 5913
4 4387 4530 4529 5407
4 4528 6307 4530 5297
4 3878 4213 4200 5234
4 6290 2124 4000 2125
4 5971 5231 5897 5187
4 5234 4202 2115 5207
4 4000 5209 5208 6290
4 3357 6338 3355 3921
4 3923 6338 6165 3921
4 4084 3357 6338 3355
4 6186 5150 5696 6173
4 5779 990 6155 5794
4 5027 5779 6155 4922
4 3819 5075 6155 5011
4 5075 3574 6155 5076
4 6155 3574 4922 5076
4 3564 5027 4446 5810
4 3564 5027 5810 5809
4 4930 4987 540 2291
4 4511 3472 5311 3421
4 4511 5311 3472 4209
4 4511 4448 5446 4209
4 3712 4511 5337 5310
4 3435 3952 3431 5108
4 3469 3799 3258 3470
4 5436 5902 4453 5421
4 3471 4511 3473 3472
4 3890 5108 5512 5115
4 3111 2242 5040 5178
4 5405 5321 2881 5344
4 3112 5196 5321 5023
4 3998 3856 3332 3854
4 5210 2881 5321 5322
4 5210 2881 5322 5211
4 2290 2542 2881 2540
4 4170 5040 5173 639
4 3378 3099 4917 4817
4 5632 3123 4778 4733
4 3792 4816 4840 5701
4 3792 3124 4917 4784
4 4917 4760 3123 3580
4 2776 2875 2870 4915
4 4292 4104 5316 4107
4 5242 5752 5155 5278
4 2781 4274 5752 5242
4 5753 5752 4274 6232
4 2781 4274 5753 5752
4 4104 4915 2780 5244
4 2781 5585 5752 5751
4 5105 4358 5190 1647
4 4358 4357 6011 3386
4 3487 4810 2044 6102
4 5837 2044 3487 2045
4 4807 4484 5453 3903
4 5837 3487 3498 6205
4 4044 1810 3826 1809
4 1810 6074 6335 1819
4 4044 3826 5463 1809
4 4632 1819 3826 6335
4 4631 5496 3826 1818
4 3826 5496 5463 1818
4 2516 2905 2518 3990
4 4474 4279 4291 2520
4 2517 4279 4291 4289
4 4932 3510 5702 4931
4 5652 5305 4291 2519
4 5652 865 3483 4291
4 3483 2519 4291 4289
4 4699 4700 857 3105
4 4088 5292 1855 5264
4 5266 5292 4088 5264
4 4088 6124 5264 1855
4 5268 5266 3909 6277
4 6092 5268 4088 5263
4 3449 4072 1199 3720
4 4755 4072 1198 1199
4 4755 3410 5065 3745
4 2690 3412 3413 3414
4 4755 5065 5066 1190
4 2640 5051 3139 4078
4 3139 5686 6344 6043
4 2642 5261 4631 5595
4 4214 4216 6344 5562
4 4861 478 4255 469
4 4821 4175 4255 469
4 5588 4246 478 4894
4 3006 4894 5588 5589
4 3006 5588 4246 4698
4 4821 468 4255 4774
4 5587 4774 4255 4698
4 4335 5690 6014 955
4 3133 946 4335 955
4 4335 5690 956 5151
4 5151 3125 3126 4335
4 3120 938 5152 947
4 5716 946 3120 3133
4 3432 4461 3429 3427
4 3600 3431 3436 5512
4 3430 3889 3437 4478
4 5512 4459 4457 4395
4 5416 5766 5765 6045
4 3937 6069 4929 5673
4 3391 3512 3799 3439
4 3972 6268 4567 6266
4 4567 6264 3973 6266
4 3969 3890 3600 5512
4 3434 3601 4878 3889
4 3969 3973 5115 3974
4 4433 3001 3013 5341
4 3941 3942 6073 3757
4 3324 4841 2502 3009
4 2503 5341 2740 5340
4 4716 3750 6075 5340
4 4716 2740 6336 5341
4 2420 5398 3752 3750
4 4704 4584 4616 405
4 4558 3827 2354 3739
4 4715 2322 4667 3766
4 3827 4585 4543 2311
4 2355 3401 3548 5964
4 5574 5313 4744 5312
4 3738 2356 2357 3083
4 4584 414 3829 405
4 3736 2825 3737 2824
4 2360 3370 3740 3369
4 3401 5573 5657 5964
4 1451 4874 4110 4117
4 5573 6094 5575 4745
4 5573 5657 5964 6094
4 4584 4543 406 4790
4 4584 406 4543 415
4 4704 4584 3827 4616
4 4584 415 4585 414
4 4584 3827 4616 3829
4 3110 3766 5396 3764
4 2766 2902 2903 4957
4 5629 5705 4491 5631
4 3369 6103 3684 5274
4 5525 5603 6059 2921
4 2676 2680 2697 2682
4 4957 5380 6115 5552
4 4537 4414 3828 4543
4 5587 4255 4821 4175
4 6089 4063 4145 4282
4 2801 5200 4679 5202
4 5961 6151 4234 6144
4 4827 5961 4828 2731
4 2729 3364 2616 2728
4 4827 5961 4234 4828
4 6137 6135 2731 4969
4 3934 2922 6059 5654
4 3286 3285 3502 4780
4 4291 865 4699 5305
4 4821 469 4796 4175
4 5602 4474 847 856
4 3285 4491 4780 4125
4 3104 4700 3960 3670
4 2653 2658 2656 3187
4 3209 2982 2977 3220
4 4157 4796 460 461
4 4796 4175 5301 4174
4 4821 460 4796 469
4 4157 4796 4174 4176
4 2517 2424 3379 2519
4 4181 3405 5903 2421
4 2493 3484 3321 3381
4 3320 3321 3096 3406
4 2446 3321 2267 3096
4 5705 4491 5631 3502
4 3406 3378 3099 3123
4 4288 3379 3380 4289
4 3378 3376 3099 4817
4 6105 1575 4888 1566
4 2984 4887 6105 4888
4 4887 4196 1567 1558
4 1539 1548 2240 4271
4 4007 2984 4886 4887
4 2784 4007 5410 4196
4 6105 4198 1576 1567
4 3790 3346 3794 3791
4 4862 479 4879 488
4 5587 3094 4821 4774
4 4173 3039 3095 3885
4 5588 477 4246 4698
4 6194 4242 5615 4241
4 2944 2943 3244 2348
4 3778 4954 4950 3780
4 5739 5724 5918 4808
4 2841 4121 2840 3457
4 5724 6194 5100 5614
4 4082 5164 3815 5166
4 5101 4974 5742 4973
4 5490 5069 5054 5017
4 5052 4966 5032 5017
4 5490 5017 5039 5069
4 5018 5488 5033 4994
4 5485 5032 3205 4168
4 3565 3564 5809 3574
4 3819 5011 6155 5809
4 5038 5049 5490 5036
4 5485 5033 5490 5032
4 2949 5665 5666 5818
4 2752 2753 5358 2733
4 3565 5011 5038 3819
4 3819 6155 3574 5809
4 3862 5088 2088 2097
4 5088 6216 3239 6319
4 6319 2080 3859 2089
4 3860 3859 6319 3864
4 3306 4908 612 4348
4 3309 4985 614 4986
4 3306 4348 612 621
4 3307 4985 623 614
4 3304 5086 604 5080
4 2453 2988 2593 2989
4 3307 3306 613 622
4 3304 603 5080 604
4 2958 4213 3128 5160
4 4821 4796 4176 4175
4 3128 3129 2108 4213
4 4213 5160 2117 3128
4 3238 5471 5470 3864
4 4213 5160 2116 2117
4 2483 6211 4233 3128
4 3877 5234 3129 4213
4 2985 1584 5057 6076
4 5104 5357 2351 3838
4 5637 5102 5103 5104
4 3528 3838 3533 3529
4 2725 5091 2755 5820
4 4821 4026 4176 460
4 2292 2293 2294 3523
4 5019 5485 4168 4994
4 3207 2949 3205 5665
4 3200 5357 5103 5828
4 2602 3158 3157 2966
4 5258 5172 5023 658
4 5258 5172 657 5217
4 5210 5321 5258 667
4 5295 666 5258 667
4 5295 5258 5751 5321
4 4627 5367 5342 4634
4 4627 5998 5342 4203
4 2929 3486 5998 4257
4 5938 5932 4849 5907
4 3073 3769 3733 2286
4 4257 5371 4848 6347
4 5998 4257 5940 5371
4 3952 4016 4032 4017
4 3952 4032 4016 3431
4 3469 3434 3435 3599
4 3431 4032 4475 4459
4 4017 737 4018 4016
4 4017 4032 4428 4079
4 4031 4407 4411 6260
4 3467 2971 3599 3468
4 3429 4475 4032 4079
4 4032 4079 4475 4080
4 5365 5416 5766 5765
4 6045 4373 4119 6054
4 3219 3038 2448 3567
4 3077 3078 3075 2354
4 4208 4878 5926 4472
4 6045 4011 6055 6035
4 6045 4011 6035 5972
4 4567 6268 5417 4426
4 4775 4578 5529 5412
4 4694 5413 4775 4192
4 5529 4676 4694 1334
4 4696 1333 5529 5530
4 4696 1324 5529 1333
4 5529 4578 1324 5412
4 5266 5268 5263 4088
4 5266 4027 4029 5264
4 5268 4088 1847 6092
4 2470 3024 2303 3056
4 5268 1847 4088 1846
4 5294 1846 5292 1845
4 3285 4491 3502 4780
4 4700 3048 2486 3104
4 3963 3967 5669 3327
4 2496 2699 2677 4207
4 3848 3605 3845 4101
4 3846 2379 3019 4124
4 3110 3765 3764 5396
4 2517 2514 3770 4231
4 4474 2518 3323 4278
4 2512 4895 4651 5142
4 2743 3270 3999 901
4 2409 2410 4062 2412
4 4651 4579 4580 4652
4 4752 4546 4415 3770
4 4752 3770 4652 4651
4 3301 3220 3503 3103
4 866 5652 5305 865
4 3101 3960 3959 3104
4 5667 6148 6292 1954
4 5667 1954 5676 1963
4 4896 1963 5676 1964
4 3934 2918 5654 5653
4 4896 4989 1973 1964
4 5900 4989 2736 4972
4 2485 2486 2487 5652
4 2729 2736 2730 2738
4 2736 4926 6097 5676
4 3213 3348 2860 3267
4 5716 936 4936 4876
4 5716 4876 927 936
4 5710 919 5728 928
4 3314 3017 3014 3016
4 3790 3098 3119 3124
4 5647 919 5710 918
4 3315 3639 3638 4936
4 3229 3357 3356 3921
4 4808 4070 3487 3498
4 3800 3457 4988 3592
4 3125 3355 3359 5151
4 4091 5166 2016 5452
4 3812 2008 3813 2017
4 3815 4988 3814 3924
4 4084 4085 6304 6305
4 4640 5396 4837 3765
4 2632 3173 2633 3231
4 5027 1001 5810 1000
4 5810 1001 5805 1010
4 4444 5810 4446 5805
4 5027 5810 1001 4446
4 3564 6155 5027 5809
4 5809 4122 1009 5810
4 4450 1010 5799 1019
4 4518 5636 4514 5634
4 3154 4482 5428 4481
4 5634 5165 4482 5635
4 2254 4670 2759 4669
4 5634 2524 2525 5636
4 3157 2893 4713 5162
4 3714 4482 6030 5428
4 5471 5228 5813 6216
4 5835 1063 5839 5890
4 5835 1054 5839 1063
4 5856 5839 1054 1055
4 4150 5896 5839 5890
4 5839 1055 5841 5643
4 4150 5839 5841 5643
4 5300 3113 5217 5172
4 5173 5300 647 648
4 5173 4284 638 5300
4 5040 649 5172 648
4 5041 5040 4686 4170
4 3979 4421 4394 4422
4 3111 5178 5040 5173
4 3725 3705 5944 5924
4 4837 1397 5396 5395
4 5931 5938 4846 5907
4 5816 4022 5959 3743
4 5816 3743 5824 5343
4 3411 3248 3743 3410
4 3411 3410 3745 5065
4 5350 5351 4847 5957
4 4021 5960 5959 5404
4 3704 3724 3705 3721
4 2659 3913 3760 3914
4 3151 3914 3760 4726
4 3762 2660 4143 1108
4 3760 3151 5842 5531
4 2276 2541 3276 2537
4 4727 5842 4505 5889
4 5936 5842 3760 4726
4 2672 5908 2879 2878
4 2879 5296 4161 3654
4 2880 2881 5211 5296
4 5895 2879 5908 2878
4 2879 2882 4161 5907
4 5197 5895 2879 5265
4 5895 2879 5907 5908
4 5222 4290 3284 3701
4 3412 3724 5973 5068
4 4072 3409 4755 3444
4 5222 3284 3221 3701
4 5222 3726 3900 2572
4 4036 3221 3332 3223
4 4036 3855 3332 2179
4 3449 4359 3446 3720
4 2244 3759 3979 5531
4 2959 2958 2964 3515
4 3762 5840 1099 5845
4 2914 2550 2927 2926
4 4591 6129 5793 6243
4 4591 6337 3067 5627
4 3070 3074 3071 3671
4 3733 3916 3734 4924
4 3913 3915 3916 5845
4 2926 2889 3882 5190
4 2443 2444 2445 2898
4 2443 2445 2669 6005
4 3881 2927 3880 4798
4 2444 3882 2898 2889
4 2445 6005 6329 2669
4 2445 4872 6249 6329
4 5765 6057 6041 5764
4 5416 5765 3939 6045
4 4839 4302 4419 4401
4 6057 6041 5389 4835
4 5366 4443 6057 4417
4 5366 4303 4442 4066
4 3524 4836 5762 4035
4 3935 5525 2919 2920
4 5498 6052 5398 4731
4 5399 3551 5500 4133
4 3254 3933 5520 3896
4 6074 6335 4632 3333
4 5533 3751 5398 6062
4 4731 5398 3751 5400
4 3752 3353 5499 5500
4 3551 5500 3752 5498
4 5533 4540 3554 3750
4 4624 5781 5788 6095
4 5748 5287 4353 4600
4 4192 4218 5529 4694
4 4624 4625 4574 6095
4 4723 4574 4603 4722
4 4723 4605 4722 4603
4 3401 3738 5657 5573
4 3735 4750 3737 5598
4 2355 5573 3832 3738
4 3401 3738 5601 5657
4 6283 2920 2332 2921
4 4498 5624 6283 6289
4 4498 2921 6289 6283
4 2320 2319 4496 5202
4 2319 2920 2332 6283
4 3934 6114 2734 5916
4 4970 4984 5730 5672
4 4643 6284 3408 5703
4 3623 3625 3627 3624
4 3257 4970 3627 5721
4 6171 4819 1972 1981
4 4896 6171 1972 1973
4 6171 4819 1981 4820
4 4896 5479 6171 1973
4 6171 5735 1982 5479
4 4515 4481 5805 4517
4 4516 4193 4945 4521
4 3748 4008 3747 4010
4 6101 6205 3498 4808
4 4767 4199 5000 6203
4 4057 4826 4060 5593
4 6105 4887 1566 4888
4 2985 6076 6105 1584
4 4009 5087 4007 4008
4 6105 4887 1567 1566
4 4007 2953 2984 4196
4 2775 2952 2984 2953
4 6217 4196 1558 1567
4 2784 6217 5070 4196
4 4197 1567 6217 1568
4 3713 4445 3500 5483
4 2753 5358 2733 5828
4 2557 2556 2560 3980
4 2733 5828 5358 5827
4 2752 2962 3980 5358
4 2733 5827 3621 3530
4 4670 5162 3157 4713
4 3302 3310 3303 3308
4 3339 3342 5920 5114
4 3339 3342 5114 5849
4 3534 3621 3660 3530
4 4686 2591 4689 5178
4 3543 6234 5984 5320
4 5456 6226 3237 2973
4 3583 3887 5864 5178
4 3542 3887 3114 3113
4 5921 4273 5181 5204
4 5183 5767 5768 5186
4 6234 5183 5767 5768
4 6234 5183 5768 5993
4 5280 5990 4634 5342
4 5367 5342 4634 5368
4 3764 3765 3927 4337
4 4835 4839 3588 5389
4 5366 5389 4839 4835
4 4837 1405 4838 4337
4 5765 6041 4835 4463
4 3525 3588 3526 4463
4 4839 5366 4836 4442
4 5259 6039 3758 5454
4 5259 5260 3942 5492
4 4337 4639 6125 3926
4 5302 5454 5506 5122
4 5122 6258 5121 5434
4 4721 4723 4626 4605
4 5669 4630 3965 4626
4 3964 3965 4799 3737
4 4799 4629 4721 4648
4 4721 4629 3737 4693
4 5877 4723 4722 5583
4 3965 4799 4721 4649
4 3889 3437 4478 5370
4 4138 4471 4136 3906
4 3456 4037 3957 4562
4 4471 6298 4437 4067
4 2788 4703 2789 5223
4 3602 3128 2483 4233
4 2451 2988 2951 3337
4 4769 6175 4120 1525
4 5143 5898 5057 2990
4 3129 3862 2098 5234
4 3860 3566 3877 3129
4 3568 2979 6109 3624
4 3168 5880 3625 3624
4 2979 3569 6109 4804
4 2982 2979 3220 6334
4 3220 3569 2979 4804
4 5670 3297 5693 6109
4 3101 4232 3959 3961
4 6148 1945 6292 1954
4 6292 6113 1945 5672
4 6292 6113 5916 1946
4 5667 6292 5676 1954
4 5726 6287 1972 4819
4 5667 6292 4926 5676
4 3893 6275 5545 6195
4 3664 3893 6275 5545
4 3893 6175 6184 5855
4 3893 6275 6195 5855
4 4971 1522 5820 1531
4 2348 3723 3803 3244
4 3497 4058 5493 5582
4 6184 5007 5855 3850
4 6184 6175 6185 4967
4 2892 5874 5431 1036
4 5433 1037 5431 1036
4 2892 6313 5431 5874
4 4769 5855 3850 4120
4 4151 4237 5431 5432
4 5856 4237 5841 1046
4 5856 1046 5431 4237
4 6206 2063 6276 2062
4 6276 2062 5830 5831
4 6276 5593 2063 5626
4 4060 6276 5626 5593
4 6276 5830 2071 5909
4 6101 5216 4058 6205
4 4826 6276 4060 5593
4 5692 3692 5257 5905
4 5212 3566 5168 3693
4 3691 3693 2483 2481
4 2950 2211 2775 2951
4 3693 2483 6211 3691
4 5592 5620 4008 5905
4 5692 5806 3691 3649
4 4000 5208 5891 6290
4 4697 2917 4798 5128
4 3073 3074 3514 2548
4 2552 5795 4591 5793
4 3167 6181 6129 6153
4 4001 6244 5892 5208
4 3151 2245 5531 3760
4 6153 5627 5892 6318
4 4398 3750 4540 6075
4 2722 3554 3545 3333
4 4398 4716 6075 3333
4 2307 2317 3057 2316
4 5485 5665 5052 5490
4 5052 5490 5017 5032
4 5052 5081 3208 3204
4 5052 5490 5054 5017
4 5052 5665 5049 5490
4 3808 3245 3775 3776
4 4801 2614 2611 6151
4 4093 5955 4116 4918
4 4874 4110 4117 2614
4 3801 5955 4933 4114
4 3636 3632 3118 3117
4 4361 4366 4891 4362
4 6299 4889 5047 5394
4 2388 2612 2387 2615
4 3508 3509 4313 3510
4 3571 6196 3789 3834
4 3240 3212 3723 3241
4 5900 5883 3658 3591
4 3776 3834 3789 6196
4 3119 5650 4917 3099
4 3790 3793 3792 3791
4 3119 3099 4811 5650
4 3097 3119 4811 4867
4 2446 3320 3096 2448
4 3016 4876 5710 6077
4 4462 3098 3096 3347
4 3216 3217 3557 2430
4 4294 4492 3612 4146
4 3680 5377 3685 3687
4 3680 3682 3681 3689
4 4955 4742 4306 5381
4 3680 2901 3684 3278
4 4199 5742 6203 4767
4 6333 6310 6309 5968
4 3664 6275 3663 2813
4 4786 5802 4252 4560
4 5745 3090 4786 5744
4 3778 5742 4059 4950
4 4769 5855 4771 3850
4 3603 5584 821 820
4 2379 4020 4124 4019
4 3677 3845 5605 4101
4 4062 2902 4955 4063
4 2908 3604 4101 5578
4 3604 5578 839 4101
4 3605 3847 3603 3848
4 4920 3834 6295 6196
4 3834 3571 4920 4244
4 6196 3571 4920 3834
4 4251 4244 4252 6342
4 4240 4251 4249 4244
4 4244 4252 6342 4560
4 3711 3710 5119 5124
4 4031 5108 3952 4018
4 3953 3798 4018 3952
4 5707 5637 5104 5102
4 3478 2352 5707 4126
4 5019 5707 4163 5102
4 5019 5637 5707 5102
4 2608 3202 5019 3205
4 3479 3819 2352 5019
4 5707 3478 5104 2351
4 5665 3819 5485 3205
4 5680 5486 4978 4983
4 5313 4690 4749 4744
4 5976 4803 4749 4690
4 5313 2310 4038 4744
4 4594 4720 4595 4038
4 2312 2309 2310 4705
4 3080 3078 3828 2354
4 6326 3948 6142 4776
4 4769 2815 5855 6275
4 5519 4788 4761 4595
4 2815 2813 2857 3663
4 2816 4960 2815 2858
4 2815 2814 2813 6275
4 4769 6195 6275 5855
4 4769 6275 6195 2814
4 3660 3146 3534 4350
4 3131 2829 3159 3132
4 3147 4999 3145 4167
4 3147 3145 4999 5112
4 3159 2256 2257 1562
4 3146 3621 4187 3660
4 3344 4167 3146 4908
4 4769 2814 2815 6275
4 4818 474 4873 4791
4 3948 5712 4818 3947
4 4818 5712 466 3947
4 4627 3486 4634 5998
4 3445 3616 3444 4072
4 3445 4072 5352 4073
4 2871 2870 3387 5355
4 3449 3446 3447 3720
4 3868 3486 4781 4633
4 2980 3295 3297 3624
4 3296 3297 5677 3561
4 3296 3561 3959 3297
4 6208 5664 3866 3296
4 4789 3962 3959 3831
4 3296 3104 5656 3670
4 3297 3624 6214 6109
4 3295 3297 6214 5693
4 4769 2814 6195 1534
4 3450 2668 6250 2671
4 3450 3365 3417 2885
4 2443 3450 2671 2668
4 2443 6005 2191 2190
4 3450 6250 2668 2533
4 3450 2896 6007 2533
4 3331 3383 3450 3396
4 3383 2190 2671 2199
4 4900 2905 837 838
4 2896 3450 3396 2886
4 4699 3105 3572 4700
4 5602 3572 4699 3105
4 2520 5305 2519 4291
4 2907 3046 2906 2908
4 2520 4474 4699 4291
4 5602 5578 848 847
4 6089 4147 1883 1874
4 6089 4063 4147 4145
4 4285 4282 4145 5608
4 3612 6124 4146 4145
4 4354 5264 6124 5608
4 6103 1360 5274 4702
4 4062 4280 4125 4124
4 3486 4633 4183 4781
4 3165 2917 2969 2554
4 4304 5335 4292 5289
4 4186 5371 3253 4127
4 3248 3410 3443 3743
4 4756 4072 3616 4071
4 3486 4634 4183 4633
4 4743 3323 4895 4682
4 4064 6042 6344 6043
4 3758 6039 6042 5454
4 5117 5454 3758 5451
4 3426 3711 3758 3753
4 5317 4433 5319 2503
4 3294 3300 3334 2722
4 3420 3711 3424 3709
4 3756 4451 6344 4215
4 5686 4214 6344 5541
4 3362 5690 3359 3360
4 3873 974 3872 4259
4 3872 3362 5690 4906
4 5690 3872 3360 3362
4 3875 3361 3871 3872
4 3713 3500 3577 3497
4 3873 4919 982 5780
4 3171 3210 3212 2809
4 3930 4931 524 523
4 4959 4953 522 531
4 2906 4900 838 2905
4 3718 4930 4959 3930
4 4923 3510 5796 4937
4 3953 4448 5446 4511
4 3472 4448 3957 3951
4 4704 4041 4043 4616
4 3427 3429 3432 3431
4 3798 5361 4508 5902
4 5115 5515 3974 3825
4 4478 4512 3437 4149
4 4512 3437 4149 4458
4 4512 4149 4477 326
4 4512 4472 316 5926
4 4512 5926 4487 6331
4 3003 3988 4841 3009
4 2419 2418 4716 3750
4 4296 3751 4054 5400
4 2419 4716 5339 5341
4 3984 3555 3556 5817
4 2420 3751 5398 3750
4 4296 4054 4317 4322
4 4296 3751 6071 4317
4 3107 4142 3738 3083
4 3738 4745 3083 4142
4 3738 5573 4745 5657
4 5312 2312 4995 2310
4 3833 3832 3738 3083
4 5312 2310 4744 4705
4 4306 3611 4492 3612
4 5573 3401 2355 5964
4 5808 4795 6033 6170
4 4619 4081 379 6170
4 4565 4619 388 379
4 4619 4081 4658 380
4 6033 4683 4619 4658
4 4619 4659 5536 388
4 4619 4659 4683 4535
4 4565 379 4653 6170
4 4565 4619 6170 5536
4 4565 4653 378 4650
4 4040 387 4565 388
4 4565 387 4042 378
4 3549 4565 4042 4650
4 5808 3549 5055 5536
4 5602 856 4699 4474
4 5602 5578 3046 5579
4 847 838 4474 5578
4 3046 5579 2908 3050
4 5602 4474 3035 5578
4 2408 2382 3019 2909
4 3604 4101 839 830
4 2735 3933 2731 2734
4 2616 5961 3018 2613
4 2612 4883 3653 2613
4 3261 6149 5682 4984
4 4970 4926 5672 5721
4 4926 6292 6097 5676
4 2422 2527 2485 2424
4 2656 3991 3290 3992
4 3049 3050 2909 3287
4 3765 5396 4837 4337
4 4680 2510 2511 4743
4 2976 3297 3301 2979
4 3301 4804 3220 2979
4 4263 3502 3220 5631
4 3220 2979 3569 6334
4 5670 3297 3959 3561
4 4789 877 5656 3962
4 2976 3296 3959 3297
4 3959 3104 3960 5656
4 3959 3579 3831 3962
4 5618 4645 4765 4709
4 3406 3378 4778 3381
4 3406 3484 3099 3378
4 4719 4751 6284 433
4 4751 3405 6284 5703
4 3405 6284 3289 4719
4 2423 5903 4778 3405
4 5390 4231 5903 5979
4 6299 4918 4093 4911
4 3873 5804 3842 5780
4 3871 4919 3873 5780
4 3873 983 4259 5804
4 4240 3476 2941 4244
4 4240 4251 4243 4249
4 4251 6295 4244 6342
4 4940 4243 4251 1503
4 4920 1494 4249 1485
4 4920 1495 5008 6295
4 6193 1495 4251 6295
4 4940 1503 4251 1504
4 4704 3827 4790 4041
4 3127 5021 5212 5168
4 5021 5022 2092 6224
4 4704 406 4584 405
4 5021 5169 2101 5232
4 5021 5232 5022 3649
4 5692 5021 6224 5022
4 5067 3204 3199 3208
4 2949 5052 3205 5665
4 3565 5666 5665 5010
4 4704 406 4695 4790
4 3200 5358 5084 3196
4 5019 4168 3202 5102
4 5018 4994 5019 5488
4 2608 5019 3202 5637
4 5433 5874 5090 1036
4 2892 1035 5090 1036
4 2946 5757 2893 5090
4 2892 5090 1035 2894
4 4122 5090 1026 1027
4 4122 5666 1017 1026
4 5757 5433 5874 5090
4 4450 5429 1019 5799
4 4515 5805 4481 3154
4 2946 1026 4122 5090
4 4501 6012 5349 5246
4 3303 3305 3344 4908
4 3134 4985 3309 4986
4 4170 631 4687 5041
4 4687 3306 622 631
4 4200 2116 4213 5160
4 5234 2107 4213 2116
4 2583 6280 2585 5128
4 4704 4695 397 6119
4 3236 2987 5923 4049
4 2557 2732 3980 3308
4 2098 5234 2107 3129
4 5799 4444 3154 5805
4 5420 3576 3883 3842
4 3713 2524 3851 5634
4 4515 5120 5483 4946
4 5780 4446 3883 4922
4 4704 4040 6119 397
4 4895 4580 4651 4579
4 5782 5797 6306 5771
4 5842 5888 5893 5235
4 5842 6012 4507 5192
4 2279 2275 2772 2915
4 5512 4395 5515 4459
4 5515 3974 3825 3824
4 5972 4012 4439 4014
4 4012 4014 3936 3708
4 5480 3516 3518 4454
4 6262 4013 4014 4012
4 4015 5505 4013 4014
4 6262 4013 4012 5480
4 4299 5480 3985 3987
4 4571 1822 6270 6056
4 4571 1831 6270 1822
4 1823 5534 6056 4571
4 3990 2512 4895 4651
4 4570 6227 4571 4132
4 6227 4571 5534 1823
4 4571 4572 6270 1831
4 4570 6067 4571 4572
4 5184 5511 5609 3293
4 3299 3351 5548 5511
4 3545 3350 6068 3353
4 2724 3350 3353 3352
4 5201 4500 5202 2320
4 4491 3502 4780 4779
4 2324 2982 4499 3168
4 5705 3220 3502 5631
4 4741 5581 4740 4779
4 4285 1873 4281 1872
4 6089 4281 1873 1882
4 4277 4281 4285 4282
4 6089 4282 4281 4280
4 4277 4285 4286 4019
4 4281 4286 1881 5569
4 4277 4125 4280 4124
4 5647 910 3271 3273
4 5647 5641 3271 909
4 5647 4736 910 3273
4 5647 5728 4736 3273
4 5647 5710 919 5728
4 5647 5710 4901 918
4 3261 5699 3645 6149
4 3261 5672 6148 4984
4 4925 5667 3363 4897
4 3279 2854 2850 3121
4 2729 2728 4827 2731
4 3627 5730 4970 4984
4 4970 5721 5672 5730
4 5667 5672 4970 4926
4 5667 3363 5676 4926
4 5682 6149 3645 5708
4 6330 5675 5677 5694
4 3295 3296 6330 3866
4 3867 3865 3866 4341
4 6330 5675 5681 6208
4 4577 6330 3295 5695
4 4577 4984 5682 6149
4 4341 3867 6158 5682
4 4091 5166 3815 3812
4 3815 4988 3924 3229
4 3357 6165 3921 3924
4 3357 6165 6338 3921
4 4091 4086 5166 5452
4 3508 3930 3242 4931
4 6030 4482 5814 5635
4 6030 5635 4518 4482
4 3714 4482 5848 5814
4 3714 5814 6030 4482
4 5433 1036 5431 5874
4 5433 5432 5431 1037
4 5433 1036 5090 1027
4 4450 5429 1028 1019
4 2663 5904 4396 3760
4 5309 5195 6332 4421
4 6324 6012 4396 5348
4 2404 2408 2652 2411
4 5893 6012 5904 5531
4 3732 4505 5842 4507
4 5025 650 5239 659
4 6332 5307 5245 5546
4 5057 1585 5897 1594
4 5897 6222 1585 2990
4 2989 6222 5897 2990
4 5897 1594 6228 5898
4 5971 5897 5231 6228
4 5971 5897 6228 5898
4 3762 4143 1107 1108
4 3721 6328 3698 3722
4 3248 3443 2929 3252
4 4022 5875 5959 3743
4 5948 5875 5941 4846
4 5811 5875 5959 5950
4 3706 3696 5952 5282
4 3411 5066 3744 3725
4 5289 5155 675 674
4 5289 5316 5278 674
4 5289 5242 5278 5316
4 5295 5288 5155 675
4 5288 3655 5344 2540
4 5951 5372 1177 4258
4 5951 4076 1167 5956
4 5951 1176 5372 5956
4 5951 1168 4076 5943
4 4895 3323 4651 4580
4 3251 4258 4257 5372
4 4743 4895 3323 4651
4 3191 4143 1117 1116
4 3250 4846 2667 4581
4 5975 1124 4846 5931
4 5580 5516 819 4711
4 1124 4846 5938 5941
4 4927 5975 4846 5908
4 5975 5931 5908 5495
4 5329 1107 1098 5912
4 2542 5344 2881 2540
4 3769 3914 2245 2236
4 2290 2542 5405 2881
4 5405 5196 2881 5321
4 6018 5787 4872 2445
4 3620 1622 2973 1631
4 4425 3112 5196 5405
4 6234 3237 3543 5767
4 2891 5790 2887 3365
4 3879 6252 5790 5795
4 5787 2445 6254 4872
4 5787 6005 2445 5790
4 5929 6252 5787 6005
4 6018 2445 4872 4869
4 2444 3882 5190 5191
4 3552 4434 5503 1278
4 2416 5503 3552 4434
4 5503 3555 5504 5817
4 5503 1278 4434 1269
4 4509 1261 6040 1262
4 4642 6040 4509 5505
4 4607 5298 6110 5125
4 5250 5261 4725 5251
4 2680 2470 2474 2472
4 6072 5439 6110 5565
4 3846 4277 4287 4286
4 6072 5526 5540 5527
4 2993 2992 4134 3037
4 2831 3225 2864 3277
4 4610 5435 4019 4144
4 3736 5877 3737 4675
4 4676 5413 4775 4694
4 2865 5530 3293 5412
4 5286 4604 5291 4630
4 4624 4723 5781 6095
4 5781 4723 5583 6095
4 5669 3965 5877 4723
4 4799 4721 4629 3737
4 4799 4721 4649 4648
4 3965 4799 4649 4650
4 5413 3966 4192 4694
4 5877 3965 3737 4721
4 2375 2379 2378 2411
4 2974 4041 3549 4557
4 5964 3548 4672 4648
4 4799 3737 4629 5964
4 3168 3568 3570 5880
4 2489 3104 2976 3296
4 3627 3624 5730 4984
4 5729 4984 6148 5672
4 5729 1944 6148 6149
4 5726 5667 4897 1963
4 5726 5699 1953 1962
4 5667 3771 3261 5726
4 5729 1945 6148 1944
4 5699 5726 6148 3261
4 5667 6292 6148 5672
4 3478 4126 5707 4163
4 3718 4959 4930 4947
4 2608 5637 3202 3200
4 5019 4163 4126 4994
4 4516 5784 5482 4520
4 5784 4520 4516 5785
4 3841 2673 2674 2218
4 3713 3154 4515 4481
4 5482 4092 4810 6311
4 5482 6311 4810 2522
4 5784 4086 6311 5783
4 5917 5453 4484 3811
4 4609 4608 5291 4604
4 3843 5483 3842 4169
4 5782 4516 4946 4945
4 2784 3667 3130 3607
4 4351 3091 4786 3033
4 4609 4608 361 4226
4 4010 3651 5411 4008
4 4052 5000 4057 4061
4 3089 4767 3086 5742
4 3802 4916 6178 4245
4 3774 3776 2942 3834
4 6215 6303 6185 4968
4 4197 4198 1567 1576
4 4197 6217 1567 4196
4 3338 4197 6217 5139
4 4197 1576 6222 4198
4 6217 3338 5070 4196
4 4197 5139 5849 1577
4 3573 2608 5637 5707
4 2609 3575 2347 3491
4 4826 4060 6276 5831
4 3860 2215 3863 3864
4 3238 3864 3239 5471
4 4609 4551 4583 351
4 5591 3861 5138 6218
4 5470 5829 5909 5830
4 3125 4335 5690 6014
4 5716 4936 936 945
4 4762 3642 3133 5716
4 6077 928 5710 5728
4 5727 4738 6077 5728
4 4311 4991 5514 4958
4 4809 3499 3500 5482
4 4310 4903 4905 3637
4 3315 4936 4762 3639
4 3188 3007 2391 5589
4 2227 3015 2860 3213
4 3315 4762 3642 3637
4 5152 3120 947 2853
4 5796 6085 4948 3318
4 4739 3120 928 929
4 4762 954 4958 3639
4 4762 954 3639 945
4 4762 5716 946 945
4 3315 5716 3642 4762
4 3923 6338 6173 6165
4 6339 3944 4364 4130
4 3703 3391 3439 5673
4 4609 352 4226 361
4 3940 3943 3944 5121
4 3524 4035 5762 4034
4 4836 4442 5366 4303
4 4839 3594 4553 3901
4 5765 3527 4835 5366
4 4034 4035 3598 3524
4 3524 3938 4034 5762
4 3939 5972 4463 4642
4 5440 6267 4405 6268
4 5533 6273 4541 3751
4 3751 5400 4296 3556
4 5398 5400 6062 3751
4 6052 5398 5400 6062
4 4841 3751 4541 6071
4 4044 1801 2740 1810
4 2503 2740 1801 1802
4 4044 1810 2740 6335
4 2503 2740 5341 6336
4 2740 6075 1811 5340
4 4478 4477 6078 6331
4 4478 4512 6331 3437
4 4478 4512 4477 6331
4 3905 6078 4477 4495
4 5167 4412 6277 5261
4 3184 4136 3180 3385
4 4609 352 4583 6093
4 3905 4485 4477 4486
4 3430 3438 4478 3437
4 4570 6067 4413 4131
4 2106 3862 5089 5234
4 3862 6319 2088 5088
4 3878 4701 4200 5160
4 4384 3311 4385 3915
4 4390 4389 4388 5646
4 5234 3862 5089 4153
4 3877 2209 2789 3878
4 6108 3608 4702 1369
4 6108 1369 4702 1370
4 6108 1370 4702 5601
4 4837 3926 4838 4239
4 1841 259 4570 6086
4 4570 4571 6227 1832
4 6246 2739 4969 2741
4 2741 2739 2738 4972
4 5603 6154 6145 5525
4 559 3522 5013 4163
4 3665 3893 5855 6275
4 3892 2943 6215 5539
4 3892 6192 6215 6185
4 3033 3090 3032 4786
4 3304 3307 3306 613
4 3309 3304 604 613
4 3304 3306 4908 612
4 5086 3310 3304 3309
4 3304 5080 4187 3310
4 3305 4908 3304 3306
4 5538 5643 6024 5850
4 4154 5089 4703 6202
4 2855 4150 5161 4151
4 6199 5852 5868 6201
4 4390 5646 4388 5644
4 3519 4701 5206 5207
4 4464 3671 3312 5891
4 4347 6280 5651 2956
4 2585 6323 5128 5214
4 5933 5128 4039 5214
4 5933 6182 6325 6245
4 5219 6182 6231 6325
4 2583 2957 4766 2955
4 3165 2955 3167 3166
4 3928 3236 2965 4049
4 2232 2910 2233 2629
4 2781 3542 5751 5752
4 3112 5405 5321 5196
4 2880 4422 5211 5196
4 2552 2548 6129 4591
4 4422 5196 3112 5023
4 5321 3112 3113 5405
4 3111 3583 5178 3887
4 4570 6086 4131 4413
4 5498 5399 3551 5500
4 3752 4571 4132 3353
4 3752 3554 4398 3750
4 3752 6052 5398 5498
4 5533 5499 3752 4132
4 6272 3353 5499 4132
4 3342 3146 3147 3131
4 3131 3345 3342 3146
4 2713 3145 3131 2829
4 3337 2951 2954 2952
4 3146 4167 3145 4152
4 4170 5178 4689 4284
4 3336 3340 3339 3342
4 4570 6227 259 1832
4 3967 6169 4608 4226
4 3967 5286 3327 5291
4 2827 4795 3186 5808
4 2824 5877 3965 3737
4 3965 4721 4799 3737
4 5055 5536 6170 5808
4 3549 4042 4799 4650
4 2314 2722 2724 2308
4 3895 4606 4324 5290
4 3026 4078 3027 3055
4 2647 4078 4214 6104
4 3119 3123 3099 4917
4 3792 3793 3124 4158
4 3119 3792 3790 3124
4 3124 3793 4833 4158
4 4462 3348 5301 3793
4 4462 3124 4794 3123
4 5777 3587 6176 3490
4 2841 2531 3981 3459
4 5882 6187 6188 5773
4 5884 6176 5773 5882
4 3492 3789 3571 3807
4 3458 3982 5917 3811
4 3586 6187 5807 6188
4 3335 3571 3789 3834
4 4240 4241 3780 5473
4 3528 3838 2857 3663
4 3838 3529 5103 5357
4 5126 3373 3031 5522
4 2351 5707 5637 5104
4 2351 3533 3838 5357
4 3033 2749 3032 3090
4 2294 3663 3665 3839
4 3838 5048 5044 5013
4 3422 4323 3712 3754
4 4323 5310 748 5311
4 4005 757 4323 758
4 4005 758 4323 5016
4 3712 5311 4511 5310
4 3423 2649 5687 2646
4 3422 5016 4323 3754
4 6072 5125 4332 5251
4 3160 3031 3910 5561
4 3920 5535 4235 4236
4 4207 5375 6001 5537
4 6345 5540 5554 5555
4 3985 3986 6028 4299
4 3983 1777 6265 4212
4 3984 4296 5401 3556
4 3003 3556 3984 3555
4 3003 3988 3984 4296
4 3822 3002 3987 3226
4 3984 3987 6065 4532
4 5480 4299 4454 3494
4 4610 5298 5435 6110
4 5350 5957 706 5351
4 4847 5351 4077 5957
4 4847 5284 5392 5393
4 5350 4848 4849 5306
4 5331 4847 5350 5351
4 4847 4849 5284 5331
4 4847 4077 4076 5957
4 4838 4881 4239 3559
4 4329 3044 5976 5977
4 4594 5976 6152 4761
4 5519 4594 4761 5976
4 3627 3625 3257 5721
4 3885 4173 3039 4174
4 3897 3559 4881 3896
4 5312 6121 4995 3083
4 5313 4594 5976 4038
4 6187 6172 3810 3586
4 6168 6187 6172 3810
4 3031 5561 5547 3910
4 5882 3586 6188 6187
4 3981 5619 5334 3586
4 3982 3981 5611 5334
4 5765 5764 6041 6034
4 6035 5972 4373 6045
4 6045 6055 3440 4426
4 6045 3440 6055 4011
4 5765 5972 6045 5766
4 5766 6038 4119 6036
4 4939 4345 4344 4998
4 3637 4762 4310 3317
4 4311 4903 4344 4991
4 3875 3871 4997 4919
4 3373 5547 5522 5537
4 4904 4344 4998 3876
4 4904 4345 4344 4991
4 6018 3880 3882 5988
4 6018 3882 5191 5988
4 3879 5790 2891 5795
4 2594 2433 3076 3765
4 2978 3624 3297 2979
4 2918 3168 2923 3625
4 4499 2331 4500 2329
4 4789 3296 5656 3606
4 3296 6208 6330 3866
4 3295 5677 3296 3297
4 2885 2444 2443 2898
4 2668 2442 3978 2443
4 2885 2443 2668 3450
4 2190 3153 2443 6005
4 2471 4025 2697 3908
4 2443 6005 2669 2191
4 3857 4297 2161 6337
4 3857 5981 6337 2161
4 3717 3715 3858 2169
4 3856 4297 3857 6337
4 3856 4297 4056 2170
4 3067 5981 3066 5627
4 3403 4157 3404 3402
4 3403 3404 4157 4782
4 4157 3404 4794 4782
4 4157 3404 4176 4174
4 4157 4796 4794 4174
4 4157 4796 4176 460
4 4157 4026 3402 451
4 2804 3445 3447 2886
4 3368 2887 2551 2804
4 6253 6189 4104 4589
4 2888 2444 2885 2898
4 3733 3734 3195 4924
4 2662 3761 4927 2878
4 2873 2871 3387 3386
4 2873 2876 3387 2875
4 2876 3870 3616 4073
4 3444 4072 4756 4755
4 4929 3703 5029 4365
4 6042 3756 3755 4451
4 5686 6344 4064 5541
4 3056 4412 3908 5167
4 5542 4064 6042 6344
4 3941 4065 6073 4400
4 3030 2644 3056 5261
4 3581 4095 2937 3635
4 4339 3243 3630 3632
4 5798 3584 4894 4893
4 3635 3629 3631 2935
4 6151 2614 2611 2613
4 3463 4093 4117 3462
4 6299 4093 4918 5955
4 4378 4911 3462 4858
4 4093 4117 3462 4911
4 6299 4093 3462 4911
4 6299 5955 4918 5229
4 3891 2291 3665 5001
4 4930 4987 531 540
4 3630 3243 4976 4948
4 3803 6197 3116 4975
4 2943 3835 5539 4560
4 3804 3803 4947 4987
4 5361 5447 5337 5446
4 3473 4511 5361 5337
4 3798 5436 4508 3395
4 3951 3456 3954 3957
4 4016 3955 3956 4448
4 4016 3429 3956 3955
4 4018 728 4460 5447
4 4513 325 4487 6331
4 4556 4513 333 4531
4 4513 325 6078 334
4 4556 333 4513 334
4 5330 6078 4513 6331
4 4929 5029 5673 6069
4 3703 4929 5029 5673
4 3983 3003 3822 3008
4 4365 4363 4929 5028
4 3937 5673 6271 6069
4 3937 3702 6271 4011
4 3829 4616 3832 3827
4 3436 3971 5512 4457
4 2356 3832 5734 3827
4 3833 3832 4100 5573
4 3738 5573 3401 2355
4 4631 1828 4632 5595
4 3030 6340 3029 3027
4 3139 6344 5686 4214
4 2647 5686 6104 4214
4 4631 4632 1828 1819
4 6060 4725 5509 1836
4 6060 1836 5509 1827
4 2645 4631 3826 4632
4 5145 5141 4638 4683
4 4895 4219 4220 4579
4 4895 4220 4680 4682
4 5145 4535 6033 4683
4 3434 3889 4878 3437
4 6121 5625 4995 3083
4 4337 5521 1395 1404
4 4594 4720 2310 4592
4 5313 5976 5977 4749
4 2978 3168 3625 3624
4 2728 5961 4827 2731
4 6125 1414 4805 1413
4 4827 4829 4234 2613
4 5961 2613 6151 3018
4 1432 1423 4234 6144
4 4234 2613 4898 6151
4 4234 4898 4829 1440
4 4234 6151 1441 1432
4 2649 3138 3709 3756
4 5670 3301 3297 6109
4 2976 3301 3959 3104
4 3101 6285 3959 4232
4 2976 3103 3301 3104
4 3623 2978 3169 3625
4 3301 3297 6109 2979
4 4635 5572 5607 3050
4 3407 4778 4763 3405
4 4778 4763 3405 4180
4 2933 3630 3631 3585
4 5042 4247 4246 4248
4 3635 5955 4095 4093
4 5042 5394 5047 4863
4 4247 3006 5043 5042
4 3938 2685 3601 3970
4 5955 4093 3635 4094
4 3461 5394 3631 4094
4 6299 4891 4094 5955
4 4818 4378 4873 5712
4 3000 3767 3590 3259
4 4920 5008 1486 6196
4 4920 4251 4249 1494
4 4251 4244 4920 4249
4 3571 5346 4920 5345
4 4920 5346 1485 5345
4 3780 5473 4241 5724
4 2624 3032 3779 2939
4 6190 4252 4241 4954
4 6190 4950 4974 5742
4 4921 3006 5588 5589
4 2366 2365 3642 3122
4 2729 2615 3366 4827
4 5143 5057 6225 6076
4 5057 2990 1585 1584
4 1584 1576 6105 2985
4 2952 2985 2984 4198
4 5143 5252 5057 5898
4 5057 5897 1585 2990
4 5057 5252 1594 5898
4 2912 3958 5844 3993
4 2912 3993 5844 2913
4 2479 2482 5004 4233
4 5233 5923 6134 3619
4 4423 3979 3732 2243
4 2630 3519 4000 5891
4 5891 4464 3671 4001
4 4384 3916 3311 3915
4 2787 5538 4703 4389
4 5538 4389 6200 4703
4 4150 4151 6024 5841
4 4000 5891 5208 4001
4 3877 3862 3129 5234
4 5493 6206 5449 5831
4 2524 2523 3851 2525
4 3499 3498 5582 6102
4 4034 4878 3970 3601
4 2597 5420 3576 3491
4 5430 3155 4669 5428
4 4767 6333 5000 4061
4 4505 5890 5871 5836
4 4727 5842 5936 4726
4 6324 4501 6013 6012
4 3995 3994 3674 3993
4 3151 5842 4727 4726
4 4156 5890 3675 5469
4 2764 4425 5196 4394
4 3343 3325 4348 3344
4 3995 3996 3994 5364
4 3386 6019 5356 3387
4 6011 3386 6019 5356
4 3388 5271 3870 2876
4 3388 3387 3870 4184
4 4208 3938 5762 4034
4 3179 6179 4137 5477
4 5523 5477 783 792
4 3182 5547 3373 5537
4 2510 3540 5517 3539
4 3452 4576 774 783
4 2375 2384 2380 2379
4 2426 2396 2565 2394
4 5523 3053 5535 793
4 3053 785 3055 3910
4 3456 3472 4209 3957
4 4004 4209 5311 757
4 4004 765 3455 4209
4 3455 4209 765 3957
4 3185 3177 4137 3454
4 5547 5537 5535 802
4 5535 802 4235 801
4 5535 801 4235 4236
4 3920 4235 5535 5537
4 3020 3056 3024 2682
4 2650 3030 3027 4078
4 2974 3186 3187 4557
4 3290 3991 4558 3992
4 2801 2803 5200 5380
4 4955 4306 4742 4147
4 2903 2902 3685 4957
4 2658 2656 2514 2515
4 3763 4679 2803 4715
4 2903 4957 3685 3683
4 2803 4679 6118 4715
4 4955 4306 4957 5380
4 3291 4643 3322 3408
4 5390 4753 4415 5979
4 2440 3174 3255 2330
4 4878 4034 5926 5370
4 4752 4148 5594 4729
4 4494 4542 4414 4724
4 3289 3828 4543 4718
4 4264 3402 451 442
4 5313 2310 3044 4594
4 6284 3289 4719 4718
4 2361 2369 2374 2366
4 6107 6108 1369 3608
4 3290 3288 4494 2521
4 5390 2421 4181 5903
4 5618 4231 3381 4288
4 5618 5648 5979 4288
4 5618 5903 5979 4753
4 5667 4926 6292 5672
4 5667 1963 5676 4897
4 3261 5726 6148 5667
4 4925 5667 4926 3363
4 3094 4176 4026 3402
4 4783 5518 3094 4788
4 3926 4337 4639 3927
4 3897 2728 3367 3563
4 3004 5587 3006 5043
4 3354 3356 3355 3359
4 3358 3355 5769 3359
4 4084 6162 3358 5770
4 4083 4086 5784 5783
4 3501 3871 3842 3883
4 3640 3319 4923 5046
4 4118 1252 6262 1251
4 5520 3935 2920 5525
4 5046 5514 4309 4307
4 3638 3317 5747 3639
4 5683 4813 6346 4812
4 3640 6346 5061 5725
4 5514 3639 4961 5747
4 4903 4905 3637 6014
4 5045 5061 4860 4823
4 5488 4126 4993 4994
4 5488 4978 5486 5009
4 4342 5486 4983 4996
4 3479 3819 5075 3574
4 3819 5485 5038 5665
4 5018 5487 5489 5038
4 3241 3242 4948 3932
4 3480 5680 5488 4126
4 3732 4507 5842 6012
4 5919 5073 4507 5072
4 3518 4211 3488 4118
4 5858 4501 5246 5072
4 3732 4501 4507 6012
4 4118 3494 6262 5480
4 3994 5919 5073 4507
4 4470 5041 5170 5026
4 3730 3731 4506 4469
4 2764 4422 5196 3112
4 3979 4396 4421 6013
4 4470 5026 5025 650
4 3111 4422 3112 5023
4 2241 3731 2591 3135
4 5922 6234 3237 5140
4 6320 6134 5923 4049
4 2968 2969 3164 2917
4 5233 6226 5456 1613
4 3618 3620 5456 2973
4 5023 3112 3113 5321
4 5405 5321 5751 3113
4 3113 5258 5751 5217
4 3113 5258 5217 5172
4 3237 6234 5320 5140
4 4118 1251 6262 3494
4 6134 5923 4049 3619
4 2542 4295 5344 2540
4 3443 3745 3743 3410
4 5811 5875 3743 5959
4 3249 5875 3250 3252
4 2672 2883 4927 2667
4 6308 5943 5811 5824
4 6347 4847 3251 5951
4 5930 4847 4076 5951
4 5811 4191 5950 5959
4 3705 4662 3806 5408
4 3724 3705 3806 5408
4 3726 3721 3698 3705
4 3194 1117 3193 1118
4 3705 4662 5963 4714
4 4118 4012 3518 5480
4 3412 5068 3725 3724
4 2692 3192 3250 4581
4 3072 3195 2694 3733
4 4581 5941 5875 4846
4 4118 4211 1242 4454
4 3247 2538 2667 2883
4 3721 3412 3724 5973
4 4581 5975 5941 4846
4 2885 5791 2896 2668
4 5791 2897 5270 6008
4 5791 5270 2896 6007
4 2873 2889 2871 3386
4 2896 2886 5352 2897
4 6060 1828 4631 5595
4 6060 5595 1837 1828
4 6060 1837 5595 6277
4 6060 4631 1827 5509
4 3025 3055 3053 3054
4 2682 2697 3028 3056
4 2683 6004 6072 5125
4 3905 4435 3907 4524
4 5375 5537 5522 6001
4 3683 3680 2901 3684
4 4614 6004 6110 4674
4 3846 6263 4610 4286
4 4218 1342 3682 1333
4 4696 1333 3682 1332
4 3681 3683 1341 1350
4 2506 5808 6033 4535
4 3967 4653 4608 6169
4 2761 2716 2863 2865
4 4696 1332 3682 5189
4 4612 6111 6131 5586
4 6110 4674 6004 5560
4 4612 4610 5606 6110
4 5632 4817 3378 4917
4 5632 3381 3378 4792
4 5886 3065 3717 3066
4 3406 3407 4778 3123
4 5632 3378 3123 4917
4 3378 3381 3380 4792
4 3375 3378 3381 3380
4 2485 2519 2527 5305
4 2410 3285 4491 2983
4 6156 1990 4165 4820
4 6156 4820 1981 1990
4 6156 6171 1981 4820
4 6156 6171 5735 1982
4 3489 3592 3591 5777
4 6156 5884 1991 5735
4 5680 4993 5488 4126
4 5918 5724 5100 5614
4 5917 5918 2028 5614
4 5611 5473 5615 5619
4 5627 2342 3066 3064
4 5918 2028 5100 5739
4 4826 4825 5449 5909
4 6206 6276 4060 5831
4 4826 5831 6276 5909
4 5837 6206 2053 2054
4 5831 5582 5493 6206
4 4052 4061 4057 4060
4 5591 5593 5592 6218
4 6341 3117 3115 3116
4 6341 4956 6197 3149
4 3803 3115 6197 6303
4 6183 6303 4968 6185
4 2755 5060 1541 5091
4 2239 1541 5060 1550
4 2710 2239 5060 3690
4 2237 4271 1548 5411
4 2710 5091 2813 5060
4 5886 2342 3065 3066
4 3344 3303 3146 3345
4 4450 1009 5810 1010
4 2752 5357 3200 2753
4 2755 5820 5091 1532
4 3091 5539 3664 4351
4 2601 3576 3574 3575
4 2600 5357 2752 2712
4 3203 2948 2911 2912
4 3200 5828 2753 5357
4 2712 5357 2753 3529
4 2753 3530 3529 5828
4 2811 2821 2213 2820
4 3121 4598 4739 5668
4 3071 5627 2342 5997
4 5997 5627 2342 3066
4 928 5716 3120 6077
4 2853 3125 2365 3133
4 6186 5756 3550 3923
4 3125 3359 3362 5690
4 6318 2143 4283 2152
4 6233 4283 2143 2144
4 6233 6321 4283 2144
4 4283 2152 6242 6243
4 4283 6242 2153 5942
4 3167 4001 6181 6153
4 6061 5942 6236 3881
4 6268 5440 3972 4567
4 6267 6268 5440 3972
4 5416 4426 6045 3440
4 4567 3440 6264 4426
4 4569 3441 3975 4567
4 3970 4569 3975 3894
4 6262 4013 5480 3494
4 5972 4012 4373 4439
4 3702 4011 4012 5481
4 4118 4439 1252 1243
4 3702 5480 4013 3987
4 4118 1251 4454 1242
4 4118 5480 3518 4454
4 3937 6055 3440 4011
4 5290 5330 4606 4324
4 4606 3596 4210 4555
4 2313 2568 2567 4133
4 3662 3590 3597 5370
4 4463 4509 3037 4642
4 3594 4504 4483 4526
4 4839 4443 3901 4553
4 5293 4600 4550 4353
4 4627 4304 5928 5367
4 6335 1819 3826 1810
4 6074 2740 1810 6335
4 6074 2740 6075 1811
4 1819 6074 6335 4632
4 6074 6075 3333 4787
4 6074 4632 1820 4787
4 4295 4304 4628 2844
4 4573 3333 4787 4632
4 5339 5341 4716 6336
4 4716 5340 2740 5341
4 2305 2318 2425 3041
4 4410 3333 2642 2645
4 4433 6336 2503 5341
4 3389 3710 5123 3398
4 6340 5544 5554 5513
4 5339 5687 4433 6336
4 3003 4296 4841 3988
4 3423 3941 4432 4433
4 2568 3547 3352 5500
4 6127 4779 6117 1891
4 6127 4780 6117 4779
4 6117 5581 1891 4779
4 6117 3502 4779 4780
4 4263 6117 3502 5631
4 4263 3502 6117 3503
4 6117 3502 3504 3503
4 6125 4838 1405 4337
4 6107 3608 1369 1368
4 4174 3040 4176 3039
4 3096 4462 3082 3404
4 3320 5703 3408 3405
4 3559 3926 4838 6125
4 3168 3624 3568 5880
4 3084 5625 4995 5395
4 5396 1388 5625 1397
4 4881 4328 1424 1415
4 6294 6298 4321 4615
4 6294 3428 4547 4319
4 6294 6298 4067 4321
4 4471 4067 6294 6298
4 6294 3428 4488 4547
4 4807 4808 4484 3903
4 4807 2035 3487 4810
4 2026 2017 2025 5452
4 4807 5453 5918 2027
4 5452 2017 2025 2016
4 3811 2018 5453 3813
4 2018 2027 5917 5453
4 4083 3843 6162 5782
4 2524 3499 3500 3497
4 3309 3307 614 4985
4 3309 3304 613 3307
4 3134 3307 3309 4985
4 3309 605 5086 3950
4 2961 5358 3950 5086
4 2455 2465 2463 2453
4 4153 4202 4703 5089
4 3877 5234 4153 3862
4 2958 4205 5160 3128
4 4385 2788 3313 3311
4 6293 4389 5646 4388
4 4501 3732 6013 6012
4 6200 6202 4703 5879
4 6199 5228 6021 6024
4 2478 2464 3928 2986
4 2480 4205 4233 4346
4 2585 3170 5128 4050
4 3613 3694 2482 3614
4 5219 6280 6325 4347
4 2780 2778 2776 4292
4 2480 5003 4346 4233
4 6182 6245 6061 6321
4 4798 5934 5128 4039
4 3869 2877 4589 3870
4 3881 5942 6236 6238
4 6181 6182 6061 6321
4 5934 4851 6237 6245
4 5219 6182 5933 5128
4 6182 5934 6061 6245
4 5580 4711 819 828
4 6343 5516 2510 5517
4 4900 2905 3323 837
4 5516 6343 810 5517
4 5516 5584 811 6001
4 5516 6001 4235 6343
4 5516 4235 810 6343
4 5107 3395 4508 3506
4 4508 3506 5436 4453
4 5107 5467 4508 5462
4 3798 4018 4508 5361
4 3471 3473 4511 5361
4 3471 3472 3953 4511
4 4508 4018 3798 5108
4 4508 4403 5462 4453
4 3735 3737 4750 4675
4 3681 3682 4218 1342
4 3736 4218 4675 5274
4 5274 4675 1352 1343
4 5274 4702 1360 1361
4 6103 5274 1360 1351
4 5274 4702 1361 6112
4 5687 4065 5686 6043
4 3139 6043 6344 3756
4 2645 5687 4044 5463
4 5686 6043 4065 4064
4 6104 4214 5541 5513
4 6340 3027 6104 5554
4 5686 6043 4064 6344
4 4078 5484 5554 5472
4 6022 5791 2668 2533
4 6022 1664 6016 1673
4 5791 2668 2533 2896
4 5791 3386 6011 3917
4 2884 2886 2804 2887
4 5791 6016 6008 2533
4 1664 2442 6022 3917
4 5900 5479 3591 6098
4 5882 6187 5773 5711
4 6031 5900 5479 5883
4 3658 3653 3659 6032
4 5882 3810 3586 6187
4 3805 3210 3212 2349
4 2387 2637 2639 2388
4 6302 3659 6161 5501
4 3591 6098 4819 3796
4 2729 4972 2736 2738
4 2980 3296 3295 3866
4 2621 3261 3645 5682
4 3295 3296 5677 6330
4 4577 2980 3295 3866
4 3295 3297 3624 6214
4 3283 6186 5737 5741
4 3263 3771 3796 4262
4 4734 3646 3281 4737
4 5756 3550 3923 3919
4 3261 6149 6148 5699
4 3485 3486 4633 4634
4 6158 6230 5709 5704
4 4078 4214 5554 5484
4 5554 5507 4468 5555
4 5507 5540 5554 5472
4 5554 4214 4217 5484
4 5250 4725 5261 5167
4 5523 5535 792 793
4 6177 6081 5318 6082
4 5317 4212 5318 3009
4 3001 3011 3010 2686
4 4633 3485 4634 4298
4 3822 3983 3227 3985
4 6177 6339 5028 4363
4 6177 6174 6261 4363
4 5350 6347 5957 4847
4 6347 5372 5299 5957
4 6347 4257 5299 5372
4 5956 5957 5372 5951
4 5928 4304 5289 5335
4 3251 5372 5951 4258
4 3954 3438 3428 6294
4 3929 4964 4308 5680
4 4478 3430 3888 3438
4 3240 3245 3629 3636
4 2369 3316 3642 3637
4 4947 4953 3115 3118
4 4947 4941 3240 3242
4 3718 3805 3212 3723
4 3805 3804 3931 3523
4 4963 4126 3521 4993
4 3491 2347 3481 3575
4 3264 4738 3669 3281
4 3646 6158 4735 3867
4 6158 3867 5704 4735
4 3279 5978 6288 3282
4 5150 3125 5151 3355
4 6288 5978 5709 3282
4 4084 3355 3358 3357
4 4085 4082 4087 4084
4 4083 6304 4084 4085
4 4084 3358 3355 5769
4 4084 5770 3358 5769
4 4084 6304 5775 5774
4 5002 5171 5004 5003
4 5002 3614 5004 5171
4 5003 2584 6280 6229
4 3599 3468 3456 3472
4 5651 2956 6280 5003
4 3613 5642 1581 5570
4 5232 5002 3649 6211
4 3691 3694 2482 3613
4 6341 6197 3116 3115
4 3951 3435 3955 3430
4 4361 4951 4355 4362
4 3802 6197 3115 6303
4 4361 4355 4366 4362
4 3636 4361 3117 6341
4 3168 3568 3624 2979
4 3568 2979 3569 6109
4 3168 3570 3568 2979
4 5689 3624 3568 6214
4 5689 3568 3624 5880
4 5929 2180 3153 4056
4 5929 6252 2171 4056
4 5929 6005 2172 6252
4 5929 6005 5787 5790
4 5929 5787 6252 5790
4 5929 2443 6005 5790
4 5929 2171 6252 2172
4 4040 388 4565 5536
4 4040 4659 5536 6119
4 4704 4040 397 396
4 3549 4040 4565 5536
4 4040 397 4659 6119
4 3532 3530 5828 3529
4 3530 3531 3660 3534
4 3532 5828 586 577
4 3532 3529 5059 3531
4 3532 3531 585 3660
4 577 3532 5828 5048
4 4058 6206 5449 5493
4 2784 2785 2953 5070
4 2726 2240 2755 2238
4 2726 3090 4351 5745
4 3780 4241 4950 5724
4 3713 4445 5483 4515
4 3538 3537 4587 3536
4 4990 4226 4224 4225
4 5823 6093 3907 4226
4 4224 4636 4225 362
4 5042 4248 5394 4247
4 5042 4863 5047 5043
4 4921 5587 3004 3095
4 3461 3462 5394 4093
4 3585 4246 4894 4893
4 3006 3585 4246 4894
4 4893 4248 4339 3585
4 3244 6303 3802 3115
4 6193 5803 6342 1504
4 3775 3776 6196 4934
4 2390 4172 4095 3581
4 3835 3776 5008 6295
4 3969 3976 3972 3974
4 3511 3439 3391 5673
4 5512 3974 4395 3976
4 4472 4878 3437 3436
4 4457 3431 3436 3433
4 5108 5512 4459 3431
4 3768 4409 5822 5290
4 3904 3328 5822 3907
4 4677 3905 6078 4477
4 3324 2972 5341 2419
4 4725 5294 6060 5261
4 4179 487 4862 488
4 3059 3299 5548 3293
4 3399 3392 5673 5029
4 3662 3938 3601 4034
4 4179 4893 487 496
4 3059 3299 3349 5548
4 3817 5801 1307 1298
4 3547 1305 3352 1296
4 3349 4578 5548 1315
4 3818 1315 3349 1306
4 3349 3547 1305 3352
4 3818 3821 4578 1316
4 2678 2683 5126 5375
4 4612 4613 4559 6131
4 4613 5597 4228 4559
4 5126 2683 3373 5375
4 3677 5607 3050 5579
4 4635 4140 4139 5607
4 5572 3677 4613 5605
4 2506 6033 5808 4795
4 3846 4125 4277 4124
4 5558 3537 5141 4680
4 2511 5141 2499 4680
4 5558 4219 4646 5567
4 5558 4680 4681 4684
4 5558 4219 5567 4681
4 5558 3537 4622 5141
4 4638 5142 4579 4219
4 4895 4219 4680 4220
4 2432 2431 3042 3038
4 4995 3043 3044 2310
4 3833 3832 4617 4100
4 3079 4643 4644 2311
4 5312 3833 4717 4692
4 5977 5313 4749 5395
4 5312 4746 3833 4692
4 5312 3833 4746 3083
4 5519 3044 5976 4330
4 4179 5590 4899 4879
4 4331 5961 6144 3018
4 6002 4379 6164 4801
4 2735 4970 5721 4926
4 3897 5961 4234 6144
4 4837 4239 1406 1397
4 3897 4234 5961 6136
4 4751 5703 433 442
4 3407 3403 3405 4763
4 3407 4782 3403 4763
4 4751 3403 3405 5703
4 3403 442 3402 5703
4 3403 4782 4157 452
4 3322 2423 2449 3321
4 2803 4715 6116 2802
4 5714 497 4179 4899
4 3287 5569 4277 4780
4 2409 4062 4124 4063
4 4062 4740 4491 4779
4 5629 5631 4491 4779
4 2320 2319 5202 4679
4 4537 4558 4557 6119
4 3078 3079 2311 4643
4 4921 5590 5588 5301
4 4861 469 4255 4175
4 478 477 4246 5588
4 4921 5588 5587 4175
4 5587 5588 4255 4175
4 4896 4897 1963 1972
4 4896 5676 1963 4897
4 4896 1964 5676 4989
4 4896 6171 4819 1972
4 4896 6098 5479 4989
4 4904 964 4906 973
4 4905 964 4904 963
4 4905 963 4904 4991
4 4904 973 4998 972
4 4892 3510 5702 4932
4 4375 4376 3948 4377
4 3464 6002 3465 4379
4 2730 4925 4970 4926
4 3871 3873 3876 3872
4 4259 3361 6162 3360
4 3871 3873 3842 5780
4 4997 4939 4998 5779
4 4997 5076 4939 5779
4 5714 496 4179 497
4 2960 2893 2967 2895
4 5148 2948 5106 3958
4 2963 3203 2912 3958
4 3676 3151 3732 5842
4 2819 2818 4670 2855
4 2981 2951 2952 2775
4 2952 2990 2985 4198
4 2243 2241 3151 3732
4 5796 4179 5798 4899
4 2476 3602 2217 2483
4 2459 3325 2591 3583
4 3566 3602 3129 2483
4 5845 1090 5203 1091
4 5888 1081 5203 1090
4 5845 1091 5203 5409
4 5857 5203 1081 1082
4 5857 5203 5936 1081
4 2786 4727 4155 5406
4 3136 4687 4170 3306
4 3136 3135 4687 3307
4 4170 3306 631 630
4 5920 5114 5187 3339
4 3303 4908 3344 3146
4 3325 4348 3344 3305
4 3302 3309 3307 3304
4 2791 2460 3175 2785
4 2417 4841 3751 3750
4 4296 4316 4322 4317
4 4296 3751 4317 4054
4 2419 3324 2417 3750
4 5401 4532 4296 3984
4 3988 4316 4533 4322
4 3988 4533 4532 4322
4 5400 4296 3556 5401
4 6345 3029 3027 5526
4 3026 3054 3788 5051
4 3027 3029 3910 5526
4 4209 765 757 4004
4 3788 3455 775 3452
4 4004 3788 3784 3455
4 3784 3455 3451 3183
4 2303 3056 4412 3482
4 6001 6343 3700 5537
4 3139 4214 4215 6344
4 2641 2648 2397 2646
4 3788 3054 776 5051
4 3788 3455 766 775
4 2906 838 5578 2905
4 2904 2906 4272 3604
4 3848 2908 4101 3677
4 3603 5584 4030 821
4 3603 829 5580 820
4 2497 5516 5584 820
4 3699 5375 3847 5522
4 5145 4536 2512 4535
4 5808 3186 4557 4949
4 2802 2803 4957 5552
4 5376 4492 3685 4493
4 5599 4957 5377 5376
4 5376 5599 4957 5380
4 4192 4775 5529 5530
4 3685 4493 3687 5377
4 6112 4750 3371 3401
4 4957 5552 2803 5380
4 3673 3848 2904 3603
4 2409 3615 2902 4063
4 3681 3682 1341 3689
4 3683 5377 3685 3680
4 5200 5380 5617 5381
4 5549 5200 5617 5202
4 2801 5200 2803 4679
4 2900 2902 3611 2903
4 5549 5380 5552 5551
4 4306 5380 4955 5381
4 2517 4279 3770 4278
4 3047 3106 3101 3104
4 5305 866 4699 4700
4 3721 6328 3722 3716
4 5705 5631 4499 6334
4 5653 5655 2923 5654
4 5653 1919 2923 5655
4 2918 3625 5653 5721
4 3934 6059 6114 5654
4 2918 5653 2923 5654
4 5653 1927 5880 3570
4 5653 5730 5880 1936
4 5653 5880 1927 1936
4 5653 3625 5730 5721
4 3795 5684 4875 5685
4 5683 5685 5684 4880
4 5684 5685 4160 4880
4 5683 5684 4875 4877
4 5683 4902 3640 4880
4 3933 6136 5961 2731
4 6125 1404 5520 5521
4 6125 4639 5521 5520
4 3108 3766 1378 3109
4 4329 3926 3044 4239
4 2430 2543 2440 3216
4 3934 2922 2918 2919
4 2734 3933 6059 3934
4 6125 5520 1404 1413
4 6148 4984 6149 3261
4 6158 6230 5682 3645
4 3771 3773 3645 5699
4 3262 3280 2850 3281
4 3366 2739 4827 3653
4 4601 4602 3773 5758
4 3773 3645 5699 4338
4 3279 3280 3773 5978
4 3640 6346 5725 4902
4 5683 6346 3640 4902
4 5683 4880 3640 5685
4 5683 5684 4877 4843
4 5683 6346 4902 4884
4 5061 4860 4859 5747
4 5061 4928 3638 5747
4 6346 3638 4928 4813
4 5683 4875 3017 4813
4 3480 5680 5486 5488
4 5489 5486 4996 5037
4 5018 5038 5485 5490
4 5487 5489 5037 5486
4 5487 5038 5490 5036
4 6324 4501 5218 6013
4 4469 5218 4501 6013
4 4501 4506 5079 5218
4 4501 4507 6012 5246
4 4423 4421 5026 6013
4 6324 6332 5236 5243
4 6324 4396 6012 6013
4 3704 3697 3698 3705
4 5217 5752 5751 3542
4 3542 5752 3543 5768
4 3276 5751 3113 5405
4 2273 2232 2284 2763
4 3413 3704 3725 3706
4 3979 4394 2764 4422
4 2764 4394 5196 4422
4 2846 2539 2929 3486
4 2846 2539 3485 2844
4 2929 4848 5998 3253
4 5998 4257 5371 4848
4 3251 4848 6347 4257
4 3654 3655 3253 2540
4 3253 3655 4127 2540
4 3654 3253 5391 2882
4 3654 2881 5296 3655
4 3249 4849 2883 4846
4 4036 3855 2178 3900
4 4036 2187 3221 3419
4 4036 2178 3855 2179
4 4036 2188 3221 2187
4 5363 4852 709 5386
4 5363 6003 4852 5991
4 6003 4852 5991 1221
4 4854 5336 4853 4852
4 6248 5992 1669 6009
4 6248 6189 5965 5384
4 6248 6189 6003 5965
4 4627 5367 4203 5342
4 5928 693 5335 684
4 5928 5367 5335 693
4 3413 4021 3192 3706
4 693 5342 4203 5367
4 5367 5335 693 692
4 4591 6337 5793 5795
4 5793 6242 6238 5795
4 6238 5793 3881 5942
4 6018 3882 3880 5787
4 2968 4048 2917 4050
4 5793 4283 5942 6242
4 5992 6253 5384 4201
4 2875 4915 4185 3387
4 5992 6253 4201 5244
4 4915 6253 5992 5244
4 6248 5384 5992 6253
4 5992 4185 6010 6009
4 6248 5992 4185 6253
4 6248 6253 6189 5384
4 4526 4504 3596 3594
4 3595 3598 4473 4483
4 2996 5772 2999 5323
4 4731 5400 3751 3556
4 4839 2999 4553 3594
4 2999 3594 5772 4553
4 3595 3597 4531 4473
4 3598 4033 3597 4473
4 3037 4509 3552 5503
4 3750 3752 2418 4398
4 4716 2305 2425 4410
4 3752 2418 2567 2420
4 4632 6335 2645 3333
4 2419 4716 5340 3750
4 2723 3752 3353 3554
4 4294 5556 4392 4391
4 4294 5556 5378 4392
4 5376 3685 4306 4957
4 3612 4492 4306 4147
4 4492 4306 4147 5379
4 5584 3699 3847 5522
4 3844 3845 2383 3847
4 2643 2397 2646 2641
4 3192 4021 5283 5282
4 5518 5519 4788 4783
4 6326 6143 5976 4759
4 3706 4021 5960 4022
4 5096 6194 4242 5615
4 4484 5918 5614 5724
4 5473 6194 4241 5724
4 5917 5918 2027 2028
4 5615 5094 5611 5612
4 5611 5619 5615 5612
4 3781 3782 4484 4808
4 4807 5453 4484 5918
4 3706 3725 5924 3705
4 3981 5611 5334 5619
4 2623 2832 3491 3092
4 3705 3725 3704 3706
4 4807 3903 5452 4810
4 5611 3982 3458 3981
4 6206 5216 4060 5626
4 5837 6206 4058 5582
4 6206 4060 6276 5626
4 6206 2062 6276 5831
4 6206 5831 4060 5449
4 6206 5582 5493 4058
4 2619 4053 5449 4058
4 2256 2505 3997 2828
4 2828 2849 4350 2505
4 2816 2849 2828 4046
4 2816 2848 2857 2856
4 2848 2828 2829 2816
4 3534 2848 3531 4189
4 3534 2848 4189 2828
4 2713 2829 2828 3145
4 2239 2237 1558 2784
4 3706 3696 3697 5952
4 2784 2239 4009 2755
4 5835 5839 1054 5896
4 5835 1054 5077 5896
4 5835 5890 5839 5896
4 5835 1063 5871 1062
4 5835 5364 5077 1053
4 5835 5871 5890 5836
4 2297 2374 2934 2936
4 3794 3213 5727 4866
4 5683 3017 3640 3638
4 3794 4866 5641 3791
4 3017 4901 5710 4876
4 3314 3640 3017 3638
4 6077 5716 927 928
4 6077 4876 5710 927
4 937 928 5716 3120
4 4913 4104 4107 4105
4 4104 4275 4201 5244
4 4104 5240 4275 5244
4 2773 2772 5241 2782
4 4913 5384 4104 4105
4 4104 5384 6253 4201
4 4915 4185 5992 6253
4 3441 3973 3511 3439
4 3975 4567 3972 4569
4 3441 3439 3511 3440
4 4208 4035 5762 5510
4 5762 4035 4836 4449
4 6262 4013 5505 4014
4 6262 1260 5504 3494
4 6262 1261 5505 1260
4 4118 5480 4454 3494
4 6262 4014 1252 4439
4 3595 3590 5330 3597
4 4324 5330 4409 5290
4 3595 4473 3598 3597
4 3594 4526 3595 3596
4 4556 5330 6078 4513
4 5330 6331 4513 3597
4 4556 5330 5290 4495
4 4570 4413 6067 1841
4 6067 6091 1840 4267
4 4570 6068 6067 4131
4 6067 4413 4131 6088
4 6087 5557 6091 4267
4 4570 4132 4571 6068
4 3905 4524 4485 4435
4 5055 6169 6170 4653
4 4990 4992 6169 3536
4 4608 361 4225 370
4 6169 370 4081 4653
4 3538 4081 4636 4658
4 6033 4619 4535 5536
4 4497 4499 4806 2923
4 5201 4336 5629 4740
4 2329 5629 4491 4740
4 2331 2324 4499 2923
4 3706 4021 5282 5952
4 5630 6147 1910 4806
4 4499 4806 2923 3570
4 2982 3570 2979 6334
4 5332 3810 6167 3586
4 3463 2639 4109 4172
4 5882 3810 6187 6031
4 3810 3586 6172 6167
4 3814 4047 4121 3813
4 4083 4092 5784 4086
4 5784 4092 6311 4086
4 3843 5782 5784 5483
4 5782 5775 5797 5771
4 4083 3843 5784 4092
4 4809 3843 5784 5483
4 5482 2524 4520 6312
4 5482 4516 2524 5483
4 6316 6199 6202 4154
4 2788 4390 4389 4388
4 6200 6024 5853 5850
4 6021 5853 6024 5841
4 4150 4151 5896 5161
4 2584 6280 5213 5214
4 5003 5651 6229 6280
4 2583 2956 2584 6280
4 3365 5929 4056 5790
4 2885 3365 2887 5790
4 2885 3365 2443 3450
4 2891 5795 5790 4056
4 3814 1990 4047 1999
4 3998 3365 3417 3223
4 3331 3417 3365 3223
4 2936 2300 2228 2391
4 3314 3017 3315 3638
4 3636 3802 6341 3115
4 3775 3776 3789 6196
4 3354 3173 3852 3357
4 4121 3813 4047 6176
4 3775 4095 4115 4109
4 3775 3789 4912 6196
4 4115 4114 1478 1469
4 4172 3789 3807 4912
4 3463 4114 4110 4116
4 5286 5669 4534 4604
4 3906 3905 4485 4435
4 2683 3031 6072 6004
4 3611 4493 3685 4492
4 2564 2566 2993 2995
4 3552 4509 4134 1279
4 4731 3556 2416 5817
4 2841 3981 3458 3982
4 4134 4509 1280 1279
4 3552 1287 5498 1278
4 4509 5505 6040 1261
4 5765 6041 4463 6040
4 4509 1262 6040 1271
4 5116 4447 732 3753
4 3940 3398 3741 3943
4 5119 5122 5117 5121
4 5117 1705 5121 1696
4 5124 5118 5450 5443
4 4357 1646 5191 5190
4 1654 1655 5191 2442
4 4357 4358 2889 3386
4 2888 3386 4357 2889
4 6249 5191 2445 2442
4 4047 5777 6176 5884
4 2888 5791 2442 3917
4 4357 1646 5190 1647
4 2444 2889 2888 4357
4 6299 5047 4911 3462
4 4891 4362 4890 4094
4 6299 4094 5394 4093
4 4361 3117 6341 4951
4 4361 6341 4355 4951
4 3801 3802 4935 4916
4 4361 5955 4891 4366
4 3628 4094 3633 4361
4 3240 3723 3115 4947
4 3714 5471 4669 5428
4 5430 4669 5432 5428
4 4669 4151 4713 5432
4 3144 2820 2213 2821
4 2818 2967 5162 5161
4 3207 3208 3203 3199
4 3837 3977 2963 3958
4 4047 6156 5777 5884
4 2967 2960 2818 2338
4 5162 2895 6313 5161
4 4151 6313 5162 5874
4 4444 1010 5810 5805
4 4121 4047 4988 5777
4 3713 3497 2524 3500
4 5061 3317 5514 5747
4 4307 5702 5046 4907
4 5030 4307 4308 4343
4 5045 5030 4979 4343
4 4310 4311 5514 4958
4 5514 4991 4343 4979
4 5045 5514 4343 4979
4 6219 3343 5159 5136
4 3343 5864 5921 5204
4 3542 3887 5300 5767
4 3704 3706 3696 3697
4 3887 5767 5864 5300
4 5233 5923 3619 6226
4 3887 5173 4284 5178
4 2593 2989 5971 2987
4 3543 6234 5768 5984
4 4892 5796 5046 4923
4 4316 3988 6265 4296
4 4296 3988 6265 4841
4 3988 4296 4322 4532
4 4532 3987 3986 3984
4 3988 4322 4296 4316
4 3988 4316 6265 4315
4 5682 6330 5695 5708
4 4577 3866 3295 6330
4 3279 3263 2851 3773
4 4577 5695 3295 6213
4 6330 4800 5708 5682
4 5694 6330 4800 5708
4 4338 5708 6230 3645
4 3267 3347 3885 3082
4 5715 5709 6288 6230
4 3620 5969 1640 1631
4 5441 5397 1640 5969
4 2871 2889 5105 4358
4 2925 1630 3620 1639
4 2925 3620 5441 1639
4 5131 1621 3620 1630
4 2924 5131 2925 2916
4 1621 1612 5130 5456
4 3071 6247 5891 5892
4 2227 3214 2861 3122
4 3706 3413 3704 3696
4 2342 2343 3069 5945
4 4528 3069 4529 3734
4 3641 3884 3348 5590
4 4529 3069 4530 4527
4 4000 5891 3519 5206
4 5747 5045 4961 5514
4 5061 5514 3317 5046
4 5061 5725 6346 4162
4 5061 6346 4859 4162
4 5061 6346 4928 4859
4 3640 5061 6346 3638
4 5195 6332 4421 4396
4 5309 5248 6332 5245
4 2665 4396 5195 4421
4 5309 6332 5248 4421
4 6332 4421 5236 5248
4 6324 5348 6332 5546
4 6332 4421 6013 5236
4 3802 6341 6178 4916
4 3802 6178 6341 6197
4 3802 6341 3115 6197
4 3240 3636 3243 3118
4 3801 4916 4361 6341
4 3581 3808 3245 3775
4 4668 4688 5870 5558
4 3180 3540 5559 3920
4 3536 4586 4441 4539
4 2510 4680 4684 4711
4 5559 3539 4688 4236
4 4083 5782 5775 5797
4 4445 5420 3842 3576
4 4070 2626 3499 3498
4 3918 3592 3800 4988
4 2809 3932 3241 3246
4 4244 3834 3476 2945
4 4044 1801 4400 6336
4 4044 4065 4400 1800
4 4044 2740 1801 6336
4 4044 6335 2740 6336
4 4044 3826 1810 6335
4 5687 4044 5463 4065
4 5687 6335 4044 6336
4 4164 5750 5738 1989
4 4164 5738 4165 1990
4 3229 4988 3924 3918
4 3919 5738 4164 5750
4 3919 4601 5750 4602
4 4179 5798 4899 5590
4 3918 3922 4164 3924
4 2940 3781 3778 3777
4 3778 3032 3090 4786
4 1548 2240 4271 2237
4 3033 3090 4786 4351
4 2950 2812 2335 2783
4 4059 6101 5099 4061
4 4241 4950 4974 6190
4 2755 1532 5091 1541
4 2703 2751 2710 2784
4 4543 4414 3828 3289
4 3319 5798 4899 5796
4 4542 406 4543 4790
4 4621 4724 4537 407
4 4537 3828 4558 4790
4 4558 4557 6119 4041
4 4542 4543 406 415
4 4719 4542 3289 4181
4 4094 4362 4890 3633
4 4094 4891 4361 5955
4 4248 3631 4339 3585
4 4094 5394 4248 4889
4 3628 3636 3633 3632
4 3242 4976 3243 4948
4 3636 3243 3118 3632
4 3636 4361 3633 3117
4 3628 3632 3630 3243
4 3240 3241 3723 4947
4 3240 3118 4947 3115
4 3774 3789 3775 3776
4 3630 4948 4976 4260
4 3635 4361 3801 5955
4 5115 3974 4301 3825
4 5115 5512 3974 5515
4 3512 5115 4301 3505
4 3969 5115 5512 3974
4 3969 3890 5115 3973
4 3389 3393 3392 3400
4 2697 4025 5167 3908
4 3967 5291 5823 4226
4 4226 6169 4990 5823
4 5558 4219 4680 5141
4 4409 3907 5822 4495
4 3159 2828 2256 3997
4 3326 2863 2716 4775
4 2471 4028 2472 2376
4 3967 5055 3965 4630
4 3057 3895 4324 3768
4 4624 4723 6095 4574
4 4412 6277 3909 3908
4 3001 2415 2686 2972
4 3708 4012 3702 4011
4 3702 4011 5481 6271
4 3702 4929 6069 6063
4 3002 4013 3555 3987
4 3702 4013 5480 4012
4 3708 3702 3937 4011
4 5399 3552 4134 1288
4 3037 3552 4509 4134
4 3547 5399 5500 4133
4 2715 3058 4352 3821
4 5399 1296 5500 1287
4 1296 3547 5399 5500
4 3547 3817 1306 1297
4 3349 3351 1305 1314
4 5291 5822 6093 5290
4 3333 4412 3544 3334
4 5412 3059 2715 4578
4 2471 3298 2472 4028
4 2757 4990 4992 5823
4 4192 3966 5413 2863
4 4775 5529 4578 4676
4 4743 4682 2510 4272
4 3989 4536 2512 4546
4 4992 6169 4636 4081
4 3536 3538 4992 4636
4 6033 4619 4081 4658
4 4644 6284 433 424
4 4264 4720 441 4595
4 4592 4264 4595 4720
4 4644 433 5703 442
4 4264 441 4644 442
4 4644 6284 424 4718
4 3131 3132 3159 3161
4 4592 4264 4644 4643
4 4719 4751 3405 6284
4 4719 4751 433 434
4 4751 3403 443 4763
4 4751 442 3403 5703
4 4719 4180 4751 434
4 4751 4180 3405 4763
4 3159 2257 2258 5112
4 3322 2421 2423 3405
4 3562 6157 4330 4376
4 3266 2230 2226 2229
4 4264 4643 5703 4644
4 4921 3884 3007 5589
4 5145 4683 6033 5141
4 3159 2258 2828 3145
4 5273 3278 3681 3684
4 2800 2803 3763 4679
4 4494 3290 4414 3289
4 3844 3847 4614 3845
4 3739 3827 5734 4041
4 3680 3688 3278 3689
4 3989 4546 4651 3770
4 4179 4894 4862 487
4 4179 488 4862 4879
4 4862 4894 478 487
4 4862 5588 478 4894
4 4861 5590 4862 4814
4 4862 4814 5590 4879
4 4310 3639 4762 4958
4 4762 4905 954 955
4 4762 6014 4905 955
4 4905 955 6014 964
4 3593 3925 3592 3489
4 4762 4905 6014 3637
4 2387 2615 2638 3658
4 2368 3228 2634 2363
4 5736 4899 3319 5798
4 3643 3638 5061 3640
4 4849 5331 4847 5350
4 5736 5685 4880 4879
4 5101 6309 6180 6198
4 5101 6194 6198 5100
4 4950 5100 5724 6194
4 4950 5099 5101 5742
4 5101 6194 4974 5958
4 6333 6309 5215 6180
4 5101 5742 6203 4973
4 5099 6180 6333 5215
4 4950 6194 5101 5100
4 3288 3322 3289 2421
4 4801 3018 6144 6151
4 3898 4328 6157 1424
4 3560 3897 3896 3559
4 5587 4698 3946 4774
4 4312 4342 4343 4344
4 3931 3718 4930 3804
4 3508 3242 3510 4931
4 4309 3211 3509 4308
4 3875 4997 3871 3520
4 4931 5702 4932 515
4 5798 5796 3584 4893
4 3242 4931 4976 3510
4 4915 5244 4104 6253
4 3618 2772 2973 3543
4 2870 4915 5442 5360
4 2630 3312 3519 5891
4 4385 4727 5936 4726
4 2462 2555 3302 2557
4 3247 3249 4848 4849
4 3144 4002 4825 2821
4 3519 4386 5206 5891
4 2788 2787 4390 2786
4 4727 4505 5890 5889
4 3840 5227 2787 4155
4 5350 4848 4847 4849
4 3202 3206 3199 3200
4 3202 3206 3200 5102
4 3203 3198 3208 2948
4 3200 5103 5637 5102
4 3200 5637 5103 5357
4 3200 5358 5828 5084
4 5210 4422 5023 5196
4 5025 5210 4422 5023
4 5210 5239 4422 5211
4 5025 5210 5239 4422
4 5210 5258 5321 5023
4 5210 667 5258 658
4 4687 5041 632 5170
4 3731 4687 5170 5041
4 4687 3307 4985 623
4 3731 5170 4687 5153
4 3135 4985 4687 3307
4 4687 622 3307 623
4 5417 1735 1745 1744
4 5418 6036 1744 6046
4 4426 5418 1735 5417
4 5418 5365 6036 6046
4 1736 1735 1745 5417
4 5418 6035 1726 4119
4 3139 4215 4214 5484
4 4078 3027 3055 5472
4 2645 4632 2642 4631
4 3372 3452 3788 3054
4 2640 5051 3788 4006
4 4078 3027 5472 5554
4 3908 5167 4412 6277
4 4666 5497 6298 4588
4 3904 3905 4409 4677
4 6298 4137 5497 4666
4 6279 6298 4137 5497
4 4436 6279 6298 4137
4 4471 4666 6294 4037
4 5350 4848 4186 5371
4 4666 6298 6294 4575
4 4666 6294 4037 4575
4 4666 4037 4562 4575
4 3454 4666 4562 4576
4 2909 3050 2908 3677
4 2384 2677 2678 3847
4 2507 2509 3186 2506
4 3287 4287 4277 5569
4 3286 3502 3209 3103
4 5350 5331 5351 697
4 5572 4287 3102 3329
4 3846 4124 3019 4125
4 2382 2653 2377 2507
4 5572 4287 5628 4613
4 4020 4145 4282 5608
4 4062 4955 2412 4740
4 5618 3381 5903 4778
4 5632 4645 5618 4793
4 5618 5979 5648 4728
4 5618 5979 5903 4231
4 2340 2371 2341 2343
4 4765 4778 5632 5618
4 3285 3209 5705 2983
4 2982 5705 4499 6334
4 3168 3625 5880 2923
4 4874 1441 5661 1442
4 5661 6151 1432 1441
4 5661 6144 1432 6151
4 5661 6159 6164 1442
4 4379 6164 5661 6159
4 5660 6159 1433 6157
4 4379 4377 4858 6159
4 4801 4331 6144 3018
4 4379 4801 5661 6164
4 5587 5043 4698 3006
4 4874 4117 1451 6164
4 4801 6144 5661 6151
4 4379 6159 5661 4331
4 2637 2806 3789 2390
4 4377 1434 6157 5713
4 4204 2340 3722 6328
4 4110 4114 3463 4115
4 6125 1405 4838 1414
4 4837 5396 1396 4337
4 3927 2321 3764 4639
4 4837 5396 1397 1396
4 4837 4337 1396 1405
4 3766 3109 5396 1387
4 2340 6328 4204 4657
4 3650 2447 2448 3408
4 3772 4897 3363 6098
4 3772 3771 4819 3796
4 3269 3772 4925 3363
4 4819 4262 3771 6287
4 4262 2851 3263 4601
4 3772 6098 3796 4819
4 5779 6155 5076 5794
4 4997 5779 4998 4919
4 4997 5779 4919 4922
4 4997 5076 5779 4922
4 6212 2053 2523 2052
4 2053 2062 6206 5582
4 6212 2523 2525 2052
4 2522 5582 2523 6212
4 5582 2062 6206 5831
4 2523 5830 2062 5831
4 2949 3205 5052 3208
4 2949 5052 5665 5818
4 3207 5665 3565 2949
4 2370 2340 2341 2342
4 2607 3201 3207 2966
4 2370 2342 3065 2340
4 2338 3201 2962 2752
4 2946 3565 5666 2949
4 5456 1622 6226 2973
4 1623 2973 1614 1622
4 5456 2973 3620 1622
4 3618 3237 5456 3619
4 5456 3237 6226 3619
4 5233 5456 3619 6134
4 5131 5456 1621 5130
4 2924 4048 5131 2916
4 2340 2370 5910 3722
4 5845 5912 1090 1099
4 5888 1090 5912 1089
4 5888 1089 5912 5904
4 1107 3762 5912 5329
4 5888 5912 3760 5904
4 2926 3880 2927 5460
4 2927 2554 3881 2550
4 3148 3671 4464 3514
4 3881 6061 6018 6236
4 6018 3880 4798 6061
4 3998 3856 3365 3332
4 5933 6182 5934 5128
4 6189 5363 5991 6003
4 5368 5991 5374 6269
4 5965 6003 4852 5363
4 3728 3721 3727 3726
4 6328 4655 3716 3727
4 2340 4655 2371 2343
4 2340 2342 3065 5886
4 3721 6328 3716 3727
4 2341 4528 2372 2370
4 3721 3854 3726 3858
4 3856 4056 3365 3332
4 3716 3722 3721 3065
4 4274 5333 4275 5240
4 2924 2915 4048 2916
4 4274 5752 5278 5253
4 4274 6232 5752 5275
4 5360 1640 5441 5397
4 1641 5360 5240 5397
4 3065 5886 3716 2340
4 1640 5020 5360 5441
4 5020 5441 1640 1639
4 5360 5397 1641 1640
4 5360 5244 1650 5240
4 2370 4528 2372 3734
4 4915 5360 1659 5442
4 3588 4835 4599 4463
4 2994 4834 4552 5700
4 3588 2994 4552 2999
4 3551 3752 5398 5498
4 5323 2999 3594 5772
4 3598 2999 4839 3594
4 2991 2997 2999 3525
4 3588 4599 4835 5389
4 3108 4702 6108 3608
4 3623 2980 2978 3624
4 2802 4957 6115 5552
4 2769 2802 3610 3608
4 2903 3610 4102 3684
4 3615 4354 3612 4063
4 5377 5376 4493 2547
4 5376 3685 4492 4306
4 3685 3611 4492 4306
4 5185 4293 5184 4391
4 5185 3685 4493 3687
4 5185 3611 3277 4294
4 2825 4799 3548 3401
4 2340 4655 6328 4657
4 5608 4024 6099 4019
4 5538 6200 5850 6024
4 2377 3225 2867 2378
4 5298 4023 5250 5125
4 4024 6099 5292 5264
4 2471 5266 3909 4027
4 4610 4613 6278 6263
4 6157 4377 4376 3562
4 3219 3061 3217 3063
4 5713 4377 4376 6157
4 3121 4739 4598 3120
4 4739 4736 919 5728
4 4739 4736 4737 920
4 5150 6338 3921 3355
4 5150 3355 5151 5697
4 5150 3466 6186 5698
4 2853 4598 3466 5152
4 5538 5643 4150 6024
4 5820 1522 6204 1523
4 5539 6204 5058 5545
4 6204 5058 5545 1523
4 5803 5058 1514 6192
4 5539 5803 6204 5802
4 6204 5744 1522 5745
4 6204 5744 5802 1513
4 3892 3891 6185 3803
4 3147 3146 4167 3145
4 3131 3161 3147 3342
4 3341 3147 5114 3342
4 3341 3342 5114 5920
4 3146 3345 3342 3344
4 4053 4058 4060 5449
4 2784 2239 3130 6217
4 4007 5410 4887 4886
4 4009 5410 5087 5411
4 5410 1557 4887 4886
4 5410 2237 1557 1548
4 5410 2237 1558 1557
4 2784 4009 5410 4007
4 4009 2238 2237 5411
4 5410 5411 2237 1548
4 3325 4689 3343 4348
4 2461 2561 3137 2563
4 3345 5849 3342 3339
4 3305 4689 4348 3306
4 3344 3147 3146 4167
4 3122 5716 6077 3120
4 5227 5538 4150 6024
4 3133 3120 947 946
4 3133 2853 4335 947
4 937 5716 946 3120
4 4154 6200 5538 6024
4 4292 5289 5316 5242
4 4295 5289 4292 5242
4 2780 5242 4292 4104
4 4292 5335 4298 5362
4 4292 4104 5242 5316
4 3276 2288 5405 3112
4 4915 1659 5992 6010
4 3672 3311 3915 4385
4 6071 2504 3009 6265
4 3003 3556 4841 4296
4 4841 3988 6265 3009
4 4841 3751 3750 4541
4 4841 4296 3556 3751
4 4405 6046 5417 1745
4 4405 1746 6268 6267
4 4405 1746 6267 1755
4 4606 4600 3596 4555
4 3596 5330 4210 4531
4 3895 4324 3768 5290
4 4600 5287 4353 5293
4 3589 4606 5287 2996
4 4606 5323 3596 4600
4 2997 3596 5323 3594
4 2997 2999 3598 3594
4 5323 4561 5287 2996
4 6345 5528 6072 5540
4 3028 5251 6072 3029
4 3031 3029 6072 3160
4 6072 3029 5526 3160
4 2675 2218 2786 2674
4 4332 6072 6274 5439
4 6345 5540 6072 5526
4 6315 6210 1537 5967
4 4010 5622 3651 5620
4 3651 5000 4271 6210
4 4010 3651 4008 5620
4 3651 3652 1547 5087
4 3967 6169 5055 4653
4 5055 4565 4650 4653
4 5536 3549 5055 4565
4 3964 5055 3549 3965
4 3227 6177 6174 5318
4 6128 4496 5616 5202
4 4496 4500 6128 4806
4 2319 2332 4496 6283
4 5549 5202 6282 4679
4 6282 5175 6080 6079
4 6282 5616 4496 5202
4 5003 5171 6229 5570
4 3514 3166 2553 3167
4 5213 2584 5171 6229
4 2584 5171 6229 5003
4 5232 5003 5651 5570
4 5882 6176 5773 6188
4 5882 5711 6031 6187
4 5882 3586 3587 6188
4 3490 3587 5882 3586
4 3490 3810 5882 6031
4 5735 5882 5711 6031
4 5471 5866 5428 6030
4 5866 5432 5428 5821
4 4670 5162 4151 5161
4 5638 5428 5821 6030
4 3822 3226 3987 3985
4 5471 5865 5813 5228
4 3713 5483 3500 2524
4 5868 6199 6316 5865
4 5471 5866 5865 6021
4 5866 6021 4237 5833
4 5834 5833 6199 5865
4 4438 5866 6021 4237
4 4798 5934 4039 4123
4 5933 4039 5934 5110
4 3881 6061 4798 3880
4 2927 3880 4798 4123
4 6018 3880 5988 4123
4 3881 6018 5787 6236
4 4850 5934 6237 6018
4 5933 6327 5110 4851
4 3190 3193 2660 4924
4 4359 5222 4290 5973
4 5973 4359 5068 4045
4 5222 3726 3806 5973
4 3724 3705 5408 5963
4 3461 3585 3188 2933
4 3635 3581 3808 3245
4 3628 3636 4361 3633
4 3628 3630 3629 3243
4 2935 3631 2933 3630
4 3385 3184 4136 3904
4 3904 3385 3328 3907
4 2677 4207 2681 5375
4 2579 5823 4777 5822
4 3227 4363 4929 6063
4 4607 4610 4612 6110
4 3227 6177 4363 6174
4 4798 6182 5934 6061
4 6181 5793 6129 6243
4 2957 5219 5881 2956
4 6181 6233 6321 4283
4 3167 6181 5793 6129
4 4767 5099 6333 4061
4 5099 5215 6333 4061
4 6333 6203 5000 6210
4 5000 6210 5622 6333
4 6177 6082 6339 6081
4 4767 6333 6203 5000
4 2921 2332 2922 2919
4 6059 6150 2921 6132
4 6059 2922 6150 5654
4 3986 4533 6027 4300
4 3986 3988 4533 4532
4 3983 3988 6265 4315
4 3984 3986 4532 3988
4 3985 6256 6051 6028
4 6104 5686 5541 4214
4 2645 5686 5687 5463
4 6104 5541 5686 5463
4 3028 2683 6072 5125
4 6345 5251 5544 6340
4 3343 6219 5921 5920
4 5921 6219 5179 6220
4 3343 5159 5921 6219
4 5921 6220 5181 6235
4 5921 6219 5159 5179
4 5230 5864 5921 5767
4 2503 2504 1793 5317
4 4430 6082 6177 5318
4 3009 6071 4841 2502
4 6265 6071 4841 3009
4 2504 5317 4212 1784
4 4212 2504 3009 5317
4 2504 3009 6265 4212
4 5572 4287 4613 3677
4 3286 3502 3503 3504
4 3103 3503 3301 3233
4 2907 3049 2655 3100
4 6177 5318 6081 6174
4 4635 4706 3050 5607
4 5572 5628 4140 5597
4 5440 3972 4424 6267
4 4569 3894 288 3976
4 3972 3976 4424 4429
4 5365 5762 4836 4303
4 4568 5762 5365 5440
4 3769 3672 3915 3914
4 2455 2456 2210 2466
4 2588 2593 2457 3340
4 3167 3166 4001 6153
4 3148 2283 2236 3672
4 6181 6244 4001 5974
4 4001 6153 5892 6244
4 2455 2207 2453 2464
4 2981 2987 2990 2989
4 3803 4947 4953 3115
4 6183 4975 3891 5001
4 6183 3803 6303 6185
4 6183 6197 4975 4227
4 6183 5001 3891 6184
4 3803 6197 3115 3116
4 3803 3116 3115 4953
4 3792 5684 3791 3793
4 3792 3124 4784 4760
4 3792 4159 3793 4158
4 3792 3124 4760 4158
4 3792 4917 5701 4840
4 3792 4917 4840 4784
4 3593 3592 3925 4820
4 5738 4820 4262 3925
4 5900 3591 3622 6098
4 5883 6156 5884 5777
4 3227 6177 4430 5028
4 3925 3919 2852 2851
4 2386 2615 3364 2616
4 3591 4165 6156 5777
4 6084 5559 5870 6179
4 3904 2579 2578 4409
4 2498 4680 3537 3539
4 6084 3180 3384 3540
4 4990 3907 4224 4226
4 5870 6279 5508 4489
4 5558 5870 4668 4566
4 5558 3539 3537 4680
4 3249 5392 6308 4847
4 5948 6308 5950 5875
4 4997 3520 3481 3575
4 3072 2370 3195 3734
4 2659 2661 2287 2662
4 3074 4591 5627 6129
4 2247 2251 2695 2536
4 3368 2887 3447 3417
4 2914 2550 2926 2874
4 3223 4290 3418 3446
4 2871 2889 4358 3386
4 3448 5973 5222 5068
4 4591 5795 3856 6337
4 5828 3200 5084 4166
4 4166 5828 577 586
4 4166 5102 577 5103
4 4166 578 5102 3206
4 4166 5084 587 3196
4 4070 2834 3903 4092
4 3500 5483 5482 2524
4 4053 2618 2625 2619
4 2311 3078 3828 3080
4 4414 4558 4537 3828
4 4415 4730 5979 4753
4 3289 4542 4543 4414
4 5390 4181 4415 4753
4 4339 4260 505 496
4 4339 3630 4260 3585
4 4339 505 4976 514
4 4339 4976 513 514
4 4339 4893 4260 496
4 3634 4248 3631 4339
4 5948 5875 5950 5404
4 495 4893 4248 4339
4 4339 3630 3243 4976
4 3966 5669 5877 5781
4 3895 4606 5293 5287
4 3249 5938 4847 4849
4 3895 4624 4352 5293
4 5323 4600 5287 5748
4 3952 3955 4016 3953
4 4016 737 4018 3953
4 5361 3953 3798 4018
4 4209 3472 4448 3957
4 3512 3395 5107 3505
4 3890 3441 3799 3973
4 5108 5107 4508 5515
4 5107 3395 3506 3505
4 4453 4508 3506 5467
4 5523 792 5535 5532
4 4441 5870 4436 6179
4 3373 4207 3920 5537
4 2642 4412 2644 5261
4 4556 334 4513 6078
4 4556 4495 343 334
4 4556 4531 5330 4513
4 4556 4583 343 4495
4 4556 5330 4210 5290
4 4556 5330 4531 4210
4 4324 4409 5330 4677
4 3895 5287 3589 4606
4 4352 4624 5788 5293
4 4353 4352 5293 5287
4 2718 3326 2570 2716
4 3058 2996 5287 5801
4 5287 2996 4561 5801
4 5669 4723 4534 4626
4 3963 3966 5669 3965
4 2863 2865 2716 4775
4 2757 3967 5055 3968
4 3968 2757 4795 5055
4 4219 4681 4680 4220
4 5141 4895 4219 4680
4 4219 4221 4579 4647
4 2310 2311 2312 3079
4 4327 2312 2310 4995
4 3832 3083 2312 3080
4 3080 2312 3832 3829
4 4895 4579 4220 4580
4 2512 4651 4546 5142
4 2511 5142 5145 5141
4 5907 4846 2883 4849
4 3989 4536 4546 4537
4 6308 3249 5948 5392
4 2485 5305 2486 5652
4 2324 3168 3169 3374
4 2485 2424 2527 2519
4 4643 4718 4644 2311
4 2978 2979 3168 3624
4 2329 2982 5705 4499
4 3367 3898 4331 3897
4 3038 4593 3040 3094
4 5726 6287 3771 5731
4 3796 4819 4262 3771
4 1132 5392 1133 5938
4 5938 5941 1133 1124
4 6287 5738 5758 1980
4 6287 4262 5738 4820
4 5726 1963 4897 1972
4 4861 4862 5588 478
4 4861 4862 5590 5588
4 4861 5301 4814 4833
4 4861 5301 5588 5590
4 4861 5588 4255 478
4 4861 4833 4796 5301
4 2985 6105 6076 4888
4 5948 5404 1134 5941
4 2476 2483 2482 4233
4 4007 5410 4886 5087
4 4227 5082 5001 6183
4 5941 4846 5938 5948
4 5082 5855 4120 3850
4 6183 6184 4967 5082
4 6184 6175 3893 6185
4 6183 6185 3891 3803
4 6183 6185 4968 4967
4 2711 2848 2857 3529
4 4351 5820 5745 6204
4 5820 6204 4351 5545
4 2755 2239 1541 5060
4 2725 5091 5820 5545
4 4786 5539 5802 4560
4 2725 4351 2726 2727
4 2707 2606 2727 2748
4 3038 3094 3040 3039
4 4173 4175 3094 4176
4 4376 6157 4330 5713
4 4375 4376 3093 3946
4 4376 3948 6326 3949
4 3094 4788 4026 4783
4 3040 3039 3094 4176
4 2264 3274 3217 2265
4 3094 4593 3402 4026
4 3875 4919 4997 4998
4 3477 3210 3481 5680
4 3875 3496 3520 3871
4 2299 2806 3335 3492
4 2391 3584 3215 2936
4 5690 6014 3362 3125
4 3354 3852 3173 3496
4 5941 5975 1124 4846
4 4997 4998 4939 4344
4 4903 3876 4904 4906
4 2927 2916 2926 5460
4 2550 3881 3882 3879
4 5131 1630 2925 1629
4 5133 1629 5131 5460
4 5460 1629 5131 2925
4 5105 5460 1638 5190
4 2924 4048 3620 5131
4 3995 3837 2913 3993
4 3995 2895 2559 3996
4 3994 5843 5919 3993
4 3996 2895 5077 2913
4 6200 4389 5876 5879
4 3996 5469 5896 5161
4 2559 5161 3996 2895
4 5430 3155 4450 5757
4 5162 2893 4713 5874
4 2948 3198 3958 3203
4 4713 5433 5431 5874
4 2946 5666 4122 1026
4 3111 2242 2764 4470
4 5195 5329 5904 2663
4 6199 6200 4154 6024
4 2659 3761 3762 2660
4 2665 5197 4421 5195
4 5195 6332 5348 5308
4 5195 5348 6332 4396
4 5195 2878 5894 5328
4 5309 5197 4421 5248
4 5197 4421 5248 5239
4 5372 4258 4257 5279
4 3486 4257 4634 5998
4 4257 4634 5998 5280
4 5280 4634 5279 4256
4 5280 4634 4256 4257
4 5280 5372 5385 5299
4 4634 5998 5342 4627
4 5766 6038 4416 5764
4 5365 4417 5366 5764
4 5765 5972 6040 4463
4 4568 5416 3527 3939
4 5365 4066 5366 4417
4 6045 5766 5972 6054
4 5766 6045 4119 6054
4 5766 5418 4119 6045
4 3025 3031 3053 3910
4 3178 4576 3452 5477
4 4136 4137 3179 6179
4 2760 3180 3382 3385
4 3056 4412 3482 3908
4 4138 4137 4136 4471
4 3179 3920 6179 5532
4 3912 4666 4471 4037
4 4138 4478 4486 4477
4 5547 802 5535 793
4 3182 5535 5547 5537
4 5547 802 5522 5537
4 5547 5561 5522 803
4 5126 5375 3373 5522
4 5298 4025 4023 4024
4 3483 882 4965 3380
4 3483 4965 882 883
4 3483 5658 4965 883
4 3379 2519 3483 4289
4 3375 3483 4965 3380
4 4289 4231 3379 2517
4 4291 3483 873 865
4 5652 3483 865 874
4 6282 6120 6283 5174
4 6282 6283 6080 5174
4 6282 4496 5624 6283
4 6282 6120 2319 6283
4 6282 2319 4679 5202
4 2982 3168 3570 4499
4 2320 2321 2322 2323
4 2982 3168 2979 3570
4 2977 2982 3168 2979
4 3828 3080 3827 2311
4 2493 3379 2424 2519
4 2446 2272 2432 2448
4 2322 3764 2321 2319
4 2441 3169 2798 3374
4 5075 5038 5489 5037
4 5038 5665 5049 5010
4 5038 5665 5490 5049
4 5487 5038 5037 5489
4 5018 5038 3819 5485
4 3199 5067 3198 3196
4 5018 3479 5075 3480
4 5018 5075 5038 5489
4 5018 3479 5488 5019
4 5010 3565 5011 5038
4 3462 3464 3189 5042
4 3460 2301 3189 3062
4 3006 5588 4894 4246
4 4921 5589 3007 3006
4 3189 3188 3005 3007
4 3584 4894 3006 5589
4 5587 3946 3094 4774
4 4894 3585 3584 3006
4 3356 3125 5150 3355
4 2853 3133 3122 3120
4 3163 6014 4903 3637
4 2364 2634 2365 3125
4 3230 3550 3923 5150
4 2392 3188 2300 3189
4 2362 2227 3122 2366
4 5538 5850 6200 4389
4 5726 1971 6287 5731
4 5726 6287 4819 3771
4 5726 1954 5667 1963
4 5726 6287 1971 1972
4 5782 6306 4516 4945
4 5782 4516 5784 5483
4 5782 5483 4946 4516
4 4083 5775 5782 6162
4 2892 1036 5431 1045
4 2892 1036 5090 5874
4 2892 5431 6313 1045
4 2892 5077 1045 6313
4 2892 2893 5874 5090
4 5856 5839 5896 1054
4 5856 5896 5077 1054
4 5856 5077 6313 1045
4 5856 1045 5431 1046
4 4150 5856 5839 5896
4 5271 2897 2876 3388
4 3388 3386 5791 2897
4 3388 6251 3387 4184
4 5887 3870 4184 5271
4 3870 4184 5271 3388
4 6019 3386 5791 3388
4 3388 6251 5995 6019
4 3340 3339 5971 2989
4 3886 6064 5920 5922
4 5971 5898 2987 2989
4 5922 3343 5921 5920
4 5923 6226 3237 3619
4 2476 2481 2477 2482
4 4385 5889 5857 5936
4 6200 4389 5859 5876
4 5857 5203 1082 5409
4 5857 5409 4384 5203
4 4385 5983 5203 3915
4 5857 5936 1072 1081
4 6200 5879 4703 4389
4 4686 5041 4470 5040
4 2877 2776 3869 4589
4 2877 3869 3868 3870
4 4304 5367 4298 5335
4 4589 4915 6253 4185
4 4295 5585 5344 5288
4 3485 4304 4627 4298
4 2542 5405 2881 5344
4 3721 3414 3068 3415
4 2630 5891 4464 3312
4 3514 6153 3167 6129
4 2279 2782 5020 5441
4 3858 3855 3900 2178
4 3858 2168 3728 3717
4 2959 4000 5974 4001
4 3854 3900 5222 3726
4 3858 3717 2169 2168
4 3726 3729 3728 3900
4 3698 4204 6328 5947
4 6328 3727 5947 4657
4 5470 4825 2820 3864
4 3854 3332 4036 3855
4 3854 4036 5222 3900
4 5471 6021 5865 5228
4 5471 6030 5865 5866
4 3972 4429 6267 4380
4 4569 3976 3972 3975
4 3972 4567 3973 6266
4 3022 3373 3181 3182
4 5440 6267 4424 4405
4 3009 4212 5318 3983
4 3009 6265 4212 3983
4 3822 3983 3986 3988
4 4363 4929 5028 3227
4 4409 5330 4495 5290
4 6089 1873 4145 1874
4 6089 4281 4282 1873
4 6089 1874 4145 4147
4 6089 4280 4281 1882
4 4741 6089 4062 4742
4 6340 6104 5513 5554
4 6340 5513 6104 5496
4 3028 3030 5261 5251
4 6070 2642 5261 4631
4 3030 6340 3027 6104
4 6345 6274 6072 5528
4 6127 1882 4281 4280
4 4741 6127 1882 1891
4 4277 6127 4281 4280
4 6127 1891 6117 1890
4 4280 4780 4277 6127
4 4277 5569 6127 4780
4 6127 4780 5569 3504
4 4375 3464 4378 5043
4 4378 4858 4377 4864
4 3948 4864 4377 6142
4 4774 4783 3946 3094
4 4376 3949 5518 3946
4 6142 4376 5713 4377
4 6326 4376 5713 6142
4 4376 4330 6326 5713
4 4377 3948 6142 4376
4 3946 4698 5043 5712
4 6326 6143 6142 5713
4 4677 5330 5370 6331
4 4940 1504 6342 1513
4 4940 1504 4251 6342
4 4940 1513 5744 1512
4 2946 2893 2894 5090
4 3565 5809 4122 5010
4 5485 5019 3205 3819
4 4122 5809 1009 1008
4 4450 4122 1009 1018
4 4122 5809 1008 5010
4 4444 4445 4515 5805
4 3713 3154 4482 3714
4 3577 5420 4445 3576
4 4514 4515 4517 4481
4 5483 2524 3713 4516
4 4445 4515 5805 5120
4 3566 5168 3693 2483
4 3566 5168 2483 3129
4 3860 3861 3566 3129
4 5138 3859 2080 3861
4 6319 3859 3860 2089
4 3566 3142 3863 2215
4 5909 3859 4826 4825
4 3338 5070 3345 5139
4 2705 2335 3175 2337
4 3336 3342 3345 3344
4 5205 5920 5114 5187
4 3339 2989 6222 5187
4 3338 4197 5849 6222
4 3904 4677 3911 3905
4 4892 5796 3643 5046
4 3510 5702 4923 4892
4 3590 4677 5330 5370
4 4260 6085 4948 5796
4 4937 5702 4923 3510
4 3315 3642 3316 3637
4 2307 2313 2724 2308
4 4179 5714 5796 4893
4 5714 5796 4893 4260
4 5020 5442 2870 5355
4 2870 5442 4915 3387
4 4915 3387 6010 4185
4 4185 5986 4589 3870
4 4295 4292 2777 2778
4 2503 1801 4400 1792
4 2503 2740 6336 1801
4 3823 4433 2503 5341
4 4433 5319 2503 4400
4 3429 3428 4480 5468
4 3429 3956 3955 3428
4 2305 4412 2643 2642
4 3431 4032 4016 3429
4 4016 4079 3429 4032
4 4016 3956 3429 4079
4 4461 3429 3427 3428
4 2498 2501 3536 3538
4 5870 4566 4539 4563
4 4566 5870 4539 5558
4 3537 5558 4587 4539
4 3536 4990 3382 3385
4 5559 5870 5508 4688
4 5559 3540 4236 3920
4 6345 5251 6340 3029
4 5261 5251 6340 5509
4 5540 5554 5472 6345
4 3020 2682 3031 3029
4 5251 6072 6274 4332
4 5251 6340 5509 5544
4 5622 6333 4061 5000
4 4057 5623 5622 5620
4 5622 3651 6210 5000
4 6315 5622 6210 5967
4 5622 6310 6333 5967
4 6315 3651 1537 6210
4 6315 5098 3651 5620
4 6315 1536 6314 5967
4 2358 4142 3107 3083
4 5396 4337 1387 1396
4 3109 1379 4142 1388
4 3109 1379 6108 4142
4 6107 3108 1378 6108
4 6107 3608 1368 6116
4 4263 1900 5630 1909
4 5630 1909 6147 6334
4 5630 5581 1900 5631
4 5630 5581 6128 1901
4 5630 6128 4499 4806
4 5630 4806 4499 6147
4 2611 2388 2612 2614
4 2612 2613 4898 4883
4 5962 3659 2612 3653
4 3653 5501 6160 6161
4 4827 2613 3653 4883
4 5501 6032 3653 4972
4 4809 5483 3500 5420
4 3361 3843 3852 3501
4 3493 3459 3981 3335
4 3843 4169 5782 5483
4 3361 3852 3843 3358
4 4083 5782 5783 5784
4 3422 4003 3138 3421
4 3842 4169 4259 3843
4 5259 3757 3758 6039
4 3757 6042 6039 4097
4 3426 3758 3757 6042
4 3238 4438 4669 5471
4 5227 5228 6024 6021
4 4154 6200 6202 4703
4 4669 5432 5866 4438
4 4151 5856 5431 4237
4 4150 5856 4151 5841
4 4727 3152 3313 2674
4 4670 4151 5162 4713
4 4669 5432 5428 5866
4 4151 4713 5431 5874
4 6293 5407 5256 5255
4 3757 6042 4097 6043
4 4387 4384 4388 5407
4 3840 2562 5469 4156
4 4393 4703 5879 4389
4 6293 6317 4389 5878
4 4388 5256 6293 5407
4 4153 3239 5089 4154
4 4388 6293 5256 5646
4 3725 5068 5066 4045
4 3724 5973 4045 5408
4 3724 5973 5408 3806
4 3247 4848 2929 3253
4 3706 3725 4022 5924
4 3724 5973 3806 3726
4 3721 3724 3705 3726
4 4021 5875 5404 5959
4 5895 2879 5265 5269
4 5309 5195 5197 2878
4 3139 4078 5051 5484
4 6070 6104 2647 5686
4 2303 4412 3056 2644
4 2568 3752 5500 3353
4 4398 4716 3750 6075
4 3552 4134 1288 1279
4 3552 4509 1270 5503
4 3552 1278 5503 1269
4 3552 5503 1270 1269
4 4527 3312 3671 4530
4 3071 5997 6318 5627
4 4527 3069 3734 4529
4 3071 6318 5892 5627
4 6307 5927 6293 4530
4 2631 2630 3312 3519
4 6307 5862 6293 5927
4 3897 5961 3933 6136
4 3934 2918 5653 5721
4 3257 3256 3625 3627
4 2735 3257 3934 5721
4 3438 4471 4486 4476
4 6135 5525 5520 6145
4 2919 5525 3933 6059
4 5525 6137 6135 3933
4 2305 3333 2642 4410
4 6070 6340 6104 5496
4 3056 5261 4412 5167
4 6070 6340 5496 5509
4 6070 5496 2645 4631
4 3030 4078 6104 3027
4 3030 6340 5261 5251
4 6256 6029 4315 1777
4 6256 3983 6174 6050
4 4486 3438 4478 4471
4 6029 3986 6028 6256
4 3985 6256 6028 3986
4 1690 6051 6028 3517
4 3983 4315 1777 6256
4 6265 3983 4315 1777
4 6042 4099 5466 4098
4 6042 4098 5454 6039
4 6042 3755 5466 4452
4 3801 4361 3636 6341
4 3635 3636 3801 4361
4 3245 3802 3636 3115
4 3984 3987 3555 6065
4 4300 4532 3987 3986
4 3427 4461 3438 4458
4 3822 3987 3984 3986
4 3008 3822 3983 3227
4 3002 3555 3984 3987
4 3438 3428 4476 4461
4 3984 6065 3555 5817
4 3984 5817 3556 5401
4 3424 5259 3942 3709
4 5119 3758 5117 5122
4 5119 3711 5116 3758
4 3757 3758 6039 6042
4 3758 4103 5116 5451
4 2385 2699 2496 2866
4 2509 2508 3990 2512
4 5532 5559 3920 6179
4 5559 3537 3539 6084
4 3181 3373 4207 3920
4 3536 4990 4224 4225
4 5733 4602 5758 3773
4 6230 6288 5715 6291
4 3427 4458 3438 3437
4 3773 3280 3645 5978
4 3809 3835 3776 4245
4 6215 6303 4968 6191
4 3835 3776 4245 5008
4 6215 3803 6185 6303
4 3244 3803 6303 3115
4 6193 5803 3835 6342
4 4059 6101 4061 4058
4 3087 4767 5000 3749
4 3777 6101 3498 4808
4 3777 4950 6101 5724
4 5837 2054 6205 5216
4 3085 2726 2750 2238
4 3089 3086 3090 5742
4 5837 6206 2054 5216
4 3319 5798 5796 3584
4 5710 4901 5727 5647
4 3584 4260 5796 6085
4 3954 6294 4488 4037
4 5798 4894 3584 5589
4 3014 3641 3215 3015
4 3438 4471 6294 4037
4 3856 4297 5795 4056
4 2891 3365 4056 5790
4 3998 2891 2887 3365
4 2891 3856 4056 3365
4 3068 3853 3448 3721
4 3856 3854 3855 3332
4 4121 3587 3982 6176
4 5611 5614 4484 5917
4 3982 3587 6188 6176
4 5334 3982 3587 6188
4 5761 5807 6188 5334
4 5807 6163 6172 3586
4 3954 3438 6294 4037
4 2841 3458 3811 3982
4 3458 5917 5611 4484
4 5611 5917 6207 5614
4 2694 3415 3414 3696
4 3696 4276 3722 3695
4 3618 3543 2973 3237
4 3998 2891 3365 3856
4 5816 5959 4022 5277
4 4021 4581 5283 5875
4 3190 3194 2694 3192
4 3270 900 3271 4867
4 5727 5728 6077 5710
4 3406 3378 3123 4778
4 3270 3273 4866 3271
4 2487 5674 3999 4965
4 3999 3376 4965 891
4 2623 4809 3500 5420
4 4808 4070 3903 3487
4 3476 3335 3571 3981
4 3210 3931 3929 5680
4 5420 3576 3491 3883
4 4954 3090 5742 5746
4 3154 2261 2259 2759
4 2606 2711 3533 2712
4 2294 3528 3838 3533
4 3475 3520 3501 3491
4 2818 2559 2960 5161
4 3989 4546 3770 4415
4 4414 4537 4724 4542
4 4231 2514 3770 4415
4 4752 4579 4651 4652
4 2516 2905 3035 4474
4 3770 4231 4732 4279
4 4752 4732 4231 5979
4 4263 1900 6117 5631
4 4263 5630 1900 5631
4 4263 3503 6117 1899
4 4263 6334 5630 5631
4 4263 1909 3569 1908
4 3798 3470 3471 5361
4 4018 3953 737 5447
4 4017 736 4079 735
4 4018 5515 5462 4031
4 5108 4459 4031 4032
4 5219 5881 2956 4347
4 4016 745 4079 736
4 5108 4018 5515 4508
4 3798 5902 4508 5436
4 5361 5446 3953 5447
4 5108 3890 3435 3798
4 5361 3787 4508 5902
4 5361 3953 5446 4511
4 4018 5361 3787 4508
4 4436 4471 4137 6298
4 2583 3170 4766 5128
4 4050 6323 5128 2585
4 3907 4224 4524 4435
4 5823 5822 3907 6093
4 3907 6093 5822 4495
4 5108 4018 4031 5515
4 3798 4508 5108 5107
4 4017 728 4404 4018
4 727 4017 728 4404
4 4606 3596 5330 4210
4 3589 4606 3596 5330
4 4551 3895 5286 5290
4 5286 4630 5669 4604
4 3895 4538 4606 4551
4 4606 5293 4555 4538
4 4606 4555 5293 4600
4 4606 5287 4600 5293
4 4028 4027 4354 4029
4 3544 3553 5267 3546
4 4294 4089 3612 4027
4 2471 3908 3909 5266
4 3909 3908 6277 5266
4 2768 2901 3370 2903
4 4412 5595 3909 6277
4 4412 3909 5595 4573
4 2715 4775 4578 3821
4 4695 4535 4621 4678
4 4537 407 4542 4790
4 4695 4678 4659 4535
4 4790 407 4542 406
4 4704 397 4695 406
4 4695 4659 397 6119
4 4285 1864 6099 5608
4 1873 4285 4145 1864
4 4285 6099 4144 4019
4 4285 4281 1873 4282
4 4285 4145 1864 5608
4 4285 4145 4282 1873
4 4285 4281 4286 1872
4 4546 4579 4660 5142
4 4536 4660 5145 5142
4 4752 4546 5568 4415
4 5219 5128 5933 6280
4 4537 4546 4415 4621
4 3042 4594 3044 2310
4 3765 4337 3764 5396
4 5519 5976 3044 4594
4 5313 3044 4995 5395
4 5976 4038 4690 5313
4 5395 5313 4749 6121
4 4592 3043 3079 2310
4 5219 5933 6182 6325
4 3919 5756 4602 5750
4 3550 6186 4602 5756
4 4602 6288 5733 6300
4 4602 5733 6288 3773
4 4602 6186 5741 5756
4 3279 3283 6288 4602
4 3283 6288 5741 5737
4 4874 1441 4898 6151
4 4874 4801 6164 5661
4 3463 6002 4117 2614
4 4093 3463 3461 3462
4 2482 3613 5002 3691
4 2481 3691 2482 2483
4 3694 3613 3691 5806
4 3614 3613 5002 2482
4 2987 5898 5923 6320
4 2482 6211 2483 3691
4 6230 5715 5704 5706
4 6230 5706 4800 6291
4 6158 5978 6230 3645
4 3522 559 5013 558
4 558 5013 3522 3839
4 4930 4963 3521 541
4 5219 4347 2956 6280
4 3478 4163 3522 3521
4 2292 2291 3522 3839
4 2605 2346 2345 2622
4 3522 5013 4163 2292
4 4930 3804 3522 3523
4 4173 4176 3094 3039
4 4921 5588 4175 5301
4 5587 3094 4173 4175
4 4173 4176 3039 4174
4 3095 4173 3094 3039
4 3039 3095 3885 3567
4 5736 3641 3640 5685
4 4963 3930 3929 4964
4 3508 3930 4931 4932
4 4312 4344 4311 4903
4 3477 3480 4126 5680
4 2365 3163 3637 6014
4 4308 5680 4978 4983
4 3929 3707 4308 4964
4 4308 5680 4964 4978
4 5030 4171 4983 4977
4 5753 5768 5752 6232
4 5241 6232 4274 5240
4 3994 4506 5919 4507
4 3994 3996 3995 4502
4 3977 2963 5092 5144
4 2960 3837 2911 2895
4 3730 3675 4502 3674
4 4438 3239 5228 5471
4 3977 5078 3836 5144
4 3135 4985 3836 4506
4 3837 2912 3993 3958
4 5493 3851 2523 5830
4 3851 5848 4482 5165
4 3746 4052 2625 3749
4 3714 5471 5814 5848
4 5829 5831 5493 5449
4 5197 5895 2878 2879
4 2880 4422 4394 5197
4 2880 2879 5269 5265
4 5197 4421 5239 4422
4 5288 685 3655 4203
4 5288 676 3655 685
4 5295 676 5288 675
4 5288 5289 5155 675
4 5450 5124 4447 5116
4 5118 4253 5450 4254
4 5118 1714 5419 5422
4 5124 5310 5337 4406
4 5116 5118 5450 5124
4 3981 3587 5334 3982
4 3420 3710 3424 3711
4 3816 4834 5801 3817
4 4834 3817 1298 5801
4 4834 1289 4134 4552
4 3477 2349 3481 3210
4 2420 4731 3551 5398
4 4834 3817 1297 1298
4 4696 5548 3293 5412
4 3299 5511 5548 3293
4 3349 5548 1314 1315
4 5268 4573 5267 1838
4 5268 3909 4573 6277
4 1837 5268 4573 6277
4 3931 4964 3929 5680
4 5268 5266 1846 4088
4 3909 5268 5263 5266
4 4088 5263 4089 6092
4 2485 5652 3483 2519
4 5652 3483 874 5658
4 5652 3606 5658 875
4 2745 2747 2488 2980
4 5652 3483 2519 4291
4 2486 5658 5652 3606
4 5652 866 5305 4700
4 2486 3670 5652 4700
4 5632 3378 4778 3123
4 5632 4917 4785 5621
4 5618 4765 4645 5632
4 5632 3378 3381 4778
4 5632 3381 5618 4778
4 5632 3580 4917 3123
4 3790 3346 3097 3098
4 3346 3794 4866 3213
4 4344 3875 3876 4903
4 4921 3885 3348 5301
4 2975 2490 2805 2977
4 2743 3272 901 902
4 5019 5488 4994 4126
4 5019 5485 3205 4168
4 3162 3163 3902 4903
4 3464 5042 5047 5043
4 5587 4821 4255 4774
4 5042 5394 4863 4247
4 6299 4910 4918 4911
4 4378 5043 5712 3948
4 3924 3923 3918 3922
4 3923 6186 5756 5755
4 3923 3921 6165 3924
4 2298 2220 2387 2296
4 4312 4903 3875 4344
4 3641 5685 3017 3640
4 3126 3466 3550 5150
4 3919 4601 4602 3550
4 3230 5150 3923 3921
4 3623 2621 4577 4984
4 3644 3867 2621 3645
4 3867 2621 5682 6330
4 3867 5682 4341 6330
4 3280 6158 3644 3645
4 4560 5539 5803 3835
4 6215 6192 5803 6191
4 3495 2820 5829 4825
4 6193 5803 6191 3835
4 6204 5802 5745 4351
4 5803 6204 1514 5058
4 5803 6204 5802 1513
4 5919 5846 5072 5154
4 5919 5072 5188 5154
4 3994 5919 3836 3993
4 3519 5207 5223 4701
4 2208 2209 2214 3143
4 4727 4156 5890 4505
4 4385 5857 5889 5406
4 5857 5406 1072 5889
4 4385 5203 5983 5936
4 5888 1081 5235 5936
4 5888 5203 5936 5983
4 5888 1090 5203 5983
4 5888 5912 1090 5983
4 5842 5888 5235 5936
4 4798 6182 5128 5934
4 6018 4123 4798 3880
4 6181 5793 4283 5942
4 2553 3167 2552 2548
4 5129 4798 5132 5133
4 4924 2660 3913 5840
4 5845 5203 1090 5983
4 5845 5912 5983 1090
4 3913 3916 4924 5840
4 5845 5203 5983 3915
4 2877 2776 4589 2875
4 4591 6337 3856 3067
4 2552 5793 4591 6129
4 4591 6243 5793 6337
4 4591 6129 6243 5627
4 3072 3734 2342 2370
4 2835 3520 3496 3501
4 5980 2134 6290 5208
4 5980 2134 5208 2143
4 5891 5980 6290 5208
4 5980 2143 5208 6244
4 5980 5946 6247 2142
4 5980 5892 6244 5208
4 3902 3163 4906 4903
4 6308 5811 5950 5875
4 3252 5811 5875 3743
4 3247 3249 4849 2883
4 3249 3252 3251 6308
4 5440 4569 5762 6053
4 4449 5510 6053 5762
4 2646 2645 4410 2642
4 5440 4569 6053 4424
4 4569 3972 3976 4424
4 4569 4424 288 6053
4 3139 4215 3756 6344
4 3702 3985 5480 3987
4 3985 6256 3986 3983
4 3822 3985 3986 3983
4 2640 4003 4006 3788
4 3985 3986 4299 3987
4 4741 5581 4779 1891
4 4741 6127 4779 4280
4 4741 6127 4280 1882
4 4741 6089 1882 4280
4 2766 4955 4062 2902
4 4741 4740 4336 4742
4 6345 6340 5554 3027
4 6345 5526 6072 3029
4 6345 6340 5544 5554
4 6345 5544 5251 6274
4 5516 2510 5517 4711
4 2510 2500 3700 3540
4 2510 4682 4680 4711
4 2510 3540 6343 5517
4 5580 2510 4682 4272
4 3700 6343 3540 3920
4 3920 3700 3384 3540
4 2498 6084 3540 3539
4 2496 3384 4207 3700
4 3078 3828 2354 3292
4 3110 3764 2322 3766
4 2640 2647 4078 3139
4 2325 3174 2330 2321
4 3406 3098 3123 3099
4 3049 3100 3286 3285
4 5519 4595 4593 4788
4 5519 4594 4595 4761
4 5519 6326 4761 3949
4 3042 3044 5519 4330
4 3265 3268 2268 3266
4 3038 3093 5518 3094
4 5518 3949 5519 4783
4 6193 5008 1495 6295
4 6193 5803 1504 1505
4 6193 6295 4251 6342
4 5430 4713 3155 5757
4 2966 2948 2946 2911
4 3422 4005 4003 3421
4 5430 1028 4450 5429
4 4444 4446 4445 5805
4 4445 4515 5120 5483
4 5483 5784 5482 4516
4 3030 6104 6070 6340
4 3713 4516 4515 5483
4 2607 2610 2608 2598
4 2840 3229 3457 4988
4 4520 5482 6311 5784
4 4520 4516 2524 5482
4 2649 6043 5687 5686
4 5865 6030 5812 5838
4 5865 6030 5814 5812
4 5865 5813 5228 6316
4 5867 5865 5868 6316
4 5865 5821 5866 6030
4 5471 5865 6030 5814
4 4438 6021 5471 5228
4 5088 3239 6216 5228
4 3693 3140 2481 3691
4 3142 3140 2481 3693
4 3337 5070 3338 2953
4 2984 4198 6105 4196
4 3140 3694 2775 2481
4 2984 4196 6105 4887
4 3303 2704 2732 3621
4 2952 3338 2989 4198
4 6324 6013 6332 4396
4 6324 5349 4501 6012
4 6324 6332 5243 5546
4 6324 6332 6013 5236
4 6324 6332 5348 4396
4 2957 6231 6233 5881
4 6233 5208 2134 2143
4 6181 6233 6244 5974
4 6181 4001 6244 6153
4 2483 2216 2481 3142
4 4388 4393 6293 4389
4 6293 4393 5927 5878
4 4386 5927 6293 4393
4 4528 5297 4530 5913
4 2649 5686 3139 6043
4 4003 5016 3756 4006
4 4412 2642 5595 5261
4 3888 3954 3456 4037
4 2403 3888 3453 3912
4 3525 3524 4836 3527
4 3025 3372 3022 3026
4 3423 2648 2646 3013
4 2402 2398 2400 2970
4 3423 2648 3138 2649
4 5669 4624 4723 5781
4 3712 3473 5337 4511
4 2649 3139 3756 6043
4 4624 4625 5293 4554
4 5286 4624 3895 4538
4 5687 4044 4400 6336
4 4624 5293 4538 4554
4 3710 5119 5124 5123
4 3710 5436 5123 5337
4 3711 3758 3753 5116
4 3394 3399 3391 3703
4 3712 5116 3753 5327
4 5119 3940 3398 3710
4 5123 5118 5419 5422
4 4020 4282 4063 4124
4 2902 4306 3685 4957
4 3680 3689 3278 3682
4 3934 3257 2918 5721
4 5273 3736 4192 2862
4 4192 4775 5530 2865
4 3615 4354 4020 4029
4 3688 3293 3278 5189
4 5511 5189 3293 5184
4 3680 3611 3685 2901
4 4696 5189 3278 3293
4 3964 3549 3548 4799
4 4327 3083 2312 4995
4 3288 3322 4643 3289
4 2309 4644 2311 4720
4 4592 3079 4644 4720
4 3650 4592 4643 3408
4 4643 4718 3289 6284
4 4643 3408 6284 3405
4 3591 5479 6171 6098
4 5900 6031 5479 6032
4 3622 3591 3796 6098
4 3869 6189 6269 5986
4 5900 6032 3658 6031
4 3490 5883 6031 5882
4 5883 3489 3591 5777
4 6137 2741 6122 4969
4 6137 6122 2741 6146
4 6137 2741 2734 6139
4 6137 2731 3933 2734
4 4082 3358 3852 3357
4 4083 6162 3358 4084
4 4082 4083 4086 4092
4 6212 2522 2044 2043
4 6212 2522 6102 2044
4 6212 6312 2522 2043
4 6212 2522 5582 6102
4 6212 2523 2053 5582
4 2987 5923 4049 6320
4 3302 2458 3303 3305
4 3928 4764 2987 4049
4 3444 5338 4756 4781
4 5644 4390 5643 5406
4 6189 5362 4292 4298
4 5406 4384 5857 5645
4 2788 4393 4389 4703
4 2445 2443 2669 3978
4 6189 5363 6269 5991
4 2443 2442 3978 2445
4 6022 3978 2668 2442
4 2442 2445 6249 3978
4 2444 2442 5191 4357
4 2442 1655 4357 3917
4 6022 2442 2668 5791
4 5099 6333 5101 5742
4 4059 5099 4950 5742
4 2619 3498 4059 4058
4 6101 4058 5216 4061
4 5099 4061 5216 5215
4 5724 5100 4950 6101
4 6070 2647 2642 2645
4 6070 5261 5509 4631
4 2645 5687 6335 4044
4 2645 5687 4410 6335
4 2646 2645 5687 4410
4 2645 4044 6335 3826
4 2645 3333 2642 4632
4 4892 3510 3318 5796
4 3875 3361 3496 3871
4 3354 3496 3361 3852
4 3214 2227 3014 3122
4 2365 3125 6014 3133
4 3884 5590 5798 5589
4 5209 6233 2135 5881
4 3622 3489 3593 3591
4 3902 4906 3163 3362
4 3163 4906 4903 6014
4 5933 5934 4039 5128
4 5933 5214 6280 5128
4 5933 6280 4360 6327
4 5219 5933 6325 6280
4 5933 6280 5214 4360
4 3958 2948 5106 5063
4 2619 3497 3500 2626
4 2961 2962 3197 5358
4 3535 2963 3977 5144
4 3198 3958 5063 2948
4 3134 2961 3950 3309
4 2964 6233 5209 5881
4 4789 5656 876 3606
4 3296 5664 3866 3606
4 4789 876 5656 877
4 4789 3296 6208 5677
4 5664 4789 3296 6208
4 3606 4789 3296 5664
4 5877 4611 3737 4675
4 3737 4721 4693 5877
4 5286 3326 3895 4352
4 5877 4694 3966 5781
4 5877 4723 3965 4721
4 5877 4721 4693 4722
4 3898 5660 4331 6144
4 3898 5660 1424 6157
4 3898 4881 3559 4328
4 4805 3897 3896 6136
4 6125 4881 1414 4838
4 2580 2986 4764 5220
4 4807 5918 4484 4808
4 4091 2840 2837 3812
4 3493 3571 3335 3981
4 2834 2842 2833 2837
4 3852 4809 3843 4092
4 4807 5453 2026 5452
4 4070 3499 4092 4810
4 4070 3499 6102 3498
4 2528 2299 2530 2529
4 2945 2939 2941 4560
4 4070 2834 4092 4809
4 3012 4929 3703 3937
4 4015 5505 4509 5503
4 3012 3936 3708 3937
4 4642 4509 6040 4463
4 3012 3226 3011 4929
4 4599 4463 4509 3037
4 3037 4134 4509 4599
4 5365 5416 5765 3527
4 3708 4011 3936 4012
4 6339 3944 5028 4364
4 6339 4364 5028 4363
4 4130 6081 4510 6261
4 6339 3944 5465 5491
4 3742 3227 3011 4430
4 4688 5870 5558 5559
4 5558 3537 3539 5559
4 5559 5870 6179 5508
4 5559 4236 3540 3539
4 5559 6179 5532 5508
4 6084 5870 5559 3537
4 5556 4493 5378 4268
4 5556 2544 4493 4268
4 4294 4492 5378 4493
4 5262 5557 5556 4391
4 3611 3685 2901 2903
4 2344 2294 2350 2293
4 2293 3891 3803 3804
4 2601 3565 3574 3564
4 3723 4947 3804 3803
4 2348 3892 2943 3244
4 2700 2833 2939 3092
4 2291 3804 2293 3522
4 4000 4200 4701 5160
4 4930 3804 2291 3522
4 4930 3522 549 541
4 5930 6308 5951 5943
4 5930 4074 1159 4076
4 5930 5951 6308 4847
4 5209 2134 6290 2125
4 4077 4076 5393 4847
4 5930 6308 5392 4847
4 4385 4727 5406 5889
4 3646 3280 6158 3644
4 3215 5798 3584 5589
4 3137 4506 3135 3836
4 3318 5796 3510 4948
4 3641 5798 3884 5590
4 3715 3721 3858 3854
4 3998 5222 3854 3223
4 3998 3365 2887 3417
4 3853 3067 4591 3856
4 3446 3417 3418 3223
4 3446 3368 3998 2689
4 5222 3721 5973 3448
4 4464 3166 3514 6153
4 2249 3445 2876 3616
4 5332 3571 5346 3807
4 3476 4244 3571 3834
4 4250 5619 4240 3571
4 2636 5332 3493 3810
4 3571 4920 5346 6196
4 3725 4045 3724 5068
4 4727 5890 4156 4155
4 3413 2694 3414 3192
4 3250 4021 5875 4581
4 3413 3725 3411 4022
4 3725 3724 4045 5963
4 5065 3411 5066 3744
4 2746 2747 2745 3866
4 2746 3867 3865 3866
4 901 900 3271 3270
4 3272 3646 2743 3647
4 5674 884 5658 5664
4 5420 3883 3491 3501
4 5420 3501 3842 3883
4 4809 5482 4092 3499
4 4809 3842 3843 5483
4 3852 3843 4809 3501
4 4809 4092 5482 5784
4 4809 5482 5483 5784
4 4537 4621 4415 4724
4 4414 4537 4415 4724
4 3083 2356 2357 2358
4 2406 3370 2768 2765
4 407 4695 4790 4537
4 4537 407 4695 4621
4 4537 4542 4543 4790
4 3195 5847 2370 5749
4 3195 2370 3722 5749
4 3769 4527 3671 3070
4 3064 2342 3071 5627
4 4505 3676 4727 4156
4 4003 4006 4005 5016
4 4004 3788 767 4006
4 3422 4323 4005 3421
4 4004 767 3788 766
4 3392 5031 1711 5029
4 3399 3392 5029 5031
4 3392 5031 1712 1711
4 3392 1712 5031 5461
4 4632 5595 3333 2642
4 3840 4150 4155 5469
4 3909 3482 3544 4412
4 3334 2722 3544 3333
4 2760 3384 3382 3180
4 4412 6277 5261 5595
4 2398 2686 2972 3013
4 4016 4448 3953 3955
4 728 4017 737 4018
4 2591 5178 3583 4689
4 3952 4016 4018 3953
4 4608 6169 4225 4226
4 4608 6169 370 4225
4 4608 370 6169 4653
4 3967 4630 4608 4653
4 4609 360 4608 4604
4 3967 4608 4630 5291
4 4607 5298 2679 4610
4 2676 2682 2697 4023
4 4777 5823 5291 5822
4 3895 4606 4538 5293
4 4029 2471 4025 2380
4 3328 5823 5822 3907
4 3967 6169 4992 5055
4 3328 4990 5823 3907
4 4696 5548 5412 1324
4 4696 3293 5511 5189
4 4696 5511 5548 1323
4 4696 5529 1324 5412
4 4696 3682 1333 5530
4 4719 6284 4718 424
4 4719 6284 424 433
4 4719 4542 424 4718
4 4719 4542 4181 425
4 4719 4181 3289 3405
4 2950 2954 2951 2952
4 4719 4181 3405 4180
4 4264 4593 4595 4788
4 4592 4644 4264 4720
4 4264 442 4644 5703
4 4264 5703 4643 3408
4 4264 3408 4592 4593
4 441 4644 4720 4264
4 2333 2433 3927 3765
4 4639 4337 5521 5639
4 2746 3867 2745 3644
4 3078 4718 4643 2311
4 6125 4639 5520 3896
4 3764 4639 5639 4337
4 6125 1404 4337 1405
4 3279 3282 3121 5978
4 2853 3283 3466 4598
4 3466 5150 6186 3550
4 2665 5197 5195 2878
4 3121 5668 4739 4738
4 3121 4739 3122 4738
4 3550 3466 3283 6186
4 3279 2854 3283 4602
4 3279 4602 6288 3773
4 5683 6346 4884 4812
4 5683 6346 4813 3638
4 5683 4885 5684 4843
4 5683 4880 5684 4885
4 2981 2990 5143 2985
4 5143 5057 5252 6225
4 5143 2985 2990 5057
4 5143 6076 2985 5057
4 2477 5004 3694 6076
4 5837 6212 6102 2044
4 6158 6230 5978 5709
4 5704 3867 6158 4341
4 5837 3487 2044 6102
4 6158 3867 3645 5682
4 5682 4341 6230 6158
4 3646 3644 6158 3867
4 6158 5978 4737 5709
4 2948 2949 5818 3208
4 5818 2948 2947 2949
4 3203 2948 3208 2949
4 5837 5582 6212 2053
4 2948 2912 5148 2894
4 5837 6206 5582 2053
4 2948 3198 3208 5063
4 2911 2912 2948 2894
4 3207 3205 2949 3208
4 3197 5092 5006 3198
4 2912 3203 2963 2911
4 5027 992 1000 991
4 5027 5780 5779 4922
4 5027 6155 999 5809
4 5027 6155 990 999
4 5027 990 5779 991
4 3242 4948 3932 3510
4 2838 2623 3092 2832
4 3520 3491 3883 3501
4 3479 2610 3575 2347
4 3231 3902 3163 3362
4 5585 5155 5242 5752
4 5585 2542 5344 5751
4 2541 4295 5585 2542
4 3017 3016 5710 5727
4 4295 5288 5344 2540
4 3692 5905 5592 4008
4 4057 5623 5592 5593
4 3747 4008 5592 5620
4 5591 4826 5593 5138
4 5591 3142 4826 3863
4 3564 6155 5809 3574
4 3156 3564 4450 4122
4 4450 3564 5810 4122
4 2591 2242 3583 5178
4 3158 3155 3157 5757
4 3157 2893 5757 4713
4 3564 5027 6155 4922
4 3564 4446 5027 4922
4 3162 2367 4903 4310
4 5025 5210 659 5239
4 5025 658 5210 5023
4 5025 4422 5239 5026
4 5025 5172 658 5023
4 5040 5173 648 5172
4 5295 667 5258 5321
4 5295 5322 5321 5344
4 5295 676 5322 5344
4 5295 5288 676 5344
4 5295 5585 5751 5155
4 5295 5155 5751 5254
4 4031 4402 5515 4411
4 4032 5108 3952 4031
4 5415 4407 283 4402
4 5415 4402 4031 4407
4 5415 4032 4459 292
4 3551 5399 5498 3552
4 4309 4307 4343 4308
4 5119 5437 5123 3398
4 3300 3299 5609 3350
4 2997 3524 3662 3598
4 5399 4834 1288 4134
4 5558 3539 4684 4688
4 5558 3537 4587 4622
4 5558 5870 4539 3537
4 4892 4307 5702 5046
4 5262 4391 6092 5557
4 6087 6067 4267 6091
4 5609 6087 3350 6090
4 5045 4307 5514 5046
4 4614 6004 4674 4673
4 4614 3845 3605 4228
4 3847 4614 3605 4030
4 2676 2471 2380 4023
4 4612 4613 4228 4559
4 3846 4277 4286 4019
4 3101 3301 3104 3959
4 3106 3104 4700 3960
4 3106 3047 3105 4700
4 3101 3301 6285 3233
4 4635 3101 3233 3102
4 3040 3408 5703 4593
4 3040 4176 3094 3402
4 2543 3257 2620 3256
4 3650 3408 3040 4593
4 3320 3040 3408 5703
4 3317 5046 5514 4309
4 3320 3040 2448 3408
4 3557 3558 2431 3661
4 3082 3040 4174 3039
4 3272 910 3271 901
4 3272 4736 3273 910
4 3270 4866 3273 3647
4 3383 2592 2671 6250
4 3383 6250 1220 2592
4 3383 3222 2198 3052
4 2198 2190 2189 3222
4 5150 3923 3921 6338
4 3230 2852 3550 2364
4 3126 5150 5152 3466
4 5150 5152 3466 5698
4 5150 3923 6338 6173
4 6302 6032 3659 5501
4 4577 5729 3624 4984
4 5729 6148 1945 5672
4 5689 3624 5729 5730
4 5689 1936 5729 1935
4 6183 3803 3891 4975
4 3891 3803 4987 4975
4 3893 6184 3892 3665
4 3891 3804 4987 3803
4 3804 2293 3522 3523
4 5539 5803 5058 6204
4 6302 6031 5711 6187
4 3091 4786 4560 5539
4 3994 5364 3996 5836
4 4502 5836 3996 4505
4 3994 5919 4506 3836
4 3674 3836 3994 4506
4 3994 3993 5364 5843
4 2468 2234 2589 2588
4 5531 4396 5904 3760
4 5842 4505 5235 5192
4 5842 5192 4507 4505
4 5888 5842 5893 3760
4 4469 4501 5218 4506
4 4726 3760 3151 5842
4 2286 2660 3913 4924
4 3191 4927 5495 5975
4 3762 5845 1099 5912
4 4143 5328 1107 1116
4 3191 5975 1116 1125
4 3194 3192 3191 5282
4 3413 3706 4022 4021
4 6181 6231 6182 6321
4 6302 3659 6031 3810
4 5974 6233 2957 6181
4 6181 5793 5942 6061
4 4697 4798 6061 6182
4 3694 6076 5004 3614
4 2480 2479 5003 4233
4 2479 2956 5003 2584
4 5002 5004 3614 2482
4 5002 4233 5004 2482
4 2583 2956 2479 2584
4 2477 5143 6076 2985
4 2477 6225 5004 6076
4 2477 2986 5220 5143
4 2986 5143 2987 4764
4 4186 695 5371 4127
4 4186 5391 686 4127
4 5350 4186 4848 5306
4 4186 5391 5306 687
4 4186 5391 3253 2882
4 4021 5960 5404 1144
4 4021 4022 5959 5960
4 4021 5959 4022 5875
4 3250 4022 3743 5875
4 6302 5633 6187 5688
4 4021 5282 1135 5283
4 3248 3250 4022 3743
4 2477 2479 2482 5004
4 5206 4530 5891 4386
4 3671 3071 5891 5892
4 6302 6187 5633 6168
4 4000 4001 5208 5974
4 4000 4200 5160 2125
4 4847 3251 5951 6308
4 4849 3253 5306 4848
4 2639 3659 5347 3810
4 2929 4848 3251 4257
4 2929 3251 3252 3443
4 3249 4846 5938 4849
4 4848 5306 4186 3253
4 4848 4186 5371 3253
4 4848 3253 5371 5998
4 6087 3350 6090 6068
4 6087 6068 6090 4131
4 6087 4131 6067 6068
4 3553 6087 5262 6091
4 3659 5347 3810 6168
4 6087 5185 5571 6037
4 6087 5185 5262 5556
4 5533 4571 6270 6056
4 5533 4571 3554 6270
4 5533 3752 3750 3554
4 4541 6056 6273 5533
4 5533 4571 5534 4132
4 4640 3081 3765 3076
4 3084 3109 5625 5396
4 3109 5396 1388 5625
4 3109 5396 1387 1388
4 3378 3381 3406 3484
4 4218 5274 1343 4675
4 4218 4675 1343 4694
4 4218 5529 4694 1334
4 4218 1333 3682 5530
4 3680 3689 3681 3683
4 4218 1333 5529 1334
4 6059 2921 2919 5525
4 5273 3681 4218 5274
4 5808 6170 6033 5536
4 3490 5883 3489 3658
4 2827 4795 5808 5055
4 2824 3966 3965 5877
4 4795 5808 5055 6170
4 3699 3700 6001 5516
4 2497 3699 5584 5516
4 2511 4895 3990 2512
4 4375 4378 4377 3948
4 4376 4330 5519 6326
4 4375 3464 5043 3004
4 3004 5587 5043 3946
4 3946 5712 5043 3948
4 6326 5519 4376 3949
4 6302 6168 3810 6187
4 5047 5043 4863 5712
4 5883 5900 5479 3591
4 5047 5394 4889 4863
4 6183 3803 6197 6303
4 6183 3803 4975 6197
4 6183 6197 4968 6303
4 4959 522 4941 523
4 3242 3509 3510 3932
4 4959 4987 4947 4953
4 4959 4947 4941 3118
4 3930 4964 533 3707
4 3931 5680 4126 4964
4 3341 3343 3340 5920
4 3343 3886 5922 5864
4 3341 5136 3344 4348
4 3659 6032 3653 5501
4 2593 3236 2463 2987
4 5864 4689 4284 3343
4 4150 4151 5856 5896
4 4150 5856 5841 5839
4 4150 5643 4155 5839
4 4150 4155 5890 5839
4 5538 4155 4150 5643
4 4150 5469 5890 4155
4 3140 2775 3694 2984
4 2217 2216 2481 2483
4 3144 4825 3863 3864
4 2619 4053 4058 4059
4 5592 6218 5212 5591
4 3860 3863 3859 3864
4 4009 4007 3748 4008
4 2783 2984 4007 2953
4 3692 4007 2984 4886
4 4007 4196 2984 4887
4 2604 2336 2337 2599
4 5922 3237 6226 5140
4 5922 6064 6240 6226
4 5922 5921 5140 5872
4 5767 5921 5922 5864
4 5921 5140 6234 5922
4 6235 5921 5140 6234
4 5920 3886 5922 3343
4 3542 3276 5751 3113
4 2778 4295 4292 5242
4 3618 5456 3237 2973
4 4138 4471 4486 4478
4 4138 4486 4471 4485
4 2402 3467 2395 3258
4 4677 4478 4477 6078
4 4136 4436 4137 6179
4 4409 4495 5822 5290
4 3549 3965 4650 4799
4 3326 5413 4352 5781
4 3549 4650 5055 4565
4 3549 4040 4041 4042
4 3545 4571 3554 3353
4 2722 3350 3545 3353
4 3545 3554 4787 3333
4 3545 3554 6270 4787
4 3545 6270 4571 4572
4 3300 3553 3544 3545
4 3553 3546 3545 4572
4 3389 5123 3400 3398
4 5123 3400 3398 5437
4 5119 4314 5123 5437
4 5119 5123 3710 3398
4 5119 5116 5124 5118
4 5443 5419 5123 5118
4 5124 5448 4447 4406
4 5443 5436 5422 5421
4 5443 5436 5421 5902
4 3754 3420 3753 3712
4 3659 5501 3653 6161
4 5273 3684 2901 3278
4 3611 4493 4294 5185
4 3612 2902 4306 3611
4 4354 4027 5264 4029
4 4020 4063 4282 4145
4 4327 3043 3075 3076
4 2333 3174 3927 2433
4 3110 3084 5396 3109
4 3320 2448 3040 3082
4 3042 5519 3044 4594
4 6302 6187 3810 6031
CELL_TYPES 31305
10
10
10
10
10
10
10
10
10
10
10
10
10
10
10
10
10
10
10
10
10
10
10
10
10
10
10
10
10
10
10
10
10
10
10
10
10
10
10
10
10
10
10
10
10
10
10
10
10
10
10
10
10
10
10
10
10
10
10
10
10
10
10
10
10
10
10
10
10
10
10
10
10
10
10
10
10
10
10
10
10
10
10
10
10
10
10
10
10
10
10
10
10
10
10
10
10
10
10
10
10
10
10
10
10
10
10
10
10
10
10
10
10
10
10
10
10
10
10
10
10
10
10
10
10
10
10
10
10
10
10
10
10
10
10
10
10
10
10
10
10
10
10
10
10
10
10
10
10
10
10
10
10
10
10
10
10
10
10
10
10
10
10
10
10
10
10
10
10
10
10
10
10
10
10
10
10
10
10
10
10
10
10
10
10
10
10
10
10
10
10
10
10
10
10
10
10
10
10
10
10
10
10
10
10
10
10
10
10
10
10
10
10
10
10
10
10
10
10
10
10
10
10
10
10
10
10
10
10
10
10
10
10
10
10
10
10
10
10
10
10
10
10
10
10
10
10
10
10
10
10
10
10
10
10
10
10
10
10
10
10
10
10
10
10
10
10
10
10
10
10
10
10
10
10
10
10
10
10
10
10
10
10
10
10
10
10
10
10
10
10
10
10
10
10
10
10
10
10
10
10
10
10
10
10
10
10
10
10
10
10
10
10
10
10
10
10
10
10
10
10
10
10
10
10
10
10
10
10
10
10
10
10
10
10
10
10
10
10
10
10
10
10
10
10
10
10
10
10
10
10
10
10
10
10
10
10
10
10
10
10
10
10
10
10
10
10
10
10
10
10
10
10
10
10
10
10
10
10
10
10
10
10
10
10
10
10
10
10
10
10
10
10
10
10
10
10
10
10
10
10
10
10
10
10
10
10
10
10
10
10
10
10
10
10
10
10
10
10
10
10
10
10
10
10
10
10
10
10
10
10
10
10
10
10
10
10
10
10
10
10
10
10
10
10
10
10
10
10
10
10
10
10
10
10
10
10
10
10
10
10
10
10
10
10
10
10
10
10
10
10
10
10
10
10
10
10
10
10
10
10
10
10
10
10
10
10
10
10
10
10
10
10
10
10
10
10
10
10
10
10
10
10
10
10
10
10
10
10
10
10
10
10
10
10
10
10
10
10
10
10
10
10
10
10
10
10
10
10
10
10
10
10
10
10
10
10
10
10
10
10
10
10
10
10
10
10
10
10
10
10
10
10
10
10
10
10
10
10
10
10
10
10
10
10
10
10
10
10
10
10
10
10
10
10
10
10
10
10
10
10
10
10
10
10
10
10
10
10
10
10
10
10
10
10
10
10
10
10
10
10
10
10
10
10
10
10
10
10
10
10
10
10
10
10
10
10
10
10
10
10
10
10
10
10
10
10
10
10
10
10
10
10
10
10
10
10
10
10
10
10
10
10
10
10
10
10
10
10
10
10
10
10
10
10
10
10
10
10
10
10
10
10
10
10
10
10
10
10
10
10
10
10
10
10
10
10
10
10
10
10
10
10
10
10
10
10
10
10
10
10
10
10
10
10
10
10
10
10
10
10
10
10
10
10
10
10
10
10
10
10
10
10
10
10
10
10
10
10
10
10
10
10
10
10
10
10
10
10
10
10
10
10
10
10
10
10
10
10
10
10
10
10
10
10
10
10
10
10
10
10
10
10
10
10
10
10
10
10
10
10
10
10
10
10
10
10
10
10
10
10
10
10
10
10
10
10
10
10
10
10
10
10
10
10
10
10
10
10
10
10
10
10
10
10
10
10
10
10
10
10
10
10
10
10
10
10
10
10
10
10
10
10
10
10
10
10
10
10
10
10
10
10
10
10
10
10
10
10
10
10
10
10
10
10
10
10
10
10
10
10
10
10
10
10
10
10
10
10
10
10
10
10
10
10
10
10
10
10
10
10
10
10
10
10
10
10
10
10
10
10
10
10
10
10
10
10
10
10
10
10
10
10
10
10
10
10
10
10
10
10
10
10
10
10
10
10
10
10
10
10
10
10
10
10
10
10
10
10
10
10
10
10
10
10
10
10
10
10
10
10
10
10
10
10
10
10
10
10
10
10
10
10
10
10
10
10
10
10
10
10
10
10
10
10
10
10
10
10
10
10
10
10
10
10
10
10
10
10
10
10
10
10
10
10
10
10
10
10
10
10
10
10
10
10
10
10
10
10
10
10
10
10
10
10
10
10
10
10
10
10
10
10
10
10
10
10
10
10
10
10
10
10
10
10
10
10
10
10
10
10
10
10
10
10
10
10
10
10
10
10
10
10
10
10
10
10
10
10
10
10
10
10
10
10
10
10
10
10
10
10
10
10
10
10
10
10
10
10
10
10
10
10
10
10
10
10
10
10
10
10
10
10
10
10
10
10
10
10
10
10
10
10
10
10
10
10
10
10
10
10
10
10
10
10
10
10
10
10
10
10
10
10
10
10
10
10
10
10
10
10
10
10
10
10
10
10
10
10
10
10
10
10
10
10
10
10
10
10
10
10
10
10
10
10
10
10
10
10
10
10
10
10
10
10
10
10
10
10
10
10
10
10
10
10
10
10
10
10
10
10
10
10
10
10
10
10
10
10
10
10
10
10
10
10
10
10
10
10
10
10
10
10
10
10
10
10
10
10
10
10
10
10
10
10
10
10
10
10
10
10
10
10
10
10
10
10
10
10
10
10
10
10
10
10
10
10
10
10
10
10
10
10
10
10
10
10
10
10
10
10
10
10
10
10
10
10
10
10
10
10
10
10
10
10
10
10
10
10
10
10
10
10
10
10
10
10
10
10
10
10
10
10
10
10
10
10
10
10
10
10
10
10
10
10
10
10
10
10
10
10
10
10
10
10
10
10
10
10
10
10
10
10
10
10
10
10
10
10
10
10
10
10
10
10
10
10
10
10
10
10
10
10
10
10
10
10
10
10
10
10
10
10
10
10
10
10
10
10
10
10
10
10
10
10
10
10
10
10
10
10
10
10
10
10
10
10
10
10
10
10
10
10
10
10
10
10
10
10
10
10
10
10
10
10
10
10
10
10
10
10
10
10
10
10
10
10
10
10
10
10
10
10
10
10
10
10
10
10
10
10
10
10
10
10
10
10
10
10
10
10
10
10
10
10
10
10
10
10
10
10
10
10
10
10
10
10
10
10
10
10
10
10
10
10
10
10
10
10
10
10
10
10
10
10
10
10
10
10
10
10
10
10
10
10
10
10
10
10
10
10
10
10
10
10
10
10
10
10
10
10
10
10
10
10
10
10
10
10
10
10
10
10
10
10
10
10
10
10
10
10
10
10
10
10
10
10
10
10
10
10
10
10
10
10
10
10
10
10
10
10
10
10
10
10
10
10
10
10
10
10
10
10
10
10
10
10
10
10
10
10
10
10
10
10
10
10
10
10
10
10
10
10
10
10
10
10
10
10
10
10
10
10
10
10
10
10
10
10
10
10
10
10
10
10
10
10
10
10
10
10
10
10
10
10
10
10
10
10
10
10
10
10
10
10
10
10
10
10
10
10
10
10
10
10
10
10
10
10
10
10
10
10
10
10
10
10
10
10
10
10
10
10
10
10
10
10
10
10
10
10
10
10
10
10
10
10
10
10
10
10
10
10
10
10
10
10
10
10
10
10
10
10
10
10
10
10
10
10
10
10
10
10
10
10
10
10
10
10
10
10
10
10
10
10
10
10
10
10
10
10
10
10
10
10
10
10
10
10
10
10
10
10
10
10
10
10
10
10
10
10
10
10
10
10
10
10
10
10
10
10
10
10
10
10
10
10
10
10
10
10
10
10
10
10
10
10
10
10
10
10
10
10
10
10
10
10
10
10
10
10
10
10
10
10
10
10
10
10
10
10
10
10
10
10
10
10
10
10
10
10
10
10
10
10
10
10
10
10
10
10
10
10
10
10
10
10
10
10
10
10
10
10
10
10
10
10
10
10
10
10
10
10
10
10
10
10
10
10
10
10
10
10
10
10
10
10
10
10
10
10
10
10
10
10
10
10
10
10
10
10
10
10
10
10
10
10
10
10
10
10
10
10
10
10
10
10
10
10
10
10
10
10
10
10
10
10
10
10
10
10
10
10
10
10
10
10
10
10
10
10
10
10
10
10
10
10
10
10
10
10
10
10
10
10
10
10
10
10
10
10
10
10
10
10
10
10
10
10
10
10
10
10
10
10
10
10
10
10
10
10
10
10
10
10
10
10
10
10
10
10
10
10
10
10
10
10
10
10
10
10
10
10
10
10
10
10
10
10
10
10
10
10
10
10
10
10
10
10
10
10
10
10
10
10
10
10
10
10
10
10
10
10
10
10
10
10
10
10
10
10
10
10
10
10
10
10
10
10
10
10
10
10
10
10
10
10
10
10
10
10
10
10
10
10
10
10
10
10
10
10
10
10
10
10
10
10
10
10
10
10
10
10
10
10
10
10
10
10
10
10
10
10
10
10
10
10
10
10
10
10
10
10
10
10
10
10
10
10
10
10
10
10
10
10
10
10
10
10
10
10
10
10
10
10
10
10
10
10
10
10
10
10
10
10
10
10
10
10
10
10
10
10
10
10
10
10
10
10
10
10
10
10
10
10
10
10
10
10
10
10
10
10
10
10
10
10
10
10
10
10
10
10
10
10
10
10
10
10
10
10
10
10
10
10
10
10
10
10
10
10
10
10
10
10
10
10
10
10
10
10
10
10
10
10
10
10
10
10
10
10
10
10
10
10
10
10
10
10
10
10
10
10
10
10
10
10
10
10
10
10
10
10
10
10
10
10
10
10
10
10
10
10
10
10
10
10
10
10
10
10
10
10
10
10
10
10
10
10
10
10
10
10
10
10
10
10
10
10
10
10
10
10
10
10
10
10
10
10
10
10
10
10
10
10
10
10
10
10
10
10
10
10
10
10
10
10
10
10
10
10
10
10
10
10
10
10
10
10
10
10
10
10
10
10
10
10
10
10
10
10
10
10
10
10
10
10
10
10
10
10
10
10
10
10
10
10
10
10
10
10
10
10
10
10
10
10
10
10
10
10
10
10
10
10
10
10
10
10
10
10
10
10
10
10
10
10
10
10
10
10
10
10
10
10
10
10
10
10
10
10
10
10
10
10
10
10
10
10
10
10
10
10
10
10
10
10
10
10
10
10
10
10
10
10
10
10
10
10
10
10
10
10
10
10
10
10
10
10
10
10
10
10
10
10
10
10
10
10
10
10
10
10
10
10
10
10
10
10
10
10
10
10
10
10
10
10
10
10
10
10
10
10
10
10
10
10
10
10
10
10
10
10
10
10
10
10
10
10
10
10
10
10
10
10
10
10
10
10
10
10
10
10
10
10
10
10
10
10
10
10
10
10
10
10
10
10
10
10
10
10
10
10
10
10
10
10
10
10
10
10
10
10
10
10
10
10
10
10
10
10
10
10
10
10
10
10
10
10
10
10
10
10
10
10
10
10
10
10
10
10
10
10
10
10
10
10
10
10
10
10
10
10
10
10
10
10
10
10
10
10
10
10
10
10
10
10
10
10
10
10
10
10
10
10
10
10
10
10
10
10
10
10
10
10
10
10
10
10
10
10
10
10
10
10
10
10
10
10
10
10
10
10
10
10
10
10
10
10
10
10
10
10
10
10
10
10
10
10
10
10
10
10
10
10
10
10
10
10
10
10
10
10
10
10
10
10
10
10
10
10
10
10
10
10
10
10
10
10
10
10
10
10
10
10
10
10
10
10
10
10
10
10
10
10
10
10
10
10
10
10
10
10
10
10
10
10
10
10
10
10
10
10
10
10
10
10
10
10
10
10
10
10
10
10
10
10
10
10
10
10
10
10
10
10
10
10
10
10
10
10
10
10
10
10
10
10
10
10
10
10
10
10
10
10
10
10
10
10
10
10
10
10
10
10
10
10
10
10
10
10
10
10
10
10
10
10
10
10
10
10
10
10
10
10
10
10
10
10
10
10
10
10
10
10
10
10
10
10
10
10
10
10
10
10
10
10
10
10
10
10
10
10
10
10
10
10
10
10
10
10
10
10
10
10
10
10
10
10
10
10
10
10
10
10
10
10
10
10
10
10
10
10
10
10
10
10
10
10
10
10
10
10
10
10
10
10
10
10
10
10
10
10
10
10
10
10
10
10
10
10
10
10
10
10
10
10
10
10
10
10
10
10
10
10
10
10
10
10
10
10
10
10
10
10
10
10
10
10
10
10
10
10
10
10
10
10
10
10
10
10
10
10
10
10
10
10
10
10
10
10
10
10
10
10
10
10
10
10
10
10
10
10
10
10
10
10
10
10
10
10
10
10
10
10
10
10
10
10
10
10
10
10
10
10
10
10
10
10
10
10
10
10
10
10
10
10
10
10
10
10
10
10
10
10
10
10
10
10
10
10
10
10
10
10
10
10
10
10
10
10
10
10
10
10
10
10
10
10
10
10
10
10
10
10
10
10
10
10
10
10
10
10
10
10
10
10
10
10
10
10
10
10
10
10
10
10
10
10
10
10
10
10
10
10
10
10
10
10
10
10
10
10
10
10
10
10
10
10
10
10
10
10
10
10
10
10
10
10
10
10
10
10
10
10
10
10
10
10
10
10
10
10
10
10
10
10
10
10
10
10
10
10
10
10
10
10
10
10
10
10
10
10
10
10
10
10
10
10
10
10
10
10
10
10
10
10
10
10
10
10
10
10
10
10
10
10
10
10
10
10
10
10
10
10
10
10
10
10
10
10
10
10
10
10
10
10
10
10
10
10
10
10
10
10
10
10
10
10
10
10
10
10
10
10
10
10
10
10
10
10
10
10
10
10
10
10
10
10
10
10
10
10
10
10
10
10
10
10
10
10
10
10
10
10
10
10
10
10
10
10
10
10
10
10
10
10
10
10
10
10
10
10
10
10
10
10
10
10
10
10
10
10
10
10
10
10
10
10
10
10
10
10
10
10
10
10
10
10
10
10
10
10
10
10
10
10
10
10
10
10
10
10
10
10
10
10
10
10
10
10
10
10
10
10
10
10
10
10
10
10
10
10
10
10
10
10
10
10
10
10
10
10
10
10
10
10
10
10
10
10
10
10
10
10
10
10
10
10
10
10
10
10
10
10
10
10
10
10
10
10
10
10
10
10
10
10
10
10
10
10
10
10
10
10
10
10
10
10
10
10
10
10
10
10
10
10
10
10
10
10
10
10
10
10
10
10
10
10
10
10
10
10
10
10
10
10
10
10
10
10
10
10
10
10
10
10
10
10
10
10
10
10
10
10
10
10
10
10
10
10
10
10
10
10
10
10
10
10
10
10
10
10
10
10
10
10
10
10
10
10
10
10
10
10
10
10
10
10
10
10
10
10
10
10
10
10
10
10
10
10
10
10
10
10
10
10
10
10
10
10
10
10
10
10
10
10
10
10
10
10
10
10
10
10
10
10
10
10
10
10
10
10
10
10
10
10
10
10
10
10
10
10
10
10
10
10
10
10
10
10
10
10
10
10
10
10
10
10
10
10
10
10
10
10
10
10
10
10
10
10
10
10
10
10
10
10
10
10
10
10
10
10
10
10
10
10
10
10
10
10
10
10
10
10
10
10
10
10
10
10
10
10
10
10
10
10
10
10
10
10
10
10
10
10
10
10
10
10
10
10
10
10
10
10
10
10
10
10
10
10
10
10
10
10
10
10
10
10
10
10
10
10
10
10
10
10
10
10
10
10
10
10
10
10
10
10
10
10
10
10
10
10
10
10
10
10
10
10
10
10
10
10
10
10
10
10
10
10
10
10
10
10
10
10
10
10
10
10
10
10
10
10
10
10
10
10
10
10
10
10
10
10
10
10
10
10
10
10
10
10
10
10
10
10
10
10
10
10
10
10
10
10
10
10
10
10
10
10
10
10
10
10
10
10
10
10
10
10
10
10
10
10
10
10
10
10
10
10
10
10
10
10
10
10
10
10
10
10
10
10
10
10
10
10
10
10
10
10
10
10
10
10
10
10
10
10
10
10
10
10
10
10
10
10
10
10
10
10
10
10
10
10
10
10
10
10
10
10
10
10
10
10
10
10
10
10
10
10
10
10
10
10
10
10
10
10
10
10
10
10
10
10
10
10
10
10
10
10
10
10
10
10
10
10
10
10
10
10
10
10
10
10
10
10
10
10
10
10
10
10
10
10
10
10
10
10
10
10
10
10
10
10
10
10
10
10
10
10
10
10
10
10
10
10
10
10
10
10
10
10
10
10
10
10
10
10
10
10
10
10
10
10
10
10
10
10
10
10
10
10
10
10
10
10
10
10
10
10
10
10
10
10
10
10
10
10
10
10
10
10
10
10
10
10
10
10
10
10
10
10
10
10
10
10
10
10
10
10
10
10
10
10
10
10
10
10
10
10
10
10
10
10
10
10
10
10
10
10
10
10
10
10
10
10
10
10
10
10
10
10
10
10
10
10
10
10
10
10
10
10
10
10
10
10
10
10
10
10
10
10
10
10
10
10
10
10
10
10
10
10
10
10
10
10
10
10
10
10
10
10
10
10
10
10
10
10
10
10
10
10
10
10
10
10
10
10
10
10
10
10
10
10
10
10
10
10
10
10
10
10
10
10
10
10
10
10
10
10
10
10
10
10
10
10
10
10
10
10
10
10
10
10
10
10
10
10
10
10
10
10
10
10
10
10
10
10
10
10
10
10
10
10
10
10
10
10
10
10
10
10
10
10
10
10
10
10
10
10
10
10
10
10
10
10
10
10
10
10
10
10
10
10
10
10
10
10
10
10
10
10
10
10
10
10
10
10
10
10
10
10
10
10
10
10
10
10
10
10
10
10
10
10
10
10
10
10
10
10
10
10
10
10
10
10
10
10
10
10
10
10
10
10
10
10
10
10
10
10
10
10
10
10
10
10
10
10
10
10
10
10
10
10
10
10
10
10
10
10
10
10
10
10
10
10
10
10
10
10
10
10
10
10
10
10
10
10
10
10
10
10
10
10
10
10
10
10
10
10
10
10
10
10
10
10
10
10
10
10
10
10
10
10
10
10
10
10
10
10
10
10
10
10
10
10
10
10
10
10
10
10
10
10
10
10
10
10
10
10
10
10
10
10
10
10
10
10
10
10
10
10
10
10
10
10
10
10
10
10
10
10
10
10
10
10
10
10
10
10
10
10
10
10
10
10
10
10
10
10
10
10
10
10
10
10
10
10
10
10
10
10
10
10
10
10
10
10
10
10
10
10
10
10
10
10
10
10
10
10
10
10
10
10
10
10
10
10
10
10
10
10
10
10
10
10
10
10
10
10
10
10
10
10
10
10
10
10
10
10
10
10
10
10
10
10
10
10
10
10
10
10
10
10
10
10
10
10
10
10
10
10
10
10
10
10
10
10
10
10
10
10
10
10
10
10
10
10
10
10
10
10
10
10
10
10
10
10
10
10
10
10
10
10
10
10
10
10
10
10
10
10
10
10
10
10
10
10
10
10
10
10
10
10
10
10
10
10
10
10
10
10
10
10
10
10
10
10
10
10
10
10
10
10
10
10
10
10
10
10
10
10
10
10
10
10
10
10
10
10
10
10
10
10
10
10
10
10
10
10
10
10
10
10
10
10
10
10
10
10
10
10
10
10
10
10
10
10
10
10
10
10
10
10
10
10
10
10
10
10
10
10
10
10
10
10
10
10
10
10
10
10
10
10
10
10
10
10
10
10
10
10
10
10
10
10
10
10
10
10
10
10
10
10
10
10
10
10
10
10
10
10
10
10
10
10
10
10
10
10
10
10
10
10
10
10
10
10
10
10
10
10
10
10
10
10
10
10
10
10
10
10
10
10
10
10
10
10
10
10
10
10
10
10
10
10
10
10
10
10
10
10
10
10
10
10
10
10
10
10
10
10
10
10
10
10
10
10
10
10
10
10
10
10
10
10
10
10
10
10
10
10
10
10
10
10
10
10
10
10
10
10
10
10
10
10
10
10
10
10
10
10
10
10
10
10
10
10
10
10
10
10
10
10
10
10
10
10
10
10
10
10
10
10
10
10
10
10
10
10
10
10
10
10
10
10
10
10
10
10
10
10
10
10
10
10
10
10
10
10
10
10
10
10
10
10
10
10
10
10
10
10
10
10
10
10
10
10
10
10
10
10
10
10
10
10
10
10
10
10
10
10
10
10
10
10
10
10
10
10
10
10
10
10
10
10
10
10
10
10
10
10
10
10
10
10
10
10
10
10
10
10
10
10
10
10
10
10
10
10
10
10
10
10
10
10
10
10
10
10
10
10
10
10
10
10
10
10
10
10
10
10
10
10
10
10
10
10
10
10
10
10
10
10
10
10
10
10
10
10
10
10
10
10
10
10
10
10
10
10
10
10
10
10
10
10
10
10
10
10
10
10
10
10
10
10
10
10
10
10
10
10
10
10
10
10
10
10
10
10
10
10
10
10
10
10
10
10
10
10
10
10
10
10
10
10
10
10
10
10
10
10
10
10
10
10
10
10
10
10
10
10
10
10
10
10
10
10
10
10
10
10
10
10
10
10
10
10
10
10
10
10
10
10
10
10
10
10
10
10
10
10
10
10
10
10
10
10
10
10
10
10
10
10
10
10
10
10
10
10
10
10
10
10
10
10
10
10
10
10
10
10
10
10
10
10
10
10
10
10
10
10
10
10
10
10
10
10
10
10
10
10
10
10
10
10
10
10
10
10
10
10
10
10
10
10
10
10
10
10
10
10
10
10
10
10
10
10
10
10
10
10
10
10
10
10
10
10
10
10
10
10
10
10
10
10
10
10
10
10
10
10
10
10
10
10
10
10
10
10
10
10
10
10
10
10
10
10
10
10
10
10
10
10
10
10
10
10
10
10
10
10
10
10
10
10
10
10
10
10
10
10
10
10
10
10
10
10
10
10
10
10
10
10
10
10
10
10
10
10
10
10
10
10
10
10
10
10
10
10
10
10
10
10
10
10
10
10
10
10
10
10
10
10
10
10
10
10
10
10
10
10
10
10
10
10
10
10
10
10
10
10
10
10
10
10
10
10
10
10
10
10
10
10
10
10
10
10
10
10
10
10
10
10
10
10
10
10
10
10
10
10
10
10
10
10
10
10
10
10
10
10
10
10
10
10
10
10
10
10
10
10
10
10
10
10
10
10
10
10
10
10
10
10
10
10
10
10
10
10
10
10
10
10
10
10
10
10
10
10
10
10
10
10
10
10
10
10
10
10
10
10
10
10
10
10
10
10
10
10
10
10
10
10
10
10
10
10
10
10
10
10
10
10
10
10
10
10
10
10
10
10
10
10
10
10
10
10
10
10
10
10
10
10
10
10
10
10
10
10
10
10
10
10
10
10
10
10
10
10
10
10
10
10
10
10
10
10
10
10
10
10
10
10
10
10
10
10
10
10
10
10
10
10
10
10
10
10
10
10
10
10
10
10
10
10
10
10
10
10
10
10
10
10
10
10
10
10
10
10
10
10
10
10
10
10
10
10
10
10
10
10
10
10
10
10
10
10
10
10
10
10
10
10
10
10
10
10
10
10
10
10
10
10
10
10
10
10
10
10
10
10
10
10
10
10
10
10
10
10
10
10
10
10
10
10
10
10
10
10
10
10
10
10
10
10
10
10
10
10
10
10
10
10
10
10
10
10
10
10
10
10
10
10
10
10
10
10
10
10
10
10
10
10
10
10
10
10
10
10
10
10
10
10
10
10
10
10
10
10
10
10
10
10
10
10
10
10
10
10
10
10
10
10
10
10
10
10
10
10
10
10
10
10
10
10
10
10
10
10
10
10
10
10
10
10
10
10
10
10
10
10
10
10
10
10
10
10
10
10
10
10
10
10
10
10
10
10
10
10
10
10
10
10
10
10
10
10
10
10
10
10
10
10
10
10
10
10
10
10
10
10
10
10
10
10
10
10
10
10
10
10
10
10
10
10
10
10
10
10
10
10
10
10
10
10
10
10
10
10
10
10
10
10
10
10
10
10
10
10
10
10
10
10
10
10
10
10
10
10
10
10
10
10
10
10
10
10
10
10
10
10
10
10
10
10
10
10
10
10
10
10
10
10
10
10
10
10
10
10
10
10
10
10
10
10
10
10
10
10
10
10
10
10
10
10
10
10
10
10
10
10
10
10
10
10
10
10
10
10
10
10
10
10
10
10
10
10
10
10
10
10
10
10
10
10
10
10
10
10
10
10
10
10
10
10
10
10
10
10
10
10
10
10
10
10
10
10
10
10
10
10
10
10
10
10
10
10
10
10
10
10
10
10
10
10
10
10
10
10
10
10
10
10
10
10
10
10
10
10
10
10
10
10
10
10
10
10
10
10
10
10
10
10
10
10
10
10
10
10
10
10
10
10
10
10
10
10
10
10
10
10
10
10
10
10
10
10
10
10
10
10
10
10
10
10
10
10
10
10
10
10
10
10
10
10
10
10
10
10
10
10
10
10
10
10
10
10
10
10
10
10
10
10
10
10
10
10
10
10
10
10
10
10
10
10
10
10
10
10
10
10
10
10
10
10
10
10
10
10
10
10
10
10
10
10
10
10
10
10
10
10
10
10
10
10
10
10
10
10
10
10
10
10
10
10
10
10
10
10
10
10
10
10
10
10
10
10
10
10
10
10
10
10
10
10
10
10
10
10
10
10
10
10
10
10
10
10
10
10
10
10
10
10
10
10
10
10
10
10
10
10
10
10
10
10
10
10
10
10
10
10
10
10
10
10
10
10
10
10
10
10
10
10
10
10
10
10
10
10
10
10
10
10
10
10
10
10
10
10
10
10
10
10
10
10
10
10
10
10
10
10
10
10
10
10
10
10
10
10
10
10
10
10
10
10
10
10
10
10
10
10
10
10
10
10
10
10
10
10
10
10
10
10
10
10
10
10
10
10
10
10
10
10
10
10
10
10
10
10
10
10
10
10
10
10
10
10
10
10
10
10
10
10
10
10
10
10
10
10
10
10
10
10
10
10
10
10
10
10
10
10
10
10
10
10
10
10
10
10
10
10
10
10
10
10
10
10
10
10
10
10
10
10
10
10
10
10
10
10
10
10
10
10
10
10
10
10
10
10
10
10
10
10
10
10
10
10
10
10
10
10
10
10
10
10
10
10
10
10
10
10
10
10
10
10
10
10
10
10
10
10
10
10
10
10
10
10
10
10
10
10
10
10
10
10
10
10
10
10
10
10
10
10
10
10
10
10
10
10
10
10
10
10
10
10
10
10
10
10
10
10
10
10
10
10
10
10
10
10
10
10
10
10
10
10
10
10
10
10
10
10
10
10
10
10
10
10
10
10
10
10
10
10
10
10
10
10
10
10
10
10
10
10
10
10
10
10
10
10
10
10
10
10
10
10
10
10
10
10
10
10
10
10
10
10
10
10
10
10
10
10
10
10
10
10
10
10
10
10
10
10
10
10
10
10
10
10
10
10
10
10
10
10
10
10
10
10
10
10
10
10
10
10
10
10
10
10
10
10
10
10
10
10
10
10
10
10
10
10
10
10
10
10
10
10
10
10
10
10
10
10
10
10
10
10
10
10
10
10
10
10
10
10
10
10
10
10
10
10
10
10
10
10
10
10
10
10
10
10
10
10
10
10
10
10
10
10
10
10
10
10
10
10
10
10
10
10
10
10
10
10
10
10
10
10
10
10
10
10
10
10
10
10
10
10
10
10
10
10
10
10
10
10
10
10
10
10
10
10
10
10
10
10
10
10
10
10
10
10
10
10
10
10
10
10
10
10
10
10
10
10
10
10
10
10
10
10
10
10
10
10
10
10
10
10
10
10
10
10
10
10
10
10
10
10
10
10
10
10
10
10
10
10
10
10
10
10
10
10
10
10
10
10
10
10
10
10
10
10
10
10
10
10
10
10
10
10
10
10
10
10
10
10
10
10
10
10
10
10
10
10
10
10
10
10
10
10
10
10
10
10
10
10
10
10
10
10
10
10
10
10
10
10
10
10
10
10
10
10
10
10
10
10
10
10
10
10
10
10
10
10
10
10
10
10
10
10
10
10
10
10
10
10
10
10
10
10
10
10
10
10
10
10
10
10
10
10
10
10
10
10
10
10
10
10
10
10
10
10
10
10
10
10
10
10
10
10
10
10
10
10
10
10
10
10
10
10
10
10
10
10
10
10
10
10
10
10
10
10
10
10
10
10
10
10
10
10
10
10
10
10
10
10
10
10
10
10
10
10
10
10
10
10
10
10
10
10
10
10
10
10
10
10
10
10
10
10
10
10
10
10
10
10
10
10
10
10
10
10
10
10
10
10
10
10
10
10
10
10
10
10
10
10
10
10
10
10
10
10
10
10
10
10
10
10
10
10
10
10
10
10
10
10
10
10
10
10
10
10
10
10
10
10
10
10
10
10
10
10
10
10
10
10
10
10
10
10
10
10
10
10
10
10
10
10
10
10
10
10
10
10
10
10
10
10
10
10
10
10
10
10
10
10
10
10
10
10
10
10
10
10
10
10
10
10
10
10
10
10
10
10
10
10
10
10
10
10
10
10
10
10
10
10
10
10
10
10
10
10
10
10
10
10
10
10
10
10
10
10
10
10
10
10
10
10
10
10
10
10
10
10
10
10
10
10
10
10
10
10
10
10
10
10
10
10
10
10
10
10
10
10
10
10
10
10
10
10
10
10
10
10
10
10
10
10
10
10
10
10
10
10
10
10
10
10
10
10
10
10
10
10
10
10
10
10
10
10
10
10
10
10
10
10
10
10
10
10
10
10
10
10
10
10
10
10
10
10
10
10
10
10
10
10
10
10
10
10
10
10
10
10
10
10
10
10
10
10
10
10
10
10
10
10
10
10
10
10
10
10
10
10
10
10
10
10
10
10
10
10
10
10
10
10
10
10
10
10
10
10
10
10
10
10
10
10
10
10
10
10
10
10
10
10
10
10
10
10
10
10
10
10
10
10
10
10
10
10
10
10
10
10
10
10
10
10
10
10
10
10
10
10
10
10
10
10
10
10
10
10
10
10
10
10
10
10
10
10
10
10
10
10
10
10
10
10
10
10
10
10
10
10
10
10
10
10
10
10
10
10
10
10
10
10
10
10
10
10
10
10
10
10
10
10
10
10
10
10
10
10
10
10
10
10
10
10
10
10
10
10
10
10
10
10
10
10
10
10
10
10
10
10
10
10
10
10
10
10
10
10
10
10
10
10
10
10
10
10
10
10
10
10
10
10
10
10
10
10
10
10
10
10
10
10
10
10
10
10
10
10
10
10
10
10
10
10
10
10
10
10
10
10
10
10
10
10
10
10
10
10
10
10
10
10
10
10
10
10
10
10
10
10
10
10
10
10
10
10
10
10
10
10
10
10
10
10
10
10
10
10
10
10
10
10
10
10
10
10
10
10
10
10
10
10
10
10
10
10
10
10
10
10
10
10
10
10
10
10
10
10
10
10
10
10
10
10
10
10
10
10
10
10
10
10
10
10
10
10
10
10
10
10
10
10
10
10
10
10
10
10
10
10
10
10
10
10
10
10
10
10
10
10
10
10
10
10
10
10
10
10
10
10
10
10
10
10
10
10
10
10
10
10
10
10
10
10
10
10
10
10
10
10
10
10
10
10
10
10
10
10
10
10
10
10
10
10
10
10
10
10
10
10
10
10
10
10
10
10
10
10
10
10
10
10
10
10
10
10
10
10
10
10
10
10
10
10
10
10
10
10
10
10
10
10
10
10
10
10
10
10
10
10
10
10
10
10
10
10
10
10
10
10
10
10
10
10
10
10
10
10
10
10
10
10
10
10
10
10
10
10
10
10
10
10
10
10
10
10
10
10
10
10
10
10
10
10
10
10
10
10
10
10
10
10
10
10
10
10
10
10
10
10
10
10
10
10
10
10
10
10
10
10
10
10
10
10
10
10
10
10
10
10
10
10
10
10
10
10
10
10
10
10
10
10
10
10
10
10
10
10
10
10
10
10
10
10
10
10
10
10
10
10
10
10
10
10
10
10
10
10
10
10
10
10
10
10
10
10
10
10
10
10
10
10
10
10
10
10
10
10
10
10
10
10
10
10
10
10
10
10
10
10
10
10
10
10
10
10
10
10
10
10
10
10
10
10
10
10
10
10
10
10
10
10
10
10
10
10
10
10
10
10
10
10
10
10
10
10
10
10
10
10
10
10
10
10
10
10
10
10
10
10
10
10
10
10
10
10
10
10
10
10
10
10
10
10
10
10
10
10
10
10
10
10
10
10
10
10
10
10
10
10
10
10
10
10
10
10
10
10
10
10
10
10
10
10
10
10
10
10
10
10
10
10
10
10
10
10
10
10
10
10
10
10
10
10
10
10
10
10
10
10
10
10
10
10
10
10
10
10
10
10
10
10
10
10
10
10
10
10
10
10
10
10
10
10
10
10
10
10
10
10
10
10
10
10
10
10
10
10
10
10
10
10
10
10
10
10
10
10
10
10
10
10
10
10
10
10
10
10
10
10
10
10
10
10
10
10
10
10
10
10
10
10
10
10
10
10
10
10
10
10
10
10
10
10
10
10
10
10
10
10
10
10
10
10
10
10
10
10
10
10
10
10
10
10
10
10
10
10
10
10
10
10
10
10
10
10
10
10
10
10
10
10
10
10
10
10
10
10
10
10
10
10
10
10
10
10
10
10
10
10
10
10
10
10
10
10
10
10
10
10
10
10
10
10
10
10
10
10
10
10
10
10
10
10
10
10
10
10
10
10
10
10
10
10
10
10
10
10
10
10
10
10
10
10
10
10
10
10
10
10
10
10
10
10
10
10
10
10
10
10
10
10
10
10
10
10
10
10
10
10
10
10
10
10
10
10
10
10
10
10
10
10
10
10
10
10
10
10
10
10
10
10
10
10
10
10
10
10
10
10
10
10
10
10
10
10
10
10
10
10
10
10
10
10
10
10
10
10
10
10
10
10
10
10
10
10
10
10
10
10
10
10
10
10
10
10
10
10
10
10
10
10
10
10
10
10
10
10
10
10
10
10
10
10
10
10
10
10
10
10
10
10
10
10
10
10
10
10
10
10
10
10
10
10
10
10
10
10
10
10
10
10
10
10
10
10
10
10
10
10
10
10
10
10
10
10
10
10
10
10
10
10
10
10
10
10
10
10
10
10
10
10
10
10
10
10
10
10
10
10
10
10
10
10
10
10
10
10
10
10
10
10
10
10
10
10
10
10
10
10
10
10
10
10
10
10
10
10
10
10
10
10
10
10
10
10
10
10
10
10
10
10
10
10
10
10
10
10
10
10
10
10
10
10
10
10
10
10
10
10
10
10
10
10
10
10
10
10
10
10
10
10
10
10
10
10
10
10
10
10
10
10
10
10
10
10
10
10
10
10
10
10
10
10
10
10
10
10
10
10
10
10
10
10
10
10
10
10
10
10
10
10
10
10
10
10
10
10
10
10
10
10
10
10
10
10
10
10
10
10
10
10
10
10
10
10
10
10
10
10
10
10
10
10
10
10
10
10
10
10
10
10
10
10
10
10
10
10
10
10
10
10
10
10
10
10
10
10
10
10
10
10
10
10
10
10
10
10
10
10
10
10
10
10
10
10
10
10
10
10
10
10
10
10
10
10
10
10
10
10
10
10
10
10
10
10
10
10
10
10
10
10
10
10
10
10
10
10
10
10
10
10
10
10
10
10
10
10
10
10
10
10
10
10
10
10
10
10
10
10
10
10
10
10
10
10
10
10
10
10
10
10
10
10
10
10
10
10
10
10
10
10
10
10
10
10
10
10
10
10
10
10
10
10
10
10
10
10
10
10
10
10
10
10
10
10
10
10
10
10
10
10
10
10
10
10
10
10
10
10
10
10
10
10
10
10
10
10
10
10
10
10
10
10
10
10
10
10
10
10
10
10
10
10
10
10
10
10
10
10
10
10
10
10
10
10
10
10
10
10
10
10
10
10
10
10
10
10
10
10
10
10
10
10
10
10
10
10
10
10
10
10
10
10
10
10
10
10
10
10
10
10
10
10
10
10
10
10
10
10
10
10
10
10
10
10
10
10
10
10
10
10
10
10
10
10
10
10
10
10
10
10
10
10
10
10
10
10
10
10
10
10
10
10
10
10
10
10
10
10
10
10
10
10
10
10
10
10
10
10
10
10
10
10
10
10
10
10
10
10
10
10
10
10
10
10
10
10
10
10
10
10
10
10
10
10
10
10
10
10
10
10
10
10
10
10
10
10
10
10
10
10
10
10
10
10
10
10
10
10
10
10
10
10
10
10
10
10
10
10
10
10
10
10
10
10
10
10
10
10
10
10
10
10
10
10
10
10
10
10
10
10
10
10
10
10
10
10
10
10
10
10
10
10
10
10
10
10
10
10
10
10
10
10
10
10
10
10
10
10
10
10
10
10
10
10
10
10
10
10
10
10
10
10
10
10
10
10
10
10
10
10
10
10
10
10
10
10
10
10
10
10
10
10
10
10
10
10
10
10
10
10
10
10
10
10
10
10
10
10
10
10
10
10
10
10
10
10
10
10
10
10
10
10
10
10
10
10
10
10
10
10
10
10
10
10
10
10
10
10
10
10
10
10
10
10
10
10
10
10
10
10
10
10
10
10
10
10
10
10
10
10
10
10
10
10
10
10
10
10
10
10
10
10
10
10
10
10
10
10
10
10
10
10
10
10
10
10
10
10
10
10
10
10
10
10
10
10
10
10
10
10
10
10
10
10
10
10
10
10
10
10
10
10
10
10
10
10
10
10
10
10
10
10
10
10
10
10
10
10
10
10
10
10
10
10
10
10
10
10
10
10
10
10
10
10
10
10
10
10
10
10
10
10
10
10
10
10
10
10
10
10
10
10
10
10
10
10
10
10
10
10
10
10
10
10
10
10
10
10
10
10
10
10
10
10
10
10
10
10
10
10
10
10
10
10
10
10
10
10
10
10
10
10
10
10
10
10
10
10
10
10
10
10
10
10
10
10
10
10
10
10
10
10
10
10
10
10
10
10
10
10
10
10
10
10
10
10
10
10
10
10
10
10
10
10
10
10
10
10
10
10
10
10
10
10
10
10
10
10
10
10
10
10
10
10
10
10
10
10
10
10
10
10
10
10
10
10
10
10
10
10
10
10
10
10
10
10
10
10
10
10
10
10
10
10
10
10
10
10
10
10
10
10
10
10
10
10
10
10
10
10
10
10
10
10
10
10
10
10
10
10
10
10
10
10
10
10
10
10
10
10
10
10
10
10
10
10
10
10
10
10
10
10
10
10
10
10
10
10
10
10
10
10
10
10
10
10
10
10
10
10
10
10
10
10
10
10
10
10
10
10
10
10
10
10
10
10
10
10
10
10
10
10
10
10
10
10
10
10
10
10
10
10
10
10
10
10
10
10
10
10
10
10
10
10
10
10
10
10
10
10
10
10
10
10
10
10
10
10
10
10
10
10
10
10
10
10
10
10
10
10
10
10
10
10
10
10
10
10
10
10
10
10
10
10
10
10
10
10
10
10
10
10
10
10
10
10
10
10
10
10
10
10
10
10
10
10
10
10
10
10
10
10
10
10
10
10
10
10
10
10
10
10
10
10
10
10
10
10
10
10
10
10
10
10
10
10
10
10
10
10
10
10
10
10
10
10
10
10
10
10
10
10
10
10
10
10
10
10
10
10
10
10
10
10
10
10
10
10
10
10
10
10
10
10
10
10
10
10
10
10
10
10
10
10
10
10
10
10
10
10
10
10
10
10
10
10
10
10
10
10
10
10
10
10
10
10
10
10
10
10
10
10
10
10
10
10
10
10
10
10
10
10
10
10
10
10
10
10
10
10
10
10
10
10
10
10
10
10
10
10
10
10
10
10
10
10
10
10
10
10
10
10
10
10
10
10
10
10
10
10
10
10
10
10
10
10
10
10
10
10
10
10
10
10
10
10
10
10
10
10
10
10
10
10
10
10
10
10
10
10
10
10
10
10
10
10
10
10
10
10
10
10
10
10
10
10
10
10
10
10
10
10
10
10
10
10
10
10
10
10
10
10
10
10
10
10
10
10
10
10
10
10
10
10
10
10
10
10
10
10
10
10
10
10
10
10
10
10
10
10
10
10
10
10
10
10
10
10
10
10
10
10
10
10
10
10
10
10
10
10
10
10
10
10
10
10
10
10
10
10
10
10
10
10
10
10
10
10
10
10
10
10
10
10
10
10
10
10
10
10
10
10
10
10
10
10
10
10
10
10
10
10
10
10
10
10
10
10
10
10
10
10
10
10
10
10
10
10
10
10
10
10
10
10
10
10
10
10
10
10
10
10
10
10
10
10
10
10
10
10
10
10
10
10
10
10
10
10
10
10
10
10
10
10
10
10
10
10
10
10
10
10
10
10
10
10
10
10
10
10
10
10
10
10
10
10
10
10
10
10
10
10
10
10
10
10
10
10
10
10
10
10
10
10
10
10
10
10
10
10
10
10
10
10
10
10
10
10
10
10
10
10
10
10
10
10
10
10
10
10
10
10
10
10
10
10
10
10
10
10
10
10
10
10
10
10
10
10
10
10
10
10
10
10
10
10
10
10
10
10
10
10
10
10
10
10
10
10
10
10
10
10
10
10
10
10
10
10
10
10
10
10
10
10
10
10
10
10
10
10
10
10
10
10
10
10
10
10
10
10
10
10
10
10
10
10
10
10
10
10
10
10
10
10
10
10
10
10
10
10
10
10
10
10
10
10
10
10
10
10
10
10
10
10
10
10
10
10
10
10
10
10
10
10
10
10
10
10
10
10
10
10
10
10
10
10
10
10
10
10
10
10
10
10
10
10
10
10
10
10
10
10
10
10
10
10
10
10
10
10
10
10
10
10
10
10
10
10
10
10
10
10
10
10
10
10
10
10
10
10
10
10
10
10
10
10
10
10
10
10
10
10
10
10
10
10
10
10
10
10
10
10
10
10
10
10
10
10
10
10
10
10
10
10
10
10
10
10
10
10
10
10
10
10
10
10
10
10
10
10
10
10
10
10
10
10
10
10
10
10
10
10
10
10
10
10
10
10
10
10
10
10
10
10
10
10
10
10
10
10
10
10
10
10
10
10
10
10
10
10
10
10
10
10
10
10
10
10
10
10
10
10
10
10
10
10
10
10
10
10
10
10
10
10
10
10
10
10
10
10
10
10
10
10
10
10
10
10
10
10
10
10
10
10
10
10
10
10
10
10
10
10
10
10
10
10
10
10
10
10
10
10
10
10
10
10
10
10
10
10
10
10
10
10
10
10
10
10
10
10
10
10
10
10
10
10
10
10
10
10
10
10
10
10
10
10
10
10
10
10
10
10
10
10
10
10
10
10
10
10
10
10
10
10
10
10
10
10
10
10
10
10
10
10
10
10
10
10
10
10
10
10
10
10
10
10
10
10
10
10
10
10
10
10
10
10
10
10
10
10
10
10
10
10
10
10
10
10
10
10
10
10
10
10
10
10
10
10
10
10
10
10
10
10
10
10
10
10
10
10
10
10
10
10
10
10
10
10
10
10
10
10
10
10
10
10
10
10
10
10
10
10
10
10
10
10
10
10
10
10
10
10
10
10
10
10
10
10
10
10
10
10
10
10
10
10
10
10
10
10
10
10
10
10
10
10
10
10
10
10
10
10
10
10
10
10
10
10
10
10
10
10
10
10
10
10
10
10
10
10
10
10
10
10
10
10
10
10
10
10
10
10
10
10
10
10
10
10
10
10
10
10
10
10
10
10
10
10
10
10
10
10
10
10
10
10
10
10
10
10
10
10
10
10
10
10
10
10
10
10
10
10
10
10
10
10
10
10
10
10
10
10
10
10
10
10
10
10
10
10
10
10
10
10
10
10
10
10
10
10
10
10
10
10
10
10
10
10
10
10
10
10
10
10
10
10
10
10
10
10
10
10
10
10
10
10
10
10
10
10
10
10
10
10
10
10
10
10
10
10
10
10
10
10
10
10
10
10
10
10
10
10
10
10
10
10
10
10
10
10
10
10
10
10
10
10
10
10
10
10
10
10
10
10
10
10
10
10
10
10
10
10
10
10
10
10
10
10
10
10
10
10
10
10
10
10
10
10
10
10
10
10
10
10
10
10
10
10
10
10
10
10
10
10
10
10
10
10
10
10
10
10
10
10
10
10
10
10
10
10
10
10
10
10
10
10
10
10
10
10
10
10
10
10
10
10
10
10
10
10
10
10
10
10
10
10
10
10
10
10
10
10
10
10
10
10
10
10
10
10
10
10
10
10
10
10
10
10
10
10
10
10
10
10
10
10
10
10
10
10
10
10
10
10
10
10
10
10
10
10
10
10
10
10
10
10
10
10
10
10
10
10
10
10
10
10
10
10
10
10
10
10
10
10
10
10
10
10
10
10
10
10
10
10
10
10
10
10
10
10
10
10
10
10
10
10
10
10
10
10
10
10
10
10
10
10
10
10
10
10
10
10
10
10
10
10
10
10
10
10
10
10
10
10
10
10
10
10
10
10
10
10
10
10
10
10
10
10
10
10
10
10
10
10
10
10
10
10
10
10
10
10
10
10
10
10
10
10
10
10
10
10
10
10
10
10
10
10
10
10
10
10
10
10
10
10
10
10
10
10
10
10
10
10
10
10
10
10
10
10
10
10
10
10
10
10
10
10
10
10
10
10
10
10
10
10
10
10
10
10
10
10
10
10
10
10
10
10
10
10
10
10
10
10
10
10
10
10
10
10
10
10
10
10
10
10
10
10
10
10
10
10
10
10
10
10
10
10
10
10
10
10
10
10
10
10
10
10
10
10
10
10
10
10
10
10
10
10
10
10
10
10
10
10
10
10
10
10
10
10
10
10
10
10
10
10
10
10
10
10
10
10
10
10
10
10
10
10
10
10
10
10
10
10
10
10
10
10
10
10
10
10
10
10
10
10
10
10
10
10
10
10
10
10
10
10
10
10
10
10
10
10
10
10
10
10
10
10
10
10
10
10
10
10
10
10
10
10
10
10
10
10
10
10
10
10
10
10
10
10
10
10
10
10
10
10
10
10
10
10
10
10
10
10
10
10
10
10
10
10
10
10
10
10
10
10
10
10
10
10
10
10
10
10
10
10
10
10
10
10
10
10
10
10
10
10
10
10
10
10
10
10
10
10
10
10
10
10
10
10
10
10
10
10
10
10
10
10
10
10
10
10
10
10
10
10
10
10
10
10
10
10
10
10
10
10
10
10
10
10
10
10
10
10
10
10
10
10
10
10
10
10
10
10
10
10
10
10
10
10
10
10
10
10
10
10
10
10
10
10
10
10
10
10
10
10
10
10
10
10
10
10
10
10
10
10
10
10
10
10
10
10
10
10
10
10
10
10
10
10
10
10
10
10
10
10
10
10
10
10
10
10
10
10
10
10
10
10
10
10
10
10
10
10
10
10
10
10
10
10
10
10
10
10
10
10
10
10
10
10
10
10
10
10
10
10
10
10
10
10
10
10
10
10
10
10
10
10
10
10
10
10
10
10
10
10
10
10
10
10
10
10
10
10
10
10
10
10
10
10
10
10
10
10
10
10
10
10
10
10
10
10
10
10
10
10
10
10
10
10
10
10
10
10
10
10
10
10
10
10
10
10
10
10
10
10
10
10
10
10
10
10
10
10
10
10
10
10
10
10
10
10
10
10
10
10
10
10
10
10
10
10
10
10
10
10
10
10
10
10
10
10
10
10
10
10
10
10
10
10
10
10
10
10
10
10
10
10
10
10
10
10
10
10
10
10
10
10
10
10
10
10
10
10
10
10
10
10
10
10
10
10
10
10
10
10
10
10
10
10
10
10
10
10
10
10
10
10
10
10
10
10
10
10
10
10
10
10
10
10
10
10
10
10
10
10
10
10
10
10
10
10
10
10
10
10
10
10
10
10
10
10
10
10
10
10
10
10
10
10
10
10
10
10
10
10
10
10
10
10
10
10
10
10
10
10
10
10
10
10
10
10
10
10
10
10
10
10
10
10
10
10
10
10
10
10
10
10
10
10
10
10
10
10
10
10
10
10
10
10
10
10
10
10
10
10
10
10
10
10
10
10
10
10
10
10
10
10
10
10
10
10
10
10
10
10
10
10
10
10
10
10
10
10
10
10
10
10
10
10
10
10
10
10
10
10
10
10
10
10
10
10
10
10
10
10
10
10
10
10
10
10
10
10
10
10
10
10
10
10
10
10
10
10
10
10
10
10
10
10
10
10
10
10
10
10
10
10
10
10
10
10
10
10
10
10
10
10
10
10
10
10
10
10
10
10
10
10
10
10
10
10
10
10
10
10
10
10
10
10
10
10
10
10
10
10
10
10
10
10
10
10
10
10
10
10
10
10
10
10
10
10
10
10
10
10
10
10
10
10
10
10
10
10
10
10
10
10
10
10
10
10
10
10
10
10
10
10
10
10
10
10
10
10
10
10
10
10
10
10
10
10
10
10
10
10
10
10
10
10
10
10
10
10
10
10
10
10
10
10
10
10
10
10
10
10
10
10
10
10
10
10
10
10
10
10
10
10
10
10
10
10
10
10
10
10
10
10
10
10
10
10
10
10
10
10
10
10
10
10
10
10
10
10
10
10
10
10
10
10
10
10
10
10
10
10
10
10
10
10
10
10
10
10
10
10
10
10
10
10
10
10
10
10
10
10
10
10
10
10
10
10
10
10
10
10
10
10
10
10
10
10
10
10
10
10
10
10
10
10
10
10
10
10
10
10
10
10
10
10
10
10
10
10
10
10
10
10
10
10
10
10
10
10
10
10
10
10
10
10
10
10
10
10
10
10
10
10
10
10
10
10
10
10
10
10
10
10
10
10
10
10
10
10
10
10
10
10
10
10
10
10
10
10
10
10
10
10
10
10
10
10
10
10
10
10
10
10
10
10
10
10
10
10
10
10
10
10
10
10
10
10
10
10
10
10
10
10
10
10
10
10
10
10
10
10
10
10
10
10
10
10
10
10
10
10
10
10
10
10
10
10
10
10
10
10
10
10
10
10
10
10
10
10
10
10
10
10
10
10
10
10
10
10
10
10
10
10
10
10
10
10
10
10
10
10
10
10
10
10
10
10
10
10
10
10
10
10
10
10
10
10
10
10
10
10
10
10
10
10
10
10
10
10
10
10
10
10
10
10
10
10
10
10
10
10
10
10
10
10
10
10
10
10
10
10
10
10
10
10
10
10
10
10
10
10
10
10
10
10
10
10
10
10
10
10
10
10
10
10
10
10
10
10
10
10
10
10
10
10
10
10
10
10
10
10
10
10
10
10
10
10
10
10
10
10
10
10
10
10
10
10
10
10
10
10
10
10
10
10
10
10
10
10
10
10
10
10
10
10
10
10
10
10
10
10
10
10
10
10
10
10
10
10
10
10
10
10
10
10
10
10
10
10
10
10
10
10
10
10
10
10
10
10
10
10
10
10
10
10
10
10
10
10
10
10
10
10
10
10
10
10
10
10
10
10
10
10
10
10
10
10
10
10
10
10
10
10
10
10
10
10
10
10
10
10
10
10
10
10
10
10
10
10
10
10
10
10
10
10
10
10
10
10
10
10
10
10
10
10
10
10
10
10
10
10
10
10
10
10
10
10
10
10
10
10
10
10
10
10
10
10
10
10
10
10
10
10
10
10
10
10
10
10
10
10
10
10
10
10
10
10
10
10
10
10
10
10
10
10
10
10
10
10
10
10
10
10
10
10
10
10
10
10
10
10
10
10
10
10
10
10
10
10
10
10
10
10
10
10
10
10
10
10
10
10
10
10
10
10
10
10
10
10
10
10
10
10
10
10
10
10
10
10
10
10
10
10
10
10
10
10
10
10
10
10
10
10
10
10
10
10
10
10
10
10
10
10
10
10
10
10
10
10
10
10
10
10
10
10
10
10
10
10
10
10
10
10
10
10
10
10
10
10
10
10
10
10
10
10
10
10
10
10
10
10
10
10
10
10
10
10
10
10
10
10
10
10
10
10
10
10
10
10
10
10
10
10
10
10
10
10
10
10
10
10
10
10
10
10
10
10
10
10
10
10
10
10
10
10
10
10
10
10
10
10
10
10
10
10
10
10
10
10
10
10
10
10
10
10
10
10
10
10
10
10
10
10
10
10
10
10
10
10
10
10
10
10
10
10
10
10
10
10
10
10
10
10
10
10
10
10
10
10
10
10
10
10
10
10
10
10
10
10
10
10
10
10
10
10
10
10
10
10
10
10
10
10
10
10
10
10
10
10
10
10
10
10
10
10
10
10
10
10
10
10
10
10
10
10
10
10
10
10
10
10
10
10
10
10
10
10
10
10
10
10
10
10
10
10
10
10
10
10
10
10
10
10
10
10
10
10
10
10
10
10
10
10
10
10
10
10
10
10
10
10
10
10
10
10
10
10
10
10
10
10
10
10
10
10
10
10
10
10
10
10
10
10
10
10
10
10
10
10
10
10
10
10
10
10
10
10
10
10
10
10
10
10
10
10
10
10
10
10
10
10
10
10
10
10
10
10
10
10
10
10
10
10
10
10
10
10
10
10
10
10
10
10
10
10
10
10
10
10
10
10
10
10
10
10
10
10
10
10
10
10
10
10
10
10
10
10
10
10
10
10
10
10
10
10
10
10
10
10
10
10
10
10
10
10
10
10
10
10
10
10
10
10
10
10
10
10
10
10
10
10
10
10
10
10
10
10
10
10
10
10
10
10
10
10
10
10
10
10
10
10
10
10
10
10
10
10
10
10
10
10
10
10
10
10
10
10
10
10
10
10
10
10
10
10
10
10
10
10
10
10
10
10
10
10
10
10
10
10
10
10
10
10
10
10
10
10
10
10
10
10
10
10
10
10
10
10
10
10
10
10
10
10
10
10
10
10
10
10
10
10
10
10
10
10
10
10
10
10
10
10
10
10
10
10
10
10
10
10
10
10
10
10
10
10
10
10
10
10
10
10
10
10
10
10
10
10
10
10
10
10
10
10
10
10
10
10
10
10
10
10
10
10
10
10
10
10
10
10
10
10
10
10
10
10
10
10
10
10
10
10
10
10
10
10
10
10
10
10
10
10
10
10
10
10
10
10
10
10
10
10
10
10
10
10
10
10
10
10
10
10
10
10
10
10
10
10
10
10
10
10
10
10
10
10
10
10
10
10
10
10
10
10
10
10
10
10
10
10
10
10
10
10
10
10
10
10
10
10
10
10
10
10
10
10
10
10
10
10
10
10
10
10
10
10
10
10
10
10
10
10
10
10
10
10
10
10
10
10
10
10
10
10
10
10
10
10
10
10
10
10
10
10
10
10
10
10
10
10
10
10
10
10
10
10
10
10
10
10
10
10
10
10
10
10
10
10
10
10
10
10
10
10
10
10
10
10
10
10
10
10
10
10
10
10
10
10
10
10
10
10
10
10
10
10
10
10
10
10
10
10
10
10
10
10
10
10
10
10
10
10
10
10
10
10
10
10
10
10
10
10
10
10
10
10
10
10
10
10
10
10
10
10
10
10
10
10
10
10
10
10
10
10
10
10
10
10
10
10
10
10
10
10
10
10
10
10
10
10
10
10
10
10
10
10
10
10
10
10
10
10
10
10
10
10
10
10
10
10
10
10
10
10
10
10
10
10
10
10
10
10
10
10
10
10
10
10
10
10
10
10
10
10
10
10
10
10
10
10
10
10
10
10
10
10
10
10
10
10
10
10
10
10
10
10
10
10
10
10
10
10
10
10
10
10
10
10
10
10
10
10
10
10
10
10
10
10
10
10
10
10
10
10
10
10
10
10
10
10
10
10
10
10
10
10
10
10
10
10
10
10
10
10
10
10
10
10
10
10
10
10
10
10
10
10
10
10
10
10
10
10
10
10
10
10
10
10
10
10
10
10
10
10
10
10
10
10
10
10
10
10
10
10
10
10
10
10
10
10
10
10
10
10
10
10
10
10
10
10
10
10
10
10
10
10
10
10
10
10
10
10
10
10
10
10
10
10
10
10
10
10
10
10
10
10
10
10
10
10
10
10
10
10
10
10
10
10
10
10
10
10
10
10
10
10
10
10
10
10
10
10
10
10
10
10
10
10
10
10
10
10
10
10
10
10
10
10
10
10
10
10
10
10
10
10
10
10
10
10
10
10
10
10
10
10
10
10
10
10
10
10
10
10
10
10
10
10
10
10
10
10
10
10
10
10
10
10
10
10
10
10
10
10
10
10
10
10
10
10
10
10
10
10
10
10
10
10
10
10
10
10
10
10
10
10
10
10
10
10
10
10
10
10
10
10
10
10
10
10
10
10
10
10
10
10
10
10
10
10
10
10
10
10
10
10
10
10
10
10
10
10
10
10
10
10
10
10
10
10
10
10
10
10
10
10
10
10
10
10
10
10
10
10
10
10
10
10
10
10
10
10
10
10
10
10
10
10
10
10
10
10
10
10
10
10
10
10
10
10
10
10
10
10
10
10
10
10
10
10
10
10
10
10
10
10
10
10
10
10
10
10
10
10
10
10
10
10
10
10
10
10
10
10
10
10
10
10
10
10
10
10
10
10
10
10
10
10
10
10
10
10
10
10
10
10
10
10
10
10
10
10
10
10
10
10
10
10
10
10
10
10
10
10
10
10
10
10
10
10
10
10
10
10
10
10
10
10
10
10
10
10
10
10
10
10
10
10
10
10
10
10
10
10
10
10
10
10
10
10
10
10
10
10
10
10
10
10
10
10
10
10
10
10
10
10
10
10
10
10
10
10
10
10
10
10
10
10
10
10
10
10
10
10
10
10
10
10
10
10
10
10
10
10
10
10
10
10
10
10
10
10
10
10
10
10
10
10
10
10
10
10
10
10
10
10
10
10
10
10
10
10
10
10
10
10
10
10
10
10
10
10
10
10
10
10
10
10
10
10
10
10
10
10
10
10
10
10
10
10
10
10
10
10
10
10
10
10
10
10
10
10
10
10
10
10
10
10
10
10
10
10
10
10
10
10
10
10
10
10
10
10
10
10
10
10
10
10
10
10
10
10
10
10
10
10
10
10
10
10
10
10
10
10
10
10
10
10
10
10
10
10
10
10
10
10
10
10
10
10
10
10
10
10
10
10
10
10
10
10
10
10
10
10
10
10
10
10
10
10
10
10
10
10
10
10
10
10
10
10
10
10
10
10
10
10
10
10
10
10
10
10
10
10
10
10
10
10
10
10
10
10
10
10
10
10
10
10
10
10
10
10
10
10
10
10
10
10
10
10
10
10
10
10
10
10
10
10
10
10
10
10
10
10
10
10
10
10
10
10
10
10
10
10
10
10
10
10
10
10
10
10
10
10
10
10
10
10
10
10
10
10
10
10
10
10
10
10
10
10
10
10
10
10
10
10
10
10
10
10
10
10
10
10
10
10
10
10
10
10
10
10
10
10
10
10
10
10
10
10
10
10
10
10
10
10
10
10
10
10
10
10
10
10
10
10
10
10
10
10
10
10
10
10
10
10
10
10
10
10
10
10
10
10
10
10
10
10
10
10
10
10
10
10
10
10
10
10
10
10
10
10
10
10
10
10
10
10
10
10
10
10
10
10
10
10
10
10
10
10
10
10
10
10
10
10
10
10
10
10
10
10
10
10
10
10
10
10
10
10
10
10
10
10
10
10
10
10
10
10
10
10
10
10
10
10
10
10
10
10
10
10
10
10
10
10
10
10
10
10
10
10
10
10
10
10
10
10
10
10
10
10
10
10
10
10
10
10
10
10
10
10
10
10
10
10
10
10
10
10
10
10
10
10
10
10
10
10
10
10
10
10
10
10
10
10
10
10
10
10
10
10
10
10
10
10
10
10
10
10
10
10
10
10
10
10
10
10
10
10
10
10
10
10
10
10
10
10
10
10
10
10
10
10
10
10
10
10
10
10
10
10
10
10
10
10
10
10
10
10
10
10
10
10
10
10
10
10
10
10
10
10
10
10
10
10
10
10
10
10
10
10
10
10
10
10
10
10
10
10
10
10
10
10
10
10
10
10
10
10
10
10
10
10
10
10
10
10
10
10
10
10
10
10
10
10
10
10
10
10
10
10
10
10
10
10
10
10
10
10
10
10
10
10
10
10
10
10
10
10
10
10
10
10
10
10
10
10
10
10
10
10
10
10
10
10
10
10
10
10
10
10
10
10
10
10
10
10
10
10
10
10
10
10
10
10
10
10
10
10
10
10
10
10
10
10
10
10
10
10
10
10
10
10
10
10
10
10
10
10
10
10
10
10
10
10
10
10
10
10
10
10
10
10
10
10
10
10
10
10
10
10
10
10
10
10
10
10
10
10
10
10
10
10
10
10
10
10
10
10
10
10
10
10
10
10
10
10
10
10
10
10
10
10
10
10
10
10
10
10
10
10
10
10
10
10
10
10
10
10
10
10
10
10
10
10
10
10
10
10
10
10
10
10
10
10
10
10
10
10
10
10
10
10
10
10
10
10
10
10
10
10
10
10
10
10
10
10
10
10
10
10
10
10
10
10
10
10
10
10
10
10
10
10
10
10
10
10
10
10
10
10
10
10
10
10
10
10
10
10
10
10
10
10
10
10
10
10
10
10
10
10
10
10
10
10
10
10
10
10
10
10
10
10
10
10
10
10
10
10
10
10
10
10
10
10
10
10
10
10
10
10
10
10
10
10
10
10
10
10
10
10
10
10
10
10
10
10
10
10
10
10
10
10
10
10
10
10
10
10
10
10
10
10
10
10
10
10
10
10
10
10
10
10
10
10
10
10
10
10
10
10
10
10
10
10
10
10
10
10
10
10
10
10
10
10
10
10
10
10
10
10
10
10
10
10
10
10
10
10
10
10
10
10
10
10
10
10
10
10
10
10
10
10
10
10
10
10
10
10
10
10
10
10
10
10
10
10
10
10
10
10
10
10
10
10
10
10
10
10
10
10
10
10
10
10
10
10
10
10
10
10
10
10
10
10
10
10
10
10
10
10
10
10
10
10
10
10
10
10
10
10
10
10
10
10
10
10
10
10
10
10
10
10
10
10
10
10
10
10
10
10
10
10
10
10
10
10
10
10
10
10
10
10
10
10
10
10
10
10
10
10
10
10
10
10
10
10
10
10
10
10
10
10
10
10
10
10
10
10
10
10
10
10
10
10
10
10
10
10
10
10
10
10
10
10
10
10
10
10
10
10
10
10
10
10
10
10
10
10
10
10
10
10
10
10
10
10
10
10
10
10
10
10
10
10
10
10
10
10
10
10
10
10
10
10
10
10
10
10
10
10
10
10
10
10
10
10
10
10
10
10
10
10
10
10
10
10
10
10
10
10
10
10
10
10
10
10
10
10
10
10
10
10
10
10
10
10
10
10
10
10
10
10
10
10
10
10
10
10
10
10
10
10
10
10
10
10
10
10
10
10
10
10
10
10
10
10
10
10
10
10
10
10
10
10
10
10
10
10
10
10
10
10
10
10
10
10
10
10
10
10
10
10
10
10
10
10
10
10
10
10
10
10
10
10
10
10
10
10
10
10
10
10
10
10
10
10
10
10
10
10
10
10
10
10
10
10
10
10
10
10
10
10
10
10
10
10
10
10
10
10
10
10
10
10
10
10
10
10
10
10
10
10
10
10
10
10
10
10
10
10
10
10
10
10
10
10
10
10
10
10
10
10
10
10
10
10
10
10
10
10
10
10
10
10
10
10
10
10
10
10
10
10
10
10
10
10
10
10
10
10
10
10
10
10
10
10
10
10
10
10
10
10
10
10
10
10
10
10
10
10
10
10
10
10
10
10
10
10
10
10
10
10
10
10
10
10
10
10
10
10
10
10
10
10
10
10
10
10
10
10
10
10
10
10
10
10
10
10
10
10
10
10
10
10
10
10
10
10
10
10
10
10
10
10
10
10
10
10
10
10
10
10
10
10
10
10
10
10
10
10
10
10
10
10
10
10
10
10
10
10
10
10
10
10
10
10
10
10
10
10
10
10
10
10
10
10
10
10
10
10
10
10
10
10
10
10
10
10
10
10
10
10
10
10
10
10
10
10
10
10
10
10
10
10
10
10
10
10
10
10
10
10
10
10
10
10
10
10
10
10
10
10
10
10
10
10
10
10
10
10
10
10
10
10
10
10
10
10
10
10
10
10
10
10
10
10
10
10
10
10
10
10
10
10
10
10
10
10
10
10
10
10
10
10
10
10
10
10
10
10
10
10
10
10
10
10
10
10
10
10
10
10
10
10
10
10
10
10
10
10
10
10
10
10
10
10
10
10
10
10
10
10
10
10
10
10
10
10
10
10
10
10
10
10
10
10
10
10
10
10
10
10
10
10
10
10
10
10
10
10
10
10
10
10
10
10
10
10
10
10
10
10
10
10
10
10
10
10
10
10
10
10
10
10
10
10
10
10
10
10
10
10
10
10
10
10
10
10
10
10
10
10
10
10
10
10
10
10
10
10
10
10
10
10
10
10
10
10
10
10
10
10
10
10
10
10
10
10
10
10
10
10
10
10
10
10
10
10
10
10
10
10
10
10
10
10
10
10
10
10
10
10
10
10
10
10
10
10
10
10
10
10
10
10
10
10
10
10
10
10
10
10
10
10
10
10
10
10
10
10
10
10
10
10
10
10
10
10
10
10
10
10
10
10
10
10
10
10
10
10
10
10
10
10
10
10
10
10
10
10
10
10
10
10
10
10
10
10
10
10
10
10
10
10
10
10
10
10
10
10
10
10
10
10
10
10
10
10
10
10
10
10
10
10
10
10
10
10
10
10
10
10
10
10
10
10
10
10
10
10
10
10
10
10
10
10
10
10
10
10
10
10
10
10
10
10
10
10
10
10
10
10
10
10
10
10
10
10
10
10
10
10
10
10
10
10
10
10
10
10
10
10
10
10
10
10
10
10
10
10
10
10
10
10
10
10
10
10
10
10
10
10
10
10
10
10
10
10
10
10
10
10
10
10
10
10
10
10
10
10
10
10
10
10
10
10
10
10
10
10
10
10
10
10
10
10
10
10
10
10
10
10
10
10
10
10
10
10
10
10
10
10
10
10
10
10
10
10
10
10
10
10
10
10
10
10
10
10
10
10
10
10
10
10
10
10
10
10
10
10
10
10
10
10
10
10
10
10
10
10
10
10
10
10
10
10
10
10
10
10
10
10
10
10
10
10
10
10
10
10
10
10
10
10
10
10
10
10
10
10
10
10
10
10
10
10
10
10
10
10
10
10
10
10
10
10
10
10
10
10
10
10
10
10
10
10
10
10
10
10
10
10
10
10
10
10
10
10
10
10
10
10
10
10
10
10
10
10
10
10
10
10
10
10
10
10
10
10
10
10
10
10
10
10
10
10
10
10
10
10
10
10
10
10
10
10
10
10
10
10
10
10
10
10
10
10
10
10
10
10
10
10
10
10
10
10
10
10
10
10
10
10
10
10
10
10
10
10
10
10
10
10
10
10
10
10
10
10
10
10
10
10
10
10
10
10
10
10
10
10
10
10
10
10
10
10
10
10
10
10
10
10
10
10
10
10
10
10
10
10
10
10
10
10
10
10
10
10
10
10
10
10
10
10
10
10
10
10
10
10
10
10
10
10
10
10
10
10
10
10
10
10
10
10
10
10
10
10
10
10
10
10
10
10
10
10
10
10
10
10
10
10
10
10
10
10
10
10
10
10
10
10
10
10
10
10
10
10
10
10
10
10
10
10
10
10
10
10
10
10
10
10
10
10
10
10
10
10
10
10
10
10
10
10
10
10
10
10
10
10
10
10
10
10
10
10
10
10
10
10
10
10
10
10
10
10
10
10
10
10
10
10
10
10
10
10
10
10
10
10
10
10
10
10
10
10
10
10
10
10
10
10
10
10
10
10
10
10
10
10
10
10
10
10
10
10
10
10
10
10
10
10
10
10
10
10
10
10
10
10
10
10
10
10
10
10
10
10
10
10
10
10
10
10
10
10
10
10
10
10
10
10
10
10
10
10
10
10
10
10
10
10
10
10
10
10
10
10
10
10
10
10
10
10
10
10
10
10
10
10
10
10
10
10
10
10
10
10
10
10
10
10
10
10
10
10
10
10
10
10
10
10
10
10
10
10
10
10
10
10
10
10
10
10
10
10
10
10
10
10
10
10
10
10
10
10
10
10
10
10
10
10
10
10
10
10
10
10
10
10
10
10
10
10
10
10
10
10
10
10
10
10
10
10
10
10
10
10
10
10
10
10
10
10
10
10
10
10
10
10
10
10
10
10
10
10
10
10
10
10
10
10
10
10
10
10
10
10
10
10
10
10
10
10
10
10
10
10
10
10
10
10
10
10
10
10
10
10
10
10
10
10
10
10
10
10
10
10
10
10
10
10
10
10
10
10
10
10
10
10
10
10
10
10
10
10
10
10
10
10
10
10
10
10
10
10
10
10
10
10
10
10
10
10
10
10
10
10
10
10
10
10
10
10
10
10
10
10
10
10
10
10
10
10
10
10
10
10
10
10
10
10
10
10
10
10
10
10
10
10
10
10
10
10
10
10
10
10
10
10
10
10
10
10
10
10
10
10
10
10
10
10
10
10
10
10
10
10
10
10
10
10
10
10
10
10
10
10
10
10
10
10
10
10
10
10
10
10
10
10
10
10
10
10
10
10
10
10
10
10
10
10
10
10
10
10
10
10
10
10
10
10
10
10
10
10
10
10
10
10
10
10
10
10
10
10
10
10
10
10
10
10
10
10
10
10
10
10
10
10
10
10
10
10
10
10
10
10
10
10
10
10
10
10
10
10
10
10
10
10
10
10
10
10
10
10
10
10
10
10
10
10
10
10
10
10
10
10
10
10
10
10
10
10
10
10
10
10
10
10
10
10
10
10
10
10
10
10
10
10
10
10
10
10
10
10
10
10
10
10
10
10
10
10
10
10
10
10
10
10
10
10
10
10
10
10
10
10
10
10
10
10
10
10
10
10
10
10
10
10
10
10
10
10
10
10
10
10
10
10
10
10
10
10
10
10
10
10
10
10
10
10
10
10
10
10
10
10
10
10
10
10
10
10
10
10
10
10
10
10
10
10
10
10
10
10
10
10
10
10
10
10
10
10
10
10
10
10
10
10
10
10
10
10
10
10
10
10
10
10
10
10
10
10
10
10
10
10
10
10
10
10
10
10
10
10
10
10
10
10
10
10
10
10
10
10
10
10
10
10
10
10
10
10
10
10
10
10
10
10
10
10
10
10
10
10
10
10
10
10
10
10
10
10
10
10
10
10
10
10
10
10
10
10
10
10
10
10
10
10
10
10
10
10
10
10
10
10
10
10
10
10
10
10
10
10
10
10
10
10
10
10
10
10
10
10
10
10
10
10
10
10
10
10
10
10
10
10
10
10
10
10
10
10
10
10
10
10
10
10
10
10
10
10
10
10
10
10
10
10
10
10
10
10
10
10
10
10
10
10
10
10
10
10
10
10
10
10
10
10
10
10
10
10
10
10
10
10
10
10
10
10
10
10
10
10
10
10
10
10
10
10
10
10
10
10
10
10
10
10
10
10
10
10
10
10
10
10
10
10
10
10
10
10
10
10
10
10
10
10
10
10
10
10
10
10
10
10
10
10
10
10
10
10
10
10
10
10
10
10
10
10
10
10
10
10
10
10
10
10
10
10
10
10
10
10
10
10
10
10
10
10
10
10
10
10
10
10
10
10
10
10
10
10
10
10
10
10
10
10
10
10
10
10
10
10
10
10
10
10
10
10
10
10
10
10
10
10
10
10
10
10
10
10
10
10
10
10
10
10
10
10
10
10
10
10
10
10
10
10
10
10
10
10
10
10
10
10
10
10
10
10
10
10
10
10
10
10
10
10
10
10
10
10
10
10
10
10
10
10
10
10
10
10
10
10
10
10
10
10
10
10
10
10
10
10
10
10
10
10
10
10
10
10
10
10
10
10
10
10
10
10
10
10
10
10
10
10
10
10
10
10
10
10
10
10
10
10
10
10
10
10
10
10
10
10
10
10
10
10
10
10
10
10
10
10
10
10
10
10
10
10
10
10
10
10
10
10
10
10
10
10
10
10
10
10
10
10
10
10
10
10
10
10
10
10
10
10
10
10
10
10
10
10
10
10
10
10
10
10
10
10
10
10
10
10
10
10
10
10
10
10
10
10
10
10
10
10
10
10
10
10
10
10
10
10
10
10
10
10
10
10
10
10
10
10
10
10
10
10
10
10
10
10
10
10
10
10
10
10
10
10
10
10
10
10
10
10
10
10
10
10
10
10
10
10
10
10
10
10
10
10
10
10
10
10
10
10
10
10
10
10
10
10
10
10
10
10
10
10
10
10
10
10
10
10
10
10
10
10
10
10
10
10
10
10
10
10
10
10
10
10
10
10
10
10
10
10
10
10
10
10
10
10
10
10
10
10
10
10
10
10
10
10
10
10
10
10
10
10
10
10
10
10
10
10
10
10
10
10
10
10
10
10
10
10
10
10
10
10
10
10
10
10
10
10
10
10
10
10
10
10
10
10
10
10
10
10
10
10
10
10
10
10
10
10
10
10
10
10
10
10
10
10
10
10
10
10
10
10
10
10
10
10
10
10
10
10
10
10
10
10
10
10
10
10
10
10
10
10
10
10
10
10
10
10
10
10
10
10
10
10
10
10
10
10
10
10
10
10
10
10
10
10
10
10
10
10
10
10
10
10
10
10
10
10
10
10
10
10
10
10
10
10
10
10
10
10
10
10
10
10
10
10
10
10
10
10
10
10
10
10
10
10
10
10
10
10
10
10
10
10
10
10
10
10
10
10
10
10
10
10
10
10
10
10
10
10
10
10
10
10
10
10
10
10
10
10
10
10
10
10
10
10
10
10
10
10
10
10
10
10
10
10
10
10
10
10
10
10
10
10
10
10
10
10
10
10
10
10
10
10
10
10
10
10
10
10
10
10
10
10
10
10
10
10
10
10
10
10
10
10
10
10
10
10
10
10
10
10
10
10
10
10
10
10
10
10
10
10
10
10
10
10
10
10
10
10
10
10
10
10
10
10
10
10
10
10
10
10
10
10
10
10
10
10
10
10
10
10
10
10
10
10
10
10
10
10
10
10
10
10
10
10
10
10
10
10
10
10
10
10
10
10
10
10
10
10
10
10
10
10
10
10
10
10
10
10
10
10
10
10
10
10
10
10
10
10
10
10
10
10
10
10
10
10
10
10
10
10
10
10
10
10
10
10
10
10
10
10
10
10
10
10
10
10
10
10
10
10
10
10
10
10
10
10
10
10
10
10
10
10
10
10
10
10
10
10
10
10
10
10
10
10
10
10
10
10
10
10
10
10
10
10
10
10
10
10
10
10
10
10
10
10
10
10
10
10
10
10
10
10
10
10
10
10
10
10
10
10
10
10
10
10
10
10
10
10
10
10
10
10
10
10
10
10
10
10
10
10
10
10
10
10
10
10
10
10
10
10
10
10
10
10
10
10
10
10
10
10
10
10
10
10
10
10
10
10
10
10
10
10
10
10
10
10
10
10
10
10
10
10
10
10
10
10
10
10
10
10
10
10
10
10
10
10
10
10
10
10
10
10
10
10
10
10
10
10
10
10
10
10
10
10
10
10
10
10
10
10
10
10
10
10
10
10
10
10
10
10
10
10
10
10
10
10
10
10
10
10
10
10
10
10
10
10
10
10
10
10
10
10
10
10
10
10
10
10
10
10
10
10
10
10
10
10
10
10
10
10
10
10
10
10
10
10
10
10
10
10
10
10
10
10
10
10
10
10
10
10
10
10
10
10
10
10
10
10
10
10
10
10
10
10
10
10
10
10
10
10
10
10
10
10
10
10
10
10
10
10
10
10
10
10
10
10
10
10
10
10
10
10
10
10
10
10
10
10
10
10
10
10
10
10
10
10
10
10
10
10
10
10
10
10
10
10
10
10
10
10
10
10
10
10
10
10
10
10
10
10
10
10
10
10
10
10
10
10
10
10
10
10
10
10
10
10
10
10
10
10
10
10
10
10
10
10
10
10
10
10
10
10
10
10
10
10
10
10
10
10
10
10
10
10
10
10
10
10
10
10
10
10
10
10
10
10
10
10
10
10
10
10
10
10
10
10
10
10
10
10
10
10
10
10
10
10
10
10
10
10
10
10
10
10
10
10
10
10
10
10
10
10
10
10
10
10
10
10
10
10
10
10
10
10
10
10
10
10
10
10
10
10
10
10
10
10
10
10
10
10
10
10
10
10
10
10
10
10
10
10
10
10
10
10
10
10
10
10
10
10
10
10
10
10
10
10
10
10
10
10
10
10
10
10
10
10
10
10
10
10
10
10
10
10
10
10
10
10
10
10
10
10
10
10
10
10
10
10
10
10
10
10
10
10
10
10
10
10
10
10
10
10
10
10
10
10
10
10
10
10
10
10
10
10
10
10
10
10
10
10
10
10
10
10
10
10
10
10
10
10
10
10
10
10
10
10
10
10
10
10
10
10
10
10
10
10
10
10
10
10
10
10
10
10
10
10
10
10
10
10
10
10
10
10
10
10
10
10
10
10
10
10
10
10
10
10
10
10
10
10
10
10
10
10
10
10
10
10
10
10
10
10
10
10
10
10
10
10
10
10
10
10
10
10
10
10
10
10
10
10
10
10
10
10
10
10
10
10
10
10
10
10
10
10
10
10
10
10
10
10
10
10
10
10
10
10
10
10
10
10
10
10
10
10
10
10
10
10
10
10
10
10
10
10
10
10
10
10
10
10
10
10
10
10
10
10
10
10
10
10
10
10
10
10
10
10
10
10
10
10
10
10
10
10
10
10
10
10
10
10
10
10
10
10
10
10
10
10
10
10
10
10
10
10
10
10
10
10
10
10
10
10
10
10
10
10
10
10
10
10
10
10
10
10
10
10
10
10
10
10
10
10
10
10
10
10
10
10
10
10
10
10
10
10
10
10
10
10
10
10
10
10
10
10
10
10
10
10
10
10
10
10
10
10
10
10
10
10
10
10
10
10
10
10
10
10
10
10
10
10
10
10
10
10
10
10
10
10
10
10
10
10
10
10
10
10
10
10
10
10
10
10
10
10
10
10
10
10
10
10
10
10
10
10
10
10
10
10
10
10
10
10
10
10
10
10
10
10
10
10
10
10
10
10
10
10
10
10
10
10
10
10
10
10
10
10
10
10
10
10
10
10
10
10
10
10
10
10
10
10
10
10
10
10
10
10
10
10
10
10
10
10
10
10
10
10
10
10
10
10
10
10
10
10
10
10
10
10
10
10
10
10
10
10
10
10
10
10
10
10
10
10
10
10
10
10
10
10
10
10
10
10
10
10
10
10
10
10
10
10
10
10
10
10
10
10
10
10
10
10
10
10
10
10
10
10
10
10
10
10
10
10
10
10
10
10
10
10
10
10
10
10
10
10
10
10
10
10
10
10
10
10
10
10
10
10
10
10
10
10
10
10
10
10
10
10
10
10
10
10
10
10
10
10
10
10
10
10
10
10
10
10
10
10
10
10
10
10
10
10
10
10
10
10
10
10
10
10
10
10
10
10
10
10
10
10
10
10
10
10
10
10
10
10
10
10
10
10
10
10
10
10
10
10
10
10
10
10
10
10
10
10
10
10
10
10
10
10
10
10
10
10
10
10
10
10
10
10
10
10
10
10
10
10
10
10
10
10
10
10
10
10
10
10
10
10
10
10
10
10
10
10
10
10
10
10
10
10
10
10
10
10
10
10
10
10
10
10
10
10
10
10
10
10
10
10
10
10
10
10
10
10
10
10
10
10
10
10
10
10
10
10
10
10
10
10
10
10
10
10
10
10
10
10
10
10
10
10
10
10
10
10
10
10
10
10
10
10
10
10
10
10
10
10
10
10
10
10
10
10
10
10
10
10
10
10
10
10
10
10
10
10
10
10
10
10
10
10
10
10
10
10
10
10
10
10
10
10
10
10
10
10
10
10
10
10
10
10
10
10
10
10
10
10
10
10
10
10
10
10
10
10
10
10
10
10
10
10
10
10
10
10
10
10
10
10
10
10
10
10
10
10
10
10
10
10
10
10
10
10
10
10
10
10
10
10
10
10
10
10
10
10
10
10
10
10
10
10
10
10
10
10
10
10
10
10
10
10
10
10
10
10
10
10
10
10
10
10
10
10
10
10
10
10
10
10
10
10
10
10
10
10
10
10
10
10
10
10
10
10
10
10
10
10
10
10
10
10
10
10
10
10
10
10
10
10
10
10
10
10
10
10
10
10
10
10
10
10
10
10
10
10
10
10
10
10
10
10
10
10
10
10
10
10
10
10
10
10
10
10
10
10
10
10
10
10
10
10
10
10
10
10
10
10
10
10
10
10
10
10
10
10
10
10
10
10
10
10
10
10
10
10
10
10
10
10
10
10
10
10
10
10
10
10
10
10
10
10
10
10
10
10
10
10
10
10
10
10
10
10
10
10
10
10
10
10
10
10
10
10
10
10
10
10
10
10
10
10
10
10
10
10
10
10
10
10
10
10
10
10
10
10
10
10
10
10
10
10
10
10
10
10
10
10
10
10
10
10
10
10
10
10
10
10
10
10
10
10
10
10
10
10
10
10
10
10
10
10
10
10
10
10
10
10
10
10
10
10
10
10
10
10
10
10
10
10
10
10
10
10
10
10
10
10
10
10
10
10
10
10
10
10
10
10
10
10
10
10
10
10
10
10
10
10
10
10
10
10
10
10
10
10
10
10
10
10
10
10
10
10
10
10
10
10
10
10
10
10
10
10
10
10
10
10
10
10
10
10
10
10
10
10
10
10
10
10
10
10
10
10
10
10
10
10
10
10
10
10
10
10
10
10
10
10
10
10
10
10
10
10
10
10
10
10
10
10
10
10
10
10
10
10
10
10
10
10
10
10
10
10
10
10
10
10
10
10
10
10
10
10
10
10
10
10
10
10
10
10
10
10
10
10
10
10
10
10
10
10
10
10
10
10
10
10
10
10
10
10
10
10
10
10
10
10
10
10
10
10
10
10
10
10
10
10
10
10
10
10
10
10
10
10
10
10
10
10
10
10
10
10
10
10
10
10
10
10
10
10
10
10
10
10
10
10
10
10
10
10
10
10
10
10
10
10
10
10
10
10
10
10
10
10
10
10
10
10
10
10
10
10
10
10
10
10
10
10
10
10
10
10
10
10
10
10
10
10
10
10
10
10
10
10
10
10
10
10
10
10
10
10
10
10
10
10
10
10
10
10
10
10
10
10
10
10
10
10
10
10
10
10
10
10
10
10
10
10
10
10
10
10
10
10
10
10
10
10
10
10
10
10
10
10
10
10
10
10
10
10
10
10
10
10
10
10
10
10
10
10
10
10
10
10
10
10
10
10
10
10
10
10
10
10
10
10
10
10
10
10
10
10
10
10
10
10
10
10
10
10
10
10
10
10
10
10
10
10
10
10
10
10
10
10
10
10
10
10
10
10
10
10
10
10
10
10
10
10
10
10
10
10
10
10
10
10
10
10
10
10
10
10
10
10
10
10
10
10
10
10
10
10
10
10
10
10
10
10
10
10
10
10
10
10
10
10
10
10
10
10
10
10
10
10
10
10
10
10
10
10
10
10
10
10
10
10
10
10
10
10
10
10
10
10
10
10
10
10
10
10
10
10
10
10
10
10
10
10
10
10
10
10
10
10
10
10
10
10
10
10
10
10
10
10
10
10
10
10
10
10
10
10
10
10
10
10
10
10
10
10
10
10
10
10
10
10
10
10
10
10
10
10
10
10
10
10
10
10
10
10
10
10
10
10
10
10
10
10
10
10
10
10
10
10
10
10
10
10
10
10
10
10
10
10
10
10
10
10
10
10
10
10
10
10
10
10
10
10
10
10
10
10
10
10
10
10
10
10
10
10
10
10
10
10
10
10
10
10
10
10
10
10
10
10
10
10
10
10
10
10
10
10
10
10
10
10
10
10
10
10
10
10
10
10
10
10
10
10
10
10
10
10
10
10
10
10
10
10
10
10
10
10
10
10
10
10
10
10
10
10
10
10
10
10
10
10
10
10
10
10
10
10
10
10
10
10
10
10
10
10
10
10
10
10
10
10
10
10
10
10
10
10
10
10
10
10
10
10
10
10
10
10
10
10
10
10
10
10
10
10
10
10
10
10
10
10
10
10
10
10
10
10
10
10
10
10
10
10
10
10
10
10
10
10
10
10
10
10
10
10
10
10
10
10
10
10
10
10
10
10
10
10
10
10
10
10
10
10
10
10
10
10
10
10
10
10
10
10
10
10
10
10
10
10
10
10
10
10
10
10
10
10
10
10
10
10
10
10
10
10
10
10
10
10
10
10
10
10
10
10
10
10
10
10
10
10
10
10
10
10
10
10
10
10
10
10
10
10
10
10
10
10
10
10
10
10
10
10
10
10
10
10
10
10
10
10
10
10
10
10
10
10
10
10
10
10
10
10
10
10
10
10
10
10
10
10
10
10
10
10
10
10
10
10
10
10
10
10
10
10
10
10
10
10
10
10
10
10
10
10
10
10
10
10
10
10
10
10
10
10
10
10
10
10
10
10
10
10
10
10
10
10
10
10
10
10
10
10
10
10
10
10
10
10
10
10
10
10
10
10
10
10
10
10
10
10
10
10
10
10
10
10
10
10
10
10
10
10
10
10
10
10
10
10
10
10
10
10
10
10
10
10
10
10
10
10
10
10
10
10
10
10
10
10
10
10
10
10
10
10
10
10
10
10
10
10
10
10
10
10
10
10
10
10
10
10
10
10
10
10
10
10
10
10
10
10
10
10
10
10
10
10
10
10
10
10
10
10
10
10
10
10
10
10
10
10
10
10
10
10
10
10
10
10
10
10
10
10
10
10
10
10
10
10
10
10
10
10
10
10
10
10
10
10
10
10
10
10
10
10
10
10
10
10
10
10
10
10
10
10
10
10
10
10
10
10
10
10
10
10
10
10
10
10
10
10
10
10
10
10
10
10
10
10
10
10
10
10
10
10
10
10
10
10
10
10
10
10
10
10
10
10
10
10
10
10
10
10
10
10
10
10
10
10
10
10
10
10
10
10
10
10
10
10
10
10
10
10
10
10
10
10
10
10
10
10
10
10
10
10
10
10
10
10
10
10
10
10
10
10
10
10
10
10
10
10
10
10
10
10
10
10
10
10
10
10
10
10
10
10
10
10
10
10
10
10
10
10
10
10
10
10
10
10
10
10
10
10
10
10
10
10
10
10
10
10
10
10
10
10
10
10
10
10
10
10
10
10
10
10
10
10
10
10
10
10
10
10
10
10
10
10
10
10
10
10
10
10
10
10
10
10
10
10
10
10
10
10
10
10
10
10
10
10
10
10
10
10
10
10
10
10
10
10
10
10
10
10
10
10
10
10
10
10
10
10
10
10
10
10
10
10
10
10
10
10
10
10
10
10
10
10
10
10
10
10
10
10
10
10
10
10
10
10
10
10
10
10
10
10
10
10
10
10
10
10
10
10
10
10
10
10
10
10
10
10
10
10
10
10
10
10
10
10
10
10
10
10
10
10
10
10
10
10
10
10
10
10
10
10
10
10
10
10
10
10
10
10
10
10
10
10
10
10
10
10
10
10
10
10
10
10
10
10
10
10
10
10
10
10
10
10
10
10
10
10
10
10
10
10
10
10
10
10
10
10
10
10
10
10
10
10
10
10
10
10
10
10
10
10
10
10
10
10
10
10
10
10
10
10
10
10
10
10
10
10
10
10
10
10
10
10
10
10
10
10
10
10
10
10
10
10
10
10
10
10
10
10
10
10
10
10
10
10
10
10
10
10
10
10
10
10
10
10
10
10
10
10
10
10
10
10
10
10
10
10
10
10
10
10
10
10
10
10
10
10
10
10
10
10
10
10
10
10
10
10
10
10
10
10
10
10
10
10
10
10
10
10
10
10
10
10
10
10
10
10
10
10
10
10
10
10
10
10
10
10
10
10
10
10
10
10
10
10
10
10
10
10
10
10
10
10
10
10
10
10
10
10
10
10
10
10
10
10
10
10
10
10
10
10
10
10
10
10
10
10
10
10
10
10
10
10
10
10
10
10
10
10
10
10
10
10
10
10
10
10
10
10
10
10
10
10
10
10
10
10
10
10
10
10
10
10
10
10
10
10
10
10
10
10
10
10
10
10
10
10
10
10
10
10
10
10
10
10
10
10
10
10
10
10
10
10
10
10
10
10
10
10
10
10
10
10
10
10
10
10
10
10
10
10
10
10
10
10
10
10
10
10
10
10
10
10
10
10
10
10
10
10
10
10
10
10
10
10
10
10
10
10
10
10
10
10
10
10
10
10
10
10
10
10
10
10
10
10
10
10
10
10
10
10
10
10
10
10
10
10
10
10
10
10
10
10
10
10
10
10
10
10
10
10
10
10
10
10
10
10
10
10
10
10
10
10
10
10
10
10
10
10
10
10
10
10
10
10
10
10
10
10
10
10
10
10
10
10
10
10
10
10
10
10
10
10
10
10
10
10
10
10
10
10
10
10
10
10
10
10
10
10
10
10
10
10
10
10
10
10
10
10
10
10
10
10
10
10
10
10
10
10
10
10
10
10
10
10
10
10
10
10
10
10
10
10
10
10
10
10
10
10
10
10
10
10
10
10
10
10
10
10
10
10
10
10
10
10
10
10
10
10
10
10
10
10
10
10
10
10
10
10
10
10
10
10
10
10
10
10
10
10
10
10
10
10
10
10
10
10
10
10
10
10
10
10
10
10
10
10
10
10
10
10
10
10
10
10
10
10
10
10
10
10
10
10
10
10
10
10
10
10
10
10
10
10
10
10
10
10
10
10
10
10
10
10
10
10
10
10
10
10
10
10
10
10
10
10
10
10
10
10
10
10
10
10
10
10
10
10
10
10
10
10
10
10
10
10
10
10
10
10
10
10
10
10
10
10
10
10
10
10
10
10
10
10
10
10
10
10
10
10
10
10
10
10
10
10
10
10
10
10
10
10
10
10
10
10
10
10
10
10
10
10
10
10
10
10
10
10
10
10
10
10
10
10
10
10
10
10
10
10
10
10
10
10
10
10
10
10
10
10
10
10
10
10
10
10
10
10
10
10
10
10
10
10
10
10
10
10
10
10
10
10
10
10
10
10
10
10
10
10
10
10
10
10
10
10
10
10
10
10
10
10
10
10
10
10
10
10
10
10
10
10
10
10
10
10
10
10
10
10
10
10
10
10
10
10
10
10
10
10
10
10
10
10
10
10
10
10
10
10
10
10
10
10
10
10
10
10
10
10
10
10
10
10
10
10
10
10
10
10
10
10
10
10
10
10
10
10
10
10
10
10
10
10
10
10
10
10
10
10
10
10
10
10
10
10
10
10
10
10
10
10
10
10
10
10
10
10
10
10
10
10
10
10
10
10
10
10
10
10
10
10
10
10
10
10
10
10
10
10
10
10
10
10
10
10
10
10
10
10
10
10
10
10
10
10
10
10
10
10
10
10
10
10
10
10
10
10
10
10
10
10
10
10
10
10
10
10
10
10
10
10
10
10
10
10
10
10
10
10
10
10
10
10
10
10
10
10
10
10
10
10
10
10
10
10
10
10
10
10
10
10
10
10
10
10
10
10
10
10
10
10
10
10
10
10
10
10
10
10
10
10
10
10
10
10
10
10
10
10
10
10
10
10
10
10
10
10
10
10
10
10
10
10
10
10
10
10
10
10
10
10
10
10
10
10
10
10
10
10
10
10
10
10
10
10
10
10
10
10
10
10
10
10
10
10
10
10
10
10
10
10
10
10
10
10
10
10
10
10
10
10
10
10
10
10
10
10
10
10
10
10
10
10
10
10
10
10
10
10
10
10
10
10
10
10
10
10
10
10
10
10
10
10
10
10
10
10
10
10
10
10
10
10
10
10
10
10
10
10
10
10
10
10
10
10
10
10
10
10
10
10
10
10
10
10
10
10
10
10
10
10
10
10
10
10
10
10
10
10
10
10
10
10
10
10
10
10
10
10
10
10
10
10
10
10
10
10
10
10
10
10
10
10
10
10
10
10
10
10
10
10
10
10
10
10
10
10
10
10
10
10
10
10
10
10
10
10
10
10
10
10
10
10
10
10
10
10
10
10
10
10
10
10
10
10
10
10
10
10
10
10
10
10
10
10
10
10
10
10
10
10
10
10
10
10
10
10
10
10
10
10
10
10
10
10
10
10
10
10
10
10
10
10
10
10
10
10
10
10
10
10
10
10
10
10
10
10
10
10
10
10
10
10
10
10
10
10
10
10
10
10
10
10
10
10
10
10
10
10
10
10
10
10
10
10
10
10
10
10
10
10
10
10
10
10
10
10
10
10
10
10
10
10
10
10
10
10
10
10
10
10
10
10
10
10
10
10
10
10
10
10
10
10
10
10
10
10
10
10
10
10
10
10
10
10
10
10
10
10
10
10
10
10
10
10
10
10
10
10
10
10
10
10
10
10
10
10
10
10
10
10
10
10
10
10
10
10
10
10
10
10
10
10
10
10
10
10
10
10
10
10
10
10
10
10
10
10
10
10
10
10
10
10
10
10
10
10
10
10
10
10
10
10
10
10
10
10
10
10
10
10
10
10
10
10
10
10
10
10
10
10
10
10
10
10
10
10
10
10
10
10
10
10
10
10
10
10
10
10
10
10
10
10
10
10
10
10
10
10
10
10
10
10
10
10
10
10
10
10
10
10
10
10
10
10
10
10
10
10
10
10
10
10
10
10
10
10
10
10
10
10
10
10
10
10
10
10
10
10
10
10
10
10
10
10
10
10
10
10
10
10
10
10
10
10
10
10
10
10
10
10
10
10
10
10
10
10
10
10
10
10
10
10
10
10
10
10
10
10
10
10
10
10
10
10
10
10
10
10
10
10
10
10
10
10
10
10
10
10
10
10
10
10
10
10
10
10
10
10
10
10
10
10
10
10
10
10
10
10
10
10
10
10
10
10
10
10
10
10
10
10
10
10
10
10
10
10
10
10
10
10
10
10
10
10
10
10
10
10
10
10
10
10
10
10
10
10
10
10
10
10
10
10
10
10
10
10
10
10
10
10
10
10
10
10
10
10
10
10
10
10
10
10
10
10
10
10
10
10
10
10
10
10
10
10
10
10
10
10
10
10
10
10
10
10
10
10
10
10
10
10
10
10
10
10
10
10
10
10
10
10
10
10
10
10
10
10
10
10
10
10
10
10
10
10
10
10
10
10
10
10
10
10
10
10
10
10
10
10
10
10
10
10
10
10
10
10
10
10
10
10
10
10
10
10
10
10
10
10
10
10
10
10
10
10
10
10
10
10
10
10
10
10
10
10
10
10
10
10
10
10
10
10
10
10
10
10
10
10
10
10
10
10
10
10
10
10
10
10
10
10
10
10
10
10
10
10
10
10
10
10
10
10
10
10
10
10
10
10
10
10
10
10
10
10
10
10
10
10
10
10
10
10
10
10
10
10
10
10
10
10
10
10
10
10
10
10
10
10
10
10
10
10
10
10
10
10
10
10
10
10
10
10
10
10
10
10
10
10
10
10
10
10
10
10
10
10
10
10
10
10
10
10
10
10
10
10
10
10
10
10
10
10
10
10
10
10
10
10
10
10
10
10
10
10
10
10
10
10
10
10
10
10
10
10
10
10
10
10
10
10
10
10
10
10
10
10
10
10
10
10
10
10
10
10
10
10
10
10
10
10
10
10
10
10
10
10
10
10
10
10
10
10
10
10
10
10
10
10
10
10
10
10
10
10
10
10
10
10
10
10
10
10
10
10
10
10
10
10
10
10
10
10
10
10
10
10
10
10
10
10
10
10
10
10
10
10
10
10
10
10
10
10
10
10
10
10
10
10
10
10
10
10
10
10
10
10
10
10
10
10
10
10
10
10
10
10
10
10
10
10
10
10
10
10
10
10
10
10
10
10
10
10
10
10
10
10
10
10
10
10
10
10
10
10
10
10
10
10
10
10
10
10
10
10
10
10
10
10
10
10
10
10
10
10
10
10
10
10
10
10
10
10
10
10
10
10
10
10
10
10
10
10
10
10
10
10
10
10
10
10
10
10
10
10
10
10
10
10
10
10
10
10
10
10
10
10
10
10
10
10
10
10
10
10
10
10
10
10
10
10
10
10
10
10
10
10
10
10
10
10
10
10
10
10
10
10
10
10
10
10
10
10
10
10
10
10
10
10
10
10
10
10
10
10
10
10
10
10
10
10
10
10
10
10
10
10
10
10
10
10
10
10
10
10
10
10
10
10
10
10
10
10
10
10
10
10
10
10
10
10
10
10
10
10
10
10
10
10
10
10
10
10
10
10
10
10
10
10
10
10
10
10
10
10
10
10
10
10
10
10
10
10
10
10
10
10
10
10
10
10
10
10
10
10
10
10
10
10
10
10
10
10
10
10
10
10
10
10
10
10
10
10
10
10
10
10
10
10
10
10
10
10
10
10
10
10
10
10
10
10
10
10
10
10
10
10
10
10
10
10
10
10
10
10
10
10
10
10
10
10
10
10
10
10
10
10
10
10
10
10
10
10
10
10
10
10
10
10
10
10
10
10
10
10
10
10
10
10
10
10
10
10
10
10
10
10
10
10
10
10
10
10
10
10
10
10
10
10
10
10
10
10
10
10
10
10
10
10
10
10
10
10
10
10
10
10
10
10
10
10
10
10
10
10
10
10
10
10
10
10
10
10
10
10
10
10
10
10
10
10
10
10
10
10
10
10
10
10
10
10
10
10
10
10
10
10
10
10
10
10
10
10
10
10
10
10
10
10
10
10
10
10
10
10
10
10
10
10
10
10
10
10
10
10
10
10
10
10
10
10
10
10
10
10
10
10
10
10
10
10
10
10
10
10
10
10
10
10
10
10
10
10
10
10
10
10
10
10
10
10
10
10
10
10
10
10
10
10
10
10
10
10
10
10
10
10
10
10
10
10
10
10
10
10
10
10
10
10
10
10
10
10
10
10
10
10
10
10
10
10
10
10
10
10
10
10
10
10
10
10
10
10
10
10
10
10
10
10
10
10
10
10
10
10
10
10
10
10
10
10
10
10
10
10
10
10
10
10
10
10
10
10
10
10
10
10
10
10
10
10
10
10
10
10
10
10
10
10
10
10
10
10
10
10
10
10
10
10
10
10
10
10
10
10
10
10
10
10
10
10
10
10
10
10
10
10
10
10
10
10
10
10
10
10
10
10
10
10
10
10
10
10
10
10
10
10
10
10
10
10
10
10
10
10
10
10
10
10
10
10
10
10
10
10
10
10
10
10
10
10
10
10
10
10
10
10
10
10
10
10
10
10
10
10
10
10
10
10
10
10
10
10
10
10
10
10
10
10
10
10
10
10
10
10
10
10
10
10
10
10
10
10
10
10
10
10
10
10
10
10
10
10
10
10
10
10
10
10
10
10
10
10
10
10
10
10
10
10
10
10
10
10
10
10
10
10
10
10
10
10
10
10
10
10
10
10
10
10
10
10
10
10
10
10
10
10
10
10
10
10
10
10
10
10
10
10
10
10
10
10
10
10
10
10
10
10
10
10
10
10
10
10
10
10
10
10
10
10
10
10
10
10
10
10
10
10
10
10
10
10
10
10
10
10
10
10
10
10
10
10
10
10
10
10
10
10
10
10
10
10
10
10
10
10
10
10
10
10
10
10
10
10
10
10
10
10
10
10
10
10
10
10
10
10
10
10
10
10
10
10
10
10
10
10
10
10
10
10
10
10
10
10
10
10
10
10
10
10
10
10
10
10
10
10
10
10
10
10
10
10
10
10
10
10
10
10
10
10
10
10
10
10
10
10
10
10
10
10
10
10
10
10
10
10
10
10
10
10
10
10
10
10
10
10
10
10
10
10
10
10
10
10
10
10
10
10
10
10
10
10
10
10
10
10
10
10
10
10
10
10
10
10
10
10
10
10
10
10
10
10
10
10
10
10
10
10
10
10
10
10
10
10
10
10
10
10
10
10
10
10
10
10
10
10
10
10
10
10
10
10
10
10
10
10
10
10
10
10
10
10
10
10
10
10
10
10
10
10
10
10
10
10
10
10
10
10
10
10
10
10
10
10
10
10
10
10
10
10
10
10
10
10
10
10
10
10
10
10
10
10
10
10
10
10
10
10
10
10
10
10
10
10
10
10
10
10
10
10
10
10
10
10
10
10
10
10
10
10
10
10
10
10
10
10
10
10
10
10
10
10
10
10
10
10
10
10
10
10
10
10
10
10
10
10
10
10
10
10
10
10
10
10
10
10
10
10
10
10
10
10
10
10
10
10
10
10
10
10
10
10
10
10
10
10
10
10
10
10
10
10
10
10
10
10
10
10
10
10
10
10
10
10
10
10
10
10
10
10
10
10
10
10
10
10
10
10
10
10
10
10
10
10
10
10
10
10
10
10
10
10
10
10
10
10
10
10
10
10
10
10
10
10
10
10
10
10
10
10
10
10
10
10
10
10
10
10
10
10
10
10
10
10
10
10
10
10
10
10
10
10
10
10
10
10
10
10
10
10
10
10
10
10
10
10
10
10
10
10
10
10
10
10
10
10
10
10
10
10
10
10
10
10
10
10
10
10
10
10
10
10
10
10
10
10
10
10
10
10
10
10
10
10
10
10
10
10
10
10
10
10
10
10
10
10
10
10
10
10
10
10
10
10
10
10
10
10
10
10
10
10
10
10
10
10
10
10
10
10
10
10
10
10
10
10
10
10
10
10
10
10
10
10
10
10
10
10
10
10
10
10
10
10
10
10
10
10
10
10
10
10
10
10
10
10
10
10
10
10
10
10
10
10
10
10
10
10
10
10
10
10
10
10
10
10
10
10
10
10
10
10
10
10
10
10
10
10
10
10
10
10
10
10
10
10
10
10
10
10
10
10
10
10
10
10
10
10
10
10
10
10
10
10
10
10
10
10
10
10
10
10
10
10
10
10
10
10
10
10
10
10
10
10
10
10
10
10
10
10
10
10
10
10
10
10
10
10
10
10
10
10
10
10
10
10
10
10
10
10
10
10
10
10
10
10
10
10
10
10
10
10
10
10
10
10
10
10
10
10
10
10
10
10
10
10
10
10
10
10
10
10
10
10
10
10
10
10
10
10
10
10
10
10
10
10
10
10
10
10
10
10
10
10
10
10
10
10
10
10
10
10
10
10
10
10
10
10
10
10
10
10
10
10
10
10
10
10
10
10
10
10
10
10
10
10
10
10
10
10
10
10
10
10
10
10
10
10
10
10
10
10
10
10
10
10
10
10
10
10
10
10
10
10
10
10
10
10
10
10
10
10
10
10
10
10
10
10
10
10
10
10
10
10
10
10
10
10
10
10
10
10
10
10
10
10
10
10
10
10
10
10
10
10
10
10
10
10
10
10
10
10
10
10
10
10
10
10
10
10
10
10
10
10
10
10
10
10
10
10
10
10
10
10
10
10
10
10
10
10
10
10
10
10
10
10
10
10
10
10
10
10
10
10
10
10
10
10
10
10
10
10
10
10
10
10
10
10
10
10
10
10
10
10
10
10
10
10
10
10
10
10
10
10
10
10
10
10
10
10
10
10
10
10
10
10
10
10
10
10
10
10
10
10
10
10
10
10
10
10
10
10
10
10
10
10
10
10
10
10
10
10
10
10
10
10
10
10
10
10
10
10
10
10
10
10
10
10
10
10
10
10
10
10
10
10
10
10
10
10
10
10
10
10
10
10
10
10
10
10
10
10
10
10
10
10
10
10
10
10
10
10
10
10
10
10
10
10
10
10
10
10
10
10
10
10
10
10
10
10
10
10
10
10
10
10
10
10
10
10
10
10
10
10
10
10
10
10
10
10
10
10
10
10
10
10
10
10
10
10
10
10
10
10
10
10
10
10
10
10
10
10
10
10
10
10
10
10
10
10
10
10
10
10
10
10
10
10
10
10
10
10
10
10
10
10
10
10
10
10
10
10
10
10
10
10
10
10
10
10
10
10
10
10
10
10
10
10
10
10
10
10
10
10
10
10
10
10
10
10
10
10
10
10
10
10
10
10
10
10
10
10
10
10
10
10
10
10
10
10
10
10
10
10
10
10
10
10
10
10
10
10
10
10
10
10
10
10
10
10
10
10
10
10
10
10
10
10
10
10
10
10
10
10
10
10
10
10
10
10
10
10
10
10
10
10
10
10
10
10
10
10
10
10
10
10
10
10
10
10
10
10
10
10
10
10
10
10
10
10
10
10
10
10
10
10
10
10
10
10
10
10
10
10
10
10
10
10
10
10
10
10
10
10
10
10
10
10
10
10
10
10
10
10
10
10
10
10
10
10
10
10
10
10
10
10
10
10
10
10
10
10
10
10
10
10
10
10
10
10
10
10
10
10
10
10
10
10
10
10
10
10
10
10
10
10
10
10
10
10
10
10
10
10
10
10
10
10
10
10
10
10
10
10
10
10
10
10
10
10
10
10
10
10
10
10
10
10
10
10
10
10
10
10
10
10
10
10
10
10
10
10
10
10
10
10
10
10
10
10
10
10
10
10
10
10
10
10
10
10
10
10
10
10
10
10
10
10
10
10
10
10
10
10
10
10
10
10
10
10
10
10
10
10
10
10
10
10
10
10
10
10
10
10
10
10
10
10
10
10
10
10
10
10
10
10
10
10
10
10
10
10
10
10
10
10
10
10
10
10
10
10
10
10
10
10
10
10
10
10
10
10
10
10
10
10
10
10
10
10
10
10
10
10
10
10
10
10
10
10
10
10
10
10
10
10
10
10
10
10
10
10
10
10
10
10
10
10
10
10
10
10
10
10
10
10
10
10
10
10
10
10
10
10
10
10
10
10
10
10
10
10
10
10
10
10
10
10
10
10
10
10
10
10
10
10
10
10
10
10
10
10
10
10
10
10
10
10
10
10
10
10
10
10
10
10
10
10
10
10
10
10
10
10
10
10
10
10
10
10
10
10
10
10
10
10
10
10
10
10
10
10
10
10
10
10
10
10
10
10
10
10
10
10
10
10
10
10
10
10
10
10
10
10
10
10
10
10
10
10
10
10
10
10
10
10
10
10
10
10
10
10
10
10
10
10
10
10
10
10
10
10
10
10
10
10
10
10
10
10
10
10
10
10
10
10
10
10
10
10
10
10
10
10
10
10
10
10
10
10
10
10
10
10
10
10
10
10
10
10
10
10
10
10
10
10
10
10
10
10
10
10
10
10
10
10
10
10
10
10
10
10
10
10
10
10
10
10
10
10
10
10
10
10
10
10
10
10
10
10
10
10
10
10
10
10
10
10
10
10
10
10
10
10
10
10
10
10
10
10
10
10
10
10
10
10
10
10
10
10
10
10
10
10
10
10
10
10
10
10
10
10
10
10
10
10
10
10
10
10
10
10
10
10
10
10
10
10
10
10
10
10
10
10
10
10
10
10
10
10
10
10
10
10
10
10
10
10
10
10
10
10
10
10
10
10
10
10
10
10
10
10
10
10
10
10
10
10
10
10
10
10
10
10
10
10
10
10
10
10
10
10
10
10
10
10
10
10
10
10
10
10
10
10
10
10
10
10
10
10
10
10
10
10
10
10
10
10
10
10
10
10
10
10
10
10
10
10
10
10
10
10
10
10
10
10
10
10
10
10
10
10
10
10
10
10
10
10
10
10
10
10
10
10
10
10
10
10
10
10
10
10
10
10
10
10
10
10
10
10
10
10
10
10
10
10
10
10
10
10
10
10
10
10
10
10
10
10
10
10
10
10
10
10
10
10
10
10
10
10
10
10
10
10
10
10
10
10
10
10
10
10
10
10
10
10
10
10
10
10
10
10
10
10
10
10
10
10
10
10
10
10
10
10
10
10
10
10
10
10
10
10
10
10
10
10
10
10
10
10
10
10
10
10
10
10
10
10
10
10
10
10
10
10
10
10
10
10
10
10
10
10
10
10
10
10
10
10
10
10
10
10
10
10
10
10
10
10
10
10
10
10
10
10
10
10
10
10
10
10
10
10
10
10
10
10
10
10
10
10
10
10
10
10
10
10
10
10
10
10
10
10
10
10
10
10
10
10
10
10
10
10
10
10
10
10
10
10
10
10
10
10
10
10
10
10
10
10
10
10
10
10
10
10
10
10
10
10
10
10
10
10
10
10
10
10
10
10
10
10
10
10
10
10
10
10
10
10
10
10
10
10
10
10
10
10
10
10
10
10
10
10
10
10
10
10
10
10
10
10
10
10
10
10
10
10
10
10
10
10
10
10
10
10
10
10
10
10
10
10
10
10
10
10
10
10
10
10
10
10
10
10
10
10
10
10
10
10
10
10
10
10
10
10
10
10
10
10
10
10
10
10
10
10
10
10
10
10
10
10
10
10
10
10
10
10
10
10
10
10
10
10
10
10
10
10
10
10
10
10
10
10
10
10
10
10
10
10
10
10
10
10
10
10
10
10
10
10
10
10
10
10
10
10
10
10
10
10
10
10
10
10
10
10
10
10
10
10
10
10
10
10
10
10
10
10
10
10
10
10
10
10
10
10
10
10
10
10
10
10
10
10
10
10
10
10
10
10
10
10
10
10
10
10
10
10
10
10
10
10
10
10
10
10
10
10
10
10
10
10
10
10
10
10
10
10
10
10
10
10
10
10
10
10
10
10
10
10
10
10
10
10
10
10
10
10
10
10
10
10
10
10
10
10
10
10
10
10
10
10
10
10
10
10
10
10
10
10
10
10
10
10
10
10
10
10
10
10
10
10
10
10
10
10
10
10
10
10
10
10
10
10
10
10
10
10
10
10
10
10
10
10
10
10
10
10
10
10
10
10
10
10
10
10
10
10
10
10
10
10
10
10
10
10
10
10
10
10
10
10
10
10
10
10
10
10
10
10
10
10
10
10
10
10
10
10
10
10
10
10
10
10
10
10
10
10
10
10
10
10
10
10
10
10
10
10
10
10
10
10
10
10
10
10
10
10
10
10
10
10
10
10
10
10
10
10
10
10
10
10
10
10
10
10
10
10
10
10
10
10
10
10
10
10
10
10
10
10
10
10
10
10
10
10
10
10
10
10
10
10
10
10
10
10
10
10
10
10
10
10
10
10
10
10
10
10
10
10
10
10
10
10
10
10
10
10
10
10
10
10
10
10
10
10
10
10
10
10
10
10
10
10
10
10
10
10
10
10
10
10
10
10
10
10
10
10
10
10
10
10
10
10
10
10
10
10
10
10
10
10
10
10
10
10
10
10
10
10
10
10
10
10
10
10
10
10
10
10
10
10
10
10
10
10
10
10
10
10
10
10
10
10
10
10
10
10
10
10
10
10
10
10
10
10
10
10
10
10
10
10
10
10
10
10
10
10
10
10
10
10
10
10
10
10
10
10
10
10
10
10
10
10
10
10
10
10
10
10
10
10
10
10
10
10
10
10
10
10
10
10
10
10
10
10
10
10
10
10
10
10
10
10
10
10
10
10
10
10
10
10
10
10
10
10
10
10
10
10
10
10
10
10
10
10
10
10
10
10
10
10
10
10
10
10
10
10
10
10
10
10
10
10
10
10
10
10
10
10
10
10
10
10
10
10
10
10
10
10
10
10
10
10
10
10
10
10
10
10
10
10
10
10
10
10
10
10
10
10
10
10
10
10
10
10
10
10
10
10
10
10
10
10
10
10
10
10
10
10
10
10
10
10
10
10
10
10
10
10
10
10
10
10
10
10
10
10
10
10
10
10
10
10
10
10
10
10
10
10
10
10
10
10
10
10
10
10
10
10
10
10
10
10
10
10
10
10
10
10
10
10
10
10
10
10
10
10
10
10
10
10
10
10
10
10
10
10
10
10
10
10
10
10
10
10
10
10
10
10
10
10
10
10
10
10
10
10
10
10
10
10
10
10
10
10
10
10
10
10
10
10
10
10
10
10
10
10
10
10
10
10
10
10
10
10
10
10
10
10
10
10
10
10
10
10
10
10
10
10
10
10
10
10
10
10
10
10
10
10
10
10
10
10
10
10
10
10
10
10
10
10
10
10
10
10
10
10
10
10
10
10
10
10
10
10
10
10
10
10
10
10
10
10
10
10
10
10
10
10
10
10
10
10
10
10
10
10
10
10
10
10
10
10
10
10
10
10
10
10
10
10
10
10
10
10
10
10
10
10
10
10
10
10
10
10
10
10
10
10
10
10
10
10
10
10
10
10
10
10
10
10
10
10
10
10
10
10
10
10
10
10
10
10
10
10
10
10
10
10
10
10
10
10
10
10
10
10
10
10
10
10
10
10
10
10
10
10
10
10
10
10
10
10
10
10
10
10
10
10
10
10
10
10
10
10
10
10
10
10
10
10
10
10
10
10
10
10
10
10
10
10
10
10
10
10
10
10
10
10
10
10
10
10
10
10
10
10
10
10
10
10
10
10
10
10
10
10
10
10
10
10
10
10
10
10
10
10
10
10
10
10
10
10
10
10
10
10
10
10
10
10
10
10
10
10
10
10
10
10
10
10
10
10
10
10
10
10
10
10
10
10
10
10
10
10
10
10
10
10
10
10
10
10
10
10
10
10
10
10
10
10
10
10
10
10
10
10
10
10
10
10
10
10
10
10
10
10
10
10
10
10
10
10
10
10
10
10
10
10
10
10
10
10
10
10
10
10
10
10
10
10
10
10
10
10
10
10
10
10
10
10
10
10
10
10
10
10
10
10
10
10
10
10
10
10
10
10
10
10
10
10
10
10
10
10
10
10
10
10
10
10
10
10
10
10
10
10
10
10
10
10
10
10
10
10
10
10
10
10
10
10
10
10
10
10
10
10
10
10
10
10
10
10
10
10
10
10
10
10
10
10
10
10
10
10
10
10
10
10
10
10
10
10
10
10
10
10
10
10
10
10
10
10
10
10
10
10
10
10
10
10
10
10
10
10
10
10
10
10
10
10
10
10
10
10
10
10
10
10
10
10
10
10
10
10
10
10
10
10
10
10
10
10
10
10
10
10
10
10
10
10
10
10
10
10
10
10
10
10
10
10
10
10
10
10
10
10
10
10
10
10
10
10
10
10
10
10
10
10
10
10
10
10
10
10
10
10
10
10
10
10
10
10
10
10
10
10
10
10
10
10
10
10
10
10
10
10
10
10
10
10
10
10
10
10
10
10
10
10
10
10
10
10
10
10
10
10
10
10
10
10
10
10
10
10
10
10
10
10
10
10
10
10
10
10
10
10
10
10
10
10
10
10
10
10
10
10
10
10
10
10
10
10
10
10
10
10
10
10
10
10
10
10
10
10
10
10
10
10
10
10
10
10
10
10
10
10
10
10
10
10
10
10
10
10
10
10
10
10
10
10
10
10
10
10
10
10
10
10
10
10
10
10
10
10
10
10
10
10
10
10
10
10
10
10
10
10
10
10
10
10
10
10
10
10
10
10
10
10
10
10
10
10
10
10
10
10
10
10
10
10
10
10
10
10
10
10
10
10
10
10
10
10
10
10
10
10
10
10
10
10
10
10
10
10
10
10
10
10
10
10
10
10
10
10
10
10
10
10
10
10
10
10
10
10
10
10
10
10
10
10
10
10
10
10
10
10
10
10
10
10
10
10
10
10
10
10
10
10
10
10
10
10
10
10
10
10
10
10
10
10
10
10
10
10
10
10
10
10
10
10
10
10
10
10
10
10
10
10
10
10
10
10
10
10
10
10
10
10
10
10
10
10
10
10
10
10
10
10
10
10
10
10
10
10
10
10
10
10
10
10
10
10
10
10
10
10
10
10
10
10
10
10
10
10
10
10
10
10
10
10
10
10
10
10
10
10
10
10
10
10
10
10
10
10
10
10
10
10
10
10
10
10
10
10
10
10
10
10
10
10
10
10
10
10
10
10
10
10
10
10
10
10
10
10
10
10
10
10
10
10
10
10
10
10
10
10
10
10
10
10
10
10
10
10
10
10
10
10
10
10
10
10
10
10
10
10
10
10
10
10
10
10
10
10
10
10
10
10
10
10
10
10
10
10
10
10
10
10
10
10
10
10
10
10
10
10
10
10
10
10
10
10
10
10
10
10
10
10
10
10
10
10
10
10
10
10
10
10
10
10
10
10
10
10
10
10
10
10
10
10
10
10
10
10
10
10
10
10
10
10
10
10
10
10
10
10
10
10
10
10
10
10
10
10
10
10
10
10
10
10
10
10
10
10
10
10
10
10
10
10
10
10
10
10
10
10
10
10
10
10
10
10
10
10
10
10
10
10
10
10
10
10
10
10
10
10
10
10
10
10
10
10
10
10
10
10
10
10
10
10
10
10
10
10
10
10
10
10
10
10
10
10
10
10
10
10
10
10
10
10
10
10
10
10
10
10
10
10
10
10
10
10
10
10
10
10
10
10
10
10
10
10
10
10
10
10
10
10
10
10
10
10
10
10
10
10
10
10
10
10
10
10
10
10
10
10
10
10
10
10
10
10
10
10
10
10
10
10
10
10
10
10
10
10
10
10
10
10
10
10
10
10
10
10
10
10
10
10
10
10
10
10
10
10
10
10
10
10
10
10
10
10
10
10
10
10
10
10
10
10
10
10
10
10
10
10
10
10
10
10
10
10
10
10
10
10
10
10
10
10
10
10
10
10
10
10
10
10
10
10
10
10
10
10
10
10
10
10
10
10
10
10
10
10
10
10
10
10
10
10
10
10
10
10
10
10
10
10
10
10
10
10
10
10
10
10
10
10
10
10
10
10
10
10
10
10
10
10
10
10
10
10
10
10
10
10
10
10
10
10
10
10
10
10
10
10
10
10
10
10
10
10
10
10
10
10
10
10
10
10
10
10
10
10
10
10
10
10
10
10
10
10
10
10
10
10
10
10
10
10
10
10
10
10
10
10
10
10
10
10
10
10
10
10
10
10
10
10
10
10
10
10
10
10
10
10
10
10
10
10
10
10
10
10
10
10
10
10
10
10
10
10
10
10
10
10
10
10
10
10
10
10
10
10
10
10
10
10
10
10
10
10
10
10
10
10
10
10
10
10
10
10
10
10
10
10
10
10
10
10
10
10
10
10
10
10
10
10
10
10
10
10
10
10
10
10
10
10
10
10
10
10
10
10
10
10
10
10
10
10
10
10
10
10
10
10
10
10
10
10
10
10
10
10
10
10
10
10
10
10
10
10
10
10
10
10
10
10
10
10
10
10
10
10
10
10
10
10
10
10
10
10
10
10
10
10
10
10
10
10
10
10
10
10
10
10
10
10
10
10
10
10
10
10
10
10
10
10
10
10
10
10
10
10
10
10
10
10
10
10
10
10
10
10
10
10
10
10
10
10
10
10
10
10
10
10
10
10
10
10
10
10
10
10
10
10
10
10
10
10
10
10
10
10
10
10
10
10
10
10
10
10
10
10
10
10
10
10
10
10
10
10
10
10
10
10
10
10
10
10
10
10
10
10
10
10
10
10
10
10
10
10
10
10
10
10
10
10
10
10
10
10
10
10
10
10
10
10
10
10
10
10
10
10
10
10
10
10
10
10
10
10
10
10
10
10
10
10
10
10
10
10
10
10
10
10
10
10
10
10
10
10
10
10
10
10
10
10
10
10
10
10
10
10
10
10
10
10
10
10
10
10
10
10
10
10
10
10
10
10
10
10
10
10
10
10
10
10
10
10
10
10
10
10
10
10
10
10
10
10
10
10
10
10
10
10
10
10
10
10
10
10
10
10
10
10
10
10
10
10
10
10
10
10
10
10
10
10
10
10
10
10
10
10
10
10
10
10
10
10
10
10
10
10
10
10
10
10
10
10
10
10
10
10
10
10
10
10
10
10
10
10
10
10
10
10
10
10
10
10
10
10
10
10
10
10
10
10
10
10
10
10
10
10
10
10
10
10
10
10
10
10
10
10
10
10
10
10
10
10
10
10
10
10
10
10
10
10
10
10
10
10
10
10
10
10
10
10
10
10
10
10
10
10
10
10
10
10
10
10
10
10
10
10
10
10
10
10
10
10
10
10
10
10
10
10
10
10
10
10
10
10
10
10
10
10
10
10
10
10
10
10
10
10
10
10
10
10
10
10
10
10
10
10
10
10
10
10
10
10
10
10
10
10
10
10
10
10
10
10
10
10
10
10
10
10
10
10
10
10
10
10
10
10
10
10
10
10
10
10
10
10
10
10
10
10
10
10
10
10
10
10
10
10
10
10
10
10
10
10
10
10
10
10
10
10
10
10
10
10
10
10
10
10
10
10
10
10
10
10
10
10
10
10
10
10
10
10
10
10
10
10
10
10
10
10
10
10
10
10
10
10
10
10
10
10
10
10
10
10
10
10
10
10
10
10
10
10
10
10
10
10
10
10
10
10
10
10
10
10
10
10
10
10
10
10
10
10
10
10
10
10
10
10
10
10
10
10
10
10
10
10
10
10
10
10
10
10
10
10
10
10
10
10
10
10
10
10
10
10
10
10
10
10
10
10
10
10
10
10
10
10
10
10
10
10
10
10
10
10
10
10
10
10
10
10
10
10
10
10
10
10
10
10
10
10
10
10
10
10
10
10
10
10
10
10
10
10
10
10
10
10
10
10
10
10
10
10
10
10
10
10
10
10
10
10
10
10
10
10
10
10
10
10
10
10
10
10
10
10
10
10
10
10
10
10
10
10
10
10
10
10
10
10
10
10
10
10
10
10
10
10
10
10
10
10
10
10
10
10
10
10
10
10
10
10
10
10
10
10
10
10
10
10
10
10
10
10
10
10
10
10
10
10
10
10
10
10
10
10
10
10
10
10
10
10
10
10
10
10
10
10
10
10
10
10
10
10
10
10
10
10
10
10
10
10
10
10
10
10
10
10
10
10
10
10
10
10
10
10
10
10
10
10
10
10
10
10
10
10
10
10
10
10
10
10
10
10
10
10
10
10
10
10
10
10
10
10
10
10
10
10
10
10
10
10
10
10
10
10
10
10
10
10
10
10
10
10
10
10
10
10
10
10
10
10
10
10
10
10
10
10
10
10
10
10
10
10
10
10
10
10
10
10
10
10
10
10
10
10
10
10
10
10
10
10
10
10
10
10
10
10
10
10
10
10
10
10
10
10
10
10
10
10
10
10
10
10
10
10
10
10
10
10
10
10
10
10
10
10
10
10
10
10
10
10
10
10
10
10
10
10
10
10
10
10
10
10
10
10
10
10
10
10
10
10
10
10
10
10
10
10
10
10
10
10
10
10
10
10
10
10
10
10
10
10
10
10
10
10
10
10
10
10
10
10
10
10
10
10
10
10
10
10
10
10
10
10
10
10
10
10
10
10
10
10
10
10
10
10
10
10
10
10
10
10
10
10
10
10
10
10
10
10
10
10
10
10
10
10
10
10
10
10
10
10
10
10
10
10
10
10
10
10
10
10
10
10
10
10
10
10
10
10
10
10
10
10
10
10
10
10
10
10
10
10
10
10
10
10
10
10
10
10
10
10
10
10
10
10
10
10
10
10
10
10
10
10
10
10
10
10
10
10
10
10
10
10
10
10
10
10
10
10
10
10
10
10
10
10
10
10
10
10
10
10
10
10
10
10
10
10
10
10
10
10
10
10
10
10
10
10
10
10
10
10
10
10
10
10
10
10
10
10
10
10
10
10
10
10
10
10
10
10
10
10
10
10
10
10
10
10
10
10
10
10
10
10
10
10
10
10
10
10
10
10
10
10
10
10
10
10
10
10
10
10
10
10
10
10
10
10
10
10
10
10
10
10
10
10
10
10
10
10
10
10
10
10
10
10
10
10
10
10
10
10
10
10
10
10
10
10
10
10
10
10
10
10
10
10
10
10
10
10
10
10
10
10
10
10
10
10
10
10
10
10
10
10
10
10
10
10
10
10
10
10
10
10
10
10
10
10
10
10
10
10
10
10
10
10
10
10
10
10
10
10
10
10
10
10
10
10
10
10
10
10
10
10
10
10
10
10
10
10
10
10
10
10
10
10
10
10
10
10
10
10
10
10
10
10
10
10
10
10
10
10
10
10
10
10
10
10
10
10
10
10
10
10
10
10
10
10
10
10
10
10
10
10
10
10
10
10
10
10
10
10
10
10
10
10
10
10
10
10
10
10
10
10
10
10
10
10
10
10
10
10
10
10
10
10
10
10
10
10
10
10
10
10
10
10
10
10
10
10
10
10
10
10
10
10
10
10
10
10
10
10
10
10
10
10
10
10
10
10
10
10
10
10
10
10
10
10
10
10
10
10
10
10
10
10
10
10
10
10
10
10
10
10
10
10
10
10
10
10
10
10
10
10
10
10
10
10
10
10
10
10
10
10
10
10
10
10
10
10
10
10
10
10
10
10
10
10
10
10
10
10
10
10
10
10
10
10
10
10
10
10
10
10
10
10
10
10
10
10
10
10
10
10
10
10
10
10
10
10
10
10
10
10
10
10
10
10
10
10
10
10
10
10
10
10
10
10
10
10
10
10
10
10
10
10
10
10
10
10
10
10
10
10
10
10
10
10
10
10
10
10
10
10
10
10
10
10
10
10
10
10
10
10
10
10
10
10
10
10
10
10
10
10
10
10
10
10
10
10
10
10
10
10
10
10
10
10
10
10
10
10
10
10
10
10
10
10
10
10
10
10
10
10
10
10
10
10
10
10
10
10
10
10
10
10
10
10
10
10
10
10
10
10
10
10
10
10
10
10
10
10
10
10
10
10
10
10
10
10
10
10
10
10
10
10
10
10
10
10
10
10
10
10
10
10
10
10
10
10
10
10
10
10
10
10
10
10
10
10
10
10
10
10
10
10
10
10
10
10
10
10
10
10
10
10
10
10
10
10
10
10
10
10
10
10
10
10
10
10
10
10
10
10
10
10
10
10
10
10
10
10
10
10
10
10
10
10
10
10
10
10
10
10
10
10
10
10
10
10
10
10
10
10
10
10
10
10
10
10
10
10
10
10
10
10
10
10
10
10
10
10
10
10
10
10
10
10
10
10
10
10
10
10
10
10
10
10
10
10
10
10
10
10
10
10
10
10
10
10
10
10
10
10
10
10
10
10
10
10
10
10
10
10
10
10
10
10
10
10
10
10
10
10
10
10
10
10
10
10
10
10
10
10
10
10
10
10
10
10
10
10
10
10
10
10
10
10
10
10
10
10
10
10
10
10
10
10
10
10
10
10
10
10
10
10
10
10
10
10
10
10
10
10
10
10
10
10
10
10
10
10
10
10
10
10
10
10
10
10
10
10
10
10
10
10
10
10
10
10
10
10
10
10
10
10
10
10
10
10
10
10
10
10
10
10
10
10
10
10
10
10
10
10
10
10
10
10
10
10
10
10
10
10
10
10
10
10
10
10
10
10
10
10
10
10
10
10
10
10
10
10
10
10
10
10
10
10
10
10
10
10
10
10
10
10
10
10
10
10
10
10
10
10
10
10
10
10
10
10
10
10
10
10
10
10
10
10
10
10
10
10
10
10
10
10
10
10
10
10
10
10
10
10
10
10
10
10
10
10
10
10
10
10
10
10
10
10
10
10
10
10
10
10
10
10
10
10
10
10
10
10
10
10
10
10
10
10
10
10
10
10
10
10
10
10
10
10
10
10
10
10
10
10
10
10
10
10
10
10
10
10
10
10
10
10
10
10
10
10
10
10
10
10
10
10
10
10
10
10
10
10
10
10
10
10
10
10
10
10
10
10
10
10
10
10
10
10
10
10
10
10
10
10
10
10
10
10
10
10
10
10
10
10
10
10
10
10
10
10
10
10
10
10
10
10
10
10
10
10
10
10
10
10
10
10
10
10
10
10
10
10
10
10
10
10
10
10
10
10
10
10
10
10
10
10
10
10
10
10
10
10
10
10
10
10
10
10
10
10
10
10
10
10
10
10
10
10
10
10
10
10
10
10
10
10
10
10
10
10
10
10
10
10
10
10
10
10
10
10
10
10
10
10
10
10
10
10
10
10
10
10
10
10
10
10
10
10
10
10
10
10
10
10
10
10
10
10
10
10
10
10
10
10
10
10
10
10
10
10
10
10
10
10
10
10
10
10
10
10
10
10
10
10
10
10
10
10
10
10
10
10
10
10
10
10
10
10
10
10
10
10
10
10
10
10
10
10
10
10
10
10
10
10
10
10
10
10
10
10
10
10
10
10
10
10
10
10
10
10
10
10
10
10
10
10
10
10
10
10
10
10
10
10
10
10
10
10
10
10
10
10
10
10
10
10
10
10
10
10
10
10
10
10
10
10
10
10
10
10
10
10
10
10
10
10
10
10
10
10
10
10
10
10
10
10
10
10
10
10
10
10
10
10
10
10
10
10
10
10
10
10
10
10
10
10
10
10
10
10
10
10
10
10
10
10
10
10
10
10
10
10
10
10
10
10
10
10
10
10
10
10
10
10
10
10
10
10
10
10
10
10
10
10
10
10
10
10
10
10
10
10
10
10
10
10
10
10
10
10
10
10
10
10
10
10
10
10
10
10
10
10
10
10
10
10
10
10
10
10
10
10
10
10
10
10
10
10
10
10
10
10
10
10
10
10
10
10
10
10
10
10
10
10
10
10
10
10
10
10
10
10
10
10
10
10
10
10
10
10
10
10
10
10
10
10
10
10
10
10
10
10
10
10
10
10
10
10
10
10
10
10
10
10
10
10
10
10
10
10
10
10
10
10
10
10
10
10
10
10
10
10
10
10
10
10
10
10
10
10
10
10
10
10
10
10
10
10
10
10
10
10
10
10
10
10
10
10
10
10
10
10
10
10
10
10
10
10
10
10
10
10
10
10
10
10
10
10
10
10
10
10
10
10
10
10
10
10
10
10
10
10
10
10
10
10
10
10
10
10
10
10
10
10
10
10
10
10
10
10
10
10
10
10
10
10
10
10
10
10
10
10
10
10
10
10
10
10
10
10
10
10
10
10
10
10
10
10
10
10
10
10
10
10
10
10
10
10
10
10
10
10
10
10
10
10
10
10
10
10
10
10
10
10
10
10
10
10
10
10
10
10
10
10
10
10
10
10
10
10
10
10
10
10
10
10
10
10
10
10
10
10
10
10
10
10
10
10
10
10
10
10
10
10
10
10
10
10
10
10
10
10
10
10
10
10
10
10
10
10
10
10
10
10
10
10
10
10
10
10
10
10
10
10
10
10
10
10
10
10
10
10
10
10
10
10
10
10
10
10
10
10
10
10
10
10
10
10
10
10
10
10
10
10
10
10
10
10
10
10
10
10
10
10
10
10
10
10
10
10
10
10
10
10
10
10
10
10
10
10
10
10
10
10
10
10
10
10
10
10
10
10
10
10
10
10
10
10
10
10
10
10
10
10
10
10
10
10
10
10
10
10
10
10
10
10
10
10
10
10
10
10
10
10
10
10
10
10
10
10
10
10
10
10
10
10
10
10
10
10
10
10
10
10
10
10
10
10
10
10
10
10
10
10
10
10
10
10
10
10
10
10
10
10
10
10
10
10
10
10
10
10
10
10
10
10
10
10
10
10
10
10
10
10
10
10
10
10
10
10
10
10
10
10
10
10
10
10
10
10
10
10
10
10
10
10
10
10
10
10
10
10
10
10
10
10
10
10
10
10
10
10
10
10
10
10
10
10
10
10
10
10
10
10
10
10
10
10
10
10
10
10
10
10
10
10
10
10
10
10
10
10
10
10
10
10
10
10
10
10
10
10
10
10
10
10
10
10
10
10
10
10
10
10
10
10
10
10
10
10
10
10
10
10
10
10
10
10
10
10
10
10
10
10
10
10
10
10
10
10
10
10
10
10
10
10
10
10
10
10
10
10
10
10
10
10
10
10
10
10
10
10
10
10
10
10
10
10
10
10
10
10
10
10
10
10
10
10
10
10
10
10
10
10
10
10
10
10
10
10
10
10
10
10
10
10
10
10
10
10
10
10
10
10
10
10
10
10
10
10
10
10
10
10
10
10
10
10
10
10
10
10
10
10
10
10
10
10
10
10
10
10
10
10
10
10
10
10
10
10
10
10
10
10
10
10
10
10
10
10
10
10
10
10
10
10
10
10
10
10
10
10
10
10
10
10
10
10
10
10
10
10
10
10
10
10
10
10
10
10
10
10
10
10
10
10
10
10
10
10
10
10
10
10
10
10
10
10
10
10
10
10
10
10
10
10
10
10
10
10
10
10
10
10
10
10
10
10
10
10
10
10
10
10
10
10
10
10
10
10
10
10
10
10
10
10
10
10
10
10
10
10
10
10
10
10
10
10
10
10
10
10
10
10
10
10
10
10
10
10
10
10
10
10
10
10
10
10
10
10
10
10
10
10
10
10
10
10
10
10
10
10
10
10
10
10
10
10
10
10
10
10
10
10
10
10
10
10
10
10
10
10
10
10
10
10
10
10
10
10
10
10
10
10
10
10
10
10
10
10
10
10
10
10
10
10
10
10
10
10
10
10
10
10
10
10
10
10
10
10
10
10
10
10
10
10
10
10
10
10
10
10
10
10
10
10
10
10
10
10
10
10
10
10
10
10
10
10
10
10
10
10
10
10
10
10
10
10
10
10
10
10
10
10
10
10
10
10
10
10
10
10
10
10
10
10
10
10
10
10
10
10
10
10
10
10
10
10
10
10
10
10
10
10
10
10
10
10
10
10
10
10
10
10
10
10
10
10
10
10
10
10
10
10
10
10
10
10
10
10
10
10
10
10
10
10
10
10
10
10
10
10
10
10
10
10
10
10
10
10
10
10
10
10
10
10
10
10
10
10
10
10
10
10
10
10
10
10
10
10
10
10
10
10
10
10
10
10
10
10
10
10
10
10
10
10
10
10
10
10
10
10
10
10
10
10
10
10
10
10
10
10
10
10
10
10
10
10
10
10
10
10
10
10
10
10
10
10
10
10
10
10
10
10
10
10
10
10
10
10
10
10
10
10
10
10
10
10
10
10
10
10
10
10
10
10
10
10
10
10
10
10
10
10
10
10
10
10
10
10
10
10
10
10
10
10
10
10
10
10
10
10
10
10
10
10
10
10
10
10
10
10
10
10
10
10
10
10
10
10
10
10
10
10
10
10
10
10
10
10
10
10
10
10
10
10
10
10
10
10
10
10
10
10
10
10
10
10
10
10
10
10
10
10
10
10
10
10
10
10
10
10
10
10
10
10
10
10
10
10
10
10
10
10
10
10
10
10
10
10
10
10
10
10
10
10
10
10
10
10
10
10
10
10
10
10
10
10
10
10
10
10
10
10
10
10
10
10
10
10
10
10
10
10
10
10
10
10
10
10
10
10
10
10
10
10
10
10
10
10
10
10
10
10
10
10
10
10
10
10
10
10
10
10
10
10
10
10
10
10
10
10
10
10
10
10
10
10
10
10
10
10
10
10
10
10
10
10
10
10
10
10
10
10
10
10
10
10
10
10
10
10
10
10
10
10
10
10
10
10
10
10
10
10
10
10
10
10
10
10
10
10
10
10
10
10
10
10
10
10
10
10
10
10
10
10
10
10
10
10
10
10
10
10
10
10
10
10
10
10
10
10
10
10
10
10
10
10
10
10
10
10
10
10
10
10
10
10
10
10
10
10
10
10
10
10
10
10
10
10
10
10
10
10
10
10
10
10
10
10
10
10
10
10
10
10
10
10
10
10
10
10
10
10
10
10
10
10
10
10
10
10
10
10
10
10
10
10
10
10
10
10
10
10
10
10
10
10
10
10
10
10
10
10
10
10
10
10
10
10
10
10
10
10
10
10
10
10
10
10
10
10
10
10
10
10
10
10
10
10
10
10
10
10
10
10
10
10
10
10
10
10
10
10
10
10
10
10
10
10
10
10
10
10
10
10
10
10
10
10
10
10
10
10
10
10
10
10
10
10
10
10
10
10
10
10
10
10
10
10
10
10
10
10
10
10
10
10
10
10
10
10
10
10
10
10
10
10
10
10
10
10
10
10
10
10
10
10
10
10
10
10
10
10
10
10
10
10
10
10
10
10
10
10
10
10
10
10
10
10
10
10
10
10
10
10
10
10
10
10
10
10
10
10
10
10
10
10
10
10
10
10
10
10
10
10
10
10
10
10
10
10
10
10
10
10
10
10
10
10
10
10
10
10
10
10
10
10
10
10
10
10
10
10
10
10
10
10
10
10
10
10
10
10
10
10
10
10
10
10
10
10
10
10
10
10
10
10
10
10
10
10
10
10
10
10
10
10
10
10
10
10
10
10
10
10
10
10
10
10
10
10
10
10
10
10
10
10
10
10
10
10
10
10
10
10
10
10
10
10
10
10
10
10
10
10
10
10
10
10
10
10
10
10
10
10
10
10
10
10
10
10
10
10
10
10
10
10
10
10
10
10
10
10
10
10
10
10
10
10
10
10
10
10
10
10
10
10
10
10
10
10
10
10
10
10
10
10
10
10
10
10
10
10
10
10
10
10
10
10
10
10
10
10
10
10
10
10
10
10
10
10
10
10
10
10
10
10
10
10
10
10
10
10
10
10
10
10
10
10
10
10
10
10
10
10
10
10
10
10
10
10
10
10
10
10
10
10
10
10
10
10
10
10
10
10
10
10
10
10
10
10
10
10
10
10
10
10
10
10
10
10
10
10
10
10
10
10
10
10
10
10
10
10
10
10
10
10
10
10
10
10
10
10
10
10
10
10
10
10
10
10
10
10
10
10
10
10
10
10
10
10
10
10
10
10
10
10
10
10
10
10
10
10
10
10
10
10
10
10
10
10
10
10
10
10
10
10
10
10
10
10
10
10
10
10
10
10
10
10
10
10
10
10
10
10
10
10
10
10
10
10
10
10
10
10
10
10
10
10
10
10
10
10
10
10
10
10
10
10
10
10
10
10
10
10
10
10
10
10
10
10
10
10
10
10
10
10
10
10
10
10
10
10
10
10
10
10
10
10
10
10
10
10
10
10
10
10
10
10
10
10
10
10
10
10
10
10
10
10
10
10
10
10
10
10
10
10
10
10
10
10
10
10
10
10
10
10
10
10
10
10
10
10
10
10
10
10
10
10
10
10
10
10
10
10
10
10
10
10
10
10
10
10
10
10
10
10
10
10
10
10
10
10
10
10
10
10
10
10
10
10
10
10
10
10
10
10
10
10
10
10
10
10
10
10
10
10
10
10
10
10
10
10
10
10
10
10
10
10
10
10
10
10
10
10
10
10
10
10
10
10
10
10
10
10
10
10
10
10
10
10
10
10
10
10
10
10
10
10
10
10
10
10
10
10
10
10
10
10
10
10
10
10
10
10
10
10
10
10
10
10
10
10
10
10
10
10
10
10
10
10
10
10
10
10
10
10
10
10
10
10
10
10
10
10
10
10
10
10
10
10
10
10
10
10
10
10
10
10
10
10
10
10
10
10
10
10
10
10
10
10
10
10
10
10
10
10
10
10
10
10
10
10
10
10
10
10
10
10
10
10
10
10
10
10
10
10
10
10
10
10
10
10
10
10
10
10
10
10
10
10
10
10
10
10
10
10
10
10
10
10
10
10
10
10
10
10
10
10
10
10
10
10
10
10
10
10
10
10
10
10
10
10
10
10
10
10
10
10
10
10
10
10
10
10
10
10
10
10
10
10
10
10
10
10
10
10
10
10
10
10
10
10
10
10
10
10
10
10
10
10
10
10
10
10
10
10
10
10
10
10
10
10
10
10
10
10
10
10
10
10
10
10
10
10
10
10
10
10
10
10
10
10
10
10
10
10
10
10
10
10
10
10
10
10
10
10
10
10
10
10
10
10
10
10
10
10
10
10
10
10
10
10
10
10
10
10
10
10
10
10
10
10
10
10
10
10
10
10
10
10
10
10
10
10
10
10
10
10
10
10
10
10
10
10
10
10
10
10
10
10
10
10
10
10
10
10
10
10
10
10
10
10
10
10
10
10
10
10
10
10
10
10
10
10
10
10
10
10
10
10
10
10
10
10
10
10
10
10
10
10
10
10
10
10
10
10
10
10
10
10
10
10
10
10
10
10
10
10
10
10
10
10
10
10
10
10
10
10
10
10
10
10
10
10
10
10
10
10
10
10
10
10
10
10
10
10
10
10
10
10
10
10
10
10
10
10
10
10
10
10
10
10
10
10
10
10
10
10
10
10
10
10
10
10
10
10
10
10
10
10
10
10
10
10
10
10
10
10
10
10
10
10
10
10
10
10
10
10
10
10
10
10
10
10
10
10
10
10
10
10
10
10
10
10
10
10
10
10
10
10
10
10
10
10
10
10
10
10
10
10
10
10
10
10
10
10
10
10
10
10
10
10
10
10
10
10
10
10
10
10
10
10
10
10
10
10
10
10
10
10
10
10
10
10
10
10
10
10
10
10
10
10
10
10
10
10
10
10
10
10
10
10
10
10
10
10
10
10
10
10
10
10
10
10
10
10
10
10
10
10
10
10
10
10
10
10
10
10
10
10
10
10
10
10
10
10
10
10
10
10
10
10
10
10
10
10
10
10
10
10
10
10
10
10
10
10
10
10
10
10
10
10
10
10
10
10
10
10
10
10
10
10
10
10
10
10
10
10
10
10
10
10
10
10
10
10
10
10
10
10
10
10
10
10
10
10
10
10
10
10
10
10
10
10
10
10
10
10
10
10
10
10
10
10
10
10
10
10
10
10
10
10
10
10
10
10
10
10
10
10
10
10
10
10
10
10
10
10
10
10
10
10
10
10
10
10
10
10
10
10
10
10
10
10
10
10
10
10
10
10
10
10
10
10
10
10
10
10
10
10
10
10
10
10
10
10
10
10
10
10
10
10
10
10
10
10
10
10
10
10
10
10
10
10
10
10
10
10
10
10
10
10
10
10
10
10
10
10
10
10
10
10
10
10
10
10
10
10
10
10
10
10
10
10
10
10
10
10
10
10
10
10
10
10
10
10
10
10
10
10
10
10
10
10
10
10
10
10
10
10
10
10
10
10
CELL_DATA 31305 
FIELD FieldData  1
stress_iload_1 1 31305 float 
4.876036064907725 
4.2317608278224865 
5.6839551177337775 
4.342774750841049 
6.053067552471784 
3.617700446800411 
5.808183442887987 
4.272887055579544 
4.083977634918723 
2.6038389343040063 
4.653808384933243 
3.3221743522150393 
3.168878670415104 
2.8226185869207083 
3.6093726986970864 
5.427154485918057 
21.157125071051233 
6.329526336744232 
6.575774586249508 
8.103209296473283 
6.6817431624160495 
9.011821160771033 
5.313747534420022 
5.9555221898148805 
20.88918375000369 
5.3718170434222925 
5.403627136050784 
2.7101789642135325 
5.993221942428371 
4.234287858294147 
3.5429883535718916 
6.070275354692281 
13.60026226854193 
3.2179854108338226 
9.54767993034568 
9.55425303082539 
9.364993551096017 
15.88270047995714 
3.7675885624894137 
9.373415115135515 
8.575960634405034 
4.112013559935967 
4.078308003681499 
5.806326624248751 
5.826822132344358 
3.6376641990609646 
5.147730058571899 
4.016038264590378 
4.185958882758774 
3.948538006988401 
4.772801992951585 
4.039523370894186 
2.8923626140407848 
3.095489796401041 
5.735977981986313 
2.7522774775397627 
3.1340820103571634 
2.7628711715002656 
2.949203403319503 
3.122841972155512 
6.4845547024735035 
3.3446370345239256 
4.1793535043545065 
5.252492901159964 
3.825307650413099 
5.046574654490287 
4.6146235702109735 
5.219888514823486 
5.088884262462606 
4.732461036482546 
4.543639859358612 
3.8688192574481377 
22.543254691706007 
2.6071719079122833 
3.5002547393417474 
7.0392604687341365 
3.968409934335284 
5.082492909265997 
5.326647812623283 
6.115211847045791 
5.990566729485045 
5.3433097787711406 
4.257792124882344 
7.293181724399083 
8.248990485362736 
8.329148154593055 
3.9812347026016925 
5.398265351925558 
25.89879335588751 
5.255262856093506 
3.7961008770218947 
4.408779827391779 
3.7498491168283126 
4.206814807707594 
3.1762271704635734 
3.4891256991386457 
3.190850188139451 
4.094651618074178 
3.8782147491022747 
3.336362993127926 
5.606084328726549 
1.9297184551883628 
4.454293810456202 
2.97993817347975 
2.748896003839522 
2.796626656684346 
2.827511770426963 
3.036466377122126 
2.8701693320481407 
3.058479732582059 
3.097928342962332 
2.909650853879855 
3.9287125269124776 
2.38726456139626 
3.294214229693602 
3.403979968717707 
4.340223031807412 
2.41409886987091 
2.806894922151228 
6.558786672230879 
2.9375960424570686 
3.058127097147537 
2.8889459514855895 
2.9434485613269246 
2.7481074647910377 
4.368987970176652 
4.320883941812291 
31.29390613747179 
4.077077323675972 
4.0495622165097584 
3.5324913323226794 
20.787387420846244 
3.2447028551016017 
2.919701922334648 
6.6016383331529 
3.664476912873404 
5.990602242637402 
4.194786462618397 
4.308281576091661 
5.134129232241566 
9.463721344851828 
3.9718413662353287 
3.951102049648761 
3.66533641294217 
5.587441322373006 
3.0077434620104198 
2.353400928098313 
2.527180974217998 
2.833587594460857 
3.530161339753108 
2.7746718808595374 
12.250745040483585 
10.070443388301843 
10.26607131486679 
7.9224087683837565 
5.3305114058404355 
6.354751209856415 
6.482704713030013 
4.157558270385896 
4.461994768204313 
4.216032712142053 
3.413943080169098 
24.033527977001587 
3.8304940761725295 
5.305369114541281 
3.0992978673955407 
4.921145899926728 
5.639174921473927 
4.682834916947157 
4.322797132975926 
6.2638029534192565 
7.649592217300621 
8.029202156874678 
4.6818646820530985 
6.815710963983659 
5.046814118983456 
5.697132112749785 
19.806214266204055 
7.9294296685683 
5.794670728702389 
5.968237314315684 
5.182158564073096 
4.065034935739563 
2.8067147123966287 
2.706000257440603 
3.0458945873836165 
3.5068525398405974 
2.7683800991714658 
7.39279800693611 
3.643975116326712 
3.51263046399506 
3.557942482167135 
9.303024288983979 
9.272374691611862 
9.190611802916909 
3.7303738998930185 
6.633896816224076 
3.713476941910445 
3.039408939306199 
4.398910161065562 
5.858790013292567 
6.149370214984185 
7.413193041642549 
32.867145663318134 
7.753873752606084 
2.780912736849796 
2.9323466320891423 
3.3802726921878814 
3.169249505359608 
17.10433835607322 
3.250255125894722 
2.487701305014698 
19.264364182944025 
3.1293669392592465 
2.9624651187976228 
3.080847732191182 
2.828728183361289 
3.1368691847697963 
10.597587166726084 
17.59067013386706 
3.671451387267147 
3.0066752109594446 
3.4575258412581777 
2.874277540886174 
4.219528262552608 
6.706829371819973 
3.6641622426083194 
15.771515870950397 
5.168465705391964 
9.456982555371615 
3.4957487767681146 
4.784635983837803 
2.3336723281944307 
4.6073932997951745 
6.257067386259404 
5.48479540421674 
3.7306647096548295 
4.130359519305967 
3.413103930138241 
11.035597400391325 
8.220780386987416 
4.2427439155120545 
4.993419384918399 
5.934549013553919 
6.149131073390516 
5.487781046596345 
10.855361116405014 
7.834223518678252 
7.310178412954406 
4.694247837222131 
5.854099299970272 
3.361927193154363 
4.272264650078115 
3.044009198506086 
3.6562454553852137 
5.853256865962341 
1.2572813841316917 
1.815019127347699 
3.0566699158932895 
5.506342706456464 
2.780966921388414 
4.727759539240348 
6.13861784393496 
7.113280032395983 
7.075205686837282 
6.039993983385514 
8.889955556663265 
7.626629589694392 
10.857677057311983 
2.6890316109511674 
3.297922913339213 
2.8856230454516028 
3.0794846296593024 
3.1584627010079767 
3.161279786435704 
3.154102190773579 
3.082513123535143 
3.199008017030747 
4.288820548146125 
3.5911746916482215 
3.014646036111815 
16.495773829918964 
13.68825727678707 
16.122748571078088 
14.917262990133272 
11.51064545937563 
11.894670763051614 
17.113367037601865 
22.79814037451586 
16.401617695299695 
12.987522529968624 
9.787501070903518 
9.059669229087095 
5.041807927907703 
2.1627659674987574 
3.3587536646534875 
3.3732323333738408 
3.158048332583799 
3.469145875290854 
4.1521020784540665 
4.476462671501406 
2.937320673028064 
2.9569578135670764 
2.8494208982518052 
2.9542500578406927 
2.921639240176701 
2.964078192239994 
3.0648633415222815 
4.5397757373968775 
9.6188052344262 
6.915068418502074 
4.6621987760369565 
3.671428100402737 
8.239701768579557 
5.966562541068891 
3.037637081242527 
3.0318187733176263 
2.4912639124183302 
2.7373495205286305 
2.5038637812838056 
3.6933484864285533 
2.534967912243174 
3.186717311299275 
3.0797811388130847 
2.338678227970898 
11.80587600308283 
12.281085317021772 
11.968942656942566 
8.676558005869829 
7.550551621223268 
7.984414250137787 
12.945489989574913 
3.5417231495958927 
3.58771682331654 
4.0270323808652115 
3.863703889031927 
3.839905735944599 
3.093025825964001 
3.03864499733697 
13.691605720089653 
3.2076269653929366 
3.4336724984017915 
11.833410106779828 
3.2223572994839422 
3.4687447733152905 
3.136151891752103 
8.057038050653873 
5.829311401922985 
5.788061204812738 
5.157607978391895 
7.688821686936712 
9.699713498194848 
3.4122575712570824 
9.99250652030286 
9.632178844077286 
6.718305979778519 
4.675718183974415 
6.825684550520621 
5.0766985806033444 
8.462298788945928 
8.173229188898432 
11.343789855982633 
12.403526350928411 
12.176797155536365 
2.6255179375734814 
13.946860290932076 
15.955093719647973 
16.003103461884052 
11.829856673646695 
3.0590770605743383 
2.715167306441654 
2.6100904456646608 
9.774799843724002 
2.9996952524986638 
2.6381532227354394 
3.2529993385384626 
4.813902424843402 
5.168773443205292 
1.8297218345376778 
4.812074209822337 
4.3050786651091135 
4.297931121063771 
2.0110906866421 
5.871105464248058 
5.114010912758432 
4.01373430551268 
2.8136763134565217 
3.3379057761505293 
5.172353316737978 
4.226350935671107 
4.190671125299349 
18.241145958645674 
12.766939797606833 
11.02767604441113 
13.758591957001146 
15.057469110545096 
15.044562634855144 
21.253641666323535 
11.284841760826561 
6.703568259937898 
6.261452241156297 
10.113248722839609 
13.17696991610846 
5.7001868306085495 
10.94755885578731 
10.788855686571953 
2.8919583215941373 
4.371009122180172 
5.841938969011661 
7.236089064896968 
3.817764812260015 
3.408546056818369 
3.8903112280449386 
3.66447632917558 
1.9309700011691138 
5.628733944586705 
4.642504037187283 
5.759349716489606 
6.930925207076252 
9.725323384461598 
6.510544390519045 
17.17300999662408 
13.457478073566545 
10.581188883235383 
11.734009638965693 
3.1274903790532576 
5.678213908252047 
3.412336848782573 
5.429369590341395 
3.3694942038696594 
4.366232585675582 
2.452771531544845 
2.756329622249524 
3.424461053648108 
4.067429982133553 
1.9397354159072446 
3.4334747707531497 
16.21212983516403 
19.656224969869214 
2.8354489076746545 
5.501056700663431 
4.767801788791752 
7.36224747125585 
2.9700479296250237 
3.759084556183235 
4.2689877744343105 
3.926253805714308 
16.677537125487408 
4.5381581217946545 
3.619318732329731 
3.4973363080241118 
2.073413086035959 
1.8228736402843833 
2.9437049129232538 
2.950580774057931 
3.3520284633245754 
4.409101194998334 
6.199438324785922 
5.0820230567408435 
4.253886335103256 
5.311122982140674 
16.70798853763818 
8.29482161572706 
5.6383824521934915 
7.7974780661813075 
7.492606269229529 
7.557346067335132 
20.234798778984192 
2.784999231722928 
2.956848542158668 
3.159765938898178 
6.601436485717285 
3.0360789042873644 
2.6536973419486847 
12.323230673481302 
4.915002767212347 
2.5641760314831603 
4.180622974910178 
3.532753774132883 
3.753022695187868 
3.6294661112671056 
6.002684135772921 
7.67820084325319 
2.4151286977957676 
7.24020538229457 
4.717583679896811 
3.012803088398529 
4.52823104910532 
3.3310127121472832 
2.932343521517813 
2.552188244773558 
4.03609705897731 
3.5061806508394993 
3.166880269460672 
3.296171964870936 
4.072980988730228 
3.4219867877700096 
20.720191749028544 
3.4312823846625773 
19.000239378852893 
3.598992843682796 
17.48604990337355 
10.591456671006416 
13.959886637441905 
15.687709601481592 
5.419200329392557 
9.952275680890653 
11.697056052892515 
14.050474650122535 
13.55721500713618 
8.143006865395483 
13.437048200771658 
15.334206190256243 
16.6179634504579 
10.34851556537869 
16.830737251495023 
15.890047419017607 
17.416262923173473 
27.701447464853242 
8.736460865286402 
17.079016582503073 
9.650277862647508 
10.994584963368514 
16.056198856558897 
3.0465611858901918 
3.6842580526985897 
3.8836076001886344 
3.6821483340227883 
4.6799032216626015 
4.68886728107748 
3.816139631518 
4.308492959561962 
5.442733286721741 
5.923107969398461 
5.982116039628104 
4.856472906024314 
4.6474188795738804 
3.3423027556885803 
3.8515878200890428 
4.712332657460025 
6.303557862211916 
3.87958916959658 
20.362041236059483 
7.883400078523818 
7.914464705868096 
9.171497523359896 
6.5666003713370795 
16.10503851162339 
3.877092943818422 
6.619667888683687 
5.148834634835564 
15.171296748129375 
19.452342339327707 
15.528331966681774 
15.42562828500382 
22.385393884937866 
3.206272263971553 
3.2369516090848607 
6.5612488255522265 
4.828181425465996 
5.207770314968345 
6.07852929610891 
4.580300971814615 
5.9202418159215755 
4.239637375933505 
8.806305881265747 
5.236175277907833 
4.4701073544189995 
5.355128555309956 
3.291692051476649 
3.452081280292557 
3.983632314809968 
6.070529272887357 
7.419924229675235 
7.524631733962516 
6.5911293521346925 
16.677392638409717 
3.8834445206095927 
8.555601212150558 
10.549149841518998 
13.631862420053302 
11.035008377000093 
7.000181083495718 
4.030286233093244 
3.347951146165713 
3.700647145564339 
9.422276958996838 
12.650067412929596 
9.100944010266506 
5.609572679517161 
9.255044759893448 
9.685707035951898 
6.767493206945197 
8.447094818281798 
7.861509212659756 
5.211002814960566 
10.729744475479956 
11.357625117474463 
5.671926659905867 
2.724960015572484 
2.876728808674688 
21.11924837739604 
2.959946440104362 
3.0707620249437717 
2.9350758949972895 
2.845835466011883 
3.125072173286049 
3.0557729308499715 
3.733912786123789 
3.9569297488744617 
2.412216651030199 
30.921174211408783 
3.0202490825534873 
2.455415515406172 
2.671768090221019 
2.5461117484316897 
5.743489428210142 
3.644029288112695 
5.710832362999736 
6.291150395772997 
11.926385126297196 
2.20080631658124 
18.308686988150164 
15.001031674037197 
10.08378647177496 
12.834984591720954 
16.520764022943457 
7.543430364767954 
5.9918777116027195 
6.440283357367171 
3.280625003614733 
4.414202565068138 
6.400475853991357 
4.754291708277977 
6.5432373219148845 
2.8179909610957785 
3.412395884825897 
3.4910357415299496 
3.4454230315798764 
2.6807233087568854 
2.9425708697880557 
2.741789316822366 
2.725009281003992 
5.998214803064986 
2.6314669020360295 
2.766346674136805 
3.047024210489199 
3.088145436304899 
2.3840335240393924 
7.647432197549132 
4.428297677660823 
2.375701637343898 
3.8600814842982407 
2.96948499706058 
3.2184992669772416 
3.6547195776679393 
2.845866956265416 
7.8893909797804 
4.722865554604306 
3.8130214936976126 
3.676796224939354 
3.475903340275926 
3.9680069551186232 
3.5458084915126884 
4.356612606432107 
7.971108741225942 
5.679946323044809 
5.503110622537667 
7.266419082884307 
5.952712406554993 
6.699108098648366 
3.7073978791435636 
3.383443132101584 
3.028193943558185 
3.218661754884851 
2.6174347584012403 
3.0420684635562525 
2.809639446836345 
2.761792011826015 
2.3221392447595446 
2.085359706827079 
3.1033506409931064 
2.8854043833532277 
2.990942457404648 
2.9503686939552662 
2.857548981033717 
2.5689755232902636 
6.019174343352336 
2.8680811033910785 
3.13871296289087 
2.729825163938574 
5.736114850443749 
6.509496517319622 
6.475163537688399 
6.150716274115882 
5.620689799731083 
5.714856305890611 
4.437044467741948 
4.25085501520011 
4.05173773702322 
4.277823105098196 
3.398041163910572 
3.9423455513349244 
2.873678737568297 
2.984744817000272 
3.846751671066309 
3.2493880428395916 
2.6936917451653843 
3.768229228657812 
3.085611585183699 
4.348134201021484 
3.070835477976639 
3.2101727287609636 
3.0985478504390573 
4.316327933360281 
4.681968767403405 
11.24703399972754 
11.61447463558757 
15.506291824668988 
11.658325307074938 
9.328029139731045 
14.228326764366209 
11.552230039503462 
5.976456971575365 
4.304465841191785 
4.669025300042002 
5.882951343599346 
3.1690220997327323 
5.6062553698172515 
7.122768550903763 
6.526956920954374 
11.693381805927325 
11.570928564677226 
16.631774284363285 
16.378989499598315 
13.990130667032242 
14.136658327832569 
9.006192397528329 
4.973604353915973 
3.0399550692102117 
7.884683424619193 
8.465631015981177 
5.70174714724007 
6.37172507822699 
6.182673588702061 
6.859491624183664 
6.489616492740625 
7.105582715817213 
7.1997792074140285 
6.191549760809754 
6.2837225425706364 
5.631257628360784 
5.785437495424551 
5.8603310909236415 
7.60211738829142 
4.241731819105267 
5.645631679128574 
2.7504645887726116 
6.486224817925304 
9.901882008046895 
5.394976210792943 
3.24602197987879 
3.5582628046240004 
9.339645026949876 
2.577601257811793 
2.466951998201437 
11.50168159758934 
8.365880167225061 
12.344547759952107 
7.76831695041747 
18.23380011554519 
11.948720241580666 
6.585277124951198 
5.243363633043338 
6.20360618339877 
2.820216056355736 
2.5320120751252135 
3.1181572010753618 
2.8054054617740496 
2.5272832279311874 
2.970750884217635 
3.200395460783914 
13.679780575804719 
6.846137791488199 
5.77760548342083 
6.4861855984597945 
2.7606368392581984 
7.793804101919057 
2.5594262554971587 
4.029144488361695 
4.094418406349638 
10.310818265946674 
5.939807566668337 
16.692128962534976 
3.4922475644592113 
17.17499976088327 
7.66631431895948 
10.66291529718932 
4.571562543123198 
5.168211002780141 
4.725697999474261 
6.397841398561259 
4.537417576944186 
5.127677446806183 
4.556202625872732 
9.077190120234743 
5.052164796220785 
5.789814969233658 
4.792017635243242 
7.426839548486732 
15.193058390877525 
11.020510368883027 
10.656822666353975 
9.705473052413938 
12.997871571705822 
7.243187371219963 
18.139023404152287 
6.70049081831453 
19.811664357922556 
16.957813450932917 
8.090021491489882 
7.663602378317941 
6.264684024051631 
11.886665610159488 
9.251784044358107 
9.408300120930662 
5.989116599897726 
5.270155934626253 
3.5218917449536606 
11.385077423508287 
9.790159595781653 
7.546229448271427 
4.48103874094326 
5.027356789729026 
4.854329274752913 
4.408970104500392 
3.868276744491185 
3.4831593486363106 
5.419539325505345 
4.540757340363485 
4.908803691571607 
4.696825792656785 
7.925338149302377 
7.711131317681164 
3.2681633027529733 
3.7640590013678787 
3.339176655318725 
3.7986755111711106 
4.111027586224617 
2.9824013151219297 
3.4098550172821778 
3.253609400089796 
2.528536797769553 
3.749121220545443 
2.6604781830196575 
3.4565505796768483 
2.194867354108083 
2.6784247177151674 
3.261394404146323 
5.137478051121573 
4.225020407475846 
9.846993269702013 
6.0881932058545924 
3.5780023676142565 
4.220364924491321 
4.099695566911718 
5.613088347106045 
4.8802732166585 
17.818165388031193 
21.255589121861473 
25.050788277975563 
24.918148076082566 
10.619409636545361 
9.124168550198911 
9.7433190732359 
11.355475798410104 
8.858865722107488 
12.227463690880572 
2.456707426554227 
13.195763719491401 
3.6227074818030767 
3.1493653312125645 
2.852760693935889 
3.3496929406398896 
4.815944141088364 
1.9076392223758218 
6.043035593928722 
6.30254535977986 
7.735264000806324 
6.596229038357752 
4.84514101407232 
5.514221334978279 
7.278656847790649 
5.002605725242486 
4.953587625057986 
3.4755901512998175 
3.4338165651644923 
3.8314153266835653 
3.735566412350467 
2.832100508724632 
3.6520304044757834 
2.631634633613796 
2.436176926690903 
3.173532710093481 
2.909200510032293 
2.4805314557812843 
3.333611162800889 
2.5177149567585806 
2.886256674193381 
5.730568463779869 
6.680023129530564 
6.147540341381339 
7.878470847364066 
2.934710516216378 
6.493748203154162 
7.038150619879078 
4.374329114958834 
8.415728443732325 
12.410369137158558 
9.047590265632525 
7.592015917557206 
8.665045030622805 
5.290493065069393 
9.53937875943375 
5.1887243216538845 
9.901681882025855 
10.949124125797782 
17.798577814413786 
13.434769359380914 
2.5932196820638036 
11.99358862406885 
10.435497301824045 
8.82596952808083 
5.341306550581026 
3.4541339701235403 
4.717762645326591 
1.9930953791967165 
3.0100662599524117 
3.6837398050337273 
3.5498920626531043 
2.962229434089699 
2.7626028016849813 
2.5778613831548434 
2.93491358575278 
2.979002505509743 
3.9814688993532124 
4.416972545821951 
4.596036429702499 
5.971693660102767 
5.821781198463522 
2.491472657216265 
4.3556144979486415 
2.405653601403904 
11.86713870894791 
3.33201925945367 
4.786057120627421 
2.976429782600607 
2.460298867165366 
3.3118143824598336 
5.186787502876414 
4.4122545841686 
2.8545946455700317 
4.004424612422828 
8.155523793456089 
4.35711547042436 
4.184862596261568 
4.76624087980136 
3.9094320449574447 
4.417142990205381 
7.857308657955477 
8.003262896097366 
11.68642680172851 
10.346828405994177 
6.4317192831353625 
4.601600210514626 
4.945179519119261 
5.433616421555382 
5.126757402418615 
5.433313494860949 
6.392035142115863 
3.709846132595209 
3.3727922156270087 
3.09281894630086 
3.0189991209370826 
4.420599718234528 
3.2221879824061417 
7.000603873908463 
3.1686031011192375 
4.341189929653479 
4.176686962451743 
4.084128947547846 
4.215674219163011 
5.102760969452048 
5.04797383252173 
4.582431107796247 
2.8815490063113787 
8.184583831141932 
10.917098829586603 
6.556508435530021 
8.538761451493851 
8.795515257822233 
9.85325006915987 
8.11515942119467 
5.4217192836099635 
4.787630235647053 
3.0608436410796105 
5.075649220415017 
4.4056853463711265 
2.786600722129065 
3.527850220907352 
2.691443090670401 
2.8141641789481904 
10.144000367200423 
2.863473855371845 
8.600379467080728 
2.8271310454115786 
2.8182284282980476 
7.866278721816736 
8.803908417570193 
3.0550016024793885 
2.5406853540765857 
3.3694899006883965 
2.982838994732742 
2.9524632099840535 
3.10576789293747 
3.273917323998754 
4.647824041066328 
6.191667342170283 
4.04133592377613 
3.176007197029537 
3.3946928945248604 
4.815179620807877 
5.9964983619839565 
5.031677014830121 
5.084694803055479 
4.949730263504144 
3.177382768441968 
3.744763199216759 
2.722393520185014 
2.8008696794840504 
3.1011625203583137 
4.580026248714324 
8.783313454040318 
5.448230872673563 
3.8702662999695754 
7.161125787328507 
12.064326297026442 
17.030180523769644 
12.490560182616292 
15.720805209176701 
12.354368363404458 
9.079481907794964 
16.122856592769367 
5.077894213302841 
5.386140357177402 
4.824844303324825 
4.945969045604943 
2.9976795845473787 
2.791090535923552 
3.992442213428419 
4.100431048762572 
3.8649818736538744 
4.271425745936521 
3.5848356889977806 
3.723017257729126 
4.161163236091742 
10.666296113133427 
13.63883559962223 
9.066169809954712 
15.738043155919215 
13.005911478690752 
5.034906874572682 
6.501002538558772 
8.46391818117238 
8.5010615137099 
6.753626668552481 
4.398143908607004 
1.9848278628527003 
4.393574803591395 
3.1351525908335676 
3.2817340769053867 
4.759267412830166 
4.6977753182153235 
15.490072234101055 
8.47605063631442 
8.079661172595983 
14.36936845943455 
17.047067041007143 
4.040501559728361 
7.474213375336178 
4.7560385821800635 
4.316351602207464 
3.5480759766339256 
3.8669657069770365 
5.056123254629869 
4.071944930266903 
4.071300555294969 
3.4116007228459932 
3.8179142473729266 
3.6978526647136394 
4.45717660856703 
4.232132974563378 
4.344134544873833 
3.4688375888882517 
3.465214565752272 
3.499251583638317 
2.9268500745500172 
4.041684324455583 
5.253677856786034 
3.611066126090998 
9.393812804729164 
8.832020832092713 
3.5472856808416844 
5.236390910266427 
3.8560482975097408 
3.021288833238377 
3.9160524886646524 
3.0087873190437486 
16.775810270573544 
20.624620664731566 
5.792566092871294 
16.92964893928623 
22.419176842144424 
19.247115167866 
18.23776888419063 
2.647561715297728 
2.674158111102907 
2.8254530278228525 
5.370525652351287 
2.8228166176899463 
2.6861916678903652 
5.9318648848966555 
5.149565497595207 
3.0324267468098753 
4.5561662615937095 
5.919821269036703 
5.034770372784175 
4.088457285537715 
3.763864749032678 
3.820087682505143 
3.7997690569007045 
2.7331242783054854 
2.87194064219549 
4.095312083432353 
2.9105697685018703 
3.368989857201258 
3.246727044938733 
3.241554176092516 
8.886815828129611 
11.247432747272645 
7.566143361310443 
7.100822115301616 
13.62879727515774 
13.794131289409696 
12.60262574238288 
6.29827093907319 
15.317327158170908 
14.883226238318175 
11.374686595100318 
14.012317398300588 
15.71279021741877 
21.103677979209237 
15.032093233721051 
4.649654857063137 
9.781101976821226 
6.1274652961599205 
6.172145887899175 
2.2208601998750237 
2.7389354552414247 
2.708080459807148 
2.190609262643714 
2.8545680507982296 
2.8789654619565765 
2.9743829514092393 
2.9755642448828015 
3.1904575511623277 
2.887619698421922 
3.089178390317409 
5.026747629402739 
2.8127932626239773 
3.0590751663731726 
3.041715413668098 
2.9603476191337976 
2.9277255129072586 
3.0192006010305366 
2.904578600368401 
8.833909932369671 
5.6915512334460585 
5.387199385870081 
11.935681772793844 
4.994402978029564 
5.023691883438354 
8.286263750221137 
9.248797734999194 
3.675614226166972 
3.3242736855359962 
3.944826473356122 
3.4887350440665883 
3.8784158066602306 
5.67852914048078 
4.87945514653048 
4.833787672460814 
8.336422001735539 
8.57546179904437 
7.431534121117874 
4.504991932488551 
7.6947326794568545 
10.848502520810474 
8.51795571912062 
11.864314430979865 
7.9722819954423585 
2.781382982464835 
2.392679383994743 
2.4426785119088743 
2.821418045337856 
6.611161326901681 
12.651283599855532 
2.974569409716481 
2.708820632327822 
5.04848946058186 
6.2385662439011655 
4.774019966359841 
2.0647989235550877 
7.929146051334071 
7.1614266924052705 
4.606094272025401 
2.9199622873062427 
8.466692419470734 
3.3865795520572806 
4.07173586937762 
5.867919285591518 
8.763284571342826 
4.8950123659539075 
4.465632849013042 
3.157174122012128 
2.5775962831771384 
3.4418943106295874 
2.5090295304518038 
3.0151311489102017 
8.660078117030082 
6.783045022388571 
6.928776964590403 
8.545861562098889 
7.337361822479587 
5.036393227120573 
9.421207687896288 
5.530300783820739 
4.350309113958051 
6.876686768169439 
9.694009184986728 
6.3687938666183825 
1.8105998895104067 
3.9704059781448406 
8.15349312890252 
6.526511993399835 
6.113610172243822 
1.568490529782448 
10.468171440960003 
11.218511656742209 
6.339306933243983 
2.1784972579081128 
6.3942713670140305 
5.849325817627247 
9.185699188359878 
6.012477618037395 
3.8592853955331785 
2.0307777867025645 
3.052950778032051 
3.7118428959228456 
5.621507935653131 
5.18965208183788 
2.9756303759073193 
4.132056414992957 
8.112884824691356 
5.37139865152897 
3.212660383618187 
4.333086389560889 
4.15627408526885 
8.093187591812953 
1.9684910201155992 
2.428082031365718 
6.848885921306042 
3.148298331293006 
5.088875810870637 
5.04450981751376 
7.074171540145978 
2.6097038823975907 
2.221347588893434 
5.2299842401813095 
2.7390287546952328 
2.6935761846117137 
9.1752805207873 
2.2124646027103094 
5.58604205869149 
4.08888903538278 
4.52606298322794 
3.054572147681574 
6.688706193022791 
6.0993201196926945 
2.0970599054725434 
6.834483990530581 
2.7030073613526455 
2.7387476420940686 
7.0953934869482165 
2.9988725564867624 
3.6314645800855962 
4.161641202893745 
5.4053074763228555 
2.0190646509448316 
7.9635952314899905 
5.289425434848794 
7.33011083974788 
3.30422381655479 
7.593756641199406 
6.54182320707305 
7.049816486979747 
2.856088221374915 
2.246635280179684 
7.406325335290496 
4.560191711573401 
5.49783543467552 
2.9588741320363354 
7.544398330669385 
4.87628503700538 
2.670509520667726 
2.7022521185032056 
2.9063671269117908 
8.423799238500248 
6.162392234969189 
6.254026863038548 
11.400946845658323 
8.60672717159817 
7.747874746853532 
8.216618806357705 
10.835519292028332 
8.584648099422122 
7.34497259752062 
6.925298912783967 
5.218502443336682 
3.650483137045531 
3.8857253757981836 
4.199549188619522 
5.540526827306387 
5.456911456871092 
3.7496501803449465 
3.9739052358329006 
12.817100696797832 
10.246531319009009 
7.791988779258346 
7.367281011315732 
10.228951342750115 
19.32840724951993 
9.458218747238142 
8.157533748971785 
10.189395411259799 
3.194971999929079 
4.965537383853247 
3.0814194104055708 
10.247522230625064 
9.077094943693197 
10.889838587417653 
3.093777603995572 
2.7731766301271543 
2.8145185904829226 
3.229965837791141 
3.0029437217890123 
4.053694117805552 
3.5224725750049584 
2.045673596414703 
3.648201996030831 
2.60706983212606 
7.333945770888055 
9.968370027933982 
8.715419882534016 
5.816521666874009 
5.996096609547708 
5.708211583609449 
14.197945234452398 
5.953367838913215 
6.060384653768394 
10.42292522747523 
5.238838105616431 
3.1953067645327295 
5.9823577157974155 
6.733633552827532 
9.55414718115619 
4.959119053369436 
3.6546320771474554 
3.9385669933398413 
3.7686514350716034 
5.952803507663838 
4.574280659431227 
9.253006828336925 
3.354554252833022 
3.7942019422516595 
1.968628436682337 
3.266402965252985 
4.087393309094743 
4.731799720879305 
4.582221261395758 
4.71673553225816 
4.02357044076891 
3.0963949283245666 
5.19539790666149 
4.357177826817304 
8.728030634448372 
2.8941928477850043 
3.164722239189276 
6.379472659246549 
3.3668098109894324 
9.473452602246095 
7.509547085196192 
8.564237115824026 
11.476658897148273 
10.80593154817697 
7.566468643214874 
9.03259920626369 
12.284582635021849 
6.042615149028037 
3.5133645945922805 
6.533964508935404 
7.236910114386465 
6.239628091557594 
4.919097505795312 
9.114067642599084 
3.721616290237038 
8.203954389678442 
5.027158649599449 
9.133601070574922 
6.736913676040536 
6.132290947252305 
7.999019606209101 
2.8327725033505966 
2.808612653263143 
3.118936376494251 
3.1209657335592507 
3.579183917722482 
3.2711725737066217 
2.899283333282598 
2.8110292045689214 
3.1400075327991157 
3.116829479533981 
3.6708944402074533 
2.9234202434337186 
4.122254787568451 
8.503240413971938 
10.008312787707846 
10.007248990048666 
6.791792381980638 
5.203317752198553 
10.590454849811673 
7.564927216063047 
2.987452569460454 
13.13635801948447 
4.977469191261897 
14.700895602508467 
7.316006129719806 
5.941845728719596 
4.783497784044463 
4.059016442566352 
3.5245946392429914 
4.194516261439905 
1.7910188139736467 
5.9280415747979305 
4.383457652828046 
5.217030757450364 
5.437931042850602 
5.135495722047176 
3.9818194024921842 
26.686916406088 
2.7884561293286145 
6.356592330263996 
9.546766207924613 
7.109101275604506 
6.314996705578442 
4.94190200208833 
7.6606218793633065 
6.254574164884916 
8.805694437325972 
3.901028842670388 
4.0849864608334565 
2.698180795748579 
4.649347668403241 
4.651311255118243 
3.6362212414513926 
4.0859808757891525 
19.22623822761397 
18.474023892787905 
19.85604213685107 
21.130734259616332 
4.567446476984992 
3.7993454115024674 
5.028419287460126 
3.428073890335122 
4.881106828438961 
5.012361013750873 
5.6343703007457835 
2.917319040335047 
5.1406074935416175 
3.268683979230258 
3.8216825210140333 
4.161119380550384 
3.386260615689902 
3.5083096884601797 
3.418496067725746 
10.4510849884403 
8.133128139605041 
4.349653160808354 
2.4196565350110113 
3.220889614357121 
2.8051644669532814 
2.385503819274463 
3.996752724421502 
3.2410754043659553 
3.392966445678228 
3.1353353462488247 
7.417320450109815 
7.362409415247319 
7.343993973314308 
7.3602386681576 
7.5542756860421765 
11.398574932172783 
11.998008424908855 
8.012320566602774 
8.080841555960507 
9.19842591656924 
10.981619727832486 
9.862276401341052 
9.150131821309277 
11.635718448446633 
7.926863968474318 
8.49107900148536 
7.936204310672382 
8.524622424075922 
8.343898792880369 
4.902168747328595 
22.362944335911997 
3.2807291676793726 
5.825120932763497 
4.614732639948441 
21.49878659348084 
3.203426393693086 
6.815482024551321 
10.752153409224501 
8.686606815683138 
7.63353076840652 
8.532301159738294 
22.220634567372485 
7.523984610328308 
11.345613461037225 
8.035229823532209 
9.292536108550774 
12.476200713705115 
19.675888533253204 
17.09810519395591 
22.667951881932407 
8.715002028859509 
14.555526768237446 
3.161451487384845 
5.5734658274999 
4.82712968244696 
4.247184087716126 
5.886200865545215 
3.8399428663553183 
3.025139587480569 
2.8995460292306743 
10.443055074443944 
3.012662152079776 
17.12707285124257 
6.434739467756916 
7.120816073832275 
4.398460450263508 
4.860777552304318 
4.409695351475293 
6.616676103254784 
5.414896531171492 
6.942146506693451 
6.816631641761621 
6.934451123817328 
6.715875734037856 
8.4270996775645 
8.525929018656385 
14.681851549713818 
4.760202597436261 
3.6330312141728864 
3.932392592833243 
7.422551124542239 
5.629042240801815 
4.430019289905709 
3.637845553158802 
3.366981436414486 
10.572856410403503 
16.856454308567436 
11.88545252776808 
8.032997169963545 
4.168035063246372 
4.954731036220128 
3.768679503839146 
6.858678267609991 
6.849936574506209 
5.316106166093665 
3.0572219737621795 
6.12764366696291 
5.940318427303179 
5.71552243733392 
5.674423059831255 
18.520774302795857 
15.957159427935743 
17.517404588504682 
13.91910319229927 
17.067674802658644 
15.7566425201961 
4.755671557148082 
13.864803513171816 
12.321255544630947 
11.659722944175662 
10.09924777394903 
27.677988858725968 
14.816371308942031 
9.897988195910946 
5.094044243714836 
5.5402894272879895 
9.525317727053222 
14.530062619536029 
8.286643425267297 
4.373672158073928 
5.3856345462681245 
4.624512142914002 
4.1022365518715365 
2.2330364330643624 
6.9629866513629315 
3.929574220409071 
4.921192562016054 
3.7749318687629723 
9.186786758667266 
7.064825018310284 
3.737647463445176 
5.760048409394389 
3.617585293711878 
6.503030714095455 
3.01673028458231 
2.5042866636798147 
2.9684569135152845 
21.135768136480607 
8.877095770044704 
2.546686551814269 
2.8135159457177057 
2.86734030101296 
2.6737494346098694 
2.4330983308301684 
2.9593392690513585 
4.0244179356755545 
3.7221924920825 
3.109453293961149 
2.988978988654701 
2.6698511031004415 
3.5066303567687003 
3.174614975667459 
2.724787080844225 
2.8502471767791655 
2.8987749018294062 
2.8538563025173613 
2.330325846678701 
2.723342199651991 
2.668190143225706 
2.4872415424210397 
2.789195502522978 
10.095654271453352 
4.806612095237681 
7.217865234885946 
16.285599372648033 
10.177711901570907 
8.773212039800278 
7.821770662341494 
5.713587495166091 
10.33439568190348 
11.839739734804324 
3.1231879467596837 
3.7294654875691307 
6.67960971790807 
6.684263353310371 
18.01691055444635 
5.250337116719465 
4.075689989639654 
17.207025495547093 
18.358887410087828 
11.70038154144173 
11.037647961919749 
6.362601426900247 
7.861309272404228 
13.020743659255047 
7.98860822591772 
7.754298850436596 
6.144416004854886 
7.197481847264737 
5.943198443447414 
7.627769425482431 
8.825637820068657 
19.161824350323734 
19.309161831594896 
14.665508979651404 
15.327785169669879 
3.219831542947814 
2.269812934533454 
4.104360321738425 
1.9849778189593918 
5.626587423270945 
2.6512417861312794 
3.1519068519356845 
3.1270971635316345 
2.527471133490863 
2.6906457049544565 
3.258670549327347 
3.9578234597866753 
4.403924952277973 
5.778797728242714 
5.076559377317615 
6.086073096328564 
9.97764232915071 
16.341380816232373 
8.973896341262469 
9.23509244687801 
7.487244787741479 
16.384922866165926 
6.788827332082533 
3.0919862409152823 
3.2152758392690446 
4.634891665937457 
6.2881296727953915 
5.263250706580455 
4.032160564452514 
2.779669249858977 
2.9703029863465913 
2.6442628210422012 
3.0323573275467877 
2.8887752026956672 
2.8321953366790895 
2.882559667538099 
2.810503982566213 
3.34797499828858 
10.770842285111693 
3.3280740371474935 
3.0535278966732466 
5.1634107386782935 
5.0613153994751725 
2.704202963815076 
3.628326872397057 
3.5859691090987926 
3.6684952078438484 
2.674545503626628 
4.3935368909797266 
9.373680698719797 
8.759391983856043 
9.34017868301822 
11.850463407725204 
2.7677966300588808 
3.033335154499406 
3.135154998102914 
2.729788614241262 
2.637811129111295 
2.4336246922637907 
2.3468835386257823 
2.305928808561955 
2.6877642061269293 
2.332211019210988 
2.613324713703881 
2.6607979268420743 
2.7293960836105633 
17.47482902575653 
16.478207744303806 
11.369906783542055 
18.8671711807348 
19.919458764311187 
14.481446070926875 
7.671504168125641 
7.7633545554089665 
7.482961066441235 
7.118442109226166 
8.171617024844926 
8.450351699878437 
7.369288093529508 
4.487851981748656 
6.5758950614894625 
4.253687275452126 
7.88645343124708 
2.728326552504959 
2.9221353424858307 
2.791522021054229 
2.733254090196151 
3.467514448764483 
2.8869479959531725 
2.7551695109418115 
2.6295904234917087 
3.0828971303515065 
14.226279976835395 
10.280433314754163 
11.418174938627468 
4.311876666587518 
12.212507101655323 
6.181652404617444 
10.047111923207153 
8.487729288123463 
14.289699104697474 
4.167184706127091 
5.6304159805177925 
4.654130699327926 
2.5244350082860265 
3.7927627205420955 
2.7583063124641596 
4.831690168542347 
7.632460510495824 
4.855429268695923 
6.89774404407673 
5.004252658215247 
5.105157445507835 
4.2123331466941725 
18.00019167537338 
3.0453411249962823 
11.912211695197032 
3.206670898199322 
2.782462330735743 
2.646005817514907 
2.616656035668172 
2.817607862176723 
6.607484694642675 
6.917526593147074 
6.864382357691245 
8.964372077521263 
4.028505707714276 
4.004067898191862 
5.2982393954703815 
6.485385713268239 
6.727139284384696 
3.86635208043022 
2.590547480418711 
2.7570668768991746 
3.3255144578397897 
3.5019890274682153 
1.806009971710039 
3.138077794565056 
6.807707600638866 
5.188386655368631 
6.804396733683232 
5.345715381439135 
5.721036112257039 
9.274953678359395 
5.006262790420293 
9.052805499402293 
8.813715697351212 
10.176718781483395 
7.6612310790080205 
10.633921314459284 
8.637537934903147 
8.289271496021309 
8.676110896641422 
3.8394678577564902 
2.8387138976976236 
8.011179708560551 
7.855815522063074 
7.11644211854566 
5.957103773785606 
4.952430501700474 
7.654338180979459 
6.44446729778514 
2.5851288534530577 
2.8688050234412352 
3.0019635305479135 
2.8310295913009167 
4.5070929886801085 
2.937861743843442 
4.424580764832912 
1.903137797289369 
12.572502338083382 
5.422808268237735 
6.334989750767466 
7.079572983911841 
5.318555149598608 
5.947152293500027 
7.5651428569445685 
2.3163077122414206 
17.043729501133402 
11.222671563816911 
10.771155518956498 
13.173053115338613 
11.3752186616352 
7.349816198927619 
3.055141183111093 
2.821652621842064 
2.9871798632144433 
5.670086738848993 
5.085783352031897 
3.3117643145937303 
5.286630706086757 
5.734550017541153 
3.8163383096876324 
4.176631275593297 
5.2915115579840455 
3.6484886418047155 
3.479446682300446 
4.766181660233609 
14.034786062930472 
5.012946628451702 
4.90175522611224 
2.5346906943750795 
2.9911058283343874 
2.7762496848314506 
2.482568676506704 
2.5709025137269017 
3.0843528020994655 
2.9534282487374264 
2.629925850289668 
7.568772222603838 
4.653678784988557 
8.330102760870961 
4.345175468921073 
1.5385538726767047 
8.773718607292537 
6.1193091119872305 
5.738399280664935 
2.1254694941270587 
3.9319320861963605 
3.2679005857233667 
2.483522685004355 
3.0868005163776653 
3.3727867239666436 
3.5222029465144264 
5.475108172879531 
11.810722509866938 
5.176955699669645 
6.764635343685441 
4.931860147411003 
7.16980953226762 
5.271791484716107 
6.157215347849405 
12.96846750113048 
4.259845223722472 
6.6255829874417 
4.124740748102589 
4.413730392287608 
10.463385504474669 
12.913031178221402 
5.587027117613631 
7.3430046214741935 
2.7295768059957104 
9.264301612914673 
5.241934414860307 
7.967091601537658 
6.855043846078992 
8.509051826322038 
5.445585861218402 
4.7253071906483415 
2.1440902789135823 
3.7517190379745693 
3.84293327857407 
5.59594660816372 
7.451320242762492 
4.7940783870166355 
5.044795316946447 
8.48025252059439 
10.927867165627351 
8.643633185693425 
7.289435871569654 
9.351059279008712 
10.304301319729763 
3.5868534102179215 
9.964918696664947 
13.86907886070229 
11.056989779286301 
12.891113151840058 
4.086770088237308 
4.780034178191241 
4.365054240137761 
4.2157002423573875 
3.2372977301158863 
6.235868175210031 
4.043507701610296 
12.098831854715968 
9.363374234696176 
23.281413636785384 
6.959423213099792 
8.946766368565118 
7.752216191297517 
9.6736548800621 
14.349042242082357 
15.746822403717573 
12.62520597068354 
11.824248549526136 
14.022690967869245 
9.454732293853574 
7.688168751890253 
6.88030231964079 
5.215011511396079 
10.532013771234661 
8.471128418992983 
7.192018483634253 
6.759187296910941 
8.594033144405218 
7.1946474328755645 
13.491627159322233 
6.764769471478963 
8.894976774301805 
13.518926973680285 
11.927816595315605 
3.6230089681350455 
5.108536840829897 
6.335663517204057 
4.752375333568699 
4.428565585008652 
9.205447684203994 
8.228986555198539 
9.372574094831652 
10.044735281713153 
8.875969229529606 
8.610596721424502 
7.867392355693977 
16.75919020185941 
13.587030072196775 
7.877906353716409 
7.80871438597882 
7.105554394515788 
2.8119320873875457 
5.444052932857085 
16.350846542818292 
19.20172077495635 
13.424924934232303 
13.242119334460014 
3.0869902192744654 
4.308197048899184 
4.276757944767124 
4.5306752857786545 
7.6172821818083305 
5.526999697057831 
2.5123288120349643 
1.7941041502007335 
5.413103658595171 
3.3215588427952376 
6.218422264674627 
4.870932654976578 
4.664743328341421 
2.9482585947182263 
4.492136219822246 
2.826990732796647 
5.073855157758793 
6.642012419061403 
6.452995600295937 
14.615670064581069 
16.2140646315241 
15.883217518629943 
17.17382228224715 
18.344407039063093 
20.360110255626385 
20.77864797707799 
3.8428922871358258 
4.592059013581706 
4.089231905217966 
3.526168001169503 
3.315741679289181 
3.8884579961073933 
11.531599801508712 
3.0584311397831567 
3.7164418871596365 
3.077975644492222 
3.1014558046370073 
3.2234877787938734 
4.4209255569246855 
4.954405471030654 
2.8103220313225354 
4.469896771210303 
3.166966633513668 
2.2599214587912293 
4.746801896461445 
7.4456293182581685 
3.778400095105139 
3.0553437193510935 
7.566261579382183 
3.84116625882378 
6.879727101373975 
4.455768843469268 
3.2690256812082357 
6.38501403880213 
10.230719507477685 
7.055667956330152 
8.459414146223873 
14.163534637074546 
3.573335498963907 
7.209991296879871 
2.8977882182773587 
3.1835944811702284 
2.907255870838518 
3.046483763609183 
2.53847377224236 
3.005415928776428 
2.8642315783055485 
5.132103905394627 
8.666075165698327 
9.84037957340681 
10.080587455890727 
13.335885700803546 
12.667876943943648 
6.16847264797933 
9.67355164743993 
9.195437856049494 
3.6922265248038957 
6.968870827754585 
3.8500803039876517 
2.991519778442905 
3.231837122211143 
3.3726623944064382 
3.3790878774522737 
6.2984058809286125 
8.006641690828623 
5.4227532104317016 
7.847211923600467 
8.614175895640201 
5.379682424489677 
7.608819744500717 
9.21146108710224 
7.780295770614529 
5.528679402916822 
11.799667288527393 
3.736299239153346 
3.7130002830953113 
13.323197976170173 
3.99103244077866 
3.9914769315601792 
2.7806101012722846 
5.409894946813041 
3.0872470113834938 
3.405774919601707 
3.8132313227752754 
2.361926437350999 
4.01954194852949 
11.46334939546778 
5.772245569768076 
13.843550007534931 
14.411583191376135 
3.823940995214214 
11.840810375109292 
13.888012099863891 
2.915063370026562 
2.7159113920810047 
4.004821891734142 
16.485382917126124 
4.271591919506608 
2.710265260774571 
5.022569931057598 
3.7303845810224514 
2.605059529635291 
4.7414956907735695 
6.221433805991067 
2.9440562873451297 
5.893875221979276 
6.555243991719204 
3.639235330879984 
3.7707432613683025 
3.846442597501969 
5.036025353339674 
4.651514425479575 
2.057090756198852 
7.471089486521286 
6.434696359733537 
4.998985751386717 
12.913309162893556 
12.366242867392907 
11.741843421634677 
9.026402215554524 
11.638559069668243 
18.14427129455863 
19.116571438204563 
4.390271773777365 
3.752373927357864 
30.335465253964067 
2.8592624981890644 
2.578779369565597 
2.720986257597601 
3.4865198288323476 
3.5199272798936314 
3.731942985349381 
5.959061256900746 
4.449044157219209 
6.351569099352015 
7.796977921975975 
8.667231965204506 
4.708628661049686 
4.889080458774747 
6.105118491030893 
8.427804770361169 
10.484446422191379 
7.162406634834652 
6.253329114604515 
5.3949209948504 
5.475189870694389 
8.603773694799335 
3.280987886141652 
11.51704130499834 
4.936283475469034 
4.901170182688775 
7.079994424967184 
7.925022223685899 
5.448665281241776 
6.111928088703389 
13.382346839437531 
6.377725875295776 
10.495715167834296 
20.157854909859637 
9.966853096262769 
10.750053093578604 
11.61397547944309 
10.024753974511889 
9.807678355948164 
6.348298299626136 
4.317911610352394 
3.286837803979983 
3.20412620564979 
3.6149563692181803 
3.9157595147442263 
3.517126422335683 
6.453594551224026 
4.282187306800974 
4.961849961782931 
5.6808723217036725 
14.38606405136478 
6.250980695850939 
6.831578205991543 
6.015485423674722 
5.493257374014529 
5.3643859327433905 
3.053848968286308 
2.9056996047610752 
3.097277060482944 
2.5613286898706664 
2.447237050561233 
2.955448463392274 
2.8204362520427644 
2.554120623226035 
3.1307367205138403 
3.1681202830569672 
1.561763787264705 
2.5564606467526803 
3.035383771594784 
4.901927238982481 
2.145611934042671 
4.1294531490941555 
24.061770110281355 
2.480580261241892 
4.857562162843116 
2.5555888487339375 
9.867585747384968 
2.7983505124940016 
2.8770611068640135 
2.8236129614489633 
2.6165407402949805 
2.636987017854932 
3.1674780637690567 
2.2926926406789785 
7.081038505080285 
2.7806949926845514 
9.404144163144194 
5.625523276976354 
7.543273602779562 
5.063070207151276 
4.9799298356761295 
6.5983213780296435 
6.597093638480797 
4.083001916848817 
4.652879157981675 
19.026712194909308 
9.315298507488457 
3.3773182456931687 
9.005957551406171 
8.419951114413935 
2.747383008343592 
8.198252212342883 
9.873680027469597 
9.703443288113473 
2.508802395790859 
2.2949863617028963 
2.9312447797369727 
7.356567888836964 
2.5322539764955923 
2.722720839760678 
2.439473961053713 
2.4168060302418355 
24.824330257582076 
4.6189097044966685 
5.967361873504792 
7.70883535896593 
2.6601197644219643 
4.710041431164863 
7.5388142383922725 
10.872327564081477 
7.957687825401878 
9.517873075096123 
14.616666936344815 
6.334302919252946 
5.259293158081338 
5.310896420604421 
6.8814519447356775 
5.527274751024098 
6.825047549524701 
10.608924885461496 
6.599583425874953 
2.93913944678558 
2.817948805684735 
10.717928624191691 
9.135159194823514 
8.298034843604396 
3.668301767270827 
3.8468640288660287 
3.992393742422375 
3.8016961366659476 
3.413798525992938 
3.1501541119306204 
3.2537116611547217 
3.0812153810363405 
3.1901159517129276 
3.1141893070312654 
2.730217520097908 
3.190557547907565 
2.7531789862183382 
2.4097448867372653 
12.7769057586138 
3.18207076234267 
2.875540557973442 
2.8408712546573787 
3.8786912107662572 
3.706958594510203 
2.627304672919922 
3.328755347066993 
3.007641780397578 
2.9884256492193657 
31.721100701211533 
3.1413620882452817 
3.0216263346611028 
3.304534697632224 
6.068274570350165 
8.892059504564935 
9.057681813723166 
5.373583836178916 
4.37684742275244 
2.6992346494423867 
2.8724566418743547 
2.809143348250267 
2.762035492817223 
3.1132344467253694 
3.0285215953118274 
3.1171841974043546 
2.6393108124779245 
6.283974013125616 
6.809468651372605 
9.105813839582908 
8.269361527969547 
7.116263806036562 
4.964124336748398 
2.768521819601564 
2.0981165618763598 
2.749178753254312 
1.975699407872722 
2.2266451452846523 
2.1882939546304394 
5.265303939168762 
4.394522013570794 
3.275028792216022 
3.5219144710496493 
2.6033171698783977 
2.190260646146395 
3.8146378708900497 
3.362252439221886 
2.3620017967625 
4.682707013143124 
17.65178668039045 
5.543049604758482 
6.246306003928912 
6.645052697147903 
7.06613519167335 
7.815871031709048 
7.405430583258522 
2.7062490381676763 
6.108736304074056 
4.032721224188406 
16.695899515840416 
6.946959008686715 
2.782204039755876 
2.7997853498032463 
18.04050700490106 
3.3149741792274074 
3.5099234144211584 
3.272615209169156 
3.2600673028171068 
3.2446891846492782 
3.577915310017389 
24.85754160666415 
3.080096495524552 
17.603938497439927 
13.669288636424861 
5.298095890005397 
5.3622190059646835 
8.711479518503127 
7.423655683828691 
5.2955329636774335 
9.843231774345101 
9.876947984247039 
9.965784525399533 
9.56550336232564 
2.5936487209748416 
4.974764155667301 
1.8511786345646477 
1.8070190557489418 
7.7094606039391635 
2.8752665556921944 
2.879429904641066 
3.0861008217616908 
3.189276204345658 
2.66406587556882 
3.147998568628755 
2.6521158560121028 
3.1705925757108324 
4.606158828317943 
4.165880545804033 
4.271509239584532 
3.7124035583180315 
2.6401145954250724 
3.982355538629303 
11.83701808050516 
8.775487068297181 
7.739881513658246 
3.483825135560598 
10.854248631212911 
13.48634118928181 
21.155870026342633 
11.940740110518725 
13.36072912533749 
15.575425249188235 
11.412528716944326 
3.4603203224604457 
2.622709916966503 
1.9372787966340197 
1.848015022590664 
1.9491746066489815 
2.279887396451258 
3.394629159337057 
3.126246982675271 
2.8650334437231764 
2.639423637242275 
5.540249563056443 
17.248976636060785 
16.655855993112308 
19.37455531575621 
21.746826169624892 
2.9914661485818197 
2.848817651244056 
24.41977643737243 
4.319304657000034 
3.2586654738924126 
3.1727888072248165 
3.5362683451274477 
8.04516036569105 
2.606900816942546 
19.4202429703079 
1.7483053080376938 
4.648524832855931 
2.3139901800710843 
2.76674714631263 
4.697486135061111 
3.1743333678857115 
2.9452503557015626 
3.3036993785815683 
5.769867249919712 
2.763095891448901 
5.739509451637713 
2.77448992877823 
3.1982350084761495 
2.9871023056706294 
2.9193539338633174 
5.343047601324161 
7.382845154319134 
29.744997837412747 
9.929061248484187 
4.818180987848859 
7.266748023939863 
5.712907367314536 
6.481224447031002 
6.3656581649090445 
10.024914896445821 
21.354282553558722 
4.247175987434217 
3.4203857972908236 
7.975220651199822 
2.795513523378959 
14.254798853210572 
12.39507593998684 
5.904429651633432 
20.85487943242379 
21.83500810402771 
9.281578926854538 
5.744311165111312 
18.710161108284005 
14.9270098337986 
13.83950620631179 
3.3661307512120655 
5.559245874771568 
3.280430026092453 
1.6024728897287779 
10.388078843080484 
8.505081268262858 
4.85944546449639 
8.517468111484924 
9.439573218818705 
2.6443745563857446 
2.420369791476796 
2.583968806953421 
3.1271937566019252 
2.1563235574712096 
3.1401610150644075 
22.208822495732644 
3.2137612418903307 
4.038825717617443 
2.5261487204227064 
7.078809815694962 
3.4075128258121103 
4.851203797280609 
4.861243707977755 
1.7858602871277147 
3.8643121145546093 
4.041519839921046 
4.937782341446641 
6.712066179267522 
24.024668059302368 
2.9262769457946813 
3.693120215743809 
3.0733459795133222 
3.992519624774956 
2.709220558387442 
3.3133831796325186 
3.0092068640697263 
12.730053370790406 
9.315311864827851 
8.916176137497636 
3.897161289043393 
7.516003927540841 
5.900765076882364 
6.831696529348141 
6.98219491888812 
11.9156811419071 
9.122690217898526 
9.352283171776323 
2.7918352589027555 
7.874985185000095 
7.409681132160817 
9.624506241355261 
12.21824092366884 
3.2236815142394986 
2.9507405332237173 
8.579939048057394 
4.813085219449669 
4.806288392526265 
9.543550971497117 
7.147176132443928 
2.10364894650594 
3.98023596033357 
3.8929070423187517 
3.0698004425163714 
4.487154788226131 
6.768589101007099 
21.778221633041266 
11.830261943932593 
11.713185395854818 
14.247697513350444 
31.042140337545256 
10.357243615963245 
8.279911071248023 
29.540364655230714 
6.428531692470611 
15.831270813804354 
21.63048872280253 
13.14847054472187 
13.977427398040797 
23.76307621451785 
19.66958691044148 
12.650006603430546 
1.6598623843211289 
2.460157329255825 
20.073513358580314 
2.9465692141454447 
7.792729755993084 
6.888306055221306 
4.702127874322026 
24.074950584945697 
4.641565434571668 
4.543547871968666 
29.786168226456578 
30.345289835239033 
2.9910369237108156 
5.059875365490678 
3.3836219357022728 
3.610596320905725 
5.88451187656374 
3.706625701464613 
4.77236394676389 
3.3953476611845987 
3.403577614279796 
7.133497121483652 
31.465777021985463 
3.8915513753457147 
5.272735726155094 
7.059145277493195 
4.0810689223427605 
3.133885851671037 
2.693472333014829 
3.5464690112153274 
1.1302290779754607 
2.1843417194012353 
4.922414864352382 
4.123921556009606 
3.782798126890615 
2.927964502241754 
3.353349487611459 
3.2003047006499807 
2.455064394019032 
3.1484275350272743 
2.97430680107862 
3.668421705403911 
3.257257509452282 
2.778695164838266 
5.213035508189237 
2.700233638640509 
3.1068592171553586 
3.217650744430454 
3.2043318915582244 
3.5446614366023317 
9.290068602068052 
10.78268981481918 
11.525714704233803 
31.464211873471555 
4.142975045063696 
4.382566533658793 
6.6331235850683985 
3.1189344238231658 
3.404440340045413 
3.882114884198943 
2.896487087461084 
3.4317456483738082 
16.769937236346895 
9.264671315747137 
5.1919504592199495 
12.102949598634112 
9.763300300978692 
11.32980268773885 
12.52867497999597 
10.795121506075347 
12.948794734297454 
5.04900204165483 
8.893719890923965 
17.85470360502147 
21.30538852948214 
6.574252394520903 
11.377785101091222 
7.330390091320561 
6.227898803593948 
2.9439709475529487 
9.264572828093186 
16.49389773042806 
4.909982215713708 
2.666792967940885 
15.230423280841617 
9.591873929561826 
24.667476365481676 
10.0645499557631 
4.038228516765764 
6.691863168261506 
21.167597812553915 
5.5104724222082195 
3.3287396736001362 
16.118712136131528 
4.680116921389858 
11.39936002323957 
8.214152529286402 
10.64656902590191 
2.8208496648727386 
5.6772867348149045 
13.508850904667941 
7.924876547062384 
2.738286272091164 
4.831889996962019 
20.992473474175842 
24.948033769632286 
2.2087270473736274 
21.118695343336295 
12.166923049919982 
2.442913803046948 
9.461683511092987 
10.196764018071121 
20.794764917681402 
12.36193041956428 
12.959043454892953 
9.305291903378954 
8.979396724581541 
15.70029697163432 
3.4328862468221675 
5.0211887647420586 
20.198447264297172 
8.233274671981363 
20.595451257749612 
8.836847802378154 
6.354867721963752 
16.36588158746806 
23.57966418510606 
5.606310630070461 
13.313405078181942 
8.978366854428247 
10.422397335170746 
5.049970244554819 
5.937860877744603 
2.755362457959888 
22.829150921716742 
5.302538144160699 
6.072063593375472 
5.214461324567641 
3.2514384702839174 
7.747937911286926 
10.907863823748432 
3.0310542798804545 
3.38344321670097 
4.732559348014365 
4.266459914267582 
3.9129966903254965 
6.973879655669065 
31.244499824717987 
12.022067270478061 
10.190273081699155 
20.621587322952674 
3.4118879568310314 
3.5062365125322468 
10.068008788157274 
4.604802254278415 
5.2101853337943265 
4.06314074849422 
5.655989856441374 
4.215113208144648 
6.4783730259887555 
3.611193493928284 
1.9463427006131195 
6.236573952232356 
3.265544245053118 
3.567431345413535 
6.714254568158379 
4.901459085498767 
1.9386460579900602 
2.430042898666705 
3.3414386204894684 
4.550071188746091 
3.733226724249699 
3.9867707010259186 
5.289031140899118 
7.936157364795354 
5.74934148751869 
7.894561165214649 
3.19264849068527 
4.167166869300734 
4.487781530580978 
14.36209591682679 
8.976217528598031 
2.888846916905695 
16.897705424636822 
4.061712152476804 
4.558694483161719 
4.433917606747736 
5.475010153108723 
7.311498883679858 
9.580451254146153 
6.1825231394683335 
5.557339719828663 
8.806158406507645 
3.9230321137793767 
7.988188517512697 
8.395558002100318 
8.688268163122576 
8.040662789802713 
6.543867550747261 
11.07527962100114 
6.131364586194265 
8.765364253927824 
2.967162526738815 
4.093979732793248 
15.33329836433187 
7.298693183380261 
25.679987399980554 
5.575131531396271 
15.832138313124613 
8.643803506355326 
13.295957810857574 
15.929151917573007 
15.755744448239744 
14.272887523443039 
19.95518993205696 
6.095068889181697 
14.312399102224225 
16.174034004175205 
1.6998295739566953 
5.849230192638164 
5.067124980856596 
3.2288065170630644 
3.737239441985442 
7.056612296939665 
4.154505463550306 
4.492858323829261 
13.588566008570705 
5.839483101408105 
9.50355631916003 
18.594197185007577 
3.2281063220622754 
13.350254326255737 
4.641921431189125 
5.615464822748724 
3.4979307718657204 
4.341124160701592 
20.297203505265728 
6.34793816448517 
5.544676730328453 
2.735797919725999 
2.458353711191172 
3.510037138862919 
23.860551960596467 
6.187214617428388 
2.3357879139687783 
3.3879554869723436 
22.214282940750316 
21.25966398569377 
31.076273601030792 
4.6599153323365545 
9.108810629854958 
7.249976180461675 
4.167074956444243 
3.3937678604257826 
2.4346483247212216 
8.490601348638076 
3.5645607190512116 
4.35339199760342 
8.567711549455979 
3.9080899587517792 
7.969284886586192 
8.325434544297092 
23.350542525031436 
9.366075414448108 
12.764308598465076 
11.194327807066289 
13.149807134182147 
4.1138429021354215 
8.796240960157258 
2.5724936957679905 
4.427200064243102 
7.706679660531784 
10.44868352300829 
1.848058843848002 
2.1337831041851705 
2.9124611349312177 
9.31602418237852 
5.828394580181552 
4.496207115383369 
2.1296407519052467 
4.423704331242225 
8.426758288420482 
12.039618347217903 
9.427171897963607 
9.348307142402813 
2.6041504731289606 
6.250747669467094 
2.122607318288299 
4.173398306404478 
3.4499098791043057 
4.534192372478618 
3.808803930776778 
4.109948063080073 
3.3125653775829464 
4.525367930107726 
2.1755800508912535 
3.538132049680475 
4.088155681830058 
2.7833083525629903 
3.143623565675221 
3.0925381147292716 
3.2532579017012524 
6.823120850832192 
2.658066434498858 
3.5814318168773758 
5.685280982598301 
6.234612127565068 
6.512935550877364 
7.849461204186784 
3.5659666874404348 
6.987322681073961 
3.7734245749471076 
8.95143012420369 
4.464069448486905 
6.301359646355788 
8.607772790201603 
10.147775266465414 
8.976919561636059 
9.520319312097326 
9.825034634952356 
3.8951215866848043 
5.764507945932197 
3.5422137318051323 
4.790200417781936 
14.473075328265955 
18.111275796977658 
5.730566692755022 
7.945878320932369 
11.136144601566482 
11.339548033941368 
5.561297234666765 
3.8225744864663396 
20.79274511895955 
7.241135007772821 
12.939738209669091 
13.300243326540409 
4.700444595116704 
4.234607831849226 
9.485828751437005 
5.711618331499636 
4.719793967993522 
2.654853350040534 
17.329348284665542 
4.6010225896590615 
14.147460857083665 
4.345102314980522 
6.92111767983463 
5.391357100198782 
14.012625033227277 
4.729332201446329 
15.479062418235245 
5.570732294421376 
2.727977154326537 
8.319003265197313 
3.640836039504072 
2.890631556283079 
3.066320855968262 
3.000942495344457 
2.917549137901557 
3.1815531413710882 
25.999220445930955 
11.736126579786214 
10.910535243552692 
3.8615632373217617 
9.253697791346118 
8.277420686101003 
8.322779777617177 
10.633257875763757 
5.0836067257299975 
3.9125514459944126 
13.173967687731903 
2.6800905556557986 
2.557847754595981 
2.787459061195005 
2.171283656907632 
19.360639511569584 
3.3159474679860743 
3.2381183521045767 
3.788911795493881 
3.2297446318212226 
2.969901485123459 
23.028952400387535 
31.19295434439353 
4.574157668456096 
3.633123350815822 
2.4342249653302566 
28.601157196177244 
3.5477650177022304 
10.633205124695909 
31.064273868889167 
3.908089958751776 
1.3126823315001137 
3.3230640731036103 
3.0015299600574585 
2.7741835270968975 
5.219738782175024 
4.014880748219174 
1.5172654438035804 
4.122208012036427 
2.2821311619186617 
4.921466097536477 
18.575633429519744 
11.879045620269737 
16.071663779774912 
6.744689085820762 
1.8175049986080012 
14.554278512392596 
10.062397235287754 
10.485728302580291 
10.558579268401282 
14.571269105676647 
3.6331320636400384 
3.871470433403279 
4.5487827506630705 
3.0035832416127506 
18.22158854294916 
2.9969225343531343 
4.864054687806306 
3.3630718359319394 
2.5051796393427495 
3.593742386485214 
4.0088465241857225 
8.184023547030716 
2.1543130560308574 
2.721897439054139 
2.0346836133463584 
10.442040675454674 
3.2827525100656496 
6.080578253134342 
4.064139185648084 
10.2692118080195 
10.467695302382541 
7.2016990869507245 
1.8445709665752847 
5.387586381819605 
4.769418087717754 
5.542525684707497 
10.532969413004814 
3.8959543481240737 
6.7316210542893 
5.036333539775652 
8.217953318284806 
2.5351390768581923 
3.5851663604023956 
3.7886835139342985 
8.177031650614868 
8.72323410371229 
8.870205895805311 
8.953016908651046 
4.216190635701655 
3.3081445090889727 
4.903232757812424 
2.371971256389943 
3.9635328495504605 
3.5859385745125056 
6.1314101648395685 
3.171465834599742 
5.723714062104192 
5.9371947703939725 
4.618603969102595 
3.519567976793957 
8.082874395895884 
8.536064206758493 
15.466226554899011 
14.602262436663667 
14.199732081537467 
4.330799734357808 
13.750273070448294 
18.85606764106357 
14.644268847989666 
12.229779771802413 
3.036350014001582 
3.5506863813453204 
3.4254656089973152 
13.467078270100881 
18.13025370877055 
3.2124397333116264 
3.352189440199954 
3.2076183200807638 
3.1914183850555817 
3.3844677561450203 
4.174235175039687 
2.9027735403092145 
3.420082314822172 
3.2806389729013237 
3.6813243609915274 
2.932961679332165 
3.1585560258455287 
3.8370854243421726 
8.851497468698064 
5.5045146665122475 
5.257663504223072 
9.072881152298907 
5.220938418708892 
3.61082955341103 
1.314963536908775 
4.944437408704748 
3.202742841181315 
2.620389936247765 
1.9642925427127966 
2.4254673292777555 
3.000523850125897 
5.41618300474943 
4.170642049914878 
7.889312010382424 
2.945168060627792 
3.7235847000714806 
9.382307482602407 
9.732313361047868 
6.635736364357539 
2.7227055949011705 
8.151821737929922 
2.846556558137062 
2.7265340950383234 
2.3685561570934444 
3.2106715325852964 
2.786245059043358 
2.835540051032043 
3.09618880903771 
2.9085089084170606 
3.1355553544744876 
3.788168762960041 
2.5002976934418206 
2.9876024670189345 
5.297309226463432 
2.8741978460648 
2.2267576269689027 
2.295278608070731 
5.273856472409862 
5.699569476388358 
6.716470723223223 
6.217914201054038 
2.7876336392247634 
5.384903012809385 
4.424308719051632 
16.037900900841358 
1.4511232579184399 
2.442092939471642 
3.1304112988779167 
1.8640314953228838 
13.625821817325606 
11.20066862017304 
10.905358964000209 
10.883796835987406 
2.972484069951072 
2.979916647717287 
2.1054563979291454 
3.7608494125390703 
7.777712208829547 
8.92981037844998 
2.7901350747215847 
3.1659053506112103 
3.866150586633051 
2.855734906118707 
3.606856587079754 
3.639945616488417 
7.459808862549308 
3.6063470064134155 
2.445546850103786 
1.7438459274130758 
3.787500532969595 
3.7240052439468383 
4.962881773438323 
2.065829553787923 
2.296960114557993 
3.669047314308957 
3.0772488841693937 
3.062709481623174 
3.1053206574617387 
3.1639536851860064 
3.248558003032034 
2.022701267110587 
3.2114021769402177 
3.5999807333977745 
3.341351034265798 
2.9669386461231313 
3.021925729807526 
3.2292955301996886 
3.7073663981271703 
8.58219896689057 
3.4003733691293148 
4.99816019292849 
7.703024276190822 
2.069041203530272 
2.3552989291775113 
6.596285906074191 
2.7252945507431465 
5.005985967095272 
1.3989274318208644 
7.313515322611861 
6.3486564611807 
2.343763818485838 
5.845915943871933 
2.2179147641284023 
2.4120677799559203 
3.8350831263313605 
9.275330984696078 
11.766036688477039 
4.333353152697198 
5.900529038039229 
2.927922032164664 
8.415085945052477 
2.6201308671304333 
2.929101213964602 
12.338785648769386 
16.22069095070663 
2.0344324751951137 
3.3834917059193845 
2.8129975771032187 
3.433137053435726 
17.10585628024013 
3.3483457968052512 
2.5109468104849326 
2.219464058911646 
1.6693082292700525 
3.684606352976533 
2.0780661683557367 
3.856961520927406 
13.686468836125297 
14.484747999900295 
1.7351054410684517 
16.025016137609963 
1.5087146653499388 
15.339645327135711 
2.486260633894651 
3.641102874556995 
3.3438460300930037 
3.7789066467896095 
4.004573609788171 
3.1151285418967958 
1.655887059503897 
5.026178211193779 
2.9392064648562863 
5.646573723444515 
5.460083125870364 
2.479856233854476 
7.168748986252883 
5.690723706983904 
2.1245288640222872 
2.5679904130644053 
2.093073416011334 
7.947462658713155 
4.012783699423915 
6.66115997480102 
3.661291729863697 
8.878492791128295 
7.427535039941792 
3.6836821394490205 
6.589108563028126 
11.371700973970215 
4.918079213418346 
9.365768224290576 
1.9108432328618685 
2.3170306966519183 
4.516084378311129 
6.533757080141869 
12.561714934431766 
2.984536675767236 
4.6141513087470045 
3.560099402160113 
5.825504658175197 
3.740145924304142 
4.06265553484136 
9.470366881857506 
2.732052378493418 
13.296716567131138 
3.54344572498565 
3.4234140788753833 
8.521954026388354 
2.6478998918053773 
5.024326431726497 
3.247987962997531 
3.350813118668551 
5.405576183145587 
4.480013663073551 
7.43780322159148 
5.734749259958279 
5.645297148552355 
2.2663175344085436 
3.7566356138363575 
2.0840645740142842 
3.5438594417401035 
3.279306830234977 
3.3420092905656347 
3.007969160429995 
3.088522094377698 
2.228003093014743 
2.692644898485845 
2.5813406739461615 
2.504392126741384 
2.2297813637600226 
3.0611885426518306 
3.2645597089411114 
2.1148684612303046 
2.7457533488243664 
12.457866217702321 
7.1225902683248945 
2.7810088314480645 
4.6143395715235105 
3.7763450778046086 
3.0202328010439645 
6.951002655066412 
3.602145720944506 
3.1211424923428006 
3.463974028059963 
3.0689053547451346 
3.5443895775668324 
2.2051896826332893 
5.486063412746538 
5.65572806020398 
4.414332669369381 
7.572410982610247 
3.76373758461481 
3.7615334835006613 
7.203254507231226 
3.7096950308120196 
5.680291182899535 
3.8663867847801625 
2.1910376496921087 
5.307000070987701 
3.389378420628978 
3.9023245749084037 
5.565224798604757 
3.983786349747721 
4.279231877348775 
3.8516682041558807 
3.60380002732555 
4.896302388867466 
3.904346801796462 
3.939038950493566 
3.623880903851113 
5.043309244136067 
5.623536722947669 
6.309475636570471 
4.543664387411995 
5.9880461106226 
2.4362288820049733 
2.6179180090806367 
3.439116700529027 
3.169718639977052 
3.974616399478331 
2.2531211483880975 
3.7694685665642154 
4.603685512156376 
3.097151521825194 
4.079592743928304 
6.08752079243853 
7.104526329942086 
4.395307735376931 
5.273055951910277 
3.946256396590123 
3.6548786610956854 
4.859826411988421 
5.092457106265861 
3.877467342976711 
12.87854911607425 
3.3547397329228983 
13.43996211667149 
14.477627663921162 
11.181405217849603 
3.8834473372217113 
15.09749964363403 
14.935308523553504 
12.656338743447211 
20.249816554458675 
11.81956698624688 
15.132764212891429 
2.505778292999717 
1.8439023676869715 
3.1938892650771824 
2.3259075243447596 
18.1814975351496 
2.3555268854162166 
3.35284492004683 
13.23883385089499 
3.318564508172195 
3.8982088262448538 
6.2062601332410585 
3.806238901098537 
2.399124376750793 
7.709658376283013 
4.469769631708478 
4.939564193328105 
15.177849087493303 
17.029215912021677 
14.553797748990915 
16.785509864275646 
5.299334733462576 
2.9966531257461826 
4.624044743793999 
15.282644150201218 
12.07629885192884 
12.114580757202797 
2.271222347249712 
2.9336369952771095 
5.268495189169045 
11.651470288072696 
3.0718856405167636 
10.330301215109351 
12.98755952269237 
4.003941035350262 
3.2890767837385244 
16.696630593636627 
2.6998074058523756 
5.634907920213876 
4.364971055834314 
5.13059407827735 
4.671835230451346 
3.620572447101913 
6.83614658155627 
14.171609608357244 
3.5070426924379854 
7.062279526505247 
4.125982008745413 
4.810657626962535 
3.9617096862623 
3.2415419920816673 
3.9374110810372405 
2.2547890816196725 
17.0156837410913 
15.985508566893056 
15.221530832256741 
3.5021763590541304 
1.8616152465892832 
2.265117300434801 
4.563211059306574 
3.2583403085620843 
5.316517507574137 
3.3706494165328915 
4.159985202979806 
15.591286367706685 
16.685697574401487 
5.066397500259362 
3.5498831612798485 
3.7572833806140324 
13.260896390324143 
4.029797083224163 
13.760725136391551 
3.8099844895281954 
4.0980533121969405 
3.4080117275341903 
3.1168925534274443 
4.107984805470766 
5.364124816239423 
3.3947876086966544 
3.0628230737633975 
3.684133064600276 
4.851252483969914 
3.7004659906371344 
4.237228016055153 
3.4858347997471992 
5.695287894598803 
3.105248945861201 
3.904242531615186 
11.681978171376109 
5.765799145645085 
11.002339813920814 
4.619682294471428 
5.353313791864673 
3.53034557757356 
4.007005239874935 
7.538385825617671 
21.052020602756443 
3.8629407105225115 
3.9452818744920983 
6.45342784952926 
8.383916323325783 
3.0391316681991363 
4.953372976181741 
11.104995590392429 
3.917527217630957 
8.710394359505361 
3.3221542337815713 
8.848072891405154 
5.941517765476945 
4.059847816252815 
3.109333092759717 
3.8036408305811404 
2.8406869748586265 
3.137726852573374 
8.894275346323036 
10.875019193649145 
4.869970523104937 
3.451979576741678 
4.565002988804706 
4.220314775299448 
3.7653550468823145 
3.4741137976689886 
5.480797233850858 
3.699429121043095 
5.846930440548494 
5.175513819809432 
4.215257243591333 
3.7138264010185202 
4.049099846210316 
13.131572088219812 
4.372148954225909 
4.110168752673482 
3.6601137511810715 
8.347405201261003 
4.1313565308191995 
7.679707702030545 
10.946020461901771 
3.9209154396172226 
8.205867170330098 
4.713096254634657 
4.176012959900525 
6.304749079429498 
5.917619143029308 
3.041537925458483 
2.989592822801312 
5.9765679000035155 
2.885589352529049 
3.0356880117494076 
3.300763650430393 
8.619412783399293 
4.091524015811507 
3.242124051350229 
15.081376607719244 
6.689003764296514 
5.7719559605813116 
5.9249712369763055 
4.233423079013855 
3.692634767158997 
3.276902760375215 
7.433492817185931 
6.118128467749326 
5.386657373034723 
4.063759176718546 
6.172816272666285 
5.5010957291518565 
6.548962556790063 
8.405019795414733 
17.920947100962668 
10.373382171777642 
9.562831615972014 
6.051723150565027 
3.9515610617649255 
3.324841572983363 
8.956473812462837 
3.559200091293863 
4.4958520891177365 
5.080482587946478 
12.647807681022252 
4.1282621109989925 
13.337631465471107 
5.463043406378754 
14.579474309509127 
10.86657828893559 
2.34759890519117 
5.345689136096468 
4.879005295076943 
4.729539045742452 
6.181948068064767 
6.097208997026051 
4.3484676615351665 
15.534026532347138 
5.196607580347917 
16.327343191347317 
5.447200010688402 
5.0512605188722315 
4.426030801666338 
4.619841309612288 
11.605299040123384 
4.928408897315877 
6.690614876761069 
5.5124044400602115 
6.705368631143945 
3.1759916788156115 
5.46734097494202 
7.865842511216686 
2.518837799544098 
9.92195098744908 
6.0763797017235275 
11.488309836797807 
25.788486960947775 
2.8584340676556623 
4.5139242476106505 
6.232613221443696 
9.714880092287384 
8.01493331286856 
8.893943219686891 
3.4751518709798397 
5.332485816967582 
3.3094500008981163 
3.1062075955048405 
3.910580005662707 
6.36960442440735 
3.0502647087780224 
3.5935013478245996 
3.0597241056898348 
3.3148596526820935 
3.1948415043824854 
4.813787704972045 
3.2907853717158337 
3.2937499011513482 
4.0089975737723735 
4.107418437616046 
8.761106069191317 
3.0582520696979456 
3.8449237429159573 
4.956410683736073 
5.5269331910203 
6.182965980106303 
2.7307609987319346 
4.88392718615857 
4.270125537055409 
4.652320241866063 
3.762668117708211 
4.8052356395709355 
5.59833268394684 
2.9626495122078147 
4.7226209228592255 
4.478628933930803 
15.992798025322996 
6.058807555467018 
5.0325468310319135 
3.797830806532845 
5.594083706972418 
10.605812522689037 
5.513444426943958 
5.203863473956822 
4.302378152795742 
5.848601511082714 
4.1141492653244045 
7.8584087635940305 
8.383592551646474 
4.129256548847864 
2.6369853113198705 
5.9224499393475245 
20.21653194246606 
2.9919054101840508 
3.445180941943578 
2.861995599175649 
5.895737709051632 
4.909586314360302 
3.194898108160215 
7.11605159907799 
3.0079030357989884 
4.176067061260979 
4.3934513326093905 
7.286295006443382 
3.972732813842885 
3.5956914445788106 
6.549418458138435 
6.262018872027416 
4.5317721630030565 
3.7153019193719192 
8.16463653155256 
6.062478225075273 
6.385082981398078 
6.15090238996307 
20.22943159517439 
6.170059017350615 
3.2587901615777835 
5.852922794198199 
6.923982165979859 
10.049836679238474 
7.4697996744851265 
10.202055090175588 
4.760491938427984 
9.072951990852921 
9.020067097937831 
10.968757778428298 
8.020765410903081 
10.902381720234592 
3.0645232841700234 
2.452396492897169 
2.4372844685248896 
2.834662523663082 
2.827844908462533 
4.945871302943754 
8.22082230213112 
5.35068558507614 
2.921887475798117 
7.328283943215981 
2.747164617665408 
6.086070442185481 
2.7363362483044287 
3.400333805622646 
2.903073698190901 
2.7517778355572324 
4.219453613279931 
4.012382630420159 
4.176353859007628 
8.224473178454756 
2.8609034609824024 
4.047379018567336 
6.089395009106087 
5.155267847676339 
5.259379535801307 
4.228304073030475 
6.758420121271249 
4.58664727089841 
3.7716702705759104 
5.241733685305689 
8.768508143935124 
3.2752412707252763 
9.296293482285886 
8.741919941882024 
4.685787977594349 
4.043656527729095 
2.893162675985752 
3.7016624638867976 
27.0102031722443 
2.6687216313304423 
3.4260978466899785 
2.9156341355244213 
3.012049252975012 
3.3083988974859673 
6.672936075787874 
4.495457148355528 
3.1550118363342587 
3.3070528553238283 
3.7882300145086445 
4.7610190206094085 
23.55055127622059 
23.31635554633022 
23.91100339411799 
31.36479443073607 
5.833358531469713 
27.77612714300171 
4.459901047292441 
23.919918090446814 
18.86546882041571 
24.81203922217648 
6.87815934575452 
3.0273215334937964 
3.069121449673269 
3.5647343922115904 
3.3390169428249457 
8.381436090898204 
2.877793297642138 
3.7333014480450175 
3.253198545408424 
6.1057620950511 
3.455003040260671 
7.049263666146564 
5.6314891669114 
7.855721222282741 
4.248119452078436 
10.386414201638951 
6.194433916730711 
2.756371916636417 
10.320313529819137 
5.800604528076952 
4.088454661985328 
8.533762060746659 
8.418041469454726 
5.9825429635955265 
8.74526459251313 
3.631185673798773 
4.444845854290321 
4.66243498547551 
12.436528245437373 
3.28686869864125 
15.693881919927312 
6.805692113168961 
12.84911770740816 
8.781447362736841 
7.279160318420278 
3.48463878505271 
15.380774012615158 
4.325691703958265 
5.401264817316175 
6.882725554489472 
8.960898859010811 
8.191603423680204 
5.808672965399804 
7.8120482373804325 
5.192451496713785 
5.669925362706252 
8.128967621472233 
7.178842181723514 
8.603592401589719 
4.211392442635633 
5.308621132054257 
7.854735039530382 
7.230079784320447 
3.4480641362109656 
3.689711111853183 
6.476261079065648 
3.7675955457517225 
3.606779039816498 
9.350303522904513 
7.964768096353774 
7.506998734141337 
5.501353440531608 
2.9790166748217293 
11.077602153366223 
2.695530459451995 
16.2562712384295 
5.974202568572362 
8.80112851571463 
13.583973408072668 
13.132329713241992 
6.905867453132364 
4.619766210000922 
9.532960664007033 
4.6072361612459485 
9.355869041769607 
10.02077407111252 
5.223627548612725 
10.993696265582328 
5.41232158696887 
10.007241682326011 
7.008274403811763 
5.227064681058209 
5.405226181501934 
3.8540789298254836 
9.961922011527182 
5.621729216096798 
4.789273096586539 
3.5906893988135993 
4.207599770769389 
6.1716559877627075 
2.909789900445433 
3.863936123758195 
5.909531619016882 
4.224833722520134 
8.109360421704753 
3.685849739845436 
2.845667516927112 
2.5234379095031976 
4.802094535758326 
7.684173908961845 
3.5387790296184223 
2.381135173784533 
4.893742928632646 
7.120722574626732 
7.046436738791654 
7.947749341478905 
7.0812327251278555 
7.287057560635779 
3.9063374256758983 
4.019962045966092 
3.045233957355623 
3.7303742830881714 
5.411743883013232 
7.819255267607613 
16.435923929799895 
12.914373427391281 
10.789507112295182 
11.007204548758754 
6.594262903926125 
8.919670278183714 
6.487446668434925 
6.863071161897479 
6.47496008387673 
3.6663129157998875 
6.953526743998358 
5.3823085210100805 
6.132452131909196 
11.69329765980754 
4.116906545138218 
7.748560069680412 
6.900482038522459 
6.828681732785793 
10.225874950619284 
13.050623531223367 
7.366238830572493 
4.050462951211339 
2.6818078150254743 
8.885701693478824 
5.641852803617389 
3.3551008288766604 
4.859036952764988 
6.007633237534726 
4.188862035327198 
5.717558851444981 
5.602422877506979 
4.8834364985130865 
10.713265993016439 
4.785181308336305 
10.865820605577124 
4.272627823293109 
5.972234658260865 
4.845444939151924 
6.128802838137486 
4.145537826691662 
8.376656620331492 
8.504846993767593 
2.9454147011449323 
8.129849924985036 
8.621764411570261 
6.69070310130056 
5.463472546496467 
10.747126104035974 
2.8341646787219728 
10.961600543029288 
14.317876879799709 
2.7844229596872974 
12.103774944790787 
4.676440840369534 
13.804512409378997 
14.802189500780093 
6.52229576737676 
7.737096063533273 
6.652904004276337 
5.439366898724914 
7.574820390213958 
6.41888684169605 
3.2168980942710337 
5.332351232767848 
9.430701367057257 
3.9183749971483 
5.038630134142519 
8.704767319845146 
7.032817189733815 
3.0612801343152714 
3.5258161573631006 
4.707360771884057 
6.68431970343687 
6.855135730835689 
17.10433835607322 
3.0725352493994973 
13.363106146738291 
3.7712915625751675 
5.271193182772616 
5.284897366807758 
3.824515860636147 
3.5962458512032494 
3.198404551064973 
3.3636908500173366 
4.266647940918145 
4.077594493942264 
15.475610185747794 
10.839635193999564 
8.46649571273495 
5.911821808536081 
2.8794108810125096 
9.898545423536445 
6.716252587256507 
9.683909119775915 
15.388730976677857 
3.867701345581639 
7.253522983798748 
2.8861368334828708 
9.711941383547591 
6.330890114162677 
9.053469553380351 
9.362048357467025 
12.411454265614942 
14.389694723267661 
11.650062100005478 
14.185976307116924 
3.545294041824072 
11.081533776825983 
9.251126253535396 
7.16019499850998 
7.619264943286315 
7.6158178696753795 
7.367356472621195 
6.496756371747035 
7.7978117244121705 
7.377715170680854 
7.976812798737385 
9.744513482121873 
3.999387872135008 
7.109941701431458 
4.495567042387379 
8.214966131728074 
2.6438847612474463 
9.622773541719223 
11.065571975069583 
3.8804268147696694 
4.723780258948499 
3.051910660588756 
4.860355723759354 
6.828693954545506 
10.06807782702893 
9.479886435978656 
2.88676833801885 
11.355584507265604 
4.007796725202545 
4.619374208826073 
3.5244826773069837 
3.115465189190589 
2.921129528502468 
4.2626785925276165 
3.0228857901611486 
3.0395356701801814 
3.6216633125380637 
2.7511242112298295 
2.7178953482545034 
9.214021613672745 
7.7420420506465435 
2.7635136961070135 
5.860421821197626 
3.6863947313438006 
10.631410587530585 
6.100215762505816 
12.109857075963621 
7.432120225679907 
7.7760253567091056 
3.704788954642991 
9.584366316466616 
9.604452769370965 
4.219834185219417 
1.274007665311097 
4.595317153610368 
5.156441774211088 
3.981300602357325 
9.449181287057984 
3.3862737002323056 
5.372906081910632 
3.092239725583256 
2.773230373607582 
2.8068889147851372 
4.426918997486691 
2.886718720650939 
4.371627731260963 
2.9636271227192195 
3.0672878092391946 
8.749287279079994 
12.905368796601543 
4.326050873025753 
10.944003327923662 
5.453980461325102 
7.496893282351861 
7.4051775419772445 
9.122673318232778 
5.146084917668263 
5.089439727006678 
8.450287838487455 
4.167633541310663 
7.1945667856771855 
11.44978395838188 
4.083785583774901 
4.287331972540688 
13.567276239811386 
2.325777663361002 
3.603600713117064 
4.2980231116971215 
15.45055630308954 
12.709605254610068 
4.797697163664564 
6.925049035430125 
6.138697648631105 
12.816355899007355 
5.594728751458849 
12.969592965450738 
5.365204304922388 
9.006970594728033 
10.059954153355244 
8.692807979162112 
6.94392555630091 
8.539034713159428 
11.371700973970214 
10.126713856754755 
12.212519174353913 
5.045019562060245 
4.183961951353534 
5.819763566883641 
3.1082195206251675 
11.253137539042251 
3.7062227110330963 
6.528196480218694 
2.5262651603442774 
3.3229887514505547 
5.703316260058292 
16.417222112088144 
2.9334138356442456 
3.766214145326059 
12.794551312420792 
5.595182274543401 
7.779886375579356 
5.9104703171948385 
4.66532238760715 
3.9518854876844784 
4.524133760285563 
1.4274641232901497 
9.550513385763097 
3.2000940558574387 
5.142583714306631 
7.373140752302258 
3.7891411256260463 
6.316239902790364 
9.57669577788655 
5.3195260558218385 
3.5951367696819676 
3.7369139626144756 
6.581511350800355 
4.380829318422741 
5.176463040718475 
2.3292324664089454 
4.710712736361544 
5.661572708969581 
4.235884329372318 
2.7255248260674843 
4.3005650904486314 
5.019410835551536 
5.734526253012408 
3.678109781071698 
4.84919114865316 
4.587988153103766 
7.531970079712755 
4.069014183539356 
5.7891985648056865 
3.6544915579474857 
5.7148949679502365 
11.783835455242814 
12.928284777334433 
11.117691875644033 
9.919171896323125 
3.6204878081379097 
8.01366897848552 
8.673025603492936 
13.685933300098261 
8.178620596686583 
2.81171157894777 
3.059894676807361 
2.083646343523012 
21.258763053680102 
2.696336903627552 
2.963101840920804 
2.7780735613263827 
14.098683453554033 
7.121070731753467 
17.627866014855233 
4.753838317027628 
2.560831443181953 
4.871780744554983 
3.107267668661066 
3.1244728735682474 
5.919827689947015 
13.248678773977476 
3.5278186240135887 
5.574528669273206 
4.69191372682878 
5.8191820928707365 
3.851182219918421 
4.216789195806147 
15.722865276000064 
11.246768911803558 
6.508996131679512 
5.23327434146361 
12.890333919553049 
3.9943240626690923 
2.494591241188906 
7.458465123977376 
5.007842700073984 
5.003484326809143 
2.8453822650621694 
9.721890238484919 
3.380442580804072 
3.0252172103688144 
7.120139337280959 
2.6470903615909904 
4.164349093772697 
3.741075879065424 
3.5615216704675365 
8.79173271877553 
13.500493004720717 
2.465355502374382 
12.315291784082532 
13.701541455435002 
11.796395502709537 
2.791616596048739 
8.888148793516438 
8.379031230355295 
3.0085621219606495 
15.416939563017094 
14.3473532263553 
5.988612594205001 
2.685240886463255 
3.389151231458093 
10.076942625838168 
3.055578462262665 
3.7467032434607734 
6.022970427822229 
5.441085279359466 
14.101543699043093 
13.234278595920046 
7.825586353185264 
6.068388675011533 
11.734308183695637 
7.163392177423021 
5.988583239505607 
11.69167388443611 
14.200919783812413 
2.9254051035014332 
9.909190358612799 
5.24619974694184 
2.411802166047544 
6.106904677952664 
5.1690292847842425 
14.86234514903237 
3.4837658971384577 
6.141318463224086 
4.742568519143215 
3.151556881913552 
5.091636975042558 
3.1734721779736725 
2.7487687662309646 
6.466369292416067 
13.57122422484974 
3.639724155026652 
29.000420639511752 
14.206459165209997 
17.182477812295875 
6.247815174295203 
1.8381050238988417 
6.740666816140354 
4.370509066191483 
3.3234960931845503 
17.314302848495004 
14.842531554703848 
3.145690414943433 
5.7060911367303815 
3.2711478367399605 
15.18502160319494 
6.2044239290359355 
12.151165093938776 
13.568492411517193 
1.686795649966348 
4.478520859726083 
3.225267607156203 
2.840073041168881 
1.7104292386795994 
3.902155663178831 
12.8643188341992 
12.238550799625928 
12.49876805059768 
3.308544098604564 
2.9165812765433303 
3.6688108087118994 
3.1579831262236846 
3.988230460262826 
14.226196949222572 
3.9268320729892263 
2.775182146065562 
7.562569470021534 
3.7118332240207885 
4.567459964310272 
4.5315789395891315 
2.9704022807631487 
2.6898988933732855 
13.748483007092961 
28.05977255290965 
5.309315136265245 
2.5195291723715303 
1.3192338739176972 
2.9157616085793565 
4.790706070618562 
3.4788545648412743 
6.650586263613926 
7.0105115568613545 
2.6353997981682817 
2.9897400483207215 
2.201206854296965 
2.841013310234364 
11.199621626937931 
2.779588546028223 
14.438770630811463 
12.374375906350016 
12.53442888091998 
2.928151117358426 
3.152549713940801 
17.260149082087032 
3.0740898538914814 
14.764299582678234 
18.788172831136507 
2.615609663454313 
13.546517151876612 
15.81773509835055 
2.8840282465152467 
3.380971903340782 
14.360094365006683 
3.0743676482230287 
17.774810471903013 
16.232523938149065 
18.070906430250517 
14.548348968049398 
13.114884704460577 
21.960822338904503 
13.3498003752338 
29.74912568247162 
14.812024848606892 
3.063410689139308 
13.964618123380117 
4.979295486290944 
3.206624055505074 
16.79812264794885 
14.801692043862387 
2.8035161524296868 
16.027678826368266 
5.709320800653393 
5.913815430655587 
3.7004158368143534 
6.235140937194948 
6.24622895873241 
5.28570013481285 
9.636399497145351 
4.723202803477746 
8.223623308047868 
4.260255539534149 
10.068172112592574 
8.909747047761403 
9.256986729398987 
7.2780995653251175 
15.642367786508169 
4.609350355969943 
10.002142612595037 
12.271571094252039 
7.089044012087694 
5.538730651457846 
12.923069794596149 
14.132867977264127 
9.486660357244338 
13.050678302473896 
14.230771956774007 
16.223069472024576 
11.245320677546731 
12.06117825462649 
12.644661517926249 
11.469486674068579 
10.000612684205166 
12.851509948724653 
25.143322883959126 
8.52478655205319 
29.981706207313664 
26.285168648155768 
7.55667853128358 
23.11976770881976 
14.568632514027462 
9.811291915381053 
5.269112936071951 
16.71972044886856 
5.959375524930625 
14.140797705613293 
3.2255613617800005 
6.773092112295291 
3.080857643873578 
3.0313290437843614 
2.6050066254045996 
17.671109278769187 
17.336580659215016 
3.224515582131798 
17.902385299992662 
3.015599530669801 
30.16365615240855 
5.188299822400308 
6.387625743244118 
4.758095897079191 
5.654859829305382 
6.250925395659859 
4.633504372796875 
2.9080102579740736 
3.264113212792058 
6.781913475677192 
7.58256079974987 
12.347715648940756 
5.7190298943440006 
19.262447322396884 
16.53836317205281 
16.67301590006262 
20.75734113797259 
6.364788424108178 
7.42746329739075 
13.579862185692141 
6.07264658089543 
5.021734719358125 
7.002512462803349 
3.03434912682966 
10.964912795679357 
3.597377290852994 
13.306291432676211 
2.4460538090107975 
8.16467705694959 
16.92650009866774 
4.76127966352553 
6.713800720992767 
3.051975475858141 
3.2049779045073206 
2.664228196412782 
2.8734114541139437 
2.9408389014135214 
3.6340066000740245 
3.2443442796007425 
21.502277829139565 
4.941779598628282 
2.3879618261653004 
10.17226721853739 
3.3968246284842034 
6.9547780223585045 
7.217446464050661 
7.59157067156747 
10.616585258908653 
17.91345093079504 
7.00339986377986 
6.316444207375626 
6.516450248553992 
6.0354336378575955 
8.380648061054005 
4.488348742202571 
6.317474476951331 
19.02233313713504 
6.740004384960231 
15.938929865750927 
2.847825303339427 
16.13841984095327 
7.107725137613828 
5.7860144046734465 
4.766999311084427 
6.603425003933727 
16.48926304340035 
2.61580023093767 
8.36691875191282 
2.93500133050844 
3.27389605217462 
7.7825733968983135 
16.165087263671296 
2.8569419309057444 
2.5254097087623077 
12.56512491140963 
16.542047566337462 
3.286720071943754 
2.9357627366076002 
2.794108392747849 
2.7751778438068615 
3.0686956741405003 
3.0921510685760034 
7.902754769647346 
4.03307521419014 
14.156149059678983 
14.524888591526635 
17.16865581426383 
6.266174466883642 
8.134250900044213 
6.008143318474562 
15.84343900430099 
7.386449726937235 
15.453072804350533 
9.585642453473806 
9.146492020283915 
8.009795440874031 
6.577055513895966 
21.170944685110168 
3.454837977142571 
4.174956124689085 
3.5852374828060665 
3.2743576291514636 
4.380531773687365 
3.852110273735006 
10.099875581743637 
10.59828836952973 
14.19960549612802 
5.993707045332758 
4.253023001689441 
16.266776622950083 
8.700146195399375 
14.6774378727671 
24.180304491902934 
18.42925472653345 
11.339509828823983 
19.182614871313508 
9.893603983303155 
18.112456053007886 
9.048305928351343 
4.406849470715034 
16.54289170987413 
13.303148540852572 
20.379580090427588 
2.8020215607489694 
17.8273755641789 
17.30786288734815 
11.88345236571392 
8.332944899586785 
20.680731118661566 
20.316614359299646 
20.469660136243938 
16.98021571148925 
22.327913503687984 
3.7662630642501482 
6.742671010780146 
18.358770639547156 
15.14913288600436 
17.251009594457077 
16.493344353447842 
17.891376617992247 
2.591975053745579 
17.249488525732247 
2.5037054532867042 
2.6825334554842124 
2.8049193887357156 
2.8754937316997315 
18.704316166332756 
17.911313398960065 
2.5046734570793845 
4.561227934866993 
2.5887465805104184 
5.274837255664305 
15.21445676676313 
17.08294863977966 
15.225662241482006 
9.769782766154924 
10.66006874616984 
13.092866132787798 
3.641328660015903 
3.750868574280028 
15.456322588699702 
2.715097880321498 
2.7627957085862875 
18.591812869246912 
4.263640703266233 
2.8172972052985696 
19.060453454831634 
12.027972764897955 
3.195209058438384 
5.79432948074112 
3.139046543970404 
18.0962747829172 
7.769478199058124 
3.3629174827280086 
6.296284372971747 
17.842482196667195 
5.215214308467233 
3.3366517919639467 
4.921887699188166 
5.882023370799901 
6.094461546409114 
2.622223675371571 
2.3889375130427486 
8.233867839794971 
8.278193500071852 
11.834815119010806 
10.80731435348119 
9.928752673867413 
7.1303458669723385 
5.918857654443823 
17.724950001999147 
5.779585020667454 
4.956674499566442 
6.1982688389901455 
2.4513080555449727 
5.5836528044654266 
11.968869680416326 
2.7750804144438215 
18.272359182409204 
17.340018045291046 
3.8249417384792856 
11.276180104926613 
2.457404962346313 
20.22025031597169 
16.517111874661506 
22.095997038056222 
4.843549101195135 
2.913331922144068 
3.160286463706622 
4.044701042701448 
3.664333989956024 
4.080168960835283 
3.412635709895256 
3.8081948920978403 
2.941526162502907 
3.761193869621966 
3.4126818711691413 
11.203442576287088 
7.550978622195611 
8.949426748155386 
17.71144302679086 
10.466973041710585 
12.436893566790486 
19.62370832837411 
5.6354373363733545 
6.862599763668462 
13.855659193096626 
14.363512017129501 
4.68022752505336 
4.102968012849185 
7.90758171315334 
3.5667528346878075 
2.9501767931718925 
13.253370061209964 
6.3256567020940055 
9.548061338140263 
5.607860571350664 
17.543330356039398 
19.11058440553431 
4.6305456431215415 
20.91694295301777 
19.013582276343612 
9.5406827932097 
7.2698127152803504 
19.737606755788764 
6.828837399049558 
4.706812369150019 
3.826434645861549 
2.8451111165692713 
5.430972988029373 
3.1535681425579902 
2.4044862316761377 
11.973698928600752 
8.401176545630568 
18.848584292055868 
9.624256225485182 
8.921188146618665 
9.64283923911632 
7.233486277522293 
7.080075384730196 
12.030206554717271 
6.630810074515176 
3.4669763397742077 
14.729583424108036 
16.612270702461323 
21.098744539884958 
7.801404120850503 
6.26437346893307 
7.291197425883933 
6.008635936100276 
21.826659867066 
5.436133067243669 
7.404242541949775 
20.894615190137223 
4.802759124799047 
4.090959199779575 
11.40982070541036 
15.103688009757388 
4.978508850814719 
5.916517952021012 
4.770092588589079 
20.476168832548233 
7.807356444363956 
19.518007616417854 
3.0692479670571404 
5.259634613292491 
6.83921200922502 
13.870430291585812 
7.521550947241998 
9.737850317756521 
4.293171409429446 
5.493359566720351 
15.815548293012574 
11.883470986538311 
4.179777289381225 
17.414799325844047 
22.28195859811408 
20.33497561511772 
20.766449169491175 
13.11033539189643 
12.188943766646577 
3.082560382543352 
5.4645714896766515 
3.1187918758589306 
16.99698235786508 
4.080968775525338 
11.100470541871955 
7.972709993827036 
6.3118904710681925 
2.643559466730848 
5.592927376536528 
6.470463898767006 
16.375703043660682 
20.097135688507155 
6.2223621343131095 
4.940943543073701 
20.787163605269747 
15.292273646230244 
5.175964452088879 
2.007301188503107 
3.8629928205172375 
5.177177676598086 
3.60918314787945 
9.214991466198363 
18.290108024296025 
16.047565205542348 
13.48542754696462 
8.186114408251736 
3.087149906963965 
5.106091706696139 
10.963207270015152 
8.344265534863103 
14.38672315487087 
8.440119127793437 
11.667598931853538 
4.805659587436654 
3.161881503457016 
2.953800871478621 
2.5506447240695325 
2.7869079505600345 
7.5045652630459445 
4.948323387437303 
3.396037816221348 
6.102875606735386 
20.0159362479252 
3.0857663366459356 
5.151382367391245 
14.922842043458452 
2.9138066794230437 
5.326740339037403 
2.722137873003067 
8.399262065938771 
20.71947568018276 
2.295850304375747 
6.70671271445324 
4.859219820723809 
6.1989602432089175 
5.318592417361605 
3.9741877620767063 
13.298710886958354 
5.853131632368809 
8.13885864616936 
6.501436746468165 
6.090656096079935 
6.250332733019664 
21.15663167853525 
17.022441146337965 
8.682770003110775 
9.977822340275612 
13.86799296308405 
21.302790855905183 
12.065412990989175 
22.241516797448302 
15.63315586112347 
10.934711569750867 
16.882804227818948 
14.388177684629307 
20.01635514949927 
15.396193440526725 
14.402256939820408 
21.154002349733783 
19.15785113597976 
19.48619325373881 
3.1920985637861845 
8.567312941670341 
10.512234820051127 
18.417788326998032 
12.11692919810201 
10.501745909362413 
9.318333355379883 
2.753446193627377 
9.82293983257753 
10.378104362791115 
3.56523856323552 
20.578100405431034 
6.344050321119904 
18.77173837215887 
9.225176833548236 
19.589488085975578 
6.580894804888213 
7.665055285905441 
17.01930395273443 
13.590891694140169 
6.944852984208106 
17.703690881676618 
4.7190623109157 
14.614314442026675 
17.66949720994855 
4.808283234801964 
9.952866013824085 
21.811771207035015 
9.80682771940412 
7.199871652926964 
2.2145205639474828 
6.664915627426018 
2.6242736488587113 
18.32638294850735 
2.8992599992870396 
2.8998951112651317 
10.504393413532908 
1.931708242767272 
2.1970808461088893 
12.488169792455093 
20.965995134511495 
20.460977277722723 
19.041130063478096 
15.801721431226389 
5.695205786651346 
20.03590788101793 
6.97903211797681 
12.850427884699322 
2.8344075145076286 
4.500715883770468 
5.4116000250735565 
4.133583901857831 
5.57264706888598 
10.675266066147401 
23.59496848132433 
2.8758587179833484 
3.044668990790889 
2.571951856754082 
20.560282828310573 
2.442925545604711 
3.115875625399498 
2.930306984911444 
3.025058516147858 
3.0372062305082173 
2.955803441685777 
2.847098386426674 
2.8077083082171788 
17.101895550265176 
20.762103481912042 
2.7908616835378925 
2.761126428322043 
10.04986347368379 
10.02109791952612 
4.553788126356224 
19.026336281167453 
4.77952765754529 
5.860388068909366 
14.341784696430116 
12.58299062641772 
13.806616006955673 
10.266324653155948 
3.2554488110688196 
10.555814771916182 
3.223423957976725 
20.94910070816434 
19.3599183092222 
17.63558489216537 
3.5854333427995715 
3.569130412738577 
3.495693814972896 
3.084459509437995 
22.94554749218851 
15.668255343224388 
4.375542386928405 
3.1968519870714354 
5.719330226206675 
3.3441425051614178 
3.5430209262568764 
6.798898397704544 
18.53889440046792 
8.45468680818693 
11.038224729380293 
8.983619487740722 
6.109615694904811 
5.343227666404069 
10.691575603127148 
11.166414994022585 
18.253308789180824 
10.35457661580331 
4.514518573968817 
10.764484597509993 
5.536820118246765 
5.480074607791908 
22.632259110916657 
4.2486108596204915 
6.796357094926315 
7.717045917759359 
3.8850143834292448 
3.361280956402452 
14.66928332291683 
3.4530018346580316 
6.87390723881653 
23.622691367700718 
7.135109392009634 
2.4632365392674744 
18.865813734253628 
3.488458944410452 
2.7443368284737715 
6.50037843917101 
20.54497159852576 
23.136304903651858 
2.6910951629599054 
3.113140007331616 
3.1711282766153626 
5.8817190307303635 
4.185866098331441 
6.590298182679874 
14.199602863872373 
3.41432253284696 
4.526841299764439 
3.484700295368181 
3.89291677525262 
4.513005022321429 
6.27487791679578 
22.330757228971198 
28.351176878453405 
3.2855215434009133 
13.748344693597659 
11.779889214062319 
4.180393155659907 
22.01467322185466 
9.357093050936564 
15.197760109463767 
31.338955603711398 
7.951226028449091 
2.570470902619076 
3.2692315218483476 
3.0265037344721715 
3.172391407833106 
13.815085064760513 
23.88637142219727 
4.335844193602221 
9.860070396276937 
15.714406718222529 
12.480930930068391 
5.696750919864983 
10.393261425681121 
9.317429771680253 
10.728763090840458 
5.870373398622211 
3.591944219773713 
21.488957220579785 
15.17171906220887 
23.86859407563454 
5.39042046931731 
18.742164096735095 
3.3983062409525635 
10.849315514870137 
7.567975315169247 
6.174813051106797 
19.39746425014713 
3.5261860172116295 
6.488500837306548 
3.361570832347347 
7.102156054860351 
22.83328207569311 
4.796928231747805 
5.910209047462379 
4.767329054170077 
7.129328723251392 
6.950738817428589 
3.1708843564383877 
14.861982258682762 
24.85572626620969 
11.821285002502309 
27.52403846030462 
18.15839406329307 
7.972475752833497 
5.193197603503435 
5.8575730330462985 
6.959354532747661 
19.576165266098258 
14.311977093154548 
12.090189880692394 
14.912439853843209 
23.32469784209441 
11.559063693125777 
16.36841089329586 
11.866556437725366 
22.726882587745017 
9.386087877917403 
11.494580690150165 
15.000598777445129 
2.5582136510390368 
11.212615676085008 
26.546561384423057 
14.494605806228902 
8.83687236905493 
5.817088726528886 
2.1935524909310162 
4.7966798161514 
5.0405738041231025 
3.782816981638131 
11.0013901111585 
15.297263425173737 
5.217574506987667 
18.27568287741023 
6.141606406430862 
7.337464491074715 
2.248014824905009 
17.58868553697941 
20.32457649200676 
9.15598645049577 
2.686914724170055 
24.62340595231564 
9.88394162166499 
6.010303149692944 
11.594292882040536 
6.114419142763071 
8.227149670843218 
6.487255311228965 
19.23375389004205 
24.866936014628262 
7.5161595832668 
8.180558284792435 
9.870528721362236 
9.379034734431343 
9.587607746650878 
23.657971048060734 
8.757031424209147 
15.466594632261128 
9.336912822005132 
21.090621070612794 
5.851319022319182 
12.836166926456073 
7.948760079757237 
4.567435054994046 
10.723313437586267 
17.69867014985381 
4.882491136335063 
7.5941341976686125 
10.94733784742917 
4.145321910881813 
5.190093919450901 
3.1636068889416737 
8.205755383130558 
22.536346363222503 
2.8961649613275138 
2.4939545738170015 
5.649504555438745 
2.3655448861665382 
3.2205946516391823 
7.962911158909821 
10.447668420766734 
3.135979293967377 
2.635290342141315 
10.512059706191366 
11.643477256983573 
5.976873612706136 
15.854546009734822 
20.48709219943275 
3.2867005124575464 
5.589165242277728 
3.0624825769382364 
2.5146569706300257 
6.380220183433564 
16.371714309888745 
6.903194413834628 
3.413399506209449 
9.674517769386531 
3.9022136539843624 
3.387707999313501 
3.408415956221069 
27.397222424360464 
3.1609743861181103 
8.703015410104994 
8.380654557538717 
24.99710911139985 
25.09148594005746 
15.257410613724582 
2.7959032468076352 
10.774633367300652 
9.917394955234606 
7.18589957259373 
15.845940423299862 
3.9585524859368006 
2.7534642446326676 
3.5443947655002455 
5.002040795417511 
18.141453868090593 
23.2381237454588 
25.249822554708043 
22.215599340097583 
25.77510713281818 
10.117277411684112 
5.399538334373345 
6.412422890720057 
22.54825936287508 
3.0161359972790303 
12.795908545338996 
2.7907578660921013 
6.697075092866434 
14.935970266514264 
2.035851552204574 
21.719440797366694 
2.3688598938281586 
2.7742317004509247 
7.754362413634516 
2.784673364944931 
2.1995134493077857 
16.44507856434645 
2.5310058505405872 
2.3651026787705827 
7.229545209766248 
6.955236251452041 
5.64331515340994 
10.766649116771378 
13.56088428252726 
12.651730791248895 
8.725513798047341 
24.49674046393499 
2.950640871383173 
5.90865529923567 
13.378422550634303 
12.447068306054899 
13.030651167075241 
10.944065131118542 
9.744490595997405 
12.880152736992564 
4.209934637554658 
5.517609398839118 
6.429886824000576 
4.813189895388159 
2.4143075698140937 
4.29777104051253 
20.31550259415004 
5.026833545400419 
3.825177124378041 
18.298235204811682 
24.3236576816858 
18.08824746605062 
29.304182443238513 
20.873632511903743 
14.049261513321042 
16.237706354280057 
20.74884712970229 
22.966984958875276 
21.5275186452661 
12.388243361782063 
21.52594549840318 
19.329552350713577 
3.9063376969905743 
10.381594295029185 
6.11598861856542 
4.157911721703924 
24.422058698114455 
12.224860678354933 
6.897786282429437 
10.175319878793578 
4.845735253101608 
4.218767095400744 
12.314522274016333 
10.34060741705787 
9.959517047473641 
22.041375900257574 
2.826153256665292 
29.3502573640497 
5.75268854051682 
16.685439895574373 
11.699715302850747 
6.422793480784041 
4.086221591153953 
5.378737226297307 
6.378755221183304 
3.7949377932287574 
21.74040069520178 
16.59006514901299 
5.370689047679552 
5.656287846273786 
25.58473940268476 
10.44183329471064 
5.593404724946735 
26.546753412858507 
12.314773822379241 
10.405703214568005 
13.003743653528808 
15.29362860872031 
9.61500600208993 
12.882748673521133 
13.671981836486193 
7.266055799867039 
3.669632663633102 
21.3952918807362 
3.0228625844242227 
2.7204883075720563 
27.25301026935389 
11.41862538254411 
3.1897129526740273 
7.198912791494043 
7.382473904733812 
5.113785698161837 
23.934322623147445 
5.255442625879447 
16.028924587276776 
15.904627983971913 
4.113672166405203 
7.276287285202232 
8.142260722417333 
25.55551397830053 
26.806804027918716 
5.911240047053438 
2.662021695519935 
5.155946107948586 
2.8279698529189234 
24.548462429205966 
10.63299254342822 
10.487314610594819 
11.267000405056457 
5.002202389225833 
11.373719735723938 
12.45367444809094 
4.894025547234414 
26.411075179911176 
6.047012593025169 
6.807730420130908 
8.375293816766787 
7.668116169350491 
27.187715004980895 
8.35148862328548 
5.983465802713511 
6.8095576228730375 
3.7291458162725784 
3.088921135156493 
14.208199411365833 
11.009790442107802 
3.439948722687822 
3.3095631843523123 
7.036077610583213 
28.014669208083617 
22.167530310841368 
3.4522009052930667 
5.379906151831285 
5.97552705379083 
4.216056758334482 
12.096963543031533 
4.479301869863703 
10.468352897874123 
10.115490989214855 
3.591426567123031 
6.993994434958652 
12.208165881302463 
2.8185281236953195 
25.36611452747286 
2.90401043491637 
2.4987904302291883 
21.624638097656575 
23.327004826718607 
3.263887697681646 
2.7626265278384623 
3.196707700442144 
17.83896494879098 
3.881228893806539 
24.847065516477777 
23.244897242138837 
9.148928583184633 
5.16739710930141 
5.615911543419726 
4.791057196402233 
4.699018607913872 
16.95119907897175 
4.806516682758968 
27.512609894323393 
6.008182622706952 
17.672370231759718 
5.0142296180136805 
8.032296330871475 
6.262006612581185 
21.853031960943905 
20.498129400729976 
27.354405243337578 
22.89898666539131 
22.66382739882675 
22.871534800818786 
28.103413680271508 
11.959406020955683 
3.104524888541923 
28.277380955296316 
3.2399908842269802 
2.7679253563107866 
3.3039280182896302 
3.1806199163602344 
19.07858541812077 
22.571498532998355 
19.319628697553203 
10.675722422298703 
16.766380262880478 
27.66934309919728 
12.345725436380604 
4.3300378715495444 
18.257475813433008 
5.953871080363224 
4.297133854451511 
15.811089400470415 
3.1346279675626474 
5.525458098820929 
5.779190627544211 
4.493115159898172 
4.672015110544296 
25.76260871215534 
21.83399945912838 
30.22377286142265 
5.7243187102857505 
16.23418605943184 
4.839794514906667 
27.436673917533394 
7.892963189864852 
2.748163395494076 
10.860332664610242 
6.0234998417577374 
8.325579959956286 
2.6793182960691575 
3.8197955738313922 
5.790286436932178 
28.56942289994382 
6.152320664025363 
23.69464875650515 
9.687649075158374 
11.529024198605635 
14.491419562215013 
7.021734026412401 
15.038339373371034 
27.74678294421648 
17.149550995617336 
2.289118162544782 
12.404156991185488 
15.2537724917548 
19.258310289065715 
18.869408913739235 
19.041261385981564 
11.950392261623765 
23.32991043353309 
16.01840198573284 
9.085720186495655 
27.19678634577422 
11.476101877656511 
11.90344808899878 
11.607635244291234 
12.457664533986541 
12.679163074055486 
31.35781841705842 
23.474249130886957 
12.017804596543046 
10.394207221190253 
14.942624285930705 
13.654292188626739 
24.844224641811252 
12.641320619786763 
15.830031602921101 
17.76362608364882 
10.202677305621409 
8.532827692404725 
13.817666721471666 
12.420599837491556 
14.485995181366274 
3.5041746319612663 
3.6933278168376917 
4.557703540356546 
16.58750560193859 
5.404568549367254 
28.620042864876126 
10.528649430370983 
10.47067112776161 
3.3382783012162296 
3.392097319080929 
5.192408505979612 
18.657347456892186 
5.271107375718887 
3.172297967322112 
29.677466548273962 
9.435455040910217 
27.64993096133 
3.545151622284954 
17.183385770333736 
5.265601745817488 
4.319232647920158 
5.949700815241501 
12.236625913441262 
13.353611895737899 
22.11070682784509 
21.348200662662396 
7.810673822367294 
19.42766081552659 
14.726346033655606 
16.53446245136217 
18.446868323735607 
15.122147203592279 
17.17998100948789 
25.3863831314495 
9.013624255552244 
7.652633794917159 
23.883201341787554 
6.782884102924243 
7.2648092028328035 
4.945226345380155 
23.02203604083679 
5.435281061127038 
28.388341806666865 
4.34978093538142 
28.810935389755933 
3.5431316551574183 
17.61467404653098 
4.746272538914642 
9.582112551618064 
18.79098335460838 
8.150325022905292 
5.3334027100616135 
15.76561641389123 
9.842086353774384 
11.221554409591555 
4.376408109330091 
28.836449740097375 
19.989534427954165 
13.455481396681721 
8.123522899772563 
4.289412451429215 
8.864935080892959 
12.533587440522313 
12.29864144765923 
5.566894874784046 
12.8413519165517 
8.498510595702854 
23.26123742637596 
25.112912889543555 
6.851413608000781 
22.20621796673883 
9.882451274489448 
7.834191314755026 
5.6560379828899086 
6.140665618627762 
1.922354395865766 
12.583147069829334 
2.2623292398359047 
2.890981970972864 
2.7626759914884795 
2.79583697078795 
4.966191443796937 
3.724853562758717 
3.802924963615397 
3.174493722682361 
12.844771483438242 
3.6956046772363838 
13.16099474786125 
3.2482710367198946 
3.9750260297446376 
3.2555242079749553 
3.7782527647989887 
8.683387051096924 
13.008254809396874 
5.224724789831021 
8.306348611925955 
5.642873950273831 
9.704395046783006 
4.146775330456145 
24.33113245915375 
24.88568928373896 
5.901718023278799 
6.167993852600332 
13.060974312968566 
12.760386173107394 
4.833629516077351 
4.772601475598747 
6.823847887026074 
23.804456467423538 
19.74671766156737 
3.1929854455602618 
5.725321667831594 
26.407357462172634 
31.290719247340938 
17.75966094382422 
18.984029519486217 
3.7906701988688845 
15.19871094091919 
3.8200296248861854 
3.597536799168238 
30.668793205334488 
11.412800815902125 
13.576295054304595 
22.988969241209638 
7.424817841878644 
3.035836917160095 
4.4152341628059455 
31.27492023015926 
3.0417410294951415 
5.180071115259857 
5.968854101604324 
9.926432806074988 
27.21787135563628 
24.961101185896435 
12.838429372638808 
32.09258918101545 
6.312140355747203 
18.641136435198693 
4.1890976500725055 
4.5733778055621395 
31.765927094038215 
8.814243867511152 
12.47458480435688 
24.50879206337808 
15.521896285832348 
11.05966397734778 
11.77299627607216 
5.610669435714484 
6.692661730973638 
29.42039041775292 
4.550191751113888 
4.9992308876136065 
6.353371706855386 
2.421899219611147 
8.311073333705421 
9.069141893011556 
3.33314820569044 
3.2884572588350287 
3.3372650742026937 
7.332525298129754 
2.9288961573557932 
3.638945797947156 
3.6692224371074005 
3.9220273119678724 
2.973658874367191 
27.18526560939946 
3.7939785562222714 
17.499331605701197 
4.2202750966743645 
3.465977650650297 
23.666966946745735 
5.851361104746124 
4.679601973191627 
15.729612503174502 
29.495339858422163 
6.778546342708023 
6.084962749788833 
16.984656390496298 
7.8123594504911935 
3.687318282462282 
7.475964169571753 
4.9624079071598794 
3.510983053027742 
2.2205277763974793 
5.696217768295248 
31.60960163355595 
1.641222353267648 
4.271558883796867 
9.973350094853446 
5.910594471590048 
4.176514876997277 
2.1609344949963813 
17.74655527044179 
6.151155263723499 
6.272992101319318 
2.953792673876235 
29.16718350109482 
3.7229315114611063 
4.574558341598626 
2.4712102079880087 
7.576771463413991 
5.410359215484533 
14.00114786462 
23.814985028220654 
6.890229487025444 
6.729964202921744 
30.161676569990487 
30.340442541233774 
16.923724685760433 
7.536030380696787 
5.796222276676795 
2.4041242662158573 
6.0417985575033315 
8.939831472882858 
6.265336222219427 
6.162132092684185 
30.825470762127505 
28.49033383944041 
8.239168978084221 
23.420945433726107 
29.46474764876881 
8.041841671494632 
17.400894729599095 
30.85362312840581 
3.0988283684750813 
3.3629571647500565 
3.173612655649646 
3.1506611224722003 
3.2657440292583075 
29.39984336414255 
5.6670218717348195 
13.777452604307616 
3.794257637480898 
5.201105322575798 
3.873214211511562 
9.181092906639492 
4.261069791825961 
4.693876310545354 
2.9805032096125257 
3.173157736458446 
8.581329165291082 
9.021101320023053 
6.223031037232737 
3.184964168366767 
3.249370205571609 
3.378376229531362 
13.363234577499 
3.3617757526853325 
1.721330190518693 
2.845222667035215 
30.45016430166565 
19.25628223747664 
1.6676005667286598 
5.694768459776982 
31.6335211056996 
30.22677438440941 
3.2710168574046437 
3.227445875494015 
2.773271500494786 
3.3009207451224998 
24.015851913970348 
3.353104111745296 
3.7249743663711827 
30.318670127455924 
4.14661139831502 
3.1841245927427666 
29.768690617069076 
3.834684947020341 
4.164227536737587 
4.375256688148391 
3.776271687577329 
20.02749090192027 
11.932637314875974 
11.728639040212235 
8.23023114862227 
25.17554538271772 
9.84290478322642 
30.861835145118395 
11.508932445444293 
8.646945686345425 
8.041483215110544 
31.494147751678604 
2.8819227586056826 
25.07799911562012 
31.046642927846907 
2.158737923038317 
18.957918050822514 
31.294075762385113 
16.315912529205463 
3.1649816090148915 
3.167631390821246 
23.718748321940954 
24.059949128041755 
3.1399893666348095 
11.62788019187706 
3.0879893027816676 
3.376350893051698 
2.8358239441707433 
3.0892406484584587 
5.449028649274181 
5.961946324158458 
1.66265011694074 
4.2961428117289975 
2.7816863315666707 
8.634126773933712 
12.225273781142805 
13.478331036266713 
2.62607104686534 
2.9006506489117845 
9.68631521095314 
11.733754943484895 
11.475921820513335 
17.83099289012114 
25.18296561765027 
15.268833172641191 
13.857272582224407 
12.810883668429938 
2.784507954778941 
3.2726419905784407 
3.1279453178977437 
25.233088039335957 
2.951636551095737 
19.698172204128408 
3.1492641332382143 
2.6356578808309887 
2.827672025937869 
14.543804437089278 
3.1761162495990294 
10.722957990270697 
12.259423827814405 
25.079904142136204 
14.783427469647519 
12.56554838350701 
8.787134189822634 
8.604252262373972 
20.506095544641653 
7.880000103847345 
27.97039234316213 
9.472636912737082 
3.1574926897402604 
4.723739933313238 
7.890116908131691 
13.961530071473579 
6.683911224117651 
29.961054161300158 
31.362426510504818 
16.08169288810903 
2.1284502606758555 
12.639347668875768 
16.273503175646272 
18.563575165131212 
5.964286497238308 
18.33297815360163 
21.835878128096926 
16.18848426563107 
17.080548406395906 
2.2370432287493016 
6.588471116528345 
11.817756426888309 
13.25935173664195 
13.320442657802994 
15.83299042797711 
3.2916670475151424 
3.182275875505514 
11.810305723665161 
2.4372569557004815 
5.4747829892019375 
2.5011543330050268 
2.86755696532049 
11.950379645420258 
2.94510723155398 
3.0951424034892243 
2.9014251372417745 
3.4354353326909193 
5.889690298596551 
11.369835571215637 
3.799178837301009 
3.076931557616321 
17.56405107152045 
4.919780056507758 
23.464339447170534 
3.175505551626269 
4.768804372155766 
6.4264876254075585 
7.93263618217344 
3.7338492815507034 
4.880022862571796 
5.29400260922454 
2.372421106412403 
6.188570585312218 
6.143604281202511 
5.494461103018186 
6.508848234452573 
11.842005533044034 
8.7488861900969 
27.07733440629246 
5.6849443439602805 
5.512150355193553 
6.996057358211907 
6.961605315805354 
3.396587514850046 
20.343654515804083 
15.873062428058747 
13.27012097579291 
12.084754934873764 
13.699877655068502 
16.200646198922104 
32.1588428928191 
2.9296793950050706 
9.001940784113714 
2.959317472053136 
2.911858002994744 
2.965380705082177 
10.076351799759511 
3.2201137939641424 
13.477914434220342 
11.242941597703798 
26.092937059667275 
30.635699100764782 
3.044808973056737 
2.685755356180657 
2.4372569557004806 
3.313756117850336 
3.0508783105203525 
6.944142573018481 
8.969618650571878 
5.033161713894979 
3.629910730650824 
5.140797291097547 
13.620534858732661 
5.305060867229156 
7.8446833235426405 
7.132846910202537 
4.440263280183082 
8.290354290797955 
4.770204942195748 
6.993508176977524 
3.926400578242035 
4.062513403570147 
5.875653589987379 
31.78923273121383 
6.999933211546614 
4.104075562278888 
3.407503139758698 
9.443044584562031 
5.7748254675582364 
28.875822336795792 
6.645580187082375 
7.905620301648423 
8.663297818112465 
8.60481352886296 
23.501328694418994 
9.68151251509815 
10.16166598443385 
29.24370621374545 
4.083013942536536 
16.424615479080973 
3.879820291168281 
3.263328154041737 
7.982946138446654 
3.900611723408346 
3.293559636607236 
37.682832255741 
3.2556654767839577 
2.7960879724434706 
2.6033270561804076 
3.2900045470294876 
20.89454777157412 
3.3224312438948105 
13.590223372507422 
2.9212098558935273 
15.70029697163432 
3.26023311484522 
21.908235010055055 
8.83033733183669 
3.217347226167504 
28.972790997089888 
9.75252905997694 
3.4639615207606362 
3.563304127870469 
31.023808930171974 
6.3560945224779 
3.433134011569878 
6.081086371319082 
5.534678678992265 
10.132263237850157 
8.231755192899502 
5.7246015219773625 
12.33117588313626 
11.48149871383283 
12.626788400944355 
7.933781055790645 
17.662092412400828 
8.314339094236344 
12.124193685104261 
31.458173540293103 
27.280825446680993 
8.88402685011062 
8.175243483139193 
16.038777898998674 
12.898664865964648 
19.331399311499002 
2.2939951259607336 
2.356991335001024 
19.443888519470438 
18.73253293594922 
18.413954025457475 
16.37438974061275 
18.683349372542057 
15.890320913000636 
20.061816949097413 
16.286807811559797 
4.728727703093639 
3.2607872526509034 
5.415702860814687 
5.014063420277669 
4.472141850721115 
3.480772930470231 
1.3438793600259589 
2.784869039744433 
1.8942712724008681 
4.535021446871716 
4.604254056664981 
11.41571877537824 
8.385992307633977 
4.497652957662873 
4.649983558631359 
3.433197388204101 
3.9217231733585445 
2.6177114150789467 
4.354863467489779 
1.9212118905977695 
1.3648500820574232 
2.3668214780706127 
1.4900382849853584 
2.8749323914790654 
3.5766120363589726 
2.472429775906594 
4.4254834639030305 
3.319592812804288 
5.7692848746850665 
6.448077074335773 
1.8031353867719422 
3.627214748985521 
8.33119219631637 
19.189526289002742 
2.69273467721227 
7.8133235973871065 
3.386810065223654 
2.599321119572051 
2.9864788393232753 
2.944537735740736 
2.4866071843854742 
2.036894469651978 
2.880558383523912 
14.674980723819658 
7.302812978689521 
25.178884359230565 
2.544687676982854 
1.9626791402756183 
1.7783881198153153 
1.8477021998059016 
2.0371327878828738 
6.114532254638 
18.078958517123905 
8.011839573275058 
8.994938267977634 
2.181475611278281 
9.18521338895844 
9.427869331580103 
1.9079645508890544 
2.264188003312662 
8.916848895506105 
1.6778349294837476 
10.198129003583547 
2.3435227783518746 
5.673337127570637 
17.72278589371626 
16.73526519624566 
20.764599357596442 
2.1272776221972878 
18.34238773186603 
21.442532702612493 
2.560023081364341 
18.048916257664988 
3.4266924441632116 
4.416947781243595 
1.8124833802495521 
3.2340599745550778 
3.163076905760733 
3.7079014214888235 
1.7937491528685012 
4.039274738519475 
3.5605993397570765 
2.1647189400854576 
2.5540773218528985 
1.6474877332447175 
2.7792205011213853 
2.198229278356317 
2.145762402714985 
2.9615901231802724 
2.9740260147032735 
1.8356052186858043 
2.4646616237117303 
5.928950020696584 
2.883983271457506 
2.5088333550414244 
3.0001904958933174 
2.9383249923599557 
1.6712508034672675 
26.308982884395636 
21.37871405233551 
26.03599975492785 
28.586578527009504 
28.172468324339988 
3.6422355187299176 
23.41712857433102 
26.451552637342388 
2.482912772775428 
25.32121824313421 
9.33320842013085 
2.3580460450792664 
3.8411339082335996 
16.173230149217662 
7.405446484747805 
8.68181993298526 
8.705997638261133 
2.5051400464128797 
9.680024905863412 
5.968140146633694 
13.680737019453598 
12.603186280953079 
2.2121599250549946 
1.656348623591323 
2.5270345289473934 
4.437198391883897 
6.654482346215134 
2.442176981235209 
2.573773536843685 
14.094426913379266 
1.8494348321047418 
12.952013824335783 
11.559653894276693 
11.85858781656826 
3.073842018219589 
2.158724839852771 
3.0248603601296926 
2.2663713070114846 
1.838711853488868 
15.21767577153372 
6.466242355466582 
1.5980254297291847 
2.9142119701299714 
3.836092484044184 
9.928440190400906 
3.4271767994225137 
2.672796689102109 
12.339632058165405 
2.077468698455704 
2.3396721153272053 
1.2145080206074423 
7.730338343837457 
4.783636437868085 
10.03351619744059 
1.4791425162992065 
3.7606489430810988 
6.775392215352284 
1.8356042900104568 
2.147654416519917 
5.977308448893016 
4.497590035778818 
5.466906758660669 
2.149626614680924 
7.12808056864415 
2.411715459218244 
1.927592685911563 
1.9644511220964398 
9.89696670323468 
1.777509253994384 
6.056385285775762 
9.582150983085754 
1.7301086792260958 
8.79354907329132 
3.677356907512068 
3.6181851110836174 
1.7688043125049822 
2.3863043733531097 
25.036794306931245 
5.11410504648847 
3.304373980539895 
8.110625954688226 
5.7828644538667335 
3.8274775958966467 
1.8921926398420563 
2.3170291463109507 
1.8075571882437762 
4.391215000738573 
2.132833673289468 
2.8234898419439958 
12.553775804231716 
3.2218238873962046 
2.279359833723062 
3.0358822956081664 
1.777009158713103 
26.71722610694875 
2.276457409238458 
3.8855919942508272 
6.319597288990704 
2.2012041990947058 
6.065534535575101 
2.614221209401624 
2.166926249341276 
3.311028314766864 
4.4182468117652505 
3.3737936359611034 
3.4021496911919464 
5.931102835920959 
3.303681216777221 
2.2139398469375084 
1.679524444107352 
6.1893093467399005 
7.923250333996983 
15.587164441925102 
2.0914541384287935 
2.0356189844214914 
25.743132324441344 
3.3723642828952003 
14.463072085307804 
26.302140848509655 
2.2441628688127206 
21.517036703942054 
7.4620285794766525 
7.915046404445028 
2.9891630961771374 
1.9284054140034814 
3.4362051332238446 
12.533208898359343 
14.954940270423604 
2.0628028835281804 
12.839718272507413 
2.713814935583443 
2.3517622425221116 
3.334539284831626 
12.941259310550567 
18.70087343643001 
2.591905850563085 
3.240512701000317 
3.2857922428761914 
2.554328353732988 
18.70460163217594 
16.20409158067653 
20.8083627748733 
11.206245201552422 
4.5398775850185675 
11.792247062503456 
10.569953838641664 
9.18413828915862 
2.5794936439475635 
3.8855591513653227 
9.348977384356857 
2.7033291993995614 
5.66021641408424 
4.057529335226034 
5.280744629867967 
12.68226854731586 
12.715952949411301 
2.6713798417044274 
1.8107463156604386 
2.7315141396465683 
10.666531722265896 
9.049077868978163 
2.7580114131851694 
11.269317233983422 
27.185798771702732 
2.790431826333315 
10.434949584075115 
13.811069214016914 
3.931751683310197 
21.532781621740327 
11.084299369101117 
3.412863249552231 
3.375792299516279 
3.1998274185680713 
6.273440858241627 
6.798201131457448 
4.715496522631682 
3.3820042871440066 
3.2943981527847708 
5.867392688112146 
3.016703381456972 
9.698479580105921 
3.2746749568286955 
3.6205048189054225 
3.16565576993582 
4.608025908422524 
4.805197777310551 
7.855303127904196 
3.215471930996407 
3.190951055643117 
7.208971137772802 
4.906889722588681 
3.847169090970477 
3.8722900459096268 
4.443902954743776 
5.281741372442625 
5.454068899524296 
3.2739679117401237 
3.5708694585634495 
3.936025522258447 
3.6180574042236553 
3.7964859336623635 
4.394656736699287 
3.61150205318557 
3.191440176406835 
4.5481403008159536 
3.782222688135703 
3.447501180627224 
2.9404057419297374 
2.88800108759709 
2.366023939374174 
2.3790197642136626 
3.9931540022263303 
9.628764615587956 
2.2721284958897745 
4.673393466174534 
7.226377532373101 
3.281638640797581 
3.99060962185368 
2.795467270416037 
2.8633333691812637 
3.0536193380731165 
4.685228419216007 
2.4916398431596956 
3.0772656972886097 
2.842000418458116 
12.139368970275367 
14.608624336845024 
3.904702375265576 
14.224173733606419 
12.613936840164206 
3.2778393713681226 
3.4564715057656277 
15.300700768819347 
15.322632694607423 
13.481332224504477 
2.500483428814619 
2.2495909832764176 
4.623280604169531 
4.315854592282797 
22.205684803326246 
7.205441808461065 
2.6691506453305327 
4.683835605293472 
3.2931316597028233 
23.993971635260593 
3.392934219747135 
5.342987136412791 
4.146727754863233 
21.71158347287954 
20.079687189785112 
20.761354593467697 
3.7358733914458964 
21.990617099314413 
3.799810353817933 
16.23081531962221 
3.8327915432340958 
16.90454855701012 
3.2832492071543706 
3.8522340444620964 
3.382688868279849 
3.371003498376502 
21.89271955158289 
4.424003240005016 
6.646109049730756 
3.974270554693919 
5.904513518135431 
3.8327550695320523 
4.519403465916022 
3.951104234118506 
4.608370907180063 
3.7371572197701406 
4.705541385966585 
3.73231367611094 
3.8388950380573883 
4.205213974187987 
6.4529969713956685 
4.68167647155881 
4.599721242612306 
4.032430781448519 
12.852717918164968 
2.2870402432964076 
2.2678431249060793 
1.9109777159124233 
2.2188355097390984 
2.395854196159135 
2.232728443570181 
1.7679382769947583 
4.03870617610337 
3.279230318345808 
3.2492946323034584 
3.0693369786597042 
5.2577280755575835 
3.01168716009131 
2.755027454191241 
3.022356796120586 
4.598785736836358 
6.62591775486248 
2.673953346607535 
5.220346641744493 
2.8133217604219207 
5.292211176620482 
5.942102763962429 
3.3943019633827576 
2.108048177038423 
4.413190063768992 
5.634199187509112 
2.0889931314692833 
2.156713493980284 
1.9976344836707751 
6.000697539817067 
5.15932257944983 
3.617771310024312 
3.241658078118777 
4.485018086721109 
4.540882499083812 
3.285973903837332 
3.245260690802644 
4.13531759685985 
6.6140406942040695 
5.136219042779501 
4.126833664545969 
3.076177820535105 
3.202088046721946 
3.8157964873139836 
7.361545609690136 
4.738380380398928 
5.325671470020016 
2.123012159665124 
3.2900314225582554 
5.386814763430764 
4.572737458820958 
4.603985442602446 
3.118022042139865 
3.2813070002479194 
4.66201761746776 
3.126655146694575 
5.355105443387068 
8.313027386304336 
7.408694533038618 
5.800687794738298 
6.010816323684728 
5.542351289141702 
7.091059452576631 
7.571267065237649 
11.253118813737874 
4.697664121909029 
2.123514270898037 
10.190760549939128 
0.7730200515071834 
11.072498139112096 
5.986895408064885 
13.259689477746635 
6.296646715086873 
2.5891025289560448 
7.996424894477436 
8.520376913920952 
6.787832967099803 
8.333101216085215 
5.929437755815561 
1.7551730626386093 
8.046157590630397 
4.693152699889964 
7.977374562733685 
10.965487407078617 
7.395771017772737 
5.905171970835573 
7.15514531558433 
0.7548464904193538 
5.216046722436303 
5.5942010592855285 
6.186205797072835 
7.887907700771297 
7.4457769091569626 
6.8303871920454995 
3.632607794089953 
5.340143208189596 
6.103084425232083 
14.585631160956517 
5.30722237716618 
8.964006405885184 
7.6469480189368975 
7.357754331002632 
6.091952040305076 
6.132189276411298 
4.21612794556256 
5.7020405395504214 
3.4961635117034944 
4.07921374175642 
4.5943303706889385 
4.189367330928276 
6.662853809718661 
5.002738707089927 
3.4480735148922212 
3.5210269485716448 
3.113875235999981 
5.300167713847591 
5.163832978525103 
4.529995612315906 
10.60153096216688 
3.029183368613057 
2.9374632086145374 
3.7401342840984575 
3.282101501246032 
3.6656101667558048 
3.4125348005903575 
25.53924453951194 
8.640184661945524 
4.868143346285055 
7.349958334917764 
5.564741618183492 
6.00439304611593 
5.555907155932466 
6.1514316050518305 
3.9814257729600224 
4.878990409727477 
7.279782583036675 
3.7768341564685954 
12.086156361533039 
11.556022256340853 
6.719483350989329 
3.719637754524652 
6.651346724156585 
12.105081825503303 
5.37269488779012 
6.069814249874181 
6.065245567037363 
4.1765667668393 
11.009919805702124 
6.6196973658024305 
4.091450610486141 
6.292799393241611 
6.021408106372786 
3.2661480872330193 
6.125843405133932 
3.567280687348881 
17.646252257931266 
3.110002322286285 
6.1913694720518135 
16.801088567152522 
18.766610112736767 
3.778558751252223 
7.646165394694828 
8.96931752025225 
13.723080573094336 
12.837006182929283 
12.585766796900412 
1.7357494312989918 
8.56927804640846 
2.568890633787667 
6.073620672144806 
3.7127863655108215 
3.351414006334541 
10.663976603441979 
8.949506849949083 
5.99167818604581 
1.4712230981142929 
10.415183110211817 
10.380510672973804 
2.8601244935184704 
3.673262879947658 
8.351877083487032 
4.206562183601318 
12.181936718834331 
12.685116102400233 
6.809230603765221 
6.730748388127712 
17.462895707679344 
10.071327899809255 
6.639523213012321 
7.3458370282038725 
7.750317205735963 
7.805077112876671 
3.6193832044390075 
3.468955487911528 
25.598499829285736 
8.170739250348163 
25.062462416864168 
6.670426967136301 
7.319071930895297 
3.0755775050262346 
6.649453596170295 
6.62294313745601 
2.672622852262893 
2.7659302273345103 
6.821103364921802 
2.571124747585062 
4.368706996821825 
5.199498598878607 
4.755463718791084 
3.1719722195095343 
9.368534830399154 
10.17084669515099 
3.525963017676777 
4.666155752421559 
2.9368980478246516 
6.6458557633476785 
2.3949804195675175 
3.751692678871647 
6.389701803330726 
4.720177273876842 
8.014487192440733 
5.2036976467809035 
5.409348608144601 
7.444896582963464 
11.497782377921572 
10.874473399087096 
6.744295938614373 
18.535117296778644 
6.7965712998909495 
12.807465718951331 
3.855296889476493 
6.714907550921772 
6.699886056501768 
3.91668779310275 
3.3796476989431237 
8.158397112374109 
6.204667388135557 
7.503832444355654 
6.826657267366366 
11.301842097980764 
7.894292805964594 
8.887239222288388 
4.486372684127853 
8.493303405705731 
3.9202296901221896 
10.073990821040912 
27.205071546108464 
6.7497627005454435 
8.112266146656328 
8.172569926496395 
8.474506997051062 
4.8712918888537455 
6.983699464760188 
8.152098124649346 
4.521202160061733 
2.6978510149017985 
4.218737436174732 
22.56700130509768 
8.068228381282626 
8.652482885380453 
3.123185720122924 
5.093907441597981 
4.447114188717034 
4.958635836890786 
5.963030119251933 
7.897280629514841 
10.0820370149339 
3.652277155220508 
27.810829396132938 
4.689889909900024 
4.572858947184557 
5.74237425352857 
7.531753760541542 
5.728908059213274 
7.619503136532362 
5.859267032880906 
7.8277619893073105 
8.714978416206222 
9.571205815674556 
8.394051856542902 
8.067952908821258 
10.254834877887 
7.757475576047918 
7.4239518507626245 
15.736120576058703 
8.249973122911209 
8.760662683684307 
12.584606484210557 
10.386199975098668 
11.635462966807943 
11.275281230821331 
7.401156075901401 
10.948779591114953 
7.502266580744089 
8.753484800507966 
13.468530729647346 
10.809109574641582 
5.7163488285326505 
7.6460587409799095 
3.0299959134071273 
5.551118463421803 
4.569040638264437 
22.645104935949103 
8.726141622527233 
7.029342569555213 
8.058900703011584 
5.203599168064422 
10.207785023679875 
26.972918516297966 
9.295709980620247 
8.719408194875395 
9.53841440652443 
10.56357599554384 
11.540942347941494 
8.608470888994422 
9.49808008167459 
4.744383853185937 
3.2325563112405167 
8.732928428423204 
14.060588239650725 
14.595333374140196 
11.419102885864763 
16.688028061484403 
7.373131160311829 
5.988670247515324 
10.807997789875458 
26.647988983313272 
10.778192390652412 
11.349019324793655 
8.065816300656161 
8.145359838149577 
7.2749610765335415 
8.829507476268828 
3.196309546577381 
12.92532425862572 
12.07416272734188 
14.948955764632611 
8.193064463289845 
8.75485438603078 
9.010101579392481 
8.18129857889827 
19.843411542835995 
18.373846731030035 
3.5670725770274623 
8.155692377665144 
8.829411967058245 
2.6117150450732476 
3.6740159052334547 
2.6655362448366167 
2.7406321879047564 
4.340196252744746 
3.598424257624471 
4.892941204861225 
5.268902410099007 
11.01214829466182 
8.533776211649378 
9.33723234248969 
5.51301163177137 
8.67447696389888 
8.660309736092378 
5.301436375182535 
9.031855302737142 
10.734332544409313 
10.520500061807134 
7.183864777870438 
9.791250625567653 
21.603422524417592 
8.984605953244499 
4.644013851220247 
1.6531533803147926 
11.06239892845694 
6.2657391601528865 
10.11345012211415 
3.2864400502248934 
10.266910596760724 
9.829732784602433 
13.88724929695981 
3.505401020613156 
8.865360754751185 
8.139238223857442 
7.045901187858607 
11.8420265779052 
14.546292629740453 
17.111104964798546 
3.2092627413402117 
5.979168100831183 
13.851358380144353 
4.736005794015078 
9.425512020249261 
5.775141702691643 
8.421892689656016 
6.0051424780453075 
6.031614402635202 
6.6890926514971785 
10.316712537331577 
4.006891692022326 
5.737844375355547 
9.55389994132787 
8.841708079757774 
6.304859275236173 
6.05659558901132 
5.956603172819625 
4.56668483192732 
22.972169572895364 
4.871174302229842 
6.748956957016743 
3.5539786628618666 
9.53620498203492 
4.240331998710135 
3.8796761776114126 
3.971342654240916 
23.323315838297464 
8.085660890934133 
9.96185070812188 
10.34558021030242 
9.886422163511064 
11.00068668011856 
8.973673175649573 
6.2172990576521485 
10.11269784023531 
5.102080224934764 
9.459324899521478 
13.62182869272932 
13.104067097060229 
4.56855545866599 
11.68715294992279 
10.765607152572935 
9.50156959354862 
26.2864246035908 
11.653073640700539 
10.119461090122746 
17.8665589036497 
22.2310364600833 
4.089665187717613 
3.0638087968592993 
9.472413832448504 
15.738023398195411 
5.124234685864564 
11.012735649352658 
10.278662026057091 
9.479489367842598 
3.4283206889963767 
3.335584791165512 
3.5697358834780673 
3.6624130100104 
2.8901117002065813 
3.9569075198631714 
9.217386002500012 
14.67752300315913 
9.931213789268552 
12.049783885187676 
12.634442959486167 
10.17711643864754 
23.245223141112792 
13.888334898745093 
7.309756788519292 
10.235396915089176 
4.631673270326646 
10.959716465314374 
9.209364466823718 
10.90542763162532 
11.299292407314118 
8.250150472401337 
7.64164514310328 
10.835513042722377 
6.586608537073158 
8.399213568598098 
10.44878005715641 
13.718223556174461 
11.16629903259583 
5.061910010912868 
12.381168395885656 
13.714150695436073 
10.271343076799864 
12.325223802374301 
7.089536685072394 
12.264449687886433 
10.179084950358252 
7.256104754327009 
9.513623059933366 
12.054071582592275 
11.735471130056837 
10.990193778370696 
2.264731780883187 
12.089463178199633 
11.399678664948556 
12.247332186378872 
4.1383187300662545 
10.27518699978501 
10.373687971527934 
15.315462513113173 
10.871743399765059 
11.61388945329102 
19.276362041474943 
10.210727247896184 
11.843343962749966 
11.529133644021066 
8.634562208452842 
13.637171442124998 
16.407943891781823 
3.6153987488258656 
27.28012054663961 
3.531660308056842 
3.3218702499921653 
2.339702150837976 
10.764022923192815 
10.84078913424559 
6.172670751798491 
5.277166301274954 
4.665800957352081 
8.958777075190246 
10.442010328983974 
8.066025429069601 
9.969548979652398 
11.176661184022462 
8.849300787970005 
4.04914699385765 
6.6173723215423585 
11.585130034349572 
3.9878301369950564 
8.36748628742188 
7.0277205200432284 
6.5926842066869815 
7.1703420298632645 
4.4038426894978056 
5.91311135157903 
4.282910144028658 
13.037283970773434 
12.0284133229114 
5.329631110661876 
11.593773587600195 
10.889189593707249 
9.589185340650145 
7.956048253636724 
11.478306028208216 
10.843633724423865 
8.181550056766628 
10.176687721386962 
7.582339376266664 
9.363931152100552 
8.872078340700392 
6.541453813344629 
10.786040077295773 
4.38536239309514 
7.102718843952809 
11.754945071675323 
5.316103146273432 
3.7448557190332603 
9.274863464105037 
7.101280289872449 
6.870878358481165 
11.995394227394403 
3.034914305394073 
3.426200081426922 
6.093168636763515 
12.05463714216448 
6.325582792206279 
11.99656182669952 
4.186250147897934 
2.3573119776719986 
11.706577113471605 
3.5345015727342326 
10.549071269686797 
12.172902503370452 
11.482775862915586 
18.46235966098115 
12.88591002941551 
12.046066443743507 
11.73525121276993 
16.436509306172812 
13.157666504978717 
5.1653222516921184 
4.735489691354089 
12.156257302503692 
17.112343016109204 
20.299711482005463 
11.640707248553824 
19.91881870776925 
10.811448790311 
12.09598256082603 
12.111404795369745 
12.37768800978497 
11.887294746855382 
20.833326691579746 
11.709406135070141 
13.354511281910938 
3.7502331155078084 
9.817433870879608 
24.027352918472953 
9.555703191192373 
7.891953494364085 
19.402187004373122 
14.580569086632511 
19.257909105355058 
22.635326807157178 
19.139882604489845 
5.964297415484829 
23.393255536062444 
19.736777938413674 
19.671645379168865 
13.405069905647983 
14.373592333813981 
9.210239619309126 
16.145894353291034 
9.982287568558059 
16.14849566562286 
12.173682054719851 
12.25519540637945 
3.4557871877223882 
12.994470989821332 
12.779161707600265 
8.5349430949677 
11.46503086618164 
10.686962892150678 
12.29114071297627 
3.4554315324728955 
11.107485063521766 
14.089864023989563 
5.99753199939016 
25.374500217035294 
12.966392303545486 
11.934132139924364 
6.026145482371478 
12.338033638640097 
13.650303276750313 
13.532161274864007 
12.273102044500899 
4.774750928409886 
10.165532542060351 
11.477675366052367 
10.76750332849843 
10.030229129443663 
11.956468374257641 
8.26321902351088 
13.01308163868027 
13.671698156103465 
1.7287547594285255 
2.970128933673109 
14.95312324988988 
13.429564953277554 
12.3064824192728 
12.497516438032003 
13.198441550776032 
3.394095243945369 
18.494219735361657 
11.116646160030609 
6.923226437020206 
10.549913767015955 
5.657458087091343 
13.7701798348119 
13.090500211528706 
26.44317047798851 
8.36761879452551 
9.115872464876132 
15.765553156238205 
12.468328522456359 
7.124147518575168 
11.654805705175729 
9.859840764156083 
12.270643433127683 
11.476912921057627 
13.006249193001766 
12.955526894172504 
7.842637818632717 
12.65659916313787 
13.711000805099927 
16.376834889670004 
11.39349679929033 
4.543716887992979 
13.29105585380396 
13.067828985049024 
2.6028414605719 
13.635623147706259 
14.181817896289726 
9.440621706978176 
16.28062359606663 
18.766729007548644 
9.590102284209303 
11.404703262303943 
14.457390806558427 
9.753950963377667 
16.40190810341075 
4.339971202531597 
4.698910571099872 
13.197177486541078 
4.328799679682975 
3.8351276351593913 
13.68786175765007 
14.408367401096507 
15.007601439933058 
13.321565293074595 
3.8981846558256903 
3.0932853292658193 
3.817058312136503 
6.589017051208073 
15.863399323212972 
4.106383494327205 
3.251885593474661 
3.989349001538081 
4.378048541974753 
12.877978464720831 
4.499151898292617 
3.5438861800167563 
13.404084233187687 
12.046179620269086 
13.905492691547128 
3.2278339381760963 
10.6522094150212 
12.17655917831304 
7.561064116336708 
9.562077806741748 
13.695364758691122 
11.551415865248432 
6.443334025709288 
14.285307602446425 
15.23642390105419 
4.503947136876024 
12.219259360482997 
2.4493383330046017 
14.893668694242729 
14.546191756869202 
13.692689666479447 
2.806421858133749 
10.2892004641063 
13.95574810447296 
2.946174560141392 
15.236986819212072 
2.6601322524198805 
12.366837513305523 
2.6656691175840668 
2.5058436347078055 
3.577353053452667 
14.370783592084855 
6.641342557351889 
2.81334787950135 
13.620290419148475 
14.437245509622072 
14.47931447702488 
13.714407122345149 
3.6026325115962994 
10.560263538840259 
12.0557538349185 
14.79343235722384 
10.981902708094427 
6.0405123779508525 
15.322341938069913 
10.073978932743486 
9.386155605867863 
14.469783861498456 
12.734514078052573 
9.128651668263638 
14.475885794715936 
12.92224005295169 
13.177691378420139 
7.594444875660304 
7.875471648274917 
4.64913770345472 
2.0662131217302835 
2.422136817532556 
15.550143265726508 
10.04319945690001 
11.619402048891532 
14.307596939303313 
14.453639972874306 
2.9131633592075725 
11.926726200082005 
2.70114814807601 
5.811850573384516 
3.185561026535819 
3.1388974658074322 
3.0529412827563567 
14.268805954257697 
5.270435115406756 
15.432300702907039 
12.934690693733478 
10.078089537464072 
5.474396786450525 
15.1724011217102 
4.890800481411825 
5.072994458126357 
4.789278903909246 
15.604974283276865 
14.43355549281269 
4.038241256975269 
5.052520752890988 
3.2991485121268576 
13.37438370777427 
16.271462567847518 
6.774427947318081 
12.311655371282086 
5.082689126143609 
10.886542801513649 
15.224312200692822 
15.759802366133714 
8.405874214280031 
8.701832777229045 
7.481002795814712 
3.992413783943622 
7.996123812313591 
5.278503455403309 
16.200557724222087 
8.093293023779015 
9.37920812016053 
15.958369166809554 
16.0182273703304 
9.060005144290752 
4.00074479532453 
4.929203313508774 
3.8563296355823624 
5.406343710690061 
3.152862729147109 
3.8502332671470048 
3.585193762157073 
2.564878887373729 
15.58397162956139 
15.021104528020366 
12.792093235068672 
2.2473738889847517 
10.410309709718467 
15.756195102423714 
3.26197752942108 
15.277422400527971 
15.205114379612674 
12.93588937907618 
16.47651458073842 
2.9674206752578947 
15.24731479578566 
7.926815625052632 
15.827898128098811 
7.303608162334793 
9.438081603915597 
3.783355521436856 
15.040245917568438 
8.143593209344786 
2.9936093267313097 
4.881928947529731 
15.048708782377659 
6.341093656095315 
2.4703643542985296 
3.663304318311657 
2.6782305898767076 
6.434700919315676 
4.83284821458792 
15.205912136785674 
2.974438004497331 
7.8097537430425685 
7.589053774688034 
3.236527312060623 
15.958192829200486 
3.1523568492095846 
2.970913112909734 
16.664677287015802 
15.76711709929904 
3.8754463377482757 
6.967135509880711 
3.221877586120399 
2.9210374360167486 
11.152176322057043 
15.212396295071269 
2.845517687604395 
3.937037699701922 
4.166931744412709 
3.862868981650384 
4.215894765318102 
17.32326449339777 
16.619142126298073 
13.912251382121779 
8.902924619659592 
8.911599176369299 
15.846848621808373 
9.20884725877715 
8.317561430694091 
15.757893170014494 
5.182838128206326 
15.667232414522688 
8.359818261394256 
7.622431308617755 
10.232282046525558 
3.6953272503822956 
9.230557055981304 
5.126632373818842 
7.872948583923568 
15.216620234203608 
16.5086420241194 
9.801769691566566 
4.696824400179918 
5.978602283330094 
8.301053655864502 
2.8530980924833043 
10.061084551929737 
15.95844482673112 
17.64477379394539 
3.7028399443291184 
9.7504202489999 
3.184938587744896 
16.620560334767543 
3.0763005956335387 
15.420830956466126 
15.33542995799177 
3.061375983819481 
2.9071426550926627 
4.307673918563089 
16.06866645484831 
3.774760715738896 
5.378875551515984 
17.421626712503038 
16.370504160851173 
1.768280650118649 
3.2213050171379676 
4.339039336748358 
1.7645131931044513 
16.47652447162119 
5.0319761619954955 
4.8061475419553785 
4.047549697922425 
8.37277447877472 
14.8458831069532 
17.689823764250626 
13.84420976355853 
6.45448246816965 
11.215157771833058 
8.049646842520717 
4.668853739929319 
4.778549089538337 
16.74114476526304 
6.253850185241879 
2.4071828834036646 
15.975189880899388 
3.3588995685272756 
2.947384418929477 
11.339423521585848 
4.873756355794176 
17.994913850820105 
17.05059546572869 
19.32129053981443 
3.4974268097865946 
18.446391231081456 
11.842654665476088 
3.081291002594982 
3.092919781807542 
3.9800902433390606 
6.203843315971161 
1.9621419970751115 
6.392387233917257 
3.009041462457973 
4.100755087105134 
6.049941124769915 
5.911205862688533 
7.904294265114382 
11.283519540953229 
16.31037210821844 
10.787745333129706 
8.13177242757983 
14.293149252113484 
5.398585787336497 
10.189730583975152 
8.517388768764492 
18.66588237290128 
17.328810281084767 
9.891933605146907 
15.042202549146923 
3.979735182159171 
15.202277411376182 
18.365030128792167 
3.3547061320681966 
2.747940681379573 
16.003051425323633 
3.9379027813677268 
3.7885112210656082 
4.357597526183803 
16.93340336861764 
4.880651308861135 
1.9804937483728713 
17.73356676178823 
5.027954465235671 
3.1802668340564355 
17.188561668905965 
11.535508182811078 
9.48790775153185 
2.4905535775099246 
3.0762403969932204 
3.339006909600791 
20.372773921751083 
18.157439770890804 
3.103280703920293 
17.85494450382496 
8.175048015069756 
18.17935518597733 
5.967524443100907 
17.523013094704705 
18.056345810559122 
3.139034879020822 
5.783226142345065 
18.345686755581333 
14.660596335509526 
17.870525172807525 
3.202722682412248 
3.2991638496887123 
16.497376611569734 
14.524629346447739 
3.975872872196341 
7.192215706180458 
9.196520474326958 
12.433701751331997 
14.961952575211688 
17.726192968313995 
17.897281650504617 
19.557053645353918 
17.411929312314207 
1.080537644588287 
19.039115834883184 
14.882457788996973 
17.135162262189432 
18.042698361007467 
18.662762800129713 
3.7577122980425615 
7.391339499949556 
16.236229306451104 
19.099419799349334 
5.378907338073368 
17.943272294998106 
8.703652141109075 
8.416466630237691 
5.639117234530073 
16.94116335699225 
18.57763166331447 
4.715982990258238 
7.971346394742009 
7.460401516769139 
18.726512077489126 
6.151845628572228 
8.922322661807502 
18.845568315565284 
5.803893214840996 
9.048027503638593 
17.779392498098026 
19.205622145484224 
4.270390269871901 
25.794859431956944 
18.482833511358976 
12.48719502226807 
24.724591503011855 
6.417654373041823 
8.07689476156588 
20.85055117463014 
11.963576092611762 
8.271493842334035 
18.113941701387574 
20.102030279220845 
20.273635115038758 
21.852705594028233 
3.4268843320138416 
11.982509550339032 
19.070123935956385 
12.231388719417652 
11.357255998261504 
0.8408720497608331 
19.229919196632387 
13.286890306219817 
17.651320748430546 
20.333333014253753 
11.949369458240927 
11.970463627201436 
15.13083711100781 
19.503277481775086 
10.106179808830195 
15.435651034191483 
15.129371121400386 
18.678990306597548 
12.240327625085136 
16.536931142825008 
16.463175903713708 
16.926925988907975 
3.330734864168665 
19.176172866534998 
11.957565851807928 
3.622980584266225 
17.175569421812764 
19.94301486289941 
4.541492549976531 
2.9958942770233317 
18.71674661114027 
3.7649488148075654 
6.322759616410963 
10.603277680404394 
22.07181489580426 
7.150780928273882 
6.054904283932234 
4.012700075036526 
14.468207817503895 
18.713493972295634 
4.384234029384892 
18.908121187972043 
18.946904456192982 
2.407958587083472 
18.935226501263255 
2.7240418065357574 
2.4440719403748656 
1.410188326779757 
18.88698888313915 
12.484890917887098 
20.03318438363403 
20.099901161693367 
18.6844154582745 
7.190961871094695 
8.877669026992733 
15.523689697019346 
15.34677370053094 
8.4564050472827 
20.661543139127 
19.61867178122946 
19.675235415041776 
20.802250846770796 
9.156087388359941 
3.134745289178156 
20.354843075545862 
13.531055827808158 
12.494128808151691 
7.380375336394147 
19.14092981899622 
12.72693054461705 
11.18457024797429 
21.06219040097763 
20.136564698285188 
4.503221277643541 
16.509720728532344 
5.441571669372585 
8.95008956576601 
9.05306820320329 
5.530073092866346 
20.641682262997264 
19.318155351176546 
20.031247841130806 
20.277744483115345 
6.559238342269051 
3.51007229331171 
11.285044334648193 
14.654507101656312 
13.128263375398951 
17.846584619874925 
6.166042661231084 
6.276397256722782 
13.650332874162896 
17.767091972566057 
19.681465536062348 
4.201095858930699 
10.245683956707488 
6.070135677330595 
9.539867021008796 
19.827434586064935 
11.765072975126118 
10.624509901633795 
11.735532499398515 
2.9858699348205855 
3.343399121001526 
20.35462262886908 
19.638567414033734 
5.0341947320358305 
8.356963513951007 
7.553908046000354 
3.5860904945313137 
4.3213104290996665 
20.23451166605858 
4.604564880101861 
20.11573821864618 
17.236974098702056 
13.109022154039309 
16.32764851502906 
3.8205578249755905 
8.134884916762342 
6.585878320840384 
20.113378111766465 
8.90011411539115 
15.043547278375677 
13.2642720714098 
18.778125999660723 
3.113821154490152 
14.601710061214098 
7.032855145234874 
17.416375316063228 
20.921374391716665 
26.413759755615636 
12.176702537893387 
4.801028013623944 
7.582579301969191 
11.596769917573415 
4.651373970362071 
4.128550380156642 
3.6495856075744584 
11.65940402402787 
9.097478676580424 
19.96815521038354 
8.111741471153723 
18.106669157557235 
6.631087170702953 
5.263965358259505 
6.268243394792736 
4.926522308286144 
20.998181082328752 
16.11917785116798 
18.69773663866114 
12.134719052022762 
19.72197211695221 
14.396169895190425 
4.267513828774444 
6.153402312338483 
20.750473397704088 
21.36277108938328 
4.809566329946923 
19.50724911073159 
19.01457305878676 
8.523796729968002 
14.780831188070959 
14.371747302327327 
17.617689068294837 
18.1729770803751 
21.38924945889542 
18.392160537620434 
6.225789395281188 
20.923227295469463 
7.086371380033211 
6.28852098313246 
20.81117116062625 
14.09303966893408 
11.716646089542873 
18.94332100005328 
2.807584308556154 
10.48042200811638 
9.545693868564607 
9.359834366565082 
21.26045950049273 
19.959357846436223 
18.69647470709175 
7.3760587091754 
7.626122420712435 
15.286359044109133 
20.867498377887262 
9.129365479917563 
21.019164718462715 
15.691112226567245 
17.399946545404724 
15.335634017536867 
21.127708549450965 
11.796291709277142 
20.418480681419457 
7.941419237658738 
8.996288506440496 
6.9130481098163825 
21.0008987281944 
12.375146669223714 
8.083750388073538 
8.567963133637555 
6.381627574396074 
12.552910022175364 
21.892927820806968 
7.177199105940258 
8.67460550693432 
18.20591310956963 
11.967725817721448 
12.696286840217878 
9.320331131898488 
21.03471732100808 
7.482675350995931 
7.945547277737418 
9.787345239887793 
6.2983502637553 
23.565512038030274 
9.615295026449239 
7.507284181902631 
21.37534345563223 
7.523031299166224 
9.980466562084022 
22.40765414841615 
8.724971280311406 
3.1984068316187795 
21.38839735168074 
9.626968670916852 
12.786171612209944 
4.193077299584115 
21.676595795843486 
2.918058406807144 
3.0096300740486046 
15.403750368223134 
18.192851983817285 
8.53778714395283 
3.2990609125615595 
22.041069801315178 
19.966963212667235 
10.873689066146719 
3.5722332475631333 
2.727207452591009 
21.2763387448652 
21.39964596669319 
18.72912477841458 
22.03474020559669 
21.59456283995601 
2.93203715920522 
19.650737474760817 
17.912503797395757 
1.9896196744108565 
18.736721231209334 
2.3782518733434688 
3.0799614857303776 
2.799730914171089 
3.1355174879216725 
21.10866684872286 
21.408581744275704 
2.889805913623106 
23.104256384728696 
2.9585282611683574 
23.238972112977283 
2.8385324115930146 
23.24292482216424 
3.5194963505459254 
4.301126844379948 
3.3156156975473916 
24.116980889546287 
4.9084079926970805 
5.879928718348377 
21.12394251857019 
3.808607708551308 
3.7972066192677696 
22.031622464942057 
24.09325558039604 
21.932860307397647 
19.244245070353145 
19.246654996159386 
22.06576746392766 
19.859264228001692 
16.61471704711298 
14.398716868659006 
13.465377776913222 
20.94207517568354 
22.07490628722458 
15.78255209012508 
11.428284177688829 
22.93937958402963 
9.346406954063069 
14.621655282794316 
24.374369173529384 
15.969118159473542 
4.408930416145967 
3.254188309702172 
3.2248178674413084 
22.97331911293388 
23.568419769347532 
3.521795843085379 
4.199579988305428 
14.64655305474118 
3.7079153937043494 
22.055764599008157 
20.242329636787154 
3.373624172994661 
22.348360501958854 
22.077373312182935 
14.005259033770702 
23.296228665182507 
22.062527903412178 
12.966707992707315 
2.591807123124215 
23.24446609612458 
23.610690380247988 
2.7954449825603795 
2.8120541757300797 
2.976545395171387 
2.785292850393507 
2.752433039271399 
2.647800143800874 
3.5193360429156537 
17.833559087774272 
3.965891917761221 
17.30343911380439 
14.718758812176276 
13.795646651593911 
3.8464682522970106 
4.8156130795316345 
18.972557918459724 
23.68377947563044 
6.1418509951029305 
20.560102044446964 
23.70611792997036 
23.112810497662796 
5.997547281390703 
24.240017933503097 
2.8427211648486153 
2.110597602281597 
2.6338198324144484 
2.4585385478654467 
4.7869246708702144 
22.829038887342538 
4.653445528573824 
3.576772082274872 
20.84859863107383 
22.449763913071052 
23.508909589396772 
8.992271110229789 
5.415568586783542 
2.775283947629584 
5.130298122994776 
16.262060690421904 
22.55775152106167 
23.206994877892697 
7.839345276943731 
20.771717853756115 
22.817983337518058 
3.641740452425846 
7.1861983928248305 
23.30175421137815 
11.044386605098678 
23.71954382947733 
5.686669269188996 
19.257534503142306 
5.665025286330123 
23.517514850880286 
14.902554738382344 
13.11151055779321 
7.179555151119148 
7.073754571106993 
7.827426758094673 
6.07567995200745 
6.095273931887232 
9.505392986908875 
2.587091333659288 
3.4366501086469063 
2.722683101875151 
19.861060660257156 
3.119498639279435 
2.7219609430127725 
23.72361901475345 
3.319351124956766 
15.129144762714612 
21.33668362026399 
3.1630761371857172 
2.942817958876385 
2.4571050292559384 
7.857199730050303 
23.163585167974063 
24.282381574410888 
25.869791584350846 
2.7716282830682446 
2.997823323522261 
22.49475153311325 
6.9577238201788285 
5.669465935645969 
21.654005429314367 
20.906603006072363 
24.115552172191553 
23.727675479747198 
5.713670567886481 
3.6009480634745206 
24.306074151460027 
23.875113429034126 
22.720745660171755 
24.556855090599807 
18.741613659241548 
3.1182421117066537 
3.957813648411958 
13.153692644981131 
4.808611848659419 
3.0582452773959425 
3.1403389850526375 
23.35251231736281 
2.7491727926006835 
23.453084133548263 
2.5845942343472563 
9.558196301186026 
8.94175142760066 
23.60242299899906 
9.928623355804907 
8.850597244245156 
19.900195653778287 
24.305551030290648 
9.051061228436813 
9.892856819317887 
7.159144066643097 
13.175561330535945 
2.945616915651792 
4.467426800414522 
4.280194090502832 
3.0855219623701795 
18.049989293215052 
24.318743727203866 
24.2890472541453 
3.217676145499662 
2.8483413543904548 
8.993527757858592 
10.784941880002906 
24.545962831141882 
25.489488593128442 
14.13826448811344 
25.812872468822814 
24.461515983629056 
14.67246863952666 
5.311626199937729 
24.455155077284537 
9.039098862785513 
10.534684299195995 
18.392925798339554 
5.175327497993367 
7.284407150059825 
12.425819896297417 
24.8728071195337 
13.356110093864363 
6.604647673138106 
7.646615113415893 
3.8059622796540467 
24.333559103674745 
2.7322765971671967 
6.916997897879419 
23.962898999858734 
3.7649590749545916 
13.972415153201787 
9.392695658498182 
25.15981531204744 
21.46628112296923 
6.7479107647525645 
19.887392560219766 
24.394478422693766 
4.610603461032294 
24.668676217050564 
9.907283871287849 
25.060071105515114 
6.7576849396264675 
4.85676770673458 
4.797100236210057 
5.033376862206919 
24.39126242023716 
3.081079102568305 
24.472521113010583 
3.8596470633471767 
25.793735669491948 
2.617504873411125 
3.365214690014207 
24.464898289130332 
2.976714183824233 
3.9402882587784585 
28.337866727577826 
3.3200403340393643 
3.6921281372755255 
24.377931064224533 
25.64109588786137 
3.789577972963832 
3.98185680408356 
25.106372391471346 
15.90686525490994 
23.121480871141085 
4.9190255090668655 
24.615772811899834 
2.69305477842764 
16.997062806626335 
24.90613923732959 
11.29799860789309 
15.63962205417726 
21.45080833755961 
25.520038043645954 
15.298468398392588 
12.834876861480344 
3.456878298154701 
10.761047671697836 
24.803192013695803 
24.341516454274814 
25.464574028584142 
26.34827495462745 
27.132876674243512 
25.461801036034952 
3.509247873487884 
2.5568919181512464 
25.578864060255178 
9.876317260338519 
14.089524580323099 
25.04879931104371 
3.649639826562223 
24.69854773202638 
27.91881351711005 
24.968554689614464 
25.856754819723772 
3.2466128444345834 
2.8198530301061626 
4.914039366958379 
26.204271633978166 
25.15304734131379 
3.2057087432774525 
2.771437967586451 
2.046116522496018 
10.349405198722462 
14.984689335585209 
18.026077094820927 
27.29381516689831 
25.408103927413542 
15.491141765026239 
25.53109116717941 
13.259756162582173 
25.262385634090144 
22.989566031101397 
19.74906527555287 
11.491768801677003 
26.945511827035467 
22.144368702429254 
11.247011751292577 
2.7632431138488873 
26.30268728846989 
21.13385401543161 
11.91817700407898 
25.17482490216853 
25.182035000758717 
25.578724611936885 
2.650092056766524 
17.105983374987336 
27.083058375985825 
21.07785208122222 
26.611342908873976 
26.26993388803233 
2.601084451192026 
8.315154711743023 
8.777251865874371 
30.8033504137955 
16.660379061864266 
6.220075415812765 
9.610448793053386 
6.785837062960379 
9.315977762394725 
4.971621663450851 
27.111996894866355 
4.065184840795887 
11.75173974931475 
7.419011612224654 
27.173294812155348 
11.800625150678012 
8.955305370115354 
25.551439218249822 
10.856270703100408 
10.211085960681793 
5.020744226529803 
26.48563165438986 
27.200809494820238 
3.9499572991928504 
4.0615851634457885 
5.503826907448432 
8.135219877249849 
8.736028120306317 
27.57487051573191 
26.467650158176337 
3.9810200513635636 
26.445634678056486 
23.145784532273048 
21.738936204845633 
26.538348502929942 
16.70080102547098 
15.040787300702256 
17.816401133096203 
27.04118718734825 
4.673568332273816 
8.747537238863442 
12.28208733905471 
11.665460875959687 
14.40778147175511 
6.755206212068506 
26.158008656876895 
4.821915339238148 
28.762297916520442 
8.931624415289557 
27.019205283167825 
13.417780981516785 
20.322034730265244 
26.45115628235121 
25.12763016193573 
22.563410658677764 
10.815325219081133 
26.15793874830469 
9.856720696496891 
9.075847040082493 
26.538841496539856 
8.922745405840127 
5.845786578441463 
24.95258422815068 
24.609794151457443 
26.939291868563647 
11.638991598139649 
26.367520799931253 
5.513629141265421 
5.674836202416868 
25.286284742730324 
20.80628428458088 
10.813558516776654 
13.73253059367768 
15.256586345976647 
6.786931939130779 
3.9536940998534194 
13.492836556191092 
29.319000299078528 
21.21745726560227 
27.12053211181387 
19.209934315125775 
13.020246810514399 
9.082896270973434 
6.169215029452707 
3.988781331112844 
3.0538416775823265 
15.343172930029551 
27.025284810582622 
20.12924737240305 
12.540020042348702 
2.645013694493673 
3.8537582506403667 
23.466844151717925 
4.499195582222275 
9.688124235524503 
22.932690800490608 
24.118816506499485 
27.505991474054596 
5.693881782951055 
4.056710329939204 
27.132497644453505 
25.450679178895065 
27.6351167557899 
18.51957667198491 
28.49646253174181 
4.152770084471817 
26.93385887325511 
17.646524623955507 
5.671609559390668 
27.464583520569885 
26.982680094892494 
28.757221913218874 
5.191934036595741 
9.762146808168207 
21.208808596739708 
27.804834706696948 
29.410524079662594 
8.603040422775285 
18.131941474534692 
5.321567225923494 
11.248164395382606 
17.108788625994272 
27.947622121050863 
28.340306264229522 
27.373442354575573 
9.897847913792287 
19.081626710086976 
23.64542005821414 
27.21945990553194 
27.896007836923058 
15.895193736300207 
5.951325574966636 
4.948871792953921 
14.623267634633466 
5.771759087060031 
6.286884706359892 
5.631360711757536 
7.090480271863707 
11.27096918004161 
12.345270439531904 
10.05031014213679 
8.355973722147137 
7.142545747685085 
7.510281588959944 
13.122880048327985 
27.03616084406889 
1.8582448690463658 
2.8275073641902955 
2.551030111584228 
10.616553533956601 
25.496620411767758 
27.917912073974012 
11.060624358458666 
5.738430158957867 
11.7695485293106 
29.639736203536778 
23.64699761806832 
14.687103436904962 
13.290745562087432 
28.01888258418879 
2.3266066538356696 
27.744212474977303 
6.485984689749715 
8.952113204800588 
15.12286073868259 
9.01491291970201 
2.3363651601635333 
28.27545980503668 
14.60190270341093 
14.13419756998754 
3.6007055338942853 
12.298668514903047 
18.887987183703142 
12.105682506466854 
11.936984164591335 
27.871396112265547 
5.086055620054881 
4.433783964795418 
7.7428722490877755 
11.62037920016903 
27.684462868504365 
16.46556938277481 
4.486165854804135 
29.49086991285697 
8.147664237890144 
27.27236004244453 
11.994637867503629 
10.07689542083379 
4.932928958271071 
8.984229180535037 
6.08043389836183 
21.89180306557795 
5.177727181181029 
29.5135054446092 
4.655504822285651 
15.419283136236263 
15.36391434147291 
28.180016584097803 
16.51835491799343 
27.961581914584094 
4.8230541104810705 
13.20514595161967 
29.062560975245926 
4.7632378615748205 
29.06231598438446 
29.621271845361917 
6.789501466519153 
5.543256166818695 
29.390142621720827 
22.38827076793547 
17.614927565528536 
25.45726863625116 
4.7026570669086425 
5.121835266865743 
12.439729889036489 
23.644333384575322 
29.269214455882768 
8.618815846997224 
31.467294269391616 
7.767150605079796 
15.39720732805233 
21.67121371424982 
30.070566003901433 
28.864746983832177 
1.9938940625395474 
3.533684527239953 
3.0758518842804836 
7.126048531921271 
22.963428788488294 
6.519846292651871 
29.59015218701781 
3.2430330703418977 
28.511429340560774 
5.539094531551525 
7.50780525102915 
24.281665541795835 
28.16200915607874 
4.138184888587886 
7.28039320189144 
5.221083581062928 
29.573805935624435 
6.751366143318702 
3.360904357211725 
26.157858769684744 
23.69594296819613 
3.9261918174280326 
18.614539022825795 
8.408711539236357 
29.92536447906205 
5.061158291926657 
6.334414349189906 
11.953173781287061 
11.158755491564003 
19.06886154267221 
11.1678356011725 
29.864487024059727 
20.126373885648835 
12.330021322108358 
29.65068452526039 
22.04543214761631 
3.4593345131569344 
13.497484924601482 
15.85098674550384 
29.318009607572463 
30.277564607514993 
2.010607517855456 
7.01453521631287 
2.1400953931329614 
2.5705780224172172 
10.018237011287752 
6.519624929807452 
29.25753318922194 
24.434135983386994 
29.5080322215875 
16.452502424944782 
2.7183154737716935 
6.546540848729067 
22.967835859559866 
12.961455575353867 
15.750069057492043 
18.592409986080394 
8.883103105322995 
10.964881580194156 
31.760214692644897 
21.895401546062164 
5.519998461850225 
29.48970492473227 
29.848771269935437 
18.060252098198752 
22.186657703495996 
6.032603753323589 
9.043345704262059 
3.3519688605541065 
5.3552209672389655 
3.541090235198626 
30.718792398646677 
5.773056376990896 
12.436961569447437 
29.476338385961792 
16.557285260129966 
29.86240605911966 
11.261420288303887 
0.9597602847802733 
20.972413681534658 
15.522956682637847 
18.241471478751347 
7.296722292972931 
6.6765529887547865 
29.820585984863456 
5.328906617314801 
29.877367846621883 
30.90525741660498 
21.170621952103694 
7.442117505133088 
4.9007410163050364 
5.050031552460974 
24.15149299765257 
25.42050739323168 
19.554642273018807 
2.926798921478592 
14.864250150451255 
7.750904783146583 
6.149338852221373 
31.195426488551497 
7.266841633382198 
30.512542767146552 
29.924689053305983 
7.5081030611525525 
26.393047756699286 
15.944354806073502 
3.443838251153868 
4.191358946658078 
31.558193695631193 
10.379686642205092 
15.592559115038966 
3.88758149769004 
9.034743221713777 
3.5464362886117646 
28.66432372106699 
29.984133848845396 
30.845217321597474 
4.0332343874642165 
30.158437519339856 
3.4299995055650077 
3.8861765600366645 
30.82782916006126 
20.98552479187857 
29.90463056129853 
31.12968111722239 
5.733947072659582 
6.291385529945952 
6.86940182238969 
5.458986045274914 
6.931487157335451 
30.05073037912002 
5.956591373076482 
9.14178306260589 
29.632852069538345 
9.415035506273389 
5.866619304074771 
6.86139596253692 
4.541070236200216 
28.42355714299424 
7.792187269510013 
4.420832943413228 
30.520485237911092 
3.6885093841296994 
30.77100945027834 
5.083713621450702 
30.35391932908665 
31.380803936566682 
4.34800041655655 
3.99411905540733 
31.60957618754589 
12.281834740144292 
4.485986127691198 
30.042722547536194 
7.669038559999806 
10.031938133143502 
17.936818116923178 
4.013236401472481 
5.518512715402537 
14.009025795930347 
13.522586328226112 
15.872493130029946 
7.650283905350139 
30.1488219289876 
9.467969782801422 
30.848188485618607 
14.074591501783768 
26.56079679791429 
29.788664171048286 
15.309869758112926 
12.680041323802918 
30.19884582873624 
30.73085850390622 
3.6105129148312316 
3.3720749564254264 
8.53819203311707 
3.1238492539697797 
2.46314112734543 
30.393998169859234 
30.800196220610253 
3.209193203864106 
16.155970676893713 
3.0315200534689746 
3.2009500205587247 
3.465875221932201 
2.954849208019487 
11.229522437015538 
3.175694183220862 
2.988716460340662 
29.594462066527196 
31.088752397961297 
11.031155058930914 
22.725823631294467 
8.267165465952614 
27.135700753501734 
3.049881222245818 
31.330203246332484 
2.645503013589027 
2.8703736082628883 
10.267056760393917 
3.7711193509111967 
31.21125691127684 
12.465347209452636 
10.854888039898977 
9.038127200712788 
11.09568192329776 
10.768434009337472 
11.018578761618599 
20.901789175420497 
29.90840974210368 
31.142983921967357 
6.1065474556468695 
5.174515491139543 
7.667014426527391 
8.721965633478884 
10.163846900583536 
5.331256141504397 
3.2145573649049006 
5.867295923127351 
7.297720207162125 
30.76925081270047 
31.04175546576172 
31.568140063919486 
30.752481328190857 
2.6098753173963014 
15.806102435703291 
2.8147978086440726 
2.9430852034409467 
31.357966273464967 
2.815852212659501 
18.304210940442708 
3.004230002925844 
30.22178672969793 
3.120175935086776 
2.408373427675315 
3.1175220550084157 
2.814582132977672 
25.402094945684404 
3.051702395557657 
2.7718324663524077 
7.662864495643746 
18.111035180861627 
31.49597802409106 
3.2014060196750647 
3.4766771425724174 
2.7581513712658055 
3.409364045580722 
31.615791296313546 
23.976791674499648 
3.60724511063196 
3.758607329810066 
19.46110139171 
11.446076152539725 
3.585311147430127 
18.107593206329327 
5.463387819458539 
31.49522909777986 
6.793101945798792 
31.51615457167319 
32.43949092781648 
7.570520854815446 
5.178424028986639 
7.487968887392665 
3.367984533020407 
7.3376863750274905 
31.950065503023477 
7.357496886249134 
5.584564558731253 
16.28834028100024 
4.611042663181646 
7.811444078446545 
7.661612850575468 
22.16990968506421 
8.300600228577798 
30.563892382175467 
32.19305255722415 
6.072525383105236 
15.70029697163432 
7.001590477414825 
31.044077836297184 
30.384340240797584 
17.212687157602755 
3.733709647689288 
9.29404501080874 
20.3829989829261 
18.230751952345262 
11.426131835436813 
5.196698765957795 
15.032093233721051 
21.137497080417955 
13.960887306748054 
20.37563704288878 
31.143561992922148 
26.80201433593959 
21.531866698571232 
18.140019669050638 
4.210890795474524 
4.829652995533932 
23.94793121697038 
5.050134633491524 
3.3761005475513444 
27.20465886488151 
8.304370398289599 
31.57173951183559 
6.893430597627846 
5.59051575078165 
27.33892705914107 
17.662092412400828 
31.578739041770802 
35.622618988586694 
27.935619786140844 
31.66504466883091 
3.610162104396421 
22.20107170194951 
3.914175742502101 
10.430229277158565 
10.191909521621305 
8.068715576088156 
5.30021622669921 
13.176340172759456 
3.239808561518743 
5.216011748709193 
30.846986394721466 
16.036833507097576 
27.124722593884705 
8.868463695352185 
10.032097980149217 
7.175566130530686 
13.804512409378997 
8.79195346478103 
31.760594585352823 
5.78404104193547 
6.142482076490381 
9.094688652860505 
11.047519444686836 
8.538192033117072 
30.81490231313401 
30.61496754489947 
32.706146560243 
4.483180002611019 
3.144198315601532 
3.2913019715790393 
4.616919663349174 
8.964329222437412 
31.09519705382019 
30.53102863579572 
3.8437478247144092 
4.495839251200029 
28.624234965795274 
2.4989702931708413 
4.283547204876792 
3.231862204863217 
3.1596953450010696 
5.440508369912441 
11.813292725406631 
12.172700249408367 
11.751167534065239 
31.861550096181784 
31.93290105700557 
3.270182410111285 
19.39775334171908 
16.215529039715374 
32.64001822527321 
2.938936143744691 
12.114507075627923 
18.084708423403203 
2.42350517714012 
12.32326076004098 
15.37884631858988 
3.6466858629675976 
2.670225652838134 
32.95457561779911 
16.114958175305805 
20.712697091297326 
19.13138116093688 
3.7327899216477043 
3.0972770188748555 
3.970857130733037 
3.165206564817458 
8.159930400779535 
11.356155048972006 
7.847638344506524 
6.326154194120657 
30.74295212313765 
14.90875819980345 
9.798977546600526 
10.59749903706398 
7.108605333113808 
3.6415841557954343 
6.757161801340442 
29.82237606265275 
8.40969474442947 
5.847871902724826 
31.56585475150026 
3.9758478851308796 
21.692508664264825 
23.622381753542257 
31.60538765849382 
5.013298700359917 
5.388303822413528 
4.236290070160618 
26.998407737511258 
11.325618856675074 
31.8758327173237 
7.773140616322631 
11.840279347014249 
7.536560267524316 
6.9515681894196915 
12.467783374377621 
9.8045383023776 
11.750979591914486 
13.788279851000844 
12.85409568842728 
14.797850221862745 
16.425447573113377 
6.256897578841175 
32.13441816430983 
20.357053272366873 
15.09484229294412 
31.294698260379402 
22.9518281181455 
7.125345373500311 
6.080356979761737 
29.293815799057292 
6.427465060607331 
17.82056660223757 
31.217614979716263 
31.968653122256228 
22.193809461646623 
28.52587239132174 
4.538475177181882 
4.583380111639472 
2.969348918607777 
5.153910044451643 
30.60083135120489 
30.72698827593029 
30.074855134303355 
31.086115257834763 
7.385982886323502 
29.29390640408763 
7.035621362269593 
7.4988801178143625 
8.102148171051388 
9.58280872068505 
4.329561249786715 
13.66091232094393 
23.028270747566392 
13.666081891879454 
15.57608089396237 
8.36087998632005 
31.076926249645513 
15.216615239092974 
6.104104771345022 
3.030372657625602 
3.196771026762394 
3.3652079837980473 
3.438384300251201 
3.81271784880087 
30.32368866953276 
4.708746768529272 
23.28141363678541 
3.9387548198681834 
4.437239998916748 
7.524592188670039 
6.849621849003141 
20.28078017355678 
27.718407560724163 
9.676673638405926 
10.145198499664705 
7.5623316559483005 
4.123301437441233 
9.586592875438896 
30.91847197655582 
9.385375615389568 
3.677466496137079 
2.723115375510531 
3.376337818839248 
7.983842358323081 
2.810332804687451 
19.604880011586758 
21.16562099324113 
28.669723944224096 
30.48456359280891 
22.64645806859822 
22.970481511676915 
20.550857881679054 
18.67376727928294 
7.600771102992325 
22.88645614435499 
25.19946237704973 
30.685713611138855 
21.013601964344303 
15.19871094091919 
21.400730315254076 
25.504575045856477 
4.877022186099938 
13.804766504287578 
14.796873365324604 
17.01794395979719 
13.739044109106663 
25.312703461410724 
7.98551379645988 
11.5965012559416 
9.127750634724421 
8.888938502783184 
21.04839334193191 
3.5832521655008476 
33.08483890121133 
3.5320994893181394 
3.65680626065181 
4.37473674197722 
17.126456123783043 
3.5806091795292527 
4.394033799490571 
25.846204126408665 
4.24888658767719 
3.4364255029084436 
5.46988811487011 
2.995394428177408 
4.28712790820693 
4.700157142725257 
5.426546709209084 
10.334814303061938 
30.406346933617375 
3.046601824135859 
2.871346432708311 
2.83544595085401 
2.99586033966079 
2.8671870354650175 
22.66527535767443 
8.313739849402573 
2.7974932091952014 
31.613945492459646 
28.863964027173534 
23.112753757292904 
31.078104545832655 
2.7485488628836268 
9.031392007001283 
13.461026870332828 
30.361626942391666 
14.13930235050537 
16.66937401785616 
22.257112447204985 
9.525580585874124 
30.758471279463485 
16.036833507097576 
4.4746081498467145 
9.798977546600526 
18.784822716526993 
20.204066902999948 
2.1354888944883084 
31.604723110649704 
3.280518142976644 
18.87753093339856 
9.819063161243784 
1.7636491547615134 
5.321577281166011 
30.60153967360266 
3.7990282671117175 
2.6128206108516285 
13.666081891879461 
30.94059035078279 
31.68003769743411 
5.833579112585046 
33.06776390640122 
20.131534442632177 
5.0300797361553045 
36.67927414819893 
6.10943675515132 
5.330256504013045 
31.04249667078379 
31.5492835704702 
11.388005785743687 
16.18856178416326 
25.780664681645856 
15.063952969792446 
6.089976479520395 
2.6746514772437378 
26.462127755425996 
10.770595509827311 
13.631785255220258 
4.409142992221384 
20.531768776966107 
23.479010259346104 
6.130091256274725 
4.91143263346324 
10.241691921955445 
3.076931557616321 
21.781501689577745 
4.534512933507798 
13.41375234931458 
26.079616107678675 
7.925757137327964 
6.243378228814407 
4.909115616310144 
18.13019415063427 
30.381840286430712 
6.361603682001893 
15.205234056942178 
28.923593156571087 
27.32051684603168 
29.098848030214466 
2.9451072315539806 
10.304463471009596 
3.987646208118318 
12.55496349946594 
10.269415924663505 
5.172927735073956 
5.252475559928184 
4.447008452948505 
4.426868798782624 
8.516964066968082 
28.25952207459259 
28.335597502154375 
28.418018587805403 
5.073687390673054 
24.927954495579872 
31.23827880934358 
22.615464547892383 
7.336134989468013 
9.573671861962184 
30.15424241300061 
9.484132181962902 
8.404393193772272 
7.180556737747904 
10.632796360464132 
20.14922486300759 
31.194791120974756 
2.438877607531673 
9.019466180668447 
8.262466736815128 
31.714050446179787 
2.9839123110182286 
30.8159787901461 
28.292087440725677 
9.482471553486153 
4.581916993985627 
3.5222285472379875 
4.175368338000684 
3.897501403465043 
4.321682658740583 
10.430229277158565 
12.70440261526763 
27.2491655985229 
4.984902522935939 
14.740681575783423 
6.037102336553055 
4.534512933507798 
11.700228848772788 
5.584564558731253 
15.014107864272594 
8.012755651797406 
9.864680170423 
11.347096093239564 
6.166287250422391 
18.30744479697836 
30.374945618958048 
1.2991079181747185 
0.7072249008479793 
7.2313505140734335 
18.21101434216343 
6.214899725751944 
31.59438552652552 
6.968159383763095 
6.3614490906150065 
18.736416884039055 
6.000263647264894 
14.810258795615322 
11.68774143755361 
29.600403218626763 
14.72769902801118 
30.249397734034048 
26.20904704791136 
7.755657318126722 
20.20406690299996 
2.2000293996341838 
9.819063161243784 
10.192166775027083 
7.8570043980558175 
5.964286497238308 
14.639496266560602 
13.165611679792951 
5.534678678992265 
1.5172654438035804 
5.653371889420812 
27.20081145492542 
7.806187200207151 
6.388954785121345 
1.4647869586316604 
31.51824661376429 
16.85015106422293 
2.912888072297324 
4.071280568046777 
8.10353657082331 
4.154529282306723 
25.592108514969585 
5.39560370362178 
6.768565129774364 
4.231497887174424 
13.2503916799013 
8.510171632120318 
7.32389515045753 
2.2087270473736274 
6.768565129774364 
9.908203848663119 
11.990272541109674 
9.380305157166012 
9.385970718903186 
8.718766501940681 
8.26995457189378 
1.925102482497012 
32.26430600060576 
32.35591311149792 
10.162715366274583 
5.054835445311373 
4.787879424791596 
22.40611482077315 
22.374667465167654 
11.165235672870539 
1.8259529872814424 
5.924979324537943 
4.714687656260609 
4.693176420582814 
32.667585972091146 
2.72127081487835 
5.880206141401413 
27.098573513322915 
4.3455205481665695 
4.663382088216797 
5.170649839130468 
5.1455248126128375 
14.399120772160165 
2.8129376605680436 
3.908089958751777 
5.784097869566202 
3.056836996007434 
2.2000293996341838 
25.86322285102515 
3.055386938871598 
31.266602555691588 
2.916120515098967 
6.100356392090095 
4.304025136400614 
20.53772267212717 
15.00385173122058 
2.7775987579151096 
26.454282459720176 
15.586054019729344 
10.248507101984025 
2.5814310236196385 
18.823613096752002 
11.34959667721029 
0.7072249008479797 
3.4663979455775893 
13.37893730942711 
16.709053293026077 
20.039106906461075 
12.654094818464054 
8.39050625785426 
2.7713093740335215 
3.159748340092852 
20.829398500018687 
2.2000293996341838 
7.86398394776523 
14.305989509249077 
23.39270988494964 
9.726623087870852 
5.971109564773587 
30.02538876052853 
22.204481542683244 
16.515424410004094 
16.54278810331054 
21.179386073204945 
31.210711378788545 
18.959407410507385 
21.858212759900677 
7.927649298242782 
11.873969416725634 
2.1404499924321625 
20.06191097232252 
2.9128880722973243 
19.267820538351913 
31.00992479100453 
22.38437141178345 
15.992597601081735 
25.7554294728942 
2.2330364330643624 
6.801069106450133 
2.8639742109241504 
4.039364731655674 
2.8140634510976246 
31.27657537262464 
2.720369831602053 
30.657421504684 
3.0015423981095575 
2.6441121945874375 
30.94486649318976 
21.334811708462983 
3.0522332073001626 
30.980401605602793 
2.961479247431332 
1.9117391550350977 
3.6815596137936444 
5.842638997366435 
10.672202681202569 
28.178550898618266 
2.122976328907138 
3.062083467812375 
2.41050160023029 
2.4278376608963326 
6.50925009681459 
28.974093766176694 
3.3145376611816086 
10.672202681202569 
4.510516760128856 
6.265336222219427 
7.188303873729945 
13.250559363848126 
15.989438627097948 
22.577075375259735 
7.9190891317884775 
8.231779411343265 
4.2104359725512275 
17.87698094812661 
9.158439407616603 
6.218520520732137 
2.8140634510976246 
3.005657482049824 
4.719260006817775 
5.923834745539126 
5.705412867251213 
17.905106792800844 
3.6287683640492037 
5.665373022989007 
11.09927075190019 
2.940046356319126 
16.802702345928388 
5.900293194490514 
2.822313577951427 
6.901889501441755 
3.6520655002516964 
5.705412867251213 
6.041894584245476 
27.40083742446439 
29.736940522789695 
5.367762346543434 
7.151143201149379 
5.546780904615296 
5.113598743538668 
26.938251347125394 
3.090484615345202 
6.131070908694077 
10.269689338669282 
2.438577015577085 
6.353562763422255 
6.844731705391959 
10.21902278550942 
5.917151988971195 
8.495421665225715 
7.868988268117909 
2.029440919212568 
4.123295145723694 
6.930266992321871 
14.869569967330795 
9.44251170112707 
7.599257147520236 
3.964095117600518 
29.89205388273903 
4.600258907537045 
5.783152093063106 
5.7239684843222625 
3.6265833477717284 
27.362703974736128 
19.150467373216365 
4.944231310815101 
8.03668179212193 
6.339410658650997 
14.39387905449205 
32.48241550269748 
7.8552359962707285 
18.060557157069265 
6.139355163979802 
30.551941905394067 
9.417061991112336 
7.818545774457239 
8.119603157971774 
3.000439828297411 
22.25219564878675 
7.391339499949556 
8.2435109937107 
7.473182820185099 
9.426201835674018 
14.477123032143966 
2.7913929464214675 
3.2606956829421896 
12.713712497442552 
3.3804120887630984 
3.813204249295995 
3.358179850446951 
3.151313115812669 
11.61728944140933 
3.1477586833256974 
6.397723979084432 
4.415869174593959 
7.397572970322091 
15.162977059032475 
6.6785965399192815 
9.32090928248855 
3.175437477943851 
28.335052881602284 
7.1158801884982745 
10.685343115059077 
5.130872027939345 
27.858487208743085 
32.34698100060513 
8.974062682642385 
4.308000680820684 
8.274581699451163 
9.417061991112336 
7.387030374789086 
11.301809210875216 
12.656710912168617 
2.757065260633394 
11.46740015176176 
28.952952749047462 
27.546678902998117 
20.27722926667821 
13.759606485208426 
11.478302052597337 
3.029325889229106 
21.234847431285203 
8.849803814384817 
2.7914579953790644 
14.752319713513181 
9.338563080130168 
19.07287089799534 
12.713712497442552 
12.949555470969198 
10.456196556833497 
9.012937074222979 
16.295768907571183 
19.56683833498869 
19.68010217153161 
11.320757840416672 
19.42474934439227 
16.549537297865527 
23.044148105209555 
17.064848650189234 
19.343366248978896 
13.218969963893496 
13.312247204467072 
10.039115253029607 
21.82424638251924 
1.0164147730757356 
27.18761281138438 
6.844731705391965 
3.183256760044197 
2.6533907125489593 
5.888582595802404 
4.6697203988319345 
30.43076317827109 
4.853465340081809 
3.3944643484465704 
9.14019553568739 
13.066563571589478 
6.572791239877829 
11.323423548752054 
8.775791823244283 
10.616280278358564 
8.502792940071119 
13.961530071473572 
30.48381753069079 
11.753100336274104 
29.582427851547784 
5.617786019228933 
19.013757135357068 
20.711201042962536 
26.35441773170607 
30.425725022402005 
11.16358204064434 
10.408550338113752 
13.055685835967088 
10.657480408773411 
9.624951309932628 
30.953682707163754 
12.495337898262086 
29.576880258872308 
10.728087230344219 
3.84757599821598 
12.776636939714322 
11.381833522138562 
13.421211761835865 
11.615306314434173 
14.011304744484088 
14.95595741379074 
32.1033712779903 
3.3338987036223315 
25.23587711793997 
1.2856739450044554 
2.555589840922592 
3.506511189132836 
4.04336122371124 
27.762325634836817 
3.04408649536028 
20.27722926667821 
30.72827600356377 
2.7523431060985173 
2.8611416597384194 
13.863252181786843 
17.834304051920412 
19.601447716277036 
10.853886728051734 
11.725757304087827 
12.85085205695261 
16.841920240737995 
17.476423344574826 
19.01375713535707 
12.2458199597044 
13.77601725466073 
22.59336065401508 
11.615957489886352 
19.90010133819862 
17.797383975914936 
26.417494921250302 
3.433763146421716 
4.491495665298676 
16.682608543867605 
22.280482758900323 
30.623136971812528 
6.880243575758424 
4.942843200349819 
5.7421100090282335 
5.242411107771652 
20.605850929444422 
3.5410256153826714 
5.8599771527788915 
8.14260652938506 
5.417614869848149 
6.260977199133273 
12.816735486008929 
14.477123032143963 
31.6051674385755 
13.975686269019974 
9.78975523754773 
25.753583647118553 
11.61228382079173 
18.945619200389654 
18.282617803070476 
6.037865807919057 
29.713765854828182 
17.056253919532363 
11.17923206921974 
18.007469585374622 
13.123857853999313 
12.526903634767157 
7.309646830713024 
14.116887383288864 
14.573393870966227 
15.52338579096443 
22.04300215791889 
14.269987993766922 
15.172292110751156 
14.946164895809074 
3.982919174839436 
29.06398621815284 
29.447827391121727 
2.354910226874545 
26.909730369335577 
2.2920583098640597 
3.329789480759499 
1.8679038479211543 
2.8773776777182025 
25.539411317369492 
22.07552534186822 
17.219430739636934 
11.510968502019956 
4.47047337520779 
7.969441675285684 
9.106372112065609 
11.966552723085528 
10.876694280314362 
11.700275934020388 
3.0964137468398056 
2.2081958908499626 
3.661073015885692 
3.356652332295238 
2.824278194842059 
3.5806632072650157 
3.043719560240431 
2.8971753893099437 
3.0726270380322456 
3.1198359038271977 
3.055062806482918 
6.156706837426418 
3.120677787356577 
2.4919131948951105 
1.9217134338013004 
1.9406423720072312 
3.247501686882362 
6.797296561356135 
5.843122151506694 
9.265555916448482 
7.152790175775695 
5.680020070022837 
3.420601868153309 
2.8845267731599433 
3.026109952166875 
22.75179150285352 
3.169127237122185 
3.258092949304143 
3.3574575263251694 
3.4611471690921256 
3.505009653470383 
14.473079419443073 
3.099166474617056 
6.378379679483559 
2.853026482869024 
7.828478927132978 
10.642047755820386 
7.532044995285285 
8.840741674593723 
12.733791424091057 
12.663635932395051 
22.45448013330438 
13.688408526718417 
2.141161995873131 
14.897608636355077 
22.259412556080072 
17.114728165054913 
15.90324677504328 
3.2959037000453657 
17.276342349509402 
15.634403860511616 
21.57471357759515 
3.2518229259941576 
3.8321333203130465 
4.061039645662529 
2.3948456696311884 
3.9101100222032903 
3.093098351346527 
2.036264180766249 
3.195547436241451 
9.597817463258467 
3.519416953779231 
2.108479771435843 
2.47171074916102 
1.8081864055078252 
12.676285500244486 
9.151069915680953 
9.105466575415578 
21.88754699905224 
12.106960374314154 
22.589155534815003 
2.552473775804868 
1.8340712192057886 
2.462182191983049 
2.1087334474209456 
6.791705183868184 
12.101070784304374 
3.3058873480904505 
5.711469250420602 
2.040479112679042 
2.9000982023374346 
1.7952731539286624 
2.6788428297740436 
2.869185183183176 
2.8698777481945603 
2.868358578360894 
23.200677590596083 
2.733954829638871 
1.9322881910402132 
1.626797750742073 
2.509052552085523 
12.359051952864027 
3.6022573992297025 
2.3827189849945145 
1.0263157237419176 
2.3934673756830955 
2.861015260443109 
2.245656398266649 
2.4746288660119045 
3.0950253769560905 
2.893881924096897 
2.40662987170355 
2.5931224549193983 
2.595028310142837 
3.0301046396212064 
3.031112652080027 
2.3327179313361004 
8.785190173241013 
3.1313052017963394 
14.004318309169934 
1.8901943140494055 
2.5570097005891594 
7.3798524028943335 
2.5043838383773718 
2.04364070606734 
2.7298430099974724 
7.205069707112658 
6.133328065337337 
12.25643383962002 
2.4940322053324846 
12.09556669322434 
11.343048686370565 
3.8263179065924735 
13.633781301575294 
3.6592173965291943 
5.015875090649267 
2.224319437151971 
2.0059120442438436 
3.748892607300195 
2.109729427666911 
2.364651600741893 
6.449809398307847 
3.956050439746436 
2.6591028665496306 
2.691166752869627 
5.667670422118064 
1.7571160817990912 
1.6197218581023027 
3.5637192243481928 
3.2747351516395744 
1.953156203507923 
3.5998507691465993 
3.2012732391154404 
3.534639924434523 
2.095496457482974 
5.6588236435153325 
16.47334748398121 
10.2307610276703 
1.4294511534404977 
2.1865163594169914 
3.1765169674273213 
1.926675863898393 
1.7682659540846022 
3.6433338393412815 
8.084954871319692 
5.774849835762202 
3.13423780091456 
3.0410072740064735 
4.1874933609294285 
3.8755066008276255 
1.6025240297171301 
2.4328815983767207 
2.4301622596907584 
17.26028967577844 
5.125676202165608 
2.206966871265876 
6.480063174055612 
2.260411674602344 
17.683624664034863 
2.587633054660192 
9.392077924006273 
9.7636939837819 
8.999314587188204 
6.2445638679206334 
10.612238914826836 
7.731951841498691 
7.700508261910812 
7.919277352590665 
2.186916745078595 
2.0353861769139647 
9.137937969030629 
26.950726449346984 
7.413061674838619 
3.57710008206847 
3.790329601932687 
7.02352041222914 
2.02813708436431 
7.118641976082767 
3.832995484299082 
8.000676273491967 
4.017086684899137 
2.557203542219799 
2.58847040591062 
3.898803906509728 
6.2646050215145745 
3.544147900773023 
3.302464183132577 
4.1982151721853 
9.098956768979935 
25.99357279921894 
2.290044011088455 
2.091371741298729 
2.366775685663518 
2.1102605109370107 
2.902347082531054 
2.724933089341946 
2.4199212834573176 
2.671644017470406 
3.0770967259716295 
1.8047909195138072 
3.2514159477085753 
2.1955501349070214 
16.16834768503624 
2.5194430290630447 
1.2299720921414186 
2.127604055446212 
3.188881085421735 
3.6906934036723706 
1.136817652323285 
4.446925494866873 
3.815540601653021 
2.1515766631957858 
11.749152977132482 
16.497567313549066 
2.094429956331718 
22.052618704142784 
8.889662321816688 
10.29245350362933 
4.02357994555349 
13.36972348795864 
13.856043185225229 
15.257409541148254 
2.690077354066054 
13.071838770305078 
11.010349769752766 
10.187495555829079 
2.225244359396993 
18.638405425909557 
2.6807871747298515 
14.791668663794653 
2.6299748418685027 
3.2996839511347367 
12.821891955230235 
5.98195279593438 
0.8318384520849377 
2.573616835294832 
3.6580680338952374 
2.6090557474060563 
6.566046718477246 
3.9107235871047212 
8.569076603007062 
4.630992832478162 
12.48610945717881 
11.680938861795724 
3.7739909282427857 
3.4855930495416425 
2.5597264350057323 
12.736708267991961 
5.677473596854754 
1.299711466033892 
10.797165309012676 
4.348655101494357 
15.609473833298795 
2.7883455283842253 
3.942356367859207 
3.9008010981178733 
7.340626902507647 
3.224003458291934 
3.393812460448066 
2.9488657774271605 
2.4229111674770234 
3.1777243290309922 
2.4430812190523006 
3.0453530796837476 
2.806284040728165 
3.229549679904276 
8.66268598709487 
7.944183543467376 
3.1876384796448853 
9.371517931917841 
10.45249419589015 
20.70717357618107 
26.131836220546855 
3.9431263932637095 
3.5968518098831113 
3.283811349722346 
4.190541352164894 
3.011327692834901 
3.8809347776188985 
3.3412171754376847 
21.273303270345373 
6.236630703359455 
2.749307575570365 
3.2525372719344303 
3.7795657959892246 
3.953961295765037 
8.393110102487961 
3.804720438022043 
2.244944275550548 
7.735602580448773 
7.066842526819444 
6.17216884505025 
8.521038188523109 
3.891409161886166 
24.79709818254999 
5.197153993256561 
3.2009026997634384 
1.6284796238608288 
3.6010379907381553 
3.2054139480701114 
3.0163468412097765 
3.304482265304202 
5.049325919531497 
3.6115868850364543 
3.3856978581453214 
3.7229305193260083 
3.1286668292006277 
3.342783554160571 
3.374193496366066 
3.893024260786671 
3.47359425644408 
3.2891020762014755 
3.3450120649076602 
3.94551782196555 
3.3292883841566225 
3.471049519304569 
3.714381605902057 
4.225813817408434 
4.571985778753719 
8.043242715758955 
4.206382127422623 
5.102697370638975 
25.832443623684767 
7.718161023237304 
10.97226801043103 
2.5054541211987065 
3.3365361395443225 
3.315853143267093 
3.1484666490917785 
4.7929845072596775 
3.2747961430604184 
5.170419029954457 
2.7607630924497086 
2.9681080107689284 
7.947108964830851 
8.609731333285277 
4.576948660228742 
3.5179431681838094 
3.0091511245022873 
4.5497910793439535 
3.4280864800978 
3.801302386894991 
3.9675283246337365 
2.9328945178621546 
4.551505124579987 
7.014557636674189 
2.9504068205994725 
5.3992978509332135 
5.358861650957065 
3.3954738392258204 
2.5555700114041984 
1.1770458684524634 
2.895091460270378 
3.443720334865939 
4.6038887212294854 
3.0433970468037597 
3.043138726814987 
5.146374772351263 
3.9545720557967505 
2.4023268767269808 
3.8111515624130385 
3.3220379082497646 
3.028052386879352 
2.8576634265369445 
23.257095963098422 
3.9972703591550034 
22.67917291433994 
3.3586848257526967 
2.374536963538524 
3.900313951338544 
5.196655659184225 
12.473023876470215 
12.837208694295535 
17.641780549478437 
18.295996246206272 
11.73518151939499 
4.691768504602664 
14.645433944469072 
15.097521864531764 
14.09708402266275 
5.336604755774896 
2.5636531343974496 
2.4690677104305756 
1.9293747372213326 
3.104661965927918 
3.731784114197081 
3.8250688887609474 
3.017522371076735 
2.9761859554673356 
6.5789382916381784 
2.951821824677568 
2.518982027160855 
4.620728952561327 
3.7234253478340453 
5.268844016384561 
4.553505979730834 
2.894056158658622 
5.648995316852805 
2.2851231619622596 
4.948526691398122 
4.436034480463064 
11.109324654786917 
5.337155751127465 
11.440926833121416 
10.350780754472458 
4.1995224420697514 
7.076860786039733 
4.406145465696053 
4.635799232356519 
6.218164881826771 
4.812159090259398 
14.357335762184427 
12.901984584065962 
4.624203176806009 
4.688496433417199 
4.5211748613537734 
7.514347244848872 
3.475615700238241 
5.291578253967851 
13.91932132574686 
13.568163168676783 
3.504754222697944 
10.739117751320423 
5.838712722809885 
6.575103094297082 
8.709313031033075 
3.2002492972507603 
11.95144632887316 
3.8948008377064607 
4.971694909438024 
7.6221405639439155 
2.6613119129942655 
6.974352643886186 
4.918398010532309 
6.622035570475338 
3.460607434748103 
2.6864983872775974 
6.068095805550857 
2.637535795209 
4.215978854830382 
4.133972185189432 
3.9791149178271956 
5.204291423061494 
4.575922989691049 
5.874021333871536 
3.428977262123619 
3.6754408723415266 
3.598842454674357 
5.2069947251948365 
5.521516551913163 
3.2727941856190443 
6.562932706923059 
11.102255277456086 
12.874125769885413 
4.408665869111061 
12.883875754156257 
8.17806371294031 
5.724733703059241 
4.685122399230585 
5.253514900054106 
9.634485173046372 
4.594744016498407 
3.858764356137623 
9.953854583427995 
6.423939364853661 
5.327766096114888 
11.693798548902656 
5.468939565559264 
4.4329691324270195 
4.909051643296915 
6.697718061802279 
8.477108915281804 
13.748959142287303 
11.393144584717492 
8.908715604840948 
2.7843685115065187 
2.474507401153706 
2.755976278374431 
5.226007537540057 
5.995666796475382 
4.175450579757113 
3.4190194192910477 
5.381033661416972 
12.0954004344908 
2.150266402933084 
3.6750821779751948 
3.455228613234131 
4.600712586241759 
6.960305252844769 
6.684506220040868 
9.41665521726419 
11.403963689661666 
6.070288047275759 
4.464184339759155 
4.7740687450008545 
5.794691524198259 
5.991963543205817 
6.735831397355795 
3.7462604692645662 
4.639021238185213 
3.374298571447807 
4.640141702870669 
3.295596644290297 
4.216843559130025 
3.423176826489797 
2.891858640397332 
3.652093318192323 
4.7041444905085354 
5.667566890251841 
9.625608229965785 
5.692778884537832 
5.927236296919651 
9.14136266090308 
10.761066438512973 
3.338727139572712 
5.8539229976243 
3.4339434369176964 
22.102704556746442 
23.93669034383619 
6.687233253315166 
6.0089711134977275 
5.582775501262573 
7.366925675598609 
5.9589359065744265 
5.5680513386038095 
6.625279502749086 
20.530390027837008 
13.102208188079574 
7.337736827760755 
4.532856567232696 
6.701770699247362 
3.2122479624125106 
4.001147677169753 
4.445081245104419 
3.671640060224653 
6.647361514875214 
2.9697717925362594 
4.083668182321185 
3.566164872202283 
4.659773705570189 
10.106091512296674 
7.459105208274764 
19.442501192931577 
3.9429113929471846 
11.917317259298907 
3.048851394375085 
5.659352509244778 
9.49985250690615 
8.19836976542944 
6.697930123635148 
3.8012764385609867 
3.2659009033595416 
7.579852864358773 
10.975167266867906 
7.570968868933228 
4.935939402391785 
4.434394493289279 
7.556505254851838 
6.593971815075196 
8.880809118706031 
7.221588476634747 
7.569794425441461 
4.55778998005587 
7.816094537191151 
7.581624130935739 
6.7064327322337585 
7.279475198229989 
6.338074004693395 
6.70842026576637 
6.6472442476946965 
7.457794313337312 
6.083065649994381 
2.1785600877373574 
7.319898019084035 
6.541837609024609 
2.5910829010480714 
6.989173790297036 
4.82710983393292 
7.354571750906684 
6.261197584780822 
7.144622021752715 
12.926309718311382 
5.307741360698504 
8.53157487029761 
5.273049945229507 
8.834985341460671 
8.2465589320621 
10.814365298467845 
8.74627353632262 
13.314837290934726 
12.178382443808083 
9.258958821724859 
7.284989501444456 
4.966196114083464 
8.1004785959297 
6.093787039865928 
7.33573215864743 
5.4422659758292955 
8.873417325278394 
6.084195866252918 
5.294135991642712 
7.433808704686633 
11.753893795901545 
7.418030782686121 
3.8309127533756233 
8.758888924217501 
5.702733361544944 
3.3723741994919005 
5.16611190704031 
5.0256017118104435 
22.252983753649705 
3.3994614376065084 
6.207044752788535 
9.477973321164532 
5.102503898254719 
8.173257149405812 
5.793585259028295 
6.044033131361693 
14.05114525197305 
6.4952652731253195 
6.098653730991839 
15.991458417118436 
3.400909415506753 
4.5697367110787654 
8.234621290812106 
9.416513856246192 
4.837785889629211 
7.079277151838212 
8.039841103455151 
21.646047825257618 
6.73877847521326 
3.276846220510324 
3.442511137706685 
10.241526758581394 
8.293178361714169 
3.3738471882037384 
8.769150504391682 
14.314236171352578 
3.1827071950808214 
19.72512012573336 
3.4338752512666493 
3.0797653005536083 
10.340088396053138 
3.9957518406801307 
8.059624147922309 
3.7679542559923105 
9.038193121717443 
7.968420519610552 
3.9105737251366803 
8.003900170655706 
3.9304711029651433 
3.554427713197514 
9.459545977821017 
7.902841821394685 
8.64957798177112 
2.9069310182512704 
4.341726652518349 
9.362924658386145 
8.831299894121528 
3.0244126359075536 
4.5101480603950295 
3.4090609480820393 
9.661002086571402 
3.244879148712098 
2.434908778598656 
10.098240031383456 
3.662096077960647 
3.5952096334683006 
8.085311714085789 
22.375807423351166 
3.5415881607066586 
2.9244522284220915 
8.04630666852491 
8.30527652827876 
8.125537748615086 
2.824384311052399 
8.027218661101639 
3.706929928080605 
3.455317029483531 
4.922338849063086 
7.575599053283964 
19.41356378691516 
5.077036250050265 
7.672924683258667 
5.543140989183723 
4.976766673664659 
7.609661606679052 
8.074600873198406 
9.522894973785403 
8.04782221896955 
7.274893463956662 
9.411518581588647 
11.609055525031385 
5.293081195168092 
13.618427663461572 
7.854702178986498 
12.203997150861763 
6.647070443261604 
19.699701474016017 
19.295364541941648 
7.879554312797177 
17.273570198815747 
10.538805443762364 
15.62931016318054 
9.304976628583342 
5.428495818443361 
18.663055888714347 
6.685974049918283 
9.430137899565795 
19.398615709362943 
8.851001986789205 
3.481043800915643 
5.763205515317023 
8.931551575414028 
4.120469906563102 
3.6065174877195356 
10.193899026248411 
8.62292709719092 
2.201031500183655 
4.2617636574824855 
8.474101317148584 
2.775180394175147 
6.365072689660983 
4.532517397472731 
4.664893089610725 
3.0179419936639125 
2.885469816928021 
4.810191337080595 
8.564316365705478 
21.760835677617465 
9.728580308859154 
21.960210156503162 
2.9175348941101804 
10.19260321449201 
5.511142266903861 
8.061658090711202 
8.686713262045473 
2.466863286867188 
6.036415357478469 
3.3836774855727176 
8.855398379261551 
2.7687665557974888 
2.6734849892688364 
4.66622320280606 
8.78796755349916 
5.916861369737584 
3.2705132377927977 
3.2924030952470047 
9.551629344291095 
4.789529812169796 
8.042903606870425 
3.999355839265096 
3.2554381138644444 
3.008860522811503 
8.758786160386379 
5.8295826932797095 
4.87524506474238 
7.059185160027233 
6.478634049598512 
13.505415332663482 
13.495133219855257 
9.483634157639022 
5.662741250755268 
13.167843527738194 
9.515073118722224 
9.641892744984371 
11.797749317094272 
9.471467418685748 
2.909522478400128 
16.623787102509684 
5.814353029513267 
3.445459520557968 
18.37802762988783 
10.93098497031125 
4.414729855787233 
10.192762542926422 
14.681419169397163 
13.410726055502838 
8.744886522036634 
10.33416500534366 
4.476643621547646 
10.768954908213782 
8.13756011799356 
20.522705350064477 
3.301597360728102 
12.364969440181982 
9.888771092318587 
8.139242308609356 
4.309826847202007 
9.704650629529848 
2.1842313260598663 
4.769642440108967 
19.93978149840535 
9.680941326291208 
9.57760634344866 
3.4097769698877203 
9.539298197897915 
8.026008430082738 
8.536596742760532 
8.489284183562708 
9.40815796475246 
7.086951992168825 
6.442926342350666 
12.439484343545805 
10.206982301336524 
7.160477210534766 
8.546659388626743 
10.500036367411855 
8.342777839987681 
10.748452469070886 
13.026544573701523 
15.181025634017697 
7.752604849547233 
9.640614085836546 
4.435984335742326 
11.843828125413527 
13.956357278608586 
10.172198078448973 
8.71921450274078 
9.353728207488201 
11.747668971280753 
12.038903576873313 
7.774570367278766 
10.294422747172872 
12.309432005904146 
3.578686760122774 
10.286138010419648 
8.443501338093625 
9.842844630614552 
10.325545186828785 
3.028705336539102 
8.23382561015765 
3.307728595045024 
10.761732242069392 
10.566778572498208 
6.019842906787466 
10.040106385426384 
5.964103072822822 
4.659742691280061 
10.98528052054796 
3.039573701151871 
5.378351770350093 
10.522343696889275 
9.037995541715187 
7.764246678915648 
7.124340401612718 
7.639169434855365 
9.284399340874398 
2.347162347172214 
7.379224631435075 
8.454319979274349 
4.946429627033413 
7.191209335125278 
11.11711722838765 
8.771651344843896 
10.253328502998492 
10.808121024685972 
9.380467839222538 
9.782286770405882 
11.492817720540632 
18.14958680507205 
12.040636994602156 
11.667735348836455 
6.190532124545564 
17.312528821680743 
19.848151250932343 
4.333639819979772 
4.994793593597376 
9.183092004353707 
4.400286963557167 
4.13559411190567 
3.9864850046007114 
9.693277751364501 
5.744469309383456 
4.978473200569329 
4.1356096169923395 
1.7213841019011253 
5.697215417806133 
8.747476321390277 
11.164257507517418 
18.546553077775112 
12.44766503409153 
11.5124818828353 
10.870848734365769 
7.436725469918548 
6.4232864735746515 
20.690947197841968 
11.677898500828768 
3.2518469579236897 
6.822890917517487 
3.5936047977935277 
14.169048487711892 
14.962833114598986 
10.669933333201437 
8.633409019766638 
7.018452249852932 
11.104291063007812 
12.913695184066514 
13.15826828749974 
11.379876659984356 
9.11087289801652 
6.252274793256823 
5.40172238608284 
6.4878885971756 
19.091180020977653 
10.512964172035872 
9.450385402375044 
6.68519536764304 
10.209978417767227 
10.735007978091458 
15.476238418657667 
9.83623099669347 
17.69855333776362 
10.253830185686995 
12.010249840223782 
5.566479989020063 
13.440220668918156 
18.866644394485572 
12.49933389868994 
20.70805820952917 
26.732105360296043 
12.897699883574274 
17.581559831300126 
25.132433426950577 
19.78296471414402 
11.605103863166255 
3.489617306789079 
23.38646411460283 
4.662164514531767 
7.320026112395808 
12.063002900657539 
12.353032585223195 
3.200969745082602 
8.79903582211033 
10.79872990924551 
7.755263198616712 
2.509724307890836 
10.36567799264357 
12.524368708320157 
2.9915909697018934 
15.74611349886037 
8.374208603061607 
9.374273222062108 
5.557370660854173 
13.179953018496333 
12.341463243053093 
11.372759124936652 
11.910350543954515 
8.224470945612259 
10.504944305364262 
7.54564975023996 
7.158970700662699 
12.504930317654878 
8.642887667389964 
8.934116995322219 
11.95303324071008 
2.6154094339001013 
7.516270365498432 
11.890858227630579 
8.37457108633626 
11.545602844227897 
10.801711291186884 
9.055027852472866 
10.905644439895418 
9.505165776192865 
5.5043753818509344 
7.482994113060616 
12.62304049302408 
12.111885816146877 
7.495314420524858 
10.359679845083837 
7.43863074601291 
10.788060266950579 
13.080312101965415 
6.923273737672198 
8.309253755704031 
8.339059582807728 
7.89903724877782 
4.919513794822649 
4.610252498656127 
6.145288232506214 
6.092969725772269 
5.825897575332403 
4.4696356567668 
12.279471953484725 
5.483609880623184 
5.391283841395841 
12.898630746096169 
12.665453615977576 
4.364210650089299 
4.483962284972454 
4.710863478190196 
14.367482129875196 
9.113430460602883 
9.104622695728946 
2.974334408239555 
3.0347172204274937 
2.7626671666360934 
8.499775931809367 
6.517722896218931 
11.1940668330945 
2.8765598560968373 
3.2370324178747096 
2.876574281131316 
9.084245505090461 
20.52939130274611 
12.312370009905273 
12.557555111069426 
4.8499371201019645 
15.044204149287335 
8.53443247135329 
14.960194546474025 
12.929826865903893 
16.573388490926476 
10.80914964102932 
7.005448409052647 
12.96538043829201 
19.966853903936972 
11.369405812876444 
12.907036015566897 
11.03404962175534 
13.22814522926993 
10.658161211272462 
14.51462077662812 
12.239605314378991 
8.905742743485625 
12.680531825412519 
12.489440025825575 
10.541717887138741 
10.445624522023056 
13.151266503190014 
13.163368783347115 
14.024709457772826 
4.951541932712598 
17.542636650767207 
14.427565887436282 
12.478107967960888 
12.382131599065868 
11.90288022304302 
14.430647198638246 
12.055627782883775 
7.203565439848451 
3.5736647079894235 
13.651648642316816 
13.008913895735557 
8.029878102735621 
13.480740124015451 
10.940501099238377 
5.1585280518734775 
4.369766700306384 
15.147533607415749 
2.166751244100774 
2.0268503018194712 
10.79704997121939 
16.613347170083824 
2.4946251571977496 
2.0593552296749364 
13.635848693383574 
2.3165169242598234 
2.943868288067289 
3.915463233140776 
3.360144562189816 
9.09028500668155 
8.107517634033623 
14.835430066968723 
14.124708752203881 
4.300370339864788 
3.6382520673419574 
3.5526611439911364 
3.2486341792931506 
12.848463778748796 
8.842611875240705 
14.116030568115875 
9.506072275802648 
9.617587237350866 
5.555431667294087 
12.817603690295417 
9.007823820955375 
10.993630551835398 
8.355915493233953 
10.704387472111742 
12.952145713955517 
5.515262562070285 
11.172964032255694 
14.485330204416472 
14.282576320019151 
7.883062192659651 
8.38245415391518 
9.17928246387936 
6.712840103280134 
9.883448071873314 
10.856036790638715 
7.692432768035477 
5.882286835321112 
4.132184793182419 
7.916070397477322 
14.280770192156208 
15.108550262931507 
14.183162552213332 
21.72563542462369 
13.538954982669457 
5.9746878422980325 
3.5388136230090232 
4.557378267477308 
5.815840799634692 
5.124836887595215 
3.279808600758664 
2.8166836779341278 
13.468027202200577 
13.582618085677353 
4.684701872677709 
14.099101475413025 
5.633502877135727 
14.109098098379759 
5.9518817189945485 
7.564535289267589 
11.919151946125199 
4.070453865449056 
2.416189352252706 
8.29426300756565 
3.8235513680274265 
5.9452233512115 
2.5237699047498467 
6.400337003951258 
8.18381814409039 
12.65246823386343 
7.607355674322552 
4.507997527426028 
5.478660181967316 
13.516151187414644 
13.42106656702324 
26.52563757459784 
3.541666430618522 
3.95274352148948 
13.592961598481903 
8.79259318304904 
5.903713570849208 
13.528363484950022 
3.037887393584361 
10.771085871489518 
14.50166197574118 
2.458411347725813 
5.366983747161361 
6.163355358099297 
2.265982092042388 
7.571911583732373 
12.380530218789511 
4.481390170058081 
9.56675085216296 
5.307057455611968 
3.4349740823151196 
17.443429693476155 
6.985061696262114 
14.456398538817076 
14.33651292596346 
22.815238603359187 
14.530429267193671 
13.374873124667063 
15.872627221357007 
10.500295863215168 
12.846351503065724 
14.048545000500802 
3.676630968730921 
2.849274388323299 
5.45289538639859 
15.219254883012471 
4.151539020467797 
3.7899614040981744 
17.837001102257986 
14.479597158265937 
5.827526391885675 
5.395529674925281 
8.144390279589171 
10.195306071471583 
3.8203042708889665 
6.971270229840873 
6.418961580595639 
8.232313843570532 
8.469870971581022 
9.80477666383546 
6.017221414393538 
5.163500257547201 
15.112934312311381 
11.955767682262703 
12.739685775776467 
7.443820228623031 
14.541140174733194 
7.127140215832329 
6.052570823907946 
15.087896668593382 
9.73382093085478 
7.054375353562623 
14.619578810472085 
10.373825364243823 
6.823560735421713 
6.04610016297487 
5.040568045487855 
4.4416966541134535 
10.732405676567895 
9.749968457940176 
10.171599850373429 
12.915535854679188 
10.53378904154596 
13.142996986897046 
15.06227644641648 
4.33391495831825 
15.283601373310264 
18.594779409420237 
8.277446643980307 
2.7750844759239235 
7.986680399458518 
3.6368390020594887 
15.279167933736945 
4.245983794028888 
11.767848094051049 
2.4728628914482 
14.595449107955286 
9.691136356279781 
5.315083505830476 
6.959127644287297 
4.387529781543334 
15.999679895312354 
4.568853093089889 
8.368606539784674 
15.834877103702325 
2.636070379373179 
2.8298970244601422 
14.951075693455039 
6.042899460976966 
4.133799489099703 
15.752036057724352 
14.800132273463799 
7.4152839268500745 
17.27160626765473 
3.035450619789231 
16.738312465428134 
15.608583249682654 
10.771760894201892 
3.3554970054907898 
15.717561401391091 
15.312403589499018 
4.041486912511883 
16.708352825655382 
14.97868076985517 
10.28811903782996 
11.334036767089827 
4.043895836914173 
5.969583857702712 
5.536010203749093 
15.460020115667115 
15.67467208281229 
15.141271971066093 
10.174747578270035 
3.2783928627432353 
3.4333174694218487 
3.1851615505830457 
3.275729356882256 
2.924864343050684 
3.1138925472474837 
3.994937543742059 
15.820178741630382 
17.303353671480608 
13.756960458956634 
16.414010558649128 
4.655117459060465 
16.63160081382566 
3.0371914369224 
15.196566732375384 
7.902152907748651 
4.78168012444867 
3.242658358782356 
5.711414986113701 
4.656123924754427 
3.6863605906374994 
4.01455884196142 
15.328951491297634 
3.686152084448415 
16.482944846882717 
7.6231429406871145 
4.558668168291428 
17.435972153577193 
15.336087335004997 
7.419564385363001 
8.321434499852755 
17.75231297031639 
10.053201723959896 
15.99419832459309 
12.386246307591392 
13.44219191376873 
6.005744176357118 
4.741325488883878 
4.889601437553205 
7.075783101267856 
8.1478476727356 
10.040103933539626 
9.352503762835546 
4.304809271389295 
15.732966550218935 
7.694474757494465 
10.018477935226274 
15.721350977511928 
4.135845441316861 
9.883803223659038 
14.384065239590242 
5.569780138685759 
11.362660838467114 
11.74845266209858 
4.559887497910244 
13.582469732816634 
2.677830093646713 
3.6890055149516665 
4.433652775871177 
16.050014880640155 
17.219640698715722 
3.3553646423685057 
2.66092358148245 
4.862396342509036 
16.353180033956644 
17.172184769508306 
7.936702943483976 
7.303612861111692 
4.140175501192383 
16.438113885312983 
6.20150437917204 
3.582507714080571 
3.943188584947733 
11.789309483850653 
14.354631316499121 
13.087976798110553 
2.8856138638630786 
3.86573995550472 
19.076753482690616 
17.345163733898406 
14.347284838519386 
13.364756428043156 
12.64902439604261 
3.2045605555563563 
9.030192266197293 
15.262760689119435 
16.555076109930617 
3.1600308529846592 
3.3147467482054633 
16.85230401568839 
11.327558727628288 
3.1944311244511985 
3.4882628820262336 
4.849648483473516 
6.152464918475059 
2.5573382093599983 
3.2598719493207002 
9.086464274404143 
17.1529936620055 
15.579404685575815 
3.2647002575104205 
3.3952599803286017 
13.479600716365335 
3.394298283318221 
7.633015045601921 
17.281151206993066 
3.4208127254859395 
3.1437223486378882 
2.7865938793099474 
3.0283703220947564 
19.985910300143427 
10.381856538381271 
2.9380545568855956 
2.9774373540951795 
21.333483246284686 
3.106735244434391 
17.09690619667755 
2.757169417076872 
3.0312830396988577 
2.3758876204107233 
17.306632162854577 
3.6657818289550534 
3.4312150164456825 
2.99051097863838 
7.599153279682006 
8.372119855128238 
17.161771993393952 
14.31340646852491 
6.716802864155793 
19.492332511704017 
4.844346843389801 
17.987565410315238 
8.829185463535147 
8.952677791908064 
9.641294783463357 
17.99312772554247 
24.468071826809137 
3.0332732897372683 
6.825051967504848 
15.38263334863566 
6.307129690885437 
5.966526969349098 
17.357828106761158 
3.20204511990727 
17.516887368443108 
5.804988876179089 
17.030650895483216 
8.478136847606423 
17.129136750432018 
15.042559580932188 
17.815127935790773 
5.453421665791248 
6.586936099418072 
3.253802203263316 
13.89131407554806 
6.90725182326656 
17.35032015136609 
14.058683599710616 
12.618740653521527 
15.493721936959316 
15.33421728789917 
6.730601624413466 
14.75640710197933 
10.101359521244238 
15.758465008896938 
2.9897876296775383 
17.911345046393663 
13.216627309134532 
2.47229421558488 
21.898681428655475 
14.092392924413286 
3.009526125822265 
3.231640901866852 
3.1287621294766863 
18.024104034927475 
2.7951368627685085 
17.815327405014667 
10.065932176769657 
3.3151821017246235 
2.852016125201873 
13.249250414931073 
9.553845666809202 
7.276654537598926 
3.6501655626133904 
6.766334096330602 
16.447739776080024 
3.755653086910418 
6.5827781406758845 
4.525315712974655 
4.457476634481833 
2.6298986818184726 
17.972233814233263 
17.784144418163287 
9.180600373834224 
3.87043039038577 
4.353543694755266 
17.92203100420986 
2.475986653368634 
16.46751220023884 
5.014849928219642 
17.401161496550397 
6.69109321188188 
4.224943474945738 
6.56058604253217 
4.978434562413101 
17.7512156248804 
10.981120690693258 
9.019777092932591 
18.503465583747985 
4.702601828478673 
14.825098691587055 
5.2705778075539955 
3.1628309281940488 
18.7364563924389 
3.703728751168375 
3.210082889441355 
18.10066358007256 
5.388330573773171 
14.680168705088503 
16.014250230429667 
4.085613655994097 
5.025295849681877 
9.5748984802651 
3.563755691632163 
15.300172688793747 
3.0226892739022957 
2.986324918522662 
3.6717367952181927 
5.833231145346239 
18.154155017841376 
19.60297471808792 
13.06975217804991 
1.9672247152829099 
18.533511275923985 
4.529209593407213 
7.655776636214236 
11.990885911131683 
5.631596477402138 
19.164678144146844 
14.196194110742658 
5.384320966783281 
18.660695696957585 
20.67081874154579 
19.170116163295514 
9.009608691884802 
18.560890866271635 
2.6732676312567034 
5.1932694766070115 
4.62699897365618 
2.6131874518886162 
18.583556489597456 
11.57394371486536 
7.539449413652892 
16.101173014949858 
18.910615375507724 
4.692134880551254 
2.7217714102994957 
20.05439623182065 
2.6562385414226752 
13.854501679926779 
21.41778395655142 
10.362054914488436 
4.5554718343456875 
19.421824584806618 
11.852854476309973 
3.208505802919021 
16.15799178164949 
2.7107839972818244 
4.725498157367497 
16.952527552380214 
19.98562635227296 
3.809574138812748 
7.573380752211889 
3.1544374929864865 
19.39989196443197 
5.441266560479783 
3.0411155749551226 
3.8040272429381314 
7.073662140953396 
4.063887899504903 
3.8226730947906975 
2.823048012963735 
4.5389053951062985 
3.300381447046075 
3.881573754559027 
3.7378265952688223 
18.25570488138974 
3.301654496565753 
4.1933472817513415 
19.00889860910736 
21.996214896784554 
13.789883414300068 
19.771457156588387 
21.342135786414726 
4.067985902446225 
23.21640259985352 
15.880963132617113 
6.308407362388486 
13.10515694351393 
12.546288397376026 
24.304392800662256 
6.150324152535705 
13.262216386972877 
25.022002332513843 
10.730169366222276 
2.0826316079996143 
18.159590956450693 
20.229056087577003 
14.327433537311745 
19.338868461658123 
14.716472319968055 
16.12980936889781 
14.567108428816926 
17.029395158089528 
19.392711733533666 
19.615968921149037 
6.331661587389207 
4.052104595635381 
7.454000716067215 
19.414821314657605 
8.281150679250871 
17.107307821062115 
16.434670752286888 
6.579280424604698 
19.972807241653847 
3.5050720179355235 
5.218068488611434 
7.795008468334616 
10.877538441562008 
2.3133125345758674 
3.8426156082548815 
9.99213601955832 
2.3285974596554184 
3.777989158129916 
17.697712094658627 
20.513243802499915 
18.90534729752404 
17.290790166961216 
4.682231372555523 
20.34901085367641 
5.13830191389932 
4.112606662147284 
21.02715401471158 
19.846874720326433 
24.903801026400526 
23.711054000793744 
17.676465937173145 
20.609592539091793 
3.446575475659116 
20.69788145962528 
3.4008921607003613 
4.174362468639786 
3.0084410048374366 
2.779524866535796 
2.8945458170704153 
12.863466056648335 
6.014884914790795 
2.929899080014701 
4.866566612368217 
20.832380429842253 
11.104388398958545 
10.740461862152713 
21.321602966828685 
3.482903244352355 
23.00776907072828 
3.030287562846878 
2.9240605619844637 
3.320020020245473 
4.0175677769519655 
19.99727459099465 
20.628559210602216 
7.847890628997107 
19.19966049758017 
7.949893240879557 
20.097386173480025 
7.875512813481694 
17.26729522814086 
3.730530405206095 
20.97933453907926 
21.19226103442681 
6.202364755903651 
1.7160589996376345 
7.465648413422129 
3.8165832227266585 
7.640968174555006 
20.389678788316374 
2.0596411933059575 
19.222625370523357 
20.598841145498778 
20.9193618086245 
6.900084876164836 
23.23438623537026 
22.729615346806362 
20.84573403119696 
11.993255518509928 
11.140073292807058 
8.854962207099788 
4.178377582915687 
12.412899321027783 
4.222474658198145 
7.428619352595042 
15.460198358634395 
7.874807253987835 
10.116231336144969 
7.737778830245034 
10.470125944080795 
11.49660410483019 
21.79064170959575 
22.747762964592745 
21.13077542520987 
4.246124542025239 
11.906092507437581 
20.876813488884572 
17.149363826016707 
20.735948295772364 
13.765194683228486 
11.607218795297856 
21.596409318981376 
9.044628680877112 
6.505211801051947 
10.469734239110636 
18.37072487526386 
18.16364683540521 
17.465983307730077 
7.54753004322887 
16.461160919309364 
25.256295575993022 
16.119974035659617 
22.11039872004352 
11.69987263209203 
21.300786024717215 
23.160191068331123 
4.046413877290871 
20.17336558957922 
20.503742685675856 
21.0051285966889 
21.204076995656052 
5.21305256943787 
18.3565901701753 
24.55057214999784 
24.83591268632535 
12.582130677903795 
27.39986115195042 
25.2041898125327 
29.68463810196321 
9.234982213506065 
6.01103154080052 
5.830858741982832 
3.1508009824922034 
13.668209968121557 
21.9506411677508 
9.108258149298917 
3.6230771392456296 
9.679398959357616 
5.063249348762524 
6.920848169520088 
6.18731727517662 
4.913229790246323 
3.379782502502238 
10.638467066836808 
16.525508917768818 
6.179496791845539 
18.204739724242316 
22.10782379699336 
17.75664417367795 
18.040704029443518 
21.662822697908723 
21.379483499509593 
2.6835491478657616 
3.3804903677591627 
18.22916606826194 
3.299796380196698 
5.541507712614148 
17.294329140899837 
18.11307173799424 
13.531813597362342 
18.2817388248849 
18.498179497119384 
7.023795409135039 
19.98976779413408 
23.72986060763035 
5.09908616510481 
18.060459297465577 
26.503403298507056 
3.389322907066692 
15.467622340686837 
5.415634462302409 
7.029817868975438 
5.530058188025767 
21.76043168055688 
6.184129194176149 
4.132288557471256 
5.641740431339629 
4.288141434713308 
4.289236025290883 
5.902507503323194 
4.786275315850023 
5.322728648937605 
5.0951975033164665 
5.204576399382697 
4.902499928856787 
22.11324916081898 
3.5136263302161113 
23.12986208906095 
6.877605632108302 
6.894065098181448 
8.35846665422768 
8.849734189594288 
23.057758953562832 
5.634074624713344 
22.374237973423586 
5.905556138356791 
6.742886437863258 
2.0478290035047397 
10.138338119217591 
6.558411445778572 
14.635427813275266 
5.071839549808567 
5.510333544305447 
3.919708633855146 
23.104691156770386 
9.177899933316354 
9.257369586884899 
25.76598920947736 
17.89069784709583 
5.687143654067865 
8.128434635746814 
10.714043673392878 
1.4396283713763043 
28.703250574654902 
11.685268885541076 
22.851025309005234 
6.848446802862382 
22.845849320574533 
21.730416161897466 
15.744224364697207 
6.263018062665783 
3.3315713845290778 
17.575054661120866 
9.126866822804333 
7.838890554861021 
9.295466281542726 
14.032751565785867 
22.742748526265714 
11.774040081709076 
16.330532753966573 
21.991659785920106 
9.79648776062661 
20.677026141452004 
5.245687411293556 
12.059284166526199 
13.71904231049626 
15.69643288974494 
17.836782008158693 
19.75073683077483 
2.5600507836128203 
10.164042348801376 
15.96317226103045 
16.447376687626697 
9.728913544810558 
19.10695490675946 
23.073884558676127 
14.429511271296873 
2.635781984432718 
7.8972288771746975 
8.233792536639365 
23.089197290423076 
5.792254497454272 
8.873330979188085 
14.771657941288083 
26.039513843715806 
23.740396715679196 
2.185601966629779 
1.4783360528410914 
2.162972493037294 
2.1311464349452125 
22.84987581183951 
20.02605794545391 
6.32475851289619 
10.945294398720174 
22.934728289697777 
13.137935293112568 
18.071697721982723 
12.399581858608464 
1.478433774123422 
7.0326175568384555 
3.9006825835280057 
23.794084328981587 
21.991430592243997 
24.89981672792817 
5.225551528976362 
17.807350681729442 
4.384879625531521 
19.51709142233783 
6.432826047739536 
22.387900695896324 
20.00378072713953 
8.653373794184768 
18.431741729730106 
24.579418000422354 
23.81211534406852 
4.438647426385721 
12.33573949704729 
3.7190625110129023 
10.341441164328147 
4.869618916354872 
13.700625772080599 
4.017045039113943 
3.991360582347684 
9.611791901185 
6.073551757624524 
10.366533257719288 
3.07151716714326 
23.31198298111066 
13.356682399811973 
2.6175062200255197 
4.110655474678816 
19.505297328756004 
19.585384607274268 
13.563460706203815 
17.528429620854812 
9.977158918599168 
5.816114842168962 
7.129605419838932 
8.919976735253403 
11.843629228910002 
20.627136875683885 
2.726022551839067 
10.08471545828774 
3.362041131243059 
4.869949152116634 
3.451689824854639 
5.601809892145538 
26.732865649661367 
4.44183460445844 
23.086030383547254 
12.834702258291307 
5.973798477782511 
12.70637211256762 
14.086279776779124 
4.945609772671572 
5.817544338013565 
12.105958450106773 
20.794921430370657 
3.667257255900411 
13.680677772352372 
12.60311283909614 
25.24939094868945 
3.135197102121207 
18.90317799566853 
6.16905963845702 
6.163330554637271 
15.53101640975785 
12.130750421277783 
5.968143341396873 
23.97189924450998 
5.955625665062416 
24.56645538491855 
12.559966392052083 
20.43776370428293 
24.493315386628435 
27.26972255746024 
12.377855085373008 
11.05629839245256 
24.246497458889447 
12.62477857809285 
13.609089923459392 
21.058156900971305 
4.902654841009204 
9.718892332418163 
13.362815040609837 
24.07357902260648 
24.25174138462254 
11.181719225939386 
3.8880835150448005 
5.0936391385566955 
4.968164792609014 
26.700775559542535 
4.706534529074193 
4.605719589343078 
13.928021007607123 
10.927142560658845 
19.90996103060504 
5.7486045779420385 
5.813370720392412 
24.183824414005247 
4.507585243755319 
3.271888282037275 
20.955816364363262 
5.304101832461509 
10.477849647176598 
15.082242552079595 
5.088637090612674 
20.905435310904114 
3.0437376171604598 
13.530501299698512 
7.720467152401681 
20.34281376695262 
10.51379552597997 
17.830453798648225 
6.2171453675810735 
12.359161828810935 
13.401927090325223 
20.630585963032075 
3.7718127965559436 
15.338327208015523 
25.969647761756967 
25.541457419778133 
24.424212536186136 
4.028879363772432 
18.1205396907377 
4.7567851366500085 
21.444106849683784 
26.236605337622333 
16.108561182700583 
3.981919358916298 
13.47220064370429 
3.3717437221793554 
3.381760080976387 
18.02606898121931 
3.19434516303754 
25.47961097145211 
11.08595092584694 
3.2246678290637263 
15.804488735640543 
8.78453053448024 
15.43534199471955 
3.153343108396245 
9.621600181772182 
2.9364637740497384 
12.657975934934633 
21.01140678904794 
23.808522849870972 
10.989213024679508 
5.107134519277711 
7.301933933214786 
3.923275548428899 
9.322320083684414 
5.581146109118022 
7.287530518856973 
7.653854187178771 
8.517991049223006 
23.698073676479257 
26.074175673951114 
5.213230419224306 
23.86610245567883 
18.795190801084118 
5.1532649797495225 
5.658111993616368 
20.706378989082175 
26.40354092227565 
14.571784672830248 
25.544038665295336 
9.920091036038425 
17.906474536820078 
2.9305005826240285 
3.046028951139754 
2.952526234718904 
4.261687759486309 
15.747816198453679 
25.438166084723964 
16.138345235899934 
22.495292700205894 
18.23177901279393 
4.770467312434721 
4.13224026925676 
29.787732510724798 
27.390315072695934 
14.783823593370094 
12.31018386775473 
17.73696662445589 
26.129577779746192 
20.936546219881826 
11.556033013607408 
11.327222736927704 
22.90867990330176 
10.898851373269604 
10.935142850188273 
13.653614222271994 
6.038484350195633 
4.13965519542347 
11.050230732976859 
25.80818991633835 
13.306130922771894 
8.157308010661101 
13.070136257496067 
23.023464249289272 
8.488013545156273 
15.794621200065912 
5.882999834975616 
18.40529709226157 
26.284207624943708 
28.133653504377158 
18.716456303243778 
13.002792918762797 
12.306231289819056 
23.958116053051473 
19.97976058568795 
15.254488997402737 
8.79536351935909 
26.834955757581923 
9.836264505347984 
12.679580615930975 
26.597434197439796 
25.41305091057524 
5.243873657678423 
12.290578400591414 
26.35197080684866 
22.459669418294578 
24.64268904613872 
28.71106080511418 
25.930972761368054 
24.815352240902378 
12.909572146863034 
19.011044765089473 
16.927573532811525 
20.822024125530163 
16.106429987517583 
26.46862115868038 
17.647212465559974 
25.502866763786614 
11.90950294282929 
22.81823727339024 
15.922435650941546 
29.721261614612963 
28.625015814414763 
27.495183140271028 
19.662203922895458 
17.15740560667443 
18.86466459244917 
15.34124914704484 
8.267347036063804 
10.72514602950575 
5.304255638232668 
21.132528400612212 
21.975185400427772 
13.327889751688378 
13.811516047055086 
11.908753439359273 
2.8941453831278943 
26.866263446545144 
2.752778746538572 
3.770083366329655 
19.275286122104255 
2.664524302341125 
3.0150618516298384 
3.2468032773289925 
21.956798271571294 
25.551004307333734 
29.639255754186543 
5.409151428496162 
5.642285862859475 
3.365172760213868 
4.5418076586012806 
5.475227537333887 
21.318295925158907 
14.437529472694814 
5.403382760165907 
26.664467295640765 
3.4116393995860577 
4.061259495802693 
24.099313215386633 
18.83783934337788 
28.748334976345657 
22.831756541764296 
26.50430076730671 
27.52115526049874 
11.189947622473184 
6.785570593385497 
12.77322097089529 
10.974390598925567 
27.780209450769462 
10.55480991514349 
23.418943462332468 
13.857571716987113 
22.470662492177706 
20.288799629059078 
27.39724873095306 
26.827448499076965 
13.254968905760142 
9.982097726535915 
7.537417812220353 
7.1447204669579785 
5.9030203955592455 
3.7277009817596753 
7.090785812913591 
28.1474209187891 
8.899905788213054 
8.64266460962013 
9.557038655502296 
4.698951473674303 
14.459263503958903 
7.210998511697789 
7.845297908893221 
7.572618910509816 
23.31164638725439 
10.415424568248026 
22.861692184763452 
18.431197015253172 
28.352143617468492 
5.387671735657992 
3.919186917215446 
7.851314034043525 
4.10409803629581 
10.963926672611025 
3.8194919411114934 
4.817862817990944 
6.000841220629469 
1.2565805077395074 
27.07824795682646 
4.023709904106617 
28.794767372078734 
10.75362859893674 
5.404919915991977 
12.684884812914317 
8.447362512553962 
28.920217643742138 
5.178783696098497 
24.248750615254988 
27.694674778479474 
13.671295909512242 
14.411797564988674 
23.29134680451276 
14.128689025717952 
5.38754202411268 
23.829956231735288 
7.495377738503539 
17.37568011844555 
22.95214333541199 
13.055685835967088 
24.518164595727708 
30.591155470485095 
19.202174484303054 
5.3911029752294235 
28.053577500215304 
4.555955866943827 
27.830286259616024 
3.7178231293720754 
3.647057534557085 
3.5165762137829693 
28.007111578859902 
4.849348040567691 
6.184717162107322 
4.296785771563075 
4.66993718840224 
20.16589364204549 
3.6310859699891305 
3.914249106219895 
11.472791880730805 
4.877807412463413 
28.29188397507445 
28.20632561580103 
13.870462086447194 
9.533725209714218 
4.063642874113049 
4.904446890598136 
4.948380265913431 
4.990849091140737 
15.16923562211379 
18.546864744705758 
17.863615046752578 
4.389624935567544 
27.42842946467992 
5.261843399978129 
4.9266745317200265 
12.830970403312508 
24.571359008811736 
5.342375429284563 
4.318964516958549 
8.403651218839526 
24.225089867751645 
27.511190876650282 
5.423887973005451 
24.184252423657 
13.81105969859817 
3.0521173721744064 
28.710721623386938 
3.1501079906374505 
19.40798688769214 
20.188403982210627 
24.845503519233056 
12.645235880851239 
29.42221433818149 
18.487697644608307 
14.211510651853441 
2.5470924786126306 
2.8468510595953846 
3.157736181168581 
2.8264237294203256 
2.9489875997641004 
2.952463410098421 
2.546956970088338 
29.10589442091528 
2.765452740919681 
28.605527520853766 
29.010750657672773 
2.9128106657609663 
2.9119095971447124 
21.567740153001047 
19.029586800736826 
17.20059544428655 
6.73558400841776 
28.739689289006318 
11.970208603084556 
8.067985302671858 
24.93425764788851 
7.392271235456484 
18.468887122032676 
28.154694810630478 
28.803657904095374 
29.559565758281398 
4.331766128575693 
16.95177422842665 
29.165053984839144 
17.867012131095734 
7.368552957678315 
7.137832827052492 
22.441669266527622 
8.168532888534413 
14.863532802750605 
25.592463980377673 
6.51010194661702 
18.70298566474557 
11.391440731847714 
29.25368435697196 
24.843217067106046 
20.18568216062491 
12.880257086394943 
12.031169176567163 
6.289277760888063 
27.465159852180804 
6.130541540871184 
24.480821971352324 
8.936842199870863 
28.99130143725768 
11.4247126072926 
3.699048915463694 
3.356103021411618 
3.6499657782373296 
4.413739285966955 
12.96057764142656 
14.59757964341099 
5.49651406879062 
8.242401773614082 
30.02279433869456 
29.88794366711059 
7.881520569688113 
10.234505960522336 
29.842560182316827 
29.08919708210948 
10.328965003835421 
3.6575303777653594 
6.5515730068704965 
13.679244511712007 
5.45644689704283 
21.042455060730806 
28.398763041857368 
21.36577816413968 
29.22031371241926 
29.601257009540646 
12.765829175281421 
5.06038353298578 
29.733179341281634 
24.98118676327472 
29.573846638147785 
7.663429627400327 
3.908089958751776 
2.8406139959271535 
9.374008738079972 
10.043066540775143 
7.845457951958781 
10.638623538726854 
9.9892542090251 
29.474931913684088 
31.258217428664995 
10.338367736684402 
19.614312099638767 
13.926413800081026 
12.193816806146856 
24.037495138442193 
3.4122849513077487 
5.917151988971195 
4.242179332812144 
2.5911351961571154 
19.079052607600566 
29.913043005164806 
30.89525038818627 
14.414212156538909 
2.999190909473365 
27.140933398353216 
30.903970867099808 
4.3993366443120605 
24.97031219681884 
3.7809885119217257 
24.83469031701435 
31.068771330119105 
29.5015789767094 
5.5289523361866815 
4.60954979164988 
31.080907066138455 
30.572631345222774 
24.54522994845309 
3.562403297925792 
30.808070136797536 
7.905111620949699 
24.066576777478303 
3.670743115572357 
4.616073382191211 
5.545809630989734 
9.26169281886625 
25.4871593611664 
8.717428670695531 
9.410142758919665 
11.101135589365683 
8.035076945181732 
30.811892333004504 
31.40038307074601 
7.527725289814232 
30.52729333537284 
2.8372868869357726 
3.3871197130106756 
3.5774152972466493 
14.049813034551823 
29.22088175640284 
30.92245237085779 
31.04209507962311 
10.250194489407018 
3.1609721476350376 
6.265336222219427 
30.652970838680183 
2.8177398378419403 
3.3493269809605652 
20.489297947056766 
4.908711024642753 
17.104803278410877 
29.876506238326044 
26.476685410099748 
2.782657652107076 
10.349853843429518 
26.615497031687465 
29.78689557304932 
10.008726854615706 
27.221151029466622 
16.483528283130553 
25.49763976568868 
16.654938910331445 
28.04141109546682 
29.919263740504565 
30.205326391402338 
11.240856611388311 
1.4767006523617743 
9.754265784417344 
13.042839618487355 
17.95292698123781 
10.617343910744202 
13.118900028703887 
5.8660296768357725 
6.079586310345446 
5.4796415053180665 
4.950886481019931 
17.311706341844573 
9.161511911189432 
5.289546453879226 
5.82414199037204 
8.006164758910398 
30.721686598399568 
6.401057106122209 
30.444657460903496 
4.228667616175308 
6.694642671958472 
4.946703938694072 
18.302290214040706 
15.800762478302516 
7.757909986828807 
27.908967398509052 
14.284945400213296 
4.938505349654294 
8.54257176623469 
21.669939414427454 
19.768900351070297 
24.664747353843868 
4.052740677206582 
18.255134632573757 
6.604289487176543 
30.83548118256153 
23.575235815929826 
30.089996946372228 
11.524712304979456 
29.37553489919098 
8.808861960282789 
31.191495915785296 
29.954399672386213 
9.640347651737239 
9.423855645804487 
8.95041328970642 
22.29967182688004 
13.054486395768018 
9.012600628723094 
31.20004981404951 
19.20172077495634 
13.05904676971319 
10.697056917178527 
10.476137174132106 
12.745941772125938 
7.851801735536937 
10.079798688665532 
8.36133600199847 
17.105218996463364 
16.461556688639543 
22.919072077936086 
30.42574272719749 
31.50223628315703 
14.416206585065044 
31.7785124272254 
17.548119950748816 
17.941754924561106 
7.593842877483094 
13.01256230734978 
8.834029800622895 
31.625998264812733 
9.320909282488547 
2.6486322578169132 
14.393879054492054 
28.917769128490008 
2.938171096813436 
13.493778592199703 
2.197347024821752 
30.696981743722635 
2.841797495295284 
2.705798135554643 
2.8208589176709933 
7.38715455412503 
31.28977242278419 
30.422621254086785 
23.54168261770313 
31.640474369646025 
2.263307694621348 
16.577597363540168 
31.96372883572275 
4.008171639673855 
30.564504982262665 
18.667450505977573 
31.351386148227384 
2.7811973255377915 
26.680531792220222 
31.579231395052194 
27.285310776652885 
11.21448481725034 
31.764855257891195 
2.5453494363970126 
2.868901714402266 
5.899095401590747 
3.1412631684109025 
2.7135463658079875 
2.8935623425935333 
3.071342231458525 
3.0810857218376664 
3.124471155573376 
31.73790881844016 
14.647880360646274 
27.031361669844415 
31.585872728684844 
27.209880957742172 
27.146948977443 
3.486908774666063 
13.066563571589478 
13.456440179380866 
18.934508434545464 
17.287292191015247 
12.751528176511409 
10.009038998356063 
14.515341311519572 
7.24301996127183 
27.387647049175307 
30.840760966916363 
3.404229020528816 
9.008994344313127 
3.3270612352298934 
30.421843135616257 
31.00995621198599 
6.388190150260482 
7.551290530697426 
31.525014471509827 
6.121971747282144 
31.62055976247181 
4.374990972891309 
3.3394057504803265 
10.45550059319375 
5.758916514294945 
6.182353316388558 
31.32975244743996 
6.31273002957543 
27.474378042522787 
3.629964315850679 
3.87980810232416 
9.499739936444087 
25.37182736832827 
13.05608156354236 
13.785783055449873 
4.143380874907722 
30.973867851312995 
4.011950547934849 
30.239634194871034 
4.2304359866556895 
27.00501682714146 
4.853567695826728 
9.82758151297564 
7.406438254408458 
6.630010017984799 
5.597857249434081 
27.741531777732355 
5.211650590406473 
4.383300847770191 
5.419484236017348 
2.638695477857219 
31.633125148691644 
31.00132554558027 
11.617383744146887 
2.9149519174205154 
2.561838173516725 
5.342060545718003 
13.846793554471185 
31.251215044994822 
22.61261284653257 
8.974062682642385 
30.288512302261587 
6.447375822114266 
31.463279344483666 
5.084120656367868 
21.508541667615336 
30.862663105722614 
30.6774560944666 
21.30648619743544 
28.32382614046793 
23.761624779097026 
31.14047035902221 
13.759606485208426 
16.656152025741083 
3.7751840523480396 
3.3680733731378143 
3.048281111627259 
29.950948694440672 
3.4870535669068365 
3.450028815155293 
2.4780177193986614 
17.31057679865745 
3.592697109576627 
15.800843947193455 
30.98158850733741 
31.655310024430197 
3.293419831346608 
2.8357487559966152 
12.017700484940509 
3.724820221524649 
27.357679467640438 
27.291258544885967 
7.48707623988141 
26.91451406548624 
24.392175034305254 
30.445503135063717 
15.376269960901604 
29.698973213498476 
28.826087531730057 
3.521425006326842 
19.730052126396846 
13.9147173229937 
11.231028469660032 
4.924562501200043 
11.097815817650917 
10.61584665996402 
5.756588563376825 
12.397945128352678 
9.247320949605362 
3.103832541008854 
32.40301414475488 
3.3294427596969354 
19.601447716277036 
30.43629791724081 
6.4469061590794485 
9.415571140708288 
5.011178091190936 
26.541080629468855 
31.01293789705049 
30.698881169131692 
28.259690956273403 
7.401919487686481 
30.36463229265917 
19.06955122938288 
30.212417689037352 
3.2133374383284954 
9.423087813605395 
9.10401074644957 
25.437911483991755 
30.907724357775365 
10.46653247876323 
6.830469817701706 
31.423727734033108 
7.519807209694891 
21.60637740510202 
25.822752397741695 
32.20373882538302 
8.05344781938124 
18.240121858761615 
24.508285722051628 
6.844731705391962 
11.49944977760262 
5.441747081735912 
20.401932316202725 
10.360552897949008 
14.580919532550046 
40.021555357244225 
31.459779841963194 
14.580452837461614 
17.95019370225281 
10.968106902184553 
18.17282491249669 
11.3292848934453 
7.529905858072048 
25.544014844671857 
4.185900585981744 
5.304620423377207 
29.897387022534797 
21.459379114902426 
28.409916397257387 
33.70285114148673 
12.601103837493614 
9.103430542058847 
18.597002151692223 
13.177260371590512 
2.685489637133052 
11.027834512570765 
18.432621050156726 
32.162681816490036 
31.447714869143272 
31.096993017497073 
12.594960325849415 
19.069551229382903 
12.27650732212619 
30.472326680462483 
11.86177796106451 
11.904253501212429 
4.737124151941809 
31.96511231666686 
17.737685101545523 
30.83416977820779 
17.974167587540663 
31.841325644329313 
2.926982645081855 
31.566252951294494 
3.644990529892448 
5.9649567305570415 
30.497966305367665 
8.28128714695962 
18.301420752098775 
31.131078049476304 
31.405531615293665 
8.492587284540264 
30.562980142467215 
22.067578165551442 
19.97835230617823 
6.204782472823666 
6.721160550132461 
8.17919834590317 
7.932248266688893 
29.520429206174324 
31.981461638931073 
7.757399973845132 
6.990341686832099 
7.953008174452325 
6.187518186626015 
10.684993125889108 
7.1153467297963156 
3.519679835578557 
5.1409523232541385 
2.6575276810021022 
3.3854963789074146 
28.398605905801237 
6.637336522016824 
2.5063527414686906 
1.177934966217058 
5.8083756254471925 
4.473961179920516 
8.51990262367989 
10.339467279840582 
8.832891124004542 
1.9693721151028432 
8.639972342978105 
7.589846969826905 
2.350862194289583 
28.771978517533835 
10.31352740517362 
7.696977121216607 
2.908921050974225 
4.313972773184345 
2.20399500751914 
3.3940303334556257 
12.243009353759575 
6.759108281021695 
27.15071876153456 
7.0167733591894645 
6.754821197075171 
3.4291742201369617 
4.0590818440814465 
4.329555229204407 
2.661828085099441 
2.1555737931830565 
10.536340990914839 
12.226108442816331 
3.0598858066186296 
12.685571217319099 
8.093866070676201 
11.291884409545366 
1.9539605553180759 
2.9029680430453615 
4.08968505342269 
12.021885803371493 
2.3068930557678193 
2.5490881709210047 
11.180621320756083 
9.783597783569169 
9.898073439270542 
12.037131347888433 
3.1010436024583563 
3.8534001794725787 
6.250298539307715 
2.510061746159628 
3.0003519699273578 
2.8851995989728123 
2.8627341852085477 
3.2335464332504578 
10.63622333511534 
15.049225559044475 
4.0600710260662325 
14.236087206973668 
2.915607499829497 
16.100865775723534 
3.6434384229716144 
14.53712553522573 
1.960072286224581 
7.63139116920794 
1.8095325941608937 
5.621139893135887 
5.0077633278517775 
10.94980868600237 
3.8318370270557556 
3.5406944721281866 
2.1326005533535515 
8.129037343650374 
11.194874417322275 
6.8878232470824745 
3.86381702638146 
3.7573618085480245 
2.4201127067725623 
3.4407668766594846 
8.744458461713917 
3.2217866969461397 
6.566069656578083 
2.6563701389309613 
11.787626682241989 
2.1288062231855136 
3.8486492417895737 
3.2362824545365627 
9.317963980021053 
9.26948388588954 
2.451548076994696 
6.851938729003812 
2.3100047119219864 
2.9730812621610854 
3.1182378217820164 
3.7670329709489203 
9.146090202626274 
9.216782206998912 
8.179012425860492 
3.1689502471296875 
16.2934065379418 
14.118453825669336 
16.160155356659462 
26.21835411348404 
22.374736099601538 
2.5233035124279195 
4.111187668385888 
2.699640851808599 
1.9361845439954766 
26.435593409134775 
15.764902883215601 
1.030948332621105 
23.05598962504247 
2.160414448119952 
17.031165495381412 
2.7661547829833424 
2.5377999094393315 
2.0726294582123734 
18.027284465067375 
21.79760042754892 
3.038908844850228 
2.1109776926211 
2.9831910342609604 
2.7756126211743437 
3.249750985521996 
3.132460935622072 
3.4677941908916057 
2.6896068087536182 
1.7220040201402191 
3.1734480404853973 
3.57894548310469 
10.094133114551482 
10.035248713025073 
2.334953415956242 
3.432225074743414 
2.2981854044764796 
2.1283456490892396 
2.522474366913599 
2.3408810345518503 
12.810274544453765 
2.689034292480223 
3.434301743953455 
3.788332570091316 
9.997392112527839 
1.9720067033018396 
4.797876691294154 
9.116015264741513 
2.4936637603613545 
2.671225708856525 
1.6346454891013584 
5.274734600191912 
2.6328902778500773 
3.2882388487185903 
1.7831476663094554 
2.300974383067983 
6.536749757721519 
3.3469165600890465 
2.3099591097241827 
2.2920469253934037 
2.043543643231897 
5.097674479622769 
28.303522292887607 
6.192677910368334 
6.588329604336998 
6.688321225621666 
2.5805891322747 
7.1373530797428755 
3.79770137542695 
0.7867239477800488 
4.996483712900825 
1.1074109748611747 
2.8040150666309978 
5.526002884634672 
1.961659510301499 
3.4523674103726223 
2.2648457174453926 
3.588490423253335 
2.53199908966373 
2.266196951247605 
5.0782233624411495 
6.065160929325515 
2.25528240696276 
2.3730909020231303 
2.5008907898906765 
5.893653767222281 
3.8681320984013414 
2.4016033131294763 
1.7263710867665623 
2.2239886483559235 
5.868383309625494 
2.2460241149832836 
2.297547415614799 
5.497004553147044 
2.369229034327001 
2.765929161547402 
4.454946634673863 
8.60343094792126 
3.125168232095281 
4.6467401677546984 
4.482620573038345 
5.798442760834346 
1.3015235585721503 
2.1747724814737146 
2.54788362755986 
2.5581445265396177 
2.5914967687159485 
2.860556046077385 
4.2529325817930435 
2.54471640461047 
5.749884553400089 
2.989609524953712 
3.82600409916906 
4.6305017002448805 
2.571608294464578 
4.159615044907275 
1.9667047473227537 
1.8958667167578034 
3.7207683907339293 
1.8155035523411966 
2.6205762400958776 
1.7282640551453157 
4.080184894121392 
2.8464068043362727 
2.2510946833760856 
2.441764177122278 
3.459257263234718 
9.496158996383631 
10.04409171582045 
15.665107820256047 
2.3554540077688997 
2.5078796417062397 
2.0582906398172756 
2.289129329210786 
2.1741608896338853 
18.278678118399377 
2.217683877888951 
19.29978852951569 
20.28527424530537 
2.382949968624048 
3.87325932340092 
2.751661596281862 
20.87395705752833 
3.6629405290717694 
13.057319030342892 
2.470987115330946 
2.173406872901607 
2.1443870041861937 
2.041687157924702 
2.2688799498149104 
1.6225042927367679 
1.8029201370539414 
2.174051406585973 
2.919587868532193 
1.593740729289204 
2.898757858409739 
1.7865155710010812 
1.9824337873508409 
2.420090737479937 
2.5134938645025677 
0.8431460668159564 
5.7846867148859085 
3.753660385933447 
1.709659814524174 
1.2099172832624125 
2.4029882627981736 
4.9565151712091975 
1.2241400819996484 
4.942290689627864 
2.711217055078503 
6.029377080031844 
2.812483303123423 
20.732357750441913 
27.99877889887842 
27.043426712546545 
1.93862246945123 
22.025758860136946 
2.2775135583322554 
2.1851708502661142 
2.5176268731438594 
13.124169758992347 
1.9045419115428288 
3.5416244333245497 
3.313953891696637 
7.907025178798238 
3.8107268792151863 
3.6392809572742264 
1.2748366662808945 
0.8450503491005973 
3.4754015733775834 
7.227267538088696 
0.9484422418562887 
2.9730426851327274 
10.993388425778607 
1.7167361134137256 
1.7881163459014056 
2.342186662999611 
7.16243448745904 
1.541662892527588 
2.4515823289924987 
2.2209851315259463 
5.57319090020609 
8.407112691898696 
1.9292025883058634 
2.732515321592994 
9.852758101932682 
7.004896400336022 
1.6323164526407885 
2.5462105019516628 
2.546958969525322 
10.553638973835511 
11.086770507367758 
2.6432897056919358 
1.7495313370973102 
12.501861441098944 
2.707758611838707 
6.5052679268178215 
1.7767332498575896 
4.331333081479427 
3.3602680739858135 
2.0669007325705517 
5.138524392477311 
4.975758963909181 
2.5110431291589355 
2.299434487553619 
2.3114888552589203 
2.1920190870451433 
2.230340269550953 
4.210825382930458 
2.7120364537465735 
3.6971653948940792 
2.727863211805097 
3.6218426792704297 
16.784341669198366 
2.2299606940309906 
2.2321892967826646 
3.4526462636378956 
3.737313759114481 
2.7627966756955904 
2.7327984926426474 
2.4751495746776158 
2.141639139302913 
2.9519593295177327 
2.3458061927758056 
4.563558512393276 
2.209130885594196 
2.3574551982037635 
3.0785895469884896 
2.6672719384699257 
7.436249129164287 
2.4776949372685317 
3.262964268437392 
8.260651913270095 
11.127075138519523 
8.266026251645997 
1.7424247258183934 
7.144281799372894 
3.59105301737381 
1.8853383058747892 
7.664660380493843 
2.5599464864485033 
1.8844590242025252 
2.6439377562507462 
10.564090992827497 
2.6174401378353167 
1.981405054393163 
2.0818225835670643 
12.849172513403264 
2.752483025170399 
2.4919375754281834 
2.334889378833488 
2.4847979970226315 
16.584794001684017 
2.505641557012775 
3.3164821547638788 
2.4769939506024365 
14.657414505661214 
2.7621315794608057 
2.090713470285171 
2.401059344826538 
2.372890273931716 
5.612421949060927 
3.119783729823632 
2.1662701612612105 
3.654131022567407 
4.339672604670594 
3.519822201796337 
2.406869397240339 
16.95439042392797 
12.53044392183945 
16.061722614144564 
1.7311351511108795 
1.7781760867696108 
2.5683000022724114 
1.9696883721695206 
11.912952738636918 
4.108044796575723 
2.5697261611007742 
2.5627939640172146 
1.7510085142562775 
10.655575952980927 
9.027536993573971 
1.8703032309555412 
2.1204855408981103 
12.317802576142515 
7.269089566327585 
2.9812688915697465 
2.0278217458110417 
2.957588506059571 
2.623934471956134 
2.8954688549014436 
2.62738507522358 
10.231258413018988 
2.9956602038418336 
7.823407609620824 
2.4453393989563033 
2.227122158063929 
2.310118807085159 
3.1763169320003053 
2.4850423427369415 
10.431318259745314 
2.571317854321456 
2.091286728062445 
3.7618908641506517 
2.1286645076482538 
2.275098379683043 
2.8111869703895658 
10.257762184530668 
3.8545302021546792 
4.451233973437135 
11.335682983521298 
3.1011765679609895 
8.05196137747734 
2.517360177066603 
3.0733389166348775 
14.87604301282149 
20.786217015821986 
1.7654810326686574 
18.458917848970962 
2.7396445632608786 
2.8463844742847013 
14.268833248074355 
6.486946231715897 
1.9194006896248752 
2.7817529755996944 
10.025793620654573 
11.36951690542953 
18.457696368934158 
1.9879751134766623 
2.9178957038556113 
13.077532732375051 
12.765562010398973 
9.868262530169066 
3.6283051927552012 
2.9028953137538367 
2.619215582737011 
2.8056408378277795 
11.608643386498871 
6.213059146471813 
13.033305145500007 
2.0869845162736915 
3.0410413992909646 
2.2061447255165674 
3.569756005880038 
2.531590179828355 
2.0960896410968086 
3.2287190183251964 
8.282748232470356 
9.298207469477171 
3.2225117104724106 
2.5131631042190015 
12.980674363089665 
3.7018990118952684 
12.074544914537483 
2.5124475942807503 
2.245892724309405 
2.779993350691462 
2.8419694212492703 
13.659801642756817 
2.6562404853509656 
2.5844727447632034 
2.049057478588781 
3.366614850414904 
2.0744253983666905 
8.523789498066051 
1.9194586904021156 
1.6754223040669536 
2.787723150127038 
2.2145086270557477 
10.333361633154551 
3.0087607470587567 
15.821463760696682 
2.248728630632175 
3.5651539289061676 
3.6516858081759276 
3.5312984801458875 
3.1556372970139854 
1.91171795760033 
2.9002950439238773 
3.1189607897768648 
2.7123372098403706 
2.914436798486598 
12.114926222637036 
2.9543897010635183 
5.996889899495841 
3.750673986704223 
3.748806119928069 
2.640892826127542 
3.300317577316564 
2.622180673759243 
2.192261082684237 
5.998188591400525 
2.9345540462864315 
3.6039451211579037 
6.28669054275435 
2.4659567923886887 
3.1932343042431217 
7.3146511890912755 
3.6147622802962354 
4.107431041348368 
1.146681005125954 
4.20721475549532 
3.252663251424982 
2.234134794909772 
3.5976132559949554 
3.3031856459154185 
2.3495779401676895 
3.0393624634311216 
3.7815908598879027 
2.80736675911156 
2.8697435360878862 
3.4790427105709556 
2.563259130425166 
3.61567171548768 
2.994993112425174 
3.860406894741117 
3.6056849522428758 
3.5199724297461463 
3.1745581054036807 
3.738942647939495 
4.04991665150893 
20.71937189079806 
4.911228053938362 
2.9056589176339904 
5.384965240186223 
2.734901710098193 
1.9032306286939316 
5.305852612245399 
1.9707168280402572 
3.9326894741986584 
5.304697702142064 
2.820709511033013 
2.3004981769232407 
2.005882607413408 
6.353562763422258 
1.5666086459042 
6.487221760683757 
2.174223702584359 
12.527311932432672 
1.857536574830308 
14.103504535143308 
2.1971451816070875 
3.9251945342885257 
1.0969448010771943 
2.1695736632962963 
12.798789047895472 
3.0393145139100097 
17.860192996701706 
3.587788588457118 
18.550872394734498 
11.130109207233897 
3.1173804462973522 
3.645618831235517 
13.524152259111315 
3.4851149875387937 
3.875921232823627 
3.7626287234862223 
13.302337130077191 
3.1787892404418496 
3.828209206964558 
2.258685058804851 
3.6339479472263365 
2.2170993853367076 
3.1912364179909023 
3.3338407847414357 
4.388898788331289 
0.7573202659616894 
3.2918283952636114 
3.0982867123352666 
3.63199507067602 
10.504804236629807 
2.567372779554375 
3.194845120130607 
0.9344672401895507 
3.7996779685814066 
1.862497612627456 
9.89389720262669 
9.275387765438445 
15.619386489523581 
1.9404762094832073 
10.177008263652926 
2.7040107131568503 
9.920373188679152 
1.441273380617997 
9.867852170813384 
12.60594089596203 
2.190366900195757 
2.238288397747132 
6.745065745678218 
2.6884205230944005 
3.133088267155013 
2.534186729162783 
11.11187197896565 
9.52639243256443 
10.729682385790424 
11.32150209716155 
3.907446148680956 
4.60393596223229 
2.9061850673348344 
3.167511776431634 
10.978752959526105 
3.8694347843682153 
11.59650251381365 
13.821604145941222 
10.822056937339113 
3.694377004186229 
3.6905376970965067 
5.361654800581794 
3.705223883990495 
7.191524071859111 
3.9105414347467295 
3.822555550615819 
11.99955841611047 
6.656836203626641 
3.171206685733201 
3.87083036713119 
4.668659999262763 
3.9079522901131045 
2.2366787164202506 
2.553988656093328 
7.690282018475679 
6.03648061279146 
4.592031246766057 
1.6276747869218986 
3.2345421518116932 
3.3352364662447194 
2.655822506462941 
2.46409631005484 
3.3071194153320826 
2.3962026521608735 
6.2103844222183415 
5.263083089947618 
6.064035471928378 
5.9738008024625335 
2.200124794332305 
2.865634619775906 
6.777763961662193 
3.848035599144905 
3.116471712208366 
2.3167678506261233 
2.8103037943578 
2.297822864620444 
2.7899014249690524 
9.937897979640928 
2.966761999285844 
2.196776639126627 
15.99420758924636 
3.3058568142046534 
15.901442711877024 
2.898808079020898 
14.065004890798187 
2.2351272427609232 
3.686513506817634 
4.996254968761921 
3.181519642216892 
3.0467581985492527 
24.103979719153664 
3.265909383435799 
13.232341933377985 
18.48567583300578 
2.5793788675513483 
2.3594930587267244 
3.742606401048675 
2.3790776685977897 
3.7088419317144603 
3.8671316362266484 
3.5624355264398915 
3.1739971476035573 
3.9526118690006613 
8.003141451716619 
3.6180041140876837 
1.5352222213902367 
3.841769985379715 
3.980881057784224 
3.301713879955416 
3.5478020441111213 
9.233895918917057 
2.2247256647400127 
3.92815853797765 
3.706240424104671 
8.0259258687904 
1.9598676542945266 
5.175367958537346 
3.329836775882433 
2.5664049639628086 
2.9554726709219894 
14.23037079449593 
8.33521480841389 
14.253681363052237 
2.8358671371238406 
13.338188080369441 
3.3271443910628054 
2.5229829798471846 
7.662202879444202 
4.162846884149896 
12.941962017207226 
6.084253711405646 
12.77213794951924 
2.8854324799294635 
6.163037263714807 
3.093328981148493 
15.193214462037368 
2.7506917782970666 
6.065521609174338 
2.723194496986524 
4.522501075562919 
14.530125478134334 
14.020826151266998 
3.596829129107561 
4.904007071497092 
3.4581776807498756 
3.1586002558685777 
5.257720846589741 
4.630842762057876 
4.519391970720364 
5.563551217554127 
4.524925112483118 
5.202271097251154 
5.263789742187067 
7.29257739029363 
3.514918826022333 
2.194403742267324 
5.63881164741724 
3.5060358169759107 
6.180900508639894 
5.760386684818915 
4.967373667927293 
4.007167190182243 
21.76850468160109 
3.176022206756225 
3.4045538689479966 
9.038620870676668 
5.329467005547615 
2.843272834529572 
1.9686333472614597 
4.3165004076788165 
1.8455964815370995 
3.661759965829951 
7.8058430244940515 
3.1213757651383056 
2.647724627173753 
9.574442804654126 
11.336206221665057 
3.250519230611081 
2.7899354918136554 
2.9521609571404155 
3.518518654183246 
4.671556720826231 
3.921424366561658 
3.8066519379290655 
3.232809841398283 
3.545119872791983 
4.370809989141332 
3.902343694419282 
3.6468251612404323 
6.368518300271026 
5.488610762682586 
3.7172714772305935 
3.042652600825513 
2.1805759007856698 
4.374615451379841 
2.873645486266279 
3.207794731505722 
4.419025676503027 
9.969307572506166 
9.400836464757793 
5.525371503409341 
12.80000245032884 
2.8885448105620033 
3.6767779142289037 
6.774035676187037 
11.0764610757753 
4.143894299783813 
15.360690064805798 
3.2331452909888507 
9.357884740132864 
3.7828944507820315 
3.9430218082194837 
5.2012884849344525 
7.568633240228618 
9.55141658284757 
9.29124576799571 
3.6357343806538522 
7.053363378933734 
4.193950615517778 
3.432399999746465 
3.465640591578269 
3.197386960754553 
3.915695593581065 
5.270282817219344 
3.5172565820157793 
7.147892235319662 
3.1493862892446733 
5.554838989540184 
4.6719028865014485 
3.1991491647575847 
4.3105113570676785 
8.416897244817614 
7.173602013808374 
7.425273867335943 
5.446944760543397 
3.7451246174133934 
22.74676677127238 
7.3649386648883945 
4.086512238614419 
3.761510267275257 
4.174029026583696 
4.674253474266109 
3.423979634171988 
4.6603026139304164 
1.9802980143451216 
22.84978503344995 
9.608813349163428 
5.050724951954521 
8.727138466150592 
5.2661340158266 
7.126034125833592 
7.640533796815971 
2.7991264653297865 
2.8611033649754436 
3.3584756137507084 
7.9027953432167 
3.6774866898441863 
4.581791895859816 
4.467407673166424 
4.5619442394650775 
3.099341435451862 
2.889990024394325 
3.9334894069780746 
5.371427757943297 
3.3159525328681525 
8.039397681297205 
4.942054809127828 
3.12942558972397 
4.401815184498817 
3.5804677026400955 
5.651219556301795 
5.3040336640361225 
12.795345754059403 
8.647803239538728 
11.676787731817303 
2.7284506348616926 
10.52491382286183 
4.3262569004623455 
4.620637838323542 
3.178245547510078 
19.937460480498515 
5.996699492787893 
4.565910040629445 
5.802200234503815 
11.838661305715103 
5.145867283144703 
3.8851464717923965 
20.37718981251762 
5.734659195014131 
4.001276963094379 
16.04230605936169 
3.936348522100984 
19.351944906049642 
1.478950953559476 
3.6853259254383715 
4.940486252247092 
3.922075426751604 
4.400630258227972 
3.640881088271109 
4.8310713338728934 
4.698044968608181 
4.167850765565613 
4.380661050260073 
3.1778352647557684 
3.9476865037792472 
5.473305312052849 
7.990404935393812 
10.218682562432816 
2.2692003015321065 
3.335873187752489 
5.264121718263463 
3.235651206860764 
3.6167997832628633 
5.978604888727024 
3.9509661293855842 
5.351681467429834 
2.4946379498616476 
3.981041096638312 
2.6139993566291566 
11.195103970582387 
3.161685875567509 
3.1255924533653365 
4.1948997440354745 
3.6769371727011664 
3.998607147681595 
4.481243452805048 
13.447036593466851 
12.739426468607347 
15.272617144579446 
11.052783014557571 
4.35920401395301 
4.145564329857218 
18.23671155929997 
13.514700732770937 
4.86333523882561 
11.430233924469482 
9.31716403167337 
5.305723316729326 
8.735551791899546 
17.34979115073177 
6.15597735040705 
10.071566898717803 
5.041494946484006 
3.3324701113492914 
8.838696364879366 
3.293583806088898 
8.231378609661743 
7.558967134249067 
10.599125842546878 
6.153076993668589 
3.7516519522653193 
4.816338999580428 
6.570805195499483 
9.64340149552613 
4.002588143397548 
4.576450130183488 
3.124743836998513 
4.057500127870996 
3.6149811246418255 
4.107587866859004 
9.544176103014903 
1.4892718628217134 
4.276100175210325 
9.232739319473698 
3.1880146961125595 
3.0507619404880373 
6.221198386347402 
6.029423923584413 
9.919492246966637 
5.771990868959046 
2.718396481354531 
4.169494027257415 
24.60012774424236 
4.177128415814308 
4.159688566023801 
4.917670071633375 
4.338455833135925 
4.379773523813915 
3.909990449665016 
23.620177996300963 
5.398693650570314 
7.497546499569525 
6.111498069906127 
4.56025486313413 
21.380689055973445 
5.3020860219265655 
3.560542755139298 
4.571583271450825 
4.060393329323743 
4.204655931433944 
20.111608646802136 
22.674744872208898 
15.342074071387634 
4.257526962504141 
9.795884204118394 
7.645456464765277 
3.931207010570192 
10.073490164468053 
3.2325560496633092 
3.235187836925978 
4.842312305788264 
4.512716763681369 
7.990878488790734 
4.225810655846026 
3.4069801933451664 
4.1566208958885085 
4.175266489747073 
6.751205989271061 
3.1598755431994037 
9.422705499613462 
3.7379073183271605 
5.544461261904823 
4.825104190609525 
5.330930801036817 
4.514449200907502 
10.051782000756248 
3.3878742194268088 
11.037995120908647 
3.5067393745570468 
5.494813971191199 
12.622211840993955 
5.1259999218360965 
5.227545219068774 
11.811416034948362 
4.29357250310509 
3.109134393298846 
5.835837088112015 
4.179968022412131 
7.556969993191143 
6.256390647552603 
3.57862464040243 
4.198969469177416 
9.540550014930863 
4.074351991353394 
6.699369902869511 
6.06012785141924 
6.666914222528318 
4.283803156949608 
4.658103838937226 
18.738662409856914 
6.102321019273421 
6.597808111727763 
4.135434001623418 
4.350607380953948 
5.406814175813556 
3.1862112164949035 
2.9654930708023377 
3.6373578015918975 
5.482823589285494 
5.179888139519599 
4.223596888181843 
4.00316493037795 
7.907336283912549 
3.6705793892850975 
5.197252380268612 
4.825890348788047 
9.43464014463715 
3.2539530358889683 
6.690725356619047 
5.4387565917333225 
6.275258607509319 
3.291889205530968 
5.265338486815102 
3.3779173387289116 
4.665764778459746 
3.4454842318574728 
3.5845372057062366 
7.953484332951845 
3.63158697752822 
2.5764435587732315 
4.898487958077139 
2.7837028761279865 
7.5937302485720375 
3.020035588520214 
5.13798900877481 
4.211149362964452 
5.938884703400182 
25.957433375882864 
5.740009728090664 
4.478584741701946 
5.104479594362189 
7.4338670914867 
7.9431568487045645 
14.276893387475157 
6.85234297104508 
1.9284511516552942 
6.39516075171074 
2.019588618809095 
7.8463312964614795 
3.227363075903936 
2.084861887600867 
2.5557331731602817 
7.081221102488506 
2.492687908667901 
5.524656160442353 
4.029001529303133 
5.2994816686274895 
11.71265636925292 
9.18890179217173 
2.1433801612502683 
6.817010136980746 
4.347218349624669 
3.98897653360522 
2.8222675575937455 
2.2878522037885474 
3.6377202727913986 
4.409213700750143 
5.122816952715921 
13.005308870996258 
15.221432725584323 
5.661261449216569 
20.67731059741592 
9.608195093189373 
4.879777891240977 
5.975758070785805 
5.465795842041651 
19.865536800328996 
8.480611592642692 
5.212631929072348 
17.742417216061835 
6.652527261686544 
17.675677094497804 
24.83665459844788 
4.667813337124548 
6.833541484402232 
5.634902453304154 
5.437825544923326 
5.606425108396555 
3.513769822724843 
7.419779926966718 
6.931491839533186 
7.267080708479525 
8.860563370165732 
9.34014526105703 
11.260305780062 
15.470459773700846 
6.226681352070115 
9.370634116347215 
19.333997486276754 
10.89265192407035 
15.417779264088528 
5.811402295302833 
16.324390426783566 
10.711207130934637 
9.7500835283006 
5.2106811997130755 
20.36861239164061 
4.292848832734486 
3.177326399396518 
20.253157524272364 
12.31443779171005 
16.826607966332954 
20.215225319060767 
4.456679498903717 
7.308683498133984 
8.477639212531237 
5.435580836470424 
10.28519174234083 
2.3817177937249228 
19.029377092671048 
6.024249132845342 
3.03970227402545 
14.369256778861303 
5.059013788093549 
9.932651707715264 
9.398525440743821 
7.196581531551102 
16.999255591631545 
7.739874636337995 
2.6442874544613937 
13.735528726881334 
7.334610261874326 
6.183449156965968 
6.891277907559779 
10.334279796055533 
4.9244527112588115 
4.408203829381633 
8.501705165955439 
7.8572928848808425 
7.361066497851138 
6.82588972339752 
15.823515579109918 
8.062314716806547 
4.44521294422112 
8.435932559217798 
6.2022156046580355 
6.686898031840502 
16.638987044273936 
8.974552416295282 
16.081994793671875 
7.375843963216428 
11.020766828508815 
5.472154493894076 
7.544782066718138 
10.598224687898218 
3.4532834234657455 
3.0750276566580066 
8.09506754983448 
3.524342927785082 
12.033207027587265 
18.95593542758329 
7.9324186761467015 
4.533053423510908 
7.41375666144006 
5.665940399095016 
3.195917703279121 
7.033627606075822 
12.412294201886722 
8.269799171827527 
5.316870187278209 
3.6346207535763493 
8.826974494736048 
3.5278933423256436 
2.6478429094980886 
4.2123167359743885 
7.594635029540105 
8.69054762150761 
6.14405189764858 
2.556385624412605 
7.793946299724507 
8.296049786830265 
10.5760052886271 
13.136704880557236 
5.046265479358828 
3.7535923030348104 
7.514554736271537 
11.861553031432825 
3.5598222148775167 
2.313719405880219 
11.719688303246775 
4.070617898344466 
3.0196484508133894 
8.619612157238569 
7.390174952407445 
3.7210168481199046 
4.475080800490544 
5.667584866047628 
12.299244926232072 
4.007485983691752 
4.446601091178235 
8.680278807345461 
4.759368275808723 
12.054729904734508 
9.10760567880678 
2.856406632448906 
11.432309736901601 
3.9654594335644977 
7.720645269913364 
5.193305650253456 
4.521095607228292 
7.990010925084728 
8.049086523171175 
9.062777551609 
6.673876459130508 
7.976542336860309 
3.4031269815081475 
10.503999759669826 
12.847067781384506 
4.113885030690216 
4.055784470939635 
3.761014410248542 
8.251170867494912 
6.617295612848146 
2.5760865693460593 
8.418356428702957 
3.217316415559389 
8.268012036153307 
11.033244654870177 
9.508330278733942 
14.366521282938937 
11.829316211591525 
2.98196456149517 
9.400784918778932 
9.18616299652193 
7.600033376734403 
6.669752806305325 
2.5739570800835057 
2.5104764746813957 
2.676467702747817 
2.7289901652718616 
3.0277345687133828 
8.551846463141581 
2.627300530226832 
4.751658783064055 
3.5873291105386675 
12.908688378763351 
11.802382033621644 
12.890470956202869 
11.338717187476805 
6.274182174580959 
3.4876067483076922 
19.710495560896963 
17.67390264729756 
20.495699297537158 
3.5790904872499176 
2.758867267373341 
11.640589045482786 
5.093825055604818 
17.69013278015416 
7.698103894276692 
15.164437488099143 
6.9993389580308945 
21.13329221312503 
5.321783365169082 
12.426025232330188 
3.426271389884038 
14.271822015605938 
13.801479828128665 
2.7027192390829007 
16.279717796359538 
4.740282169735751 
14.311184643196793 
9.01383381772335 
6.415445628731146 
9.101055548002417 
8.53155294075199 
7.61361420754279 
9.750853272793996 
9.352040360419604 
6.727710383839352 
10.33292724926542 
4.78039534023707 
6.9972220686964235 
5.289521944076927 
12.223878983902546 
12.324466210726754 
4.222747762565013 
11.825494813207719 
9.688515615790022 
23.549671606295167 
8.077443435475615 
4.98517090794294 
27.00316775131358 
5.833343787258507 
6.232395431545437 
22.548992085947955 
6.592228286461968 
5.905664970249751 
3.2978639308986315 
12.342434290011948 
3.6888114015317846 
3.0269753290835655 
8.299078246946664 
9.385782882115269 
15.266879590119578 
3.5668419878426016 
7.827650846340631 
3.7526466111558983 
5.389461475613259 
6.910362871702674 
8.448239843334587 
9.090551491063756 
7.6507303151446076 
9.441818912031353 
12.672488899319713 
4.079903621712929 
4.362986507181261 
6.021742113478342 
3.3639406939146728 
14.337826788076455 
13.491501742803056 
10.681375500351937 
7.400567337499442 
11.92516681255708 
10.595157277529626 
14.313128537302461 
9.886238847055678 
5.581347265484113 
14.063910926201652 
10.381260554731975 
9.38134208974356 
10.912273532133339 
12.88859722747836 
5.842159134787128 
12.116628814903294 
3.0547998469468376 
12.964950899112022 
4.166090379221289 
12.515590051536542 
8.406078938238473 
3.303880283195729 
2.8146675892107424 
2.714597160338692 
7.5803126618688745 
7.464303436317074 
7.1662922894071555 
26.879359263353212 
5.146689014916966 
3.764561027539319 
9.243248986768284 
12.528351997229061 
5.131007289053255 
2.681455918453314 
2.7338362490953534 
2.848141861701683 
3.036965832441595 
2.7143377997234373 
6.251344131727132 
3.9186160279267677 
5.0490603613870135 
4.2797576685760506 
17.298361956018873 
3.6532071993455766 
10.573156259369485 
4.496422117530836 
11.612237072236907 
3.2659124232426717 
6.304429888959108 
4.466584179431659 
12.075777840599905 
3.195706923804159 
5.851406321765133 
10.383252299121752 
5.400875160609444 
4.59914132412859 
7.815365554958173 
13.825266808376082 
7.185765640028881 
10.033083666718479 
5.057434024926584 
2.7089927011425448 
11.047923721220297 
3.2005598615760094 
11.827918490024624 
10.687336852634616 
11.799878947839254 
13.728214337098484 
10.733776323782712 
7.318959044066421 
14.350555561586946 
14.252230663683914 
11.753211799869314 
16.48927252142343 
8.138351363275202 
12.847151869739381 
3.487695504915153 
3.5712462402452787 
15.706468004229334 
11.716964069381715 
14.899325096278503 
4.691405039361605 
5.472650104361166 
3.660598184141621 
9.849079031825697 
8.684522024295374 
5.752684363980039 
2.6244235924033408 
2.7700610031411825 
5.410554652453773 
3.8936633907366347 
9.855016543945162 
5.344246066147188 
5.033571292981154 
3.2616013979241423 
6.2547235875313545 
8.349533662682754 
4.309110646336317 
12.539025308642426 
6.516100616503719 
10.590188024926837 
6.377662263698935 
5.977095356553997 
8.171362063689806 
3.673167640282504 
2.4318439733173065 
10.422153612471751 
2.9236236688609187 
10.387953603879007 
11.812604578207207 
8.747005828324635 
13.52800271551807 
6.588327801103399 
15.091258129019002 
3.6785018297075345 
13.293299446629005 
12.283472666506832 
12.101639154913286 
5.699916053285623 
8.543441142836821 
2.6838466851110123 
2.721558297297801 
6.327743017379168 
4.2206560177037264 
2.9076870351165196 
7.045711693536674 
2.8611653076364507 
15.127499844830995 
13.566179685479328 
2.6023955510051198 
11.292028539175659 
2.77685263457166 
13.540329049613552 
16.00850998647274 
13.719811844031295 
10.265300248457061 
2.819309240884432 
13.611509617984686 
7.805808363214925 
2.765533268867867 
2.2356487993113814 
29.020875087363887 
4.574012680005327 
2.6970736563707445 
8.83899676387411 
19.07981036454391 
6.7042812651369355 
1.780656463497381 
13.494276751615578 
5.681826377195866 
2.414816466560022 
1.6160586731305602 
5.892407112871314 
11.757262980873337 
15.379240986257333 
4.2115894719101306 
11.160305433903346 
4.709587298474444 
11.644916160597646 
11.984418870526383 
2.744077082771539 
17.703099640325313 
9.432193103334123 
14.467254836061004 
8.365237527697506 
11.219898658460083 
12.798757284568309 
6.650093642173047 
5.587112576949141 
4.833614614864331 
12.13584900625771 
15.862765286127551 
9.40685978810559 
4.404299717517006 
7.261472886204964 
8.740549790017264 
13.411486591736564 
8.895104312908291 
8.343910173800047 
12.98941948799031 
5.248519563791709 
3.732001846172239 
16.482476554941226 
17.514030970633776 
9.029494850505174 
16.12610879995737 
3.677089864553447 
4.879566810118228 
5.118319204420506 
9.537606754407854 
7.117131270052105 
6.05127640092626 
4.7775125913581675 
14.203654805635288 
5.48741059323467 
10.880357083931683 
12.670844040147635 
7.427009405759299 
3.9087295072724686 
10.802489455444166 
6.429107909705877 
10.458757637754008 
9.121860980855095 
7.074652830125902 
12.26036386389997 
12.270364319629548 
8.886466958108002 
3.8666457422030684 
6.451272071869514 
8.398732245995001 
2.905727526299973 
11.672301562124966 
3.255133114837822 
13.532930542252817 
16.022245764092776 
15.934228672131535 
3.2700807527218188 
3.185377646150101 
11.859937918532395 
15.012268295617437 
3.888109989475787 
15.106216656553872 
3.1063682063102487 
3.22598523428809 
10.15188282725536 
14.081289534295513 
3.1393010942356923 
4.1045185569414 
4.33438162614564 
6.069744513989859 
4.3478486592985774 
5.427222190850269 
3.503322945547863 
13.78031943286947 
16.482025577155653 
3.8747388443032205 
3.557312654027277 
7.817004709469946 
13.160549640101259 
4.228090056032992 
10.272811869474332 
3.6225579666301404 
6.213325762283292 
2.4416979288315956 
6.7593056412598775 
9.614489270514875 
3.8763012948439393 
15.391680211215578 
4.53202616359564 
7.02689466152402 
15.118395501374245 
10.256424373514344 
5.868936074927463 
12.39767400332984 
9.63360041076024 
9.397369666198584 
15.730201860156297 
15.370174132043445 
4.405633819771166 
12.254564064749998 
28.99260925748852 
12.958844643939003 
11.900665614291748 
15.927910490068221 
11.998752733061771 
10.59328066697767 
16.38261220611955 
12.32330147419278 
17.58540498147387 
10.431793126419777 
15.452836880863936 
19.031469044614447 
13.4033100924812 
13.815638778015026 
13.821923251321284 
18.060928715063994 
8.736092181324317 
18.070515194426207 
21.70656215341481 
17.49718630055277 
11.391890874596092 
15.857140928588054 
10.614985310189505 
18.08553615328273 
4.213513244466525 
25.321244696867616 
9.48450843535052 
13.191307933467593 
14.785978825432577 
4.004327134563853 
19.297032273684206 
13.837181457556897 
9.754859816501677 
12.089049657580546 
7.364579072401738 
17.703601297568607 
12.119326759447258 
9.914561819768911 
6.207158614621851 
7.219983149112459 
19.17624511846732 
18.030735012767863 
13.826801582565036 
13.614567323821248 
10.236036121267995 
10.419523134839038 
7.683282747037398 
13.925747809798146 
7.217371839685849 
14.357363182746006 
9.679379030822732 
9.632290186885363 
2.951625552525788 
17.65625245689149 
12.883577238474954 
6.656304009017382 
5.226456176108844 
3.632287130734017 
3.558905518312095 
11.054127876056608 
17.41631724386422 
3.8666071513514697 
8.759555832033925 
6.631240431074319 
7.3038526606676575 
6.95735824187674 
6.805968430217568 
6.5378689290579945 
5.958351455141083 
9.00633892630978 
8.987938173212923 
4.379412009254744 
8.41149540641599 
16.498773183802026 
4.4052772385994725 
7.871696433408494 
5.556649763700444 
2.9147402427727607 
5.954356671824698 
5.494932271016703 
22.134516990335268 
6.764926842824999 
4.171195957712916 
10.40256683995806 
4.739833735536534 
14.796517743360923 
8.699278854834859 
6.2003640253763646 
14.639420088845007 
3.6161289592791506 
6.618905404709936 
14.927278386402378 
10.394871010995562 
20.492912319880595 
7.754794543170609 
11.74930429544848 
13.276618719668747 
14.452870304326833 
15.278586866747881 
28.22126462416333 
11.082365927713356 
5.404614141828719 
6.061794892072733 
4.026639516878274 
5.81067859185107 
19.02671225481022 
13.539946927317287 
18.69995465649521 
4.612096561107503 
8.203280868978721 
13.337708187783596 
12.45879632276622 
16.50841074014354 
10.07710567773276 
15.81222367976089 
8.227874780355817 
8.49971738653348 
17.88938809894709 
16.57940008397891 
18.867435857137206 
11.975790649227555 
2.760126532634523 
8.122554943235562 
7.864790765524909 
5.882169952074669 
3.7384525523713252 
3.821187123039682 
6.825031140396991 
19.87663546700411 
18.03585641198726 
6.565034193286531 
5.297047074229413 
7.508740723280813 
14.109337435036602 
13.932243783206973 
8.657378603821027 
10.89640640669177 
12.783824856175066 
20.399085800794776 
16.376770484564837 
8.083976639449414 
14.876448361130505 
6.588251024327224 
8.257758784279908 
10.404757112455098 
13.824309578181873 
17.69482581065456 
7.261582333543332 
5.587137330673883 
5.285994563381457 
14.549938780523577 
10.181298412567335 
9.0846075384924 
28.413209703441865 
15.493817814108038 
15.405310710806711 
2.4885202133095876 
7.067618477134233 
17.537312226623232 
19.510256329060894 
7.044624788224771 
13.83509669928389 
14.816037597983422 
11.555618629463144 
6.606460452160245 
19.572236730196366 
5.009490706915782 
18.789498604225685 
6.274409553314867 
7.207697014353375 
4.697343898051912 
18.73058331307112 
10.73195840529417 
12.732047395003587 
10.210239036431297 
6.2260772730567675 
22.245176303049696 
6.189876024031612 
3.519115536476952 
14.137071779082419 
16.6834514053321 
18.448067576485403 
3.280925738537163 
19.69580225570508 
19.689571568219975 
12.928527155725696 
8.547063174435799 
11.088470694097333 
5.821325201431363 
8.147553703234658 
19.773338064933778 
2.954564061643556 
12.892377046003514 
15.333035186187013 
4.086217486900937 
6.473727608513789 
14.024461761095937 
11.108971696402142 
19.444361238165303 
9.232988893357454 
11.3154495688906 
10.787700163641317 
15.379691065099191 
14.24115787765509 
16.63495787248923 
15.793233771731213 
14.328022212017792 
17.496008148983105 
19.95035797444452 
15.622515774733944 
14.598767575685828 
19.701196066310235 
5.5942771463112 
10.997113238583998 
19.543453021230746 
11.269544890911762 
19.33108583701645 
15.628871744844112 
6.44948817208095 
11.47006613146459 
8.91157684866359 
18.971947727699735 
19.321059094501987 
7.6387241669434784 
11.47931187719542 
13.796938092565037 
9.509924062632114 
9.363266615209497 
10.737194988984674 
17.354223586398806 
20.468739693783036 
13.2309470780461 
17.592859430497867 
4.603168022943325 
4.520401621168612 
13.697888224399671 
14.567341994048233 
14.618782048391916 
10.885039214580978 
14.737679401739069 
10.17501907718131 
10.689709171047662 
7.804646986865219 
11.603649001931295 
21.22337336920341 
11.678964231276321 
12.820802458722317 
16.976661148753063 
8.387218190102983 
14.948756106960138 
14.334667162796267 
19.47652316853866 
5.2226789028886555 
15.293718034399781 
5.386797822478098 
8.915471122684501 
14.877875415485232 
11.542274092672372 
20.99864523439152 
17.372407134817887 
12.551016216301269 
17.44897676553066 
20.970517480741652 
15.606374826260021 
2.4776715976094352 
15.973643033570792 
15.054812089394495 
21.084758534280976 
5.802802599200273 
4.333830659094338 
18.989081873273687 
6.1339317662469055 
16.081730443785144 
8.913428512668927 
16.90417583581852 
5.405425939851796 
13.036011363627289 
7.291983105768334 
4.996825285842461 
3.0242021596524284 
6.491152178863378 
5.599230160154027 
16.193125831459298 
4.04743385197112 
4.256174734518689 
9.316892374448 
7.854983639645167 
20.46023712728006 
4.707942829462087 
9.125254789948936 
11.501549211199125 
8.677771055564943 
11.338552992672488 
3.7790425834947126 
7.112118573069365 
15.147298442742677 
5.782075192656352 
6.763606969716477 
9.013634019293084 
9.254374300469202 
8.151096313942316 
13.680073695532279 
11.914451496199353 
15.69314469566148 
6.840391709308361 
23.06652528817614 
9.659560232837158 
12.167350269883627 
15.528470034621915 
11.656353434422813 
19.99818336383625 
20.663422151033288 
12.9667632455192 
10.965218335468577 
11.002488353954048 
3.1367163372059186 
17.62130856064068 
2.972254128978346 
23.245227695792433 
16.670427662151877 
21.57122915728239 
3.0307433368341488 
13.135537513243236 
2.8248724211626386 
21.00193952454106 
16.412436605719304 
3.011558264442373 
5.616523777874013 
9.721020033749632 
12.160491198335963 
4.67101322502617 
7.7705057672752655 
6.2189730991878225 
6.666563134329855 
7.357822590734769 
4.957576160984809 
18.248180976702212 
14.171006543816782 
5.588266241699821 
20.816044847307296 
17.72078714680877 
7.250991351322157 
21.031434848452406 
25.018713281655504 
5.080558122532436 
6.121168723748204 
21.38114898955205 
26.27529783149689 
3.69910918091706 
23.550666207199527 
18.390609759638888 
6.414709289601401 
7.104834774496138 
18.50659511943433 
27.194374495350594 
22.166001461444505 
15.427369652434251 
12.6590563372684 
20.07922151053615 
17.085181673814123 
5.996034380447421 
6.172883868088075 
16.999945312132937 
15.95593737261886 
17.556635376700555 
7.160086393841356 
15.942790876476103 
7.296952922393918 
20.57769357917343 
9.587149850797 
22.298510286790663 
22.150839823364286 
16.28282052855577 
12.537221069361705 
23.422025557150175 
13.658215010397795 
22.320738759176592 
18.200307701455504 
21.198203411716644 
12.147916904983962 
13.332851239883198 
13.142560584792921 
13.220855347139372 
16.587179297235345 
4.237068505988497 
10.044150667140528 
8.12395469752526 
13.205997571559884 
4.060029596370027 
3.5369080727252205 
20.550122990660476 
13.091744445863236 
23.518662684114638 
9.882105895701983 
8.286854028712531 
10.218266616263085 
4.740630981167096 
13.199916898606343 
9.236560122377076 
2.926474756264863 
3.799192414102653 
15.226958158422029 
3.461610436457402 
21.48985036477157 
22.878962326108915 
18.395034332159735 
4.821639081238632 
4.849500000995689 
8.6971190380079 
19.511326762864392 
13.043036555202049 
20.018445837734166 
4.753910740046988 
6.062561107328768 
7.565858676337971 
4.582221755151136 
13.159536641515846 
14.796108668722425 
18.94351272750963 
21.48532731279646 
17.645176987790176 
14.679185755817702 
12.250486437743415 
20.806536402506097 
17.28500063401947 
9.570673325698216 
17.048831695344603 
21.444347657342554 
16.686655488799204 
16.711869835997987 
21.257043481590763 
18.83293582116077 
19.29174967465948 
12.57839827216472 
18.61182343090357 
21.579240642346672 
14.66317258441621 
10.381626892711363 
19.92041258162212 
19.496871490388575 
10.85491113719933 
11.50269290510171 
6.980585925157492 
3.01308096171017 
16.98247392671916 
8.923981561113875 
5.350082391283942 
17.96143040743747 
19.650661773699397 
15.684300358465615 
4.603251200337483 
4.00091588182557 
23.24642595763856 
22.203390489652868 
5.8244051521685485 
16.98121187450952 
4.904734430387049 
4.032028171527304 
7.384182081073863 
21.452575915106447 
4.021717299640362 
3.983597620737119 
13.414677983936182 
17.932190201645447 
3.372566065016279 
18.604942383468067 
18.35717548322922 
7.958597395356557 
6.852193373162712 
2.8413451841841613 
16.70507373241352 
9.714321233313814 
17.323122371438725 
21.865737093043283 
26.358613267906215 
24.403228301122052 
2.994190944509246 
11.174707929608763 
22.5217829013364 
14.409641101201975 
10.659420182504293 
13.570602964390574 
16.749335918055916 
17.130192696238268 
4.618402428241244 
24.14657182686372 
25.625019917574672 
8.425377756855621 
7.923542697186323 
5.758947822794888 
7.382232294484576 
19.221753319728084 
18.854738520438513 
12.984988236623387 
5.242366832969516 
14.3968650358278 
5.086269240728411 
13.216387400378446 
9.940747514560966 
13.025738469082732 
5.9180344300296595 
6.68460086162736 
7.145942232689713 
23.510653015731116 
19.971717485765648 
8.640197669403147 
9.783383024318896 
23.411696108327266 
17.019002716918006 
20.40691178541775 
13.251276184135818 
22.695233944437373 
13.628940403005837 
13.95640381937637 
13.260758885855669 
14.056745871693982 
22.20345450411107 
18.67350527787445 
23.022047559174137 
24.5591137369555 
8.501293346526591 
16.296472072807514 
3.206669398107488 
19.97963734484522 
21.812052960413606 
23.316779499275093 
2.9394167199901866 
24.74906877274741 
18.176888835264577 
3.292737154175514 
3.459454899474684 
24.44414190105258 
22.993326219051326 
3.4752276103296498 
10.610695569246321 
3.567631253049418 
24.252422111521323 
3.216094940287942 
6.779512372673552 
7.2217861461677435 
5.530557020973282 
15.897814703285366 
3.923205325051924 
17.131769251436094 
4.124536548700067 
7.088405133926274 
5.677342023816537 
22.117233735055816 
6.750499250549399 
6.95861401252939 
10.115744281991393 
23.15116061102105 
4.180721815210728 
4.525909315943373 
20.923573739436122 
8.971810504820711 
8.320444820919606 
6.692767164790102 
5.638642098825067 
3.6292978460898997 
17.642524053115235 
23.268531737547352 
9.748016360802733 
5.681628348488612 
4.196788521955999 
8.425805018827823 
4.628559109391483 
14.128622189586961 
13.780865077302794 
20.29201607449762 
7.934832927847915 
10.398991628530812 
6.41942170588688 
18.10875927224322 
15.682087226707614 
12.489539376859133 
13.175596113156109 
5.567462018898684 
25.792171407207146 
2.131524959979923 
20.91473946899433 
20.28984082059782 
25.064309740533687 
15.223567856417652 
9.037728983752778 
18.995159757962735 
2.1242350573617217 
2.2530912580095994 
25.690073733588097 
24.484312069109023 
2.263528407188735 
11.102515542826117 
16.936121093509925 
5.143629986636311 
19.6747763428847 
1.7707557190320715 
7.196214837985858 
5.75860122469167 
5.3722566477768074 
1.2344436007163317 
24.616600311728256 
8.61818246102344 
17.429828508736854 
3.7307241456171503 
4.820558283575674 
4.5492697358444625 
11.610834075247515 
2.316044809029637 
5.969502688270141 
25.0142335621112 
2.737918137710479 
21.574460536906898 
2.0077594593636703 
24.056862433800806 
1.96955415718911 
1.6464509575398365 
6.949937160781268 
14.909439096352402 
15.087469963846507 
20.602364583059124 
11.11787854274551 
24.77520104453955 
2.178678193303676 
14.345835411588432 
20.424188269862757 
2.1041756831174037 
22.832694568376684 
3.273163784339358 
4.632134716344173 
18.88631411875073 
6.369841796481571 
21.65939836250241 
1.9793664438763166 
15.416491113696392 
24.70557393829142 
8.918628805896866 
21.38731481815511 
9.370374580989004 
26.42653326495134 
20.36280024482336 
10.035228442426648 
13.189834299674176 
15.63330679921583 
19.487454862060485 
25.723712236324964 
14.703652857671576 
26.187012974691044 
21.35460367803928 
9.896682472820137 
7.563884163846642 
25.821711816123038 
18.861861578241452 
4.866922446381052 
15.207477723987834 
25.0339464017353 
3.1528055719499357 
24.71955880065624 
8.702978099920971 
27.296493606717796 
25.172035659178427 
10.239757210193721 
2.6553208981184206 
25.409225280782604 
19.339992992335993 
5.012841933714015 
11.219464922814515 
8.23886081763246 
3.6251230224397895 
4.417923150390268 
6.596585800473016 
13.196577971310766 
2.784145247584441 
19.494196686184683 
24.959629866895515 
13.356413346897853 
24.724686900848493 
11.702342795316213 
3.1420304947587816 
16.442217762761878 
19.73452095405769 
3.1339837874032765 
20.828012428688744 
22.61713140715965 
8.408575933474879 
3.404885912585312 
5.701325985995661 
28.21882708828631 
14.752746817785361 
4.266770585368706 
2.7031675774542268 
22.237173569479634 
10.026664247294981 
2.8758366453056516 
2.970614424090763 
3.3269546397685343 
13.731944507044156 
6.4906377382725875 
12.190817433091206 
10.33191622449545 
27.38450577572197 
22.073494134674515 
9.799567137068559 
12.336482936100063 
24.815755237353194 
25.30846242366957 
11.041239310502304 
10.899586116461583 
14.613705174230725 
23.672480128112763 
27.682260733094488 
20.543033072471957 
17.27885216555636 
24.2091399068209 
25.79815435224061 
15.934821604064402 
27.48497656017979 
23.636884960712923 
10.36952944825439 
15.40289278926955 
4.454789490882298 
16.06059474957537 
5.72484062636987 
11.673799928262788 
5.124315024999156 
12.25409729648718 
6.873310280867636 
16.758653674370017 
15.44717868017638 
12.37569156384018 
6.298495479710252 
4.532594340921083 
21.13705887897776 
27.429433513886977 
19.7758365953405 
23.865038510704977 
15.40692119819839 
5.190455367967592 
14.894384904783886 
25.321694429936844 
5.83794366167335 
16.00105382827852 
28.32045389091242 
9.929860998097798 
7.945480047621721 
5.6725778068667925 
3.052234817206169 
20.738757829951513 
3.797214200304831 
16.48370947953982 
20.392566458731395 
5.086136371873581 
28.49520377027576 
12.479397140527272 
27.35707455551748 
5.514252961369707 
4.967229529917193 
21.106670579559317 
18.904947974664793 
4.743845515711174 
19.217075549667463 
6.51884604125725 
16.35570265856141 
8.48386051460696 
5.482373510538245 
24.951413317795012 
18.911064000635857 
7.167935967700234 
5.235335677582378 
15.090053680128847 
7.014261668960747 
26.376076900488556 
5.893653957334136 
18.61687085973398 
17.31716543953636 
11.127094101796509 
5.465663091601054 
25.054920123011442 
4.158810250060709 
13.572938033462819 
9.858178543892398 
16.67481203132684 
25.929061940764623 
4.307105069975367 
4.5676161696645545 
21.39919236066781 
6.039430692996981 
3.942107701886798 
29.52590401089682 
3.7509635412653384 
8.346749029514031 
20.590771515932076 
17.148290800125174 
2.8887538676333406 
3.066006371350303 
15.704367737830271 
28.61056079554939 
9.391498821923815 
12.156079036246648 
24.78850825522502 
7.957074675629697 
9.550948129178817 
10.181029158584549 
7.080752840770201 
13.934772392429881 
11.730213158731157 
6.7631230674224385 
8.26445656690539 
22.947356750344618 
6.255755116652988 
18.155818356384163 
3.655800400346056 
13.123809632587962 
11.729004728576795 
7.035895350374327 
1.8506784374051193 
8.22187958215884 
12.759979153024899 
5.3519553513767875 
21.478060853918237 
3.6543674073707666 
4.61121459556007 
30.932842689098923 
8.145764436776899 
13.493219060191384 
8.617434226488047 
3.193984621568222 
3.784285981016674 
8.091992843163316 
4.5396265714567186 
3.194246918352758 
24.058798686755363 
18.628644877234127 
28.19045266703254 
11.718523388501424 
3.7912463635810165 
2.5010381652885783 
16.621104847492955 
2.668302665315357 
27.102389412492638 
25.184068411999792 
3.1807353712276303 
28.177035187394566 
26.880090109784362 
2.8638513148181723 
7.925182008654781 
17.548050146233308 
12.59321838629789 
23.750105273391426 
3.1821579764932353 
25.42369110211733 
16.243585459932316 
19.048999090936043 
29.555615722697105 
29.45587220774784 
21.497428673031745 
3.1022355569322926 
2.7163499446191453 
3.982973835970733 
10.795911733339635 
21.711299676126732 
20.794517307193168 
2.6813954844235384 
18.570039102870872 
12.248414852828674 
5.549660645771121 
9.949997483511561 
6.205624718186051 
27.36876401666894 
29.51839001464909 
12.68273156568134 
10.249579698294536 
8.95097562768597 
23.923981080398292 
27.926380270501074 
30.90247053161511 
5.0519245510659205 
4.764570650859546 
17.864428970070552 
21.241879186916204 
14.67770807869722 
7.3685529576783155 
8.417458201925362 
11.038699267036105 
12.143426561613293 
18.312021052458128 
26.97818280245581 
23.67840097726522 
9.52231231647149 
5.242896901431893 
16.18874624925277 
6.397368374414658 
20.756175657742418 
18.170008779909132 
4.147327747785335 
29.82051583282355 
5.132041324068772 
5.055544561313761 
8.627462780365065 
24.187296552073402 
16.681242330979465 
24.452888412222556 
6.429235981664631 
30.840668133445412 
4.6687462941283036 
3.698674316277658 
26.290689567444186 
26.28186197869779 
17.173687477138294 
9.295394678244454 
3.412055091153029 
6.177580908784441 
23.725857839994564 
5.739675414810939 
5.998160319156948 
25.452061634348336 
5.223422329549194 
10.812810988497048 
3.486534410489122 
29.60018130146113 
28.885970554299025 
10.92103383217615 
13.229179407812971 
28.167659036737334 
28.758443985639587 
13.863624582849441 
11.24321714985802 
4.63531527300878 
21.335737217415 
24.30544382094662 
3.824280454193103 
12.468318248612158 
17.053225052625194 
7.593335595913428 
4.91210253576699 
22.222517342535067 
23.656610710003203 
20.04115785579679 
24.373091241732315 
25.179220072727617 
3.9939019472007353 
6.928150079874562 
25.549570785811213 
30.404266678397082 
26.678278141315182 
28.153389512176084 
3.9676312283082966 
4.237120830131811 
13.046622903676058 
5.7854349517334915 
2.941136663902714 
30.948383403775335 
3.5927414303157335 
3.0601751488576303 
12.892799244963545 
10.535159307022955 
24.902747860574287 
20.22548433869585 
2.1190829487690226 
10.602814501148714 
14.798041475944785 
16.631172777277364 
16.303726925206963 
2.3820277353702526 
29.66795051300888 
4.072919737384634 
30.004266307021553 
29.53641665412898 
3.2772434508489034 
8.121336534205737 
5.378377430907807 
17.266767538167564 
5.884999806343816 
3.4887616395132386 
7.277093264515648 
3.127001862071958 
17.13629248370608 
7.034314190502961 
3.62557085624819 
26.758023665815944 
22.724116984118524 
18.60618166068593 
7.014622833596951 
24.831445832412072 
7.857572338135198 
17.793638986803114 
25.340070958827887 
10.357478045442319 
22.70578898838168 
8.520772460376763 
23.774625456604376 
29.80610520733606 
7.909248219297427 
18.3207085554843 
11.583668030898888 
12.297556540824168 
23.81955193938483 
14.535452050169285 
22.60166989209282 
19.303986418816038 
14.152314690624856 
5.290661466460122 
5.916018735336402 
2.3707957014542687 
15.742173692627098 
8.236920524499533 
31.521633839055507 
7.08644938888678 
29.946785306070705 
30.55252468484621 
5.841739275297244 
31.0756745402469 
23.36777441332295 
26.595601098076177 
8.344686579317687 
16.95049782148349 
5.549884391128657 
3.761139294918239 
1.9403749819946485 
5.801624167364908 
8.44437289691575 
25.533997967670167 
9.423379019558784 
7.2679397406456205 
28.090260995033944 
11.826421001625295 
6.511253164341066 
10.036536055667582 
7.608452825114008 
12.433298277571296 
6.3961561354869865 
24.515654876748272 
21.977017213530303 
12.66467717048468 
6.591954098591775 
18.53752227217187 
8.141970701986484 
4.618914809756375 
24.538839828568552 
6.638936015126814 
18.097552974516116 
25.807592836907705 
4.411635481913662 
3.8058003730151513 
5.80062931481631 
3.1274350534832003 
22.669445717477725 
25.56358268290171 
4.627564063543418 
32.148461685740344 
7.529810033935299 
5.385764755125467 
20.99776296612889 
3.8537939960895664 
5.237696821614003 
30.243082030435296 
4.009901624200016 
6.265336222219427 
3.7908713973041115 
31.079101156544706 
9.423510448102109 
10.28273457040199 
9.813985034097342 
7.3973426356490615 
3.557573041013577 
5.904429651633432 
7.504145295384781 
21.552855579070243 
9.415571140708282 
17.506533783721913 
9.810707169935954 
20.833522437207872 
3.739791785167672 
25.70533468972689 
18.2681105616319 
10.799787848188263 
29.151438631923295 
11.336971540363818 
9.612781222230598 
5.404081393943171 
13.057056674642055 
23.41440981581219 
4.355041498562326 
3.1418907476549647 
3.410762580060066 
5.733947072659582 
5.989192768050694 
24.4717306741997 
22.787873699377386 
3.4624487465898244 
3.167264660167362 
26.9421564041986 
31.75268374406624 
2.8774063667321372 
11.746742139722276 
4.510519866252206 
3.628768364049202 
6.740656233438393 
10.273321804103777 
3.339511929981947 
26.79249055782268 
2.6821968163517096 
3.126200598597211 
3.0322763934959753 
3.038813331369164 
25.1180140159051 
12.427369568549544 
3.213212954540545 
3.0936731023187645 
2.965438991262857 
11.984881842275163 
25.793718401449333 
4.124271227515572 
8.197326215004122 
6.348428251930247 
2.305816655150687 
3.3583638889856955 
3.261229033217162 
31.060748671802646 
6.749292728580872 
30.94536094227943 
2.8329479414781065 
18.815422479038606 
31.183758181941958 
10.375350942906348 
3.2361363784753956 
21.79062131059007 
31.491344467804904 
3.5754085208643773 
24.047990653702588 
29.35677861940102 
3.110482964373317 
23.458968128869287 
3.4127792107991377 
26.683698362875713 
15.262734503197361 
22.59532926876159 
12.093419945867753 
32.04175341950032 
11.141503400824666 
19.306718764199527 
13.463564219586099 
17.838970088729557 
8.89378396981741 
14.946083420991286 
13.863137302049656 
31.732804494196213 
18.521846098869105 
15.445294614056033 
17.014437570323274 
11.832377407123825 
27.17016807491807 
13.842053082718245 
24.26204312572368 
4.635822236578724 
5.511382786089633 
6.041894584245479 
4.789317979912891 
3.5444626488871585 
7.505527773303841 
18.522061995981897 
15.185269756525956 
7.714745887939367 
3.261499132639547 
27.99022815844061 
25.251300575483686 
1.9763233523465928 
4.435605935584297 
4.479118970724452 
17.631293125672432 
4.012469270405703 
12.748926273700375 
12.954059001282044 
16.852799356158062 
2.757842028090617 
2.1404499924321634 
3.6421643932584815 
21.433948946118864 
25.034845056736042 
3.77637378886068 
26.71084443407455 
3.602595378753479 
21.967538917121267 
11.200655446106559 
4.489422603029249 
14.61083578867293 
3.916748395729706 
4.339367137245563 
3.3537712577135457 
9.784301085534386 
5.579862968465124 
3.788006489259642 
14.443051286509288 
29.77295197544394 
14.802206921061806 
6.820060258115533 
9.525580585874122 
6.423013516700437 
12.210569815915832 
5.678486133525088 
13.441932353448367 
15.194852717480016 
3.957750214316425 
12.032066966528546 
7.738105677866028 
5.592692344195631 
7.757871636142545 
27.054228687142164 
4.332011542420944 
11.617092727016887 
14.546601070889794 
4.3998831039990725 
31.666060186582303 
6.211461692536599 
5.971142315047333 
2.562485929748801 
6.632291354030153 
19.264722588917923 
7.797131317003498 
13.59230357086815 
7.258718102567454 
19.474786756681436 
27.7779290809239 
26.382003219202716 
26.662622829359073 
24.037985254902566 
23.748299265875037 
18.21995501237271 
28.324012841870484 
23.434513600369623 
4.130844735345827 
28.758743372114306 
13.153553812193133 
17.889522369473905 
8.964329222437408 
14.214600814516968 
1.9898242319633286 
10.413911489652136 
6.365676532283586 
25.238344090439075 
21.213475720581762 
19.1830027063089 
15.051318859989644 
26.324197789235832 
11.474975721443066 
11.81926524431894 
20.350157624053978 
19.56434786030796 
28.4350107321407 
19.644704798273047 
5.082887660964347 
3.5366906958087174 
3.9222484893499527 
23.333083252278684 
8.089080606858825 
4.181142023404538 
3.7852630147821924 
27.485321850342732 
3.4512518629308686 
2.2520967536002425 
13.644256909904465 
2.490120936819702 
23.41268054929679 
23.75081804968446 
31.46210790301615 
14.681265038030698 
13.14870258075681 
6.814795531063887 
2.1127080186189104 
17.95702442922452 
2.8358189773599225 
23.51988119962496 
28.567406516666303 
3.20345226198826 
24.65965467648245 
15.21792188591807 
3.0868214273691517 
9.365253191261075 
18.671125940290022 
19.53786474768467 
2.105560300523083 
2.7692131504757427 
10.614956070338467 
18.05208281866315 
5.956507597737671 
2.162485256907931 
2.5005483192414513 
11.816187312634748 
9.28804000319835 
1.3126823315001137 
17.37435952635504 
5.964286497238308 
2.7897756813633237 
12.05885387183692 
5.0228042703503215 
7.696929732016135 
17.68210633599951 
6.863317605527918 
4.766795232444455 
20.598346520128054 
15.325530809624107 
18.279172526815316 
15.483184183987111 
6.1681433560710035 
5.726059699778015 
6.077965781321976 
2.7069142567956663 
15.714158092117403 
21.334811708462983 
6.756026265813226 
5.847442687490279 
8.388427272795141 
4.103681469335391 
3.5335995899597052 
4.051758249205365 
4.263879058527199 
15.239258542777401 
3.667457533192914 
8.87028231287358 
11.73314388557186 
5.846825791214011 
5.095647691976394 
12.644815031934678 
3.2100794765240184 
4.013461314199386 
13.304495435158934 
9.258407876559419 
27.978901846723634 
31.74084065880949 
20.16815652875817 
15.388936675451522 
2.48106163678308 
2.8861188132723608 
8.43700629853499 
4.429677306742618 
2.493902763118864 
2.7180460539618054 
4.571281263030667 
2.2829764323774078 
3.573599934610387 
13.403531078340649 
31.650873850587416 
5.8318663521500484 
6.122224969005489 
7.100891736478098 
13.910271387006178 
21.507193153374157 
19.72232889174402 
14.684748306862861 
21.44417940806773 
13.30054123418088 
19.13405911636285 
15.846178937349135 
16.77723944510496 
15.919288657206168 
3.3578753429036934 
18.99600579484819 
2.4499233550557418 
2.6350502553748525 
21.792924423004326 
0.8146733731439202 
3.735702710360155 
15.138035011652855 
2.806201300126725 
2.7054126561329617 
7.084696361013723 
5.6140683680823615 
3.161105483033137 
4.945500629365996 
9.02988902207483 
2.5633719552646075 
8.363959482498748 
7.196066741518889 
16.155923031169074 
13.718219477426699 
6.405306200206332 
7.8757400498869075 
8.600080193656197 
2.2408975063266334 
16.500586748026727 
6.4602402972976405 
2.267143439139 
3.3787540043424684 
1.47032602632214 
10.135007683082373 
2.220137154500966 
4.275974649505085 
4.663053973097216 
2.7086714435107315 
3.4424998903848754 
4.704131922249044 
7.136028995493742 
7.447221781210896 
5.086088433365991 
8.015972285565436 
8.241614176365323 
4.850764812748963 
3.50550877721956 
4.5253308119093045 
8.474239036373978 
8.42852001588818 
3.7192620268859327 
8.454418360883453 
24.991282668527298 
5.341142652193547 
22.34968334669895 
3.8594401317003575 
3.2603188737215523 
3.117797038970461 
16.646392525284444 
21.709072560147305 
3.916337138261576 
21.46934245615892 
22.684873022388373 
1.981544197160131 
19.434073262419506 
4.720008479305816 
5.522546926342112 
5.309046759750737 
4.33887531451187 
13.606116836912602 
16.778704367206632 
4.708936129173784 
25.102233127812102 
14.634166899346788 
3.9606569722838643 
5.1292012827684905 
5.345551032229439 
5.974364577829369 
12.607022613014474 
10.607336457684534 
15.111124880549857 
3.4485254671594143 
4.025885571566764 
4.265247337014993 
14.791843259717176 
13.356847171476554 
17.02875094612961 
7.41365336161097 
2.7863354894922354 
31.269505376192832 
19.179986002947995 
19.272063247683 
3.9738539974774336 
14.734127379867164 
5.456925509079494 
3.5330279410078393 
7.11218050043088 
4.876141855731998 
5.774232882244252 
10.458698719328314 
6.380963824501553 
5.990201000233077 
15.46259574988195 
10.587177862243307 
16.55906241185403 
5.5388397360888675 
3.684434844312166 
6.055090423076982 
6.060614625963097 
6.766551898067959 
3.3726235231919754 
6.127140420600867 
4.756049167321599 
8.478207118613904 
6.2621697102477745 
5.040884570273251 
5.809770612298993 
3.1342395712274334 
3.1837735342327083 
4.507438166052736 
10.746225154724229 
5.7415797524690815 
8.96420950019582 
3.6534288952662766 
3.5854785664265867 
5.617677041887431 
7.799154943278065 
6.818844834863932 
8.025528869323399 
7.349156707431372 
7.0642567352198435 
27.330152397775713 
8.024028474415967 
6.635212543685114 
6.762293910080249 
8.059793089826737 
8.00574713654039 
7.885519795400485 
8.696551136223166 
7.8816756549935105 
7.902612720842682 
3.1015285807346706 
3.503552030890641 
2.9674171634455973 
3.204652729421109 
25.892318145773196 
27.572175628558647 
26.72086612531639 
26.48966140892387 
7.9464100831823465 
22.42535089268406 
10.117593581707702 
7.760466524880192 
9.492534133226778 
7.252302484784763 
8.864557005932838 
7.295762622712535 
4.5042986726496235 
7.017735320198292 
4.039061560553176 
3.4172324577602806 
10.17818472507384 
3.032284740871927 
8.58415497206229 
10.366386461741776 
10.506763626493374 
2.7199276253372013 
6.124982875869363 
3.3377608395174443 
3.385068468200118 
2.5900616533935206 
7.033345107903092 
25.691754359242182 
20.7276846599201 
10.041349928672705 
7.5985646298595855 
5.085820505239963 
18.515710995714297 
4.757498084199252 
23.31277863192872 
23.50555112773966 
22.60771603054045 
7.296693733809496 
6.20574005827364 
3.8915166957373915 
23.628275911644888 
3.5807161341076363 
3.386123498392637 
6.9301982970446305 
22.9450464753151 
23.961242043580373 
20.402123783170804 
24.651419092901968 
8.416406896965459 
3.4777571794342195 
3.040348274849462 
13.126332904881066 
2.3491469812222032 
10.23885552477239 
11.072226895028697 
12.88142101190196 
12.99589954316097 
2.9657470316760994 
3.4609756014374993 
2.966656387869698 
11.557362138024423 
2.4131308644535157 
13.535918048591842 
14.284040918612162 
12.072746943595586 
11.163631757141818 
3.463523681804191 
3.488469690832403 
3.6820081418821937 
11.785210032150186 
3.298777852216777 
13.339526851792991 
2.6675781041978 
3.474431476006168 
2.638539778021255 
15.098836496972487 
3.245991143268595 
15.135384460012894 
3.0744769142097463 
6.069998414407111 
3.1562856384540847 
2.4072786268819275 
5.329376128803378 
3.283406180708907 
22.434452002271012 
3.405160874877234 
18.91802345751641 
2.9484378833083174 
3.966207996981319 
2.33724642730823 
5.794875340292944 
12.349616539367295 
14.867153063796822 
6.292919518633604 
6.878048042757316 
13.15014510753404 
4.203440408410047 
8.314255656914176 
15.563337364336668 
8.205645633433605 
4.733967216830396 
6.5177621964754335 
6.989481466506443 
5.888686554462149 
6.834338979629081 
4.241922079995224 
6.927399992058234 
5.87193263501289 
3.397382038817902 
5.489507095388176 
7.553561293559944 
10.23600069042999 
3.32514312175512 
5.1716564878691145 
6.115223331576921 
14.122490326788645 
5.327738370537625 
4.043396946760602 
10.16511329715426 
25.642096427401565 
13.191158036978283 
22.61902551194406 
12.837659008101777 
22.135874755786656 
26.32709992724148 
4.1407171227424895 
4.869478271064617 
10.93333490422739 
5.534627402089716 
1.0445895798884544 
1.647403964619039 
1.7346293243722706 
3.9025739171604066 
3.7849045528753296 
3.520289404504514 
17.161991068817816 
15.483653299149662 
17.1764765711918 
14.121770587675337 
3.8780547301449433 
4.709561900882981 
18.333078416722152 
4.848498144395507 
8.61153947736162 
5.5817628340481695 
5.726972383199566 
14.687840209166822 
14.960121336227463 
16.877129785238537 
17.522680528782484 
13.156714159375626 
12.172919115348865 
9.552164508580557 
4.510767373360803 
1.545107964761585 
11.376019117205972 
8.506369337864431 
8.409022000061226 
6.531565999181695 
6.575233375892002 
6.012597813503012 
30.94269418727357 
0.8917778973964613 
18.68176012363674 
4.584111501586105 
13.37373789961634 
27.096849723765615 
2.893652607659028 
5.525504591534666 
5.74280957398406 
6.799923867508436 
10.698888200449147 
7.461456938973381 
4.175189894076731 
3.6667042682481217 
3.266450642709815 
7.04677184502895 
19.28148210868995 
17.056789608392435 
19.86072969672554 
16.68511835926149 
17.66585338665546 
1.7472682949350937 
21.29898968621752 
19.34747954672708 
1.2991079181747185 
18.98358238579135 
10.638553574253255 
20.403718425400704 
19.344387241717826 
4.715294280143474 
5.057179281555024 
23.350542525031436 
8.272050752031943 
5.533135637452688 
27.571163824114223 
24.650214221431586 
3.514734361370711 
7.762233249818355 
10.826722348722656 
24.498096331732608 
4.0561400408435775 
28.52711996704564 
4.201366329397239 
4.5144228584983646 
4.079786857040368 
6.105740755670678 
4.859547256693616 
5.279541545061171 
5.4884321539447285 
16.393543097872225 
27.47249539686243 
8.25562698765785 
24.34212410885439 
28.356306101514566 
5.46379155779998 
5.922805053571721 
11.197631594884863 
12.500797472505356 
23.197173119842002 
13.421211761835865 
12.877389539749034 
11.89890799256563 
13.829239980231318 
19.28409910999124 
13.807355846869585 
18.03148167953548 
9.964778921139711 
19.632207003794758 
20.61118031655007 
19.722725569385567 
12.088403379091934 
9.384954701975332 
20.15349639522074 
21.986425528922823 
20.32194928984462 
21.025015706077802 
21.443733905163427 
29.503994377250045 
11.500112796077545 
24.82303587779359 
28.80277686790801 
15.978341834743201 
29.078828344864988 
4.564220592282991 
6.555188136732212 
27.126737939093093 
3.7871302873961246 
4.259548093438494 
19.30444889737017 
4.749436673449517 
14.305883648733289 
14.985067178648421 
14.96176532407596 
8.623787275511763 
8.960923864865766 
8.885196455523722 
7.716612776097419 
8.217575659093223 
8.620484791099273 
19.662714278885296 
20.548737603470872 
25.090374560116626 
3.1333444105476995 
7.57346275348066 
2.368281820888941 
8.407981189699225 
9.228325751447201 
3.2767284234847254 
3.217731643858549 
3.175192926064476 
12.78765107455399 
3.0686600126951813 
3.10081880354541 
2.7918352589027555 
3.1494120718142 
4.98456061565688 
4.846337870542497 
4.808006033107803 
4.082991702606685 
4.119679226891482 
5.591206825260736 
10.98465751804147 
5.180017180260744 
2.729701029366025 
4.478385065896948 
2.3651462433451518 
4.503070315811466 
4.411183629564869 
5.926815391694419 
5.437886888246581 
4.426162292366671 
6.07596969747014 
3.178793103731223 
4.598978408046318 
6.669667098497555 
8.538192033117072 
26.304789860116042 
3.805968744496353 
6.470375422849536 
5.27294479149414 
7.7994311637589995 
7.276513504529825 
2.8298100372753763 
6.154147379542851 
7.905000979607531 
3.597114499182981 
11.488172357072722 
3.5445579285588242 
5.453309325725645 
16.482857792210886 
6.206076399069891 
20.486996078933423 
3.3838521686470164 
6.20961879005739 
6.573492915439307 
7.356003919147426 
8.837451811082413 
19.240823137347718 
4.902735172453408 
20.238349326257236 
2.260834367260136 
7.098403078785759 
17.499698721408535 
6.21838143629713 
14.681851549713814 
27.62943542282303 
28.351145728065237 
6.08954998214291 
5.662276990709482 
25.030287802071708 
21.402549547022836 
24.04300770072033 
8.577418355488721 
11.988676793815543 
25.407464119946887 
22.20089866140496 
22.304052813333467 
3.127659770329502 
11.805253142931178 
10.78835670366123 
5.263626572562952 
7.384247431089196 
5.334448413849362 
8.66298673066578 
21.04135384051651 
21.298179230891485 
9.75716813675639 
9.075286290963891 
2.944459681192884 
5.36759394031373 
12.4901811443245 
4.708701611356317 
11.522936510403474 
4.4921219617869275 
10.090286701681284 
5.063123710111417 
11.147882846321865 
3.2540348734355398 
3.3267966787650725 
10.325481057010474 
12.004269104278322 
9.714357506236116 
17.144949887224023 
18.482005371847162 
3.0332471645132992 
14.872458989389754 
23.117903671466216 
18.28591771349223 
22.019600000478864 
13.188353351508415 
15.996316798109076 
5.306615049098711 
5.836820940245436 
12.338220341522904 
7.462427146088716 
2.743565500310667 
14.695889919846392 
4.788514786970746 
13.195141702582337 
12.42430707317179 
10.022851178491466 
10.601503243640515 
8.341218290822628 
10.933883169295948 
7.815389851644138 
5.268324872503362 
8.321460725146537 
5.543947924244097 
4.769649150989799 
5.766371298640544 
6.589110727218856 
15.219085692460547 
24.261787066043002 
21.05406353033747 
2.6579293285485344 
3.6273850494138014 
5.447957249072672 
3.1155257725671532 
1.2347135288434052 
14.907540851132625 
10.022881214210312 
18.996368938288438 
15.181216172878283 
16.003621102114007 
5.300146623780028 
17.943399037030524 
12.701198957204697 
5.1397665339867 
31.071437484943324 
8.936012094699116 
4.0989076441590395 
3.1783843171809463 
2.4439916174786447 
4.3874840724792525 
17.985794003750815 
9.975529400952599 
8.486249034481549 
8.917853198996358 
30.42453143356668 
2.5060469369877567 
7.78170826245022 
24.26957198901827 
17.790356501368567 
8.02700446219721 
7.04922360714211 
20.01721241265881 
10.485885211934912 
8.15538777689533 
24.375373481206047 
22.58188448259977 
8.293426115022966 
4.027968401811274 
18.75905088633493 
12.770689103126614 
23.41992190542869 
4.2546920174855165 
2.983655566238003 
31.058334519734633 
3.3942496242354214 
3.787162490536175 
25.344923860019748 
4.504627349132841 
28.175146957690192 
2.3338373917379225 
30.09239943727101 
24.719218504384195 
3.0371763896786845 
2.438471000190106 
3.153516823143007 
30.6295370975423 
4.982360326215859 
2.4876895374457217 
6.505706600365519 
4.449062816335271 
18.76171385280512 
14.12790778870968 
8.211133182668402 
3.3888404016634817 
13.291492583219835 
21.698688810850538 
14.317573411622085 
2.878382629703356 
3.2815307101707343 
7.828503289738161 
6.52961605122359 
6.878770651678119 
4.072226742036632 
9.53513582641933 
7.1167643499170925 
8.798948866672093 
7.383035949453621 
5.785878508526797 
9.655705312693378 
7.9806515038501225 
11.82591232874319 
12.191612804029347 
6.225345440776784 
10.86162175688967 
3.3263265746383994 
3.437428212166616 
2.170830505940717 
3.9113070705412967 
2.16434370733198 
2.029642756862942 
3.847551511722328 
3.9091293564289917 
16.376883278942046 
16.200646198922104 
28.907178564436617 
14.486822858671433 
14.869569967330788 
25.334485550973866 
31.92691769951995 
27.05614518167442 
1.6154916388281286 
2.7742517713094386 
2.7151222108957387 
2.1165056791026964 
3.1796492268414815 
2.1877359922492507 
2.725522132751769 
7.344188958142334 
2.371619896299616 
1.8062406974299792 
6.775162995623343 
4.376036491589968 
3.9091583203826024 
3.66064074768418 
18.04543778844263 
19.1799018938807 
19.1799018938807 
27.834044859135776 
14.797850221862753 
18.078930993102645 
29.644909823408522 
2.4134080697902642 
2.656673581674218 
1.8265565589000994 
4.0474183824931735 
3.767698667150157 
2.506157906547562 
4.55407459028725 
6.060864528366376 
5.480739616532149 
6.1793618167115865 
7.470983811030617 
2.734413909093004 
3.286038648920469 
3.4422440751714882 
4.067543658466894 
5.532693760987171 
6.6497988686429945 
6.576542608148414 
4.787764038140031 
4.1656153982228 
9.652451812947888 
7.09899304881209 
28.983523166025257 
33.09412771464279 
20.357053272366873 
20.622961166115207 
18.285275455094467 
21.333214851810688 
20.90158862903022 
25.355935978502735 
3.795067770527695 
7.554317271018849 
2.8114305041859255 
3.3324342272751433 
6.045186480066229 
2.67010927746677 
5.779168385195315 
8.069481848856594 
6.264595129271522 
4.221232067731378 
5.004755239486348 
4.9721149002998235 
4.079408352162281 
3.382342597100517 
4.1071115046124165 
4.723393161645555 
8.835835283571795 
3.221671767646133 
3.9393164746549765 
8.302738065382133 
26.068324334460996 
29.145093001727957 
24.905333167503148 
21.980720100930043 
28.890042868056852 
15.968753740544862 
25.493676712055525 
26.269768169930366 
24.022416456229372 
28.58259768907557 
18.745774829087587 
26.4339451097947 
2.764817432278845 
20.38728857513856 
19.80039003917131 
22.801903163586175 
17.19007195244068 
22.31026989443758 
15.407633830986752 
14.697635804319429 
21.425002366346575 
5.765637385451887 
22.66989403363568 
22.446108496436352 
16.12513276955894 
4.413041889229985 
2.581105599145473 
2.317186642549161 
19.792065002056393 
3.8556734257392034 
22.703782502551036 
6.157170069902606 
4.512386602762659 
5.541340712066831 
6.7066204050086675 
4.596695885756776 
6.70412610131047 
5.2670897485522 
10.575875261945 
9.516928949661631 
9.481322004302516 
10.846699487829111 
11.004211023749178 
5.220583180584609 
8.572830739864921 
10.410267924875685 
9.706309285623323 
10.516292421570919 
20.491108069581244 
3.659532052506303 
17.121056999151044 
4.42631561310948 
5.183863879351699 
21.495588012221607 
7.961709499925607 
7.856829255607833 
7.896092547593716 
4.962663355302145 
6.4515632637572935 
3.838496559389267 
9.213175344926013 
2.0822313607976084 
3.5349688181387435 
2.1307025806472657 
2.276970342687574 
2.145566089885169 
2.0398064339810684 
4.4151560882394945 
4.365637275674902 
4.483514695970406 
4.202984297332364 
4.340652312960135 
2.7894398534218476 
15.056314868600714 
3.562604161922873 
3.7182500273112495 
13.98850998393123 
9.887810462562125 
11.819983607743842 
4.903529510272225 
3.063353137461039 
3.5082127826648057 
3.234864200409408 
3.3098691150726256 
5.520661800051535 
2.3567034028947176 
12.012225787492547 
13.814568265758984 
7.788319637168621 
9.964354464511725 
7.704399555504899 
5.943105984565175 
8.61198128784684 
11.094074750986508 
2.4805402100261227 
24.797678436590747 
27.66638820988501 
28.221458702936474 
30.50056876390978 
28.362829873207534 
8.337220059572646 
28.484315220911277 
10.69793685419391 
5.347244386659223 
8.33722005957264 
5.368031714607748 
6.836786945949871 
16.52167665537856 
8.013457914770914 
13.337275280334264 
17.125492202515733 
10.617641382974089 
15.269087243691851 
4.629652796705115 
10.486959288777724 
3.594342804202477 
17.431801901619504 
20.101557425746794 
7.615227239812671 
16.49685258939163 
17.01597677939029 
15.582481474256062 
3.6900447587870255 
10.221019643179279 
18.67640722608452 
4.72706048404047 
3.714051317494218 
12.220600043312771 
19.589319892445086 
3.9820642808909423 
4.804774472137148 
12.98886345127497 
11.611265947120248 
12.739441805817153 
11.602599263967704 
10.07443485908686 
1.812417254640611 
0.8268299879444035 
1.8016650808055146 
1.6704931998352122 
2.004960654260548 
1.816072192814256 
1.818771494720529 
6.013333862253421 
5.939005298415718 
3.345352334925103 
2.9833902801185275 
3.2429895568141487 
3.463093172646259 
2.852914984414649 
3.3865938089506105 
2.517593181680595 
2.145186850161004 
2.7138490359922693 
2.670915868178712 
3.3132958600289366 
3.922950274105206 
2.3952138889110843 
2.2677961643170277 
11.881983310400923 
11.267321532628744 
11.133466102206045 
12.877988126889694 
26.60750169772905 
26.35506823315972 
6.139355163979802 
31.128624112136347 
3.698066123552379 
11.845352103559197 
16.297679083327992 
26.77331369268247 
5.783945647691884 
3.7071221540409676 
14.052531470840748 
13.769624340600563 
15.845248380545485 
15.26036087637654 
11.057611236422689 
22.392592432682605 
24.284890451373585 
23.45924673100617 
17.121832253369643 
17.651800104244767 
21.310717554789008 
26.399023506072044 
20.874954169856693 
7.3849994182174505 
26.25543733128118 
24.174620035703178 
14.28026136509318 
15.163580129127224 
19.1879238675637 
12.575303127494958 
17.793055050210636 
25.478440127230424 
25.301099972436543 
11.776743274471823 
6.983233599307024 
18.019548251347047 
6.24865848178129 
3.025337451234018 
10.83209316545639 
3.837366264790925 
3.4636366967025194 
4.841152150171716 
5.185331442201435 
3.765225546289669 
15.183750865928683 
9.566633514540822 
17.489138178052865 
21.104170118572885 
7.667687031261227 
5.18361791195404 
17.286833770139136 
22.610011064658835 
33.01896756967672 
21.108133730001647 
39.97701751004459 
22.951828118145492 
32.1331646691076 
3.2633441591777888 
2.202716744398349 
3.4501532905160897 
3.0520518662807126 
3.7133174202193153 
7.281678821970068 
9.207919963362228 
4.368056906756445 
6.480960963211198 
2.482766902704944 
5.192966535731057 
4.909518800033507 
9.996114919373506 
5.653820810826349 
8.308621627708868 
8.517786976471953 
4.990556590965379 
3.6853701918077006 
4.886222286949472 
10.26318827757687 
5.555191635047947 
10.96607351146228 
10.129727043321285 
9.698061051816955 
2.2581547386459437 
3.096439277170719 
2.151190614047667 
2.2202012422367328 
4.46589898119207 
2.7071200117309853 
14.798567543880731 
14.5372593692765 
17.738961357534027 
18.445585073361933 
8.740632799589475 
17.248217404240798 
4.086685296669929 
20.660890631958264 
17.324501821836105 
20.196833342144576 
3.1968139344820803 
14.075958623416282 
6.5360956489646895 
16.698546326944694 
18.34487936351002 
3.8640246295324343 
12.904113446195518 
10.444420198586101 
14.565688090476973 
15.594038004951113 
11.537328372044353 
8.510824609504702 
14.556544158532128 
3.1686394801808793 
4.003718355953528 
3.6886664960534645 
5.877330788531316 
17.896886172215034 
5.313215380646719 
4.927811705842197 
6.606591402131047 
3.47500319911568 
7.042089238177888 
6.0188332476595 
10.970802847915328 
6.6897937076815355 
24.1134060992112 
4.015549773288806 
16.127340501609748 
24.46379082715518 
23.65255767037426 
24.87477844068675 
19.30398332200697 
23.86964099299991 
23.165520762778606 
27.538293389784275 
22.875441936885284 
22.63343079753549 
15.161486336037846 
16.312310343792486 
19.205547026690517 
15.730370580980889 
19.187111623656197 
15.918995946520477 
14.706558064987975 
17.16812432732726 
30.185778003243563 
14.476097829320006 
31.779325081933006 
2.3160464177448508 
3.7594539056815073 
1.4540149243673026 
8.101233542155175 
9.120939746064346 
2.572348598959792 
11.585118819807526 
10.919944050981236 
3.049474185593436 
3.8052858898255963 
3.4800235833388378 
3.878986969721403 
2.8635433208250243 
3.805890630745705 
1.9809249361596768 
3.4241089224547157 
6.9927831999534 
3.6908487147444604 
4.582584526457118 
3.2810718744232226 
24.329625730740712 
24.77870008357637 
24.596229370013276 
24.44380108992916 
29.28165247374574 
23.63276699514955 
16.333125875889056 
26.5171376772189 
3.9169586462584354 
25.380001957523614 
28.05218188239986 
29.334330812873866 
24.30371092376471 
23.974713199529187 
24.273004624490024 
5.77004978355725 
2.967207770436715 
5.673822488141994 
25.171557383192585 
25.04788813291629 
17.660818693059113 
4.243109461291895 
2.832181931336438 
2.039679941314555 
4.708696130347701 
2.138588182455424 
3.391425705284067 
2.6001375518534986 
3.0795043805250173 
2.9409658503071965 
4.1465887424138295 
2.298388120545553 
3.2569515115425687 
1.5737296617547818 
3.567919262673598 
3.510700524329345 
3.685677872011872 
2.9152606605738125 
3.7818543578648187 
13.837019756553852 
15.531706305748472 
7.759025733919603 
14.973127475980258 
14.146551652861746 
18.60231099321611 
4.935287237730563 
6.120114484615196 
13.218477418968357 
12.574509650310233 
31.21974003354773 
29.691765399661406 
25.32048818104153 
30.81330439142368 
5.4747829892019375 
8.538192033117072 
26.871908586149463 
5.035207161705987 
29.49588631388329 
18.455930538970616 
30.510722721957837 
19.920465906948607 
23.2051324288773 
23.51037261432723 
26.271352451352854 
16.354191334856583 
19.43994035317062 
22.435732895920932 
3.78270411238964 
3.6383515637816766 
3.447488654935562 
3.3121001631582527 
3.8974988820826026 
12.534375204280112 
19.043332522991957 
6.556126789437698 
5.208947751602008 
3.7584923843276132 
4.716901477215925 
2.195513987355006 
3.123758355341043 
2.623327029788456 
3.609011676775824 
3.6274480948494134 
2.191519035101705 
2.065957336031163 
17.01058899582207 
13.307630725476196 
17.191122619065194 
11.213273893845276 
17.172662020887817 
17.268623813331832 
10.823036202431892 
14.109384637605848 
20.102281122024067 
6.045738334357724 
6.557383217965617 
15.67049547216141 
11.874931701077406 
13.000860017007799 
13.365292363325631 
5.180577226420951 
10.27639561420446 
6.254586982517035 
9.288809875006725 
7.810529680798249 
11.924764508348476 
20.605850929444415 
32.67906808540127 
31.269397806998487 
30.95342449897839 
19.759918178246615 
4.604236625191684 
21.368395834006723 
30.294308128521138 
3.2299908325463043 
3.530167930779192 
5.4716777878426495 
5.517165378984553 
3.4995979087143843 
3.7861856516585832 
3.456683792117722 
6.383750210520139 
12.76570688547934 
5.983869919928843 
4.295844990929464 
10.156987479416225 
6.8095076006413136 
6.488308357510499 
3.5269305110945686 
7.914894193589491 
5.865839452665813 
9.474956715406076 
4.15255441446126 
3.777838511785787 
5.896458574683853 
4.786145623507634 
4.725914507856365 
4.746621618455721 
4.945719106170577 
17.53925793642938 
16.436802812791115 
11.016426102023892 
4.229463967518207 
12.19204968305563 
3.855041398932419 
3.528420011984701 
10.55050623362279 
12.716146138697061 
3.194725579685344 
19.926817748884446 
20.01453810560653 
20.308988590463297 
16.185848254340733 
16.104142982588026 
24.962664752675792 
13.939200416765798 
4.6855084425036475 
1.7566986015329524 
3.9971188007353633 
4.392202414295807 
5.3661467394708415 
7.265351523441507 
3.521426829875283 
4.190769473456738 
10.832942872314046 
9.811966459431282 
7.360810991647677 
11.59825005542104 
11.672354882064313 
8.665121720157387 
8.603807020089812 
10.171247848427498 
3.9680061963191586 
3.053336286363525 
12.483804506714385 
11.317592799821242 
10.476827552181092 
5.396906474854694 
8.759840930727481 
8.863224790277146 
8.537521189458321 
7.034399063030183 
14.213277527998475 
12.648361981529566 
7.718275551904215 
11.839328316017326 
7.969857528711344 
5.851533363847228 
6.127585093015051 
5.805979698937385 
3.599483141270129 
12.89343591218818 
7.964548052001156 
12.453576625490541 
12.543673434534773 
14.319828893887156 
14.262834633028428 
13.98010001546975 
14.812351972880972 
8.906950373804046 
11.140012458336441 
12.805491798271456 
3.3886949335810224 
1.3374162399863951 
2.1930581512733323 
2.9099174584513086 
3.4032548610716082 
3.1570854438885054 
3.590017975733826 
3.873088745888734 
2.7055228011653947 
3.9637994013250206 
3.9536449085202943 
2.059815557480044 
14.338800139820615 
14.924457428050449 
16.184551412560396 
8.034786550248885 
8.044153692325912 
5.236233470614299 
9.050592281601096 
9.801959298246743 
7.189283620243163 
4.650779625524947 
5.001010209077227 
13.604204716786656 
16.84736635084547 
7.728763565324161 
2.982804486402626 
18.93357291446396 
15.015807914704448 
10.380849828830478 
10.623286421500472 
16.859500835757434 
20.766411071031744 
6.4889279036267835 
11.718555221178137 
12.23503580853976 
11.274390444287665 
11.372974752569501 
10.556389613700071 
12.036225385216586 
11.28960192552046 
20.361925771663245 
4.528768227280292 
2.8463566269772635 
20.16725423095468 
22.924437260000285 
8.620961003585363 
23.029258058753538 
18.354490400646164 
21.25887870507339 
19.54276939683287 
7.3129420035428865 
4.67665894649151 
6.071055224336794 
4.033162548180319 
3.9201957416070004 
3.2570230852904296 
6.363446302336772 
5.76135059030936 
4.252001110247385 
3.720869916416651 
7.265753553302612 
6.144764099698095 
5.489788189617846 
5.038342588502728 
5.470404155450618 
4.975199263478247 
5.417273643495134 
3.290755105069296 
10.152725441162879 
3.8881660972666934 
4.481968475519954 
8.325890284398387 
5.136956333122795 
4.213688318048724 
25.969528060827006 
30.21215158865535 
28.30368943734044 
30.542842321871237 
12.630398508244232 
8.91278267460446 
29.31439437864256 
13.227097719480858 
12.441137244045896 
16.428408938590866 
15.694591055647471 
12.559223891945356 
11.012607217230265 
14.419724268945219 
3.3306257130247094 
24.83644533401697 
26.5689806619339 
21.175840150868265 
10.497400891728908 
24.029015517809682 
25.543663861452554 
17.795010046048546 
24.59848875148182 
3.023108323347314 
19.18157692090823 
27.105465719957838 
22.3004563843741 
19.433463564793882 
7.864264026948494 
10.792194656123138 
10.86666594551748 
11.134228949565372 
27.56557220299489 
8.965432384227418 
10.187477275423221 
3.655564878823593 
8.30670242182487 
8.185359569890258 
5.504146541777787 
2.527281291026219 
3.551277624921602 
7.7329972547690415 
4.642183133936137 
3.7409037745000897 
4.68402573115344 
11.184561292003021 
2.620725164920554 
5.527058731349852 
12.044898326153158 
12.625354469394885 
12.243425309272055 
5.997759747587097 
10.888385646929095 
9.86037077961593 
15.096681982738861 
3.468505975254089 
3.7551227727886736 
11.861394717560833 
14.14374008892063 
14.216872313159293 
14.734555318304084 
13.696592995771251 
12.060130696939076 
15.07641383179702 
15.180071580603505 
3.7602523398563283 
6.144639046238114 
7.376233513412811 
6.3593298623089085 
15.931401514621344 
8.577550499699981 
15.04979566651818 
5.923032169547516 
9.063289569664528 
15.28811018236055 
6.731827112832401 
4.701580713797966 
13.15352608223331 
4.0759933568880005 
2.774678853429055 
16.924610620653485 
1.677467690696352 
2.1182431364017407 
9.706399763386713 
6.252916851597052 
4.936897406753632 
22.23684623280632 
8.35913735384002 
9.284981970590145 
4.165731647590741 
24.32988417996093 
15.715521337927893 
23.559709736792435 
2.4055928776617246 
28.06340630775112 
30.289637814778857 
4.372300185845018 
10.70390331522078 
3.6338532345017343 
5.249546507871355 
12.33855285822724 
28.21794068273912 
11.957111202869699 
8.421235384310577 
11.023742330303726 
10.91049527414248 
13.785954121097392 
14.383271431554865 
5.563329601607797 
7.702945357903517 
5.3875861511375325 
21.265393753850763 
14.888736709301979 
2.7786272310835347 
19.549266800828395 
13.163794918876507 
9.687677072093223 
23.250167780500238 
27.123469099660422 
20.150103714065725 
1.7346713827676443 
3.2429511836975005 
0.8355022000386881 
2.025586699568421 
1.1266938105501119 
1.2907433439309455 
0.866053554274383 
1.8339597106863161 
2.039400003689749 
1.2108922630892127 
18.25220561910262 
5.627114913565565 
12.110415115851673 
19.259714934548736 
24.841446162927014 
4.7153739044815035 
9.913140547907414 
24.680607409858524 
23.117942191529337 
7.92983457152404 
2.631075663875852 
11.535889607024886 
11.453545170247107 
11.240456333926826 
11.989358051548411 
12.112760431862402 
7.626469551679608 
10.308658750274956 
10.56614687365992 
11.767031857741964 
10.750076062528741 
15.773491136904564 
5.811539077620921 
8.064293522737962 
6.698239598252378 
20.0992059688664 
23.439291115837477 
25.710910384346032 
5.783855153489703 
6.455330597700712 
16.466705109508588 
27.95657062324955 
15.731882556302242 
8.813481879807561 
3.3141085312807657 
10.770866574313626 
8.796834112252949 
14.507019451503513 
11.720781911936887 
6.844731705391962 
2.3827265273925615 
11.547138661847423 
11.74599777205564 
5.814122721395589 
16.18834093280709 
5.456698044746312 
2.9112092258603126 
6.353562763422258 
2.220527776397479 
20.833503230638364 
7.115124916109423 
7.820078740934624 
5.100296222245842 
16.23447486454855 
12.294189700029222 
9.410804082974625 
9.158888536989098 
14.531254297040226 
10.543955632283122 
17.175752462004255 
16.605076550772058 
11.803000647528329 
14.13776410583535 
5.001780631593009 
10.247091596650277 
11.430912680240132 
3.5695332913917515 
1.2527023672333866 
24.599049437091455 
24.345074944236476 
23.895347556999077 
28.217838979033544 
24.835003730240665 
2.9524593009899682 
6.5918183032524755 
23.69897561799218 
26.786685153105243 
21.744201832425205 
15.510567338624869 
15.245600543831381 
24.663859185104624 
28.18875203549555 
25.060502327329914 
24.31535726417828 
27.8347230231475 
21.338346492109793 
24.11394429365842 
25.20560214881166 
14.872277780738347 
17.139272095571158 
3.458265338472305 
18.297306121532568 
13.421561818074927 
17.423855921091413 
12.112998826118904 
15.967816521708638 
13.997943054223347 
8.416208946682323 
14.12831741202372 
8.064063758805526 
17.555005994625258 
26.33217844820082 
13.624125907588837 
14.274462394525532 
22.623933764582087 
12.671994576720211 
22.51776405057553 
3.3422358935145526 
3.6565861698678988 
11.535942957066968 
12.117246162276402 
11.685495420442294 
13.434912107261432 
13.426901320090801 
11.34895286048903 
13.33322801675853 
11.465837988483749 
5.34423482592728 
12.082187154171095 
9.338668689929605 
5.090013414694964 
10.27004811519873 
19.46040334911463 
16.222994754075273 
20.535084308455666 
17.058364508453767 
7.557656217616087 
26.226660717685544 
6.752717471154188 
22.09871218883031 
25.05897391319397 
5.039406293223803 
14.907330755804443 
14.356549410788165 
4.157461598182223 
6.693364154370517 
6.640943202843105 
11.90724845679438 
2.55655857744053 
3.609828329409623 
3.871304082550576 
10.251276626035628 
11.54534659697889 
9.406391164321631 
9.112963766842984 
10.30294791944099 
10.845129021998664 
8.515909871218241 
10.170168666673831 
7.774840868365458 
3.274289417361632 
2.183033794824305 
10.216354296478984 
1.7447496938666223 
2.517504593223248 
4.858286158742918 
4.29785434519664 
3.2255286644760477 
3.4864969791453095 
3.5546150031624544 
3.6469916259990525 
5.076317028193935 
6.794952668374519 
2.8762864521509464 
3.484508676956833 
13.9167207536306 
18.969656774391392 
20.284343379973784 
24.671297960716927 
3.5991002473028204 
13.124069053083108 
23.36066215936583 
21.363095478875152 
20.400659563173623 
2.974472829380379 
2.7402776843049605 
3.426358601576206 
2.577054654217912 
20.473991333774848 
24.75316955819018 
12.838633505876306 
11.664053476386375 
17.447282168095068 
21.70476264507729 
24.67629313805237 
28.818210505431747 
25.865215689319058 
3.4185397944187828 
3.109905582182052 
3.749334480754191 
4.597380461413976 
10.986034636265957 
9.401876375579217 
1.5240248192927095 
6.655074958504969 
3.481056920828552 
22.4483967357065 
3.7341747759729684 
23.551547355467044 
22.878999890013223 
28.218586973713762 
22.31515018544153 
27.052872695028736 
18.60152582090424 
27.465489954853577 
27.53906876361969 
28.519987130814577 
12.011956299503794 
9.573124443142381 
23.76123039866898 
27.14072747727814 
23.31363413940572 
4.79820121553144 
15.69234122143747 
24.43236785388149 
3.8374677983458954 
26.667173974021637 
16.655017308913727 
15.810846348695941 
6.842434899441781 
14.439574993912016 
14.580112076002044 
4.16981230981019 
13.755538211685 
15.699431050381559 
3.681783853899963 
3.405784556725402 
3.541944404997089 
2.2397928730058494 
2.7973196285658193 
2.7133606529344148 
3.327594886913975 
11.619110718572975 
7.638727622198972 
8.283871499820375 
7.371824162791872 
8.924626316989938 
10.141826727554507 
8.048037213552346 
10.891578992792082 
3.2169962741541 
11.579607276077189 
2.5831597466451557 
2.5464441852268394 
4.066740279062442 
3.2960269584773463 
1.1827558220979784 
3.366272742258464 
3.399936902089475 
3.347059373176681 
3.238325283508504 
5.863000332902826 
5.496518442921666 
7.788617732590531 
4.8917330127933 
3.2539258406360076 
2.183105719808015 
2.457977090684538 
3.196301390000094 
2.758957542151486 
2.113435888590645 
2.117052420728511 
2.1673362179917657 
2.1002242784215497 
2.7511771037025405 
2.3727405833578117 
3.8679701163715663 
4.503693577940728 
4.529822016588407 
4.672976578008108 
5.629564367784127 
5.547043703325715 
3.29039729668053 
5.888625170129964 
6.170495167895122 
7.393469513375359 
7.410662017541849 
7.326198807450518 
3.173344901874423 
6.471692477868649 
8.79781502884453 
3.7995535803688063 
6.414996724140845 
8.042783173514048 
11.036832472959857 
5.2040679270067844 
4.459547188236007 
3.7554660146735794 
3.9528993754534816 
6.66824124435996 
4.2836619530006965 
3.7254257130354356 
3.5082428336042333 
25.522143441517017 
12.432015767706849 
22.930786937628206 
16.150120728946334 
10.372974289319933 
15.53913586999677 
23.533685411559276 
27.814083097186174 
26.462803094948207 
30.415089157653338 
3.1657196539965757 
3.1423376664467066 
3.1487640065276925 
3.250337418645854 
2.7170320499308236 
3.915362836638099 
3.6932948434827204 
2.975578538483098 
2.896391172064457 
7.148864426066268 
9.864757017749502 
8.309887226943474 
9.075510121022676 
3.4144653539832333 
4.172241624512245 
6.012824563573365 
14.380541729157338 
12.305841145374451 
12.705961131888357 
16.397014366958878 
14.26814175603038 
14.03911896487001 
6.326917452118959 
7.423990513202845 
3.558861983152333 
17.5614112545821 
16.877577210554428 
9.68945398552271 
12.249357963131391 
9.942347537220513 
11.205973682684094 
5.6639488630996695 
6.8189960711383915 
4.868921282789123 
4.664003879972313 
15.534508054856294 
21.905396934542072 
22.356805699662264 
14.66046177117194 
22.976682501161 
21.600443212507443 
22.824835987382563 
22.58229507716799 
21.162192310226914 
22.219443599289015 
21.926401383202467 
19.931139806704184 
2.952729143935329 
2.7226052640383323 
2.0933732034298838 
2.9245589653866717 
17.66537403271435 
3.6676003569205324 
9.875142922018764 
10.22642823717965 
15.358588067580461 
16.4519963942905 
17.174631466843206 
17.649659148878325 
23.314620448278273 
19.30532346199116 
9.399072279874861 
23.721199190945025 
18.71639705694733 
14.33103231821856 
12.534569019953942 
14.516188042816369 
10.025547956677842 
6.6100846285955885 
2.650562807362655 
2.742908186711902 
3.378049865949362 
2.77661749569278 
3.198537554551956 
3.3662548384884268 
3.239995631571151 
2.5578192715838237 
2.6028999176081826 
3.107256151733361 
2.7307573543306916 
3.0699476049060066 
3.4474759912112796 
4.132733428930876 
3.1926163154607248 
3.371319340630871 
3.067971924023849 
3.660076990604508 
4.68168636021296 
3.7462578886818063 
2.6819290819148547 
3.757633310619062 
3.456315241123192 
4.2916025532329405 
3.6593351177891487 
3.843561771130015 
5.480981043753546 
3.964072091858663 
3.849887366296895 
6.229807895089391 
8.008611940834625 
7.908506317130248 
7.258165629740769 
3.909540221790831 
3.7228500953817125 
6.920495576761692 
7.2013056809562634 
7.872062793659017 
7.566165317663462 
18.371260478539085 
4.168406061468228 
7.680771142467101 
16.679181661138088 
8.822339652429406 
7.396713628945447 
11.966589372763941 
12.241496665504947 
4.361924343776262 
12.626904446817521 
13.31638853826551 
6.426405888663799 
5.83275047390135 
15.948478021165077 
16.54305033327214 
17.624250727914706 
15.164287136805468 
14.676257616323271 
15.961115818392283 
10.776945703742392 
13.461390238874523 
18.64473080834576 
15.230016295405184 
24.226698957721673 
25.355099334513078 
24.900289977474753 
26.696881223248617 
8.087130969428934 
8.73496079756463 
8.962339875793184 
21.313789694827015 
13.367371980983084 
8.898509183342231 
5.830782786173552 
9.870045138338524 
7.655533412636923 
17.912859099283423 
9.739912136629044 
12.232767741133086 
9.343847009116269 
11.142540686342294 
12.905890536593137 
16.750072941451123 
14.637409780303454 
5.70204415455751 
3.2747932661064034 
12.890465628082621 
19.548911290010544 
14.475735770060039 
18.07108468900611 
1.7564755731485924 
3.7899695475944264 
7.473231283620558 
16.992836261989282 
25.49960686057401 
2.766013464397951 
11.3463163304668 
13.87243082865824 
15.38978760636457 
17.709437407646075 
15.37480439515688 
8.49900765859571 
16.57959432502804 
17.70202500632413 
15.83849640918109 
2.696632113692649 
1.677746056594094 
2.1955403846592088 
2.44684449974878 
1.8485235010820578 
2.8547396546690815 
1.8670833204577517 
2.1203330970096332 
1.647002245644758 
2.2055653893441476 
1.9800763166562507 
2.9813668016021966 
2.6454277593138813 
3.0878804606088996 
3.4315618060733386 
12.091453845156497 
4.1097842583731525 
3.4888054271941407 
3.311362813537764 
11.022726780425913 
3.4058324666277406 
13.257093010531865 
8.365496552460328 
4.445382972120103 
3.658606830773965 
5.971962691399197 
7.382717524717599 
15.305046708603173 
18.52358287361049 
13.377412651473026 
16.51163158205584 
19.549173243176288 
11.357299500399668 
17.842189810688126 
11.769573832018148 
20.235951466823074 
3.0007412390218704 
4.2803741987585795 
3.872055104886695 
3.6333496608053 
5.628559979401116 
2.992646708093064 
6.931940401617861 
5.738259377542766 
7.321955056248695 
4.787517203027532 
9.148561369421063 
9.136219910014551 
3.70750410960717 
9.13047325741012 
10.334197635445822 
2.923626665609377 
8.011217580433788 
9.189109039480538 
10.461763219797236 
3.7936429226860553 
4.629449405900124 
3.4601473937460616 
3.929683342697994 
4.996928878271142 
2.6484542808497773 
5.29203680046503 
24.75970043616497 
22.500377416865895 
7.614758070026007 
12.378489635560676 
19.494987223845456 
10.78171469763143 
9.68481258437012 
6.747866498043465 
12.901240079098637 
25.61021348555735 
18.05070135142672 
19.94137025616836 
14.793588303985075 
18.22219805008143 
17.442866774293016 
23.443502926021324 
20.435480017021995 
20.201778197520333 
3.022691804294804 
24.942873533857682 
11.28321034171005 
18.965477948625246 
8.784642904837298 
21.314606865856426 
24.00381240208118 
12.95933689718294 
24.260124252883273 
21.888352895907044 
18.22065093530449 
11.476783853811677 
3.6485966828339413 
19.085210649020333 
3.746706499115688 
13.003008042328542 
5.834415501809277 
13.847856134941011 
8.008371629934755 
8.018298454797486 
9.126224596770395 
13.653439480435916 
14.540623165138955 
13.19503984329785 
4.738282578315587 
3.22494698125025 
7.367822899461525 
7.4909983037269585 
11.61912265292809 
13.049875680147519 
1.3780852091755509 
3.599737051349748 
2.1247600343996518 
2.504786561422856 
2.5605216168092966 
2.8284230271636916 
1.5032985469307059 
1.7823793570977942 
2.578440617750471 
1.7888044556414087 
4.234736264790951 
6.042182453509849 
6.65356986763016 
6.423943536519743 
26.939902811485332 
27.108639224235237 
25.905551642342573 
4.006849346249659 
11.528306353208647 
15.567968726571149 
22.506934006351514 
8.71968508957786 
16.267931068792254 
8.23603020184892 
21.74276782478465 
12.426350945988863 
12.720625601041593 
14.254080636711583 
15.08354896428115 
3.3921377210464407 
9.842337525519355 
11.504179001485 
20.139449371502913 
17.694693569709482 
21.18444268778636 
10.07631973180822 
19.346271514550306 
13.229455842806559 
11.24500945514694 
21.666357461657025 
22.66594053799016 
19.015010860364793 
19.340954016230608 
18.724869915267014 
2.7068731916988944 
2.3948147398592763 
1.8320193540781962 
2.3781824419299333 
2.1230996683234653 
2.2765631445012144 
2.7420336356684327 
20.635602572516973 
19.95301625030276 
24.17739424988516 
23.948073280126955 
9.935608449876456 
26.99332914599645 
23.953059936371346 
23.654499368177213 
13.702790486451592 
19.52924472141965 
20.64016532169845 
21.86175221305698 
5.032023134248802 
4.934947524121409 
3.8299563187533034 
9.48662191468334 
7.122620430148758 
3.9377036241721437 
3.975088972795506 
6.821194792051808 
4.541602187909607 
8.634312977217222 
3.2830607287720857 
27.017156890485342 
19.949255359304868 
25.605460415679488 
27.438091476289884 
27.274105350987284 
26.51429564581854 
31.43225734122764 
31.33733609959469 
26.14871519467097 
26.824940970803347 
6.372587811261034 
12.43475671227946 
12.963200195681074 
8.17458094377106 
17.541446284048423 
6.215788894395185 
25.229046630706694 
3.306581470389942 
25.355013743226703 
21.5990417436324 
22.276957751691896 
9.295332553379055 
9.229406649382515 
8.444089942023615 
16.15759229488339 
3.873490157354255 
27.880378100616056 
29.113048212752503 
21.76410471064291 
14.288629630879269 
21.56447280335535 
20.59337120823685 
10.140037240230091 
17.743174640070055 
18.003285232619294 
13.880745352849152 
18.355762286493093 
18.90733642411512 
20.708045198095924 
15.731743307535078 
11.496514302730969 
25.70479424057274 
25.68095025575903 
25.67923928504237 
29.877177904294406 
24.175811214731016 
26.756380998109282 
5.881555353510772 
14.860342618720471 
22.509302054752467 
17.618377101515616 
19.087279777948837 
16.048980218728506 
6.249809342118276 
17.387710895463755 
18.759441224351942 
14.422680708672495 
17.74016216371062 
3.213438010127583 
8.956719467809364 
11.606927053751807 
7.8208707899814005 
12.295452547596833 
9.56363275032668 
5.128395052633323 
11.87693498827489 
25.055778652820685 
29.565678995176516 
27.171192047615204 
10.625353555705793 
28.91642125322051 
9.328063522269789 
4.711802302742805 
15.07771693959383 
15.167934675884359 
4.800672790613757 
8.25873442260011 
7.50054107861474 
14.098714910752669 
15.597857773388986 
10.771768422310293 
29.474778564462802 
9.88747346169742 
24.671533624881764 
11.2295056203379 
25.049381515157233 
8.923107367378746 
9.38505364649817 
11.020505771987068 
4.0123174044074945 
4.867304741369329 
4.474642826652288 
3.7348681651340425 
3.075896859589343 
3.6435096844351094 
3.5882918005577564 
20.23656240867647 
19.532316113340237 
19.594571322812286 
20.320462706667097 
5.156046745422032 
13.435026013738057 
19.778329340268137 
15.188469551772465 
19.209468165104088 
19.750184316410845 
4.900776160340349 
5.175623146446812 
6.943431783380773 
6.927968989576637 
4.689291282702437 
2.9185784192269537 
1.1975782216638742 
4.33029936450844 
1.691559493630602 
1.44710457239801 
3.6676468966187534 
4.302064908318227 
7.155465947305805 
3.544746440665064 
4.350939446466789 
3.586806052529303 
3.385333753135324 
3.7847938414856337 
4.106328135215449 
7.3343182940707035 
4.686161469668964 
9.473834891227167 
10.565514132283749 
12.487022512990897 
5.501063720304325 
29.57169313849722 
12.053315883878973 
24.98063793741651 
29.551149564002415 
26.11512866269437 
25.922426975530616 
25.02510071506667 
7.302232898275702 
9.07311571214912 
9.225325558719067 
10.731407904160193 
6.131967116229193 
8.792281616238588 
9.532793679290098 
6.587187116199991 
6.168750293346727 
2.7826116543573494 
3.4856687859438167 
1.858899592816201 
2.1806774868790226 
2.6860434498429666 
2.1059080407584303 
2.2325089047816835 
2.218190164531881 
2.639767259067921 
2.7945057315369777 
1.8488990036113842 
15.755378518876377 
0.7730543155591844 
2.097049105869655 
3.048561450567629 
1.5167369236565902 
2.519813830204847 
2.2100814669111926 
1.9378911288856215 
2.426211819051689 
30.02628109526486 
32.31151021097601 
32.39294864012162 
26.019148902862835 
36.86482991478231 
24.76561173834176 
2.8115508536838245 
4.293605846058369 
13.993165983261676 
10.84087741015249 
14.651097886245847 
4.734861127493886 
9.087214376716892 
5.820475362885056 
14.937141800786469 
5.462937931744611 
27.258997219714626 
17.108067770725327 
11.990660565664252 
13.385488826509476 
4.2498329556753545 
27.2588202489213 
5.882950042150918 
3.9114702447037586 
7.676001861075328 
6.930266992321875 
8.128144870569962 
11.983528412527559 
5.645091373886316 
7.6597433418371015 
10.816607029697446 
5.276207950505506 
9.808160229510085 
9.946543227752924 
18.386895417275284 
4.946885042822827 
5.917563115145663 
4.942025659020936 
5.5528561833857975 
4.83879139433156 
4.976898321888317 
4.020169810513698 
7.855409689501294 
5.010208094423303 
3.655239611911921 
3.131890696785198 
5.423800820932695 
3.554058498658443 
5.31066456731504 
2.4817286245502115 
4.408105592179638 
3.992881575185269 
10.753529469571255 
9.07489193401333 
4.415539547805953 
6.842463817479323 
10.850092304099677 
4.418924264496126 
18.531128169803207 
6.682110819238835 
14.305899026794801 
19.572852366142858 
24.78262451318137 
3.26178273664678 
7.935736593091232 
2.6739774565522114 
17.542691449316493 
11.283189706481673 
5.397398748894025 
18.17868379092355 
15.40235609650071 
4.493722209609175 
23.53605862167681 
11.122698415547717 
16.585063606941503 
27.411104622050942 
9.938615639112248 
11.782713104102868 
6.1002145483291725 
9.117348135722224 
6.29411443185081 
5.819900681092829 
11.370098641072872 
16.32080448021807 
13.910779702960768 
15.737993117677007 
12.024156400327461 
6.378545228917745 
4.573982674282922 
7.476736228799149 
5.178795258861106 
24.321290730496614 
9.853128350004999 
27.323941765969966 
30.847055389731953 
25.421212813985882 
18.15366451008574 
16.1896433904937 
23.270762022224574 
15.929318755675759 
10.457013622374992 
11.973979492472713 
10.90624988501987 
5.818393433148936 
7.445022662445375 
12.269513382849086 
10.060999548774271 
5.7385693699110965 
3.49740717298824 
1.9076618699852659 
2.2043038905859684 
1.8405839730097577 
2.965220403444527 
2.653686082159347 
2.6893286023189837 
2.1166568922984434 
1.1621752382178043 
2.6180360024138687 
3.377546725920853 
2.6528691582955846 
2.2357650462089764 
2.129164979003684 
1.9405086340257172 
2.3701095303657813 
2.2003981793753846 
3.604079588433927 
4.34965966816988 
4.151623164867486 
3.485064704496765 
15.41960394172518 
3.4458432781060755 
4.775903209313133 
23.906385651621793 
22.32417064245558 
24.01626511698105 
24.19956057922123 
23.945554179879345 
13.673615615464918 
5.997098961860925 
12.593855767460093 
13.883965165697084 
13.738781957795368 
10.503296943327607 
10.91887878785736 
10.93005051321875 
14.79047652729082 
8.793145373648985 
2.9250173773670536 
2.1602367666112534 
3.092472287840828 
2.1032813613694477 
2.2021392236901933 
1.7682905745165178 
2.2577103322582364 
1.7321092796168442 
2.857547289915259 
3.2280795069991037 
2.1856299342899876 
3.5307854548692768 
2.80961836618378 
3.2493018365757504 
1.809768454467915 
2.510243725360988 
2.6142186254018096 
2.4782853716372157 
2.2126255151265837 
3.2547402528304143 
2.677129719291188 
5.730537783976494 
7.26832767679702 
12.809236194727493 
6.032267241364784 
7.673722469258069 
3.0883076969813255 
4.959377055686622 
15.482191799492107 
23.61952115700857 
17.51590004437295 
15.960927102830649 
19.60761640300273 
20.297287625201385 
27.555814056528877 
4.478811445801759 
9.830954631498578 
2.319231693642385 
3.2345543525004885 
3.4171367464693243 
1.2233917720299454 
2.318751703004103 
2.7501487796443578 
2.3261999835304583 
2.2089952769941728 
2.3415592294259406 
11.65286648020779 
10.982841370762442 
11.087296241609055 
6.0836006818025705 
7.311158702391251 
8.146220636233949 
8.25513599449283 
6.22832461119978 
6.526939024620747 
3.475085750422327 
24.741879404347287 
24.14253952176181 
19.35582013752476 
21.86788175805663 
24.902026927217957 
24.951218366621717 
3.653387132232133 
1.673815559705716 
2.5600017826775723 
2.114041806860343 
2.744800162615009 
6.334558167890465 
8.874836990886081 
27.152234424844377 
7.785483660663843 
6.2786900031679345 
4.365800241752994 
9.942168437565568 
4.957579565601061 
1.3910191947195645 
9.703699777235427 
29.407490473879704 
30.47139084230785 
30.347563235458743 
26.045962924922897 
5.291279828268409 
27.196467091262754 
25.436992653256002 
1.807856457708591 
2.6630422157911013 
3.448535768329569 
2.2394858612965876 
2.3245177417465372 
2.7028597729568795 
2.0454191413109766 
3.9041470877814457 
9.097455551101811 
8.587175412494874 
8.043905244555875 
9.45074497202213 
20.364162214964228 
13.567459716038437 
6.004550729140224 
13.660044296868172 
15.591459538348376 
5.957947557049069 
5.305784822753043 
6.045551839652732 
5.794153617529628 
6.0265493984774 
6.754483780123435 
5.950985926824104 
6.012497961328748 
6.270373899147615 
11.194538022762757 
11.75609382564557 
13.026875014686826 
12.321378003836097 
12.555406827431648 
12.106086683148504 
14.418616481391574 
10.449382086252058 
11.935374242591378 
7.572359375727217 
12.295236624020195 
3.8850935462854155 
13.954539613144405 
7.5745035446911775 
7.488496152685679 
11.8397433310923 
4.927404509694233 
7.395906862803077 
15.54614015760404 
4.439596551034068 
3.213238177301543 
9.27198195009653 
8.590721001309344 
6.718495989346187 
6.4914496155436945 
4.337480908425957 
8.016112547518828 
8.12609700833906 
8.77142548823984 
9.411041291148253 
5.216887215082201 
5.022014470482782 
7.361993365784099 
7.739625788309629 
5.689628471790667 
7.23547187890251 
30.64015999823813 
13.561060887838703 
25.519760873679267 
16.941942962407047 
2.0530088213100584 
27.323318605876462 
13.529318216174698 
28.123544706342113 
29.980362064187016 
16.406575767028798 
13.610945672292523 
13.912008249441746 
7.3060309249952375 
21.19893573170137 
9.218954149824505 
22.802225817391246 
4.473457357681546 
3.4656824368946415 
4.242947163874937 
6.659161180949507 
6.821924771107686 
3.548561602752178 
3.4438905080066897 
5.518468522049981 
3.1915210885580727 
3.574634026368627 
6.578256856076444 
6.728107537447901 
6.96298833002817 
6.685469217856157 
8.297936971831218 
4.7726930044202724 
10.08376499801077 
8.648334129888912 
5.255631938506313 
10.258418900998292 
5.470914913748167 
6.260433001802395 
3.545121778035148 
5.472171848028358 
5.452208263710151 
6.466539615446979 
4.149544009196567 
4.624507876364149 
6.999023577354195 
5.444190970007718 
6.883168798269393 
7.435235215346045 
6.150257295296886 
5.436876757955171 
3.890119008581447 
3.7412086390811488 
5.487144500689858 
7.658929130425739 
4.448859759740442 
8.042101715630256 
7.846758273889341 
12.707747865943679 
13.224682847371696 
12.599419374155811 
12.87198353177764 
27.572745283066368 
10.220818174778124 
17.36772716199038 
8.03277391693159 
10.454369645600277 
4.052921243764561 
1.267617714168159 
8.7552332703079 
3.5135881758717535 
6.535829580333434 
7.635966999428767 
7.341781031169121 
4.6496280661586695 
3.530752552280708 
7.461429994990429 
12.870201289114519 
4.024543496169146 
7.41107204936183 
7.684569273015461 
4.7919283957148915 
3.6168905048454287 
3.698690220062586 
3.2955351509691617 
3.5722057056213625 
3.3757341540531014 
2.481940204382466 
3.581532751256757 
2.825948714590095 
6.493653758021664 
5.9082023679951545 
2.924193998759531 
5.026163262180213 
6.529809248092779 
3.4004842751450712 
3.6308980918250717 
5.499605826638434 
6.4171395269864755 
11.663499267052352 
11.552052379927293 
6.357761567096659 
9.967164150698274 
13.998197463739347 
16.46910804522551 
12.311926944484483 
14.369992937135278 
14.3211228304654 
13.563640749027279 
13.343796720804155 
13.576125036380997 
6.227157918800207 
3.6866867240549923 
4.8201373837478165 
3.7772904479245755 
6.509837698152494 
4.298579770960048 
7.480331687670638 
3.842697533344806 
8.065343472488765 
3.3141927427184936 
20.365156391374523 
27.13773781406133 
25.769314866051825 
13.61023313948569 
27.823154378143936 
6.371767185202581 
16.078708758708217 
28.815324004104326 
28.742854070007795 
30.020087597394745 
23.181507474286306 
19.159268154331357 
14.441802883022035 
22.400296633393086 
15.89159975010823 
8.107169969351899 
19.61228592018045 
5.020144103663078 
11.532947742268204 
21.770664984176314 
20.04453765954721 
4.165991127609118 
5.647291076158265 
3.6865606967201745 
3.538708142563253 
18.389571933869362 
4.139995461089342 
11.00765877668568 
18.577339651356052 
29.929793344121627 
10.19240609284998 
15.208460558841624 
1.9781723238591182 
2.9041629228325867 
2.217012746759584 
1.9548162648494325 
5.515684521253064 
6.457956567015715 
14.177867584151763 
6.13746271907886 
13.249411917132802 
9.95495851169407 
6.558115534989156 
4.328989335598919 
6.592637870360015 
6.344237602908709 
6.989213389122881 
4.551307768755048 
5.355499447357388 
8.391619213634119 
3.166760172807566 
31.597863686151825 
30.783417723131944 
19.563816544395685 
25.326610331203117 
21.14369296288682 
27.02635045956139 
15.231427154737911 
14.750374732394622 
12.790492510679318 
8.788037838338822 
16.55334563162631 
10.379771112255689 
9.716169180293404 
10.267426904847756 
9.924702957043504 
10.594934718924288 
9.896248606723491 
3.454300275218565 
3.4573142806124952 
2.4082843774876643 
2.0821073148747336 
11.45981327312207 
3.0531800185453855 
2.4790401691212844 
2.577711896577734 
4.254160720687516 
3.499655888709666 
12.170569776323404 
8.150321199035039 
14.245211823977234 
6.287054779852874 
23.056563675203652 
14.950826282000332 
21.30658933049713 
22.742159504817025 
5.4273639209843925 
21.05390689537148 
20.745251133438426 
23.38835605925646 
24.967854231929486 
23.643855579807028 
27.362216908864642 
15.652653943816128 
11.652597751486626 
22.637376679348442 
7.476200686245057 
11.018092121973845 
7.100487255948741 
11.846211164350663 
4.986087241037053 
8.143796532546668 
25.069369070228056 
10.966745926180655 
16.694007949991942 
15.964711867599222 
29.3048479733654 
25.392129474133135 
19.241971470131478 
3.8907067655425114 
8.53081742919243 
9.304746095894398 
8.753527108159306 
5.922370242779339 
6.298682664918561 
4.543322243176062 
10.669570209584204 
30.647426976893257 
32.2277078487552 
16.979335126223578 
1.83305491238395 
29.376368996638753 
13.781643118083174 
11.811974987928531 
18.268282154537285 
11.624129238485919 
21.553127039225437 
18.436976296340614 
12.94803251928162 
18.318852346861995 
3.8325325205201146 
3.661423093183679 
3.0840601648252703 
3.0635275014275267 
3.6317635324673803 
4.5122066944435035 
4.58346999157251 
5.563689259569818 
8.051882212388815 
6.868234462238075 
6.776525565227411 
6.308422865295753 
24.458497808882733 
22.49958887351507 
12.103945852776976 
6.5002128525588985 
5.9285794298021415 
3.7623306180170895 
3.8283953046123376 
10.153424020045897 
5.768247569402192 
6.7373436261346695 
8.315819534187238 
9.27085837426377 
5.4264705516087295 
4.929857916086926 
5.500354769083849 
4.53139085388816 
14.757634591966898 
4.907781731589195 
3.133219822811947 
6.959303574205272 
13.948983328069895 
17.110996214165876 
13.408615239168313 
10.34687251448552 
11.272157420971595 
16.455603124659778 
11.25634234417728 
23.02641390083556 
19.376854156849827 
21.007259560709535 
21.65065536757662 
14.434328465920885 
21.5425001163817 
17.799601170036247 
10.45547078458316 
12.924874921347945 
16.435569153883876 
12.747665689553907 
18.23220149381197 
15.791456813689466 
3.2620902315804114 
3.119944920967173 
3.884697646483107 
2.899406716617012 
3.054845590186451 
4.325446998396909 
3.9576313762166015 
4.964690736409621 
4.923290449630525 
3.4353982091470803 
3.5621723109866568 
3.397063761415137 
1.699620883070399 
3.312966050143713 
1.6521945075150382 
3.7304834094664097 
6.775985787993199 
3.3192196430000314 
3.439892214732524 
15.036987467214432 
6.515327441376764 
8.54387978460619 
8.308451411908278 
10.919780390140772 
10.940137907462567 
7.700978125647842 
6.353035924658875 
3.343485027457705 
4.827517281381941 
4.035535958040077 
4.135208350248677 
3.816597521007916 
3.3042123608853395 
5.160138156835762 
2.7608146467388694 
23.902000578586186 
19.476262056077413 
20.8624551541857 
12.036984001090918 
5.082362648754926 
9.074350342811526 
22.53160133908788 
23.276629053118445 
13.752966884246964 
4.8401391361652015 
2.948515641370687 
2.9359421222768223 
5.009147886240606 
4.537456179220856 
17.107293834767503 
17.13391171326841 
15.95669704217925 
16.058860103962502 
16.911499484129635 
19.812074955826734 
15.710948944199284 
19.370833924282856 
20.391453025530023 
17.684975868805648 
17.91737841284093 
16.59537239730306 
17.179940148175874 
18.075185757657586 
17.44251884615928 
17.386856028061402 
12.166041699083147 
11.878288138972176 
14.45775385577331 
2.1762018529487372 
2.2708684411710953 
1.853835642683407 
2.6535835159752184 
2.007118192020175 
5.836077701785604 
5.540647231958857 
5.581536519075077 
4.948800230314145 
3.190810033405209 
5.02647533083676 
4.488514673994876 
14.673710217466164 
14.05041865325981 
3.8973967028016814 
8.059524295274658 
7.213924354993461 
15.521096658724993 
18.0994828000908 
19.27008572717899 
2.644250423702115 
9.321813532993447 
15.785674053917129 
19.531454332144303 
16.018352840948815 
16.369200513901166 
19.159257878525327 
15.854128226325496 
19.344415917212274 
3.524057877903529 
2.735602167652318 
3.9206095074598157 
2.0998580505115227 
2.879769359836238 
2.12386524713226 
2.5881747246576134 
3.2184305115916243 
2.5596603997543546 
3.0838873337823 
9.50893207368811 
21.97581072419018 
9.846651057655285 
7.291136013642315 
11.00382264288086 
10.4240141919127 
5.749447320580282 
24.692037747948735 
5.819575059561267 
7.052358481595877 
8.644523693731248 
9.065424467269544 
9.625931637299564 
16.312715257929806 
15.938354826839735 
6.176626725018356 
11.837440714181307 
18.334221778147526 
26.017990802317595 
25.80731897473977 
9.403845029827725 
24.835144875658614 
19.209254867916567 
24.744701165265973 
3.937507683381334 
10.49116235337274 
3.827223474824841 
19.64404650566664 
2.800650640458883 
3.0207924118945577 
4.104792511567285 
3.517721535625564 
15.166429870734785 
17.40121301786986 
10.820606220553476 
10.316059197197156 
16.89575826846285 
14.324040735051623 
9.867342398718801 
1.6909510797939762 
3.140258998984268 
2.599104356673588 
6.984362994925082 
7.358089169621163 
26.625611535194786 
27.30586690175011 
26.5027068692551 
5.5526576449832366 
17.160004679890495 
10.466498584565821 
27.615766217823822 
31.562397365158898 
21.58481055981827 
22.750053726076143 
2.6967830435442286 
23.786792880008086 
18.05702899374973 
24.043313709911576 
19.995547419146387 
21.072457305124775 
22.464925516683895 
10.34495620360763 
9.020046619001935 
26.681591230494774 
25.93104537520967 
11.667428895789296 
26.69280538404344 
11.801426364927286 
27.516153967899598 
25.338663657903652 
31.747211762491183 
26.492240248903773 
30.147957998837388 
25.45750772880425 
21.71337588430214 
25.74677498462444 
25.801735026217997 
29.8175369696385 
20.28186260383331 
6.767091605339919 
6.725775842892711 
14.423257055508044 
19.50911544875643 
18.856345355743425 
13.460428580694341 
24.3311113942092 
3.453948113324854 
16.26019463468802 
19.676273884200157 
13.745216954140158 
8.45905898422002 
20.58850334761473 
9.995470332269774 
19.187763355193546 
11.110732478321758 
14.135626909985907 
18.282598197309127 
20.895706467033467 
10.029608346843341 
16.94107975698454 
7.070348662977823 
24.564034039737507 
10.980848839020744 
8.544774494039688 
3.109723387351425 
4.804342882689842 
3.9839905522257486 
5.719444083570604 
26.84210901470639 
23.339164113061212 
22.663991090768707 
8.552316608445208 
4.316834667111691 
3.190852492818475 
26.32303201997432 
11.10927692274803 
29.571552381816716 
26.52160623461939 
6.837499187252576 
15.427396485115212 
5.765138819029334 
6.390761964138396 
16.044308982758736 
7.279112838604635 
6.991177849839071 
8.228048148770498 
29.37836106338688 
22.83008226989013 
29.021292046648433 
28.09817366294849 
6.7235095050908 
6.58275108799026 
15.26625832691474 
15.879473151672627 
16.345960391813552 
6.574125042722681 
14.695314888555254 
17.399351631987752 
11.432755798224798 
15.034431418899308 
12.206915494364289 
18.66533973961838 
17.82547383226644 
11.264248496844733 
16.955968215756638 
17.995481530334448 
12.54145056255475 
12.902217550080517 
4.409618818842028 
5.8069076895727125 
2.9278784186439943 
7.154171558123206 
7.280441334577934 
5.583568025001698 
11.625080298044722 
4.3268797998905555 
10.156994655792692 
18.370986078022092 
13.479023619746485 
4.187396351620086 
2.252311850480154 
2.2905157754967194 
2.3764732633075636 
1.9982266035250584 
7.886197831120755 
2.4045184603396734 
2.0068941107351157 
1.7961935545795313 
4.610303872172736 
4.681174377472486 
3.5052503704623947 
6.561529856100381 
6.690938563003203 
4.7985664932683525 
4.902694722427481 
6.037771942739903 
3.9283697626554646 
4.894160425261884 
3.671575563576369 
10.013180249354301 
10.150204742497465 
18.493266925668756 
19.901935266254014 
7.46012945949028 
18.385928255206284 
25.51454030405291 
24.06405721610163 
4.9244684970685775 
5.646298166225808 
4.442318784204251 
3.6354362640503957 
5.044149186892644 
5.153514293515099 
5.185814341259992 
22.97815160149467 
24.116817378934847 
22.72591606433083 
23.62709951136051 
23.756358088317338 
22.978885582188923 
22.745030983478326 
21.151011772169515 
3.4499039330563224 
1.9619364611261327 
2.2236622545337235 
2.251498527406784 
3.1125862995829645 
3.1081523913296225 
3.023846731814328 
3.119441474505455 
23.793039050682815 
23.40134058631807 
16.996520464077634 
22.820086580572706 
19.031281546427714 
12.559233221559653 
23.224159070315686 
25.55025134127615 
11.205855458141325 
8.940032234503551 
14.282890092235055 
10.465365171931184 
12.781643974461184 
9.576495688664442 
6.015118828628046 
13.467531699850444 
21.3192094544705 
21.2363598645253 
13.729684454093169 
19.384188601324876 
14.95676240047558 
24.63861047395491 
14.620557785221562 
15.306320073193502 
13.551794621655974 
8.648925984243377 
16.244592647499264 
15.878989871807375 
17.09593518038851 
17.625896542765012 
17.297148043305988 
12.914317590914347 
16.81506560867877 
14.676073087657576 
10.750966561741059 
7.540625747659524 
8.069832149383974 
8.599577568830847 
5.279020979210584 
6.610797701794655 
7.6845100411189975 
9.785914404738996 
5.658956541519125 
8.362497179386855 
9.14920728302851 
13.294285503828508 
6.051333590151816 
12.525005468940128 
1.343160583483468 
2.7911577880811245 
5.350643334461763 
3.5886355381007133 
15.536504180069784 
23.266064352503548 
4.0301695275281695 
5.357579096692221 
4.713441394427915 
4.339308713598068 
4.745432693701389 
3.0350553084583822 
4.28805693791908 
9.511282237669562 
3.1994266259314172 
28.63659873603983 
9.508025881772685 
12.880967120327975 
11.63801224515902 
10.279646529314522 
11.030267590741515 
9.86532908460014 
6.384700033966437 
13.019644734645166 
7.285413412021124 
2.363786667176106 
7.151645780824456 
5.312672177663029 
2.924627090372549 
11.373736579541864 
12.115509859967016 
4.89086993876765 
10.36331080991133 
9.577111976997065 
5.092688957192198 
6.685383871997813 
4.210458885173007 
4.967416983696574 
5.6993909034042005 
4.126674218340242 
5.659735620489616 
4.354433926407194 
5.2688780769810295 
6.52061803707758 
5.91814100782722 
7.5910234768018885 
4.90407304908106 
14.920663582556019 
19.418345783700197 
27.132504349624696 
10.883454298297483 
4.462460902540467 
10.783391263964104 
21.752247415508563 
24.019552709982737 
15.923984423943104 
13.36708759191599 
9.081806706718792 
7.245587383130358 
12.430336292319579 
9.44800693587378 
12.296853584040027 
12.667322768953653 
12.339957267629288 
12.183767584713099 
12.161346371775902 
12.307505646648796 
6.178538365311295 
5.214850356329076 
7.072846224501449 
4.905713302857248 
15.572378540511425 
4.237957937230404 
20.04978643780068 
5.808498138890684 
5.608404780757415 
4.826732450028564 
5.658170257538759 
9.302337899086307 
8.148407693243946 
6.764727923499863 
10.725873367282341 
10.674137914849151 
4.665925448863374 
4.267741230712296 
4.103293123792575 
7.395240808407363 
4.993202524747289 
7.241769738008712 
6.154284814291816 
6.958039302858273 
6.723745944185219 
6.637778705184239 
4.8728741122063255 
6.319493755693286 
7.357869367101171 
8.436756213264795 
2.656676480725044 
3.3762954524861626 
3.533096461191652 
2.4551116174160326 
2.822613434577151 
3.4158859855872454 
3.310763766737911 
3.35342149343961 
3.064918185000936 
16.213070474252422 
15.864697446804161 
16.38394853324964 
18.335706518600244 
8.677969997546228 
8.704020667417579 
17.183259834966965 
17.67153029685101 
20.135561332112495 
17.450062058706944 
18.276314517117353 
19.684331697589844 
12.244652585307099 
17.33050812026327 
20.742670347643152 
18.626214977644068 
17.445769989773225 
2.865350007076974 
3.4220592957133493 
3.26313390710584 
1.490062023547521 
3.33659003127365 
3.0590786772453225 
4.1678394028249155 
15.674962107746573 
13.751974242942868 
12.67993789891863 
16.502489991786547 
16.883570115722108 
7.258937221704013 
9.229890872027816 
8.033771591089216 
9.404366124197594 
7.465116545742426 
3.938875763156442 
3.5491480404125033 
18.728547148794192 
21.971371322144325 
4.337400762442532 
6.695210108220851 
6.366855663539647 
3.8499281387398727 
12.597225735636979 
6.882359361754007 
26.772228652480596 
26.767159790889554 
29.73096740945731 
25.285910939688225 
28.302215768156774 
23.175686102372566 
26.998374419523895 
20.814841549225303 
12.52060555604734 
25.194091214991513 
21.41543284660767 
25.042765670948846 
24.755268871964873 
15.262713694683011 
26.16881322749015 
25.307711088464913 
5.322599826948712 
5.943242493505968 
9.919268354955523 
9.415538678617033 
10.167769397708557 
7.5914212090939115 
10.480744456786343 
11.759193154842672 
11.23804701815512 
12.642405945155646 
11.332352677836138 
11.437184134634702 
12.80362263533748 
28.423940022941732 
18.328479721411618 
7.922576744140042 
26.80090927914837 
31.412171492740153 
31.192398514626717 
25.607080245124134 
14.715808881046787 
30.64017483199006 
14.684217005327032 
17.192387028484085 
23.462304646047595 
3.891519560298498 
20.29726343665247 
19.1972948383662 
23.539760555400125 
23.231907565516515 
15.401014963631033 
12.396654572444069 
7.290650057932215 
4.758673745820826 
22.71242078445939 
22.63531711454016 
12.144765179855726 
29.540570536826692 
19.912356390666954 
19.017916400012883 
24.53338214218227 
29.691790272680493 
21.10485060479477 
23.482387622827513 
10.106541797712252 
6.56470653836336 
19.988820879283857 
20.131534442632173 
30.58757161550929 
28.59053397371614 
27.352163755566114 
25.612066573003425 
29.97449609165498 
29.577199164684398 
30.90815810471976 
29.288154066467968 
9.387416525030666 
10.803450694052026 
10.721685972380815 
3.2289720607162367 
11.144274443513668 
10.999730852624557 
1.5489754662311213 
2.0921206645656367 
2.9933557623171856 
1.7235844019940676 
23.08332076156517 
30.857511074346533 
17.311968566419157 
16.854175522417947 
12.384227380762148 
22.19469952838386 
25.79779208597725 
18.261640777146486 
23.60647477224598 
15.960296759884155 
25.956601453310732 
21.17000373695357 
26.311676143473367 
13.853183575451846 
12.688938985963292 
11.660249163690311 
21.281462307852074 
15.12589967848188 
9.142299814371686 
14.026886712426636 
16.41748526009315 
8.838851294541653 
14.009685369643393 
1.9753071300481333 
1.2300512279160989 
4.410601965377173 
2.430460388074911 
1.9830535307236181 
3.4864174399762713 
2.2658062647702484 
2.237332628720469 
2.1352244080458744 
2.082219229651617 
1.856491955437457 
1.2042707530359766 
2.013880127871665 
1.972190205572721 
1.4272138107121604 
17.674275960351654 
21.44841177342397 
17.082092202893342 
19.11792473632084 
16.29329367704427 
2.917528151767342 
11.416000328455365 
7.2209240331691396 
2.187879824611813 
6.106999112732093 
16.52086590273844 
14.172155259343773 
16.954164584444847 
15.653349848281056 
14.235371249958142 
12.357449408389757 
14.481396959215044 
7.345324062424499 
6.286047201752309 
8.039920215292305 
6.809523242453641 
6.407449714076613 
3.4412651503647353 
3.583078911133107 
6.30900438073795 
7.965050472044663 
8.654090322056732 
3.8706571644806607 
7.143484833525972 
31.109689045185792 
30.32134840337526 
26.516709590260746 
25.14218018723849 
23.564133476949774 
22.383857964016478 
23.102685542500044 
8.86068207408184 
5.56372064761267 
6.305931206487334 
8.6690947281839 
5.355476433848494 
8.733035489987497 
8.550885418140652 
11.667368346137865 
6.9634950707861565 
3.003100479439935 
12.182780625665611 
2.7979544915980084 
13.88873772829339 
14.358801214503874 
12.908047539101863 
6.7862516351688695 
7.675122804853883 
15.36078000206153 
7.259997202298967 
8.297949407191808 
7.759595728263698 
3.905992715656311 
5.758678968877224 
4.892830663307371 
5.923214880717843 
5.567539308750839 
4.432684418476875 
9.135123222333016 
2.4117745979611303 
26.890471018223213 
3.7335778794886663 
3.3565670751786167 
2.6809496233576766 
4.043438812889445 
10.039723473148042 
24.756481799105625 
8.4556419936993 
3.535378214802205 
16.501959411067116 
15.897900264381224 
11.312810723700052 
17.48577226127292 
5.154570121394291 
5.042075572242223 
6.763227602301838 
4.369171191169989 
7.36885709506354 
5.637006823126441 
3.1414253044953244 
3.2757962820576236 
2.6022473516544316 
3.063461522507481 
2.7332173042229493 
2.9226387978875152 
2.476890370335504 
2.964978979750789 
3.4168806298787797 
2.8364549552412064 
0.6822439695447038 
2.4141830907143396 
2.2731534221208434 
0.9846573971001971 
2.7844568027552516 
1.883973571531602 
2.97185408427501 
2.8580866916416054 
2.5188413562956002 
2.2758563580155142 
3.27774174964744 
7.568992893778305 
21.042487747966526 
29.271120872406637 
25.12913446451834 
20.372765410391857 
16.776237807704604 
24.877921648641568 
25.113295213214855 
3.2776100652688585 
2.5711589075438295 
3.575382605120717 
3.3639098732684136 
3.3477336803174933 
8.330302095790412 
2.9919090847286745 
2.893873574025413 
7.655063004265865 
2.5812455841504605 
1.9942562322813708 
0.8178585586850019 
2.834236538868812 
4.5412162093110355 
27.70874822417359 
31.587309148255738 
7.9412379111205516 
4.30616864175661 
2.30914075894075 
3.70478796982297 
4.582967260746049 
3.984967422288055 
5.3740235961341885 
9.45680557061162 
4.23406333685122 
10.973782333773418 
6.010004999784475 
2.599050642782844 
3.011214822419249 
2.783135105206096 
2.136902391493865 
3.634575419789268 
2.917372799541983 
2.1839585928080187 
4.010503939166761 
3.8024793756657216 
4.716615454813792 
3.5075792267178816 
4.389857564963538 
4.053714314114042 
5.281128441270216 
4.516789431680951 
27.54864335590543 
27.14116065566875 
18.094999997723615 
26.41931294033395 
21.1413092135026 
8.538387575497948 
3.5486687476644803 
2.9168325458534357 
3.3195215523015875 
2.8506816729155298 
3.153864946708089 
3.1892949789467675 
6.873838837775601 
15.965457448600278 
13.88996327455291 
8.239591095420458 
4.740426406900092 
7.648920596846782 
2.525900928434214 
2.616273318971752 
2.42816172084812 
2.266917207919172 
2.63114283276498 
1.8295411696257367 
7.09488980763647 
11.757409899561262 
6.806299930570923 
10.024608050517545 
20.54169233956335 
24.188070788060838 
8.962937654861197 
8.970873599994265 
20.845738270408212 
20.421841686076615 
13.362532107819483 
20.071089619229333 
10.292216422869501 
14.102180624073997 
15.350722828314085 
9.530313029129614 
5.368719206203307 
4.550211416608623 
17.91402323483976 
6.23114466503319 
21.430759119759998 
19.687390441627308 
5.809686061654409 
17.632468276700532 
21.341001926988493 
4.261953592877919 
5.127349458008807 
4.293179989407931 
4.486171932960316 
3.7559404177814626 
4.595888607142977 
3.673596307666895 
2.609218624341503 
3.008244210226427 
3.311325844059254 
3.399797708667277 
2.213669814696923 
2.097892758073329 
3.021626014634643 
3.349505002574516 
1.9623504311751325 
2.366329432503026 
3.4624688559716676 
7.62996296964011 
10.376902214293496 
5.79026172462436 
11.694341525622322 
13.962703045870638 
14.408159835186533 
9.877422809071238 
4.249525610250722 
14.710188837120509 
10.640068024922243 
23.250833457347383 
22.78200839119483 
22.32187145810888 
19.261564249453112 
3.7745494980198044 
3.181519044622979 
17.182974969108578 
20.302379026108834 
19.152044891887783 
19.3048865202823 
17.721993349728784 
7.385281989252672 
20.688378318377758 
7.572001953627478 
22.874269787517413 
3.5413719248125255 
2.784962936765968 
3.274020937457907 
3.2616228066527992 
2.993953858276688 
2.2439076767413932 
18.268329285208 
11.669265580723486 
13.767645983945815 
17.002316406372383 
20.732247455284217 
12.504725949504275 
7.234226518855588 
16.90918878030902 
17.499402626229305 
16.645686351125658 
26.349519899349676 
18.307444796978363 
28.612022935050625 
31.296394822768203 
3.2372739550241634 
4.5368728450959095 
3.7441237599319614 
12.843816582378459 
6.473006339080179 
5.8357298533866935 
3.55615502579604 
7.525281511558735 
31.373540607876826 
22.164870394615043 
27.493583436371267 
16.86285854815547 
16.011299931399837 
4.906534273312526 
30.240699746427396 
27.13775906914483 
5.613608196107988 
4.463092407229821 
3.5357157769313274 
7.313716857005212 
3.937407776865598 
5.647674957212869 
6.490630203065278 
6.328571927472162 
6.660953400605055 
4.611716472660903 
3.3351644776549163 
4.665722481430721 
3.064057813555996 
14.810864317865382 
4.334131707105548 
12.118518001232726 
3.8411736709363784 
3.856883798996967 
4.1026026755900915 
6.754608983136979 
2.2763780466860735 
2.911828912625349 
2.3637172321452082 
2.977440606271555 
3.266234192842697 
2.469547071160925 
3.167290386115985 
1.9766237274808873 
9.461081365896243 
27.112237808281876 
22.280504281721925 
10.471639470273772 
5.725677632424621 
4.805191213917301 
19.90300222535767 
15.632858112832931 
5.664173785178096 
12.574869945514665 
11.750573988016646 
13.481734913654432 
12.240706535652787 
3.0159412052764543 
8.087770529027233 
23.05157704868065 
25.409621559697186 
8.41998750448373 
18.220725253967466 
20.236946678062743 
20.614049809611622 
22.493213899104106 
28.40852589681959 
24.788687960018216 
27.114859128093862 
24.435986353171547 
24.17710042930248 
25.28301446751239 
2.66492262977504 
2.192132906611843 
3.118125150808274 
3.4942033729207087 
3.0362460199553865 
2.419462721060547 
3.4400457056058684 
1.7011885715367925 
3.6790239699873424 
3.4594745937812683 
3.593770953546674 
7.515919180665304 
6.6126589367216315 
5.2340263927808675 
6.837568270505665 
6.079797678073946 
6.2908008553832975 
5.298137132054512 
3.29594449468929 
2.310880428382661 
2.3255042292239114 
2.2670488167296585 
3.125531012096484 
1.90377310575789 
2.24019612672203 
2.8033710692638554 
2.6788156393135516 
2.5159296881523887 
1.843171215924542 
1.8758626580986135 
16.979609308992547 
24.673165220728983 
14.223559367385638 
24.793876200256463 
14.132705885582846 
5.063173262789289 
20.979453223672554 
14.788584043497297 
8.327023733655732 
13.44598730277895 
13.839036995815102 
12.139905527527514 
10.915055803527334 
13.841697568425344 
7.901868263191783 
12.60706990404342 
14.1030279927932 
13.217091545623601 
13.470269723512551 
25.882609962130932 
24.89922312556891 
24.530920408497288 
29.272343730994344 
29.20407940787943 
25.728659251864112 
19.951064177783834 
3.19057252986926 
3.3345474480508464 
2.976886573542574 
3.3656388519078413 
3.3100409338944607 
2.9826838410036123 
2.776170093061028 
3.4503882184701236 
3.1571956325554007 
6.6664168022161325 
11.313607939237395 
11.677948413730958 
9.997949587881696 
5.446263282426783 
4.709612762416323 
9.890951262926354 
7.979975937381323 
5.071249760142957 
3.017343825590139 
2.285582347355982 
2.123045640554565 
2.2837992692710203 
2.4514945328012057 
19.353018540696365 
31.893211128907865 
25.6951094282875 
25.95452797388634 
21.2643432769611 
27.193086853081695 
22.786342401989998 
22.99654951091317 
25.084310994565836 
22.292599922487774 
24.21852793029817 
26.83744765882932 
23.815811484678743 
23.688921880669 
23.809518245826553 
20.87213210677466 
2.051968201411723 
3.454712946199412 
2.5378813385055077 
2.8443105605839434 
1.5986693110459163 
2.193989705566232 
2.6569969523876953 
3.0943967092301072 
2.909555205096131 
1.4655647999296268 
2.103621961463548 
2.143301079040951 
3.272214696765332 
4.164635545065812 
7.919005403660426 
5.848193087586348 
8.494909625061663 
1.920604476699377 
2.934507109133681 
13.60562136288776 
16.34550482067896 
18.567723796318795 
13.447975953892628 
11.992247623884102 
3.015010185413562 
4.820726915449271 
20.743957525476002 
13.523421953260783 
15.24412954732838 
8.779325494741808 
18.518036537544976 
3.0707142878939835 
17.983718729253045 
10.520419826799953 
13.919378265268321 
17.94234553030635 
18.225996851173154 
8.797901915094991 
5.5834335529036485 
5.684016381189699 
17.20032675579543 
12.884269425560424 
13.387934460134572 
3.5439857029483584 
2.007053114907191 
7.485981759830862 
17.16395118254853 
3.5401911123627006 
3.920067281646186 
4.8053597398498615 
3.892628621645387 
3.3560503937250834 
5.237637817249393 
3.6028592552830854 
6.676356548459692 
6.032019365956868 
10.38022937196136 
3.64913256974291 
9.033223255883614 
7.081691488416882 
11.496758213318255 
7.039260391427004 
9.592511405185544 
7.90823154156222 
11.501618560658892 
4.975213866828168 
8.788870334827621 
7.938261383896628 
5.4697999415069924 
10.653461693300384 
14.694916365236994 
14.081903294455262 
13.38342019099662 
9.52503194753289 
13.8388668804146 
7.100888726695193 
10.45072898018422 
9.894248098154517 
19.116052576616575 
20.653731964787976 
19.11085877675687 
7.632008864514814 
4.460866255030685 
4.627760104284307 
4.673281435039662 
5.031182896010765 
5.6280042294066295 
22.920152817782377 
10.88803149615498 
14.45061715868096 
21.98777897234037 
22.96482548898197 
19.965398796016117 
25.60082069121751 
24.88012655107278 
5.860871663511433 
25.083747880198853 
8.564489664632536 
9.067330520098484 
12.220213862647723 
13.623783306075675 
11.669378199505838 
8.772115627998307 
9.988135231458688 
10.17561657269928 
6.661173326529175 
7.33110101427841 
12.043896761976088 
6.945352129307487 
8.653556311037995 
12.5284313271972 
7.626061689516318 
17.843975962750804 
15.748021424923355 
5.861785583200401 
26.281342104959702 
26.291918170862445 
13.11733719071887 
2.8708202917701473 
12.624874338060152 
11.971344969506426 
19.65580715399683 
19.973326002895906 
18.589564651505942 
16.67273241749834 
18.51228812382762 
17.9757118356266 
8.567356960084334 
16.030386353989165 
16.52213771166735 
14.301944662459999 
9.861054604687528 
11.6805442539956 
15.678055286063596 
3.464221429051648 
10.725091209545436 
16.064945721726133 
15.3825035677251 
7.304715268477375 
7.038930868577838 
18.31531939737144 
18.99112686568543 
19.946752381359637 
22.968051221952845 
10.25864575622687 
11.824052163316775 
11.423391632867844 
11.23686496573197 
9.678769930277486 
11.144795810844617 
13.485656670477931 
11.886357440764696 
10.950197822894642 
4.343492146860796 
3.7841341866130156 
5.138263657521559 
3.567941483705434 
3.74165585022014 
5.497248581539048 
4.176046581884273 
5.4134476592785115 
5.8697061223961144 
5.316364037025655 
4.172582879728267 
3.3065266597190592 
3.1670869983545367 
3.4660874603766225 
3.4505678159629554 
4.906702079815264 
3.61428421454539 
3.15306959523593 
19.298067487683625 
14.289042232942474 
13.600386419623728 
9.52688713436695 
14.869483420144077 
16.508107779803407 
17.195024029641775 
17.82859296931929 
17.975268265172602 
11.683042288954965 
15.285159700741264 
17.291400784154558 
15.328204924454901 
17.967117118504426 
14.999104064833652 
16.068823135070062 
12.408197315451018 
16.38574252328358 
4.207251669443467 
7.859199329174059 
7.691927821103918 
15.021701338748088 
15.460254736062748 
11.972930056938287 
7.675752863752118 
9.257581053610707 
10.269793495572221 
21.14326721788168 
8.545094493409717 
20.138699210083345 
16.974687760991216 
5.108040521390184 
18.680837790454845 
20.71152295190649 
2.6561037401517313 
2.941103594991232 
2.237714854137591 
2.045545303617222 
1.953645485304211 
3.5876720591460067 
15.389625283272972 
11.75694830148628 
6.659192583426156 
3.844258021513642 
15.93275738150184 
20.14015587140978 
19.0319068196011 
17.53754916631328 
3.062554020791798 
4.859280346221316 
9.050657175020802 
19.67905405375923 
8.335240561042657 
20.81862966152148 
16.838020361230857 
20.74142991699778 
18.255771131674834 
17.250037211038972 
7.751985329770656 
12.09816051913532 
11.814687685673707 
8.441619022687389 
7.110556703774433 
19.01845211468601 
15.836461768070663 
17.60741043502064 
17.105047651963787 
17.874005989142777 
18.80720963217133 
19.441251696571662 
3.8800064830061194 
21.944278769645184 
4.959888624438916 
5.063461575688904 
4.385484842515206 
4.872132462148689 
5.002671744179559 
5.729532536176935 
4.47117069601057 
5.577124204006347 
3.501537383707351 
12.667488479927163 
9.742797914958278 
15.223355346768004 
9.502574566102167 
13.146237916588708 
17.467890598309392 
10.545531745894836 
10.691298110546027 
15.976039888101038 
8.310878504815221 
6.99011509247413 
14.150053985417859 
13.233957515095147 
14.330467891290166 
12.238144154915025 
16.355754681348216 
13.948119139313157 
13.65831311361403 
13.251367825680553 
13.816410423777938 
9.60138115436919 
13.262083343777086 
1.932859035345504 
1.982840939509142 
1.822259014330862 
19.414632954481647 
18.64093752448196 
21.466237677012757 
16.349842521884693 
9.14218443591291 
3.0081925322522625 
13.632162009821448 
11.824845697014155 
16.40486827070553 
2.713755964770686 
2.0444903919222392 
2.864127507709809 
2.510837306384609 
26.33431777226359 
8.424189077555507 
2.4667573720234195 
7.0221141760620664 
27.027803838865378 
1.2392000701620116 
30.727368270683783 
26.581462875400575 
4.454610423838323 
25.434961003318662 
30.16995263944815 
6.542772851671765 
19.691776437865855 
17.660482005396307 
21.160772862248745 
19.771696854266366 
22.578820848003136 
20.047599725047345 
19.806157933148263 
20.047612510797258 
19.388159707358504 
17.424995774035793 
19.912921538840113 
21.545518660959505 
19.75710301570153 
5.112242478811721 
23.109864359305444 
20.882286452083147 
17.88933442604889 
12.892360039287796 
12.881864474798316 
8.135898007728832 
12.579785162292412 
6.719666502510117 
7.380009703927346 
3.9335890857026046 
9.452866722769608 
6.1327542367392205 
6.778247257574337 
4.503880239981871 
3.9132601989199896 
12.90423827886657 
7.143729997738015 
4.654499887731181 
13.832096584626075 
3.9951989313736016 
8.685924456614089 
7.217034250338299 
3.772855247687597 
3.9974855516017436 
3.3100310362388448 
6.4705087872777245 
7.266994870905766 
6.143810960098398 
10.644476130745353 
10.34360302029402 
10.460852169263626 
6.124456476438627 
3.5453184113522425 
5.427353925592042 
3.235340371847938 
3.920229256236994 
3.6562328874188204 
3.670243198634889 
3.548739864610715 
20.766922263577445 
19.557041387548352 
19.092057257561912 
16.063651168165205 
20.415024661326626 
25.18575703441008 
15.521114530970278 
12.572236549458786 
12.120401599596606 
10.793207413089252 
12.620754856212356 
1.7160037561734582 
6.387874926087361 
5.9330111983214575 
5.793460360343404 
13.309364329824552 
14.393555020387245 
11.680249959663778 
17.02413888476873 
17.460581283955218 
11.83899999499828 
14.60876445934364 
7.515388151059281 
18.269947083624764 
4.442993001245575 
4.485137445733381 
5.308777023561878 
3.785153894637828 
3.4916330056319835 
3.557479202196445 
3.3015249067488783 
32.31898084654233 
30.912697901328126 
25.744039284465707 
27.403641617871106 
22.896649666001956 
7.333104332033054 
6.957183805546535 
4.854560250791165 
6.758260244387798 
4.471508057859149 
5.741498585029926 
4.879920246692162 
9.949474128181029 
7.756940723384687 
3.9763356857508296 
2.0136861248643014 
3.9895051193504574 
1.0341874813770764 
1.8010776273338147 
2.372331907832705 
7.482518693709619 
7.785684204215851 
12.115559757472926 
24.803969941291772 
19.278860729567334 
13.804766504287578 
1.9823026416583698 
27.45202701178261 
5.709331620691284 
17.205308769506185 
8.381334032858213 
8.219036613205459 
7.567389644435522 
8.341021729978907 
18.2186039190082 
15.59793819827701 
15.665070148754054 
7.364638312274845 
6.63269803343142 
16.117281581109527 
19.141841005075126 
12.815257297735643 
18.478877621819024 
19.627698701518653 
18.454609239945167 
17.705491346421752 
18.255039747637735 
19.117404038071573 
18.594314029414008 
17.98088519770599 
18.299031376647676 
14.635768790743205 
17.182359421682293 
13.726008606684003 
12.145160882420283 
7.082480938443981 
16.273415569365582 
16.523544127177093 
15.811657328575551 
15.563561464821069 
9.405883021583959 
9.21853904731363 
10.099554222123169 
10.257636456969442 
15.917612864506712 
18.54943711330306 
19.078632204648216 
13.827675836073961 
23.284766535591142 
22.831512476649213 
20.02071838793033 
23.93886471475158 
22.364077064546994 
23.579129437067863 
12.880179115923514 
16.406712709017235 
10.81030436374802 
17.189198714982716 
23.00386588184061 
16.29275084813001 
7.25180739060767 
3.5802936910004592 
5.60782224454854 
10.690334716367085 
4.864484654614311 
30.421824881158248 
7.350961980414817 
27.395301292625142 
6.1149663958872065 
15.975229625245825 
17.610984664598597 
11.695911794907355 
26.819363138478447 
26.151533726909772 
18.480204557212602 
18.243609955575835 
19.423980775376236 
18.94343284026898 
8.416965286998813 
20.40104699576616 
8.681410042859477 
9.895635321490149 
4.828585784385992 
7.975355195196567 
3.4873931043601525 
13.89846310989184 
17.900258080111655 
4.658993612305475 
3.5784505151844006 
3.266589030663453 
4.38728883841574 
5.277408761535425 
5.101638717414675 
4.2515794835867275 
3.6936265858753123 
12.395430304107848 
15.653439397403522 
16.40540928111426 
14.636196325764814 
14.338085995878188 
14.207057551393637 
2.0584394691658994 
2.5202035909382654 
1.7012320921096038 
2.7339499216928442 
1.6308967664887224 
27.576215859594324 
23.85974206208673 
24.363653864296467 
1.7170565848843304 
23.757629039033805 
24.112794506469168 
6.266064146386673 
6.750283902032033 
7.569756971837571 
3.7313920608588846 
8.104957418693937 
4.639093767750232 
4.823470157595836 
25.550506294148914 
25.813098547112833 
12.773363820737911 
10.819646239485783 
26.096383313452566 
10.071629666269256 
12.863522289145656 
12.827770152399857 
9.595846895149712 
6.672519808640361 
9.797097876739329 
13.645334006833432 
7.276682394181095 
18.79098335460838 
12.037166902250538 
18.421105070118713 
17.322680786013805 
13.249299383894828 
9.128497530956412 
7.489823329559448 
10.824877120309502 
4.659618911557995 
20.627244663566707 
19.337736371891065 
22.822534741949536 
19.46425408643223 
22.482289289488687 
7.942546848035297 
8.528984603287762 
7.965367010002346 
7.4061169528079285 
7.490186019828352 
8.757812763592577 
6.773649810957651 
7.426623233730795 
4.885959305388361 
30.23640612554013 
26.49212881357523 
21.752264343809156 
12.519906659999537 
21.196416267437755 
10.470944691313544 
27.683145933870243 
30.770045797429198 
29.602242723830944 
3.9817777084036945 
5.510273967035477 
4.535924247261008 
3.037222123257929 
3.0991204039134286 
4.086314313570206 
4.665370893035966 
4.8193021336608535 
4.549392337737326 
4.351751079378955 
11.083089742995359 
6.949320752955214 
2.035033589908648 
5.208879183476798 
4.1812799527761575 
4.021280755902459 
8.42134603322428 
23.690885715281613 
18.140034038861735 
21.662735041439838 
16.923535222724325 
2.642829635927432 
3.395640245490714 
2.1415982796619875 
2.249822194547401 
2.831665316383779 
2.683440936862804 
2.88585573706279 
2.034187289033648 
24.970193405378655 
22.12347059957298 
21.843577253855646 
22.127488760561295 
21.83708456773372 
18.15405008049912 
20.560417119583708 
15.844916123920742 
15.680538429537933 
13.757868845802802 
10.659274375383385 
14.18544681105553 
22.29403875362309 
23.10486313400211 
15.552422401591977 
11.055743631764336 
9.522064031863767 
12.149804875096489 
18.277790446511233 
3.6634722578109504 
2.3949447031676536 
1.9035927539393867 
1.628621490538718 
3.9545250887820047 
2.88117881606925 
3.102169124998841 
2.324272429025924 
30.696888083818965 
31.50549469969905 
22.5459280375121 
30.44287683950527 
28.94736536277542 
17.83786928650782 
22.77564202853667 
31.953567492265215 
28.672764242295496 
23.881889465662276 
1.6217591571305348 
2.372689413438706 
0.9254555562941438 
3.0739069001765227 
2.9111942892572626 
2.342167214680294 
7.261746265754642 
9.662421841744912 
10.923408346806223 
9.497195732759147 
6.776752578132325 
9.74260724350427 
10.725320365353038 
13.101498885365022 
2.0087217467263647 
2.454974000966676 
1.8505539417997299 
1.8421321372580557 
1.7555124659737387 
2.5732736758560684 
1.8569096325039538 
23.424244710537746 
15.612668179240401 
21.470571492607316 
21.66200694014479 
8.20034459793687 
25.429016518575853 
16.837507586135516 
29.672595273961363 
10.003519240448941 
8.378707309476232 
12.197149452889027 
8.125493536412803 
11.128122157399103 
11.016946780978495 
5.750981699732026 
5.9143145209406365 
9.827110149013482 
11.01314479368049 
8.871011276911306 
10.965790051014096 
4.920275665645988 
4.876521803999491 
11.178452379372233 
17.977939400116817 
19.520068748914763 
19.35458208125038 
18.41170481897168 
17.979297100730435 
21.413436252921105 
21.469954989899566 
19.7858187110147 
18.26784192113915 
18.587289028998782 
18.63467947760788 
3.666777198201552 
4.374168974252515 
3.0446211997777453 
4.601761524706347 
5.683473610431648 
3.6735083686641223 
3.9700165935327987 
7.223603051462998 
4.6954135569378455 
3.223291266336938 
2.888902033278868 
2.5187406389729112 
2.6095778986014224 
3.7671849461707385 
4.0637115945942135 
4.1684437767899105 
3.309440668994862 
10.569946145637838 
11.310029363201423 
17.367537151065356 
16.85473867891785 
11.115689148354146 
10.607118460767074 
10.409843257569603 
8.70518816749199 
9.191690559984782 
9.811282439207293 
15.899776052589397 
11.502243011876216 
9.242466893020655 
7.505517245297311 
9.95609465267301 
18.31362151051436 
11.40113318000545 
9.885526789924654 
21.006910411185345 
15.102647246175009 
12.682708443258054 
19.47094613495511 
14.241402248957689 
19.136410698682685 
11.626053276951406 
14.16345015130397 
9.700305148376641 
10.111578251270767 
9.587255363424788 
7.959974320345897 
20.54922876494837 
19.762948412768342 
18.014156252322728 
9.472434997915293 
12.4309624525992 
22.966566732721233 
23.266559858009032 
19.669167337523763 
14.916350942133038 
15.697010150978585 
15.006549574238864 
14.901958959966013 
17.52819536658027 
14.765632336680227 
15.386965477318359 
15.615566182091225 
15.620852565091386 
18.68010397903579 
15.102067587426845 
10.196270179011163 
15.981974330856056 
10.030855393032494 
9.463656738205232 
13.142732298530552 
12.174456032847175 
15.91245328630853 
9.030118922572452 
17.543383700873775 
9.692111422998684 
13.40882167599611 
14.351859212132158 
12.711821185921698 
7.370416209692732 
5.155904792512524 
3.62130890622227 
11.996639319433639 
3.68892537178608 
11.553565125553302 
10.386115937943563 
3.330325273421834 
11.903019458551343 
12.409922924630148 
12.569130842735367 
7.265458427906719 
2.88619568663251 
13.387496745674923 
14.810772536181345 
11.828692016789994 
5.1996239407808735 
17.022194016253668 
26.53239536690586 
13.86959386372539 
23.191098087711666 
22.060021529219053 
14.56779930124684 
21.794795879551877 
26.541708332636844 
19.07487032983334 
3.0983946967018534 
3.014812779367218 
3.1921973055808226 
17.475612820700903 
22.51716542693908 
12.517137513619998 
16.410056183605217 
3.1143446120726495 
6.490100563888555 
31.255622296007353 
17.91810459123885 
18.1132313860368 
14.146148079419115 
22.383972795093026 
9.415343255674983 
19.793074243204238 
11.234119071722562 
19.2939281247504 
16.929777334113385 
4.833003080324292 
10.49024960542589 
5.091355523153097 
16.21035439277811 
14.76645869598828 
4.105010237277387 
6.428778116562041 
5.652608470646978 
5.085050923619251 
4.285606732051332 
3.7535091021601827 
3.9203960590018077 
3.8180056423065833 
11.68103111607774 
19.631171716185694 
12.011803753147245 
13.271817462069556 
10.741068961177248 
15.51587027359568 
22.21279364084599 
23.34255765794103 
14.308416112584645 
3.0339206329021566 
18.47032214400977 
14.37588333081422 
9.789322981735056 
18.460454855723917 
10.46464036099665 
12.174943469044534 
10.135687476100289 
17.270154728461772 
3.0662365047243414 
2.9399883344936146 
3.191894689373799 
2.5821538149397756 
2.7984875172902743 
4.036937902666821 
4.90497976194776 
10.625692253691494 
2.949580959551093 
1.767130243945131 
11.200493715341771 
7.833861345999578 
2.453745013050508 
17.097307015756577 
18.328997038326122 
6.7496440891272265 
4.315866233100526 
13.133562312197654 
14.661111936683913 
12.07133858025678 
7.659209018126255 
7.290780792735652 
14.252865074189533 
9.945741155989156 
17.759965725649003 
10.010270295087322 
13.006637146763987 
11.9670900653748 
26.686654517066902 
16.50130050098697 
8.926256151049074 
9.906256383030032 
20.72950952778072 
10.60328300088141 
24.45450463022737 
19.708402305265196 
14.342727709879913 
3.1249998908783234 
13.654783671153853 
11.703047349895606 
8.75363738989079 
9.054463867699361 
19.284398226689223 
20.242972028786617 
19.359162947815637 
19.561516312789834 
9.895450280927555 
7.269070619696166 
18.52787740067997 
15.367920873650837 
16.744997783121494 
18.578443439930588 
12.550041176551508 
10.856795967455438 
17.165141853220682 
2.6181239486062764 
3.2808420546762007 
3.1411236233364757 
3.371825505409769 
3.2515679115454654 
15.050785712201131 
11.62285397263206 
7.312764766232149 
15.30768384596542 
14.063572497571574 
14.089021401049623 
16.030306904083215 
14.657131276503321 
14.598596864193059 
12.057870143182372 
18.982886617098472 
12.47811722536677 
9.378340611377554 
8.208105910983356 
12.284685169129435 
12.690063033675433 
10.499990809155088 
16.868816046373023 
19.501434499261535 
17.265712975093322 
16.988939475712538 
16.741460127849216 
14.054128573094717 
9.693263152979666 
16.701064321963486 
7.8511043960573685 
3.9777794843890426 
14.979456784732822 
11.978545274873639 
3.1512091277374634 
3.384189143048544 
3.2002146888505565 
3.1287878758307275 
3.0617409527635377 
2.486041468764028 
7.392503581451669 
7.820732148060719 
5.749365405611911 
6.889291665607593 
13.918130940840822 
12.121472965922525 
6.358092593612366 
4.678743905554912 
14.349527855495424 
7.941704072326643 
6.33572231827834 
6.387176214221782 
11.788403727350433 
3.1872023304401553 
16.669402862321775 
10.82190660464359 
7.576729773321099 
9.59650938852525 
2.6867098161408753 
2.962213454311808 
2.838608904171482 
3.3146623352870086 
3.4227435782652855 
4.140795392463423 
3.0506712428744396 
1.9043171806185661 
3.5029476183976964 
23.542436731979556 
19.622822254116286 
24.291562509397576 
18.416875316186516 
16.037210177339958 
14.732725020871523 
6.431775310622197 
22.34950183965836 
14.34013066935426 
13.835930423689758 
7.886571675941013 
6.739121169810814 
7.115357553762137 
8.638518786241484 
5.792191219522261 
5.96436851172082 
9.677614026712527 
5.454694278883452 
10.90565217980988 
12.36321562645173 
8.092994129413833 
6.279287409516693 
9.501123752869866 
4.525157433556699 
5.619542229724615 
7.283958541283552 
6.238768436490137 
5.748952542033333 
4.708197492938007 
5.30517421867501 
3.7018956735272934 
10.728930370610794 
12.457528166413242 
17.179705085010564 
12.67614511916229 
11.51098768693245 
15.931314761556987 
15.825753803520481 
14.04207724154413 
13.55204853487578 
13.359912740765777 
12.296548249372092 
12.67964871387244 
11.26243712147893 
14.760057302270072 
11.408428490011984 
13.353546463891933 
12.870653157901833 
14.279901073884218 
11.834814703519664 
11.06819173053691 
5.54626033721976 
6.9059905991568895 
5.904571512329619 
5.942270872278414 
5.685264470815849 
9.592920782979308 
4.450775714173006 
4.978242355520236 
26.85901269803857 
18.997839106755194 
4.095190004819796 
9.536172128193998 
11.032518741906156 
9.863866730780998 
11.643797106520513 
9.369269826055472 
10.33069733296913 
14.461776581768815 
6.64647789031888 
14.642090934820605 
14.144907894362275 
10.921639603837557 
3.140553477282715 
2.8672823480187013 
3.1817076817387973 
3.7821334132301385 
3.3575512211844436 
3.028776792512422 
2.9240076529554244 
2.420889865617194 
3.6724568852728647 
3.3644943122974444 
7.040116225603814 
8.339907159406412 
9.945815741643202 
8.541835747850492 
7.808593880251502 
4.9115348102366445 
4.0827051362043685 
4.344037972705469 
4.750369649183354 
4.213223706623601 
5.43351375222516 
4.486026684010202 
6.1558506678098555 
3.54341423475989 
20.122793095004692 
2.6115967124269295 
3.2232138320165173 
2.8925485375147226 
13.091794535933323 
17.048142847615697 
18.773477242451296 
20.791766403333746 
20.804366539042277 
23.624587936841685 
23.553913070168736 
23.631187532455286 
18.912766951644294 
17.63527090514023 
17.449219916676103 
9.684294490259473 
21.14925623781872 
21.127980845167862 
23.96357515701846 
15.891757612576333 
17.159173738768686 
25.04020673965782 
6.89955669997453 
8.834029800622895 
12.411483234916478 
25.727035974473086 
7.619764543878894 
7.288445937566565 
5.479450225401525 
6.752157808294714 
7.262346565170209 
7.227619667085544 
6.749693252269661 
7.310785592932746 
7.277563115037722 
6.78932594731005 
6.993301837028212 
5.905424914580884 
8.097888125047447 
4.2519657218915015 
4.696213253282195 
8.147739174340078 
4.37314038694395 
7.090678973488466 
5.478124529559471 
3.664716650220626 
5.493057800034442 
6.355391050824703 
6.71781277714593 
6.433854360684868 
6.574364043946731 
3.118693866448128 
2.8190546690726195 
2.0595304404681163 
2.090446315602594 
1.6272580375624834 
15.24870447589837 
20.65239568945257 
18.4200826447517 
17.389569829069757 
20.231372466139756 
20.08291413696411 
25.284267551589448 
24.62694121082499 
24.555036247681098 
17.375225366005907 
24.566414070909104 
19.159482005271308 
3.8600992399402596 
6.25297377443404 
6.104231397970961 
3.816724174488247 
6.313157630130842 
4.136895372295077 
4.276361549807543 
4.263341006098209 
13.320500900185735 
8.613864842470678 
13.963709503218878 
13.861085841846627 
18.586641151353852 
18.688686368137688 
18.30958305664213 
13.073820725000157 
16.635792932035802 
19.786709609455063 
19.194493793065725 
17.967637456504253 
19.167102848973244 
19.144180377114953 
18.584195011712623 
19.187027521926044 
17.929174710126468 
21.196849456082376 
17.23321934164501 
2.5604300997379235 
2.317148926005723 
2.396362326273601 
2.44665199602863 
2.1394075749926054 
2.132810102040407 
7.2627701871054615 
5.294412022552147 
8.64280272988459 
5.770600358947588 
6.4338871104278 
6.945946083577219 
12.213075025448195 
14.001734398589164 
15.187781199461158 
10.996720189372402 
13.936227920714055 
13.872661939366532 
9.793863241292359 
8.922805346822926 
12.766583215439931 
4.989954389483446 
3.406533426188392 
21.68499052265899 
5.491006274785068 
5.181063096874251 
21.33379906606094 
4.431788171843127 
4.510275996106977 
3.0482787778708307 
3.5230484704303087 
3.6542935778797587 
3.266091369392681 
2.9811786472106427 
3.1711872479107446 
3.175453533459377 
2.631029076117049 
14.270290479828091 
13.673738774163608 
25.42657277063513 
14.047522152214158 
15.51845619322702 
3.4696126073729374 
3.8331347548600303 
5.7284034157836565 
8.469206999519423 
4.244472581605919 
4.7822773213867675 
6.453564448302586 
3.7390373342554653 
3.457286233647615 
3.511276348456942 
2.7639990009699886 
2.908013078219116 
2.180261841951427 
2.504837551644495 
3.0743947709012147 
2.683144424281155 
2.779904314227503 
3.2616468351759536 
3.0917725594235477 
11.691966532279114 
11.00577017877782 
10.839121860276968 
21.63728736014645 
23.006781617684634 
15.85579316788376 
8.582389544144757 
12.001040361268235 
24.341027089146326 
2.591032634324835 
3.0782645067441066 
2.075438380079449 
2.8322244147898794 
1.9572664773813753 
2.0857824987868656 
2.2279154294651273 
2.516770168483099 
2.2901997861273826 
16.177221414729676 
3.186337993312105 
7.787220512702847 
10.711160825135114 
10.90630785595041 
14.223173893803725 
13.011908586512128 
16.198060100320244 
28.097909042135576 
19.581092596139143 
26.827883226099456 
14.563438510643165 
6.150232333198034 
24.209663435055184 
20.19796111004552 
11.105861673543936 
20.804724583900647 
25.558713531209804 
29.43752745346253 
25.26486945837939 
25.948702190332238 
21.93333265488153 
20.374918736439167 
25.356345587752653 
18.029567541747515 
16.03455649328457 
12.935707849123508 
11.140295691703722 
15.079883533643349 
16.674879598426493 
17.261736502578636 
19.38669794282618 
16.76147360235452 
7.433676248696968 
16.703572655133993 
7.703276848983641 
9.09086594967289 
16.308168003200667 
20.278830397936787 
2.053816630059406 
2.003411149849863 
1.6604939519799007 
15.504150109617752 
2.546020991015207 
2.3851021989039056 
2.153424813190661 
2.3434108195899896 
5.3221954571771635 
6.444525830120124 
4.719471430400408 
4.642831292455855 
12.537557247478418 
4.762513889623529 
5.109287763110749 
6.308506032759913 
4.166067938094464 
6.693368320488543 
5.533272448264295 
6.101707009767698 
3.4815928550850876 
3.3622793075145614 
19.29385944013334 
3.601459990313425 
3.027123277179983 
3.0682140669298055 
19.295290030011564 
16.266413634136885 
12.993898222047402 
13.44410964652226 
16.70913332710282 
15.602219037048432 
17.18174254293723 
18.578747364658433 
27.31928748454464 
31.384679527344407 
26.75259917089581 
27.161322907692714 
21.738980289584454 
4.5174756102866995 
6.387579252987777 
3.824196072260952 
4.627547054038564 
5.1992097516444025 
23.352702119941906 
14.849020936398565 
22.105778805055746 
22.548341174946078 
26.835424749500827 
24.329474733383492 
23.48290637090782 
24.535014295377916 
25.089146299704225 
27.833952068089364 
23.98385103029267 
22.71055853754483 
21.96436476217663 
23.475054681329215 
10.800674008524489 
11.732207149575528 
12.469300635631079 
6.467629907652512 
17.30166778440621 
16.931691259155375 
21.090161014717754 
22.033996543618553 
7.659469286477155 
7.0795241521863606 
9.694142772635775 
7.128648256686194 
11.114839709192958 
10.619710326930074 
9.114034303411415 
5.154221030684862 
2.9944655425816906 
3.216273115631045 
2.996341742825316 
14.23912456794693 
2.5101456600744934 
2.7523360643082375 
3.328101043162466 
3.352057804859667 
3.2279282699283947 
3.630465091199285 
3.399980137726801 
3.235215784377322 
2.278411168552366 
2.346648725680462 
2.2353270817446242 
2.929262808439275 
2.9761563612215136 
3.092026757090406 
1.949662637700755 
10.741078949539794 
9.565481794692307 
8.854252210511996 
9.335948205442579 
9.182765727966553 
11.449752921205858 
9.90166072924841 
10.523849903694488 
7.0232079926849496 
8.689624292560536 
15.567382462278548 
11.916713017605655 
15.034449321553893 
17.475195300878582 
13.471422158151745 
19.73144770240514 
3.6630940908688183 
3.607410845868957 
16.9574750375411 
16.477684926143574 
2.7876079526397124 
2.516467068541935 
2.3406701821080387 
2.8900935887106622 
2.6829665800130895 
2.1305009040360963 
2.7956260392587375 
2.5583000789378354 
16.00890447422175 
1.7922743197244997 
2.0676284777154885 
3.230977534997697 
2.1567113737181014 
3.6015276652108845 
3.3768673974347494 
26.196606155308817 
27.1587975537804 
27.506698364559785 
21.749730028807168 
27.190893589237938 
27.279820982420826 
25.683688011260568 
24.206233213356263 
26.030032314459536 
31.094488005285783 
31.303782319142588 
26.690919107559793 
27.386775915607974 
10.585462501651403 
8.233404897340174 
16.623314269019666 
8.371565210904064 
10.743237045583486 
3.3369437666664656 
2.1031758286073154 
3.3993260431768606 
3.5853643801544024 
3.4966052407626713 
3.4457530290379803 
27.67517572212834 
27.98372157212224 
27.538146038055753 
27.782914394585656 
27.271047280001376 
22.404917241352077 
21.548093738601104 
18.158578184375774 
23.981788225234478 
22.43793863336002 
22.51536489229246 
5.081480424682802 
4.765850061275035 
7.152421193815327 
7.168680009178416 
6.659794343731032 
5.982252825287196 
8.641667798936579 
8.032685448946866 
19.186960511648326 
22.071622633924388 
25.62247879376132 
17.652733411852584 
10.88919049700625 
20.06224023831426 
26.19634622480433 
16.225505121470142 
25.900921841485232 
23.590733351661118 
20.587325908661185 
16.05948241948963 
21.253043764251984 
16.0838603478386 
29.327880723897138 
24.13371220727527 
6.197835929730715 
2.908733748629163 
3.931303089263469 
3.7958638641756477 
3.718511571075079 
4.045925811853551 
2.9055107803817 
3.721259166101313 
2.200222294135251 
3.2588711387361324 
3.4537926558674497 
2.24753293713834 
3.4113907858484347 
2.3034204779615313 
2.249122519526813 
2.320228721412717 
3.260795613839567 
2.517366507781806 
2.29482267843253 
1.9308751101901152 
14.885360432809144 
2.108175537138817 
2.1866701603520657 
1.950961996677802 
1.1524657553726247 
2.2542293313243595 
1.4680947648542262 
1.864199481962799 
2.187338024397676 
2.902892306825432 
2.685184504350874 
2.8478589714681317 
2.813279100345817 
5.0751386096510025 
6.483342190360145 
5.532297361890418 
6.78343628144992 
6.352675100256317 
7.763510356999093 
8.753184265355447 
5.311966743958443 
7.873327977509016 
7.546317555253951 
7.353850972694207 
21.006255293975705 
3.1274095600535605 
2.95664350595996 
9.797375626443102 
12.096988257453413 
11.693188180243805 
9.44882490613573 
11.559287873095187 
11.600567545313497 
14.139588099786842 
5.260816468308911 
7.103260757790884 
24.11760259383122 
22.4805635752612 
14.987067958182678 
24.815230036253283 
29.26585939029877 
14.669642541435273 
14.48695602308175 
14.24050579337744 
15.05764887207366 
17.668673074200324 
15.174816816869884 
9.201037031731905 
17.331155712831674 
14.924588761064589 
12.301870290151522 
7.6307759396691415 
16.175847059382075 
3.1665000868161925 
15.681043154140248 
8.770067059502974 
15.806444458251434 
6.823759934834318 
6.584437317392299 
7.063957977683204 
8.266157361861486 
6.828111006723349 
4.992531686408579 
7.263516603340395 
5.326993462422662 
5.7168574114935415 
8.498420718063857 
6.7247157977819665 
8.67540801402973 
8.54278599896193 
7.608323207686347 
8.41479605510649 
8.495455639932862 
16.666595441230672 
19.667617118566042 
12.87869524714029 
17.510769250314482 
3.5510150593504166 
2.031466375570195 
3.103275929608116 
3.1485551514384804 
2.8328934481273893 
14.020669578545853 
12.914909715793042 
12.18130562136351 
10.798605697880024 
24.058625983001214 
12.871828466138197 
11.964623768240086 
15.568577101843019 
11.180407420141698 
4.379875371520792 
21.688680343384643 
10.373077233602647 
14.780775380997074 
14.557704707403733 
15.116987202027135 
15.198230081148473 
7.119758333242411 
8.640923112076868 
13.791573454235433 
9.413214503646083 
5.926073008796145 
7.208628291875053 
13.371570405852095 
11.929321264534186 
11.728462897422782 
12.255252052289798 
12.162552929651202 
22.028843901436037 
22.6027600247346 
25.504975658218882 
14.547260825200647 
24.906722999849517 
21.272092731895434 
21.719079469513833 
5.317241792324954 
6.310482896138263 
8.358220954238435 
9.928560168285346 
8.992375798356822 
10.031493810454513 
7.598094063894261 
7.512311754904015 
8.267409101887743 
11.201489630318248 
8.033210716286014 
11.308681425760813 
9.613843938758732 
7.461500675798541 
10.813154990954814 
9.615061701137178 
9.513765071600162 
9.326570580391964 
8.490869187600072 
9.484479808195648 
5.240572221368834 
5.7115875373488425 
3.080916485873359 
4.370154056158968 
4.167242950233416 
4.177586148498105 
4.774205335059755 
4.052721928300457 
17.4851389424004 
17.51359919855703 
17.595803173959467 
17.244966304653396 
18.00054648453949 
17.090305448215066 
12.9715624417575 
14.038646400979307 
7.403221374684719 
5.701142819003637 
7.541660183213472 
8.499166729637738 
20.711201042962553 
28.50421444397534 
36.29233431845606 
20.448680358365937 
32.721793586019174 
32.09468982019859 
12.69130339146103 
14.94233270523235 
11.354286214123666 
13.472574441705472 
13.211481064472975 
13.386283054475525 
10.228537834035544 
8.964278546911418 
8.415531880960597 
8.548284757712722 
2.551214846214628 
3.741549949250996 
6.076659128835659 
15.812434451135921 
11.31639212581355 
5.628490778375532 
16.742165029151398 
15.55011394637802 
15.33913229286389 
12.56360402545794 
14.216109858997731 
5.874873004839569 
3.5814476981150887 
15.320991303333077 
16.792379809875282 
4.003350145198942 
3.805627274650056 
16.78616281184662 
2.9507200033044962 
3.8388912800715214 
3.639236854125355 
3.285352659790808 
2.888707004656428 
11.910931925921023 
12.203021921260335 
11.48322084158912 
13.51428160131683 
12.438931452612142 
10.232083417405883 
11.735977261035734 
9.451870678228994 
6.238506162425752 
4.854547318785044 
8.154877937579526 
7.060896201521806 
5.420231201819792 
19.545642574884145 
8.45986444237831 
7.259234051185274 
6.833337894380601 
3.6062319290551317 
8.498800302455589 
8.981804939971122 
3.2707697998655916 
2.4252706875767966 
2.978404483199029 
3.7995782439371877 
2.4565584412275414 
2.9373128064502496 
3.051912702077696 
2.7008525061858224 
3.927872484123291 
11.962451094386859 
12.152469227315496 
12.069394423185205 
11.39494688456146 
14.113681218462371 
11.901037921871676 
23.302116073633883 
24.126641857613105 
28.41037228203715 
25.140863821430205 
25.47140713939731 
28.1158214662213 
14.903704072383752 
27.753461440493925 
27.917731319038428 
21.658257066394338 
13.401249861926692 
13.549388221890293 
16.394877006221744 
18.356374958848477 
10.498200496397198 
12.315511849539853 
16.310919905691623 
10.778674345161395 
25.000108587701902 
4.342607725195083 
3.673976435377994 
2.8426622092027656 
4.214287124688775 
3.1030456547386884 
3.0087033526607354 
3.596229565217262 
3.263584679684519 
3.589998633215165 
2.757792762971327 
3.3073497202038507 
3.5026314980279327 
3.696982508246779 
3.4779082926940346 
3.511651142190251 
3.287270587163058 
2.7480554831515858 
3.7957622977520207 
6.146396781070037 
4.365942473554077 
4.31734452983293 
3.3472377533594524 
3.2481793909494696 
4.298843470483024 
4.288593736832699 
22.934303931821404 
22.80869978863944 
19.623551193364815 
20.086732461959176 
19.245524093971582 
20.46264713025024 
9.16934395058797 
25.681689033478882 
29.899967779444257 
21.557584546702046 
14.797585813738362 
17.80726511968097 
26.011512386317765 
26.855518271517674 
25.19179934875049 
21.24732179545858 
26.645046250126793 
26.587321352964974 
9.830557606429412 
8.76760078152014 
26.554363532251536 
26.059375141474973 
24.33044947030077 
27.45308760574496 
12.188269454629513 
23.774340139324273 
11.181192785254117 
3.3753519453650367 
4.090749488142182 
12.05626202244275 
7.258713039539261 
6.178285851056578 
26.231719623523045 
26.939215913197586 
25.766278374689374 
16.128094781348192 
15.867918822869377 
13.518557152735866 
14.931804350684352 
15.415146389626836 
12.704402615267625 
8.823850633042634 
18.367473746966812 
17.665845567245544 
14.682600193959617 
10.94032014692573 
4.6167950893137375 
3.8378739363092933 
8.103848310702057 
2.889501430876901 
12.591993477445007 
15.17708265996982 
11.533134901197936 
4.238558840278525 
3.6638633450762303 
9.850774317239908 
9.071153678730413 
8.35395537679565 
10.866221122779892 
9.741443606660706 
10.446665920044868 
10.372626358814646 
7.104728423137233 
6.832979500679887 
3.501862007861356 
4.561821870084901 
5.736525718627045 
22.68989918353872 
27.06452190374549 
24.152287517645146 
22.858240637583897 
25.972525467960203 
26.19762369557942 
22.955595768441754 
14.358324723331203 
23.344982038097992 
25.391556576429455 
22.404465112863633 
13.00714039163352 
22.399369332708154 
5.331162372109143 
22.125310142446978 
10.804826992079033 
13.660130903323552 
21.204447088843295 
6.0704955423945615 
11.860695817327548 
25.783640283930062 
26.16382133350971 
25.399436804198523 
25.928510582344007 
29.602646374942235 
21.371258661288554 
9.952967910627185 
6.112268480186168 
19.256851682113286 
16.236690576761138 
4.866678522729983 
3.9444203092826617 
5.747417301085325 
5.287053552642252 
5.802660277916015 
3.6882126034928966 
3.289136122447933 
9.719647081434971 
4.745633443350405 
7.407604852535457 
5.571989036514642 
6.320499276478179 
25.316937803107265 
23.266340881940586 
29.28702211413642 
25.439471107893144 
30.680491810582343 
25.992701811290264 
26.785522393305413 
25.738054273626222 
15.053266293280313 
13.43941648970515 
7.468449305398273 
14.59355851078085 
10.179594654122592 
9.410602251461505 
17.800588340629293 
11.42745594248133 
28.93416372299255 
28.616928701110922 
31.959664124879634 
2.036640568868509 
32.62410055982232 
0.9585775410686684 
11.283242801750054 
26.489298197124608 
19.187431920584324 
11.369359435664151 
17.246068542260925 
17.82005693440061 
23.678662673104387 
26.2168469867761 
24.731412778087098 
27.67006441676407 
3.4331340115698787 
7.644217725285886 
2.7794604281746427 
5.266394950893121 
1.9010423091971502 
2.0430803317882518 
2.959112339512839 
1.9486359586623994 
0.7942833759329854 
1.8985924905906981 
2.155755713660363 
2.5374921921431324 
10.844920641864798 
13.660712760211307 
17.45817618374902 
5.581033345373149 
15.343165365719523 
25.940730693745408 
12.690004321723958 
10.140572913553518 
11.171952342641369 
14.352242290447235 
3.5914102143583784 
11.632331713265463 
20.837495938084604 
17.960692836005627 
20.698506865012256 
10.806995430033279 
3.1795544916639145 
3.236790114387397 
6.7334242897247165 
5.014881505743939 
6.192580707153126 
23.308910387257875 
20.351304637025436 
20.19893667933124 
17.466237795111095 
22.79188099891828 
20.786889803226327 
15.960362983788034 
17.377518011216516 
3.4701563009612495 
25.926436958044338 
20.842190782264392 
17.04833574529692 
4.822130738372864 
4.737953802925954 
4.0356608825697355 
3.522544038704124 
12.63743359963198 
12.832423642030633 
12.528765951011932 
11.7096581759158 
11.250803272959024 
14.172969250741497 
10.006591398707432 
19.92873379401039 
19.74432154998245 
10.306125290355968 
14.299208367900215 
16.480830927682042 
10.157172209929273 
10.604496223968022 
4.647792452791349 
4.2219410326025155 
4.003640923161167 
3.9834574246825634 
4.669211222454503 
6.546248742792416 
14.953882167658108 
11.841540502919026 
15.524146811928507 
14.980130359429907 
20.76029337544726 
15.106479934404348 
23.70748037661599 
15.290145841208796 
16.011344398643843 
17.08317605259835 
22.57074965736277 
16.642559600531122 
16.391104742988198 
5.049785283126078 
9.566743192565955 
7.911293967537317 
12.053564573671133 
8.971522817529264 
12.35629437658069 
7.506317549036803 
6.906746648085573 
7.3274317365544634 
7.844348294630295 
12.091964668316095 
14.388506774877769 
10.13715735141083 
2.601998060088884 
2.3766607286220047 
3.258002427778763 
1.873523044011109 
2.5843146032650823 
22.163525980162976 
25.991185289419487 
16.899858534068986 
26.320764787721735 
31.50009717061057 
25.92154446551255 
30.30501454784707 
17.751355250054136 
16.859821378135127 
14.83058205819488 
17.706331944564372 
14.916704088956584 
7.142791929943554 
14.994495884845993 
15.280772218560292 
15.81289659515588 
14.196894415820013 
14.786501232153068 
23.64340198335 
11.676684327701482 
5.311891694383974 
8.19737617014057 
7.109371025071789 
12.700281781194592 
12.261176091877909 
11.713012710738713 
6.088171345767912 
10.171599457248684 
7.993412956047753 
9.427054896044655 
7.866646915754049 
8.58441166502449 
7.465833542136813 
9.454742502205157 
11.353216870928966 
12.962280462584188 
26.922990414741196 
14.32365993447685 
31.148184155746318 
24.16374910606682 
27.400875190418432 
7.65210194733346 
12.523841061770032 
12.381792992739456 
11.336320373161596 
8.304931038537957 
8.665240624378352 
13.427889217618732 
17.934851548949663 
17.64514602320373 
16.757850718074696 
20.61838388146077 
13.679037028662558 
19.14281816051791 
15.015827511681566 
14.375193152738536 
28.79827114583189 
8.606358508870645 
16.27372274202605 
3.1134852448167583 
3.051050542831846 
2.8483691334134553 
24.218859734922134 
10.878281704770284 
23.95381268510611 
18.90799003917575 
23.85599928376877 
15.396933627760722 
24.33311922141234 
23.85185852196998 
27.18252888853832 
28.26395566462013 
22.684796385943354 
22.609751201152168 
22.42798330714038 
21.00063967870582 
17.840614051848362 
17.92435814447484 
20.252993890453588 
20.122715203843445 
19.617142956638293 
19.748462099329505 
20.68338571657075 
19.462376730182843 
18.36255187190856 
21.03102542423228 
21.97272382337437 
24.46798991048563 
14.171822453342102 
6.854802872117444 
20.891732347307162 
14.632396239436183 
16.23247778487704 
10.091676594010531 
8.6777223571387 
14.771291768779204 
15.339622274505558 
16.06248194521585 
25.453767516016676 
19.015856197133854 
15.610150386375034 
11.954075545784923 
30.93397555683839 
16.85738584751465 
15.050181874147189 
20.45464665101722 
3.7540104238452883 
26.465139397083412 
16.59480176179449 
29.406984113199698 
27.489026463590246 
26.75154018739401 
4.555317470655978 
17.26220486403463 
22.980797499974443 
30.68808166020428 
2.7530879573143494 
4.96668478242311 
3.4602433683278 
3.397267972064035 
3.809644511599167 
4.799931334581097 
2.61459348505783 
3.89408659665684 
3.2182422034103735 
23.830566727621306 
21.303036457375146 
20.52750521828741 
15.294628096926276 
4.588263189383722 
4.365787486929452 
3.77040699420741 
3.572347222511496 
2.5230694188072134 
4.230921676316487 
4.386693406672225 
9.75619330250936 
9.718037861224605 
5.344389939404186 
20.166785903181765 
6.561692504249879 
9.639747065822142 
9.071781838748763 
17.982893116173607 
18.1226295648587 
17.747720827667884 
21.02590212104927 
19.111507963587698 
19.397511740940583 
17.917738691269104 
11.498183660355235 
18.859734598026083 
11.440275752677243 
15.482492949724115 
18.28050036557459 
2.05085214803234 
2.2818655998142705 
2.232820320541349 
2.4557943930159922 
1.9769807585379042 
2.238917281807519 
2.719399950971196 
2.7243327527401435 
3.827476094546108 
5.70246149326236 
2.5682994135980772 
8.6270584264193 
1.9658616861741707 
4.666168718099254 
1.9167297167073478 
17.696124898979622 
7.832317302098484 
2.0376625314972814 
2.492022037722044 
2.074193300029689 
1.928296838618116 
1.6663159816096593 
2.4512544321217264 
1.6500804517839398 
1.876023743161875 
1.8077575820446006 
1.661980691748298 
2.743888362252472 
8.373369258124413 
8.316392720632074 
10.111255205199946 
8.466264112315258 
20.215373707863158 
8.604676138560933 
7.645551528916572 
25.421789193165445 
31.02114176621337 
29.018068246727733 
25.58983703245808 
12.870428277458565 
31.192949221854178 
28.601042776556714 
32.96047735755874 
24.216991009850375 
24.59138982070567 
21.614795158074397 
12.253794981213323 
3.458877573486739 
4.050308601957982 
2.8600289655233073 
9.53468460713451 
14.477535629633946 
4.217936359352077 
11.898734264738772 
0.9935852683941278 
1.7888167810840274 
1.894056594957396 
2.1611533700191914 
0.7996026336177418 
1.9692610860095945 
19.47305729171427 
20.12353698718211 
19.715241306809823 
22.67282141503383 
26.81233493513603 
26.406565681418567 
26.320307809862243 
31.357467388511658 
26.38825282127177 
26.363091533860754 
2.957007820626203 
3.2320442669973755 
2.798782678537473 
2.929051421765552 
3.0020371356971953 
5.922833221989682 
7.353298637649784 
5.865031025360124 
6.750418820277606 
6.5927792212515115 
18.30122099299237 
18.379221032675872 
18.415700245455376 
18.142588781688666 
20.11395301087869 
17.25339135165467 
17.316045568402085 
17.040848184242545 
14.852672962504286 
6.763069872749113 
13.067603414685212 
18.914973343280128 
5.3664088284508455 
15.205488226865963 
8.028996148185117 
14.766811175765453 
17.602518165280316 
5.485594507804039 
3.9236645243771577 
4.635221878450475 
6.0619547794516455 
10.52848201757767 
11.200714901698914 
10.191238816967429 
11.16131134384469 
9.367511134937892 
5.0366109123393015 
14.566888550645958 
22.4178272223784 
21.83662171836535 
22.78750717823813 
22.309618852851987 
26.147474625998033 
26.764789739576788 
25.871905305563132 
22.83662285355152 
17.358919457138455 
1.1512757623983623 
1.4960350664530009 
1.7869090528378881 
1.8441933202417782 
2.0058371514174578 
2.8874503515702363 
1.2224708617825593 
1.6863849058398312 
0.9502108163876064 
2.604380750538591 
3.9731134948909546 
12.826115039125533 
15.576779487225814 
9.617565444643896 
6.123467404146414 
4.236463160738768 
4.908842224308453 
17.348008805888302 
4.788711544827937 
4.023407315317567 
3.514386324434356 
5.3398795769880465 
2.966362750892068 
6.892145387363703 
4.951318727906791 
7.308137140499553 
6.270234859400802 
5.615066315906352 
8.976862379288713 
6.931683246749097 
7.1294886883524375 
4.683345405164671 
9.909094926419343 
10.960298698456766 
5.016238855666522 
9.840371446937054 
5.92496157362408 
3.3321679431606808 
3.2942310627095766 
3.622486468713842 
3.494575205763787 
3.316845768906365 
2.9810228080972134 
27.21737846659296 
20.612609313633907 
26.58823645179038 
30.764842939881028 
27.21066321981037 
15.78625788786979 
4.24293327950966 
6.35543998455763 
6.866491176510848 
4.2705674621196055 
6.076099822039523 
6.5525917303807075 
3.9282391209588017 
4.232274847065223 
5.678369932811802 
5.373406739519204 
5.026914274886175 
15.267324979264563 
23.079773724654018 
5.247150990306348 
10.466795090452806 
20.482130642747947 
15.302045576019157 
5.672771327836742 
11.091301569457196 
10.243297771573003 
12.444288939816783 
17.17204182214822 
14.126540408187024 
17.819108863940684 
12.634699914148383 
16.51014930930558 
16.30816673510494 
26.944149001006483 
30.100516519825312 
30.369376366065026 
26.42765195361712 
24.780295395120085 
16.76834706350811 
27.279935171734518 
21.43303537121647 
23.988451739419705 
25.02024878203836 
24.25294124084183 
24.075197894021223 
13.92999686096696 
31.093880958778463 
27.28797877561232 
27.849507528235247 
28.266975708798185 
18.84873723212723 
28.185782022751027 
18.564118847530658 
29.139631485954762 
6.607437361224477 
2.834564286956297 
9.288559821305695 
6.128015897887324 
12.11013880285964 
7.050140079186063 
11.798395492359939 
9.04090470626286 
11.798668038815084 
9.900563496304907 
12.650083974900157 
6.655298182543973 
5.890330521442786 
6.726987902796896 
4.557170137420134 
5.856651093906633 
22.5617334247127 
16.74378536697646 
21.564310459151816 
16.757984156795896 
20.19897568091441 
2.9589333732758987 
3.180611940988164 
1.1318946026075778 
1.1764589099567095 
1.6756595104803158 
1.7825762578428803 
1.2942160228677417 
0.8663512013689922 
2.30201145540677 
2.010879129105683 
1.8731578043997326 
2.1647589093301205 
20.05958127363285 
23.823793128981922 
16.09228201106897 
20.271981299768438 
20.837493647564674 
4.586605441757716 
2.564121813932907 
4.85352440326689 
20.459365618930565 
2.131047344121823 
1.811693872782173 
2.281074557063132 
1.7771599104499525 
2.120461964778879 
1.929131232893481 
14.398107132764785 
12.15887662309968 
21.655124220376024 
17.522751543487058 
4.20374508838115 
13.116517189358506 
9.282777725094183 
12.046773757388602 
25.131806839368934 
4.436065747888588 
6.532071977246922 
6.880275601936458 
9.974636190084734 
14.27158413458314 
2.881013590170336 
20.606829114039126 
21.33816906416262 
22.02244841125189 
16.401119809191577 
25.379898988333405 
14.245218808191815 
21.428586773269252 
21.63940168762521 
12.173973996605831 
7.3723268327512415 
8.075486303805535 
6.114663766280025 
7.150173385367813 
5.39235142847776 
4.821580133782395 
4.091546017060146 
6.748120905465007 
4.878480592556104 
2.1158356382423706 
13.734921841063272 
9.261852635553295 
13.771543632590822 
6.076169843083008 
10.129425543548722 
13.633742820629829 
6.282672503034502 
3.4265945512034572 
3.3121275901956837 
3.238130699321243 
3.468783954627009 
3.723941194555284 
4.284007609288552 
3.6416664432662413 
3.2858062668689985 
3.4694776583539464 
2.800936783505793 
3.3195463251936577 
3.4171851511363567 
20.691640216111512 
3.090544328524918 
3.4505738083862516 
2.670140170401744 
2.0770985468012566 
3.281643781626036 
2.094717970796805 
25.358372663109975 
2.9629080598335795 
2.228764010410076 
1.8942389658084147 
14.8042301777328 
2.645593835224542 
26.42222437082033 
16.66618664432739 
6.8883969927324085 
2.4733952237420156 
2.851829234934577 
2.1384410801590885 
2.6222333559378215 
2.5134397158547714 
8.146997174972883 
2.5697586240095043 
2.713368485405576 
7.0058744180767905 
3.149283023324547 
3.3833195913454097 
3.1011904406267274 
3.138395637821271 
2.214348344083803 
2.877844778088233 
3.3472261026360925 
8.455988300549363 
11.188830803792417 
12.678191249013471 
6.536415916951684 
8.723118858030876 
7.966893025012746 
12.404181352616533 
11.207418922183743 
25.420181983193334 
8.737066327626396 
27.81797926244323 
18.064871394128126 
28.65242177425947 
14.793977734760189 
24.192393924101015 
31.43907021739466 
9.656639357237879 
9.718856405783034 
5.208493997963066 
9.53107739413298 
9.64954104634327 
7.761190925585181 
11.408192318206776 
4.929122955273368 
2.6268283774600945 
1.1835480958970717 
1.7657550628620546 
1.8305397000966122 
3.1068920415163133 
11.270778712270193 
18.247991405553833 
11.116049586245435 
9.567937640597284 
13.639209238745131 
8.519663884123537 
16.08648974791671 
3.4079791849731143 
12.115828989333357 
30.508544558348035 
21.575044477398034 
13.016591742975955 
13.114686577027753 
22.110860470071334 
13.396844872926751 
17.242380516016343 
27.098256771170387 
28.137312510241895 
6.612886550607874 
7.859183686439737 
7.34446863057369 
6.685219239144493 
6.412593394481952 
6.431962840011197 
4.991538570564978 
3.416127204253926 
3.665531989583335 
3.266367677298652 
3.4779264366624343 
3.302332979354544 
3.647679519169394 
3.0733484101429718 
3.192948592293453 
3.140178770149041 
3.5084596315794263 
6.500261368668042 
2.51676351643428 
2.3350060650300417 
19.69890077208389 
16.55536636331554 
14.277825532314981 
17.497188957461095 
16.9606830331227 
5.541235146960914 
10.610044863600896 
5.9655414107347005 
13.84865567934437 
20.616843752584526 
4.256409173810967 
1.2056097572126967 
2.6652765793267674 
3.3785041794585697 
2.733064595059645 
2.4308955281934597 
3.4586150783617025 
24.215863532738958 
23.644066693891823 
24.496608838107335 
24.344433705566146 
14.882909069621238 
18.660880222943717 
18.725308354936907 
16.06594259969793 
7.989980973019639 
16.335610909464783 
18.453512527669364 
3.6882213616284405 
4.28912734186375 
3.687309077886607 
3.6195986833210747 
3.533803567721303 
4.135767912628563 
16.763638197114755 
19.131784883622526 
15.156302502506668 
23.052568541317875 
19.95626605542691 
12.407505736018393 
4.94974464355696 
5.050736809415128 
6.910373482420642 
4.967022808659871 
3.5167701917114313 
12.022764370532164 
4.074190229582385 
23.592707657913945 
21.694435505817026 
23.98414203711198 
23.292481035383847 
23.945348754820632 
8.013147640757575 
13.572003534760311 
13.643835198922519 
8.994310121879652 
9.126029397387017 
2.869329695265552 
2.6317508888531447 
2.9491870472587767 
2.684037277115653 
6.599824948057856 
5.99319257983794 
6.202467425618367 
6.27862349185886 
6.12051245091712 
3.0738835468298946 
6.676445579188462 
5.997920999473623 
7.4983843777877635 
5.170768489706247 
5.063056751356741 
5.2879348099442565 
6.146432755566948 
5.767944508920384 
4.28729599922916 
4.903854796519698 
17.613530438552996 
7.55515408688939 
8.519679088000652 
7.662317797797164 
8.566296319066732 
7.136228857396416 
9.686625920122625 
6.671901841102641 
18.909665293627157 
5.607262313419831 
10.196668759298893 
2.71062701862213 
4.967657936009508 
6.777143120690109 
12.363323942996061 
25.43169167309074 
25.679744909704446 
29.52159090642229 
25.526140238344293 
7.466615249948859 
31.060665568693736 
1.02782691279238 
1.8693157755666348 
1.1129826521004476 
2.352276128794384 
2.6957181380255295 
1.4728618408081726 
5.964675046124476 
10.776583763869885 
3.0246910165629157 
11.50902176550344 
7.371470779094404 
26.885558868529646 
7.440032316606079 
12.463464660227142 
13.939824004154508 
24.208622766775015 
17.676094890102675 
12.324745747450471 
13.362130852653209 
14.14730452925202 
6.962203551907942 
5.937860977554003 
5.798869414629789 
8.092279538532777 
5.3102001093817774 
8.43300076950814 
5.525026754282149 
7.262468551979668 
21.29218145481381 
17.022189919644074 
21.17570888607368 
21.119295165619356 
24.601815015454918 
9.109812761359382 
8.323149764942347 
8.445909411093137 
8.274341780777458 
11.383104477350825 
9.158018921458035 
12.467521113074563 
13.286957705981807 
14.037463400314506 
5.824140001031811 
12.215157974357641 
11.37467291980558 
9.248974502383529 
9.70316511166945 
8.580991666675358 
9.15528272566183 
7.495217891787371 
19.431690942854374 
13.608740891601657 
16.866459496046133 
14.481711570418618 
13.99312770966 
17.45140209282486 
17.252378487880282 
32.36093255975611 
25.23003735996876 
17.711255603513713 
27.399157178851617 
13.38165974528363 
18.50505647141367 
27.15402753269204 
27.551011422033046 
3.4933622678932617 
22.813741000401432 
19.27533354655449 
4.333163958616973 
3.645646868519566 
4.607738571042736 
3.3834712232862953 
3.3135366186076247 
4.046736904810499 
3.191270764266513 
4.337420604645692 
11.097129884091169 
10.030244618394564 
23.69011658632271 
15.4681627423677 
10.142316979750218 
20.2602346761762 
20.845206962785348 
24.11546261726579 
13.847223408910155 
16.728473434504608 
25.87341611211697 
32.161310408405434 
28.158177655850285 
23.262726745559927 
31.77132465015207 
28.63170247671599 
23.393947205138065 
9.92453847167389 
9.655656405490344 
7.419228063479057 
26.994163692969277 
16.757178438319364 
27.893589873720423 
16.74574199012052 
24.76186321525885 
29.049858468201577 
9.445787796231446 
28.689323107072962 
10.142149802180882 
9.19640434750932 
9.365092792483273 
10.987765033914325 
10.785904310550059 
9.558112881745682 
2.248335519375903 
3.425141255232954 
2.282514774722866 
3.111423513423037 
3.1963229368648407 
2.6719895651581678 
3.114921331930501 
2.242530743353204 
3.6359240333935703 
16.35344877223188 
20.315579891296547 
19.448202122613644 
22.473243931295627 
20.2943355515997 
18.011294717976874 
20.47179912689836 
18.29229995958 
25.9812138153013 
26.834479777168667 
15.363845777552127 
14.761590902222869 
12.026197125305025 
28.559419811170116 
27.775871274781444 
18.048721371980438 
14.752738840108412 
11.70104719324996 
12.811917180628534 
5.302206348005021 
8.77465121812075 
4.955685803481162 
9.499422454577296 
10.897605599814561 
4.521096044247757 
28.653558063367168 
11.918948926631554 
9.375962891318734 
4.880523237551353 
4.405407216943494 
3.723839549056522 
5.146943822976031 
3.8127858322423056 
15.139421834674504 
10.426881122001072 
10.983819447963288 
14.164502065488557 
10.680252443600997 
15.477266520201413 
9.37329258765534 
13.343285534508507 
16.633294311723244 
12.613849683156332 
16.98470137950485 
10.641839852688134 
17.095391028531704 
12.360625075079488 
2.9953850467352043 
3.5399132277608936 
3.1304396631342026 
2.386099692041832 
2.111417151629729 
3.0542488114398068 
2.9088869279996334 
2.210844527478516 
4.437628122566749 
3.002944099736111 
3.08332506855225 
2.4416193617283612 
3.118016884589293 
3.0262737792261025 
4.315753515919525 
3.0448885171082543 
18.431653844672343 
19.99819541810154 
23.983624531710657 
19.580264773814655 
24.337010906273104 
6.771694115862354 
8.3174739255035 
7.9186443258023935 
6.259951733496552 
4.904127387181863 
7.7092143443146215 
3.7627043002396823 
8.364409483074057 
24.489261449112067 
14.592860172465707 
17.58364231347318 
24.884678702902 
25.48732516076539 
9.620755968322396 
15.521872520003523 
27.244723653458774 
7.360229247186181 
7.914772608117549 
8.003380622563895 
10.278098683103556 
12.095611695858153 
27.040589059525903 
15.32470349667947 
20.29384757061437 
19.008968443991293 
19.136433659131164 
18.682023270773314 
16.966173469774706 
26.565358695557393 
27.041165931082435 
19.790009672689703 
24.364848899253836 
24.765713810014837 
22.543956290043884 
18.633716848732128 
16.681497636478266 
6.452074494462798 
8.22722916722065 
4.060334202425708 
5.601321757027259 
7.624332484805946 
4.698059214213074 
6.207628226703243 
27.18084969807397 
19.5873486619396 
16.14720216192866 
13.30075042520668 
16.10647321604602 
12.660492571974352 
15.971564114000184 
12.52402822190091 
2.1843161601764236 
2.688721952607172 
2.290638472437252 
1.3765226306655967 
2.0383010402745056 
24.2215966818359 
28.751398173478616 
25.315323395530797 
19.748081024853427 
30.609860053009612 
26.257271871563546 
25.653922013985976 
21.389059737093273 
1.1272089948945412 
1.808845948427072 
1.899603815265069 
1.883317519661187 
1.8385303959197976 
1.7796748196514105 
17.097528168936662 
14.726740868865717 
14.791362514660928 
18.183651096910552 
15.001349567680094 
14.80441188513741 
1.6464696744169502 
3.0365863706276572 
2.461784146257542 
2.9774231395257145 
1.5559166143837533 
2.9821010598177558 
2.047544830638919 
2.006978353298841 
1.7467254049248984 
2.5402234588409587 
1.7614483990062852 
2.0612863151335006 
1.8518109117361132 
0.8428093025743794 
1.8223912680725691 
2.4437429367190595 
2.868531110209777 
27.49599438604418 
30.715591777244516 
28.41473726136707 
27.12483094585666 
24.72154919990533 
9.157627996363148 
27.233607083681427 
28.5754981872249 
26.48942213341811 
24.033088058092698 
19.736086310752732 
18.392176947342215 
14.535241678935101 
23.611145249620208 
13.806100491361741 
13.539638978754741 
8.779671056384245 
9.31005054069405 
10.998622565301323 
4.957925705044143 
5.561681546819671 
6.007575720810468 
5.804861624036126 
6.923204250327767 
5.1342472622633615 
4.714137331872686 
7.836229488873012 
6.791913298012236 
9.05560397870801 
9.73372791538095 
9.91357935209941 
8.003461857041366 
20.159893707926386 
24.143225453556074 
25.79982966796635 
12.428974994584285 
12.322095906675962 
1.7532583048060106 
3.925173384049337 
4.373436969117974 
3.301718572624439 
10.269606275640196 
23.444886225068586 
1.1956153878952915 
6.612441091572846 
21.352156605326066 
12.952111163689427 
22.07445587091877 
14.441734500355391 
21.894003175422252 
11.814968248039388 
15.291801358569268 
16.57781920818325 
13.759708651158954 
16.69336765316202 
15.79165801558865 
16.48383069280918 
15.89853957228544 
1.47005330359387 
4.26839732574835 
3.9989272051566545 
4.763809037062717 
4.470372888336886 
3.491344243804158 
3.7015453074964872 
6.912240253004578 
14.617582388674442 
5.5038865807739485 
7.122604747960996 
8.305730315460822 
6.843465203178154 
5.232719071998987 
7.296762203928803 
25.63780638210315 
11.856568712984668 
10.842022654280065 
2.136832771178759 
11.170603866430474 
10.78053361503033 
25.522950412667743 
21.703194939581003 
23.478911407799508 
25.023336901424237 
4.2283939627885445 
14.827731231096696 
29.260386466330242 
26.11742304391531 
3.7672253927209374 
5.002741204816313 
3.7078140546371285 
5.191469290213753 
4.837886379693537 
5.302715504278185 
5.981321123760683 
12.862183077307343 
26.23723639862203 
27.259949869917147 
27.492724605247634 
27.832325807326022 
5.936066385317854 
6.845422570984714 
6.628815575900996 
6.280180293934605 
6.707136714594998 
6.897286474513838 
5.81864299099345 
18.19539258450052 
14.943021477983775 
17.592597812380063 
20.601259343256157 
15.358350665857413 
24.297351928671223 
20.72984232734343 
14.776151613863258 
15.502407515325617 
11.57881395835072 
16.72012716730664 
21.867954465554035 
21.887557216999653 
22.403667716592878 
25.677238315601713 
21.67458983089956 
17.128079447184604 
16.878920418629527 
13.009220482987706 
15.163354475544175 
11.699572344437742 
20.630518247146515 
23.926538758767535 
25.068396883927832 
20.074042221526767 
17.76858736372932 
21.060810177315883 
24.894539667398163 
25.66538013014416 
25.508340744050926 
24.61949040063665 
25.670571902866826 
3.057726211991595 
2.8736980340638216 
2.3627809962707698 
2.3593161167721424 
2.2657230859320463 
6.831497513569266 
7.534118294757239 
5.3438645262739195 
8.123175931044228 
6.708020069456329 
5.030466645281758 
5.660937718015559 
5.519734529758469 
5.439998179329745 
8.12434458520556 
6.390849896438624 
11.240844574026994 
6.788231454052981 
7.465389527625899 
8.511153547693143 
8.379476503178465 
16.740283208266504 
17.093105132196758 
19.344690149350107 
17.4667159123906 
2.132883327570778 
13.649579632082943 
7.269480573272129 
17.172773686934285 
3.0410968862575776 
2.8738693558906694 
2.8927280109014224 
3.4017364223155915 
2.5995179839034654 
3.34551848049377 
3.6036837096543337 
20.842056623162613 
27.823086833913425 
29.169596631070668 
18.624843320422567 
25.935264048745125 
12.802339141768009 
18.881946159862256 
8.320663370265562 
5.9511437024278395 
7.6926204849996775 
8.891178761870771 
12.890148486849435 
8.31907900536876 
19.938312752210106 
18.558353652056653 
11.280890840939014 
26.739962076660728 
6.245013273572796 
11.482294809116967 
3.169749758722628 
10.797894051460867 
14.527911035229987 
17.99062040742888 
14.00471986270403 
11.151789321266797 
16.24945708950807 
17.302424595551983 
12.65700400969725 
16.44615986724693 
10.925946598766084 
15.733087450758592 
9.808969512999033 
8.962067813049195 
9.213711212347716 
9.65112374312433 
8.92259873209608 
8.918998750718533 
8.100756354966089 
9.889930840921044 
10.78959991356946 
10.94870339660511 
10.688579161790942 
11.623394418830824 
13.470640728096008 
11.870542803359523 
11.362149244566561 
7.795222367878935 
11.625687654917611 
6.059734756475869 
9.816940997361693 
11.636298410958966 
9.621050456886195 
18.432597806410385 
18.87753093339856 
31.221592749792805 
27.51399511776249 
19.41169267356921 
20.122891161173097 
20.90231319791103 
25.434220659703882 
25.243938212584137 
25.029627495802277 
17.827117433219843 
26.853823239694734 
11.69340468312383 
15.30802922445276 
16.37501416213343 
4.468266739654329 
21.786680367336025 
25.625411740069243 
26.043581035834606 
15.283200333000764 
14.227453816074739 
25.42437267347771 
28.805595655999966 
12.573975330244922 
13.584451338496178 
15.711165182410548 
15.441391274406534 
26.309731942755715 
13.622567133947932 
13.630724176805376 
16.68204891401177 
17.32186401269453 
14.475567643657687 
2.393849163204622 
2.5433629585034327 
2.6701371251352506 
1.861095621803936 
2.4501182456692074 
1.3107579502099092 
3.2413889132973175 
13.963025685679181 
14.032423563409282 
11.751705297712784 
20.31628759886913 
14.709463070719858 
13.509736464378642 
13.481873996180862 
20.766935159472595 
21.80846118372832 
10.435355243108031 
9.728049985802281 
10.362491795191316 
10.373697228722188 
11.74954400299668 
10.727123995073097 
8.778575604255847 
7.121568100653242 
3.982755780004891 
14.718339739744378 
6.504855992795058 
8.032747145665349 
9.653049904407561 
12.3509469071764 
16.81918717705873 
9.129292652925255 
11.77641554053597 
15.988909123289462 
21.47373554603219 
21.911161130700208 
14.0833837193333 
21.002702756511084 
22.343007979931695 
20.721957896855606 
19.247859704865014 
21.740808293765163 
15.335335757536631 
22.1721532123858 
16.187347901283214 
3.165300920566229 
3.8972725996862088 
4.594888654717855 
3.66692921387447 
4.143752584998171 
3.8361097446970063 
27.258818864348466 
20.8358488649395 
22.810702307158387 
28.161186464088026 
20.974343219038644 
25.429389330765037 
21.544660009851917 
26.073826557147566 
11.491774135714133 
21.135405672232757 
13.590158194455947 
17.841236568483144 
16.961556254622945 
1.944135050785931 
1.6438742788695353 
1.4064175745782437 
2.080691160364365 
1.8890130074534213 
2.1023858841532586 
17.71692670377909 
18.174789337677236 
17.013078636863472 
18.084752703434525 
18.35921370350577 
26.271014163227704 
22.974294223936454 
19.699613031175417 
11.224781782588911 
21.518241253988084 
12.310750987705504 
11.511508828509486 
9.325867819153041 
2.406563224433492 
2.5195965569001353 
3.066701094527736 
14.86852754035627 
17.190525953951575 
17.626435245769223 
12.794975172602122 
12.815213107337229 
12.992602590534165 
3.2127786957696762 
2.247544855188152 
2.378694172877837 
2.1522151942205596 
1.854461306306634 
1.9787817510714758 
2.706377124200384 
2.7816901904532476 
5.914619749507322 
3.943955393700539 
9.109544491947071 
12.010717806076629 
14.978609132907096 
4.804680771061755 
3.3247913555401056 
26.636061148491514 
25.64221557080702 
25.91107835895963 
26.27766021891955 
26.330644508481008 
14.155076828690083 
9.97880426849149 
13.554565264425454 
13.850232383842153 
11.140898716506339 
13.657132697913593 
13.239591950826162 
16.15033989400117 
16.263457153367515 
13.928056856797024 
15.844062700490829 
15.30016663329572 
14.979280082129266 
25.533060527338417 
22.763599947100847 
21.955488068291714 
25.286778353246383 
14.418689341191136 
22.295267302047833 
1.2106120599274937 
1.2783582305283914 
2.1236973132673125 
1.9370061460035906 
1.5746130102681082 
1.6476896036103643 
2.5635515664899007 
2.2107594143453535 
2.7396864636657012 
3.4982338087760265 
3.270163959034643 
7.082526354733701 
20.388485246691463 
20.14141332826431 
24.321606993363115 
16.379425922575596 
19.541713350969978 
15.602650337039902 
20.135380624572516 
16.637117895067153 
20.08421733593987 
19.906793177774965 
10.47957099970411 
18.0309005274235 
15.706141951184842 
15.041898025463809 
14.977032317916606 
15.002858206572517 
4.86335028853309 
9.099493448405633 
10.125676959614212 
7.020176225671512 
7.799297899593077 
17.61669419310484 
11.14091999483917 
5.369053654490257 
4.504766917075421 
2.156655571198763 
11.442030818932816 
2.7814225519821125 
27.343297231618653 
24.77211946928666 
17.618395897108215 
16.89451359394534 
28.440933036601567 
17.56790493270824 
29.430542001880276 
23.07339143716291 
21.19339434838287 
16.005512665998353 
20.472174011160167 
16.28672251220245 
15.582900283879093 
17.702842667787223 
25.811321279016322 
22.079247631690492 
20.60120491137483 
24.050349557696574 
27.949578391571098 
19.776953448868955 
25.125757770060098 
8.575676223591577 
13.621721201870788 
12.466003752736933 
5.7332352182380655 
6.2324264477525215 
12.282748074089634 
16.887077162171373 
12.072193429407953 
11.741551004600788 
12.361871923452012 
20.415552731141762 
3.9630151260073117 
12.172042219346368 
14.155520733765341 
26.719020437548316 
7.755668070058189 
22.30238516709019 
9.292213897713053 
8.86882787581176 
7.351648241751224 
6.418127439034192 
23.827970386602473 
20.85125484896558 
15.541464718190948 
24.143983639747763 
23.582911605992482 
23.56978493064033 
20.38166220962739 
23.204188233670767 
27.40477388400026 
11.954842784119217 
10.517368424463458 
10.95328537363654 
9.195392589843864 
10.009481143442471 
3.3969711013401627 
2.075033491448709 
3.3254308228820926 
1.5307456461523923 
2.6447909184412044 
3.2031006239639055 
25.0719857504972 
24.743321682067144 
24.24477012478678 
25.030529069528004 
25.18593975259924 
8.875736551112764 
7.8030815010983146 
9.610497689103934 
8.18512505813374 
4.960101160954436 
5.9966698149338145 
4.256174009130958 
5.0347905015944 
4.441170798762603 
5.0692331727417566 
18.784822716526993 
25.42484362693449 
28.11639849503058 
12.08777118862383 
20.09860361076097 
19.487097958892857 
24.647048118696294 
26.661532594982717 
25.10061138470594 
21.57629032095748 
25.386915877037286 
15.615751515524963 
21.312453526069145 
23.16548516836257 
10.787732441972336 
28.702226769462815 
27.803200539499574 
12.27532285074215 
13.155478205089643 
10.922467118191422 
13.318810529632527 
12.990783607343435 
8.869339893038886 
13.004722502838396 
10.568304830538779 
5.7879140103465385 
3.2093242967437745 
6.489767660717535 
13.373290295915936 
12.96794813287789 
13.688021874413007 
19.779284699397046 
16.354652996571698 
26.917047107194094 
23.772389095212258 
23.887924475626807 
23.579424472247197 
23.00166350724271 
20.204221886292377 
24.177300675021254 
15.698349026405637 
20.24302254607924 
20.69840414428326 
18.454557609705308 
21.109726658535397 
10.386274773026658 
8.181784013907892 
7.295324501755827 
9.719757622850045 
10.506002174206252 
9.109884751098251 
9.661958629588923 
12.620718140810704 
14.104929892668796 
9.423327781205781 
11.188583526905477 
10.380007087932636 
10.288516993974506 
3.841172715615822 
4.069526268794854 
2.998633205746704 
4.140766742275468 
3.973926687756654 
2.955511805907297 
5.658283820695749 
9.098324002281016 
7.9264505094481725 
9.714806140212303 
9.075424841741997 
19.258944022222295 
17.06828900084631 
19.532844462923617 
19.610821801411465 
14.011679150686634 
15.681161061403289 
19.454183011617065 
13.28183245604064 
10.721964727344398 
4.527169131579221 
3.0798452918517505 
3.249349896948864 
3.0562291877730017 
2.853689969901208 
3.2876519860349847 
19.245357235035975 
23.650112497615375 
18.69300372199505 
14.175879969894975 
18.998140258335617 
22.4069319229883 
6.877191005883719 
6.210379637354157 
11.665362013294283 
12.417226017589396 
4.982706326832294 
9.377136175427065 
8.852706470069894 
11.667212243609331 
23.903318013878163 
14.697279016981787 
5.964286497238309 
6.278881575941532 
8.718292756552973 
4.715314344387291 
5.312977661869903 
5.0208805979444895 
6.956142506486109 
8.081858215287802 
8.071983621785167 
8.608679169351648 
8.566018802473417 
7.957161498016849 
8.032528862167092 
7.953848803382834 
8.26478254416406 
25.625568818751443 
21.521558220768664 
27.907899612236687 
29.52226055965706 
25.141619769979815 
26.303481452034532 
19.793320171333818 
7.440066196103242 
6.77940116295942 
7.604574142863196 
8.779885880658203 
7.457905870302208 
2.3135260395637562 
3.7278575827775997 
2.2926568516980055 
2.5238769554800258 
2.1788153495204368 
2.2029730841927493 
2.6757831799713214 
1.851336014567268 
19.516902347167264 
17.222380633839123 
15.281182987604321 
17.159614254241536 
4.375926084981266 
9.294240445705137 
17.38219232938621 
18.461406728026393 
6.299140913422157 
3.576244392834097 
3.3439937895478815 
10.760582733379568 
9.786407847465455 
11.791410143653183 
8.870341130892706 
10.075606114577766 
8.128253003542952 
7.895152726607602 
8.779778070836853 
8.4118231541261 
8.266033195943033 
8.872181758674584 
6.653696982835793 
8.989216982248582 
13.873486729520911 
6.888818642417244 
26.001531428571308 
30.058799402532514 
21.08060285170609 
26.315374699894274 
26.12991127033843 
25.974073504939195 
26.242589835391794 
25.7325422588088 
30.01077886432481 
20.428708127604907 
19.047140657422926 
8.994555002226955 
20.28323806685346 
2.1051876722425713 
2.521926730029547 
2.4814657655444408 
2.0199681580946023 
2.2550338427442798 
2.270538718471559 
2.8605666508533214 
2.3146955510892497 
2.573383436707882 
2.3762023484539427 
1.7471901920155082 
1.9258986497068822 
1.78509654357775 
1.9000213900051293 
4.877876874721344 
5.412817597367251 
5.259574886573312 
4.090527692703272 
5.8612826745299715 
4.80179986299167 
5.157247494838334 
2.6784705615571105 
2.7819761918611987 
2.8823163183939156 
1.3574253258004325 
2.469541955051008 
17.80702727405153 
17.45204651393688 
14.825078538774346 
17.002038602829366 
14.388592486358599 
14.147481163840975 
15.848213866964477 
12.644215502860636 
16.435027334148778 
16.682581710536528 
4.108327595302876 
3.775619567430111 
3.6388233611380993 
3.299302656659865 
3.8957792893935674 
4.043324831159122 
9.840823268348478 
7.391048290804109 
9.768602598552317 
9.276714459269567 
10.67943694936428 
20.585778648690606 
21.459613535729805 
26.609162014306413 
22.05868260067031 
26.47351838163326 
21.486117665636225 
27.57816753398628 
13.216088916191005 
24.28797203250946 
25.61792157034371 
20.6342682837449 
13.585673441141095 
15.039480485724177 
14.638750440658976 
14.006089453326531 
15.960009299665279 
12.89505376386533 
11.236453562369505 
17.381006655191523 
17.818362604152046 
17.011655533115487 
20.505326166161055 
16.80125420093728 
11.287164722697813 
14.325980352390557 
10.140653889685378 
9.693196911843275 
17.090307037510208 
16.553066025938467 
9.311613762450994 
20.382749538043093 
11.246371522276524 
14.577722761226834 
17.1426926370102 
17.429618874635263 
17.397875942183223 
17.228763688206488 
16.545132460154093 
22.226401852975762 
22.94467594354084 
18.51820373477265 
26.455299327307493 
18.8534551243771 
22.321313306595908 
22.03381038819781 
22.230605429107356 
2.659484934142654 
2.615844596860549 
2.0626687683318456 
2.0361787408379093 
27.642114970302078 
27.619130342051204 
22.873011601971193 
18.62040406984032 
17.491375455255987 
30.63078948141786 
27.917063217669057 
27.090427636171505 
17.275114721032747 
24.267242173290718 
12.555918120733722 
24.134818056842835 
26.1152965705711 
26.21108117935358 
27.327357007274028 
21.578445495762068 
27.45544032865515 
15.095485222170447 
22.982572698850174 
11.514417888591844 
24.57218431839953 
14.266223821763086 
15.604232714466121 
8.997982802366861 
22.871530189384856 
15.323692948817788 
23.886972128427153 
18.282414158380128 
16.330593514645166 
16.80643785566252 
16.94606664467244 
16.486765367781395 
19.382632270907937 
20.22842675129013 
16.413028568023684 
5.250372432388596 
4.725509172573379 
5.448250829686604 
4.367791837748666 
4.7230095003833314 
4.330407153589191 
5.313847816537409 
4.330190546465206 
5.3132496255935955 
5.3807912078198665 
4.489887744459927 
3.8026243871098075 
5.67807555726933 
3.6049513001316322 
4.551482826079606 
5.8284644469290345 
12.148657657246911 
14.843147358979884 
12.437633820189372 
10.519929401339102 
11.860717974494714 
10.826634899425274 
16.535333185026904 
19.0910055497825 
27.688585004327948 
29.123194182545433 
28.537548428414805 
21.371677664900023 
27.68177226316031 
28.812686777617365 
30.918586604024785 
25.29159983232553 
27.011516961729058 
6.39596737678238 
4.2819983547346245 
5.0363698418733165 
8.501046196986529 
6.376465787312138 
6.517912917361847 
7.312604947978483 
8.011406606595996 
6.087898158548473 
6.789637439356345 
6.507551095427525 
6.059112055791845 
6.725216189522922 
3.4182106986897507 
3.3325487515148975 
2.9315664077571832 
3.653711694091958 
3.8638162287116065 
10.534943701685352 
12.338046923597384 
8.912072426163492 
12.341235143479658 
10.384549763855796 
9.98884786061592 
9.954882975191953 
9.99047898353128 
3.8720903867971184 
3.695817021427858 
3.894637828555165 
3.6933262335883406 
3.2252285633144124 
2.8684623821626287 
2.2491426529471745 
3.424027537850925 
3.1890581850267017 
16.31462076931587 
17.170596780433275 
13.219658497337871 
20.56167761040248 
15.85957806017188 
10.344059892935965 
9.863792199770355 
6.350791202941306 
9.812557379965673 
10.469085517650035 
3.0460387634814285 
3.607737075074439 
2.7374144753978022 
2.976179793200222 
3.207003991619267 
3.356983144554159 
3.1516956866980554 
3.261183894387493 
3.2087813553248306 
3.6029145674543033 
3.627322211904316 
3.487940057591062 
3.38277679178574 
3.050094359619125 
3.252792416390183 
3.025669654907252 
3.5726042527469457 
3.2002620639206025 
3.308297321655381 
1.423538081536059 
2.942410182191358 
1.8133920256440803 
5.49615161961517 
1.6151670309286559 
2.602764757558202 
1.8039346667296912 
1.9726693503078148 
1.9563430040335725 
12.22108006975245 
10.949302992014056 
18.14274982998708 
12.784415548304246 
25.451557886112656 
16.442605108906598 
25.321739713745824 
1.606745592245746 
11.14110612476729 
1.624204855507907 
2.182183524766033 
2.9302053338180056 
3.0112341177088235 
2.6972062337952813 
2.2711604097429583 
2.2702396981921216 
7.406054406531435 
8.881284539569318 
4.88996158810264 
4.510624856481458 
4.248102726197251 
8.389716549535791 
8.926542191432446 
7.493064351992664 
7.940311544272912 
9.685576768528328 
14.29983588620373 
4.577997501335357 
20.938196110991615 
8.321617827730464 
12.969130970918926 
10.593400843831112 
21.02889643164687 
11.633637729315367 
3.793865210877665 
20.865207768469325 
22.24076477312537 
11.4783718693639 
2.456313915190109 
1.263492733859031 
1.665921014455476 
2.3681204500234325 
2.142996160611549 
1.7054381392230415 
1.8909687078099775 
1.7526839361352538 
2.2077575940356686 
3.8423421238098747 
4.491291897589781 
3.873819886346901 
4.65944646210919 
3.5761697779886656 
3.5007642593990296 
2.9949645000050618 
25.217681368919234 
24.296205884171677 
19.890074246786593 
16.714913226465264 
3.3143025790562 
2.9642054203622124 
3.304019179637895 
3.743558048538647 
26.327529838233964 
27.816637941549978 
14.147325792591154 
8.011419218784269 
4.178421788650208 
28.015960854793015 
12.631038434134929 
30.90951229789094 
28.625963733664374 
20.031817927108126 
16.488003083082113 
20.859737402881287 
12.363305410608012 
7.9041155914601235 
7.982182295946505 
6.855104109895121 
7.200383305900187 
7.943286108668116 
3.1116385816806176 
7.5184555195515275 
8.124066378725667 
9.26247752300512 
8.505192950904865 
6.454340891350427 
6.080238850394817 
6.966013736039202 
10.320258029659316 
10.31992146666266 
6.092817071390671 
7.004010124193675 
7.153735497273257 
10.078474199449138 
8.005370605577781 
7.609147085686258 
11.457577538646156 
10.239693470047346 
7.289410738789673 
10.888447911363645 
4.1280468856655 
7.429974763158164 
6.861679234197602 
7.806443374412559 
8.44570009401284 
6.476058448442427 
6.5551442931541954 
14.723739397781808 
24.40536625797815 
15.569363068469492 
13.785757858819416 
11.40583021657885 
12.694994908528518 
10.528435543106854 
10.194939652251453 
8.44001362954588 
11.902652751685736 
5.250380299028474 
12.167202286517625 
12.360121468599703 
12.70380995868439 
14.275428938940864 
10.806455257939446 
10.688750367409225 
21.174312756205996 
14.346370506608702 
26.940568978312925 
8.372176419067694 
9.322138842326945 
8.915413948367657 
10.680071823356728 
9.57147162816521 
11.387876536792556 
7.23376202045208 
8.00942511464466 
3.2719730928480693 
3.9839384346694575 
3.3195529937257686 
3.578889546810948 
3.6585208616921068 
3.5492914192749465 
3.6549902992582077 
3.3150837549335246 
3.674507939016178 
25.699875669823623 
23.227787319265126 
22.997713958254046 
22.635994053951105 
22.708759021536462 
3.8980296685538094 
4.553526902069314 
3.532968801295947 
3.941836618809909 
4.258904979636772 
3.5630585579229033 
5.090064168859146 
21.962501289353536 
15.182353487070237 
20.706821798673033 
8.224338404537997 
14.540663181344184 
20.977052870266636 
27.011018088663462 
1.391929627894835 
1.7435096806622772 
4.947894805454213 
2.0944875108703975 
1.8506794452043973 
1.6576927617895176 
2.91130105951937 
0.7721566828353518 
4.81360975133888 
4.32933609416482 
5.22787041169409 
4.636956813705477 
5.296598691043953 
3.8400978539326496 
4.702063591583628 
3.6189776176286372 
7.339922896636783 
9.292827741500831 
9.30918988904542 
12.044231453767958 
24.0632530912376 
24.580263755816507 
14.620376825182271 
22.035441790798092 
28.179471826992074 
24.98023875251414 
15.141913974281344 
17.649087823932057 
14.514602413319194 
12.244087101822585 
9.469255008956784 
4.734511831939992 
3.8619843575273753 
4.678120836033267 
5.4537653512557815 
4.812867608076447 
4.461472483975039 
4.9724309888348825 
5.381738921816667 
5.622508817204844 
6.275044663625856 
5.64058369235969 
5.539715322715859 
5.2742919195653615 
5.61918483408442 
5.924213466918399 
5.9308070111969045 
3.642923381836256 
5.8952825004297855 
4.933180314338875 
6.567731368694344 
10.099341626813032 
9.865057460151036 
9.829673793487016 
9.968584111189173 
12.87423879983459 
12.724265350932729 
12.892206209607973 
14.752278582916874 
14.666290329084413 
15.704223460905878 
1.7201639609911368 
2.1712391766871955 
2.4663819942258876 
1.2928416701712937 
2.1889760350501395 
1.2752806822612097 
1.7361557897689073 
1.2413009795207133 
1.7721937077630234 
4.000968369070065 
3.775875374870461 
4.095537864586165 
4.1166593735282575 
3.6861372176413436 
3.4766918963861424 
8.52536714557011 
4.838062411185683 
4.72796357458041 
14.83378785333175 
13.008490578750791 
12.623259160903459 
20.118056613997126 
3.8483712933010454 
3.808973530702633 
3.541178790770154 
3.1978544936852655 
4.05631930540426 
17.782855677459995 
19.973028864343178 
14.600813403694595 
17.695424764416252 
25.518683245550104 
15.055672446207268 
26.99231398422763 
27.78054769327938 
18.56448773014732 
18.833106189418217 
22.731276697885267 
22.711206423453103 
28.14476454913261 
25.510805067090754 
27.434575353449095 
3.962027196323803 
22.13290106062574 
27.64095641310799 
18.08105693168989 
26.841526306738817 
30.458481748275187 
18.393472920675322 
27.010223305455842 
31.41467343624951 
27.499521358489254 
1.3892197581083658 
2.0429831551563113 
2.182023472041482 
1.7666159996493072 
1.5363897073654815 
2.0126419818012966 
1.8166051833310743 
1.3703394487141904 
1.9460235026748278 
1.594099120907221 
1.8233879252983611 
1.7707162344879843 
1.1617279245644023 
1.950005400263309 
1.9018583267181663 
2.787256745320356 
2.6746853771323544 
2.946212404650149 
3.1603224231410554 
2.217208416536332 
2.072673701468095 
2.7380719726926217 
3.888519298437969 
9.1553676656487 
10.947007096240911 
8.29352386544658 
10.732809914700578 
23.21005308652139 
22.954672729635675 
22.75487346094002 
22.184777426317364 
22.586916450862034 
28.17255355461761 
26.706356715901435 
13.298748754500059 
22.65468017427847 
22.50661998106001 
19.166163048695843 
12.85565168586604 
17.658226127981514 
17.438872345222173 
27.256791992799727 
18.265588941108152 
23.634260511382397 
26.90458599093209 
17.71089694202353 
15.663259769658563 
16.884734347347532 
19.122302871009786 
3.7364138902276967 
12.179468123601055 
17.114626904608997 
17.717906148592057 
19.354400171805782 
21.892741118184194 
4.011106990256527 
21.418739497203035 
17.13041421906149 
15.613431105877975 
25.24049305795387 
20.473415201868114 
7.131090558712996 
2.024358270379891 
11.603205967734766 
15.816186549874017 
3.6968231545408163 
12.074039705234066 
15.12963575546759 
16.376480063248977 
15.349481316926179 
12.07289528481045 
11.180446030413096 
11.385000409101263 
10.627478187521305 
10.694924960059396 
8.03087110646651 
25.436711919528534 
16.825991748767773 
29.94756910839642 
20.889857688567474 
10.382416260889675 
25.78099566425109 
25.619708669615424 
16.852537223379787 
26.481296217145214 
23.109331062114382 
24.928232967564036 
30.242230742307985 
18.104012532373414 
17.31129621979175 
16.576261164321934 
21.764513832095524 
12.700763193316245 
11.585120038329908 
10.716062843254937 
13.911878410631891 
11.671053231075698 
16.480035005657093 
14.726241537292909 
9.427454204638579 
7.472976796575058 
7.441656835387873 
9.641436743265356 
21.12994139734209 
22.074239045113014 
26.569158253055292 
22.02607310488955 
26.995451379203903 
27.276173373707834 
25.45315123106377 
22.471486530534108 
21.487834152726627 
26.657338932387855 
26.751229604572092 
17.357596385591734 
19.966552984658573 
21.30829384552504 
17.953329074993967 
20.323347731162915 
23.574011913292168 
20.153044343393773 
17.58435777276909 
8.73212555422665 
5.106207625994247 
8.569507021614191 
21.999544085190003 
21.663052961324027 
17.73727570330268 
22.029033091957338 
22.416812497283043 
20.620434206414505 
21.32788329062603 
21.643276919987958 
19.92161084874324 
28.433126783492096 
19.73453660933033 
27.856855000776815 
18.63507189255252 
2.6707670898247224 
11.643179150821735 
15.4465403440989 
3.946744356396959 
13.256771780851318 
16.07756074873195 
9.374215917631819 
13.377820642846077 
15.829014905343996 
15.614189213278511 
15.90791840521393 
14.574438562152485 
20.91233372265175 
20.8566218059968 
20.69426019527192 
23.956054965830635 
31.68946939864395 
26.4227757206532 
27.476284758235323 
4.46224359018836 
12.346319520343744 
3.180732516780487 
23.884537663308233 
15.6011078849647 
24.79902843811201 
22.9663466667097 
20.614635173633506 
27.898834595208037 
24.20931957713101 
19.13641426359905 
20.35009760088342 
17.824333491709286 
21.021361616647273 
13.978119320843206 
3.6737303500323857 
18.76718424510758 
21.977076469109885 
19.369216388220558 
16.12097156190404 
12.390914623480418 
22.499385189774745 
18.63654136851237 
21.249956357397352 
5.205913395693383 
21.87866280792884 
12.855918563125845 
16.014897316399445 
16.783754590059726 
16.59724040816819 
19.325467337232624 
19.999679074266357 
13.593011164572646 
18.088067466590335 
18.480862364881048 
18.259905237441078 
18.501053484461575 
18.93885359067832 
18.202385092928353 
20.06656999591954 
6.7832031335714165 
13.075364416282412 
19.752962651768804 
13.048848841163148 
5.452350287325515 
5.404191255771809 
5.298196816247783 
4.951329390499705 
6.636237348342529 
5.031707281310756 
5.513546510042575 
3.8461237292372426 
5.040314649231186 
16.989054245933 
14.277360967347647 
20.240544531648933 
17.566555979871325 
22.531490591520157 
13.288270156782804 
23.56260769102188 
23.774833471588007 
19.841790136254925 
23.561569992962763 
20.906580045055403 
20.06997342279263 
20.950023922872166 
20.617886176464282 
21.19609976651671 
20.24276290153839 
20.490750628077947 
17.802471651454795 
22.35139304080826 
26.03085620041076 
10.270390562563005 
12.71615258057306 
5.641246024463067 
10.510378842681549 
4.7886824254434845 
4.058993295465183 
10.992691337814243 
1.926811497166169 
2.4298774010083806 
1.7786904336155982 
2.9523315650474804 
2.025349505679266 
4.2683787122108034 
4.638361433499934 
5.122260233484676 
3.1725299102905886 
7.05831720106556 
4.004347101262522 
3.119741243977228 
10.113109378767735 
23.84386257952328 
23.771608053810635 
16.14392682551751 
19.659814780874097 
21.675440718710526 
21.877723464803328 
25.521529210885934 
22.874504802165248 
20.888208546598886 
17.05552548352942 
21.54339465827035 
16.977111284957946 
3.4017085186357794 
2.820717628389376 
4.031863570912211 
3.531797212043539 
3.7272684350540177 
3.701053277525166 
3.6813906282406763 
25.450114034317412 
25.70459767788263 
26.003942250196857 
22.16911646652171 
14.954994922593382 
15.385645708497682 
10.686991069521465 
10.579820193049574 
22.157285875739873 
16.991543700645998 
23.26905881064242 
23.350421952538273 
21.81042325337177 
9.87160537270266 
8.978698035864944 
7.073666437237396 
4.372407963911888 
9.248886438194088 
4.378609407128058 
4.9464186390815525 
4.5507772840585865 
3.752091713103586 
21.214715754938275 
26.434890080829113 
21.327808444477732 
3.3900678433344353 
3.654082405228536 
3.585583748814294 
3.1096371348186747 
3.155628426273758 
3.205039991264684 
3.238181462406754 
3.4140283089881236 
23.319813334830418 
24.770793586988454 
28.79906050452982 
27.54341561718284 
13.428481657865202 
23.60660409308235 
3.966370942328242 
3.9912944639968133 
4.292893134400256 
8.036960652481824 
4.416607961953711 
3.4923736219383983 
3.7245000473525702 
15.404746926139774 
14.606428375676181 
12.323510814160729 
15.482362165026286 
17.242706685625247 
14.792479107575836 
16.821897574525394 
1.802436050587842 
2.079717319657643 
1.77889813529263 
2.1148628988166203 
2.633229199453044 
20.58597142102672 
28.799146508339337 
28.780303765555924 
28.965385408001534 
18.871696763428464 
28.825809456773595 
28.586741116575283 
22.06007803834229 
3.125589006353743 
3.4403784886274225 
3.146686127000078 
3.715668351411412 
5.43937900310648 
7.759796902471298 
5.892217350247043 
5.5073353491961825 
20.239451691672116 
20.626821576581968 
13.461614029747713 
14.56473174915031 
9.303272674389659 
14.385466497029903 
12.854687599578611 
14.346921669049706 
17.999787708481783 
19.3835156502527 
21.429821047251636 
20.71865448356119 
18.29073400685473 
24.95986868336644 
22.090901650116564 
17.964950672282956 
17.417924801809658 
13.992857084113279 
20.85121265223625 
24.63796499791225 
24.288076807814594 
19.48742519470171 
13.17951948975578 
19.51399896037775 
12.819812611446856 
17.839526552995057 
13.616708567805942 
16.00572418685798 
17.016056893447637 
19.33325004112153 
12.118529792579766 
16.241884700137906 
19.517867802951695 
20.002507868530863 
24.730299969162285 
26.842867855501183 
21.72381428375239 
26.37296180285511 
22.510772620381076 
9.601562499881318 
4.918672758554875 
9.724454750804528 
21.7601255108928 
7.9727098268852075 
9.400729402893017 
3.5336882897902124 
3.5867821402928457 
3.1342168526773135 
3.0692880588892195 
2.9942309433131893 
3.775890871036813 
3.699482814801406 
2.9876395632726314 
2.5206829592494473 
2.8791142754069403 
3.8575120864239634 
3.720688527750046 
3.023855915414502 
24.791716575153394 
21.945916681335767 
18.171087751153692 
21.041110788403774 
10.411102908413778 
9.52737332856179 
6.887931404332669 
8.733886021442753 
9.112170656612518 
9.485156403396589 
10.825102489821953 
9.029884219317985 
7.855700311032339 
7.056082536121774 
10.240473078791533 
7.124526556094499 
10.88804861597051 
22.512359132364427 
23.99079678888662 
23.516491689629646 
6.296384065164291 
22.62052734703493 
5.030367116011932 
5.463838631522298 
6.04469000156238 
7.335446049310373 
5.943743627903423 
12.343904776686962 
12.794396720030058 
10.774122289877875 
13.496842435236578 
15.130781880733151 
2.3053252891732843 
2.573025323383561 
2.961059934531121 
1.504179608458227 
1.6113315722758863 
20.934013718498363 
5.695029921170525 
12.512442330514467 
25.980375245474484 
16.751794657861748 
20.034326276888063 
26.405300408168408 
3.4211467176847252 
3.2391914097884618 
2.670981397097062 
3.115791590569537 
13.806322557406236 
13.696618680073426 
12.932115745473332 
9.88268969658941 
11.681135137144869 
9.747322641894828 
2.2980060448422712 
1.2369745479865877 
2.5993616662872934 
2.894156355943341 
1.4898085770003597 
2.1601701955265242 
0.7893305103178797 
22.46115618163089 
8.356232447757822 
21.57767551516607 
19.12891158480585 
22.606657987802663 
22.40658405771887 
8.461152808690809 
6.884483044487784 
11.673318031937862 
8.97662196817941 
8.757467103087274 
6.8010864625241645 
9.33384608526265 
6.464072704967448 
14.747687676398519 
7.2117082289701155 
7.999915154254892 
8.2154404141193 
8.135684739930914 
10.604546915453307 
7.1470676336612655 
2.791503516000637 
3.281250375118745 
7.038553104720843 
3.9624182309148686 
3.3135111709627014 
3.2227514125329746 
3.952580931692163 
2.9030783507062132 
1.804374928978758 
1.999054040391654 
2.4690856284037594 
1.6389655319953043 
1.1615360050580643 
1.9612150391747636 
5.453507097185193 
5.3680389135211835 
4.980904129628383 
4.484207131857089 
5.85687571040799 
3.8009380413721123 
3.218085463123046 
3.7855048340120376 
3.814719601761222 
3.178419638007571 
3.633009491510349 
4.694441079048978 
4.4838241403470365 
3.2740837651394195 
2.963506759627988 
0.8196937256792962 
1.8929750564115508 
2.1037664891948475 
1.9615378693894394 
7.891306355010936 
7.803583677896509 
7.604202181541269 
6.904673666864782 
5.3864653210443025 
8.200681761115316 
12.926667592644337 
12.855894557826256 
16.348453460767875 
13.031664984135288 
9.580564667588986 
13.729571889725463 
1.8416153026349507 
1.8306759156010948 
1.6246868759531663 
1.3481664955973631 
1.739303058414727 
2.136796043739077 
2.2289140646121237 
1.2615891147817226 
2.1880960352664314 
2.5042660284098788 
2.28974521012108 
2.791371702075206 
2.2255293958985267 
2.1074050550714793 
2.5758159976063277 
2.795721399866349 
3.1085648311234246 
2.5769030541678024 
7.693305229956265 
2.077065820546324 
5.999484108855517 
11.928621645880341 
7.611798887436152 
8.041893531709112 
2.4191559290174984 
13.422088851493548 
11.250182898045743 
11.246105966425652 
11.29227988725972 
11.64304494248694 
16.119489681285895 
16.63675172809905 
16.34550638037976 
15.196434660906748 
13.219327121089085 
13.584370677643767 
16.94245606876176 
12.39808102057677 
13.607109039475572 
1.2281091663473553 
0.8548369056213432 
1.6351755639243468 
2.0350629323900105 
1.6281285712271785 
4.708690832401588 
4.726993903463927 
3.0328768322462727 
4.483494172358019 
3.712273027132869 
3.0299931175707493 
31.130261353063904 
26.82346769068754 
27.006719861246985 
23.206517014895518 
18.478965863610075 
26.920335147675743 
7.601520556612036 
8.088543096962994 
7.726965464712126 
7.034765249108927 
3.245487092855051 
2.823316270996655 
2.5048357779079518 
2.446007866487272 
2.110649536464838 
3.9074353035041707 
2.661314100889646 
2.8082887577321576 
2.248331703565473 
26.41615294248057 
31.036566897235375 
26.087865385873798 
26.74199751257447 
7.318051511520066 
6.627942015930396 
9.875864236737332 
4.856644648993149 
2.3096353101377565 
2.2439815324660928 
2.255700890973494 
2.840537574304674 
3.298706862474518 
2.3934113877132583 
3.095017901324805 
2.1811974146539237 
0.9331000465014859 
1.804046680560875 
1.1220161291018766 
1.8571406840995135 
1.5962264682507035 
0.997739202522481 
4.129941234130923 
3.6302958473503595 
3.746044139796258 
3.7248022638694587 
24.740790492812668 
7.194951847615888 
19.006571596950078 
12.695371025356605 
3.9016324803928533 
3.752522070148227 
3.069120911211597 
3.116074949514599 
9.465437873863639 
8.76216730363262 
4.676023267890409 
4.948074310263268 
17.784072131912144 
20.49217085110291 
10.587656946661127 
6.477477443796709 
7.446843155062396 
9.499939597910679 
9.022286946264567 
9.78007834659617 
3.1092232194063287 
2.37063164889787 
2.655813182465846 
1.779437088110174 
2.4035958196348233 
2.262359070420065 
1.8085830077390415 
12.506763158202148 
14.633997723285754 
18.392262520452263 
3.0681324404367682 
14.026116715355325 
7.964718819092098 
3.8083492333504148 
7.825057856092209 
7.549265760067024 
7.94731876686309 
8.058844823146188 
2.6255846529260713 
2.8705995874003594 
1.791484743547027 
2.8500126670858266 
2.8708761938520393 
2.1439145104995516 
1.3845468700735102 
2.057537664191095 
4.624013696058492 
4.537335578840034 
3.77481279251615 
4.6516984318279855 
5.270990779422945 
3.9828907045803565 
3.7430329030382214 
3.25690745640666 
3.8950924808739935 
3.941959473876265 
3.5268495432841003 
3.2652675177073043 
4.958795395376342 
4.481307545642455 
4.652297942073861 
4.419647761692499 
4.979640224713452 
4.495695855187402 
3.1277162397079277 
10.42736509543808 
18.178655308726192 
9.236372164742182 
15.293853588565664 
9.676513100116633 
6.8044841681114026 
5.27083009086682 
4.857143492598855 
3.8459490944682138 
19.825115350949698 
22.10289802107676 
11.870369168560744 
16.557972695924068 
20.314124613684015 
20.41355339917387 
6.508542382793508 
2.316924532847336 
2.4375713269417894 
3.099241732418617 
2.8954820859817114 
3.16850511040392 
2.3116329248137846 
2.921778049760294 
2.2347245301998786 
13.646560983152584 
11.53348311418078 
10.115385049643042 
12.253645779301673 
16.789183525403324 
23.357408898293595 
14.245963944678628 
18.062075288548797 
26.684438087161215 
18.53561800713702 
16.521284254200598 
16.061202636007472 
16.13910945868063 
16.519420127328644 
10.658084232941539 
13.217114805594656 
13.700288262184412 
13.45614073817089 
11.686506660815924 
14.439740530616897 
8.53069311876457 
10.139721409762247 
9.21115371508793 
7.930016710504358 
8.220103304244766 
5.396141905230125 
4.411433502254863 
11.13542331796308 
10.000201854244345 
12.875940364929361 
10.852165881463547 
16.02710060263519 
15.836852016789177 
26.24789304601092 
13.436697735347252 
14.474859999768597 
27.259851606138454 
19.775792369061925 
26.884377220076765 
24.791886031567408 
32.380585697872554 
24.121030186299798 
17.083982871583874 
18.835678889737327 
6.0152058078002835 
9.155370981115912 
6.489791354610498 
16.15465133220262 
3.1736380841235903 
3.2242206376019067 
2.434068570474979 
3.2984925897082924 
3.5267289030146096 
2.981568657467865 
21.45360663610761 
17.833632747475082 
20.03970466430426 
20.958786018128666 
29.73949811027158 
23.202483755148524 
4.730762831889572 
5.536313516863962 
6.388561536052331 
20.776788257741213 
4.869631898495994 
1.1906006178177186 
2.1995143169792346 
1.3429734205889743 
2.551495029656984 
2.490611638409741 
1.7193079705073326 
2.409651876961983 
2.33760005643149 
11.10795477584574 
17.24799712031084 
11.455100499285736 
17.63786632786156 
15.336712666425518 
15.685801239527564 
3.359230923418707 
6.74990611568811 
14.84187072325188 
9.625921376106202 
7.568129699019762 
2.6081492228263907 
2.9564035655139125 
2.9042567528202503 
2.779715192335383 
2.358349973172006 
2.5282332149178 
1.5699045455181406 
2.448163516572642 
2.923829526133656 
2.174402567133045 
20.786307602976706 
23.848044659581863 
19.452076846392718 
16.01785221361342 
16.534914990184173 
19.581765549408484 
12.671215979552429 
19.844458877533413 
1.6638551005494808 
0.8482388490716837 
1.6612201508288602 
1.9589151836762668 
1.5041015924904726 
2.2015753958457602 
4.6705481976666725 
8.423578172577717 
8.227188347075158 
8.446252411763524 
6.211525990124341 
8.399402196317322 
13.719958103267189 
13.096250395079934 
15.097324136602563 
16.612737325818088 
7.388656082663401 
16.517278833699283 
6.929049829387277 
23.029796901675752 
19.791422427625484 
23.014372134988108 
23.265562453361124 
22.549174471695242 
22.374791015350624 
2.80274124284176 
2.507244391608101 
3.3322256459915436 
2.774581548904558 
3.6613525874610913 
3.4586316736455363 
3.675133880323304 
5.864350346604952 
3.94526382020769 
3.8502529271936234 
4.723098850462554 
3.517357255391382 
5.4624179287263726 
6.700692314399341 
5.721951350507747 
6.313232334369759 
8.022059720957333 
10.491910186942599 
11.371264250745973 
11.616659348586891 
10.949014537520865 
27.967779429378712 
21.62191237882445 
26.922365431569155 
27.85138251538543 
26.098657470150876 
15.06489504185566 
16.397046198704 
18.211720795611892 
18.152344308870788 
15.097401441852668 
23.302807204173334 
26.16227737864966 
23.16064100057668 
27.002456168664118 
12.579135606432427 
7.241134983160821 
10.199555175827463 
25.74153778552788 
5.904073175369922 
12.654893532088185 
11.838907515667247 
5.558676051221056 
7.5288343626496586 
7.778050237790153 
22.264924197373613 
23.164598109523055 
19.333427246303632 
27.177397510529747 
20.759045593014434 
21.033066111925127 
21.188997317166375 
21.01580097573288 
20.764440991803564 
21.111089712119636 
24.243364827133377 
21.435938764452285 
29.662502095265694 
25.644015886070132 
25.78926502120672 
25.357985511670158 
2.4249985533542624 
2.4146847457129597 
3.0260184096137275 
2.6041260593209103 
2.673896245104262 
8.0183243687626 
16.999360121583337 
2.926087552928826 
3.85812593255444 
7.185174664487521 
10.131579669308556 
14.96772442504548 
21.960043600042564 
22.406882651671147 
21.15778370328481 
16.091849293702097 
18.399232075057505 
16.636518263924625 
21.354634791663557 
20.608858696627916 
4.3124646909144335 
7.3209009309064665 
2.9387434875814007 
4.933740317996127 
4.262430052940578 
4.225356050881187 
7.50634760285456 
4.441361489164349 
2.965212971175203 
7.0857304266603105 
6.372602025702834 
5.470990993302013 
7.4788229520519325 
8.461514228778718 
5.030895350769921 
5.278197040013775 
4.367111401729803 
5.150380083105173 
4.854302526794742 
10.177607603067392 
6.205548714712272 
10.775467931551926 
13.997968182883861 
4.779203441456149 
8.549339534528771 
11.693375114690582 
3.755717323504948 
20.97944065241058 
21.32740302908451 
21.89814904809511 
18.517394902198813 
24.81535184063528 
21.27439873569394 
21.94875164426592 
13.164247583869694 
13.097452115501245 
5.661950549022401 
5.119372512685194 
13.926970673956802 
14.154167729735196 
19.415822412989026 
20.799626438884186 
19.34693619801433 
19.203501220800526 
25.559593247056302 
21.781808747378545 
25.739343077701953 
25.707718457833604 
25.586247522859086 
17.11778279623807 
18.61632682179243 
17.05014000313596 
9.82978849695854 
3.8181870316291318 
18.11185075686442 
18.512261637783915 
24.78957626477291 
14.46164229066873 
13.102427012785798 
26.234419132214747 
3.3494956034876586 
3.250552270857282 
3.6690496975180777 
9.181837200347767 
15.732132730506061 
18.402916295405674 
18.266508196789342 
15.041467190898445 
14.601055323211986 
15.366647434572915 
23.580181323524343 
20.7591775730528 
18.041024562685035 
20.289545522864326 
17.684637369656855 
5.832000891396948 
3.4960002468607816 
4.608166883491111 
3.355353291871568 
13.191365779278788 
14.000744567600519 
11.946215469696135 
13.20125504674496 
12.513774826457533 
14.490227336159695 
14.076501211947921 
14.297712340197139 
14.688699142423184 
16.203964065769377 
12.35980990355461 
24.224005560405246 
20.978346067831446 
21.165916156536202 
18.22791923210961 
3.2047905992541326 
4.983273900849346 
4.091409737931339 
3.0372877698112095 
3.3518782035481407 
6.241522894391689 
2.6370913325855003 
3.024436405412349 
5.00094589323028 
6.826360834408891 
24.850837493628624 
21.45100297348445 
21.947570534961542 
21.28537951322042 
27.419356841172707 
30.08072545726503 
28.14491669993284 
23.76651246767339 
16.697001567784195 
6.5920074418955545 
5.157807127595707 
7.5479933166918896 
21.960395672111957 
4.819525506636241 
17.3430910669533 
23.41261289591052 
19.957099009189843 
22.63311671058269 
2.2407814201027114 
2.137229987568827 
2.652228925937331 
2.7721264314622114 
25.753175299211573 
16.591872408428696 
26.480287000898148 
7.869206248120536 
26.62442592519349 
25.809381492149814 
7.990658273040058 
6.921257724283267 
5.6840479956102445 
7.024124823596578 
25.614623126366315 
22.86086525136034 
21.567925058327972 
17.991390622656212 
25.651831040673155 
26.307826612285183 
7.701570686631205 
1.159876991391078 
1.898405362743875 
2.335008855468847 
1.5324317962944083 
1.384297045148787 
1.865257203272837 
8.415268178741353 
11.429288590578187 
16.59922205723946 
10.830378558468322 
8.202653945134811 
11.033039641255966 
16.199030355177687 
24.033446853474477 
6.375816461612982 
7.877946581125166 
7.611505301878379 
7.916018742802407 
12.970541989861015 
15.718331174481438 
12.528018430668874 
8.616479294906245 
21.765824076569963 
16.469833389799753 
22.29188948047246 
18.964829390135947 
21.192218742073344 
19.337430468265712 
22.408467913117054 
21.439813937468518 
11.330755289315256 
10.736702517895448 
14.745216022321777 
23.50679283111837 
8.701878304909455 
13.378480989688793 
14.884006621050183 
9.001168277175518 
8.329908763498915 
20.890917173475124 
20.90975023222291 
15.944690741792254 
17.190473616168234 
7.751052197231534 
3.6397890268919326 
8.449224769278432 
10.627922100885247 
5.93556343696373 
5.458628827128021 
5.481565096577023 
4.768128142809509 
4.643452887174284 
4.593697184405552 
6.646446248200864 
6.298072456005001 
6.781214886665092 
3.255090395330053 
3.6449709267990795 
3.234764815180542 
3.307706200682833 
1.3853848906865236 
1.230775972233571 
2.1890942357619614 
2.174759001589579 
2.317741874271424 
20.802233232227533 
11.242941597703798 
14.94835327319172 
16.004856078454516 
17.477506975281013 
10.099801746619036 
7.059239376807707 
8.228618767218366 
6.662530067628163 
7.0931328196187255 
8.742574865478948 
7.6603395544630795 
7.86273860706503 
9.806321999390681 
7.6229143447874135 
24.486001278155562 
27.271657635282946 
22.629109378227593 
2.9317482211297974 
30.72526849207679 
26.276660203892003 
15.700296971634316 
14.229097780259398 
15.96732803486444 
17.834755255235674 
8.999851780293634 
3.2216998517413877 
4.247815100454976 
3.9025545066500387 
5.2942021059767885 
15.127681226684793 
4.001865306304422 
23.879668184332935 
24.24200107573083 
13.445210138157554 
13.919463061175465 
2.4461118402712168 
2.7559201870429813 
2.9563190838469917 
2.8986975883762764 
6.60788135540931 
6.252193257831705 
6.363524244185399 
6.078531152912514 
6.567628914474356 
2.0772531418223696 
3.5573051213917712 
1.6193657491704085 
1.928481948310803 
2.1735828516686686 
2.267664120879371 
3.0404195657465714 
32.14344265016783 
23.35499555998464 
23.91646864655966 
29.1584921050997 
4.468990500939178 
5.442513897215147 
8.342024363939531 
3.856938049569627 
5.42636512776019 
25.722264370656614 
27.404634912405914 
26.97238078485755 
21.397913558371286 
31.77357557258654 
21.62307611920723 
6.254579713334964 
22.149858763281923 
20.963674957028434 
31.343400013153428 
7.923750744283406 
8.627930966982632 
9.442509281145567 
8.103909412706873 
27.072138123697517 
5.982637134584897 
26.26265042673173 
26.77195682099908 
5.443661248639615 
5.82823895788358 
16.116120121011523 
17.863764790569917 
15.241419174450822 
15.53133723325904 
27.931745017640136 
18.08215426249735 
18.600487338497253 
18.64490736005007 
31.28131318976231 
9.248897172959476 
20.553105722533722 
15.951856248386008 
4.605933997272369 
9.565193374909297 
1.689691115488847 
2.237895583739837 
1.7755551131551601 
16.57119792473779 
20.25805414669406 
19.12927438451596 
15.3914794915849 
20.019479894279932 
25.792186811651028 
20.060721538703717 
25.073162861435428 
19.360114835175253 
24.86940086835071 
5.956059640268122 
8.163398867946821 
10.97943136452975 
9.548157277222165 
6.124651966640164 
6.1418844887206205 
6.790725355137935 
6.102518537440417 
12.378354848851647 
12.47470182373268 
11.764667435156944 
11.737318760489268 
11.34803507473204 
8.723999484376494 
11.628961524822467 
10.268800703771849 
9.805635037681283 
9.852751844136781 
9.181835415642595 
13.285306222748966 
13.134509377447968 
13.204945796263928 
13.175324957586232 
10.856918610462758 
3.46264421461083 
2.4803646083483133 
2.982141378652638 
2.300943763922627 
6.296204449216401 
11.246300768875132 
11.876202697145652 
8.986957185265133 
10.443643282868035 
5.209839668270796 
4.408452033233888 
7.608832657925046 
17.89248170554611 
17.947466997315086 
14.985017318416526 
11.5949508771325 
15.32415249502464 
9.770259416191527 
10.631323665992776 
10.860661143664654 
10.717830127702976 
10.429554820187345 
3.651762500821632 
2.1801906048230935 
3.5505233875351863 
2.57520761391871 
2.5332936670318267 
3.615326771291883 
3.2554911574457597 
3.0331489620148337 
3.014613695473076 
16.3246518639697 
19.221500605723904 
19.21558189266051 
16.06590848608467 
16.92278978682329 
23.206195127219758 
27.50081556360339 
26.906981655529417 
27.888398801198438 
27.578185823141787 
27.142097861124803 
11.400608749412116 
11.302876077079896 
16.580923353615905 
12.436698453893372 
15.172019546684814 
11.73685531796785 
16.85553351916733 
25.95133984137115 
24.728811369875626 
28.29711019379116 
28.500980232630475 
26.597271761546082 
30.023092242747104 
26.75618531790983 
23.046104026787216 
5.4268713889741225 
15.034588366003806 
15.59125095468558 
19.40744570410281 
15.740244302019432 
0.956823997904077 
1.8142673043212199 
1.8427393136972465 
0.8114788916922664 
6.201872993482611 
10.328822759899776 
7.949038236783554 
10.209700142396043 
7.873249002417637 
2.926197023446044 
3.272310782520346 
3.1240394177261153 
3.1409287661718817 
7.194792266580662 
7.887872493788113 
8.603944710246834 
7.324641061668338 
8.50858396984542 
7.999692582156476 
16.564045587522667 
22.05523787434909 
22.051049728480635 
22.34903202476569 
24.759373983099458 
24.393248914384355 
28.82652992556544 
28.77042830709033 
27.104376266560095 
3.139689052985268 
2.964147425933745 
5.169721299350397 
3.3580889393744 
3.0334403753157484 
2.452959222267169 
2.437243723539068 
15.183584406534214 
12.755125114888374 
14.90452520528906 
15.78120947215585 
14.762764692040017 
15.761712720534302 
14.597818632090657 
14.643006514344869 
10.92454936678199 
14.98384816352736 
3.0170283424469146 
2.8125280947663667 
3.4063716517727536 
3.563445760278699 
2.0442456062002523 
2.834195854867446 
3.4451097615147295 
3.2623259925589627 
3.1281978405477506 
31.841964492414256 
23.003415164656158 
34.87423048542139 
33.127930608262126 
26.69299545948186 
22.808381649706856 
5.963695402313705 
3.5713878990888968 
6.349042900767167 
6.303593034677665 
5.164920761912478 
6.547324758224492 
6.598496563761422 
24.88198269877219 
21.62352162864119 
25.8909766146217 
26.48800521688735 
26.06032484366197 
19.7447041776753 
17.21563036804146 
16.756070198102 
19.936819440658116 
20.10641757557755 
2.1123008474840623 
2.3611528303542793 
2.2294263147685727 
3.487699683529051 
2.0991900099583445 
2.4099012277721577 
2.624927186346022 
2.35246807863521 
2.907724226840181 
2.795928239205442 
3.4570925930661147 
2.9027334569596692 
6.190622454850006 
5.388348426754677 
5.986997270389279 
6.13859669800778 
7.163895968416531 
6.6843470998894645 
4.561656678205225 
4.993349156092269 
4.8594272839718045 
4.828453592931635 
3.1828462331113263 
7.8878231738690054 
8.25004901140362 
7.2974274349083466 
7.720416924439488 
16.036112766492426 
15.323766551442267 
15.565181556122635 
17.177941986629364 
19.2389737320312 
8.243666429396734 
4.038549042991006 
8.310843147663494 
2.4626451002425824 
21.290815131090127 
8.58602440712496 
9.747070961440885 
13.253047673505769 
3.0649415570701755 
3.150554440866441 
3.2544363838915977 
3.0245516420273377 
2.961185666528338 
11.929835258219011 
11.733250879094147 
6.385768365185335 
16.343142319641 
14.013198032539316 
6.777806551926078 
13.582979909468449 
13.941966587742908 
12.920872394991717 
15.079997922084196 
15.126185684038749 
15.352385568139903 
13.05453314750945 
17.398393613369095 
16.44562310149882 
16.3220985001627 
16.50453821131704 
13.532635916780153 
18.692416913631675 
18.262153167666238 
17.442199421174333 
17.74414578780336 
4.3215343322878885 
17.04152290798669 
17.529786480689534 
16.710078603601104 
3.91019185684226 
2.3117788388926006 
3.4522044867406283 
3.8196324309899885 
5.2737651003251536 
4.939526661273863 
4.103658447190299 
4.3504386823914585 
1.9127668163307314 
2.475002760137555 
2.120889862264014 
0.9103350827923786 
2.963721238578682 
2.7086602915498164 
2.0007998346342752 
2.915463563232661 
17.004376689882644 
18.184049865972167 
17.041197923737048 
20.238004096623616 
20.570746067305016 
20.940267230506024 
21.022879558375475 
15.1113081670508 
18.005239046822673 
21.950028610847557 
20.633418357390678 
11.986772653153533 
12.357431046489342 
8.402748244317694 
13.086806462469939 
12.721413253491958 
5.574332659009159 
10.485269434255688 
3.0583563794049766 
3.2047594578104683 
3.174654915247427 
3.3827194107827934 
2.9478800316396323 
5.581051174545897 
6.46850496855121 
9.536463428836472 
6.535523832478467 
6.891312785413405 
3.1644940925117138 
2.763069870580891 
2.6779296662100065 
2.6317307349483166 
7.3748612723340505 
6.2199719159925495 
5.764661693429422 
6.7486905927619025 
15.813377367265675 
13.438974995902843 
11.990538798163811 
14.187414094064232 
9.875483288404277 
11.77295828096721 
10.039579432239133 
10.653706417946378 
12.257059170198897 
25.32661811293016 
21.21195638200595 
25.250554499452562 
16.05282509234424 
15.828812260013354 
18.45594109571935 
6.800764016030157 
8.164248009590796 
2.752656635569833 
6.937895572115718 
10.017137635544593 
10.132598570971515 
9.88490605131153 
6.983240282206061 
12.73230296021066 
9.636764263382364 
13.502960471722899 
10.246455151495308 
12.994027112793235 
13.275124445999174 
23.293694776191636 
4.150177257926448 
22.908819809578794 
21.253817771796285 
1.8010216790831803 
1.6206595004941766 
2.3039353961480584 
1.543737451326921 
0.9276608249995648 
0.9613708268878766 
9.131274531886701 
2.3378184642808533 
8.06869606881267 
7.297472999755746 
9.155388851372368 
10.381040626188963 
11.418915729093834 
9.11798498409842 
9.690357579461432 
31.670258487766564 
28.873168937223006 
24.589073491353854 
29.085112599905166 
20.664209343506077 
20.132406268845518 
15.296433433358112 
17.363031361179388 
13.759631444525434 
5.987401236781494 
6.013945492078574 
5.76823245972497 
6.692323956668391 
5.671195146931632 
4.278575539654801 
3.179843829717176 
3.2508911454517406 
3.069790907312901 
7.117026379577287 
8.574907083234207 
9.384241114914213 
9.300263847918274 
5.357946130536899 
8.536490090055949 
9.307817092316274 
3.2445332910253835 
20.19983959889802 
20.919057199842857 
21.050348756800034 
17.68387769364823 
16.82622045965158 
20.74483284679871 
19.674844744290024 
20.643669084245893 
16.039233978174924 
17.136840076971165 
14.912189276897456 
16.954148835788164 
17.033594698177595 
14.00403026495861 
11.65295533089343 
11.402098431512346 
14.012517445632888 
8.505464468534939 
8.578512768393393 
5.317582250541631 
6.230999335233543 
9.512001957278096 
7.545914427656674 
7.49625189165429 
3.9183055305032903 
17.87243621621941 
18.711080362296855 
18.460418045339978 
18.04597852909061 
13.76279296879262 
17.906308238890517 
14.18670896072775 
14.622329942150843 
14.495521434572941 
12.467535077289726 
3.4423688147235474 
3.4664372385004274 
3.4386660260164508 
3.812269649041256 
3.0761661898755834 
1.5230857664180935 
2.339685018863631 
3.124239353414197 
2.915954507775362 
2.467845988679607 
1.9831761252241444 
2.53019503614198 
1.2462365560280342 
3.612529279798154 
1.525739402433061 
1.686661124406026 
16.037563053793036 
4.454279207917073 
8.822171576473066 
15.119241346141107 
16.099398631050843 
3.877150656952324 
14.614382661663369 
11.90390201334669 
9.447944891311877 
6.563605303800209 
9.398869676800487 
9.20149541745575 
26.318951120418454 
19.696773651392505 
22.797246313196393 
22.910612698477802 
21.34942489119006 
24.1626691634662 
20.910889168997155 
20.934707151674754 
20.807930755451547 
17.684478659829104 
17.390314228921554 
15.349430268255777 
27.6943357834442 
28.220610296638565 
26.95963732866313 
28.121724752140786 
17.756254063887503 
18.93069032011577 
19.620340007605456 
16.489966864532878 
19.474969609514595 
16.0115876280407 
22.325248446317005 
22.29242689141999 
16.38645629863094 
20.59343945893653 
16.027658572055966 
13.223173144021002 
18.402812110284785 
13.77844011976926 
18.19296171049834 
18.254771797491397 
18.538288149862147 
8.56989909770002 
8.628334340044695 
8.803706208234118 
18.726140310699897 
13.78286420849912 
16.57048093868836 
15.594896117217324 
24.527664134927385 
27.096297726794944 
27.284547391774204 
26.918285816858486 
26.932851409666554 
24.348737669182306 
26.630047381761734 
27.662619242373122 
8.782492037869616 
7.953165489509079 
10.339040317011987 
11.693819442587065 
5.964775167209302 
8.260532598616594 
20.640053677817928 
30.048712168441806 
19.813067560812303 
32.062102940051005 
25.630871225591207 
20.868367686340346 
29.543283973599582 
8.701090350064193 
4.355411568450548 
3.5460522067209337 
4.367699483129833 
3.469770036479693 
3.556942582562442 
4.539800264796012 
3.126332894203807 
6.22518266814127 
6.8985526958374335 
3.220748568070934 
6.139945288199486 
4.987077234770514 
3.667460754993981 
6.685189136021994 
0.909384937237672 
1.9620022861769055 
2.2673696164390127 
10.266083140294473 
9.496873674384489 
13.678223284800177 
10.795862026036678 
10.550564352074883 
17.34818556069397 
1.6924314693063514 
18.149935819618186 
22.059395036531452 
20.87190014114349 
16.117932848512375 
21.76395913778601 
19.550839477540528 
4.582323479950694 
20.006457023942872 
16.310675369209665 
3.4311424631567253 
16.69204512788885 
14.044593269726667 
30.534187134116298 
21.166351083164674 
30.00872253409165 
32.63284765231686 
31.422062963600357 
18.561635483579927 
17.174220729143922 
30.4209656347792 
29.501254820678522 
18.95120261069715 
17.1943473359844 
16.553803425683004 
17.088302122436215 
30.473735353049097 
26.304500460778062 
23.06694217395041 
27.268307368420153 
2.0363422019446333 
0.8853042593849907 
0.8930165762859547 
0.8334556033114059 
1.6566513473176074 
1.7612443549483878 
28.867781910019197 
26.500315748197806 
7.307299687380868 
7.616417085200596 
8.98094964524634 
9.059462902383432 
8.58867623894364 
9.580319744572522 
9.220109223359477 
8.563670085326867 
10.161203568566464 
7.74952131032613 
8.598864449304589 
21.71137800273858 
23.091126986718958 
23.889119859009426 
20.212612321857183 
9.939650334879383 
10.436717318691798 
11.037399419664967 
9.251942127239019 
7.689242757219432 
4.947844402208635 
23.85593405233046 
9.010565614061331 
3.5893017443859407 
2.1255285832951483 
4.767011151270471 
2.2802237078510723 
2.279532618408058 
2.6443037742887086 
2.194575629263692 
1.9183288834178 
2.4736643461252243 
2.2203612635224905 
6.590573693042789 
6.305679609960498 
6.357824593174198 
5.577781514791693 
5.904016191035921 
5.558427295243343 
5.665935487451129 
7.906880590511396 
12.581529802450747 
22.476894616301607 
19.113087791138746 
27.462679524751096 
31.148103461265414 
26.67771170070868 
7.526740126731881 
5.822300481855616 
5.262940783785667 
5.901826667288084 
5.429774455418749 
28.12224734104397 
24.254871885206068 
21.17110937421002 
25.204348296501628 
10.628239066259312 
13.256628602856884 
13.308417770630587 
13.186688008343127 
12.938744291857143 
16.644026252627313 
16.54580589148041 
16.015788632096644 
16.34681199637598 
16.331558041076363 
3.1944454912781013 
3.007785165088677 
2.392237005689413 
2.8200787118045825 
3.7234037399181306 
11.742248094559873 
8.869025243220834 
12.215057819079906 
9.749690505209728 
3.2701878607549886 
8.503383894843726 
7.496729148081127 
4.555607749620686 
4.917107472963683 
3.2861630728981024 
14.737329859598622 
16.42501131454083 
14.469425381154474 
16.70999189674734 
16.84186006011555 
16.68364320826188 
17.914141319874254 
11.73932028790216 
9.0659374781055 
17.338806665118245 
14.719381313578815 
12.88497081340088 
14.554102312853042 
23.16350566134319 
23.787236698255292 
7.5259159363566175 
16.337274640139825 
3.965215437679745 
7.002932182225873 
10.58290161614019 
13.602470110799548 
5.77453852439611 
7.577234325173943 
3.877305994446975 
5.051949952308603 
21.517991735731375 
16.295224886459273 
22.078118208265757 
20.945147050980296 
11.812661072706666 
4.262750883029233 
8.88403703938497 
4.881021195719891 
11.194049071295126 
8.220505779045816 
11.423575500423805 
4.039029611988111 
6.568646179628878 
10.59120850213915 
10.225179339808271 
6.386649026167739 
7.1718778394356 
2.4273934727954347 
1.9695251385540558 
2.591426422678328 
32.207377612301244 
30.756492482775318 
20.80483555616862 
24.27323307944891 
20.67450926644955 
19.49334323204768 
8.630278533237522 
9.645943190786157 
20.272492121700175 
8.499746072975846 
3.297714048532742 
13.41575517879312 
22.14995516022914 
22.73758295532712 
19.746730220749424 
26.094190772535157 
22.140695860385588 
4.201480363039284 
19.873910602781827 
28.11033788957353 
21.58201757497766 
28.22178120055785 
25.558006395684544 
9.47832476113037 
3.724960332820385 
2.539124277489182 
3.081020945845191 
3.2991100633944797 
3.0794617150289767 
2.888868906956774 
3.142394569710389 
7.948539194952805 
2.4950945963198063 
8.577532307119078 
5.623774400416363 
3.541430519258618 
8.24356018446873 
12.560591228315202 
5.452147794671835 
6.659408153904318 
12.780734890443403 
3.345333182938594 
5.122427209087303 
16.270509083179277 
6.693928636650965 
1.094461637173388 
2.1646453166888 
1.9411647641561798 
20.65509088120753 
22.964110688441103 
31.59683474094853 
31.62440170029107 
0.8797190303679298 
3.260009706614632 
1.8541313560628474 
1.835176093247425 
2.1121118233001215 
12.968490980478371 
15.733994656194636 
15.775287967459859 
16.060140234586004 
16.219414336118593 
16.31922015773763 
12.374420870240735 
12.971363090137578 
14.617759869507344 
14.992712535003623 
14.7044449769218 
1.664842235226691 
1.919148214408175 
2.5232191304340046 
2.6520378477380593 
3.135156168031501 
3.2406186597767808 
2.923440124179889 
2.088485771964077 
33.50482304935109 
27.979900569187805 
30.803650010792886 
4.503915207367297 
8.758470241997177 
3.2793786682505 
4.541473607094937 
17.65320382433676 
19.859331608735594 
19.084056727286818 
18.637826162945657 
6.24393230392642 
10.59507650779647 
10.610675887689975 
9.914088895317562 
10.349659068628064 
8.123567084367187 
9.810785731585597 
0.8134466223316826 
1.9786365687520608 
1.8199707651907546 
1.758945719462001 
19.205219715479295 
23.137153305669987 
22.843617557606187 
23.03052821639601 
26.792020163989324 
1.6282980071359254 
9.647609225704935 
5.965003410807817 
21.214177471913963 
9.67396609890327 
12.6090538451203 
6.469267729542381 
10.991003900920772 
4.272623675806806 
28.444262038768407 
26.44381731258722 
21.330902453860233 
6.700715532010534 
3.5318378032502844 
26.36360929847983 
23.20106851040609 
16.245393543945205 
7.204400041057201 
21.851161831470545 
5.022778451363121 
4.287388691734473 
4.343359030481819 
3.7188234854561317 
15.223264179495024 
3.6344166310387873 
3.608861708489135 
2.847106792314583 
3.654217855103407 
3.5160149475516027 
3.2200324159276152 
2.782299928199078 
3.4693028519765727 
2.6178245340135122 
1.8733814018340453 
3.453535076712207 
3.0742598120233016 
2.8815982743949022 
3.2921620592556846 
4.102603547212027 
26.67168456535731 
6.331290915107412 
13.130424167523342 
31.108530821442063 
6.341079419397859 
1.7080528573802631 
2.3113758192594798 
6.947169247691451 
10.038606219804537 
10.74454077369974 
21.991158556912364 
18.941070565750543 
5.535571302382144 
21.851956572657457 
20.232066927452124 
18.531333086759215 
3.485638683397824 
3.2287403757271016 
3.669034914367225 
3.3391782627938165 
2.993298392863618 
3.43516766487022 
3.399639993848638 
2.183776614003735 
2.19419701545724 
2.1719088343243893 
2.5968150046804297 
2.5654087610576424 
2.7242687183875813 
2.1409481355196527 
2.1614843559001793 
2.7382124845781246 
5.291912395824843 
3.5767826513593315 
4.803535635013731 
4.183039910167229 
3.8782399214725185 
4.585924233269241 
3.7332434297187924 
1.7339881304648703 
3.4304515952099064 
2.197002903304945 
2.822270470572223 
3.188484270708133 
3.332622129967053 
4.876385751990288 
3.0121427270434014 
3.855192023293996 
8.348675166284416 
3.6257318026924565 
7.070715304972353 
7.247138026918412 
3.884133716858638 
6.466936024650292 
4.04360541859417 
4.359173055875894 
3.5292677842074407 
11.654799591408967 
3.610700480751678 
6.223393864449337 
7.5333084113019995 
2.8466867286466435 
4.152358850933767 
8.778933253538439 
4.631469990711386 
8.70724061433795 
3.929722582459785 
1.694154885616726 
11.279267679938636 
3.1573858097336647 
3.243342633590619 
13.088649020643132 
4.2364677108629545 
4.530822112024965 
10.89829435035076 
8.414931101319986 
11.479369150587198 
12.144596292258782 
2.2110857624489935 
3.7174222008678197 
8.212956946287418 
8.875554585889526 
7.74852174958214 
25.66041443728619 
25.778688404650016 
24.685696772023743 
2.1532412179890934 
21.129812146761655 
14.96651830923834 
15.096870591426502 
19.953490330492617 
16.9245894237135 
17.454241463153515 
14.90426015461515 
16.260477064900254 
20.521894673874197 
17.387160960589043 
17.880861770056537 
17.156712431312425 
16.95083387956984 
17.153953297619363 
20.4419047868319 
12.974688924916853 
19.305575821907308 
2.019651463346585 
21.737570658852945 
26.345852365166426 
22.856525416046477 
19.84752087291469 
22.602845596268605 
23.195563205663653 
22.0620694123132 
11.945297375618344 
23.64924668898225 
17.282831167117475 
22.293771043299913 
15.321554616539693 
21.316701531146006 
12.787200655577193 
21.688109329113104 
17.260056927416333 
3.1121762354560505 
4.137225017420951 
16.126298479923097 
3.1303907859587548 
4.585586503309538 
8.952885083096891 
5.5451605632970615 
4.9573501288296855 
6.309224368554377 
5.7623462979880316 
2.2626829026595163 
4.864344772672969 
4.463010386163678 
2.815572596065428 
4.881525193040131 
10.646249790415618 
4.131125387796358 
2.2273834588800874 
2.349553146901183 
2.565773395779047 
2.3123523103002035 
3.296458678517952 
2.4216184788020816 
3.4168751517781883 
2.2996841568916633 
3.7471093886295623 
3.32740132793202 
3.1930349591448652 
3.3434403146741825 
3.2556797012592567 
3.3462529955474 
3.5428779586508585 
3.2382323458380147 
3.4211811157902208 
3.5020191868475026 
3.7126209449424525 
5.258785792045486 
4.938519719843248 
3.5750598956798174 
4.8236926165551575 
3.6557324532016744 
1.5984862505136923 
3.213462972120098 
6.829594563116969 
6.9535025834020665 
2.9137350727871123 
5.075449502374935 
3.855546474887643 
13.416631947516438 
3.3121703770666056 
12.132523714385893 
8.73157771245864 
4.633745243597056 
10.940444535230847 
7.805642285194714 
12.722148049888725 
13.207048091633956 
10.281783629161591 
3.3272643068626264 
1.6985614350879739 
5.448571545073846 
3.269825215437252 
2.935033682728535 
5.489424562359281 
6.506637570224612 
11.246176724003762 
13.29550559266037 
13.597960084323795 
12.743719605814682 
10.447111118299999 
12.839547814251373 
13.253563779323523 
8.940458092953625 
14.289373201717243 
3.452442619652918 
6.640409347245122 
16.66500461935508 
15.544219808761596 
14.74767941457986 
16.46033422239888 
3.1572779962848 
15.054851188623246 
15.988215250439298 
10.856904448976639 
8.033717896580644 
10.256190222082543 
10.915062556817716 
12.509898144342184 
14.647037278581646 
13.3557391002139 
9.12294419919899 
13.384942873135357 
9.392943213543147 
16.26698667369325 
12.145485553107264 
17.00067851637127 
11.325521953754773 
12.183460515565796 
20.755687309148687 
20.195451620099277 
16.597455321157835 
26.176371986837342 
10.237821968310643 
19.69963235014842 
27.790657566849287 
20.771198000273486 
25.647056356494005 
26.838517879868323 
11.800378108109665 
20.470832858246386 
30.70145641398086 
25.15986119693343 
18.840190923647448 
21.773463682073103 
25.665339897263255 
19.686021856745977 
25.199902815543417 
24.653713640215383 
4.477822794991182 
23.47883049795195 
8.74078547707591 
11.6892764504968 
5.114565871111354 
10.649021410337998 
3.869042236639631 
24.443345581255944 
21.359893386128814 
20.575649795121436 
4.185642229410794 
9.599293855505163 
4.922633308116525 
3.7137433330188507 
1.2696783205526576 
7.317916907377044 
16.217227991536593 
6.25946653093201 
20.71513943837554 
21.847233243285203 
6.575002111717544 
30.845441606675646 
10.370877853430699 
8.698671019108447 
11.163951739867437 
12.99207192752695 
10.084682357795494 
21.850624653479507 
22.336645541669675 
27.30342146739054 
25.079962850533118 
24.350663623433125 
24.890747661464964 
23.491624359667828 
23.860558639216915 
2.245904525730374 
1.360297563408331 
2.211374457745097 
1.4253817310267278 
16.536135981350302 
9.21939105323146 
7.131268296851137 
6.4941474033986255 
3.6945984695526293 
6.396417831232911 
9.591398427053065 
2.706807521183491 
2.7774244088453757 
5.643731698584139 
3.6634404931756346 
5.059580653397876 
7.749558215310323 
3.8565185936239605 
3.6585282459920285 
3.3050660094870055 
3.073990689818707 
4.189951581313037 
3.819357536340527 
4.1025098283022805 
6.971766358263069 
4.049953060778373 
5.732258097362724 
3.472343456265473 
3.137616487488382 
3.5569065043699446 
3.2427010620765477 
5.132386922354971 
3.4699809584815413 
5.176593933372565 
4.434961714424012 
3.7856918880288677 
3.636613794048237 
12.800761603926228 
7.49382869235982 
11.311875861228707 
11.458996358169257 
13.640152757662623 
9.776773770628798 
16.580061122708077 
10.898470397288568 
16.052583842712682 
20.58589221045904 
15.674558057509051 
14.113416465307468 
21.272869830987617 
5.088456788874944 
5.905370997761462 
19.159571682021515 
18.74833392952844 
11.229617741927987 
13.722202629839328 
24.319654625914804 
23.60417126893743 
3.729545211326297 
20.76024179191174 
15.219879395652903 
9.954596394602586 
25.265400503726447 
10.53785131883529 
13.43357437827741 
18.374587259472722 
16.10589080446243 
19.194918315821322 
14.962687101405457 
18.544391646914363 
18.06732905952123 
14.390618517096973 
18.54678224722197 
19.95273953238217 
22.389180984040184 
17.4419721557125 
10.322424995524086 
14.48111279785348 
20.11152527023506 
16.820771060259048 
17.245807432073214 
22.699481990472833 
26.479312096942014 
5.778545932622941 
3.3033242535672662 
4.155310915264606 
3.9550096050023216 
3.850922906198792 
3.4253087710369683 
3.5360660539250253 
5.491508337427197 
3.377354356994785 
21.910493844032086 
2.7795005802915282 
10.437688550156176 
3.641265932182919 
9.552708948320399 
5.132369747182682 
25.258233390719816 
3.252963206502508 
3.463492134171256 
4.437361323108089 
3.7050120167361595 
4.6164924875652344 
4.008775686913694 
4.477422678356544 
29.510431019806834 
3.2022474984783607 
3.3219835072819586 
6.28955161224535 
14.097102515461845 
13.26484936951957 
18.34753207476273 
18.18422130933867 
19.664272539944353 
17.825666238040032 
7.582547258516792 
8.726512103459953 
4.892646448474046 
12.195191747126064 
5.04618132672985 
6.837823550411214 
6.572104609676896 
15.6082340436201 
8.472871704695962 
15.32910948400248 
7.367648988526088 
10.86221122339333 
10.410028024331137 
12.758212803244515 
13.814628663541983 
4.3700943712161155 
14.022635665252466 
15.458559946580849 
4.27936203080457 
16.762665600529257 
10.169133187140655 
4.532798870075427 
13.731166998212462 
5.7261001673054395 
14.268018392561455 
8.918110602906479 
20.5931893775262 
11.46439299157963 
5.368588067415303 
8.904795604575755 
10.435604658385992 
15.64374053031138 
13.172459904380982 
12.603960364480967 
12.468797531892395 
11.100574032341333 
8.764780916142762 
4.103169001139482 
19.85252604381115 
22.067141661394423 
20.69965259116796 
18.93193761746583 
19.738841766055778 
21.719507781034412 
21.805222855391747 
11.122753653472627 
19.528245598998804 
16.24769134909243 
18.534836377181772 
15.769651993990488 
11.76544398401885 
7.711354600302629 
12.745874116693905 
5.037772838085121 
16.46209600386136 
13.079840565287736 
14.50831960749114 
12.944785533119992 
3.4553835246858973 
3.1526065090289976 
2.6511113413949974 
3.337505574412593 
2.119360041013586 
3.384311401395193 
9.879073296376724 
10.143034583866358 
16.691603630021813 
7.8204434579346955 
11.73137392715306 
13.29353724232127 
12.099592953896522 
4.607806131362484 
5.532906118995041 
4.830255311531079 
5.029263436148779 
3.391321039150402 
3.6450074637060332 
5.139309285897721 
18.082394448455116 
15.565613683413503 
16.914318084456376 
13.01946787898425 
6.760956020412799 
14.16170254379824 
13.283102508417329 
12.134328903337826 
13.161446731862991 
3.0505524758900795 
9.825536153098726 
4.371871169839098 
3.461642772773328 
4.961631818394427 
4.254450536868089 
9.278847967146781 
10.391013817305552 
2.328106299183133 
2.69330655104162 
2.9976657016183834 
2.6913986177471165 
22.305349934773453 
16.52936263044161 
12.270353724882057 
17.15515281207861 
15.604120050618203 
25.178783705163692 
17.97289931345658 
2.39488933200395 
1.3753691948238096 
1.8951680634568144 
3.063475253502092 
2.653616797680492 
3.421479175901362 
5.884943597141835 
4.862343262031667 
7.482906330916345 
6.225069922469985 
4.992002138634425 
7.901451925684424 
7.4999353214111375 
5.813982839308706 
25.706795442881564 
15.914093037509787 
19.00506560850031 
23.122285307325864 
16.15578376050234 
14.930802080020099 
30.87217874221792 
22.828694980486507 
9.24303513406637 
11.572935297966731 
10.122916162296654 
20.968412629667647 
16.370856144109148 
25.081276677272644 
4.028283273665875 
4.030932477289811 
4.401859248936531 
3.6271763176577103 
18.117501119795712 
11.570757611488402 
15.075561336905178 
15.17365304804209 
18.204030402136727 
5.496387957875256 
15.198332837080322 
15.454572694015397 
3.2418022660460855 
4.994461694336859 
22.12913964750247 
14.19643188185688 
26.688762016207498 
8.095099613473279 
21.90903179488685 
17.379187737315924 
15.16943716018726 
25.795768792315226 
25.91275688563844 
26.894036677056818 
22.559090592143832 
8.113894239415627 
9.157751247504699 
27.974476022909034 
16.232020190113797 
7.08735021716388 
14.99056719966303 
17.71074594278134 
22.73400475667715 
4.573886625394987 
26.56497450831757 
13.91859603292069 
11.798868747485866 
13.704705230858709 
15.504582438694424 
12.979540766930098 
10.624302907000452 
2.027115769114842 
18.47491009473305 
8.182066944277086 
21.745600897722937 
9.192016105543004 
12.803685613796011 
20.687086299884715 
24.840480991109402 
23.594374708917403 
2.747936173160966 
4.740755062673526 
12.520143822008288 
14.483518189011196 
21.76995696336905 
10.995418342833908 
8.494353697317573 
9.924728923976849 
3.3453377353775475 
7.777858290652432 
15.535754772551686 
19.0063890029923 
24.75616118695118 
14.519676179488982 
6.372148536922053 
13.928555305529406 
15.925733546708221 
27.075546738673793 
26.53571313537029 
12.188253572318782 
7.083085080327661 
2.5210231749819076 
6.098090277638909 
3.5653062329356833 
1.4716607168017923 
3.69910654881523 
3.2282063523474127 
1.9737108531363057 
3.466646358935361 
8.903925608981615 
10.291010512613843 
5.551501296288385 
9.726577835723527 
4.4437668313871885 
3.346414775958816 
10.824211049612826 
2.1488476851960976 
2.462869376984005 
2.9418320703949927 
21.40921391364715 
2.222244249197969 
2.485605203802779 
3.45223888919947 
3.5445102116325664 
3.5503740813428957 
3.1501990878157655 
3.4187246025387723 
2.819003379349892 
3.4166668533478894 
3.857564214162576 
4.117012003262633 
3.181176081362616 
3.5205942451587235 
3.2739365800226654 
5.8200783774014955 
4.9236844036143514 
6.541261690462361 
5.0196436812669125 
6.3242687024599755 
3.18150531776583 
4.754488712834524 
6.041431001432607 
5.576092032854417 
19.990526557518304 
3.6960380385488176 
3.7514100273702162 
4.3012745087521616 
8.480672395073958 
5.703916027599945 
4.373780798510758 
19.498422032101978 
3.1652151732059726 
3.551236780993742 
6.29636331653551 
5.868125270427344 
4.438875883488665 
3.6428386424591417 
5.21407499313966 
3.249292914843775 
3.639019527272015 
3.5397418242247567 
3.842684001436822 
6.315640458813196 
11.790312027972009 
8.780307858754583 
7.243040472192345 
4.127692656051617 
3.750106100733496 
12.906024950457772 
3.4700998164441486 
3.520451454885048 
3.0691679254492326 
3.8287103654767805 
4.385563412016952 
7.165945032411897 
10.36991194873542 
8.201118082348675 
5.090809543244233 
6.888853755554369 
10.330740073495619 
6.823851967560238 
5.717306999350083 
3.383742122754616 
10.161783343023702 
7.905293759328806 
10.339002929924314 
14.905245229668006 
5.064260574626367 
10.828837569466458 
11.632735473844646 
8.640665317528617 
10.582570293126103 
10.19003278530472 
14.026864910098677 
13.535307382516057 
9.985703888583371 
12.946699147510653 
4.9578970349386475 
10.025803780573096 
17.919882488323847 
13.236776979975831 
16.38229642796623 
7.924396872206557 
11.049688919443295 
13.432846683083962 
3.3561568381503095 
9.645729251030923 
15.348366268164995 
3.9870961666764617 
4.024865786065202 
3.775933507978885 
3.7729903376427623 
3.6493374091119803 
6.845115296000708 
4.728104281695576 
6.974233734649964 
2.398067889525231 
8.286900020361244 
5.837280331979543 
7.332180566306379 
3.2687613291449953 
5.492834908811964 
4.871555109888172 
3.175474603373773 
3.7528411386185514 
5.194368484655056 
4.7578499385378965 
3.9099358237645103 
6.8183346081380245 
5.566498852647216 
8.456206472487255 
6.0180914213970365 
9.438126650673127 
20.967889067928166 
4.339682774944491 
16.785122321957818 
8.53015390444016 
3.4174990560998206 
8.468374834924637 
4.67967329505055 
5.076044845184413 
3.174077064865288 
3.276776044504378 
8.204709546168038 
5.1176262802067285 
10.250007440556962 
8.511395397324907 
16.582749417468197 
13.813578106035042 
23.21205684896611 
11.472025876069868 
6.920361102818981 
3.6946618652577077 
5.132323009055588 
5.193766683103111 
5.358262083801164 
5.852783903613344 
3.783827377681049 
10.995392249396764 
7.036186576922973 
5.43218760522258 
22.978457142241208 
2.303352025046485 
2.4364800563657507 
1.772619279730482 
2.4220605763503107 
1.7621669609376622 
1.4436583475015818 
2.2926330357917637 
3.303649904396753 
3.182873377980387 
2.549959810782008 
2.831215156354849 
3.2489691484200156 
2.614456560363984 
2.420416694875568 
3.137491468571303 
3.798623664680931 
2.767005612809492 
2.87769452977675 
6.862278241536295 
6.869066313887825 
6.349403339619021 
5.595324088988055 
5.363575696299843 
5.906743590391737 
7.044691118447164 
8.12192773374198 
7.61322712390286 
6.7834303240325955 
6.3280424163833 
8.725227337920083 
9.116564241640567 
5.750330863862222 
6.630856576694055 
5.520426813078199 
7.994702126612512 
5.516175864613275 
6.461358253425546 
10.934030825612576 
4.3241712973104 
6.407853381113414 
3.506332166276195 
10.421193678865091 
12.15585892320531 
10.520562161715604 
12.614554786711683 
8.501231450608381 
4.755118030207022 
6.341597491259234 
12.597094136798528 
17.199451852537894 
11.60881833017734 
6.34354832535913 
8.942835202438463 
6.810736537856797 
4.174720371678757 
8.26213116502575 
3.471848716105218 
4.834465969568356 
3.224152054354388 
3.2409010566080942 
7.0698692618848336 
2.9211999611043487 
19.27810232186605 
17.08096446109657 
16.09017649721381 
19.01770246305387 
18.341261994945864 
22.968062907144216 
19.64856401430683 
2.1549019165193006 
2.2951493166061536 
4.652839135775205 
6.119094721940923 
4.541480677265736 
5.316214605473925 
15.994744377112005 
17.092599157782193 
6.384638935163582 
15.665982303679225 
10.424946409808868 
7.403148570527158 
21.54805006633663 
19.699876739361383 
25.875726271019786 
25.446804455143507 
20.40260592148168 
21.48966328166746 
9.183789878627477 
12.824118043804985 
4.904351783179506 
9.017026108735262 
6.788798329093537 
2.4773777983608274 
11.031625405496365 
3.498325899793975 
19.80439578727634 
23.0241060462822 
17.544943250397257 
20.788505224101097 
25.891241726256055 
28.20690908661183 
22.868826315740407 
27.404633803021497 
23.207328566073354 
23.341198132755537 
16.74960201889576 
25.199394216284315 
19.066023658474933 
22.752048961219767 
21.631571567995852 
18.04856549482115 
24.90512546936096 
11.177081741559347 
16.455066054599676 
13.135337013403735 
8.709650911706659 
14.135685584176853 
9.294970848038565 
3.143830835769386 
5.0653527575923585 
20.163468838897025 
23.30333910306643 
6.3784030135350775 
20.58839271733766 
13.172844099415848 
8.008279956999381 
1.856810007781494 
11.664761853092163 
1.972065309149552 
14.704069138190098 
24.895946717451583 
8.14347328944528 
13.278551986300215 
16.46755839486367 
27.060960619676568 
16.126471215014142 
18.28890460527051 
3.4572022809627834 
3.3297133747926466 
3.5388631589144044 
3.4982981038812624 
3.1894233022926253 
3.3934375772226177 
3.360831098546236 
3.8213907082425944 
3.4104274270320443 
3.1494242640774663 
5.269252501756347 
4.569420306799398 
3.677647241204102 
3.5210444422452194 
9.597010034503777 
8.124503607828341 
8.864538999389426 
6.044315683049254 
4.454846535481204 
3.8606387804101767 
3.551805359472239 
8.75786704395853 
9.99926725189203 
8.009975700540778 
7.5172637380572755 
9.51170695797851 
3.151481986346299 
6.476972510843123 
6.196980992974267 
4.883132092163085 
2.6980617461753815 
4.1364678686936145 
6.762988552077468 
7.410362517101115 
3.7998224820782722 
9.877629375953171 
14.017446772119602 
22.872489859577403 
13.446791022696274 
3.4630385160030888 
15.843092870569752 
23.10677351229303 
14.197178326458385 
17.06400506488662 
14.499229975212186 
14.598812873171518 
17.857249622352725 
12.898129715755772 
5.267241457915609 
14.90121439409534 
3.5184052518735665 
3.225070470783143 
2.2153005177700886 
2.3470651644414344 
20.809998025121548 
7.190867039594815 
13.562518488885667 
12.836186471845659 
21.590844925448483 
18.905308498886114 
19.138624656392686 
3.551589194760592 
12.648936026975905 
13.045093263662098 
20.397150317823964 
16.643480728915733 
16.613972213716345 
18.75858735220823 
6.7735962939292795 
22.079026028711947 
13.796651435912668 
25.97104679424737 
21.648535975190214 
23.928191224922713 
18.65165115853632 
23.723921754676706 
24.239479813924376 
23.24918799447638 
25.346441525108332 
25.14189410137402 
24.844832997745012 
25.06014772547622 
25.23432378709074 
21.506085097559396 
16.709991930888062 
18.116280722070055 
28.18343698488508 
20.63367031478702 
20.211490694947557 
15.589411811608688 
20.693295627501143 
3.4713612859034706 
2.8561285057431065 
3.133335915024122 
2.802942270253474 
3.419512903920863 
2.9207269965814873 
2.8710470971816053 
2.7025861320533435 
2.6460235767280995 
2.2991311195315722 
1.81208872270415 
2.691194369635022 
2.8732069376961418 
2.681569461657854 
3.4108672489398164 
2.8558522756154696 
2.960067843082225 
2.9752955887037102 
2.9815442077928447 
2.520674946441537 
25.45899867627133 
3.3469903619618826 
3.359184500295112 
5.293462169647981 
3.2246272254587356 
3.8333604775930628 
4.001746719944163 
4.191990423999453 
4.813563272789414 
4.5516369451015075 
4.029896429422852 
7.070796138588277 
8.093761225080726 
7.491107661347113 
8.24855267381359 
3.2393175838440547 
5.66437257070307 
3.569657486994467 
3.722298242893228 
7.056191446569391 
3.8761625748765853 
3.8414891506982602 
3.1657958949546026 
3.820836659701587 
3.7635883311594105 
4.456564487380437 
9.151837909338166 
10.215406713641189 
10.46840466535526 
4.004293647615752 
7.535749755489687 
12.717257066376146 
12.103428739459304 
9.714353316145335 
10.652815341851966 
3.1738934384001207 
11.356836752351686 
2.9880116995399644 
7.152111016727439 
3.0007358016508183 
4.982261947429976 
2.9892940388306672 
8.479318249042004 
18.894086576937212 
11.515849033409925 
14.388954923200219 
16.188507779528184 
15.981375381106432 
14.479478272140414 
11.759376573546422 
14.76788939197765 
11.43579845281485 
22.251758666198477 
11.724273322700764 
6.630369421720889 
17.329760112083644 
2.102337803213863 
5.947556390257802 
13.647901801833322 
8.348254010279469 
19.5395157661387 
2.8857332563717204 
5.782532503181699 
13.470143651508454 
8.884688895665501 
20.962763234149193 
20.99942880045002 
12.31746895405693 
2.369293427860389 
6.239209321483047 
4.7746632231938335 
9.57244564956645 
8.917860184896387 
3.2733352662455286 
3.351661354904613 
5.057532124936724 
2.94926733191834 
3.1174694945473074 
3.2338302281935567 
2.9898234272352067 
16.51344231208936 
20.63406761678932 
7.000783144763017 
11.882254231670414 
21.772945107154456 
3.029129796713993 
18.11240324398808 
19.584104209093212 
14.652062613172275 
3.581996994622882 
12.827843654523313 
6.217463111936809 
9.147423061420666 
3.2634522778965254 
3.288003993870022 
4.507691843736916 
3.176773506539002 
2.793928043068741 
2.7262420459285424 
3.46879172815162 
4.082690188728264 
3.283202534410573 
3.5927616226347454 
3.744323671509823 
6.591442583671213 
4.200236401478216 
8.113244261338957 
9.180417877860327 
6.640404235035276 
9.37783169335724 
7.148455796691522 
9.065843836550773 
3.3559201997967474 
7.457233132440325 
6.09420635906993 
6.689623064451581 
8.589037618260136 
8.096394407668896 
10.66374400808882 
20.665261091260838 
19.98165054503961 
21.46589340680428 
13.301903921214926 
20.761527450139244 
2.671450329380042 
2.1659242401043826 
3.0083917185828795 
3.159535925491917 
3.2983579398128255 
19.025446095793942 
2.7755508137366345 
2.8846113110259592 
2.0473594711197642 
14.647022141950712 
15.290468062077705 
19.551917270165777 
14.359416159098325 
13.303275964468883 
12.804331164102047 
9.730593756476843 
14.300582273404956 
9.879176982163207 
19.01316854290116 
12.642369993607229 
3.4092385626976447 
7.154446428248546 
14.808786338596303 
6.0426932011282055 
26.43395339057661 
2.857017512180796 
3.09974642227826 
3.0998595488569807 
2.2775984948294328 
2.8449294210639096 
15.263999587206234 
5.251659631037444 
19.300299545240215 
15.31459345507792 
2.3448336323122674 
20.09241319946602 
9.189159636774457 
11.798467623285532 
21.210309868477975 
13.515385975447167 
20.497632408449405 
10.508643603734386 
12.900223879636046 
11.224994013334504 
14.131786994444814 
5.074124512308203 
2.370031766944061 
16.385584277771407 
6.778701163180655 
3.9347619921600154 
3.2212625151221292 
2.962924969513804 
21.095894546412985 
15.158059989960417 
13.541732218825395 
15.912185095504137 
14.25416340924098 
23.22620268382754 
25.614957669947533 
22.84813911116833 
7.060986791289947 
2.6973937027584483 
12.60151130711698 
5.409858951567531 
13.565493466419582 
2.584400751046317 
14.796443634698946 
11.848833391544865 
3.411213571551082 
3.328736592251569 
3.528653965265224 
3.781188962825936 
19.206913267058436 
5.954636487971678 
2.2000293996341838 
16.25385276413822 
2.6545033494615016 
2.142794179748676 
2.6389723334802917 
1.810434894608893 
2.797730946467737 
2.320793832636907 
5.120132380404966 
4.0595467770287605 
3.262204043128722 
4.1168162436526075 
3.9549613845011518 
3.163355458720132 
5.135673748983904 
2.023209750469904 
5.700875494016374 
5.274735298642353 
5.911862894884126 
10.440817285687169 
3.0882938487969716 
3.6533450732397337 
3.038487169107823 
3.020601545517174 
3.4246509743069597 
3.491253014134123 
14.717322919761664 
2.716033369143559 
2.7909121273187507 
2.7621147332023073 
2.6481086153306728 
3.3773483886112765 
2.725085339700289 
2.7651340661388573 
2.3434123298613696 
2.2218960281245903 
3.1474541404365346 
3.2536813563490923 
2.3977029958552807 
1.6679595917073033 
3.6248148964545366 
3.382639930605527 
3.512996186690485 
3.2362374937652314 
3.3644443273618942 
3.4546038582606147 
3.221806661628794 
3.5889630590263106 
3.7520084953477686 
6.023561341790923 
5.242292960839526 
7.104827512191509 
3.763335199454735 
3.533577026971922 
3.3439588305945454 
3.5932738403887083 
3.1439133669919355 
3.46664212499305 
4.767703805000382 
3.363493321453967 
3.5068463755581245 
7.366401141590387 
9.213731488506463 
4.578489094356004 
6.873272725370427 
3.4617276531846044 
3.7838350381762913 
8.204110769559959 
3.5297175418809714 
3.9711998610488477 
3.6753495623553074 
2.770994531023483 
2.5594924340941376 
12.177839527299387 
5.768331519364552 
5.241460463438866 
3.089201364134679 
3.204155909254492 
4.008053477837466 
3.2283721105737304 
4.599248323467872 
28.21220383954025 
31.963939155584644 
23.32200630993976 
18.09466391283055 
17.59426811302073 
17.860114599667938 
4.753500065386147 
5.0510857210519875 
3.9447242731044785 
15.972973829182228 
14.97798901465377 
13.38258351623683 
4.0722214982618565 
9.380500934612018 
4.203330589549788 
15.865811001787765 
13.850213731102878 
9.212466210585362 
11.069460481042732 
12.67994815622335 
14.042644048501948 
16.222077846389205 
15.237070037311641 
16.161336045305898 
14.392138528889465 
17.780178150840573 
14.285002020938947 
5.229032199188582 
10.156355128737902 
13.316106952759963 
8.60854825459718 
17.01354485660047 
16.541339317689985 
9.625251162106172 
17.087158965960455 
14.165894065153616 
20.308542481112372 
17.326983689053577 
17.060854222979355 
5.349784479276036 
3.0304793681814277 
4.130112734839891 
8.7186259041517 
4.6433567674943275 
13.131200945125096 
4.44092392841694 
4.738069882008003 
3.3839044777525307 
3.516116371835079 
13.038706851780091 
9.331266074147505 
8.877984023964506 
4.768498100397367 
4.146390834455694 
4.280707456359272 
3.9226375176678254 
6.495637335560811 
22.876509676852386 
9.057176925049278 
5.231154040811537 
6.841382554990198 
7.605354594321746 
13.983612815135338 
7.329922274432324 
11.74679491145775 
13.125066819145083 
13.641034090250043 
19.10178562150976 
17.304048266546207 
19.745382908581067 
5.117832968040574 
7.873295944849833 
25.067994498740386 
25.49788091731281 
19.50287520667458 
28.688122034073377 
25.08210443646933 
6.525158289926087 
4.245630654778002 
8.47238885848418 
12.595343770199072 
2.8344006745961488 
2.2817084069329012 
2.089256581970018 
2.3073405460374974 
1.395471087931153 
2.7738783881265237 
3.1889288880837263 
6.279235808750491 
6.442912269822954 
6.07989624693473 
2.461717496491017 
6.395448987061112 
6.661715662805658 
3.2402670902201787 
3.7719254962487563 
3.4745555840213687 
3.7890175909821147 
3.767313208254148 
3.2576177971032516 
4.004203029583547 
3.6473537601014017 
9.138799777975777 
9.260342718585601 
6.908094425681874 
10.878678374265116 
8.376304138462904 
9.228865175922147 
9.293359619919514 
9.208369508509033 
12.457967093640772 
4.417680868137389 
7.3002973813116565 
5.660666212444682 
4.2750242214250305 
11.13527283313916 
6.939681689098777 
6.86117316739892 
4.059180672102734 
14.199509208698306 
8.848928507768138 
13.142800220104043 
7.820678398590157 
3.5472843080853793 
4.295769049141817 
4.016109144987717 
3.439971653287789 
2.5578821528061653 
9.161638646830271 
5.551421167853183 
12.141510260700105 
15.657547058269946 
12.933756316757508 
11.734512938174777 
11.14921506943707 
17.30031323349117 
9.633085687379271 
17.7802488302991 
16.53815689866942 
14.312374564497263 
13.563818090020066 
10.457827747507 
6.8747833701398 
7.709299304864667 
6.213701106539014 
4.135010555218025 
8.978681660381662 
4.379836161457474 
3.4855305856533008 
7.762089286518684 
11.423506071436108 
4.748877609622782 
5.341217710089492 
5.676475753685181 
7.12822044491977 
5.08860038701117 
5.349079377456022 
7.193766799155752 
20.42259814718285 
18.694337219052006 
13.903891763982019 
15.967436019116063 
6.897761616672437 
17.51278119619079 
26.46400921708639 
25.45033495090399 
25.14110006717635 
23.845191458522986 
24.078868867924438 
7.330775721598979 
19.631377169271243 
5.211924640660847 
7.630079214825313 
7.732023182220132 
22.102776439467466 
3.4365754719643085 
22.634383661665517 
7.963932260573859 
17.170707494916012 
23.925627507655634 
16.258022122308745 
22.20734093324598 
4.004680339487245 
19.18043177762143 
13.320418584854206 
24.396657143306122 
19.18426681533765 
12.839975655178034 
5.150748847959548 
4.166897544464629 
16.414833217932717 
21.798700640251802 
23.265497665202435 
22.15838624481986 
21.132653136599565 
5.991518348997924 
4.868312574778735 
2.199311809639393 
10.546766719043159 
16.21496730915639 
8.472207677554826 
12.865660177108333 
13.35170767989696 
4.059304060291842 
3.033493878600959 
6.210916191736935 
5.331210976124308 
7.234766927076791 
10.192111915614275 
10.838495520731609 
13.251273376392213 
19.85041188545701 
25.344029356937998 
10.500701977209042 
15.585712073203824 
10.90632630106535 
3.032000999682234 
2.9895980205818042 
2.4580736104112573 
2.8170636649504504 
2.7432746795583496 
17.80556585288354 
2.4940532173895438 
2.372337733987334 
3.847318316127479 
2.976108111849358 
3.7531922820706063 
3.348305405183362 
3.7674016306048146 
3.1154892727324244 
3.9803760713577403 
3.475421432841608 
9.270982006872963 
7.298844721196593 
10.790664261082014 
10.027871848420022 
4.756868210029522 
8.496089418425042 
10.644415911289093 
8.253023538855947 
10.290109447172217 
5.941818910507177 
4.267004542914097 
6.847096479174725 
4.286395809563531 
4.099576280135749 
15.45184130285386 
12.879120213191118 
17.514478987354856 
10.766603649913428 
13.767297939307163 
7.211464641686683 
15.874141152462263 
18.64512251195389 
18.51788590271315 
5.011120653616282 
4.479906987467521 
6.976985956396363 
5.244617455271116 
3.5557032134724524 
6.75420962502494 
4.812697712785127 
4.680414517254171 
7.248451952374823 
15.436186535619044 
17.084596628577323 
15.03804264347481 
15.811216941119278 
3.0038614237369154 
15.560011534461257 
10.128909294625148 
10.637038508901897 
11.057529224661012 
15.776096705271629 
8.102143334912427 
15.792476526419234 
13.771398579040417 
2.427967872908312 
14.280095893657721 
4.709379896368641 
4.162697779335707 
6.710532632804701 
9.745285536460598 
15.83572023732782 
22.101906184927987 
24.430888919398676 
24.26036175075647 
24.61453075885476 
25.176351038509047 
24.94189056400947 
24.04086488092343 
4.766766095556974 
4.7127085609530965 
4.948425760845664 
3.361314034704085 
2.808157012229589 
7.093742620003065 
4.2340170218279605 
0.888399669775295 
3.711408488845077 
2.9092981281580035 
4.535278992775433 
2.528522143541694 
2.6114400622086555 
2.500860240882372 
2.5221132972571008 
1.8573582364848182 
2.029478676388387 
2.6078667362852057 
2.3510119642645475 
2.516260511814822 
2.2755221168843476 
2.8096239893339074 
2.5445156392495174 
4.001728788744225 
6.330469773697184 
3.72686351700392 
2.8097828710710404 
2.871353400892035 
3.3460903230318584 
3.2189867467866295 
3.1157114449505188 
3.26148633526464 
3.88429656200819 
2.8812427716404123 
5.235237432680577 
3.907715197696693 
2.5130688444604603 
3.530547567539477 
5.702985653310295 
5.40452066070852 
5.405496167617221 
5.710682798999839 
4.641525334999571 
3.334092283803658 
3.0317178896924033 
2.8176783492790363 
3.2150583626042297 
3.05045974012293 
3.3929154894263363 
12.311486320873783 
16.113173590964145 
13.800861589654156 
13.464974328177895 
13.808151721196772 
12.457074982211989 
14.018284955469648 
14.002243353752299 
2.8746385466087774 
9.713433160701099 
4.185502432263569 
10.724490614526747 
11.05773924938148 
3.6836281306647196 
15.254848418849175 
9.59937249000395 
3.3892461561034937 
2.257965196042875 
5.322755813688955 
3.707770642004398 
5.226759417042966 
4.54125676360893 
14.679604617708035 
7.35200858187776 
5.762027325237225 
18.46032757530938 
2.3431551951134924 
24.30219315985098 
22.156565341876092 
19.985033099706254 
18.149479070008486 
13.355894587137508 
23.27602860480465 
21.061948658890255 
20.4230417780168 
21.31971464700054 
5.402836756336968 
5.9713369976279775 
21.524366631366135 
20.967842929138797 
26.969134694554747 
19.931941161346312 
20.748216575182777 
20.388571806984316 
23.390095274318476 
16.944042147742714 
16.596068943532675 
26.077126415529428 
18.661819400814554 
2.91045840453184 
3.8508067547101317 
3.69435257249067 
6.218310507940952 
5.718948588680083 
4.382825015008288 
4.98604874409305 
2.8928091425725926 
10.669742547795316 
16.05585730801791 
3.158479818870284 
18.80323425578351 
7.978197430982966 
13.403913486463578 
7.080758797688823 
1.5929315142677347 
1.7144083098030258 
3.3177584357954144 
1.5694268263799154 
2.8916604288910066 
15.507511631159964 
2.061111408649219 
2.096582374150779 
2.5312940210638515 
2.3044830246645853 
6.95594075534083 
11.951735782444482 
11.803702324347107 
6.991311886928463 
9.722670408282827 
7.7995310781508085 
7.613826743530208 
11.26009548418827 
11.401089657746333 
12.826671659077547 
9.183912966093919 
9.273375076488824 
10.296923725928204 
8.899167773544267 
9.452089043209336 
8.52031361832748 
21.861692310628058 
9.310801522307054 
14.609125589855553 
19.373971950292923 
20.066108324168813 
2.5155045873050974 
3.3146446553033884 
23.22904976710028 
9.2425836035143 
3.09914427991232 
8.746135520677656 
10.577379083630019 
12.321875560463102 
12.87857328557914 
17.571477431815552 
17.95094247014374 
14.51686453164022 
12.812051033583721 
13.210720554127239 
19.39618889433755 
19.538792824356385 
6.802188981893457 
2.2941054743033544 
2.5956375630436015 
2.7281512999224167 
1.7779515135636834 
2.199998650853808 
2.8495002996206296 
2.184366469569586 
2.260585973444551 
2.858715662084699 
4.219688979389279 
4.562828067305767 
3.3050141493033904 
6.071675913281171 
4.539293142844586 
4.776165516138613 
3.1964918183825053 
4.937330856048355 
9.157433600086925 
7.322684486294233 
12.67137410118936 
10.485995753874976 
7.739386382091093 
19.526896247553445 
16.37583375416496 
13.622422533816854 
14.273842862455224 
18.96847734717671 
17.62965860631776 
22.456603754072248 
9.282673671381824 
27.114519609385805 
27.5420828562882 
2.659601561893344 
3.8358097776538562 
3.655996482582839 
3.5099523380510225 
3.6007975167914363 
3.377641459426741 
3.4485439210213804 
3.200216848848882 
3.3512136028441004 
3.311061942812163 
6.590589606884984 
9.897443929648084 
10.1465082829589 
7.415602338739918 
9.90140041583867 
10.779372691329874 
10.47416628854727 
9.619652044588022 
3.4291037331900145 
3.2705100430671994 
3.3033668682417177 
3.114285814453094 
3.3386443170915907 
3.0067595804233807 
1.4264612238181311 
7.027400409402702 
11.996355656099999 
4.182231303968748 
3.3299211495798744 
2.82161276381788 
3.4938368895933145 
3.1644757586538983 
3.24589542690167 
4.243653950782986 
5.082305693795371 
4.081816874306382 
3.6814089842671085 
3.5653654131945984 
5.943003049799944 
16.209880770491647 
17.680441397565286 
16.146278969676683 
13.450092353741846 
17.124030542848313 
15.695321460617487 
2.7189413438656302 
2.9537543749758077 
2.854526686405748 
2.7887740367999343 
2.01287886639283 
2.7800475005570804 
3.0094319525893676 
2.8244251918681362 
2.825487027555355 
2.996369064904699 
3.050063971988338 
3.072443764894398 
3.0984628645908243 
3.115493819024403 
2.7999515551322163 
3.33698960353354 
3.1524220978595148 
3.1581377081598196 
3.265192772714714 
3.3969163511296414 
3.906847007455238 
9.430552848250274 
3.386656712579916 
5.10392297094478 
8.643704683899113 
7.118108794224062 
4.238389589611767 
4.66303612821472 
5.395855380334785 
6.752455703249951 
14.52131657985743 
9.025132677764194 
6.943305350056582 
3.432025586760829 
3.3646172656194535 
3.339416470149266 
3.846305325466541 
4.692588230350817 
9.057535961914335 
4.126914377963202 
3.556245193223257 
6.906328385092857 
9.348565821402255 
3.181775044452998 
7.883163286948256 
3.748106789351045 
3.7788964265182043 
3.6139990140898144 
6.062945814163459 
11.893613706352163 
10.153333797490275 
7.884592303959459 
11.010726699292157 
12.133438494389221 
7.249240466438517 
3.4126384767198084 
10.193992052134952 
3.866199306475953 
10.78444458267792 
4.146936202928244 
10.224323292278362 
2.606996814552066 
3.546464783175772 
3.4570400785909294 
4.360844905053093 
3.5723682773571785 
3.230430754314576 
7.879365816869737 
4.433988548378148 
7.065203890762081 
4.863196807606977 
5.158939133182079 
3.3765276008015124 
8.97750500221586 
10.579718074131305 
9.233184729742687 
26.247632320563344 
21.725160716819428 
25.073951444705344 
24.229895711665588 
17.214728946456816 
19.22795320932333 
25.71727115442544 
9.147067265887518 
4.873539686017028 
3.928325294663664 
4.340195294886352 
3.457878305671923 
14.955510045980798 
7.15370694794916 
10.769449696434009 
8.033180734426878 
3.629020080726335 
12.163648853130361 
7.334360279884234 
18.01512936303201 
19.775536256125292 
17.049122476436818 
16.857747461380956 
10.428782627441313 
11.67228438991771 
15.015502887366932 
16.30289395335095 
19.2529399284375 
12.96926759367254 
16.814072271041677 
4.756326066817415 
16.194457176778748 
16.020690687587575 
6.217573595025617 
9.132044984834087 
4.218310798257671 
3.608217582910465 
9.62930594880961 
8.197570767126027 
7.831993987558822 
6.564110454854793 
3.2799329304329925 
12.441585222142388 
3.993033508180304 
3.957525912166087 
4.0783773999326876 
3.7129373323522845 
6.1524225105404335 
4.572074218451089 
6.099788187297778 
5.009520577506608 
11.689186317600019 
4.999934376827033 
23.537049530702173 
2.753614040924668 
3.4575899163844306 
5.881738293553215 
19.03326961394722 
3.4882841631020574 
4.736538622913447 
9.319671602611832 
15.923460466872303 
3.963633010464894 
11.943497283992404 
5.793380783511695 
5.1333102976968075 
3.926590485804782 
5.026314234158179 
5.218055614756168 
3.5335805076777547 
4.2551093159488875 
6.927696846210563 
22.300871142498984 
14.249106461513067 
13.676501031310307 
6.876534391460814 
2.327653299673185 
1.906871618899721 
2.7705524120023046 
2.3849938872140783 
1.7049990741931258 
2.056416749790756 
2.3657821902085456 
2.6582106104182834 
2.08244091776456 
2.2183730347482804 
2.100407940347657 
1.675504791000456 
2.965316707092645 
4.329463417731166 
3.305119707095994 
2.5577610817679246 
2.145768637784273 
2.645671701109917 
6.34709807383471 
5.150328162123485 
6.581999272076599 
6.177750090530637 
7.607510636526347 
6.370347749050764 
3.2571108399364936 
3.2762623116653113 
3.2893999669051315 
2.6817665094665033 
3.384440652746383 
3.5304028224975568 
3.1190685003861995 
8.232684801725284 
3.7454593769487436 
4.173532799041091 
7.564826695066605 
3.779211110689171 
7.632171753593607 
7.668492459320023 
9.101469173251408 
6.436334795092332 
12.559233662706669 
3.901852454888688 
8.555502225571693 
6.211345861252603 
7.1676720245592485 
5.293818573913219 
10.578494490857588 
8.39344063253106 
2.940390083295652 
3.699796540847623 
3.9050732408514364 
4.8330267349350775 
4.611701116942888 
5.99170417548935 
8.76418197167836 
6.538899280227071 
5.030089259039401 
5.050442501564193 
14.858088076664627 
16.70296508830529 
15.466966215498386 
9.092022215102018 
7.556746529053987 
14.218628489796668 
14.993589232953454 
7.935633454582914 
4.127147185318194 
3.443792616728839 
15.599617774136116 
3.762644266715636 
3.443208524936659 
4.658392415355611 
14.97229273166314 
10.043028836706329 
6.802485982889833 
20.11201096390625 
23.2227765139407 
17.432034030059878 
20.19792434454116 
17.91591035770786 
19.63308864822055 
23.704197806586784 
15.91217485621856 
16.281882998381153 
12.009332441016507 
10.95584937016937 
9.578763578701414 
13.232331110407555 
13.297307147886592 
12.11816587062641 
24.55079712661135 
27.948847991993972 
23.207639382721325 
20.45263016116597 
22.747609372330945 
22.303522906811015 
9.844752841424786 
8.855170770231828 
11.129464031795171 
4.198563196694416 
4.160335965495851 
12.291570133770868 
5.608661073634551 
22.1302281095076 
10.255182445794501 
27.79626563470862 
15.061564101801926 
13.014087497361535 
12.913738751684903 
8.469435076257852 
18.306058639615085 
26.700270923937804 
16.877019747726855 
16.65932742364227 
15.925121914140833 
25.40083190288201 
18.0920119654631 
7.562752955544396 
18.991511665360363 
18.809981872305908 
19.657293619690083 
13.944886193855721 
10.525569477043302 
20.7246082372938 
16.55568398725519 
16.32481379120292 
21.58036108116707 
5.945473169582575 
12.081737166513355 
4.24889316624785 
5.325156857677121 
12.623299488435372 
4.598416446345915 
5.122927675174917 
2.8500920802472174 
14.1007868360727 
5.6299216356606765 
26.116707557108324 
19.328152064463936 
2.8274144934136314 
6.690848080127663 
10.181570627260548 
19.986981630873213 
19.855235252897508 
21.993802703311662 
18.228744441768818 
19.42654350272415 
20.126325380457306 
21.915938608352004 
23.248808108317917 
23.51312020744856 
2.1526794374373197 
1.9968403381015427 
2.946828926781275 
2.641776132132859 
2.5226762747722113 
2.3504516017641213 
2.6263016320464305 
8.956083500260487 
3.129344011778879 
3.65428406304942 
9.080369987747675 
3.207438931618499 
2.9551458971066817 
2.706567294663031 
3.434998407053936 
3.924428438391751 
3.066550474006624 
5.909627966446092 
4.929833948949784 
6.729496805672332 
5.992388780656965 
6.623317674798109 
5.632470957570623 
6.855523339831087 
6.441875143534899 
6.100158398687749 
7.138891797848343 
8.667548720798273 
7.352135047421147 
8.43744678258541 
6.772971181260556 
8.398536641247565 
6.3475403849887835 
2.7857987887812627 
2.4859385197321813 
2.5631103172878396 
3.1367459095668306 
3.7924299723445483 
3.9474465219328465 
3.416149226822194 
4.049455058505448 
6.360020151521163 
16.12682277796432 
19.449384551321383 
15.269279596024713 
6.319336389361092 
17.24325382726975 
6.858003211330995 
21.89618446949473 
23.608606472964798 
16.664070707215608 
22.037360958026245 
16.589361775145644 
14.530010376403895 
25.187941950381823 
17.85931656973697 
22.408569514293273 
11.936502904697981 
5.338047429604527 
4.1108405469639955 
5.22849866511926 
4.63073610203059 
5.437231355647569 
13.249766312826825 
3.065706754510182 
18.291443052589194 
19.789850775139435 
5.960896146830029 
5.16703533954475 
24.74168796839446 
25.485524027493945 
7.885728313568674 
10.526646689307814 
18.520936860061628 
17.081632750748764 
19.367541868791438 
20.786545960304572 
3.777938832774657 
8.655092825003008 
7.4426264906263375 
2.318365504674541 
2.3254465365718064 
11.272507103784637 
2.059186531547751 
2.674332177721022 
2.5467962078638395 
2.537214239580435 
2.8153094137102372 
11.169888622817684 
2.3628342674481706 
2.424023123840011 
5.2381120434319355 
4.226771107267244 
4.639292596947667 
5.690058630980275 
6.290327668252716 
5.885695110882293 
4.396291519840704 
3.400438910724953 
3.300025368253471 
3.592548609812176 
3.5736711311870573 
10.839770057992688 
9.658716894888075 
11.775925810506159 
18.92552872211353 
21.139889360173342 
3.1939587162109957 
3.6240641486103224 
4.074809078067005 
4.246962450798286 
4.645290824166915 
3.538366148901214 
4.007177840698416 
7.228103975622518 
8.328126655447463 
3.2960818877091933 
3.3870831216257478 
4.0544337639971415 
4.061460880760611 
4.776405000717276 
3.8090845361844092 
15.695746503209458 
15.301741713492174 
15.234445024819854 
15.242048618553827 
22.380244191734114 
6.602577289312861 
2.8054177971056906 
14.95410787563102 
17.939613358357445 
21.408780879671767 
21.533793352886043 
19.165306402795842 
18.873225510919525 
19.612686512596948 
22.341684789250085 
22.511745024781774 
4.518125281386385 
2.6947303273505465 
8.289937055792576 
8.150858329803057 
3.3576080873808305 
7.94321625959627 
6.500592987236335 
18.079761842824208 
9.443633141917017 
11.718361513980476 
9.058134467917537 
13.364028442947015 
16.36495800161361 
17.763927805756406 
5.432759163146144 
18.983201422396963 
4.297608819715251 
7.051568793843344 
2.9470281516866415 
4.505928148217535 
12.727145333826732 
6.935806301152623 
3.3781440886180016 
3.6007744083039244 
3.0296667671067654 
2.871278719466046 
15.80818193220426 
15.960155976208869 
15.763109382246503 
16.562687582892696 
16.563860803319727 
12.580234613002352 
11.266455884152826 
12.71883098490297 
14.745271214775459 
13.386484699569081 
7.168520752992443 
12.684697915054471 
10.973152002831261 
7.338736853191622 
5.510222931670029 
11.191638662045882 
6.40405003101574 
7.529183852418699 
11.343800330951114 
9.851423731326713 
9.429938608270831 
9.941774512501059 
12.188393016472645 
3.6158239146551723 
14.194720619432006 
5.601485801122353 
4.803690283035308 
5.066131127040887 
7.295831418641639 
7.084637816854809 
6.02616695468371 
5.832628057930522 
14.94666089372154 
16.919764223581875 
13.902317942322451 
13.345429334268523 
14.461627476467028 
10.416691010089668 
16.04854032598558 
7.28013689507202 
2.909463624980968 
6.456708536183004 
4.197965978186454 
8.528763214755399 
8.50201678693132 
6.096982268004785 
15.36041114536452 
13.555140930720173 
14.041412224839155 
14.450073891360022 
15.856418845504617 
13.479023672194108 
2.3174893247597277 
2.2590453253606912 
2.268386181238002 
4.472879661866742 
4.434525732553719 
4.4284358169125015 
3.889999362177912 
8.233204567594559 
9.815935983784819 
4.325795746123647 
12.351246092241869 
13.05254509914625 
9.130035936039988 
11.6059664550018 
8.140002960378816 
5.726194148935034 
5.856644038888145 
3.4275820639581767 
9.615602225889957 
13.847158285353354 
6.301664238989453 
11.499357525807559 
16.147836504588607 
15.512375742049233 
16.464150647690076 
19.516658975849996 
10.449598271577429 
18.304175052419932 
16.932464460078187 
17.299243365705173 
22.526947168589313 
9.193870283140901 
12.666652375789345 
16.823485697518255 
11.473588052701581 
9.00531658123051 
9.044906098572321 
4.366733853015763 
3.278347617429063 
6.008491998144541 
22.813223917391255 
1.5119305851405793 
3.5838131680029752 
7.240194503029505 
9.055416878653181 
9.017350444704006 
9.637462565884293 
10.998378577943035 
8.47149917576359 
5.527296898027387 
7.029515340272756 
19.981060540013566 
15.280950029241696 
11.687907883475727 
15.962457627499312 
16.177225020696795 
16.196932552961602 
13.916654670922815 
10.697493073476721 
10.572399069555113 
8.140822553970795 
9.997564864153835 
9.1381211415713 
9.837332774488006 
8.493821646644601 
6.959903289905049 
10.031261999962599 
9.210602014634791 
3.828470881375466 
3.826373689339102 
3.207025877351674 
3.570388035067057 
3.3185608794788672 
8.381634394371455 
4.137860051926328 
3.3547597350702283 
10.937942576934315 
11.491163816266159 
10.946126509715828 
13.150526134200621 
6.5786843905247405 
3.16163129077642 
8.131583221240636 
3.1639007238282173 
2.498763362096149 
1.253779074442358 
1.9105860952005462 
3.277557831065422 
3.3984259371096264 
2.725767146761729 
3.3465623008447722 
3.5130357840597424 
16.476484744743026 
17.17230216228506 
16.997990242597364 
17.09034208381542 
13.588412683201664 
8.021066348162444 
18.711392783597063 
4.72252848483127 
3.9371066056771937 
6.171060579607573 
7.624514284876724 
3.1122728536949347 
4.486406906719458 
2.1726750154340597 
2.8144957341287 
4.43162090975688 
2.3442714794172943 
2.1717226686735356 
2.6510925353349117 
3.433683255779942 
3.5405112905845084 
3.1430820168719205 
3.4468412336702756 
3.479299586284129 
2.7333262327327272 
2.920757981325068 
2.6031917727952636 
3.1616567432568 
2.247881609561222 
3.202771857440499 
2.809608908158062 
2.775963351742018 
7.6974506895394 
7.52992871420936 
8.713408229705346 
6.430514483728503 
7.406414068321969 
7.233943259952969 
4.802595720487665 
6.585238481210409 
2.8508863963558744 
3.5544507817949738 
3.4196975504632476 
3.254417331797358 
4.773793646847374 
3.2205131226550128 
3.0612104088931735 
3.6946072357193325 
3.5620943519040518 
3.203242768085366 
3.6652293897819357 
3.868695273804333 
4.258875480498929 
4.067342446572585 
9.59491356480466 
8.998226748796757 
10.07679970684838 
6.914908636053058 
8.926987274514213 
3.795600986224701 
9.375004245710644 
9.076890427698917 
10.076244375408479 
11.111413481266098 
4.834196812034047 
4.230599228652671 
3.9328488358299256 
6.569110470319863 
2.9814082555844794 
4.928626237168101 
10.152049776637439 
6.198817239854262 
6.826052750191105 
3.8148914411389803 
3.1345971337773233 
3.5405429562638626 
8.21007838921651 
10.991445561868133 
7.717563561739051 
10.235380451256807 
11.083464545382997 
9.144477998697562 
8.755497232152834 
8.988389447711512 
3.6225996586367257 
3.7359481633703018 
3.9188424593777103 
6.516350424902105 
6.242613195797954 
14.493102425883425 
17.970553186814847 
17.968268868229224 
17.885941620221505 
11.585235943513714 
18.17500281168824 
16.245489077984267 
18.653664716804744 
20.348664556062687 
17.432281377090646 
17.70008583976635 
18.766760518332397 
4.05754742897097 
9.575406968976097 
14.69370523499339 
3.7332316777198 
15.577853484712824 
19.046448894473585 
14.795862853826842 
13.206403946397995 
15.259337421232066 
19.44989010238991 
3.281498796264222 
5.189332372876398 
8.511697014241374 
9.202464607441591 
8.431506469357243 
21.521875011819183 
21.799485919142583 
18.24232974068139 
21.654179390553484 
21.40139221009632 
24.13438519343695 
19.499459973897544 
20.862324181400126 
15.027050620926708 
21.504492806212888 
24.266787152138242 
7.064853870897945 
8.176370458924527 
4.4554036687711225 
3.2251446361666867 
5.309735447061824 
1.7012333596210094 
18.95742597547421 
3.4088853452544523 
16.340312886500055 
2.8180786075930975 
3.677121171700673 
19.833084567441677 
11.961935138867535 
8.446385481780291 
15.175063179769115 
16.705848486548973 
3.891849665185449 
6.9502157953582575 
16.46616388384101 
24.625096546503123 
19.66576100831278 
15.860796551223986 
2.8857953145904727 
2.6368126488424766 
1.8523767346248283 
1.78377657900458 
1.3606407514726262 
1.6040212327896344 
1.7473325151880799 
1.4402579831665252 
1.6826104700375997 
4.1884253579902575 
3.772251787856886 
3.743628597592515 
6.498041644987581 
4.8516453075805535 
4.2502409392098475 
3.457847288402625 
4.477694456792962 
3.8376778003295184 
5.602364051914138 
4.140032539385163 
3.897751480858277 
4.670295444617284 
3.0645842946181383 
3.216372716985599 
3.1234617935909608 
3.610577702251732 
3.521552723730758 
3.6688195632227654 
3.806144792405116 
3.4276461534513243 
3.7882276610405055 
4.2463097828276 
3.5857396905498606 
13.546225088178025 
13.509944769476935 
14.114283975576068 
11.869953999747759 
14.19645909523658 
13.933152590288062 
6.047491445004912 
4.45017595687648 
3.367214197403924 
8.983184549936707 
9.126447490910614 
2.8930410626656875 
3.238597948615895 
2.6356827787089574 
4.102542395745503 
7.772770031686671 
10.27371546977185 
9.304970133005005 
9.41943677858842 
11.94804019526345 
7.685927496959798 
6.198606567051597 
9.676128544773869 
4.919589186859555 
4.733308483072582 
8.267403872260115 
8.428406165369074 
7.528913032616327 
3.516040551040436 
12.962265420279918 
15.619031660333063 
13.514329339260282 
13.076149532248087 
21.338138744243945 
21.324136806818903 
25.074872756343556 
23.650518898676626 
19.551185940007375 
20.106824927164983 
20.36223613542516 
3.0410027383603175 
23.23638897398324 
18.5466300808516 
7.540563592213113 
25.202148451973823 
28.208875775414896 
23.878717416886328 
23.32419458907413 
24.218735582445387 
23.829653237353675 
23.850340985451624 
26.4497632162717 
23.058829589063908 
10.138994119187961 
20.08718842770804 
26.08499364009758 
21.029276101777914 
24.46095413152766 
11.207817478718813 
10.42715141831213 
15.873398318958664 
15.835854669246704 
5.760274642806759 
4.798011727337169 
8.71356185899723 
15.22290029788654 
10.668388112968842 
13.615747146833607 
6.995043422287817 
7.35890579996657 
7.02103758528784 
25.65662587733499 
18.585110076055315 
25.93354198922868 
6.897003701191518 
29.630996336045015 
22.697818184478542 
26.85960712289279 
29.97377405034599 
2.8065456178974646 
12.97453310269863 
5.070418237592389 
5.871985998110411 
22.562324518257597 
30.743878982135147 
3.7358330111578133 
18.751224468641784 
7.148372528912394 
10.618967394221865 
21.527024448344644 
15.063444614368537 
12.620611961407246 
22.331934522148753 
22.94073937375513 
2.991691116068517 
2.955679497044984 
2.455544175188746 
3.202226361873601 
2.0786792949683717 
2.2044810778648536 
4.784397126602816 
3.232705102625573 
3.383192677995746 
5.088958424409182 
4.428105020521542 
5.754484870252084 
2.8012588250515513 
4.419178277694669 
4.345314959054601 
6.080573674193554 
6.237520550417274 
5.470884631975979 
3.3784581744854716 
5.050025831250521 
6.269990064389304 
4.2821112595472535 
5.833366787152243 
4.6310990432142285 
4.385467586170843 
4.997054371934492 
5.81328012121074 
2.607278373813369 
4.1064844008357 
5.558976506805013 
6.103119062859422 
3.019111839182796 
8.073667805737719 
3.601576646664387 
4.316428115396351 
4.67705770244072 
4.569779628654671 
4.374961759043471 
3.5325381336212702 
4.368907223104388 
4.052646847978467 
2.7648404566806244 
4.017376927215062 
3.6838960442191877 
5.026880238550275 
6.9329536586793425 
11.35855445174093 
11.6150927632479 
9.992222603273701 
15.35898146607427 
6.377721719802962 
4.743820297870309 
8.000254075243594 
5.788990043652875 
3.3527915222767657 
13.42216209646728 
15.716603477926395 
16.866101104963636 
10.963782755903406 
3.7528852099835577 
16.256481457899365 
11.581518029924807 
13.990747737564131 
16.517432070383556 
9.60651052445027 
13.80673302355878 
25.7766845055757 
22.182521367416967 
21.960804242017016 
23.222867011578682 
18.206897708251415 
22.246184163664722 
6.912278884176169 
4.676955953513785 
5.209574958390882 
2.9886073860564126 
8.55440685737964 
3.2141316634832595 
6.019196996110588 
5.468552026516524 
16.019533330713287 
17.80893505391912 
14.69412584867827 
13.185250280047331 
13.043207855310824 
16.453659307346733 
7.4619808483357835 
11.787726542763744 
15.25306720365685 
4.231570375331827 
6.521541090146652 
10.79949046836296 
15.9633173377319 
3.027476312439009 
14.299536731285858 
15.918428379538614 
18.248641437779725 
15.504178970211973 
13.767038432816573 
11.535786698322768 
2.9897199895447035 
2.8381446086179754 
3.422110544432689 
2.7662491772539903 
3.302548921861147 
2.520319630723675 
2.9158200156008487 
2.4033202210592353 
3.0844235242420295 
3.0076626704745286 
2.1758723608796986 
2.8978218972086256 
3.2097487531166737 
2.5506966994472378 
2.9823335193735825 
3.3802718645768937 
2.826580445776438 
3.525960757255255 
3.5243378657712428 
3.358157572857402 
3.4257166784451343 
3.3941995442736808 
3.3679897035877233 
3.6201421276928714 
3.2243889828393173 
3.2438186305262455 
2.9542062896393833 
3.504717177715177 
3.55055051138945 
3.2806868210612268 
3.0450216890153654 
5.3102228824436235 
4.7386783316657475 
4.555683217989546 
3.461817664088618 
18.009789518980405 
19.465727196018804 
4.836417222477787 
5.249144851286215 
8.802984631589116 
8.949343160693507 
8.847810253349536 
11.516746924594193 
5.340034486664189 
4.911998112178952 
12.315624885337357 
9.28235712929873 
11.516324229269786 
5.294462825129151 
14.665712126573299 
13.293934456625585 
13.438091617241945 
12.36683967296809 
4.891036103511263 
4.303021458120607 
3.5353821745276206 
6.142158691900971 
3.8209480345855744 
3.5498106199596027 
19.100413071307695 
12.640972277487602 
16.996994473552345 
19.45650246428246 
20.107799900672926 
8.197459157869275 
10.312421556262947 
19.230432969001168 
20.079255145149887 
24.737784149734367 
16.425378809279966 
15.54094449221218 
12.529228136846058 
6.002026369780622 
13.314824489988117 
4.500159207101057 
12.386303201343344 
3.330391703717079 
9.70595384716012 
4.5672506210531685 
4.823613526590635 
2.6942986121547 
7.183497845329133 
5.104668541931003 
3.871085870791532 
3.7750878941136032 
3.726125967763156 
3.0502323441914063 
3.945688564424849 
4.597822403192582 
17.437826674176016 
17.35257760447225 
17.651470017634498 
9.45589782278258 
13.015452711884706 
6.0186093774439495 
15.009647146058397 
4.9240709113895065 
3.6514195062291637 
2.916551132500351 
3.6613280583370624 
5.750094641208233 
4.802140141368992 
2.6970831466339877 
4.21196537514361 
3.392451908437772 
3.4194343932806315 
3.743285642128772 
3.599057886252951 
9.454741938817202 
7.81823797589742 
8.582188286259324 
7.872069030329885 
6.145143730490684 
8.290895654058055 
8.189935384214813 
6.852422715323243 
10.706501956969209 
7.3214464459386415 
11.76813312998022 
8.437206395896588 
12.725750658351604 
11.008234761021383 
13.21389087034515 
10.278488255777836 
5.945616303077507 
5.238749818535067 
3.564764235531235 
5.099639813839845 
10.170887587468242 
10.61084753856675 
4.187037007969987 
2.254580094922084 
2.3406531828257466 
2.9308502211300533 
2.8736469408112204 
2.3732950147294147 
3.0855288850853375 
2.9201207115016583 
3.979536668402306 
5.920093093781723 
6.0004881104809185 
5.652477304417124 
4.412216322400516 
1.9066290696794344 
2.826471912402007 
2.2416305933178444 
2.5158726974541628 
2.335010501173852 
2.152650543527483 
1.9653111580902316 
1.5171601764546607 
4.477308514863782 
18.45665206080369 
23.30007313621236 
28.384117169979543 
17.10643918654611 
23.169403020977303 
23.151927873665578 
22.662260777335014 
11.941624124114533 
9.487971190149691 
7.22516836652743 
6.906442488026156 
4.172837600291325 
3.300191444618678 
10.188206550619478 
8.282407573992339 
8.574636844408152 
12.48429470747537 
14.915578269359512 
5.952121362501046 
12.053770950776139 
14.262233355009311 
12.089877041272077 
2.017031000824923 
1.9899723146708956 
2.4122203178861086 
2.4174146037293687 
1.7327997282097536 
1.291470990406422 
14.107650881709388 
12.55049883656945 
13.528183429878915 
13.171335277347053 
6.160103163537122 
17.367796003576863 
17.111060458116697 
21.318233673493072 
26.204448196789407 
8.871784810093702 
6.702492370069954 
3.9159671167780976 
3.5529011908010824 
3.798884088012266 
11.288085322275553 
9.18798794658781 
7.242219175163442 
15.112379110264497 
21.605654285877037 
14.909523367189168 
16.576794483094744 
3.0677230729923024 
16.741876834616487 
2.5837893132250596 
5.873313430699013 
11.339472761488246 
2.4065648469203853 
6.4416297945024725 
7.180010405457638 
3.700562265856316 
3.825773068289818 
6.153160566072195 
4.849604409596505 
3.207902441424295 
3.301725418194283 
3.527465496828593 
10.819905307768718 
10.234757274639689 
22.04385665518338 
15.502212885008118 
21.026857240964176 
21.870258995293298 
22.304414262618902 
17.619408162190656 
11.278473388760915 
3.589853026064981 
2.7655385180415637 
2.8349062347647878 
3.168908277240364 
3.2484896064706836 
3.2326922536489646 
3.203904547547624 
3.0466234096743356 
9.158157967305966 
4.254326769216308 
3.542869906144401 
6.096478641127869 
12.58493811184147 
11.316759523513163 
12.239727752396286 
13.058367241183648 
11.487306145180629 
11.211553239686616 
12.937231797696896 
10.211650224077088 
6.069124695582216 
4.8198170794240385 
10.5750953491168 
14.035321062324774 
5.568531938226904 
1.8536394200580437 
2.3416809155308176 
2.607190901579517 
2.5413661054609666 
2.716349746951531 
2.6513033160043693 
1.368068278321596 
3.5664421735677925 
3.227722865093896 
3.4268788984043 
3.5545890950390073 
3.4337676689660603 
2.675623541925984 
2.8093329097788007 
2.6092854463470685 
2.7975859909503127 
2.828300030094375 
2.3851907270719352 
4.5795033568223955 
3.2088156720686167 
4.601098394314156 
7.908660057467132 
6.8368159865108105 
3.3270013509276186 
4.150078984790851 
3.553853830701923 
3.13384044987228 
3.420589459149623 
3.656311085504455 
3.61028279109802 
3.5902759909310165 
4.466114125498776 
6.622387802759973 
6.773670291788846 
3.6174434864238405 
3.085965758719133 
8.410101408958546 
12.744184659529186 
6.946569800915657 
9.798525694675703 
3.506680827147743 
9.469012133527286 
12.332473570231754 
12.674870952092748 
10.431415010529784 
14.871472638092918 
13.485889533441922 
13.34902103475887 
15.257511617940514 
2.7404187899135595 
7.1369758402086765 
6.7967347932240365 
8.256173977078118 
5.7941530533704135 
3.4479187492690677 
6.69945317245165 
7.274534138838091 
5.028929732666344 
5.442682054764508 
5.262432431800012 
6.409751315947974 
11.283363261095342 
8.565391053099022 
7.0873394839372565 
2.9533952830904213 
10.913415050529222 
8.66022593179719 
12.319908199281356 
10.968873283483603 
2.622969331411569 
17.476443310458226 
17.467860364939856 
17.45867899752283 
16.74251404129569 
16.963055683861064 
11.972786831702724 
9.12076864934591 
14.536335159209218 
15.109306397327748 
4.235668064133358 
11.069010535473252 
8.110467796204365 
22.817429862427932 
24.12914950478136 
23.595690284536275 
18.76811704501893 
24.68716660134272 
23.944204880986167 
25.254714825313183 
17.5865190136845 
18.0865928819395 
16.087212397824594 
20.021134524883802 
11.2085719413485 
6.270090209112025 
6.9641951000595705 
18.32063052032313 
17.695460041444832 
18.463998944503054 
17.92437328141382 
5.065530634033727 
3.3365213369979014 
3.259015178238407 
7.81804778266949 
2.289435065266233 
3.477373900184163 
7.13121602226026 
13.345839741578574 
14.999150219447626 
22.128704237427083 
16.62598835345248 
18.60426309812359 
17.799444734807484 
16.104974027515016 
15.034572786236332 
6.045249483329723 
12.867304147313632 
18.723843948700935 
26.513158517129035 
26.492218176537698 
13.648645567412963 
20.973777133344353 
2.8855382846997086 
4.191475184036328 
6.038556563107725 
5.311633854091572 
5.432032932466488 
5.10400604476618 
3.2945117591248203 
2.8407795464360324 
5.350675635174649 
4.999174243659594 
2.529666281595709 
3.032881391803793 
3.2868696677079945 
3.3306263318306604 
3.475718223956948 
5.835374129381041 
6.184933631802063 
6.125772942719898 
6.103957559354998 
2.916850455819208 
3.960586007709268 
3.50831398320729 
3.15224878872252 
6.997997132864795 
3.957985566951475 
6.333358871554208 
5.035474966230217 
7.418317528647448 
6.389457316206427 
7.640933620962463 
6.072458261463987 
2.7722673489673277 
6.321915220288884 
4.958913112047248 
3.1281690436997374 
8.251322122201953 
4.111745730577871 
3.6327789575394918 
2.8343215793034298 
7.216071277927536 
3.361776022275709 
5.628154911554376 
8.919765447938113 
3.57773813059087 
6.260927055823964 
8.092242343267806 
8.528604388549242 
7.954732156332537 
2.7484866447515346 
3.347718396954992 
3.89894510517178 
3.7648432366933915 
4.137423880973716 
6.234361219956261 
10.18768320213709 
7.253034306470854 
4.464304950364432 
11.65216996312002 
14.018039335748002 
16.807682367813086 
10.495042209551995 
11.988853674816099 
9.007394154260833 
1.211006047868213 
9.123029228845809 
10.10871205729278 
12.411295958420279 
12.12090743159824 
11.883776409814987 
15.878833055637045 
12.064356902633895 
13.021532149189001 
7.858057009745117 
11.674339636574294 
13.832734789098154 
11.74283423950115 
15.164079235749776 
15.588802809735931 
3.4604973793880767 
8.966000802104647 
19.412463753528993 
19.58824195140809 
1.769631362394151 
23.97032712390883 
19.7418174690674 
1.5075879256017823 
18.39207877773406 
8.773793202812183 
12.614970288868331 
5.466695376405441 
15.632776695837231 
3.397920343677419 
4.023777876549178 
7.603169044206192 
20.007270215803047 
22.028011852219343 
13.4655781151141 
25.399721575527956 
25.168538540148845 
2.189376396163276 
6.7516400974337385 
6.324018585076232 
5.070570151561466 
24.740264952312984 
1.2097643252190764 
20.430798807591184 
4.739153418954172 
8.989721327392903 
20.298408683885075 
17.32813202565109 
17.3289069158107 
18.34120552111772 
17.379807190905552 
19.97922967817238 
24.95402267097545 
19.173306152904573 
15.594628479819793 
19.428002959998995 
26.694032861878558 
19.307795230778748 
1.4079219001889045 
12.592207612300692 
18.110943044247108 
15.858453346259205 
23.11635151448879 
0.851952792388697 
12.880640888894167 
15.070161783307578 
27.384119976840747 
15.710316080889696 
17.548105741336638 
15.308401567455434 
22.848553894030573 
9.063331751292509 
3.2757301229284095 
3.446193217656801 
3.066192770504246 
3.5331000118543288 
4.9307978247399085 
3.393504716675585 
5.053142062813032 
3.4283851419391054 
5.65936760979464 
6.211884046797388 
5.728926151357918 
5.4627585439306205 
7.937646019220493 
6.777388637401822 
8.626175751856021 
3.6090270294208717 
3.459018884378911 
3.7713536469819706 
6.678067910636413 
6.248327239756754 
6.362813483702125 
5.558388959428651 
9.440953242298587 
8.51411757864462 
11.418837308713101 
7.743282454592112 
9.684616052603875 
8.633095422941828 
8.523692299838658 
6.674213064143908 
2.8029579883068374 
3.706436273707017 
3.6817682137262753 
3.831401695054094 
4.016051747290534 
4.961015008838316 
6.935512869989562 
8.890742369802716 
11.713395419292043 
8.004198556414082 
12.747340468432661 
11.553600161271357 
8.597254344570954 
4.660476726921243 
5.401578850343296 
4.099660352119785 
4.487308940347461 
3.1574295662640033 
11.32476581165882 
10.394157692800814 
10.145398321107916 
13.121584776313822 
9.674114692340519 
13.850614438403031 
20.190949116996297 
24.567574690172677 
20.821105037358432 
20.38247963903777 
19.385148339222077 
15.766411994730783 
12.395562457909348 
20.074128248252872 
3.9321933846326895 
19.00537503109079 
13.81464783547598 
8.905999015458676 
3.59969167410697 
17.38186665793877 
3.0453074612842013 
2.831905400429055 
5.169001751950997 
2.4796708284529414 
14.576795078027953 
11.540864244620629 
10.839598626173636 
15.012126103687315 
12.402035720893444 
9.012908875310616 
13.321260821069234 
3.163991318074248 
4.87994367106973 
6.367536821428731 
5.053523402125142 
5.461072177770531 
5.251750343864612 
16.433021003844466 
2.7828551764269385 
2.765607149921421 
2.4152178640482522 
2.640509419046458 
3.1660747314664506 
3.195596608430317 
1.474770236128252 
1.2777555553976145 
1.9648628731430418 
1.6361945792264774 
2.078320922523308 
1.6593346846922712 
1.4277489453234147 
2.3682039529195618 
3.2411078289658435 
3.8716210384894674 
3.356788527856452 
3.180615703226256 
2.0512830463192473 
3.4766078450730005 
3.222558745168449 
4.3931314346771755 
6.936305066050138 
3.4789321717001855 
3.318075603491988 
3.3310130893992915 
3.081737962071494 
3.543034235295341 
3.477632444273543 
8.102120505475048 
3.1373785658413618 
3.2546588865267614 
3.1896804516571873 
2.7887830096857176 
3.3252272165985426 
3.244983573444374 
2.527479834265503 
3.5364359430896632 
3.465113280871107 
2.5312387689170723 
3.391616122465406 
4.614564123632872 
3.9937276663595633 
3.85582686684149 
3.136429418122552 
2.993859085395354 
3.800528384265025 
4.020552803548269 
4.557848630902299 
11.125546105369216 
9.088137024901414 
4.2533441848943045 
4.833978509050618 
4.305197842092847 
9.684300674812034 
3.6817344924802193 
10.003495727636958 
11.78984326865857 
14.108909905980424 
3.4744480006052902 
2.975152940611846 
3.779327766215259 
3.9882068006515365 
3.0158186037601613 
4.74977371629506 
4.657860887345779 
5.47445991843708 
4.157739382208412 
4.59784607179144 
3.6624566285930724 
5.158995552902456 
14.698456547423735 
5.234906178550981 
5.790510857900574 
3.0014965304151153 
6.147444152189554 
3.6316878715769048 
6.117367012282488 
9.264132784939095 
9.465279089689629 
4.521706596037861 
8.572433465284407 
13.602700648338452 
19.62303197769116 
15.97596483097126 
14.795124472018077 
17.008531837024847 
12.869000684650489 
13.707689238087362 
19.5932495573055 
20.96313636524119 
16.872974361672707 
14.262453455942815 
12.754657328375629 
14.935383006092305 
19.574795002863546 
15.072392596128454 
12.70023043895111 
14.441816428108059 
17.550233777539162 
16.367753871954747 
15.724823755156768 
8.516118507543492 
6.23766378668194 
8.045511727362879 
7.2173801910824595 
7.293282189342847 
6.9865438851880795 
6.8939987418705195 
2.2956343171311273 
2.4701122092344034 
2.36811674885413 
2.062922972135673 
2.294577577790942 
2.3256507556183363 
1.8369231990626744 
1.814498690679846 
7.4877121377314655 
7.175771685220486 
7.396528299842444 
8.631605371189478 
8.514061308368266 
9.597775219190831 
8.33388233483527 
3.162140879188147 
2.9856279578738496 
3.232059628930443 
3.044929701493789 
3.4722614068400617 
3.584390007588244 
2.829863264396515 
4.402254953113147 
21.168476307280685 
31.45615874509784 
19.926957300361867 
23.43128453219645 
10.785563449157786 
20.158090736569953 
26.616060987134116 
3.87373567605687 
10.422375140451802 
6.6369785181826755 
11.09899874762849 
12.327435169414455 
2.6606582635862726 
8.261664723645534 
12.031236390081322 
3.98218774356209 
8.85555583902873 
8.928464860165949 
7.524108185301405 
9.17465902379147 
6.524861943964432 
7.140854006221381 
11.29269904551182 
4.05309006004126 
10.339102188838371 
9.166696551878767 
5.326024567642569 
6.141146999257115 
12.829211984565676 
3.6616021977074538 
4.29701374014872 
4.9281139645230825 
3.767320040641495 
3.8923410145813384 
5.398152055875139 
3.340391422973277 
3.186425223654937 
3.2296044013894085 
6.230557213267422 
2.7198092264692515 
2.904315955371371 
2.759460074234377 
17.324854461601852 
11.138943609333127 
10.777955534418316 
15.360090354274732 
11.264231048674839 
10.094785017557053 
3.3878926373623988 
8.057854523335699 
3.218701620130828 
7.186539957673848 
10.588619057002516 
7.416793397779443 
4.470939460235782 
2.6133790103542025 
3.177630834482491 
5.086186226178083 
8.370855472713034 
10.067281292958626 
10.153849203404858 
10.279664006703934 
11.498907172584012 
12.936875337888806 
13.640255330992712 
13.378685822565519 
10.801001158110056 
13.113059813557532 
13.831494465632902 
16.89088419514027 
17.307695717257523 
19.29022473855629 
23.231624449138177 
19.06766694108218 
2.7674414398863556 
19.993040790451893 
23.98062996393724 
19.621407699577176 
17.02700240630342 
12.66357185785891 
2.4323790858872316 
13.193231330716133 
13.0824608410678 
15.884500633971948 
12.267250239457939 
3.835507355046777 
3.5673828336356777 
3.4824429516042334 
4.898156312650538 
4.250962327065536 
7.338490753170118 
11.234144012574056 
12.851959005725833 
16.253106412946746 
11.988062279492153 
15.299540432968138 
11.030765623805356 
3.8084634759193303 
3.3425506728215266 
3.816865966325175 
3.702432676239911 
3.5482181680606373 
5.005053717983731 
8.671404014148576 
5.861249343950254 
8.190883591776482 
8.223831173917372 
5.2866028818460595 
3.9194350863535554 
15.533473027231533 
17.29459331668925 
15.747634450892553 
12.111725835801586 
13.17380084575916 
3.5479964730175757 
3.015603852468589 
2.938383122669341 
3.757718047635411 
7.1058292088189345 
7.716301107647748 
2.853215495866794 
11.081606584314327 
3.847823881892471 
3.42668897417894 
3.474628204669261 
13.169034071362907 
18.678890947959967 
13.172188996044067 
9.866560055894778 
13.579448865126878 
3.1915439686359273 
2.8405447317032424 
3.2716030117248707 
3.2503922729659087 
3.0918829659938267 
2.738614502362958 
3.114909278291499 
3.208948384456606 
2.872150960560821 
2.782926394559791 
3.5607568403393515 
3.8562635127060756 
4.420689752223261 
2.7247742750268236 
3.3106328244635614 
3.969878221795182 
5.2444251752507824 
5.193409459426045 
5.252730241837781 
5.214812469615593 
5.9982553844473205 
4.766640020249362 
5.309725547805414 
4.295040772014336 
5.995586083851153 
8.00551986169533 
4.868826763279022 
6.784888392131512 
9.346092157968949 
6.732872536774559 
3.0478887339052876 
3.095685800264039 
4.878565519024889 
4.964690183412865 
5.913840384914536 
7.0114632523555604 
6.040157418966249 
4.604105420376421 
6.713786194100945 
6.543395907626799 
4.438471639543555 
8.377875249704886 
6.827151929684061 
4.514467221692148 
8.318001836794483 
11.009089970472735 
8.293735375755517 
8.312998887674283 
8.642429091099121 
6.707012545709389 
9.3473561029204 
10.861259282074007 
4.342661830448457 
12.031276954448488 
12.947603761823286 
12.012830274544726 
3.6930963909204078 
4.639895116463153 
5.806026936145467 
4.082365497681712 
3.0073101368246107 
3.3890217231837916 
5.346624761609074 
8.510380309849376 
3.6572707718671453 
3.8282451400863464 
2.740199593079677 
3.877849165620993 
3.785660563668947 
7.736770873311505 
3.756270427906945 
3.715992386609615 
4.414773012789296 
3.4880081464075645 
3.274043401930737 
2.532187997896748 
3.1943031876639165 
3.144031133808281 
3.5408709855021474 
4.324956228635163 
4.252603144649079 
5.9732693766054785 
19.351856897320047 
16.771241936624833 
16.52671428697757 
17.161745216962636 
7.023171749321223 
9.037557429118268 
9.983633014299413 
3.3214823710332153 
16.230783428927 
17.98389050188879 
17.45362820524137 
16.672823814429535 
13.309412443955573 
3.843008985828414 
16.07849403458931 
18.910780582267062 
13.249073458199838 
12.142953310368991 
10.97601070987641 
13.780647151803574 
20.746334442266328 
8.812705008841574 
3.884808322138248 
6.771888483155624 
8.71512255090232 
4.546291481710536 
25.785470342736808 
30.013425523087715 
25.624222426340953 
25.508241010482717 
25.006001049119412 
19.0637314224317 
4.492047617170735 
5.705915958146998 
5.085638217604763 
20.721368440420402 
12.284918377746768 
9.625163382387386 
3.029845297531808 
6.066173790257992 
2.685590388264561 
2.285440715691922 
2.6038672730639716 
2.9747779176285043 
2.4263038050789585 
2.2874244395755494 
2.3523324239822574 
2.7985339911342457 
4.2391539656152295 
4.37772231904236 
4.339980765283255 
3.4787933396496538 
3.9771849481670967 
3.6962730984998844 
3.296283289169237 
2.9223736005868823 
5.740953851910002 
3.213949827419263 
3.4237041958467342 
4.303155694713864 
4.495897874481957 
8.349215798661774 
7.186193855207568 
6.437244499518934 
7.158032752676119 
8.660870896810534 
6.745107306993133 
5.399622789312517 
4.651099263990664 
3.6094568739166566 
6.662486544682197 
6.4224357629921895 
7.42767074846309 
6.32056499490815 
5.098491760978881 
7.319607879095144 
8.20460861824194 
6.699380359136537 
5.883729609988935 
3.7932884495816785 
7.0731007225993965 
7.041989548720524 
6.047747308432103 
6.087843723011629 
6.876141826231084 
4.872246050242658 
7.580993756651243 
5.957727872947367 
8.947280518034127 
7.918596148741116 
10.030475297034567 
17.818359796730704 
3.6883126513815174 
6.292760990816883 
3.8279254834679373 
3.0917964601568038 
6.17715471093034 
5.427052810797641 
3.6930615140984804 
2.1540863855523518 
2.6134517500971697 
3.4324515519939047 
9.30086104465723 
11.379927712664324 
8.80237502264423 
11.932893087981476 
9.25844150622279 
9.413263702101279 
11.11327703254113 
11.104921449306765 
9.454091570837873 
9.635796118036284 
4.8141404088766935 
5.317755967337408 
8.039283267747999 
13.418057114317888 
4.840574395889154 
8.906220106734596 
7.608560937585854 
7.2492698271177245 
11.097549358554787 
7.836364544679338 
7.171002419976792 
8.778241262660364 
10.015505698796133 
12.102071233819752 
9.228027795132032 
11.88605879067264 
12.00399942100722 
15.800230467764324 
14.989539700340305 
14.969414315187988 
11.965593775814638 
9.755758074522607 
18.3428178373944 
12.915333508652864 
15.230954104918823 
16.14190159166832 
18.154442237184888 
15.150171325086813 
14.99661953171722 
19.432061965822694 
14.56912224358968 
19.79320861120799 
19.481374136996564 
22.05581792479122 
11.55424867267922 
15.64774850410959 
7.2336420988626795 
4.970378702389207 
16.463466620195657 
11.104548779308343 
6.136051959935864 
5.585453717624313 
4.638882838721158 
10.213483367823674 
8.387770029412623 
14.271240677589578 
9.559540925425516 
5.269616807330734 
10.05160768163079 
9.0987130851454 
18.74659183738554 
5.746871966684892 
5.51990881341793 
3.754675202742568 
2.972468061433714 
19.681176683952497 
15.574093666811411 
16.307660423623815 
26.27545630025613 
27.886214601362127 
24.61873894198762 
22.729101573263957 
4.381446879573212 
7.305576235082316 
7.274521636544076 
21.970111608862442 
5.059541993251671 
8.693950623198681 
7.066058610412097 
7.443365773913741 
10.970655644787227 
19.97303710868694 
17.308987705980954 
5.55232889086506 
27.282362365564122 
22.55191505550685 
27.9197315514683 
27.19168348156161 
24.244790113367273 
27.91812730732028 
23.481712304123022 
24.070442289903266 
3.5423942481496042 
3.192016568185965 
3.1752501924845657 
2.54841847288881 
2.883377759418522 
3.5637464922101367 
3.0788604793433976 
3.234682508294149 
2.875539444592086 
3.183765664501427 
2.7642329533516543 
3.2955255342170786 
3.2759802843842216 
2.7574472802736922 
3.9037494015462912 
4.134022603816036 
4.88663454592944 
6.308386640451815 
4.854640517281168 
5.434341094234345 
6.7057676588528965 
5.4626427680899505 
3.018076640026801 
23.761817636312443 
5.182954155187886 
9.672294929816813 
22.852557910788907 
15.01045380229947 
9.435222401666119 
12.587250846070043 
8.335446054240418 
15.00794388284157 
14.593085768114877 
5.978929765569741 
4.097707321355949 
20.956987770836434 
12.693438277215177 
4.693723786557815 
17.939563867916856 
3.6989890870908964 
9.480230717710972 
8.426486127957004 
3.8890884448704073 
5.386610111322195 
4.854407647741538 
4.801824202641234 
2.785865084981528 
3.435595779645101 
20.44533551069505 
17.666875962825518 
16.552659892783225 
12.589291286450026 
16.777396319635642 
11.230901174445842 
13.64502956938165 
16.216254752266746 
21.84958413198292 
23.551948916691142 
16.53985663504224 
23.71413310546479 
23.369535010307064 
20.757860862123742 
25.291118791544235 
23.313100937993266 
25.931271512040226 
2.567416431236956 
10.585748694339996 
12.02200658835404 
9.977335420689354 
14.41767043618441 
10.612221317610596 
14.916394822037663 
13.796589638294648 
17.832564397860512 
21.810430062929463 
27.373773568804356 
25.70794832262526 
21.433257517596807 
23.330253061915496 
26.297188444185426 
23.65427932340519 
2.956695417167691 
3.1894157253615734 
2.918978879096868 
3.2917437181915012 
2.7603954841389564 
1.7405902762724585 
1.772495006063753 
1.8201137301622998 
1.5623312766956958 
1.259535062509991 
3.1078409897723382 
3.1485577801798827 
3.229646270799012 
3.583129483843785 
3.371069400342252 
3.061631773828923 
3.602690568064592 
5.374771684987429 
4.920711160490192 
4.691112622000628 
5.516160330842358 
4.565825226938839 
4.434170514267437 
3.852497880677709 
3.42118537357199 
3.146990121241457 
3.2711849470831362 
3.333698489043292 
4.305446501249325 
3.765965153784294 
3.703557320106891 
3.8453559196665736 
3.648374800475073 
3.7126229347082407 
26.39809154901593 
3.803747594371618 
4.123767393044804 
3.9198173931732865 
12.729692240919745 
11.993186382023962 
10.421303192316879 
12.941850875373616 
3.8630211268457377 
10.365816965616531 
8.334744490168672 
13.320434912789917 
17.88342411451414 
10.923170453393439 
12.91113236239183 
9.371360064701113 
9.668488396317267 
14.347167047138425 
18.95806275424404 
22.251096055418916 
18.628299182853183 
17.245261884257214 
23.246883405070687 
19.47322267143058 
18.221833326088145 
8.215095938276685 
11.838338082056364 
13.332450179305146 
7.779607952827834 
4.910986765979832 
3.823608767600228 
7.144192865025052 
3.5483320465317085 
11.580612221057462 
9.795035193244724 
12.467413826354495 
8.74695584585288 
3.4065377338184715 
12.834982810382494 
14.078520512289222 
18.30126763057969 
11.749764727767753 
14.888235930182127 
3.909922958909555 
3.3011586929380816 
5.051476356734604 
6.088929335531264 
3.449385992266341 
2.9842093211234206 
2.4637516758499753 
7.020269105985514 
2.9093064398332187 
3.8133525897737677 
2.1236137776280417 
2.0219360718730015 
2.7291614391688395 
2.1538924781622777 
2.6641176585737347 
2.0174314009944156 
2.3046704729817025 
1.0533195724632636 
27.963727982472378 
28.005321617627537 
22.959263088352888 
21.22149626943763 
27.521620675261545 
7.183930807922464 
22.701687779658148 
27.97509938098781 
20.85972989667697 
11.30250543422204 
11.639658812456267 
9.202479942457947 
12.408463110991388 
12.60981187485035 
13.267864002604858 
12.533884195069337 
10.151293209043457 
6.8142857184097565 
11.56733559397225 
17.139755085900813 
16.950460594056494 
2.6490790201810195 
13.512434666022374 
11.970065521238546 
16.007016640677524 
4.303020568266321 
9.648557152009783 
15.477647636672211 
19.019856448414863 
19.176915490994624 
4.301290168047668 
7.830786203499475 
12.677459744087916 
9.300237131919907 
10.473970991603162 
13.645713252018167 
12.892474051391622 
14.419615643841556 
14.04183404499454 
14.683835011889178 
12.717497339927691 
12.08471807698119 
22.49096878587517 
13.631568902641943 
20.46924623243853 
7.686331191654119 
17.430456988256395 
21.859389086970136 
6.301397828185031 
2.2550292469418074 
2.5485649555308605 
2.15443593297029 
1.826350996700291 
2.1074406292267014 
2.6520268951847 
8.119367630428835 
7.672510902620928 
5.880935222372333 
8.000098036550899 
9.473850098366842 
11.018070951577235 
8.401490043796155 
3.7865639946389162 
11.07535107204641 
30.667942329138892 
25.806825092516647 
26.865155375380112 
31.116842027620375 
27.379942354364605 
30.590756005331443 
26.60975506980526 
28.914295473964806 
8.441163619225419 
8.386675651481331 
21.92446498481744 
16.815891315932475 
19.421770993620786 
6.279010930383127 
14.865445337885108 
6.320050156265418 
15.748468239792844 
12.674703461656156 
12.16392897387707 
12.277817997643085 
12.38170841303307 
11.927994208758381 
19.753397329248905 
20.20120292565679 
18.914581505592583 
19.761096578026965 
16.20902165241217 
20.72349741541895 
15.909507799837504 
16.12531526840027 
12.977459545111676 
12.789958273773687 
6.205049457209571 
12.445434316021922 
9.683815999472014 
5.297545107944185 
4.6011476462317 
3.7468629843617998 
6.528384303517463 
5.178114372936903 
15.203423865070327 
14.003778912814841 
4.436414772386512 
3.290354618601139 
2.4682806920724265 
12.180129026160012 
3.5439393395967076 
3.477036167707829 
3.3849589667322864 
3.2777232405689203 
3.630972508313494 
3.340602924979567 
3.183501343336645 
4.136972047133094 
5.160345737334759 
5.954784835755212 
4.283071982266631 
6.4864826305336445 
5.58546083579777 
6.471052435541611 
7.237534884014022 
12.207975010200625 
21.054797016446265 
12.978468236496632 
7.39593879999388 
10.084897762922377 
14.524766116853346 
22.7370755508785 
16.08652856405442 
2.8279765112161406 
4.17790809014724 
3.858915528451854 
4.379667261179006 
2.409584370704562 
2.5350210999850145 
3.8721033001738565 
3.5513168877513293 
9.628105553049929 
11.6162487431295 
5.422671060901372 
8.592873979380936 
8.055610181425434 
2.37901464401645 
6.57817401843449 
9.488625923035295 
5.2283620974829565 
6.476663162017965 
6.161887655272005 
12.455163114880778 
2.3278136853320097 
13.423511531236882 
2.7055569151425516 
2.7795606129786106 
2.7150305873811846 
3.156914852059533 
3.030023243428598 
2.6652683649260727 
2.8426884440643985 
3.018721319000955 
2.871598645516223 
6.389971670731151 
3.4862109527300453 
20.729988413769586 
3.5608260971095933 
3.1498338286888727 
3.6285001816280564 
3.3322798298084653 
5.108239435966421 
3.338129501214299 
2.797029880587351 
1.8539973998331338 
2.537341407957059 
2.4919786711920446 
2.1968228942135437 
2.018841846986206 
2.529886149908793 
3.4007868094416285 
3.0470201063574756 
4.267022493034124 
4.392412269960188 
4.605877751025324 
4.1369536800227715 
5.249672799742694 
5.9323228734650915 
3.2193995692696538 
3.403332070366258 
5.224853613744215 
3.0452802480339276 
2.681692740526928 
5.148883790727495 
6.37783731315161 
6.153482174662573 
5.2021116207542955 
3.256881681650442 
3.9999687703899656 
3.191414931467022 
4.63378929579636 
5.595283440125581 
5.566391510316222 
3.1493685060470464 
4.426869286509157 
4.584322888082273 
21.939101065278535 
3.5798219456305986 
3.617464653876778 
3.7430715925655855 
3.7736288259986637 
3.7224159718337897 
3.4587626029273273 
5.706729311204524 
21.298139157447423 
4.655452202004666 
10.036765407022221 
4.5450075986956335 
4.359218296829357 
2.9395590919124466 
3.6692983775256427 
16.550765978249647 
5.917471243782205 
7.30586600775704 
4.160895939127018 
6.043154193782955 
3.629726837384327 
6.0143041949336045 
6.785533148049254 
4.107536987484303 
3.463864264422074 
3.3253052449810427 
3.408161115806635 
3.4470689788062963 
6.269843998078352 
15.863042779957976 
15.735127463298236 
15.394634957250478 
18.462354146801218 
3.2463189810532738 
14.927852214686046 
7.202538333449983 
5.307684081076026 
6.072217719709401 
9.9569716710698 
21.744302945160886 
7.72848636160611 
16.178951277943646 
14.908587447472746 
11.721487219250816 
12.41715388881295 
16.12630379547701 
13.24879630820875 
19.173217793930753 
12.94877163146812 
14.978716766919078 
2.8425567631645805 
12.04277194226844 
12.35976452583951 
9.959163514877368 
5.492195400708812 
13.077320388604287 
3.512693678469845 
4.93623141009459 
7.0243412409278525 
13.556582308932096 
7.430602023928749 
4.178769934960446 
3.1295086562410437 
25.283169212291323 
19.642138413874875 
26.8706546546584 
8.221733862279628 
16.56733619826941 
2.226941230893237 
17.589082899112206 
3.1889776051965626 
7.777243781328986 
14.020450889768384 
22.232022596486914 
14.021215959125483 
21.093723574096312 
9.221719204128732 
5.700044326156047 
15.679695318237654 
4.813486925792424 
5.217518055929149 
4.932874626413535 
5.039123875104552 
4.471670312211504 
10.928966612535396 
5.171982061314703 
3.664492077379286 
3.020061650841746 
5.945711503452801 
6.279696530792406 
4.809692678820834 
9.204083147199118 
4.994618346733134 
4.7592588637973705 
2.3484666209488623 
1.9886596673207733 
2.401462933183662 
2.249012350444237 
2.32928837649183 
2.007496912338298 
3.788618408698845 
3.7959318368051536 
3.6488935877753708 
4.418198906369529 
3.7650584340298323 
3.722440047239115 
3.4682757108477715 
4.542749980640911 
3.3398422754002794 
3.8863552909420007 
4.155860735493264 
4.521669548004466 
3.678903648023619 
11.907529541946893 
3.5138402112367353 
3.337358642009327 
3.450378889945565 
4.302631100706181 
6.364674043057656 
4.301455199930371 
3.4434832367426145 
4.367311455157822 
5.045477429249296 
23.136698060816087 
5.696498615683234 
2.9200919796611076 
3.4976820271345215 
7.06527045018362 
3.1544940216082273 
3.3209702887233994 
6.6745402491215575 
8.797790603031666 
8.341315771824021 
8.155233956324524 
25.19912436048645 
9.068364441700098 
3.8945007294922616 
3.6772144044920605 
2.2709906439984477 
14.165426312083614 
15.117686452164252 
12.623459840923799 
14.380512284408038 
14.215139051817772 
12.71922801758196 
13.193273280616063 
10.219548257182673 
12.351970245915066 
4.410415021144267 
14.249334616439224 
12.215882879974313 
12.165974675546154 
7.563341337774806 
12.841089460430847 
22.845211956306354 
14.849162634823829 
13.902887665232821 
10.696923781452377 
8.874299175966756 
10.55841224388655 
12.5950178480691 
9.919070011556505 
22.838204381331717 
2.468550579009592 
3.8836098082145067 
2.000018507392036 
3.392240748116844 
4.628701161393432 
5.761894057641652 
3.720060567395982 
17.227814918705988 
16.67619959008321 
15.309428333404925 
14.331480665157699 
4.825322438906021 
2.9924149749797206 
5.3195010341009255 
5.001492985400608 
3.0708253890480144 
5.541443211559523 
14.974663116309513 
16.43544133543021 
15.592527813027754 
22.264678059472804 
11.201284434050063 
16.34768235726874 
7.754310747939821 
16.455907179048392 
26.15892699668849 
30.476886872948374 
25.47566754982503 
19.326983961886217 
23.877417619861646 
24.900287733967126 
25.726136502285364 
21.187591211483316 
21.050230893453076 
31.09980490610476 
25.625494060329544 
25.720865006630873 
28.621522071885106 
25.352071585899267 
20.69078894026341 
14.724962075296272 
5.454929114117824 
16.690157862089233 
19.16007747519458 
5.291153439200871 
20.41891059350068 
18.39146787863159 
10.313547293062195 
22.825498631232175 
18.165087931384136 
21.71226575498879 
22.939287855685276 
15.410722403171468 
18.86044203245186 
21.80425339332065 
13.100647244520248 
4.500002916395322 
14.363839712077077 
26.173430426639783 
21.066715433459695 
16.51011047317178 
19.610016355981987 
27.033684578198415 
27.460056166710345 
17.98577961322141 
25.850151055814855 
26.07971581025366 
27.474591734688737 
26.747724246253927 
20.972600671468598 
28.073351473646206 
2.162862218864944 
3.767364084699246 
2.9286899141603504 
3.131873860184664 
3.2022977079401014 
3.3853233133886986 
2.8406854607323204 
2.3091452225665705 
8.70875780689523 
4.21001701408043 
8.178262564536203 
7.0383011274497 
6.849041464894735 
2.8242046252041377 
6.380141761340838 
5.377106248120052 
4.977362310326151 
4.158389814353925 
5.584731443974612 
4.629156311250826 
5.262600193961017 
22.59942705260121 
3.8173148349608246 
18.69379173484319 
3.4244936648470277 
3.5691682023596014 
3.7076501608819634 
3.3482408585347034 
5.033409095888241 
10.747522145371207 
4.669678684186539 
11.161619617248045 
13.713603828736439 
14.030395743511331 
13.937605167591474 
12.522811146889232 
13.00017770707276 
12.524817779896289 
14.960083554197377 
18.720807665676638 
18.791935543870412 
17.28572499170605 
18.388125339940014 
17.739781287860758 
17.887211568260373 
18.900701030645674 
19.16626945077936 
9.747588285652988 
16.30149570392363 
17.65641944383198 
16.86940501275288 
18.37178683325698 
13.426565734017956 
6.495057943649685 
22.393699191823703 
21.099691328370472 
20.65104964366068 
21.255369698624232 
24.572091289489798 
22.18749975662057 
16.568615499915158 
18.292731492521302 
20.825668059666967 
8.299298134660127 
6.6654316185898415 
17.28159505970141 
4.964035819946041 
12.939449975403171 
14.151177995835276 
17.964140375172256 
15.713587111409343 
14.958085789173609 
18.17687551113952 
17.84352206371589 
15.575737016796959 
15.347701703980027 
16.058606408745483 
13.309691923497594 
15.748790311358889 
4.879275140829698 
27.479447997752764 
17.560329023776106 
2.98986032254941 
2.5826492647267405 
2.731487247218194 
2.7488738208461316 
2.6732882903555724 
2.330589506973102 
2.2295278561340526 
2.2987489999843262 
3.685174945269296 
3.2258035113026127 
3.5272451898813664 
3.9598524705466143 
3.8225942256612377 
3.393103969405079 
3.2341356965223333 
3.2343059022165224 
3.666115953590243 
4.516200974088394 
4.0472996526735505 
4.800234639021901 
5.456583187824926 
9.661584234247185 
4.770689940061951 
4.530464483879854 
20.582841376720655 
16.26970433815235 
20.243746462533352 
15.723175654079359 
21.20785146012226 
3.010011395486538 
3.209817411641803 
4.1258466415157455 
3.4167760606095117 
3.0312535938085863 
6.264508701333571 
5.67379900102283 
7.112170886179121 
8.136679640695911 
8.8955617656117 
6.7292684288143265 
24.058042308520694 
6.095403848004964 
23.587713872741904 
21.33771331719975 
20.323351190569173 
10.785545395663188 
10.122561520236978 
10.545659986206546 
9.390498707011577 
10.317909289590368 
9.509232050934646 
15.88462251345508 
16.96764907664914 
14.402957852950887 
20.332000879032016 
2.1515867219717473 
13.030884018122244 
11.870290916934296 
17.49315190296415 
17.405498837097326 
17.910012486932313 
18.173228908191373 
17.403019050796345 
25.056989542142862 
21.115244420557914 
19.28476870995518 
19.084671717727783 
25.662545321738335 
17.07869065944302 
20.460671876325154 
21.9456835249207 
21.70101395800714 
6.435173823424514 
8.872862404612517 
16.117219637033585 
14.472550681235541 
4.385603093438104 
9.335982932154785 
8.376527112170997 
5.241320631199446 
4.458254613537294 
2.9815094625181304 
3.5346884653045167 
4.108660525745556 
3.1384014153554434 
2.767887476040919 
5.474307986656678 
2.826787474935136 
15.984984056556687 
7.147192682781933 
14.950663007771068 
7.745491545732175 
7.839281184237959 
11.472138366066904 
11.800953862572833 
19.108966943159086 
16.659468780587382 
3.2690036602978734 
16.74823590606296 
6.5378476300094475 
8.317911991502335 
7.255885238484924 
2.042135626103248 
1.8094040071319675 
2.524490547113913 
1.9822319996908146 
2.149644941893799 
3.14610581772622 
3.0522093645771573 
3.2529589198734397 
4.155332824336067 
3.684530995826525 
17.830243015841685 
18.823838821695585 
17.391049322573902 
24.038799698542274 
17.892188555403227 
16.964554073115863 
3.3110427301270158 
3.205787876478351 
2.8357867562791523 
2.8912213752973925 
3.481746772359456 
3.490656010445898 
2.8861844290871757 
7.0207991637946225 
4.959813132655402 
6.126621572275305 
4.146875357307808 
3.0395930626295247 
8.986108823071227 
8.567585717075195 
2.789753634477782 
3.5405940840619055 
3.447059910612949 
2.857737569774485 
2.433073771846903 
13.775746251769526 
5.026587560584979 
9.124339346602609 
5.633182171861356 
10.030202202247242 
7.159598116973903 
3.431659486381276 
6.856900977754043 
15.836180569089871 
9.28305226291404 
10.293847071925965 
13.544259033022453 
12.894907278483288 
13.521885464780077 
9.456369593784006 
8.979182326194913 
11.030026538069427 
10.253363165409883 
10.223572832896126 
8.6161241066057 
10.455040883669678 
10.254472855938577 
2.758272717652505 
4.4671813162619705 
3.566801691092132 
5.846047534416122 
3.0516017692294133 
6.437746559211323 
5.848406133471102 
5.094734939622869 
4.737833658205947 
2.748331295869964 
5.545604400099325 
4.438266283017574 
3.413056044179381 
4.662332331079806 
5.21796598113466 
5.340632713789516 
23.46773947351055 
27.268894079935517 
9.22850528161436 
19.699493808352806 
17.26935459888097 
2.5159512816013354 
3.2935121051373932 
4.574006995767895 
16.08177606964823 
2.866118616975934 
22.582331755217353 
9.268375760561579 
1.9828683140240306 
4.374347761940844 
3.6484968635087465 
3.8148632087423846 
4.336962007850309 
4.514055732737963 
3.4421161525240747 
9.269521218701682 
4.378123395945046 
3.477402616526416 
3.4982291734095217 
6.6406969344647955 
3.0401651305713018 
6.374596426597768 
4.603190883491345 
4.6534717403377215 
2.7015642153720214 
4.5411527659314785 
4.607004951585741 
6.822465502114666 
27.04450245047482 
3.306137130912562 
5.351592282995641 
5.276628154886666 
3.7291874471295317 
22.855314142638193 
4.278877550372842 
3.7800130959856038 
2.2331646410842905 
1.657645203786733 
2.15698370055242 
2.910108503208068 
2.699225117632117 
3.0293682126851222 
2.5194954153260327 
2.561602786642664 
2.403142121129811 
5.359023928060365 
4.451821813254517 
4.342194953237119 
3.4503161995465383 
3.5323441108297455 
3.4312176126816403 
3.2132184456838844 
3.565349781577673 
3.3102367569565865 
3.640447043573703 
3.0415762062753826 
3.1821984492194435 
4.368755536803936 
4.016414759519009 
3.628369430979152 
3.7868346318905513 
3.960732649598021 
4.641390811540485 
4.349546936819702 
3.66738607492437 
2.7549927208790526 
3.5596486731470978 
7.59245543599397 
6.292884709749359 
6.536535813031641 
5.819800391648228 
6.721343542964017 
6.410614358119686 
6.405865240395445 
8.212364697386823 
5.65145551435664 
5.716122524997033 
21.41990161522119 
4.6196801615015115 
23.47622678879924 
8.570682647877392 
1.9078733079395311 
6.499572121755474 
2.965400388182234 
3.538295916093755 
3.1957471760938074 
10.414747509824755 
3.140916761479268 
3.656952651776679 
4.299747270672321 
27.46923812307913 
31.644457305711576 
3.3285021381495734 
4.883280596257058 
2.7376353732119387 
4.096465369251556 
4.2248679646553855 
6.6396700593010145 
4.88880972848745 
3.07320913415961 
4.05957614997833 
23.48944647428184 
28.022505246533107 
11.317642442191646 
21.15057349803877 
14.241972339897538 
27.87353291928102 
17.676214681982252 
14.188545329084528 
15.51532910693862 
10.052686802271898 
17.65730380570918 
11.413605540610579 
18.77290293870922 
18.75356893263151 
20.876963497616938 
19.422112951787653 
12.918014937537306 
14.755128282995186 
10.578806681838483 
3.157362650960518 
2.5129484380905827 
10.215076224587982 
8.229674865851875 
9.621504713371763 
5.621483152578149 
4.079843224403725 
3.6488585328371403 
3.069695327054594 
13.44369218351682 
5.131688127830003 
11.529091521974722 
7.643837378435693 
3.074477131957869 
13.230185951362044 
9.447818266488724 
27.367157638033454 
13.346218932190084 
14.858508619072637 
22.019136385598017 
14.611854963627918 
26.42834329116799 
26.853205823852797 
26.203621393968117 
26.479552043700654 
20.945821450281606 
18.088913768154907 
17.443023107183635 
18.096249929944243 
18.195254697551842 
18.599431499220046 
16.003337693735872 
17.176981275121612 
19.85760045456796 
16.491602707461766 
16.417249847720274 
21.014300337243615 
20.65458857401489 
5.390831207867151 
25.575567208748797 
17.87847569879571 
21.122644293525973 
15.86291871122618 
25.431000571444915 
20.57311477178816 
21.417692316771237 
16.183079412638726 
14.842443887560155 
5.943308497144233 
5.413859333274378 
5.467840585911556 
3.0873745594911894 
1.9389650218445926 
6.646064604861737 
3.0704744828612807 
1.6009033719727188 
1.6550070995401338 
1.7537787893301158 
2.741063476917813 
1.5834031746742485 
1.8824037278940076 
1.7836546749691138 
2.185793320942587 
4.361719436511474 
4.510081491384412 
4.666191296434805 
3.1813791405871816 
2.924387875805733 
3.3766778950659133 
4.619145814625134 
3.5478292090834063 
3.32758033779038 
6.632954471325545 
5.496512532351441 
6.024967057010562 
5.9330205472528545 
4.815516275267901 
3.23166854493111 
11.507517723438893 
11.677990881517758 
11.84237553701825 
9.713769197592278 
11.405754687727374 
7.897090462395753 
10.765298039063882 
11.88735636030307 
8.753415849883764 
8.566945341682624 
8.092947386455078 
8.495796190218194 
7.697194017408422 
2.196326292548732 
6.828243207073086 
3.5923823952453278 
3.5841077359399254 
3.6253354806992775 
6.977716515824032 
3.1320361240875725 
7.176742580935767 
2.577120277537416 
15.313957016959879 
16.600143783824524 
16.206839982369264 
15.5879073559723 
12.505364375281392 
12.026349815981394 
11.63346121481012 
16.07880400656013 
9.129196287060616 
18.765073573945884 
8.62835745863439 
6.27295362477601 
4.756825515545661 
3.9827179904395407 
4.822185813179158 
2.3223967607139926 
4.507632725191353 
4.4127478411006384 
12.877605414536443 
13.492121767033755 
11.860252212569272 
9.031579920570731 
10.327113583716951 
4.53135375665939 
7.529895511769507 
18.853420539735538 
3.8103649732598166 
4.719360464583932 
4.815326737439209 
4.542556663983997 
15.449698146433375 
14.389559722615676 
15.293041379032386 
15.1555971134545 
25.59613242003297 
21.66166374700495 
22.33202984430579 
22.552280395666074 
21.219578615660218 
22.9915932805145 
22.59838350995839 
22.908063331352523 
22.652201213122577 
22.572426507959726 
13.684296831572805 
20.70567779984531 
21.213147281014855 
13.548913084542187 
16.382649787326333 
21.550551411184188 
20.671053757164895 
18.99216050029323 
18.54296364440806 
17.965483852164265 
17.802705335629074 
20.10187394690799 
12.16485728333945 
22.060466944181417 
18.96900565621114 
24.825920970967484 
25.066083838058383 
18.961307790259347 
27.30208378678276 
17.977738151449547 
4.953820914316839 
14.989502796960023 
11.527044115128517 
8.886298555314415 
23.692872421853913 
6.920869497036192 
8.445411782262342 
4.675928119767225 
12.619349725309398 
5.618387507438698 
2.582540473237215 
24.606857602266054 
11.079587714349524 
12.547961283831157 
4.134140007541526 
9.009019896709438 
11.160623753685833 
16.35376158723693 
25.568794786123405 
26.30651661034912 
3.474590402952838 
6.130718432305984 
7.903240845114574 
13.828156614310487 
16.682249865677832 
2.9303526750045377 
3.254703418543714 
2.8304879104181335 
4.407105216771457 
2.867149485033817 
2.7503182650377007 
2.7573494828855787 
2.3636622376790193 
2.892311742505427 
3.258819413236705 
3.4685861080123637 
3.6165737032078633 
3.653223667200882 
3.4551231842079217 
3.6549593761035033 
3.494345114608 
3.7003272399245795 
3.452765204668484 
2.8670875124686668 
3.8405371233447414 
4.924155503470538 
3.9089791195311445 
3.4557276907689256 
3.4509521275337023 
3.9631015102368505 
3.552930029668588 
3.8439552348582113 
4.523218617438842 
9.257428480243036 
12.53065166246883 
13.484228674961363 
5.6719837972987195 
6.639080995960181 
11.373987272500589 
10.388502454776036 
9.53504794868932 
10.245747962887421 
7.61071194079072 
12.374710680069457 
3.2799646677205287 
20.550328917678904 
18.733887051282686 
18.56051516190483 
19.56769772974763 
19.209434059003662 
11.609560082401572 
19.953174146220686 
24.062659747225307 
19.77559702119276 
15.235315409686521 
10.59955580090527 
9.696620615415476 
15.831163337401158 
12.029121817708285 
18.311108208899817 
10.064449175742212 
7.073512259461442 
5.36592356510045 
4.731912206355676 
4.024440642676371 
5.437650611416834 
2.4265398375333493 
17.861268526554692 
4.491845784128043 
13.822617074544173 
22.651352757934227 
21.137389650883573 
23.07867313931822 
3.021568492924311 
6.39650163588894 
7.542221859392257 
3.0194967083024915 
2.526586305550857 
6.90330249309602 
10.804117661371377 
3.5537635308113513 
4.090585713501225 
4.253938980430992 
27.792259864445402 
23.1771860264966 
23.667100677714735 
16.972971720556703 
13.428511866412817 
3.4760173033444692 
3.504361539935221 
3.177176200172181 
3.577717967879357 
2.2928141300525993 
2.3631042816878245 
2.792739031862547 
2.6271849654475927 
1.908719540901231 
2.6015748686488385 
2.9176870238839925 
4.083310968904524 
5.424274874563497 
4.963866232245847 
4.948886054379712 
3.958535584274957 
5.8534784741102985 
4.7170678954213034 
3.716724257611001 
3.7616556277477313 
4.3734605695056015 
3.959534610296288 
4.07231051993012 
3.7928906902938793 
16.64616753081832 
15.501322444869732 
19.930457208814545 
20.623216592149497 
16.293815150388742 
20.33803765519475 
20.64872172610837 
20.95695103504558 
7.349833298482915 
12.346433298362589 
11.719229751039018 
9.553654205546543 
9.370809392223746 
8.89860657716548 
3.329566472157414 
2.7535466253144874 
3.332787934387463 
3.7518213389138606 
5.233784511210757 
3.771274962358293 
8.3694665338421 
11.068845224660487 
11.566106330220414 
14.192135669436329 
11.578678826458106 
9.507500915393248 
7.307559367265995 
10.898648385292482 
9.340991857637963 
13.575850765477124 
13.07303589267216 
12.528630974471534 
2.6770253251287444 
16.248082670912343 
2.3144068178544104 
2.61393359817998 
2.6141031247922926 
12.828317344235385 
17.311466198650287 
13.126541415152655 
14.05635992487211 
22.524987648865995 
18.21928316943832 
11.231297573896743 
16.640917905093875 
15.99487105184593 
17.530445305840335 
24.22367026329025 
2.328952112403429 
19.64689604915657 
13.838563782525565 
13.812206095036467 
19.75322409736541 
19.966045109034802 
9.762533767026477 
23.357708839180834 
9.47843668679877 
12.343549450489466 
15.530805582641769 
11.326937368660609 
20.868612578208978 
16.434728894616597 
15.432212077905415 
26.802459067765408 
15.985300869473187 
19.969092862153836 
3.471652067263375 
3.66677323651202 
3.092207176281416 
3.493496877328457 
3.1806624306636087 
3.7895655089746105 
2.7297836179781894 
3.222693213630922 
2.73175438531789 
11.82787326419667 
9.16945898053591 
18.224822528687437 
5.5806864972397054 
18.989930417704898 
8.592170342101484 
18.662976527881682 
9.354232190005446 
4.779507282172706 
3.699744894692018 
4.782456334705938 
3.31939854177118 
11.872619492304484 
7.987275446885503 
10.12417433229954 
3.4088307670438054 
3.5934749159920023 
2.5915121455874464 
3.569786897245181 
3.280023896100518 
4.058441380352627 
3.834715000910537 
2.4391067410549785 
2.353445844969666 
3.2056830874532642 
2.356953997935167 
2.278090252629091 
2.003682883926613 
2.284263850904121 
2.1482696816775304 
2.351540574452087 
2.486710475585121 
2.9459082917852357 
12.471879412542448 
10.14918759942581 
9.548114248940713 
1.8835126794846062 
1.8950780024555112 
2.925660202236348 
2.0519452663941484 
2.5454160899229974 
2.297490403789649 
2.8704532995131067 
2.356442187390904 
2.2701943930260744 
2.8632748937313597 
2.216890931314789 
1.7868796879182662 
2.534575834517073 
1.9454532089469085 
4.004010101547004 
5.039033088255689 
4.72797689811529 
5.421107867198511 
4.085402496526596 
3.4530409058112994 
8.19169018543704 
10.888392975913012 
3.190949260791695 
7.715705913317939 
13.875866741747092 
14.924055312247992 
13.744461859989084 
14.008620394686943 
9.72473850079773 
16.977070949727498 
9.15864769904453 
13.815627839400324 
6.2277252995724455 
8.87092604885403 
7.756478470181122 
14.821402007021934 
13.75924128264983 
4.893431099017943 
4.155470763124652 
13.963786899563331 
3.337609316479974 
2.8728535310069194 
3.6767277840517494 
7.404271554838607 
2.898190805951945 
5.671481284043556 
6.717467076465185 
8.158448497076773 
6.3435159702220245 
8.913758903831619 
5.126600926594821 
8.353522930244743 
9.815470777186974 
8.677983252119693 
9.342065178960889 
13.993553297878515 
15.870881324978942 
3.3120232159215255 
6.519228421127688 
7.340613365946252 
11.57481923470272 
14.627496561621795 
26.62271855640096 
19.455716428030108 
5.71834668924435 
19.408666504920156 
22.706379233521073 
21.27131388924937 
13.680299534335884 
12.83532334550877 
7.892550993341229 
11.192917906246805 
11.492780495367303 
11.714844402524598 
6.93341826277714 
3.5933566822345173 
11.03277884826155 
6.466785662381966 
11.393205357443378 
14.928064595102454 
8.982818604990536 
5.467338948653781 
7.830816715161095 
5.901101824902868 
10.420653428642831 
5.743850370320206 
4.168393312130349 
7.383413986911365 
7.514946290864607 
7.480790384100953 
8.119872299833002 
7.969154146358843 
3.9617269503227144 
3.043642825376275 
3.969828171786024 
2.869963210178966 
3.789068674338857 
2.074352483670712 
1.4813152517281054 
2.0748724371034517 
2.139641497920839 
2.286056681322769 
14.610917415755813 
2.550632376375494 
1.9034586648690182 
2.0890748295400217 
1.9341216737091047 
2.6722977453892063 
2.0974478321814463 
1.8483973257137114 
2.1100890929733715 
3.433791751816282 
15.137974632285557 
19.44083638247186 
2.8982138045482237 
2.772309651404832 
3.550386679373199 
2.020793226794728 
2.4653655998150095 
1.5197354136891823 
1.4927389136651816 
3.6205721662963892 
3.6239755961647107 
3.149213491687016 
4.038888726668362 
3.972227630233796 
3.926952861372699 
4.048640603656216 
4.10082644247376 
3.247872277658822 
3.819030142233128 
3.496777449654575 
2.8216926262789017 
2.8750606825582308 
5.576472308384854 
3.3932087193194804 
2.7197035104202816 
4.647715033559467 
4.38405422868514 
2.9078983998700196 
3.151974827518484 
3.1355250244986594 
3.3304346984346673 
3.29449016498655 
3.3710988224270197 
3.6462933800769743 
3.7191569205508204 
3.726014383327801 
3.3457537153123664 
3.336427995975316 
3.536865765511148 
5.359177101512159 
4.604778652217026 
6.1049069120221855 
20.288171807397692 
5.652187310024961 
7.176476723734842 
9.379795024706722 
6.98186461277274 
8.030282606252726 
8.693043981377533 
10.837412526834026 
4.7549472396804715 
15.941566373995428 
8.618410428411753 
9.874639766120318 
9.385105425165591 
8.387376320273424 
10.72161005344131 
10.696772203704173 
12.500078538014359 
13.693918393087674 
13.906887084785179 
11.287366333074543 
11.467922530143252 
17.089770155420936 
15.187410472965468 
21.16042960790384 
21.77140400430366 
21.551347315008222 
16.125350380672423 
13.332561782876914 
11.173301648994201 
10.296236955303293 
4.704816954913443 
4.043330765795074 
2.4332590175213396 
15.042113392867106 
3.291959975373708 
7.01393599208064 
4.604769998166311 
5.782077537242019 
3.9557197720191746 
2.34907058931127 
2.507959600304017 
3.8856710022954015 
2.6868657100413227 
3.1203061502452756 
3.7398872176891618 
9.411127250462128 
4.851330203827213 
3.294937729410997 
13.050434393913479 
7.528907528677233 
11.160107981617735 
9.667142665054048 
7.262884603874039 
9.223118343047881 
13.209411164218015 
20.84861619924093 
25.764088264788352 
18.47573858562731 
15.447610349513887 
14.068494570102908 
14.953243333894164 
13.150598737988323 
11.807947461975012 
13.749032839171804 
12.48307290976003 
18.25997401819716 
5.099973731247366 
8.794119711067866 
8.573254990123422 
10.878543974180909 
4.573220647949796 
16.696015867806306 
10.18149967172625 
16.387812277071273 
13.974224172593946 
2.885730387558864 
3.496159938494971 
5.749935938990088 
10.116826812601106 
1.6666973908674285 
1.7969048172183073 
2.1608021612207 
1.8269344996179717 
1.1836459130760428 
9.234544862494547 
2.631013831400487 
4.316622972382889 
4.127157770813529 
3.4015262029464512 
5.284875239324865 
3.2152620358289234 
4.192083900138819 
5.91990750646876 
4.71034150131723 
5.299215835074586 
3.516835400945018 
3.4224803170524773 
3.3298825543721793 
6.776129618209582 
3.3110964487612815 
2.980084191851419 
3.997737304611702 
9.271374656252304 
11.043389415097016 
10.81258647904482 
5.909796968408257 
10.62130913406042 
10.713799797795218 
10.546793479988779 
10.684995864200605 
7.5449720344875795 
9.579996155654271 
8.597182271213502 
8.436855263611083 
9.172639915286581 
9.555310771160961 
7.724895160457234 
8.780968549549874 
13.23430767226163 
3.5622637164559623 
3.7331361740468445 
13.016560002943685 
7.9677669866581455 
11.289130592639868 
10.552984456386943 
7.700429030533014 
3.4479403493607466 
8.262952505356695 
14.786044610476994 
10.238368107019387 
6.91122902981978 
9.469622642376548 
10.388325459587529 
4.004263460896618 
12.923723537698852 
8.98081820407078 
12.297251741454412 
7.146267846510212 
9.085118066506913 
5.107582413837015 
7.198797798393702 
8.720170253053464 
8.887758749820941 
8.051370528908732 
13.516897146248676 
18.439877460395138 
6.189360621709585 
16.988782502089006 
16.023805387138292 
18.29982500590593 
18.501166936629204 
23.363924689509997 
20.135043391703473 
17.69550485920067 
8.9250706390575 
3.29582214357892 
16.29335804685575 
22.00735290840768 
23.907380168547387 
21.326187987116317 
25.16712197573972 
21.54819050482391 
25.010853382396782 
25.820799357694856 
24.650305446423108 
19.35449718141822 
19.493861918420723 
7.877617816987168 
6.3895100275963905 
25.451912113093176 
20.65960685998867 
25.533881650279458 
26.3449395923155 
20.74584496507809 
25.31185375512595 
15.758996858413933 
1.9724078204913567 
3.8918275459542544 
2.524220522840528 
2.6726120574446224 
18.933231437331504 
8.275460072406759 
5.127285740769409 
3.0339255774501455 
4.628883582291495 
2.840178789444765 
9.628704312825997 
3.4984784805941342 
11.248148818951012 
20.945994536263008 
19.89231779308317 
18.78483824833482 
18.58103263038684 
3.2083188220407206 
3.438941245890343 
2.8207059163065558 
3.193369785962102 
3.390653092036765 
3.31794429961249 
3.0322152750428932 
2.0029961525449758 
2.2011944929495466 
2.0378071445075405 
3.2258175085129897 
2.000278362216569 
3.444524532291772 
3.250465880301246 
3.232097592701661 
3.4280750812300127 
5.085067102080858 
4.695799136389809 
4.299027729337699 
4.499261052536592 
4.2525564631137085 
4.079636396767555 
7.304720358916662 
5.552424437654597 
7.223365428099482 
5.495039400188942 
6.767032900497481 
4.991516122677224 
5.126793837641064 
4.582271000552533 
4.313478676474329 
2.6424529159260435 
8.351485283130563 
3.6038492871267636 
5.5859722103243845 
6.880817467436853 
4.378655397644005 
6.057606878795466 
6.889550508845158 
7.583233543485139 
8.474110445186472 
5.884200393857948 
4.8012088143746885 
7.904247979400641 
17.629734531814513 
19.04030747897086 
16.11801286554372 
15.332661109916682 
16.977232911096777 
2.525049193713649 
20.81666714456333 
16.94079543012015 
14.8356451173699 
11.327658383992251 
3.6724669331224224 
12.960484880417434 
8.868713520331427 
2.9442455034555373 
10.615848621825267 
9.742809901684604 
3.166352503245302 
16.77118595016253 
16.249264451894934 
14.171217863687463 
18.65353093888608 
16.697487981269045 
16.09500719378133 
12.829827440327339 
9.960876069095038 
13.415529247058668 
9.802559941386503 
17.053782315368363 
20.433019884811173 
14.465415982061408 
21.48020115491045 
5.721482666645594 
17.222011846274395 
19.569733518449983 
20.05893606475131 
20.39425431239766 
19.245809803819043 
20.11948825566011 
11.090665861196097 
1.488820406427969 
6.325116764699901 
4.618865779499505 
9.531593531768168 
19.782014994996096 
14.74832894276755 
14.783463816402458 
15.735894455187305 
2.9425986657350247 
3.381639670759522 
3.595954249256498 
3.1922283750991283 
3.1079031663492445 
2.9039045139724196 
3.833986706594804 
2.9391220404642997 
2.876148578068407 
2.861428148399816 
5.274918420420942 
2.333583176074784 
3.09735767017558 
4.442704427751905 
3.82472942732282 
3.5200937988198175 
4.2684167728869795 
2.1652187086042773 
2.174858141527836 
1.7715207096646397 
2.863829936494413 
1.8563135258755876 
2.5203933991551413 
1.9100822868238772 
3.342718308971333 
6.276102233529124 
6.192836230446776 
5.465497746334938 
5.717609301962378 
4.958135970235048 
3.551228438837286 
5.300730857589519 
5.8895552763537795 
5.776889262105203 
5.348618683104995 
4.081943045623724 
7.905203429442801 
3.455286065536073 
5.443970446640069 
4.860530815117095 
3.93866179796893 
2.98720173194375 
2.6876299736876192 
4.156240421943744 
8.511489100571783 
3.825710423628526 
15.562657749874914 
8.603945622294978 
9.609064418933071 
3.943340544294193 
10.66464262622029 
10.56785954900407 
9.894426627733893 
9.439453502879411 
9.304186875756006 
13.591702975535048 
7.810880577720919 
3.6958143677746422 
3.595807643328322 
5.043520885466242 
2.82784957457678 
5.156973062610749 
16.5585925707316 
6.061191866432704 
16.039424034781764 
3.838330845554392 
23.399844937964907 
16.299538938975047 
21.89632014733976 
13.266288552551682 
20.905594834945163 
18.090302730313844 
21.009723407421923 
24.630353474555687 
27.39850444726942 
27.49129535211467 
27.137803539205866 
24.2416454640333 
15.75000878633474 
11.519108003836566 
4.6789294546216995 
9.096999753805886 
11.752045517861877 
8.846845253322465 
3.2106397031387925 
3.5152761763292157 
3.7144696791622027 
3.4849049011610553 
3.405382405659557 
3.648194876435354 
3.524058109813957 
5.746620672903823 
12.584771450644826 
11.600119952425343 
8.548843626817508 
13.482355605610847 
3.523433152692544 
6.419321339560968 
4.915442978337993 
11.401150827691449 
14.561028165771505 
20.59107353336728 
20.32892806432351 
20.734902044436595 
19.9757019794629 
20.857872845238177 
16.697822846551745 
3.819399389958164 
7.403559376185733 
12.72786220383427 
16.50809726319467 
5.763831533019762 
5.460319887610472 
11.163007794236472 
10.920149543703618 
11.27837963968829 
11.025288429891456 
11.080136940728499 
10.977124194103816 
6.181242550275047 
6.130843259676648 
3.6021151791246235 
5.5277142634906715 
5.615031046358679 
7.016986119547958 
10.960094339443529 
13.188786865869805 
10.277706744672367 
10.92286475051017 
12.087115471952865 
16.094961112045738 
5.226159396820854 
5.386697348481574 
9.99451322658247 
4.572232740046235 
8.778219987106318 
4.475431755001374 
5.200831178731475 
4.330951873773323 
5.805197114057357 
9.559483428010498 
5.525780385327215 
2.8946736588364548 
2.4168971092926483 
2.5979989568829867 
2.258419861393697 
2.7421361032579363 
2.3084763816386733 
3.1057556780887956 
2.0144742685545296 
1.7941989477939913 
2.918538464830498 
2.785700739389451 
3.175541434294725 
3.3568536490180025 
3.0223130567267353 
5.212407135230008 
5.583940068223551 
4.693567011645182 
5.130360943413227 
4.794072389158894 
4.6523050590558634 
5.585027430277649 
5.823297791014648 
4.946550604818614 
4.930512769621676 
4.8797149072571235 
5.925673722493707 
9.213284131836962 
13.56261717352104 
5.426138230192766 
10.831901076392956 
3.6618518442690324 
6.0712899074000655 
2.933137574513721 
4.890335597330514 
4.196719721493979 
18.906920815487915 
21.504045239125617 
19.835551522077868 
3.571151987032554 
23.588815255241816 
26.719609004433252 
19.677934612794793 
8.187894284309657 
3.803187646649891 
12.58075645182028 
4.991112160698974 
3.308203761500894 
8.181797877667023 
7.760416379824439 
5.165476358394637 
3.883832266013784 
1.7625971118763677 
2.3862266394667895 
12.456005981656835 
1.2470195913119726 
6.676253142381173 
12.08742103086264 
13.838710433870988 
14.084012002595687 
10.014271946147588 
16.899476111729903 
10.408797519833225 
16.0582103991762 
14.126606985853083 
22.645410633607767 
15.121063015293943 
12.960769483712147 
10.409611371788538 
8.62119909880716 
9.143297020492586 
13.889712343670004 
10.790546515317407 
11.956773579809358 
8.387594904835105 
8.829646974857663 
6.976280330357281 
13.315789460396052 
8.873332842034696 
6.501069638678603 
8.636190009539211 
4.857471526918195 
4.042191145612836 
6.379978880519662 
4.183704647360379 
3.8389310303961883 
4.156530626177065 
3.3630181062308675 
25.901517073838743 
20.736377704419862 
12.786225443840811 
11.455656788855855 
16.04210963955027 
3.4313179286280744 
3.391836919415996 
2.8295044649635903 
3.5866102021970887 
2.167403977500866 
2.691421434030896 
2.1668287610547203 
2.350299803421523 
2.942875995626503 
17.687629218675507 
3.022089716124781 
3.2054374624588196 
3.974137820621567 
2.8041172652724784 
3.1187566723464544 
2.1293106049458808 
1.8557377566688835 
5.0727085481844405 
2.186497602771994 
3.306165754135411 
3.3708225841897494 
3.5658658462365453 
2.8857212718898295 
3.386420537840325 
3.4526483954346316 
4.334625442505266 
3.1432379835890156 
3.420626860047885 
3.6843626211508926 
3.2607222626523718 
2.829951235446344 
3.12410190256189 
3.3378056531456304 
6.347204923435582 
6.076388269242151 
6.3147518823802455 
6.85633016092667 
6.905540047613672 
3.600989925286512 
3.541481036072524 
3.849125582121801 
3.563659072881025 
3.732987994906934 
9.028553573135904 
5.409607517958437 
4.746371942472964 
3.557491271635382 
4.334310465674156 
4.764586468113308 
3.999278979242632 
3.5864332323911112 
6.361357694716747 
10.869004922306818 
6.991861074446435 
2.464394426421325 
9.693253697348892 
8.986688416685931 
11.188185689958791 
11.330851784221691 
12.18806075932596 
12.120665222057907 
18.5671422587702 
12.253439815967718 
10.587916640367194 
12.259224463862928 
9.822229263398338 
8.39980378558704 
11.949285844022517 
11.87641903713868 
11.848917386424665 
11.602389520280562 
18.948903135917245 
24.65384604739388 
20.103789040672396 
19.660435897956162 
19.348612920196434 
3.592162059329796 
10.719956504785229 
10.680677041362712 
4.731321822020577 
9.257622648346869 
10.297580429726352 
9.81708838517505 
11.048260898475263 
17.177690619152028 
17.938443950080437 
15.87627682677975 
3.424690846186116 
18.65695718198362 
4.165022170756064 
15.836574962991518 
18.317837992495566 
14.338162883957283 
12.071950815624472 
13.189349879012486 
23.596790529866816 
17.85829879893759 
18.221858307199497 
21.202737896347454 
19.525989782748287 
2.0777905728580057 
3.334407580936861 
8.21477351067537 
5.887186309466682 
11.132170669836345 
13.599275442316408 
8.574007864426047 
7.242351830738928 
10.827147449510354 
5.611481844213749 
15.915714039229968 
10.936663739581252 
13.212565511799973 
8.127228453280534 
6.9225401344082815 
16.770495718729226 
17.17254297739397 
19.90815105473502 
3.3929056228292236 
13.22599739433229 
16.656061219653083 
15.522600152954823 
16.037546333040442 
9.82674390012462 
4.962466987029478 
4.714239128478842 
10.177302585413988 
3.5924359589742023 
4.6855865292855805 
5.611683784295598 
3.853195197550563 
3.7914157375622595 
6.867958116809088 
8.088452004641134 
10.099374731601937 
2.2726875722907343 
2.3931811571288506 
2.7189916288625247 
2.7277369024116176 
2.4621392337375276 
3.5919801835323844 
9.642984793170006 
2.4394255476374704 
4.593432065168417 
3.2800367251526525 
3.4941465848805513 
6.650788288956496 
4.60199022916185 
5.145207886085145 
9.066223861849481 
4.402853301689106 
5.143232039608055 
4.393696634852479 
10.810023792708296 
5.837468018418584 
6.4265167928363836 
7.21364117914185 
2.8561248759666515 
6.187866324806291 
4.017082060234118 
8.19215428189418 
8.311637043460383 
8.878597638289063 
6.889460971150446 
7.043603749348116 
3.4656333978985034 
3.945318279836128 
2.2938269188666918 
3.199474338280315 
2.926865896273041 
11.570123316590083 
2.9503498443310487 
6.674066811274625 
3.832793098108785 
15.369564784173738 
13.775866405528818 
11.673687126632823 
15.589945692092881 
9.964908799899025 
4.392888173635909 
7.346088919777358 
10.718574028271146 
8.652666578957147 
12.645647571033216 
12.811978400367467 
11.69774161588158 
11.541419026056749 
4.220613099529596 
4.467544659900011 
4.049405497822605 
4.160427380739226 
9.423471453110086 
9.26374979947003 
13.49247016142336 
9.006160423219853 
6.136623531583055 
18.12192188259036 
11.941721345657072 
12.102947731942837 
23.068846089815526 
18.857229619849655 
13.327211768358527 
13.114058571888329 
18.71645798847443 
6.417464147352189 
18.18842161451248 
19.255907165139874 
18.884278233494477 
19.773193314608378 
13.107863503530545 
18.26011700809829 
19.326329901175054 
26.515068739725503 
27.524113469788404 
31.20834166317959 
29.922072412894675 
25.04676809925669 
19.562096226746068 
11.990793741864088 
11.33002510483957 
7.352800064820919 
8.225884445728662 
15.752886981901323 
19.26721799396456 
13.020288581816386 
17.063376974035897 
18.650997246189345 
16.644806895906367 
14.850608993762258 
19.48957755581634 
22.09923819336634 
17.589496266708167 
18.22694467513549 
10.242042714364912 
10.58319794058372 
16.75470274709963 
12.324148052095852 
11.684556269557627 
27.810752521762286 
22.987856508728193 
22.93112823033769 
16.258841206202845 
12.736746947840444 
25.988284105311696 
16.655713688183784 
15.595139985466673 
12.321003255881262 
8.459991175780385 
12.851249046098912 
4.453530327522101 
2.5414937015242236 
17.929707978713097 
15.021172408162078 
11.538721019168104 
11.876273501992895 
10.492695616841853 
20.292192661016816 
14.659771389126893 
11.18540476736775 
10.438898077875725 
4.503297866139583 
4.602761201392613 
4.541756522952551 
4.079722999986291 
11.757738992260753 
6.057145737576134 
5.286439643784768 
3.9206813489734724 
3.8243849742878644 
3.167046500116945 
3.4564921175149594 
4.1753216952711565 
6.46024675377171 
9.94955185997578 
9.922948822504829 
10.061481182755394 
8.731691401667348 
7.448161280601215 
7.180129998002864 
6.663212119168296 
7.2086006429525895 
7.582207766116278 
6.703407685015834 
8.815485048456503 
7.41887441797764 
3.0386027799709274 
8.038850705753376 
3.040035490508419 
4.573144848009371 
2.5866358455456284 
6.07126260336149 
6.49529514151135 
5.4753588263197255 
10.711242322856783 
8.064912929652806 
8.47584724605681 
6.987814654077419 
7.231966173854027 
7.647722092132158 
12.493878313086787 
9.18147466388283 
7.286277947811211 
9.012926206572288 
13.006512870498508 
12.773068524472663 
13.346594085505956 
3.045022703261933 
4.157782449102355 
6.427894173501437 
3.768456789205063 
7.322644517290679 
5.279326335328699 
15.294261594647645 
13.606237062908274 
11.55010581603853 
11.09712700748867 
13.331427632690819 
11.767301327468068 
17.980954674944407 
22.512657980107985 
18.74764306950882 
18.556206830449305 
18.436354708843524 
18.315451649356596 
16.131242822192238 
6.211831074721098 
4.056329985134694 
5.0528427725284395 
9.659911166975697 
1.9231154386778158 
15.88030106363512 
16.098008017974202 
17.15153753287064 
17.231680502206594 
3.4324896460993783 
19.47681676800171 
23.459180474356145 
23.630419161961708 
16.622753453103716 
19.192555778166092 
19.531383629244253 
17.796600997571748 
6.22555252276386 
15.316065343422139 
21.62338158637124 
3.094735461106512 
2.918387011557975 
2.8853190916044857 
3.538864733696076 
4.296760469075224 
3.09688891794097 
4.4676226496619265 
4.938406453902609 
3.590394525657291 
3.442705556968578 
3.33078861668783 
4.012457126781086 
3.5814029567877954 
3.5345544635925656 
3.4996239910168048 
4.051833829529577 
3.882115152365579 
2.421236626680347 
2.444260551146605 
2.5542231164088323 
2.50091314427299 
1.9970221915384163 
2.2817521125556293 
1.703870050692532 
2.036844519005568 
2.1285600381672087 
2.3575295201406754 
11.572379552885561 
6.149110203095707 
5.448883080192324 
4.5148350528120895 
3.0799224055677428 
3.338809565882586 
5.959687771617036 
5.673658017037346 
9.594231221426954 
3.865020709441241 
7.040949928851799 
12.219033047213712 
POINT_DATA 6348
FIELD FieldData 1
displacement_1 3 6348 float
2.607085559287758e-5 -0.05009050498090495 -0.0073566148321214005
-1.6249252311268727e-5 -0.050081635736432165 0.007336644512849187
0.0 0.0 0.0
0.0 0.0 0.0
5.980628266359077e-6 -0.05006900057082507 0.007354671798612
0.0 0.0 0.0
0.0 0.0 0.0
4.8823990909873346e-6 -0.05005978730873969 -0.007335755584086149
1.88637128658307e-5 -0.050070822540129324 -0.005846375817797612
1.817107860692605e-5 -0.050053081699745275 -0.004368483410148757
1.5438857431419916e-5 -0.050038978173667197 -0.0029051256401691878
1.1616981168406856e-5 -0.050030944680441995 -0.0014509970262850823
4.389276524619617e-6 -0.050026952659843485 -1.0630395134545034e-6
-2.068642726755069e-6 -0.05002858670083856 0.0014489424688368382
-6.647148928604715e-6 -0.05003659624024485 0.0029024952253893983
-1.021424460909165e-5 -0.05004921395487937 0.004365033773045295
-1.2610052983220545e-5 -0.05006486992500718 0.005840320255391602
-1.9832470117605787e-6 -0.048548825802409774 0.0073327024394108315
1.080795607775392e-5 -0.04704614036242052 0.00731806351132446
2.169660347447932e-5 -0.045552926631115494 0.00729959562136506
3.277914315343171e-5 -0.04406500679606267 0.007276824615491525
4.334057718251444e-5 -0.042582715251978175 0.0072492176509856695
5.37798851499381e-5 -0.041106845272084115 0.007216098529384877
6.398951683940286e-5 -0.039638362989671994 0.007177314708419296
7.42754733952318e-5 -0.038178197830661294 0.0071326996835456204
8.41006537535446e-5 -0.03672726086288857 0.007082617851429978
9.407585199645254e-5 -0.0352869514133612 0.007025948668210198
0.00010420084265080568 -0.033859214630680645 0.006963622617128214
0.0001147920988612774 -0.0324440552044607 0.0068953921323728585
0.00012490276682187377 -0.031042948247352303 0.00682168424212751
0.0001349409090762575 -0.029656763172668247 0.006741912548488539
0.0001448421976316346 -0.028287152644895286 0.006655938166097715
0.00015462468377467814 -0.026935183180764568 0.006563994812452861
0.00016474720605259223 -0.025602566491294335 0.006465595385785646
0.00017478491834755725 -0.024291006432593253 0.006361847442716948
0.00018480293988494095 -0.023000487867215785 0.006252400422054386
0.0001946216428506445 -0.02173266455595223 0.006136696813841125
0.00020530155221070145 -0.020488118651250685 0.006015264439219843
0.00021521318611782237 -0.019268287766750984 0.0058879092441361195
0.00022490014246685425 -0.018074980681094414 0.00575423081231955
0.0002344532802551491 -0.0169091431686486 0.005614970623334422
0.0002442926403079524 -0.015771018911355055 0.005469731628343749
0.00025372228058931996 -0.014662761130584952 0.005317917202613479
0.0002644277940784564 -0.013585889243583903 0.0051602482800616615
0.00027456531706684966 -0.012539677858847142 0.004998117285169997
0.000284468341685571 -0.011526259403384823 0.004828634984965597
0.0002950668606640083 -0.01054880386774279 0.004653665363634209
0.0003055673620121969 -0.00960647119102225 0.004472768722712769
0.0003165540160764948 -0.00870116511026703 0.004286863385970207
0.00032680226239691345 -0.00783223024660714 0.004094293033346476
0.0003366917144119732 -0.007002776319605999 0.0038952878878914495
0.0003465647044733144 -0.006214357174607071 0.0036901551877888527
0.0003571163907677289 -0.0054692471110602756 0.003480527701720865
0.00036624399512017895 -0.004764681696359892 0.0032654994332622367
0.00037416537112769437 -0.004103911899788715 0.003043040186422923
0.000383669661159207 -0.0034899637363625053 0.002814553848369576
0.00039390392158492255 -0.00292323455419487 0.0025812436090719357
0.0004036383177717668 -0.0024024511893754575 0.002343299998625005
0.0004117368244393703 -0.001929723622122705 0.0020998568055159428
0.00041833600042246073 -0.0015082224235790905 0.001851802232075989
0.0004198954584397182 -0.0011426555355357386 0.001598921297068511
0.0004200881796705789 -0.0008292841816637675 0.0013457826448530293
0.00040749390143589016 -0.0005707139042934211 0.0010908353124087634
0.0003822290725527117 -0.00036942659116978853 0.0008346293397829956
0.0003340012497730019 -0.00022422188521784418 0.0005788417030753647
0.00025392085979234207 -0.0001187338794119702 0.00031734821478068685
0.0 0.0 0.0
0.0 0.0 0.0
0.0 0.0 0.0
0.0 0.0 0.0
0.0 0.0 0.0
0.0 0.0 0.0
0.0 0.0 0.0
0.0 0.0 0.0
0.0 0.0 0.0
-0.00020740538015643712 -0.00016713804912950146 -0.0003132500758923494
-0.0003157150531427922 -0.0002450254148392382 -0.000575542134502745
-0.0003691928268493902 -0.00038227669572660065 -0.000834286661445938
-0.0003969398959290324 -0.0005778318357100021 -0.0010891502186369897
-0.0004047560527954714 -0.0008344685352578442 -0.001344810586916906
-0.000408216412924576 -0.0011483526959010697 -0.0016022787075699828
-0.00041104544956043816 -0.001511139717159817 -0.0018528662358262954
-0.00039854714643095814 -0.001928641001120815 -0.0021034999206545916
-0.0003916344701785821 -0.002400041273802701 -0.002346856845679879
-0.00038407891856007494 -0.0029222300424110344 -0.002585229132426495
-0.00037454872864515316 -0.003490736705007623 -0.002816794860920127
-0.00036296846645289494 -0.0041045687586609 -0.003045200554989997
-0.00035369466072871636 -0.0047668149036856206 -0.0032669533841376474
-0.0003422609041544842 -0.005474112278355153 -0.003486515947501267
-0.0003291499492587053 -0.006215997699276871 -0.0036890198590529954
-0.00031885207090022916 -0.007002394157887493 -0.0038970865503388315
-0.000310115499576024 -0.007832766047558868 -0.004099288087573068
-0.0003000987395674228 -0.00870251027916693 -0.004291962297047656
-0.0002874864515656478 -0.009606217564144804 -0.0044750571520393535
-0.00028095147522171245 -0.010549420518418869 -0.004658098043573361
-0.0002677116416192508 -0.011525837272359226 -0.004833529361086426
-0.00025873934264534 -0.012539963700189276 -0.00499955165210888
-0.00024924177483602144 -0.0135845068577517 -0.005164907726540524
-0.00023934446282934975 -0.01466303080409388 -0.005322617099587339
-0.00023014830558272008 -0.01577013020597911 -0.005473304621627201
-0.00021670473491653937 -0.016907912900121985 -0.005621944322671639
-0.0002121094815540157 -0.018075842710795095 -0.00575868836234921
-0.00019810180975997617 -0.019268857643811945 -0.005891741118612535
-0.0001885754609560051 -0.020488098064064018 -0.006019019845370213
-0.00017937390370074217 -0.021734977185836696 -0.006140877338063657
-0.00016976982918029835 -0.023003474690656597 -0.006254887351177075
-0.0001582074700124155 -0.024292468191120378 -0.006364663354614105
-0.0001477769656360676 -0.025605351842059667 -0.00646835410222908
-0.00013955840474729137 -0.02693824596428431 -0.0065648841796987914
-0.0001287619996524951 -0.028288635995322838 -0.006657806285014822
-0.00011840717793671352 -0.02965742901418785 -0.006744442196009197
-0.0001090149100070986 -0.031043441036761068 -0.0068242157654443735
-9.952122976449299e-5 -0.03244482963807296 -0.006899140108812056
-9.037643659294584e-5 -0.03385960661306061 -0.006967937466377123
-8.025275040087283e-5 -0.035288121075950474 -0.0070297238502900995
-7.026739827517031e-5 -0.03672844884883272 -0.007086175748777975
-6.0153284424694176e-5 -0.03817939697367866 -0.007137104805098761
-5.1308228315483263e-5 -0.0396389881223746 -0.00718120504505569
-4.197959154533798e-5 -0.04110786304660397 -0.00721976291825619
-3.207306541472305e-5 -0.04258401878665298 -0.007252425205777912
-2.2616711819667762e-5 -0.04406612351270018 -0.007280082941926475
-1.1631091888918472e-5 -0.0455539941954467 -0.0073033997778909655
-4.307047617433137e-7 -0.04704881811866491 -0.007322613583395237
1.2990236475601151e-5 -0.04855355214754464 -0.007338884736710009
-1.2570283103580909e-5 -0.05006745452097804 0.00734885137857324
-9.89406098025769e-6 -0.05006014159962201 0.007350480112230653
-8.166543273902001e-6 -0.050055252615301554 0.007350941395919818
-7.0522568436299745e-6 -0.0500525141179046 0.007351870449767303
-6.869178548125269e-6 -0.05005022887588559 0.007351828655837088
-6.4217936530192825e-6 -0.05004820771491963 0.007351608319535345
-6.259844063581894e-6 -0.050045220518230175 0.0073506461953757535
-4.355790782601604e-6 -0.05004561866662758 0.007350805342553111
-7.224425178448268e-8 -0.05005116647550935 0.0073514579277646
-8.302998409863298e-6 -0.04853283722435757 0.007337570426174082
-2.240960838094518e-5 -0.04702680103670065 0.007321644567267526
-3.3428273992563405e-5 -0.04553254305481575 0.007302984542576667
-4.390332808213125e-5 -0.04404402265243448 0.007279913640024346
-5.37760855656242e-5 -0.04256177877576639 0.007252398025341482
-6.33567477230577e-5 -0.04108616067023617 0.007219269861952282
-7.301389902170985e-5 -0.03961818517833073 0.0071805571091069385
-8.252665098984817e-5 -0.03815820959967451 0.0071361838053313545
-9.205666263256147e-5 -0.03670777681329641 0.007085702155860654
-0.00010182880050573786 -0.03526739135176257 0.007029739903110102
-0.00011131395806112177 -0.033838863469995144 0.006967319703171534
-0.00012075068972802645 -0.03242407224086183 0.006899214617700577
-0.000129855199193611 -0.031023350422441785 0.0068252932260306765
-0.00013893411958011904 -0.02963780347759512 0.006745468805366404
-0.00014848390618764948 -0.028269435470257127 0.006659414328658836
-0.00015865625715878108 -0.026918617980063692 0.0065677145857922885
-0.00016580924606309413 -0.025589864519998607 0.006468542999031175
-0.00017706555274478057 -0.024275938740325215 0.006364196823708165
-0.00018600230930400336 -0.022983636205145198 0.006256536007615341
-0.00019745815544353713 -0.02171422358912211 0.00614033717779481
-0.00020638485527244067 -0.020470259543314946 0.006018882163704912
-0.00021562503139379929 -0.019251117901039984 0.005890990377834436
-0.00022540043831464982 -0.018059830937046415 0.005757190197496219
-0.00023490134152680115 -0.016894347843983956 0.005618515747588699
-0.00024407053492144076 -0.015757791389142156 0.00547305906932013
-0.00025376476989736083 -0.01464980666144378 0.005322816644774194
-0.00026251390390301204 -0.013571592779709735 0.005165365433609682
-0.00027337872667204823 -0.012527107512626205 0.005001932068502723
-0.0002823059938708694 -0.011515948439524921 0.004834109988439212
-0.0002908762735206151 -0.010539100150076095 0.004659216056344876
-0.00030114290974249353 -0.009598035454695928 0.004479624909162106
-0.0003101847251597666 -0.008689828577416663 0.004293010468026281
-0.0003208889399093549 -0.007820897599259437 0.004097757522239494
-0.00033147802933644393 -0.0069944234635664565 0.003899163890478363
-0.00033983391891255027 -0.006207525336744759 0.003693989558870112
-0.00034972217878234766 -0.0054628603567383185 0.0034830469368749197
-0.0003594108526425954 -0.004760777891450371 0.003267475346666489
-0.0003686964385746914 -0.004101946078476549 0.003045339434992956
-0.00037716294590703586 -0.0034899176719026155 0.0028180830592328832
-0.0003868963840688134 -0.00292266131681889 0.0025861555809084612
-0.00039560656195055467 -0.0023986029722175184 0.002348174209729886
-0.00040466506950412545 -0.001925287816929649 0.0021022156592616515
-0.00041145717041366533 -0.0015065771337227053 0.0018533676274682138
-0.0004125789078185386 -0.0011416239771454935 0.001602067358849406
-0.0004098838831351945 -0.0008343965632498397 0.0013470209673891271
-0.00039301793925519544 -0.000582265395131099 0.0010915760199285084
-0.0003608597153152623 -0.00038903343029389194 0.0008342209568505734
-0.00030629382654825303 -0.00025345639098752604 0.0005756429852133974
-0.0002038836415946764 -0.00017273207334725452 0.0003121486241043576
0.0 0.0 0.0
0.0 0.0 0.0
0.0 0.0 0.0
0.0 0.0 0.0
0.0 0.0 0.0
0.0 0.0 0.0
0.0 0.0 0.0
0.0 0.0 0.0
0.0 0.0 0.0
0.0 0.0 0.0
0.0 0.0 0.0
0.0 0.0 0.0
0.0 0.0 0.0
0.0 0.0 0.0
0.0 0.0 0.0
0.0 0.0 0.0
0.0 0.0 0.0
0.0 0.0 0.0
0.0 0.0 0.0
0.0 0.0 0.0
0.0 0.0 0.0
0.0 0.0 0.0
0.0 0.0 0.0
0.0 0.0 0.0
0.0 0.0 0.0
0.0 0.0 0.0
0.0 0.0 0.0
7.81079437567598e-6 -0.05005034333878525 -0.007348639001508511
1.1089498203507196e-5 -0.05004769836774206 -0.007351099756676686
1.2778613603115279e-5 -0.05004802805959331 -0.007351741666416332
1.3805780614051539e-5 -0.05004873246398335 -0.007352179226073707
1.408638160923986e-5 -0.050049807602145883 -0.007351955912189027
1.4521822189904904e-5 -0.05005304704090014 -0.007352191674972619
1.4969638989455663e-5 -0.05005616084231649 -0.007352646262003371
1.6805577086836203e-5 -0.050061606845752366 -0.007353105527615952
1.997644684131244e-5 -0.050070219037923754 -0.007354514417296015
0.00025234153994253356 -0.00011847173761081215 -0.0003185376213784604
0.0003339496739549054 -0.0002248878105648547 -0.0005780297395776786
0.0003808078731118844 -0.00037264863810276545 -0.000835062968902169
0.00040458894973157745 -0.0005759909097797526 -0.001090916494755521
0.0004158714874848611 -0.0008363422318359533 -0.001345188593523773
0.0004186335308914313 -0.0011440295442830357 -0.0015981919068716924
0.0004165292934967159 -0.0015070697969984898 -0.0018500794191285343
0.0004134657121551306 -0.0019284886232065006 -0.002098235004488677
0.000405394201262399 -0.0023977984354153752 -0.0023427150048669315
0.0004061007740609863 -0.0029185382877889906 -0.0025838823546309856
0.00039179514892389374 -0.003483323635170588 -0.0028136291837241663
0.0003816651810257608 -0.00409699020368521 -0.0030433119450270062
0.00037624909740596 -0.004756829188272512 -0.00326429511117758
0.00036424613301973876 -0.005461348680438202 -0.003479557896844924
0.00035557205248271784 -0.0062062459467986655 -0.00369050545845686
0.0003462954724003322 -0.006995935722303668 -0.0038965619060751587
0.00033800744449354676 -0.007821888430286632 -0.0040930559492804745
0.0003271043072334229 -0.008685125880624775 -0.004286115186194151
0.0003168265789659995 -0.009591264673726764 -0.0044746499152308805
0.0003066258795591216 -0.01053511984341838 -0.004656032250468786
0.00029948466162081004 -0.011515617238044625 -0.004831322128359512
0.0002886730659076303 -0.01252713023063739 -0.00499941334163579
0.0002754208584852731 -0.01356976581511344 -0.005163073167057374
0.0002697348329054747 -0.01464820481473848 -0.005319273419453225
0.0002601515417591251 -0.015754921960467766 -0.005470754101787818
0.0002487750191499513 -0.01689246740420888 -0.005615778833263312
0.0002409007671029086 -0.018057886383133638 -0.005754968102397269
0.00023235251388818048 -0.019250701264273983 -0.005888363887029302
0.00022028391152155094 -0.020470315698447178 -0.006015921945990241
0.00021199437402298635 -0.021714711630327507 -0.006137251429962056
0.00020146943682868655 -0.022982671702978276 -0.0062516883624574434
0.00019330669314134147 -0.024272721608133846 -0.006362888796295573
0.0001834288916348602 -0.02558400283262672 -0.006466179239349
0.00017534261232790896 -0.02691795644519344 -0.0065646235817378665
0.00016400726372251226 -0.02826819211114036 -0.006656970488213425
0.00015365136596601708 -0.029636107865096843 -0.006743018547711045
0.0001450073570754979 -0.031022008828015764 -0.006822498140677573
0.00013510114176444813 -0.03242300649861088 -0.006896191640357278
0.00012564912671329665 -0.03383793253291415 -0.006964221262999011
0.0001156332682338612 -0.03526623577033526 -0.007026280362204899
0.00010538755989783933 -0.036707449087866606 -0.007081793975125575
9.478506986110924e-5 -0.038157443476697875 -0.007132742539229195
8.600026265204703e-5 -0.039617061693507497 -0.007177172368079116
7.544696655269989e-5 -0.04108597329506523 -0.007216477936902976
6.528937501647147e-5 -0.042561497923121666 -0.0072491706039274646
5.4754415519005655e-5 -0.04404332923211956 -0.007276677366922162
4.411333500102831e-5 -0.04553100298378362 -0.007299435577829046
3.19324937972341e-5 -0.04702426946650297 -0.007317706496662694
1.881032471524274e-5 -0.048527839357934165 -0.007332220445788893
3.494529827958362e-6 -0.05004369868975176 -0.005839596407729184
2.0197290351011348e-6 -0.050027680805739605 -0.004364554273412325
1.8685721241563096e-6 -0.05001483918163448 -0.002902471031987405
2.7134733755320337e-6 -0.05000752275602907 -0.0014487016391217993
4.447030657220503e-6 -0.05000523034667741 1.1355920667816725e-6
6.272916680720967e-6 -0.050008988229482146 0.0014508277442067058
6.723503951836322e-6 -0.05001757963226655 0.002904971539175703
5.1982384013555195e-6 -0.05003085088177795 0.004367545564258816
2.8347873274587067e-6 -0.05005004283245924 0.005845182910762095
1.0887459094080288e-5 -0.048547571853101025 -0.005840574401188023
1.087925353094721e-5 -0.04854081527471384 -0.004364303614377039
9.596364033043721e-6 -0.04853550738465835 -0.0029025271724864516
7.633189829474627e-6 -0.048532160270168774 -0.0014497766624508282
4.132092235869016e-6 -0.0485305670126667 -1.562774842154973e-6
1.111066635612669e-6 -0.04853109891149701 0.0014464691660012676
-9.634666594810368e-7 -0.04853407681935825 0.002898754152876241
-1.8072472750011368e-6 -0.0485388048571962 0.004360203869179513
-1.5239232019246154e-6 -0.04854413157976769 0.005835241457217063
9.761190485650334e-7 -0.047043334521002386 -0.005832647048499343
3.1167243396264012e-6 -0.04703980729715353 -0.004360093990500011
4.364958887348048e-6 -0.047037365672397906 -0.002900560514253717
4.564375900942449e-6 -0.04703516658783369 -0.0014493892830845466
4.644662605259876e-6 -0.04703487535981369 -1.747483819736603e-6
4.416222309839522e-6 -0.04703526444286397 0.0014452785977918025
4.7955169379188165e-6 -0.04703639532126315 0.00289639050206284
6.669943112804594e-6 -0.04703806814425315 0.004356960114095718
9.20917309608525e-6 -0.04704109334770869 0.005828268199852153
-8.275654334493586e-6 -0.045548408799231166 -0.005821404210823686
-4.725438676794705e-6 -0.04554402900705123 -0.004352535147312929
-1.238412854156933e-6 -0.04554181814613748 -0.002896257192865978
2.2768761078654686e-6 -0.045540626247894116 -0.0014473420312407482
5.038860098615666e-6 -0.045539434526848006 -1.9127184843471065e-6
7.062258088265742e-6 -0.04553970298602507 0.0014437014127810237
1.0636267173785506e-5 -0.045540500044104634 0.0028925227182120513
1.423138703328397e-5 -0.04554318336324658 0.004348909442762129
1.851934575831456e-5 -0.04554685494012298 0.0058165750475726655
-1.7066638734326324e-5 -0.04405882691284115 -0.0058048013950926835
-1.1137311640487396e-5 -0.044052729739385746 -0.004341433303497897
-5.419461176260949e-6 -0.044049372596080265 -0.0028893476654160686
-2.6599859976451566e-7 -0.044048149174007456 -0.0014443257932172397
5.263710950765665e-6 -0.04404753895219652 -1.8035518731916776e-6
1.0625989519127968e-5 -0.044047651485643456 0.001440451887755135
1.5353843979130506e-5 -0.044049296422993 0.002885474374212887
2.1217500200877504e-5 -0.04405223677648205 0.004337596252637176
2.7546350748649495e-5 -0.044057379825337376 0.005799892464917636
-2.5644297967470247e-5 -0.04257475449956723 -0.005782639112623658
-1.810910265991737e-5 -0.042567479599372564 -0.004325809129019225
-9.815192746853766e-6 -0.04256288551700941 -0.0028795789823547044
-2.2276638293558786e-6 -0.04256004560646211 -0.0014395036393416655
5.750522210047085e-6 -0.04255922367408975 -1.7132771748663332e-6
1.2974664307944794e-5 -0.04255978311951304 0.0014360789836922495
2.0831046053603515e-5 -0.04256237763664869 0.0028754165557138027
2.838339907114266e-5 -0.04256691259305056 0.004322415939864015
3.6230559944410856e-5 -0.042573533991950324 0.005778737988540932
-3.3526981066572914e-5 -0.04109677221034985 -0.005756552525779163
-2.3690726631654767e-5 -0.04108823124423245 -0.004306986937263776
-1.4080039522095214e-5 -0.04108227880537464 -0.0028670737376831814
-3.949118102502562e-6 -0.041078943409340034 -0.0014336397573062663
5.718965096928454e-6 -0.04107790774402909 -1.592200245810656e-6
1.523154677937731e-5 -0.0410789294738444 0.001429532744089579
2.4894864192264606e-5 -0.041081942349417484 0.0028630537885504103
3.489389569645289e-5 -0.04108750371390394 0.004303310010725048
4.478821121123557e-5 -0.041095767944664 0.005752667152055728
-4.074236706656553e-5 -0.03962609871746677 -0.005726012613571728
-2.9344579150858312e-5 -0.03961675993772861 -0.004284809465122653
-1.732818307017122e-5 -0.03960923955640318 -0.0028521900601617
-5.7092721848322256e-6 -0.03960508379245128 -0.0014260274143098378
5.5261656627254785e-6 -0.03960438228845098 -1.665301616265878e-6
1.797210573855341e-5 -0.03960529521276606 0.0014220350425141334
2.9800915026472435e-5 -0.03960900007154925 0.002847913526139068
4.143675022395334e-5 -0.03961580476285496 0.004280505221921494
5.3103522034570766e-5 -0.039625525811206055 0.005721881874980208
-4.872222132549246e-5 -0.0381648302366953 -0.005690559221752549
-3.4917772329726795e-5 -0.03815289212431455 -0.0042580574345704785
-2.166228724792767e-5 -0.038144830354108684 -0.002834270691641682
-7.791205069057718e-6 -0.03813921328325888 -0.0014172262920384864
6.694957273042008e-6 -0.03813785690320707 -2.711058684888895e-6
1.931363676042202e-5 -0.03814121575104297 0.0014139580825316823
3.326820048686519e-5 -0.03814450226374249 0.0028315645907318696
4.772938196029648e-5 -0.03815234486032895 0.0042537516209940895
6.15816434357884e-5 -0.03816364982019588 0.005685980043109742
-5.5776013286550804e-5 -0.03671184482152085 -0.005649921069579903
-4.112120351952614e-5 -0.03669879891450142 -0.004227474208175716
-2.6260010467815392e-5 -0.036689507871464154 -0.0028143149120465985
-1.0205569485276005e-5 -0.036683551891052456 -0.0014078674645229155
6.366841235401676e-6 -0.03668183772728088 -2.725361443758942e-6
2.163325320020194e-5 -0.03668341555285972 0.001403528228052764
3.8117917228797595e-5 -0.03668916268633097 0.00281037783254507
5.379329074483638e-5 -0.036698404523853756 0.0042235019236821205
6.959877120199793e-5 -0.036710860274887055 0.005646018826272651
-6.434166113909035e-5 -0.035269930653296054 -0.005604559926537418
-4.776440586046723e-5 -0.03525533885936727 -0.004193568539607795
-2.9410677287952228e-5 -0.03524446597598242 -0.0027920338603984484
-1.2087588094638386e-5 -0.0352384611661123 -0.0013967432209210555
6.1770448410213374e-6 -0.03523621645747954 -2.2702194880818232e-6
2.5620039693717784e-5 -0.0352381769758864 0.0013913083967611217
4.286640899431161e-5 -0.035244231326316065 0.002788039472044427
5.974224616412353e-5 -0.03525438381208513 0.004189918796478235
7.755835504525049e-5 -0.03526863766752208 0.005600678468905854
-7.219453562201454e-5 -0.03383954230038987 -0.005555025534184122
-5.325058854041652e-5 -0.03382351823291301 -0.004156071395139082
-3.272569021655019e-5 -0.03381185881145076 -0.002767554927448001
-1.3567541063870266e-5 -0.033805107693703575 -0.001384264862492383
7.183614262150517e-6 -0.0338030369208835 -2.281340025011287e-6
2.777482431243478e-5 -0.03380516032510111 0.0013798731827862614
4.664066258367693e-5 -0.03381224947885116 0.0027628360757545197
6.591287845343113e-5 -0.03382342273075258 0.004151957488546299
8.585108591367442e-5 -0.033838877898324356 0.005550699465042304
-8.020562414066455e-5 -0.03242304222848527 -0.005501470248745247
-5.8058478888658165e-5 -0.0324053120617803 -0.004115116173511328
-3.689506120772767e-5 -0.03239253298676443 -0.002739454168427009
-1.501038175401706e-5 -0.03238454991505219 -0.0013711473986582135
8.499313031460075e-6 -0.03238231834767336 -2.154520800693239e-6
2.9922836126599424e-5 -0.032385059480814854 0.0013661953338389963
5.159695095313662e-5 -0.03239249379144019 0.0027362593991682913
7.361370676874612e-5 -0.032405072207320335 0.004110833402192554
9.47714129722322e-5 -0.03242211312094835 0.005495826465606781
-8.799425495575612e-5 -0.031019169359579307 -0.005441628144472066
-6.522918398303488e-5 -0.03100050031537847 -0.004070329743504012
-4.0359318504157704e-5 -0.03098693873669038 -0.002709562528914531
-1.6749923459503878e-5 -0.030978489683620315 -0.001356100183156571
7.805996051536005e-6 -0.03097617688828646 -2.434484673600642e-6
3.1022410173598187e-5 -0.03097895259725302 0.001351483266709428
5.543457304828692e-5 -0.03098683736632713 0.0027064827778964036
7.963613097764943e-5 -0.03100044395985474 0.004066670829929269
0.00010320189410956513 -0.03101914153122675 0.0054366366979042196
-9.616909059360881e-5 -0.029631660611824186 -0.005377578797510803
-7.060319299571387e-5 -0.029611407933010207 -0.004022344158013156
-4.4785639471825473e-5 -0.02959729755366786 -0.002677108493603239
-1.867587044710388e-5 -0.029588168418113785 -0.0013399535615047143
7.079626069527076e-6 -0.02958527663395077 -2.8904912379821643e-6
3.462086980445091e-5 -0.029588387243618553 0.0013348977267610522
5.8877646213647946e-5 -0.029597506256992572 0.0026734663360694407
8.457456410916114e-5 -0.029611519343590607 0.004018878307640637
0.00011072577169305942 -0.02963115452445754 0.005372917669973056
-0.00010427229931860584 -0.02826099379017341 -0.005310367993138487
-7.657463442305884e-5 -0.028239322639285216 -0.003971801855447592
-4.949476539938399e-5 -0.028224413026227965 -0.002642682016557158
-2.0333005865122607e-5 -0.028214539582469236 -0.0013228268948608792
7.771800217174742e-6 -0.028211418382189116 -2.047245194253043e-6
3.4099502484327944e-5 -0.028215547895242915 0.0013174006500141144
6.324344454189545e-5 -0.02822284640979452 0.0026395985296615875
9.12300751017371e-5 -0.028238453503586662 0.003966891693915762
0.00011871490624663161 -0.028259551957623887 0.005303989230399763
-0.00011094661632461044 -0.026906184438913724 -0.005236815796914378
-8.290542697845023e-5 -0.02688419188803003 -0.003916799104654633
-5.3374273639045025e-5 -0.026867474186733166 -0.002606470291160906
-2.3511246349336623e-5 -0.026858338097620678 -0.001303444642791184
6.045693954181621e-6 -0.0268552866810067 -1.478223206529999e-6
3.9207410747521606e-5 -0.02685797638415434 0.0012995702908139956
6.761065709057974e-5 -0.026867634031827733 0.0026023545117394146
9.704556496262206e-5 -0.02688325056795483 0.003911651752036593
0.0001266696167746347 -0.026905630007906793 0.005230038403166337
-0.00012023897821923775 -0.025575286576140648 -0.005155128314013701
-8.818749584263338e-5 -0.025548933141570036 -0.003857291976308227
-5.721376006453365e-5 -0.025533103754859093 -0.0025687915441445146
-2.4914742361546532e-5 -0.025522943423342718 -0.0012851258602362707
6.157269332216747e-6 -0.025518015315428688 -1.8282908119388769e-6
3.95168197644534e-5 -0.025521904022523367 0.0012809797759059881
7.194292175917185e-5 -0.025531370558219607 0.002564942941806435
0.00010352891795272704 -0.02554755739928164 0.0038528171057110707
0.00013544568146994402 -0.02557153484876533 0.005151344005632068
-0.00012838958330900575 -0.0242594847967805 -0.005072759130023332
-9.650129009477031e-5 -0.02423442390790017 -0.0037963698518829873
-6.0291236210129814e-5 -0.024215490315377262 -0.0025275729666694056
-2.5968493831815436e-5 -0.024204651366216256 -0.001263432795683631
9.852018279738974e-6 -0.024200964759419536 -1.6613151836158925e-6
4.242043036121047e-5 -0.024203435480614426 0.0012611716219666101
7.589908196263415e-5 -0.024214418738535044 0.0025246560489795514
0.00011026162346149797 -0.024232874681964552 0.0037909030983854664
0.00014404701206344078 -0.024258276297469246 0.005068765770148186
-0.00013570434702288466 -0.02296835970072599 -0.004986614486486968
-9.810185745596256e-5 -0.022940070637898526 -0.003730010537348827
-6.368280385966115e-5 -0.02291883891781625 -0.0024828907220349567
-2.9895758455054015e-5 -0.022907412304042887 -0.001242152891085511
7.533810908590144e-6 -0.022905144047950163 -1.3377009107989054e-6
4.255462927722533e-5 -0.02290629217846304 0.001238555428191929
7.968347240884555e-5 -0.02291947471803455 0.0024775141275013156
0.00011539937642129554 -0.022938611385000154 0.0037253719849155214
0.00015164525641900577 -0.022965658818553798 0.004981420759920294
-0.00014294116474855833 -0.021696972246682805 -0.0048922595862131045
-0.00010678032743308739 -0.0216680418852628 -0.00365825032091844
-6.617155371820926e-5 -0.021646608911945937 -0.002435795717332048
-2.8125244741097982e-5 -0.021637001414986066 -0.0012202492732419296
5.203440517122489e-6 -0.021630512093276055 8.507173272212421e-7
4.571196674036212e-5 -0.02163501751427213 0.0012164323256875396
8.365364934044447e-5 -0.021645773862559708 0.0024334068173325215
0.00012205605346722022 -0.02166747293713253 0.0036552513111117917
0.00015959665541254463 -0.021695795797222382 0.004888928505963117
-0.0001528253600169026 -0.020450033866818956 -0.004795173316033961
-0.00011381637502187873 -0.020419381234366932 -0.0035856349297252923
-7.32336717806191e-5 -0.020398084070041102 -0.002386405235179789
-3.2937679615185275e-5 -0.020385485567971495 -0.001195690632791818
6.700277630779659e-6 -0.02038026644958474 -3.7139275248942773e-7
4.784684352493208e-5 -0.020384325260862864 0.0011935872896254344
8.88767863998634e-5 -0.020397919178406918 0.0023822856841171185
0.00012861348018109082 -0.020419593814126544 0.0035823910642125384
0.00016788780325877975 -0.020449523199223017 0.004791198805420596
-0.0001604192571027984 -0.019229848399196777 -0.004693953043676836
-0.00011869223080683703 -0.019197868626656362 -0.003509588051518148
-7.633814742209028e-5 -0.019175184424647936 -0.002335077771451363
-3.5184388392005935e-5 -0.01915997376410291 -0.0011695103844858354
7.351933468889978e-6 -0.01915491468619012 -2.1443158731061674e-6
5.05925069295126e-5 -0.019160962467861788 0.0011653737276806425
9.2122949779899e-5 -0.01917411932858887 0.002333745369072993
0.00013356542705957766 -0.01919640524349808 0.003505608544788493
0.00017590885810190774 -0.019227468174508256 0.004689413570289203
-0.00016740036870517997 -0.01803329272784259 -0.004588414373117815
-0.00012442321239816107 -0.01800070025593131 -0.0034303345405818616
-8.171132392217008e-5 -0.01797783910610969 -0.0022822374796846127
-3.635714581675849e-5 -0.01796334512233723 -0.0011424785108748417
5.201896314897707e-6 -0.01795592057112734 -2.5553426972206094e-6
4.912167951539725e-5 -0.01796218563484841 0.001139399848038547
9.42777460988557e-5 -0.01797593293594111 0.002279929469281139
0.00013980764020458177 -0.01800021908034425 0.0034255142051378812
0.0001839239903499846 -0.018032648111078194 0.004582421120001595
-0.00017686748479829654 -0.016864590598565068 -0.004475928737408143
-0.00013108979920059183 -0.016830255770919005 -0.0033470007695193425
-8.643904360375002e-5 -0.0168062650176569 -0.0022263315626681445
-4.1954395779875803e-5 -0.016791054125257127 -0.0011131783705019662
8.44381352870003e-6 -0.01678621208761366 -2.2099167054292256e-6
5.402496863659475e-5 -0.016790983014053497 0.0011104701820389433
9.884589971733904e-5 -0.016806065522652652 0.002221828064273553
0.00014637411114286564 -0.016830861300016355 0.0033424875782471293
0.0001920396820024722 -0.016865201377589054 0.00447101833821145
-0.00018577150741747703 -0.01572406185756803 -0.004359681742757543
-0.0001378514102851896 -0.015687671465804503 -0.0032605683605287017
-9.109880232701765e-5 -0.015662981654324566 -0.002168070837233091
-4.001985381096592e-5 -0.015648249025328305 -0.0010862883004795554
6.964803080758009e-6 -0.015641715555637686 -1.4345568147107346e-6
5.485290187366101e-5 -0.015648279810649476 0.0010817706547583074
0.00010347965245601478 -0.015664212082369913 0.002162153470584241
0.0001514060300251355 -0.015689887571999992 0.0032546929762644204
0.0001991441095602985 -0.015724917925792718 0.0043547990331871435
-0.00019301627321972715 -0.014614392569748525 -0.004239679982613253
-0.00014428294081791335 -0.014577471030439585 -0.003168971307297558
-9.24921652219306e-5 -0.014550054129127861 -0.0021083065639203825
-4.491824455454643e-5 -0.014533603220905944 -0.00105494939684246
9.156941468158414e-6 -0.014529220233808126 -2.4286000210822485e-6
5.864087095433479e-5 -0.014534725732870481 0.0010493580762911477
0.00011007659853823233 -0.014551421906638664 0.0021015850360599614
0.0001572338956000577 -0.014577773020119764 0.00316353758569388
0.00020711347026730568 -0.014614591920868622 0.004232864931500677
-0.00020168916847026073 -0.013534799547240477 -0.004115332748617944
-0.00014974947807197775 -0.013496191557207363 -0.0030751829487572586
-9.693325111552002e-5 -0.013468979224635651 -0.00204427348703638
-4.345135350031154e-5 -0.013453075655331553 -0.001026051819866172
5.0351104115749076e-6 -0.013445482308071015 -1.8052417814279991e-6
6.229404383239427e-5 -0.013452500310431976 0.0010180887279349145
0.00011399274679493148 -0.013468449509495262 0.002041737093130674
0.00016531471338587515 -0.013497716680521318 0.0030677238102474135
0.00021539109039785283 -0.013536047560352102 0.004106188804216027
-0.00020956671486042596 -0.012485904599334881 -0.00398724897510747
-0.00015641044545567108 -0.01244666010566501 -0.0029780262066501106
-0.00010083626681734553 -0.012418048353544623 -0.0019795796897712323
-4.401255628294046e-5 -0.012402004737012898 -0.0009930231993111344
7.874678806640444e-6 -0.012396716059490737 -3.0347062388635225e-6
6.172028619009425e-5 -0.012401416006806998 0.0009865352946645273
0.00011716633413826469 -0.012419994822385809 0.001974089073226953
0.00017288291433428655 -0.012449349652909104 0.002969875009902638
0.00022437815849754545 -0.012488266026497906 0.00397596688803856
-0.00021951697364472282 -0.011476886949640525 -0.003847498912177895
-0.00016243328711742401 -0.01143399700989976 -0.0028752934382569656
-0.00010738766967647025 -0.011404572786991297 -0.0019113179588400593
-4.808443801697118e-5 -0.01138543700489819 -0.0009556698271208298
9.286528110585969e-6 -0.011377720172823604 -1.292587263233933e-6
6.30066873528701e-5 -0.011386198551944527 0.0009494663804092511
0.00012167923848723861 -0.01140337985616063 0.0019071905712339746
0.00017681674946505184 -0.011430934970979065 0.002872232685706186
0.0002332316940184632 -0.011473562351412551 0.003840670683064802
-0.00022916916282398922 -0.01049242820821215 -0.003711846175897246
-0.00016671837676445343 -0.010451381096195178 -0.0027712243519262196
-0.00010919378592977906 -0.010420895461963982 -0.001841646555433103
-5.55031866824139e-5 -0.010402795249508103 -0.0009193785708494159
7.828850181088357e-6 -0.010396902442617395 -2.47723953491749e-6
6.64339624683512e-5 -0.010403435518110108 0.0009143519267117802
0.00012337917387822124 -0.01042045059381303 0.001839195332444239
0.00018136814941566696 -0.01045093689655025 0.002764789765910302
0.00024123267869823352 -0.010493598838888956 0.0037009872564164187
-0.00023040975247324408 -0.009549625480410873 -0.003564568895579829
-0.0001769003623881878 -0.009507167542313979 -0.0026591863517807695
-0.00011398746759937477 -0.009472662218405347 -0.0017691912105615418
-5.459006625465227e-5 -0.009455432857396388 -0.0008845132829408412
6.754531314577499e-6 -0.009450145007574497 -3.0958938224611774e-6
6.95019059715547e-5 -0.00945503318915184 0.0008809360130888984
0.00012773512637122522 -0.009472959591489413 0.0017676020237063625
0.0001888389063873056 -0.009505100272066018 0.0026570291040987153
0.0002493203539089466 -0.009549505020008377 0.0035560237778386717
-0.00024229339081434967 -0.00864296529152275 -0.003413023566320997
-0.00018238240106275037 -0.00859635177625783 -0.0025490198148774763
-0.00012065778394108447 -0.008562522366402604 -0.00169608922103817
-5.684830355052845e-5 -0.008544031277822852 -0.000851575293632586
8.8222606499512e-6 -0.008539222270119723 -4.538526050413759e-6
7.519732753307752e-5 -0.008544182652162202 0.0008441177129562684
0.00013405235453258768 -0.008563600720135931 0.0016913696707319497
0.00019575684256045318 -0.008596606098948639 0.0025438678712307677
0.0002584090108408832 -0.00864221654822379 0.0034070558762158893
-0.0002502333536691701 -0.00777141299800808 -0.00325813278232612
-0.0001873201172505598 -0.007724387588150853 -0.002433542388720629
-0.0001231312366457571 -0.007691593037886545 -0.001619112813949033
-5.8415521909923837e-5 -0.007669849843978746 -0.0008125954113620224
7.452754550239081e-6 -0.007663679741573895 -2.0456956204161206e-6
7.108878005564607e-5 -0.007669114298140963 0.0008064785145275421
0.00013701141635664283 -0.00768982038411136 0.0016149879877613838
0.00020280687816137994 -0.007724620437711188 0.002426402322880114
0.00026699054518979526 -0.007771448424458419 0.0032523514373999146
-0.00025922448015308343 -0.006939868223390921 -0.003099328266646103
-0.00019284610787303496 -0.0068937232700718235 -0.0023148633593711543
-0.00012698478968862522 -0.006860185986234366 -0.0015383675377402515
-5.870648451615047e-5 -0.00683898177491285 -0.0007742542525984182
5.936761429274088e-6 -0.006832759280012153 -7.096880780296076e-6
7.26999355880726e-5 -0.006837201785002686 0.0007673999438119122
0.00013871523468236336 -0.006857978914712278 0.0015317483223151022
0.00020881281351205596 -0.006892310921983827 0.002308630934956443
0.0002752628593772475 -0.006940527621813081 0.0030936241312276695
-0.000271314176981718 -0.006157553609410885 -0.0029398684106233443
-0.00019980486476305564 -0.006104112257026801 -0.0021946732908733387
-0.00013015493465906542 -0.00606638563157607 -0.0014577641451132644
-6.413447188875989e-5 -0.006045542448394814 -0.0007310039390788399
1.0894321687994316e-5 -0.006036411706977082 -3.961539303396286e-6
7.628772471628816e-5 -0.006043863663134486 0.0007245151633837142
0.00014493652155240944 -0.006065862537949 0.0014476022492924733
0.0002126670830736935 -0.0061019017881722626 0.002185885430322451
0.000281975350086652 -0.006150034706920651 0.0029303406416624532
-0.00027456877145466457 -0.005403136645428282 -0.0027663250971958846
-0.00020395429692329076 -0.005351712262233636 -0.002064664148356921
-0.00013399119779675787 -0.0053163048696476525 -0.0013723711430867634
-6.360609921158094e-5 -0.0052938435622837225 -0.000687532402498548
7.440349284822356e-6 -0.005284825499072569 -3.4494319087794e-6
8.364382877135594e-5 -0.005293487645848076 0.0006822643206496169
0.0001529831247516358 -0.005315107239711937 0.0013663676209811843
0.00022185425281611131 -0.005352657212489119 0.002059172612978254
0.0002916334699797331 -0.005403225091516869 0.0027625676133692097
-0.0002839744894320703 -0.004698057338320965 -0.0025966564934006148
-0.00021075317462949142 -0.004644034180455268 -0.001935248305685055
-0.00013887241799351196 -0.0046064068500635234 -0.0012844554352196022
-6.444170054909518e-5 -0.004584904652588104 -0.0006446937796497018
6.479806967454348e-6 -0.004577401497958746 -3.6446900051309725e-8
7.740913536946182e-5 -0.004584348358853976 0.0006393595821783341
0.00015408295510193197 -0.00460554096885148 0.0012831125767931541
0.00022725074946360928 -0.00464364535362585 0.0019313033505162134
0.0002991987848405959 -0.00469638820267701 0.002590344326931851
-0.0002915620655549111 -0.004034176299622615 -0.002416778933222696
-0.0002192599318048315 -0.00398166716653504 -0.0018024869020826497
-0.00014388277852790787 -0.00393981511612744 -0.0011966023157951905
-6.90822794732473e-5 -0.003918602393861884 -0.0006028397457164465
4.903867309446539e-6 -0.00391275824885242 -3.903036983360132e-6
8.064134461541966e-5 -0.003920291282541144 0.0005949193858005227
0.00015781125420806475 -0.003944487086256817 0.001192960689889208
0.00023018526939335291 -0.003981997725628057 0.0017986463931182767
0.00030496327294855005 -0.0040347122797881 0.00241281499025495
-0.0003018856000188452 -0.003419183828211494 -0.002234909447896933
-0.00022662501439120225 -0.0033634484645791844 -0.0016651784496702472
-0.00015116458793374844 -0.003323412157871971 -0.0011066279341161616
-7.659222765794836e-5 -0.003300872050515189 -0.0005528279070447043
9.870550525209992e-6 -0.003292660007040887 -3.527917805098795e-6
8.41720227793511e-5 -0.003298112114132901 0.0005526422544077693
0.00015898640229895764 -0.003322705927114948 0.001105356077668114
0.00023705897118143178 -0.003363657225557966 0.0016627917087278527
0.00031230215638444265 -0.003418141558147296 0.0022312406790431128
-0.0003100070269388888 -0.0028484459444214527 -0.0020480004804203675
-0.00023449178946859374 -0.0027917699361359573 -0.0015257971345406906
-0.00015442219995714734 -0.0027528623934516623 -0.0010133327341563664
-7.498867127041639e-5 -0.0027283980572175223 -0.0005102665204717735
2.464430367063665e-6 -0.0027156945899678145 1.2774567548519767e-6
8.586056348359921e-5 -0.002727079614722134 0.0005014617224037927
0.00016193832961488563 -0.0027526566648860052 0.001008345422930595
0.0002416140375810264 -0.002794098598953794 0.001521736619518652
0.0003197028046983603 -0.0028496808549823343 0.0020438532204206383
-0.00031756397032393636 -0.002326711594431975 -0.0018585231234705618
-0.00023906006070713924 -0.002269915309899588 -0.0013848356452917914
-0.00015840422501542593 -0.0022271245557610236 -0.0009186405002403244
-7.607679608899866e-5 -0.0022022510008958304 -0.00046118930727338483
9.75860872873926e-7 -0.0021957200720310655 -4.564730778839815e-6
9.313410867961479e-5 -0.002203441600356256 0.00045483612429291387
0.00016970333997462668 -0.0022270706881790735 0.0009130823602724047
0.0002473900227054041 -0.0022678356057788595 0.0013789408949811204
0.0003280629669358345 -0.002326621780659546 0.0018525705658682333
-0.0003239790605883339 -0.0018546866243122054 -0.0016663597447744742
-0.0002429355136184709 -0.001794274301770006 -0.0012406503723489811
-0.0001611295796650846 -0.0017537166422280745 -0.0008258863908830726
-8.104482195007162e-5 -0.001729414396686854 -0.00041641397621351814
1.0632658787515026e-5 -0.001722620033628431 -6.004572281554263e-6
8.985626075630183e-5 -0.0017283375131807721 0.0004142504216327413
0.00017071374467498337 -0.0017530995547750563 0.0008194253697780236
0.00025316773593700664 -0.0017946845657154896 0.0012316010985861789
0.000335478956905008 -0.0018535241107569991 0.0016574366352525105
-0.00032773327904501857 -0.001437249640268865 -0.0014646900358999695
-0.0002452177595675705 -0.0013742558109761916 -0.0010927196371749988
-0.0001649526926301957 -0.0013266640708736504 -0.0007237622880763699
-8.258426856207333e-5 -0.0013007575983461494 -0.00036399502424076834
8.325691955458558e-6 -0.0012908761959385233 -2.7934730963599033e-6
9.11193739421978e-5 -0.0013018819936624474 0.0003609031528179918
0.00017277733442730474 -0.0013277350520700623 0.0007185376795587927
0.0002573766737889261 -0.0013724565150860732 0.0010838655688976567
0.00034037505890766165 -0.0014307376496561265 0.001460719308970426
-0.0003323535141784232 -0.0010684691368859276 -0.0012605612468027676
-0.000251036030493831 -0.0010041521859128263 -0.0009383030271636495
-0.00017027484137278326 -0.0009595687210028244 -0.0006228922312310999
-8.310690716605643e-5 -0.0009294678465074153 -0.0003140879064982612
4.851648403064526e-6 -0.0009198481052560712 -2.127240804212462e-6
8.723207910728087e-5 -0.0009289879004445535 0.000311330171100368
0.00017288622195298182 -0.0009565578190490095 0.0006158663928714219
0.00025882263971161877 -0.0010010136545623956 0.0009351648749718758
0.0003418651584404848 -0.0010625680295817746 0.0012609048979611262
-0.0003332879523109505 -0.0007534919029501312 -0.0010625751555356608
-0.00025213834607920653 -0.0006890845553336854 -0.000787792572734434
-0.00016992476762756994 -0.0006426091639367985 -0.0005233954191474749
-8.267582202481617e-5 -0.000612937057373873 -0.00026094406243395193
2.7678448123172515e-6 -0.0006022456957351937 -2.707287497578771e-7
8.84025168755524e-5 -0.0006102334164749081 0.00025711898623058426
0.00017426333353547942 -0.000638111149778094 0.0005149322764244759
0.0002599829764211136 -0.000684400732170964 0.000784464482290649
0.00034153975159160793 -0.0007479740341698261 0.0010582161222446962
-0.0003278721385816777 -0.000495587156485567 -0.0008618479406364909
-0.00024913753228963264 -0.0004305270962173265 -0.0006369150805155683
-0.0001643846056346455 -0.0003808389762169791 -0.00041971770386629625
-7.718282770711816e-5 -0.00034984597589243137 -0.0002052796223228453
4.1157065171847346e-6 -0.0003424817261099225 1.157762341054326e-6
8.249176643072113e-5 -0.00035163667805027934 0.00020531427533083583
0.00016964072105556656 -0.00038033405747845783 0.0004134779509479044
0.00025375995518342416 -0.00042583224789790924 0.000632196678959038
0.0003323901525983734 -0.0004891046671802347 0.0008554185695806213
-0.00030606004311422273 -0.0002960729216379293 -0.0006586519886470907
-0.00023121473837423826 -0.00022796942349261726 -0.0004790048736995908
-0.00015458934449622634 -0.0001799195034149527 -0.0003127889599832702
-7.23685825781714e-5 -0.00015316430683158896 -0.00014821002990653132
-2.1834616874263303e-6 -0.00014447258325278326 -1.6383914104363126e-6
7.7681738802353e-5 -0.00015187947579081557 0.00014916850341176234
0.00015971964091111596 -0.00018043805832982247 0.00030859219872122334
0.0002388949411872206 -0.0002228127654015889 0.0004802187089851507
0.0003110642504138092 -0.0002868833344873827 0.0006503065765938214
-0.00027562262635108433 -0.00015343448210232522 -0.0004560984591849492
-0.00020588439578860633 -8.751913854801456e-5 -0.0003310217668093479
-0.0001434946108961389 -4.17108678154621e-5 -0.0002156888939477595
-7.151533765512757e-5 -1.823080198609241e-5 -0.000103949061358976
-3.347039445227275e-6 -9.216744120162225e-6 -3.695228690552569e-6
6.806338982099554e-5 -1.7753563914693334e-5 9.76255838536853e-5
0.00014494370306322352 -4.058241464595952e-5 0.0002065157532972225
0.00021189921643351275 -8.118930091566643e-5 0.00032782681980357304
0.0002711908810577723 -0.0001420016843654198 0.00044651029771438435
-0.0002018544153159035 -6.389928963568315e-5 -0.00023913008522103926
-0.00015595554342410622 -4.0137213491039365e-6 -0.00017191384007663732
-0.00010804304662982202 2.441971270638685e-5 -0.00011832195783453771
-5.756063160717932e-5 4.1165212296542206e-5 -5.77249969125859e-5
-3.284820802256943e-6 4.622724524943219e-5 -5.274459742850464e-6
5.331812275333984e-5 4.287342355494435e-5 5.2294866210741885e-5
9.660820236715333e-5 2.4349264535685488e-5 0.00010226620712442022
0.00015052155057663493 1.1727319915935697e-6 0.00017258130771108274
0.00020196688853876707 -4.531627448091207e-5 0.0002350603795059551
-4.049761183104326e-6 -0.04854723123103408 0.007340587355320178
-4.708453286165256e-6 -0.048543535343136546 0.007342214933407105
-4.851805571920715e-6 -0.048540949492359035 0.00734212351441661
-5.686493300261282e-6 -0.04853845051749032 0.007343369447970323
-6.774515673353264e-6 -0.048536292822122386 0.0073433861334226925
-7.41973367705796e-6 -0.04853412980571551 0.007343780338851014
-7.785422083709747e-6 -0.04853244020435252 0.007343032568579901
-7.631573866141791e-6 -0.0485313587482773 0.007342985422439762
-7.789497421212297e-6 -0.04852977977542206 0.007341524599731937
6.309154364638358e-6 -0.04704708024245301 0.007325083475494208
2.905592514518978e-6 -0.047046702129424856 0.007328052797373049
-2.8762667198940435e-7 -0.04704565452910236 0.007326615427131963
-3.141942515309579e-6 -0.04704400104499958 0.007329472338517711
-6.320863405330139e-6 -0.04704192419558024 0.00732916928322566
-9.17625780905972e-6 -0.047039717161804474 0.007329531165980326
-1.1844798296908158e-5 -0.04703698706471013 0.00732863146630219
-1.4156976017544417e-5 -0.04703487668425813 0.007329483664331884
-1.8073457320379504e-5 -0.04703084038998036 0.007328029467067499
1.5440366546364775e-5 -0.045556069335896246 0.007307439077738853
9.481926800581404e-6 -0.0455568015388302 0.007308932445693374
4.549992033813511e-6 -0.04555708979094556 0.007310692914336641
-9.177468427010778e-7 -0.04555668074884236 0.007310163988694915
-5.862506096922478e-6 -0.04555484388949046 0.007311721102814481
-1.0677118114080534e-5 -0.04555247837654696 0.007312261269960952
-1.5405474730276576e-5 -0.04554950283601738 0.007311589488738108
-2.159102951929274e-5 -0.04554480589470667 0.00731156685852252
-2.7022626588137993e-5 -0.04553944370121987 0.007309761035577206
2.4550769744603734e-5 -0.04407002145943024 0.007284769846665476
1.6827757128603502e-5 -0.04407329422942813 0.007287237992225197
9.315427595535617e-6 -0.044074933939972784 0.007288550663194311
1.302266384221899e-6 -0.0440750871967852 0.0072882215443061775
-5.602474991374232e-6 -0.044072772647191914 0.007289100329525446
-1.2811990908705387e-5 -0.04406994705996391 0.00728988780829253
-1.9975433027208835e-5 -0.044065652186590455 0.007290180729194282
-2.800558648447343e-5 -0.0440602564962307 0.0072889713421203685
-3.598735007455719e-5 -0.04405291242896305 0.007286656952921119
3.33884658008776e-5 -0.04258947118139648 0.007257239583090736
2.362223818667187e-5 -0.042594346338934365 0.007259720851761239
1.4047971565800718e-5 -0.042596817670141236 0.0072610355878303225
4.7998859679780825e-6 -0.0425980622360923 0.007261040213720992
-5.415408577848395e-6 -0.04259730092171964 0.0072618570299216355
-1.4606147197422485e-5 -0.042593849666336274 0.00726189485576237
-2.4473931377810987e-5 -0.04258897787636214 0.007261833394791857
-3.4521588230101825e-5 -0.04258149623198731 0.007260759332430475
-4.4207543078714214e-5 -0.04257248500887094 0.007258824017789988
4.18791252919015e-5 -0.041115561600507784 0.0072242279353602005
2.9966424233936003e-5 -0.04112199511523267 0.007226905205534708
1.79514483478122e-5 -0.04112550115091597 0.00722836091486036
6.223331605978335e-6 -0.0411263678238911 0.007228907990380017
-5.203002318976919e-6 -0.04112612239918373 0.007228859882465085
-1.644562696061626e-5 -0.041122052327931584 0.00723014304741179
-2.825275058271953e-5 -0.04111737248037884 0.007229306638995805
-4.017264684743621e-5 -0.04110894870351518 0.007227845653661289
-5.189967232380398e-5 -0.041098685904646146 0.00722569706788441
5.022613549970736e-5 -0.039648897458023566 0.007185285617572477
3.633151979301869e-5 -0.03965715185635617 0.007187926959203696
2.2026508819035186e-5 -0.039661432938834826 0.007189354050182987
8.75256289381931e-6 -0.03966233332343584 0.007190336486171114
-4.438475100740901e-6 -0.03966180619663752 0.007190922899868788
-1.8300353199592147e-5 -0.03965864421725719 0.0071910361782917395
-3.193512676422185e-5 -0.03965295914622975 0.007190720588607399
-4.5712799859434165e-5 -0.03964400323395862 0.007189207477388043
-5.973721537623342e-5 -0.03963272733828182 0.00718689096821151
5.8552266386775544e-5 -0.038190561178077974 0.007140692301605868
4.2682336118943776e-5 -0.03819918567175778 0.007143508199311036
2.7010018647605528e-5 -0.03820497863479001 0.007145376332084897
1.1530699010740976e-5 -0.038207195200862756 0.007146472540248746
-4.385143532567734e-6 -0.038206948415008414 0.007146069950757626
-2.0148092729410767e-5 -0.03820301284745114 0.007146135297316882
-3.601633390384969e-5 -0.038196219323319805 0.007146115187374245
-5.152942115634292e-5 -0.03818649147181987 0.0071447923481620474
-6.719269010366328e-5 -0.03817404956268918 0.007142723856787538
6.65554109388185e-5 -0.03674130821719978 0.00709078118167801
4.870980319964359e-5 -0.03675122323245786 0.0070933135808052
3.1305529300909566e-5 -0.036757735201166104 0.007094888343163555
1.3919238384811714e-5 -0.036759906394313806 0.007095137970202497
-3.342125867763311e-6 -0.03676149759613853 0.007095252335788922
-2.1770994560160312e-5 -0.03675750431415416 0.0070947734805690615
-3.958985116486008e-5 -0.03675024820273175 0.007095002529187914
-5.712160951648597e-5 -0.036738867997879794 0.007094190877933453
-7.470121559067739e-5 -0.03672510021880969 0.0070918589594749
7.438644038676254e-5 -0.035302496865876054 0.0070340473366576435
5.529724558911671e-5 -0.03531417368706949 0.0070369118638779335
3.573335791394734e-5 -0.03532215257560329 0.007038172066973418
1.6188516331095722e-5 -0.03532610195200193 0.0070389730695609234
-4.00907175680828e-6 -0.03532607743155148 0.0070381678406548276
-2.357875374196313e-5 -0.035321425565685474 0.0070387347388062346
-4.3012145557114356e-5 -0.035315110214749666 0.007038606127076805
-6.295811838004362e-5 -0.035302987076353154 0.0070378773532352185
-8.283290834126156e-5 -0.03528718027455417 0.0070360186120093995
8.274637581997132e-5 -0.03387677839447511 0.0069721757570861825
6.10534638554647e-5 -0.03388985650280245 0.006975073658908517
3.952777099352838e-5 -0.033898445372718584 0.006976655493183569
1.8426617874818847e-5 -0.0339026135383634 0.00697657335947661
-3.84343250516797e-6 -0.033903844819616155 0.006974408612734912
-2.565454102443311e-5 -0.03389892598679308 0.00697602785772157
-4.744935092023058e-5 -0.033890573499446526 0.006976656314647815
-6.905948530597462e-5 -0.033877353712531345 0.00697569068226408
-9.049448074357711e-5 -0.033859858078921404 0.006973531809789956
9.150211140199695e-5 -0.03246348679789704 0.006903784751439377
6.779470064582923e-5 -0.0324778996391903 0.006906780915619833
4.41091484040255e-5 -0.03248840035903469 0.006908112436039794
1.9840307411638798e-5 -0.03249295692082559 0.006908283700726366
-3.0044702025212047e-6 -0.032492838767319544 0.006904976406216297
-2.648956936561312e-5 -0.032488667538537276 0.006908242262820923
-5.039095555197586e-5 -0.032479886328659516 0.006908217915784735
-7.431031597983926e-5 -0.03246571764276544 0.006907120381572709
-9.781704852861521e-5 -0.0324467371790249 0.0069052726309338916
9.956419802547052e-5 -0.03106429592751033 0.006830275825865753
7.359008664361242e-5 -0.031079941912418002 0.00683327162488153
4.806360574549013e-5 -0.031090115055183262 0.006835450357307512
2.252028519324711e-5 -0.031094766345241477 0.006835906840365399
-3.2130992039127762e-6 -0.03109547562633809 0.006832301636189872
-2.8382431674949306e-5 -0.031091746218169798 0.006834497441517235
-5.42414995864242e-5 -0.031081908877580392 0.006834060551341004
-7.962034782915862e-5 -0.031067038915855997 0.006832828618516855
-0.00010493403535973999 -0.031047303378956285 0.006831040855929526
0.00010749132892685909 -0.029679767861077528 0.006750187444718344
7.969876628471726e-5 -0.02969693945477031 0.006753189828071514
5.1874357267743335e-5 -0.02970866904163061 0.006754347960039749
2.386715349554387e-5 -0.0297133847278313 0.00675272138925417
-2.342775235916021e-6 -0.02971492722399047 0.006752909890665015
-3.0185832907210704e-5 -0.029710915039607412 0.006754908915534893
-5.77574201978324e-5 -0.029700155051208318 0.006754241430843552
-8.495983899387855e-5 -0.029684661212146843 0.006753025468678222
-0.00011214010456778234 -0.029663727105297414 0.006751126104144181
0.00011561030341238244 -0.028312168530277043 0.006664314390618569
8.596792956250215e-5 -0.02832994683602634 0.0066673015392021825
5.689650943330429e-5 -0.028342961133126152 0.00666861179033245
2.7984864847783322e-5 -0.028351227218229035 0.006669344476846367
-3.1117952062564724e-6 -0.028351075427173588 0.0066683462969454165
-3.2207097100935696e-5 -0.028346897034055428 0.006668549641794417
-6.164417791119972e-5 -0.028335630905065124 0.00666757700073114
-9.047791978679354e-5 -0.028319577069105813 0.006667055158832336
-0.00012000694308484736 -0.02829785331973119 0.006665020644990319
0.000123625289503178 -0.026961898079526304 0.006572920555185533
9.205634965870176e-5 -0.02698136836587011 0.006575477682402876
6.147769158480457e-5 -0.0269955894212364 0.0065771288440837905
3.024915581371942e-5 -0.02700383263153239 0.006576929849706468
-7.657965879078285e-7 -0.027004755263994457 0.006576969826942224
-3.3869567781882854e-5 -0.02699971127479932 0.006576387224393428
-6.469433705079202e-5 -0.02698844735547359 0.006577097259839399
-9.623043473126922e-5 -0.026972166807716476 0.006575904779927978
-0.00012765877901680522 -0.02694882315988333 0.0065740317173293246
0.0001318405092588995 -0.025630826753233218 0.006474382887433894
9.86635290755028e-5 -0.025652681768778034 0.0064768252862396495
6.569556844841167e-5 -0.02566873479458504 0.006478194061957895
3.312080125793821e-5 -0.02567676469396337 0.006479914803148048
-1.4466082942937168e-6 -0.02567554478304293 0.0064764804947350305
-3.339344972949861e-5 -0.025671629619903148 0.006477335576510801
-6.773092567631551e-5 -0.02566135487122566 0.006477958008026372
-0.00010082115119765295 -0.0256432579267722 0.006477728238174073
-0.00013404677774335902 -0.025618906924393395 0.006474963359405386
0.0001397235457325561 -0.024320768557238234 0.0063707111797862296
0.00010435473442033393 -0.0243435384951197 0.0063735376309716355
6.919487467607132e-5 -0.024359277034125285 0.006375606822329713
3.3328666315976315e-5 -0.02436790533008237 0.006377696027495564
-2.7591131627918226e-6 -0.02437025293342453 0.006375595513979785
-3.7330455857185885e-5 -0.024364985896372156 0.006373314497709879
-7.240967039259759e-5 -0.024353901932852827 0.006374495666379891
-0.00010795997033477584 -0.02433528499284464 0.006373739735395327
-0.00014239318755953669 -0.024307432186524265 0.006373033556228185
0.0001479777511676771 -0.023032047950622466 0.006261260434255404
0.00011087826097001433 -0.02305659258158018 0.006263869594235248
7.373198239430378e-5 -0.023073117370894246 0.0062645721598187905
3.637861105713107e-5 -0.02308278874322121 0.006265422418350645
-8.738954325832972e-7 -0.023085913984052683 0.006266269507416579
-4.0313644737210206e-5 -0.02307784469464297 0.0062646928069118556
-7.766254705868205e-5 -0.023065620668902824 0.0062639072863328975
-0.00011462638143512397 -0.023045049187681434 0.006262886012426418
-0.00015149318599634362 -0.023016023038526536 0.006260720218938009
0.0001557498324766261 -0.021766511311836566 0.006145464989243963
0.00011626212028846392 -0.021792339919166882 0.006148827859958609
7.686381678934914e-5 -0.021809932434001682 0.006149444070308468
3.7924915587207537e-5 -0.02181953699336367 0.00615037151702859
-2.1953219734842069e-7 -0.02182110910854528 0.006150294981193701
-4.273031575845069e-5 -0.021819180377084937 0.006148529075521553
-8.208399193144876e-5 -0.021803463429167277 0.006148296825902298
-0.00012033278926284078 -0.0217799528983332 0.006147022998520023
-0.00015891181283298627 -0.021750051134500223 0.00614538535764533
0.00016428277627323162 -0.020523620567134058 0.006024250030032001
0.00012255741540776727 -0.02054974309045136 0.006027561629413797
8.07989401381435e-5 -0.020568675667997315 0.006028730212318922
3.922470446067443e-5 -0.020579045241470046 0.006027956017187532
-2.028309068060579e-6 -0.020581759461578364 0.006027564943106082
-4.231695809190385e-5 -0.02057511666519417 0.006026548083169362
-8.361667321944777e-5 -0.020562304168237185 0.0060285555003693585
-0.00012464435981147319 -0.02053959402245459 0.006026804773081541
-0.0001662392100309254 -0.02050871582917903 0.00602398853244244
0.00017251798618940319 -0.01930607114377995 0.005896917688943168
0.00012860578743880525 -0.019333527884025706 0.005899121840853955
8.564252223318457e-5 -0.01935274749355326 0.005900293483703793
4.2321156908287047e-5 -0.019363368157790724 0.005899115895811063
-1.3000989537654984e-6 -0.01936709854807645 0.005897644038981183
-4.432449857695514e-5 -0.019362081496807612 0.005899556559630655
-8.805576499934004e-5 -0.019347385691127105 0.005901272804657752
-0.00013101777207127636 -0.019323099865322654 0.005899206644817922
-0.00017336198346744176 -0.019290526837843946 0.005896348689952666
0.00018024073233315895 -0.018114434160001885 0.005763175202933408
0.00013480886001085242 -0.018144778293186208 0.005765738751275944
8.912205820846541e-5 -0.01816457624984521 0.005767252280012935
4.423021141057774e-5 -0.018175138713122378 0.00576582531473786
-1.6560166691056205e-6 -0.01817922415249789 0.005761785708062028
-4.603512321081566e-5 -0.01817137760990773 0.005764655308753405
-9.077712359761884e-5 -0.018156235497123887 0.005766436586142675
-0.00013617289898265348 -0.018133193848455055 0.005764575701768906
-0.0001810181004470159 -0.01810092118659993 0.005762319135977608
0.00018775214573036117 -0.016950036138807384 0.005623618669284498
0.00014042167212595757 -0.01698096807037294 0.005626034614948631
9.359321832767827e-5 -0.0170033813223089 0.005627415363785895
4.5916254733068e-5 -0.017012729943589176 0.005624852704419611
8.860347252144811e-7 -0.01701486078426703 0.005628632766936459
-4.7012543408665576e-5 -0.017009353572117577 0.005626088687926814
-9.440790868756491e-5 -0.016994758261517997 0.005626690450484511
-0.00014179700855112797 -0.016970487649880336 0.005625831478074002
-0.00018836095473638884 -0.016936500400960904 0.005624243096579859
0.00019571428416093474 -0.015813757202321584 0.00547858241686154
0.0001465876354830792 -0.015846681222761737 0.005480452473086442
9.806594415624466e-5 -0.015869364820743134 0.005483272726155908
5.149748324660065e-5 -0.015884228089779705 0.005483772464835834
5.401291005786809e-7 -0.015890813955361006 0.00547954240748831
-5.215948674081866e-5 -0.01588311381920036 0.005477063872994855
-9.887901931650595e-5 -0.015862200942958964 0.005479986282781944
-0.0001477782668778371 -0.015836022786806417 0.005479291627745255
-0.00019614655399620515 -0.01580127334571538 0.005477760401094303
0.00020286640950729367 -0.014707204496362312 0.0053272011271717455
0.00015146020911030317 -0.014740292795995352 0.005329765788379647
0.00010088528195634248 -0.01476230059804237 0.005332028750676303
4.975941668078788e-5 -0.014776351361085361 0.005331422233433379
-2.0631427057278304e-6 -0.014781100567325744 0.005326211524151586
-4.933453578280468e-5 -0.014774776256748093 0.005331924665729049
-0.00010118855034397197 -0.014759018147714832 0.005329467960131351
-0.0001533391553736251 -0.014731671462540933 0.00532888947516685
-0.00020324354439545933 -0.014694367206630492 0.005328457114636299
0.00021217844230374058 -0.013632803262327985 0.0051697381824907206
0.00015813957481260212 -0.013668637039799024 0.005172582603782576
0.00010433465439139061 -0.013691689939885017 0.0051745495928593975
5.039505977072126e-5 -0.01370488876991924 0.005174198945741728
-6.604835293778036e-7 -0.013706681553566706 0.00517392954715197
-5.3131087654141205e-5 -0.013699559517460288 0.005172817699935896
-0.00010502123198643146 -0.013682874090441749 0.005171635173719041
-0.00015840361020638376 -0.013654971205877832 0.005170726250501299
-0.00020989998366432788 -0.013617317601837932 0.005170099264438452
0.00022103360739025887 -0.01258838958364782 0.005008214785967201
0.00016519327265590076 -0.012626077106366698 0.005011013907513152
0.0001089620894448265 -0.012650576202323176 0.0050120439778273814
5.3656091899302874e-5 -0.012664905630718261 0.005013138005214699
-8.118261127579102e-7 -0.01266739557169793 0.005012877266215984
-5.504945736799234e-5 -0.012662205902424973 0.0050102551858171645
-0.0001092587444146221 -0.012644463110330635 0.005008920369098139
-0.0001649731326423927 -0.01261724415861902 0.0050061341761136555
-0.00021987790226580666 -0.012577142935352037 0.005005438654572381
0.00022809391674939763 -0.01157515700548115 0.004838654900648798
0.00017189254648687443 -0.011613306506719111 0.00484153435505534
0.00011553648826271201 -0.01164074268155325 0.004842375559246284
5.77474238774425e-5 -0.011655756030720915 0.004841617790910407
1.3647373109901013e-6 -0.011657372334130573 0.004844596568877486
-5.500291946017265e-5 -0.01165437080332563 0.0048409251427736135
-0.00011319479841074015 -0.011638045900127606 0.00484037082181663
-0.0001701573900900965 -0.011609806504781578 0.004839733953323487
-0.0002268556510854949 -0.011567857025622156 0.00483887239631196
0.00023681041877651203 -0.01060020976149022 0.004663482368753553
0.00017826139096746408 -0.010640470687363431 0.004666424182360678
0.00011996038887908845 -0.010668468049028781 0.004665789503127882
6.107948070165115e-5 -0.010685686872432145 0.00466565067214857
3.534370744596853e-6 -0.010691714421237283 0.004670808163486362
-5.76725974956623e-5 -0.010683981744396063 0.0046638811959089175
-0.00011763516214349991 -0.010663262201074813 0.004664169056147532
-0.00017572308307544078 -0.010632830934678239 0.004663971890915503
-0.00023312712888039303 -0.010591505349049393 0.004663224119577376
0.0002455882560859319 -0.00966015288336154 0.0044830254406431486
0.0001851344577941068 -0.009702036552524926 0.004486473772409537
0.000124509630723608 -0.009731905796121177 0.004487629197326297
6.34101059437698e-5 -0.009748330544360967 0.004485944517185103
4.341056644002873e-6 -0.009748190141759434 0.004496759037621804
-6.106713124346507e-5 -0.009744292124340092 0.0044803288447639025
-0.00012014387933591706 -0.009726126572259226 0.00448485818790077
-0.00017962950714529578 -0.009695307475112755 0.004487171919260581
-0.00024135432758534185 -0.009653405283155947 0.00448493827873195
0.00025496036262949196 -0.00875729798504849 0.0042975617906594755
0.00019145188882476507 -0.008801259732813968 0.004300477905985888
0.0001281334016514527 -0.00883062074512495 0.004302678066052113
6.5499713359279e-5 -0.00884717547056268 0.004304819786830518
6.997976157175291e-7 -0.008849904023899874 0.004296934322064874
-6.200576547274055e-5 -0.008845304081850072 0.004298597399212369
-0.00012351773046129385 -0.008822814249155556 0.004299280503974478
-0.00018570963137965542 -0.008791360879207028 0.004299860664905321
-0.0002484014757016377 -0.00874641392095518 0.004298072452516983
0.0002629737961026873 -0.007889919173622598 0.004104841561043883
0.0001978809388068007 -0.007934633779825152 0.0041086774836603555
0.00013294352566088687 -0.007965263898115218 0.00410917904637054
6.835916024787735e-5 -0.007984689845043056 0.004109818457224716
2.753328598464626e-6 -0.007991711275791439 0.004105948834771452
-6.414483836357432e-5 -0.00798010826775134 0.004101704740493724
-0.00012781677836354148 -0.007958285871769432 0.004103967231791385
-0.00019309826311949814 -0.00792675598207419 0.00410453340330327
-0.0002577183225436325 -0.007879148714577247 0.004102451093183301
0.0002704104486650223 -0.0070620840021802765 0.0039048697429440097
0.00020444301580401959 -0.007107060205911496 0.003908863699066336
0.00013900770042472185 -0.007140495829359768 0.003909606094566307
7.264445184742495e-5 -0.007162118716003975 0.00390816496061925
3.496683415645693e-6 -0.007173435648908012 0.0039043863078273484
-6.684804938208724e-5 -0.007163620326992386 0.003901896540799087
-0.00013216414009209877 -0.007139246787333849 0.003906448971995857
-0.0001992141055995349 -0.007105079298317301 0.003906293459471413
-0.00026603618169688414 -0.00705561162027487 0.0039039565668780004
0.00027844047453804045 -0.006273948507680193 0.003700439529671447
0.00021129115640980482 -0.006322538560996203 0.0037022271688880374
0.0001414325090546107 -0.006357459670245378 0.003704797377688479
7.313674667178026e-5 -0.006377626856856603 0.0037023113902556275
3.184583346357979e-6 -0.006387312636614328 0.0037028736744224165
-6.567761369327842e-5 -0.006375960984177662 0.0037011135428702477
-0.0001348202766974101 -0.006354228663494492 0.003700613778595714
-0.00020377299951525107 -0.0063185654532023 0.0037007792890624306
-0.0002721326419737741 -0.006268805272269264 0.003698449890668838
0.0002875849852037614 -0.005531484764561086 0.0034898076645641543
0.00021724578898503784 -0.0055816644891957265 0.003492554782508743
0.00014404681315832545 -0.005615406591342106 0.0034938904299390183
7.496089379221331e-5 -0.005633936067665177 0.003493152165933938
3.1187404105981774e-6 -0.005640983417082449 0.0034912687420751557
-6.725544858318413e-5 -0.005632869829055397 0.0034936972009327856
-0.00013850002451351243 -0.005612865926718398 0.0034922651470836496
-0.00020978981016626336 -0.0055771570751637686 0.003490070046157174
-0.00028033086906234414 -0.005526024944144542 0.0034873515967440032
0.00029475469093536745 -0.004829660897872566 0.003275262085994812
0.0002215594603825482 -0.004879332985617268 0.003277004580850458
0.00014931521039328316 -0.004913271550824269 0.003277876465874301
7.835678674480069e-5 -0.004932896111310118 0.003278425746660257
4.367075995816266e-6 -0.0049413361762644025 0.0032744641694125933
-6.959583658713217e-5 -0.0049349400258397675 0.0032758674009501234
-0.0001429114251054713 -0.004915414085366244 0.00327508744861021
-0.00021571735681815037 -0.004878686952724111 0.0032737493761871247
-0.0002886817422084317 -0.004826483122884106 0.0032714682617575345
0.0003007156305616357 -0.0041689715106735005 0.003052037434335467
0.00022743854421269647 -0.004220365153027632 0.003054796992927325
0.00015440410364042921 -0.004257496402737158 0.0030568893829323366
8.082145972233414e-5 -0.004278714025105303 0.003057284071301225
4.242534901549126e-6 -0.004285307161630547 0.003051866153354314
-7.137659688671158e-5 -0.00427855332586483 0.003053064231663696
-0.00014511206772967278 -0.0042568120370809264 0.0030537682074397118
-0.00022058800910240245 -0.0042218655284117475 0.003050993529933001
-0.0002957222574476891 -0.004168983145707968 0.003048987687232794
0.00030809730447004023 -0.0035571770979828375 0.002823373456513886
0.00023317645496350158 -0.0036099273399057426 0.0028270425930009887
0.00015823380966143794 -0.003648962712575196 0.002827513727828013
8.071917441275579e-5 -0.0036701671739181865 0.00282486561978342
6.404661884439551e-7 -0.003678867222719425 0.002816147996867008
-7.422907391000592e-5 -0.0036680654064134444 0.0028224591559921183
-0.00014822047283715454 -0.0036466352054076103 0.002824342291121168
-0.0002254664730683722 -0.003610453356986498 0.002822504459432991
-0.0003027093708637757 -0.003558885100404878 0.002820755970023228
0.0003165602777349865 -0.0029930019420360827 0.0025898804034632916
0.000238019473789677 -0.003047201695482427 0.0025930189981582833
0.0001585588267368626 -0.003083618668226103 0.002592053322286433
8.094070813140102e-5 -0.003103676990292884 0.002590461074826717
4.374152430187903e-6 -0.003111090335497799 0.002590724275424942
-7.39986324455801e-5 -0.003105332109256934 0.0025917413650322803
-0.0001531957135473634 -0.0030822627409594363 0.0025896675575063756
-0.0002311811331263496 -0.0030445221396410297 0.0025899720517665644
-0.00030947848019189397 -0.0029923561784981506 0.0025904095624421876
0.0003255775427482341 -0.00247589551377941 0.002352788429569186
0.00024318958003311363 -0.0025309459800935863 0.002353409487251327
0.00016105138626230307 -0.0025676023565678963 0.0023515339653679386
8.190776501539793e-5 -0.0025887430557555596 0.002352292851419306
5.898352835999182e-6 -0.0025985403890754436 0.002357500603632763
-7.735367517041139e-5 -0.002588797033660839 0.0023491806468322273
-0.00015518467469261848 -0.00256570059532318 0.002349276482825053
-0.00023602751465205918 -0.002526882027885932 0.0023510119842177525
-0.0003165781654379899 -0.0024705064537664106 0.002351837950193954
0.0003311232271719611 -0.0020031627866649174 0.0021077312398002906
0.00024782513339680816 -0.002058046091521445 0.0021076717885584162
0.00016566847613355367 -0.0020943829281196914 0.0021030975609998264
8.605965226638394e-5 -0.0021151729339533203 0.002104304673107325
4.728450179944424e-6 -0.0021245311705830406 0.002102057135171124
-7.93797368035529e-5 -0.0021191734986712248 0.0021002494445237214
-0.00016032722226512467 -0.002095755795902754 0.00210067480150764
-0.00024270686747494336 -0.0020565031357896806 0.00210285445654511
-0.00032502403730889397 -0.0019981478053542508 0.002103590052700857
0.0003361752568114424 -0.0015807173033714767 0.001856029761179105
0.00025445255428569857 -0.0016395807069175799 0.0018543897987429844
0.00017196121773892348 -0.0016853876666634556 0.0018524858446717456
8.986440293686786e-5 -0.001708482324408147 0.0018497319204391074
2.57294308332711e-6 -0.0017165767162948375 0.0018385227429964712
-8.070505568822749e-5 -0.0017030578109084944 0.0018465655610726479
-0.0001631814641713708 -0.0016766412632266967 0.0018488963119844646
-0.0002455085540699959 -0.0016379021380424515 0.0018504727848351495
-0.00033031391433984515 -0.0015803073238077076 0.0018512115107407958
0.00033761285491036634 -0.0012170619449710797 0.0015980800644337459
0.00025392095237650056 -0.0012721386629324773 0.0015968538978184234
0.00016985210483064526 -0.00131403807189614 0.0015963746341557318
8.509820011497828e-5 -0.0013341857595444752 0.001593205817234856
4.1744883703764455e-6 -0.0013455593423602526 0.0015859430121312843
-8.022447984880424e-5 -0.0013368452993183875 0.0015861725397896727
-0.00016115209342368471 -0.0013095309386417981 0.0015889171346679582
-0.0002440226099994484 -0.0012705771215632095 0.0015903718568452663
-0.0003293176991801951 -0.001215035671177697 0.0015955356001171237
0.00033866134540581834 -0.0009050206545653548 0.001341898765227159
0.00024661792339979866 -0.0009609093212754256 0.0013323016821727804
0.00016479088112121535 -0.0009982542209568063 0.001330881901314386
8.280257894711006e-5 -0.001017709129383797 0.0013240040956722355
5.571313587961493e-6 -0.0010292701376244148 0.001320379418773417
-7.561525871478271e-5 -0.0010239743881323001 0.0013231468358762114
-0.00015468248658588203 -0.000995212519431509 0.0013288830340466935
-0.0002374369616611217 -0.0009591280783324621 0.0013264139270547115
-0.0003246543099618057 -0.0009065618005441012 0.0013357333199699594
0.0003238468003292006 -0.0006420116760998848 0.0010765472034304634
0.0002381421132522287 -0.0006976790682674269 0.0010668693341946418
0.00015722636582546335 -0.000731151077536268 0.001063733400542421
7.922382059436366e-5 -0.0007577403057379313 0.001067823228384906
5.331967497323008e-6 -0.0007661622914471723 0.001064447573053709
-6.881272205984317e-5 -0.0007567548911903318 0.0010667336953049768
-0.00014574078304299478 -0.0007339258957628242 0.0010655381402381629
-0.0002278505039882552 -0.0006990335429497269 0.0010511247151467674
-0.00030797827761376144 -0.0006460117370122093 0.0010716106775551036
0.0002989213199863571 -0.00043511923858942104 0.0008100769629766884
0.00021784542811544794 -0.0004833872539474987 0.0008004690401416416
0.00014408105150152923 -0.0005178134459763711 0.0007950057740149271
7.204962554257518e-5 -0.0005424547858774213 0.0007957000628213977
5.767554532278782e-6 -0.0005468951173607485 0.0007889411077308093
-6.02293891697901e-5 -0.000541055237847533 0.0007983897333431186
-0.00013020804569220649 -0.0005247987984454512 0.000791105283777268
-0.00019823470960518582 -0.0005013794385189921 0.000790285893400069
-0.00027808338478131384 -0.0004504844101723901 0.0008038879055975743
0.000248876560374169 -0.00028651863144513135 0.0005419531787476713
0.00017138324711680073 -0.0003285236620169026 0.0005302710816881581
0.00010974012316248393 -0.000348638973522946 0.000532083990808025
5.1885762672045495e-5 -0.00036765201058889933 0.0005306320097111726
2.566601906135482e-6 -0.0003689445478320596 0.0005372063502484748
-4.8113075947776536e-5 -0.00036711689025549824 0.0005306502352625795
-0.0001009657925012009 -0.0003501941850918516 0.0005285319940342198
-0.00015879275305574948 -0.00032914422676588126 0.0005305878881053411
-0.0002264678630520453 -0.0002995156857223834 0.0005376239595424013
0.00015848121854709614 -0.00017911014608166292 0.0002686974554001802
0.00010356323355790683 -0.00020652048159283733 0.00026902468095916024
6.097034362259422e-5 -0.00021874758071974276 0.0002621389721477265
3.0312090900781006e-5 -0.00022351074649033863 0.00026999478370462747
7.324367875873584e-7 -0.00022352209828875672 0.00027703210465622225
-2.7155309276206963e-5 -0.0002215433391345759 0.00027400941369390354
-5.712356140348815e-5 -0.00021280615170633923 0.0002724028709512991
-9.444198636967981e-5 -0.0001971179691055232 0.0002605646203825202
-0.00013703786609180362 -0.00018387561550909935 0.0002734265582621145
0.0 0.0 0.0
0.0 0.0 0.0
0.0 0.0 0.0
0.0 0.0 0.0
0.0 0.0 0.0
0.0 0.0 0.0
0.0 0.0 0.0
0.0 0.0 0.0
0.0 0.0 0.0
0.0 0.0 0.0
0.0 0.0 0.0
0.0 0.0 0.0
0.0 0.0 0.0
0.0 0.0 0.0
0.0 0.0 0.0
0.0 0.0 0.0
0.0 0.0 0.0
0.0 0.0 0.0
0.0 0.0 0.0
0.0 0.0 0.0
0.0 0.0 0.0
0.0 0.0 0.0
0.0 0.0 0.0
0.0 0.0 0.0
0.0 0.0 0.0
0.0 0.0 0.0
0.0 0.0 0.0
0.0 0.0 0.0
0.0 0.0 0.0
0.0 0.0 0.0
0.0 0.0 0.0
0.0 0.0 0.0
0.0 0.0 0.0
0.0 0.0 0.0
0.0 0.0 0.0
0.0 0.0 0.0
0.0 0.0 0.0
0.0 0.0 0.0
0.0 0.0 0.0
0.0 0.0 0.0
0.0 0.0 0.0
0.0 0.0 0.0
0.0 0.0 0.0
0.0 0.0 0.0
0.0 0.0 0.0
0.0 0.0 0.0
0.0 0.0 0.0
0.0 0.0 0.0
0.0 0.0 0.0
0.0 0.0 0.0
0.0 0.0 0.0
0.0 0.0 0.0
0.0 0.0 0.0
0.0 0.0 0.0
0.0 0.0 0.0
0.0 0.0 0.0
0.0 0.0 0.0
0.0 0.0 0.0
0.0 0.0 0.0
0.0 0.0 0.0
0.0 0.0 0.0
0.0 0.0 0.0
0.0 0.0 0.0
0.0 0.0 0.0
0.0 0.0 0.0
0.0 0.0 0.0
0.0 0.0 0.0
0.0 0.0 0.0
0.0 0.0 0.0
0.0 0.0 0.0
0.0 0.0 0.0
0.0 0.0 0.0
0.0 0.0 0.0
0.0 0.0 0.0
0.0 0.0 0.0
0.0 0.0 0.0
0.0 0.0 0.0
0.0 0.0 0.0
0.0 0.0 0.0
0.0 0.0 0.0
0.0 0.0 0.0
1.7261513247546225e-5 -0.048529680076089335 -0.007340588876278636
1.652572146366815e-5 -0.04853086879189941 -0.007342542319383286
1.593789746920169e-5 -0.048532363757337646 -0.007343121797087572
1.534362565694012e-5 -0.0485338642920309 -0.007343569880649711
1.4603530691566887e-5 -0.048535751470302854 -0.0073435883324986465
1.375509104453036e-5 -0.04853812424482862 -0.0073437463439058
1.3239689635584836e-5 -0.04854063595181711 -0.007344325265095931
1.3359321811588491e-5 -0.04854293159338642 -0.007344930400605615
1.406847034766234e-5 -0.048546807925769576 -0.007344712340684564
2.7784275162495762e-5 -0.0470297732086653 -0.007324281029769399
2.382322249614151e-5 -0.04703415452859315 -0.007328058741036494
2.0672944961392265e-5 -0.047037070362556443 -0.007328836758617172
1.777679006515486e-5 -0.047039427070921756 -0.007329298887394894
1.5002644766220232e-5 -0.04704158135516099 -0.007329442399670159
1.2037693383746485e-5 -0.04704337977660336 -0.0073295752805815455
9.481344757633408e-6 -0.047045034953394 -0.007330260007104404
6.834071743219563e-6 -0.04704663459585825 -0.007330619261016279
4.362775568277121e-6 -0.0470487390214244 -0.007329875382592285
3.755577643084823e-5 -0.04553815922571919 -0.007306794193991023
3.133848571571226e-5 -0.04554420101279151 -0.007310027776545282
2.5949786974533248e-5 -0.04554861874874885 -0.007311261111345972
2.033061827108905e-5 -0.04555235701869196 -0.0073113101266222575
1.5234267205330928e-5 -0.045554284321534105 -0.007311655848754445
1.0628979152625852e-5 -0.045556179002726765 -0.007312389815076013
5.787119712570473e-6 -0.04555778085893985 -0.007312411780106072
8.887299395845624e-7 -0.04555803080251918 -0.007311965070613819
-5.759787837595835e-6 -0.04555649187613833 -0.007309629269570443
4.652466964061656e-5 -0.044052550579440665 -0.007284360565704316
3.821009384594558e-5 -0.044059717698794215 -0.007287306707475347
3.068194935727439e-5 -0.044065029840257175 -0.007288703268528939
2.3482793931388463e-5 -0.04407002754362109 -0.007289554760977933
1.667776872577546e-5 -0.04407327023397807 -0.007289501430140248
8.048667371449522e-6 -0.04407521983994128 -0.007289429246285769
8.745333598082484e-7 -0.04407457585087326 -0.0072900766374900125
-6.372672346430647e-6 -0.04407282988193199 -0.007289844445045946
-1.475933171367274e-5 -0.0440712734891071 -0.007286711221720663
5.518554738762204e-5 -0.04257246825234352 -0.007256874307493339
4.5339103647051405e-5 -0.04258150763745254 -0.007259835035796401
3.54427166394691e-5 -0.0425888749886953 -0.007261164813910329
2.5786453769195166e-5 -0.04259369475617791 -0.007262004712169427
1.5353400697555028e-5 -0.04259713659944951 -0.007261581080701345
6.388859936295575e-6 -0.042597836027491016 -0.007262492747203625
-3.179170291570716e-6 -0.042597029761057385 -0.0072624998456835
-1.2807759837270226e-5 -0.04259456993770749 -0.0072620731903874315
-2.2574367154952892e-5 -0.04259027634874097 -0.007259097369431743
6.354891638371691e-5 -0.041099013314165794 -0.007224295047088024
5.134106099458242e-5 -0.04110957926884311 -0.007226747218369296
3.9478844274588314e-5 -0.041117446407800406 -0.007228456299086055
2.7330032831538114e-5 -0.04112194394708148 -0.0072294751375881075
1.6251944791001108e-5 -0.04112527756960304 -0.007228999054268549
4.388118041084591e-6 -0.041126695250821695 -0.007229794384011017
-7.260380926751872e-6 -0.0411250850125445 -0.007229235470937185
-1.8754314545614477e-5 -0.041121744865613076 -0.007228749290005035
-3.0578018678423565e-5 -0.04111589559404239 -0.007226160521271273
7.15347402615332e-5 -0.0396319286799389 -0.007184821175474555
5.776405016117885e-5 -0.039643251945426276 -0.007188030391202631
4.3873720907776215e-5 -0.039653192760004466 -0.007189359251310413
2.9318659815088362e-5 -0.039658949540306 -0.007190258187307891
1.5991470137922397e-5 -0.03966201429575068 -0.007189684284461856
2.444820692574385e-6 -0.039662517493753005 -0.007190868568099981
-1.089194507188798e-5 -0.039660807967031655 -0.007190248958654576
-2.439064603899902e-5 -0.03965647580433078 -0.007189585287591202
-3.7978617229136374e-5 -0.03964883637330426 -0.007187014962240532
7.918350134053311e-5 -0.038173298410050426 -0.007140147617467373
6.367099272449367e-5 -0.038186602104728753 -0.007143457970852544
4.7850099301766053e-5 -0.038196797654576675 -0.007144775085813994
3.205189841689244e-5 -0.038203189537039633 -0.007145803522978254
1.6349126800053956e-5 -0.03820696299222255 -0.007145513446806825
3.116549063301101e-7 -0.03820748328959221 -0.007146178695896317
-1.4826945326085623e-5 -0.038205666418440976 -0.007146007086552606
-3.0099129362827993e-5 -0.03819960665737625 -0.007144881301867709
-4.571152212930193e-5 -0.038190925088743576 -0.007141384328652042
8.73462756304011e-5 -0.03672478131075723 -0.007089685673369907
6.962298815083224e-5 -0.03673929953971305 -0.007093017996105932
5.151853405369783e-5 -0.036750100774554886 -0.0070943588609747735
3.390867670694488e-5 -0.03675689057984875 -0.0070952553201976635
1.6433943487664684e-5 -0.03676060501006686 -0.0070946657202064535
-9.608532337101258e-7 -0.03676042749689783 -0.00709635004877014
-1.8033165442185818e-5 -0.03675759368573458 -0.007096353791841141
-3.579564730796509e-5 -0.036751971615014575 -0.007094591824641784
-5.324955228540042e-5 -0.03674195677384202 -0.007091809443483199
9.641832890817135e-5 -0.03528720326836544 -0.007033327825799074
7.604114491741223e-5 -0.03530303648492665 -0.007037419278527093
5.581177042424814e-5 -0.03531387581912562 -0.007038489344431384
3.5987462977117994e-5 -0.03532207489722125 -0.007039568089591844
1.6643069124225003e-5 -0.035326023448382315 -0.007039160822717155
-2.867158053808309e-6 -0.03532659380589032 -0.007039948456008591
-2.2844921043526773e-5 -0.035323693521415025 -0.00703945007580253
-4.2200355350103945e-5 -0.03531551554331042 -0.007038491954788435
-6.123246827346898e-5 -0.035303428011417885 -0.007035960862553472
0.00010418344959011609 -0.03385968827987101 -0.006971529666129397
8.221135194747434e-5 -0.03387745656603071 -0.006974686038642623
6.0041204719764764e-5 -0.03389030550028096 -0.00697579684469698
3.837776911404655e-5 -0.03389865129038803 -0.006976103460439747
1.6652097514098097e-5 -0.03390312712707743 -0.006975536514373116
-4.633516699275527e-6 -0.033901939600533705 -0.006977435457238149
-2.6188878927856258e-5 -0.03389790259245963 -0.006977840298652607
-4.762243003069738e-5 -0.033889469263971635 -0.0069769009527748576
-6.929041542309723e-5 -0.0338769571889917 -0.006973868524513095
0.00011195847087066115 -0.03244674807642514 -0.006903880790633703
8.784080441074105e-5 -0.03246551880457621 -0.006906930075787824
6.414222374560503e-5 -0.03247902495657976 -0.006908085822994741
4.076657322421645e-5 -0.032488546675616625 -0.006908879063083714
1.8158005858760872e-5 -0.032494596585802685 -0.006908884131198291
-7.213000850784675e-6 -0.032492352174866214 -0.006908530653687285
-3.0168717000795785e-5 -0.03248699396911347 -0.006909415255515829
-5.3739101812414045e-5 -0.03247700616290976 -0.006908147264571637
-7.643652044459844e-5 -0.03246272067774145 -0.006905487637650708
0.00011971301636152502 -0.031047019707343616 -0.006829367526260575
9.392481583024508e-5 -0.03106752595609916 -0.006832399082891025
6.770246861643911e-5 -0.031082120465441964 -0.00683349470347598
4.2586951579165185e-5 -0.03109092363785414 -0.0068358814080279285
1.6170706085999933e-5 -0.03109502788908168 -0.006836626335356416
-1.013161124728258e-5 -0.03109590575920557 -0.006835753784212691
-3.4651925497378866e-5 -0.031089718236951426 -0.006834971096666046
-5.908050445997002e-5 -0.031079654390341008 -0.0068342629578034145
-8.453276239698042e-5 -0.031063598032100483 -0.00683088828691497
0.00012762800611090832 -0.02966348979748092 -0.006748612059015206
9.965020517647067e-5 -0.029684717912945024 -0.006751946034624636
7.252178378718874e-5 -0.029700079637131883 -0.006753675087991328
4.410017566014172e-5 -0.02971059933045545 -0.006753896166238191
1.6283194969135332e-5 -0.02971530042304198 -0.006754339189430592
-1.1419494800301289e-5 -0.02971478491578756 -0.006754808793878587
-3.7927496654343965e-5 -0.029708658994885166 -0.006755019606822846
-6.548416828329687e-5 -0.029696398285453944 -0.006753511025110346
-9.239737225214362e-5 -0.029678976104992837 -0.006751081883426424
0.00013540070778882694 -0.028296021765023792 -0.006661716199007051
0.0001055494551797961 -0.02831943022256628 -0.006665897254627734
7.611340841465204e-5 -0.028335988428293973 -0.006667151547156224
4.701397931408021e-5 -0.0283467995218819 -0.006669019512131273
1.721372080224558e-5 -0.02835338572890078 -0.006668679034762067
-1.2802086107576233e-5 -0.028353044550096042 -0.006668873210477646
-4.253508477299892e-5 -0.028344304643083625 -0.006668318324482316
-7.176809601806284e-5 -0.028331447684951425 -0.00666731793221663
-0.00010063221749013069 -0.028311731355311866 -0.006665217299922724
0.00014223343836938218 -0.026948496102758207 -0.006572352957708803
0.00011035927426196627 -0.026970974503489842 -0.006575132998775624
7.835886353797685e-5 -0.026987538868402227 -0.006575220005432865
4.799719324384699e-5 -0.026998495135188098 -0.0065765091453298926
1.6875189143702904e-5 -0.0270058631397238 -0.006578470603341586
-1.3686431098269293e-5 -0.027005621748943855 -0.006579197602529153
-4.722379919984252e-5 -0.026997613850052088 -0.006576913361416904
-7.801586606125832e-5 -0.026984783122462806 -0.006575790196841281
-0.00010837228312435775 -0.026964001021574726 -0.006574509981580354
0.00015044632656057046 -0.02561615885148597 -0.006473409563132952
0.00011638787345078194 -0.025641859255892244 -0.006476684285800257
8.284909006449386e-5 -0.025660393977670927 -0.006477795533350164
4.9517612792334996e-5 -0.025672021085733188 -0.006477450885978195
1.617051995066541e-5 -0.02567711816651148 -0.00647960754643953
-1.7743636797765922e-5 -0.025675820202009026 -0.006478890303878568
-5.058772950324643e-5 -0.025669196759791044 -0.006480239899686091
-8.331588135328388e-5 -0.025653355125267785 -0.006479490048468358
-0.00011772166521514162 -0.02563221968032352 -0.006476346911257404
0.0001581226559423028 -0.024306317325666085 -0.0063676603168659205
0.00012294787921895108 -0.024332803896732074 -0.006372130923644172
8.793011873624753e-5 -0.02435210169057694 -0.006373905373285434
5.275856900568135e-5 -0.024365636683994926 -0.006373441284198057
1.4826559994787895e-5 -0.02437156869708847 -0.006374770067954901
-1.988402300360026e-5 -0.024368085006349974 -0.006377750570771696
-5.436719220412965e-5 -0.024357833809099144 -0.006377685786365517
-8.862656982227765e-5 -0.02434255422563734 -0.006373976379224703
-0.00012421759164628896 -0.024321847245049433 -0.006371676110100171
0.00016626304273999938 -0.023019020361750412 -0.006258780396663046
0.00012921141111352176 -0.023047355102954265 -0.006263091641536557
9.074697510452081e-5 -0.023068369288682486 -0.006263726882686299
5.3246103202542146e-5 -0.023077214018250324 -0.006264791223462778
1.7939450995388603e-5 -0.023084044758534948 -0.00626757075736187
-1.9362657437741293e-5 -0.02308353187065543 -0.006268023145143109
-5.85216318545786e-5 -0.023075991404167582 -0.006267517794531281
-9.643827645754878e-5 -0.023058430277178698 -0.006265314862048783
-0.00013368209724056774 -0.02303512795906622 -0.006261827129362296
0.00017321645887525072 -0.02175186721622706 -0.006144663107748451
0.00013436059504360977 -0.021781513188980032 -0.006148471512674323
9.388424570766603e-5 -0.021802612578864424 -0.006148857011720077
5.58170683489346e-5 -0.021814138067887134 -0.006150742385918863
1.6385549119203392e-5 -0.021820773248847923 -0.0061481424849283576
-2.348995714355336e-5 -0.02181960901795359 -0.006149112408584617
-6.260834123973008e-5 -0.021808750921272387 -0.0061496580534758614
-0.00010084390238803118 -0.021792125548829366 -0.006150302482645629
-0.00014011102480206416 -0.02176795371575735 -0.006147744580626219
0.00018093354172104737 -0.020510505907931516 -0.006023242167153778
0.00013876711249300884 -0.020539362243103952 -0.006026763135500658
9.709776304719975e-5 -0.020559320868932196 -0.006027598497505535
5.471385301576249e-5 -0.020573581679440435 -0.006024197006750939
1.5622768302517497e-5 -0.02058038486131808 -0.006024421274585268
-2.4927912652235415e-5 -0.020578669085825826 -0.006028286117600796
-6.643439253028317e-5 -0.02056720572001167 -0.0060288125903919495
-0.0001069591452348574 -0.02054789733984177 -0.006028152787875985
-0.00014788690187266809 -0.02052194045544743 -0.0060249283943462646
0.0001888583857615814 -0.019291393591756835 -0.005895690871769438
0.00014576227298723153 -0.0193240572738766 -0.005899222803770863
0.0001023133096777055 -0.019347825396427286 -0.005899119661974509
5.912742588207481e-5 -0.01936392876836556 -0.0058996866961626105
1.3347669965919113e-5 -0.019367757356145533 -0.005897946498261806
-2.821387819401004e-5 -0.019364647296539746 -0.0059028069623034566
-7.13396902743378e-5 -0.01935341359214876 -0.0059006218492748735
-0.00011303616046299338 -0.019334790161561855 -0.005899003325831516
-0.0001570902759499261 -0.019306938229075494 -0.005895750477449577
0.0001963318828272085 -0.018100124866603496 -0.005762160369318363
0.00015104380485511022 -0.01813394377275212 -0.005765501563706081
0.0001053523728559821 -0.018159840830104683 -0.005766131504815776
5.814702852673471e-5 -0.018174363702581357 -0.005765391742404716
1.7441988060129626e-5 -0.01817824697406192 -0.005768631489441652
-2.84066841289747e-5 -0.018176067364862675 -0.005768355360507463
-7.304074202656686e-5 -0.018166516057422026 -0.00576831518092582
-0.00012078692360354848 -0.01814602567343847 -0.005767897392826347
-0.0001656385239816455 -0.018116220320313226 -0.005765034411342868
0.00020426671113607858 -0.016938218630816154 -0.005622985416068194
0.0001566036099948915 -0.01697151669537261 -0.005626629421002261
0.0001085664235864092 -0.0169965876138719 -0.005626112042103141
6.199918337206698e-5 -0.017011595527558765 -0.005627239372681636
1.5769913793545885e-5 -0.01701738062278408 -0.005629069002786707
-3.2202903805919985e-5 -0.017011583312109727 -0.005628239181171555
-8.032179012402614e-5 -0.017000091217248985 -0.00562667962913104
-0.00012662887432748492 -0.016975573392648897 -0.0056275571247884374
-0.00017282336845124159 -0.01694828084806581 -0.00562552389232064
0.00021075265823943258 -0.01580004705193771 -0.005478275319031229
0.00016263245982571644 -0.015835490833792324 -0.005481036796655603
0.00011351597457576635 -0.015861467981093506 -0.005481716443546478
6.771781731946683e-5 -0.015880810561942103 -0.005481027308751215
1.5046774616740991e-5 -0.015891890635213218 -0.005478723428915676
-3.630280094147609e-5 -0.015883108698101542 -0.005480601587497594
-8.415838695010609e-5 -0.01586876125891261 -0.005481506897347148
-0.00013238885416626655 -0.01584556844230568 -0.0054820379893597984
-0.00018178640457308334 -0.015812381518228044 -0.005478921890261059
0.0002204048956584373 -0.01469712055188006 -0.005327231329895246
0.00016795413924049134 -0.014732576276661764 -0.005328178507480554
0.00011716683015715941 -0.01475807582347796 -0.005333166004716074
6.407401688424657e-5 -0.014774262873834852 -0.005330688536995915
1.647536756702329e-5 -0.014779675677172316 -0.005329316796583263
-3.3950983809277044e-5 -0.014777379589948424 -0.005333397001237553
-8.659529953449623e-5 -0.014765390865312302 -0.00533066143432283
-0.00013919384719369822 -0.014742174721480667 -0.005329358752371486
-0.00019009252734695595 -0.014707382292668426 -0.005327830820923713
0.00022436660771547222 -0.01361794083668415 -0.005170311118685437
0.00017407516452287833 -0.013659598539969698 -0.005175325302856541
0.00012062705349418687 -0.013687135797166815 -0.005176415819960224
6.834084026399713e-5 -0.013704412509262307 -0.005179077177252923
1.1238001225944213e-5 -0.013708855088926558 -0.005176291383981524
-3.890771894313746e-5 -0.01370330723922964 -0.005176137149862434
-9.159255962974459e-5 -0.013690091306673926 -0.005174279205279564
-0.00014454787953564884 -0.013665596924287727 -0.005172788930174471
-0.0001976390790688594 -0.013629623540700764 -0.005171636006568908
0.00023315330155746498 -0.012577091240349695 -0.005008315503017148
0.00017914421657723597 -0.012615491484229947 -0.005011141455660926
0.00012382666464808467 -0.012641111563936687 -0.005010564553917795
6.881764214274995e-5 -0.012658322076820579 -0.005013593140375577
1.3890613413263325e-5 -0.01266853600220949 -0.005016513233222306
-4.1874484950857153e-5 -0.012662798420696442 -0.005013355517200092
-9.633829255419278e-5 -0.012649289072782406 -0.0050106786739444
-0.0001507936583395356 -0.012623055683689148 -0.005009058812712869
-0.00020556279702801383 -0.01258651157473997 -0.005009156779024408
0.0002429398862641362 -0.011570204238972613 -0.004840950855780128
0.00018492580044262384 -0.011612447104293093 -0.0048408519787944285
0.00013023239604418823 -0.01163715188454281 -0.004839255290268733
6.84761166239477e-5 -0.011655362673444861 -0.004840959586979925
1.366317787751171e-5 -0.01166168670001971 -0.004842560158097769
-4.4174685393469336e-5 -0.011657119384523618 -0.00484282402780684
-0.00010177363077958079 -0.011643306507224857 -0.004841410301434716
-0.00015899177784924095 -0.011614224704004457 -0.004839908223644412
-0.0002165065776003343 -0.011573906168426056 -0.004840695900700513
0.00024761591386283525 -0.010589334457422685 -0.00466683434805087
0.0001897115516454645 -0.010633781475628542 -0.004672900070474711
0.00012862011753802524 -0.010667071581152472 -0.004667746572532908
7.297766677709619e-5 -0.010682762955011669 -0.004668740134228362
1.3865077174584152e-5 -0.010693469080309123 -0.004666598645070317
-4.5154163509424846e-5 -0.010689647045838383 -0.004666995819658772
-0.00010613425282186953 -0.010671274160418897 -0.004664680353669625
-0.0001654685913500253 -0.010642250328130558 -0.0046630062891434895
-0.00022318735733778115 -0.010601885376127513 -0.00466145363040543
0.0002576560676545967 -0.009648935034042338 -0.004485438139433414
0.0001948000864817998 -0.009688225876862912 -0.0044866203988847345
0.00013441551869669197 -0.009721588881481804 -0.004486280069100247
7.479987176824808e-5 -0.009739120997460665 -0.004486966081380642
1.4889381854584095e-5 -0.00974794175260876 -0.0044917022353223425
-4.848183356708597e-5 -0.009746360564538752 -0.004487122193658053
-0.00010988318325872007 -0.009731061007766065 -0.00448489562850513
-0.00017059391691725878 -0.00970292370324705 -0.00448515054420396
-0.00023087814729199054 -0.009659676156271677 -0.0044851518000457525
0.0002645811742028339 -0.008741929767338506 -0.004294813747486554
0.00020214653339318403 -0.008790986889287474 -0.004297982831739714
0.00013745700702212074 -0.008822907012479127 -0.004298869778390571
7.515740563292535e-5 -0.008841836932810477 -0.004298740496791382
1.1145920152109237e-5 -0.008848365282221594 -0.004295771209295494
-4.867189309542076e-5 -0.008842097485332125 -0.004299447199634789
-0.00011088007131305172 -0.00882911593096065 -0.004300897717090667
-0.00017515214618007684 -0.008800794878648552 -0.004300356070976052
-0.00023848703792536102 -0.008757400272689767 -0.0042951902807042384
0.00027309445828194883 -0.007881486572248419 -0.004100851145976089
0.00020862727340385784 -0.007927543966109203 -0.0041039519898965005
0.00014549011769780183 -0.007964623183440371 -0.004104539088863958
7.661504406325373e-5 -0.007985676070397558 -0.004105980145798546
1.1537192354508574e-5 -0.0079887254667919 -0.004104122194639029
-5.1015168872319095e-5 -0.007980523483718515 -0.00410544700447491
-0.00011616985068203488 -0.007965404193882511 -0.004108145391154131
-0.00018188590052454782 -0.007934970582289036 -0.004109604465014531
-0.0002469451024588097 -0.007888415885198034 -0.004101405985596787
0.000280500270016145 -0.007055714141210746 -0.003904387072273618
0.0002134829439267221 -0.007105920959088166 -0.003905706283010286
0.0001463839190397134 -0.007136995900197229 -0.003906755992455784
8.041925537430673e-5 -0.007158106194904271 -0.003909556556087872
9.258330057925744e-6 -0.0071714318568102215 -0.003911156778579415
-5.680251656798187e-5 -0.0071611158256016496 -0.003911147208201154
-0.0001237163129011123 -0.007143256781575707 -0.003908343094520378
-0.00018895635816365748 -0.007107785052462085 -0.003908834822160273
-0.00025475746396409527 -0.0070604022072706975 -0.003901920521688608
0.00028661996862268017 -0.006268490139928787 -0.003699151029098005
0.0002174262983134452 -0.006316330032164213 -0.003701765661018303
0.0001480264172774623 -0.006350254491748219 -0.0037022562424868823
8.238880184475392e-5 -0.006371853856700173 -0.0037022685229921716
1.4124978464603719e-5 -0.006387295490291049 -0.0037014932436468043
-6.165523220458278e-5 -0.006380049194091355 -0.003702356388998601
-0.00012737559573547516 -0.006358041708069509 -0.0037049292552209867
-0.00019703085137795783 -0.0063228239898006555 -0.003702052480362034
-0.00026545061955056295 -0.006277518533847092 -0.0036944694465030226
0.00029509169531364725 -0.005526850926419036 -0.003488911291749394
0.0002229372359560018 -0.005576826247549974 -0.003491843230717507
0.0001494956768937696 -0.005612319232547267 -0.0034938147052290596
7.836269308486342e-5 -0.005633155081099256 -0.0034951552389494572
9.587808565974824e-6 -0.005641066530484351 -0.0034889255514934056
-5.971039348508181e-5 -0.005637001112979908 -0.0034975255089455515
-0.00013429456920973417 -0.005619449706223861 -0.0034932632190992413
-0.000203627105919817 -0.005582498262501175 -0.0034916143133512374
-0.00027381002336693174 -0.005537257358820857 -0.003489838645704556
0.0003026037166739953 -0.004822797983637334 -0.003270754879403502
0.00023017468044413724 -0.004876293226394064 -0.003272842295965712
0.00015614681508363307 -0.004911729259044588 -0.0032787264312601934
8.180664229422702e-5 -0.004932813832535488 -0.0032790947547498743
1.013423029821551e-5 -0.004939543124694131 -0.0032726638667320133
-6.424003310957957e-5 -0.004931186454676432 -0.003275858333720071
-0.0001352084328096062 -0.00491425949242832 -0.003277891283745896
-0.00020775882023640514 -0.0048799469711000715 -0.0032766403745417222
-0.0002801686902895053 -0.004829196809564197 -0.003275255236922791
0.00030968334328884955 -0.004162231047682738 -0.0030526670074812754
0.0002360909821743406 -0.004217058840404341 -0.0030538306929917373
0.00016070438948878181 -0.0042581823440429305 -0.00305237616437175
8.747973785750104e-5 -0.004284676141510619 -0.003057190488336297
1.0534776861637278e-5 -0.004291284546030846 -0.003049878417273116
-6.62604103675362e-5 -0.004280906047935491 -0.003057477988082751
-0.00014146806376799632 -0.004256641737288756 -0.0030541581740605914
-0.00021535132461113576 -0.004222219029225792 -0.003051322660192187
-0.00028868783834830027 -0.0041699822481303704 -0.0030506173923185603
0.0003166796316101139 -0.0035539769073801276 -0.0028227629478895996
0.0002402501844399041 -0.0036065489259884606 -0.0028248961216635724
0.00016173551075048586 -0.0036441837608583143 -0.0028254209844280932
8.401620078639703e-5 -0.003666989783215002 -0.0028308134559708337
1.0518081808910982e-5 -0.0036772618387029767 -0.0028288918421218246
-6.79952603641902e-5 -0.003673515534515613 -0.0028259763473877423
-0.00014550689145093485 -0.003650682783653263 -0.0028253080027780377
-0.00022223155311376741 -0.0036137356344564386 -0.0028223656219202404
-0.00029926015240675825 -0.0035601852896036774 -0.002820414986870905
0.00032074325617394015 -0.002987234000899992 -0.002587104210851641
0.00024450937577385643 -0.003040423215758875 -0.0025875156074917304
0.00016772389939700906 -0.0030810459804472526 -0.0025892768107671532
8.806338963113487e-5 -0.0031036904163027072 -0.0025915394565642165
8.03621724322521e-6 -0.0031122379044560802 -0.002590050943367835
-7.173712745141536e-5 -0.0031049144738183898 -0.0025928901905047934
-0.00014945247835871907 -0.003083982979665234 -0.002592097708705615
-0.000228155425403596 -0.003046043106669943 -0.0025896797700524494
-0.0003071136801547675 -0.0029920631738397274 -0.0025883144805287093
0.0003276652559924641 -0.002469151213589168 -0.0023504556016682335
0.00024758232130372255 -0.0025252805680871936 -0.002349105988501091
0.00016901260901448884 -0.002563232895839283 -0.002349307477921699
8.736548875276538e-5 -0.0025864163819186077 -0.0023488194575027586
6.947871035948195e-6 -0.0025935092484493188 -0.0023472662880423423
-7.475264265144368e-5 -0.00258663369004616 -0.002349844669740262
-0.0001530058164853957 -0.002564227575807072 -0.00234933904217236
-0.00023337560173888864 -0.0025250689261909114 -0.0023471962670956795
-0.0003132326398292719 -0.0024709432727283236 -0.0023469789135429557
0.000333009655344115 -0.0019976763195625087 -0.0021091637084427167
0.0002509565375930447 -0.002054399437110292 -0.0021033374576944837
0.0001694737217891619 -0.0020948880236177692 -0.0020997444019715313
8.847563229144785e-5 -0.002119561895468766 -0.0020985212804378616
7.837045891225666e-6 -0.002127940378500946 -0.0020970179483662285
-7.018090706887031e-5 -0.0021252896503802837 -0.0020996633654597236
-0.00015601467924882692 -0.0020974014782936495 -0.002099264035458381
-0.00023783342843055832 -0.0020597322231172203 -0.0020992733474891113
-0.00032103329476477615 -0.0020043872574591363 -0.00209850935853075
0.0003358504541477597 -0.0015785372320925141 -0.0018563331626381618
0.00025272036600445505 -0.001637247132689227 -0.0018510054910134098
0.00017032489270538915 -0.0016794760510193817 -0.0018495609887845363
8.68671245348245e-5 -0.001703072299847688 -0.001850828385873043
4.142306745696611e-6 -0.0017103429399834586 -0.0018504170656779056
-7.860606356164716e-5 -0.00170053402261934 -0.0018513588693516193
-0.00016273174009221117 -0.0016828169489717802 -0.001844896893791056
-0.00024292846074564493 -0.0016426311569960612 -0.0018499225171618326
-0.0003243900410466376 -0.0015872086935531367 -0.001854272317929067
0.00033457454218870645 -0.0012168873314082505 -0.0015972191403488714
0.00025234046960617994 -0.0012723491121410403 -0.0015944455511784229
0.00016883758622028466 -0.001310890072463181 -0.0015912228156655256
8.584509783835233e-5 -0.001336814789001189 -0.0015894307052950003
7.215566648544032e-6 -0.0013461912996826008 -0.0015906764492536222
-8.278821775530418e-5 -0.0013369169340071592 -0.0015899790963293432
-0.00016181731599811128 -0.00131534252238192 -0.0015908657247650862
-0.00024293698338843226 -0.001274223763248932 -0.0015946470501787724
-0.0003274531911594656 -0.0012209322665674965 -0.001595783206656728
0.0003341434569358117 -0.0009092282211976912 -0.001341026480712186
0.0002465151704998819 -0.0009697374976125689 -0.0013341214192216593
0.00015754464060934296 -0.0010025322021163018 -0.0013281885679043287
7.986922914924583e-5 -0.001020477025151095 -0.0013270582351128154
-3.977043512112161e-8 -0.0010227309232809963 -0.0013250814168606017
-7.720847289716329e-5 -0.0010149006553764718 -0.0013280564704064638
-0.0001558015173018451 -0.0009928876508615097 -0.0013301728519692824
-0.0002399814117097792 -0.0009588060003723733 -0.0013312615665886675
-0.00032375840726506293 -0.0009029521477920126 -0.0013358180284513618
0.0003214415106580483 -0.000645612709420316 -0.0010780142288445687
0.00023685008242311958 -0.0006993673183191333 -0.0010684377371594541
0.00015547220349624875 -0.0007352661167900884 -0.0010653184494921182
7.810820327547332e-5 -0.0007597023176303638 -0.0010634154249620738
4.4574692687482266e-6 -0.0007666112998857052 -0.0010627732401777396
-6.946500719066514e-5 -0.0007606998998202485 -0.0010641701667379415
-0.00015141442966740276 -0.0007357808016253822 -0.0010648418119560317
-0.00023020123831743686 -0.0006974781008507857 -0.0010662611012013554
-0.00031525859782199184 -0.0006449544033140946 -0.0010721099334837095
0.0002969421308792995 -0.0004394670072969504 -0.0008105614801302716
0.0002141571304640382 -0.0004902962252032374 -0.0007997091177682964
0.0001383028164061483 -0.0005217785490223918 -0.0007972598885782155
7.018065739385815e-5 -0.0005422964606932306 -0.0007961272287833624
2.9988737375440197e-6 -0.0005498949206249378 -0.000795772973507653
-6.41819719786015e-5 -0.0005421117645900383 -0.0007945268997332732
-0.00012944198549532613 -0.0005253029698922949 -0.0007958672599009102
-0.00020640445117514847 -0.0004918542076822027 -0.0007960033214323658
-0.00028805834034347926 -0.0004425227577811977 -0.0008090896488735745
0.00024824581731244756 -0.0002863937063980026 -0.0005398341286211572
0.00017419922733015325 -0.00032482428984880303 -0.0005333370179269375
0.00011128725225587363 -0.00035374504291530215 -0.0005366424767052101
5.391942730884614e-5 -0.00036855420784518187 -0.0005354312651860902
3.942008654824046e-6 -0.00037452348046022513 -0.0005367218215786422
-4.885157458762424e-5 -0.0003687981901341292 -0.0005343227402166613
-0.00010093804510028015 -0.0003567084598574347 -0.0005313639017758057
-0.00016224963535468385 -0.00033170983500521603 -0.0005240576835650835
-0.00023648408266617005 -0.00029084476264037566 -0.0005379898265202732
0.00015768583212822756 -0.00017867027580968628 -0.00026842157810849784
0.00010567062809879132 -0.0002011706260300495 -0.0002675108138863585
6.151205950763098e-5 -0.00021628838781041185 -0.0002702679372008576
3.0061372801594895e-5 -0.00022402679495403497 -0.0002765625079384285
1.8102941641842473e-6 -0.00022506704292835428 -0.0002763998398519117
-2.7179629767201463e-5 -0.0002216854702994434 -0.0002736295089131739
-5.73714488942483e-5 -0.00021574972272564937 -0.0002704342704290366
-9.404046216353486e-5 -0.0002022701694250179 -0.0002674098273644929
-0.00013946403198746094 -0.00018467764654522261 -0.00027229835931066393
7.62085844870945e-6 -0.050034314289314506 -0.00584849253908233
5.3766497453572775e-6 -0.05001770927312641 -0.004371684342566389
4.01983336106197e-6 -0.05000424829397952 -0.0029075525065863483
3.8115176882358924e-6 -0.04999551549607781 -0.0014513318489612105
3.6416555625359433e-6 -0.04999262065968945 1.3935909962251209e-6
4.021270017848353e-6 -0.04999605249016433 0.0014534976185534238
3.550766123761581e-6 -0.05000483599459706 0.002909811746174698
1.5131531104465146e-6 -0.05001852591489596 0.004373724625193849
-8.445553271643833e-7 -0.05003604073815488 0.005852593903520417
1.0391700871027411e-5 -0.05003248340992323 -0.00585236552044269
8.027091182389568e-6 -0.050017327819862636 -0.0043755680533821275
6.054337079659089e-6 -0.05000496985889005 -0.002910548316795457
4.488435040051212e-6 -0.049997150954073255 -0.0014528086730996983
3.6160987950512124e-6 -0.04999410345986882 1.2660292165046628e-6
2.730728183782282e-6 -0.049996704896134066 0.0014551749186221122
1.2157280698629958e-6 -0.0500044200285255 0.0029119339037952953
-1.0289146274133807e-6 -0.05001728261319716 0.004376212277437705
-2.6118144881438535e-6 -0.050033650313623286 0.005855193529531697
1.2023769801840269e-5 -0.050034003531658246 -0.005854296608553327
9.405943071650034e-6 -0.05001852430377757 -0.004377806491713298
6.9694384969717725e-6 -0.05000630685283023 -0.0029123059597074377
5.065717913336163e-6 -0.04999861699766684 -0.0014541131444434396
3.633231696962897e-6 -0.04999637371852431 7.444420753514751e-7
1.817340529319247e-6 -0.049998924620420195 0.0014552620841401338
3.877345094564234e-7 -0.05000663361228551 0.0029135279977665135
-1.661654920409032e-6 -0.05001901400434748 0.004378488713993859
-4.72224683280905e-6 -0.05003270078900693 0.005855332533424843
1.2511957355395584e-5 -0.050034673226944326 -0.00585560013674232
1.0160022064571344e-5 -0.05002090829823887 -0.0043791076516796435
7.605892388832599e-6 -0.05000947097263909 -0.0029135725514875042
5.4784415928578276e-6 -0.05000195471980855 -0.001455081541767364
3.4259480518343266e-6 -0.04999941107843926 1.920948045428357e-7
1.678234339355115e-6 -0.05000195024612255 0.0014553111048507161
-2.7859475780022443e-7 -0.05000930540924718 0.0029142081779957633
-2.438567862413751e-6 -0.05002087556597165 0.004379023281388509
-4.778535798669164e-6 -0.05003467764813275 0.005855448714745113
1.2345809149052094e-5 -0.050035681276400894 -0.005856222227309349
1.03067226993941e-5 -0.050022785199142224 -0.004379647500619328
7.771151247478279e-6 -0.05001176056923963 -0.0029143006380546606
5.798443059545932e-6 -0.050004669905119405 -0.0014556484207946736
3.5323860907864087e-6 -0.05000179318208522 -2.0462888505864952e-7
1.5823397252949884e-6 -0.05000443381964161 0.0014554242665109438
-4.896915418527724e-7 -0.05001170676202219 0.0029141751002609664
-2.442250900764586e-6 -0.05002308752540205 0.0043793941675188105
-4.403134625638088e-6 -0.05003710738828114 0.005855384910045173
1.2432583654332391e-5 -0.05003885997419948 -0.005855972853946828
1.0442189547510538e-5 -0.05002505802650617 -0.004379387332867594
7.706463814274463e-6 -0.05001377479474259 -0.0029145568618083708
5.92223349824788e-6 -0.050006154552044886 -0.0014557253570164552
3.773861611846109e-6 -0.050003584592391036 -5.630167359306366e-7
1.524174285394458e-6 -0.05000639708254221 0.001454802789011988
-6.413274871131275e-7 -0.050013739277082844 0.0029137291954794767
-2.5968924079696386e-6 -0.05002500849336947 0.00437927585373453
-4.4162974625846745e-6 -0.050038843567930494 0.005855417135210563
1.2669803353048594e-5 -0.05004212358525021 -0.005855687115351563
1.0868121976882421e-5 -0.05002759208609057 -0.004378966866604027
8.652428598115628e-6 -0.050016182121411325 -0.0029148195676573113
6.148065649535683e-6 -0.05000773730997805 -0.0014557242497835246
3.6079693609733745e-6 -0.05000470843515753 -7.017338251875733e-7
1.0885492889018327e-6 -0.05000760409573409 0.0014543319604683302
-1.366755014280789e-6 -0.050015263186092195 0.0029125716403604453
-3.096882160925001e-6 -0.05002693763142462 0.004377236663026857
-5.044332511931389e-6 -0.05004121439749541 0.005853971464453816
1.3583550299310396e-5 -0.05004647837742148 -0.005854710038806872
1.184921806598386e-5 -0.05003064977508711 -0.004377279815541289
1.029362440620208e-5 -0.05001840285325317 -0.0029132948923086834
7.09927746235399e-6 -0.05000977065802694 -0.0014550237320734708
3.5764055003569255e-6 -0.05000671337707987 -1.0875848128740338e-6
3.322337888425108e-7 -0.050009514618554254 0.0014531068285908743
-2.4279081556538215e-6 -0.050017655313784534 0.0029106116749154374
-4.325208826939583e-6 -0.05002988842634587 0.004375367073135956
-5.954405222371604e-6 -0.050045208941452854 0.0058518613294166275
1.5584367357571322e-5 -0.050053362907762085 -0.005852364719715459
1.4222921973174637e-5 -0.050036116542182395 -0.004374271347170044
1.2384901243467112e-5 -0.05002253127901444 -0.002909922037422905
8.467115967331516e-6 -0.050013860862855 -0.0014535586133281667
3.6944811077616026e-6 -0.0500118041510188 -1.8333687136169727e-6
-7.906923183772283e-7 -0.050013498384548556 0.001451184384136049
-4.432632769246139e-6 -0.05002166449555148 0.0029073787101876487
-6.745932112503027e-6 -0.050034607622240185 0.004371312923013718
-8.588313766855112e-6 -0.050050743372939 0.005849150626564917
-5.824857930360008e-6 -0.04852667385119697 0.005838977858724451
-1.5266207146457136e-6 -0.04852041966079429 0.0043635610850705775
1.5633015963273897e-6 -0.04851471131252647 0.0029022265046115734
3.180856213776576e-6 -0.04851053922809954 0.0014497437840242848
4.159844826771677e-6 -0.04850879386044393 1.906113915647618e-6
5.095049426031448e-6 -0.0485101594766477 -0.0014466752649889038
7.276680379089083e-6 -0.04851268804985964 -0.0028993087018698077
1.0294632502476653e-5 -0.0485180833791343 -0.004360508948698624
1.503039630060774e-5 -0.048523203745739756 -0.005833916223646313
-1.6660265007124958e-5 -0.04702192938908658 0.005832084180651845
-9.79958981060631e-6 -0.04701837859530984 0.004359248606788358
-3.953921448273463e-6 -0.047015956235570075 0.0028998004976553745
4.5784552387042625e-7 -0.0470140518059539 0.00144876626652231
4.657539045682576e-6 -0.047013302821772227 2.0998392275835806e-6
8.718294068964158e-6 -0.04701364068210303 -0.0014447756059121715
1.3758521421578821e-5 -0.04701483565730372 -0.002896863342491236
1.9008567818873065e-5 -0.04701687322088354 -0.004356310774715608
2.6406785301142342e-5 -0.047019666864135536 -0.005827648166414748
-2.5817181937063614e-5 -0.04552634325885142 0.00582019750874184
-1.7351543359886382e-5 -0.04552266550631607 0.004352039714318003
-9.527829564962133e-6 -0.045520198581340876 0.002895242089471876
-2.2607577433017993e-6 -0.04551875584042298 0.0014468625871732082
4.915987678178338e-6 -0.0455184473794855 2.2204321774231426e-6
1.140750050101621e-5 -0.04551821203108327 -0.0014432740151592266
1.9032111692377393e-5 -0.04551946384184891 -0.002892315203175044
2.731424864521959e-5 -0.04552128604407733 -0.004348455136208136
3.598367166597891e-5 -0.045524650963004246 -0.005816363391126624
-3.431810858184399e-5 -0.04403649978346534 0.005803739410107533
-2.4176974256931657e-5 -0.04403153803218866 0.004341169465909702
-1.4290958968158155e-5 -0.044028628609296835 0.0028887814867150433
-3.6912588814854244e-6 -0.04402623942163213 0.0014440543709880996
4.933305092283837e-6 -0.04402592362551901 1.864276958471182e-6
1.3811733368127267e-5 -0.04402642752276497 -0.001440475740989455
2.4550333545684975e-5 -0.0440277713007597 -0.0028852777492017986
3.424530764244137e-5 -0.04403066807032392 -0.004337815426023696
4.477896829471888e-5 -0.044035624239620874 -0.005800036041726884
-4.2108138247695597e-5 -0.04255238007711556 0.005782769335038869
-3.0086249818312968e-5 -0.04254592717560926 0.004326411684596062
-1.885977633551395e-5 -0.04254151124335281 0.0028789539240656734
-5.865357243562012e-6 -0.042539048782922716 0.001439342095368457
5.727398068184699e-6 -0.042538401083628274 1.748269375815793e-6
1.7128303734450825e-5 -0.042539582041834 -0.0014354325898656383
2.8989157995297316e-5 -0.04254129544320753 -0.0028761088156942713
4.0739431930512635e-5 -0.042545354946932915 -0.00432300323388999
5.3549686780911e-5 -0.04255232215325444 -0.005778880520361266
-4.980471946993866e-5 -0.04107500571047541 0.005756902272356176
-3.5920433843838155e-5 -0.04106691881233536 0.004307469909811809
-2.22348739562425e-5 -0.04106113908214245 0.002867240365769159
-7.712883901772869e-6 -0.041057945105578836 0.0014328145195238566
5.879439936829115e-6 -0.041056899268115635 1.6758474002338557e-6
2.0161387531976285e-5 -0.041058185649532446 -0.0014293078830367341
3.3653306357458056e-5 -0.041061069754358206 -0.002864059532917874
4.783426550248227e-5 -0.04106676619247365 -0.004303481395136776
6.16683429476896e-5 -0.041074659292561044 -0.005753279930292971
-5.765350011749211e-5 -0.03960497192988814 0.005726155537870398
-4.197069858966639e-5 -0.039595242272054604 0.004284591222317922
-2.580485622756296e-5 -0.03958840403042791 0.0028525882303040385
-1.00328440474903e-5 -0.03958441700764224 0.0014249385299658155
5.095318772787999e-6 -0.03958351502524053 2.0205387779410637e-6
2.2536188488945866e-5 -0.03958431742508231 -0.0014220918642674765
3.8065299336125645e-5 -0.03958817765087339 -0.0028490028936064326
5.40674609552847e-5 -0.03959487560291975 -0.004281509655626215
6.964967419995435e-5 -0.03960433723456969 -0.005722810480567517
-6.544772305143186e-5 -0.03814324782487344 0.005690625277937438
-4.759925605758295e-5 -0.03813211228040012 0.004258358086010265
-3.020580430231524e-5 -0.0381237288387072 0.0028349285981466928
-1.180086296376306e-5 -0.03811851291055658 0.0014166630411379048
5.858593881409567e-6 -0.03811785700997198 1.4070193135812847e-6
2.3142893468283333e-5 -0.0381183216115434 -0.0014145520406873302
4.180253604256827e-5 -0.03812345106782038 -0.0028316448736117805
6.010440212506754e-5 -0.038131262683527824 -0.004254770999165259
7.713493110582022e-5 -0.038142609468362954 -0.00568794188117498
-7.329977661994793e-5 -0.036691081643980064 0.0056504257650448544
-5.317100023296353e-5 -0.03667821949708648 0.004228006229494375
-3.3106398681876966e-5 -0.03666862437877198 0.002814770172225136
-1.3009771761678541e-5 -0.03666305162544177 0.001406104514485355
6.118125924064085e-6 -0.036661468438502515 2.118126595198667e-6
2.5733118966720256e-5 -0.036663302709733614 -0.0014034319941744863
4.573773865645877e-5 -0.0366682521507868 -0.0028115279029228986
6.706261119377943e-5 -0.03667673488178139 -0.004223739109064048
8.575609836325595e-5 -0.03669127363878838 -0.00564706561473039
-8.104746857300159e-5 -0.03524859325223808 0.005605427074448861
-5.9253316397210484e-5 -0.03523430042365671 0.004193545691229876
-3.731957908800853e-5 -0.03522404722292173 0.002791317880954106
-1.589093642593515e-5 -0.03521857243150072 0.0013953183454171714
7.440494146340582e-6 -0.0352156603835857 2.7448287873488856e-6
2.938275305862654e-5 -0.03521751248047949 -0.0013917947930372403
5.007034861781722e-5 -0.035224026544081716 -0.002788447085797965
7.183401585698499e-5 -0.0352347489510157 -0.0041891201517251335
9.537189643395167e-5 -0.035248645830107596 -0.0056008207024200694
-8.868862732719606e-5 -0.03381834078712574 0.005555586192736095
-6.537571857042939e-5 -0.03380304218841634 0.004157087343799613
-4.174379863812758e-5 -0.033791916269342845 0.0027667713710667176
-1.7146356502982728e-5 -0.033785211990136794 0.0013824287125995935
6.714792123630564e-6 -0.03378313096707307 2.1006187692034104e-6
2.9518987245053666e-5 -0.033785561382236075 -0.001378693572299027
5.595875803803209e-5 -0.03379206390737262 -0.0027631255635252377
7.945640244323982e-5 -0.033803206803187796 -0.004151615824429575
0.00010211382496001499 -0.03381790708115931 -0.005552132145810384
-9.659984610211237e-5 -0.032401767983329346 0.005501289991790479
-7.109701504880647e-5 -0.03238495398782443 0.004116310930473284
-4.564882488243188e-5 -0.03237293004882631 0.0027401702763032425
-1.890488814788156e-5 -0.032365712612818266 0.0013686480135775684
6.253042731503281e-6 -0.03236330085884266 9.809804985754964e-7
3.302895259911817e-5 -0.03236580776991269 -0.001364952772186207
5.8438407663258794e-5 -0.03237245226126606 -0.002735983619831072
8.560096454300822e-5 -0.03238414073787316 -0.004112162880387
0.00011065028605505621 -0.032401206786572066 -0.005497294275037481
-0.00010431290065741662 -0.030999381012520442 0.005442281641912061
-7.65739110631408e-5 -0.0309807722763964 0.0040718184142317405
-4.8671814888279185e-5 -0.030968192723085382 0.002711177760998925
-2.201632563415447e-5 -0.030959746478853394 0.0013541974789815674
6.903871676292385e-6 -0.03095677627502347 2.900496782996154e-6
3.512709320664031e-5 -0.030959198902509446 -0.0013501080135999981
6.322697385010431e-5 -0.030967189812598935 -0.002706476797381161
9.050424357971978e-5 -0.0309799396686999 -0.004068138002112512
0.0001190425189726393 -0.030998686784880946 -0.005438066193413389
-0.00011121866454986023 -0.02961211578403341 0.00537906704410072
-8.203623933630899e-5 -0.029592617217292696 0.004024708522180779
-5.255405597124684e-5 -0.02957824692572635 0.0026785003222962837
-2.2891412263226448e-5 -0.029569408660029776 0.0013373757734040427
7.976854882379685e-6 -0.029565826143647042 2.452232514546058e-6
3.774999094634902e-5 -0.029568528012379733 -0.0013339386544224789
6.697172256774554e-5 -0.029577223956872248 -0.00267417357448567
9.675664468364626e-5 -0.02959126560466925 -0.004019777278523231
0.00012632541593488676 -0.029611423832007044 -0.005374583876915721
-0.00011846535563355708 -0.028241428114059244 0.005310019320167773
-8.757080873167321e-5 -0.028220233376874192 0.003973184234432378
-5.6437278336376715e-5 -0.028204220714361253 0.0026440697265385344
-2.4617849251217525e-5 -0.02819497063700153 0.0013201528759492062
8.430478467532276e-6 -0.028191694780928166 1.830384136001206e-6
4.015878754196219e-5 -0.028194738312316437 -0.0013169254217801148
7.105640398077057e-5 -0.028203986014683602 -0.0026394358347107284
0.00010319139511270149 -0.028219143226039592 -0.003967983572273806
0.00013311619267977634 -0.028240224567341602 -0.005305887385322216
-0.00012607822538844929 -0.02688930771461644 0.005235858125226406
-9.409197806486458e-5 -0.02686553437085424 0.0039175420387105074
-5.995772936111565e-5 -0.026848736968184527 0.002607877822607757
-2.6142779949796715e-5 -0.026839201581809215 0.0013011437408322435
8.055442680768676e-6 -0.026836093431026872 1.1849061610583151e-6
4.265550164765452e-5 -0.02683905230902281 -0.0012987029671555162
7.523282572669047e-5 -0.02684815571986856 -0.0026029488710511465
0.00010859221246044757 -0.02686504769140735 -0.003912387356746063
0.00014261250587297016 -0.02688805314362043 -0.005231629846384083
-0.00013540013484013134 -0.025558345897991906 0.005156133582407973
-0.00010156766912209325 -0.025530322214175897 0.0038593366883512433
-6.195888070660154e-5 -0.025513374268173215 0.0025689347771769874
-2.7641515075882104e-5 -0.025503119313935285 0.0012817513673543588
6.380318256004036e-6 -0.025499940157554624 2.823363157672774e-8
4.535489228037242e-5 -0.02550291929858322 -0.0012805975398674915
7.947894803188826e-5 -0.025511581730792 -0.0025640170286488225
0.00011513106987177557 -0.02552901417313613 -0.003853663306053532
0.00014992884236057332 -0.02555313434542807 -0.005153035395878967
-0.0001441813284940081 -0.02424294873038691 0.005073722162073343
-0.00010324816700899925 -0.02421626525130328 0.003796156188970538
-6.668413060222435e-5 -0.02419680985092019 0.0025248985027672426
-2.9939116334623554e-5 -0.024186486763971744 0.0012614312932773828
7.857729501810702e-6 -0.024183458003433942 1.5398456345195486e-6
4.684347105095784e-5 -0.024187865444154875 -0.0012638875757279378
8.418870324995492e-5 -0.024197302887169665 -0.002523237110771434
0.00012112274304585848 -0.02421472169657135 -0.0037914906010557857
0.00015763025228933642 -0.02423992266716803 -0.005069723030775541
-0.00015095223783636815 -0.02294889734789558 0.004985622274468528
-0.00011205879080651759 -0.022921408181356063 0.0037319894488615927
-7.369119086795266e-5 -0.02290148484404007 0.0024816272571247123
-3.3234988466101336e-5 -0.022889346445079048 0.001239641607161709
8.803217477252085e-6 -0.022888066851928873 5.923051321695197e-8
4.800619342149834e-5 -0.02289126125798551 -0.0012413874569316085
8.706747717019603e-5 -0.022903278242024937 -0.0024801908975423904
0.00012592170516087075 -0.022922123666905322 -0.0037262103527694037
0.00016613115560140546 -0.022949157511494383 -0.004983207306830853
-0.0001592791299921049 -0.021677649878025534 0.004895134328879137
-0.00011789439990206366 -0.02164833045652664 0.0036605251183766552
-7.80852381498262e-5 -0.02162863988686203 0.0024377754056544277
-3.4610377206329976e-5 -0.02161607914763412 0.0012175955904091297
8.49547436862231e-6 -0.02161260057895712 2.4324057072767378e-6
4.768245073543918e-5 -0.021619851384411255 -0.001215781366704144
9.018817102336226e-5 -0.02163078679858541 -0.0024339776340385603
0.00013142083443203235 -0.021650713586393776 -0.003657001751309266
0.0001728877409170519 -0.021678462829577808 -0.004890583477081641
-0.0001657485298403677 -0.02043109456774266 0.0047982376064805415
-0.0001236611547543168 -0.020401702093545436 0.0035893107897101337
-8.05016173120702e-5 -0.02038099499504698 0.0023904636237064175
-3.705181460327375e-5 -0.020367999465267305 0.0011928347312997257
6.966996996073827e-6 -0.020363588899454364 2.552824861479891e-6
5.091443806115729e-5 -0.020368014170856912 -0.0011896778286215025
9.460208536740744e-5 -0.02038118920768125 -0.002384594265208627
0.0001379832201456696 -0.02040252019624201 -0.003583862720881305
0.00018145608897626787 -0.02043299877802279 -0.004793202260073639
-0.00017267107458463987 -0.019210197398089542 0.004696294244141744
-0.00012679301297594979 -0.01918015032509777 0.003513978750963179
-8.277109170825564e-5 -0.019157441725029718 0.0023396658678680846
-3.761146672355792e-5 -0.019144496037674354 0.0011667547655195012
6.706811414685594e-6 -0.019139389321746025 1.8588128572651823e-6
5.2280623526684116e-5 -0.01914462395396151 -0.0011622920966811118
9.752904687467915e-5 -0.019157371259341527 -0.002333900947435049
0.00014331698771713106 -0.019179816075138717 -0.003507428104608668
0.00018880872286808147 -0.019210436235887463 -0.004691014131135567
-0.00018212550872198744 -0.01801705548830547 0.004589289397195266
-0.0001338010565497966 -0.017983256768740477 0.003432810622109231
-8.581101184412294e-5 -0.017958904135278998 0.002285457148481458
-4.092504047065018e-5 -0.017945417507841798 0.0011410947481061277
8.633294787647474e-6 -0.017941371586141473 2.255614531430613e-6
5.6674135277387904e-5 -0.017946348278583674 -0.0011357449277784367
0.00010246844667380868 -0.017960615230230466 -0.0022799840633425644
0.00014991362875419576 -0.01798364783241355 -0.003428154430358883
0.00019602145989024454 -0.018015838338073804 -0.004584783022970905
-0.000189715213103876 -0.016849880920586115 0.004477850602603262
-0.00014060722702826381 -0.016814797233753745 0.00334740090039335
-9.157610726341925e-5 -0.016789718765445882 0.0022295947451105914
-4.280129045059928e-5 -0.016775083712337515 0.0011136380785634183
7.62392222945391e-6 -0.016771313824659875 2.5002459373374697e-6
5.7235207254415036e-5 -0.016776447032275963 -0.0011074265743338779
0.00010624754576440645 -0.01678915066324677 -0.0022250571210582926
0.00015647050879192986 -0.01681428586678002 -0.0033443910564935524
0.00020482379393387733 -0.016849722621306802 -0.004473546205429495
-0.00019782908525754325 -0.015711133549877607 0.00436131854216077
-0.00014773511831960855 -0.015675234792237144 0.003260793008964842
-9.496937692207114e-5 -0.01565006657150096 0.0021713409388568203
-4.357230802579789e-5 -0.015635310783271694 0.0010864059254428336
5.251559976809232e-6 -0.01562880658712808 5.206079549762091e-7
5.873910358078322e-5 -0.01563345147067683 -0.0010788398468875688
0.00011020850976557021 -0.015647892445461224 -0.002166686182815242
0.00016158173615486254 -0.01567443961252401 -0.0032563604465341233
0.0002116302971294704 -0.01570961585754576 -0.004356822408941135
-0.00020538474553584687 -0.014601755436368841 0.004241226552632346
-0.0001528424532393054 -0.014565404301219241 0.003172370536796596
-9.96702657053102e-5 -0.014538232490800048 0.002110154291792252
-4.421078280305571e-5 -0.01452229578301758 0.0010550144798898847
4.396812600831147e-6 -0.014515527031184318 1.2291531201737974e-6
6.112226607140365e-5 -0.014521653921509262 -0.0010473515510055615
0.0001151964019525627 -0.014537550631148416 -0.0021047965044284364
0.00016722945952982545 -0.014563838416698283 -0.003165526162290026
0.00021908507316154986 -0.014600452486515423 -0.004235800397798266
-0.00021272574873371994 -0.013521998150919654 0.0041155280318702445
-0.00015764889442375162 -0.013483851738095009 0.0030774051195915984
-0.00010288845213483894 -0.013457813918717991 0.002048939549711421
-4.745794066842687e-5 -0.013441177355011758 0.0010210885124342939
7.668125622409988e-6 -0.013435877832700121 2.6142349138968916e-6
6.318686042868914e-5 -0.013440572068719634 -0.0010168096909172902
0.00011939899623828483 -0.013456397784493673 -0.0020425456178367893
0.00017413958059800763 -0.01348344032623228 -0.003071741444773412
0.0002284009976264863 -0.013523164509535664 -0.004110029179631989
-0.00022061378547858965 -0.012475136098527264 0.003985987945031182
-0.00016394913834133344 -0.012435402626084658 0.002980521367038955
-0.000107181312554749 -0.012407474962574645 0.0019832356478098855
-4.8526499279214824e-5 -0.012390389028763785 0.0009907210709653117
7.193682021180841e-6 -0.01238399000621929 5.421970249243925e-6
6.719681098012535e-5 -0.012390308270937062 -0.0009863436254608257
0.00011854554111312776 -0.012406196622609751 -0.001978230612827047
0.0001768932975458644 -0.01243459880462214 -0.0029747384033563767
0.00023529263135531193 -0.012475987407309888 -0.003979868026634371
-0.0002273216964735843 -0.011462263076571772 0.003851117946801557
-0.0001695531565092483 -0.01142096024881783 0.002879713880835081
-0.00010999781043673435 -0.011390475162783992 0.0019160140514753196
-4.7819668455666434e-5 -0.011373103867109493 0.0009542295772094075
5.796617140389372e-6 -0.011368329787992905 5.332168019418857e-6
6.415378810169573e-5 -0.011372722994640823 -0.0009521986290248038
0.0001271136867929505 -0.011390165570466472 -0.0019096462149263685
0.00018297348068356073 -0.01142130501977314 -0.0028706840693965814
0.0002408402446829046 -0.011461102302117242 -0.003844588798107905
-0.0002342934664243484 -0.010483721552261155 0.003711363806131529
-0.00017541804424109586 -0.010441203239191772 0.002774065167012625
-0.00011544328143348632 -0.010408476869412396 0.001845561079533801
-5.5533088997149357e-5 -0.010390988458252672 0.0009215886826398347
1.4142553946680777e-5 -0.010382408716130663 4.2690521232127e-6
7.293749080521808e-5 -0.010389686228349354 -0.000916276238985146
0.00012896463025192348 -0.010407386071425379 -0.0018396930685643477
0.000192744830528891 -0.010438877520986024 -0.0027649992638391217
0.00024731394823341386 -0.010480117648280052 -0.003702017667768921
-0.0002433899108340996 -0.00954074705384831 0.0035670147927400727
-0.0001816898420257975 -0.009495941502572916 0.002665326296380557
-0.00011723865149735084 -0.009461944179105902 0.001773718509782218
-5.654365173435771e-5 -0.009443719075191398 0.000882617030361687
9.144747344395371e-6 -0.00943748994253022 2.767505719350985e-6
6.980871541697597e-5 -0.009444489610447002 -0.0008817901152971402
0.00012897150483730265 -0.00946369934755896 -0.0017670073623624054
0.0001953506405635346 -0.009493299104321758 -0.002655913911856691
0.00025960291934720156 -0.00953453886093877 -0.0035573096216055308
-0.00025013762979581396 -0.008630048476412598 0.0034172531107811025
-0.0001871434456661959 -0.008584607401744812 0.002551289705179824
-0.00012130185854582005 -0.008552280430527064 0.0016964489231526547
-5.630555451142261e-5 -0.008534107392925051 0.000848775569474454
6.005705631181026e-6 -0.0085290750919492 1.2355711875240526e-6
6.643534651071159e-5 -0.00853378748298357 -0.0008451313269056723
0.00014242791716709686 -0.008552222823259984 -0.0016930893454879586
0.00020370625541309126 -0.00858357926158848 -0.0025478228700057115
0.0002660191079310025 -0.008627099258469467 -0.0034093392940381297
-0.0002578083333915625 -0.007759641848748074 0.003261742361640778
-0.0001939043366314776 -0.0077136212903568 0.002437409174448817
-0.0001273563914067102 -0.007681314095533691 0.001622313997091519
-5.845178314352326e-5 -0.007660822755260272 0.0008082700220320429
1.001201938191698e-5 -0.007654060598983103 1.2355452924192494e-6
7.354549238101008e-5 -0.0076616226576399485 -0.0008050372498742889
0.00014139866944464026 -0.007679269529899199 -0.001616786927987221
0.00020587516192567228 -0.0077127681697975485 -0.002433671298385636
0.0002731542310786899 -0.007759679319550934 -0.003255950496682898
-0.0002670032245741655 -0.006931306759655846 0.0031037090322096382
-0.00019870770349606105 -0.006883608711060413 0.0023196514263208994
-0.0001310086410121065 -0.00685002186767195 0.0015433614141369242
-6.465149082982652e-5 -0.00682814425072232 0.0007673487230096546
5.9337807585796345e-6 -0.006820977452509667 2.95261406020104e-6
7.996302993744158e-5 -0.006827728846203722 -0.0007659363116330174
0.00014492377739707687 -0.006849506392534075 -0.0015362187977633142
0.00021340462179576797 -0.006887590317077636 -0.0023122591370129952
0.0002809105482206458 -0.006934499410106834 -0.003094865285471266
-0.0002738378928894657 -0.006142693199363279 0.002939341589282379
-0.0002035955681840763 -0.0060933686371201 0.0021967719207430137
-0.0001345688863698687 -0.00605727628491425 0.0014602157591912027
-6.379756657127048e-5 -0.006035780812517064 0.000727718188917626
5.031702199499804e-6 -0.006028014112919107 1.461219395108171e-7
7.209496108873815e-5 -0.006035820600505604 -0.0007233230046773369
0.00014692507119578956 -0.006057719804548528 -0.0014504626201546312
0.00022027064351757663 -0.006090958208708446 -0.002188376515855862
0.00029015028372130245 -0.006141117672518918 -0.0029305194691731503
-0.00028297053900875924 -0.0053967193447752556 0.002770731268473526
-0.00020988058503283266 -0.00534501324934731 0.0020692296489806606
-0.0001368769203806803 -0.005310091731101477 0.0013781159613516056
-6.699337551400014e-5 -0.005287096610321871 0.0006833866572602009
6.305218836831041e-6 -0.005278456096824169 1.893615562546382e-6
7.996743075129964e-5 -0.0052851389798998635 -0.0006810968610810802
0.00015096067800272336 -0.005306556222373483 -0.001371891943254999
0.0002211850220599037 -0.005341975084325139 -0.0020643199216961914
0.00029649320214677664 -0.005394596802080399 -0.0027636288508255473
-0.00029081231627216524 -0.004692513275044775 0.0025987647324260434
-0.00021752553660796747 -0.004639524696596835 0.0019400631378997258
-0.00014318888732475126 -0.004600838911456331 0.0012894549848869398
-7.016743574931216e-5 -0.004576807541946889 0.0006431863000558972
5.700279521617037e-6 -0.004570635121463741 4.046146298290492e-6
8.062261441037799e-5 -0.004578083143459709 -0.000637385711515779
0.00015445088946785282 -0.004597428225365624 -0.0012847257391643946
0.0002314573777535416 -0.004636934874588586 -0.0019300865578978732
0.0003032769402097155 -0.004687615328259721 -0.0025919587173872543
-0.00029751522196616353 -0.004031886083417356 0.002421138254694232
-0.0002229580069437566 -0.003978741324710656 0.0018062125497583425
-0.0001486369669858585 -0.003940259583818468 0.0012011841739329077
-7.497175738464754e-5 -0.003914637963482433 0.0005983182091360112
3.4870107127142962e-6 -0.003908279853576745 2.5195744693693076e-6
8.717323176484633e-5 -0.003913396496419379 -0.0005934164299673253
0.00016357413141477348 -0.003935235924787246 -0.001196132934168437
0.0002399038963886696 -0.003975492031660846 -0.001798391317188408
0.0003111166050769295 -0.004028640371600265 -0.002412437858470591
-0.00030418546510054407 -0.003417560165345108 0.002239745572379601
-0.0002269083961616238 -0.0033626899654127045 0.0016695399234051434
-0.00014979003860192373 -0.0033222425210876557 0.001109248691985702
-7.173349414319553e-5 -0.0032968353930720425 0.0005532226836376102
8.643225298023056e-6 -0.0032872811558184068 2.3667626932587466e-6
8.550050383494872e-5 -0.003295347361318301 -0.0005501687543882918
0.00016032122827035376 -0.0033185246768753025 -0.0011043499396515338
0.00024133355681250392 -0.0033551246243199366 -0.0016643293871640935
0.0003207392247764631 -0.0034091955048009778 -0.0022329921391435405
-0.0003124194605538416 -0.0028492626979661163 0.0020525431447160885
-0.00023353802026084241 -0.0027923833769226882 0.0015284031896424894
-0.00015398895010891006 -0.002748580023156784 0.0010136769910491972
-7.183590666769432e-5 -0.002723586284681112 0.000504034054668757
7.14463023178746e-6 -0.0027144077315726786 1.5193820962645846e-6
8.870777126322343e-5 -0.00272474037429314 -0.0005076001028412297
0.00016571249162566326 -0.0027469921493082803 -0.0010185955963908507
0.0002442047077606477 -0.0027851084056034602 -0.0015281828772865048
0.0003207507926876726 -0.0028427028018066206 -0.0020453520895189095
-0.0003198630186456892 -0.0023230872774150867 0.0018618259228912598
-0.00023923547611437557 -0.0022653071876297757 0.001382956029904837
-0.00015421190287001263 -0.0022261008872349686 0.0009175313964344879
-7.097765920027413e-5 -0.002206379016547327 0.0004529652818349729
6.814305583687202e-6 -0.0021954458178397997 -1.1353764686057137e-7
8.378312732068562e-5 -0.002197884118576141 -0.00046365924013421183
0.00016764957003913164 -0.0022227784830554593 -0.0009221584327127935
0.00024802326173590654 -0.0022621155028457697 -0.0013849090282024943
0.00033002846226281175 -0.002322998388066751 -0.0018527607280650479
-0.0003273782097950334 -0.0018478365671467983 0.0016669243776140006
-0.00024642769459217324 -0.0017903463982016816 0.0012418305694679548
-0.0001630050164286217 -0.0017491189139026671 0.0008212543202699201
-8.005069322300475e-5 -0.0017287657499998072 0.000408421209537878
5.218955409356338e-6 -0.0017180566914193189 -1.5509884001782785e-6
8.661077174453012e-5 -0.0017224625350827866 -0.0004139645733538715
0.00017270190393096194 -0.0017489388931229528 -0.0008253636913391678
0.00025732553995837 -0.0017926855964624502 -0.001235574743668322
0.00033632019926405776 -0.0018524143885136428 -0.0016594127356437678
-0.0003331860584514403 -0.0014287098379499523 0.0014706026367161367
-0.00025084086308406315 -0.0013672119412856403 0.0010942340477169286
-0.00016621863402475266 -0.0013267372712325988 0.0007278796132941818
-8.040877963915814e-5 -0.0013025553810580071 0.00035692811525638447
4.128330171416901e-6 -0.0012941134207975233 1.4928779163177617e-6
8.882431920747033e-5 -0.001302380613231971 -0.00036002577745710237
0.00017535944160940046 -0.0013283181879133264 -0.0007271442603299184
0.00025990523003183234 -0.0013707330075517152 -0.001092261278253771
0.00034077522172662163 -0.0014307367035333088 -0.0014634844803775877
-0.0003339137407699461 -0.0010618937724614999 0.0012727116084239344
-0.0002494508597535098 -0.000999904931331537 0.0009471907882001246
-0.00016670955959916173 -0.000955160385963783 0.0006266951950651565
-8.07758043201223e-5 -0.0009256004978575651 0.00030752411663585055
4.922037991968827e-6 -0.0009190511958905946 -4.3771435532103165e-6
9.063789738443267e-5 -0.0009293036611978045 -0.0003100306392697367
0.00017527325208949022 -0.0009563376032018546 -0.0006255747710713647
0.00026047155381626576 -0.001003482596284916 -0.0009420307375712921
0.000340766344254677 -0.0010633789238858726 -0.0012656051805418752
-0.00033266565496166753 -0.0007510582505652154 0.0010697378966804366
-0.0002514602920227945 -0.0006859517967792928 0.0007947061484094267
-0.0001665734307594212 -0.0006382989833971477 0.0005234282261125024
-8.405909251007167e-5 -0.0006092309589822605 0.0002556121647121582
1.4149227123144424e-6 -0.0005972266435616508 1.303855896430235e-6
9.208960586384743e-5 -0.0006082928824112431 -0.0002576192576495152
0.0001705112861042646 -0.0006380785605184746 -0.0005206801044820104
0.00025366750886941417 -0.0006915024457563552 -0.000788997581064614
0.00033579819915690126 -0.0007551955934345288 -0.0010598540991241814
-0.0003192127599647849 -0.0005009344074177556 0.0008638910957298444
-0.0002470885516909827 -0.0004337121930382601 0.000641078836699404
-0.00016472496143649613 -0.00038315284389155174 0.00041912747214529756
-8.674105382772682e-5 -0.0003547308682893367 0.00020018680869809158
2.038114649698551e-6 -0.0003442126561531082 -3.1915537853020855e-7
8.650327457875834e-5 -0.00035309964952305904 -0.00020340587241099306
0.000171495827585365 -0.00038214237865377606 -0.00041121688191938296
0.0002521888545733382 -0.0004304181492332222 -0.0006306450472178055
0.00032885863813860485 -0.0004941891768904059 -0.0008548759388782908
-0.0003043837687384854 -0.00030222799244166863 0.0006577553151087584
-0.0002242770252719498 -0.0002323015735040992 0.0004808646830180437
-0.0001589246964364429 -0.0001818036864063596 0.00031525746047421886
-7.904039090222361e-5 -0.0001521285105895386 0.0001503900738781531
-3.656346545135253e-6 -0.00014369377443527494 1.6797044092917897e-6
7.827407268832005e-5 -0.0001501217677504582 -0.00014890657382332322
0.0001550672007207175 -0.00017881876170095965 -0.00030900278689533406
0.00023931333469207793 -0.0002247192272620916 -0.0004776905558708644
0.00031045853116329 -0.00028862772881749525 -0.0006509150032619106
-0.00026212629405606927 -0.00016358946295762065 0.00044701506758127655
-0.00020841167891151667 -9.492895746918866e-5 0.00032766466273419405
-0.00013185208289742217 -4.52199227401728e-5 0.00021009085985240745
-7.359434274511845e-5 -1.8498870236808004e-5 0.00010163943751047711
1.2317668948446283e-7 -7.356139410382451e-6 -5.837512251811303e-7
7.166463978502056e-5 -1.1244371446620279e-5 -0.00010462866404028038
0.00014304160415386672 -4.358991466033956e-5 -0.00020193963848542893
0.00020631222478315384 -8.501804123994369e-5 -0.00032512437612761965
0.0002694189138493862 -0.00014344433588456702 -0.00044476730100291003
-0.00018413358320436616 -6.927799228058284e-5 0.0002108436736587813
-0.00015791103512199722 -6.241829676075634e-6 0.0001716521623524394
-0.00010816130014608706 2.330199038186469e-5 0.00011138467864131184
-5.8602981304900496e-5 4.1420079712941725e-5 5.798470662233495e-5
-6.858370125025765e-6 4.658957227376751e-5 4.3208896405915425e-6
5.4978139108431054e-5 4.40948215085757e-5 -5.772628754147475e-5
0.00010475405993884545 2.8879718292895492e-5 -0.00010964311427671516
0.000149234023150857 1.2202043869011643e-6 -0.00016896798693711427
0.0002018951930733953 -4.579974333381133e-5 -0.00023570958060931767
5.955344033869612e-6 -0.007155576731196902 0.0007754965254198358
2.3124483300236108e-7 -0.006856896460531421 0.0015913134122206624
-5.627224194539726e-6 -0.006790792487488856 0.0007021211007458938
5.491436941993591e-6 -0.006261137545856165 0.0004631591480491189
5.298415861760208e-6 -0.007025497793063701 1.1311075556489705e-5
2.7159476579518114e-5 -0.0034834203713733944 -0.00046033639740281827
5.425131948917697e-6 -0.00418108126259126 2.8074062600617018e-5
-9.060431648161885e-6 -0.003622020739228772 0.00024329000677721405
8.32527347662782e-6 -0.0037716842447069942 -7.532489708763675e-5
2.8526499844342675e-5 -0.004038579113013128 -0.0006198946342968202
8.380735690898534e-7 -0.004521024501704818 0.00032854375052400795
-4.5920648026712e-6 -0.005004280769301321 0.00031706687128889684
-3.542753582795077e-5 -0.0041860149434797145 0.0009110460853482317
6.816743151924424e-6 -0.004888991972149567 -9.488565897969543e-5
1.8073785989929403e-5 -0.004614099812166538 -0.00042124458671041753
2.38625433217636e-5 -0.003851241394732473 -0.00023805364885139924
-2.5364570302667236e-5 -0.0036511208499658302 0.0007299153786691826
3.854460589969256e-6 -0.0170163091075578 0.0005717807041907297
1.8385763986956632e-5 -0.016497130993975796 -0.0007432411227713031
-2.322702232902213e-6 -0.016266433546652248 0.0008543751381376239
6.795487633208226e-6 -0.01765483393917042 4.325124543702527e-6
6.329188241207723e-6 -0.016616611840426964 -0.00039557692150570423
7.81701985774111e-6 -0.015781323548143985 8.708057140613135e-6
7.514844165771425e-6 -0.017683653616995355 0.0003949873025841842
6.182584145456904e-6 -0.017933154743946068 0.0015136033984549798
1.2388717459442185e-5 -0.01687342893819711 0.0018259120311762004
1.0771834136297753e-5 -0.016043457393766006 0.000579827721751282
-2.235292306694488e-6 -0.01803958181524597 0.0009086524383469733
5.26090118694972e-6 -0.01858054932771768 4.466940472153776e-6
1.457056276419845e-5 -0.0020601116289687953 0.00027324170939228777
5.81973937661181e-6 -0.0020321965089127735 -0.00019657730533289522
6.232991927409744e-6 -0.0025429077891983547 0.0002719156603646213
3.7228006223673956e-6 -0.0024205583312078612 -6.4414451703317235e-6
5.464774437896849e-6 -0.0017598342921566047 0.00032429841907895236
6.493430041160215e-6 -0.0019558579357990503 0.0006959759767685735
4.4388047572856125e-5 -0.006091167941299449 -0.003056762063955411
4.630768033810931e-5 -0.0069127262488260875 -0.00274476676557682
-1.0413021454959078e-5 -0.006513205835754455 -0.0031903037588029886
3.5785257182665976e-5 -0.007061792883785959 -0.003345700479854635
3.233526194569085e-5 -0.0029111916235962823 0.0005060222755051914
1.332744178518258e-5 -0.002350973078015967 8.329901022313753e-5
6.082190558497612e-5 -0.002412891863336926 0.0006255544857916796
3.6305019281841835e-5 -0.0017296227712710556 0.0005311281868194095
2.6603145149158368e-5 -0.0017472726586197156 0.0007640610803265354
5.716172470017119e-7 -0.00057330485169119 -0.00022709814543350743
4.85945575700789e-6 -0.0004614841582754678 6.690204195229577e-5
6.415443217126475e-6 -0.0004028953870076752 -8.154421196825782e-5
-2.1449395602085094e-6 -0.00029670797663404095 -8.46104150583862e-5
7.731135113288097e-6 -0.0009973461986309488 -0.00028424794109407724
1.3738480203560052e-6 -0.0007512347316926668 -3.579266123071295e-5
-1.7645613396502307e-5 -0.0007081261234139927 -0.00038063313829238694
5.518662157790629e-6 -0.0006410811248055129 -5.1795207363291626e-5
-9.811342440533293e-6 -0.0060268421868843475 0.0008549143355013447
-0.00027694085690670894 -0.005158073860888655 -0.0028890617630111773
-0.00021770612054979697 -0.005419239354313856 -0.0027095467484092427
-0.0002640765094746123 -0.004972817288012947 -0.002882327966226526
-0.00020610021855093377 -0.004971084024741755 -0.0022836843031360135
-3.905779435730522e-6 -0.007648008630493132 0.00144978974510759
-4.238600363341612e-6 -0.007716108060466514 0.0006136168809232101
-3.0822885137232285e-5 -0.007298493129057522 0.0011500184308409049
4.367311928203701e-6 -0.006946785042740126 6.317152919069412e-5
5.533677771568111e-6 -0.02060700721630191 0.0009953685329332823
8.592218918827429e-6 -0.02038773432657938 -8.124344078554742e-5
5.7197042496230445e-6 -0.020253242963689255 -5.8044107757505456e-5
1.1745147549896221e-6 -0.01960865325930797 0.0008513808439943188
8.754345834425028e-6 -0.022448936948222756 0.0020538158717326054
-3.7136983008945234e-6 -0.020725558602442577 0.002028996510218104
1.4459977722938e-5 -0.020779888498572093 0.0020703502707208623
-6.62303434900664e-6 -0.02077639715038986 0.0014117277546725798
9.848111863073122e-7 -0.0220483150638552 0.0010207424227189582
8.175491241382642e-6 -0.02173882834518455 -7.195131742525511e-7
4.4084219402485715e-6 -0.0015311939107310693 -0.00030905975849478324
1.914713383140558e-6 -0.0012079565587262006 -0.00018510499704129329
-1.4619461688320848e-5 -0.001274581119015662 -0.0005872490027206556
-3.539526361106141e-5 -0.000841859779420894 -0.0003781281847170052
-2.9947907883428744e-6 -0.0009793376255297149 8.058286421805876e-5
2.4783812149424277e-5 -0.0008349969810594173 -0.00026054316924880807
-1.3374878148985485e-5 -0.000836524622691156 -0.0006810813767514492
-0.00017437779626560605 -0.015368940541262198 -0.004652951846905305
-0.00018137659505679086 -0.014128371333999527 -0.004517453795369976
9.824662601333608e-6 -0.001085775729451102 0.0001421197005332034
2.936735793548538e-6 -0.0014608106320151723 0.0004717791403156098
3.226103667949831e-6 -0.0015758171794356568 5.335506607553097e-6
4.6390468576219195e-6 -0.0013915603485275152 -3.5842673580122416e-7
-2.273771875784022e-6 -0.0010949707775916948 0.0006060410304133408
2.359785591816652e-5 -0.0009847385172588525 0.0004100658376426579
6.51676761388402e-6 -0.0014651213620358882 -8.686080725661637e-6
3.323407622904401e-5 -0.001277344723692616 0.0004910520002740723
3.148239537535228e-5 -0.0008778515308892593 0.00023507516736119398
-7.186808087632552e-5 -0.009616988587588924 -0.0014523625462639213
-2.3896805477859575e-5 -0.008673879440307501 -0.0005705513553731307
-3.577401820129595e-5 -0.009672800177251502 -0.0011756426204172353
-3.0879640961010606e-5 -0.008610672408784789 -0.0009746701674734955
5.235603893347307e-6 -0.01419084874935749 -0.0011655527478413353
1.771319983322219e-5 -0.015269011418918732 -0.0009774960226625665
4.47086075788668e-6 -0.014568805605026746 4.261903467268362e-5
7.860516913420514e-6 -0.015698535032921773 -0.001064092722453819
1.4212364857503817e-5 -0.013625513955978998 -0.0008437838236854164
-1.5393054039561486e-6 -0.0160595282121736 -0.0011328992163217226
7.83041878241841e-6 -0.0173936623259261 -0.0015675628680667036
7.903888611443643e-6 -0.03910682337357628 -0.0008671868759297364
5.992383016236357e-6 -0.03821231003756997 3.0180272922271072e-5
3.719937632339614e-6 -0.0394676033122139 0.0005312501649948123
9.47040192281422e-6 -0.03952789404831935 -0.0005975351691347392
7.075857968282456e-6 -0.0378467219708371 -7.696766098983598e-5
6.492646752947389e-6 -0.03829495470110276 -0.0019408065183831654
1.3698422156003678e-5 -0.03832557987683725 -0.0016299576512521126
-2.9591894770688134e-5 -0.025905457916169203 -0.0017506855519197396
-4.56438719065038e-5 -0.024474811458386193 -0.0030680873412064513
-1.3999406514027724e-5 -0.025849702154993163 -0.0013636404193097763
-4.346021575413544e-5 -0.025765144674311423 -0.0031749618065371066
1.3905357387352593e-5 -0.03952893118880824 -0.003520918008281136
1.6925843801617125e-5 -0.03962791123432061 -0.0027693737317096095
1.0293147407076166e-5 -0.0409552450736288 -0.002492217235633636
5.868334956711095e-6 -0.04015666829657803 -0.0020492724394921107
5.812803593349749e-6 -0.03989892371200567 -6.375795196172467e-5
1.249867136843711e-5 -0.040721077857852006 -0.0018406232974588013
6.164268498008406e-5 -0.025606434030578572 -0.004031798159398876
4.4720874384424375e-5 -0.02602459935442615 -0.002675898982322671
3.657770219302751e-5 -0.024522037681863507 -0.0033149233833040317
3.2324330377622535e-5 -0.025945370927543118 -0.003933157372637596
2.6720457011272584e-5 -0.02514903994122034 -0.002040983336749299
2.1939542288806387e-5 -0.024194091432209745 -0.0010667205240483518
1.6350124212741137e-5 -0.02427460276952472 -0.0012983979556467045
1.0177543303305534e-5 -0.02527308130936515 -0.0001890152849965301
1.64548279356755e-5 -0.026015937709854203 -0.0013213945901639286
2.8163661713220603e-5 -0.026519045311619645 -0.002371165610092945
2.194032516786132e-5 -0.02680947670815084 -0.0011525463545098956
3.2383871029390926e-5 -0.023612152453636397 -0.0021780955407711485
3.334221335687847e-5 -0.025120602142000962 -0.0017689623955972097
5.1317567988461145e-5 -0.023922678744277694 -0.0027245192877453747
1.5527225948826624e-5 -0.02529503281334115 -0.0023627068625477624
4.101999002789203e-6 -0.0056679404216593045 -7.5779841950284676e-6
8.17333305049704e-6 -0.0054679622018963805 -0.0009541355503381158
9.440813448867003e-6 -0.0061868158144834035 -0.00021194181791468736
-1.4184546085693674e-6 -0.0063029795377603295 -0.0004237317049834893
1.4024719043824853e-5 -0.005775805062932298 0.0005557803453770181
4.947772866735395e-6 -0.005711681680436565 -4.772965855269522e-5
-0.0001954492524863692 -0.0008027022749315625 0.0008898601980066156
-0.000255218095032685 -0.001289247727557445 0.00141389449164603
-0.00013561772026204284 -0.0009873052266710454 0.0007282947034993367
-0.0002484173117925132 -0.0010041841854912976 0.0010658266219668274
-3.336279498887792e-6 -0.009146305805623674 -0.0004306553621233058
-3.0458620042457727e-6 -0.009421120239286769 -0.0008025024137253905
1.1287474881670736e-5 -0.00854005231352594 0.00024297248539513431
1.379841009001592e-5 -0.00959299938542329 0.0006592256620381865
-1.8083026711299415e-5 -0.010341652262190292 -0.001149593516659088
1.123423551444376e-5 -0.010364010165914945 0.0002328881837682392
-4.183230398256815e-5 -0.009130829278177103 -0.0016769992941181174
-5.718854618846814e-6 -0.008241618319294345 -0.00028659199302533746
3.1334607923303706e-5 -0.008531998870468911 0.000852790153485803
-1.545840311614414e-5 -0.008449672919914936 -0.0010084482641256535
-1.279045168407757e-6 -0.02805154833443865 -0.0011838786794861754
-1.7530320035591835e-5 -0.0292350701373884 -0.0028251572464497356
-2.2066536284426418e-5 -0.027860014586405017 -0.002770595623896369
-1.0207197609815629e-5 -0.028550198281668385 -0.0030761251330274843
-4.502007785638745e-6 -0.026700089286242654 -0.0033387038383506
3.552162139662399e-6 -0.027762279645677596 -0.0018494498779434729
2.2002659632025025e-6 -0.029198984822736442 -0.0033432034572830438
6.5219262890070144e-6 -0.014859086490932484 0.0012043615924615073
-9.132703558706837e-6 -0.015853934965726957 0.0020522936137337133
4.395088737638599e-7 -0.014944149097850577 0.0007265052468691679
-1.2440672397450184e-5 -0.014825041736864145 0.0023132592494967898
-2.7579532611852815e-6 -0.014751977102379845 0.0030478374352670137
1.3599324233886382e-5 -0.01522800898019956 0.0023738692475151553
1.9139437644875683e-5 -0.013663827283256701 0.0021601090201905505
4.200841091741193e-6 -0.01378385075687121 0.0014289838907039813
2.396911842258578e-5 -0.014462045363723667 0.0016665937302300692
-0.00014524222240469656 -0.0009883858214508852 0.000974559316091721
-0.00025827586790448805 -0.0009715111350325043 0.0012236050337083766
-0.00018693368165497695 -0.001336385757882969 0.001423123626795956
9.215679176665206e-6 -0.013398117577819228 -1.3908426343462622e-5
2.2174838822449056e-5 -0.015351225536101012 0.00123252494328744
-1.0142029025130329e-7 -0.032151979754116426 0.0011892498928111426
5.582830549782966e-6 -0.03331452117245826 1.9156487245504795e-5
6.260285332112688e-6 -0.031804233261737654 6.895755869652192e-5
6.659627159670454e-6 -0.03192134206048028 4.054870741850976e-5
-8.443956732489104e-6 -0.03166852631990239 0.0016560879846997452
-3.5845505076514464e-6 -0.03310040167660138 0.0011925012420025184
3.3248498675714657e-6 -0.03217355577236509 0.0020281045415456284
3.607905604069183e-6 -0.030285586585149668 0.001510210935066278
-9.182603396288895e-6 -0.031080869479036904 0.0027135674704012363
-9.364634876125512e-6 -0.032503867989034506 0.0023842986701593217
1.5848177294724008e-6 -0.03354177039864644 0.0015412879275679787
1.3293195011502075e-5 -0.01798270652387644 -0.0007774647749563887
3.4753210670941715e-5 -0.015839594420916484 -0.001934105311131273
1.0047232073813761e-5 -0.016325502126123145 -0.0022887980245364925
-9.526127826624948e-7 -0.014930687854479562 -0.000831137800355002
-1.3299090029652972e-6 -0.01502061720698792 -0.002036254670516077
6.1097217740729614e-6 -0.017112961311217458 -3.9669790236785794e-5
2.964765820474644e-6 -0.017469527486385302 -0.0007805890500736961
4.012264780749416e-6 -0.041645655933046644 0.0011174457569099812
5.891010535242192e-6 -0.042748950011374645 -0.0003748167749779255
5.59451579545927e-6 -0.04298563161653315 0.0010513350310912615
5.037188751866544e-6 -0.04138544842139097 -0.0001502449019856882
1.5477649757798464e-6 -0.041448159580392635 0.0011913085606672122
5.351873782704123e-6 -0.04243385237701234 -5.602574241845354e-5
5.183525381372509e-6 -0.041015746248061945 -3.0474630833766177e-7
4.423483394709468e-7 -0.04262224230677619 0.0023911829495609554
2.4154174862239266e-6 -0.04060750309156658 0.002427792289722925
4.41656078238983e-6 -0.04360511552519946 0.0005580710736607844
7.044805641450152e-6 -0.04127424596526628 0.001794198973981074
1.124070172095316e-5 -0.030236832694899 -0.0007173942525145511
5.458281426432418e-6 -0.029441124013030378 -0.0008209783002038916
1.3844392517983037e-5 -0.029338052489295482 -0.0020213677966631383
8.952191037940765e-6 -0.031042155648328986 -0.0011780501251959995
-6.728267002877593e-7 -0.02965213670044833 0.0007783506010893139
1.6598882005624196e-5 -0.03008389162309073 -0.0008693556954714192
7.5973958936874305e-6 -0.028407867630281733 -9.962430212777609e-6
7.902977708666506e-7 -0.030983585606701215 0.0006600036214123882
2.0941560520165166e-5 -0.02851783582862972 -0.0011537391603979198
9.541719774510538e-6 -0.028836379485902872 -0.0005598081180596326
1.2250268268200453e-5 -0.0420227102004717 -0.0021324931994129866
1.148886153390677e-5 -0.04352611096279137 -0.002420784959563237
1.6890160187110032e-5 -0.04325180495489535 -0.004239283274189744
1.8667285694360167e-5 -0.043223832920390774 -0.003048693893974746
2.04450742359119e-5 -0.04071065354527595 -0.00268098016205745
1.4354263559595462e-5 -0.04209754247606104 -0.001662073237374789
2.3265267244483425e-5 -0.041631834349744525 -0.003692027265870238
3.152976455901019e-5 -0.025173202724045822 0.0020158910572678317
8.24161097319215e-6 -0.024792994596564675 0.0022335333633372472
3.9891872698708113e-5 -0.024631489342375232 0.0028465147984951364
2.8111386627600695e-5 -0.02560475825515999 0.0031769928981394157
1.2052608640704255e-5 -0.040832070516652226 -0.0012452007756507124
7.185116996747053e-6 -0.04307021222689557 -0.0011732224265411934
7.563396219539194e-6 -0.041413395002353595 -0.0012087106601056823
5.554299652563303e-6 -0.04208311315252819 -0.00010486251313620235
9.28912402342061e-6 -0.023267490087710778 -0.0012456326461460423
9.601596532499828e-6 -0.02177398050674768 -0.0010134704571509692
-5.392076347594588e-6 -0.022037715501747584 -0.002171947828366808
2.481041135608951e-6 -0.022408634650569435 -0.0009763708184197303
5.088280510404638e-6 -0.023960664907333146 -0.0023907554694173033
8.433031709185835e-6 -0.025009867006368713 -0.00041394993819166904
0.00020474424259828885 -0.0001561934931054807 -0.000340818428186506
7.725173275396664e-5 -7.717449258914324e-5 -0.00012751306332685805
8.902895811917181e-5 -4.7950509657030846e-5 -9.805727362445487e-5
4.745575879211111e-6 -0.024813868863341953 -0.0005585686823020628
-1.0475924792591951e-6 -0.024201709391067215 -0.0015732850738452311
1.7416296688518897e-5 -0.023025498086351896 -0.0011205484342075452
8.359685914273743e-6 -0.023088388245714787 -2.168125819321914e-5
0.0001382943302662907 -0.00033364402791926 -0.000507037013864282
0.00012886757672200933 -0.00019476336246771863 -0.00030412910583799157
0.0001164474950530659 -0.00041920161411849826 -0.0005284656413782942
0.0001795521915757316 -0.0004303925102724964 -0.00059148043728001
1.2125779103735176e-5 -0.022661774627135024 0.0009396078259351781
5.47671153865212e-6 -0.023751113162219634 -1.0007566356849415e-5
7.255891922752345e-6 -0.021799665163671208 -6.204856596546487e-6
1.188564687194756e-5 -0.02413763076995267 0.0012750543108414826
7.74548315451162e-6 -0.023429235239452298 -3.3207048802201764e-5
-1.7504310124310344e-5 -0.004017675496137785 -0.0008076463293161625
1.1208280350757876e-5 -0.004129930757966805 -0.0003350017737338292
7.490034027115042e-6 -0.003451548171538078 -0.0009168377210083628
2.767932518490615e-6 -0.0037324331904346137 -0.0002839559062505101
5.800417919130006e-6 -0.0032806683176944663 -0.00029988707777172524
7.271562960424855e-6 -0.004062807999055327 0.0003295660788718032
-2.9642757836959732e-5 -0.003485525824657798 -0.0008390648057264215
-3.068909416212285e-5 -0.003818613909403167 -0.000634837761758846
-6.339833452936661e-6 -0.0033451982322234854 -0.0003113188417356846
-1.2302507864175725e-6 -0.004503136402905826 -0.0005503105546833134
1.466090353138297e-5 -0.004213390602532379 0.00031948913704512314
-6.981205481403936e-6 -0.0041777149160129225 -0.00025823388032909767
3.4512230239047962e-6 -0.002777913323431997 -0.0008191514522042714
2.297291552517561e-5 -0.002782877912942662 -0.0005719856161277336
-8.164296317087007e-7 -0.0030132875864499514 -0.00027489742882359265
3.748859455095583e-6 -0.003129658687670843 0.00029736200730549927
5.926569143551938e-6 -0.00279939380597783 2.636041233893517e-6
6.021337967410164e-6 -0.002645782667863299 -0.0002948902111546368
9.459476064108033e-6 -0.036610212355709895 -0.0006538415146758745
3.6243092478554926e-6 -0.03635070243602672 0.0006301328393403454
6.10620074807968e-6 -0.034921691548814714 7.749638477354031e-7
1.0414592636855345e-5 -0.034753529460276864 -0.0011384315273601643
6.48362578613709e-6 -0.03663350501801578 0.00043236777599337846
6.137815639853205e-6 -0.03554212544895316 -0.0003800159294190085
1.0234075633992634e-5 -0.036660246947152274 -0.0018780115241036276
6.648523076371192e-5 -0.0033658626817537006 -0.0009010315720834328
8.798982334394199e-5 -0.0033603797050519657 -0.001572349516351063
5.253940752793454e-5 -0.0029384674961659644 -0.0009188014514061129
0.00010350820774061456 -0.002901964119827478 -0.0013188290505093292
9.797226307186269e-5 -0.0027306157267550915 -0.0009220224960299319
6.768797300270306e-5 -0.003989142982484913 -0.0011589730907796514
0.00012994820452396253 -0.003585954608151053 -0.0016588113000442731
8.026348363158217e-5 -0.0038234724328123464 -0.0009293433577171653
-3.035098808924648e-6 -0.023587891214059277 0.0028884771874675285
-2.1346318327873434e-7 -0.025025414629937293 0.0033736459027751587
-2.7477300437612642e-5 -0.024485450817235313 0.00423405430871049
-1.6325852998846812e-6 -0.02292421039589692 0.0041635461656211355
-1.4666732564116276e-5 -0.023139318781922612 0.0025840561148535728
-2.8705648309785725e-5 -0.024037806206693397 0.0031960259989079125
-6.738598483033672e-6 -0.0246882405545398 0.0022073984501790097
-6.032395772140308e-6 -0.02220614697349657 0.002943992583475908
4.406053982096101e-6 -0.023259072020767636 0.0013851221889998482
1.582577453306464e-5 -0.02397533611179825 0.0033288640749357876
1.6122678151039317e-5 -0.03157875097942545 0.0025304326576409183
7.898330007834518e-6 -0.030816603441368398 0.0025483165377770227
4.41117344305898e-6 -0.033132393999931606 0.0031689592061022636
4.720633697056361e-6 -0.031876068077328096 0.004589606714010702
2.430970199366794e-5 -0.0332943604656734 0.002983707001911775
2.7550266050940822e-5 -0.03191680094016601 0.002553239662147801
1.5725072411262824e-5 -0.03292222813320253 0.0032173330966495006
1.6692503301885617e-5 -0.033117435747755136 0.0014294596470107311
1.9888827575784438e-5 -0.04370666454875243 -0.002498260093149955
9.653845623394427e-6 -0.04340455405851223 -0.0007172233171427894
1.735653186174115e-5 -0.04460449923963827 -0.002381464260399792
-0.00022806951487740415 -0.005592529662887027 -0.0026849781605828332
1.3912074931462488e-5 -0.031855235766340945 0.0010622238646423425
8.676094216821568e-6 -0.03210587277838864 0.0010296140384070036
2.0635540344871188e-5 -0.030612090103981356 0.003524822929809117
1.4663326212025769e-5 -0.030227921651418632 0.001848089644084385
2.609626231764162e-5 -0.03255382002854923 0.004503509312854004
3.451022488524547e-5 -0.03120927904173683 0.0035341446365559333
2.893908550084296e-5 -0.03031776810245595 0.0025316733176924105
1.8246396163860588e-5 -0.026669289283651983 0.0032456275454814812
3.0476905905999244e-5 -0.027211242159782576 0.0029144414975606136
1.0995600893973684e-5 -0.027737120487046973 0.002286826420612558
1.5285274898600015e-5 -0.028542530208371168 0.0034642193652448996
3.7950433206479574e-5 -0.02624026809925331 0.004339478552512106
3.188705326470061e-5 -0.028530216744789196 0.0044880913840370336
1.832307334414961e-5 -0.0254041045356023 0.004432221364434092
1.5787329065504347e-5 -0.02678123586686871 0.004549823481275237
1.628503380140522e-5 -0.025880053357915368 0.0018907578053131368
-4.038194019986419e-5 -0.008418559270517528 0.0007999880634315954
-3.4543907174972455e-5 -0.007414940929494136 0.000546344871832188
-7.738865663521984e-5 -0.008039500893482042 0.0015171637858474533
-8.44193826799729e-5 -0.007619753906148787 0.0013115894017416115
-5.240052876291684e-7 -0.026358506117791856 0.0022525343772804955
6.585211712267365e-6 -0.026153328786063156 0.0033247714818657446
7.29117519772092e-6 -0.01225683522063433 -0.0006104563685555519
2.400389951155125e-5 -0.012853641148342232 -0.0009080421461858611
1.3563497843215668e-5 -0.012248102925140955 -0.0016054139606921775
3.2116454928054526e-5 -0.012046927977449778 -0.001376365350302137
6.182564043869898e-5 -2.3780747569717775e-5 -8.282685867532474e-5
4.266509354594341e-5 -4.478800639455178e-5 -0.00010340613765907273
1.4507180002299316e-5 -0.0005259652368870931 6.163172217245189e-5
-1.0470409679097586e-5 -0.0005717598732752187 -0.00014715259969720406
9.032359881044754e-6 -0.0005158648687595564 5.4025487761518226e-5
5.51670980964711e-6 -0.0008399148651106527 -2.230176565955475e-6
5.0513674846552645e-5 -0.0005024989770781796 0.000269532497494926
3.203531444233449e-5 -0.0003298187735708993 0.00011720877335038233
1.8433080159771054e-5 -0.0005033427096815906 7.029809016962536e-5
-2.9438119630763793e-5 -0.0006680615826874056 -0.0001901302443664359
4.184144518280323e-6 -0.0007601663455270784 -7.641293341787675e-7
1.465964915141461e-5 -0.021681962008144855 -0.000987769241860021
8.402220062721321e-5 -0.032822963924162445 -0.005881495561601705
9.247973563735426e-5 -0.03194248216174646 -0.005021809805842988
0.00010700483403954632 -0.03186425586425173 -0.005928759749407802
8.720918379784879e-5 -0.03149993518659091 -0.005842649721006236
1.8087322506468126e-6 -0.0010017520295428225 -5.909065634632564e-6
1.389988862226051e-5 -0.000530507989481443 -7.195474526090714e-5
5.691324073986008e-5 -0.0007241524853091769 -0.0005672140610096537
3.348517902064772e-5 -0.0005196764288624483 -0.0002687985151652587
4.140358512505485e-5 -0.000835681191607334 -0.00026153285875043776
2.08171677919125e-5 -0.0012741773358312563 -0.00028919493858409483
5.5302417016666465e-5 -0.0010458732962581618 -0.0005187952633232326
1.8250064052278208e-5 -0.003628199384909949 0.00017497889752893087
7.297580336739058e-6 -0.004822652187904792 -6.751726910524685e-5
2.6048200444189145e-5 -0.00434249515801673 0.0003180145817409791
4.1930584527538815e-6 -0.005036187041784952 0.00038853878410244466
2.8128965709397563e-5 -0.004383667955431688 0.0012970842590547843
3.032804470167312e-5 -0.004761791767044052 0.000693298511552969
1.9220356363507004e-5 -0.0036154595937422838 0.0006304897601832149
4.331342431310212e-6 -0.00403095637580818 0.000994434471645629
4.746354753179135e-5 -0.0040420254610003545 0.0010737712422296353
7.434689451181226e-6 -0.0408173433066536 -0.0034675450184487944
8.089882193449009e-6 -0.04227296280511121 -0.002421049786521493
1.3402067666835593e-5 -0.041799974264924156 -0.003699130483807506
1.9407235687961944e-5 -0.04063969577547794 -0.003739096228450862
2.659232498882594e-5 -0.039396483187501066 -0.004719107560960932
7.033537818049862e-5 -1.1848485387975824e-5 -7.388148007514472e-5
3.7650663796606674e-6 -0.0364704965562431 -0.0015229771134741942
-9.015648124801603e-5 -6.470990423358204e-6 9.416829729304932e-5
-8.614170535174873e-5 -7.779438009755751e-7 0.00010216791549647659
-0.0001348412049172134 -4.980641310155973e-5 0.0001928012646522803
5.40533130264502e-6 -0.03765857710472617 -0.0006661668091163729
4.3733600743197805e-6 -0.038144811361394186 0.0011991254171692441
7.54045935941367e-6 -0.037272795468430306 0.001403321053178986
6.628041764313081e-6 -0.03887948434650908 0.0012348135164394409
5.612546495256839e-6 -0.039323465712871236 5.356589095441953e-6
6.633947889974701e-6 -0.03698861887363984 -2.7076506603551213e-5
6.46054804347423e-5 -0.002463892378209268 -0.0011260245777934205
6.852447067645736e-5 -0.002456123167359674 -0.0007918186283314628
4.028799209456797e-5 -0.0021923167712132497 -0.0006879067513329737
0.00010671507900896105 -0.002114479213303926 -0.0010688262349053755
0.00014468867290347843 -0.002476936136434001 -0.001573548760931849
9.321060924635349e-5 -0.002193616144239154 -0.0014177903903454107
5.181219459982593e-6 -0.038435996821659595 0.002491065949369632
-1.7598594916374935e-6 -0.039625591232736956 0.0023283305759747262
-2.4053570302245192e-5 -0.0026870705879981035 -0.0006652261085474644
-9.840714193602396e-6 -0.0022121989509167692 -0.000470019155571517
-1.041904995403473e-5 -0.002271205288204086 -0.00025532043768722816
4.852751144030463e-6 -0.0028565940365475576 2.593287770124524e-5
6.539276905971766e-5 5.386765889376771e-7 -7.662665321922323e-5
-2.6255153386909292e-5 -0.002935756464263885 -0.0011533088158490303
-6.7831302590534275e-6 -0.022879819181032778 -0.0030768245395331874
1.0806726675559491e-5 -0.00787839666834121 0.0003748326611449401
8.025991840576826e-6 -0.008357902807172619 -6.069673160075616e-5
-5.8370026371019475e-6 -0.00856332560448446 0.0012989828892929535
2.578623730437063e-5 -0.007468114623910934 0.000873379933364554
7.325629620337335e-6 -0.006997194545995121 4.212167994681646e-5
6.494453113149652e-6 -0.0069409695312355165 4.4731961735245786e-5
1.5752337429236402e-5 -0.008041398971283807 0.0017053077106157102
1.57332837507624e-5 -0.006350657510610767 0.001144987847816284
1.7846103085512672e-5 -0.006654968142132534 0.0005828895868216992
8.25020135222423e-6 -0.007319415781182941 -0.0006174416310185178
4.896137926741156e-6 -0.008249625627153345 -0.0006835468436541148
-3.2562129237440014e-6 -0.007350312468428213 -0.0006467808912912081
4.313549100209203e-5 -0.007006778159425818 0.0016590318632438105
4.841172814733419e-5 -0.007342795849841748 0.0010635692010476617
1.0714500536057813e-5 -0.008850856788985255 0.0008040512678438703
2.608862251901055e-5 -0.008401956486021076 0.001136225675259381
9.232828496702428e-6 -0.017347857180702718 -0.002744272301141504
3.535397441155679e-5 -0.016598699876400135 -0.0034536753461863324
3.4130195058708396e-5 -0.017946430565208275 -0.003558738705804003
-2.280723894748388e-6 -0.01689264033782938 -0.0037718739939561928
3.617945635482019e-5 -0.01745537763398729 -0.0023198794714929063
2.3481194147066338e-5 -0.018268159737101358 -0.002417019420016233
-7.135503747729703e-7 -0.018638353504498457 -0.0024116752214615694
1.9903179980687667e-5 -0.006971129024819434 -0.000670272621357421
1.05879453819527e-5 -0.007835960253044602 -0.00010689456977741719
7.146247358820135e-6 -0.02018150689519381 5.199641958421384e-6
-2.9780183685329404e-5 -0.02055007701726172 0.0020986272674330514
8.768360681363724e-6 -0.008852668388638957 -6.495947114702154e-5
-1.4322392312235791e-6 -0.009178652176674174 0.00048553781739866435
2.4140402283953405e-5 -0.009021661359164716 -0.0006358819038734852
4.139289354964094e-5 -0.0077850279635249525 -0.0012906653807647384
1.4333482242984178e-5 -0.008862785487902163 -0.00010377583236939702
2.231134843745095e-5 -0.002782466794239825 -0.0003233463720250893
-5.06076408462259e-6 -0.0029670774082112836 0.00024953362195255605
1.1436826779230484e-5 -0.002058028825636816 -0.00023655106389082792
-9.444859408931265e-6 -0.002298945409796382 0.00017790187209603222
-1.1752831458925361e-5 -0.002586972606472102 0.0005410941766197946
-1.7209970375400092e-6 -0.012657887538040325 0.0009902281282265142
5.0541758582638475e-6 -0.012404790523432423 0.001642122712090353
-1.2825047234198327e-5 -0.013637198247604523 0.0020798954959277273
2.8738667908192093e-5 -0.014442971250815282 -0.0014854732984327277
4.830630124382809e-5 -0.01487955636759834 -0.0022938634558631508
1.8800014801026845e-5 -0.014987352738739574 -0.002031022471351246
5.1884793444696786e-5 -0.01635562124188825 -0.0028681548447444336
3.625244761908918e-5 -0.015329527699891161 -0.0033411138098962782
-6.107519020257647e-6 -0.04100529828064351 0.00391611323561004
-4.146792871862368e-6 -0.040813108682959974 0.0021067002796572184
-1.1380636495856787e-6 -0.0393865016698724 0.0009686224836828543
1.2036157688982448e-6 -0.03953704561171401 0.0007987257435297074
-4.7318050859291755e-6 -0.03899010471837359 0.001934596896387892
-3.864425035903811e-6 -0.0406149150682016 0.0012922364192854098
2.465847583438778e-7 -0.041598074910034345 0.0011919098547383314
-1.2493025059655443e-5 -0.04018917573878822 0.003007840043158587
-1.1109745179027402e-6 -0.04258154627523917 0.0017900180618172137
-7.3970016974330805e-6 -0.04247330013112499 0.002610882724484503
-9.063508666143157e-6 -0.0391653266410131 0.0032659942484612246
4.565986468638707e-6 -0.028667653505211957 0.0013757697916142923
4.701211827969907e-6 -0.02957988002799313 0.0005266250518787233
6.7935658116077845e-6 -0.03046556020799212 0.00013821461416337603
8.640874926186286e-8 -0.029115382937347948 0.0030450429479823397
-3.054519231706787e-7 -0.0277602669074308 0.002287162403703191
1.1380781199001156e-5 -0.027959283774818443 0.0011490814812839347
7.739764227005241e-6 -0.02810855644732425 -0.0001277152994304324
1.3233414765905517e-5 -0.029071666979406312 0.0020330511792964
2.5478345180254814e-5 -0.001448565722659014 0.0009534326274688472
1.78689404708921e-5 -0.0012121874509378229 0.001042386980742364
2.5829242607127956e-5 -0.0007479249633898492 0.0006053553805840547
6.662986309287919e-5 -0.0009185178657671647 0.0006617488715419049
8.361740634568928e-5 -0.001444357854923236 0.0010917930528898923
8.828257188765281e-5 -0.0010296496573170403 0.0006118892970450935
0.0001045275037817204 -0.0014051151081385402 0.0008602245684723535
4.6666802468673986e-5 -0.0006949616807558014 0.0003846844052818464
5.911361671240143e-5 -0.0005484522923686746 0.0004955514706380044
0.00010525180975269388 -0.00011857652707476728 -0.00023256511632181035
0.00022074785942172826 -0.00020366374961011433 -0.00044965278511346164
0.0001665520049621831 -9.131579490854692e-5 -0.00024793693025788643
0.0001266466224378776 -3.363609040421272e-5 -0.00017328067607611086
9.303396649415313e-5 -0.0007492096527382312 0.000526876417237716
-7.838322974453363e-6 -0.0031536469645557018 0.000562353117124373
-7.171280179382209e-6 -0.002912636018816682 0.0009953267649291996
-3.555077379516581e-5 -0.0029865888003877275 0.0008934781371543523
-4.378090424437365e-6 -0.03393482678350782 0.0018508097845306836
-5.6710450965218524e-6 -0.03334029972915706 0.003120009812647686
-1.6138953285208842e-5 -0.033420372745468684 0.0033491129652028985
-1.729994445678895e-5 -0.03288203480138916 0.0023842510075752638
3.5203120417618654e-6 -0.034970732338366645 0.0010015761681220422
-3.2105339513726645e-6 -0.034775855305775136 0.0029064533979105485
-2.7174902589641097e-6 -0.03607201940772136 0.0022546225430395473
-1.5178108077844867e-5 -0.034918933781701716 0.003302390395763818
5.900527950063131e-6 -0.045066451343052795 -0.0008264768232429173
5.070421152370866e-6 -0.04458605824365734 -0.00034947534270259316
6.943569280913485e-6 -0.04468172335555018 -0.0008491664486559782
7.093142424972084e-6 -0.04379518026084937 -0.0024507829010236137
3.790741937901033e-6 -0.04306549924386539 -0.0024266418091976384
-3.7374209759564336e-6 -0.00020524898988373452 5.3024263108787455e-5
-1.5464724953904794e-6 -0.00028413247757933197 0.00017181020754826403
2.401724655231489e-5 -0.00035414980066217355 0.00021267867356558726
1.9600926725585907e-5 -0.0005399474697991474 0.0003624661279126325
-1.1990809632414848e-5 -0.0006885339269328 0.00020324209121044067
-2.283597698622088e-5 -0.00064011724737171 0.00042308559748459643
2.008375905955289e-6 -0.0007397961990754759 0.0002533502022313772
-7.483541463214065e-6 -0.00040478628661004556 8.116208616378798e-5
-3.289309963268055e-8 -0.03592900631216451 0.0009407867438915721
5.3402485302465075e-6 -0.03624987403286831 0.0021686092486329143
3.841347063946622e-6 -0.03432815006707007 0.0023191661674403373
3.2049574662858235e-6 -0.010454304080857206 -0.0005613842207024288
7.145188181157754e-6 -0.03306700610376847 -0.0005756057030540758
5.667132757312862e-6 -0.03445005335460013 0.0005780188202666276
-4.9233515441607664e-5 -0.005970732847763001 -0.001711476465773339
-4.4147146589660064e-5 -0.005177976399406912 -0.0010508434816598451
-1.903879322859108e-5 -0.005767532132555831 -0.0010151059394455275
-4.039365762478168e-5 -0.005181046770804458 -0.0015671001680189203
-2.9730951738549443e-5 -0.007156172726750277 -0.0019751041882856263
-1.4409811884047558e-5 -0.006702218523096626 -0.0012662285433902966
-6.643844134423347e-5 -0.00682115681260206 -0.001963588600504654
-5.528780986809001e-5 -0.006769555340394806 -0.0025573723023254234
-5.061078989379284e-5 -0.006421108709440188 -0.0012529971745202822
-1.581480993192426e-5 -0.006370897605494579 -0.0005706256315555425
-9.097082936757972e-5 -0.005505163990706038 -0.001798837356421772
3.815263758314232e-6 -0.03833126602203223 -0.003131260633432394
1.9366356695825684e-6 -0.0364578603378073 -0.0040922001454519715
4.011625508104603e-6 -0.03585571154554865 -0.00299362657478007
9.743063657042587e-6 -0.03743760684259159 -0.003196618307712029
-4.1267747936686524e-6 -0.03678367505322316 -0.0034332892008232274
1.630443198984057e-5 -0.036659984906024914 -0.00313766859764907
8.32770312194054e-6 -0.03817270749591918 -0.004460367061024139
1.7563693596208863e-5 -0.039551865154796036 -0.0019412409543541848
2.4667248158194995e-5 -0.03842418260309926 -0.002936133483293577
2.5890000775851047e-5 -0.039651242938177185 -0.003524998926506772
2.276441351135975e-5 -0.03832538930538759 -0.003803950216632016
-4.8612942879470696e-5 -0.007778638046259564 -0.0026179136062371568
1.0083467056809742e-5 -0.007711852584387824 -0.0026913740667721016
-2.9639511112311107e-5 -0.007873196683185264 -0.001970658807176937
3.743667470893061e-5 -0.02012364176018607 -0.002829766052062251
5.919768108363827e-5 -0.01883753425288835 -0.0028348632329084724
4.06448041828527e-5 -0.019402486689127103 -0.0018205784605848454
7.291539179042824e-5 -0.019730958535655888 -0.0036411871189813362
-1.1666253017292407e-5 -0.005229656367120401 -0.0004636906847606102
5.30008628496904e-6 -0.005578545720611591 -2.792589099809216e-5
8.091091650016186e-5 -0.020383440721774296 -0.0030381321364568678
3.983984359806929e-5 -0.020526958910784772 -0.001903282291096147
5.818840679657658e-5 -0.01863830605783447 -0.00194654003094628
4.088287707570588e-5 -0.018097189286865874 -0.0017688275787041653
8.570538014527872e-5 -0.019258979935995332 -0.0029895270867696133
8.801304559418908e-5 -0.018529689063842517 -0.0038509092527749564
1.3069427600109654e-5 -0.041646662176097 -0.0009096545843054612
0.00010772266777098259 -0.019310835515782335 -0.003984505820236942
1.8219044206874197e-5 -0.02154985056337059 0.00315906629993125
-1.7292876684414825e-5 -0.02082959706397233 0.004366682574301294
-2.492332059064071e-5 -0.023398848959395754 0.0038924237366864665
-2.09134781581712e-5 -0.021551070351465508 0.002345159593900954
-2.6683012215594718e-5 -0.021043696840694896 0.0033708025388983886
-2.955887825669721e-5 -0.02212759709836391 0.003835506015593308
-1.1117331294866514e-6 -0.0075997269057596255 -0.0013109721538457503
1.5120070863887758e-5 -0.008021251515080563 -0.0018869216178437492
5.138652504614296e-6 -0.006950005694726438 -0.001998399085166472
-3.6751798990393307e-6 -0.006007472915901876 -0.0016608553094727661
2.5619083964945968e-5 -0.006033060885745948 0.00044139393111219705
4.2308897888561405e-6 -0.006174307595382252 -3.3154171744338316e-5
3.202432705932238e-5 1.4904715507471048e-5 -3.255137617808357e-5
-2.0174725545057716e-5 -0.007073819432223997 -0.002917916435600905
6.594009782271726e-6 -0.03323132818872271 9.483449613002439e-5
6.099162100082076e-6 -0.03442595838455415 -9.243930581635426e-5
6.146551560629234e-6 -0.03431395152374423 -0.0012351190278735728
-2.745073239721326e-5 -0.00659440567805121 0.001407688051402616
9.180986401524277e-6 -0.03513172104492588 0.0015064535259518132
8.114728386456004e-6 -0.03522919957879371 -0.002056542529012662
-3.260944071223961e-6 -0.0018502095183605318 -7.1563775018356e-5
-9.67659758082261e-6 -0.0017714980425811671 -0.0003394888798449962
2.4815999163520264e-5 -0.0017039462094890047 0.00026966741086653
1.4993957127488824e-5 -0.03150945869132556 -0.002364231073759165
2.762899603106505e-5 -0.029293358665461858 -0.0023496463186010613
2.7622079003551738e-5 -0.028872774019994694 -0.0031211192545539924
2.1391675403923763e-5 -0.03042799697006746 -0.0023216122985425425
2.0075760480945025e-5 -0.028526883594398356 -0.003985531484435316
1.32350254380509e-5 -0.02722796077184378 -0.0020781167452994997
2.0960781757703147e-5 -0.02776195755526621 -0.0016906698603176321
-6.517390148237653e-5 -0.001171839233370716 -0.0009887696538906528
-6.18512787916641e-5 -0.0007495402645356004 -0.0005679303037371856
4.3175825464946396e-5 -0.0035691259871735094 -0.0010329371001375396
4.517627781845428e-5 -0.004151007218232495 -0.0014410596956989017
-5.7249786218930014e-5 -0.00047925572254575645 -0.00041741331024411685
-4.041079150828352e-5 -0.00040066232777181553 -0.00021910742678114887
-7.626746853601235e-5 -0.0006553785314284959 -0.00042562408931693144
-1.4633145386300248e-5 -0.0005056033932758924 -0.0004228173020044911
-0.00010972730884905167 -0.0006095555047074847 -0.0006002700650548116
-8.551485925948685e-5 -0.000963219163470345 -0.0006036123219170198
-7.899062306079694e-5 -0.0006788008278471698 -0.0007104662334381585
2.9105128547126282e-5 -0.0051221451667526445 -0.0014207099985783995
-5.169179099251845e-6 -0.005764415976602979 -0.0022893337175670433
-1.1608466938591282e-5 -0.005185310844662924 -0.0013940617838258695
-3.88723054313788e-5 -0.0031024539859530096 0.001358007522672562
-7.142781006891164e-5 -0.0034193258664760723 0.0013265437750984712
-8.115242904513267e-5 -0.0028100640792942237 0.0012091401848855863
-4.2245498186210546e-5 -0.003114752120464574 0.0006117390139505784
5.593064507860502e-6 -0.0049078044451613 -0.00036075131056612927
-2.1459553808661862e-5 -0.004777711990541156 -0.0007885356725129536
5.702083056170093e-6 -0.026647895140572402 0.0011124901564419996
7.374431504675001e-6 -0.026974808983373275 -9.112155703465355e-5
7.472221161045648e-6 -0.026921338919553114 -1.7798209385120656e-5
1.0625323628205527e-6 -0.028018790224450266 0.0011169763364779163
-1.637070351091351e-7 -0.02654658486182478 0.0011254727425756069
-1.4378358126832252e-6 -0.025359590658179873 0.0010981632316213747
5.028885884399194e-6 -0.02426900670466681 0.0007951324150901246
8.446442931907774e-6 -0.025949044969833825 0.0005161624147541063
3.4014997188965126e-5 -0.027234329644777937 -0.0033778888819406025
4.2122579922518163e-5 -0.028176377858838957 -0.0028016205863120158
4.153265318200288e-5 -0.029077861625143742 -0.004505570595960486
5.373678232175939e-5 -0.02830757681042094 -0.004152911049227724
1.5119266350669427e-5 -0.0002829593921422381 -0.00020319813348079678
-6.367802469952429e-6 -0.02301544791849176 0.0013114595005138006
8.27185837892483e-6 -0.01333801153951693 -0.0017001453345273025
3.362349118591754e-6 -0.013373995403891387 -0.0005814662470817546
7.910700067145264e-6 -0.012300002253158223 0.000505482712000074
7.072002388506542e-6 -0.012418383971563345 -0.00011134377065169213
1.274522731380548e-5 -0.013158558724848095 0.0008702953601340401
4.272213108836676e-6 -0.005601238509273355 0.0002784222367960346
2.372585628030937e-5 -0.005574353335078177 -0.0007207757640530321
-9.46129544839755e-5 -0.007564107432044136 -0.002565680672253729
-0.0001429386576931617 -0.007685436650261181 -0.003435425373085961
-0.00012676328831290405 -0.007873380978990959 -0.0025597335849010766
-0.00014625296250257952 -0.006903487982716493 -0.002655310563702753
-0.00014571031672269488 -0.006869552468743524 -0.003268364485683325
6.354548050629429e-6 -0.00523416862752453 0.0011202057554448113
-8.842494053132455e-6 -0.005140692986882129 0.0007864338563159917
-2.5217111541876402e-5 -0.005845669381513795 0.0006819515425247649
6.586719456794339e-6 -0.006054967555126864 1.2845535816863351e-6
9.69314317437958e-7 -0.033519745941766474 -0.001995794367926714
4.315573463768113e-6 -0.031283403284035706 -0.0024956756293635935
-6.922261121631669e-6 -0.03266321162705737 -0.0032895798583933073
-7.695776900249187e-6 -0.03122208346530228 -0.002765802698570454
4.708721095936321e-6 -0.03227849180383999 -0.0011778836880621912
-8.672342726010319e-7 -0.031320826731991665 -0.0012442818555372748
-0.00015005211933882506 -0.005806152989313161 -0.0023145854723105198
-0.0001197508312746132 -0.005679880082427606 -0.0024328871278206875
-0.00015251596449662535 -0.006094295533028866 -0.003085076271720966
1.2127836523562713e-5 -0.03313159241653027 -0.0021638115145951576
-2.9093079279588225e-6 -0.01028313922599323 0.0005318822772506378
9.24334751790867e-6 -0.010944133196087372 -0.0001949068814721898
-1.3662530626740439e-5 -0.010753769023871025 0.0007533272501958129
-3.2511998038645955e-6 -0.011343647290972533 0.0010781541320750115
3.146613494008311e-5 -0.0110545103436186 -0.0010425338313968565
1.0192996175136872e-5 -0.011272319118743296 -0.00012695242041888991
1.007980148018786e-5 -0.010270517311727395 -0.0001779201484117325
1.8893864170590107e-6 -0.012912401814765684 0.0003307164097896909
-2.7779449971518978e-6 -0.012559439301929551 0.00028724756602132803
3.7188615032201814e-5 -0.012402168692260098 -0.0009815649616908594
1.1309217925779066e-5 -0.01202000533932607 -8.57514027046909e-5
-2.274549384276273e-6 -0.0003355568813818574 -4.669137648679044e-5
-6.459605777697501e-6 -0.0003565678293608308 -3.642329083977604e-5
7.335796456432633e-6 -0.0001973701746585057 7.604278515823449e-5
1.5282977031334818e-5 -0.0002807277888550593 6.798749312982358e-5
-1.1994676858984885e-5 -0.0001967449859192191 -7.92027498881548e-5
-0.00011020884170121987 -0.0064551412225732786 -0.0019209091540044344
-0.00019227920714825933 -0.00637092558140567 -0.002561830190122182
-3.01570739782051e-5 -0.017098746912055714 0.002629867004825492
-2.9680720549690617e-5 -0.016555026038990974 0.0016973265145673634
-1.9161871456478338e-5 -0.01504134384483692 0.0016368363461291887
-3.314443922433861e-5 -0.015397615663374208 0.003527839663526062
-4.7275239621070216e-5 -0.016070844387018637 0.0026735718462778685
-1.4471712369497852e-5 -0.004484055691850169 0.001224238522328461
-0.00010800387963891938 -0.006616179529936602 -0.002560379762009616
-9.919425402756759e-5 -0.007260865707473427 -0.0019210860428032896
-0.00018097339955896669 -0.00721912429242643 -0.0026933044887933496
3.3313722005569508e-6 -0.01856621718410049 -0.0005019351167832295
1.678370409520714e-5 -0.017792870463283702 0.001347989497722691
-3.4575164469544237e-6 -0.016898293322357594 0.0017343776883867457
7.82847022034458e-6 -0.03303364781939469 -0.00316871129666294
4.484896746680146e-6 -0.03433985026150131 -0.0029234666958517824
1.9987083283920342e-5 -0.03462744734654436 -0.0029154132464530055
1.2064408121121733e-5 -0.03496541120431501 -0.0038921763940057245
5.763033249880296e-6 -0.03337584723559838 0.0015349942526766583
1.2909557243794026e-5 -0.031730525510048506 -0.001185308860215075
-0.00023982155844598938 -0.00666355039998192 -0.003237532971845309
-0.00023308207465170644 -0.007537650805326274 -0.0034671831687150393
-4.4638845891298245e-5 -0.0005214636852666901 -0.0006142111322651315
1.1256370236314546e-5 -0.0005261496706762975 -0.000608601944292253
1.4819009555449998e-5 -0.04922185059602414 -0.006531571273425899
8.17368528738667e-6 -0.0003524278558227635 -0.00038865988976771043
3.0804329520105896e-5 -0.0005251785317344683 -0.0004634268354320095
-3.212730298784795e-5 -0.0003401150122939469 -0.0003814028016535255
3.1057561917082754e-6 -0.0001927996811756804 -0.00020607693034375608
-2.6182400612589683e-5 -0.0002527206227665802 -0.0002241624553448682
0.00012897042601872172 -0.0010412148185832211 0.0009181426332873218
0.0001505650980298012 -0.0007802292164797533 0.0006646234609711423
0.00010718701523537313 -0.0010187056360632396 0.0005574907316330774
6.444749025125077e-5 -0.000803229551599399 0.0002871690255076916
0.00012989659905509208 -0.00048202170419949544 0.00045950093474583006
0.000113760645189723 -0.0004903335702169929 0.0005064035331683819
5.309847219235686e-5 -0.00034548542332338603 -0.0003075697910727786
7.472051669274415e-5 -0.0001963714108491702 -0.00024379221041115996
1.979745231768096e-5 -9.386076753442576e-5 -9.164691465951083e-5
3.4461949229100684e-5 -0.0002203352651166674 -0.00014314750648007808
6.099619337912619e-5 -0.0002844774555342507 -0.00035109609265262224
7.077728570220918e-5 -0.0005079690780406882 -0.0005991897314917595
0.0002920251739207458 -0.003178859146561314 0.0023124689854592314
4.671772051489383e-5 -0.00040186256067786135 -0.00017794215528877983
3.187842513168056e-5 -0.005162852747452764 0.002875444892193688
3.953672140081116e-5 -0.005775955209820552 0.0022046531729796154
0.00010390658085971168 -0.005331182583272469 0.0028828706054194924
4.4578285964169424e-5 -0.004879103866650536 0.0020659081139920116
3.916947173278972e-5 -0.00010671964953552548 -0.0001651827419203851
2.3657903600097538e-5 -0.00012071781794765445 -0.0001771043987813071
9.733874201509522e-5 -0.0004030297535829635 -0.00042613171465013074
-2.0851975220202357e-6 -0.02991282877773025 -0.002325853988155558
2.5448686411009294e-5 -0.03168066497400612 -0.0023681903155824535
2.7479646760250477e-5 -0.03154779850814714 -0.0035577178850506115
3.48209186934453e-5 -0.030392525472492424 -0.002544563797190557
3.633942550743884e-5 -0.030138903736042524 -0.0036550379130604934
-1.125254570309626e-6 -0.030497396376929616 0.0037580207268217347
1.5102275343452457e-5 -0.029231890252818533 0.004653399034933753
-4.454548559734182e-6 -0.029434340462682895 0.004513512134714526
-1.2386632692139605e-5 -0.02780230848879394 0.0033681392540412256
-2.056713668233609e-5 -0.029564422846341303 0.004364086063608027
-7.600906116406709e-6 -0.02895363534039263 0.002318692107066341
-6.942318545094029e-6 -0.0021109288415156365 0.00038726322188864417
8.525418690208175e-5 -0.00546281344942702 0.0022246791166359962
0.0001313665558912022 -0.005140712898801335 0.002265939055903825
0.0001083364729132173 -0.004731542582119704 0.0026830503443573167
2.7885225611866654e-5 -0.0009661090505708019 -0.0006837069663261162
6.683576546437751e-7 -0.0012274649316286624 -0.0008037276780479781
4.8141129294034204e-5 -0.0012502665642107856 -0.0011115579343601277
6.19933206524202e-5 -0.0012703354970121572 -0.0008523268187854868
3.0480447758877945e-5 -0.022923486758236345 -0.0012939677409025618
5.65282218135095e-5 -0.022617090395856482 -0.0028747272451881975
6.388021457504732e-5 -0.023467692479774243 -0.003965536982183583
9.296377216889862e-5 -0.023122036134702827 -0.00416636682415313
7.484308499733715e-5 -0.022897809213116783 -0.0031152399257032546
3.6228269416589853e-5 -0.023847467614870808 -0.001383218711241425
-1.7740522349469572e-5 -0.0010941443224336646 -0.0009950413990116142
3.114231966334976e-5 -0.0010137694626963436 -0.0011304790358133657
5.817083308570594e-5 -0.0008226650635458155 -0.0008287972157494344
8.591485500704274e-5 -0.0010803507004753987 -0.0009433369492704609
7.626247648161771e-6 -0.026155362470881842 -0.001165162556722867
3.514525045739489e-5 -0.00019935407742834537 0.00014147691314999952
1.225037514274556e-5 -9.480207676444366e-5 6.20569017281702e-5
1.9783074290283774e-5 -0.006663805386080411 -0.0013063146429588225
2.2992827296051654e-5 -0.007663657045970984 -0.0012636093315891985
-9.284704901320517e-6 -0.015305983375772698 -0.0008461265640093718
7.579513734881627e-6 -0.01400171715021391 1.5783995641612797e-5
-1.4483112386531152e-5 -0.014412133311203107 -0.0010882735440767071
4.9582104243197184e-6 -0.015652974223604753 -2.3518488944731766e-5
-2.1158563338607597e-5 -0.015316142039120085 -0.001785955878583201
1.6223556986601105e-5 -0.011142736905274125 -0.0011604065100149403
1.3073130323590434e-5 -0.01012304916567424 -0.0012673586360899122
2.6227281706730237e-5 -0.010170889640352471 -0.0010374974054651806
3.906053930584917e-5 -0.01086715163113071 -0.0019553013763231424
-1.2682523688116745e-5 -0.011466460200387683 -0.002100085856450531
-1.3233698626252401e-5 -0.010422108682997753 -0.0018750945667900894
-5.701847807030385e-6 -0.011852427258536176 -0.0012161792039089873
1.234594432698812e-5 -0.011316283163744306 -0.002090500229513855
6.790918940725896e-5 -0.006355361469913143 0.002696582816018743
0.00011017348935224325 -0.006157220082190241 0.0030629295713429424
0.00013508695988098362 -0.00588985501488816 0.002466056027670992
9.96450994678947e-5 -0.0067522036057905315 0.0023966206793716465
2.518382855942431e-5 -0.004614361740882157 -0.001021592789403748
5.463922730149363e-6 -0.00420718984394209 -0.0010126001873530751
4.992634162010051e-6 -0.004276627917397735 -0.0016885480874133235
1.124967197965799e-5 -0.00484778462117153 -0.0017835287071352463
6.238527600300284e-6 -0.004779338053826008 -0.0010731277842226954
4.054403427357125e-5 -0.0018060392739954617 -0.00041285873832708664
0.00014769484197627332 -0.0023413156608093648 -0.0011965229374373745
9.375620075727406e-5 -0.0020682070845393897 -0.0007229297417628115
5.6362627026953566e-5 -0.0028924461700033646 -0.000463223625966051
2.5885780061816967e-5 -0.002272470908368939 -0.00027123987999099993
5.022323364035544e-5 -0.005128602919662729 0.001377164969896731
7.046297517581307e-5 -0.0047879609148281385 0.0008231400690375576
5.89413612046709e-5 -0.005540019072806341 0.0010807517096148352
0.00011066844185041184 -0.004854160184553998 0.001466014851453184
4.926452407890475e-5 -0.0022842015159847393 -0.00033962674140380233
4.396258536401598e-6 -0.0021170299369663854 -0.0007192842836960761
4.766323804688098e-5 -0.006052183966478953 0.0017042162131444948
2.4247204512886576e-5 -0.005580579508698674 0.0014643005553283278
6.792105054271911e-7 -0.0016386524960635867 -0.0008032383177854872
2.0211307323035845e-5 -0.001240828035364509 -0.0005618285597293425
1.6123251440139597e-6 -0.043963876374704766 0.001103375839861714
3.915380706420298e-6 -0.04230836510142502 0.002522089356425091
1.0190348245139406e-5 -0.042880821446578773 -0.0012356076943613366
-0.00011696036113412494 -0.0016452539814277068 -0.0015657215824653563
-6.502257978378862e-8 -0.029956086257431767 -0.001125976017990063
-2.6990758272078537e-5 -0.023968606265116165 0.002380866929200047
-3.161402875955671e-5 -0.025129180292085967 0.002699260280831662
-5.982308220009306e-6 -0.024395758311121427 0.0010910137112867988
-1.4665088169738918e-5 -0.023264996582598608 0.0013437631795427626
-2.033632419670771e-5 -0.024241905250259384 0.0013583955537495689
-3.450652504174107e-5 -0.022600289574311577 0.002574046492251436
2.426111851356045e-5 -0.003596313684571413 -0.0014732649383147238
8.879670300379488e-6 -0.025450693176116552 3.7515718173237965e-6
8.097300128539887e-6 -0.02673241696121332 1.2090876607995802e-6
4.76425279492065e-5 -0.0045077118132179584 -0.001985603500146033
6.224118624423214e-5 -0.0037701782276876534 -0.002064405509712326
4.8488060618584114e-5 -0.0030269762864562886 -0.001359532810908096
7.427472416624073e-6 -0.002893829168820344 -0.0014100788797011198
-2.1662774739414163e-5 -0.003917121153654502 -0.001358694427673276
-2.4536413916978912e-5 -0.0035917975759895424 -0.001717324022677061
1.4996866192387063e-5 -0.003634996485425803 -0.0021650108807362307
1.669381890531683e-6 -0.041960575349513224 -0.0036130011329025278
6.6545596284733486e-6 -0.04255387676041862 -0.004048241501191302
1.0215254438741074e-5 -0.0415344064712829 -0.0048766405976286625
1.1719447115797346e-6 -0.04135580566211057 -0.004892139707757932
1.0030950908466537e-5 -0.03989928145673123 -0.004824945441255974
-8.519490216980401e-6 -0.039459703574221426 -0.004505226392968161
-2.7920597648558693e-6 -0.04137066753020055 -0.0031818380131237206
5.73867791065539e-7 -0.03975366519383939 -0.0029497887526583905
-6.086915596604909e-6 -0.04197358841409852 -0.004844239237254554
3.853281150740416e-6 -0.041191670446873364 -0.0018641636067429435
1.1761131724205504e-5 -0.044181103420622286 -0.0019015601869170771
1.440881763992113e-5 -0.04553728909421336 -0.0038679235594960603
1.810232845339968e-5 -0.04477764707447673 -0.0036895232571987225
-2.2487058901228187e-5 -0.018739349156274215 -0.0018003195338098853
-2.2523996322585663e-5 -0.017484337659956432 -0.001756713477322071
-1.5019138000630483e-5 -0.017250333177072818 -0.0008897217500152888
-4.411110119513521e-6 -0.017489345038342673 -0.0006696957710950469
1.1998812633410136e-5 -0.04558029346676133 -0.0025754004192438265
1.5526744524466655e-5 -0.04486880912636051 -0.002539401617892567
8.76334876728528e-6 -0.04524075034771223 -0.001195654275815409
7.850284010891868e-6 -0.04607072329850191 -0.0013033893072208734
9.065416181853905e-6 -0.04535392695327508 -0.0021948162128848534
5.5753850047893104e-6 -0.0436199867256562 -0.0001380563691701071
3.066033091371847e-5 -0.01639051965740795 0.0022702863703122416
3.139279098514499e-5 -0.017471824681745265 0.002342430511293217
2.627460200762008e-5 -0.01643956649510903 0.003476707494887633
5.62968146135541e-5 -0.016710881190246704 0.003529669311228975
1.1334979418606393e-5 -0.018360680254106993 -0.0032037615811552106
-1.1511677135023729e-5 -0.02985520616552719 0.0019415124395786559
-1.257178188643336e-5 -0.03769646782645073 0.003475509984929102
-5.114876246693167e-7 -0.03811728458060746 0.003622526387445105
-8.860173033929192e-6 -0.03700461791250601 0.0039996475916601135
-4.7581756631400887e-7 -0.03779178429605574 0.0024293915735914646
1.0501466100713685e-6 -0.03808634325752459 0.0012851563107684403
-1.6170695815789616e-5 -0.03779093105573728 0.005045889326349765
-1.2949415921022342e-5 -0.03916185961991679 0.004676854050389684
-2.2799941075502274e-5 -0.038348045172726705 0.004484820206813806
-1.2624718867981924e-5 -0.036111653867386434 0.002313519468392534
-2.5589184951562222e-5 -0.03680492158287906 0.004304226696518482
-1.4481825237527987e-5 -0.03815633256075473 0.0029786816137118096
-2.156391259775462e-5 -0.03614902553566325 0.004655692105764849
2.857618511416707e-5 -0.008805886314696419 -0.0016167627667815349
-1.080024780693857e-6 -0.008658974055819576 -0.0017466332909080377
1.092887657416721e-5 -0.00920841298354446 -0.0009419959662578501
-7.531707829097512e-7 -0.028152090445931286 0.0046269122063127485
1.1039579008096198e-5 -0.04409341593031298 -0.0036524895701188775
1.1867179765660475e-5 -0.04317616223545447 -0.004923627935117342
-5.68161253479921e-6 -0.02172514700865355 -0.001112840613807529
4.75886744916338e-6 -0.020528609129012696 -0.00010830127341908706
6.685984484787534e-6 -0.021762371450000186 1.403026294031589e-5
6.040496554075508e-6 -0.04072642433405844 -3.771361163601248e-5
-2.5266873587861448e-5 -0.022679520203260684 -0.0025219847713050234
-1.451914653690992e-5 -0.0240369597561233 -0.002137419119542214
-3.97921184887941e-5 -0.02320664594781334 -0.0039053846178212976
4.373493246548047e-6 -0.02746778888540982 0.003423865705683834
-2.9053801072488204e-5 -0.027778575679062962 0.004380170878098782
-3.337681843337465e-5 -0.02678197427141936 0.0034731159644237875
-1.8372160101976408e-5 -0.026021040303020642 0.0035089155163911833
-1.9150761910155865e-5 -0.02777517543764638 0.0027514194505783673
-4.2124160899517964e-5 -0.028451990771154415 0.004188907525849594
-8.832439317299062e-6 1.9045774662434e-5 1.019614264588495e-5
1.1721259382245646e-5 2.4208287893414785e-5 -1.3002398901164343e-5
-9.345361639262632e-6 -0.037408336687659374 0.005940890899331819
-1.14965317160163e-5 -0.03876720614930664 0.006026882293305345
-2.4714129813155004e-5 -0.03860049749839851 0.00608988164205597
-1.4667316232656572e-6 -0.037266038428299016 0.0011462059333587117
2.9542550426253576e-6 -0.038493553921912796 -0.001811214764802105
-3.074207970873698e-6 -0.03795371932597742 -0.004300894060864018
1.4046055185398219e-5 -0.03667270819351676 -0.004248627990940263
1.7649940639239117e-5 -0.03833640830461941 -0.004621630565754478
-1.3519595468122624e-6 -0.019565903821196617 -0.001206778201709352
-8.512450493320447e-6 -0.018031441600817294 -0.0015880331489884145
-1.4115274172795557e-5 -0.019508417555176454 -0.0024414833576425605
-7.175938062802856e-5 -0.0009055796003388747 0.0004464018033468097
-9.933388887548247e-5 -0.0006570972792732011 0.0004712454986006828
-0.00012192059016766025 -0.0006148299837217723 0.0004224601608290788
-4.872796794968691e-5 -0.0006165916571336413 0.00019748984933475633
-4.1666914237512156e-5 -0.0006192260557243964 0.000252429481746153
-0.00014321936893771576 -0.0013192944536361143 0.0008647822390373583
-8.039783283958232e-5 -0.0012677917884297586 0.0006797490719769409
-8.495885019299925e-5 -0.001355715737233996 0.0005764130059637563
-7.339504976448717e-5 -0.0009005329291517444 0.0006190302340888847
-2.9088413870261375e-5 -0.0010796686030001652 0.0004024186885894163
-3.0514092495410097e-5 -0.0010669494123199247 0.0002688296741279389
-9.531059206139009e-6 -0.025959434309927507 -0.0023631406646404513
-1.667993705941708e-5 -0.02392611948816317 -0.003281918892552484
2.1855189852921597e-6 -0.026191033626849353 -0.0011804867078141759
3.812673580247075e-6 -0.0259600872588471 -0.0004189141897895449
-1.9036600151533578e-5 -0.025062239699968247 -0.0018917033621453352
-1.9545668314530253e-5 -0.02645983119260699 -0.002347683803358135
2.9664082802173017e-6 -0.02545674243443745 -0.002397907834330186
2.032804088126803e-5 -0.02095928222280546 0.0009897657365147972
-3.287543485094672e-5 -0.02644424506399899 -0.004098602328931356
-2.4508232578891513e-5 -0.025411344958138318 -0.004118367913949777
3.980033908973074e-5 -0.007754872420030642 -0.002260833861888097
5.008243235209687e-5 -0.008201509857300289 -0.0020166260280215877
8.031788523535894e-5 -0.007445539147664155 -0.0026655300748925142
4.956585033638405e-5 -0.0076588253057052885 -0.0034167965944827345
7.334988414256719e-5 -0.008314301983574565 -0.00301623065993197
4.2998943085872956e-5 -0.008703842298473041 -0.0026485474539397215
-6.394899930884153e-6 -0.009533823810151205 -0.0018198055461504776
9.79159027741864e-6 -0.00980505328604873 -6.366977125708998e-5
-2.0118847198729342e-5 -0.020096627748487108 -0.001791504081442086
-1.1971859128984987e-5 -0.0203386181457183 -0.000977965702560035
-1.893727228504268e-6 -0.019032338878547366 -0.0006749099639439326
2.781516272542546e-5 -0.021859540415318148 0.002047691653369138
4.089775672929759e-5 -0.020661980137207225 0.003727304913926625
5.218014324003119e-5 -0.020982553074985973 0.002890530685310805
5.701418952802118e-5 -0.021644563382507854 0.0037917082004412265
-1.6755283719086885e-5 -0.0262090041504663 0.0022488617926022716
-6.758334074220236e-5 -0.026364823477627412 0.004057501440503027
-4.869839954004395e-5 -0.02772622556036642 0.0032936761018114167
-3.479480406945048e-5 -0.026278173720556044 0.002700948388615309
-4.607058092606064e-5 -0.025681532735231227 0.004070950483279344
-4.289332128816861e-5 -0.027200822652801094 0.0054089935992267186
-5.2904318368690474e-5 -0.026994875531771625 0.0044719045545336365
-1.2415216234258544e-5 -0.027935112683691202 -0.004309423866815978
7.832075725415038e-6 -0.02766796660503255 -0.004439383907903321
-2.8597040023251012e-6 -0.0264314576282373 -0.0054640709237002314
8.995670317081263e-6 -0.026152618769341395 -0.0039853565613248085
-1.845329021662254e-5 -0.0019014101380864245 -0.00015620940511683118
2.6232186254164787e-6 -0.0014566036392022856 6.050760140513145e-6
-3.3488693030174266e-5 -0.0015456639885429683 -0.00027931072335036247
-4.5676642700374495e-5 -0.0017307075123423948 -0.0005633192904404236
-6.961862356446666e-5 -0.011901162324190027 -0.002177531085863702
-0.00011293807755886637 -0.011695729196181382 -0.002481807685527415
-0.00010190008556727146 -0.012813458622309861 -0.002408624553990773
-6.093220861177403e-5 -0.012637699038664634 -0.0015843140822661933
7.346953976624445e-5 -0.0204470456422536 0.004047396043283785
-2.8565415732777354e-5 -0.0161883924775675 0.004714587867394614
-4.824275260164967e-5 -0.016968413961502164 0.0036288844268571813
-2.7268641520833197e-6 -0.016312341059235905 0.0034029856259845444
7.345118734061515e-5 -0.02180416618326386 0.0031656975123225918
7.483647876986169e-5 -0.020560802770519075 0.0031002346201583655
-3.586986185249176e-5 -0.01372658387979691 0.0033732244323137713
-5.487871351456143e-5 -0.014659805240558611 0.0033899577290948594
0.00012724630577566599 -0.0038463623283607248 -0.00102954575375122
0.00010857096232752883 -0.0032415883471288154 -0.0008393163990360397
5.1513302501748476e-5 -0.003932189101967617 -0.0004014271490152015
-8.945905445663267e-5 -0.005552101913703065 -0.002961610369636147
-0.00011809651645519506 -0.004852959930275334 -0.0021937712179319223
-0.00015529679372506048 -0.005372057613839064 -0.0029196621545178256
1.7635060165603427e-6 -0.014698158685697937 0.00414926297301293
4.6760034129605615e-5 -0.003956553087331974 0.0004942448250883165
6.713346603622806e-5 -0.003351983267662431 0.0006698629037301543
1.887011575321044e-5 -0.0031357510854620268 0.00012716094260868387
5.704932931417846e-5 -0.0036781003275225188 0.0008534257292506685
-7.984310351578692e-6 -0.04299405797972668 0.003674958502391761
-1.7844289390173863e-5 -0.04127609288824183 0.004536068138416883
8.719674442981359e-5 -0.004506428993152048 -0.0015661092731910128
6.037989606829588e-5 -0.0051541371150569705 -0.001558007355941424
6.034130115279337e-5 -0.005140384335738841 -0.001049921029765054
-1.3778563817569414e-5 -0.004367330075463991 0.0002919294018806423
2.1225583260799455e-5 -0.00554218356418184 -0.00032715713303748436
-0.00015004668300573065 -0.004790904082363903 -0.0020401749451301795
-9.514688109071657e-5 -0.004738432080180242 -0.0014411188345832655
-0.00015228359875190254 -0.004169953877238056 -0.0019089200519403773
-7.567372481859593e-6 -0.001616686392762407 0.00029741424096926426
-0.00016596911080530937 -0.012225726649777887 -0.004270500811014619
-0.00021863024739587138 -0.010917792465221982 -0.004088052626265248
3.727987433051885e-5 -0.002388931027156572 0.0008720732738099818
2.3668172716591073e-6 -0.0025013611728476283 0.0008002104536201605
8.098728475484885e-5 -8.675356932861295e-5 -0.00014537693115435903
-6.567637658847651e-5 -0.007132529275939467 0.0023774643834040044
-2.6900922832812388e-5 -0.006609689823820035 0.002189625007986478
-3.6209627777091213e-6 -0.00771507749376124 0.0022705580239081448
1.0957955290667711e-6 -0.006044131557554806 0.0016733298486599048
1.8917347215590435e-5 -0.006684480403455789 0.0022241267040182507
-0.00018710732001068011 -0.00515333594261214 -0.0026396183922992636
-4.4849560756595235e-5 -0.03576535863776286 0.006012749160994166
-0.00016378940734369617 -0.004667230726394527 -0.0027224983054460385
3.162138837092966e-5 -0.012773140187699678 0.0021454453034865178
1.7645358622434276e-6 -0.013284268104768631 0.002788090912114466
2.7692724637517358e-5 -0.0018888706987610067 -0.0008466934683527995
4.1386384578994714e-5 -0.001595660147428562 -0.0005529900270546324
2.0325833551954614e-6 -0.0017494685895700617 -9.945152891690608e-7
3.4283807128345235e-5 -0.0012999195634007508 -0.00029513259758872626
8.112978450897774e-6 -0.02395812790824218 -1.034373586551015e-6
5.616881300896027e-6 -0.022804338420349717 -8.278821666381938e-7
6.788609931440394e-5 -0.001915610795677935 -0.0009551175614318191
1.0911050569954522e-5 -0.011457746524258195 0.0002929347301699543
2.700086972623869e-5 -0.011267886451210733 0.0016543620917689218
-2.0143616596316977e-5 -0.011743020829066147 0.0014797130855370127
1.8854966332688502e-5 -0.023303834817351907 -0.00229326139551239
-3.7986561323830984e-6 -0.005228013984916979 -0.0005653143441145694
6.099292706099773e-6 -0.037009493685239175 0.003503828865183123
1.1259930839125816e-5 -0.03794060849027289 0.0035125982993897908
5.903242040279671e-6 -0.03816585117133929 0.00493102281726853
1.610738444246277e-5 -0.037350634283277145 0.004567706013412189
1.4972764015765628e-5 -0.03595202244217378 0.00327761795095436
6.407604666288821e-7 -0.03589748336999071 0.003263389476731597
-5.850934915543839e-7 -0.03670464681490218 0.004716192318418303
2.9384438425875983e-6 -0.04019941819096243 0.003921181916352476
1.1657039559829596e-5 -0.03817927891107732 0.0025293740990348563
1.049466637924871e-5 -0.039522161610115646 0.002519801387478511
6.659643645377307e-6 -0.03131051473169669 3.445912855952321e-5
8.62759541679543e-6 -0.02980401292284025 0.00025699541731070773
-9.129475923214545e-6 -0.01637753026074551 -0.0008619846851290789
-1.4651955780123031e-5 -0.01652581102297535 -0.001816823194426012
-2.124101362822989e-5 -0.0009531921466584615 0.0008615636758927529
1.6821400165926454e-5 -0.0007785299000761714 0.0008742182172517808
-1.4071232866325965e-5 -0.0005168973555334743 0.0005928706407514982
-3.231535894519091e-5 -0.0010720268977850416 0.0011774409305263687
-5.508240257693807e-5 -0.0007726300401685554 0.0008601263591726215
-8.087170193896724e-5 -0.0009555241884332018 0.0008992385534198792
9.993246116074574e-5 -0.006310062668129548 0.0012158629539932686
8.413952730763715e-5 -0.005598623090123935 0.0011566252779712082
0.00013079726941698255 -0.005702153558450154 0.0017840841856257227
0.00010247776962702552 -0.006359942328650873 0.0015749136729342008
4.219117817851822e-5 -0.0065873213263179875 0.0006416416127306666
5.4510378246556504e-5 -0.006405106755668612 0.0011225722447187278
7.821578969966838e-5 -0.007000961354670363 0.0013067808028205743
9.314811688367733e-5 -0.005745810179375712 0.0017629666018331815
0.00015453819714634405 -0.007112160214931395 0.002057857997959615
0.00012168572589518787 -0.007304220060996216 0.0020464876193783186
9.880831524966115e-5 -0.007131730635681239 0.0012954975499556935
8.405722740339699e-5 -0.006954945471994588 0.001776505822937745
0.00015193588045243545 -0.006339104700771408 0.0023196010459054606
-5.729478759102496e-6 -0.02640116356398398 0.0011247035800115148
2.259806847272408e-5 -0.011173054315128656 0.000695430481287455
3.341177884398942e-5 -0.012013820143421823 0.0013436662464049592
-6.109531214495332e-6 -0.011463333694854956 -0.0006638663340080673
1.484663001539104e-5 -0.018536383378215438 0.002352217577272692
5.85902293512215e-6 -0.017467156527085238 0.0025651617977817337
2.107752654151517e-5 -0.016307187308735174 0.000863323137616601
1.8689923127873672e-5 -0.02179546024199064 -0.0021000629022765675
5.622298473971614e-6 -0.02009181044112447 -0.001855154838005164
1.8697150002605593e-5 -0.02004999353913208 -0.0014546570872128232
6.015243357784952e-7 -0.02094796404900882 -0.0011388744458168268
-1.6760403172323132e-5 -0.025499615678887158 0.001337894660819881
-2.0733266532497905e-5 4.470419238402263e-6 2.1720191366999167e-5
3.2251009989608214e-5 -2.938887356605469e-6 -4.485485059349375e-5
-4.405797604622532e-6 -4.241161380151538e-5 6.22079064361786e-6
6.474444264602228e-6 1.4640483381672817e-5 -8.123862027927359e-6
1.1266896694034753e-5 -0.03317339000862812 -0.0011392959287618875
1.1114021622942866e-5 -0.04680209901642342 -0.002943828268117416
8.861874816030606e-6 -0.04693593870536993 -0.0018724045634152026
-8.462508991467131e-6 -0.013605486871861208 0.0010947056383145434
-2.388751449304818e-5 -0.013255868524970243 0.0011199191041444533
-3.543066986317511e-5 -0.014007796248673564 0.002299789435819724
-1.8586126231508188e-5 -0.01278497166899419 0.0021961113818227767
6.158555278378015e-6 -0.013915947733631175 -8.523581487560474e-5
-6.940103475510124e-5 -0.026570227674191534 0.0034013211571631424
-5.868627414343932e-5 -0.0021111520520223598 -0.0008346296233767888
-4.3303844761910247e-5 -0.0017078894407449978 -0.0009049567166367907
-2.818435345624319e-5 -0.0021688613363469293 -0.0009858704097418084
-0.00010846302722693435 -0.0019236693387173068 -0.0012868728980984867
-4.83418502693748e-5 -0.005344572523071442 0.0010259103070291084
-6.872633178449818e-5 -0.004498746432961852 0.000979190783135715
-3.1631579293121145e-5 -0.012504398183176354 -0.001395542652955211
-4.906819445454715e-6 -0.012294924056848195 -0.0004814190059035718
6.332293502156198e-6 -0.012347102321199203 -2.672688516687922e-5
-1.8745348543351747e-5 -0.013421713463628545 -0.0008441866553585526
-4.3254615599133256e-5 -0.01139909533229447 -0.0024459184740640077
-3.6116676521331805e-5 -0.012776879225491485 -0.0024806605419569103
-8.246981284629495e-6 -0.013376608971286683 -0.0007256639905268288
7.326089865006766e-5 -0.0003277600798761975 0.00029721794254434743
1.897784882097377e-5 -0.00020372701037033538 0.00020870687192454633
0.00010268189546594955 -0.0002771959582719873 0.0003769888304479127
3.279234801760751e-5 -0.00034429785708297195 0.00037552552429018747
5.138057215611563e-5 -8.527076213637033e-5 0.0001403887922004726
5.6478839929303996e-5 -0.00017248669422371328 0.0002486681730235738
8.763124375841924e-5 -0.0003157605064895505 0.0002686056291041942
4.021172442328626e-5 -0.02175114997613874 -0.0031517078049529126
3.073862351569237e-5 -0.022433767993981554 -0.002066114274518189
6.3920720893200955e-6 -0.0216643692314162 0.00010229826759163634
2.387208187666498e-5 -0.021672277802690623 -0.0010560643845696175
3.6881317267875865e-6 -0.044808427422167736 0.0010016116819160422
5.451552349179433e-6 -0.041587692161108705 9.759992111183301e-8
-1.589509054085816e-5 -0.01860365669689343 0.0012299338209048093
-2.0842604225547164e-5 -0.019619554677528853 0.0012688792615764904
-2.3305887121101728e-5 -0.018890572150699957 0.0019579745517736818
-2.0034036259373764e-5 -0.017597425136954194 0.0013087013313404007
-1.0239219878472563e-5 -0.018387798305199113 0.0023256784707574914
1.527583341603367e-5 -0.019819978953278767 0.002551378273726342
3.4919880450416117e-6 -0.01909552643949503 0.0016044812329597423
1.9063608031877557e-5 -0.019713584812784686 0.0013995152206596419
-9.19465072553934e-6 -0.019615919859691158 0.0024588271319290096
8.282338271415895e-6 -0.018907689138623805 8.120165834489073e-7
1.9757267992793e-5 -0.02069032949717733 0.004442482743254769
2.0162281135829407e-5 -0.019892453713741515 0.005264154746078535
-2.2380974063233425e-5 -0.01980474791826058 0.005109921684319814
1.3968343103659018e-6 -0.01917368655122009 0.004524425368955887
1.0787374631144937e-5 -0.019100635833113416 -0.0014833385973446651
1.0235460670564413e-5 -0.018810982581937582 0.0005219762182669782
-2.510701838909929e-5 -0.0011239063315191607 -0.00026965227522130224
2.6683102380558216e-5 -0.03349461954916007 -0.003228301909772353
2.1181170600793308e-5 -0.03326653426433812 -0.004302910925515899
-5.848923274113483e-5 -0.017387267526421887 0.0030688695887067783
-4.421823506274395e-5 -0.01845508893878203 0.0027384033851104257
-3.7283461803860264e-5 -0.018198654941712113 0.003270711171468015
-0.0001020946116137114 -0.017333321795789957 0.004779226148422967
-7.985964113746293e-5 -0.016286136736496464 0.0037367249666874084
-3.488791076281471e-5 1.5155333994058349e-5 3.785684549817498e-5
-6.749398288259129e-6 -0.027744666837750214 0.001142074077764882
-2.4746961518120176e-5 -0.027735669919511433 0.0022259022850341027
-2.675300484722697e-5 -0.028945996054950858 0.0025620451605365023
1.243758799236658e-5 -0.025382196134024145 0.0006366532749124521
2.0058163255201106e-5 -0.02576690340980678 0.0008952194936072469
1.6630865679372724e-5 -0.02689201608555183 0.0011282596879439114
-1.3245428063820718e-7 -0.024541004866086364 -0.000642015523771426
6.866958785132908e-6 -0.027088191109245402 -6.957542309715658e-5
2.7326296622523794e-5 -0.034945139402954455 -0.0046309619556435385
1.803250795063357e-5 -0.036902276872922204 -0.002234440289988119
-6.48288079301027e-5 -0.022490176902899083 0.0030772595384485728
-6.184052322865251e-5 -0.02351455061264152 0.004167032761780389
-5.694074585460319e-5 -0.023715324434745742 0.0031003839301838873
2.0080293602101806e-5 -0.03580335385490726 -0.0019783328855163336
2.772985083721624e-5 -0.03650418337631695 -0.004236244157511478
2.7941888069560702e-5 -0.036985847143418335 -0.0029399575895111387
-5.518593698077445e-5 -0.025495299730322142 0.0032122055995037527
-3.3778056710663367e-6 -0.004067798886814945 -0.0001357005091089844
-4.3915397315110244e-5 -0.004362944369575417 -0.0007168735831051089
-2.6787853471385425e-5 -0.004136610174448274 -0.0002981731404593705
-3.3098442845200425e-5 -0.0036102457009435608 -0.00044691137795967975
-2.2822869503471925e-5 -0.0034522631055681637 -0.0002503863000577052
4.9284385124816354e-5 -0.003535571948872099 0.0003742922152072878
1.631524018085924e-5 -0.0046338458643934 0.00014000871557616552
4.3151772390928595e-5 -0.004179819383846092 0.00037221145443724045
-2.5051762188357192e-5 -0.004570465219009718 -0.00036785310148853634
-5.7462078521135916e-5 -0.0022241201536023795 0.0010529350964103385
-5.2048128544969815e-5 -0.0020839329746295907 0.0006787343560608798
-3.360051792389384e-5 -0.0025444518668086436 0.001044406658962478
4.845934702570619e-5 -0.015309207531479482 0.002569525668175325
5.282641747718686e-5 -0.015289228804092373 0.0034686677388532238
4.3775004153889764e-5 -0.013873938100500844 0.0024573900039238845
7.548472154634593e-5 -0.01430000636580968 0.003261827882304203
2.739268248232211e-5 -0.014491949381200221 0.0010764612022911453
4.884038527019535e-5 -0.015579697382437445 0.0017174562018700463
2.686259485571025e-5 -0.022745220159460827 0.0011803115703868494
2.4085340991776808e-5 -0.02331357113533893 0.0021532966591821636
1.8507679096600938e-5 -0.023883514598549364 0.0009987280706975686
3.8569016966998406e-5 -0.029261167048860608 0.005706202036591038
1.730774042268515e-5 -0.04333121734989919 -0.0024404595248742026
-5.760746711459271e-5 -0.003166688991647173 -0.0007767139147043432
-4.453383436798263e-6 -0.03533487959368678 -0.0031977946446535644
-4.779690407036901e-6 -0.03457198468648944 -0.002074383021779455
9.799228054895164e-6 -0.03610414296291162 0.0009753505520995904
-6.75707834324699e-5 -0.027799030417363688 0.003505995779558078
-6.327713995597736e-5 -0.02917114909517871 0.0035496337300335167
3.331807932115401e-5 -3.5328940563130505e-5 -6.864858236391088e-5
1.8238141588435984e-5 -9.430037732677937e-5 -3.663115481258429e-5
1.6814094762896608e-5 -0.039179861132164276 -0.0014047642406189908
1.4364229211072499e-5 -0.038270045798216974 -0.0013048237339187286
3.1485429537740345e-5 -0.012584869168402386 -0.001983874094959264
-6.313973859639991e-5 -0.003953952546810212 -0.0013337676814140383
-1.8492395405000177e-5 -0.0045187643651740965 -0.0014321569751878157
-4.4739289023365394e-5 -0.004297345210696779 -0.0020491762808637036
-8.368927769890351e-5 -0.003766277273105229 -0.0019313449038233545
-6.724220537213742e-5 -0.0033628074844223523 -0.0013993770299844026
-0.00013301866373925187 -0.003617225500761581 -0.0015722160811649697
-0.00012349544017080583 -0.004163377919831136 -0.002034075858346728
-0.00010453991537157557 -0.003082519931030542 -0.0011617809808192683
-9.64158392749969e-5 -0.0039519638178650805 -0.0012788936118831578
-8.102899893732228e-5 -0.00449409009769976 -0.001747428920394368
3.476323581222325e-5 -0.019876830153403965 0.0027707492194783546
3.234120310905711e-5 -0.02019041772423677 0.0017698622982899406
4.409978982020022e-5 -0.01872733403610948 0.0020046589163012895
2.4343282201410346e-5 -0.03737266194446621 -0.005854958903144911
3.672269225650034e-5 -0.03722286778230338 -0.004423741014143105
3.5497066613491174e-5 -0.03714025530722245 -0.006016419425825693
3.30346853547593e-5 -0.03864455253615703 -0.006090123042436764
3.413831130358396e-5 -0.03868401664960447 -0.0044827765100310365
-5.288386678523391e-5 -0.012211742348095892 0.002805491363131966
-8.990378841915753e-5 -0.012985127705162863 0.003355284053391494
-4.950949409647833e-5 -0.012963292586100364 0.0024299174147740916
-7.034819435063469e-5 -0.012354856102240448 0.0021876392160718656
-9.526246130446519e-5 -0.011949139271168105 0.0032703849082324253
-7.803419884645054e-5 -0.012807545099491528 0.004100613993002555
-8.011557751040816e-5 -0.011929901710447523 0.0041716660410108415
-5.438419875827527e-5 -0.011331822906879552 0.0030681368971476482
-3.295909223555996e-5 -0.012521744338757067 0.0033102810885092824
2.9861391809175406e-5 -0.01814942324443764 -0.0008908773622252058
2.168771977910457e-5 -0.018890278985629044 -0.0016203685821056773
5.539148642525461e-5 -0.00013503558028864215 -0.00013352512763809414
6.7391732190011e-5 -0.017417674673919085 -0.002622521239230217
1.2541351834480038e-5 -0.019786380106734117 -0.0028184919188802638
7.903524698166465e-6 -0.0002570512141738489 -5.200996975344166e-5
8.656545409776988e-6 -0.029832235554944426 -0.004534078445433628
1.634157944828165e-5 -0.029946293237921383 -0.003459835913019197
-9.223460656539926e-6 -0.029750230802082177 -0.004371322390405439
-4.695286905151642e-6 -0.03846414833221327 0.004988982773710128
-8.741507646859028e-6 -0.035607438645889146 0.004342072121567943
9.673241145639077e-6 -0.024064577533771687 -0.00012845580930709305
3.6823530577719085e-5 -0.023492767307175616 0.004231579922389178
5.4708909673313387e-5 -0.022653613159176002 0.005299127638717793
3.743178333176051e-5 -0.022168246227515336 0.0041132002305474345
5.635991572615366e-5 -0.022890055846436743 0.0038874082658584812
3.7389699183631474e-5 -0.024975929634739043 0.0043354382908342036
5.178129538971828e-5 -0.023925785626155754 0.005397363916533889
5.189629794370366e-5 -0.0241178574014572 0.003957719582453118
1.5725225130183307e-5 -0.034818032524948216 0.0020138925711270087
4.025454362612001e-5 4.5985781407288196e-6 -4.618957652161085e-5
1.1566542223884847e-5 -0.03449909380762491 0.0029398042276036953
1.5795455985262597e-5 -0.03621672356274416 0.0022858865271554304
3.686624365346505e-5 -0.0002888116022714029 -0.0003825442803543341
-1.5677565728063434e-5 -0.000289960308212261 -0.0003815337144925013
5.885829861687534e-6 -0.0001457701703607784 -0.00020866404847965479
1.158478825578747e-6 -0.04763659551121915 0.001993047749179221
2.4181336750967096e-6 -0.04888471261977119 0.0010055921431111464
3.193007526412031e-6 -0.04763212448998935 0.0005437899858613411
2.81244181960158e-6 -0.04885435977278508 0.0006920292803694173
4.6106747949990095e-7 -0.048914955397842165 0.0024247275626139405
2.3618326778022154e-6 -0.046468076036446995 0.0014864410394082063
1.9432491806407135e-6 -0.04752900274959206 0.0019361765322439702
2.0966705924126915e-5 -1.0002486927186104e-5 -5.0353154542464875e-5
1.7812897925288368e-6 -0.046375650813446745 0.001527487701735459
2.0714918294115853e-7 -0.04749100149644229 0.00198519654433195
3.099456254573877e-6 -0.04768502560492756 0.0005359006600111342
2.7583186127953954e-7 -0.0487680293533853 0.002424559074692421
-2.7483021389671248e-5 -0.029721214356645546 -0.004227594342802961
5.933453182371385e-6 -0.021792662019622103 -6.24942816183853e-5
3.3665400776078235e-5 -0.02249671013143464 0.001109000009053214
3.4113374262748875e-5 -0.02175137505039245 0.0013263931524735862
2.846965019099283e-5 -0.024304800613933558 0.001317128987164891
4.492242486788524e-5 -0.022585675711206007 0.0026123429926327483
5.1458918677140166e-5 -0.022722394878984132 0.002252562142513503
8.426703202391464e-6 -0.023261330726389143 -1.1242450240889666e-5
-1.7553299922417774e-6 -9.359846213191453e-5 6.031524119764209e-5
8.515829446956418e-6 -8.771563037415417e-5 8.66388190226091e-5
-9.398445134118423e-7 -0.00010502366920315135 0.0001331772403201294
-3.3414526145979096e-5 -0.0001924129246920765 0.00020678651239098563
-7.223241879801532e-6 -0.0002745981430596462 0.0002944783208912141
-3.868497250958274e-5 -0.00037354981769022953 0.000287223346740134
-6.70384138518259e-5 -0.0005670217771578018 0.00046580225183790564
7.2776409514580614e-6 -8.57739907342992e-6 -2.252479647255445e-5
1.95606904192697e-5 -7.491767824003018e-5 -5.718528547984729e-5
6.198319237212377e-6 -1.9905513693593072e-7 -9.290128773540385e-6
-6.96650057409764e-5 -3.8117916840269453e-7 8.579250077132078e-5
-7.027877008325023e-6 -0.04452923014385681 0.00379068955231869
-6.344095587611522e-6 -0.0433913007072168 0.004803798561244366
-1.1788104086118367e-5 -0.043514207417643516 0.0049973848525264215
-7.835955742947099e-7 -0.044036943808706354 0.0015208731551351296
-2.4726083248071656e-6 -0.04549360339552207 0.00208390073275847
-6.614948888996779e-7 -0.04439949448624663 0.002499368913812347
-1.3149976430909791e-5 -0.04434123783137188 0.004709422666814277
1.18903387522518e-5 -0.04345707268292019 0.0029116229198587933
1.909433952887666e-5 -0.04271195001030284 0.004685241593848229
1.605727365483258e-5 -0.04399088591657719 0.004914490141853887
1.1007569457327813e-5 -0.04283552889846256 0.003152007546567906
1.0798946310803e-5 -0.04470503578641818 0.003784014431312543
1.4915465488859528e-5 -0.044164160100746294 0.0037835117297416163
1.2343636604458613e-5 -0.04400817214963619 0.0025811733908588227
7.0176928360019605e-6 -0.043679388444712544 0.001916175487887377
6.77198360189312e-6 -0.04449072071055277 0.003057365246700551
8.912013818461102e-6 -0.04401591589716038 0.0016930916384243018
9.488285854058199e-6 -0.04248764124101444 0.0015573790320731235
1.8036370079685753e-5 -0.04165330826630853 0.0035041552082656926
4.70776093910476e-6 -0.04621756628524992 -0.0002754331695461117
6.08088813425965e-6 -0.0474616740484047 -0.0018681622158369902
4.506596576918949e-6 -0.04601347385968535 -0.0005886868396621838
6.151656528564282e-6 -0.045129855850817795 -0.002122065367017087
2.7921090667996896e-5 -8.825749803959923e-5 0.00011937477543885821
8.200412817281239e-7 -7.691899253254077e-5 -5.0638934060104565e-6
1.5785999713273522e-6 -0.00010121120081694146 -6.080408780451573e-5
-1.5272427527138936e-6 -6.948439724008241e-5 1.776904423201384e-5
5.883145980330831e-6 -8.705037119495792e-5 -3.500995873388143e-5
-3.628892933790003e-5 -0.00022158289221326213 0.00014993946458531887
-3.0925390039384555e-6 -4.0073985120370946e-5 2.881002790828339e-5
6.639610385587458e-5 -7.950060232927132e-5 -0.00015119526853980543
-4.684897507307797e-6 -0.039704599716145754 0.004303725322137182
2.850736692214298e-6 -0.039053147770799136 0.005994431201652581
7.123639042352179e-6 -0.04090628989061744 0.0034499653196799402
1.293626482314743e-5 -0.039609803239498045 0.004670486831861491
1.9260255273718456e-6 -0.040642993062804667 0.005974900868960973
7.143948734590927e-6 -0.04177484159256921 0.004623028548021184
1.423190221280949e-5 -0.01321201286573909 -0.0002744322821447867
5.959614822326931e-5 -0.011654009698563094 -0.0016265975942821925
4.181692868265242e-5 -0.013490247344708665 -0.0013719974186319319
-1.5023957230852214e-5 -0.016703575904257754 -0.002789785776451218
-4.1010794120099827e-5 -0.015676158856624454 -0.0022723553767079662
-5.792607989620328e-5 -0.016866932529334307 -0.0035423351739311323
-2.247623476460264e-5 -0.015762240639777228 -0.003632053284699035
-4.572866502030191e-5 -0.0176881666747459 -0.0029775554532408175
-2.3521079859228277e-5 -0.0183672393952893 -0.00268389356153879
-8.029987542056487e-5 -0.015279047437461737 0.003631571048130104
2.524037501563013e-6 -0.04398999809628418 0.0028056806589345845
9.152795793710611e-8 -0.042820264162881344 0.003536569699746831
4.366939355316296e-6 -0.044773897022081836 0.002404763523861602
8.749950978917626e-7 -0.04605049399859009 0.002939708080960263
2.899099574045373e-6 -0.04478675618653348 0.004078489029555321
2.029768483648501e-6 -0.04343248149256658 0.004785507830336141
-1.5751007148914499e-6 -0.04476585610323154 0.0038528934492432425
-1.9604530085706856e-5 -0.012029208386879958 0.0009176005157373896
1.0072376166691378e-5 -0.01049404973710405 0.0007956128948188342
5.7401324523699554e-5 -0.011788475066187624 -0.0026933466520625772
2.8334178877723428e-5 -0.00964317915268981 0.0008453140085795973
1.3828309403776078e-5 -0.008973010069763317 0.00014868548236025825
4.993948922649723e-5 -0.009224391069828334 0.001634556188009558
6.970785793880714e-5 -0.009944986288011437 0.002171866435673013
3.298060084008493e-5 -0.010240589929809338 0.0015738992961679117
1.2548520812120185e-5 -0.03705551027054271 -0.0009602032982753681
1.9765656496911986e-5 -0.023918095790148725 0.00541101731080178
2.6982512652385905e-5 -0.022834368513821937 0.003103133158630262
-1.8292517726799058e-5 -0.00018507536168139345 -6.328383935211335e-5
4.0033662110233235e-7 -8.075348685294615e-5 5.509791476928512e-6
2.6768878276791506e-5 -0.009148129749386027 -0.0003066522687063306
1.3787016663480993e-5 -0.048966671710819 -0.006456309659436724
2.113302667874126e-5 -0.015118420454668016 -0.0007317362094640212
6.482978324868973e-5 -0.014430132338941998 -0.00210056685589253
-1.4025838153985548e-6 -0.009514796818200874 0.0011123276543662513
3.3281474057248604e-5 -0.01370618195117875 -0.0020997923455076187
6.385729583361755e-5 -0.013539302845597677 -0.0025380860612641987
1.8909332124747932e-5 -0.04655275936809628 -0.006245348604519221
-1.6002718878499714e-5 -0.006603362077794259 0.0006231693215529773
-1.3312332045197999e-5 -0.011383483338633612 0.0021495284830278395
-2.4189630395912817e-5 -0.007937776184279403 0.0007116345772472753
4.017557193326069e-5 -0.008564070378077304 -0.0006140044006093741
-2.041255377240717e-5 -0.008777565285124536 0.0005870951119564697
-3.130324435453264e-5 -0.008563114581615933 0.001233875125580147
-2.2243292114744378e-5 -0.010261507707216018 0.0015526310872655664
-1.6328342234688546e-5 -0.026831211639949937 0.0013584309401797107
-4.451793266453204e-5 -0.026557052481706825 0.0022948644050925847
-3.826756935596232e-5 -0.027997841309052272 0.0021966514931586805
1.191957240157451e-6 -0.04893382765317697 0.0019304912411247928
3.166226131575478e-7 -0.048747746589759715 0.002641820228385275
4.5667602141167135e-6 -0.048882049251730855 -0.000484175553138872
5.853885683109439e-5 -0.012634752082605871 0.0013618576151240495
3.838260193062585e-5 -0.012648725643750988 0.0011692626861962952
3.4607632676954815e-5 -0.013483090136987126 0.000862710656274749
4.725438598292601e-6 -0.04765185661692894 -0.0005575687450458243
3.084314732412832e-6 -0.04742849785338262 0.0010906629281619248
3.1862674858825363e-6 -0.04891328918687884 0.00045327301499682184
2.930137004640282e-6 -0.0013243770062995451 -4.119511109175768e-6
1.3536839896869878e-5 -0.002784161249727043 -6.834046573336809e-5
1.2611027409365933e-5 -0.04897410311205477 -0.005322198508669935
1.0033377101268716e-5 -0.048917212747402065 -0.003824024760791627
1.1964102409695776e-5 -0.04891817207246731 -0.005074682461015272
-5.906746509188519e-5 -0.0025962008363488672 0.0007181829193292301
1.225328185322282e-5 -0.010547131075686124 0.0019254709908165834
3.527154755747453e-5 -0.009488011787192328 0.0004859897485172583
-2.3800284609867245e-5 -0.00940239468449419 -0.0004703825995369288
-2.3214317618766916e-6 -0.009704664797013826 -0.0002351744958726146
7.711842662433218e-7 -0.04360771189470017 -0.002511287217057503
3.1060147122887866e-7 -0.04326335916186757 -0.0036429530848124145
5.976818743839943e-6 -0.04389015931783828 -0.003651184438138888
2.5085037558664295e-6 -0.044974021263955576 -0.003720393441779482
-4.661467638643521e-5 -0.007488248435593942 -0.001392260865187643
-3.933726755188408e-5 -0.006862433170748329 -0.0008107274153172723
-2.8070768352528575e-5 -0.005919290064026438 -0.0005748029432477976
-8.414807624877411e-5 -0.006282210218066109 -0.0011950990218471697
-1.9423469813139683e-5 -0.005971833040124265 -0.0003313895922159296
-1.4530385800348804e-5 -0.007311321723533858 -0.0005972333290123318
-8.317986330951963e-5 -0.0058085911463194835 -0.0014168704699523192
8.357531933518853e-5 -0.004210603794799843 0.0010585750023568402
2.4647182403580754e-5 -0.034789120916004564 0.002212418648891216
3.984841150666435e-5 -0.03389659376310487 0.0036261626535592155
3.128306911376911e-5 -0.033218940459356375 0.0024546492354003816
3.62571667692612e-5 -0.0337988016423035 0.004621147720759833
1.915333001733744e-5 -0.03430804546454891 0.004332002651698674
-4.006046625910343e-5 -0.0014059886089531576 -0.0005637094275076894
-8.280571712324306e-5 -0.001510250464618467 -0.000698912486166696
-0.00011940162082824755 -0.0014839844091294617 -0.001101839117331512
2.7793472772486263e-5 -0.03716888976314066 -0.002309305715836075
3.8776600746591154e-5 -0.03803961814031956 -0.003674206720065961
3.415577998439959e-5 -0.03781695205697012 -0.0025564625364013684
2.1280105303595067e-5 -0.038742216820032226 -0.005973090269682429
-1.9882789261157922e-5 -0.030601630925314052 -0.0024602982351879313
-7.5916437131765555e-6 -0.03133742670710134 -0.0013873666820516536
-6.462817779648988e-5 -0.015419384474526369 0.0027162925911180676
2.2847874413927492e-5 -0.04128583027481449 -0.004848119032628914
1.7144614343650354e-5 -0.042932120338805314 -0.0061693957243828534
4.2976384411981525e-5 -0.03658822088280713 -0.0036478474748774504
3.548814614978089e-5 -0.0394919154238295 -0.003694010824607712
1.888427904088843e-5 -0.04467659130547937 -0.004883126191080171
2.3557258103442212e-5 -0.04363986999696386 -0.004563927649910863
-5.019949055250176e-6 -0.020801380403408638 -0.0028070134593796863
-2.2517176436990938e-5 -0.021771246691687805 -0.0033350885241322644
-8.218963034081391e-6 -0.0221051823765522 -0.004156921887372822
8.38565895338988e-6 -0.0219093683562474 -0.003193703284846661
-0.00011127696676155695 -0.02406799011150566 0.0045561194197267715
-2.7055298800510438e-5 -0.020423295444573258 -0.0036723904254341044
2.2249241343474878e-5 -0.02077173947199117 -0.0029958854676344934
1.123357226354652e-5 -0.008290317239228052 0.0028603615309447748
5.648458123478634e-5 -0.007517408572907226 0.002598997754770323
4.526124423966516e-5 -0.004245798921740738 -0.000495282584249684
7.484623314029795e-6 -0.020498977677040783 -4.839978003021235e-5
-1.894330196081923e-5 -0.0233885271414391 0.0010424883835347541
-1.1427849029119881e-5 -0.02493251775583539 0.0007451269090346324
1.046123821344648e-5 -0.023998726358282155 -0.00010458205208169328
5.159108797262657e-5 -0.012626941042043644 -0.0033243965958923223
-1.3321568014879273e-5 -0.027165576423676417 0.004519245832831724
2.2589183894842256e-5 -0.007681827454806311 0.00048615612877399506
3.343512191598363e-5 -0.0086838876962404 0.002245518451911427
1.5309282830124316e-5 -0.009171617028348057 0.0018105458712395577
-1.5535069474709486e-5 -0.008758552196713778 0.0022026756577629893
-3.291381569801316e-5 -0.0079826451386504 0.0016113627035309692
-0.00012991360515191992 -0.02636752823699122 0.005977557997979047
-0.00013107809747068692 -0.02472272734885656 0.005530166683428007
9.194880753271928e-5 -0.02208291682268818 0.0032633551837663215
-2.0449202014910073e-5 -0.014329145345682364 -0.0024435145661605255
-1.0454135121934782e-5 -0.013469901144135545 -0.0016475539524406586
-4.598019874095307e-5 -0.00254715289711041 -0.000600664959004797
7.930320922595458e-6 -0.015828759811906033 5.636205595063647e-7
-2.7293307790766633e-5 -0.0157502194873317 -0.0011163025600546255
0.000101733058571611 -0.013501191655170879 -0.003513289219517851
8.383547458464265e-5 -0.013298435324042608 -0.0022165447614899735
5.686126025169272e-7 -0.04288766978428039 -0.004860039476101768
-5.235789302264578e-6 -0.03913103449314573 -0.0029952399368733695
8.531323609994291e-7 -0.04076154614257567 -0.0015054356160575223
4.149701806274833e-5 -0.01565634421885356 -0.0010773860016879092
7.788537796770037e-6 -0.014506491962403991 2.073200695997802e-5
1.236706855575463e-5 -0.01572593734522877 -0.0001338501392523879
-1.2271856412001191e-5 -0.04169072182111625 -0.0045141654553612935
-6.2810322954739425e-6 -0.04059835600761099 -0.00255162119310675
-1.2467943784558224e-5 -0.03969376961604143 -0.0035885611914927666
-4.80445303863017e-7 -0.0415095029420511 -0.0015081347015095574
-4.370032978196622e-6 -0.042338521435535174 -0.003014757572444816
5.923718013555612e-6 -0.04347024782342912 0.0033687526355392215
5.487370988290966e-6 -0.04504273451116867 0.0011888313867682637
4.6976659940842e-6 -0.04303111101829152 -0.0002152076429617415
4.573623913173912e-5 -0.0034202810253874923 -0.00042019940629534004
-1.540099703348965e-5 -0.03153934905076198 0.005846377716474353
-1.6319571255328574e-5 -0.030206436016264476 0.005733972825633221
-3.686995272288193e-5 -0.031530282322418245 0.005853266082334216
-5.1889231364289256e-5 -0.023283547760782057 0.005204843428995202
-8.193221410298372e-5 -0.006226560800864477 -0.0024244696768046564
2.6755978998678407e-5 -0.028951511992769203 -0.005577711548754666
-1.3214054688624918e-5 -0.0469826100811546 0.00622385969390751
2.8506625233056796e-5 -0.02989202688497667 -0.00468058196091193
3.9704597956576585e-5 -0.03226183356497476 -0.0034307590745047073
3.6118313322442314e-5 -0.032158945920412935 -0.0023070726581972713
0.00022316109846712604 -0.003753859556932548 -0.002444456524245923
0.00017557489680379302 -0.0035655280772475 -0.0023499532423483216
1.6483474923480308e-5 -0.03188572836203602 -0.0011859390008096425
-7.65309155288513e-6 -8.95860728892806e-5 -8.945700600956293e-5
6.347200125479251e-6 -0.015633686075010783 2.7418005592334874e-5
-5.160279250195033e-5 -0.0015524285391266648 -0.0011429961664641414
-3.536525470579246e-5 -0.0019397146210291217 -0.0012776837923992787
-3.6454629973587416e-5 -0.0012773186423866495 -0.0013412456803710627
-2.6103052420692587e-5 -0.005187263346209473 -0.00052353998103239
3.0223472201121786e-5 -0.016958172306974252 -0.0011400147731490864
-9.400087605734983e-6 -0.02209700608587973 0.0010643600064735436
-2.109308290727902e-5 -0.022551682745860963 0.0013024340536785255
4.863074693192609e-6 -0.022670657341149272 -2.485288925752361e-7
-5.459561873345283e-6 -0.02098789524451086 0.0008392516312395586
7.166257696674824e-6 -0.021587724565200656 -5.924477575495022e-7
-5.572944396339299e-5 -0.013805638279788167 -0.0020000611312564528
-2.9815851471106636e-5 -0.013624144869669255 -0.0016021537931521018
-1.4960456996211033e-5 -0.014484600551033023 -0.0008219464147140818
-4.585427537144968e-5 -0.01478228332123815 -0.0017421475881914577
-5.315103938479342e-5 -0.01380299994444656 -0.0014176651845417565
-9.481404270255966e-5 -0.013857636374323887 -0.0024478415752429545
-6.264293044319847e-5 -0.014764693218817074 -0.0017536253006486002
-5.2886548007765504e-5 -0.014151659216773103 -0.0025694159712684418
-6.65566742701234e-5 -0.012939463143649214 -0.0022299468935623843
2.666926406815325e-5 -0.01411470207863516 0.0030934215410343088
8.89359531989748e-5 -0.015672518442906402 0.0037375619581031016
7.843486232533119e-5 -0.014415996352673974 0.004460911863354846
8.666089615867608e-5 -0.01580949151165399 0.0027940580831149284
4.367564064635238e-5 -0.017361092788375644 0.0019800162422914415
2.741572355211964e-5 -0.015092598563393012 0.0030561952757807704
6.038722121761687e-5 -0.014469424214435618 0.0022322746622498663
-2.7419036754106472e-5 -0.020056408621310987 0.002747038515630844
-5.739167767223569e-5 -0.019117279475937464 0.002584825121159835
-4.4903639113301704e-5 -0.01951259779313196 0.0038386282754347217
-1.759923562659205e-5 -0.01965940980726779 0.0036621155513478537
0.0002223847681158833 -0.005018368443633856 -0.0028540964134852027
0.00022130469416504903 -0.004293217061434893 -0.0024585316703637223
-5.851256111403131e-6 -0.02327539927479574 -0.0011093738173508652
0.00016094821318004513 -0.006355772218612172 -0.0031130733054228585
0.00015960694000623454 -0.005602876018114216 -0.0029482288502534074
7.891850648152545e-5 -0.01702660515933567 -0.0035059430358859237
9.649731261721983e-5 -0.0006103456463040077 0.00038167615398505594
4.0080173299879115e-5 -0.0004582733035498579 0.00011066592597298562
-6.992632177052154e-5 -3.492570418801302e-5 0.00010323763404856804
-0.00018428862375853553 -0.0001294503904257578 0.0003164008616830515
5.990003134175307e-5 -0.01611311841371536 -0.002284082346370924
8.137680396505641e-5 -0.015889047274386926 -0.003412118085520327
-8.591264301577383e-5 -0.005476653373264039 -0.0010857095138117397
-2.8819387950021994e-5 -0.021453566650690897 -0.0025314710220106177
3.0217306969808796e-6 -0.04224960733175938 -0.0012411114311944528
-8.038506705797308e-5 -0.008143568884561057 -0.0018263171575711077
-5.5594262936203324e-5 -0.008647654469692158 -0.002243843530091155
-7.892825794407453e-5 -0.009024409183845741 -0.0019089445095020008
2.5547391198732126e-6 -0.045119619498455894 0.0009296712917935987
-6.661920962009051e-5 -0.005380890151210876 -0.0022222845706417298
3.56187298780305e-6 -0.02033788741749979 0.00303417217026021
1.3895746990182597e-6 -0.018929560683112533 0.0032657621132012255
-4.973764954467636e-5 -0.024793415752982644 0.005384050801345387
-5.652078477660852e-5 -0.0016313365097096932 0.0005852040122852999
-1.9753851441947457e-5 -0.001923191589260985 0.0007772114535613653
-3.6626982086430364e-6 -0.03191211106665742 0.0034459024236410387
7.728762330554259e-5 -0.003628054017697512 0.0013316573514029334
4.452259507133541e-5 -0.003582890898896637 0.00142573983506148
2.8315567997525484e-5 -0.0029602723819874624 0.0009966177443728453
-3.806680467207493e-5 -0.029821604147523526 0.0042401302005623115
-3.2629400962289184e-5 -0.040384769531381544 -0.00620376752614825
-2.6331318535954828e-5 -0.041700383807038964 -0.006243960069117253
3.963203785781168e-5 -0.03217927688764331 -0.0047494317109131
2.3571354752727755e-5 -0.03189577273872281 -0.005862804277530602
2.2825679266381674e-5 -0.03300436887097056 -0.0059808275979688725
4.9615200418732044e-5 -0.03125462219694745 -0.005546191245815245
2.6712706024187292e-5 -0.031197442580815925 -0.004696372277046813
5.5771737560000005e-5 -0.03150226571888625 -0.00451476184489847
-1.9903004705246598e-5 -0.04334775762952245 -0.006584468423405959
6.0688597858276936e-5 -0.03291765898209444 -0.005904795103872262
3.7969204835421386e-5 -0.03346808640306152 -0.004513832308445171
4.358831102684433e-5 -0.03283028063546241 -0.005884820924637583
-9.296091109893948e-5 -0.006274450477590845 -0.00302485511894292
0.00014455559161743005 -0.004173909143916179 -0.0018827814890764137
0.00011206175128614772 -0.005025181953750447 -0.002071297843234692
0.000120405124815454 -0.004678276847757697 -0.001481389166589326
0.00012400975668461933 -0.0039588346957275585 -0.0020789193671113607
-0.00011150192181644035 -0.0005315458947049715 0.0007458704767648627
-6.249116625191216e-5 -0.0004912073424622863 0.0005943502804841527
-9.689079580114001e-5 -0.00033595464321357633 0.0005039235631612329
-0.00013487442373186345 -0.0003658537553879799 0.0005357530950260163
-3.93362211225765e-6 -0.032914221076532434 0.00446060830541162
1.0619817796430993e-5 -0.033440058327293104 0.0043224770976318
-9.213884235286113e-6 1.1347736359495506e-5 1.3018161879968199e-5
1.043698027183709e-5 -0.04758469425112177 -0.0034251266436246203
4.92349205373874e-6 -0.04658716509539087 -0.0004494860743578985
-5.008043866899824e-5 -0.000316521467306295 0.0003734257901625922
-6.30157390515637e-5 -0.00015498532059187798 0.00025616534924669595
-3.3193234288982934e-5 -0.00028326664766153774 0.0003872331722291719
8.536843097960412e-5 -0.011679114764306626 0.0016143091502909184
1.1583914562351387e-5 -0.04569020990362623 -0.0037218088067050227
-8.018366443664648e-6 -0.04449735807191763 0.0032474400581020747
-1.7709137417350425e-6 -0.0461205227316824 0.002895210483115571
-6.510067743510583e-6 -0.04584042223342813 0.003992334405545006
-6.147290478907019e-6 -0.04486209866029382 0.004857511313204186
-6.953587995578569e-5 -0.0077665378662595584 0.0018633112236741511
-6.868054474771868e-5 -0.0063827703406586014 0.0014498585931277692
-7.558368942835166e-5 -0.0004177516735211596 0.0002446067438367311
-0.00014458292292969277 -0.0005100668588290057 0.000535139096439151
-0.00012364461595739586 -0.0004412466854523669 0.0003756315711423066
1.2049550015874962e-6 -0.011146325681292936 -0.0002336966956234784
2.0285664799815952e-5 -0.011881101331563074 0.00042250809822964175
-1.2153071829494585e-6 -1.3260341706960254e-5 9.2669402025325e-6
-9.30998780353193e-5 -0.00032990074232630524 0.00034989343094695796
-0.00011525021900193823 -0.0006724954434351583 0.000713722014458213
-3.130111428414117e-5 -0.01148427555846763 -0.0013808523512697235
-4.351296202916508e-5 -0.00010706692467052036 0.000166153523702664
-1.9649571536596876e-5 -0.0001135565000100515 0.00017170351965777365
-0.00011601174429737442 -0.00017229248260857788 0.0002758968774363734
-0.00017202431879921595 -0.0004227492963070385 0.0005791308393501767
-0.0001762419476795952 -0.00038982272379054265 0.0004958238790355695
-0.0002221444344870136 -0.0002996688207386688 0.0005385169702176628
7.340538757932179e-5 -0.0029600069865911875 0.0010740908681874364
6.944547592954486e-5 -0.002598829450275919 0.0005898989384085127
8.551745742960326e-5 -0.0024514573551513655 0.001129465747841738
-5.062707748709279e-5 -0.0011946067242230706 0.0008201241429517809
-0.0001162801304111335 -0.0012933489644431197 0.0010358689355509385
-1.4815872151235381e-5 -0.031031616395588355 -0.004278096078263187
-7.98821155317557e-6 -0.032297424617557115 -0.0043295116317544
-2.9455419376035464e-5 -0.0318704973880816 -0.004595612443597679
-3.21686416890062e-5 -0.028171574976835454 -0.004205850633309708
-7.1032203483111175e-6 -0.028860061795441698 -0.0014211358043845124
9.448594412511393e-6 -0.03125449118347531 -0.003630813202263638
7.895801874672793e-7 -0.046095014512452986 0.0014472855855665286
4.3463074556338405e-6 -0.047038503719732 -9.444064313894944e-5
2.0287382508581915e-5 -0.00011016392344380247 0.00016461550750725604
-2.0328965267844024e-6 -2.646006945956245e-5 6.436911721031202e-5
7.006547279962442e-6 -1.9289718745364865e-5 4.929835098095966e-5
4.2159888289123736e-5 -0.0066291332993938835 -0.001312688017207104
8.070481049994497e-5 -0.006252531159954758 -0.0015313814555545082
3.7999004551319276e-5 -0.0060081446798842895 -0.0016882146204145953
5.540124612772433e-5 -0.006964818749349913 -0.0020005839208599974
2.8908718349791206e-5 -0.0418051123191444 -0.003638801209945462
3.253080105572266e-5 -0.042662569727188134 -0.004885246186991289
3.447014292941833e-5 -0.040173701454298646 -0.0047718220171677934
-1.3091309268511556e-5 -0.045246629458901934 0.0061224348975739236
-1.4108389221015768e-5 -0.044112400039742775 0.006000638753496341
-1.937538953445842e-5 -0.04408640382560881 0.006046080146640211
-1.8393322650777882e-5 -0.04269583814081317 0.004873044074587105
-1.4667306323767835e-5 -0.04384519928376399 0.003763183159569182
-1.1454254944151814e-5 -0.04574931054198299 0.0048958476047814906
6.604638648717309e-5 -0.0016698214891802936 0.00089401927204571
4.486205861294429e-5 -0.0019314492678002338 0.0012832903561313914
7.39247908021028e-5 -0.0011337737922328536 0.0009845537288565068
4.566748906508223e-5 -0.0014843096913324135 0.0012883531225325042
3.129246815138499e-5 -0.027396591416502084 -0.004628409356858403
3.030343245242027e-5 -0.02483566076562385 -0.004417210504645035
7.712650938237575e-6 -0.024603532395238704 -0.0036295633126183936
2.796784919208462e-5 -0.026146989368718454 -0.005411430785045299
2.358586691163153e-6 -0.0398332937419857 -0.0012413575842818484
2.491285252354556e-6 -0.03759893432826977 -0.0009834121683641
-2.3070005663747934e-5 -0.001549688769564314 0.0007899330773900998
5.058465336847117e-5 -0.027730626956948747 0.004392568003737341
-1.7162136773288122e-5 -0.017937399831896187 0.0009304795315628201
7.4263185486533244e-6 -0.017761337548654905 6.019186526114568e-7
-5.758598219497867e-5 -0.017847621866960296 0.002466513549790384
-8.460214666222271e-6 -0.012520183036800971 -0.002322037001370352
-1.2646814201964133e-5 -0.013834367418716277 -0.0032241242014179185
-2.7529482228293325e-5 -0.012455415457047637 -0.0033050442348527766
4.4606334903618685e-5 -0.009022646625374343 -0.0011125782885238187
5.693859889663911e-5 -0.009159891505968265 -0.0019343919085674942
3.4644153895271705e-5 -0.00994756358651556 -0.0018849090974746756
7.379953858804519e-5 -0.010086561014440288 -0.0021446316556031648
5.587457655734276e-5 -0.009897628941771193 -0.0013207578842278724
3.0901265608219325e-5 -0.010341013470552964 -0.0006275819657935032
-8.7409389673381e-6 2.067363266663858e-5 -9.489066674920132e-6
-3.35871983702546e-6 -0.041920759088298745 0.004821602478978639
-3.4919761913309365e-6 -0.0489454799189771 0.005342564962976151
-4.73772302787861e-6 -0.048999541465854876 0.006327961594118707
-2.837120635352577e-6 -0.04878977717359884 0.005268437591244228
-9.594967576347425e-6 -0.04027666948804401 0.005907706101567348
1.2936110758506814e-5 -0.013596994139177707 -0.002854843227778734
5.703757426346081e-5 -0.01963598842249742 0.0029292572088556222
7.02128324256435e-5 -0.019308285061087654 0.0038933212471147557
0.00010341165038531984 -0.019835901118086238 0.004060294205523912
7.956212001596033e-5 -0.019262939218915535 0.003030630144723289
4.8175233139172944e-5 -0.018385054706563538 0.0036378697587350654
6.85714758125993e-5 -0.01817653823376378 0.0029819776599586457
5.093873824026818e-6 -0.016619408777185676 7.439616518514362e-5
-2.4072511488751032e-6 -0.016642266920833496 0.000567396540516484
2.2544072845593074e-6 -0.04618338496970385 0.003345206019227156
3.382829378214419e-6 -0.046009884699689634 0.001407690515905921
-9.385404420517127e-6 -0.014227341692522091 0.0007287234563211682
-8.203780278479558e-5 -0.013461087040054463 -0.003432595022081806
-8.362594257317939e-5 -0.01247777475944475 -0.003331534819308148
-7.089046912068324e-5 -0.010909025627051764 -0.0020693294506366707
-2.9829309649133434e-5 -0.010340050799868538 -0.0008652023549351473
-2.904205821878482e-8 -0.0101632905609685 -0.00019560672578536738
-8.89116504653884e-5 -9.605450005531957e-5 0.00018932036945898547
3.7566835617303954e-5 -0.01401437869443145 -0.0033064329703481115
-4.667206729969304e-5 -0.013663432913580612 -0.003331518378140126
-5.695377796214141e-5 -0.011957686898792872 -0.0032672764789186026
8.461809033527768e-5 -0.014716346206479837 -0.0033772668294646535
4.721415262928422e-5 -0.011775459511335132 -0.0009165146779930454
-1.917447665700909e-5 -0.012051830185481546 0.0005571113169831836
2.7004053719225097e-5 -0.012114542734543392 -0.00039794063437439254
-2.32922284374811e-5 -0.013155571458538068 0.0006250262028148836
-3.908422100686447e-5 -0.012214598548804995 0.0011380579346306052
1.2233354494544903e-6 -0.039680939004585324 -0.004666520970515784
6.562495772353757e-6 -0.03905204487716324 -0.005996382620719816
8.638966342808937e-6 -0.03763056952153474 -0.006106574160403248
6.926610309837303e-5 -0.008199551737090463 0.002116110787472502
-1.0051141280278618e-5 -0.037904156918458415 -0.005980897173682496
-1.126037696987655e-5 -0.03645659365263295 -0.005939539622338463
1.5404611787041993e-5 -0.04622648077949913 -0.0037887035336174003
1.0886921598836574e-5 -0.0444102836169518 -0.0013809577424887753
-3.28386721496439e-7 -0.048934056104379814 0.0024437786172726225
-8.889633075126214e-8 -0.048829039673653464 0.0028352061256785334
-2.4329351063018822e-6 -0.04046809008411943 0.0009349766375408472
-1.4101181801929367e-5 -0.027415861102980273 -0.0013763228090568926
6.154510940088436e-6 -0.027188736141164783 -6.287820753881249e-6
-3.4170226694257746e-5 -0.027028002589530243 -0.002169144384778081
-0.00014650052493561 -0.022162073611239202 0.005372786749469798
-0.0001223261017019673 -0.02350812330589924 0.005449676850534662
-4.154794279240534e-5 -0.02766518916020043 -0.0033001918093668262
-5.599670415843064e-5 -0.026877615552273065 -0.004323698057284124
1.2736694910844157e-5 -0.012200824261226212 -0.002827507548260993
-2.94258009005557e-5 -0.011446932576197878 -0.003194305127581289
0.00011604885830063975 -0.003722014534839268 0.0013061311791493597
9.639354782925132e-5 -0.004503117010848717 0.0016154109909027575
-3.406318841690774e-5 -0.00775996661380668 -0.0007745603157740633
-8.160635747166828e-5 -0.008765031166183039 -0.001404419745580072
-3.9117836599464426e-5 -0.003975241733451638 0.0013267546535348795
4.038778038221313e-6 -0.003336564183210647 0.0009005433038405996
-5.9791096408858704e-5 -0.00981515717324574 0.0028960019474210882
-8.762831675176672e-5 -0.010323018367985125 0.002722697029994722
-2.7024941165033167e-5 -0.03203425522277368 0.0033499536622064916
-3.7406528144793836e-5 -0.031208785617244276 0.0042890812975058855
-2.4268223334886418e-5 -0.030322445748121107 0.0025941086674129356
-2.3496434459343162e-5 -0.032578758900010975 0.004308722006138956
-2.183252910045254e-5 -0.03109403003977089 0.0044328152580618094
-0.00010991649183682814 -6.69691527591049e-5 0.00013668670652583373
-0.00017459256154258232 -0.008995175810784158 -0.0029743426613748104
-6.103980276997866e-5 -0.006900707770439229 0.0012144465661304755
-4.75258960139347e-5 -0.01130552854214411 0.001877662166875801
-3.0099823719417838e-5 -0.0003947945981373221 0.00011991214728087849
-4.358153561323645e-5 -0.00014491315867358356 0.0001070765233800045
-5.1071333085001705e-5 -0.0002431817037357446 0.00011826917251197514
6.455344990232748e-7 -0.00039018748760616547 1.7094677541544467e-6
-4.6985299488752074e-5 -0.0005430828226178808 0.00014655269996660897
-0.00010949341794634502 -0.00027351614478451284 0.0002601598496685323
5.308079136050841e-6 -0.005348930053069096 1.2495665383519005e-6
8.273194216984614e-6 -0.004518600987657645 -3.3520053477727296e-5
5.5616489404683504e-5 -0.004804103153930828 -0.0005496431654027903
-3.694320229855546e-5 -0.003970836503431976 0.00039865629249104766
3.787844164331001e-5 -0.005260332900844751 -0.0005134915600085678
-2.532203030650763e-5 -0.005135447536819108 0.00048042719568027473
-5.735875064691717e-5 -0.02093709314414322 0.005144659375646026
-5.4309597491829326e-5 -0.021898806255927158 0.0038128394256419116
-5.781392616554364e-5 -0.02066359492539591 0.003776004910886132
-1.94155691800182e-5 -8.222201001166999e-5 -8.743089752251671e-5
-4.5410466500433044e-5 -0.0001681150219917823 -0.0001926518199150899
-1.447234673025395e-5 -0.00011999827867615303 -0.00017189745150627007
-1.432825623256372e-5 -0.010663938917181075 0.002873949183835701
-3.764424184265035e-5 -0.011758572056367706 0.0039025972111632686
-3.8640317313369905e-5 -0.010872333962909628 0.003885653642433737
-4.437956599569582e-5 -8.56796039526075e-5 -0.00012115645894369783
1.0569447828894561e-5 -0.011497545776232267 0.0027661565061740533
3.7576833625638385e-6 -0.011650181809441879 0.0037114989749332974
-2.740826298092681e-6 -0.0035781163848394473 0.00010364366314123741
8.927354697679073e-6 -0.003093273629428405 -2.418631292586159e-6
7.566190147543387e-5 -0.0005805529031372053 -0.0003718182080580916
0.00011911939176976833 -0.0008872258368850918 -0.0008196416456218417
8.664864097805216e-5 -0.0008039608275720253 -0.000535479111597461
0.00012030351985004827 -0.0006457703726933885 -0.0006884755009889228
-1.7584725268634557e-5 -0.009774595640077944 0.002363704980870315
1.5662378253119134e-5 -0.01766484440858576 0.0007203614270633795
1.982501747315115e-5 -0.019311944963512268 0.0008421976973235197
-7.803374876536028e-5 -0.002563971511083918 -0.0011510630313349072
-6.86967759423854e-5 -0.0019297262758290223 -0.0006134671395173047
1.0059061871989555e-5 -0.042031987442620954 0.0032314992544622625
7.540869942377344e-6 -0.04197706732482366 0.0013043146941046023
3.833261897738647e-6 -0.04629823960351964 0.0017973791204163162
-7.747804578868611e-5 -0.00998963434346965 -0.001994987806697815
-5.712173744424243e-5 -0.009865618052994959 -0.002387928849551877
-9.484696046717193e-5 -0.009223859853010597 -0.002914612332319069
3.897673851037739e-6 -0.045555239720027924 -0.00040998205167678983
-8.19013780915333e-6 -0.03718154476380985 -0.002844163433747293
3.992338280332664e-5 -0.021806701232419668 -0.004199318230876085
2.4309978694482164e-5 -0.020575249317560548 -0.004418396605015348
-6.299643390300585e-6 -0.020637796413883584 -0.004361667507553366
1.4176613308462145e-5 -0.021246811921186656 0.0010415658057724318
-0.00011100298576584648 -0.0001332648520079172 0.00021780302590684007
-1.8503591402292605e-5 -0.042093271786572004 -0.006269380299830967
2.1285501254519696e-6 -0.012477656061459478 0.002701257575953648
1.1321897802283262e-5 -0.010311499157331467 -2.3556892636587235e-5
1.0240146158516771e-5 -0.038349885898804906 0.0012321754673942093
1.4318476068238041e-5 -0.03857831144381193 0.0014527607155391982
2.189555689031922e-5 -0.03795093366343073 0.0025843425874408268
1.3200203466100505e-5 -0.036545088729372274 0.0010928843085144617
5.82704207594419e-6 -0.03658227283706817 1.1820253724136932e-7
1.5209018041004559e-5 -0.03625268453789022 -0.0010027870681904606
-2.711899635008598e-5 -0.03721822642545479 0.006071202836079866
1.0326031161824671e-5 -0.040135639129488615 0.0014516012166307189
1.3120013466910707e-5 -0.04061429927748971 0.003031085110164202
-1.471257791719659e-5 -0.0016032262548268286 0.0011468476920564626
4.570958289971052e-6 -0.001993061253589884 0.0011227250525609367
-4.1305595232471485e-5 -0.001980933179172772 0.0013093216444547075
-7.422317397242342e-5 -0.0016433149559772291 0.0011675377986277925
9.149513733255953e-5 -0.0003332937010174151 -0.0004938098814627113
-3.573487421590363e-5 -0.014155476145070359 0.0014543532203432495
-4.782914226967336e-5 -0.015233513688779869 0.0018097624834246269
8.981749108350715e-6 -0.03561308120005378 0.0043679032036339285
-7.187346343392689e-5 -0.013386352706995461 0.0022605820185593144
-6.751308467619878e-5 -0.014393946953744009 0.0017479079538899008
-8.46767549897217e-5 -0.014210270132176827 0.002625557118892865
-7.238411595527449e-5 -0.013156043354340223 0.0016870939251811825
-1.3040695772179687e-5 -0.015231230447902824 0.0008397604795612986
-5.605688266817384e-6 -0.02331750237521754 -0.0043011322386122056
1.4178312765315219e-5 -0.02361316757334182 -0.0033153124843452618
3.089456988672012e-5 -0.00260911917636557 -0.0010047040223219899
5.2160614443894116e-5 -0.011611215541730191 0.001157912013619057
3.222507574136916e-5 -0.011592974780229822 0.0005237283520760523
2.6838912836175046e-5 -0.010602344340241758 0.00046026869853065135
2.2134443569959336e-5 -0.013377056187221762 0.0006399113200024479
6.560877651355724e-5 -0.020994060134465812 -0.003723657093110787
5.364502178223995e-5 -0.02133529007059985 -0.0020439497158600594
3.651981206968138e-5 -0.023010444473953687 -0.0032692193343287924
9.03760202670266e-6 -0.04576740859710283 -0.0035428449194720964
7.400202162597779e-6 -0.04685574579106331 -0.002189908095613157
3.1424968561707415e-6 -0.0445632893589021 -0.0014051864633029846
5.878602168556383e-6 -0.0456517491675466 -0.0039020868411459037
-4.1477908553765035e-6 -0.04663480404995295 0.003283644265606894
-5.248520466421065e-6 -0.04356528504703033 0.0018997598635453277
-5.329374942532417e-6 -0.04494057665838893 0.002354800431607529
4.354896269253507e-7 -0.047540824041925854 0.0017254308864871448
6.676194656797195e-7 -0.0475732360552445 0.0015689839542275454
3.5071926956835576e-6 -0.0450430337646818 0.0004307392356147121
-4.998549618773832e-5 -0.019433376260545577 -0.002572059022197318
-8.044648944096807e-5 -0.01951991205334949 -0.0029537217292230277
-8.251633692764138e-5 -0.01936525396385389 -0.003705880726233276
-7.660031312045452e-5 -0.020636438799183154 -0.003069336338705904
0.0001067377372686798 -0.00475351316647791 0.0010850981457647126
7.131599902502286e-6 -0.043628920672211934 0.004686235856754794
6.6835344137956535e-6 -0.04542422446560923 0.0042144823043497965
4.407399432441967e-6 -0.045218104337405696 0.0052637058787898955
1.2078287472316254e-5 -0.04232673610422839 0.004488163650077921
1.0402298158656748e-5 -0.04409643155654668 0.004953818264022657
1.528582406983871e-5 -0.04360742683951888 0.006144198058017689
1.0734017660092024e-5 -0.0424022990601752 0.0060239541888255106
0.00016129964386014722 -0.005037834173447885 0.002130338397804059
-8.105852505510758e-5 -0.024945847907807003 0.004373972424367191
-7.419233797599118e-5 -0.02607774343582713 0.0055489012093639855
-0.00010401496540744917 -0.02604700640271884 0.005629708275070659
-0.00010353091288867377 -0.024964634348221642 0.005521516651143409
-8.856881785760467e-6 -0.03335876990895667 -0.002272606408252944
-1.003580757282998e-5 -0.03210090516504929 -0.0023525496457982285
-2.1728211763209882e-5 -0.03297236565732258 -0.0030622492806878527
-1.2114959157909223e-5 -0.03386270663485533 -0.0036753659436373947
-3.4863481662753475e-6 -0.03407694880003903 -0.001174156854738743
1.3509557229561619e-6 -0.032874458023974554 -0.0010862013393457774
4.299114799148603e-6 -0.046447119304210874 0.0008998215900328226
4.450590378295738e-6 -0.04491728955668861 4.102742646822188e-5
6.453475609178413e-6 -0.04520637102424473 0.0010639172653209707
4.274614350813466e-6 -0.0476672143082547 -0.00033011969150640967
3.960543348130521e-6 -0.047304512965200406 0.00026662002314865256
2.32698209391258e-6 -0.04778567907224319 0.0018520311929021
4.2157358447569715e-6 -0.04639878487217228 -0.00011327374361458126
4.4556383904521e-6 -0.046739431283130024 0.00034193752850976623
0.0001661776510601338 -0.004128718800550718 0.0019014908534045697
0.00020596034560168403 -0.0003127286670536723 -0.0005516446231204586
8.390340269749704e-5 -0.00182832485773925 0.0008060721754185689
2.7884911881265917e-5 -0.005161515681556908 0.0004686192358820673
7.220532985246316e-5 -0.01239177286869329 -0.0024700507301795675
9.015950425500558e-5 -0.012372764928377434 -0.002217335012422223
1.627161444558314e-5 -0.04637498259644698 -0.003533319826295719
2.1207511532565274e-5 -0.045240862096782186 -0.004945362807790028
1.3120027564541292e-5 -0.047555814393248595 -0.003961966742072736
1.9951962855925432e-5 -0.0466521152361555 -0.004976867276120021
1.6531401699311572e-5 -0.046470659068938665 -0.004963027352267808
2.438487472570607e-5 -0.04518517654353856 -0.004695836199924814
2.8809380948238152e-5 -0.028551640225491726 0.002431131503502782
2.627021130760171e-5 -0.0294855303963976 0.0035752892465462064
1.692919518754826e-5 -0.028624825973128105 0.0011454131157375646
6.46541596177781e-6 -0.028282567162297566 -5.621263935143006e-5
0.00013490040271038763 -0.00410644078357175 0.002010633891783161
0.00013018342876680564 -0.00352752790054057 0.00188057743593455
7.779131852772248e-5 -0.00415461689471639 0.0017867595141074196
5.4079821957132276e-5 -0.003955247037917958 0.0020114222606752593
-0.00021137819414362473 -0.005823050899694071 -0.0030788638010878456
-1.2805840469273256e-5 -0.00022299445701512283 5.169770891453983e-5
2.262040536638858e-5 -0.02138230159026777 0.005216452362394853
-1.5135049106663228e-5 -0.002219545656858578 0.0001442482754716893
5.669268038340249e-6 -0.0017527699074895253 -2.326763113355545e-6
3.472945684629065e-5 -0.006208489225363782 -0.000635479196178427
-1.0730335105130176e-5 -0.04214584671615759 0.004781511475410866
-4.821232714101938e-6 -0.041650312135548685 0.006091249868743662
-9.834179490367782e-6 -0.04260982953136997 0.005992070876323258
-1.9746615304847774e-5 -0.041411287757564724 0.006033864443858112
4.9163775427473835e-5 -0.005222769114913069 -0.002121285804499908
0.00010782109210463655 -0.0057535179710485424 -0.002190001259795013
4.408456088060661e-5 -0.006153779965161111 -0.0024346342235157816
0.00010411268112697102 -0.006443339379635688 -0.002316765790218489
8.983402659277512e-6 -0.047597294447405125 -0.003655924531577366
1.198506161172722e-5 -0.04763129382860107 -0.0049611636004852164
1.4206825467964996e-5 -0.046338695380307875 -0.004941468239672443
1.2937696911987104e-5 -0.04636127745512753 -0.0060199088412084805
1.4042832266420107e-5 -0.0448221910378387 -0.004896965410908729
9.07637130655738e-6 -0.04513163714874964 0.006035803717581694
6.381528906957065e-6 -0.046369436977225155 0.006121290244071793
1.4167147349125524e-6 -0.047012913610517015 0.005380858606319727
-1.2552903253002962e-5 -0.03234241920848497 0.0014274648156452573
6.569267967684208e-6 -0.032094630406694497 -2.401472362091275e-7
4.8284600910310766e-6 -0.00031138852413848696 0.0004244241801706524
1.9711290458784975e-6 -0.00014602376470895096 0.00021808686077196747
-1.2064667701532383e-5 -0.03433196763979513 0.0021621427825853994
-6.085930076120426e-6 -0.03372579459758487 0.0010760509735684846
-5.465873371962978e-6 -0.03499477425438889 0.001085290731561618
-8.42341507726207e-6 -0.02085062900687988 -0.0005275465198528584
1.9118693962417484e-5 -0.034060237979823285 -0.0011662689109444792
1.366001439167276e-5 -0.03388173021269959 -0.0009746301133928458
6.357977694222875e-6 -0.03350835102060364 1.7934822003148432e-7
-3.4057020017005146e-5 -0.032906583340575134 0.005896409826863604
2.4136614128635167e-6 -0.04755035047911866 0.004798167077622836
1.137369675202358e-5 -0.04578928169207393 0.005198700104550665
-2.277349236430906e-6 -0.04299868468451117 -0.001982844153637395
2.1823892815051887e-6 -0.043124760018054306 -0.0011417756450416222
-2.114260907532733e-6 -0.04402735516770877 -0.002529069122837978
-3.885467018395816e-5 -8.375406351281267e-5 6.28005370503251e-5
1.6555281388757272e-5 -0.04105231659124816 0.004503123031107017
-6.828618290356408e-5 -0.024111049672694045 -0.0032189027062192875
0.00018561976037561188 -0.0016709280057791353 -0.0015850708272817941
-5.807784948711622e-6 -0.030490632847445354 -0.0008448722369481587
-1.044948581830821e-5 -0.02973697603382727 -0.001407500705181329
-2.0594572333766612e-5 -0.03140563545101177 -0.0019261282944967567
-2.5031863511632097e-5 -0.029956327168802286 -0.0020153622982968604
-1.2308277736111044e-6 -0.041960247711429484 0.0009396395621690711
-1.508322163739742e-5 -1.563506529580288e-5 4.97509942186123e-5
-0.0002041302243833496 -0.006748927098645215 -0.003303503131643245
3.4335937457284986e-5 -0.01365234943461104 -0.0005678715829980687
4.202652621451235e-6 -0.0015973582167610155 -0.0012028712508499473
6.372506543806782e-6 -0.002105460323929024 -0.0012003678251323298
4.3766203514683385e-5 -0.0019316182111853177 -0.0012631740129257123
1.2680283639388004e-5 -0.04916977028179819 -0.00498330606491094
6.917378544250074e-5 -0.007112937572277013 -0.001489072593787176
2.7861278161267555e-5 -0.007221961198478135 -0.0006543831205191683
4.1944345310947334e-5 -0.042939714901493654 -0.006160935737150122
4.700992070287278e-5 -0.04332211138688443 -0.0062602797082319
5.603045334684091e-5 -0.0002386833616188854 -0.00012409362181377674
0.00010563986435203727 -0.006437772328923546 -0.0015495840529386438
4.750963867861456e-5 -0.007674984458560075 -0.0007596333429166652
6.561579612782928e-5 -0.008053731624435748 -0.0014516689747255383
5.711729214706934e-5 -0.006856704172872404 -0.0008472187944487067
0.00011405842443337134 -0.0073774563006577835 -0.0019043723709324658
1.8746522575121017e-5 -0.02925989767454871 -0.0006938059182992713
2.6447682033061138e-5 -0.030592850863821613 -0.001406284530181516
-2.4298031713481705e-5 -0.04207412745243175 0.003855575258558957
-1.2388327812208868e-5 -0.04230337726388333 0.0023989578881973245
1.7128842046089014e-7 -0.046544177475045356 -0.005341780020880899
3.041467944458129e-5 -0.04011074030328366 0.0038152838584252224
-3.67398368784224e-6 -0.04909833077572146 0.0037862281612805007
-2.1469038929991382e-5 -0.041567846617943056 -0.005030287114381065
8.475125244944344e-6 -0.009503720082188909 -3.3821271545362016e-5
-7.4332153949301895e-6 -2.0976428829799653e-5 -5.2073115819344276e-5
7.008723290612133e-7 -1.0832573339560363e-5 -2.29430440377675e-5
-3.650095561359739e-7 -1.942880019233818e-5 -5.334267529795034e-5
8.112848841333477e-5 -8.044204801554725e-5 0.0001247825954209352
0.00010257292926709251 -5.9683025250989706e-5 0.00012034638832064776
7.039035998406364e-5 -3.991868972066489e-5 9.788900201133844e-5
0.00016423788282178182 -8.620972182700469e-5 0.00024409778108717704
-2.0358499017179403e-5 -0.03980764813547038 0.004512071794312718
1.4981513841670454e-5 -0.0450558365488441 0.006312798379267788
1.993377571896598e-5 -0.044819742661857016 0.006288205988839578
1.7742055399062135e-5 -0.033237541651238864 0.0007365140651552739
-6.450716877333882e-5 -0.011327897695903337 0.0017653984687310128
-0.00010687812597738947 -0.01079660189967687 0.0025981447706084552
-0.00011772333824613863 -0.012102039580173992 0.0030759344554529373
-0.00012940475507682638 -0.011135213415390498 0.002519739300744132
-8.015004866865446e-5 -0.01035869721252135 0.0015597323068130017
-0.0001248515015618826 -0.012132711767199668 0.002607396592103672
1.9899835669295722e-5 -0.03431410925054354 -0.000885091774601498
3.723619237907469e-5 -0.03372459565948945 -0.002055209909595966
-6.48919856598951e-5 -0.030073848146136336 -0.004537533110142348
-3.136866049236767e-5 -0.011119725036090699 0.0008350993894432768
-4.611208588426801e-5 -0.010091308050198006 0.0012385829384537288
-6.213396323460923e-5 -0.015631204508515517 -0.0034701845369482067
-7.876000192983062e-5 -0.014999100039539472 -0.002690565038972745
-3.858608744966329e-5 -0.014812784002677519 -0.003247154783815762
-6.995331156699013e-5 -0.0287183024241108 -0.004442532891622057
-1.9664178936758626e-5 -0.04363499987364218 0.0039466882365955915
-2.2377098056316992e-5 -0.04506716527084961 0.005320221213500776
-2.9609113281531766e-5 -0.04354577546478114 0.005312253269094505
-8.04383949881616e-5 -0.027362360236786155 -0.0046947389201078705
-3.9867737872494845e-5 -0.030141841592028634 0.005787563747925869
4.7058226542885236e-5 -0.030101137332174465 -0.005735159561655476
-1.5678550172300097e-5 -0.04565317713346907 0.006249418920009601
-0.00017150408121667702 -0.00046904346508218933 -0.0006309096877151545
-0.00024902343896353676 -0.0003783446140929869 -0.0006436774445720986
-0.00024059811450302882 -0.0005716897876168202 -0.0007722237375511323
-0.0001836052440448123 -0.00031170281824538244 -0.0004568112842828734
3.0525331596360555e-5 -0.016141328897493163 -0.004683474058824418
1.2834314668772666e-5 -0.014838999352325763 -0.00396664787677905
-1.4090809272575313e-5 -0.01603381230067405 -0.00462213756278635
-0.0002907169683264792 -0.000442396321806429 -0.0007925001483915434
-0.00016392027235042063 -0.018691542312299116 0.00501260670166883
0.0002343938985321101 -0.009178843316568314 0.00378407486816656
-5.077532706921486e-5 -0.014536932997068241 -0.004412617875395665
-1.9212502208243472e-5 -0.014179747778780893 -0.00434385360852138
-6.321100400582417e-5 -0.015527631901340367 -0.004500780404982721
-5.616707064375471e-5 -0.016742546619900375 -0.004657066748279891
1.4457943537220373e-5 -0.0479616698890324 -0.006301128073416852
1.1134281997495403e-5 -0.04891932928949556 -0.005173701059570948
-0.0001967818656468804 -0.009091690412075299 -0.0037296944194947666
4.1516826688564365e-5 -0.012874771165426633 -0.0008562382390728826
2.8620161729221714e-5 -0.007150250969960865 0.003280645389830338
0.00018692756663672884 -0.0012926139800254189 -0.0013687962251311967
-5.786322000546577e-6 -0.03083678085026183 0.0009394167147729735
-5.102954904160058e-6 -0.0294522867824783 0.0009281824156629963
4.7909074650756535e-5 -0.009577811257504811 0.001013865222909075
4.109553131307325e-5 -0.0002559751978555814 0.00010640209421480924
-2.3577561707016906e-5 -8.885326284223119e-5 0.00012085705920108926
1.6985498166828907e-6 -0.04789454020688326 0.006337214162420647
2.9582759090565524e-6 -0.049006005781937756 0.0004848913871695265
6.494564589251652e-5 -0.0371537300111984 -0.00604162087443712
5.749061071740206e-5 -0.03891072368246268 -0.0059939356123883715
1.9736106126880062e-5 -0.04011531623287009 -0.004983926899639837
1.0942075699054753e-5 -0.04213605973341598 -0.006176292683338613
-5.7966142253423315e-5 -0.038937596133536236 0.006160388538514627
2.14331195192954e-5 -0.03771015668507397 0.003217408571756889
2.1643600698374674e-5 -0.038293170131325854 0.004379634524204944
1.7600998188510392e-5 -0.03931204585501787 0.0025068217882269687
-9.953414718323093e-5 -0.02738641074131438 0.005711761202924461
-9.243130756099121e-5 -0.028740458626291182 0.005789568042360836
-0.0001147049373189199 -0.02754702159544429 0.005701096800885397
-2.297241048464406e-5 -0.026779497584032908 -0.005600079331109572
5.115837882643314e-5 -0.0011641708879886689 0.0012612969466566358
-3.072528710121341e-5 -0.032155368935829855 0.00227878973529604
2.559651839869764e-5 -0.0314603503390962 -0.0011431470020018936
4.72506210641513e-5 -0.03210769962851225 -0.0024590077604534455
5.078036101346056e-5 -0.030707268889663027 -0.0024315893363109553
9.219792552537158e-5 -0.028724355580036203 0.004886402098105195
1.7524803483778318e-5 -0.04133424847381951 0.002389155964264901
-4.4719614955275934e-5 -0.004099124951649846 0.0020192098087197983
-5.101375408390655e-5 -0.004724540215456623 0.0021114901769030054
-0.0001425186360515097 -0.004857611416602388 -0.0016221835576062905
-4.731663300322072e-5 -0.003882312609110072 0.000629053240780112
-0.00010813690871771252 -0.0039535098574513955 0.0013733432351158107
-4.6713200674489156e-5 -0.0034831762708266165 0.0018448822496806233
2.833208398240819e-6 -0.0034952236424359196 0.001537508645586375
2.9157230640665585e-5 -0.020907366447512343 0.000780604151602832
0.00010073267160018711 -0.01959877372760262 0.0031315829532965376
0.0001441065782851323 -0.018443591915702467 0.004238091409641632
0.00010103688117684724 -0.01825944016866847 0.002987952309468329
0.00019439152441801805 -0.0005388175381041844 0.000601026016989869
0.0001624504756165439 -0.014998644014714018 0.003923953216932313
3.489220524710999e-5 -0.008374196873898851 0.00040531426244257325
-2.7756915349718707e-5 -0.014423209704228281 0.0008822945164762936
8.247460155516995e-6 -0.014486015109083981 -1.4921052797513469e-5
4.142057972370515e-5 -0.00642928886854625 0.00044346088019345183
-0.00014490827398714928 -0.004207703669882722 -0.001455227042015807
9.933139802428362e-5 -0.007989622625521274 0.0014042832771911519
-0.00012649770508070833 -0.009871876861875815 0.0037527460435085257
-2.3217121895949448e-5 -0.002548049790837445 -0.00017553957930022823
0.00017529539641395852 -0.011760845340856101 0.0034363064284107974
8.034226210843327e-6 -0.014665549678393506 -0.003122408326431356
6.78505718259163e-6 -0.019610257332510133 1.0445644909566096e-5
2.6071623557134016e-5 -0.020278777273422015 0.000926082898963436
6.5862055681835e-6 -0.019347184704682933 -9.840093992350741e-6
8.959782699011793e-6 -0.020529379803124238 4.395300075681783e-5
0.00013086285281459868 -0.012804710106384884 0.0026643916792619135
0.00016835820431538383 -0.012786617905885367 0.003554228481361338
3.512131216146251e-5 -0.01611897366081163 0.0007024230318841416
5.661869919062736e-5 -0.024647211615363235 0.0021376583190439143
5.1302627912461106e-5 -0.025772412066196584 0.002145433956185694
0.000273574492592319 -0.005133924164820519 0.0029155592219450147
-8.244869059641152e-6 3.58605159955796e-6 -1.631795383764267e-5
-1.15009954852422e-5 -5.9263901364363904e-5 -9.959176121006699e-5
-5.504162390349439e-5 -0.00018518408137605828 -0.00028133746536178003
0.00012348269523676056 -0.00028446117358457663 0.0002949403054250745
-7.799728480089887e-5 -0.004814350555130142 -0.0009213530690725607
-0.00021320273852547044 -0.011054379352777899 0.004084259471296697
-0.00012928094276313856 -0.006380882118577412 -0.001739395885379123
-0.0001353534907130822 -0.007068186975425603 -0.001956993951286955
2.3700758815676242e-5 -7.504892855290054e-5 0.00010611438725178085
5.483447712353303e-7 -0.03339514630375322 -0.004267901802540309
-0.00020199070010116203 -0.008138585001994537 0.003598469785084452
-0.00024345256512443432 -0.007429681373031566 0.003440456715554198
-0.000208646987337222 -0.007301745253743361 0.0034291326504188864
6.85701104892133e-6 -0.004920491764816848 -0.002501526898532325
-3.236981159134326e-5 -0.0044707250507161 -0.0026842751313718885
6.5249059492662134e-6 -0.004292005757642164 -0.0023838528517057837
0.00010292615898959349 -0.007958315858564739 -0.00342678156805832
-1.7230296387768464e-5 -0.0027129944156161255 0.0001917838057360353
-0.0002263480418730088 -0.0005270826269107692 -0.0008112396308729404
-0.00010426901085296143 -0.0032229499780054064 0.0009001425707829567
-9.695469028234733e-6 -0.0002608645610807801 -2.8092891738893513e-5
-0.0001787631856618482 -0.0007201140323750128 0.0009576883900618209
0.00012517326046395562 -0.0026674086167456897 -0.0008725803731728227
-4.720578123233898e-7 -0.04801476933194411 0.0024192945628474134
8.523297210340055e-7 -0.034179857337846106 0.003863735712685159
2.425745617622305e-6 -0.04394233649599037 -0.0009032898851706674
2.5585651083834522e-6 -0.04296907477629621 0.00607000757689353
-1.0612285286712701e-5 -0.038516801675791745 -0.0021294330266566188
1.3914940775696494e-5 -0.049063237083574004 -0.006329782055682828
1.3444797099980852e-5 -0.04661362323777609 -0.002747913402900331
3.17943907144418e-5 -0.0031593344835438956 -0.000205924341590353
-2.845219128597078e-5 -0.040226012825340995 0.00481367418337094
-2.774605172412307e-5 -0.04139814894747536 0.006063016927307528
-3.883285195084336e-5 -0.04158564062642075 0.006259326191076744
-4.4874392670071586e-5 -0.04011617430003676 0.006227881854141217
3.0445757899151795e-6 -0.03286005740358042 -0.005917328834731701
5.927720256329632e-5 -0.03170114252448473 0.0046816852049478015
5.918180033083088e-5 -0.03060465774039375 0.005809794943829911
8.213202048974714e-5 -0.030589694026287396 0.0058840487373956534
7.644555394847202e-5 -0.03198601212844965 0.0059501328167361756
0.00016382293346234048 -0.021236068486685203 -0.005294920038354951
1.7385056778068643e-5 -0.03572127221249731 0.0010744729239516371
1.4076649580495478e-5 -0.03480594564826029 0.000649890627126136
5.797022514598968e-6 -0.035441012328456846 -8.950897595777412e-5
-0.0001604754382380968 -0.010646413500256934 -0.003189500383045534
-5.877261600510681e-5 -0.031505134096680085 0.005847506132313437
-8.303721635886061e-5 -0.03036003916078164 -0.0058471205001616455
-8.234093552584489e-5 -0.03173108560563189 -0.006128354208712422
5.6969428929100005e-5 -0.026201705931470354 0.004253069457244319
-9.569093715523596e-5 -0.026565582033690742 0.00456166925991053
0.0001224148712970578 -0.003192681465350174 -0.0012474778982386053
3.930349332080074e-5 -0.019199382571915422 -0.004801059493289084
8.477263164431809e-6 -0.034798945127379265 0.006052537526749947
2.6034477996216517e-5 -0.035069901812394846 0.005844091200106435
-0.00010312917194406972 -0.00509342770666573 0.002834167506888572
0.00010084184657554075 -0.018930695899368424 0.004987572966250918
-3.397284225465293e-5 -0.02297816815326894 -0.005374665566584087
7.794468178372726e-5 -0.011094968860525025 -0.0033074330534792694
0.00011167747468269675 -0.010217596164071724 -0.003029492780988927
0.0001485992586055654 -0.010295605140880869 -0.003929270698318054
9.88111335449432e-5 -0.010330211091912463 -0.003921582011002091
3.421664576578389e-5 -0.011382193579696182 -0.0030536955725377415
-7.107783674976863e-5 -0.012407867540224573 -0.00416912697976957
-2.1763698662454823e-5 -0.016587942975364322 -0.0007488623339056598
-5.9021485481739346e-5 -0.01702101734589091 -0.0019079589081972938
-5.215263297788268e-5 -0.01591655470099211 -0.0015701844770067365
8.75074125204847e-5 -0.011557776173438115 -0.004092479883126744
0.00012396783697692066 -0.0117506767654912 -0.004074336022317506
5.043720835881848e-5 -0.011165796560360578 -0.0038530795801263312
5.281005387031147e-5 -0.01039784864979807 -0.0030689883428791148
-4.661504790388219e-6 -0.04905405527523346 0.0056088989296191275
-5.697709774602757e-6 -0.049003617734150386 0.006329638580315096
-1.6270741809875505e-5 -0.018745706594417003 -0.0007242085252822646
3.6470575009452195e-6 2.566353240925375e-6 4.632692559857603e-6
3.471005496745221e-5 -5.053557776518059e-5 6.905142815702448e-5
1.9255713226711155e-5 -4.305916065732901e-6 3.783670793542408e-5
-8.266811888696218e-5 -0.01089948763409987 0.0039691193142602854
6.959756627273433e-6 -0.01471694201191935 -3.087429298284004e-5
-0.00012813486181727064 -0.00797929647846342 -0.002023451065283021
-1.9615706695680332e-5 -0.016139737606024916 0.0009057983058935508
-1.1374876386760236e-5 -0.02637466537353501 0.0008367005415540363
-1.7535990228458435e-5 -0.023020044077108646 -0.0011021743641610625
0.0002512600257400005 -0.008259018243735605 -0.0036128796630076868
0.0002587517876814613 -0.007531680604755658 -0.003491495962302839
7.786454602339897e-5 -0.03541907522021189 -0.005334170026435467
8.56587880350361e-5 -0.03335313764906565 -0.0050737634577131905
9.323163240112435e-5 -0.03456745772843419 -0.006069916324981928
7.654907033264741e-5 -0.034378438521197534 -0.0059752767789003425
0.00010549168195640043 -0.006846656540509487 -0.003245885941910485
1.4898980812629867e-5 -0.030843976492269675 0.004717884938551732
-0.00023019285713016244 -0.002016343454420269 -0.0014456831536016213
-0.0001763223389726842 -0.0008501196833265138 -0.0008409591717611428
-0.00025537886884726145 -0.0007441443452782621 -0.0010404536440446793
-0.00010552692518388342 -0.000759706184120066 0.0009714780969397335
-1.8783946221037416e-5 -0.03010435417663221 0.0015930846972709615
4.074655906199084e-5 -0.027989027622115425 0.005529869604555542
4.6904235736404e-5 -0.026608191619015172 0.005600901891939353
5.749912819961213e-6 -0.029442041427639606 3.6803306779805443e-7
-4.306854521605219e-6 -0.030156698019983136 0.0006205515790118502
7.634928619350835e-6 -0.03083004382679179 9.016611738035776e-7
4.6933696513480585e-5 -0.001122669971631828 -0.00019023599870395975
-9.922389093852137e-5 -0.0023840832117020326 -0.0007188707292206036
-3.1064767085974462e-6 -0.031479299004235614 0.0005123101893048504
-3.442661521442395e-5 -0.030635842482912946 0.0022523386793954613
-4.5525393223153205e-5 -0.029563815365506844 0.0033683770815776813
7.738446283093278e-5 -0.025272311285742196 0.005415214887101653
4.645543114907551e-5 -0.025393522782135153 0.005341732620422365
-1.5119649739133356e-5 2.854764074480228e-6 2.8197480787803932e-5
1.4829321417169311e-5 -0.02564736043095549 0.005522376939093039
-0.00012111813111906325 -0.00032873923213502457 -0.0003808717978793166
2.5929727158590704e-5 -0.033719567944443786 -0.0021521878639382355
4.7915783485429134e-5 -0.03307736888211968 -0.003317867630747407
-6.361193278104804e-5 -0.0004966983142842596 -0.0002472396595448775
3.119844762721482e-5 -0.04386092587506272 -0.0050384372340494124
3.3444680378837546e-5 -0.0005329732260665157 -9.969968068614858e-5
-6.99124503946931e-5 -0.00015219011280888573 -0.0001704756852676507
1.7083148398861734e-5 -0.04797947406121916 -0.006267103984960846
2.2311727499526827e-5 -0.04654944580714944 -0.006243007249275871
2.330478404736146e-6 -0.048928925851679614 0.0009925690405675452
-5.036718326847279e-6 -0.044352257072491526 -0.0037660513701851554
2.372528516409428e-6 -0.04660258628117625 -0.003935582825048163
-6.052621595677698e-5 -0.0003068502423199275 -0.0001983109553352946
1.257135473413006e-5 -0.04900166321697187 -0.006328057777432528
5.779975086704593e-5 -0.030492807802774337 -0.0034706393280634043
8.875955889581816e-5 -0.012892841883114414 0.002369221296931399
8.364840708383578e-5 -0.011849762514635449 0.002146410734566021
5.625545842257933e-5 -0.012844118865037495 0.0022233710927604673
5.530251841024787e-5 -0.013555245183379161 0.0032116964677586382
6.299277739015741e-5 -0.012503866241415288 0.003216102399578698
4.143591781146012e-5 -0.011837059919765627 0.002398363850584002
4.475730876551005e-5 -0.013547515403545957 0.0016202120606661334
-2.2007566827392717e-6 -0.048929364931331175 0.003880043881912112
2.481245222284978e-5 -0.04652394500798481 -0.005337251359832368
3.248561202426636e-5 -0.04503182601536635 -0.0053263291594231755
3.972718629790935e-5 -0.04354528628390253 -0.005310577721407107
3.8656459305112793e-5 -0.044814525721207074 -0.006283949074911837
3.298889415737973e-5 -0.04159001547608177 0.005282792132102071
4.3909283132684164e-5 -0.040419685132777466 0.006211107340336438
3.9913832752182176e-5 -0.040118304513373546 0.005256083305752026
3.5268020121797344e-5 -0.04442156467302148 -0.006182845736212123
-9.071698702430511e-6 -0.043872078903526596 0.006121788826008909
-4.7024617451432276e-7 -0.038806146909796425 -0.0014953454193106276
9.938647726716096e-5 -0.03334437035274405 -0.006008522613944023
3.342584172121491e-6 -0.04913088479661979 0.0006054521033616141
-2.571196148788579e-5 -0.025252850662710175 -0.0030484595226437055
-4.389886292477377e-5 -0.021520436536881564 -0.005111374996659115
-4.3347442590886124e-5 -0.02235684564571718 -0.004533902989276731
-4.6237333498090686e-5 -0.02132213364963944 -0.00383725820180727
-8.55200929083327e-6 -0.019480704139268494 -0.0037982157652071374
-4.3187743392777185e-5 -0.034959082318798816 0.003628249905290587
-2.5788648381075512e-5 -0.034789838139508505 0.002320315567966743
-0.00015074242371125433 -0.02113112481813628 0.005232050213650645
-3.180643374861317e-5 -0.01408409516151095 0.004434974570068222
5.654667585232635e-5 -0.027967067428852188 -0.0023688683032571647
2.786890874098022e-5 -0.02436415440303754 -0.005379979253845925
-9.505271907207658e-5 -0.018708332811782368 0.003051419038501696
-2.0668906171219553e-5 -0.014503824729266684 -0.0006668440774409903
0.00019738481399388694 -0.01610865346554402 -0.004804641886684564
-9.30430872625451e-5 -0.020621625033506424 0.004781393175463944
0.0001061011400788275 -0.011140203281461727 0.003182216890964159
9.699299542340238e-5 -0.012159764568854016 0.003274958347403529
4.690651301438515e-5 -0.011599811858822834 0.003237114050196597
8.597519235658997e-5 -0.01128015905726856 0.004078814813660899
0.00018469083655949943 -0.002701512559823507 -0.001349386748250891
0.0001963861404030885 -0.002152243973286871 -0.0012292191117838996
-0.00010308155045788827 -0.003402378783741435 -0.000944085092709143
0.00028129256425024645 -0.004997041131794163 -0.0028701947895577724
-0.00014543893689371835 -0.005532910290339871 -0.0018114801621079736
-1.6469878970856526e-5 -0.008470917583651469 -0.002651368219978006
-1.4152257696777196e-5 -0.03655252864123009 -0.004444202968785634
-2.277144163203997e-5 -0.03782660293352726 -0.006049632329586205
1.8726825926496442e-5 -0.03259109084307894 -0.001038880056804345
-0.00015751610857306017 -0.013256726233018093 -0.004421506688302543
-0.0002862444570731662 -0.0031812283627710184 0.0023151296108877926
8.840347822891465e-5 -0.0005188380036266585 -0.0007168277003007671
4.822314401167899e-5 -0.0005060372655939808 -0.0006903508717145068
-1.1018940553732487e-5 -1.912258948700095e-5 3.750253736690672e-5
0.0002410255989377053 -0.0021259803978976094 -0.0018514278711229929
-0.00010288701334169248 -0.013724874861606867 -0.003237236357217174
-0.00013984083663382425 -0.013916216511350794 -0.0034372913450959925
5.279246029954774e-6 -0.048844603758208885 -0.0010445412112600487
3.399031621500826e-6 -0.04880927095536728 0.00029143571624031005
5.388870971433085e-6 -0.04872239552173779 -0.0009171073481815489
-0.00015121721781305347 -0.014352684952662068 -0.004533541730586067
8.256298741475692e-6 -0.04798270054057617 -0.006339464897291115
7.447116465741942e-6 -0.048036126118520456 -0.0033908588345614834
1.2652111805106721e-5 -0.049021835528385446 -0.006311181974058461
1.1207014198640945e-5 -0.04906205869854038 -0.0035599109489934445
1.4132965744683464e-5 -0.049215117438966234 -0.006534244931696379
8.634212154534086e-6 -0.049028306762096026 -0.001936567407211457
1.1534707227883722e-5 -0.04894274162935944 -0.005327939251625508
6.279566062192802e-6 -0.04927472847511774 -0.0008323383604362821
-4.8857926945375874e-5 -0.019040452718018883 -0.0032698291296898254
-5.218657118425794e-5 -0.020290175136407115 -0.0033130014439954427
-6.760334316685758e-5 -0.019338009075941902 -0.004327924393133496
-8.087997208197272e-5 -0.018233334060611405 -0.0038429570500740327
-3.876305532915322e-5 -0.018616570506516064 -0.003952720603808594
2.240820521763953e-6 -0.04882379637905824 0.0009696224240823692
1.2949075971151825e-6 -0.049274302436161564 0.0007235364853394174
-1.4847647463544972e-6 -0.04900817711406764 0.002402729258995578
1.7243254737137505e-6 -0.048013925842034906 0.0019322333262715822
-8.337331250385515e-5 -0.002293559182206807 0.0014696772895201734
-3.7005904517325896e-5 -0.0024429743808485195 0.0014329456499020436
-0.00011672732032527776 -0.002279511580179048 0.0010233509409661216
-8.85454094025268e-5 -0.0020892923201381694 0.0010511940371222602
-0.00013116584639657266 -0.002630870823019894 0.0016072511886096475
-0.0001580626428971897 -0.003154814778524114 0.0017817472649154353
-8.570584369892144e-5 -0.0030583596375649267 0.0017213292554645594
4.107525818120707e-5 -0.03431034650197922 -0.003137768393686713
6.479817955727974e-5 -0.03346229383086441 -0.0037999275044573303
-0.0001288448214040317 -0.002847588327470494 0.0012698281143057701
6.81896896176695e-5 -0.001420743169783907 0.000592839422976813
5.157247886508041e-6 -0.04666284422691338 0.0025354934728478275
0.00011935537003888298 -0.001812482035957115 0.0012389067959865158
3.604596437067076e-5 -0.04189203823482374 0.006241912757284282
2.606488244392493e-5 -0.040184323914834945 -0.002713197364772835
-9.573764075289028e-7 -0.04511022410479946 0.0012348867130885545
-7.628863606541063e-7 -0.04359627410742279 0.0009985105060075189
-1.4931355792329196e-5 -0.042982236887739105 -0.005073570937915166
7.3620678909732e-7 -0.04803565295872052 0.0033875476723500405
-2.5459006290175947e-6 -0.048904378071892816 0.005336254987914379
-1.206745971454348e-6 -0.04803906594133121 0.006341398871199138
7.936242599827708e-6 -0.04892648859087167 -0.002423568503832512
-4.951335164225552e-6 -0.04666514702002391 0.00621147137984336
-3.918427967843567e-6 -0.04904111670771932 0.004856615058464285
-6.0681600702741515e-6 -0.049196007508418266 0.006412006325388955
5.521074775718103e-6 -0.03848478939718278 -6.771935443773633e-7
6.1277541952355005e-6 -0.041064881565426974 -5.041524485400257e-6
-1.9183290919701175e-6 -0.048908440708625295 0.0040030935596472115
5.573135508907015e-6 -0.037883758016960416 3.6157122373190336e-5
8.386211738149288e-5 -0.03614369288912885 -0.006095002895961659
2.4379931944976656e-5 -0.027390365668616523 0.0014392400476279056
5.318857555483263e-5 -0.027425247235373634 0.0032310112061947434
9.572652954121928e-6 -0.04804064846556306 -0.006343310463131834
-2.6406553731243617e-7 -0.04604860757625841 -0.006327445837409792
-2.217092308051076e-6 -0.046360879509792834 -0.006635293757867497
-8.146510709518102e-6 -0.04303891131311304 -0.0034164234183894924
1.3915098434011982e-5 -0.04901085282659752 -0.006309512006163738
0.00015029299879134336 -0.0016356344015600768 0.0009929074676018413
6.505554533458408e-5 -0.0015250994348966894 0.0004097730985449249
9.263677899216896e-5 -0.0019627826095454663 0.0006923967946065462
5.368851055635059e-6 -0.047994370492477206 -0.0011469401961147925
2.535593605753901e-5 -0.0012796315116365942 0.00022096786848813392
7.648605801166376e-6 -0.048941751698176245 -0.002790841343140265
-4.526859642401578e-6 -0.04900345286874754 0.006374178712003188
1.025371411860972e-5 -0.046505971871435334 0.00634059180126015
3.0089940886946115e-6 -0.04805978284990168 0.0004752991626900798
4.885642587444326e-6 -0.04635796130194872 -0.00018045213349688325
1.626509065657917e-6 -0.04618445900072615 0.0009005903582201811
4.735632521652419e-6 -0.04502527926137392 -1.6648556488639636e-6
5.904149326182809e-6 -0.04377204108763652 -0.0001369479450746254
2.5366711848048708e-5 -0.042954001298473835 -0.006164864209008863
2.7160891132578408e-5 -0.03708407590309105 0.0024440705932401692
3.005986124451556e-5 -0.037388193871559575 0.0036571528824837565
3.494607048921888e-5 -0.03863822730807361 0.0037865976514100974
-6.0985968037966023e-5 -0.004916412292701006 0.0016048792977349808
1.2905045374292381e-5 -0.048027190709613955 -0.006262035072361993
-1.164908259599642e-5 -0.04469115084459553 -0.006434596855758449
2.319552458095954e-5 -0.0362818403247049 0.0024764150762393656
-7.812910599168383e-6 -0.0445379976825134 -0.0048667844471851724
-9.424939876236265e-6 -0.0440662897903617 -0.0062613640318147515
-4.468395527996873e-5 -0.007833036419959307 0.0028737468137139143
-5.588983435940999e-5 -0.008446588707473711 0.0025245519001948842
-4.004328590678511e-5 -0.008783911417093223 0.0033295953053546316
-8.192552117491522e-6 -0.04655414236992066 0.006246720016609234
6.583409828350015e-6 -0.04398248254464274 0.006201511814111701
-2.3432008473712548e-7 -0.045066514468470806 -0.0024305406264664726
-3.095162772648749e-5 -0.007265803006745651 0.00335981276520947
-2.402620556748717e-5 -0.043019557181809116 0.006186075910843948
-3.239175742349635e-5 -0.04309492281062362 0.006282689672366071
-1.2119765123381069e-6 -0.0488934060071344 0.0039069240205337405
1.5672909295359848e-5 -0.04806131614670278 -0.0063490710952809415
-4.211516984341171e-6 -0.049009654683643135 0.006366237609569538
-4.202638402230218e-6 -0.04901825451829345 0.006310984038563735
9.159718117353571e-6 -0.045211224586201595 0.002570774750183023
1.4294352628832846e-5 -0.04303557657348544 0.0024247205208476567
8.094218825640841e-6 -0.04611484099130196 0.0037849513911826713
-2.104370904861434e-6 -0.04803761274174278 0.00634315587126646
2.0133305788403745e-5 -0.04302396393482992 0.0038366451629882055
4.8190068625878334e-5 -0.02047049096001421 0.0020004808164087035
5.109623084584245e-6 -0.04471599304696669 -0.0048842024473970905
-2.4482302812198084e-5 -0.0018281488531221202 0.00036684348655090736
-4.509571064228187e-5 5.406386621844446e-6 4.746650017951294e-5
1.3519597011955111e-5 -0.04903200774468934 -0.006313127501732961
-5.057515343962343e-5 -0.040402090993314606 0.0061962735744097745
-4.766974009091038e-5 -0.039123687466749886 0.00523712753824669
0.00011726702012280326 -0.0024269213938731063 0.0010474299648259447
5.411642707321162e-5 -0.0019456309726479618 0.000326944941523031
2.4078947836669044e-5 -0.03966084213150166 0.003659323676798104
8.181924518462224e-6 -0.04317321445689124 0.0008179685981441333
-6.152526177240875e-6 -0.041456392112535934 -0.002153523275061851
1.5234758091968286e-5 -0.0280204139006186 0.005619521764162601
1.8529875798730272e-5 -0.04455100462291562 0.005265690572624148
2.4713431042586832e-5 -0.0413998274229362 0.003770478050258877
1.3305306690230939e-5 -0.039877659052499334 0.0011872589371626063
1.19403523827965e-5 -0.041055539455412515 0.001589928446790289
2.798878873100342e-5 -0.043371515190325866 0.00626728237514622
2.5773768836654774e-5 -0.04309896609765451 0.005276598844628604
-0.00011152876854093159 -0.0073505875827607975 0.0026647431678460906
-0.00011167467735089402 -0.0066843048502340146 0.0019033581253086798
-1.1488501847830608e-5 -0.04157943804635847 -0.003360469527597036
7.118202925734414e-5 -0.010786862862070595 -0.001451433150804258
2.5836732205662192e-5 -0.03844517546790272 0.0025535098699151406
2.2253069701336905e-5 -0.03986684844141495 0.002602786294721903
9.572758449600635e-7 -0.04203073084406621 -0.0009001117226180932
2.032829401156423e-5 -0.0420986375674056 0.006188170436448615
5.5805731430576295e-5 -0.03625183331333962 0.00611630365919258
4.969975371443429e-5 -0.0376997584281126 0.006161962471865409
7.741905817510986e-6 -0.027944830226099893 -1.2309993236767623e-6
5.685293163107325e-5 -0.03184012307349477 -0.003551386914334297
6.440821753143524e-5 -0.03255214401281937 -0.004670420209946196
3.3511196609824556e-5 -0.026428574701553152 0.0020412737267677472
5.4320406506572795e-6 -0.03834685930065988 1.6376918776674936e-5
6.964253454456965e-5 -0.02545576116293644 -0.0032352980252923305
5.342236467598116e-5 -0.024830270024831794 -0.002310301198265537
7.419076700330326e-5 -0.0241632448189722 -0.003191787843180351
3.1888632099127526e-5 -0.02540003112751659 -0.0012741718576627446
4.94255420223037e-5 -0.02612884848852758 -0.002294152852127627
0.00017100618909579143 -0.0026039836126992228 0.0015232282828441298
8.381605389354281e-5 -0.0032388301395214585 0.0015489403290272505
-4.712262277566145e-5 -4.954834199634752e-6 6.478575607200983e-5
-2.672010621851119e-5 -0.03999562031237886 -0.005014984709415955
5.9404015728010524e-5 -0.003028906682662197 0.001718750611455471
0.0001242387035962569 -0.00299538899897256 0.00121555902617071
0.0001377210984644322 -0.0029459102782677625 0.0017263051960772766
2.3956505311827144e-7 -0.04766522678501043 0.003938540161191983
1.1075068277257644e-5 -0.04432710554182833 -0.0061850416276124885
4.347916146185249e-6 -0.04903152095643789 -0.0007392064219989994
-6.481174573750657e-7 -0.044568968847258424 0.005135805096448506
9.735285182624918e-6 -0.041670098792770886 0.0008814735278134043
2.8195754333438547e-7 -0.04055303199387628 -0.0008959659071763517
-0.00014692852882243232 -0.007849173068604118 0.002762787733082278
-9.658869024368414e-5 -0.008184255586574237 0.002800084594463807
-0.00014193821909170415 -0.008656771006110075 0.0028812404272103363
-0.00014454560783773101 -0.008176123497757615 0.0035555417254778286
-0.0001535248747210825 -0.007056462019626789 0.0026704909723995795
-0.00014945768047970313 -0.007341817597110738 0.0033869412709801204
-0.00014166818908158555 -0.008338736856333753 0.002227842255620331
-0.0001950971638180167 -0.008365553754362237 0.003067669399530362
-0.0001961946794533132 -0.007555107069597962 0.0028445681658803737
5.150717989924597e-5 -0.03895486913728105 0.00617530797083379
1.43859944616814e-5 -0.03721735254319565 0.0009091584255784135
-7.415503649136064e-5 -0.033149900477626976 -0.006247174570433451
-1.6695683650500738e-5 -0.04008451556597417 -0.003385252056831165
-9.000062562717992e-5 -0.0016626685448038342 0.0009237030168886517
-0.00019711665944387304 -0.0014999653488923274 0.0012582488803660706
-0.00014611040336123956 -0.0017015818729093353 0.0012832153989834594
-0.00013164349585065172 -0.0018345390057492865 0.0010096038996725161
-7.480816871953161e-6 -0.03996698215104678 -0.0021729710312700014
2.7860823924304892e-5 -0.045084024177158545 -0.006224437894843077
2.7302240078920516e-5 -0.046002918408747755 -0.006231650774300975
-2.8035336652074028e-5 -0.03573622761120311 -0.0032819014354009382
2.406995378347865e-5 -0.030026193193995722 0.0013981695604988074
3.791330804294168e-5 -0.029425106150997072 0.0024278989706249844
2.670556742787391e-5 -0.028306931680325314 0.0014354721353006345
-2.3603254983359094e-5 -0.03716202278233248 -0.0033433792245920213
4.370105250986284e-5 -0.03552712264037513 0.003647954340629727
3.948956803921521e-5 -0.04067284243371603 -0.0038722668263653946
3.538016399562795e-5 -0.04213819572991645 -0.003987172607018249
2.322310623792093e-5 -0.02696867162300107 0.0007888882110485903
9.077759085567366e-6 -0.027082686510045983 7.768145941532588e-5
3.949714565402561e-5 -0.0371861444037992 0.003764581451462644
5.9573990428906803e-5 -0.037499220457705214 0.0061345588185910726
5.250738711175285e-5 -0.028829510061050716 0.0034454400418750344
2.9366457168940145e-5 -0.04209243704021255 0.006267904003930984
-2.4581681524766388e-5 -0.040620359324936905 -0.006239047059150033
-4.7720049020390093e-5 -0.0372895896135977 -0.006145680773787881
-3.6224615176062533e-5 -0.03769988497293209 -0.006163012735885454
-1.3865292957288584e-5 -0.03712528931341438 -0.002056681252224206
-6.165762080693391e-7 -0.04229464432255693 -0.006081520272656696
-9.7538161842619e-6 -0.042218894319856995 -0.00615238395909478
-3.8179253354254156e-5 -0.03711900256321245 -0.0050175219265042766
-2.150887937208015e-5 -0.038498611787545815 -0.0036024947862241074
-9.390786749042148e-7 -0.03908297897873274 -0.0008912670463229163
7.3435476042066925e-6 -0.02995465787108519 2.01175150406278e-5
7.808526361877633e-6 -0.028348676664755348 1.553901851620509e-5
-8.105526549312633e-5 -0.03150315282279983 0.005928871534722049
1.4823360513496469e-5 -0.010424414599931613 -0.0024420035312155072
-1.8163031244923345e-5 -0.039282671734047925 -0.006089235233601545
1.3781817073424638e-5 -0.04081097368136036 0.006043418902065409
5.9188032810861094e-5 -0.03575350394415624 0.00515015624694613
4.6213248550305953e-5 -0.03865394451516011 0.0052251141831136105
-4.644294722313494e-6 -0.031889505455611505 -0.0008548543370385021
6.591253228226437e-5 -0.03432077316242399 0.005105750438611048
5.346668860409416e-6 -0.04761143910648526 -0.0014798216215243308
4.920341735170049e-6 -0.04638236576092222 -0.0022499629973503654
3.986889530515077e-6 -0.04642400776579325 -0.0013129876485741866
7.31898479095178e-5 -0.03769206659347228 -0.005960784331937652
5.2656442416719794e-5 -0.03903045179379192 -0.004995951894758859
5.073486165446322e-5 -0.03776510108435007 -0.003937428597799675
1.893984151438052e-5 -0.0378933950031263 -0.0012827240684752461
-4.899172540219796e-5 -0.03481797981747334 -0.006067781224038422
2.4872184564769784e-5 -0.04062743276039418 0.006158641054582982
1.628756039933925e-5 -0.039152302896388096 0.0058471162997703946
-4.1032534577083246e-5 -0.021688765059266684 0.0021021339325380806
5.446721815220207e-6 -0.03583298912743532 -0.006090215222054119
6.847239367432581e-5 -0.029616244550405648 0.004601278839987754
6.381954831814347e-5 -0.029337197977719342 0.00570897744409359
4.94495845595829e-5 -0.000518163700588706 0.0006065873183450947
9.82010428542146e-5 -0.03029896841450183 0.005833623523462902
-1.7656626587429446e-6 -0.03760153364074989 -0.000870142035509609
-7.840830349414372e-6 -0.027736603953355678 -0.0008319961223555705
-9.997885899738802e-6 -0.02643171767011068 -0.000814468609420478
3.111147714279785e-5 -0.035722849356786955 0.0023433855160922934
4.746019780267609e-5 -0.03425634295289102 0.0036000255029232492
2.978190335193244e-5 -0.039104992276166414 0.0061766560977253825
-7.46866353770544e-5 -0.00027608137202956895 -0.0003505796991172461
5.367663624995324e-5 -0.03719893877884716 0.005189122087472725
5.747119303456976e-7 -0.0007316032479337851 1.7556875077097408e-6
-2.703548647343469e-5 -0.023727116599182984 -0.0019893604063672644
-1.9222131485497437e-5 -0.022181401762465372 -0.0013152771148025179
-5.192371210820966e-5 -0.023070213739677384 -0.0031679369659344835
-4.40503079989773e-5 -0.02288818115919032 -0.0021972877009929052
6.648418706087426e-5 -0.03605247274005536 0.006088808276541716
-4.157464721756066e-5 -0.03573934723080108 -0.004701803846885534
-6.700458100936845e-5 -0.016205941814984772 0.004716890789392212
2.449346348407236e-6 -0.043771969673075076 -0.0061055405306516325
-3.176521227167681e-5 -0.038532232531375284 -0.0049867617886332465
-4.884046760810604e-5 -0.01632019591285606 0.0018434828087435149
-7.964664102519728e-5 -0.016422431203232914 0.0027941736385865726
-4.972931784948949e-5 -0.03422951098649677 -0.004811622112396646
-1.8171927734951977e-5 -0.03544809867810719 -0.0023495048758235965
-5.4362050212556036e-5 -0.03283865204792202 -0.0047083901053843755
-1.5415176280353315e-5 -0.03823046011448205 -0.00356636390104351
-2.8014620051319357e-5 -0.033516118054494407 0.003594793653212158
-3.5965901678384233e-6 -0.0347210385528813 -0.0008607756148315276
-3.0591056359853436e-6 -0.03617198864578285 -0.0008792723093710227
-3.838059772809405e-5 -0.03233519364208765 0.003428690707674073
-4.1110981243134405e-5 -0.03211558961982949 -0.005921362772042334
-5.390101552778748e-5 -0.03233853475949276 0.004612645942284102
-5.443129837920722e-5 -0.030926706242887538 0.004256899427038697
-4.1123474934552554e-5 -0.032703123266394254 0.004756027270581049
3.600704763816201e-5 -0.04061982606438464 0.006237579865305767
-2.46483693705092e-5 -0.028635713404571127 -0.0018232515538475055
-5.324211076843326e-5 -0.027249846929865814 -0.0031964249459679296
-5.33615405322984e-5 -0.02852671611906257 -0.00345153678004869
2.0486635231428582e-5 -0.0314987989713028 0.0008776209377832287
7.436594161551319e-5 -0.0346182668609683 0.006037878914128918
4.7725832520533456e-5 -0.028513887520707045 0.002387117488737821
5.499830810694126e-5 -0.03287383357235457 0.003663957797094891
0.00023723302726584816 -0.005335135404703472 -0.0025765059795845066
-2.677641998855745e-5 -0.03594830331495425 -0.004424951859744114
-4.2543271819346954e-5 -0.03625326401536741 -0.006117686769062649
-3.18715804548623e-5 -0.034280841985958786 -0.0032876338681863005
-1.9850868104821377e-5 -0.00015607540454861833 -4.3634131917002146e-5
-4.111494478675996e-6 -0.0002981781239051567 8.788694388898432e-7
-6.14867467044622e-5 -0.03137495779563892 -0.004773335575091765
-1.423678123421767e-5 -0.034346903639845994 -0.0018937996768426126
-5.917262223054516e-6 -0.038703624198128485 0.0011456153120632932
8.1729175118057e-6 -0.039127009434093134 -0.00032003976533355656
-2.5996577753219544e-5 -6.18681289576443e-5 -7.586034084116822e-5
-1.8221120504466835e-5 -3.5671278780177265e-5 -3.654237686478228e-5
-7.160495054156203e-5 -0.027458713033402235 0.004527293867676878
3.341376267720726e-5 -0.0342885421734211 0.0022865040325100016
8.041765602268031e-5 -0.031492480556701424 0.005003816094825216
6.022970407554476e-5 -0.03145343803373775 0.0036188139877143324
3.22987021845082e-5 -0.023219973661682148 -0.004367403733674686
-1.7974817610251944e-5 -0.024416641729432944 -0.004321594871372056
8.213230102200546e-5 -0.03319595900605143 0.005981608684489786
9.221983063778495e-6 -0.044715059574903654 -0.0048845026577282015
-5.373251894582529e-6 -0.024411449514820823 -0.0008819746033485311
-1.2940401716317625e-5 -0.02402570101666988 -0.0008642543300171957
0.00011908761240004534 -0.023407012266580034 0.004596456555842939
7.28779579607201e-5 -0.03289994654058143 0.005057578233790814
8.650021991620836e-5 -0.030101227968919224 0.00494686232625363
-3.95804934278075e-5 -0.03144996537719265 -0.0032211922334220893
-3.39251332895955e-5 -0.0328788979414874 -0.003216449115344859
-1.7720895110446e-5 -0.03284389026589343 -0.0018911709691930949
4.994903367040116e-5 -0.029139381804912583 0.004477804675239548
6.975060995709868e-5 -0.02797264638777185 0.005634972372063057
-3.0159755331740747e-6 -0.033313900797977324 -0.0007603497780582973
-0.00029006400114871066 -0.0004821389714228162 0.0008433691823472165
-0.0002617655469336977 -0.000683880370562986 0.0009022726262139007
-0.00030857288857572365 -0.000722172140822629 0.0010623798208742226
-0.0002489758273486046 -0.0006785924852353056 0.0009713277459663385
3.959084681040624e-5 -0.032692947175423016 0.002409950018178867
2.0457412283243465e-5 -0.03010394315731691 0.0008674598304276255
6.318931232787726e-5 -0.030062546811299412 0.0035778254892662835
-0.00011841711725362276 -0.00021173274057326692 0.0003463335621735037
-4.329999832505832e-5 -4.122716321948656e-5 8.856698172365502e-5
-8.051883811961938e-5 -0.00019928120741540903 0.00030523082950226086
-0.0001353625735041848 -0.0001572886275253555 0.000280071124719246
-0.0001633419003245346 -0.00021197252299740764 0.0003867660750305062
2.1505053415109766e-5 -0.039459312879541825 0.004790438388192336
5.3904462438526305e-5 -0.026057333878832377 -0.005538486191752227
6.085083185210007e-5 -0.03483119384675526 0.00598371540100026
-4.7836163652967155e-5 -0.00561875283572123 0.001600378076243262
-1.7073470332423714e-5 -0.0054746662840834915 0.0014444517430469484
-9.209890395273536e-5 -0.028817855001923603 -0.005805693007516841
-4.4181739428090395e-5 -0.02999001868139143 -0.0033169916566790185
-3.440627334082847e-5 -0.03418512962279273 0.00586181301221928
-5.3803238413863345e-5 -0.03295893099672199 0.005875500324412886
-2.1400275779495603e-5 -0.03218938131751504 -0.005778085977387991
-1.548092426992607e-5 -0.035024304326504656 -0.005889765635212936
5.2884894446481425e-6 -0.039809821567639285 2.658405479188425e-5
4.399242588653213e-5 -0.030048611718775212 0.0022609547775647686
5.8595375048966503e-5 -0.02705564616849693 -0.004119893427328024
4.140962762962658e-5 -0.03193695355908267 0.004517644095533202
5.5938211784424984e-5 -0.032113501667730186 0.005872077255182125
3.61366121804468e-5 -0.030642188765823634 0.005797452676054996
3.9689121015339695e-5 -0.03146313353522673 0.0022673938578898355
4.803708471697932e-5 -0.033420670021457356 0.0059072754300593605
9.050311781930448e-5 -0.03178744257754156 0.005920493587425625
1.9647918446606403e-5 -0.0026044097004634084 0.00016049854810745108
4.9470899091612724e-5 -0.0029446763693796456 0.00035036568881063147
4.4109813864671756e-5 -0.034841493598321706 0.005977657577125177
-4.4387370949042744e-5 -0.002879382891530979 -0.00042533912785310864
-9.341428289295224e-5 -0.02340088709218052 -0.00424667354871115
-0.0001001480100708064 -0.0274112725273149 -0.005718261195462691
-9.021135815564527e-5 -0.026472160840488826 -0.00556435327722727
-5.9792085482413384e-5 -0.03201651497411368 -0.005901769910689724
-1.7258649069219395e-5 -0.03359871134063646 -0.005836702490581448
1.8155018142788827e-5 -0.029127521809738648 0.0005835615564827962
2.4037128004399253e-5 -0.034515291877546254 -0.00622297090527446
8.942438374496464e-5 -0.0012857700900355269 -0.0007035450736467464
-4.4487942360049934e-5 -0.018311751948139027 -0.0015843988514261372
-1.2187916410309488e-5 -0.02668511507643301 0.005526516537144707
-4.704124553190911e-5 -0.026073664875116837 0.0055372679668204364
-3.121821927455439e-5 -0.002690118831890699 0.00033498694539887573
-2.930732802900759e-7 -0.029313636679430398 -0.005626753339094101
-0.0001009000592448948 -0.003354864215294292 0.0012112927651596773
-7.453651733465062e-6 -0.02910655939501309 -0.000834611746200816
-6.0110982079371715e-5 -0.025815405192980687 -0.0033246526841448232
-7.385274780790082e-5 -0.027290088932624898 0.005596236451251775
0.0001279782409426262 -0.024986674626074516 0.005537436791401227
0.00013539179158233636 -0.02368500848263743 0.00544564398926938
0.00011339383538909636 -0.024704817308497933 0.004674679165122844
0.00010493455496567953 -0.029014484858703025 0.005782781355109911
3.2531521215236604e-5 -0.03228811822427864 0.005774086511949014
0.00011258319551806919 -0.02765315621958044 0.005706286152991093
-2.587578563291583e-5 -0.005709253194364672 0.002284437795954644
-2.3899628243779352e-5 -4.657662987287193e-5 9.124432244479283e-5
5.283155927829442e-5 -0.027378114682878246 -0.005556878862325085
1.6004565606036018e-5 -0.04106881242804416 -0.0014857203948272688
-8.02505003043774e-5 -0.025999897156377405 -0.004335047048405176
5.728992170147555e-6 -0.025719892472880743 -6.137984786438064e-5
2.6158393571885615e-5 -0.024698336941052706 0.0008213304432915793
-3.909749380708027e-5 -0.02394874363006321 -0.0020527424778175353
-3.877566912293835e-5 -0.032528471162124824 -0.004308719086578194
-5.504706701834338e-5 -0.03338851705669118 -0.00597926309603017
-3.2001466561288424e-5 -0.03435027488796951 -0.0043432916183071945
4.7432890543366855e-5 -0.02731237825197783 0.002182305583914005
-2.2844918314196658e-5 -0.03620076941296749 0.002339467014692945
5.520562173648845e-7 -0.00242865260095971 0.0012856490045674775
4.8756545831441284e-6 -0.00294076489389665 0.0014189559287646294
0.0001053878703670682 -0.026024415403090605 0.004749335138166078
9.8313516985484e-5 -0.027364943652712765 0.004819425323017136
7.370117466840916e-5 -0.027337190036002025 0.003498199993881279
2.410761604897171e-5 -0.04246127756981301 -0.004708297048355501
7.33051601470526e-5 -0.02653201548837734 0.005581338316781433
8.340704403401527e-5 -0.02321498409792566 0.003243799122502749
-3.367805998304529e-5 -0.01908868326858314 0.004494280113963475
-6.376274893377303e-5 -0.019570145864810484 0.004989824953161389
-2.443653462154249e-5 -0.01855110770510317 0.005004620742036644
-6.376650870190937e-5 -0.01850661634569751 0.004940017056935995
-1.9667622021967106e-5 -0.017645717743817603 0.003587725108913933
-2.8965117241158118e-5 -0.01725272704951739 0.004749258929823847
3.1271670807483446e-5 -0.028184303967292594 -0.001374057099225278
2.4939226027229776e-5 -0.028704932226550413 -0.0008310270326708359
5.364516447221202e-5 -0.029301480621966962 -0.002389448984900741
3.116724397903156e-5 -0.03022767601376075 0.004634668034451134
-8.92828708845791e-5 -0.02463422577284871 -0.0043729930180637
-5.492037569856326e-5 -0.02797555500783254 -0.005635307146255629
-5.971550880852393e-5 -0.02663195537780431 -0.005555852171895425
-0.00011654552498874744 -0.024826928622474893 -0.00556899065234058
-0.00012511709661265877 -0.023451269118892767 -0.005451956833575032
-9.919387806773214e-5 -0.02387654763183189 -0.005479434257556856
-2.4588854506375624e-5 -0.030793135064968433 -0.005714438864595034
2.5519435147927874e-5 -0.02339338151138645 0.000805512552630948
7.321700265835428e-5 -0.027568406097052297 0.004511283268534969
7.686920354822955e-5 -0.025995458126071385 0.003437608819186972
0.0001198843718207705 -0.02630938675191201 0.005624335395679186
2.575586924060239e-6 -1.0997354748305697e-5 1.5980790146503297e-5
-1.5763724212149637e-6 -1.0953705361632294e-5 -7.4121801053257605e-6
0.00015838102533756272 -0.023782891825120906 -0.005496440678005412
0.00012557202427502436 -0.02332670067268975 -0.005332799742990711
-0.00010126341411471027 -0.02206174996139789 -0.004328040726276459
9.516792565882123e-5 -0.020687078790358884 0.003121681295962783
-7.237763275631322e-5 -0.02197523213663128 -0.003069938567634357
4.240858935960733e-5 -0.014520191627963534 0.0042362466310051005
5.6782957080571784e-5 -0.023345921445843836 0.0021009272108061298
4.534232358750611e-5 -0.002368061131467121 -0.0014217953834593708
8.3037407034761e-5 -0.02468102977423393 0.0033915464891908186
9.233805880688545e-5 -0.0016864822319725525 -0.0008091597049628704
9.892511477517091e-5 -0.007716058587979253 -0.0022202572366778936
0.00014286943180601933 -0.02240444034903187 0.0053489951493252185
-0.0001656586434276609 -0.008348023378823816 -0.003288183875563564
-0.0002192628121057022 -0.008317350103764996 -0.0036294522579165384
-0.0001774386921853841 -0.008035739473164856 -0.002819120027480182
-0.00013483204182134965 -0.02111742826722069 -0.005235616334977901
-0.00014397709959917444 -0.01988337231651146 -0.005124252610378445
-3.924656669106985e-5 -0.019573586349058075 -0.001619229184836076
2.9054338422087164e-6 -0.03519827773137233 -0.004358007119966173
-0.00010672612853533222 -0.020854040210999656 -0.0041157073387372714
-6.955892975639717e-7 -0.03626133590382739 -0.0015787147524812966
6.707510459702914e-5 -0.02350855793694792 0.0032440796919160665
8.485063202507034e-6 -0.02807076594457119 -7.488171392633937e-7
-1.604751351165496e-5 -0.028193297205694065 0.001387336168482546
-5.97590254412001e-6 -6.772825419126463e-7 -1.8713315359582746e-5
6.197229853463166e-5 -0.02207353686194571 0.002056093627527164
-4.7058953265021514e-5 -0.020655874943594787 -0.0018993152387290128
0.00013089981284241834 -0.020877060126919034 0.004426053282914624
0.00012532462154579135 -0.022129077439698597 0.00451435661334864
2.6199342125735847e-5 -0.009499697925363558 -0.0025636184736203245
3.129425632433636e-5 -0.03929450821037963 -0.002504520704773463
-4.095214259425269e-5 -0.021792168565359808 -0.001997472337883959
-8.731627456981516e-5 -0.02338738649002712 0.005347001699059105
7.732180001182796e-6 -0.028390780215077325 8.418630815777347e-5
-0.00015691781533333507 -0.018142201570173044 -0.005003734308670654
8.306721316005902e-5 -0.023894426377033113 0.005407649208594875
0.00011459830458865104 -0.023873929650707795 0.005477958823100336
6.259498796563822e-5 -0.020827589662469028 0.0020050224210241326
6.9490169011251695e-6 -0.03258396341023306 7.242210974579449e-5
3.0117281728124922e-5 -0.019625093387045586 0.0007634519788988822
0.00015067708748794443 -0.021063067272782118 0.005225157952232536
0.00012359257753553793 -0.0012876324894482486 -0.0010267214675302716
-3.0501384947620707e-5 -0.03155236326000788 -0.0034250585604199426
-0.0001279634727947927 -0.020058554061853806 0.00431927214983824
-9.369550215895912e-6 -0.018056603100935716 -0.003634848285256028
-0.00011601756793717066 -0.019581076616833976 -0.004084251578794597
-0.0001067567520952432 -0.02259605541126898 -0.005381778091770762
-4.240414729679116e-5 -0.02511881213623629 0.002130278283037896
3.8084628357031815e-5 -0.021364283592690676 -0.005217854566339247
6.32308707279256e-5 -0.025269313957376097 -0.002301403502999529
3.484610980275508e-5 -0.010035673717776753 -0.0003726483882886791
5.060594502121369e-5 -0.00961605255986297 -0.000844387477879873
-4.150461167691619e-5 -0.009651481677644977 0.001475699469293619
-3.1990485342988154e-5 -0.009264822210347613 0.0006514830855476568
5.550350333100327e-5 -0.021472091254968417 0.005154501667018231
0.0001524921804672871 -0.0165488539802545 0.0048193434119356915
0.00010796047199596501 -0.016572956043477576 0.004724238356325596
6.77504051070515e-5 -0.018393243740615076 0.0019178045384149053
0.00015852263106247745 -0.01991455711265154 0.005139510143838042
0.0001351065835962067 -0.02009864395334471 0.005173186872045643
8.777258187410044e-5 -0.022614686461423616 0.00531348069320721
-0.00011491012155704073 -0.018412540170676832 -0.0038227893327900013
6.111092877049744e-6 -0.01671554183731078 2.249578134163656e-5
6.050050761882941e-6 -0.015650591918298654 -6.3112806879996615e-6
-8.74605695379587e-6 -0.019683034269690886 -0.0005100834654737714
0.00020343470703035676 -0.013093107937707592 0.00438675389735556
0.00015859155493332572 -0.013818002535106228 0.0036246785097953133
0.00017356382498740047 -0.01326134609129794 0.004422287900776067
6.146109793673033e-6 -0.005975965772277296 -3.8405242073577246e-7
5.371215579562348e-5 -0.006089406927994813 -0.0007238460428414075
6.158694809539924e-5 -0.01823645221385922 -0.0037366367940357935
7.154213948082717e-5 -0.01957210530338327 -0.004959378179449206
6.6333744655788e-5 -0.018507985043271676 -0.004938170566202011
0.0001685245410701252 -0.000189680462765266 -0.00034632125692984385
0.0002621472535456612 -0.000272260497381341 -0.0005687258342545386
1.3006510406994102e-5 -0.04899603835007682 -0.006475306808865382
7.126612365547565e-5 -0.019446795378580576 0.002110638308960779
8.944170349681907e-6 -0.04090942070204485 -0.00607210483551254
-3.2257089093873507e-7 -0.044260849338939416 -0.004937011891906144
-1.1611654841455528e-6 -0.04475105466696007 -0.003771134621414251
-9.915278767862849e-6 -0.023914229862197288 -0.0053078019875777305
1.7264311447650552e-6 -0.022693102198448566 -0.005352339727995853
-7.054474373371081e-6 -0.04317032902134551 -0.004533651827105173
0.00012726763327166064 -0.021333269286053308 0.0052783579069681456
2.439187334273706e-5 -0.04378046624066124 -0.0036881183951714062
0.00018026239620144355 -0.016295422389979063 0.004764722405564764
0.00014692085757792242 -0.01770455164058928 0.004941874307545954
0.0001654051990734243 -0.018706896422537322 0.005026661152732603
0.0001384316940280545 -0.01888689416719102 0.004993593698787307
0.00010544334655547427 -0.0004843891441559928 0.0006191450424752145
0.00014550418641765157 -0.00021530486855500356 0.00036821840983742264
0.00010886234791303661 -0.00019776696913811323 0.00027934953215646876
0.0001560822480966356 -0.00039474571388154394 0.0005280854350854378
0.00026225791314383686 -0.0009503386670211264 -0.0010606380616698203
0.0002726849640935332 -0.00133388252904488 -0.0012808966475177333
-8.850963775877152e-5 -2.562934903420513e-5 -0.00010859206135309531
-9.855892812375507e-5 -5.909948937106056e-5 -0.0001246793334410272
-0.00013147126388675232 -0.00015471740280329006 -0.00026480318714749095
-0.00019902652164445838 -0.00015543516462075533 -0.00033868667581871695
-0.00013069644901858953 -0.016109314935924938 -0.0037475088567495056
-0.0001740822656481788 -0.016280118216967992 -0.004905701063749418
-7.983622438873773e-5 -0.018062246649786364 -0.004892360729250902
0.00015906858701441223 -0.01542164809828066 0.004692323960248681
0.0001645911122880127 -0.014324025823712026 0.00455923309632633
2.1136825033982273e-5 -0.018745034628214963 0.0004353539515810216
2.5308133797089096e-5 -0.01746166665446616 0.0005669645398219155
-8.695655423757638e-5 -0.017108529790697328 -0.0028408706182184718
-0.00011898574823492161 -0.017790246503599557 -0.004883646300156638
0.00017292560569176843 -0.01752648780633157 0.004908884583408256
2.437724043675588e-5 -0.019621550040490113 0.003761611420761577
5.950675819561138e-5 -0.020160452994424424 0.005095096948949732
0.0003163101375723899 -0.0009750510484944566 -0.0012570216705224196
0.000249520966874484 -0.0008728876405138731 -0.0011293161174780535
0.0002517885200880121 -0.001274757616712607 -0.0013933526580465771
0.0003076715083405509 -0.0006831978147935686 -0.001028063014580688
0.00025349822686925174 -0.0006106662361700057 -0.0008296546348778951
-0.00012888123825664864 -0.017276715927352988 -0.003988310290677789
-9.62346721092491e-6 -0.01743208554093259 -0.004869132822927063
8.056044576967932e-5 -0.017644762182534284 0.00383705243144435
7.06106992585775e-5 -0.016599012572348047 0.004756030417137506
0.0001064583827484908 -0.017731356187626827 0.00487910663154302
6.42442894007358e-6 -0.043560246042179965 0.0005266108097417545
7.250834035960758e-5 -0.017197322284177297 0.0018897560673182792
0.00010742886005530863 -0.017076984613908757 0.002961743208119572
-2.578862339631271e-6 -0.021571597367644746 -0.00517403951609644
-0.00018846866058919688 -0.01320976516317935 -0.004386158716510873
6.914676721014282e-5 -0.01733401545996263 -0.004820241691244029
0.00015683767042093635 -0.016119124991954954 0.004032062938551585
0.0001511234916557203 -0.017267748145242484 0.004137379400223027
0.00010021614247979968 -0.005043344143646917 -0.002807765959940759
5.8523757486401805e-5 -0.004979579978572661 -0.0027316968185684054
0.00011291277652902636 -0.004342519140905393 -0.00257805320275718
-9.820048093066542e-5 -0.015937164558303886 -0.002841924780535386
-9.26521468363491e-5 -0.014945864798255706 -0.0025151057988552802
-0.00013847046698361342 -0.014914883072235124 -0.0037629178024497097
6.227846747033724e-5 -0.013730148600789298 0.0016685131729133598
8.976602041873304e-6 -0.01575848942399797 -2.4606707758446567e-5
6.403833185550233e-6 -0.016960747795001344 7.515799991020049e-7
4.55543494698578e-5 -0.03049612370173593 0.004522687925768808
2.8131496761667885e-5 -0.017454715988736595 -0.0005434998447803758
8.237837714446115e-6 -0.01785493329693743 -3.248389975955137e-5
3.5534293635556024e-5 -0.017504688324251238 -0.004515400209152024
7.248758635671626e-5 -0.01604752707311217 0.001833049967800334
1.7893809125543597e-5 -0.03026557476777853 0.005757840690644325
6.492276636421765e-5 -0.017770924900221217 0.004868806711539426
0.00011278311784226987 -0.016083519279010767 0.002885035819348266
2.9790043595547383e-5 -0.01272741921092602 0.0031506777035494185
3.282924300601064e-5 -0.0122604313108717 0.004245296449703144
3.7877600402889796e-5 -0.013477693626113252 0.004120698085568629
1.183624997896309e-6 -0.012547460248411529 0.0038916687494503187
0.00012517937508913098 -0.013856986916959406 0.002751299487084109
-9.742790225988531e-5 -0.004092298139070031 -0.0010084316182150822
0.00019406491106012676 -0.014154944101342192 0.004524486802679069
-0.00013703939602221682 -0.01646645001760155 -0.0047317459679339004
-9.812433181577722e-5 -0.01666173563278059 -0.004741399886671122
1.5572347295726034e-5 -0.013681517640088047 -0.003943213453928908
-0.0001966362014815359 -0.00019149281261291408 -0.0003994605551477981
-0.0002557026573686218 -0.0002622160531285934 -0.0005515313379254688
-9.076604716120591e-5 -0.00044501332928601156 -0.0005796469793513528
-0.00011240606680824221 -0.013370115349331132 -0.00434770025238332
9.705786524038115e-5 -0.021694131888332264 0.0041881155888357285
-0.00010388222913757043 -0.015492198531027894 -0.004607650903020043
3.9815407740552314e-6 -0.010731340119757961 0.0036319918145383094
4.197062276076927e-5 -0.012260993948030856 -0.004269056103322821
6.86669035848147e-6 -0.01829551302990428 4.162982019193864e-7
1.3437335188926393e-5 -0.009333380599800715 0.0029008353924269295
7.405876345914413e-5 -0.014766224688393809 0.0016900681877590603
-3.9154786857846964e-5 -0.0012503783020389667 0.0010992885800642086
6.9691604037320226e-6 -0.019021928915117867 3.2182852338180224e-5
3.913723789621448e-5 -0.020021387197554686 -0.0012749426784126568
9.247956046956343e-5 -0.0007586109070755646 0.0007646926519836903
0.00011692470918178752 -0.015506784262657416 0.004631830065545559
7.593594914034325e-6 -0.047474757129708674 -0.0018137506716261321
-7.691752352128708e-6 -0.010720967685599781 -0.0003185808747912346
3.922032659588206e-5 -0.01279181409618152 0.0006642213421916205
8.440981966475451e-5 -0.012783677147847342 0.001679212173998796
-0.00010738581696047018 -0.014400951605120754 -0.004471495819287837
-1.896665419687606e-5 -0.012985526929477997 -0.004298268781513342
-6.721168922306282e-5 -0.013442088442211567 -0.004303373249192308
6.963224785760639e-5 -0.015488390438189694 0.004602796619559432
3.796045649570382e-5 -0.013909480492241019 0.0006839972601637042
6.0822824494451535e-5 -0.011396674273881968 0.0020590598950901676
5.264301474534983e-5 -0.010855996226160946 0.0025602558820011045
4.0693965948512785e-5 -0.010160429857243062 -0.004049943626160946
-1.8094664982553248e-5 -0.012794923036790992 -0.0005588428368989316
0.0001346852447983919 -0.011264536484840172 0.004078322155051706
0.00018504143846412573 -0.01122227630701696 0.004132407322683256
0.00017889126420532806 -0.012224552767413919 0.004277671265808357
-0.00019026703957045215 -0.009010212498861551 0.0037125622052130926
-0.000136942287391546 -0.009052308850191482 0.0037051821583246112
-3.088073238686983e-5 -0.011384665122276906 -0.0009723742585107516
6.68169459065444e-6 -0.013769178277923863 -4.750707514746803e-6
1.5614571258119516e-5 -0.030157695919568076 0.0011681036168696918
0.00010039323265018488 -0.009323991591761494 -0.002373578075730492
-0.00014713394720247415 -0.01285160770726719 -0.003394127049693984
0.0002214889098921261 -0.011988235025862663 -0.004225814455428496
-7.173899169924293e-5 -0.011610508256979684 -0.0016032178760376162
7.595816064116082e-5 -0.009556697044724241 -0.002859110242688287
4.512304529891905e-5 -0.029312344961644476 -0.002397059139740164
-0.00015092521179808314 -0.01181611519026875 -0.003277227903346473
5.931524655005367e-5 -0.030136905866523962 -0.004512675295497967
7.441823119617251e-5 -0.013381504068740257 0.004326424770857527
-1.0797290276642323e-5 -0.011699703434695579 -0.0004285999276325568
-0.0001954949457092502 -0.0075818041798929245 -0.0034852073579611457
0.0001238493616890752 -0.013293178442366162 0.004366851142248937
0.00021014977884412604 -0.0120602936255281 0.004243521597200545
4.013503447024725e-5 -0.010623173025416228 0.0005869482939247734
8.51383234702916e-5 -0.0108121041884631 0.0015182277817377698
2.1327007008648942e-5 -0.022726152377291104 0.005291456149173591
0.0002182516792821643 -0.007236457195503669 0.002889989155930106
-0.0001284973097819719 -0.01037049805560315 -0.003912729631925575
-0.0001240089182646478 -0.011333676270680227 -0.004063030119445766
0.00010165719959470144 -0.01969138909608672 -0.005055293375850233
1.0281404891433371e-5 -0.02036108852774611 -6.903616258844878e-5
3.376328032558934e-5 -0.008258571896036786 -0.003573287030970694
9.536705756595786e-5 -0.017996032876885275 -0.0030760680281464617
0.00013892649025016803 -0.00901400215633208 -0.003698431980159517
0.00014445099318326115 -0.009569346850799462 -0.003673907358844665
-0.00010924583850883676 -0.010780547976508886 -0.002203441262250708
6.210374572822302e-6 -0.013649063441221595 -2.2060339791182813e-5
0.00013620227870415533 -0.011779468383652599 0.0025769839916578497
0.0001357562054953461 -0.01078628892283535 0.002486557648386191
0.00012995737802659038 -0.012259667226460186 0.004222699007212487
0.00021873965932003097 -0.011041219346703168 0.004090804858150261
0.00019102758922116266 -0.010838253092508557 0.0034385721719095664
0.00019623839555162848 -0.009881687767731661 0.003309198705365558
0.000141380787701881 -0.010999798579005269 0.003232020795190383
-1.4140992888634071e-5 -0.021035531903358773 0.0009806446249005785
0.00010980296192017974 -0.003539229565081343 0.0009040324535980003
0.00011345125705361876 -0.00418690089957743 0.0010305501844800348
-6.631498750787024e-5 -0.010695207138845014 -0.0013944247356030557
-1.102425989867374e-5 -0.013488050313714821 0.0004749623765603045
7.967871901599951e-5 -0.017756732421513977 -0.002043861958103521
1.3439962530046475e-5 -0.035163221091217584 0.0010617612771248825
7.790271907560714e-5 -0.012298816703888974 0.004172580438164605
1.2660095909134276e-5 -0.03375094798076119 0.0006489895139123148
9.475702212404766e-5 -0.00974061250471918 0.0015555080291421728
0.00010175385497525621 -0.008782316915543254 0.0015439898528751901
-4.664077230897438e-5 -0.024906725234574226 -0.004282990889422549
0.00013917419175907774 -0.0103026398750817 0.003928031659930913
1.913946008027307e-5 -0.010204876028463117 0.0027355932776375155
4.547340187729617e-5 -0.011074028366532603 0.0038255411417518143
-0.00021602636822821487 -0.004249622055980619 -0.002172300422407245
0.00012412164796148854 -0.007157850252833088 -0.0026001844228786186
-0.00011965177522813934 -0.009878828675222547 -0.0022538543152253146
0.00018882295257392352 -0.003426078409268163 -0.0018969234697118222
0.0001940813668389682 -0.002898029359523794 -0.001751827064061472
0.0001427972692136029 -0.003157304758637196 -0.0017914547170185219
0.00016892688577728362 -0.005650859772670698 0.0018594801513688716
0.00011088337866417153 -0.005541004898210556 0.001158525024011864
-0.00012461912189686572 -0.008857913305972718 -0.002119697573403853
-1.7313366036944585e-5 -0.012022660834335215 -0.004212933927842381
0.00013885283804904795 -0.00972029606581764 0.0023292736249888074
9.849730204811966e-5 -0.007661159086513075 0.0034387288585867987
9.166759782876573e-5 -0.00847457125092813 0.003540345694995687
0.00022560004749988866 -0.010103002903574984 0.003941944466109884
-2.8421433275485864e-5 -0.00826750318135126 -0.0005447585192086107
8.740345586385016e-5 -0.010469724350781683 0.003852958556591836
0.00019959094832281871 -0.009331543610424495 0.003821821201715504
-1.7101653718344872e-5 -0.042901488869180986 0.006111224786047815
0.00021043805407926626 -0.008079940396149662 0.003034924317334443
0.00010477997331387539 -0.00899479500411569 0.002394171379877372
7.282544653090555e-5 -0.008180264621045298 0.0013401013499011788
-2.9320509548972796e-5 -0.0007373101709318086 -0.0009216242180794327
0.00018315006066201963 -0.0042273394312734415 -0.0016485451457024147
0.00024555607735110823 -0.0044683965714439515 -0.0023215821923868495
5.941209252315853e-6 -0.0014309094934050416 -3.983608011293266e-6
-5.388544811647234e-5 -0.03597030281242469 -0.006090050589389806
4.808617001778144e-5 -0.001512668830324921 0.00021621699403775524
0.00011792610074735468 -0.0019598716948245024 0.0006659489930539745
-2.786321099029103e-6 -0.009237677927956555 0.003704432395841757
3.9815688586320065e-6 -0.047652809021705836 4.338224394436252e-5
5.246835106876974e-6 -0.04886666057327922 -0.0009765127881984527
0.00012236946269177597 -0.011924473204364688 0.003042767051851481
2.944815362876318e-6 -0.04891235348499604 0.00043431902901468043
0.00015240544101348147 -0.008035127584635962 0.0021947220129526867
0.00014700637434748794 -0.008924979814073898 0.0023020027392857377
0.0002571700130887827 -0.006592636135025083 0.0032650354350957076
0.0002507364600753248 -0.007401323320651662 0.003439697541830778
0.00015085144537453342 -0.008485358377583673 0.0036100623842537692
0.00014538807188737 -0.009374595739198157 0.0037716648007591735
0.000113589789312178 -0.00839331387111537 0.002835496892645608
0.00020398491803911347 -0.00896405581227872 0.0031746909804843525
-1.8704223831490183e-5 -0.0019306153775077773 -0.00013943766818975468
3.719150074585053e-5 -0.002203083573957015 0.00020096949234111352
-4.4861106721420956e-5 -0.01674579254016027 -0.0019402903466799383
-5.2507872640187836e-5 -0.018044367434157525 -0.0025126993733216273
-7.29251441240674e-5 -0.00795091659291185 -0.0012186458413754975
0.00013128099484140772 -0.012983984025882914 0.003473560866047003
9.280934355860547e-5 -0.013953777480208424 0.002609472789813388
-8.893273208046832e-5 -0.0169971831454936 -0.003495224453628359
-2.7368516648447436e-5 -0.007346997155420284 -0.00047825242737985473
0.00015337708363498233 -0.007620411070078976 0.0034449740019466294
0.00024237159929681393 -0.008289667652387958 0.00362059616492929
-2.2964501455815283e-5 -0.03998533812342912 0.00606256415945725
0.00016079947491718247 -0.007384564641899859 0.0027204137177385397
0.00020761009503997852 -0.006607979757580252 0.003256070246380082
0.0002125667022343387 -0.007583038340862097 0.0034875468691737905
-2.144290030147261e-6 -0.03267500959810885 -0.0010218119714194797
0.000288891341004174 -0.0045209222406365325 -0.0027643817363408167
3.8373857709633975e-5 -0.003268074527321913 -0.0023114623339937665
-8.340368460478345e-5 -0.009506113768600917 -0.0037212405686246545
-7.093040842679424e-5 -0.00715467934131296 -0.0010817952762743432
-9.214281173790703e-5 -0.006938415264790783 -0.0032365114263171392
0.0001244248300915732 -0.014628635082374433 0.003626510220812681
0.00026534477293862574 -0.0058602471909842265 0.0030982649477645998
0.00022420972170910007 -0.005695004648286756 0.002562945420913141
0.00023372048080627972 -0.005267971945002128 0.002951375459129013
-5.335945487888294e-7 -1.5157295311728687e-5 4.6208240947760444e-5
-5.938549210528882e-6 -1.9996425335384155e-5 5.2926914198128116e-5
0.00015638768547961786 -0.006342731146767438 0.001921627622385863
-1.8687988630576905e-5 -8.854127446812972e-5 9.600246526817969e-5
0.0002066599002346203 -0.008439374185676352 0.0036576733415654965
-2.5876937580961356e-5 -0.005175837710181009 -0.0020883796763667486
0.00031720715326586226 -0.0009724312097778681 0.0012594671928001647
0.0002488498935826481 -0.0033315915289695826 0.0023665107056305428
0.00018049630815515112 -0.003378736727242821 0.002344291475548626
-6.162266353351934e-5 -0.0345555282432206 -0.006035335490130304
7.659345101593402e-5 -0.009015728915146582 0.0027111142409029414
4.9652627934902085e-5 -0.009694078893288709 0.0026031182255082225
4.721495579464288e-5 -0.004646603712756075 0.0027374735372595826
0.00017334526148133093 -0.0035173540937775173 0.001470946009387054
0.00018515493133375335 -0.003017655541162822 0.0014006860881032156
-3.202299977266653e-5 -0.005052372800051985 -0.000408736482020303
0.00022307868071148602 -0.006434254522473215 0.002741624988032943
-0.00017912827273757699 -0.010000231751414476 -0.0037728668948836222
-0.00017105668672547252 -0.011210534221414749 -0.0041194882414185025
4.704277069364001e-5 -0.005627097198973026 0.0004392099943232737
-0.00021995798157945501 -0.0035952013541570346 -0.001992394568451529
3.418862846898399e-5 -0.005015010571880873 0.0002603247734755802
0.00010744153970990387 -0.005698783444857416 -0.0028808470582281807
-0.00010067029739206406 -0.004504292505673576 0.0010575352843903304
-0.00010801937845078159 -0.0037826987878946156 0.0009807187634848001
3.620743155331863e-5 -0.005933135606941524 0.0031795644733066722
-8.634353040228874e-5 -0.007750004590741669 -0.0033854126432147254
0.00016717982636970535 -0.0048424578415319774 0.0017111446293032926
0.00023080566059237992 -0.01112345042031487 -0.004168063241077078
0.0001966142888410651 -0.011176657659381377 -0.0035386574373849644
0.00022949087100943656 -0.010236848009578832 -0.0038926700717511883
0.00019586315753766922 -0.010322464168993574 -0.003980659200767614
-0.00010842218209366437 -0.0029397231332950217 -0.0008581007741418321
0.00022120226569734638 -0.005684680017960172 -0.0030003292933780453
0.00012322204303888719 -0.008353736105799524 -0.002151673983109681
0.0001544338598142692 -0.009492007067735744 -0.0024284215817093184
0.00015088763564411405 -0.008806072897345722 -0.0029697650689400274
5.3322154918960034e-5 -0.007407850212919878 0.0007101906151333987
5.779847807795364e-6 -0.007001909823349224 3.324445562315245e-5
1.208941889900487e-5 -0.007822646572366969 7.831244157824346e-5
4.7177579988870555e-5 -0.0007269374382526504 -0.0009056068334299434
0.00022543611423568995 -0.0059674060986058385 0.003106073886276399
1.7135464535580923e-6 -0.047528468691226185 0.0026279668561419805
4.682526564297688e-6 -0.046179591501225324 0.0032663246795110196
0.000315603921596435 -0.0013160590408644683 -0.0014873302822941724
0.00024292766420053622 -0.0016903436511716814 -0.0016404568340567286
0.000322977567543881 -0.0017168970268904577 -0.0017149487667479574
-0.0002206348220353578 -0.004580408713388108 -0.0027231013547439654
-0.00023096271537044783 -0.003919199454456613 -0.002545769802495116
-0.00016637872878750572 -0.003960745820591869 -0.0024461268624204635
2.5407677069292153e-6 -0.04753669144844099 0.0018589099719178307
-8.755912856286741e-6 -0.04643405369414519 0.0053471984093439355
-4.971182892699065e-6 -0.04829063078165644 0.004908415330331913
-4.217880203353055e-6 -0.04842665632704729 0.005060394931986308
-4.370063759887852e-6 -0.04750463091929689 0.004133729317609309
-8.584140914925784e-5 -0.008989448817684353 0.003583849721803059
-2.09903195591139e-6 -0.04888000978823519 0.0036512018585839363
-5.580359303990798e-6 -0.047385807820181015 0.003904198344968393
-2.313258733887745e-6 -0.04759425474946145 0.0036552152319532546
-5.571652805382101e-6 -0.046419079258046544 0.004888954870255804
-3.4370131625052395e-5 -0.034775239116227534 0.0034740631417660224
-2.3165488443003443e-5 -0.03413597494074438 0.004561463697765373
0.00023806020453930065 -0.004951863707314738 0.002433103290266008
0.0001213068815847844 -0.0016762402043641212 -0.0011874793074855214
8.832572491185906e-5 -0.001477199595032835 -0.001195216734772645
4.488824894916539e-5 -0.0018162222049866977 -0.0015495031347645912
2.8149791220955217e-5 -0.001488017387576298 -0.0014653300765695688
0.00010574774944436303 -0.0017506423764613152 -0.0016251027039622667
9.96293699526954e-5 -0.0013814270586570182 -0.0014178598331446943
0.00017943061627124338 -0.01867326147714567 -0.00502194959820055
0.00018697152194374297 -0.017622948935025983 -0.004960788300451962
-0.00016442105305998034 -0.0035039010283312326 -0.0014693420857431407
-0.000270216589800575 -0.004413223420441121 -0.002742596596025143
5.98546032698749e-5 -0.005651654136316227 -0.0006360972880971947
-0.00010178892259543322 -0.004730017971623571 -0.002704807287223507
-0.00018166885076805823 -0.002363894756893538 -0.0019271679358283376
4.556156164983613e-5 -0.03172222867864515 0.003516150503685887
5.0519414235125885e-5 -0.030208533023422836 0.003488632859144902
5.590074510994516e-5 -0.0031565157865689635 -0.001884732688852194
0.0001634294925201237 -0.004171369349036346 0.0015749145585808155
3.5410501287572556e-5 -0.030810653360940084 0.002457879585573356
0.0002781877067079639 -0.0044494377748953715 0.002725222348539403
0.00024133796616114463 -0.004278302550259645 0.0022722332649706173
0.00017027917937253187 -0.005347227284785914 0.0029109910456934962
0.00028551744137613074 -0.0037662225055504687 0.0025117625125572435
-8.970403082801381e-5 -0.014032947864785246 0.0034923715452301507
-7.610538058907105e-5 -0.01389613483477592 0.0043426223949024284
-7.367707751171613e-5 -0.015017100742397376 0.004470653872689092
0.00011529510925001413 -0.002974236303137938 0.0008786188425197837
0.00024739559352334015 -0.0036447494336323783 0.002108925996469894
-0.00011040732746632755 -0.0007623194861797075 -0.000413988377728134
-3.315982777705571e-5 -0.005700178550979568 0.0004319675249416453
-0.00027359168813226927 -0.003799909896473654 -0.0025197404434536093
-0.00028416823601854114 -0.003291027522784274 -0.002355278339423263
-0.00016855345857113015 -0.002963799949069912 -0.0013514481460973134
3.247568465958775e-5 -0.0025972269337870522 -0.00017559765112753274
6.165113901252921e-6 -0.004685367823855946 0.001718874235057998
2.8606085560914934e-6 -0.005341663351973351 0.0018950958115113525
0.00023685159142631843 -0.004574061872533112 0.002760333834869604
-7.691469215604132e-5 -0.01211850491684567 0.0016512894526276578
-9.351945269566758e-5 -0.006623884366974667 0.001259247830499892
-7.326072727825945e-5 -0.011213055928535106 0.0015359391720047688
-3.542383423516843e-6 -0.036277072147638506 0.001092324367656946
0.00011910371774774024 -0.003993845695760159 -0.0011090718686237423
0.00018314040100032386 -0.003374237809868249 -0.0014530378551382186
0.00011675896492152797 -0.0023647965106475682 0.000766214744436921
0.00018331036489476217 -0.003104295219285208 -0.002196070956506805
-4.01178441932711e-5 -0.00158288825468541 -0.0002329486766317017
-7.147033837375476e-5 -0.0020445923978364196 -0.0005030094682205159
0.00011517517087648457 -0.024720486122233258 -0.005462192956865938
0.00011097618281021697 -0.02599452246599159 -0.0055336904687342345
8.014903014636164e-5 -0.026050046988394474 -0.005542431012878602
0.00014346441955421452 -0.0251256924556492 -0.005583378790148835
-3.57880915909053e-5 -0.002367452920069748 -0.00034814218409955604
-0.00022849706230991502 -0.0030106406561804773 -0.0018307570619689301
-0.0002895441097518364 -0.0027331998525225673 -0.0021469879670135755
-0.00023418850169639718 -0.0024849199144241587 -0.0016477894998734653
-0.00029716125772052043 -0.0022128711139839385 -0.0019319214094695343
-0.0002333311441651603 -0.00157878852289267 -0.0012781282212928934
3.718495512196406e-5 -0.034539581102312006 -0.0039043234882005923
5.048340123480324e-5 -0.033993222309754184 -0.004592174272723606
-0.00016697438362394394 -0.0015213637289775588 -0.0009291546097936845
-0.00010447420375339423 -0.003491362034206408 -0.002322945618680913
0.0002503360733577047 -0.003064850911162057 0.0019391604641981473
3.9905054252161775e-5 -0.034295853349714474 -0.0059535323196996705
9.721503185504654e-5 -0.0007529470161023272 -0.0009507741928138224
0.0001757734879633486 -0.0006034581898970755 -0.000849886443241874
0.0001124866135019675 -0.002939539372333747 0.002111574399296415
0.000307050009372128 -0.0021748402778806663 0.0019207208328298558
0.00025911238923303446 -0.0025241982080065647 0.001763825999327847
0.0001483351115328295 -0.0013852891240661868 0.0011463156503123933
4.4899956686698494e-5 -0.0012018079032067085 0.00025920913791025135
0.00014808322675297065 -0.0012265505984140512 0.0008342990665985197
0.00030017524994235237 -0.002673459438372655 0.0021297606514676
-3.86797599858061e-5 -0.03905375348117231 -0.006164002663374659
6.439581991501427e-5 -0.028059017205539064 -0.003428430974191122
4.8709671260953395e-5 -0.02748599741757474 -0.0023823179462971085
6.770754815924213e-5 -0.026804660418609766 -0.0033932252021193873
-2.561601542730012e-5 -0.0023240435545693414 0.0019048068099044894
-0.00015707099307043137 -0.002457534405424174 -0.0011267123351707852
-0.0001750227642506395 -0.0034125823060055646 -0.0023212018579011648
-0.00010662720336680909 -0.0021069566224981044 0.0007319818866101786
-0.00010430558783018921 -0.0027073502641860097 0.0008260572521367095
5.332056674211974e-6 -0.0017659032546653408 -2.7765202102299332e-5
4.4933597545854545e-5 -0.0019645465532439066 -0.0002621182591293216
5.6000300396012473e-5 -0.0010992379023576754 0.00021788230648264755
0.00012225922313510303 -0.001117572395546571 0.0005430259293948024
0.00011707026374625234 -0.004604063442961893 -0.0011302602293008432
0.00017389551960258476 -0.002630042887032153 -0.0020291837291023613
0.0001718081810276913 -0.0021658971153134185 -0.0018480530365895624
0.00016291303787341872 -0.0075361112525499695 -0.002205473977020289
9.812605866865651e-5 -0.007629869598331751 -0.0013321494615237722
-0.0001113274053421408 -0.0014338556572028368 -0.0006058540584882001
0.0001814578029267136 -0.0024250462872051834 0.001240627723563198
0.0001503906810828668 -0.0018490681268702885 -0.001064513470630545
9.286327669873913e-5 -0.0027473816440846594 -0.0015944656364289484
0.00010954033945714226 -0.0026422293418913475 -0.002019417563390933
-4.0271435160487235e-5 -4.5788145152805095e-5 7.7768024078715e-5
-6.467766908619905e-5 -0.003070858043770745 0.0007109285695811075
0.0003125693231942333 -0.0006972541413492738 0.0010457259370311334
0.00025435919682567247 -0.0008536568283063767 0.0011193580875515539
-0.0003038757123729152 -0.0006543238936297941 -0.001010715922369095
-7.638157975944797e-5 -0.004197290087118491 0.0015053663181549977
-0.00011787444752264815 -0.00470435837156331 0.0015906685781588552
-0.00014575282562172447 -0.015420453560326135 -0.004692663474496427
-0.00017763123106674818 -0.0019258000755676278 -0.0010982422828448612
-0.00011381996705895181 -0.0029200213418212446 -0.0021225056975278426
0.00024138223276823695 -0.0034220744465352443 -0.001963094850488315
-3.8994293405963716e-5 -0.0022653831227412795 -0.001871108464250098
-2.9956665343325223e-5 -0.003272446192925438 0.00028603602738145283
4.566436654616395e-5 -0.002865854495011291 0.0021532650340882905
0.0001905675318096327 -0.001977141052536433 0.0011412842767820665
0.00027279121867091545 -0.001208916942793528 0.001221781226182047
0.0002732003849541809 -0.0008748112515296226 0.0010347883795910047
0.00012904993066067014 -0.0014822163457476525 0.0006477239872774056
-0.00018642814451261993 -0.0008155486703937485 -0.0010324867745894722
-0.00011870878714608004 -0.0008551679812851563 -0.0008166111693723516
-0.00012818866871751208 -0.0006661429390544728 -0.0005566247272426488
0.00026561461891401564 -0.0020348830911367187 0.0015847980752096396
-0.00016865471785829558 -0.0005868135810607862 -0.0008300750078656649
0.00027118684719763483 -0.0015967349070315534 0.0014029001088068035
0.0001834144224828367 -0.0028296801590619383 0.002139488552738805
0.00031242358505166693 -0.0017255151773706804 0.0017073491308835173
0.00019544876280559942 -0.0015424744690368975 0.0010084854306564596
-2.454628607466226e-5 -8.806364120976641e-5 -0.00012031912014813219
-1.8127753278710466e-5 -0.03549192427315634 0.0023009165146476236
-2.872091220602474e-5 -0.03664269163382535 0.003516659837938079
4.867993751561545e-5 -0.0028358543779314926 -0.0021229352065850094
-0.00018316174628948872 -0.001116965926497745 -0.0008323882701160416
-0.00010107636193926971 -0.00110456248472624 -0.00045933774185816494
-0.00018278935634636598 -0.002162712732646278 0.001855213670343149
-0.000174248079756577 -0.0026357435943502156 0.0020566918918285475
0.0001677185134961254 -0.005002600207610983 -0.00279211147323192
-4.202268913919836e-5 -0.0012093878527758908 -0.00021211320221481888
-5.681870807564829e-6 -0.046164443781188426 0.003102096552583198
-1.1533123606354543e-6 -0.046305229158399776 0.001671738507441507
-8.298307122377047e-6 -0.037730138832576456 0.0014858832517788314
4.6764161284668375e-5 -0.03528049685743907 -0.0037150031737003524
3.0803758577628565e-5 -0.035674883604063075 -0.0023161409929086984
6.620889459231848e-6 -0.03364810983316938 1.1011534257157368e-6
0.00019136240936615096 -0.001103300584572585 0.0008422178001485596
6.5105836236703185e-6 -0.03507802316604059 1.2744276446228154e-6
3.728549324464954e-5 -0.03639197092548098 -0.002529292391365046
1.8749460590368867e-5 -0.03573179787994802 -0.0009646367010249774
0.00019042404374922456 -0.0007838164875227943 0.0007055140396571008
1.5811274903579838e-5 -2.7489349934947092e-5 -6.815255540729582e-5
3.4219556687246885e-6 -3.528416199250956e-5 -8.088410386786408e-5
0.00026233904807198194 -0.0022820356288426272 0.001957296010537129
1.2444465560856014e-5 -0.03230302760142007 -0.004522916459526214
3.128571505470763e-7 -0.030774123707641744 -0.005806710766700632
-0.00023921056468926953 -0.0011754498493839226 -0.0011380494806117962
-0.00024385125358445902 -0.00085495819334878 -0.000943732779803207
9.409607374027387e-6 -6.244656345185548e-5 0.00010876855630406878
-0.00016896893045378439 -0.0008045020326098031 -0.0006574580659071328
9.547924895944815e-6 1.6120503190946547e-5 1.1539394053089112e-5
1.975964829744008e-5 -2.3885388361261846e-5 2.9091890770222012e-5
0.0002962995361983925 -0.00046203088399283774 0.0008182111974038949
-4.01130851258923e-5 -0.0005105441924457483 0.00069915587097591
2.306343382467257e-5 -0.0005425926310317949 0.0007331179304872129
0.00021863125296157243 -0.0003429516510458299 0.0006057791090830196
0.0003176455692215325 -0.001373537872130992 0.001525271844258047
-1.3412737848708306e-5 -0.035670867775104025 -0.0024861191977043596
-1.4698490917033277e-5 -0.038066374222419035 -0.004771862156998898
-4.007065154012215e-5 -0.0005572321014298986 -0.00013713771045683294
-0.0001195068378721766 -0.0004749964981433876 -0.0003685875807068387
-9.75649446033167e-7 -0.03767286765316731 -0.001101069313696793
-2.117529264148144e-6 -0.035428276896599956 -0.0011056375294765284
-6.2628349503437585e-6 -0.03471423702751939 0.0008990687682159965
-2.4040647836009495e-5 -0.03729941672137561 -0.004436243658535182
-1.228601856888589e-6 -0.035748981131314236 0.0005272426390069476
-4.307893971980325e-5 -0.0008570808438723457 -0.00017895950890651352
0.00012427785434315205 -0.0007605886950666165 0.00045406385800103626
-0.00018080716674934229 -0.0017242402886089648 0.0010411330255497007
-2.0343666559172537e-5 -0.03416636508525223 0.0023547587552099273
6.634112547341614e-5 -2.329660023932565e-5 9.628775325173691e-5
-0.00011549180284586608 -0.0017885672926424 -0.0007119825745907536
3.481555040620495e-5 -0.01926738337943942 0.0012174764260032835
-8.302216451996236e-6 -0.04802371537462427 0.005348268167600084
-1.150027033204428e-6 -0.04927850589502987 0.0051051498236712465
-3.4708750043850528e-6 -0.0480189432335958 0.0038780421553328737
-1.6389096695112714e-5 -0.02583758401441594 0.00449145127291176
0.00017531980382153327 -0.00031923790069948005 0.00044811328605295247
0.00027038783262889235 -0.0014158249554771915 0.0015246331206047862
0.0001967676312148101 -0.0014712203821754812 0.0015002005717428362
0.00020701420631311763 -0.0013012898743706728 0.0011606308343793856
-5.246091671523672e-6 -0.04519628907263431 0.006167830388688098
-3.326441589906637e-6 -0.04360782019968599 0.005944381011350688
-6.546428326836373e-5 -0.02542342846329375 -0.004408821958553686
-6.385872630607473e-5 -0.023921402383693526 -0.00431157186998711
-1.5088534565457889e-5 -1.0017157665342293e-5 -4.904045187771474e-5
0.00033787833772250936 -0.002299493078965113 -0.002094715199406069
-0.00017402651797295018 -0.0005243553256323713 -0.0005397148259574004
1.0485117517746296e-5 -0.04518502947277908 -0.0013455627056158505
1.0284122480769257e-5 -0.046371725569984965 -0.0017859525575807578
6.324790759094476e-6 -0.044979038141622525 -0.00039521417340393494
-0.00017983486805761822 -0.0018976977472890011 -0.0017103885282678723
6.4483853180099385e-6 -0.0010572186436204026 5.2663044201433224e-6
4.7968366927851485e-5 -0.0007653415167971231 0.00018001054062398273
-1.4496907443263293e-5 -0.04022316549646888 -0.004860483435022824
-2.826933121461225e-6 -0.04928884706999939 0.006593002023741485
-5.112206393086114e-6 -0.048951573614251745 0.006279800390308949
0.0002697100572477858 -0.000596180476074392 0.000842567054034005
-9.40386672511187e-6 -0.04524936074463378 0.0061245707645349095
0.00012681329751143647 -0.0011657831886365934 0.001279304992619532
0.00012496833343541056 -0.0015171066515379814 0.0014974384049836489
-1.3012917074138379e-6 -0.03966830313307531 -0.0014996499226606309
0.00025203926419358554 -0.0003714778437148907 0.0006471634056477971
6.548724088521356e-5 -0.013923981518137727 -0.0033383598497148995
-0.0002620911129470669 -0.0010742116856788675 -0.0012902201319604585
0.00013165943316613876 -0.012604740655183728 -0.0033220568724713537
-0.00011625169031275768 -0.0002652654123424348 -0.00028833939044949633
-6.549253117455676e-5 -6.286600754006803e-5 -0.00011035551276632743
-2.9800454746976594e-6 -0.0463828800987951 0.004835318700521462
2.212082687844174e-6 -2.7496476062390996e-6 7.077486881415863e-6
4.757040775851931e-6 -0.04232785398363501 1.526073228087979e-5
2.3738695653765226e-5 -0.042261675120032434 -0.0025417894340082608
1.177392461075965e-5 -0.043010712865100637 -0.0011799718849199942
-2.1266234815084792e-5 -8.519303826319059e-5 -3.770120098106751e-5
1.4656827516303667e-5 -1.4661701330567347e-5 4.630766572193502e-5
-2.5760245150663505e-7 -0.0007092276503640419 -2.4345767305823487e-6
9.051459981535553e-5 -0.012830693642294779 -0.0041879608221911295
4.558808260423586e-5 -0.013421176014191075 -0.004322150655375055
7.293613208785523e-5 -0.015040838194769575 -0.004547129034698292
0.00019106130651865743 -0.001870786586098334 0.001718208899458922
0.00019445857345532113 -0.002361327308270518 0.0019337713896409466
0.0001661047720047374 -0.00016703612478053713 0.000333944349739339
0.00022633624757985716 -0.00020092752404660485 0.0004475259551835546
9.604659804914767e-6 -1.0358080889707824e-5 -5.4727780673836705e-5
0.00026739811037762085 -0.00028302379385522584 0.0005884048963287968
0.00027231569745642315 -0.005942581673096516 -0.003138086286035519
-8.622917603237082e-6 -0.0005100728511621461 -0.0006874439983917311
-9.907761604629896e-6 -0.0003440264050542784 -0.00047477662949605494
1.0304740900503096e-5 -0.006964444888534206 7.578037039120722e-5
4.281295129376689e-5 -0.005479842030842629 0.0005432424230729409
-4.8688343866288104e-5 -5.2803820725839215e-5 -0.00010290807926282281
-8.389190536135556e-5 -0.0006146977279839931 -0.0008284762599383773
4.191652389008176e-7 -0.04620053418234077 0.004942577767512584
-0.00013256140862479652 -0.00012336173742646923 -0.0002484506841197246
-0.00010460249326388845 -6.260376746740053e-5 -0.00017115152463347905
0.00011497696953597031 -0.004007860585817595 0.0025399603248832496
4.709170665414498e-6 -0.04699535672209524 -0.004519643212514881
-7.860142811951194e-7 -0.04520059624422662 -0.004993817245106405
-7.760324963491557e-5 -0.00010812575740257474 -0.0001483210432247051
-9.126654839415152e-5 -3.163469371013367e-5 -0.00013351353446317476
-1.289273443890634e-5 1.285283889219873e-5 -1.5275586988967373e-5
5.382975482495767e-6 -0.041419631973628225 -9.224614174003094e-7
0.00010387410311511137 -0.00011019337741578272 0.00019388099501550693
3.374393204188221e-5 8.889269355547153e-6 4.084829143338796e-5
4.049944512783372e-5 2.3116739422112014e-5 3.957807689280985e-5
-3.325175886265956e-5 1.3519937293169737e-5 -4.21701014581365e-5
-1.0877222121877031e-5 -0.03396094556133713 0.004324408283545651
7.451132056334259e-5 -0.03091519770545142 -0.004655143818452155
6.690383267541254e-5 -0.031497054130002915 -0.005825556517183023
7.045288631792263e-5 -0.0320470030319765 -0.003762179396194232
7.315803349329763e-5 -0.030647745714071174 -0.003720278416281275
7.353895245553341e-5 -0.02894392616303809 -0.00449559423724367
7.754827835681099e-5 -0.029282269217310565 -0.003650800210194111
6.865139185868009e-7 -0.04899529455289238 0.003407747919581056
0.00017611667937271488 -0.019631190526401682 -0.005163151572525845
-0.00020330046425909212 -0.0002953382337463246 -0.0005323758114681436
9.641967977572625e-6 2.6417526572142008e-5 8.431366370481707e-6
-6.283299568708729e-5 9.522673254434965e-7 -7.034062314068399e-5
0.0002001693612836388 -0.00014851206512345874 0.00032989818924581484
-6.3915175052906475e-6 -9.220956417555412e-5 0.00012142563248209694
-4.338593992551804e-6 -0.04369698490264895 -0.0061765028829256175
4.5062688410581507e-5 -0.02611316152724768 0.003166320370446844
0.00011870836434314088 -0.00047645315365142936 0.00036259622610179746
0.00014215105937620312 -0.00030095497389817687 0.00048683143897741216
0.00017022374261358738 -0.00019582854625002486 0.0003631140039708981
-6.813678653265495e-5 -0.016130888463760838 -0.0025577525090620776
-3.918053305517063e-5 -0.0243505758122931 -0.005314429924341138
-2.129144631046664e-6 -0.025115677781407383 -0.005314333043323473
-0.00011808637305389387 -0.0009379985738292476 -0.0011047177533081182
3.145487550187787e-5 -0.041654714217687856 -0.004870212039302343
2.1199187491720027e-5 -0.04069528948802755 -0.006145581253911223
3.484416988897476e-5 -0.04287212216360289 -0.006089240147580688
3.010044692176736e-5 -0.04405662547397185 -0.006106712242689277
9.300742920333195e-5 -3.132683333682392e-5 0.00010716612263632522
-4.0963091686285206e-5 1.645691967752918e-5 -4.275381809259814e-5
4.2239633623829816e-5 -0.0003621765865933696 0.0005091595208823507
5.366003403946033e-6 -0.0010849714911239337 -4.583719382100018e-6
-5.131839420065285e-5 -0.0030764508959538633 0.002074746112742274
-0.000137527311289089 -0.002140433634075618 0.0014493443327416606
-3.7082537377468345e-5 -1.83733138017416e-5 7.240740032280305e-5
-0.00011247197170554341 -0.002190649764451912 0.0018444768197667847
6.318077941945244e-5 -0.005691970718465065 -0.0029023672669755574
0.00010014497467666072 -0.006301511007443494 -0.003010743556268314
1.3360885407498406e-5 -0.03514599407262989 -0.0054539231359058225
-9.641202750066498e-6 -0.03495095984167256 -0.0045215469499617425
-1.8426335996810025e-8 -0.04804156963356088 0.006338812222236757
4.270095823360176e-6 -0.04750136628067872 0.005282502593165289
6.919194484368368e-6 -0.04756332943165494 -0.0034238540561979617
8.253573690612126e-6 -0.048995604278086975 -0.003001199476392353
9.554046720162283e-6 -0.04883627539446341 -0.004013332547617378
-3.769862399885286e-6 -0.048903179084262956 0.005110994159706806
-3.165164269673122e-5 -0.009162854346355416 0.0017069517934462527
-1.546639630488277e-6 -0.048825229792457105 0.003788492086213924
-1.9588555682219e-6 -0.04893741256787727 0.003885046529383199
-0.0002439973505562201 -0.0002734743189742011 0.0005490116139144983
-5.456014877793752e-6 -0.049014146514128686 0.006311431244057469
1.3422481879695728e-6 -0.04886715861997755 0.0017799213501881678
-3.981218349447484e-6 -0.04803570506727031 0.006343342707406753
-5.4858582078804565e-5 -4.476344224711373e-5 8.387680551616148e-5
-9.449938612315849e-5 -0.006347019899577772 0.0023468727833858417
-8.899752073838854e-5 -0.006535762675067159 0.0031540295085291034
-6.036829812341837e-5 -0.006227853756152798 0.0027184700414292465
-2.7736803112537838e-5 -0.005284454917860993 0.0029031366930099547
-9.064074844954012e-5 -0.005679911617131898 0.0028267178085289247
-1.781751322477944e-5 -0.0060640164804959835 0.0031024793044583283
-2.243724214710058e-7 -0.04901488089676246 0.0033951520988730055
-2.8706644188022128e-5 -0.0335428726056783 0.002292584428195127
-5.739213259788252e-7 -0.04758024800696702 0.0033388981907133465
9.904230609648999e-9 -0.0487636991776914 0.0026133957280035716
6.092834425819381e-6 -0.046590968820795046 -0.002919450301288377
-6.464372712232615e-5 -0.03479424440037324 0.005092755676699213
6.4455470854701846e-6 -0.04763404012169928 -0.002810089757856168
-4.4879779157566064e-5 -0.0009687606637527999 -0.0010966461581771246
-5.587407334103515e-5 -0.0005152040250487335 -0.0007004708263393968
-3.507003315863036e-6 -0.047671122633295857 0.005002076409026457
-2.1493804737776683e-5 -0.04633965964985938 0.00650057246319758
-1.5193043300499318e-5 -0.04655700243888529 0.005311937267351222
-6.082453771338849e-7 -0.0451654014414544 0.006166873133254511
-1.3485196949972851e-6 -0.04661707107477026 0.0061880945117356485
-5.486245852530261e-6 -0.04803329236277978 0.006344029214106153
1.1800764298706296e-5 -0.006841068491358623 -0.00011338977641855026
-6.811691307453226e-6 -0.04803084925476304 0.006344406776575901
-9.505935621874658e-6 -0.04754304177742154 0.00623846317020814
-2.612741350347197e-5 -0.010349921054868734 0.0005668324952946402
2.4390452891899285e-5 -0.011062869016173564 -0.0003007146151696425
-1.2834505567058539e-5 -0.0463117977178413 0.005165405948262464
-1.2865473154761827e-5 -0.047776709389814605 0.006585645143242984
-4.875172963612983e-5 -0.0018132339105850447 -0.0015973207287584522
0.00012558055785831423 -0.01655331046949986 -0.003048015107269153
0.00015713213041392362 -0.01763508510390523 -0.0041452202573037
0.00016625123732439274 -0.01648413511431769 -0.004064260474558718
9.759564766991925e-5 -0.0010461258947995137 -0.0011904047935469874
1.8110019452010014e-6 -0.04872096250471745 0.0013721114429097287
-1.3501669539129458e-6 -0.048813314999756816 0.004118473941432361
-1.4662869704828323e-5 -0.04081776071667429 0.0024051097388112564
2.0282890444403942e-6 -0.049009291659959854 0.0019373097641931425
2.3109035473856973e-6 -0.04801224643745512 0.0009675136107485255
-2.529766998652965e-5 -0.04456362442873437 0.006259952435301717
-2.851923919953167e-7 -0.04893313685156321 0.003282780711914302
2.2262809384249318e-5 -0.043571188027081556 0.006292455288107478
5.318318136669841e-6 -0.004014633663338533 0.0016414011930365596
-3.47002906811927e-5 -0.00578659938208411 0.0006011666107659833
-9.883479855705126e-5 -0.005309128577623739 0.0015143333796808107
-3.7339498783256366e-5 -0.03865220426803191 0.006104854158734066
0.00010155498031840616 -0.01092290292339794 -0.002652667068419828
-3.066759481508514e-5 -0.04466467676717292 0.006429858773781156
-4.342509999142555e-5 -0.04187414432100467 0.006226752341140163
-3.6303158089898785e-5 -0.043353439795687065 0.006252358224138259
2.2249106403983928e-5 -0.0379524396831696 0.006072862878785613
0.00012055726107701731 -0.017634459259638482 -0.0031115539184181674
8.306589186423964e-5 -0.01659116352328174 -0.00199625499048226
1.3597659088151398e-5 -0.04773793048855582 -0.005029880370288605
9.450484875836111e-6 -0.04889425589846736 -0.0035444198142844615
-6.247134845607391e-5 -0.009015600762515771 0.0014550071127403408
-8.937925625761522e-5 -0.009197359673923048 0.0025352506971418
-3.2137910508745894e-5 -0.039978827701807745 0.006061301815257552
0.0001246522891281557 -0.008167709133149714 0.0022051760710152736
0.00013263885050276975 -0.009975456098954253 0.00283006809173082
0.00015410438178914968 -0.009122027775039497 0.002985939265756793
8.956373185307541e-5 -0.009621231018217208 0.0019210545990796587
0.00010727581109286195 -0.009589560001566683 0.0030086630069647694
0.00015755227504619907 -0.008234543901417639 0.0028552731063659856
8.726746668310188e-7 -0.04653426888277397 0.000981586783013031
-3.795714968394783e-6 -0.04653902305465397 0.002427064466644252
-1.4622219957244736e-5 -0.007245908743062252 0.0004144706196958203
4.263872658208203e-5 -0.03915522002763426 0.006201699845133009
0.00012267808400494008 -0.0008796693323278852 0.0010632720424562233
-1.7635869166190467e-5 -0.039293575645664124 0.002338716715659483
3.4528665156453116e-5 -0.03784239284150481 0.0060199008705465835
2.9712624467910483e-5 -0.0414172655585235 -0.006056191543641932
4.186473388799088e-5 -0.040096533642876 -0.006114981671811197
3.3340122844442574e-5 -0.03988807481569931 -0.005982603377780885
0.0001154928152091477 -0.01695967454131892 -0.0038416418591035017
0.00014950524953019813 -0.017322034380140607 -0.004857833883943197
2.0183830925921476e-5 -0.04391561197461662 -0.006082677915975829
1.846015598437546e-5 -0.04524989996526216 -0.006123956646066221
1.4888104915930951e-5 -0.04523432737584395 -0.006077620670824643
-9.050007933765664e-6 -0.04653849871379002 0.0038888699653222124
-5.133097965236082e-5 -0.038654876112802786 0.00619048319528827
3.9867031919736036e-5 -0.036275591638303566 0.0060354505930246905
-2.1255673942236865e-5 -0.03770948700348476 0.00235742295662713
2.3766335409591923e-6 -0.04528810674276499 -0.001473976053507283
4.087349344264848e-5 -0.035484643713265325 -0.005881478860694661
4.696319735253435e-6 -0.04642159152734185 0.002222760623474429
-3.387989694563067e-5 -0.039238292207163336 0.003921820738330989
9.666222676365742e-5 -0.013205612680527902 0.0034341662713255725
1.8761150467312716e-6 -0.04763105302297796 0.00354809665354728
8.973435641874366e-6 -0.03332630598818084 0.006022563526706144
2.9544152882447015e-5 -0.03345974562340939 0.0059112119808936775
-3.35895904902784e-5 -0.020966124726925023 -0.0020180320589154566
-5.526077094501034e-5 -0.021769725870218398 -0.0030110444460508586
6.626525532900527e-5 -0.022108625697993434 -0.004930490593578976
6.907541427851622e-5 -0.023240653262347134 -0.005245384419699871
-1.4983978429061533e-5 -0.03432524354341274 0.005932265734470639
1.0093907310086378e-5 -0.037346018726259665 0.006033734407844991
0.0001520228944240563 -0.016164821760612222 -0.004716663272115029
8.154333867066348e-5 -0.022180726450039618 -0.004300273058251746
-4.122674448199151e-5 -0.037188463966327634 0.006057002355545637
-6.333923892553192e-5 -0.03575954354066443 0.00610173228136477
-6.0150998645285e-5 -0.036218583761841096 0.0051646648710944295
4.092382211303056e-6 -0.034400539439244676 -0.006037099954645289
1.2514437063665293e-5 -0.0338810696012222 -0.005412682927101635
7.673104809911033e-5 -0.0020849248541636592 0.0011993048876896095
2.3859740860568965e-5 -0.03627024940794863 0.006039709047614396
4.3967837713235735e-5 -0.04043418386017485 -0.004994708982640263
5.792234523150991e-5 -0.04005940266296241 -0.00623227711872669
4.226880651153121e-6 -0.03589633602748337 0.006045540734283123
6.9822474916748145e-6 -0.031139969002903382 -2.9915602004570547e-5
-1.7200413807065142e-6 -0.035305105754388735 0.005457853566799593
-0.00012320900475344402 -0.003554719473569456 0.0018740334245505575
-2.7554031854040816e-5 -0.009694683283716284 -0.002915791281918751
-5.679170798412926e-5 -0.037200311913409785 0.006148743154483185
-2.8716558525559482e-5 -0.040590869813599516 0.003829424671693099
-3.545199552434816e-5 -0.04206463612181248 0.005291935823963492
-6.486464662794115e-5 -0.03748154056797257 0.006119732579174475
-3.7527996519634696e-5 -0.037657637236870066 0.003777864363535196
-7.905878205604602e-5 -0.008642503705528694 -0.0035443002374183435
0.0002662766627007828 -0.0018232640255158123 0.0017424075948138287
-7.99732981241709e-6 -0.03619288820169402 0.00606564348807684
2.6036161046934346e-5 -0.036035248535673026 -0.005730230069070436
8.117748693489053e-5 -0.027518667525299013 -0.004497430105348505
0.00010591532867843998 -0.027350072731767844 -0.0054804888415570085
9.893639288094364e-5 -0.02878137436725318 -0.005698755831556799
7.457132446743876e-5 -0.028755142770850176 -0.005653486377301195
8.882371585102041e-5 -0.029210090034038433 0.005812225475389831
-3.6667229187123964e-5 -0.03885294106729642 0.004958540900048809
-5.400456950419066e-5 -0.03766588904083553 0.005202720608766417
6.290647000180283e-5 -0.033691672255342565 -0.004532583594844336
6.020093947160341e-5 -0.0348878240633994 -0.0038346577795881974
5.235806201351489e-5 -0.033710875234398696 0.0047623024066398385
2.9436390186165795e-5 -0.03514808912548415 0.004635336475995294
-5.200010168551167e-5 -0.034317035901026104 0.005921015707682083
-2.961851398274228e-5 -0.03576575593660881 0.006006830250675654
-4.155020485697481e-5 -0.04059064851948314 0.005266907028429154
-7.228742567426866e-5 -0.036036390399256296 0.006074014096334162
-8.642922011307887e-5 -0.03317818310056053 0.005966803783555994
-6.858565445955936e-5 -0.034380743606504095 0.006017606001617095
0.00030954724873107173 -0.002812635440560959 -0.002192028048244253
6.897727708710191e-5 -0.03339415257199753 0.006010034491054669
6.831956830159141e-5 -0.028703108862302245 0.0035447864871924503
-3.570784275418953e-5 -0.02925241785603056 0.0022240612029154204
0.00025567691507697284 -0.0032465570957887924 -0.002324741233547426
6.350518109568502e-5 -0.03419168913182333 -0.005887865340576262
-6.226640296926526e-5 -0.028869060774742546 0.004438339939674806
-5.23027986880771e-5 -0.02815624833547616 -0.0045039199415162325
-9.347055785292446e-5 -0.025178496449774535 -0.005568847777220431
-8.055420116726708e-5 -0.027848538250932465 -0.005738946011263027
-7.948073897869528e-5 -0.03460013048013916 0.006022672245536556
-9.351612190476092e-5 -0.03176956416568834 0.005905431590710399
-1.7152015802189758e-5 -0.02875513415644112 0.0056392170664390255
-4.222961406268697e-5 -0.028754731671209136 0.0056987905996902935
1.5674034008371602e-5 -0.0317183984469209 0.005757689485745001
2.6254051899282984e-5 -0.027344217895426452 -0.0008196892852029761
-1.954704864022045e-6 -0.007668739817685343 0.00015062187031812395
-3.5681420843818954e-5 -0.03354781933533376 -0.00587137454357501
-1.0534526157567076e-5 -0.03328182304185871 0.00603203792922618
-6.07618883083631e-5 -0.0007508882685241442 -0.00026316777327761064
-7.512871324075293e-5 -0.0329082406737398 0.0059921528956922215
-1.3842520287843313e-5 -0.0190573117747796 -0.0009464247421620272
7.2817902174629855e-6 -0.018131357732530887 -1.1646670130654773e-6
6.335791730470913e-6 -0.017072477612073683 5.993356952783742e-6
3.764830522268748e-5 -0.017190344100591483 0.0011718723929863087
8.377061507320497e-5 -0.005314008347269928 -0.0011247915673606708
0.00013036338287446896 -0.005397005192172775 -0.0017517610779457708
0.00010943699605797034 -0.0062592564568237355 -0.0013019477075719753
9.553762037596542e-5 -0.027848189599014576 0.005737224031357676
6.974194575272271e-6 -0.03797453734791161 -4.9761440940527296e-5
-0.00010031237993444148 -0.030375855432182793 0.005839443488492372
-8.649437432730284e-5 -0.03011358571885018 0.0058615630511270975
-4.50937841366268e-5 -0.03071628622754301 -0.005779153782246017
9.309769113697514e-5 -0.030104316283986625 -0.005780265782779809
0.00010437212435821129 -0.029163580154711675 -0.004905015042027054
-2.6949787587418235e-5 -0.028688271693787272 -0.005660286654351101
-1.9473001392882813e-5 -0.027502556596284262 0.005692581830815809
0.0001280496169793782 -0.02211613991614513 -0.00523219149867251
0.00010133975605331364 -0.026501866582149192 0.005655707021389329
-6.269997001362627e-5 -0.030128945991191123 0.005786974878088243
-5.071601301094535e-5 -0.03334407428699174 0.003681244235643353
-6.671971351599804e-5 -0.028756492550911977 0.005715630805011175
6.0036801979293805e-6 -0.032230975649673005 1.8738284130296724e-6
3.9280031141482286e-5 -0.035782101779317885 -0.004341677211887282
-0.00010676138989539779 -0.028998037760134904 0.005768319170439191
0.00011821706741797773 -0.011708905164122527 -0.0027939875642928433
0.00018403709719831275 -0.011647991811824496 -0.004124791116293519
0.00019047514659269567 -0.0121579657556874 -0.003605991975613136
0.00014595056984351295 -0.010779799632685539 -0.00250911954720946
0.00014687287561303486 -0.011070605503271666 -0.003324678479303194
8.902802374630527e-5 -0.026547557977170077 -0.0035746259007318824
8.389210696854099e-5 -0.027908230831384325 -0.003621946565563928
8.241418827953721e-5 -0.024890607622962774 0.004316281349360291
0.00010837141799218384 -0.011992345230933418 -0.003313312744007457
0.00015432887387179452 -0.006085919812822108 -0.002272353765956283
0.00012111565504342272 -0.02259178966458632 0.005381644706414892
0.00016774224329538736 -0.0067543664057767286 -0.002595239275640321
0.00016329769631996677 -0.006192925022174646 -0.0019187088091378996
9.368685135828458e-5 -0.025218184324898217 -0.0035200387749839326
-3.6866605117311506e-5 -0.025382931353130855 -0.005412492176658719
0.00011031953987748306 -0.006921911823114103 -0.0013629715905650267
-5.2892154186771804e-5 -0.0009412657844728367 0.00029926441033622435
-8.825614039247225e-5 -0.029168478125633952 0.004904721307583678
3.226649092123602e-5 -0.026829500677833202 -0.001356373086197783
2.709088465922333e-5 -0.026021563215577144 -0.0007949311207771421
8.076678361145646e-6 -0.02671987721771723 1.5074035515967852e-7
9.241623858393229e-5 -0.023014861587735788 0.004244267255849461
0.00016295497176736798 -0.014843186466981228 -0.00457125978465989
-0.00010840024014643077 -0.007427034832423037 0.001961208526060978
-0.00014767489226507886 -0.00673153707442303 0.002012382380768662
-0.00013909332832989205 -0.007569904568168154 0.0020924377325847936
3.186324356610609e-5 -0.007410506605120106 0.0005223726135689446
-0.00015277497576383518 -0.0065329567327821105 0.0032076759406370696
6.170556164529336e-5 -0.02460178495982558 -0.005351355114915743
-0.00021335836725810975 -0.0065002446608268755 0.0032514111330016974
6.185734401229981e-5 -0.019122146673865845 0.004886630067232059
0.0002928808031354521 -0.0037886938671006366 -0.0025357955299333415
-0.00010222456849674206 -0.003715855310815294 0.0023958143436663302
-0.0001185424609788511 -0.003136655924202367 0.0022002411639176485
-0.00010974231089144758 -0.0026814658746986573 0.0020597534375140073
-0.00017338688387843578 -0.0031682051193185246 0.0022492654505745203
2.5015966652759072e-5 -0.018853280685887833 0.004997200318963152
0.0001081793048095228 -0.025177929497609372 0.005569296541127608
0.00013851271136194277 -0.01964608719167139 0.004333486979967271
9.001899427837085e-5 -0.021357081927161976 0.005214258091882784
0.00025494840588022235 -0.0026613598252183245 -0.0017938632639098327
-1.8607776734028038e-5 -0.02473733790108986 0.005450227700289725
3.7121178776412645e-5 -0.022723093267103676 -0.0011156543588575556
6.901903410198619e-5 -0.022622621220256857 -0.002248874139499513
6.728846569283953e-5 -0.023961641561092494 -0.002264706431916635
-7.671786793232698e-5 -0.02462549821536328 0.0054234265217443
-5.024094538757493e-5 -0.029336750790137433 -0.005709650549013218
-1.8128042713605798e-5 -0.023008392251251657 0.005337913405596682
0.00016009670172247392 -0.022145155789066187 -0.005322698644924503
-8.797186592201795e-6 -0.019791078389249588 -0.0051456934055745755
-9.018143570087365e-6 -0.018616971817845645 -0.005006458293201852
0.00020718601859557475 -0.014276258485400222 -0.004558279379895605
-9.35772834885895e-5 -0.02781646158897893 0.004816970102563571
-6.18662230555875e-5 -0.022209113902885796 0.0051525896372756445
0.00011464253568258964 -0.00753906582050407 0.0027047409645255243
9.710068383739547e-5 -0.006961381747811071 0.0032178032165917914
7.918858338551676e-6 -0.019051330395071543 -8.915303046536913e-7
-6.79585210916479e-5 -0.01731803292313229 0.004789478271315526
-1.8845350931704672e-5 -0.03457677949632449 -0.003107012270701261
-7.807566290438658e-5 -0.023963865887412495 0.0033089876014328863
0.00011275221122195068 -0.018345873026785767 -0.004850865643835008
7.2501499038123754e-6 -0.02026833537649775 4.526665430312739e-7
5.244321405645494e-6 -0.04789081198162018 -0.0009342490307656255
-2.0043983743801156e-5 -0.021863113154525052 0.005237709972466537
-0.00012412138938272055 -0.022154735734740503 0.005346169989690311
3.7232827789112706e-5 -0.01838870319597675 -0.0008269083504605679
-0.00010546051944270312 -0.02257597828846887 0.004331949820457935
-0.00018758822045485826 -0.015162330014618131 0.004648029304034678
-0.00017873288084612377 -0.01635885979292144 0.004772648421766883
7.101547009388939e-5 -0.010464073535800372 0.0017226097754679578
-0.00012985331939394584 -0.020928892282129047 0.005248126814308214
-7.08297107400452e-5 -0.0203535470561084 0.0030537905037857412
0.00011441616370286829 -0.016872183049834892 0.0038649455574032696
0.00011132295280589344 -0.0180378044962031 0.0039231757382669485
8.60866025404088e-5 -0.017313176224626005 0.002943593751152326
-1.869399325098692e-5 -0.04105605664328232 0.0035305280063270507
-3.5386721345103395e-6 -0.04212299744260883 0.0015190363852581451
0.00017246207450340148 -0.015356243240998792 -0.003957276667012704
-1.451137710321133e-5 -0.022451664623420062 0.000797998775161067
-3.166945203307111e-5 -0.012992628395730257 0.004300279055012185
-0.0001573388994306375 -0.019897995963660278 0.005124490032298796
0.000157055131172127 -0.00479212221457666 -0.0021232070051847834
-8.493524996984379e-5 -0.02253317180284007 0.0032853425290710952
-0.00012607715914942177 -0.02129020718486691 0.00442903802292055
-8.413092765507236e-5 -0.02139644368676291 0.003120211612157665
-0.00016457581945084204 -0.013949440828619644 0.004515018265246246
-0.00011504329421270969 -0.013890798911456899 0.004401148916055779
-0.00011437673025456086 -0.015071569056679612 0.004588016334135368
-5.743322640354685e-5 -0.01879795202041552 0.0019383142147221645
-4.004099110814767e-6 -0.040822263241626404 -0.006052058918336493
9.880692631896206e-5 -0.020217671909612076 0.005084155161246931
8.422851817234805e-5 -0.013799282421391976 0.0017267024826253304
7.228327619614188e-6 -0.023039040758462356 2.447363643138267e-5
-9.274283276411632e-5 -0.01973470293269504 0.004974768950330182
7.001995032056243e-6 -0.0265968923937254 -5.863992550169987e-7
-0.00013433582949405468 -0.01968695364451487 0.005111508621132163
2.9291786235018837e-5 -0.008189923333351659 0.0005016097734084447
-9.227525664523659e-5 -0.02026238291741804 0.0031810343566670124
-0.00010258317438403173 -0.018491039268327503 0.004953337878496646
2.6346732919677973e-5 -0.01771262696659333 0.004813112005003559
0.0001299642352806054 -0.015384086426145336 -0.0029550610793007575
-8.494391073660616e-5 -0.01835022312375843 -0.0028793998189388576
-7.878281776789197e-5 -0.020279978000529632 -0.005143513410301831
3.414371317345996e-5 -0.014960397942094143 0.0006888445946772663
-0.0001408076242884485 -0.018476614392883325 0.005021000118708227
2.7789178780382924e-5 -0.015636220175087413 0.00459732004171742
0.0002001392862646382 -0.015187624832044128 -0.004650779762602502
-0.0001536349431799072 -0.015403000762077125 0.0038705237199416027
-0.00011191030626361194 -0.016082336124635555 0.00465111118601077
-0.00014828448227392703 -0.01730573216606361 0.004901630232674155
2.7480052163451074e-5 -0.021064941464223885 -0.0009386537502103108
-0.00017300313536404907 -0.017461907087840504 0.004901635093303103
0.00018689501085903453 -0.015248593028928741 0.004658480948651707
9.683755197039464e-5 -0.009888224934836792 -0.0019922704257957146
0.00011920936205526713 -0.01496575144654732 0.0028426922766475603
-1.7423874331843826e-5 -0.017962451841674696 0.0006862578729208219
2.419866826717212e-5 -0.01780680481137943 0.003662893396460948
6.111710780080959e-7 -0.018181730542560875 0.004476205534758061
-1.777108078450788e-5 -0.021185642868554122 0.0008263749145919512
6.524051995726412e-6 -0.02151547276991116 1.2679815608279567e-6
-5.6965452666303564e-5 -0.01768962770263786 0.0018560116710462067
-0.00019252638002957472 -0.014141417589688473 0.004512472941222343
-0.00010244804317790131 -0.017622887371461594 0.003022190131302626
-2.4696497551987436e-5 -0.02866404469098934 -0.002362897884645831
8.539267523645372e-5 -0.015457548773929134 -0.0019434635667935445
6.269535298590278e-5 -0.01652491050694548 0.0020132192349389504
-0.00015019101047105668 -0.01616626117846036 0.0047266537344438225
-2.377634849624651e-5 -0.015338942580323625 0.0007473142076223377
9.511427599348964e-5 -0.00970046901017215 -0.0014697045529549037
-0.0001467983495031937 -0.017644680679075545 0.004169851141334921
-0.00014506615753723584 -0.01653331000308848 0.003976448512784732
9.912706328136127e-5 -0.00871689275650516 -0.0027140650656789027
-0.00016062537610115528 -0.015043454520163011 0.004646884975896347
3.5121088722851966e-5 -0.009135584725963385 -0.0037241189999225057
1.7974664868927794e-5 -0.008751215994688151 -0.003309616664941443
8.861000158657917e-5 -0.009005613204437492 -0.003682405652604885
0.00012094429440702838 -0.01442612682025275 0.004432885477154906
-3.016434867599379e-5 -0.039155159832757476 -0.0062035066258792305
-0.00011219730740154695 -0.0010413845141960807 0.001194551621995137
-6.607504729972075e-5 -0.015353383738677171 0.0017923132785427718
-5.437179286607361e-5 -0.0010548077255088954 -0.00031215620163086707
-0.00013769392013108066 -0.001119545833195356 -0.0007643371148541798
-0.00012561452466251064 -0.0011703019133029765 -0.0010103922344819802
-0.0002010354688432622 -0.013009000154405665 0.0043768086900487415
-0.0001162574097032116 -0.014237241920698947 0.002783984523670106
-0.0001072644996426827 -0.015478806294650208 0.0028085859432222427
9.066007932625327e-6 -0.006325147092697461 0.0027601607059620824
-6.509229428130955e-5 -0.016446368519199027 0.001844386044371578
-0.00022806106710109383 -0.009169255160383355 0.0037739224122597193
0.00017847501313306488 -0.014261034193625441 -0.003832990189670144
0.00018541820976866676 -0.013189572833686339 -0.003728013695250885
1.7373583052102185e-6 -0.04531496701910381 -0.002462313325601711
7.348817587990848e-6 -0.047948154064701716 -0.0052557592763830515
6.373156444706949e-6 -0.04654675099334063 -0.006250809698997899
6.184919607619827e-6 -0.04604963023497003 -0.004997358179145027
7.260580215573679e-6 -0.047387893121276226 -0.005106644491844836
-0.00014118670754545136 -0.0019032078969093724 -0.0010905529403865974
-0.00017708356409651998 -0.001495882578946906 -0.0011779717944339024
-0.000126123997993 -0.012886190086667623 0.004297724744396246
-0.00012706853731148397 -0.011915407116276915 0.004173038884719371
-0.00019033260621856732 -0.009942240736781347 0.003928086226474438
-1.39469840749898e-5 -0.040746625174141 -0.006123152036417634
0.00013465302347237027 -0.01434528204348878 -0.0028860511873595265
-0.0001788037263833657 -0.011882670006666214 0.004227972287607585
-0.00018188505204275022 -0.010887914192204425 0.004079567470093477
-0.00017165766560430884 -0.012898341937611607 0.0043738958408869105
3.4856047163504e-5 -0.014087724700749786 -0.0008770389514480328
9.104080138247445e-5 -0.01223877642732093 -0.0017717719050428908
4.636323867202709e-5 -0.010135145575479199 0.0036709688442134432
-3.0447067482173758e-5 -0.009978193773196295 0.0038378487544514527
-2.1449160378390575e-5 -0.03470248683378309 -0.004687087994783299
-0.00014511601934254865 -0.009571260272158544 0.0030901661032577527
-0.00012868408849874387 -0.01027964253087601 0.0023816082823245174
-9.190208161549708e-5 -0.00951875922308015 0.0020107252394713756
-0.00014034364258376113 -0.009220372200365227 0.0023337978003414818
-0.0002080303211151795 -0.012051004895333178 0.004231368215354992
0.00014066162715446336 -0.0005445777168216073 -0.0005445161305887915
-2.730327820745718e-5 -0.03638055374221254 -0.006005564496808325
-0.0002211597688279841 -0.010095313209788593 0.003931846995157322
9.684481123069125e-5 -0.0003242770039260467 -0.0003001030546092835
5.7758641650025056e-5 -0.00017569639534477626 -0.00026696735908379276
0.00019215361039518926 -0.010258888034560298 0.0039770379981268365
6.237820344945641e-5 -0.0009530848146215851 -0.00030981543379646675
8.953506170623843e-5 -0.009539653753624809 0.0037033415155507247
4.955911044457222e-5 -0.0005941992782426525 -0.00019793645887386402
3.9748997503516804e-5 -0.014873257419164825 0.0010635938235616837
-0.00018525984504387413 -0.010192687513395516 0.0033521941529162176
3.0192546715912618e-5 -0.016252867584357546 0.0008603925433768407
-9.681922112555425e-5 -0.007190754955502883 0.0032520507139883253
5.891945280398103e-5 -0.01829990981195821 0.0020890080352786826
-6.577406028772479e-6 -0.0393585717118357 -0.006018675091513174
1.4009701520224807e-5 -0.009694489370801454 -0.0033838714937262796
-3.054866279958041e-5 -0.010539967648508654 -0.0037461055807522774
-8.391390069404904e-5 -0.009983428038176768 0.0038664785531305128
-9.040074460647514e-5 -0.008147014106622958 0.0035156933581559067
0.00015906076223315679 -0.004403380810724356 -0.0026632639648011503
0.00016279666301671764 -0.0138281544758925 -0.004216320890895992
7.294168779506649e-6 -0.0313396400693701 -6.804210938637015e-6
4.675961323854225e-5 -0.008220482899204871 0.0033297297882366825
-1.8420091123055895e-5 -0.008479946842382485 0.0036394860405823933
4.105276172000378e-5 -9.16168254040193e-5 0.00015966507122334422
-0.0002127411450132878 -0.005933504705179472 0.0026091004153266134
-0.00015031440535271572 -0.005185559602165313 0.001751185318219848
-0.00015005428715024802 -0.005895680732869507 0.0018924362629979769
-0.00023541358418090685 -0.008218288952683011 0.0036067667524732248
1.379282701586448e-5 -3.141725677805692e-5 6.809326294663957e-5
2.5246752776940313e-5 -0.04406034370317872 -0.006107670697032213
0.00015923257736603227 -0.006808304672392484 0.003266781187526284
5.409758087719057e-6 -8.515840167881942e-6 2.7829794930127272e-5
-3.1517282612661365e-5 -0.008265676041641846 -0.0033742794464712996
-0.00015768040613764394 -0.005783700589860449 0.003034805941985014
6.538983092244078e-6 -0.03682328723656557 -2.447768741579989e-6
5.0790963005350715e-6 -0.03552898993247079 -7.466628481173898e-5
3.069511320030884e-5 -2.5466667278064956e-5 7.620887188211892e-5
0.00016547834676362917 -0.006062409919027885 0.0031453632743304793
-0.0002500589654885743 -0.0066203441724536575 0.003265685438067607
7.453299818356043e-6 -0.005433647678111544 -1.229516395468976e-6
7.741137581221354e-6 -0.0061621241256629 -4.919784719133273e-6
-2.7085521909226024e-5 -0.006479921483424998 0.0005899250910138302
-3.4642761430343444e-5 -0.006581203408258816 0.0005129098336747971
9.758977594891798e-6 -0.006781760813519949 -3.482969393954839e-5
-0.00025685030113854377 -0.005852973506099258 0.00308685002701136
-0.00016226440370876365 -0.005066510769626708 0.00285020358013966
-0.00022507962466394572 -0.0050146570445761905 0.0028625021124079413
3.918177803669417e-5 -0.0038967753536124383 0.0025959933598532175
0.00011157361605418977 -0.003497175240058246 0.0023098128020051646
4.052062637309633e-5 -0.00803393835330355 -0.0005010825019028935
-0.00021963081237006782 -0.005741843282958948 0.003071682639682027
-3.689408737374145e-5 -0.003838279494046001 0.0025026462210155503
-4.323173722880085e-5 -0.001419150536544418 0.0014290182084274173
-0.00010040828156867917 -0.004342761430495969 0.0025858663599596958
5.86476415243084e-5 -0.0025529142202076064 0.0015763996232148777
0.0001780087514520656 -0.003978477536447497 0.0025370294309871025
0.00017296751550980016 -0.004622639290674004 0.0027255831132425913
-4.309920087387516e-5 -0.001798827211791706 0.0016599779405155396
0.0002430025531613364 -0.003929390844952799 0.0025673963588616067
-0.00011317793570073409 -0.001371320824936453 0.0014137570078654148
-9.570810987046349e-5 -0.006022477551929306 0.001243204030224775
-8.477926194210964e-5 -0.00406182999294585 -0.0025476161923088016
-0.00016831220226384825 -0.003749352597063648 0.0024499396125459588
-0.0002654004113259228 -0.0051284725874976445 0.002903367848771531
-0.00023299322179443663 -0.004355129567090082 0.0026933550869087807
-0.00016620179402971764 -0.004397655728507173 0.0026611718025104777
-0.00027259449166488055 -0.004402398628271543 0.002708672449860886
-0.00012858396519480436 -0.008710901394992901 -0.0027466319759852447
-3.5088839136005934e-5 -0.004474372061856933 0.0026915451956983885
-4.1697009354492296e-5 -0.002690948953292426 0.002048420929955842
0.0002565506612203091 -0.0027874316989252444 0.0021663564142105404
-0.00023816067939598805 -0.003726793238899084 0.002497187318191042
-0.00029164062992169306 -0.0026717989616291183 0.0021209170278896484
-0.00029914238666544013 -0.002166464852712797 0.0019106506072372488
-0.0002501394815115616 -0.002192639328431172 0.0016315960735972458
-0.0002483263180602372 -0.002607924348031373 0.0020961840412027357
-0.00010701657762965828 -0.0023342302785800597 -0.001013865021006298
-0.00015316814394138344 -0.005345219400021986 0.0021953885724412185
-0.00011489713809094251 -0.005518953604136514 0.0023161198071583898
-0.0002228291211853671 -0.005184787559818222 0.0024458907036198313
-0.00022590680434284746 -0.0044960553721023035 0.002303169466150214
-0.0002785659660559945 -0.0038084969433693503 0.0025209551331434096
3.987145461840934e-5 -0.03541832233036819 0.004405916548124311
3.8712189374005706e-5 -0.003313634223272815 0.002383336845588448
-0.00017646976139231986 -0.002851238493276796 -0.002105109730929176
-0.00020830984004525956 -0.006700298019327846 0.0027733279605861435
6.531333626819558e-6 -0.005452132920733275 0.002640465412326736
4.7216507190456805e-5 -0.0002813052387627015 0.0003799173551972138
-0.0002418591207097229 -0.003252319998807831 0.001989150859652315
-2.6448149227421966e-5 -0.0332244129711239 -0.004620708728423427
-0.0001812066486347813 -0.0026546453590118786 0.0013155652385248601
-0.0001737514914421588 -0.0032122236226356715 0.0014434761404588273
8.355650173737195e-6 -0.022784289341060235 2.069440089216613e-6
0.00012782780276596154 -0.0021592652030238513 -0.000802980305799315
0.00010365984521148495 -0.014445201872900392 -0.002685558931282394
7.026171747924921e-5 -0.01508829078619259 -0.0019398673089870433
8.293865830867504e-5 -0.014358051485409841 -0.0017713602988065212
-0.00024601098158400067 -0.0031488252723529883 0.002297972216748236
-0.00019125983413815408 -0.0006331951285255171 0.0006541821081598492
-5.00222224635352e-6 -3.2252381614224096e-5 -7.146480233480907e-5
3.7603862596780665e-5 -0.002280280364281232 0.001933468609884944
2.385990495838439e-6 -0.0030165638004771345 0.001973193542610147
4.965345058763387e-6 -0.003532067726789735 0.00214688461044364
-3.9611199098361384e-5 -0.001907142030722857 0.0003449310335207815
-3.4738122403136365e-5 -0.001464819961294979 0.000269585413171417
0.00011547191800681812 -0.00236378296394137 0.0019227366346398832
0.00019323206731135028 -0.0011175406088610278 0.0012798041359030044
0.00020514246802954492 -0.0009569106298443617 0.0009821518071281255
5.95284252912203e-6 -0.004183016232004747 0.0023341061716003904
-3.61418711840389e-5 -0.00325853000039511 -0.00228873191808166
-4.025565317625554e-6 -0.002984253070602303 -0.0019852699448844775
-0.00025592974221732954 -0.0021174105154901325 0.0018813794321700427
6.250076935758163e-5 -0.016883379460609343 -0.0018785010831716264
-0.0002625627382612526 -0.0016809367952676198 0.001664857329682799
-1.7487528909291074e-6 -0.047523458400597636 0.004581301155097217
6.29681769988261e-5 -0.024891143995101277 0.0032407123264043157
0.00012098452584287209 -0.0019638815311943765 0.0017084639826256366
0.00016649162199686553 -0.00542352013875442 -0.002353793402518125
-0.00019002897528322507 -0.0017242604070582894 0.0016395406440692438
0.00019864973304736919 -0.0006344913879735078 0.0007773877840752057
0.00014623523928235696 -0.0007333409078943748 0.0007962216642034799
6.6085896239561976e-6 -0.006066394946340494 -2.612886769821084e-5
-0.00017226455772600502 -0.0009574230198476603 0.001134183357512391
-0.0003070630297437122 -0.0017020561196825408 0.001691707714262848
3.401835509537138e-5 -0.0018265968938610117 0.001709558500506057
-0.00018356146742485818 -0.0013337541117791692 0.0009240807566849132
-0.00011948731137619423 -0.0017546596669117754 0.0016215454521472696
-0.0003095666015424211 -0.001326022365866971 0.001482396037736363
7.422540111586725e-5 -0.020164279824805842 -0.002139269040347003
9.274243426909674e-5 -0.011342894294121888 -0.0016381520320215453
9.21245573453325e-5 -0.010437458369273291 -0.001531874929976037
0.00016857951159800428 -0.0035003934263821875 0.001773500754167103
-0.00012380911283274763 -0.0032580502911444082 -0.0018028109889865148
-0.0001704507326879787 -0.0025835537925308566 -0.0015194073253376155
-0.00014538340685935275 -0.0024421376899795475 -0.0015719441032956156
-5.197643055211153e-5 -0.0024729562878385335 -0.0015736555788480994
-4.3516984534324795e-5 -0.0002085429200995807 0.00030430790882739607
2.1390636672957377e-6 -0.043337627207952395 -0.000772099747734301
5.063457466981195e-6 -0.04256636524635306 -1.1214238583470985e-6
-0.00017639645544342272 -0.00219312546678341 0.001175757595300933
-5.555934347024996e-5 -0.0003551728016382346 -0.00017024730328932836
0.00012375430547605277 -0.0002692461188002215 -0.0002911915996662339
8.825277250286481e-5 -0.00012113697997448673 0.0002042979774759736
0.00019091353898082427 -0.0007939871031940668 0.0010280850853365497
0.00024793224542291785 -0.0005285428434285503 0.0008274280179223585
0.00018495169637861174 -0.0016766657111778943 -0.0013091603710354341
0.00018487380563170962 -0.0012859073819570168 -0.0011378830724706
-0.0003074497526353133 -0.0009858576816582127 0.0012630852705941503
6.988373349637437e-6 -0.0025578225710506863 0.0018067337945871155
0.00024411628973062996 -0.009102686388479114 -0.003764293614403301
0.0001553247862100741 -0.0004947634279397427 0.0007238185738286456
0.0002111295730987406 -0.00951732041526262 -0.003957899672339488
4.345480624575626e-5 -9.628865889814553e-5 7.802169118171477e-5
7.893432599462532e-5 -0.000524744029726751 0.0007279564825701755
0.00012383668111329676 -0.0009230418543032345 -0.0005044056822259937
3.820958076359461e-5 -5.265679325534556e-5 9.573907256241997e-5
-9.289453070784603e-6 -5.4770243783695514e-5 9.733795638855793e-5
-0.00018781915099648334 -0.0009363084387999657 0.00077779679505643
-0.00011392212120132716 -0.0012823308607643365 0.0005755177997882479
-0.00022496325604950805 -0.00046490419822921704 0.0007514971224986317
9.785969578043839e-5 -0.0003966717360212806 0.0005796487316675268
5.134796636219601e-5 -8.668747391536265e-5 0.00011925309592850902
7.066037832807905e-5 -0.00020310785434224377 0.00030632330007545613
4.476016970672554e-5 -1.2528171940292156e-5 7.280681094096785e-5
-5.5918056945875596e-5 -0.0003864338138327119 0.0005542264998314964
-0.00019106022838004207 -0.00029384490626201273 0.0005145971015227961
-0.00019933443786486813 -0.00017697952202343656 0.00036196824533613644
-8.146365997655278e-5 -0.014742185259494932 -0.0036109874039695873
6.605689125596137e-5 1.106898104857458e-6 7.6304083067348e-5
0.00012195622216832536 -4.0028397473491116e-5 0.0001716063183659286
0.00019237749880282793 -0.009018282079881092 -0.003713171706143518
2.5141805792708043e-5 -0.0001949911625010185 0.0002849286898434901
-7.557278363350502e-6 -0.00021322757975950817 0.00030702019991257393
3.4873253966022884e-5 -0.01949366659947967 -0.0036724331080729682
7.078646804053373e-5 -0.016189389141036473 -0.004699583812164071
-1.7900119770616667e-5 -2.473732307053827e-5 7.543526864604298e-5
-4.5347130251811e-5 -0.029829712714091797 -0.004215211403398977
-0.00018214899758250524 -0.00012909901019868202 -0.00030632348136126574
1.1659101919697918e-5 -9.13319089776389e-5 0.00011450876967358841
0.00020264353423456313 -0.0073144671731362 -0.0033841203623625133
0.00020450653333880484 -0.008070823646280355 -0.0035161477069342636
-0.00012454716940054781 -0.0011872626531694074 -0.0012773609059339136
-3.590843765679864e-5 -6.258333589165818e-5 9.505501213886128e-5
-5.0588541639406826e-5 -0.0029805467740009225 -0.0017075036203261385
9.615279068447218e-6 -0.04642320480968504 -0.00489064340215035
-3.727424816859165e-5 -6.990944054821782e-5 0.00011792899565519227
4.355733464632083e-5 -0.0018988361091304112 -0.00030455644008829907
0.00010108368228362534 -0.0006994166874373255 0.0009041707236637305
-7.652882378914762e-5 -0.022795866528425524 -0.0042204107299979015
-6.407058157463269e-5 -0.022743576960310614 -0.0053239022087937455
-7.51707446075662e-5 -0.018179022664564712 0.003801131213565751
7.569936998605318e-5 -0.026109448801620375 0.004291395203672035
-4.322825139903347e-5 -0.0016178007060571444 0.0002477498540800318
-3.5990297090652636e-5 -0.0007771982679791008 0.00014171385063330342
-0.00026630172450952874 -0.0013628768720862516 -0.0014776356730393648
-8.564519446928588e-7 -0.002024481922171997 0.0015990611339848433
-0.00018788583522752388 -0.0014990026116066116 -0.0015047954093970414
-0.00025734979211003705 -0.001740019381718794 0.0014535848906456958
-4.564320033585651e-5 -7.634619911984864e-5 -0.00014374339875359928
-2.8730875261060604e-5 -5.8546114549592134e-5 -0.0001026696827305709
0.00017696878317034892 -0.0008861396864362282 -0.0010969623014468453
2.0787144208858863e-5 -9.94496474261171e-5 -0.00011757282812067293
-1.7877680639436904e-5 4.223444340254755e-6 -1.8744655835989187e-5
-5.217553712386735e-5 -1.548978297914886e-5 -8.071410379042394e-5
-0.00013706930041682688 -0.0003598205024847313 -0.0005563640442710061
-0.00025342850342178087 -0.0018101947885998688 -0.0016973560852187402
1.0786355664509171e-5 -8.99656353748745e-5 -0.00012331663675844642
3.4654184620792507e-6 -5.350923441654939e-5 -9.726605090612804e-5
-2.6592507737463675e-5 -7.233283488674246e-6 -5.216693789183052e-5
-0.000118141124098232 -0.0008940023160748646 0.00048610427954383617
3.032028942273309e-5 -0.00014550658932548777 6.913732675049739e-5
-0.0003303578218065554 -0.001471715411075687 -0.0016563476599479752
-0.00032710043209892883 -0.0010053878131405757 -0.001327389692441216
-1.587562287104625e-6 -0.03403899965962405 0.005417036834194561
-3.199283520749327e-5 -0.017354973528279794 -0.003616477446644536
-8.578078986449962e-5 -5.678918047304331e-5 -0.00013811580728703086
-3.544375637505063e-5 -0.03458810483496488 0.004660235385710063
0.00017726708118769266 -0.0002606002995495787 -0.0004129973558109352
1.4989920224021546e-5 -1.0855716623588204e-5 -5.015522645552483e-5
2.5909752269252793e-5 -2.6907366377984315e-5 -7.265226903725719e-5
2.310010671270861e-5 -6.618061645778291e-5 -0.00011562219041702836
-7.860610809909288e-5 -0.00018298249521372643 -0.0002726052955708369
-6.003642195913948e-5 -0.0003313152573636693 -0.0004752586548859612
4.171132851653621e-5 -0.0003495611982466887 -0.0004907357295599404
0.00014473441401427202 -0.0023870893623023767 0.001546433133788422
0.00014302185653180353 -0.0020615397241360257 0.001083613274305231
2.4077447863097463e-6 -0.013496068474978945 0.003921913427385861
4.954289716591025e-5 -8.919005748442803e-5 -0.0001176676149761419
5.6261727831910344e-5 -0.0001866060961550658 -0.0002690151052212571
-7.163404715569422e-6 -9.033940406852342e-5 -0.00012280222620744094
0.00017617441722548514 -0.0008359853841660342 -0.0008782032286109819
2.0925999455923717e-5 -0.000193575703128753 -0.00027743084864554967
-4.275294025189488e-5 -0.00019144205187530578 -0.00027032484981621274
-0.00012011856722726572 -0.0048041313018913285 0.002233587378948355
0.00011382649089361733 -0.00021302468163687541 -0.00034222128388555626
0.00029457993454720584 -0.00044967779053413864 -0.000801994396389361
-0.00012546642530797696 -0.004168380770895397 0.002052282739825393
1.2990137711479064e-5 -0.04906198278660277 -0.006297136750551288
8.446707800177992e-6 -0.049275960133964104 -0.005102039816610683
1.8463359530373503e-5 -0.048025533891756816 -0.00633932717872815
1.188360129144639e-5 -0.04892770786982716 -0.005298942899438309
1.6224941165414926e-5 -0.04802213473147809 -0.005344959796206552
-0.00014289133164918232 -0.006159311897292027 0.002318745717346404
9.693707384351097e-5 -0.015644207055808202 -0.0028130827582608705
9.579383245344354e-5 -0.01678101710009809 -0.0028869776646822717
2.2367176532976304e-5 -0.032419564018192744 0.0014377903262383404
9.683312066384742e-6 -0.04655527254480586 -0.006247515566859045
9.471609706600559e-6 -0.048940296879958 -0.0038855053147435364
1.1127158634546432e-5 -0.04894851633907063 -0.005326066742003224
5.342555191892453e-5 -0.03578717353323492 -0.005938644761330387
1.0453343119745418e-5 -0.04803881955095453 -0.006343933788325203
-1.4918826968309642e-5 -0.045070251480887016 0.003908028454672184
9.298919940995517e-6 -0.045254130313177654 -0.006124591811929522
5.027441927926398e-6 -0.044644940967535185 -0.00622169815584541
-2.085866257748314e-5 -0.043856786779024784 0.005018161283916026
-1.720923183544523e-5 -0.042493916180679006 0.003622125462462802
1.1898655630532299e-5 -0.04904218175814539 -0.005355080026774555
8.45018010438348e-6 -0.04763300519852998 -0.0039802158248884775
9.638901068142335e-6 -0.04890362375681331 -0.0039238644759561365
1.9819127677907337e-5 -0.04794592326994322 -0.006377009226572083
6.659014625177928e-5 -0.04030781824264944 -0.006485520645640733
5.4170484186416314e-5 -0.04197404694371472 -0.006247267778805013
1.1031199488814571e-5 -0.04798514383024335 -0.0033722283675188675
8.566555464812297e-6 -0.04901741110999139 -0.0038812869711702365
3.671176059726391e-5 -0.04159420657413729 -0.006178155407853517
3.0264156998250713e-6 -0.04651379981552835 -0.002428043553774574
1.1452750889626793e-5 -0.04801814237796048 -0.0062868396030707555
7.117431930423306e-6 -0.04874676908460398 -0.0023950010479534887
5.3217642895753366e-5 -0.040589415781748114 -0.005264678512321919
1.0366865542280233e-6 -0.04518136573257867 -0.006196333893849048
3.208954946586479e-5 -0.046041166460608 -0.006296148535477507
8.565287278483739e-5 -0.021674085894260956 -0.0033662318809397737
-2.031497561026668e-6 -0.0373114495868155 0.0007126162231400749
0.00014236585841517107 -0.0011062823557941126 -0.0007734838792010382
4.822543783208864e-5 -0.04146390591502947 -0.006135173483479145
7.076213447056129e-6 -0.04887141524573254 -0.0021741448802819483
-9.646571844136131e-5 -0.0026689209200962643 -0.0016179388584746002
2.251342009483485e-5 -0.04505297349555697 -0.006232592417059579
0.00011399944518501989 -0.03054356337661397 -0.005880200271288695
6.110676174953963e-5 -0.03674097695160661 -0.0049105436604105854
4.993780905222091e-5 -0.037367034586831216 -0.004878904954328514
6.8717277384277705e-6 -0.048913856024796115 -0.001966948809869283
-1.2531231136543662e-5 -0.039382131997415755 0.0023119875378271974
2.9326311188029965e-5 -0.043651627881187476 -0.003911541906382743
-4.00084960087833e-5 -0.0358039410069922 0.004696731832018749
-1.0535050706140706e-5 -0.043522018829233365 0.002407159006209988
1.4720118048682059e-5 -0.04015275331421076 -0.0009533174370329604
2.7666410880564004e-5 -0.04072188549297262 -0.0025275031155226678
0.00010982046838287845 -0.0037408728422965993 -0.002391872345850188
2.5184547526770155e-6 -0.01690747843792457 0.004364035364573835
6.462703934180667e-6 -0.039899903413499686 -3.7023016773662816e-5
0.00011129746334102298 -0.026431618183955376 -0.004535310865502712
0.0001224804188117052 -0.02515873965856834 -0.00469600507787163
6.24069024628871e-6 -0.04753272632003281 -0.000999905547037013
5.533491214884891e-6 -0.0465699851664764 -0.00041146331843995213
0.00011490571891969381 -0.027692966713353806 -0.005022311005525434
2.1766606113487394e-5 -0.03487120559753888 0.003308012349570555
6.40649339559645e-6 -0.014723290847042547 -1.9762507116239265e-5
8.402753105899978e-5 -0.03730885022026286 -0.006501488073366866
5.494302220330363e-5 -0.03574176081122928 -0.004803887111037537
7.285511905592243e-5 -0.03564050489893778 -0.005978872898286413
2.3550871783918492e-5 -0.03008446907589361 -0.0008404386349939265
4.988083082061642e-5 -0.03716720783907316 -0.006041731120725721
5.5031503218052496e-5 -0.036327132028219265 -0.0038675225237550003
4.0315529110892825e-5 -0.0352256640110852 -0.0025562445977869845
5.545080958111621e-6 -0.03685844330931369 -1.924215532519727e-6
-7.38301194937197e-5 -0.02920981779175807 -0.005813861033002323
-3.2559935327567924e-5 -0.03494624014911778 -0.005957178559278198
0.00012621640379696224 -0.028795664022853308 -0.005858794586806405
7.674400501915346e-5 -0.018945847477881996 -0.002094824117365098
3.02849635162714e-5 -0.016987419873017006 -0.0008481882097545722
-7.0234285189939405e-6 -0.03328471154736996 0.000891810252279482
-6.72823243635986e-5 -0.03058917387199911 -0.005883875405507223
8.059581306968089e-5 -0.00861878320538058 -0.0014788702118892557
9.505185905956285e-6 -0.008531934588645575 -1.4521008328065106e-5
2.3869492878169154e-5 -0.030505511730984404 -0.005767446901488619
-2.3346926353776876e-5 -0.03954861135730218 0.0035879626306164506
5.6543734840383364e-5 -0.004275652390840246 -0.0025321635413684675
9.938126313418645e-5 -0.030545351146756217 -0.004965351390279821
3.31755384125254e-5 -0.027877154781400855 -0.005660924806076374
-2.0348868473876943e-7 -0.028108034722325634 -0.0056369257305750155
-4.585122362611325e-5 -0.02400326904286373 0.002101031269694499
-4.615400823789377e-5 -0.033753526145103685 0.004327597260151826
-7.107424902972538e-5 -0.033370194925383116 0.005045614369405814
-2.6257697004324977e-5 -0.029692523891241537 -0.005659977208893347
3.21586764109226e-5 -0.020807720255879385 -0.0008101111271303455
7.050759111259749e-5 -0.021405829951962708 -0.0021841362260061866
7.21612837627631e-5 -0.030057175296847198 -0.005749218472485888
5.651096081555629e-5 -0.028614785178650327 -0.0055847542408322464
-9.07539915991524e-6 -0.02767396206637421 0.0008080620837705624
8.147990608875876e-5 -0.027269358185456376 -0.00555273843642937
7.78302013852633e-6 -0.02976356495767338 -1.7398796393586547e-5
8.443303344212431e-5 -0.024753559920406065 -0.005467953606133157
-6.397009763986117e-5 -0.025303359001788723 -0.0054726895177089185
0.00014150195958528923 -0.01965150387529797 -0.005045086358140766
-7.921168886587702e-5 -0.021454710785488443 -0.005188539943737849
2.0034494187117218e-5 -0.032910426285354615 -0.000844990309110243
2.621339347390194e-5 -0.02255992435479156 -0.005193062068251573
0.00022210795519714402 -0.012924234732224376 -0.004439929815638803
-1.0705662855892543e-5 -0.02908917818207873 0.0008604207739859373
5.9760457089492596e-5 -0.026601500991475818 -0.0023374979062520114
2.9323311251017587e-6 -0.001029310890685668 -2.345856906874996e-6
-8.371196193223039e-5 -0.03056209240770706 0.0049391052264405495
-7.757199026744864e-5 -0.03194609022723106 0.005019105905791481
0.00013548289268395622 -0.02253758681738025 -0.0045380974435757365
9.01510341545415e-5 -0.02345659645537111 -0.0053760601034184155
6.858474672707014e-6 -0.002099793840373011 -0.0016350292672487768
9.881734532774716e-5 -0.02080533679794196 -0.005023561464980565
6.193848940407692e-5 -0.020924241154951416 -0.005157388262912717
0.00010282847567495991 -0.020591559170485062 -0.004118932013812856
0.00010548206240961474 -0.021242576942957905 -0.0033204792108571563
0.00011086579200588754 -0.020118792209848215 -0.003269480140462256
0.00013756670785464544 -0.021213415722567134 -0.004373511038062167
-0.00012988176629029726 -0.022226485659289655 -0.005371210063561549
-0.00011369939740551512 -0.020038663490591472 -0.00505753122077757
-0.00011149250997435953 -0.021332930620006435 -0.005279925394578551
1.1782417423556812e-5 -0.019321449715403765 -0.004569717069288021
9.564123860261724e-5 -0.02219139871159001 -0.005274902990655708
0.00014790224244153128 -0.020038770956300227 -0.004361803430580331
1.821247778592402e-5 -0.025048865367378492 -0.000454439689288172
-1.8258090159852312e-5 -0.01994950390496321 0.0008072565964453912
-5.605154266496044e-5 -0.02005068764543663 0.0019770649089615347
0.00010107769853105866 -0.02262469035500633 -0.003401250671012609
1.3871818625335474e-5 -0.018262951945734348 -0.004478794162705175
-7.180160583274703e-5 -0.022962181979063214 -0.003297020100458516
1.7582629745779735e-6 -0.001344823710410906 -3.5660243415022913e-6
0.0001310348500480639 -0.02099653428144266 -0.005120420115046661
4.982826265302578e-5 -0.008967028889797437 0.0032157606064509275
3.5457502030080596e-5 -0.014943862002834568 -0.0006872963509261537
-4.973900932447155e-5 -0.020305367432885166 -0.0050037878375406054
-6.719050745688754e-5 -0.019487680320108298 0.0038503772042213585
-4.17998863379678e-5 -0.018966512443399662 -0.00500257842563098
0.00010626264487090617 -0.017340288393545778 -0.0048394910900354336
0.00011738236473725248 -0.016075331119700182 -0.004640984898697347
-0.00013369639360711122 -0.010913443404103848 0.004024177214066169
0.00016900356173977956 -0.012902156830823592 -0.00431848161477938
-5.175408645047169e-5 -0.01789061135274382 -0.00475985019519606
-0.00011844943453928947 -0.013175525017867383 0.002696193372053593
0.00012432512760636279 -0.012918390324446782 -0.004311827521370716
8.827376142758468e-5 -0.013829545620708207 -0.004322160553815477
0.00012144225023308319 -0.015012227157868412 -0.004553840234231504
8.050944438564832e-6 -0.03406109863764504 9.172269723773273e-5
7.866773063121648e-6 -0.03255195401116388 5.4135656569145305e-6
3.428053550394142e-5 -0.016114257135155352 -0.0006784536742382392
0.0001201372612963363 -0.013994430351657981 -0.004461598381147142
-0.00016009196119168864 -0.014273613893567953 0.003822508178753838
7.656335393242985e-6 -0.048618548585715564 -0.002653978599451836
-0.00013318510392403772 -0.00921000507389519 -0.003715272782409736
8.934477310209814e-5 -0.013343468381800373 -0.0017610395975640276
6.785239785627904e-6 -0.047617671010265164 -0.0012562774918365783
-0.00011709056440841526 -0.012335424347389034 -0.004208735909515972
2.6672194076286852e-5 -0.03637914636917611 0.004355696595210587
0.0001628968691746631 -0.008397977799396652 -0.002312250084960291
6.221366069769292e-5 -0.0013187647573687932 -0.00039565580391189036
0.00015266790087624282 -0.0014317348861989153 -0.0009323854235159473
-0.00011810052087506073 -0.010628322641643182 -0.0029802009050757853
-0.00012961665733091893 -0.009704787717169908 -0.0028842311580448343
-9.36983636280133e-5 -0.010249938756242773 -0.0030561104832554633
-0.00010596015588727556 -0.015305867501846074 0.00343747383378108
0.00012361951519123198 -0.01467938612565367 -0.003608175487359067
0.0001364172628057158 -0.013263780356036722 -0.002798471597279946
-0.0001204319036057355 -0.00018617366896055197 -0.00030818254995754597
0.00010068470380868841 -0.00968780546941967 -0.003715601738513865
-7.481158454996598e-5 -0.011407320444742136 -0.004026201716157471
-7.805222108061924e-5 -0.01043921252217422 -0.0038698872498454744
-8.739583053461076e-6 -0.011220329803283082 -0.004154970040373381
0.00015747224383156412 -0.009703214304906681 -0.0031156065427613905
-0.00013160430038896209 -0.008514047180608494 -0.0036193331069331214
1.2763194616531007e-5 -0.012721878972842184 -0.0038967863332646053
-0.0001099403630887746 -0.011578157658586493 -0.0030152164319477205
0.0002049668313574862 -0.009419440674631399 -0.00321475349693035
-0.00017025384972437982 -0.0043614497222729965 0.0021349362168525342
-0.0001728539711339167 -0.0037868378316300647 0.001974029432105575
-0.00023302693920648857 -0.0038596475822395273 0.0021463217356401444
-0.00016910510488852613 -0.0038161858320055857 0.0015550008201915238
0.000140281649838658 -0.008182233687403256 -0.0035488014565185815
-1.1376650527802752e-5 -0.009346681543211577 -0.0037887322640299767
8.199876151707798e-5 -0.008569480162840383 -0.0011837365830525885
4.4613627041172574e-5 -0.007187622915077199 -0.000542381638590862
0.00014193596921843063 -0.012207359062944683 -0.0027063726285703137
-9.025725569658455e-5 -0.022134919301170036 0.005146145681947513
0.00013615476000489117 -0.026473315043815792 -0.005658884939989426
0.0001607508796798307 -0.007281901516333795 -0.003358205723337581
0.0001520637819751245 -0.003770308496892972 -0.0015158454890477691
-2.3953517658965592e-5 -0.008087891313825127 0.0004695499922797734
-5.419754093172594e-5 -0.02147975520774669 0.0020458038700255634
-5.356273198309947e-5 -0.022515212622487898 0.002053656453458571
-6.289099575106334e-5 -0.010819597266139808 -0.0031518468965166403
-9.871193994373901e-5 -0.005122357180334928 0.0011242055639696933
-3.229862874361629e-5 -0.0051320680343251695 -0.0028782653572619094
0.00011075011790719927 -0.005184377515361645 -0.0011619270715068838
-0.00016769324970903777 -0.0031683628173585195 -0.0017208981185570385
-0.0002449590440702295 -0.0027804399767271163 -0.00215964544390757
-0.0002412058538534889 -0.003326528626918512 -0.002347466438293892
-3.276637775949505e-5 -0.0038656328684057543 -0.0024833029036985073
0.0002062205679502593 -0.005728520229438322 -0.0023495460503161368
0.0001752570849544103 -0.0051827221000328525 -0.001860511763687537
0.00010381217805318861 -0.0032134043358991327 -0.0022596520449649172
-0.00010552379014702764 -0.002150404066791267 -0.0017865305804676637
7.042235200585976e-5 -0.03906935281670001 -0.006299769217652943
-3.7870107464799275e-5 -0.0027195313103914745 -0.002093624967858224
0.00024240986184120682 -0.0025970111931749697 -0.002022054220200215
-9.718519246750087e-5 -0.01910840012300841 0.003807681775669038
0.0001298973120301082 -0.0017020702870796565 -0.0007234923416808688
-0.00019427231399563776 -0.0011409696407633587 -0.001275617023460998
6.40121419341635e-5 -0.0017064363749820296 -0.00036798132017461005
-0.00018032955455302025 -0.0018849760369245843 -0.0014080864023467284
-0.00025016919041541245 -0.002276735059310108 -0.001952127450183923
0.00016565089979362369 -0.0007290243295342849 -0.0006714170839932201
0.00020563495145769782 -0.0009638833319398246 -0.0008267906149193498
0.0001258386257428831 -0.0006915206146405051 -0.000466674124767893
-0.0002493960678315029 -0.0013021946528269895 0.0012014384876479925
-0.00011060346658856833 -0.0025397637663842213 -0.0019605349186503033
5.0947478627480563e-5 -0.0023631761609832964 -0.0019412606998429438
5.128875686854357e-5 -0.000762815772042122 -0.00018611700733214877
6.481258381447681e-6 -0.000968146887301009 -5.585198496901043e-6
6.118107953685937e-6 -0.0013431591263519873 -9.17205751701627e-6
0.00020425306261101367 -0.0013185829453982022 -0.0009655725031619493
0.00014437432130272567 -0.01842814653342169 -0.004918926695105247
-0.00010585389161309727 -0.001720110341917954 0.0006447827621475182
-0.00010075106949113272 -0.0001722678321733727 -0.0002906090474668942
0.00024822208012405744 -0.000530744173684788 -0.000829261326894387
4.2570243577872127e-5 -6.233324089092798e-6 -6.463639566416294e-5
-1.0019476777000176e-5 -0.00019791186459381294 -0.00027381779606781706
0.0001249141726761911 -0.00048714736011309343 -0.00037908072125946324
-0.00012741646890158747 -0.00033712492264823603 -0.0004830379755963127
0.00019743243658235484 -0.000524971257914823 -0.0006032858357355175
5.751889168528389e-6 -0.04932845987883838 -0.0035725622259256407
1.4806927130384567e-5 -0.047397111978183845 -0.004243167805371964
5.3264448935177434e-6 -0.04898884083438992 -0.002297263651967919
-3.149548494404386e-6 -0.049014176759805315 0.004863031591255455
2.411572070302936e-6 -0.04898863468680486 0.0019510611541158473
-3.2448259421532928e-6 -0.04900204166200459 0.0053366197338158795
4.614839023554961e-6 -0.0490065537901744 -0.0009663364831127583
1.597881763406928e-5 -0.04653992030850419 -0.006250266619176244
-5.4743146293074186e-5 -0.030717677089558356 0.0035193669641188064
5.053167191377014e-6 -0.04891380883356533 -0.0009995369724886424
2.3300425008923942e-5 -0.04537065658630269 -0.003957608435830986
3.963403461172209e-6 -0.04886834712346922 -2.1283057683555655e-5
5.947748513499514e-6 -0.04889801326555659 -0.0010902630214108915
5.495691012836486e-6 -0.04882155061496156 -0.0011631467147510974
-5.884260908858742e-5 -6.0644623219056633e-5 -0.00011941175733791272
4.514679712297553e-5 -0.03923725363747793 -0.003919929820890166
7.454794653501639e-6 -0.04866594934098004 -0.0024703968126441713
4.659930683641349e-5 -0.038568879518845835 -0.006053211653164242
4.678550275754915e-5 -0.04206492922930196 -0.005289773551654527
-4.21954051496507e-5 -0.036266731801761466 0.003808246371395473
-0.00010079968205454654 -0.008361504550301982 -0.002815777667466004
4.223725262894599e-5 -0.006410044782956434 -0.0004323067681209029
5.406915864211058e-6 -0.0365412539774683 4.917228175482419e-5
-5.481920604956994e-5 -0.03193162271015456 0.0036432730068868308
3.9627852129535016e-5 -0.0374108476990698 0.004853218439471971
0.00018308281998438803 -0.0021176765242713947 -0.001470126715871695
0.0002304684311896882 -0.00642362713959976 -0.0027414823104119253
8.599276340655432e-5 -0.02570540293694891 -0.004393324404007412
8.950990318125719e-5 -0.024388555274870865 -0.00429706038978908
8.153219340035863e-6 -0.0243811428167266 6.826630558193034e-7
-8.095965557745916e-5 -0.025321654179054957 0.003641083142066271
0.00012981477998295056 -0.023821719848215885 -0.004619868368448104
-3.18098157401076e-5 -0.016687861450096195 0.0010232406236194227
-0.00010946105413173963 -0.017497299267332907 0.0038822735099440686
9.797543728917305e-5 -0.02391056652591281 -0.0034618154944270063
-2.4119946003565882e-5 -0.0019312158643404638 0.0001633913455582563
-0.00013902657374486728 -0.018827260252263153 0.004269306637842104
2.5868248800558884e-5 -0.01974386840494018 -0.0006148032017947463
-0.00018540596065723294 -0.002390222789278263 0.001571596567454805
2.6328217957186986e-5 -0.0410719692361563 0.004936887917530997
9.260892330721107e-6 -0.011712473098506796 -0.003768494875469161
0.00011513720475112429 -0.018904500027838833 -0.003198950377449636
0.0001521790221690269 -0.018805943050514917 -0.004223187016510495
3.2075528854448285e-5 -0.03945881106661077 0.004938475922719762
-9.576292113961628e-5 -0.015838064833548805 -0.0036324198105067923
-0.00010777193882990026 -0.016476760608318066 0.00293928029886837
-0.00016767875009818757 -0.0132125423976568 0.0036880440227405756
0.00011791499857879392 -0.015838318263753773 -0.00371380128036379
-8.822408687392627e-5 -0.011468080712345103 -0.0032200045360578308
-0.00017897260403649365 -0.01115928921311098 0.003479297489269314
-0.0001727578244897503 -0.012167751297934657 0.003588679781012711
-0.00019487196683229933 -0.009259652568718866 0.0032181725483194953
-0.0001905176431049061 -0.001954660272642455 0.001438320556600462
8.555138881070983e-5 -0.0001651633890664129 0.0002690467639842449
0.000215676949015041 -0.00835861893375294 -0.0030811305494063833
0.00022071173193264203 -0.0075047160391120285 -0.0029402290528378395
-8.229230262318158e-5 -0.009200145968186616 0.0014710181305055865
-8.574770132135333e-5 -0.008350847313361852 0.001370971416677983
2.572789598605626e-6 -0.004783481755013068 0.0025090944816478166
0.0002698207161751454 -0.006710262174135763 -0.00331088425749413
0.00020561235361771642 -0.006505494391576871 -0.0032059416512248287
-0.0001656083796124593 -0.004461620533720715 0.0016768708519051712
-0.000249543335193687 -0.002703412688184128 0.0018159375680347717
-5.178971040977664e-5 -0.0011377925209587862 0.0002650485667538097
-3.0005657750234797e-5 -0.004823387704055935 0.00039487808732486455
7.970053615172525e-6 -0.0025342890931849167 -0.001810036055303649
0.0001274026368104082 -0.0012922391306468808 -0.0005990291847338786
0.0002702175335576912 -0.0021925129432150228 -0.001664504173397853
0.0001020346007587862 -0.0021952365273355825 -0.0018428103343439484
0.00020022392827616614 -0.00214453599715158 0.001499505770679655
0.00020453285174088263 -0.0017308567518559816 -0.0011024748218231178
-7.749529084017038e-5 -0.021004666918118094 -0.003826847313910432
0.0002711986118980806 -0.0017319911358831123 -0.0014648943592130348
-0.00016750999395509129 -0.0005636108004134596 0.0007075397137119698
0.0002533514733840565 -0.00037294668333089846 -0.0006464352150568124
-8.013937391817514e-5 -0.021564153552018427 0.0037894651472817867
5.321163241289298e-6 -0.04122846613558379 -1.0295554121382407e-5
0.00020370559352076125 -0.00169485624250827 0.001333156560504323
0.00014895084975181523 -0.007894292457633656 -0.002775521736985224
8.274852832170246e-6 -0.025389378869718753 1.7548145578775935e-7
6.88618943523589e-6 -0.040914100457857795 -6.388636530186268e-5
5.681606229602889e-6 -0.042379169388459294 3.535360576202731e-6
2.285351853751438e-6 -0.0006726746523209383 1.40202749979955e-7
-0.00011196818736821375 -0.013135641846275437 0.0031784491556387452
4.260207492487933e-6 -0.04772799008765906 -3.4708636655177085e-5
-2.6632313208662004e-5 -0.03808735743765228 0.0035643497560369623
-0.00010614414569828129 -0.012593543804138867 -0.0031218587506422002
1.1538097612763875e-5 -0.01062720979295285 -0.00361519406052164
1.3155081798440515e-5 -0.03403837149337366 0.005416472703034924
-2.4394543138227557e-5 -0.04169715207430035 0.00483809252203849
-3.667649966622921e-5 -0.03730869378807069 0.004753830668797915
0.0001211072863878132 -0.015738577608855074 0.0037274530559845208
8.736967849548915e-5 -8.561760056529543e-5 0.0001708604934351089
