# vtk DataFile Version 1.0
Bar_TO_3D
ASCII
DATASET UNSTRUCTURED_GRID
POINTS 6348 float 
-5.0 -5.0 50.0
-5.0 5.0 50.0
-5.0 5.0 0.0
-5.0 -5.0 0.0
5.0 5.0 50.0
5.0 5.0 0.0
5.0 -5.0 0.0
5.0 -5.0 50.0
-5.0 -4.0 50.0
-5.0 -3.0 50.0
-5.0 -2.0 50.0
-5.0 -1.0 50.0
-5.0 0.0 50.0
-5.0 1.0 50.0
-5.0 2.0 50.0
-5.0 3.0 50.0
-5.0 4.0 50.0
-5.0 5.0 49.0
-5.0 5.0 48.0
-5.0 5.0 47.0
-5.0 5.0 46.0
-5.0 5.0 45.0
-5.0 5.0 44.0
-5.0 5.0 43.0
-5.0 5.0 42.0
-5.0 5.0 41.0
-5.0 5.0 40.0
-5.0 5.0 39.0
-5.0 5.0 38.0
-5.0 5.0 37.0
-5.0 5.0 36.0
-5.0 5.0 35.0
-5.0 5.0 34.0
-5.0 5.0 33.0
-5.0 5.0 32.0
-5.0 5.0 31.0
-5.0 5.0 30.0
-5.0 5.0 29.0
-5.0 5.0 28.0
-5.0 5.0 27.0
-5.0 5.0 26.0
-5.0 5.0 25.0
-5.0 5.0 24.0
-5.0 5.0 23.0
-5.0 5.0 22.0
-5.0 5.0 21.0
-5.0 5.0 20.0
-5.0 5.0 19.0
-5.0 5.0 18.0
-5.0 5.0 17.0
-5.0 5.0 16.0
-5.0 5.0 15.0
-5.0 5.0 14.0
-5.0 5.0 13.0
-5.0 5.0 12.0
-5.0 5.0 11.0
-5.0 5.0 10.0
-5.0 5.0 9.0
-5.0 5.0 8.0
-5.0 5.0 7.0
-5.0 5.0 6.0
-5.0 5.0 5.0
-5.0 5.0 4.0
-5.0 5.0 3.0
-5.0 5.0 2.0
-5.0 5.0 1.0
-5.0 4.0 0.0
-5.0 3.0 0.0
-5.0 2.0 0.0
-5.0 1.0 0.0
-5.0 0.0 0.0
-5.0 -1.0 0.0
-5.0 -2.0 0.0
-5.0 -3.0 0.0
-5.0 -4.0 0.0
-5.0 -5.0 1.0
-5.0 -5.0 2.0
-5.0 -5.0 3.0
-5.0 -5.0 4.0
-5.0 -5.0 5.0
-5.0 -5.0 6.0
-5.0 -5.0 7.0
-5.0 -5.0 8.0
-5.0 -5.0 9.0
-5.0 -5.0 10.0
-5.0 -5.0 11.0
-5.0 -5.0 12.0
-5.0 -5.0 13.0
-5.0 -5.0 14.0
-5.0 -5.0 15.0
-5.0 -5.0 16.0
-5.0 -5.0 17.0
-5.0 -5.0 18.0
-5.0 -5.0 19.0
-5.0 -5.0 20.0
-5.0 -5.0 21.0
-5.0 -5.0 22.0
-5.0 -5.0 23.0
-5.0 -5.0 24.0
-5.0 -5.0 25.0
-5.0 -5.0 26.0
-5.0 -5.0 27.0
-5.0 -5.0 28.0
-5.0 -5.0 29.0
-5.0 -5.0 30.0
-5.0 -5.0 31.0
-5.0 -5.0 32.0
-5.0 -5.0 33.0
-5.0 -5.0 34.0
-5.0 -5.0 35.0
-5.0 -5.0 36.0
-5.0 -5.0 37.0
-5.0 -5.0 38.0
-5.0 -5.0 39.0
-5.0 -5.0 40.0
-5.0 -5.0 41.0
-5.0 -5.0 42.0
-5.0 -5.0 43.0
-5.0 -5.0 44.0
-5.0 -5.0 45.0
-5.0 -5.0 46.0
-5.0 -5.0 47.0
-5.0 -5.0 48.0
-5.0 -5.0 49.0
-4.0 5.0 50.0
-3.0 5.0 50.0
-2.0 5.0 50.0
-1.0 5.0 50.0
0.0 5.0 50.0
1.0 5.0 50.0
2.0 5.0 50.0
3.0 5.0 50.0
4.0 5.0 50.0
5.0 5.0 49.0
5.0 5.0 48.0
5.0 5.0 47.0
5.0 5.0 46.0
5.0 5.0 45.0
5.0 5.0 44.0
5.0 5.0 43.0
5.0 5.0 42.0
5.0 5.0 41.0
5.0 5.0 40.0
5.0 5.0 39.0
5.0 5.0 38.0
5.0 5.0 37.0
5.0 5.0 36.0
5.0 5.0 35.0
5.0 5.0 34.0
5.0 5.0 33.0
5.0 5.0 32.0
5.0 5.0 31.0
5.0 5.0 30.0
5.0 5.0 29.0
5.0 5.0 28.0
5.0 5.0 27.0
5.0 5.0 26.0
5.0 5.0 25.0
5.0 5.0 24.0
5.0 5.0 23.0
5.0 5.0 22.0
5.0 5.0 21.0
5.0 5.0 20.0
5.0 5.0 19.0
5.0 5.0 18.0
5.0 5.0 17.0
5.0 5.0 16.0
5.0 5.0 15.0
5.0 5.0 14.0
5.0 5.0 13.0
5.0 5.0 12.0
5.0 5.0 11.0
5.0 5.0 10.0
5.0 5.0 9.0
5.0 5.0 8.0
5.0 5.0 7.0
5.0 5.0 6.0
5.0 5.0 5.0
5.0 5.0 4.0
5.0 5.0 3.0
5.0 5.0 2.0
5.0 5.0 1.0
4.0 5.0 0.0
3.0 5.0 0.0
2.0 5.0 0.0
1.0 5.0 0.0
0.0 5.0 0.0
-1.0 5.0 0.0
-2.0 5.0 0.0
-3.0 5.0 0.0
-4.0 5.0 0.0
5.0 4.0 0.0
5.0 3.0 0.0
5.0 2.0 0.0
5.0 1.0 0.0
5.0 0.0 0.0
5.0 -1.0 0.0
5.0 -2.0 0.0
5.0 -3.0 0.0
5.0 -4.0 0.0
4.0 -5.0 0.0
3.0 -5.0 0.0
2.0 -5.0 0.0
1.0 -5.0 0.0
0.0 -5.0 0.0
-1.0 -5.0 0.0
-2.0 -5.0 0.0
-3.0 -5.0 0.0
-4.0 -5.0 0.0
4.0 -5.0 50.0
3.0 -5.0 50.0
2.0 -5.0 50.0
1.0 -5.0 50.0
0.0 -5.0 50.0
-1.0 -5.0 50.0
-2.0 -5.0 50.0
-3.0 -5.0 50.0
-4.0 -5.0 50.0
5.0 -5.0 1.0
5.0 -5.0 2.0
5.0 -5.0 3.0
5.0 -5.0 4.0
5.0 -5.0 5.0
5.0 -5.0 6.0
5.0 -5.0 7.0
5.0 -5.0 8.0
5.0 -5.0 9.0
5.0 -5.0 10.0
5.0 -5.0 11.0
5.0 -5.0 12.0
5.0 -5.0 13.0
5.0 -5.0 14.0
5.0 -5.0 15.0
5.0 -5.0 16.0
5.0 -5.0 17.0
5.0 -5.0 18.0
5.0 -5.0 19.0
5.0 -5.0 20.0
5.0 -5.0 21.0
5.0 -5.0 22.0
5.0 -5.0 23.0
5.0 -5.0 24.0
5.0 -5.0 25.0
5.0 -5.0 26.0
5.0 -5.0 27.0
5.0 -5.0 28.0
5.0 -5.0 29.0
5.0 -5.0 30.0
5.0 -5.0 31.0
5.0 -5.0 32.0
5.0 -5.0 33.0
5.0 -5.0 34.0
5.0 -5.0 35.0
5.0 -5.0 36.0
5.0 -5.0 37.0
5.0 -5.0 38.0
5.0 -5.0 39.0
5.0 -5.0 40.0
5.0 -5.0 41.0
5.0 -5.0 42.0
5.0 -5.0 43.0
5.0 -5.0 44.0
5.0 -5.0 45.0
5.0 -5.0 46.0
5.0 -5.0 47.0
5.0 -5.0 48.0
5.0 -5.0 49.0
5.0 -4.0 50.0
5.0 -3.0 50.0
5.0 -2.0 50.0
5.0 -1.0 50.0
5.0 0.0 50.0
5.0 1.0 50.0
5.0 2.0 50.0
5.0 3.0 50.0
5.0 4.0 50.0
-5.0 -4.0 49.0
-5.0 -3.0 49.0
-5.0 -2.0 49.0
-5.0 -1.0 49.0
-5.0 0.0 49.0
-5.0 1.0 49.0
-5.0 2.0 49.0
-5.0 3.0 49.0
-5.0 4.0 49.0
-5.0 -4.0 48.0
-5.0 -3.0 48.0
-5.0 -2.0 48.0
-5.0 -1.0 48.0
-5.0 0.0 48.0
-5.0 1.0 48.0
-5.0 2.0 48.0
-5.0 3.0 48.0
-5.0 4.0 48.0
-5.0 -4.0 47.0
-5.0 -3.0 47.0
-5.0 -2.0 47.0
-5.0 -1.0 47.0
-5.0 0.0 47.0
-5.0 1.0 47.0
-5.0 2.0 47.0
-5.0 3.0 47.0
-5.0 4.0 47.0
-5.0 -4.0 46.0
-5.0 -3.0 46.0
-5.0 -2.0 46.0
-5.0 -1.0 46.0
-5.0 0.0 46.0
-5.0 1.0 46.0
-5.0 2.0 46.0
-5.0 3.0 46.0
-5.0 4.0 46.0
-5.0 -4.0 45.0
-5.0 -3.0 45.0
-5.0 -2.0 45.0
-5.0 -1.0 45.0
-5.0 0.0 45.0
-5.0 1.0 45.0
-5.0 2.0 45.0
-5.0 3.0 45.0
-5.0 4.0 45.0
-5.0 -4.0 44.0
-5.0 -3.0 44.0
-5.0 -2.0 44.0
-5.0 -1.0 44.0
-5.0 0.0 44.0
-5.0 1.0 44.0
-5.0 2.0 44.0
-5.0 3.0 44.0
-5.0 4.0 44.0
-5.0 -4.0 43.0
-5.0 -3.0 43.0
-5.0 -2.0 43.0
-5.0 -1.0 43.0
-5.0 0.0 43.0
-5.0 1.0 43.0
-5.0 2.0 43.0
-5.0 3.0 43.0
-5.0 4.0 43.0
-5.0 -4.0 42.0
-5.0 -3.0 42.0
-5.0 -2.0 42.0
-5.0 -1.0 42.0
-5.0 0.0 42.0
-5.0 1.0 42.0
-5.0 2.0 42.0
-5.0 3.0 42.0
-5.0 4.0 42.0
-5.0 -4.0 41.0
-5.0 -3.0 41.0
-5.0 -2.0 41.0
-5.0 -1.0 41.0
-5.0 0.0 41.0
-5.0 1.0 41.0
-5.0 2.0 41.0
-5.0 3.0 41.0
-5.0 4.0 41.0
-5.0 -4.0 40.0
-5.0 -3.0 40.0
-5.0 -2.0 40.0
-5.0 -1.0 40.0
-5.0 0.0 40.0
-5.0 1.0 40.0
-5.0 2.0 40.0
-5.0 3.0 40.0
-5.0 4.0 40.0
-5.0 -4.0 39.0
-5.0 -3.0 39.0
-5.0 -2.0 39.0
-5.0 -1.0 39.0
-5.0 0.0 39.0
-5.0 1.0 39.0
-5.0 2.0 39.0
-5.0 3.0 39.0
-5.0 4.0 39.0
-5.0 -4.0 38.0
-5.0 -3.0 38.0
-5.0 -2.0 38.0
-5.0 -1.0 38.0
-5.0 0.0 38.0
-5.0 1.0 38.0
-5.0 2.0 38.0
-5.0 3.0 38.0
-5.0 4.0 38.0
-5.0 -4.0 37.0
-5.0 -3.0 37.0
-5.0 -2.0 37.0
-5.0 -1.0 37.0
-5.0 0.0 37.0
-5.0 1.0 37.0
-5.0 2.0 37.0
-5.0 3.0 37.0
-5.0 4.0 37.0
-5.0 -4.0 36.0
-5.0 -3.0 36.0
-5.0 -2.0 36.0
-5.0 -1.0 36.0
-5.0 0.0 36.0
-5.0 1.0 36.0
-5.0 2.0 36.0
-5.0 3.0 36.0
-5.0 4.0 36.0
-5.0 -4.0 35.0
-5.0 -3.0 35.0
-5.0 -2.0 35.0
-5.0 -1.0 35.0
-5.0 0.0 35.0
-5.0 1.0 35.0
-5.0 2.0 35.0
-5.0 3.0 35.0
-5.0 4.0 35.0
-5.0 -4.0 34.0
-5.0 -3.0 34.0
-5.0 -2.0 34.0
-5.0 -1.0 34.0
-5.0 0.0 34.0
-5.0 1.0 34.0
-5.0 2.0 34.0
-5.0 3.0 34.0
-5.0 4.0 34.0
-5.0 -4.0 33.0
-5.0 -3.0 33.0
-5.0 -2.0 33.0
-5.0 -1.0 33.0
-5.0 0.0 33.0
-5.0 1.0 33.0
-5.0 2.0 33.0
-5.0 3.0 33.0
-5.0 4.0 33.0
-5.0 -4.0 32.0
-5.0 -3.0 32.0
-5.0 -2.0 32.0
-5.0 -1.0 32.0
-5.0 0.0 32.0
-5.0 1.0 32.0
-5.0 2.0 32.0
-5.0 3.0 32.0
-5.0 4.0 32.0
-5.0 -4.0 31.0
-5.0 -3.0 31.0
-5.0 -2.0 31.0
-5.0 -1.0 31.0
-5.0 0.0 31.0
-5.0 1.0 31.0
-5.0 2.0 31.0
-5.0 3.0 31.0
-5.0 4.0 31.0
-5.0 -4.0 30.0
-5.0 -3.0 30.0
-5.0 -2.0 30.0
-5.0 -1.0 30.0
-5.0 0.0 30.0
-5.0 1.0 30.0
-5.0 2.0 30.0
-5.0 3.0 30.0
-5.0 4.0 30.0
-5.0 -4.0 29.0
-5.0 -3.0 29.0
-5.0 -2.0 29.0
-5.0 -1.0 29.0
-5.0 0.0 29.0
-5.0 1.0 29.0
-5.0 2.0 29.0
-5.0 3.0 29.0
-5.0 4.0 29.0
-5.0 -4.0 28.0
-5.0 -3.0 28.0
-5.0 -2.0 28.0
-5.0 -1.0 28.0
-5.0 0.0 28.0
-5.0 1.0 28.0
-5.0 2.0 28.0
-5.0 3.0 28.0
-5.0 4.0 28.0
-5.0 -4.0 27.0
-5.0 -3.0 27.0
-5.0 -2.0 27.0
-5.0 -1.0 27.0
-5.0 0.0 27.0
-5.0 1.0 27.0
-5.0 2.0 27.0
-5.0 3.0 27.0
-5.0 4.0 27.0
-5.0 -4.0 26.0
-5.0 -3.0 26.0
-5.0 -2.0 26.0
-5.0 -1.0 26.0
-5.0 0.0 26.0
-5.0 1.0 26.0
-5.0 2.0 26.0
-5.0 3.0 26.0
-5.0 4.0 26.0
-5.0 -4.0 25.0
-5.0 -3.0 25.0
-5.0 -2.0 25.0
-5.0 -1.0 25.0
-5.0 0.0 25.0
-5.0 1.0 25.0
-5.0 2.0 25.0
-5.0 3.0 25.0
-5.0 4.0 25.0
-5.0 -4.0 24.0
-5.0 -3.0 24.0
-5.0 -2.0 24.0
-5.0 -1.0 24.0
-5.0 0.0 24.0
-5.0 1.0 24.0
-5.0 2.0 24.0
-5.0 3.0 24.0
-5.0 4.0 24.0
-5.0 -4.0 23.0
-5.0 -3.0 23.0
-5.0 -2.0 23.0
-5.0 -1.0 23.0
-5.0 0.0 23.0
-5.0 1.0 23.0
-5.0 2.0 23.0
-5.0 3.0 23.0
-5.0 4.0 23.0
-5.0 -4.0 22.0
-5.0 -3.0 22.0
-5.0 -2.0 22.0
-5.0 -1.0 22.0
-5.0 0.0 22.0
-5.0 1.0 22.0
-5.0 2.0 22.0
-5.0 3.0 22.0
-5.0 4.0 22.0
-5.0 -4.0 21.0
-5.0 -3.0 21.0
-5.0 -2.0 21.0
-5.0 -1.0 21.0
-5.0 0.0 21.0
-5.0 1.0 21.0
-5.0 2.0 21.0
-5.0 3.0 21.0
-5.0 4.0 21.0
-5.0 -4.0 20.0
-5.0 -3.0 20.0
-5.0 -2.0 20.0
-5.0 -1.0 20.0
-5.0 0.0 20.0
-5.0 1.0 20.0
-5.0 2.0 20.0
-5.0 3.0 20.0
-5.0 4.0 20.0
-5.0 -4.0 19.0
-5.0 -3.0 19.0
-5.0 -2.0 19.0
-5.0 -1.0 19.0
-5.0 0.0 19.0
-5.0 1.0 19.0
-5.0 2.0 19.0
-5.0 3.0 19.0
-5.0 4.0 19.0
-5.0 -4.0 18.0
-5.0 -3.0 18.0
-5.0 -2.0 18.0
-5.0 -1.0 18.0
-5.0 0.0 18.0
-5.0 1.0 18.0
-5.0 2.0 18.0
-5.0 3.0 18.0
-5.0 4.0 18.0
-5.0 -4.0 17.0
-5.0 -3.0 17.0
-5.0 -2.0 17.0
-5.0 -1.0 17.0
-5.0 0.0 17.0
-5.0 1.0 17.0
-5.0 2.0 17.0
-5.0 3.0 17.0
-5.0 4.0 17.0
-5.0 -4.0 16.0
-5.0 -3.0 16.0
-5.0 -2.0 16.0
-5.0 -1.0 16.0
-5.0 0.0 16.0
-5.0 1.0 16.0
-5.0 2.0 16.0
-5.0 3.0 16.0
-5.0 4.0 16.0
-5.0 -4.0 15.0
-5.0 -3.0 15.0
-5.0 -2.0 15.0
-5.0 -1.0 15.0
-5.0 0.0 15.0
-5.0 1.0 15.0
-5.0 2.0 15.0
-5.0 3.0 15.0
-5.0 4.0 15.0
-5.0 -4.0 14.0
-5.0 -3.0 14.0
-5.0 -2.0 14.0
-5.0 -1.0 14.0
-5.0 0.0 14.0
-5.0 1.0 14.0
-5.0 2.0 14.0
-5.0 3.0 14.0
-5.0 4.0 14.0
-5.0 -4.0 13.0
-5.0 -3.0 13.0
-5.0 -2.0 13.0
-5.0 -1.0 13.0
-5.0 0.0 13.0
-5.0 1.0 13.0
-5.0 2.0 13.0
-5.0 3.0 13.0
-5.0 4.0 13.0
-5.0 -4.0 12.0
-5.0 -3.0 12.0
-5.0 -2.0 12.0
-5.0 -1.0 12.0
-5.0 0.0 12.0
-5.0 1.0 12.0
-5.0 2.0 12.0
-5.0 3.0 12.0
-5.0 4.0 12.0
-5.0 -4.0 11.0
-5.0 -3.0 11.0
-5.0 -2.0 11.0
-5.0 -1.0 11.0
-5.0 0.0 11.0
-5.0 1.0 11.0
-5.0 2.0 11.0
-5.0 3.0 11.0
-5.0 4.0 11.0
-5.0 -4.0 10.0
-5.0 -3.0 10.0
-5.0 -2.0 10.0
-5.0 -1.0 10.0
-5.0 0.0 10.0
-5.0 1.0 10.0
-5.0 2.0 10.0
-5.0 3.0 10.0
-5.0 4.0 10.0
-5.0 -4.0 9.0
-5.0 -3.0 9.0
-5.0 -2.0 9.0
-5.0 -1.0 9.0
-5.0 0.0 9.0
-5.0 1.0 9.0
-5.0 2.0 9.0
-5.0 3.0 9.0
-5.0 4.0 9.0
-5.0 -4.0 8.0
-5.0 -3.0 8.0
-5.0 -2.0 8.0
-5.0 -1.0 8.0
-5.0 0.0 8.0
-5.0 1.0 8.0
-5.0 2.0 8.0
-5.0 3.0 8.0
-5.0 4.0 8.0
-5.0 -4.0 7.0
-5.0 -3.0 7.0
-5.0 -2.0 7.0
-5.0 -1.0 7.0
-5.0 0.0 7.0
-5.0 1.0 7.0
-5.0 2.0 7.0
-5.0 3.0 7.0
-5.0 4.0 7.0
-5.0 -4.0 6.0
-5.0 -3.0 6.0
-5.0 -2.0 6.0
-5.0 -1.0 6.0
-5.0 0.0 6.0
-5.0 1.0 6.0
-5.0 2.0 6.0
-5.0 3.0 6.0
-5.0 4.0 6.0
-5.0 -4.0 5.0
-5.0 -3.0 5.0
-5.0 -2.0 5.0
-5.0 -1.0 5.0
-5.0 0.0 5.0
-5.0 1.0 5.0
-5.0 2.0 5.0
-5.0 3.0 5.0
-5.0 4.0 5.0
-5.0 -4.0 4.0
-5.0 -3.0 4.0
-5.0 -2.0 4.0
-5.0 -1.0 4.0
-5.0 0.0 4.0
-5.0 1.0 4.0
-5.0 2.0 4.0
-5.0 3.0 4.0
-5.0 4.0 4.0
-5.0 -4.0 3.0
-5.0 -3.0 3.0
-5.0 -2.0 3.0
-5.0 -1.0 3.0
-5.0 0.0 3.0
-5.0 1.0 3.0
-5.0 2.0 3.0
-5.0 3.0 3.0
-5.0 4.0 3.0
-5.0 -4.0 2.0
-5.0 -3.0 2.0
-5.0 -2.0 2.0
-5.0 -1.0 2.0
-5.0 0.0 2.0
-5.0 1.0 2.0
-5.0 2.0 2.0
-5.0 3.0 2.0
-5.0 4.0 2.0
-5.0 -4.0 1.0
-5.0 -3.0 1.0
-5.0 -2.0 1.0
-5.0 -1.0 1.0
-5.0 0.0 1.0
-5.0 1.0 1.0
-5.0 2.0 1.0
-5.0 3.0 1.0
-5.0 4.0 1.0
-4.0 5.0 49.0
-3.0 5.0 49.0
-2.0 5.0 49.0
-1.0 5.0 49.0
0.0 5.0 49.0
1.0 5.0 49.0
2.0 5.0 49.0
3.0 5.0 49.0
4.0 5.0 49.0
-4.0 5.0 48.0
-3.0 5.0 48.0
-2.0 5.0 48.0
-1.0 5.0 48.0
0.0 5.0 48.0
1.0 5.0 48.0
2.0 5.0 48.0
3.0 5.0 48.0
4.0 5.0 48.0
-4.0 5.0 47.0
-3.0 5.0 47.0
-2.0 5.0 47.0
-1.0 5.0 47.0
0.0 5.0 47.0
1.0 5.0 47.0
2.0 5.0 47.0
3.0 5.0 47.0
4.0 5.0 47.0
-4.0 5.0 46.0
-3.0 5.0 46.0
-2.0 5.0 46.0
-1.0 5.0 46.0
0.0 5.0 46.0
1.0 5.0 46.0
2.0 5.0 46.0
3.0 5.0 46.0
4.0 5.0 46.0
-4.0 5.0 45.0
-3.0 5.0 45.0
-2.0 5.0 45.0
-1.0 5.0 45.0
0.0 5.0 45.0
1.0 5.0 45.0
2.0 5.0 45.0
3.0 5.0 45.0
4.0 5.0 45.0
-4.0 5.0 44.0
-3.0 5.0 44.0
-2.0 5.0 44.0
-1.0 5.0 44.0
0.0 5.0 44.0
1.0 5.0 44.0
2.0 5.0 44.0
3.0 5.0 44.0
4.0 5.0 44.0
-4.0 5.0 43.0
-3.0 5.0 43.0
-2.0 5.0 43.0
-1.0 5.0 43.0
0.0 5.0 43.0
1.0 5.0 43.0
2.0 5.0 43.0
3.0 5.0 43.0
4.0 5.0 43.0
-4.0 5.0 42.0
-3.0 5.0 42.0
-2.0 5.0 42.0
-1.0 5.0 42.0
0.0 5.0 42.0
1.0 5.0 42.0
2.0 5.0 42.0
3.0 5.0 42.0
4.0 5.0 42.0
-4.0 5.0 41.0
-3.0 5.0 41.0
-2.0 5.0 41.0
-1.0 5.0 41.0
0.0 5.0 41.0
1.0 5.0 41.0
2.0 5.0 41.0
3.0 5.0 41.0
4.0 5.0 41.0
-4.0 5.0 40.0
-3.0 5.0 40.0
-2.0 5.0 40.0
-1.0 5.0 40.0
0.0 5.0 40.0
1.0 5.0 40.0
2.0 5.0 40.0
3.0 5.0 40.0
4.0 5.0 40.0
-4.0 5.0 39.0
-3.0 5.0 39.0
-2.0 5.0 39.0
-1.0 5.0 39.0
0.0 5.0 39.0
1.0 5.0 39.0
2.0 5.0 39.0
3.0 5.0 39.0
4.0 5.0 39.0
-4.0 5.0 38.0
-3.0 5.0 38.0
-2.0 5.0 38.0
-1.0 5.0 38.0
0.0 5.0 38.0
1.0 5.0 38.0
2.0 5.0 38.0
3.0 5.0 38.0
4.0 5.0 38.0
-4.0 5.0 37.0
-3.0 5.0 37.0
-2.0 5.0 37.0
-1.0 5.0 37.0
0.0 5.0 37.0
1.0 5.0 37.0
2.0 5.0 37.0
3.0 5.0 37.0
4.0 5.0 37.0
-4.0 5.0 36.0
-3.0 5.0 36.0
-2.0 5.0 36.0
-1.0 5.0 36.0
0.0 5.0 36.0
1.0 5.0 36.0
2.0 5.0 36.0
3.0 5.0 36.0
4.0 5.0 36.0
-4.0 5.0 35.0
-3.0 5.0 35.0
-2.0 5.0 35.0
-1.0 5.0 35.0
0.0 5.0 35.0
1.0 5.0 35.0
2.0 5.0 35.0
3.0 5.0 35.0
4.0 5.0 35.0
-4.0 5.0 34.0
-3.0 5.0 34.0
-2.0 5.0 34.0
-1.0 5.0 34.0
0.0 5.0 34.0
1.0 5.0 34.0
2.0 5.0 34.0
3.0 5.0 34.0
4.0 5.0 34.0
-4.0 5.0 33.0
-3.0 5.0 33.0
-2.0 5.0 33.0
-1.0 5.0 33.0
0.0 5.0 33.0
1.0 5.0 33.0
2.0 5.0 33.0
3.0 5.0 33.0
4.0 5.0 33.0
-4.0 5.0 32.0
-3.0 5.0 32.0
-2.0 5.0 32.0
-1.0 5.0 32.0
0.0 5.0 32.0
1.0 5.0 32.0
2.0 5.0 32.0
3.0 5.0 32.0
4.0 5.0 32.0
-4.0 5.0 31.0
-3.0 5.0 31.0
-2.0 5.0 31.0
-1.0 5.0 31.0
0.0 5.0 31.0
1.0 5.0 31.0
2.0 5.0 31.0
3.0 5.0 31.0
4.0 5.0 31.0
-4.0 5.0 30.0
-3.0 5.0 30.0
-2.0 5.0 30.0
-1.0 5.0 30.0
0.0 5.0 30.0
1.0 5.0 30.0
2.0 5.0 30.0
3.0 5.0 30.0
4.0 5.0 30.0
-4.0 5.0 29.0
-3.0 5.0 29.0
-2.0 5.0 29.0
-1.0 5.0 29.0
0.0 5.0 29.0
1.0 5.0 29.0
2.0 5.0 29.0
3.0 5.0 29.0
4.0 5.0 29.0
-4.0 5.0 28.0
-3.0 5.0 28.0
-2.0 5.0 28.0
-1.0 5.0 28.0
0.0 5.0 28.0
1.0 5.0 28.0
2.0 5.0 28.0
3.0 5.0 28.0
4.0 5.0 28.0
-4.0 5.0 27.0
-3.0 5.0 27.0
-2.0 5.0 27.0
-1.0 5.0 27.0
0.0 5.0 27.0
1.0 5.0 27.0
2.0 5.0 27.0
3.0 5.0 27.0
4.0 5.0 27.0
-4.0 5.0 26.0
-3.0 5.0 26.0
-2.0 5.0 26.0
-1.0 5.0 26.0
0.0 5.0 26.0
1.0 5.0 26.0
2.0 5.0 26.0
3.0 5.0 26.0
4.0 5.0 26.0
-4.0 5.0 25.0
-3.0 5.0 25.0
-2.0 5.0 25.0
-1.0 5.0 25.0
0.0 5.0 25.0
1.0 5.0 25.0
2.0 5.0 25.0
3.0 5.0 25.0
4.0 5.0 25.0
-4.0 5.0 24.0
-3.0 5.0 24.0
-2.0 5.0 24.0
-1.0 5.0 24.0
0.0 5.0 24.0
1.0 5.0 24.0
2.0 5.0 24.0
3.0 5.0 24.0
4.0 5.0 24.0
-4.0 5.0 23.0
-3.0 5.0 23.0
-2.0 5.0 23.0
-1.0 5.0 23.0
0.0 5.0 23.0
1.0 5.0 23.0
2.0 5.0 23.0
3.0 5.0 23.0
4.0 5.0 23.0
-4.0 5.0 22.0
-3.0 5.0 22.0
-2.0 5.0 22.0
-1.0 5.0 22.0
0.0 5.0 22.0
1.0 5.0 22.0
2.0 5.0 22.0
3.0 5.0 22.0
4.0 5.0 22.0
-4.0 5.0 21.0
-3.0 5.0 21.0
-2.0 5.0 21.0
-1.0 5.0 21.0
0.0 5.0 21.0
1.0 5.0 21.0
2.0 5.0 21.0
3.0 5.0 21.0
4.0 5.0 21.0
-4.0 5.0 20.0
-3.0 5.0 20.0
-2.0 5.0 20.0
-1.0 5.0 20.0
0.0 5.0 20.0
1.0 5.0 20.0
2.0 5.0 20.0
3.0 5.0 20.0
4.0 5.0 20.0
-4.0 5.0 19.0
-3.0 5.0 19.0
-2.0 5.0 19.0
-1.0 5.0 19.0
0.0 5.0 19.0
1.0 5.0 19.0
2.0 5.0 19.0
3.0 5.0 19.0
4.0 5.0 19.0
-4.0 5.0 18.0
-3.0 5.0 18.0
-2.0 5.0 18.0
-1.0 5.0 18.0
0.0 5.0 18.0
1.0 5.0 18.0
2.0 5.0 18.0
3.0 5.0 18.0
4.0 5.0 18.0
-4.0 5.0 17.0
-3.0 5.0 17.0
-2.0 5.0 17.0
-1.0 5.0 17.0
0.0 5.0 17.0
1.0 5.0 17.0
2.0 5.0 17.0
3.0 5.0 17.0
4.0 5.0 17.0
-4.0 5.0 16.0
-3.0 5.0 16.0
-2.0 5.0 16.0
-1.0 5.0 16.0
0.0 5.0 16.0
1.0 5.0 16.0
2.0 5.0 16.0
3.0 5.0 16.0
4.0 5.0 16.0
-4.0 5.0 15.0
-3.0 5.0 15.0
-2.0 5.0 15.0
-1.0 5.0 15.0
0.0 5.0 15.0
1.0 5.0 15.0
2.0 5.0 15.0
3.0 5.0 15.0
4.0 5.0 15.0
-4.0 5.0 14.0
-3.0 5.0 14.0
-2.0 5.0 14.0
-1.0 5.0 14.0
0.0 5.0 14.0
1.0 5.0 14.0
2.0 5.0 14.0
3.0 5.0 14.0
4.0 5.0 14.0
-4.0 5.0 13.0
-3.0 5.0 13.0
-2.0 5.0 13.0
-1.0 5.0 13.0
0.0 5.0 13.0
1.0 5.0 13.0
2.0 5.0 13.0
3.0 5.0 13.0
4.0 5.0 13.0
-4.0 5.0 12.0
-3.0 5.0 12.0
-2.0 5.0 12.0
-1.0 5.0 12.0
0.0 5.0 12.0
1.0 5.0 12.0
2.0 5.0 12.0
3.0 5.0 12.0
4.0 5.0 12.0
-4.0 5.0 11.0
-3.0 5.0 11.0
-2.0 5.0 11.0
-1.0 5.0 11.0
0.0 5.0 11.0
1.0 5.0 11.0
2.0 5.0 11.0
3.0 5.0 11.0
4.0 5.0 11.0
-4.0 5.0 10.0
-3.0 5.0 10.0
-2.0 5.0 10.0
-1.0 5.0 10.0
0.0 5.0 10.0
1.0 5.0 10.0
2.0 5.0 10.0
3.0 5.0 10.0
4.0 5.0 10.0
-4.0 5.0 9.0
-3.0 5.0 9.0
-2.0 5.0 9.0
-1.0 5.0 9.0
0.0 5.0 9.0
1.0 5.0 9.0
2.0 5.0 9.0
3.0 5.0 9.0
4.0 5.0 9.0
-4.0 5.0 8.0
-3.0 5.0 8.0
-2.0 5.0 8.0
-1.0 5.0 8.0
0.0 5.0 8.0
1.0 5.0 8.0
2.0 5.0 8.0
3.0 5.0 8.0
4.0 5.0 8.0
-4.0 5.0 7.0
-3.0 5.0 7.0
-2.0 5.0 7.0
-1.0 5.0 7.0
0.0 5.0 7.0
1.0 5.0 7.0
2.0 5.0 7.0
3.0 5.0 7.0
4.0 5.0 7.0
-4.0 5.0 6.0
-3.0 5.0 6.0
-2.0 5.0 6.0
-1.0 5.0 6.0
0.0 5.0 6.0
1.0 5.0 6.0
2.0 5.0 6.0
3.0 5.0 6.0
4.0 5.0 6.0
-4.0 5.0 5.0
-3.0 5.0 5.0
-2.0 5.0 5.0
-1.0 5.0 5.0
0.0 5.0 5.0
1.0 5.0 5.0
2.0 5.0 5.0
3.0 5.0 5.0
4.0 5.0 5.0
-4.0 5.0 4.0
-3.0 5.0 4.0
-2.0 5.0 4.0
-1.0 5.0 4.0
0.0 5.0 4.0
1.0 5.0 4.0
2.0 5.0 4.0
3.0 5.0 4.0
4.0 5.0 4.0
-4.0 5.0 3.0
-3.0 5.0 3.0
-2.0 5.0 3.0
-1.0 5.0 3.0
0.0 5.0 3.0
1.0 5.0 3.0
2.0 5.0 3.0
3.0 5.0 3.0
4.0 5.0 3.0
-4.0 5.0 2.0
-3.0 5.0 2.0
-2.0 5.0 2.0
-1.0 5.0 2.0
0.0 5.0 2.0
1.0 5.0 2.0
2.0 5.0 2.0
3.0 5.0 2.0
4.0 5.0 2.0
-4.0 5.0 1.0
-3.0 5.0 1.0
-2.0 5.0 1.0
-1.0 5.0 1.0
0.0 5.0 1.0
1.0 5.0 1.0
2.0 5.0 1.0
3.0 5.0 1.0
4.0 5.0 1.0
-4.0 4.0 0.0
-3.0 4.0 0.0
-2.0 4.0 0.0
-1.0 4.0 0.0
0.0 4.0 0.0
1.0 4.0 0.0
2.0 4.0 0.0
3.0 4.0 0.0
4.0 4.0 0.0
-4.0 3.0 0.0
-3.0 3.0 0.0
-2.0 3.0 0.0
-1.0 3.0 0.0
0.0 3.0 0.0
1.0 3.0 0.0
2.0 3.0 0.0
3.0 3.0 0.0
4.0 3.0 0.0
-4.0 2.0 0.0
-3.0 2.0 0.0
-2.0 2.0 0.0
-1.0 2.0 0.0
0.0 2.0 0.0
1.0 2.0 0.0
2.0 2.0 0.0
3.0 2.0 0.0
4.0 2.0 0.0
-4.0 1.0 0.0
-3.0 1.0 0.0
-2.0 1.0 0.0
-1.0 1.0 0.0
0.0 1.0 0.0
1.0 1.0 0.0
2.0 1.0 0.0
3.0 1.0 0.0
4.0 1.0 0.0
-4.0 0.0 0.0
-3.0 0.0 0.0
-2.0 0.0 0.0
-1.0 0.0 0.0
0.0 0.0 0.0
1.0 0.0 0.0
2.0 0.0 0.0
3.0 0.0 0.0
4.0 0.0 0.0
-4.0 -1.0 0.0
-3.0 -1.0 0.0
-2.0 -1.0 0.0
-1.0 -1.0 0.0
0.0 -1.0 0.0
1.0 -1.0 0.0
2.0 -1.0 0.0
3.0 -1.0 0.0
4.0 -1.0 0.0
-4.0 -2.0 0.0
-3.0 -2.0 0.0
-2.0 -2.0 0.0
-1.0 -2.0 0.0
0.0 -2.0 0.0
1.0 -2.0 0.0
2.0 -2.0 0.0
3.0 -2.0 0.0
4.0 -2.0 0.0
-4.0 -3.0 0.0
-3.0 -3.0 0.0
-2.0 -3.0 0.0
-1.0 -3.0 0.0
0.0 -3.0 0.0
1.0 -3.0 0.0
2.0 -3.0 0.0
3.0 -3.0 0.0
4.0 -3.0 0.0
-4.0 -4.0 0.0
-3.0 -4.0 0.0
-2.0 -4.0 0.0
-1.0 -4.0 0.0
0.0 -4.0 0.0
1.0 -4.0 0.0
2.0 -4.0 0.0
3.0 -4.0 0.0
4.0 -4.0 0.0
4.0 -5.0 49.0
3.0 -5.0 49.0
2.0 -5.0 49.0
1.0 -5.0 49.0
0.0 -5.0 49.0
-1.0 -5.0 49.0
-2.0 -5.0 49.0
-3.0 -5.0 49.0
-4.0 -5.0 49.0
4.0 -5.0 48.0
3.0 -5.0 48.0
2.0 -5.0 48.0
1.0 -5.0 48.0
0.0 -5.0 48.0
-1.0 -5.0 48.0
-2.0 -5.0 48.0
-3.0 -5.0 48.0
-4.0 -5.0 48.0
4.0 -5.0 47.0
3.0 -5.0 47.0
2.0 -5.0 47.0
1.0 -5.0 47.0
0.0 -5.0 47.0
-1.0 -5.0 47.0
-2.0 -5.0 47.0
-3.0 -5.0 47.0
-4.0 -5.0 47.0
4.0 -5.0 46.0
3.0 -5.0 46.0
2.0 -5.0 46.0
1.0 -5.0 46.0
0.0 -5.0 46.0
-1.0 -5.0 46.0
-2.0 -5.0 46.0
-3.0 -5.0 46.0
-4.0 -5.0 46.0
4.0 -5.0 45.0
3.0 -5.0 45.0
2.0 -5.0 45.0
1.0 -5.0 45.0
0.0 -5.0 45.0
-1.0 -5.0 45.0
-2.0 -5.0 45.0
-3.0 -5.0 45.0
-4.0 -5.0 45.0
4.0 -5.0 44.0
3.0 -5.0 44.0
2.0 -5.0 44.0
1.0 -5.0 44.0
0.0 -5.0 44.0
-1.0 -5.0 44.0
-2.0 -5.0 44.0
-3.0 -5.0 44.0
-4.0 -5.0 44.0
4.0 -5.0 43.0
3.0 -5.0 43.0
2.0 -5.0 43.0
1.0 -5.0 43.0
0.0 -5.0 43.0
-1.0 -5.0 43.0
-2.0 -5.0 43.0
-3.0 -5.0 43.0
-4.0 -5.0 43.0
4.0 -5.0 42.0
3.0 -5.0 42.0
2.0 -5.0 42.0
1.0 -5.0 42.0
0.0 -5.0 42.0
-1.0 -5.0 42.0
-2.0 -5.0 42.0
-3.0 -5.0 42.0
-4.0 -5.0 42.0
4.0 -5.0 41.0
3.0 -5.0 41.0
2.0 -5.0 41.0
1.0 -5.0 41.0
0.0 -5.0 41.0
-1.0 -5.0 41.0
-2.0 -5.0 41.0
-3.0 -5.0 41.0
-4.0 -5.0 41.0
4.0 -5.0 40.0
3.0 -5.0 40.0
2.0 -5.0 40.0
1.0 -5.0 40.0
0.0 -5.0 40.0
-1.0 -5.0 40.0
-2.0 -5.0 40.0
-3.0 -5.0 40.0
-4.0 -5.0 40.0
4.0 -5.0 39.0
3.0 -5.0 39.0
2.0 -5.0 39.0
1.0 -5.0 39.0
0.0 -5.0 39.0
-1.0 -5.0 39.0
-2.0 -5.0 39.0
-3.0 -5.0 39.0
-4.0 -5.0 39.0
4.0 -5.0 38.0
3.0 -5.0 38.0
2.0 -5.0 38.0
1.0 -5.0 38.0
0.0 -5.0 38.0
-1.0 -5.0 38.0
-2.0 -5.0 38.0
-3.0 -5.0 38.0
-4.0 -5.0 38.0
4.0 -5.0 37.0
3.0 -5.0 37.0
2.0 -5.0 37.0
1.0 -5.0 37.0
0.0 -5.0 37.0
-1.0 -5.0 37.0
-2.0 -5.0 37.0
-3.0 -5.0 37.0
-4.0 -5.0 37.0
4.0 -5.0 36.0
3.0 -5.0 36.0
2.0 -5.0 36.0
1.0 -5.0 36.0
0.0 -5.0 36.0
-1.0 -5.0 36.0
-2.0 -5.0 36.0
-3.0 -5.0 36.0
-4.0 -5.0 36.0
4.0 -5.0 35.0
3.0 -5.0 35.0
2.0 -5.0 35.0
1.0 -5.0 35.0
0.0 -5.0 35.0
-1.0 -5.0 35.0
-2.0 -5.0 35.0
-3.0 -5.0 35.0
-4.0 -5.0 35.0
4.0 -5.0 34.0
3.0 -5.0 34.0
2.0 -5.0 34.0
1.0 -5.0 34.0
0.0 -5.0 34.0
-1.0 -5.0 34.0
-2.0 -5.0 34.0
-3.0 -5.0 34.0
-4.0 -5.0 34.0
4.0 -5.0 33.0
3.0 -5.0 33.0
2.0 -5.0 33.0
1.0 -5.0 33.0
0.0 -5.0 33.0
-1.0 -5.0 33.0
-2.0 -5.0 33.0
-3.0 -5.0 33.0
-4.0 -5.0 33.0
4.0 -5.0 32.0
3.0 -5.0 32.0
2.0 -5.0 32.0
1.0 -5.0 32.0
0.0 -5.0 32.0
-1.0 -5.0 32.0
-2.0 -5.0 32.0
-3.0 -5.0 32.0
-4.0 -5.0 32.0
4.0 -5.0 31.0
3.0 -5.0 31.0
2.0 -5.0 31.0
1.0 -5.0 31.0
0.0 -5.0 31.0
-1.0 -5.0 31.0
-2.0 -5.0 31.0
-3.0 -5.0 31.0
-4.0 -5.0 31.0
4.0 -5.0 30.0
3.0 -5.0 30.0
2.0 -5.0 30.0
1.0 -5.0 30.0
0.0 -5.0 30.0
-1.0 -5.0 30.0
-2.0 -5.0 30.0
-3.0 -5.0 30.0
-4.0 -5.0 30.0
4.0 -5.0 29.0
3.0 -5.0 29.0
2.0 -5.0 29.0
1.0 -5.0 29.0
0.0 -5.0 29.0
-1.0 -5.0 29.0
-2.0 -5.0 29.0
-3.0 -5.0 29.0
-4.0 -5.0 29.0
4.0 -5.0 28.0
3.0 -5.0 28.0
2.0 -5.0 28.0
1.0 -5.0 28.0
0.0 -5.0 28.0
-1.0 -5.0 28.0
-2.0 -5.0 28.0
-3.0 -5.0 28.0
-4.0 -5.0 28.0
4.0 -5.0 27.0
3.0 -5.0 27.0
2.0 -5.0 27.0
1.0 -5.0 27.0
0.0 -5.0 27.0
-1.0 -5.0 27.0
-2.0 -5.0 27.0
-3.0 -5.0 27.0
-4.0 -5.0 27.0
4.0 -5.0 26.0
3.0 -5.0 26.0
2.0 -5.0 26.0
1.0 -5.0 26.0
0.0 -5.0 26.0
-1.0 -5.0 26.0
-2.0 -5.0 26.0
-3.0 -5.0 26.0
-4.0 -5.0 26.0
4.0 -5.0 25.0
3.0 -5.0 25.0
2.0 -5.0 25.0
1.0 -5.0 25.0
0.0 -5.0 25.0
-1.0 -5.0 25.0
-2.0 -5.0 25.0
-3.0 -5.0 25.0
-4.0 -5.0 25.0
4.0 -5.0 24.0
3.0 -5.0 24.0
2.0 -5.0 24.0
1.0 -5.0 24.0
0.0 -5.0 24.0
-1.0 -5.0 24.0
-2.0 -5.0 24.0
-3.0 -5.0 24.0
-4.0 -5.0 24.0
4.0 -5.0 23.0
3.0 -5.0 23.0
2.0 -5.0 23.0
1.0 -5.0 23.0
0.0 -5.0 23.0
-1.0 -5.0 23.0
-2.0 -5.0 23.0
-3.0 -5.0 23.0
-4.0 -5.0 23.0
4.0 -5.0 22.0
3.0 -5.0 22.0
2.0 -5.0 22.0
1.0 -5.0 22.0
0.0 -5.0 22.0
-1.0 -5.0 22.0
-2.0 -5.0 22.0
-3.0 -5.0 22.0
-4.0 -5.0 22.0
4.0 -5.0 21.0
3.0 -5.0 21.0
2.0 -5.0 21.0
1.0 -5.0 21.0
0.0 -5.0 21.0
-1.0 -5.0 21.0
-2.0 -5.0 21.0
-3.0 -5.0 21.0
-4.0 -5.0 21.0
4.0 -5.0 20.0
3.0 -5.0 20.0
2.0 -5.0 20.0
1.0 -5.0 20.0
0.0 -5.0 20.0
-1.0 -5.0 20.0
-2.0 -5.0 20.0
-3.0 -5.0 20.0
-4.0 -5.0 20.0
4.0 -5.0 19.0
3.0 -5.0 19.0
2.0 -5.0 19.0
1.0 -5.0 19.0
0.0 -5.0 19.0
-1.0 -5.0 19.0
-2.0 -5.0 19.0
-3.0 -5.0 19.0
-4.0 -5.0 19.0
4.0 -5.0 18.0
3.0 -5.0 18.0
2.0 -5.0 18.0
1.0 -5.0 18.0
0.0 -5.0 18.0
-1.0 -5.0 18.0
-2.0 -5.0 18.0
-3.0 -5.0 18.0
-4.0 -5.0 18.0
4.0 -5.0 17.0
3.0 -5.0 17.0
2.0 -5.0 17.0
1.0 -5.0 17.0
0.0 -5.0 17.0
-1.0 -5.0 17.0
-2.0 -5.0 17.0
-3.0 -5.0 17.0
-4.0 -5.0 17.0
4.0 -5.0 16.0
3.0 -5.0 16.0
2.0 -5.0 16.0
1.0 -5.0 16.0
0.0 -5.0 16.0
-1.0 -5.0 16.0
-2.0 -5.0 16.0
-3.0 -5.0 16.0
-4.0 -5.0 16.0
4.0 -5.0 15.0
3.0 -5.0 15.0
2.0 -5.0 15.0
1.0 -5.0 15.0
0.0 -5.0 15.0
-1.0 -5.0 15.0
-2.0 -5.0 15.0
-3.0 -5.0 15.0
-4.0 -5.0 15.0
4.0 -5.0 14.0
3.0 -5.0 14.0
2.0 -5.0 14.0
1.0 -5.0 14.0
0.0 -5.0 14.0
-1.0 -5.0 14.0
-2.0 -5.0 14.0
-3.0 -5.0 14.0
-4.0 -5.0 14.0
4.0 -5.0 13.0
3.0 -5.0 13.0
2.0 -5.0 13.0
1.0 -5.0 13.0
0.0 -5.0 13.0
-1.0 -5.0 13.0
-2.0 -5.0 13.0
-3.0 -5.0 13.0
-4.0 -5.0 13.0
4.0 -5.0 12.0
3.0 -5.0 12.0
2.0 -5.0 12.0
1.0 -5.0 12.0
0.0 -5.0 12.0
-1.0 -5.0 12.0
-2.0 -5.0 12.0
-3.0 -5.0 12.0
-4.0 -5.0 12.0
4.0 -5.0 11.0
3.0 -5.0 11.0
2.0 -5.0 11.0
1.0 -5.0 11.0
0.0 -5.0 11.0
-1.0 -5.0 11.0
-2.0 -5.0 11.0
-3.0 -5.0 11.0
-4.0 -5.0 11.0
4.0 -5.0 10.0
3.0 -5.0 10.0
2.0 -5.0 10.0
1.0 -5.0 10.0
0.0 -5.0 10.0
-1.0 -5.0 10.0
-2.0 -5.0 10.0
-3.0 -5.0 10.0
-4.0 -5.0 10.0
4.0 -5.0 9.0
3.0 -5.0 9.0
2.0 -5.0 9.0
1.0 -5.0 9.0
0.0 -5.0 9.0
-1.0 -5.0 9.0
-2.0 -5.0 9.0
-3.0 -5.0 9.0
-4.0 -5.0 9.0
4.0 -5.0 8.0
3.0 -5.0 8.0
2.0 -5.0 8.0
1.0 -5.0 8.0
0.0 -5.0 8.0
-1.0 -5.0 8.0
-2.0 -5.0 8.0
-3.0 -5.0 8.0
-4.0 -5.0 8.0
4.0 -5.0 7.0
3.0 -5.0 7.0
2.0 -5.0 7.0
1.0 -5.0 7.0
0.0 -5.0 7.0
-1.0 -5.0 7.0
-2.0 -5.0 7.0
-3.0 -5.0 7.0
-4.0 -5.0 7.0
4.0 -5.0 6.0
3.0 -5.0 6.0
2.0 -5.0 6.0
1.0 -5.0 6.0
0.0 -5.0 6.0
-1.0 -5.0 6.0
-2.0 -5.0 6.0
-3.0 -5.0 6.0
-4.0 -5.0 6.0
4.0 -5.0 5.0
3.0 -5.0 5.0
2.0 -5.0 5.0
1.0 -5.0 5.0
0.0 -5.0 5.0
-1.0 -5.0 5.0
-2.0 -5.0 5.0
-3.0 -5.0 5.0
-4.0 -5.0 5.0
4.0 -5.0 4.0
3.0 -5.0 4.0
2.0 -5.0 4.0
1.0 -5.0 4.0
0.0 -5.0 4.0
-1.0 -5.0 4.0
-2.0 -5.0 4.0
-3.0 -5.0 4.0
-4.0 -5.0 4.0
4.0 -5.0 3.0
3.0 -5.0 3.0
2.0 -5.0 3.0
1.0 -5.0 3.0
0.0 -5.0 3.0
-1.0 -5.0 3.0
-2.0 -5.0 3.0
-3.0 -5.0 3.0
-4.0 -5.0 3.0
4.0 -5.0 2.0
3.0 -5.0 2.0
2.0 -5.0 2.0
1.0 -5.0 2.0
0.0 -5.0 2.0
-1.0 -5.0 2.0
-2.0 -5.0 2.0
-3.0 -5.0 2.0
-4.0 -5.0 2.0
4.0 -5.0 1.0
3.0 -5.0 1.0
2.0 -5.0 1.0
1.0 -5.0 1.0
0.0 -5.0 1.0
-1.0 -5.0 1.0
-2.0 -5.0 1.0
-3.0 -5.0 1.0
-4.0 -5.0 1.0
4.0 -4.0 50.0
4.0 -3.0 50.0
4.0 -2.0 50.0
4.0 -1.0 50.0
4.0 0.0 50.0
4.0 1.0 50.0
4.0 2.0 50.0
4.0 3.0 50.0
4.0 4.0 50.0
3.0 -4.0 50.0
3.0 -3.0 50.0
3.0 -2.0 50.0
3.0 -1.0 50.0
3.0 0.0 50.0
3.0 1.0 50.0
3.0 2.0 50.0
3.0 3.0 50.0
3.0 4.0 50.0
2.0 -4.0 50.0
2.0 -3.0 50.0
2.0 -2.0 50.0
2.0 -1.0 50.0
2.0 0.0 50.0
2.0 1.0 50.0
2.0 2.0 50.0
2.0 3.0 50.0
2.0 4.0 50.0
1.0 -4.0 50.0
1.0 -3.0 50.0
1.0 -2.0 50.0
1.0 -1.0 50.0
1.0 0.0 50.0
1.0 1.0 50.0
1.0 2.0 50.0
1.0 3.0 50.0
1.0 4.0 50.0
0.0 -4.0 50.0
0.0 -3.0 50.0
0.0 -2.0 50.0
0.0 -1.0 50.0
0.0 0.0 50.0
0.0 1.0 50.0
0.0 2.0 50.0
0.0 3.0 50.0
0.0 4.0 50.0
-1.0 -4.0 50.0
-1.0 -3.0 50.0
-1.0 -2.0 50.0
-1.0 -1.0 50.0
-1.0 0.0 50.0
-1.0 1.0 50.0
-1.0 2.0 50.0
-1.0 3.0 50.0
-1.0 4.0 50.0
-2.0 -4.0 50.0
-2.0 -3.0 50.0
-2.0 -2.0 50.0
-2.0 -1.0 50.0
-2.0 0.0 50.0
-2.0 1.0 50.0
-2.0 2.0 50.0
-2.0 3.0 50.0
-2.0 4.0 50.0
-3.0 -4.0 50.0
-3.0 -3.0 50.0
-3.0 -2.0 50.0
-3.0 -1.0 50.0
-3.0 0.0 50.0
-3.0 1.0 50.0
-3.0 2.0 50.0
-3.0 3.0 50.0
-3.0 4.0 50.0
-4.0 -4.0 50.0
-4.0 -3.0 50.0
-4.0 -2.0 50.0
-4.0 -1.0 50.0
-4.0 0.0 50.0
-4.0 1.0 50.0
-4.0 2.0 50.0
-4.0 3.0 50.0
-4.0 4.0 50.0
5.0 4.0 49.0
5.0 3.0 49.0
5.0 2.0 49.0
5.0 1.0 49.0
5.0 0.0 49.0
5.0 -1.0 49.0
5.0 -2.0 49.0
5.0 -3.0 49.0
5.0 -4.0 49.0
5.0 4.0 48.0
5.0 3.0 48.0
5.0 2.0 48.0
5.0 1.0 48.0
5.0 0.0 48.0
5.0 -1.0 48.0
5.0 -2.0 48.0
5.0 -3.0 48.0
5.0 -4.0 48.0
5.0 4.0 47.0
5.0 3.0 47.0
5.0 2.0 47.0
5.0 1.0 47.0
5.0 0.0 47.0
5.0 -1.0 47.0
5.0 -2.0 47.0
5.0 -3.0 47.0
5.0 -4.0 47.0
5.0 4.0 46.0
5.0 3.0 46.0
5.0 2.0 46.0
5.0 1.0 46.0
5.0 0.0 46.0
5.0 -1.0 46.0
5.0 -2.0 46.0
5.0 -3.0 46.0
5.0 -4.0 46.0
5.0 4.0 45.0
5.0 3.0 45.0
5.0 2.0 45.0
5.0 1.0 45.0
5.0 0.0 45.0
5.0 -1.0 45.0
5.0 -2.0 45.0
5.0 -3.0 45.0
5.0 -4.0 45.0
5.0 4.0 44.0
5.0 3.0 44.0
5.0 2.0 44.0
5.0 1.0 44.0
5.0 0.0 44.0
5.0 -1.0 44.0
5.0 -2.0 44.0
5.0 -3.0 44.0
5.0 -4.0 44.0
5.0 4.0 43.0
5.0 3.0 43.0
5.0 2.0 43.0
5.0 1.0 43.0
5.0 0.0 43.0
5.0 -1.0 43.0
5.0 -2.0 43.0
5.0 -3.0 43.0
5.0 -4.0 43.0
5.0 4.0 42.0
5.0 3.0 42.0
5.0 2.0 42.0
5.0 1.0 42.0
5.0 0.0 42.0
5.0 -1.0 42.0
5.0 -2.0 42.0
5.0 -3.0 42.0
5.0 -4.0 42.0
5.0 4.0 41.0
5.0 3.0 41.0
5.0 2.0 41.0
5.0 1.0 41.0
5.0 0.0 41.0
5.0 -1.0 41.0
5.0 -2.0 41.0
5.0 -3.0 41.0
5.0 -4.0 41.0
5.0 4.0 40.0
5.0 3.0 40.0
5.0 2.0 40.0
5.0 1.0 40.0
5.0 0.0 40.0
5.0 -1.0 40.0
5.0 -2.0 40.0
5.0 -3.0 40.0
5.0 -4.0 40.0
5.0 4.0 39.0
5.0 3.0 39.0
5.0 2.0 39.0
5.0 1.0 39.0
5.0 0.0 39.0
5.0 -1.0 39.0
5.0 -2.0 39.0
5.0 -3.0 39.0
5.0 -4.0 39.0
5.0 4.0 38.0
5.0 3.0 38.0
5.0 2.0 38.0
5.0 1.0 38.0
5.0 0.0 38.0
5.0 -1.0 38.0
5.0 -2.0 38.0
5.0 -3.0 38.0
5.0 -4.0 38.0
5.0 4.0 37.0
5.0 3.0 37.0
5.0 2.0 37.0
5.0 1.0 37.0
5.0 0.0 37.0
5.0 -1.0 37.0
5.0 -2.0 37.0
5.0 -3.0 37.0
5.0 -4.0 37.0
5.0 4.0 36.0
5.0 3.0 36.0
5.0 2.0 36.0
5.0 1.0 36.0
5.0 0.0 36.0
5.0 -1.0 36.0
5.0 -2.0 36.0
5.0 -3.0 36.0
5.0 -4.0 36.0
5.0 4.0 35.0
5.0 3.0 35.0
5.0 2.0 35.0
5.0 1.0 35.0
5.0 0.0 35.0
5.0 -1.0 35.0
5.0 -2.0 35.0
5.0 -3.0 35.0
5.0 -4.0 35.0
5.0 4.0 34.0
5.0 3.0 34.0
5.0 2.0 34.0
5.0 1.0 34.0
5.0 0.0 34.0
5.0 -1.0 34.0
5.0 -2.0 34.0
5.0 -3.0 34.0
5.0 -4.0 34.0
5.0 4.0 33.0
5.0 3.0 33.0
5.0 2.0 33.0
5.0 1.0 33.0
5.0 0.0 33.0
5.0 -1.0 33.0
5.0 -2.0 33.0
5.0 -3.0 33.0
5.0 -4.0 33.0
5.0 4.0 32.0
5.0 3.0 32.0
5.0 2.0 32.0
5.0 1.0 32.0
5.0 0.0 32.0
5.0 -1.0 32.0
5.0 -2.0 32.0
5.0 -3.0 32.0
5.0 -4.0 32.0
5.0 4.0 31.0
5.0 3.0 31.0
5.0 2.0 31.0
5.0 1.0 31.0
5.0 0.0 31.0
5.0 -1.0 31.0
5.0 -2.0 31.0
5.0 -3.0 31.0
5.0 -4.0 31.0
5.0 4.0 30.0
5.0 3.0 30.0
5.0 2.0 30.0
5.0 1.0 30.0
5.0 0.0 30.0
5.0 -1.0 30.0
5.0 -2.0 30.0
5.0 -3.0 30.0
5.0 -4.0 30.0
5.0 4.0 29.0
5.0 3.0 29.0
5.0 2.0 29.0
5.0 1.0 29.0
5.0 0.0 29.0
5.0 -1.0 29.0
5.0 -2.0 29.0
5.0 -3.0 29.0
5.0 -4.0 29.0
5.0 4.0 28.0
5.0 3.0 28.0
5.0 2.0 28.0
5.0 1.0 28.0
5.0 0.0 28.0
5.0 -1.0 28.0
5.0 -2.0 28.0
5.0 -3.0 28.0
5.0 -4.0 28.0
5.0 4.0 27.0
5.0 3.0 27.0
5.0 2.0 27.0
5.0 1.0 27.0
5.0 0.0 27.0
5.0 -1.0 27.0
5.0 -2.0 27.0
5.0 -3.0 27.0
5.0 -4.0 27.0
5.0 4.0 26.0
5.0 3.0 26.0
5.0 2.0 26.0
5.0 1.0 26.0
5.0 0.0 26.0
5.0 -1.0 26.0
5.0 -2.0 26.0
5.0 -3.0 26.0
5.0 -4.0 26.0
5.0 4.0 25.0
5.0 3.0 25.0
5.0 2.0 25.0
5.0 1.0 25.0
5.0 0.0 25.0
5.0 -1.0 25.0
5.0 -2.0 25.0
5.0 -3.0 25.0
5.0 -4.0 25.0
5.0 4.0 24.0
5.0 3.0 24.0
5.0 2.0 24.0
5.0 1.0 24.0
5.0 0.0 24.0
5.0 -1.0 24.0
5.0 -2.0 24.0
5.0 -3.0 24.0
5.0 -4.0 24.0
5.0 4.0 23.0
5.0 3.0 23.0
5.0 2.0 23.0
5.0 1.0 23.0
5.0 0.0 23.0
5.0 -1.0 23.0
5.0 -2.0 23.0
5.0 -3.0 23.0
5.0 -4.0 23.0
5.0 4.0 22.0
5.0 3.0 22.0
5.0 2.0 22.0
5.0 1.0 22.0
5.0 0.0 22.0
5.0 -1.0 22.0
5.0 -2.0 22.0
5.0 -3.0 22.0
5.0 -4.0 22.0
5.0 4.0 21.0
5.0 3.0 21.0
5.0 2.0 21.0
5.0 1.0 21.0
5.0 0.0 21.0
5.0 -1.0 21.0
5.0 -2.0 21.0
5.0 -3.0 21.0
5.0 -4.0 21.0
5.0 4.0 20.0
5.0 3.0 20.0
5.0 2.0 20.0
5.0 1.0 20.0
5.0 0.0 20.0
5.0 -1.0 20.0
5.0 -2.0 20.0
5.0 -3.0 20.0
5.0 -4.0 20.0
5.0 4.0 19.0
5.0 3.0 19.0
5.0 2.0 19.0
5.0 1.0 19.0
5.0 0.0 19.0
5.0 -1.0 19.0
5.0 -2.0 19.0
5.0 -3.0 19.0
5.0 -4.0 19.0
5.0 4.0 18.0
5.0 3.0 18.0
5.0 2.0 18.0
5.0 1.0 18.0
5.0 0.0 18.0
5.0 -1.0 18.0
5.0 -2.0 18.0
5.0 -3.0 18.0
5.0 -4.0 18.0
5.0 4.0 17.0
5.0 3.0 17.0
5.0 2.0 17.0
5.0 1.0 17.0
5.0 0.0 17.0
5.0 -1.0 17.0
5.0 -2.0 17.0
5.0 -3.0 17.0
5.0 -4.0 17.0
5.0 4.0 16.0
5.0 3.0 16.0
5.0 2.0 16.0
5.0 1.0 16.0
5.0 0.0 16.0
5.0 -1.0 16.0
5.0 -2.0 16.0
5.0 -3.0 16.0
5.0 -4.0 16.0
5.0 4.0 15.0
5.0 3.0 15.0
5.0 2.0 15.0
5.0 1.0 15.0
5.0 0.0 15.0
5.0 -1.0 15.0
5.0 -2.0 15.0
5.0 -3.0 15.0
5.0 -4.0 15.0
5.0 4.0 14.0
5.0 3.0 14.0
5.0 2.0 14.0
5.0 1.0 14.0
5.0 0.0 14.0
5.0 -1.0 14.0
5.0 -2.0 14.0
5.0 -3.0 14.0
5.0 -4.0 14.0
5.0 4.0 13.0
5.0 3.0 13.0
5.0 2.0 13.0
5.0 1.0 13.0
5.0 0.0 13.0
5.0 -1.0 13.0
5.0 -2.0 13.0
5.0 -3.0 13.0
5.0 -4.0 13.0
5.0 4.0 12.0
5.0 3.0 12.0
5.0 2.0 12.0
5.0 1.0 12.0
5.0 0.0 12.0
5.0 -1.0 12.0
5.0 -2.0 12.0
5.0 -3.0 12.0
5.0 -4.0 12.0
5.0 4.0 11.0
5.0 3.0 11.0
5.0 2.0 11.0
5.0 1.0 11.0
5.0 0.0 11.0
5.0 -1.0 11.0
5.0 -2.0 11.0
5.0 -3.0 11.0
5.0 -4.0 11.0
5.0 4.0 10.0
5.0 3.0 10.0
5.0 2.0 10.0
5.0 1.0 10.0
5.0 0.0 10.0
5.0 -1.0 10.0
5.0 -2.0 10.0
5.0 -3.0 10.0
5.0 -4.0 10.0
5.0 4.0 9.0
5.0 3.0 9.0
5.0 2.0 9.0
5.0 1.0 9.0
5.0 0.0 9.0
5.0 -1.0 9.0
5.0 -2.0 9.0
5.0 -3.0 9.0
5.0 -4.0 9.0
5.0 4.0 8.0
5.0 3.0 8.0
5.0 2.0 8.0
5.0 1.0 8.0
5.0 0.0 8.0
5.0 -1.0 8.0
5.0 -2.0 8.0
5.0 -3.0 8.0
5.0 -4.0 8.0
5.0 4.0 7.0
5.0 3.0 7.0
5.0 2.0 7.0
5.0 1.0 7.0
5.0 0.0 7.0
5.0 -1.0 7.0
5.0 -2.0 7.0
5.0 -3.0 7.0
5.0 -4.0 7.0
5.0 4.0 6.0
5.0 3.0 6.0
5.0 2.0 6.0
5.0 1.0 6.0
5.0 0.0 6.0
5.0 -1.0 6.0
5.0 -2.0 6.0
5.0 -3.0 6.0
5.0 -4.0 6.0
5.0 4.0 5.0
5.0 3.0 5.0
5.0 2.0 5.0
5.0 1.0 5.0
5.0 0.0 5.0
5.0 -1.0 5.0
5.0 -2.0 5.0
5.0 -3.0 5.0
5.0 -4.0 5.0
5.0 4.0 4.0
5.0 3.0 4.0
5.0 2.0 4.0
5.0 1.0 4.0
5.0 0.0 4.0
5.0 -1.0 4.0
5.0 -2.0 4.0
5.0 -3.0 4.0
5.0 -4.0 4.0
5.0 4.0 3.0
5.0 3.0 3.0
5.0 2.0 3.0
5.0 1.0 3.0
5.0 0.0 3.0
5.0 -1.0 3.0
5.0 -2.0 3.0
5.0 -3.0 3.0
5.0 -4.0 3.0
5.0 4.0 2.0
5.0 3.0 2.0
5.0 2.0 2.0
5.0 1.0 2.0
5.0 0.0 2.0
5.0 -1.0 2.0
5.0 -2.0 2.0
5.0 -3.0 2.0
5.0 -4.0 2.0
5.0 4.0 1.0
5.0 3.0 1.0
5.0 2.0 1.0
5.0 1.0 1.0
5.0 0.0 1.0
5.0 -1.0 1.0
5.0 -2.0 1.0
5.0 -3.0 1.0
5.0 -4.0 1.0
-0.0871739984 0.997173786 16.1921673
0.209237874 2.08339024 15.7936916
0.933094978 0.924556255 15.7507229
-0.00154559338 0.633104205 15.0772619
0.56958282 0.0100621935 16.0450287
1.4933219 -0.832872152 11.0212889
1.52163041 0.050348971 12.169199
2.16457176 0.443547308 11.2894144
0.74313271 -0.135375604 11.4906301
1.11800241 -1.04243302 11.9100809
0.777781844 0.518514931 12.6637573
1.55832553 0.474300802 13.3876591
1.84826994 1.50390041 12.1619558
2.36534691 -0.136781842 13.2653294
1.59657264 -0.65298152 12.8189096
2.25194216 -0.409297198 11.6836424
1.35692334 1.28379905 11.294302
0.296766609 0.511268377 26.1053715
1.3089149 -0.673283279 25.6611347
1.0874263 0.777275145 25.4572296
1.66666913 0.0 26.6666622
-0.169470519 -0.358463645 25.7573605
0.483435005 0.00713886786 25.0266609
-0.486111283 0.347220093 26.6777725
-0.0828349367 1.32567573 26.8835907
-0.542110562 1.63343251 25.9711647
-0.651530981 0.531158388 25.2560806
0.970841706 0.796062946 26.9843197
0.556844354 0.00146007899 27.441227
-1.07256901 0.648053348 8.33540916
-0.0185534544 -0.47543782 8.25599098
-0.0662419796 0.580420971 9.30807495
-0.96539408 -0.00136189582 9.08243084
-0.275517851 0.840112329 7.64785099
0.0167608205 1.69068277 8.04847622
0.587319136 -4.21726227 14.6858435
0.746876359 -3.56992483 15.7938633
-0.361317307 -4.26781082 15.234374
0.432734489 -4.30668497 15.9281807
-1.66101563 0.986703038 10.0340443
-2.564852 0.178908765 9.01839638
-2.3986311 1.3404665 9.11357117
-1.41639698 1.39425194 7.57891369
-0.667072415 1.97255087 7.55758905
0.0995545834 -1.11918068 4.2251029
0.0133307427 0.378797054 3.82663751
0.770091891 -0.470481157 3.59434867
-0.345744163 -0.647961497 3.05123401
-0.000231205573 -0.969505131 5.65185356
-0.470370322 -0.111111693 4.90158796
-0.734692097 -1.65027881 4.67669153
0.725928485 -0.222223386 4.5428586
0.882806182 1.18178988 14.7592115
-4.65076971 -4.27664089 13.5982113
-4.03622532 -3.9278183 13.9397593
-4.34509373 -4.34607887 13.3039093
-4.282516 -3.44158983 13.3680096
0.428300411 1.8024596 16.7698269
1.09568 0.758347929 16.8801079
1.83641195 1.45846379 16.381712
1.68991005 0.0880798176 15.9704094
0.0238490123 0.830667794 29.1051464
0.546918333 -0.065098621 28.9318695
-0.489721894 -0.0487400331 28.8203831
0.928350508 0.721747756 28.2937164
-0.310743451 1.66506016 30.571516
0.522543609 1.68876982 29.1946907
-0.572376311 1.72169602 29.2360401
1.28255749 1.17121768 29.2447433
0.703707397 0.833334565 30.2608509
-0.555555284 0.0 30.0158749
0.11574214 -0.85069716 7.08965111
-0.709873915 -0.578704357 6.27861691
-0.669070899 -1.76894748 6.40143776
-1.55492711 -1.45442235 5.19054461
0.478399158 0.28934902 5.62396288
1.24259377 -0.979168236 5.17487001
-0.422304899 -2.67971683 4.9492259
-4.35194111 -4.30178213 24.6447887
-4.31930971 -4.31581926 23.510416
-0.800791562 0.478164792 5.938694
0.0909873098 1.34121406 6.90283394
-0.555555284 0.0 7.22539711
0.555558503 0.0 6.7650795
0.200623095 2.02546215 5.85240364
-0.848761976 1.44675779 5.60659409
-1.69592774 -0.0337591805 7.01650143
-1.29629683 1.47569335 6.44626617
-1.91650093 0.873082876 5.36257696
-4.06034994 -1.63224792 19.1122036
-3.6039691 -0.675608039 18.0695362
-2.70888996 -1.32182753 19.1168003
-2.76168394 -1.14764428 17.9558449
-0.568819523 -1.11859155 23.5698986
1.01728547 -0.913806736 24.5648899
-0.507192194 0.0390579067 23.925869
0.0677464008 -0.982291102 24.9480419
0.673650682 -0.818432868 23.0567074
-0.851853192 -1.03703618 25.2663116
-0.0925930813 -1.38888991 26.4232769
0.39970693 -0.608992279 42.6449699
1.59833992 0.020593131 42.0372963
0.704866588 0.372418344 42.892189
1.98660696 -0.419701457 42.9384689
0.532989025 -0.0540482625 41.7818451
-0.296066642 -1.36592138 42.0862007
1.26432073 -1.14777732 42.1122208
-4.20485973 -1.35795259 33.2690582
-3.31691313 -2.41662717 32.1596336
-3.3679018 -1.05617869 33.2161789
-3.37619352 -2.46354294 33.1389122
0.371594846 -2.46357775 42.9283714
1.4376235 -1.93775916 43.0013046
0.27778241 -1.73610997 43.9027786
-0.777332127 -1.43128288 43.3589134
-0.596431196 -0.044163432 43.1855392
1.43495679 -1.28412843 43.7474785
2.25007367 -3.12808156 33.0024223
2.38522434 -2.0688622 33.3343353
1.313254 -2.60882235 32.1733475
0.993303478 -3.04172468 33.2482109
1.47478747 -1.59694314 32.6659737
2.24668479 -0.843738794 31.9496021
1.00116444 -1.02694547 31.9973068
1.61838198 -0.147702351 32.7671318
1.15503335 -1.02218831 33.322876
1.42568958 -1.82266629 33.696743
2.30440998 -0.885317802 33.9303551
1.75925899 -1.73611307 31.4884205
2.36298418 -1.38296402 32.655571
2.59715438 -2.16396999 31.7358475
0.437725991 -1.84329116 32.769516
-0.354938567 -0.0115729468 14.282032
0.0925930813 -1.38888991 13.9989443
0.478392839 -0.289352179 14.9852104
-0.709877133 -0.578704357 15.1323204
-1.08392024 0.786960423 14.4373417
-1.64820111 -0.0654216781 14.3691521
3.45347643 3.41597676 4.98415709
3.6355207 4.26587582 6.32391405
3.28678036 2.48086739 5.70423555
4.2277174 3.52948928 5.7427392
-1.97912598 -0.497408688 18.5352707
-1.00855041 -0.908764601 18.8157806
-1.38761663 0.287309349 17.8477783
-0.768533647 0.741017044 19.00037
-1.81877697 -1.25481284 19.8048077
-1.26484644 0.257898718 19.8317108
-2.15856695 -1.92836535 18.5014076
-2.43625426 -0.34477818 17.5289154
-2.15997314 1.00641572 17.8476582
-1.41494012 -1.20128393 17.7299538
-1.89550245 -0.896244645 34.8406792
-2.49997187 -2.11223078 35.7026901
-2.47407389 -2.10000229 34.6926003
-1.65353477 -2.31452298 35.1953354
-0.992654204 -2.56034207 33.8173332
-0.863027036 -1.40428877 34.6196709
-0.744117677 -2.49976301 35.6650429
-0.087506555 1.13605547 24.1841106
0.734574914 1.8833245 25.0714455
0.88812077 0.685749412 24.2743568
0.895272315 2.17858362 24.1382122
0.247440636 2.87132621 24.0569973
-0.485585541 2.20894432 24.5057182
-0.637402058 2.09741449 23.0662956
-0.035627827 1.38917172 23.1914711
-1.15221143 1.58499336 23.8188095
2.58257246 3.43345976 5.454144
3.62008381 4.3427372 5.33011341
2.67131758 4.26900482 6.32792377
0.0128081553 -0.0137836523 22.8365803
-1.43763626 1.14830625 24.6356239
1.01454902 0.868053377 37.8032341
1.62557149 0.0146578001 38.6310616
0.559986234 0.0514384881 37.5560455
1.67570198 0.0303449389 37.6451569
2.218256 1.21527982 37.4652748
2.07407856 0.865741313 38.482933
0.0511439405 1.48148298 37.8117294
0.196157336 1.1203208 36.4626961
1.20172417 1.9965266 37.0335655
1.47354591 1.73611307 38.0509224
0.533863187 1.11429048 38.784565
0.860882878 -0.682024777 26.9349937
1.31944263 -1.77546239 25.0687122
-0.0370403975 -2.07407546 25.4850063
-1.09771657 -0.778557837 24.2602463
-0.685185611 -1.90740788 24.3264542
-1.49788272 -0.0351749174 26.1980572
-0.996790528 -0.691228628 26.4959183
0.0596415363 0.777097762 44.3733101
-0.865896523 -0.259694517 45.1188545
-1.4347477 0.729368031 45.2788315
-0.528393388 -0.104276881 44.1960297
1.07407343 0.828571081 44.2407379
0.448177755 -0.0384973101 44.907299
0.555558503 0.0 43.9460297
0.481477678 1.65714216 45.0338631
-0.140614167 1.69383729 43.6658325
-0.110668287 0.386512369 45.6973457
-1.44444573 1.24999869 44.1198463
0.865576625 -0.531585932 36.4307785
-0.733992159 -0.614097834 35.8511925
0.382540703 -1.51082385 35.7726212
-0.110164702 -0.866130888 37.0074501
1.82268536 0.580921412 36.0131645
2.13236141 -0.646704137 36.3303909
1.68267608 -0.00732573261 35.1056328
1.67567027 0.487653732 36.9729958
2.19926548 -0.870802522 35.1888351
0.498352528 -0.421186864 35.4120293
1.2615273 -1.4814893 44.630024
1.03391957 -1.67415953 45.6449471
1.06322253 -2.92840862 45.4570312
2.4732852 -2.11005807 45.4448433
2.43937707 -1.86918616 43.7433777
2.70082307 -1.1555084 44.6862984
2.12451959 -2.56394625 44.3648338
-2.4607811 1.57568181 32.6868896
-0.404007971 1.7512207 32.3860855
-2.30589557 2.24028707 32.2668152
-1.49300206 2.46683669 32.9977417
2.24398613 -0.86901623 43.8269806
0.0916049108 -0.812605202 45.3363876
0.340638638 -0.841005504 44.2153625
1.62604022 -0.0725732073 44.6734734
-0.000652443094 -0.996166587 31.2154961
-0.0915669054 -0.828583777 30.0437469
-1.04764938 -1.77076542 30.2463398
-1.14657378 -0.792879879 30.5456085
-0.437317401 -1.89469802 31.7431259
0.331232071 -0.323212713 32.5599899
4.3158164 -4.31931257 1.51041687
3.6562531 -4.31931257 0.68418318
4.50000143 -4.50000143 0.500001013
-0.690018773 -0.436436921 32.4108353
-1.18911874 -1.24552655 31.9398975
1.16386986 -0.900349319 31.0307846
0.555697858 -0.0185756255 31.0813141
2.60609221 -3.96968555 2.57597685
3.64857602 -2.48566246 2.4960556
2.3700788 -3.24858069 3.30162024
3.44183373 -3.26528454 3.54323959
-1.12844789 0.758455634 30.7439137
-1.63979542 -0.00670179445 31.5996208
-1.68309104 -0.0040540155 30.0711994
-1.12384915 1.00854409 31.8917503
-0.518185496 -0.0263004247 31.3449974
-1.11728346 -1.3621397 11.8654337
0.0 -0.555555284 12.0444469
-0.0279093627 -1.65839326 10.9121351
-0.837870002 -0.500452399 11.4192038
0.0 -0.555555284 10.6547623
0.0 0.555558503 11.9555559
-1.612396 -1.5079639 11.0159845
-2.20199871 -1.09260786 11.5983438
-1.77584875 -0.561554015 10.8201399
-0.694443345 -0.879629493 12.6259251
-1.12847316 0.532406271 12.1981821
-1.6871134 -0.426441252 12.15312
-0.0352604315 -1.6563915 9.71563339
0.868053377 -1.15740871 9.76435089
-0.865823686 -0.526603937 10.2003603
0.0 0.555558503 10.3841276
0.877073586 -0.00152342301 9.81846619
-0.0160672031 -0.607392848 9.49986458
1.09683919 -0.464333624 40.9294624
0.833733618 0.449919701 40.7497787
2.06944823 3.16719957e-6 39.7619057
0.669647336 -0.817603052 39.6368828
-0.438140899 0.306185842 40.9426689
-0.482430995 -0.272299975 40.1847458
0.0624603443 -1.33208609 40.9597206
2.29882312 -1.64534116 10.8500643
1.79675865 -2.87987757 10.7399216
1.56805515 -1.79691696 10.0375443
2.35925341 -2.58518553 9.97407341
3.17284346 -1.8529954 9.75801945
1.99778712 -1.95379794 11.8434439
2.71240878 -2.93190837 11.1655302
3.01264024 -1.58841074 11.6562681
0.426343083 2.30194592 31.451067
0.111181371 2.63538885 32.5524902
1.24652112 3.32802367 32.1340218
0.146666676 3.34221911 30.920002
1.31975305 2.07281184 31.1131268
1.74310625 2.53035808 31.8077049
1.01852703 1.73610675 32.3101807
0.495312005 2.39103293 30.3715839
0.204100668 1.11025548 31.2096939
-0.656725168 2.63830256 31.7470093
-1.35813951 1.85634005 37.3875465
-0.375990927 1.88006234 36.8412895
-0.274472684 2.29514289 38.4877281
-0.234565973 3.35185361 37.5839539
-2.2800734 2.15939045 38.6084747
-2.50108671 1.86985123 37.6341667
-1.27777815 2.33333302 38.3388901
-2.34814906 1.03703618 38.4899445
4.19802189 -1.73158717 45.7789001
4.30887985 -0.498301834 45.5782089
4.25259876 -1.64821696 46.3835144
-4.35462093 -3.83527279 14.2105675
-2.27778029 0.777775526 37.5944443
-0.8681674 0.752317607 37.7677498
-1.24999869 2.60416651 36.6875038
-1.43981528 1.3715241 36.4206047
-1.65159953 3.27317405 38.0710144
-2.40249181 2.59688187 37.1227875
-2.49935126 1.87645173 36.4889717
-1.00687492 2.49083781 33.7971191
-1.96193123 2.22484374 34.2091217
-0.648148417 1.73611307 34.5982819
-0.865421474 2.60500264 35.1834335
-1.65383875 3.34109783 33.467247
-1.5570935 3.37413168 35.16642
-0.706405878 3.44408894 32.829483
-0.678341329 3.48009992 33.8640175
-1.10016799 1.46591294 33.2139282
3.98049212 0.951990485 17.8014679
4.27234316 0.686800897 16.6612606
3.34044528 1.85012591 17.3214951
4.176054 1.62960649 16.8792171
0.46296224 1.73611307 33.5712967
-0.178918272 2.56450677 33.4076805
0.0659315959 -0.623073697 21.7348652
1.53393805 -0.904811919 22.3270454
0.114000179 -1.63331211 21.7116451
1.46790826 -1.41131365 21.5322609
3.66666698 -3.33333182 0.666668534
2.6652112 -3.35047603 0.791500568
-2.06386757 0.291268349 4.16578102
-1.09679174 -0.669628322 4.27774477
-1.00741017 0.310182869 4.09051895
-1.66666913 0.0 5.2603178
-2.36444426 1.34222114 4.03111172
-2.56124783 0.739743829 3.34684467
-3.10850501 0.326392591 4.21102476
-2.34355021 -0.834652126 4.70690966
-2.77777982 0.0 5.09523726
1.05962467 -0.808798254 29.9748287
3.45833492 -4.25687122 38.2708321
4.33333731 -3.66666698 37.6666641
4.30922222 -4.32267332 37.6014366
3.35544515 -4.27039528 37.3278542
1.66666913 0.0 5.75555372
1.92222404 -0.333335072 4.18412876
1.44369197 -2.38761568 4.65783072
1.55398643 -1.33805311 4.05964518
2.23938751 -0.946555614 5.26695633
1.06481886 -0.868056536 6.47136307
1.75925899 -1.73611307 5.80688143
-2.39787412 0.303322703 11.3115091
-1.38888991 -0.0925930813 13.1185198
-2.25694323 0.509260356 12.4408054
-0.00522587914 0.582099617 13.4057913
-0.774921894 2.09082055 12.4087477
-1.4552902 1.07518828 13.0176382
-0.915719748 1.12572408 11.2261438
0.0 1.66666913 11.8666687
-1.5432117 1.80041361 11.9074078
-0.535677969 -2.41393495 43.8055954
-0.23311539 -1.68003786 44.7955246
0.421123534 -2.56677771 44.4741669
1.25000501 -2.60416651 43.6874962
1.48148298 -3.29861307 42.8356476
4.50000143 -3.49999928 0.500001013
-1.21621418 -1.08249819 40.8292503
4.51059246 3.03686929 0.723434269
4.22366953 2.04519367 1.16567671
4.30148792 2.82607961 1.43371677
-0.938466549 -0.470287949 41.6501503
0.0387475193 0.844875813 41.9851723
-1.09791923 0.993189454 41.3834229
-1.06481564 0.868053377 42.488163
-1.69710267 0.00476980256 42.7933159
-1.66804361 -0.0175906271 41.1901283
1.5245949 -2.40916204 9.08800793
2.2769568 -1.68480134 9.17575264
1.40277803 -1.56018782 8.59020996
2.46287131 -2.46214938 8.439147
2.5424695 -3.35272455 9.09323406
1.64444172 -3.24444437 8.45555687
-0.485943437 1.7526902 42.1809502
0.874679148 1.62992954 42.9986687
-1.31337118 -1.37035537 9.5877161
-0.911586523 -1.06416011 8.61919022
-1.84655654 -0.564413965 8.81012154
-2.55511618 0.0506656915 9.99974346
4.32027578 -2.64060521 0.665563226
-0.875163734 -2.26080418 9.98630238
-0.92658639 -2.4734149 30.8969517
-0.42871213 0.459839374 17.0636177
1.02984023 -0.0693775043 17.6291103
0.505776405 1.54180539 17.838562
-1.05655873 1.09509087 16.5761929
-0.532760978 0.0507702082 16.0084953
-1.63778424 0.0525121689 15.9621077
-0.500864089 2.07413554 17.2274857
-0.481480837 1.55555737 15.1693106
-1.09708631 0.771080077 15.5810461
0.059261471 -0.777775526 16.398941
-0.191216514 -0.826949477 17.4900341
-1.07607186 -0.817736089 16.4450741
-1.29891288 2.14715219 15.9941788
-2.38025188 1.35441494 16.4537582
-0.313074499 0.935014307 18.1745205
-1.19794261 1.35368013 17.676981
-0.0182177313 -2.43164587 26.3677292
0.777775526 -3.11111164 25.703701
0.777775526 -3.11111164 26.8666649
-0.51851809 -3.3703723 25.949995
1.42985129 -2.05155659 26.4796467
0.704385161 -2.10347986 27.1584587
-0.694446504 -2.08333325 27.4722214
1.08368897 -0.865665317 15.9870214
1.95725334 -0.13046962 17.047842
1.70008934 0.00619820971 28.7740917
2.37722397 1.7554394 29.0731201
0.0609274171 -0.0795917287 18.1837177
1.44018269 0.56072104 18.5659981
1.21087742 -0.736225069 18.3838444
1.64696276 -1.58837914 16.9622459
2.22500205 -0.121965691 18.2226906
1.73611307 -0.648151577 9.81124496
1.71723664 0.480350167 10.1457109
1.08768606 -0.545287251 8.33844948
2.19282961 0.40228501 8.89177227
0.986899376 1.12627518 9.37675571
0.836818457 0.996540368 22.1276894
0.0208338387 1.65972662 21.8663025
0.719011307 2.01983714 23.0465088
1.36304235 -1.41235244 23.8133163
1.68605864 -2.15533304 24.2029018
0.425924987 -1.90740788 24.2947083
1.59259462 -2.5972209 25.5138836
0.767292082 -3.10262036 24.5734158
0.988134623 2.72408295 43.9341164
1.77976346 1.46945393 43.8110809
2.95916533 0.679180622 42.8472519
1.85905743 0.558795333 42.9442368
2.09741449 1.35791779 42.569912
3.39485145 0.902898908 43.6864319
2.27291536 0.828571081 44.3476105
2.47407699 2.09999895 43.3883629
1.65819371 1.24154222 45.0093727
2.53097892 1.81115675 44.9392319
1.61601293 2.28922653 42.6842346
0.00057643035 1.03737187 35.2860374
0.709243655 0.393511891 35.9560204
-0.55826962 0.102031335 36.5964737
0.281069964 2.27976918 35.6051712
0.46296224 1.73611307 34.6141548
-1.16511452 0.870827854 34.7689362
-0.553471267 -0.09471827 34.8767357
-1.04640162 1.5234673 35.5791817
-0.4873465 2.72407031 6.75630951
-0.280243307 3.3648138 5.98086834
-0.515183032 2.54805636 4.67305565
-1.50996244 2.43261838 5.30888987
-1.549999 3.13055515 6.72500181
-2.48999858 2.0439713 5.77770519
-2.4173429 2.45167208 6.7709136
-1.62649 1.66754961 4.65777731
-1.39777696 2.52000141 3.96047378
3.21188879 -3.1996603 1.59782839
4.33886719 -3.6292274 2.36929178
4.33333731 -3.66666698 1.33333242
4.28745699 -2.68608284 1.34757841
-2.50992966 2.10029674 4.87308311
0.868053377 1.06481254 10.4310179
0.434026688 1.96759737 9.95215034
1.5202558 1.74845886 10.1278162
1.44117081 1.33513927 39.0652809
0.72883594 2.25694633 38.6365738
1.62962556 2.42129874 38.6972198
2.48148179 1.73148263 38.3277779
0.679383337 0.719112635 39.788765
0.682537854 2.08333325 39.6468277
1.14262426 1.60494041 40.5541725
1.71007872 2.36449194 39.7501373
0.10266161 -0.570165575 46.6814842
-1.43259716 -0.240545645 46.3567047
1.27864909 -0.586844087 46.4251938
-0.522556245 -1.69410026 45.8236923
-1.69777739 -1.67999673 45.3311081
0.804455996 0.522049487 2.55266309
0.144709349 1.26492882 2.92697525
-1.0503732 1.33925664 3.30010629
-0.567777514 1.80666566 4.01638746
1.32667017 0.839998364 4.71301603
0.872354448 1.94130325 4.40019512
-0.0446891859 1.04800737 4.82017517
1.08857286 0.48693794 3.58252239
2.07651114 0.66979301 40.4625168
-0.412290215 1.54212213 40.674984
-0.031748008 1.66666913 39.3333321
-0.596595883 -0.612238705 19.9164791
0.0171978939 -0.416664094 38.4510536
-0.277826756 0.415523916 39.423008
-1.64354217 -2.38219643 14.6647472
-2.33333302 -1.55555737 13.6444464
-1.29640448 -1.4408319 14.4145412
-1.55555737 -2.33333302 13.5777798
-1.09183192 -2.52850223 16.1592941
-0.965726674 -1.67601871 15.618125
-2.21964622 -2.57000518 15.7721167
-1.43948269 -3.36284065 15.6388979
-2.61324382 -1.68469357 15.3133383
-1.93515897 -0.77474767 15.244278
-2.70893741 -2.59342337 14.0690088
-1.03981376 -2.20324016 42.1082687
-0.837565899 -2.90185475 40.8111115
-0.754072189 -2.13209224 40.398201
-0.191564903 -2.2580328 41.4923744
-1.78267407 -2.43287158 41.0416679
0.705538034 -2.22437811 40.9589539
-0.558906198 -3.13333583 41.9932098
2.36882448 -1.35995436 42.9556351
2.39712024 -2.06525159 42.1815643
2.31308198 -2.46516132 43.0190086
1.3738488 -2.67418385 42.1050301
-1.3611294 -3.23173118 16.8850174
0.0183634236 -3.3327775 16.7842426
-1.20960104 -2.42247701 17.0265713
1.34257591 -2.3749752 28.7060738
2.27486634 -2.43726778 27.6500969
2.33183813 -1.55339098 28.1341839
2.23978662 -3.07738423 28.3784637
-2.08333325 -0.694446504 13.7222233
-2.77079916 -0.0399922282 14.2369061
3.28644466 -2.54321384 28.9434738
2.30530334 -1.59307921 29.0536098
3.23333073 -1.68333173 27.5166626
2.3505435 -1.54279041 27.0442944
3.27561283 -2.54966545 28.0198174
2.54303312 -3.32667112 27.3804283
4.30001163 -0.634757459 44.3924522
3.20354629 -3.39030337 28.0445023
-0.703976631 2.59388566 29.8428249
0.669970393 3.61817074 29.2445602
1.17706442 3.10660481 31.2951946
1.61988962 1.92578399 29.8626022
1.33829379 2.78850389 29.4395008
1.23235106 3.11723375 30.3005867
-0.400790095 -1.63600743 16.7192364
0.142872378 -2.29704642 17.1947479
-0.112913832 -2.59173536 15.8913498
-0.420341223 -2.31021881 14.6906071
-2.09056067 0.610085011 14.8075237
-2.77387142 -0.0487527028 15.0256014
4.35043383 -1.56029236 0.536699355
-0.612355888 -3.7645936 15.9854403
-1.31894541 0.0694883615 38.5690689
-1.97441006 -0.0668880865 39.4100685
-0.583065629 -0.889121592 39.3275757
1.28324163 1.86899614 15.4889345
-1.08649516 1.07845044 39.8993988
-0.0243969392 -1.46971357 39.9647408
-1.78163838 -0.176188141 7.90494823
-0.825372219 -0.853040874 7.68909121
-2.15133929 0.696194828 7.59621954
0.46296224 -1.73610997 37.3379593
1.89491022 -1.75700402 35.7477531
1.2417196 -2.34226131 35.4312363
1.22590899 -1.71964049 36.5648727
0.460352451 -2.99548984 35.166893
0.26577872 -1.5869633 34.2230759
1.39069831 -1.28432798 34.6250992
-1.30371749 -3.20533586 5.94608307
-1.62544799 -2.36606908 4.736938
1.32629645 -1.84085238 11.1287651
1.03728318 -2.3907702 12.0407858
-1.7137717 -2.23431993 3.75792193
-2.00629735 -1.29889071 3.56370592
-2.55703545 -1.81999958 4.5829649
-0.44888404 -2.30166721 3.7712431
-2.50243926 -2.77017212 4.26405001
-2.48373055 -2.1075623 5.58172226
-1.62278438 -3.25036716 4.30545139
0.678319156 -2.12284708 13.4904604
-0.319165021 -3.24287987 14.3158922
-0.694443345 -2.08333635 13.5793667
1.04166663 2.59259367 10.2718248
2.08333325 2.40740728 10.8716898
2.17803884 2.41204429 9.79574108
2.44967675 1.17541111 10.434556
0.0 -0.555555284 13.2253971
-1.67824209 -1.21913743 13.0486135
0.0189651903 0.855175555 33.7951736
-0.582166135 -0.0687313974 34.0367355
0.541306078 -0.0141510479 34.0010223
1.04870415 0.845255911 34.81353
1.06481254 0.868053377 33.7189827
1.11415744 0.857652307 32.8267708
0.58551383 0.630190372 31.9934483
-0.609451532 0.39904815 33.2693634
1.24961865 -2.574965 34.2208633
2.42848206 -2.11792541 34.934269
1.47297585 -3.36746788 35.5718918
2.20193839 -3.12684321 35.0154381
0.688663185 -1.50603509 2.90147948
1.50791001 1.05500686 31.0285625
-0.0299142003 -1.67032087 22.7638874
-1.02885842 -0.570659697 22.8146324
0.00576430326 0.515854478 21.7769852
-1.38425624 -0.113274895 21.8998241
-0.944078863 0.858988881 22.610281
0.683944106 0.400302351 14.1975975
1.18055463 -1.04166973 14.171031
-2.51916528 -3.19742417 16.6587715
-2.75000024 -4.25000191 16.75
-3.40000153 -3.13333583 17.0666656
-3.32855892 -3.4461 15.8792915
-2.75000024 -4.25000191 15.75
-0.0229685307 1.66347027 13.660327
0.884098411 1.18018091 13.5565815
2.08841968 0.964976013 14.5650873
1.66666913 0.0 14.8380976
-1.35593832 -1.44197524 38.768734
-0.699669242 -1.83342218 37.1765213
-1.71295774 -2.39059591 38.156105
-1.88205135 -2.03377914 37.1346321
-0.991875052 -0.859492421 37.891098
-1.91153479 -0.915453672 37.2098007
-3.48568988 -3.25317955 14.4825315
-2.6391387 -3.45725179 14.2507935
-2.75163126 -4.23707008 14.7498083
0.431828648 -1.56865382 38.4937134
1.08246017 0.582359314 19.7438011
0.702560902 -0.207318544 20.4214859
2.16330504 0.810936093 20.2566376
0.542769313 1.13005042 20.8227959
2.02250385 -1.10311973 20.5547848
2.83236313 -0.132227421 20.8043404
1.91277945 -0.193104163 19.7499294
1.65812397 0.32903403 22.3907814
2.95200729 0.289722741 22.0812855
2.48786068 -0.994358122 21.9078217
1.15412116 -0.088497892 21.517519
-1.2419318 -0.280141979 3.27435374
-2.27717209 -0.243158579 3.4557488
-0.818866789 0.658612788 2.50087929
-1.75173378 0.518825293 3.03427386
-1.40237892 -0.701198995 2.53730202
-3.36866188 -2.56972957 15.3566151
-4.23576212 -3.44448471 15.2557211
1.52332163 2.34200478 26.169014
2.16792917 1.53146136 25.7162628
1.662444 1.53220248 24.3625412
1.12485623 3.26702332 24.6376667
2.13575029 2.43875003 25.2745514
0.618585765 1.95918536 12.5624647
-2.53205895 -3.39304948 15.4791412
-3.32805204 -2.44203448 16.3643665
-4.20269346 -3.42560506 16.319479
-0.758195877 -0.435049713 27.4265881
-1.21602726 1.18579948 26.7715359
0.509045005 1.55360007 25.9962177
-0.197604746 -2.29735661 38.4185143
-0.728180349 -2.10057235 39.3390465
0.984010875 -2.09145713 39.5437431
-0.0908479542 -2.78446245 39.7731476
-0.576721728 1.11111057 38.6666679
1.06481886 -0.868056536 37.5023117
-4.33660555 -4.25860071 15.5876369
-4.32889366 -4.3154583 16.6561489
-0.904330492 -3.36371803 3.60390735
0.23309955 -3.34930086 3.61064696
-4.45833397 -4.45833397 49.4443703
0.201750606 -2.71150613 2.96712589
0.690797925 -2.4006803 3.85003996
-0.839998364 -2.68444562 2.95111251
0.0600691065 -1.99385667 2.27417445
-1.14777732 -1.73111212 2.74778152
-2.32222247 3.14999533 5.62777948
-3.3727634 2.54603577 5.04044151
-3.38906503 1.82259035 5.89623117
-3.34394836 1.05546927 5.29357672
-3.45504737 2.26810765 3.99127483
-2.59592557 2.6533277 3.81074119
1.58608282 -2.01867795 3.18463016
2.59793973 -2.13237739 2.42799568
1.56939173 -1.35844362 1.71102405
2.14792514 -1.18196404 2.66366386
1.57942545 -2.89406657 2.58537698
1.40287304 -3.34235215 3.55650067
-4.32019949 4.30885458 10.4661455
2.70666337 -1.00444567 3.64888787
-0.431974351 4.29242325 13.3959227
-0.741634607 3.11992598 14.3413477
-1.6584059 4.23158121 13.6651754
-0.844552755 3.16904926 13.0807896
1.83270001 -2.43008137 1.60847974
0.951059341 -2.54016995 1.62614954
2.48635936 -2.49638677 3.43913054
-1.34980977 -1.72984838 36.1909447
1.7592653 -1.73611307 37.4675941
1.20966125 -2.60670972 37.3614464
2.42589116 -1.88462305 36.5492439
1.59223354 -2.70892787 36.3517685
0.185186163 2.77777338 36.6018524
-0.740738273 3.47221994 35.6759262
0.280246496 3.3648138 35.8246918
0.939290047 2.55461884 34.6411018
1.17973113 3.24904013 35.9250336
1.26921093 1.74075627 35.4965286
0.818353713 0.911013305 8.42256355
-1.69751763 3.22958064 13.9324589
-2.62690377 3.37428379 13.5100079
-1.67145479 4.1661787 12.8070669
0.616172314 -2.46576619 5.41117764
-0.143246099 -2.55624056 6.15523243
0.76805222 -3.50655246 6.08735895
1.25000501 -2.60416651 6.31250286
2.59259367 -1.04166663 30.9675922
2.53216338 -2.32372689 30.7169342
2.13619375 -3.16256285 31.3611622
3.19187832 -3.33587193 31.1052837
3.33843112 -2.50744033 30.9474945
3.35821962 -1.09883142 31.699749
-0.360753536 -3.39528227 5.65028858
0.429187208 -4.16102886 5.21272135
1.04210365 -3.38605309 4.75532389
1.49945366 -3.21888828 5.67137909
-0.136702672 -0.898233652 33.4230423
-2.13703632 1.22222233 2.52963114
-1.51178038 0.742226899 1.8273617
0.46296224 -1.73610997 15.5657425
0.690481186 -1.56495452 16.8044586
-2.29053783 -0.792148292 24.6118088
-1.63479435 0.0168463346 23.4158516
-2.11111259 -1.03703618 23.7936516
-1.66298568 -0.0257651694 24.9158058
-1.75426745 -1.66101885 24.6063328
0.38845703 -1.2280215 20.6118584
0.269408315 -1.39536047 19.5601196
1.45676613 -1.13871908 19.6234627
1.26174891 -2.08912277 20.3261166
-0.852160394 -2.19582582 20.9270916
-0.967563629 -2.03662324 19.863533
-0.891943574 -1.25507569 21.3366394
0.128366604 -2.19427395 20.7728977
-1.22583604 3.64317894 15.0894299
-1.79999864 4.1999979 14.8000021
-2.66089416 3.4442029 14.5282726
-2.21411324 3.14704347 15.6520195
0.830173671 -1.61009657 12.7735577
0.0 -1.66666913 12.1333342
-0.0327076688 -2.75335431 12.1953287
0.01133224 -2.74140763 13.0491552
-0.00165327813 -1.66205764 13.0115957
2.1111095 -1.03703618 7.80740499
3.39281178 -2.59026241 8.9736824
3.18236423 -1.65374064 8.47145557
3.22997355 -0.903687537 10.0933723
2.36614513 -0.603481352 8.84873867
-1.47414768 2.05914855 13.5128746
-3.06474376 1.2722894 13.1255007
-2.33372259 1.55252957 14.1379118
-3.11343312 2.24377084 13.1885757
3.63680029 -0.737643957 8.99209309
0.0 -1.66666913 8.39682388
-1.31250334 2.35801172 14.7630377
-0.652126372 2.10045505 14.1279259
-0.0694440156 -2.1354177 7.26736259
0.46296224 -1.73610997 6.30463219
1.36287761 0.762978375 45.9420891
-0.666283786 1.74911129 44.8197441
1.91595304 -0.857402086 45.2132454
-1.73333228 -4.23873615 7.0666666
-1.96651423 -0.838129699 36.2289467
2.30447984 1.88717592 31.7666836
2.41670632 2.10799313 32.6560211
1.95149541 0.86263746 32.0993462
2.61846948 1.07743061 31.2358418
3.33972335 1.07432675 32.0041351
2.38841057 2.08145833 30.7029476
0.426381081 -2.62267876 11.1008778
2.75822544 0.00375629868 32.9157104
1.66666913 0.0 33.8666687
0.817492187 -3.16254067 12.5281982
0.891699731 -3.59432173 11.3329573
1.04999638 -2.6259284 10.1272488
0.0171598867 -2.79829359 9.8634243
-0.835466087 -2.31050682 11.6629448
-0.688789904 -3.06433201 11.0667953
0.0622037984 -3.84535074 11.0699377
-1.7397902 -2.50568247 44.581852
-0.865266263 -2.80160332 44.9821396
-0.222590789 -3.38111234 44.2883339
-1.47900939 -3.39444613 44.1672783
-0.280243307 -3.3648169 43.175312
-2.32222247 -3.15000176 42.8777771
-2.6072576 -2.21214962 44.1847916
-1.59969234 -2.06273055 43.0835457
-2.58888793 -3.35555601 44.5888824
-1.57039571 -1.29821932 44.0636215
2.11041903 -1.31517327 46.0899124
1.52228284 -2.66211987 46.9990196
2.46099019 -2.54377437 46.4906731
-2.33333302 -1.55555737 27.5777779
-2.33333302 -1.55555737 26.5111084
-3.12833476 -0.795888722 26.3385849
-2.1330235 -0.591401696 26.5243225
2.14630985 -1.77551305 47.0298729
3.40514493 -1.75447655 46.5567856
2.55242705 -0.826110184 46.8041344
1.82797456 -0.899285138 47.3594551
0.490263492 -1.51349699 46.8746758
2.09364557 -0.0962638631 45.7128067
-1.34002626 2.05729246 25.5436554
-1.44444573 2.07407856 26.4888878
-0.810799897 3.14150715 25.564661
-1.76307547 3.17053151 25.8090611
0.0 -2.77777982 27.2222214
1.98955238 1.44528186 36.1588631
1.61727345 2.45093107 41.675209
0.200635761 2.54846811 41.9596558
0.882850528 2.82849932 41.192379
0.579572201 1.71417713 41.7405128
1.22375524 0.905850768 41.9477844
1.3338598 3.54990506 41.7308159
1.27555799 3.27247095 42.6756477
2.32222247 3.14999533 42.1222229
2.43969393 1.64699447 40.5895004
2.34080124 3.0473907 41.0604782
2.47438741 2.09805441 41.9986649
1.63696706 3.30423808 40.5993576
0.819164515 -1.8923384 18.1107864
-0.390816599 -2.06014609 17.9315453
0.00356626674 -1.07793736 18.5723419
0.0315009654 3.48794198 34.8822594
0.231116891 -2.51999807 46.0244408
-0.164935082 -3.39740753 45.4013596
-2.00542641 -0.912609577 30.0121384
-2.60718179 -0.0911836773 29.0621433
-2.80832744 0.00992283598 30.0558262
1.61425197 -0.0265538003 43.7529678
-2.38280153 -2.03775716 30.7594948
-2.1108942 -1.69502509 31.8168392
-2.22222114 -3.12499976 31.1527729
-0.138888031 2.60416651 34.3878975
1.50597167 3.31548142 34.6161232
2.07519984 2.66052365 33.8899612
1.17338407 2.71187663 33.3112907
1.90000308 2.0895853 34.6312523
2.32222247 3.15000176 35.1222229
4.30623245 0.507809758 0.635515988
4.29939127 -0.40473327 0.652846873
0.499315351 4.18219185 41.4589424
0.65373534 4.21534634 42.3949776
1.67432737 4.26179028 42.283638
2.24879408 0.811746895 41.3881531
-1.52072132 -1.2731477 42.2233276
-1.57989419 -3.02592659 41.8444481
0.183425203 -3.00926089 40.9598808
0.438175738 -3.24558139 42.1065407
-1.18878305 -1.02517498 28.2537079
-1.38889301 -1.38888669 26.9722214
-1.44238389 -2.07295108 28.1997204
2.73626399 1.60791755 5.48006105
2.89815855 2.05064774 4.61006308
4.21109581 1.73801339 4.74983168
3.2711091 0.839998364 4.63999939
2.32444572 1.11999774 4.53058243
3.42374897 2.51169062 6.63565826
2.38049245 2.06346226 6.43678999
3.20766377 1.64259839 6.8154254
2.02333379 2.2995832 5.3091054
1.45833707 1.30208647 5.92688656
2.2685194 0.868053377 5.97982931
-1.64537287 -1.82916856 33.2754631
-1.49978304 -2.60290599 31.7134361
-1.209126 -0.911152661 33.4511642
-2.30793524 -0.325778157 33.2865677
-2.8005805 -1.48163497 32.6077194
-2.61172986 -1.80648196 33.6577187
-0.679795027 -1.86770713 32.8898125
-2.17039323 0.822090983 29.4026299
-2.32222247 -3.15000176 33.6277733
-1.72375154 -3.20237446 32.8416748
0.819411516 -2.79261804 16.8641987
1.41433835 -2.42952704 17.4125614
1.55963671 -3.34532285 16.4858074
0.6663028 -4.24127913 16.6642818
1.3163451 -3.61139607 17.4872894
0.848302722 -3.11029124 17.95051
-0.695121109 -2.05661798 18.9081287
0.406586081 -0.0742138177 19.2271767
-2.23583698 -1.50887918 28.6970901
-3.17936802 -0.818660915 28.9174576
-1.97671258 -0.580851734 27.8259335
-1.7033453 1.67309856 30.1095676
-1.50600338 3.10005498 29.1250248
-2.51757526 2.39523268 29.4062519
-2.21992183 3.10702276 29.9194279
1.75925899 1.73611307 33.4675827
3.35555291 3.12221909 33.5888863
3.33333182 2.49999738 34.6111145
2.77777338 2.08333325 33.5277748
2.24714708 3.15525293 33.0586052
1.64996529 4.11474991 34.1746483
2.48872852 3.41237879 34.0414124
-1.30123448 -3.25740767 34.7265472
-0.280243307 -3.3648169 34.5253143
-0.644445956 -4.18889046 33.5888863
-0.232716322 -3.07129669 33.399231
-3.10334253 -0.389818937 8.12961388
-2.77868247 0.0389280505 7.06144714
-3.0726428 -0.751101375 7.30179644
-2.07407546 -1.44444573 7.62539577
-3.11668897 -2.2411325 21.4040852
-4.20777655 -2.56791162 21.2352409
-4.23950243 -2.40261531 22.3341045
-4.08914614 -1.59238875 22.1769428
-2.51111102 3.37778044 28.9555607
0.669919729 4.27431297 25.3035564
1.66367924 3.24064684 26.0327663
0.254775882 3.08312941 25.4493942
-3.35555601 2.58888793 30.0777817
-3.35555601 2.58888793 29.0777817
1.13940001 3.26998782 23.1008015
1.73284459 3.20014477 23.9775238
4.44700146 -1.74498761 11.8073845
4.14384365 -1.54455769 10.7892981
4.16114283 -0.672640324 11.9496651
-1.62670219 -4.26691771 13.9716492
-2.55000114 -3.36666656 13.0833359
-2.72977757 -4.26167583 13.7635927
0.0211410578 3.91074395 23.971426
-3.23139238 0.838699758 11.8930635
-3.20803738 1.22760653 10.8932705
-3.36326194 0.239319935 10.5621748
-2.40165257 1.49016738 11.3763199
1.66841733 2.54219079 45.2859688
2.32222247 3.14999533 44.1222191
2.1027987 -2.48300838 12.6071215
1.51819706 -2.31813669 13.5534306
2.29305243 -1.56764662 13.5996275
2.71902823 0.476346821 12.504837
2.24283981 -0.472026765 14.1625624
-3.40000153 -3.13333583 13.0666666
-3.12499976 -2.22222114 13.0277796
-3.40000153 -3.13333583 12.1333342
0.839174867 0.780689359 7.32032156
-3.71083355 -4.32559013 21.6699867
-4.55709028 -4.33112955 20.3990784
-0.880630314 1.90666044 8.95059013
-0.004256716 1.70535326 9.16689682
4.24906445 -1.26795673 2.25375533
1.70017803 3.05283833 16.1228771
0.786535978 2.91479278 15.4570913
0.172333658 2.81068683 16.8051968
0.0913768783 2.3191123 14.7312164
-0.323865145 2.94905543 15.5374784
-3.47672987 -3.92232323 13.530345
2.65762877 4.26855516 40.3290482
-2.75000024 -4.25000191 12.750001
-1.07138765 2.14208484 22.2164631
0.0559105724 2.73824048 22.6897221
0.694446504 -2.08333325 7.88491917
1.48148298 -1.47569335 7.25380087
1.69713128 0.00759811187 7.67781925
2.2685194 -0.868056536 6.62268543
2.77777982 0.0 31.7777748
1.66666913 0.0 30.8666668
1.55555737 -2.33333302 7.9481492
-0.813834131 0.308339536 20.9456558
-1.0237782 1.7438221 20.7349167
1.50583875 1.53106856 21.2320518
0.575252116 -1.83720374 31.237154
-0.833334565 -0.833334565 13.6761913
-0.583607197 2.47906208 41.1955757
-1.32593548 2.47520447 41.8372459
-0.659331799 3.46326947 41.9864197
-1.51632845 3.22260666 41.4269447
-1.51552403 2.33245873 40.4658585
0.0973945558 2.32427478 40.4272881
-0.0253407639 3.33675885 40.9783554
-0.41174227 2.73532653 43.3839836
-1.76897597 1.78242385 42.0056381
-1.7254777 1.7651943 42.9257164
-1.71665382 0.0249955393 37.2042961
-1.63711917 0.192439049 36.1183319
-2.26414871 -0.784100413 25.5630016
-1.69136059 -1.64197767 25.6748676
0.471342653 3.18940806 5.23502445
-0.213329896 3.76888514 4.47999907
0.295753092 3.32308912 3.56089997
0.511116326 4.17777681 5.37777996
0.946992695 3.76478672 4.45582056
1.53148663 3.31111073 5.27870321
-4.24032593 1.64689946 15.2655869
-3.23944974 1.64923048 14.2660027
-3.43923664 2.52888846 14.3804464
-3.29408073 2.1271863 15.2496777
-3.21456194 0.854757488 15.5714207
-2.31706619 1.5086385 15.2821579
-3.24394083 1.68939698 16.0699501
-2.47791243 2.49131918 14.3926306
-4.20267725 2.63684559 16.2234173
-3.35555601 2.58888793 16.4111099
-4.22134829 1.6628114 16.291275
-2.51447463 2.30439115 15.9596624
-3.39687538 3.12812901 15.1825113
2.2685194 0.868053377 33.6226807
-1.89849865 0.73232621 20.6728802
-1.72127473 1.37844765 21.4986515
-1.75245905 -0.693414032 20.9623585
-0.694687247 2.03626871 27.3854523
-0.171681225 2.26810765 26.4726524
-1.87141585 0.785750568 25.4976883
0.640401423 -1.7196722 30.0536404
-0.437589794 -1.56343734 28.6796265
0.88199538 -1.2277807 28.6519718
-1.15231907 -0.944208682 29.3839607
3.33333182 1.04166663 32.9583282
4.31331396 0.372120619 1.35759628
4.28114796 -0.693442523 1.37371421
3.17085457 0.0392257683 1.6583662
3.66666698 -0.333331913 0.666668534
1.08793938 -0.826613724 38.5284004
1.74960542 -2.02649474 47.8490715
2.45838022 -1.29076052 47.9410896
1.37655365 1.06614268 23.0363846
2.47353864 1.10086787 22.7250805
1.6950599 2.2162416 23.3979797
0.817004442 2.18779373 22.2317066
1.40835226 -0.0819576234 23.3332615
4.21936846 2.61666417 33.7666702
-2.07870269 -1.92592657 8.43108368
-1.27777815 -2.33333302 7.45317602
-0.868056536 -2.2685194 8.47982693
-2.18094301 -3.13328528 7.93171453
2.35348272 1.51019049 13.8840542
3.13055515 1.5500021 12.6999998
-2.49000788 -1.40880835 21.9955788
-2.34062386 -0.484179288 21.8010044
-3.24339294 -0.0230857171 21.8783836
-3.09867716 -0.826683402 22.8990231
-1.82480741 -2.55770373 20.8668461
-1.73148263 -2.48148179 22.2203712
-2.06294274 -0.710079789 22.8315105
-2.36648083 1.93777502 3.17018771
-0.74222374 2.00888491 2.32000065
-2.53048801 2.901896 2.69688463
-0.839998364 2.68444228 2.95110941
-2.62222266 1.97777677 1.68888855
-1.84999931 2.66666794 2.04999995
-3.3390646 1.62175822 3.33393192
1.30718565 -2.58106494 30.0060749
1.54737341 -1.67349756 30.565073
1.65411437 0.0855175555 29.964819
2.2685194 -0.868056536 29.979826
-0.62881583 0.692026794 46.5067215
-1.66666913 0.0 44.3333321
2.48884869 1.06297553 27.4783344
2.93989611 1.07841241 28.3302021
1.81560981 1.68234038 27.7020969
2.12555194 1.1533041 26.6170082
0.713437021 2.01931787 27.2645035
-0.613410532 2.15719223 28.448555
0.0804056972 1.37726939 27.8612423
-1.35262859 1.18481135 28.3781986
0.725364745 2.08567691 28.2826691
1.66666913 0.0 27.7238102
-0.61115551 3.68815327 29.1308575
-0.547589779 4.4263134 28.4549332
0.586850405 4.30359697 28.3877754
0.000506751938 3.85920095 27.8780022
0.0831263214 -1.26953709 27.86726
-0.862970054 0.450008392 27.6309605
-1.98303747 -0.870986223 6.11095142
1.48888791 -2.33333302 38.7481499
0.688891232 -3.11111164 38.5777779
2.43835092 2.7175777 26.4217625
2.18591881 2.37626123 27.3321285
1.51622713 2.84571624 27.0964451
2.62771773 4.22434092 26.3349686
2.47136593 3.38775063 25.444891
4.24756956 1.34103668 0.747197747
2.2685194 0.868053377 34.6226883
2.80525208 1.6906575 34.6168518
2.642591 1.92222404 35.500927
-1.8215673 0.496724576 32.847187
-2.98577929 0.695802093 33.1498642
-1.8939569 0.865658998 33.9801559
-1.88570631 -0.50770843 32.2085457
-1.59847617 -0.0531804487 34.125267
0.975839555 -3.30947661 39.7563515
1.56289268 -1.58360934 41.1317139
3.42025876 2.49148393 30.6285706
2.60579443 3.31979513 31.4012146
3.36902618 2.46708369 31.5850773
2.03811836 -1.41145301 40.3731422
1.38508606 -3.00411725 40.8468094
2.42993259 -2.08229113 41.1922112
3.33333182 2.50000358 32.9444466
-3.25212169 -0.227151558 12.0764732
-2.84259319 -1.15432072 12.4870377
-4.22028399 -0.489731401 12.2658176
-3.33541584 -0.789415002 11.3453569
-4.24119997 -0.446296424 11.1775999
-4.26362085 0.652778864 11.3055544
-3.11574197 0.222223386 12.9231482
-4.15423203 0.609318495 12.3183365
-3.68658853 -0.574571192 12.8703032
1.57425654 2.37185884 8.61877155
2.25192332 1.57494068 8.40799141
0.920717597 2.21595025 9.23940086
-1.81851411 2.38991809 24.5832253
-1.5672729 3.22446251 24.5414906
-1.51169169 2.37921929 23.2636909
-2.25465345 3.11209655 23.6470966
-2.15888047 1.02260637 23.8713722
-2.84482932 1.58439159 24.8609276
-2.80525517 0.955563128 30.8280468
-1.59498584 1.72503424 31.2493343
-2.29026842 0.79243964 31.7047405
-1.65731001 4.24945688 35.6867714
3.21568942 -1.6906575 45.5212936
-2.58448243 -1.46718931 10.5240479
-1.72586405 -2.28381705 40.0364838
-2.34324622 -1.48962903 39.5096703
-2.05712152 0.695257306 40.5780945
4.27020836 2.66041589 34.6791725
4.26778889 2.65833187 35.6833382
3.19895387 -1.03895235 1.48781884
3.99554896 -0.309128165 2.28338146
3.33492804 -0.986500323 42.7099991
2.28127694 -0.919178307 42.0794907
0.945288718 -1.99578547 22.0397301
-2.02574086 -2.2502985 11.7679882
-0.777778685 -2.27778029 12.5944471
-1.0519917 -3.34495854 12.1973591
-1.79337931 -3.35424161 11.3723888
-1.89382386 -2.57177877 10.7614489
-3.24253774 -2.77488184 11.2483683
-2.58888793 -3.35555601 12.0555573
-3.12778687 -2.21302056 10.37677
-3.13568592 -2.1635108 11.8303595
-2.08333325 -2.77777648 12.5763903
-1.59313309 2.33772278 28.5021629
-2.23395252 1.48893213 28.7735786
-2.48148179 1.73148263 27.5685234
0.66661948 -4.12264252 41.4353142
2.22222114 -3.12499976 41.3472214
1.41604865 -4.24044609 41.2760658
1.36921835 -4.26298714 42.3121033
2.2736249 -3.14521933 42.3525352
1.79008853 2.85315895 21.6674576
2.56039572 3.32492614 22.420557
2.01443386 2.41285491 22.4167938
3.0918138 2.20986271 21.8577271
2.58888793 3.35555291 21.4111099
1.76960313 4.08195019 22.2016239
1.6754992 4.27230501 21.3258514
1.53254449 3.21658254 20.7681866
0.924188852 3.3298924 21.9403267
3.11111474 -0.777778685 27.1111088
1.03668141 -1.39409995 27.6935387
3.40000153 -1.13333488 2.40000081
2.51253319 -2.32228255 26.4587612
0.0351844206 -2.38475871 28.4173775
1.624596 -0.399387032 2.90938163
-0.280243307 -3.3648169 36.1141968
0.35895139 -2.56927347 36.2057686
-1.29788351 -3.24632263 36.0580254
0.32271862 3.49962258 42.1924133
0.754819691 3.0925169 40.2202377
1.60860169 -0.102351218 31.8435192
-1.40865636 3.36959624 31.3636703
-1.66666591 4.26362085 30.6874981
-1.32748735 3.3395586 30.3234158
-2.22222114 3.12499976 30.9027786
-1.56568933 3.38636971 32.5056038
-1.66666591 4.26708555 31.682291
-2.24747014 3.12835073 31.8589573
-2.07936478 1.44444573 39.6814842
3.83644795 -1.44156039 0.898377717
-1.04762089 2.1111095 39.4518509
-2.3601687 1.62636328 40.6544685
0.866666138 -3.35555601 2.41111135
-0.411108851 -3.35555601 2.41111135
0.167715892 -3.12835073 1.55572045
0.3381809 1.37153673 48.4069939
-0.74731338 0.692204118 49.2450333
-0.474829733 0.374597371 48.4037476
0.273810744 0.476188451 49.2261887
-0.312501252 1.66666281 49.2636261
-0.193078816 1.02424705 47.6221161
-0.911111474 1.33332765 48.3333282
2.47880244 -1.71524441 0.79699564
0.740104854 1.05264413 47.5617371
1.45300984 1.36664033 48.3112488
0.695770383 0.369048417 48.4412689
0.833334565 1.66666281 49.1666641
-2.35345411 -3.14173532 36.0439987
-3.89494276 -0.0502349511 30.0995216
-4.04444408 0.899997771 30.6555614
-3.28474379 1.08902252 30.049263
-3.33333492 1.04166663 32.0416679
-2.50419712 2.11167336 30.6885242
-3.40531921 1.8191191 30.8121967
-2.75626493 -0.00653709983 31.2314529
0.353364468 0.87935394 1.76656413
-0.624913812 1.30817378 1.65720391
0.144443303 1.92221773 1.65555382
1.52444279 2.00888491 2.29777956
0.340112895 2.36138177 2.68413663
1.37202454 1.84746552 3.3224225
1.83427095 2.29501605 4.10481882
1.68333495 -0.916666746 0.780633867
2.31996107 -0.789079249 1.79139185
2.67708182 -0.322918177 0.725964844
4.31833744 1.43403196 1.32917702
1.7252686 2.61423182 46.3213272
0.777775526 3.31428432 45.549202
1.75543308 3.44568515 45.6342545
2.36449194 1.05201066 45.9941444
2.58408022 1.43726254 46.973423
0.841569245 1.72580707 46.2331657
2.48796201 3.24433994 46.194603
-3.3953805 2.01638484 45.5970726
-3.334548 3.24205327 45.0900726
-3.48954773 3.38983464 45.9532051
-2.53093457 2.18478489 45.1758232
-3.37795448 2.61142564 46.4358101
-4.21337938 2.61503005 46.0738106
-4.21177053 1.78751671 45.9703903
-2.3555572 1.32698691 45.7460327
-2.30343151 2.11112213 46.2910576
-3.60198641 1.17321944 45.9750404
-3.357656 1.08273888 44.9445915
-3.35138178 2.43633032 44.377636
-0.736665308 -0.189541057 47.4536972
-1.37391853 -1.28621876 48.2877159
-2.28067517 -0.405420542 47.3158112
-0.978417635 -1.463943 46.7220879
-1.66666591 1.66666913 1.66667068
-0.690557182 -0.0467763692 1.66420341
0.326702982 -0.828992307 1.79886317
2.16616178 0.244913206 1.74180925
1.22647274 -0.491786927 1.81113923
2.1540947 1.2197392 2.71875739
1.0210861 0.509165347 1.29855657
3.00242281 -2.10181689 1.58577085
0.448798507 3.00648952 43.0452347
-0.441336602 4.18719006 42.5895309
-1.21794975 2.4018774 43.8660698
-1.49783838 3.26283002 42.9784317
-0.495891601 4.14929104 43.6773376
-1.21197641 3.20524406 44.4525833
2.48679018 -0.272689551 22.6946774
2.57911396 -1.68661928 21.1643372
2.27672243 -1.33631432 22.9445896
-1.10493779 -2.50617337 25.8124313
-2.41283917 -2.09406686 24.931572
-2.31171989 -3.17056632 25.9519405
-1.03605747 -3.33261299 24.9576073
-2.31932759 -2.62087989 26.671299
-1.55555737 -2.33333302 27.244442
2.48289442 3.37445474 24.5465622
-0.518214047 1.93864918 45.9547119
-0.000152025576 2.44738388 45.1650581
-1.47222209 1.66030931 46.4821396
-0.331814826 2.02501249 47.3409309
-1.08518398 2.80952144 46.4892845
-0.722758114 3.3020463 45.5747185
0.214812145 2.65396762 46.4772415
2.34648943 0.94358474 21.5402241
-0.183836937 0.864145041 19.9490509
1.50415373 -2.77654767 21.2419662
-1.84639502 0.956316888 19.0716801
-3.08196712 0.172973439 18.3784561
-1.95952415 1.87223935 18.5944061
-2.19702625 2.40836382 19.3683739
-1.24570072 1.72244978 19.6769676
2.0795579 -0.681435645 41.2428551
-0.664234579 4.2759223 31.6711807
-1.2407726 2.49790692 30.8633289
-2.35358405 -0.535741329 2.57130194
-2.30480599 0.0846845806 1.85904312
4.29891586 -0.35467568 18.639452
0.592329681 -4.40609407 49.2884178
2.09102941 -0.685546696 24.4501324
2.62738848 -1.99934542 23.816227
0.551713526 1.26308548 18.9096432
1.05218172 -2.0436101 23.1101322
2.00561023 -2.47690535 22.9598522
1.6770829 -4.2740407 47.6770859
1.9977175 0.826765776 15.5446959
0.691494703 2.25220203 20.8395214
2.59686303 0.866317749 17.1837482
3.21611381 -0.730695128 17.9318962
3.10925889 0.692026794 18.1675644
2.05511975 1.46107352 17.8781471
1.41356552 1.70337689 19.7105999
3.33333182 1.04166663 33.9583359
4.21936846 1.76666391 33.7666702
4.16666651 1.66666281 34.8333359
-1.66666591 1.32812083 49.2757378
-1.04071009 1.81574917 49.1497879
-0.398877114 -0.332983524 49.2439575
-3.32401705 1.36915505 22.1505146
-2.36772871 1.17510068 22.1347141
-3.17234302 0.843805313 22.9599113
-1.25738144 -0.38352254 48.4160118
-1.53199983 0.751753807 48.2657089
-1.66666591 0.312501252 49.2636185
1.66666913 0.0 6.63809395
2.5723424 -0.141364783 9.8713932
2.08335853 -3.64300489 49.2984581
2.13246918 -2.62528849 49.2652512
0.734505236 -3.47469974 49.2600822
2.55955958 1.49667287 9.47139168
-0.291398197 2.08277583 19.9869499
-4.17213297 0.547703803 18.9894505
-4.24363899 -0.53753078 18.9012566
-3.22065568 -0.259932071 19.1824436
-2.73691964 -1.73667693 45.6978149
-2.33259177 -2.51851916 45.4629593
-1.15777612 -2.51999807 45.8855515
-2.4680562 -2.56333184 46.6158333
-2.21853137 -1.75270927 16.6159439
-3.29826474 -1.05873775 15.9124842
-3.12616849 -0.796043932 14.7031364
-4.10775328 -1.62548602 15.2129955
-4.2555728 -0.461150587 14.8569927
-2.27473021 -0.75944376 16.430603
-3.32297206 -1.99890518 14.538518
-3.0488255 1.73485887 12.24366
-3.22569466 1.58980751 39.6674614
-3.2976408 2.61387706 39.0364914
-3.34933567 1.78123939 38.5653992
-2.51068974 3.3296833 38.9548149
-1.48888791 3.11111474 39.3111115
-1.59675956 -1.59076715 6.78939104
-2.76155734 -1.9222368 7.12551308
-2.40857601 -3.0916903 6.88260794
3.19001603 -1.63646984 41.3266296
3.35555291 -2.58888793 41.9222221
4.16420889 -1.80653584 41.7803993
0.511116326 -4.17777681 42.3777771
-3.27664542 -1.81874216 36.7006493
-3.29405546 -1.02236247 37.2329102
2.74864793 2.5175879 24.7060528
1.26790595 -3.3648169 44.123455
0.377777219 -4.25254822 45.2333298
3.35555291 -2.58888793 40.9222221
3.38931537 -2.58732963 42.9172592
1.57777846 -3.35999966 46.4177742
2.32222247 -3.15000176 45.7222214
-0.819763124 -2.33080864 29.2473164
-1.61358047 -2.7259264 30.0218678
-0.744073391 -3.37781191 30.2713547
-0.12891452 -2.60255766 30.1321373
4.29051638 3.60328484 31.8567333
-1.57492483 -3.06615639 28.9331551
0.472862899 -2.49158835 29.2186394
-0.133133233 3.43162274 17.4589138
-1.23764336 3.2590611 16.5665226
3.12533545 -0.813865781 12.3424931
-1.54457355 -0.0406256691 29.0275116
4.02777815 0.833334565 31.3611107
4.3632226 0.585368156 32.5537453
3.98603463 -0.0833321884 31.833334
1.13186216 -3.32620239 22.0480556
0.69857657 3.44236588 34.1547852
-1.97930658 0.599918246 16.8570118
-0.910189807 2.63787818 17.9518375
-0.291398197 2.08277583 18.5115032
0.643669963 2.58219886 18.0371647
1.44678938 1.9685539 17.1779175
4.38873768 4.58333683 33.5833321
4.31701326 4.3280921 32.3424416
-4.26778889 2.65833187 30.3166637
-1.27777815 -2.33333302 23.6865082
-1.16666651 -1.61111319 22.8931179
-2.63392878 -1.26676893 9.40063667
-2.76473403 -0.00139356777 25.0930958
-3.35255051 -1.02853227 25.0331192
2.45809531 -3.42313457 22.9059181
3.1073966 -2.18018937 22.7696457
-1.93184924 -3.35703826 45.2059212
-2.47407389 -2.10000229 42.6592598
-2.6259284 -1.04999948 43.7740746
3.33394003 -0.995539486 24.9594193
2.8491621 0.0210270379 23.9123306
2.74158502 -0.12330541 25.0072174
-3.40000153 -3.13333583 44.3999977
-3.37222195 -1.78055525 43.6638908
-3.3777771 -2.51111102 43.0444412
-3.36666656 -1.04999948 44.283329
-3.38333249 -2.09166622 44.8416634
-1.53855586 2.32886076 45.6033287
-2.66296244 0.822224021 46.663887
-2.09656262 -0.148807704 45.3095207
3.17756891 -0.752114892 11.0216055
0.667012215 4.27048111 37.3327522
0.655559659 4.23318386 36.3722229
1.66874683 4.27626419 37.3312492
1.69272876 4.15232515 31.1900501
-1.9934386 -3.30725312 14.9538107
0.513010323 -4.16776848 35.4589844
3.56652641 4.25821733 47.9694366
0.74074465 -3.47222304 36.1574059
2.26896286 -2.50131798 37.8811073
3.18688059 -1.68514967 37.823288
3.31511402 -4.22944021 11.3641481
2.58539772 -4.18839979 11.0013866
2.2685194 -0.868056536 37.6226845
-0.613106489 -1.31805861 1.70184875
1.62695241 0.0262972582 24.9067822
-1.03737819 -3.18366575 6.94893885
-0.792252779 -3.14920044 7.88225555
-0.574995577 -4.2442565 6.01250219
-3.11111164 -0.777778685 13.711113
2.1585288 -1.01650953 26.0740986
2.36710167 0.86653316 30.3176327
3.39285612 1.05541229 30.6946125
2.77777982 0.0 30.7777767
2.18681836 0.697506011 29.4298477
2.77777982 0.0 29.9206371
-3.18889165 -1.9405812 23.2454987
-2.33762121 -1.56104302 23.0603752
-3.11111164 -0.777778685 23.8888893
-3.25100684 -1.64345038 24.1529617
-4.26362085 -1.37499857 23.291666
-4.26773167 -2.3658886 23.32164
-4.21722126 -1.65630603 24.1675587
-2.46214938 -2.46287465 23.5394173
-3.13034606 -2.21577907 22.4187794
-0.784097254 2.96287727 23.4650898
-2.50553679 3.44006014 24.8972149
-1.73350966 4.2295351 23.7129917
-3.28391409 2.56566596 25.0593128
-2.45737004 1.75451458 26.4117603
-0.798178613 2.85222793 24.3686829
-2.49144578 2.12217569 23.8362064
1.55947208 2.31106758 28.6501713
3.0457437 2.21470857 27.9055882
1.65566623 3.2583642 28.1858482
0.701433361 3.10014367 28.3011398
3.38748455 -4.2915616 13.3065786
3.54936028 -3.9865098 12.2715473
-2.25598049 -0.88931483 31.2334347
2.59999847 -4.20000124 15.0999994
2.53333521 -4.21936846 14.0833311
2.22222114 -3.12499976 26.0972195
-3.39346743 1.67211032 4.5627799
-4.10359144 0.525742471 4.22764301
3.64115834 3.50971317 0.74671638
4.33602285 3.70310879 1.70713794
2.40740728 -2.08333325 25.3240738
2.22222114 -3.12499976 25.0972195
-4.23873615 -1.56666481 14.166667
-2.41632318 -2.0820694 29.786665
-2.24016976 -0.86166513 44.7815933
-3.1006155 -2.21367288 17.4041462
-1.92134356 -2.64872909 17.9252014
-3.09784412 -2.20644236 18.4051781
0.499879122 0.64144659 46.7175903
-1.64444482 -3.24444437 13.8111105
-0.037236765 2.54205132 28.8656368
0.0467383638 2.80212283 27.7002277
1.64282644 4.20861912 32.3540649
2.33333302 1.55555737 7.400002
0.90188539 1.89705753 7.97253942
0.457007885 2.51735997 37.6192131
-2.07908273 2.34887767 11.2256403
-1.04658842 2.53750324 11.1000481
-0.836571455 1.95373774 10.0522785
2.32222247 3.14999533 36.1222229
-4.31930637 -4.31429577 43.5097656
-4.30278635 -4.32285357 44.40308
1.54983115 -3.45900011 37.8059006
0.389419854 -4.26897001 37.586319
0.362238944 -4.32034826 38.3739815
1.64142013 -4.06341887 37.1380119
0.746584952 -3.44575167 37.1001701
2.5360527 -3.30822229 37.3336372
-4.42764378 -4.53516388 45.5161438
2.33798862 -4.27026224 38.3253708
1.63917148 -3.25787973 38.7223549
1.46010435 -4.25622511 38.257206
-1.80871797 -4.12119818 14.9517517
2.92632771 -3.09696054 12.1056623
2.2188766 -3.1197772 13.3452501
3.28268194 -2.29953265 12.9468956
2.16523075 -3.51104665 11.6940908
1.88929152 4.26263237 3.375036
1.41100013 3.35921431 3.51282811
1.99999785 4.1999979 2.40000081
2.72814345 3.71730423 2.89998126
0.271606356 3.23148108 38.3253098
-0.75051862 3.12119913 38.6985245
3.33984351 0.576575994 0.722138882
1.07225537 -2.35407186 48.3721581
0.644531429 -0.309764773 47.7037392
1.48402297 2.7111609 2.85590982
1.97975945 3.43228793 1.6447283
0.866666138 3.35555291 2.41111135
-4.20563269 1.67404866 21.2373219
0.55192256 -2.56142831 47.099678
2.61719012 2.24055934 46.3033257
1.22222233 1.99364448 47.3904724
1.92450452 2.74647522 47.2024879
0.920628905 3.34088874 46.5413513
2.46785021 2.3039794 16.9496479
2.72796607 1.95407975 15.2661095
3.54058695 1.27309382 3.86815619
3.44596386 2.60988641 4.0375824
4.15157795 1.80315006 4.04102516
-2.72668958 -0.247576818 20.6620827
-2.55975294 0.436104387 21.3980923
1.66328657 0.124781325 0.865894914
2.74857187 2.23535872 3.22039747
2.32222247 3.15000176 4.39999866
-2.49893951 -1.44470859 20.9868374
1.98910272 2.48024035 1.5963335
0.965356112 2.52920532 1.61041796
3.46630359 2.56387329 2.29321241
3.50282145 3.25451303 3.48495674
4.20647192 2.63635159 3.64872003
4.26724386 3.5181632 2.95564485
-2.03737092 2.09430432 10.0900755
-3.23497128 1.22214627 9.54284
-2.02316904 2.42555547 9.10296059
1.25000501 2.60416651 6.09821606
2.22976542 3.15015364 6.35233355
-1.75109708 -3.14541245 36.9841576
-1.36944962 -3.15188289 37.8893127
-2.58888793 -3.35555601 37.5888824
-2.31827617 -3.17312217 34.9083557
-2.66291499 -1.06655765 35.4370995
-0.183409363 -2.66720653 37.1464882
1.73410511 0.998155594 47.3755569
1.60491502 -0.0654026717 48.0088882
-0.961279929 2.49980736 1.58709478
0.324777305 2.34951735 0.728036225
-0.833331406 1.66666913 0.833336115
1.38888669 -1.73610997 15.5392866
2.40741372 -2.08333325 15.0740757
0.972222567 -2.3437531 14.6969252
1.33760977 -2.58981919 15.9251747
3.34912992 -2.52748537 44.4897232
3.1357429 -3.37931967 45.0648346
2.50737691 -3.3263166 43.3718147
1.99999785 4.1999979 46.7999992
1.79879832 4.12575245 46.0349731
2.59569097 4.15777922 46.020401
2.56578636 3.36886144 45.0849037
3.40000153 2.59999847 45.8666687
2.77717161 3.36391425 47.1427841
-1.55555737 2.33333302 7.37777758
-0.786390305 3.14400935 7.86830091
-1.30123448 3.25740147 5.80432224
-0.66869086 3.68347836 6.69383049
0.78652966 -3.51644659 34.3240395
0.736513257 -3.45684314 32.3966599
-0.188907623 -2.85045123 32.2252617
0.488553196 -4.16148806 33.3770218
-1.89814699 -0.868056536 43.1405411
-2.10714412 -0.694443345 41.6111145
0.710263491 2.16486335 7.06332541
-2.44415951 3.32698488 34.583725
3.22425985 0.815984607 26.9392262
2.77777982 0.0 26.7777748
3.10944247 2.16633272 26.8406372
-0.705506384 -2.33797598 21.9652309
-0.746629298 -3.11933374 23.2004757
-1.04166663 -3.33333492 21.875
2.33790636 -1.28921807 18.4070969
1.64282644 -2.22235751 18.514101
0.934710264 -2.09435201 19.3561363
2.13373613 -2.36485934 19.528616
2.39262915 -1.47010005 19.3528728
2.65630484 -0.685679734 19.8428955
-4.31489134 -0.575812697 0.624307275
0.296285182 3.33965993 44.5519791
-0.32812503 3.6562531 49.2757568
-0.53385365 4.32019949 49.3088531
-1.29790568 3.60649657 49.1714516
0.626478434 4.10757923 43.4295731
0.0 -2.77777982 22.9841251
-2.47643328 2.48297668 28.3110161
-2.3930316 3.31617188 28.0196209
-3.47500062 3.42500329 28.4750061
-3.3727541 2.58589172 28.0179482
-1.58639956 3.15251637 27.2439423
-2.78518462 2.59907365 27.0953693
2.68036294 0.0690069422 25.7909126
1.92000711 0.510717273 25.7968674
-1.41011643 2.30290246 47.4286613
-1.36625075 0.971126735 47.3133659
2.08333325 0.694446504 23.6349182
-2.58888793 -3.35555601 22.8666668
-2.58888793 -3.35555601 21.922224
-3.12913942 -2.20655322 20.408556
-3.27662945 -0.943689287 19.8485146
-2.35051823 -0.219518602 19.6454601
3.20934224 2.96489143 1.47609079
0.74577415 -3.17839551 23.3674603
-1.68333173 -3.23333383 23.044445
-1.81527722 -3.34444547 21.398613
2.23509264 -3.18533492 24.0330029
3.55849433 -0.948645949 21.3345909
4.22824955 0.572110236 21.637907
4.25532913 -0.41111201 21.7027779
4.25932598 0.617603898 22.7004261
3.35586333 1.16117775 21.7543831
-1.30123448 -3.25740767 43.0265427
-0.644442737 -4.18889046 42.5888863
-0.433944345 -4.29321814 41.609642
-1.89739645 2.55536628 17.4153557
-1.79999864 -4.20000124 41.7999992
-1.79999864 -4.20000124 40.7999992
2.61017156 -2.60702014 47.4640579
3.30019021 -0.955373108 46.2489014
-3.36458254 1.68228972 49.2723198
-2.60502791 1.94960773 49.2019768
4.29535627 0.653507292 43.5945396
-3.36666656 -1.04999948 34.3833351
-2.77897048 -0.00319253723 34.2097015
-4.16850328 -1.66076541 34.1054001
4.30529451 4.3541646 30.3541641
3.84278226 4.33229208 31.398035
-3.41653419 -2.50726295 34.5574226
-3.32677579 -3.30729437 33.95961
0.114696965 -2.87283993 21.6369953
-1.04166663 -3.33333492 20.8750019
-3.1862123 2.27040076 11.4572697
-2.39406395 2.56429148 12.6119547
-3.35625911 -0.956639946 17.0044403
-4.1729598 -1.63841772 18.1831894
1.31241786 2.2563827 11.77209
0.0 1.66666913 10.7174597
1.65716755 3.22565341 19.1904182
2.55578446 2.96969938 19.7614613
2.40120602 2.4465034 37.7201004
2.32222247 3.14999533 37.1222229
2.642591 1.92222404 36.500927
1.5500021 3.13055515 38.0944443
1.30123758 3.25740147 37.0290108
4.43047523 4.48722506 0.672774911
-4.286304 -3.42819262 18.3805599
3.17006898 1.57578945 15.9502277
2.28779483 1.96841455 20.8020229
2.9133296 0.649814308 3.68641281
3.46591091 0.917772114 2.47341967
4.20346928 0.745748818 3.24273562
3.63135266 0.0208876804 3.84725904
4.30312204 0.641465604 4.61032915
4.19735003 1.60355949 3.28710175
3.88889027 0.0 13.999999
3.52837443 -0.054051429 12.7916336
3.8594923 -0.836416245 13.2247381
4.27495909 0.667303622 12.0114155
3.11136174 -0.750946164 13.8179007
3.04088521 0.711353004 13.6343937
1.66350818 4.25089502 29.3239555
2.23272371 3.11094379 30.1315098
2.29837966 3.14004397 29.1388893
-1.57777846 -1.24444652 1.65556014
-1.98666716 -1.89037156 2.27555847
-0.622221708 -2.51111102 1.62222528
0.464305133 3.08997059 20.0774174
0.87548995 4.02816486 21.156189
0.79551816 4.14209509 20.2438202
-2.34374976 -4.31581926 0.680689752
-0.156516671 2.87884498 20.931406
-0.0674550161 3.83778429 21.0492954
3.14953923 0.177540541 11.294755
3.26165175 -0.000538423948 10.4768353
2.67010117 -1.71207726 4.31997919
2.21896529 -3.08396864 5.13029814
2.50842834 -2.06522942 5.06870556
2.31271458 -3.14791775 4.27642393
0.669387639 2.63902473 19.1525803
-1.99428105 0.633839011 26.6738834
-2.10705543 0.718042135 28.0579319
-2.0776577 -2.41473937 9.32048035
-3.1092968 -1.46350908 8.15691471
-1.95736098 2.24332118 44.6307831
-2.2651937 0.906927586 44.5976486
-2.20547318 1.23963559 47.5064735
-3.20470881 -2.20543194 19.4496593
-2.08480597 -2.64894128 19.2699718
-2.53984714 -3.33475709 18.5526848
-4.29840946 -0.282267153 47.0096664
-2.7596221 -2.01211882 41.3214417
0.909455001 -3.42838597 30.036665
0.322085202 -3.67567134 29.0350494
-0.720439732 -3.62549329 29.0865746
-1.12469471 0.860160708 29.6239204
4.30616236 1.83354247 2.48366237
-3.66666698 -4.33333397 44.6666641
-0.00835190527 2.72122622 21.9072132
3.49910307 -0.0300028808 19.843977
-2.2685194 0.868053377 42.1273155
-3.38343692 1.02336013 42.2882538
-3.39783192 1.82396495 41.8559189
-3.11111164 0.777775526 40.8888893
2.77777982 0.0 40.920639
3.11273003 -0.713769615 40.6959267
1.66874683 4.27626419 41.3312531
-2.59499431 1.01544213 43.34758
-2.38288069 2.1131618 43.6702881
0.370372325 3.12499976 7.08664227
0.0166531354 2.69871378 8.03830624
0.823820293 3.17454123 7.97221994
1.48344028 3.10482478 7.23972273
1.73187542 -4.27478838 2.28395152
2.84676123 1.39306736 23.5808125
3.13530588 1.68258739 24.5641212
-0.777778685 3.11111474 40.2222252
3.12237096 2.21550035 22.8521957
4.16666651 1.66666913 23.833334
3.37778044 2.51111412 23.622221
4.26362705 1.66666913 22.6874981
2.44642091 0.783007741 24.5537128
-0.707213521 -3.4330163 31.2219887
0.163959593 -2.63932562 31.4664268
0.694446504 -2.08333635 9.3730154
-3.19272399 1.20475209 21.141695
-4.07157421 0.544992685 21.170454
-3.15493941 0.497940779 20.1213856
-2.12697077 0.632280707 22.8352509
2.07055044 -3.07831836 29.4019451
3.19068742 -1.68489003 29.7205849
1.2588352 -2.62534237 31.0029449
-0.429488093 -2.438411 47.1504745
-0.223911509 -1.50770736 47.8820534
-2.80408955 -0.971025407 46.3416176
-1.53333318 -2.68444562 47.071106
2.52900243 2.25906849 47.7376633
3.45128465 1.31528091 45.6808624
3.61646056 1.62594521 46.605114
2.34028172 1.18806088 48.3467216
3.1438067 1.08076882 48.3702011
2.22059321 0.297057986 46.6703835
-3.14170361 -2.19030547 28.1595345
-4.23888159 -2.51106358 28.2513523
-3.47299266 -3.15315628 28.0945053
-4.16933012 -2.55846381 29.1587296
-4.08522177 1.66894317 13.143281
-1.705423 3.23333693 45.7075386
-2.38015366 2.90003991 46.9177246
-1.62224281 3.61731553 46.7770996
-2.22757697 3.1083529 44.8275108
-2.5148294 3.4127779 46.022789
-2.74759316 4.2305932 45.6896095
-1.67588246 4.1595974 44.8732224
-3.39264727 3.19429803 13.4207563
3.41621113 3.42048693 32.5149269
2.6473608 4.27037334 33.3406296
3.66666698 4.33333731 33.3333321
3.48075223 4.30671978 32.5092545
-2.4555583 -1.64629769 38.6574097
-2.50674033 -1.71963096 37.765873
-3.16461515 -2.22343421 38.3870125
-2.01892829 -2.64832044 39.0028305
-3.13472319 -0.846852183 39.170475
-2.00343108 -0.790726185 38.3179855
-2.925596 0.621379197 47.6065407
-3.32021022 0.0289767087 46.5804672
-4.18954611 0.736684263 46.7757072
-3.3843143 -0.226942524 48.4244423
-2.21059442 0.184159979 48.1822395
-3.36785436 1.27692616 48.5029716
-3.3220787 -0.0774760395 47.5740013
-4.23522997 0.237229586 47.802227
-3.40000153 3.13332963 12.0666676
3.5745647 -4.183671 2.57043409
-2.3857882 1.99268162 7.82573366
-2.07516503 0.701598048 13.6177654
2.2070694 -2.49668765 21.8656197
3.2403872 -2.24315643 21.8843918
3.50000262 -2.43333411 47.5666695
2.39999604 -3.40000153 46.8000069
2.67473173 -2.72280025 48.3548203
3.25000286 -3.41666722 47.75
1.8938967 -3.40564537 47.6250992
3.43333292 -3.23333383 46.7666664
-2.35907912 1.8329978 35.2048378
-1.61055899 2.66599035 35.8734016
-2.24407482 0.865196586 35.2616959
-1.67276907 -0.0428490415 35.0095787
-2.5647285 3.33964729 11.9615231
-2.43561459 3.36509895 11.0052786
-1.70635724 2.95276761 12.0286198
-1.01124251 3.41238523 11.6537819
-3.64049006 -4.31105566 14.4289808
2.60008717 0.365646869 2.82959032
-0.664234579 4.2759223 29.6711826
3.6941328 0.325961858 8.86144924
2.77777982 0.0 7.77777576
2.2685194 -0.868056536 15.0532417
1.31254447 3.30945754 44.706974
0.200236693 4.21466208 44.3621979
0.862466455 4.1347599 45.016037
1.77145278 4.17953777 44.2047119
0.85456115 -3.14616299 13.575819
2.23395896 -3.09890199 14.3580542
0.715052307 -3.34092689 14.8305178
2.19641495 -3.10938239 15.2614756
-0.333331913 -2.51111102 48.3777771
0.299997151 -3.40000153 48.3999977
0.917829096 -3.39092731 47.5344086
-0.2054784 -4.12310791 47.5460701
0.434824824 -3.36725879 46.5135269
-2.65105057 4.14311504 46.7174683
-3.08714867 4.19384718 47.5491371
-2.10619712 3.68836856 47.9824562
3.33333182 1.04166663 37.9583321
2.77777982 0.0 37.7777748
-0.066666387 3.66666698 2.40000081
0.0666695535 3.13332963 1.6000011
2.33333302 1.55555737 39.3481407
3.11111474 0.777775526 38.9333267
3.11111474 0.777775526 39.8222198
-4.28394461 -0.438539952 29.3568497
3.09425902 -0.84098649 39.1681061
2.03790283 -0.704730392 39.0329056
2.77777982 0.0 38.7777748
1.66666281 4.26362705 38.3125
-3.42606115 3.29311466 48.3418732
-4.05030012 3.57353854 47.1617622
-4.26362085 -1.37499857 45.2916641
-3.28876305 -0.791473687 45.3746185
-4.11735296 -1.7495389 45.9828606
4.24983692 0.585304797 2.24268603
-2.30759311 3.13147998 43.9637985
-4.29707575 -2.5479455 31.8964386
2.59999847 -4.20000124 7.19999933
-4.32034826 -0.626016021 36.6397934
-3.36666656 -1.04999948 36.0833359
-4.24977064 -1.41666615 37.2916679
-4.22207022 -1.49999833 36.25
4.29298687 0.653342605 44.6045036
1.79999554 1.80000186 0.800001323
-3.66888404 -4.32855797 15.6449127
4.24684715 -0.555343091 23.1659164
-0.018515449 -3.29166746 7.03426313
0.00942241866 -2.80722833 8.28586483
0.777775526 -3.11111164 7.86666632
-4.38873768 -3.41666722 49.4166641
2.47037768 -1.91018558 16.1722221
2.0040772 -0.833923638 16.310873
3.50000262 -4.25000191 45.2499962
4.31842613 -4.31583214 45.5130196
4.1999979 -0.799999774 3.20000052
3.34444237 -2.0819428 15.3652773
3.29967713 -0.936597943 16.9073181
2.51761317 -1.76722765 17.3015289
3.36766434 -1.10577393 15.9158669
3.37024236 -2.39508057 16.520649
3.05556202 -0.520833313 35.7430573
3.33333826 -1.04166663 36.7083321
4.2740345 2.67708182 44.6770821
4.16666651 1.66666913 44.8333321
-4.33333397 -3.66666698 47.6666641
-4.27407265 2.66742182 43.3334923
-4.38186502 2.60416651 49.3748894
-4.27700233 -3.49230003 44.3181877
2.86650562 -0.0417341888 18.9605427
-0.833331406 -1.66666591 0.833336115
0.293447375 -0.643258214 0.782458186
0.124508947 -1.70672786 0.870629847
-3.64583302 4.3541646 0.69471091
-4.4197793 4.44660902 0.612338424
-3.66666698 3.66666698 0.666668534
-4.33333397 3.66666698 1.33333242
2.32222247 3.14999533 43.1222229
-3.66666698 4.33333731 46.6666679
-4.31756115 4.32061148 46.5091248
-4.37193918 0.535826802 38.594101
3.25657153 1.85335648 20.8576679
3.39369869 2.7812953 20.2907162
3.40000153 3.13332963 21.6000023
4.26778889 2.65833187 20.6833344
4.16356277 1.70005774 19.9040966
4.26861858 2.65705872 21.6770382
4.31658268 -0.639524102 39.3607941
4.27053165 -1.48756075 38.9441223
-4.27232742 -3.36458588 36.3177071
3.62796378 0.881951034 20.6775322
3.10857463 1.37016857 19.585556
-2.31680012 -3.19661641 24.8619289
-3.44430113 -2.51993799 24.337326
-1.56399477 -3.05237603 24.1097412
-4.27704668 -3.33593845 35.3320312
4.25686836 2.72916317 45.7291679
4.33354616 3.66069365 46.6893501
4.33333731 3.66666698 45.6666679
-4.25805616 -3.5713532 34.3309441
1.66874683 4.27626419 36.3312531
1.35936844 -4.23936319 36.3009224
2.62660933 4.28234529 47.0746155
-3.2572937 -3.39227033 3.62846565
-4.33600378 -3.67888594 3.31787419
-4.2568779 -3.43756437 4.2678566
-4.25000191 -2.75000024 3.25000119
0.377777219 -4.25255156 25.2611103
0.0218378417 -3.72699904 24.1026688
-0.703707397 -4.20837212 25.1689644
-4.34377003 -4.33799601 3.40968513
4.32019329 4.30885458 27.5338554
-4.30885458 4.32019329 18.5338554
-1.51092839 -4.17321634 23.8198986
-0.750775158 -4.1490345 23.4847488
-1.82587159 -4.1495986 24.7265091
-1.75747907 -4.17073011 25.8040371
0.678426802 -4.30482578 48.6196365
-1.72916746 -3.54166698 49.2568665
-3.93189764 -4.27815199 18.4157124
3.34764123 -0.85440594 22.3932171
-0.466664702 4.202703 16.0500011
2.59999847 -4.20000124 6.20000076
2.96296597 0.694446504 36.8796272
2.96296597 0.694446504 35.8796272
-3.01347327 1.14057195 19.0349751
-4.18005753 0.674942911 3.31319952
1.34374774 4.31931257 0.684180021
-4.31230354 4.3349905 48.5677147
3.66666698 0.333335072 49.3333359
3.4161098 -4.25994349 41.2992592
3.48835373 -4.19283056 42.509964
0.74074465 -3.47222304 43.3240738
-0.372221977 -4.26640129 44.6916656
4.32019949 4.30885458 42.5338593
-2.6252346 2.27136993 41.6842613
-2.28585982 3.07787824 42.0781021
-2.93464804 1.75847352 42.7857437
3.66666698 4.33333731 34.3333397
3.66666698 4.33333731 35.3333359
4.30885458 4.32019949 34.4661446
-1.42395711 -4.27626085 33.8510437
-0.663886189 4.26639509 5.65694618
4.16666651 1.66666913 37.8333359
4.10270166 -0.841667473 37.3416634
4.1999979 -1.79999864 37.7999954
4.1999979 -1.79999864 36.7999992
-4.33333397 3.66666698 35.3333359
-4.16666651 1.66666281 44.1666641
1.03096151 3.37022972 11.8744221
1.10395908 3.28850341 12.8525734
-4.23873901 -2.46666884 13.2666655
3.10716844 1.06752992 11.7661352
3.14999533 2.32222247 11.8222237
1.04166663 3.33333826 10.874999
0.0 2.77777982 10.9206324
-4.27745485 0.647837996 29.4009132
-4.26778889 2.65833187 28.3166656
-4.33333397 3.66666698 27.3333321
-4.20000124 2.59999847 27.2000008
-4.26778889 2.65833187 4.3166666
-4.33333397 3.66666698 24.3333321
-4.26883698 0.485214978 17.766592
3.97425914 0.842050672 23.867609
3.86165881 -0.0152944066 23.9272594
-4.35748053 0.592595696 15.448451
-4.26779175 -2.36666775 12.3166676
-4.20339012 1.70700026 17.3005276
2.56547594 4.16214371 19.2268925
-4.24852562 -0.364351481 9.58555031
-4.25687122 3.54167032 21.270834
-0.139740005 -2.94910622 23.9724083
-2.84325218 0.00789582822 28.3171101
-3.11111164 0.777775526 28.8666687
-3.82633185 -0.0086211171 28.1226616
-3.83815169 0.0374869741 29.0863266
-4.26778889 2.65833187 22.3166656
-4.25687122 3.54167032 22.270834
-4.31330156 0.642289042 25.3911552
-4.26779175 1.68333495 32.3166618
-4.16666651 1.66666281 33.1666603
-4.30885458 4.32019329 13.5338535
-2.65984583 -0.668608487 0.726959348
-0.67708075 -3.64583302 0.725961685
-1.68230557 -3.49789953 1.78901005
-4.28074598 1.73182476 3.33212042
-4.24977064 -1.41666615 13.25
4.32019329 4.30885458 20.5338554
-4.27754068 -2.33889771 15.3268623
-4.29388952 -2.51185203 16.1846867
-1.39583242 4.01299381 0.713365734
-0.842459261 -3.08346844 38.6655846
3.66666698 4.33333731 17.333334
4.32019949 4.30885458 16.5338535
3.66666698 4.33333731 16.3333321
-0.0113797477 -3.82692409 13.0851345
-0.646339893 -4.298913 12.3615656
-0.024267083 -3.90105867 12.1197186
1.6457783 -4.17794466 17.0492516
4.29966354 0.376694053 9.9072237
-3.45553517 -4.29372835 3.59336042
4.22207355 1.66666913 10.749999
-4.15518856 -0.168514013 3.36334896
2.67968512 4.25717878 4.30679417
4.1978507 -1.74773037 9.76201057
4.33333731 1.66666281 48.6666641
-0.015874004 2.77777982 39.2222214
-3.80477262 -0.625357211 45.9258766
-0.773845017 4.18483353 45.2574539
-4.22207022 -1.49999833 42.25
1.38559282 -4.32128906 49.3539848
4.25686836 -1.89583504 47.7291679
4.26640129 -0.372221977 10.68472
3.12221909 3.35555291 43.4111137
2.59999847 4.1999979 44.2000008
3.66666698 4.33333731 44.3333321
3.66666698 4.33333731 43.3333359
-0.634576917 -4.27881718 38.2720985
-3.47500062 3.42500329 37.4750023
-2.6679697 4.27704954 36.6679688
-3.66666698 4.33333731 36.6666641
-3.66666698 4.33333731 37.6666641
4.28202868 -4.35139656 29.6150284
-4.2365346 0.768571675 40.3278961
-4.32552052 0.467852384 39.6915627
-3.86371732 -0.0627517253 40.1299896
-4.26571751 -3.42378712 20.1487522
2.67708182 4.2740345 37.3229141
-4.31930971 -4.31581926 36.5104141
-4.47189283 -4.47187662 37.4932404
-2.62127256 3.27606249 33.4476547
4.25000191 3.50000262 33.7500038
3.14999533 -2.32222247 10.5722218
0.708337843 -4.0902009 27.8958397
-0.610205352 4.3203454 39.6397896
-1.66666591 4.16666651 39.8333321
1.67918587 4.25432825 13.3224182
-2.65833187 4.26778889 27.6833344
-1.53458107 -4.30150032 30.9422493
1.64154685 -3.49344325 20.5211658
2.48670769 -3.31398344 19.6381588
2.66012454 -4.27530146 19.6765842
1.66355896 -4.26936579 19.6857872
0.656009376 -3.1958406 20.8096943
-1.79999864 -4.20000124 21.8000011
-4.2703352 -0.67824626 25.8014984
-4.12658882 -1.7051506 26.1576366
-4.2222476 -1.44116449 25.2045765
1.53713059 -4.24537754 20.955164
2.35820818 -4.19774628 21.1706753
0.810188651 -4.05700541 20.5525036
1.04166663 -3.33333492 19.7916679
2.52397299 3.83714461 49.3514252
1.34346271 4.32113695 49.3138046
-4.3203454 -0.626016021 27.6377583
-2.68337488 0.236520126 0.757354975
-3.17961192 1.06422973 1.58774722
-2.53192258 1.13911498 0.813075542
1.68818069 4.22588015 20.2833233
-3.84742212 -0.0321217366 24.1236458
-4.23873615 -2.46666884 17.2666645
3.03333473 0.824884474 25.3778973
4.29890966 0.646343112 33.6384354
-4.0440259 -0.888332963 31.0648079
4.31842613 -4.31583214 17.5130215
4.3065424 -4.34491634 16.6497097
4.23027658 -3.80379725 40.1104355
4.33333731 -3.66666698 38.6666641
4.31232595 -4.34363365 39.5104179
3.38463426 -4.27933311 39.3668556
1.6066823 -4.24043036 15.6849117
-0.740738273 3.47221994 36.842598
-4.27403784 -3.35416579 8.32291698
-3.38643956 -3.14129496 5.17257357
-3.66508007 -4.31718445 4.5600214
1.66874683 4.27626419 4.33125162
3.5697062 1.18450725 36.3603592
-1.63574457 4.17106247 34.7543983
-1.71537113 4.28408098 33.7233543
3.88889027 0.0 35.8888893
4.40609407 0.461384952 36.4139557
3.88889027 0.0 36.8888893
4.39624405 -0.552780867 6.42739582
-4.15358257 -1.52512062 9.21446514
4.3203516 0.376016259 37.3602066
4.22207355 1.66666913 36.75
3.37778044 2.51111412 35.9555588
-2.7063024 4.20985413 32.7266617
-1.6498735 4.14557266 32.8096542
2.62934566 1.11748934 0.7086941
-0.513887644 4.27055073 32.9965248
-3.36253667 -2.35166144 3.24087644
2.28889084 -1.55555737 38.9185181
3.22638822 -2.40555453 38.4680519
-3.36296415 -1.19259322 4.19259453
3.42500329 -3.47500062 45.875
4.28819799 -0.427337557 4.57266188
-3.33188438 -1.50792587 2.41528249
2.62000251 -4.28385258 48.6343651
2.67708182 -4.27403784 47.6770859
-2.35976315 0.683690727 49.273037
-4.20000124 -2.60000157 46.2000046
-4.29166937 -2.70833564 47.7083321
-3.34113264 -1.26367462 3.28373194
-1.4661442 -4.32019949 49.3088531
3.39195681 -2.56639767 36.627285
-3.1860919 2.3545785 22.3743286
-3.12480021 2.20723414 21.3566151
-2.10210848 2.21752119 22.3046532
-1.57555199 3.1303966 22.9435654
-1.62737048 3.237391 21.9330673
-1.32013941 2.46944022 21.2931767
-2.28883386 1.5816741 22.9847927
1.67499888 2.6624999 49.272625
4.33333731 -3.66666698 47.6666641
4.33333731 -3.66666698 46.6666679
4.33333731 -3.66666698 45.6666679
4.31147099 -4.31758022 46.5182343
-4.33333397 3.66666698 44.3333321
-4.30885458 4.32019329 43.5338554
-4.33333397 3.66666698 43.3333359
3.50000262 -4.25000191 46.2500038
0.872392476 4.20984173 45.8704453
-2.6259284 -1.04999948 42.4407425
4.31103373 -4.33409071 38.6512451
4.38873768 0.416664094 49.4166641
-2.25207853 -2.37557387 32.7379112
-1.78011191 -4.18353176 29.7914085
-2.00939488 -3.66686964 30.4708881
-2.32945323 -3.1549077 29.6641006
-0.767010212 -3.22338247 28.1497746
4.1999979 2.59999847 39.7999992
4.26362085 1.66666913 39.6875
4.32019949 4.30885458 29.5338593
0.761743188 4.24514961 23.3946514
4.1497283 -1.79788613 34.809639
0.441697657 -4.22862625 32.0178986
4.24893141 2.63208842 27.5895348
-4.23934412 -0.634291887 23.9458237
4.3256216 -4.36074591 25.312273
2.85740304 3.97456932 29.096962
-2.58888793 3.35555291 20.5888901
-2.50000048 3.33333182 21.6111126
-1.0897193 3.35852385 21.0237465
-1.66874993 4.27625799 20.6687508
4.21133041 -2.70786691 9.76038551
4.25525284 -2.74334264 8.68915653
-4.08292246 -1.70042515 11.0342808
4.33015108 -4.30832911 13.3518887
-4.20000124 -2.60000157 14.1999979
-0.668101728 -3.1507237 17.6851215
-2.32222247 -3.15000176 40.8777809
-2.75000024 -4.25000191 41.75
3.15301061 -0.758262396 38.1329498
-3.66666698 -4.33333397 22.6666679
4.30885458 4.32019949 10.4661455
1.44668806 -4.27774334 3.26247692
0.799996614 -4.20000124 3.20000052
1.85648572 1.06879687 0.942161083
3.35668039 -4.27496243 8.3202219
-3.39824057 -3.13764 23.1461296
-4.29692078 -3.30879545 23.3506546
2.44725704 -0.71966058 49.2229271
2.59999847 0.200002313 49.2000008
1.62956214 -0.631501615 49.1395264
-3.68317127 -4.30598831 23.6942558
-4.37499857 -4.33310604 48.6250038
-4.33333397 -2.33333302 48.6666641
-2.53385472 -4.30885458 49.3201981
-4.41649532 -2.44791913 49.3506165
-3.45833492 -4.45833397 49.4443703
-4.33333397 -1.33333397 49.3333359
-0.67708075 -3.64583302 49.2740364
-4.47562027 -0.572917879 49.4999428
-2.41278219 -2.80081153 27.8095284
-2.73400903 -2.77653193 28.842186
-2.57302022 -3.6776824 28.0384026
-3.05858684 -3.33987522 27.1293583
-1.69529736 -3.40758061 27.4336452
-3.47049689 0.668621182 49.2007446
-4.50000143 0.499999464 49.5
-4.31581926 1.65624905 49.3193092
-4.31272793 1.33334029 48.6542282
1.59031427 3.28348637 8.67237377
0.759469092 3.11390185 8.96511745
3.18246555 2.27210474 8.85268211
2.3189981 2.44209456 8.37141705
2.50000358 3.33333182 9.38888931
3.12221909 3.35555291 10.411109
1.75004244 3.31440473 10.1536379
3.13875818 -2.25800753 39.3355103
4.25000191 -2.75000024 38.7499962
3.37778044 2.51110792 9.95555496
-2.35535455 1.68612838 6.86671495
-4.25000191 1.74999809 47.75
-2.22222114 3.12499976 7.65277624
-4.30885458 4.32019329 44.5338554
3.25042081 -1.89622772 43.3907318
4.22709036 0.853015542 46.7226639
4.26753521 0.691260338 45.7067909
-4.24839306 -3.50772429 45.2741623
-4.33333397 2.33333302 48.6666641
-2.32037592 3.65380812 49.2458687
-2.66666794 4.33333731 48.6666641
-3.46666789 -1.66666591 49.2666702
0.249999732 4.25000191 47.75
-4.33333397 3.33333826 49.3333359
-4.44010639 4.38173819 49.4296227
-2.77777982 0.0 42.2222252
2.7543931 -0.00438340427 43.9889183
-3.49999928 2.75000334 49.25
2.77038741 0.0255212933 41.8188744
4.29171991 -4.32143784 40.6087151
-2.7320168 1.09842277 34.355381
-3.32535362 2.46141458 34.3801994
-3.33333182 -4.33333397 48.6666641
-3.66666698 -4.33333397 47.3333359
-4.44436646 -4.54166603 47.5416679
-4.26778889 -2.36666775 45.3166656
2.46614623 -4.30884838 49.3201981
-3.35784602 2.57772684 7.42545366
-3.31118679 1.08449352 7.28031969
-3.22648954 1.62685108 8.23120785
-4.28791618 -0.790418983 48.6419296
-2.04652715 0.669831038 6.53575563
-1.57510531 -1.91768551 49.2793388
-3.64583302 4.3541646 49.305294
-4.3177228 4.34383345 47.6403351
-4.31692791 0.328717321 48.685688
3.2568059 -0.125449613 47.555851
2.5488925 0.620619118 47.4374809
3.31885147 -0.00201433897 46.6624222
3.27838087 -0.0955322385 45.8199425
1.41666305 -4.24977064 45.2499962
-4.23873901 1.73333228 41.2666664
-3.33435178 2.58506823 41.4650993
-4.27360058 2.66299415 42.3292389
1.81709206 2.4579432 13.2035685
-0.325537443 -4.27832603 48.6620331
-4.43694878 -4.4197731 46.4218025
-3.28686595 1.7619828 40.7043114
-4.2740407 -3.35416579 46.3229179
-3.66666698 -4.30540562 46.0000038
1.02990997 3.53462648 16.9265938
1.4974519 3.00514674 17.6797504
0.858501136 3.88785791 18.0075741
1.32291389 4.2740407 47.6770859
-1.66853464 4.26403856 45.9417648
-4.27000904 -1.67896414 46.680603
0.62482512 4.27678347 16.185503
2.65394855 4.26398182 45.2991905
3.64629555 4.3307209 45.3552513
-1.28536355 2.68087602 49.2442665
1.65071905 -4.33717251 48.6873703
-2.60416651 4.34718418 49.3122711
-1.4661442 4.30885458 49.3201981
-4.19501305 1.77672291 46.7778244
-4.26778889 1.68333495 45.3166656
-4.05360365 2.60773277 47.382309
-1.66666591 4.33333731 48.6666641
-4.25786591 2.65837002 45.3061066
-3.16614175 1.67250311 29.0178776
-1.57777846 -3.35999966 46.4399948
1.85185528 0.92592448 7.85714293
4.67242384 2.57703638 0.481415868
3.43229413 -4.31230354 49.3349876
4.32019949 4.30885458 43.5338554
4.33333731 3.66666698 42.6666641
-3.13630342 2.23157716 9.14291763
-3.70108175 0.777230799 8.27526093
-3.32707357 2.56030703 43.0228729
-4.3119173 0.568499684 45.4102821
-4.22207022 -1.49999833 44.25
-0.621173322 4.23524284 34.7726593
-4.32324982 3.62795115 46.3311157
-4.20754242 2.62443662 44.2089958
-4.10104227 0.833119154 43.1794167
-3.32655096 1.11006546 43.9758835
-4.30884838 4.32019329 45.5338554
-4.31457758 3.64712524 45.3531036
2.58501124 3.36393332 16.4058323
3.3562181 2.51046181 15.6564569
-4.27626419 -2.33750105 44.3312492
3.29089761 -1.55735636 20.3162117
-4.20000124 1.80000186 42.2000046
-4.15160942 1.82422459 43.170166
-4.32034826 -0.626016021 44.6397934
-2.6679697 4.27704954 44.6679688
-3.66666698 4.33333731 40.6666679
-3.66666698 4.33333731 41.6666641
2.77777982 0.0 34.7777786
3.41412711 -2.59879804 37.5912094
3.17712569 -3.39446521 38.0860901
-2.76987123 1.57258427 33.6372757
-3.88063979 0.012222223 42.1344872
3.36017704 -2.51786351 32.9145927
3.29919577 -1.81260419 32.4460793
3.37164235 -2.52643704 31.9287186
3.33256531 -0.993281305 32.8865356
3.33846283 -1.7734164 33.4298325
-3.36452889 3.13798523 9.44442272
-1.73104882 2.89327478 10.5138092
3.53140211 2.35471797 0.759714544
-4.25000191 -3.49999928 43.25
-1.02341092 3.3324008 10.0726023
-3.19356346 2.34329057 10.2185431
-2.49859118 3.3705337 9.98031902
-1.49559915 2.70492148 48.4212379
-0.549996853 -4.24842119 46.1749954
4.41408825 -0.511173368 49.3500061
-0.435714811 3.53298569 46.3412247
-4.30963039 0.615348876 44.3965073
-4.32034826 -0.626016021 43.6397934
3.40924954 3.37957287 17.0336533
2.27961087 3.37479043 17.3771076
3.41385484 3.38240457 17.9694252
2.6679728 4.27704334 17.3320293
3.42619419 3.4283669 16.0778694
2.6679728 4.27704334 16.3320312
4.26778889 2.65833187 17.6833344
4.27489614 3.65104628 17.6744804
4.25686836 3.54167032 16.729166
-4.30885458 4.32019329 42.5338593
-4.298913 0.646343112 41.3615646
-4.43632174 -4.51020288 38.5001106
-4.26779175 -2.36666775 43.3166618
2.36358595 2.41397619 7.41016197
3.42760682 3.44702792 7.00167274
2.66625619 3.32832146 7.4313159
3.3400209 2.48103213 7.90488529
-4.21514368 -1.52082908 43.2395782
2.66770697 -4.27091455 46.6927147
3.37499952 -4.27060747 47.3125038
-4.27227974 -2.34085822 40.331398
-3.33333492 1.04166663 36.2916679
-3.34444547 1.81527412 35.8513947
-3.30214119 1.08553863 35.0413971
-4.26779175 -2.36666775 41.3166656
-4.17422342 2.60643411 40.1843071
4.2165308 -2.70185566 43.7265816
4.25742579 -2.76849341 44.7203522
-4.26290798 0.604833782 34.069458
-3.84523368 0.0600881092 34.1468658
-4.27626085 2.66562915 41.3312531
-4.30885458 4.32019329 41.5338593
-3.35555601 2.58888793 35.4111176
-3.66666698 4.33333731 44.6666641
-3.66666698 -4.33333397 43.6666641
-4.31108427 -4.33168697 41.3885078
-3.66666698 -4.33333397 41.6666641
-4.22087002 -1.45860314 41.2951279
-1.79999864 -4.20000124 44.7999954
-2.75000024 -4.25000191 44.7499962
-4.24164343 -3.54543281 41.2780838
-4.2193718 -2.53333521 42.2333336
-4.32034826 -0.626016021 42.6397934
-2.77817249 0.0151518825 36.2366333
-2.74351072 0.0119783487 35.0659676
3.66666698 4.33333731 37.3333359
0.126662642 -2.65366673 19.8396492
-2.75000024 -4.25000191 42.75
-1.66666591 4.19436693 43.7916679
-4.33333397 3.66666698 40.3333397
-4.33333397 3.66666698 42.3333359
-4.32034826 -0.626016021 37.6397934
-4.33333397 3.66666698 39.3333321
-2.33524919 -1.01880896 48.3877029
-2.4013865 -1.549999 47.5625038
-3.63975525 -0.905157149 47.5907784
4.23213243 -4.19561481 41.6793785
3.85684466 -3.49975872 42.6003418
4.26756716 -2.77991438 41.7410698
4.04182196 -0.906712234 41.835186
-3.66666698 -4.33333397 39.6666679
-2.6679697 4.27704954 43.6679688
-1.60652077 4.08552265 42.6592484
3.18698192 1.72524965 29.9998875
-0.639790177 -4.32034826 40.3622437
-3.47500062 3.42500329 35.9749985
-2.75000024 4.25000191 35.75
-0.937776148 3.35999966 3.58222151
-4.32019949 4.30885458 36.4661446
-4.30963039 -0.615342557 41.6256828
-4.32234383 -0.63267976 34.6370926
-4.29213524 -0.628635287 33.6683769
-4.27263451 1.67499888 40.3250008
-4.26451063 2.59243512 39.2982521
-2.6347394 4.31497383 42.6266708
-2.08101487 -2.76011944 2.68072248
-4.33333397 3.66666698 41.3333359
2.77777982 0.0 5.01587343
-3.20215273 -1.58422685 31.5916653
-3.36944103 -1.07089031 30.3923092
-3.35505557 -2.54483533 31.0721798
-4.15031433 -1.77190244 30.9563618
-4.30885458 4.32019329 40.5338593
-4.27489901 -3.34895873 40.3255196
1.66874683 4.27626419 25.3312511
-1.79999864 -4.20000124 45.7999992
-4.25000191 -3.49999928 42.25
3.11843729 1.66925991 25.5312786
3.38400698 2.52802062 25.6127834
-4.25686836 -3.45833492 39.2708321
-4.13283777 -1.67969263 40.1337166
-4.26373768 -3.41666722 38.2916679
-3.3777771 -2.51111102 42.0444412
2.54278612 2.59634352 38.7699585
-4.30471849 -0.618462205 39.6326218
-4.32034826 -0.626016021 40.6397972
3.33333182 2.50000358 37.9444466
-2.71355844 -4.30577612 37.7516708
3.33162785 3.35709858 37.9374275
3.40000153 3.13332963 36.9333305
2.49295354 3.45060062 38.1866035
-3.66666698 4.33333731 43.6666641
-4.2617774 -1.37406731 35.2914848
-4.2493968 -2.43932009 34.2638893
-4.20000124 -2.60000157 35.2000046
-4.298913 0.646343112 37.3615608
-4.30884838 4.32019329 39.5338554
-4.20000124 1.80000186 35.2000046
-4.27263117 2.6624999 38.3249969
4.20116377 -3.76005507 13.8605061
-3.40677929 -3.14691377 40.4652596
-3.66666698 -4.33333397 40.6666679
-4.26778889 -2.36666775 39.3166656
-3.33985639 -0.431429595 2.5076952
-3.25009775 -0.0361884236 3.34313273
-4.25000191 -3.49999928 37.25
-4.01893234 -1.36275101 39.3666534
4.04760504 0.80595094 42.39011
4.22855997 -0.225640804 42.6812325
-2.48277736 -1.16200757 1.56177294
-3.43673134 -0.561376631 1.58304071
3.38762403 3.43938875 34.4000893
-4.25527525 1.6491102 39.3271179
-4.33333397 3.66666698 37.3333359
-4.26778889 2.65833187 37.3166618
0.738825321 -3.49066567 31.1479588
-1.29654384 -3.39806318 32.0756493
-4.30885458 4.32019329 38.5338554
-0.617774963 -3.35999966 46.4399948
-2.96296597 -0.694443345 32.1203728
-4.2187953 -0.687538862 31.847023
-4.33333397 3.66666698 31.3333359
-4.33333397 3.66666698 38.3333321
-4.33333397 3.66666698 36.3333359
-4.26779175 -2.36666775 37.3166618
-4.27626419 -2.33750105 38.3312492
-4.26362085 -1.37499857 38.3125
-2.51433206 3.34723592 35.6183281
-2.75000024 4.25000191 34.7500038
-4.27177 -0.551127553 38.6459503
4.29589462 4.45218945 3.52915192
4.33333731 3.66666698 4.66666746
4.37498569 4.3270154 4.62239647
3.66723704 4.27977991 4.32525921
-4.18512487 1.75659859 38.2032433
-4.298913 0.646343112 36.3615608
-4.26778889 2.65833187 36.3166656
2.91486883 3.85001612 1.8919884
2.66666794 3.66666698 0.666668534
2.24999762 4.25000191 1.49999988
3.66666698 4.33333731 1.33333242
3.67103124 3.42587113 2.29306984
-2.43390727 3.34945297 42.8773537
1.37499535 -4.26362085 33.3125
-3.64583302 4.2740345 39.6770821
1.53958833 2.29190588 14.192894
0.683164954 2.09252453 13.9881067
-4.31424522 -4.34427357 35.3902397
-4.23873901 -2.46666884 36.2666664
1.78618026 4.20280409 39.2169647
2.66826439 4.24685335 38.3588562
-1.79999864 -4.20000124 37.7999954
-1.79999864 -4.20000124 39.7999992
-2.76151609 0.0187941622 43.127491
-4.26779175 1.68333495 36.3166656
2.22949314 -3.14287853 34.0892296
-2.53610969 3.29752994 37.6372414
-2.758672 4.27129793 37.7500954
-1.6706028 4.26471663 36.6889381
-4.27626419 1.66874683 37.3312492
-2.65499687 4.25731182 38.6777229
-4.30885458 4.32019329 37.5338554
-3.39918733 0.329205066 9.59278393
-4.26640129 0.663889349 10.315279
-2.65680528 4.26801062 39.6766815
-3.44643879 -0.826645434 10.1034155
-4.2612896 -3.3908608 31.3302193
-4.30490208 -4.33911085 34.3526878
-3.86356854 -4.26595497 33.6467514
-3.65276599 -4.29578352 37.6897202
-1.79999864 -4.20000124 38.7999954
-4.32657194 0.439816326 35.655674
0.448963195 -4.44896221 39.440834
2.40741372 -2.08333325 6.49074316
-4.20388079 -1.3813076 27.2644653
0.450515151 4.2232008 33.7801857
1.66030931 4.26116276 33.3272247
3.52463078 0.683785737 9.76553535
-0.644442737 -4.18889046 35.7222252
3.12499976 2.22222114 10.8472195
-4.32034826 -0.626016021 35.6397934
-4.18587875 -2.5790031 33.1901741
2.74999714 4.25000191 34.2500038
-4.30885458 4.32019329 32.5338554
-4.30885458 4.32019329 31.5338573
-4.33333397 3.66666698 32.3333321
-4.30885458 4.32019329 35.5338593
-1.68470943 4.19470882 37.8682632
-4.30885458 4.32019329 34.5338593
0.691995084 3.25217557 14.2366838
1.67990804 3.67104411 0.655450344
1.46708488 -4.21844053 34.3043251
3.36981797 -1.03715014 43.9942665
-4.25146198 -3.34808159 33.3179512
-3.91594148 -0.0479862392 33.1277008
-4.298913 0.646343112 32.3615608
-4.19561481 -1.63075304 31.7813931
-3.40000153 -3.13333583 38.0666695
-3.64447117 -4.31059361 38.6626015
-3.4324367 -3.11993551 39.3507652
-4.26708889 1.66666913 34.3177109
4.27574492 1.66666281 40.6692772
-0.00737640774 2.79573774 8.94901276
0.0068031447 2.79398322 9.95314789
-4.33333397 3.66666698 33.3333321
-4.33333397 3.66666698 34.3333397
-4.27687216 2.66754842 34.3266678
1.79506099 -3.25740767 44.9228363
-2.67708182 4.2740345 33.6770897
-4.20000124 2.59999847 31.2000027
1.02091515 3.83922863 27.8119659
1.78316498 4.21956491 28.2072773
0.652544439 4.31624699 27.3442917
1.68003464 4.26294947 27.3187447
0.767646849 3.15896487 26.6106091
0.776280642 4.20896101 26.2394199
3.33333182 -1.04166663 34.9583359
4.3203516 -0.626016021 35.3602066
4.17291212 -1.79053831 35.785778
-1.64212644 3.42881036 36.4020691
-4.26681328 -3.43402982 32.2818031
-2.75000024 -4.25000191 34.7500038
-2.75000024 -4.25000191 33.7500038
-4.39385605 -4.35229588 32.4125595
-4.39041662 -4.33889866 31.3528633
-3.66666698 -4.33333397 31.6666641
-1.79999864 -4.20000124 36.7999992
-4.298913 0.646343112 31.3615608
-3.47500062 3.42500329 34.4750061
-4.26875496 2.65965581 33.3265533
-4.30884838 4.32019329 33.5338554
0.0234372765 0.55902338 0.756325662
-0.804018974 -0.238800511 0.828224242
4.53195238 -4.35349321 31.6268463
3.50000262 -4.25000191 31.25
-4.21585608 -3.52226472 30.2786255
-4.20000124 2.59999847 29.2000046
-4.2368865 -2.50633168 30.2319355
-0.977008224 4.00801516 23.8069515
-4.26779175 1.68333495 31.3166637
0.779675841 -3.13053918 8.80900955
-4.27626085 2.66562915 32.3312492
2.40740728 -2.08333325 7.49074221
2.43631768 -2.74968338 16.8632832
-4.30885458 4.32019329 30.5338573
-3.51334286 -3.92374229 17.5826969
-4.16196632 -4.32538128 17.55583
-4.26373768 -3.41666722 17.291666
-4.31883764 -4.31386185 29.5096931
-4.34204674 -4.31045389 28.5099926
-4.26362085 -1.37499857 28.3125038
-0.866666138 -3.11111164 39.9333344
-4.24192238 -3.41385794 29.3191986
-2.20445633 -1.12405491 40.6870308
-3.36995411 2.58643651 31.412199
3.88889027 0.0 34.8888893
3.36666989 1.05000269 34.966671
-1.6792239 -0.657114744 0.77685225
-4.2702117 1.67916691 30.3208313
-4.23052979 -1.5842396 29.1913967
-4.33333397 3.66666698 29.3333378
-4.33333397 3.66666698 30.3333359
0.427635282 -2.90170598 18.8412609
4.20369101 -1.75869203 42.7929153
-4.15433025 -1.63665032 30.0984116
2.69787121 4.25727987 31.2826538
-3.88885546 0.0640281066 35.1113548
-4.36668158 -4.34548664 27.0609474
-2.6679697 4.27704954 31.6679688
-3.66666698 4.33333731 31.6666641
-4.27626419 1.66874683 29.3312531
-2.67492175 0.0528700612 38.1156578
-4.298913 0.646343112 28.3615646
-4.32019949 4.30885458 29.4661446
2.22222757 -3.12499976 6.34722471
-3.3777771 -2.51111102 37.3777771
4.25211763 3.62914824 28.6820278
-0.755092025 -3.17012596 26.956728
-4.28363752 -3.46249342 28.2831821
-3.66666698 -4.33333397 30.6666641
4.26362705 1.66666913 32.6874962
0.687447011 -4.28068256 29.6600914
4.1999979 -1.79999864 32.7999954
4.26866913 -0.416727453 19.5910664
3.52781057 -0.94883281 19.102972
2.3018384 1.66374266 19.0811539
4.16303062 0.744342566 18.7555943
-1.66666591 4.22206688 29.7500019
-3.66666698 4.33333731 25.6666641
-2.67553926 4.24671412 25.6673107
-4.27626085 1.66874683 27.3312492
-4.30885458 4.32019329 28.5338593
-3.66666698 4.33333731 28.666666
-2.6679697 4.27704954 30.6679688
-4.29637289 -3.31443 27.3139305
3.83702421 0.0197791606 25.9077644
3.7650528 -0.0060271807 24.9691505
-4.28174639 -0.433820814 28.4096546
-4.30885458 4.32019329 22.5338535
-4.25000191 3.50000262 23.2499981
-3.66666698 4.33333731 22.6666679
2.77777982 0.0 14.7777777
3.3059926 -0.999327481 14.9460382
1.64444172 -3.24444437 27.122221
1.58333373 -4.19436979 28.2083359
1.37499535 -4.26362085 27.3125
3.65400457 -4.29259109 1.64480114
4.32019329 -4.30884838 2.46614456
-0.606987476 -4.41866159 49.3059578
-4.20000124 1.80000186 28.2000046
-0.566665828 -4.21103907 43.8583298
-2.59999847 -3.40000153 46.1333351
-3.40000153 -2.60000157 46.4666634
-0.852160394 -4.19392014 31.668108
-0.436389416 -4.30165577 30.7135201
-3.40000153 -3.13333583 45.4000015
-3.66666698 4.33333731 29.666666
3.3994503 -2.54932022 45.8233109
-4.32019949 4.30885458 25.4661427
-3.66666698 4.33333731 26.6666622
-4.30884838 4.32019329 27.5338554
-3.66406035 4.27704334 27.6679726
-1.94166434 3.56666589 3.44166756
-3.24999976 3.41666722 2.25000238
-3.40191126 2.23858309 2.54925203
-3.19999909 3.13332963 3.33333349
4.27129173 -3.61373663 5.56389093
4.33333731 -3.66666698 6.66666842
-4.26071644 -3.5883832 0.738706529
-4.32942867 -4.33058786 0.684037447
-3.60642052 -4.31946802 1.30104601
-4.32070637 -4.30889893 1.51312792
-4.27253008 -3.40952206 25.3325424
-4.37910652 -4.43645477 25.4508133
-2.44451737 -4.25933886 26.9482327
-3.66666698 4.33333731 24.6666679
-3.66666698 4.33333731 23.666666
-4.3203454 0.376016259 27.6377583
-4.44896221 0.504066169 26.5591679
-4.16250801 -2.53112149 26.2200947
-3.35764337 -4.27403116 26.7373619
-4.30885458 4.32019329 26.5338554
-0.82282263 3.18485355 28.2675686
-1.66666591 4.26362085 28.6875
4.36448336 -4.30623245 5.49218845
3.513026 -4.26588202 5.00911474
3.52397823 -4.21473169 6.27809715
4.32019329 -4.30885458 4.46614552
4.25289011 -3.60148287 4.36040545
-4.27196312 -3.53520608 26.344305
-0.612647235 -4.29383564 26.3881073
-2.51111102 3.37778044 26.622221
-1.66642523 4.27193165 25.6703129
-2.6679697 4.27704954 26.6679668
-3.19026303 0.365659535 45.6677895
-4.26779175 1.68333495 26.3166618
-4.15905237 2.64153957 26.189373
-0.531943858 -4.23052645 29.8236332
-4.34702587 -4.30249786 22.650692
1.37499535 -4.26362371 26.3125
-4.33333397 3.66666698 25.3333359
-4.33333397 3.66666698 26.333334
1.49415171 -4.23444462 13.2470541
0.804455996 -4.14418888 13.1495113
1.64677274 -4.17285824 12.2131157
-4.20000124 -2.60000157 25.2000027
-4.27226734 -2.35942435 24.3216782
-4.15156221 -3.52607489 24.2545547
-3.23979187 1.62072575 23.1824703
-3.92922783 -0.0239313599 25.0613079
-3.88889027 0.0 26.1111107
-2.50737691 3.34106612 36.6020203
4.26199293 -0.482050955 26.5576916
3.86600423 -0.0288056806 26.885788
0.555558503 -3.98148346 26.4629612
-4.26804209 1.67534089 25.3159924
-0.87247479 4.24852562 36.4144554
-1.66666591 4.26362085 26.6874962
-4.24868441 2.63151836 25.3281784
-0.762227774 3.14374971 22.1451588
-0.646339893 4.29891586 21.6384354
-0.850564122 4.01602173 22.8309746
0.0293251015 3.9050684 21.9360123
-4.26778889 2.65833187 23.3166656
-4.16666651 -1.66666591 12.1666689
-4.30884838 4.32019329 23.5338554
-3.69123173 -4.26069736 25.5999622
-2.75000024 -4.25000191 25.75
0.0379303806 -3.82677841 23.0258427
-4.28165483 -3.30094099 2.36572862
-4.32824755 -4.35491848 2.36224461
-1.77391052 -3.59061289 3.21719861
-2.75000024 -4.25000191 22.75
-3.47500062 3.42500329 29.9749985
-2.76718545 -4.24633121 24.7088585
0.0 3.88889027 20.1111107
0.626016021 -4.32034826 21.6397915
-2.77777982 0.0 27.2222214
-0.240909874 3.30465603 18.6431828
-4.15604353 1.59673738 24.1672745
0.755738139 3.48206353 6.07800627
2.83843803 0.0245933048 27.8373871
3.35222745 -1.07587552 28.6699219
-1.62999928 3.25500059 4.60499907
-2.70334411 4.2719059 24.719244
1.37649024 -1.2489661 48.3005219
-4.25697613 -0.34418276 20.2960148
-4.2671237 0.665796041 22.3409901
-4.26077032 1.67851448 22.3231201
-2.7242415 -4.24503231 23.7136288
-0.695830584 -4.24834538 22.3486099
-1.79999864 -4.20000124 22.7999992
-1.65140951 4.24242592 24.6870594
-4.30189943 0.661729336 23.3953075
-2.21033168 2.15695786 20.8812981
-1.46499455 2.73293209 20.2944317
0.52373445 -4.43904543 19.4786434
-3.99768996 -0.557607651 22.3367653
-2.67708182 4.2740345 20.6770821
-3.66666698 4.33333731 20.666666
-3.66666698 4.33333731 21.6666679
3.65104628 4.27490234 18.3255234
2.65507603 4.26213837 18.3297787
-3.39328694 -1.01733613 20.9239845
-2.77777982 0.0 23.2222233
-2.2685194 0.868053377 36.3773155
2.66559124 -2.70446539 18.7098618
-4.27705288 -3.37276983 22.3421021
4.32540655 -4.30885172 21.4713535
-4.16666651 -1.66666591 21.1666679
1.59338009 -3.21775126 18.907423
3.31737542 -1.79500401 35.7791786
-4.24280262 -3.36858606 21.3302002
2.45682836 -3.343014 36.3499908
-1.64791298 4.22723579 22.7372856
-4.20936012 -0.442141056 21.2765541
-3.66666698 -4.33333397 16.6666679
-2.6679697 4.27704954 22.6679688
-4.30885458 4.32019329 21.5338554
-4.19486713 0.636018038 20.1871243
-4.20450497 1.6285423 20.3658714
-0.62777698 4.25255442 30.7388897
-4.33333397 3.66666698 16.3333321
-2.75000024 -4.25000191 19.75
-2.75000024 -4.25000191 20.7500019
2.37529826 -4.26401043 28.3171539
2.78697085 -0.0551599488 28.9382858
0.400479704 -4.28702641 17.3673496
3.3861227 -2.68952894 26.9631824
2.39655662 -4.26565742 18.2751007
2.65845227 -4.12673759 18.909399
-4.2730813 -2.36114717 20.318388
-3.9418838 -0.0208528414 23.1423302
-4.26778889 2.65833187 21.3166676
-4.26891327 2.65783787 20.3204727
-2.671875 4.27575731 21.671875
-4.31581926 4.31931257 20.510416
-4.33333397 3.66666698 20.333334
-4.33333397 3.66666698 19.3333321
-3.47500062 3.42500329 20.4750004
3.16261983 0.810334325 29.4853115
-4.18330669 1.58859766 11.2844362
-4.25943995 1.67380798 12.3053856
-4.22207022 -1.49999833 20.2499981
3.30565047 0.465065241 22.9810028
4.1999979 -1.79999864 26.7999954
-3.03004408 0.761686146 39.9288864
-1.63174438 4.21965981 21.6897278
-3.1509645 0.470107436 38.9434624
-4.1935401 1.73913467 19.2452717
-4.20000124 1.80000186 18.2000008
-2.58359551 -3.35303807 32.4627075
-2.67708182 4.2740407 19.6770802
-0.465267956 3.00241661 19.5946712
-0.899997771 4.04444408 20.4555569
-4.26186609 -3.52135897 12.2988167
2.51325512 -3.32819772 16.1628418
-4.23380136 -2.50106788 19.3746014
3.41517234 -3.419806 10.9158115
3.42863297 -3.42444277 9.98033237
2.51110792 -3.3777771 10.3777771
-4.28155041 2.63803029 14.3645182
-4.22207022 1.66666913 14.249999
-4.23873901 -2.46666884 18.2666664
-0.604672253 -4.298913 21.4032307
-4.20000124 2.59999847 19.1999989
-1.66951323 4.26351929 16.6821003
-1.65105796 4.20089769 17.6435986
-4.30885458 4.32019329 19.5338535
-4.30870247 -0.65342176 17.644907
-1.66666591 4.16666651 19.8333321
-3.66666698 4.33333731 18.6666679
1.79624557 4.21369314 45.2160759
-4.33333397 3.66666698 17.333334
-2.8815341 2.77214837 18.3399944
-3.184654 1.61741912 17.4736729
-0.492946118 -4.20547104 4.18633604
4.27037334 -2.66980982 12.3321552
4.3187871 -3.66964722 12.6362095
-3.84021688 -0.0041236938 7.14044666
-4.3195343 -4.32209063 40.4759636
-4.29110575 0.563976884 7.40346336
-4.24300528 1.55329597 8.36218739
0.108501926 4.22942781 18.4886208
2.48851943 0.0292870943 48.422905
0.708926976 -0.671861231 49.2348175
-3.35555601 3.12221909 21.4111099
1.35647988 0.298698604 49.2669563
-4.2752347 2.6631968 17.3283081
-4.27626085 2.66562915 18.3312531
-4.31931257 4.3158164 15.489584
-4.31931257 4.3158164 16.4895821
-2.67708182 4.2740345 17.677084
-2.67708182 4.2740407 18.6770821
-2.51111102 3.37778044 17.622221
-4.33333397 3.66666698 18.333334
-4.27255201 -0.329933524 8.33367348
-4.26687336 0.443312913 8.90273952
-3.15889192 -1.74704313 25.8912315
-3.14790177 -2.19667149 27.0007572
-4.19943428 -1.48210692 17.262392
-3.38762403 3.43938875 22.434597
-3.3777771 2.51111412 23.377779
-3.42187095 -3.11829495 26.0906181
-4.26576471 -0.602844775 16.5721111
-2.6679697 4.27704954 16.6679688
-4.30884838 4.32019329 17.5338554
1.76666391 4.21936846 43.2333336
-3.47500062 3.42499685 16.4750004
-3.48394799 4.30920935 15.4573984
-3.66666698 4.33333731 16.6666679
-3.15287113 -0.744276047 38.1840019
4.33082247 -4.34810257 12.6474056
0.428173721 -4.3263154 10.3838043
-1.79999864 -4.20000124 18.8000011
-4.25698853 -1.38552308 16.3251991
-1.79999864 -4.20000124 15.8000011
-3.47500062 3.42500329 23.9749985
-4.30884838 4.32019329 14.5338564
-4.31421375 3.61866498 14.3613701
-3.66666698 4.33333731 13.666667
0.181664228 1.63411665 0.770799756
0.999998927 1.66666281 0.833332896
-4.25321627 2.5893631 15.2702961
1.57777846 1.33332765 1.66666746
-3.66666698 4.33333731 17.666666
-0.777778685 -3.11111164 13.5111132
-4.31930971 4.3158164 5.48958492
-3.66666698 4.33333731 10.666667
-2.6679697 4.27704954 10.6679688
-4.31581926 -4.31930971 39.4895821
-1.90214086 3.13177133 18.3180981
-1.28363752 2.92191887 19.0580959
-0.646339893 4.29891586 12.6384363
-4.20000124 2.59999847 11.1999979
-4.27626085 2.66562915 10.3312511
-4.29064655 -0.619307876 13.6081877
-4.33333397 3.66666698 15.333333
-3.79136276 -4.15990782 19.4061775
-3.64474678 -4.32301521 20.6538544
-4.30014181 0.623887658 14.397584
-4.25231695 -3.49041224 11.25488
-4.31176519 0.398427367 13.5612564
1.69005573 -4.09729528 14.1919565
4.19436693 1.66666281 12.7916679
4.26778889 1.68333495 11.6833353
-0.504062951 4.44896507 14.4489622
-1.78211355 -4.177495 16.7992935
-4.19287491 2.60424876 13.2367201
4.30552912 -4.38353729 20.5985203
4.28850222 -3.71989799 20.6876774
4.32444382 -4.23822594 19.6945515
3.56370139 -4.31931925 19.7405586
-4.26501417 -1.64960742 10.2606163
3.50000262 -4.25000191 14.249999
3.40906596 -2.56725907 17.6568699
4.25505018 -2.74111295 18.9653358
3.17455387 -3.45563316 18.1220493
-4.02933025 0.895677686 16.6244144
-3.92118001 0.0444453098 16.1296711
-3.84295654 0.0993360505 17.1085968
0.667164266 -4.19476557 4.150455
-3.66350293 4.30325508 14.6367073
-1.72587359 1.808604 48.331562
-2.68206072 2.25051069 47.4256363
4.3158164 -4.31931257 6.51041794
3.35416579 -4.2740407 7.32291842
4.42633867 -4.33569336 7.54004908
-3.64811659 -4.2773757 12.6793976
-3.68129945 -4.30931377 11.6536617
-2.75781059 -4.138165 11.6656847
-2.44025445 1.28091049 48.3370476
1.93332827 3.66666698 47.6000023
2.79775214 3.36471891 48.8444252
1.5666616 3.46667099 48.9333305
2.00199962 2.83856463 48.3186226
1.69807506 4.14530039 18.2373123
2.72162533 2.50763035 49.2420425
3.42407203 2.68365049 48.241993
0.95555681 2.51110792 48.3777771
1.07777905 3.35555291 47.5888863
3.40208554 2.49045134 39.663559
1.69970298 3.27759552 39.19347
-4.33333397 3.66666698 13.3333321
2.22222114 -3.12499976 7.34722376
1.46171963 -3.39811373 6.74652624
0.555558503 -3.98148346 7.46296263
0.36435464 -4.24852562 6.58555317
1.41666305 -4.2497735 7.29166794
1.3541615 -4.27055073 6.32291937
4.31147099 -4.31758022 27.5182285
4.31138229 -4.35415173 26.6275978
-4.20619297 -2.60911059 11.1706514
-4.30694151 -4.37252808 12.4684868
4.2843914 -0.901730239 14.4328632
-1.79999864 -4.20000124 12.8000011
-2.73233366 -4.24054432 8.76735115
-3.36243844 2.57540202 37.4984741
-3.35555601 2.58888793 36.4111176
0.864797533 -3.57868528 10.2752962
-4.15288258 2.57383752 12.2294683
-3.34444547 1.81527412 36.851387
-4.30885458 4.32019329 12.5338554
-4.33333397 3.66666698 12.333333
-2.72916627 4.25686836 13.729166
-4.32019949 4.30885458 11.4661446
2.58888793 3.35555291 23.4111118
1.75221515 4.18259096 23.234808
1.78626251 4.17528105 24.2677937
-4.26517916 1.67772257 10.3219013
-4.33333397 3.66666698 11.333334
-4.20859385 -1.55307746 5.23899317
4.30446482 0.6094262 14.505867
-4.31758022 -4.31147099 11.5182323
-4.33330536 -4.32091236 10.6614571
-4.1607976 -2.59778786 10.2355137
4.26583767 -0.364205778 9.68157005
-0.027754169 2.68473363 12.817874
0.0352762677 2.78177047 13.7534485
-3.66666698 4.33333731 12.6666679
4.27170324 1.68683147 21.6851616
4.27624512 1.66697943 15.6743965
4.23505259 1.61893308 20.7913799
3.11111474 0.777775526 40.7111168
3.98380494 -1.84484947 11.988698
4.29446936 -2.61547661 10.9775152
-4.13758183 1.63335645 9.17608833
2.59999847 -4.20000124 10.1999998
-4.40268946 -0.598261833 7.57777023
-4.16564322 -1.14951611 8.54150772
3.35416579 -4.2740407 32.3229141
3.41666722 -4.26373768 33.2916641
2.36667085 -4.26778555 33.3166656
4.31049538 -4.34721279 32.6510429
-3.48519897 -0.750227213 9.12395954
-4.25000191 -3.49999928 10.25
-4.32892227 -4.31545496 9.65594769
-4.25687122 -3.45833492 9.27083492
-4.35415173 -4.31138229 8.62760544
-4.2740407 -3.35416579 7.32291842
2.01631522 -2.80049801 39.4837379
2.53321481 -3.30451989 39.100441
-4.2081728 -2.46031237 7.28033543
-1.7460233 -4.19792366 10.8159657
-4.33333397 3.66666698 10.3333321
1.38544083 -4.26426697 39.2922554
1.41904473 -4.25830603 4.27773523
2.63511634 -4.24075365 3.81492186
-1.66666591 4.16666651 9.83333302
-4.30884838 4.32019329 8.53385258
-4.33333397 3.66666698 9.33333302
-2.50000048 3.33333182 6.61111259
-3.12347627 0.787340462 6.42223644
-3.35346889 2.49185133 6.39742184
-4.30885458 4.32019329 9.53385162
-4.32451963 -4.30915546 42.6014595
3.25040197 -2.59219456 34.8538475
3.34444237 -1.81527722 34.4402809
3.3139677 -2.59934592 33.9259872
0.436098039 4.27532673 8.56167316
-4.26779175 -2.36666775 9.31666756
-2.78835821 -4.23087168 10.7313356
4.21412992 1.6488694 8.66189003
4.16666651 1.66666281 9.83333302
3.93840003 -0.0640471131 7.93542337
4.34897661 -0.598287165 8.42288971
-4.27357531 0.669273615 6.33810949
-4.27471209 1.66267204 6.32875347
4.19182014 -1.76930225 12.9374294
2.46621585 -4.23491335 9.28091908
2.36561942 -4.26323128 8.31731129
4.25000191 -2.75000024 16.75
4.12706995 -1.65611279 16.8880253
-4.07841253 -1.65172946 7.13221502
-4.21936846 2.61666417 9.23333168
3.35555291 -2.58888793 7.92222214
1.64444172 -3.24444437 9.57777786
1.49999833 -4.22207022 9.25000095
3.20153213 1.19295108 1.61548555
3.29120183 1.35196352 10.4136143
-4.30885458 4.32019329 4.53385401
-3.52083325 4.26717424 4.95833158
-4.30528831 -4.3541646 4.35416603
2.09999895 2.47407699 12.1407423
3.35308242 2.46853447 12.9730158
-3.66666698 -4.33333397 24.6666679
-4.20000124 -2.60000157 8.19999886
-1.79999864 -4.20000124 9.80000114
4.27394581 -3.51465082 10.9896927
-0.64336592 -4.2559433 8.44190884
4.20634508 0.519471407 10.8828068
-0.626016021 4.3203516 9.63979149
-4.27038288 2.66030192 8.32256603
-4.33333397 3.66666698 6.33333349
-4.33333397 3.66666698 5.33333445
-4.23873901 1.73333228 7.26666594
-2.74984193 -4.18852329 4.69620132
-2.32222247 -3.15000176 5.02777863
-3.37499952 -2.30000138 4.67500019
-4.33333397 3.66666698 8.33333397
-2.66257906 -4.20046043 3.76634979
-4.33333397 3.66666698 7.33333206
-2.6679697 4.27704954 9.6679697
-4.30885458 4.32019329 7.53385401
-4.26778889 2.65833187 7.3166666
-1.34374774 -4.31581926 0.680689752
3.24444747 1.64444172 40.1666679
3.39044905 2.49489188 40.9604263
0.60405463 -4.28764725 9.58996201
-4.21598291 -2.579041 6.22141695
-4.25168371 -1.41475642 6.30044174
2.66707349 4.27374315 8.3293314
2.64845657 4.27470589 9.29359722
2.53333521 -4.21936846 13.2333307
-4.32034826 -0.626016021 6.63979149
3.48434401 2.13699198 47.4256172
3.38246155 1.15284801 47.5206528
3.36666989 1.05000269 41.716671
3.31260562 -2.6553421 40.0130653
3.24563837 -1.65435505 40.2932663
3.88889027 0.0 38.8888855
-4.20717478 2.61622095 6.17571783
3.88889027 0.0 39.8888893
4.1999979 -1.79999864 40.7999992
4.2485323 -0.68952471 40.3469772
-4.19788551 2.58498597 5.2063899
1.3223058 -2.66141367 0.727127194
0.215730637 -2.58980632 0.815859497
-3.66666698 4.33333731 8.66666603
-0.0629607588 -3.29166746 37.8898125
-0.663886189 -4.26640129 36.7819443
-4.21547604 -3.47603965 6.24542141
-4.26717138 -3.39583349 5.30208349
-0.460304946 3.64910173 0.711351395
-4.27054739 -2.37748051 5.31455278
-3.61747074 0.352990717 0.725480258
-3.86555123 0.394354343 1.49561024
-4.30885458 4.32019329 3.5338552
0.766664982 4.21936846 3.23333549
-0.331251055 4.27626419 3.33125257
-3.58333158 4.26373482 2.70833397
-4.31570864 4.34026051 6.65625143
-3.30556512 -1.77540219 40.2810745
-2.58888793 -3.35555601 41.9222221
-4.32034826 -0.626016021 4.63776016
-4.1833353 -1.73333549 4.18333387
-3.13333583 -0.777778685 41.6666641
-3.20654559 -0.790963769 40.1140404
4.29890966 0.646343112 39.6394539
-3.40000153 -3.13333583 41.4000015
4.3203516 0.376016259 40.3602066
-4.3203454 -0.626016021 5.63979244
-4.22463894 1.67275012 5.25072098
4.24253988 2.60424256 7.76855612
3.22433591 1.69572496 39.2412796
-4.26373768 1.29166639 1.58333206
-4.06652594 -1.75457788 7.93866014
-3.33333492 1.04166663 28.0416698
4.33333731 3.66666698 48.6666641
4.50000143 3.50000262 49.5
4.33333731 2.66666794 48.6666641
0.740738273 3.47221994 33.157402
-4.24731302 2.62294173 3.30201292
-3.66666698 4.33333731 6.66666842
-2.6679697 4.27704954 6.66797018
-3.47500062 3.42500329 6.47500229
0.245774686 4.2298522 46.7623672
0.00775330467 4.09167957 45.6909523
-3.42619729 -3.4283638 32.8670273
-3.10130906 -3.41632843 31.7137527
-1.59583473 -1.86458421 0.729794025
4.48073864 -4.5838213 8.78523064
-4.23873901 -2.46666884 4.26666594
4.15814686 -0.931134522 46.7730217
3.41111183 -1.23289263 47.5655556
4.28202868 -0.274447352 46.6355515
-2.69876122 -4.24086142 7.73321962
-3.84784651 0.0220658798 6.15303087
-4.29890966 0.646343112 5.36156368
-3.06133604 -3.38762403 43.4000854
4.50000143 4.50000143 49.5
3.46589828 4.28856564 49.2817039
-4.33333397 3.66666698 4.33333254
1.20000124 4.1999979 46.7999992
-1.73333228 4.23873281 5.73333597
-1.66666591 4.26362085 6.68749905
-3.36666656 -1.04999948 43.0333328
-4.33333397 3.66666698 3.33333349
1.57307196 -3.21616125 23.2919445
-3.6713798 -4.32145357 5.67533827
3.24285769 -3.32745671 22.076786
-4.20000124 -1.80000186 3.20000052
-3.47879505 -4.44278288 0.593420744
0.0895620659 3.31888318 47.5627861
-1.72549987 0.268363148 0.767702222
2.78281546 0.0104169194 44.8431969
4.17330503 -1.76722455 44.8053589
3.29234195 -0.819186687 45.3066902
-4.28107214 -0.317856967 2.29623389
-1.79166901 1.58333373 0.805632591
-3.88889027 0.0 5.11111116
1.67477083 -4.16188383 22.2208176
0.708331525 -4.21505165 22.770834
1.36207318 -4.24126339 24.2803841
-2.67708182 4.2740407 7.67708111
-2.75000024 4.25000191 8.75000191
-4.2249999 2.67499781 2.45000148
-4.33333397 3.66666698 2.33333445
1.00046134 -1.66845536 0.866902053
-4.30884838 4.32019329 2.53385615
4.31049538 -4.34721279 14.651042
-0.199999154 -4.20000124 3.20000052
-0.249999732 -4.25000191 2.25000238
-2.75732279 0.0971475095 16.0297585
-3.17155766 0.790013611 14.1212997
-2.73504782 -3.52426958 0.764858067
-1.36435676 -4.27645445 3.72418475
-0.996321797 3.39295745 47.438797
-4.25000191 -2.25000072 2.25000238
-3.92051482 -2.57197833 1.49507499
-1.66874993 4.27625799 11.6687498
-3.32917023 -3.10416913 47.970829
-3.23333383 -3.43333626 46.7666664
-4.27091455 -1.29479241 2.38229299
-4.273911 -1.686993 1.62931037
-3.62710547 -0.682610691 0.661946237
-2.77777982 0.0 44.2222214
-4.21097565 1.69155693 2.2931776
-3.66666698 1.66666281 0.666668534
-4.38626432 1.34590781 0.681484699
-4.09160376 -1.39530659 0.732267559
0.777775526 3.11111474 39.0666656
3.4283669 -3.42619729 36.9221306
2.39081764 -4.2574892 37.3150024
4.25000191 -2.75000024 37.75
4.25000191 -2.75000024 36.75
3.1289587 -3.36488032 35.4902763
4.2418685 -2.73176336 35.7631378
4.3158164 2.3437531 49.3193092
4.32447529 -4.36014748 28.3129158
-3.64439511 -4.2374754 2.42842007
-4.33333397 0.333335072 0.666668534
-4.33623505 -2.62430048 0.702483237
-4.32019949 4.30885458 1.46614575
0.343748838 4.31931257 0.684180021
-2.75000024 -4.25000191 45.7500038
-2.69629717 2.44583821 33.3900261
-4.19436979 1.66666281 4.2083354
-2.75000024 4.25000191 2.25000238
-3.66666698 4.33333731 1.66666746
-3.38120723 -2.33171129 25.3519268
-1.85787606 -4.17730188 32.0114441
-0.586077631 -4.13731909 32.59272
-1.79999864 -4.20000124 4.99999952
2.51110792 -3.3777771 44.3777771
0.647223592 -4.26501417 43.7138863
2.59999847 -4.20000124 45.2000008
2.59999847 -4.20000124 46.0000038
-4.34718418 3.60417175 0.687730432
-4.51835537 -1.69149995 0.64248383
-0.802910447 4.22382164 2.40453315
-2.76589322 -0.0153577505 6.06932211
0.882768214 4.01096678 10.0797472
2.51739168 3.34442329 8.39257336
2.71086955 2.69669938 0.753215432
1.66540861 4.26410198 8.32255363
0.9188236 -4.13275528 14.1567249
1.5869633 -4.08610535 14.992672
-0.111111693 -3.88889027 39.8888893
-1.727777 -3.23333383 39.7611122
-3.66666698 4.33333731 48.6666641
-4.29560614 3.62482834 48.3076553
-2.34839606 -2.35308671 48.3533211
-2.54946256 -2.06195784 49.3132591
-2.1585288 -2.75264168 49.203804
0.749999166 3.50000262 49.25
1.47747326 1.96375239 18.5207081
-0.199999154 2.59999847 49.2000008
0.668747842 2.66562915 49.2762566
4.31504965 4.3520298 2.37131882
0.533856809 4.30885458 49.3201981
2.53968239 1.2241416 49.2371483
-0.666666985 4.33333731 48.6666641
3.54167032 4.44436646 0.458333343
2.29827213 3.17371774 15.1424932
1.66392624 4.2090497 15.2900028
1.26762092 3.71950841 14.92173
0.499562383 4.28765345 13.5695353
1.66307116 4.03688097 14.1693363
0.35467568 4.29890966 14.6394539
3.66666698 2.33333302 49.3333359
4.20097351 1.65973926 38.8144569
-0.137557805 2.29457283 48.3666611
1.81287336 1.79601121 49.1647453
-1.48888791 -2.00888824 47.7022209
4.2740345 3.64583945 39.6770821
-3.13333583 -1.93333459 48.3999977
-0.710323691 -4.15547657 5.0554285
-1.010077 -4.19526958 3.26068425
0.416619778 3.4283669 48.4261932
4.40922308 4.45099878 47.5404854
4.34917307 3.64725208 47.6879311
-0.744231701 4.2295289 46.7402458
-0.889143765 4.23449516 47.7163391
0.333335072 4.33333731 48.6666641
2.85714984 -0.150774539 15.8857689
1.33333397 4.33333731 48.6666641
2.66927791 4.26457071 48.3426018
4.29828262 0.617293537 19.9234886
4.26108074 -0.318354219 20.6549721
3.49034905 3.54596496 47.5220528
4.50000143 4.50000143 48.5
-0.769296944 -4.11694431 7.43146467
4.25000191 -2.75000024 25.75
4.25838232 -3.6448195 26.6586742
4.33333731 -3.66666698 25.6666641
1.3541615 -4.27054739 5.32291746
1.66491449 0.94374311 49.1381073
-2.48624206 2.82687759 49.1880417
4.15174246 1.67826736 43.8281403
3.66666698 1.33333397 49.3333359
4.33333731 0.666663826 48.6666641
3.64341974 4.30003738 46.3458176
-1.70002925 2.25488138 49.2719841
-3.66666698 4.33333731 45.6666679
0.0 2.77777982 11.7777777
3.15651989 0.84120822 14.5369692
3.12499976 2.22222114 13.8472195
2.6624999 4.27262831 42.3250008
2.79100585 -2.82347298 20.3976479
4.38873768 4.41666603 46.4166679
4.32019949 4.30885458 44.5338554
4.32019329 4.30885458 45.5338554
-1.78467262 4.26358891 41.8334999
4.22482872 -2.74156594 26.6807442
4.1999979 -1.79999864 25.7999973
1.30652678 -3.44698358 48.4728241
0.716667593 -2.43333721 49.2484207
3.28270102 1.68205535 18.4176407
2.51966572 2.90785027 18.5555592
2.61666417 4.21936846 43.2333336
-3.44879842 2.65866756 17.4315491
-3.35555601 3.12221909 19.411108
-3.47500062 3.42500329 18.4750023
-3.25690722 2.15842748 19.0673599
-2.51111102 3.37778044 18.955555
-3.47500062 3.42500329 17.4750004
4.2740407 0.67708391 47.6770859
4.27470589 1.67365599 47.6795006
3.06098437 0.521720111 16.3841534
-3.66666698 4.33333731 42.6666641
-1.79999864 4.1999979 4.80000019
4.24103212 1.64108443 42.7926826
-2.70949173 4.22987747 41.7615166
1.58333373 -4.19436979 44.2083244
2.40122509 -4.25495529 43.3122025
1.66666913 -4.16666651 43.1666641
3.14723992 -3.42779684 26.0511684
3.35974622 -4.29209375 26.339365
0.933335721 -4.18333244 45.8999939
0.999998927 -4.20000124 46.7999992
0.281785756 -4.16831636 46.7884598
4.2740345 2.67708182 47.6770859
3.66666698 4.33333731 42.3333359
-2.67708182 4.2740407 40.6770859
4.2497735 1.66666913 41.7083321
-4.02094984 -1.01776373 46.8296204
1.59457099 -4.18339539 40.1274376
-3.35555601 1.53332996 47.5888863
4.25000191 2.74999714 42.75
-2.51111102 3.37778044 22.622221
-3.08375645 2.44044757 48.3973083
-0.585361838 4.34118557 38.601368
-1.67558157 4.25694418 38.7001152
-3.29058099 -1.67349446 29.4162979
-3.36602044 -2.46553493 30.0504856
1.62845361 -4.00268459 30.269865
1.70912862 -4.18666744 31.1532478
0.695833743 4.24834204 39.3111038
-0.87247479 4.24852562 41.4144554
3.33594155 -4.27704668 25.3320293
2.56099749 -3.49058962 30.3494892
2.65833187 4.26778889 41.3166656
3.66666698 4.33333731 40.3333397
4.33333731 3.66666698 40.6666679
-0.639790177 -4.3203454 39.3602104
-0.111111693 -3.88889027 38.9999962
-1.56018472 2.81481695 8.26574039
-1.66666591 4.27573824 40.6692772
3.43905926 -3.47923851 43.555088
3.71741819 -4.33836985 43.2951813
-0.406503737 4.28819799 40.4065056
-3.87198067 -0.0205962993 37.1011276
0.0 3.88889027 40.0000038
2.50000358 3.33333182 11.0555553
-0.971506774 -3.26297259 19.0419331
3.66666698 4.33333731 41.3333359
4.27575111 2.671875 43.671875
4.33333731 3.66666698 44.6666641
4.32019949 4.30885458 41.5338593
4.27704334 2.6679728 41.6679688
-1.74805975 -4.16257429 17.8380299
-3.66666698 4.33333731 7.66666746
0.393049479 4.29605293 40.6135101
0.749036372 -4.06356764 40.5084267
3.17670751 -3.41465926 34.4422646
3.49340844 -4.16196966 34.3072472
3.39083552 -4.26440001 35.3606453
2.39458656 -4.23161602 35.3287125
-3.66666698 4.33333731 35.6666641
3.42499685 3.47500062 42.4749985
4.33333731 3.66666698 41.6666641
3.44032621 -3.26940203 38.8972092
4.25000191 -2.75000024 39.7500038
-3.45522475 3.43317461 38.8999786
-2.28433323 3.31140852 39.8991547
2.73884225 4.24162149 39.3170395
1.66901278 4.26531219 40.3223686
4.33333731 3.66666698 43.6666641
4.32019949 4.30885458 40.5338593
4.32019949 4.30885458 38.5338554
3.64452195 4.30968428 39.3711052
4.39956951 -4.3309207 9.82682133
-3.66666698 4.33333731 38.6666641
-4.27626085 2.66562915 35.3312531
4.22207355 1.66666913 35.75
3.65947747 -4.3103652 10.5280132
2.64868474 -4.22160149 39.2292404
3.2939508 3.32642746 35.4386673
-3.22588468 -3.39689112 34.9033966
-3.66666698 -4.33333397 32.6666641
-3.66666698 -4.33333397 34.6666679
4.32019329 4.30885458 39.5338554
4.32019949 4.30885458 37.5338554
0.64072448 4.2194128 35.3154488
1.68155491 4.26379156 35.3207512
-0.823763251 4.19829416 37.4602203
4.3203516 -0.626016021 34.3602104
3.88317037 0.18602863 16.9386845
-2.75187516 -4.22615576 38.7687798
0.452238083 4.34982538 38.5710144
-3.36666656 -1.04999948 5.08333492
3.66666698 4.33333731 38.3333321
-3.13917947 -0.81135416 27.864706
-3.88889027 0.0 27.1111088
-2.78311634 0.00543174706 26.1789837
-3.33333492 1.04166663 26.291666
3.22149181 -1.65215695 13.8880987
3.3276372 -2.54163337 13.9668636
4.17933512 -1.75894547 15.2007103
-3.66666698 4.33333731 34.6666679
3.86917138 -0.0352129266 41.8903656
4.32019949 4.30885458 36.5338593
3.66666698 4.33333731 36.3333359
-2.75000024 -4.25000191 36.75
3.35416579 -4.2740407 36.3229141
4.33333731 -3.66666698 35.6666641
-1.73333228 -4.23873615 35.2666664
0.713101327 4.31157207 34.3872299
3.41416502 -4.24418354 30.2967987
-3.66666698 4.33333731 33.6666679
2.6679728 4.27704334 36.3320312
4.27625799 2.66562915 38.6687469
2.6679728 4.27704334 35.3320312
3.88889027 0.0 37.8888855
2.2151711 -3.09191203 40.3489075
4.32019949 4.30885458 35.5338593
3.26249433 -2.89027548 21.2097244
3.54167032 -4.25686836 21.1041679
4.33333731 -3.66666698 21.6666679
4.26827002 -2.68376136 20.3217239
3.34123087 -3.51467299 20.5430031
4.25000191 -2.75000024 33.7500038
4.23213863 -2.74618053 34.7579842
-3.45188642 3.37798309 32.4636383
2.50583124 -3.38839054 21.4491768
3.35555291 -3.12222219 14.8555546
-3.66666698 4.33333731 30.6666641
3.40000153 -3.40000153 15.6999998
4.24823427 -2.61465955 15.0919447
4.25000191 -2.75000024 32.7499962
-1.79999864 -4.20000124 32.7999954
4.15517569 -1.76809549 16.0331917
3.36733484 1.01671541 5.73838425
4.27704954 3.66406345 35.6679688
3.33333182 -1.04166663 33.9583359
4.30962753 -0.615342557 33.374321
3.88889027 0.0 33.8888931
-3.48760295 3.40435314 31.0160065
3.44609046 -4.28125572 24.1499577
3.40841985 2.46945906 16.5768642
4.23731375 2.64012051 15.7671251
4.17775774 2.60497737 16.7879829
-3.21191716 0.658733189 16.5855331
2.67708182 4.2740345 15.3229198
1.58333373 -4.19436979 32.2083321
3.66666698 4.33333731 15.333333
-1.66666591 4.16666651 27.8333321
4.30474997 -4.33036613 11.5133677
1.66666913 4.19436693 11.208334
1.80000186 4.1999979 10.1999998
1.66728354 4.27150726 9.32954502
2.65000224 4.25810337 10.3000002
-0.640239894 4.28364992 27.5973701
-3.66666698 4.33333731 32.6666641
-4.33333397 3.66666698 28.3333378
-2.6679697 4.27704954 29.6679707
4.28662109 -3.63364267 9.60965538
0.658568501 4.26311398 32.3027649
4.04444408 -0.899997771 30.8444462
4.18570137 -1.82004702 30.758646
4.1999979 -1.79999864 31.7999973
2.57310891 4.24758816 32.2361336
-2.75000024 -4.25000191 35.75
0.50211513 4.27056313 30.9631462
4.33347034 -4.31488514 30.341711
-0.614576101 -4.33390427 28.3734035
-0.615342557 -4.30962753 27.3965054
4.31027365 -4.33504438 23.6569023
4.2740407 3.64583945 34.6770859
1.8843317 4.17339373 30.3447514
-2.51111102 3.37778044 16.622221
-1.66666591 4.16666651 15.833333
3.88889027 0.0 27.8888912
1.71614075 4.23312044 26.3064327
-3.17764807 -2.23203945 39.5147438
4.24290085 2.62500024 31.791666
2.59999847 -4.20000124 27.2000008
3.88889027 0.0 28.8888912
-0.081713751 -0.643033385 48.5780067
0.627504587 4.26187229 30.0566502
3.67528176 4.33375502 30.3327541
4.22814798 -0.719191849 27.346077
3.94629908 3.49583459 30.6915398
4.30885458 4.32019949 24.4661465
4.32019949 4.30885458 25.5338573
-2.96871114 1.87007296 19.951189
3.67551613 4.33462286 29.3524475
3.40745711 2.55667758 28.9223557
-3.43523335 3.45953202 25.9694347
-3.47500062 3.42500329 26.9749966
-3.31583309 2.61029816 26.3696938
3.37795782 2.45795584 43.9821053
3.37733698 1.05560231 44.7080193
4.33333731 -3.66666698 24.6666679
4.29891586 0.646343112 30.6384392
0.698126793 4.25093269 22.3569031
4.32019949 4.30885458 28.5338593
3.05321836 -3.26793242 13.0398941
4.26778889 2.65833187 30.6833363
4.2740407 3.64583945 29.6770859
4.1646266 2.56921339 29.7810707
3.66666698 4.33333731 23.333334
2.62122512 4.23851728 23.2464447
2.6679728 4.27704334 24.3320312
4.26759863 1.66954494 27.6817055
-1.79999864 -4.20000124 43.7999954
-2.75000024 4.25000191 28.7500019
-4.24081039 1.67560697 23.2788734
-3.88942885 0.0202035662 31.0791931
2.61124206 4.19562721 28.3587017
2.77777982 0.0 33.7777786
3.65734267 4.31440973 28.3413391
-3.06591249 0.605289817 17.4932747
4.16328382 2.66893578 28.8668976
2.67708182 4.2740345 27.3229122
-0.663021564 4.22279549 26.6325073
4.25839472 -2.74269986 24.7163963
-4.21933079 -2.50049782 27.2792244
-2.61947036 -4.2915144 28.7981873
-4.29996729 0.648325741 24.3596592
3.66666698 4.33333731 27.3333321
-0.588886917 4.22762871 24.8111115
4.32061148 -4.31756115 24.4908886
4.26374102 3.58333802 24.7083321
2.73766398 4.2296114 25.2447739
3.66666698 4.33333731 26.333334
3.11111474 -0.777778685 29.5111122
4.3158226 4.31931257 26.489584
-4.30885458 4.32019329 24.5338554
3.17240644 -2.21925664 19.3525848
-4.27626085 2.66562915 24.3312531
4.18383265 0.604168653 26.9895782
-0.727087677 3.21186972 26.7432079
-0.00685065286 3.88885236 27.0428696
4.25221252 0.683373988 29.6347523
3.88889027 0.0 29.8888893
4.22465801 1.63419902 26.7474709
4.32019329 4.30885458 23.5338554
4.26453924 2.66384912 26.675272
-3.37222195 -1.78055525 35.297226
4.1999979 -1.79999864 24.8000011
-3.37170887 1.81955612 25.7058544
3.63933396 4.2860446 25.3443756
4.14084721 0.696954906 24.7028561
4.18452311 -1.64385891 19.2114716
4.33333731 3.66666698 26.6666622
4.26374102 3.58333802 25.7083321
2.21342278 -3.1804924 17.9990158
3.66666698 4.33333731 24.3333321
0.431796998 -4.2709465 18.376318
0.122190557 -3.86733747 17.9630585
1.48001969 -4.25111341 18.2433529
-2.77645898 4.2032032 23.7418327
-3.66666698 -4.33333397 42.6666641
1.66666913 4.27573824 5.33072805
4.2497735 1.66666281 24.7083321
-3.34159517 -1.01308262 6.03849888
-3.41358542 -2.43797398 6.11745691
-2.37125063 -3.24689579 5.99613094
4.30885458 4.32019949 22.4661446
4.27262831 2.6624999 23.6750011
4.1999979 2.59999847 24.8000011
-0.0573864877 3.74971724 15.0214081
4.27017689 1.67076743 25.6770134
4.32019949 4.30885458 18.5338554
4.33412266 -3.65368772 23.6705608
4.33333731 -3.66666698 22.6666679
-3.41973615 -1.69903469 46.8467102
-4.38186789 -3.60416865 48.6041641
-2.33203125 -4.27704668 47.6679688
-1.97222471 -3.43000102 47.3366699
-2.36666775 -3.50000262 48.2333336
-3.34226656 -2.63998747 8.04010201
-3.38780141 -3.24164462 7.0084219
2.70833564 4.26373482 22.2916679
2.6679728 4.27704334 21.3320312
3.66666698 4.33333731 19.3333321
-2.75000024 -4.25000191 43.75
4.27203274 -2.75219512 23.7734318
3.66666698 4.33333731 21.333334
3.66666698 4.33333731 20.333334
3.66666698 4.33333731 22.3333321
3.15192103 -0.841322243 23.5321484
4.1999979 -1.79999864 21.8000011
-0.833334565 4.02777815 19.4722233
0.682145119 4.24539661 19.2915783
-2.58888793 -3.35555601 39.5888863
3.42499685 3.47500062 18.9750023
4.1999979 2.59999847 19.7999992
3.40647507 2.26851296 18.9650154
4.27661276 2.66927147 18.6692715
4.32019949 4.30885458 21.5338554
3.28572893 -2.56898832 4.16147041
-2.75000024 -4.25000191 40.7500038
4.32019949 4.30885458 19.5338535
3.37598777 -1.78055847 3.32961822
1.69607973 -3.42877531 1.72903919
-3.66666698 4.33333731 19.6666679
3.28721738 -1.04425108 5.73884058
-1.66666591 4.16666651 18.8333321
3.24978757 -0.85264498 4.57420111
-3.31295729 0.999384463 24.2457275
4.27704954 3.66406345 19.6679688
-3.13474536 0.782051265 25.4728374
1.80923104 4.15276861 16.1237431
-3.34444547 1.81528044 27.2263889
-1.79999864 -4.20000124 42.7999992
0.0859926343 -3.79074526 19.0105953
-0.899997771 -4.04444408 19.9000015
1.67869806 4.27098751 19.3141575
1.70055175 4.24485826 17.2695999
2.33887553 -4.27445555 12.3281956
3.48120213 -4.06576252 23.2198086
-2.81180167 -0.00463044597 37.2318382
-0.774532318 4.00645685 17.3438587
0.360205621 4.3203454 17.6239853
-1.69950032 3.24777317 1.2008357
4.27060127 3.62500572 14.6875
4.21184349 2.59002185 13.7262926
4.21587849 2.63654804 14.692111
4.30885458 4.32019329 17.4661484
-0.82672143 2.57045484 0.772738039
1.80000186 -4.20000124 46.0000038
-2.67914057 4.26848555 15.6726007
-1.26067209 0.880500495 0.81980896
-0.844441891 -4.04444408 17.3999996
2.6679728 4.27704334 14.3320293
-2.77777982 0.0 41.0793648
-2.79411936 -0.0525818467 40.182827
-2.30835009 2.64318633 0.758292437
-2.66233206 4.33620644 14.6912661
4.32019949 4.30885458 15.5338545
-3.88889027 0.0 14.1111107
-3.85391808 -0.01210187 15.0731764
3.12899685 0.781493843 15.4372454
4.24404097 0.684159458 15.6373587
3.81857848 -0.0438467115 15.8663692
4.32019329 4.30885458 14.5338564
2.67243862 4.27684689 13.3285723
3.66491222 4.30455351 13.316926
-0.504062951 4.44896507 11.4408321
-1.66666591 4.16666651 10.8333321
4.29890966 -0.604672253 17.3884373
3.66666698 4.33333731 14.333334
0.626016021 4.3203454 11.3602076
0.653862 4.24924183 6.39828014
1.66666913 4.19436693 12.208333
-1.06466365 3.32891035 9.16470242
-2.67708182 4.2740345 11.677083
-2.67708182 4.2740407 12.6770821
0.636176348 4.30963373 7.3638196
-3.66666698 4.33333731 11.666666
1.66371095 4.26647758 6.32852888
4.09875536 1.71899128 14.8908024
-1.44999778 -4.25810337 11.7500019
2.65000224 4.25810337 11.2999992
4.32019949 4.30885458 13.5338535
3.66666698 4.33333731 12.333333
2.6679728 4.27704334 12.3320312
4.30885458 4.32019949 12.4661465
-3.41656899 -3.2237308 18.0276699
0.615348876 4.30963373 12.3743229
0.690455854 4.25451803 9.30552197
-3.66666698 4.33333731 9.66666794
3.66666698 4.33333731 11.333334
4.32019949 4.30885458 9.53385162
4.32019329 4.30885458 8.53385258
4.2740345 3.64583945 8.67708302
3.66666698 4.33333731 9.33333302
-3.11908984 -2.20543194 8.96423721
3.42272925 3.20652986 13.8553085
2.58658862 3.3380003 14.0321274
4.29220772 3.61606765 13.6668825
4.25723553 3.63910604 12.6644163
4.32019329 4.30885458 11.5338564
-3.29399514 3.1447947 40.0963745
-0.504062951 4.44896507 10.4408302
-2.7447679 -4.20217085 9.73275852
4.2740407 3.64583945 15.6770821
-0.0244856197 3.85561585 13.8332777
-1.07777584 3.35555291 2.41111135
4.33333731 3.66666698 10.666667
-2.60417914 -3.34039474 38.5502052
4.2740345 2.67708182 9.67708206
4.2740345 2.67708182 10.6770811
3.88889027 0.0 30.8888874
4.19885159 -1.77718532 8.76527691
3.44011092 -2.55104303 23.8418159
3.34444237 -1.81527722 24.440279
4.15064049 -1.69247866 23.801775
3.66666698 4.33333731 10.3333321
4.2740345 2.67708182 4.67708111
-0.683332801 -2.65833187 0.732210577
-0.473971426 4.37933111 8.45463181
0.0247263275 3.86025262 9.96789742
-0.0105119357 3.85752869 10.894022
3.16109943 0.832549095 8.14642811
3.21292758 0.750233591 7.11957788
-1.68333495 4.26778889 8.6833353
-2.67708182 4.2740345 5.67708349
-3.47500062 3.42500329 5.4749999
-0.00324954675 3.85968232 11.9569302
-0.646339893 -4.298913 10.360548
-0.104314886 -3.89458823 9.91202831
3.66666698 4.33333731 8.33333397
3.23333073 -1.68333173 26.0277748
3.66666698 4.33333731 7.33333206
-0.475836903 3.14276147 48.3267021
-3.35039353 2.54046774 32.4751663
-1.66666591 4.16666651 7.83333158
3.15966797 -3.41413665 13.9357433
2.67708182 4.2740345 7.32291842
-3.47500062 3.42499685 4.349998
-2.58888793 3.35555291 4.58889055
3.8468616 -0.0350355618 14.9519901
2.58650613 4.1814003 5.18187571
4.3158226 4.31931257 7.48958302
-0.429367751 4.37394047 7.42479801
4.2157135 2.63344407 6.80217409
1.70422578 4.24326849 7.32117319
4.32019949 4.30885458 6.53385496
4.1999979 -1.79999864 28.7999992
4.17084694 -1.71916544 20.9127674
4.20229721 -1.66055954 19.9963627
-3.36648607 3.1645391 11.0477514
-2.52643085 -3.3623054 10.548686
-3.43688655 -3.15273499 9.40736961
-2.68848372 -3.363832 9.03835583
-1.05253959 -3.39390779 8.99886703
1.23447299 4.21366119 1.52817845
-4.29956865 -0.535240889 45.5206299
-3.88889027 0.0 44.9999962
4.21936846 2.61666417 8.76666737
-4.13576412 -0.918494225 3.74885416
4.18366146 -1.7525984 3.23620486
-3.0 4.00000191 1.16666806
-2.70833254 4.26374102 4.58333206
-3.64583302 4.2740407 3.6770823
3.13332963 -3.40000153 7.39999866
3.13332963 -3.40000153 6.39999962
4.32019329 4.30885458 5.53385639
-0.041550491 3.84828687 9.1000433
4.32280302 -4.31232929 18.46875
-2.38256383 4.23168278 3.30329561
3.64587736 -4.44711876 18.8741512
-4.27403784 0.67708391 2.32291746
-1.29999924 4.25810337 3.30000186
4.16102266 -1.67999983 5.75045156
-2.33333302 3.66666698 0.666668534
0.691013277 3.63591981 0.69848305
4.28237677 2.6234293 5.6979804
4.2298522 1.64289606 6.76699257
3.61003733 4.31444788 3.31744051
-1.69557297 4.27255201 2.67213607
-2.65625119 4.31931257 0.684180021
-2.00000095 4.25000191 1.49999988
-3.29166746 2.70832944 0.708333075
1.15415919 4.27020836 2.55833244
3.6337471 4.31831837 2.32422256
4.42085934 4.50580359 1.51627612
-2.66256332 -3.40020418 24.0566235
-4.33333397 2.66666794 0.666668534
-4.27403784 2.67708182 1.35416627
3.35236049 -4.27370834 18.3229313
-0.738286912 4.01219559 1.56340098
0.230407432 4.21705675 1.53771806
0.822198689 -3.11569786 28.1647797
1.37499535 -4.26362371 25.3125019
1.66796768 2.6679728 0.722959161
-3.40000153 -3.13333583 36.1333351
-4.2773695 -3.66691399 1.66598654
-0.608723104 4.32377863 0.67686379
3.33594155 -4.27704668 16.3320312
3.50000262 -4.25000191 17.2499981
-1.79999864 -4.20000124 5.8000021
2.49999738 4.50000143 0.500001013
-1.08444285 -3.34794521 9.97490025
-0.944443107 -3.35555601 47.5888863
2.43218112 1.82731581 1.58028841
3.09335947 -0.729938149 8.12585449
-1.45833075 4.21936846 4.08333588
-3.48272538 -3.39590931 30.8462963
-2.42123222 -4.27657127 30.7675457
2.53348088 3.30577731 27.0842705
-3.42811346 3.31079412 33.3888168
4.29891586 0.646343112 7.63843489
4.44896507 0.504066169 5.44083214
-3.76650333 -4.30298901 6.52255774
0.0221703965 3.839463 7.9758935
-2.74838185 -4.24603939 6.7547164
4.2740407 3.64583945 7.67708111
-2.14999962 -2.75000024 1.28333497
-1.66797078 -3.66406035 0.722959161
2.55416918 -4.25568056 4.89166546
1.41666305 -4.58333349 0.611264706
-4.30630207 -0.383424342 1.31666338
-3.52058315 -2.72810221 0.777777076
-2.54166818 -4.29166651 2.54166651
-3.69579887 -4.25082207 7.64211845
0.65625006 -4.31581926 0.680689752
0.278783232 -3.50759435 0.733148098
-2.63001084 -1.88460088 0.744302928
4.27394581 1.67180634 5.68489695
-3.38866591 0.602813125 2.4690299
-4.42333603 -4.56865692 6.88405561
-4.42168951 -4.49285936 5.57542562
0.0 3.88889027 39.1111107
-1.48830187 -3.19948602 26.3637581
-3.53652978 -3.52060843 0.981599033
2.54807544 3.33883023 39.5165062
4.30400229 -2.6155653 3.07660341
1.77728033 -1.80691898 0.76164335
2.01691699 -2.66159725 0.750102103
1.34145474 -3.57479596 0.801065505
-2.33333302 -4.33333397 1.33333242
-1.24999869 -4.25000191 2.25000238
0.777712166 -4.28021669 2.29699397
-2.58888793 3.35555291 8.92222404
-3.35409284 2.50258803 8.38816452
-0.021540124 3.82100463 22.8542919
2.66666794 -4.33333397 0.666668534
1.66666281 -4.33333397 1.33333242
-0.343748838 -4.31581926 0.680689752
3.09990287 -3.31250429 5.05079794
0.651296616 -4.27062654 1.36833942
-1.33333397 -4.33333397 1.33333242
2.44299412 3.43541694 13.0072851
2.6659205 -4.21914387 1.66554308
4.32019329 -4.30885458 3.46614671
2.51111412 3.37778044 12.0444469
4.3541646 -4.30529165 49.3541603
4.50000143 -3.49999928 49.5
3.66666698 -4.33333397 48.6666641
3.33722758 -3.6296773 49.2688942
4.33333731 -3.66666698 48.6666641
3.3921721 3.16838408 14.9559803
3.35555291 -2.58888793 24.9222221
3.35555291 -2.58888793 25.9222183
-3.33434534 1.05062973 38.0038757
-1.32552052 -4.27489614 47.6744804
-0.668747842 -2.66562605 49.2762604
-2.67708182 -3.64583302 49.2740364
2.40005946 -4.21691704 40.3422623
-2.33333302 -4.33333397 48.6666641
4.23730135 2.69519186 46.6933098
-0.999998927 -4.20000124 46.7999992
-1.6927098 -4.27091455 46.3885422
3.44984674 3.4599185 45.8723831
3.37778044 2.51111412 44.955555
-3.66666698 -3.66666698 49.3333359
-1.53333318 -2.7333343 48.3999977
-3.53881669 -2.69447923 49.2464409
4.32268906 -4.36109114 48.6145821
4.41096497 -4.51033306 43.4694481
4.30921555 -4.32266998 44.6014481
4.2740407 -2.32291913 48.6458359
3.66666698 -2.66666794 49.3333359
2.33749461 -4.27626085 44.3312492
-4.29711723 -1.67399478 47.6502151
-1.33800244 -4.29552412 48.6544762
-0.815826297 -1.64623117 49.14991
4.33333731 -3.66666698 43.6666641
-2.75000024 -4.25000191 46.7500038
4.33696651 -4.31655073 47.3417854
3.39601707 -2.75754142 29.9782352
4.44896507 0.504066169 41.4408302
3.31300473 -2.44319987 6.06182194
3.50000262 -4.25000191 44.25
1.8497206 -1.49571955 49.2382622
-1.90364218 -3.33228993 9.43326473
1.66874683 -4.27626419 46.6687508
4.30832243 -4.33243752 36.654953
3.89780283 -3.47733498 41.026783
3.14962173 -3.4424293 41.4513283
0.674385488 -1.35262227 49.2652206
3.20856309 1.62010491 42.8446732
4.20540142 -2.70598555 45.7406845
3.11455441 3.34211135 40.3700027
4.23456478 1.66774595 45.6554985
4.29498863 -0.668104887 43.3797035
4.17903757 -1.76562822 43.7634735
1.55680525 -4.18284464 11.2416849
-0.0572281294 3.89582658 25.9431667
-3.83397102 -0.0250240434 43.1936531
4.30632734 -3.48633599 33.65242
4.29680014 -3.66338253 32.6903343
4.27715731 -0.691406012 48.3456993
4.25824928 -0.285706729 47.7011375
4.3347497 -3.8068378 34.5855179
-2.22522998 2.36848879 39.7132683
-2.72646785 -0.0162984096 24.091938
4.42574978 -4.57926369 41.4131012
3.14224839 -3.41900134 40.3262558
3.50000262 -4.25000191 40.2500038
4.3203516 -0.626016021 36.3602066
2.40000248 -4.25810337 41.2999992
4.25000191 -2.75000024 40.7500038
4.15808964 -1.83131599 39.9901085
-3.88889027 0.0 41.1111145
-3.66666698 -4.33333397 35.6666641
-2.75000024 -4.25000191 39.7500038
4.3738265 -4.38319826 35.3863831
4.1999979 -1.79999864 27.8000011
3.16498876 -0.762199223 26.1207905
4.29891586 0.646343112 38.6384354
-3.66666698 -4.33333397 36.6666641
3.28666639 -1.74333119 17.9848461
3.8925643 -0.0177743249 17.9311943
0.381121784 -4.24838018 36.5888138
3.37778044 2.51111412 42.9555588
0.780100286 -4.13319874 12.0870991
4.33333731 -3.66666698 36.6666641
0.680118084 -4.27288485 34.6662216
-0.642342925 -4.24470949 34.8328934
4.16666651 1.66666913 31.833334
3.37640572 3.1210978 38.9405823
4.2740407 3.64583945 38.6770821
-1.79999864 -4.20000124 36.0
4.27019596 -0.673957884 29.3336792
4.1999979 -1.79999864 29.7999992
2.45677781 -4.25408411 36.2775688
1.67470109 -4.18799114 35.2183037
4.30963373 0.615348876 34.6034927
2.53333521 -4.21936846 34.2333374
-3.86065483 -0.0117661469 36.1100616
2.33749461 -4.27626085 32.3312492
-2.75000024 -4.25000191 32.7499962
3.49469423 -4.25945902 28.3090076
-2.75000024 -4.25000191 29.7500019
4.30963373 -0.615342557 38.3743172
0.359850883 -4.18393421 30.6127014
4.37248993 -4.39025497 22.3840103
4.29891586 0.646343112 35.6384392
4.1999979 -1.79999864 33.7999992
2.77777982 0.0 5.92063475
4.2740407 3.64583945 36.6770859
4.27704954 3.66406345 37.6679688
4.33333731 -3.66666698 30.6666641
2.34166265 -4.27505112 31.3291664
0.0102332216 -3.85712647 8.12806797
2.51903224 -4.16044903 29.2330761
1.37499535 -4.26362371 29.3125038
3.15878105 -3.42790127 29.090559
4.21032286 -2.74080586 29.6557388
4.25000191 -2.75000024 28.7500019
4.26407051 -3.60431743 29.6152821
-4.30192184 -4.34963226 30.3886986
-3.59726405 -4.2410512 28.6214638
-3.66666698 -4.33333397 29.666666
0.0 -3.88889027 28.0000038
2.42074776 -4.2727294 30.3351288
4.33333731 -3.66666698 28.666666
4.29891586 -0.35467568 32.6384354
4.25406837 0.682290792 28.6380291
4.24326849 1.66522491 28.7109756
4.25000191 -2.75000024 30.75
0.0 -3.88889027 27.1111088
-4.24707842 -2.65157628 31.0023823
2.77777982 0.0 6.77777719
3.40105295 -4.22410345 29.4029198
-0.979212582 3.72915578 18.2188702
4.3054533 -0.645696998 24.3551102
-1.83070159 -4.17768526 28.8103065
2.48664451 3.26644683 28.1773987
-1.50785625 -4.27476311 27.6958199
2.33749461 -4.27626085 26.3312492
2.53333521 -4.21936846 25.2333336
2.67708182 4.2740345 20.3229179
3.34360003 -4.27621651 22.3256645
-1.72962034 -4.15878344 26.7954159
4.26778889 2.65833187 22.6833324
2.36717772 -4.27097511 22.3128376
1.66666913 -4.16666651 23.166666
2.50600243 -4.24880457 24.2760487
-3.88395262 0.0679459348 39.167366
-3.85977745 0.00439607305 38.103756
4.29433632 -0.620862961 25.3975849
2.33749461 -4.27626085 23.3312492
4.2740345 3.64583945 23.6770821
3.23326731 -1.82684386 49.0693283
-2.75526738 -4.2428565 18.4972095
4.12415648 -1.73270202 22.8581867
3.13332963 -0.866666138 48.3999977
-2.75000024 -4.25000191 21.75
-2.30282331 3.09188986 40.7584953
4.25000191 -2.75000024 17.7500019
3.3132329 -1.12363684 6.77365017
3.35555291 -2.58888793 6.92222357
-3.41352844 -3.20683718 20.0968399
-3.49836826 -3.2246685 19.1190968
-2.60197473 -3.3351593 19.6691589
3.37556958 3.19071293 24.6063995
3.13711762 -3.40215182 24.0220947
4.17326689 -2.75371861 22.7597256
-3.25329041 -2.91687989 2.23655128
1.72310865 -4.1566391 19.0048485
-1.79999864 -4.20000124 20.8000011
-1.79999864 -4.20000124 19.7999992
-0.418697447 -4.3632164 20.5853672
3.47249222 -3.47815204 19.1241131
-2.66124272 -4.27574158 17.7111645
0.0 -3.88889027 22.1111126
-3.40000153 -3.13333583 21.0666676
4.31793833 -3.63449144 18.8546982
3.38762403 3.43938875 12.4000912
3.40000153 3.40000153 11.5000019
4.2740345 3.64583945 11.677083
4.26778889 2.65833187 11.6833353
2.34714818 -4.27273607 17.3267365
-0.400055319 -4.30603266 18.6040535
4.25969362 -1.39436913 17.9855976
4.03213024 -0.68694973 16.3685989
4.25000191 -2.75000024 21.75
2.77021003 4.17271566 30.3012466
4.31180668 -4.33803082 33.6681366
2.58499861 -4.2600069 16.2538033
3.59167409 -2.60876846 11.5601883
4.42274714 0.568208277 17.4567318
4.15620852 1.68362629 29.8601246
4.26551485 1.66491449 30.6791058
-1.85697663 -3.3664577 20.2377014
4.26362705 1.66666913 13.6874981
-0.64062947 -4.31211996 13.3588505
4.20421028 -1.72200954 13.7702503
-3.42562723 -3.22861147 10.4783993
-3.66666698 -4.33333397 9.66666794
-3.69071555 -4.30830669 10.6509418
-0.657060862 -4.27702427 11.4036713
4.236516 -3.31568432 14.43262
4.21483946 -2.74165463 13.722724
1.37499535 -4.26362371 10.3125019
-1.62623346 -4.1578393 8.24869442
4.30538321 -4.40397835 42.623661
-0.635492265 -4.31450176 9.36096668
3.50505114 -4.20050478 9.31423473
3.4469583 3.25583673 27.8883152
4.11644077 -1.80010319 7.74370003
-2.79617167 -4.18918514 5.78371
4.04968262 -0.902591705 7.80793381
-3.23854709 -3.43741226 7.88996744
-3.66666698 -4.33333397 8.66666603
3.70760608 -2.6381855 4.92215586
4.22952271 -2.75761414 5.74637508
4.1999979 -1.79999864 4.99999952
4.22987127 3.49240756 6.59792423
-1.70335162 -4.18776941 9.03877068
0.626016021 -4.3203454 8.63979244
4.30052471 -0.651907861 5.3481698
3.86694789 -0.0130868685 5.90432978
3.87727928 -0.0108666616 6.92193842
4.25000191 -2.75000024 6.75000048
3.41783905 -4.25049257 27.287693
4.16916227 1.6049974 7.80156136
-2.80122018 -3.60133076 1.76975667
3.66406345 -4.27704668 3.66797018
3.50000262 -2.25000072 0.750000715
-0.333331913 -4.33333397 1.33333242
4.22917414 -1.71692622 4.25360107
-2.70317006 -3.53086376 2.7804606
4.29095364 -2.70687246 4.25042439
4.44436646 -2.45833588 49.5416679
3.75000238 -2.9166677 48.25
4.16667271 -1.58333063 49.3193665
3.65105891 3.33423138 49.3277588
4.3158226 1.34374774 49.3193092
-3.32752323 3.655056 49.308403
3.66666698 -0.666666985 49.3333359
0.668361485 -4.2766571 47.6667976
4.1999979 2.59999847 36.7999992
-1.66666591 -0.687497675 49.2636185
4.25686836 -2.72916627 46.8958397
-2.62621021 -0.0140275266 49.2322807
-3.49999928 -0.749999166 49.25
-2.60000157 -0.799999774 49.2000008
-3.15366292 -1.90158033 1.56366062
4.25000191 -2.75000024 42.75
-0.0136379618 -1.69818902 49.0966454
2.46666574 -4.23873615 42.2666664
4.33333731 -3.66666698 44.6666641
4.26373482 2.70833564 40.7083359
-2.55128384 -3.36077571 17.5841579
4.304142 -0.582448006 15.4268799
3.83544064 0.0341867507 40.9024315
4.27625799 2.66562915 37.6687469
-3.47500062 3.42500329 41.4750061
3.18294692 -3.37700748 8.40490341
4.33333731 -3.66666698 15.333333
3.11566925 -3.40346313 33.0854187
3.14784789 -3.38282561 32.0826302
-3.88889027 0.0 32.1111107
4.23194218 2.8401103 32.8250046
4.33333731 -3.66666698 31.6666641
4.05196333 0.924904644 25.8879433
3.47499442 3.42500329 26.5249939
4.25000191 -2.75000024 31.75
4.30025244 0.388381004 8.34493923
4.33333731 3.66666698 27.6666679
4.29891586 -0.521340072 28.4717693
3.39999509 3.40000153 9.00000095
-3.4431355 3.43196487 43.9790077
0.0 -3.88889027 21.1111126
4.25000191 -2.75000024 27.7500038
4.31112242 -3.62975645 27.6494389
-3.41751289 3.45372343 42.8800583
-3.2939477 -3.32642412 25.065403
4.26778889 2.65833187 25.6833363
4.27060747 3.62500572 22.6874981
3.13332963 -3.40000153 25.0666695
-2.58888793 -3.35555601 20.922224
4.27704334 3.66406345 20.6679707
4.2740407 3.64583945 21.6770821
4.33333731 3.66666698 18.6666679
3.38762403 3.43938875 8.06133842
-2.44444466 3.38889098 1.77777922
4.33333731 -3.66666698 17.666666
4.33333731 -3.66666698 16.6666679
4.26779509 1.68333495 18.6833344
4.26694012 1.63860774 17.7242107
0.017688809 3.89141774 12.8745031
4.39563608 -4.33499336 15.651041
3.35416579 -4.2740407 15.3229198
4.26870728 2.66318417 12.6830492
4.33333731 3.66666698 9.66666794
4.05124712 0.810980439 6.39645576
3.9925909 0.60000062 13.2666655
0.015611127 -3.8636477 9.05354309
4.25432205 -1.69305503 6.78915977
4.30609941 -3.7108779 8.65915394
1.37499535 -4.26362085 8.31250095
-3.47500062 3.42500329 8.47500038
4.25000191 -2.75000024 7.74999952
-3.42608333 -3.16623354 29.4272823
4.33333731 -3.66666698 7.66666746
3.12147164 3.46534705 3.97251868
4.33333731 -3.66666698 3.33333349
3.3423965 3.10887885 29.8854237
-3.88465905 -0.00648642471 44.0962067
-3.47500062 3.42499685 7.474998
3.14095616 -3.39080071 17.0740681
3.88889027 0.0 32.8888855
3.91710377 -0.0457628667 43.8939476
3.8857801 0.00177363178 44.8846741
3.88889027 0.0 4.99999952
3.40000153 3.13332963 22.6000004
3.42500329 -0.0249987058 48.4749985
3.37778044 2.51111412 41.9555588
-3.40000153 -3.13333583 22.0666656
0.0 -3.88889027 19.9999981
-0.888887227 3.88889027 39.1111107
3.12221909 3.35555291 44.4111137
3.12221909 3.35555291 41.4111176
-3.47500062 3.42500329 24.9750004
-3.58333468 2.08333325 1.75000286
CELLS 31305 156525
4 2202 2203 2204 2205
4 2202 2204 2206 2205
4 2207 2208 2209 2210
4 2208 2210 2207 2211
4 2208 2212 2213 2214
4 2208 2215 2216 2217
4 2208 2218 2212 2214
4 2208 2210 2218 2209
4 2219 2220 2221 2222
4 2219 2223 2224 2220
4 2219 2225 2226 2227
4 2219 2228 2225 2227
4 2219 2223 2228 2224
4 2229 2219 2230 2226
4 2231 2232 2233 2234
4 2231 2235 2236 2233
4 2237 2238 2239 2240
4 2241 2231 2242 2243
4 2235 2231 2232 2233
4 2231 2244 2245 2235
4 2246 2247 2248 2249
4 2246 2250 2251 2252
4 2246 2247 2253 2248
4 2204 2254 2205 2203
4 2255 2256 2257 2258
4 2204 2259 2260 2261
4 2204 2261 2260 2262
4 2263 2264 2265 2266
4 2263 2267 2268 2269
4 2263 2264 2270 2271
4 2263 2264 2271 2272
4 2250 2273 2274 2275
4 2250 2276 2252 2275
4 2250 2277 2278 2253
4 2279 2250 2246 2252
4 2250 2251 2252 2276
4 2246 2250 2278 2253
4 1472 98 2280 2281
4 2282 2283 2284 2285
4 2286 2283 2287 2277
4 2283 2287 2277 2282
4 2282 2288 2284 2289
4 2282 2251 2290 2287
4 2282 2284 2274 2285
4 2291 2292 2293 2294
4 2287 2251 2277 2282
4 2295 2296 2297 2298
4 2299 2295 2296 2297
4 2298 2223 2224 2228
4 2298 2223 2228 2300
4 2298 2223 2300 2301
4 2298 2224 2223 2220
4 2302 2303 2304 2305
4 2306 2307 2308 2302
4 2309 2310 2311 2312
4 2302 2304 2303 2306
4 2302 2313 2314 2315
4 2302 2307 2316 2317
4 2302 2314 2318 2315
4 2302 2313 2307 2308
4 2319 2320 2321 2322
4 2323 2324 2325 2326
4 2327 2328 2320 2329
4 2323 2328 2320 2327
4 2323 2326 2325 2327
4 2323 2330 2325 2324
4 2321 2331 2330 2323
4 2332 2321 2331 2330
4 2323 2333 2322 2328
4 2320 2327 2331 2323
4 2334 2335 2336 2337
4 2334 2338 2339 2337
4 2340 2341 2342 2343
4 2344 2345 2346 2347
4 2348 2344 2349 2345
4 2348 2344 2350 2293
4 2344 2346 2351 2352
4 2344 2345 2353 2346
4 2354 2355 2356 2357
4 2357 2358 2359 2360
4 2357 2358 2356 2359
4 2357 2354 2359 2356
4 2361 2362 2228 2221
4 2361 2362 2363 2364
4 2365 2366 2367 2368
4 2368 2366 2367 2369
4 2361 2224 2221 2228
4 2297 2368 2369 2361
4 2370 2371 2372 2341
4 2368 2297 2363 2361
4 2373 2368 2297 2363
4 2361 2228 2366 2374
4 2361 2224 2228 2297
4 2361 2297 2228 2374
4 2375 2376 2377 2378
4 2375 2379 2380 2378
4 2375 2381 2382 2377
4 2375 2383 2384 2379
4 2375 2385 2381 2377
4 2219 2220 2222 2386
4 2298 2387 2220 2388
4 2298 2228 2224 2297
4 2298 2389 2295 2390
4 2223 2225 2391 2392
4 2223 2392 2301 2225
4 2393 2394 2395 2396
4 2393 2397 2398 2399
4 2393 2400 2397 2401
4 2393 2400 2402 2398
4 2393 2398 2402 2394
4 2393 2395 2403 2396
4 2403 2393 2317 2401
4 2404 2405 2406 2407
4 2404 2408 2409 2410
4 2404 2411 2409 2408
4 2404 2378 2409 2411
4 2404 2412 2413 2410
4 2414 2415 2416 2417
4 2414 2418 2419 2420
4 2421 2422 2423 2424
4 2414 2417 2420 2419
4 2425 2418 2419 2414
4 2414 2426 2398 2427
4 2414 2427 2398 2428
4 2414 2318 2428 2425
4 2429 2430 2431 2432
4 2433 2434 2333 2325
4 2435 2436 2437 1671
4 2429 2438 2439 2433
4 2429 2325 2440 2441
4 2429 2434 2325 2441
4 2442 2443 2444 2445
4 2446 2432 2447 2448
4 2446 2449 2447 2450
4 2451 2452 2453 2454
4 2454 2455 2456 2452
4 2454 2457 2458 2459
4 2454 2460 2461 2462
4 2454 2458 2462 2459
4 2454 2460 2462 2451
4 2455 2463 2464 2453
4 2454 2465 2455 2453
4 2455 2210 2452 2211
4 2455 2466 2467 2468
4 2455 2465 2468 2463
4 2469 2470 2471 2472
4 2469 2306 2308 2303
4 2469 2473 2474 2475
4 2469 2472 2474 2470
4 2469 2306 2470 2473
4 2469 2475 2308 2306
4 2476 2477 2478 2479
4 2476 2479 2478 2480
4 2476 2481 2482 2483
4 2484 2485 2486 2487
4 2484 2488 2489 2490
4 2484 2267 2491 2492
4 2484 2491 2493 2487
4 2494 2381 2495 2496
4 2494 2497 2496 2495
4 2498 2499 2500 2501
4 2502 2503 2504 1793
4 89 1562 2505 1553
4 2494 2506 2507 2501
4 2494 2495 2508 2497
4 2494 2507 2506 2509
4 2510 2494 2499 2511
4 2494 2511 2510 2508
4 2494 2512 2511 2508
4 2494 2509 2512 2508
4 2513 2514 2515 2516
4 2514 2517 2518 2513
4 2513 2519 2517 2520
4 2521 2514 2515 2513
4 2522 2523 2524 2525
4 2526 2515 2527 2521
4 2528 2529 2530 2531
4 2436 2532 1237 2533
4 2513 2519 2520 2527
4 2513 2424 2521 2514
4 2534 2535 2536 2537
4 2534 2538 2539 2540
4 2534 2540 2541 2542
4 2534 2542 2290 2540
4 2429 2430 2432 2450
4 2429 2430 2441 2440
4 2430 2543 2271 2441
4 2430 2543 2441 2440
4 2544 2545 2546 2547
4 2430 2272 2432 2450
4 2274 2251 2277 2250
4 2278 2253 2548 2549
4 2246 2251 2250 2253
4 2246 2278 2550 2551
4 2246 2278 2551 2253
4 2278 2548 2253 2277
4 2278 2552 2553 2554
4 2461 2459 2462 2555
4 2454 2461 2459 2462
4 2461 2462 2556 2557
4 2461 2558 2559 2560
4 2461 2561 2562 2456
4 2461 2561 2559 2562
4 2436 1672 200 1671
4 2461 2561 2563 2559
4 2564 2565 2566 2315
4 2302 2314 2313 2308
4 2313 2314 2567 2568
4 2316 2313 2302 2315
4 2569 198 199 1229
4 2313 2566 2567 2315
4 2474 2473 2570 2475
4 2571 2572 2195 2573
4 2574 2575 2576 2577
4 2574 2307 2475 2306
4 2302 2574 2575 2306
4 2574 2317 2577 2578
4 2574 2576 2579 2577
4 2580 2581 2582 2478
4 2580 2583 2584 2585
4 2575 2586 2401 2587
4 2574 2317 2575 2577
4 2575 2586 2577 2401
4 2302 2575 2304 2306
4 2454 2465 2457 2459
4 2588 2234 2589 2590
4 2234 2588 2591 2590
4 2592 2199 2200 197
4 2234 2465 2588 2468
4 2465 2588 2463 2593
4 2455 2207 2467 2210
4 2454 2466 2455 2465
4 2233 2465 2241 2234
4 2465 2468 2234 2233
4 2465 2588 2468 2463
4 2439 2429 2433 2594
4 2455 2468 2465 2466
4 2595 2596 2260 2597
4 2595 2598 2599 2600
4 2601 2202 2598 2203
4 2202 2598 2602 2603
4 2595 2604 2605 2606
4 2202 2595 2598 2599
4 2598 2607 2603 2608
4 2595 2609 2601 2610
4 2598 2603 2599 2600
4 2611 2612 2613 2614
4 2611 2615 2301 2616
4 2611 2616 2301 2617
4 2596 2604 2206 2618
4 2618 2596 2619 2206
4 2206 2596 2619 2260
4 2620 2621 2266 2270
4 2596 2622 2623 2597
4 2595 2604 2596 2605
4 2596 2619 2624 2625
4 2596 2626 2619 2623
4 2596 2619 2626 2624
4 2596 2605 2624 2622
4 2467 2627 2628 2207
4 2467 2627 2464 2629
4 2467 2630 2631 2628
4 2368 2632 2633 2634
4 2388 2220 2615 2387
4 2387 2635 2636 2637
4 2387 2296 2635 2637
4 2387 2638 2639 2636
4 2612 2387 2615 2638
4 2387 2639 2638 2612
4 2400 2587 2640 2641
4 2641 2642 2643 2644
4 2645 2646 2647 2642
4 2646 2647 2642 2641
4 2641 2643 2397 2587
4 2641 2648 2646 2649
4 2641 2640 2650 2587
4 2641 2644 2650 2647
4 2651 2652 2382 2653
4 2651 2515 2654 2655
4 2656 2653 2657 2651
4 2651 2653 2382 2658
4 2286 2659 2660 2661
4 2662 2659 2289 2287
4 2663 2662 2659 2289
4 2289 2664 2665 2662
4 2662 2290 2666 2287
4 2662 2666 2290 2664
4 2662 2666 2667 2661
4 2668 2669 2670 2671
4 2662 2672 2667 2666
4 2662 2672 2666 2664
4 2218 2673 2674 2675
4 2673 2628 2675 2218
4 2208 2212 2218 2210
4 2218 2210 2628 2209
4 2676 2385 2677 2384
4 2676 2384 2678 2679
4 2676 2376 2680 2385
4 2676 2681 2680 2682
4 2676 2385 2681 2677
4 2676 2681 2683 2678
4 2426 2565 2396 2427
4 2426 2427 2396 2398
4 2414 2565 2426 2427
4 2402 2684 2685 2394
4 2426 2402 2686 2398
4 2565 2394 2687 2426
4 2688 2565 2394 2687
4 2247 2248 2249 2689
4 2247 2690 2691 2692
4 2247 2693 2694 2695
4 2247 2695 2253 2693
4 2247 2695 2251 2253
4 2247 2692 2695 2694
4 2696 2247 2693 2694
4 2375 2380 2676 2376
4 2680 2697 2470 2471
4 2680 2698 2470 2682
4 2680 2385 2699 2681
4 2680 2473 2470 2698
4 2345 2700 2349 2348
4 2376 2701 2472 2680
4 2680 2473 2474 2470
4 2680 2472 2474 2702
4 2680 2702 2701 2472
4 2703 2704 2705 2706
4 2703 2707 2708 2709
4 2703 2710 2707 2709
4 2711 2705 2708 2703
4 2712 2711 2705 2708
4 2703 2711 2705 2704
4 2703 2711 2713 2709
4 2714 2715 2716 2717
4 2718 2714 2715 2716
4 2717 2716 2714 2570
4 2717 2719 2716 2475
4 2717 2714 2715 2720
4 2717 2570 2307 2475
4 2314 2318 2721 2305
4 2671 2199 2190 2191
4 2314 2722 2721 2723
4 2313 2724 2314 2568
4 2707 2725 2726 2727
4 2314 2721 2418 2723
4 2314 2724 2723 2568
4 2314 2723 2418 2567
4 2728 2729 2730 2731
4 2339 2732 2712 2733
4 2734 2731 2735 2730
4 2729 2730 2736 2737
4 2734 2738 2731 2730
4 2731 2738 2739 2729
4 2740 1802 1810 1801
4 2741 2731 2738 2739
4 2491 2742 2487 2743
4 2484 2491 2744 2488
4 2491 2492 2271 2488
4 2491 2745 2268 2746
4 2491 2268 2271 2267
4 2491 2744 2488 2747
4 2707 2748 2708 2606
4 2707 2748 2727 2749
4 2707 2708 2750 2751
4 2751 2707 2703 2710
4 2752 2339 2753 2733
4 2592 2199 197 2754
4 2707 2710 2755 2725
4 2707 2725 2755 2726
4 2707 2749 2726 2750
4 2680 2702 2474 2473
4 2469 2475 2474 2472
4 2756 2702 2757 2758
4 2204 2203 2259 2759
4 2474 2760 2702 2757
4 2474 2579 2570 2473
4 2474 2570 2761 2475
4 2234 2762 2763 2589
4 2234 2232 2468 2589
4 2231 2762 2288 2284
4 2231 2234 2762 2763
4 2231 2284 2235 2232
4 2466 2233 2465 2241
4 2234 2242 2591 2241
4 2234 2241 2231 2242
4 2231 2764 2762 2242
4 2404 2406 2765 2407
4 2404 2407 2377 2653
4 2404 2766 2406 2413
4 2406 2767 2766 2768
4 2406 2767 2769 2770
4 2406 2771 2767 2770
4 2276 2279 2772 2773
4 2774 2775 2477 2481
4 2776 2276 2777 2778
4 2778 2773 2776 2276
4 2773 2776 2252 2779
4 2773 2780 2781 2778
4 2773 2782 2279 2772
4 2751 2783 2784 2785
4 2675 2674 2631 2673
4 2675 2673 2631 2628
4 2218 2786 2787 2675
4 2675 2788 2787 2789
4 2695 2693 2277 2253
4 2666 2692 2287 2536
4 2692 2287 2536 2695
4 2461 2555 2462 2557
4 2461 2790 2460 2452
4 2454 2451 2452 2460
4 2462 2791 2451 2460
4 2792 2657 2793 2794
4 2792 2655 2795 2796
4 2792 2526 2797 2422
4 2792 2798 2797 2434
4 2792 2799 2434 2794
4 2767 2770 2800 2769
4 2767 2771 2766 2801
4 2767 2802 2800 2803
4 2246 2779 2535 2249
4 2246 2248 2551 2804
4 2250 2276 2274 2251
4 2773 2779 2279 2782
4 2773 2279 2252 2276
4 2252 2535 2777 2276
4 2777 2252 2779 2535
4 2492 2805 2441 2271
4 2492 2449 2422 2267
4 2492 2449 2450 2798
4 2373 2806 2295 2807
4 2373 2299 2806 2528
4 2373 2808 2528 2809
4 2373 2295 2299 2297
4 2373 2809 2810 2808
4 2373 2810 2368 2808
4 2335 2811 2812 2790
4 2334 2336 2811 2205
4 2212 2213 2558 2790
4 2813 2814 2815 2816
4 2816 2817 2813 2814
4 2213 2790 2812 2811
4 2811 2558 2818 2819
4 2811 2820 2254 2821
4 2811 2820 2819 2254
4 2811 2821 2812 2213
4 2822 2823 2824 2825
4 2825 2826 2822 2823
4 2826 2407 2827 2653
4 2816 2828 2829 2830
4 2765 2823 2831 2407
4 2826 2825 2827 2823
4 2832 2833 2834 2835
4 2836 2837 2838 2833
4 2839 2837 2840 2841
4 2841 2842 2839 2837
4 2833 2837 2838 2834
4 2842 2808 2835 2833
4 2373 2808 2842 2528
4 2843 2535 2844 2777
4 2843 2691 2845 2846
4 2843 2691 2247 2845
4 2843 2845 2847 2846
4 2816 2848 2828 2849
4 2362 2850 2221 2851
4 2362 2221 2852 2851
4 2362 2853 2854 2364
4 2362 2363 2364 2852
4 2218 2562 2212 2855
4 2816 2856 2817 2830
4 2208 2212 2452 2216
4 2208 2210 2211 2452
4 2212 2216 2790 2452
4 2855 2558 2562 2212
4 2212 2216 2213 2790
4 2301 2225 2386 2223
4 2857 2816 2858 2848
4 2219 2221 2224 2228
4 2386 2225 2859 2230
4 2223 2391 2225 2228
4 2225 2860 2227 2228
4 2219 2227 2861 2228
4 2219 2228 2861 2221
4 2204 2203 2759 2254
4 2205 2602 2818 2338
4 2821 2336 2262 2204
4 2602 2203 2607 2598
4 2205 2599 2337 2336
4 2761 2475 2719 2472
4 2862 2831 2863 2864
4 2831 2863 2864 2761
4 2474 2761 2758 2472
4 2761 2570 2758 2716
4 2761 2864 2865 2863
4 2761 2831 2758 2472
4 2701 2756 2702 2866
4 2701 2407 2377 2867
4 2826 2831 2862 2823
4 2826 2701 2756 2758
4 2868 90 2869 573
4 2407 2826 2701 2653
4 2779 2279 2870 2871
4 2872 123 1247 0
4 2779 2871 2873 2874
4 2246 2779 2804 2874
4 2779 2873 2875 2876
4 2816 2815 2813 2857
4 2250 2277 2285 2553
4 2779 2535 2877 2777
4 2776 2777 2252 2779
4 2672 2664 2878 2879
4 2672 2664 2880 2881
4 2672 2538 2290 2881
4 2672 2664 2879 2880
4 2672 2538 2882 2883
4 2672 2883 2882 2879
4 2884 2885 2886 2887
4 2884 2873 2874 2804
4 2884 2888 2873 2804
4 2889 2884 2873 2874
4 2890 1068 56 1059
4 2884 2887 2551 2891
4 2892 2893 2894 2895
4 2887 2551 2804 2884
4 2804 2896 2897 2886
4 2884 2885 2898 2888
4 2404 2413 2406 2405
4 2406 2360 2899 2359
4 2406 2766 2767 2771
4 2768 2900 2765 2901
4 2768 2902 2900 2903
4 2768 2900 2902 2409
4 2404 2768 2409 2867
4 2654 2515 2658 2516
4 2516 2904 2905 2508
4 2906 2904 2905 2516
4 2654 2907 2908 2909
4 2654 2909 2908 2383
4 2495 2654 2383 2382
4 2651 2413 2653 2657
4 2651 2654 2382 2909
4 2654 2383 2382 2909
4 2235 2233 2232 2910
4 2235 2285 2232 2284
4 2911 2912 2894 2913
4 2235 2284 2244 2289
4 2244 2235 2289 2245
4 2235 2236 2283 2245
4 2235 2284 2283 2285
4 2914 2915 2916 2917
4 2332 2330 2324 2918
4 2919 2920 2921 2332
4 2332 2922 2918 2923
4 2914 2915 2279 2924
4 2279 2924 2925 2914
4 2914 2279 2874 2926
4 2914 2927 2550 2554
4 2914 2916 2926 2927
4 2928 2770 2327 2794
4 2928 2359 2770 2793
4 2845 2929 2846 2691
4 2845 2847 2846 2930
4 2247 2690 2845 2691
4 2247 2249 2845 2689
4 2536 2843 2691 2247
4 2843 2847 2845 2249
4 2619 2206 2262 2618
4 2604 2931 2618 2932
4 2604 2605 2606 2748
4 2389 2933 2934 2935
4 2298 2389 2390 2300
4 2389 2297 2936 2228
4 2228 2389 2298 2300
4 2389 2300 2933 2937
4 2938 2939 2940 2941
4 2942 2943 2944 2938
4 2945 2938 2942 2530
4 2938 2700 2939 2943
4 2946 2947 2948 2949
4 2938 2944 2528 2700
4 2950 2211 2951 2452
4 2950 2952 2951 2775
4 2950 2953 2954 2952
4 2950 2954 2953 2783
4 2950 2216 2481 2211
4 2381 2382 2495 2383
4 2381 2385 2677 2496
4 2381 2866 2377 2385
4 2581 2583 2582 2955
4 2581 2956 2583 2957
4 2478 2958 2581 2627
4 2581 2627 2958 2959
4 2464 2478 2582 2627
4 2960 2961 2962 2963
4 2964 2581 2958 2959
4 2581 2959 2964 2957
4 2581 2959 2955 2582
4 2273 2965 2629 2232
4 2960 2966 2338 2967
4 2273 2968 2275 2969
4 2273 2965 2232 2763
4 2402 2398 2970 2686
4 2971 2395 2393 2402
4 2911 2948 2947 2894
4 2393 2394 2396 2398
4 2426 2686 2402 2684
4 2426 2394 2402 2398
4 2686 2972 2415 2426
4 2402 2685 2395 2394
4 2684 2426 2394 2402
4 2406 2407 2405 2899
4 2406 2407 2899 2823
4 2701 2377 2866 2385
4 2973 1623 1631 1622
4 2826 2862 2831 2822
4 2653 2826 2701 2507
4 2407 2405 2974 2653
4 2701 2407 2867 2831
4 2975 2976 2489 2490
4 2975 2977 2978 2979
4 2975 2805 2490 2488
4 2975 2805 2488 2980
4 2951 2981 2774 2775
4 2329 2982 2326 2983
4 2984 2985 2952 2775
4 2981 2453 2986 2987
4 2981 2951 2453 2988
4 2981 2453 2989 2988
4 2981 2952 2990 2985
4 2455 2211 2453 2207
4 2208 2216 2452 2211
4 2218 2212 2562 2456
4 2467 2628 2210 2207
4 2208 2217 2211 2207
4 2218 2210 2212 2456
4 2218 2628 2210 2673
4 2218 2855 2212 2214
4 2564 2565 2991 2992
4 2564 2316 2313 2714
4 2564 2993 2994 2995
4 2996 2997 2994 2998
4 2997 2994 2998 2991
4 2991 2997 2994 2999
4 2991 2565 3000 2688
4 3001 3002 2415 3003
4 3004 3005 3006 3007
4 3001 3008 3003 3009
4 3001 3008 3010 3011
4 3011 3001 3012 2686
4 3001 3010 3013 2686
4 3012 3002 2415 3001
4 3014 3015 3016 3017
4 2654 2658 2382 2495
4 2651 2657 2794 2413
4 2651 2795 2655 2909
4 2651 2792 2657 2656
4 2382 2509 2658 2653
4 2382 2658 2509 2495
4 2651 2658 2656 2653
4 2611 2617 3018 2616
4 2382 3019 2909 2383
4 2909 2652 2408 2382
4 3020 3021 3022 3023
4 2650 2644 3024 3020
4 3020 3025 3026 3027
4 3020 3028 3029 3030
4 3020 3025 3031 3022
4 2605 2932 3032 2749
4 2605 2345 3033 3034
4 2605 3032 2624 3034
4 2605 2932 2749 2748
4 2353 2605 2345 3033
4 2654 3035 2516 2906
4 2651 2654 2658 2382
4 2495 2382 2507 2509
4 2316 2427 2396 2565
4 2266 2264 2620 2270
4 2416 2566 3036 2415
4 2414 2565 2427 2315
4 2991 2565 2688 2992
4 2564 3000 2565 2316
4 3037 2992 3036 2566
4 3038 2448 3039 3040
4 3041 2399 2318 2428
4 2399 2318 2428 2427
4 2414 2428 2398 2972
4 2414 2426 2565 2415
4 2426 2972 2415 2414
4 2414 2566 2565 2315
4 3042 3043 2310 3044
4 2565 2394 3000 2688
4 2396 2316 3000 2317
4 2302 2427 2399 2317
4 2654 2907 2655 3045
4 2907 3046 3047 3048
4 2908 2907 3046 2909
4 2654 2908 2907 2906
4 3049 2909 3050 3046
4 3051 2197 3052 195
4 3025 3022 3053 3031
4 3020 3031 3025 3029
4 3025 3054 3026 3055
4 3020 3029 3025 3027
4 3020 2682 3028 3056
4 3020 3025 3022 3026
4 2302 2575 2317 2304
4 2574 2307 3057 2570
4 2717 2313 2724 2307
4 2313 2307 2714 2316
4 2307 2570 2714 3057
4 2714 2715 2720 3058
4 2717 2714 2307 2570
4 2717 3059 2719 3060
4 2564 2313 2316 2315
4 2307 2308 2719 2475
4 2313 2714 2717 2720
4 2717 2720 2715 3059
4 3061 3004 3062 3063
4 3064 3065 3066 3067
4 3064 3067 3068 3065
4 3069 3070 2342 3071
4 3070 2342 3071 3064
4 3064 3072 3068 3073
4 3064 3072 3073 3070
4 3064 3071 3070 3074
4 3043 3075 3076 2439
4 3075 2354 2359 3077
4 3075 3078 3079 3080
4 3075 3076 2439 3081
4 2448 3082 3039 3040
4 3075 2358 2356 3083
4 3075 3084 2358 3083
4 3075 2358 3084 3081
4 3085 2932 3086 2625
4 3085 2932 2750 2749
4 3085 2238 3087 3088
4 3085 3088 3087 3089
4 3085 3089 3090 2726
4 3085 2749 2726 3090
4 3091 2345 2943 2939
4 2939 2345 3092 3034
4 3039 3093 3094 3095
4 3096 3097 3098 3099
4 2345 2353 3033 3091
4 2605 2353 2345 2346
4 2907 3048 3047 3100
4 3047 3101 3102 3103
4 3047 3103 3104 3101
4 3047 3049 3050 3046
4 3047 3048 3046 3105
4 3047 3105 3046 3106
4 3075 3084 3076 3081
4 2358 3083 3107 2357
4 2357 2358 2360 3107
4 2358 3108 2360 3107
4 3108 2358 2360 2770
4 2358 3109 3110 3108
4 2358 3081 2359 2770
4 2762 3111 3112 3113
4 2234 2590 2762 2589
4 2762 2589 2590 3114
4 3115 3116 3117 3118
4 2231 2234 2763 2232
4 2231 2763 2762 2284
4 2234 2762 2242 2231
4 3098 3099 3097 3119
4 2762 2590 2242 3111
4 2762 3111 2764 3112
4 3120 3121 3122 2853
4 3123 3124 3119 3098
4 3125 2853 2364 3126
4 3127 3128 3129 2108
4 3130 3131 3132 2829
4 2853 2365 3122 3133
4 3134 3135 2555 3136
4 3134 3137 2557 2555
4 3134 3137 2555 3135
4 2393 2396 2399 2398
4 2393 2399 2396 2317
4 2641 2640 3138 3139
4 2397 2399 2428 2398
4 2393 2397 2399 2304
4 2641 2397 2400 2587
4 2587 2397 2400 2401
4 2950 2775 3140 3141
4 2950 3142 2216 2812
4 2208 2217 2216 2211
4 2216 2481 2211 2217
4 2208 2212 2216 2213
4 2950 2812 3141 3142
4 2208 2215 3143 2213
4 2216 2812 3142 3144
4 2216 2812 3144 2213
4 2273 2763 2968 2965
4 2468 2629 2965 2232
4 3145 3146 3131 3147
4 2235 3148 2232 2285
4 3149 3150 1499 528
4 2233 3151 2236 2231
4 3152 2233 3151 2236
4 2235 2910 2232 3148
4 2590 2234 2242 2591
4 2234 2232 2589 2763
4 2907 2526 3048 3100
4 2526 2655 3045 2515
4 2526 3048 2490 2485
4 2907 2526 2655 3045
4 2202 2204 2203 2259
4 2202 2595 2599 2206
4 3153 2189 2188 2180
4 2202 2260 2595 2206
4 2203 2202 2598 2602
4 2203 3154 3155 3156
4 2203 3157 2602 3158
4 2203 2602 3157 2254
4 3154 2259 2203 2759
4 2759 3154 3155 2203
4 2227 2228 2366 2362
4 3131 3159 2829 3145
4 3160 796 804 795
4 3131 3161 3159 3145
4 3131 3147 3161 3145
4 3162 2633 2367 2810
4 3163 2634 2367 2633
4 2634 2367 2633 2368
4 2968 3164 2969 2273
4 2273 3165 2969 2553
4 3165 2629 3164 2582
4 3165 3166 2629 2955
4 3166 2553 3167 3165
4 2324 3168 2918 3169
4 3165 2553 3167 2554
4 3165 2582 3164 3170
4 2835 3171 2633 3172
4 2835 2633 2632 3173
4 2842 2835 2632 3173
4 2835 3171 2833 2808
4 2323 2325 2321 2333
4 2325 2327 2326 2434
4 2325 2440 2324 2330
4 2325 2321 2333 3174
4 2334 2811 2558 2205
4 2334 2558 2790 2556
4 2334 2811 2790 2558
4 2950 2783 2335 2954
4 2790 2954 2335 3175
4 3176 2586 2698 3023
4 3176 3177 3178 3179
4 3176 3177 3179 3180
4 3176 3023 2698 3181
4 3176 3178 3021 3182
4 2586 3183 2401 3021
4 2576 3176 3177 2586
4 2586 3184 2577 3185
4 2586 3183 3185 2401
4 2653 3186 2507 2509
4 2653 2405 2974 3187
4 2326 3168 2977 2982
4 2701 2376 2377 2385
4 2653 2657 2413 2405
4 2382 2377 2653 2652
4 2247 2689 2845 2690
4 2247 2248 2689 2696
4 2246 2804 2551 2874
4 2248 2549 2696 2253
4 2247 2843 2535 2536
4 2223 2301 2392 2300
4 2392 2391 2300 3188
4 2392 3189 2301 3062
4 2392 3007 3095 2391
4 3190 2286 2660 2661
4 3190 2661 3191 3192
4 3190 3193 3194 3191
4 3190 3194 3193 3195
4 3196 3197 3198 3199
4 3199 3200 3201 3202
4 3199 3203 3201 3197
4 3204 3205 3206 3199
4 3206 3199 3200 3196
4 2949 3207 3208 3203
4 3209 2983 2326 2982
4 3199 3205 3207 3208
4 3171 2528 2944 2700
4 3171 2633 2810 2808
4 3171 2349 3210 3172
4 3171 2810 2809 2808
4 3211 3171 2633 2810
4 3171 3212 3210 2349
4 2227 3213 2860 2226
4 2227 3213 2226 3214
4 2366 3122 3016 3014
4 2362 3122 2227 2861
4 2227 3215 2228 2860
4 2227 2228 3215 3014
4 2227 2228 3014 2366
4 2429 3216 2430 2440
4 2430 3217 2264 3218
4 2429 2432 2439 2450
4 2430 2432 3219 2431
4 2432 3219 2448 2272
4 3187 2653 2657 2656
4 2826 2822 2831 2758
4 3209 2977 2976 3220
4 3221 3222 3223 3224
4 2701 3225 2377 2376
4 2375 2385 2377 2376
4 2404 2413 2653 2652
4 2404 2407 2867 2377
4 2404 2377 2411 2652
4 3008 3226 3012 3002
4 3008 3010 3011 3227
4 3228 2632 3229 2839
4 2852 3228 2634 3230
4 2368 2632 2808 2633
4 3228 3231 2632 2634
4 3232 2839 2373 3228
4 3103 3233 3101 3102
4 2634 2852 2364 2363
4 2368 3228 2632 2634
4 3234 2590 2588 2589
4 3234 3235 3236 3237
4 3234 2588 3236 2589
4 2214 3238 2819 2213
4 2214 3238 3143 3239
4 3240 3241 3242 3243
4 3240 3244 3245 3115
4 3240 3246 3241 3243
4 3247 2846 2538 2539
4 3247 2691 2929 3248
4 3247 3249 2667 3250
4 3247 3251 3249 3252
4 2327 2794 2983 2326
4 2882 3253 2883 2538
4 3247 2538 3253 2539
4 3247 2846 2929 2691
4 2543 3254 3255 3216
4 2430 2441 2271 2272
4 2543 3218 2620 2735
4 2543 2620 2264 3256
4 2543 2441 2440 3169
4 2543 2440 3255 3257
4 2543 3169 2440 3257
4 3258 2402 2685 2395
4 2394 3259 2395 2396
4 2426 2394 2398 2396
4 2687 2426 2394 2684
4 2395 2393 2402 2394
4 3260 2266 3261 3262
4 3260 3263 2229 3262
4 2266 3262 2229 3264
4 3265 3266 2269 3267
4 2266 3268 3266 2268
4 2266 2264 2265 2230
4 2266 3266 2229 2230
4 2266 2264 3269 2620
4 3270 3271 3272 3273
4 2230 2265 3274 2264
4 2263 2266 3266 2268
4 2265 2266 3275 2263
4 2264 3218 2230 3269
4 2266 3266 2230 3275
4 2263 3266 2266 3275
4 3276 2274 2537 2288
4 2762 2288 2284 2763
4 2282 2285 2274 2277
4 2235 2289 2245 2283
4 2273 2763 2284 2274
4 2831 2867 2900 2765
4 2831 2901 2900 3277
4 2831 2901 2862 2765
4 2831 2864 3278 3277
4 3279 2850 3263 3280
4 3279 2850 3280 3281
4 3279 3121 3282 3283
4 3279 3281 3121 2850
4 3284 194 3051 1193
4 3049 2796 3100 3285
4 3286 3103 3049 3102
4 3049 3286 3102 3287
4 3049 2655 3100 2796
4 3049 3286 3287 3285
4 2907 2526 2527 3048
4 3078 3288 3289 3290
4 3078 3077 3291 3288
4 3078 3292 3288 3290
4 2717 2307 2719 2475
4 2719 3293 3059 2865
4 2719 2724 3294 2308
4 2980 3295 3296 3297
4 3294 2864 3298 3299
4 2719 3299 3059 3293
4 3300 3294 3299 2724
4 2976 3301 3220 2979
4 2719 3299 2724 3060
4 3302 3303 3304 3305
4 3306 3302 3307 3304
4 3304 3305 3306 3302
4 3302 3308 3309 3310
4 2631 2910 3311 3312
4 2675 3313 2631 2674
4 2467 2628 2631 2673
4 2631 2910 3313 3311
4 2628 2675 2218 2789
4 3314 3315 3316 3317
4 3314 2366 3014 2374
4 3314 2374 3318 2369
4 3314 2374 3319 3318
4 2450 2446 2432 2447
4 2446 3320 3321 3096
4 2421 3322 2423 2449
4 2449 2798 2434 2450
4 2449 2422 2521 2799
4 2449 2450 2438 2447
4 2415 3003 2416 2417
4 3323 845 836 837
4 3012 2684 2415 2687
4 2489 2486 3296 2744
4 2414 2417 2416 2420
4 2972 2417 3324 3001
4 3234 2589 3114 2590
4 2588 3325 2457 2459
4 2761 2716 2475 2570
4 2701 2702 2758 2472
4 2702 2757 2758 2474
4 2758 3326 2570 3327
4 2758 2822 3327 2757
4 2474 2760 2757 3328
4 2474 2761 2472 2475
4 2831 2863 2822 2862
4 3329 1888 3330 1889
4 2761 2758 2863 2716
4 2526 2796 2797 3100
4 2651 2792 2515 2655
4 2907 3049 2909 2655
4 3222 3331 3153 3332
4 2495 2516 2904 2654
4 2792 2526 2515 2655
4 2792 2526 2655 2796
4 2381 2382 2377 2507
4 2651 2792 2794 2657
4 2721 2305 3333 3334
4 2721 2305 3334 2308
4 2721 2305 2318 2425
4 2938 2700 2528 2833
4 2531 2945 3335 2530
4 2944 2700 2348 3212
4 3171 3212 2944 2809
4 2938 2942 2530 2944
4 3336 2451 3337 2988
4 3336 2988 3338 3339
4 3338 3336 3337 2988
4 3340 3341 3342 3336
4 3336 3325 3343 3344
4 3336 2457 3325 2458
4 3336 3339 3345 3342
4 3267 2269 3346 3347
4 3267 3348 3347 3346
4 3267 3275 2860 3213
4 3267 3266 3275 3213
4 2717 2719 2724 3060
4 2574 2307 2317 3057
4 2724 3349 3060 3299
4 2724 3299 3350 3351
4 2761 2719 2716 2865
4 3294 3299 2724 2719
4 2724 3060 3352 2568
4 2724 2723 2568 3353
4 2724 3300 3350 3299
4 3354 3355 3356 3357
4 3354 3358 3359 3355
4 3354 3173 3356 3231
4 3354 3358 3360 3359
4 3354 3360 3361 3362
4 2730 3269 3363 2737
4 2729 2616 3364 2615
4 3331 3365 3332 3223
4 2729 2737 3366 2615
4 2729 2615 3364 2737
4 2730 2728 3218 3364
4 2430 2271 2543 2264
4 3218 3274 3367 3217
4 2730 3269 3218 2620
4 2264 3218 3274 2230
4 3218 3269 3364 2230
4 3218 3367 3274 3364
4 2884 2551 2874 2550
4 2246 2804 2779 2249
4 2248 3368 2551 2804
4 2246 2874 2551 2550
4 2874 2279 2246 2779
4 2406 2360 2359 2770
4 2360 3108 2769 3369
4 2406 2823 2360 3370
4 2357 2360 2359 2899
4 2406 2359 2899 2405
4 2404 2768 2766 2409
4 2360 2899 3371 2823
4 3025 3026 3054 3372
4 3025 3053 3022 3372
4 3020 3027 2650 3030
4 3020 3022 3031 2682
4 2682 3028 3029 3020
4 3022 3031 3373 3053
4 3022 3373 2682 3181
4 2429 2440 2325 3174
4 2325 2441 3374 2440
4 2543 2441 3169 3256
4 2441 3374 2440 3169
4 2441 2271 2805 3169
4 2492 2798 2441 2805
4 2484 2492 2490 2422
4 2492 2441 2798 2450
4 3375 3376 3377 3378
4 3375 3379 3380 3381
4 2760 2756 3382 2866
4 3331 3383 3224 3222
4 2760 2698 2702 2699
4 2760 2473 2698 2576
4 2760 3180 2698 3384
4 2760 3328 3385 3382
4 2779 2873 2871 2875
4 2888 2889 2884 2873
4 3331 3383 1210 3224
4 2873 2897 2888 3386
4 2873 2871 2875 3387
4 2873 3387 2876 3388
4 2873 2874 2871 2889
4 3389 3390 3391 3392
4 3389 3393 3390 3392
4 3389 3394 3391 3395
4 3331 3383 3396 1210
4 3389 3397 3398 3399
4 3389 3399 3400 3392
4 2360 3369 2769 3370
4 2358 2770 3110 3081
4 2359 2770 2793 2657
4 3075 2354 3080 2356
4 2360 3108 2770 2769
4 2357 2899 2355 3401
4 3320 3402 3403 3404
4 3320 3404 3096 3082
4 3405 2423 3322 3320
4 3320 3406 3404 3407
4 2448 3320 3408 2446
4 3322 2446 2447 3408
4 3320 3040 3402 3404
4 2393 2401 2304 2317
4 2302 2399 2304 2317
4 2304 3024 2303 2306
4 2575 2304 2306 3024
4 2845 2690 3409 3410
4 3411 2690 3412 3413
4 2247 2695 2692 2536
4 2690 3412 2689 3409
4 3250 2690 3248 3413
4 3413 2692 3250 2690
4 2695 2694 2286 3073
4 2246 2247 2535 2251
4 2690 3413 2694 3414
4 2694 2692 3192 3413
4 2694 2693 3072 3073
4 2694 3072 2693 3068
4 2694 3415 3072 3068
4 3190 3195 2694 3194
4 2571 1175 1166 192
4 3416 3417 3396 3418
4 2247 2694 2690 2692
4 3419 2187 2196 2195
4 2695 3073 2277 2693
4 3420 3421 3422 3138
4 3420 3423 3424 3425
4 3420 3425 3138 3423
4 3420 3426 3138 3422
4 3427 3428 3429 3430
4 3427 3431 3432 3433
4 3427 3434 3435 3436
4 3427 3430 3434 3437
4 3427 3430 3437 3438
4 3427 3435 3430 3431
4 3431 3436 3433 3427
4 3417 3396 3418 3331
4 2397 2398 2428 2648
4 2302 2574 2317 2575
4 2318 2305 2314 2302
4 2427 2398 2399 2396
4 2427 2399 2398 2428
4 3439 3440 3441 3442
4 3442 2684 2687 2685
4 2845 3443 3248 3410
4 2689 2249 3444 3445
4 2689 3446 3368 3447
4 2689 3414 3448 3412
4 2689 3449 3446 3447
4 3449 2689 3445 3447
4 3365 3331 3153 3450
4 3396 3331 3417 3450
4 3178 3183 3451 3452
4 3183 3185 3453 3454
4 3183 3451 3452 3455
4 3183 3453 3456 3454
4 2841 2839 3457 2840
4 2842 2531 2841 2529
4 2841 2531 2836 3458
4 2841 2529 3459 3457
4 3460 3189 3461 3462
4 3460 3463 2937 2390
4 3460 2300 2388 2390
4 3460 2301 2300 3189
4 3460 3464 3465 3189
4 2611 2613 2612 2615
4 3460 3464 3189 3462
4 2853 2854 3466 3283
4 2611 3460 2388 2614
4 3467 3425 2400 3468
4 3467 3469 3470 3471
4 3467 3472 3471 3473
4 2402 2395 3467 2971
4 2632 3173 3231 3356
4 2885 3450 2886 3417
4 2839 2632 2842 2373
4 2373 2839 3232 2299
4 2842 2632 3474 3173
4 2368 2810 2633 2808
4 2842 2632 2835 2808
4 3171 2833 2808 2528
4 2942 2944 2943 3244
4 2943 2345 2350 2348
4 2345 2347 2700 3092
4 2700 2349 3475 2347
4 2945 2531 3476 2941
4 3171 2809 2944 2528
4 2344 3477 2352 3478
4 3477 2346 2352 2610
4 3477 3479 3480 3481
4 3477 3479 2610 2352
4 3477 3481 2349 2347
4 2469 3298 2471 3482
4 2575 3024 2470 3023
4 2470 3024 3056 2682
4 2469 3294 2475 2472
4 2469 2473 2475 2306
4 2484 2486 2489 2744
4 2484 2491 2487 2744
4 2493 2485 2519 2424
4 2493 2519 2485 3483
4 3375 2487 2493 3484
4 2493 3321 2267 2422
4 2691 2534 2666 2538
4 2846 3485 2847 2844
4 2846 3485 2539 3486
4 2845 3409 2690 2689
4 3247 2846 2691 2538
4 3487 2036 2045 2044
4 1242 212 3488 213
4 2202 2205 2206 2599
4 2205 2818 2602 2254
4 2202 2205 2602 2203
4 2602 2338 2603 2966
4 2334 2205 2337 2336
4 2203 3156 2601 2259
4 2602 2966 2607 3158
4 2635 3489 2636 3490
4 1716 3488 212 213
4 2387 2635 3489 2636
4 2347 3092 3491 3475
4 2635 2636 3492 3493
4 2635 2299 2529 3492
4 2635 3232 2296 3489
4 3494 1250 1251 1259
4 2595 2596 2604 2206
4 2596 2932 2604 2618
4 2204 2254 3495 2821
4 2604 2618 2931 2336
4 2595 2260 2596 2206
4 2204 2206 2205 2336
4 2835 3496 3172 2633
4 2204 2254 2821 2336
4 3497 3498 3499 2626
4 2596 2619 2260 2623
4 2619 3500 2260 2623
4 2835 3173 2834 3501
4 3497 2260 2262 2619
4 2260 2206 2262 2619
4 2619 2260 3500 3497
4 3286 3285 3209 3502
4 3286 3503 3103 3102
4 3286 3287 3504 3102
4 3106 3047 3101 3102
4 3390 3395 3505 3506
4 3390 3392 1720 3507
4 3508 3242 3509 3510
4 3511 3390 3512 3513
4 3390 3507 3511 3391
4 2195 2572 3284 3419
4 3390 3507 1729 3513
4 2273 2232 2629 2285
4 2285 3166 3148 2629
4 2284 2288 2274 2763
4 2232 2285 3148 2629
4 2250 2273 2969 2553
4 2273 2232 2285 2284
4 2285 3514 3148 3166
4 2285 3148 3514 3073
4 2285 2553 2277 2548
4 2285 3514 2553 2548
4 2285 2283 3148 3073
4 2217 2207 2209 3515
4 2207 2209 3515 2628
4 2467 2210 2628 2673
4 2467 2629 2910 2630
4 3516 1708 3517 3518
4 2631 2910 3312 2630
4 2467 2631 2630 2910
4 2675 2631 3519 2628
4 2628 3515 2627 2630
4 2675 2789 2628 3519
4 3481 3491 3520 3475
4 3375 2493 3381 3484
4 2446 2432 2272 2450
4 2446 2272 2492 2450
4 2493 2422 2424 2423
4 2422 2521 2421 2449
4 3321 2422 2423 2449
4 3478 3521 3522 3523
4 2938 2836 2531 2941
4 3321 3096 3406 3484
4 2565 2688 2992 2687
4 2688 3524 2997 3525
4 2688 3525 3526 3527
4 2711 3528 3529 2857
4 3530 3529 3531 2711
4 3532 3530 3529 3531
4 2703 2711 2709 2708
4 2711 2709 2708 3528
4 3528 2711 3533 2606
4 2711 3529 3528 3533
4 2711 3531 3534 2848
4 2711 2704 3534 3530
4 3134 2557 3137 3535
4 2461 2563 3137 2557
4 3137 2561 2555 2241
4 2498 3536 3537 3538
4 3384 2498 2501 3382
4 2501 3384 2866 2500
4 2498 2510 3539 3540
4 2498 2510 3540 2500
4 2498 3536 2501 3382
4 3384 2498 3540 2500
4 3541 3235 3542 3543
4 2275 3541 2274 2276
4 3541 2275 2274 2763
4 3541 2763 2288 3114
4 3541 2763 3235 2275
4 2571 191 2194 192
4 3541 3235 3114 3542
4 2362 2364 2854 2852
4 2853 2854 2364 3126
4 3544 3545 3546 3333
4 3349 3547 1306 1305
4 2827 2974 3548 3549
4 2854 2364 3126 3550
4 2364 3125 3230 2634
4 2364 3125 3126 3230
4 3551 2416 2420 2566
4 2416 3552 2566 3551
4 3001 2415 3012 2686
4 2414 2416 2566 2420
4 2414 2427 2318 2315
4 3300 3553 3545 3350
4 2723 3353 2722 3554
4 2416 3003 3002 3555
4 2722 3545 3554 3353
4 2416 2417 3003 3556
4 3557 3558 3559 3560
4 3561 1914 1905 1906
4 3557 3559 3558 3562
4 3557 3563 3217 3216
4 3557 3219 3217 3063
4 3557 2430 2431 3216
4 2601 3564 3156 3565
4 2202 2599 2598 2603
4 2202 2595 2601 2598
4 2601 2607 3565 3156
4 2202 2260 2204 2259
4 2833 2834 2835 2842
4 2835 2832 3501 2834
4 2835 3172 3520 3475
4 3354 3173 3231 3496
4 2632 3229 2839 3474
4 2632 2842 2373 2808
4 2842 2835 3173 2834
4 2217 2207 2208 2209
4 2208 3143 2214 2213
4 2216 2213 2790 2812
4 3142 3566 2483 2216
4 2216 3566 2217 2215
4 2859 3274 2386 2230
4 3095 2859 2391 3275
4 2859 2230 2265 3274
4 2859 3275 3567 2265
4 2859 3274 2617 2301
4 2859 3275 3095 3567
4 2859 3274 3061 2617
4 3568 3569 3570 1918
4 2796 3100 3209 2797
4 2526 2797 2422 2490
4 2526 2527 2422 2521
4 3493 3492 3335 3571
4 2983 2797 2794 2796
4 2792 2526 2796 2797
4 2907 3048 3572 3046
4 2595 3573 2598 2600
4 2601 3574 2610 3575
4 2595 2259 2601 2597
4 2259 3576 2597 3577
4 2601 3576 2259 3156
4 3578 1905 3579 149
4 2595 2260 2259 2597
4 2598 2601 2607 2610
4 2601 3156 3564 3576
4 3580 445 453 444
4 2389 2934 2297 2807
4 2389 2295 2390 3581
4 2295 2299 2637 2806
4 2295 3581 3582 2806
4 2373 2299 2295 2806
4 2465 2588 2593 2457
4 2454 2561 2465 2459
4 3234 2588 2590 3583
4 3188 3584 3585 3006
4 3493 3490 3586 3587
4 2273 3164 3165 2629
4 2232 2589 2965 2468
4 2762 2589 3114 2763
4 2991 2688 2997 3525
4 2991 3525 2999 3588
4 2997 2998 3589 3590
4 3489 3591 3592 3593
4 2997 3594 3595 3596
4 2997 3597 3595 3598
4 2997 3595 3594 3598
4 3467 2971 2395 3599
4 2395 2685 3600 3601
4 2790 2334 2335 2811
4 2334 2556 2790 3175
4 2811 2205 2336 2254
4 2461 2460 2790 2556
4 2211 2452 2453 2951
4 2211 2774 2775 2951
4 2211 2774 2481 2775
4 2207 2464 2627 2478
4 2207 2476 2958 3602
4 2476 2207 2774 2481
4 3603 3604 830 3605
4 2928 2770 2794 2793
4 3606 876 885 884
4 2928 2770 2333 2327
4 2709 2848 3607 2856
4 2769 3608 3369 3108
4 2767 2803 2766 2903
4 2767 2768 3370 2903
4 2406 2770 2413 2771
4 2406 2413 2359 2405
4 2406 2769 2360 2770
4 3609 733 724 725
4 3110 2328 2322 2333
4 2770 2328 2771 2800
4 2767 2903 3370 3610
4 3222 2197 2188 2189
4 2900 2903 3611 2901
4 2900 3611 2902 3612
4 3613 3614 1582 1573
4 2900 3615 2409 2867
4 2843 2847 2249 2877
4 2779 2535 2249 2877
4 2249 2804 2876 3445
4 2246 2247 2249 2535
4 2247 2690 2696 2689
4 2249 3445 3616 3444
4 2248 3368 3447 2689
4 2843 2877 2249 2535
4 2387 2296 2220 3489
4 2219 2223 2220 2386
4 2222 2386 2230 2219
4 2298 2389 2297 2295
4 2220 3489 2296 3617
4 2220 2301 2615 2386
4 2298 2220 2296 2224
4 3618 3237 3235 3543
4 3618 2968 3235 3619
4 3618 2924 3620 2772
4 3618 2973 2772 3620
4 2543 3255 2440 3216
4 2429 2441 2450 2434
4 2429 2440 3174 3216
4 2543 2271 2441 3256
4 2430 3217 3557 3219
4 2859 3062 2301 2617
4 2543 3257 3255 2735
4 2859 3274 2265 3061
4 3274 2301 2386 2616
4 2263 2264 2272 2265
4 2225 2392 2301 2859
4 2219 2223 2225 2228
4 2300 2228 2391 2223
4 2219 2386 2230 2225
4 2363 2299 3232 2296
4 2704 3146 3534 3621
4 3336 2457 2458 2451
4 2387 2220 3622 3489
4 2298 2224 2296 2297
4 2296 2363 2297 2224
4 2224 3617 2296 2363
4 3623 3169 2805 3256
4 3623 3624 2978 3625
4 3623 3626 3627 3256
4 3623 2805 3169 2978
4 2411 2382 2377 2375
4 3628 3629 3630 3631
4 3628 3631 3630 3632
4 3631 3633 3634 3632
4 3628 3635 3629 3631
4 3628 3629 3636 3243
4 3315 3637 3316 3317
4 3315 3638 3639 3317
4 3014 3640 3641 3017
4 3640 3314 3014 3319
4 3314 3014 2366 3642
4 3314 3642 3315 3016
4 3314 2369 3643 3316
4 3314 3016 3014 3642
4 3314 3016 3315 3017
4 3314 3640 3643 3319
4 3262 3280 3644 3645
4 3262 3268 3281 3264
4 3280 3262 3644 3281
4 3646 3644 3647 3281
4 2439 3077 2438 3291
4 3648 3649 1563 1564
4 2432 2447 2439 2450
4 3043 2594 2439 3076
4 2432 3038 3650 2448
4 3651 3652 1546 1547
4 2439 2450 2447 2438
4 2387 2220 2615 3622
4 2613 2612 2615 3653
4 2612 2615 3653 2638
4 3654 2881 3655 2540
4 2638 3366 2615 3653
4 2193 3656 2571 3657
4 2638 3658 3366 3653
4 3659 2612 3653 2638
4 3532 3530 3531 3660
4 2638 2636 3659 2639
4 2252 2279 2275 2276
4 2779 2279 2782 2870
4 2914 2924 2916 2915
4 2914 2924 2925 2916
4 2246 2250 2914 2278
4 2275 2276 2279 2772
4 3219 2272 3567 2448
4 3219 2430 2431 3557
4 3219 3061 3063 3093
4 3219 3661 2431 3038
4 3219 3661 3557 2431
4 3219 3061 3093 3567
4 2394 2688 3601 3662
4 2398 2686 3013 2970
4 2350 3663 3664 3665
4 2402 3666 2686 2970
4 3667 3130 3607 2829
4 3668 3265 3268 2268
4 3266 3265 3268 3669
4 3266 3275 3213 2226
4 3266 2226 3264 2229
4 2266 3269 2230 2229
4 2976 3296 2975 2489
4 2975 2489 2488 2490
4 2489 2490 3048 2486
4 2484 2744 2489 2488
4 2489 2980 2488 2744
4 2489 3048 2976 3104
4 2486 3296 3104 2489
4 3670 2486 3296 3104
4 3656 1175 1174 1165
4 2235 2910 3148 2236
4 2273 2274 2284 2285
4 2285 3073 2277 2283
4 3148 3514 3073 3671
4 3148 2910 3672 2236
4 2381 2496 2677 3673
4 2900 3225 3615 2867
4 3225 2867 2378 3615
4 3137 2563 2561 3674
4 3607 2829 2830 2856
4 2561 3675 2563 2559
4 2561 2241 3676 2466
4 2465 2561 2241 2459
4 2909 2383 3677 2908
4 3678 118 3679 321
4 3680 3681 3682 3278
4 3680 3683 3681 3684
4 2901 3683 2903 3685
4 3686 3679 1283 119
4 3680 3687 3688 3689
4 3680 3688 3687 3685
4 3680 3278 3688 3277
4 3680 3611 3277 3688
4 3607 2829 3690 2830
4 3691 3692 3693 3140
4 3692 3694 2984 3140
4 2713 2848 2828 2829
4 2856 3607 2829 2848
4 2482 3691 2481 3694
4 2595 2346 3573 2606
4 2984 3141 3692 3140
4 3140 3141 3692 3142
4 2950 3141 3140 3142
4 2910 2236 2233 3152
4 3695 3696 3697 3698
4 2580 3170 2583 2585
4 2958 2476 2478 2480
4 2218 2209 2628 2789
4 2628 2207 2627 3515
4 2478 2582 2627 2581
4 2476 2477 2479 2482
4 2476 2207 2481 2217
4 2496 3673 3699 2677
4 2496 3699 3673 2497
4 2496 2497 3673 2495
4 2496 3700 2500 3384
4 3701 1201 1192 1202
4 2493 2422 2485 2424
4 2492 2422 2449 2798
4 2422 2424 2521 2527
4 2792 2521 2422 2799
4 3375 2493 3379 3381
4 2491 3484 2493 2487
4 2422 2798 2797 2792
4 2526 2485 2422 2527
4 2446 2267 2492 2272
4 2484 2492 2491 2488
4 3442 2688 2685 2687
4 3226 3002 3702 3012
4 3012 3703 2686 2684
4 3704 3705 3706 3697
4 3707 534 533 525
4 3708 3002 3036 3012
4 2415 2684 3012 2686
4 2684 2415 2687 2426
4 2688 2687 3526 2992
4 2991 3525 3588 3526
4 2991 2992 2688 3526
4 2381 2383 3673 2384
4 2760 2698 2699 3384
4 2680 3181 2699 2698
4 2758 2822 2757 2756
4 2760 2702 2698 2473
4 2831 2758 2822 2863
4 2701 2385 2866 2702
4 3467 2971 3468 2400
4 2402 2971 3467 2400
4 3467 3666 3470 3258
4 3709 3420 3423 3424
4 3420 3710 3711 3712
4 3425 2970 2648 3423
4 3421 3468 3138 3425
4 3420 3425 3421 3138
4 3425 2648 2970 2400
4 2261 3713 3714 3154
4 2261 3497 2260 2262
4 3500 3577 3497 2260
4 2692 3413 3250 3192
4 2261 3713 3154 3577
4 2204 2259 2261 2759
4 2259 2261 3577 2260
4 2202 2206 2204 2260
4 2598 2203 2607 2601
4 3715 3716 3065 3717
4 3212 3718 3719 3210
4 3449 3720 1199 1190
4 2944 2700 2943 2348
4 2943 2944 2938 2700
4 3721 3415 3722 3696
4 3244 3723 2944 2348
4 3240 3212 3241 2809
4 3724 3705 3725 3704
4 3726 3727 3728 3729
4 2561 3675 3730 3674
4 2561 3674 2563 3675
4 3137 2241 2555 3135
4 2241 3135 3730 3731
4 2241 3730 3732 2243
4 2241 2243 3731 3730
4 2594 3044 3042 3558
4 2594 2429 2433 3174
4 2594 2431 3558 3042
4 3042 2594 3043 3076
4 2594 2431 3560 3558
4 3072 3073 2693 3068
4 3072 3733 3734 3195
4 3072 2370 3065 3722
4 3190 2286 2694 3733
4 3072 3722 3065 3415
4 2622 3092 2623 3491
4 2345 2622 2346 2347
4 2596 2260 2597 2623
4 2345 3092 2622 2347
4 2596 2624 2605 2932
4 2317 2575 2401 2304
4 2302 2305 2308 2303
4 2644 3020 3056 3024
4 2470 3024 2306 2303
4 2304 2643 3024 2587
4 3024 2650 3023 2587
4 2899 3735 2823 2825
4 2825 3736 2823 2824
4 2825 2823 3736 3735
4 2825 3401 2899 3735
4 2825 3737 3401 3735
4 2690 3248 3411 3410
4 2279 2246 2779 2252
4 2843 2535 2777 2877
4 2246 2249 2248 2804
4 2252 2535 2276 2251
4 2773 2252 2279 2779
4 2357 3401 2355 3738
4 2974 2355 2354 2899
4 3739 2974 2355 2354
4 2825 2355 2899 3401
4 2899 3371 3735 3401
4 2360 3740 3370 2823
4 2974 2407 2827 2899
4 3397 3470 3666 3394
4 2970 3666 3741 3425
4 3425 3397 3741 3710
4 3742 3397 3398 3741
4 3397 3703 3742 3399
4 3389 3397 3470 3710
4 3397 3666 3703 3394
4 3389 3397 3399 3394
4 2446 2492 2449 2450
4 3411 3743 3744 3745
4 2432 3650 2439 2447
4 2492 2271 2441 2272
4 2449 3321 2422 2267
4 2429 2431 2430 3216
4 2441 2450 2434 2798
4 2429 2434 2450 2438
4 2449 2799 3288 2438
4 2429 2450 2439 2438
4 3075 3078 3077 3291
4 2492 2272 2267 2271
4 3746 3747 3748 2812
4 3746 2625 2618 2932
4 3746 2618 2931 2932
4 3746 3748 3749 2931
4 2420 3750 2417 3751
4 2420 2419 2417 3750
4 2420 2418 3750 3752
4 2420 2417 3556 3751
4 3556 2420 2416 2417
4 3426 3420 3753 3754
4 3426 3422 3754 3755
4 3420 3138 3426 3709
4 3426 3422 3756 3138
4 3426 3422 3755 3756
4 3426 3709 3756 3757
4 3420 3709 3426 3711
4 3426 3709 3757 3758
4 2286 2659 2661 2287
4 3721 3412 3704 3724
4 2283 2286 2287 2659
4 2659 2663 3759 3760
4 2659 3761 2663 3762
4 2659 2289 3759 2663
4 3110 2322 2800 3763
4 2358 3110 3109 3084
4 3110 2322 3764 3765
4 3110 2333 3765 3081
4 3110 3766 2322 3763
4 2491 2746 2747 2745
4 2491 3484 2742 2267
4 2263 3267 3266 3275
4 2268 2269 3668 3265
4 2268 2270 2745 2271
4 2268 2742 3668 2269
4 3259 3000 3767 2317
4 2307 2316 2313 2302
4 2317 3057 2316 3767
4 2574 3768 3057 2578
4 2575 3023 2586 2587
4 3020 3024 3023 2682
4 2317 2396 2403 3259
4 2396 2403 2393 2317
4 2574 3057 3768 2570
4 2690 2694 3413 2692
4 2696 2693 3068 3414
4 2694 2693 2696 3414
4 2696 2549 2693 2253
4 2690 2694 2696 3414
4 2247 2248 2696 2253
4 3073 3769 3671 3070
4 3148 3769 3073 2283
4 2694 3072 3733 3073
4 3514 2548 2285 3073
4 3073 2548 2693 3074
4 2424 2521 2421 2422
4 2799 2656 2793 2792
4 2792 2515 2521 2656
4 2792 2797 2796 2794
4 2792 2526 2521 2515
4 3770 2514 2517 2518
4 3260 3263 3771 3772
4 3262 3260 3280 3645
4 3260 3263 3280 3773
4 3260 3263 3773 3771
4 3771 3261 3645 3260
4 3414 3696 3721 3704
4 2394 3000 3662 3259
4 3245 3774 3775 3776
4 2395 2403 2396 3259
4 2393 2971 2402 2400
4 2427 2399 2317 2396
4 2302 2318 2427 2315
4 2393 2398 2397 2400
4 2940 2624 3777 3778
4 2940 3779 2624 3778
4 3780 2940 2836 3781
4 2940 3780 3778 3781
4 2940 2833 2838 3092
4 2940 3092 2624 2939
4 2938 2941 2940 2836
4 3782 2838 3781 2836
4 2838 3781 2836 2940
4 3783 70 71 712
4 2400 2641 3138 2648
4 2640 2401 2400 3468
4 3183 2401 2640 3468
4 3183 2640 3451 3784
4 3785 1733 3786 3787
4 2640 3451 3784 3788
4 2944 2806 3582 3774
4 2295 3582 2935 2807
4 3240 2944 3582 3245
4 3240 3246 2809 3241
4 2295 2806 3582 2807
4 3581 2806 3774 3582
4 2807 3246 2809 2944
4 3789 3774 3775 3581
4 3581 3774 3775 3245
4 3790 3346 3791 3097
4 3792 3790 3124 3793
4 3790 3791 3792 3119
4 3790 3794 3348 3795
4 3790 3346 3348 3794
4 3790 3793 3795 3348
4 3796 2220 2222 3797
4 2220 3797 3617 2221
4 3018 2616 2617 3367
4 3460 3062 3465 2617
4 2611 3460 2301 2388
4 3460 2300 2301 2388
4 3274 2616 2386 3364
4 2617 3460 2301 2611
4 2301 2615 2386 2616
4 3469 3471 3435 3798
4 2395 3258 3469 2685
4 3469 3258 3799 2685
4 3467 3469 2395 3258
4 2842 2841 2531 2836
4 3228 2839 3800 3232
4 2835 2808 2632 2633
4 2839 2373 2842 2299
4 3245 3801 3636 3802
4 2839 3232 2299 2529
4 2345 2939 3091 3034
4 2348 3803 3804 2293
4 3723 2944 2348 3212
4 2348 3804 3805 2293
4 2348 3805 3804 3723
4 3718 3805 3210 3212
4 3726 3705 3806 3724
4 2636 2637 3807 2639
4 2638 2639 3659 2612
4 3808 3809 3245 3776
4 2636 3659 2639 3810
4 2387 3658 2636 3489
4 2470 2697 2682 3056
4 2698 2682 2680 3181
4 2841 2837 2840 3811
4 3812 2840 3813 3814
4 3814 3815 3812 2840
4 2841 3457 2839 2529
4 2837 2842 2839 3474
4 2840 3474 3229 3815
4 2839 3457 2840 3229
4 2717 3060 2720 3059
4 2204 2336 2205 2254
4 2714 3816 2998 3058
4 2720 3817 2995 3816
4 3817 3060 3818 2720
4 2601 3565 3819 3574
4 2720 3820 3818 3817
4 3820 3821 3058 2720
4 3008 3822 3227 3226
4 3001 2686 3013 2972
4 3008 3226 3227 3011
4 3008 3822 3226 3002
4 2419 2417 3324 2972
4 3001 3010 3009 3823
4 3001 3008 3009 3010
4 3003 3008 3001 3002
4 3492 2299 2637 2635
4 2635 2299 3232 2529
4 2635 3492 2636 2637
4 2635 2299 2296 3232
4 2618 2336 2262 2821
4 2604 2932 2748 2931
4 2604 2337 2931 2708
4 2604 2337 2336 2931
4 2604 2336 2206 2618
4 2932 2596 2625 2618
4 2597 2622 2595 2596
4 3824 3825 1749 1748
4 3078 3077 3292 2354
4 3826 1818 1809 1810
4 2354 3080 3827 3828
4 2309 2312 2311 3829
4 3830 151 3831 1923
4 2312 2311 3829 3080
4 3221 2196 2187 2188
4 3080 3829 3832 3827
4 2358 2770 3108 3110
4 3075 2439 3043 3291
4 3833 3832 3083 2312
4 3776 2942 3834 3835
4 3075 2356 2359 2354
4 3134 3136 3307 3135
4 2462 2458 2555 2459
4 2241 2459 2555 2591
4 3137 3730 2241 3135
4 3836 3674 3837 3535
4 2461 2555 2561 2459
4 3137 3535 2557 2563
4 2555 2591 2459 3305
4 3528 2294 2350 2353
4 2294 2351 3533 3838
4 3839 2291 3665 2294
4 2294 3665 2350 2293
4 2353 3528 3664 2350
4 2344 2350 2294 2353
4 2770 2333 3110 3081
4 3134 3302 3136 2555
4 2928 2333 2434 2327
4 2323 2325 2333 2327
4 2406 2769 2767 3370
4 3110 3765 2333 2322
4 2770 2333 2327 2328
4 2323 2333 2328 2327
4 2250 2275 2274 2276
4 3541 2274 2276 3276
4 2942 3244 2943 3835
4 2476 2207 2627 2478
4 2218 2855 2214 3840
4 2218 3840 3841 2562
4 2455 2210 2467 2466
4 2218 2675 2787 2789
4 3361 3842 3843 3501
4 2631 3519 3311 3313
4 2218 3840 2786 3841
4 2383 2384 2379 3844
4 2383 3845 3844 3846
4 2383 3846 3019 3677
4 2383 2384 3844 3847
4 2375 2383 2379 2411
4 2383 2904 3848 2908
4 2383 2384 3847 3673
4 3303 3336 3345 3344
4 2588 2589 2463 3236
4 3849 191 1166 182
4 2588 2459 3583 3325
4 3336 3344 2458 3325
4 2454 2458 2457 2451
4 2707 2709 3528 2708
4 3850 547 556 555
4 2709 2813 2710 2725
4 2709 3528 2857 2813
4 2711 2848 2709 2857
4 2703 2709 3607 2710
4 2205 2203 2254 2602
4 2204 2759 2261 3495
4 2202 2205 2603 2602
4 2204 3495 2254 2759
4 2261 3713 3851 3714
4 3361 3501 3852 3496
4 3715 3853 3854 3855
4 3715 3853 3856 3067
4 3715 3066 3067 3857
4 3715 3854 3853 3721
4 3068 3715 3721 3065
4 3715 3067 3068 3853
4 3715 3066 3065 3067
4 3715 3721 3065 3716
4 3716 3715 3858 3717
4 3859 3860 2089 3861
4 2098 3862 3129 2089
4 3860 3863 3566 3861
4 3860 3864 3143 2215
4 3860 2089 3861 3129
4 2747 3865 3866 2746
4 2746 3647 3268 3668
4 2746 3646 3647 2743
4 2746 3865 3646 2743
4 2491 2747 2746 2743
4 2746 3866 2745 3867
4 2877 2847 3868 3869
4 2877 3870 2876 2875
4 2779 2873 2876 2804
4 2535 2777 2541 2844
4 2249 2876 2877 3616
4 2843 2877 2777 2847
4 2373 2295 2297 2807
4 2298 2388 2301 2300
4 3361 3871 3872 3873
4 3874 206 207 1231
4 3875 3871 3876 3872
4 3354 3358 3361 3360
4 2295 2299 2296 2637
4 2361 2221 2224 2363
4 2635 3232 3489 3459
4 2635 3459 2529 3232
4 2299 2529 3492 3335
4 3877 3129 3566 3602
4 3860 3143 3877 3566
4 3877 2209 3878 2217
4 3877 2209 2217 3143
4 3049 2655 2796 2795
4 2907 3049 3047 3046
4 3047 3049 3100 3103
4 2526 3100 2490 3048
4 2796 2797 3209 2983
4 3100 2977 2797 2490
4 3100 2797 2977 3209
4 2526 3100 2797 2490
4 3047 3048 3104 2976
4 3047 3049 3102 3050
4 2884 2550 2898 3879
4 2884 2550 2889 2898
4 2246 2874 2914 2279
4 2914 2554 2917 2927
4 2550 2927 3880 3881
4 2550 2874 2889 2926
4 2550 3880 2926 3882
4 2386 3269 3364 2737
4 2220 2296 2224 3617
4 2225 2391 3275 2860
4 3274 2386 2230 3364
4 2386 3269 2230 3364
4 2792 2526 2422 2521
4 3883 3501 3871 3520
4 2449 2447 2438 3288
4 2434 2449 2438 2799
4 2792 2797 2794 2434
4 2799 2793 3292 3077
4 2928 2793 2799 3077
4 3275 2860 3884 3885
4 3267 2860 3275 3885
4 2859 3061 3567 3095
4 3275 2860 3213 2226
4 2263 2264 2266 2270
4 2859 3061 2265 3567
4 2374 2934 2369 2297
4 2528 2806 2530 2299
4 2373 2297 2368 2810
4 2297 2936 2228 2374
4 2389 3581 2390 2937
4 2297 2369 2810 2934
4 2295 2806 2637 2390
4 2298 2295 2296 2637
4 2296 2297 2363 2299
4 2231 2244 2235 2284
4 3234 3886 2588 3583
4 2590 3111 3114 3887
4 2590 3583 3111 3887
4 2588 3340 3886 2593
4 3583 2590 2591 2588
4 2591 2588 2459 3583
4 2971 3456 3888 3599
4 2395 2403 3259 3889
4 2395 2403 3889 3888
4 2393 2403 2971 2401
4 3467 3471 3472 3599
4 3469 3890 3435 3600
4 2395 3469 3600 2685
4 2294 3478 2292 3523
4 2350 3528 3664 3663
4 2350 2293 3891 3892
4 2350 2293 3665 3891
4 2350 3892 3893 3664
4 2350 3892 3665 3893
4 2345 2350 2353 3091
4 3091 2943 2345 2350
4 2350 3091 2943 3892
4 2714 2998 3589 3058
4 3173 3496 3852 3501
4 3894 298 297 289
4 2317 3057 3767 2578
4 2574 2570 3768 2579
4 2570 3057 3768 2718
4 2718 3057 3768 3895
4 3563 3254 3896 2728
4 3357 3173 3852 3474
4 3218 3217 3563 3216
4 3897 3898 3563 3367
4 3557 3898 3563 3560
4 3221 2187 2196 3419
4 3563 3560 3896 3254
4 3563 3560 3897 3896
4 3557 3217 3563 3367
4 2263 3899 2267 2269
4 3900 3419 2572 2186
4 2446 3899 2267 2272
4 3267 3899 2269 3347
4 3900 2186 2185 2177
4 2446 3899 2272 2448
4 3901 1283 1292 1291
4 3899 2272 2448 3567
4 3899 2269 3347 3096
4 2469 2470 3056 2697
4 2719 2475 2308 3294
4 2313 2995 2714 2720
4 2472 2475 2719 3294
4 2344 3523 3805 3478
4 3875 3876 3902 3362
4 3477 2346 2610 2347
4 2695 2694 2661 2286
4 2692 2667 2666 2661
4 2838 2834 2837 3903
4 2695 2694 2692 2661
4 2690 2692 3250 2691
4 3904 3905 3906 3907
4 2471 3908 3482 3909
4 2247 2696 2693 2253
4 3414 3192 3696 3413
4 3025 3910 3027 3029
4 3374 2434 2441 2325
4 2440 3255 3174 3216
4 2325 2333 2327 2434
4 2798 3374 2434 2441
4 2429 2431 2594 2439
4 2594 3560 2431 2429
4 2403 3911 3889 3912
4 3217 3063 3061 2617
4 3557 2431 3560 3216
4 2430 3219 2432 2272
4 2432 2448 3219 3038
4 3274 3217 2265 3061
4 2543 3218 2728 3216
4 2430 2264 3217 2265
4 2430 2264 2272 2271
4 3218 3563 3367 2728
4 2228 3014 2366 2374
4 2219 2861 2226 2229
4 2659 3769 2283 2286
4 3073 2283 3769 2286
4 3148 3769 2283 3672
4 3284 3051 194 2196
4 3769 2236 2283 3672
4 3769 3913 3914 3915
4 3769 3913 3915 3916
4 2407 2831 2765 2867
4 2823 2407 2899 2827
4 2442 1655 3917 1664
4 2652 2411 2382 2377
4 2701 2866 2507 2756
4 2701 2758 2702 2756
4 2381 2677 2385 2384
4 2826 2407 2823 2827
4 2382 2411 3019 2383
4 3918 3550 2852 3919
4 3176 3180 3179 3920
4 3921 3230 3229 3918
4 3918 3919 3922 3923
4 3921 3924 3923 3918
4 3918 3925 2852 3800
4 3918 3800 3592 3925
4 3314 2374 2369 2366
4 3014 3122 3016 3214
4 3014 3016 2366 3642
4 2207 2464 2774 2453
4 2811 2818 2205 2254
4 2454 2456 2455 2466
4 2461 2790 2452 2456
4 2951 2451 2452 2453
4 2325 2429 2433 2434
4 2967 2893 2960 2966
4 2439 2433 2438 3081
4 2333 3081 2433 3765
4 2594 3926 3765 3076
4 2594 3765 3926 3927
4 3216 3174 2429 3560
4 2439 2594 2433 3076
4 2580 2478 3928 2986
4 2581 2582 2627 2959
4 2580 2478 2582 3928
4 583 582 591 2505
4 2453 2464 2774 2986
4 2464 2774 2986 2478
4 2478 2774 2986 2477
4 2476 2774 2478 2477
4 2627 2476 2478 2958
4 3719 3508 3929 3930
4 3719 3210 3718 3931
4 3719 3929 3210 3931
4 3719 3210 3211 2809
4 3932 2810 2809 3509
4 3719 2809 3932 3241
4 3508 3242 3719 3509
4 2559 2562 2558 2461
4 3719 3210 3929 3211
4 2440 2330 3255 2918
4 2543 2735 3255 3254
4 2963 2911 3837 2912
4 2338 2603 2752 2339
4 3933 3254 2919 2735
4 3934 2919 3257 2735
4 3255 2330 3935 2919
4 3255 2330 2919 2918
4 2565 2316 2427 2315
4 2402 3425 3666 2970
4 2394 3601 2688 2685
4 2565 2687 2992 3036
4 3442 2687 3012 3936
4 3442 2684 3439 3937
4 3524 2688 3938 3527
4 3442 3526 3936 3939
4 3442 3938 3441 2685
4 2394 3000 3259 2396
4 2596 2622 2624 2623
4 3012 3936 2687 3036
4 3269 2737 2222 3363
4 2730 3269 2737 3364
4 3772 3269 3260 2222
4 2620 3261 2266 2621
4 88 1562 2505 89
4 2264 3218 3269 2620
4 2730 3218 3269 3364
4 3424 3940 3711 3710
4 2608 3205 3207 3202
4 3741 3423 3425 3424
4 3941 3423 3942 3709
4 3423 3942 3709 3424
4 3424 3943 3940 3741
4 3424 3943 3944 3940
4 3424 3945 3741 3423
4 2263 3267 3275 2265
4 3015 3213 3348 2860
4 3275 3095 3885 3884
4 3490 2635 3493 2636
4 2227 3214 2226 2861
4 2227 3214 3014 3015
4 3014 2374 3215 3319
4 2228 3014 2374 3215
4 3267 3266 3213 3265
4 2860 3015 3641 3348
4 3641 2860 3215 3015
4 3267 2860 3885 3348
4 2849 582 583 2505
4 2235 3148 2283 2236
4 2282 2285 2277 2283
4 3073 2283 2286 2277
4 3946 3947 3948 3949
4 2231 2284 2232 2763
4 2235 2231 2236 2245
4 2287 2659 2289 2283
4 2961 3197 2963 3950
4 3951 3435 3471 3952
4 3951 3471 3953 3952
4 3951 3954 3430 3955
4 3199 3197 3201 3200
4 3956 3954 3957 3955
4 3951 3599 3456 3472
4 3951 3471 3472 3953
4 2225 2859 2230 3275
4 2830 1560 1552 1561
4 2430 3219 2265 3217
4 3061 3004 3093 3095
4 3898 3563 3367 3557
4 3267 3275 3567 3885
4 3061 3062 3004 3095
4 2791 2705 3175 2732
4 3336 3337 2791 3345
4 3336 2791 2451 2458
4 3303 2704 3345 2791
4 3837 3958 2963 2912
4 2629 2955 2959 2582
4 3165 2273 2629 2553
4 2629 2553 3166 3165
4 2464 2468 2629 2965
4 2627 2959 2629 2630
4 2627 2464 2629 2582
4 3519 2675 3313 2631
4 2455 2464 2467 2207
4 2467 2629 2464 2468
4 2210 2207 2628 2209
4 3959 3960 3961 3962
4 2464 2463 2468 2965
4 2629 2464 2965 2582
4 3963 3964 2824 3965
4 3963 3966 2822 3327
4 3963 3967 3327 3968
4 3963 2822 3964 3968
4 3969 3970 3971 3600
4 3969 3972 3973 3974
4 3975 3969 3976 3972
4 3441 3969 3890 3600
4 3969 3441 3975 3970
4 3600 3441 3799 3890
4 3001 3003 2415 2417
4 2587 2397 2401 2304
4 2577 2317 2575 2401
4 3002 3008 3001 3012
4 3535 3837 3977 2963
4 3010 2686 3011 3945
4 2564 2993 2992 2994
4 2564 2991 2565 3000
4 2714 2716 2718 2570
4 2313 2720 3060 2995
4 2302 2427 2316 2315
4 2714 3057 2570 2718
4 2564 3000 2316 2998
4 2997 3000 2998 3590
4 3978 1662 1654 1663
4 3000 2998 3590 3767
4 2688 3000 2997 3662
4 2313 3060 2717 2724
4 2231 2284 2288 2244
4 2231 2244 2764 2243
4 2244 3979 2764 2243
4 2231 2764 2244 2288
4 2557 2961 3308 3980
4 3008 3011 3001 3012
4 2402 3425 2970 2400
4 3420 3709 3423 3138
4 3420 3425 3424 3710
4 2686 2970 3741 3945
4 3666 3741 3425 3397
4 2398 2648 2970 2428
4 2393 2317 2304 2399
4 3335 2529 3459 2531
4 2841 2529 2531 3459
4 2531 3476 3981 3335
4 2531 3476 2941 3458
4 2841 3982 3459 3981
4 2842 2837 2841 2836
4 3008 3009 3983 3003
4 3822 3984 3002 3003
4 3822 3226 3985 3227
4 3822 3986 3985 3987
4 3822 3984 3988 3986
4 3822 3003 3988 3984
4 3989 2514 3990 2658
4 2651 2656 2658 2515
4 2658 2653 2509 3187
4 2658 2509 3991 3187
4 2656 3290 3991 3989
4 2656 2657 3292 2793
4 2656 2514 2521 3290
4 2651 2792 2656 2515
4 2656 3292 2657 3992
4 3219 3038 3567 3093
4 3674 3993 3994 3836
4 3174 3216 3935 3560
4 2431 3558 3042 3661
4 3557 2431 3558 3560
4 2594 3174 3927 3560
4 2594 3559 3558 3560
4 2594 3927 2433 3765
4 2700 2833 3092 3475
4 2938 2700 2833 2939
4 2940 2833 3092 2939
4 2895 3837 2911 2913
4 3777 3778 2624 2625
4 2575 2586 2576 2577
4 2676 2385 2680 2681
4 3995 3996 2913 2895
4 3451 2587 3021 2650
4 3020 3023 2650 3021
4 2470 3024 2682 3023
4 2304 2303 3024 2643
4 3020 2650 2644 3030
4 2470 2682 2698 3023
4 3997 1561 1552 1553
4 2845 3444 2689 2249
4 3696 3413 3704 3414
4 2694 2286 3073 3733
4 3073 2277 2693 2548
4 2696 3368 3998 2549
4 2696 3414 3068 3448
4 2742 2269 3265 3668
4 2742 2269 2267 3096
4 2743 2487 3999 3270
4 2491 2743 2487 2747
4 3270 2487 3999 3377
4 2742 3097 3377 3270
4 2467 2629 2468 2233
4 2959 2630 3515 4000
4 2959 4001 2630 4000
4 2959 3166 2630 4001
4 2581 2955 2959 2957
4 3889 3888 3430 2395
4 2403 3912 3185 3911
4 2403 2401 2577 3185
4 3468 2401 2971 3183
4 2403 3185 3912 3453
4 3290 3292 2799 2656
4 2359 2354 2657 3292
4 2652 2651 2413 2653
4 2656 2521 2799 3290
4 2651 2654 2909 2655
4 2651 2794 2792 2795
4 2770 2794 2657 2413
4 2359 3292 2657 2793
4 2359 2657 2405 2413
4 3748 2750 2931 2751
4 3746 2812 3748 2931
4 3746 2812 4002 3747
4 4003 4004 4005 4006
4 3142 3141 3747 2812
4 4007 3748 4008 3141
4 2505 88 582 591
4 3748 3749 2931 2750
4 3748 3749 4009 4010
4 3748 4010 4009 4008
4 3748 4008 3141 3747
4 3183 3177 3454 3178
4 3708 4011 3937 3936
4 3708 3702 4012 4013
4 4014 4013 3708 4012
4 3708 4015 3036 3002
4 3952 4016 4017 4018
4 2380 2379 4019 4020
4 2380 2679 4019 2379
4 2375 2378 2380 2376
4 2380 2376 2378 4020
4 2690 2696 2689 3414
4 2694 2692 2661 3192
4 583 591 592 2505
4 3413 3250 4021 4022
4 3413 3250 3192 4021
4 4023 2380 4024 4025
4 2380 2471 4025 4023
4 3997 1561 1553 1562
4 4026 459 451 460
4 2682 2697 4023 3028
4 2471 4027 4028 4029
4 2676 2471 4023 2697
4 4030 812 813 821
4 2680 2682 2470 2697
4 95 1499 519 96
4 3952 4031 4017 4032
4 2430 3218 3216 3217
4 3467 3470 3425 3473
4 2997 3525 3598 2999
4 2263 2271 2268 2267
4 2230 2266 3275 2265
4 2264 2270 3256 2620
4 4033 4034 4035 3598
4 2270 2745 3626 2621
4 2403 2401 3185 3453
4 4036 2179 2187 2178
4 2401 2587 2640 2400
4 3888 3954 4037 3438
4 3435 3436 3600 3431
4 3021 3183 2401 3451
4 3857 2170 2169 2161
4 4038 422 430 421
4 4039 1609 1610 1618
4 2278 2551 3881 2550
4 2693 2277 2253 2548
4 2246 2535 2252 2251
4 2250 2273 2553 2285
4 2250 2278 2553 2969
4 2695 2287 2251 2277
4 2275 2969 2915 2250
4 3190 3192 2694 2661
4 4040 4041 4042 4043
4 4044 1809 1800 1801
4 2695 2277 3073 2286
4 2395 3888 3430 3599
4 3190 2694 2286 2661
4 2695 2286 2661 2287
4 4045 1181 1191 1190
4 3997 4046 1553 1552
4 2694 3696 3194 3415
4 2247 2690 2694 2696
4 4047 1991 2000 1999
4 3618 2968 3619 4048
4 2968 3164 4049 4050
4 3618 2968 2275 3235
4 4051 1752 1753 9
4 3746 4052 4002 4053
4 4054 4055 1266 1275
4 3855 4056 3332 2179
4 4052 4057 4010 3747
4 4052 4058 4053 4059
4 4052 4053 4060 4002
4 4052 4059 4061 4058
4 4052 4060 4057 3747
4 2404 2867 2409 2378
4 2404 2377 2867 2378
4 2409 4062 4063 2902
4 4064 1799 4065 1808
4 4066 294 285 286
4 4067 327 328 336
4 2830 3997 3132 1561
4 4068 1758 1759 15
4 2768 2766 2409 2902
4 2409 2410 2408 4062
4 2945 2938 2531 2941
4 4069 313 321 312
4 2938 2836 2940 2833
4 2838 3903 2837 3782
4 2838 3903 4070 2834
4 2406 2771 2413 2766
4 2838 2836 3782 2837
4 2940 2833 2836 2838
4 3616 4071 4072 4073
4 4074 4075 4076 4077
4 2641 2650 2640 2647
4 2650 3026 4078 3027
4 2587 3021 2650 3023
4 2683 3028 3029 2682
4 4079 4080 735 744
4 2575 2698 2473 2576
4 4081 371 379 370
4 4082 4083 4084 4085
4 4082 4086 4083 4085
4 4082 4087 4084 3357
4 4088 1847 4089 1856
4 4090 393 384 385
4 4082 3474 4091 3815
4 4082 4092 4091 2834
4 4082 4086 4091 4092
4 4082 3852 3358 4083
4 4093 3635 4094 3461
4 3635 3461 4093 4095
4 3416 1199 1200 1209
4 4096 402 393 394
4 3635 2937 3581 2935
4 3635 3245 3629 3581
4 3635 4095 3808 3581
4 2219 2225 2223 2386
4 4097 4098 1789 4099
4 4100 403 411 402
4 2392 3189 3007 3188
4 2361 2297 2374 2369
4 4101 840 839 831
4 2903 3683 3684 4102
4 4103 741 732 733
4 2225 2391 2392 2859
4 2389 2937 2933 2935
4 2220 2224 2221 3617
4 2298 2295 2637 2390
4 2298 2300 2390 2388
4 4104 4105 4106 4107
4 3463 2388 2614 2639
4 3463 2639 2614 4108
4 4108 3463 4109 4110
4 4111 78 1661 1652
4 3463 2937 4095 3461
4 3460 3463 2390 2388
4 4111 77 78 681
4 3930 533 532 524
4 4112 154 923 914
4 4113 47 48 563
4 4114 3463 4115 4095
4 3463 4116 4095 4114
4 2505 89 582 88
4 90 564 2869 573
4 3463 2614 4117 4110
4 4118 1251 1242 1243
4 4119 1725 1726 1735
4 4120 546 93 1517
4 2839 3232 3457 3800
4 3459 3335 3493 3492
4 2841 3981 2531 3458
4 2841 3811 2840 4121
4 4122 1017 1008 1009
4 2841 3457 3459 4121
4 2373 2297 2810 2807
4 3762 1108 1107 1099
4 4123 1627 1618 1619
4 2842 2839 2299 2529
4 2841 3458 2836 2837
4 2408 3019 4124 4125
4 2344 3477 3478 3805
4 3805 3477 4126 3210
4 2344 2349 3477 3805
4 2344 2294 3523 3478
4 3171 2349 3172 3475
4 4127 686 694 685
4 2349 3210 3172 3481
4 4128 1154 1155 185
4 3171 2700 3212 2349
4 2344 2345 2350 2353
4 2345 2348 2344 2350
4 2345 2943 2700 2348
4 2345 2622 3092 3034
4 2586 2576 3184 3177
4 3177 2576 3184 3180
4 4129 17 293 284
4 4130 1684 1694 1693
4 4131 4132 1303 1302
4 3176 2698 3920 3181
4 3920 2698 3384 3181
4 2760 2866 3384 2699
4 3176 2586 3023 3021
4 2676 2376 2380 2471
4 2680 2698 2702 2473
4 2993 4133 2566 3551
4 2564 3816 2714 2995
4 2993 2566 3552 3551
4 2993 2566 4133 2995
4 2993 3037 4134 3552
4 4135 788 779 139
4 2564 2993 2566 2992
4 2993 4134 2992 2994
4 3184 3177 3180 4136
4 3184 3185 4137 4138
4 3904 3184 4136 4138
4 4139 4140 4141 851
4 3105 857 849 858
4 4142 1380 1389 1388
4 4143 1116 1107 1108
4 4144 1863 1871 1862
4 4145 4146 4147 1874
4 4148 401 409 400
4 4136 3907 3385 3904
4 3184 3185 3177 4137
4 4149 326 318 327
4 3184 2576 2577 3904
4 3184 3185 3904 2577
4 3840 4150 2855 4151
4 2218 2787 2214 2789
4 2218 2673 2210 2456
4 4152 593 602 601
4 2214 4153 4154 3239
4 2218 3840 2562 2855
4 3840 4155 2787 2786
4 3840 3841 2562 4156
4 3840 4155 2786 4156
4 4157 461 460 452
4 4158 472 4159 4160
4 4161 688 687 679
4 3997 2256 1562 2505
4 2212 2213 2214 2819
4 4162 508 499 500
4 3532 585 3531 576
4 4163 559 551 560
4 3814 4164 4165 1990
4 2703 2705 2708 2751
4 3282 931 930 922
4 2705 3175 2732 2339
4 4166 578 586 577
4 4167 602 610 601
4 2711 2713 3534 2704
4 2240 1549 1548 1540
4 4168 570 569 561
4 2705 2337 3175 2339
4 2791 2705 2732 2704
4 4169 985 993 984
4 4170 631 639 630
4 2389 2933 2300 2936
4 4171 535 527 536
4 2373 2632 2368 3228
4 2637 3807 2639 4172
4 2636 3807 2637 3492
4 2387 2612 2388 2639
4 4173 4174 4175 4176
4 2296 2387 2635 3489
4 4171 4177 4178 526
4 2636 3490 3489 3658
4 4179 496 487 488
4 4180 425 4181 426
4 4182 608 599 52
4 2830 1551 1552 1560
4 4183 1205 1195 1196
4 3387 3870 4184 4185
4 4186 696 695 687
4 2297 2228 2389 2298
4 2637 2390 4172 2388
4 4187 602 593 594
4 4188 986 161 162
4 2625 3087 3086 3085
4 4189 2849 2848 4190
4 2932 2931 3749 2750
4 3779 2940 3780 3778
4 4191 1161 1160 188
4 2622 3034 2624 3092
4 2862 2865 4192 3278
4 4193 4194 4195 1013
4 3746 4052 4053 2625
4 3338 4196 4197 4198
4 2932 2931 2750 2748
4 3602 2207 3515 2958
4 2573 2185 3900 2186
4 4199 1530 1538 1529
4 4200 2116 2124 2115
4 2981 2453 2774 2986
4 2211 2774 2951 2453
4 2453 2951 2981 2774
4 2454 2451 2462 2458
4 2462 2732 2557 3308
4 2557 2556 3980 2732
4 4111 4106 4201 4105
4 2557 3980 2560 2961
4 4071 4073 1216 1207
4 3134 3309 3302 3308
4 2462 3302 2555 2458
4 2557 2560 3535 2961
4 4202 2114 2105 2106
4 2461 2790 2558 2556
4 2346 2606 2351 3573
4 2622 2609 2346 2347
4 4203 694 693 685
4 2344 2294 2351 2353
4 2353 2606 2727 3528
4 4204 1128 1119 1120
4 4205 2118 2127 2126
4 2877 3869 2777 2847
4 1553 89 582 2505
4 2595 2605 2346 2606
4 4206 1773 1772 1764
4 2353 3091 3664 3033
4 2323 2321 2325 2330
4 2323 2324 2331 2330
4 2327 2328 2329 2771
4 2333 3174 2321 3927
4 2681 2699 3181 4207
4 2278 2553 2969 2554
4 3970 3894 307 4208
4 4017 736 728 737
4 2553 2554 2552 3167
4 4209 747 748 756
4 4210 333 341 332
4 2278 2548 2553 2552
4 2209 2789 3878 3515
4 4211 211 212 1241
4 3877 3602 2217 3878
4 4212 1784 1775 1776
4 4042 387 386 378
4 3877 3602 4213 3129
4 4214 4215 4216 4217
4 2673 3841 2466 2456
4 4218 1342 1333 1334
4 2628 2789 2209 3515
4 4219 4220 4221 4222
4 2208 2213 2216 2215
4 2381 3673 2383 2495
4 2384 3847 3673 2677
4 4223 1419 246 1410
4 3580 454 453 445
4 4224 361 4225 4226
4 4227 538 546 537
4 2382 2507 2509 2653
4 2461 2556 2462 2460
4 2454 2452 2461 2460
4 2555 2459 2458 3305
4 2231 2241 3151 2243
4 2465 2457 2593 2453
4 2241 2591 2243 2242
4 2465 2241 2591 2459
4 4228 831 822 823
4 2465 2234 2588 2591
4 4229 111 1355 4230
4 3381 2423 3379 4231
4 2459 3325 2458 3305
4 4232 1905 1897 1906
4 2465 2233 2466 2468
4 2476 2480 4233 2479
4 2958 2480 2964 4205
4 3128 4205 4233 2958
4 2411 4124 2379 4020
4 2958 2964 3515 3878
4 4234 1440 1432 1441
4 4235 4236 801 810
4 4237 1038 1046 1037
4 2958 3878 3602 4213
4 4238 917 916 908
4 3949 449 457 448
4 4239 1398 1407 1406
4 4240 4241 4242 4243
4 2773 2780 2776 2782
4 4240 3571 3476 4244
4 4245 1488 1496 1487
4 4246 4247 486 4248
4 3571 4249 4240 4250
4 4240 4251 4252 4243
4 4253 4254 1706 130
4 2689 3414 2696 3448
4 3368 3998 2887 3417
4 3998 2689 3448 3446
4 4255 469 477 468
4 3368 3417 3447 3446
4 3486 4256 4257 4258
4 3447 2248 3445 2804
4 3361 4259 3843 3842
4 3368 2549 2891 3998
4 2551 2887 3368 2891
4 4120 92 546 555
4 3585 3584 3630 4260
4 4261 565 556 557
4 3368 2887 2804 3447
4 3797 4262 2851 3263
4 4263 1908 1899 1900
4 4264 450 442 451
4 4265 234 4266 2057
4 3634 504 503 495
4 4267 4268 4269 4270
4 2380 4029 2376 4020
4 3796 3593 3622 2220
4 2222 2221 3263 3797
4 3651 1538 4271 1547
4 2904 2508 2497 4272
4 3772 3263 3796 2222
4 3263 3796 2222 3797
4 4273 637 645 636
4 4274 4104 4275 4106
4 4276 4204 1128 1119
4 3846 4125 3287 4277
4 2517 4278 2520 4279
4 4278 2518 3770 2517
4 3846 4124 4277 4019
4 4277 4280 4281 4282
4 4283 2144 2152 2143
4 4284 630 639 638
4 4277 4285 4281 4286
4 3846 4277 3287 4287
4 4288 4289 4231 3379
4 4290 1201 1191 1192
4 2517 2519 3379 4289
4 2517 2520 2519 4291
4 2437 1238 6 200
4 2517 2520 4291 4279
4 2877 2777 3869 2776
4 2252 2276 2777 2776
4 2778 2776 4292 2777
4 3611 4293 4294 3612
4 2777 4295 2778 2541
4 3003 4296 3984 3556
4 4297 4056 2170 2171
4 2777 2541 2844 4295
4 2777 4298 3485 3869
4 3986 4299 3987 4300
4 3825 4301 1739 1748
4 295 4302 296 4303
4 2777 3485 4298 4304
4 2299 2530 2529 3335
4 2389 2295 2935 2807
4 4305 214 1725 1734
4 3612 4063 4147 4306
4 3508 4307 3509 4308
4 4309 4310 3162 4311
4 4309 3162 4312 4311
4 4309 3643 4313 3316
4 4314 1705 1714 1704
4 4309 3211 3162 3509
4 4315 1777 1778 1786
4 2822 3326 3327 3966
4 2701 2758 2831 2472
4 3963 2824 2822 3966
4 3963 2822 2824 3964
4 3963 2822 3968 3327
4 2761 2831 2472 2864
4 2822 2825 3964 2826
4 4316 4317 1796 4318
4 4319 4320 4321 329
4 3612 4147 4063 4145
4 4322 1267 1266 1258
4 4323 748 749 757
4 3057 3767 4324 3589
4 2714 3589 2718 3058
4 4269 4325 4268 1859
4 2564 2994 2991 2998
4 2998 3058 3816 2996
4 2219 2861 2227 2226
4 2362 2227 2228 2861
4 3014 3319 3215 3641
4 3314 3014 3319 2374
4 4294 3612 4293 4027
4 3314 3642 2366 2369
4 4326 272 271 1764
4 3314 2369 3318 3643
4 3219 3038 3093 3661
4 4327 3075 3084 3076
4 3557 3558 3661 3562
4 3558 4328 4329 4330
4 3558 4328 3562 3559
4 3557 3367 3898 4331
4 3557 3560 3559 3898
4 4332 1844 4333 1853
4 3093 3219 3661 3557
4 2334 2790 2335 3175
4 2334 2335 2337 3175
4 4334 152 153 905
4 4335 955 946 947
4 4336 1893 1902 1901
4 2335 2785 3175 2954
4 3748 2335 2812 2783
4 2705 2785 2335 2751
4 2226 2861 3264 2229
4 2228 2391 2860 3215
4 4251 1495 1504 1503
4 3319 3640 3641 3014
4 4337 1404 1395 1396
4 3483 874 882 873
4 2225 2226 2227 2860
4 2219 2229 2221 2861
4 4338 1951 1952 1960
4 2323 2331 2320 2321
4 4339 496 505 504
4 3521 542 550 541
4 242 4340 1455 1446
4 2433 3081 2333 2434
4 4341 903 894 895
4 2328 2801 2771 2800
4 2769 2770 2800 3108
4 2422 3321 2423 2493
4 4342 4343 4344 4345
4 3075 4327 3079 3043
4 4346 4347 2127 2128
4 2429 3560 2431 3216
4 2799 2438 3077 3288
4 4348 612 621 620
4 2928 2438 3081 3077
4 2414 2398 2426 2972
4 3666 3741 3742 2686
4 3666 3439 3258 2684
4 3666 3258 3439 3394
4 2970 3945 3423 3741
4 4349 1563 230 1554
4 4350 584 593 592
4 3091 3033 4351 3664
4 2596 2605 2604 2932
4 2345 3034 3091 3033
4 2293 3803 3892 2348
4 2348 2350 3892 2293
4 2353 2727 3033 3664
4 4352 3820 4353 3821
4 3612 4089 4354 4027
4 2350 3664 3091 3892
4 2574 2576 2575 2473
4 2575 2470 3024 2306
4 2469 2472 3298 3294
4 2760 2702 2757 2756
4 4355 1489 1481 1490
4 2469 2470 2306 2303
4 2576 2579 2577 3904
4 3176 3182 3021 3181
4 2474 2760 3328 2473
4 2574 2579 2576 2473
4 4356 2103 2112 172
4 4357 1647 4358 1656
4 4290 1191 3720 4359
4 3225 4293 4028 2864
4 2701 2866 2377 2507
4 4360 1600 1608 1599
4 2676 2682 2683 2681
4 3633 4361 4094 4362
4 2436 200 1672 201
4 4290 1201 1200 1191
4 3418 1210 1200 1201
4 2474 2758 2702 2472
4 2760 2699 2702 2866
4 2826 2756 2701 2507
4 2491 2271 2268 2745
4 2263 3267 3899 2269
4 3720 1191 1200 1190
4 2263 3899 3267 2265
4 4363 4364 4365 1702
4 2263 2268 3266 2269
4 4366 1480 1472 1481
4 2607 2946 3158 2966
4 2607 3158 2946 3565
4 2607 2603 2608 3201
4 4367 1256 1247 123
4 2203 2607 3156 3158
4 2203 2602 2607 3158
4 2602 2607 2966 2603
4 2607 2603 3201 2966
4 2607 2949 3207 3565
4 2768 2900 2867 2765
4 2768 2900 2409 2867
4 2831 3277 3278 2901
4 2872 0 217 8
4 501 2281 98 97
4 4368 278 287 286
4 3278 2831 2901 2862
4 2680 2701 2385 2376
4 2701 3225 2831 2867
4 2701 2653 2377 2407
4 4051 276 8 9
4 2364 2365 2366 2362
4 4211 1707 212 211
4 3612 4354 4145 4063
4 4369 216 1246 1245
4 2366 2369 3642 3637
4 3686 1274 120 1283
4 2369 2361 2368 2366
4 4370 277 9 10
4 2366 2365 3637 3642
4 2362 2366 3122 2365
4 3519 2628 3515 2789
4 4371 4369 216 1246
4 2631 2233 2466 2674
4 2454 2561 2461 2456
4 2561 2466 3841 2456
4 3152 2233 2674 3676
4 4372 278 10 11
4 2465 2561 2466 2241
4 2455 2207 2210 2211
4 2457 2988 2453 2451
4 4373 1726 1725 1716
4 4372 11 279 278
4 4374 12 279 11
4 3063 3562 3093 4375
4 4375 4376 3946 3948
4 4375 4376 4377 3562
4 4375 4378 3464 4379
4 2219 2222 2221 2229
4 2219 2220 2224 2221
4 2221 3925 2363 2852
4 4380 1757 1747 1748
4 2221 3263 2861 2229
4 4381 13 280 12
4 2338 2603 2966 3201
4 4382 4380 4381 4383
4 2338 2560 3980 2960
4 2338 2560 2556 3980
4 2205 2338 2337 2603
4 4382 13 14 281
4 2602 2338 2967 2818
4 2602 3157 2254 2818
4 3311 4384 4385 2788
4 2788 4386 4387 4388
4 4389 2787 4390 2788
4 4294 4089 4391 4392
4 2788 3519 4386 4393
4 2788 4388 4384 4390
4 2788 3311 4387 3519
4 2665 4394 2289 3759
4 4382 1757 1758 14
4 4382 281 4381 13
4 4395 290 291 299
4 2665 3979 4394 3759
4 2665 2663 4396 3759
4 3686 3679 119 312
4 2723 2567 2568 3752
4 2723 3752 2418 2567
4 4397 21 329 320
4 3686 120 119 1283
4 4294 4027 4293 4391
4 2314 2318 2567 2418
4 3333 2722 3554 4398
4 2721 2723 4398 2418
4 4399 4400 1791 1792
4 3686 303 4401 312
4 4402 283 292 291
4 2723 3554 4398 3752
4 2558 2819 2855 2818
4 2218 3841 2673 2456
4 2208 2218 2214 2209
4 2452 2954 2460 2951
4 2455 2467 2464 2468
4 2223 2301 2220 2386
4 4031 4403 4018 4404
4 2300 2933 2937 3188
4 3686 119 120 303
4 4405 1745 1755 1754
4 4406 730 731 739
4 4380 1747 1757 1756
4 4407 16 4408 284
4 3318 2374 2934 2369
4 3181 4207 2699 3384
4 2637 2806 3492 3789
4 4068 4402 282 283
4 4407 284 283 16
4 2637 2388 4172 2639
4 3463 2390 2388 4172
4 2389 2937 2935 3581
4 3904 3907 4409 3905
4 2390 2806 3789 3581
4 2721 2425 2318 2418
4 2305 4410 3041 2425
4 4407 1759 4068 4411
4 2304 3041 2305 2643
4 2305 2643 4412 2303
4 2305 2314 2302 2308
4 4408 17 284 1
4 2302 2306 2303 2308
4 2263 2272 3899 2265
4 2446 3899 3096 2267
4 3899 2272 3567 2265
4 2441 3256 2271 3169
4 2439 2432 2431 3043
4 3219 2272 2265 3567
4 2543 2264 2271 3256
4 4367 122 1256 123
4 2514 3990 2658 2516
4 2514 2518 3990 2516
4 2513 2516 2520 2518
4 1320 1850 4413 257
4 3989 3290 3991 4414
4 2514 3989 3770 4415
4 3290 2514 3989 2656
4 2665 2662 2663 2289
4 4416 1256 4417 1255
4 4418 1265 1256 122
4 4401 304 4419 313
4 4420 211 1241 1240
4 2665 3979 4421 4394
4 3979 2243 3151 3732
4 3979 4422 4423 4421
4 2244 4394 3979 3759
4 3686 312 119 303
4 4401 313 312 304
4 4211 1698 1707 211
4 4424 280 288 279
4 2244 4425 2289 2288
4 3979 4422 2764 4423
4 4411 1749 1759 1758
4 4382 1757 14 13
4 2391 3095 3884 3007
4 3275 3095 3884 2391
4 4383 290 282 291
4 2392 2301 2859 3062
4 3218 3563 3217 3367
4 3262 3260 2266 2229
4 4426 1727 1728 1737
4 4016 4017 737 736
4 3269 2230 2229 2222
4 3976 290 298 289
4 2859 2617 3061 3062
4 4427 125 717 124
4 4428 18 19 302
4 4429 289 280 281
4 4430 3010 3011 4431
4 3424 3741 3945 4431
4 3423 4432 3424 3945
4 3942 3423 4432 3424
4 3945 3423 4433 3013
4 4014 1261 1252 1253
4 4434 1269 1277 1268
4 4004 766 3788 3455
4 3945 3423 4432 4433
4 3010 2686 3945 3013
4 3010 3945 4433 3013
4 3010 3945 4431 4432
4 4435 4436 4437 3906
4 2214 2855 2819 4438
4 2461 2556 2558 2560
4 2561 2555 2241 2459
4 2212 2819 2214 2855
4 4129 293 17 18
4 4381 4380 1757 1756
4 2790 2556 2460 3175
4 2811 2821 2254 2336
4 2213 2811 2820 2819
4 4118 4012 4439 3518
4 4269 256 1859 257
4 2558 2338 2560 2556
4 2334 2337 2205 2338
4 2282 2289 2290 4425
4 4418 121 122 285
4 120 4440 303 294
4 4441 3907 3906 4435
4 2282 2289 2287 2290
4 2287 2289 2662 2290
4 2284 2289 2283 2282
4 2244 2288 2764 4425
4 4303 287 295 286
4 2244 2245 2289 3759
4 4442 304 303 295
4 3686 4440 4443 303
4 3576 4444 3577 3156
4 4444 4445 4446 3576
4 4447 732 3753 741
4 4033 306 314 305
4 3956 3957 755 4448
4 4449 305 296 297
4 4444 4450 3156 3564
4 4451 4452 760 751
4 4453 1731 1732 1741
4 4301 1748 1738 1739
4 4454 1241 1242 1250
4 4449 305 297 306
4 4032 293 301 292
4 3971 299 308 307
4 4444 3154 3577 3156
4 4444 3154 4445 3577
4 4455 4403 4456 1742
4 4444 3154 3155 4450
4 4428 302 293 18
4 4444 3154 3156 3155
4 3171 2528 2808 2809
4 4457 309 308 300
4 4458 309 317 308
4 2229 3260 2266 3269
4 3267 3899 3567 2265
4 4459 300 292 301
4 4460 720 729 728
4 3321 2267 3096 3484
4 4461 310 318 309
4 3899 3096 3347 3082
4 3347 4462 3082 3096
4 4032 301 293 302
4 3096 3099 3406 3484
4 3406 3404 4462 3096
4 3525 3526 3527 4463
4 3442 2687 3936 3526
4 4017 726 727 735
4 2910 3312 4464 3672
4 3679 118 1292 119
4 2588 2589 2468 2463
4 2234 2468 2232 2233
4 2464 2582 3928 2965
4 4269 256 1320 1329
4 2232 2629 2233 2468
4 2589 2763 2965 3236
4 4465 192 193 1175
4 2231 2242 2243 2764
4 3979 2243 4423 2764
4 4466 210 4420 1240
4 4066 294 286 295
4 4135 4467 4468 1815
4 2241 3731 2243 2591
4 2243 3730 3732 4469
4 4302 295 296 304
4 2243 4470 2764 2242
4 3971 307 298 299
4 2243 2242 3731 4470
4 4136 4436 4471 4137
4 3906 4436 4437 4471
4 2692 2666 2691 2536
4 3686 120 1274 4440
4 2672 2666 2664 2290
4 4472 316 307 308
4 4473 315 323 314
4 2666 2287 2290 2536
4 4016 4448 746 737
4 2508 2495 2516 2904
4 4457 308 3433 3971
4 4457 308 299 300
4 2658 2516 2508 2495
4 4435 354 353 345
4 2516 4474 2518 2905
4 2654 2516 3045 2515
4 2654 3045 2516 3035
4 4475 302 310 301
4 4476 327 319 328
4 4080 19 311 302
4 4138 4477 3911 4478
4 3432 310 309 301
4 4479 20 21 320
4 3427 3430 3435 3434
4 4381 4429 4383 4380
4 3435 3955 3430 3431
4 3890 3435 3798 3469
4 3951 3435 3430 3599
4 3469 3599 3435 3471
4 3435 3952 3798 3471
4 2313 2567 2566 4133
4 4480 319 311 320
4 2416 2566 3552 3037
4 2564 2566 2565 2992
4 3713 3154 4481 4482
4 3108 2770 2800 3110
4 2771 2983 2794 2410
4 2333 2770 3110 2328
4 2770 2771 2794 2413
4 4401 304 312 303
4 2357 3083 3107 3738
4 2325 2434 2326 3374
4 4419 305 313 304
4 2329 2327 2331 2320
4 2771 2413 2410 2794
4 4483 314 323 322
4 4426 1726 1727 1736
4 2328 2329 2801 2320
4 2767 2771 2801 2800
4 2835 2833 3475 2832
4 2941 3780 2940 2836
4 4033 306 315 314
4 4473 315 324 323
4 3458 2837 4484 2836
4 4138 4485 3905 4486
4 2838 3777 4070 3781
4 2837 2842 2833 2836
4 3507 1728 1719 1729
4 3352 1296 1305 1304
4 4487 316 324 315
4 4488 764 763 755
4 4489 789 4490 790
4 2410 4491 3285 2408
4 4294 3611 3277 4293
4 4458 318 317 309
4 4477 326 4486 335
4 2900 2901 3611 3277
4 2831 2900 3225 3277
4 2900 3277 3611 4293
4 2900 4293 3225 3277
4 3611 4492 4294 4493
4 3684 3683 2903 2901
4 3680 3611 3688 3685
4 2521 4494 2424 2421
4 2513 2527 2521 2424
4 3292 2799 2656 2793
4 4479 320 311 20
4 4461 318 310 319
4 343 4495 4477 334
4 4397 22 329 21
4 2404 2405 2653 2413
4 4319 329 328 320
4 2658 2514 2516 2515
4 3954 3428 3956 4488
4 2658 3989 2509 3990
4 2332 4496 4497 2320
4 2332 4497 4496 4498
4 2328 2771 2801 2329
4 2332 2330 2331 2324
4 2331 2329 2982 2326
4 2331 4497 2923 4499
4 2331 4497 4500 2320
4 2331 4497 4499 4500
4 2331 2982 2329 4499
4 3730 4469 4501 3732
4 4483 322 313 314
4 3730 3676 4502 3675
4 2572 4503 2571 4465
4 2561 3676 3730 3675
4 4504 322 330 321
4 4505 3676 4502 3732
4 3676 4502 3732 3730
4 3137 3836 3674 4506
4 2571 192 2194 4465
4 3137 3730 4506 3674
4 3730 4502 3732 4507
4 2405 2974 3187 3992
4 4508 3787 4403 4453
4 4509 1279 1270 1271
4 4326 4130 4510 1684
4 3994 3730 4507 4502
4 3712 3473 4511 3421
4 4512 317 325 316
4 3730 4502 3994 3674
4 4513 325 333 324
4 4512 325 317 326
4 2810 2369 3316 4313
4 4487 316 325 324
4 2810 2934 2809 2807
4 3254 3216 3935 3255
4 3932 2369 2934 2810
4 3181 3920 3182 3373
4 4514 4515 4516 4517
4 4514 4195 4518 4519
4 4514 4516 4520 4521
4 4514 4518 4195 4522
4 4523 24 347 23
4 4476 319 327 318
4 4320 22 23 338
4 4514 4516 4521 4193
4 2884 2891 2551 3879
4 2884 2551 2804 2874
4 4017 727 728 736
4 4319 320 328 319
4 2246 2253 2247 2251
4 2246 2252 2535 2779
4 4524 344 352 343
4 2804 2886 3447 2887
4 2278 2550 3881 2554
4 4067 336 328 337
4 4321 337 328 329
4 2246 2550 2914 2874
4 2450 2430 2441 2429
4 2492 2805 2488 2490
4 2271 2805 3256 2745
4 2271 2488 2805 2745
4 2491 2271 2492 2267
4 2515 2656 2514 2521
4 4525 375 112 366
4 193 2572 2195 4465
4 4526 323 331 322
4 3381 3406 3484 3321
4 2796 2795 2794 2983
4 2797 3374 2798 2977
4 4210 333 342 341
4 2797 3374 2434 2798
4 2434 2799 2792 2798
4 2326 2797 3374 2434
4 4527 3070 3916 3734
4 4527 3070 3734 3069
4 4528 4529 3069 4530
4 4531 332 323 324
4 3986 4300 4532 4533
4 2657 3292 2354 3992
4 4534 350 358 349
4 4486 327 335 326
4 3054 776 784 775
4 3991 4535 4536 4537
4 4538 350 349 341
4 4529 4387 3916 4527
4 4387 3672 3311 3916
4 4539 364 363 355
4 4540 4541 1813 1812
4 4320 338 329 22
4 3312 3672 3311 4387
4 4486 335 327 336
4 4527 4530 4387 3312
4 2359 2899 2405 2354
4 2359 2657 2354 2405
4 2375 2382 2381 2383
4 2826 3186 2653 2827
4 4414 4542 4543 4537
4 3817 1298 1307 1306
4 2928 2359 2793 3077
4 4225 361 362 370
4 4544 346 354 345
4 4545 356 347 24
4 2404 2652 2653 2377
4 4321 337 329 338
4 2657 2405 3992 2354
4 3989 4415 4537 4546
4 2652 2795 2410 2413
4 4547 754 762 753
4 3141 3747 2812 3748
4 2811 2558 2205 2818
4 3748 2751 2783 2784
4 4548 1300 1291 1292
4 4549 4550 339 1310
4 2812 2821 3144 2213
4 4551 351 350 342
4 2335 2931 2812 2336
4 192 2194 4465 2195
4 4552 1281 4553 1290
4 2812 3144 2821 4002
4 2938 2945 2943 2939
4 2945 2943 3835 2942
4 4443 3901 1282 1283
4 4554 339 340 348
4 2945 3834 2942 3835
4 4555 332 340 331
4 2945 2530 3834 3335
4 4556 342 333 334
4 3335 2945 2531 3476
4 4490 790 789 781
4 4556 342 334 343
4 3290 4414 3289 3828
4 3991 4557 4537 4558
4 3429 3431 4032 4475
4 4485 336 344 335
4 4559 833 832 824
4 4560 2945 2943 3835
4 4561 4353 1308 1309
4 2805 2977 2490 2798
4 4562 774 773 765
4 4224 362 361 353
4 2805 3374 2798 3169
4 2805 2798 3374 2977
4 2805 2745 2488 2980
4 2975 2977 2805 2978
4 4563 365 364 356
4 2484 2493 2267 2422
4 2441 3169 2805 2798
4 4564 338 346 337
4 4485 344 336 345
4 4465 193 192 2195
4 4523 23 347 338
4 4565 379 388 387
4 3860 3863 3861 3859
4 2214 4153 2789 2787
4 3143 2213 3864 3238
4 2214 2213 3143 3238
4 2214 2787 4154 4153
4 4547 763 762 754
4 2218 2789 2214 2209
4 3877 2209 3143 4153
4 3143 3566 2215 2217
4 4566 374 373 365
4 4545 24 25 356
4 3973 4567 3972 3975
4 3441 4568 4567 4569
4 3351 1304 1305 1313
4 3441 2685 3799 3439
4 3441 3799 2685 3600
4 3441 4569 3970 3938
4 2493 3483 3379 2519
4 4570 4571 1831 4572
4 3969 3441 3970 3600
4 4465 4503 2571 1175
4 2268 3668 2746 3268
4 3266 2268 3265 2269
4 2491 2271 2745 2488
4 4538 341 349 340
4 4551 342 350 341
4 4573 1829 3546 1838
4 4574 1337 1336 1328
4 2975 2805 2980 2978
4 3623 3626 2745 2621
4 4575 4562 4576 773
4 3623 4577 2745 2980
4 2843 2844 2846 2847
4 4578 1324 1315 1316
4 4579 4221 4220 4580
4 2692 2667 2661 4581
4 2692 2666 2287 2661
4 4582 825 834 30
4 2534 2539 2846 2844
4 4583 352 351 343
4 4583 351 342 343
4 2536 2691 2534 2666
4 4584 4585 3829 414
4 4586 354 363 362
4 2534 2538 2846 2539
4 3247 2691 3248 3250
4 4524 352 344 353
4 2249 2876 2779 2877
4 4587 373 372 364
4 2888 2896 2897 2804
4 2278 2969 2914 2554
4 2282 2274 2251 2277
4 2535 2541 2276 2537
4 4523 4490 4545 780
4 4544 354 346 355
4 2843 2847 2777 2844
4 2695 2251 2287 2536
4 4575 4588 772 773
4 4589 2776 3869 4292
4 4590 355 347 356
4 2884 2550 2874 2889
4 2693 2549 4591 2548
4 2695 2251 2253 2277
4 2248 3368 2696 2549
4 4592 4593 4594 4595
4 2659 2289 2283 2245
4 4566 365 373 364
4 4596 26 365 25
4 2282 2274 2284 2288
4 2250 2273 2275 2969
4 2432 2448 3650 2447
4 4597 349 357 348
4 2695 2286 2287 2277
4 2282 2251 2274 2537
4 3279 2854 3121 3283
4 3279 2851 3263 2850
4 2853 4598 3121 3283
4 3649 1564 1572 1563
4 4509 1280 4599 4134
4 4600 340 4554 339
4 3279 2851 4601 3773
4 4601 3279 4602 2854
4 2854 3919 3550 4601
4 2852 3919 3550 2854
4 2724 2307 2719 2717
4 4603 367 366 358
4 2997 3589 2998 2996
4 2313 2314 2315 2567
4 4604 351 359 350
4 4605 367 375 366
4 2317 2427 2396 2316
4 4606 4538 4555 4210
4 2564 2998 2714 3816
4 2302 3041 2304 2399
4 2564 2995 2313 2566
4 3844 4607 2678 2679
4 4608 369 360 361
4 4609 352 360 351
4 4608 370 369 361
4 2679 3844 4610 2379
4 4611 1345 1354 1353
4 4224 361 352 353
4 4610 2379 4019 2679
4 3844 4610 4607 2679
4 4612 3844 4613 4610
4 3844 4614 4612 3845
4 2641 3139 2649 2647
4 3844 4613 3846 3845
4 4081 380 379 371
4 4615 772 771 763
4 4539 355 363 354
4 3844 3846 4613 4610
4 3832 4616 4617 4618
4 4619 379 380 388
4 2840 3813 4121 3811
4 4563 356 364 355
4 4465 1175 2571 192
4 4620 26 374 365
4 3229 3356 3474 2632
4 2842 3173 3474 2834
4 4621 407 399 408
4 3354 3362 3231 3356
4 4596 25 365 356
4 4588 782 781 773
4 3474 2840 2837 4091
4 3474 3229 3357 3356
4 4622 373 381 372
4 3474 4082 3357 3815
4 3852 3474 4082 3357
4 3020 3030 3029 3027
4 2587 2644 3024 2650
4 4603 366 357 358
4 2084 2092 2093 4623
4 2397 2646 2648 2428
4 2575 2698 2470 2473
4 2426 2415 2686 2684
4 4624 4597 4574 4625
4 4626 359 367 358
4 2403 3911 3185 2578
4 4100 403 4617 412
4 2971 2403 3453 2401
4 4627 3485 3486 4628
4 3485 4304 2844 4628
4 4629 4230 375 384
4 4630 359 360 368
4 4631 3826 4632 1819
4 3485 3868 2847 3869
4 3485 3486 3868 4633
4 3485 4634 4627 3486
4 3485 4634 4298 4627
4 2387 2638 2636 3658
4 2767 3610 2802 2903
4 4635 3329 3102 3233
4 2937 3189 3188 3461
4 4349 2093 4623 2084
4 4629 376 385 384
4 4636 363 371 362
4 4637 4638 382 391
4 2937 3631 3461 2933
4 3463 3461 3462 3460
4 3460 2937 2300 2390
4 3560 3559 3896 4639
4 4636 371 363 372
4 3635 2937 3631 3461
4 4640 3076 3926 3044
4 3460 3463 2388 2614
4 4641 27 28 383
4 2388 2639 2612 2614
4 2686 3703 3666 2684
4 3138 2640 3468 4003
4 4015 3036 3037 4642
4 3425 2400 3138 2648
4 3468 3138 3425 2400
4 4592 3079 4643 4644
4 4645 437 445 436
4 4646 373 374 382
4 2395 3599 2971 3888
4 4620 374 26 27
4 2393 2403 2395 2971
4 4647 400 391 392
4 2398 2428 2970 3013
4 2641 2647 2640 3139
4 3467 3425 3470 3666
4 2397 2428 2399 3041
4 2810 2297 2368 2369
4 4554 340 4555 4538
4 2373 3232 3228 2363
4 2806 3492 2299 2637
4 2299 2297 2363 2373
4 3171 2809 2810 3211
4 3171 3210 3211 3172
4 4648 377 386 385
4 4649 368 376 367
4 4650 369 377 368
4 2835 3501 3475 3520
4 3171 2528 2700 2833
4 2337 2606 2599 2600
4 2338 2339 2337 2603
4 4651 4278 4652 4580
4 4653 378 369 370
4 2337 2708 2751 2931
4 2705 2337 2708 2751
4 2705 2337 2339 2712
4 4653 379 378 370
4 3024 2644 2587 2643
4 3176 3023 3181 3021
4 4654 4655 4656 4657
4 2575 2473 2470 2306
4 4658 372 380 371
4 2469 2470 2474 2473
4 2302 2427 2317 2316
4 4040 388 396 387
4 4641 383 374 27
4 4659 398 397 389
4 2469 3482 2308 3294
4 2469 2308 2475 3294
4 2449 3288 3322 2447
4 4660 391 399 390
4 3705 3698 3726 4661
4 4661 4662 3705 4663
4 4661 3698 3697 3705
4 1156 4663 4664 1147
4 4622 381 373 382
4 4663 4664 1147 4661
4 4638 381 382 390
4 4661 3698 3726 4665
4 4665 4661 3806 3726
4 4661 3698 1147 3697
4 4646 382 374 383
4 3185 2577 2578 3904
4 3185 3904 3911 4138
4 3184 3904 3185 4138
4 3912 3454 3185 4666
4 2322 4667 3764 2319
4 2402 3467 3425 2400
4 2586 3177 3183 3021
4 3183 3185 3454 3177
4 4620 4668 798 4596
4 4584 406 414 405
4 4629 376 384 375
4 4648 385 376 377
4 2819 2254 4669 4670
4 2202 2603 2205 2599
4 4671 110 109 1373
4 2819 2213 3238 2820
4 2336 2262 2204 2206
4 2254 4669 2759 2820
4 2254 2820 2759 3495
4 2811 2334 2335 2336
4 4229 110 4671 1364
4 1343 4218 1342 1351
4 4672 394 385 386
4 2604 2748 2708 2931
4 2604 2337 2606 2599
4 4042 378 386 377
4 4043 387 396 395
4 3528 2727 2813 2709
4 4565 387 378 379
4 2707 2709 2710 2725
4 4673 813 4674 4030
4 2703 2709 2713 3607
4 4675 1344 1353 1352
4 4676 1326 1335 1334
4 3911 4477 4677 4478
4 2709 2710 2856 3607
4 4619 388 380 389
4 4678 390 399 398
4 2800 4679 2801 2803
4 2711 2857 2709 3528
4 2711 2708 2606 3528
4 2712 2708 2606 2711
4 4680 4681 4682 4220
4 4683 389 381 390
4 4637 383 391 382
4 4684 818 817 809
4 4685 28 392 383
4 4681 4222 817 826
4 4686 3731 2242 4470
4 4686 4687 3136 3731
4 4647 392 401 400
4 4688 808 4668 799
4 4686 2591 3136 4689
4 4686 3136 4687 4170
4 4660 399 391 400
4 2595 2346 2609 2610
4 2344 2349 2345 2347
4 4582 29 30 401
4 2605 3033 2353 2748
4 2322 2800 3763 4679
4 2337 2708 2606 2712
4 2595 2604 2606 2599
4 2707 2727 2606 3528
4 3573 2595 2610 2346
4 3656 2571 1175 1166
4 2353 2606 2748 2727
4 4690 439 438 430
4 2981 2988 2952 2951
4 2950 2775 3141 2783
4 2212 2855 2558 2819
4 3302 3305 3306 3136
4 4229 111 110 1364
4 4043 395 386 387
4 2478 2464 2582 3928
4 4671 109 110 393
4 2627 2959 2630 3515
4 3375 3378 3380 3376
4 4672 394 386 395
4 411 4691 108 4692
4 4693 4629 4230 375
4 2811 2558 2819 2213
4 2461 2557 3137 2555
4 2212 2210 2452 2456
4 2558 2560 2818 2559
4 2767 2803 2800 2801
4 4616 404 395 396
4 2454 2461 2452 2456
4 4040 396 388 397
4 2452 2460 2451 2951
4 4659 389 397 388
4 3308 2462 3302 2557
4 3047 2976 3100 3048
4 2796 2795 2983 3285
4 4694 1335 1344 1343
4 2658 2495 2508 2509
4 4695 398 406 397
4 2928 2799 2434 2438
4 2515 2527 2521 2513
4 4696 1324 1333 1332
4 2359 3077 2354 3292
4 2928 2327 2434 2794
4 2928 2359 3081 2770
4 2800 2328 2322 3110
4 3076 3084 4640 3081
4 3110 3108 3109 3766
4 2333 2321 2322 3765
4 4668 799 807 798
4 2446 3899 2448 3096
4 2434 3081 2333 2928
4 2432 2439 3650 3043
4 3075 3081 2439 3077
4 2433 3081 3076 3765
4 4219 4637 4222 4221
4 2968 2915 2917 4048
4 2250 2252 2279 2275
4 3165 2554 3167 4697
4 3165 2553 2554 2969
4 2250 2273 2285 2274
4 3947 466 457 458
4 2278 2277 2553 2548
4 2553 2273 2629 2285
4 4698 468 476 467
4 2232 2629 3148 2910
4 2285 2553 3166 2629
4 2467 2631 2910 2233
4 4618 403 394 395
4 4699 4700 866 857
4 2214 2209 4153 3143
4 2214 2209 2789 4153
4 2789 3515 3519 4701
4 4096 402 394 403
4 4702 1361 1370 1369
4 2788 2789 4703 2787
4 4100 411 403 412
4 2789 3515 4701 3878
4 2209 3515 3878 2217
4 2789 4703 2787 4153
4 2383 2904 3673 3848
4 4704 405 396 397
4 3829 414 413 405
4 4705 422 421 413
4 4704 406 405 397
4 2496 2497 3700 3699
4 3673 3603 2904 2497
4 3503 1907 1898 1899
4 4706 850 858 849
4 4542 415 407 416
4 4707 4708 4709 437
4 2381 2496 3673 2495
4 2791 2732 3303 2704
4 2791 3175 2556 2732
4 2791 2460 2556 3175
4 2462 2791 2460 2556
4 4710 30 410 401
4 4711 827 818 819
4 4542 415 406 407
4 2460 2451 2951 3337
4 3336 2457 2451 2988
4 4620 4641 4566 374
4 2909 2907 3046 3049
4 4712 31 32 419
4 2397 2401 2304 2393
4 3155 4670 4669 2759
4 4713 3155 4670 4669
4 2334 2558 2556 2338
4 2259 3154 3156 3577
4 2205 2206 2599 2336
4 4714 1163 1173 1172
4 2203 3158 3156 3155
4 2358 3110 3084 3081
4 3081 3084 4640 3110
4 4617 412 403 404
4 4617 4618 4616 404
4 2322 3763 4715 4679
4 4617 413 4705 412
4 2419 2425 4716 2418
4 3222 2189 2198 2197
4 4717 412 420 411
4 2327 2983 2771 2329
4 3829 413 404 405
4 2322 4667 3766 3764
4 4056 2171 2180 2179
4 2970 2648 3013 2428
4 2327 2771 2983 2794
4 2309 414 423 422
4 2800 2320 2322 2328
4 2322 4679 2320 2800
4 2569 199 1238 1229
4 2997 3662 3597 3598
4 2675 2787 2788 2786
4 4718 4719 4542 3289
4 4644 2311 4720 3079
4 4721 4722 4723 4605
4 4724 408 416 407
4 2313 2724 2568 3060
4 2723 2721 4398 2722
4 4285 1872 1863 1864
4 4584 415 414 406
4 4725 1845 1844 1836
4 4726 4727 3152 3313
4 2674 3676 3841 4727
4 4728 418 4729 419
4 4724 416 408 417
4 4719 425 433 424
4 4474 846 837 838
4 4646 374 4641 383
4 2674 3152 3676 4727
4 4156 3841 4727 2786
4 4180 426 434 425
4 4730 417 409 418
4 4731 3551 2416 2420
4 4732 4652 854 853
4 4733 435 436 444
4 4729 418 410 419
4 4734 3281 3647 3669
4 3646 4734 3272 4735
4 4734 4736 911 4737
4 4736 4738 4737 4734
4 4739 4736 4738 4737
4 4062 4740 4741 4742
4 3281 4738 3669 4734
4 4734 3646 3647 3281
4 2516 3035 3045 2520
4 2516 2520 4474 3035
4 2518 2520 4278 4474
4 2518 4743 4651 3990
4 2518 3990 4651 3770
4 3790 3119 3098 3097
4 2518 4743 3990 2905
4 2387 2636 2639 2637
4 4744 420 421 429
4 2224 2363 2221 3617
4 4705 413 421 412
4 2373 2299 3232 2363
4 4744 430 429 421
4 2220 2386 3622 2222
4 3083 4142 4745 4746
4 4747 4748 4744 4749
4 2221 2861 3263 2850
4 2373 2368 2363 3228
4 3232 3617 3489 3800
4 2309 422 413 414
4 2368 2365 2366 2364
4 4690 430 438 429
4 4750 1353 1362 1361
4 4542 424 415 416
4 3314 3638 3315 3317
4 2221 3617 2363 3925
4 4542 416 425 424
4 4584 3827 3829 4585
4 2363 3800 2852 3925
4 3599 2395 3434 3430
4 4585 423 415 424
4 3888 3453 4037 3456
4 3438 4478 3912 3888
4 4181 425 416 417
4 4751 442 433 434
4 3888 3438 3430 3954
4 4752 4652 3770 4732
4 4753 426 418 427
4 2395 3888 2971 2403
4 4181 425 417 426
4 2826 2825 3964 2827
4 4708 34 446 437
4 2823 3736 3735 3740
4 4707 33 34 437
4 4728 419 427 418
4 4709 427 428 436
4 2825 2823 2899 2827
4 4754 32 428 419
4 4220 836 835 827
4 2825 3964 2827 3548
4 4755 1197 1198 4756
4 2357 2355 2899 2354
4 2406 2360 2823 2899
4 2404 2406 2766 2768
4 4220 835 826 827
4 2641 2587 2644 2643
4 4720 423 431 422
4 2317 2578 2403 2577
4 3666 3258 3394 3470
4 2402 3666 3258 2684
4 3402 4264 450 4593
4 3397 3394 3703 3399
4 1207 4756 4071 4072
4 3258 3799 2685 3439
4 3258 3439 2685 2684
4 2369 2367 3316 3637
4 4757 1392 4758 1401
4 3829 2309 413 414
4 4759 439 447 438
4 2369 3318 4313 3932
4 2368 2365 2364 2634
4 3215 3015 2227 3014
4 4760 463 462 454
4 2363 3228 2634 2852
4 4720 431 423 432
4 4761 440 448 439
4 3318 3932 2369 2934
4 2362 2364 2361 2366
4 4762 3315 3317 3637
4 4763 434 435 443
4 4644 432 424 433
4 2580 2479 2478 2986
4 2629 2959 3166 2630
4 4644 441 432 433
4 2627 2958 2959 3515
4 2581 2479 2583 2956
4 2580 4764 3928 3164
4 4719 433 425 434
4 4763 435 444 443
4 4180 434 426 435
4 2581 2956 2480 2479
4 4765 427 435 426
4 2583 3170 2955 4766
4 2624 2838 4070 2623
4 3746 3749 2932 2931
4 4707 437 428 33
4 4052 2625 4767 4059
4 4647 4637 392 391
4 4052 4053 2625 4059
4 4465 1175 193 1184
4 2625 4767 4059 3086
4 4288 872 871 863
4 2619 2625 4053 4059
4 2676 2678 2677 2681
4 3673 2495 2497 2904
4 2385 2866 2702 2699
4 4768 455 446 35
4 2866 2494 2501 2500
4 2495 2904 2508 2497
4 2826 2653 3186 2507
4 2680 2385 2701 2702
4 2654 2655 2515 3045
4 4769 4770 3850 4771
4 2651 2909 2652 2795
4 2651 2382 2652 2909
4 4772 4773 1427 103
4 4720 432 440 431
4 4038 431 439 430
4 4774 468 467 459
4 2658 3990 2509 2508
4 2494 2501 2499 2506
4 4352 2715 4775 3326
4 4756 1198 4755 4072
4 4776 457 456 448
4 3768 2718 4777 2570
4 4778 4180 4765 4763
4 3949 449 458 457
4 3057 3895 2718 3589
4 3444 3486 3868 2847
4 4690 4759 438 439
4 4720 441 440 432
4 2718 2570 3326 4777
4 4491 4062 4779 4780
4 4756 4071 3616 4781
4 4644 442 441 433
4 2332 2324 2331 2923
4 2928 2434 2799 2794
4 4255 4698 468 477
4 3403 4763 4782 443
4 2792 2521 2799 2656
4 3403 451 442 443
4 2439 3081 2438 3077
4 2928 2770 3081 2333
4 4783 458 450 459
4 2790 2452 2954 2460
4 2334 3175 2337 2339
4 4751 434 4763 443
4 2811 2819 2818 2254
4 2344 2348 3805 2293
4 2596 2625 2624 2932
4 2605 2346 2606 2353
4 2605 2353 2606 2748
4 4784 455 464 463
4 4708 34 870 35
4 4785 454 446 455
4 3091 4786 3033 3032
4 4398 3554 4787 4540
4 2624 3034 3032 2939
4 2605 2748 2749 3033
4 4768 35 879 36
4 2932 3086 2625 3032
4 2576 2473 2579 3328
4 2576 3385 3904 3184
4 4015 3936 3036 4642
4 95 1508 3150 1499
4 2317 3259 2403 2578
4 2575 2470 2698 3023
4 2574 2578 2577 2579
4 4239 1416 1415 1407
4 4761 449 448 440
4 1499 95 528 3150
4 3049 2655 2795 2909
4 2653 2657 2405 3187
4 2907 3100 3047 3049
4 2651 2795 2652 2413
4 2653 2509 3187 3186
4 4788 441 449 440
4 4789 877 886 885
4 4584 3827 4543 4790
4 3049 3287 3102 3050
4 2904 2495 2654 2383
4 2383 2495 3673 2904
4 4584 4543 4585 415
4 2404 2406 2768 2765
4 4791 101 102 465
4 4776 456 447 448
4 2654 2906 2907 3035
4 4788 450 449 441
4 4792 4793 871 880
4 2756 2866 2501 3382
4 2507 2506 2756 2501
4 4794 453 462 461
4 2823 3740 2862 3736
4 3403 451 443 452
4 2404 2407 2765 2867
4 4158 472 471 463
4 2756 2757 2501 4795
4 2826 2758 2756 2822
4 3634 503 494 495
4 4796 461 469 460
4 3326 2758 2716 2863
4 3225 2376 2701 2472
4 2761 2758 2831 2863
4 4785 454 445 446
4 4768 36 455 35
4 2507 2653 2377 2701
4 4797 4768 36 455
4 2554 3881 4697 4798
4 3148 3671 3769 3672
4 2696 2549 3998 3853
4 2278 2551 2549 2552
4 3580 4760 454 4784
4 2250 2253 2251 2277
4 2914 2250 2279 2915
4 4797 37 36 888
4 4799 2825 3737 3401
4 2826 2756 3186 3968
4 2676 2384 2677 2678
4 4800 1951 1950 1942
4 2766 2412 2413 2404
4 2900 2902 2409 3615
4 2767 3370 2769 3610
4 3062 3465 3004 3005
4 4772 103 104 447
4 4791 474 101 465
4 2611 3460 4801 2617
4 4248 494 486 495
4 4802 456 457 465
4 3460 3062 3189 3465
4 3062 3189 3465 3005
4 4749 4803 1408 1409
4 4328 1424 1415 1416
4 4157 460 451 452
4 4802 466 465 457
4 3061 3062 2617 3063
4 2225 2859 3275 2391
4 3274 3217 3061 2617
4 4804 3301 3220 3503
4 4805 1422 1413 1414
4 4806 1919 1910 1911
4 2810 3211 3162 2633
4 3171 2700 2349 3475
4 3932 3719 3242 3509
4 3509 2810 2809 3211
4 2420 2567 3752 3551
4 3903 3487 4807 4808
4 4809 2623 3500 4070
4 3376 890 881 882
4 4070 3903 4810 4092
4 2435 2670 2437 2436
4 4811 899 890 891
4 4812 4813 934 925
4 4070 4808 3781 3777
4 4070 2624 2626 3777
4 4760 454 462 453
4 4814 471 479 470
4 3828 2311 3827 4543
4 537 528 94 3150
4 4815 38 473 37
4 4070 3498 3777 2626
4 2940 2838 3781 3777
4 2838 2834 2623 2832
4 4816 898 907 906
4 2226 3264 2861 3214
4 4797 4785 4768 455
4 4817 889 880 881
4 4118 1243 1252 1251
4 2860 3215 3015 2227
4 2373 2842 2299 2528
4 2414 2318 2427 2428
4 4439 1253 1252 1244
4 2507 2866 2494 2501
4 4772 456 4773 103
4 4818 466 474 465
4 4773 465 102 456
4 2760 2702 2756 2866
4 4262 4819 3796 4820
4 4821 460 468 459
4 2831 3225 2900 2867
4 2375 2381 2384 2383
4 4822 4823 4178 4824
4 4246 487 495 486
4 2377 2376 3225 2378
4 3947 466 458 467
4 3144 4825 4002 4826
4 3144 3863 3142 2215
4 4821 468 460 469
4 3144 2213 2820 2215
4 3144 2215 2820 3864
4 4827 4828 4234 4829
4 4830 2435 2669 4831
4 4796 469 461 470
4 3442 2688 3526 3527
4 4439 4832 3488 1716
4 2992 3036 2566 2565
4 4833 462 470 461
4 2993 2994 4834 4134
4 4158 463 471 462
4 4833 470 462 471
4 4463 3588 3526 3037
4 2992 3588 2994 4134
4 3525 4835 3527 4836
4 2997 3662 3590 3597
4 4837 3926 4337 4838
4 3525 3588 4839 2999
4 4797 888 897 37
4 4815 37 473 464
4 4797 897 4840 4816
4 3324 2417 3750 4841
4 2993 2995 4834 2994
4 4842 933 41 924
4 2688 3938 2685 3601
4 4812 924 4843 925
4 537 3150 94 1508
4 2997 3598 3525 3524
4 4844 4815 38 473
4 4845 907 916 915
4 2565 2316 3000 2396
4 2564 3816 2995 2994
4 4840 897 888 889
4 2574 2475 2307 2570
4 3249 3250 4846 2667
4 3249 4847 3251 4848
4 3247 3249 2883 2667
4 4848 3247 4849 3253
4 3247 4848 3249 3251
4 4850 2155 4851 2156
4 4773 4791 102 465
4 4852 4853 4854 4855
4 3247 3251 2929 4848
4 3945 4431 3742 3011
4 4856 483 492 4857
4 2462 2557 2732 2556
4 3134 3302 2555 2557
4 4858 1452 1443 1444
4 483 1454 4791 100
4 3552 2416 4434 3551
4 4859 4860 942 943
4 4698 477 476 468
4 2558 2560 2338 2818
4 4861 4862 478 479
4 2960 2818 2338 2560
4 2212 2452 2790 2456
4 2211 2481 2207 2217
4 3240 3244 2944 3245
4 4255 477 469 478
4 4863 485 484 476
4 4246 477 478 486
4 4160 480 472 481
4 2942 2530 3834 2945
4 3774 2942 2530 3834
4 3240 3723 2944 3244
4 4791 4864 1436 1445
4 4246 486 478 487
4 3774 3244 2944 2942
4 2945 3835 4244 3834
4 4160 480 471 472
4 4179 488 497 496
4 2942 3776 3244 3835
4 4865 4844 39 482
4 2942 3244 3776 3774
4 4844 38 482 473
4 2960 2911 3837 2963
4 4865 39 40 491
4 3203 2960 2966 2962
4 2966 3201 3207 3203
4 3199 3208 3203 3198
4 3203 3197 2963 2962
4 4866 4867 3791 3097
4 3203 3198 3958 2963
4 4868 223 2165 2156
4 3203 3201 3197 2962
4 4868 222 223 1626
4 4869 4868 4850 4870
4 3563 3254 3216 3560
4 4871 4850 4872 4869
4 4873 1454 4791 483
4 4863 475 476 484
4 3216 3935 3255 3174
4 4874 1451 1450 1442
4 2325 2333 2433 3174
4 4875 4876 4813 4877
4 3600 3970 4878 3601
4 4247 477 485 476
4 2395 3601 3434 3889
4 3973 3969 3890 3441
4 4862 487 478 479
4 100 4857 1463 99
4 4110 1460 4116 1469
4 2395 3434 3601 3600
4 4116 1470 1469 1461
4 3439 3666 3703 2684
4 4868 1635 222 1626
4 3262 3263 2229 3264
4 2266 3264 3266 3268
4 4879 480 488 479
4 3218 3216 3563 2728
4 2386 3364 2615 2737
4 2223 2392 2391 2300
4 2230 2219 2229 2222
4 2225 2226 3275 2230
4 2850 2861 3263 3264
4 4880 489 480 481
4 4881 1414 4838 1415
4 4862 487 479 488
4 4882 1490 1481 97
4 4843 924 915 916
4 4883 1440 1448 1439
4 1508 94 537 1517
4 3127 2108 2099 2100
4 2227 3214 3015 3213
4 4865 491 482 39
4 4833 4814 470 471
4 3218 3274 2230 3364
4 3266 3669 3268 3264
4 3095 2392 2859 3062
4 4884 490 491 499
4 2745 3256 2270 3626
4 4885 490 482 491
4 2266 3269 2264 2230
4 2742 3097 3096 3099
4 4842 41 500 40
4 3218 3364 2728 3367
4 2543 2735 3254 2728
4 3010 4433 3945 4432
4 3423 3941 3942 4432
4 3425 3741 3424 3710
4 2402 3467 3258 3666
4 2970 3423 3013 2648
4 3884 3641 2860 3215
4 2970 3423 3945 3013
4 2984 4886 4887 4888
4 2208 2209 3143 2217
4 2208 2452 2212 2210
4 4889 4890 4891 493
4 2455 2452 2210 2456
4 2562 2558 2461 2456
4 2211 2453 2207 2774
4 3632 504 512 503
4 4890 494 502 493
4 1472 99 2280 98
4 3508 4307 4892 4313
4 3508 4892 3510 4313
4 3509 3508 3929 3719
4 3508 4308 3509 3929
4 4889 493 485 494
4 4893 4894 3585 3584
4 4743 2508 4272 2510
4 510 96 4882 97
4 4743 4651 3990 4895
4 98 2280 2281 501
4 4896 4819 4897 1972
4 4898 1449 1440 1441
4 2518 4651 4743 3323
4 4743 2508 3990 2905
4 4899 497 488 489
4 4743 2905 4900 4272
4 4901 926 917 918
4 4896 1972 1963 1964
4 4743 4682 4900 3323
4 2314 2318 2315 2567
4 2313 2717 3060 2720
4 4902 490 498 489
4 4903 4904 4905 4906
4 2566 3036 2415 2565
4 2469 2303 2308 3482
4 4884 4885 491 490
4 4876 936 935 927
4 2308 3334 3294 3482
4 2308 3294 3334 2722
4 2302 2318 2305 3041
4 2574 2306 2475 2473
4 2302 2574 2307 2317
4 2473 2570 2475 2574
4 4907 508 516 507
4 2472 2864 3298 3294
4 4842 40 500 491
4 4162 500 509 508
4 4812 925 933 924
4 3303 4187 3621 3310
4 3303 3310 4908 4187
4 3303 3621 3308 3310
4 4822 43 527 518
4 2462 2451 2791 2458
4 4909 42 518 509
4 3146 3303 2704 3345
4 2465 2588 2457 2459
4 3336 3303 2458 3344
4 3303 3146 2704 3621
4 3150 94 1508 95
4 2590 2591 2242 3583
4 3347 3082 4462 4174
4 2467 2628 2627 2630
4 2467 2630 2627 2629
4 2210 2456 2673 2466
4 2630 3519 2628 3515
4 2465 2453 2593 2463
4 2629 2582 2965 3164
4 4910 4911 4864 1453
4 2455 2468 2464 2463
4 4339 504 495 496
4 2279 2772 2924 2915
4 4890 502 494 503
4 4109 1468 4115 4912
4 4913 4914 4105 690
4 2776 2780 4589 4915
4 3541 3276 2276 2781
4 4355 4916 1480 1489
4 3124 4760 4917 4784
4 4918 1471 1470 1462
4 2777 2276 2541 2778
4 2282 2289 4425 2288
4 3871 3873 4919 3876
4 2276 2773 2776 2252
4 4920 1494 1485 1486
4 4921 3095 3004 3007
4 2776 4915 4589 2875
4 2779 2870 2776 2875
4 3576 3574 3575 4922
4 4923 498 507 506
4 3190 3733 3195 4924
4 3190 2660 2286 4924
4 3150 528 94 95
4 4876 935 926 927
4 3190 2661 2660 3191
4 2730 4925 4926 3363
4 3118 521 513 522
4 2692 4581 2661 3192
4 4812 4859 4842 933
4 4813 934 925 926
4 2662 4927 2661 2667
4 4928 935 944 943
4 3012 3702 3226 4929
4 4812 925 934 933
4 3002 3036 3012 2415
4 2687 3526 3036 3936
4 2394 3601 2395 3259
4 2402 2684 2686 3666
4 4860 952 951 943
4 4859 942 933 934
4 3012 3708 3936 3036
4 541 4930 540 549
4 2415 3012 2687 3036
4 4931 4932 524 515
4 4527 4387 4530 4529
4 4812 933 4842 924
4 4388 2788 4384 4387
4 3270 3647 3668 4866
4 4387 3519 3311 3312
4 4387 3312 4530 4386
4 2714 3058 2718 2715
4 2717 2570 2475 2716
4 501 510 2281 97
4 2570 2579 2757 4777
4 2574 3057 2317 2578
4 4933 1480 1479 1471
4 2909 3285 3287 3019
4 2909 2652 2795 2408
4 4934 1478 4935 1487
4 4362 502 511 510
4 2909 2795 3285 2408
4 2904 2654 2516 2906
4 2792 2656 2793 2657
4 4108 1458 1450 1459
4 3118 512 513 521
4 2651 2792 2655 2795
4 3632 504 513 512
4 4936 944 935 936
4 3100 2490 2976 2977
4 3049 2796 3285 2795
4 2526 2655 2796 3100
4 2526 2515 3045 2527
4 2907 3048 2527 3572
4 4937 506 514 505
4 2795 2794 2983 2410
4 4312 3211 4938 3172
4 4312 3875 2633 3172
4 4907 516 508 517
4 4312 3875 3172 4939
4 4312 4903 4311 3162
4 2944 3774 3582 3245
4 4937 514 506 515
4 4940 4252 4251 4243
4 3240 3242 4941 3243
4 4932 515 516 524
4 3930 524 3707 533
4 2809 3246 2807 2934
4 3240 3582 2944 3246
4 4823 509 517 508
4 3930 524 532 523
4 4115 1469 1477 1468
4 4942 4943 4944 970
4 2835 3171 2808 2633
4 3270 4866 4867 3271
4 3719 3241 3242 3718
4 4904 972 963 964
4 4822 4909 43 518
4 4945 4946 994 1003
4 3240 3242 3241 4947
4 3241 4948 3242 3243
4 3241 4947 3242 3718
4 2509 3989 3991 4949
4 2512 2494 2506 2509
4 2385 2677 2496 2699
4 2760 2757 3328 3382
4 2500 2494 2496 2866
4 2756 2757 3382 2501
4 2676 4023 2679 2678
4 2375 2411 2382 2383
4 3117 511 512 520
4 3778 3781 4950 3777
4 3778 3777 4950 4059
4 1490 96 4882 3149
4 3086 4059 2625 3778
4 4951 520 519 511
4 4952 238 2021 239
4 3370 3684 3740 3369
4 4953 531 530 522
4 4954 4241 3780 4252
4 4362 510 501 502
4 2406 2767 2768 3370
4 4941 514 522 513
4 4953 522 530 521
4 2766 4062 4955 2412
4 4931 515 523 514
4 4956 528 520 529
4 2766 4957 2903 2803
4 3116 530 529 521
4 2767 2766 2803 2801
4 4943 969 4944 970
4 4958 954 963 962
4 4959 523 531 522
4 4960 1544 4046 1543
4 4961 952 953 961
4 3097 3119 3099 4811
4 2769 2800 2802 3763
4 4962 44 45 536
4 2767 3610 2769 2802
4 2766 2412 4955 2801
4 2771 2766 2412 2413
4 4963 532 533 541
4 4964 534 542 533
4 2373 2807 2809 2528
4 2373 2807 2810 2809
4 4177 525 517 526
4 3211 4308 4938 3929
4 4822 527 43 44
4 4309 4938 3211 4308
4 4309 3211 4312 3162
4 3375 3377 4965 2487
4 4309 3509 4313 4307
4 4309 3509 3162 4313
4 4177 4178 526 517
4 2810 3509 4313 3162
4 2809 3509 3719 3932
4 4966 580 571 572
4 3149 4951 519 4882
4 4967 1515 1507 1516
4 3477 2347 3479 3481
4 2298 2387 2637 2296
4 2295 2806 2390 3581
4 3582 3629 3581 2935
4 4120 93 92 1526
4 2944 3582 2806 2807
4 2944 2528 2806 2530
4 4968 1506 1497 1498
4 2386 2737 2615 3622
4 2386 2222 2737 3622
4 4362 3633 511 502
4 4828 4969 1421 1430
4 3274 2617 2301 2616
4 3274 3367 3217 2617
4 2730 2735 4970 2620
4 3088 4971 1531 1530
4 4972 2736 3366 2729
4 4973 1510 4974 1511
4 2386 3269 2737 2222
4 2730 2735 2734 4926
4 2729 2730 3364 2728
4 4227 538 547 546
4 3364 3367 2616 2728
4 4975 538 530 539
4 3242 4976 4931 4941
4 3707 525 533 524
4 2888 2897 2873 2804
4 4977 535 534 526
4 2430 3218 2543 3216
4 4944 4824 961 960
4 2873 3386 2888 2889
4 4960 4770 2869 1535
4 4943 978 969 970
4 4978 543 535 544
4 4171 527 535 526
4 2492 2271 2488 2805
4 3899 2267 2269 3096
4 3899 3082 3567 2448
4 4822 4962 4944 4178
4 2325 2440 2330 3174
4 4190 574 566 575
4 3377 3484 3099 2742
4 4963 541 533 542
4 2792 2793 2799 2794
4 2484 2492 2422 2267
4 2484 2490 2489 2486
4 4227 3150 528 537
4 4979 962 971 970
4 2975 2489 2980 2488
4 3100 2490 3048 2976
4 4980 969 978 46
4 4981 4982 4983 4978
4 2526 2490 2422 2485
4 2492 2272 2441 2450
4 2492 2490 2422 2798
4 3623 4984 3626 2621
4 2701 2867 2377 3225
4 4985 3134 3535 4986
4 546 1517 537 93
4 2713 3607 3667 2703
4 4227 529 538 537
4 4987 531 539 530
4 3814 4164 4988 4165
4 3522 541 550 549
4 3647 3272 3270 2743
4 3746 2932 3749 2625
4 4009 3748 2784 2750
4 3839 557 548 549
4 2932 2748 2750 2749
4 4930 532 540 531
4 2474 2702 2760 2473
4 3382 3384 2866 2501
4 2760 3382 2756 2757
4 2469 2697 3056 3482
4 4989 1965 1974 1973
4 3284 2196 3221 3051
4 2757 3328 3382 4990
4 3521 542 551 550
4 4991 971 962 963
4 2757 4992 4990 3382
4 550 541 3522 3521
4 4771 565 564 556
4 2757 2501 4795 4992
4 4993 542 543 551
4 2474 2579 2473 3328
4 2747 2980 2744 2488
4 4942 971 979 970
4 551 3521 550 559
4 3297 2976 3296 2975
4 3623 2805 2980 2745
4 2975 2489 3296 2980
4 2431 3042 2594 3043
4 3075 3077 2439 3291
4 4981 536 544 535
4 4994 560 551 552
4 4327 4995 3084 3083
4 3043 4327 4995 3076
4 4327 3079 2310 2312
4 2310 4327 4995 3043
4 4996 980 989 988
4 4980 45 545 536
4 3875 2633 3172 3496
4 3875 4939 3520 3172
4 3875 4997 4939 4344
4 93 537 94 1517
4 4903 3875 3876 3902
4 4770 91 92 555
4 3875 4344 3876 4998
4 3875 3496 3362 3902
4 4999 610 609 601
4 3902 4903 4906 3876
4 4199 5000 4271 3087
4 3087 3089 4199 4767
4 3085 3087 2238 3749
4 4120 92 93 546
4 3087 4271 3088 2238
4 4769 1525 4120 1526
4 2534 2536 2290 2537
4 2291 540 548 539
4 5001 547 539 548
4 5002 5003 5004 4233
4 3247 2691 2667 2538
4 2692 2691 2666 2667
4 5001 2291 548 539
4 2534 2843 2535 2844
4 3198 5005 5006 3196
4 5007 556 548 557
4 2534 2843 2536 2535
4 5008 1495 1486 1487
4 2534 2843 2844 2846
4 2286 3733 4924 3913
4 5009 544 552 543
4 5010 1007 5011 1008
4 2689 2248 3445 3447
4 3148 3073 3769 3671
4 3761 2662 2661 2659
4 4982 545 553 544
4 2235 2284 2289 2283
4 5012 46 554 545
4 5013 567 558 559
4 2665 2289 2663 3759
4 4998 4345 981 5014
4 2282 2290 2251 2537
4 4994 560 552 561
4 4113 5015 996 987
4 2282 2283 2287 2289
4 2282 2537 4425 2290
4 3426 3758 3755 3753
4 4163 569 568 560
4 3422 4003 4005 5016
4 5017 572 571 563
4 3422 3756 3138 4003
4 3422 4005 4323 5016
4 5018 3479 5019 3819
4 3420 3711 3753 3712
4 3422 3712 4323 3421
4 2250 2969 2915 2914
4 2279 5020 2870 2871
4 3618 2915 2924 2772
4 2779 2776 2870 2782
4 5021 2092 5022 2101
4 3111 3113 5023 3112
4 4904 4991 963 972
4 3839 549 558 557
4 5007 548 556 547
4 2414 2419 2972 2417
4 4157 3404 4174 4794
4 5024 4550 4549 1319
4 3522 558 549 550
4 4470 5025 5026 4422
4 4261 557 566 565
4 5027 991 1000 999
4 2318 2418 2414 2567
4 2418 2318 2414 2425
4 3442 3527 3526 3939
4 4920 1494 1486 1495
4 4163 560 568 559
4 2318 3041 2428 2425
4 2414 2315 2318 2567
4 3742 3741 3398 3943
4 3945 3742 4431 3741
4 3227 5028 3742 4929
4 3399 3742 4365 3703
4 4365 3703 5029 3399
4 5030 4942 4943 4944
4 4996 5014 989 980
4 4365 3742 5028 4929
4 3742 3399 4365 5031
4 2690 3410 3411 3409
4 5032 562 570 561
4 2248 2804 2249 3445
4 4958 962 4961 953
4 2248 2689 2696 3368
4 2696 2693 2549 3068
4 2779 2877 2876 2875
4 2691 2690 3248 3250
4 5033 561 553 562
4 3409 3411 2690 3412
4 2397 2304 2587 2643
4 3204 571 579 570
4 2640 2650 4078 2647
4 5034 5035 50 581
4 5036 5037 5038 5011
4 5039 562 554 563
4 2640 2650 3451 3026
4 2401 3021 2587 2586
4 3021 3183 3451 3178
4 4470 5040 649 5025
4 4770 92 91 1535
4 2849 574 583 582
4 3054 3788 3372 3026
4 2317 3000 3767 2316
4 641 5041 650 5026
4 2640 3451 3788 3026
4 2994 4834 4134 4552
4 3464 5042 5043 3005
4 2849 574 582 573
4 4375 3464 3004 3465
4 4375 4379 4377 4378
4 5044 558 566 557
4 4375 3004 3946 3093
4 5013 559 568 567
4 5045 4307 5046 4907
4 3464 3462 4379 4378
4 2443 2668 2671 2669
4 3464 4378 5043 5047
4 5048 567 568 576
4 3463 4093 3461 4095
4 4168 561 569 560
4 3532 576 577 585
4 5036 1006 997 998
4 2995 3816 3817 4834
4 3189 3461 5042 3188
4 5042 3189 3462 3461
4 3060 2995 3817 3547
4 2323 2326 2331 2324
4 5017 563 571 562
4 2325 3374 2326 2324
4 3174 3560 3935 3927
4 5049 1016 1015 1007
4 3174 3935 2321 3927
4 2574 2575 2306 2473
4 5050 48 572 563
4 2640 3026 3788 5051
4 2397 2304 2643 3041
4 3196 579 587 578
4 5052 5053 4966 5054
4 5035 49 50 581
4 3425 3423 2648 3138
4 3423 2648 2649 2646
4 2641 2647 2649 2646
4 2366 2364 2361 2368
4 3228 3232 3800 2363
4 2938 2945 2939 2941
4 3204 579 571 580
4 3964 5055 2827 3549
4 2842 2938 2531 2528
4 2833 3475 2832 3092
4 3963 3968 3964 5055
4 2839 3800 3457 3229
4 4959 4953 531 4987
4 5022 4349 5056 2093
4 5057 1584 1585 1593
4 2578 2579 3768 4409
4 4190 566 574 565
4 2335 2751 2785 2783
4 2205 2603 2337 2599
4 5058 1515 1523 1514
4 5059 567 575 566
4 2858 574 573 565
4 4358 1648 1657 1656
4 2791 2705 2785 3175
4 2474 2757 2570 2579
4 2586 3176 2698 2576
4 2575 2586 3023 2698
4 3020 3022 2682 3023
4 4189 574 575 583
4 5060 1542 1551 1550
4 3022 3031 2682 3373
4 3660 584 585 593
4 2781 3543 2772 3541
4 5061 5046 4907 4823
4 3541 2763 2274 2288
4 2968 2763 2275 3235
4 2273 2275 2968 2763
4 3206 578 570 579
4 2232 2589 2763 2965
4 2274 2537 2288 2282
4 5062 5063 4182 5064
4 2968 3164 4050 2917
4 5034 50 51 590
4 5065 4755 5066 3409
4 4966 580 572 581
4 3409 3445 4072 3449
4 5067 579 580 588
4 3449 3409 5068 5066
4 3449 3446 4359 5068
4 5035 581 572 49
4 3449 4755 5066 1190
4 5006 588 596 587
4 3449 4755 1190 1199
4 2812 3144 4002 3142
4 5069 997 1005 996
4 3573 2598 2600 2608
4 2598 2600 2608 2603
4 2842 2938 2836 2531
4 2338 2960 3980 2962
4 2607 3207 3201 2608
4 2337 2339 2712 2600
4 2703 5070 2784 3667
4 5071 680 671 60
4 2708 2751 2931 2750
4 5072 1060 5073 1069
4 2195 2571 2194 4465
4 2604 2708 2748 2606
4 2604 2337 2708 2606
4 4525 4722 4605 4603
4 5074 113 4525 1337
4 2868 89 573 582
4 3748 2784 2750 2751
4 3479 3574 5075 5076
4 2750 2784 2710 2751
4 4199 1538 1530 1539
4 2784 2785 2703 2751
4 2703 3667 2784 3607
4 2707 2751 2750 2710
4 4971 1530 1522 1531
4 3531 576 584 575
4 2703 2706 2705 2785
4 4350 584 592 583
4 2204 2262 2821 3495
4 4189 583 575 584
4 5077 1054 1053 1045
4 5078 5079 624 625
4 2708 2750 2931 2748
4 2598 3573 2595 2610
4 2604 2599 2206 2336
4 2605 2622 2345 3034
4 5080 603 594 595
4 2596 2625 2618 2619
4 3196 587 579 588
4 5081 581 589 580
4 3532 594 585 586
4 3150 5082 5083 1508
4 2605 3032 3034 3033
4 2353 2606 3528 3533
4 5084 586 587 595
4 5085 619 618 610
4 5035 5050 49 572
4 2707 2708 2748 2750
4 5086 596 604 595
4 5087 1548 1557 1556
4 3239 5088 3862 5089
4 2595 2597 2601 2609
4 3748 2812 3141 2783
4 3950 597 605 596
4 2791 2785 2705 2706
4 2603 3201 2600 2608
4 5081 589 581 590
4 5090 1035 1026 1027
4 2742 2269 3346 3265
4 2742 3270 3668 3097
4 3377 2742 3270 2487
4 3375 3377 3484 3378
4 3377 3270 3097 4811
4 5091 1533 1542 1541
4 3377 3099 3484 3378
4 5092 606 598 607
4 2742 3099 3377 3097
4 5085 610 618 609
4 2790 3175 2460 2954
4 2791 2706 3345 3337
4 4525 112 113 366
4 2462 3303 2791 2732
4 2460 3337 2954 2785
4 5093 5094 5095 5096
4 2462 3308 3303 2732
4 2791 2451 2460 3337
4 3234 3236 2588 3886
4 2796 3209 3100 3285
4 5048 576 568 577
4 3332 2188 2179 2180
4 5097 621 630 629
4 5098 1555 3648 1554
4 2658 2656 3187 3991
4 2651 2795 2413 2794
4 2406 3370 2360 2769
4 2799 3288 3292 3290
4 2771 2410 2412 2329
4 4187 594 603 602
4 5092 2963 3197 3950
4 2771 2410 2413 2412
4 2327 2434 2794 2326
4 5005 589 597 588
4 4950 5099 5100 5101
4 2654 2906 2904 2908
4 5063 590 598 589
4 5062 51 599 590
4 3075 3078 3291 3079
4 2328 2770 3110 2800
4 5102 5103 5104 568
4 2450 2449 2438 2434
4 4986 605 606 614
4 5078 625 624 616
4 2323 2322 2333 2321
4 3497 2626 3499 3500
4 4187 593 4152 3660
4 2792 2796 2795 2794
4 2359 2413 2770 2657
4 2434 2429 2433 2438
4 5105 4358 1647 1648
4 2770 2657 2794 2793
4 3541 3235 2763 3114
4 3660 4187 593 594
4 4182 52 53 608
4 5106 1024 1032 1023
4 3541 3543 3618 3235
4 3798 3890 5107 5108
4 2273 2968 3164 2965
4 3165 3170 4766 2955
4 2273 2763 2274 2275
4 2968 2969 2915 2275
4 2627 2476 2958 2207
4 2630 4000 4701 3515
4 2630 4000 3519 4701
4 2631 3519 2628 2630
4 2573 2571 2572 4503
4 5109 2156 4851 2147
4 5109 4851 4870 5110
4 591 2255 2505 88
4 5111 1617 5109 224
4 2231 3151 2244 2243
4 2910 3312 2630 4464
4 2467 2233 2910 2629
4 3147 5112 5113 5114
4 3890 3512 5115 3973
4 3198 5067 5005 3196
4 3391 3511 3390 3512
4 2631 2910 2233 3152
4 4152 601 592 593
4 5116 5117 5118 5119
4 5120 992 993 1001
4 5119 5121 3940 5122
4 3890 3512 5107 5115
4 3531 575 5059 576
4 3512 4301 3973 3513
4 5119 5123 5118 5124
4 5022 2092 2093 2101
4 5119 3711 3940 3710
4 5119 3758 3940 3711
4 5086 605 604 596
4 3309 605 614 613
4 3134 3302 2557 3308
4 3950 605 597 606
4 3336 2457 2988 3340
4 2457 2988 3340 2593
4 2460 2954 3337 2951
4 5087 1548 1556 1547
4 2334 2556 3175 2339
4 2233 2674 3676 2466
4 2457 2593 2453 2988
4 2563 2559 3995 3837
4 2563 3675 3995 2559
4 3137 3730 3135 4506
4 3137 3535 3836 3135
4 5067 5005 588 589
4 4607 4023 5125 2683
4 4607 2678 5126 3847
4 4985 614 615 623
4 3847 4607 3844 4614
4 4687 623 631 622
4 4607 2678 2683 5126
4 5127 607 599 608
4 3844 4610 4612 4607
4 4056 2170 2171 2179
4 5128 4050 2917 5129
4 5129 5130 5131 5132
4 5129 4048 4050 2917
4 5109 2156 224 223
4 5129 5133 2927 4798
4 5134 1437 5135 244
4 5135 1976 244 243
4 4999 609 600 601
4 5129 5133 5131 2916
4 5129 2917 2927 2916
4 5136 611 620 619
4 4999 5137 600 609
4 5129 2917 5128 4798
4 2860 2391 3884 3215
4 2853 2850 2854 3121
4 3228 2632 3231 3356
4 4687 3307 622 3306
4 5060 1542 1550 1541
4 4167 610 602 611
4 2861 4738 3264 2850
4 4908 603 611 602
4 3304 604 612 603
4 3797 3617 2221 3925
4 3153 2181 2190 2189
4 4348 611 612 620
4 5138 2073 2082 2081
4 3130 5139 1568 1569
4 3512 5115 3973 4301
4 5140 1606 1615 1614
4 4895 2511 5141 5142
4 2981 5143 2990 2987
4 5144 607 615 606
4 4680 2511 5141 4895
4 3859 4826 4825 3863
4 2511 5145 5142 2512
4 2510 2511 4743 2508
4 2511 5145 2512 2499
4 5146 53 617 608
4 5147 608 616 607
4 2511 2512 5142 4895
4 4743 3990 2511 4895
4 5148 1042 1033 1034
4 3383 2190 2199 2198
4 2511 2508 2512 3990
4 5149 54 55 626
4 3230 5150 3125 3126
4 3126 3230 5150 3550
4 3126 5150 3125 5151
4 3126 5152 5150 5151
4 2362 2854 2853 2850
4 2853 4335 3125 3133
4 2853 4335 5152 3126
4 5153 623 624 632
4 3451 3178 3372 3021
4 5154 626 625 617
4 3451 3021 2587 2401
4 2304 2305 2303 2643
4 5113 1588 1579 1580
4 5155 674 665 666
4 3176 2586 3021 3177
4 3274 3364 3367 2616
4 2616 2617 3367 3274
4 5156 2071 2079 2070
4 5157 85 5158 1589
4 2431 2439 2429 2432
4 5159 628 619 620
4 5136 619 610 611
4 3267 3082 3899 3347
4 3557 3217 3367 3063
4 3367 2617 3018 4331
4 4887 1566 1558 1567
4 4888 1566 1574 1565
4 3306 613 621 612
4 3512 3505 5107 5115
4 2964 4205 2126 5160
4 2338 3980 2556 2339
4 2237 1557 1548 1549
4 5097 621 629 620
4 2818 2855 2559 5161
4 5078 616 624 615
4 3306 621 622 630
4 2818 5161 4670 2855
4 2818 4670 5162 3157
4 2618 2262 4053 4002
4 5163 1051 1050 1042
4 3746 2618 4053 4002
4 3307 622 614 623
4 3815 3229 3921 3357
4 3815 3924 3812 5164
4 5149 1050 1059 55
4 3851 2525 2523 5165
4 4082 3815 4091 5166
4 5166 3815 3812 5164
4 2380 2471 2376 4029
4 2697 3028 5167 4025
4 5168 5169 3127 5021
4 2244 2764 3979 4394
4 2676 2697 2680 2471
4 2697 5167 3028 3056
4 5170 633 641 632
4 5171 1592 1591 1583
4 5149 626 617 54
4 2682 2681 3181 3373
4 3111 5023 4470 4422
4 5040 3113 5172 5023
4 2590 3111 3583 2242
4 5153 632 624 633
4 5173 3113 5172 5040
4 5174 5175 5176 1384
4 5177 250 1922 1913
4 3111 2242 5178 3583
4 3111 5173 3887 5178
4 5177 249 250 1383
4 3888 4478 3912 3889
4 3130 1551 1560 1559
4 2403 3259 3889 3911
4 2971 2401 3468 2400
4 5179 627 618 619
4 83 5180 636 627
4 3453 3912 4037 3454
4 2971 3599 3468 3456
4 2346 2352 3573 2351
4 5181 628 637 636
4 2294 2351 2292 3478
4 5182 5180 83 1607
4 5183 646 654 645
4 2605 3033 2749 3032
4 3688 3277 3293 5184
4 3687 3688 5185 3685
4 3680 3277 3611 2901
4 3611 3277 3688 5185
4 5186 647 655 646
4 3680 3277 2901 3278
4 5187 1587 1596 1595
4 5026 642 650 641
4 5188 626 634 625
4 3688 5185 3277 5184
4 4687 631 623 632
4 3688 5185 5189 3687
4 2444 2445 2898 3882
4 2444 2888 2889 2898
4 2444 5190 4357 5191
4 2890 55 635 626
4 2444 3882 2889 5190
4 2444 4357 2888 2442
4 5192 1080 1079 1071
4 5170 641 633 642
4 3294 3298 3300 3299
4 5193 58 653 57
4 2305 3334 2308 2303
4 3041 2643 2646 4410
4 2305 3333 4716 2721
4 2305 2643 3041 4410
4 2663 2662 2878 3761
4 5194 643 635 644
4 2665 5195 2663 2878
4 2664 5196 4425 4394
4 2664 2879 2880 5197
4 5198 56 57 644
4 2665 2664 4394 5197
4 3678 5199 117 330
4 3761 2663 2662 2659
4 5200 5201 4336 5202
4 3678 117 5199 1301
4 2786 4155 4727 4156
4 2412 4740 2801 2329
4 5201 2329 2320 2801
4 5156 2080 2079 2071
4 5201 4955 5200 4336
4 5201 4955 2801 5200
4 5139 1569 1577 1568
4 5181 636 627 628
4 5203 1090 1081 1082
4 2476 2207 2217 3602
4 5204 628 629 637
4 2964 4000 4701 5160
4 5205 1588 1597 1596
4 5206 4200 5207 4701
4 4000 2964 5208 5209
4 4284 638 629 630
4 3515 4000 4701 2964
4 5210 4422 5196 5211
4 5041 632 640 631
4 2630 3515 4701 3519
4 4000 5206 3519 4701
4 5057 1594 1593 1585
4 2090 2099 2091 5212
4 2585 2584 5213 5214
4 5215 5216 2055 2064
4 5217 648 656 647
4 2580 2582 3170 3164
4 5041 641 640 632
4 2580 2585 4764 3170
4 5072 1060 1068 1059
4 5218 642 634 643
4 5025 650 658 649
4 2583 5219 4766 2957
4 2580 2583 2581 2479
4 5220 2584 5213 2585
4 2585 5221 5220 4764
4 2585 3170 4050 4764
4 2893 2960 2966 2911
4 5198 644 635 56
4 2960 2895 2911 2893
4 2563 2559 3837 2560
4 5114 1579 1588 1587
4 5222 2572 3900 3419
4 2895 2960 3837 2559
4 2559 3837 2560 2960
4 2911 3203 2963 2960
4 2788 4703 5223 4393
4 5224 5225 1122 1113
4 5149 2890 5154 626
4 3203 2966 2960 2911
4 2560 2960 2818 2559
4 3131 3667 3345 2713
4 3146 3345 2704 2713
4 5226 672 681 78
4 4438 5227 5228 3239
4 2280 2281 4366 1472
4 2280 5229 1463 1472
4 3146 3534 4350 2713
4 4423 3731 4469 5170
4 2713 2848 3534 2828
4 2709 2848 2713 3607
4 2713 3131 3145 3146
4 3626 3623 2745 3256
4 2492 2805 2490 2798
4 2975 2979 2978 3297
4 5230 638 646 637
4 2978 2980 3297 3624
4 5231 1596 1605 1604
4 5173 639 647 638
4 5089 2105 2096 2097
4 2461 2557 2556 2560
4 2271 3256 2270 2745
4 5040 640 648 639
4 5021 5022 5232 2101
4 3623 2621 2745 4577
4 3168 3169 3374 2978
4 5233 1612 1603 1604
4 5223 5234 5207 4202
4 5235 1081 1080 1072
4 2978 2977 3168 2979
4 4385 2786 2788 4390
4 5040 648 640 649
4 2534 2844 2535 2541
4 5172 648 649 657
4 5236 643 651 642
4 2804 2249 2876 2779
4 5237 5238 670 671
4 2776 2780 4915 2782
4 5239 650 651 659
4 2780 5240 5241 4274
4 2780 2778 4292 5242
4 2773 2781 2780 5241
4 5243 644 652 643
4 2780 2778 5242 2781
4 4274 2780 2781 5241
4 5240 2780 2782 5244
4 2243 4423 4470 3731
4 5025 658 650 659
4 5193 57 653 644
4 3096 3098 3406 3099
4 5211 660 668 659
4 3320 2423 3322 3321
4 5245 653 662 661
4 3123 3404 4462 3406
4 5246 1078 1069 1070
4 2446 3321 3320 3322
4 5247 58 59 662
4 3320 3082 3096 2448
4 5248 660 652 661
4 3918 3800 3230 3229
4 3230 3921 3356 5150
4 5249 205 1232 1233
4 3228 2634 3230 3231
4 3918 3919 2852 3925
4 2692 3250 2691 2667
4 2696 3068 3853 3448
4 4747 429 4748 106
4 3028 5250 5125 5251
4 5252 1602 1594 1603
4 4852 73 74 709
4 5253 656 665 664
4 5207 2124 2123 2115
4 5251 5250 5125 4725
4 4591 2693 3074 3068
4 2672 2882 2538 3654
4 3253 2883 2538 3247
4 2534 2540 2539 2844
4 2662 2666 2661 2287
4 5254 665 657 666
4 1562 2256 2257 2255
4 5255 1083 5256 1084
4 2538 3253 2539 2540
4 5257 3652 1555 3648
4 2672 2538 2881 3654
4 2538 2290 2881 2540
4 5258 658 666 657
4 5172 657 649 658
4 5119 5117 3758 5116
4 5239 651 660 659
4 3940 3709 3711 3758
4 3940 5259 3944 5260
4 3940 5121 3944 5122
4 5210 658 659 667
4 3113 3111 5040 5173
4 3028 5250 5261 5167
4 4391 5184 5262 5263
4 3028 5261 5250 5251
4 5248 660 651 652
4 4025 4024 5264 4029
4 5265 660 661 669
4 4088 5266 4027 5263
4 5263 4027 4089 4391
4 5263 5267 3544 3553
4 5263 3544 5268 3909
4 3765 3926 4640 3076
4 5269 670 678 669
4 3075 3291 3043 3079
4 2358 3084 3109 4142
4 2439 2433 3081 3076
4 5270 5271 1217 1226
4 3078 3075 2354 3080
4 5072 5073 5246 1069
4 5193 5198 5272 1077
4 5273 3740 2901 3684
4 5273 5274 3740 3684
4 4748 106 1409 1400
4 4748 105 106 429
4 5273 2862 3740 3736
4 5273 3740 2862 2901
4 5273 3681 3278 3682
4 5275 663 654 655
4 5275 663 655 664
4 2410 4491 4062 2412
4 2767 2802 2769 2800
4 5139 1569 1578 1577
4 4275 1652 1651 1643
4 5253 664 655 656
4 5276 664 673 672
4 2797 2798 2490 2977
4 5277 1161 1162 1171
4 2795 2410 3285 2408
4 2326 2983 2797 2794
4 5105 1648 1647 1639
4 5254 665 656 657
4 5278 665 674 673
4 5276 672 663 664
4 2349 3475 3481 3172
4 4256 5279 5280 4257
4 3477 3478 4126 2352
4 3193 1109 1117 1108
4 2344 2352 2351 3478
4 4126 3210 3931 3805
4 3477 3805 2349 3210
4 3891 2293 3803 3892
4 5281 5224 62 689
4 5224 61 689 680
4 5211 668 660 669
4 5282 5283 1126 1135
4 3723 2348 3803 3804
4 5237 662 670 661
4 2344 3477 2346 2352
4 3805 3931 3804 3718
4 5284 1140 1131 1132
4 2453 2451 2988 2951
4 2988 3337 3338 2952
4 5285 59 671 662
4 2988 3340 2989 3339
4 2453 2593 2463 2987
4 2988 3337 2952 2951
4 2810 3211 3509 3162
4 3228 2852 3800 3230
4 5071 60 61 680
4 3228 3800 2839 3229
4 3228 3229 3230 3800
4 4313 2369 3643 3318
4 2363 3925 3617 3800
4 2634 3163 3231 2633
4 2634 3125 3231 3163
4 3895 4551 5286 4538
4 3895 4324 4606 3589
4 3589 3895 2718 5287
4 5288 684 5289 675
4 3057 3589 2998 3767
4 4777 5290 5291 5286
4 5286 5290 5291 4551
4 4025 4024 5292 5264
4 3327 4777 5286 3326
4 4111 5226 78 1652
4 3895 5286 4352 4624
4 5278 673 664 665
4 4624 3895 4538 5293
4 4025 5292 5294 5266
4 4105 682 690 681
4 5295 675 666 667
4 3895 4352 5287 5293
4 5269 4161 5296 678
4 4021 1144 1135 5282
4 2362 2861 2221 2850
4 3217 2617 3367 3063
4 5297 2140 2131 2132
4 5296 669 677 668
4 5298 5250 4025 4333
4 3062 3465 3063 3004
4 5295 675 667 676
4 5250 5294 4025 4333
4 4781 1197 1206 1196
4 3790 3347 3348 3346
4 5244 1651 1660 1659
4 3416 3418 1200 3720
4 712 5280 5299 704
4 5172 5217 5300 648
4 3347 3885 5301 3348
4 3347 3885 4174 5301
4 3267 3275 2265 3567
4 5269 678 670 679
4 3267 3346 2269 3265
4 3096 3346 3347 3098
4 5302 5303 5304 1762
4 5272 1087 1086 1078
4 3347 4174 3885 3082
4 2359 3075 3081 2358
4 2928 3077 2799 2438
4 2485 3048 2486 5305
4 2975 2490 2977 2976
4 5306 688 696 687
4 5238 679 671 680
4 2489 3048 2490 2976
4 2484 2493 2422 2485
4 5307 1096 5308 1105
4 5308 1106 1105 1097
4 5309 5237 5265 5248
4 2491 2493 3484 2267
4 2526 2485 2527 3048
4 3712 5310 4323 5311
4 3153 3332 4056 2180
4 5312 5313 4744 2310
4 5314 1224 1223 1214
4 5312 4705 2312 2310
4 5109 1617 1626 223
4 225 2138 5315 226
4 5312 3833 3083 2312
4 4106 673 681 672
4 5111 224 225 1608
4 5312 3833 2312 4705
4 5316 674 682 673
4 5020 1648 1639 1640
4 3823 3324 2502 3009
4 2503 3823 5317 4433
4 3010 3823 5318 3009
4 4432 4433 5319 5317
4 3823 5317 4432 5318
4 5320 1615 1624 1623
4 2368 2363 2364 2361
4 5316 682 674 683
4 3797 3925 4262 3593
4 3246 3582 2944 2807
4 3232 3592 3800 3489
4 2368 2634 2367 2365
4 3489 3617 2220 3593
4 2298 2223 2301 2220
4 3925 3617 3489 3593
4 3800 3617 3489 3925
4 5289 683 675 684
4 5254 5217 657 656
4 5065 5066 1190 1181
4 5295 5321 5322 667
4 2997 2996 5323 3596
4 2997 3589 2996 3596
4 4161 679 687 678
4 2997 3594 5323 2999
4 5324 5302 5325 725
4 3595 3594 3598 4483
4 5225 1113 1104 1105
4 5326 680 688 679
4 3712 5124 5327 5310
4 3655 4127 4203 685
4 5328 1116 1115 1107
4 5329 1107 1106 1098
4 3595 3596 4526 4531
4 3595 3589 5330 3590
4 4036 3332 3221 2188
4 3595 3596 4531 5330
4 5331 689 698 697
4 2308 2307 2719 2724
4 2717 2716 2719 3059
4 5308 1105 1096 1097
4 2720 2715 3059 3818
4 2564 2566 2313 2315
4 5281 62 63 698
4 2313 3060 4133 2995
4 3349 3818 3060 3059
4 3060 2568 3547 3352
4 3060 4133 2995 3547
4 4077 707 715 706
4 3493 3810 5332 3586
4 3493 5332 3492 3571
4 3492 2529 3459 3335
4 4914 690 699 76
4 3981 3586 3587 3493
4 5333 1634 1643 1642
4 5334 3981 3586 3587
4 3982 3981 3587 3459
4 5335 693 692 684
4 5336 207 1679 208
4 3389 3470 3397 3394
4 4111 690 77 681
4 4855 75 1679 76
4 3710 5337 5123 5124
4 2237 2784 2239 4009
4 3620 1631 1630 1622
4 2755 2750 2784 2710
4 2428 2425 4410 2972
4 3486 4258 5338 4256
4 4913 699 690 691
4 5226 4106 681 672
4 2972 2425 4410 2419
4 2100 2109 3127 2108
4 2419 2972 5339 4410
4 2419 2425 4410 4716
4 2420 2419 3750 2418
4 2419 3324 5340 5341
4 5342 694 702 693
4 5343 1179 3745 1188
4 3712 5124 5310 5337
4 2881 5322 5344 5321
4 2414 2972 2419 2425
4 3493 3459 3490 3587
4 3493 3571 3586 5332
4 5332 3571 5345 5346
4 5302 1761 5303 1762
4 3394 3703 3391 3439
4 2636 3493 3490 3810
4 5332 2639 5347 3810
4 2636 2639 5332 3810
4 5306 696 688 697
4 5348 5272 5349 1087
4 5332 5346 5347 3807
4 5350 696 697 705
4 5332 5345 3571 3586
4 4841 2502 5340 3324
4 3823 2503 2502 5341
4 3001 3823 3324 5341
4 5281 698 689 62
4 3001 3324 3009 2417
4 5351 697 698 706
4 3823 3324 5341 2502
4 3003 2417 3009 4841
4 2417 3009 4841 3324
4 2896 2897 5352 5270
4 5341 3823 4433 3001
4 3411 3409 5068 3412
4 3413 3414 3412 3704
4 5353 698 63 707
4 3413 3411 3248 4022
4 3411 3725 3744 4022
4 3411 3743 3745 3410
4 3411 3409 5066 5068
4 5354 2084 2075 232
4 3411 3409 5065 5066
4 5355 5356 1657 1658
4 3199 3201 3207 3202
4 3201 2600 5357 2752
4 3201 5358 2752 3200
4 3201 2962 2752 5358
4 5359 1222 1223 1232
4 3201 3202 2608 3207
4 5356 1667 1666 1658
4 5360 1650 1649 1641
4 3837 2911 2913 2912
4 3470 3473 5361 5337
4 5362 692 701 700
4 2895 3837 2913 3995
4 5363 709 700 701
4 3284 1193 1192 1183
4 3995 5364 3994 3993
4 3995 3996 5364 2913
4 3995 4502 3674 3994
4 5362 700 691 692
4 5365 3527 5366 4836
4 5367 701 693 702
4 5368 701 702 710
4 3995 2559 3675 3996
4 2563 3674 3995 3675
4 3837 2559 3995 2895
4 3783 5369 1203 1194
4 3662 3590 5370 3259
4 5371 704 696 705
4 5279 1186 1195 1185
4 5343 1188 1187 1178
4 3588 3526 3037 2992
4 2394 2684 2685 2687
4 5299 714 713 705
4 5369 1204 1203 1194
4 2688 3601 3662 3938
4 3662 4034 3524 3938
4 2698 2702 2699 2680
4 2383 3848 3673 3847
4 5372 1176 5373 714
4 2494 2381 2507 2495
4 3783 1194 1203 70
4 5350 705 697 706
4 2496 3699 3700 4207
4 5351 706 698 707
4 2381 2385 2496 2866
4 2494 2500 2496 2497
4 5374 3783 5369 1203
4 5299 713 704 705
4 2381 2382 2507 2495
4 2496 4207 2677 3699
4 2677 2678 3847 5375
4 3527 5366 4836 4835
4 5376 5377 3685 4957
4 5378 5376 4493 4492
4 5376 4492 5378 5379
4 5376 5380 4957 4306
4 2877 3870 3868 3616
4 2845 3248 2690 3410
4 4111 4201 5226 1652
4 5376 5381 4306 5379
4 2213 3238 2820 3864
4 2562 2855 2559 2558
4 4826 3144 3142 4002
4 5303 5382 1762 274
4 4852 4853 74 1230
4 5134 1428 1437 244
4 2960 5161 2967 2818
4 2855 4438 4151 4670
4 5134 5383 1428 245
4 4852 73 1221 1230
4 5384 1669 1660 1661
4 2688 3525 3527 3524
4 5385 70 712 713
4 2997 3000 3590 3662
4 3525 3588 4835 4839
4 2564 2565 2315 2316
4 1175 1184 4465 4503
4 3000 3767 2316 2998
4 709 5363 5368 701
4 5386 72 1212 1221
4 5387 64 716 707
4 5388 1154 185 186
4 2991 2997 3000 2998
4 3525 3588 4463 4835
4 5279 1195 1194 1185
4 4553 2999 5389 4552
4 2999 5389 4552 3588
4 2689 3448 3446 5068
4 3048 3572 3105 4700
4 3286 3209 3100 3103
4 2797 2977 3209 2326
4 3049 3286 3100 3103
4 5386 72 73 710
4 3047 3103 3100 2976
4 5385 69 70 713
4 3048 3046 3105 3572
4 2907 2526 3100 2655
4 3048 4700 5305 3572
4 1183 3284 4290 1192
4 2489 3048 3104 2486
4 4494 4414 4542 3289
4 4494 4542 4181 3289
4 4494 5390 4181 4415
4 5353 1131 1140 64
4 3655 5391 686 677
4 2514 4414 4494 3290
4 2449 2422 2799 2798
4 4304 4298 2777 4292
4 2514 4494 5390 2424
4 5392 5393 5284 1141
4 3461 5042 3585 5394
4 3461 5042 5394 3462
4 4640 3084 4995 5395
4 5395 3084 5396 4640
4 2782 5397 5241 5240
4 4640 3926 4239 3044
4 4640 4837 4239 3926
4 4854 4853 5336 1679
4 4740 2801 2329 5201
4 5135 1437 1446 243
4 2410 4491 2329 2983
4 2771 2329 2412 2801
4 2319 2322 4679 2320
4 2723 3752 2568 3353
4 2420 5398 3551 3752
4 4853 3 75 708
4 2993 4834 2995 5399
4 4296 5400 4054 5401
4 4318 263 4055 1796
4 2993 2995 4133 5399
4 5386 710 73 709
4 3291 3288 2447 3322
4 68 5373 1176 714
4 2438 2447 3291 3288
4 4191 1161 1170 1160
4 4055 262 263 1266
4 5402 67 715 716
4 3868 3616 3870 4071
4 2264 2270 2271 3256
4 4075 65 66 716
4 5374 1212 5386 5403
4 2439 3650 3291 2447
4 3078 3077 3288 3292
4 5404 1143 1134 1135
4 3464 3189 3005 3465
4 5385 1185 1194 69
4 3464 3465 3005 3004
4 5065 1180 1181 1190
4 3465 4331 4379 4801
4 2617 3063 3465 4331
4 2392 3189 3062 3007
4 3746 3749 3748 3747
4 3748 2751 2335 2783
4 3141 2783 2775 2984
4 2950 3141 2812 2783
4 5402 1167 67 66
4 2812 3142 4002 3747
4 3140 3693 3142 3692
4 4074 190 1150 189
4 4075 5402 716 66
4 2481 3693 2483 3142
4 2950 2790 2954 2335
4 3141 2783 2984 4007
4 3748 2783 3141 4007
4 2788 4384 4385 4390
4 3276 2537 2542 5405
4 4532 5401 4322 1267
4 4384 4390 5406 4385
4 4387 3916 4384 5407
4 3915 5203 4385 4384
4 3656 3806 5408 4503
4 4384 3916 3915 5409
4 2784 4009 2750 2755
4 4009 5410 5411 2237
4 4009 2238 2750 2755
4 4578 5412 4775 2715
4 4407 16 283 15
4 2715 3818 3821 4578
4 3326 4352 5413 4775
4 3821 2715 4775 4352
4 3326 3895 4352 2718
4 5414 4428 4129 726
4 4080 20 311 19
4 4408 124 717 17
4 2715 3059 2865 2716
4 2715 5412 4775 2865
4 3207 2966 2949 2607
4 3201 5358 3197 2962
4 2338 2752 3980 2339
4 2752 5358 3980 2733
4 4395 290 3976 4383
4 2752 3201 3200 5357
4 5415 293 292 284
4 5357 2752 2712 2753
4 5414 717 718 726
4 4017 4428 5414 726
4 5416 5417 5418 4426
4 4428 4129 18 293
4 4475 311 310 302
4 2752 2603 2600 2339
4 5118 1715 5419 1714
4 3444 4781 3616 3868
4 4070 2623 3500 2626
4 3500 4070 3499 4809
4 2623 5420 2597 3491
4 4455 719 718 126
4 2833 2842 2938 2836
4 2623 4809 5420 3501
4 2573 3657 2185 2194
4 4408 124 1 1760
4 2845 3410 2930 3443
4 3501 2623 2834 2832
4 3390 3513 3511 3507
4 3441 4567 3511 3973
4 3511 3512 3439 3973
4 5421 1722 5422 1723
4 3786 1724 127 1733
4 3511 3391 3439 3512
4 3072 3073 3070 3733
4 3064 3073 3068 3074
4 3729 2184 5423 2175
4 2416 4015 3036 3037
4 4079 4080 4428 735
4 4460 728 719 720
4 5424 128 129 721
4 4406 731 740 739
4 2689 3368 3998 2696
4 2554 2917 2927 4798
4 3368 3998 2891 2887
4 3448 3721 3414 3068
4 5425 1703 1694 1704
4 3715 3065 3068 3067
4 3853 3068 3715 3721
4 4455 125 126 718
4 2549 2552 4591 2548
4 2551 2891 2549 3879
4 5426 721 730 729
4 2535 2777 2276 2541
4 3400 1721 1712 1722
4 2288 3113 3276 3541
4 3656 1165 5427 1166
4 5428 3154 5429 5430
4 5431 4713 5432 5433
4 5031 1712 1711 1702
4 4713 5432 5433 5430
4 5430 5433 1028 5432
4 5434 1696 1695 1686
4 4669 5430 5432 4713
4 5016 759 758 750
4 2536 2691 2843 2534
4 5424 129 722 721
4 4025 5298 4333 4024
4 5298 2679 4019 4024
4 5298 4023 4025 5250
4 3786 721 720 128
4 4024 5298 4333 5435
4 5298 5250 4333 5125
4 3710 5337 3470 5436
4 5119 5437 5121 4314
4 4254 723 722 130
4 3940 5437 3943 5121
4 3710 5124 3711 3712
4 5124 5337 3712 3710
4 3425 3666 3397 3470
4 3442 2685 3441 3439
4 131 4253 5325 1697
4 3440 3442 3937 5438
4 5439 1851 1842 1843
4 3905 4485 4524 344
4 3442 4568 3939 5438
4 3441 3938 4568 4569
4 4568 5440 4567 4569
4 4253 130 1706 1697
4 2924 5131 3620 2925
4 2924 5441 2279 2925
4 5020 1639 5105 2925
4 5020 1649 5360 5442
4 5020 2870 5442 5360
4 5324 133 725 4
4 5020 2782 2870 5360
4 5020 5441 2782 5360
4 5325 725 724 132
4 5441 2279 2925 5020
4 3950 3134 4986 3535
4 5302 1770 1762 1771
4 2961 3308 5086 3309
4 5242 4274 2780 2781
4 3950 3197 5358 2961
4 2560 3535 2961 3837
4 2960 2961 3980 2962
4 5118 1705 4253 1706
4 2961 3197 2962 2963
4 2961 5086 3308 5358
4 3146 4350 3145 2713
4 2703 2713 2706 3667
4 5443 5422 5419 5421
4 3609 4098 5444 5445
4 4016 736 737 745
4 2336 2811 2812 2335
4 2705 2704 2712 2732
4 3825 1749 1739 1740
4 4480 319 310 311
4 3345 2704 2713 2706
4 3953 5446 738 5447
4 2713 2711 2848 2709
4 2706 3337 2785 5070
4 2791 3345 2706 2704
4 4459 4402 291 4395
4 4068 3824 4411 1758
4 3431 3433 4457 3432
4 5415 4459 4402 292
4 5447 729 737 728
4 2706 5070 3667 3345
4 4052 4060 4053 4058
4 5426 720 721 729
4 3438 4476 4486 4149
4 4397 4319 4320 4615
4 2625 3778 3032 3086
4 4068 15 282 14
4 4448 737 738 746
4 3085 2750 2932 3749
4 5447 739 738 730
4 3393 1730 1721 1731
4 5448 4406 730 731
4 2705 2708 2337 2712
4 4053 4002 2262 5449
4 4052 3747 4002 4060
4 5118 5450 4253 5451
4 2618 4002 2821 2262
4 2618 2821 2812 2336
4 5451 732 724 733
4 5118 5422 4314 1714
4 2336 2812 2618 2931
4 4807 5452 3903 5453
4 3487 4070 3903 4810
4 5325 132 724 131
4 2594 3560 3927 3926
4 5444 134 135 743
4 3609 733 725 734
4 4447 740 731 732
4 3559 3560 3926 4639
4 5451 732 5450 723
4 2431 3038 3661 3042
4 3557 3562 4331 3898
4 4254 129 130 722
4 3896 2728 3897 3563
4 4005 4006 767 758
4 3219 2265 3061 3567
4 5454 4103 5451 3609
4 5455 134 734 133
4 4048 5131 5130 5456
4 3623 3624 4577 2980
4 3626 3256 4970 3627
4 2484 2493 2485 2487
4 4577 2745 3866 2621
4 2620 4970 3261 2621
4 5337 5447 5310 5446
4 4017 735 727 736
4 4017 4079 4428 735
4 2621 4970 3261 4984
4 4428 726 735 19
4 3432 309 300 301
4 5457 5458 5459 1975
4 4448 755 746 747
4 5447 729 738 737
4 2270 2620 3626 3256
4 4404 718 719 727
4 2925 5460 2916 5131
4 3505 1739 1730 1740
4 4472 317 316 308
4 2383 3848 3677 2908
4 3392 5461 3400 1712
4 2383 3845 3846 3677
4 4016 745 737 746
4 5462 4018 4403 4508
4 4149 326 317 318
4 3846 3287 3019 3677
4 4209 757 756 748
4 4399 1790 1781 1782
4 3846 4613 4287 3677
4 3826 5463 1809 1818
4 4365 5029 1710 1711
4 5450 722 723 731
4 3845 2383 3847 3848
4 3331 3450 3365 3417
4 2884 2898 2885 2887
4 3609 742 733 734
4 5444 5455 5445 1770
4 5131 5456 3620 1621
4 4451 751 759 750
4 2884 2886 2885 2896
4 5129 5132 5131 5133
4 3609 743 742 734
4 2550 3882 2926 2889
4 2696 3448 3853 3998
4 3448 3998 3854 3853
4 3944 5464 4130 5465
4 743 3609 742 5466
4 4451 759 751 760
4 3414 3704 3721 3412
4 3415 3414 3696 3721
4 4032 302 4080 4475
4 2968 2763 3235 3236
4 4079 736 744 735
4 5467 1741 1731 4453
4 4479 744 753 21
4 3541 2781 3543 3542
4 3235 3237 3542 3543
4 4079 745 744 736
4 3956 754 745 746
4 3956 755 754 746
4 4080 744 5468 4479
4 3541 2772 3618 3543
4 3618 2968 2915 2275
4 3618 2924 2915 4048
4 2819 4438 2855 4670
4 4562 773 764 765
4 3840 2855 5469 2562
4 3238 5470 5471 3714
4 3238 4438 5471 3239
4 5310 740 748 739
4 4399 1792 1791 1783
4 3238 3714 4669 2820
4 5446 747 739 748
4 3238 3864 5470 2820
4 4590 355 346 347
4 3055 777 5472 786
4 2819 4669 4438 4670
4 4240 2941 3780 4252
4 5327 749 741 750
4 5451 732 723 724
4 5466 743 751 742
4 4240 2941 5473 3780
4 3834 3476 2945 3335
4 5474 135 752 743
4 3476 3335 3834 3571
4 5131 5460 2916 5133
4 3755 751 750 742
4 3476 2941 3458 5473
4 4244 4249 4240 3571
4 4216 761 769 760
4 5129 5131 4048 2916
4 2945 2941 4244 4560
4 4452 752 761 760
4 4452 760 751 752
4 4216 4452 5475 761
4 2806 2530 2299 3335
4 2530 2938 2531 2945
4 4217 779 778 770
4 5476 136 137 761
4 5468 754 753 745
4 4490 789 780 781
4 5468 4547 754 4488
4 2945 2939 4560 2943
4 5468 753 744 745
4 4397 762 4547 4615
4 4397 4480 4479 320
4 4590 4564 4545 347
4 4564 347 346 338
4 2530 2806 3834 3335
4 4437 345 336 337
4 4458 4476 4149 318
4 3713 3851 2524 3497
4 2626 4070 3499 3500
4 4488 755 763 754
4 2714 3816 2720 2995
4 4437 346 345 337
4 4523 23 771 24
4 4070 3499 4809 4092
4 4477 334 325 326
4 2564 2994 2998 3816
4 4477 335 334 326
4 2720 3060 2995 3817
4 2995 5399 4834 1297
4 4137 3179 5477 4576
4 2993 4834 5399 4134
4 4448 756 755 747
4 5399 1287 1288 1296
4 3957 764 755 756
4 4526 4531 4555 332
4 2565 2394 2396 3000
4 3258 3439 3394 3799
4 3425 3470 3710 3473
4 3983 4315 3986 3988
4 4539 4435 354 4586
4 5457 5478 1974 5479
4 5480 3517 5481 3518
4 4575 773 772 764
4 4809 5482 3500 5483
4 5016 750 758 749
4 4215 760 769 768
4 3389 3394 3399 3391
4 3970 2685 3601 3600
4 5304 1772 1771 1763
4 5484 778 777 769
4 3467 3473 3425 3468
4 3442 3937 3012 2684
4 3394 3391 3395 3799
4 5018 5485 4994 5033
4 5018 5486 5487 5488
4 5475 761 137 770
4 5018 5487 5486 5489
4 5485 5018 5490 5033
4 5476 761 752 136
4 4206 1773 5491 5492
4 5018 5490 5487 5038
4 5018 5490 5033 5487
4 5018 3819 5038 5075
4 4098 1780 1788 1779
4 2619 2262 3497 5493
4 4615 771 762 763
4 4523 5494 771 4320
4 3761 4143 3191 4927
4 4236 809 800 801
4 4253 1705 1696 1706
4 4320 762 771 23
4 3454 4137 4666 4576
4 3761 4143 3762 2660
4 4512 4477 325 326
4 5494 781 780 772
4 5399 1297 3547 1296
4 3761 4927 5495 4143
4 2663 2878 5328 3761
4 5195 2663 2878 5328
4 4547 4615 762 763
4 2661 3191 3761 2660
4 344 4495 4477 343
4 2662 2664 2665 2878
4 4004 766 757 758
4 2659 3914 3769 3913
4 4631 5496 1818 1827
4 3957 765 764 756
4 4435 353 344 345
4 5463 1817 1808 1809
4 3761 4927 2878 5495
4 2626 2619 3497 3498
4 2904 2905 2508 4272
4 4004 766 765 757
4 4490 781 5497 790
4 5498 5499 1286 5500
4 3455 774 765 766
4 4587 372 363 364
4 3059 5412 2865 3293
4 4006 759 767 758
4 3788 767 776 775
4 2375 2384 2381 2385
4 4004 766 758 767
4 2651 2658 2654 2515
4 2904 2908 3604 3848
4 5051 777 776 768
4 5484 769 777 768
4 4216 769 761 770
4 5501 5458 5502 5459
4 4323 5327 749 5310
4 4015 3037 5503 4509
4 3708 3036 4015 3936
4 3036 2416 3002 4015
4 4015 5504 5503 3555
4 4015 3555 3002 4013
4 4015 5504 4013 5505
4 5475 770 137 138
4 2650 3451 3026 3021
4 3788 3784 3455 3451
4 5506 1781 1780 1772
4 5507 779 787 778
4 2650 2647 3030 4078
4 2641 2649 3139 3138
4 2686 3011 3945 3742
4 4575 772 763 764
4 4743 4895 2511 4680
4 3002 3702 3012 3708
4 4588 773 781 772
4 3008 3011 3012 3226
4 5494 772 780 771
4 4489 4668 798 799
4 4586 362 353 354
4 3002 3003 3984 3555
4 4437 4590 346 4564
4 4563 356 4596 365
4 3822 3987 3002 3984
4 3002 3226 3702 3987
4 2416 3002 4015 3555
4 4688 5508 800 799
4 4576 782 773 774
4 5509 1835 1826 1827
4 3894 3938 5510 4208
4 3788 775 766 767
4 3455 775 774 766
4 3970 3600 3436 3971
4 3970 3600 4878 3436
4 5294 1846 1845 1837
4 5511 1313 1314 1322
4 3452 783 774 775
4 4225 371 370 362
4 3969 3600 3971 5512
4 3969 5512 3976 3974
4 5513 1817 1825 1816
4 4637 392 391 383
4 5500 1295 1287 1296
4 3055 776 777 785
4 1707 3488 212 1716
4 4208 3970 3894 3938
4 3055 786 785 777
4 4467 138 779 770
4 4217 770 778 769
4 3969 3441 3973 3975
4 3441 3970 2685 3938
4 2909 3677 2383 3019
4 2382 2652 2408 2411
4 4135 139 140 788
4 2623 3501 5420 3491
4 4030 3605 3847 3603
4 2619 2624 2625 3777
4 3673 3603 2497 3699
4 2944 2809 2807 2528
4 3210 3481 4938 3172
4 4938 4939 3172 3481
4 4312 4939 4938 4342
4 4467 779 138 139
4 4211 3488 212 1707
4 4938 4342 4939 3480
4 4439 3488 4832 1243
4 4312 2633 3875 3902
4 4545 780 789 25
4 4309 5514 4311 4343
4 3211 3929 3509 4308
4 5515 5462 4411 3825
4 5516 5517 810 819
4 3562 3093 4375 4376
4 4376 5518 3661 3093
4 4376 3949 3946 3948
4 5497 790 781 782
4 213 1243 3488 1242
4 4376 3661 5519 4330
4 4539 355 4563 364
4 3935 3254 5520 3896
4 2920 5520 5521 4639
4 4235 810 801 802
4 5477 791 782 783
4 4711 4684 5517 818
4 4118 3488 1243 1242
4 4576 783 782 774
4 4683 4622 4638 381
4 3053 794 793 785
4 3560 3935 3896 3254
4 5522 803 4673 812
4 2543 3216 2728 3254
4 4526 4504 322 331
4 3452 784 783 775
4 5523 792 783 784
4 5501 5459 5502 5524
4 5472 778 786 777
4 3091 3032 3779 4786
4 3935 3254 2919 5525
4 4668 808 807 799
4 5526 787 796 795
4 3910 785 786 794
4 3241 3718 3723 4947
4 3240 3118 3243 4941
4 4400 1792 1800 1791
4 3118 4947 4941 3240
4 4217 770 4467 779
4 3242 3718 4947 4959
4 5527 796 797 805
4 5528 1843 1842 1834
4 3930 3242 3719 3508
4 3242 3718 4959 3930
4 3991 4949 4535 4557
4 5507 787 779 788
4 2658 2514 2656 3989
4 2658 3991 2509 3989
4 4141 1887 148 147
4 3991 4949 4557 3187
4 3991 4537 3989 4414
4 3992 3290 3828 4558
4 3057 3895 3589 4324
4 3181 2682 2680 2681
4 2469 3056 2470 2303
4 5193 5247 58 1086
4 4685 29 392 28
4 2681 2683 5375 3373
4 4620 798 27 26
4 4620 4566 4563 365
4 5497 791 790 782
4 4775 5412 5529 5530
4 4638 391 390 382
4 2677 2699 2681 4207
4 4658 381 380 372
4 4688 808 799 800
4 2682 2681 3373 2683
4 2763 3235 3236 3114
4 2244 5531 3151 2245
4 5508 800 799 791
4 4004 766 3455 765
4 5532 800 791 792
4 2245 2231 2236 3151
4 5497 5508 791 5532
4 5523 784 793 792
4 5477 792 791 783
4 5533 4132 5534 5499
4 2244 5531 3979 3151
4 5535 801 792 793
4 2762 2288 2763 3114
4 2762 2764 3111 2242
4 3053 785 793 784
4 4040 5536 4659 388
4 5535 5537 4235 802
4 4565 4619 5536 388
4 5538 4150 4155 5227
4 3552 5498 4434 1278
4 3910 794 786 795
4 2787 4155 4390 2786
4 5538 4389 2787 4390
4 4477 343 335 344
4 2789 4153 5223 4703
4 4712 419 410 31
4 2787 5227 4154 5538
4 2214 4154 2787 5227
4 3091 5539 3892 3664
4 4832 3488 213 1243
4 2932 3032 2749 3086
4 2992 3588 4134 3037
4 5540 788 796 787
4 5541 1817 1816 1808
4 5542 1807 1806 1798
4 3778 3779 4786 4954
4 3778 3032 4786 3779
4 5543 140 797 788
4 2619 2624 3777 2626
4 3091 3779 2939 4560
4 3032 3090 2749 3086
4 3904 3906 4136 3907
4 4138 3904 3906 4136
4 4309 3162 4310 3316
4 5544 1835 1834 1826
4 4310 4311 4903 3162
4 4310 4311 4905 4903
4 4596 789 798 26
4 4489 798 789 790
4 3664 5539 5058 5545
4 4309 4310 3317 3316
4 5508 799 790 791
4 4236 810 809 801
4 4582 401 392 29
4 4752 3770 4231 4732
4 4678 398 389 390
4 4683 389 380 381
4 5193 5272 5546 1086
4 5517 819 818 810
4 5193 5198 1077 57
4 5547 794 802 793
4 4688 809 808 800
4 3385 3180 2576 2760
4 5532 801 800 792
4 5548 1323 1315 1324
4 2302 2427 2318 2399
4 2586 3184 2576 2577
4 5535 802 801 793
4 3888 3954 3430 3599
4 3788 3054 3452 775
4 5497 5532 791 5477
4 4622 372 4587 373
4 2578 4677 3767 3259
4 5549 5550 5551 5552
4 5553 835 843 834
4 4621 398 399 407
4 5554 5544 5555 4468
4 2317 2403 2401 2577
4 5547 802 794 803
4 2288 2537 5405 4425
4 3276 2288 2537 5405
4 2664 2290 4425 5196
4 5556 4392 4391 5557
4 4582 4685 29 392
4 5558 4688 5559 3539
4 4660 390 4638 391
4 5560 814 813 805
4 4754 33 428 32
4 2664 4394 2880 5196
4 5561 803 795 804
4 2659 3913 2286 2660
4 3160 804 796 805
4 2659 3769 2245 2283
4 5562 1815 1806 1807
4 5563 806 141 142
4 5527 805 797 806
4 4425 5405 2288 3112
4 2282 2288 4425 2537
4 5564 143 144 824
4 2244 4425 2764 4394
4 5565 806 815 814
4 3877 2789 2209 4153
4 2631 3152 2674 3313
4 2789 4701 3519 5223
4 2673 2674 2466 3841
4 2959 2964 4000 3515
4 2675 3519 2788 2789
4 3285 4125 2408 4491
4 4710 31 410 30
4 5566 227 228 1581
4 4620 4641 807 5567
4 5567 816 807 808
4 4641 807 816 28
4 4148 410 409 401
4 5568 408 399 400
4 5568 409 408 400
4 5567 817 816 808
4 3846 3019 3287 4125
4 3285 2408 4125 3019
4 3287 3504 4287 5569
4 2111 5232 2120 5566
4 5517 818 809 810
4 4222 817 825 816
4 4573 1829 1837 1828
4 3049 2909 3285 3287
4 3286 3102 3504 3503
4 3055 786 5526 3910
4 3287 4287 3504 3102
4 4220 826 4681 827
4 4580 5553 835 844
4 4556 4210 4531 333
4 5566 5570 1590 1581
4 2909 3287 3677 3019
4 3846 3287 3677 4287
4 4287 3050 3102 3287
4 5571 1331 1330 1322
4 5572 4287 3050 3102
4 5522 811 803 812
4 3833 2312 4617 3832
4 3833 3832 5573 3738
4 4685 28 816 29
4 4728 428 427 419
4 4647 4582 4710 401
4 5516 810 811 819
4 5312 4692 4717 5574
4 3833 5573 4100 5575
4 4673 812 804 813
4 4311 4903 4991 4905
4 4674 814 823 822
4 4309 3317 3643 3316
4 4309 5514 4310 4311
4 4311 4343 4312 4309
4 4312 3875 4903 3902
4 4312 4344 4939 4342
4 5576 815 806 142
4 4312 4938 4939 3172
4 5576 815 142 143
4 5577 144 833 824
4 4343 4344 4991 4311
4 3528 2857 2813 3663
4 3877 3566 2217 3602
4 3566 5212 3861 3693
4 3860 3877 3143 3862
4 3566 5212 3129 3861
4 3566 2483 2217 3602
4 5566 228 2120 2111
4 5168 3566 5212 3129
4 4729 418 409 410
4 4684 817 808 809
4 4730 417 408 409
4 5578 839 5579 848
4 5566 2120 228 227
4 2261 2759 3154 3714
4 4222 826 825 817
4 4682 836 827 828
4 2254 2759 4670 3157
4 2759 4669 3155 5428
4 5580 828 819 820
4 4221 834 825 826
4 5581 1892 1901 1900
4 5582 3498 3499 3497
4 5580 829 828 820
4 3154 3714 5428 4482
4 3713 4515 3154 4445
4 3156 2259 2203 3154
4 3154 3155 5430 5428
4 4611 5583 1345 1344
4 4236 5532 801 800
4 4278 854 845 846
4 5112 1571 1580 1579
4 3033 4351 2749 3090
4 2250 2914 2278 2969
4 5584 820 812 821
4 4674 822 813 814
4 2274 2537 2276 3276
4 3603 830 829 821
4 4145 1873 1864 1865
4 2276 2778 2781 2541
4 2778 5585 2781 2541
4 2779 2877 2875 2776
4 4030 821 813 822
4 3605 821 822 830
4 4304 4295 4292 2777
4 2778 5585 2541 4295
4 2773 5241 2780 2782
4 4589 4104 4915 2780
4 4921 3885 3884 3348
4 5586 815 823 814
4 4559 832 823 824
4 4921 3095 3885 4173
4 4025 4333 5294 5292
4 4921 4173 5301 4175
4 4921 4175 5587 4173
4 4921 5587 5588 3006
4 4921 3884 5589 5590
4 5262 4391 5556 5185
4 5591 5138 3861 3863
4 5591 4057 5592 5593
4 4711 828 827 819
4 5591 4057 4826 3747
4 3566 3142 5591 3863
4 4681 827 826 818
4 4681 826 817 818
4 4753 426 417 418
4 4752 5594 4148 5553
4 4289 3380 4288 872
4 5591 3142 5592 3747
4 5516 819 4711 5517
4 4900 837 828 829
4 5157 5085 618 609
4 3411 3725 5068 5066
4 4542 4724 4181 416
4 3449 4755 1199 4072
4 2690 3413 3411 3248
4 2249 2247 2843 2535
4 4580 844 835 836
4 2642 5595 4631 4632
4 5551 1365 1356 1357
4 4682 837 836 828
4 3411 3248 4022 3743
4 2845 2930 3444 2847
4 3605 830 822 831
4 5584 820 811 812
4 2248 2689 3445 2249
4 4699 856 857 865
4 3413 3411 3725 3412
4 3248 3250 3743 3252
4 4632 1820 1828 1819
4 3160 804 4673 5561
4 3247 3252 3248 2929
4 4332 1852 1843 1844
4 5596 842 833 145
4 3910 795 5561 794
4 2845 3443 2930 2929
4 3735 5274 3740 3736
4 4750 3371 3401 3735
4 2605 2932 2624 3032
4 4140 842 851 850
4 2825 3964 3548 4799
4 3735 4675 3736 3737
4 5597 842 841 833
4 5577 833 144 145
4 3735 4675 5274 3736
4 3735 5598 3401 4750
4 3735 3401 5598 3737
4 2825 3964 3737 2824
4 5157 5137 4999 609
4 2825 3964 4799 3737
4 5376 5599 5380 5600
4 3188 5589 2391 3584
4 4221 835 834 826
4 3188 2933 3585 3584
4 3188 3007 5589 3006
4 2392 2300 2301 3189
4 5193 5243 644 653
4 4765 436 435 427
4 4709 428 437 436
4 5601 1362 1371 1370
4 3323 846 845 837
4 5602 856 848 857
4 5377 1348 1340 1349
4 3461 5042 3188 3585
4 4580 845 844 836
4 3188 5042 3005 3006
4 4900 838 837 829
4 5603 1411 1410 1402
4 900 3999 3270 901
4 4695 398 407 406
4 5604 853 861 852
4 4652 853 5594 844
4 3604 838 830 839
4 3656 3849 5427 4664
4 4732 862 853 854
4 5578 838 839 847
4 3656 3806 4503 2573
4 3656 3806 2573 3657
4 2619 4053 2262 5449
4 3298 3544 3482 3300
4 5605 832 840 831
4 4829 1431 1439 1430
4 5606 1853 1861 1852
4 4474 855 846 847
4 5607 841 850 849
4 5597 833 841 832
4 3300 3334 2722 3544
4 3300 3482 3334 3544
4 3300 3545 3544 2722
4 3300 2722 3350 3545
4 4124 5608 4285 4019
4 3300 3299 3298 5609
4 5610 4141 851 147
4 5094 5611 5612 5613
4 5610 147 146 1878
4 5611 4484 5614 5473
4 5611 5615 5614 5094
4 5611 3458 4484 5473
4 5157 5137 609 86
4 5611 5613 5334 5612
4 3770 4652 4651 4278
4 5553 844 843 835
4 4621 4724 407 408
4 4707 4793 4708 870
4 4712 4710 31 410
4 4712 843 852 32
4 5611 5473 3981 3458
4 4148 410 4712 4729
4 3379 2424 2517 2423
4 4652 854 853 845
4 5549 5616 5202 5617
4 4733 445 444 436
4 5618 3381 4792 4288
4 5611 5612 5334 5619
4 5611 5473 5619 3981
4 4751 443 442 434
4 4057 3747 5620 4010
4 5621 889 888 880
4 5579 840 848 839
4 4057 5622 5623 4061
4 4057 3747 4060 4826
4 4707 861 34 33
4 4474 847 846 838
4 4496 4806 5616 5624
4 5032 4168 4994 561
4 4057 5592 5623 5620
4 3766 1378 1386 1377
4 4278 855 854 846
4 4542 4718 4543 415
4 5625 1389 1398 1397
4 4057 5626 4060 4061
4 4057 5626 4061 5623
4 4782 452 443 444
4 5607 841 849 840
4 5579 848 840 849
4 3072 3733 3070 3734
4 3105 848 849 857
4 3064 3074 5627 3071
4 4971 2726 3089 3088
4 4140 850 841 842
4 3578 149 869 148
4 4527 4530 3671 3071
4 5628 5610 4140 5597
4 3769 4527 3070 3916
4 3769 3070 3733 3916
4 3474 2837 2840 2839
4 5157 1589 86 85
4 2373 2368 2632 2808
4 3489 3925 3592 3800
4 2296 3617 3232 2363
4 5594 852 843 844
4 4652 853 844 845
4 2622 2597 2609 3491
4 2842 2528 2531 2529
4 3491 2622 2347 2609
4 4728 428 4709 427
4 4707 4754 33 428
4 2601 2259 3576 2597
4 2597 3577 5420 3500
4 3378 4817 4792 3376
4 2597 3577 3576 5420
4 4042 387 4043 386
4 2597 3575 2609 3491
4 4279 863 854 855
4 2807 2934 3246 2935
4 3035 4699 2520 4474
4 3171 3172 3211 2633
4 4782 453 452 444
4 2293 2291 3891 3804
4 2842 2834 3474 2837
4 2635 3492 2529 3459
4 4794 461 452 453
4 4792 872 3380 881
4 4291 865 864 856
4 4415 4724 4753 4181
4 4291 864 855 856
4 4474 856 855 847
4 3581 2390 4172 3789
4 2530 3834 2806 3774
4 4279 864 863 855
4 2806 3335 3789 3834
4 4895 4682 3323 4220
4 5610 146 851 842
4 3790 3347 3098 4462
4 3346 4866 3794 3791
4 3206 4168 570 569
4 3267 3346 3213 3348
4 4139 859 850 851
4 4281 1882 1881 1873
4 2742 3265 3346 3097
4 3960 867 858 859
4 2268 2742 2269 2267
4 4704 4790 4584 406
4 5610 4141 147 1887
4 5628 1879 1888 1887
4 2269 3096 3346 3347
4 4159 4885 481 482
4 5629 5630 4499 5631
4 3303 3308 2462 3302
4 3533 3529 3838 5357
4 4289 872 863 864
4 3305 2591 3325 4689
4 873 4291 864 4289
4 3302 3305 2555 2458
4 3134 3136 3302 3307
4 5604 862 861 853
4 3136 3302 3307 3306
4 4645 446 445 437
4 4288 871 862 863
4 5632 4817 5621 4793
4 5633 1473 1464 1465
4 4518 5634 5635 5636
4 4518 5635 5634 4482
4 4732 863 862 854
4 4514 4518 5634 4481
4 4792 881 880 872
4 2608 3200 5357 5637
4 3503 1908 1907 1899
4 4289 873 872 864
4 4514 4519 4518 4481
4 4518 4481 4519 5638
4 4699 865 857 866
4 4514 4481 4517 4519
4 3794 4901 3017 4875
4 865 4291 864 873
4 3579 149 878 869
4 5639 1395 1394 1386
4 4700 866 858 867
4 4518 4519 4195 5640
4 4700 858 866 857
4 4867 5641 908 909
4 3103 3502 3220 3503
4 3578 4139 860 3961
4 5566 228 5642 1581
4 2788 3519 4393 5223
4 2788 5223 2789 3519
4 2788 4388 4389 4393
4 4813 925 4877 926
4 4390 5538 5643 4155
4 4390 5538 5644 5643
4 4390 2786 4155 5406
4 3329 1889 1898 1897
4 4390 5644 4388 5645
4 4390 5646 5538 4389
4 4390 5644 5538 5646
4 3345 3338 3336 3337
4 3336 3340 2988 3339
4 4141 1887 1896 148
4 2981 2952 2988 2989
4 3578 4139 4141 860
4 5647 919 918 910
4 3337 2953 2785 5070
4 5648 870 861 862
4 2421 3405 3289 4181
4 2706 3337 5070 3345
4 4708 35 446 34
4 3134 3137 3135 3535
4 4708 4793 5621 879
4 2561 3676 3675 3841
4 5648 871 870 862
4 3980 2733 3308 2732
4 4784 5649 463 464
4 5650 890 4811 899
4 2961 3308 3980 5358
4 5651 5315 2129 5566
4 4792 880 871 872
4 5652 874 865 866
4 5653 5654 1928 5655
4 3670 875 866 867
4 4817 890 889 881
4 4965 891 882 883
4 5656 876 867 868
4 2752 3980 2339 2733
4 5601 5657 1371 1362
4 5018 5019 4994 5485
4 2962 2960 2966 2338
4 2243 3730 4469 3731
4 3483 874 873 865
4 5628 1887 5610 1878
4 5658 874 875 883
4 247 5659 1410 1401
4 2465 2234 2591 2241
4 4741 1883 1891 1882
4 4156 3676 4727 3841
4 5660 5661 1432 1433
4 3841 3675 4156 3676
4 150 3831 151 1914
4 4789 877 885 876
4 4264 450 441 442
4 5662 5633 1473 1464
4 3676 3152 3151 4727
4 5663 1888 3329 1897
4 2241 2233 3151 3676
4 2241 2466 2233 3676
4 5664 884 885 893
4 5658 883 875 884
4 4661 4663 3705 3697
4 3561 1915 1914 1906
4 2589 2965 2468 2463
4 3565 2949 5665 5666
4 3579 878 149 150
4 3479 5019 2352 4126
4 3479 3480 5076 5075
4 3479 2610 2352 3819
4 2708 2751 2707 2703
4 4708 4768 5621 4645
4 4793 880 879 871
4 4793 871 879 870
4 2705 2335 2785 3175
4 2703 5070 2706 2785
4 5621 888 879 880
4 2703 2784 2710 3607
4 2186 3419 2572 2195
4 3403 4782 452 443
4 3380 882 881 873
4 3483 883 882 874
4 4861 478 469 470
4 3376 891 890 882
4 4838 1406 1415 1414
4 3202 4168 3205 3206
4 2710 2725 2813 5091
4 2710 2755 5060 2239
4 4158 463 5649 472
4 2754 2199 196 2198
4 4811 900 899 891
4 5485 5032 4168 4994
4 2710 2725 5091 2755
4 4607 4023 5298 5125
4 2678 3847 4607 3844
4 878 886 3831 877
4 5298 4019 4610 5435
4 4925 3261 5667 3771
4 4965 892 891 883
4 3999 900 891 892
4 5668 4598 929 930
4 887 878 3831 150
4 2384 3844 2679 2379
4 2380 2384 2679 2379
4 3326 3327 5669 5286
4 5670 1916 1925 1924
4 5671 1439 1438 1430
4 2863 3966 5413 3326
4 3269 3363 2222 3772
4 4777 5286 3326 3895
4 3261 4984 4970 5672
4 3606 884 875 876
4 2718 2715 3058 4352
4 3326 4352 2715 2718
4 887 886 3831 878
4 3121 3283 5668 3282
4 3830 152 896 151
4 559 4163 5013 568
4 3121 2850 4738 3122
4 5649 473 472 464
4 4814 471 480 479
4 5649 472 463 464
4 4739 3120 3121 3122
4 2853 3120 3121 4598
4 3052 196 2754 1211
4 5650 898 889 890
4 3272 902 910 901
4 2362 2852 2221 2363
4 4335 3125 3126 2853
4 3389 3400 5436 3393
4 5660 1433 1432 1424
4 3999 901 900 892
4 884 5658 883 892
4 3399 3703 5029 5673
4 4880 481 490 489
4 5674 892 884 893
4 3397 3741 3742 3666
4 3271 909 900 901
4 3399 3392 5031 5461
4 4337 1387 1395 1386
4 3389 3399 3392 3391
4 3399 3400 3392 5461
4 4821 4176 4796 460
4 5674 901 893 902
4 2745 3866 2747 2980
4 3399 3703 5673 3391
4 3830 151 896 887
4 3865 893 894 902
4 3871 4997 4922 3883
4 5675 887 895 886
4 5667 5676 3363 4897
4 5677 1924 1932 1923
4 3199 3204 5067 3206
4 4919 4997 4922 3871
4 4997 4939 3481 3520
4 3210 3211 4938 3929
4 5678 5679 157 941
4 4938 3480 5680 4342
4 5677 1932 1924 1933
4 4939 5489 3480 4342
4 4939 4342 4344 4345
4 4343 4312 4309 4938
4 5681 896 905 904
4 4310 4905 4311 4958
4 4312 4342 4938 4343
4 4939 3481 3520 3172
4 4879 480 4880 489
4 2621 4984 3261 5682
4 3526 3936 4642 3036
4 3526 3036 4642 3037
4 4238 908 5641 917
4 4159 473 481 472
4 5683 5684 5685 4875
4 5650 899 898 890
4 4840 898 897 889
4 2649 3138 3756 3139
4 3204 3206 579 5067
4 2649 2647 3139 5686
4 3006 4246 4247 4698
4 2649 2645 2646 2647
4 2649 2647 5686 2645
4 5687 3423 4433 3941
4 4881 1415 1424 1423
4 4861 479 478 470
4 3271 910 909 901
4 5688 4340 5459 5524
4 3669 3281 3647 3264
4 3331 1210 3396 3418
4 4867 908 899 900
4 5689 1936 1935 1927
4 2360 2823 3371 3740
4 3370 3740 2765 2823
4 3125 5690 5151 3359
4 5674 893 901 892
4 2823 3736 2862 2824
4 2765 2823 3740 2862
4 2825 2899 2974 2827
4 4112 5691 154 914
4 5692 3691 3692 3693
4 3370 3369 3610 3684
4 4334 3830 1932 152
4 5273 3278 2901 2862
4 2581 2480 2957 2964
4 5691 153 154 914
4 5641 918 917 909
4 5693 1933 1924 1925
4 5694 5695 1942 1933
4 3877 4153 5234 5223
4 3877 4153 3143 3862
4 2211 2207 2481 2774
4 3566 3863 5591 3861
4 4736 911 919 910
4 3566 5591 3142 3693
4 3142 2481 2950 2216
4 5696 5697 5698 949
4 4737 912 920 911
4 2950 2452 2951 2954
4 5699 3771 3261 3645
4 2208 2217 3143 2215
4 3860 3143 3566 2215
4 2216 3142 3566 2215
4 2994 5700 3816 4834
4 2998 2994 2996 3816
4 2313 2717 2714 2307
4 2991 2992 3526 3588
4 4844 39 482 38
4 4816 898 906 897
4 4159 482 481 473
4 4599 3588 4463 3037
4 4885 490 481 482
4 4845 915 4844 906
4 2972 2398 2426 2686
4 4867 909 908 900
4 5701 907 898 899
4 196 197 2199 2754
4 4865 915 40 39
4 2995 2994 3816 4834
4 5701 908 907 899
4 4879 480 489 488
4 5647 910 918 909
4 4635 5572 3102 3329
4 4279 4278 855 854
4 3209 2982 2326 2977
4 4735 903 911 902
4 5702 516 515 507
4 3320 3402 3040 5703
4 3370 3740 3684 2901
4 5704 904 912 903
4 2484 2490 2486 2485
4 3285 2983 5705 4491
4 3209 3220 3103 3502
4 3209 2983 2982 5705
4 5699 1952 1953 1961
4 3573 5357 2608 2600
4 5706 905 913 904
4 3573 2351 5707 5637
4 2259 2260 3577 2597
4 5708 1943 1952 1951
4 2595 2346 2605 2622
4 5709 921 912 913
4 2600 3573 3533 2606
4 2595 2346 2622 2609
4 5710 927 918 919
4 4739 920 928 919
4 3573 5707 2351 2352
4 2598 3573 2610 2608
4 5055 2757 4795 4992
4 2757 3327 3967 3968
4 5711 1993 1992 1984
4 5706 913 905 914
4 3967 4653 5055 4630
4 3967 5286 4630 5669
4 3967 5669 4630 3965
4 3967 3327 5286 5669
4 3963 5669 3967 3965
4 5679 157 941 156
4 4843 924 916 925
4 4865 4159 4844 482
4 4837 3765 3926 4640
4 3927 4337 4639 3764
4 4845 907 915 906
4 4784 455 463 454
4 4640 4995 3076 3044
4 4238 916 907 908
4 2928 3081 2359 3077
4 5641 917 908 909
4 4899 498 497 489
4 2358 3107 4142 3109
4 4880 4885 490 481
4 2422 2797 2798 2490
4 5712 466 467 475
4 4923 506 497 498
4 3230 2852 2364 2634
4 5713 1426 1435 1434
4 4877 926 925 917
4 2743 3270 3647 3668
4 2270 3644 2266 2268
4 5714 506 505 497
4 5625 4995 3083 3084
4 5714 505 496 497
4 3084 3109 4142 5625
4 5715 914 922 913
4 5698 5152 939 948
4 2471 5266 4025 3908
4 5457 1974 5478 1975
4 2471 3909 3482 3298
4 5716 936 927 928
4 2471 3298 4027 3909
4 5717 242 1985 4340
4 5678 5679 5718 1977
4 2471 4028 4027 3298
4 4028 4293 4354 4027
4 2823 2826 2822 2862
4 5709 921 913 922
4 2831 2765 2862 2823
4 2730 2736 4926 2738
4 5719 940 939 931
4 5720 931 923 932
4 5118 4254 5450 5419
4 2730 4925 3269 2620
4 2735 4970 3257 5721
4 2430 2264 2265 2272
4 5722 155 156 932
4 3174 3255 2330 3935
4 2543 2728 3218 2735
4 4861 470 4796 4833
4 4158 472 4160 471
4 5723 509 500 41
4 5723 42 509 41
4 4884 500 499 491
4 3781 3777 4808 5724
4 5725 508 507 499
4 5725 507 498 499
4 2735 5721 3934 4926
4 4500 2329 5201 5629
4 4901 927 926 918
4 4862 4879 479 4814
4 5726 4897 3771 4819
4 5710 928 927 919
4 2326 2977 3168 3374
4 2412 2409 2404 2766
4 3383 2199 2754 2198
4 2446 2449 2492 2267
4 3120 929 938 937
4 5152 939 947 938
4 4935 1479 1488 1487
4 2326 2324 3374 3168
4 4114 1470 1479 1478
4 5727 5647 3273 5728
4 5729 5730 4984 5672
4 3291 3408 3322 2447
4 4984 3626 2621 4970
4 5102 569 578 577
4 2271 2805 3169 3256
4 2333 3765 3927 2321
4 2928 2794 2799 2793
4 5726 5731 1962 1971
4 3062 3005 3004 3007
4 3004 5587 3093 3095
4 3566 5591 3693 3861
4 4735 3646 2743 3272
4 5722 932 923 155
4 3142 3747 4008 5592
4 3142 4002 3747 4826
4 5678 5718 1986 1977
4 2213 2558 2790 2811
4 3141 4008 3142 3747
4 5591 3142 3747 4826
4 5732 158 959 950
4 5679 156 941 932
4 5733 1961 1969 1960
4 4823 517 509 518
4 3992 4558 2354 2974
4 4842 4859 5723 933
4 4909 43 518 42
4 3739 4557 2974 4558
4 3739 2974 4557 4041
4 4936 3639 944 945
4 4790 4558 4041 3827
4 4558 4041 3827 3739
4 3739 2356 3827 2354
4 5690 964 3872 4906
4 3739 2356 2355 5734
4 4254 129 5424 1715
4 4928 935 943 934
4 5702 515 506 507
4 3739 2355 2974 4041
4 4813 935 934 926
4 2233 3676 3152 3151
4 5684 4880 4160 4885
4 4339 4260 4976 505
4 3626 4984 3627 4970
4 4210 5290 5330 4606
4 5008 1487 1496 1495
4 4936 945 944 936
4 2578 4324 4677 4409
4 4598 938 929 930
4 5735 1983 1992 1991
4 5716 945 936 937
4 5736 5590 4879 4899
4 5737 932 940 931
4 3120 937 938 946
4 2578 4324 3057 3767
4 2919 3257 2735 3255
4 5716 946 945 937
4 5720 5737 931 932
4 5678 157 158 950
4 4324 3590 3589 3767
4 4324 3589 5330 4606
4 3087 3089 3088 4199
4 3085 3089 3087 3086
4 5738 1989 1980 1981
4 2907 3572 3045 3035
4 5739 2037 2036 2028
4 5740 5741 5722 1968
4 4767 3089 4199 5742
4 5743 940 941 949
4 5698 948 940 949
4 3089 4971 5744 5745
4 5745 4971 2726 3089
4 4253 4254 723 5450
4 4905 964 963 955
4 5678 1977 1986 158
4 3089 3090 5744 5746
4 5723 933 942 42
4 5742 3089 4199 5746
4 5323 4504 3596 4600
4 1211 2754 1220 197
4 4860 4909 4824 4823
4 4824 952 960 951
4 2975 2979 2976 2977
4 4859 943 942 934
4 4177 525 516 517
4 2976 3296 3104 3959
4 2976 3103 3220 3301
4 4822 4962 4178 527
4 5747 952 943 944
4 3100 3209 2976 3103
4 4899 489 4902 498
4 5712 467 3947 4774
4 3639 953 944 945
4 2976 3301 3297 3959
4 4177 4932 516 525
4 3639 954 953 945
4 4931 515 524 523
4 4932 525 524 516
4 5698 940 948 939
4 4958 962 953 954
4 5323 5748 4548 4504
4 3194 5749 3195 4276
4 4762 954 945 946
4 3272 3865 4735 902
4 3194 3192 5282 3696
4 5750 1980 1989 1988
4 2534 2290 2666 2538
4 3190 3194 3192 3191
4 5332 3492 3571 3807
4 5733 1961 1970 1969
4 4762 955 954 946
4 2694 3415 3194 3195
4 3194 3722 3195 3415
4 3194 3195 3722 4276
4 4504 3596 3594 5323
4 2778 5242 2781 5585
4 5690 956 964 955
4 2781 3542 3276 5751
4 5741 1978 1977 1969
4 4254 5450 722 723
4 3359 957 965 956
4 2781 3542 5752 3543
4 5743 949 941 950
4 2781 5753 4274 5241
4 5665 3207 3565 3819
4 2607 2966 2949 2946
4 3158 2893 2966 2946
4 5754 159 160 968
4 5755 5756 1988 1987
4 4178 527 526 518
4 3158 2893 2946 5757
4 4860 951 942 943
4 4178 526 517 518
4 4962 536 527 44
4 3158 2946 3565 4122
4 5045 4824 4944 4178
4 3028 5261 3030 3056
4 4961 953 962 961
4 4171 4977 526 535
4 3028 4023 2683 5125
4 4822 44 4962 527
4 4991 4979 962 971
4 2825 2355 3401 3548
4 3964 2827 5055 3968
4 5747 952 944 953
4 5714 4937 505 506
4 4601 5750 4602 5758
4 5718 1978 5756 1987
4 5759 4945 995 1004
4 2310 4705 4720 4038
4 3735 3736 2825 3737
4 3964 2827 3548 3549
4 5760 5662 5761 2003
4 5697 949 957 948
4 3964 3737 2824 3965
4 4905 963 954 955
4 5696 950 958 949
4 5365 4303 5440 5762
4 4335 955 947 956
4 5365 4368 5440 4303
4 5365 4303 5763 4368
4 5365 5764 5765 5766
4 5754 1995 160 159
4 3234 3542 3237 5767
4 4904 973 972 964
4 3360 975 974 966
4 5767 3237 3543 3542
4 3922 1997 1988 1989
4 3542 3114 3541 3113
4 3542 5186 5767 5217
4 3542 5768 5186 5752
4 2561 2241 3730 3676
4 3873 974 982 973
4 5769 966 958 967
4 5770 976 975 967
4 5771 986 994 985
4 2961 3535 3950 2963
4 5700 2996 5772 2999
4 4980 46 545 45
4 3535 3674 3837 2563
4 3535 5144 3977 3836
4 3134 2961 2557 3535
4 4824 961 960 952
4 3535 3837 3836 3977
4 5725 4823 4907 508
4 5012 47 554 46
4 4979 962 970 961
4 3797 3593 3617 3925
4 4981 545 544 536
4 4937 506 5702 515
4 4964 534 543 542
4 2561 2562 2456 3841
4 2461 3137 2561 2555
4 4998 981 972 973
4 5690 965 964 956
4 3872 965 974 973
4 4991 972 971 963
4 2704 2712 2732 3530
4 2997 2999 5323 2996
4 5760 5773 1993 2002
4 4445 4446 3842 5120
4 5688 1993 5760 5773
4 2713 3667 2829 3131
4 3146 3303 4187 3621
4 2704 3530 2732 3621
4 3085 2749 3090 3086
4 5774 5775 976 977
4 5776 967 959 968
4 5323 5287 4606 2996
4 5756 1987 1978 1979
4 2595 2598 2610 2601
4 3091 4560 2939 2943
4 5770 967 975 966
4 3085 2749 2750 2726
4 2203 2759 3157 3155
4 2707 2748 2749 2750
4 2337 2603 2600 2599
4 3232 3592 3459 3457
4 4251 1494 1495 1503
4 5774 967 968 976
4 2938 2530 2531 2528
4 3587 3982 3459 4121
4 3459 5777 3490 3587
4 2529 3232 3459 3457
4 2635 3490 3459 3489
4 4962 960 969 45
4 3038 3040 3650 2448
4 4944 969 960 961
4 4982 554 553 545
4 5009 553 552 544
4 4113 5039 4982 554
4 3038 3042 3650 4593
4 2594 3558 3559 4329
4 3557 3661 3093 3562
4 4944 970 969 961
4 4978 543 534 535
4 4110 4114 1469 4116
4 5009 544 4982 553
4 4113 5015 987 5012
4 2386 2230 3269 2222
4 2886 2884 2804 2896
4 4959 4953 3118 522
4 3873 973 3872 974
4 4345 980 971 972
4 2926 5105 5460 2925
4 3017 4875 4876 4813
4 3266 2226 3213 3264
4 4964 533 3707 534
4 4087 2014 2005 2006
4 3260 2222 3263 3772
4 3814 2007 1998 1999
4 2270 3626 2620 2621
4 5009 553 5033 552
4 5778 2010 2019 2018
4 3360 966 974 965
4 3268 3668 3647 3669
4 5779 4919 5780 991
4 2266 3644 3262 3268
4 5413 2863 4775 4192
4 4775 4694 5529 4676
4 4694 3966 5781 5413
4 4259 983 975 984
4 5754 1995 2004 160
4 4335 5151 956 947
4 5782 5783 5784 5785
4 5786 160 977 968
4 3881 3879 5787 3882
4 3326 5413 5781 3966
4 5413 5788 4676 3821
4 4188 977 161 986
4 5789 162 163 995
4 4775 4352 5413 3821
4 2442 2888 2444 2885
4 2442 2885 2444 2443
4 2891 2887 5790 2898
4 2887 5790 2898 2885
4 2896 2884 2804 2888
4 2888 5791 2897 2896
4 4113 563 554 47
4 5792 979 987 978
4 2898 3882 2445 5787
4 3368 3998 3417 3446
4 4942 980 979 971
4 2696 2689 3448 3998
4 2689 5068 3409 3412
4 4943 979 978 970
4 5039 562 553 554
4 3383 2592 2754 2199
4 4113 5012 47 554
4 2891 2549 3856 3998
4 4177 4907 517 516
4 2554 4697 5793 3167
4 4993 552 551 543
4 4996 980 988 979
4 4979 4944 961 970
4 5037 989 4996 5794
4 4993 4994 3521 551
4 2549 5795 3879 2891
4 2914 2917 2969 2915
4 4345 981 980 972
4 2278 3881 2551 2552
4 5014 989 980 981
4 5737 941 5743 940
4 4979 4942 970 971
4 1463 2280 99 4857
4 5779 982 990 981
4 3164 2969 2273 3165
4 4998 982 981 973
4 3314 3638 3643 3640
4 3643 3640 5061 5046
4 4166 587 586 578
4 5775 977 985 976
4 3317 3643 3638 5061
4 5796 3643 5046 3319
4 3319 3643 5046 3640
4 4892 3643 5796 3318
4 5782 5785 5797 5783
4 5027 1001 1000 992
4 4892 3643 4313 5046
4 4307 3509 4308 4309
4 5789 4188 162 986
4 5514 4309 4310 3317
4 5636 2050 4520 2051
4 4313 4309 4307 5046
4 5775 985 977 986
4 3643 3319 5796 3318
4 5736 3640 4899 4902
4 5736 4880 3640 4902
4 5736 5798 3319 3641
4 5799 1011 1019 1010
4 5736 3640 4880 5685
4 5736 5800 4879 5590
4 992 4446 1001 5120
4 5736 5800 5590 3641
4 5033 561 552 553
4 5050 49 572 48
4 3230 3231 3125 3356
4 2373 2807 2528 2806
4 5792 988 987 979
4 3231 3902 3496 2633
4 3231 3125 3356 3362
4 3816 4834 5700 5801
4 5794 989 990 998
4 4440 121 120 1274
4 2564 2714 2313 2995
4 5802 5539 5803 4560
4 4996 979 4942 980
4 4978 4964 3707 534
4 3299 2719 3294 2864
4 5037 989 997 988
4 5034 590 581 50
4 4978 4977 535 534
4 3816 5801 3058 2720
4 2302 3041 2399 2318
4 5014 990 989 981
4 5794 990 999 998
4 3873 983 5780 982
4 5744 5746 1512 1521
4 5027 991 999 990
4 2475 2306 2307 2308
4 5038 5036 5010 5049
4 4996 4942 979 4943
4 3420 3426 3753 3711
4 5792 988 5015 987
4 5102 577 568 569
4 2686 2970 3666 3741
4 3397 3741 3710 3398
4 4431 3010 3011 3945
4 5789 995 986 162
4 5804 983 992 5780
4 3742 3666 3703 3397
4 4517 1003 1011 1002
4 3012 3011 3703 4929
4 5805 1001 1002 1010
4 2684 3937 3703 3439
4 4193 1012 1003 1004
4 4164 1998 1990 3814
4 1989 4164 1998 1990
4 3814 4988 4121 4047
4 4450 1010 1018 1009
4 3814 3812 2007 2008
4 3814 4164 3924 4988
4 5771 994 986 995
4 3924 3815 3812 3814
4 2007 3814 3924 3812
4 4113 987 996 48
4 3762 3761 5328 4143
4 5015 996 987 988
4 5036 5010 1007 5011
4 5038 5010 5036 5011
4 5015 997 996 988
4 2665 4396 2663 5195
4 5039 5017 562 563
4 5032 571 570 562
4 4856 492 483 484
4 5692 5257 3692 5806
4 5037 998 997 989
4 5760 5662 5633 5807
4 2665 2664 2289 4394
4 5011 999 1007 998
4 3205 5032 3206 4168
4 2665 4394 4421 5197
4 5062 52 599 51
4 5127 607 598 599
4 4949 2512 3989 4536
4 4535 3991 4536 4949
4 4949 2506 5808 3186
4 5809 1000 1008 999
4 5810 1001 1010 1009
4 2509 4949 3186 2506
4 2509 4949 2512 3989
4 4191 5811 1170 5277
4 5145 4535 2512 2506
4 4946 994 1002 993
4 4519 4517 1012 1011
4 4949 2506 4535 5808
4 4945 995 1003 994
4 5120 1002 1001 993
4 5812 5813 2077 5814
4 5815 164 165 1013
4 5759 163 1004 995
4 5811 1170 5277 5816
4 2414 2415 2566 2416
4 4517 1011 1003 1012
4 4194 166 1022 165
4 4434 2416 5817 4731
4 2415 3002 2416 3003
4 3324 5340 4841 3750
4 2416 4434 3551 4731
4 3556 3751 4731 2420
4 2417 4841 3556 3751
4 2576 3176 2698 3180
4 5789 2022 2031 163
4 3183 3454 3455 3452
4 4910 4857 1463 1454
4 5067 589 588 580
4 5490 5032 5033 5017
4 3022 3021 3026 3372
4 3372 3053 3178 3452
4 5035 4966 572 581
4 5049 1015 1006 1007
4 3206 578 569 570
4 5054 5049 5818 1015
4 5054 1014 1005 1006
4 5011 1008 1007 999
4 3860 3239 3143 3864
4 4122 1027 1026 1018
4 3001 2417 2415 2972
4 3987 3226 3702 3985
4 3008 3822 3002 3003
4 3012 4929 3937 3702
4 2846 2930 3486 2929
4 5036 1007 1006 998
4 3444 5819 5338 2930
4 4756 3444 5819 5338
4 5779 5014 981 990
4 4349 5022 5056 3648
4 5010 1016 1007 1008
4 2930 2929 3443 4257
4 2930 3443 4258 4257
4 3686 1274 4443 4440
4 5819 3443 4258 2930
4 2726 4351 5820 5745
4 5810 1009 5809 1000
4 5805 1010 1002 1011
4 5816 1180 3744 3745
4 5428 5429 5821 5432
4 4971 1522 1530 1521
4 2930 5338 3486 4258
4 2906 2904 2908 3604
4 4193 1012 1004 1013
4 4085 4087 2015 2014
4 5429 1019 1020 1028
4 2508 2510 2494 2497
4 5815 2040 2049 165
4 3673 3699 3847 3603
4 4195 1013 1021 1012
4 4521 2050 2049 2041
4 5785 2041 2032 2033
4 2497 3603 820 5584
4 2497 3699 3603 5584
4 2497 3603 5580 820
4 2497 3699 5516 3700
4 2497 2510 5580 4272
4 5165 2061 2069 2060
4 3904 5822 2579 4409
4 3327 2757 5823 4777
4 2757 2579 5823 4777
4 5063 599 598 590
4 2472 2864 4028 3298
4 4440 120 121 294
4 5054 1015 1014 1006
4 3967 2757 5823 3327
4 5005 598 597 589
4 5062 5106 5063 5064
4 4992 3967 5055 2757
4 2576 3904 3328 2579
4 4418 294 4417 4440
4 5816 5343 5824 1178
4 3088 4199 1530 1539
4 4271 1539 1548 1547
4 5146 54 617 53
4 3328 3907 3385 4990
4 2757 3328 4990 5823
4 2946 5090 2947 1026
4 2516 3035 2905 2906
4 2513 2517 2424 2514
4 2948 5148 5106 5825
4 5147 617 616 608
4 5666 1025 1016 1017
4 5010 1017 1016 1008
4 2654 3035 2907 3045
4 2438 3077 3288 3291
4 4122 1018 1017 1009
4 4450 1019 1028 1027
4 5757 5433 5090 1027
4 4122 1026 1017 1018
4 3958 5005 5063 5127
4 2641 2646 2643 2642
4 2682 2698 3023 3181
4 4520 2050 2041 2042
4 2523 2061 2052 2053
4 3904 4138 3905 3911
4 3183 2640 2401 3451
4 5799 1019 1011 1020
4 2397 2428 3041 2646
4 4194 165 1022 1013
4 2397 2304 3041 2399
4 5602 5579 3046 3105
4 5602 3035 3572 5578
4 4195 1021 1013 1022
4 5602 857 4699 856
4 5602 3572 3046 5578
4 4193 1004 4945 5815
4 5826 1031 1022 166
4 5602 848 5578 5579
4 5602 4699 857 3105
4 3573 2352 2608 5707
4 5816 3745 3743 5343
4 3805 2348 2344 2349
4 2344 2347 3477 2349
4 3176 3182 3181 3920
4 3180 2576 2760 2698
4 4521 2049 2040 2041
4 5034 1014 1023 51
4 5053 1023 1014 1015
4 3020 2650 3027 3026
4 2474 2761 2570 2758
4 3017 3314 3014 3640
4 5092 606 597 598
4 5053 1024 1023 1015
4 5064 1042 1041 1033
4 5067 589 5063 5005
4 2892 1045 1044 1036
4 5818 1024 1015 1016
4 5816 5811 1169 5824
4 5736 3641 5590 5798
4 5818 1025 1024 1016
4 5102 4168 3206 569
4 5006 597 596 588
4 3145 5112 2258 4999
4 5736 5798 5590 4899
4 3319 4923 5796 4899
4 3836 5078 4506 4985
4 2947 1034 1025 1026
4 3836 5144 5078 4986
4 4892 3643 3318 4313
4 5046 3319 4923 5796
4 3319 3584 3215 5798
4 5666 1026 1025 1017
4 3532 3530 5827 5828
4 5084 596 595 587
4 4450 1027 1018 1019
4 3319 3584 3318 3215
4 2582 3164 3928 2965
4 2464 2965 3928 2463
4 5090 1036 1035 1027
4 5053 5106 1023 1024
4 5518 4783 3946 3949
4 2816 2814 4960 2817
4 5429 1028 1020 1029
4 5829 5830 5493 5831
4 5433 1028 1037 1036
4 5816 1178 5824 1169
4 5832 167 168 1040
4 4783 3946 3094 5518
4 5518 5519 4593 4788
4 4788 5518 3094 4593
4 3038 5518 3661 4593
4 5832 2067 168 167
4 2439 2438 2447 3291
4 5638 1029 1021 1030
4 4593 4788 4026 3094
4 5833 1039 1047 1038
4 2577 3904 2579 2578
4 3183 2401 2971 3453
4 5640 1030 1022 1031
4 2640 2400 2641 3138
4 3788 3372 3026 3451
4 5256 1075 1083 1074
4 3185 4138 3911 3912
4 3184 3180 2576 3385
4 5826 1031 166 167
4 5834 1040 1048 1039
4 3180 3176 3177 2576
4 3177 4136 4137 3179
4 5106 1033 1032 1024
4 5144 616 615 607
4 3996 5364 5835 5836
4 2839 2373 3228 2632
4 5825 1033 1024 1025
4 5837 2053 2044 2045
4 5154 625 616 617
4 5825 1034 1033 1025
4 4986 615 614 606
4 5092 5127 607 598
4 5062 5106 5064 1032
4 2892 1044 1035 1036
4 3819 3565 5665 5038
4 2280 5229 4891 4856
4 4036 2179 2188 2187
4 3463 2937 2390 4095
4 2947 1035 1034 1026
4 4507 5246 5072 5073
4 2894 1043 1034 1035
4 5146 53 1041 54
4 2890 56 635 55
4 4182 1032 53 52
4 2374 3318 2934 2936
4 2809 2934 3932 3246
4 5431 1036 1037 1045
4 3918 3230 3550 3923
4 5635 2068 2059 2060
4 5838 1031 1039 1030
4 2361 2362 2221 2363
4 5432 1037 1029 1038
4 5839 1055 1063 1054
4 5832 1040 1031 167
4 5840 2660 3193 4924
4 2698 3384 3181 2699
4 2303 3334 3482 4412
4 5830 2070 2061 2062
4 5841 1047 1056 1055
4 5838 1039 1031 1040
4 3020 3021 2650 3026
4 2469 2470 2697 2471
4 4418 121 4440 1265
4 2845 2691 3248 2929
4 2914 2969 2917 2554
4 3676 5842 3732 4505
4 4356 1076 1067 171
4 2894 1044 1043 1035
4 3072 3065 3068 3415
4 4182 1032 1041 53
4 3073 3769 3070 3733
4 5064 1041 1032 1033
4 5163 1041 5064 1042
4 2659 3762 3760 3913
4 2289 2662 2290 2664
4 5843 1060 1051 1052
4 5188 635 634 626
4 4985 624 623 615
4 1265 1274 121 4440
4 5844 1051 1042 1043
4 2662 3761 2661 4927
4 3676 3151 5842 4727
4 3762 5845 3913 5840
4 4182 5064 1041 1032
4 5148 1043 1042 1034
4 3307 622 613 614
4 3977 5147 3958 5163
4 5846 1059 1050 1051
4 2659 2660 3762 3913
4 5840 5847 3193 1109
4 5077 1053 1044 1045
4 3309 613 604 605
4 2520 2527 2519 5305
4 2517 4289 4291 2519
4 2371 1121 1120 1112
4 5032 5017 4966 571
4 2250 2274 2285 2277
4 855 4474 4279 4291
4 3989 3990 3770 4651
4 5848 2078 2069 2070
4 3989 3990 4651 2512
4 5849 1578 1587 1586
4 3989 4414 4537 4415
4 4837 1406 4838 1405
4 5848 2079 2078 2070
4 5850 1065 1057 1066
4 4837 4838 1406 4239
4 4337 3765 3926 4837
4 5851 168 1049 1040
4 4640 4239 4837 5395
4 4640 5395 4837 5396
4 3925 5738 3919 4262
4 5852 1049 1058 1057
4 5850 1057 1065 1056
4 3925 3919 5738 4164
4 3800 3229 4988 3457
4 3918 3919 3925 4164
4 3918 3919 3923 3550
4 3356 3921 3230 3229
4 4356 171 172 1076
4 5853 1056 1048 1057
4 2297 2810 2807 2934
4 5854 169 170 1058
4 5149 5146 54 617
4 3916 4924 5840 5847
4 5163 1042 1050 1041
4 5079 634 633 625
4 5078 5144 5154 616
4 5194 643 634 635
4 5846 1060 1059 1051
4 3918 3800 3229 4988
4 3918 3921 3230 3923
4 5079 633 624 625
4 3663 5855 5007 4261
4 5005 5092 598 5127
4 3918 2852 3230 3800
4 5844 1052 1051 1043
4 3877 5223 5234 3878
4 5349 5272 1078 1087
4 2480 2958 2581 2478
4 5364 1061 1052 1053
4 5688 5760 5717 5633
4 4444 4450 5810 1010
4 5856 1046 1054 1045
4 2239 1558 1549 1550
4 5820 1531 1522 1523
4 3713 3714 4482 3851
4 2913 1053 1052 1044
4 3713 3577 3500 4445
4 2261 3495 3714 3851
4 5856 1046 1055 1054
4 3577 4445 5420 3500
4 2204 2206 2262 2260
4 5857 5645 5409 1082
4 4501 5194 5858 5272
4 5850 1057 5859 1066
4 5814 2078 2077 2069
4 5841 1055 1046 1047
4 2202 2601 2595 2259
4 2204 2261 2262 3495
4 5860 5861 5862 5863
4 5087 1547 5411 1548
4 3234 5864 3886 3583
4 3234 5864 3887 5767
4 3234 3237 3886 5864
4 3112 2762 3113 2288
4 2762 3113 2288 3114
4 2588 3886 3236 2593
4 5861 173 174 1094
4 5865 5833 5866 5821
4 5859 1057 1058 1066
4 5834 5867 5868 5851
4 3234 3235 3114 3236
4 3234 3114 2589 3236
4 3347 4462 3348 5301
4 2860 3884 3885 3348
4 3885 3567 3082 3039
4 5432 4151 4438 4669
4 5869 1067 1058 170
4 5188 625 5154 626
4 5218 642 633 634
4 4921 3885 5301 4173
4 3536 4441 5870 4539
4 5237 671 670 662
4 3536 3537 4587 4539
4 3140 3142 2481 2950
4 5243 653 652 644
4 5247 662 653 58
4 5072 1068 2890 1059
4 3406 2423 3381 4778
4 3536 4441 4224 4990
4 5843 1061 1060 1052
4 5246 5349 1078 1079
4 5073 1061 1069 1060
4 5245 661 652 653
4 5252 1602 5221 1593
4 3536 3385 4441 4990
4 5149 5846 1059 1050
4 5236 652 651 643
4 3449 3409 4755 4072
4 5364 1062 1061 1053
4 5871 1072 1071 1063
4 5872 1597 1606 1605
4 3447 3445 4072 5352
4 3950 606 5144 4986
4 5194 644 5243 643
4 5836 1070 1061 1062
4 5285 60 671 59
4 3447 3445 5352 2886
4 5826 5873 5812 2067
4 3447 2886 3416 3417
4 2779 2777 2877 2776
4 4151 4713 5874 5162
4 5871 1063 1071 1062
4 5858 1078 1077 1069
4 5839 1063 1055 1064
4 3447 3417 2887 2886
4 3250 5875 4021 4022
4 5876 2103 4356 5869
4 5859 1066 1058 1067
4 5644 1074 1073 1065
4 4669 5428 5471 5866
4 2845 2689 3444 3409
4 3736 2824 5877 3966
4 3713 4481 4514 5634
4 3736 4694 4218 4192
4 3735 4750 3371 5274
4 5273 4192 3736 4218
4 4675 3736 4694 4218
4 4312 3875 4939 4344
4 5813 2087 2086 2078
4 3575 3491 3520 3481
4 3477 3480 3479 4126
4 3210 4938 5680 3929
4 3481 3172 3475 3520
4 5878 2123 2122 2114
4 5869 1067 170 171
4 3711 3712 5116 3753
4 3424 5259 5260 3942
4 3389 3710 5436 5123
4 5210 5211 659 5239
4 2257 88 1571 1562
4 5072 1069 1068 1060
4 2203 3158 3155 3157
4 2205 2818 2558 2338
4 5026 651 650 642
4 5348 1097 1096 1088
4 2255 2257 1562 88
4 2607 3158 3565 3156
4 5879 2114 2113 2105
4 5073 1070 1069 1061
4 3168 2923 5880 3570
4 5836 1071 1070 1062
4 5041 650 649 641
4 2190 3383 3222 2198
4 3158 3156 4450 4122
4 3377 3378 3376 3099
4 5041 649 640 641
4 5192 1079 1070 1071
4 2759 3154 3714 5428
4 3155 4670 3157 4713
4 3309 614 3307 613
4 3541 3276 2781 3542
4 3994 5836 4507 5073
4 5881 2136 2135 2127
4 3490 3586 5882 3810
4 5646 1066 1074 1065
4 2841 4121 3982 3811
4 3459 5777 4121 3457
4 3490 5777 5883 5884
4 3493 3586 3490 3810
4 5646 1074 1066 1075
4 5867 2086 2085 2077
4 3459 3490 5777 3489
4 5255 1084 1092 1083
4 2362 2853 2364 2365
4 5885 1075 1067 1076
4 2853 3126 5152 3466
4 5088 2088 2096 2087
4 3797 3263 3796 4262
4 3279 2854 2851 2850
4 4601 2851 2854 3919
4 2340 4655 2343 5886
4 3773 4601 3771 3263
4 5255 1092 1084 1093
4 3263 4601 3771 4262
4 2707 2750 2726 2755
4 2725 5820 2726 4351
4 5198 1068 1077 57
4 2725 4351 5545 5820
4 5858 1077 1068 1069
4 4293 4294 5185 3277
4 3870 5271 5887 4073
4 5272 1078 1086 1077
4 3277 4293 5184 5185
4 5349 1079 1087 1078
4 5224 62 689 61
4 5258 666 5254 657
4 4294 5556 5185 4493
4 5888 1089 1080 1081
4 4505 5889 5871 5890
4 5265 670 669 661
4 5193 5546 5243 5247
4 3812 2016 2017 4091
4 5891 4001 5892 5208
4 5296 678 677 669
4 5326 689 688 680
4 5893 1088 1079 1080
4 4082 3357 5164 4087
4 5894 1115 1114 1106
4 4082 4092 3852 4083
4 5078 625 5188 5079
4 5309 5307 5895 5237
4 5348 1096 1087 1088
4 5645 1074 1082 1073
4 4091 5453 2837 3903
4 4091 2016 2017 5452
4 4091 2837 2834 3903
4 4082 5166 4091 4086
4 3996 5835 5077 5896
4 4091 5452 4092 4086
4 5409 1083 1092 1091
4 2833 2838 2832 2834
4 5863 1076 1084 1075
4 4809 3501 2623 2834
4 3173 2834 3501 3852
4 5057 1594 5897 5898
4 5860 172 1085 1076
4 3212 3719 2809 3210
4 2835 3173 3501 3496
4 2832 3491 3092 3475
4 5899 1085 1094 1093
4 2737 5900 2736 3366
4 3772 3622 3363 2222
4 2257 87 1571 88
4 5859 5869 4356 1067
4 3622 3363 2222 2737
4 3900 3726 3729 2185
4 2729 2728 2616 4827
4 5901 1094 1102 1093
4 3302 3310 3309 3304
4 3134 4985 3135 3307
4 2960 2961 2963 3837
4 3137 2561 3730 3674
4 5238 679 670 671
4 3950 3535 5144 2963
4 5546 1096 1095 1087
4 591 2258 2255 600
4 2214 4438 3239 5227
4 5226 672 78 79
4 2255 2257 87 600
4 2961 3309 5086 3950
4 4240 4244 2941 4252
4 5265 5248 661 660
4 5349 1088 1087 1079
4 5888 1090 1089 1081
4 3798 5436 3470 5902
4 5210 668 667 659
4 3798 5902 3470 5361
4 3798 3395 3470 5436
4 3128 2108 3127 2109
4 5618 4778 5903 4765
4 5893 1089 1088 1080
4 5130 5129 5131 4048
4 5904 1097 1088 1089
4 3692 5905 4008 3652
4 3798 3395 3799 3470
4 5321 3113 5258 5751
4 2166 3729 2167 4655
4 2941 4244 4560 4252
4 3247 4849 3253 2883
4 3249 2883 2667 4846
4 5217 648 657 656
4 5207 2123 2114 2115
4 5225 1114 1122 1113
4 2883 2667 4846 4927
4 5234 2115 2106 2107
4 5409 1091 1082 1083
4 5906 1093 1102 1101
4 2883 5907 2879 5908
4 5908 5907 4846 2883
4 5234 2116 2115 2107
4 3238 5470 3714 2820
4 5470 3859 5156 5909
4 5470 3714 2820 5829
4 5470 4825 3864 3859
4 5910 1111 1119 1110
4 5470 2820 4825 5829
4 2559 2562 3675 5469
4 5861 1094 1085 173
4 3675 4502 3674 3995
4 5911 1094 174 1103
4 2562 2559 2855 5469
4 2334 2339 2338 2556
4 2255 87 591 600
4 2559 2855 5469 5161
4 5238 5269 670 679
4 2635 3459 3493 3492
4 2214 3143 4153 3239
4 5247 1086 1095 59
4 3308 5086 3310 5827
4 5546 1095 1086 1087
4 5307 1105 1104 1096
4 5895 2879 5269 5907
4 3535 2961 3950 3134
4 2241 2591 2555 3135
4 3302 3136 2555 3305
4 5353 5331 698 5351
4 2255 88 591 87
4 5331 697 688 689
4 5322 676 667 668
4 5143 2981 2477 2986
4 5322 677 676 668
4 2467 2468 2466 2233
4 5845 1099 1090 1091
4 2465 2588 2459 2591
4 5912 1098 1089 1090
4 5904 1098 1097 1089
4 5391 686 677 678
4 5406 5890 1063 1072
4 5913 2140 5297 2141
4 4686 2591 5178 2242
4 2724 3299 3351 3349
4 5912 1099 1098 1090
4 4289 863 4279 864
4 5236 5248 651 652
4 2313 4133 3060 2568
4 4284 5097 630 629
4 2567 2568 3752 3551
4 1099 3762 5912 1107
4 5914 1092 1100 1091
4 5840 1100 1109 1108
4 3060 3059 3299 3349
4 5845 1099 1091 1100
4 2568 5500 3551 4133
4 2568 5500 4133 3547
4 5847 1110 1109 1101
4 5139 5849 3342 3345
4 5915 175 176 1112
4 5910 1120 1119 1111
4 3383 1220 1219 1210
4 3508 3929 3707 4308
4 3508 3707 3929 3930
4 2938 2944 2530 2528
4 3240 2944 3723 3212
4 5901 1102 1094 1103
4 3474 3229 3815 3357
4 4309 4938 4308 4343
4 5911 1103 174 175
4 3162 4312 2633 3211
4 3934 4926 5916 2734
4 2919 2735 3934 3933
4 3934 2918 3257 2919
4 5857 1073 5645 1082
4 4484 5917 5614 5918
4 2384 2678 3844 3847
4 5285 1104 60 1095
4 2375 2384 2676 2380
4 5307 1096 1104 1095
4 2677 5375 3699 4207
4 5071 1104 1113 61
4 5894 1114 1105 1106
4 4607 2678 4023 2683
4 2676 2380 2679 4023
4 5225 1114 1113 1105
4 5391 678 687 686
4 2384 3844 2678 2679
4 5840 1108 1099 1100
4 3490 5884 5883 5882
4 5025 5026 5239 650
4 5919 5072 4501 5188
4 4072 3416 5352 1208
4 2678 5375 5126 3847
4 3886 5920 3340 3343
4 5864 3343 5921 5922
4 5921 5204 5181 5159
4 5322 668 5296 677
4 5387 65 716 64
4 3770 4279 4732 4652
4 5133 1628 1620 1629
4 3886 2593 5923 3236
4 5406 1064 1072 1063
4 4663 5924 1146 1155
4 3234 3886 3237 3236
4 3234 3542 3887 3114
4 5915 1112 1103 175
4 2341 1103 1111 1102
4 4208 5925 307 4472
4 4208 5926 4878 4034
4 5816 1180 1179 1170
4 4208 5925 4035 306
4 3495 4825 5829 5449
4 2341 1111 1103 1112
4 4654 1139 178 179
4 4208 5762 4035 4034
4 5927 2131 2122 2123
4 3970 4034 3938 4208
4 3441 3975 3970 4569
4 4208 306 307 5925
4 5762 4208 5510 3938
4 3463 4093 4095 4116
4 3424 4432 5260 4431
4 5028 4431 3742 3943
4 5353 64 707 63
4 3193 4143 1108 1117
4 5928 5289 684 5335
4 5238 5326 679 680
4 3365 4056 5929 3153
4 5930 4847 5392 5393
4 2970 3741 3423 3425
4 5931 1115 1123 1114
4 3425 3470 3397 3710
4 3424 3709 3940 5259
4 3781 3780 4950 5724
4 2840 4121 3814 4988
4 5281 5932 1131 1122
4 4901 5727 5647 3794
4 3794 3015 3017 5727
4 4036 3419 5222 3900
4 3791 4875 4238 5641
4 3794 3017 4901 5727
4 4875 3794 5641 3791
4 5933 5934 4851 5110
4 3194 1118 1127 1126
4 5749 1109 1110 1118
4 3629 2935 3630 3631
4 3629 3246 3243 3630
4 5299 5373 5385 713
4 4094 3633 3634 3631
4 3628 4361 3635 4094
4 3582 2807 3246 2935
4 3212 2809 3719 3241
4 3240 3243 3629 3246
4 3240 3582 3629 3245
4 5749 1119 1118 1110
4 2371 1112 1120 1111
4 3620 1639 1630 1631
4 5935 176 1121 1112
4 3012 3708 3702 3937
4 5297 5862 5927 2131
4 3442 3012 2687 2684
4 3012 2684 3937 3703
4 4657 1121 1130 1129
4 3703 3937 5673 3439
4 5862 2131 2130 2122
4 3423 5339 3013 2646
4 4656 177 178 1130
4 2641 2400 2397 2648
4 3420 3473 3710 3712
4 4297 2170 2161 2162
4 3423 2649 3138 3709
4 5888 5936 5203 1081
4 2648 2646 3013 2428
4 2400 3138 2640 3468
4 4750 3735 4675 5274
4 5937 2039 236 2048
4 5225 1123 1122 1114
4 2827 2974 4557 3186
4 2827 3186 4795 3968
4 2653 2827 3186 2974
4 2410 2329 4491 2412
4 5938 1132 1123 1124
4 4077 716 715 707
4 3225 2472 4028 2376
4 3963 3327 5669 3966
4 1510 5096 1509 5939
4 4186 3253 5391 4127
4 2862 2823 2824 2822
4 4952 1491 5093 238
4 2360 3369 3740 3371
4 5932 1132 1131 1123
4 2467 2673 2631 2466
4 5931 1115 1124 1123
4 5282 1135 1126 1127
4 2462 2458 2791 3303
4 5372 4258 5279 1186
4 2950 2790 2335 2812
4 5940 694 695 703
4 2950 2216 2790 2812
4 5941 1134 1133 1125
4 5942 2154 2162 2153
4 3745 1180 1189 1179
4 4076 1159 5943 1168
4 5280 712 703 704
4 2561 2466 3676 3841
4 3858 2178 2177 2169
4 3705 5924 4714 5944
4 5929 2181 3153 2180
4 3695 1129 1138 1137
4 5283 1134 1126 1135
4 2460 3175 2785 2954
4 4191 1160 1170 1169
4 2558 2562 2212 2456
4 4276 1127 1119 1128
4 4276 1127 1118 1119
4 5070 3345 5139 3667
4 2334 2205 2558 2338
4 3875 3496 3172 3520
4 3130 5070 5139 3667
4 5945 2158 2343 2149
4 5946 2142 2150 2141
4 3284 3701 4290 1192
4 2571 191 192 1166
4 3131 3667 3130 5139
4 2713 3146 3345 3131
4 3130 3607 3690 2784
4 4656 1130 1121 177
4 4657 1129 5947 4204
4 2784 2237 1558 5410
4 2829 3667 3130 3131
4 2934 2935 4948 3246
4 4948 2935 3630 3246
4 4655 2166 2157 2158
4 2944 2807 2806 2528
4 2810 3932 2809 2934
4 5281 5353 5284 5331
4 3628 3629 3635 3636
4 5932 1123 1131 1122
4 3635 2937 2935 3631
4 3582 3629 2935 3246
4 5392 1133 5938 5948
4 5402 1158 1167 66
4 5353 5284 1140 1131
4 4075 2 66 65
4 4191 5949 5950 1151
4 5950 1150 1141 1142
4 5940 4127 695 694
4 1501 1510 5096 1509
4 2937 2933 2935 3631
4 5951 1177 1176 1167
4 2631 2674 3152 2233
4 4186 695 686 687
4 2389 2300 2937 2390
4 5951 5943 5824 1168
4 5342 694 703 702
4 2202 2259 2595 2260
4 5392 1141 1133 1142
4 4076 1159 1168 1158
4 5281 5932 5284 1131
4 3479 3481 2347 3575
4 2203 2607 2601 3156
4 5918 5917 5453 4484
4 4714 1173 1163 1164
4 5946 2151 2150 2142
4 5950 1151 1142 1143
4 2261 3851 5493 3495
4 2346 2610 2347 2609
4 2601 3575 2610 2609
4 2601 3565 2607 3819
4 5816 1169 1179 1178
4 1129 3698 1138 5947
4 5952 1146 1145 1137
4 3695 1137 1128 1129
4 2345 2943 2939 2700
4 2346 2610 3573 2352
4 3963 3967 3968 5055
4 3963 3965 2824 3966
4 4503 1175 1184 1174
4 5947 1130 1138 1129
4 5953 1138 1139 1147
4 3963 5055 3964 3965
4 2822 3326 3966 2863
4 5954 2184 2193 181
4 3225 2472 2864 4028
4 3326 3966 5781 5669
4 2822 2757 2756 3968
4 3327 5291 5286 4777
4 3419 5222 3221 4036
4 3463 4095 2390 4172
4 3635 3808 4095 5955
4 4095 4116 4093 5955
4 5284 1141 1140 1132
4 5392 1141 1132 1133
4 3225 2376 3615 2378
4 5956 67 68 715
4 5951 5957 4076 5956
4 5387 1140 1149 65
4 2761 2719 2475 2716
4 714 68 5373 69
4 4952 238 5093 2021
4 2826 2701 2831 2407
4 5335 684 692 683
4 4076 5402 1167 5956
4 2681 3181 2699 2680
4 2471 2697 3482 3908
4 5393 1141 1149 1140
4 4022 5944 3744 5277
4 5093 237 238 1491
4 5937 5958 4265 1518
4 2375 2676 2384 2385
4 3225 4028 3615 2376
4 4028 4293 4027 3298
4 2469 2472 2471 3298
4 2736 3366 2729 2737
4 3654 5391 5296 4161
4 3216 3935 3560 3254
4 684 685 5928 693
4 5959 1144 1152 1143
4 2882 4849 3253 5306
4 5824 1178 1168 1169
4 2806 3774 3834 3789
4 2729 2615 4827 2616
4 2440 2330 2918 2324
4 2728 3254 3896 3933
4 5960 1145 1154 1153
4 2728 2616 4827 5961
4 3080 4327 3083 2312
4 4074 5949 189 1150
4 3739 3827 2356 5734
4 3705 3721 3698 3704
4 5406 1063 5839 1064
4 5952 1137 1145 1136
4 3739 2354 2355 2356
4 2357 2355 2356 3738
4 2496 2866 3384 2500
4 3657 2184 2185 2193
4 2639 2612 4108 5962
4 4654 1139 1130 178
4 3848 4101 3604 3605
4 2639 4109 3807 5347
4 2636 3490 3658 3659
4 2387 3658 3622 2615
4 5963 4714 1172 5944
4 3463 2388 2639 4172
4 3313 3672 3914 4385
4 2674 3313 4727 2786
4 3840 2218 2786 2787
4 5943 1169 1159 1160
4 3313 4727 2786 4385
4 2497 5580 2510 3700
4 4075 190 2 1149
4 4074 1159 1158 190
4 2788 4384 4387 3311
4 5393 1141 1150 1149
4 4075 1158 66 2
4 2357 2360 3371 3107
4 2355 3832 5964 5734
4 5353 5284 5393 1140
4 5573 2355 3832 5964
4 5093 5612 5094 5096
4 5950 1150 1142 1151
4 5949 1150 1151 189
4 5811 4191 5959 5277
4 5965 4914 4855 5384
4 2355 2974 4041 3548
4 2355 5964 3548 5734
4 2825 3548 2827 2974
4 2356 3832 2355 5734
4 5950 1151 1143 1152
4 5960 1153 1144 1145
4 5959 1152 1144 1153
4 5966 187 1152 1153
4 4711 5580 2510 4682
4 5404 1144 1143 1135
4 5816 3745 1179 1180
4 2591 3136 3135 3731
4 3234 2590 3887 3583
4 2244 3979 2243 3151
4 2243 2591 3731 2242
4 5913 2150 2149 2141
4 4265 1527 234 1518
4 4662 1164 1165 1174
4 3151 3152 4726 4727
4 2457 2458 2459 3325
4 5427 183 1157 182
4 3676 4502 3675 4505
4 2233 2231 2241 3151
4 3895 5290 3768 4777
4 4324 5330 3589 3590
4 2997 3596 3595 3589
4 2997 2994 2999 2996
4 4606 4551 5290 3895
4 5427 1156 1157 183
4 2718 3058 5287 4352
4 3849 191 182 5
4 3589 3058 2996 5287
4 3777 2838 2624 2940
4 3781 4808 4484 5724
4 2836 4484 3781 3782
4 5967 5968 1527 4266
4 4657 2371 4656 1121
4 2624 3778 3779 3032
4 3778 4950 3781 3780
4 3781 3777 5724 4950
4 4070 3782 3781 4808
4 2940 2941 2939 3779
4 4191 1152 188 1151
4 2836 3458 2941 3780
4 4062 4779 4741 4740
4 2410 2408 4062 4491
4 4062 4125 4780 4491
4 4900 4272 5580 4682
4 4124 4282 4063 4062
4 4665 2185 3726 2573
4 4665 3726 2185 3729
4 5387 5351 5353 707
4 4191 188 1152 187
4 4661 4665 3806 4664
4 4665 3698 3727 5947
4 1510 1518 5958 5939
4 4665 3806 2573 3726
4 3603 4272 829 3604
4 4665 3806 4664 3657
4 4661 3698 4665 5953
4 5966 187 1153 186
4 2782 5441 2279 2772
4 5277 1161 1171 1170
4 2772 2782 5397 5241
4 2772 5753 5969 2973
4 2338 2603 3201 2752
4 5944 1172 1171 1162
4 3158 3156 4122 3565
4 3156 4122 3565 3564
4 4444 3154 4515 4445
4 5960 5944 5388 5924
4 4900 828 5580 829
4 2601 3819 2610 3574
4 2601 3575 2597 3576
4 2601 2609 2597 3575
4 5427 1165 5970 183
4 4607 5298 4023 2679
4 5427 3849 182 1157
4 2380 4020 2378 2379
4 3028 4023 5125 5250
4 5298 2679 4610 4019
4 3716 3721 3727 3728
4 5298 4023 2679 4024
4 2676 2678 2683 4023
4 5111 5109 2147 224
4 2379 3844 4610 3846
4 2380 4019 2679 4024
4 3371 2899 3735 2823
4 3441 4568 3440 4567
4 2824 3966 4192 2863
4 2822 3966 2824 2863
4 3736 2824 3966 4192
4 5372 714 5956 1176
4 5949 188 189 1151
4 3435 3434 3430 3599
4 3427 3437 3434 3436
4 3430 3428 3429 3955
4 2971 2403 3888 3453
4 3888 3912 3438 4037
4 4074 4075 190 1158
4 5371 704 695 696
4 3951 3599 3430 3954
4 5388 1154 186 1153
4 5315 1599 225 226
4 4581 5283 5875 5941
4 5952 1145 1144 1136
4 3427 3438 4461 3428
4 2588 3340 2457 3325
4 2588 3325 3886 3340
4 4128 1155 184 185
4 2593 3236 2987 5923
4 2593 3340 5971 2989
4 1509 1518 1510 5939
4 5408 1173 1183 1182
4 4191 1152 5966 187
4 4076 1167 1158 1168
4 3621 4187 5080 3310
4 5824 1177 1168 1178
4 4128 1164 1163 185
4 5970 1164 184 1165
4 3936 3939 4642 5972
4 5970 1155 1156 184
4 2454 2466 2561 2456
4 5388 1163 1162 186
4 5963 1172 1173 1182
4 3308 5827 2733 5358
4 3134 2557 2961 3308
4 3697 1138 1147 1146
4 3308 3621 2732 2733
4 3937 3936 4011 5438
4 4662 1174 1173 1164
4 4664 1157 1156 1148
4 4664 1156 1147 1148
4 3305 3325 4348 4689
4 3849 181 182 1157
4 5427 1165 183 1166
4 3302 3304 3303 3310
4 3849 181 5 182
4 3309 5086 604 3304
4 2604 2605 2748 2932
4 5954 180 181 1157
4 5954 1157 1148 180
4 2707 2726 2749 2727
4 2750 2238 2726 2755
4 2571 191 2193 2194
4 2480 5003 2956 4346
4 2958 3602 4233 3128
4 4568 5416 4567 5440
4 5402 66 67 716
4 2480 2957 5881 2956
4 2480 4346 2956 4205
4 5819 1188 5343 3745
4 4529 5409 5407 5255
4 5331 698 5351 697
4 2462 3303 3302 2458
4 5280 4257 5299 5940
4 4279 4288 4732 863
4 3783 1203 71 70
4 5816 5277 5811 5959
4 4258 1178 1187 1177
4 5816 5811 5824 3743
4 5111 225 2138 5315
4 5973 5222 4290 4503
4 2235 2910 2236 2233
4 2959 5974 2964 2957
4 4465 2572 2195 2571
4 5959 1152 5950 1143
4 2959 4001 2955 3166
4 2480 2479 2956 5003
4 5960 5959 1153 5966
4 5404 5959 1143 1144
4 1144 4021 1135 5404
4 5369 1195 1204 1194
4 2480 2964 5881 2957
4 3459 3592 3489 5777
4 5957 5299 5371 705
4 4289 4288 4279 863
4 4121 5778 3982 3811
4 3459 3587 4121 5777
4 4121 3457 5777 4988
4 3655 686 4127 685
4 5973 4045 4290 4359
4 4128 1154 5924 1155
4 5960 5952 1145 1144
4 5960 5924 5388 1154
4 4121 3811 3813 5778
4 5354 1554 231 1545
4 3697 1146 1137 1138
4 5427 3849 1166 182
4 2330 2321 3935 2920
4 4279 4732 4652 854
4 1125 5975 1116 1124
4 3935 4639 3896 5520
4 3254 5525 5520 3933
4 2735 3254 2728 3933
4 2728 3897 5961 3933
4 3729 2176 2175 2167
4 5953 1148 1147 1139
4 2430 3219 2272 2265
4 5313 5976 4749 4690
4 5313 3044 2310 4995
4 5423 1148 1139 179
4 2398 2400 2970 2648
4 5423 179 180 1148
4 4665 5953 3657 4664
4 5313 3044 5977 5976
4 3293 3299 5609 2864
4 2826 2827 3968 3186
4 2831 3278 2864 2862
4 3294 2472 2864 2719
4 2864 5184 3277 4293
4 5951 1167 1168 1177
4 5956 1167 1176 67
4 1142 1143 5948 5950
4 2864 3277 3293 3278
4 3072 3065 2370 2342
4 2235 3148 2285 2283
4 4258 1187 1186 1177
4 3064 3070 3073 3074
4 3745 1188 1179 1189
4 3072 3070 2342 3734
4 3074 4591 3068 3064
4 3073 3074 3070 3671
4 5367 701 692 693
4 3853 3855 3856 3854
4 5966 186 1162 187
4 5924 1146 1154 1145
4 4756 1197 1198 1207
4 4256 1196 1195 1186
4 3448 3853 3854 3721
4 4107 691 682 683
4 5288 675 676 684
4 5282 1136 1135 1127
4 3655 685 677 686
4 3998 3854 3853 3856
4 2873 2876 2897 3388
4 3855 2169 2170 2178
4 2915 2250 2279 2275
4 3541 2781 2276 2772
4 5924 1155 1154 1146
4 2554 3881 5793 4697
4 4663 1147 1155 1146
4 5935 1112 2341 5915
4 3276 2541 5751 2542
4 5970 184 183 1165
4 4755 1188 1189 1198
4 5963 1182 1181 1172
4 4288 4279 4231 4289
4 3276 2541 2542 2537
4 3284 193 194 1184
4 4714 1164 4662 1173
4 2773 2276 2778 2781
4 5065 1189 1180 1190
4 3720 1190 1200 1199
4 3541 2288 2274 3276
4 4581 5941 5975 5283
4 5585 2541 5751 2781
4 2541 5751 2781 3276
4 4756 5819 4755 1197
4 3695 1127 1128 1136
4 3618 2968 4048 2915
4 3051 1202 1193 195
4 2842 2632 2839 3474
4 3066 2160 2169 2168
4 3318 3215 3584 2936
4 2571 1166 2193 191
4 3318 3932 3510 4313
4 5372 1177 1186 1176
4 3319 5796 3318 3584
4 4734 3646 4737 4735
4 3281 3262 3644 3268
4 3268 3281 3264 3647
4 4183 1205 1204 1195
4 5372 1186 1185 1176
4 3646 3281 5978 3280
4 3647 4734 3272 3646
4 2746 3647 3646 3644
4 2364 2852 3550 2854
4 3815 3924 3357 3921
4 5367 5368 702 5342
4 2842 2833 2528 2808
4 5283 1125 1126 1134
4 4204 1120 1129 1128
4 5979 4288 5604 4732
4 3173 3474 2834 3852
4 2228 2366 2362 2361
4 5937 5939 1518 1509
4 5937 236 1509 235
4 4747 4748 1400 106
4 3232 3457 3800 3592
4 3919 2851 2854 2852
4 3918 3925 3592 4164
4 5523 3179 5532 3920
4 4657 1129 1120 1121
4 4686 2242 5178 5040
4 5343 1187 4258 1178
4 3722 3695 4276 4204
4 5523 3053 3178 3182
4 5523 3179 3178 5477
4 5523 3053 3452 3178
4 5523 5477 3178 3452
4 2897 5270 5271 5352
4 3423 3941 2649 3709
4 4290 1182 1192 1191
4 5980 2143 2142 2134
4 3423 5687 2649 3941
4 4755 1199 1198 1189
4 2888 3917 4357 3386
4 3013 5341 2972 5339
4 2925 1630 1639 1638
4 3012 3011 2686 3703
4 5981 2152 2160 2151
4 3855 2170 2179 2178
4 2240 1531 3088 2726
4 3284 193 2195 2196
4 3389 3398 3397 3710
4 2927 2916 5460 5133
4 3090 2726 3089 5745
4 4747 4692 1391 5574
4 5436 3470 3389 3395
4 2726 2238 3088 2240
4 3085 2932 2625 3749
4 4256 1196 1186 1187
4 4634 4256 4183 5369
4 3085 3090 3089 3086
4 3085 3088 2726 2238
4 2659 3762 2663 3760
4 5367 692 5362 5335
4 5374 71 5403 711
4 3057 2998 2316 3767
4 1188 1197 5819 1187
4 5768 5183 5275 5982
4 4755 1190 1199 1189
4 3715 3858 2169 3855
4 3725 3724 5963 3705
4 5983 3762 5845 3913
4 4752 4732 5604 5594
4 3284 3051 3701 1193
4 5984 1624 1633 1632
4 3762 3913 5983 3760
4 2659 2245 3760 3759
4 2661 2659 2660 3761
4 2256 2505 2255 1562
4 5495 1124 1115 1116
4 5985 2140 2139 2131
4 5842 5235 5889 5936
4 72 71 5403 1212
4 5289 683 674 675
4 3224 1201 1202 1211
4 5986 4185 5359 5987
4 3051 195 1193 194
4 2663 3759 3760 4396
4 5190 1647 1646 1638
4 3762 5912 5904 3760
4 4350 2505 583 592
4 3762 5912 5329 5904
4 3701 1192 1193 1202
4 2904 4272 2906 2905
4 2657 3992 2405 3187
4 2678 2681 5375 2677
4 4072 1207 1198 1208
4 5988 1637 1636 1628
4 2420 2566 2567 3551
4 5982 1625 1634 1633
4 3011 4431 3742 4430
4 4731 3556 2420 2416
4 5988 1636 1627 1628
4 5989 1236 202 1235
4 3001 3823 3009 3324
4 4143 1117 1116 1108
4 2419 4716 5341 5340
4 5990 703 712 711
4 2640 4006 3139 5051
4 5368 711 710 702
4 5991 1222 1221 1212
4 5992 1660 5244 4201
4 4015 4642 4509 5505
4 4003 3139 4006 3756
4 3420 3422 3754 3426
4 3712 3422 3754 3420
4 5990 703 711 702
4 5993 1624 1616 1625
4 4003 4004 3784 4005
4 5991 1222 1212 1213
4 5288 676 685 684
4 5314 1214 1205 1215
4 5585 2542 4295 5344
4 5986 5991 1222 5359
4 5372 714 5957 5956
4 3159 5112 1570 1571
4 5928 5367 693 4203
4 5928 4628 4295 4304
4 5928 4295 2540 5288
4 5994 1234 5995 1235
4 5996 5991 1213 1222
4 5928 685 5288 4203
4 4072 1208 1198 1199
4 4072 1199 3416 1208
4 5928 5288 685 684
4 5928 5289 4295 5288
4 4073 1207 1208 1217
4 4106 682 5316 4107
4 3052 195 196 1202
4 2930 3444 2847 3486
4 5997 5946 2151 2150
4 2845 3444 2249 2847
4 3247 2691 3250 2667
4 5981 2161 2160 2152
4 3701 1193 3051 1202
4 2929 2539 5998 3486
4 2658 3989 2656 3991
4 4073 1216 1207 1217
4 3396 1209 1210 1219
4 5999 6000 5982 1634
4 80 663 6000 79
4 3699 6001 3700 4207
4 3603 3699 3847 5584
4 2677 3699 5375 3847
4 2859 2386 3274 2301
4 3387 3386 5355 5356
4 3885 3082 4174 3039
4 3557 3093 3219 3063
4 5386 1212 72 5403
4 3389 3393 5436 3395
4 5374 1203 1204 1213
4 5996 1205 1214 1204
4 4288 4732 862 5604
4 4071 1207 1216 1206
4 3460 4801 3465 6002
4 3062 2617 3063 3465
4 5280 5342 5940 703
4 2446 3320 3408 3322
4 5996 5314 1223 1214
4 6003 1221 1222 1231
4 2594 3926 4329 3559
4 3557 3563 3216 3560
4 3267 3899 3082 3567
4 4914 76 77 690
4 4607 5126 2683 6004
4 5126 3847 5522 4030
4 5126 3847 4030 4614
4 4627 5367 4634 4298
4 5938 5931 1124 1123
4 4106 682 681 673
4 5126 5561 3031 6004
4 3110 3763 3108 3766
4 2594 3174 2433 3927
4 5987 1224 1233 1223
4 4855 4853 75 708
4 4640 3084 3076 4995
4 6005 2182 2191 2190
4 6006 1217 1208 1218
4 5969 1632 1640 1631
4 5271 1216 1217 1226
4 3110 4640 5396 3084
4 4337 3765 3927 3926
4 2440 3374 2324 3169
4 2888 3386 5791 3917
4 1211 2754 197 196
4 6007 5270 6006 1218
4 3935 3927 4639 2321
4 2594 3560 3926 3559
4 6008 1227 1236 1226
4 2721 4716 2425 2418
4 4398 3752 2418 2723
4 2592 198 1229 1220
4 2722 2721 4398 3333
4 4398 3554 4540 3750
4 4398 3554 3333 4787
4 4398 2418 3750 4716
4 2608 3207 3205 3819
4 3171 3211 3210 2809
4 5357 3201 3200 2608
4 3573 5637 2608 5357
4 4127 694 686 695
4 5271 2897 3388 5270
4 3201 3200 2608 3202
4 5887 1216 1225 1215
4 3655 676 677 685
4 5992 6009 6010 1668
4 2610 3819 2608 2352
4 4288 871 4792 5648
4 2608 5707 5019 5637
4 4915 5992 1659 5244
4 1649 1658 1650 5360
4 5270 1227 1217 1218
4 3573 3533 2606 2351
4 2338 2962 3201 2966
4 5271 1225 1216 1226
4 3199 3196 3197 3200
4 3199 3203 3197 3198
4 5986 5987 5359 1223
4 3399 3392 3391 5673
4 3199 3202 3207 3205
4 1659 5442 5360 1658
4 6011 5355 5356 1657
4 5336 208 1230 207
4 4184 1234 1233 1224
4 2607 2608 3819 3207
4 3601 4034 4878 5370
4 2882 4849 4161 5907
4 3203 3201 2962 2966
4 3416 3418 1209 1200
4 3819 3565 5809 3574
4 5019 3205 3819 2608
4 3158 4450 3155 5757
4 2592 197 198 1220
4 5018 5489 3480 5075
4 3479 2610 3819 3574
4 3479 3481 3575 5076
4 3151 4726 2236 3914
4 592 2258 591 600
4 2669 2191 2182 2183
4 6005 3153 2443 5929
4 5531 6012 5842 5893
4 3151 5531 3732 5842
4 5531 3760 5904 5893
4 5531 6012 3732 5842
4 3760 5842 5893 5531
4 3732 4423 4469 6013
4 3979 6013 3732 5531
4 2243 4423 4469 3732
4 2569 2200 2201 198
4 5325 5451 724 3609
4 4853 3 708 74
4 5996 1214 1223 1213
4 2404 2377 2378 2411
4 3078 3290 3828 3292
4 2521 2514 2424 4494
4 2449 2422 2423 2421
4 4854 1678 1669 1670
4 4494 2421 3288 3289
4 3291 3288 3322 4643
4 3375 3380 3379 3483
4 2533 1228 1237 1227
4 2493 2267 3321 3484
4 2365 3163 6014 3125
4 3550 2364 3126 3230
4 2853 2854 3126 3466
4 2366 3637 2365 2367
4 5359 1231 1222 1232
4 5249 1677 206 205
4 2365 3125 2853 2364
4 5989 6015 6016 1673
4 2930 3486 4257 4258
4 6017 204 1233 1234
4 4853 1230 208 74
4 6018 4869 4123 5988
4 6019 1675 1674 1666
4 2634 2367 2365 3163
4 2854 3126 3466 3550
4 5995 1234 1225 1235
4 4938 3481 5680 3480
4 4997 3883 3520 3575
4 6019 1674 1665 1666
4 4939 3481 3480 5076
4 4871 221 2174 222
4 4997 3575 3481 5076
4 3171 2700 3475 2833
4 5489 5486 5018 3480
4 5018 5488 3479 3480
4 2532 1229 1238 1228
4 5270 5271 1226 5995
4 4939 4342 5014 5489
4 3480 5486 4342 5489
4 4831 1662 219 1653
4 3595 5330 3589 3596
4 3159 2257 1571 1562
4 5302 3609 5325 725
4 2687 3526 2992 3036
4 2575 2587 3024 3023
4 2714 3058 2720 3816
4 5249 6017 6020 1676
4 2564 2998 2991 3000
4 5336 1230 1231 207
4 6011 1657 1665 1656
4 3767 3590 3259 5370
4 3767 4677 3590 5370
4 2880 2879 5296 5269
4 2672 2883 5908 4927
4 6015 1237 201 1236
4 2289 2664 4425 4394
4 4692 1382 1391 1390
4 2880 5296 3654 2881
4 2880 5197 2879 5265
4 2672 2883 2879 5908
4 6017 205 1233 204
4 2672 3654 2880 2879
4 2551 2550 3879 3881
4 2279 2871 2926 2925
4 2278 2552 2554 3881
4 2550 3882 3881 3880
4 2505 592 2258 591
4 2926 5190 3882 5460
4 3028 5250 5167 4025
4 2551 2891 3368 2549
4 5045 5514 4979 4961
4 2926 5190 5105 2889
4 6016 1665 1674 1673
4 4496 4497 4806 4498
4 4497 4806 4500 4496
4 4498 4497 4806 5655
4 2332 2331 4497 2923
4 2436 200 1237 1238
4 2332 2923 2918 2324
4 2332 2320 2321 2319
4 3557 3063 3367 4331
4 4497 5655 4498 2923
4 2332 2331 2321 2320
4 4438 5228 5227 6021
4 6008 1236 1235 1226
4 6022 1672 1663 1664
4 4438 4669 5471 5866
4 4692 1382 5575 4691
4 2255 2257 88 87
4 1382 4692 1391 108
4 4438 5432 5866 4237
4 4438 4151 4237 6021
4 2213 2215 3864 2820
4 6023 221 220 2183
4 3840 4151 5227 4150
4 4747 4748 4749 1400
4 6024 5227 6021 4151
4 5227 6021 4151 4438
4 2819 3238 4438 4669
4 2819 4669 2254 2820
4 4762 3133 3637 6014
4 4310 4905 4762 3637
4 4762 4905 4958 954
4 3649 3648 1563 5056
4 4762 4936 3315 5716
4 4762 3133 946 5716
4 4762 5716 945 4936
4 3678 330 117 321
4 6022 1673 6016 6015
4 6022 4830 1672 6015
4 6025 4466 209 1680
4 6022 2533 4830 6015
4 5763 286 285 277
4 6026 1681 1680 267
4 6025 6027 6028 6029
4 6025 266 1769 7
4 6022 3917 2442 5791
4 6022 5791 2533 6016
4 5430 5757 5433 4713
4 3714 5471 6030 5814
4 3678 117 118 321
4 3714 5829 3851 3495
4 3714 5848 3851 5829
4 3713 3851 4482 5634
4 3238 4669 3714 5471
4 3714 5471 5428 6030
4 4303 295 287 296
4 6025 1680 6026 6028
4 3451 3026 3021 3372
4 2991 3588 2999 2994
4 2991 3526 2688 3525
4 5801 3817 2720 3816
4 4324 3590 4677 5330
4 6026 6028 1680 1681
4 3767 5370 3259 4677
4 3662 3259 5370 3601
4 2998 3589 3590 3767
4 5900 2736 4989 3363
4 4368 277 278 286
4 6025 7 1680 209
4 4466 210 1240 1239
4 4420 1240 210 211
4 4302 305 304 296
4 5900 5883 6031 3658
4 2737 5900 3366 3622
4 5900 4972 3366 6032
4 5900 4989 6032 5479
4 5900 3622 3591 3658
4 4138 3906 3905 4485
4 4138 3906 4485 4471
4 3904 3328 2579 5822
4 5642 5056 3649 1572
4 4138 3912 4666 4471
4 5400 1268 1276 1267
4 4419 314 313 305
4 4137 4666 4138 3185
4 3184 4136 4138 4137
4 99 4857 492 483
4 4138 3911 3912 4478
4 3447 3416 2886 5352
4 3409 3444 3410 4755
4 2247 2536 2692 2691
4 3445 4073 2876 3616
4 2249 3616 2877 2847
4 2672 2538 2666 2290
4 2672 2881 2880 3654
4 2667 2672 2538 2666
4 3249 4846 3250 5875
4 483 4910 4857 4856
4 4832 1716 1725 213
4 4911 4918 4116 1461
4 2661 3761 3191 4927
4 99 100 4857 483
4 3247 3249 3250 3252
4 4370 10 278 277
4 1454 4857 1463 100
4 100 4857 483 1454
4 2661 4581 3191 3192
4 2501 6033 2506 4795
4 2501 2506 6033 2499
4 2498 2499 2501 3538
4 4508 3506 5467 5107
4 3536 2501 4992 3538
4 4069 312 4401 313
4 4014 1262 1261 1253
4 3536 4992 3382 4990
4 3950 5092 5006 3197
4 4424 279 287 278
4 6034 1254 1263 1262
4 6035 1717 1718 1727
4 4832 214 1244 1243
4 5045 5030 4343 4307
4 5358 5006 3196 3197
4 5084 5358 5006 3196
4 2093 2102 230 5056
4 3199 3203 3207 3201
4 4349 5056 2093 230
4 4119 1735 6036 1734
4 4305 214 215 1244
4 4373 1726 1716 1717
4 4369 1734 1743 215
4 3201 3200 3197 5358
4 3203 2963 3197 3198
4 4069 313 322 321
4 5609 6037 3351 5511
4 4322 4533 1258 1257
4 3424 3711 3940 3709
4 6038 1246 1255 1254
4 4322 4054 4055 1266
4 5259 5492 3942 6039
4 3940 3944 5259 5122
4 5259 3944 5492 5122
4 5938 5284 4847 4849
4 2649 3709 3757 3756
4 4369 215 216 1245
4 6038 1245 1246 1254
4 3940 5122 5259 3758
4 5045 4177 5030 4307
4 4553 1290 5772 5700
4 5259 5454 3758 5122
4 4367 1247 2872 123
4 4509 6040 6041 1271
4 3422 3756 4451 3755
4 3426 3755 3758 6042
4 5763 276 277 285
4 2649 3941 6043 3757
4 3424 3940 3710 3741
4 4371 1743 1752 216
4 3426 3711 3709 3758
4 3426 6042 3757 3756
4 2872 8 217 1752
4 5259 6039 3942 3757
4 5259 5122 5506 5454
4 2854 4602 4601 3550
4 4051 276 2872 8
4 5045 5030 4944 4979
4 4371 6044 2872 1752
4 5418 6035 6045 4426
4 3262 3264 2850 3263
4 6046 5417 1745 1744
4 6047 265 1778 266
4 4318 1257 1266 263
4 2634 2368 2363 2364
4 3528 3838 3529 2857
4 3528 3664 2813 2727
4 4315 1786 1778 1787
4 2727 2707 2709 3528
4 2725 2707 2709 2727
4 6048 6049 1284 261
4 5045 5030 4178 4944
4 3625 3257 5721 2918
4 3934 5654 2918 2922
4 4533 1258 1257 1249
4 6027 1239 1240 1248
4 6048 1823 1814 261
4 4533 1248 1249 1257
4 6029 6050 6051 1768
4 2332 2919 2918 2922
4 3255 2918 2919 3257
4 3516 1708 1707 1698
4 3516 6028 1690 1689
4 2332 2923 4497 4498
4 4299 1249 1240 1241
4 4439 1252 1243 1244
4 2918 3257 3169 3625
4 2918 2324 2923 3168
4 6034 1262 1253 1254
4 3168 2918 3169 3625
4 6052 1277 5400 4434
4 6053 297 296 288
4 5481 1717 3518 1708
4 2689 3409 3445 3444
4 2877 4589 3870 2875
4 2777 3485 2847 3869
4 5766 6054 4119 6038
4 3507 6055 1719 1728
4 4509 1280 1279 1271
4 5365 5764 4416 4417
4 4118 3518 4439 3488
4 4504 331 330 322
4 2777 4295 2844 4304
4 2541 2540 4295 2542
4 4599 1272 1280 1271
4 4381 4374 4429 1756
4 2541 4295 2540 2844
4 6056 6049 6048 1814
4 4367 285 122 276
4 5763 4051 277 276
4 4418 4417 1256 1265
4 2773 2276 2781 2772
4 2535 2251 2537 2276
4 5365 5416 5418 5766
4 2534 2666 2290 2536
4 5416 5766 6045 5418
4 4240 4242 4241 4250
4 6057 1272 1263 1264
4 2941 3780 3458 5473
4 2940 2941 3779 3780
4 2531 3981 3476 3458
4 5900 3366 4972 2736
4 3366 2615 3653 4827
4 5900 3366 3622 3658
4 3591 5883 5735 5479
4 2638 2615 3366 3658
4 4533 6058 1248 1257
4 4533 1257 4318 6058
4 6032 3653 4972 3366
4 2660 1108 3193 4143
4 3934 2919 6059 2922
4 2440 2918 3257 3169
4 2440 3255 3257 2918
4 2330 2920 3935 2919
4 3517 6051 6028 3985
4 3934 3933 6059 2919
4 4531 332 324 333
4 3254 2919 5525 3933
4 3455 3452 774 775
4 3517 1700 1690 1691
4 5505 1270 1269 1261
4 5925 307 316 315
4 2332 2330 2919 2920
4 5925 315 306 307
4 4434 1269 1278 1277
4 4600 340 339 331
4 2919 5525 2921 2920
4 3194 3191 3193 1117
4 5425 4364 1694 1703
4 3951 3953 4448 3955
4 4417 1255 1256 1264
4 3951 3953 3472 4448
4 3467 3599 2395 3469
4 5416 4426 4567 5417
4 5503 1269 5505 1270
4 3467 3599 3472 3468
4 4302 296 4303 4449
4 4418 285 294 121
4 3686 4443 1274 1283
4 4365 1711 1710 1701
4 6013 4396 5531 3979
4 3599 3951 3435 3471
4 5764 6038 1255 1254
4 4018 3798 5108 3952
4 5389 4599 1272 1281
4 5261 6060 4725 5509
4 4416 5764 6038 1255
4 3153 3332 2180 2188
4 3552 1279 1288 1287
4 3471 5361 3470 3473
4 3881 5795 3879 2552
4 3881 6018 6061 3880
4 4318 6058 264 1787
4 2874 2889 2926 2871
4 2551 2549 2552 3879
4 2554 5793 3881 2552
4 6062 1285 1284 1276
4 2554 4798 4697 2917
4 3881 4697 4798 6061
4 2981 2453 2987 2989
4 4322 1257 1258 1266
4 2950 2783 2953 2775
4 2954 2783 2785 2953
4 2588 3583 3886 3325
4 6063 4365 1710 1701
4 3886 3237 6064 5922
4 4532 1267 1259 1268
4 3886 2593 3340 6064
4 6065 1268 1259 1260
4 4323 749 758 757
4 3928 2463 3236 2987
4 3349 1314 1305 1306
4 6054 4305 1245 1244
4 6065 1268 1260 1269
4 4526 332 331 323
4 4509 1262 1270 1261
4 2589 2763 3236 3114
4 3679 119 1292 1283
4 3234 3583 3887 5864
4 5534 5499 1294 1285
4 2968 2965 3236 4049
4 2910 3672 3311 3312
4 4134 1280 1288 1279
4 4487 324 4473 315
4 1273 6057 4417 1264
4 2910 3672 3313 3311
4 3148 4464 2910 3166
4 5766 6036 4416 6038
4 3152 2236 3313 2910
4 2959 4000 2964 5974
4 3979 4396 5531 3759
4 3686 4440 303 120
4 4321 4320 338 329
4 4134 1289 1288 1280
4 3148 3672 4464 3671
4 2317 2578 3767 3259
4 3545 3333 4787 3546
4 2414 2565 2566 2415
4 4443 6057 4417 1273
4 2305 3333 3334 4412
4 4442 4440 294 303
4 3686 3679 3901 1283
4 4410 3333 4716 2305
4 2305 2643 4410 2642
4 6066 1886 253 1356
4 2546 254 6066 1877
4 3482 3544 4412 3334
4 6066 253 254 1347
4 2666 2691 2538 2667
4 2663 3761 5328 3762
4 3762 5328 1107 4143
4 262 261 6049 1814
4 4573 3333 4412 3544
4 3294 3334 3300 3482
4 3553 6067 4572 6068
4 2721 4716 4398 3333
4 6062 6049 1275 1284
4 5400 1276 1268 1277
4 2663 3762 5904 3760
4 3719 3509 3211 3929
4 5028 5031 4365 4364
4 3594 4483 4069 4419
4 3552 1278 1279 1287
4 6052 1277 1286 1285
4 2835 3520 3172 3496
4 4513 334 333 325
4 6069 4365 5029 1710
4 4462 3124 3793 4833
4 3096 3406 3098 4462
4 4462 4794 3124 4833
4 4462 3098 3124 3123
4 4555 341 340 332
4 3762 5840 2660 1108
4 4794 3123 3404 4462
4 5389 1273 1281 1272
4 6054 1253 1244 1245
4 2650 2644 3030 2647
4 4443 1274 1282 1273
4 3183 3185 2401 3453
4 4599 1281 1280 1272
4 2864 2865 3278 3293
4 3020 2650 3023 3024
4 2697 3028 4025 4023
4 4215 4217 769 4216
4 2697 3056 3908 5167
4 5389 1282 1281 1273
4 3678 321 4069 4504
4 4553 1290 1281 1282
4 4473 4526 323 4531
4 3028 3056 5167 5261
4 6052 4434 4731 5498
4 3029 2682 3031 2683
4 4443 1283 1282 1274
4 3030 2644 5261 6070
4 3678 3679 118 1292
4 3678 4548 1301 5748
4 5772 1299 1290 1291
4 5564 824 815 143
4 3739 5734 2355 4041
4 2355 3548 4041 5734
4 2663 5328 5195 5329
4 2358 3083 3084 4142
4 4757 5177 249 1922
4 3478 5104 2292 4163
4 3478 5104 2351 2292
4 6071 4541 5340 1803
4 6049 262 1814 1805
4 6048 1284 1293 260
4 3478 3521 4126 4163
4 2351 2292 5104 3838
4 2344 2294 3478 2351
4 4541 1812 1803 1804
4 3477 5680 3481 3480
4 5044 2294 3839 3663
4 5499 1285 1286 1294
4 2346 2353 2351 2606
4 2398 3013 2972 2428
4 4554 349 348 340
4 5475 1797 1806 138
4 4552 1289 1280 1281
4 5534 6056 6062 6048
4 3008 3010 3227 5318
4 5700 1298 1289 1290
4 5522 5584 812 4030
4 3742 3703 3011 4929
4 3054 776 785 784
4 6072 5527 5528 5439
4 4065 1808 1799 1800
4 3442 3936 3937 5438
4 5448 4447 731 5450
4 4552 4599 5389 1281
4 6073 1799 1790 1791
4 3678 4548 1292 1301
4 2686 3666 3703 3742
4 3010 4430 3011 3227
4 4549 4554 348 339
4 4552 1290 1289 1281
4 5119 5122 3940 3758
4 3679 118 119 312
4 4716 6074 2740 6075
4 4430 5028 3742 3227
4 3423 3013 5339 4433
4 5192 4507 4505 5836
4 4553 1291 1290 1282
4 3761 2660 3191 4143
4 4483 4473 314 4033
4 5324 132 5325 1688
4 2462 2732 2791 2556
4 4561 1308 1299 1300
4 3730 4506 3674 3994
4 3676 3730 3732 2241
4 2477 5220 2986 2479
4 2477 6076 3694 2985
4 2476 2774 2477 2481
4 5534 1293 1284 1285
4 2476 2482 2479 4233
4 2477 3694 2481 2775
4 2981 2985 2477 2775
4 4570 1832 1841 1840
4 3442 3936 3012 3937
4 3937 3702 4929 6069
4 3708 4013 3002 3702
4 3000 3662 3259 3590
4 2539 4628 4127 5998
4 6062 6048 6049 1284
4 3588 3037 4599 4134
4 2394 2685 2688 2687
4 4413 1311 257 258
4 3439 3440 3442 3937
4 3937 5438 4011 3440
4 4834 1289 1298 1297
4 4065 1809 1808 1800
4 3547 1296 1297 1305
4 4834 1289 1297 1288
4 3442 2685 2688 3938
4 4597 5024 348 357
4 3936 5972 5438 3939
4 4597 358 357 349
4 4534 350 359 358
4 2853 3121 3122 2850
4 3547 1305 1297 1306
4 2853 2854 3283 3121
4 2861 4738 2850 3122
4 4600 5287 4606 5323
4 2362 3122 2861 2850
4 4600 339 330 331
4 5700 1299 1298 1290
4 2362 2228 2221 2861
4 5199 339 1310 116
4 3121 5668 3283 4598
4 3122 3642 5716 3133
4 3678 118 1301 1292
4 5772 1300 1299 1291
4 5772 5700 1290 1299
4 5529 1333 1325 1334
4 4608 4630 360 369
4 5748 1301 1309 1300
4 3122 3016 6077 5716
4 3122 4739 3120 6077
4 4409 6078 3905 4495
4 4738 3121 5668 3281
4 4353 1317 1308 1309
4 5563 806 797 141
4 6079 6080 5624 1912
4 6056 1814 1822 1813
4 2365 3122 3133 3642
4 2656 2657 3187 3992
4 2768 2900 2901 2903
4 5522 803 811 802
4 3768 2578 4324 3057
4 5074 366 4525 113
4 5555 5528 1833 1834
4 5561 803 794 795
4 2471 2697 4025 4023
4 2378 4020 2411 2379
4 3351 1313 1305 1314
4 2375 2377 2411 2378
4 2831 2765 2900 2901
4 4604 360 359 351
4 4609 361 360 352
4 3817 1306 1297 1298
4 4548 1300 5772 1291
4 3820 1317 1316 1308
4 2411 2378 2409 4020
4 4600 4526 331 4504
4 6081 6082 1774 1775
4 5801 1307 1298 1299
4 4549 5024 348 4554
4 2555 2591 3136 3135
4 5548 1314 1315 1323
4 2562 3675 4156 3841
4 2559 5469 3675 3996
4 3678 5748 5199 4504
4 2895 5161 2967 2960
4 2461 2560 2559 2563
4 5781 5788 4676 5413
4 2338 3980 2752 2962
4 5801 1308 1307 1299
4 1365 6083 1904 5550
4 2498 6084 3539 3537
4 2212 2819 2558 2213
4 2855 2559 2558 2818
4 2950 2452 2216 2211
4 4561 1309 1308 1300
4 3087 3749 2625 4767
4 5748 1301 1310 1309
4 5293 4554 4600 4555
4 4550 1309 5748 1310
4 5788 1326 1317 1318
4 2908 5579 5578 4101
4 4767 4059 5742 5099
4 4767 4061 4059 5099
4 4095 2937 3635 3461
4 2933 2936 6085 3584
4 2934 6085 2933 2936
4 2934 3932 3246 4948
4 4570 4413 1841 6086
4 2300 2937 3189 3188
4 2300 3188 2936 2933
4 2600 2339 2712 2752
4 6087 6067 6088 4267
4 3203 2966 2949 3207
4 5325 131 1688 132
4 5051 4006 768 767
4 5496 1826 1817 1818
4 6089 4063 4742 4147
4 2598 2607 2602 2603
4 6037 1313 1322 1321
4 2602 2967 2966 3157
4 3819 3207 3205 5665
4 6090 1312 1304 1313
4 2824 2862 2863 4192
4 2822 2824 2862 2863
4 3820 1308 1316 1307
4 3818 1315 1306 1307
4 4578 1316 1325 1324
4 5562 1816 1815 1807
4 4741 1883 1892 1891
4 2826 2701 2758 2831
4 4626 368 367 359
4 4033 305 4035 306
4 4630 360 369 368
4 4210 332 4531 333
4 2822 3327 2757 3968
4 4555 332 4210 341
4 2995 3817 3547 1297
4 5877 3966 4694 3736
4 5598 1354 1363 1362
4 4605 376 375 367
4 4550 1318 1309 1310
4 3091 3034 3032 3033
4 2294 2350 3665 3663
4 4504 3594 4548 5323
4 4549 116 1319 1310
4 2344 2293 3805 3523
4 2892 2894 1044 2913
4 2868 90 573 89
4 2294 2291 3665 2293
4 4353 1318 1317 1309
4 3805 3212 3723 2348
4 2294 3533 2353 3528
4 4550 1319 1318 1310
4 4554 4550 4549 5024
4 5024 115 1328 1319
4 2868 4046 2869 1544
4 4223 1949 246 1419
4 4269 1320 4270 1329
4 3966 5669 3965 5877
4 4413 1320 257 1311
4 2826 3968 2822 2756
4 3225 2864 3277 4293
4 2715 3326 2716 4775
4 5262 6091 6092 5267
4 4413 1311 6088 1320
4 2570 3326 2758 2716
4 3326 5669 3327 3966
4 2570 2757 3327 4777
4 2863 2862 2865 4192
4 2487 2742 3270 2743
4 5571 1321 1322 1330
4 3913 5983 3760 3914
4 5513 1826 1825 1817
4 3273 3647 3272 3270
4 5291 6093 4609 5290
4 2491 2268 2267 2742
4 2746 2743 2747 3865
4 5586 824 823 815
4 5511 1322 1314 1323
4 2326 2324 3168 2982
4 3546 1830 1838 1829
4 4235 811 810 802
4 3865 2747 5674 2743
4 4696 1324 1332 1323
4 4649 377 376 368
4 4650 369 378 377
4 5529 1325 1333 1324
4 3821 1325 1316 1317
4 5573 6094 4745 5657
4 6095 1335 1326 1327
4 2491 2742 2743 3668
4 4600 4554 4550 339
4 2491 2746 2268 3668
4 2904 3603 3604 4272
4 4625 1319 1328 1327
4 4676 1326 1334 1325
4 4648 4629 385 4090
4 5788 1327 1326 1318
4 4625 1319 1327 1318
4 3110 3081 3765 4640
4 5074 357 4603 366
4 2329 2983 5705 2982
4 6095 1327 1336 1335
4 4090 393 385 394
4 2354 3992 3828 4558
4 2356 3832 3083 3738
4 4624 4597 4554 4538
4 5074 1337 1328 114
4 5074 357 366 113
4 5074 114 357 113
4 5521 1395 1403 1394
4 2356 2355 3832 3738
4 2611 2613 2616 3018
4 2298 2220 2301 2388
4 5600 1356 6096 1886
4 2611 3018 2617 4801
4 2612 2614 4898 2613
4 2631 3519 3312 3311
4 2675 2674 2786 3313
4 4223 5659 247 1940
4 2735 2728 2731 3933
4 2730 2738 4926 2734
4 2736 5676 3363 4926
4 2544 1339 1338 1330
4 5916 4926 6097 2738
4 2546 1338 255 4325
4 4926 6097 2738 2736
4 4228 823 832 831
4 3349 1314 1306 1315
4 5900 3363 4989 6098
4 4673 812 803 804
4 5175 1384 1383 1375
4 5189 1331 1322 1323
4 4725 1844 1835 1836
4 3683 1341 1350 1349
4 2736 4989 3363 5676
4 6099 1863 1854 1855
4 3363 3622 5900 2737
4 2730 2736 3363 4926
4 2894 2913 1043 1044
4 4619 4659 4535 5536
4 2737 3622 3366 2615
4 4750 1361 1352 1353
4 4644 432 4720 423
4 5583 1336 1345 1344
4 4624 6095 5788 4625
4 2737 2736 5900 3363
4 2244 2245 3759 5531
4 4694 6095 5583 1335
4 4676 1325 3821 1326
4 5531 3760 3759 4396
4 2329 5629 4499 5705
4 4624 5293 4625 5788
4 5598 4629 6100 4693
4 4691 4100 402 4671
4 4042 386 4648 377
4 4423 2243 4470 2764
4 5583 1344 1335 1336
4 2948 2894 5148 5825
4 5074 4603 4525 366
4 4412 2644 5261 3056
4 2998 2996 3589 3058
4 5657 1363 1372 1371
4 4525 112 1346 113
4 2570 3768 2579 4777
4 4611 1353 1344 1345
4 4223 246 247 1410
4 3895 2718 4777 3768
4 4120 4770 1526 92
4 3768 5822 2579 4777
4 3768 2579 5822 4409
4 3778 4059 5742 3086
4 5435 1862 1853 1854
4 3687 1339 1331 1340
4 2838 3781 4070 3782
4 3777 4059 6101 4950
4 2544 4325 1329 1338
4 5509 1836 1835 1827
4 3689 1331 1332 1340
4 4070 3487 3498 6102
4 4062 4741 4280 6089
4 4101 839 830 831
4 3682 1341 1332 1333
4 3603 829 820 821
4 2409 2766 2412 4062
4 4955 2766 4957 2902
4 3604 838 829 830
4 3683 1340 1341 1349
4 2404 2407 2653 2405
4 2902 4063 3612 4306
4 4556 4495 334 6078
4 6103 1351 1359 1350
4 2771 2410 2329 2983
4 2378 2409 4020 3615
4 4702 1360 1361 1369
4 2329 2412 4740 4491
4 6070 5463 6104 5686
4 4694 1335 1343 1334
4 2894 5148 1043 5844
4 2329 2983 4491 5705
4 2331 2326 2982 2324
4 4722 5583 1336 1345
4 4218 1343 1342 1334
4 4722 1345 1336 1337
4 3549 5808 4557 5536
4 4218 1334 4694 1343
4 5201 2329 4740 5629
4 4203 4628 2540 5928
4 2514 4414 3989 4415
4 4525 1346 112 4230
4 2776 4589 2780 4292
4 5928 5288 684 5289
4 5928 4304 5335 5367
4 4723 4605 4603 4626
4 4721 4605 4626 4649
4 4295 5155 5585 5288
4 4525 1346 4722 1337
4 4295 4304 4292 5289
4 4295 5242 5585 5155
4 4525 4605 4693 375
4 5598 1362 1353 1354
4 5176 1376 1384 1375
4 2789 5223 3878 4701
4 3519 4386 4393 5207
4 4153 5223 4703 4202
4 5223 4202 4393 4703
4 5223 4701 5207 5234
4 6105 2984 4888 2985
4 2984 4888 2985 3694
4 2546 6066 2547 6106
4 3694 3692 5806 3691
4 6107 1369 6108 1378
4 2477 3694 2775 2985
4 6066 253 1886 254
4 6109 1925 1916 1917
4 3694 3614 5004 2482
4 6110 5586 5560 5565
4 4102 1350 1358 1349
4 2477 3694 5004 2482
4 5377 1340 1348 1339
4 2682 3028 4023 2683
4 6111 1861 1860 1852
4 2547 1347 1339 1348
4 2681 4207 3181 3373
4 2823 2831 2407 2826
4 3608 1368 1360 1369
4 3681 1342 1350 1341
4 3525 4463 3527 4835
4 4565 4042 4650 378
4 3401 5657 5601 6112
4 4839 3598 4836 3525
4 3685 5377 5376 4493
4 4286 1881 1880 1872
4 5569 1890 1889 1881
4 3662 3524 4034 3598
4 3524 3938 5762 3527
4 3080 2356 3827 3832
4 4675 1344 1352 1343
4 5844 2894 2912 2913
4 5274 1360 1351 1352
4 2894 5148 5825 1034
4 3598 4836 3525 3524
4 5601 1370 1361 1362
4 4618 395 404 403
4 4717 421 420 412
4 4693 1346 1354 1345
4 3951 3955 3435 3952
4 4721 4693 4605 4629
4 4704 4043 4040 396
4 112 1355 4230 1346
4 3888 3599 3456 3954
4 3183 3468 2640 3784
4 4799 4042 4648 4650
4 4693 1346 4230 1355
4 4617 404 413 412
4 3434 4878 3600 3436
4 3434 3600 4878 3601
4 6100 1355 1363 1354
4 3934 6113 5653 6114
4 4229 384 393 110
4 4704 405 4616 396
4 2394 2685 2395 3601
4 2395 3889 3259 3601
4 3336 2791 3337 2451
4 3303 2732 3308 3621
4 3287 5569 4780 3504
4 3303 3305 2458 3344
4 3303 4908 3310 3304
4 3343 3336 3341 3340
4 3340 3325 3343 3336
4 6115 1357 1348 1349
4 2803 2801 2766 5380
4 3979 3732 3151 5531
4 6066 1356 253 1347
4 3886 3343 3325 3583
4 4667 1377 1386 1385
4 6115 1357 1349 1358
4 5581 1892 1900 1891
4 3928 2987 3236 4049
4 2958 3515 3602 3878
4 5292 1846 1854 1845
4 2986 4764 5220 5143
4 4715 1368 1376 1367
4 2902 4955 4063 4306
4 6116 1359 1367 1358
4 2580 2986 5220 2479
4 2981 2986 2774 2477
4 5274 1343 1352 1351
4 5578 848 847 839
4 6117 3503 3504 1899
4 6118 1375 1366 1367
4 2454 2451 2457 2453
4 2868 2849 4046 3997
4 4695 4659 6119 4535
4 6120 1385 1394 1393
4 2353 3528 2727 3664
4 6115 5377 3683 1349
4 4144 1872 1871 1863
4 2748 2749 3033 2727
4 2339 2603 2600 2337
4 4616 396 405 404
4 2868 3997 2505 2849
4 5274 1361 1360 1352
4 4291 855 4474 856
4 2752 2339 2712 2753
4 6100 1364 1363 1355
4 3851 5634 2524 2525
4 5601 1362 6112 5657
4 4229 4671 393 4090
4 4229 6100 1355 1364
4 2357 3738 3371 3401
4 3851 2523 5830 5165
4 6121 1390 1399 1398
4 5657 1371 1362 1363
4 2261 5493 3851 3497
4 6094 4229 4671 1364
4 6108 1379 1378 1370
4 6094 4090 4229 6100
4 4745 1380 1371 1372
4 5977 1399 1408 1407
4 6122 1429 1428 1420
4 3851 5829 5848 5830
4 3714 4482 3851 5848
4 3851 5829 5830 5493
4 4328 5977 4239 4329
4 1407 5977 4239 1416
4 5552 1366 1357 1358
4 2594 3044 4329 3926
4 4329 4239 3559 3926
4 3559 4328 4239 4329
4 1416 4328 5977 4239
4 2594 3558 4329 3044
4 5610 851 146 147
4 5652 875 874 866
4 4281 1881 1872 1873
4 5551 1366 1365 1357
4 3558 4330 4329 3044
4 4329 4330 6123 5976
4 5552 1366 1358 1367
4 6124 1856 1864 1855
4 4329 3044 4330 5976
4 4089 1857 1865 1856
4 5602 856 847 848
4 4329 4330 4328 6123
4 2730 2731 2735 2728
4 3608 1360 1368 1359
4 2735 4926 3934 2734
4 3504 1899 1898 1890
4 6118 1375 1367 1376
4 2419 5339 2972 5341
4 3934 4926 6113 5916
4 6108 1370 1378 1369
4 6094 1373 5575 1372
4 2922 6059 2921 2919
4 3560 4639 3935 3927
4 1346 4230 4525 4693
4 4671 109 402 4691
4 3257 3256 4970 2620
4 3935 2920 2321 4639
4 6094 1363 6100 1364
4 4617 3829 404 4616
4 3933 2735 3934 2734
4 6125 3926 4838 4337
4 6094 5575 4671 4096
4 6094 1372 1364 1373
4 5575 1381 1372 1373
4 4759 448 447 439
4 6125 3559 4639 3896
4 6125 3559 3896 4881
4 4952 5612 5093 1491
4 6125 4805 1414 4881
4 6125 5520 4805 3896
4 3685 3688 5185 3611
4 4952 6126 239 2012
4 4952 238 239 1482
4 2900 4293 3612 3615
4 4607 6110 6004 5125
4 1365 6083 6096 252
4 6127 1891 1890 1882
4 2864 3293 3277 5184
4 2900 3615 3225 4293
4 1904 1365 252 6083
4 3688 3293 3277 3278
4 5201 4500 5629 6128
4 2548 4591 2693 3074
4 3074 6129 2548 4591
4 4591 5627 3064 3074
4 3064 4591 3068 3067
4 3068 2694 3414 2693
4 3070 3734 3733 3916
4 5174 1384 1393 1392
4 4667 1385 1376 1377
4 6107 1377 1368 1369
4 3073 3514 3074 3671
4 3074 3671 5892 3071
4 2868 90 1544 2869
4 3109 1379 1387 1378
4 4585 415 423 414
4 4613 6130 4559 6131
4 4644 432 423 424
4 3064 3072 2342 3065
4 3165 4766 3170 2917
4 4142 1379 1370 1371
4 5628 5596 5610 5597
4 4613 5628 5597 6130
4 6132 5659 1940 1931
4 5521 6133 1394 1403
4 3928 4049 3164 4764
4 4692 1390 1381 1382
4 2207 2478 2774 2464
4 4617 3829 4705 413
4 5734 4672 4043 4618
4 4038 431 430 422
4 5753 2781 3543 2772
4 4692 1391 5574 1390
4 4100 5575 4671 4691
4 5573 4096 5964 4618
4 4671 110 1373 1364
4 1373 4691 1382 109
4 2968 2969 2917 2915
4 4692 411 4717 420
4 2968 4048 4049 3619
4 4692 4691 108 1382
4 4747 107 420 106
4 5380 4955 5381 5200
4 3165 2969 2917 3164
4 3164 3170 4764 4050
4 5174 1383 1384 1392
4 3618 3620 2924 4048
4 2924 2925 3620 5441
4 4758 1401 1392 1393
4 2968 4048 4050 4049
4 4048 5131 5456 3620
4 4048 6134 4050 4049
4 5176 1376 1385 1384
4 4742 1884 1892 1883
4 4048 6134 5456 5130
4 5569 1881 1889 1880
4 3122 2227 3014 2366
4 5177 249 1922 250
4 6120 1393 1384 1385
4 2934 3318 4948 6085
4 3580 445 4785 454
4 2920 6120 5639 6133
4 3314 3643 3318 3319
4 2389 2297 2934 2936
4 3637 3316 4310 2367
4 5177 1392 249 1383
4 6089 1882 1873 1874
4 4958 4310 3639 5514
4 4309 3316 4313 3162
4 4309 3643 5046 4313
4 4763 4782 443 444
4 6133 1403 1402 1394
4 6135 6136 4969 1421
4 4746 1389 1380 1381
4 4142 1388 1379 1380
4 2366 2369 3637 2367
4 5618 4288 4792 5648
4 3815 5164 3357 3924
4 5628 5597 6130 5596
4 4805 6136 5520 1413
4 3228 3230 3356 3231
4 3228 3356 3230 3229
4 3109 1388 1387 1379
4 4542 4718 415 424
4 3110 3765 5396 4640
4 5625 1397 1388 1389
4 3474 3356 3357 3173
4 3356 3362 3359 3354
4 4748 438 105 429
4 4745 5657 1372 1371
4 3231 2633 3163 3902
4 3833 5575 4746 4745
4 2221 2851 2850 3263
4 5573 4100 4096 4618
4 3356 3355 5150 3921
4 6121 1398 1389 1390
4 4635 5607 5572 4140
4 4747 429 106 420
4 4635 4140 5572 5663
4 420 1391 107 4747
4 5977 1407 1398 1399
4 4038 431 440 439
4 4635 3101 4706 3961
4 4635 4232 3101 3961
4 4635 3101 4232 3233
4 5201 2801 4955 4740
4 2498 4680 2499 5141
4 4743 4680 2510 4682
4 5201 2801 5202 5200
4 2510 3539 5517 4684
4 2498 2510 2500 2499
4 5639 1394 1385 1386
4 4617 3829 413 404
4 2510 3539 4684 4680
4 6133 1402 1393 1394
4 4337 1387 1396 1395
4 2719 2865 3059 2716
4 3568 1927 1926 1918
4 3820 3817 2720 5801
4 3865 903 902 894
4 4760 454 4784 463
4 2802 3608 6116 4102
4 3453 3183 3456 2971
4 4324 3768 5290 4409
4 2971 3888 3456 3453
4 6137 2734 6059 6138
4 4618 4096 394 403
4 4818 4802 4791 3948
4 2395 3469 3599 3434
4 3441 2685 3970 3600
4 3259 3911 5370 3889
4 5549 5552 2803 6118
4 3088 2240 4271 1539
4 5396 1388 1396 1387
4 4837 1405 1396 1397
4 4724 417 4181 416
4 6136 1422 1421 1413
4 6139 6140 1948 6138
4 3087 3086 3089 4767
4 4837 1405 1397 1406
4 3085 3089 2726 3088
4 5575 1381 1373 1382
4 4100 3832 4618 5573
4 4239 1397 1398 1406
4 3088 4271 2240 2238
4 4759 6141 438 447
4 3748 4010 3747 3749
4 4747 4744 4748 429
4 4791 4773 6142 4802
4 4747 4749 5574 1400
4 2749 4351 2726 3090
4 4805 3897 1423 4881
4 4747 5574 4744 4717
4 6142 1426 6143 1427
4 4805 1423 3897 1422
4 4747 5574 4749 4744
4 4805 3896 3897 4881
4 4748 105 1409 106
4 5660 5661 4331 6144
4 5977 1416 1407 1408
4 4047 1991 5884 2000
4 5347 1458 1466 1457
4 6135 1420 1411 1412
4 3897 1422 6136 4805
4 4234 3897 1422 6136
4 4805 3896 5520 6136
4 6135 1421 1420 1412
4 6125 1413 4805 5520
4 5628 3330 1879 6130
4 2228 2936 2391 3215
4 6145 1403 1412 1411
4 4758 1401 1393 1402
4 3214 3213 3264 3669
4 5603 1401 1402 1410
4 3122 3016 5727 6077
4 2320 5202 2801 4679
4 3266 3275 2226 2230
4 5704 913 912 904
4 3556 2416 5817 3555
4 3708 4014 3936 4015
4 5602 3105 857 848
4 4874 1442 1450 1441
4 4642 3526 3037 4463
4 4015 3037 4509 4642
4 5520 1412 1403 1404
4 2416 4015 3037 5503
4 2724 2308 2722 3294
4 2656 3187 3991 3992
4 2494 2507 2509 2495
4 2803 4715 6118 6116
4 4139 4141 5663 4232
4 4234 1423 1431 1422
4 6125 1405 1414 1413
4 3991 4536 4949 3989
4 4026 451 459 450
4 2506 5145 4535 6033
4 2501 6033 4992 3538
4 4749 1408 1399 1400
4 3375 3379 2493 3483
4 4377 4864 4858 1435
4 4748 4749 4690 4744
4 3375 3377 3376 4965
4 2484 2492 2488 2490
4 4749 1408 5977 1399
4 5313 4594 3044 5976
4 2747 3866 5664 3606
4 2493 2485 2487 3483
4 3379 4289 3483 3380
4 4748 1409 4749 1400
4 4892 3318 3510 4313
4 1398 4239 5977 5395
4 6143 1426 1417 1418
4 6123 1416 1417 1425
4 2517 2423 4231 3379
4 3375 3484 3381 3378
4 3375 2493 2487 3483
4 2424 2423 3379 2493
4 2538 3654 2882 3253
4 6146 6139 6140 1948
4 3247 2929 2539 3253
4 2691 2843 2534 2846
4 3176 3920 2698 3180
4 2534 2538 2540 2290
4 2662 2672 2664 2878
4 3272 911 910 902
4 4223 246 1949 247
4 2667 4846 4927 4581
4 6145 1411 1402 1403
4 4601 2851 3919 4262
4 3797 3925 2221 2851
4 3925 4164 5738 3592
4 3461 2933 3631 3585
4 5042 3585 4248 4246
4 3185 4666 4138 3912
4 6147 1918 1909 1910
4 6125 1413 1404 1405
4 5520 1412 1404 1413
4 5729 6148 4984 6149
4 4838 1414 1405 1406
4 4698 4247 3006 5043
4 4239 1407 1415 1406
4 4783 458 449 450
4 5042 5043 4247 4863
4 3460 3463 6002 3462
4 3188 3006 3005 3007
4 3570 1919 1927 1918
4 2319 5639 2920 6120
4 5042 3006 3585 4246
4 5042 3585 5394 4248
4 3650 2448 3040 3408
4 4774 467 458 459
4 6150 6138 6114 1938
4 4234 6144 6151 1432
4 6152 439 4038 440
4 3038 4593 3650 3040
4 3650 4592 3042 3043
4 4803 1409 1417 1408
4 6141 105 1418 1409
4 5109 4868 4850 2156
4 2432 3650 3038 3042
4 3650 4592 3043 4643
4 5977 4803 1417 1408
4 5312 5313 2310 4995
4 3043 2432 2431 3042
4 4803 1418 1417 1409
4 3291 3650 3043 4643
4 1400 4749 5574 1399
4 6123 1426 1425 1417
4 2680 2471 2472 2376
4 4644 4720 2309 423
4 3074 3514 6153 3671
4 3514 6129 3167 2548
4 2284 2244 2289 2288
4 3151 2245 3914 2236
4 3671 3514 6153 4464
4 2914 2279 2250 2246
4 3148 2910 4464 3672
4 2586 3183 3177 3185
4 5037 5038 5011 5075
4 3102 3503 3233 3329
4 3819 5038 5075 5011
4 6136 1413 1421 1412
4 4265 1518 234 235
4 6154 1419 1411 1420
4 3819 6155 5075 3574
4 5075 5489 5794 5037
4 3561 1923 3831 1914
4 5458 5502 5459 5135
4 5075 5489 5076 5794
4 2647 3139 4214 4078
4 3719 3930 3929 3931
4 4247 476 4698 477
4 4828 1430 1421 1422
4 5655 1920 1928 1919
4 3931 3718 3930 4930
4 3120 937 928 929
4 4881 1415 1423 1414
4 3931 4963 3929 4964
4 3931 4963 4964 4126
4 5312 3833 4705 4717
4 4142 1389 5625 1388
4 3931 3718 3719 3930
4 5019 4126 4163 5707
4 2608 2352 5019 5707
4 5019 5102 3202 5637
4 5019 3202 4168 3205
4 3794 3795 4875 3015
4 6156 1982 1991 1990
4 4788 450 4783 449
4 6157 1434 1433 1425
4 3562 4328 4330 6157
4 4772 4773 6142 1427
4 3794 3348 3795 3015
4 4772 103 1427 104
4 3794 3015 3213 3348
4 3795 5800 3641 3348
4 5713 1425 1426 1434
4 3795 3791 5684 3793
4 4038 4594 4720 2310
4 6143 1427 1426 1418
4 4759 6143 4772 4776
4 4907 4932 5702 516
4 4592 3042 3043 2310
4 4592 3042 4594 4593
4 4592 4264 4593 4595
4 3281 3121 5668 5978
4 2362 2850 2853 3122
4 3646 3281 4737 5978
4 3646 6158 4737 4735
4 3646 3280 5978 6158
4 5978 3281 4737 5668
4 4969 1429 1420 1421
4 3262 3261 3260 3645
4 245 5383 1428 1419
4 5662 1464 1473 240
4 3644 3281 3646 3280
4 3269 2620 3261 2266
4 2632 2634 3231 2633
4 3241 3932 3719 3242
4 4969 1429 1421 1430
4 5654 1937 1928 1929
4 5018 3479 3819 5075
4 3241 3932 4948 3246
4 4805 1422 1414 1423
4 4312 3902 3162 2633
4 2861 3263 3264 2229
4 2611 2388 2301 2615
4 6114 1938 1946 1937
4 4234 1440 1431 1432
4 4607 5298 4610 6110
4 4889 4248 4890 494
4 4858 1444 1443 1435
4 6113 1937 1945 1936
4 2219 2230 2226 2225
4 5660 1424 1432 1423
4 4247 485 477 486
4 2389 2807 2935 2934
4 6159 1442 1433 1434
4 6157 1425 1433 1424
4 5883 5884 6156 5735
4 4911 1453 1462 1461
4 4542 4718 3289 4543
4 4858 1444 1453 1452
4 6159 1442 1434 1443
4 4288 4792 872 3380
4 2389 2295 2807 2297
4 4858 1443 1434 1435
4 6142 1427 1435 1426
4 2391 3215 5589 3884
4 3769 3733 3913 3916
4 947 2853 4335 5152
4 4818 466 475 474
4 4856 493 492 484
4 3074 3514 2548 6129
4 3671 4001 5892 5891
4 2630 4464 5891 4001
4 6142 1436 1435 1427
4 4864 1436 1445 1444
4 3916 4527 4387 3672
4 3671 4530 3312 5891
4 3941 4400 5687 4065
4 3941 4399 4432 4400
4 3941 4432 4399 3942
4 3013 5339 2428 2646
4 2649 3757 3709 3941
4 3424 3945 4432 4431
4 3025 3026 3027 3055
4 5671 1438 1429 1430
4 5962 1458 1457 1449
4 4234 1441 6151 1440
4 5502 1437 1438 1446
4 5726 1963 1962 1954
4 6160 1439 1448 1447
4 4400 5687 4433 3941
4 3120 938 4598 5152
4 2322 2319 4679 4667
4 5726 1972 1971 1963
4 3423 2646 5687 5339
4 5145 5141 5142 4638
4 5145 4678 4536 4535
4 2506 5145 6033 2499
4 2506 5145 2499 2512
4 2280 5229 4910 1463
4 5145 2499 5141 6033
4 4883 1440 1449 1448
4 3946 3948 3947 5712
4 5145 4536 5142 2512
4 5227 6024 4154 5538
4 5661 1433 1441 1432
4 5519 3949 4761 4788
4 5884 1992 2001 2000
4 5716 937 936 928
4 4889 493 484 485
4 5661 1433 1442 1441
4 4772 6141 447 104
4 2214 3840 4438 5227
4 2216 3566 2483 2217
4 5738 1981 1990 1989
4 3591 5777 3592 4165
4 4248 486 494 485
4 2742 2743 3668 3270
4 2743 2747 5674 2487
4 2746 2743 3647 3668
4 3298 2864 5184 5609
4 4864 1444 1435 1436
4 5712 467 476 475
4 4818 5712 475 466
4 4791 1436 102 1445
4 2864 3299 5609 3298
4 4329 4239 3044 5977
4 4910 4873 483 1454
4 3299 5511 5609 3351
4 5047 4856 4873 4863
4 4891 502 501 493
4 3299 3293 5609 5511
4 5135 1976 1967 244
4 2308 3482 2303 3334
4 2724 2568 3352 3353
4 2724 3352 3060 3349
4 4737 920 912 921
4 6161 1456 1447 1448
4 2313 2314 2724 2308
4 2397 2400 2398 2648
4 2724 3352 3349 3351
4 6160 5502 1438 1447
4 5524 1455 1446 1447
4 3773 3279 4602 4601
4 3260 3773 3280 3645
4 2266 3269 3260 3261
4 6160 1447 1438 1439
4 5074 5024 357 114
4 2644 6070 2647 2642
4 2225 3275 2226 2860
4 2636 5332 2639 3807
4 5688 1985 1994 1993
4 3361 3843 6162 3358
4 5676 1955 1963 1954
4 4339 505 513 504
4 5690 956 3359 965
4 4108 1449 1450 1458
4 3361 3843 4259 6162
4 3875 3362 3361 3872
4 3354 3362 3361 3496
4 3010 4432 4430 5318
4 5712 4873 475 4863
4 5334 5761 5807 6163
4 6164 1451 1442 1443
4 4432 5317 4430 5318
4 4157 4794 4796 461
4 6164 1452 1451 1443
4 4379 3462 6164 4858
4 3010 3001 3013 4433
4 4896 6098 3363 4897
4 4246 495 487 496
4 5074 114 1328 5024
4 3226 3227 6063 3985
4 3424 5260 4432 3942
4 3949 4776 448 457
4 4911 1461 1452 1453
4 4114 1469 4116 1470
4 4432 5260 4431 4430
4 3941 4400 4432 4433
4 6142 1436 4864 1435
4 4432 5319 4430 5317
4 5394 4889 4247 4248
4 4910 1453 1454 1462
4 4432 4433 4400 5319
4 3259 5370 3911 4677
4 2578 3768 4324 4409
4 4138 3911 4477 3905
4 4245 1488 1497 1496
4 3924 5755 1997 6165
4 4138 3905 4477 4486
4 2403 3889 3888 3912
4 4243 1502 1503 1511
4 2586 2587 3023 3021
4 5962 1457 1448 1449
4 3041 2643 2397 2646
4 2393 2971 2400 2401
4 2565 2415 2687 3036
4 5524 1455 1447 1456
4 3022 3023 3021 3181
4 3328 2576 3385 3904
4 3911 4677 4477 3905
4 3628 3243 3636 3632
4 3633 3628 3631 4094
4 6161 1456 1448 1457
4 4911 4858 1453 1452
4 4987 540 539 531
4 6166 1474 1475 1483
4 4339 514 513 505
4 5346 1476 6167 1467
4 4890 4094 3633 3634
4 3461 4094 4093 5394
4 3635 3629 3245 3636
4 4110 1459 1450 1451
4 2817 1543 1552 1551
4 4246 4894 4893 487
4 4941 3632 513 3118
4 4905 6014 4906 964
4 3464 3189 5042 3005
4 3582 2295 2935 3581
4 4117 1452 1460 1451
4 4339 4893 496 495
4 4918 4116 1461 1470
4 3631 3632 4339 3630
4 3120 947 946 938
4 3631 4248 4094 5394
4 4117 1461 1460 1452
4 4910 2280 4857 4856
4 4110 1460 1459 1451
4 3631 4339 3585 3630
4 3631 3634 4094 4248
4 2640 4003 3788 3784
4 4891 501 492 493
4 2291 540 549 548
4 4116 1469 1460 1461
4 4874 5661 1441 6151
4 2580 2581 2583 2582
4 3801 4933 4361 4916
4 4857 2280 99 492
4 3165 3167 2955 4766
4 3170 4766 5128 2917
4 3928 3236 2463 2965
4 3164 2917 3170 4050
4 4567 3441 3975 3973
4 5717 1455 241 242
4 3928 2965 3164 4049
4 2756 3186 3968 4795
4 5098 4349 5354 1554
4 4898 4108 4883 1449
4 2757 2501 4992 3382
4 4992 3538 6033 4081
4 3013 5339 4433 5341
4 6168 1465 1456 1457
4 6169 4990 5823 4992
4 4108 1467 1458 1459
4 5755 5756 3923 3922
4 4992 6170 5055 6169
4 2756 2501 2506 4795
4 4162 4884 5723 500
4 4732 4652 853 5594
4 3924 1997 3922 1998
4 4992 6170 6033 4795
4 3922 5756 5750 1988
4 5668 929 920 921
4 2756 2757 4795 3968
4 3663 3838 5044 2294
4 2294 3838 5044 2292
4 2294 2292 2351 3838
4 2417 4841 3003 3556
4 5347 1466 1458 1467
4 4110 1460 1468 1459
4 3117 521 520 512
4 3522 2293 2292 3523
4 5013 3522 3839 2292
4 5346 1476 1467 1468
4 2416 3556 3003 3555
4 4935 4245 1487 1488
4 2292 3838 5044 5013
4 4110 1469 1468 1460
4 5758 5750 1979 1980
4 5653 5730 1936 1937
4 2292 2294 3839 5044
4 3818 1306 3349 3547
4 4918 1462 1470 1461
4 3633 511 502 503
4 3633 512 511 503
4 4114 1478 1469 1470
4 5735 1983 1991 1982
4 4951 519 510 511
4 3818 3349 1315 4578
4 3010 4432 3823 4433
4 98 2281 1481 97
4 2714 3057 3589 2998
4 2574 2570 2579 2473
4 5229 1463 1471 1462
4 2715 3059 3818 4578
4 5955 4918 4114 4116
4 2281 4362 4882 510
4 2715 3818 2720 3821
4 3060 3818 3349 3547
4 3479 3480 5488 4126
4 2603 3201 2752 2600
4 5688 4340 5717 1985
4 4047 1999 1990 1991
4 3477 3805 4126 3478
4 5637 5104 5357 2351
4 6171 1982 1981 1973
4 6172 1466 1474 1465
4 5345 1476 1484 1475
4 4789 877 3831 886
4 3805 3478 3523 4126
4 6167 1475 1466 1467
4 3477 3479 2352 4126
4 4752 4729 5979 4730
4 4975 538 529 530
4 3813 2000 2009 2008
4 6163 1473 1482 6126
4 4238 4877 916 917
4 2610 2609 3575 2347
4 6172 1474 1466 1475
4 4249 1494 1493 1485
4 4935 1479 1487 1478
4 3479 3480 3481 5076
4 4933 1479 1470 1471
4 3517 3985 3702 6063
4 4930 541 540 532
4 4941 522 514 523
4 3003 3009 3983 3988
4 4115 1469 1478 1477
4 5755 6173 1987 1996
4 5044 567 566 558
4 4956 528 519 520
4 4934 1486 1477 1478
4 4821 4774 459 468
4 3226 6063 3227 4929
4 3149 1498 1490 1499
4 3227 3985 3983 6174
4 4240 4252 4251 4244
4 5058 1515 6175 1524
4 5001 4975 539 538
4 4121 6176 4047 5777
4 4934 1487 1486 1478
4 3116 521 529 520
4 3227 4430 6177 5318
4 96 510 4882 519
4 3226 3227 3011 4929
4 2510 2494 2497 2500
4 95 519 1499 528
4 6178 1497 1488 1489
4 4535 2512 2506 4949
4 2907 3035 3046 3572
4 2506 3186 4795 5808
4 5937 235 4265 2048
4 4180 4181 3405 5903
4 2507 2756 2506 3186
4 2498 3536 3382 6084
4 5979 4730 4728 4753
4 2511 5145 2499 5141
4 4441 4136 3385 6179
4 4441 4990 3907 4224
4 3536 4539 5870 3537
4 6179 4441 3536 3385
4 4441 3907 3385 4136
4 3907 3906 4136 4441
4 4249 4242 4243 4240
4 4441 3907 4435 4224
4 4544 4436 4435 4539
4 5346 1485 1477 1486
4 5746 1512 1520 1511
4 6180 2056 2055 2047
4 5346 1485 1476 1477
4 4242 4243 1511 1502
4 4436 4435 4539 4441
4 5744 1521 1513 1522
4 3872 3876 4906 973
4 5390 5979 4415 4231
4 4697 5128 4766 2917
4 4697 6181 3167 4766
4 663 654 5982 5275
4 2554 3167 5793 2552
4 4697 4766 5128 6182
4 3913 5845 3916 5840
4 2695 2692 2287 2661
4 4807 2026 2027 2035
4 4169 6162 985 984
4 4249 1485 1493 1484
4 6183 6184 6185 4967
4 4916 1479 1480 1488
4 3466 5719 6186 5698
4 4227 537 528 529
4 3769 3672 3916 3915
4 519 1499 528 3149
4 4355 1481 1489 1480
4 97 96 4882 1490
4 4091 3903 4092 5452
4 2837 3903 4484 3782
4 2742 3097 3668 3265
4 4916 1489 1488 1480
4 2938 2945 2942 2943
4 3149 6178 4355 1489
4 4882 97 2281 510
4 2423 5903 3381 4778
4 96 1499 3149 1490
4 4091 3903 5452 5453
4 5041 650 5026 4470
4 4470 4423 5170 3731
4 6187 5773 5760 6188
4 5040 4686 4170 5178
4 3111 2242 4470 5040
4 4470 4423 5026 5170
4 3111 4470 5023 5040
4 4470 5023 5040 5025
4 4913 6189 5363 5362
4 4913 4292 4104 6189
4 6190 5746 1511 1512
4 4913 6189 5362 4292
4 5884 2000 1991 1992
4 4250 1492 1483 1484
4 4959 531 523 532
4 5726 6148 1953 5699
4 4940 1513 1512 1504
4 4250 1492 1493 1501
4 4913 5965 5384 4914
4 4913 5965 699 700
4 4913 5362 691 4107
4 4107 4913 4292 4104
4 3938 3970 3894 4569
4 6191 1497 1505 1496
4 2730 2620 4970 4925
4 3021 3178 3372 3182
4 5108 3600 3431 3435
4 3469 3435 3434 3600
4 3435 5108 3600 3890
4 5001 547 538 539
4 5156 2079 5848 2070
4 5512 5108 3600 3431
4 3075 2358 2359 2356
4 4967 1507 5082 1516
4 3665 5007 5001 2291
4 4087 2005 6165 2006
4 6192 1506 1515 1514
4 3971 3894 307 3970
4 5968 1519 1527 1518
4 3427 3435 3431 3436
4 3622 3796 2222 3772
4 2220 3622 2386 2615
4 2635 2296 2299 2637
4 3149 1498 1489 1490
4 6193 1496 6191 1505
4 3366 3622 3658 2615
4 519 1499 3149 96
4 2729 3366 4972 2739
4 6178 1498 1497 1489
4 5900 3366 3658 6032
4 3149 96 4882 519
4 2212 2790 2558 2456
4 5083 1499 1507 1498
4 5083 1499 1508 1507
4 2618 4002 2812 2821
4 2206 2618 2336 2262
4 2819 2254 4670 2818
4 2950 2790 2216 2452
4 2819 2820 3238 4669
4 5093 237 2030 238
4 3144 2821 4825 2820
4 2779 2874 2279 2871
4 4249 1493 1494 1502
4 6191 1497 1506 1505
4 6153 3671 5892 3074
4 233 4266 1536 1527
4 5810 1000 1001 1009
4 6193 1496 1504 1495
4 5614 6194 5100 2029
4 2572 1184 193 3284
4 3165 2582 3170 2955
4 3148 2910 2629 3166
4 2968 3164 2965 4049
4 2548 2285 3073 2277
4 5059 567 576 575
4 3284 2572 2195 193
4 3660 585 594 593
4 5979 5648 4728 5604
4 3531 576 585 584
4 2589 2463 3236 2965
4 3151 2244 2245 2231
4 4120 1516 1517 1525
4 6195 1525 1534 1533
4 5083 1499 3150 1508
4 2467 2210 2673 2466
4 2236 3313 2910 3672
4 6193 1505 1504 1496
4 6196 4920 5346 1486
4 5803 1505 1513 1504
4 2659 3769 2286 3913
4 2695 2694 3073 2693
4 4940 1503 1504 1512
4 3165 2629 2582 2955
4 2250 2278 2277 2553
4 4464 3671 3672 3312
4 5083 1508 5082 1507
4 4967 6192 6185 4968
4 6191 1496 4245 1497
4 2631 2910 3152 3313
4 2258 600 592 601
4 3191 5495 4143 1116
4 4935 4933 4916 1479
4 3159 3161 1570 5112
4 6197 4975 4227 3116
4 6192 1506 1514 1505
4 5967 1527 1528 1536
4 2804 3368 3447 2248
4 2661 4581 2667 4927
4 6195 2814 1533 1534
4 4968 1507 1506 1498
4 4967 1507 1515 1506
4 3522 558 550 559
4 1508 537 3150 5082
4 2868 1553 1544 90
4 3191 4927 4143 5495
4 3900 2186 2177 2178
4 3191 5975 1125 5283
4 3191 3192 5283 5282
4 3194 3191 1117 1126
4 3900 3419 2186 2187
4 3284 3701 1192 1193
4 3228 3229 2632 3356
4 3521 4930 3523 4963
4 6198 5100 2029 2038
4 4242 1502 1510 1501
4 5614 2028 2019 2020
4 2934 3318 6085 2936
4 3314 3643 3317 3316
4 3509 3932 4313 3510
4 2260 2597 3500 3577
4 2810 3932 2369 4313
4 5680 3210 3931 4126
4 3444 4755 5819 3410
4 4889 493 4856 484
4 4010 5622 5000 3651
4 2633 2367 2810 2368
4 6199 6200 6201 6202
4 6199 6021 5833 5853
4 6199 5865 6021 5228
4 6199 5834 5865 5868
4 4120 1525 6175 1516
4 5803 1514 1513 1505
4 3529 5103 5357 5828
4 5048 5104 5103 568
4 5101 5958 4974 4973
4 4558 3290 3828 4414
4 3532 577 586 585
4 4446 5780 992 5027
4 5833 6199 5865 6021
4 5001 4227 538 547
4 6199 6200 6024 5853
4 6199 6201 6200 5852
4 4953 4987 530 531
4 2869 4771 564 4770
4 4960 1543 1535 1544
4 5126 3847 5375 5522
4 5082 6175 4967 1516
4 5146 1050 54 1041
4 3022 2682 3023 3181
4 4771 3850 5007 556
4 3031 5547 3053 3910
4 4892 4923 5046 5702
4 3532 586 595 594
4 6175 1524 1515 1516
4 5102 569 3206 578
4 2683 6072 3031 3029
4 4607 3847 5126 4614
4 2683 2678 2681 5375
4 3028 2683 3029 6072
4 5547 5522 5561 3031
4 3031 3160 6072 6004
4 5126 3031 2683 6004
4 3031 5522 5561 5126
4 3031 3160 6004 5561
4 5739 2036 2027 2028
4 4973 1511 1519 1510
4 2770 2771 2327 2794
4 6203 1520 1529 1528
4 3369 3107 4702 3371
4 2769 3610 3369 3608
4 3369 6103 3608 3610
4 4036 3419 3900 2187
4 6204 1522 1513 1514
4 3736 2824 4192 2862
4 5744 1521 1512 1513
4 3371 3735 5274 3740
4 3369 6103 3610 3684
4 3487 2036 2044 2035
4 4732 4288 4279 4231
4 4686 2242 5040 4470
4 3158 3157 2966 2893
4 2205 2602 2338 2603
4 2705 2339 2732 2712
4 3980 2732 2339 2733
4 5091 1533 1541 1532
4 3636 3115 3117 3118
4 2560 3837 2563 3535
4 5833 1048 1047 1039
4 6185 4967 5058 6192
4 5126 4614 4673 6004
4 4908 612 611 603
4 2563 3137 3535 3674
4 2339 2733 2712 2753
4 3698 5947 5953 1138
4 3203 2960 2962 2963
4 2755 2240 1531 1540
4 3046 2908 5578 2906
4 2755 1532 1540 1531
4 5058 1524 1523 1515
4 2858 4771 4261 565
4 2909 3677 3287 3050
4 2797 3209 2983 2326
4 3893 5058 6175 5545
4 5602 3105 3046 3572
4 3047 3104 4700 3106
4 3046 3105 5579 3050
4 4771 4261 565 556
4 2257 5112 1571 5137
4 3419 2195 2186 2187
4 4770 3850 4771 555
4 1534 4769 4770 1526
4 3841 2674 2466 3676
4 4960 4046 1544 2869
4 3303 3304 3305 4908
4 2561 2559 2562 3675
4 5664 893 885 894
4 2559 3996 5161 5469
4 4502 3994 3996 5836
4 4507 4505 5836 4502
4 2380 4020 4024 4029
4 2561 3675 2562 3841
4 4502 3996 3995 3675
4 5890 3675 5469 3996
4 6205 2046 2045 2037
4 3675 4505 3996 5890
4 6203 1528 1519 1520
4 2950 2952 2775 2953
4 5453 3812 3813 2017
4 2214 4438 2819 3238
4 2335 2954 2783 2785
4 4199 1521 1529 1520
4 6205 2054 2045 2046
4 2950 2775 2211 2481
4 5001 547 3850 5082
4 5806 1565 1573 1564
4 2814 1542 1533 1534
4 5443 5118 5123 5124
4 5443 4406 5902 5426
4 5443 5337 5123 5436
4 5443 3785 5902 5421
4 6195 1533 1524 1525
4 4519 4517 1011 5805
4 4058 4060 6206 5216
4 5334 6188 5761 6207
4 3342 3161 5114 5849
4 5032 3204 3206 570
4 4120 5082 546 1517
4 2858 4190 565 4261
4 5443 5426 5902 3785
4 3014 3015 3017 3641
4 3318 6085 2936 3584
4 2814 1534 1543 1542
4 6175 1516 1525 1524
4 2239 1541 1549 1540
4 3304 604 613 612
4 5179 628 627 619
4 3318 3932 4948 3510
4 4769 1534 4960 2814
4 3319 3215 3641 5798
4 4120 1517 1526 1525
4 4960 4769 4770 1534
4 2810 3316 3162 4313
4 2858 564 565 573
4 5857 5406 5645 1073
4 4960 1543 1534 1535
4 2374 3215 3318 2936
4 3317 4762 4310 3639
4 2404 2768 2867 2765
4 4809 3501 3843 3842
4 2765 3740 2901 2862
4 6208 894 885 886
4 2827 4557 2974 3549
4 2496 3384 2866 2699
4 6209 1913 1904 251
4 3847 4614 3845 3605
4 5216 2064 2063 2055
4 2756 4795 2506 3186
4 6210 1529 1537 1528
4 2065 5215 2064 5623
4 2507 2501 2756 2866
4 2500 2498 2501 3384
4 2984 2985 6105 4198
4 6203 4973 1519 5968
4 2981 2774 2775 2477
4 3140 3692 3694 3691
4 2202 2203 2601 2259
4 5593 2063 2064 2072
4 2467 2207 2464 2627
4 2476 2483 2217 2481
4 2950 2481 3140 2775
4 5825 5818 2948 2947
4 2375 2376 2676 2385
4 5525 2920 5521 6133
4 2811 2336 2812 2821
4 2454 2461 2561 2459
4 3078 3828 3290 3289
4 3990 2514 3989 3770
4 5158 84 85 618
4 4494 2424 2421 5390
4 2755 1541 1540 1532
4 4189 4350 583 584
4 5048 576 5059 567
4 5230 647 646 638
4 5002 2482 6211 4233
4 6212 2052 2043 2044
4 2907 3045 3572 2527
4 4190 2858 2857 4261
4 2816 2817 4960 4046
4 3292 3992 3290 3828
4 6183 6197 5083 4968
4 3534 4189 3531 4350
4 2239 1550 1549 1541
4 2449 3288 2421 3322
4 2858 573 2869 564
4 5695 1934 6213 1943
4 3240 3629 3582 3246
4 4514 4516 4193 4517
4 4095 5955 3808 4114
4 6109 5693 1925 6214
4 2817 1551 1542 1543
4 2301 2388 2220 2615
4 2830 3997 1561 1552
4 4095 4172 4109 3775
4 2868 2858 2869 4046
4 4046 1544 1552 1543
4 5849 1578 1586 1577
4 3463 4172 4109 4095
4 5169 2109 2110 2118
4 5109 2147 224 2156
4 4095 3808 4115 4114
4 4109 4095 4115 3463
4 5082 1508 1517 1516
4 3202 5102 3200 5637
4 5525 2921 2920 6133
4 3204 3199 3208 3205
4 3651 1546 1537 1538
4 3651 1547 1546 1538
4 3205 3206 3199 3202
4 2509 2512 4949 2506
4 5080 595 604 603
4 4648 3548 4672 4042
4 6105 1575 1567 1576
4 4042 4799 4648 3548
4 2825 2974 2355 3548
4 2258 4152 592 4350
4 5593 2064 2073 2072
4 5866 5432 5833 4237
4 5138 2081 2072 2073
4 3736 2824 3737 5877
4 3130 1551 1559 1550
4 3548 4672 5734 5964
4 3548 4042 3549 4041
4 6201 2103 2094 2095
4 2357 2360 2899 3371
4 3892 3803 6215 3244
4 6202 6201 2104 5879
4 4170 631 640 639
4 4770 1534 1535 4960
4 3967 4226 4608 5291
4 3892 3891 6184 6185
4 5670 5693 1924 1925
4 2817 1542 2814 1543
4 6184 3892 3665 3891
4 3147 5085 4999 4167
4 5470 3864 5471 6216
4 3534 2713 2711 2848
4 2350 3664 3893 3665
4 2868 582 1553 89
4 3805 3718 3804 3723
4 3850 547 546 5082
4 6217 1567 1558 1559
4 4886 1565 1557 1566
4 2868 1553 4046 1544
4 5669 4626 3965 4723
4 537 1517 546 5082
4 3964 3549 4799 3965
4 5090 1035 2894 2947
4 4197 1568 1576 1567
4 5717 5662 241 1464
4 2499 2512 2494 2506
4 5807 6188 5334 3586
4 4210 4606 4551 5290
4 2653 2407 2827 2974
4 5633 1456 1464 1455
4 4777 3327 5291 5823
4 5257 1556 1565 1564
4 5593 2064 5623 2073
4 2564 2714 2998 2316
4 4009 2750 2238 3749
4 3746 2618 2625 4053
4 3141 3142 4008 3692
4 3877 4213 3878 5234
4 2961 3837 3535 2963
4 2619 5493 4058 5449
4 5159 629 628 620
4 6105 4196 4198 1567
4 4450 1027 4122 1018
4 6218 2091 2090 2082
4 2216 2213 3144 2215
4 4002 3747 4826 4060
4 4002 4825 2821 5449
4 3107 3108 6108 3109
4 3305 3306 3136 4689
4 2360 3369 3107 3108
4 2358 3108 3107 3109
4 3851 5634 2525 5165
4 5182 636 645 82
4 6217 1559 3130 1568
4 2357 2899 3401 3371
4 6219 6220 6221 5179
4 2258 2505 2255 2256
4 4192 4694 5529 4775
4 3075 3080 3083 2356
4 1508 5082 1517 537
4 6105 1566 1567 1575
4 4152 4167 4999 601
4 3132 1561 1570 1569
4 3127 5212 3129 5168
4 5717 1464 241 1455
4 3967 4630 5286 5291
4 5823 3327 5291 3967
4 2570 3327 3326 4777
4 3326 5286 5669 4352
4 2258 4152 601 592
4 3132 1569 1560 1561
4 5169 5232 2119 2110
4 88 2255 2505 1562
4 5662 2003 241 240
4 4624 4352 5781 5669
4 5286 5669 4624 4534
4 5906 1101 1092 1093
4 6222 1577 1586 1585
4 5717 1994 1985 242
4 3769 3671 4527 3672
4 4387 4384 3916 3311
4 1563 229 5056 230
4 4349 231 2093 2084
4 6209 1913 251 250
4 3312 3672 4527 3671
4 5642 229 5056 1572
4 251 1365 252 1904
4 3313 2236 3152 4726
4 3840 2855 4150 5469
4 2631 2673 2674 2466
4 3326 2863 4775 5413
4 2788 2675 3313 3519
4 5257 1564 1555 1556
4 2083 6223 5623 6224
4 3628 3635 3631 4094
4 3808 3245 3809 3802
4 5843 1061 5364 5073
4 3851 2524 3497 5493
4 4935 3809 4245 3802
4 3306 613 622 621
4 4273 646 645 637
4 3130 1560 1568 1559
4 5835 1063 1062 1054
4 2477 5143 5220 6225
4 5204 638 637 629
4 4095 3581 3775 3808
4 2239 1559 1558 1550
4 5876 2103 6201 2104
4 3808 4115 4934 3775
4 252 6083 6096 1895
4 6105 1584 1575 1576
4 3635 3636 3245 3801
4 3808 3775 4934 3776
4 6217 1568 1567 1559
4 3159 1562 1570 1561
4 5669 4723 5877 5781
4 4095 4115 3808 3775
4 3161 1570 5112 1579
4 3147 3161 5112 5114
4 6221 6220 1597 1598
4 6220 1598 1607 1606
4 4197 1577 1576 1568
4 81 5999 654 645
4 3808 3245 3802 3801
4 6219 3341 5114 5920
4 3341 5113 3147 5085
4 2830 2817 4046 1552
4 4167 4999 601 610
4 3161 1578 1569 1570
4 5002 6211 2482 3691
4 3159 1562 1571 1570
4 3344 3336 3341 3343
4 2257 1571 87 5137
4 5136 3344 3147 3341
4 6226 1605 1613 1604
4 5231 1604 1595 1596
4 5187 1595 1586 1587
4 5002 3613 3649 3691
4 3341 5085 3147 5136
4 4971 5820 2726 1531
4 3343 3341 5136 6219
4 5600 6096 1895 1886
4 251 6209 1374 1365
4 6227 4132 1302 1293
4 1507 1516 1508 5082
4 5642 2111 2102 229
4 4348 3341 5136 3343
4 5136 3343 5159 4348
4 3341 3343 4348 3344
4 3904 4677 2578 3911
4 5806 1565 1574 1573
4 2474 3328 2757 2579
4 2724 3350 3300 2722
4 5642 5022 5232 3649
4 2469 3482 2471 2697
4 2314 2721 2308 2305
4 3176 3177 3021 3178
4 5854 2094 170 2085
4 3130 1560 1569 1568
4 5203 1082 1091 1090
4 3306 622 631 630
4 6109 6214 1925 1926
4 2574 2578 2579 3768
4 2718 3895 4352 5287
4 3568 6109 1926 6214
4 3159 3997 3132 2829
4 2580 3164 3170 4764
4 3059 3818 4578 3349
4 5112 1579 1570 1571
4 2314 2723 2724 2722
4 2761 2864 2719 2865
4 5205 5231 1596 5872
4 5183 646 655 654
4 5857 1082 1081 1073
4 3161 5849 1578 5114
4 5137 87 1580 1571
4 5113 1580 1589 1588
4 3343 5159 4348 5097
4 2836 3781 4484 3780
4 4250 5619 5473 4240
4 3476 5619 5473 3981
4 5857 1081 1072 1073
4 3778 3090 3032 3086
4 6221 5158 5157 5085
4 3778 4954 4786 3090
4 5157 609 618 85
4 5002 3613 5232 3649
4 5205 1596 1587 1588
4 5642 228 2111 229
4 3779 4252 4954 3780
4 2941 3779 3780 4252
4 3778 2624 2625 3032
4 2802 4957 4102 6115
4 2767 2903 2802 2803
4 2406 2407 2823 2765
4 2802 2903 4102 4957
4 5566 1590 227 1581
4 2802 4715 6116 6107
4 2802 3608 6107 6116
4 2091 3127 5021 5212
4 2767 2768 2903 2766
4 2101 5021 2100 5169
4 2800 3108 3763 2769
4 2802 4102 3610 3608
4 2802 6116 2803 5552
4 3613 5806 3614 1573
4 5206 5927 5207 2123
4 5820 1523 1532 1531
4 5003 5002 5232 5169
4 5213 1601 1600 1592
4 3862 2098 2106 2097
4 2534 2542 2541 2537
4 5173 648 647 639
4 3485 4304 4628 4627
4 4298 2777 4292 3869
4 2534 2844 2541 2540
4 5928 4627 4203 4628
4 3862 5089 2097 2106
4 2590 2234 2762 2242
4 5114 1587 1578 1579
4 2958 3878 5160 2964
4 5252 1602 1593 1594
4 4393 4202 5207 5879
4 3568 3624 6109 6214
4 2214 3840 5227 2787
4 3660 3621 4187 5080
4 6228 1604 1603 1595
4 2459 3305 2591 3325
4 5231 5187 1596 1595
4 5897 1595 1594 1586
4 3313 3519 3311 2788
4 5230 647 5186 646
4 6221 5113 5085 5157
4 2788 3519 4387 4386
4 3878 5160 4200 4213
4 5849 1587 5114 5187
4 3877 2789 4153 5223
4 2280 99 492 98
4 5113 5137 5112 4999
4 5995 1225 1226 1235
4 5158 1598 84 5180
4 5131 1621 1630 1629
4 5570 5002 5232 5003
4 3878 5234 4200 4701
4 5570 1582 1590 1581
4 5223 5234 3878 4701
4 6229 1590 1591 1599
4 3385 6179 6084 3536
4 4992 3538 4081 4636
4 4081 4992 6170 6033
4 6229 5566 1590 1599
4 2498 3538 3537 5141
4 2497 2508 2510 4272
4 2498 5141 2499 3538
4 3538 3537 4622 4587
4 5566 5232 2120 5651
4 4587 3536 4636 3538
4 3538 4658 6033 4081
4 6158 4341 6230 5704
4 3538 3537 5141 4622
4 6225 1592 1584 1593
4 5897 1586 1594 1585
4 5186 647 656 655
4 3669 3273 4866 3647
4 3584 4893 5796 4260
4 3025 3055 3027 3910
4 3372 3053 3452 3054
4 5523 3452 3053 784
4 4857 2280 4910 1463
4 5921 5920 6219 5872
4 1472 1463 2280 99
4 3022 3053 3373 3182
4 6221 1589 1597 1588
4 3053 3182 5547 3373
4 3053 784 3054 785
4 5204 5159 5097 629
4 6222 5849 5187 1586
4 5523 3053 3182 5535
4 4166 587 5084 586
4 5155 666 675 674
4 5180 5179 627 5158
4 5158 85 84 1598
4 3053 3182 5535 5547
4 6221 5205 1597 5872
4 5136 4167 611 610
4 4568 3938 5762 4569
4 5872 1605 1596 1597
4 3601 4034 3938 3970
4 6064 5920 5872 5231
4 6219 5179 6221 5085
4 5140 1605 5872 1606
4 3480 5680 4342 5486
4 5456 1622 1621 1613
4 1472 2281 1481 98
4 2280 501 492 4891
4 2688 3938 3527 3442
4 2688 3938 3662 3524
4 3434 3436 3437 4878
4 3430 3954 3438 3428
4 2402 3425 3467 3666
4 3430 3889 3434 3437
4 3467 3469 3471 3599
4 4360 1609 1608 1600
4 3951 3456 3599 3954
4 4360 1608 5315 1599
4 5915 2139 176 175
4 2971 3183 3456 3468
4 3185 3911 3904 2578
4 5022 2102 2093 5056
4 3339 5971 5920 3340
4 3340 5920 6064 5971
4 4213 2117 2116 2108
4 5221 1602 1601 1593
4 6231 2136 2145 2144
4 2591 3583 3325 4689
4 5768 6232 5984 5982
4 3336 2791 2458 3303
4 3342 3340 3339 5920
4 5235 1080 1071 1072
4 6228 1603 1594 1595
4 5233 1604 1613 1612
4 3074 3514 6129 6153
4 3336 3339 3338 3345
4 5456 1613 1621 1612
4 2988 3339 2989 3338
4 5373 1185 69 68
4 6233 2135 6231 2144
4 5181 627 636 5180
4 3325 4689 3583 3343
4 2580 2582 2583 3170
4 6234 5320 6235 5993
4 2762 2590 3111 3114
4 2580 2585 5220 4764
4 5136 4348 620 611
4 6226 1614 1622 1613
4 5182 5180 636 83
4 5181 5179 627 5180
4 5986 1224 5314 5887
4 2464 3928 2986 2463
4 2476 4233 2958 3602
4 6221 1589 1598 1597
4 2759 2820 3714 3495
4 5181 636 5182 5180
4 2353 2748 3033 2727
4 5182 82 1616 83
4 5230 638 5300 647
4 4260 3510 4937 5796
4 2344 3477 2347 2346
4 3144 2215 3864 3863
4 2619 4053 2618 2262
4 5956 1176 714 68
4 5957 714 705 706
4 4809 2834 2623 4070
4 5299 5373 713 714
4 4123 1627 4870 1618
4 5111 1617 224 1608
4 2791 2706 2705 2704
4 3561 1914 1915 1923
4 5110 1618 1617 1609
4 5214 1601 1609 1600
4 2203 2759 2254 3157
4 3111 4422 2764 3112
4 2764 4422 4470 4423
4 6236 5942 6237 6238
4 3305 2591 4689 3136
4 5057 5898 5897 2990
4 5221 1601 1592 1593
4 5911 6239 2139 5985
4 5130 1612 1621 1620
4 4039 1618 1610 1619
4 3542 3234 3235 3114
4 5258 667 666 658
4 3762 5840 1108 1099
4 5233 5923 6240 6228
4 6241 1603 1611 1602
4 6242 2153 2162 2161
4 4290 1183 1192 1182
4 6181 4283 6243 6244
4 3305 4348 3344 4908
4 3562 4328 3898 3559
4 5519 4376 3949 5518
4 4377 3562 6157 4379
4 3562 4379 3063 4331
4 5140 1606 1614 1605
4 5226 1652 1643 79
4 4379 3562 6157 4331
4 4273 5230 5183 646
4 5230 5300 5186 647
4 3562 6157 3898 4328
4 5897 5231 1595 5187
4 4170 5040 639 640
4 4071 1216 1215 1206
4 2859 2230 3275 2265
4 3623 3256 3627 3625
4 3618 3619 3235 3237
4 5320 1623 1614 1615
4 5020 1649 1648 1640
4 5767 5186 5230 5300
4 3626 3256 2620 4970
4 2372 1111 5910 1110
4 5131 1629 1620 1621
4 2735 2620 3257 4970
4 5993 1616 5182 645
4 3257 3256 3169 3625
4 6234 5993 5984 5320
4 5460 1637 1629 1638
4 5993 1615 1616 1624
4 3477 2610 3479 2347
4 3081 2438 2434 2433
4 1634 6000 1643 80
4 5226 1652 79 78
4 672 79 6000 663
4 2859 2225 2386 2301
4 79 6000 80 1643
4 3484 3099 2742 3096
4 5111 2138 225 2147
4 2798 2799 2792 2422
4 2263 2268 2271 2270
4 2621 3644 3262 2266
4 6107 3108 3766 1378
4 5214 1610 4039 1609
4 6107 3608 3108 6108
4 6107 4715 3766 3763
4 6242 5942 6238 2162
4 6107 3763 2802 4715
4 3620 1622 1630 1621
4 5328 1115 1106 1107
4 2802 3763 6107 2769
4 4123 1628 1627 1619
4 2826 2507 3186 2756
4 3020 3056 3028 3030
4 4293 3615 4354 3612
4 6224 2091 5021 5212
4 5130 1620 1611 1612
4 3193 1109 1118 1117
4 2925 1638 1629 1630
4 3715 3857 3717 3066
4 4398 2722 3554 2723
4 5314 1224 1214 1215
4 3620 1639 1631 1640
4 4028 3615 4029 4354
4 5184 3298 5263 4293
4 5933 5934 6245 4851
4 2290 2537 5405 2542
4 4342 4983 4942 4996
4 5984 1632 1623 1624
4 1622 6226 2973 1614
4 2534 2537 2290 2542
4 3122 4739 6077 4738
4 4275 1642 5333 1643
4 82 5999 1625 81
4 2099 2091 5212 3127
4 5993 645 5999 1616
4 2662 2667 2672 4927
4 2780 5240 4104 5244
4 2664 5197 2878 2879
4 663 5999 6000 5982
4 81 5999 1634 80
4 5982 1625 1633 1624
4 5289 684 5335 683
4 6181 6153 6243 6129
4 2880 5197 5211 4422
4 4697 4766 6182 6181
4 3881 6018 3880 5787
4 3165 2554 4697 2917
4 5368 5403 710 711
4 3167 2552 6129 5793
4 3167 6129 2552 2548
4 6181 2955 4001 3167
4 5374 5996 1204 5369
4 4952 6126 1482 239
4 4938 4308 4342 5680
4 3167 2955 4001 3166
4 3406 3123 3404 3407
4 3407 3123 3580 4733
4 4870 1626 1617 1618
4 3407 3123 4782 3580
4 4869 1626 1627 1635
4 3320 3322 3405 3408
4 3320 3406 2423 3321
4 2423 3407 3320 3405
4 4184 6017 1234 5995
4 6246 1437 1428 1429
4 3407 4733 4778 3123
4 5020 5355 5105 1648
4 3017 4936 3638 4876
4 3407 3403 4782 3404
4 6247 2142 2141 2133
4 6248 5359 6009 4854
4 4105 682 691 690
4 5407 5256 5409 5645
4 2228 3215 2374 2936
4 5789 4188 986 5775
4 2810 3316 2369 2367
4 6000 1643 5333 1634
4 6000 5276 672 663
4 2973 1632 1631 1623
4 3314 3317 3643 3638
4 6235 1615 1606 1607
4 3317 3643 5046 4309
4 5360 1649 1640 1641
4 5984 5982 1633 1624
4 3314 2369 3316 3642
4 3314 3315 3642 3316
4 4892 4313 4307 5046
4 6000 5276 663 5275
4 4342 5030 4983 4308
4 6094 1372 5575 4745
4 5333 1642 1633 1634
4 3874 206 1231 1232
4 5297 2141 2140 2132
4 5575 4691 1382 1373
4 3377 3270 4811 3999
4 4867 3999 3270 900
4 2742 2487 3377 3484
4 3270 3097 4867 4866
4 2491 3668 2268 2742
4 5692 3692 5905 5592
4 5692 6224 5592 5905
4 3656 3806 3657 4664
4 6020 1668 1677 1676
4 6249 1653 1644 1645
4 5692 5021 3693 6224
4 4357 1647 1655 1646
4 5692 6224 5905 4623
4 5692 5905 3648 4623
4 4283 2144 2153 2152
4 2896 5270 5352 6006
4 6250 1228 1219 1229
4 5355 1658 1657 1649
4 5887 1225 1224 1215
4 3390 3393 3395 3506
4 5987 1233 1232 1223
4 5130 5132 1611 1620
4 3394 3391 3799 3439
4 4342 5030 4942 4983
4 3940 3758 5259 3709
4 6232 1641 1632 1633
4 3391 3799 3512 3395
4 3390 3512 3505 3395
4 5023 5321 3113 5258
4 6094 4096 4671 4090
4 4852 4855 708 4853
4 5969 1641 1640 1632
4 5850 5646 5644 1065
4 5355 1648 1649 1657
4 2416 2566 3037 3036
4 5276 5253 5278 664
4 1658 5442 5360 1649
4 3276 3113 3112 5405
4 4854 6009 1669 1678
4 4913 691 700 699
4 5240 1650 1641 1642
4 2991 2688 3000 2997
4 1643 5226 79 6000
4 5244 1659 1650 1651
4 6000 5999 80 1634
4 3579 3561 3831 1914
4 4201 1652 1660 1651
4 2641 2648 2649 3138
4 3389 3400 3399 3398
4 6113 5916 1946 6114
4 5028 3742 4431 4430
4 2414 2567 2420 2566
4 2993 2566 3037 3552
4 3013 2972 2428 5339
4 3041 4410 2428 2425
4 2428 2646 5339 4410
4 4869 1636 1645 1644
4 5742 4954 6190 4950
4 4871 6023 2174 221
4 6249 1654 1653 1645
4 5460 1628 5133 1629
4 5910 4204 4276 1119
4 4636 3536 4225 6169
4 2533 1237 1236 1227
4 6146 5383 1949 1419
4 5789 163 5759 995
4 4243 6190 4252 4241
4 4954 3780 4241 4950
4 3778 3779 4954 3780
4 4954 4786 5802 4252
4 3047 3106 3046 3050
4 5988 5191 1645 1646
4 5190 1638 1646 1637
4 3285 3287 3019 4125
4 5929 2181 6005 3153
4 2909 2408 3285 3019
4 2442 1664 1663 1655
4 5105 1639 1647 1638
4 2907 2527 2526 3045
4 1182 4290 5408 4045
4 5938 1133 1132 1124
4 3047 2976 3104 3103
4 4358 1656 1647 1648
4 2220 3797 2221 2222
4 2391 3884 5589 3007
4 3214 3015 5727 3016
4 2362 2854 2851 2852
4 2860 3348 3641 3884
4 4275 1643 1651 1642
4 5572 3050 4287 3677
4 5999 80 663 6000
4 2701 2472 2831 3225
4 2498 6084 3382 3384
4 3868 4071 3870 5314
4 5241 6232 5397 5969
4 4107 5335 692 683
4 4107 691 683 692
4 6084 3384 2498 3540
4 4275 5240 1642 1651
4 2496 2699 4207 3384
4 4111 77 1661 78
4 2514 4415 4494 4414
4 3387 6010 6251 5356
4 2429 2325 2433 3174
4 2517 4231 4279 4289
4 2268 3268 2746 3644
4 2742 3096 3097 3346
4 2517 2514 5390 2424
4 6023 4831 220 1653
4 3381 3321 2493 2423
4 2958 3878 4213 5160
4 4701 4000 5206 4200
4 2125 5209 2964 4000
4 6023 1653 220 1644
4 5988 1646 1645 1637
4 5929 5790 6252 4056
4 4990 4225 6169 4226
4 4200 5234 4213 2116
4 2124 4000 2125 4200
4 6005 2182 2190 2181
4 4357 1656 1655 1647
4 4915 2780 5244 2782
4 5270 1227 1226 1217
4 6011 3917 1656 1665
4 2886 3417 3396 3416
4 2442 1663 1654 1655
4 2246 2248 2253 2551
4 2776 2782 4915 2870
4 3917 1655 1656 1664
4 6010 1668 1667 1659
4 6019 3388 3387 3386
4 6011 1656 4358 1657
4 4589 6248 6253 6189
4 4358 5355 1657 1648
4 4184 1234 1224 1225
4 4589 4292 3869 6189
4 3447 5352 4072 3416
4 4990 4226 5823 3907
4 6169 3536 4225 4990
4 6011 1657 1666 1665
4 3536 2501 3382 4992
4 3942 4399 1781 5492
4 3425 3468 3473 3421
4 4589 6248 5986 4185
4 2718 2716 2715 3326
4 5134 245 1428 244
4 4111 1661 4201 1652
4 5992 1669 1668 1660
4 2586 2577 2401 3185
4 2680 2385 2702 2699
4 5367 701 5362 692
4 3326 2822 2758 2863
4 4111 5226 681 78
4 4111 4105 4914 690
4 5670 5693 3561 1924
4 4855 75 699 708
4 4913 4914 690 699
4 3917 1664 1656 1665
4 2532 2569 1238 1229
4 4831 219 2192 220
4 2437 218 199 2201
4 3183 3178 3021 3177
4 2670 2192 2200 2191
4 4767 4059 3086 5742
4 3962 878 3831 877
4 2605 2624 2622 3034
4 3579 3831 150 1914
4 4052 4767 2625 3749
4 2812 2618 2931 3746
4 4767 3087 3086 2625
4 3982 3458 5917 5611
4 5259 3709 3757 3942
4 3978 1662 1653 1654
4 4055 1275 262 1266
4 6015 201 202 1236
4 6251 6019 1666 1675
4 4484 3458 5917 3811
4 6007 1228 1227 1218
4 4484 4808 3782 3903
4 3387 6019 5356 6251
4 5989 1674 202 1673
4 6010 1659 1667 1658
4 6009 5249 6020 1677
4 5724 5918 4808 4484
4 5356 1658 1666 1657
4 5994 1234 203 204
4 6251 1667 1676 1675
4 3942 6073 1790 4399
4 3443 5819 5343 3745
4 4484 3780 5473 3458
4 4184 6251 6017 5995
4 6020 1676 1667 1668
4 4484 5473 5724 5614
4 3485 4633 3869 4298
4 5992 1660 1668 1659
4 5367 4627 4203 5928
4 5336 208 4853 1230
4 6009 5249 5987 6020
4 4914 1661 77 1670
4 3781 4484 3780 5724
4 6237 2163 2155 2164
4 5965 4852 4854 4855
4 5996 1222 1213 1223
4 701 709 710 5368
4 2764 4425 3112 5196
4 3339 3338 5849 6222
4 2791 2460 2785 3337
4 6254 2163 2164 2172
4 2437 218 1671 6
4 4830 1671 1663 1672
4 2453 2593 2987 2989
4 3339 3338 6222 2989
4 151 3831 1923 1914
4 3339 5187 5971 2989
4 2703 2785 2705 2751
4 2711 2704 3530 2712
4 5182 1616 82 645
4 3175 2556 2732 2339
4 2732 3530 2712 2733
4 2435 2201 219 218
4 2670 2436 2532 1238
4 2435 2669 4831 2192
4 2435 2437 2201 218
4 2532 1228 6250 1229
4 3558 4330 3562 4328
4 5791 6007 2533 6008
4 1424 3898 1423 5660
4 3138 3139 4003 3756
4 6157 5660 4331 3898
4 5989 1235 6008 1236
4 6016 1673 1664 1665
4 6015 1673 201 1672
4 6022 1673 1672 1664
4 3898 3897 1423 5660
4 5994 203 1234 1235
4 3898 3897 4881 1423
4 5989 203 202 1674
4 3898 6144 3897 5660
4 3898 3897 6144 4331
4 2543 3218 2264 2620
4 5994 1675 203 1674
4 4184 1234 6017 1233
4 6251 1675 1666 1667
4 5249 5987 1233 1232
4 6017 1676 204 1675
4 3424 3940 5260 5259
4 5249 1677 205 1676
4 4399 3941 6073 4400
4 4833 4814 3793 5301
4 6020 6251 1667 1676
4 3346 3348 3794 3213
4 5359 1232 3874 1231
4 6009 1669 1677 1668
4 3874 1677 1678 206
4 3795 4160 5684 5685
4 4855 76 699 75
4 6253 4104 6189 5384
4 1230 6003 4852 5336
4 5800 4879 5590 4814
4 5736 4879 5800 5685
4 3795 5685 5800 4160
4 3795 5800 3348 3793
4 4914 4855 76 699
4 4855 1679 1670 76
4 4160 5800 4879 5685
4 2226 3214 3213 3264
4 3795 3641 5800 5685
4 5800 3641 3348 5590
4 3641 4875 3017 5685
4 5736 3640 3641 3319
4 2502 5340 1802 1803
4 2654 2383 2908 2904
4 6029 1769 1778 1777
4 6026 268 1681 267
4 6220 5180 1607 1598
4 3848 2908 3604 4101
4 3517 1700 1709 1699
4 6025 266 6047 1769
4 3262 2621 3645 3644
4 2229 2222 3263 3260
4 2850 3264 3281 4738
4 5728 5727 4738 3669
4 2854 2851 4601 3279
4 4532 6065 1259 3494
4 3561 1924 1923 1915
4 3279 3280 3263 3773
4 3593 3797 2220 3796
4 6220 1597 1598 1606
4 5978 3280 3645 6158
4 3645 5978 6230 3773
4 6028 1681 1690 1680
4 2600 3533 5357 2712
4 5444 743 734 134
4 6081 1767 1775 1766
4 2259 3577 3156 3576
4 5572 5597 4613 5628
4 6221 1589 5158 1598
4 3573 2610 2608 2352
4 5572 4613 5597 5605
4 6255 269 268 1767
4 3261 3269 3260 4925
4 3260 3261 4925 3771
4 3516 1689 1690 1699
4 6256 6028 6029 6051
4 2551 3881 3879 2552
4 3881 6236 3879 6238
4 5324 4 725 132
4 3881 3879 5795 6238
4 3073 2693 3068 3074
4 3879 5787 5790 6252
4 5455 734 725 133
4 6257 270 1683 269
4 2248 2549 2551 3368
4 3879 2891 5790 2898
4 4363 1693 1702 1692
4 5434 6258 1696 1687
4 3476 5473 3458 3981
4 2941 3779 4252 4560
4 2941 3779 4560 2939
4 3091 3779 4560 4786
4 4510 1684 270 271
4 6082 1775 1784 1783
4 4287 3102 3329 3504
4 5419 1714 1715 1724
4 6259 1686 1685 272
4 5466 752 751 743
4 5474 136 752 135
4 6081 6082 1775 4212
4 4484 5473 3780 5724
4 4240 4252 3780 4241
4 2262 5449 3495 5493
4 3085 2238 2750 3749
4 5476 5474 4099 1788
4 3087 3749 5000 4010
4 5303 1688 274 275
4 3778 4954 3090 5742
4 4253 130 131 723
4 3778 4059 2625 3777
4 5450 723 732 731
4 3777 2838 4070 2624
4 4059 6101 4058 3498
4 4059 4950 5099 6101
4 2805 2978 2977 3374
4 5491 6082 5319 1783
4 5121 4314 5437 1704
4 2493 2423 3379 3381
4 5652 5658 2486 2487
4 2490 2485 3048 2486
4 6259 273 272 1763
4 2272 2450 2430 2441
4 5324 5302 6258 5325
4 5303 1688 1687 274
4 2747 2744 3606 5658
4 6259 5465 4206 1764
4 2742 3346 2269 3096
4 5121 1705 1695 1696
4 2747 5674 2487 5658
4 5444 1770 135 134
4 2446 3322 2449 3321
4 5382 1687 273 274
4 5658 2486 2487 2744
4 2486 3606 2744 5658
4 3555 6065 5504 5817
4 2489 2744 3296 2980
4 5464 1694 1685 1695
4 5324 275 132 1688
4 2449 2799 2521 3288
4 3286 3100 3209 3285
4 2486 2744 3606 3296
4 2486 4700 5652 5305
4 5305 4700 3048 2486
4 5324 275 5303 1761
4 2550 3879 3882 2898
4 3248 3252 3743 3443
4 3195 2694 3733 3190
4 3194 3193 5749 1118
4 3192 5282 3706 4021
4 5302 1761 1762 1770
4 5303 275 274 1761
4 6260 4403 1751 1750
4 724 131 4253 5325
4 3194 3191 1126 5282
4 2694 3072 3415 3195
4 4253 5325 5451 724
4 3191 2660 3193 4143
4 4466 209 210 1239
4 6248 6189 5986 5991
4 6051 1682 1691 1681
4 6257 1682 1683 1692
4 4300 1259 1258 1250
4 6248 6189 5991 6003
4 6248 4854 6003 5359
4 3889 3430 3888 4478
4 4300 1258 1249 1250
4 3430 2395 3434 3889
4 6257 6255 269 1682
4 5260 3944 4430 5491
4 6257 6081 1766 1767
4 2640 2650 3026 4078
4 3516 1699 1708 1698
4 4299 1241 1250 1249
4 3912 3438 4037 4471
4 3912 4037 3454 4666
4 3245 3244 3776 3809
4 3245 3115 3244 3802
4 6261 1693 1683 1684
4 2645 4044 3826 5463
4 6063 1701 1691 1692
4 6262 1252 1261 1260
4 1691 1682 6174 1692
4 4130 1684 1685 1694
4 3808 4935 3801 3802
4 5310 749 748 740
4 2504 1784 4212 1785
4 3930 3718 3719 3242
4 3245 3774 3244 2944
4 4254 129 1715 1706
4 3286 3504 3287 4780
4 3723 3244 3115 3803
4 6259 5382 5434 1686
4 6258 1696 1687 1697
4 5448 721 722 730
4 2700 3212 2349 2348
4 5434 1687 1696 1686
4 3212 3241 3719 3718
4 5972 4463 4642 6040
4 5437 1713 1712 1703
4 3330 4613 5628 4287
4 2503 5340 2740 1802
4 4103 741 733 742
4 5325 1697 6258 1688
4 4253 724 723 131
4 5518 5519 3661 4593
4 1125 5975 1124 5941
4 3560 3174 2429 2594
4 4376 5518 3093 3946
4 3558 3661 4330 3042
4 1690 6051 3517 1691
4 3562 3661 3093 4376
4 3991 4558 3187 4557
4 4118 4439 1243 3488
4 3846 4286 4287 6263
4 6054 6034 4439 1253
4 4317 4318 4322 4055
4 4287 3330 4613 6263
4 3516 3517 1699 1690
4 6257 6255 1767 269
4 6063 1700 1710 1709
4 4536 4621 4537 4535
4 3517 1690 1700 1699
4 6069 1710 1719 1709
4 4536 4546 4621 5568
4 4536 4546 5568 4660
4 3507 3513 6264 1729
4 4316 6071 6265 1795
4 3517 1709 1708 1699
4 4536 4546 4660 5142
4 2503 1793 1802 1801
4 5481 1709 1718 1708
4 4439 3518 1716 3488
4 4365 1701 1702 1711
4 4536 2512 4546 5142
4 4364 1703 1693 1694
4 5425 1694 1695 1704
4 5145 5142 4660 4638
4 5437 1704 1713 1703
4 4459 300 291 292
4 5145 4535 4683 4678
4 4304 4627 4298 5367
4 3655 5288 4203 2540
4 2777 2847 3485 2844
4 4628 3485 3486 2539
4 2539 4628 2844 2540
4 5454 5117 5302 3609
4 3392 1720 1711 1721
4 4314 1713 1704 1714
4 5327 740 741 749
4 5121 1705 1704 1695
4 4253 1706 1696 1697
4 2539 3253 5998 4127
4 5422 1713 1714 1723
4 2540 4203 3655 4127
4 2676 2471 2680 2376
4 5870 4441 3536 6179
4 3536 6179 6084 5870
4 4839 4836 5366 4835
4 2500 3540 3384 3700
4 6065 3494 1260 1259
4 4211 212 1242 1241
4 6084 3385 3180 6179
4 4369 1245 4305 215
4 4839 4836 4302 4442
4 6054 1254 1253 1245
4 6084 3382 3384 3180
4 4509 1271 1270 1262
4 6069 1709 1719 1718
4 3518 1707 1708 1717
4 6053 287 288 296
4 2845 2929 3248 3443
4 2538 2540 3654 3253
4 3654 2879 2882 4161
4 5474 1788 136 1779
4 5417 1736 1737 1746
4 6262 1252 1260 1251
4 6063 1700 1701 1710
4 5031 1712 1702 1703
4 5789 4188 2022 162
4 3392 1721 1711 1712
4 2662 4927 2672 2878
4 2672 2878 4927 5908
4 5118 1705 1706 1715
4 4400 1801 1800 1792
4 6258 1687 1688 1697
4 5789 5771 986 995
4 5554 4214 4468 4217
4 2968 3235 3619 3236
4 3469 3471 3798 3470
4 5447 729 730 738
4 3951 3955 3952 3953
4 4447 740 732 741
4 3467 3473 3471 3470
4 4253 130 1697 131
4 3786 128 720 127
4 4016 3431 3955 3952
4 5506 1780 1771 1772
4 4018 4031 4017 3952
4 3467 3469 3258 3470
4 4254 5424 5419 1715
4 5117 1696 4253 1705
4 5118 1714 1705 1715
4 5422 1723 1722 1713
4 4254 5424 722 5450
4 4930 4959 531 4987
4 4930 531 4959 532
4 5448 722 731 730
4 5448 4447 4406 731
4 3518 1707 1717 1716
4 4930 4963 532 3930
4 4014 1252 4439 1253
4 3931 4963 4930 3930
4 6036 1734 1744 1743
4 4930 4959 4987 4947
4 3931 4930 3523 3804
4 5441 2279 2772 2924
4 5020 2871 5105 5355
4 2871 4358 5105 5355
4 4119 4373 1725 4305
4 2926 5105 2871 2889
4 5764 1255 1264 1263
4 5029 1720 1719 1710
4 6035 1726 1717 1727
4 6002 2614 4874 4117
4 6025 6027 6029 6047
4 4424 288 287 279
4 3062 3004 3095 3007
4 4375 3465 3004 3063
4 3894 298 307 306
4 3894 306 297 298
4 6027 6029 6047 4315
4 4369 6038 4305 1245
4 2503 1801 1792 1793
4 4375 3946 3004 5043
4 6025 1239 6047 266
4 4839 3598 4419 4302
4 6002 3462 6164 4379
4 4416 4369 6038 6036
4 2838 3782 4070 3903
4 3400 1712 1713 1722
4 4082 2834 3852 4092
4 6029 6047 1778 1769
4 5421 1732 1731 1722
4 3505 1740 1730 1731
4 2944 3246 2809 3240
4 2834 3852 4809 3501
4 4456 127 719 126
4 4448 747 746 738
4 3173 3231 3496 2633
4 2835 2832 3475 3501
4 5424 3786 5448 3785
4 5446 738 739 747
4 5419 1723 1714 1724
4 4423 4421 4422 5239
4 4423 5026 4421 5239
4 4403 1741 1742 1751
4 4456 3787 4460 5426
4 4423 5170 4469 6013
4 4411 1759 1749 1750
4 3407 3320 3406 2423
4 4832 213 214 1243
4 3320 3082 3040 3404
4 4473 324 4531 323
4 5764 1263 1254 1255
4 3407 3405 2423 4778
4 3320 3405 3407 3403
4 4119 1735 1734 1725
4 5417 4426 1736 1735
4 6055 1728 1718 1719
4 6266 1738 6264 3513
4 3390 1729 1720 1730
4 4441 4224 4435 4586
4 5461 3742 5031 3399
4 3320 3407 3404 3403
4 3600 3890 5108 5512
4 3894 297 288 289
4 5094 2029 2021 2030
4 6264 1737 1728 1738
4 3798 3471 3952 3953
4 4457 4395 299 3971
4 4374 12 280 279
4 3798 3890 3799 5107
4 3890 3799 5107 3512
4 5421 1723 1732 1722
4 3513 1730 1739 1729
4 3890 3973 3799 3512
4 3393 1721 1722 1731
4 4561 1308 3820 5801
4 3390 1720 1721 1730
4 3393 3400 1722 1721
4 3969 5115 3890 5512
4 5462 1749 1740 1750
4 3014 3214 3016 3015
4 4032 301 4459 292
4 4209 4448 747 756
4 2615 2616 2613 4827
4 2638 3658 3653 3659
4 2729 3366 2739 4827
4 4455 4404 4460 4403
4 4375 3948 3946 5043
4 4319 329 4321 328
4 4456 127 720 719
4 3366 3658 6032 3653
4 3785 1732 1723 1733
4 4455 126 4456 719
4 3617 3593 3797 2220
4 3769 2283 2236 2245
4 6041 1271 6040 1262
4 4416 1247 1256 1255
4 4051 2872 6044 1752
4 3151 2245 3760 3914
4 6041 1271 1263 1272
4 4835 4463 6041 4599
4 4303 295 4066 286
4 5763 4370 4368 277
4 3672 3311 3916 3915
4 4426 1736 1727 1737
4 4370 1753 1754 10
4 2910 2629 3166 2630
4 2245 3759 5531 3760
4 6046 4370 1753 1754
4 5972 4011 6035 4012
4 6267 4374 1755 1756
4 6267 4372 1755 4374
4 2454 2455 2452 2453
4 4374 1755 1756 12
4 3513 1738 1729 1739
4 4395 291 300 299
4 2762 3111 3113 3114
4 3957 4562 4488 764
4 6267 1747 1756 1746
4 3886 5923 2593 6064
4 2988 3340 2593 2989
4 2593 5971 3340 6064
4 5414 4404 727 718
4 4427 718 717 125
4 4403 3787 1742 1741
4 4407 4427 6260 5414
4 4378 5047 3462 4911
4 3136 3306 4170 4689
4 3787 1732 1742 1741
4 3787 1732 1733 1742
4 4455 4403 1742 1751
4 3732 2241 3151 3676
4 5097 3343 4284 4689
4 4404 719 728 727
4 4031 4018 4403 5462
4 3343 3583 5864 4689
4 5178 4689 4284 5864
4 2642 2643 2644 4412
4 4371 216 217 1246
4 2721 2418 4398 4716
4 6036 1734 1735 1744
4 2643 2642 2646 4410
4 4417 1265 1264 1256
4 4378 5047 5712 5043
4 4412 2643 2644 2303
4 4675 4750 1352 1353
4 1744 5418 5417 1735
4 6268 1738 1747 1737
4 6268 1747 1746 1737
4 3024 2303 3056 2644
4 4405 1755 1745 1746
4 4378 4873 5047 4864
4 5417 1745 1736 1746
4 6035 1718 6055 1727
4 4429 290 289 281
4 4426 6264 1737 1728
4 4301 1748 1747 1738
4 5512 5515 4395 3974
4 4378 4873 5712 5047
4 3976 299 298 290
4 2251 2290 2287 2536
4 4378 3948 4864 4377
4 4381 13 1756 1757
4 3247 2846 2539 2929
4 3825 1749 1748 1739
4 4382 282 4068 4402
4 2884 3879 2551 2550
4 2279 5020 2782 2870
4 4427 6260 4404 4455
4 2873 3388 3386 3387
4 4403 1750 1741 1751
4 4402 282 283 291
4 3192 2694 3414 3696
4 3445 3616 4072 4073
4 4403 5462 4453 1741
4 6260 1750 1751 1760
4 5352 2876 2804 3445
4 2876 5352 2897 4073
4 2876 3870 3388 3387
4 4416 2872 4371 6044
4 6044 1743 1753 1752
4 4073 2897 2876 5271
4 2876 5271 3870 4073
4 2897 2876 2804 5352
4 3894 3976 3971 298
4 4303 286 4368 287
4 5440 4405 6046 5417
4 6044 1744 1753 1743
4 3445 5352 2886 2804
4 3508 4313 3509 4307
4 4309 4343 4307 5514
4 6046 1753 6044 1744
4 4372 1754 1755 11
4 6266 1738 3513 4301
4 3210 3931 3805 3718
4 6267 1756 1755 1746
4 5418 6045 6035 4119
4 4424 6053 4368 287
4 3162 3163 2367 2633
4 3162 4903 2367 3163
4 5016 4006 758 759
4 5365 4303 4066 5763
4 4312 4311 4344 4343
4 4424 289 288 280
4 4310 2367 4903 3637
4 3824 1748 1749 1758
4 4380 6266 4301 1747
4 3974 3824 4402 4383
4 3974 3973 4301 4380
4 3068 3065 3721 3415
4 5515 3974 3824 4402
4 3824 1758 1757 1748
4 3998 3223 3854 3332
4 4383 281 282 290
4 4411 3825 5462 1749
4 3448 3446 5068 5222
4 4427 4408 124 717
4 5414 718 727 726
4 6260 1759 1750 1760
4 4031 4459 5515 4402
4 3448 3854 5222 3721
4 4407 1759 1760 16
4 3721 3858 3728 3716
4 5324 1761 133 275
4 3028 3029 3030 5251
4 2717 2715 2716 3059
4 3589 4606 2996 3596
4 5382 273 1687 1686
4 5118 4253 4254 1706
4 5303 5304 5382 6258
4 2578 3259 3911 4677
4 2827 5055 3968 4795
4 5506 6039 1780 1781
4 4378 5047 4911 4864
4 4326 1685 1684 271
4 2358 2360 2770 2359
4 5465 1765 1773 1764
4 5491 1774 1782 1773
4 4098 1789 1788 1780
4 5382 1763 1762 273
4 5445 5302 5454 5506
4 4364 1703 1702 1693
4 5273 3740 5274 3736
4 4510 1684 1683 270
4 4206 1772 1763 1764
4 3740 5274 3369 3684
4 2974 3187 3992 4558
4 6259 5464 5465 4326
4 2357 3107 3371 3738
4 2653 3187 2974 3186
4 3177 3178 3179 3454
4 4253 5451 723 724
4 4136 6179 3179 3180
4 4326 4130 5465 4510
4 6261 1683 1693 1692
4 1765 1774 6081 5465
4 5476 4452 752 761
4 5445 1780 1779 1771
4 6259 1685 4326 272
4 4510 270 1766 1765
4 3911 3912 4478 3889
4 6257 1683 1682 269
4 3904 3905 4138 3906
4 3442 4568 3527 3939
4 6081 1765 1766 1774
4 2394 3259 3662 3601
4 6257 1767 1766 269
4 4212 1776 1785 1784
4 4666 3454 3185 4137
4 6255 1682 1681 268
4 4441 4136 6179 4436
4 4136 3906 4471 4436
4 5093 1500 237 1491
4 3547 3817 3060 3818
4 6050 1767 1768 1776
4 3059 3349 4578 5548
4 6025 7 267 1680
4 6025 6029 1769 6047
4 3059 5412 5548 4578
4 6047 1248 265 1239
4 6026 1769 1768 267
4 3818 4578 1315 1316
4 1776 1777 4212 1785
4 6256 6051 6029 6050
4 3985 3517 3516 6028
4 5374 71 1203 1212
4 5444 5455 134 734
4 2467 2631 2233 2466
4 4098 5454 3609 5466
4 4506 4469 4501 3730
4 5444 1770 1779 135
4 2562 4156 3675 5469
4 5445 1780 5506 6039
4 2827 3549 5055 5808
4 5116 5451 732 5450
4 5444 3609 734 743
4 3840 4156 2786 3841
4 4686 2591 2242 3731
4 4506 3994 3730 4507
4 2503 5319 1793 1792
4 4502 3675 4505 3996
4 3151 2236 4726 3152
4 4326 1685 271 272
4 6082 5319 1783 1784
4 3995 3674 3837 3993
4 5492 1781 1772 1773
4 4215 768 759 760
4 5465 1774 1773 1765
4 3674 3836 3837 3993
4 3544 5268 3909 4573
4 6081 1766 1775 1774
4 4363 1692 6261 1693
4 3544 5267 5268 4573
4 4363 1701 1692 1702
4 3544 3333 2722 3545
4 1767 6081 1775 6050
4 5263 5184 5262 5609
4 1242 3488 4211 4118
4 5263 3544 3300 3553
4 6259 4206 5382 1763
4 5492 1782 1781 1773
4 3783 71 711 712
4 5400 5817 1268 5401
4 3909 3298 3544 3482
4 4420 4299 1241 4454
4 5263 3298 3544 3909
4 4466 4420 1689 6028
4 3557 3562 3898 3559
4 4634 5374 6269 5368
4 72 710 5403 711
4 3987 3494 4532 4300
4 3898 3897 3559 4881
4 3985 6174 3517 6051
4 3933 2728 3897 3896
4 6058 265 1787 1778
4 3897 6136 3933 3896
4 6144 1423 4234 3897
4 5122 5302 6258 5304
4 5445 1779 1770 1771
4 3262 3263 2850 3280
4 5474 135 1779 136
4 6257 6081 4510 1766
4 5476 5474 136 752
4 3794 3017 3015 4875
4 2861 3122 3214 4738
4 3122 3642 3016 5716
4 4762 3642 3637 3133
4 4006 768 767 759
4 5484 769 4217 778
4 6039 1781 1789 1780
4 4731 6052 5398 5400
4 2366 3122 3642 3016
4 4540 6270 1821 1822
4 3315 4936 3017 3016
4 5030 4943 4983 4171
4 2365 2367 3637 3163
4 4399 1791 1782 1783
4 6082 1775 1783 1774
4 5472 787 786 778
4 4399 1791 1790 1782
4 5583 4722 5877 4611
4 6052 1277 1285 1276
4 5319 1793 1792 1784
4 3639 3315 3317 4762
4 3688 3278 3689 5189
4 4556 5330 4495 6078
4 5491 1783 1782 1774
4 5051 776 767 768
4 3826 1810 1819 1818
4 6069 5029 1719 1710
4 4314 1714 5422 1713
4 4675 4611 4750 1353
4 2769 3370 3369 3610
4 2771 2412 2766 2801
4 3986 3988 4315 4533
4 3327 2822 2758 3326
4 4097 1799 1798 1790
4 4532 1267 1258 1259
4 4315 1786 6265 1777
4 2504 1785 1793 1784
4 6265 4296 6071 4316
4 3685 3680 2901 3683
4 3611 3612 4294 4492
4 5526 3910 786 795
4 5559 4236 4688 5532
4 5444 1779 5474 135
4 6265 1794 1785 1786
4 3610 3684 2903 3370
4 2900 3611 3612 4293
4 2760 2576 3385 3328
4 4316 6058 4318 1787
4 4316 1796 1795 1787
4 6026 1681 6255 6051
4 4318 263 1796 264
4 2476 4233 3602 2483
4 4099 1798 1797 1789
4 6264 1728 1729 1738
4 2479 4233 5004 5003
4 5542 5475 1797 1806
4 2580 2584 2479 5220
4 5476 5466 4099 5474
4 3337 2954 2953 2952
4 3471 5361 4511 3953
4 2454 2465 2561 2466
4 5609 5262 6087 5185
4 5476 1788 137 136
4 4097 1790 1798 1789
4 3694 3614 3613 5806
4 6074 1811 1819 1810
4 5045 4307 4343 5514
4 3694 2775 2985 2984
4 3785 1723 1724 1733
4 3937 4011 6271 6055
4 6073 1800 1799 1791
4 6271 1718 6069 1719
4 3100 3209 2977 2976
4 5498 1286 1277 1278
4 2494 2496 2866 2381
4 6265 1795 1794 1786
4 5498 1287 1286 1278
4 711 71 5403 72
4 5319 1784 1792 1783
4 4118 6262 4439 4012
4 4215 4006 759 768
4 2796 3209 3285 2983
4 2502 1802 1793 1794
4 5317 6082 1784 5319
4 2520 5305 4291 4699
4 4363 1693 6261 4364
4 5562 4217 4216 4467
4 2504 1794 1793 1785
4 2520 3572 5305 4699
4 4315 1778 1248 6058
4 3246 2935 3630 3629
4 4055 262 1805 263
4 4318 1266 4055 263
4 4209 3957 4448 756
4 4172 4109 3775 4912
4 2638 3659 2636 3658
4 4172 4109 4912 3807
4 4316 4317 6071 1795
4 3635 3808 5955 3801
4 4054 1276 1275 1267
4 4317 1796 1804 1795
4 3062 2617 3460 2301
4 2934 3318 3932 4948
4 5030 4308 4977 4983
4 5543 141 797 140
4 5615 5619 5473 4250
4 4099 1789 1797 1788
4 5540 797 796 788
4 5304 5434 4206 5382
4 5473 4250 4241 5615
4 5476 4452 5466 752
4 5526 795 786 787
4 2619 2626 3777 3498
4 5555 4468 1825 1824
4 5473 5615 6194 5614
4 5473 5615 4241 6194
4 3078 4643 3291 3079
4 2309 4720 2311 2310
4 3552 1278 1270 1279
4 6075 1812 1820 1811
4 3352 1304 1295 1296
4 5500 1287 1295 1286
4 3080 2356 2354 3827
4 4327 3079 3043 2310
4 3078 3079 3080 2311
4 3179 5532 6179 5477
4 3075 3080 3079 4327
4 4675 5583 4611 1344
4 5925 4033 306 315
4 5029 1720 1710 1711
4 5877 5781 5583 4694
4 4064 1808 1807 1799
4 4693 5877 4611 3737
4 3080 3083 2356 3832
4 4131 6272 6090 1303
4 5883 5777 3591 6156
4 5865 5834 5838 5867
4 4216 760 4452 761
4 5261 6060 4631 5595
4 3490 3587 6176 5882
4 5883 3591 5735 6156
4 6071 1795 1803 1794
4 3516 1707 4211 1698
4 4570 1831 4571 1832
4 6041 1262 6040 6034
4 6273 1813 1805 1814
4 5882 5883 5735 5884
4 4054 1276 6062 1275
4 4054 5400 1267 5401
4 6031 5883 5735 5882
4 6031 3810 3659 3490
4 4317 1796 1805 1804
4 4317 4055 1805 1796
4 6273 1813 1804 1805
4 2864 4293 3298 5184
4 2768 3370 2901 2765
4 4216 761 5475 770
4 2768 2903 2766 2902
4 4064 1807 1798 1799
4 5541 1816 1807 1808
4 4468 1824 1815 1816
4 4044 1810 1809 1801
4 5463 1808 5541 4064
4 5576 5527 5439 5563
4 4622 4646 382 373
4 5463 1818 1817 1809
4 4028 2376 4029 3615
4 6174 6063 3517 1691
4 2494 2495 2509 2508
4 2469 3294 3298 3482
4 2974 3548 3549 4041
4 4002 2262 5449 2821
4 3746 4052 3747 4002
4 3819 2607 2610 2608
4 4131 1312 6088 1311
4 3140 3141 2775 2984
4 4005 4323 757 5311
4 3894 4208 306 307
4 3821 1317 1326 1325
4 5591 4057 3747 5592
4 4468 1825 1824 1816
4 3747 5620 4010 4008
4 5340 1803 1811 1802
4 3107 4142 6108 5601
4 4558 2354 2974 3739
4 2740 1811 1810 1802
4 5507 4135 788 779
4 5189 1331 1323 1332
4 3108 6108 3109 1378
4 3107 3109 6108 4142
4 5823 5291 5822 6093
4 2360 3369 3371 3107
4 5772 4561 1299 1300
4 4468 5513 5544 1825
4 4513 4531 324 333
4 2359 3292 2793 3077
4 6074 1820 1819 1811
4 4132 1294 6272 1303
4 2676 2380 2384 2679
4 3369 4702 3107 3108
4 6062 4054 1275 6049
4 6087 6088 6067 4131
4 5534 1294 1293 1285
4 4540 1813 1821 1812
4 4135 4467 139 779
4 3371 3401 5601 6112
4 3369 3108 3608 4702
4 5565 806 814 805
4 3029 5526 3160 3910
4 5541 5513 1816 1817
4 5834 5852 5833 1048
4 5560 813 804 805
4 6060 1828 1837 1836
4 5340 1803 1812 1811
4 5544 1826 1834 1825
4 5540 5555 5528 5543
4 4631 1827 1818 1819
4 5399 1296 1288 1297
4 5119 5117 5118 4314
4 5834 5852 1049 5854
4 5599 1348 1357 1356
4 3058 3820 4352 3821
4 3107 5601 6108 4702
4 5439 1843 5528 6274
4 3107 4702 3371 5601
4 2769 3763 6107 3108
4 3524 4035 3598 4836
4 3525 3598 2999 4839
4 5542 1806 1797 1798
4 71 5403 1212 5374
4 2502 1803 1802 1794
4 5555 1834 1833 1825
4 6274 1844 1843 1835
4 5251 4725 6274 5544
4 2996 2999 5700 2994
4 3588 4552 2994 4134
4 6075 1812 1821 1820
4 6272 1295 1304 1303
4 6270 1821 1822 1830
4 3689 1341 1340 1332
4 4570 4131 1302 4132
4 2313 2566 2995 4133
4 6270 1830 1822 1831
4 2993 3551 3552 5399
4 4413 1311 258 6086
4 4132 1293 1294 1302
4 2675 2788 3313 2786
4 2546 255 254 1877
4 2476 2958 4233 2480
4 4317 6273 1805 4055
4 4387 3519 3312 4386
4 1293 4132 5534 6227
4 4571 1832 1831 1823
4 6153 4001 5892 3671
4 2075 5354 6223 2084
4 4131 6086 1302 1311
4 4135 1815 1824 140
4 2630 4464 4001 3166
4 3313 3311 3672 4385
4 5543 1833 141 1824
4 5496 5541 1817 5513
4 4919 5780 991 982
4 5563 1842 142 1833
4 3451 3788 3452 3455
4 3313 2236 4726 3914
4 4725 4333 1844 1845
4 4387 4386 5407 4388
4 4464 3166 6153 4001
4 3931 3929 4963 3930
4 4963 4993 3521 542
4 5496 1827 1826 1818
4 4539 364 4587 363
4 4963 3930 533 532
4 4963 533 3930 4964
4 3523 4963 4126 3521
4 4787 1821 1830 1829
4 3055 5051 777 776
4 4787 1821 1829 1820
4 4437 4544 345 346
4 3053 3910 5547 794
4 3687 1339 1330 1331
4 5030 4307 4177 4308
4 4963 4930 3523 3931
4 6060 1836 1827 1828
4 4930 3522 3521 3523
4 2403 2578 3185 2577
4 4572 3546 1830 1839
4 3818 1307 1316 1315
4 4632 1829 1828 1820
4 4392 4146 1866 5378
4 3951 3456 3957 3472
4 4027 5263 4089 4088
4 3183 3456 3468 3784
4 5030 4308 4177 4977
4 2575 2576 2586 2698
4 3456 4562 3454 4037
4 6056 1823 1822 1814
4 4571 1822 1823 1831
4 4437 337 4564 346
4 6091 4572 1840 1839
4 2725 3664 4351 2727
4 2725 3664 2727 2813
4 2725 5545 3664 6275
4 6224 2083 2091 2082
4 2294 2351 2353 3533
4 6067 6091 4572 1840
4 5692 5905 5257 3648
4 2725 3664 2813 6275
4 5555 1825 1833 1824
4 3528 2813 3664 3663
4 2350 2353 3091 3664
4 5439 1852 1851 1843
4 3681 1342 1351 1350
4 3892 5058 5539 6192
4 5576 5563 142 806
4 3091 2943 3892 5539
4 3350 3352 3351 6090
4 5294 1837 1845 1836
4 2547 1338 1339 1347
4 5267 1847 1838 1839
4 2348 3892 2350 2943
4 3091 3034 2939 3032
4 3033 2749 4351 2727
4 4267 1859 1858 1850
4 2700 2939 2345 3092
4 3228 2363 3800 2852
4 6037 1321 1312 1313
4 2836 3780 4484 3458
4 4573 1838 1837 1829
4 5379 4147 1875 1884
4 5268 1846 1837 1838
4 4088 1847 6092 4089
4 4145 1864 6124 1865
4 6099 1864 1863 1855
4 5605 841 840 832
4 2623 2624 2626 4070
4 3546 1839 1838 1830
4 4706 3105 5579 849
4 2834 2623 4070 2838
4 4324 3767 4677 3590
4 2529 2530 2531 3335
4 6087 6037 5571 4270
4 4692 1381 5575 1382
4 5547 794 3910 5561
4 2795 2413 2794 2410
4 2406 3370 2765 2823
4 5354 2084 232 231
4 4570 6067 6068 4571
4 4570 1840 1831 1832
4 4570 259 1841 1832
4 6272 1295 5499 5500
4 6272 5499 1295 1294
4 2410 2409 2404 2412
4 6253 4589 4104 4915
4 5528 1834 1842 1833
4 2276 2781 3276 2541
4 5576 806 5527 5563
4 4332 1853 1852 1844
4 2772 5397 2782 5441
4 6072 6274 5439 5528
4 5294 6060 1836 4725
4 6274 1843 1834 1835
4 5292 1846 1855 1854
4 1297 5399 3547 2995
4 5241 5240 2780 2782
4 5834 5868 5852 5854
4 2773 2779 2782 2776
4 4333 1845 1854 1853
4 4102 1359 1358 1350
4 4682 827 4711 828
4 4333 1845 1853 1844
4 6116 1368 1367 1359
4 3456 3455 3454 4562
4 2278 2549 2548 2552
4 2958 4205 2964 5160
4 5138 2071 6276 2072
4 2544 1338 1329 1330
4 5435 1863 1862 1854
4 6071 1804 1803 1795
4 5268 1847 1846 1838
4 4088 1856 1855 1847
4 4218 5530 5529 1333
4 3877 3143 2217 3566
4 5597 5605 832 841
4 3860 3129 3877 3862
4 6088 6037 1312 6090
4 4572 1840 1839 1831
4 2958 3602 3128 4213
4 5267 1848 1847 1839
4 3109 4142 5625 1388
4 4146 1866 1874 1865
4 4715 1368 1377 1376
4 3553 4572 5267 3546
4 5142 4895 4219 5141
4 3928 2987 2986 2463
4 6091 1840 1849 1848
4 6067 1841 4267 1840
4 3766 1378 1387 1386
4 4285 1873 1872 1864
4 3515 3878 2217 3602
4 2629 3166 2959 2955
4 6124 4146 1865 4089
4 4559 5586 824 823
4 5576 5527 806 5565
4 4332 4333 5435 1853
4 5399 3547 2995 4133
4 5596 146 842 145
4 3372 3053 3182 3178
4 4219 4637 4646 4222
4 5523 784 3053 793
4 5586 5560 5565 814
4 4286 5569 6263 1880
4 3176 3182 3179 3178
4 5865 5834 5867 5868
4 5380 5600 5617 5381
4 5547 5561 803 794
4 3020 3026 3022 3021
4 5523 3179 3182 3178
4 3031 3373 3053 5547
4 4089 1848 1856 1847
4 4088 1847 1855 1846
4 4081 370 4225 371
4 3053 793 5547 5535
4 5523 3182 3920 5535
4 5523 3182 3179 3920
4 5557 1857 1848 1849
4 3682 1341 1333 1342
4 6259 272 4326 1764
4 3179 3920 3180 6179
4 5606 1862 1861 1853
4 5597 833 5596 842
4 4206 5465 5491 1773
4 4489 4596 789 798
4 5557 1849 1858 1857
4 6111 1860 6131 5564
4 3177 4136 3179 3180
4 5523 3179 5477 5532
4 4354 6124 4027 4089
4 4089 1857 1856 1848
4 5294 5268 1837 6277
4 5653 1919 1927 3570
4 3687 3689 1340 1331
4 3178 3454 4576 3179
4 4568 3939 5438 5416
4 4267 1849 1850 1858
4 3442 4568 3938 3527
4 5377 3689 3680 3683
4 2314 2418 2721 2318
4 5609 5185 6037 5511
4 4392 1866 1857 1858
4 4267 4268 1858 1859
4 3648 1555 1564 1563
4 4492 5379 4147 5378
4 4286 4144 1872 1871
4 4268 1859 1867 1858
4 2544 2547 1338 1339
4 2546 1347 6066 254
4 5021 5212 3693 6224
4 5564 1851 1860 144
4 4015 4014 4642 5505
4 6111 1852 1860 1851
4 3526 4642 3936 3939
4 3605 4101 831 5605
4 6259 5464 4206 5465
4 3936 4011 5438 5972
4 5438 6045 3939 5972
4 6131 1869 5577 1860
4 5438 5416 3939 6045
4 6278 1870 1861 1862
4 4277 4285 4019 4124
4 6179 5508 6279 5497
4 3960 868 867 859
4 4139 5607 4140 850
4 4756 3444 4781 3616
4 4269 4270 4268 4325
4 5378 1875 1866 1867
4 406 4695 4790 407
4 3444 3445 4072 3409
4 3444 4756 4072 3616
4 3444 4756 5819 4755
4 6124 1865 1864 1856
4 6278 1871 1870 1862
4 3165 4766 4697 3167
4 2583 2957 2956 5219
4 4392 1867 1866 1858
4 3651 5087 4008 3652
4 2581 2583 2955 2957
4 4089 1866 1865 1857
4 3673 3848 3603 3847
4 4804 1916 1907 1908
4 2583 2584 2585 6280
4 5610 842 5597 5596
4 5201 6128 5629 4336
4 2583 5128 5219 6280
4 4325 256 1868 1859
4 6223 6281 2075 2074
4 5098 1554 1545 1546
4 5379 1884 1875 1876
4 4268 1868 1867 1859
4 2545 1876 1867 1868
4 6109 1926 1925 1917
4 4806 1910 6128 1911
4 3623 3624 3627 4984
4 5577 1869 145 1860
4 6131 1869 1860 1861
4 5974 2957 2955 6181
4 2957 2955 6181 4766
4 5610 5663 4141 1887
4 4766 6231 2957 5219
4 4766 6231 5219 6182
4 6131 1870 1869 1861
4 3959 3579 1905 3561
4 5213 2585 5221 5220
4 4706 850 859 858
4 2478 2477 2986 2479
4 6263 1871 1879 1870
4 3928 4764 2986 2987
4 6107 1377 1369 1378
4 6103 1359 1351 1360
4 3182 5537 3373 3920
4 5220 5171 5004 6225
4 4263 1909 1908 1900
4 4565 5536 6170 5055
4 5252 5143 5221 4764
4 3670 867 876 875
4 4518 5428 4481 5638
4 5143 5221 4764 5220
4 4145 1874 1873 1865
4 5377 1339 3687 1340
4 5579 4101 5607 840
4 6263 1880 1879 1871
4 5551 6096 1356 1365
4 6259 5464 1685 1686
4 2580 5220 2585 2584
4 5378 1876 1875 1867
4 2686 3945 3741 3742
4 2749 2726 4351 2727
4 4146 1875 1874 1866
4 846 3323 4474 837
4 4900 829 3604 838
4 2546 255 1877 1868
4 4009 2239 2238 2755
4 4765 4733 4763 435
4 2262 3495 5449 2821
4 4052 4010 4057 5000
4 2545 1877 1876 1868
4 2545 5378 5376 4493
4 5381 1894 1893 1885
4 5175 5177 6209 1383
4 5381 1893 1884 1885
4 6117 1900 1899 1891
4 5610 5596 146 842
4 5628 5663 1888 3329
4 6130 1870 1878 1869
4 3860 2215 3566 3863
4 3087 4271 4010 5000
4 5628 1887 1878 1879
4 4286 1880 1871 1872
4 5607 840 4101 5605
4 3330 1880 1888 1879
4 5516 3700 2510 5580
4 3087 4010 4271 2238
4 4052 4059 4767 4061
4 3141 3692 4008 4007
4 3135 3731 5153 4506
4 4142 1371 1380 1379
4 4806 1911 5624 1920
4 3135 3731 4687 5153
4 3535 4986 3836 4985
4 4147 1875 1883 1874
4 6259 273 5382 1686
4 4635 4139 5663 4232
4 2461 2558 2790 2456
4 5396 1397 1396 1388
4 5187 3339 5971 5920
4 3730 3731 3135 4506
4 6089 1883 1882 1874
4 5571 1330 4270 1321
4 2498 3539 2510 4680
4 4537 6119 4557 4535
4 3136 3135 3731 4687
4 4797 4816 4840 4784
4 6115 5377 1349 1348
4 4147 1884 1883 1875
4 4970 3626 2621 2620
4 5377 2547 1339 1348
4 4282 4124 5608 4285
4 3623 3256 3625 3169
4 2805 3256 2745 3623
4 6066 1886 6106 1877
4 2491 2747 2487 2744
4 6106 1877 1885 1876
4 3257 3256 3627 4970
4 6106 1886 1885 1877
4 6282 6080 6283 5624
4 5550 1374 1365 1366
4 3380 881 872 873
4 3266 2269 3267 2263
4 2543 3257 3256 3169
4 4270 1330 1329 1321
4 3961 869 868 860
4 6127 1890 1881 1882
4 3038 2448 3567 3039
4 3961 868 859 860
4 4751 5703 6284 433
4 3408 2446 2447 2448
4 5663 1896 1887 1888
4 5670 3561 6285 1915
4 3275 3885 3095 3567
4 2446 2449 2267 3321
4 3330 1889 1888 1880
4 4797 4768 888 36
4 4089 1866 4392 4146
4 2521 3290 2514 4494
4 2734 6138 6139 5916
4 3049 2909 2795 3285
4 5664 3865 2747 5674
4 6107 4715 6116 1368
4 5630 1909 1900 1901
4 4667 1385 5176 1376
4 3219 3217 3061 2265
4 3681 5274 1351 4218
4 4804 1917 1916 1908
4 3569 1918 1917 1909
4 3681 3683 6103 3684
4 3681 6103 1350 1351
4 6118 6116 4715 1367
4 2310 4038 4744 4705
4 3681 6103 1351 5274
4 5629 5581 5630 5631
4 4667 5639 1385 1386
4 4797 37 4815 464
4 6033 4658 5141 4683
4 6147 3570 1918 1919
4 5689 3568 1927 1926
4 1886 6096 1895 253
4 5600 1894 1885 1886
4 4568 5438 3440 5416
4 5600 1895 1894 1886
4 6147 3570 3569 1918
4 6115 5552 5551 1357
4 3127 2091 5021 2100
4 5174 6080 5177 6286
4 6154 1411 1419 1410
4 3578 148 869 860
4 3440 3441 3442 4568
4 3578 4232 1905 1896
4 4232 1897 1905 1896
4 5663 1897 1896 1888
4 3329 1897 1888 1889
4 5416 5440 6046 5417
4 5416 4426 5418 6045
4 4568 5416 3440 4567
4 5416 5440 5417 4567
4 2414 2972 2425 2428
4 3101 3959 3960 3961
4 5416 3440 4567 4426
4 3504 1898 1889 1890
4 6117 1891 1899 1890
4 5701 5650 899 898
4 4789 5677 5675 3831
4 5521 1404 1403 1395
4 2099 2091 3127 2100
4 2274 2251 2276 2537
4 3569 1909 1917 1908
4 2925 2914 2926 2279
4 2692 4581 3250 2667
4 2279 2874 2926 2871
4 4336 1893 1901 1892
4 5365 5416 5440 6046
4 3541 2772 2276 2275
4 5617 1902 1893 1894
4 2772 5241 2781 2773
4 4715 3763 2802 2803
4 2583 6280 5219 2956
4 6083 1895 1903 1894
4 5129 4048 2917 2916
4 4336 6128 1901 1902
4 5656 876 868 877
4 4704 3827 4041 4616
4 4797 4840 897 888
4 4768 879 888 36
4 5440 4405 4368 6046
4 4670 4713 4669 4151
4 5630 1901 1910 1909
4 4438 4151 4670 4669
4 5601 5657 4745 1371
4 3143 3238 3864 3239
4 5550 5551 1366 1365
4 5549 6083 6079 5616
4 2335 2931 2337 2751
4 6282 5175 6118 5176
4 6282 4679 5176 6118
4 3919 5750 4601 5738
4 3579 1914 150 1905
4 4601 6287 3771 4262
4 3233 1906 1897 1898
4 3771 4601 3773 6287
4 3962 869 878 877
4 3962 869 877 868
4 3773 6287 5731 3771
4 3279 3283 3282 6288
4 3919 3550 4602 5756
4 3694 6076 5806 4888
4 5663 4232 4141 1896
4 3504 1898 3329 1889
4 6076 1575 1584 1583
4 3919 5738 4601 4262
4 3233 1907 1906 1898
4 5857 5936 5889 1072
4 6285 1916 1915 1907
4 5654 5655 1929 1928
4 4585 2311 4718 4543
4 5174 1384 6120 1393
4 4285 4144 6099 1863
4 4925 2620 3261 3269
4 3918 3230 2852 3550
4 2854 3550 3283 4602
4 4234 1432 1431 1423
4 6128 1902 1910 1901
4 2806 3335 3492 3789
4 2835 2833 3171 3475
4 5616 1903 1911 1902
4 3233 1907 6285 1906
4 6132 6150 1930 1939
4 2390 2937 3581 4095
4 5616 1912 1911 1903
4 3582 3629 3245 3581
4 4337 1404 1396 1405
4 2839 3232 2529 3457
4 2361 2224 2297 2363
4 6128 1911 1910 1902
4 6026 6255 268 1768
4 4341 903 895 904
4 5603 1410 5659 1401
4 3015 3017 5727 3016
4 6079 1904 1912 1903
4 3315 3638 3017 4936
4 5174 6286 5177 1392
4 4328 1416 1425 1424
4 3960 4706 859 858
4 5624 1920 1911 1912
4 3017 4876 3016 4936
4 6209 250 5177 1913
4 3378 4917 3099 3123
4 5174 4758 6286 1392
4 4758 6133 1402 1393
4 6289 1929 1920 1921
4 4813 5683 3638 3017
4 3129 2089 2090 2098
4 887 150 3831 151
4 3861 2090 3129 2089
4 3017 3638 4813 4876
4 3460 3463 3461 2937
4 3969 3976 5512 3971
4 3890 5108 5115 5107
4 3798 5107 3799 3395
4 5670 1915 1916 1924
4 6285 1915 1906 1907
4 3233 4232 1897 1906
4 6076 1575 1583 1574
4 5630 4806 1910 6128
4 3568 1918 1926 1917
4 6138 1939 1948 1947
4 5704 903 3865 4341
4 3503 4804 1907 1908
4 3469 3798 3890 3799
4 3258 3799 3394 3470
4 3394 3470 3799 3395
4 3441 3439 3799 3973
4 6255 6051 1681 1682
4 2480 2964 2581 2958
4 4821 469 4255 468
4 4000 2125 5160 2964
4 6147 1919 1918 1910
4 4108 1458 5962 1449
4 4000 5209 6290 2125
4 2480 5881 2964 4205
4 2964 2125 5160 2126
4 6132 5603 1401 4758
4 5729 1936 5730 1945
4 4806 1920 1919 1911
4 2964 5881 5209 2126
4 6135 6145 1411 6154
4 4568 5440 4569 5762
4 2964 5881 2957 6233
4 6209 1383 5177 250
4 2964 5209 6233 5208
4 2624 3092 3034 2939
4 6080 1913 1921 1912
4 3779 4786 4954 4252
4 3777 6101 4059 3498
4 6080 1922 1921 1913
4 5653 1937 1936 1928
4 5365 6046 5440 4368
4 5639 5521 6133 1394
4 6257 6255 6051 6050
4 1931 4757 1401 248
4 5206 5207 5927 4386
4 5675 886 3831 887
4 5675 896 895 887
4 6291 1960 1959 1951
4 2619 2625 4059 3777
4 4334 905 896 152
4 5681 904 895 896
4 3830 887 5675 3831
4 4954 5744 5802 4786
4 4338 1952 1961 1960
4 3312 4386 5891 4530
4 3964 2826 3968 2822
4 5689 1927 1935 1926
4 3126 4335 5152 5151
4 4757 6286 4758 1392
4 4828 1422 1431 1430
4 5729 1945 1944 1936
4 6214 1926 1934 1925
4 3963 3965 3967 5055
4 6032 5457 5479 5478
4 3107 3108 4702 6108
4 6213 1943 1934 1935
4 6292 1954 1945 1946
4 2899 2974 2405 2354
4 6113 1946 1945 1937
4 2494 2499 2511 2512
4 6247 5206 4530 5891
4 2654 2516 2658 2495
4 2511 4680 2499 2510
4 3186 4557 4949 3187
4 6150 1938 1929 1930
4 6289 1930 1929 1921
4 5916 1955 1946 1947
4 6146 1949 4223 1419
4 5655 1929 1928 1920
4 4757 249 1931 1922
4 3267 3346 3265 3213
4 3267 3885 3347 3348
4 6286 1930 1921 1922
4 3275 2860 2391 3884
4 6257 6255 1682 6051
4 6286 1931 1930 1922
4 4921 3884 3885 3095
4 4667 4337 5639 1386
4 5603 6154 1410 1411
4 6132 1931 1939 1930
4 5134 6122 1428 5383
4 6138 1947 1938 1939
4 5691 914 905 153
4 2391 5589 3215 3584
4 4112 1959 155 1950
4 4334 3830 152 896
4 4334 1941 153 1932
4 4601 2851 3263 3773
4 3794 3015 5727 3213
4 3138 4003 3468 3421
4 3784 3468 2640 4003
4 5390 4753 5903 4181
4 2719 2472 2864 2761
4 2641 2642 2644 2647
4 5693 1934 1933 1925
4 2402 3258 2685 2684
4 4735 912 911 903
4 6208 886 5675 895
4 3442 2688 2687 3526
4 5664 4789 885 3606
4 5653 1936 1927 1928
4 4386 5206 4530 5927
4 4829 1431 1440 1439
4 6208 895 894 886
4 4748 429 4690 438
4 2649 5687 2646 2645
4 5134 1958 5383 245
4 5479 1974 1983 1982
4 6255 6050 1768 6051
4 5337 3712 3710 3473
4 5993 5999 1625 1616
4 6287 5738 1980 1981
4 3426 3709 3138 3756
4 6150 1939 1938 1930
4 4386 5407 4388 6293
4 5654 1938 1937 1929
4 3711 3712 5124 5116
4 6145 1403 5520 1412
4 5699 1953 1962 1961
4 3712 3754 4323 5327
4 3712 5327 5124 5116
4 5390 2423 5903 4231
4 5603 6154 4223 1410
4 6187 6168 6172 5807
4 4494 4414 4415 4724
4 6132 1940 1939 1931
4 3288 4494 2521 2421
4 5603 4758 6133 1402
4 6140 5659 4223 1940
4 2795 3285 2410 2983
4 6168 1466 1465 1457
4 3106 4706 3101 3960
4 4386 6293 5927 4530
4 5695 1942 1933 1934
4 5694 1941 1932 1933
4 5681 4334 5691 905
4 2424 5390 2423 2421
4 4415 5390 4231 2514
4 4686 4170 4687 5041
4 5691 4800 1950 1941
4 5709 913 5715 922
4 5694 1942 1941 1933
4 4170 3306 4687 631
4 5695 1943 1942 1934
4 5708 1951 1942 1943
4 5704 913 5709 912
4 4170 4689 5097 4284
4 6230 4338 4800 5708
4 6158 4735 5704 5709
4 6213 1944 1943 1935
4 6294 4575 4547 4488
4 5502 1447 1446 1438
4 4920 4251 1495 6295
4 6296 1965 5478 4989
4 4736 920 919 911
4 5729 1944 1935 1936
4 5097 4170 3306 4689
4 4170 5040 5178 5173
4 2483 3142 3693 3566
4 6296 1965 1956 1957
4 4170 4284 5173 5178
4 6148 1954 1953 1945
4 4109 4115 3775 4912
4 6292 1955 1954 1946
4 3868 3870 3869 5314
4 6297 1967 1966 1958
4 3868 3616 4071 4781
4 5726 1962 1953 1954
4 3868 5314 3869 4633
4 3444 2847 3868 3616
4 6137 2741 4969 2731
4 6140 1948 1939 1940
4 6114 1947 1946 1938
4 4223 5659 1410 247
4 6146 1958 1949 5383
4 6296 6139 1957 1956
4 5726 1971 1962 1963
4 3485 2847 3868 3486
4 2877 3616 3868 2847
4 3394 3439 3666 3703
4 6140 1949 1948 1940
4 4432 3010 4430 4431
4 5134 6297 5383 1958
4 5715 923 922 914
4 4112 155 923 154
4 4431 4430 5260 3944
4 3944 3424 5260 4431
4 4800 1950 1941 1942
4 5704 904 5706 913
4 1953 6148 5726 1954
4 2952 2984 2953 4196
4 4431 3943 3944 3424
4 4432 4399 3942 5260
4 6230 4341 5682 4800
4 4112 5740 5715 5722
4 3010 3227 5318 4430
4 6148 5726 1954 5667
4 3176 3182 3920 3179
4 6149 1944 1952 1943
4 2682 2683 3373 3031
4 6149 1953 1952 1944
4 6294 4575 6298 4615
4 4737 911 4735 912
4 4739 929 928 920
4 6148 1953 1944 1945
4 3180 3920 2698 3384
4 2922 5654 6289 6150
4 1407 1398 4239 5977
4 3181 3384 3920 4207
4 5961 2613 4234 6151
4 2376 2378 4020 3615
4 3495 4825 2821 2820
4 3495 5449 2821 4825
4 6139 1948 1956 1947
4 6139 1957 1956 1948
4 2619 2262 5493 5449
4 6187 5807 5760 5633
4 3851 5493 3495 5829
4 5916 1956 1955 1947
4 6122 1420 1428 1419
4 3577 3154 2261 2259
4 3714 3495 2820 5829
4 6299 4856 4889 4891
4 6146 1957 1948 1949
4 3947 4802 457 466
4 5134 6246 1437 1428
4 4444 4450 3155 3156
4 5582 3498 3497 4058
4 6146 1957 1949 1958
4 1590 5566 227 226
4 5134 1958 245 1967
4 6145 6133 1403 1402
4 6246 1438 1437 1429
4 5741 5733 1969 5740
4 2759 3155 4670 3157
4 5720 931 922 923
4 6291 1951 1959 1950
4 5737 941 940 932
4 2759 4669 3714 2820
4 4112 154 1950 155
4 4384 5645 4390 4388
4 4112 5706 6291 5691
4 5722 1959 1968 156
4 5679 5741 1977 1968
4 4390 2786 5406 4385
4 5756 1988 1987 1979
4 2786 5406 4385 4727
4 4385 4384 5857 5406
4 4598 939 938 930
4 3841 4727 2786 2674
4 5717 5633 5760 5662
4 2581 2957 2480 2956
4 5807 1474 1473 1465
4 6097 1956 1964 1955
4 226 5315 1599 5566
4 2476 2207 2478 2774
4 3313 3914 3672 2236
4 2952 3338 4196 2953
4 3772 6098 4819 4897
4 3618 2772 2275 2915
4 3235 3236 3237 3619
4 2581 2478 2479 2480
4 2884 3879 2898 2891
4 6097 1965 1964 1956
4 1468 4108 1459 1467
4 3898 1424 4881 4328
4 6297 1966 1957 1958
4 2734 5916 6114 6138
4 5478 1974 1965 1966
4 6163 1473 1474 1482
4 5229 1471 1463 1472
4 4827 4829 6160 5671
4 6246 6122 1429 1428
4 3562 3898 6157 4331
4 5458 1967 1975 1966
4 5457 1983 1974 1975
4 4108 2614 4874 4898
4 6031 5457 5735 5479
4 5459 5135 1446 1976
4 3559 3926 4239 4838
4 3926 4639 6125 3559
4 2325 2324 2440 3374
4 5678 950 941 157
4 5740 1968 1959 1960
4 5731 1962 1970 1961
4 2859 3061 3095 3062
4 2797 2794 2434 2326
4 3078 3291 4643 3288
4 5740 1969 1968 1960
4 5719 939 930 931
4 2327 2329 2331 2326
4 2485 2487 3483 5652
4 2513 2424 2517 2519
4 2518 2520 2517 4278
4 3922 5750 1989 1988
4 5758 1971 1979 1970
4 3319 4899 3640 4923
4 5731 1971 1970 1962
4 5602 4699 3035 4474
4 5602 3572 3035 4699
4 5479 1982 1973 1974
4 3572 3035 4699 2520
4 4898 1449 1441 1450
4 4989 1965 1973 1964
4 3045 3572 2520 3035
4 4896 1973 1972 1964
4 6156 1990 1981 1982
4 4879 479 4814 480
4 5676 1955 1964 1963
4 4120 93 1526 1517
4 3035 2905 2906 5578
4 4941 4931 514 4976
4 5478 1966 1975 1974
4 3814 1999 1998 1990
4 5524 5502 1447 1446
4 3790 3794 3795 3791
4 3790 4462 3793 3348
4 5524 5502 6160 1447
4 4575 764 4488 4562
4 3346 3213 4866 3265
4 5135 1446 1976 243
4 3273 4866 5647 5727
4 5612 1492 1491 1483
4 3790 3793 4462 3124
4 3017 5727 5710 4901
4 5458 1976 1975 1967
4 6161 1448 4883 5962
4 5459 1976 1446 4340
4 1599 5566 1590 226
4 5459 1984 1975 1976
4 3814 2008 2007 1999
4 3795 3015 3348 3641
4 5800 5301 5590 3348
4 5800 5301 3348 3793
4 5696 959 958 950
4 5741 1977 1968 1969
4 5732 159 959 158
4 6287 1981 1980 1972
4 2908 4101 3677 5579
4 6186 6173 5718 5755
4 6173 1996 1995 1987
4 3282 930 921 922
4 6300 1978 1969 1970
4 5696 949 5743 950
4 2906 4900 3604 838
4 6300 1979 1978 1970
4 5152 948 947 939
4 5732 6301 5696 5754
4 5151 956 947 948
4 5740 6291 1960 1959
4 6171 1973 1981 1972
4 3046 3035 5578 3572
4 3035 5578 4474 2905
4 5758 1980 1979 1971
4 6287 1980 1971 1972
4 4896 3363 5676 4897
4 3046 2909 3050 2908
4 4952 1491 238 1482
4 6167 1467 1476 1475
4 2908 3677 3050 5579
4 5655 4498 5624 4806
4 3848 3603 3605 3604
4 3282 5709 5720 922
4 5459 1985 1984 1976
4 2906 3604 5578 838
4 5457 1984 1983 1975
4 3769 3672 4527 3916
4 4250 1493 1492 1484
4 2665 2878 2664 5197
4 5711 1992 1983 1984
4 2665 3979 3759 4396
4 4470 5026 4423 4422
4 2244 3759 2289 4394
4 6031 5457 5711 5735
4 5671 6246 2739 4969
4 5717 1994 242 241
4 4425 2290 2537 5405
4 4425 2290 5405 5196
4 3812 2017 2016 2008
4 3769 2286 3913 3733
4 5458 5478 1966 1975
4 2929 3251 3443 4257
4 226 5566 227 2129
4 6187 6168 5807 5633
4 2883 2667 2672 2538
4 5453 2018 2026 2017
4 2664 2881 2290 5196
4 2878 2662 2663 2665
4 5754 968 959 159
4 2881 5211 5196 2880
4 5718 1986 1977 1978
4 5732 6173 1995 1986
4 5718 1987 1986 1978
4 2268 3644 2746 2745
4 5776 967 958 959
4 4164 3922 1989 1998
4 5697 958 957 949
4 2491 2488 2745 2747
4 5750 1980 1988 1979
4 3093 3567 3039 3038
4 5151 957 956 948
4 108 109 4691 402
4 6186 5718 5741 5756
4 2617 3465 4801 4331
4 3262 3645 2621 3261
4 6204 1514 1523 1522
4 3922 1998 1997 1989
4 4575 4547 4488 763
4 4858 1453 4864 4911
4 5668 921 930 929
4 5346 1477 1476 1468
4 2432 3219 2431 3038
4 6166 1484 1483 1475
4 5345 1476 1485 1484
4 2743 5674 902 901
4 6176 2001 2010 2009
4 109 4691 1382 108
4 3261 2266 2621 3262
4 5773 1993 2001 1992
4 3872 973 964 965
4 2225 2860 2228 2391
4 6302 5688 5459 5524
4 5688 5524 5717 4340
4 4896 6171 5479 6098
4 2958 2207 3515 2627
4 4898 4883 4829 1440
4 108 4692 1391 411
4 5937 6198 5095 2039
4 4671 4691 5575 1373
4 5688 1985 1993 1984
4 2713 3534 2704 3146
4 5662 2003 1994 241
4 5760 6188 5761 5807
4 5662 1473 2003 240
4 5717 5662 5760 1994
4 5760 5761 5662 5807
4 2946 2911 2948 2947
4 5786 161 977 160
4 2966 2949 2946 2948
4 6173 1987 1995 1986
4 5774 977 976 968
4 3814 3924 4164 1998
4 5755 1996 1987 1988
4 2946 2911 2894 2893
4 6165 2005 1996 1997
4 5769 966 957 958
4 5732 5696 6173 5743
4 2608 2600 5357 3201
4 2966 2893 3157 2967
4 5755 1997 1996 1988
4 3158 2946 4122 5757
4 3359 957 966 965
4 3924 2006 1997 1998
4 3207 3565 3819 2607
4 5744 3090 4786 4954
4 6165 2006 2005 1997
4 108 4691 411 402
4 3778 3086 5742 3090
4 5779 982 4998 4919
4 1493 4242 1502 4249
4 4739 6077 5728 928
4 3664 3893 5545 5058
4 4575 772 4615 763
4 2624 2838 2623 3092
4 4786 4351 3090 5745
4 4786 5539 4351 5802
4 5761 5613 2011 2012
4 3033 4351 3664 2727
4 5334 5761 5613 6207
4 3091 2943 5539 4560
4 2348 3892 3244 3803
4 5884 5773 2001 1992
4 3892 6185 6215 3803
4 5095 236 2039 237
4 5760 1994 2002 1993
4 6215 6303 3244 3803
4 5761 6126 2003 1473
4 6188 2010 2001 2002
4 5760 2003 2002 1994
4 6215 3244 3809 3835
4 6163 1474 1483 1482
4 4121 5777 3587 6176
4 5717 5524 1455 4340
4 5917 2027 2018 2019
4 6207 2019 2010 2011
4 6301 2004 1995 1996
4 6215 3244 3835 2943
4 6162 984 975 976
4 5678 1977 158 157
4 6301 2005 2004 1996
4 4188 5786 6304 2013
4 6162 985 984 976
4 6305 2013 2004 2005
4 3813 2017 2008 2009
4 6215 6191 5803 3835
4 6215 5539 5803 6192
4 4259 983 974 975
4 2658 2508 2516 3990
4 2509 3990 3989 2512
4 4961 961 4824 952
4 2513 2518 2514 2516
4 5786 2004 6305 2013
4 2518 4278 4651 3323
4 6178 4916 1489 1488
4 5452 2034 4086 2025
4 2563 3837 3995 3674
4 2518 3770 4651 4278
4 3989 2512 4651 4546
4 2509 4949 3991 3187
4 3924 2007 2006 1998
4 2513 3045 2515 2527
4 6304 2022 2013 2014
4 2008 4047 3813 2000
4 4949 4536 4535 2512
4 3375 3377 2487 3484
4 3379 4231 4288 3381
4 4249 1502 1494 1503
4 6176 2009 2000 2001
4 6079 6209 6080 1913
4 3377 4965 2487 3999
4 3668 3097 4866 3265
4 108 411 1391 107
4 4047 5777 6156 4165
4 5735 1982 5479 1983
4 4920 5008 6196 6295
4 5390 2423 4231 2517
4 2484 2493 2491 2267
4 2746 3644 3268 3647
4 5917 2019 2028 2027
4 3668 3265 4866 3669
4 3270 3272 3271 901
4 6188 2011 2010 2002
4 6126 240 2012 2003
4 2270 2745 2621 3644
4 5968 1519 1528 1527
4 2746 3644 3646 3867
4 5761 2003 2011 2002
4 5761 2012 2011 2003
4 2487 4965 3483 5658
4 5612 1483 1491 1482
4 5612 1500 1491 1492
4 5613 2012 2020 2011
4 2486 5652 3670 3606
4 2487 5652 5658 3483
4 3427 4458 3436 3433
4 4188 5786 161 977
4 3469 2685 3799 3600
4 5815 1013 1004 164
4 5759 4521 2040 6306
4 5804 992 983 984
4 3442 4568 3441 3938
4 6305 2014 2013 2005
4 5108 5107 5515 5115
4 4169 994 993 985
4 5789 5797 6306 2031
4 5108 5512 5515 4459
4 4612 5586 6110 6111
4 4087 2015 2014 2006
4 5797 5783 5785 2032
4 3812 2008 2016 2007
4 5164 2007 2015 2006
4 4612 4614 4228 3845
4 5164 2016 2015 2007
4 4612 4228 4614 4674
4 4612 4607 4614 3844
4 4259 5804 983 984
4 5797 2032 2031 2023
4 4612 4610 4613 6278
4 4528 3069 2343 6239
4 5782 4946 5483 4169
4 6079 5616 1903 1912
4 4528 5901 6307 5985
4 4528 2372 4529 5906
4 5778 2010 2018 2009
4 3813 2018 2017 2009
4 4528 6307 5906 4529
4 4528 5901 2341 5906
4 2251 2536 2537 2290
4 3249 5948 5875 6308
4 5093 5095 237 1500
4 5453 2026 2018 2027
4 4807 2027 5918 5739
4 4366 1480 1471 1472
4 3249 4847 5938 5392
4 4973 1520 1519 1511
4 3252 5824 3251 6308
4 6207 2020 2019 2011
4 3252 6308 5875 5811
4 6309 6310 2057 4265
4 4807 2027 2036 2035
4 2285 3166 2553 3514
4 5612 1482 6163 1483
4 5613 2021 2020 2012
4 2779 2871 2870 2875
4 3448 5222 3854 3998
4 5094 5614 2029 5095
4 2891 4056 3856 5795
4 2550 2927 2926 3880
4 5100 2028 2029 2037
4 4945 1004 1003 995
4 5759 164 1004 163
4 3879 2898 5787 3882
4 5783 2032 2023 2024
4 4519 1020 1011 1012
4 6304 2023 2022 2014
4 4946 1003 1002 994
4 5775 986 5771 985
4 5804 992 984 993
4 4085 2023 2014 2015
4 2278 2554 2914 2550
4 3879 2898 5790 5787
4 3165 2917 4697 4766
4 6192 6185 4968 6215
4 4091 2837 5453 3812
4 4085 2024 2023 2015
4 5166 2015 2016 2024
4 3244 3809 3802 6303
4 2291 3522 2293 2292
4 3144 4826 3863 4825
4 982 5780 991 983
4 3244 3776 3809 3835
4 4519 1021 1020 1012
4 3245 3776 3244 3774
4 4086 2024 2025 2033
4 3245 3244 3809 3802
4 2017 5453 5452 2026
4 5045 5061 5747 4860
4 3240 3245 3636 3115
4 4164 3592 4988 4165
4 3240 2809 2944 3212
4 3639 5747 4928 944
4 4047 5777 4165 4988
4 4243 1503 1512 1511
4 4199 6203 1520 1529
4 4243 6190 1511 1512
4 3650 3042 4592 4593
4 3038 5518 3093 3661
4 4376 3562 3661 4330
4 2479 5004 2584 5003
4 5614 2029 2028 2020
4 5612 1501 1500 1492
4 4994 3521 551 4163
4 3661 5519 3042 4593
4 3255 2919 3935 3254
4 2630 4000 4001 5891
4 5094 2021 2029 2020
4 2707 2755 2710 2750
4 5744 5746 6190 1512
4 4242 1502 1511 1510
4 6198 2048 2047 2039
4 5094 5613 2021 2020
4 2709 2727 2813 2725
4 5060 2710 3690 2856
4 2710 2784 2239 3690
4 5100 2046 2037 2038
4 5095 2030 2039 6198
4 5096 1501 1509 1500
4 2710 3690 2856 3607
4 5797 2031 2022 2023
4 2755 2240 1540 2239
4 4169 4946 993 994
4 5027 991 5780 992
4 4521 5785 4520 2041
4 2237 4009 2239 2238
4 5759 163 2031 164
4 6306 2041 2040 2032
4 5783 2024 2033 2032
4 2238 2239 2240 2755
4 5826 5873 2067 2058
4 3982 5778 6188 6207
4 2601 3576 3564 3574
4 4086 2025 2034 2033
4 2469 2303 3482 3056
4 5120 5780 992 4446
4 6311 2033 2034 2042
4 6084 3539 5559 3540
4 5812 5873 2068 2067
4 4517 1002 4946 1003
4 2477 2481 3694 2482
4 4002 5449 4826 4825
4 2494 2381 2866 2507
4 4199 1530 1529 1521
4 5746 1521 1520 1512
4 4810 2034 6311 5452
4 4010 3651 5000 4271
4 5669 4352 5781 3326
4 2499 2500 2501 2494
4 5778 2009 6176 2010
4 5095 1500 1509 236
4 2501 3538 2499 6033
4 2498 3537 3536 6084
4 2038 6198 2030 2029
4 5612 5096 4242 5615
4 2501 4795 4992 6033
4 4940 5802 5744 1513
4 6198 5095 6194 5939
4 6312 2042 6311 2043
4 3577 3497 2260 2261
4 2595 2606 2600 2599
4 5759 4521 6306 4945
4 4938 4939 3481 3480
4 6306 2032 2040 2031
4 2894 5844 1043 2913
4 5854 1058 1049 169
4 5640 1030 1021 1022
4 2595 2606 3573 2600
4 2453 2986 2987 2463
4 5856 6313 5431 1045
4 2788 4393 4386 4388
4 5785 2042 2041 2033
4 5636 2059 2050 2051
4 2784 2953 4007 4196
4 3337 3345 3338 5070
4 630 5097 4170 3306
4 4450 1019 1018 1010
4 5851 169 1049 168
4 6312 2051 2042 2043
4 2557 2560 2563 3535
4 4701 2964 3878 3515
4 6311 2043 2042 2034
4 4945 994 5771 995
4 4515 4946 4516 4517
4 4052 4767 3749 5000
4 4686 4170 5178 4689
4 6215 2943 3835 5539
4 6205 2037 2045 2036
4 5100 2038 2037 2029
4 5228 5813 6216 5088
4 3576 3842 4446 3883
4 6212 2522 2525 2523
4 5837 2045 2054 2053
4 3240 3115 3723 3244
4 5967 1537 1536 1528
4 5612 4250 1501 1492
4 3635 3461 3631 4094
4 6180 2055 2046 2047
4 6210 1538 1537 1529
4 6303 3809 4245 6191
4 6314 4266 6310 5967
4 5100 2047 2046 2038
4 5937 1509 1518 235
4 6198 2038 2039 2047
4 3802 3809 4245 6303
4 3892 5058 3664 5539
4 6215 6191 3809 6303
4 5958 1510 4973 1519
4 4265 235 2057 2048
4 5967 4266 1527 1536
4 5849 5187 1586 1587
4 5591 3861 5212 3693
4 4516 4521 6306 5785
4 3433 3436 308 4458
4 5832 5812 2076 2067
4 5832 5838 5851 5867
4 4519 1012 4195 1021
4 3436 4457 5512 3431
4 5821 1038 1029 1030
4 4522 2058 2049 2050
4 4878 3970 3436 4472
4 3970 4208 4472 4878
4 5638 1029 1020 1021
4 3161 5114 1578 1579
4 3436 308 4458 4472
4 4520 2051 2050 2042
4 3436 4472 3971 308
4 5638 5429 1020 1029
4 3600 5512 3436 3971
4 3189 3188 5042 3005
4 6312 2052 2051 2043
4 5830 5165 2061 2070
4 5873 2068 2067 2059
4 3188 3585 5042 3006
4 4940 5802 4252 6190
4 4921 3006 3004 5587
4 5042 3005 3006 5043
4 6212 2053 2052 2044
4 4886 5257 1565 5806
4 3461 3631 5394 3585
4 3367 2728 5961 2616
4 6205 2055 2054 2046
4 6210 5967 1528 1537
4 2392 3188 3007 2391
4 4826 5909 5449 5831
4 5430 5429 5428 5432
4 6312 4520 2042 2051
4 4375 4379 3465 3063
4 6206 2063 2062 2054
4 3062 3189 3005 3007
4 3811 5917 5453 2018
4 6281 6310 2066 2065
4 2240 1540 1539 1531
4 3460 3464 3462 6002
4 5216 2063 2054 2055
4 4070 4808 3777 3498
4 6312 4520 5482 6311
4 3212 3241 3718 3723
4 6309 2048 2056 2047
4 5539 4351 3091 4786
4 3651 5411 4008 5087
4 3091 3779 3032 2939
4 5215 2064 2055 2056
4 2624 3032 2932 2625
4 6309 2057 2056 2048
4 4057 4010 5620 5622
4 5100 6180 6205 2046
4 6309 2056 5215 6180
4 3811 2837 5453 4484
4 3649 5806 1573 1564
4 5325 6258 1697 4253
4 5826 4194 166 1022
4 4193 1013 4195 1012
4 5821 1039 1038 1030
4 4522 2059 2058 2050
4 2525 2052 2060 2051
4 5873 2067 2058 2059
4 5117 3758 5454 5122
4 5117 4314 5121 1705
4 5834 1049 1048 1040
4 5432 1037 1028 1029
4 5117 5122 5302 6258
4 5636 2060 2059 2051
4 5876 2104 5879 2113
4 4002 4060 4826 5449
4 4010 4271 2238 5411
4 5117 5451 4253 5325
4 2525 2061 2060 2052
4 2523 2062 2061 2053
4 5830 2062 2071 2070
4 5117 3758 5116 5451
4 2240 1540 1548 1539
4 5215 2064 5626 5216
4 4009 5411 4010 2238
4 2263 2267 3899 2272
4 2730 2735 3218 2728
4 5582 2524 2523 5493
4 5635 2069 2068 2060
4 6206 2054 2062 2053
4 3038 4593 3661 3042
4 3130 1551 2830 1560
4 3095 3567 3039 3093
4 5905 5257 3648 3652
4 5765 6057 4835 6041
4 4271 1539 1547 1538
4 5416 3939 5765 3527
4 5366 5365 5764 5765
4 6276 2072 2071 2063
4 5623 2074 2073 2065
4 6310 2057 2065 2056
4 3651 1547 4271 5411
4 5623 2073 2064 2065
4 3652 1556 1555 1547
4 5765 5764 5366 6057
4 2639 5347 3659 5962
4 4271 4199 1539 1538
4 3494 1251 1260 1259
4 233 234 2066 4266
4 2263 2272 2271 2267
4 3622 3658 3489 3591
4 6310 2066 2065 2057
4 5883 3489 3658 3591
4 6315 5354 6314 1545
4 4014 1253 6034 1262
4 6281 2074 2065 2066
4 3652 1547 1555 1546
4 2611 6151 3018 4801
4 5832 5826 167 1031
4 3658 3659 6031 6032
4 5852 1057 1048 1049
4 5867 2085 5851 2076
4 5814 2069 5848 2078
4 5814 5635 5848 2069
4 4151 5162 6313 5161
4 5812 2076 2067 2068
4 4237 1047 1046 1038
4 5814 2077 2068 2069
4 5853 1056 1047 1048
4 3088 1539 1531 2240
4 2729 4827 2739 2731
4 5165 2070 2069 2061
4 5431 1046 1045 1037
4 5867 5868 2085 2086
4 2730 2735 4926 4970
4 3564 3574 3576 4922
4 5433 1028 1036 1027
4 5831 2523 5582 2062
4 5406 5644 5645 1073
4 3279 5978 3281 3280
4 5643 1065 1064 1056
4 2237 1558 1557 1549
4 2073 5623 2082 2074
4 2089 3861 2081 2080
4 4887 1566 1557 1558
4 2784 5410 4009 2237
4 2851 3919 4262 3925
4 3490 3810 3659 2636
4 4057 5593 4060 5626
4 3622 3591 3593 3796
4 2220 3593 3622 3489
4 3214 2861 4738 3264
4 104 105 6141 438
4 3260 3269 3772 4925
4 6281 2066 2075 2074
4 5098 1554 1546 1555
4 4803 6141 1418 1409
4 5098 3652 1555 1546
4 4748 6141 105 438
4 2231 2288 2762 2764
4 5812 2077 2076 2068
4 6200 5879 5876 6201
4 4686 4689 3136 4170
4 5832 2067 2076 168
4 5854 5851 169 1049
4 3113 3114 3541 2288
4 2762 3112 2764 2288
4 2910 4464 2630 3166
4 5860 173 1085 172
4 2580 2583 2479 2584
4 2454 2465 2453 2457
4 3000 2396 2317 3259
4 5834 1039 5838 1040
4 6216 2079 2087 2078
4 5138 2080 2071 2072
4 3294 3482 3300 3298
4 2305 2303 4412 3334
4 5813 5814 2078 2077
4 4200 4000 5206 2124
4 5488 5009 5033 4994
4 5089 6316 4154 5088
4 5643 1064 1055 1056
4 6317 2121 2112 2113
4 4766 6181 2957 6231
4 2246 2278 2914 2550
4 2237 1549 2239 1558
4 4886 1565 1556 1557
4 5813 2078 6216 2087
4 2583 2582 2955 3170
4 4697 6181 6182 6061
4 6076 6225 1583 1584
4 5835 1062 1053 1054
4 2585 2584 5214 6280
4 2477 2479 5004 5220
4 6315 1537 1546 1545
4 1572 229 5056 1563
4 5021 2101 2100 2092
4 5642 1572 1581 228
4 5057 6076 1584 6225
4 2464 2453 2463 2986
4 6223 2075 2083 2074
4 5160 2964 3878 4701
4 6224 2083 2092 2091
4 4577 6214 3295 3624
4 104 438 6141 447
4 4577 3295 6214 6213
4 5611 5334 6207 3982
4 4577 6213 5682 5695
4 3586 6163 6172 6166
4 5334 6166 5619 5612
4 4772 104 1418 6141
4 2621 5682 4577 4984
4 4577 5729 6213 3624
4 5854 5868 2094 2085
4 5885 1075 1066 1067
4 5867 2077 2085 2076
4 4389 5850 5885 5646
4 6316 2095 2086 2087
4 4577 5729 4984 6149
4 5813 2086 2077 2078
4 5645 5409 1082 1083
4 4577 6149 5682 6213
4 4518 4482 4481 5428
4 5256 1084 1083 1075
4 6247 2132 5206 2133
4 6216 2088 2087 2079
4 6318 5981 6243 5627
4 5470 4825 3859 5909
4 3721 3704 3696 3698
4 2549 3068 4591 3853
4 3412 3704 3724 3725
4 5876 2113 5878 6317
4 6319 2088 2079 2080
4 5863 1085 1084 1076
4 3414 3448 3412 3721
4 5644 1065 1073 1064
4 3862 2089 2097 2088
4 4686 3731 5041 4687
4 4197 4196 1567 4198
4 5022 4623 2093 2092
4 2846 3486 2930 2847
4 5809 5010 5011 1008
4 2549 3856 3853 4591
4 3413 3704 3412 3725
4 6083 1903 6079 5616
4 6319 2089 2088 2080
4 5252 6320 6241 1603
4 6200 5859 4389 5850
4 3129 2090 2099 2098
4 3212 2348 3805 2349
4 5623 2083 2082 2074
4 3861 2090 2089 2081
4 4888 1575 1574 1566
4 3189 3460 2937 2300
4 5022 2092 6224 4623
4 5692 5021 3649 3691
4 3581 3789 4172 3775
4 2839 3229 2840 3474
4 4349 231 230 2093
4 3022 3021 3372 3182
4 104 105 1418 6141
4 2637 3789 3807 4172
4 2084 2092 4623 2083
4 3649 1573 1572 1564
4 3965 4649 4626 4630
4 2934 2935 2933 6085
4 5642 5232 2102 2111
4 2842 2529 2299 2528
4 2935 2933 6085 3630
4 5899 1093 1084 1085
4 2934 4948 2935 6085
4 2834 4809 3852 4092
4 5868 2086 2094 2085
4 5868 2095 2094 2086
4 2842 2841 2839 2529
4 2837 5453 4484 3903
4 6202 2096 2104 2095
4 5645 1083 1082 1074
4 3173 3356 3357 3354
4 6316 2096 2095 2087
4 4050 5130 6241 6134
4 5088 2097 2096 2088
4 5175 6209 6079 5550
4 3361 3496 3871 3501
4 5138 2072 2081 2080
4 3361 3871 3873 3842
4 3669 5727 3273 5728
4 4283 2144 6321 2153
4 5550 6083 1904 6079
4 5856 5841 5839 1055
4 6218 2082 2090 2081
4 4528 3069 6239 5913
4 3861 3859 2080 2089
4 3852 4083 3843 3358
4 3354 3852 3361 3358
4 4229 4090 4629 6100
4 4213 2108 2116 2107
4 5089 2106 2105 2097
4 6202 2105 2104 2096
4 3862 2098 2097 2089
4 2885 2668 2442 5791
4 6084 3382 3180 3385
4 6084 6179 3180 5559
4 2372 1111 1110 1102
4 3367 4331 3018 5961
4 5021 3693 6211 3691
4 4693 4611 1345 1354
4 4441 3906 4136 4436
4 3536 4992 6169 4636
4 4229 384 111 4230
4 3536 5870 6084 3537
4 4441 4435 3906 4436
4 3613 1582 5570 1581
4 5022 4623 4349 2093
4 5570 1590 1582 1591
4 2100 5169 2109 2101
4 3536 6084 3385 3382
4 3473 3472 3421 3468
4 5232 2102 2110 2101
4 2640 3138 3139 4003
4 3613 1573 1582 1581
4 1608 6322 5315 5111
4 2566 4133 2567 3551
4 6229 1600 1599 1591
4 3614 1574 1583 1582
4 2394 2688 3662 3000
4 3668 3647 3669 4866
4 6201 2104 2103 2095
4 5006 5005 5092 597
4 4356 5869 171 1067
4 3030 2644 3020 3056
4 5899 5861 5911 1094
4 5879 2113 2104 2105
4 4850 2156 2164 2155
4 6241 1612 1611 1603
4 6323 1610 1601 1602
4 5245 5243 653 652
4 3941 4065 5687 6043
4 3469 3470 3798 3799
4 2556 3980 2732 2339
4 3128 2109 2118 2117
4 5876 2112 2103 2104
4 5638 1020 5429 5799
4 3129 2098 2099 2107
4 6317 2122 2121 2113
4 2855 4670 4151 5161
4 2106 5234 2107 2098
4 2218 3840 2214 2787
4 4205 2118 2126 2117
4 5406 1064 1073 1072
4 6323 1611 1610 1602
4 3840 4151 2855 4438
4 3239 5089 4154 5088
4 4153 5089 3239 3862
4 5570 5651 5566 6229
4 6225 1592 1583 1584
4 2372 1102 1110 1101
4 3239 3862 5088 6319
4 3239 6319 3860 3862
4 4347 2137 2136 2128
4 5232 2102 2111 2110
4 3806 4503 2573 2572
4 1176 68 1185 5373
4 3239 6216 5471 3864
4 3239 6216 5228 5471
4 3840 4438 5227 4151
4 5350 5351 706 697
4 3614 1573 1574 1582
4 5860 4356 6317 2112
4 5727 4738 3669 3214
4 4497 4499 4500 4806
4 2580 3928 4764 2986
4 5202 4500 6128 4496
4 2343 2148 6239 2149
4 5876 2113 2112 2104
4 4170 631 5041 640
4 5914 1101 1100 1092
4 5201 2320 5202 2801
4 2320 4500 2329 5201
4 4202 2115 2114 2106
4 5256 1074 5646 1075
4 5878 2114 2122 2113
4 6323 5214 2585 5221
4 4500 2320 4496 5202
4 5988 1637 5190 1646
4 5201 4500 6128 5202
4 3991 3187 4558 3992
4 4143 5328 1116 5495
4 6222 1585 1576 1577
4 5934 6061 6245 6237
4 3443 5343 3743 3745
4 2411 2382 3019 2408
4 2513 3045 2527 2520
4 2585 4764 6323 5221
4 4200 2125 2124 2116
4 3128 2117 2108 2109
4 5899 5256 5863 1084
4 4743 2511 3990 2508
4 5206 2132 2123 2124
4 3232 3800 2363 3617
4 5214 1610 1609 1601
4 4360 1600 5214 1609
4 3016 5716 3642 3315
4 3017 5710 3016 4876
4 5213 1600 1591 1592
4 5315 1599 1608 225
4 3122 3120 3133 5716
4 3016 5727 6077 5710
4 3991 3989 4537 4536
4 2985 1576 6105 4198
4 5171 1592 6225 5213
4 2900 3615 3612 2902
4 4346 2127 2118 2119
4 5232 2119 2110 2111
4 5372 5373 1176 1185
4 3611 2903 2902 3685
4 5232 2120 2119 2111
4 227 5566 2120 2129
4 5651 2119 5232 2120
4 5315 4360 6229 6322
4 5860 5861 2121 5862
4 3615 2902 4063 3612
4 5273 3684 3681 5274
4 5911 5861 174 1094
4 5935 177 1121 176
4 2341 5901 1103 1102
4 5256 1075 5863 1084
4 4028 2864 4293 3298
4 2391 2392 2859 3095
4 5927 2132 2131 2123
4 6318 2143 2151 2142
4 2404 2652 2410 2413
4 5847 1109 1100 1101
4 2409 2411 4020 4124
4 2408 4062 4124 2409
4 2713 3534 4350 2828
4 3534 3146 3660 3621
4 5256 5645 1083 5409
4 6324 5272 4501 5349
4 5160 2125 2116 2117
4 6247 2133 2141 2132
4 2848 3607 2829 2713
4 5913 5985 5297 2140
4 2987 4764 6320 4049
4 2354 3992 3292 3828
4 5132 1619 1610 1611
4 3291 3650 3408 2447
4 5329 1106 1097 1098
4 5132 1620 1619 1611
4 4414 3991 4558 3290
4 2520 2527 5305 3572
4 6290 2125 2133 2124
4 4346 2128 2127 2119
4 2514 5390 4231 2517
4 3449 1190 5066 4359
4 3110 3108 3763 2800
4 2799 3077 3292 3288
4 6325 2145 2137 2146
4 5160 2126 2125 2117
4 2799 2798 2434 2449
4 5988 4123 5460 1628
4 2129 5566 2120 5651
4 6239 2149 2148 2140
4 5881 2135 2126 2127
4 1576 2990 2985 1584
4 2513 2520 2517 2518
4 5651 2120 2128 2119
4 4360 5111 1608 5110
4 69 713 5373 714
4 5651 2129 2128 2120
4 5385 5373 69 713
4 226 5315 2129 2138
4 5110 1617 1608 1609
4 4689 3583 5864 5178
4 2185 3900 2176 3729
4 5332 5347 2639 3807
4 2614 6151 4874 4898
4 4388 5644 5256 5645
4 4874 4108 1450 4110
4 5862 2130 2121 2122
4 2343 2158 2157 2149
4 4898 4108 1450 4874
4 3061 3093 3004 3063
4 3464 5043 3004 3005
4 5209 2134 2125 2126
4 5945 5913 2149 6239
4 5206 2133 2132 2124
4 5460 1629 1637 1628
4 6321 2145 2153 2144
4 6226 1605 1614 1613
4 5133 1620 1628 1619
4 3004 3946 3093 5587
4 5240 1642 1651 1650
4 4384 5203 4385 5857
4 5749 1119 5910 4276
4 3851 5165 5830 5848
4 5913 2149 2140 2141
4 6290 2134 2133 2125
4 3093 3094 3095 5587
4 6233 2135 2143 2134
4 5980 2134 2142 2133
4 3558 3661 3562 4330
4 5566 5315 1599 6229
4 4376 3948 6142 6326
4 5209 2135 2134 2126
4 5246 5192 1079 1070
4 5997 2159 2150 2151
4 5518 3093 3946 3094
4 4375 3562 4379 3063
4 4376 3661 5518 5519
4 4347 2128 2136 2127
4 2964 5208 6233 5974
4 6241 4764 5221 6323
4 6241 4764 6134 6320
4 6325 2145 2136 2137
4 3661 3042 5519 4330
4 6322 2129 2137 2128
4 3076 3043 3044 4995
4 2431 3043 2594 2439
4 4360 5111 6322 1608
4 3093 3562 3063 3557
4 6327 2137 2138 2146
4 5315 1608 5111 225
4 3408 4592 4593 3650
4 3291 3408 3650 4643
4 2514 4494 4415 5390
4 3078 3289 3288 4643
4 5985 2139 2130 2131
4 5911 5915 5901 1103
4 3291 3043 3079 4643
4 4657 4204 1120 1129
4 4327 3076 3084 4995
4 4592 3079 3043 4643
4 4528 3734 4529 2372
4 2928 2438 2434 3081
4 2328 2800 2320 2801
4 3194 1118 1126 1117
4 2770 2327 2771 2328
4 5314 1206 1215 1205
4 3260 4925 3772 3771
4 6232 1633 1642 1641
4 3789 2390 4172 2637
4 3669 5727 4866 3273
4 2674 2218 2786 3841
4 6231 2136 2144 2135
4 2331 4500 2329 2320
4 4045 1182 1191 1181
4 6233 2144 2143 2135
4 2370 5910 3722 5749
4 6007 1218 1219 1228
4 5945 2158 2149 2150
4 4503 1184 4465 2572
4 3656 3849 2193 1166
4 2758 2570 2757 3327
4 5328 3762 5329 2663
4 2671 2592 2200 2569
4 6181 6321 6061 5942
4 5456 1613 6226 1622
4 5219 4347 6231 5881
4 3731 5153 4506 5170
4 6318 2152 2151 2143
4 6245 2154 2145 2146
4 5245 653 5247 662
4 2499 3538 5141 6033
4 2997 3595 3590 3589
4 3768 4777 5290 5822
4 3383 1220 1210 1211
4 3383 3052 1211 3224
4 5915 2139 2148 176
4 6239 2148 2139 2140
4 3057 2714 3589 2718
4 2721 2305 2425 4716
4 5935 4655 2371 4656
4 5947 1139 1138 1130
4 2305 4412 2642 3333
4 3377 3999 4811 3376
4 4592 2310 3079 4720
4 3052 196 1211 1202
4 3075 3083 4327 3084
4 3213 3669 5727 4866
4 3322 2421 3405 3289
4 5847 5749 1109 1110
4 6242 2161 2152 2153
4 2620 4970 4925 3261
4 3030 2647 6104 4078
4 6070 5686 2645 5463
4 5933 5110 5214 4039
4 6321 2154 2153 2145
4 6070 4631 2645 2642
4 6070 2645 5496 5463
4 6070 5686 2647 2645
4 3066 2168 2159 2160
4 4123 4039 5132 1619
4 3447 4072 3720 3416
4 5997 2160 2159 2151
4 6318 2151 5946 2142
4 2296 3232 3617 3489
4 3551 4731 4434 5498
4 2721 2722 2308 3334
4 4871 4869 1644 1635
4 3383 1211 2754 1220
4 4869 1627 5988 1636
4 2414 2972 2415 2417
4 4851 2147 2155 2146
4 4869 1636 1635 1627
4 6233 6321 2144 6231
4 2314 2568 2723 2567
4 5109 4850 4870 4851
4 4869 5988 1645 1636
4 2567 2568 3551 4133
4 4850 2156 2165 2164
4 4868 222 2165 223
4 3551 4731 5498 5398
4 2343 2149 2157 2148
4 2568 3752 3551 5500
4 6328 4657 5947 4204
4 4109 5346 5347 1467
4 4655 2157 2343 2158
4 6299 5955 4094 4093
4 3695 1136 1128 1137
4 6299 5047 3462 5394
4 4655 2167 2166 2158
4 5816 3744 3743 3745
4 5886 2167 2158 2159
4 6299 4094 4889 5394
4 6299 5229 4910 4856
4 5945 2159 2158 2150
4 5947 1130 4654 1139
4 3728 2176 2167 2168
4 4109 1468 5346 1467
4 5945 5886 2343 2158
4 5963 4714 1173 1172
4 4657 4204 5910 1120
4 5886 2168 2167 2159
4 3729 2175 2166 2167
4 3548 4043 5734 4672
4 5734 4618 5964 4672
4 3396 1219 1218 1209
4 2825 2899 2355 2974
4 4634 5990 5279 5369
4 4297 2171 2170 2162
4 6254 2164 2173 2172
4 4108 4109 1468 4110
4 6252 2163 2171 2162
4 3828 4558 3827 2354
4 6251 1676 6017 1675
4 5214 5110 1609 4039
4 6027 6047 1239 1248
4 5734 4041 4616 4043
4 4616 3832 3827 5734
4 4110 4108 1459 1468
4 3451 3372 3452 3788
4 5942 2163 2162 2154
4 6252 2163 2172 2171
4 6245 2155 6237 2154
4 4183 5369 1195 1204
4 3224 1201 1211 1210
4 3183 3454 3452 3178
4 3880 5460 3882 5988
4 6023 2183 2174 221
4 4138 4471 4666 4137
4 5988 4123 1628 1627
4 3179 3454 4576 4137
4 5109 4850 4851 2156
4 2956 4346 5881 4205
4 4576 3179 5477 3178
4 3463 4110 4117 4116
4 3454 3452 3178 4576
4 3454 4562 3455 4576
4 3454 4666 4037 4562
4 2254 4670 2818 3157
4 3746 2812 2618 4002
4 2609 2597 2622 2595
4 4772 1427 6143 1418
4 5954 5423 180 1148
4 3656 4662 1165 1174
4 3356 3474 2632 3173
4 5408 1174 1183 1173
4 3857 2161 2169 2160
4 4772 4759 447 6141
4 2832 3475 3501 3491
4 3728 2168 2177 2176
4 4109 5346 3807 5347
4 2345 2349 2700 2347
4 4772 103 447 456
4 5929 2172 2180 2171
4 3655 686 5391 4127
4 5670 1924 3561 1915
4 5460 1638 5190 1637
4 4062 4063 4955 4742
4 4772 447 4776 456
4 4772 104 1427 1418
4 2412 4740 4955 2801
4 5988 1636 1637 1645
4 4955 5380 4957 2766
4 3854 4036 3900 3855
4 2409 2867 3615 2378
4 2766 5380 4957 2803
4 3721 3726 3698 3727
4 5270 6006 1217 5352
4 3721 3716 3715 3858
4 5670 6109 5693 1925
4 6329 2182 2173 2174
4 2442 6249 1654 3978
4 4871 2165 4850 4868
4 4871 222 4868 1635
4 4872 2165 2174 2173
4 6329 2183 2182 2174
4 3716 2340 3722 3065
4 5423 4654 179 1139
4 3721 3698 6328 3727
4 3068 3853 3067 4591
4 5947 1139 5953 1138
4 3656 4503 1174 1175
4 3541 3618 2772 2275
4 4503 1184 1183 1174
4 3064 3065 2342 3066
4 4001 5208 5974 6244
4 3715 3717 3065 3066
4 5670 3301 3959 3297
4 6307 5906 4529 5255
4 4528 5906 6307 5901
4 6293 4530 5407 6307
4 4386 6293 4530 5407
4 3195 5749 3722 4276
4 4818 465 4791 4802
4 3858 2168 2169 2177
4 4528 6307 5297 5985
4 6307 6293 5255 5407
4 4830 2436 1672 6015
4 6307 6293 5862 5899
4 5435 6110 5606 4610
4 5250 5294 4725 5167
4 3028 5251 5125 6072
4 2445 2669 6329 3978
4 3052 2198 196 195
4 5125 4725 4332 5251
4 3028 4025 4023 5250
4 6251 5356 1667 1666
4 5250 4025 5294 5167
4 3470 5361 5902 5337
4 6005 2181 2172 2173
4 3798 5107 3395 4508
4 4872 6023 6249 6329
4 2669 2192 2191 2183
4 5191 1654 1646 1655
4 4773 102 103 456
4 3153 2181 6005 2190
4 3153 2189 2180 2181
4 3710 3470 5337 3473
4 6005 2173 2182 2181
4 3435 3434 3600 3436
4 2670 2201 2200 2192
4 2435 4831 219 2192
4 2640 2587 2401 3451
4 3729 2175 2176 2184
4 4773 1436 6142 1427
4 2686 2970 3945 3013
4 4465 1184 193 2572
4 3729 2176 2185 2184
4 3657 2185 2194 2193
4 3526 4463 3939 3527
4 4568 5762 3938 3527
4 5963 5408 1182 1173
4 3900 2185 2176 2177
4 5670 3301 6109 4804
4 5438 5972 4011 6045
4 3442 3440 4568 5438
4 2573 2195 2194 2186
4 3284 2195 3419 2196
4 3418 1200 1210 1209
4 3726 3858 3728 3721
4 3284 1193 1184 194
4 3937 5673 6055 6271
4 4773 4802 465 456
4 2534 2846 2538 2691
4 5670 3561 3959 6285
4 3413 3248 3250 4022
4 2845 3444 2930 3410
4 3486 4628 5998 4627
4 2915 4048 2916 2917
4 4773 103 1436 1427
4 2583 5128 2585 3170
4 3170 5128 4050 2917
4 2959 5974 2955 4001
4 3514 3167 6153 3166
4 5974 6181 2955 4001
4 3516 1698 1689 1699
4 4766 6182 5219 5128
4 5989 202 203 1235
4 2261 3713 3497 3851
4 5670 6109 1916 4804
4 3748 2931 2335 2751
4 4058 3498 3497 2619
4 1775 6050 1776 1767
4 2595 2596 2622 2605
4 3497 2522 3499 5582
4 4773 102 1436 103
4 2329 5629 5705 4491
4 5482 2524 3499 3500
4 3713 4514 2524 5634
4 3497 2524 3499 2522
4 4082 4091 3474 2834
4 4773 4776 456 4772
4 2700 3092 2347 3475
4 2351 3478 2352 5707
4 4773 102 4791 1436
4 2218 2456 2562 3841
4 4661 4664 1147 5953
4 1650 5360 1659 5244
4 4450 3154 5429 5799
4 5316 4107 683 5335
4 4256 1195 4183 5369
4 3144 3864 2820 4825
4 3479 3575 2610 3574
4 2606 2600 2712 3533
4 5438 5416 6045 3440
4 6041 1262 1263 1271
4 3533 5357 2712 3529
4 6029 1769 1777 1768
4 5629 4779 4491 4740
4 6237 2154 2155 2163
4 5191 1654 1645 1646
4 3383 3224 1211 1210
4 6006 5352 1208 1217
4 3839 2291 549 548
4 3361 3842 3873 4259
4 5757 1027 4450 5433
4 5770 3360 966 975
4 4421 5026 6013 5236
4 2240 2237 1548 1549
4 4112 5691 6291 1950
4 2755 1531 5820 1532
4 474 4791 101 100
4 4864 1453 1444 1445
4 1454 4910 4857 483
4 5629 4740 5581 4779
4 5820 1531 2755 2726
4 5462 1740 5467 1741
4 5462 1741 1750 1740
4 2240 2237 1549 2239
4 5424 5448 3786 721
4 5629 4740 4336 5581
4 2725 3664 5545 4351
4 6028 1690 1689 1680
4 4080 19 735 20
4 3867 2621 3645 5682
4 2730 2736 2737 3363
4 2222 3269 3260 2229
4 2918 5653 3625 2923
4 3284 1183 4503 1184
4 3221 3224 3701 3051
4 3268 3668 3669 3265
4 3268 3264 3669 3647
4 100 4791 101 1454
4 100 483 474 4791
4 2266 3268 3262 3264
4 2491 2487 2742 3484
4 3795 3641 5685 4875
4 264 265 6058 1248
4 4877 916 917 925
4 3096 3097 3346 3098
4 1787 264 265 6058
4 4044 1809 4065 1800
4 1778 6058 265 1248
4 2743 2487 5674 3999
4 264 1248 6058 1257
4 2543 2735 2620 3257
4 4462 3082 3404 4174
4 4318 263 264 1257
4 3567 2448 3082 3039
4 2430 2543 3218 2264
4 5273 3681 3682 4218
4 6103 3684 3683 4102
4 116 117 5199 330
4 3681 1350 6103 3683
4 3681 6103 5274 3684
4 4550 5199 339 1310
4 4555 4210 332 4531
4 116 5199 339 330
4 3369 3608 6103 4702
4 6103 3610 4102 3608
4 5629 5630 5581 6128
4 3369 4702 6103 5274
4 2926 2871 5105 2925
4 1310 116 117 5199
4 2916 2926 5460 2925
4 261 262 6049 1275
4 6273 6049 1814 1805
4 4055 6049 262 1275
4 4798 2554 3881 2927
4 5129 2927 2917 4798
4 261 1275 6049 1284
4 2927 4123 4798 5133
4 2927 3880 4123 5460
4 3516 4420 1689 1698
4 3618 4048 3619 5456
4 6048 1823 261 260
4 3074 3071 5892 5627
4 6227 259 1832 260
4 4571 1823 6227 1832
4 3881 5793 4697 6061
4 3667 3131 3345 5139
4 4132 6227 4571 5534
4 80 5999 663 654
4 3667 3345 2713 2706
4 4571 6056 1823 1822
4 4570 6068 4131 4132
4 4132 1294 1303 1302
4 6090 1312 1303 1304
4 2703 2706 2713 2704
4 2791 3336 3345 3303
4 3336 3344 3341 3342
4 4787 1821 6270 1830
4 5533 6062 6052 5499
4 6227 260 1832 1823
4 3337 2952 2953 3338
4 3344 3146 3147 3342
4 2988 2989 2952 3338
4 2335 2337 2931 2336
4 2595 2206 2604 2599
4 4854 1670 1679 1678
4 5363 709 5965 700
4 5965 700 709 708
4 4540 1822 1821 1813
4 3158 3155 4450 3156
4 4131 6090 6088 1312
4 4572 1830 1831 1839
4 2261 3713 3577 3497
4 259 4570 1302 6227
4 5470 3714 5829 5848
4 5470 5471 3714 5848
4 2254 3495 2821 2820
4 1302 258 6086 259
4 4057 5000 4010 5622
4 2945 2941 3476 4244
4 5245 5236 652 5248
4 6086 259 4570 1302
4 5629 5630 6128 4499
4 258 1302 6086 1311
4 259 258 6086 1841
4 3459 3981 3335 2531
4 4070 3782 4808 3903
4 3811 3458 2837 4484
4 3573 2351 5357 3533
4 5712 476 4863 475
4 3982 3459 4121 2841
4 2840 4988 3815 3229
4 2938 2833 2940 2939
4 2840 2837 3812 3813
4 6265 1777 1786 1785
4 2842 2833 2938 2528
4 3085 2932 2749 3086
4 2368 2810 2369 2367
4 2613 6151 3018 2611
4 2840 3813 3814 4121
4 3459 5777 3457 3592
4 4413 1850 1841 258
4 4743 3323 4900 2905
4 2906 4900 4272 3604
4 255 256 4325 1329
4 2546 4325 255 1868
4 4743 4272 4900 4682
4 5157 1589 1580 86
4 4900 4272 3604 829
4 4268 4325 1868 1859
4 4269 4325 256 1329
4 255 1329 4325 1338
4 255 256 1868 4325
4 4900 4682 5580 828
4 2546 254 255 1338
4 2546 2547 6066 1347
4 4900 829 5580 4272
4 2419 3324 3750 5340
4 4208 4878 3970 4034
4 3662 3597 3598 4034
4 3601 3889 5370 4878
4 5020 2925 5441 1639
4 5020 2870 2871 5355
4 5105 1638 2925 1639
4 5105 2925 1638 5460
4 2884 2891 2898 2887
4 2916 2914 2926 2925
4 3560 3559 3898 3897
4 2611 2615 2616 2613
4 6066 5599 1356 1347
4 2546 2544 1338 4325
4 2546 254 1338 1347
4 2742 3484 3096 2267
4 2715 2716 2865 4775
4 3367 3063 2617 4331
4 4925 3772 3771 4897
4 4925 3772 4897 3363
4 252 253 6096 1356
4 4062 4282 4063 6089
4 1886 6096 253 1356
4 1356 1365 6096 252
4 6209 1365 5550 1374
4 4925 5667 4970 4926
4 3644 2266 2268 3268
4 2408 2411 4124 3019
4 3285 3287 4125 4780
4 3225 4028 4293 3615
4 5580 5516 4711 2510
4 229 230 2102 5056
4 5245 5237 5248 661
4 253 6096 1895 252
4 2516 2518 4474 2520
4 2654 2907 2909 2655
4 4120 1517 1516 5082
4 4680 2499 2510 2498
4 91 564 2869 90
4 4960 2869 1544 1535
4 4769 1525 1526 1534
4 4963 4126 4993 4964
4 2513 2516 2515 3045
4 3215 5589 3884 5798
4 2869 91 1544 1535
4 3215 3884 3641 5798
4 3062 3007 3095 2392
4 3213 4866 3265 3669
4 4770 92 1535 1526
4 2869 91 90 1544
4 4770 564 2869 91
4 2868 1553 90 89
4 3214 3213 3669 5727
4 3453 3456 3454 4037
4 3183 3455 3456 3784
4 4757 248 249 1392
4 3420 3712 3421 3473
4 4757 1931 6286 1922
4 4757 249 5177 1392
4 4757 248 1392 1401
4 4757 248 1931 249
4 4410 2972 5339 2428
4 3456 3455 3957 4209
4 3456 3468 3784 3472
4 6132 4757 1401 1931
4 4511 3473 3472 3421
4 247 248 5659 1401
4 4223 6154 1419 1410
4 1401 1931 5659 6132
4 5659 248 1940 1931
4 4003 4004 4006 3788
4 4004 4005 4006 767
4 4004 4005 767 758
4 248 1931 5659 1401
4 4004 4005 758 757
4 1940 247 248 5659
4 5311 4005 3421 3784
4 4004 3455 3784 4209
4 3784 4005 3421 4003
4 245 246 5383 1419
4 4005 4004 3784 5311
4 6122 5383 1419 1428
4 2649 6043 3941 5687
4 3406 3407 2423 4778
4 2331 4499 2324 2982
4 5481 1708 1718 1717
4 2423 3405 2421 5903
4 3552 1269 1270 1278
4 2340 6328 3716 3722
4 4069 4504 321 322
4 3726 2573 2185 3900
4 5595 3333 2642 4412
4 5533 4571 3752 3554
4 6055 1727 1718 1728
4 2423 2424 2517 5390
4 5383 246 1958 1949
4 1958 245 246 5383
4 5390 5903 4753 5979
4 5390 2423 2421 5903
4 1949 5383 246 1419
4 2777 3485 4304 2844
4 5903 3381 4231 2423
4 5134 1967 245 244
4 5618 5903 3381 4231
4 3058 5801 5287 3820
4 2497 3603 4272 5580
4 2497 820 5580 5516
4 4549 115 116 339
4 3046 3035 2906 5578
4 2385 2677 2699 2681
4 3046 2908 5579 5578
4 4549 1319 4550 1310
4 2652 2795 2408 2410
4 4549 1319 115 5024
4 3603 5580 829 4272
4 3869 5986 5996 5314
4 5290 3895 5286 4777
4 4549 115 339 348
4 4549 115 1319 116
4 2781 5585 5242 5752
4 339 1310 116 4549
4 4628 4304 5928 4627
4 3869 5986 6269 5996
4 86 87 5137 600
4 3869 6189 4298 6269
4 2257 5137 87 600
4 4938 4342 4308 4343
4 86 600 5137 609
4 86 87 1580 5137
4 2835 3171 3172 3475
4 3211 3509 3719 2809
4 3875 3496 3902 2633
4 3242 4941 3930 4959
4 6047 1769 266 1778
4 3242 4948 3510 4976
4 6027 1249 1248 1240
4 4027 4293 4391 5263
4 5263 4293 4391 5184
4 2724 3300 3294 2722
4 242 243 4340 1446
4 5717 1455 242 4340
4 5524 1455 4340 1446
4 4340 243 1985 1976
4 3300 5609 5263 3553
4 5609 2864 5184 3293
4 2445 6329 6005 6254
4 2719 3060 3059 3299
4 2602 2818 2967 3157
4 5470 5156 3864 6216
4 2261 3497 2262 5493
4 5430 3155 4713 4669
4 1976 4340 243 1446
4 4340 1985 243 242
4 4444 3564 4446 5810
4 3157 5162 2967 2893
4 2818 3157 5162 2967
4 4809 3843 4092 5784
4 2623 3491 2832 3501
4 2596 2623 2624 2626
4 4809 5483 5420 3842
4 4809 3842 5420 3501
4 4938 5680 3929 4308
4 114 115 5024 348
4 4625 5024 1328 1319
4 5940 695 704 703
4 5948 1142 1134 1143
4 5338 1197 1196 1187
4 5386 5363 5368 709
4 3232 3459 3592 3489
4 5951 1167 4076 1168
4 5284 5932 1132 1131
4 2389 2228 2936 2300
4 4549 5024 115 348
4 114 348 5024 357
4 5024 114 1328 115
4 3162 2633 3902 3163
4 5074 1337 114 113
4 5286 4624 4538 4534
4 2374 3319 3318 3215
4 2409 2408 2411 4124
4 2802 2903 3610 4102
4 239 240 6126 1473
4 4952 6126 6163 1482
4 4952 5612 1491 1482
4 2003 6126 240 1473
4 4444 3154 4450 5799
4 4416 1246 1247 1255
4 4665 3698 3726 3727
4 239 1473 6126 1482
4 4756 1197 1207 1206
4 6126 239 2012 240
4 4445 3500 5483 5420
4 4444 3564 5810 4450
4 3154 5805 4481 5799
4 2266 3266 3264 2229
4 3644 2270 2266 2621
4 2437 199 6 1238
4 3644 3647 3281 3268
4 3797 2851 2221 3263
4 83 84 5180 627
4 6235 5182 1607 5180
4 2229 2222 2221 3263
4 3214 3015 3213 5727
4 3279 5978 3121 3281
4 5158 84 627 5180
4 4293 4027 3612 4354
4 5180 84 1607 1598
4 5609 3298 5263 5184
4 3611 2902 4306 3685
4 4391 4294 5185 4293
4 5184 5189 5185 5511
4 5184 5609 5511 5185
4 5184 5609 5185 5262
4 3688 5184 5189 5185
4 2659 2245 3769 3914
4 5158 85 1598 1589
4 2243 4469 4423 3731
4 5158 6220 1598 5180
4 1607 83 84 5180
4 2247 2536 2535 2251
4 2764 4425 2288 3112
4 2615 4827 2613 3653
4 5671 4827 4828 2739
4 233 234 4266 1527
4 2532 1237 1228 1238
4 5671 3653 6160 4827
4 4827 3653 6160 4883
4 2613 4829 4883 4827
4 6310 4266 2066 2057
4 4898 2613 4829 4883
4 6314 6281 6310 2066
4 4827 5961 2613 4234
4 2057 234 4266 2066
4 6314 233 2066 4266
4 3072 3722 3195 2370
4 3064 3068 3072 3065
4 2278 2551 2253 2549
4 4266 5968 1527 4265
4 3194 3696 4276 3722
4 3190 4924 2286 3733
4 3195 2370 5847 3734
4 3195 5847 4924 3734
4 81 82 5999 645
4 5186 647 5300 5217
4 645 5993 5999 654
4 1616 5999 1625 82
4 2109 2101 5169 2110
4 81 5999 80 654
4 2381 2384 3673 2677
4 4743 2508 2905 4272
4 1616 5999 82 645
4 2411 2379 4124 3019
4 2383 3844 2379 3846
4 5407 4529 4387 3916
4 3857 2170 3855 2169
4 4387 4386 4530 5407
4 4527 3071 3070 3069
4 3165 3170 3164 2917
4 111 112 4230 375
4 111 1355 4230 112
4 4693 1346 1355 1354
4 4525 4230 112 375
4 5516 819 811 820
4 5572 4140 5607 5605
4 3916 5407 4529 5409
4 3916 4924 5847 3734
4 3916 5409 4529 5914
4 2991 2994 2992 3588
4 111 375 4230 384
4 2992 3036 3526 3037
4 4503 1183 3284 4290
4 4229 110 111 384
4 4777 5291 5290 5822
4 3598 3594 4419 4483
4 4483 3594 4526 3595
4 3450 2533 6007 6250
4 2993 2566 2992 3037
4 2997 3590 3595 3597
4 3416 1209 1208 1199
4 2688 3662 2997 3524
4 5380 2801 2766 4955
4 5201 4955 4336 4740
4 4955 5200 4336 4742
4 6089 4062 4742 4063
4 4352 5286 5669 4624
4 4955 2801 5200 5380
4 2592 197 1220 2754
4 4955 5381 5200 4742
4 3799 3512 3395 5107
4 4955 4147 4063 4306
4 4290 3418 1200 1201
4 4267 1841 1849 1840
4 5609 3350 3351 6090
4 4267 1850 1849 1841
4 4131 4413 6086 1311
4 4955 4063 4147 4742
4 4267 1850 4413 1320
4 5339 5687 3423 4433
4 2937 3461 3188 2933
4 4270 1329 4325 4269
4 5816 1180 1170 1171
4 5840 4924 3193 5847
4 6091 1848 1839 1840
4 3771 5731 3773 5699
4 2295 2935 3581 2389
4 2298 2637 2387 2388
4 5166 4087 5164 2015
4 3188 2391 2936 3584
4 3365 3153 3332 4056
4 3460 3465 3464 6002
4 5452 4091 5453 2017
4 3463 6002 3462 4117
4 2978 3169 3374 2805
4 5452 2026 2035 2034
4 3692 4008 5087 3652
4 2975 3297 2980 3296
4 4998 4345 972 981
4 3623 3626 4984 3627
4 2975 2978 2980 3297
4 2332 2330 2920 2321
4 4577 5695 5682 6330
4 2621 3866 6330 3867
4 3729 2167 3728 2176
4 5452 2025 2026 2034
4 1501 4242 1502 1493
4 4466 209 1680 1689
4 6330 2621 5682 4577
4 4940 6190 4252 4243
4 2980 4577 2745 3866
4 3656 1166 1175 1165
4 3696 3695 5282 4276
4 4830 1662 2435 4831
4 2975 3297 2976 2979
4 4577 3295 2980 3624
4 2147 5111 6327 5109
4 2661 4927 3191 4581
4 6314 2075 233 232
4 2549 3879 5795 2552
4 2659 3759 2289 2245
4 3761 5328 4143 5495
4 3191 4927 5975 4581
4 4927 4581 4846 5975
4 2646 5687 5339 4410
4 6209 1383 250 1374
4 5550 1374 1366 1375
4 6227 259 260 1293
4 6318 5997 5981 5627
4 6227 1302 259 1293
4 4375 3464 3465 4379
4 3873 974 983 982
4 2892 2893 5090 2894
4 4375 5043 4378 3948
4 5042 5047 3462 3464
4 2649 3756 3757 6043
4 5199 117 1310 1301
4 4379 4378 4858 4377
4 3678 117 1301 118
4 3462 3464 4379 6002
4 4600 339 5199 330
4 4375 4379 3562 4377
4 3932 2810 3509 4313
4 2634 3163 2365 3125
4 3797 4262 3925 2851
4 4601 6287 4262 5738
4 3550 6186 3283 4602
4 2854 3283 3550 3466
4 3356 3230 5150 3125
4 3886 5922 5864 3237
4 2593 5971 5923 2987
4 3001 2972 5341 3324
4 4362 510 2281 501
4 5187 5231 5920 5971
4 6064 5922 5872 5920
4 5872 6064 6240 5922
4 3886 3325 3343 3340
4 3886 6064 3340 5920
4 3409 3449 2689 3445
4 5222 3446 3998 3448
4 3448 3721 5973 3412
4 2249 2847 3444 3616
4 2415 3036 2416 3002
4 2884 2885 2888 2896
4 4570 6227 4132 1302
4 2885 2896 2886 3450
4 3237 3542 3234 3235
4 5767 3542 5217 5300
4 3887 5300 5864 4284
4 3234 2590 3114 3887
4 4873 484 483 475
4 2461 2563 2557 2560
4 3111 3113 3114 3887
4 3887 5864 5178 4284
4 3111 2764 4422 4470
4 3111 3887 5173 3113
4 4470 3731 5170 5041
4 2627 2582 2629 2959
4 2981 2986 5143 2987
4 5566 5642 5570 1581
4 5022 2101 2093 2102
4 3440 3507 6055 5673
4 3030 2644 6070 2647
4 3074 5627 5892 6153
4 3185 3912 3453 3454
4 4118 3494 4454 1251
4 5913 3069 5946 4530
4 3071 4530 6247 5946
4 4527 3734 3916 4529
4 5633 1455 5524 1456
4 3070 2342 3734 3069
4 5627 6129 6153 3074
4 5717 5633 1464 1455
4 4527 3070 3071 3671
4 2320 2800 4679 2801
4 4663 1155 1147 1156
4 3563 3897 3560 3898
4 2323 2327 2331 2326
4 2439 3291 3650 3043
4 2327 2329 2326 2983
4 3038 3093 3094 3039
4 6245 2155 2154 2146
4 5961 3897 2728 3367
4 2332 2321 2920 2319
4 5639 2321 4639 3764
4 4870 1626 1618 1627
4 4442 294 295 303
4 2321 3764 5639 2319
4 6315 1545 1536 1537
4 5622 5967 6281 6310
4 6101 5724 5739 4808
4 6101 5100 6205 5739
4 6314 2075 2066 233
4 6101 5099 4061 5216
4 3777 6101 4808 5724
4 6314 1545 232 1536
4 3656 2571 1166 2193
4 6101 6205 5099 5216
4 4058 6205 3498 6101
4 2573 2194 2185 2186
4 3365 5929 5790 2443
4 4075 4076 4077 5402
4 5837 4058 6205 3498
4 3328 2579 5822 5823
4 1625 5999 1634 81
4 5287 3589 3058 2718
4 2381 2507 2377 2866
4 2129 5315 226 5566
4 3384 3180 3920 3540
4 5171 1582 1583 1591
4 2974 3187 4558 4557
4 3191 1117 1126 1125
4 3194 4276 3696 5282
4 2760 3384 2866 3382
4 6035 1717 5481 1718
4 3328 3385 3382 4990
4 5982 5999 1634 1625
4 4810 2043 2035 2044
4 6041 1272 4599 1271
4 5166 2025 2024 2016
4 4810 2043 2034 2035
4 5746 5742 6203 4199
4 6215 3809 6191 3835
4 2538 3654 2540 2881
4 2714 3057 2998 2316
4 3893 3892 5058 3664
4 983 5780 991 992
4 6215 3809 3244 6303
4 2302 2307 2574 2306
4 4409 4677 3905 6078
4 5274 4675 4750 1352
4 5379 1885 1884 1876
4 5964 4629 6100 5598
4 4492 4147 4146 5378
4 5599 1348 1356 1347
4 2546 1877 2545 1868
4 2546 2547 1347 1338
4 2546 2545 4325 1868
4 5379 1885 6106 5381
4 6103 4102 1350 1359
4 5624 1912 1921 1920
4 5603 4758 1402 1401
4 6120 5639 1394 1385
4 5654 6114 1937 1938
4 3483 4289 873 3380
4 5323 3594 4548 5772
4 4487 3597 6331 5926
4 6268 5417 4426 1737
4 3678 321 4504 330
4 3507 1729 1719 1720
4 4456 1742 1733 126
4 4504 5748 5199 4600
4 3901 1291 1282 1283
4 4007 2984 3141 3692
4 4852 73 1230 74
4 4852 74 708 709
4 4852 5386 1221 73
4 6003 1231 1230 1221
4 5965 699 700 708
4 5384 1670 1669 1661
4 6003 5359 4854 5336
4 5365 5766 4416 5764
4 3511 3512 3973 3513
4 6057 1264 1273 1272
4 6268 1746 5417 1737
4 4443 5389 1273 1282
4 4426 6264 1728 6055
4 3754 750 5016 749
4 4765 4753 4709 427
4 3506 1731 3505 1730
4 4456 1742 3787 1733
4 6111 5576 5564 5565
4 4135 4467 1815 139
4 4631 1819 1828 1827
4 5484 4215 768 4006
4 4191 1160 5949 188
4 5949 1160 189 188
4 5949 1160 1159 189
4 4191 5950 1152 1151
4 5943 1169 1168 1159
4 4077 5957 715 5956
4 5930 5949 4074 1150
4 4373 1716 3518 1717
4 4567 6268 4426 6264
4 4373 4832 1725 4305
4 4834 5700 5801 1298
4 4541 1812 1804 1813
4 5505 1269 1260 1261
4 6272 5500 3352 1295
4 4131 1303 1312 1311
4 6067 6088 4267 4413
4 5571 6037 1322 1321
4 5571 1322 5189 1331
4 2409 3615 4063 4020
4 4540 6270 1822 6056
4 5294 1836 6060 1837
4 4600 331 4555 340
4 3351 1314 5511 1313
4 6088 1312 1320 1311
4 6037 5511 1322 1313
4 3352 3351 6090 1304
4 2406 2359 2413 2770
4 4700 857 3105 858
4 5616 4806 1911 5624
4 4074 5393 4077 4076
4 4074 190 1149 1150
4 4074 189 1159 190
4 4074 5949 1159 189
4 6308 5951 5943 5824
4 5034 1023 5062 51
4 5034 5062 5081 590
4 2894 5148 1034 1043
4 4695 4621 407 398
4 4728 4753 418 427
4 4409 4495 3905 3907
4 4704 4695 6119 4790
4 5558 5567 4646 4566
4 4558 4041 6119 4790
4 4660 400 5568 399
4 4641 807 28 27
4 4660 4148 5568 400
4 5509 5544 5513 1826
4 4624 4723 4574 4597
4 5507 5540 787 788
4 5544 1825 5513 1826
4 5562 1807 5541 1816
4 5562 5513 4468 1816
4 5295 5254 5258 666
4 4908 612 4348 611
4 3304 3306 612 613
4 3309 5086 605 604
4 5173 638 4284 639
4 2913 1052 1043 1044
4 5193 1086 58 1077
4 5193 5194 5272 5198
4 5245 5243 5247 653
4 5193 57 1077 58
4 5194 634 5218 5079
4 6332 5546 5308 5307
4 5546 1096 5307 1095
4 2890 5858 5198 1068
4 5246 1070 1079 1078
4 3958 5147 5092 5127
4 5895 5908 5931 5894
4 6276 2071 2062 2063
4 5060 1541 5091 1542
4 6203 4973 1520 1519
4 4265 1518 5968 1527
4 6198 2030 2039 2038
4 1519 1510 1518 5958
4 5101 6180 6333 5099
4 5215 2065 2064 2056
4 4940 1512 4243 1503
4 5013 5044 558 567
4 5545 1532 1523 1524
4 5820 5545 1532 1523
4 4444 3564 3576 4446
4 4166 586 5084 5828
4 5828 5048 5103 577
4 3529 5048 5103 5828
4 5052 5049 5665 5818
4 4166 5103 577 5828
4 5545 1524 1533 1532
4 4620 4596 26 365
4 6279 4590 4437 4564
4 4545 789 4596 25
4 4596 25 789 26
4 4590 4564 347 346
4 4489 790 799 798
4 3537 5870 5559 5558
4 5174 5175 1383 5177
4 6079 1904 1913 1912
4 6080 6286 1921 1922
4 6120 6133 1393 1394
4 5639 5521 1394 1395
4 6214 1935 1934 1926
4 5607 840 5605 841
4 6120 1385 4667 5639
4 5175 5550 6118 1375
4 3766 4337 1386 1387
4 4770 1535 91 2869
4 2260 2597 2623 3500
4 3089 3090 5746 5742
4 2353 2606 3533 2351
4 2344 3523 2294 2293
4 5410 4887 1557 1558
4 5596 1878 146 1869
4 4559 5577 5596 833
4 5577 145 5596 833
4 4332 5606 1853 5435
4 6130 1878 1870 1879
4 4144 5606 5435 1862
4 5596 145 1869 146
4 3825 1740 5462 1749
4 4457 3433 308 309
4 5443 5421 5419 3785
4 5467 3505 1731 1740
4 3390 1721 3392 3393
4 3506 4453 5467 1731
4 3612 4145 4146 4147
4 3054 5051 3055 776
4 4725 6274 5544 1835
4 4332 4725 1844 6274
4 6274 5544 1835 1834
4 4409 4677 6078 5330
4 4969 6122 1420 1429
4 2724 2723 3353 2722
4 2979 3570 3569 6334
4 6246 5502 5135 1437
4 6296 1966 1965 1957
4 5603 6145 1402 6133
4 3060 3349 3352 3547
4 4478 4477 4512 4149
4 3551 3552 5498 4434
4 4215 5016 759 4006
4 3183 3454 3456 3455
4 4563 365 4566 364
4 5437 5119 3940 3398
4 6135 1412 6145 5520
4 6246 5671 5502 1438
4 6289 1930 6150 1929
4 6132 1930 6286 1931
4 6289 6150 5654 1929
4 6097 5916 6139 1956
4 6139 1947 6138 1948
4 6146 1948 6140 1949
4 5726 4897 4819 1972
4 3729 4654 2166 2175
4 4276 1128 3695 1127
4 3697 3695 1138 1137
4 3695 3698 1138 1129
4 1136 5952 5282 1144
4 3744 1171 1181 1180
4 4128 4663 1155 5924
4 3113 3887 5300 3542
4 3446 5222 4290 4359
4 3744 1172 1181 1171
4 4931 3508 4932 3510
4 4307 4907 4932 5702
4 4939 4998 5779 5014
4 4308 4977 3707 4932
4 4978 4981 544 535
4 4961 962 4991 4979
4 3892 3244 6215 2943
4 4951 4882 510 519
4 4948 5796 3510 4260
4 3643 5046 5061 3317
4 513 3632 4941 4976
4 4920 4244 4251 6295
4 6210 4199 1529 6203
4 5884 5735 1992 1991
4 5779 5780 4919 4922
4 965 3872 3360 5690
4 5761 6126 2012 2003
4 4339 4893 3585 4260
4 5882 5884 5711 5773
4 4905 4958 954 963
4 1998 2007 3814 3924
4 3591 6171 6156 4820
4 5150 6186 3923 6173
4 5767 5922 5921 6234
4 4047 4165 6156 1990
4 4164 5738 1990 1989
4 6154 1420 6122 1419
4 6297 1966 5458 5478
4 6137 6154 6135 6122
4 6140 1940 4223 1949
4 6132 6140 1940 5659
4 5424 3786 128 721
4 4456 3786 5426 720
4 3785 1724 3786 1733
4 3785 5426 3787 3786
4 3786 127 1724 128
4 5424 5419 1715 1724
4 4456 127 3786 720
4 5547 803 5522 802
4 5522 3373 3031 5547
4 6089 4282 4145 1873
4 4409 4495 5330 6078
4 6255 1682 268 269
4 6257 269 1766 270
4 6257 4510 1683 270
4 6081 1765 4510 1766
4 3944 5425 5121 3943
4 5437 5461 1703 1712
4 4929 6069 4365 5029
4 6051 1691 1690 1681
4 6050 1777 1776 1768
4 6255 1768 1767 268
4 5464 1685 1686 1695
4 6063 1691 1701 1700
4 4223 1940 247 1949
4 6146 6140 4223 1949
4 4757 6132 1401 4758
4 6146 1419 6154 6122
4 5131 3620 2925 1630
4 2772 5441 3620 5969
4 6006 1208 1209 1218
4 2442 3978 1654 1663
4 4203 5342 4127 5998
4 5929 2181 2180 2172
4 5945 5886 2158 2159
4 1663 1664 2442 6022
4 4774 4698 467 468
4 4704 4040 4041 6119
4 4234 4828 1431 4829
4 5977 1408 1417 1416
4 3341 6219 3343 5920
4 4346 2118 5169 2119
4 2560 2960 3837 2961
4 5098 3652 3648 1555
4 5566 6229 1590 5570
4 4197 1577 6222 1576
4 4009 4007 5087 5410
4 3339 3338 3345 5849
4 4198 2990 2985 1576
4 6232 1632 5984 1633
4 4274 5276 5275 5253
4 5295 675 5155 666
4 6232 5984 5982 1633
4 6240 6226 1604 1605
4 5204 4284 5230 638
4 3776 6196 5008 6295
4 4769 1526 4120 4770
4 4951 4362 3633 511
4 5245 661 5248 652
4 5348 5349 1088 1087
4 5895 5225 5238 5071
4 5265 5211 5239 660
4 5210 659 5211 668
4 5236 643 5243 652
4 5040 5173 639 648
4 4704 4041 4790 6119
4 4745 1372 1381 1380
4 4704 4584 4790 3827
4 4659 4535 5536 6119
4 4659 4678 389 4683
4 5734 3832 4618 4616
4 4537 6119 4695 4790
4 5204 5230 5864 5921
4 3109 1378 6108 1379
4 5027 4922 4446 5780
4 5430 4450 1028 5433
4 4082 4085 5166 4086
4 4810 5452 2035 2034
4 3842 5120 4446 5780
4 5809 1000 1009 1008
4 5387 1149 4075 65
4 5930 4076 1159 5943
4 4075 65 1149 2
4 4075 1158 2 190
4 4074 190 4075 1149
4 6257 6255 6050 1767
4 6174 1691 6051 1682
4 5630 4499 5631 6334
4 4263 1909 5630 6334
4 6147 1910 4806 1919
4 5617 1894 1903 1902
4 5519 4759 5976 4761
4 4704 4616 4043 396
4 5273 4218 3682 5530
4 4499 6147 3570 6334
4 4806 4496 5616 6128
4 6128 5202 5617 4336
4 5625 6121 1389 4746
4 6150 5654 1938 6114
4 6115 1358 5552 1357
4 5380 5551 5600 5599
4 4806 5655 1920 5624
4 6089 4280 4062 4282
4 3286 3287 3285 4780
4 6120 5176 4667 1385
4 4742 1884 1893 1892
4 4289 3380 872 873
4 4866 5647 5727 3794
4 4900 4682 828 837
4 1735 4426 1736 1726
4 5339 6335 5687 6336
4 6035 4426 1727 6055
4 6266 4301 1747 1738
4 4624 4538 4534 4597
4 3511 5673 3391 3507
4 3163 6014 3362 4906
4 4171 4178 4962 527
4 4962 969 4980 45
4 5792 978 4980 4943
4 4977 534 525 526
4 4979 4944 4824 961
4 3591 4819 6171 4820
4 4980 45 969 46
4 4982 545 5012 554
4 6210 1528 6203 1529
4 4963 542 3521 541
4 4858 4377 1435 1434
4 3946 5712 4774 4698
4 4864 1453 1445 1454
4 6167 6172 1466 1475
4 4698 4255 5588 477
4 6159 1433 6157 1434
4 4801 4331 5661 6144
4 2639 5962 4108 5347
4 3808 4114 3801 4935
4 5773 2002 2001 1993
4 2736 2738 4972 6097
4 3659 6168 5962 5347
4 3739 4558 4041 4557
4 4441 4539 4586 4435
4 4787 1820 6075 1821
4 4489 4668 4563 4596
4 5767 4273 5921 5230
4 5523 5532 5477 792
4 4563 355 4590 356
4 5572 3677 5607 3050
4 3544 4573 3546 5267
4 4696 3278 5189 3682
4 5413 4676 4775 3821
4 4639 2920 5639 5521
4 5189 1332 3689 1331
4 5871 1072 5235 1071
4 5210 5196 5023 5321
4 3692 4007 5087 4008
4 4384 5407 5409 5645
4 5893 3760 5904 5888
4 6324 5272 5546 5243
4 4050 4764 4049 6134
4 4505 5871 5889 5235
4 5538 4389 5646 5850
4 5836 5073 1061 1070
4 5871 5889 1072 5890
4 5406 5889 5890 1072
4 4909 518 4823 509
4 4822 4909 518 4823
4 4822 960 44 951
4 4859 4860 4162 5723
4 4822 951 44 43
4 4904 3876 973 4906
4 4865 924 4842 40
4 6003 4852 1221 1230
4 6009 1678 1677 1669
4 4852 5386 5991 1221
4 5336 1679 207 1678
4 6257 6261 1692 1683
4 4326 1765 1764 271
4 5443 5426 5448 4406
4 4082 3357 3815 5164
4 3377 4811 3097 3099
4 4339 4260 3630 4976
4 6299 4910 5047 4856
4 4891 4094 4889 6299
4 2649 5687 2645 5686
4 3553 6068 3545 3350
4 5541 1807 4064 1808
4 5562 4467 5475 1806
4 5476 1797 137 1788
4 3139 5484 4006 4215
4 5116 5327 4447 3753
4 3030 6070 6104 2647
4 5522 811 5584 6001
4 5491 1774 6082 1783
4 5484 5051 768 777
4 6042 4064 5542 4099
4 5252 4764 6241 6320
4 5857 5406 1073 1072
4 5252 6225 1593 5221
4 5252 6241 4764 5221
4 6241 6323 1602 1611
4 5214 2585 5221 5213
4 5169 2110 2119 2118
4 3193 5847 5749 1109
4 3134 3307 3302 3309
4 4360 1609 5110 1608
4 5221 5213 1592 1601
4 5214 1601 6323 1610
4 6225 5221 5213 1592
4 5570 6229 1590 1591
4 5220 6225 5221 5213
4 2455 2453 2211 2452
4 5981 5627 6337 6243
4 5891 5980 6247 6290
4 5128 4039 5214 6323
4 5214 6323 1601 5221
4 5878 6317 2113 2122
4 2995 1297 4834 3817
4 4839 4401 3594 3901
4 4300 1250 3494 1259
4 5499 1295 1294 1286
4 2416 4015 5503 3555
4 4572 5267 3546 1839
4 4511 4209 5446 5311
4 3751 4731 2420 5398
4 1790 3942 1781 6039
4 5700 5801 1298 1299
4 3390 3505 3513 1730
4 5510 6053 5762 4569
4 4031 6260 4403 4404
4 4512 4487 325 6331
4 4477 6078 6331 325
4 4477 4149 4486 326
4 4486 4149 4476 327
4 523 4941 4931 514
4 4823 518 4178 517
4 4822 4178 518 527
4 4907 5702 507 516
4 4171 536 4981 535
4 4822 4823 518 4178
4 3842 5780 5804 5120
4 3080 2311 3079 2312
4 3297 5693 6109 6214
4 4867 4238 5701 908
4 4084 6338 5769 3355
4 5948 1134 1142 1133
4 5950 1151 5949 1150
4 5387 4077 707 716
4 4074 5387 5393 1149
4 5343 1188 1178 1179
4 5816 1169 1170 1179
4 5404 5959 5950 1143
4 4258 4256 1186 1187
4 4074 4077 5387 4075
4 5943 5949 1160 1159
4 4074 1149 5393 1150
4 4074 4076 1158 1159
4 5854 170 5869 1058
4 5852 1058 5859 1057
4 5869 2094 171 170
4 6202 2104 6201 2095
4 6201 2094 5868 2095
4 5869 2103 171 2094
4 4653 4630 369 4650
4 4653 378 4650 369
4 4992 4795 5055 6170
4 4040 4042 4565 387
4 5286 5291 4604 4551
4 2783 2953 2775 2984
4 5767 5921 4273 6234
4 5788 1318 4625 1327
4 4561 1300 5748 1309
4 4600 4504 330 5199
4 5287 5801 4561 3820
4 3507 5029 1720 1719
4 4430 6177 6082 6339
4 3226 3702 6063 4929
4 5491 6082 1774 5465
4 5491 1773 5465 1774
4 4363 1702 4365 1701
4 6063 1700 3517 1691
4 4822 4178 4944 4824
4 4061 5626 5215 5623
4 4345 4979 971 4942
4 4983 4171 4978 4977
4 4822 4824 4944 960
4 4171 4943 4962 4944
4 4177 4907 516 4932
4 4171 526 4178 527
4 4962 960 45 44
4 4255 4698 4774 468
4 5712 4774 4698 467
4 4864 4858 1435 1444
4 2639 4172 3807 4109
4 4873 474 475 483
4 4234 4898 2613 4829
4 5729 6149 6213 1944
4 3465 4379 6002 4801
4 4158 4833 4794 462
4 6137 6138 6059 6140
4 3396 1219 6007 1218
4 2533 6007 1228 1227
4 2436 201 1237 200
4 4830 1662 1663 1671
4 6022 1672 4830 1663
4 4831 220 1653 219
4 2436 2532 1238 1237
4 2930 3444 5819 3410
4 5989 1236 6015 202
4 6015 1673 202 201
4 4632 1829 4787 4573
4 6092 4089 1847 1848
4 5548 5511 3351 1314
4 6037 1313 3351 5511
4 6070 5509 5261 6340
4 5496 5509 1826 1827
4 4483 322 4526 4504
4 4058 4060 5216 4061
4 3801 6341 3636 3802
4 3351 1313 6090 1304
4 4146 1866 5378 1875
4 5551 1357 5552 1366
4 3278 5189 3682 3689
4 4268 2545 5378 1867
4 4573 3546 5267 1838
4 3682 3689 1332 1341
4 3680 3681 3278 3684
4 6115 5599 1348 1357
4 5772 4561 5801 1299
4 5399 5500 5498 1287
4 5788 4676 1326 6095
4 3352 3351 1304 1305
4 3547 3352 5500 1296
4 3349 3351 3352 1305
4 6272 6090 1303 1304
4 5767 5922 3237 5864
4 3542 5768 5767 5186
4 3933 5520 3896 6136
4 5689 6214 1926 1935
4 4881 4239 4328 1415
4 3403 452 4157 451
4 2383 2411 3019 2379
4 5525 5520 5521 2920
4 3897 1423 4234 1422
4 5629 5705 5631 4499
4 2726 1531 3088 4971
4 4507 6012 5246 5192
4 4501 5194 5079 5188
4 2981 2990 2952 2989
4 5144 607 5147 616
4 5233 1604 6228 6240
4 5078 615 5144 616
4 3452 4576 783 5477
4 4015 3555 4013 5504
4 4397 762 22 753
4 4523 5494 4320 4321
4 4523 780 24 771
4 2510 4711 4684 5517
4 6093 4495 3907 4524
4 4287 6263 4286 5569
4 4139 851 860 859
4 4139 3961 859 860
4 5693 5677 5695 3295
4 3960 859 3961 868
4 4700 858 3960 867
4 5610 147 1878 1887
4 5597 842 4140 841
4 5607 841 4140 850
4 3568 6109 1917 1926
4 3568 3570 5880 1927
4 4811 4867 900 3999
4 4965 3380 882 3376
4 865 5652 5305 4291
4 6109 4804 1917 1916
4 2484 2487 2486 2744
4 4102 6116 1358 1359
4 3371 4702 5274 6112
4 5376 5380 5381 5600
4 5674 3999 892 901
4 4867 4811 900 899
4 3845 3605 4228 5605
4 6208 895 4341 894
4 5695 5693 1934 1933
4 6213 6214 1935 1934
4 4338 5699 5731 1961
4 6149 1943 6213 1944
4 6292 1945 6113 1946
4 6135 6154 1420 6122
4 6282 4679 2319 5176
4 2731 4828 4969 6136
4 5520 6136 1412 1413
4 6135 6154 1411 1420
4 6135 1412 6136 1421
4 4828 4829 1430 1431
4 4234 1431 4828 1422
4 2747 5658 2487 2744
4 3653 5501 4972 2739
4 5458 1976 5459 1975
4 2740 1802 5340 1811
4 3986 6027 6028 4299
4 3390 3392 1721 1720
4 4212 6050 3983 1777
4 6074 1811 6075 1820
4 2419 5339 4716 4410
4 4044 1800 4400 1801
4 5498 1286 6052 1277
4 4317 6071 1795 1804
4 6052 1285 6062 1276
4 5533 6062 5534 6056
4 6262 3494 1251 1260
4 4898 1450 4108 1449
4 5347 1457 5962 1458
4 4898 1449 4883 1440
4 4102 1349 3683 1350
4 6115 4102 1349 3683
4 6087 5556 4267 4270
4 6083 1895 1904 1903
4 5175 5550 1375 1374
4 5377 1340 3687 3689
4 2864 2862 3278 2865
4 3077 2359 3075 3081
4 6341 3149 4951 4956
4 5612 6166 1483 6163
4 3490 5883 3658 6031
4 2619 2623 2626 3500
4 5346 6196 1486 1477
4 5346 6196 1477 4912
4 2350 3892 3891 3665
4 3923 5755 3924 6165
4 6341 4355 3149 6178
4 6018 5934 4870 4850
4 3635 3629 2935 3581
4 6145 5521 1403 6133
4 6135 5520 6136 1412
4 5520 5521 1404 1403
4 3933 6135 5520 6136
4 6135 6137 5525 6154
4 2731 4969 6135 6136
4 6125 5521 4639 4337
4 6018 6061 4798 5934
4 4720 422 2309 423
4 3261 4970 5667 5672
4 5815 2049 4194 165
4 4194 165 2049 166
4 6312 6311 2042 4520
4 4193 5815 1013 1004
4 5782 4169 4945 4946
4 5832 5838 5812 5640
4 4194 2058 166 2049
4 5560 805 5565 814
4 4332 6274 1844 1843
4 5576 1842 5439 1851
4 3752 5498 5499 6052
4 4725 6274 1835 1844
4 4024 6099 4019 5435
4 5576 5563 5439 1842
4 6072 3160 5526 5527
4 5251 4725 4332 6274
4 4534 4538 4551 350
4 4574 1336 1327 1328
4 5074 5024 4597 357
4 4550 4625 1318 1319
4 4353 4600 4550 5748
4 4352 4353 5788 3821
4 3818 3547 3817 1306
4 5788 4353 1318 1317
4 4069 4504 3594 4548
4 4995 5625 6121 5395
4 4040 396 4043 387
4 3829 4616 405 404
4 5964 5657 5598 6100
4 4672 4043 395 386
4 4040 4043 4042 387
4 5423 2184 180 2175
4 5423 2175 180 179
4 5423 5947 4654 1139
4 3698 5953 1147 1138
4 3858 2177 3728 2168
4 3284 3419 5222 3221
4 5954 5423 3657 2184
4 1436 4791 4773 6142
4 4917 4840 5621 5650
4 4874 1442 6164 1451
4 5661 1433 6159 1442
4 6159 6157 5660 4331
4 4378 4864 4818 4873
4 4117 1451 6164 1452
4 2311 2309 4585 4718
4 5933 6327 4360 5110
4 5131 5133 5132 1620
4 5792 979 4996 988
4 4308 4978 3707 4977
4 5220 5213 5171 6225
4 3649 1563 1572 5056
4 5021 3649 6211 5232
4 5171 5213 1591 1592
4 6318 2152 4283 6243
4 5022 2102 5232 2101
4 3613 1572 1573 1581
4 6018 3882 5787 2445
4 5143 4764 6320 2987
4 3449 5066 5068 4359
4 6325 2145 6321 6231
4 5942 2153 6321 2154
4 5942 6245 2154 6321
4 5442 5355 1658 5356
4 6094 4671 5575 1373
4 6094 1372 1363 1364
4 2449 2521 2421 3288
4 5657 5598 6100 1363
4 3766 3763 4715 2322
4 4672 395 4618 394
4 2827 3186 4557 5808
4 4584 3827 4585 4543
4 3833 4100 4617 4717
4 3548 4672 4042 4043
4 3967 4226 5823 6169
4 4753 4180 4181 426
4 5658 3606 5664 884
4 3078 3289 4643 4718
4 4026 4788 450 4783
4 5650 4817 890 889
4 3646 4735 2743 3865
4 4797 4768 4840 888
4 4621 5568 4730 408
4 5652 5658 874 875
4 4338 1960 6291 1951
4 4867 5701 899 908
4 4179 4862 4894 5590
4 2933 3630 3584 6085
4 3999 4965 892 891
4 5683 4813 4843 4877
4 5710 4901 927 4876
4 5660 1424 6157 1433
4 4238 5641 4901 917
4 4811 3376 891 890
4 5701 4816 898 907
4 3271 4867 900 909
4 3095 5587 3094 4173
4 4247 4248 485 486
4 4889 4247 4248 485
4 3632 3118 512 513
4 3801 4935 4114 4933
4 4094 4889 4248 4890
4 4115 4110 4114 1469
4 4339 3634 495 504
4 4338 5733 1960 1961
4 5698 5719 5743 940
4 5738 5750 5758 1980
4 5738 1989 5750 1980
4 4866 5647 3271 3273
4 3591 6156 6171 5735
4 6050 4212 1776 1777
4 6018 6061 6237 6236
4 4454 1251 1250 1242
4 5481 3517 1708 3518
4 3982 5917 6207 5611
4 2622 3491 2623 2597
4 5138 5909 6276 2071
4 6018 6236 4850 4872
4 6206 5626 2063 5216
4 3206 579 5067 3196
4 6319 5156 3864 3859
4 5835 5364 1062 5836
4 4009 4010 3749 2238
4 3696 3697 3698 3704
4 3856 3857 3067 6337
4 4665 3698 5947 5953
4 3191 1125 1116 1117
4 685 5928 693 4203
4 3066 5997 2160 2159
4 6242 6337 5981 2161
4 6242 4297 5795 6337
4 6238 6254 6252 2163
4 3698 3697 3695 1138
4 6125 3559 4881 4838
4 3296 3104 3959 5656
4 3579 3962 878 3831
4 4789 5656 3296 3959
4 5674 5664 893 884
4 5674 3865 902 893
4 2523 2525 2052 2061
4 6212 2525 2522 6312
4 2523 5493 5830 5831
4 5640 4195 1022 1021
4 5805 4444 3154 4515
4 6276 5830 5909 5831
4 5805 5120 1002 1001
4 4393 5879 4703 4202
4 4202 5089 2106 2105
4 5406 4155 5643 5839
4 5839 1055 5643 1064
4 4155 5890 5406 4727
4 5447 739 4406 5310
4 5260 4399 5492 5491
4 5426 3786 721 720
4 4016 4017 4079 4032
4 4460 5426 5447 729
4 5443 3785 5448 5426
4 5448 5426 3786 721
4 4456 3786 1733 3787
4 4456 126 1733 127
4 5443 5419 5448 3785
4 3996 4505 5836 5890
4 4686 2591 3731 3136
4 5218 642 5170 633
4 3958 5127 5063 5064
4 6234 4273 5993 6235
4 5041 649 4470 5040
4 5026 5239 650 651
4 5246 5073 1070 1069
4 5406 1064 5839 5643
4 2517 3770 4279 4231
4 4537 3828 4790 4543
4 4291 4279 855 864
4 3380 3376 881 882
4 4792 3380 3376 881
4 4289 4288 863 872
4 4288 5648 862 871
4 6080 5624 1912 1921
4 6209 5177 6080 1913
4 1365 6209 1904 251
4 6209 1374 250 251
4 4757 6286 5177 1922
4 5297 5927 2132 2131
4 6318 2143 5980 6244
4 4153 5223 4202 5234
4 5980 2142 6247 2133
4 6210 5967 6203 1528
4 4388 5646 5256 5644
4 5409 5914 5255 4529
4 3864 6319 3860 3239
4 5209 2126 5881 2135
4 6325 2136 4347 2137
4 4657 1120 2371 1121
4 5876 5879 5878 2113
4 2741 6139 6146 6296
4 5798 5589 5590 4894
4 4902 499 498 490
4 5736 4902 4879 4880
4 4865 4842 4885 491
4 6302 5501 5459 5457
4 5996 1214 1213 1204
4 4781 4183 1196 1205
4 4184 1224 5887 1225
4 5374 5368 711 5403
4 5280 704 5940 5299
4 5363 5362 701 700
4 5279 1186 4258 4256
4 3783 5990 5369 5385
4 5374 1213 1212 1203
4 4781 1206 1205 1196
4 5779 991 990 982
4 3707 524 4932 525
4 4977 3707 4932 525
4 3522 3839 549 558
4 3087 2238 3749 4010
4 3463 4108 2614 4110
4 5685 5683 3017 3640
4 4902 489 4880 490
4 4901 4876 926 927
4 2611 3460 2614 4801
4 4842 40 924 41
4 4865 924 40 915
4 4159 4845 4844 5649
4 4865 4844 915 39
4 4414 2514 3989 3290
4 3764 5639 2319 4667
4 4746 1381 1390 1389
4 3827 4585 2311 3829
4 6233 5208 2143 6244
4 5888 5904 5893 1089
4 5256 5645 5644 1074
4 4390 5645 5406 5644
4 5256 5645 1074 1083
4 6293 5899 5255 5256
4 6318 6243 4283 6244
4 4200 5207 5234 2115
4 5860 5885 6317 4356
4 6105 1584 6076 1575
4 6320 5143 5898 5252
4 3142 3692 5592 4008
4 5002 6211 5232 5169
4 6225 1593 5221 1592
4 5198 1068 57 56
4 5193 5198 57 644
4 2890 56 5198 635
4 5858 1077 5198 1068
4 6324 5243 5194 5272
4 5072 1069 5858 1068
4 5858 5272 1077 1078
4 3664 3893 3665 6275
4 4904 4344 4345 4998
4 4807 3487 5739 4808
4 6193 4251 1504 6342
4 5007 556 3850 547
4 6303 6191 6178 4968
4 5681 5675 4334 896
4 4736 911 4737 920
4 4734 3273 3272 4736
4 6330 5694 5695 5708
4 5681 4341 895 904
4 3309 3950 4986 605
4 3996 2895 5161 5896
4 5112 5137 1580 1571
4 4908 5136 4167 611
4 4767 6333 5742 6203
4 3977 5846 5163 5843
4 4057 5622 4061 5000
4 5844 5843 5163 1051
4 4513 6331 6078 325
4 4600 4526 4555 331
4 5677 3830 3831 1923
4 5681 895 5675 896
4 5681 4341 6208 895
4 5664 885 6208 894
4 3830 151 1923 152
4 3830 1932 152 1923
4 5706 4800 5681 4341
4 6330 3866 6208 4341
4 5693 6213 1934 6214
4 5681 5694 4334 5675
4 5482 2522 2524 6312
4 5166 2016 5452 2025
4 3746 3747 4052 3749
4 4444 5805 5799 1010
4 4946 5483 3842 5120
4 5810 4446 5805 1001
4 5514 4979 4961 4991
4 6311 4086 5452 2034
4 1585 2990 1576 1584
4 5591 4826 5138 3863
4 4886 1566 4888 1565
4 4887 1566 4886 1557
4 2918 2922 5654 2923
4 3272 902 4735 911
4 3017 4876 4875 4901
4 6287 1980 5758 1971
4 5758 5731 1971 1970
4 6287 5758 5731 1971
4 6288 6291 5740 5715
4 6287 4819 4820 1981
4 3591 6098 6171 4819
4 6156 1981 6171 1982
4 4710 843 31 834
4 4279 4732 854 863
4 4101 831 5605 840
4 4148 4710 5594 4712
4 4707 4728 4754 428
4 5594 853 852 844
4 4710 4582 5553 834
4 4710 30 834 31
4 4220 4222 4681 826
4 4054 1275 1266 1267
4 4316 1795 1786 1787
4 5591 6218 5138 5593
4 4315 1787 1778 6058
4 3985 6256 3983 6174
4 4534 4597 349 358
4 3965 4649 4630 4650
4 3001 3823 4433 3010
4 4487 4473 4033 315
4 5294 4725 1836 1845
4 3596 4555 4600 4526
4 5523 3452 784 783
4 4574 4722 5583 1336
4 3911 5370 3889 4478
4 4513 4531 4473 324
4 4152 3146 4350 3145
4 2505 3997 2828 2849
4 2505 2868 582 1553
4 4046 1544 1553 1552
4 3532 5059 3529 5048
4 2849 4190 4189 574
4 2814 5091 1533 1542
4 5060 3690 1550 1551
4 6217 1558 4196 2784
4 4488 754 3956 755
4 3940 3710 3741 3398
4 5399 1287 3552 1288
4 3955 3954 3957 3951
4 5904 5195 4396 5348
4 5193 5194 5198 644
4 5265 669 5211 660
4 5236 5026 642 651
4 5194 5218 634 643
4 5193 5194 644 5243
4 6324 5349 5348 5272
4 5193 1077 5272 1086
4 5546 5272 1087 1086
4 4644 6284 5703 433
4 423 4644 4718 2309
4 3080 3827 2311 3829
4 4720 422 4705 2309
4 6137 6140 6146 6139
4 5973 5408 4503 4290
4 3416 1199 3720 1200
4 1210 1219 3383 3396
4 3449 4359 3720 1190
4 4665 3727 3726 3729
4 3444 4781 3486 5338
4 4501 5188 5072 5858
4 5194 5198 644 635
4 5246 5858 1069 1078
4 5188 2890 635 626
4 5149 1050 55 54
4 3977 5147 5154 5144
4 5835 5364 1053 1062
4 5871 5836 1062 1071
4 6228 1595 5231 1604
4 4766 6182 6181 6231
4 3519 5223 5207 4393
4 6226 6064 6240 5923
4 6222 1577 5849 1586
4 4197 5849 6222 1577
4 4826 5593 5138 6276
4 5768 5186 5752 5253
4 6221 6220 5872 1597
4 5080 3310 3304 5086
4 3161 1570 1579 1578
4 5085 5136 619 610
4 4234 1440 4829 1431
4 4601 5758 5738 5750
4 6160 4883 6161 1448
4 4883 5962 1448 1449
4 4896 6171 6098 4819
4 4969 1430 5671 1429
4 6246 1429 5671 1438
4 4372 4370 10 278
4 4370 1753 10 9
4 4051 9 4370 277
4 5766 5365 6036 5418
4 6046 1744 1754 1753
4 6046 1754 1744 1745
4 4405 4368 4370 4372
4 4057 3747 5592 5620
4 5580 4682 4711 828
4 3371 6112 5274 4750
4 4641 816 4685 28
4 5552 4102 6116 1358
4 5552 6116 1367 1358
4 6083 5551 6096 5600
4 6118 4715 1376 1367
4 3615 4063 4020 4354
4 3713 5634 4482 4481
4 5446 5310 748 739
4 4475 4480 311 4479
4 4321 338 4564 337
4 3969 3971 3970 3975
4 5447 5426 730 729
4 4486 4149 327 326
4 4512 4472 5926 3437
4 4457 3971 299 308
4 4461 4458 309 318
4 4607 4614 5126 6004
4 2510 3700 6343 3540
4 3845 4101 3605 5605
4 4332 5606 1852 1853
4 3969 3973 3972 3975
4 5031 4365 1711 5029
4 741 742 4103 750
4 4005 5016 4006 758
4 4323 3754 5016 749
4 3400 5422 1722 1713
4 3393 3400 5422 1722
4 3392 5029 1711 1720
4 5437 4314 1713 1704
4 3973 6266 6264 3513
4 3755 750 3753 4103
4 6048 261 1814 6049
4 6227 6048 1293 260
4 6227 1823 6048 260
4 6048 261 1284 260
4 5609 6087 6090 6037
4 4570 1302 4131 6086
4 4317 6273 4541 1804
4 3042 3043 3044 3076
4 5273 3682 3278 5530
4 3681 3683 3689 1341
4 3689 3683 1340 1341
4 5377 3689 3683 1340
4 4145 4354 3612 6124
4 5376 4306 5381 5380
4 5377 3683 1349 1340
4 425 4719 4542 424
4 2312 4617 3829 4705
4 2319 4679 4667 5176
4 4337 5639 1395 5521
4 6131 6278 6263 1870
4 4277 5569 4287 4286
4 4285 4144 1863 1872
4 3846 2379 4019 4610
4 5586 814 4674 5560
4 5435 4333 1854 1853
4 5292 5435 4333 1854
4 6099 1863 5435 1854
4 5845 5914 1091 5409
4 5197 5265 5211 5239
4 3249 5875 5948 4846
4 1161 1170 5277 4191
4 5211 5296 668 669
4 5265 5269 669 670
4 5281 5331 5326 689
4 5975 5283 5941 1125
4 5307 5071 1104 5225
4 5307 1104 5285 1095
4 4215 4451 760 759
4 4215 4451 759 5016
4 6039 1790 1789 1781
4 4323 5016 758 749
4 3427 3428 3430 3438
4 4215 760 4216 769
4 5686 5463 5541 4064
4 5463 4064 4065 1808
4 5476 4099 5466 4452
4 4338 5699 1961 1952
4 4734 3273 3669 3647
4 5708 5695 1943 1942
4 4338 5733 6291 1960
4 4704 4040 4043 4041
4 4616 4043 396 395
4 4799 5964 4629 4648
4 4108 4883 1449 5962
4 6302 5501 6161 5524
4 5961 6136 4234 4828
4 6160 1439 4883 1448
4 4829 4883 1439 1440
4 6160 5502 5671 1438
4 6097 1955 5916 1956
4 5457 5479 1974 1983
4 4976 3632 4941 3243
4 6193 3835 6191 5008
4 6197 4968 6303 6178
4 3501 3871 3520 3496
4 5487 5033 5488 5009
4 4159 481 4160 472
4 5725 499 4162 508
4 5714 497 4923 506
4 5702 4932 515 516
4 3931 4963 4126 3523
4 3510 4976 4948 4260
4 4928 5747 943 944
4 5106 1033 5064 1032
4 5148 5825 1034 1033
4 5144 5147 607 5092
4 5146 1050 5163 5846
4 3996 5835 5890 5836
4 5146 4182 53 608
4 5364 1052 2913 1053
4 5430 5432 1028 5429
4 5844 5364 1052 2913
4 5062 52 4182 599
4 5062 5063 590 599
4 2644 6070 2642 5261
4 5466 4452 751 752
4 5902 3785 4453 5421
4 3957 4448 756 755
4 5770 5774 5775 976
4 3242 3243 4976 4941
4 3852 4083 4092 3843
4 5727 3122 4738 3214
4 5678 5679 941 5737
4 5732 159 5754 959
4 5786 5754 160 968
4 4188 5775 6304 5774
4 4195 4194 1022 1013
4 3154 5428 5429 5799
4 4482 5848 5635 5165
4 5826 2058 167 166
4 4522 4194 2049 2058
4 4813 4843 4877 925
4 4518 5634 4481 4482
4 5683 4812 4843 4813
4 5725 4907 507 508
4 4923 5702 506 507
4 5476 5542 4099 4452
4 6042 4451 3755 4452
4 5542 4216 4452 5475
4 3755 4451 750 751
4 4215 4451 4216 760
4 5476 5542 4452 5475
4 5304 1771 1762 1763
4 5327 749 5310 740
4 4452 4451 6344 6042
4 5339 4410 5687 6335
4 4097 4099 1789 1798
4 4097 1789 6039 1790
4 6344 4216 4451 4452
4 4214 4468 5562 5513
4 6344 5542 5562 4216
4 2502 3823 2504 2503
4 3941 6043 6073 4065
4 5484 5051 4006 768
4 5554 5484 4217 5507
4 5484 768 4215 769
4 3422 4003 5016 3756
4 5484 4215 4217 769
4 5554 5544 4468 5513
4 5484 3055 5051 777
4 3788 5051 767 4006
4 5562 4467 1806 1815
4 3160 5526 795 3910
4 4214 5484 4215 4217
4 3285 3209 3502 5705
4 3677 3845 4613 5605
4 5584 4030 821 812
4 3605 831 4101 830
4 3847 5584 4030 3603
4 4610 4144 5606 5435
4 4949 5808 4535 4557
4 5522 5584 4030 3847
4 5576 1842 143 142
4 4228 5605 831 832
4 4674 4228 3605 822
4 3873 5804 5780 983
4 3814 4047 1990 4165
4 5166 5164 2016 2015
4 4958 4991 4961 962
4 5917 5614 2028 2019
4 3042 5519 4594 4593
4 6125 4805 4881 3896
4 6123 5977 1417 1416
4 5653 1928 5654 1937
4 4881 1424 3898 1423
4 5660 5661 6159 4331
4 5903 4778 3405 4180
4 4720 440 4038 431
4 4860 5747 4961 952
4 4860 4824 951 952
4 4859 934 4928 943
4 4812 4928 934 4813
4 4936 4813 4876 935
4 4860 4909 5723 942
4 4307 4177 4932 4907
4 4162 4823 508 509
4 5690 6014 955 964
4 4983 4981 4171 4943
4 5214 5221 1601 5213
4 6323 5221 1602 1601
4 5252 6241 5221 1602
4 5132 5133 1619 1620
4 5470 5156 6216 5848
4 6216 2078 5848 2079
4 5471 6216 5814 5848
4 4450 5433 1027 1028
4 5814 5635 2069 2068
4 5848 5165 2070 2069
4 6319 6216 2079 2088
4 6202 4202 2105 5089
4 5830 5848 5165 2070
4 3977 5843 5919 5846
4 5153 633 5170 632
4 5153 5079 633 624
4 4985 4986 615 614
4 5078 4985 4986 615
4 5919 4506 3836 5078
4 6309 6310 5215 2056
4 5215 2056 6310 2065
4 6206 2054 5216 2063
4 2062 2523 5582 2053
4 3802 3808 4935 3809
4 5101 4973 6203 5968
4 4514 4516 2524 4520
4 5539 5058 5803 6192
4 3221 2188 2197 2196
4 3720 1190 4359 1191
4 5172 657 5217 648
4 5275 5253 655 5186
4 5993 5320 1624 5984
4 5040 5041 649 640
4 4171 526 4977 4177
4 5039 5033 553 562
4 4171 4981 4980 4943
4 4171 4962 4943 4980
4 5075 6155 5794 5076
4 4308 4978 4964 3707
4 4980 4981 536 545
4 4983 4996 4943 4942
4 5678 158 5732 950
4 3755 3754 750 5016
4 5448 5450 731 722
4 5324 5302 1761 5303
4 5436 3506 3393 5421
4 4253 4254 130 723
4 3943 5461 5028 4364
4 5124 4447 5116 5327
4 5443 5123 5337 5124
4 5448 730 5426 721
4 4314 1705 5117 5118
4 4254 1706 130 129
4 3427 4461 3433 3432
4 4839 3588 5389 2999
4 3139 4006 3756 4215
4 2503 2502 1802 1793
4 3579 1905 150 149
4 6127 6117 4780 3504
4 3828 2311 4543 4718
4 4263 3220 6334 5631
4 3296 3670 5656 3606
4 4741 4779 6127 1891
4 3808 5955 3801 4114
4 3677 5607 4101 5605
4 4263 4804 3220 3503
4 4741 4740 5581 4336
4 4612 4613 3845 4228
4 3357 3924 5164 6165
4 5786 6304 6305 5774
4 5804 5120 5780 992
4 6183 6197 4227 5083
4 4905 4958 963 4991
4 5770 967 5774 976
4 4085 5783 2024 4086
4 5804 3842 4169 4259
4 6304 4085 5783 2023
4 4188 2013 162 161
4 5261 5294 6060 6277
4 6340 5513 5509 5544
4 5509 4725 1835 1836
4 5509 5544 1826 1835
4 3920 4235 6343 4236
4 3799 3512 3973 3439
4 4696 5530 3278 3682
4 3820 1308 4353 1317
4 5529 1325 4676 1334
4 4561 4353 3820 1308
4 3738 4142 5601 4745
4 2803 6116 6118 5552
4 2329 5629 4500 4499
4 6118 1367 5552 6116
4 6282 5174 5176 6120
4 4806 6147 3570 4499
4 6079 5549 5616 6282
4 4715 1367 6116 1368
4 6120 5176 1385 1384
4 5498 5500 1286 1287
4 5500 1296 3352 1295
4 6074 4787 1820 6075
4 5263 5267 5262 6092
4 3350 6272 3352 6090
4 4322 1267 4054 1266
4 6272 1303 1294 1295
4 3237 6226 5140 5320
4 5114 6219 5205 5113
4 3113 5173 5300 3887
4 5254 665 5253 656
4 5753 3543 5752 5768
4 5204 4284 629 5097
4 5300 5217 647 648
4 3542 5217 3113 5751
4 5186 5217 656 647
4 5768 5984 5993 5982
4 4771 564 555 556
4 4960 2817 2814 1543
4 6184 5001 3850 5082
4 4120 546 3850 555
4 3850 546 547 555
4 4960 1543 2814 1534
4 2868 2869 2858 573
4 6195 1533 2814 5091
4 3242 4931 3930 4941
4 2240 1540 2239 1549
4 2019 5614 6207 5917
4 6191 6192 1505 1506
4 2602 2338 2966 2967
4 2947 1025 5666 1026
4 5818 1016 5666 1025
4 3801 4361 4933 5955
4 4050 5130 5132 6323
4 5233 6134 5923 6320
4 2477 6225 5220 5004
4 5173 5300 638 647
4 4470 650 5025 649
4 5921 6234 6235 4273
4 4170 5040 640 5041
4 4951 4362 511 510
4 4941 522 3118 513
4 4227 529 4956 3116
4 3891 5001 4987 2291
4 3930 3707 524 4932
4 3789 3581 2806 3774
4 5030 4171 4177 4178
4 3775 4934 6196 4912
4 5611 6207 5334 5613
4 4339 513 3632 504
4 4163 5013 568 5104
4 3839 5044 557 558
4 3891 4987 3804 2291
4 5007 557 4261 556
4 4446 3883 4922 3576
4 5902 3787 3785 5426
4 4399 1783 5491 5319
4 5419 5422 1714 1723
4 4453 1731 5421 1732
4 3785 1733 3787 1732
4 3985 6256 6174 6051
4 5361 5902 5447 3787
4 4406 5310 739 740
4 5419 1724 3785 1723
4 4406 5327 5310 740
4 3632 4339 4976 513
4 3634 4248 495 494
4 3243 3632 4941 3118
4 5295 5585 5288 5344
4 3386 5356 6011 5355
4 6011 1666 6019 1665
4 4184 6251 6020 6017
4 4072 1208 4073 1207
4 5271 1226 5995 1225
4 5791 2896 5270 2897
4 2670 2436 1238 2437
4 5783 4086 2033 2024
4 5782 6306 5797 5785
4 6311 4086 2034 2033
4 4946 5120 993 1002
4 2525 5636 4520 2051
4 4997 3481 4939 5076
4 6338 6305 6301 4087
4 4515 5483 4516 4946
4 2523 5582 5493 5831
4 6311 2042 5785 2033
4 5144 4986 606 615
4 3996 5469 5890 5896
4 5227 4150 4155 3840
4 5818 5825 1024 1025
4 5006 588 5005 597
4 2895 5161 5896 6313
4 2963 5144 3950 5092
4 5078 4985 615 624
4 5062 5064 4182 1032
4 5844 5163 5064 1042
4 5782 4945 5771 6306
4 5805 5120 1001 4446
4 5804 993 5120 992
4 4407 6260 1760 1759
4 4427 1760 1751 124
4 4427 125 4455 718
4 4427 124 1751 125
4 5415 283 284 292
4 3429 3428 5468 3956
4 4068 4411 1759 1758
4 5876 6317 2112 2113
4 6307 5255 6293 5899
4 5885 5863 1075 1076
4 2371 2340 2370 5910
4 4703 6202 5089 4202
4 5885 1067 4356 1076
4 5859 5885 1066 1067
4 5850 5859 5885 1066
4 5162 2818 5161 4670
4 5002 5003 5570 5171
4 6293 5878 5862 6317
4 5832 5851 5838 1040
4 5617 4336 1893 1902
4 4742 1883 4147 1884
4 4062 2412 4491 4740
4 4679 6118 4715 5176
4 5616 5624 1911 1912
4 5630 1901 6128 1910
4 5581 1892 4336 1901
4 5617 5616 1902 1903
4 5200 5381 4336 4742
4 3604 839 5578 838
4 4280 4125 4780 4062
4 4869 1645 6249 1644
4 4872 2173 2164 2165
4 5934 4870 5110 4039
4 3386 6011 4358 5355
4 5988 1637 5460 5190
4 5109 1626 4868 223
4 4869 1635 1636 1644
4 6023 6249 1653 1644
4 4123 4039 1619 1618
4 2445 4869 5191 6249
4 5080 4187 594 603
4 4520 5636 2524 4514
4 3205 5052 3204 5032
4 3950 606 4986 605
4 5063 589 5081 590
4 5086 596 3950 605
4 2892 2894 1035 1044
4 3497 2524 5582 5493
4 5148 5064 1033 1042
4 2894 2947 1035 1034
4 3958 5148 5844 5064
4 5579 849 3105 848
4 5602 5579 3105 848
4 2908 5578 2906 3604
4 4501 5194 5218 5079
4 3143 2213 2215 3864
4 5235 5192 1071 1080
4 5888 5893 1080 1089
4 4727 5936 5842 5889
4 5030 4944 4171 4178
4 5037 989 5794 998
4 4942 4943 970 979
4 4977 4177 525 4932
4 4345 4991 972 971
4 5779 5014 990 5794
4 3883 3871 5780 4922
4 5014 5794 989 990
4 5037 988 4996 989
4 4345 4942 971 980
4 3713 4515 4514 4481
4 5767 5186 5300 5217
4 5993 1625 5982 1624
4 5320 5984 1623 1624
4 5993 5984 1624 5982
4 2973 1623 5984 1632
4 5233 5923 6226 6240
4 4275 5226 1643 6000
4 5295 5585 5155 5288
4 5253 665 5278 664
4 5768 5982 5275 6232
4 3149 1499 5083 1498
4 4935 4916 1488 1479
4 3802 4245 4935 4916
4 3631 3634 4339 3632
4 5008 6191 1496 4245
4 4934 6196 1477 1486
4 4227 4956 529 528
4 6178 4968 1497 1498
4 4264 3408 4593 5703
4 4652 4580 844 5553
4 4732 5604 853 862
4 3604 830 3605 4101
4 5652 866 3670 875
4 4700 3960 858 3105
4 5606 6110 5435 4332
4 3867 4341 5704 3865
4 4656 2166 178 2157
4 4656 2157 178 177
4 5935 177 4656 1121
4 3066 3717 2168 2169
4 3729 2175 5423 4654
4 3346 4866 3097 3265
4 3814 4988 4047 4165
4 4815 37 897 38
4 4815 906 38 897
4 4246 4248 486 495
4 4158 462 4760 463
4 5046 4923 4907 5702
4 4238 4877 917 4901
4 5647 5641 909 918
4 4423 6013 5026 5170
4 5203 5409 1091 1082
4 4687 5153 623 4985
4 5904 5893 1089 1088
4 6013 5236 5026 5170
4 5246 1078 5349 5858
4 5041 5026 641 5170
4 5026 641 5170 642
4 5236 5026 5170 642
4 4467 1815 139 1806
4 6345 5526 3027 5472
4 4467 1806 139 138
4 5475 1806 4467 138
4 5542 4099 1798 1797
4 5542 5562 1807 5541
4 5463 4065 1809 1808
4 5035 5050 5054 1005
4 5036 5037 998 997
4 5011 998 5794 999
4 5069 5049 5054 1006
4 3242 4959 4947 4941
4 3875 4939 4997 3520
4 5027 5809 999 1000
4 3564 4922 3576 4446
4 5015 5037 5036 997
4 5805 5799 1010 1011
4 2752 2753 3200 5358
4 4672 4648 386 385
4 5877 4675 4694 5583
4 4090 394 4096 393
4 4042 4672 386 4043
4 1777 4212 1785 6265
4 6027 4299 4300 1249
4 3026 5051 4078 3055
4 4299 4454 1250 1241
4 3516 4299 4454 5480
4 4630 4650 368 369
4 2720 3821 3058 2715
4 5877 4675 5583 4611
4 4608 4653 369 370
4 4626 4630 4649 368
4 4551 4604 350 351
4 4609 6093 4226 352
4 4134 1280 4552 1289
4 3078 3289 4718 3828
4 3833 3083 3738 4745
4 4584 3829 4616 405
4 3833 4746 3083 4745
4 4749 5574 5313 4744
4 5574 1399 1390 1391
4 2312 2309 4705 3829
4 6235 1607 1616 1615
4 3234 3887 3542 5767
4 6235 6220 1607 1606
4 5233 1604 6226 1613
4 2973 5320 5984 1623
4 2772 3620 2973 5969
4 5233 5456 6226 3619
4 2664 5196 2880 2881
4 4652 4580 845 844
4 4278 3323 846 845
4 4652 845 4278 854
4 4415 4753 4724 4730
4 2261 2759 3714 3495
4 4752 4732 5594 4652
4 2513 2527 2424 2519
4 3045 2520 3572 2527
4 3742 5028 5031 4365
4 3455 3784 4209 3456
4 5972 4014 6034 6040
4 3513 1739 4301 1738
4 6264 3507 6055 3440
4 5419 1723 5421 5422
4 3505 1739 3513 1730
4 6268 6264 1738 1737
4 3392 3507 5673 5029
4 3703 3937 4929 5673
4 3516 4420 4454 4299
4 3203 2966 2911 2948
4 6054 4439 4832 1244
4 5972 3936 4014 4642
4 5330 5370 6331 3597
4 5902 5426 5447 3787
4 5417 4426 1737 1736
4 6069 3507 6271 1719
4 3516 1699 3517 1708
4 5481 1708 3517 1709
4 5427 4664 3849 1157
4 5954 3849 4664 1157
4 5954 2193 3849 181
4 3849 191 2193 1166
4 3849 2193 5 181
4 3849 5 2193 191
4 4861 5588 5301 4175
4 477 4255 5588 478
4 3462 4117 6164 4858
4 4902 490 4884 499
4 4093 4911 4116 4117
4 3495 5449 5829 5493
4 4889 4863 485 484
4 4246 4247 4698 477
4 4936 4876 936 935
4 4246 486 4247 477
4 1143 5948 5950 5404
4 5957 714 706 715
4 2880 2879 3654 5296
4 2787 5538 4154 4703
4 2845 2930 2846 2929
4 5326 5224 5225 5932
4 5065 1189 3745 1180
4 4755 3745 5065 1189
4 5065 3745 3744 1180
4 5996 1205 5314 1214
4 3411 5065 3409 3410
4 4184 5887 5271 1225
4 2689 3449 3409 5068
4 3868 4633 4781 5314
4 3869 3870 5986 5314
4 6319 6216 5156 2079
4 5813 5088 2087 6216
4 6316 5088 5089 2096
4 5865 5838 5812 5867
4 4523 24 4545 347
4 4545 780 25 24
4 4523 4545 4564 347
4 4545 25 4596 356
4 4490 5494 781 780
4 4590 347 4545 356
4 6345 5472 3027 5554
4 4682 4220 4681 827
4 5523 3452 783 5477
4 4556 4210 333 342
4 4524 3905 344 4495
4 4775 2865 5412 5530
4 2586 3184 3185 3177
4 5532 5477 792 791
4 3954 3955 3956 3428
4 4719 425 4180 434
4 4542 416 4181 425
4 5618 5648 4792 4793
4 3770 4279 4652 4278
4 4264 4788 441 450
4 4765 426 4753 427
4 4288 4792 871 872
4 4542 407 4724 416
4 5017 563 5050 572
4 2619 3498 3777 4059
4 4155 5227 2787 5538
4 5027 5810 5809 1000
4 5062 51 1023 52
4 4930 3930 532 4959
4 5009 4994 4993 552
4 2389 2936 2934 2933
4 5779 5076 5014 5794
4 3674 3137 3535 3836
4 3478 2292 3523 3522
4 5922 5921 5872 5920
4 4156 5469 4155 5890
4 5025 659 5210 658
4 5975 4846 5908 5931
4 3869 4633 5314 5996
4 5309 5197 5248 5265
4 5333 5982 1634 1633
4 5254 666 5155 665
4 5728 4734 3273 3669
4 5726 5699 1962 5731
4 5708 4800 1942 1951
4 5699 5731 1961 1962
4 5682 6149 5695 6213
4 4734 4738 5728 4736
4 4739 920 5668 929
4 6160 5671 4829 1439
4 4829 5671 1430 1439
4 2614 4898 2613 6151
4 5676 6097 4989 1964
4 6292 1946 5916 1955
4 4126 4993 4994 3521
4 2522 3497 2524 5582
4 4871 2174 4872 2165
4 4283 5942 2153 6321
4 4869 5988 5191 1645
4 5988 1628 5460 1637
4 4798 4123 4039 5132
4 4850 2164 6237 2155
4 6245 6321 6325 2145
4 4851 2147 2156 2155
4 6236 6238 2164 6254
4 5677 1933 5694 1932
4 6330 5694 5681 5675
4 5677 3830 1923 1932
4 5670 6109 1925 1916
4 4635 3101 3106 4706
4 5656 3962 877 868
4 3558 3559 4329 4328
4 5693 1925 6214 1934
4 3894 3971 307 298
4 4013 3987 3494 5504
4 3507 1729 6264 1728
4 6041 6034 1263 1262
4 4134 4599 4552 1280
4 3702 6271 5481 6069
4 3511 6264 3507 3513
4 6035 6271 6055 1718
4 4118 4439 6262 1252
4 4206 3944 5464 5122
4 4472 3970 3436 3971
4 3440 6264 4426 6055
4 6268 6264 6266 1738
4 4369 1743 216 215
4 4439 3518 4373 1716
4 4426 6055 1728 1727
4 6264 3513 1738 1729
4 6124 1856 4089 1865
4 4146 1865 4089 1866
4 5323 4561 2996 5772
4 4285 1863 6099 1864
4 5678 5679 1977 157
4 6070 6104 5463 5496
4 4267 5557 1849 1858
4 5364 5836 5073 1061
4 5077 5364 2913 1053
4 5871 5836 1071 5192
4 5836 5192 1070 1071
4 5836 1070 5192 5073
4 5047 4873 4910 4864
4 5726 3771 5699 5731
4 4867 3270 3999 4811
4 5641 4901 917 918
4 5647 5641 918 4901
4 3121 2850 3281 4738
4 5709 6288 6230 5978
4 3794 4866 5647 5641
4 4739 929 5668 4598
4 3645 4338 5708 5699
4 3422 3755 5016 3754
4 5031 4364 1703 1702
4 4097 1790 6073 1799
4 5437 4314 5422 1713
4 5031 4365 1702 1711
4 5118 4254 5419 1715
4 5425 1694 5464 1695
4 5445 5454 3609 4098
4 3944 5425 3943 4364
4 4841 4541 3750 5340
4 6063 4363 4365 1701
4 4430 5317 5319 6082
4 3227 6063 6174 4363
4 6071 4541 1803 1804
4 3518 1707 1716 3488
4 5505 1269 5504 1260
4 5817 1269 4434 1268
4 3227 6063 3985 6174
4 4315 4533 6058 1248
4 3324 5340 5341 2502
4 4434 1268 5400 5817
4 2840 4988 3814 3815
4 5013 3839 558 5044
4 5747 3317 5514 3639
4 4993 551 3521 542
4 4993 4994 551 552
4 3838 5048 5104 5103
4 5019 5102 4163 4168
4 5878 2113 5879 2114
4 5860 2121 173 2112
4 5678 5743 941 950
4 3313 4385 4726 4727
4 5863 4389 5646 6293
4 5876 5869 6201 2103
4 5860 172 2112 173
4 3532 3530 3660 5080
4 4986 3950 3535 5144
4 5425 1703 5461 4364
4 5339 4433 5341 6336
4 4399 5492 1782 1781
4 4447 5450 732 731
4 5425 1704 5437 1703
4 3399 5461 3398 3400
4 3712 5327 4323 5310
4 5031 4364 1702 4365
4 5437 3400 1712 1713
4 5525 5520 6145 5521
4 2731 2739 4969 4828
4 6145 5520 1403 5521
4 6150 5654 1929 1938
4 6283 6080 6289 5624
4 3580 4733 4785 445
4 4733 436 4645 445
4 2484 2485 2422 2490
4 3407 4763 4778 4733
4 4719 4751 4180 3405
4 5194 5858 5272 5198
4 4507 5192 5246 5073
4 5154 5147 617 616
4 5193 5194 5243 5272
4 5858 5198 1077 5272
4 5349 5858 1078 5272
4 6276 2071 5830 2062
4 5118 4254 1715 1706
4 5123 5437 5422 3400
4 5444 5474 5466 743
4 4098 4099 1788 1789
4 5352 4073 1208 1217
4 2896 6006 2886 3396
4 5441 3620 5969 1640
4 5887 4073 5271 1216
4 3331 3418 3224 1210
4 1210 3418 1209 3396
4 6007 5270 1218 1227
4 4072 5352 4073 1208
4 4072 3416 1199 3720
4 3450 3153 2671 3383
4 5132 1619 4039 1610
4 5109 4870 1626 1617
4 4123 1619 5133 1628
4 6018 4869 4870 4123
4 2234 2233 2231 2241
4 3613 1581 5642 1572
4 3916 3734 5847 5914
4 5447 5310 5446 739
4 3512 3513 3505 4301
4 5512 4457 3971 4395
4 3505 3513 1739 4301
4 1739 1740 3505 3825
4 4080 4479 5468 4475
4 5415 293 4032 292
4 6294 4575 4615 4547
4 4348 5097 620 621
4 3306 4348 621 5097
4 4689 4348 3306 5097
4 4908 602 4167 4187
4 2663 5195 4396 5904
4 3198 5005 3958 5092
4 3621 5827 5080 3530
4 5136 4348 5159 620
4 2855 4150 5469 5161
4 5788 1327 6095 1326
4 3966 4694 3736 4192
4 4574 4625 1328 1327
4 5788 6095 1327 4625
4 5781 4676 5788 6095
4 4723 4574 4722 5583
4 5788 1326 4676 3821
4 4578 4676 1325 3821
4 3949 449 4788 4783
4 5395 1399 5977 1398
4 4748 4759 4803 6141
4 4749 1400 1409 1408
4 4772 1418 6143 6141
4 2787 4154 4153 4703
4 6326 4776 6142 6143
4 4805 1414 4881 1423
4 4776 4802 456 457
4 6123 5977 4803 1417
4 4038 4594 5976 6152
4 4328 4239 1416 1415
4 3322 3405 4643 3289
4 4377 6159 1434 4858
4 6152 4690 4038 439
4 4594 6152 4038 4595
4 5976 5977 4749 4803
4 5707 4163 5102 5104
4 2294 3528 3663 3838
4 3850 6184 5082 5855
4 4930 4963 541 532
4 4959 4941 522 3118
4 2636 3492 5332 3807
4 2810 3162 3316 2367
4 4930 2291 3804 4987
4 3522 549 3839 2291
4 3521 4163 559 551
4 4221 825 4222 826
4 4895 4580 4220 3323
4 4651 4278 4580 3323
4 4221 826 4220 835
4 4621 399 5568 408
4 4678 390 4660 399
4 4647 4148 400 401
4 4647 4582 401 392
4 5145 4678 4638 4660
4 4681 4684 818 817
4 5020 5105 1639 1648
4 2897 5352 5271 4073
4 5131 5130 1620 5132
4 3388 5270 5995 5271
4 4781 1196 5338 1197
4 5441 3620 1640 1639
4 4154 5228 6316 6199
4 5020 5355 1648 1649
4 6011 5356 1666 1657
4 3875 3876 3871 4919
4 4154 5538 6200 4703
4 4903 4904 4344 4991
4 3929 3930 3707 4964
4 6155 5794 990 999
4 4899 4902 5725 498
4 5069 1006 1005 997
4 3455 4562 765 774
4 4513 4531 3597 4473
4 3025 3029 3031 3910
4 3699 5522 5584 6001
4 4673 813 4030 812
4 5261 4725 5251 5509
4 6060 1827 4631 1828
4 3160 5526 796 795
4 4214 6344 4216 4215
4 4573 1828 4632 1829
4 5535 5532 792 801
4 5964 4672 4096 4090
4 3371 3401 3738 5601
4 4672 4090 394 4096
4 6112 5657 1362 5598
4 4618 4616 395 4043
4 4702 5601 1370 1361
4 2744 3296 3866 3606
4 4618 4616 404 395
4 4747 1391 4692 420
4 5543 141 5563 797
4 5527 806 5565 805
4 4631 3826 1819 1818
4 5540 5543 5563 797
4 5528 1842 5563 1833
4 5563 1833 142 141
4 5555 1825 5544 1834
4 5528 1834 6274 1843
4 6106 1876 2545 1877
4 5379 5378 2545 1876
4 2546 6106 2545 1877
4 2547 2544 1338 2546
4 5379 1884 5381 4742
4 6037 3351 1313 6090
4 6127 5569 4281 1881
4 6127 5569 1881 1890
4 2496 3700 2497 2500
4 5572 4140 5628 5663
4 3504 3330 5569 1889
4 5597 832 4559 833
4 3580 4760 453 454
4 4840 4816 897 898
4 4866 3271 5647 5641
4 4797 4784 4815 4816
4 4797 897 4815 37
4 4661 4665 4664 5953
4 5408 4503 1183 1174
4 3716 4655 5886 3728
4 5963 5066 1181 4045
4 3724 5973 5068 4045
4 4290 4045 1191 4359
4 4290 1200 3418 3720
4 3383 6250 1219 1220
4 4045 4359 1190 1191
4 5066 4045 1190 1181
4 4674 823 4228 822
4 4030 3605 4674 4614
4 4286 5569 1880 1881
4 4125 4280 4780 4277
4 3605 4030 822 821
4 3239 4154 5228 5088
4 6127 6117 3504 1890
4 3603 3605 821 4030
4 3603 3604 829 830
4 3373 5375 4207 5537
4 4491 3502 4779 5631
4 4372 11 4374 279
4 4374 11 1755 12
4 4381 4374 12 280
4 4424 6053 287 288
4 4405 1745 5417 1746
4 4424 3976 288 289
4 3972 6268 6266 6267
4 6343 4236 810 5517
4 5535 4236 5532 801
4 2564 2991 2994 2992
4 5537 6343 3700 3920
4 4236 5517 809 810
4 6033 6170 4619 5536
4 3030 6340 6070 5261
4 4590 4545 4596 356
4 4688 4236 5517 809
4 4159 5649 4844 473
4 3377 4965 3999 3376
4 4879 4899 488 489
4 4902 4880 4884 490
4 4845 4844 915 4843
4 4877 917 4901 926
4 5683 4884 4880 4885
4 4877 926 4901 4876
4 4875 4877 4901 4876
4 5641 4875 4238 4901
4 4865 4885 482 491
4 4845 906 4816 907
4 5558 4219 4681 4680
4 5808 6033 4535 5536
4 4494 2421 3289 4181
4 3536 4636 4224 4586
4 4743 4895 4680 4682
4 4678 4683 390 389
4 4612 4559 4674 5586
4 4081 371 4658 380
4 4684 5567 808 817
4 3907 6093 4224 4226
4 4274 5316 4104 4106
4 1144 5952 5282 4021
4 3191 4143 3193 1117
4 5816 1169 5811 1170
4 5282 3695 5952 1136
4 3857 3066 5981 2160
4 3072 3415 3195 3722
4 5952 3695 1137 1136
4 3695 4204 1129 1128
4 3698 3697 1138 1147
4 1526 1534 1535 4770
4 4120 4770 555 3850
4 2858 565 4190 574
4 6195 5545 1524 1533
4 2815 2858 4771 4261
4 3531 3660 584 585
4 2813 2814 5060 5091
4 594 3532 5080 595
4 4190 565 4261 566
4 2239 5060 3690 1550
4 5060 5091 2814 1542
4 4294 5185 5556 4391
4 5609 6037 6090 3351
4 5250 4725 5294 4333
4 6074 4632 1819 1820
4 4385 3915 3914 5983
4 5210 5322 5321 667
4 5322 5211 5296 668
4 2340 2343 2342 5886
4 5912 1107 1098 1099
4 5211 659 5239 660
4 6013 5236 5170 5218
4 4453 1732 3785 3787
4 3954 4037 4488 3957
4 3390 1730 3513 1729
4 5421 3785 1732 1723
4 4794 452 4782 453
4 3124 4158 4833 4794
4 4797 464 36 37
4 4157 4782 4794 452
4 4238 4845 5701 907
4 5632 4645 5621 4785
4 5583 6095 1336 1335
4 5669 4626 4534 4604
4 4629 4090 384 385
4 4723 4574 5583 6095
4 4525 4693 4722 1346
4 4626 368 4649 367
4 4721 4648 4629 4649
4 6103 4702 3608 1360
4 4609 5290 4551 5291
4 5994 1675 6017 204
4 6017 204 1676 205
4 5249 1233 6017 205
4 5989 6008 5994 6019
4 6251 3388 3387 6019
4 5105 2889 5190 4358
4 4598 5152 938 939
4 3282 931 5719 930
4 5718 5741 1978 1977
4 5756 3923 3922 3919
4 4905 4904 964 4906
4 6282 5174 5175 5176
4 6118 4715 5176 1376
4 2319 6120 4667 5639
4 5175 6209 5550 1374
4 5174 5175 1384 1383
4 5175 1375 6118 5176
4 4206 1764 5465 1773
4 5491 5492 1773 1782
4 3426 3753 3755 3754
4 5325 1697 1688 131
4 2214 5227 3239 4154
4 5506 1772 5492 1781
4 6039 4098 1780 1789
4 5445 6039 4098 1780
4 5714 4893 496 4260
4 5714 4937 5796 4260
4 4880 4884 490 4885
4 5043 5712 4698 4863
4 6123 1417 6143 1426
4 3946 3947 4783 4774
4 5850 5859 1057 5853
4 5868 6199 6202 6316
4 5833 4237 5432 1038
4 5146 5163 4182 5127
4 5470 3864 5156 3859
4 4519 1021 5638 1020
4 5429 5799 1020 1019
4 5538 5644 5850 5646
4 5644 1074 5645 1073
4 4389 5850 5859 5885
4 5644 1065 5646 1074
4 4393 5878 5879 5207
4 4202 5879 2105 2114
4 6024 5850 5841 5853
4 6289 5624 1921 1920
4 2920 5639 5521 6133
4 4496 4498 5624 6283
4 5525 6145 6133 5521
4 4462 4174 3404 4794
4 6150 6138 1938 1939
4 5768 5183 5982 5993
4 5864 5300 5230 4284
4 3886 3236 5923 3237
4 5183 5230 5186 646
4 5140 6226 1605 1614
4 5140 5320 1614 1615
4 4273 636 5181 637
4 4724 4537 407 4542
4 5607 4140 841 5605
4 4139 4140 851 850
4 6285 4232 1906 1905
4 5628 3329 1888 3330
4 4287 5628 3329 5572
4 4287 3504 3330 5569
4 4706 3105 849 858
4 5930 1141 5950 1150
4 5387 4075 4077 716
4 3760 4726 3914 5983
4 5279 4256 1195 1186
4 5930 1150 5950 5949
4 1170 4191 1169 5811
4 5816 1170 5277 1171
4 4191 5943 5949 1160
4 5350 5371 4186 696
4 6308 5811 5943 5950
4 5277 5966 1162 1161
4 5816 1171 5277 3744
4 4191 5966 5277 1161
4 5475 1797 138 137
4 5475 138 4467 770
4 5476 137 5475 761
4 5476 5475 4452 761
4 4216 5475 4467 770
4 5439 4332 5606 1852
4 6110 5439 4332 5606
4 5439 1842 5528 1843
4 5586 815 5564 824
4 6131 6130 1869 1870
4 6111 5576 1851 5564
4 5576 1851 143 1842
4 5171 3614 1583 1582
4 5004 3614 6076 6225
4 4965 5674 892 5658
4 6114 1938 6138 1947
4 5916 6114 6138 1947
4 432 441 4644 4720
4 5653 5880 2923 3570
4 3933 6135 5525 5520
4 3254 2919 2735 3255
4 4806 4498 5624 4496
4 4957 6115 5377 3683
4 2921 6283 6133 4758
4 2922 6289 5654 5655
4 1928 5653 1919 1927
4 5653 1937 5654 6114
4 6171 1973 5479 1982
4 6163 5334 3586 5807
4 6156 1982 5735 1991
4 3591 4820 6156 4165
4 6097 1956 6296 1965
4 6160 1439 4829 4883
4 5524 1447 6161 1456
4 5688 5717 5760 1994
4 5711 5773 1992 1993
4 2741 6297 6296 6146
4 2784 3130 3667 5070
4 2759 5428 3714 4669
4 5841 5643 1055 1056
4 4151 5874 5431 6313
4 2946 1026 2947 5666
4 5432 4237 1037 1038
4 4516 2524 3713 4514
4 5431 5432 4237 1037
4 3675 5890 4156 4505
4 4361 4951 3633 3117
4 4951 3117 4956 520
4 97 4882 2281 1481
4 3886 3343 3583 5864
4 4227 5082 5083 3150
4 3776 3809 4245 4935
4 5400 4434 4731 6052
4 5498 1277 6052 4434
4 6062 1276 1284 1275
4 6075 4541 1812 5340
4 4541 5340 1803 1812
4 4590 355 4544 346
4 4436 6279 4544 4437
4 4523 4545 4490 4564
4 6279 5494 4490 4564
4 4486 4485 336 4437
4 4435 4485 345 344
4 4486 4067 336 327
4 5415 4129 4407 5414
4 4476 4149 318 327
4 5450 5448 4447 5124
4 4397 762 4615 4320
4 5558 4688 4684 4668
4 4067 4476 328 327
4 4397 4319 320 329
4 5706 5691 914 905
4 5708 6149 1952 1943
4 4338 1951 5708 1952
4 5694 5695 5708 1942
4 5694 4800 1941 1942
4 5694 4800 4334 1941
4 5693 5695 5677 1933
4 2485 3048 5305 2527
4 4512 6331 3437 5926
4 3053 3054 784 3452
4 3455 4576 4562 774
4 4576 773 4562 774
4 2718 3895 4777 3326
4 3904 4409 2578 4677
4 4576 782 4588 773
4 3957 3955 4448 3956
4 4122 5010 1008 1017
4 6155 5011 5794 999
4 4122 5010 1017 5666
4 3576 3575 3883 4922
4 4126 3521 4994 4163
4 2636 3493 5332 3492
4 5809 5011 999 1008
4 3694 4888 2985 6076
4 4767 5099 5742 6333
4 3210 3477 4126 5680
4 4026 450 3402 451
4 5689 5880 5730 1936
4 4179 4899 497 488
4 5587 4821 3094 4175
4 965 5690 964 3872
4 3359 3360 965 966
4 5151 5152 948 947
4 5698 5697 948 949
4 3359 5770 3360 966
4 3872 3360 974 965
4 4762 4936 945 3639
4 5769 5776 967 958
4 5779 982 4919 991
4 3873 4259 3842 5804
4 3872 3360 4259 974
4 3842 3883 5780 4446
4 5789 2022 5797 2031
4 4259 3360 975 974
4 6162 5770 976 975
4 5769 5770 966 967
4 5334 3587 3586 6188
4 5100 2028 5614 2029
4 5501 5524 6160 6161
4 3825 3505 1739 4301
4 1740 3505 3825 5467
4 4018 5447 737 728
4 3825 5107 3505 5115
4 4453 3787 1741 1732
4 5543 140 1824 141
4 5543 5563 141 1833
4 5528 5543 1833 5563
4 4135 1824 5543 140
4 5542 1806 5562 5475
4 4135 1824 5555 5543
4 5484 5472 777 778
4 4244 3834 6295 4920
4 6196 3807 4912 5346
4 4047 1990 6156 1991
4 6176 6188 2010 2001
4 5778 6176 6188 2010
4 5662 5807 5761 1473
4 5612 5096 1500 1501
4 5971 2987 5898 5923
4 2000 1999 2008 4047
4 3981 3587 3459 3493
4 501 2280 2281 4891
4 5971 5923 5898 6228
4 4366 4916 4933 1480
4 4918 4933 1470 1471
4 4355 1490 1481 4882
4 4361 4366 4916 4933
4 5971 2989 5187 5897
4 4569 4424 3976 288
4 5515 4411 4402 3824
4 4382 14 282 281
4 3824 4301 3825 1748
4 5108 5512 5115 5515
4 4407 4411 6260 1759
4 5415 292 4402 283
4 4424 4429 4374 6267
4 4429 4380 1756 6267
4 4382 4068 3824 4402
4 5088 2087 6216 2088
4 5923 5898 6228 6320
4 5089 5234 4202 2106
4 6216 3239 6319 3864
4 2480 2956 5881 4205
4 4202 2114 5207 5879
4 4213 2108 3128 2117
4 5232 5566 5642 5570
4 3129 2108 2099 3127
4 3129 2099 2108 2107
4 5160 3128 4205 2117
4 3128 4205 2117 2118
4 6218 5212 2091 6224
4 4933 4916 1479 1480
4 3801 4935 4933 4916
4 3632 503 3634 504
4 4951 511 3117 520
4 4366 4933 1471 1480
4 4798 4123 5132 5133
4 5109 5110 4870 1617
4 5980 5892 6247 5946
4 6228 6320 5252 1603
4 6012 5904 5531 4396
4 5132 1610 4039 6323
4 2207 3602 3515 2217
4 5881 4205 2127 2126
4 1206 1207 4756 4071
4 6064 5971 5231 5923
4 1197 5819 1187 5338
4 1197 5819 4755 1188
4 4781 1206 5314 1205
4 3486 4781 4183 5338
4 2897 2873 2804 2876
4 2875 3387 4185 3870
4 4297 6238 6252 2162
4 5391 5296 678 677
4 4161 5306 687 688
4 5816 3744 4022 3743
4 5372 5299 5957 714
4 5342 4203 4127 694
4 4127 4203 685 694
4 4056 2179 2180 3332
4 3858 2169 3855 2178
4 2886 3416 3396 6006
4 3882 5191 5988 5190
4 5988 5191 1646 5190
4 6018 4869 5988 5191
4 4297 5795 4056 6252
4 5986 4589 3870 3869
4 3411 5065 3745 3744
4 4276 3695 1128 4204
4 5282 1127 3695 1136
4 3194 3415 3696 3722
4 4661 3806 3705 4662
4 4756 4072 1207 1198
4 5256 1074 5644 5646
4 6199 6024 6021 5853
4 5860 5885 1076 5863
4 6307 4529 5407 5255
4 5862 6317 2122 2121
4 5860 2112 6317 2121
4 4902 5725 499 4162
4 6290 2133 6247 5206
4 5328 5329 1107 1106
4 3193 4924 5749 5847
4 3365 5929 2443 3153
4 5894 5308 1106 1105
4 2880 5269 5296 5211
4 3191 5283 1125 1126
4 3191 3192 4581 5283
4 5941 1125 5283 1134
4 3722 5910 4204 4276
4 2341 5915 1112 1103
4 5888 5912 5983 3760
4 6328 4655 3727 4657
4 5914 1091 5409 1092
4 5255 1093 5906 1092
4 5845 5914 1100 1091
4 2949 5818 5666 2947
4 5084 587 5006 596
4 4166 578 3196 587
4 5032 562 5017 571
4 4113 5069 996 5015
4 5063 5127 598 599
4 5005 5092 597 598
4 5433 5432 1037 1028
4 3532 5084 586 5828
4 3565 5665 5038 5010
4 6275 6195 2814 5091
4 2815 5855 3663 4261
4 3665 3839 5007 2291
4 6191 4968 1506 1497
4 5001 539 4975 4987
4 4199 6203 5746 1520
4 5001 2291 5007 548
4 4344 4903 3876 4904
4 4967 1506 4968 1507
4 5803 1505 6192 1514
4 6181 6233 6231 6321
4 6061 6237 5942 6245
4 6242 2153 5942 2162
4 5128 6323 5132 4039
4 6321 2144 6231 2145
4 3508 4932 4307 4308
4 2474 2758 2570 2757
4 3718 4947 4930 3804
4 3846 4610 4019 4286
4 6072 5527 5540 5528
4 5849 1578 5114 1587
4 5205 1587 5114 1588
4 5139 5849 1577 1578
4 3304 4908 4187 603
4 2337 2606 2600 2712
4 3930 4941 4931 523
4 5847 5749 1110 5910
4 3854 3858 3855 3900
4 3194 4276 1127 1118
4 2370 5749 5847 5910
4 2289 2664 2290 4425
4 3069 5913 5945 6239
4 4168 4163 560 569
4 4994 4163 551 560
4 3154 5428 5799 4481
4 4993 4964 543 542
4 4963 4993 542 4964
4 5488 5009 4994 4993
4 5182 1607 83 1616
4 4273 5182 636 645
4 5140 1606 6235 1615
4 5182 82 83 636
4 4094 4890 4248 3634
4 4339 495 3634 4248
4 1469 1468 4115 4110
4 1478 4115 1477 4934
4 4114 4935 1478 1479
4 3631 5394 3585 4248
4 4109 3807 5346 4912
4 4110 1451 4117 1460
4 2614 4801 4874 6151
4 4857 2280 492 4856
4 5009 4978 4982 544
4 5792 978 4943 979
4 5489 5794 4996 5014
4 5009 543 4978 544
4 4345 4343 4344 4991
4 5486 5015 4982 5792
4 5704 4735 3865 903
4 5704 903 4341 904
4 5689 5729 3624 6213
4 3645 5708 6149 5699
4 3261 5672 5667 6148
4 3580 4733 444 4763
4 5632 3123 4733 3580
4 3321 3381 3406 2423
4 4708 35 4768 446
4 4047 6156 5884 1991
4 5457 1984 5711 1983
4 5633 1456 1465 1464
4 5501 3653 6160 5671
4 2344 2351 2346 2353
4 5817 6065 1268 5401
4 5503 5505 1269 5504
4 4532 1268 5401 1267
4 3702 4012 5480 5481
4 3508 3930 4932 3707
4 6035 1727 4426 1726
4 4012 5972 4373 6035
4 4532 4533 4300 1258
4 3817 5801 3820 1307
4 3820 5801 1308 1307
4 3596 4555 4526 4531
4 5527 5563 806 797
4 3160 5527 805 796
4 3055 5472 5526 786
4 5472 5540 5526 787
4 5540 788 5543 797
4 5555 6274 1834 5544
4 5555 5543 1824 1833
4 4001 4464 3671 6153
4 5752 5751 5155 5254
4 3135 5153 4687 4985
4 5231 5920 5971 6064
4 4048 4049 3619 6134
4 5172 5173 5300 3113
4 2550 2898 3882 2889
4 5233 5456 1612 1613
4 5143 5252 5221 6225
4 5287 3820 4561 4353
4 4696 5530 5529 5412
4 4436 6179 6279 4137
4 4608 4630 5291 4604
4 3820 3821 1317 4353
4 3349 5548 3351 1314
4 3820 3821 1316 1317
4 5843 5073 5846 1060
4 5072 1059 5846 1060
4 5149 5146 617 5147
4 5149 2890 5072 5154
4 5072 2890 1068 5858
4 5149 5146 5846 1050
4 5146 5163 1041 4182
4 5146 5147 608 617
4 5339 6336 4716 6335
4 4119 4305 1725 1734
4 5365 4303 4836 5366
4 5481 4012 3518 6035
4 3595 3597 5330 4531
4 1271 4509 1280 4599
4 4552 1281 5389 4553
4 5498 4434 1278 1277
4 6221 1588 5113 1589
4 6221 5113 5157 1589
4 5204 637 5181 628
4 5113 1588 5205 5114
4 5157 4999 5085 609
4 4152 4350 593 592
4 5113 1579 5112 1580
4 6235 1615 5993 5320
4 6291 1950 4800 1951
4 4338 5733 1961 5731
4 5720 5715 5722 923
4 5740 5733 1969 1960
4 5679 5741 5718 1977
4 5756 1978 6300 1979
4 3773 4338 5699 5731
4 5706 5715 913 914
4 5638 1030 5821 1029
4 5432 5429 1029 1028
4 5471 5813 5814 6216
4 5757 5433 4713 5874
4 3676 3675 4156 4505
4 5090 2947 1026 1035
4 4703 5879 6202 4202
4 3732 3730 4507 4501
4 4342 4942 5030 4343
4 4978 4964 534 543
4 4961 952 5747 953
4 3639 4961 5747 953
4 4979 970 4942 4944
4 3958 3203 2912 2948
4 5052 3204 4966 5081
4 3198 5092 5006 5005
4 5052 5490 5049 5054
4 3958 5092 5005 5127
4 3950 5092 606 597
4 6130 5596 1869 1878
4 5597 4559 6130 5596
4 5628 1878 5610 5596
4 6278 5606 1862 1861
4 4890 3634 494 4248
4 4890 3634 503 494
4 4362 4890 3633 502
4 3004 3005 5043 3006
4 3632 3633 503 512
4 3633 4890 503 502
4 2281 4366 4362 4891
4 4339 3632 3634 504
4 4856 4891 492 493
4 6233 5974 5208 6244
4 6318 4283 2143 6244
4 6318 2142 5980 2143
4 3930 4931 4932 524
4 4527 3071 3069 4530
4 5002 3613 5570 5232
4 5772 5700 1299 5801
4 5748 1301 5199 1310
4 4548 1292 1301 1300
4 5199 4504 330 3678
4 4561 1309 5748 4353
4 5389 4553 1281 1282
4 3678 5748 1301 5199
4 3383 3153 2671 2190
4 3446 4290 3720 4359
4 3729 4654 5423 5947
4 3052 2198 195 2197
4 4708 870 4793 879
4 5621 879 4793 880
4 5979 5604 4288 5648
4 4707 870 4708 34
4 4645 4785 445 446
4 5903 4765 4778 4180
4 4708 879 35 870
4 4926 2734 2738 5916
4 3627 3625 5730 3624
4 3919 5750 4164 3922
4 4577 5729 6149 6213
4 5689 3624 5730 5880
4 5664 3606 885 884
4 3646 3867 4735 3865
4 4264 4788 4595 441
4 2486 3104 3670 4700
4 4639 3935 2920 5520
4 5689 1935 6213 6214
4 6110 5565 6111 5586
4 4285 4286 4144 1872
4 6111 5606 6278 1861
4 4612 6110 5586 4674
4 5606 1853 5435 1862
4 6131 1861 6278 1870
4 4144 1862 5435 1863
4 6111 1852 5606 1861
4 6111 5564 1851 1860
4 6111 1851 5439 1852
4 4559 5586 6131 5577
4 6233 4283 6244 2143
4 3691 2481 3694 3140
4 2585 6280 5214 5128
4 2370 5847 2372 5910
4 6233 5881 6231 2135
4 5234 3129 4213 2107
4 5881 6231 2135 2136
4 6280 6327 6322 4360
4 6280 5214 4360 5213
4 4860 5045 4961 5747
4 5045 5061 5046 5514
4 4307 4308 4932 4177
4 4923 507 4907 5702
4 4902 4162 499 4884
4 3640 5725 4899 4902
4 6143 4803 1418 1417
4 4772 6142 4773 4776
4 6123 4328 1425 6157
4 5713 6123 6143 1426
4 6143 4803 6141 1418
4 6141 6143 4772 4759
4 3947 458 4783 4774
4 5470 5829 5830 5848
4 2711 2705 2704 2712
4 2089 3862 3860 6319
4 2784 2953 2783 4007
4 3930 4959 523 532
4 2952 2984 4196 4198
4 5655 1919 2923 4806
4 4500 4806 4499 6128
4 3053 3054 3055 785
4 4806 5655 1919 1920
4 4679 4667 5176 4715
4 2319 6283 6120 2920
4 4179 4879 4899 488
4 3579 3962 3961 869
4 3578 3579 3961 869
4 4619 4683 380 4658
4 4081 4636 4658 371
4 4683 380 4658 381
4 4620 807 27 798
4 3538 4658 4587 4622
4 4493 2544 2547 2545
4 6088 6037 4270 1321
4 5571 1331 3687 1330
4 3688 3687 5189 3689
4 5189 3687 1331 3689
4 5262 6091 5557 6092
4 4493 2545 4268 2544
4 4325 2545 2546 2544
4 6103 1359 3608 4102
4 3001 2417 3009 3003
4 4716 6336 2740 6335
4 5317 5319 1784 1793
4 4316 6265 1786 1795
4 6071 2502 1803 5340
4 4399 5319 4400 1792
4 1784 4212 6082 5317
4 2503 2502 5340 1802
4 2502 3009 2504 3823
4 4935 4245 1488 4916
4 3776 4245 4934 4935
4 4934 4935 4245 1487
4 4114 4933 1479 1470
4 3633 4890 3634 503
4 2711 2848 3529 3531
4 3358 6162 3360 5770
4 3843 6162 5782 4169
4 5815 165 4194 1013
4 4188 5786 5774 6304
4 5789 4188 5775 5797
4 4516 4945 4193 4517
4 5784 5783 6311 5785
4 4188 2022 162 2013
4 5789 2022 163 162
4 5789 5759 2031 6306
4 4084 5770 5774 5775
4 3983 4212 5318 6174
4 4716 6075 2740 5340
4 2504 2502 1793 1794
4 4118 6262 4012 5480
4 4841 5340 6071 4541
4 6071 1794 6265 1795
4 3454 4576 3455 3452
4 5697 5151 5152 948
4 6301 1995 6173 1996
4 4084 6305 6338 4087
4 5732 5696 959 5754
4 5696 5776 958 959
4 4493 2544 3687 2547
4 2802 5552 4102 6116
4 5549 5616 6282 5202
4 6115 4102 1358 1349
4 6106 5600 1885 1886
4 4741 1883 4742 1892
4 2940 2838 2624 3092
4 5803 6191 6192 1505
4 6204 1514 5058 1523
4 5676 1955 6097 1964
4 4989 5479 1973 1974
4 5916 6114 1947 1946
4 6292 5676 1954 1955
4 4828 6136 1422 1421
4 6097 4989 1964 1965
4 4657 4656 4654 1130
4 4656 178 4654 1130
4 4654 2166 179 178
4 4654 2175 179 2166
4 5423 5947 1139 5953
4 3729 4654 4655 2166
4 4657 5947 1129 1130
4 6324 5194 5243 5218
4 5269 5296 669 678
4 3194 3193 3195 5749
4 5194 5188 5858 5198
4 5893 5192 1080 1079
4 5246 5893 1079 5192
4 5265 5248 660 5239
4 5237 5285 5071 671
4 5246 5893 5349 1079
4 6289 1929 5654 5655
4 6059 5654 6150 6114
4 6080 1913 5177 1922
4 6080 1921 6286 6289
4 6132 6140 1939 1940
4 2921 6289 6286 6150
4 6346 4902 4162 5725
4 5134 6297 5458 6246
4 2741 6297 6146 6122
4 5134 6297 1958 1967
4 5525 6059 5603 6154
4 4972 6297 5458 5478
4 2709 2857 2848 2856
4 5994 6019 6251 1675
4 5994 1234 6017 5995
4 3881 5793 6238 5795
4 6016 1665 6011 6019
4 5989 1674 5994 203
4 5994 1675 204 203
4 5994 5995 6251 6019
4 6008 5995 1226 1235
4 6016 6019 1674 1665
4 3147 5136 5085 4167
4 3341 3147 5113 5114
4 3339 5187 5849 5114
4 4687 632 5041 631
4 6221 5158 5085 5179
4 5085 5136 5179 619
4 5811 5950 4191 5943
4 5907 5331 5326 5932
4 2784 2785 2783 2953
4 5824 5943 1169 1168
4 5816 5343 1178 1179
4 5819 4258 1187 5338
4 5110 5109 4851 6327
4 6322 2129 2138 2137
4 6182 6325 6321 6231
4 5110 1609 4039 1618
4 5933 6182 6245 5934
4 5004 5003 5171 2584
4 5214 1600 5213 1601
4 5111 5110 1617 1608
4 2584 6280 6229 5213
4 5002 5171 5570 3614
4 6288 5733 6300 5741
4 5758 5750 6300 1979
4 3656 1166 5427 3849
4 5427 182 1166 183
4 5427 5970 4662 1156
4 4664 5953 1148 1147
4 3697 4663 1146 1147
4 4661 1147 3698 5953
4 5954 5423 2184 180
4 5970 183 184 1156
4 5954 2184 181 180
4 5954 5953 5423 1148
4 4142 5601 1371 1370
4 6121 5395 1399 4749
4 5575 1381 4745 1372
4 4643 5703 4644 6284
4 6125 4337 1404 5521
4 5395 1398 6121 1399
4 5302 1770 5455 1761
4 1696 5117 4253 6258
4 3757 6043 4097 6073
4 5455 734 3609 725
4 2870 3387 5355 5442
4 1649 1640 5020 5360
4 2829 2816 2856 2848
4 5316 683 4107 682
4 5289 5335 5316 683
4 2883 4927 4846 5908
4 4528 5906 2341 2372
4 2787 5538 4390 4155
4 4389 5885 5863 5646
4 5945 2159 3066 5886
4 5899 5901 1093 1094
4 5985 5862 2131 2130
4 2341 5901 6239 5915
4 5207 5927 4386 4393
4 2703 3667 2706 5070
4 5878 2114 5207 2123
4 5860 5863 5862 6317
4 5206 5297 5927 2132
4 5206 5207 2124 2123
4 5134 5135 1967 244
4 5135 244 1437 243
4 4972 6296 6297 5478
4 6246 1438 5502 1437
4 4447 740 4406 731
4 5448 5443 5124 5450
4 4925 4897 3771 5667
4 4323 748 5310 749
4 5447 4406 739 730
4 2640 4078 3026 5051
4 5107 5462 3825 5467
4 3507 6271 1719 6055
4 4832 1725 4305 214
4 4305 214 1734 215
4 4305 1244 215 1245
4 5764 1254 6054 6038
4 5418 1735 4119 1726
4 4012 4011 6035 5481
4 5365 6044 4416 6036
4 5095 2039 2030 237
4 5095 237 1500 236
4 5093 5094 2021 2030
4 5937 236 5095 1509
4 6309 2047 6198 2048
4 2575 2304 2587 2401
4 2020 2019 5614 6207
4 5918 5739 2027 2028
4 3584 4260 3585 4893
4 3460 2937 3461 3189
4 6164 1443 4858 1452
4 1452 4911 4858 4117
4 4911 4117 1452 1461
4 6159 4858 1443 1434
4 6159 6164 1443 4858
4 4337 5639 1386 1395
4 6159 1443 6164 1442
4 4270 1329 1320 1321
4 6088 4270 1320 1321
4 2544 1330 3687 1339
4 4325 4270 4268 2544
4 4268 2545 1868 4325
4 4354 6124 4145 5608
4 4145 1865 4146 1874
4 5571 5189 1322 5511
4 4694 5583 1344 1335
4 4675 4611 1353 1344
4 3536 4225 4224 4636
4 4676 6095 1335 1326
4 4871 221 1635 1644
4 4871 222 1635 221
4 4871 4872 6023 6249
4 4871 2174 2165 222
4 4872 6023 6329 2174
4 4872 4850 2165 2164
4 6005 6329 2669 2182
4 3738 5601 5657 4745
4 4705 413 2309 422
4 4720 4038 422 431
4 4717 421 4744 420
4 4705 413 3829 2309
4 5312 5574 4717 4744
4 5312 5313 4995 6121
4 4748 4749 1409 4803
4 4720 4038 4705 422
4 4925 3261 4970 5667
4 5716 4936 3315 3016
4 6287 4262 4820 4819
4 6077 5710 928 927
4 6288 5737 3282 5720
4 4739 6077 4738 5728
4 4602 6300 5758 5750
4 5756 1979 5750 1988
4 5698 939 5719 940
4 5628 1878 6130 1879
4 3233 5663 1897 4232
4 5628 5663 5610 1887
4 3622 3772 3363 6098
4 3330 4287 5628 3329
4 3330 1880 5569 1889
4 6263 6130 1870 1879
4 6263 1870 6278 1871
4 4263 3503 1908 4804
4 4139 850 4706 5607
4 3701 3418 1201 3224
4 5105 4358 1648 5355
4 3383 3224 3222 3052
4 3221 3051 2197 3052
4 3221 3222 2188 3332
4 3221 3222 3224 3052
4 3331 3153 3450 3383
4 3698 3695 3722 4204
4 5790 5795 6252 4056
4 3622 3772 6098 3796
4 4366 1481 4355 1480
4 4366 4933 5229 1471
4 4891 493 4890 502
4 4910 1462 1454 1463
4 4587 364 4566 373
4 4489 4563 4590 4596
4 4620 4668 5567 807
4 4658 372 4622 381
4 4711 5517 819 818
4 4620 4563 4566 4668
4 4397 4479 21 320
4 4479 744 21 20
4 4080 20 4479 311
4 4461 4319 4476 319
4 4461 3432 4480 310
4 4424 4405 6267 4372
4 5763 4368 4370 6046
4 4051 9 277 276
4 4051 1752 9 8
4 4051 8 2872 1752
4 4416 4371 2872 1247
4 4371 1752 217 216
4 4371 217 1247 1246
4 4416 4369 4371 1246
4 4443 4440 1274 1265
4 5765 5972 6034 6040
4 2395 3600 3469 3434
4 3943 3398 3742 5461
4 4016 746 3956 745
4 5446 5310 5311 748
4 2993 3551 5399 4133
4 5549 5380 5551 6083
4 6293 6317 5862 5863
4 5899 1085 5861 1094
4 5860 5861 5863 1085
4 5878 2122 5862 6317
4 5862 2122 5927 2131
4 5899 1084 5255 5256
4 6293 5862 5899 5863
4 4402 291 4383 282
4 4382 1757 3824 1758
4 4472 307 3971 308
4 4395 4383 291 290
4 5926 4472 4878 3437
4 5549 6118 6282 5175
4 5515 4395 3974 4402
4 3227 4363 6177 5028
4 5549 5200 2803 5380
4 5673 3507 6271 6069
4 5504 1260 6065 3494
4 6054 1244 4832 4305
4 3556 5817 5400 5401
4 5996 5314 1205 4183
4 5020 5442 5355 1649
4 5244 1651 4201 1660
4 5549 4679 6282 6118
4 4072 4071 1207 4073
4 4256 1196 4183 1195
4 4896 6098 4897 4819
4 6113 1937 6114 1946
4 5729 6213 1935 1944
4 6148 6149 1953 5699
4 2741 6297 4972 6296
4 6148 6149 1944 1953
4 5681 4341 4800 6330
4 6149 5699 1952 1953
4 3686 4443 4401 303
4 4552 1280 4599 1281
4 4568 5365 3527 5416
4 5365 5765 5366 3527
4 4553 5772 1290 1291
4 5259 6039 5506 5492
4 3755 4103 5466 742
4 4534 349 4538 350
4 4551 4538 341 350
4 4554 4538 4597 349
4 4555 4210 4538 341
4 4534 4597 4538 349
4 4534 4604 359 350
4 5788 4353 4352 5293
4 4834 5700 1298 1289
4 5282 4276 3695 1127
4 3696 3697 5952 3695
4 5944 1162 5388 1163
4 4021 1135 5404 5283
4 2660 3913 5840 3762
4 5068 4359 5066 4045
4 4035 4449 306 305
4 4302 4419 304 305
4 4020 5608 4354 4145
4 4302 304 4442 295
4 5510 3938 4569 5762
4 4208 4034 4035 5925
4 3487 6205 2036 5739
4 2029 6198 2030 5095
4 2029 6194 5100 6198
4 5739 5724 6101 5100
4 4810 6311 2034 2043
4 5166 2025 5452 4086
4 3937 3702 6069 6271
4 3983 3988 3009 6265
4 3757 6042 6043 3756
4 1692 6174 6063 4363
4 4532 1259 6065 1268
4 4532 4300 1259 1258
4 3857 2169 3066 2160
4 3854 3726 3858 3900
4 3067 5627 3064 4591
4 5021 3693 5212 5168
4 6315 5622 5967 6281
4 6315 1545 6314 1536
4 6319 2088 5088 6216
4 5626 5216 2064 2063
4 3692 4886 3652 5087
4 3651 6210 4271 1538
4 5622 4061 5215 5623
4 6310 2057 4265 4266
4 3279 3773 6288 5978
4 5720 5740 5722 5715
4 6186 5743 5737 5718
4 5733 6300 1969 1970
4 3918 3924 4164 4988
4 5138 6276 5593 2072
4 3651 5620 5098 5905
4 6276 2063 5593 2072
4 5866 5821 5833 5432
4 4122 3564 5810 5809
4 2522 5582 2524 2523
4 4518 4522 5873 4195
4 3692 4886 4888 5806
4 4135 5555 1824 4468
4 4135 1815 140 139
4 4217 4467 4135 779
4 5484 5472 778 5507
4 4217 769 4216 770
4 5507 4217 4468 4135
4 4468 1816 5513 1825
4 6029 6050 1768 1777
4 6255 1768 6050 1767
4 6026 267 1768 268
4 4212 6050 1776 1775
4 4316 4322 4318 4533
4 3985 5480 3516 3517
4 6257 6081 1767 6050
4 5465 6081 4510 4130
4 4466 6028 1689 1680
4 6256 3983 4315 3986
4 1774 6081 5465 6082
4 5632 4765 4645 4733
4 4776 4759 447 4772
4 4720 4595 440 441
4 5976 4803 6123 5977
4 4379 6159 4858 6164
4 6202 2105 4202 5879
4 5089 5088 2097 2096
4 3862 3129 2089 3860
4 6202 5879 2104 2105
4 5223 5207 4393 4202
4 5850 1056 5853 1057
4 5841 5850 5643 1056
4 5841 5853 1047 4237
4 2725 5545 6275 5091
4 2380 4020 4019 4024
4 5637 5357 5104 5103
4 5803 6342 1513 5802
4 5803 6342 1504 1513
4 6195 5545 6175 1524
4 6275 6195 5091 5545
4 6193 5008 6191 1496
4 4121 5778 3813 6176
4 6193 1504 4251 1495
4 2291 2292 2294 3839
4 4971 4199 1521 1530
4 4430 5491 6082 5319
4 5028 4365 4363 4364
4 5318 5317 6082 4212
4 6050 6081 1775 4212
4 6174 6081 6257 6050
4 6257 6261 1683 4510
4 4967 1507 5083 5082
4 4227 3116 4975 529
4 4245 6303 6178 3802
4 3809 6191 3835 4245
4 5083 4968 1498 1507
4 4227 4975 538 529
4 4987 2291 539 540
4 3149 4951 4882 4355
4 3149 5083 4968 1498
4 4355 1489 6178 4916
4 4191 5959 1152 5950
4 5966 187 1162 1161
4 5959 1153 5966 1152
4 5388 186 5966 1153
4 4821 3094 4026 4783
4 4796 5301 4794 4174
4 4861 4796 4175 5301
4 4159 473 4844 482
4 4861 4833 4814 470
4 3770 2518 3990 2514
4 2977 2982 2979 3220
4 3949 4783 3947 458
4 5442 5355 1649 1658
4 4104 6189 5384 4913
4 2782 5240 5360 5397
4 4106 5278 5316 673
4 5316 673 5278 674
4 5280 5998 4257 5940
4 6010 5356 1658 1667
4 3387 5442 6010 5356
4 5527 5540 797 796
4 6345 5555 5554 5544
4 5125 4332 4333 5435
4 4673 804 5560 813
4 6345 6274 5555 5544
4 5527 5540 5528 5563
4 4612 6111 6278 6131
4 3160 805 5560 804
4 3160 5561 795 804
4 4570 1840 6067 4572
4 3751 4317 6273 4541
4 6067 6068 4571 4572
4 4398 6075 4540 4787
4 6346 4812 4859 4884
4 2440 2324 2918 3169
4 3670 5656 876 867
4 3569 4804 1908 1917
4 3568 3569 2979 3570
4 4263 3220 4804 3569
4 3233 1897 3329 1898
4 750 742 4103 3755
4 6042 4452 5466 4099
4 3754 749 5327 750
4 5304 5382 1763 1762
4 4097 4064 1798 1799
4 3753 5327 741 750
4 4323 757 5311 748
4 6042 5466 5454 4098
4 3535 3135 4985 3836
4 5406 5644 1073 1064
4 6199 5834 5868 5852
4 4202 5207 2114 2115
4 5160 2117 4205 2126
4 5234 3862 2098 2106
4 6200 6201 5876 5859
4 4393 4389 5879 5878
4 4200 2115 5234 2116
4 4797 4815 4784 464
4 4797 4784 455 464
4 4845 4844 4815 906
4 4815 5649 464 473
4 3285 4491 5705 3502
4 3124 4917 4760 3123
4 3338 4197 6222 4198
4 4197 1568 5139 1577
4 4908 602 4187 603
4 3131 3161 3342 5139
4 3997 2828 2829 3159
4 2856 2830 3690 2817
4 3161 5139 1578 5849
4 5872 1597 6220 1606
4 5140 6235 1606 6220
4 5113 1580 5157 1589
4 5205 1597 5872 1596
4 5140 5872 1605 6240
4 5140 1614 5320 6226
4 5028 5031 4364 5461
4 3712 3753 3754 5327
4 6081 6339 4130 5465
4 6073 4065 1799 1800
4 1790 4097 6073 3942
4 4015 5505 5503 5504
4 6074 1810 2740 1811
4 5117 5118 4253 5451
4 4399 1782 5491 1783
4 6073 1791 4400 1800
4 4399 1783 5319 1792
4 4696 1332 5189 1323
4 3682 5189 1332 3689
4 6087 4267 5556 5557
4 5185 5571 5189 3687
4 2544 5556 4493 5571
4 5189 5511 1323 1322
4 5126 2683 3031 3373
4 1277 4434 1268 5400
4 5817 1268 6065 1269
4 3984 5817 5401 6065
4 5504 5817 6065 1269
4 5318 6174 4212 6081
4 3987 3555 6065 5504
4 5481 1709 6063 6069
4 5503 4434 2416 5817
4 5503 4434 5817 1269
4 5504 6065 1260 1269
4 6262 5505 5504 1260
4 6262 5504 4013 3494
4 6324 5236 5218 5243
4 6012 5893 5246 5192
4 4469 6013 5170 5218
4 4501 5349 5272 5858
4 5153 5218 633 5079
4 4686 4470 5041 3731
4 5245 652 5236 5243
4 5218 5079 634 633
4 2611 2388 2615 2612
4 6246 4969 1429 6122
4 4828 1430 4829 5671
4 6135 6145 1412 1411
4 2639 4108 2612 2614
4 4874 4801 5661 6151
4 3460 2617 3465 4801
4 6159 4377 1434 6157
4 4874 5661 6164 1442
4 4377 6142 1435 5713
4 1434 4377 1435 5713
4 5993 5982 1625 5999
4 654 5993 5999 5982
4 4273 5993 5182 645
4 5993 1624 5320 1615
4 6235 5182 1616 1607
4 6235 5993 1615 1616
4 5183 5186 5275 655
4 4033 305 4419 4035
4 5510 4035 4449 306
4 4302 3598 4419 4035
4 314 4033 305 4419
4 3209 3502 5705 3220
4 4302 4035 305 4449
4 4302 304 4401 4442
4 5510 4449 297 306
4 6053 4569 5510 297
4 2513 2516 3045 2520
4 3635 4094 4361 5955
4 6326 4330 6123 5713
4 6326 4776 6143 4759
4 3790 3348 3347 4462
4 4157 452 4794 461
4 6326 6123 5976 6143
4 6326 3949 4776 4761
4 4783 459 4774 458
4 5763 277 4051 4370
4 5365 6036 6046 6044
4 6268 4426 6264 1737
4 4012 3518 5480 5481
4 1726 5418 1735 4426
4 2592 2569 198 2200
4 4831 1653 3978 1662
4 4830 2532 2436 2533
4 2569 2201 199 198
4 2437 2569 199 1238
4 4830 2435 2436 2670
4 2670 2532 2671 2569
4 2670 2671 2669 2191
4 2670 2569 2200 2201
4 5876 2112 4356 2103
4 5860 4356 172 1076
4 4356 2103 172 171
4 4356 5869 2103 171
4 4389 5863 5885 6317
4 5860 5885 5863 6317
4 5876 5885 4356 6317
4 3753 750 3754 5327
4 4399 3942 1781 1790
4 5303 6258 5382 1687
4 3944 4364 3943 5028
4 5116 5451 4103 732
4 5443 5436 5902 5337
4 3398 5437 3400 5461
4 4097 1799 6073 4064
4 3944 5492 5122 4206
4 5451 733 4103 732
4 4103 3609 742 733
4 3755 3753 750 3754
4 3052 3224 1202 1211
4 3051 3052 3224 1202
4 3383 2754 3052 2198
4 3383 1211 3052 2754
4 3052 2198 2754 196
4 3331 3417 3223 3418
4 3221 3222 3052 2197
4 5045 4907 4823 4178
4 4822 4909 4824 951
4 4860 951 4909 942
4 4823 4907 517 4178
4 4823 4907 508 517
4 5210 5258 5023 658
4 2841 3458 2837 3811
4 6162 4259 975 984
4 3871 5780 3842 3883
4 3872 3362 4906 3876
4 2525 5165 2060 2061
4 5120 4946 5804 3842
4 5453 3811 3813 2837
4 4996 989 5014 5794
4 3635 3808 3801 3245
4 4982 4983 4978 5486
4 4345 980 4996 4942
4 5792 4943 4980 4981
4 4685 825 29 816
4 4622 4637 4638 382
4 4660 4638 4647 391
4 2443 2671 2190 2191
4 2896 3396 6007 6006
4 3870 5887 5986 5314
4 2409 4124 4020 4063
4 3446 3418 3417 3720
4 2886 3416 6006 5352
4 2671 2200 2199 2191
4 3416 1209 6006 1208
4 3418 1209 3396 3416
4 5507 788 4135 5543
4 5554 4468 4214 5513
4 5251 5544 5509 4725
4 5565 5560 6110 6072
4 4277 4285 4124 4282
4 4674 5560 814 813
4 4287 6263 5569 3330
4 4378 3948 5712 4818
4 3374 2978 2977 3168
4 5394 5042 5047 3462
4 3947 4774 467 458
4 4818 4873 4864 4791
4 5712 4698 476 467
4 5519 6326 4330 5976
4 3295 5695 5693 6213
4 4789 886 6208 885
4 3846 4610 6263 4613
4 5677 5693 1933 1924
4 5695 5693 6213 1934
4 5695 6149 1943 6213
4 5677 5694 5675 3830
4 3283 5668 5719 4598
4 3125 6014 3133 4335
4 5718 6173 1986 1987
4 5756 6300 1978 5741
4 5978 5709 3282 4737
4 5733 5731 1970 1961
4 6300 5741 1969 1978
4 6300 5741 5733 1969
4 4169 5771 4945 994
4 4481 4519 5638 5799
4 4946 5805 5120 1002
4 6212 2525 6312 2052
4 5507 778 4217 779
4 5555 4468 5544 1825
4 5555 1833 5528 5543
4 5555 5528 1834 6274
4 5540 5528 5563 5543
4 6200 5859 5852 6201
4 6316 2087 5088 2096
4 6202 6316 2096 2095
4 5834 5838 5867 5851
4 5854 6201 5869 2094
4 3733 3913 3916 4924
4 5753 5984 6232 5969
4 6241 1611 5130 6323
4 2535 2251 2536 2537
4 5132 6323 1611 1610
4 5677 5695 3295 6330
4 5677 5693 3561 3297
4 5694 4334 3830 1932
4 3830 5675 887 896
4 3830 887 3831 151
4 3948 4802 3949 3947
4 5976 4690 4759 4803
4 2617 4331 4801 3018
4 4788 4761 440 449
4 6152 4595 4761 440
4 4330 6123 6157 4328
4 3949 4783 458 449
4 3949 457 3947 4802
4 4772 6142 6143 1427
4 3946 3949 4783 3947
4 2343 3069 4528 2342
4 5945 5913 2150 2149
4 2904 2497 3603 4272
4 5847 5914 1101 1100
4 3194 1118 5749 4276
4 4522 5636 5635 2059
4 3487 2044 4810 2035
4 4521 4520 5636 2050
4 4520 5785 2042 2041
4 4514 4522 4195 4193
4 4481 5805 4519 5799
4 4521 5815 2040 2049
4 4518 5638 6030 5428
4 4946 5804 993 5120
4 4169 5483 3842 4946
4 2525 6312 2052 2051
4 3359 956 5151 957
4 3358 3359 5770 3360
4 6301 6305 2004 2005
4 3922 1988 5755 5756
4 6230 5704 4341 5706
4 5150 5697 5151 5152
4 2840 3815 4091 3474
4 6301 6165 4087 2005
4 6338 5769 5697 5776
4 6301 5754 1995 2004
4 3924 5164 6165 2006
4 2597 3491 3576 3575
4 3842 4946 5804 4169
4 5789 2031 5759 163
4 5759 2040 4521 5815
4 4517 5805 1002 1011
4 4917 3580 4785 4784
4 5621 4817 5650 889
4 4792 4817 880 881
4 5632 4793 4792 4817
4 5632 4917 5621 4817
4 4768 4785 446 455
4 4817 881 3376 890
4 4817 4811 890 3376
4 4797 4840 4785 4784
4 2568 3353 5500 3352
4 5323 5748 5287 4561
4 4561 5801 1299 1308
4 3596 4555 4531 4210
4 4555 341 4538 340
4 4489 4545 789 4596
4 6179 4137 5477 5497
4 5497 5508 790 791
4 4490 4545 780 789
4 6179 5532 5497 5477
4 2996 5700 5772 5801
4 4020 4354 5608 4029
4 3598 4033 4483 4419
4 4526 332 4555 331
4 3816 3058 5801 2996
4 5287 4353 4561 5748
4 4526 323 4531 332
4 4483 4033 314 4419
4 5642 5232 5022 2102
4 2092 6224 2091 5021
4 5692 3693 5592 6224
4 6218 5212 2090 2091
4 2074 6223 5623 2083
4 6223 4623 6224 2083
4 4084 6305 5774 5776
4 6162 5775 5771 985
4 5789 5771 5797 5775
4 4085 5783 2023 2024
4 5797 2022 6304 2023
4 6162 3360 5770 975
4 4842 41 5723 500
4 5723 41 933 42
4 4842 5723 4884 500
4 4909 5723 42 509
4 5061 3638 3317 5747
4 4860 952 4961 4824
4 3243 4339 4976 3632
4 5166 4086 4085 2024
4 6311 2033 5783 4086
4 4083 5797 5775 6304
4 4188 5797 6304 5775
4 5783 5785 2032 2033
4 5166 4086 2024 2025
4 5635 5848 2069 5165
4 5635 2060 5165 2069
4 6030 5838 5638 5640
4 2525 5165 5636 2060
4 5428 5799 5638 5429
4 4522 5873 2059 5635
4 5470 5829 4825 5909
4 5832 5838 5867 5812
4 4518 5873 5640 4195
4 4371 1752 2872 217
4 2872 1247 217 0
4 2872 123 8 276
4 5763 2872 4051 276
4 4416 6044 4371 6036
4 2872 0 8 123
4 4954 3090 5746 5744
4 6002 4874 4801 6164
4 5482 6311 5784 4092
4 4807 3487 2035 2036
4 3808 4935 4115 4114
4 5545 5091 1532 1533
4 5958 4974 1510 5939
4 3089 5744 3090 5745
4 3991 4414 4558 4537
4 4166 3200 3206 5102
4 5032 570 3206 4168
4 5665 5666 5049 5010
4 5019 4168 4163 4994
4 5818 1015 5049 1016
4 2893 2894 2895 2911
4 5010 5666 1016 1017
4 6155 999 5809 5011
4 6197 4968 3149 5083
4 3632 3628 3631 3633
4 4362 4361 4094 4891
4 4362 502 4891 4890
4 3117 512 3118 521
4 3632 3118 3117 512
4 5095 6194 5939 5096
4 5094 2030 5095 2029
4 4241 4242 4243 6190
4 4250 6166 1484 1483
4 4241 4974 4242 6190
4 4973 6190 5746 1511
4 5101 5958 4973 5968
4 4070 3499 4810 6102
4 4973 1511 5746 1520
4 3027 3055 5526 3910
4 5439 6110 4332 6072
4 3788 3054 775 776
4 5472 787 5526 786
4 3055 786 3910 785
4 3160 3910 795 5561
4 4078 5484 5472 3055
4 3053 794 5547 793
4 1838 1837 5268 4573
4 6186 5737 5741 5718
4 4602 5756 6300 5750
4 6186 5698 5719 5743
4 5756 1979 6300 5750
4 5718 1987 5755 6173
4 5774 5776 968 967
4 4087 2006 6165 5164
4 3357 4087 6165 5164
4 3355 5697 3359 5151
4 4087 2006 5164 2015
4 5478 4989 1965 1974
4 6160 5671 1439 1438
4 5458 1967 5135 1976
4 3653 5962 6161 4883
4 6302 5688 6187 5711
4 5502 1446 5135 1437
4 5134 6246 5135 1437
4 5458 5135 6246 5502
4 2741 6246 6297 6122
4 5134 5458 1967 5135
4 6297 6296 1957 1966
4 6187 5688 5633 5760
4 4373 6035 1717 3518
4 3516 4211 4420 1698
4 3516 4211 1707 3518
4 5037 5011 998 5794
4 5489 5037 4996 5794
4 5027 4446 1001 992
4 3282 922 5720 931
4 3867 6330 4341 3866
4 6148 6292 1945 5672
4 4734 4737 911 4735
4 5674 892 3999 4965
4 5710 4901 918 927
4 5107 5115 3825 5515
4 3435 5108 3798 3952
4 5440 4424 4368 4405
4 5438 3440 6045 4011
4 4123 1619 5132 5133
4 6107 2769 3608 2802
4 4591 5627 6243 6337
4 2549 5795 2891 3856
4 4123 5133 5460 1628
4 3998 3332 3365 3223
4 5105 5190 1638 1647
4 2926 5460 5105 5190
4 2549 2552 5795 4591
4 5845 5203 3915 5409
4 5912 5904 1089 1098
4 4200 4701 5234 5207
4 5888 5842 3760 5936
4 5227 4150 4151 6024
4 4726 5936 5983 3760
4 5759 164 5815 1004
4 5815 2040 165 164
4 5759 4521 4945 5815
4 4514 4517 4193 4195
4 4522 4193 4194 4195
4 4945 4517 4946 1003
4 4522 5873 2058 2059
4 4522 5815 2049 4194
4 5838 1030 5640 1031
4 4514 4519 4517 4195
4 4082 2834 3474 3852
4 4519 5799 1011 1020
4 5428 5638 5821 5429
4 4522 5873 4195 4194
4 5636 5635 2059 2060
4 5634 5635 5636 5165
4 5493 2524 2523 3851
4 5636 5635 2060 5165
4 4729 409 4730 5568
4 4752 4546 4651 4579
4 4678 4683 4638 390
4 3560 3896 3935 4639
4 4415 4621 5568 4730
4 4148 5568 400 409
4 4695 4678 4621 398
4 5145 4678 4683 4638
4 1223 1224 5314 5986
4 5374 1204 5996 1213
4 5996 1204 4183 1205
4 5996 5986 5991 1222
4 3783 1194 5385 5369
4 6269 5374 5369 5996
4 4493 5377 2547 3687
4 4025 2380 4024 4029
4 4294 3612 4089 4146
4 4062 4280 4741 4779
4 5185 5571 3687 4493
4 5377 3687 1339 2547
4 5379 5381 1884 1885
4 5755 1996 6165 6173
4 3923 5755 6165 6173
4 5755 6165 1996 1997
4 3240 3636 3629 3243
4 4145 6124 1864 5608
4 4270 5556 5571 6087
4 4088 4027 6124 4089
4 3452 3178 3372 3451
4 5294 4725 1845 4333
4 5294 1845 5292 4333
4 5292 4333 1845 1854
4 5183 654 5275 5982
4 4274 5752 5253 5275
4 3543 5767 5768 6234
4 5752 5253 5186 5217
4 4273 5183 5993 645
4 3237 5320 2973 6226
4 4273 637 5204 5230
4 6135 4969 6122 1420
4 6137 6135 4969 6122
4 5525 6133 5603 2921
4 6135 1421 4969 1420
4 6260 4455 4403 4404
4 4574 1336 5583 6095
4 4574 4625 5024 1328
4 4525 366 4603 4605
4 5688 5760 1993 1994
4 5688 1985 5717 1994
4 5501 2739 5671 6246
4 6161 5962 1457 1448
4 6168 1457 5347 1466
4 5134 6297 1967 5458
4 3659 6168 6161 5962
4 5884 6176 2000 2001
4 6223 5098 6281 5620
4 4576 5477 4137 4666
4 5477 4588 4666 4576
4 6279 4490 5497 5508
4 4037 4575 4488 4562
4 4485 336 4437 345
4 4486 4067 327 4476
4 6294 3428 4319 4476
4 2435 218 1662 1671
4 2435 218 219 1662
4 2435 2192 219 2201
4 2670 2201 2437 2569
4 2670 1238 2532 2569
4 2544 1339 3687 2547
4 5571 3687 2544 1330
4 6091 1849 5557 1848
4 2544 4270 1330 1329
4 6091 4267 5557 1849
4 5556 4268 4267 4270
4 4258 4256 1187 5338
4 3251 5343 4258 5824
4 5940 5299 704 5371
4 3486 4256 5338 4183
4 5280 4634 5990 5279
4 5279 5369 1194 1195
4 4256 1187 5338 1196
4 4256 4183 1196 5338
4 2930 3444 3486 5338
4 5065 1180 3744 1181
4 5065 3744 5066 1181
4 3725 5963 4045 5066
4 5960 5277 5966 5388
4 5277 5966 5388 1162
4 5944 1172 1162 1163
4 4756 1206 4781 1197
4 3387 5442 5356 5355
4 2930 4258 5819 5338
4 2898 2443 5790 2445
4 5271 5352 1217 4073
4 5270 5271 5352 1217
4 5271 4073 1217 1216
4 3369 3371 4702 5274
4 5732 158 1986 159
4 5678 6173 5732 1986
4 5732 5696 5743 950
4 5273 3736 5274 4218
4 3919 5750 3922 5756
4 3355 3359 5697 5769
4 3359 957 5769 966
4 3359 3356 3355 3125
4 5697 5151 948 957
4 4120 555 4770 92
4 4770 4771 564 555
4 4120 3850 546 5082
4 1516 4120 5082 6175
4 6175 6195 4769 5855
4 3893 6175 6195 5545
4 5058 4967 1515 6192
4 6175 4967 1516 1515
4 5802 5539 4351 6204
4 6162 976 5770 5775
4 6162 5775 4084 4083
4 6305 2005 4087 2014
4 4082 5166 4087 5164
4 5797 6306 2031 2032
4 4188 2013 6304 2022
4 2816 2857 2813 2856
4 5855 5007 4771 3850
4 6107 1377 3766 4715
4 4261 3839 5044 557
4 4261 5044 566 557
4 5059 575 4190 566
4 2858 4190 2849 574
4 5147 5092 5127 607
4 5147 607 5127 608
4 5144 606 5092 607
4 4507 5073 5836 5192
4 5844 5843 1051 1052
4 5149 5154 5147 617
4 5149 5846 5072 1059
4 3977 5147 5163 5846
4 5836 5364 5073 3994
4 4186 687 5306 696
4 5391 4161 5306 687
4 4186 5391 687 686
4 5350 5957 5371 705
4 5326 5331 688 689
4 5350 696 4186 5306
4 3687 3689 3680 5377
4 4145 6124 4146 1865
4 5378 1867 2545 1876
4 3764 4337 5639 4667
4 5040 649 5025 5172
4 5749 1110 5910 1119
4 3715 3857 2169 3717
4 5910 4204 1119 1120
4 3067 3857 3066 5981
4 4530 5913 5297 5946
4 5913 6239 2140 2149
4 2342 3066 5945 5997
4 5749 4276 1118 1119
4 3194 5282 1127 4276
4 4242 6190 4974 1511
4 5742 4973 6190 5746
4 6198 5939 5937 5095
4 4973 4974 6190 1511
4 5917 5778 2019 2018
4 1492 4250 1483 5612
4 4953 3116 521 530
4 3117 3118 3116 521
4 3478 2292 3522 4163
4 5001 4987 2291 539
4 4941 513 4976 514
4 6197 4227 4956 3116
4 6183 5083 4227 5082
4 5499 1286 5500 1295
4 6273 6056 1813 1814
4 6052 1276 5400 1277
4 4132 5499 6272 1294
4 6272 3352 1304 1295
4 6068 6090 4131 6272
4 4132 1293 5534 1294
4 5498 6052 1286 5499
4 4865 4159 4885 4843
4 4238 916 4845 907
4 4843 4877 925 916
4 4812 4842 4865 924
4 5683 4843 4812 4885
4 4845 4843 915 916
4 6036 1744 6046 6044
4 5418 1726 6035 4426
4 4416 1255 6038 1246
4 6036 6044 1743 1744
4 4418 1256 4417 4367
4 2890 55 1059 56
4 5149 1059 2890 55
4 2890 5198 56 1068
4 6181 6153 6244 6243
4 5188 635 2890 5198
4 5072 1069 5246 5858
4 3160 5565 5560 805
4 4559 6131 6130 5577
4 3605 4674 4614 4228
4 4607 2678 2679 4023
4 4674 4030 813 822
4 6110 5435 4332 5125
4 3027 5526 3055 5472
4 6332 5308 5546 5348
4 5307 5285 5247 1095
4 5248 5239 651 660
4 5236 5026 651 5239
4 5904 5329 1097 1098
4 3117 521 3116 520
4 3809 3808 4935 3776
4 4361 4355 6341 4916
4 3117 3633 512 511
4 4633 4781 5314 4183
4 5887 5271 1225 1216
4 5386 5368 5403 710
4 5887 4071 1216 1215
4 5249 1232 205 206
4 1224 5987 5986 1223
4 4589 2875 4185 3870
4 6008 5270 5995 3388
4 4342 5486 5680 4983
4 4975 530 4987 539
4 3115 4953 3116 3118
4 5045 4307 4907 4177
4 2291 3522 549 4930
4 4182 5127 599 608
4 5063 4182 5127 599
4 5163 1041 4182 5064
4 5146 608 5147 5127
4 5844 5843 1052 5364
4 5577 6130 5596 1869
4 5577 1860 145 144
4 5577 5596 145 1869
4 5564 1860 5577 144
4 4559 5586 823 4674
4 4559 824 5577 833
4 5586 814 5565 815
4 6131 5564 1860 5577
4 2693 2253 2549 2548
4 5960 5959 1144 1153
4 3706 5960 4021 5952
4 3706 4022 5960 5924
4 3725 3744 5963 5066
4 3725 4022 5924 5944
4 4337 3766 4667 3764
4 3697 5952 3695 1137
4 3697 5952 1137 1146
4 5282 1144 1135 1136
4 4666 5477 4137 5497
4 5523 5535 3920 5532
4 4575 764 4562 773
4 3888 3453 3912 4037
4 4471 4476 6294 4067
4 4471 6294 4666 6298
4 4576 5477 4588 782
4 5497 781 4588 782
4 4523 4564 338 347
4 4523 338 4321 4320
4 4190 566 4261 5044
4 2705 2335 2337 2751
4 3148 3514 4464 3166
4 3877 2789 5223 3878
4 3308 3310 3621 5827
4 3310 5086 5080 5827
4 2707 2708 3528 2606
4 5406 5890 5839 1063
4 3159 2256 2828 2258
4 5849 3338 3345 5139
4 3208 5067 5081 5063
4 4411 5462 1750 1749
4 3971 299 3976 4395
4 5108 4032 3431 4459
4 4411 1758 3824 1749
4 5512 3431 4457 4459
4 5107 5462 4508 5515
4 3974 4380 3824 4383
4 6260 4411 1750 1759
4 5354 231 232 1545
4 4349 2084 5354 231
4 6314 5354 232 1545
4 4623 5098 4349 5354
4 6314 5354 6281 2075
4 5276 5278 673 664
4 6234 5993 4273 5183
4 5253 5186 656 655
4 5253 656 5186 5217
4 5254 5253 665 5278
4 3766 3764 4337 5396
4 5752 5253 5254 5278
4 3147 5113 5112 4999
4 6219 6221 5113 5085
4 6219 5179 5136 5159
4 4908 611 4167 602
4 3146 4908 4167 4187
4 4152 4187 4167 602
4 2258 601 4999 600
4 6259 1763 5382 273
4 5434 5464 1686 1695
4 5302 725 5455 3609
4 5444 5455 734 3609
4 5382 1762 274 273
4 5303 5382 274 1687
4 5304 5492 5506 1772
4 5445 4098 1779 1780
4 5281 1122 63 62
4 5281 1131 63 1122
4 4076 5393 4847 5930
4 5948 5392 1133 1142
4 4074 5387 4077 5393
4 5907 5269 5326 4161
4 5907 5238 5225 5326
4 1124 5941 1133 1125
4 5948 5941 1133 5938
4 4077 706 5351 707
4 5763 4367 4416 6044
4 5365 5763 6044 6046
4 4416 4367 1247 2872
4 4051 4370 9 1753
4 4051 6044 1753 1752
4 6046 4370 4051 1753
4 5670 6285 1916 1915
4 3110 5396 3766 3109
4 4789 3962 3831 877
4 4789 3296 3831 3959
4 5670 3301 4804 6285
4 3101 3960 4706 3961
4 3961 3962 868 869
4 4789 3606 876 885
4 5424 1715 129 128
4 5107 5515 3825 5462
4 5124 4406 5327 5310
4 5337 5447 4406 5310
4 4254 722 5424 129
4 3951 3471 3599 3472
4 5447 5446 738 739
4 6239 5915 2139 2148
4 3069 5945 5913 5997
4 5911 6239 5985 5901
4 5985 5861 5862 2130
4 2124 4200 5207 5206
4 6293 5899 5256 5863
4 4528 5913 5985 5297
4 5901 5906 1093 1102
4 6247 5946 5297 2141
4 5682 5708 5695 6149
4 3867 3865 5704 4735
4 5708 5695 6149 1943
4 6230 4338 6291 4800
4 4338 6291 4800 1951
4 5708 1952 6149 5699
4 4091 3903 2834 4092
4 4082 3357 4084 3358
4 5166 2015 4085 4087
4 5166 2024 4085 2015
4 4082 5166 4085 4087
4 3474 2834 4091 2837
4 2017 4091 5453 3812
4 3836 4986 5078 4985
4 5919 5079 4501 4506
4 3977 5846 5154 5147
4 3158 5757 4122 4450
4 4980 978 5012 46
4 4980 5012 4981 545
4 5012 46 978 47
4 5012 987 47 978
4 5069 5015 997 996
4 4983 4996 5792 4943
4 5792 5015 988 5037
4 4113 4982 5012 554
4 4609 4604 351 360
4 3538 5141 6033 4658
4 4608 369 4653 4630
4 4539 4587 364 4566
4 2497 2510 2500 3700
4 4225 362 4636 371
4 4658 4636 372 371
4 4637 383 4685 392
4 5534 6048 1284 1293
4 4054 6273 6049 6062
4 4296 4316 4317 6071
4 4322 4318 1266 4055
4 5400 1267 5401 1268
4 6052 5499 1285 1286
4 3752 5498 5500 5499
4 4132 5534 5499 1294
4 4541 5533 3750 4540
4 6077 5727 3122 4738
4 5045 4177 4907 4178
4 4961 4979 961 962
4 5030 4944 4979 4942
4 4177 517 4907 4178
4 4977 4177 526 525
4 4308 4977 4932 4177
4 4977 3707 525 534
4 6107 3766 3108 3763
4 4342 4308 4983 5680
4 4982 5792 5012 4981
4 5488 5009 4993 4978
4 5009 4993 543 552
4 4978 4993 4964 543
4 5033 4994 552 561
4 5486 5037 5792 4996
4 4308 4977 4983 4978
4 5032 4168 561 570
4 5818 2947 1025 5666
4 3564 6155 3574 4922
4 5487 5009 5039 5033
4 4113 996 5069 5050
4 4445 5420 5483 3842
4 5075 5011 5037 5794
4 5009 552 5033 4994
4 2815 3663 6275 2813
4 2857 5059 4190 5044
4 3531 4189 575 584
4 5059 566 4190 5044
4 5059 566 5044 567
4 3692 5087 4007 4886
4 2830 2828 2829 3997
4 5742 6190 4973 4974
4 5100 2046 6205 2037
4 5100 6180 2047 6198
4 6203 5968 1519 1528
4 6210 1529 4199 1538
4 5958 1519 5968 1518
4 6168 6161 5962 1457
4 6168 6172 1465 1466
4 6168 1456 5633 6161
4 6302 5688 5524 5633
4 5761 1473 6163 6126
4 6302 6168 5633 6161
4 5678 5718 5679 5737
4 5678 5732 5743 950
4 5732 1995 159 1986
4 5696 5697 949 958
4 3466 5698 5152 4598
4 6186 5755 5718 5756
4 5150 5698 5697 5152
4 5718 5755 1987 5756
4 6107 3766 1377 1378
4 5706 5691 5681 4800
4 6288 5733 5740 6291
4 5709 4737 912 921
4 6230 6291 4338 5733
4 3120 4598 938 929
4 6230 5682 5708 4800
4 4112 5706 914 5715
4 6288 3282 5709 5720
4 4112 1950 6291 1959
4 2835 2633 3173 3496
4 3499 2522 4810 6102
4 2833 2832 2838 3092
4 6311 5783 2033 5785
4 5837 6212 2044 2053
4 6311 4520 5785 2042
4 1386 3766 4667 4337
4 4430 5260 5491 4399
4 4329 6123 4328 5977
4 5713 1425 6123 1426
4 4328 6157 1424 1425
4 3949 4788 449 4761
4 450 4593 4026 3402
4 5660 5661 1433 6159
4 4805 6136 1413 1422
4 3897 4331 5961 6144
4 4788 440 4595 441
4 2784 4196 5070 2953
4 6076 1583 3614 1574
4 5021 3693 5168 6211
4 6076 3614 1583 6225
4 4150 6024 5643 5841
4 4052 5000 3749 4010
4 4886 5806 1565 4888
4 5806 4888 1574 1565
4 5002 3649 6211 3691
4 3333 6335 2645 4410
4 5686 5463 4064 4065
4 3944 4430 5491 6339
4 5306 4161 4849 5331
4 5907 5269 5238 5326
4 5391 678 4161 687
4 5269 4161 678 679
4 4430 5028 6339 3944
4 2539 4628 2540 4127
4 5225 1114 5931 1123
4 4769 4771 2815 4960
4 6185 6175 5058 4967
4 2815 4771 5855 4261
4 4769 1534 6195 1525
4 3663 5044 4261 3839
4 6195 5545 1533 5091
4 3665 3663 6275 5855
4 4769 4770 4120 3850
4 4343 4345 4942 4979
4 3805 2293 3804 3523
4 4978 4977 534 3707
4 541 3522 3521 4930
4 4171 527 4962 536
4 4171 4978 535 4981
4 5055 3965 4630 4650
4 5781 4694 6095 5583
4 4546 5142 4651 4579
4 4597 4625 4554 5024
4 4534 4604 4626 359
4 4630 4604 360 359
4 4608 4630 4604 360
4 5823 5291 6093 4226
4 5159 620 5097 629
4 5129 4050 4048 5130
4 5204 629 4284 638
4 3343 5097 5204 5159
4 5159 620 4348 5097
4 5179 5136 5159 619
4 5158 618 5179 627
4 5157 5085 5158 618
4 5864 5230 5204 4284
4 3001 2972 3013 5341
4 5082 537 3150 4227
4 6197 4227 5083 4956
4 4953 530 4975 3116
4 6215 6191 4968 6192
4 4975 3116 530 529
4 5001 5007 3850 547
4 3891 5001 4975 4987
4 3149 5083 1499 3150
4 3709 3941 3757 3942
4 5817 4731 5400 4434
4 3751 4054 5400 6062
4 3556 5817 4731 5400
4 4317 4322 4054 4055
4 3051 194 2197 195
4 3051 195 3052 1202
4 3051 2197 194 2196
4 3221 3051 3052 3224
4 3221 3222 2197 2188
4 3284 1184 4503 2572
4 3284 193 2196 194
4 3221 3223 3701 3224
4 3388 4184 5271 5995
4 2873 3386 3388 2897
4 4633 5996 4183 5314
4 4634 5990 5368 5342
4 3870 5887 4071 4073
4 4184 5987 1224 1233
4 4184 1225 5271 5995
4 5314 4071 5887 1215
4 5887 1216 4071 4073
4 5136 620 5159 619
4 4908 5136 611 4348
4 5085 4167 610 4999
4 3344 5136 4908 4348
4 5289 5316 674 683
4 5155 5278 665 674
4 4915 6010 3387 5442
4 2882 5391 4161 5306
4 5258 5254 5217 657
4 3654 3253 3655 5391
4 5753 5241 5969 6232
4 5230 638 4284 5300
4 5140 5872 6220 1606
4 3236 4049 5923 3619
4 2612 4108 5962 4883
4 5729 5730 5672 1945
4 3794 5647 4901 5641
4 5269 5211 669 5296
4 5099 6205 6180 5216
4 4061 5215 5626 5216
4 3089 4971 4199 5746
4 5354 6223 2084 4623
4 4199 1520 5746 1521
4 6203 4973 5746 1520
4 6224 6218 5212 5592
4 3982 5778 6176 6188
4 4940 5744 6190 1512
4 6168 5347 6172 1466
4 3586 6167 6166 6172
4 6194 5096 4242 4974
4 5099 5100 6180 6205
4 6207 6188 2011 2010
4 5345 6166 4250 5619
4 4055 1805 1796 263
4 6273 1805 4055 6049
4 4055 1805 262 6049
4 3751 5533 3750 4541
4 4432 4430 4399 5260
4 4983 4978 4171 4981
4 5009 4978 543 4993
4 5680 4964 4978 4993
4 5487 5039 5490 5033
4 4112 5722 5715 923
4 4112 155 5722 923
4 5722 1959 156 155
4 5679 5722 156 932
4 5679 5722 5720 5741
4 4112 5715 5740 6291
4 5487 5039 5015 5069
4 5485 5032 4994 5033
4 3199 3206 5067 3196
4 3206 579 3196 578
4 5032 5033 561 4994
4 5032 561 5033 562
4 6188 3587 5882 6176
4 5334 5612 6163 6166
4 5346 1485 5345 1476
4 5345 4250 3571 5619
4 6166 6172 1475 1474
4 6167 6166 6172 1475
4 6166 5334 3586 6163
4 6302 6031 3659 6032
4 3571 5345 4920 4249
4 4889 4248 494 485
4 3544 3553 3546 3545
4 4117 4116 1460 1461
4 5047 4873 4856 4910
4 4372 4374 11 1755
4 3974 3976 4429 4383
4 4372 1754 11 10
4 4372 4370 1754 10
4 4405 4368 6046 4370
4 4405 4372 1754 1755
4 4100 4618 403 4096
4 4100 412 4717 411
4 4617 4618 404 403
4 3833 4717 4617 4705
4 3282 5709 921 4737
4 6288 5740 5733 5741
4 5758 1970 5733 5731
4 3553 6087 6091 6067
4 3283 5668 3282 5719
4 5712 3947 467 466
4 5043 4247 4863 4698
4 4863 4247 476 4698
4 4873 4856 483 484
4 5263 3300 3544 3298
4 1444 4858 1453 4864
4 4378 3948 4818 4864
4 4863 476 4247 485
4 5047 4863 4889 4856
4 5028 3742 5031 5461
4 4929 3227 3011 3742
4 2502 2504 3009 6071
4 2503 5317 1793 5319
4 1775 1784 4212 6082
4 3553 5609 5262 6087
4 3442 2684 2685 3439
4 3936 5972 4012 4011
4 2504 5317 1784 1793
4 6219 5920 5205 5872
4 5179 628 5181 627
4 6221 1598 5158 6220
4 5867 6316 5868 2086
4 5868 2086 6316 2095
4 6202 5868 6316 2095
4 2929 5998 2539 3253
4 6021 5833 5853 4237
4 5813 6316 2086 2087
4 5471 5865 5814 5813
4 4221 4685 4222 825
4 4637 4646 4222 4685
4 4641 5567 4222 816
4 4685 816 4222 825
4 5558 4566 4646 4587
4 5558 4219 4622 4646
4 3381 4288 3379 3380
4 4753 4181 417 426
4 4792 4793 5648 871
4 4707 870 34 861
4 4148 410 4729 409
4 4730 5568 409 408
4 4728 419 4754 428
4 3538 4622 5141 4658
4 5141 4683 4622 4638
4 4646 4641 4685 383
4 4660 391 4647 400
4 4646 373 4587 4566
4 4683 4638 390 381
4 4622 382 4638 381
4 4683 381 4658 4622
4 5067 588 3196 579
4 3204 580 5067 579
4 5017 572 4966 571
4 5032 3204 570 571
4 2848 2857 5059 4190
4 4844 915 39 906
4 4844 38 906 39
4 4865 4844 4843 915
4 4844 4815 906 38
4 4844 4815 473 5649
4 4865 4885 4159 482
4 5691 1950 154 1941
4 5691 6291 1950 4800
4 5691 1941 154 153
4 5706 5691 4800 6291
4 4112 5706 5715 6291
4 4334 153 5691 905
4 5681 896 4334 905
4 6330 6208 5681 4341
4 6230 4800 5706 4341
4 6263 1879 3330 6130
4 4613 6131 6263 6130
4 6263 3330 1879 1880
4 6263 3330 1880 5569
4 4286 6263 6278 1871
4 4635 4139 3961 4706
4 5066 4045 4359 1190
4 2689 3446 3449 5068
4 3696 5952 5282 3695
4 4714 3705 5944 5963
4 4756 4781 1206 4071
4 5963 3744 1172 1181
4 5648 4793 870 871
4 5594 5604 852 853
4 4754 32 852 33
4 4709 4645 436 437
4 3792 3124 3119 4917
4 3653 6161 6160 4883
4 6032 5478 5479 4989
4 6160 1448 6161 1447
4 4827 4883 6160 4829
4 3251 6347 5372 4257
4 4461 309 4458 3433
4 4480 4479 320 311
4 4461 319 4476 318
4 3957 764 4488 755
4 4458 4149 317 318
4 4459 4395 291 300
4 4461 309 3432 310
4 5436 5422 3393 3400
4 2994 2999 5700 4552
4 4512 4477 6331 325
4 5964 6094 4090 4096
4 6094 6100 4229 1364
4 3083 5625 4746 6121
4 6094 4229 4090 4671
4 4229 4090 393 384
4 4648 4649 377 376
4 4042 377 4650 378
4 4539 354 4544 355
4 4563 4590 355 4544
4 4539 354 4435 4544
4 6279 4490 4489 4590
4 4539 4544 4563 355
4 4620 4563 4668 4596
4 3536 4539 4636 4586
4 3249 3252 6308 5875
4 5454 5445 6039 4098
4 2647 4214 3139 5686
4 2686 3742 3703 3011
4 5078 5144 615 4986
4 5188 5079 625 634
4 5154 616 5144 5147
4 5194 5188 635 634
4 5072 5188 5154 2890
4 5149 5154 5072 5846
4 5072 5188 2890 5858
4 5919 5073 5072 5846
4 2868 573 2849 582
4 2505 2258 2828 2256
4 2849 583 4350 2505
4 3146 4152 3660 4187
4 3249 4847 4848 4849
4 2830 2817 1552 1551
4 3997 1562 1553 2505
4 2849 2848 4190 2858
4 2258 2505 4350 592
4 5994 6019 6008 5995
4 2885 3417 2887 3365
4 6250 1219 1220 1229
4 3450 3396 6250 6007
4 5791 6011 3386 6019
4 5270 6006 1218 1217
4 4620 798 4668 807
4 4489 4490 4545 4590
4 5558 4566 4668 5567
4 5567 4222 816 817
4 4681 5567 817 4222
4 4620 4641 5567 4566
4 4646 4685 4641 4222
4 4641 4685 816 4222
4 4620 27 4641 374
4 4722 5877 4611 4693
4 3548 3401 4799 5964
4 4693 6100 1355 4230
4 4649 368 4630 4650
4 4649 368 4650 377
4 4722 1337 1346 1345
4 4626 359 4630 368
4 4693 1345 4722 1346
4 4603 4626 4605 367
4 5280 5385 5372 5279
4 3965 4626 4721 4723
4 5781 4694 4676 6095
4 4192 5529 4218 5530
4 4676 4694 1335 6095
4 4676 4694 1334 1335
4 4317 6273 1804 1805
4 4317 4318 4055 1796
4 4318 1787 264 1796
4 4318 1257 264 6058
4 4316 4315 6058 1787
4 4171 536 4980 4981
4 4980 4943 978 969
4 4980 46 5012 545
4 4962 4943 969 4944
4 4273 6235 5181 5182
4 4273 5181 636 5182
4 6235 5993 1616 5182
4 6235 6220 5180 1607
4 5181 6235 6220 5180
4 4273 637 5230 646
4 5181 6235 5180 5182
4 5921 5872 6219 6220
4 4725 5250 5125 4333
4 6072 5527 5439 5565
4 6072 5560 3160 5565
4 4332 4725 4333 1844
4 6004 3160 4673 5561
4 3058 4352 3820 5287
4 4626 4630 359 4604
4 5669 4626 4604 4630
4 4482 5814 5635 5848
4 5814 6216 2078 5848
4 5865 5813 5812 5814
4 6306 2032 5785 2041
4 5759 2040 164 2031
4 5789 5759 5771 995
4 5782 4169 6162 5771
4 5797 2023 5783 2032
4 4521 6306 2041 2040
4 5759 5815 4945 1004
4 5782 4169 5771 4945
4 4952 5093 5612 5094
4 6194 5096 4974 5939
4 5096 5939 5095 1509
4 4242 4974 5096 1510
4 5096 4974 5939 1510
4 5093 5612 5096 1500
4 5096 5095 1500 1509
4 5619 4250 5612 6166
4 5107 3505 3506 5467
4 3506 1731 5467 3505
4 4511 5311 5446 5310
4 5436 3393 5422 5421
4 3393 5421 1731 1722
4 3393 5421 1722 5422
4 4752 4579 5553 4148
4 4724 417 4753 4181
4 4728 4754 419 4729
4 4765 4180 426 435
4 4753 4730 418 417
4 4728 4753 4730 418
4 4707 861 5648 870
4 5684 4238 4877 4845
4 5061 5747 4859 4928
4 4158 4159 472 5649
4 5727 5647 5728 5710
4 4159 4845 4843 4844
4 5684 3793 4159 4160
4 4880 4160 481 480
4 5212 5592 3693 6224
4 5482 3499 2522 4810
4 4826 5138 3859 5909
4 5692 3649 5257 5806
4 2080 3861 2081 5138
4 4826 4060 5831 5449
4 4390 5643 5406 4155
4 6319 2080 5156 3859
4 6319 2079 5156 2080
4 5542 1798 4064 1807
4 5542 5562 1806 1807
4 4078 6104 3027 5554
4 6073 4065 4064 1799
4 3757 6039 3942 4097
4 5542 5562 4216 5475
4 6042 6043 3756 6344
4 6042 4099 4097 4064
4 5228 6316 5813 5088
4 5813 5814 6216 2078
4 5834 1040 5851 1049
4 5813 6316 2087 5088
4 5867 5813 2086 2077
4 2383 3019 3846 2379
4 4281 1881 4286 1872
4 4610 4286 6263 6278
4 5578 5579 839 4101
4 4285 4019 4144 4286
4 4799 4650 4648 4649
4 6004 4673 5560 4674
4 6127 1881 4281 1882
4 4565 6170 4619 379
4 4741 1882 6089 1883
4 4080 744 20 735
4 4461 310 4480 319
4 4407 1760 4427 4408
4 747 4209 748 5446
4 4397 4479 4547 753
4 4080 4475 311 4479
4 3429 4480 4461 3432
4 4319 4476 319 328
4 3428 4461 4319 4476
4 4347 5881 2127 2136
4 4347 5881 2136 6231
4 4346 5881 4205 2127
4 6327 2137 6322 2138
4 2138 5315 2129 6322
4 5232 4346 5169 2119
4 4697 6181 6061 5793
4 6325 6231 2136 2145
4 6280 4360 6322 6229
4 3702 5481 3517 6063
4 4430 5028 6177 6339
4 3987 3494 5504 6065
4 3470 3389 3395 3394
4 6262 5505 4013 5504
4 6063 1709 3517 1700
4 5481 6069 1718 1709
4 4011 6035 6271 6055
4 5481 6271 1718 6069
4 5717 5662 1464 5633
4 3457 3592 5777 4988
4 2298 2637 2388 2390
4 5773 6176 2001 6188
4 5773 6188 2001 2002
4 5760 5761 2002 2003
4 2533 6007 6250 1228
4 3383 2199 2671 2592
4 4357 6011 1656 4358
4 2897 3388 6008 5791
4 6022 3978 2442 1663
4 2533 6008 1227 1236
4 3838 3529 2857 5059
4 2817 4046 1552 1543
4 2816 2830 2817 4046
4 2848 4189 4190 5059
4 4960 2817 1543 4046
4 5193 58 5247 653
4 5247 1086 59 58
4 5193 5247 5243 653
4 5285 5247 59 662
4 5245 5237 5285 5307
4 5003 6280 2584 2956
4 5193 5243 5546 5272
4 5919 4501 4507 4506
4 5797 6306 2032 5785
4 4084 6338 5776 5769
4 6305 4085 2014 4087
4 6304 6305 2014 2013
4 5786 2013 161 2004
4 5769 5776 5774 967
4 5786 160 2004 161
4 6166 1474 6163 6172
4 3813 5778 2009 6176
4 5334 6163 5612 5613
4 5778 3982 5917 6207
4 2711 3534 3531 3530
4 5094 5096 5614 5095
4 4251 1503 4249 1494
4 5902 3787 4453 3785
4 4453 5421 3785 1732
4 4018 5361 3953 5447
4 3252 5824 5811 3743
4 4453 1741 5462 5467
4 4508 4453 5462 5467
4 3506 1731 3393 5421
4 1740 5467 1741 1731
4 5439 5528 1842 5563
4 5576 5439 5527 5565
4 5439 6274 4332 1843
4 6110 5298 5435 5125
4 3251 6347 5951 5372
4 5439 1843 4332 1852
4 6087 5262 5557 5556
4 5185 5189 5571 5511
4 4570 4572 1831 1840
4 6088 1320 1312 1321
4 6037 6090 1313 1312
4 5571 6037 5511 1322
4 6257 4510 270 1766
4 1765 5465 6081 4510
4 3249 6308 3251 4847
4 4510 1765 271 270
4 4326 4510 271 1684
4 5304 4206 1763 5382
4 6166 1483 6163 1474
4 5807 1474 6163 1473
4 5346 3571 6196 3807
4 3586 5807 6187 6172
4 4952 5613 5612 6163
4 5615 5094 5096 5614
4 6005 6254 2173 2172
4 6018 5787 6236 4872
4 5191 2445 2442 2444
4 4357 1655 5191 1646
4 4871 4872 6249 4869
4 2444 2889 4357 5190
4 3978 2443 2669 2668
4 2357 2899 2359 2354
4 3540 4236 6343 5517
4 4224 353 4586 362
4 3180 3920 5559 6179
4 4207 3920 3700 3384
4 5843 5073 1060 1061
4 3977 5154 5078 5144
4 3993 5844 2913 5364
4 5146 5127 4182 608
4 5843 1052 5364 1061
4 5364 5836 1061 1062
4 3614 5806 1574 1573
4 5220 5143 5221 6225
4 4360 1609 5214 5110
4 5171 1583 6225 1592
4 5003 5570 6229 5651
4 5642 5022 3649 5056
4 5806 3649 5257 1564
4 6076 1574 5806 4888
4 4189 5059 575 4190
4 4189 4190 575 574
4 3531 4350 4189 584
4 3532 3660 585 594
4 4350 2505 2258 2828
4 2830 2816 2856 2829
4 3130 3690 2830 1551
4 4196 4197 6217 3338
4 4778 4765 4733 4763
4 4765 4753 426 4180
4 4708 4709 4645 4793
4 3407 4733 3580 4763
4 3378 4792 3380 3376
4 3381 4288 3380 4792
4 5618 4728 5648 4709
4 5903 4181 4753 4180
4 6042 4098 4097 4099
4 6073 1800 4400 4065
4 3422 5016 3755 4451
4 3251 6347 4848 4847
4 5476 5466 5474 752
4 3755 4451 5016 750
4 3756 5016 4215 4006
4 4451 5016 750 759
4 5440 4368 4424 6053
4 3975 3894 3976 3971
4 4382 14 4068 282
4 4424 4429 280 4374
4 6268 6267 1746 1747
4 4380 6267 1747 1756
4 6268 1738 6266 1747
4 4461 3433 3432 309
4 300 3432 4459 4457
4 4457 300 3432 309
4 4403 5462 1741 1750
4 4139 4706 850 859
4 3578 4139 4232 4141
4 3959 1905 3961 4232
4 4635 4139 4706 5607
4 4706 849 5607 850
4 3578 148 1896 149
4 3578 1905 149 1896
4 3960 3961 3962 868
4 3101 4232 3233 6285
4 1905 3959 6285 4232
4 2853 3120 947 3133
4 3476 3981 3571 5619
4 3362 5690 4906 6014
4 5489 5014 5076 5794
4 3354 3357 3358 3355
4 5810 4122 1009 4450
4 2349 3481 3475 2347
4 3573 2600 3533 5357
4 4958 4991 962 963
4 4311 4958 4905 4991
4 5440 4405 5417 6268
4 4405 1754 4372 4370
4 4405 6046 1745 1754
4 5762 4836 4303 4449
4 4568 5365 5762 3527
4 4405 5417 6268 1746
4 5762 4449 4303 6053
4 5467 3825 5107 3505
4 3252 6308 5811 5824
4 5415 5414 4428 4129
4 3825 5462 1740 5467
4 4068 14 1758 15
4 4427 1751 4455 125
4 4477 6078 325 334
4 2302 2305 2304 3041
4 5938 5284 4849 5932
4 5894 5495 5931 1115
4 5225 5932 1122 1123
4 5245 5237 662 5285
4 5894 1115 5931 1114
4 5907 5326 5225 5932
4 5309 5308 5195 5894
4 5326 5224 689 680
4 5195 5328 5308 5329
4 5931 5495 1124 1115
4 5938 5932 1123 1132
4 5281 5331 5284 5932
4 5225 1123 5931 5932
4 3891 3665 6184 5001
4 4168 4994 560 4163
4 5052 3208 5081 5053
4 4168 560 4994 561
4 3204 579 3206 570
4 4473 314 4033 315
4 4839 5366 4442 4443
4 5925 4033 4035 306
4 4552 1290 4553 5700
4 3595 4473 4531 4526
4 4483 314 4473 323
4 5404 5941 5283 1134
4 5975 5931 5495 1124
4 4021 5952 5960 1144
4 5875 5404 5941 5283
4 4191 5959 5966 1152
4 3613 1573 3649 5806
4 3613 3649 3691 5806
4 5692 3649 5021 5022
4 3613 5642 5570 5232
4 5056 3648 1563 4349
4 3613 1572 5642 3649
4 5558 4646 4622 4587
4 4539 5558 4587 4566
4 4711 818 4681 4684
4 4688 800 4236 809
4 4688 4684 809 5517
4 5870 4688 4668 5508
4 4221 835 4580 5553
4 4684 809 5517 818
4 2892 2895 6313 5874
4 2892 2895 5077 6313
4 5431 1037 4237 1046
4 6199 6202 4154 6200
4 4052 3747 4010 3749
4 6293 5863 4389 6317
4 5856 5841 1055 1046
4 3250 3252 5875 3743
4 5077 2913 1044 1053
4 5406 5643 5644 1064
4 4528 2341 6239 2343
4 6307 5927 5297 5862
4 6307 5985 5899 5862
4 6293 5862 5878 5927
4 5255 5409 1083 1092
4 5256 5863 1075 5646
4 6072 5565 3160 5527
4 6344 5542 4064 5541
4 6104 5496 5513 5541
4 3139 5484 5051 4006
4 5261 4631 6060 5509
4 5562 4468 1815 1816
4 5542 5541 1807 4064
4 5562 4217 4467 4468
4 4130 4364 1693 1694
4 4326 1765 4510 5465
4 6339 6081 6082 5465
4 5425 4364 4130 1694
4 4326 5465 1764 1765
4 6259 5464 4326 1685
4 6261 4510 1684 1683
4 5464 4130 1685 1694
4 6259 4206 1763 1764
4 4103 750 3753 741
4 3758 4103 3755 3753
4 3609 742 5466 4103
4 3251 5951 6308 5824
4 4103 3753 732 741
4 5116 4103 3753 732
4 3758 5451 5454 4103
4 5118 5451 5116 5450
4 5117 5121 6258 1696
4 5116 4447 5450 732
4 5444 3609 743 5466
4 5466 4098 5444 3609
4 5506 6039 1781 5492
4 3391 3392 3507 5673
4 5122 5492 5304 4206
4 5303 6258 1687 1688
4 4392 4268 1867 1858
4 4268 2545 1867 1868
4 4267 4269 4268 1859
4 2544 1329 4325 4270
4 4268 4325 2544 2545
4 4228 3605 831 5605
4 4228 3605 822 831
4 3846 6263 4287 4613
4 4613 4228 5597 5605
4 4613 3845 4228 5605
4 4674 822 3605 4030
4 5203 5409 4384 3915
4 5440 4569 4424 3972
4 4836 4035 4302 4449
4 6330 6208 5677 5675
4 3866 3865 5664 4341
4 4789 3831 5675 886
4 3561 5677 3831 1923
4 4789 5677 6208 5675
4 5664 6208 4341 894
4 4739 919 4736 920
4 3295 5693 6214 6213
4 3262 2850 3264 3281
4 5904 5348 5893 1088
4 5895 5237 5071 5238
4 5236 5218 642 5170
4 5235 1080 5893 5192
4 5893 5349 1079 1088
4 5679 5741 5720 5737
4 5679 1977 157 1968
4 6288 5715 5720 5709
4 5698 4598 939 5152
4 5698 940 5743 949
4 5698 5719 939 4598
4 4602 5756 5741 6300
4 5719 4598 930 939
4 5668 5719 4598 930
4 3283 3466 4598 5719
4 3922 5755 1988 1997
4 3359 5769 957 5697
4 2840 3457 4121 4988
4 3361 6162 3360 3358
4 3356 3921 3357 3355
4 4922 3871 5780 4919
4 5558 4684 4681 5567
4 4637 382 4646 383
4 4681 4684 817 5567
4 4221 4580 835 4220
4 4895 4219 4579 5142
4 4658 4587 4622 372
4 4680 4711 4681 4684
4 3699 6001 5375 5522
4 4678 4660 390 4638
4 4579 5553 4647 4221
4 3539 4688 5517 4684
4 4221 5553 834 835
4 4221 4582 834 5553
4 4647 5553 4148 4710
4 4682 3323 4220 836
4 4580 835 4220 836
4 6178 1488 4245 4916
4 6178 4245 1488 1497
4 3801 6341 3802 4916
4 6191 1497 6178 4968
4 6344 4215 4451 4216
4 5119 5121 5117 4314
4 6073 4064 6043 4097
4 4451 4216 760 4452
4 3755 4451 751 4452
4 4334 1932 153 152
4 4334 5691 153 1941
4 4334 3830 896 5675
4 5694 1942 5708 4800
4 4385 5936 5857 5203
4 4334 5691 1941 4800
4 5681 895 6208 5675
4 5955 4366 5229 4891
4 4856 6299 4889 5047
4 4246 496 4893 495
4 4385 5936 4727 5889
4 3948 3947 4818 4802
4 4093 4911 4918 4116
4 3463 4093 4116 4117
4 4911 4918 1461 1462
4 4110 4117 4116 1460
4 4879 4899 489 4902
4 4879 4902 489 4880
4 5684 4843 4159 4845
4 4880 481 4160 4885
4 4879 4814 4160 480
4 5736 4879 4902 4899
4 4845 4816 906 4815
4 5650 4817 4811 890
4 3099 5650 4817 4811
4 3119 5701 4917 5650
4 4917 5621 4840 4785
4 5832 2076 5851 168
4 5854 5851 5868 2085
4 5834 5833 1039 1048
4 5867 2086 5813 6316
4 5851 168 2076 169
4 5851 2085 169 2076
4 5832 5867 5851 2076
4 4219 5141 4638 5142
4 4579 5568 4660 4148
4 4580 836 4220 3323
4 4231 5979 4732 4288
4 4580 4278 845 3323
4 4580 836 3323 845
4 4765 4733 436 4645
4 5618 4709 4765 4753
4 5979 4729 4728 4730
4 4792 880 4817 4793
4 5618 4753 5979 4728
4 4792 4817 881 3376
4 3766 4667 4715 1377
4 2802 2800 2803 3763
4 4142 4745 1380 1371
4 4667 4715 1377 1376
4 4667 1376 5176 4715
4 5313 4995 6121 5395
4 3108 2769 3608 6107
4 5549 5175 5550 6118
4 6067 4267 1841 4413
4 6087 6088 4131 6090
4 4540 1821 4787 6075
4 5534 6227 6048 1293
4 6068 3353 6272 4132
4 3545 6270 4572 3546
4 6091 1848 5557 6092
4 3553 4572 6067 6091
4 4345 4991 971 4979
4 4345 4996 4342 4942
4 4345 4996 980 5014
4 4343 4345 4979 4991
4 4345 5014 980 981
4 5014 4345 4996 4342
4 5486 5018 3480 5488
4 5030 4983 4943 4942
4 6289 1920 5655 5624
4 6289 5655 1920 1929
4 4498 6289 5655 5624
4 2921 6283 4498 2332
4 4853 74 208 3
4 4852 74 4853 708
4 4853 208 75 3
4 4852 5336 4853 1230
4 4853 1679 75 208
4 4854 4855 4853 1679
4 4840 5650 5701 898
4 4816 4815 897 906
4 4784 464 4815 5649
4 4845 4844 5649 4815
4 3792 4816 4845 5649
4 4238 907 5701 908
4 5579 840 5607 849
4 3050 4706 5579 5607
4 3677 5579 4101 5607
4 5579 839 4101 840
4 2982 6334 4499 3570
4 2376 4029 3615 4020
4 2383 3677 3848 3845
4 5236 5248 5239 651
4 4421 5236 5239 5026
4 6129 5627 6153 6243
4 5236 5218 5243 643
4 5236 642 5218 643
4 4928 4813 935 934
4 4310 3639 5514 3317
4 4813 926 4877 4876
4 4814 4160 5800 4879
4 4921 5588 5590 5589
4 4812 4859 933 934
4 4813 926 4876 935
4 5533 3752 5499 6052
4 4573 1829 4787 3546
4 4385 5983 3914 4726
4 6335 4716 3333 6074
4 5294 5167 5261 4725
4 4631 5496 1827 5509
4 3482 4412 3909 3908
4 4677 4478 6331 5370
4 4917 5650 5621 4817
4 4768 4840 5621 4785
4 5621 4817 880 4793
4 5621 880 4817 889
4 4840 5621 889 888
4 4768 5621 4645 4785
4 2487 5658 5674 4965
4 5598 6100 1363 1354
4 4629 3737 5598 5964
4 5734 4618 4043 4616
4 4693 6100 5598 1354
4 4675 1344 4694 5583
4 5877 5781 4723 5583
4 5645 4390 5406 4384
4 3401 6112 5598 5657
4 4671 4090 4096 393
4 5573 6094 5964 4096
4 5734 3827 4616 4041
4 5657 5598 1363 1362
4 4100 402 411 4691
4 5468 4479 744 753
4 738 3953 737 4448
4 4488 3956 3957 755
4 4397 4319 329 4320
4 3429 3430 3431 3427
4 5468 753 4547 4479
4 5468 4547 4480 4479
4 4475 4480 310 311
4 4397 21 753 22
4 5976 6143 6123 4803
4 6123 6143 1417 4803
4 6123 1416 4328 5977
4 4329 5977 5976 6123
4 6123 1425 4328 1416
4 6326 5713 6123 6143
4 5861 5862 2130 2121
4 5861 2130 174 2121
4 5861 2121 174 173
4 5860 173 5861 1085
4 5899 5862 5861 5863
4 5960 5388 5966 1153
4 3721 5973 3724 3726
4 5924 1145 5952 1146
4 3697 5924 5952 1146
4 4022 5960 5924 5944
4 4951 4362 510 4882
4 4951 4355 4362 4882
4 4366 1480 4355 4916
4 2281 1481 4366 1472
4 4951 3117 511 3633
4 4362 4891 502 501
4 1481 4882 2281 4355
4 6341 3116 4956 3117
4 4384 5409 5857 5645
4 3678 4548 5748 4504
4 3596 4526 4600 4504
4 3943 4364 5425 5461
4 6345 6340 3027 3029
4 4431 4430 3944 5028
4 6339 3944 4130 5465
4 4430 4399 5491 5319
4 4399 5491 1782 5492
4 3894 3976 289 288
4 4380 3973 4301 6266
4 3552 1270 4509 1279
4 299 3976 4395 290
4 3976 3971 298 299
4 297 4569 5510 3894
4 4429 281 4383 290
4 4381 12 1756 13
4 4429 6267 1756 4374
4 3594 4548 5772 3901
4 5273 4192 4218 5530
4 5323 4561 4548 5748
4 4548 5748 1300 1301
4 3686 3679 312 4401
4 3595 4483 4473 4526
4 2996 5772 4561 5801
4 4548 4561 1300 5748
4 5050 1005 49 996
4 5050 48 996 49
4 4113 996 5050 48
4 5069 5054 5017 5050
4 4113 5039 563 5050
4 5069 5054 1005 1006
4 3519 3312 4386 5891
4 5904 5329 5348 1097
4 5308 1097 5329 1106
4 5895 5907 5238 5225
4 2880 5211 5265 5269
4 3672 3914 4385 3915
4 2924 2772 5441 3620
4 5908 5894 5495 5931
4 6324 5546 5272 5348
4 6332 5243 5245 5236
4 4275 1651 5244 5240
4 3620 1631 2973 5969
4 4304 4298 4292 5335
4 5295 5751 5585 5344
4 5240 5397 6232 1641
4 5397 5969 1641 1640
4 5238 671 5071 680
4 5894 5931 5225 1114
4 2580 2581 2478 2479
4 5237 662 5285 671
4 3795 4875 5684 3791
4 3040 4593 5703 3402
4 5653 5721 5730 6113
4 4881 3559 4328 4239
4 5519 4594 4593 4595
4 4788 4761 4595 440
4 5935 5915 176 1112
4 2371 5910 2372 1111
4 5911 175 5915 1103
4 5150 5698 5696 5697
4 5698 5697 5152 948
4 6186 5743 5718 6173
4 3466 5698 4598 5719
4 5956 68 714 715
4 5956 1176 68 67
4 5951 4258 1177 5824
4 4077 5957 706 715
4 5350 5957 705 706
4 5350 4847 4848 6347
4 5951 5824 1177 1168
4 3498 5582 5837 4058
4 6318 2152 5981 2151
4 2362 2851 2854 2850
4 4807 2035 5452 2026
4 5101 5100 6198 6180
4 4954 6190 4252 5802
4 5099 5100 6205 6101
4 5837 3498 3487 6102
4 5453 2017 3813 2018
4 4754 4712 32 419
4 5594 5553 844 843
4 2485 5652 2519 5305
4 4712 843 32 31
4 4732 5594 853 5604
4 4288 862 4732 863
4 4707 4754 5648 861
4 4729 4730 409 418
4 4752 5568 4729 4730
4 4282 4280 4062 4124
4 6089 4147 4742 1883
4 5379 5378 1876 1875
4 5852 5853 5833 1048
4 5850 1065 5643 1056
4 5850 1066 5646 1065
4 5833 1048 5853 1047
4 5841 1047 5853 1056
4 5852 5854 1058 1049
4 6200 5859 5850 5853
4 4154 6202 6316 5089
4 5852 5869 5859 1058
4 5833 4237 1038 1047
4 5833 1047 5853 4237
4 5227 3239 4154 5228
4 6199 5852 5853 5833
4 6318 5980 5946 5892
4 5821 5833 1038 1039
4 6247 5206 2132 5297
4 5927 5207 2123 5878
4 5143 2990 2987 5898
4 6290 5206 2124 2133
4 5206 5927 2123 2132
4 5546 5307 1096 5308
4 5348 5308 1096 1097
4 5348 5893 1088 5349
4 5348 5308 1097 5329
4 5546 5247 1086 1095
4 5309 5245 5307 5237
4 5592 6218 5593 5623
4 3861 2081 6218 2090
4 2725 2755 2726 5820
4 6224 2083 4623 2092
4 3025 3372 3054 3053
4 5263 6092 5268 5267
4 6110 6111 5565 5439
4 3054 3452 775 784
4 4236 5532 5559 3920
4 3594 3901 4069 4548
4 6169 4081 4225 4636
4 6326 4761 4776 4759
4 2310 4720 4705 2309
4 4594 4761 6152 4595
4 4720 4038 440 4595
4 4038 421 4705 422
4 5911 2139 6239 5915
4 5911 5985 2139 2130
4 5899 5255 1084 1093
4 3734 2372 5847 5914
4 5847 1101 2372 1110
4 5906 2372 1101 1102
4 5847 2372 5910 1110
4 5840 5845 5914 1100
4 6346 4812 4813 4928
4 5045 5046 5061 4823
4 4899 5725 4923 498
4 3638 4936 4813 4876
4 5683 4884 4902 4880
4 3640 5725 5061 5046
4 4859 5723 933 942
4 5061 5725 4823 4907
4 4914 4855 5384 1670
4 4854 3874 6009 1678
4 4854 1670 4855 1679
4 4455 4456 126 1742
4 4855 4853 1679 75
4 4455 4404 718 719
4 5945 5997 3066 2159
4 2340 5910 4657 4204
4 2340 4655 5886 3716
4 3066 3717 5886 2168
4 3728 2167 5886 2168
4 4655 5886 3728 2167
4 3656 3657 2193 3849
4 3727 4657 3729 5947
4 4655 4656 2157 2166
4 2340 4657 2371 4655
4 5385 1194 70 69
4 5385 5373 1185 69
4 5279 1195 4256 5369
4 4257 5279 5280 5372
4 5990 5385 5279 5369
4 4407 4427 1760 6260
4 4382 4402 3824 4383
4 4427 6260 1751 1760
4 4427 4455 4404 718
4 5414 726 4129 717
4 4455 1751 1742 125
4 4031 4411 4407 4402
4 5334 3982 6188 6207
4 3586 5619 6166 5345
4 4242 4250 1493 1501
4 6318 5980 5892 6244
4 3716 5886 3065 3717
4 4927 5495 5975 5908
4 3066 2168 5886 2159
4 3857 3066 2169 3717
4 4084 6305 4087 4085
4 3361 3360 3872 3362
4 2837 3811 3813 2840
4 4083 6304 4085 5783
4 4169 985 5771 994
4 6162 975 4259 3360
4 6162 5775 985 976
4 3071 5946 6318 5997
4 3797 3593 4262 3796
4 3991 4537 4557 4535
4 5670 6285 4804 1916
4 3504 5569 1890 1889
4 3504 1889 3329 3330
4 5049 1007 5010 1016
4 5049 1016 5010 5666
4 5665 5818 5049 5666
4 4151 4713 5432 5431
4 5036 998 5011 1007
4 5034 5035 5053 1014
4 2949 5052 5818 3208
4 3716 3728 5886 3717
4 2846 2847 3485 3486
4 5947 3729 4665 5423
4 4655 3716 3727 3728
4 3728 2168 5886 3717
4 3553 6087 6067 6068
4 6091 4267 1849 1840
4 5267 3546 1839 1838
4 5268 5267 1847 1838
4 3865 903 4735 902
4 4734 911 3272 4735
4 5674 5664 3865 893
4 3866 5664 6208 4341
4 6208 5664 4789 885
4 3865 894 4341 903
4 3128 2118 5169 4205
4 5106 3208 2948 5053
4 2119 5651 5232 4346
4 3128 5169 2118 2109
4 5169 5021 2100 3127
4 5169 2101 5232 2110
4 3128 5169 2109 3127
4 3128 5169 3127 5168
4 5627 6153 6243 6318
4 1857 4089 1866 4392
4 4146 4147 1875 5378
4 4294 4392 4146 4089
4 4146 4147 1874 1875
4 4493 4268 2545 5378
4 4346 5169 2118 4205
4 4346 4205 2118 2127
4 2956 4346 4347 5881
4 4233 5169 4346 4205
4 6322 2128 5651 2129
4 4346 2127 4347 5881
4 5004 6225 5171 3614
4 2956 4346 5651 4347
4 6325 4347 2136 6231
4 6280 6327 6325 4347
4 6327 5109 4851 2147
4 6182 6325 6245 6321
4 5219 4347 6325 6231
4 2248 2253 2551 2549
4 6137 6135 3933 2731
4 6132 6150 1939 6138
4 5603 1410 4223 5659
4 6140 6138 1939 1948
4 6132 5603 5659 1401
4 5884 5882 5711 5735
4 5457 1983 5735 5479
4 5884 5735 5711 1992
4 5711 5735 1983 1992
4 6302 5459 5501 5524
4 6302 6161 3659 6168
4 5457 1984 5459 5711
4 3331 3224 3418 3223
4 3701 3223 3418 3224
4 4290 3720 1191 1200
4 3418 1201 3224 1210
4 3701 3418 4290 1201
4 6234 5768 5984 5993
4 6232 5984 1632 5969
4 4274 5276 5253 5278
4 5241 5240 5397 6232
4 5360 1658 1650 1659
4 6232 1641 5397 5969
4 6232 5969 1632 1641
4 4108 5347 1458 1467
4 1484 6166 4250 5345
4 6168 5962 5347 1457
4 5615 5612 4250 4242
4 4108 5347 5962 1458
4 5882 3490 5884 6176
4 5615 5619 4250 5612
4 5878 5207 2114 5879
4 5878 5862 2122 5927
4 4393 5927 5878 5207
4 5878 5927 2122 2123
4 5646 6293 5256 5863
4 4917 4817 3099 5650
4 3123 3580 4794 4782
4 4917 3124 3119 3123
4 4794 453 4760 462
4 3119 4867 5701 5650
4 4768 5621 4840 888
4 3099 4811 4817 3376
4 3580 4782 444 453
4 3097 3791 3119 4867
4 4582 4685 825 29
4 4582 825 30 29
4 4637 4221 4685 4222
4 4710 4582 30 401
4 4579 4148 4647 5553
4 4221 834 4582 825
4 5289 5278 5242 5155
4 4292 5316 5289 5335
4 5240 1641 6232 1642
4 4274 5752 5242 5278
4 1650 1641 5360 5240
4 4111 681 4105 690
4 4275 1652 5226 4201
4 3790 3347 3346 3098
4 3792 4784 4840 4816
4 4867 5650 4811 899
4 3792 4784 4816 5649
4 3124 3123 4760 4794
4 3793 4158 4159 4160
4 4845 5701 907 4816
4 5027 991 5779 5780
4 5027 6155 5779 990
4 3873 3872 973 3876
4 3873 4259 983 974
4 3875 3872 3876 3362
4 2592 2200 198 197
4 2592 2569 1229 198
4 2532 1229 2592 2569
4 4830 1672 2436 1671
4 1219 6007 6250 3396
4 2443 2190 2671 3153
4 3438 4149 3437 4458
4 5468 4547 753 754
4 3429 3428 4461 4480
4 6219 6221 6220 5872
4 3343 5204 5097 4284
4 6219 6221 5872 5205
4 5113 3341 5114 6219
4 5205 1596 5231 5187
4 5921 4273 5204 5230
4 5921 6235 5140 6220
4 5920 5231 5205 5872
4 6221 5205 1588 1597
4 5231 1596 5872 1605
4 3161 1569 3132 1570
4 3161 1579 5112 5114
4 2830 1561 3132 1560
4 4169 5804 984 993
4 5782 5771 6162 5775
4 4169 4259 984 5804
4 4481 4519 5805 4517
4 4519 4517 4195 1012
4 4519 5805 1011 5799
4 4193 4945 1003 4517
4 4518 5638 4519 5640
4 4517 4946 1002 5805
4 4151 6021 6024 5841
4 5821 1029 5432 5429
4 5821 5833 5432 1038
4 5821 5432 1029 1038
4 4522 2050 5636 2059
4 2623 3500 2597 5420
4 6030 5638 5838 5821
4 5865 6316 5867 5813
4 4114 1470 4918 4933
4 4890 4891 4094 4889
4 4889 485 4863 4247
4 4911 4117 1461 4116
4 5229 4918 4910 1462
4 5955 5229 4933 4918
4 4104 6253 5244 4201
4 4105 4107 691 682
4 4292 4107 5316 5335
4 5986 5359 1222 1223
4 4201 1652 1661 1660
4 6189 5986 5991 6269
4 5359 5987 1232 1223
4 4274 5242 4104 5316
4 2539 4628 5998 3486
4 4275 6000 1643 5333
4 4274 5316 4106 5278
4 4854 1669 5384 1670
4 4915 6010 5442 1659
4 5244 5240 1651 1650
4 6318 6153 6244 5892
4 4913 4107 4292 5362
4 4589 6248 4185 6253
4 6009 6020 1668 1677
4 3598 4836 4302 4839
4 3818 1307 3817 3820
4 2993 5399 3552 4134
4 3139 4078 5484 4214
4 3030 5251 3029 6340
4 4576 5477 782 783
4 3507 5029 6069 5673
4 3333 4573 4787 3546
4 2645 4632 3826 6335
4 5188 5198 2890 5858
4 4501 5194 5188 5858
4 5188 626 5154 2890
4 5919 5078 5188 5079
4 4320 762 23 22
4 4523 4320 23 338
4 4397 22 4320 329
4 6294 4319 4321 4476
4 4079 5468 745 3956
4 4575 4588 4615 772
4 5494 771 4615 772
4 3960 4706 858 3105
4 4699 4291 4474 856
4 3233 1898 3503 1907
4 5753 5241 6232 4274
4 5670 3959 3301 6285
4 4635 3961 4139 4232
4 4706 849 5579 5607
4 4967 5083 1507 4968
4 4967 6192 4968 1506
4 6183 5083 4967 4968
4 4967 6192 1506 1515
4 1525 6195 4769 6175
4 6195 1524 6175 1525
4 6184 6175 4967 5082
4 2945 4244 3835 4560
4 5855 6175 4120 4769
4 5001 548 5007 547
4 3892 6185 6184 3893
4 5058 1514 6192 1515
4 5444 3609 5445 5455
4 5474 1779 4098 1788
4 5474 1788 4098 4099
4 5259 3709 3758 3757
4 5119 5123 4314 5118
4 5466 5474 4098 4099
4 3755 751 5466 4452
4 3755 742 5466 751
4 5299 712 713 5385
4 5990 5368 702 711
4 5280 5990 712 5385
4 6269 4183 5996 5369
4 5940 5342 694 703
4 3783 70 5385 1194
4 694 693 5342 4203
4 6347 4847 5951 5957
4 5367 5368 4634 4298
4 6262 4014 1261 1252
4 6045 4426 6035 6055
4 5764 1263 6034 1254
4 5764 6057 1263 1264
4 4014 6034 6040 1262
4 4568 5365 5416 5440
4 6054 1245 6038 1254
4 4418 4066 285 4367
4 3516 4299 5480 3985
4 6262 4012 4014 4439
4 4836 4303 4302 4442
4 4148 4710 410 401
4 4148 5594 4729 4712
4 4710 834 5553 843
4 4647 4221 5553 4582
4 5753 5984 3543 5768
4 4710 4582 834 30
4 5963 1181 5066 3744
4 4663 4662 1156 4664
4 4128 5970 184 1155
4 4128 4663 5970 1155
4 3656 5427 4662 4664
4 3656 5408 1174 4503
4 5387 64 1140 65
4 5387 5353 1140 64
4 5387 65 4075 716
4 4077 5402 5956 715
4 5387 5351 4077 5393
4 4074 4076 4075 1158
4 2743 3272 3865 4735
4 4157 4026 460 4176
4 5729 3624 4984 5730
4 4921 3095 4173 5587
4 5632 4785 4733 4645
4 3016 4876 5716 4936
4 3347 4462 5301 4174
4 3999 891 4811 3376
4 4408 717 4129 17
4 4129 717 18 17
4 4129 726 18 717
4 4407 4427 5414 4408
4 4427 5414 4408 717
4 4427 6260 5414 4404
4 5036 5037 5011 998
4 5036 5049 1006 1007
4 5036 5049 1007 5010
4 5069 5050 996 1005
4 5225 1105 5307 5894
4 5328 5308 5329 1106
4 5894 5895 5225 5931
4 5894 1114 5225 1105
4 1104 5225 1105 5307
4 5328 5495 5894 1115
4 6339 6261 4130 4364
4 5318 6082 6081 4212
4 6177 6261 6174 6081
4 6174 6050 6257 6051
4 6261 6339 4130 6081
4 4269 1850 257 1859
4 4269 257 1320 256
4 4267 1850 4269 1859
4 4269 1859 256 4325
4 4267 6088 4269 1320
4 4251 4249 1503 4243
4 4249 1503 4243 1502
4 1502 4242 4243 4249
4 4242 4243 6190 1511
4 4250 1484 4249 1493
4 5345 4249 1484 1485
4 4920 5345 1485 4249
4 4250 1483 5612 6166
4 6194 5614 5096 5095
4 3812 5166 5164 2016
4 4240 3476 5619 5473
4 4242 4974 1510 1511
4 3498 6205 3487 4808
4 4950 5101 4974 5742
4 5837 6205 4058 5216
4 4244 4920 4249 3571
4 5093 5095 5094 2030
4 4724 4730 417 408
4 4536 4621 4535 4678
4 4494 4181 4542 4724
4 4724 4753 417 4730
4 5977 5395 3044 5313
4 4239 5977 5395 3044
4 6121 4746 1390 1389
4 5395 4239 1397 1398
4 4748 4744 4690 429
4 4720 2311 2310 3079
4 3977 5144 5092 5147
4 3994 5073 5919 5843
4 6315 6314 5354 6281
4 5919 5846 5843 5073
4 5148 5844 2894 2912
4 5844 1051 5163 1042
4 5843 1060 5846 1051
4 5844 1043 2913 1052
4 5364 5073 3994 5843
4 3977 3958 5844 5163
4 4253 5451 5450 723
4 5451 4103 733 3609
4 5451 3609 733 724
4 4447 741 5327 740
4 3758 5454 5466 4103
4 5324 1688 5303 275
4 5451 5116 5117 5118
4 3609 5117 5302 5325
4 5325 725 3609 724
4 5121 5434 1696 1695
4 3478 4163 5707 5104
4 6341 6197 4956 3116
4 2725 6275 2813 5091
4 5006 3196 3197 3198
4 3838 5103 3529 5048
4 5048 5013 567 5044
4 569 568 5102 4163
4 3892 6192 6185 5058
4 5102 4168 569 4163
4 4861 469 4796 470
4 5588 5590 5589 4894
4 3475 2347 3481 3491
4 3188 3584 3006 5589
4 6131 1870 6263 6130
4 3373 5522 5375 5537
4 5586 824 5564 5577
4 6111 6131 5586 5564
4 4612 4674 4614 6110
4 3561 1905 3959 6285
4 3301 6285 3233 4804
4 3233 1906 6285 4232
4 3233 3503 4804 1907
4 3579 1905 3561 1914
4 3959 3961 3579 3962
4 3286 3502 3103 3503
4 3960 4706 3961 859
4 6285 1907 4804 1916
4 2645 3826 5496 5463
4 6340 5496 5509 5513
4 5496 5463 1818 1817
4 5496 5513 1817 1826
4 5509 1835 4725 5544
4 2640 4003 3139 4006
4 5333 1633 6232 5982
4 5276 664 5275 5253
4 5333 5240 6232 1642
4 5333 6232 1633 1642
4 5275 5333 6232 5982
4 5183 5230 5767 5186
4 6092 5267 1848 1847
4 5185 5511 5571 6037
4 5571 5189 3687 1331
4 5557 4089 1848 1857
4 6087 6088 6037 4270
4 2497 5580 3700 5516
4 5268 6092 1847 5267
4 5263 3553 5262 5267
4 4267 4268 5557 1858
4 4392 5378 1866 1867
4 5557 1857 4392 4089
4 3071 5997 2342 3069
4 3190 3191 2660 3193
4 5209 6233 2134 2135
4 4530 6247 5946 5297
4 4528 6307 4529 4530
4 4530 5927 5206 5297
4 6318 5980 2142 5946
4 6247 2141 5297 2132
4 6247 5946 2141 2142
4 5061 6346 3638 4928
4 4961 4979 4824 961
4 5045 4178 4823 4824
4 4936 4928 935 944
4 5045 4178 5030 4177
4 4958 953 3639 954
4 4958 3639 953 4961
4 5224 5071 61 680
4 5071 1104 61 60
4 5071 5225 1113 1104
4 5285 60 5071 671
4 5895 5071 5237 5307
4 5238 5265 670 5269
4 5895 5071 5307 5225
4 5245 5237 661 662
4 5922 6240 5140 6226
4 5140 1615 6235 5320
4 5922 5872 5140 6240
4 5140 6240 1605 6226
4 4184 1225 5995 1234
4 3874 206 5249 1677
4 6010 5442 1658 5356
4 6010 1658 5442 1659
4 6020 6017 6251 1676
4 4185 5887 4184 5987
4 5992 1659 5244 1660
4 6003 1231 5359 5336
4 6248 5384 4854 1669
4 3832 5573 5964 4618
4 2446 2447 2449 3322
4 4750 5598 1362 1353
4 3401 5598 3737 5964
4 4759 6143 4803 6141
4 2594 3076 3044 3926
4 6141 438 4748 4759
4 4759 439 4761 448
4 5976 4803 4759 6143
4 4759 438 4748 4690
4 6142 5713 6143 1426
4 5508 791 5532 800
4 4688 4236 800 5532
4 4688 4684 808 809
4 6298 4588 5497 5494
4 5497 782 5477 791
4 3130 1560 2830 3132
4 2868 2858 2849 573
4 3159 3132 3997 1561
4 2868 2858 4046 2849
4 2849 2868 582 2505
4 5259 5122 5492 5506
4 3823 5318 3009 5317
4 4460 5447 5426 3787
4 5447 4406 730 5426
4 5902 5447 5426 4406
4 5447 3953 737 738
4 4018 5447 4460 3787
4 4466 4420 4299 1240
4 4466 1689 210 209
4 6028 3517 3516 1690
4 6025 6027 4466 6028
4 6028 6051 1690 1681
4 1531 2755 2726 2240
4 6315 3651 1546 1537
4 6310 5215 5622 6333
4 6210 4271 1538 4199
4 5753 3543 5984 2973
4 5837 5216 4058 6206
4 3499 2522 6102 5582
4 4053 4002 5449 4060
4 3087 4199 3088 4271
4 4832 1725 214 213
4 4832 214 4305 1244
4 4463 6040 6041 4509
4 6054 4832 4373 4305
4 4832 1716 213 3488
4 6035 4373 1717 1726
4 5615 5096 6194 5614
4 5611 5473 5614 5615
4 4242 1510 5096 1501
4 4242 5612 4250 1501
4 4781 1205 5314 4183
4 5986 5996 1223 1222
4 5314 1215 5887 1224
4 5887 5987 5986 1224
4 3618 4048 5456 3620
4 4781 4071 5314 1206
4 5314 4071 1215 1206
4 3900 2187 2186 2178
4 5222 2572 3284 4503
4 3726 3721 5973 5222
4 3854 3223 4036 3332
4 2772 5753 2973 3543
4 3130 1550 3690 1551
4 3338 4197 5139 5849
4 2713 3145 2828 4350
4 1560 3130 1569 3132
4 2968 4049 3236 3619
4 2239 3130 1550 3690
4 3130 1569 3132 5139
4 3146 4152 4187 4167
4 4641 28 4685 383
4 4641 5567 816 807
4 4646 5567 4641 4566
4 4646 4641 5567 4222
4 4294 4146 4392 5378
4 5556 4392 4268 5378
4 3553 6091 5262 5267
4 5556 4268 4270 2544
4 4392 4268 5378 1867
4 5437 3400 1713 5422
4 5501 5671 6160 5502
4 4972 6296 5478 4989
4 4829 5671 4827 4828
4 2738 6097 5916 6139
4 5457 5711 5735 1983
4 6246 4969 5671 1429
4 5478 4989 1974 5479
4 4224 4226 6093 352
4 334 343 335 4477
4 4477 4486 4485 335
4 4224 4226 352 361
4 3905 344 4495 4477
4 2864 2865 2863 2862
4 4583 4551 342 351
4 4556 4583 5290 4210
4 4424 289 4429 3976
4 3511 3973 4567 6264
4 4368 4372 278 4370
4 6053 4449 296 297
4 2772 5753 5241 5969
4 4424 278 4372 279
4 6053 297 5510 4449
4 4841 4296 6071 6265
4 3987 4532 3494 6065
4 3009 2504 3823 5317
4 6035 4012 3518 4373
4 2772 5241 5397 5969
4 2504 1785 6265 1794
4 6174 4363 1692 6261
4 3988 4316 4315 4533
4 2773 2776 2780 2778
4 3856 5795 4297 6337
4 3882 5190 5988 5460
4 6238 2164 6254 2163
4 5929 4056 2171 2180
4 5389 1272 6057 1273
4 4839 4442 4302 4401
4 5765 6041 6040 6034
4 6041 1263 6057 1272
4 5366 4443 4417 4442
4 4752 5979 5604 4732
4 3525 4836 4839 4835
4 5440 4567 6268 5417
4 4752 4546 3770 4651
4 3972 4429 4424 6267
4 4424 287 4368 278
4 4424 6267 4374 4372
4 4424 4372 4374 279
4 6268 6267 1747 6266
4 3973 3972 4380 3974
4 4424 279 4374 280
4 6139 5916 6138 1947
4 6146 6140 6154 4223
4 6137 6146 6154 6122
4 6139 5916 1947 1956
4 2741 6296 4972 2738
4 6059 6138 2734 6114
4 6146 4223 6154 1419
4 6297 6296 6146 1957
4 4831 2192 2183 220
4 1219 3383 3396 6250
4 1655 5191 2442 4357
4 2443 2671 2191 2669
4 4830 1662 3978 1663
4 2533 2896 6007 5791
4 4831 2669 3978 6329
4 6249 1645 5191 1654
4 4745 4746 1380 1381
4 4142 4745 4746 1380
4 3684 2903 3370 2901
4 5575 4745 1381 4746
4 4100 4692 4691 411
4 5573 4100 5575 4096
4 4142 4746 1389 1380
4 3832 3829 4617 4616
4 3420 3425 3710 3473
4 5443 5419 5118 5450
4 4447 4406 740 5327
4 4447 741 3753 5327
4 3424 3741 4431 3943
4 3663 4261 5007 3839
4 4954 5744 5746 6190
4 5007 4261 557 3839
4 5007 3839 557 548
4 6183 3891 6185 6184
4 5007 3839 548 2291
4 2813 6275 2814 5091
4 5837 6102 6212 5582
4 2524 2525 5636 4520
4 5989 202 6015 1673
4 6016 6008 2533 1236
4 6008 6007 1227 5270
4 2896 6007 5270 6006
4 2668 2671 2670 2532
4 4791 483 474 4873
4 5787 6254 2445 6005
4 6011 6019 1666 5356
4 6011 1657 4358 5355
4 5576 5564 5565 815
4 5564 1851 144 143
4 5564 144 5577 824
4 5576 143 5564 815
4 6111 6131 1860 1861
4 6111 6131 1861 6278
4 4612 6111 5606 6278
4 5330 3597 4513 4531
4 2999 4553 5772 5700
4 4513 4487 4473 3597
4 4034 4487 5925 5926
4 4483 323 4526 322
4 2999 5700 4552 4553
4 3588 5389 4552 4599
4 4839 4553 2999 5389
4 4483 4419 314 313
4 3901 5772 4553 1291
4 4752 4730 4415 5568
4 4839 4401 4443 4442
4 4417 1273 1265 4443
4 5078 5188 625 5154
4 5078 616 5154 625
4 5153 624 5078 5079
4 5919 4501 5072 4507
4 5350 5306 697 696
4 5998 5371 5940 4127
4 4186 696 5371 695
4 5940 695 5371 704
4 5350 4848 5371 6347
4 4075 4076 5402 1158
4 5280 5279 5990 5385
4 4018 3787 4460 4403
4 3429 4079 5468 4475
4 5512 3976 4395 3971
4 5115 3825 4301 3505
4 301 4459 3432 4475
4 4457 299 4395 300
4 5231 1605 5872 6240
4 5920 5205 5231 5187
4 5231 6240 1604 1605
4 5923 6228 5231 6240
4 3234 5767 3237 5864
4 4909 42 942 43
4 4909 951 43 942
4 4909 5723 942 42
4 5725 4923 498 507
4 4822 4909 4823 4824
4 4860 943 5747 952
4 4609 361 4608 360
4 4636 4587 372 363
4 4658 372 4636 4587
4 3538 4658 4636 4587
4 3967 4992 6169 5823
4 4224 4435 4586 353
4 4522 4521 2049 5815
4 5759 995 4945 5771
4 5782 4516 6306 5785
4 4193 4517 1003 1012
4 4522 4194 4193 5815
4 4514 4521 4520 5636
4 5557 4392 1858 4268
4 5557 4392 1857 1858
4 4493 5571 3687 2544
4 5556 4392 5557 4268
4 5557 6092 1848 4089
4 4856 4873 483 4910
4 4548 5772 1300 4561
4 3694 6076 3614 5806
4 6105 1567 4887 4196
4 6076 1574 4888 1575
4 6076 3614 5806 1574
4 6105 6076 4888 1575
4 2741 2738 2734 6139
4 5134 6246 1428 6122
4 5501 5502 6246 5671
4 6297 5478 6296 1966
4 6296 5478 1965 1966
4 2504 1794 6071 2502
4 4317 6071 1804 4541
4 6071 2502 1794 1803
4 3751 6071 4317 4541
4 6088 6037 1321 1312
4 4131 6090 1312 1303
4 4267 4269 6088 4270
4 6088 4269 1320 4270
4 6087 4270 4267 6088
4 5533 3752 6052 5398
4 4733 4763 435 444
4 3580 4763 444 4782
4 3580 4733 445 444
4 4763 4180 435 434
4 4765 435 4763 4180
4 4719 4180 425 4181
4 4462 5301 4833 3793
4 4751 4763 434 4180
4 4264 451 3402 450
4 3630 3246 3243 4948
4 6175 5855 4120 5082
4 4953 3116 3118 521
4 4953 4975 530 4987
4 3803 4953 4947 4987
4 3803 4975 4953 4987
4 4959 4947 3118 4953
4 3520 3491 3575 3883
4 4953 521 3118 522
4 3164 4049 4050 4764
4 3067 6337 3857 5981
4 3135 4985 4506 5153
4 3276 5405 2542 5751
4 2696 2549 3853 3068
4 2845 3410 3409 3444
4 5913 2141 5946 2150
4 5255 1092 5914 5409
4 5906 2372 5914 1101
4 5906 5914 1092 1101
4 5255 5901 5906 1093
4 4752 3770 4415 4231
4 2371 5910 1111 1120
4 6027 4466 4299 1240
4 3987 4299 3494 4300
4 6027 6029 3986 6028
4 3984 5401 4532 6065
4 3985 6174 6063 3517
4 6047 1248 4315 1778
4 4131 1302 1303 1311
4 3655 5391 677 5296
4 5295 5751 5344 5321
4 5391 4161 678 5296
4 4186 4127 686 695
4 3191 1126 5282 5283
4 4752 4415 4730 5979
4 6236 6238 6254 6252
4 2885 2896 3450 2668
4 5132 4050 6323 5128
4 6236 4850 2164 6237
4 5929 2172 6005 2181
4 6254 2172 6252 2163
4 3383 3450 6250 2671
4 4229 384 4629 4090
4 4648 385 4629 376
4 4605 4649 4629 376
4 4229 6100 4629 4230
4 4648 376 4629 4649
4 5964 6100 6094 5657
4 5964 4648 4672 4090
4 4611 4722 1345 5583
4 2894 2947 1034 5825
4 2892 2893 2895 5874
4 5818 1025 2947 5825
4 2948 2947 2894 5825
4 2947 5825 1025 1034
4 4744 4038 4690 430
4 4690 430 4038 439
4 5976 6152 4761 4759
4 6152 4759 439 4761
4 4749 5395 1399 5977
4 5313 4744 4038 4690
4 1399 1400 1391 5574
4 4845 4816 4815 5649
4 4845 4843 916 4877
4 4814 3793 5301 5800
4 5684 4885 4159 4843
4 4159 472 5649 473
4 3636 3632 3117 3633
4 3245 3582 3581 3774
4 3628 3635 4361 3636
4 3632 512 3117 3633
4 3632 3633 3634 503
4 5754 5776 959 968
4 5732 6173 6301 1995
4 5696 959 5754 5776
4 6301 6305 5776 5754
4 6301 6305 2005 4087
4 5786 968 5774 5776
4 5786 5774 6305 5776
4 5387 1140 5393 1149
4 5930 5949 5950 5943
4 4076 5402 1158 1167
4 4357 2889 4358 5190
4 2896 3450 6007 3396
4 5791 6007 6008 5270
4 4357 3917 1655 1656
4 4357 4358 1647 5190
4 3444 3868 3486 4781
4 2871 3386 4358 5355
4 2585 4764 4050 6323
4 4575 773 4576 4588
4 4575 763 4488 764
4 4615 4320 762 771
4 6294 4476 4321 4067
4 4321 328 4067 4476
4 4523 4564 4321 338
4 4397 4547 4479 4480
4 5494 4320 4321 4615
4 5169 6211 5168 3128
4 2483 3128 5168 6211
4 5002 3613 3614 5570
4 5021 6211 5169 5232
4 4233 4205 3128 5169
4 2952 4198 2989 2990
4 3657 3656 2571 2573
4 3729 3657 2184 2185
4 2177 3900 3858 3728
4 3656 3806 4662 5408
4 3656 4664 3657 3849
4 5954 2193 3657 3849
4 5954 1148 4664 5953
4 2573 3657 2194 2571
4 5954 4664 1148 1157
4 5954 3657 5953 4664
4 5423 3729 4665 3657
4 4776 4759 448 447
4 4776 4759 4761 448
4 3949 448 4761 449
4 5938 5907 5931 5932
4 5350 5957 6347 5371
4 5938 4846 1124 5931
4 5957 715 5956 714
4 5387 4077 5351 707
4 5284 5393 1140 1141
4 3251 3443 4258 5343
4 5392 1142 5950 1141
4 3578 4141 148 860
4 5610 4141 4140 851
4 5610 4141 5663 4140
4 4141 860 147 148
4 4141 860 851 147
4 3578 1896 4141 4232
4 4380 6267 6266 1747
4 3974 4395 3976 4383
4 4380 4301 1748 1747
4 4381 4383 4429 281
4 4382 4381 281 4383
4 3974 3825 3824 4301
4 5464 4326 4130 5465
4 4326 4130 1684 1685
4 4326 4510 1765 271
4 6309 6198 5937 2048
4 4265 1527 4266 234
4 5742 5746 6203 4973
4 4265 2057 235 234
4 6314 2066 6310 4266
4 4106 673 5316 682
4 4106 5276 5278 673
4 4104 4106 5316 4107
4 4274 5276 4275 5333
4 4275 5226 4106 4201
4 5816 5959 5811 3743
4 5386 710 5403 72
4 5386 5991 1221 1212
4 6248 5384 5965 4854
4 6248 4185 5992 6009
4 6003 5336 1230 1231
4 4292 5362 4107 5335
4 2690 3414 2689 3412
4 2776 3869 4292 2777
4 704 712 713 5299
4 5374 5996 5991 1213
4 5996 4183 1204 5369
4 5374 1213 5991 1212
4 5386 5991 5374 5368
4 4634 4183 6269 5369
4 5992 6009 1668 1669
4 6250 2592 1229 1220
4 3383 2592 1220 2754
4 4135 140 5543 788
4 4135 4468 1824 1815
4 4214 4217 5562 4468
4 5507 5555 5540 5543
4 6104 5554 4214 5513
4 6168 6161 1457 1456
4 5688 5711 1993 5773
4 5688 5711 1984 1993
4 5459 5502 1446 5135
4 5457 1975 5459 1984
4 6168 5807 1465 6172
4 3636 6341 3117 3115
4 6341 3149 6197 6178
4 3149 4956 528 519
4 4361 4951 4362 3633
4 3149 4355 4882 1490
4 4956 520 3117 3116
4 3149 528 4956 3150
4 4956 3116 529 520
4 3944 5425 4130 5464
4 3544 3333 3546 4573
4 5304 4206 1772 1763
4 6259 5434 5464 1686
4 5425 5437 5461 1703
4 3008 3010 5318 3009
4 5121 5122 5434 5464
4 5437 5461 1712 3400
4 6298 4575 4588 4615
4 3954 4488 6294 3428
4 3438 4458 4461 4476
4 4016 3953 4448 737
4 3954 3957 4488 3956
4 5515 4402 4459 4395
4 4666 4576 4575 4562
4 3428 5468 3956 4488
4 4273 5181 5204 637
4 4050 6241 6323 4764
4 5921 6220 5140 5872
4 6064 3237 6226 5922
4 5158 6220 5180 5179
4 3233 6285 1907 4804
4 4635 5663 3233 4232
4 5572 5663 5628 3329
4 4287 3504 3329 3330
4 3504 3503 1898 1899
4 4706 3106 3050 3105
4 3078 3828 4718 2311
4 5663 4232 1896 1897
4 5246 5192 1070 5073
4 4506 5153 5078 5079
4 5919 5188 4501 5079
4 4501 5858 5246 5349
4 6012 5246 5893 5349
4 3443 3743 5343 5824
4 3725 4022 5944 3744
4 4021 5875 5283 5404
4 5816 5343 1179 3745
4 4258 1178 5824 5343
4 1177 4258 1178 5824
4 3251 5824 3443 5343
4 4186 2882 5306 5391
4 5930 5392 5950 1141
4 3252 3743 3443 5824
4 5179 6220 5180 5181
4 5179 5181 628 5159
4 5921 5179 5159 5181
4 3341 5085 6219 5113
4 5179 619 5159 628
4 6000 5275 663 5982
4 6000 5333 5982 1634
4 5129 5128 4050 5132
4 5999 663 654 5982
4 5753 5768 6232 5984
4 4274 5275 5333 6232
4 5275 5253 664 655
4 5768 5253 5275 5186
4 5964 4648 4090 4629
4 3401 6112 4750 5598
4 4352 5287 4353 3820
4 4294 5556 4493 5378
4 3737 4611 5598 4750
4 4648 377 4649 4650
4 4672 394 4090 385
4 5938 5931 1123 5932
4 4050 6134 6241 4764
4 2281 4362 4355 4882
4 501 4891 2281 4362
4 2281 4366 4355 4362
4 5855 4771 5007 4261
4 4771 3850 556 555
4 4771 556 5007 4261
4 4533 1249 4300 1258
4 4322 1266 4318 1257
4 4316 4533 4318 6058
4 6027 1249 4533 1248
4 4532 4296 3984 3988
4 5911 2139 175 2130
4 5911 2130 175 174
4 5911 5915 6239 5901
4 6307 4530 5407 4529
4 2341 2372 1102 1111
4 2341 5901 1102 5906
4 2341 5906 1102 2372
4 6239 2139 5985 2140
4 6054 6034 1253 1254
4 6054 4439 4373 4832
4 5765 5366 4835 6057
4 4119 4305 4369 6038
4 4119 6038 6054 4305
4 4373 4832 1716 1725
4 4227 537 546 5082
4 5001 4227 547 5082
4 4227 4956 3150 5083
4 6183 5082 4967 5083
4 4227 546 547 5082
4 4227 4956 528 3150
4 5365 4416 5763 4066
4 5440 4303 4368 6053
4 5416 5418 5417 6046
4 4424 4368 4405 4372
4 5365 5763 4416 6044
4 4424 278 4368 4372
4 6046 1753 4051 6044
4 5418 1744 6036 1735
4 4119 4369 6036 6038
4 5418 6046 1744 5417
4 4119 6036 4369 1734
4 4015 4013 3708 4014
4 4119 6054 4373 4305
4 4416 4369 1246 6038
4 4371 1743 4369 6036
4 4303 286 5763 4368
4 3440 5673 3439 3511
4 5281 63 5353 698
4 5353 63 1131 64
4 5387 5353 5351 5393
4 5948 5950 6308 5392
4 4077 5402 715 716
4 5951 5372 1176 1177
4 5938 5392 4847 5284
4 5387 5353 5393 1140
4 4849 5284 5331 5932
4 5353 5331 5351 5284
4 5085 619 5179 618
4 5085 609 4999 610
4 5085 5136 610 4167
4 6221 5113 1588 5205
4 6146 1419 6122 5383
4 5134 5383 6297 6122
4 6146 1957 6296 6139
4 6146 6139 1948 1957
4 6137 6154 6146 6140
4 4605 367 4626 4649
4 4605 367 4649 376
4 4605 376 4629 375
4 4721 4605 4649 4629
4 5074 4525 4722 1337
4 5669 4723 4624 4534
4 4534 4626 4603 358
4 4744 421 4038 430
4 4744 4038 421 4705
4 4744 430 4690 429
4 6326 4330 5976 6123
4 5312 4692 6121 4746
4 5312 2312 3083 4995
4 3388 5995 6008 6019
4 5989 6016 6015 1236
4 5989 6019 6016 6008
4 6008 5270 1226 5995
4 6008 1226 5270 1227
4 3486 4256 4634 4257
4 3486 4183 4634 4256
4 5279 5385 1194 5369
4 5279 5385 1185 1194
4 3251 5951 5824 4258
4 4077 5957 5351 706
4 5280 5990 703 712
4 5372 1185 5385 5373
4 5139 3131 3132 3130
4 4152 602 4167 601
4 3131 3161 5139 3132
4 3145 4152 4167 4999
4 4048 4050 6134 5130
4 3660 4152 4350 593
4 6173 6186 5743 5696
4 6338 5696 5776 5697
4 6338 6165 6301 6173
4 5696 5697 958 5776
4 5696 949 5698 5743
4 5732 6301 5754 1995
4 5678 1986 5732 158
4 4018 3787 5361 5447
4 3184 4137 3177 4136
4 3455 774 3452 4576
4 6345 5251 6072 6274
4 6084 5559 3180 3540
4 6294 4319 4615 4321
4 6294 4488 4037 4575
4 4164 1998 3924 3922
4 3902 3362 3876 4906
4 3924 3229 3921 3815
4 3923 3924 5755 3922
4 3924 2006 6165 1997
4 3924 3922 1997 5755
4 3813 6176 2009 2000
4 3924 5164 2006 2007
4 5753 5969 2973 5984
4 5752 5254 5253 5217
4 5752 5254 5155 5278
4 2542 5751 5405 5344
4 5254 656 5253 5217
4 5254 5155 5278 665
4 2663 5904 3762 5329
4 6332 5245 5243 5546
4 5348 5893 6012 5904
4 5349 5348 5893 6012
4 3136 4687 3306 3307
4 4469 4501 3732 6013
4 5904 1097 5348 1088
4 5840 5845 1100 1099
4 5286 4551 4534 4538
4 4554 5024 348 4597
4 4534 350 4551 4604
4 4603 358 4626 367
4 4723 4603 4534 4626
4 4603 4597 358 357
4 4574 4625 4597 5024
4 2580 2582 3164 3928
4 4274 5333 5240 6232
4 4111 4201 5384 4105
4 4104 4201 4275 4106
4 4111 5384 4201 1661
4 4688 4668 5508 799
4 4668 4684 5567 808
4 4489 5508 799 790
4 5558 4219 5141 4622
4 4620 5567 4668 4566
4 4668 5567 807 808
4 4489 798 4668 4596
4 5034 5081 5053 4966
4 5067 580 5081 589
4 4966 5081 580 581
4 5034 5035 581 4966
4 5485 5490 5038 5665
4 5034 1014 51 50
4 5034 4966 5053 5035
4 3205 3204 5052 3208
4 5063 5005 589 598
4 5591 5592 3142 3693
4 5905 6224 6223 4623
4 5692 3648 5257 3649
4 5905 5098 3648 4623
4 5257 5806 1564 1565
4 3648 4349 1554 1563
4 4887 4886 1566 4888
4 5786 6305 2004 5754
4 5770 5775 4084 6162
4 5150 5696 6338 5697
4 4084 6305 6304 5774
4 6301 1996 6165 2005
4 5183 655 5275 654
4 5993 5183 654 645
4 5982 5183 654 5993
4 5768 5275 5183 5186
4 5183 5186 655 646
4 6307 5297 5985 5862
4 5255 5256 1083 5409
4 5914 5255 4529 5906
4 5255 5906 5914 1092
4 5407 5256 5255 5409
4 5899 5863 1085 1084
4 4382 3824 4380 4383
4 3974 3824 4380 4301
4 3824 4380 1748 1757
4 4382 3824 1757 4380
4 3824 1748 4380 4301
4 6111 5564 5586 5565
4 4612 4674 4559 4228
4 6110 4332 6072 5125
4 5586 4674 814 823
4 6131 5577 1869 6130
4 4613 6263 6131 6278
4 4603 367 4605 366
4 5074 4574 4603 4597
4 5074 4603 357 4597
4 4100 4717 4692 411
4 4100 4617 403 4618
4 4692 4746 1381 1390
4 4717 4617 4705 412
4 4717 412 4705 421
4 5312 4717 4705 4744
4 4717 4744 421 4705
4 3873 4919 3876 973
4 4904 3876 4998 973
4 3872 4906 964 973
4 4904 4345 4991 972
4 3478 3523 4126 3521
4 4083 5775 4084 6304
4 3918 3919 4164 3922
4 5045 4961 4979 4824
4 4839 4419 3594 4401
4 4302 4419 4401 304
4 4443 4440 4442 303
4 4069 4483 322 313
4 4401 303 4442 304
4 3598 4473 4483 4033
4 3594 3901 5772 4553
4 2885 2442 2668 2443
4 6022 5791 6016 3917
4 4830 2435 1671 2436
4 2670 2671 2191 2200
4 4830 2533 2436 6015
4 2533 6008 6007 1227
4 2533 6015 1236 1237
4 6312 6311 2522 2043
4 6212 6312 2043 2052
4 2524 2525 6312 2522
4 5482 3499 2524 2522
4 4082 4083 3358 4084
4 2523 5165 2525 2061
4 5820 1532 5545 5091
4 2781 5753 3543 5752
4 3879 6236 6252 6238
4 2927 5460 4123 5133
4 6242 4297 2162 6238
4 6061 5942 6321 6245
4 5793 6243 6242 6337
4 6238 6252 2162 2163
4 5524 1447 6160 6161
4 6168 1465 5633 1456
4 5459 1976 4340 1985
4 2639 2612 5962 3659
4 5769 958 5697 5776
4 5769 5770 967 5774
4 4083 5784 3843 5782
4 5769 5697 958 957
4 6338 6301 6165 4087
4 3359 5697 957 5151
4 4754 4712 5604 852
4 4712 4729 410 419
4 4712 4710 843 31
4 5594 5604 4729 4712
4 5594 4710 5553 843
4 4148 5594 4710 5553
4 4728 4729 418 4730
4 2921 6132 6286 4758
4 6120 4758 1393 6133
4 5174 1393 4758 1392
4 6283 5174 4758 6286
4 5603 6140 4223 6154
4 5603 1402 6145 1411
4 5603 6140 5659 4223
4 6154 6059 5603 6140
4 6059 6132 6138 6150
4 5603 1411 6145 6154
4 3998 3446 3223 3417
4 4757 6286 6132 4758
4 3766 1378 3109 1387
4 3833 5575 4100 4692
4 5944 5388 4128 1163
4 5388 1163 186 185
4 4128 185 5388 1154
4 5952 3697 3706 5924
4 5388 5966 186 1162
4 4022 5960 5277 5959
4 5985 5297 2131 5862
4 5899 5985 5911 5861
4 6307 5255 5899 5901
4 6307 5255 5901 5906
4 5985 2131 5297 2140
4 5840 3193 1108 1109
4 3069 5913 5946 5997
4 6269 5363 5368 5991
4 5368 709 710 5386
4 4634 4633 6269 4183
4 6189 5363 6003 5965
4 5336 6003 4852 4854
4 5359 4854 3874 6009
4 6003 5359 1231 1222
4 6003 5991 1222 1221
4 5359 4854 5336 3874
4 6248 1669 4854 6009
4 5718 5756 1978 5741
4 5678 6173 5718 5743
4 5678 5743 5737 941
4 6186 5719 5737 5743
4 5840 3193 2660 1108
4 5678 1986 5718 6173
4 6301 6165 1996 6173
4 6301 5696 5754 5776
4 4084 5769 5776 5774
4 6301 2004 6305 5754
4 4016 3956 4079 745
4 4079 5468 744 745
4 4475 3432 301 310
4 4016 4017 736 4079
4 4448 5446 738 3953
4 4017 726 5414 727
4 5468 745 3956 754
4 4858 4117 6164 1452
4 4117 4911 4858 3462
4 3460 6002 3463 2614
4 5826 2067 167 2058
4 5873 2059 5635 2068
4 5873 5814 2068 5635
4 4518 4522 5636 5635
4 5826 4195 4194 1022
4 5865 5834 5821 5838
4 5604 5648 861 862
4 4754 4712 419 4729
4 4288 5604 862 5648
4 4707 4754 4728 5648
4 4754 861 33 852
4 5594 4712 843 852
4 2896 5352 2886 6006
4 3222 2190 2189 3153
4 3416 1209 3396 6006
4 3979 4423 6013 4421
4 3396 6006 1209 1218
4 3396 1218 6007 6006
4 1228 1219 6007 6250
4 3731 4506 4469 5170
4 5692 5806 3692 3691
4 5591 4826 4057 5593
4 3085 3749 2625 3087
4 5215 5622 6333 4061
4 3651 5098 1546 3652
4 2239 6217 1559 3130
4 4167 5136 3344 3147
4 5060 3690 1551 2817
4 1558 2784 6217 2239
4 4271 5411 1547 1548
4 5867 5851 2085 5868
4 5865 5821 5834 5833
4 5812 2068 5814 2077
4 5834 5838 5851 1040
4 5428 5821 6030 5866
4 6273 6062 6056 6049
4 6056 6062 6048 6049
4 1823 6227 6048 5534
4 3353 5499 4132 3752
4 5533 5499 5534 6062
4 6056 1814 6048 1823
4 5897 1586 5187 1595
4 2990 5897 2989 5898
4 2477 6076 5143 6225
4 5057 1593 6225 1584
4 2990 4198 2989 6222
4 5233 1603 6228 1604
4 4528 5985 6239 5901
4 5935 2371 2341 1112
4 5913 5997 2150 5946
4 5638 1029 5821 5429
4 6030 5873 5635 5814
4 6030 5814 5812 5873
4 4518 5873 6030 5640
4 4367 123 276 122
4 4418 4367 122 1256
4 4367 123 2872 276
4 5763 4051 2872 6044
4 4371 6044 1752 1743
4 4416 4371 4369 6036
4 5812 5873 5814 2068
4 5865 5812 5813 5867
4 5865 6030 5838 5821
4 5812 5867 2077 5813
4 5812 5867 2076 2077
4 5852 5853 1048 1057
4 5841 5850 1056 5853
4 5854 6201 2094 5868
4 6202 2096 5089 2105
4 6201 5869 2094 2103
4 5694 4334 5675 3830
4 5694 1941 4334 1932
4 4341 4800 6330 5682
4 6041 1272 5389 4599
4 5366 4443 5389 6057
4 4839 5389 4443 4553
4 6304 6305 4085 2014
4 5786 5776 6305 5754
4 4188 5774 977 5775
4 4084 5776 6338 6305
4 6304 2014 4085 2023
4 4083 3843 3358 6162
4 5762 4449 5510 4035
4 1719 5029 6069 3507
4 6271 1719 6055 1718
4 6035 5481 6271 1718
4 4031 4404 4017 5414
4 3758 5116 4103 3753
4 3389 3390 3395 3391
4 3937 5673 3440 6055
4 5372 5279 5385 1185
4 5385 5280 5299 712
4 5299 5371 705 704
4 5957 5299 705 714
4 3252 3251 5824 3443
4 5279 4258 4257 4256
4 5280 703 5940 704
4 4869 5988 1627 4123
4 4870 1618 5110 4039
4 4870 5110 1618 1617
4 4869 4123 1627 4870
4 4871 4869 4868 4850
4 3282 5709 922 921
4 2746 3867 3646 3865
4 5978 3282 5668 4737
4 5668 4737 921 920
4 4602 5741 6288 6300
4 5709 912 4737 4735
4 5704 5715 5709 913
4 5045 4823 4860 4824
4 4860 4909 951 4824
4 4162 4909 4823 509
4 4162 4909 509 5723
4 4859 943 4928 5747
4 4812 4842 4859 4884
4 4349 1554 230 231
4 4349 230 1563 5056
4 4349 231 5354 1554
4 4886 1565 5257 1556
4 5021 6211 5168 5169
4 4349 4623 5354 2084
4 5324 133 5455 725
4 6258 5117 4253 5325
4 5324 5302 5455 1761
4 5455 133 1761 134
4 5455 1770 134 1761
4 5117 5302 5325 6258
4 5302 5304 1771 1762
4 5302 1771 5445 1770
4 4929 6069 6063 4365
4 4432 4430 5319 4399
4 6174 4212 6081 6050
4 3164 2273 2965 2629
4 5967 5968 1528 1527
4 5967 6203 1528 5968
4 6314 232 233 1536
4 6333 6309 5101 5968
4 6333 6210 5967 6203
4 5622 5215 6310 2065
4 4265 6310 4266 5968
4 6210 5622 6333 5967
4 6210 4199 5000 4271
4 4010 3651 4271 5411
4 6187 5688 5773 5711
4 5807 1465 6172 1474
4 6168 5807 5633 1465
4 5633 1456 5524 6161
4 6302 5633 5524 6161
4 5688 5717 5524 5633
4 4026 4783 450 459
4 6059 2921 5603 6132
4 6059 6140 6132 5603
4 5313 2310 4594 4038
4 3935 3254 5525 5520
4 3676 4505 4727 5842
4 3792 4158 5649 4159
4 3570 4806 2923 1919
4 5653 6114 6113 1937
4 5653 5730 3625 5880
4 3377 3099 3376 4811
4 3625 5730 3624 5880
4 4663 5970 1156 4662
4 4714 4128 5944 5924
4 4714 5970 4662 1164
4 5970 1165 4662 1164
4 5427 1156 4662 4664
4 5427 5970 1165 4662
4 4663 1156 5970 1155
4 4661 4662 4663 4664
4 4075 5402 66 1158
4 5402 5956 67 1167
4 5402 5956 715 67
4 5592 6223 5620 5905
4 5531 6013 3732 6012
4 3651 5620 5905 4008
4 3648 1563 1554 1555
4 5692 5022 3648 3649
4 5651 5570 5566 5232
4 5171 3614 6225 1583
4 6229 1591 5213 1600
4 4346 5651 5232 5003
4 6322 5111 2138 5315
4 4972 2738 6296 6097
4 4828 5671 4969 1430
4 4828 4969 6136 1421
4 6292 5916 6097 1955
4 5900 5479 6098 4989
4 4234 4828 6136 1422
4 3977 5919 3836 5078
4 3865 5664 4341 894
4 5664 2747 3865 3866
4 3865 5664 894 893
4 6315 5622 3651 6210
4 3320 3096 3404 3406
4 5658 5674 892 884
4 3837 3836 3977 3993
4 3697 4663 5924 1146
4 1183 1182 4290 5408
4 3705 4714 4663 4662
4 4139 5663 4141 4140
4 5663 1896 4141 1887
4 4635 5572 3329 5663
4 5628 3330 1888 1879
4 5860 5885 4356 1076
4 4389 5885 5876 6317
4 4386 4388 4393 6293
4 5885 5863 5646 1075
4 5876 5885 5859 4356
4 4389 5876 5885 5859
4 5876 5859 6201 5869
4 5852 5859 5869 6201
4 5885 5646 1066 1075
4 5677 3830 5675 3831
4 5677 1932 5694 3830
4 4789 3959 3962 5656
4 3296 5677 6330 6208
4 5695 5677 1933 5694
4 3436 3433 308 3971
4 4508 5515 5462 4018
4 4569 288 297 6053
4 5415 4428 4032 293
4 4448 738 5446 747
4 4448 3956 746 755
4 6327 5111 4360 5110
4 4360 6229 5213 1600
4 6280 4360 6229 5213
4 4360 1599 6229 1600
4 1599 5315 4360 6229
4 5634 5636 2525 5165
4 2524 2525 4520 6312
4 2525 2060 5636 2051
4 2525 6312 2051 4520
4 5554 5507 5555 5540
4 5526 787 5540 796
4 5507 4135 4468 5555
4 5507 5543 4135 5555
4 5484 3055 777 5472
4 6345 5528 5555 6274
4 4128 1164 185 184
4 4714 4128 5924 4663
4 4128 5388 5924 1154
4 5963 5944 1172 3744
4 4128 5970 1164 184
4 4128 5388 185 1163
4 4714 4663 4662 5970
4 3706 5924 5960 5952
4 6307 5901 5899 5985
4 4528 5913 6239 5985
4 5906 2372 4529 5914
4 5913 2141 5297 5946
4 5913 2140 6239 5985
4 5935 4655 2343 2371
4 6347 5299 4257 5371
4 4847 5393 5351 5284
4 5930 5392 1141 5393
4 5350 705 5371 696
4 5957 5372 5951 6347
4 3792 5649 4760 4784
4 3792 4845 4816 5701
4 3791 4238 4867 5641
4 4158 4760 5649 463
4 3792 3791 4238 5701
4 3792 4917 3119 5701
4 3793 4158 4814 4833
4 3082 4174 3040 3404
4 4158 4833 462 471
4 4951 520 4956 519
4 6341 4956 4951 3117
4 3149 4951 4956 519
4 3149 6178 1489 1498
4 6341 4916 4355 6178
4 5859 5869 1067 1058
4 5859 5885 1067 4356
4 5850 1066 5885 5646
4 6221 5157 5158 1589
4 5158 84 618 627
4 5158 5085 5179 618
4 6221 5158 5179 6220
4 3819 5809 3565 5011
4 5052 5818 5054 5049
4 5818 1016 5049 5666
4 5053 3208 2948 5818
4 5034 5053 5106 1023
4 5656 3960 868 867
4 3561 1906 6285 1915
4 3295 5677 3297 5693
4 3561 5677 1924 5693
4 3561 3959 3579 3831
4 3561 6285 1906 1905
4 3561 5677 1923 1924
4 4818 474 4791 465
4 4873 1454 4910 4864
4 6326 3949 3948 4776
4 4818 475 4873 474
4 4379 4801 4331 5661
4 4873 475 4863 484
4 6279 4544 4539 4436
4 4435 345 4544 354
4 2578 4324 3767 4677
4 4539 363 4586 354
4 4586 363 4636 362
4 4224 4524 4435 353
4 3700 5537 4207 6001
4 5594 843 4712 4710
4 4752 4148 4729 5568
4 5594 852 5604 4712
4 4148 4712 410 4710
4 5937 5095 236 2039
4 6309 6310 4265 5968
4 5958 4265 1518 5968
4 5958 4973 5968 1519
4 4950 4954 6190 4241
4 6309 5101 6180 6333
4 5958 4973 1510 4974
4 2741 4969 6246 6122
4 2741 2739 4972 6246
4 5399 4834 1297 1288
4 4054 5400 6062 1276
4 4055 6273 6049 4054
4 6049 4054 1275 4055
4 4296 4054 4322 5401
4 4054 1267 5400 1276
4 6199 6202 6201 5868
4 5850 5643 1065 5644
4 6199 6200 5853 5852
4 6202 6316 5089 2096
4 6202 2095 6201 5868
4 6024 5841 5850 5643
4 6282 5616 6079 5624
4 5376 2545 4493 2547
4 5175 1375 5176 1384
4 5174 1392 5177 1383
4 5616 4806 6128 1911
4 6079 6209 1913 1904
4 6079 6080 1912 1913
4 5408 4662 1174 1173
4 3698 5947 6328 3727
4 3728 3900 3858 3726
4 3284 1184 1193 1183
4 5222 3284 4290 4503
4 5222 3419 3284 2572
4 5617 4336 1902 6128
4 5616 6128 1902 1911
4 4294 5378 4492 4146
4 5202 6128 5617 5616
4 6066 2547 5599 1347
4 5599 1347 2547 1348
4 5380 6115 5551 5599
4 5551 5599 1357 1356
4 6066 6106 5599 2547
4 5376 5599 2547 5377
4 5599 5377 1348 2547
4 6115 5599 5377 1348
4 5935 2341 2371 2343
4 2343 6239 2148 5915
4 4657 2371 1120 5910
4 5935 176 2148 177
4 5935 2157 177 2148
4 2341 2371 1111 1112
4 2343 4528 2341 2342
4 5586 6131 5577 5564
4 5586 5564 815 5565
4 4559 4674 823 4228
4 4559 4228 823 832
4 4612 4559 5586 6131
4 5031 5461 1703 4364
4 756 4209 765 757
4 5031 1703 5461 1712
4 4016 4448 3956 746
4 3392 1712 3400 1721
4 3392 1720 3507 5029
4 3390 3391 3392 3507
4 5124 4447 5327 4406
4 5786 5774 968 977
4 5786 5754 2004 160
4 5786 6304 2013 6305
4 5786 5776 5754 968
4 5222 3701 3223 4290
4 5973 5408 4290 4045
4 3977 5919 5078 5154
4 2896 2668 2533 3450
4 4290 1191 4045 1182
4 3701 1202 3224 1201
4 3446 4290 3418 3720
4 5313 5574 4749 6121
4 4690 4759 4803 4748
4 4749 5977 1408 4803
4 6094 4745 5657 1372
4 6094 5657 1363 1372
4 4671 393 4096 402
4 4096 5575 4671 4100
4 5573 5575 6094 4096
4 6094 5657 6100 1363
4 5964 4090 6094 6100
4 6097 6296 1956 6139
4 6097 1965 6296 4989
4 2738 6296 6097 6139
4 2739 4828 5671 4969
4 4972 6097 6296 4989
4 5285 5247 1095 59
4 5285 59 1095 60
4 5309 5307 6332 5308
4 5285 5071 60 1104
4 1104 5071 5307 5285
4 2973 1632 5984 5969
4 2973 5969 1631 1632
4 2973 5320 1614 6226
4 2973 1614 5320 1623
4 5768 5752 6232 5275
4 5897 2989 5898 5971
4 5258 5254 5751 5217
4 6315 6281 5354 5098
4 4418 4440 4417 1265
4 1264 1273 1265 4417
4 4418 1265 122 121
4 4418 4066 4367 4417
4 5764 4417 1264 1255
4 4417 4442 4440 294
4 1265 4443 1273 1274
4 4066 295 4442 294
4 4443 4417 4442 4440
4 4031 4403 6260 5462
4 5415 5414 4017 4428
4 4403 1741 4453 3787
4 6260 4403 4455 1751
4 6260 4403 1750 5462
4 4550 5748 1309 4353
4 1319 4625 5024 4550
4 5788 4353 4550 1318
4 5293 4554 4555 4538
4 4550 4353 1309 1318
4 4550 1310 5748 5199
4 4600 339 4550 5199
4 4408 1 124 17
4 4408 1 284 16
4 4408 1 16 1760
4 4408 17 4129 284
4 4427 124 4408 1760
4 3977 5919 5154 5846
4 3977 5919 5843 3993
4 4910 4911 1462 4918
4 4910 1462 4911 1453
4 4910 1453 4864 1454
4 5047 4864 4910 4911
4 5955 5229 4366 4933
4 6299 4891 5229 4856
4 1445 1454 4791 4864
4 3977 3958 5147 5092
4 4572 6270 1830 3546
4 3553 3545 6068 4572
4 3750 4541 4540 6075
4 4540 1813 6056 1822
4 3353 4571 4132 6068
4 4572 6270 1831 1830
4 3578 4232 4139 3961
4 4635 5572 3050 3102
4 4139 4706 859 3961
4 4635 5663 4139 4140
4 4139 851 4141 860
4 4274 4106 5276 5278
4 5276 5275 664 663
4 5226 6000 5276 672
4 5226 4106 672 5276
4 4275 5333 1642 5240
4 4274 4275 4104 5240
4 4275 4201 5244 1651
4 5592 6218 5623 6224
4 3652 1547 5087 1556
4 5257 3648 1555 1564
4 3651 5087 1547 5411
4 6215 5803 5539 3835
4 5021 3649 3691 6211
4 4162 500 5723 509
4 4162 4860 4823 4909
4 4162 5723 4860 4909
4 4162 4884 500 499
4 5685 4875 3017 5683
4 4240 4250 4249 4242
4 4249 4250 1493 4242
4 4250 5345 4249 1484
4 5093 5612 1500 1491
4 5615 4241 4242 4250
4 5153 5218 5170 633
4 4506 5153 5079 5218
4 4506 5078 5153 4985
4 5153 5078 624 4985
4 3977 3836 5919 3993
4 2829 2713 3607 3667
4 5153 4985 624 623
4 5767 3237 5922 6234
4 5153 4506 5170 5218
4 2985 2952 2775 2981
4 6197 6178 3149 4968
4 3149 3150 4956 5083
4 3149 6178 1498 4968
4 3149 1489 4355 1490
4 6341 4951 3149 4355
4 3159 1570 3161 3132
4 5113 1580 5112 5137
4 3147 5085 5113 4999
4 5157 86 609 85
4 2257 2258 4999 600
4 2257 4999 5137 600
4 3159 1561 3997 1562
4 3342 3161 5849 5139
4 4296 4322 4532 5401
4 4322 4054 1267 5401
4 4322 4533 1257 4318
4 4532 4322 4533 1258
4 6023 3978 4831 1653
4 6023 4831 6329 2183
4 4872 2174 6329 2173
4 6005 2173 6329 2182
4 6236 2164 4872 6254
4 6023 220 221 1644
4 6023 4831 2183 220
4 4871 4869 6249 1644
4 5787 6236 4872 6254
4 4831 2669 6329 2183
4 5945 2150 5997 2159
4 5935 2148 2343 2157
4 5935 5915 2343 2148
4 5935 2341 2343 5915
4 5910 2371 2372 2370
4 4106 4105 682 4107
4 5992 4201 5384 1660
4 3664 5539 5545 4351
4 4106 4105 681 682
4 5944 3744 1171 1172
4 5960 5944 5277 5388
4 3835 4560 6342 5803
4 5816 5277 4022 3744
4 5816 1171 3744 1180
4 4191 5959 5277 5966
4 5944 5277 1162 1171
4 3192 5283 4021 4581
4 4714 4128 1164 1163
4 2814 2815 2816 4960
4 2858 4771 564 2869
4 4771 4960 2869 2858
4 2815 2858 4960 4771
4 4769 4960 4770 4771
4 4770 4960 2869 4771
4 2858 4771 565 564
4 4621 4724 408 4730
4 4678 4621 399 5568
4 4415 4724 4621 4730
4 4678 399 4621 398
4 4536 4678 5568 4621
4 4144 6278 1862 1871
4 5560 6110 6072 6004
4 4277 4281 5569 4286
4 4144 1862 6278 5606
4 4610 4144 6278 5606
4 6091 5267 4572 1839
4 6091 1848 5267 1839
4 4570 6067 1840 1841
4 6091 6092 5267 1848
4 3553 4572 6091 5267
4 6087 6088 6090 6037
4 5713 6123 1425 6157
4 5713 1434 6157 1425
4 4772 6142 4776 6143
4 3948 6142 4776 4802
4 4330 5713 6157 6123
4 4776 6142 4773 4802
4 5803 4560 6342 5802
4 4770 91 555 564
4 4201 1661 5384 1660
4 4854 5384 4855 1670
4 5965 4854 5384 4855
4 4913 691 4105 4107
4 4111 77 4914 1661
4 5965 4855 4914 699
4 4914 77 76 1670
4 4913 699 5965 4914
4 4185 6010 6020 6251
4 5617 1893 5381 1894
4 4306 5379 4742 4147
4 4742 4336 1892 1893
4 3371 4702 6112 5601
4 3685 3683 4957 5377
4 6083 5617 1903 5616
4 5074 4574 1328 1337
4 4230 4525 4693 375
4 3401 3737 4799 5964
4 4574 4722 1336 1337
4 4525 4605 375 366
4 4693 375 4605 4629
4 5074 4574 4722 4603
4 4429 3976 290 4383
4 3972 4429 3974 3976
4 3972 6266 4380 6267
4 4429 3976 289 290
4 4381 280 13 281
4 5574 1399 4749 6121
4 5574 1400 1391 4747
4 4747 4717 4744 420
4 5574 6121 1390 1399
4 4747 4692 5574 4717
4 1391 420 411 4692
4 4747 420 4744 429
4 4692 1390 6121 4746
4 3901 4553 1282 1291
4 4548 1291 3901 1292
4 3679 1292 3901 1283
4 4548 3901 1291 5772
4 3594 4069 4401 4419
4 4443 5389 1282 4553
4 4443 1265 4417 4440
4 3679 4069 321 312
4 4069 4419 4483 313
4 4335 5690 955 956
4 3359 966 5769 5770
4 3875 3361 3362 3496
4 3873 4919 973 982
4 5690 5151 3359 956
4 5312 4692 5574 6121
4 3833 4692 4746 5575
4 4617 4100 3832 4618
4 4692 5575 1381 4746
4 4692 5574 6121 1390
4 4677 6331 4478 6078
4 4512 317 4149 326
4 3973 4301 6266 3513
4 3590 5330 3597 5370
4 4512 4458 4472 3437
4 2503 5341 5340 2502
4 5370 3437 6331 5926
4 4513 4473 4487 324
4 3598 4033 4419 4035
4 5925 5926 4487 316
4 4399 6073 1791 4400
4 5687 4400 4044 4065
4 6336 4400 5687 4433
4 3941 6043 3757 6073
4 4065 6073 4064 6043
4 6177 6081 6339 6261
4 2503 1792 4400 5319
4 4433 4400 2503 6336
4 2503 6336 4400 1801
4 5765 6034 5766 5764
4 3441 3440 3511 4567
4 4642 5505 4014 6040
4 5293 4625 5788 4550
4 5505 4014 6040 1261
4 4509 5505 1261 1270
4 6041 5764 1263 6034
4 3702 5480 3517 5481
4 5972 4014 4439 6034
4 5100 4950 6101 5099
4 5793 6238 6242 5942
4 4851 2155 6245 2146
4 5942 6237 2163 2154
4 5934 4123 4870 4039
4 6237 2164 6238 2163
4 5934 4870 4851 5110
4 3856 3332 3855 4056
4 2957 5881 5219 6231
4 5366 4066 4442 4417
4 5366 6057 5764 4417
4 4368 4370 278 277
4 5763 6046 4370 4051
4 5763 6046 4051 6044
4 4405 4370 6046 1754
4 4405 1755 6267 4372
4 6066 5600 6106 1886
4 6079 5550 6209 1904
4 5381 4742 1884 1893
4 5381 4742 1893 4336
4 5379 4742 4147 1884
4 2802 5552 6115 4102
4 1895 1904 252 6083
4 5549 2803 4679 6118
4 6083 5600 1895 1894
4 3862 5089 5088 2097
4 5692 3692 5592 3693
4 3093 5587 3946 3094
4 6280 5651 6229 6322
4 5138 6218 2081 2082
4 6218 6224 2082 5623
4 6218 2082 6224 2091
4 4007 4887 5410 4196
4 5021 2091 2092 2100
4 4921 3004 3006 3007
4 3651 3652 5905 5098
4 4886 5257 3652 1556
4 3127 5169 2109 2100
4 6046 5416 5418 5365
4 4416 4417 1256 4367
4 4371 6036 6044 1743
4 5365 4368 5763 6046
4 5763 4066 285 286
4 5763 285 4367 276
4 4416 4066 4417 4367
4 4416 4367 1256 1247
4 4416 6044 4367 2872
4 6117 1899 3504 1890
4 3504 3329 1898 3503
4 4263 1899 6117 1900
4 4741 4742 4336 1892
4 5629 4779 5581 5631
4 5630 1900 5581 1901
4 5266 2471 4029 4027
4 5214 4039 1610 6323
4 4360 5213 5214 1600
4 5933 6280 6327 6325
4 6061 6236 5942 6237
4 4044 5463 4065 1809
4 4003 3784 3468 3421
4 5463 5541 1808 1817
4 5587 5588 4698 4255
4 5960 5404 1144 5959
4 5404 5283 1135 1134
4 4186 3253 5306 2882
4 3443 3745 3410 5819
4 5301 5590 3348 4921
4 5948 5875 5404 5941
4 3411 3743 4022 3744
4 5948 5404 1143 1134
4 5948 1133 5941 1134
4 4798 5128 5132 4039
4 6245 2145 6325 2146
4 6018 5934 4123 4870
4 6245 6321 2145 2154
4 4221 4220 826 4222
4 4221 825 4582 4685
4 4219 4647 4637 4221
4 4647 4637 4221 4582
4 4637 4582 392 4685
4 4537 4695 6119 4535
4 4647 4148 401 4710
4 6066 5599 5600 1356
4 5551 6096 5600 1356
4 5551 1356 5600 5599
4 5600 5381 1885 1894
4 5617 5600 1894 5381
4 5587 3946 4698 5043
4 5175 6209 5177 6080
4 1904 5550 6209 1365
4 5379 1876 6106 1885
4 4957 6115 5380 5599
4 5376 5600 6106 5599
4 4757 6132 6286 1931
4 6286 6289 1921 1930
4 6286 6289 1930 6150
4 2921 5603 6132 4758
4 6132 6140 6138 1939
4 6080 6289 5624 1921
4 4757 5177 6286 1392
4 4125 2408 4062 4124
4 6106 1885 5600 5381
4 2546 2545 6106 2547
4 4148 409 4729 5568
4 4647 4710 4582 5553
4 4895 4651 5142 4579
4 3541 3113 3276 3542
4 5204 638 5230 637
4 5231 5872 6064 6240
4 5204 628 5181 5159
4 5204 5159 629 628
4 4784 4816 5649 4815
4 4797 4816 4815 897
4 4784 454 4785 455
4 3580 4785 4784 454
4 4917 3580 4784 4760
4 4797 464 455 36
4 3580 453 4794 4782
4 4917 5701 4840 5650
4 4840 5621 5650 889
4 4840 898 5701 4816
4 4840 889 5650 898
4 4797 455 4784 4785
4 4917 4840 4784 4785
4 5791 6008 6016 6019
4 5270 2897 3388 6008
4 4357 1656 6011 3917
4 2778 4295 5242 5585
4 5618 4709 4793 4645
4 5632 5618 4792 4793
4 5618 4793 4709 5648
4 4708 4709 437 4645
4 4708 4768 4645 446
4 4765 436 4733 435
4 4733 4778 5632 4765
4 4716 2740 6074 6335
4 4540 6270 4787 1821
4 5533 6270 3554 4540
4 6075 1811 5340 1812
4 4551 4538 4210 341
4 4551 341 4210 342
4 4606 4551 4538 4210
4 4556 342 4583 4210
4 4524 344 4435 353
4 5854 2085 170 169
4 5854 5869 170 2094
4 5834 5852 1048 1049
4 5834 5854 5851 5868
4 5854 5851 2085 169
4 4321 4067 337 4564
4 6298 5494 4615 4588
4 4471 4666 4137 6298
4 6298 4321 4564 4067
4 5494 4615 771 4320
4 4321 4067 328 337
4 5288 4203 2540 5928
4 3915 5409 3916 5845
4 2672 3654 2879 2882
4 3065 2340 3722 2370
4 5585 5752 5751 5155
4 5265 5269 5211 669
4 5309 5195 2878 5894
4 5895 5225 5307 5894
4 4012 4439 3518 4373
4 4439 1716 4373 4832
4 4624 4723 4597 4534
4 3518 6035 1717 5481
4 1707 3518 4211 3488
4 6262 4014 5505 1261
4 3983 6174 6050 4212
4 4439 4832 1244 1243
4 4523 4490 5494 4564
4 5494 772 4615 4588
4 5494 772 4588 781
4 4490 4590 4564 4545
4 4490 790 5497 5508
4 6298 4564 4437 4067
4 5497 781 5494 4588
4 4862 5588 4894 5590
4 4814 4160 480 471
4 4879 4880 480 4160
4 5685 4880 4879 4160
4 4881 1415 4838 4239
4 4913 5965 6189 5384
4 5965 5363 4852 709
4 5363 5362 5368 701
4 4913 4105 691 690
4 6248 1669 5992 5384
4 6248 6003 4854 5965
4 5362 4107 692 691
4 4913 691 5362 700
4 5362 692 4107 5335
4 5367 5362 4298 5335
4 5367 702 5368 701
4 5497 782 4588 5477
4 6298 6279 4564 5494
4 5497 4588 4666 5477
4 6179 5497 5532 5508
4 4554 349 4597 348
4 4554 340 4538 349
4 4549 4554 339 4550
4 5293 4550 4554 4625
4 4550 4625 5024 4554
4 3160 805 5527 5565
4 5527 797 5540 5563
4 3160 5526 5527 796
4 5527 5439 5563 5528
4 6072 6110 5125 6004
4 5559 4688 5508 5532
4 4688 5508 5532 800
4 4539 4586 363 4636
4 5870 4489 4668 4563
4 3920 5537 4207 3700
4 4688 4668 808 4684
4 6059 6138 6132 6140
4 2921 6286 6132 6150
4 6132 6286 1930 6150
4 6132 5659 5603 6140
4 5688 1984 5459 1985
4 5688 5459 1984 5711
4 5688 1985 5459 4340
4 5501 5524 5502 6160
4 5459 5524 1446 5502
4 5459 5524 4340 1446
4 4013 3987 5504 3555
4 5480 3518 3516 3517
4 3516 3518 1707 1708
4 4299 4300 1249 1250
4 4420 1698 210 1689
4 4299 4300 1250 3494
4 3516 4454 4211 3518
4 4454 3494 1250 1251
4 3516 4211 4454 4420
4 4437 4590 4544 346
4 4437 4067 4564 337
4 6279 4544 4437 4590
4 6298 6279 4437 4564
4 4437 4067 337 336
4 4471 4485 4486 4437
4 3310 4187 3304 4908
4 3861 3129 2090 5212
4 5891 5980 5208 5892
4 5919 5079 4506 5078
4 6316 4154 5088 5228
4 4444 3564 3156 3576
4 4150 5890 5469 5896
4 3350 3353 3352 6272
4 4787 3546 1829 1830
4 3333 4573 5595 4632
4 4787 1830 6270 3546
4 3554 4787 4540 6270
4 4962 45 4980 536
4 4962 4944 969 960
4 4171 4962 4178 4944
4 4962 4980 969 4943
4 5994 6017 6251 5995
4 3870 4184 4185 5887
4 6251 6019 5356 1666
4 6010 1667 6251 5356
4 5692 4623 5022 6224
4 5022 3648 4349 4623
4 5642 5022 5056 2102
4 3648 5022 5056 3649
4 6010 1668 6020 1667
4 5359 6009 3874 5987
4 6010 6009 6020 1668
4 5714 4179 496 4893
4 4185 4184 6251 6020
4 6010 6020 6251 1667
4 4184 6017 5249 1233
4 5224 5071 1113 61
4 5224 61 1113 62
4 5326 4161 679 688
4 5224 5071 5225 1113
4 5224 1122 62 1113
4 5224 1122 5225 5932
4 6027 4533 1249 4300
4 3986 4315 6027 4533
4 4420 1698 211 210
4 3985 3516 4299 6028
4 6047 265 1248 1778
4 6025 6026 6029 6028
4 6047 266 1239 265
4 6029 1778 6047 4315
4 6027 4466 6028 4299
4 3494 3987 5480 4299
4 3986 6027 4299 4300
4 6027 4299 1249 1240
4 4299 4454 3494 1250
4 3516 4420 6028 1689
4 4211 1241 4420 211
4 4459 291 4402 292
4 3429 3431 3955 4016
4 4382 4402 4383 282
4 4402 4395 4383 291
4 4411 1749 3824 3825
4 5108 4031 4459 5515
4 5515 4411 3824 3825
4 4068 15 283 282
4 3792 4158 4760 5649
4 3792 5684 4159 4845
4 3123 3580 4760 4794
4 4760 463 4784 5649
4 5163 5846 1050 1051
4 5163 1051 5843 5846
4 5146 5846 5163 5147
4 3977 5844 5843 5163
4 5163 5064 4182 5127
4 6249 3978 1653 1654
4 4871 6249 6023 1644
4 3247 3252 2929 3251
4 2445 4872 6329 6254
4 4872 2173 6329 6254
4 4872 6254 2164 2173
4 2885 3365 5790 2443
4 5350 5331 697 5306
4 5350 4849 5331 5306
4 5281 5353 5331 698
4 5331 5306 688 697
4 5281 5326 5331 5932
4 5281 1122 5224 5932
4 5331 4161 688 5306
4 5101 6198 6194 5958
4 6309 6310 2056 2057
4 5939 5937 5095 1509
4 5714 4937 4260 505
4 5099 5101 6180 5100
4 4954 5746 5742 6190
4 5937 2048 6198 2039
4 6309 5958 5968 4265
4 5937 235 2048 236
4 5714 4260 496 505
4 5315 6322 5651 2129
4 5651 4346 2119 2128
4 5651 4346 2128 4347
4 6229 5651 5566 5315
4 6322 5651 2128 4347
4 5714 5796 4923 4899
4 3263 3772 3796 3771
4 4734 4737 3281 4738
4 4335 5151 947 5152
4 4179 5798 5590 4894
4 4997 3871 3520 3883
4 927 5716 6077 4876
4 4958 3639 4961 5514
4 3638 4936 3639 4928
4 3579 3962 869 878
4 3578 3961 3579 1905
4 3579 878 150 3831
4 3959 1905 3579 3961
4 5550 6118 1375 1366
4 6083 5600 6096 1895
4 5245 5285 662 5247
4 6332 5245 5248 5236
4 5546 1087 5348 1096
4 5309 5245 5237 5248
4 5197 4422 5239 5211
4 5546 5348 5308 1096
4 5309 5894 5307 5308
4 5237 5265 5248 661
4 5307 5894 1105 5308
4 6327 2147 2146 2138
4 5109 5111 6327 5110
4 4869 4868 1626 1635
4 6322 4347 2128 2137
4 4851 6245 2155 6237
4 6327 6245 6325 2146
4 5934 4850 4851 4870
4 5613 6207 2011 2020
4 5094 2020 5614 6207
4 5761 6207 6188 2011
4 5760 5761 6188 2002
4 5761 6188 2002 2011
4 4952 2012 239 2021
4 5761 6126 5613 2012
4 6152 4690 439 4759
4 6152 440 4761 439
4 6152 440 4038 4595
4 5976 4690 6152 4759
4 4106 5276 673 672
4 6000 5276 5275 5333
4 4275 5226 6000 5276
4 4275 5226 5276 4106
4 5281 5326 5932 5224
4 5907 5932 5225 5931
4 2878 5328 5495 5894
4 5326 5331 4161 688
4 5895 5238 5907 5269
4 5238 5224 680 5071
4 5238 5224 5071 5225
4 5326 5269 679 4161
4 1558 4196 2784 5410
4 5410 4196 4887 1558
4 5139 3338 5070 6217
4 3088 1539 4271 4199
4 5060 2817 1551 1542
4 4009 4008 5411 5087
4 3147 3161 3145 5112
4 2848 3531 4189 5059
4 3530 5827 5080 3532
4 4060 4061 5626 5216
4 3692 4886 5257 3652
4 4886 1556 3652 5087
4 5615 5612 5096 5094
4 3649 5257 1564 3648
4 5257 3652 1556 1555
4 5194 5218 643 5243
4 5194 635 5188 5198
4 4501 5246 5072 4507
4 5194 5079 5188 634
4 5994 1674 6019 1675
4 5994 204 6017 1234
4 5994 1675 6251 6017
4 5994 5995 6008 1235
4 3813 2837 3812 5453
4 5918 5614 5100 2028
4 4240 4252 4241 4243
4 4807 4810 5452 2035
4 4445 3576 4444 3577
4 6333 6203 5101 5742
4 5100 5739 2028 2037
4 4859 4162 4884 5723
4 4859 942 4860 5723
4 5061 4162 4859 4860
4 4859 5747 4860 943
4 4812 924 4865 4843
4 2828 2830 4046 3997
4 2830 3997 1552 4046
4 2830 1551 3690 2817
4 4847 5393 4077 5351
4 4074 4075 5387 1149
4 4075 5402 4077 716
4 5930 4074 4076 5393
4 3221 3223 3222 3332
4 3383 3450 3396 6250
4 3222 3052 2197 2198
4 3613 3614 5570 1582
4 5003 4346 5169 5232
4 2111 5232 5566 5642
4 5642 2102 5056 229
4 3613 5642 5232 3649
4 5171 1591 5570 1582
4 5171 6229 1591 5213
4 2479 5220 2584 5004
4 3159 2258 2257 2256
4 2258 4152 4999 601
4 3159 3145 3161 5112
4 3145 2258 4350 4152
4 5714 5796 4937 4923
4 4113 4982 5015 5012
4 4113 987 48 47
4 4113 5039 5050 5069
4 5487 5039 4982 5015
4 5009 5039 5033 553
4 5069 997 5036 1006
4 5792 5037 988 4996
4 5792 987 5012 978
4 5689 3624 6214 6213
4 5015 988 5037 997
4 4516 4521 5785 4520
4 4521 2041 6306 5785
4 4522 4521 2050 2049
4 4516 4521 4945 6306
4 4516 4946 4945 4517
4 4193 4945 1004 1003
4 4521 2041 4520 2050
4 5792 4981 4980 5012
4 5792 4996 979 4943
4 5792 4980 978 5012
4 5792 5015 5012 987
4 5487 5015 5037 5036
4 6309 2048 4265 2057
4 5968 6310 4266 5967
4 5100 6205 5739 2037
4 5622 5215 2065 5623
4 6333 5967 5968 6203
4 5215 2064 5623 5626
4 5788 1318 4550 4625
4 5788 1317 3821 4353
4 5293 4550 5788 4353
4 4624 4554 4597 4625
4 5788 3821 1317 1326
4 3029 3160 3031 3910
4 5526 5527 796 5540
4 4333 4725 4332 5125
4 6345 5472 5540 5526
4 3204 4966 5081 580
4 3204 571 4966 580
4 5035 5017 5054 5050
4 5052 5017 5054 4966
4 3958 5844 5163 5064
4 5032 3204 571 4966
4 5035 1005 50 49
4 5035 1014 50 1005
4 5069 1006 5036 5049
4 5054 1006 5049 1015
4 5053 5035 5054 1014
4 5035 5017 5050 572
4 5053 5054 1015 1014
4 5052 5053 5054 5818
4 5034 5062 1023 5106
4 5069 1005 5054 5050
4 3159 3145 5112 2258
4 3145 4999 2258 4152
4 3161 5139 3132 1569
4 3161 5139 1569 1578
4 3670 5656 867 3960
4 2743 5674 3865 902
4 2767 2800 2770 2771
4 4700 3670 866 867
4 3301 4804 3233 3503
4 4263 1908 3569 4804
4 3670 3606 875 876
4 6260 4411 5462 1750
4 4407 4411 4068 4402
4 4407 5414 4031 5415
4 4068 4402 4411 3824
4 4080 4428 19 302
4 5689 5729 1936 5730
4 4678 4536 4660 5145
4 3080 4327 2312 3079
4 6169 4081 4992 6170
4 4579 4660 4647 4148
4 4619 380 4683 389
4 4619 4659 389 4683
4 6282 5176 2319 6120
4 5072 1060 5846 5073
4 5149 1059 5072 2890
4 3977 2963 3958 5092
4 5919 5078 5154 5188
4 5933 6327 4851 6245
4 6327 4851 2146 2147
4 5111 5109 1617 5110
4 6327 6322 5111 2138
4 6322 4347 6280 5651
4 6327 6325 4347 2137
4 6327 2146 4851 6245
4 6327 2146 6325 2137
4 4569 3938 5510 3894
4 4567 6266 6268 6264
4 2719 2865 2864 3293
4 3894 5510 297 306
4 3894 289 3976 298
4 3894 288 297 4569
4 4208 4034 5925 5926
4 5193 5546 5247 1086
4 5546 5348 1087 5272
4 5546 1095 5307 5247
4 5245 5546 5247 5243
4 6184 5007 3665 5855
4 5855 6184 5082 6175
4 6183 5001 4227 4975
4 5001 4227 4975 538
4 5238 5326 5269 679
4 5895 5238 5269 5265
4 5238 5326 680 5224
4 5238 5225 5326 5224
4 5895 5237 5238 5265
4 6118 1376 5176 1375
4 5550 1366 5551 5552
4 3765 3927 2321 3764
4 5689 3568 1926 6214
4 6118 5552 1367 1366
4 4600 4554 340 4555
4 4600 5199 4550 5748
4 5293 4600 4554 4550
4 4600 4504 331 330
4 6280 6322 6327 4347
4 4360 5315 1608 6322
4 5315 5651 6322 6229
4 5689 1927 5880 1936
4 5689 3568 5880 1927
4 6259 272 1764 1763
4 6259 5434 5382 4206
4 6259 1686 272 273
4 6259 1764 4326 5465
4 3944 4206 5465 5491
4 4206 5492 1772 1773
4 2669 6329 2183 2182
4 2435 2670 2192 2201
4 4830 4831 3978 1662
4 6023 6329 4831 3978
4 5660 5661 6144 1432
4 4830 2435 2670 2669
4 5534 6062 1284 6048
4 5534 6062 1285 1284
4 6048 1823 5534 6056
4 3557 4331 3562 3063
4 3545 4572 4571 6068
4 5533 5534 4571 6056
4 6062 5499 1285 6052
4 5678 5737 5743 5718
4 5679 1968 5722 5741
4 3283 5737 6186 5719
4 5737 5719 940 5743
4 5737 5719 931 940
4 3283 3282 5737 5719
4 5679 156 1968 157
4 4066 4417 294 4442
4 5365 5366 4066 4303
4 5365 4417 4416 4066
4 4418 4066 4417 294
4 5763 277 4368 286
4 5791 3388 6008 6019
4 5989 6019 5994 1674
4 6016 6011 1665 3917
4 6016 3917 1665 1664
4 5989 5994 6008 1235
4 6022 6015 1672 1673
4 6022 6016 1664 3917
4 6016 1236 2533 6015
4 3679 3901 4069 4401
4 3679 321 118 312
4 4443 3901 3686 4401
4 3678 3679 1292 4548
4 4678 4660 5568 399
4 4219 4220 4222 4681
4 4660 5142 4579 4638
4 4536 4678 4660 5568
4 1553 3997 2505 2868
4 2868 1553 3997 4046
4 2849 4189 4350 583
4 2849 4189 583 574
4 2703 2711 2704 2713
4 5611 5094 6207 5613
4 5094 5614 2020 2029
4 5094 6207 5613 2020
4 5093 1500 5096 5095
4 5063 4182 5064 5127
4 5062 4182 5063 599
4 3996 5835 5896 5890
4 5063 5005 598 5127
4 5062 1032 52 1023
4 5148 1033 5106 5825
4 5062 590 5063 5081
4 3208 5106 5063 5081
4 3208 5067 5063 5005
4 5053 1024 5818 5825
4 5106 1024 5825 1033
4 5053 1015 5818 1024
4 5034 5081 581 590
4 5485 3205 5052 5665
4 5490 5049 5069 5036
4 5485 3205 5032 5052
4 5035 5054 5017 4966
4 5032 5033 5017 562
4 5039 4982 554 553
4 5039 5050 5017 563
4 4113 5015 5039 5069
4 5018 5487 5033 5488
4 5490 5033 5039 5017
4 5069 5015 5036 997
4 5490 5054 5069 5049
4 4850 2156 4868 2165
4 4871 4869 1635 4868
4 4850 4851 2155 6237
4 5109 4870 4868 1626
4 6018 4872 4850 4869
4 5593 5623 2064 5626
4 6206 5626 6276 2063
4 4057 5623 5593 5626
4 3692 4886 5806 5257
4 5593 5626 2064 2063
4 5593 5623 2082 2073
4 4319 328 4321 4476
4 4319 4321 4320 4615
4 4319 319 4480 320
4 4461 4319 319 4480
4 3431 4457 4459 3432
4 6294 4319 4547 4615
4 4575 4547 763 4615
4 3428 4547 4319 4480
4 3429 5468 4480 4475
4 5468 4488 754 3956
4 4547 754 4488 763
4 4397 4615 4547 4319
4 4397 320 4319 4480
4 5062 1023 5106 1032
4 5062 4182 52 1032
4 5062 5106 5081 5063
4 5034 5062 5106 5081
4 5174 6080 5175 5177
4 6080 6286 1922 5177
4 6079 5616 1912 5624
4 6282 6079 6080 5624
4 5175 6079 6209 6080
4 6283 6080 6286 6289
4 4707 4709 4793 5648
4 4765 4709 4645 436
4 4765 4709 436 427
4 5618 5903 4753 4765
4 4728 4754 5604 5648
4 5903 4765 4180 4753
4 4707 870 5648 4793
4 5841 4237 1047 1046
4 5643 5644 1064 1065
4 5406 4155 5839 5890
4 3143 4153 3239 3862
4 5890 5406 4727 5889
4 4622 4587 4646 373
4 3540 3920 6343 4236
4 4646 4641 374 4566
4 4219 4681 4222 5567
4 4646 4566 374 373
4 3897 5660 6144 1423
4 3948 4802 4791 6142
4 4802 4776 456 4773
4 4377 1435 6142 4864
4 6142 5713 1426 1435
4 4316 4315 1787 1786
4 4316 4315 1786 6265
4 6026 6255 1681 268
4 6027 4533 4315 1248
4 4316 4315 4533 6058
4 5309 5237 5895 5265
4 5891 5980 5892 6247
4 3415 3068 2694 3414
4 5847 2372 1101 5914
4 2659 2245 3914 3760
4 6324 4501 5272 5194
4 5912 5904 1098 5329
4 1813 6056 6273 4541
4 6273 6049 6056 1814
4 4317 6273 4055 4054
4 6273 4541 1804 1813
4 5134 6246 5458 5135
4 5501 5458 6246 5502
4 5458 5459 1976 5135
4 5501 5458 5457 5478
4 6297 5458 1966 1967
4 5457 5458 1975 5478
4 6029 4315 1777 1778
4 6027 6047 1248 4315
4 6256 6029 1777 6050
4 3227 6174 3983 5318
4 3986 6027 4315 6029
4 6026 6028 1681 6051
4 6025 6027 1239 4466
4 3958 5064 5163 5127
4 5006 3950 3197 5358
4 5106 3958 5064 5148
4 3958 5127 5163 5147
4 5148 5844 1042 1043
4 3993 5843 5844 5364
4 6083 6079 1903 1904
4 6083 5617 1894 1903
4 5175 1374 1375 1383
4 6083 6096 5551 1365
4 2921 6289 6283 6286
4 5617 5616 6128 1902
4 5549 6083 5551 5550
4 5200 5381 5617 4336
4 1423 5660 6144 1432
4 4675 1343 4694 1344
4 4750 6112 1362 5598
4 4750 6112 1361 1362
4 5274 4750 6112 1361
4 6108 1370 4142 1379
4 3681 1341 3682 1342
4 6071 4841 2502 5340
4 5533 4540 4541 6056
4 3563 3216 3254 2728
4 5534 6062 5499 1285
4 6052 5400 1276 6062
4 3751 6273 4054 6062
4 5533 4132 3752 4571
4 3750 6075 5340 4541
4 5424 3785 1724 3786
4 5419 5421 1723 3785
4 3389 5123 5436 3400
4 5448 3785 3786 5426
4 5448 4406 5426 730
4 5424 1724 1715 128
4 5870 4563 4668 4566
4 4539 364 4563 4566
4 4563 4590 4596 356
4 5870 6279 6179 5508
4 4489 4668 799 5508
4 4609 4604 5291 4551
4 4583 5290 6093 4495
4 4609 4604 4551 351
4 4583 5290 4210 4551
4 2996 5323 3596 4606
4 4556 343 4583 342
4 4352 4624 5781 5788
4 4666 4575 4576 4588
4 4524 343 4495 344
4 4495 3907 4524 3905
4 4369 6038 1245 1246
4 4369 1734 6036 1743
4 4369 215 4305 1734
4 4119 1734 4369 4305
4 4611 5598 1353 1354
4 4611 4750 1353 5598
4 4218 5274 1351 1343
4 4721 4605 4693 4722
4 5273 2862 4192 3278
4 4693 6100 1354 1355
4 5099 6180 5215 5216
4 5100 2038 6198 2047
4 5101 6309 6198 5958
4 5215 2055 6180 2056
4 6205 2046 6180 2055
4 6309 6180 2047 2056
4 4031 4018 4017 4404
4 4456 1742 4403 3787
4 4460 5426 729 720
4 4460 729 5447 728
4 4456 5426 3786 3787
4 4018 4403 4508 3787
4 4455 1742 126 125
4 4018 4404 4460 728
4 3952 5108 4032 3431
4 4475 4459 3432 3431
4 4032 4079 4080 4428
4 4475 4480 3432 310
4 4032 4080 302 4428
4 4017 735 4428 726
4 5468 4475 4479 4480
4 3429 5468 4079 3956
4 3430 3954 3428 3955
4 4080 4479 20 744
4 3795 3015 3641 4875
4 3856 2170 3857 4297
4 4036 2187 3900 2178
4 3858 2178 3900 2177
4 3715 3855 3854 3858
4 3854 4036 3223 5222
4 4036 2188 2179 3332
4 5134 6297 6246 6122
4 6297 6146 6122 5383
4 6297 1958 6146 5383
4 6297 1957 6146 1958
4 4972 5458 6297 6246
4 5807 6163 1474 6172
4 5662 5807 1473 5633
4 5807 5633 1465 1473
4 5717 5633 1455 5524
4 6187 5688 5760 5773
4 3204 5067 580 5081
4 5067 5063 589 5081
4 5067 5005 3196 588
4 3208 3204 5081 5067
4 5972 6054 4439 4373
4 6054 6038 1245 4305
4 6054 1253 4439 1244
4 5418 4119 1735 6036
4 5766 6038 5764 6054
4 4539 4587 4636 363
4 4539 3536 4636 4587
4 3906 4435 4485 4437
4 4563 4544 4539 6279
4 4435 354 4586 353
4 4435 345 4485 4437
4 4657 1121 4656 1130
4 5935 4656 2371 1121
4 5935 4655 4656 2157
4 4654 4657 3729 4655
4 4655 2158 5886 2167
4 4656 4654 178 2166
4 3737 4693 5598 4611
4 4693 4230 4629 6100
4 4693 4611 1354 5598
4 4693 4611 4722 1345
4 3428 4547 5468 4488
4 3429 4475 4480 3432
4 3429 3432 3431 4475
4 4079 5468 4080 744
4 4316 4317 4318 4322
4 3623 2805 2978 2980
4 4316 4317 1795 1796
4 3751 6273 4317 4054
4 4316 1787 4318 1796
4 5328 1106 5894 5308
4 5328 1115 5894 1106
4 5195 5308 5328 5894
4 5328 5495 1115 1116
4 4697 5793 3167 6181
4 5210 2881 5211 5196
4 5295 5254 666 5155
4 2534 2535 2537 2541
4 6261 1693 4130 4364
4 6261 1684 4130 1693
4 4363 4364 1702 1693
4 6339 4363 6261 4364
4 3627 4970 5730 5721
4 6261 1692 6174 6257
4 6257 6081 6261 4510
4 6261 4130 1684 4510
4 4455 4460 4404 719
4 4404 4460 728 719
4 4018 4460 4404 4403
4 4427 6260 4455 1751
4 4455 4456 4403 4460
4 4427 718 5414 717
4 5323 4548 4561 5772
4 3679 1292 4548 3901
4 3678 3679 4069 321
4 3679 4548 4069 3901
4 5944 4128 5388 5924
4 5963 4045 1181 1182
4 5944 5277 5388 1162
4 5944 5277 1171 3744
4 4397 753 4547 762
4 4397 4320 22 762
4 4397 4547 4480 4319
4 4397 4479 753 21
4 5006 5005 588 3196
4 5006 587 3196 588
4 5358 5828 5084 5827
4 2711 3529 2712 3530
4 5865 5866 5833 6021
4 2946 5090 2894 2947
4 6230 6288 5733 3773
4 2268 2745 2270 3644
4 5758 1979 6300 1970
4 5758 5733 1970 6300
4 3214 3264 4738 3669
4 6300 5733 4602 5758
4 4407 15 1759 16
4 4407 4408 4129 284
4 4407 4408 16 1760
4 5415 284 4129 293
4 5415 4031 4459 4032
4 4031 4411 5515 5462
4 5415 4031 4032 4017
4 6346 4162 4902 4884
4 4762 955 3133 6014
4 3639 5747 944 953
4 3061 3093 3567 3095
4 4311 4343 5514 4991
4 4559 5577 6130 5596
4 2380 4024 2679 4023
4 5597 4228 832 5605
4 4559 5586 5577 824
4 5597 4559 832 4228
4 5597 4559 5596 833
4 5434 1686 5382 1687
4 5304 1772 4206 5492
4 5325 5451 3609 5117
4 5303 1762 1761 274
4 5303 5382 5304 1762
4 5122 5302 5304 5506
4 5302 5455 5445 3609
4 5324 5302 5303 6258
4 3262 3260 3263 3280
4 4217 4135 4467 4468
4 4217 4216 4467 770
4 5554 5507 4217 4468
4 5472 778 5507 787
4 4078 6104 5554 4214
4 5562 1815 4468 4467
4 4214 5513 5562 5541
4 5562 4216 5475 4467
4 4214 5562 4217 4216
4 4214 6344 5541 5562
4 5562 1816 5541 5513
4 5472 5507 5540 787
4 5507 779 4217 4135
4 5554 5484 5507 5472
4 5484 4217 5507 778
4 5507 5543 5540 788
4 5726 3771 4897 5667
4 4644 4718 424 423
4 5652 4700 3670 866
4 6005 6329 2173 6254
4 3153 3383 3222 2190
4 2443 3450 3153 2671
4 3331 3383 3222 3153
4 3331 3153 3332 3365
4 3153 3222 2188 2189
4 3153 2188 3222 3332
4 3331 3222 3223 3332
4 3607 2829 3130 3690
4 4197 6217 5139 1568
4 3146 3660 4152 4350
4 6315 5622 5620 3651
4 2829 3130 3690 2830
4 3088 4199 4971 1530
4 2711 3533 2712 3529
4 5425 5464 1694 4130
4 5121 5434 6258 1696
4 5122 5304 5492 5506
4 3944 4130 5425 4364
4 5260 5492 3944 5491
4 5121 1704 5425 1695
4 3422 4451 3756 5016
4 5464 4326 1685 4130
4 4768 5621 888 879
4 4708 5621 4768 879
4 4768 4785 4645 446
4 4797 4840 4768 4785
4 2671 2592 2199 2200
4 2670 2191 2669 2192
4 2532 6250 2592 1229
4 6005 2669 2191 2182
4 4830 6022 3978 2668
4 2668 6250 2532 2533
4 6005 6254 2172 6252
4 2779 2874 2873 2804
4 4791 102 101 1445
4 1445 4791 1454 101
4 4818 465 4802 466
4 4773 4802 4791 465
4 6142 3948 4864 4791
4 4791 6142 1436 4864
4 4791 3948 4864 4818
4 1454 4791 4864 4873
4 4671 109 393 402
4 6094 4671 1373 1364
4 4671 1373 109 4691
4 4671 4100 402 4096
4 3465 3063 4379 4331
4 4821 4783 459 4774
4 3627 3625 5721 5730
4 6299 5394 3462 4093
4 3346 3791 3097 4866
4 5681 4334 4800 5691
4 5681 5694 4800 4334
4 2532 2671 2569 2592
4 2532 2671 2592 6250
4 6022 6016 2533 6015
4 2532 2533 6250 1228
4 2532 2533 1228 1237
4 4830 2669 2668 3978
4 2436 2533 1237 6015
4 4830 2670 2436 2532
4 2670 2671 2200 2569
4 2435 2437 2670 2201
4 2435 2670 2669 2192
4 3338 5070 4196 2953
4 5920 3341 3342 3340
4 4892 3510 5796 4923
4 3305 4908 3306 4348
4 4577 3866 6330 2621
4 2607 3565 2946 2949
4 3942 4097 6073 3757
4 3942 5260 4399 5492
4 3784 3472 3421 5311
4 3942 4399 3941 6073
4 4399 6073 1790 1791
4 3942 6039 5492 1781
4 5930 5943 5951 4076
4 4077 5956 4076 5957
4 5930 5949 5943 1159
4 4847 5951 5957 4076
4 5930 1150 4074 5393
4 4077 4076 5956 5402
4 4523 5494 4490 780
4 4489 4596 4590 4545
4 3539 5517 4688 4236
4 6315 3651 5098 1546
4 4490 5497 781 5494
4 5443 5419 5450 5448
4 5454 5445 5506 6039
4 5302 1770 5445 5455
4 5302 5506 5445 1771
4 5444 5466 5474 4098
4 5444 5455 1770 134
4 5444 5474 1779 4098
4 5445 1771 5506 1780
4 4977 4171 4978 535
4 5045 4979 4944 4824
4 5030 4171 4977 4177
4 4171 4962 4980 536
4 4936 935 4928 4813
4 4936 944 3639 4928
4 4899 5714 5796 4179
4 4899 498 4923 497
4 3638 3639 5747 4928
4 4902 499 5725 498
4 3640 4923 4899 5725
4 2757 3328 5823 2579
4 6259 5464 5434 4206
4 5304 5506 1771 1772
4 5304 6258 5434 5382
4 4323 3754 749 5327
4 5434 6258 1687 5382
4 5454 5302 5445 3609
4 5122 5434 5304 6258
4 5302 5304 5303 6258
4 5302 1771 5304 5506
4 5876 4356 2112 6317
4 5876 5859 5869 4356
4 5876 2104 6201 5879
4 4389 5878 5876 5879
4 6333 5968 5101 6203
4 6333 6310 5968 5967
4 5215 6180 2055 5216
4 5000 4199 6210 6203
4 5424 5450 5419 5448
4 5424 5448 722 5450
4 5424 5448 5419 3785
4 5123 4314 5118 5422
4 4406 5443 5124 5448
4 5118 4314 1705 1714
4 2902 4957 4955 4306
4 5380 6115 5552 5551
4 6115 5552 1358 4102
4 6115 1357 5551 5599
4 4306 5379 5381 4742
4 6115 5599 4957 5377
4 3361 3501 3871 3842
4 4997 5076 4922 3575
4 4903 4905 6014 4906
4 5514 4958 4991 4961
4 4312 2633 3211 3172
4 5045 4824 4860 4961
4 3103 3104 3101 3301
4 5852 5854 6201 5869
4 5852 5854 5868 6201
4 5852 1058 5854 5869
4 5852 1057 5859 5853
4 5834 5854 1049 5851
4 6199 5834 5852 5833
4 2416 5503 3037 3552
4 3442 3939 3936 5438
4 3889 5370 4878 3437
4 3041 2428 4410 2646
4 4834 4552 5700 1289
4 5533 3751 3750 5398
4 4552 5700 1289 1290
4 4612 6278 4613 6131
4 4610 4286 6278 4144
4 4286 4144 1871 6278
4 4286 1880 6263 1871
4 4277 4282 4124 4280
4 5558 4684 3539 4680
4 4637 4646 4685 383
4 4219 4622 4637 4638
4 4622 4637 382 4646
4 4637 4685 4221 4582
4 4708 4645 437 446
4 4708 4645 5621 4793
4 4708 4768 35 879
4 4707 4709 4708 4793
4 4657 4655 4656 2371
4 4655 2158 2343 5886
4 2166 4654 4655 4656
4 2340 2371 4657 5910
4 5910 4204 2340 3722
4 5797 2023 6304 5783
4 5789 6306 5797 5771
4 5789 5775 986 5771
4 5789 4188 5797 2022
4 4083 5797 6304 5783
4 3729 2167 4655 3728
4 5947 4654 4657 3729
4 3727 3729 4655 3728
4 4657 5947 1130 4654
4 2573 2186 2572 2195
4 3047 3106 3050 3102
4 4073 3445 2876 5352
4 3698 4204 1129 3695
4 5372 4258 1186 1177
4 5951 5956 1167 1176
4 6347 5371 5957 5299
4 5372 1186 5279 1185
4 5372 5299 5373 5385
4 5372 5299 714 5373
4 3147 5114 3342 3161
4 5205 5114 1587 5187
4 6219 5085 5136 5179
4 5205 5187 1587 1596
4 5826 5873 4194 4195
4 4519 5640 1021 4195
4 5832 2067 5826 5812
4 5826 4195 5640 5873
4 5826 5873 2058 4194
4 5838 5638 1030 5821
4 5640 5638 1021 1030
4 5832 5838 5640 1031
4 5911 1103 5901 1094
4 5911 5861 2130 174
4 5911 5915 175 2139
4 5911 5861 5985 2130
4 6042 6039 4097 4098
4 4097 6039 1789 4098
4 4097 6039 3942 1790
4 4097 1798 4064 4099
4 4451 6344 6042 3756
4 5917 2018 3811 5778
4 4249 5345 4250 3571
4 4047 1999 2008 3814
4 2976 2977 2979 3220
4 5884 5773 6176 2001
4 5884 1992 5711 5773
4 3810 6168 5347 6172
4 5148 5106 1033 5064
4 5148 1042 5844 5064
4 5063 3958 5064 5106
4 5005 3958 5063 3198
4 3837 3993 2912 2913
4 3977 3958 3993 5844
4 5129 2916 2927 5133
4 3388 4184 5995 6251
4 3416 1208 6006 5352
4 4635 3106 3102 3050
4 3331 3223 3222 3224
4 2681 3373 5375 4207
4 2500 2510 2494 2499
4 4607 6004 2683 5125
4 3048 3104 4700 3047
4 4666 4588 6298 4575
4 5263 5266 4027 3909
4 5580 5516 820 819
4 5522 6001 4235 811
4 5522 5537 4235 6001
4 2904 3603 3848 3604
4 4711 4681 818 827
4 4192 3278 2865 5530
4 4723 4534 4603 4597
4 4534 359 4626 358
4 4534 358 4603 4597
4 3821 4352 5413 5788
4 2319 6120 5176 4667
4 2332 2330 2918 2919
4 6283 4758 5174 6120
4 4838 4239 1415 1406
4 3320 3405 3403 5703
4 6137 2734 6138 6139
4 2747 5664 5674 5658
4 4751 3405 3403 4763
4 6030 5838 5640 5812
4 5838 5640 1030 5638
4 5834 5821 1039 5833
4 5832 2076 5812 5867
4 5838 5821 1030 1039
4 5832 5826 5640 5812
4 5834 5838 1039 5821
4 3792 5701 4238 4845
4 4867 4238 908 5641
4 4158 4833 471 4814
4 3103 3049 3102 3047
4 4238 4845 916 4877
4 4875 4238 4901 4877
4 5937 4265 235 1518
4 5937 5958 1518 5939
4 5937 5939 6198 5958
4 6309 4265 5937 5958
4 5899 5911 5985 5901
4 5899 5862 5985 5861
4 5899 1094 5911 5901
4 5899 5255 1093 5901
4 5899 5861 1085 5863
4 6191 6178 1497 4245
4 6191 6192 1506 4968
4 6191 6303 6178 4245
4 3803 4953 4975 3116
4 3171 2944 3212 2700
4 4714 1164 4128 5970
4 4714 1163 5944 4128
4 4714 5970 4128 4663
4 4714 1172 5944 1163
4 3725 5963 3744 5944
4 3705 3697 4663 5924
4 5476 5542 5475 1797
4 5542 4064 1798 4099
4 6344 5562 5542 5541
4 3050 3105 5579 4706
4 4982 5012 545 4981
4 4982 5792 5015 5012
4 5486 5792 5037 5015
4 4982 544 4978 4981
4 5486 5792 4983 4996
4 4982 544 4981 545
4 5035 1005 5054 1014
4 5053 5035 4966 5054
4 5034 4966 581 5081
4 5035 5050 1005 49
4 5035 4966 5017 572
4 5273 3278 4192 5530
4 6117 3502 4780 3504
4 3102 3329 3504 3503
4 6117 4779 3502 5631
4 5740 1968 5722 1959
4 4112 5740 5722 1959
4 5740 5733 1960 6291
4 6230 5704 5715 5709
4 5740 5741 1968 1969
4 5679 932 5720 5722
4 5720 922 5709 5715
4 5720 5715 923 922
4 3282 931 5737 5719
4 5720 923 5722 932
4 5720 5740 5741 5722
4 5826 5640 1022 1031
4 5826 4194 2058 166
4 5826 1022 5640 4195
4 5826 5640 5812 5873
4 3549 5055 4650 3965
4 5609 6087 6037 5185
4 4294 4027 4391 4089
4 4333 4024 5292 4025
4 5533 5398 6052 6062
4 6343 3700 2510 5516
4 5264 5608 4029 4024
4 4025 5266 5264 5292
4 4696 3293 3278 5530
4 5556 4270 5571 2544
4 5832 5838 1031 1040
4 5832 5826 2067 167
4 5832 168 5851 1040
4 5832 5826 1031 5640
4 5960 5924 1145 5952
4 5960 5924 1154 1145
4 5960 1154 5388 1153
4 5960 5966 5277 5959
4 5933 6327 6245 6325
4 5234 4202 2106 2115
4 3200 5358 2753 5828
4 5173 5172 5300 648
4 2892 5077 2895 2913
4 6319 5156 6216 3864
4 4438 5866 5471 6021
4 5835 1053 5077 1054
4 4151 6313 5856 5896
4 4151 5431 5856 6313
4 3758 5466 6042 3755
4 4103 5454 5466 3609
4 6042 6344 4452 5542
4 5466 743 5474 752
4 3880 5988 4123 5460
4 6018 4850 6236 6237
4 4869 4868 4870 1626
4 6181 5793 6243 4283
4 4869 4870 1627 1626
4 4123 1618 4870 4039
4 5376 6106 2547 5599
4 5376 6106 2545 2547
4 5379 1875 4147 5378
4 5379 6106 1876 2545
4 5245 5247 5307 5285
4 5237 5238 671 5071
4 5237 5238 5265 670
4 5237 5265 661 670
4 5245 5546 5307 5247
4 5071 5307 5285 5237
4 3105 3106 3050 3046
4 5764 6054 1254 6034
4 6041 1263 5764 6057
4 5766 4119 5418 6036
4 5766 5764 6034 6054
4 4416 5764 1255 4417
4 5764 4417 6057 1264
4 3303 3146 4187 4908
4 3337 2954 2785 2953
4 2816 2856 2813 2817
4 3660 593 4350 584
4 3106 3960 3101 3104
4 602 4187 593 4152
4 2828 3145 2258 4350
4 5410 5087 1548 1557
4 5617 5381 1893 4336
4 6083 1894 5617 5600
4 5549 5380 6083 5617
4 5380 6083 5600 5551
4 3724 5963 5408 4045
4 2572 3726 3806 5222
4 5963 4714 4662 1173
4 5408 4290 1183 4503
4 3159 1562 3997 2256
4 3159 2828 2829 3145
4 3159 2257 5112 1571
4 2257 2258 5112 4999
4 2255 2258 2257 600
4 2505 591 2258 2255
4 2257 5112 5137 4999
4 2780 4274 4104 5240
4 5289 5155 674 5278
4 4295 5155 5289 5242
4 5363 5362 6269 5368
4 4915 6010 5992 4185
4 4338 1952 5708 5699
4 6158 5709 4737 4735
4 5704 4735 903 912
4 3773 4338 5731 5733
4 4338 5708 1951 4800
4 4519 5640 5638 1021
4 4519 1020 5638 5799
4 4518 5428 6030 4482
4 4518 5640 6030 5638
4 5917 2019 5778 6207
4 3814 4047 3813 2008
4 5778 6207 2019 2010
4 5778 6207 2010 6188
4 5870 4668 4489 5508
4 4489 4490 789 4545
4 4489 790 4490 5508
4 6279 4590 4563 4544
4 5870 6279 4489 4563
4 3673 2677 3847 3699
4 5126 4673 4614 4030
4 3700 6001 5516 6343
4 4219 4647 4638 4637
4 6056 4540 4541 1813
4 4540 1812 6075 4541
4 5533 6273 6062 6056
4 4540 6075 1812 1821
4 4428 4129 726 18
4 4017 5414 4404 727
4 5415 4031 4402 4459
4 4428 726 19 18
4 4032 302 4475 301
4 4852 5386 73 709
4 5386 72 1221 73
4 5991 5363 5386 4852
4 5991 5363 5368 5386
4 4913 5363 700 5362
4 5374 5991 5386 1212
4 4660 4647 4148 400
4 5618 4231 4288 5979
4 4647 4637 391 4638
4 4647 392 4637 4582
4 4579 4221 4580 5553
4 4100 4717 412 4617
4 3833 4745 5573 5575
4 4100 4692 5575 4691
4 4100 402 4096 403
4 5566 5642 228 2111
4 5642 229 1572 228
4 3613 3649 1573 1572
4 5298 5435 4024 4019
4 4191 188 5949 1151
4 4191 5950 5949 5943
4 4191 187 1161 188
4 4191 1169 5811 5943
4 4191 1169 5943 1160
4 4191 187 5966 1161
4 5374 5368 5990 711
4 5990 702 5342 703
4 4634 6269 5374 5369
4 5990 5368 5342 702
4 3783 712 5385 70
4 5003 4233 5169 4346
4 3862 2088 6319 2089
4 5171 5570 1591 6229
4 5171 1582 5570 3614
4 4233 5169 3128 6211
4 5002 5169 4233 6211
4 6256 6029 3986 4315
4 4929 6063 4363 4365
4 6177 6339 4363 6261
4 3742 3943 5461 5028
4 4673 4674 813 5560
4 3160 4673 804 5560
4 6072 6004 3160 5560
4 4673 5561 804 803
4 6004 4673 3160 5560
4 5324 5325 132 725
4 5324 4 275 133
4 5324 5455 133 1761
4 5324 6258 5303 1688
4 5324 1688 5325 6258
4 5324 5302 725 5455
4 5324 132 275 4
4 4914 1670 5384 1661
4 4111 681 4106 4105
4 4913 4914 5384 4105
4 4914 4855 1670 76
4 5940 5342 4127 694
4 5940 5371 695 4127
4 4257 5940 5371 5299
4 5280 703 5990 5342
4 5342 4127 5998 5940
4 2782 5244 5360 5240
4 5948 5392 1142 5950
4 5938 5284 5932 1132
4 4161 4849 5331 5907
4 5392 5284 1132 1141
4 5930 5950 6308 5943
4 3251 3443 4257 4258
4 4849 5907 5932 5331
4 5930 1159 4074 5949
4 5930 1150 5393 1141
4 4229 6100 4230 1355
4 4229 4671 110 393
4 4229 1355 111 1364
4 4229 4230 4629 384
4 6000 79 672 5226
4 3845 4612 3844 4613
4 4275 6000 5333 5276
4 6000 5275 5982 5333
4 4612 6110 5606 6111
4 4607 4614 6004 6110
4 5229 4918 1471 4933
4 5229 4918 1462 1471
4 6299 4910 5229 4918
4 5229 1462 4910 1463
4 5249 1676 6020 1677
4 4184 1233 5249 5987
4 5359 3874 1232 5987
4 3874 5987 5249 1232
4 5249 205 6017 1676
4 3861 6218 5212 2090
4 3651 4008 5905 3652
4 5692 5021 3691 3693
4 4826 6276 5138 5909
4 5593 6218 2082 5623
4 4418 4066 294 285
4 4418 294 4440 121
4 4418 4367 285 122
4 4528 3734 2342 3069
4 4528 2342 2370 2341
4 5842 4505 5889 5235
4 5945 5913 5997 2150
4 5945 2343 6239 2149
4 5947 4204 1129 3698
4 4273 646 5183 645
4 4273 6235 5182 5993
4 4273 5230 5767 5183
4 6234 5320 5140 6235
4 3407 3580 4782 4763
4 5632 3580 4733 4785
4 5632 4792 3378 4817
4 4733 445 4645 4785
4 4620 4566 365 374
4 4620 4596 798 26
4 4620 4641 27 807
4 4620 365 4563 4596
4 4747 1391 107 1400
4 4747 106 1400 107
4 4748 1409 105 6141
4 4748 6141 4803 1409
4 4748 4749 4803 4690
4 4728 5604 4754 4729
4 4754 852 5604 861
4 4754 861 5604 5648
4 4754 4729 5604 4712
4 4754 4712 852 32
4 4707 4709 4728 428
4 4112 5706 5691 914
4 5706 905 5681 5691
4 5706 904 5681 905
4 5706 5681 904 4341
4 6230 5733 6288 6291
4 4407 283 4068 15
4 4407 4068 283 4402
4 4407 15 4068 1759
4 4382 4068 1758 3824
4 5519 4783 3949 4788
4 4837 5395 4239 1397
4 5625 6121 1398 1389
4 2920 5639 2321 4639
4 3766 5396 4337 1387
4 4612 5606 4610 6278
4 4643 6284 4644 4718
4 3833 4745 3738 5573
4 1501 5096 4242 5612
4 4952 2021 5093 5094
4 4952 2021 5094 5613
4 5611 5094 5614 6207
4 4240 4250 4241 5473
4 5525 6137 3933 6059
4 6283 6120 6133 4758
4 5174 6120 4758 1393
4 6120 1394 5639 6133
4 5174 6120 1384 5176
4 3456 3957 3455 4562
4 2416 5503 5817 3555
4 4424 280 4429 289
4 4209 748 5446 5311
4 4209 747 4448 5446
4 3957 4562 764 765
4 3436 4457 3433 3971
4 3438 4478 3437 4149
4 4004 4005 757 5311
4 6309 5958 5937 6198
4 5101 5968 6309 5958
4 6309 2048 5937 4265
4 6309 6180 6198 2047
4 6333 5215 6309 6310
4 4104 4106 4105 4201
4 4104 4201 4105 5384
4 4111 5226 4106 681
4 4111 4914 77 690
4 4111 1661 4914 5384
4 4111 4914 4105 5384
4 4873 484 4863 4856
4 3464 4378 5047 3462
4 5942 6245 6237 2154
4 5942 6237 6238 2163
4 2583 4766 5219 5128
4 5942 6238 2162 2163
4 5787 6005 6252 6254
4 6018 4869 4850 4870
4 4831 2669 2183 2192
4 4830 4831 2669 3978
4 2435 219 4831 1662
4 5109 223 4868 2156
4 5109 224 1617 223
4 4871 2165 4868 222
4 4871 4872 4850 2165
4 6110 4607 4614 4612
4 3810 6167 6172 5347
4 6167 5347 1466 6172
4 5345 6166 1475 1484
4 6167 5347 1467 1466
4 4420 4299 1240 1241
4 4466 4299 4420 6028
4 3516 4420 4299 6028
4 4211 4454 4420 1241
4 4375 3004 3093 3063
4 3948 4776 3949 4802
4 3949 458 3947 457
4 3949 4802 4776 457
4 3949 4776 4761 448
4 4381 1756 4429 4380
4 4381 281 4429 280
4 4381 4374 1756 12
4 4381 4429 4374 280
4 5628 5596 6130 1878
4 5628 5663 1887 1888
4 5572 5597 4140 5605
4 6130 3330 4613 5628
4 5597 841 4140 5605
4 4613 5597 4559 6130
4 6315 5622 6281 5620
4 5905 5098 3652 3648
4 5098 3648 4623 4349
4 5098 3648 4349 1554
4 5098 5354 1545 1554
4 5353 707 5351 698
4 5387 5353 64 707
4 5353 5351 5393 5284
4 5281 5284 5353 1131
4 4839 3901 4443 4401
4 3686 3901 4443 1283
4 2863 4775 4192 2865
4 3901 3686 4401 3679
4 4443 3901 4553 1282
4 4443 4401 303 4442
4 4443 5389 6057 1273
4 2280 5229 4856 4910
4 2280 492 4856 4891
4 98 501 492 2280
4 2280 4366 2281 4891
4 5334 5613 5761 6163
4 5761 1473 5807 6163
4 5761 2011 5613 6207
4 5761 5613 6126 6163
4 5760 5773 2002 6188
4 5760 5662 2003 1994
4 4457 309 3432 3433
4 301 300 3432 4459
4 5399 3552 1287 5498
4 4834 4134 1289 1288
4 3708 4015 3002 4013
4 2414 2567 2566 2315
4 3970 3894 3975 3971
4 2760 2576 3328 2473
4 2994 3816 5700 2996
4 2437 1671 200 6
4 2436 2437 200 1238
4 2437 6 199 218
4 2435 2437 218 1671
4 2437 2569 2201 199
4 4830 2532 2668 2670
4 3848 3605 3847 3845
4 4609 6093 5291 4226
4 4696 5548 1324 1323
4 5529 1325 4578 4676
4 3818 1316 3820 3821
4 5548 1323 5511 1314
4 4578 3821 1325 1316
4 2341 2340 2370 2371
4 2341 2343 5915 6239
4 2341 2371 2372 1111
4 2341 1103 5901 5915
4 4528 6239 2341 5901
4 4193 4521 5815 4945
4 4518 4522 5635 5873
4 4514 4522 4521 5636
4 4193 1013 5815 4194
4 4193 4517 1012 4195
4 3390 1730 3506 3505
4 3506 1730 3393 1731
4 5117 5121 5122 6258
4 4487 3597 4033 4473
4 3506 5421 4453 1731
4 5436 3506 5421 4453
4 3943 5425 5437 5461
4 5121 5434 1695 5464
4 5259 5492 3944 5260
4 5122 4206 5304 5434
4 5492 3944 5491 4206
4 5464 5122 5434 4206
4 5074 4574 4597 5024
4 4723 4574 4597 4603
4 4574 1327 6095 4625
4 5074 1328 4574 5024
4 4574 6095 1327 1336
4 5074 4574 1337 4722
4 3353 6272 5499 5500
4 6068 6272 4131 4132
4 4131 4132 6272 1303
4 6272 1304 3352 6090
4 3545 3546 4787 6270
4 2546 6066 6106 1877
4 6066 1356 5600 1886
4 6066 6106 5600 5599
4 6066 1877 254 1886
4 5039 5017 5033 562
4 5487 5015 5486 5037
4 5009 4982 5039 553
4 5039 5069 5017 5050
4 5487 5036 5069 5015
4 3309 3134 4986 3950
4 3308 3310 5086 3309
4 5358 5086 5006 3950
4 3980 3308 2733 5358
4 2892 2895 2894 2913
4 3950 596 5006 597
4 3950 597 5006 5092
4 3950 5144 606 5092
4 3679 4069 312 4401
4 4069 313 4401 4419
4 4483 4473 4526 323
4 3594 4069 3901 4401
4 3598 4033 4034 3597
4 3283 4602 5741 6288
4 3121 5978 3282 5668
4 3773 5758 5733 5731
4 3282 5668 921 930
4 4739 4736 5728 4738
4 6287 4601 3773 5758
4 3282 5668 4737 921
4 4842 4884 491 500
4 4842 491 4884 4885
4 4842 4859 4884 5723
4 4812 4859 934 4928
4 4842 5723 41 933
4 4812 4885 4842 4884
4 6193 6295 3835 5008
4 4244 3835 6342 6295
4 6193 6342 3835 6295
4 3748 2784 4007 4009
4 3892 5539 6215 6192
4 5803 6204 1513 1514
4 6193 5803 1505 6191
4 4940 6342 5802 1513
4 4940 4251 4252 6342
4 4976 4260 3510 4937
4 3776 5008 6196 4934
4 4920 1495 4251 1494
4 4940 4252 5802 6342
4 3701 1201 4290 1192
4 3701 3223 4290 3418
4 5222 3701 3221 3223
4 3701 1202 3051 3224
4 4523 771 5494 780
4 4523 4545 24 780
4 4523 5494 4321 4564
4 4523 4320 771 23
4 6025 209 1239 266
4 6025 7 209 266
4 6025 6029 6026 1769
4 6025 6027 6047 1239
4 6025 6026 1680 267
4 6025 1769 267 7
4 6025 6028 4466 1680
4 6026 6029 6051 1768
4 5620 6281 6223 5623
4 5622 6281 2065 6310
4 6223 5623 6281 2074
4 4623 5354 6223 5098
4 3651 6210 1538 1537
4 6315 1546 5098 1545
4 6315 5098 5354 1545
4 6281 5623 2065 2074
4 6314 6281 5967 6310
4 6314 5354 2075 232
4 6314 4266 5967 1536
4 4736 4734 3273 5728
4 3119 4867 5650 4811
4 3580 4794 453 4760
4 3791 4867 4238 5701
4 4867 899 5701 5650
4 4497 2923 4806 5655
4 3119 3791 5701 4867
4 4461 4458 318 4476
4 3438 4458 4476 4149
4 3427 4461 4458 3433
4 4458 308 3433 309
4 5263 3298 3909 4027
4 4613 6130 6263 3330
4 4635 3233 5663 3329
4 3106 3960 3105 4706
4 3233 5663 3329 1897
4 3233 1898 3329 3503
4 5476 5475 137 1797
4 5476 1788 4099 1797
4 5476 5542 1797 4099
4 5476 5474 1788 136
4 5576 5565 806 815
4 5576 5563 1842 142
4 6111 5439 5576 5565
4 5576 5564 143 1851
4 4112 5715 914 923
4 4112 5691 1950 154
4 4112 6291 5740 1959
4 4112 5722 155 1959
4 3578 3961 1905 4232
4 3578 3961 860 869
4 3578 4141 1896 148
4 3578 149 3579 869
4 4184 5887 1224 5987
4 4184 5987 5249 6020
4 4185 4184 6020 5987
4 4184 5249 6017 6020
4 5717 5662 1994 241
4 5662 1473 5761 2003
4 5662 1464 240 241
4 5074 4525 4603 4722
4 4525 1346 1337 113
4 2575 2304 3024 2587
4 4525 4693 4605 4722
4 107 420 411 1391
4 4747 420 4692 4717
4 5046 5725 4907 4923
4 5736 3319 4899 3640
4 5725 508 4162 4823
4 5725 4923 507 4907
4 5061 4823 4162 4860
4 5061 4907 5046 5725
4 6346 4884 4859 4162
4 4378 4858 4864 4911
4 6327 5111 2147 2138
4 2719 3293 2864 3299
4 6327 4360 5111 6322
4 6327 4347 6322 2137
4 5415 4129 4428 293
4 4031 5414 6260 4404
4 4031 5462 6260 4411
4 5415 4428 4017 4032
4 5414 4408 717 4129
4 4427 5414 718 4404
4 5047 4873 5712 4863
4 4407 5414 4129 4408
4 3101 3301 3959 6285
4 5693 3561 3297 5670
4 3296 3831 3561 5677
4 5656 868 3960 3962
4 4789 6208 886 5675
4 3106 3960 4700 3105
4 4789 3831 3296 5677
4 5423 5953 1139 1148
4 5423 4654 2175 179
4 3729 3657 5423 2184
4 5954 3657 5423 5953
4 4389 6317 5876 5878
4 4388 5407 5645 5256
4 6200 6202 5879 6201
4 6199 6316 5865 5228
4 6199 6024 4154 5228
4 6111 1852 5439 5606
4 6110 6111 5439 5606
4 6111 5576 5439 1851
4 6110 5560 5586 4674
4 3920 4235 5537 6343
4 4078 5484 3055 5051
4 6104 5463 5496 5541
4 5496 1826 5509 5513
4 5496 5463 1817 5541
4 3107 3371 3738 5601
4 4702 5601 1361 6112
4 6108 5601 4142 1370
4 4679 2322 4667 4715
4 2516 3990 2508 2905
4 5601 6112 1362 1361
4 4142 1371 5601 4745
4 3549 4041 4040 5536
4 3208 5053 5106 5081
4 5053 5054 5818 1015
4 5053 5825 5106 1024
4 5052 5053 5081 4966
4 5052 3208 5053 5818
4 6314 4266 1536 233
4 6314 6281 2066 2075
4 6315 6314 6281 5967
4 4952 2021 5613 2012
4 4952 5613 6126 2012
4 4952 5612 5613 5094
4 4952 6163 5612 1482
4 4952 5613 6163 6126
4 4865 4844 4159 4843
4 4159 4160 481 4885
4 3792 4845 4159 5649
4 5684 4845 4877 4843
4 4900 4682 837 3323
4 4682 3323 836 837
4 3699 4207 5375 6001
4 3848 3845 3677 4101
4 4682 836 4220 827
4 4682 4711 827 4681
4 4680 4682 4681 4711
4 4277 6127 5569 4281
4 3843 4169 4259 6162
4 4169 994 4945 4946
4 4169 4946 5804 993
4 4169 6162 5771 985
4 4083 5782 5797 5783
4 4169 6162 984 4259
4 6288 5720 5741 5737
4 3282 5720 5737 931
4 3282 5668 930 5719
4 6288 5741 5720 5740
4 4069 322 4483 4504
4 3678 4069 4548 4504
4 3594 4069 4483 4504
4 3678 3679 4548 4069
4 4836 4302 4303 4449
4 5765 5972 5766 6034
4 4303 4066 295 4442
4 4302 296 4449 305
4 4302 305 4035 4419
4 5765 3527 4463 4835
4 6045 4373 6035 4119
4 4011 6035 5481 6271
4 4014 1253 4439 6034
4 6339 5491 5465 6082
4 4013 3987 5480 3494
4 4014 1262 6040 1261
4 5955 4114 4918 4933
4 3300 5609 3553 3350
4 5394 4247 4889 4863
4 4114 4918 1470 4116
4 4114 4935 1479 4933
4 4931 3510 4937 4976
4 4095 5955 4114 4116
4 4172 4912 3775 3789
4 5549 5175 6079 5550
4 5549 5617 6083 5616
4 5549 6118 5550 5552
4 5550 5552 6118 1366
4 5146 1041 5163 1050
4 5146 5163 5127 5147
4 5146 4182 1041 53
4 5149 5146 5147 5846
4 5034 51 5062 590
4 5034 5053 1023 1014
4 5034 5053 5081 5106
4 5034 5035 1014 50
4 4188 986 5775 977
4 4188 5786 2013 161
4 4188 5786 977 5774
4 4188 5797 2022 6304
4 2445 6329 6249 3978
4 6023 1653 6249 3978
4 4869 6249 1645 5191
4 2442 1654 6249 5191
4 4113 5039 554 563
4 4113 5012 987 47
4 4113 48 5050 563
4 4113 5039 5015 4982
4 4151 5161 6313 5896
4 4150 5469 5161 5896
4 4151 5841 5856 4237
4 6021 5841 4237 5853
4 2858 574 2849 573
4 4960 2869 2858 4046
4 2848 2816 2858 2849
4 3748 2750 4009 3749
4 5820 6204 5545 1523
4 5082 5001 6183 6184
4 5058 6175 1515 4967
4 5058 5545 1524 6175
4 5058 5545 1523 1524
4 4728 4729 5979 5604
4 4728 427 4709 4753
4 5618 4728 4709 4753
4 5732 5696 950 959
4 5732 6301 6173 5696
4 5732 5754 159 1995
4 5678 5743 5732 6173
4 5281 5331 689 698
4 5281 5224 1122 62
4 5281 5353 63 1131
4 5281 689 5326 5224
4 4871 6023 221 1644
4 6023 6329 2174 2183
4 4871 4872 2174 6023
4 6023 3978 6249 6329
4 4158 4814 471 4160
4 4158 4794 4760 462
4 3792 3119 3791 5701
4 5684 4159 4885 4160
4 4794 4833 461 462
4 3124 4158 4794 4760
4 5336 1231 3874 207
4 3874 1678 207 206
4 3874 5249 206 1232
4 5992 1660 5384 1669
4 5965 708 4855 699
4 5987 4185 5359 6009
4 4854 1678 5336 3874
4 3616 4073 3870 4071
4 4435 4437 4544 345
4 4486 4437 336 4067
4 4544 4435 4436 4437
4 4486 4485 335 336
4 4471 4486 4067 4437
4 3783 5990 712 711
4 3783 5990 5385 712
4 5374 5369 1204 1203
4 5374 71 3783 1203
4 5374 3783 5990 5369
4 5571 6037 1321 4270
4 4391 5557 4392 4089
4 4391 5557 4089 6092
4 5571 1330 2544 4270
4 4416 1246 4371 1247
4 4371 217 2872 1247
4 4371 4369 1743 216
4 4700 3670 867 3960
4 3296 3959 3561 3831
4 892 5658 883 4965
4 3670 876 5656 3606
4 3959 5656 3960 3962
4 5093 2021 238 2030
4 5444 5445 4098 1779
4 5093 5095 2030 237
4 2829 3132 3130 2830
4 2856 5060 2817 3690
4 4009 4010 5411 4008
4 2239 6217 1558 1559
4 2813 5060 2814 2817
4 3532 594 5080 3660
4 5060 2817 1542 2814
4 2342 5886 5945 3066
4 2179 3855 4056 2170
4 2343 2342 5886 5945
4 5767 5864 5300 5230
4 5840 5847 1109 1100
4 2694 3192 3194 3696
4 4854 5336 1678 1679
4 5336 4853 208 1679
4 5336 207 3874 1678
4 5359 5336 1231 3874
4 3656 4662 5427 1165
4 5427 183 5970 1156
4 5427 4664 1157 1156
4 4822 951 4824 960
4 4822 4962 44 960
4 4822 4909 951 43
4 4822 4962 960 4944
4 5935 2371 1112 1121
4 5935 5915 2148 176
4 5935 4655 2157 2343
4 5935 4656 177 2157
4 4456 3786 127 1733
4 4456 4460 719 720
4 4456 4460 720 5426
4 4455 719 4456 4460
4 4456 4460 3787 4403
4 5444 5445 1779 1770
4 5111 224 2147 225
4 5109 4870 4850 4868
4 4148 4579 5568 4752
4 4752 4231 4415 5979
4 4652 4580 4278 845
4 4652 5594 5553 844
4 4579 4652 5553 4580
4 4752 4729 5594 5604
4 4279 854 4652 4278
4 5610 5596 1878 146
4 5610 4140 842 851
4 5628 5610 5663 4140
4 5610 5597 842 4140
4 5149 5154 617 626
4 5149 5146 1050 54
4 5149 55 2890 626
4 5149 5154 5846 5147
4 4707 4709 428 437
4 4707 4754 861 33
4 4707 34 4708 437
4 4707 4728 4709 5648
4 3868 5314 4781 4071
4 2881 3655 5322 5296
4 4847 5331 5284 5351
4 5928 4295 5289 4304
4 4755 1189 5065 1190
4 4781 4183 5338 1196
4 5184 4391 5262 5185
4 6063 6069 1710 4365
4 6063 6069 1709 1710
4 3702 5481 6063 6069
4 5481 6063 1709 3517
4 3002 3987 3702 4013
4 1691 1692 6174 6063
4 6063 1692 4363 1701
4 4413 258 257 1850
4 257 4269 1320 1850
4 1850 4269 1320 4267
4 4267 4413 1850 1841
4 4267 4413 6088 1320
4 4131 4413 1311 6088
4 4413 1841 6086 258
4 5963 5408 4045 1182
4 5963 5408 1173 4662
4 3705 4714 5924 4663
4 3705 5963 4662 5408
4 4275 4201 1651 1652
4 4275 1643 5226 1652
4 4111 5226 4201 4106
4 4693 3737 5598 4629
4 5964 4096 4672 4618
4 4672 4618 395 4043
4 4672 4618 4096 394
4 4672 4648 385 4090
4 5860 5863 1076 1085
4 5860 4356 2112 172
4 5860 6317 5862 2121
4 5860 5861 173 2121
4 6230 5978 6288 3773
4 5704 912 5709 4735
4 5704 913 5706 5715
4 6230 5706 6291 5715
4 5704 5706 904 4341
4 5346 5345 6167 1476
4 5345 1475 6167 1476
4 5332 6167 5346 5345
4 3586 5345 6166 6167
4 5345 6167 1475 6166
4 4382 4383 281 282
4 4382 13 4381 1757
4 4382 4381 4380 1757
4 4382 4068 14 1758
4 5294 5266 5292 1846
4 6299 4911 5047 4910
4 4889 494 4890 493
4 4889 4856 493 4891
4 4889 4863 484 4856
4 5294 5268 6277 5266
4 1351 4218 1342 3681
4 3737 4675 4611 4750
4 4042 377 4648 4650
4 4042 4672 4648 386
4 5294 1846 5268 5266
4 4865 40 4842 491
4 4865 915 4843 924
4 4812 4843 4865 4885
4 4522 4521 5636 2050
4 4522 5815 4193 4521
4 4514 4522 4193 4521
4 4522 2058 5873 4194
4 5175 6209 1374 1383
4 6083 5550 1365 5551
4 5679 5737 932 941
4 5679 5722 1968 156
4 5679 5737 5718 5741
4 5679 5720 932 5737
4 5157 86 1580 5137
4 5157 5158 85 618
4 5714 497 4899 4923
4 3133 4335 946 947
4 4179 5798 4894 4893
4 3508 4932 4308 3707
4 2741 4972 6297 6246
4 2365 3133 6014 3637
4 4963 4964 542 533
4 3812 3924 2007 5164
4 4179 4893 4894 487
4 5042 3006 4246 4247
4 5410 4886 5087 1557
4 2709 2710 2813 2856
4 4886 5087 1557 1556
4 6315 5967 1537 1536
4 5591 5592 3693 5212
4 5689 5729 6213 1935
4 5632 4792 5618 3381
4 4497 4500 2320 4496
4 3375 4965 3376 3380
4 5305 4699 3572 4700
4 3375 3483 2487 4965
4 2405 2974 3992 2354
4 2906 4900 2905 4272
4 4289 3483 873 4291
4 3104 3670 3960 5656
4 3287 4287 3050 3677
4 3174 2330 2321 3935
4 4080 4475 302 311
4 4080 4428 735 19
4 4079 4080 5468 4475
4 2436 2437 1671 200
4 2436 6015 201 1672
4 2436 6015 1237 201
4 2670 2569 2437 1238
4 4830 2533 2668 2532
4 2710 5060 2755 5091
4 3531 4189 5059 575
4 3531 584 3660 4350
4 2816 4046 4960 2858
4 3532 3531 5059 576
4 4000 2964 5974 5208
4 3672 4527 4387 3312
4 4655 6328 3716 2340
4 5907 5326 5331 4161
4 5971 5923 6228 5231
4 3195 5749 4924 5847
4 5931 5895 5225 5907
4 2881 5322 3655 5344
4 3543 5320 3237 6234
4 6009 1677 3874 5249
4 4185 6009 5987 6020
4 6009 3874 1677 1678
4 6009 3874 5987 5249
4 2804 5352 2886 2897
4 4751 443 3403 442
4 4264 3402 442 5703
4 4264 4593 3402 5703
4 4821 4026 3094 4176
4 3320 5703 3403 3402
4 4157 3404 3402 4176
4 3040 3094 4593 3402
4 2491 2746 3668 2743
4 3040 3404 4176 3402
4 6205 2055 6180 5216
4 5837 2045 6205 2054
4 5837 3487 6205 2045
4 6205 5216 2054 2055
4 5100 6180 2046 2047
4 3487 2036 6205 2045
4 6205 2036 5739 2037
4 4052 4767 5000 4061
4 6102 3498 5582 5837
4 2940 2624 3779 2939
4 5622 5620 5623 6281
4 4058 5449 6206 4060
4 6027 1239 4466 1240
4 4466 4420 210 1689
4 6025 209 4466 1239
4 5989 203 5994 1235
4 5989 6016 1236 6008
4 5989 1673 6016 1674
4 5989 1674 6016 6019
4 4211 4454 1241 1242
4 6277 5167 5261 5294
4 4211 1242 212 3488
4 4118 4211 4454 3518
4 4211 211 4420 1698
4 4361 5955 4366 4933
4 2280 4366 4891 5229
4 2280 1472 4366 5229
4 4366 1471 5229 1472
4 4361 4916 4366 4355
4 2281 4366 1481 4355
4 5683 3638 3640 6346
4 5514 5061 5747 5045
4 4812 4885 4865 4842
4 6346 4859 4812 4928
4 4812 4813 925 4843
4 5972 6045 6054 4373
4 6035 4119 4373 1726
4 4119 4373 1726 1725
4 6026 6029 1768 1769
4 6026 6255 1768 6051
4 6025 6026 267 1769
4 6026 6051 6029 6028
4 5444 135 5474 743
4 5954 181 3849 1157
4 5954 3657 2193 2184
4 5954 3849 3657 4664
4 3221 3051 2196 2197
4 3284 3419 3221 2196
4 3284 3221 3701 3051
4 4036 3223 5222 3221
4 5759 2031 6306 2040
4 5759 5815 164 2040
4 5759 5771 4945 6306
4 5789 5759 6306 5771
4 2332 2331 2320 4497
4 5396 5625 5395 1397
4 5625 5395 1397 1398
4 4142 4746 5625 1389
4 5625 5395 1398 6121
4 3833 4100 4717 4692
4 3083 5625 4142 4746
4 5424 5448 721 722
4 5424 3786 1724 128
4 5424 3785 5419 1724
4 4254 5419 5424 5450
4 5113 5157 4999 5085
4 5113 4999 5157 5137
4 5113 5112 1579 5114
4 5113 5137 5157 1580
4 5113 5114 1579 1588
4 4756 5819 1197 5338
4 3417 3450 2886 3396
4 5222 5068 4359 3446
4 3387 6251 4185 4184
4 3644 6158 3867 3645
4 6299 5955 5229 4891
4 3591 5735 6171 5479
4 4238 3792 5684 3791
4 3188 2936 2933 3584
4 4665 5423 5953 5947
4 3657 5423 5953 4665
4 3656 3806 4664 4662
4 5973 5068 4359 5222
4 1846 5294 5268 1837
4 3722 4276 5749 5910
4 3727 4657 4655 3729
4 3900 3728 2176 3729
4 3064 5627 3067 3066
4 3192 3706 5282 3696
4 3446 5222 3223 4290
4 3449 3447 3445 4072
4 3655 5322 676 5344
4 2881 3655 2540 5344
4 3069 5946 4530 3071
4 4512 4458 4149 317
4 4472 4458 317 308
4 3438 6294 4471 4476
4 4037 3957 4562 4488
4 4003 3788 3784 4004
4 3904 4409 3907 5822
4 2403 2578 3259 3911
4 4677 5330 6331 6078
4 5673 3507 6055 6271
4 4508 4453 5902 3787
4 3662 4034 5370 3597
4 4431 3742 3943 3741
4 4295 2844 4628 2540
4 5294 1837 6060 6277
4 4755 1188 5819 3745
4 3194 5282 1126 1127
4 2290 2881 5405 5196
4 3870 5314 4071 5887
4 5992 1668 6010 1659
4 3485 3868 3869 4633
4 5972 6054 6034 4439
4 2549 3856 3998 3853
4 5981 2160 5997 2151
4 5981 2160 3066 5997
4 6318 2151 5997 5946
4 2370 3734 2372 5847
4 4697 4798 6182 5128
4 4297 6252 4056 2171
4 5934 4850 6237 4851
4 3069 5945 2343 6239
4 2914 2927 2917 2916
4 4512 316 4472 317
4 4512 317 4472 4458
4 5925 307 4472 316
4 3436 3437 4472 4458
4 3427 3436 4458 3437
4 4208 3970 4472 307
4 307 3970 4472 3971
4 3507 1728 6264 6055
4 3390 3507 1720 1729
4 3392 3393 1721 3400
4 3389 3710 3470 5436
4 5123 5437 4314 5422
4 3399 4365 5031 5029
4 3390 3506 1730 3393
4 3390 3393 1730 1721
4 4841 4296 3751 6071
4 3299 3349 5548 3351
4 6070 4631 5509 5496
4 2724 3351 3350 3352
4 3816 2996 5801 5700
4 5263 5268 3544 5267
4 6345 5540 5555 5528
4 4573 4632 1828 5595
4 5972 6040 4642 4014
4 4632 3333 4787 6074
4 5765 3939 4463 3527
4 4573 5595 1837 6277
4 4573 5595 1828 1837
4 5533 3752 5398 3750
4 3059 3293 5548 5412
4 3908 6277 5266 5167
4 3022 3181 3021 3182
4 5572 5607 3677 5605
4 4780 4062 4779 4280
4 2518 4743 2905 3323
4 4219 4646 5567 4222
4 5141 4622 4683 4658
4 4219 4622 4646 4637
4 4537 4695 4535 4621
4 6127 1890 3504 5569
4 6127 4780 4779 4280
4 3766 4667 1377 1386
4 3287 4780 4277 4125
4 3846 3677 3845 4613
4 4635 3106 3050 4706
4 4494 3289 3288 3290
4 6179 4137 5497 6279
4 6230 3773 5733 4338
4 4494 4181 5390 2421
4 3793 4158 4160 4814
4 4643 3289 3405 6284
4 5766 5972 6054 6034
4 5632 4645 4793 5621
4 3403 3402 442 451
4 2797 2977 2326 3374
4 3483 5658 883 874
4 5653 5655 1928 1919
4 3934 5721 5653 6113
4 2486 3296 3606 3670
4 6059 6150 6138 6114
4 2921 5603 4758 6133
4 5961 4828 2731 6136
4 3591 3592 3593 4820
4 3318 3584 5796 6085
4 4640 3044 5395 4995
4 2729 2738 2739 4972
4 3934 6114 6059 2734
4 5965 4852 708 709
4 5965 4852 4855 708
4 6003 5965 4852 4854
4 5765 3939 5972 4463
4 4913 5363 5965 700
4 3776 6295 3834 6196
4 1468 4115 4110 4109
4 5008 4245 1496 1487
4 3776 5008 4934 4245
4 5008 1486 4934 1487
4 4934 1477 6196 4912
4 4115 4114 4935 1478
4 4920 1486 5008 1495
4 5008 4934 1486 6196
4 6193 1495 5008 1496
4 5008 1487 4934 4245
4 3835 6191 5008 4245
4 2443 5790 2445 6005
4 6018 4798 4123 5934
4 3365 2443 3450 3153
4 2668 2532 6250 2671
4 5415 4031 4017 5414
4 6022 2668 4830 2533
4 5856 5077 1045 1054
4 2892 1045 5077 1044
4 5856 6313 5077 5896
4 2892 1044 5077 2913
4 3996 5077 5835 5364
4 3996 2913 5077 5364
4 2573 2186 3900 2572
4 4665 3729 2185 3657
4 4503 2571 3656 2573
4 3721 3698 3696 3722
4 2177 3900 3728 2176
4 2573 2571 2194 2195
4 3858 3716 3717 3728
4 4665 2573 3657 2185
4 2816 4046 2828 2830
4 3308 3621 2733 5827
4 4807 5453 2027 2026
4 3875 4919 4998 3876
4 5209 5208 6290 2134
4 5980 2133 6290 2134
4 5891 5206 6290 6247
4 5980 6247 6290 2133
4 4000 6290 5891 5206
4 4200 5207 2115 2124
4 2959 2957 2955 5974
4 5415 4407 284 283
4 3655 677 5322 5296
4 3655 676 5322 677
4 5295 667 5322 676
4 5210 5322 668 5211
4 2881 5296 5322 5211
4 5210 5322 667 668
4 3712 5311 4323 3421
4 5122 5454 5117 5302
4 6042 6043 4064 4097
4 3758 3755 4103 5466
4 3784 4004 4209 5311
4 5121 5119 3940 5437
4 4432 4399 5319 4400
4 3420 3712 3422 3421
4 4224 362 4586 4636
4 4224 352 4524 353
4 4608 4226 4225 361
4 4224 362 4225 361
4 6169 4653 4081 6170
4 4081 379 4653 370
4 6169 4225 4081 370
4 6117 1900 5581 5631
4 6117 1891 5581 1900
4 4741 5581 1891 1892
4 4741 4336 5581 1892
4 5202 5201 4336 6128
4 5581 4336 6128 1901
4 5298 5435 5125 4333
4 6345 6072 5251 3029
4 4610 4144 4019 4286
4 6260 4407 5414 4031
4 2899 2405 2974 2407
4 4614 4673 4674 4030
4 5558 5567 4668 4684
4 5264 5608 4024 6099
4 3278 3293 2865 5530
4 6099 1863 4144 5435
4 4965 3376 882 891
4 2263 2270 2266 2268
4 3283 6186 3466 5719
4 5708 6230 3645 5682
4 3209 2976 3103 3220
4 5652 875 3670 3606
4 3790 3124 4462 3098
4 5658 3606 884 875
4 3483 3380 873 882
4 5305 865 4699 866
4 4821 4176 3094 4175
4 5415 4407 4129 284
4 2922 2923 5655 5654
4 4861 4175 4796 469
4 2292 5013 4163 5104
4 4821 4774 3094 4783
4 4796 461 4794 4833
4 3792 5684 3793 4159
4 3272 3273 3271 910
4 5647 909 3271 910
4 2743 3270 901 3272
4 3790 3097 3791 3119
4 4866 3271 5641 4867
4 3271 5641 4867 909
4 3866 2747 2980 2744
4 3999 4811 891 900
4 3592 4165 5738 4820
4 5758 6287 5731 3773
4 3360 5690 3359 965
4 5690 6014 964 4906
4 3133 955 4335 6014
4 3361 3873 3872 4259
4 3812 3815 4091 2840
4 2853 5152 3120 4598
4 3125 5690 4335 5151
4 3669 4738 5728 4734
4 5712 4863 476 4698
4 4818 3947 466 4802
4 4818 5712 4873 475
4 6157 4379 6159 4377
4 4110 4874 1451 1450
4 3802 6197 6303 6178
4 3723 3803 3115 4947
4 3808 4935 3776 4934
4 3202 3206 5102 4168
4 4903 4905 4904 4991
4 6184 3850 5001 5007
4 6197 5083 3149 4956
4 5161 2559 2960 2895
4 4153 4703 4154 5089
4 2911 2895 2913 2894
4 2946 2947 2949 5666
4 4501 3730 4507 4506
4 2888 3917 2442 4357
4 2845 2691 2690 3248
4 6324 5218 4501 5194
4 5938 1132 5392 5284
4 5309 2878 5197 5895
4 3916 5840 5845 5914
4 5930 6308 5950 5392
4 2664 2880 4394 5197
4 5309 5197 5265 5895
4 5131 5133 1620 1629
4 1612 5130 5456 6134
4 5220 2584 5004 5171
4 4048 3619 5456 6134
4 5456 1622 3620 1621
4 5129 5132 4050 5130
4 6241 1612 5130 1611
4 5130 5132 6323 1611
4 4441 4436 5870 4539
4 5912 5983 3762 5845
4 2541 2542 5585 5751
4 2968 2763 3236 2965
4 5295 5751 5258 5254
4 4295 5288 5289 5155
4 2693 4591 2549 3068
4 5842 6012 5192 5893
4 4274 4275 5276 4106
4 5753 2772 5241 2781
4 5819 1187 5343 1188
4 5343 5819 3443 4258
4 5819 5343 1187 4258
4 4755 3745 1189 1188
4 4756 4781 5338 1197
4 2689 3412 3448 5068
4 5003 2956 4346 5651
4 4213 3129 3602 3128
4 2987 2989 5898 2990
4 2987 5143 5898 6320
4 3129 3602 3128 2483
4 2925 5460 1629 1638
4 6181 5942 4283 6321
4 6233 2957 6181 6231
4 3721 3854 5222 3726
4 3769 3672 3914 2236
4 5881 2964 4205 2126
4 4764 4049 6134 6320
4 5235 5889 5936 1072
4 5235 1072 5936 1081
4 5888 1080 5235 1081
4 5842 5192 5235 5893
4 5888 5893 5235 1080
4 4505 5871 5192 5836
4 4505 5871 5235 5192
4 5763 4367 6044 2872
4 5763 4416 4367 4066
4 5763 276 4367 2872
4 5763 4066 4367 285
4 5309 4421 5197 5195
4 3107 5601 3738 4142
4 4592 3042 2310 4594
4 3103 3233 3102 3503
4 4263 1908 3503 1899
4 3833 2312 4705 4617
4 5519 6326 5976 4759
4 4062 4491 2408 4125
4 2827 2826 3968 3964
4 3075 3080 4327 3083
4 4040 4041 6119 5536
4 3965 4721 4626 4649
4 4957 4102 6115 3683
4 4500 4499 5629 6128
4 4020 4124 5608 4282
4 3549 4040 4042 4565
4 3906 3905 4435 3907
4 3545 4571 3353 6068
4 4557 4041 5536 6119
4 4659 4678 398 389
4 3736 5877 4675 4694
4 3548 4799 3549 4042
4 3548 4799 4648 5964
4 4157 3402 4026 4176
4 4821 4026 459 4783
4 4157 460 4026 451
4 4821 4026 460 459
4 4593 4264 450 4788
4 4788 4593 4026 450
4 2432 3043 3650 3042
4 4173 4174 5301 4175
4 2264 3218 3217 3274
4 3404 4174 3040 4176
4 2743 5674 901 3999
4 3946 4774 5712 3947
4 2857 4190 4261 5044
4 3664 3665 3663 6275
4 2828 4350 2849 4189
4 3534 3531 3660 4350
4 2816 4046 2858 2849
4 3665 5007 3663 5855
4 2709 2813 2857 2856
4 5818 5053 5825 2948
4 3893 6185 6175 5058
4 4769 2815 4771 5855
4 5309 5195 5308 6332
4 3134 3308 2961 3309
4 2704 3621 3534 3530
4 4237 4151 4438 5432
4 3886 6064 3237 5923
4 2791 2706 3337 2785
4 3344 4167 4908 5136
4 6064 5923 5231 6240
4 6219 6221 5205 5113
4 2950 2790 2452 2954
4 5309 6332 5307 5245
4 4502 3732 4507 4505
4 4153 5234 4202 5089
4 5233 5456 6134 1612
4 3665 3839 3663 5007
4 3835 3834 3776 6295
4 4450 3155 5430 3154
4 5873 6030 5635 4518
4 4515 4517 5805 4946
4 4514 4516 4515 3713
4 4445 5120 5805 4446
4 6030 5640 5873 5812
4 4445 3842 5483 5120
4 4515 4946 5805 5120
4 5921 6220 5179 5181
4 5920 6219 5205 5114
4 3341 5136 6219 5085
4 3343 4689 5097 4348
4 3343 5204 5921 5159
4 5923 3237 6226 6064
4 3542 5767 5768 3543
4 6236 6237 2164 6238
4 6236 4872 2164 4850
4 2445 4872 4869 6249
4 4926 6097 6292 5916
4 6113 5730 1945 5672
4 4926 5672 5721 6113
4 6292 5676 1955 6097
4 5653 6113 5730 1937
4 6113 5730 1936 1945
4 6113 1936 5730 1937
4 3934 5653 5654 6114
4 5721 6113 5672 5730
4 5233 6320 6241 6134
4 4035 4836 4302 3598
4 5374 5403 5386 5368
4 4634 5374 5990 5369
4 5374 711 3783 71
4 5374 3783 711 5990
4 5233 6228 1603 6320
4 3912 3438 4471 4478
4 5370 3597 5926 6331
4 4436 6298 6279 4437
4 4478 4477 4149 4486
4 3788 5051 776 767
4 3818 3060 3059 2720
4 3026 3055 3054 5051
4 5233 1612 6241 1603
4 3024 2643 2303 2644
4 3438 3428 6294 4476
4 3863 4826 3144 3142
4 5592 5620 6223 5623
4 6224 2083 2082 5623
4 6223 2075 6281 5354
4 5354 6223 5098 6281
4 6223 2083 2075 2084
4 6223 2083 2084 4623
4 6152 4038 4690 5976
4 2741 6296 2738 6139
4 2387 3489 3622 3658
4 5961 3018 6151 6144
4 2729 2730 2737 3364
4 5479 5883 5735 6031
4 2736 5676 6097 4989
4 4109 4108 1467 5347
4 3492 2637 3789 3807
4 5346 6167 5347 1467
4 2944 3774 2530 2806
4 3462 4379 4378 4858
4 2616 4827 5961 2613
4 3807 3571 6196 3789
4 5619 3571 3586 3981
4 3591 4820 3593 3796
4 3789 3807 4912 6196
4 5696 6186 5743 5698
4 3885 5301 4173 4174
4 2946 5666 3565 4122
4 5625 5395 3084 5396
4 3038 3094 5518 4593
4 6002 3462 4117 6164
4 2221 3925 2852 2851
4 2639 4108 3463 4109
4 2744 2980 3866 3296
4 5757 4450 1027 4122
4 4240 3476 5473 2941
4 3812 5164 2007 2016
4 3663 2294 2350 3528
4 3981 3493 3571 3586
4 5332 3586 6167 5345
4 5334 3586 5619 6166
4 5473 5724 5614 6194
4 4950 4241 6194 5724
4 2815 2857 4261 3663
4 3335 3492 3789 3571
4 2622 2624 2623 3092
4 2238 4271 2237 5411
4 4151 4237 6021 5841
4 3690 2784 2239 3130
4 5162 6313 2895 5874
4 6313 5896 2895 5077
4 3995 3993 2913 5364
4 3977 3993 5843 5844
4 4530 6247 5297 5206
4 6293 4393 5878 4389
4 6324 6013 5218 5236
4 4502 4507 3994 5836
4 5487 5009 4982 5039
4 3574 5076 3575 4922
4 5680 4126 4964 4993
4 4997 3575 4922 3883
4 549 4930 540 2291
4 5030 4343 4942 4979
4 3875 4998 4997 4344
4 5487 5009 5488 5486
4 3480 5075 5489 5076
4 5339 6335 4716 4410
4 5440 4569 3972 4567
4 3390 3505 3512 3513
4 4878 5370 5926 3437
4 3798 5361 3471 3953
4 4034 5926 5370 3597
4 3354 3496 3231 3362
4 2293 3891 2291 3665
4 4939 4342 4345 5014
4 3210 4938 3481 5680
4 2367 3637 3163 4903
4 4939 3480 5489 5076
4 4310 3316 3637 3317
4 6279 4564 4490 4590
4 6279 4489 4490 5508
4 6279 4489 4563 4590
4 6279 4490 5494 5497
4 4436 4437 4471 6298
4 4471 4486 4476 4067
4 4539 6279 5870 4563
4 4983 4943 5792 4981
4 4983 4982 4981 5792
4 5030 4171 4944 4943
4 4342 5030 4308 4343
4 3210 3211 3172 4938
4 4342 4343 4345 4942
4 4939 5014 5779 5076
4 5486 5009 4978 4982
4 5045 5046 4823 4907
4 6117 5631 5581 4779
4 5312 3083 4746 6121
4 4436 5870 6279 6179
4 3286 3502 3504 4780
4 3301 2979 6109 4804
4 3168 4499 2923 3570
4 4474 4279 4278 855
4 4291 864 4289 4279
4 3426 6042 3756 3755
4 3398 5437 3943 3940
4 4431 5028 3944 3943
4 5122 3944 5464 5121
4 2829 3997 3132 2830
4 2784 2755 2710 2239
4 2858 2848 4190 2857
4 3607 2856 2830 3690
4 2848 4189 2828 2849
4 3159 3132 1561 1570
4 3345 5139 3131 3342
4 5259 5454 5506 6039
4 5117 5451 3609 5454
4 3758 6042 5466 5454
4 3944 5464 5465 4206
4 3940 3424 5260 3944
4 4430 5491 6339 6082
4 4336 5202 5617 5200
4 4955 4740 4742 4336
4 5549 5380 2803 5552
4 5549 5200 5202 4679
4 5629 6128 5581 4336
4 5380 6083 5617 5600
4 5376 6106 5600 5381
4 5376 5379 6106 5381
4 5409 3916 5845 5914
4 3313 4385 2786 2788
4 4384 3916 5409 5407
4 6200 5852 5859 5853
4 6307 4530 5297 5927
4 2665 4421 3979 4396
4 3193 5749 1118 1109
4 3195 3193 4924 5749
4 3071 4530 5891 6247
4 3071 5997 3069 5946
4 3071 5892 5946 6247
4 3734 2342 2370 4528
4 2342 3069 5997 5945
4 3761 5495 2878 5328
4 6298 5494 4564 4321
4 6298 6279 5494 5497
4 6298 5494 4321 4615
4 3906 4471 4437 4485
4 3893 5855 6195 6175
4 6184 5001 3665 5007
4 3892 6185 3893 5058
4 6184 3665 3893 5855
4 4769 2815 2814 4960
4 4755 5066 3409 3449
4 2883 3253 2882 4849
4 3247 3248 3252 3250
4 5280 5998 5940 5342
4 2930 3443 3410 5819
4 3190 4924 3195 3193
4 5811 1169 5824 5943
4 3249 5948 5392 5938
4 2930 2929 4257 3486
4 3762 5912 3760 5983
4 3413 4022 3706 3725
4 3155 3157 5757 4713
4 3916 5847 5840 5914
4 5840 5847 1100 5914
4 4357 6011 3386 3917
4 2444 2445 3882 5191
4 2885 2886 2887 3417
4 3137 2561 2241 3730
4 5791 6016 3917 6011
4 3879 6236 5787 6252
4 4297 6252 2171 2162
4 2885 5790 2898 2443
4 2885 5791 2888 2896
4 6018 3882 2445 5191
4 3276 2288 3112 3113
4 5791 6019 6016 6011
4 4739 6077 928 3120
4 4083 4085 4086 5783
4 4739 5668 920 4737
4 4739 5728 919 928
4 3283 6288 5737 3282
4 3646 6158 5978 4737
4 3772 4819 3771 4897
4 5430 3154 5429 4450
4 2367 3316 4310 3162
4 5430 5757 4450 5433
4 3448 3412 5973 5068
4 3656 1174 5408 4662
4 4022 5277 5960 5944
4 3698 6328 4204 3722
4 3698 3695 3696 3722
4 3855 4056 2170 3856
4 3715 2169 3857 3855
4 3726 2572 2573 3900
4 5973 3806 4503 5408
4 2946 4122 5757 5090
4 2365 3642 3133 3637
4 3230 2634 3125 3231
4 2944 3774 2942 2530
4 4047 3813 2000 6176
4 3982 5917 3811 5778
4 3354 3362 3359 3360
4 3726 4661 3806 3705
4 3697 3706 5924 3705
4 3722 3721 3065 3415
4 3715 3856 3857 3067
4 3064 3072 3070 2342
4 3705 5944 5963 3725
4 4661 3697 1147 4663
4 5875 5950 5404 5959
4 3411 3412 5068 3725
4 4755 5819 3410 3745
4 3456 3472 3784 4209
4 3053 785 3910 794
4 3455 3957 765 4562
4 5443 5124 5337 4406
4 4209 3957 756 765
4 4209 748 5311 757
4 4448 3472 4511 3953
4 5280 4634 5998 5342
4 4634 5374 5368 5990
4 5367 5362 701 5368
4 5367 693 5342 702
4 5367 4298 5362 5368
4 4628 4627 4203 5998
4 4634 5369 5279 4256
4 4634 6269 4298 5368
4 6174 6257 1682 6051
4 1682 6174 1692 6257
4 6174 6257 6081 6261
4 5757 4122 1027 5090
4 6051 3517 1691 6174
4 6050 3983 1777 6256
4 4512 316 4487 5926
4 4513 324 4487 325
4 4512 325 4487 316
4 4034 4487 3597 4033
4 4513 4487 3597 6331
4 3937 3440 5673 3439
4 4583 4495 4524 343
4 4524 4435 344 4485
4 3177 3454 3179 4137
4 3907 4524 4224 6093
4 4583 343 4524 352
4 4224 6093 4524 352
4 3818 3820 1316 1307
4 3821 3818 2720 3820
4 5548 1315 4578 1324
4 3818 3817 1307 1306
4 5529 1324 4578 1325
4 2314 2308 2721 2722
4 2720 5801 3058 3820
4 4775 4578 3821 4676
4 4696 3293 5530 5412
4 2893 4713 5874 5757
4 2409 2766 4062 2902
4 5263 6092 4391 4089
4 4089 6124 4146 3612
4 6103 1360 3608 1359
4 5556 4267 4268 5557
4 3299 5609 3350 3351
4 5757 2893 5090 5874
4 3259 3601 3889 5370
4 2307 2714 2316 3057
4 4696 1323 5189 5511
4 4696 3293 5548 5511
4 6087 5262 6091 5557
4 4609 5291 4608 4226
4 2498 5141 3537 4680
4 4081 6170 4653 379
4 4565 378 4653 379
4 5055 4565 4653 6170
4 5055 4653 4650 4630
4 3740 3369 5274 3371
4 4699 865 4291 856
4 4700 3047 3105 3048
4 4635 3106 3101 3102
4 3846 4019 2379 4124
4 3549 5536 4557 4041
4 2743 3272 902 3865
4 3403 451 4157 3402
4 4592 3408 4264 4643
4 2978 3168 3169 3625
4 4921 3884 3095 3007
4 2324 2923 3168 4499
4 3560 3926 4639 3927
4 4640 3044 4239 5395
4 2321 2920 2319 5639
4 2323 2328 2322 2320
4 6282 4496 2319 5202
4 3367 3897 4331 5961
4 3076 2594 3044 3042
4 4592 4595 4594 4720
4 3267 3885 3567 3082
4 4827 2731 4828 2739
4 3261 3645 5682 6149
4 2728 3933 5961 2731
4 3463 4109 4110 4115
4 2730 2620 3218 2735
4 3653 2739 5671 5501
4 5501 2739 6246 4972
4 6137 6139 6138 6140
4 2741 2731 2739 4969
4 6137 2741 6139 6146
4 2612 3653 4883 5962
4 2612 4883 4898 4108
4 5138 5593 2082 2073
4 4234 4898 1440 6151
4 6098 3363 3622 5900
4 6137 2734 2741 2731
4 4110 4108 1450 1459
4 4898 6151 1441 1440
4 4874 1450 4898 1441
4 5800 3793 4160 4814
4 5684 3791 4875 4238
4 4901 3794 5641 4875
4 4796 4174 4176 4175
4 3270 3668 3097 4866
4 3638 4936 4928 4813
4 4931 4937 5702 515
4 4931 4976 4937 514
4 4937 4976 505 514
4 4937 4976 4260 505
4 5714 4923 4937 506
4 4937 4923 5702 506
4 5048 567 5013 568
4 5138 5593 2073 2072
4 559 3521 550 3522
4 5048 5059 5044 567
4 3838 3529 5059 5048
4 2292 5013 5044 3839
4 3522 4163 559 3521
4 4930 3804 4947 4987
4 5048 568 5013 5104
4 5048 5103 577 568
4 3532 5048 577 576
4 5048 3532 5828 3529
4 3838 5048 5013 5104
4 5086 604 5080 595
4 3304 4908 603 612
4 4826 3859 5138 3863
4 5080 4187 3660 594
4 3532 5080 595 5827
4 5591 5212 3861 6218
4 2946 2894 2911 2947
4 4166 5828 3200 5103
4 2966 2946 2893 2911
4 4166 3206 3200 3196
4 5138 5909 2071 2080
4 3838 5048 5059 5044
4 5830 5909 5156 2071
4 5830 2070 5156 5848
4 5156 2071 5909 2080
4 5156 2080 5909 3859
4 5156 2079 6216 5848
4 5470 5830 5156 5848
4 5138 2082 5593 6218
4 3838 5059 2857 5044
4 5162 2893 5874 2895
4 3778 4954 5742 4950
4 2985 2990 5057 1584
4 3887 4284 5173 5300
4 4470 5025 4422 5023
4 5025 658 5172 649
4 5258 5172 658 657
4 3113 5258 5172 5023
4 5023 3111 5040 3113
4 4170 639 5173 4284
4 5288 5344 3655 676
4 3654 5391 3655 5296
4 3253 4127 3655 5391
4 4127 4628 2540 4203
4 3250 4581 3192 4021
4 4628 4295 2540 5928
4 5436 3395 3393 3506
4 4511 5446 5337 5310
4 4508 3395 5436 3506
4 5119 5116 3711 5124
4 5443 5337 5902 4406
4 3435 3431 3952 3955
4 3598 4839 4419 3594
4 4034 5925 4487 4033
4 3524 3527 5762 4836
4 3398 3742 5461 3399
4 3010 3823 4432 5318
4 4835 6057 5366 5389
4 4509 5503 5505 1270
4 3588 4134 4599 4552
4 3060 3547 2568 4133
4 5440 5762 4303 6053
4 5365 5762 3527 4836
4 5516 810 4235 811
4 5516 811 4235 6001
4 4235 810 6343 4236
4 4235 6343 6001 5537
4 3182 5537 3920 5535
4 3920 5532 5535 4236
4 5522 812 5584 811
4 5516 811 5584 820
4 5522 811 4235 802
4 5522 4673 4030 812
4 3699 5516 6001 5584
4 3603 821 3605 830
4 4752 5553 4652 5594
4 4579 4638 4647 4660
4 4219 4220 4579 4221
4 4546 4660 4579 5568
4 4729 5979 5604 4752
4 4219 4638 5141 4622
4 4219 4638 4647 4579
4 2747 5658 3606 5664
4 5726 3771 3261 5699
4 3103 3301 3101 3233
4 2656 3992 3290 3292
4 6330 5677 5695 5694
4 4331 4379 6159 6157
4 2362 2853 2365 3122
4 5641 4866 4867 3791
4 2747 3606 2744 3866
4 5138 3863 3859 3861
4 3918 3229 3921 3924
4 5150 6338 3355 5697
4 3358 5770 3359 5769
4 3923 6173 6186 5755
4 4796 4794 5301 4833
4 3098 3123 3099 3119
4 4462 3406 3098 3123
4 4921 3884 5590 3348
4 3790 3791 3795 3793
4 4601 6287 5738 5758
4 6287 5738 1981 4820
4 5738 4820 1990 1981
4 5738 4165 1990 4820
4 4164 1989 3922 5750
4 6287 1972 4819 1981
4 3089 5744 4971 5746
4 4954 5744 6190 5802
4 6204 5802 5744 5745
4 4940 5744 5802 6190
4 4940 4243 1512 6190
4 6204 1522 5744 1513
4 4971 5744 1522 1521
4 5829 5831 5449 5909
4 5829 4825 5909 5449
4 5470 5830 5909 5156
4 2523 2061 5830 5165
4 5830 2071 5156 2070
4 2523 2062 5830 2061
4 4421 5236 5248 5239
4 2879 5907 4161 5269
4 5138 3861 2081 6218
4 5197 5265 5239 5248
4 3519 4386 5207 5206
4 3253 5371 5998 4127
4 3760 5936 5983 5888
4 6012 4396 5531 6013
4 5308 5348 5195 5329
4 5348 5329 5904 5195
4 4396 5348 6012 5904
4 5309 5895 5894 2878
4 4170 4284 5097 630
4 3343 4284 5864 5204
4 5040 5025 5023 5172
4 4687 5153 5170 632
4 4170 4284 630 639
4 2555 3305 3136 2591
4 5300 3542 5217 3113
4 5138 5909 2080 3859
4 3236 3619 5923 3237
4 2875 2870 4915 3387
4 3837 3977 3958 3993
4 2883 4849 2882 5907
4 3191 4581 5975 5283
4 5975 1116 1124 5495
4 5907 5938 4846 4849
4 3191 1116 5975 5495
4 3250 4581 5875 4846
4 2989 5897 6222 5187
4 2784 3607 3690 2710
4 2772 5441 5969 5397
4 5768 5752 5275 5253
4 2782 4915 5360 5244
4 4274 5276 5333 5275
4 2780 4589 4104 4292
4 3543 2973 5320 5984
4 5254 5217 5752 5751
4 4274 5278 5242 5316
4 6013 3979 3732 4423
4 2458 3305 3325 3344
4 4394 4421 5197 4422
4 2880 5196 4394 4422
4 2126 5209 2964 2125
4 5209 6233 5208 2134
4 5934 6237 6018 6061
4 4589 4185 2875 4915
4 6181 6233 4283 6244
4 3881 3880 3882 5787
4 3336 2457 3340 3325
4 3881 2552 5793 5795
4 4200 5160 2125 2116
4 4205 4233 2958 2480
4 3877 3602 3878 4213
4 3840 4156 5469 4155
4 5933 5110 4360 5214
4 6269 4633 5996 4183
4 6189 4298 6269 5362
4 3881 3879 6236 5787
4 4185 6020 6010 6009
4 3869 6189 4292 4298
4 4589 6248 6189 5986
4 4208 5925 4472 5926
4 4208 3894 306 5510
4 5925 316 4487 315
4 5925 316 4472 5926
4 5925 4487 4033 315
4 4034 5925 4033 4035
4 4208 5510 306 4035
4 4583 4551 4210 342
4 4556 5290 4583 4495
4 5822 5290 4495 6093
4 5877 4721 4722 4723
4 5788 4352 5413 5781
4 5286 4534 4551 4604
4 2982 5705 6334 3220
4 5632 4785 4917 3580
4 3048 2527 3572 5305
4 5312 5313 6121 5574
4 2312 3832 3829 4617
4 4585 3829 414 2309
4 4585 2309 414 423
4 4718 2309 4585 423
4 3608 4102 1359 6116
4 3608 6116 1359 1368
4 6103 4102 3683 1350
4 2903 4102 4957 3683
4 5274 1352 4750 1361
4 2509 4949 3187 3186
4 3611 3685 4493 5185
4 5734 3832 5964 4618
4 3548 4041 5734 4043
4 2827 3549 5808 4557
4 3548 4041 4043 4042
4 5964 6100 4629 4090
4 3459 3490 2635 3493
4 3899 2448 3096 3082
4 6140 6137 6154 6059
4 6002 4117 4874 6164
4 2279 2925 5020 2871
4 2612 4898 2614 4108
4 2730 3363 3269 4925
4 5332 5347 5346 6167
4 2871 2875 3387 2870
4 5619 4240 3571 3476
4 4920 5346 1486 1485
4 4109 5346 1468 4912
4 2639 4109 5347 4108
4 5346 1468 4912 1477
4 3534 4350 2828 4189
4 2712 3529 2753 3530
4 5070 2784 2785 2703
4 3532 5048 576 5059
4 595 5084 586 3532
4 3838 5357 5103 5104
4 2733 5827 3530 5828
4 2828 2849 3997 4046
4 6101 4808 5739 6205
4 3835 6295 4244 3834
4 3779 4786 4252 4560
4 3692 5905 3652 5257
4 5692 5022 4623 3648
4 5905 4623 6223 5098
4 3863 3864 4825 3859
4 3142 5592 3692 3693
4 5592 5623 6223 6224
4 5098 6281 5620 6315
4 2710 2813 2856 5060
4 2813 2817 2856 5060
4 5820 6204 1522 5745
4 2560 2960 2961 3980
4 2782 4915 2870 5360
4 2858 2857 4261 2815
4 6222 2990 1576 1585
4 6222 1576 2990 4198
4 5897 1585 6222 1586
4 4198 2989 6222 3338
4 5897 1586 6222 5187
4 3339 5187 6222 5849
4 5538 5850 5644 5643
4 5233 1603 6241 6320
4 5233 6134 6241 1612
4 4050 6323 6241 5130
4 6241 5130 1612 6134
4 6241 1602 6323 5221
4 4185 5359 6009 6248
4 6189 5363 5362 6269
4 4589 6189 3869 5986
4 5360 1659 5244 4915
4 3543 3237 5320 2973
4 6189 4104 4589 4292
4 2898 5790 5787 2445
4 6248 5359 6003 5991
4 4569 3975 3894 3976
4 6266 3972 4380 3973
4 3974 4383 4402 4395
4 5115 3974 3973 4301
4 3969 3971 3975 3976
4 3974 4383 4429 4380
4 3972 4380 3974 4429
4 4532 1267 4322 1258
4 6256 6050 6174 6051
4 4532 1268 6065 5401
4 4532 4300 3494 1259
4 3227 3008 5318 3983
4 4005 4323 5311 3421
4 6042 4099 5542 4452
4 6344 4452 5542 4216
4 5261 6277 6060 5595
4 4410 4716 3333 6335
4 3469 3600 3799 3890
4 4138 4478 3912 4471
4 3467 3473 3468 3472
4 5020 2871 2925 5105
4 3823 2504 2503 5317
4 3756 4215 5016 4451
4 3054 3055 785 776
4 5687 5686 4065 5463
4 3350 3353 6272 6068
4 4293 3298 5263 4027
4 3022 3372 3053 3182
4 3553 3350 6087 6068
4 3353 3352 6272 5500
4 2724 3350 2722 3353
4 5549 2803 5200 4679
4 5549 6083 5550 6079
4 5549 5617 5200 5380
4 5549 6282 6079 5175
4 3209 5705 2982 3220
4 2332 2320 2319 4496
4 5705 6334 3220 5631
4 4741 6089 4742 1883
4 6282 5624 4496 5616
4 4263 6334 3569 1909
4 4263 3220 3569 6334
4 6147 3569 1909 1918
4 3568 3569 1918 1917
4 3568 6109 3569 1917
4 3569 6109 4804 1917
4 3240 3115 3636 3118
4 6302 5457 5459 5711
4 4827 2739 5671 3653
4 3584 3630 4260 6085
4 3659 3490 3658 6031
4 5501 5459 5457 5458
4 5501 4972 6246 5458
4 6032 5478 5501 5457
4 5501 5478 4972 5458
4 3630 6085 4948 4260
4 3774 3776 3834 3789
4 2933 3585 3584 3630
4 2531 2836 3458 2941
4 3593 4820 4262 3796
4 4164 3592 4165 5738
4 5777 3592 4165 4988
4 5482 6312 6311 2522
4 3565 3564 4122 5809
4 5784 6311 4520 5785
4 5782 5785 5784 4516
4 4522 4518 5636 4514
4 4351 5802 5745 4786
4 4445 3576 3842 4446
4 5636 2524 4514 5634
4 2759 3154 5428 3155
4 3491 3883 3576 3575
4 2871 5355 3387 3386
4 3851 4482 5634 5165
4 5482 4092 3499 4810
4 2726 4971 5745 5820
4 2753 5828 3529 5357
4 3306 630 5097 621
4 2967 2895 5162 5161
4 3748 2335 2931 2812
4 4971 5820 1522 5745
4 3308 5827 5358 5086
4 5080 3530 3660 3621
4 2214 3840 2855 4438
4 5470 6216 5471 5848
4 2948 5053 5825 5106
4 3692 4886 2984 4888
4 2482 4233 2483 6211
4 5829 5909 5830 5831
4 2099 5212 2090 3129
4 4213 2107 3129 2108
4 2099 3127 5212 3129
4 3129 3128 3127 5168
4 2721 2722 3334 3333
4 1820 4632 1829 4787
4 3025 3910 3053 3055
4 3909 4573 6277 5595
4 4716 6074 6075 3333
4 3545 3554 4571 6270
4 3544 3909 4412 4573
4 2948 5063 3208 5106
4 2240 2238 4271 2237
4 2608 2352 3819 5019
4 3535 3836 4986 5144
4 2912 5844 3958 5148
4 3310 3621 5827 5080
4 2948 2912 3958 5148
4 4971 5744 5745 1522
4 4876 5716 6077 3016
4 2619 4058 5493 3497
4 5061 5725 4162 4823
4 3510 3508 4932 4892
4 4309 4312 3211 4938
4 4025 3908 5266 5167
4 2645 4631 5496 3826
4 2865 3059 2715 5412
4 2831 3225 2472 2864
4 4020 4019 5608 4124
4 4025 5266 4029 5264
4 2680 2470 2472 2471
4 3612 4492 4147 4146
4 2676 2682 4023 2683
4 4020 4145 4354 4063
4 4926 6113 6292 5672
4 4498 5655 2922 2923
4 3934 4926 5721 6113
4 2741 2731 2734 2738
4 2921 6286 6283 4758
4 4498 2922 5655 6289
4 6283 5174 6286 6080
4 2332 4496 6283 4498
4 2921 6133 6283 2920
4 3568 1918 3570 1927
4 2734 2738 5916 6139
4 3934 5916 6113 6114
4 2332 4498 2922 2923
4 6137 3933 6059 2734
4 2738 2731 2730 2729
4 6330 5681 5694 4800
4 3916 5914 4529 3734
4 4384 5645 4388 5407
4 3913 3915 5845 5983
4 2788 2787 4703 4389
4 4385 4726 5936 5983
4 3398 5461 3943 5437
4 4508 5436 5902 4453
4 2504 6071 1794 6265
4 4433 3823 5317 4432
4 4430 6082 5318 5317
4 3089 4971 3088 4199
4 3983 3008 5318 3009
4 2504 4212 6265 1785
4 3517 3985 5480 3702
4 3541 3618 2275 3235
4 3542 5217 5752 5186
4 5921 4273 6235 5181
4 4342 5489 4996 5014
4 4939 5076 5489 5014
4 5018 5485 3819 5019
4 2601 2607 2610 3819
4 5486 4983 5792 4982
4 5680 5488 4978 5486
4 5487 5038 5036 5037
4 3231 3362 3163 3125
4 6318 6244 6153 6243
4 5793 6337 6242 5795
4 3313 4385 3914 4726
4 3071 5892 6318 5946
4 5329 3762 5328 1107
4 3456 4037 3954 3957
4 3428 5468 4547 4480
4 3428 4461 4480 4319
4 3712 3421 4511 5311
4 3468 3784 3472 3421
4 6204 4351 5545 5539
4 2292 5104 3838 5013
4 4971 5746 5744 1521
4 5485 5490 5052 5032
4 3241 3243 3246 4948
4 6248 5991 5986 5359
4 6269 5991 5374 5996
4 6269 4298 5368 5362
4 6248 5359 5986 4185
4 6003 5359 1222 5991
4 4913 5363 6189 5965
4 4634 6269 4633 4298
4 2877 3616 2876 3870
4 3879 5795 6238 6252
4 5942 5793 3881 6061
4 3715 3856 3853 3855
4 3449 3720 3447 4072
4 3087 5000 4767 4199
4 3266 3264 3213 3669
4 3925 4820 4262 3593
4 4820 3592 3925 5738
4 3918 4164 3592 4988
4 4665 2573 3806 3657
4 1175 4503 2571 3656
4 5973 5222 4503 3806
4 3806 3726 2572 2573
4 3806 5222 4503 2572
4 4665 5947 3727 3729
4 2571 3657 2194 2193
4 3806 4664 4662 4661
4 4047 5884 6176 2000
4 3092 3491 2622 2347
4 6187 6188 5760 5807
4 3490 3489 5883 5777
4 5345 5619 3571 3586
4 3591 4165 3592 4820
4 5332 3810 5347 6167
4 3659 3653 5962 6161
4 6033 4081 4619 6170
4 4081 371 4225 4636
4 4619 379 4081 380
4 2757 4992 3967 5823
4 4971 4199 5746 1521
4 3409 4755 3410 5065
4 1188 1197 1198 4755
4 5487 5490 5069 5036
4 4209 3472 4511 4448
4 3470 5436 5337 5902
4 3784 3472 5311 4209
4 4032 4428 302 293
4 3951 3955 4448 3957
4 3955 3430 3431 3429
4 4246 4894 487 478
4 4814 5301 5590 5800
4 4861 5588 4175 4255
4 4246 495 4893 4248
4 3585 4248 4246 4893
4 4246 4893 496 487
4 6242 2162 4297 2161
4 3857 2161 4297 2170
4 6242 5795 4297 6238
4 3715 3857 3856 3855
4 3856 3857 2170 3855
4 4297 5795 6252 6238
4 3911 4478 4677 5370
4 3905 344 4477 4485
4 4149 4486 3438 4478
4 4477 4495 6078 334
4 4477 4485 344 335
4 4478 6331 5370 3437
4 5487 5486 4982 5009
4 3390 3395 3391 3512
4 3703 3742 4365 4929
4 3507 3511 3440 6264
4 3393 3389 3390 3395
4 2471 4029 4028 2376
4 3511 3513 3973 6264
4 5673 3511 3440 3507
4 5503 5504 1269 5817
4 3936 4014 4642 4015
4 3662 3601 5370 4034
4 5533 4540 6056 6270
4 3985 3702 6063 3226
4 5972 4014 3936 4012
4 4398 4787 3333 6075
4 4583 4524 4495 6093
4 4609 351 4583 352
4 4583 5290 4551 4609
4 5290 6093 4609 4583
4 4583 352 4524 6093
4 4088 6124 4027 5264
4 4412 5595 3333 4573
4 5263 5262 4391 6092
4 2802 2903 4957 2803
4 5376 4306 4492 5379
4 5376 5379 2545 6106
4 4020 4019 4024 5608
4 4354 5608 4029 5264
4 5266 4088 4027 5264
4 4695 397 4659 398
4 4695 398 4659 4678
4 4040 388 4659 397
4 4659 4683 4535 4678
4 4619 4659 388 389
4 6033 4535 4619 4683
4 4752 4579 4652 5553
4 4474 846 4278 3323
4 4536 4546 4537 4621
4 6103 3610 3684 4102
4 4062 4742 4955 4740
4 5808 4557 5536 4535
4 3401 5964 5657 5598
4 4557 4535 6119 5536
4 4537 4790 4558 6119
4 3828 4543 3827 4790
4 3408 6284 3405 5703
4 2404 2410 2652 2408
4 3270 4867 3097 4811
4 3407 3123 3404 4782
4 4782 4794 3123 3404
4 4585 4718 415 4543
4 4585 4718 424 415
4 4585 424 4718 423
4 2309 4644 4718 2311
4 4585 2309 2311 3829
4 6022 1663 4830 3978
4 4830 1671 2435 1662
4 4830 2668 2669 2670
4 5002 5003 4233 5169
4 4888 3692 3694 2984
4 3694 5806 3692 4888
4 2216 3144 3142 2215
4 2964 6233 2957 5974
4 4000 2124 6290 5206
4 5487 5069 5490 5039
4 5487 5486 5015 4982
4 3693 6211 2483 5168
4 4861 4814 5301 5590
4 3795 3793 5684 4160
4 4893 4179 5798 5796
4 3203 2966 2948 2949
4 5684 4238 4875 4877
4 3640 5725 5046 4923
4 4845 4238 3792 5684
4 5683 4885 4812 4884
4 5683 4877 4875 4813
4 4252 4560 5802 6342
4 4950 4974 5101 6194
4 4786 5744 5802 5745
4 6194 5095 2029 5614
4 4241 4974 6194 4242
4 4950 6194 4241 4974
4 2018 3811 5778 3813
4 4312 3162 3902 4903
4 4560 4244 3835 6342
4 5918 5100 5724 5739
4 4904 972 4998 4345
4 4998 973 3876 4919
4 5680 5488 4993 4978
4 4939 4998 5014 4345
4 4342 4996 5489 5486
4 4998 973 4919 982
4 5779 981 4998 982
4 5779 4998 981 5014
4 568 5102 4163 5104
4 5102 5103 568 577
4 4166 577 5102 578
4 4166 3206 3196 578
4 4166 3200 5102 5103
4 3198 2963 5092 3958
4 5358 5084 5086 5827
4 5086 595 5084 596
4 5084 5827 3532 595
4 5828 5827 3532 5084
4 3198 3208 5005 5067
4 5084 5006 587 3196
4 5086 3950 596 5006
4 5086 5084 5006 596
4 5086 595 5080 5827
4 5086 5084 595 5827
4 603 3304 5080 4187
4 3309 4986 614 605
4 5220 2584 5171 5213
4 2483 3129 5168 3128
4 3862 3239 3143 3860
4 3197 5358 3200 3196
4 3479 5019 4126 5488
4 3713 4445 3154 3577
4 5019 2352 4126 5707
4 3479 3574 5076 3575
4 3205 3206 5032 3204
4 5052 5032 4966 3204
4 5075 5794 6155 5011
4 5779 5076 6155 4922
4 3565 5010 4122 5666
4 2261 5493 2262 3495
4 2214 3238 3239 4438
4 5057 1593 5252 6225
4 5057 1594 5252 1593
4 5252 4764 6320 5143
4 6228 1603 5252 1594
4 5252 1603 6241 1602
4 2539 3253 4127 2540
4 4628 5998 4203 4127
4 5280 4257 5372 5299
4 3199 3208 3198 5067
4 4459 4457 4395 300
4 4459 4032 4475 301
4 3526 3939 4463 4642
4 4443 5366 5389 4839
4 5365 5766 6036 4416
4 3511 6264 4567 3440
4 4034 4487 5926 3597
4 5126 6004 4673 5561
4 5126 5522 5561 4673
4 5522 5561 4673 803
4 4024 5608 4029 4020
4 5522 4235 5537 802
4 5126 4030 5522 4673
4 5266 4088 5292 1846
4 6099 1854 5292 1855
4 4088 1855 5292 1846
4 4024 5292 6099 5435
4 5435 4024 5292 4333
4 5294 5266 6277 5167
4 4025 5266 5294 5167
4 2521 2799 3290 3288
4 2520 4278 4474 4279
4 5602 5578 847 4474
4 2907 3046 3035 2906
4 4474 4278 846 855
4 2905 4474 2518 3323
4 3323 4474 837 2905
4 838 4474 5578 2905
4 4474 2905 838 837
4 3198 2963 3197 5092
4 4494 4724 4415 4181
4 4579 5568 4752 4546
4 4546 5568 4415 4621
4 4896 3363 4989 5676
4 3366 3653 4972 2739
4 3266 3669 3213 3265
4 2745 2621 3644 3867
4 3623 4984 4577 3624
4 6288 5720 5715 5740
4 2745 2621 3867 3866
4 5668 3281 4737 4738
4 3367 2616 5961 3018
4 4263 3220 3502 3503
4 5653 5880 3625 2923
4 3297 2979 3624 6109
4 4558 3828 3827 4790
4 3322 4643 3405 3408
4 5519 4761 6326 4759
4 4577 3624 6213 6214
4 4084 3357 4087 6338
4 6338 3355 5697 5769
4 3125 3362 3359 3356
4 5150 6173 6338 5696
4 3283 5741 4602 6186
4 4084 5769 5774 5770
4 3354 3852 3358 3357
4 3361 4259 3872 3360
4 6338 6301 5776 5696
4 6338 5776 6301 6305
4 6338 6301 5696 6173
4 3357 4087 6338 6165
4 5736 5800 3641 5685
4 3316 4313 2369 3643
4 4462 4833 5301 4794
4 4462 4794 5301 4174
4 3795 4160 5800 3793
4 5587 3006 4698 5588
4 4861 4814 4862 479
4 3260 3645 3771 3773
4 3794 3795 3791 4875
4 4861 470 4814 479
4 4796 461 4833 470
4 3814 3812 2008 3813
4 4121 6176 3982 5778
4 3813 2009 5778 2018
4 4091 3812 2016 5166
4 2027 5917 5453 5918
4 4444 4450 1010 5799
4 3565 5011 5809 5010
4 5227 4154 6024 5228
4 2967 5162 2895 2893
4 3508 4892 4307 4932
4 5428 4481 5638 5799
4 5871 1063 5890 1072
4 5835 5890 5871 1063
4 5835 5871 5836 1062
4 5871 5235 1072 5889
4 5871 5235 5192 1071
4 5041 632 5170 641
4 5767 5183 6234 4273
4 650 5041 649 4470
4 4687 5153 632 623
4 4892 5702 4307 4932
4 3413 3192 3696 3706
4 3485 2844 2539 4628
4 5908 2878 5495 5894
4 2929 5998 4848 4257
4 2882 4849 5306 4161
4 3249 5938 4846 5948
4 5269 2879 5296 4161
4 5309 5895 5307 5894
4 4931 3510 5702 4937
4 2593 6064 5923 5971
4 4506 5170 5218 4469
4 6324 6012 5348 5349
4 3913 3914 3915 5983
4 2672 2290 2664 2881
4 2247 2843 2845 2249
4 4931 514 4937 515
4 2883 2882 2879 5907
4 5895 5908 5894 2878
4 4846 5907 5908 5931
4 5907 5908 5931 5895
4 4927 5908 2878 5495
4 5210 5196 5321 2881
4 3930 523 4959 4941
4 5405 5344 5751 5321
4 4423 5239 4422 5026
4 6332 4421 4396 6013
4 2244 4394 2289 4425
4 3654 4161 2882 5391
4 2880 5197 5265 5211
4 6318 6243 5981 2152
4 6242 5981 2152 2161
4 6318 2151 5981 5997
4 3857 5981 2161 2160
4 3067 5981 5627 6337
4 5981 5627 5997 3066
4 3869 5996 6269 4633
4 5986 1223 5996 5314
4 5986 5887 4185 5987
4 3387 4185 6251 6010
4 5986 6269 5996 5991
4 3870 5986 5887 4185
4 3869 4633 6269 4298
4 4303 287 4368 6053
4 4303 6053 296 287
4 4303 5763 286 4066
4 4303 6053 4449 296
4 4303 4302 4442 295
4 4115 4912 1468 1477
4 4025 5266 2471 4029
4 3988 3003 3822 3983
4 3752 4571 3353 3554
4 5533 6273 3751 6062
4 6099 1855 5292 5264
4 6124 6099 1855 1864
4 6099 5435 5292 1854
4 6124 5264 6099 5608
4 6099 4019 5435 4144
4 4285 6099 4019 5608
4 3084 3083 5625 4142
4 2322 3765 2321 3764
4 6107 4715 1368 1377
4 3608 4702 1369 1360
4 3370 2765 3740 2901
4 3558 3044 3042 4330
4 6283 2920 6133 6120
4 6282 4496 6283 2319
4 6282 5174 6080 5175
4 4896 4989 5479 1973
4 3591 3796 4819 4820
4 2736 4972 4989 6097
4 6098 4896 3363 4989
4 4926 6292 6113 5916
4 3808 4934 4115 4935
4 6014 3362 3125 3163
4 4762 3133 955 946
4 5150 6186 3550 3923
4 5698 5150 5696 6186
4 6230 3645 3773 4338
4 6198 5095 2029 6194
4 6194 5958 5939 4974
4 6194 6198 5939 5958
4 4810 3487 4807 3903
4 4436 6279 5870 4539
4 3487 4808 6205 5739
4 4807 5739 2036 2027
4 4807 5739 3487 2036
4 4052 4058 4061 4060
4 3805 3931 4126 3523
4 3718 3723 4947 3804
4 4807 5739 5918 4808
4 5592 5905 6224 6223
4 5620 5098 5905 6223
4 5622 6281 5623 2065
4 4115 4934 1478 4935
4 3573 2351 5637 5357
4 4115 3775 4912 4934
4 3838 2857 3663 5044
4 2857 3663 5044 4261
4 2848 2857 3529 5059
4 4115 1477 4934 4912
4 2848 5059 3529 3531
4 2816 2815 2857 2858
4 2815 3663 5855 6275
4 2753 2733 3530 5828
4 3158 5757 3157 2893
4 5358 5086 5084 5006
4 3200 5084 4166 3196
4 2961 3980 2962 5358
4 6059 6137 6154 5525
4 5063 3198 3208 5005
4 6228 5252 6320 5898
4 5897 1595 6228 1594
4 5897 5231 6228 1595
4 6228 5231 6240 1604
4 6228 1594 5252 5898
4 5233 5923 6228 6320
4 5233 6240 6226 1604
4 4283 2153 6242 2152
4 5793 4283 6242 6243
4 6242 2161 4297 6337
4 6242 5981 6337 6243
4 6242 5981 6243 2152
4 3223 3446 3998 5222
4 3417 3416 3720 3418
4 3447 3446 3417 3720
4 2549 3856 4591 5795
4 2553 3514 3167 2548
4 3447 3417 3416 3720
4 6041 4509 4599 4463
4 6041 5389 4835 4599
4 6041 5389 1272 6057
4 1271 4509 4599 6041
4 5765 3939 6045 5972
4 1705 5117 5118 4253
4 5121 4314 1704 1705
4 5121 5425 1704 5437
4 5121 5437 3943 5425
4 5121 5425 5464 1695
4 4253 6258 1697 1696
4 3944 5121 5425 5464
4 3536 4224 4441 4586
4 3540 5517 3539 4236
4 4136 3385 6179 3180
4 4441 3385 3907 4990
4 2697 3056 3482 3908
4 4088 6124 1855 1856
4 4088 4089 6124 1856
4 6124 6099 5264 1855
4 6124 5608 6099 1864
4 6124 4354 3612 4089
4 4354 4027 6124 5264
4 5189 3293 5184 3688
4 2825 2824 2822 3964
4 4028 4354 4293 3615
4 2640 2650 2587 3451
4 2823 3740 3735 3371
4 5376 2545 5379 5378
4 5556 5571 6087 5185
4 5571 5556 4493 5185
4 3553 5609 6087 3350
4 5630 1910 6147 1909
4 5630 6147 4499 6334
4 6147 3569 6334 1909
4 3570 1919 2923 5653
4 6147 3569 3570 6334
4 1919 6147 3570 4806
4 4095 3775 3581 4172
4 5647 910 4736 919
4 3272 4736 910 911
4 5647 919 4736 5728
4 4734 4736 3272 911
4 4734 3647 3272 3273
4 4739 4737 4738 5668
4 4739 4598 3120 929
4 3622 3796 2220 2222
4 3231 3362 3496 3902
4 2836 2837 4484 3782
4 3122 3214 5727 3016
4 6002 2614 4801 4874
4 2935 3630 6085 4948
4 4310 4762 4905 4958
4 3015 3641 4875 3017
4 4179 4879 4862 5590
4 4070 4810 3487 6102
4 4810 2522 2044 6102
4 3903 4810 4092 5452
4 4810 2044 2522 2043
4 6311 2522 2043 4810
4 4110 2614 4874 4108
4 4086 6311 5452 4092
4 6311 5452 4092 4810
4 2784 6217 3130 5070
4 2712 2753 2733 3530
4 2239 1550 3130 1559
4 6217 3130 5139 1568
4 2952 4196 3338 4198
4 5896 2895 5077 3996
4 3748 4007 2784 2783
4 1530 3088 1539 1531
4 6217 3130 5070 5139
4 5410 1548 5087 5411
4 2755 1541 2239 1540
4 2732 2733 3621 3530
4 3167 4766 6181 2955
4 2926 3880 5460 3882
4 2885 2888 5791 2442
4 2782 5360 5441 5397
4 5129 5132 4798 5128
4 2780 4274 5242 4104
4 2884 2888 2898 2889
4 6018 5191 2445 4869
4 2876 2875 3870 3387
4 5787 6236 6254 6252
4 5131 5130 1621 1620
4 2888 2897 5791 3386
4 2426 2565 2415 2687
4 5263 3300 3298 5609
4 5323 4600 5748 4504
4 5413 5781 4694 4676
4 5548 1324 4578 5412
4 5609 5263 3553 5262
4 3350 6090 6068 6272
4 2418 2414 2567 2420
4 3460 6002 2614 4801
4 3341 3344 3147 3342
4 2300 3188 2391 2936
4 2985 5143 2981 2477
4 3135 4985 3134 3535
4 2588 2593 3236 2463
4 6176 3490 5884 5777
4 5337 5902 4406 5447
4 5361 5337 4511 5446
4 2641 2587 2650 2644
4 5361 5902 5337 5447
4 3399 3742 3397 3398
4 1467 4109 1468 4108
4 5443 5123 5422 5436
4 5443 5422 5123 5419
4 5123 5422 5436 3400
4 3420 3425 3473 3421
4 4498 2332 2922 2921
4 5525 6154 6145 6135
4 6145 5525 6133 5603
4 4498 6289 2921 2922
4 3933 6136 2731 6135
4 6059 2921 6150 2922
4 2921 6150 2922 6289
4 6302 6032 5501 5457
4 6302 3659 3810 6168
4 6302 5688 5711 5459
4 5900 6032 4989 4972
4 6032 5501 5478 4972
4 6302 5711 6031 5457
4 6031 5479 6032 5457
4 6302 5457 6031 6032
4 6032 4989 4972 5478
4 2372 4529 5914 3734
4 3671 5891 3071 4530
4 4528 4530 3069 5913
4 4387 4530 4529 5407
4 4528 6307 4530 5297
4 3878 4213 4200 5234
4 6290 2124 4000 2125
4 5971 5231 5897 5187
4 5234 4202 2115 5207
4 4000 5209 5208 6290
4 3357 6338 3355 3921
4 3923 6338 6165 3921
4 4084 3357 6338 3355
4 6186 5150 5696 6173
4 5779 990 6155 5794
4 5027 5779 6155 4922
4 3819 5075 6155 5011
4 5075 3574 6155 5076
4 6155 3574 4922 5076
4 3564 5027 4446 5810
4 3564 5027 5810 5809
4 4930 4987 540 2291
4 4511 3472 5311 3421
4 4511 5311 3472 4209
4 4511 4448 5446 4209
4 3712 4511 5337 5310
4 3435 3952 3431 5108
4 3469 3799 3258 3470
4 5436 5902 4453 5421
4 3471 4511 3473 3472
4 3890 5108 5512 5115
4 3111 2242 5040 5178
4 5405 5321 2881 5344
4 3112 5196 5321 5023
4 3998 3856 3332 3854
4 5210 2881 5321 5322
4 5210 2881 5322 5211
4 2290 2542 2881 2540
4 4170 5040 5173 639
4 3378 3099 4917 4817
4 5632 3123 4778 4733
4 3792 4816 4840 5701
4 3792 3124 4917 4784
4 4917 4760 3123 3580
4 2776 2875 2870 4915
4 4292 4104 5316 4107
4 5242 5752 5155 5278
4 2781 4274 5752 5242
4 5753 5752 4274 6232
4 2781 4274 5753 5752
4 4104 4915 2780 5244
4 2781 5585 5752 5751
4 5105 4358 5190 1647
4 4358 4357 6011 3386
4 3487 4810 2044 6102
4 5837 2044 3487 2045
4 4807 4484 5453 3903
4 5837 3487 3498 6205
4 4044 1810 3826 1809
4 1810 6074 6335 1819
4 4044 3826 5463 1809
4 4632 1819 3826 6335
4 4631 5496 3826 1818
4 3826 5496 5463 1818
4 2516 2905 2518 3990
4 4474 4279 4291 2520
4 2517 4279 4291 4289
4 4932 3510 5702 4931
4 5652 5305 4291 2519
4 5652 865 3483 4291
4 3483 2519 4291 4289
4 4699 4700 857 3105
4 4088 5292 1855 5264
4 5266 5292 4088 5264
4 4088 6124 5264 1855
4 5268 5266 3909 6277
4 6092 5268 4088 5263
4 3449 4072 1199 3720
4 4755 4072 1198 1199
4 4755 3410 5065 3745
4 2690 3412 3413 3414
4 4755 5065 5066 1190
4 2640 5051 3139 4078
4 3139 5686 6344 6043
4 2642 5261 4631 5595
4 4214 4216 6344 5562
4 4861 478 4255 469
4 4821 4175 4255 469
4 5588 4246 478 4894
4 3006 4894 5588 5589
4 3006 5588 4246 4698
4 4821 468 4255 4774
4 5587 4774 4255 4698
4 4335 5690 6014 955
4 3133 946 4335 955
4 4335 5690 956 5151
4 5151 3125 3126 4335
4 3120 938 5152 947
4 5716 946 3120 3133
4 3432 4461 3429 3427
4 3600 3431 3436 5512
4 3430 3889 3437 4478
4 5512 4459 4457 4395
4 5416 5766 5765 6045
4 3937 6069 4929 5673
4 3391 3512 3799 3439
4 3972 6268 4567 6266
4 4567 6264 3973 6266
4 3969 3890 3600 5512
4 3434 3601 4878 3889
4 3969 3973 5115 3974
4 4433 3001 3013 5341
4 3941 3942 6073 3757
4 3324 4841 2502 3009
4 2503 5341 2740 5340
4 4716 3750 6075 5340
4 4716 2740 6336 5341
4 2420 5398 3752 3750
4 4704 4584 4616 405
4 4558 3827 2354 3739
4 4715 2322 4667 3766
4 3827 4585 4543 2311
4 2355 3401 3548 5964
4 5574 5313 4744 5312
4 3738 2356 2357 3083
4 4584 414 3829 405
4 3736 2825 3737 2824
4 2360 3370 3740 3369
4 3401 5573 5657 5964
4 1451 4874 4110 4117
4 5573 6094 5575 4745
4 5573 5657 5964 6094
4 4584 4543 406 4790
4 4584 406 4543 415
4 4704 4584 3827 4616
4 4584 415 4585 414
4 4584 3827 4616 3829
4 3110 3766 5396 3764
4 2766 2902 2903 4957
4 5629 5705 4491 5631
4 3369 6103 3684 5274
4 5525 5603 6059 2921
4 2676 2680 2697 2682
4 4957 5380 6115 5552
4 4537 4414 3828 4543
4 5587 4255 4821 4175
4 6089 4063 4145 4282
4 2801 5200 4679 5202
4 5961 6151 4234 6144
4 4827 5961 4828 2731
4 2729 3364 2616 2728
4 4827 5961 4234 4828
4 6137 6135 2731 4969
4 3934 2922 6059 5654
4 3286 3285 3502 4780
4 4291 865 4699 5305
4 4821 469 4796 4175
4 5602 4474 847 856
4 3285 4491 4780 4125
4 3104 4700 3960 3670
4 2653 2658 2656 3187
4 3209 2982 2977 3220
4 4157 4796 460 461
4 4796 4175 5301 4174
4 4821 460 4796 469
4 4157 4796 4174 4176
4 2517 2424 3379 2519
4 4181 3405 5903 2421
4 2493 3484 3321 3381
4 3320 3321 3096 3406
4 2446 3321 2267 3096
4 5705 4491 5631 3502
4 3406 3378 3099 3123
4 4288 3379 3380 4289
4 3378 3376 3099 4817
4 6105 1575 4888 1566
4 2984 4887 6105 4888
4 4887 4196 1567 1558
4 1539 1548 2240 4271
4 4007 2984 4886 4887
4 2784 4007 5410 4196
4 6105 4198 1576 1567
4 3790 3346 3794 3791
4 4862 479 4879 488
4 5587 3094 4821 4774
4 4173 3039 3095 3885
4 5588 477 4246 4698
4 6194 4242 5615 4241
4 2944 2943 3244 2348
4 3778 4954 4950 3780
4 5739 5724 5918 4808
4 2841 4121 2840 3457
4 5724 6194 5100 5614
4 4082 5164 3815 5166
4 5101 4974 5742 4973
4 5490 5069 5054 5017
4 5052 4966 5032 5017
4 5490 5017 5039 5069
4 5018 5488 5033 4994
4 5485 5032 3205 4168
4 3565 3564 5809 3574
4 3819 5011 6155 5809
4 5038 5049 5490 5036
4 5485 5033 5490 5032
4 2949 5665 5666 5818
4 2752 2753 5358 2733
4 3565 5011 5038 3819
4 3819 6155 3574 5809
4 3862 5088 2088 2097
4 5088 6216 3239 6319
4 6319 2080 3859 2089
4 3860 3859 6319 3864
4 3306 4908 612 4348
4 3309 4985 614 4986
4 3306 4348 612 621
4 3307 4985 623 614
4 3304 5086 604 5080
4 2453 2988 2593 2989
4 3307 3306 613 622
4 3304 603 5080 604
4 2958 4213 3128 5160
4 4821 4796 4176 4175
4 3128 3129 2108 4213
4 4213 5160 2117 3128
4 3238 5471 5470 3864
4 4213 5160 2116 2117
4 2483 6211 4233 3128
4 3877 5234 3129 4213
4 2985 1584 5057 6076
4 5104 5357 2351 3838
4 5637 5102 5103 5104
4 3528 3838 3533 3529
4 2725 5091 2755 5820
4 4821 4026 4176 460
4 2292 2293 2294 3523
4 5019 5485 4168 4994
4 3207 2949 3205 5665
4 3200 5357 5103 5828
4 2602 3158 3157 2966
4 5258 5172 5023 658
4 5258 5172 657 5217
4 5210 5321 5258 667
4 5295 666 5258 667
4 5295 5258 5751 5321
4 4627 5367 5342 4634
4 4627 5998 5342 4203
4 2929 3486 5998 4257
4 5938 5932 4849 5907
4 3073 3769 3733 2286
4 4257 5371 4848 6347
4 5998 4257 5940 5371
4 3952 4016 4032 4017
4 3952 4032 4016 3431
4 3469 3434 3435 3599
4 3431 4032 4475 4459
4 4017 737 4018 4016
4 4017 4032 4428 4079
4 4031 4407 4411 6260
4 3467 2971 3599 3468
4 3429 4475 4032 4079
4 4032 4079 4475 4080
4 5365 5416 5766 5765
4 6045 4373 4119 6054
4 3219 3038 2448 3567
4 3077 3078 3075 2354
4 4208 4878 5926 4472
4 6045 4011 6055 6035
4 6045 4011 6035 5972
4 4567 6268 5417 4426
4 4775 4578 5529 5412
4 4694 5413 4775 4192
4 5529 4676 4694 1334
4 4696 1333 5529 5530
4 4696 1324 5529 1333
4 5529 4578 1324 5412
4 5266 5268 5263 4088
4 5266 4027 4029 5264
4 5268 4088 1847 6092
4 2470 3024 2303 3056
4 5268 1847 4088 1846
4 5294 1846 5292 1845
4 3285 4491 3502 4780
4 4700 3048 2486 3104
4 3963 3967 5669 3327
4 2496 2699 2677 4207
4 3848 3605 3845 4101
4 3846 2379 3019 4124
4 3110 3765 3764 5396
4 2517 2514 3770 4231
4 4474 2518 3323 4278
4 2512 4895 4651 5142
4 2743 3270 3999 901
4 2409 2410 4062 2412
4 4651 4579 4580 4652
4 4752 4546 4415 3770
4 4752 3770 4652 4651
4 3301 3220 3503 3103
4 866 5652 5305 865
4 3101 3960 3959 3104
4 5667 6148 6292 1954
4 5667 1954 5676 1963
4 4896 1963 5676 1964
4 3934 2918 5654 5653
4 4896 4989 1973 1964
4 5900 4989 2736 4972
4 2485 2486 2487 5652
4 2729 2736 2730 2738
4 2736 4926 6097 5676
4 3213 3348 2860 3267
4 5716 936 4936 4876
4 5716 4876 927 936
4 5710 919 5728 928
4 3314 3017 3014 3016
4 3790 3098 3119 3124
4 5647 919 5710 918
4 3315 3639 3638 4936
4 3229 3357 3356 3921
4 4808 4070 3487 3498
4 3800 3457 4988 3592
4 3125 3355 3359 5151
4 4091 5166 2016 5452
4 3812 2008 3813 2017
4 3815 4988 3814 3924
4 4084 4085 6304 6305
4 4640 5396 4837 3765
4 2632 3173 2633 3231
4 5027 1001 5810 1000
4 5810 1001 5805 1010
4 4444 5810 4446 5805
4 5027 5810 1001 4446
4 3564 6155 5027 5809
4 5809 4122 1009 5810
4 4450 1010 5799 1019
4 4518 5636 4514 5634
4 3154 4482 5428 4481
4 5634 5165 4482 5635
4 2254 4670 2759 4669
4 5634 2524 2525 5636
4 3157 2893 4713 5162
4 3714 4482 6030 5428
4 5471 5228 5813 6216
4 5835 1063 5839 5890
4 5835 1054 5839 1063
4 5856 5839 1054 1055
4 4150 5896 5839 5890
4 5839 1055 5841 5643
4 4150 5839 5841 5643
4 5300 3113 5217 5172
4 5173 5300 647 648
4 5173 4284 638 5300
4 5040 649 5172 648
4 5041 5040 4686 4170
4 3979 4421 4394 4422
4 3111 5178 5040 5173
4 3725 3705 5944 5924
4 4837 1397 5396 5395
4 5931 5938 4846 5907
4 5816 4022 5959 3743
4 5816 3743 5824 5343
4 3411 3248 3743 3410
4 3411 3410 3745 5065
4 5350 5351 4847 5957
4 4021 5960 5959 5404
4 3704 3724 3705 3721
4 2659 3913 3760 3914
4 3151 3914 3760 4726
4 3762 2660 4143 1108
4 3760 3151 5842 5531
4 2276 2541 3276 2537
4 4727 5842 4505 5889
4 5936 5842 3760 4726
4 2672 5908 2879 2878
4 2879 5296 4161 3654
4 2880 2881 5211 5296
4 5895 2879 5908 2878
4 2879 2882 4161 5907
4 5197 5895 2879 5265
4 5895 2879 5907 5908
4 5222 4290 3284 3701
4 3412 3724 5973 5068
4 4072 3409 4755 3444
4 5222 3284 3221 3701
4 5222 3726 3900 2572
4 4036 3221 3332 3223
4 4036 3855 3332 2179
4 3449 4359 3446 3720
4 2244 3759 3979 5531
4 2959 2958 2964 3515
4 3762 5840 1099 5845
4 2914 2550 2927 2926
4 4591 6129 5793 6243
4 4591 6337 3067 5627
4 3070 3074 3071 3671
4 3733 3916 3734 4924
4 3913 3915 3916 5845
4 2926 2889 3882 5190
4 2443 2444 2445 2898
4 2443 2445 2669 6005
4 3881 2927 3880 4798
4 2444 3882 2898 2889
4 2445 6005 6329 2669
4 2445 4872 6249 6329
4 5765 6057 6041 5764
4 5416 5765 3939 6045
4 4839 4302 4419 4401
4 6057 6041 5389 4835
4 5366 4443 6057 4417
4 5366 4303 4442 4066
4 3524 4836 5762 4035
4 3935 5525 2919 2920
4 5498 6052 5398 4731
4 5399 3551 5500 4133
4 3254 3933 5520 3896
4 6074 6335 4632 3333
4 5533 3751 5398 6062
4 4731 5398 3751 5400
4 3752 3353 5499 5500
4 3551 5500 3752 5498
4 5533 4540 3554 3750
4 4624 5781 5788 6095
4 5748 5287 4353 4600
4 4192 4218 5529 4694
4 4624 4625 4574 6095
4 4723 4574 4603 4722
4 4723 4605 4722 4603
4 3401 3738 5657 5573
4 3735 4750 3737 5598
4 2355 5573 3832 3738
4 3401 3738 5601 5657
4 6283 2920 2332 2921
4 4498 5624 6283 6289
4 4498 2921 6289 6283
4 2320 2319 4496 5202
4 2319 2920 2332 6283
4 3934 6114 2734 5916
4 4970 4984 5730 5672
4 4643 6284 3408 5703
4 3623 3625 3627 3624
4 3257 4970 3627 5721
4 6171 4819 1972 1981
4 4896 6171 1972 1973
4 6171 4819 1981 4820
4 4896 5479 6171 1973
4 6171 5735 1982 5479
4 4515 4481 5805 4517
4 4516 4193 4945 4521
4 3748 4008 3747 4010
4 6101 6205 3498 4808
4 4767 4199 5000 6203
4 4057 4826 4060 5593
4 6105 4887 1566 4888
4 2985 6076 6105 1584
4 4009 5087 4007 4008
4 6105 4887 1567 1566
4 4007 2953 2984 4196
4 2775 2952 2984 2953
4 6217 4196 1558 1567
4 2784 6217 5070 4196
4 4197 1567 6217 1568
4 3713 4445 3500 5483
4 2753 5358 2733 5828
4 2557 2556 2560 3980
4 2733 5828 5358 5827
4 2752 2962 3980 5358
4 2733 5827 3621 3530
4 4670 5162 3157 4713
4 3302 3310 3303 3308
4 3339 3342 5920 5114
4 3339 3342 5114 5849
4 3534 3621 3660 3530
4 4686 2591 4689 5178
4 3543 6234 5984 5320
4 5456 6226 3237 2973
4 3583 3887 5864 5178
4 3542 3887 3114 3113
4 5921 4273 5181 5204
4 5183 5767 5768 5186
4 6234 5183 5767 5768
4 6234 5183 5768 5993
4 5280 5990 4634 5342
4 5367 5342 4634 5368
4 3764 3765 3927 4337
4 4835 4839 3588 5389
4 5366 5389 4839 4835
4 4837 1405 4838 4337
4 5765 6041 4835 4463
4 3525 3588 3526 4463
4 4839 5366 4836 4442
4 5259 6039 3758 5454
4 5259 5260 3942 5492
4 4337 4639 6125 3926
4 5302 5454 5506 5122
4 5122 6258 5121 5434
4 4721 4723 4626 4605
4 5669 4630 3965 4626
4 3964 3965 4799 3737
4 4799 4629 4721 4648
4 4721 4629 3737 4693
4 5877 4723 4722 5583
4 3965 4799 4721 4649
4 3889 3437 4478 5370
4 4138 4471 4136 3906
4 3456 4037 3957 4562
4 4471 6298 4437 4067
4 2788 4703 2789 5223
4 3602 3128 2483 4233
4 2451 2988 2951 3337
4 4769 6175 4120 1525
4 5143 5898 5057 2990
4 3129 3862 2098 5234
4 3860 3566 3877 3129
4 3568 2979 6109 3624
4 3168 5880 3625 3624
4 2979 3569 6109 4804
4 2982 2979 3220 6334
4 3220 3569 2979 4804
4 5670 3297 5693 6109
4 3101 4232 3959 3961
4 6148 1945 6292 1954
4 6292 6113 1945 5672
4 6292 6113 5916 1946
4 5667 6292 5676 1954
4 5726 6287 1972 4819
4 5667 6292 4926 5676
4 3893 6275 5545 6195
4 3664 3893 6275 5545
4 3893 6175 6184 5855
4 3893 6275 6195 5855
4 4971 1522 5820 1531
4 2348 3723 3803 3244
4 3497 4058 5493 5582
4 6184 5007 5855 3850
4 6184 6175 6185 4967
4 2892 5874 5431 1036
4 5433 1037 5431 1036
4 2892 6313 5431 5874
4 4769 5855 3850 4120
4 4151 4237 5431 5432
4 5856 4237 5841 1046
4 5856 1046 5431 4237
4 6206 2063 6276 2062
4 6276 2062 5830 5831
4 6276 5593 2063 5626
4 4060 6276 5626 5593
4 6276 5830 2071 5909
4 6101 5216 4058 6205
4 4826 6276 4060 5593
4 5692 3692 5257 5905
4 5212 3566 5168 3693
4 3691 3693 2483 2481
4 2950 2211 2775 2951
4 3693 2483 6211 3691
4 5592 5620 4008 5905
4 5692 5806 3691 3649
4 4000 5208 5891 6290
4 4697 2917 4798 5128
4 3073 3074 3514 2548
4 2552 5795 4591 5793
4 3167 6181 6129 6153
4 4001 6244 5892 5208
4 3151 2245 5531 3760
4 6153 5627 5892 6318
4 4398 3750 4540 6075
4 2722 3554 3545 3333
4 4398 4716 6075 3333
4 2307 2317 3057 2316
4 5485 5665 5052 5490
4 5052 5490 5017 5032
4 5052 5081 3208 3204
4 5052 5490 5054 5017
4 5052 5665 5049 5490
4 3808 3245 3775 3776
4 4801 2614 2611 6151
4 4093 5955 4116 4918
4 4874 4110 4117 2614
4 3801 5955 4933 4114
4 3636 3632 3118 3117
4 4361 4366 4891 4362
4 6299 4889 5047 5394
4 2388 2612 2387 2615
4 3508 3509 4313 3510
4 3571 6196 3789 3834
4 3240 3212 3723 3241
4 5900 5883 3658 3591
4 3776 3834 3789 6196
4 3119 5650 4917 3099
4 3790 3793 3792 3791
4 3119 3099 4811 5650
4 3097 3119 4811 4867
4 2446 3320 3096 2448
4 3016 4876 5710 6077
4 4462 3098 3096 3347
4 3216 3217 3557 2430
4 4294 4492 3612 4146
4 3680 5377 3685 3687
4 3680 3682 3681 3689
4 4955 4742 4306 5381
4 3680 2901 3684 3278
4 4199 5742 6203 4767
4 6333 6310 6309 5968
4 3664 6275 3663 2813
4 4786 5802 4252 4560
4 5745 3090 4786 5744
4 3778 5742 4059 4950
4 4769 5855 4771 3850
4 3603 5584 821 820
4 2379 4020 4124 4019
4 3677 3845 5605 4101
4 4062 2902 4955 4063
4 2908 3604 4101 5578
4 3604 5578 839 4101
4 3605 3847 3603 3848
4 4920 3834 6295 6196
4 3834 3571 4920 4244
4 6196 3571 4920 3834
4 4251 4244 4252 6342
4 4240 4251 4249 4244
4 4244 4252 6342 4560
4 3711 3710 5119 5124
4 4031 5108 3952 4018
4 3953 3798 4018 3952
4 5707 5637 5104 5102
4 3478 2352 5707 4126
4 5019 5707 4163 5102
4 5019 5637 5707 5102
4 2608 3202 5019 3205
4 3479 3819 2352 5019
4 5707 3478 5104 2351
4 5665 3819 5485 3205
4 5680 5486 4978 4983
4 5313 4690 4749 4744
4 5976 4803 4749 4690
4 5313 2310 4038 4744
4 4594 4720 4595 4038
4 2312 2309 2310 4705
4 3080 3078 3828 2354
4 6326 3948 6142 4776
4 4769 2815 5855 6275
4 5519 4788 4761 4595
4 2815 2813 2857 3663
4 2816 4960 2815 2858
4 2815 2814 2813 6275
4 4769 6195 6275 5855
4 4769 6275 6195 2814
4 3660 3146 3534 4350
4 3131 2829 3159 3132
4 3147 4999 3145 4167
4 3147 3145 4999 5112
4 3159 2256 2257 1562
4 3146 3621 4187 3660
4 3344 4167 3146 4908
4 4769 2814 2815 6275
4 4818 474 4873 4791
4 3948 5712 4818 3947
4 4818 5712 466 3947
4 4627 3486 4634 5998
4 3445 3616 3444 4072
4 3445 4072 5352 4073
4 2871 2870 3387 5355
4 3449 3446 3447 3720
4 3868 3486 4781 4633
4 2980 3295 3297 3624
4 3296 3297 5677 3561
4 3296 3561 3959 3297
4 6208 5664 3866 3296
4 4789 3962 3959 3831
4 3296 3104 5656 3670
4 3297 3624 6214 6109
4 3295 3297 6214 5693
4 4769 2814 6195 1534
4 3450 2668 6250 2671
4 3450 3365 3417 2885
4 2443 3450 2671 2668
4 2443 6005 2191 2190
4 3450 6250 2668 2533
4 3450 2896 6007 2533
4 3331 3383 3450 3396
4 3383 2190 2671 2199
4 4900 2905 837 838
4 2896 3450 3396 2886
4 4699 3105 3572 4700
4 5602 3572 4699 3105
4 2520 5305 2519 4291
4 2907 3046 2906 2908
4 2520 4474 4699 4291
4 5602 5578 848 847
4 6089 4147 1883 1874
4 6089 4063 4147 4145
4 4285 4282 4145 5608
4 3612 6124 4146 4145
4 4354 5264 6124 5608
4 6103 1360 5274 4702
4 4062 4280 4125 4124
4 3486 4633 4183 4781
4 3165 2917 2969 2554
4 4304 5335 4292 5289
4 4186 5371 3253 4127
4 3248 3410 3443 3743
4 4756 4072 3616 4071
4 3486 4634 4183 4633
4 4743 3323 4895 4682
4 4064 6042 6344 6043
4 3758 6039 6042 5454
4 5117 5454 3758 5451
4 3426 3711 3758 3753
4 5317 4433 5319 2503
4 3294 3300 3334 2722
4 3420 3711 3424 3709
4 3756 4451 6344 4215
4 5686 4214 6344 5541
4 3362 5690 3359 3360
4 3873 974 3872 4259
4 3872 3362 5690 4906
4 5690 3872 3360 3362
4 3875 3361 3871 3872
4 3713 3500 3577 3497
4 3873 4919 982 5780
4 3171 3210 3212 2809
4 3930 4931 524 523
4 4959 4953 522 531
4 2906 4900 838 2905
4 3718 4930 4959 3930
4 4923 3510 5796 4937
4 3953 4448 5446 4511
4 3472 4448 3957 3951
4 4704 4041 4043 4616
4 3427 3429 3432 3431
4 3798 5361 4508 5902
4 5115 5515 3974 3825
4 4478 4512 3437 4149
4 4512 3437 4149 4458
4 4512 4149 4477 326
4 4512 4472 316 5926
4 4512 5926 4487 6331
4 3003 3988 4841 3009
4 2419 2418 4716 3750
4 4296 3751 4054 5400
4 2419 4716 5339 5341
4 3984 3555 3556 5817
4 2420 3751 5398 3750
4 4296 4054 4317 4322
4 4296 3751 6071 4317
4 3107 4142 3738 3083
4 3738 4745 3083 4142
4 3738 5573 4745 5657
4 5312 2312 4995 2310
4 3833 3832 3738 3083
4 5312 2310 4744 4705
4 4306 3611 4492 3612
4 5573 3401 2355 5964
4 5808 4795 6033 6170
4 4619 4081 379 6170
4 4565 4619 388 379
4 4619 4081 4658 380
4 6033 4683 4619 4658
4 4619 4659 5536 388
4 4619 4659 4683 4535
4 4565 379 4653 6170
4 4565 4619 6170 5536
4 4565 4653 378 4650
4 4040 387 4565 388
4 4565 387 4042 378
4 3549 4565 4042 4650
4 5808 3549 5055 5536
4 5602 856 4699 4474
4 5602 5578 3046 5579
4 847 838 4474 5578
4 3046 5579 2908 3050
4 5602 4474 3035 5578
4 2408 2382 3019 2909
4 3604 4101 839 830
4 2735 3933 2731 2734
4 2616 5961 3018 2613
4 2612 4883 3653 2613
4 3261 6149 5682 4984
4 4970 4926 5672 5721
4 4926 6292 6097 5676
4 2422 2527 2485 2424
4 2656 3991 3290 3992
4 3049 3050 2909 3287
4 3765 5396 4837 4337
4 4680 2510 2511 4743
4 2976 3297 3301 2979
4 3301 4804 3220 2979
4 4263 3502 3220 5631
4 3220 2979 3569 6334
4 5670 3297 3959 3561
4 4789 877 5656 3962
4 2976 3296 3959 3297
4 3959 3104 3960 5656
4 3959 3579 3831 3962
4 5618 4645 4765 4709
4 3406 3378 4778 3381
4 3406 3484 3099 3378
4 4719 4751 6284 433
4 4751 3405 6284 5703
4 3405 6284 3289 4719
4 2423 5903 4778 3405
4 5390 4231 5903 5979
4 6299 4918 4093 4911
4 3873 5804 3842 5780
4 3871 4919 3873 5780
4 3873 983 4259 5804
4 4240 3476 2941 4244
4 4240 4251 4243 4249
4 4251 6295 4244 6342
4 4940 4243 4251 1503
4 4920 1494 4249 1485
4 4920 1495 5008 6295
4 6193 1495 4251 6295
4 4940 1503 4251 1504
4 4704 3827 4790 4041
4 3127 5021 5212 5168
4 5021 5022 2092 6224
4 4704 406 4584 405
4 5021 5169 2101 5232
4 5021 5232 5022 3649
4 5692 5021 6224 5022
4 5067 3204 3199 3208
4 2949 5052 3205 5665
4 3565 5666 5665 5010
4 4704 406 4695 4790
4 3200 5358 5084 3196
4 5019 4168 3202 5102
4 5018 4994 5019 5488
4 2608 5019 3202 5637
4 5433 5874 5090 1036
4 2892 1035 5090 1036
4 2946 5757 2893 5090
4 2892 5090 1035 2894
4 4122 5090 1026 1027
4 4122 5666 1017 1026
4 5757 5433 5874 5090
4 4450 5429 1019 5799
4 4515 5805 4481 3154
4 2946 1026 4122 5090
4 4501 6012 5349 5246
4 3303 3305 3344 4908
4 3134 4985 3309 4986
4 4170 631 4687 5041
4 4687 3306 622 631
4 4200 2116 4213 5160
4 5234 2107 4213 2116
4 2583 6280 2585 5128
4 4704 4695 397 6119
4 3236 2987 5923 4049
4 2557 2732 3980 3308
4 2098 5234 2107 3129
4 5799 4444 3154 5805
4 5420 3576 3883 3842
4 3713 2524 3851 5634
4 4515 5120 5483 4946
4 5780 4446 3883 4922
4 4704 4040 6119 397
4 4895 4580 4651 4579
4 5782 5797 6306 5771
4 5842 5888 5893 5235
4 5842 6012 4507 5192
4 2279 2275 2772 2915
4 5512 4395 5515 4459
4 5515 3974 3825 3824
4 5972 4012 4439 4014
4 4012 4014 3936 3708
4 5480 3516 3518 4454
4 6262 4013 4014 4012
4 4015 5505 4013 4014
4 6262 4013 4012 5480
4 4299 5480 3985 3987
4 4571 1822 6270 6056
4 4571 1831 6270 1822
4 1823 5534 6056 4571
4 3990 2512 4895 4651
4 4570 6227 4571 4132
4 6227 4571 5534 1823
4 4571 4572 6270 1831
4 4570 6067 4571 4572
4 5184 5511 5609 3293
4 3299 3351 5548 5511
4 3545 3350 6068 3353
4 2724 3350 3353 3352
4 5201 4500 5202 2320
4 4491 3502 4780 4779
4 2324 2982 4499 3168
4 5705 3220 3502 5631
4 4741 5581 4740 4779
4 4285 1873 4281 1872
4 6089 4281 1873 1882
4 4277 4281 4285 4282
4 6089 4282 4281 4280
4 4277 4285 4286 4019
4 4281 4286 1881 5569
4 4277 4125 4280 4124
4 5647 910 3271 3273
4 5647 5641 3271 909
4 5647 4736 910 3273
4 5647 5728 4736 3273
4 5647 5710 919 5728
4 5647 5710 4901 918
4 3261 5699 3645 6149
4 3261 5672 6148 4984
4 4925 5667 3363 4897
4 3279 2854 2850 3121
4 2729 2728 4827 2731
4 3627 5730 4970 4984
4 4970 5721 5672 5730
4 5667 5672 4970 4926
4 5667 3363 5676 4926
4 5682 6149 3645 5708
4 6330 5675 5677 5694
4 3295 3296 6330 3866
4 3867 3865 3866 4341
4 6330 5675 5681 6208
4 4577 6330 3295 5695
4 4577 4984 5682 6149
4 4341 3867 6158 5682
4 4091 5166 3815 3812
4 3815 4988 3924 3229
4 3357 6165 3921 3924
4 3357 6165 6338 3921
4 4091 4086 5166 5452
4 3508 3930 3242 4931
4 6030 4482 5814 5635
4 6030 5635 4518 4482
4 3714 4482 5848 5814
4 3714 5814 6030 4482
4 5433 1036 5431 5874
4 5433 5432 5431 1037
4 5433 1036 5090 1027
4 4450 5429 1028 1019
4 2663 5904 4396 3760
4 5309 5195 6332 4421
4 6324 6012 4396 5348
4 2404 2408 2652 2411
4 5893 6012 5904 5531
4 3732 4505 5842 4507
4 5025 650 5239 659
4 6332 5307 5245 5546
4 5057 1585 5897 1594
4 5897 6222 1585 2990
4 2989 6222 5897 2990
4 5897 1594 6228 5898
4 5971 5897 5231 6228
4 5971 5897 6228 5898
4 3762 4143 1107 1108
4 3721 6328 3698 3722
4 3248 3443 2929 3252
4 4022 5875 5959 3743
4 5948 5875 5941 4846
4 5811 5875 5959 5950
4 3706 3696 5952 5282
4 3411 5066 3744 3725
4 5289 5155 675 674
4 5289 5316 5278 674
4 5289 5242 5278 5316
4 5295 5288 5155 675
4 5288 3655 5344 2540
4 5951 5372 1177 4258
4 5951 4076 1167 5956
4 5951 1176 5372 5956
4 5951 1168 4076 5943
4 4895 3323 4651 4580
4 3251 4258 4257 5372
4 4743 4895 3323 4651
4 3191 4143 1117 1116
4 3250 4846 2667 4581
4 5975 1124 4846 5931
4 5580 5516 819 4711
4 1124 4846 5938 5941
4 4927 5975 4846 5908
4 5975 5931 5908 5495
4 5329 1107 1098 5912
4 2542 5344 2881 2540
4 3769 3914 2245 2236
4 2290 2542 5405 2881
4 5405 5196 2881 5321
4 6018 5787 4872 2445
4 3620 1622 2973 1631
4 4425 3112 5196 5405
4 6234 3237 3543 5767
4 2891 5790 2887 3365
4 3879 6252 5790 5795
4 5787 2445 6254 4872
4 5787 6005 2445 5790
4 5929 6252 5787 6005
4 6018 2445 4872 4869
4 2444 3882 5190 5191
4 3552 4434 5503 1278
4 2416 5503 3552 4434
4 5503 3555 5504 5817
4 5503 1278 4434 1269
4 4509 1261 6040 1262
4 4642 6040 4509 5505
4 4607 5298 6110 5125
4 5250 5261 4725 5251
4 2680 2470 2474 2472
4 6072 5439 6110 5565
4 3846 4277 4287 4286
4 6072 5526 5540 5527
4 2993 2992 4134 3037
4 2831 3225 2864 3277
4 4610 5435 4019 4144
4 3736 5877 3737 4675
4 4676 5413 4775 4694
4 2865 5530 3293 5412
4 5286 4604 5291 4630
4 4624 4723 5781 6095
4 5781 4723 5583 6095
4 5669 3965 5877 4723
4 4799 4721 4629 3737
4 4799 4721 4649 4648
4 3965 4799 4649 4650
4 5413 3966 4192 4694
4 5877 3965 3737 4721
4 2375 2379 2378 2411
4 2974 4041 3549 4557
4 5964 3548 4672 4648
4 4799 3737 4629 5964
4 3168 3568 3570 5880
4 2489 3104 2976 3296
4 3627 3624 5730 4984
4 5729 4984 6148 5672
4 5729 1944 6148 6149
4 5726 5667 4897 1963
4 5726 5699 1953 1962
4 5667 3771 3261 5726
4 5729 1945 6148 1944
4 5699 5726 6148 3261
4 5667 6292 6148 5672
4 3478 4126 5707 4163
4 3718 4959 4930 4947
4 2608 5637 3202 3200
4 5019 4163 4126 4994
4 4516 5784 5482 4520
4 5784 4520 4516 5785
4 3841 2673 2674 2218
4 3713 3154 4515 4481
4 5482 4092 4810 6311
4 5482 6311 4810 2522
4 5784 4086 6311 5783
4 5917 5453 4484 3811
4 4609 4608 5291 4604
4 3843 5483 3842 4169
4 5782 4516 4946 4945
4 2784 3667 3130 3607
4 4351 3091 4786 3033
4 4609 4608 361 4226
4 4010 3651 5411 4008
4 4052 5000 4057 4061
4 3089 4767 3086 5742
4 3802 4916 6178 4245
4 3774 3776 2942 3834
4 6215 6303 6185 4968
4 4197 4198 1567 1576
4 4197 6217 1567 4196
4 3338 4197 6217 5139
4 4197 1576 6222 4198
4 6217 3338 5070 4196
4 4197 5139 5849 1577
4 3573 2608 5637 5707
4 2609 3575 2347 3491
4 4826 4060 6276 5831
4 3860 2215 3863 3864
4 3238 3864 3239 5471
4 4609 4551 4583 351
4 5591 3861 5138 6218
4 5470 5829 5909 5830
4 3125 4335 5690 6014
4 5716 4936 936 945
4 4762 3642 3133 5716
4 6077 928 5710 5728
4 5727 4738 6077 5728
4 4311 4991 5514 4958
4 4809 3499 3500 5482
4 4310 4903 4905 3637
4 3315 4936 4762 3639
4 3188 3007 2391 5589
4 2227 3015 2860 3213
4 3315 4762 3642 3637
4 5152 3120 947 2853
4 5796 6085 4948 3318
4 4739 3120 928 929
4 4762 954 4958 3639
4 4762 954 3639 945
4 4762 5716 946 945
4 3315 5716 3642 4762
4 3923 6338 6173 6165
4 6339 3944 4364 4130
4 3703 3391 3439 5673
4 4609 352 4226 361
4 3940 3943 3944 5121
4 3524 4035 5762 4034
4 4836 4442 5366 4303
4 4839 3594 4553 3901
4 5765 3527 4835 5366
4 4034 4035 3598 3524
4 3524 3938 4034 5762
4 3939 5972 4463 4642
4 5440 6267 4405 6268
4 5533 6273 4541 3751
4 3751 5400 4296 3556
4 5398 5400 6062 3751
4 6052 5398 5400 6062
4 4841 3751 4541 6071
4 4044 1801 2740 1810
4 2503 2740 1801 1802
4 4044 1810 2740 6335
4 2503 2740 5341 6336
4 2740 6075 1811 5340
4 4478 4477 6078 6331
4 4478 4512 6331 3437
4 4478 4512 4477 6331
4 3905 6078 4477 4495
4 5167 4412 6277 5261
4 3184 4136 3180 3385
4 4609 352 4583 6093
4 3905 4485 4477 4486
4 3430 3438 4478 3437
4 4570 6067 4413 4131
4 2106 3862 5089 5234
4 3862 6319 2088 5088
4 3878 4701 4200 5160
4 4384 3311 4385 3915
4 4390 4389 4388 5646
4 5234 3862 5089 4153
4 3877 2209 2789 3878
4 6108 3608 4702 1369
4 6108 1369 4702 1370
4 6108 1370 4702 5601
4 4837 3926 4838 4239
4 1841 259 4570 6086
4 4570 4571 6227 1832
4 6246 2739 4969 2741
4 2741 2739 2738 4972
4 5603 6154 6145 5525
4 559 3522 5013 4163
4 3665 3893 5855 6275
4 3892 2943 6215 5539
4 3892 6192 6215 6185
4 3033 3090 3032 4786
4 3304 3307 3306 613
4 3309 3304 604 613
4 3304 3306 4908 612
4 5086 3310 3304 3309
4 3304 5080 4187 3310
4 3305 4908 3304 3306
4 5538 5643 6024 5850
4 4154 5089 4703 6202
4 2855 4150 5161 4151
4 6199 5852 5868 6201
4 4390 5646 4388 5644
4 3519 4701 5206 5207
4 4464 3671 3312 5891
4 4347 6280 5651 2956
4 2585 6323 5128 5214
4 5933 5128 4039 5214
4 5933 6182 6325 6245
4 5219 6182 6231 6325
4 2583 2957 4766 2955
4 3165 2955 3167 3166
4 3928 3236 2965 4049
4 2232 2910 2233 2629
4 2781 3542 5751 5752
4 3112 5405 5321 5196
4 2880 4422 5211 5196
4 2552 2548 6129 4591
4 4422 5196 3112 5023
4 5321 3112 3113 5405
4 3111 3583 5178 3887
4 4570 6086 4131 4413
4 5498 5399 3551 5500
4 3752 4571 4132 3353
4 3752 3554 4398 3750
4 3752 6052 5398 5498
4 5533 5499 3752 4132
4 6272 3353 5499 4132
4 3342 3146 3147 3131
4 3131 3345 3342 3146
4 2713 3145 3131 2829
4 3337 2951 2954 2952
4 3146 4167 3145 4152
4 4170 5178 4689 4284
4 3336 3340 3339 3342
4 4570 6227 259 1832
4 3967 6169 4608 4226
4 3967 5286 3327 5291
4 2827 4795 3186 5808
4 2824 5877 3965 3737
4 3965 4721 4799 3737
4 5055 5536 6170 5808
4 3549 4042 4799 4650
4 2314 2722 2724 2308
4 3895 4606 4324 5290
4 3026 4078 3027 3055
4 2647 4078 4214 6104
4 3119 3123 3099 4917
4 3792 3793 3124 4158
4 3119 3792 3790 3124
4 3124 3793 4833 4158
4 4462 3348 5301 3793
4 4462 3124 4794 3123
4 5777 3587 6176 3490
4 2841 2531 3981 3459
4 5882 6187 6188 5773
4 5884 6176 5773 5882
4 3492 3789 3571 3807
4 3458 3982 5917 3811
4 3586 6187 5807 6188
4 3335 3571 3789 3834
4 4240 4241 3780 5473
4 3528 3838 2857 3663
4 3838 3529 5103 5357
4 5126 3373 3031 5522
4 2351 5707 5637 5104
4 2351 3533 3838 5357
4 3033 2749 3032 3090
4 2294 3663 3665 3839
4 3838 5048 5044 5013
4 3422 4323 3712 3754
4 4323 5310 748 5311
4 4005 757 4323 758
4 4005 758 4323 5016
4 3712 5311 4511 5310
4 3423 2649 5687 2646
4 3422 5016 4323 3754
4 6072 5125 4332 5251
4 3160 3031 3910 5561
4 3920 5535 4235 4236
4 4207 5375 6001 5537
4 6345 5540 5554 5555
4 3985 3986 6028 4299
4 3983 1777 6265 4212
4 3984 4296 5401 3556
4 3003 3556 3984 3555
4 3003 3988 3984 4296
4 3822 3002 3987 3226
4 3984 3987 6065 4532
4 5480 4299 4454 3494
4 4610 5298 5435 6110
4 5350 5957 706 5351
4 4847 5351 4077 5957
4 4847 5284 5392 5393
4 5350 4848 4849 5306
4 5331 4847 5350 5351
4 4847 4849 5284 5331
4 4847 4077 4076 5957
4 4838 4881 4239 3559
4 4329 3044 5976 5977
4 4594 5976 6152 4761
4 5519 4594 4761 5976
4 3627 3625 3257 5721
4 3885 4173 3039 4174
4 3897 3559 4881 3896
4 5312 6121 4995 3083
4 5313 4594 5976 4038
4 6187 6172 3810 3586
4 6168 6187 6172 3810
4 3031 5561 5547 3910
4 5882 3586 6188 6187
4 3981 5619 5334 3586
4 3982 3981 5611 5334
4 5765 5764 6041 6034
4 6035 5972 4373 6045
4 6045 6055 3440 4426
4 6045 3440 6055 4011
4 5765 5972 6045 5766
4 5766 6038 4119 6036
4 4939 4345 4344 4998
4 3637 4762 4310 3317
4 4311 4903 4344 4991
4 3875 3871 4997 4919
4 3373 5547 5522 5537
4 4904 4344 4998 3876
4 4904 4345 4344 4991
4 6018 3880 3882 5988
4 6018 3882 5191 5988
4 3879 5790 2891 5795
4 2594 2433 3076 3765
4 2978 3624 3297 2979
4 2918 3168 2923 3625
4 4499 2331 4500 2329
4 4789 3296 5656 3606
4 3296 6208 6330 3866
4 3295 5677 3296 3297
4 2885 2444 2443 2898
4 2668 2442 3978 2443
4 2885 2443 2668 3450
4 2190 3153 2443 6005
4 2471 4025 2697 3908
4 2443 6005 2669 2191
4 3857 4297 2161 6337
4 3857 5981 6337 2161
4 3717 3715 3858 2169
4 3856 4297 3857 6337
4 3856 4297 4056 2170
4 3067 5981 3066 5627
4 3403 4157 3404 3402
4 3403 3404 4157 4782
4 4157 3404 4794 4782
4 4157 3404 4176 4174
4 4157 4796 4794 4174
4 4157 4796 4176 460
4 4157 4026 3402 451
4 2804 3445 3447 2886
4 3368 2887 2551 2804
4 6253 6189 4104 4589
4 2888 2444 2885 2898
4 3733 3734 3195 4924
4 2662 3761 4927 2878
4 2873 2871 3387 3386
4 2873 2876 3387 2875
4 2876 3870 3616 4073
4 3444 4072 4756 4755
4 4929 3703 5029 4365
4 6042 3756 3755 4451
4 5686 6344 4064 5541
4 3056 4412 3908 5167
4 5542 4064 6042 6344
4 3941 4065 6073 4400
4 3030 2644 3056 5261
4 3581 4095 2937 3635
4 4339 3243 3630 3632
4 5798 3584 4894 4893
4 3635 3629 3631 2935
4 6151 2614 2611 2613
4 3463 4093 4117 3462
4 6299 4093 4918 5955
4 4378 4911 3462 4858
4 4093 4117 3462 4911
4 6299 4093 3462 4911
4 6299 5955 4918 5229
4 3891 2291 3665 5001
4 4930 4987 531 540
4 3630 3243 4976 4948
4 3803 6197 3116 4975
4 2943 3835 5539 4560
4 3804 3803 4947 4987
4 5361 5447 5337 5446
4 3473 4511 5361 5337
4 3798 5436 4508 3395
4 3951 3456 3954 3957
4 4016 3955 3956 4448
4 4016 3429 3956 3955
4 4018 728 4460 5447
4 4513 325 4487 6331
4 4556 4513 333 4531
4 4513 325 6078 334
4 4556 333 4513 334
4 5330 6078 4513 6331
4 4929 5029 5673 6069
4 3703 4929 5029 5673
4 3983 3003 3822 3008
4 4365 4363 4929 5028
4 3937 5673 6271 6069
4 3937 3702 6271 4011
4 3829 4616 3832 3827
4 3436 3971 5512 4457
4 2356 3832 5734 3827
4 3833 3832 4100 5573
4 3738 5573 3401 2355
4 4631 1828 4632 5595
4 3030 6340 3029 3027
4 3139 6344 5686 4214
4 2647 5686 6104 4214
4 4631 4632 1828 1819
4 6060 4725 5509 1836
4 6060 1836 5509 1827
4 2645 4631 3826 4632
4 5145 5141 4638 4683
4 4895 4219 4220 4579
4 4895 4220 4680 4682
4 5145 4535 6033 4683
4 3434 3889 4878 3437
4 6121 5625 4995 3083
4 4337 5521 1395 1404
4 4594 4720 2310 4592
4 5313 5976 5977 4749
4 2978 3168 3625 3624
4 2728 5961 4827 2731
4 6125 1414 4805 1413
4 4827 4829 4234 2613
4 5961 2613 6151 3018
4 1432 1423 4234 6144
4 4234 2613 4898 6151
4 4234 4898 4829 1440
4 4234 6151 1441 1432
4 2649 3138 3709 3756
4 5670 3301 3297 6109
4 2976 3301 3959 3104
4 3101 6285 3959 4232
4 2976 3103 3301 3104
4 3623 2978 3169 3625
4 3301 3297 6109 2979
4 4635 5572 5607 3050
4 3407 4778 4763 3405
4 4778 4763 3405 4180
4 2933 3630 3631 3585
4 5042 4247 4246 4248
4 3635 5955 4095 4093
4 5042 5394 5047 4863
4 4247 3006 5043 5042
4 3938 2685 3601 3970
4 5955 4093 3635 4094
4 3461 5394 3631 4094
4 6299 4891 4094 5955
4 4818 4378 4873 5712
4 3000 3767 3590 3259
4 4920 5008 1486 6196
4 4920 4251 4249 1494
4 4251 4244 4920 4249
4 3571 5346 4920 5345
4 4920 5346 1485 5345
4 3780 5473 4241 5724
4 2624 3032 3779 2939
4 6190 4252 4241 4954
4 6190 4950 4974 5742
4 4921 3006 5588 5589
4 2366 2365 3642 3122
4 2729 2615 3366 4827
4 5143 5057 6225 6076
4 5057 2990 1585 1584
4 1584 1576 6105 2985
4 2952 2985 2984 4198
4 5143 5252 5057 5898
4 5057 5897 1585 2990
4 5057 5252 1594 5898
4 2912 3958 5844 3993
4 2912 3993 5844 2913
4 2479 2482 5004 4233
4 5233 5923 6134 3619
4 4423 3979 3732 2243
4 2630 3519 4000 5891
4 5891 4464 3671 4001
4 4384 3916 3311 3915
4 2787 5538 4703 4389
4 5538 4389 6200 4703
4 4150 4151 6024 5841
4 4000 5891 5208 4001
4 3877 3862 3129 5234
4 5493 6206 5449 5831
4 2524 2523 3851 2525
4 3499 3498 5582 6102
4 4034 4878 3970 3601
4 2597 5420 3576 3491
4 5430 3155 4669 5428
4 4767 6333 5000 4061
4 4505 5890 5871 5836
4 4727 5842 5936 4726
4 6324 4501 6013 6012
4 3995 3994 3674 3993
4 3151 5842 4727 4726
4 4156 5890 3675 5469
4 2764 4425 5196 4394
4 3343 3325 4348 3344
4 3995 3996 3994 5364
4 3386 6019 5356 3387
4 6011 3386 6019 5356
4 3388 5271 3870 2876
4 3388 3387 3870 4184
4 4208 3938 5762 4034
4 3179 6179 4137 5477
4 5523 5477 783 792
4 3182 5547 3373 5537
4 2510 3540 5517 3539
4 3452 4576 774 783
4 2375 2384 2380 2379
4 2426 2396 2565 2394
4 5523 3053 5535 793
4 3053 785 3055 3910
4 3456 3472 4209 3957
4 4004 4209 5311 757
4 4004 765 3455 4209
4 3455 4209 765 3957
4 3185 3177 4137 3454
4 5547 5537 5535 802
4 5535 802 4235 801
4 5535 801 4235 4236
4 3920 4235 5535 5537
4 3020 3056 3024 2682
4 2650 3030 3027 4078
4 2974 3186 3187 4557
4 3290 3991 4558 3992
4 2801 2803 5200 5380
4 4955 4306 4742 4147
4 2903 2902 3685 4957
4 2658 2656 2514 2515
4 3763 4679 2803 4715
4 2903 4957 3685 3683
4 2803 4679 6118 4715
4 4955 4306 4957 5380
4 3291 4643 3322 3408
4 5390 4753 4415 5979
4 2440 3174 3255 2330
4 4878 4034 5926 5370
4 4752 4148 5594 4729
4 4494 4542 4414 4724
4 3289 3828 4543 4718
4 4264 3402 451 442
4 5313 2310 3044 4594
4 6284 3289 4719 4718
4 2361 2369 2374 2366
4 6107 6108 1369 3608
4 3290 3288 4494 2521
4 5390 2421 4181 5903
4 5618 4231 3381 4288
4 5618 5648 5979 4288
4 5618 5903 5979 4753
4 5667 4926 6292 5672
4 5667 1963 5676 4897
4 3261 5726 6148 5667
4 4925 5667 4926 3363
4 3094 4176 4026 3402
4 4783 5518 3094 4788
4 3926 4337 4639 3927
4 3897 2728 3367 3563
4 3004 5587 3006 5043
4 3354 3356 3355 3359
4 3358 3355 5769 3359
4 4084 6162 3358 5770
4 4083 4086 5784 5783
4 3501 3871 3842 3883
4 3640 3319 4923 5046
4 4118 1252 6262 1251
4 5520 3935 2920 5525
4 5046 5514 4309 4307
4 3638 3317 5747 3639
4 5683 4813 6346 4812
4 3640 6346 5061 5725
4 5514 3639 4961 5747
4 4903 4905 3637 6014
4 5045 5061 4860 4823
4 5488 4126 4993 4994
4 5488 4978 5486 5009
4 4342 5486 4983 4996
4 3479 3819 5075 3574
4 3819 5485 5038 5665
4 5018 5487 5489 5038
4 3241 3242 4948 3932
4 3480 5680 5488 4126
4 3732 4507 5842 6012
4 5919 5073 4507 5072
4 3518 4211 3488 4118
4 5858 4501 5246 5072
4 3732 4501 4507 6012
4 4118 3494 6262 5480
4 3994 5919 5073 4507
4 4470 5041 5170 5026
4 3730 3731 4506 4469
4 2764 4422 5196 3112
4 3979 4396 4421 6013
4 4470 5026 5025 650
4 3111 4422 3112 5023
4 2241 3731 2591 3135
4 5922 6234 3237 5140
4 6320 6134 5923 4049
4 2968 2969 3164 2917
4 5233 6226 5456 1613
4 3618 3620 5456 2973
4 5023 3112 3113 5321
4 5405 5321 5751 3113
4 3113 5258 5751 5217
4 3113 5258 5217 5172
4 3237 6234 5320 5140
4 4118 1251 6262 3494
4 6134 5923 4049 3619
4 2542 4295 5344 2540
4 3443 3745 3743 3410
4 5811 5875 3743 5959
4 3249 5875 3250 3252
4 2672 2883 4927 2667
4 6308 5943 5811 5824
4 6347 4847 3251 5951
4 5930 4847 4076 5951
4 5811 4191 5950 5959
4 3705 4662 3806 5408
4 3724 3705 3806 5408
4 3726 3721 3698 3705
4 3194 1117 3193 1118
4 3705 4662 5963 4714
4 4118 4012 3518 5480
4 3412 5068 3725 3724
4 2692 3192 3250 4581
4 3072 3195 2694 3733
4 4581 5941 5875 4846
4 4118 4211 1242 4454
4 3247 2538 2667 2883
4 3721 3412 3724 5973
4 4581 5975 5941 4846
4 2885 5791 2896 2668
4 5791 2897 5270 6008
4 5791 5270 2896 6007
4 2873 2889 2871 3386
4 2896 2886 5352 2897
4 6060 1828 4631 5595
4 6060 5595 1837 1828
4 6060 1837 5595 6277
4 6060 4631 1827 5509
4 3025 3055 3053 3054
4 2682 2697 3028 3056
4 2683 6004 6072 5125
4 3905 4435 3907 4524
4 5375 5537 5522 6001
4 3683 3680 2901 3684
4 4614 6004 6110 4674
4 3846 6263 4610 4286
4 4218 1342 3682 1333
4 4696 1333 3682 1332
4 3681 3683 1341 1350
4 2506 5808 6033 4535
4 3967 4653 4608 6169
4 2761 2716 2863 2865
4 4696 1332 3682 5189
4 4612 6111 6131 5586
4 6110 4674 6004 5560
4 4612 4610 5606 6110
4 5632 4817 3378 4917
4 5632 3381 3378 4792
4 5886 3065 3717 3066
4 3406 3407 4778 3123
4 5632 3378 3123 4917
4 3378 3381 3380 4792
4 3375 3378 3381 3380
4 2485 2519 2527 5305
4 2410 3285 4491 2983
4 6156 1990 4165 4820
4 6156 4820 1981 1990
4 6156 6171 1981 4820
4 6156 6171 5735 1982
4 3489 3592 3591 5777
4 6156 5884 1991 5735
4 5680 4993 5488 4126
4 5918 5724 5100 5614
4 5917 5918 2028 5614
4 5611 5473 5615 5619
4 5627 2342 3066 3064
4 5918 2028 5100 5739
4 4826 4825 5449 5909
4 6206 6276 4060 5831
4 4826 5831 6276 5909
4 5837 6206 2053 2054
4 5831 5582 5493 6206
4 4052 4061 4057 4060
4 5591 5593 5592 6218
4 6341 3117 3115 3116
4 6341 4956 6197 3149
4 3803 3115 6197 6303
4 6183 6303 4968 6185
4 2755 5060 1541 5091
4 2239 1541 5060 1550
4 2710 2239 5060 3690
4 2237 4271 1548 5411
4 2710 5091 2813 5060
4 5886 2342 3065 3066
4 3344 3303 3146 3345
4 4450 1009 5810 1010
4 2752 5357 3200 2753
4 2755 5820 5091 1532
4 3091 5539 3664 4351
4 2601 3576 3574 3575
4 2600 5357 2752 2712
4 3203 2948 2911 2912
4 3200 5828 2753 5357
4 2712 5357 2753 3529
4 2753 3530 3529 5828
4 2811 2821 2213 2820
4 3121 4598 4739 5668
4 3071 5627 2342 5997
4 5997 5627 2342 3066
4 928 5716 3120 6077
4 2853 3125 2365 3133
4 6186 5756 3550 3923
4 3125 3359 3362 5690
4 6318 2143 4283 2152
4 6233 4283 2143 2144
4 6233 6321 4283 2144
4 4283 2152 6242 6243
4 4283 6242 2153 5942
4 3167 4001 6181 6153
4 6061 5942 6236 3881
4 6268 5440 3972 4567
4 6267 6268 5440 3972
4 5416 4426 6045 3440
4 4567 3440 6264 4426
4 4569 3441 3975 4567
4 3970 4569 3975 3894
4 6262 4013 5480 3494
4 5972 4012 4373 4439
4 3702 4011 4012 5481
4 4118 4439 1252 1243
4 3702 5480 4013 3987
4 4118 1251 4454 1242
4 4118 5480 3518 4454
4 3937 6055 3440 4011
4 5290 5330 4606 4324
4 4606 3596 4210 4555
4 2313 2568 2567 4133
4 3662 3590 3597 5370
4 4463 4509 3037 4642
4 3594 4504 4483 4526
4 4839 4443 3901 4553
4 5293 4600 4550 4353
4 4627 4304 5928 5367
4 6335 1819 3826 1810
4 6074 2740 1810 6335
4 6074 2740 6075 1811
4 1819 6074 6335 4632
4 6074 6075 3333 4787
4 6074 4632 1820 4787
4 4295 4304 4628 2844
4 4573 3333 4787 4632
4 5339 5341 4716 6336
4 4716 5340 2740 5341
4 2305 2318 2425 3041
4 4410 3333 2642 2645
4 4433 6336 2503 5341
4 3389 3710 5123 3398
4 6340 5544 5554 5513
4 5339 5687 4433 6336
4 3003 4296 4841 3988
4 3423 3941 4432 4433
4 2568 3547 3352 5500
4 6127 4779 6117 1891
4 6127 4780 6117 4779
4 6117 5581 1891 4779
4 6117 3502 4779 4780
4 4263 6117 3502 5631
4 4263 3502 6117 3503
4 6117 3502 3504 3503
4 6125 4838 1405 4337
4 6107 3608 1369 1368
4 4174 3040 4176 3039
4 3096 4462 3082 3404
4 3320 5703 3408 3405
4 3559 3926 4838 6125
4 3168 3624 3568 5880
4 3084 5625 4995 5395
4 5396 1388 5625 1397
4 4881 4328 1424 1415
4 6294 6298 4321 4615
4 6294 3428 4547 4319
4 6294 6298 4067 4321
4 4471 4067 6294 6298
4 6294 3428 4488 4547
4 4807 4808 4484 3903
4 4807 2035 3487 4810
4 2026 2017 2025 5452
4 4807 5453 5918 2027
4 5452 2017 2025 2016
4 3811 2018 5453 3813
4 2018 2027 5917 5453
4 4083 3843 6162 5782
4 2524 3499 3500 3497
4 3309 3307 614 4985
4 3309 3304 613 3307
4 3134 3307 3309 4985
4 3309 605 5086 3950
4 2961 5358 3950 5086
4 2455 2465 2463 2453
4 4153 4202 4703 5089
4 3877 5234 4153 3862
4 2958 4205 5160 3128
4 4385 2788 3313 3311
4 6293 4389 5646 4388
4 4501 3732 6013 6012
4 6200 6202 4703 5879
4 6199 5228 6021 6024
4 2478 2464 3928 2986
4 2480 4205 4233 4346
4 2585 3170 5128 4050
4 3613 3694 2482 3614
4 5219 6280 6325 4347
4 2780 2778 2776 4292
4 2480 5003 4346 4233
4 6182 6245 6061 6321
4 4798 5934 5128 4039
4 3869 2877 4589 3870
4 3881 5942 6236 6238
4 6181 6182 6061 6321
4 5934 4851 6237 6245
4 5219 6182 5933 5128
4 6182 5934 6061 6245
4 5580 4711 819 828
4 6343 5516 2510 5517
4 4900 2905 3323 837
4 5516 6343 810 5517
4 5516 5584 811 6001
4 5516 6001 4235 6343
4 5516 4235 810 6343
4 5107 3395 4508 3506
4 4508 3506 5436 4453
4 5107 5467 4508 5462
4 3798 4018 4508 5361
4 3471 3473 4511 5361
4 3471 3472 3953 4511
4 4508 4018 3798 5108
4 4508 4403 5462 4453
4 3735 3737 4750 4675
4 3681 3682 4218 1342
4 3736 4218 4675 5274
4 5274 4675 1352 1343
4 5274 4702 1360 1361
4 6103 5274 1360 1351
4 5274 4702 1361 6112
4 5687 4065 5686 6043
4 3139 6043 6344 3756
4 2645 5687 4044 5463
4 5686 6043 4065 4064
4 6104 4214 5541 5513
4 6340 3027 6104 5554
4 5686 6043 4064 6344
4 4078 5484 5554 5472
4 6022 5791 2668 2533
4 6022 1664 6016 1673
4 5791 2668 2533 2896
4 5791 3386 6011 3917
4 2884 2886 2804 2887
4 5791 6016 6008 2533
4 1664 2442 6022 3917
4 5900 5479 3591 6098
4 5882 6187 5773 5711
4 6031 5900 5479 5883
4 3658 3653 3659 6032
4 5882 3810 3586 6187
4 3805 3210 3212 2349
4 2387 2637 2639 2388
4 6302 3659 6161 5501
4 3591 6098 4819 3796
4 2729 4972 2736 2738
4 2980 3296 3295 3866
4 2621 3261 3645 5682
4 3295 3296 5677 6330
4 4577 2980 3295 3866
4 3295 3297 3624 6214
4 3283 6186 5737 5741
4 3263 3771 3796 4262
4 4734 3646 3281 4737
4 5756 3550 3923 3919
4 3261 6149 6148 5699
4 3485 3486 4633 4634
4 6158 6230 5709 5704
4 4078 4214 5554 5484
4 5554 5507 4468 5555
4 5507 5540 5554 5472
4 5554 4214 4217 5484
4 5250 4725 5261 5167
4 5523 5535 792 793
4 6177 6081 5318 6082
4 5317 4212 5318 3009
4 3001 3011 3010 2686
4 4633 3485 4634 4298
4 3822 3983 3227 3985
4 6177 6339 5028 4363
4 6177 6174 6261 4363
4 5350 6347 5957 4847
4 6347 5372 5299 5957
4 6347 4257 5299 5372
4 5956 5957 5372 5951
4 5928 4304 5289 5335
4 3251 5372 5951 4258
4 3954 3438 3428 6294
4 3929 4964 4308 5680
4 4478 3430 3888 3438
4 3240 3245 3629 3636
4 2369 3316 3642 3637
4 4947 4953 3115 3118
4 4947 4941 3240 3242
4 3718 3805 3212 3723
4 3805 3804 3931 3523
4 4963 4126 3521 4993
4 3491 2347 3481 3575
4 3264 4738 3669 3281
4 3646 6158 4735 3867
4 6158 3867 5704 4735
4 3279 5978 6288 3282
4 5150 3125 5151 3355
4 6288 5978 5709 3282
4 4084 3355 3358 3357
4 4085 4082 4087 4084
4 4083 6304 4084 4085
4 4084 3358 3355 5769
4 4084 5770 3358 5769
4 4084 6304 5775 5774
4 5002 5171 5004 5003
4 5002 3614 5004 5171
4 5003 2584 6280 6229
4 3599 3468 3456 3472
4 5651 2956 6280 5003
4 3613 5642 1581 5570
4 5232 5002 3649 6211
4 3691 3694 2482 3613
4 6341 6197 3116 3115
4 3951 3435 3955 3430
4 4361 4951 4355 4362
4 3802 6197 3115 6303
4 4361 4355 4366 4362
4 3636 4361 3117 6341
4 3168 3568 3624 2979
4 3568 2979 3569 6109
4 3168 3570 3568 2979
4 5689 3624 3568 6214
4 5689 3568 3624 5880
4 5929 2180 3153 4056
4 5929 6252 2171 4056
4 5929 6005 2172 6252
4 5929 6005 5787 5790
4 5929 5787 6252 5790
4 5929 2443 6005 5790
4 5929 2171 6252 2172
4 4040 388 4565 5536
4 4040 4659 5536 6119
4 4704 4040 397 396
4 3549 4040 4565 5536
4 4040 397 4659 6119
4 3532 3530 5828 3529
4 3530 3531 3660 3534
4 3532 5828 586 577
4 3532 3529 5059 3531
4 3532 3531 585 3660
4 577 3532 5828 5048
4 4058 6206 5449 5493
4 2784 2785 2953 5070
4 2726 2240 2755 2238
4 2726 3090 4351 5745
4 3780 4241 4950 5724
4 3713 4445 5483 4515
4 3538 3537 4587 3536
4 4990 4226 4224 4225
4 5823 6093 3907 4226
4 4224 4636 4225 362
4 5042 4248 5394 4247
4 5042 4863 5047 5043
4 4921 5587 3004 3095
4 3461 3462 5394 4093
4 3585 4246 4894 4893
4 3006 3585 4246 4894
4 4893 4248 4339 3585
4 3244 6303 3802 3115
4 6193 5803 6342 1504
4 3775 3776 6196 4934
4 2390 4172 4095 3581
4 3835 3776 5008 6295
4 3969 3976 3972 3974
4 3511 3439 3391 5673
4 5512 3974 4395 3976
4 4472 4878 3437 3436
4 4457 3431 3436 3433
4 5108 5512 4459 3431
4 3768 4409 5822 5290
4 3904 3328 5822 3907
4 4677 3905 6078 4477
4 3324 2972 5341 2419
4 4725 5294 6060 5261
4 4179 487 4862 488
4 3059 3299 5548 3293
4 3399 3392 5673 5029
4 3662 3938 3601 4034
4 4179 4893 487 496
4 3059 3299 3349 5548
4 3817 5801 1307 1298
4 3547 1305 3352 1296
4 3349 4578 5548 1315
4 3818 1315 3349 1306
4 3349 3547 1305 3352
4 3818 3821 4578 1316
4 2678 2683 5126 5375
4 4612 4613 4559 6131
4 4613 5597 4228 4559
4 5126 2683 3373 5375
4 3677 5607 3050 5579
4 4635 4140 4139 5607
4 5572 3677 4613 5605
4 2506 6033 5808 4795
4 3846 4125 4277 4124
4 5558 3537 5141 4680
4 2511 5141 2499 4680
4 5558 4219 4646 5567
4 5558 4680 4681 4684
4 5558 4219 5567 4681
4 5558 3537 4622 5141
4 4638 5142 4579 4219
4 4895 4219 4680 4220
4 2432 2431 3042 3038
4 4995 3043 3044 2310
4 3833 3832 4617 4100
4 3079 4643 4644 2311
4 5312 3833 4717 4692
4 5977 5313 4749 5395
4 5312 4746 3833 4692
4 5312 3833 4746 3083
4 5519 3044 5976 4330
4 4179 5590 4899 4879
4 4331 5961 6144 3018
4 6002 4379 6164 4801
4 2735 4970 5721 4926
4 3897 5961 4234 6144
4 4837 4239 1406 1397
4 3897 4234 5961 6136
4 4751 5703 433 442
4 3407 3403 3405 4763
4 3407 4782 3403 4763
4 4751 3403 3405 5703
4 3403 442 3402 5703
4 3403 4782 4157 452
4 3322 2423 2449 3321
4 2803 4715 6116 2802
4 5714 497 4179 4899
4 3287 5569 4277 4780
4 2409 4062 4124 4063
4 4062 4740 4491 4779
4 5629 5631 4491 4779
4 2320 2319 5202 4679
4 4537 4558 4557 6119
4 3078 3079 2311 4643
4 4921 5590 5588 5301
4 4861 469 4255 4175
4 478 477 4246 5588
4 4921 5588 5587 4175
4 5587 5588 4255 4175
4 4896 4897 1963 1972
4 4896 5676 1963 4897
4 4896 1964 5676 4989
4 4896 6171 4819 1972
4 4896 6098 5479 4989
4 4904 964 4906 973
4 4905 964 4904 963
4 4905 963 4904 4991
4 4904 973 4998 972
4 4892 3510 5702 4932
4 4375 4376 3948 4377
4 3464 6002 3465 4379
4 2730 4925 4970 4926
4 3871 3873 3876 3872
4 4259 3361 6162 3360
4 3871 3873 3842 5780
4 4997 4939 4998 5779
4 4997 5076 4939 5779
4 5714 496 4179 497
4 2960 2893 2967 2895
4 5148 2948 5106 3958
4 2963 3203 2912 3958
4 3676 3151 3732 5842
4 2819 2818 4670 2855
4 2981 2951 2952 2775
4 2952 2990 2985 4198
4 2243 2241 3151 3732
4 5796 4179 5798 4899
4 2476 3602 2217 2483
4 2459 3325 2591 3583
4 3566 3602 3129 2483
4 5845 1090 5203 1091
4 5888 1081 5203 1090
4 5845 1091 5203 5409
4 5857 5203 1081 1082
4 5857 5203 5936 1081
4 2786 4727 4155 5406
4 3136 4687 4170 3306
4 3136 3135 4687 3307
4 4170 3306 631 630
4 5920 5114 5187 3339
4 3303 4908 3344 3146
4 3325 4348 3344 3305
4 3302 3309 3307 3304
4 2791 2460 3175 2785
4 2417 4841 3751 3750
4 4296 4316 4322 4317
4 4296 3751 4317 4054
4 2419 3324 2417 3750
4 5401 4532 4296 3984
4 3988 4316 4533 4322
4 3988 4533 4532 4322
4 5400 4296 3556 5401
4 6345 3029 3027 5526
4 3026 3054 3788 5051
4 3027 3029 3910 5526
4 4209 765 757 4004
4 3788 3455 775 3452
4 4004 3788 3784 3455
4 3784 3455 3451 3183
4 2303 3056 4412 3482
4 6001 6343 3700 5537
4 3139 4214 4215 6344
4 2641 2648 2397 2646
4 3788 3054 776 5051
4 3788 3455 766 775
4 2906 838 5578 2905
4 2904 2906 4272 3604
4 3848 2908 4101 3677
4 3603 5584 4030 821
4 3603 829 5580 820
4 2497 5516 5584 820
4 3699 5375 3847 5522
4 5145 4536 2512 4535
4 5808 3186 4557 4949
4 2802 2803 4957 5552
4 5376 4492 3685 4493
4 5599 4957 5377 5376
4 5376 5599 4957 5380
4 4192 4775 5529 5530
4 3685 4493 3687 5377
4 6112 4750 3371 3401
4 4957 5552 2803 5380
4 3673 3848 2904 3603
4 2409 3615 2902 4063
4 3681 3682 1341 3689
4 3683 5377 3685 3680
4 5200 5380 5617 5381
4 5549 5200 5617 5202
4 2801 5200 2803 4679
4 2900 2902 3611 2903
4 5549 5380 5552 5551
4 4306 5380 4955 5381
4 2517 4279 3770 4278
4 3047 3106 3101 3104
4 5305 866 4699 4700
4 3721 6328 3722 3716
4 5705 5631 4499 6334
4 5653 5655 2923 5654
4 5653 1919 2923 5655
4 2918 3625 5653 5721
4 3934 6059 6114 5654
4 2918 5653 2923 5654
4 5653 1927 5880 3570
4 5653 5730 5880 1936
4 5653 5880 1927 1936
4 5653 3625 5730 5721
4 3795 5684 4875 5685
4 5683 5685 5684 4880
4 5684 5685 4160 4880
4 5683 5684 4875 4877
4 5683 4902 3640 4880
4 3933 6136 5961 2731
4 6125 1404 5520 5521
4 6125 4639 5521 5520
4 3108 3766 1378 3109
4 4329 3926 3044 4239
4 2430 2543 2440 3216
4 3934 2922 2918 2919
4 2734 3933 6059 3934
4 6125 5520 1404 1413
4 6148 4984 6149 3261
4 6158 6230 5682 3645
4 3771 3773 3645 5699
4 3262 3280 2850 3281
4 3366 2739 4827 3653
4 4601 4602 3773 5758
4 3773 3645 5699 4338
4 3279 3280 3773 5978
4 3640 6346 5725 4902
4 5683 6346 3640 4902
4 5683 4880 3640 5685
4 5683 5684 4877 4843
4 5683 6346 4902 4884
4 5061 4860 4859 5747
4 5061 4928 3638 5747
4 6346 3638 4928 4813
4 5683 4875 3017 4813
4 3480 5680 5486 5488
4 5489 5486 4996 5037
4 5018 5038 5485 5490
4 5487 5489 5037 5486
4 5487 5038 5490 5036
4 6324 4501 5218 6013
4 4469 5218 4501 6013
4 4501 4506 5079 5218
4 4501 4507 6012 5246
4 4423 4421 5026 6013
4 6324 6332 5236 5243
4 6324 4396 6012 6013
4 3704 3697 3698 3705
4 5217 5752 5751 3542
4 3542 5752 3543 5768
4 3276 5751 3113 5405
4 2273 2232 2284 2763
4 3413 3704 3725 3706
4 3979 4394 2764 4422
4 2764 4394 5196 4422
4 2846 2539 2929 3486
4 2846 2539 3485 2844
4 2929 4848 5998 3253
4 5998 4257 5371 4848
4 3251 4848 6347 4257
4 3654 3655 3253 2540
4 3253 3655 4127 2540
4 3654 3253 5391 2882
4 3654 2881 5296 3655
4 3249 4849 2883 4846
4 4036 3855 2178 3900
4 4036 2187 3221 3419
4 4036 2178 3855 2179
4 4036 2188 3221 2187
4 5363 4852 709 5386
4 5363 6003 4852 5991
4 6003 4852 5991 1221
4 4854 5336 4853 4852
4 6248 5992 1669 6009
4 6248 6189 5965 5384
4 6248 6189 6003 5965
4 4627 5367 4203 5342
4 5928 693 5335 684
4 5928 5367 5335 693
4 3413 4021 3192 3706
4 693 5342 4203 5367
4 5367 5335 693 692
4 4591 6337 5793 5795
4 5793 6242 6238 5795
4 6238 5793 3881 5942
4 6018 3882 3880 5787
4 2968 4048 2917 4050
4 5793 4283 5942 6242
4 5992 6253 5384 4201
4 2875 4915 4185 3387
4 5992 6253 4201 5244
4 4915 6253 5992 5244
4 6248 5384 5992 6253
4 5992 4185 6010 6009
4 6248 5992 4185 6253
4 6248 6253 6189 5384
4 4526 4504 3596 3594
4 3595 3598 4473 4483
4 2996 5772 2999 5323
4 4731 5400 3751 3556
4 4839 2999 4553 3594
4 2999 3594 5772 4553
4 3595 3597 4531 4473
4 3598 4033 3597 4473
4 3037 4509 3552 5503
4 3750 3752 2418 4398
4 4716 2305 2425 4410
4 3752 2418 2567 2420
4 4632 6335 2645 3333
4 2419 4716 5340 3750
4 2723 3752 3353 3554
4 4294 5556 4392 4391
4 4294 5556 5378 4392
4 5376 3685 4306 4957
4 3612 4492 4306 4147
4 4492 4306 4147 5379
4 5584 3699 3847 5522
4 3844 3845 2383 3847
4 2643 2397 2646 2641
4 3192 4021 5283 5282
4 5518 5519 4788 4783
4 6326 6143 5976 4759
4 3706 4021 5960 4022
4 5096 6194 4242 5615
4 4484 5918 5614 5724
4 5473 6194 4241 5724
4 5917 5918 2027 2028
4 5615 5094 5611 5612
4 5611 5619 5615 5612
4 3781 3782 4484 4808
4 4807 5453 4484 5918
4 3706 3725 5924 3705
4 3981 5611 5334 5619
4 2623 2832 3491 3092
4 3705 3725 3704 3706
4 4807 3903 5452 4810
4 5611 3982 3458 3981
4 6206 5216 4060 5626
4 5837 6206 4058 5582
4 6206 4060 6276 5626
4 6206 2062 6276 5831
4 6206 5831 4060 5449
4 6206 5582 5493 4058
4 2619 4053 5449 4058
4 2256 2505 3997 2828
4 2828 2849 4350 2505
4 2816 2849 2828 4046
4 2816 2848 2857 2856
4 2848 2828 2829 2816
4 3534 2848 3531 4189
4 3534 2848 4189 2828
4 2713 2829 2828 3145
4 2239 2237 1558 2784
4 3706 3696 3697 5952
4 2784 2239 4009 2755
4 5835 5839 1054 5896
4 5835 1054 5077 5896
4 5835 5890 5839 5896
4 5835 1063 5871 1062
4 5835 5364 5077 1053
4 5835 5871 5890 5836
4 2297 2374 2934 2936
4 3794 3213 5727 4866
4 5683 3017 3640 3638
4 3794 4866 5641 3791
4 3017 4901 5710 4876
4 3314 3640 3017 3638
4 6077 5716 927 928
4 6077 4876 5710 927
4 937 928 5716 3120
4 4913 4104 4107 4105
4 4104 4275 4201 5244
4 4104 5240 4275 5244
4 2773 2772 5241 2782
4 4913 5384 4104 4105
4 4104 5384 6253 4201
4 4915 4185 5992 6253
4 3441 3973 3511 3439
4 3975 4567 3972 4569
4 3441 3439 3511 3440
4 4208 4035 5762 5510
4 5762 4035 4836 4449
4 6262 4013 5505 4014
4 6262 1260 5504 3494
4 6262 1261 5505 1260
4 4118 5480 4454 3494
4 6262 4014 1252 4439
4 3595 3590 5330 3597
4 4324 5330 4409 5290
4 3595 4473 3598 3597
4 3594 4526 3595 3596
4 4556 5330 6078 4513
4 5330 6331 4513 3597
4 4556 5330 5290 4495
4 4570 4413 6067 1841
4 6067 6091 1840 4267
4 4570 6068 6067 4131
4 6067 4413 4131 6088
4 6087 5557 6091 4267
4 4570 4132 4571 6068
4 3905 4524 4485 4435
4 5055 6169 6170 4653
4 4990 4992 6169 3536
4 4608 361 4225 370
4 6169 370 4081 4653
4 3538 4081 4636 4658
4 6033 4619 4535 5536
4 4497 4499 4806 2923
4 5201 4336 5629 4740
4 2329 5629 4491 4740
4 2331 2324 4499 2923
4 3706 4021 5282 5952
4 5630 6147 1910 4806
4 4499 4806 2923 3570
4 2982 3570 2979 6334
4 5332 3810 6167 3586
4 3463 2639 4109 4172
4 5882 3810 6187 6031
4 3810 3586 6172 6167
4 3814 4047 4121 3813
4 4083 4092 5784 4086
4 5784 4092 6311 4086
4 3843 5782 5784 5483
4 5782 5775 5797 5771
4 4083 3843 5784 4092
4 4809 3843 5784 5483
4 5482 2524 4520 6312
4 5482 4516 2524 5483
4 6316 6199 6202 4154
4 2788 4390 4389 4388
4 6200 6024 5853 5850
4 6021 5853 6024 5841
4 4150 4151 5896 5161
4 2584 6280 5213 5214
4 5003 5651 6229 6280
4 2583 2956 2584 6280
4 3365 5929 4056 5790
4 2885 3365 2887 5790
4 2885 3365 2443 3450
4 2891 5795 5790 4056
4 3814 1990 4047 1999
4 3998 3365 3417 3223
4 3331 3417 3365 3223
4 2936 2300 2228 2391
4 3314 3017 3315 3638
4 3636 3802 6341 3115
4 3775 3776 3789 6196
4 3354 3173 3852 3357
4 4121 3813 4047 6176
4 3775 4095 4115 4109
4 3775 3789 4912 6196
4 4115 4114 1478 1469
4 4172 3789 3807 4912
4 3463 4114 4110 4116
4 5286 5669 4534 4604
4 3906 3905 4485 4435
4 2683 3031 6072 6004
4 3611 4493 3685 4492
4 2564 2566 2993 2995
4 3552 4509 4134 1279
4 4731 3556 2416 5817
4 2841 3981 3458 3982
4 4134 4509 1280 1279
4 3552 1287 5498 1278
4 4509 5505 6040 1261
4 5765 6041 4463 6040
4 4509 1262 6040 1271
4 5116 4447 732 3753
4 3940 3398 3741 3943
4 5119 5122 5117 5121
4 5117 1705 5121 1696
4 5124 5118 5450 5443
4 4357 1646 5191 5190
4 1654 1655 5191 2442
4 4357 4358 2889 3386
4 2888 3386 4357 2889
4 6249 5191 2445 2442
4 4047 5777 6176 5884
4 2888 5791 2442 3917
4 4357 1646 5190 1647
4 2444 2889 2888 4357
4 6299 5047 4911 3462
4 4891 4362 4890 4094
4 6299 4094 5394 4093
4 4361 3117 6341 4951
4 4361 6341 4355 4951
4 3801 3802 4935 4916
4 4361 5955 4891 4366
4 3628 4094 3633 4361
4 3240 3723 3115 4947
4 3714 5471 4669 5428
4 5430 4669 5432 5428
4 4669 4151 4713 5432
4 3144 2820 2213 2821
4 2818 2967 5162 5161
4 3207 3208 3203 3199
4 3837 3977 2963 3958
4 4047 6156 5777 5884
4 2967 2960 2818 2338
4 5162 2895 6313 5161
4 4151 6313 5162 5874
4 4444 1010 5810 5805
4 4121 4047 4988 5777
4 3713 3497 2524 3500
4 5061 3317 5514 5747
4 4307 5702 5046 4907
4 5030 4307 4308 4343
4 5045 5030 4979 4343
4 4310 4311 5514 4958
4 5514 4991 4343 4979
4 5045 5514 4343 4979
4 6219 3343 5159 5136
4 3343 5864 5921 5204
4 3542 3887 5300 5767
4 3704 3706 3696 3697
4 3887 5767 5864 5300
4 5233 5923 3619 6226
4 3887 5173 4284 5178
4 2593 2989 5971 2987
4 3543 6234 5768 5984
4 4892 5796 5046 4923
4 4316 3988 6265 4296
4 4296 3988 6265 4841
4 3988 4296 4322 4532
4 4532 3987 3986 3984
4 3988 4322 4296 4316
4 3988 4316 6265 4315
4 5682 6330 5695 5708
4 4577 3866 3295 6330
4 3279 3263 2851 3773
4 4577 5695 3295 6213
4 6330 4800 5708 5682
4 5694 6330 4800 5708
4 4338 5708 6230 3645
4 3267 3347 3885 3082
4 5715 5709 6288 6230
4 3620 5969 1640 1631
4 5441 5397 1640 5969
4 2871 2889 5105 4358
4 2925 1630 3620 1639
4 2925 3620 5441 1639
4 5131 1621 3620 1630
4 2924 5131 2925 2916
4 1621 1612 5130 5456
4 3071 6247 5891 5892
4 2227 3214 2861 3122
4 3706 3413 3704 3696
4 2342 2343 3069 5945
4 4528 3069 4529 3734
4 3641 3884 3348 5590
4 4529 3069 4530 4527
4 4000 5891 3519 5206
4 5747 5045 4961 5514
4 5061 5514 3317 5046
4 5061 5725 6346 4162
4 5061 6346 4859 4162
4 5061 6346 4928 4859
4 3640 5061 6346 3638
4 5195 6332 4421 4396
4 5309 5248 6332 5245
4 2665 4396 5195 4421
4 5309 6332 5248 4421
4 6332 4421 5236 5248
4 6324 5348 6332 5546
4 6332 4421 6013 5236
4 3802 6341 6178 4916
4 3802 6178 6341 6197
4 3802 6341 3115 6197
4 3240 3636 3243 3118
4 3801 4916 4361 6341
4 3581 3808 3245 3775
4 4668 4688 5870 5558
4 3180 3540 5559 3920
4 3536 4586 4441 4539
4 2510 4680 4684 4711
4 5559 3539 4688 4236
4 4083 5782 5775 5797
4 4445 5420 3842 3576
4 4070 2626 3499 3498
4 3918 3592 3800 4988
4 2809 3932 3241 3246
4 4244 3834 3476 2945
4 4044 1801 4400 6336
4 4044 4065 4400 1800
4 4044 2740 1801 6336
4 4044 6335 2740 6336
4 4044 3826 1810 6335
4 5687 4044 5463 4065
4 5687 6335 4044 6336
4 4164 5750 5738 1989
4 4164 5738 4165 1990
4 3229 4988 3924 3918
4 3919 5738 4164 5750
4 3919 4601 5750 4602
4 4179 5798 4899 5590
4 3918 3922 4164 3924
4 2940 3781 3778 3777
4 3778 3032 3090 4786
4 1548 2240 4271 2237
4 3033 3090 4786 4351
4 2950 2812 2335 2783
4 4059 6101 5099 4061
4 4241 4950 4974 6190
4 2755 1532 5091 1541
4 2703 2751 2710 2784
4 4543 4414 3828 3289
4 3319 5798 4899 5796
4 4542 406 4543 4790
4 4621 4724 4537 407
4 4537 3828 4558 4790
4 4558 4557 6119 4041
4 4542 4543 406 415
4 4719 4542 3289 4181
4 4094 4362 4890 3633
4 4094 4891 4361 5955
4 4248 3631 4339 3585
4 4094 5394 4248 4889
4 3628 3636 3633 3632
4 3242 4976 3243 4948
4 3636 3243 3118 3632
4 3636 4361 3633 3117
4 3628 3632 3630 3243
4 3240 3241 3723 4947
4 3240 3118 4947 3115
4 3774 3789 3775 3776
4 3630 4948 4976 4260
4 3635 4361 3801 5955
4 5115 3974 4301 3825
4 5115 5512 3974 5515
4 3512 5115 4301 3505
4 3969 5115 5512 3974
4 3969 3890 5115 3973
4 3389 3393 3392 3400
4 2697 4025 5167 3908
4 3967 5291 5823 4226
4 4226 6169 4990 5823
4 5558 4219 4680 5141
4 4409 3907 5822 4495
4 3159 2828 2256 3997
4 3326 2863 2716 4775
4 2471 4028 2472 2376
4 3967 5055 3965 4630
4 3057 3895 4324 3768
4 4624 4723 6095 4574
4 4412 6277 3909 3908
4 3001 2415 2686 2972
4 3708 4012 3702 4011
4 3702 4011 5481 6271
4 3702 4929 6069 6063
4 3002 4013 3555 3987
4 3702 4013 5480 4012
4 3708 3702 3937 4011
4 5399 3552 4134 1288
4 3037 3552 4509 4134
4 3547 5399 5500 4133
4 2715 3058 4352 3821
4 5399 1296 5500 1287
4 1296 3547 5399 5500
4 3547 3817 1306 1297
4 3349 3351 1305 1314
4 5291 5822 6093 5290
4 3333 4412 3544 3334
4 5412 3059 2715 4578
4 2471 3298 2472 4028
4 2757 4990 4992 5823
4 4192 3966 5413 2863
4 4775 5529 4578 4676
4 4743 4682 2510 4272
4 3989 4536 2512 4546
4 4992 6169 4636 4081
4 3536 3538 4992 4636
4 6033 4619 4081 4658
4 4644 6284 433 424
4 4264 4720 441 4595
4 4592 4264 4595 4720
4 4644 433 5703 442
4 4264 441 4644 442
4 4644 6284 424 4718
4 3131 3132 3159 3161
4 4592 4264 4644 4643
4 4719 4751 3405 6284
4 4719 4751 433 434
4 4751 3403 443 4763
4 4751 442 3403 5703
4 4719 4180 4751 434
4 4751 4180 3405 4763
4 3159 2257 2258 5112
4 3322 2421 2423 3405
4 3562 6157 4330 4376
4 3266 2230 2226 2229
4 4264 4643 5703 4644
4 4921 3884 3007 5589
4 5145 4683 6033 5141
4 3159 2258 2828 3145
4 5273 3278 3681 3684
4 2800 2803 3763 4679
4 4494 3290 4414 3289
4 3844 3847 4614 3845
4 3739 3827 5734 4041
4 3680 3688 3278 3689
4 3989 4546 4651 3770
4 4179 4894 4862 487
4 4179 488 4862 4879
4 4862 4894 478 487
4 4862 5588 478 4894
4 4861 5590 4862 4814
4 4862 4814 5590 4879
4 4310 3639 4762 4958
4 4762 4905 954 955
4 4762 6014 4905 955
4 4905 955 6014 964
4 3593 3925 3592 3489
4 4762 4905 6014 3637
4 2387 2615 2638 3658
4 2368 3228 2634 2363
4 5736 4899 3319 5798
4 3643 3638 5061 3640
4 4849 5331 4847 5350
4 5736 5685 4880 4879
4 5101 6309 6180 6198
4 5101 6194 6198 5100
4 4950 5100 5724 6194
4 4950 5099 5101 5742
4 5101 6194 4974 5958
4 6333 6309 5215 6180
4 5101 5742 6203 4973
4 5099 6180 6333 5215
4 4950 6194 5101 5100
4 3288 3322 3289 2421
4 4801 3018 6144 6151
4 3898 4328 6157 1424
4 3560 3897 3896 3559
4 5587 4698 3946 4774
4 4312 4342 4343 4344
4 3931 3718 4930 3804
4 3508 3242 3510 4931
4 4309 3211 3509 4308
4 3875 4997 3871 3520
4 4931 5702 4932 515
4 5798 5796 3584 4893
4 3242 4931 4976 3510
4 4915 5244 4104 6253
4 3618 2772 2973 3543
4 2870 4915 5442 5360
4 2630 3312 3519 5891
4 4385 4727 5936 4726
4 2462 2555 3302 2557
4 3247 3249 4848 4849
4 3144 4002 4825 2821
4 3519 4386 5206 5891
4 2788 2787 4390 2786
4 4727 4505 5890 5889
4 3840 5227 2787 4155
4 5350 4848 4847 4849
4 3202 3206 3199 3200
4 3202 3206 3200 5102
4 3203 3198 3208 2948
4 3200 5103 5637 5102
4 3200 5637 5103 5357
4 3200 5358 5828 5084
4 5210 4422 5023 5196
4 5025 5210 4422 5023
4 5210 5239 4422 5211
4 5025 5210 5239 4422
4 5210 5258 5321 5023
4 5210 667 5258 658
4 4687 5041 632 5170
4 3731 4687 5170 5041
4 4687 3307 4985 623
4 3731 5170 4687 5153
4 3135 4985 4687 3307
4 4687 622 3307 623
4 5417 1735 1745 1744
4 5418 6036 1744 6046
4 4426 5418 1735 5417
4 5418 5365 6036 6046
4 1736 1735 1745 5417
4 5418 6035 1726 4119
4 3139 4215 4214 5484
4 4078 3027 3055 5472
4 2645 4632 2642 4631
4 3372 3452 3788 3054
4 2640 5051 3788 4006
4 4078 3027 5472 5554
4 3908 5167 4412 6277
4 4666 5497 6298 4588
4 3904 3905 4409 4677
4 6298 4137 5497 4666
4 6279 6298 4137 5497
4 4436 6279 6298 4137
4 4471 4666 6294 4037
4 5350 4848 4186 5371
4 4666 6298 6294 4575
4 4666 6294 4037 4575
4 4666 4037 4562 4575
4 3454 4666 4562 4576
4 2909 3050 2908 3677
4 2384 2677 2678 3847
4 2507 2509 3186 2506
4 3287 4287 4277 5569
4 3286 3502 3209 3103
4 5350 5331 5351 697
4 5572 4287 3102 3329
4 3846 4124 3019 4125
4 2382 2653 2377 2507
4 5572 4287 5628 4613
4 4020 4145 4282 5608
4 4062 4955 2412 4740
4 5618 3381 5903 4778
4 5632 4645 5618 4793
4 5618 5979 5648 4728
4 5618 5979 5903 4231
4 2340 2371 2341 2343
4 4765 4778 5632 5618
4 3285 3209 5705 2983
4 2982 5705 4499 6334
4 3168 3625 5880 2923
4 4874 1441 5661 1442
4 5661 6151 1432 1441
4 5661 6144 1432 6151
4 5661 6159 6164 1442
4 4379 6164 5661 6159
4 5660 6159 1433 6157
4 4379 4377 4858 6159
4 4801 4331 6144 3018
4 4379 4801 5661 6164
4 5587 5043 4698 3006
4 4874 4117 1451 6164
4 4801 6144 5661 6151
4 4379 6159 5661 4331
4 2637 2806 3789 2390
4 4377 1434 6157 5713
4 4204 2340 3722 6328
4 4110 4114 3463 4115
4 6125 1405 4838 1414
4 4837 5396 1396 4337
4 3927 2321 3764 4639
4 4837 5396 1397 1396
4 4837 4337 1396 1405
4 3766 3109 5396 1387
4 2340 6328 4204 4657
4 3650 2447 2448 3408
4 3772 4897 3363 6098
4 3772 3771 4819 3796
4 3269 3772 4925 3363
4 4819 4262 3771 6287
4 4262 2851 3263 4601
4 3772 6098 3796 4819
4 5779 6155 5076 5794
4 4997 5779 4998 4919
4 4997 5779 4919 4922
4 4997 5076 5779 4922
4 6212 2053 2523 2052
4 2053 2062 6206 5582
4 6212 2523 2525 2052
4 2522 5582 2523 6212
4 5582 2062 6206 5831
4 2523 5830 2062 5831
4 2949 3205 5052 3208
4 2949 5052 5665 5818
4 3207 5665 3565 2949
4 2370 2340 2341 2342
4 2607 3201 3207 2966
4 2370 2342 3065 2340
4 2338 3201 2962 2752
4 2946 3565 5666 2949
4 5456 1622 6226 2973
4 1623 2973 1614 1622
4 5456 2973 3620 1622
4 3618 3237 5456 3619
4 5456 3237 6226 3619
4 5233 5456 3619 6134
4 5131 5456 1621 5130
4 2924 4048 5131 2916
4 2340 2370 5910 3722
4 5845 5912 1090 1099
4 5888 1090 5912 1089
4 5888 1089 5912 5904
4 1107 3762 5912 5329
4 5888 5912 3760 5904
4 2926 3880 2927 5460
4 2927 2554 3881 2550
4 3148 3671 4464 3514
4 3881 6061 6018 6236
4 6018 3880 4798 6061
4 3998 3856 3365 3332
4 5933 6182 5934 5128
4 6189 5363 5991 6003
4 5368 5991 5374 6269
4 5965 6003 4852 5363
4 3728 3721 3727 3726
4 6328 4655 3716 3727
4 2340 4655 2371 2343
4 2340 2342 3065 5886
4 3721 6328 3716 3727
4 2341 4528 2372 2370
4 3721 3854 3726 3858
4 3856 4056 3365 3332
4 3716 3722 3721 3065
4 4274 5333 4275 5240
4 2924 2915 4048 2916
4 4274 5752 5278 5253
4 4274 6232 5752 5275
4 5360 1640 5441 5397
4 1641 5360 5240 5397
4 3065 5886 3716 2340
4 1640 5020 5360 5441
4 5020 5441 1640 1639
4 5360 5397 1641 1640
4 5360 5244 1650 5240
4 2370 4528 2372 3734
4 4915 5360 1659 5442
4 3588 4835 4599 4463
4 2994 4834 4552 5700
4 3588 2994 4552 2999
4 3551 3752 5398 5498
4 5323 2999 3594 5772
4 3598 2999 4839 3594
4 2991 2997 2999 3525
4 3588 4599 4835 5389
4 3108 4702 6108 3608
4 3623 2980 2978 3624
4 2802 4957 6115 5552
4 2769 2802 3610 3608
4 2903 3610 4102 3684
4 3615 4354 3612 4063
4 5377 5376 4493 2547
4 5376 3685 4492 4306
4 3685 3611 4492 4306
4 5185 4293 5184 4391
4 5185 3685 4493 3687
4 5185 3611 3277 4294
4 2825 4799 3548 3401
4 2340 4655 6328 4657
4 5608 4024 6099 4019
4 5538 6200 5850 6024
4 2377 3225 2867 2378
4 5298 4023 5250 5125
4 4024 6099 5292 5264
4 2471 5266 3909 4027
4 4610 4613 6278 6263
4 6157 4377 4376 3562
4 3219 3061 3217 3063
4 5713 4377 4376 6157
4 3121 4739 4598 3120
4 4739 4736 919 5728
4 4739 4736 4737 920
4 5150 6338 3921 3355
4 5150 3355 5151 5697
4 5150 3466 6186 5698
4 2853 4598 3466 5152
4 5538 5643 4150 6024
4 5820 1522 6204 1523
4 5539 6204 5058 5545
4 6204 5058 5545 1523
4 5803 5058 1514 6192
4 5539 5803 6204 5802
4 6204 5744 1522 5745
4 6204 5744 5802 1513
4 3892 3891 6185 3803
4 3147 3146 4167 3145
4 3131 3161 3147 3342
4 3341 3147 5114 3342
4 3341 3342 5114 5920
4 3146 3345 3342 3344
4 4053 4058 4060 5449
4 2784 2239 3130 6217
4 4007 5410 4887 4886
4 4009 5410 5087 5411
4 5410 1557 4887 4886
4 5410 2237 1557 1548
4 5410 2237 1558 1557
4 2784 4009 5410 4007
4 4009 2238 2237 5411
4 5410 5411 2237 1548
4 3325 4689 3343 4348
4 2461 2561 3137 2563
4 3345 5849 3342 3339
4 3305 4689 4348 3306
4 3344 3147 3146 4167
4 3122 5716 6077 3120
4 5227 5538 4150 6024
4 3133 3120 947 946
4 3133 2853 4335 947
4 937 5716 946 3120
4 4154 6200 5538 6024
4 4292 5289 5316 5242
4 4295 5289 4292 5242
4 2780 5242 4292 4104
4 4292 5335 4298 5362
4 4292 4104 5242 5316
4 3276 2288 5405 3112
4 4915 1659 5992 6010
4 3672 3311 3915 4385
4 6071 2504 3009 6265
4 3003 3556 4841 4296
4 4841 3988 6265 3009
4 4841 3751 3750 4541
4 4841 4296 3556 3751
4 4405 6046 5417 1745
4 4405 1746 6268 6267
4 4405 1746 6267 1755
4 4606 4600 3596 4555
4 3596 5330 4210 4531
4 3895 4324 3768 5290
4 4600 5287 4353 5293
4 3589 4606 5287 2996
4 4606 5323 3596 4600
4 2997 3596 5323 3594
4 2997 2999 3598 3594
4 5323 4561 5287 2996
4 6345 5528 6072 5540
4 3028 5251 6072 3029
4 3031 3029 6072 3160
4 6072 3029 5526 3160
4 2675 2218 2786 2674
4 4332 6072 6274 5439
4 6345 5540 6072 5526
4 6315 6210 1537 5967
4 4010 5622 3651 5620
4 3651 5000 4271 6210
4 4010 3651 4008 5620
4 3651 3652 1547 5087
4 3967 6169 5055 4653
4 5055 4565 4650 4653
4 5536 3549 5055 4565
4 3964 5055 3549 3965
4 3227 6177 6174 5318
4 6128 4496 5616 5202
4 4496 4500 6128 4806
4 2319 2332 4496 6283
4 5549 5202 6282 4679
4 6282 5175 6080 6079
4 6282 5616 4496 5202
4 5003 5171 6229 5570
4 3514 3166 2553 3167
4 5213 2584 5171 6229
4 2584 5171 6229 5003
4 5232 5003 5651 5570
4 5882 6176 5773 6188
4 5882 5711 6031 6187
4 5882 3586 3587 6188
4 3490 3587 5882 3586
4 3490 3810 5882 6031
4 5735 5882 5711 6031
4 5471 5866 5428 6030
4 5866 5432 5428 5821
4 4670 5162 4151 5161
4 5638 5428 5821 6030
4 3822 3226 3987 3985
4 5471 5865 5813 5228
4 3713 5483 3500 2524
4 5868 6199 6316 5865
4 5471 5866 5865 6021
4 5866 6021 4237 5833
4 5834 5833 6199 5865
4 4438 5866 6021 4237
4 4798 5934 4039 4123
4 5933 4039 5934 5110
4 3881 6061 4798 3880
4 2927 3880 4798 4123
4 6018 3880 5988 4123
4 3881 6018 5787 6236
4 4850 5934 6237 6018
4 5933 6327 5110 4851
4 3190 3193 2660 4924
4 4359 5222 4290 5973
4 5973 4359 5068 4045
4 5222 3726 3806 5973
4 3724 3705 5408 5963
4 3461 3585 3188 2933
4 3635 3581 3808 3245
4 3628 3636 4361 3633
4 3628 3630 3629 3243
4 2935 3631 2933 3630
4 3385 3184 4136 3904
4 3904 3385 3328 3907
4 2677 4207 2681 5375
4 2579 5823 4777 5822
4 3227 4363 4929 6063
4 4607 4610 4612 6110
4 3227 6177 4363 6174
4 4798 6182 5934 6061
4 6181 5793 6129 6243
4 2957 5219 5881 2956
4 6181 6233 6321 4283
4 3167 6181 5793 6129
4 4767 5099 6333 4061
4 5099 5215 6333 4061
4 6333 6203 5000 6210
4 5000 6210 5622 6333
4 6177 6082 6339 6081
4 4767 6333 6203 5000
4 2921 2332 2922 2919
4 6059 6150 2921 6132
4 6059 2922 6150 5654
4 3986 4533 6027 4300
4 3986 3988 4533 4532
4 3983 3988 6265 4315
4 3984 3986 4532 3988
4 3985 6256 6051 6028
4 6104 5686 5541 4214
4 2645 5686 5687 5463
4 6104 5541 5686 5463
4 3028 2683 6072 5125
4 6345 5251 5544 6340
4 3343 6219 5921 5920
4 5921 6219 5179 6220
4 3343 5159 5921 6219
4 5921 6220 5181 6235
4 5921 6219 5159 5179
4 5230 5864 5921 5767
4 2503 2504 1793 5317
4 4430 6082 6177 5318
4 3009 6071 4841 2502
4 6265 6071 4841 3009
4 2504 5317 4212 1784
4 4212 2504 3009 5317
4 2504 3009 6265 4212
4 5572 4287 4613 3677
4 3286 3502 3503 3504
4 3103 3503 3301 3233
4 2907 3049 2655 3100
4 6177 5318 6081 6174
4 4635 4706 3050 5607
4 5572 5628 4140 5597
4 5440 3972 4424 6267
4 4569 3894 288 3976
4 3972 3976 4424 4429
4 5365 5762 4836 4303
4 4568 5762 5365 5440
4 3769 3672 3915 3914
4 2455 2456 2210 2466
4 2588 2593 2457 3340
4 3167 3166 4001 6153
4 3148 2283 2236 3672
4 6181 6244 4001 5974
4 4001 6153 5892 6244
4 2455 2207 2453 2464
4 2981 2987 2990 2989
4 3803 4947 4953 3115
4 6183 4975 3891 5001
4 6183 3803 6303 6185
4 6183 6197 4975 4227
4 6183 5001 3891 6184
4 3803 6197 3115 3116
4 3803 3116 3115 4953
4 3792 5684 3791 3793
4 3792 3124 4784 4760
4 3792 4159 3793 4158
4 3792 3124 4760 4158
4 3792 4917 5701 4840
4 3792 4917 4840 4784
4 3593 3592 3925 4820
4 5738 4820 4262 3925
4 5900 3591 3622 6098
4 5883 6156 5884 5777
4 3227 6177 4430 5028
4 3925 3919 2852 2851
4 2386 2615 3364 2616
4 3591 4165 6156 5777
4 6084 5559 5870 6179
4 3904 2579 2578 4409
4 2498 4680 3537 3539
4 6084 3180 3384 3540
4 4990 3907 4224 4226
4 5870 6279 5508 4489
4 5558 5870 4668 4566
4 5558 3539 3537 4680
4 3249 5392 6308 4847
4 5948 6308 5950 5875
4 4997 3520 3481 3575
4 3072 2370 3195 3734
4 2659 2661 2287 2662
4 3074 4591 5627 6129
4 2247 2251 2695 2536
4 3368 2887 3447 3417
4 2914 2550 2926 2874
4 3223 4290 3418 3446
4 2871 2889 4358 3386
4 3448 5973 5222 5068
4 4591 5795 3856 6337
4 5828 3200 5084 4166
4 4166 5828 577 586
4 4166 5102 577 5103
4 4166 578 5102 3206
4 4166 5084 587 3196
4 4070 2834 3903 4092
4 3500 5483 5482 2524
4 4053 2618 2625 2619
4 2311 3078 3828 3080
4 4414 4558 4537 3828
4 4415 4730 5979 4753
4 3289 4542 4543 4414
4 5390 4181 4415 4753
4 4339 4260 505 496
4 4339 3630 4260 3585
4 4339 505 4976 514
4 4339 4976 513 514
4 4339 4893 4260 496
4 3634 4248 3631 4339
4 5948 5875 5950 5404
4 495 4893 4248 4339
4 4339 3630 3243 4976
4 3966 5669 5877 5781
4 3895 4606 5293 5287
4 3249 5938 4847 4849
4 3895 4624 4352 5293
4 5323 4600 5287 5748
4 3952 3955 4016 3953
4 4016 737 4018 3953
4 5361 3953 3798 4018
4 4209 3472 4448 3957
4 3512 3395 5107 3505
4 3890 3441 3799 3973
4 5108 5107 4508 5515
4 5107 3395 3506 3505
4 4453 4508 3506 5467
4 5523 792 5535 5532
4 4441 5870 4436 6179
4 3373 4207 3920 5537
4 2642 4412 2644 5261
4 4556 334 4513 6078
4 4556 4495 343 334
4 4556 4531 5330 4513
4 4556 4583 343 4495
4 4556 5330 4210 5290
4 4556 5330 4531 4210
4 4324 4409 5330 4677
4 3895 5287 3589 4606
4 4352 4624 5788 5293
4 4353 4352 5293 5287
4 2718 3326 2570 2716
4 3058 2996 5287 5801
4 5287 2996 4561 5801
4 5669 4723 4534 4626
4 3963 3966 5669 3965
4 2863 2865 2716 4775
4 2757 3967 5055 3968
4 3968 2757 4795 5055
4 4219 4681 4680 4220
4 5141 4895 4219 4680
4 4219 4221 4579 4647
4 2310 2311 2312 3079
4 4327 2312 2310 4995
4 3832 3083 2312 3080
4 3080 2312 3832 3829
4 4895 4579 4220 4580
4 2512 4651 4546 5142
4 2511 5142 5145 5141
4 5907 4846 2883 4849
4 3989 4536 4546 4537
4 6308 3249 5948 5392
4 2485 5305 2486 5652
4 2324 3168 3169 3374
4 2485 2424 2527 2519
4 4643 4718 4644 2311
4 2978 2979 3168 3624
4 2329 2982 5705 4499
4 3367 3898 4331 3897
4 3038 4593 3040 3094
4 5726 6287 3771 5731
4 3796 4819 4262 3771
4 1132 5392 1133 5938
4 5938 5941 1133 1124
4 6287 5738 5758 1980
4 6287 4262 5738 4820
4 5726 1963 4897 1972
4 4861 4862 5588 478
4 4861 4862 5590 5588
4 4861 5301 4814 4833
4 4861 5301 5588 5590
4 4861 5588 4255 478
4 4861 4833 4796 5301
4 2985 6105 6076 4888
4 5948 5404 1134 5941
4 2476 2483 2482 4233
4 4007 5410 4886 5087
4 4227 5082 5001 6183
4 5941 4846 5938 5948
4 5082 5855 4120 3850
4 6183 6184 4967 5082
4 6184 6175 3893 6185
4 6183 6185 3891 3803
4 6183 6185 4968 4967
4 2711 2848 2857 3529
4 4351 5820 5745 6204
4 5820 6204 4351 5545
4 2755 2239 1541 5060
4 2725 5091 5820 5545
4 4786 5539 5802 4560
4 2725 4351 2726 2727
4 2707 2606 2727 2748
4 3038 3094 3040 3039
4 4173 4175 3094 4176
4 4376 6157 4330 5713
4 4375 4376 3093 3946
4 4376 3948 6326 3949
4 3094 4788 4026 4783
4 3040 3039 3094 4176
4 2264 3274 3217 2265
4 3094 4593 3402 4026
4 3875 4919 4997 4998
4 3477 3210 3481 5680
4 3875 3496 3520 3871
4 2299 2806 3335 3492
4 2391 3584 3215 2936
4 5690 6014 3362 3125
4 3354 3852 3173 3496
4 5941 5975 1124 4846
4 4997 4998 4939 4344
4 4903 3876 4904 4906
4 2927 2916 2926 5460
4 2550 3881 3882 3879
4 5131 1630 2925 1629
4 5133 1629 5131 5460
4 5460 1629 5131 2925
4 5105 5460 1638 5190
4 2924 4048 3620 5131
4 3995 3837 2913 3993
4 3995 2895 2559 3996
4 3994 5843 5919 3993
4 3996 2895 5077 2913
4 6200 4389 5876 5879
4 3996 5469 5896 5161
4 2559 5161 3996 2895
4 5430 3155 4450 5757
4 5162 2893 4713 5874
4 2948 3198 3958 3203
4 4713 5433 5431 5874
4 2946 5666 4122 1026
4 3111 2242 2764 4470
4 5195 5329 5904 2663
4 6199 6200 4154 6024
4 2659 3761 3762 2660
4 2665 5197 4421 5195
4 5195 6332 5348 5308
4 5195 5348 6332 4396
4 5195 2878 5894 5328
4 5309 5197 4421 5248
4 5197 4421 5248 5239
4 5372 4258 4257 5279
4 3486 4257 4634 5998
4 4257 4634 5998 5280
4 5280 4634 5279 4256
4 5280 4634 4256 4257
4 5280 5372 5385 5299
4 4634 5998 5342 4627
4 5766 6038 4416 5764
4 5365 4417 5366 5764
4 5765 5972 6040 4463
4 4568 5416 3527 3939
4 5365 4066 5366 4417
4 6045 5766 5972 6054
4 5766 6045 4119 6054
4 5766 5418 4119 6045
4 3025 3031 3053 3910
4 3178 4576 3452 5477
4 4136 4137 3179 6179
4 2760 3180 3382 3385
4 3056 4412 3482 3908
4 4138 4137 4136 4471
4 3179 3920 6179 5532
4 3912 4666 4471 4037
4 4138 4478 4486 4477
4 5547 802 5535 793
4 3182 5535 5547 5537
4 5547 802 5522 5537
4 5547 5561 5522 803
4 5126 5375 3373 5522
4 5298 4025 4023 4024
4 3483 882 4965 3380
4 3483 4965 882 883
4 3483 5658 4965 883
4 3379 2519 3483 4289
4 3375 3483 4965 3380
4 4289 4231 3379 2517
4 4291 3483 873 865
4 5652 3483 865 874
4 6282 6120 6283 5174
4 6282 6283 6080 5174
4 6282 4496 5624 6283
4 6282 6120 2319 6283
4 6282 2319 4679 5202
4 2982 3168 3570 4499
4 2320 2321 2322 2323
4 2982 3168 2979 3570
4 2977 2982 3168 2979
4 3828 3080 3827 2311
4 2493 3379 2424 2519
4 2446 2272 2432 2448
4 2322 3764 2321 2319
4 2441 3169 2798 3374
4 5075 5038 5489 5037
4 5038 5665 5049 5010
4 5038 5665 5490 5049
4 5487 5038 5037 5489
4 5018 5038 3819 5485
4 3199 5067 3198 3196
4 5018 3479 5075 3480
4 5018 5075 5038 5489
4 5018 3479 5488 5019
4 5010 3565 5011 5038
4 3462 3464 3189 5042
4 3460 2301 3189 3062
4 3006 5588 4894 4246
4 4921 5589 3007 3006
4 3189 3188 3005 3007
4 3584 4894 3006 5589
4 5587 3946 3094 4774
4 4894 3585 3584 3006
4 3356 3125 5150 3355
4 2853 3133 3122 3120
4 3163 6014 4903 3637
4 2364 2634 2365 3125
4 3230 3550 3923 5150
4 2392 3188 2300 3189
4 2362 2227 3122 2366
4 5538 5850 6200 4389
4 5726 1971 6287 5731
4 5726 6287 4819 3771
4 5726 1954 5667 1963
4 5726 6287 1971 1972
4 5782 6306 4516 4945
4 5782 4516 5784 5483
4 5782 5483 4946 4516
4 4083 5775 5782 6162
4 2892 1036 5431 1045
4 2892 1036 5090 5874
4 2892 5431 6313 1045
4 2892 5077 1045 6313
4 2892 2893 5874 5090
4 5856 5839 5896 1054
4 5856 5896 5077 1054
4 5856 5077 6313 1045
4 5856 1045 5431 1046
4 4150 5856 5839 5896
4 5271 2897 2876 3388
4 3388 3386 5791 2897
4 3388 6251 3387 4184
4 5887 3870 4184 5271
4 3870 4184 5271 3388
4 6019 3386 5791 3388
4 3388 6251 5995 6019
4 3340 3339 5971 2989
4 3886 6064 5920 5922
4 5971 5898 2987 2989
4 5922 3343 5921 5920
4 5923 6226 3237 3619
4 2476 2481 2477 2482
4 4385 5889 5857 5936
4 6200 4389 5859 5876
4 5857 5203 1082 5409
4 5857 5409 4384 5203
4 4385 5983 5203 3915
4 5857 5936 1072 1081
4 6200 5879 4703 4389
4 4686 5041 4470 5040
4 2877 2776 3869 4589
4 2877 3869 3868 3870
4 4304 5367 4298 5335
4 4589 4915 6253 4185
4 4295 5585 5344 5288
4 3485 4304 4627 4298
4 2542 5405 2881 5344
4 3721 3414 3068 3415
4 2630 5891 4464 3312
4 3514 6153 3167 6129
4 2279 2782 5020 5441
4 3858 3855 3900 2178
4 3858 2168 3728 3717
4 2959 4000 5974 4001
4 3854 3900 5222 3726
4 3858 3717 2169 2168
4 3726 3729 3728 3900
4 3698 4204 6328 5947
4 6328 3727 5947 4657
4 5470 4825 2820 3864
4 3854 3332 4036 3855
4 3854 4036 5222 3900
4 5471 6021 5865 5228
4 5471 6030 5865 5866
4 3972 4429 6267 4380
4 4569 3976 3972 3975
4 3972 4567 3973 6266
4 3022 3373 3181 3182
4 5440 6267 4424 4405
4 3009 4212 5318 3983
4 3009 6265 4212 3983
4 3822 3983 3986 3988
4 4363 4929 5028 3227
4 4409 5330 4495 5290
4 6089 1873 4145 1874
4 6089 4281 4282 1873
4 6089 1874 4145 4147
4 6089 4280 4281 1882
4 4741 6089 4062 4742
4 6340 6104 5513 5554
4 6340 5513 6104 5496
4 3028 3030 5261 5251
4 6070 2642 5261 4631
4 3030 6340 3027 6104
4 6345 6274 6072 5528
4 6127 1882 4281 4280
4 4741 6127 1882 1891
4 4277 6127 4281 4280
4 6127 1891 6117 1890
4 4280 4780 4277 6127
4 4277 5569 6127 4780
4 6127 4780 5569 3504
4 4375 3464 4378 5043
4 4378 4858 4377 4864
4 3948 4864 4377 6142
4 4774 4783 3946 3094
4 4376 3949 5518 3946
4 6142 4376 5713 4377
4 6326 4376 5713 6142
4 4376 4330 6326 5713
4 4377 3948 6142 4376
4 3946 4698 5043 5712
4 6326 6143 6142 5713
4 4677 5330 5370 6331
4 4940 1504 6342 1513
4 4940 1504 4251 6342
4 4940 1513 5744 1512
4 2946 2893 2894 5090
4 3565 5809 4122 5010
4 5485 5019 3205 3819
4 4122 5809 1009 1008
4 4450 4122 1009 1018
4 4122 5809 1008 5010
4 4444 4445 4515 5805
4 3713 3154 4482 3714
4 3577 5420 4445 3576
4 4514 4515 4517 4481
4 5483 2524 3713 4516
4 4445 4515 5805 5120
4 3566 5168 3693 2483
4 3566 5168 2483 3129
4 3860 3861 3566 3129
4 5138 3859 2080 3861
4 6319 3859 3860 2089
4 3566 3142 3863 2215
4 5909 3859 4826 4825
4 3338 5070 3345 5139
4 2705 2335 3175 2337
4 3336 3342 3345 3344
4 5205 5920 5114 5187
4 3339 2989 6222 5187
4 3338 4197 5849 6222
4 3904 4677 3911 3905
4 4892 5796 3643 5046
4 3510 5702 4923 4892
4 3590 4677 5330 5370
4 4260 6085 4948 5796
4 4937 5702 4923 3510
4 3315 3642 3316 3637
4 2307 2313 2724 2308
4 4179 5714 5796 4893
4 5714 5796 4893 4260
4 5020 5442 2870 5355
4 2870 5442 4915 3387
4 4915 3387 6010 4185
4 4185 5986 4589 3870
4 4295 4292 2777 2778
4 2503 1801 4400 1792
4 2503 2740 6336 1801
4 3823 4433 2503 5341
4 4433 5319 2503 4400
4 3429 3428 4480 5468
4 3429 3956 3955 3428
4 2305 4412 2643 2642
4 3431 4032 4016 3429
4 4016 4079 3429 4032
4 4016 3956 3429 4079
4 4461 3429 3427 3428
4 2498 2501 3536 3538
4 5870 4566 4539 4563
4 4566 5870 4539 5558
4 3537 5558 4587 4539
4 3536 4990 3382 3385
4 5559 5870 5508 4688
4 5559 3540 4236 3920
4 6345 5251 6340 3029
4 5261 5251 6340 5509
4 5540 5554 5472 6345
4 3020 2682 3031 3029
4 5251 6072 6274 4332
4 5251 6340 5509 5544
4 5622 6333 4061 5000
4 4057 5623 5622 5620
4 5622 3651 6210 5000
4 6315 5622 6210 5967
4 5622 6310 6333 5967
4 6315 3651 1537 6210
4 6315 5098 3651 5620
4 6315 1536 6314 5967
4 2358 4142 3107 3083
4 5396 4337 1387 1396
4 3109 1379 4142 1388
4 3109 1379 6108 4142
4 6107 3108 1378 6108
4 6107 3608 1368 6116
4 4263 1900 5630 1909
4 5630 1909 6147 6334
4 5630 5581 1900 5631
4 5630 5581 6128 1901
4 5630 6128 4499 4806
4 5630 4806 4499 6147
4 2611 2388 2612 2614
4 2612 2613 4898 4883
4 5962 3659 2612 3653
4 3653 5501 6160 6161
4 4827 2613 3653 4883
4 5501 6032 3653 4972
4 4809 5483 3500 5420
4 3361 3843 3852 3501
4 3493 3459 3981 3335
4 3843 4169 5782 5483
4 3361 3852 3843 3358
4 4083 5782 5783 5784
4 3422 4003 3138 3421
4 3842 4169 4259 3843
4 5259 3757 3758 6039
4 3757 6042 6039 4097
4 3426 3758 3757 6042
4 3238 4438 4669 5471
4 5227 5228 6024 6021
4 4154 6200 6202 4703
4 4669 5432 5866 4438
4 4151 5856 5431 4237
4 4150 5856 4151 5841
4 4727 3152 3313 2674
4 4670 4151 5162 4713
4 4669 5432 5428 5866
4 4151 4713 5431 5874
4 6293 5407 5256 5255
4 3757 6042 4097 6043
4 4387 4384 4388 5407
4 3840 2562 5469 4156
4 4393 4703 5879 4389
4 6293 6317 4389 5878
4 4388 5256 6293 5407
4 4153 3239 5089 4154
4 4388 6293 5256 5646
4 3725 5068 5066 4045
4 3724 5973 4045 5408
4 3724 5973 5408 3806
4 3247 4848 2929 3253
4 3706 3725 4022 5924
4 3724 5973 3806 3726
4 3721 3724 3705 3726
4 4021 5875 5404 5959
4 5895 2879 5265 5269
4 5309 5195 5197 2878
4 3139 4078 5051 5484
4 6070 6104 2647 5686
4 2303 4412 3056 2644
4 2568 3752 5500 3353
4 4398 4716 3750 6075
4 3552 4134 1288 1279
4 3552 4509 1270 5503
4 3552 1278 5503 1269
4 3552 5503 1270 1269
4 4527 3312 3671 4530
4 3071 5997 6318 5627
4 4527 3069 3734 4529
4 3071 6318 5892 5627
4 6307 5927 6293 4530
4 2631 2630 3312 3519
4 6307 5862 6293 5927
4 3897 5961 3933 6136
4 3934 2918 5653 5721
4 3257 3256 3625 3627
4 2735 3257 3934 5721
4 3438 4471 4486 4476
4 6135 5525 5520 6145
4 2919 5525 3933 6059
4 5525 6137 6135 3933
4 2305 3333 2642 4410
4 6070 6340 6104 5496
4 3056 5261 4412 5167
4 6070 6340 5496 5509
4 6070 5496 2645 4631
4 3030 4078 6104 3027
4 3030 6340 5261 5251
4 6256 6029 4315 1777
4 6256 3983 6174 6050
4 4486 3438 4478 4471
4 6029 3986 6028 6256
4 3985 6256 6028 3986
4 1690 6051 6028 3517
4 3983 4315 1777 6256
4 6265 3983 4315 1777
4 6042 4099 5466 4098
4 6042 4098 5454 6039
4 6042 3755 5466 4452
4 3801 4361 3636 6341
4 3635 3636 3801 4361
4 3245 3802 3636 3115
4 3984 3987 3555 6065
4 4300 4532 3987 3986
4 3427 4461 3438 4458
4 3822 3987 3984 3986
4 3008 3822 3983 3227
4 3002 3555 3984 3987
4 3438 3428 4476 4461
4 3984 6065 3555 5817
4 3984 5817 3556 5401
4 3424 5259 3942 3709
4 5119 3758 5117 5122
4 5119 3711 5116 3758
4 3757 3758 6039 6042
4 3758 4103 5116 5451
4 2385 2699 2496 2866
4 2509 2508 3990 2512
4 5532 5559 3920 6179
4 5559 3537 3539 6084
4 3181 3373 4207 3920
4 3536 4990 4224 4225
4 5733 4602 5758 3773
4 6230 6288 5715 6291
4 3427 4458 3438 3437
4 3773 3280 3645 5978
4 3809 3835 3776 4245
4 6215 6303 4968 6191
4 3835 3776 4245 5008
4 6215 3803 6185 6303
4 3244 3803 6303 3115
4 6193 5803 3835 6342
4 4059 6101 4061 4058
4 3087 4767 5000 3749
4 3777 6101 3498 4808
4 3777 4950 6101 5724
4 5837 2054 6205 5216
4 3085 2726 2750 2238
4 3089 3086 3090 5742
4 5837 6206 2054 5216
4 3319 5798 5796 3584
4 5710 4901 5727 5647
4 3584 4260 5796 6085
4 3954 6294 4488 4037
4 5798 4894 3584 5589
4 3014 3641 3215 3015
4 3438 4471 6294 4037
4 3856 4297 5795 4056
4 2891 3365 4056 5790
4 3998 2891 2887 3365
4 2891 3856 4056 3365
4 3068 3853 3448 3721
4 3856 3854 3855 3332
4 4121 3587 3982 6176
4 5611 5614 4484 5917
4 3982 3587 6188 6176
4 5334 3982 3587 6188
4 5761 5807 6188 5334
4 5807 6163 6172 3586
4 3954 3438 6294 4037
4 2841 3458 3811 3982
4 3458 5917 5611 4484
4 5611 5917 6207 5614
4 2694 3415 3414 3696
4 3696 4276 3722 3695
4 3618 3543 2973 3237
4 3998 2891 3365 3856
4 5816 5959 4022 5277
4 4021 4581 5283 5875
4 3190 3194 2694 3192
4 3270 900 3271 4867
4 5727 5728 6077 5710
4 3406 3378 3123 4778
4 3270 3273 4866 3271
4 2487 5674 3999 4965
4 3999 3376 4965 891
4 2623 4809 3500 5420
4 4808 4070 3903 3487
4 3476 3335 3571 3981
4 3210 3931 3929 5680
4 5420 3576 3491 3883
4 4954 3090 5742 5746
4 3154 2261 2259 2759
4 2606 2711 3533 2712
4 2294 3528 3838 3533
4 3475 3520 3501 3491
4 2818 2559 2960 5161
4 3989 4546 3770 4415
4 4414 4537 4724 4542
4 4231 2514 3770 4415
4 4752 4579 4651 4652
4 2516 2905 3035 4474
4 3770 4231 4732 4279
4 4752 4732 4231 5979
4 4263 1900 6117 5631
4 4263 5630 1900 5631
4 4263 3503 6117 1899
4 4263 6334 5630 5631
4 4263 1909 3569 1908
4 3798 3470 3471 5361
4 4018 3953 737 5447
4 4017 736 4079 735
4 4018 5515 5462 4031
4 5108 4459 4031 4032
4 5219 5881 2956 4347
4 4016 745 4079 736
4 5108 4018 5515 4508
4 3798 5902 4508 5436
4 5361 5446 3953 5447
4 5108 3890 3435 3798
4 5361 3787 4508 5902
4 5361 3953 5446 4511
4 4018 5361 3787 4508
4 4436 4471 4137 6298
4 2583 3170 4766 5128
4 4050 6323 5128 2585
4 3907 4224 4524 4435
4 5823 5822 3907 6093
4 3907 6093 5822 4495
4 5108 4018 4031 5515
4 3798 4508 5108 5107
4 4017 728 4404 4018
4 727 4017 728 4404
4 4606 3596 5330 4210
4 3589 4606 3596 5330
4 4551 3895 5286 5290
4 5286 4630 5669 4604
4 3895 4538 4606 4551
4 4606 5293 4555 4538
4 4606 4555 5293 4600
4 4606 5287 4600 5293
4 4028 4027 4354 4029
4 3544 3553 5267 3546
4 4294 4089 3612 4027
4 2471 3908 3909 5266
4 3909 3908 6277 5266
4 2768 2901 3370 2903
4 4412 5595 3909 6277
4 4412 3909 5595 4573
4 2715 4775 4578 3821
4 4695 4535 4621 4678
4 4537 407 4542 4790
4 4695 4678 4659 4535
4 4790 407 4542 406
4 4704 397 4695 406
4 4695 4659 397 6119
4 4285 1864 6099 5608
4 1873 4285 4145 1864
4 4285 6099 4144 4019
4 4285 4281 1873 4282
4 4285 4145 1864 5608
4 4285 4145 4282 1873
4 4285 4281 4286 1872
4 4546 4579 4660 5142
4 4536 4660 5145 5142
4 4752 4546 5568 4415
4 5219 5128 5933 6280
4 4537 4546 4415 4621
4 3042 4594 3044 2310
4 3765 4337 3764 5396
4 5519 5976 3044 4594
4 5313 3044 4995 5395
4 5976 4038 4690 5313
4 5395 5313 4749 6121
4 4592 3043 3079 2310
4 5219 5933 6182 6325
4 3919 5756 4602 5750
4 3550 6186 4602 5756
4 4602 6288 5733 6300
4 4602 5733 6288 3773
4 4602 6186 5741 5756
4 3279 3283 6288 4602
4 3283 6288 5741 5737
4 4874 1441 4898 6151
4 4874 4801 6164 5661
4 3463 6002 4117 2614
4 4093 3463 3461 3462
4 2482 3613 5002 3691
4 2481 3691 2482 2483
4 3694 3613 3691 5806
4 3614 3613 5002 2482
4 2987 5898 5923 6320
4 2482 6211 2483 3691
4 6230 5715 5704 5706
4 6230 5706 4800 6291
4 6158 5978 6230 3645
4 3522 559 5013 558
4 558 5013 3522 3839
4 4930 4963 3521 541
4 5219 4347 2956 6280
4 3478 4163 3522 3521
4 2292 2291 3522 3839
4 2605 2346 2345 2622
4 3522 5013 4163 2292
4 4930 3804 3522 3523
4 4173 4176 3094 3039
4 4921 5588 4175 5301
4 5587 3094 4173 4175
4 4173 4176 3039 4174
4 3095 4173 3094 3039
4 3039 3095 3885 3567
4 5736 3641 3640 5685
4 4963 3930 3929 4964
4 3508 3930 4931 4932
4 4312 4344 4311 4903
4 3477 3480 4126 5680
4 2365 3163 3637 6014
4 4308 5680 4978 4983
4 3929 3707 4308 4964
4 4308 5680 4964 4978
4 5030 4171 4983 4977
4 5753 5768 5752 6232
4 5241 6232 4274 5240
4 3994 4506 5919 4507
4 3994 3996 3995 4502
4 3977 2963 5092 5144
4 2960 3837 2911 2895
4 3730 3675 4502 3674
4 4438 3239 5228 5471
4 3977 5078 3836 5144
4 3135 4985 3836 4506
4 3837 2912 3993 3958
4 5493 3851 2523 5830
4 3851 5848 4482 5165
4 3746 4052 2625 3749
4 3714 5471 5814 5848
4 5829 5831 5493 5449
4 5197 5895 2878 2879
4 2880 4422 4394 5197
4 2880 2879 5269 5265
4 5197 4421 5239 4422
4 5288 685 3655 4203
4 5288 676 3655 685
4 5295 676 5288 675
4 5288 5289 5155 675
4 5450 5124 4447 5116
4 5118 4253 5450 4254
4 5118 1714 5419 5422
4 5124 5310 5337 4406
4 5116 5118 5450 5124
4 3981 3587 5334 3982
4 3420 3710 3424 3711
4 3816 4834 5801 3817
4 4834 3817 1298 5801
4 4834 1289 4134 4552
4 3477 2349 3481 3210
4 2420 4731 3551 5398
4 4834 3817 1297 1298
4 4696 5548 3293 5412
4 3299 5511 5548 3293
4 3349 5548 1314 1315
4 5268 4573 5267 1838
4 5268 3909 4573 6277
4 1837 5268 4573 6277
4 3931 4964 3929 5680
4 5268 5266 1846 4088
4 3909 5268 5263 5266
4 4088 5263 4089 6092
4 2485 5652 3483 2519
4 5652 3483 874 5658
4 5652 3606 5658 875
4 2745 2747 2488 2980
4 5652 3483 2519 4291
4 2486 5658 5652 3606
4 5652 866 5305 4700
4 2486 3670 5652 4700
4 5632 3378 4778 3123
4 5632 4917 4785 5621
4 5618 4765 4645 5632
4 5632 3378 3381 4778
4 5632 3381 5618 4778
4 5632 3580 4917 3123
4 3790 3346 3097 3098
4 3346 3794 4866 3213
4 4344 3875 3876 4903
4 4921 3885 3348 5301
4 2975 2490 2805 2977
4 2743 3272 901 902
4 5019 5488 4994 4126
4 5019 5485 3205 4168
4 3162 3163 3902 4903
4 3464 5042 5047 5043
4 5587 4821 4255 4774
4 5042 5394 4863 4247
4 6299 4910 4918 4911
4 4378 5043 5712 3948
4 3924 3923 3918 3922
4 3923 6186 5756 5755
4 3923 3921 6165 3924
4 2298 2220 2387 2296
4 4312 4903 3875 4344
4 3641 5685 3017 3640
4 3126 3466 3550 5150
4 3919 4601 4602 3550
4 3230 5150 3923 3921
4 3623 2621 4577 4984
4 3644 3867 2621 3645
4 3867 2621 5682 6330
4 3867 5682 4341 6330
4 3280 6158 3644 3645
4 4560 5539 5803 3835
4 6215 6192 5803 6191
4 3495 2820 5829 4825
4 6193 5803 6191 3835
4 6204 5802 5745 4351
4 5803 6204 1514 5058
4 5803 6204 5802 1513
4 5919 5846 5072 5154
4 5919 5072 5188 5154
4 3994 5919 3836 3993
4 3519 5207 5223 4701
4 2208 2209 2214 3143
4 4727 4156 5890 4505
4 4385 5857 5889 5406
4 5857 5406 1072 5889
4 4385 5203 5983 5936
4 5888 1081 5235 5936
4 5888 5203 5936 5983
4 5888 1090 5203 5983
4 5888 5912 1090 5983
4 5842 5888 5235 5936
4 4798 6182 5128 5934
4 6018 4123 4798 3880
4 6181 5793 4283 5942
4 2553 3167 2552 2548
4 5129 4798 5132 5133
4 4924 2660 3913 5840
4 5845 5203 1090 5983
4 5845 5912 5983 1090
4 3913 3916 4924 5840
4 5845 5203 5983 3915
4 2877 2776 4589 2875
4 4591 6337 3856 3067
4 2552 5793 4591 6129
4 4591 6243 5793 6337
4 4591 6129 6243 5627
4 3072 3734 2342 2370
4 2835 3520 3496 3501
4 5980 2134 6290 5208
4 5980 2134 5208 2143
4 5891 5980 6290 5208
4 5980 2143 5208 6244
4 5980 5946 6247 2142
4 5980 5892 6244 5208
4 3902 3163 4906 4903
4 6308 5811 5950 5875
4 3252 5811 5875 3743
4 3247 3249 4849 2883
4 3249 3252 3251 6308
4 5440 4569 5762 6053
4 4449 5510 6053 5762
4 2646 2645 4410 2642
4 5440 4569 6053 4424
4 4569 3972 3976 4424
4 4569 4424 288 6053
4 3139 4215 3756 6344
4 3702 3985 5480 3987
4 3985 6256 3986 3983
4 3822 3985 3986 3983
4 2640 4003 4006 3788
4 3985 3986 4299 3987
4 4741 5581 4779 1891
4 4741 6127 4779 4280
4 4741 6127 4280 1882
4 4741 6089 1882 4280
4 2766 4955 4062 2902
4 4741 4740 4336 4742
4 6345 6340 5554 3027
4 6345 5526 6072 3029
4 6345 6340 5544 5554
4 6345 5544 5251 6274
4 5516 2510 5517 4711
4 2510 2500 3700 3540
4 2510 4682 4680 4711
4 2510 3540 6343 5517
4 5580 2510 4682 4272
4 3700 6343 3540 3920
4 3920 3700 3384 3540
4 2498 6084 3540 3539
4 2496 3384 4207 3700
4 3078 3828 2354 3292
4 3110 3764 2322 3766
4 2640 2647 4078 3139
4 2325 3174 2330 2321
4 3406 3098 3123 3099
4 3049 3100 3286 3285
4 5519 4595 4593 4788
4 5519 4594 4595 4761
4 5519 6326 4761 3949
4 3042 3044 5519 4330
4 3265 3268 2268 3266
4 3038 3093 5518 3094
4 5518 3949 5519 4783
4 6193 5008 1495 6295
4 6193 5803 1504 1505
4 6193 6295 4251 6342
4 5430 4713 3155 5757
4 2966 2948 2946 2911
4 3422 4005 4003 3421
4 5430 1028 4450 5429
4 4444 4446 4445 5805
4 4445 4515 5120 5483
4 5483 5784 5482 4516
4 3030 6104 6070 6340
4 3713 4516 4515 5483
4 2607 2610 2608 2598
4 2840 3229 3457 4988
4 4520 5482 6311 5784
4 4520 4516 2524 5482
4 2649 6043 5687 5686
4 5865 6030 5812 5838
4 5865 6030 5814 5812
4 5865 5813 5228 6316
4 5867 5865 5868 6316
4 5865 5821 5866 6030
4 5471 5865 6030 5814
4 4438 6021 5471 5228
4 5088 3239 6216 5228
4 3693 3140 2481 3691
4 3142 3140 2481 3693
4 3337 5070 3338 2953
4 2984 4198 6105 4196
4 3140 3694 2775 2481
4 2984 4196 6105 4887
4 3303 2704 2732 3621
4 2952 3338 2989 4198
4 6324 6013 6332 4396
4 6324 5349 4501 6012
4 6324 6332 5243 5546
4 6324 6332 6013 5236
4 6324 6332 5348 4396
4 2957 6231 6233 5881
4 6233 5208 2134 2143
4 6181 6233 6244 5974
4 6181 4001 6244 6153
4 2483 2216 2481 3142
4 4388 4393 6293 4389
4 6293 4393 5927 5878
4 4386 5927 6293 4393
4 4528 5297 4530 5913
4 2649 5686 3139 6043
4 4003 5016 3756 4006
4 4412 2642 5595 5261
4 3888 3954 3456 4037
4 2403 3888 3453 3912
4 3525 3524 4836 3527
4 3025 3372 3022 3026
4 3423 2648 2646 3013
4 2402 2398 2400 2970
4 3423 2648 3138 2649
4 5669 4624 4723 5781
4 3712 3473 5337 4511
4 2649 3139 3756 6043
4 4624 4625 5293 4554
4 5286 4624 3895 4538
4 5687 4044 4400 6336
4 4624 5293 4538 4554
4 3710 5119 5124 5123
4 3710 5436 5123 5337
4 3711 3758 3753 5116
4 3394 3399 3391 3703
4 3712 5116 3753 5327
4 5119 3940 3398 3710
4 5123 5118 5419 5422
4 4020 4282 4063 4124
4 2902 4306 3685 4957
4 3680 3689 3278 3682
4 3934 3257 2918 5721
4 5273 3736 4192 2862
4 4192 4775 5530 2865
4 3615 4354 4020 4029
4 3688 3293 3278 5189
4 5511 5189 3293 5184
4 3680 3611 3685 2901
4 4696 5189 3278 3293
4 3964 3549 3548 4799
4 4327 3083 2312 4995
4 3288 3322 4643 3289
4 2309 4644 2311 4720
4 4592 3079 4644 4720
4 3650 4592 4643 3408
4 4643 4718 3289 6284
4 4643 3408 6284 3405
4 3591 5479 6171 6098
4 5900 6031 5479 6032
4 3622 3591 3796 6098
4 3869 6189 6269 5986
4 5900 6032 3658 6031
4 3490 5883 6031 5882
4 5883 3489 3591 5777
4 6137 2741 6122 4969
4 6137 6122 2741 6146
4 6137 2741 2734 6139
4 6137 2731 3933 2734
4 4082 3358 3852 3357
4 4083 6162 3358 4084
4 4082 4083 4086 4092
4 6212 2522 2044 2043
4 6212 2522 6102 2044
4 6212 6312 2522 2043
4 6212 2522 5582 6102
4 6212 2523 2053 5582
4 2987 5923 4049 6320
4 3302 2458 3303 3305
4 3928 4764 2987 4049
4 3444 5338 4756 4781
4 5644 4390 5643 5406
4 6189 5362 4292 4298
4 5406 4384 5857 5645
4 2788 4393 4389 4703
4 2445 2443 2669 3978
4 6189 5363 6269 5991
4 2443 2442 3978 2445
4 6022 3978 2668 2442
4 2442 2445 6249 3978
4 2444 2442 5191 4357
4 2442 1655 4357 3917
4 6022 2442 2668 5791
4 5099 6333 5101 5742
4 4059 5099 4950 5742
4 2619 3498 4059 4058
4 6101 4058 5216 4061
4 5099 4061 5216 5215
4 5724 5100 4950 6101
4 6070 2647 2642 2645
4 6070 5261 5509 4631
4 2645 5687 6335 4044
4 2645 5687 4410 6335
4 2646 2645 5687 4410
4 2645 4044 6335 3826
4 2645 3333 2642 4632
4 4892 3510 3318 5796
4 3875 3361 3496 3871
4 3354 3496 3361 3852
4 3214 2227 3014 3122
4 2365 3125 6014 3133
4 3884 5590 5798 5589
4 5209 6233 2135 5881
4 3622 3489 3593 3591
4 3902 4906 3163 3362
4 3163 4906 4903 6014
4 5933 5934 4039 5128
4 5933 5214 6280 5128
4 5933 6280 4360 6327
4 5219 5933 6325 6280
4 5933 6280 5214 4360
4 3958 2948 5106 5063
4 2619 3497 3500 2626
4 2961 2962 3197 5358
4 3535 2963 3977 5144
4 3198 3958 5063 2948
4 3134 2961 3950 3309
4 2964 6233 5209 5881
4 4789 5656 876 3606
4 3296 5664 3866 3606
4 4789 876 5656 877
4 4789 3296 6208 5677
4 5664 4789 3296 6208
4 3606 4789 3296 5664
4 5877 4611 3737 4675
4 3737 4721 4693 5877
4 5286 3326 3895 4352
4 5877 4694 3966 5781
4 5877 4723 3965 4721
4 5877 4721 4693 4722
4 3898 5660 4331 6144
4 3898 5660 1424 6157
4 3898 4881 3559 4328
4 4805 3897 3896 6136
4 6125 4881 1414 4838
4 2580 2986 4764 5220
4 4807 5918 4484 4808
4 4091 2840 2837 3812
4 3493 3571 3335 3981
4 2834 2842 2833 2837
4 3852 4809 3843 4092
4 4807 5453 2026 5452
4 4070 3499 4092 4810
4 4070 3499 6102 3498
4 2528 2299 2530 2529
4 2945 2939 2941 4560
4 4070 2834 4092 4809
4 3012 4929 3703 3937
4 4015 5505 4509 5503
4 3012 3936 3708 3937
4 4642 4509 6040 4463
4 3012 3226 3011 4929
4 4599 4463 4509 3037
4 3037 4134 4509 4599
4 5365 5416 5765 3527
4 3708 4011 3936 4012
4 6339 3944 5028 4364
4 6339 4364 5028 4363
4 4130 6081 4510 6261
4 6339 3944 5465 5491
4 3742 3227 3011 4430
4 4688 5870 5558 5559
4 5558 3537 3539 5559
4 5559 5870 6179 5508
4 5559 4236 3540 3539
4 5559 6179 5532 5508
4 6084 5870 5559 3537
4 5556 4493 5378 4268
4 5556 2544 4493 4268
4 4294 4492 5378 4493
4 5262 5557 5556 4391
4 3611 3685 2901 2903
4 2344 2294 2350 2293
4 2293 3891 3803 3804
4 2601 3565 3574 3564
4 3723 4947 3804 3803
4 2348 3892 2943 3244
4 2700 2833 2939 3092
4 2291 3804 2293 3522
4 4000 4200 4701 5160
4 4930 3804 2291 3522
4 4930 3522 549 541
4 5930 6308 5951 5943
4 5930 4074 1159 4076
4 5930 5951 6308 4847
4 5209 2134 6290 2125
4 4077 4076 5393 4847
4 5930 6308 5392 4847
4 4385 4727 5406 5889
4 3646 3280 6158 3644
4 3215 5798 3584 5589
4 3137 4506 3135 3836
4 3318 5796 3510 4948
4 3641 5798 3884 5590
4 3715 3721 3858 3854
4 3998 5222 3854 3223
4 3998 3365 2887 3417
4 3853 3067 4591 3856
4 3446 3417 3418 3223
4 3446 3368 3998 2689
4 5222 3721 5973 3448
4 4464 3166 3514 6153
4 2249 3445 2876 3616
4 5332 3571 5346 3807
4 3476 4244 3571 3834
4 4250 5619 4240 3571
4 2636 5332 3493 3810
4 3571 4920 5346 6196
4 3725 4045 3724 5068
4 4727 5890 4156 4155
4 3413 2694 3414 3192
4 3250 4021 5875 4581
4 3413 3725 3411 4022
4 3725 3724 4045 5963
4 5065 3411 5066 3744
4 2746 2747 2745 3866
4 2746 3867 3865 3866
4 901 900 3271 3270
4 3272 3646 2743 3647
4 5674 884 5658 5664
4 5420 3883 3491 3501
4 5420 3501 3842 3883
4 4809 5482 4092 3499
4 4809 3842 3843 5483
4 3852 3843 4809 3501
4 4809 4092 5482 5784
4 4809 5482 5483 5784
4 4537 4621 4415 4724
4 4414 4537 4415 4724
4 3083 2356 2357 2358
4 2406 3370 2768 2765
4 407 4695 4790 4537
4 4537 407 4695 4621
4 4537 4542 4543 4790
4 3195 5847 2370 5749
4 3195 2370 3722 5749
4 3769 4527 3671 3070
4 3064 2342 3071 5627
4 4505 3676 4727 4156
4 4003 4006 4005 5016
4 4004 3788 767 4006
4 3422 4323 4005 3421
4 4004 767 3788 766
4 3392 5031 1711 5029
4 3399 3392 5029 5031
4 3392 5031 1712 1711
4 3392 1712 5031 5461
4 4632 5595 3333 2642
4 3840 4150 4155 5469
4 3909 3482 3544 4412
4 3334 2722 3544 3333
4 2760 3384 3382 3180
4 4412 6277 5261 5595
4 2398 2686 2972 3013
4 4016 4448 3953 3955
4 728 4017 737 4018
4 2591 5178 3583 4689
4 3952 4016 4018 3953
4 4608 6169 4225 4226
4 4608 6169 370 4225
4 4608 370 6169 4653
4 3967 4630 4608 4653
4 4609 360 4608 4604
4 3967 4608 4630 5291
4 4607 5298 2679 4610
4 2676 2682 2697 4023
4 4777 5823 5291 5822
4 3895 4606 4538 5293
4 4029 2471 4025 2380
4 3328 5823 5822 3907
4 3967 6169 4992 5055
4 3328 4990 5823 3907
4 4696 5548 5412 1324
4 4696 3293 5511 5189
4 4696 5511 5548 1323
4 4696 5529 1324 5412
4 4696 3682 1333 5530
4 4719 6284 4718 424
4 4719 6284 424 433
4 4719 4542 424 4718
4 4719 4542 4181 425
4 4719 4181 3289 3405
4 2950 2954 2951 2952
4 4719 4181 3405 4180
4 4264 4593 4595 4788
4 4592 4644 4264 4720
4 4264 442 4644 5703
4 4264 5703 4643 3408
4 4264 3408 4592 4593
4 441 4644 4720 4264
4 2333 2433 3927 3765
4 4639 4337 5521 5639
4 2746 3867 2745 3644
4 3078 4718 4643 2311
4 6125 4639 5520 3896
4 3764 4639 5639 4337
4 6125 1404 4337 1405
4 3279 3282 3121 5978
4 2853 3283 3466 4598
4 3466 5150 6186 3550
4 2665 5197 5195 2878
4 3121 5668 4739 4738
4 3121 4739 3122 4738
4 3550 3466 3283 6186
4 3279 2854 3283 4602
4 3279 4602 6288 3773
4 5683 6346 4884 4812
4 5683 6346 4813 3638
4 5683 4885 5684 4843
4 5683 4880 5684 4885
4 2981 2990 5143 2985
4 5143 5057 5252 6225
4 5143 2985 2990 5057
4 5143 6076 2985 5057
4 2477 5004 3694 6076
4 5837 6212 6102 2044
4 6158 6230 5978 5709
4 5704 3867 6158 4341
4 5837 3487 2044 6102
4 6158 3867 3645 5682
4 5682 4341 6230 6158
4 3646 3644 6158 3867
4 6158 5978 4737 5709
4 2948 2949 5818 3208
4 5818 2948 2947 2949
4 3203 2948 3208 2949
4 5837 5582 6212 2053
4 2948 2912 5148 2894
4 5837 6206 5582 2053
4 2948 3198 3208 5063
4 2911 2912 2948 2894
4 3207 3205 2949 3208
4 3197 5092 5006 3198
4 2912 3203 2963 2911
4 5027 992 1000 991
4 5027 5780 5779 4922
4 5027 6155 999 5809
4 5027 6155 990 999
4 5027 990 5779 991
4 3242 4948 3932 3510
4 2838 2623 3092 2832
4 3520 3491 3883 3501
4 3479 2610 3575 2347
4 3231 3902 3163 3362
4 5585 5155 5242 5752
4 5585 2542 5344 5751
4 2541 4295 5585 2542
4 3017 3016 5710 5727
4 4295 5288 5344 2540
4 3692 5905 5592 4008
4 4057 5623 5592 5593
4 3747 4008 5592 5620
4 5591 4826 5593 5138
4 5591 3142 4826 3863
4 3564 6155 5809 3574
4 3156 3564 4450 4122
4 4450 3564 5810 4122
4 2591 2242 3583 5178
4 3158 3155 3157 5757
4 3157 2893 5757 4713
4 3564 5027 6155 4922
4 3564 4446 5027 4922
4 3162 2367 4903 4310
4 5025 5210 659 5239
4 5025 658 5210 5023
4 5025 4422 5239 5026
4 5025 5172 658 5023
4 5040 5173 648 5172
4 5295 667 5258 5321
4 5295 5322 5321 5344
4 5295 676 5322 5344
4 5295 5288 676 5344
4 5295 5585 5751 5155
4 5295 5155 5751 5254
4 4031 4402 5515 4411
4 4032 5108 3952 4031
4 5415 4407 283 4402
4 5415 4402 4031 4407
4 5415 4032 4459 292
4 3551 5399 5498 3552
4 4309 4307 4343 4308
4 5119 5437 5123 3398
4 3300 3299 5609 3350
4 2997 3524 3662 3598
4 5399 4834 1288 4134
4 5558 3539 4684 4688
4 5558 3537 4587 4622
4 5558 5870 4539 3537
4 4892 4307 5702 5046
4 5262 4391 6092 5557
4 6087 6067 4267 6091
4 5609 6087 3350 6090
4 5045 4307 5514 5046
4 4614 6004 4674 4673
4 4614 3845 3605 4228
4 3847 4614 3605 4030
4 2676 2471 2380 4023
4 4612 4613 4228 4559
4 3846 4277 4286 4019
4 3101 3301 3104 3959
4 3106 3104 4700 3960
4 3106 3047 3105 4700
4 3101 3301 6285 3233
4 4635 3101 3233 3102
4 3040 3408 5703 4593
4 3040 4176 3094 3402
4 2543 3257 2620 3256
4 3650 3408 3040 4593
4 3320 3040 3408 5703
4 3317 5046 5514 4309
4 3320 3040 2448 3408
4 3557 3558 2431 3661
4 3082 3040 4174 3039
4 3272 910 3271 901
4 3272 4736 3273 910
4 3270 4866 3273 3647
4 3383 2592 2671 6250
4 3383 6250 1220 2592
4 3383 3222 2198 3052
4 2198 2190 2189 3222
4 5150 3923 3921 6338
4 3230 2852 3550 2364
4 3126 5150 5152 3466
4 5150 5152 3466 5698
4 5150 3923 6338 6173
4 6302 6032 3659 5501
4 4577 5729 3624 4984
4 5729 6148 1945 5672
4 5689 3624 5729 5730
4 5689 1936 5729 1935
4 6183 3803 3891 4975
4 3891 3803 4987 4975
4 3893 6184 3892 3665
4 3891 3804 4987 3803
4 3804 2293 3522 3523
4 5539 5803 5058 6204
4 6302 6031 5711 6187
4 3091 4786 4560 5539
4 3994 5364 3996 5836
4 4502 5836 3996 4505
4 3994 5919 4506 3836
4 3674 3836 3994 4506
4 3994 3993 5364 5843
4 2468 2234 2589 2588
4 5531 4396 5904 3760
4 5842 4505 5235 5192
4 5842 5192 4507 4505
4 5888 5842 5893 3760
4 4469 4501 5218 4506
4 4726 3760 3151 5842
4 2286 2660 3913 4924
4 3191 4927 5495 5975
4 3762 5845 1099 5912
4 4143 5328 1107 1116
4 3191 5975 1116 1125
4 3194 3192 3191 5282
4 3413 3706 4022 4021
4 6181 6231 6182 6321
4 6302 3659 6031 3810
4 5974 6233 2957 6181
4 6181 5793 5942 6061
4 4697 4798 6061 6182
4 3694 6076 5004 3614
4 2480 2479 5003 4233
4 2479 2956 5003 2584
4 5002 5004 3614 2482
4 5002 4233 5004 2482
4 2583 2956 2479 2584
4 2477 5143 6076 2985
4 2477 6225 5004 6076
4 2477 2986 5220 5143
4 2986 5143 2987 4764
4 4186 695 5371 4127
4 4186 5391 686 4127
4 5350 4186 4848 5306
4 4186 5391 5306 687
4 4186 5391 3253 2882
4 4021 5960 5404 1144
4 4021 4022 5959 5960
4 4021 5959 4022 5875
4 3250 4022 3743 5875
4 6302 5633 6187 5688
4 4021 5282 1135 5283
4 3248 3250 4022 3743
4 2477 2479 2482 5004
4 5206 4530 5891 4386
4 3671 3071 5891 5892
4 6302 6187 5633 6168
4 4000 4001 5208 5974
4 4000 4200 5160 2125
4 4847 3251 5951 6308
4 4849 3253 5306 4848
4 2639 3659 5347 3810
4 2929 4848 3251 4257
4 2929 3251 3252 3443
4 3249 4846 5938 4849
4 4848 5306 4186 3253
4 4848 4186 5371 3253
4 4848 3253 5371 5998
4 6087 3350 6090 6068
4 6087 6068 6090 4131
4 6087 4131 6067 6068
4 3553 6087 5262 6091
4 3659 5347 3810 6168
4 6087 5185 5571 6037
4 6087 5185 5262 5556
4 5533 4571 6270 6056
4 5533 4571 3554 6270
4 5533 3752 3750 3554
4 4541 6056 6273 5533
4 5533 4571 5534 4132
4 4640 3081 3765 3076
4 3084 3109 5625 5396
4 3109 5396 1388 5625
4 3109 5396 1387 1388
4 3378 3381 3406 3484
4 4218 5274 1343 4675
4 4218 4675 1343 4694
4 4218 5529 4694 1334
4 4218 1333 3682 5530
4 3680 3689 3681 3683
4 4218 1333 5529 1334
4 6059 2921 2919 5525
4 5273 3681 4218 5274
4 5808 6170 6033 5536
4 3490 5883 3489 3658
4 2827 4795 5808 5055
4 2824 3966 3965 5877
4 4795 5808 5055 6170
4 3699 3700 6001 5516
4 2497 3699 5584 5516
4 2511 4895 3990 2512
4 4375 4378 4377 3948
4 4376 4330 5519 6326
4 4375 3464 5043 3004
4 3004 5587 5043 3946
4 3946 5712 5043 3948
4 6326 5519 4376 3949
4 6302 6168 3810 6187
4 5047 5043 4863 5712
4 5883 5900 5479 3591
4 5047 5394 4889 4863
4 6183 3803 6197 6303
4 6183 3803 4975 6197
4 6183 6197 4968 6303
4 4959 522 4941 523
4 3242 3509 3510 3932
4 4959 4987 4947 4953
4 4959 4947 4941 3118
4 3930 4964 533 3707
4 3931 5680 4126 4964
4 3341 3343 3340 5920
4 3343 3886 5922 5864
4 3341 5136 3344 4348
4 3659 6032 3653 5501
4 2593 3236 2463 2987
4 5864 4689 4284 3343
4 4150 4151 5856 5896
4 4150 5856 5841 5839
4 4150 5643 4155 5839
4 4150 4155 5890 5839
4 5538 4155 4150 5643
4 4150 5469 5890 4155
4 3140 2775 3694 2984
4 2217 2216 2481 2483
4 3144 4825 3863 3864
4 2619 4053 4058 4059
4 5592 6218 5212 5591
4 3860 3863 3859 3864
4 4009 4007 3748 4008
4 2783 2984 4007 2953
4 3692 4007 2984 4886
4 4007 4196 2984 4887
4 2604 2336 2337 2599
4 5922 3237 6226 5140
4 5922 6064 6240 6226
4 5922 5921 5140 5872
4 5767 5921 5922 5864
4 5921 5140 6234 5922
4 6235 5921 5140 6234
4 5920 3886 5922 3343
4 3542 3276 5751 3113
4 2778 4295 4292 5242
4 3618 5456 3237 2973
4 4138 4471 4486 4478
4 4138 4486 4471 4485
4 2402 3467 2395 3258
4 4677 4478 4477 6078
4 4136 4436 4137 6179
4 4409 4495 5822 5290
4 3549 3965 4650 4799
4 3326 5413 4352 5781
4 3549 4650 5055 4565
4 3549 4040 4041 4042
4 3545 4571 3554 3353
4 2722 3350 3545 3353
4 3545 3554 4787 3333
4 3545 3554 6270 4787
4 3545 6270 4571 4572
4 3300 3553 3544 3545
4 3553 3546 3545 4572
4 3389 5123 3400 3398
4 5123 3400 3398 5437
4 5119 4314 5123 5437
4 5119 5123 3710 3398
4 5119 5116 5124 5118
4 5443 5419 5123 5118
4 5124 5448 4447 4406
4 5443 5436 5422 5421
4 5443 5436 5421 5902
4 3754 3420 3753 3712
4 3659 5501 3653 6161
4 5273 3684 2901 3278
4 3611 4493 4294 5185
4 3612 2902 4306 3611
4 4354 4027 5264 4029
4 4020 4063 4282 4145
4 4327 3043 3075 3076
4 2333 3174 3927 2433
4 3110 3084 5396 3109
4 3320 2448 3040 3082
4 3042 5519 3044 4594
4 6302 6187 3810 6031
CELL_TYPES 31305
10
10
10
10
10
10
10
10
10
10
10
10
10
10
10
10
10
10
10
10
10
10
10
10
10
10
10
10
10
10
10
10
10
10
10
10
10
10
10
10
10
10
10
10
10
10
10
10
10
10
10
10
10
10
10
10
10
10
10
10
10
10
10
10
10
10
10
10
10
10
10
10
10
10
10
10
10
10
10
10
10
10
10
10
10
10
10
10
10
10
10
10
10
10
10
10
10
10
10
10
10
10
10
10
10
10
10
10
10
10
10
10
10
10
10
10
10
10
10
10
10
10
10
10
10
10
10
10
10
10
10
10
10
10
10
10
10
10
10
10
10
10
10
10
10
10
10
10
10
10
10
10
10
10
10
10
10
10
10
10
10
10
10
10
10
10
10
10
10
10
10
10
10
10
10
10
10
10
10
10
10
10
10
10
10
10
10
10
10
10
10
10
10
10
10
10
10
10
10
10
10
10
10
10
10
10
10
10
10
10
10
10
10
10
10
10
10
10
10
10
10
10
10
10
10
10
10
10
10
10
10
10
10
10
10
10
10
10
10
10
10
10
10
10
10
10
10
10
10
10
10
10
10
10
10
10
10
10
10
10
10
10
10
10
10
10
10
10
10
10
10
10
10
10
10
10
10
10
10
10
10
10
10
10
10
10
10
10
10
10
10
10
10
10
10
10
10
10
10
10
10
10
10
10
10
10
10
10
10
10
10
10
10
10
10
10
10
10
10
10
10
10
10
10
10
10
10
10
10
10
10
10
10
10
10
10
10
10
10
10
10
10
10
10
10
10
10
10
10
10
10
10
10
10
10
10
10
10
10
10
10
10
10
10
10
10
10
10
10
10
10
10
10
10
10
10
10
10
10
10
10
10
10
10
10
10
10
10
10
10
10
10
10
10
10
10
10
10
10
10
10
10
10
10
10
10
10
10
10
10
10
10
10
10
10
10
10
10
10
10
10
10
10
10
10
10
10
10
10
10
10
10
10
10
10
10
10
10
10
10
10
10
10
10
10
10
10
10
10
10
10
10
10
10
10
10
10
10
10
10
10
10
10
10
10
10
10
10
10
10
10
10
10
10
10
10
10
10
10
10
10
10
10
10
10
10
10
10
10
10
10
10
10
10
10
10
10
10
10
10
10
10
10
10
10
10
10
10
10
10
10
10
10
10
10
10
10
10
10
10
10
10
10
10
10
10
10
10
10
10
10
10
10
10
10
10
10
10
10
10
10
10
10
10
10
10
10
10
10
10
10
10
10
10
10
10
10
10
10
10
10
10
10
10
10
10
10
10
10
10
10
10
10
10
10
10
10
10
10
10
10
10
10
10
10
10
10
10
10
10
10
10
10
10
10
10
10
10
10
10
10
10
10
10
10
10
10
10
10
10
10
10
10
10
10
10
10
10
10
10
10
10
10
10
10
10
10
10
10
10
10
10
10
10
10
10
10
10
10
10
10
10
10
10
10
10
10
10
10
10
10
10
10
10
10
10
10
10
10
10
10
10
10
10
10
10
10
10
10
10
10
10
10
10
10
10
10
10
10
10
10
10
10
10
10
10
10
10
10
10
10
10
10
10
10
10
10
10
10
10
10
10
10
10
10
10
10
10
10
10
10
10
10
10
10
10
10
10
10
10
10
10
10
10
10
10
10
10
10
10
10
10
10
10
10
10
10
10
10
10
10
10
10
10
10
10
10
10
10
10
10
10
10
10
10
10
10
10
10
10
10
10
10
10
10
10
10
10
10
10
10
10
10
10
10
10
10
10
10
10
10
10
10
10
10
10
10
10
10
10
10
10
10
10
10
10
10
10
10
10
10
10
10
10
10
10
10
10
10
10
10
10
10
10
10
10
10
10
10
10
10
10
10
10
10
10
10
10
10
10
10
10
10
10
10
10
10
10
10
10
10
10
10
10
10
10
10
10
10
10
10
10
10
10
10
10
10
10
10
10
10
10
10
10
10
10
10
10
10
10
10
10
10
10
10
10
10
10
10
10
10
10
10
10
10
10
10
10
10
10
10
10
10
10
10
10
10
10
10
10
10
10
10
10
10
10
10
10
10
10
10
10
10
10
10
10
10
10
10
10
10
10
10
10
10
10
10
10
10
10
10
10
10
10
10
10
10
10
10
10
10
10
10
10
10
10
10
10
10
10
10
10
10
10
10
10
10
10
10
10
10
10
10
10
10
10
10
10
10
10
10
10
10
10
10
10
10
10
10
10
10
10
10
10
10
10
10
10
10
10
10
10
10
10
10
10
10
10
10
10
10
10
10
10
10
10
10
10
10
10
10
10
10
10
10
10
10
10
10
10
10
10
10
10
10
10
10
10
10
10
10
10
10
10
10
10
10
10
10
10
10
10
10
10
10
10
10
10
10
10
10
10
10
10
10
10
10
10
10
10
10
10
10
10
10
10
10
10
10
10
10
10
10
10
10
10
10
10
10
10
10
10
10
10
10
10
10
10
10
10
10
10
10
10
10
10
10
10
10
10
10
10
10
10
10
10
10
10
10
10
10
10
10
10
10
10
10
10
10
10
10
10
10
10
10
10
10
10
10
10
10
10
10
10
10
10
10
10
10
10
10
10
10
10
10
10
10
10
10
10
10
10
10
10
10
10
10
10
10
10
10
10
10
10
10
10
10
10
10
10
10
10
10
10
10
10
10
10
10
10
10
10
10
10
10
10
10
10
10
10
10
10
10
10
10
10
10
10
10
10
10
10
10
10
10
10
10
10
10
10
10
10
10
10
10
10
10
10
10
10
10
10
10
10
10
10
10
10
10
10
10
10
10
10
10
10
10
10
10
10
10
10
10
10
10
10
10
10
10
10
10
10
10
10
10
10
10
10
10
10
10
10
10
10
10
10
10
10
10
10
10
10
10
10
10
10
10
10
10
10
10
10
10
10
10
10
10
10
10
10
10
10
10
10
10
10
10
10
10
10
10
10
10
10
10
10
10
10
10
10
10
10
10
10
10
10
10
10
10
10
10
10
10
10
10
10
10
10
10
10
10
10
10
10
10
10
10
10
10
10
10
10
10
10
10
10
10
10
10
10
10
10
10
10
10
10
10
10
10
10
10
10
10
10
10
10
10
10
10
10
10
10
10
10
10
10
10
10
10
10
10
10
10
10
10
10
10
10
10
10
10
10
10
10
10
10
10
10
10
10
10
10
10
10
10
10
10
10
10
10
10
10
10
10
10
10
10
10
10
10
10
10
10
10
10
10
10
10
10
10
10
10
10
10
10
10
10
10
10
10
10
10
10
10
10
10
10
10
10
10
10
10
10
10
10
10
10
10
10
10
10
10
10
10
10
10
10
10
10
10
10
10
10
10
10
10
10
10
10
10
10
10
10
10
10
10
10
10
10
10
10
10
10
10
10
10
10
10
10
10
10
10
10
10
10
10
10
10
10
10
10
10
10
10
10
10
10
10
10
10
10
10
10
10
10
10
10
10
10
10
10
10
10
10
10
10
10
10
10
10
10
10
10
10
10
10
10
10
10
10
10
10
10
10
10
10
10
10
10
10
10
10
10
10
10
10
10
10
10
10
10
10
10
10
10
10
10
10
10
10
10
10
10
10
10
10
10
10
10
10
10
10
10
10
10
10
10
10
10
10
10
10
10
10
10
10
10
10
10
10
10
10
10
10
10
10
10
10
10
10
10
10
10
10
10
10
10
10
10
10
10
10
10
10
10
10
10
10
10
10
10
10
10
10
10
10
10
10
10
10
10
10
10
10
10
10
10
10
10
10
10
10
10
10
10
10
10
10
10
10
10
10
10
10
10
10
10
10
10
10
10
10
10
10
10
10
10
10
10
10
10
10
10
10
10
10
10
10
10
10
10
10
10
10
10
10
10
10
10
10
10
10
10
10
10
10
10
10
10
10
10
10
10
10
10
10
10
10
10
10
10
10
10
10
10
10
10
10
10
10
10
10
10
10
10
10
10
10
10
10
10
10
10
10
10
10
10
10
10
10
10
10
10
10
10
10
10
10
10
10
10
10
10
10
10
10
10
10
10
10
10
10
10
10
10
10
10
10
10
10
10
10
10
10
10
10
10
10
10
10
10
10
10
10
10
10
10
10
10
10
10
10
10
10
10
10
10
10
10
10
10
10
10
10
10
10
10
10
10
10
10
10
10
10
10
10
10
10
10
10
10
10
10
10
10
10
10
10
10
10
10
10
10
10
10
10
10
10
10
10
10
10
10
10
10
10
10
10
10
10
10
10
10
10
10
10
10
10
10
10
10
10
10
10
10
10
10
10
10
10
10
10
10
10
10
10
10
10
10
10
10
10
10
10
10
10
10
10
10
10
10
10
10
10
10
10
10
10
10
10
10
10
10
10
10
10
10
10
10
10
10
10
10
10
10
10
10
10
10
10
10
10
10
10
10
10
10
10
10
10
10
10
10
10
10
10
10
10
10
10
10
10
10
10
10
10
10
10
10
10
10
10
10
10
10
10
10
10
10
10
10
10
10
10
10
10
10
10
10
10
10
10
10
10
10
10
10
10
10
10
10
10
10
10
10
10
10
10
10
10
10
10
10
10
10
10
10
10
10
10
10
10
10
10
10
10
10
10
10
10
10
10
10
10
10
10
10
10
10
10
10
10
10
10
10
10
10
10
10
10
10
10
10
10
10
10
10
10
10
10
10
10
10
10
10
10
10
10
10
10
10
10
10
10
10
10
10
10
10
10
10
10
10
10
10
10
10
10
10
10
10
10
10
10
10
10
10
10
10
10
10
10
10
10
10
10
10
10
10
10
10
10
10
10
10
10
10
10
10
10
10
10
10
10
10
10
10
10
10
10
10
10
10
10
10
10
10
10
10
10
10
10
10
10
10
10
10
10
10
10
10
10
10
10
10
10
10
10
10
10
10
10
10
10
10
10
10
10
10
10
10
10
10
10
10
10
10
10
10
10
10
10
10
10
10
10
10
10
10
10
10
10
10
10
10
10
10
10
10
10
10
10
10
10
10
10
10
10
10
10
10
10
10
10
10
10
10
10
10
10
10
10
10
10
10
10
10
10
10
10
10
10
10
10
10
10
10
10
10
10
10
10
10
10
10
10
10
10
10
10
10
10
10
10
10
10
10
10
10
10
10
10
10
10
10
10
10
10
10
10
10
10
10
10
10
10
10
10
10
10
10
10
10
10
10
10
10
10
10
10
10
10
10
10
10
10
10
10
10
10
10
10
10
10
10
10
10
10
10
10
10
10
10
10
10
10
10
10
10
10
10
10
10
10
10
10
10
10
10
10
10
10
10
10
10
10
10
10
10
10
10
10
10
10
10
10
10
10
10
10
10
10
10
10
10
10
10
10
10
10
10
10
10
10
10
10
10
10
10
10
10
10
10
10
10
10
10
10
10
10
10
10
10
10
10
10
10
10
10
10
10
10
10
10
10
10
10
10
10
10
10
10
10
10
10
10
10
10
10
10
10
10
10
10
10
10
10
10
10
10
10
10
10
10
10
10
10
10
10
10
10
10
10
10
10
10
10
10
10
10
10
10
10
10
10
10
10
10
10
10
10
10
10
10
10
10
10
10
10
10
10
10
10
10
10
10
10
10
10
10
10
10
10
10
10
10
10
10
10
10
10
10
10
10
10
10
10
10
10
10
10
10
10
10
10
10
10
10
10
10
10
10
10
10
10
10
10
10
10
10
10
10
10
10
10
10
10
10
10
10
10
10
10
10
10
10
10
10
10
10
10
10
10
10
10
10
10
10
10
10
10
10
10
10
10
10
10
10
10
10
10
10
10
10
10
10
10
10
10
10
10
10
10
10
10
10
10
10
10
10
10
10
10
10
10
10
10
10
10
10
10
10
10
10
10
10
10
10
10
10
10
10
10
10
10
10
10
10
10
10
10
10
10
10
10
10
10
10
10
10
10
10
10
10
10
10
10
10
10
10
10
10
10
10
10
10
10
10
10
10
10
10
10
10
10
10
10
10
10
10
10
10
10
10
10
10
10
10
10
10
10
10
10
10
10
10
10
10
10
10
10
10
10
10
10
10
10
10
10
10
10
10
10
10
10
10
10
10
10
10
10
10
10
10
10
10
10
10
10
10
10
10
10
10
10
10
10
10
10
10
10
10
10
10
10
10
10
10
10
10
10
10
10
10
10
10
10
10
10
10
10
10
10
10
10
10
10
10
10
10
10
10
10
10
10
10
10
10
10
10
10
10
10
10
10
10
10
10
10
10
10
10
10
10
10
10
10
10
10
10
10
10
10
10
10
10
10
10
10
10
10
10
10
10
10
10
10
10
10
10
10
10
10
10
10
10
10
10
10
10
10
10
10
10
10
10
10
10
10
10
10
10
10
10
10
10
10
10
10
10
10
10
10
10
10
10
10
10
10
10
10
10
10
10
10
10
10
10
10
10
10
10
10
10
10
10
10
10
10
10
10
10
10
10
10
10
10
10
10
10
10
10
10
10
10
10
10
10
10
10
10
10
10
10
10
10
10
10
10
10
10
10
10
10
10
10
10
10
10
10
10
10
10
10
10
10
10
10
10
10
10
10
10
10
10
10
10
10
10
10
10
10
10
10
10
10
10
10
10
10
10
10
10
10
10
10
10
10
10
10
10
10
10
10
10
10
10
10
10
10
10
10
10
10
10
10
10
10
10
10
10
10
10
10
10
10
10
10
10
10
10
10
10
10
10
10
10
10
10
10
10
10
10
10
10
10
10
10
10
10
10
10
10
10
10
10
10
10
10
10
10
10
10
10
10
10
10
10
10
10
10
10
10
10
10
10
10
10
10
10
10
10
10
10
10
10
10
10
10
10
10
10
10
10
10
10
10
10
10
10
10
10
10
10
10
10
10
10
10
10
10
10
10
10
10
10
10
10
10
10
10
10
10
10
10
10
10
10
10
10
10
10
10
10
10
10
10
10
10
10
10
10
10
10
10
10
10
10
10
10
10
10
10
10
10
10
10
10
10
10
10
10
10
10
10
10
10
10
10
10
10
10
10
10
10
10
10
10
10
10
10
10
10
10
10
10
10
10
10
10
10
10
10
10
10
10
10
10
10
10
10
10
10
10
10
10
10
10
10
10
10
10
10
10
10
10
10
10
10
10
10
10
10
10
10
10
10
10
10
10
10
10
10
10
10
10
10
10
10
10
10
10
10
10
10
10
10
10
10
10
10
10
10
10
10
10
10
10
10
10
10
10
10
10
10
10
10
10
10
10
10
10
10
10
10
10
10
10
10
10
10
10
10
10
10
10
10
10
10
10
10
10
10
10
10
10
10
10
10
10
10
10
10
10
10
10
10
10
10
10
10
10
10
10
10
10
10
10
10
10
10
10
10
10
10
10
10
10
10
10
10
10
10
10
10
10
10
10
10
10
10
10
10
10
10
10
10
10
10
10
10
10
10
10
10
10
10
10
10
10
10
10
10
10
10
10
10
10
10
10
10
10
10
10
10
10
10
10
10
10
10
10
10
10
10
10
10
10
10
10
10
10
10
10
10
10
10
10
10
10
10
10
10
10
10
10
10
10
10
10
10
10
10
10
10
10
10
10
10
10
10
10
10
10
10
10
10
10
10
10
10
10
10
10
10
10
10
10
10
10
10
10
10
10
10
10
10
10
10
10
10
10
10
10
10
10
10
10
10
10
10
10
10
10
10
10
10
10
10
10
10
10
10
10
10
10
10
10
10
10
10
10
10
10
10
10
10
10
10
10
10
10
10
10
10
10
10
10
10
10
10
10
10
10
10
10
10
10
10
10
10
10
10
10
10
10
10
10
10
10
10
10
10
10
10
10
10
10
10
10
10
10
10
10
10
10
10
10
10
10
10
10
10
10
10
10
10
10
10
10
10
10
10
10
10
10
10
10
10
10
10
10
10
10
10
10
10
10
10
10
10
10
10
10
10
10
10
10
10
10
10
10
10
10
10
10
10
10
10
10
10
10
10
10
10
10
10
10
10
10
10
10
10
10
10
10
10
10
10
10
10
10
10
10
10
10
10
10
10
10
10
10
10
10
10
10
10
10
10
10
10
10
10
10
10
10
10
10
10
10
10
10
10
10
10
10
10
10
10
10
10
10
10
10
10
10
10
10
10
10
10
10
10
10
10
10
10
10
10
10
10
10
10
10
10
10
10
10
10
10
10
10
10
10
10
10
10
10
10
10
10
10
10
10
10
10
10
10
10
10
10
10
10
10
10
10
10
10
10
10
10
10
10
10
10
10
10
10
10
10
10
10
10
10
10
10
10
10
10
10
10
10
10
10
10
10
10
10
10
10
10
10
10
10
10
10
10
10
10
10
10
10
10
10
10
10
10
10
10
10
10
10
10
10
10
10
10
10
10
10
10
10
10
10
10
10
10
10
10
10
10
10
10
10
10
10
10
10
10
10
10
10
10
10
10
10
10
10
10
10
10
10
10
10
10
10
10
10
10
10
10
10
10
10
10
10
10
10
10
10
10
10
10
10
10
10
10
10
10
10
10
10
10
10
10
10
10
10
10
10
10
10
10
10
10
10
10
10
10
10
10
10
10
10
10
10
10
10
10
10
10
10
10
10
10
10
10
10
10
10
10
10
10
10
10
10
10
10
10
10
10
10
10
10
10
10
10
10
10
10
10
10
10
10
10
10
10
10
10
10
10
10
10
10
10
10
10
10
10
10
10
10
10
10
10
10
10
10
10
10
10
10
10
10
10
10
10
10
10
10
10
10
10
10
10
10
10
10
10
10
10
10
10
10
10
10
10
10
10
10
10
10
10
10
10
10
10
10
10
10
10
10
10
10
10
10
10
10
10
10
10
10
10
10
10
10
10
10
10
10
10
10
10
10
10
10
10
10
10
10
10
10
10
10
10
10
10
10
10
10
10
10
10
10
10
10
10
10
10
10
10
10
10
10
10
10
10
10
10
10
10
10
10
10
10
10
10
10
10
10
10
10
10
10
10
10
10
10
10
10
10
10
10
10
10
10
10
10
10
10
10
10
10
10
10
10
10
10
10
10
10
10
10
10
10
10
10
10
10
10
10
10
10
10
10
10
10
10
10
10
10
10
10
10
10
10
10
10
10
10
10
10
10
10
10
10
10
10
10
10
10
10
10
10
10
10
10
10
10
10
10
10
10
10
10
10
10
10
10
10
10
10
10
10
10
10
10
10
10
10
10
10
10
10
10
10
10
10
10
10
10
10
10
10
10
10
10
10
10
10
10
10
10
10
10
10
10
10
10
10
10
10
10
10
10
10
10
10
10
10
10
10
10
10
10
10
10
10
10
10
10
10
10
10
10
10
10
10
10
10
10
10
10
10
10
10
10
10
10
10
10
10
10
10
10
10
10
10
10
10
10
10
10
10
10
10
10
10
10
10
10
10
10
10
10
10
10
10
10
10
10
10
10
10
10
10
10
10
10
10
10
10
10
10
10
10
10
10
10
10
10
10
10
10
10
10
10
10
10
10
10
10
10
10
10
10
10
10
10
10
10
10
10
10
10
10
10
10
10
10
10
10
10
10
10
10
10
10
10
10
10
10
10
10
10
10
10
10
10
10
10
10
10
10
10
10
10
10
10
10
10
10
10
10
10
10
10
10
10
10
10
10
10
10
10
10
10
10
10
10
10
10
10
10
10
10
10
10
10
10
10
10
10
10
10
10
10
10
10
10
10
10
10
10
10
10
10
10
10
10
10
10
10
10
10
10
10
10
10
10
10
10
10
10
10
10
10
10
10
10
10
10
10
10
10
10
10
10
10
10
10
10
10
10
10
10
10
10
10
10
10
10
10
10
10
10
10
10
10
10
10
10
10
10
10
10
10
10
10
10
10
10
10
10
10
10
10
10
10
10
10
10
10
10
10
10
10
10
10
10
10
10
10
10
10
10
10
10
10
10
10
10
10
10
10
10
10
10
10
10
10
10
10
10
10
10
10
10
10
10
10
10
10
10
10
10
10
10
10
10
10
10
10
10
10
10
10
10
10
10
10
10
10
10
10
10
10
10
10
10
10
10
10
10
10
10
10
10
10
10
10
10
10
10
10
10
10
10
10
10
10
10
10
10
10
10
10
10
10
10
10
10
10
10
10
10
10
10
10
10
10
10
10
10
10
10
10
10
10
10
10
10
10
10
10
10
10
10
10
10
10
10
10
10
10
10
10
10
10
10
10
10
10
10
10
10
10
10
10
10
10
10
10
10
10
10
10
10
10
10
10
10
10
10
10
10
10
10
10
10
10
10
10
10
10
10
10
10
10
10
10
10
10
10
10
10
10
10
10
10
10
10
10
10
10
10
10
10
10
10
10
10
10
10
10
10
10
10
10
10
10
10
10
10
10
10
10
10
10
10
10
10
10
10
10
10
10
10
10
10
10
10
10
10
10
10
10
10
10
10
10
10
10
10
10
10
10
10
10
10
10
10
10
10
10
10
10
10
10
10
10
10
10
10
10
10
10
10
10
10
10
10
10
10
10
10
10
10
10
10
10
10
10
10
10
10
10
10
10
10
10
10
10
10
10
10
10
10
10
10
10
10
10
10
10
10
10
10
10
10
10
10
10
10
10
10
10
10
10
10
10
10
10
10
10
10
10
10
10
10
10
10
10
10
10
10
10
10
10
10
10
10
10
10
10
10
10
10
10
10
10
10
10
10
10
10
10
10
10
10
10
10
10
10
10
10
10
10
10
10
10
10
10
10
10
10
10
10
10
10
10
10
10
10
10
10
10
10
10
10
10
10
10
10
10
10
10
10
10
10
10
10
10
10
10
10
10
10
10
10
10
10
10
10
10
10
10
10
10
10
10
10
10
10
10
10
10
10
10
10
10
10
10
10
10
10
10
10
10
10
10
10
10
10
10
10
10
10
10
10
10
10
10
10
10
10
10
10
10
10
10
10
10
10
10
10
10
10
10
10
10
10
10
10
10
10
10
10
10
10
10
10
10
10
10
10
10
10
10
10
10
10
10
10
10
10
10
10
10
10
10
10
10
10
10
10
10
10
10
10
10
10
10
10
10
10
10
10
10
10
10
10
10
10
10
10
10
10
10
10
10
10
10
10
10
10
10
10
10
10
10
10
10
10
10
10
10
10
10
10
10
10
10
10
10
10
10
10
10
10
10
10
10
10
10
10
10
10
10
10
10
10
10
10
10
10
10
10
10
10
10
10
10
10
10
10
10
10
10
10
10
10
10
10
10
10
10
10
10
10
10
10
10
10
10
10
10
10
10
10
10
10
10
10
10
10
10
10
10
10
10
10
10
10
10
10
10
10
10
10
10
10
10
10
10
10
10
10
10
10
10
10
10
10
10
10
10
10
10
10
10
10
10
10
10
10
10
10
10
10
10
10
10
10
10
10
10
10
10
10
10
10
10
10
10
10
10
10
10
10
10
10
10
10
10
10
10
10
10
10
10
10
10
10
10
10
10
10
10
10
10
10
10
10
10
10
10
10
10
10
10
10
10
10
10
10
10
10
10
10
10
10
10
10
10
10
10
10
10
10
10
10
10
10
10
10
10
10
10
10
10
10
10
10
10
10
10
10
10
10
10
10
10
10
10
10
10
10
10
10
10
10
10
10
10
10
10
10
10
10
10
10
10
10
10
10
10
10
10
10
10
10
10
10
10
10
10
10
10
10
10
10
10
10
10
10
10
10
10
10
10
10
10
10
10
10
10
10
10
10
10
10
10
10
10
10
10
10
10
10
10
10
10
10
10
10
10
10
10
10
10
10
10
10
10
10
10
10
10
10
10
10
10
10
10
10
10
10
10
10
10
10
10
10
10
10
10
10
10
10
10
10
10
10
10
10
10
10
10
10
10
10
10
10
10
10
10
10
10
10
10
10
10
10
10
10
10
10
10
10
10
10
10
10
10
10
10
10
10
10
10
10
10
10
10
10
10
10
10
10
10
10
10
10
10
10
10
10
10
10
10
10
10
10
10
10
10
10
10
10
10
10
10
10
10
10
10
10
10
10
10
10
10
10
10
10
10
10
10
10
10
10
10
10
10
10
10
10
10
10
10
10
10
10
10
10
10
10
10
10
10
10
10
10
10
10
10
10
10
10
10
10
10
10
10
10
10
10
10
10
10
10
10
10
10
10
10
10
10
10
10
10
10
10
10
10
10
10
10
10
10
10
10
10
10
10
10
10
10
10
10
10
10
10
10
10
10
10
10
10
10
10
10
10
10
10
10
10
10
10
10
10
10
10
10
10
10
10
10
10
10
10
10
10
10
10
10
10
10
10
10
10
10
10
10
10
10
10
10
10
10
10
10
10
10
10
10
10
10
10
10
10
10
10
10
10
10
10
10
10
10
10
10
10
10
10
10
10
10
10
10
10
10
10
10
10
10
10
10
10
10
10
10
10
10
10
10
10
10
10
10
10
10
10
10
10
10
10
10
10
10
10
10
10
10
10
10
10
10
10
10
10
10
10
10
10
10
10
10
10
10
10
10
10
10
10
10
10
10
10
10
10
10
10
10
10
10
10
10
10
10
10
10
10
10
10
10
10
10
10
10
10
10
10
10
10
10
10
10
10
10
10
10
10
10
10
10
10
10
10
10
10
10
10
10
10
10
10
10
10
10
10
10
10
10
10
10
10
10
10
10
10
10
10
10
10
10
10
10
10
10
10
10
10
10
10
10
10
10
10
10
10
10
10
10
10
10
10
10
10
10
10
10
10
10
10
10
10
10
10
10
10
10
10
10
10
10
10
10
10
10
10
10
10
10
10
10
10
10
10
10
10
10
10
10
10
10
10
10
10
10
10
10
10
10
10
10
10
10
10
10
10
10
10
10
10
10
10
10
10
10
10
10
10
10
10
10
10
10
10
10
10
10
10
10
10
10
10
10
10
10
10
10
10
10
10
10
10
10
10
10
10
10
10
10
10
10
10
10
10
10
10
10
10
10
10
10
10
10
10
10
10
10
10
10
10
10
10
10
10
10
10
10
10
10
10
10
10
10
10
10
10
10
10
10
10
10
10
10
10
10
10
10
10
10
10
10
10
10
10
10
10
10
10
10
10
10
10
10
10
10
10
10
10
10
10
10
10
10
10
10
10
10
10
10
10
10
10
10
10
10
10
10
10
10
10
10
10
10
10
10
10
10
10
10
10
10
10
10
10
10
10
10
10
10
10
10
10
10
10
10
10
10
10
10
10
10
10
10
10
10
10
10
10
10
10
10
10
10
10
10
10
10
10
10
10
10
10
10
10
10
10
10
10
10
10
10
10
10
10
10
10
10
10
10
10
10
10
10
10
10
10
10
10
10
10
10
10
10
10
10
10
10
10
10
10
10
10
10
10
10
10
10
10
10
10
10
10
10
10
10
10
10
10
10
10
10
10
10
10
10
10
10
10
10
10
10
10
10
10
10
10
10
10
10
10
10
10
10
10
10
10
10
10
10
10
10
10
10
10
10
10
10
10
10
10
10
10
10
10
10
10
10
10
10
10
10
10
10
10
10
10
10
10
10
10
10
10
10
10
10
10
10
10
10
10
10
10
10
10
10
10
10
10
10
10
10
10
10
10
10
10
10
10
10
10
10
10
10
10
10
10
10
10
10
10
10
10
10
10
10
10
10
10
10
10
10
10
10
10
10
10
10
10
10
10
10
10
10
10
10
10
10
10
10
10
10
10
10
10
10
10
10
10
10
10
10
10
10
10
10
10
10
10
10
10
10
10
10
10
10
10
10
10
10
10
10
10
10
10
10
10
10
10
10
10
10
10
10
10
10
10
10
10
10
10
10
10
10
10
10
10
10
10
10
10
10
10
10
10
10
10
10
10
10
10
10
10
10
10
10
10
10
10
10
10
10
10
10
10
10
10
10
10
10
10
10
10
10
10
10
10
10
10
10
10
10
10
10
10
10
10
10
10
10
10
10
10
10
10
10
10
10
10
10
10
10
10
10
10
10
10
10
10
10
10
10
10
10
10
10
10
10
10
10
10
10
10
10
10
10
10
10
10
10
10
10
10
10
10
10
10
10
10
10
10
10
10
10
10
10
10
10
10
10
10
10
10
10
10
10
10
10
10
10
10
10
10
10
10
10
10
10
10
10
10
10
10
10
10
10
10
10
10
10
10
10
10
10
10
10
10
10
10
10
10
10
10
10
10
10
10
10
10
10
10
10
10
10
10
10
10
10
10
10
10
10
10
10
10
10
10
10
10
10
10
10
10
10
10
10
10
10
10
10
10
10
10
10
10
10
10
10
10
10
10
10
10
10
10
10
10
10
10
10
10
10
10
10
10
10
10
10
10
10
10
10
10
10
10
10
10
10
10
10
10
10
10
10
10
10
10
10
10
10
10
10
10
10
10
10
10
10
10
10
10
10
10
10
10
10
10
10
10
10
10
10
10
10
10
10
10
10
10
10
10
10
10
10
10
10
10
10
10
10
10
10
10
10
10
10
10
10
10
10
10
10
10
10
10
10
10
10
10
10
10
10
10
10
10
10
10
10
10
10
10
10
10
10
10
10
10
10
10
10
10
10
10
10
10
10
10
10
10
10
10
10
10
10
10
10
10
10
10
10
10
10
10
10
10
10
10
10
10
10
10
10
10
10
10
10
10
10
10
10
10
10
10
10
10
10
10
10
10
10
10
10
10
10
10
10
10
10
10
10
10
10
10
10
10
10
10
10
10
10
10
10
10
10
10
10
10
10
10
10
10
10
10
10
10
10
10
10
10
10
10
10
10
10
10
10
10
10
10
10
10
10
10
10
10
10
10
10
10
10
10
10
10
10
10
10
10
10
10
10
10
10
10
10
10
10
10
10
10
10
10
10
10
10
10
10
10
10
10
10
10
10
10
10
10
10
10
10
10
10
10
10
10
10
10
10
10
10
10
10
10
10
10
10
10
10
10
10
10
10
10
10
10
10
10
10
10
10
10
10
10
10
10
10
10
10
10
10
10
10
10
10
10
10
10
10
10
10
10
10
10
10
10
10
10
10
10
10
10
10
10
10
10
10
10
10
10
10
10
10
10
10
10
10
10
10
10
10
10
10
10
10
10
10
10
10
10
10
10
10
10
10
10
10
10
10
10
10
10
10
10
10
10
10
10
10
10
10
10
10
10
10
10
10
10
10
10
10
10
10
10
10
10
10
10
10
10
10
10
10
10
10
10
10
10
10
10
10
10
10
10
10
10
10
10
10
10
10
10
10
10
10
10
10
10
10
10
10
10
10
10
10
10
10
10
10
10
10
10
10
10
10
10
10
10
10
10
10
10
10
10
10
10
10
10
10
10
10
10
10
10
10
10
10
10
10
10
10
10
10
10
10
10
10
10
10
10
10
10
10
10
10
10
10
10
10
10
10
10
10
10
10
10
10
10
10
10
10
10
10
10
10
10
10
10
10
10
10
10
10
10
10
10
10
10
10
10
10
10
10
10
10
10
10
10
10
10
10
10
10
10
10
10
10
10
10
10
10
10
10
10
10
10
10
10
10
10
10
10
10
10
10
10
10
10
10
10
10
10
10
10
10
10
10
10
10
10
10
10
10
10
10
10
10
10
10
10
10
10
10
10
10
10
10
10
10
10
10
10
10
10
10
10
10
10
10
10
10
10
10
10
10
10
10
10
10
10
10
10
10
10
10
10
10
10
10
10
10
10
10
10
10
10
10
10
10
10
10
10
10
10
10
10
10
10
10
10
10
10
10
10
10
10
10
10
10
10
10
10
10
10
10
10
10
10
10
10
10
10
10
10
10
10
10
10
10
10
10
10
10
10
10
10
10
10
10
10
10
10
10
10
10
10
10
10
10
10
10
10
10
10
10
10
10
10
10
10
10
10
10
10
10
10
10
10
10
10
10
10
10
10
10
10
10
10
10
10
10
10
10
10
10
10
10
10
10
10
10
10
10
10
10
10
10
10
10
10
10
10
10
10
10
10
10
10
10
10
10
10
10
10
10
10
10
10
10
10
10
10
10
10
10
10
10
10
10
10
10
10
10
10
10
10
10
10
10
10
10
10
10
10
10
10
10
10
10
10
10
10
10
10
10
10
10
10
10
10
10
10
10
10
10
10
10
10
10
10
10
10
10
10
10
10
10
10
10
10
10
10
10
10
10
10
10
10
10
10
10
10
10
10
10
10
10
10
10
10
10
10
10
10
10
10
10
10
10
10
10
10
10
10
10
10
10
10
10
10
10
10
10
10
10
10
10
10
10
10
10
10
10
10
10
10
10
10
10
10
10
10
10
10
10
10
10
10
10
10
10
10
10
10
10
10
10
10
10
10
10
10
10
10
10
10
10
10
10
10
10
10
10
10
10
10
10
10
10
10
10
10
10
10
10
10
10
10
10
10
10
10
10
10
10
10
10
10
10
10
10
10
10
10
10
10
10
10
10
10
10
10
10
10
10
10
10
10
10
10
10
10
10
10
10
10
10
10
10
10
10
10
10
10
10
10
10
10
10
10
10
10
10
10
10
10
10
10
10
10
10
10
10
10
10
10
10
10
10
10
10
10
10
10
10
10
10
10
10
10
10
10
10
10
10
10
10
10
10
10
10
10
10
10
10
10
10
10
10
10
10
10
10
10
10
10
10
10
10
10
10
10
10
10
10
10
10
10
10
10
10
10
10
10
10
10
10
10
10
10
10
10
10
10
10
10
10
10
10
10
10
10
10
10
10
10
10
10
10
10
10
10
10
10
10
10
10
10
10
10
10
10
10
10
10
10
10
10
10
10
10
10
10
10
10
10
10
10
10
10
10
10
10
10
10
10
10
10
10
10
10
10
10
10
10
10
10
10
10
10
10
10
10
10
10
10
10
10
10
10
10
10
10
10
10
10
10
10
10
10
10
10
10
10
10
10
10
10
10
10
10
10
10
10
10
10
10
10
10
10
10
10
10
10
10
10
10
10
10
10
10
10
10
10
10
10
10
10
10
10
10
10
10
10
10
10
10
10
10
10
10
10
10
10
10
10
10
10
10
10
10
10
10
10
10
10
10
10
10
10
10
10
10
10
10
10
10
10
10
10
10
10
10
10
10
10
10
10
10
10
10
10
10
10
10
10
10
10
10
10
10
10
10
10
10
10
10
10
10
10
10
10
10
10
10
10
10
10
10
10
10
10
10
10
10
10
10
10
10
10
10
10
10
10
10
10
10
10
10
10
10
10
10
10
10
10
10
10
10
10
10
10
10
10
10
10
10
10
10
10
10
10
10
10
10
10
10
10
10
10
10
10
10
10
10
10
10
10
10
10
10
10
10
10
10
10
10
10
10
10
10
10
10
10
10
10
10
10
10
10
10
10
10
10
10
10
10
10
10
10
10
10
10
10
10
10
10
10
10
10
10
10
10
10
10
10
10
10
10
10
10
10
10
10
10
10
10
10
10
10
10
10
10
10
10
10
10
10
10
10
10
10
10
10
10
10
10
10
10
10
10
10
10
10
10
10
10
10
10
10
10
10
10
10
10
10
10
10
10
10
10
10
10
10
10
10
10
10
10
10
10
10
10
10
10
10
10
10
10
10
10
10
10
10
10
10
10
10
10
10
10
10
10
10
10
10
10
10
10
10
10
10
10
10
10
10
10
10
10
10
10
10
10
10
10
10
10
10
10
10
10
10
10
10
10
10
10
10
10
10
10
10
10
10
10
10
10
10
10
10
10
10
10
10
10
10
10
10
10
10
10
10
10
10
10
10
10
10
10
10
10
10
10
10
10
10
10
10
10
10
10
10
10
10
10
10
10
10
10
10
10
10
10
10
10
10
10
10
10
10
10
10
10
10
10
10
10
10
10
10
10
10
10
10
10
10
10
10
10
10
10
10
10
10
10
10
10
10
10
10
10
10
10
10
10
10
10
10
10
10
10
10
10
10
10
10
10
10
10
10
10
10
10
10
10
10
10
10
10
10
10
10
10
10
10
10
10
10
10
10
10
10
10
10
10
10
10
10
10
10
10
10
10
10
10
10
10
10
10
10
10
10
10
10
10
10
10
10
10
10
10
10
10
10
10
10
10
10
10
10
10
10
10
10
10
10
10
10
10
10
10
10
10
10
10
10
10
10
10
10
10
10
10
10
10
10
10
10
10
10
10
10
10
10
10
10
10
10
10
10
10
10
10
10
10
10
10
10
10
10
10
10
10
10
10
10
10
10
10
10
10
10
10
10
10
10
10
10
10
10
10
10
10
10
10
10
10
10
10
10
10
10
10
10
10
10
10
10
10
10
10
10
10
10
10
10
10
10
10
10
10
10
10
10
10
10
10
10
10
10
10
10
10
10
10
10
10
10
10
10
10
10
10
10
10
10
10
10
10
10
10
10
10
10
10
10
10
10
10
10
10
10
10
10
10
10
10
10
10
10
10
10
10
10
10
10
10
10
10
10
10
10
10
10
10
10
10
10
10
10
10
10
10
10
10
10
10
10
10
10
10
10
10
10
10
10
10
10
10
10
10
10
10
10
10
10
10
10
10
10
10
10
10
10
10
10
10
10
10
10
10
10
10
10
10
10
10
10
10
10
10
10
10
10
10
10
10
10
10
10
10
10
10
10
10
10
10
10
10
10
10
10
10
10
10
10
10
10
10
10
10
10
10
10
10
10
10
10
10
10
10
10
10
10
10
10
10
10
10
10
10
10
10
10
10
10
10
10
10
10
10
10
10
10
10
10
10
10
10
10
10
10
10
10
10
10
10
10
10
10
10
10
10
10
10
10
10
10
10
10
10
10
10
10
10
10
10
10
10
10
10
10
10
10
10
10
10
10
10
10
10
10
10
10
10
10
10
10
10
10
10
10
10
10
10
10
10
10
10
10
10
10
10
10
10
10
10
10
10
10
10
10
10
10
10
10
10
10
10
10
10
10
10
10
10
10
10
10
10
10
10
10
10
10
10
10
10
10
10
10
10
10
10
10
10
10
10
10
10
10
10
10
10
10
10
10
10
10
10
10
10
10
10
10
10
10
10
10
10
10
10
10
10
10
10
10
10
10
10
10
10
10
10
10
10
10
10
10
10
10
10
10
10
10
10
10
10
10
10
10
10
10
10
10
10
10
10
10
10
10
10
10
10
10
10
10
10
10
10
10
10
10
10
10
10
10
10
10
10
10
10
10
10
10
10
10
10
10
10
10
10
10
10
10
10
10
10
10
10
10
10
10
10
10
10
10
10
10
10
10
10
10
10
10
10
10
10
10
10
10
10
10
10
10
10
10
10
10
10
10
10
10
10
10
10
10
10
10
10
10
10
10
10
10
10
10
10
10
10
10
10
10
10
10
10
10
10
10
10
10
10
10
10
10
10
10
10
10
10
10
10
10
10
10
10
10
10
10
10
10
10
10
10
10
10
10
10
10
10
10
10
10
10
10
10
10
10
10
10
10
10
10
10
10
10
10
10
10
10
10
10
10
10
10
10
10
10
10
10
10
10
10
10
10
10
10
10
10
10
10
10
10
10
10
10
10
10
10
10
10
10
10
10
10
10
10
10
10
10
10
10
10
10
10
10
10
10
10
10
10
10
10
10
10
10
10
10
10
10
10
10
10
10
10
10
10
10
10
10
10
10
10
10
10
10
10
10
10
10
10
10
10
10
10
10
10
10
10
10
10
10
10
10
10
10
10
10
10
10
10
10
10
10
10
10
10
10
10
10
10
10
10
10
10
10
10
10
10
10
10
10
10
10
10
10
10
10
10
10
10
10
10
10
10
10
10
10
10
10
10
10
10
10
10
10
10
10
10
10
10
10
10
10
10
10
10
10
10
10
10
10
10
10
10
10
10
10
10
10
10
10
10
10
10
10
10
10
10
10
10
10
10
10
10
10
10
10
10
10
10
10
10
10
10
10
10
10
10
10
10
10
10
10
10
10
10
10
10
10
10
10
10
10
10
10
10
10
10
10
10
10
10
10
10
10
10
10
10
10
10
10
10
10
10
10
10
10
10
10
10
10
10
10
10
10
10
10
10
10
10
10
10
10
10
10
10
10
10
10
10
10
10
10
10
10
10
10
10
10
10
10
10
10
10
10
10
10
10
10
10
10
10
10
10
10
10
10
10
10
10
10
10
10
10
10
10
10
10
10
10
10
10
10
10
10
10
10
10
10
10
10
10
10
10
10
10
10
10
10
10
10
10
10
10
10
10
10
10
10
10
10
10
10
10
10
10
10
10
10
10
10
10
10
10
10
10
10
10
10
10
10
10
10
10
10
10
10
10
10
10
10
10
10
10
10
10
10
10
10
10
10
10
10
10
10
10
10
10
10
10
10
10
10
10
10
10
10
10
10
10
10
10
10
10
10
10
10
10
10
10
10
10
10
10
10
10
10
10
10
10
10
10
10
10
10
10
10
10
10
10
10
10
10
10
10
10
10
10
10
10
10
10
10
10
10
10
10
10
10
10
10
10
10
10
10
10
10
10
10
10
10
10
10
10
10
10
10
10
10
10
10
10
10
10
10
10
10
10
10
10
10
10
10
10
10
10
10
10
10
10
10
10
10
10
10
10
10
10
10
10
10
10
10
10
10
10
10
10
10
10
10
10
10
10
10
10
10
10
10
10
10
10
10
10
10
10
10
10
10
10
10
10
10
10
10
10
10
10
10
10
10
10
10
10
10
10
10
10
10
10
10
10
10
10
10
10
10
10
10
10
10
10
10
10
10
10
10
10
10
10
10
10
10
10
10
10
10
10
10
10
10
10
10
10
10
10
10
10
10
10
10
10
10
10
10
10
10
10
10
10
10
10
10
10
10
10
10
10
10
10
10
10
10
10
10
10
10
10
10
10
10
10
10
10
10
10
10
10
10
10
10
10
10
10
10
10
10
10
10
10
10
10
10
10
10
10
10
10
10
10
10
10
10
10
10
10
10
10
10
10
10
10
10
10
10
10
10
10
10
10
10
10
10
10
10
10
10
10
10
10
10
10
10
10
10
10
10
10
10
10
10
10
10
10
10
10
10
10
10
10
10
10
10
10
10
10
10
10
10
10
10
10
10
10
10
10
10
10
10
10
10
10
10
10
10
10
10
10
10
10
10
10
10
10
10
10
10
10
10
10
10
10
10
10
10
10
10
10
10
10
10
10
10
10
10
10
10
10
10
10
10
10
10
10
10
10
10
10
10
10
10
10
10
10
10
10
10
10
10
10
10
10
10
10
10
10
10
10
10
10
10
10
10
10
10
10
10
10
10
10
10
10
10
10
10
10
10
10
10
10
10
10
10
10
10
10
10
10
10
10
10
10
10
10
10
10
10
10
10
10
10
10
10
10
10
10
10
10
10
10
10
10
10
10
10
10
10
10
10
10
10
10
10
10
10
10
10
10
10
10
10
10
10
10
10
10
10
10
10
10
10
10
10
10
10
10
10
10
10
10
10
10
10
10
10
10
10
10
10
10
10
10
10
10
10
10
10
10
10
10
10
10
10
10
10
10
10
10
10
10
10
10
10
10
10
10
10
10
10
10
10
10
10
10
10
10
10
10
10
10
10
10
10
10
10
10
10
10
10
10
10
10
10
10
10
10
10
10
10
10
10
10
10
10
10
10
10
10
10
10
10
10
10
10
10
10
10
10
10
10
10
10
10
10
10
10
10
10
10
10
10
10
10
10
10
10
10
10
10
10
10
10
10
10
10
10
10
10
10
10
10
10
10
10
10
10
10
10
10
10
10
10
10
10
10
10
10
10
10
10
10
10
10
10
10
10
10
10
10
10
10
10
10
10
10
10
10
10
10
10
10
10
10
10
10
10
10
10
10
10
10
10
10
10
10
10
10
10
10
10
10
10
10
10
10
10
10
10
10
10
10
10
10
10
10
10
10
10
10
10
10
10
10
10
10
10
10
10
10
10
10
10
10
10
10
10
10
10
10
10
10
10
10
10
10
10
10
10
10
10
10
10
10
10
10
10
10
10
10
10
10
10
10
10
10
10
10
10
10
10
10
10
10
10
10
10
10
10
10
10
10
10
10
10
10
10
10
10
10
10
10
10
10
10
10
10
10
10
10
10
10
10
10
10
10
10
10
10
10
10
10
10
10
10
10
10
10
10
10
10
10
10
10
10
10
10
10
10
10
10
10
10
10
10
10
10
10
10
10
10
10
10
10
10
10
10
10
10
10
10
10
10
10
10
10
10
10
10
10
10
10
10
10
10
10
10
10
10
10
10
10
10
10
10
10
10
10
10
10
10
10
10
10
10
10
10
10
10
10
10
10
10
10
10
10
10
10
10
10
10
10
10
10
10
10
10
10
10
10
10
10
10
10
10
10
10
10
10
10
10
10
10
10
10
10
10
10
10
10
10
10
10
10
10
10
10
10
10
10
10
10
10
10
10
10
10
10
10
10
10
10
10
10
10
10
10
10
10
10
10
10
10
10
10
10
10
10
10
10
10
10
10
10
10
10
10
10
10
10
10
10
10
10
10
10
10
10
10
10
10
10
10
10
10
10
10
10
10
10
10
10
10
10
10
10
10
10
10
10
10
10
10
10
10
10
10
10
10
10
10
10
10
10
10
10
10
10
10
10
10
10
10
10
10
10
10
10
10
10
10
10
10
10
10
10
10
10
10
10
10
10
10
10
10
10
10
10
10
10
10
10
10
10
10
10
10
10
10
10
10
10
10
10
10
10
10
10
10
10
10
10
10
10
10
10
10
10
10
10
10
10
10
10
10
10
10
10
10
10
10
10
10
10
10
10
10
10
10
10
10
10
10
10
10
10
10
10
10
10
10
10
10
10
10
10
10
10
10
10
10
10
10
10
10
10
10
10
10
10
10
10
10
10
10
10
10
10
10
10
10
10
10
10
10
10
10
10
10
10
10
10
10
10
10
10
10
10
10
10
10
10
10
10
10
10
10
10
10
10
10
10
10
10
10
10
10
10
10
10
10
10
10
10
10
10
10
10
10
10
10
10
10
10
10
10
10
10
10
10
10
10
10
10
10
10
10
10
10
10
10
10
10
10
10
10
10
10
10
10
10
10
10
10
10
10
10
10
10
10
10
10
10
10
10
10
10
10
10
10
10
10
10
10
10
10
10
10
10
10
10
10
10
10
10
10
10
10
10
10
10
10
10
10
10
10
10
10
10
10
10
10
10
10
10
10
10
10
10
10
10
10
10
10
10
10
10
10
10
10
10
10
10
10
10
10
10
10
10
10
10
10
10
10
10
10
10
10
10
10
10
10
10
10
10
10
10
10
10
10
10
10
10
10
10
10
10
10
10
10
10
10
10
10
10
10
10
10
10
10
10
10
10
10
10
10
10
10
10
10
10
10
10
10
10
10
10
10
10
10
10
10
10
10
10
10
10
10
10
10
10
10
10
10
10
10
10
10
10
10
10
10
10
10
10
10
10
10
10
10
10
10
10
10
10
10
10
10
10
10
10
10
10
10
10
10
10
10
10
10
10
10
10
10
10
10
10
10
10
10
10
10
10
10
10
10
10
10
10
10
10
10
10
10
10
10
10
10
10
10
10
10
10
10
10
10
10
10
10
10
10
10
10
10
10
10
10
10
10
10
10
10
10
10
10
10
10
10
10
10
10
10
10
10
10
10
10
10
10
10
10
10
10
10
10
10
10
10
10
10
10
10
10
10
10
10
10
10
10
10
10
10
10
10
10
10
10
10
10
10
10
10
10
10
10
10
10
10
10
10
10
10
10
10
10
10
10
10
10
10
10
10
10
10
10
10
10
10
10
10
10
10
10
10
10
10
10
10
10
10
10
10
10
10
10
10
10
10
10
10
10
10
10
10
10
10
10
10
10
10
10
10
10
10
10
10
10
10
10
10
10
10
10
10
10
10
10
10
10
10
10
10
10
10
10
10
10
10
10
10
10
10
10
10
10
10
10
10
10
10
10
10
10
10
10
10
10
10
10
10
10
10
10
10
10
10
10
10
10
10
10
10
10
10
10
10
10
10
10
10
10
10
10
10
10
10
10
10
10
10
10
10
10
10
10
10
10
10
10
10
10
10
10
10
10
10
10
10
10
10
10
10
10
10
10
10
10
10
10
10
10
10
10
10
10
10
10
10
10
10
10
10
10
10
10
10
10
10
10
10
10
10
10
10
10
10
10
10
10
10
10
10
10
10
10
10
10
10
10
10
10
10
10
10
10
10
10
10
10
10
10
10
10
10
10
10
10
10
10
10
10
10
10
10
10
10
10
10
10
10
10
10
10
10
10
10
10
10
10
10
10
10
10
10
10
10
10
10
10
10
10
10
10
10
10
10
10
10
10
10
10
10
10
10
10
10
10
10
10
10
10
10
10
10
10
10
10
10
10
10
10
10
10
10
10
10
10
10
10
10
10
10
10
10
10
10
10
10
10
10
10
10
10
10
10
10
10
10
10
10
10
10
10
10
10
10
10
10
10
10
10
10
10
10
10
10
10
10
10
10
10
10
10
10
10
10
10
10
10
10
10
10
10
10
10
10
10
10
10
10
10
10
10
10
10
10
10
10
10
10
10
10
10
10
10
10
10
10
10
10
10
10
10
10
10
10
10
10
10
10
10
10
10
10
10
10
10
10
10
10
10
10
10
10
10
10
10
10
10
10
10
10
10
10
10
10
10
10
10
10
10
10
10
10
10
10
10
10
10
10
10
10
10
10
10
10
10
10
10
10
10
10
10
10
10
10
10
10
10
10
10
10
10
10
10
10
10
10
10
10
10
10
10
10
10
10
10
10
10
10
10
10
10
10
10
10
10
10
10
10
10
10
10
10
10
10
10
10
10
10
10
10
10
10
10
10
10
10
10
10
10
10
10
10
10
10
10
10
10
10
10
10
10
10
10
10
10
10
10
10
10
10
10
10
10
10
10
10
10
10
10
10
10
10
10
10
10
10
10
10
10
10
10
10
10
10
10
10
10
10
10
10
10
10
10
10
10
10
10
10
10
10
10
10
10
10
10
10
10
10
10
10
10
10
10
10
10
10
10
10
10
10
10
10
10
10
10
10
10
10
10
10
10
10
10
10
10
10
10
10
10
10
10
10
10
10
10
10
10
10
10
10
10
10
10
10
10
10
10
10
10
10
10
10
10
10
10
10
10
10
10
10
10
10
10
10
10
10
10
10
10
10
10
10
10
10
10
10
10
10
10
10
10
10
10
10
10
10
10
10
10
10
10
10
10
10
10
10
10
10
10
10
10
10
10
10
10
10
10
10
10
10
10
10
10
10
10
10
10
10
10
10
10
10
10
10
10
10
10
10
10
10
10
10
10
10
10
10
10
10
10
10
10
10
10
10
10
10
10
10
10
10
10
10
10
10
10
10
10
10
10
10
10
10
10
10
10
10
10
10
10
10
10
10
10
10
10
10
10
10
10
10
10
10
10
10
10
10
10
10
10
10
10
10
10
10
10
10
10
10
10
10
10
10
10
10
10
10
10
10
10
10
10
10
10
10
10
10
10
10
10
10
10
10
10
10
10
10
10
10
10
10
10
10
10
10
10
10
10
10
10
10
10
10
10
10
10
10
10
10
10
10
10
10
10
10
10
10
10
10
10
10
10
10
10
10
10
10
10
10
10
10
10
10
10
10
10
10
10
10
10
10
10
10
10
10
10
10
10
10
10
10
10
10
10
10
10
10
10
10
10
10
10
10
10
10
10
10
10
10
10
10
10
10
10
10
10
10
10
10
10
10
10
10
10
10
10
10
10
10
10
10
10
10
10
10
10
10
10
10
10
10
10
10
10
10
10
10
10
10
10
10
10
10
10
10
10
10
10
10
10
10
10
10
10
10
10
10
10
10
10
10
10
10
10
10
10
10
10
10
10
10
10
10
10
10
10
10
10
10
10
10
10
10
10
10
10
10
10
10
10
10
10
10
10
10
10
10
10
10
10
10
10
10
10
10
10
10
10
10
10
10
10
10
10
10
10
10
10
10
10
10
10
10
10
10
10
10
10
10
10
10
10
10
10
10
10
10
10
10
10
10
10
10
10
10
10
10
10
10
10
10
10
10
10
10
10
10
10
10
10
10
10
10
10
10
10
10
10
10
10
10
10
10
10
10
10
10
10
10
10
10
10
10
10
10
10
10
10
10
10
10
10
10
10
10
10
10
10
10
10
10
10
10
10
10
10
10
10
10
10
10
10
10
10
10
10
10
10
10
10
10
10
10
10
10
10
10
10
10
10
10
10
10
10
10
10
10
10
10
10
10
10
10
10
10
10
10
10
10
10
10
10
10
10
10
10
10
10
10
10
10
10
10
10
10
10
10
10
10
10
10
10
10
10
10
10
10
10
10
10
10
10
10
10
10
10
10
10
10
10
10
10
10
10
10
10
10
10
10
10
10
10
10
10
10
10
10
10
10
10
10
10
10
10
10
10
10
10
10
10
10
10
10
10
10
10
10
10
10
10
10
10
10
10
10
10
10
10
10
10
10
10
10
10
10
10
10
10
10
10
10
10
10
10
10
10
10
10
10
10
10
10
10
10
10
10
10
10
10
10
10
10
10
10
10
10
10
10
10
10
10
10
10
10
10
10
10
10
10
10
10
10
10
10
10
10
10
10
10
10
10
10
10
10
10
10
10
10
10
10
10
10
10
10
10
10
10
10
10
10
10
10
10
10
10
10
10
10
10
10
10
10
10
10
10
10
10
10
10
10
10
10
10
10
10
10
10
10
10
10
10
10
10
10
10
10
10
10
10
10
10
10
10
10
10
10
10
10
10
10
10
10
10
10
10
10
10
10
10
10
10
10
10
10
10
10
10
10
10
10
10
10
10
10
10
10
10
10
10
10
10
10
10
10
10
10
10
10
10
10
10
10
10
10
10
10
10
10
10
10
10
10
10
10
10
10
10
10
10
10
10
10
10
10
10
10
10
10
10
10
10
10
10
10
10
10
10
10
10
10
10
10
10
10
10
10
10
10
10
10
10
10
10
10
10
10
10
10
10
10
10
10
10
10
10
10
10
10
10
10
10
10
10
10
10
10
10
10
10
10
10
10
10
10
10
10
10
10
10
10
10
10
10
10
10
10
10
10
10
10
10
10
10
10
10
10
10
10
10
10
10
10
10
10
10
10
10
10
10
10
10
10
10
10
10
10
10
10
10
10
10
10
10
10
10
10
10
10
10
10
10
10
10
10
10
10
10
10
10
10
10
10
10
10
10
10
10
10
10
10
10
10
10
10
10
10
10
10
10
10
10
10
10
10
10
10
10
10
10
10
10
10
10
10
10
10
10
10
10
10
10
10
10
10
10
10
10
10
10
10
10
10
10
10
10
10
10
10
10
10
10
10
10
10
10
10
10
10
10
10
10
10
10
10
10
10
10
10
10
10
10
10
10
10
10
10
10
10
10
10
10
10
10
10
10
10
10
10
10
10
10
10
10
10
10
10
10
10
10
10
10
10
10
10
10
10
10
10
10
10
10
10
10
10
10
10
10
10
10
10
10
10
10
10
10
10
10
10
10
10
10
10
10
10
10
10
10
10
10
10
10
10
10
10
10
10
10
10
10
10
10
10
10
10
10
10
10
10
10
10
10
10
10
10
10
10
10
10
10
10
10
10
10
10
10
10
10
10
10
10
10
10
10
10
10
10
10
10
10
10
10
10
10
10
10
10
10
10
10
10
10
10
10
10
10
10
10
10
10
10
10
10
10
10
10
10
10
10
10
10
10
10
10
10
10
10
10
10
10
10
10
10
10
10
10
10
10
10
10
10
10
10
10
10
10
10
10
10
10
10
10
10
10
10
10
10
10
10
10
10
10
10
10
10
10
10
10
10
10
10
10
10
10
10
10
10
10
10
10
10
10
10
10
10
10
10
10
10
10
10
10
10
10
10
10
10
10
10
10
10
10
10
10
10
10
10
10
10
10
10
10
10
10
10
10
10
10
10
10
10
10
10
10
10
10
10
10
10
10
10
10
10
10
10
10
10
10
10
10
10
10
10
10
10
10
10
10
10
10
10
10
10
10
10
10
10
10
10
10
10
10
10
10
10
10
10
10
10
10
10
10
10
10
10
10
10
10
10
10
10
10
10
10
10
10
10
10
10
10
10
10
10
10
10
10
10
10
10
10
10
10
10
10
10
10
10
10
10
10
10
10
10
10
10
10
10
10
10
10
10
10
10
10
10
10
10
10
10
10
10
10
10
10
10
10
10
10
10
10
10
10
10
10
10
10
10
10
10
10
10
10
10
10
10
10
10
10
10
10
10
10
10
10
10
10
10
10
10
10
10
10
10
10
10
10
10
10
10
10
10
10
10
10
10
10
10
10
10
10
10
10
10
10
10
10
10
10
10
10
10
10
10
10
10
10
10
10
10
10
10
10
10
10
10
10
10
10
10
10
10
10
10
10
10
10
10
10
10
10
10
10
10
10
10
10
10
10
10
10
10
10
10
10
10
10
10
10
10
10
10
10
10
10
10
10
10
10
10
10
10
10
10
10
10
10
10
10
10
10
10
10
10
10
10
10
10
10
10
10
10
10
10
10
10
10
10
10
10
10
10
10
10
10
10
10
10
10
10
10
10
10
10
10
10
10
10
10
10
10
10
10
10
10
10
10
10
10
10
10
10
10
10
10
10
10
10
10
10
10
10
10
10
10
10
10
10
10
10
10
10
10
10
10
10
10
10
10
10
10
10
10
10
10
10
10
10
10
10
10
10
10
10
10
10
10
10
10
10
10
10
10
10
10
10
10
10
10
10
10
10
10
10
10
10
10
10
10
10
10
10
10
10
10
10
10
10
10
10
10
10
10
10
10
10
10
10
10
10
10
10
10
10
10
10
10
10
10
10
10
10
10
10
10
10
10
10
10
10
10
10
10
10
10
10
10
10
10
10
10
10
10
10
10
10
10
10
10
10
10
10
10
10
10
10
10
10
10
10
10
10
10
10
10
10
10
10
10
10
10
10
10
10
10
10
10
10
10
10
10
10
10
10
10
10
10
10
10
10
10
10
10
10
10
10
10
10
10
10
10
10
10
10
10
10
10
10
10
10
10
10
10
10
10
10
10
10
10
10
10
10
10
10
10
10
10
10
10
10
10
10
10
10
10
10
10
10
10
10
10
10
10
10
10
10
10
10
10
10
10
10
10
10
10
10
10
10
10
10
10
10
10
10
10
10
10
10
10
10
10
10
10
10
10
10
10
10
10
10
10
10
10
10
10
10
10
10
10
10
10
10
10
10
10
10
10
10
10
10
10
10
10
10
10
10
10
10
10
10
10
10
10
10
10
10
10
10
10
10
10
10
10
10
10
10
10
10
10
10
10
10
10
10
10
10
10
10
10
10
10
10
10
10
10
10
10
10
10
10
10
10
10
10
10
10
10
10
10
10
10
10
10
10
10
10
10
10
10
10
10
10
10
10
10
10
10
10
10
10
10
10
10
10
10
10
10
10
10
10
10
10
10
10
10
10
10
10
10
10
10
10
10
10
10
10
10
10
10
10
10
10
10
10
10
10
10
10
10
10
10
10
10
10
10
10
10
10
10
10
10
10
10
10
10
10
10
10
10
10
10
10
10
10
10
10
10
10
10
10
10
10
10
10
10
10
10
10
10
10
10
10
10
10
10
10
10
10
10
10
10
10
10
10
10
10
10
10
10
10
10
10
10
10
10
10
10
10
10
10
10
10
10
10
10
10
10
10
10
10
10
10
10
10
10
10
10
10
10
10
10
10
10
10
10
10
10
10
10
10
10
10
10
10
10
10
10
10
10
10
10
10
10
10
10
10
10
10
10
10
10
10
10
10
10
10
10
10
10
10
10
10
10
10
10
10
10
10
10
10
10
10
10
10
10
10
10
10
10
10
10
10
10
10
10
10
10
10
10
10
10
10
10
10
10
10
10
10
10
10
10
10
10
10
10
10
10
10
10
10
10
10
10
10
10
10
10
10
10
10
10
10
10
10
10
10
10
10
10
10
10
10
10
10
10
10
10
10
10
10
10
10
10
10
10
10
10
10
10
10
10
10
10
10
10
10
10
10
10
10
10
10
10
10
10
10
10
10
10
10
10
10
10
10
10
10
10
10
10
10
10
10
10
10
10
10
10
10
10
10
10
10
10
10
10
10
10
10
10
10
10
10
10
10
10
10
10
10
10
10
10
10
10
10
10
10
10
10
10
10
10
10
10
10
10
10
10
10
10
10
10
10
10
10
10
10
10
10
10
10
10
10
10
10
10
10
10
10
10
10
10
10
10
10
10
10
10
10
10
10
10
10
10
10
10
10
10
10
10
10
10
10
10
10
10
10
10
10
10
10
10
10
10
10
10
10
10
10
10
10
10
10
10
10
10
10
10
10
10
10
10
10
10
10
10
10
10
10
10
10
10
10
10
10
10
10
10
10
10
10
10
10
10
10
10
10
10
10
10
10
10
10
10
10
10
10
10
10
10
10
10
10
10
10
10
10
10
10
10
10
10
10
10
10
10
10
10
10
10
10
10
10
10
10
10
10
10
10
10
10
10
10
10
10
10
10
10
10
10
10
10
10
10
10
10
10
10
10
10
10
10
10
10
10
10
10
10
10
10
10
10
10
10
10
10
10
10
10
10
10
10
10
10
10
10
10
10
10
10
10
10
10
10
10
10
10
10
10
10
10
10
10
10
10
10
10
10
10
10
10
10
10
10
10
10
10
10
10
10
10
10
10
10
10
10
10
10
10
10
10
10
10
10
10
10
10
10
10
10
10
10
10
10
10
10
10
10
10
10
10
10
10
10
10
10
10
10
10
10
10
10
10
10
10
10
10
10
10
10
10
10
10
10
10
10
10
10
10
10
10
10
10
10
10
10
10
10
10
10
10
10
10
10
10
10
10
10
10
10
10
10
10
10
10
10
10
10
10
10
10
10
10
10
10
10
10
10
10
10
10
10
10
10
10
10
10
10
10
10
10
10
10
10
10
10
10
10
10
10
10
10
10
10
10
10
10
10
10
10
10
10
10
10
10
10
10
10
10
10
10
10
10
10
10
10
10
10
10
10
10
10
10
10
10
10
10
10
10
10
10
10
10
10
10
10
10
10
10
10
10
10
10
10
10
10
10
10
10
10
10
10
10
10
10
10
10
10
10
10
10
10
10
10
10
10
10
10
10
10
10
10
10
10
10
10
10
10
10
10
10
10
10
10
10
10
10
10
10
10
10
10
10
10
10
10
10
10
10
10
10
10
10
10
10
10
10
10
10
10
10
10
10
10
10
10
10
10
10
10
10
10
10
10
10
10
10
10
10
10
10
10
10
10
10
10
10
10
10
10
10
10
10
10
10
10
10
10
10
10
10
10
10
10
10
10
10
10
10
10
10
10
10
10
10
10
10
10
10
10
10
10
10
10
10
10
10
10
10
10
10
10
10
10
10
10
10
10
10
10
10
10
10
10
10
10
10
10
10
10
10
10
10
10
10
10
10
10
10
10
10
10
10
10
10
10
10
10
10
10
10
10
10
10
10
10
10
10
10
10
10
10
10
10
10
10
10
10
10
10
10
10
10
10
10
10
10
10
10
10
10
10
10
10
10
10
10
10
10
10
10
10
10
10
10
10
10
10
10
10
10
10
10
10
10
10
10
10
10
10
10
10
10
10
10
10
10
10
10
10
10
10
10
10
10
10
10
10
10
10
10
10
10
10
10
10
10
10
10
10
10
10
10
10
10
10
10
10
10
10
10
10
10
10
10
10
10
10
10
10
10
10
10
10
10
10
10
10
10
10
10
10
10
10
10
10
10
10
10
10
10
10
10
10
10
10
10
10
10
10
10
10
10
10
10
10
10
10
10
10
10
10
10
10
10
10
10
10
10
10
10
10
10
10
10
10
10
10
10
10
10
10
10
10
10
10
10
10
10
10
10
10
10
10
10
10
10
10
10
10
10
10
10
10
10
10
10
10
10
10
10
10
10
10
10
10
10
10
10
10
10
10
10
10
10
10
10
10
10
10
10
10
10
10
10
10
10
10
10
10
10
10
10
10
10
10
10
10
10
10
10
10
10
10
10
10
10
10
10
10
10
10
10
10
10
10
10
10
10
10
10
10
10
10
10
10
10
10
10
10
10
10
10
10
10
10
10
10
10
10
10
10
10
10
10
10
10
10
10
10
10
10
10
10
10
10
10
10
10
10
10
10
10
10
10
10
10
10
10
10
10
10
10
10
10
10
10
10
10
10
10
10
10
10
10
10
10
10
10
10
10
10
10
10
10
10
10
10
10
10
10
10
10
10
10
10
10
10
10
10
10
10
10
10
10
10
10
10
10
10
10
10
10
10
10
10
10
10
10
10
10
10
10
10
10
10
10
10
10
10
10
10
10
10
10
10
10
10
10
10
10
10
10
10
10
10
10
10
10
10
10
10
10
10
10
10
10
10
10
10
10
10
10
10
10
10
10
10
10
10
10
10
10
10
10
10
10
10
10
10
10
10
10
10
10
10
10
10
10
10
10
10
10
10
10
10
10
10
10
10
10
10
10
10
10
10
10
10
10
10
10
10
10
10
10
10
10
10
10
10
10
10
10
10
10
10
10
10
10
10
10
10
10
10
10
10
10
10
10
10
10
10
10
10
10
10
10
10
10
10
10
10
10
10
10
10
10
10
10
10
10
10
10
10
10
10
10
10
10
10
10
10
10
10
10
10
10
10
10
10
10
10
10
10
10
10
10
10
10
10
10
10
10
10
10
10
10
10
10
10
10
10
10
10
10
10
10
10
10
10
10
10
10
10
10
10
10
10
10
10
10
10
10
10
10
10
10
10
10
10
10
10
10
10
10
10
10
10
10
10
10
10
10
10
10
10
10
10
10
10
10
10
10
10
10
10
10
10
10
10
10
10
10
10
10
10
10
10
10
10
10
10
10
10
10
10
10
10
10
10
10
10
10
10
10
10
10
10
10
10
10
10
10
10
10
10
10
10
10
10
10
10
10
10
10
10
10
10
10
10
10
10
10
10
10
10
10
10
10
10
10
10
10
10
10
10
10
10
10
10
10
10
10
10
10
10
10
10
10
10
10
10
10
10
10
10
10
10
10
10
10
10
10
10
10
10
10
10
10
10
10
10
10
10
10
10
10
10
10
10
10
10
10
10
10
10
10
10
10
10
10
10
10
10
10
10
10
10
10
10
10
10
10
10
10
10
10
10
10
10
10
10
10
10
10
10
10
10
10
10
10
10
10
10
10
10
10
10
10
10
10
10
10
10
10
10
10
10
10
10
10
10
10
10
10
10
10
10
10
10
10
10
10
10
10
10
10
10
10
10
10
10
10
10
10
10
10
10
10
10
10
10
10
10
10
10
10
10
10
10
10
10
10
10
10
10
10
10
10
10
10
10
10
10
10
10
10
10
10
10
10
10
10
10
10
10
10
10
10
10
10
10
10
10
10
10
10
10
10
10
10
10
10
10
10
10
10
10
10
10
10
10
10
10
10
10
10
10
10
10
10
10
10
10
10
10
10
10
10
10
10
10
10
10
10
10
10
10
10
10
10
10
10
10
10
10
10
10
10
10
10
10
10
10
10
10
10
10
10
10
10
10
10
10
10
10
10
10
10
10
10
10
10
10
10
10
10
10
10
10
10
10
10
10
10
10
10
10
10
10
10
10
10
10
10
10
10
10
10
10
10
10
10
10
10
10
10
10
10
10
10
10
10
10
10
10
10
10
10
10
10
10
10
10
10
10
10
10
10
10
10
10
10
10
10
10
10
10
10
10
10
10
10
10
10
10
10
10
10
10
10
10
10
10
10
10
10
10
10
10
10
10
10
10
10
10
10
10
10
10
10
10
10
10
10
10
10
10
10
10
10
10
10
10
10
10
10
10
10
10
10
10
10
10
10
10
10
10
10
10
10
10
10
10
10
10
10
10
10
10
10
10
10
10
10
10
10
10
10
10
10
10
10
10
10
10
10
10
10
10
10
10
10
10
10
10
10
10
10
10
10
10
10
10
10
10
10
10
10
10
10
10
10
10
10
10
10
10
10
10
10
10
10
10
10
10
10
10
10
10
10
10
10
10
10
10
10
10
10
10
10
10
10
10
10
10
10
10
10
10
10
10
10
10
10
10
10
10
10
10
10
10
10
10
10
10
10
10
10
10
10
10
10
10
10
10
10
10
10
10
10
10
10
10
10
10
10
10
10
10
10
10
10
10
10
10
10
10
10
10
10
10
10
10
10
10
10
10
10
10
10
10
10
10
10
10
10
10
10
10
10
10
10
10
10
10
10
10
10
10
10
10
10
10
10
10
10
10
10
10
10
10
10
10
10
10
10
10
10
10
10
10
10
10
10
10
10
10
10
10
10
10
10
10
10
10
10
10
10
10
10
10
10
10
10
10
10
10
10
10
10
10
10
10
10
10
10
10
10
10
10
10
10
10
10
10
10
10
10
10
10
10
10
10
10
10
10
10
10
10
10
10
10
10
10
10
10
10
10
10
10
10
10
10
10
10
10
10
10
10
10
10
10
10
10
10
10
10
10
10
10
10
10
10
10
10
10
10
10
10
10
10
10
10
10
10
10
10
10
10
10
10
10
10
10
10
10
10
10
10
10
10
10
10
10
10
10
10
10
10
10
10
10
10
10
10
10
10
10
10
10
10
10
10
10
10
10
10
10
10
10
10
10
10
10
10
10
10
10
10
10
10
10
10
10
10
10
10
10
10
10
10
10
10
10
10
10
10
10
10
10
10
10
10
10
10
10
10
10
10
10
10
10
10
10
10
10
10
10
10
10
10
10
10
10
10
10
10
10
10
10
10
10
10
10
10
10
10
10
10
10
10
10
10
10
10
10
10
10
10
10
10
10
10
10
10
10
10
10
10
10
10
10
10
10
10
10
10
10
10
10
10
10
10
10
10
10
10
10
10
10
10
10
10
10
10
10
10
10
10
10
10
10
10
10
10
10
10
10
10
10
10
10
10
10
10
10
10
10
10
10
10
10
10
10
10
10
10
10
10
10
10
10
10
10
10
10
10
10
10
10
10
10
10
10
10
10
10
10
10
10
10
10
10
10
10
10
10
10
10
10
10
10
10
10
10
10
10
10
10
10
10
10
10
10
10
10
10
10
10
10
10
10
10
10
10
10
10
10
10
10
10
10
10
10
10
10
10
10
10
10
10
10
10
10
10
10
10
10
10
10
10
10
10
10
10
10
10
10
10
10
10
10
10
10
10
10
10
10
10
10
10
10
10
10
10
10
10
10
10
10
10
10
10
10
10
10
10
10
10
10
10
10
10
10
10
10
10
10
10
10
10
10
10
10
10
10
10
10
10
10
10
10
10
10
10
10
10
10
10
10
10
10
10
10
10
10
10
10
10
10
10
10
10
10
10
10
10
10
10
10
10
10
10
10
10
10
10
10
10
10
10
10
10
10
10
10
10
10
10
10
10
10
10
10
10
10
10
10
10
10
10
10
10
10
10
10
10
10
10
10
10
10
10
10
10
10
10
10
10
10
10
10
10
10
10
10
10
10
10
10
10
10
10
10
10
10
10
10
10
10
10
10
10
10
10
10
10
10
10
10
10
10
10
10
10
10
10
10
10
10
10
10
10
10
10
10
10
10
10
10
10
10
10
10
10
10
10
10
10
10
10
10
10
10
10
10
10
10
10
10
10
10
10
10
10
10
10
10
10
10
10
10
10
10
10
10
10
10
10
10
10
10
10
10
10
10
10
10
10
10
10
10
10
10
10
10
10
10
10
10
10
10
10
10
10
10
10
10
10
10
10
10
10
10
10
10
10
10
10
10
10
10
10
10
10
10
10
10
10
10
10
10
10
10
10
10
10
10
10
10
10
10
10
10
10
10
10
10
10
10
10
10
10
10
10
10
10
10
10
10
10
10
10
10
10
10
10
10
10
10
10
10
10
10
10
10
10
10
10
10
10
10
10
10
10
10
10
10
10
10
10
10
10
10
10
10
10
10
10
10
10
10
10
10
10
10
10
10
10
10
10
10
10
10
10
10
10
10
10
10
10
10
10
10
10
10
10
10
10
10
10
10
10
10
10
10
10
10
10
10
10
10
10
10
10
10
10
10
10
10
10
10
10
10
10
10
10
10
10
10
10
10
10
10
10
10
10
10
10
10
10
10
10
10
10
10
10
10
10
10
10
10
10
10
10
10
10
10
10
10
10
10
10
10
10
10
10
10
10
10
10
10
10
10
10
10
10
10
10
10
10
10
10
10
10
10
10
10
10
10
10
10
10
10
10
10
10
10
10
10
10
10
10
10
10
10
10
10
10
10
10
10
10
10
10
10
10
10
10
10
10
10
10
10
10
10
10
10
10
10
10
10
10
10
10
10
10
10
10
10
10
10
10
10
10
10
10
10
10
10
10
10
10
10
10
10
10
10
10
10
10
10
10
10
10
10
10
10
10
10
10
10
10
10
10
10
10
10
10
10
10
10
10
10
10
10
10
10
10
10
10
10
10
10
10
10
10
10
10
10
10
10
10
10
10
10
10
10
10
10
10
10
10
10
10
10
10
10
10
10
10
10
10
10
10
10
10
10
10
10
10
10
10
10
10
10
10
10
10
10
10
10
10
10
10
10
10
10
10
10
10
10
10
10
10
10
10
10
10
10
10
10
10
10
10
10
10
10
10
10
10
10
10
10
10
10
10
10
10
10
10
10
10
10
10
10
10
10
10
10
10
10
10
10
10
10
10
10
10
10
10
10
10
10
10
10
10
10
10
10
10
10
10
10
10
10
10
10
10
10
10
10
10
10
10
10
10
10
10
10
10
10
10
10
10
10
10
10
10
10
10
10
10
10
10
10
10
10
10
10
10
10
10
10
10
10
10
10
10
10
10
10
10
10
10
10
10
10
10
10
10
10
10
10
10
10
10
10
10
10
10
10
10
10
10
10
10
10
10
10
10
10
10
10
10
10
10
10
10
10
10
10
10
10
10
10
10
10
10
10
10
10
10
10
10
10
10
10
10
10
10
10
10
10
10
10
10
10
10
10
10
10
10
10
10
10
10
10
10
10
10
10
10
10
10
10
10
10
10
10
10
10
10
10
10
10
10
10
10
10
10
10
10
10
10
10
10
10
10
10
10
10
10
10
10
10
10
10
10
10
10
10
10
10
10
10
10
10
10
10
10
10
10
10
10
10
10
10
10
10
10
10
10
10
10
10
10
10
10
10
10
10
10
10
10
10
10
10
10
10
10
10
10
10
10
10
10
10
10
10
10
10
10
10
10
10
10
10
10
10
10
10
10
10
10
10
10
10
10
10
10
10
10
10
10
10
10
10
10
10
10
10
10
10
10
10
10
10
10
10
10
10
10
10
10
10
10
10
10
10
10
10
10
10
10
10
10
10
10
10
10
10
10
10
10
10
10
10
10
10
10
10
10
10
10
10
10
10
10
10
10
10
10
10
10
10
10
10
10
10
10
10
10
10
10
10
10
10
10
10
10
10
10
10
10
10
10
10
10
10
10
10
10
10
10
10
10
10
10
10
10
10
10
10
10
10
10
10
10
10
10
10
10
10
10
10
10
10
10
10
10
10
10
10
10
10
10
10
10
10
10
10
10
10
10
10
10
10
10
10
10
10
10
10
10
10
10
10
10
10
10
10
10
10
10
10
10
10
10
10
10
10
10
10
10
10
10
10
10
10
10
10
10
10
10
10
10
10
10
10
10
10
10
10
10
10
10
10
10
10
10
10
10
10
10
10
10
10
10
10
10
10
10
10
10
10
10
10
10
10
10
10
10
10
10
10
10
10
10
10
10
10
10
10
10
10
10
10
10
10
10
10
10
10
10
10
10
10
10
10
10
10
10
10
10
10
10
10
10
10
10
10
10
10
10
10
10
10
10
10
10
10
10
10
10
10
10
10
10
10
10
10
10
10
10
10
10
10
10
10
10
10
10
10
10
10
10
10
10
10
10
10
10
10
10
10
10
10
10
10
10
10
10
10
10
10
10
10
10
10
10
10
10
10
10
10
10
10
10
10
10
10
10
10
10
10
10
10
10
10
10
10
10
10
10
10
10
10
10
10
10
10
10
10
10
10
10
10
10
10
10
10
10
10
10
10
10
10
10
10
10
10
10
10
10
10
10
10
10
10
10
10
10
10
10
10
10
10
10
10
10
10
10
10
10
10
10
10
10
10
10
10
10
10
10
10
10
10
10
10
10
10
10
10
10
10
10
10
10
10
10
10
10
10
10
10
10
10
10
10
10
10
10
10
10
10
10
10
10
10
10
10
10
10
10
10
10
10
10
10
10
10
10
10
10
10
10
10
10
10
10
10
10
10
10
10
10
10
10
10
10
10
10
10
10
10
10
10
10
10
10
10
10
10
10
10
10
10
10
10
10
10
10
10
10
10
10
10
10
10
10
10
10
10
10
10
10
10
10
10
10
10
10
10
10
10
10
10
10
10
10
10
10
10
10
10
10
10
10
10
10
10
10
10
10
10
10
10
10
10
10
10
10
10
10
10
10
10
10
10
10
10
10
10
10
10
10
10
10
10
10
10
10
10
10
10
10
10
10
10
10
10
10
10
10
10
10
10
10
10
10
10
10
10
10
10
10
10
10
10
10
10
10
10
10
10
10
10
10
10
10
10
10
10
10
10
10
10
10
10
10
10
10
10
10
10
10
10
10
10
10
10
10
10
10
10
10
10
10
10
10
10
10
10
10
10
10
10
10
10
10
10
10
10
10
10
10
10
10
10
10
10
10
10
10
10
10
10
10
10
10
10
10
10
10
10
10
10
10
10
10
10
10
10
10
10
10
10
10
10
10
10
10
10
10
10
10
10
10
10
10
10
10
10
10
10
10
10
10
10
10
10
10
10
10
10
10
10
10
10
10
10
10
10
10
10
10
10
10
10
10
10
10
10
10
10
10
10
10
10
10
10
10
10
10
10
10
10
10
10
10
10
10
10
10
10
10
10
10
10
10
10
10
10
10
10
10
10
10
10
10
10
10
10
10
10
10
10
10
10
10
10
10
10
10
10
10
10
10
10
10
10
10
10
10
10
10
10
10
10
10
10
10
10
10
10
10
10
10
10
10
10
10
10
10
10
10
10
10
10
10
10
10
10
10
10
10
10
10
10
10
10
10
10
10
10
10
10
10
10
10
10
10
10
10
10
10
10
10
10
10
10
10
10
10
10
10
10
10
10
10
10
10
10
10
10
10
10
10
10
10
10
10
10
10
10
10
10
10
10
10
10
10
10
10
10
10
10
10
10
10
10
10
10
10
10
10
10
10
10
10
10
10
10
10
10
10
10
10
10
10
10
10
10
10
10
10
10
10
10
10
10
10
10
10
10
10
10
10
10
10
10
10
10
10
10
10
10
10
10
10
10
10
10
10
10
10
10
10
10
10
10
10
10
10
10
10
10
10
10
10
10
10
10
10
10
10
10
10
10
10
10
10
10
10
10
10
10
10
10
10
10
10
10
10
10
10
10
10
10
10
10
10
10
10
10
10
10
10
10
10
10
10
10
10
10
10
10
10
10
10
10
10
10
10
10
10
10
10
10
10
10
10
10
10
10
10
10
10
10
10
10
10
10
10
10
10
10
10
10
10
10
10
10
10
10
10
10
10
10
10
10
10
10
10
10
10
10
10
10
10
10
10
10
10
10
10
10
10
10
10
10
10
10
10
10
10
10
10
10
10
10
10
10
10
10
10
10
10
10
10
10
10
10
10
10
10
10
10
10
10
10
10
10
10
10
10
10
10
10
10
10
10
10
10
10
10
10
10
10
10
10
10
10
10
10
10
10
10
10
10
10
10
10
10
10
10
10
10
10
10
10
10
10
10
10
10
10
10
10
10
10
10
10
10
10
10
10
10
10
10
10
10
10
10
10
10
10
10
10
10
10
10
10
10
10
10
10
10
10
10
10
10
10
10
10
10
10
10
10
10
10
10
10
10
10
10
10
10
10
10
10
10
10
10
10
10
10
10
10
10
10
10
10
10
10
10
10
10
10
10
10
10
10
10
10
10
10
10
10
10
10
10
10
10
10
10
10
10
10
10
10
10
10
10
10
10
10
10
10
10
10
10
10
10
10
10
10
10
10
10
10
10
10
10
10
10
10
10
10
10
10
10
10
10
10
10
10
10
10
10
10
10
10
10
10
10
10
10
10
10
10
10
10
10
10
10
10
10
10
10
10
10
10
10
10
10
10
10
10
10
10
10
10
10
10
10
10
10
10
10
10
10
10
10
10
10
10
10
10
10
10
10
10
10
10
10
10
10
10
10
10
10
10
10
10
10
10
10
10
10
10
10
10
10
10
10
10
10
10
10
10
10
10
10
10
10
10
10
10
10
10
10
10
10
10
10
10
10
10
10
10
10
10
10
10
10
10
10
10
10
10
10
10
10
10
10
10
10
10
10
10
10
10
10
10
10
10
10
10
10
10
10
10
10
10
10
10
10
10
10
10
10
10
10
10
10
10
10
10
10
10
10
10
10
10
10
10
10
10
10
10
10
10
10
10
10
10
10
10
10
10
10
10
10
10
10
10
10
10
10
10
10
10
10
10
10
10
10
10
10
10
10
10
10
10
10
10
10
10
10
10
10
10
10
10
10
10
10
10
10
10
10
10
10
10
10
10
10
10
10
10
10
10
10
10
10
10
10
10
10
10
10
10
10
10
10
10
10
10
10
10
10
10
10
10
10
10
10
10
10
10
10
10
10
10
10
10
10
10
10
10
10
10
10
10
10
10
10
10
10
10
10
10
10
10
10
10
10
10
10
10
10
10
10
10
10
10
10
10
10
10
10
10
10
10
10
10
10
10
10
10
10
10
10
10
10
10
10
10
10
10
10
10
10
10
10
10
10
10
10
10
10
10
10
10
10
10
10
10
10
10
10
10
10
10
10
10
10
10
10
10
10
10
10
10
10
10
10
10
10
10
10
10
10
10
10
10
10
10
10
10
10
10
10
10
10
10
10
10
10
10
10
10
10
10
10
10
10
10
10
10
10
10
10
10
10
10
10
10
10
10
10
10
10
10
10
10
10
10
10
10
10
10
10
10
10
10
10
10
10
10
10
10
10
10
10
10
10
10
10
10
10
10
10
10
10
10
10
10
10
10
10
10
10
10
10
10
10
10
10
10
10
10
10
10
10
10
10
10
10
10
10
10
10
10
10
10
10
10
10
10
10
10
10
10
10
10
10
10
10
10
10
10
10
10
10
10
10
10
10
10
10
10
10
10
10
10
10
10
10
10
10
10
10
10
10
10
10
10
10
10
10
10
10
10
10
10
10
10
10
10
10
10
10
10
10
10
10
10
10
10
10
10
10
10
10
10
10
10
10
10
10
10
10
10
10
10
10
10
10
10
10
10
10
10
10
10
10
10
10
10
10
10
10
10
10
10
10
10
10
10
10
10
10
10
10
10
10
10
10
10
10
10
10
10
10
10
10
10
10
10
10
10
10
10
10
10
10
10
10
10
10
10
10
10
10
10
10
10
10
10
10
10
10
10
10
10
10
10
10
10
10
10
10
10
10
10
10
10
10
10
10
10
10
10
10
10
10
10
10
10
10
10
10
10
10
10
10
10
10
10
10
10
10
10
10
10
10
10
10
10
10
10
10
10
10
10
10
10
10
10
10
10
10
10
10
10
10
10
10
10
10
10
10
10
10
10
10
10
10
10
10
10
10
10
10
10
10
10
10
10
10
10
10
10
10
10
10
10
10
10
10
10
10
10
10
10
10
10
10
10
10
10
10
10
10
10
10
10
10
10
10
10
10
10
10
10
10
10
10
10
10
10
10
10
10
10
10
10
10
10
10
10
10
10
10
10
10
10
10
10
10
10
10
10
10
10
10
10
10
10
10
10
10
10
10
10
10
10
10
10
10
10
10
10
10
10
10
10
10
10
10
10
10
10
10
10
10
10
10
10
10
10
10
10
10
10
10
10
10
10
10
10
10
10
10
10
10
10
10
10
10
10
10
10
10
10
10
10
10
10
10
10
10
10
10
10
10
10
10
10
10
10
10
10
10
10
10
10
10
10
10
10
10
10
10
10
10
10
10
10
10
10
10
10
10
10
10
10
10
10
10
10
10
10
10
10
10
10
10
10
10
10
10
10
10
10
10
10
10
10
10
10
10
10
10
10
10
10
10
10
10
10
10
10
10
10
10
10
10
10
10
10
10
10
10
10
10
10
10
10
10
10
10
10
10
10
10
10
10
10
10
10
10
10
10
10
10
10
10
10
10
10
10
10
10
10
10
10
10
10
10
10
10
10
10
10
10
10
10
10
10
10
10
10
10
10
10
10
10
10
10
10
10
10
10
10
10
10
10
10
10
10
10
10
10
10
10
10
10
10
10
10
10
10
10
10
10
10
10
10
10
10
10
10
10
10
10
10
10
10
10
10
10
10
10
10
10
10
10
10
10
10
10
10
10
10
10
10
10
10
10
10
10
10
10
10
10
10
10
10
10
10
10
10
10
10
10
10
10
10
10
10
10
10
10
10
10
10
10
10
10
10
10
10
10
10
10
10
10
10
10
10
10
10
10
10
10
10
10
10
10
10
10
10
10
10
10
10
10
10
10
10
10
10
10
10
10
10
10
10
10
10
10
10
10
10
10
10
10
10
10
10
10
10
10
10
10
10
10
10
10
10
10
10
10
10
10
10
10
10
10
10
10
10
10
10
10
10
10
10
10
10
10
10
10
10
10
10
10
10
10
10
10
10
10
10
10
10
10
10
10
10
10
10
10
10
10
10
10
10
10
10
10
10
10
10
10
10
10
10
10
10
10
10
10
10
10
10
10
10
10
10
10
10
10
10
10
10
10
10
10
10
10
10
10
10
10
10
10
10
10
10
10
10
10
10
10
10
10
10
10
10
10
10
10
10
10
10
10
10
10
10
10
10
10
10
10
10
10
10
10
10
10
10
10
10
10
10
10
10
10
10
10
10
10
10
10
10
10
10
10
10
10
10
10
10
10
10
10
10
10
10
10
10
10
10
10
10
10
10
10
10
10
10
10
10
10
10
10
10
10
10
10
10
10
10
10
10
10
10
10
10
10
10
10
10
10
10
10
10
10
10
10
10
10
10
10
10
10
10
10
10
10
10
10
10
10
10
10
10
10
10
10
10
10
10
10
10
10
10
10
10
10
10
10
10
10
10
10
10
10
10
10
10
10
10
10
10
10
10
10
10
10
10
10
10
10
10
10
10
10
10
10
10
10
10
10
10
10
10
10
10
10
10
10
10
10
10
10
10
10
10
10
10
10
10
10
10
10
10
10
10
10
10
10
10
10
10
10
10
10
10
10
10
10
10
10
10
10
10
10
10
10
10
10
10
10
10
10
10
10
10
10
10
10
10
10
10
10
10
10
10
10
10
10
10
10
10
10
10
10
10
10
10
10
10
10
10
10
10
10
10
10
10
10
10
10
10
10
10
10
10
10
10
10
10
10
10
10
10
10
10
10
10
10
10
10
10
10
10
10
10
10
10
10
10
10
10
10
10
10
10
10
10
10
10
10
10
10
10
10
10
10
10
10
10
10
10
10
10
10
10
10
10
10
10
10
10
10
10
10
10
10
10
10
10
10
10
10
10
10
10
10
10
10
10
10
10
10
10
10
10
10
10
10
10
10
10
10
10
10
10
10
10
10
10
10
10
10
10
10
10
10
10
10
10
10
10
10
10
10
10
10
10
10
10
10
10
10
10
10
10
10
10
10
10
10
10
10
10
10
10
10
10
10
10
10
10
10
10
10
10
10
10
10
10
10
10
10
10
10
10
10
10
10
10
10
10
10
10
10
10
10
10
10
10
10
10
10
10
10
10
10
10
10
10
10
10
10
10
10
10
10
10
10
10
10
10
10
10
10
10
10
10
10
10
10
10
10
10
10
10
10
10
10
10
10
10
10
10
10
10
10
10
10
10
10
10
10
10
10
10
10
10
10
10
10
10
10
10
10
10
10
10
10
10
10
10
10
10
10
10
10
10
10
10
10
10
10
10
10
10
10
10
10
10
10
10
10
10
10
10
10
10
10
10
10
10
10
10
10
10
10
10
10
10
10
10
10
10
10
10
10
10
10
10
10
10
10
10
10
10
10
10
10
10
10
10
10
10
10
10
10
10
10
10
10
10
10
10
10
10
10
10
10
10
10
10
10
10
10
10
10
10
10
10
10
10
10
10
10
10
10
10
10
10
10
10
10
10
10
10
10
10
10
10
10
10
10
10
10
10
10
10
10
10
10
10
10
10
10
10
10
10
10
10
10
10
10
10
10
10
10
10
10
10
10
10
10
10
10
10
10
10
10
10
10
10
10
10
10
10
10
10
10
10
10
10
10
10
10
10
10
10
10
10
10
10
10
10
10
10
10
10
10
10
10
10
10
10
10
10
10
10
10
10
10
10
10
10
10
10
10
10
10
10
10
10
10
10
10
10
10
10
10
10
10
10
10
10
10
10
10
10
10
10
10
10
10
10
10
10
10
10
10
10
10
10
10
10
10
10
10
10
10
10
10
10
10
10
10
10
10
10
10
10
10
10
10
10
10
10
10
10
10
10
10
10
10
10
10
10
10
10
10
10
10
10
10
10
10
10
10
10
10
10
10
10
10
10
10
10
10
10
10
10
10
10
10
10
10
10
10
10
10
10
10
10
10
10
10
10
10
10
10
10
10
10
10
10
10
10
10
10
10
10
10
10
10
10
10
10
10
10
10
10
10
10
10
10
10
10
10
10
10
10
10
10
10
10
10
10
10
10
10
10
10
10
10
10
10
10
10
10
10
10
10
10
10
10
10
10
10
10
10
10
10
10
10
10
10
10
10
10
10
10
10
10
10
10
10
10
10
10
10
10
10
10
10
10
10
10
10
10
10
10
10
10
10
10
10
10
10
10
10
10
10
10
10
10
10
10
10
10
10
10
10
10
10
10
10
10
10
10
10
10
10
10
10
10
10
10
10
10
10
10
10
10
10
10
10
10
10
10
10
10
10
10
10
10
10
10
10
10
10
10
10
10
10
10
10
10
10
10
10
10
10
10
10
10
10
10
10
10
10
10
10
10
10
10
10
10
10
10
10
10
10
10
10
10
10
10
10
10
10
10
10
10
10
10
10
10
10
10
10
10
10
10
10
10
10
10
10
10
10
10
10
10
10
10
10
10
10
10
10
10
10
10
10
10
10
10
10
10
10
10
10
10
10
10
10
10
10
10
10
10
10
10
10
10
10
10
10
10
10
10
10
10
10
10
10
10
10
10
10
10
10
10
10
10
10
10
10
10
10
10
10
10
10
10
10
10
10
10
10
10
10
10
10
10
10
10
10
10
10
10
10
10
10
10
10
10
10
10
10
10
10
10
10
10
10
10
10
10
10
10
10
10
10
10
10
10
10
10
10
10
10
10
10
10
10
10
10
10
10
10
10
10
10
10
10
10
10
10
10
10
10
10
10
10
10
10
10
10
10
10
10
10
10
10
10
10
10
10
10
10
10
10
10
10
10
10
10
10
10
10
10
10
10
10
10
10
10
10
10
10
10
10
10
10
10
10
10
10
10
10
10
10
10
10
10
10
10
10
10
10
10
10
10
10
10
10
10
10
10
10
10
10
10
10
10
10
10
10
10
10
10
10
10
10
10
10
10
10
10
10
10
10
10
10
10
10
10
10
10
10
10
10
10
10
10
10
10
10
10
10
10
10
10
10
10
10
10
10
10
10
10
10
10
10
10
10
10
10
10
10
10
10
10
10
10
10
10
10
10
10
10
10
10
10
10
10
10
10
10
10
10
10
10
10
10
10
10
10
10
10
10
10
10
10
10
10
10
10
10
10
10
10
10
10
10
10
10
10
10
10
10
10
10
10
10
10
10
10
10
10
10
10
10
10
10
10
10
10
10
10
10
10
10
10
10
10
10
10
10
10
10
10
10
10
10
10
10
10
10
10
10
10
10
10
10
10
10
10
10
10
10
10
10
10
10
10
10
10
10
10
10
10
10
10
10
10
10
10
10
10
10
10
10
10
10
10
10
10
10
10
10
10
10
10
10
10
10
10
10
10
10
10
10
10
10
10
10
10
10
10
10
10
10
10
10
10
10
10
10
10
10
10
10
10
10
10
10
10
10
10
10
10
10
10
10
10
10
10
10
10
10
10
10
10
10
10
10
10
10
10
10
10
10
10
10
10
10
10
10
10
10
10
10
10
10
10
10
10
10
10
10
10
10
10
10
10
10
10
10
10
10
10
10
10
10
10
10
10
10
10
10
10
10
10
10
10
10
10
10
10
10
10
10
10
10
10
10
10
10
10
10
10
10
10
10
10
10
10
10
10
10
10
10
10
10
10
10
10
10
10
10
10
10
10
10
10
10
10
10
10
10
10
10
10
10
10
10
10
10
10
10
10
10
10
10
10
10
10
10
10
10
10
10
10
10
10
10
10
10
10
10
10
10
10
10
10
10
10
10
10
10
10
10
10
10
10
10
10
10
10
10
10
10
10
10
10
10
10
10
10
10
10
10
10
10
10
10
10
10
10
10
10
10
10
10
10
10
10
10
10
10
10
10
10
10
10
10
10
10
10
10
10
10
10
10
10
10
10
10
10
10
10
10
10
10
10
10
10
10
10
10
10
10
10
10
10
10
10
10
10
10
10
10
10
10
10
10
10
10
10
10
10
10
10
10
10
10
10
10
10
10
10
10
10
10
10
10
10
10
10
10
10
10
10
10
10
10
10
10
10
10
10
10
10
10
10
10
10
10
10
10
10
10
10
10
10
10
10
10
10
10
10
10
10
10
10
10
10
10
10
10
10
10
10
10
10
10
10
10
10
10
10
10
10
10
10
10
10
10
10
10
10
10
10
10
10
10
10
10
10
10
10
10
10
10
10
10
10
10
10
10
10
10
10
10
10
10
10
10
10
10
10
10
10
10
10
10
10
10
10
10
10
10
10
10
10
10
10
10
10
10
10
10
10
10
10
10
10
10
10
10
10
10
10
10
10
10
10
10
10
10
10
10
10
10
10
10
10
10
10
10
10
10
10
10
10
10
10
10
10
10
10
10
10
10
10
10
10
10
10
10
10
10
10
10
10
10
10
10
10
10
10
10
10
10
10
10
10
10
10
10
10
10
10
10
10
10
10
10
10
10
10
10
10
10
10
10
10
10
10
10
10
10
10
10
10
10
10
10
10
10
10
10
10
10
10
10
10
10
10
10
10
10
10
10
10
10
10
10
10
10
10
10
10
10
10
10
10
10
10
10
10
10
10
10
10
10
10
10
10
10
10
10
10
10
10
10
10
10
10
10
10
10
10
10
10
10
10
10
10
10
10
10
10
10
10
10
10
10
10
10
10
10
10
10
10
10
10
10
10
10
10
10
10
10
10
10
10
10
10
10
10
10
10
10
10
10
10
10
10
10
10
10
10
10
10
10
10
10
10
10
10
10
10
10
10
10
10
10
10
10
10
10
10
10
10
10
10
10
10
10
10
10
10
10
10
10
10
10
10
10
10
10
10
10
10
10
10
10
10
10
10
10
10
10
10
10
10
10
10
10
10
10
10
10
10
10
10
10
10
10
10
10
10
10
10
10
10
10
10
10
10
10
10
10
10
10
10
10
10
10
10
10
10
10
10
10
10
10
10
10
10
10
10
10
10
10
10
10
10
10
10
10
10
10
10
10
10
10
10
10
10
10
10
10
10
10
10
10
10
10
10
10
10
10
10
10
10
10
10
10
10
10
10
10
10
10
10
10
10
10
10
10
10
10
10
10
10
10
10
10
10
10
10
10
10
10
10
10
10
10
10
10
10
10
10
10
10
10
10
10
10
10
10
10
10
10
10
10
10
10
10
10
10
10
10
10
10
10
10
10
10
10
10
10
10
10
10
10
10
10
10
10
10
10
10
10
10
10
10
10
10
10
10
10
10
10
10
10
10
10
10
10
10
10
10
10
10
10
10
10
10
10
10
10
10
10
10
10
10
10
10
10
10
10
10
10
10
10
10
10
10
10
10
10
10
10
10
10
10
10
10
10
10
10
10
10
10
10
10
10
10
10
10
10
10
10
10
10
10
10
10
10
10
10
10
10
10
10
10
10
10
10
10
10
10
10
10
10
10
10
10
10
10
10
10
10
10
10
10
10
10
10
10
10
10
10
10
10
10
10
10
10
10
10
10
10
10
10
10
10
10
10
10
10
10
10
10
10
10
10
10
10
10
10
10
10
10
10
10
10
10
10
10
10
10
10
10
10
10
10
10
10
10
10
10
10
10
10
10
10
10
10
10
10
10
10
10
10
10
10
10
10
10
10
10
10
10
10
10
10
10
10
10
10
10
10
10
10
10
10
10
10
10
10
10
10
10
10
10
10
10
10
10
10
10
10
10
10
10
10
10
10
10
10
10
10
10
10
10
10
10
10
10
10
10
10
10
10
10
10
10
10
10
10
10
10
10
10
10
10
10
10
10
10
10
10
10
10
10
10
10
10
10
10
10
10
10
10
10
10
10
10
10
10
10
10
10
10
10
10
10
10
10
10
10
10
10
10
10
10
10
10
10
10
10
10
10
10
10
10
10
10
10
10
10
10
10
10
10
10
10
10
10
10
10
10
10
10
10
10
10
10
10
10
10
10
10
10
10
10
10
10
10
10
10
10
10
10
10
10
10
10
10
10
10
10
10
10
10
10
10
10
10
10
10
10
10
10
10
10
10
10
10
10
10
10
10
10
10
10
10
10
10
10
10
10
10
10
10
10
10
10
10
10
10
10
10
10
10
10
10
10
10
10
10
10
10
10
10
10
10
10
10
10
10
10
10
10
10
10
10
10
10
10
10
10
10
10
10
10
10
10
10
10
10
10
10
10
10
10
10
10
10
10
10
10
10
10
10
10
10
10
10
10
10
10
10
10
10
10
10
10
10
10
10
10
10
10
10
10
10
10
10
10
10
10
10
10
10
10
10
10
10
10
10
10
10
10
10
10
10
10
10
10
10
10
10
10
10
10
10
10
10
10
10
10
10
10
10
10
10
10
10
10
10
10
10
10
10
10
10
10
10
10
10
10
10
10
10
10
10
10
10
10
10
10
10
10
10
10
10
10
10
10
10
10
10
10
10
10
10
10
10
10
10
10
10
10
10
10
10
10
10
10
10
10
10
10
10
10
10
10
10
10
10
10
10
10
10
10
10
10
10
10
10
10
10
10
10
10
10
10
10
10
10
10
10
10
10
10
10
10
10
10
10
10
10
10
10
10
10
10
10
10
10
10
10
10
10
10
10
10
10
10
10
10
10
10
10
10
10
10
10
10
10
10
10
10
10
10
10
10
10
10
10
10
10
10
10
10
10
10
10
10
10
10
10
10
10
10
10
10
10
10
10
10
10
10
10
10
10
10
10
10
10
10
10
10
10
10
10
10
10
10
10
10
10
10
10
10
10
10
10
10
10
10
10
10
10
10
10
10
10
10
10
10
10
10
10
10
10
10
10
10
10
10
10
10
10
10
10
10
10
10
10
10
10
10
10
10
10
10
10
10
10
10
10
10
10
10
10
10
10
10
10
10
10
10
10
10
10
10
10
10
10
10
10
10
10
10
10
10
10
10
10
10
10
10
10
10
10
10
10
10
10
10
10
10
10
10
10
10
10
10
10
10
10
10
10
10
10
10
10
10
10
10
10
10
10
10
10
10
10
10
10
10
10
10
10
10
10
10
10
10
10
10
10
10
10
10
10
10
10
10
10
10
10
10
10
10
10
10
10
10
10
10
10
10
10
10
10
10
10
10
10
10
10
10
10
10
10
10
10
10
10
10
10
10
10
10
10
10
10
10
10
10
10
10
10
10
10
10
10
10
10
10
10
10
10
10
10
10
10
10
10
10
10
10
10
10
10
10
10
10
10
10
10
10
10
10
10
10
10
10
10
10
10
10
10
10
10
10
10
10
10
10
10
10
10
10
10
10
10
10
10
10
10
10
10
10
10
10
10
10
10
10
10
10
10
10
10
10
10
10
10
10
10
10
10
10
10
10
10
10
10
10
10
10
10
10
10
10
10
10
10
10
10
10
10
10
10
10
10
10
10
10
10
10
10
10
10
10
10
10
10
10
10
10
10
10
10
10
10
10
10
10
10
10
10
10
10
10
10
10
10
10
10
10
10
10
10
10
10
10
10
10
10
10
10
10
10
10
10
10
10
10
10
10
10
10
10
10
10
10
10
10
10
10
10
10
10
10
10
10
10
10
10
10
10
10
10
10
10
10
10
10
10
10
10
10
10
10
10
10
10
10
10
10
10
10
10
10
10
10
10
10
10
10
10
10
10
10
10
10
10
10
10
10
10
10
10
10
10
10
10
10
10
10
10
10
10
10
10
10
10
10
10
10
10
10
10
10
10
10
10
10
10
10
10
10
10
10
10
10
10
10
10
10
10
10
10
10
10
10
10
10
10
10
10
10
10
10
10
10
10
10
10
10
10
10
10
10
10
10
10
10
10
10
10
10
10
10
10
10
10
10
10
10
10
10
10
10
10
10
10
10
10
10
10
10
10
10
10
10
10
10
10
10
10
10
10
10
10
10
10
10
10
10
10
10
10
10
10
10
10
10
10
10
10
10
10
10
10
10
10
10
10
10
10
10
10
10
10
10
10
10
10
10
10
10
10
10
10
10
10
10
10
10
10
10
10
10
10
10
10
10
10
10
10
10
10
10
10
10
10
10
10
10
10
10
10
10
10
10
10
10
10
10
10
10
10
10
10
10
10
10
10
10
10
10
10
10
10
10
10
10
10
10
10
10
10
10
10
10
10
10
10
10
10
10
10
10
10
10
10
10
10
10
10
10
10
10
10
10
10
10
10
10
10
10
10
10
10
10
10
10
10
10
10
10
10
10
10
10
10
10
10
10
10
10
10
10
10
10
10
10
10
10
10
10
10
10
10
10
10
10
10
10
10
10
10
10
10
10
10
10
10
10
10
10
10
10
10
10
10
10
10
10
10
10
10
10
10
10
10
10
10
10
10
10
10
10
10
10
10
10
10
10
10
10
10
10
10
10
10
10
10
10
10
10
10
10
10
10
10
10
10
10
10
10
10
10
10
10
10
10
10
10
10
10
10
10
10
10
10
10
10
10
10
10
10
10
10
10
10
10
10
10
10
10
10
10
10
10
10
10
10
10
10
10
10
10
10
10
10
10
10
10
10
10
10
10
10
10
10
10
10
10
10
10
10
10
10
10
10
10
10
10
10
10
10
10
10
10
10
10
10
10
10
10
10
10
10
10
10
10
10
10
10
10
10
10
10
10
10
10
10
10
10
10
10
10
10
10
10
10
10
10
10
10
10
10
10
10
10
10
10
10
10
10
10
10
10
10
10
10
10
10
10
10
10
10
10
10
10
10
10
10
10
10
10
10
10
10
10
10
10
10
10
10
10
10
10
10
10
10
10
10
10
10
10
10
10
10
10
10
10
10
10
10
10
10
10
10
10
10
10
10
10
10
10
10
10
10
10
10
10
10
10
10
10
10
10
10
10
10
10
10
10
10
10
10
10
10
10
10
10
10
10
10
10
10
10
10
10
10
10
10
10
10
10
10
10
10
10
10
10
10
10
10
10
10
10
10
10
10
10
10
10
10
10
10
10
10
10
10
10
10
10
10
10
10
10
10
10
10
10
10
10
10
10
10
10
10
10
10
10
10
10
10
10
10
10
10
10
10
10
10
10
10
10
10
10
10
10
10
10
10
10
10
10
10
10
10
10
10
10
10
10
10
10
10
10
10
10
10
10
10
10
10
10
10
10
10
10
10
10
10
10
10
10
10
10
10
10
10
10
10
10
10
10
10
10
10
10
10
10
10
10
10
10
10
10
10
10
10
10
10
10
10
10
10
10
10
10
10
10
10
10
10
10
10
10
10
10
10
10
10
10
10
10
10
10
10
10
10
10
10
10
10
10
10
10
10
10
10
10
10
10
10
10
10
10
10
10
10
10
10
10
10
10
10
10
10
10
10
10
10
10
10
10
10
10
10
10
10
10
10
10
10
10
10
10
10
10
10
10
10
10
10
10
10
10
10
10
10
10
10
10
10
10
10
10
10
10
10
10
10
10
10
10
10
10
10
10
10
10
10
10
10
10
10
10
10
10
10
10
10
10
10
10
10
10
10
10
10
10
10
10
10
10
10
10
10
10
10
10
10
10
10
10
10
10
10
10
10
10
10
10
10
10
10
10
10
10
10
10
10
10
10
10
10
10
10
10
10
10
10
10
10
10
10
10
10
10
10
10
10
10
10
10
10
10
10
10
10
10
10
10
10
10
10
10
10
10
10
10
10
10
10
10
10
10
10
10
10
10
10
10
10
10
10
10
10
10
10
10
10
10
10
10
10
10
10
10
10
10
10
10
10
10
10
10
10
10
10
10
10
10
10
10
10
10
10
10
10
10
10
10
10
10
10
10
10
10
10
10
10
10
10
10
10
10
10
10
10
10
10
10
10
10
10
10
10
10
10
10
10
10
10
10
10
10
10
10
10
10
10
10
10
10
10
10
10
10
10
10
10
10
10
10
10
10
10
10
10
10
10
10
10
10
10
10
10
10
10
10
10
10
10
10
10
10
10
10
10
10
10
10
10
10
10
10
10
10
10
10
10
10
10
10
10
10
10
10
10
10
10
10
10
10
10
10
10
10
10
10
10
10
10
10
10
10
10
10
10
10
10
10
10
10
10
10
10
10
10
10
10
10
10
10
10
10
10
10
10
10
10
10
10
10
10
10
10
10
10
10
10
10
10
10
10
10
10
10
10
10
10
10
10
10
10
10
10
10
10
10
10
10
10
10
10
10
10
10
10
10
10
10
10
10
10
10
10
10
10
10
10
10
10
10
10
10
10
10
10
10
10
10
10
10
10
10
10
10
10
10
10
10
10
10
10
10
10
10
10
10
10
10
10
10
10
10
10
10
10
10
10
10
10
10
10
10
10
10
10
10
10
10
10
10
10
10
10
10
10
10
10
10
10
10
10
10
10
10
10
10
10
10
10
10
10
10
10
10
10
10
10
10
10
10
10
10
10
10
10
10
10
10
10
10
10
10
10
10
10
10
10
10
10
10
10
10
10
10
10
10
10
10
10
10
10
10
10
10
10
10
10
10
10
10
10
10
10
10
10
10
10
10
10
10
10
10
10
10
10
10
10
10
10
10
10
10
10
10
10
10
10
10
10
10
10
10
10
10
10
10
10
10
10
10
10
10
10
10
10
10
10
10
10
10
10
10
10
10
10
10
10
10
10
10
10
10
10
10
10
10
10
10
10
10
10
10
10
10
10
10
10
10
10
10
10
10
10
10
10
10
10
10
10
10
10
10
10
10
10
10
10
10
10
10
10
10
10
10
10
10
10
10
10
10
10
10
10
10
10
10
10
10
10
10
10
10
10
10
10
10
10
10
10
10
10
10
10
10
10
10
10
10
10
10
10
10
10
10
10
10
10
10
10
10
10
10
10
10
10
10
10
10
10
10
10
10
10
10
10
10
10
10
10
10
10
10
10
10
10
10
10
10
10
10
10
10
10
10
10
10
10
10
10
10
10
10
10
10
10
10
10
10
10
10
10
10
10
10
10
10
10
10
10
10
10
10
10
10
10
10
10
10
10
10
10
10
10
10
10
10
10
10
10
10
10
10
10
10
10
10
10
10
10
10
10
10
10
10
10
10
10
10
10
10
10
10
10
10
10
10
10
10
10
10
10
10
10
10
10
10
10
10
10
10
10
10
10
10
10
10
10
10
10
10
10
10
10
10
10
10
10
10
10
10
10
10
10
10
10
10
10
10
10
10
10
10
10
10
10
10
10
10
10
10
10
10
10
10
10
10
10
10
10
10
10
10
10
10
10
10
10
10
10
10
10
10
10
10
10
10
10
10
10
10
10
10
10
10
10
10
10
10
10
10
10
10
10
10
10
10
10
10
10
10
10
10
10
10
10
10
10
10
10
10
10
10
10
10
10
10
10
10
10
10
10
10
10
10
10
10
10
10
10
10
10
10
10
10
10
10
10
10
10
10
10
10
10
10
10
10
10
10
10
10
10
10
10
10
10
10
10
10
10
10
10
10
10
10
10
10
10
10
10
10
10
10
10
10
10
10
10
10
10
10
10
10
10
10
10
10
10
10
10
10
10
10
10
10
10
10
10
10
10
10
10
10
10
10
10
10
10
10
10
10
10
10
10
10
10
10
10
10
10
10
10
10
10
10
10
10
10
10
10
10
10
10
10
10
10
10
10
10
10
10
10
10
10
10
10
10
10
10
10
10
10
10
10
10
10
10
10
10
10
10
10
10
10
10
10
10
10
10
10
10
10
10
10
10
10
10
10
10
10
10
10
10
10
10
10
10
10
10
10
10
10
10
10
10
10
10
10
10
10
10
10
10
10
10
10
10
10
10
10
10
10
10
10
10
10
10
10
10
10
10
10
10
10
10
10
10
10
10
10
10
10
10
10
10
10
10
10
10
10
10
10
10
10
10
10
10
10
10
10
10
10
10
10
10
10
10
10
10
10
10
10
10
10
10
10
10
10
10
10
10
10
10
10
10
10
10
10
10
10
10
10
10
10
10
10
10
10
10
10
10
10
10
10
10
10
10
10
10
10
10
10
10
10
10
10
10
10
10
10
10
10
10
10
10
10
10
10
10
10
10
10
10
10
10
10
10
10
10
10
10
10
10
10
10
10
10
10
10
10
10
10
10
10
10
10
10
10
10
10
10
10
10
10
10
10
10
10
10
10
10
10
10
10
10
10
10
10
10
10
10
10
10
10
10
10
10
10
10
10
10
10
10
10
10
10
10
10
10
10
10
10
10
10
10
10
10
10
10
10
10
10
10
10
10
10
10
10
10
10
10
10
10
10
10
10
10
10
10
10
10
10
10
10
10
10
10
10
10
10
10
10
10
10
10
10
10
10
10
10
10
10
10
10
10
10
10
10
10
10
10
10
10
10
10
10
10
10
10
10
10
10
10
10
10
10
10
10
10
10
10
10
10
10
10
10
10
10
10
10
10
10
10
10
10
10
10
10
10
10
10
10
10
10
10
10
10
10
10
10
10
10
10
10
10
10
10
10
10
10
10
10
10
10
10
10
10
10
10
10
10
10
10
10
10
10
10
10
10
10
10
10
10
10
10
10
10
10
10
10
10
10
10
10
10
10
10
10
10
10
10
10
10
10
10
10
10
10
10
10
10
10
10
10
10
10
10
10
10
10
10
10
10
10
10
10
10
10
10
10
10
10
10
10
10
10
10
10
10
10
10
10
10
10
10
10
10
10
10
10
10
10
10
10
10
10
10
10
10
10
10
10
10
10
10
10
10
10
10
10
10
10
10
10
10
10
10
10
10
10
10
10
10
10
10
10
10
10
10
10
10
10
10
10
10
10
10
10
10
10
10
10
10
10
10
10
10
10
10
10
10
10
10
10
10
10
10
10
10
10
10
10
10
10
10
10
10
10
10
10
10
10
10
10
10
10
10
10
10
10
10
10
10
10
10
10
10
10
10
10
10
10
10
10
10
10
10
10
10
10
10
10
10
10
10
10
10
10
10
10
10
10
10
10
10
10
10
10
10
10
10
10
10
10
10
10
10
10
10
10
10
10
10
10
10
10
10
10
10
10
10
10
10
10
10
10
10
10
10
10
10
10
10
10
10
10
10
10
10
10
10
10
10
10
10
10
10
10
10
10
10
10
10
10
10
10
10
10
10
10
10
10
10
10
10
10
10
10
10
10
10
10
10
10
10
10
10
10
10
10
10
10
10
10
10
10
10
10
10
10
10
10
10
10
10
10
10
10
10
10
10
10
10
10
10
10
10
10
10
10
10
10
10
10
10
10
10
10
10
10
10
10
10
10
10
10
10
10
10
10
10
10
10
10
10
10
10
10
10
10
10
10
10
10
10
10
10
10
10
10
10
10
10
10
10
10
10
10
10
10
10
10
10
10
10
10
10
10
10
10
10
10
10
10
10
10
10
10
10
10
10
10
10
10
10
10
10
10
10
10
10
10
10
10
10
10
10
10
10
10
10
10
10
10
10
10
10
10
10
10
10
10
10
10
10
10
10
10
10
10
10
10
10
10
10
10
10
10
10
10
10
10
10
10
10
10
10
10
10
10
10
10
10
10
10
10
10
10
10
10
10
10
10
10
10
10
10
10
10
10
10
10
10
10
10
10
10
10
10
10
10
10
10
10
10
10
10
10
10
10
10
10
10
10
10
10
10
10
10
10
10
10
10
10
10
10
10
10
10
10
10
10
10
10
10
10
10
10
10
10
10
10
10
10
10
10
10
10
10
10
10
10
10
10
10
10
10
10
10
10
10
10
10
10
10
10
10
10
10
10
10
10
10
10
10
10
10
10
10
10
10
10
10
10
10
10
10
10
10
10
10
10
10
10
10
10
10
10
10
10
10
10
10
10
10
10
10
10
10
10
10
10
10
10
10
10
10
10
10
10
10
10
10
10
10
10
10
10
10
10
10
10
10
10
10
10
10
10
10
10
10
10
10
10
10
10
10
10
10
10
10
10
10
10
10
10
10
10
10
10
10
10
10
10
10
10
10
10
10
10
10
10
10
10
10
10
10
10
10
10
10
10
10
10
10
10
10
10
10
10
10
10
10
10
10
10
10
10
10
10
10
10
10
10
10
10
10
10
10
10
10
10
10
10
10
10
10
10
10
10
10
10
10
10
10
10
10
10
10
10
10
10
10
10
10
10
10
10
10
10
10
10
10
10
10
10
10
10
10
10
10
10
10
10
10
10
10
10
10
10
10
10
10
10
10
10
10
10
10
10
10
10
10
10
10
10
10
10
10
10
10
10
10
10
10
10
10
10
10
10
10
10
10
10
10
10
10
10
10
10
10
10
10
10
10
10
10
10
10
10
10
10
10
10
10
10
10
10
10
10
10
10
10
10
10
10
10
10
10
10
10
10
10
10
10
10
10
10
10
10
10
10
10
10
10
10
10
10
10
10
10
10
10
10
10
10
10
10
10
10
10
10
10
10
10
10
10
10
10
10
10
10
10
10
10
10
10
10
10
10
10
10
10
10
10
10
10
10
10
10
10
10
10
10
10
10
10
10
10
10
10
10
10
10
10
10
10
10
10
10
10
10
10
10
10
10
10
10
10
10
10
10
10
10
10
10
10
10
10
10
10
10
10
10
10
10
10
10
10
10
10
10
10
10
10
10
10
10
10
10
10
10
10
10
10
10
10
10
10
10
10
10
10
10
10
10
10
10
10
10
10
10
10
10
10
10
10
10
10
10
10
10
10
10
10
10
10
10
10
10
10
10
10
10
10
10
10
10
10
10
10
10
10
10
10
10
10
10
10
10
10
10
10
10
10
10
10
10
10
10
10
10
10
10
10
10
10
10
10
10
10
10
10
10
10
10
10
10
10
10
10
10
10
10
10
10
10
10
10
10
10
10
10
10
10
10
10
10
10
10
10
10
10
10
10
10
10
10
10
10
10
10
10
10
10
10
10
10
10
10
10
10
10
10
10
10
10
10
10
10
10
10
10
10
10
10
10
10
10
10
10
10
10
10
10
10
10
10
10
10
10
10
10
10
10
10
10
10
10
10
10
10
10
10
10
10
10
10
10
10
10
10
10
10
10
10
10
10
10
10
10
10
10
10
10
10
10
10
10
10
10
10
10
10
10
10
10
10
10
10
10
10
10
10
10
10
10
10
10
10
10
10
10
10
10
10
10
10
10
10
10
10
10
10
10
10
10
10
10
10
10
10
10
10
10
10
10
10
10
10
10
10
10
10
10
10
10
10
10
10
10
10
10
10
10
10
10
10
10
10
10
10
10
10
10
10
10
10
10
10
10
10
10
10
10
10
10
10
10
10
10
10
10
10
10
10
10
10
10
10
10
10
10
10
10
10
10
10
10
10
10
10
10
10
10
10
10
10
10
10
10
10
10
10
10
10
10
10
10
10
10
10
10
10
10
10
10
10
10
10
10
10
10
10
10
10
10
10
10
10
10
10
10
10
10
10
10
10
10
10
10
10
10
10
10
10
10
10
10
10
10
10
10
10
10
10
10
10
10
10
10
10
10
10
10
10
10
10
10
10
10
10
10
10
10
10
10
10
10
10
10
10
10
10
10
10
10
10
10
10
10
10
10
10
10
10
10
10
10
10
10
10
10
10
10
10
10
10
10
10
10
10
10
10
10
10
10
10
10
10
10
10
10
10
10
10
10
10
10
10
10
10
10
10
10
10
10
10
10
10
10
10
10
10
10
10
10
10
10
10
10
10
10
10
10
10
10
10
10
10
10
10
10
10
10
10
10
10
10
10
10
10
10
10
10
10
10
10
10
10
10
10
10
10
10
10
10
10
10
10
10
10
10
10
10
10
10
10
10
10
10
10
10
10
10
10
10
10
10
10
10
10
10
10
10
10
10
10
10
10
10
10
10
10
10
10
10
10
10
10
10
10
10
10
10
10
10
10
10
10
10
10
10
10
10
10
10
10
10
10
10
10
10
10
10
10
10
10
10
10
10
10
10
10
10
10
10
10
10
10
10
10
10
10
10
10
10
10
10
10
10
10
10
10
10
10
10
10
10
10
10
10
10
10
10
10
10
10
10
10
10
10
10
10
10
10
10
10
10
10
10
10
10
10
10
10
10
10
10
10
10
10
10
10
10
10
10
10
10
10
10
10
10
10
10
10
10
10
10
10
10
10
10
10
10
10
10
10
10
10
10
10
10
10
10
10
10
10
10
10
10
10
10
10
10
10
10
10
10
10
10
10
10
10
10
10
10
10
10
10
10
10
10
10
10
10
10
10
10
10
10
10
10
10
10
10
10
10
10
10
10
10
10
10
10
10
10
10
10
10
10
10
10
10
10
10
10
10
10
10
10
10
10
10
10
10
10
10
10
10
10
10
10
10
10
10
10
10
10
10
10
10
10
10
10
10
10
10
10
10
10
10
10
10
10
10
10
10
10
10
10
10
10
10
10
10
10
10
10
10
10
10
10
10
10
10
10
10
10
10
10
10
10
10
10
10
10
10
10
10
10
10
10
10
10
10
10
10
10
10
10
10
10
10
10
10
10
10
10
10
10
10
10
10
10
10
10
10
10
10
10
10
10
10
10
10
10
10
10
10
10
10
10
10
10
10
10
10
10
10
10
10
10
10
10
10
10
10
10
10
10
10
10
10
10
10
10
10
10
10
10
10
10
10
10
10
10
10
10
10
10
10
10
10
10
10
10
10
10
10
10
10
10
10
10
10
10
10
10
10
10
10
10
10
10
10
10
10
10
10
10
10
10
10
10
10
10
10
10
10
10
10
10
10
10
10
10
10
10
10
10
10
10
10
10
10
10
10
10
10
10
10
10
10
10
10
10
10
10
10
10
10
10
10
10
10
10
10
10
10
10
10
10
10
10
10
10
10
10
10
10
10
10
10
10
10
10
10
10
10
10
10
10
10
10
10
10
10
10
10
10
10
10
10
10
10
10
10
10
10
10
10
10
10
10
10
10
10
10
10
10
10
10
10
10
10
10
10
10
10
10
10
10
10
10
10
10
10
10
10
10
10
10
10
10
10
10
10
10
10
10
10
10
10
10
10
10
10
10
10
10
10
10
10
10
10
10
10
10
10
10
10
10
10
10
10
10
10
10
10
10
10
10
10
10
10
10
10
10
10
10
10
10
10
10
10
10
10
10
10
10
10
10
10
10
10
10
10
10
10
10
10
10
10
10
10
10
10
10
10
10
10
10
10
10
10
10
10
10
10
10
10
10
10
10
10
10
10
10
10
10
10
10
10
10
10
10
10
10
10
10
10
10
10
10
10
10
10
10
10
10
10
10
10
10
10
10
10
10
10
10
10
10
10
10
10
10
10
10
10
10
10
10
10
10
10
10
10
10
10
10
10
10
10
10
10
10
10
10
10
10
10
10
10
10
10
10
10
10
10
10
10
10
10
10
10
10
10
10
10
10
10
10
10
10
10
10
10
10
10
10
10
10
10
10
10
10
10
10
10
10
10
10
10
10
10
10
10
10
10
10
10
10
10
10
10
10
10
10
10
10
10
10
10
10
10
10
10
10
10
10
10
10
10
10
10
10
10
10
10
10
10
10
10
10
10
10
10
10
10
10
10
10
10
10
10
10
10
10
10
10
10
10
10
10
10
10
10
10
10
10
10
10
10
10
10
10
10
10
10
10
10
10
10
10
10
10
10
10
10
10
10
10
10
10
10
10
10
10
10
10
10
10
10
10
10
10
10
10
10
10
10
10
10
10
10
10
10
10
10
10
10
10
10
10
10
10
10
10
10
10
10
10
10
10
10
10
10
10
10
10
10
10
10
10
10
10
10
10
10
10
10
10
10
10
10
10
10
10
10
10
10
10
10
10
10
10
10
10
10
10
10
10
10
10
10
10
10
10
10
10
10
10
10
10
10
10
10
10
10
10
10
10
10
10
10
10
10
10
10
10
10
10
10
10
10
10
10
10
10
10
10
10
10
10
10
10
10
10
10
10
10
10
10
10
10
10
10
10
10
10
10
10
10
10
10
10
10
10
10
10
10
10
10
10
10
10
10
10
10
10
10
10
10
10
10
10
10
10
10
10
10
10
10
10
10
10
10
10
10
10
10
10
10
10
10
10
10
10
10
10
10
10
10
10
10
10
10
10
10
10
10
10
10
10
10
10
10
10
10
10
10
10
10
10
10
10
10
10
10
10
10
10
10
10
10
10
10
10
10
10
10
10
10
10
10
10
10
10
10
10
10
10
10
10
10
10
10
10
10
10
10
10
10
10
10
10
10
10
10
10
10
10
10
10
10
10
10
10
10
10
10
10
10
10
10
10
10
10
10
10
10
10
10
10
10
10
10
10
10
10
10
10
10
10
10
10
10
10
10
10
10
10
10
10
10
10
10
10
10
10
10
10
10
10
10
10
10
10
10
10
10
10
10
10
10
10
10
10
10
10
10
10
10
10
10
10
10
10
10
10
10
10
10
10
10
10
10
10
10
10
10
10
10
10
10
10
10
10
10
10
10
10
10
10
10
10
10
10
10
10
10
10
10
10
10
10
10
10
10
10
10
10
10
10
10
10
10
10
10
10
10
10
10
10
10
10
10
10
10
10
10
10
10
10
10
10
10
10
10
10
10
10
10
10
10
10
10
10
10
10
10
10
10
10
10
10
10
10
10
10
10
10
10
10
10
10
10
10
10
10
10
10
10
10
10
10
10
10
10
10
10
10
10
10
10
10
10
10
10
10
10
10
10
10
10
10
10
10
10
10
10
10
10
10
10
10
10
10
10
10
10
10
10
10
10
10
10
10
10
10
10
10
10
10
10
10
10
10
10
10
10
10
10
10
10
10
10
10
10
10
10
10
10
10
10
10
10
10
10
10
10
10
10
10
10
10
10
10
10
10
10
10
10
10
10
10
10
10
10
10
10
10
10
10
10
10
10
10
10
10
10
10
10
10
10
10
10
10
10
10
10
10
10
10
10
10
10
10
10
10
10
10
10
10
10
10
10
10
10
10
10
10
10
10
10
10
10
10
10
10
10
10
10
10
10
10
10
10
10
10
10
10
10
10
10
10
10
10
10
10
10
10
10
10
10
10
10
10
10
10
10
10
10
10
10
10
10
10
10
10
10
10
10
10
10
10
10
10
10
10
10
10
10
10
10
10
10
10
10
10
10
10
10
10
10
10
10
10
10
10
10
10
10
10
10
10
10
10
10
10
10
10
10
10
10
10
10
10
10
10
10
10
10
10
10
10
10
10
10
10
10
10
10
10
10
10
10
10
10
10
10
10
10
10
10
10
10
10
10
10
10
10
10
10
10
10
10
10
10
10
10
10
10
10
10
10
10
10
10
10
10
10
10
10
10
10
10
10
10
10
10
10
10
10
10
10
10
10
10
10
10
10
10
10
10
10
10
10
10
10
10
10
10
10
10
10
10
10
10
10
10
10
10
10
10
10
10
10
10
10
10
10
10
10
10
10
10
10
10
10
10
10
10
10
10
10
10
10
10
10
10
10
10
10
10
10
10
10
10
10
10
10
10
10
10
10
10
10
10
10
10
10
10
10
10
10
10
10
10
10
10
10
10
10
10
10
10
10
10
10
10
10
10
10
10
10
10
10
10
10
10
10
10
10
10
10
10
10
10
10
10
10
10
10
10
10
10
10
10
10
10
10
10
10
10
10
10
10
10
10
10
10
10
10
10
10
10
10
10
10
10
10
10
10
10
10
10
10
10
10
10
10
10
10
10
10
10
10
10
10
10
10
10
10
10
10
10
10
10
10
10
10
10
10
10
10
10
10
10
10
10
10
10
10
10
10
10
10
10
10
10
10
10
10
10
10
10
10
10
10
10
10
10
10
10
10
10
10
10
10
10
10
10
10
10
10
10
10
10
10
10
10
10
10
10
10
10
10
10
10
10
10
10
10
10
10
10
10
10
10
10
10
10
10
10
10
10
10
10
10
10
10
10
10
10
10
10
10
10
10
10
10
10
10
10
10
10
10
10
10
10
10
10
10
10
10
10
10
10
10
10
10
10
10
10
10
10
10
10
10
10
10
10
10
10
10
10
10
10
10
10
10
10
10
10
10
10
10
10
10
10
10
10
10
10
10
10
10
10
10
10
10
10
10
10
10
10
10
10
10
10
10
10
10
10
10
10
10
10
10
10
10
10
10
10
10
10
10
10
10
10
10
10
10
10
10
10
10
10
10
10
10
10
10
10
10
10
10
10
10
10
10
10
10
10
10
10
10
10
10
10
10
10
10
10
10
10
10
10
10
10
10
10
10
10
10
10
10
10
10
10
10
10
10
10
10
10
10
10
10
10
10
10
10
10
10
10
10
10
10
10
10
10
10
10
10
10
10
10
10
10
10
10
10
10
10
10
10
10
10
10
10
10
10
10
10
10
10
10
10
10
10
10
10
10
10
10
10
10
10
10
10
10
10
10
10
10
10
10
10
10
10
10
10
10
10
10
10
10
10
10
10
10
10
10
10
10
10
10
10
10
10
10
10
10
10
10
10
10
10
10
10
10
10
10
10
10
10
10
10
10
10
10
10
10
10
10
10
10
10
10
10
10
10
10
10
10
10
10
10
10
10
10
10
10
10
10
10
10
10
10
10
10
10
10
10
10
10
10
10
10
10
10
10
10
10
10
10
10
10
10
10
10
10
10
10
10
10
10
10
10
10
10
10
10
10
10
10
10
10
10
10
10
10
10
10
10
10
10
10
10
10
10
10
10
10
10
10
10
10
10
10
10
10
10
10
10
10
10
10
10
10
10
10
10
10
10
10
10
10
10
10
10
10
10
10
10
10
10
10
10
10
10
10
10
10
10
10
10
10
10
10
10
10
10
10
10
10
10
10
10
10
10
10
10
10
10
10
10
10
10
10
10
10
10
10
10
10
10
10
10
10
10
10
10
10
10
10
10
10
10
10
10
10
10
10
10
10
10
10
10
10
10
10
10
10
10
10
10
10
10
10
10
10
10
10
10
10
10
10
10
10
10
10
10
10
10
10
10
10
10
10
10
10
10
10
10
10
10
10
10
10
10
10
10
10
10
10
10
10
10
10
10
10
10
10
10
10
10
10
10
10
10
10
10
10
10
10
10
10
10
10
10
10
10
10
10
10
10
10
10
10
10
10
10
10
10
10
10
10
10
10
10
10
10
10
10
10
10
10
10
10
10
10
10
10
10
10
10
10
10
10
10
10
10
10
10
10
10
10
10
10
10
10
10
10
10
10
10
10
10
10
10
10
10
10
10
10
10
10
10
10
10
10
10
10
10
10
10
10
10
10
10
10
10
10
10
10
10
10
10
10
10
10
10
10
10
10
10
10
10
10
10
10
10
10
10
10
10
10
10
10
10
10
10
10
10
10
10
10
10
10
10
10
10
10
10
10
10
10
10
10
10
10
10
10
10
10
10
10
10
10
10
10
10
10
10
10
10
10
10
10
10
10
10
10
10
10
10
10
10
10
10
10
10
10
10
10
10
10
10
10
10
10
10
10
10
10
10
10
10
10
10
10
10
10
10
10
10
10
10
10
10
10
10
10
10
10
10
10
10
10
10
10
10
10
10
10
10
10
10
10
10
10
10
10
10
10
10
10
10
10
10
10
10
10
10
10
10
10
10
10
10
10
10
10
10
10
10
10
10
10
10
10
10
10
10
10
10
10
10
10
10
10
10
10
10
10
10
10
10
10
10
10
10
10
10
10
10
10
10
10
10
10
10
10
10
10
10
10
10
10
10
10
10
10
10
10
10
10
10
10
10
10
10
10
10
10
10
10
10
10
10
10
10
10
10
10
10
10
10
10
10
10
10
10
10
10
10
10
10
10
10
10
10
10
10
10
10
10
10
10
10
10
10
10
10
10
10
10
10
10
10
10
10
10
10
10
10
10
10
10
10
10
10
10
10
10
10
10
10
10
10
10
10
10
10
10
10
10
10
10
10
10
10
10
10
10
10
10
10
10
10
10
10
10
10
10
10
10
10
10
10
10
10
10
10
10
10
10
10
10
10
10
10
10
10
10
10
10
10
10
10
10
10
10
10
10
10
10
10
10
10
10
10
10
10
10
10
10
10
10
10
10
10
10
10
10
10
10
10
10
10
10
10
10
10
10
10
10
10
10
10
10
10
10
10
10
10
10
10
10
10
10
10
10
10
10
10
10
10
10
10
10
10
10
10
10
10
10
10
10
10
10
10
10
10
10
10
10
10
10
10
10
10
10
10
10
10
10
10
10
10
10
10
10
10
10
10
10
10
10
10
10
10
10
10
10
10
10
10
10
10
10
10
10
10
10
10
10
10
10
10
10
10
10
10
10
10
10
10
10
10
10
10
10
10
10
10
10
10
10
10
10
10
10
10
10
10
10
10
10
10
10
10
10
10
10
10
10
10
10
10
10
10
10
10
10
10
10
10
10
10
10
10
10
10
10
10
10
10
10
10
10
10
10
10
10
10
10
10
10
10
10
10
10
10
10
10
10
10
10
10
10
10
10
10
10
10
10
10
10
10
10
10
10
10
10
10
10
10
10
10
10
10
10
10
10
10
10
10
10
10
10
10
10
10
10
10
10
10
10
10
10
10
10
10
10
10
10
10
10
10
10
10
10
10
10
10
10
10
10
10
10
10
10
10
10
10
10
10
10
10
10
10
10
10
10
10
10
10
10
10
10
10
10
10
10
10
10
10
10
10
10
10
10
10
10
10
10
10
10
10
10
10
10
10
10
10
10
10
10
10
10
10
10
10
10
10
10
10
10
10
10
10
10
10
10
10
10
10
10
10
10
10
10
10
10
10
10
10
10
10
10
10
10
10
10
10
10
10
10
10
10
10
10
10
10
10
10
10
10
10
10
10
10
10
10
10
10
10
10
10
10
10
10
10
10
10
10
10
10
10
10
10
10
10
10
10
10
10
10
10
10
10
10
10
10
10
10
10
10
10
10
10
10
10
10
10
10
10
10
10
10
10
10
10
10
10
10
10
10
10
10
10
10
10
10
10
10
10
10
10
10
10
10
10
10
10
10
10
10
10
10
10
10
10
10
10
10
10
10
10
10
10
10
10
10
10
10
10
10
10
10
10
10
10
10
10
10
10
10
10
10
10
10
10
10
10
10
10
10
10
10
10
10
10
10
10
10
10
10
10
10
10
10
10
10
10
10
10
10
10
10
10
10
10
10
10
10
10
10
10
10
10
10
10
10
10
10
10
10
10
10
10
10
10
10
10
10
10
10
10
10
10
10
10
10
10
10
10
10
10
10
10
10
10
10
10
10
10
10
10
10
10
10
10
10
10
10
10
10
10
10
10
10
10
10
10
10
10
10
10
10
10
10
10
10
10
10
10
10
10
10
10
10
10
10
10
10
10
10
10
10
10
10
10
10
10
10
10
10
10
10
10
10
10
10
10
10
10
10
10
10
10
10
10
10
10
10
10
10
10
10
10
10
10
10
10
10
10
10
10
10
10
10
10
10
10
10
10
10
10
10
10
10
10
10
10
10
10
10
10
10
10
10
10
10
10
10
10
10
10
10
10
10
10
10
10
10
10
10
10
10
10
10
10
10
10
10
10
10
10
10
10
10
10
10
10
10
10
10
10
10
10
10
10
10
10
10
10
10
10
10
10
10
10
10
10
10
10
10
10
10
10
10
10
10
10
10
10
10
10
10
10
10
10
10
10
10
10
10
10
10
10
10
10
10
10
10
10
10
10
10
10
10
10
10
10
10
10
10
10
10
10
10
10
10
10
10
10
10
10
10
10
10
10
10
10
10
10
10
10
10
10
10
10
10
10
10
10
10
10
10
10
10
10
10
10
10
10
10
10
10
10
10
10
10
10
10
10
10
10
10
10
10
10
10
10
10
10
10
10
10
10
10
10
10
10
10
10
10
10
10
10
10
10
10
10
10
10
10
10
10
10
10
10
10
10
10
10
10
10
10
10
10
10
10
10
10
10
10
10
10
10
10
10
10
10
10
10
10
10
10
10
10
10
10
10
10
10
10
10
10
10
10
10
10
10
10
10
10
10
10
10
10
10
10
10
10
10
10
10
10
10
10
10
10
10
10
10
10
10
10
10
10
10
10
10
10
10
10
10
10
10
10
10
10
10
10
10
10
10
10
10
10
10
10
10
10
10
10
10
10
10
10
10
10
10
10
10
10
10
10
10
10
10
10
10
10
10
10
10
10
10
10
10
10
10
10
10
10
10
10
10
10
10
10
10
10
10
10
10
10
10
10
10
10
10
10
10
10
10
10
10
10
10
10
10
10
10
10
10
10
10
10
10
10
10
10
10
10
10
10
10
10
10
10
10
10
10
10
10
10
10
10
10
10
10
10
10
10
10
10
10
10
10
10
10
10
10
10
10
10
10
10
10
10
10
10
10
10
10
10
10
10
10
10
10
10
10
10
10
10
10
10
10
10
10
10
10
10
10
10
10
10
10
10
10
10
10
10
10
10
10
10
10
10
10
10
10
10
10
10
10
10
10
10
10
10
10
10
10
10
10
10
10
10
10
10
10
10
10
10
10
10
10
10
10
10
10
10
10
10
10
10
10
10
10
10
10
10
10
10
10
10
10
10
10
10
10
10
10
10
10
10
10
10
10
10
10
10
10
10
10
10
10
10
10
10
10
10
10
10
10
10
10
10
10
10
10
10
10
10
10
10
10
10
10
10
10
10
10
10
10
10
10
10
10
10
10
10
10
10
10
10
10
10
10
10
10
10
10
10
10
10
10
10
10
10
10
10
10
10
10
10
10
10
10
10
10
10
10
10
10
10
10
10
10
10
10
10
10
10
10
10
10
10
10
10
10
10
10
10
10
10
10
10
10
10
10
10
10
10
10
10
10
10
10
10
10
10
10
10
10
10
10
10
10
10
10
10
10
10
10
10
10
10
10
10
10
10
10
10
10
10
10
10
10
10
10
10
10
10
10
10
10
10
10
10
10
10
10
10
10
10
10
10
10
10
10
10
10
10
10
10
10
10
10
10
10
10
10
10
10
10
10
10
10
10
10
10
10
10
10
10
10
10
10
10
10
10
10
10
10
10
10
10
10
10
10
10
10
10
10
10
10
10
10
10
10
10
10
10
10
10
10
10
10
10
10
10
10
10
10
10
10
10
10
10
10
10
10
10
10
10
10
10
10
10
10
10
10
10
10
10
10
10
10
10
10
10
10
10
10
10
10
10
10
10
10
10
10
10
10
10
10
10
10
10
10
10
10
10
10
10
10
10
10
10
10
10
10
10
10
10
10
10
10
10
10
10
10
10
10
10
10
10
10
10
10
10
10
10
10
10
10
10
10
10
10
10
10
10
10
10
10
10
10
10
10
10
10
10
10
10
10
10
10
10
10
10
10
10
10
10
10
10
10
10
10
10
10
10
10
10
10
10
10
10
10
10
10
10
10
10
10
10
10
10
10
10
10
10
10
10
10
10
10
10
10
10
10
10
10
10
10
10
10
10
10
10
10
10
10
10
10
10
10
10
10
10
10
10
10
10
10
10
10
10
10
10
10
10
10
10
10
10
10
10
10
10
10
10
10
10
10
10
10
10
10
10
10
10
10
10
10
10
10
10
10
10
10
10
10
10
10
10
10
10
10
10
10
10
10
10
10
10
10
10
10
10
10
10
10
10
10
10
10
10
10
10
10
10
10
10
10
10
10
10
10
10
10
10
10
10
10
10
10
10
10
10
10
10
10
10
10
10
10
10
10
10
10
10
10
10
10
10
10
10
10
10
10
10
10
10
10
10
10
10
10
10
10
10
10
10
10
10
10
10
10
10
10
10
10
10
10
10
10
10
10
10
10
10
10
10
10
10
10
10
10
10
10
10
10
10
10
10
10
10
10
10
10
10
10
10
10
10
10
10
10
10
10
10
10
10
10
10
10
10
10
10
10
10
10
10
10
10
10
10
10
10
10
10
10
10
10
10
10
10
10
10
10
10
10
10
10
10
10
10
10
10
10
10
10
10
10
10
10
10
10
10
10
10
10
10
10
10
10
10
10
10
10
10
10
10
10
10
10
10
10
10
10
10
10
10
10
10
10
10
10
10
10
10
10
10
10
10
10
10
10
10
10
10
10
10
10
10
10
10
10
10
10
10
10
10
10
10
10
10
10
10
10
10
10
10
10
10
10
10
10
10
10
10
10
10
10
10
10
10
10
10
10
10
10
10
10
10
10
10
10
10
10
10
10
10
10
10
10
10
10
10
10
10
10
10
10
10
10
10
10
10
10
10
10
10
10
10
10
10
10
10
10
10
10
10
10
10
10
10
10
10
10
10
10
10
10
10
10
10
10
10
10
10
10
10
10
10
10
10
10
10
10
10
10
10
10
10
10
10
10
10
10
10
10
10
10
10
10
10
10
10
10
10
10
10
10
10
10
10
10
10
10
10
10
10
10
10
10
10
10
10
10
10
10
10
10
10
10
10
10
10
10
10
10
10
10
10
10
10
10
10
10
10
10
10
10
10
10
10
10
10
10
10
10
10
10
10
10
10
10
10
10
10
10
10
10
10
10
10
10
10
10
10
10
10
10
10
10
10
10
10
10
10
10
10
10
10
10
10
10
10
10
10
10
10
10
10
10
10
10
10
10
10
10
10
10
10
10
10
10
10
10
10
10
10
10
10
10
10
10
10
10
10
10
10
10
10
10
10
10
10
10
10
10
10
10
10
10
10
10
10
10
10
10
10
10
10
10
10
10
10
10
10
10
10
10
10
10
10
10
10
10
10
10
10
10
10
10
10
10
10
10
10
10
10
10
10
10
10
10
10
10
10
10
10
10
10
10
10
10
10
10
10
10
10
10
10
10
10
10
10
10
10
10
10
10
10
10
10
10
10
10
10
10
10
10
10
10
10
10
10
10
10
10
10
10
10
10
10
10
10
10
10
10
10
10
10
10
10
10
10
10
10
10
10
10
10
10
10
10
10
10
10
10
10
10
10
10
10
10
10
10
10
10
10
10
10
10
10
10
10
10
10
10
10
10
10
10
10
10
10
10
10
10
10
10
10
10
10
10
10
10
10
10
10
10
10
10
10
10
10
10
10
10
10
10
10
10
10
10
10
10
10
10
10
10
10
10
10
10
10
10
10
10
10
10
10
10
10
10
10
10
10
10
10
10
10
10
10
10
10
10
10
10
10
10
10
10
10
10
10
10
10
10
10
10
10
10
10
10
10
10
10
10
10
10
10
10
10
10
10
10
10
10
10
10
10
10
10
10
10
10
10
10
10
10
10
10
10
10
10
10
10
10
10
10
10
10
10
10
10
10
10
10
10
10
10
10
10
10
10
10
10
10
10
10
10
10
10
10
10
10
10
10
10
10
10
10
10
10
10
10
10
10
10
10
10
10
10
10
10
10
10
10
10
10
10
10
10
10
10
10
10
10
10
10
10
10
10
10
10
10
10
10
10
10
10
10
10
10
10
10
10
10
10
10
10
10
10
10
10
10
10
10
10
10
10
10
10
10
10
10
10
10
10
10
10
10
10
10
10
10
10
10
10
10
10
10
10
10
10
10
10
10
10
10
10
10
10
10
10
10
10
10
10
10
10
10
10
10
10
10
10
10
10
10
10
10
10
10
10
10
10
10
10
10
10
10
10
10
10
10
10
10
10
10
10
10
10
10
10
10
10
10
10
10
10
10
10
10
10
10
10
10
10
10
10
10
10
10
10
10
10
10
10
10
10
10
10
10
10
10
10
10
10
10
10
10
10
10
10
10
10
10
10
10
10
10
10
10
10
10
10
10
10
10
10
10
10
10
10
10
10
10
10
10
10
10
10
10
10
10
10
10
10
10
10
10
10
10
10
10
10
10
10
10
10
10
10
10
10
10
10
10
10
10
10
10
10
10
10
10
10
10
10
10
10
10
10
10
10
10
10
10
10
10
10
10
10
10
10
10
10
10
10
10
10
10
10
10
10
10
10
10
10
10
10
10
10
10
10
10
10
10
10
10
10
10
10
10
10
10
10
10
10
10
10
10
10
10
10
10
10
10
10
10
10
10
10
10
10
10
10
10
10
10
10
10
10
10
10
10
10
10
10
10
10
10
10
10
10
10
10
10
10
10
10
10
10
10
10
10
10
10
10
10
10
10
10
10
10
10
10
10
10
10
10
10
10
10
10
10
10
10
10
10
10
10
10
10
10
10
10
10
10
10
10
10
10
10
10
10
10
10
10
10
10
10
10
10
10
10
10
10
10
10
10
10
10
10
10
10
10
10
10
10
10
10
10
10
10
10
10
10
10
10
10
10
10
10
10
10
10
10
10
10
10
10
10
10
10
10
10
10
10
10
10
10
10
10
10
10
10
10
10
10
10
10
10
10
10
10
10
10
10
10
10
10
10
10
10
10
10
10
CELL_DATA 31305 
FIELD FieldData  2
density 1 31305 float
0.060091639314434946
0.054033137421854976
0.2112557120148097
0.12719984615106109
0.1630397824910702
0.17774538404440307
0.17322289020415169
0.22778311387253225
0.15266459738095053
0.1454867211666166
0.25557690595330285
0.2080174133634077
0.14137539472756133
0.2991741363842837
0.11425612850425239
0.1148819753169602
0.020009138028942094
0.03828325831541731
0.12012539120664945
0.10007146101384062
0.13402410035397155
0.0405650294868227
0.09142689664677794
0.07627650249177612
0.27684709670023927
0.04738547410023341
0.05524130179592292
0.42641123517433
0.16982987268516808
0.41009117144994983
0.37916617717717466
0.033102630481269955
0.020389070710137343
0.038988199472121114
0.02555877257640232
0.038488648205304024
0.0324206202007921
0.11370571319793472
0.08496364825611584
0.09891416513714961
0.09090929644685904
0.09291498963354843
0.08855748819863224
0.07486485991945756
0.1689404903890357
0.08404984821506002
0.1251810839979359
0.11697575347396429
0.13255280963712102
0.16284587959215038
0.202745241183703
0.1449259113852226
0.029025626796506547
0.049091722622530296
0.28875400527867356
0.024522988218983847
0.22904596182703627
0.102405942828614
0.210474146764962
0.11925089658525498
0.2506511339297382
0.13977548319401895
0.1626278854063538
0.15531017741820374
0.11561176127566254
0.18118746105023723
0.1585186929879439
0.16664620177630834
0.16986792126991718
0.15114903200941446
0.05945989714644773
0.02694392138222196
0.1635987946201165
0.04500067415413895
0.13918242031852918
0.20859946390460082
0.08015815291163458
0.07508702730082056
0.2664731209918439
0.30170737623317534
0.3101362416461524
0.3153325202786511
0.13408905212057873
0.1520042996801622
0.17331184682297412
0.13601139394179548
0.10869765177155319
0.12926743347761704
0.1500739166631167
0.1253230096097758
0.12053172000086101
0.13528494265557287
0.10090669388644039
0.11098287225817759
0.11544284535227525
0.10583222824630786
0.10569586713170498
0.10479625204656459
0.1604216591006897
0.19508514040610078
0.1972179636390199
0.11898163103184813
0.2384972535463189
0.20982388340945632
0.22871504557701267
0.20922104534730165
0.18325674434424136
0.11868222862808077
0.24221214071614627
0.3248086430117427
0.10839140682121703
0.0605080248772337
0.17466806080599048
0.1058950593465663
0.10837210918669003
0.1014052506428243
0.11205239743758329
0.4456429461188001
0.2881261585364389
0.14613109058524437
0.3490680844992821
0.29085734527701146
0.46915946515519963
0.3680880409145354
0.2913441576014677
0.1618645980316453
0.13167986211983013
0.22964470328700104
0.09634648817840084
0.21534324957509715
0.16878530462524374
0.16992336839901845
0.09832022775356472
0.11395411994228119
0.04792670369302135
0.046593165092123905
0.04641208486528812
0.034604479159158666
0.03477249167488381
0.04344401222262613
0.13495553716175007
0.051451265633940015
0.08473971868785589
0.09353399346966854
0.09172388962716478
0.03637514569726705
0.025661404735487996
0.054540062448640125
0.04413702174945328
0.02683845533985349
0.03582855666746951
0.28658128459673465
0.22944846146583442
0.14590800158168463
0.022502623513070565
0.07652287955167124
0.058931730570512326
0.011463511424025553
0.06346181859102462
0.06012961936479529
0.06685072992104357
0.42813021240649735
0.3013517533384005
0.04138238816637972
0.0370312569530886
0.024126285890907002
0.04184038484394368
0.036734499896808326
0.027679745309301784
0.019112895638199
0.09338473962855236
0.11947196053275252
0.13348702361103276
0.12347441852546154
0.04160314610438839
0.11482168653604402
0.07783446840294303
0.14372127523188263
0.11481478499515221
0.14346259575344733
0.12204916162316795
0.08363648192928609
0.09045780721743704
0.07559655565132119
0.1696121346732671
0.2707820344632174
0.33784219395813475
0.31136063272852416
0.09788136398606466
0.19125399294789466
0.05633561150524293
0.054116023784691464
0.05291810071414343
0.034359384792525885
0.032735728285933366
0.050660985086679634
0.045001125290401386
0.02720046138142923
0.028361160787228723
0.034650152034761024
0.03990886275524817
0.035770972148240675
0.03183589882539345
0.16503642781735556
0.028969374233811702
0.49549284970496016
0.13022696841724743
0.24447501161899046
0.24695135263482276
0.30992993620709597
0.3470077225296427
0.12204848194613287
0.08359781164817716
0.06881562824852144
0.05919196949713133
0.029761198474227195
0.07109663689904165
0.1378908676551706
0.24935303391226207
0.3832999829900622
0.036160781069429014
0.045858258762514724
0.03977353075791278
0.022980659811004025
0.04561194469621817
0.1175459680534444
0.08161065384960398
0.3573531295799115
0.08366374013389483
0.14036025476268282
0.11338794649426455
0.04011582554442151
0.05333488916799917
0.08456982597651697
0.11238387906414404
0.10551245512220477
0.0674514517404692
0.00958897917554722
0.03211621464250531
0.0513182889128491
0.043755346177182804
0.030831873941564395
0.030465436374090014
0.05488616124281516
0.020716506271277427
0.032842572358609524
0.1992199676834903
0.24177695936513227
0.23402920390553822
0.0380277412583479
0.04007775815478961
0.028511721676762646
0.35871364949936724
0.004103784070901631
0.01546034515803547
0.03199448380660026
0.015800568260298454
0.0197636373654506
0.007423789856958213
0.14384670744775496
0.10447715920943998
0.14329308006468733
0.14919344165724685
0.21176741681724098
0.1342282037897123
0.13261607807104725
0.1479810039877362
0.18549778604172198
0.1680524264240981
0.05842112740512597
0.02200685384632458
0.03352836534346182
0.03626967242051083
0.04204001597301931
0.11668663129442286
0.029500588783261776
0.019805734097283638
0.0443328092898183
0.046928463130115915
0.052570759959264565
0.028965962328806497
0.1042909316536878
0.07981504864869855
0.07521113431824253
0.06506892499095075
0.07567060987977893
0.06421298895895804
0.11147177772927996
0.24274416351167394
0.06780703931489616
0.05956973544497597
0.16456847727436666
0.19862889215989057
0.16928252277787942
0.2485763455960212
0.18124882808138656
0.15649472052785215
0.11965425760987801
0.14150989415194576
0.16982719575100633
0.14003541770912675
0.4726075240022833
0.4067732424558226
0.5477519601309392
0.43005283544040157
0.475252144040688
0.591217013077021
0.5917198683197893
0.17174692077199635
0.3134494737904426
0.1736322143105234
0.12860788639922474
0.11138647185032945
0.2201200599454781
0.17345655860985668
0.13073655130862583
0.0560953935597279
0.07901346795925714
0.1799924268800861
0.07692674286484011
0.10750986447959773
0.07863591231758832
0.07070729683144195
0.0946076123040217
0.10002347127935715
0.027504111264985337
0.03651165245505631
0.04630986013961657
0.01923450140821666
0.01637019381504415
0.018023745930587184
0.026670057107987748
0.28368135827421537
0.3265053908751175
0.24414393530941367
0.17311369098156418
0.27862677333809155
0.15273722771805784
0.14698458630360978
0.32112200787772716
0.15424260173690962
0.21459819343639477
0.06874896462153293
0.16746159575102823
0.16760238722074713
0.19737437012949624
0.08508142152041856
0.017041426714368698
0.06929955214971929
0.09822936107423878
0.0694896594512488
0.08292796175496478
0.17096880301578415
0.08034229999424172
0.006741463131796336
0.034065868283697565
0.14181764841921374
0.13244048101276656
0.1254691312364584
0.028472144099741963
0.054109273949567806
0.06758255678333813
0.04317252343751807
0.04361631736603818
0.018182103405420626
0.3625379561143393
0.05988192826978139
0.07011701555473368
0.07062522294611187
0.11328341110171855
0.0505879282891066
0.21784221892259706
0.07845733560352611
0.225368369374759
0.19395050365539274
0.12187596452755585
0.12277637195703191
0.14043557011799587
0.09510333594014458
0.10143064922582987
0.11249945713621337
0.04907140376715027
0.04111874205305213
0.04718512294567136
0.056902666774794906
0.1933431292087291
0.1167662119781413
0.19501712587978504
0.24927989771425868
0.295925911340444
0.25980041821455213
0.02293619986873954
0.1487266515309585
0.08615307245705306
0.06138217385375266
0.07534956620597755
0.0583222450818159
0.03963984566553489
0.020228297143858848
0.16718975386012214
0.17845676076361489
0.161618634336664
0.1572934885167535
0.09918600154341249
0.11345042170866562
0.12535407046547872
0.032297524354680064
0.05151890840169906
0.04871050103485769
0.04567156706748068
0.06536209894779725
0.04002477952066037
0.07762900549241186
0.08262384426793347
0.06959311432514985
0.2945257693728491
0.30573427301847833
0.3293791275685581
0.1225211367040677
0.06105060221749536
0.042829470291455896
0.05236083211364061
0.032426068570827284
0.08251865109256674
0.11100935204092274
0.2972457977287628
0.08993908773580964
0.14887904896036497
0.2263700657611388
0.13258755598989816
0.12517111269087416
0.13433894476774264
0.15123315104778126
0.12455104285455484
0.07406514432706754
0.07727675323395862
0.10165665888610301
0.039928224372188174
0.05063162629282852
0.08722731228257306
0.0857651156111999
0.09006575388414087
0.08875928459151967
0.08986202103434739
0.1385806903692445
0.13618036905157013
0.13312901901576601
0.0976006936213377
0.12936564700159037
0.1261223188736535
0.006631006917315974
0.015459086968748946
0.03423104333425319
0.025317007045056846
0.01146795645487958
0.02011125538599096
0.07451635295809411
0.19190574718365597
0.27993226117313846
0.28461238530450084
0.26600006044723784
0.05927251169770456
0.15923658452071607
0.11216225274785989
0.14497824849195304
0.1367072293775208
0.08185517764634885
0.07870615891273662
0.14268890734957188
0.11190978119989545
0.1074831637426467
0.07053119864623571
0.12478617762004059
0.25538261968041975
0.031108530437643483
0.1375082412305831
0.3159845601242356
0.1913537383851706
0.23031667427825706
0.22151169668265447
0.17424363663312542
0.09416784334528756
0.05246256393174846
0.08633112949840269
0.0722493715385969
0.05172039556834594
0.07924181094353229
0.08368794308924779
0.0796508629941838
0.100057111029644
0.17897840592606823
0.11022619573681425
0.06955812670367757
0.171720994973629
0.1345548201682025
0.11599961422358072
0.16353946450206722
0.09458795182676553
0.14855608209372695
0.0741185278646082
0.3520383981005655
0.08276213638432646
0.07506568028923112
0.11365820124976551
0.033741883236838285
0.03832224091586849
0.16105392390771758
0.11271172754476014
0.047464672138912964
0.05524404918299431
0.04975889079436349
0.047787838528640304
0.03411193953056542
0.02886208727264945
0.048185695770979774
0.08194192095810673
0.07596175716367475
0.06909602439709386
0.12958995473379742
0.04439232139711784
0.1309315789639739
0.0526526633013793
0.055935168660711396
0.08111628348278681
0.1536143519664428
0.2463298516126955
0.27352032091379014
0.12618087909980863
0.17257578092899697
0.17549276140838388
0.15325086605810154
0.03823709001305328
0.04890189800792392
0.07908070585331048
0.09808840766468913
0.09233735306310029
0.059485410365812015
0.05930073299789946
0.03975046257332082
0.05861923532770603
0.13935460097225974
0.103653536173229
0.10263951364419521
0.10464054341916301
0.09697248543057703
0.13332750863879145
0.10636031935062949
0.013236988750711474
0.18182058003568036
0.15525570204224906
0.17105685998111717
0.017326619391672685
0.028089265149037194
0.03536967717233714
0.03418599763726928
0.028069338372178523
0.07986155578883408
0.14004794501526652
0.24936079559891275
0.23328797233068047
0.34690061659117094
0.27444773132868
0.24724659415801245
0.2799998833094619
0.06854853255209044
0.06517237368816431
0.04526272843591241
0.3586032288980337
0.2482089292384486
0.1512923474322745
0.1833193162066342
0.3024850739225308
0.051279696732165404
0.13270486842853732
0.1561649481030992
0.05033718710808625
0.16750852946813297
0.07859649449077
0.07351798588785237
0.06903057606225009
0.044368757049595954
0.03268292846179636
0.06533961805383176
0.07252981211588315
0.1776299217762767
0.1526852872260995
0.1535377264891064
0.15661967409350613
0.1534180963053945
0.13517839810838359
0.1507610066065405
0.0521766998224011
0.13704450264174883
0.10615815087780173
0.1079379645432068
0.10946636689168322
0.050894642911453084
0.0290668123494395
0.12821430909242454
0.41718689762263794
0.14081852651502633
0.1338019565067056
0.27491117654908065
0.4446126382718755
0.44480641068280424
0.5024597589209855
0.3098223236496321
0.4764110232308389
0.17885643083118413
0.19034828085097025
0.15042872850027492
0.07826156470627987
0.1341233257297347
0.1321357019753956
0.10920232411180238
0.11830798821580298
0.1082952172050926
0.1982102343004987
0.1377250908017654
0.16598062999545696
0.13377940375841973
0.06487260144633106
0.10182179151591376
0.3232404306068995
0.13372232313462168
0.17154732568556738
0.24988162310964016
0.09268848417825476
0.1096400884941627
0.08258266243975385
0.1681626476470115
0.1543241068018785
0.11455311893847762
0.19987669862452198
0.11627474807445173
0.509442776187229
0.31415656754143306
0.3599089001300335
0.30119599829711263
0.35588098274085844
0.31379288500776525
0.5176714389447115
0.4376888598929557
0.12369924619670603
0.4150003424403966
0.36826346847115043
0.3827189054290509
0.4318759189410216
0.45859076310916425
0.27419243287551387
0.0303179819883311
0.047965063800279456
0.036705967306520745
0.04812729004947092
0.020484368404181687
0.017779308866549007
0.02853978373072349
0.22244023189794768
0.05587045605696084
0.03821312421189283
0.05142946351614539
0.016851142583381325
0.03997692245163582
0.05591909173300323
0.07029094629104929
0.062008253781809276
0.042752437633753256
0.024600265488154336
0.05440276600156278
0.05957943914427031
0.09379252361073512
0.030060548345566047
0.0303806468521567
0.35360010658626984
0.41690187731864153
0.5573942534159508
0.4988760796758461
0.5237793525988484
0.42440284819158725
0.5458115364082053
0.06909960517197149
0.17097590742062702
0.24155514310162968
0.3914487383826205
0.5796724965786914
0.5130758008309229
0.5218298402324153
0.0787653821766265
0.49782674530794657
0.21650208591756473
0.11066293705338144
0.08331679127088719
0.14267676431086937
0.11408733993770011
0.11735611442508065
0.10927966659456008
0.21652661562290085
0.08040114992582106
0.06957665900372728
0.05728570724967541
0.052512114450547036
0.05690154408146967
0.054584996639651766
0.030050640498671996
0.15603677766791257
0.23536802754850772
0.24607388157895718
0.20861481027594983
0.30676451887528416
0.20971486979811507
0.2287375927459493
0.3599892434783601
0.10768223679576125
0.26961788333528547
0.2606029119508107
0.098556209092403
0.2216237895255415
0.22239617129485525
0.22705167260795478
0.24958538820969536
0.29471328982320705
0.28270424301969954
0.24771573757897208
0.1021429989287719
0.2815117794305473
0.27424369284112865
0.11564834394207087
0.10442496487713308
0.3053439706321978
0.2469951685152368
0.2138497155742706
0.12513221343889772
0.08042884340974818
0.09938735241862996
0.14781925812418475
0.1646080617070191
0.12983295540003983
0.07023604713451422
0.01633597943639229
0.0865540351938082
0.015643559832746873
0.08953628930360688
0.04875707225555103
0.11741548049568186
0.11058170428833226
0.12146204384711887
0.13146791613038844
0.16027001174060126
0.16069094120041535
0.15123034310941405
0.27057012081619863
0.27783489546445606
0.3229611624037482
0.33283192654122756
0.2857638750098238
0.23749544418174634
0.034482997722311566
0.10481453173776388
0.10048046395649028
0.5255351937074842
0.12057351083730143
0.107609390825621
0.07227521310645743
0.012849969567335213
0.047888796767256527
0.03635705382364972
0.18026590823818528
0.032777414932321024
0.13037236957511072
0.3340351862164737
0.13946366093622467
0.18075706262046273
0.09238833603826622
0.06259848913459663
0.0756154765675169
0.20534563453626167
0.12203744199598472
0.06354854891562876
0.21486642135023942
0.09700278318532969
0.07800134983118248
0.07328936474827885
0.0324702009862309
0.04124887908185104
0.1437890986986876
0.10774551365754127
0.16016190625331986
0.02365940289631287
0.18859069652337512
0.0707725947255525
0.10576074414317978
0.09511212151077854
0.12480496780600664
0.1500956836732544
0.11904807542628794
0.24718391700424353
0.10754766819463817
0.12541222355602716
0.13559976187143938
0.060754835588241296
0.13891740250821455
0.09551322735557813
0.08378865549779316
0.10624429392570457
0.08914634784517816
0.05016597213112039
0.03389904031882229
0.24746054006822713
0.027876851233965983
0.05734302169397941
0.17421812733292227
0.09658175933793918
0.07682621890215825
0.12195938444123201
0.12917492833344515
0.20210310322267308
0.17027252481401792
0.1721430772549989
0.20328576086928657
0.20615796661044444
0.11006141620038881
0.16146290555127574
0.1537866331025466
0.041621413704980854
0.027817094666153886
0.0782930224484727
0.05444140514743616
0.038487761961989275
0.14993695179435912
0.041177506406170544
0.0996643437654017
0.06475943274139595
0.07324081642700632
0.04839025259646167
0.02514863560202087
0.15135591794551637
0.09350785509314762
0.21683178832336467
0.1621014128958454
0.07773788832515723
0.05319732801770375
0.08175179742076132
0.03671321717906443
0.056033305360579
0.07526607405646303
0.07827047187195312
0.09385226974443966
0.09478600894946874
0.07647938930612333
0.04356898775243048
0.08331518957730229
0.0517935124855695
0.042953997891039826
0.03296354698907151
0.08137131198868836
0.1274312116615586
0.130929724845267
0.09477532451424185
0.08011643935367568
0.3138987752313672
0.15090001609796322
0.06153450843170257
0.06128922318922339
0.20454601305047598
0.20513121001386658
0.19423930900152978
0.2066105445181064
0.167677046645198
0.1297761734912102
0.23470637471550232
0.19479216988869213
0.19863437527863553
0.07553165493485198
0.06347512132316965
0.07089566723355664
0.08421157952278263
0.06244443633486382
0.11840349616479594
0.05324700618259836
0.10872377734684661
0.09413291393787537
0.09720517215372941
0.07479308395684396
0.14064097824907426
0.11153688682453937
0.16917158199799376
0.3128037772935542
0.34924043221934226
0.2312410028666738
0.27868360180058893
0.21745663955126715
0.1916388487537552
0.19490521887854786
0.2876241429533469
0.3127009156432136
0.1056831265896392
0.16037993123587777
0.1369513784614316
0.06148100593789241
0.1340120764069289
0.10871611059737468
0.10493592965130846
0.09949049986052864
0.147429600168202
0.08977884743774919
0.13301727917608308
0.1016193908052305
0.3195678797773454
0.3148082293835708
0.06271586443908767
0.12282862169630782
0.10430606057226789
0.1462761278869167
0.07531312033360778
0.11657337473450237
0.14804123397101915
0.1528294654489706
0.14138031805979365
0.12500387696885631
0.16787347642205985
0.11546407682497457
0.19938006592200455
0.526843420595729
0.4056252720905461
0.5275892627747878
0.10046933392576361
0.20372602173125431
0.1542564659309671
0.09427335662180109
0.04500223572716471
0.031447827399406054
0.055509283562701815
0.1731391063971776
0.20066334870819857
0.3454183080765456
0.2154170916422148
0.33342408770286414
0.2671295716551191
0.2100627433795005
0.2287938818835166
0.25280806901184694
0.23835127974799228
0.41807812648611464
0.5685311443863708
0.2497487696748007
0.289097415889443
0.27558382633578193
0.3541056967950021
0.2114475984398379
0.3493747970160695
0.4204215520691829
0.3830721537099399
0.35444679575035193
0.0490031089893111
0.34422942187415256
0.3957361889011485
0.36625741523275995
0.3488859897709842
0.3872796523166798
0.4025831410831963
0.0747799692816841
0.10159106971059213
0.06468915083010565
0.11343066943423544
0.07395862010897586
0.09645801433842977
0.06578943503443235
0.07457793486525365
0.05390532706981262
0.223388358865167
0.24444537716566828
0.10583745136165003
0.21498582336079694
0.14109265834338283
0.04432308329509007
0.06960497462338806
0.062051630058462814
0.05346004935905855
0.04959148527067751
0.10159516909379805
0.2291430438367036
0.18389851885705044
0.231484735670356
0.15801519032323666
0.19195441061498436
0.12150807286796142
0.1257356102061347
0.08537256382758576
0.18187445535760027
0.1431056288111693
0.17294572133776712
0.1895788186783782
0.11482029465627193
0.19118496093485254
0.17211206092669543
0.08006986474772342
0.16182969587973817
0.17187802190403353
0.1456285411896463
0.17935734210841334
0.24040944698424435
0.06139396060561578
0.12900403049268452
0.09805697760041614
0.09254796316471162
0.1096390967737362
0.09568667318397903
0.1666950485255533
0.1372607277424544
0.15175337077118223
0.11422519296334595
0.3916746096047525
0.1236536191831757
0.5369180451512146
0.036434099463299625
0.37036214764539066
0.45463546555901996
0.12176461919913734
0.07948670113587504
0.15094957970703868
0.12043786574214344
0.20198353411109743
0.29984363175226625
0.2633447239838595
0.2420025838892787
0.07924724938046933
0.13947905437836566
0.09981745098328519
0.16735772074578445
0.05622445968591472
0.05331672701366498
0.07062374439130402
0.1328847880729622
0.045062445646618696
0.06596769007643596
0.0532615651566372
0.08915411939669171
0.04561555875720236
0.07271410014717064
0.0682933105824661
0.1454105083572269
0.032056386623094214
0.133758448252139
0.17058532260629475
0.24211486779880034
0.16254690231607086
0.07843842320076404
0.1275272028785487
0.1024371630305006
0.16423700991980375
0.1665274900776415
0.07149955206556713
0.13958387936218272
0.09338613030498237
0.10245804904019166
0.2736207086152175
0.30148448536319106
0.22158359666822874
0.10620248370637102
0.20523345501351714
0.17111037741114873
0.15713635055000502
0.1466175621619966
0.172456883630142
0.1522956823304734
0.16279186891010694
0.09091433082574742
0.08939153980998903
0.09876553141095959
0.08776276267099246
0.09477242701297944
0.12067556415568245
0.16410833533034525
0.07373052105049381
0.13651207934391937
0.13681758980084358
0.15694105620770346
0.3685447384559707
0.2327294406806085
0.18295561321129025
0.3326698929620294
0.2904625292771848
0.2440135083536092
0.055572648704861914
0.121081040076098
0.04954432041188251
0.04274795334166858
0.04337698728874959
0.2828574140385136
0.2859235284036713
0.2256878095850496
0.25124118421539815
0.217564739888548
0.18862293792437052
0.18406606455847332
0.05277921524056117
0.07848828511245402
0.024590897540687814
0.08157998902294947
0.07607076352385395
0.09696962789790159
0.12398538735058295
0.2206189387447793
0.2048589024966444
0.28423860646813265
0.22675696855732405
0.30898929206988823
0.23563792561241179
0.07979407101351184
0.20628651514749308
0.007454765821052343
0.030137199272220992
0.1851918733656399
0.1332336136188241
0.19320773946746708
0.14156510971275163
0.16725019619425585
0.19872205045152153
0.09460246326017324
0.07191808185987299
0.11100637660797037
0.05820657959955324
0.08457063917825788
0.06809008372107145
0.07095611222389149
0.03170374000731024
0.031224855968627303
0.04460792248169167
0.10832883078966446
0.08250597053504105
0.047612759874705646
0.2479296498737897
0.23874217818932217
0.147973098358923
0.3321169064904078
0.33382232796029365
0.13715340478390659
0.18329178724834527
0.12969241622289687
0.18999754578844202
0.17128700541659667
0.1071505466204299
0.10461912249877439
0.17491845231317016
0.056874261556711464
0.05356664319562464
0.016623463382115476
0.018324859670027657
0.29605018192409066
0.3158085897153773
0.1844209116100965
0.18884620396022897
0.4411863009226401
0.4301498008311275
0.15912815660079535
0.10460851724269035
0.3467335879872431
0.3756061667291296
0.268914059537587
0.2545280039563864
0.2890131713207576
0.2577356208947973
0.11705152823447022
0.04625917101376984
0.30095921106572254
0.15992324627402515
0.12840733291792586
0.08162484649238413
0.17398790631988725
0.1373126946257715
0.09324243476708167
0.12527368084005447
0.10491420178232504
0.09261177723980211
0.11283868604419238
0.1270709948918521
0.07606448149438111
0.11589257056459866
0.05489818518367638
0.2389436399400025
0.040579840350920576
0.1286624160189989
0.26063255622054293
0.2774384518315241
0.24615109296862855
0.5151798225369221
0.2705772410401456
0.20344328993858754
0.04385257232044415
0.09679095297249131
0.04402458497477769
0.07679488026856875
0.10156774966575163
0.07232965880695995
0.04420158695987651
0.04074688516036386
0.04443707173160156
0.04692231735398167
0.04223900584042123
0.029727958359017956
0.041126447418921
0.03936239423800147
0.2171881787076687
0.3044723238599599
0.26464724072821566
0.2291014803816042
0.16299480436102343
0.20007722960248409
0.1706352895575791
0.07992139900460367
0.22361658274389173
0.083099962795199
0.054823920525181535
0.052714682679365
0.11576994373366305
0.10262617562256716
0.05745129511675292
0.05815079920792973
0.0711271292093526
0.05085522922908159
0.11529444940102201
0.041647377563802136
0.042845407232227635
0.1541847561739321
0.14571335377318614
0.014433828409692814
0.018362276616720356
0.15997937962193087
0.1688934267689478
0.10975998911192777
0.05583635131404059
0.044772456956021764
0.06915693526489078
0.03435076422935015
0.04334059660892744
0.021421686033435472
0.029408348558009497
0.04113624519424412
0.034416882014401004
0.03565604531444809
0.013385385277071608
0.051146480759538544
0.022536274465447252
0.007328352126794559
0.0487908088945003
0.11084935195827945
0.20879832696273887
0.1584451926415721
0.27764936791556544
0.13935797363489166
0.1213631317252737
0.029262728962382217
0.04455985788521881
0.0675296186553218
0.05604413783620301
0.05138820966607565
0.05957977897367571
0.08209895445198695
0.10234501780712793
0.0911469935322231
0.025050036202475194
0.11333918449305859
0.004554019017942805
0.08212028919400415
0.06598388207361092
0.07408169171637458
0.22773123230712677
0.022827369091313367
0.03941193934286335
0.08938975952872509
0.07097528926109248
0.017535356730486947
0.07046821399771223
0.07318889783332613
0.08654917055721519
0.04521816693710104
0.015369013051975404
0.017359975502659282
0.03234777073562799
0.05453842786985528
0.04830713370309484
0.03418853913214354
0.05516863906208654
0.09430114590167561
0.060782431848812796
0.12079970533980439
0.024490246617475394
0.01991902389454182
0.19960387312737737
0.029206985793098356
0.03111904985927158
0.09212964550366272
0.022597531361487684
0.0788816224084556
0.09519834193729132
0.08820873075692773
0.10085952576936082
0.024349042787075323
0.0837346955766144
0.10006938226283757
0.11759308945335463
0.046580557774327944
0.0474111856111939
0.13846270094871527
0.29230705967894843
0.2581884720371
0.16496987371196964
0.09298765072237128
0.15571784266109948
0.1226966992995255
0.1273036645356127
0.19982121542674602
0.15997606197102818
0.24108483052995572
0.015026658271684066
0.017794885739894666
0.1572104880831028
0.18907991315769385
0.08589475090875504
0.1497944215107261
0.12456230426107252
0.14811739835299328
0.06216422118802626
0.04034967730176509
0.6026707181427178
0.4555913132467614
0.4718424245978735
0.02197128082755233
0.013415490254994725
0.014776633716170735
0.0242712722135407
0.025833453580789357
0.023949583259688087
0.01976633205373172
0.01800814091854784
0.01223264865229912
0.07122331567829376
0.02843096439591462
0.030093420807840415
0.1675647542911192
0.11493823157984188
0.10892179165845277
0.06484817692691519
0.06514227569555663
0.1283902864885876
0.08687937823601738
0.04165565169945634
0.02756949369572354
0.0489475626943257
0.06766019110995887
0.05306062525293345
0.1390800759523709
0.05483321098967943
0.1327901481721809
0.12188147257175702
0.10811015749766646
0.12297703475033324
0.15744497550086267
0.09217775253310165
0.12527810323659225
0.11259349935921727
0.3421745592885564
0.3788248794238901
0.46303811116927385
0.40407235847005135
0.39096209330084386
0.14500204863382055
0.1381457248867604
0.3670923953538704
0.1347968818879148
0.30629984671267724
0.1584776258073775
0.1546015205682696
0.15789917634257017
0.21272558536207817
0.15026614104356073
0.19251975546867828
0.18194785592276866
0.037986382223724476
0.03283596097047378
0.15477084308762723
0.03779321833982864
0.012020390780398255
0.012835923676457792
0.03242153271554388
0.09196279517189684
0.055086342493956865
0.06572633425370952
0.031214438794630716
0.2632449003971614
0.21481159233574987
0.09223862475446774
0.09909290270033191
0.1612314088493233
0.32738499809861366
0.19792131642829106
0.29560708712103795
0.21182626668440033
0.24684981414503845
0.16581740711505533
0.19549769003569312
0.2042754617726058
0.045240295273959376
0.08754213270085963
0.12430086658910812
0.13028219116983386
0.03349796549670674
0.05342454020019798
0.14526312394966076
0.03713480799535435
0.05908015738669953
0.022081170999932637
0.036056740023609785
0.07776271232956972
0.1031624773072014
0.016597199613061032
0.06497508973147291
0.15293559961049416
0.277248186897178
0.25655549640985265
0.34851939235820406
0.19705181897531232
0.3911115725775938
0.159132237893507
0.10175722324004907
0.027393937840172085
0.13990630487109587
0.2938513029910708
0.06997060531724492
0.053633743481301184
0.15705930705614285
0.10277695306286451
0.44442810597830607
0.33450662529852554
0.3383176068030488
0.1291017814968457
0.3106357664126617
0.4398757764362806
0.3709134969727916
0.07867880592366193
0.20746082945301417
0.07786781737250577
0.051219493292130054
0.08148701872609924
0.04334650534185337
0.07523460618701813
0.08528438933614292
0.09156461247136165
0.12928399435039986
0.20904633916939414
0.13767800591657875
0.1368293814400286
0.07713855317617309
0.009510781389867714
0.12202916731683319
0.04533584587432038
0.29531911584812626
0.31168579045809963
0.2245514670041963
0.19661331023841205
0.17034707757367032
0.30632292403192024
0.2351994167019883
0.2117164388034158
0.21089538015140621
0.21918571481424948
0.2688493243764859
0.10842206628548143
0.14609725179015906
0.38678933860022574
0.1145867419838273
0.23960404567974222
0.16956930117794838
0.1507736443742445
0.1507468840496102
0.23866115075831784
0.1795138316487133
0.07342656539420266
0.2137093659112184
0.12416014877575363
0.2028653768294884
0.25470771196836844
0.1876416522793625
0.11204770011295993
0.2540800387728314
0.1219252435679424
0.05431551348229154
0.05910171698525156
0.024226425941167827
0.032491336777642564
0.24220776021176277
0.17417341006426915
0.25560343377520417
0.3329092275675679
0.19313359591713541
0.22801739459643386
0.16449439867805954
0.21684129800652652
0.272972416738567
0.35217121444706223
0.2656012040093711
0.17797730692461872
0.17252805386221506
0.27668462833574764
0.08634498945767849
0.025851267505968237
0.050343502284449865
0.14615245363196483
0.10867168801639926
0.09807332965637265
0.11351617973055078
0.28381123485365184
0.21772981821358567
0.23734514342357824
0.24728332622057067
0.10896332526617036
0.622768820387553
0.5934211023255219
0.5195658190875719
0.62515586879634
0.6689582901508103
0.06771643708318992
0.062310045765966875
0.18756446427880338
0.1085250116299766
0.1319798475930896
0.12353188546687655
0.06405786986152333
0.15309088793546874
0.15046455169301906
0.07737871788027435
0.28660346336835446
0.3544224878682297
0.3253914318566488
0.2614050732199574
0.11623719896056828
0.21789747698014778
0.0880048257078184
0.07403605285329849
0.058600186816071737
0.07336709377501736
0.09783044244288143
0.19391356341590948
0.16284035732218116
0.16484070332276363
0.057104030814986696
0.15179735948460132
0.06051591995784076
0.15021517931103204
0.15033568851807363
0.01725947994646607
0.1431119024558977
0.018425549404377854
0.0675551632196198
0.01703476167049747
0.024154565504669587
0.023228131496291805
0.013791373488756933
0.133721578040386
0.15380453185674622
0.09540911229137516
0.07511197880860485
0.08273673322232694
0.10389342566655624
0.42187758819347904
0.4192502483427318
0.09313218584597979
0.33689353861437693
0.07435557607234546
0.17921674704049606
0.2748664293341463
0.3539392960378424
0.3627267730457803
0.328112384184388
0.11098312818162002
0.09831210250787976
0.07549828320302987
0.04385526127734261
0.06134263310128184
0.09943394618301835
0.05625563774844845
0.04701888258856559
0.06769802290280784
0.15610600844212294
0.05908581565251226
0.10112601768744818
0.14989947636874065
0.1634685218692057
0.1632538900867322
0.082601104050918
0.07259979689121702
0.03672121680880536
0.08643953841491843
0.031172921889524807
0.031658317830239445
0.029842485955130713
0.11861991039428005
0.197278643894861
0.08669488908033192
0.08745406202232682
0.10153199637491202
0.266260112721733
0.09374952411981446
0.08778872070598978
0.07505441569162119
0.07504367477388783
0.09120427493447647
0.06498487706232921
0.058963617200547935
0.06545014194734797
0.061986648129923994
0.16277652067560083
0.03602179647225046
0.025080385339686966
0.02018026083545034
0.024984416482965486
0.14398103188630346
0.1499041827396955
0.3043193764674079
0.18724196996720707
0.3026935335656692
0.18478500190982985
0.1633612367294331
0.26808929784583474
0.14486053130964865
0.1521906539275922
0.11889178201387941
0.09659398704902925
0.09654025447037842
0.06263015093962525
0.06261500106458456
0.1148398414146615
0.13417576109834675
0.14445955097660979
0.029949711806508014
0.007347127065761345
0.08168787047003782
0.10415232042734454
0.154946939511064
0.0706136543218185
0.5795940518326929
0.26903855863917686
0.31587269182774425
0.12697366414489777
0.25645357771618166
0.4434920321636111
0.44408248084558616
0.5816650840823302
0.5810873225192963
0.419491233093581
0.5078802542262683
0.12135697822221703
0.18415887646043158
0.16681895297772395
0.22159031223481773
0.15777580129863952
0.14918892515349363
0.15441931261843017
0.07575402475441191
0.11236040860134937
0.12382166783810647
0.16434848523590775
0.09384839430750698
0.2707817341814464
0.07734291050581638
0.08905350787065859
0.20607593586050324
0.10482549974183841
0.05617091274103528
0.032631733879091865
0.4070911724066312
0.0979797572380659
0.07125607024823646
0.038684179449344346
0.04011777919987408
0.07656832434188672
0.1808384881243761
0.33978154485407264
0.029361519780451442
0.14130627191975004
0.08907870998379967
0.21939602053924936
0.2378150337473402
0.4311883491040205
0.08706699107989843
0.0944954585157257
0.04283544455871068
0.035723552115574174
0.04713713916921805
0.033319271450322346
0.030195187876726978
0.028395323321178098
0.06173158007869638
0.15437247090072231
0.0647589190810645
0.06933902893661016
0.10556034407691531
0.26929852220171824
0.21487015246902932
0.2705150341313316
0.1874408107978084
0.28190793841586903
0.0027625702280750395
0.014524668245933247
0.0077703899307503535
0.006762163002867799
0.017658425661235475
0.03337899292599941
0.03651166475626249
0.018692167247823327
0.02020784736950912
0.01630059938043887
0.01686376820638907
0.13239564463768352
0.12908352697609357
0.11820389994798253
0.10243216772420019
0.07335475371756948
0.35401764530299246
0.043920518674100156
0.2009029671545141
0.10894353536050977
0.0554237756288917
0.0434687221469267
0.11403438287980962
0.21579778077477263
0.24694621126649033
0.11278548365883492
0.08430902192618742
0.18415481735080688
0.14969259802695914
0.09723221599751243
0.23621410261114084
0.16633882842440922
0.11192081697468907
0.09836683313646162
0.09128739653030041
0.12388793441832865
0.07795728444397101
0.13890197397635468
0.24119683216134374
0.06442133864845263
0.32050584157022566
0.08242562022164357
0.21673290602744888
0.1682087039159287
0.12278153699544174
0.14262277871309784
0.10590999413903611
0.19879913288876577
0.21291461490404845
0.04374221623576945
0.0833779930906254
0.07514032874002115
0.04683492490382529
0.19138111192363272
0.27007667212042935
0.15141279943629785
0.21153819859117137
0.28379230414103757
0.08187497236959539
0.09515931183331025
0.10330358303990966
0.09529484481465719
0.09901463331757104
0.09499190988298518
0.1052818652916761
0.09890398151084877
0.1011602841466692
0.0945833763413324
0.10258483288930606
0.08787765147129002
0.07917413376664276
0.08355467730334243
0.25382787039411303
0.24552157519227946
0.21240361412724446
0.19882058292741586
0.2598628300018477
0.06801628467784836
0.014624383719088488
0.3161234191900928
0.13625623908833573
0.3094572629807581
0.06920500116791767
0.20783938694130533
0.18718930315184593
0.16641990151945893
0.2033078153318893
0.03207643318107547
0.02457702480121814
0.11198640583180532
0.09822724852988621
0.2288704794611757
0.40848965762746703
0.14435913856684077
0.19875943711093927
0.07948785736149971
0.2463039338569393
0.10636028519057142
0.19954519091794543
0.15222759930901225
0.2526981830511931
0.09203915400509709
0.17344327072520072
0.15323195218937802
0.09188770757557796
0.08392360810934722
0.04314052927992875
0.09551461505498991
0.10485891940742212
0.21222288772931983
0.25780506172683754
0.24467069887662526
0.22846379431477853
0.21578535181395397
0.1724410015212196
0.3379653272253639
0.38018582236905235
0.142911827129465
0.1375156443753822
0.1643044018617965
0.23831677128654585
0.1915772392593756
0.04908297915230475
0.06454959597254857
0.07095406770607379
0.11261527836171852
0.006103370895704803
0.009722919966239717
0.05475731469060771
0.029163954820845734
0.030472532669510204
0.01065742532411133
0.10030117278142685
0.06898871039982545
0.048556051725884695
0.038828216632350435
0.07118835358007522
0.041006994701703346
0.33530986206798435
0.4088966419251681
0.49427887708042967
0.4537349385949825
0.3404271801458093
0.4016115140412284
0.3729906439955188
0.3677361887212588
0.42585812325089784
0.029587525351784664
0.04248694873097966
0.02740930130382236
0.09147972200477766
0.07714089510516156
0.07339902555727792
0.13959575608733835
0.12767376561513696
0.22565596668202165
0.19936033437594464
0.2603214616734004
0.2528481049077814
0.2524750025345041
0.24429261599834268
0.25542189310635494
0.03501175684817939
0.14647172911278514
0.1104580874418659
0.10616371850809117
0.03135193197302888
0.0724177904640954
0.06715677113883411
0.06046209623752067
0.3995207703652877
0.05263514167081334
0.04569430055753968
0.3033152434425974
0.26521089795981106
0.278645202600288
0.3311365207726511
0.31977983613308053
0.040579998923004845
0.1801718463042031
0.14982075228914551
0.3337317410411889
0.14149272780831815
0.12760936866031616
0.046959123458230195
0.12293900282143785
0.03977432892835007
0.07969940341899934
0.06707446429400532
0.03594033491232667
0.030457648313117383
0.06385608953128974
0.05409217831876247
0.26358400763530676
0.07768015433602095
0.2624611870646843
0.25751917129353696
0.2593517479455082
0.11984274652211538
0.2623381639018218
0.2767214977642875
0.31188075865233883
0.46138952902059555
0.2836924567764553
0.3464461989462726
0.4365176524204692
0.4543149823888768
0.4328048132495476
0.408042630093924
0.11227871096769115
0.05988936228379121
0.11686633941716165
0.0779435305541657
0.08856451060645254
0.061267543901602835
0.05376415149329606
0.06000858776039388
0.06473306525580276
0.05181818373530803
0.005300941583093416
0.0702839979082053
0.29237873648575297
0.028505681459899318
0.36332813237079437
0.35470674734000374
0.11871319224610312
0.3380366949942996
0.18483163838189043
0.35025034262311994
0.2903084023394647
0.11288959050117296
0.20916163446278252
0.21280778492507096
0.33320367796846523
0.12166526585110297
0.0362547919816578
0.034585093736376006
0.041618485645514354
0.08272028676977831
0.02487827796499962
0.052551576486931185
0.05233619154584166
0.1013008770570128
0.07078923841602565
0.13003221949895044
0.15054061305772068
0.0925408110284688
0.14246113287501558
0.20266332464591094
0.0966764065828901
0.09912551809854434
0.12931017977694534
0.27484279978391635
0.22486737016167668
0.1321048624284746
0.1315531165587911
0.02539380710179995
0.038019227816433285
0.1102206739352838
0.15930258026896543
0.10555643424904336
0.09418484734206369
0.08670763753948954
0.20937112842827782
0.16271953852868157
0.16596663819215737
0.12803658768823709
0.12687735032614217
0.14180640919308693
0.10174195581562016
0.1481564375590976
0.08860954112216789
0.12141250065380767
0.13989422673435087
0.08642326460977816
0.18613803336111504
0.08665238491468978
0.09861206242411535
0.09579117519463604
0.04480285498465846
0.04129716636493933
0.16605154843392148
0.049073872863523126
0.03242296541415634
0.02344090732362078
0.045153010127532145
0.06495887841910158
0.08861258020129437
0.04479617747569853
0.09831929691558092
0.08696888644099161
0.10553193735767118
0.08056988741774383
0.12793524750393032
0.16705436890477007
0.07477494878378473
0.18038048097638915
0.13881900682888135
0.18378674767916892
0.17802945049176888
0.1437022377230163
0.1401954308522877
0.5090612178492776
0.12672451386411204
0.18072874757960553
0.2615650890445394
0.04159791975854761
0.14698144063740476
0.1120128797233605
0.07317384143729674
0.031015121756459936
0.11173110838248991
0.19026162820242035
0.10858180330042429
0.11778564548526334
0.12973852076146972
0.1835918581050205
0.2305112481631096
0.20047545892589963
0.25014945620368106
0.1431207131489155
0.03644960029816519
0.11605821490554123
0.10929599952185494
0.13298326583864048
0.10563675047336289
0.05793868224929357
0.04516311244987967
0.07388088414047923
0.40492709999011717
0.3846994976995512
0.4532523578921632
0.4240886881381596
0.0415431946714653
0.12612805812623382
0.09340835325811098
0.08869493205690349
0.03516127164701371
0.09331390330001811
0.06721742900178662
0.07805134235605249
0.11668651669245815
0.10500498609115844
0.07896529473201934
0.08513269255252182
0.024493848820849373
0.024213088168533844
0.08989707555390236
0.0706540144490897
0.10620706478295157
0.2042677714854735
0.12118334237842163
0.2519493396762861
0.3077592868188645
0.285447793891542
0.12137742480154091
0.07523321960678124
0.12247213927115067
0.12145830092511493
0.05051519311613776
0.17108445257296562
0.13495172821974802
0.2308304730748553
0.22326931749256385
0.13129688537813422
0.31414134508824293
0.4442875999290941
0.17634006233728666
0.13256922246129915
0.15743440602411646
0.145377132297166
0.13373591064912949
0.3833868757515229
0.15909067752980577
0.28086999859355843
0.14900543676598121
0.08769311221312513
0.0972871555572129
0.15470608738547081
0.06523492159252867
0.07103508811296898
0.16419667111026726
0.11186015977589264
0.09557681931018103
0.05237774430940406
0.13993264123217947
0.09014268610343981
0.05379396135223038
0.058009238550110746
0.0512896584784754
0.11840620798557186
0.14646537488287784
0.08378568499223156
0.18290952787995013
0.17523662663484194
0.08849311453839533
0.10517006632195827
0.12340899753712678
0.12097110364728146
0.11482040138878548
0.24900150951284106
0.07018411037878326
0.22489234035558278
0.14027765845147416
0.24127803666869257
0.29227666560718957
0.2979921044171799
0.1624658574921257
0.07677846570391954
0.23035118941024557
0.22433720888928968
0.2183198681601204
0.14890450277242737
0.1990441440520692
0.19583179046274574
0.21079363190979866
0.1521822415846401
0.08526656720594496
0.1328386239744352
0.11388067215023794
0.10991058627082255
0.13409105581844155
0.2539112845646918
0.13220297391534266
0.08182747674245953
0.040372872805503224
0.08849891361774717
0.2924498044404354
0.06879931682632674
0.1897312670195638
0.12383829671635228
0.03344169317369431
0.19172945834661562
0.16175616428339062
0.02409117702225798
0.22684621631926616
0.3614040661494948
0.1385514748005703
0.0809437264011638
0.1220214933471426
0.31398607018221625
0.06612406383279852
0.16425534052350532
0.22839818551853655
0.11525062385586607
0.16443503215584906
0.10919279513686146
0.14361751709439885
0.07691137112533919
0.14744817429872503
0.172276547784978
0.20805434184932028
0.08443137925336391
0.2137796540841755
0.23106389191586707
0.31041561838523224
0.37941972583963984
0.19452383208869453
0.15032781487761807
0.29115009919037976
0.12121260798026666
0.1378227565181735
0.1532607733261522
0.16638181381063988
0.15518753864797297
0.17094296040032858
0.1729736733595598
0.12234205312511526
0.15913762634679535
0.08627650926802456
0.08666910658802111
0.16298625012754972
0.1696517434104558
0.18025346942958995
0.15038540706163547
0.05872468654028612
0.07041300607591945
0.09375597699677632
0.07460345100382536
0.06130912378040724
0.053359619090804555
0.08576881223838877
0.08466448275844689
0.11491005111245739
0.30118724679126774
0.1733993866839879
0.14089820331294745
0.08260619973890357
0.0412483830493237
0.05171877921451174
0.06613861657225271
0.1473579643239183
0.08020736102953462
0.09860592323902982
0.15452467352389027
0.12609931656171208
0.15025081797779746
0.22817205276236702
0.08194527278172169
0.39828304173366263
0.12233708322510341
0.29421719885104153
0.17183641900901608
0.2277716280683541
0.2527929497454488
0.3385389981568105
0.2335122521664851
0.16656392937512435
0.2281857295736253
0.3011605418535027
0.22353796845456234
0.2050585546911423
0.1814817399777431
0.3092808230437417
0.23185264023244495
0.04059046834716997
0.16909889684269958
0.19773651161192893
0.17923721562539635
0.08944197025397152
0.020680668570645554
0.14072123801099465
0.11858597451299191
0.17950525337176781
0.17474437943501953
0.4158249490959377
0.2488107503131076
0.4287975162547769
0.6392716391347192
0.5242335347346998
0.31476327581121055
0.4607468527368247
0.4441267525423422
0.38379576064160964
0.28133318936638174
0.004687614829398902
0.5449402481399956
0.1655710752801991
0.14610334464979732
0.1968545996904188
0.29094298685659176
0.3435795932547063
0.3070897990656105
0.18279986858497627
0.1484736878345291
0.08950118909059696
0.24052921141673667
0.20376892200694444
0.19826762746861884
0.16739159146637592
0.1296002495050615
0.26290390815286624
0.266022724652386
0.26207661813924316
0.18014133580980343
0.07837221315334468
0.3289909905207317
0.3104259403250303
0.13821657012301494
0.15238662947560158
0.2637695496842752
0.2230432208798589
0.22524235107643892
0.19596354923143988
0.13238172742465526
0.141557847263923
0.07650476660274447
0.12573561881509962
0.03210483688262597
0.12339969159964233
0.12212724961705096
0.10218386086951002
0.0861089411509861
0.03927463445719282
0.042415219756934235
0.07343388883684474
0.06145547608230774
0.09866655958046185
0.053771022511197766
0.049856976214255125
0.3138050241492071
0.18921591451429173
0.24298210072063767
0.08707798566656266
0.2261723817098003
0.18317119460122575
0.10829981854587592
0.02949791313067258
0.06766475028172464
0.04968459625255104
0.04954341432765703
0.09491286859615641
0.0805828839701922
0.0393833347667233
0.04146618222040975
0.12258288665229174
0.08579900285692282
0.11373226549130984
0.17334688321125996
0.11391291828217608
0.10591180852526931
0.2285570354129197
0.08866514809919653
0.17365992891854326
0.12610523717384534
0.15732625914402598
0.2488488081097519
0.21630449248249692
0.16515499339996476
0.1587796605110084
0.10323161018962206
0.1702690237237393
0.09666711475365
0.18042537959634028
0.07935746440698911
0.43848060943368544
0.04188937421685067
0.041677565230621404
0.402715608541087
0.09692467975662433
0.31357620155087507
0.4295804421704159
0.480526501324098
0.3014153658613749
0.29884337507380426
0.2416512910918117
0.27208735770193937
0.33760426221719153
0.38948291404077817
0.22176724943282614
0.315765166925309
0.48444465093857886
0.25562968817276865
0.08891806677125906
0.0515941635052028
0.034127185881187384
0.06670150766400919
0.04096753419813129
0.36335003422446693
0.2204409230697172
0.1421808170942807
0.15321994373628456
0.2792911077398398
0.18126273377739074
0.34063299967044625
0.0806033644483175
0.044854770443131325
0.03573037454813746
0.10516941297561364
0.10289612586282092
0.03925987158365416
0.029403782432296674
0.37491369741648195
0.353620705644289
0.305093431236097
0.32658351355551757
0.33237147428325564
0.3326921402336159
0.0421336724182188
0.03417916971363082
0.02116907643150134
0.02380433460520138
0.07917552729309574
0.1281820562667837
0.12623655524046182
0.04849166628975148
0.14282662188936637
0.07914045516294306
0.09652792553159885
0.21231862564391624
0.05103082117440925
0.12424395183288056
0.1865731532189303
0.13610881228442642
0.14548785442156015
0.006060523721238866
0.02118103507669137
0.008973461073203109
0.08883530724842657
0.07668312099887228
0.05599830711519849
0.1572812331531158
0.09826816280900515
0.029377853188463483
0.029680165306300396
0.027094451956036294
0.017854653111377478
0.01777058719462078
0.045924797713410966
0.23851073050356225
0.27227241682075787
0.25569674468219317
0.19467480611062113
0.12556489477607877
0.036594508605092266
0.11523781211849117
0.05244154494780087
0.04060533063133179
0.0037038914057531207
0.010220610567206585
0.0025297176051235024
0.00480732473783335
0.11704950553987441
0.14255460831586797
0.09679749080407068
0.06951588523562556
0.0998565836570752
0.08623879839154992
0.04610343006641292
0.04147166097281457
0.0544099213575617
0.03318643192955065
0.15347155714687202
0.2458851452278275
0.050557038268842114
0.13742146787146398
0.05052432400505681
0.03560180303825206
0.0868080709908718
0.18090037475108153
0.14380343585010527
0.02639820786236165
0.03518300797076082
0.0750875490559277
0.08095848403612356
0.02740924606041336
0.009980223910691397
0.278832470619714
0.04254484807352711
0.027411199422642328
0.017637115664715545
0.02037613574290017
0.04906073578294178
0.3105863198458603
0.2538919712163104
0.27080351865913854
0.4725510505697538
0.033224740590580865
0.08329575100413757
0.09878646478956722
0.10940866981735389
0.08407240423426106
0.19814230123523546
0.29271904839179236
0.17367914312576818
0.39277037374264956
0.4042408381573773
0.13114398557495066
0.1282855208005408
0.28166405278249873
0.17170738267444824
0.11107304271337314
0.08067137505750664
0.11197482610109441
0.061344909319593556
0.05461871529145994
0.22981178592825352
0.034340389299676956
0.2712923693134887
0.08493862658089178
0.3680683227800082
0.22281719056842514
0.36915064972370965
0.39219059472449763
0.4368970415676816
0.30679867164655406
0.03950731164444533
0.14717410457848443
0.054316332688102355
0.09451825757690663
0.07351089159918789
0.03902296832529155
0.13427546972176554
0.2954422145807136
0.12847490744359985
0.05076491211125591
0.08105486523418882
0.0640180779587812
0.03263318067119506
0.019854751245573846
0.0923315714638806
0.01553551050464081
0.2595076860801654
0.2819634021705146
0.07219912181072112
0.11634881476639987
0.0620683516432807
0.1872559458743715
0.12994648102990333
0.027778014152485698
0.19282467090235994
0.27385708308951234
0.24786065700495283
0.27091847555883564
0.05948555319340521
0.1379128566655269
0.031680523508169085
0.13911597865090647
0.10987411634027934
0.06411869081219554
0.11836441460390987
0.16371157816666493
0.17500458606556774
0.13211947003425237
0.2331308797839068
0.18735313208801435
0.1110901130052447
0.1146117517222892
0.2370323904926617
0.05275494496418573
0.25784185306388296
0.2959618770243747
0.22025814840301836
0.08054203019727549
0.22402293383473015
0.11384646079550907
0.10075245029424519
0.2444622389950486
0.021965762578633634
0.028231797657450514
0.023173074993680955
0.21896607690160133
0.02488365366895991
0.013985238443089281
0.07030393961560716
0.2074333617182517
0.02887280649657592
0.027079103215608084
0.026380550089813097
0.11441728243480691
0.08704058088180533
0.08953830205205648
0.3126413848118741
0.07267887393554476
0.05752153836942361
0.08068779269146102
0.1718174278496453
0.04373559659435379
0.07427197690225869
0.060632977487372654
0.06231840668798289
0.1068755052704941
0.38434212357975267
0.40140965292813835
0.0298461663976967
0.02210343449666484
0.5413921052565623
0.5902624270371374
0.4873152766978386
0.23435580531079497
0.046614215527064316
0.030534208873177454
0.19330996396098538
0.1054888833770845
0.18619343301305655
0.12138984430817945
0.11917378610460926
0.23198937125933558
0.3781075369765585
0.12568877323344432
0.2261528980050058
0.2604061061863287
0.15216223269942453
0.19482670599585694
0.17556838806963918
0.17742206604523303
0.1689826407479624
0.378350998060527
0.24845786337958725
0.16663736780003155
0.41956781737973625
0.02555980720945564
0.13748853907499994
0.315507542007294
0.2890252023530493
0.29759702422039447
0.08033582878580929
0.23633614759223412
0.11281958194646614
0.08854712774426274
0.23326485157242793
0.05759140975752774
0.06269174260710894
0.04146160302303686
0.05375301205469373
0.3675045556911056
0.049280648597158715
0.18617426461098116
0.07953366748851559
0.1221539142054346
0.04341052700897388
0.04194090353742253
0.06038443313356136
0.15739644749706752
0.1424307486829335
0.1416552087903229
0.16747241700933102
0.033201010396066405
0.10163754831897602
0.05418178397073375
0.07571054263268553
0.12173480896368516
0.1302531455800551
0.17110823299827474
0.1120945510411774
0.010093267471340941
0.06833778474703946
0.0997528456343016
0.05829157105747623
0.01768960287436853
0.15305555987050026
0.12258669277080995
0.1447922273316033
0.18667322934973568
0.059942099979488565
0.10345154524577231
0.12516690215028795
0.3328298688836487
0.3089454583913812
0.3566175311614519
0.35821920526106055
0.35996586346651493
0.19161485256261676
0.48474519039526076
0.3599002784936312
0.08881973597833069
0.0573873837528392
0.0774465904543388
0.13906879087809235
0.1881044513829188
0.1474366116567805
0.10171774322400996
0.0770719755759025
0.22376637748919712
0.26022048731144803
0.13617360563358663
0.05369266962158079
0.31224777434350115
0.0842275788012893
0.061081976994897584
0.10898086711469576
0.20822825736325368
0.11959672442241671
0.1384105670979263
0.27046530221525533
0.08764141117837473
0.11567898269935392
0.08046356540624226
0.1225635409514685
0.24177075566469483
0.09938843258910367
0.027039647894873287
0.2614442063382739
0.1330866713744743
0.29270179657363204
0.020242562956427467
0.040283066720300055
0.14143834827919255
0.029443197739831197
0.08187075006729179
0.027285537790085784
0.02243112207610234
0.2555675238846151
0.01947441982771215
0.018244735757250642
0.05068636842125328
0.03304022276751817
0.024983648975559318
0.17653916761574823
0.13620795982068623
0.248461982467674
0.11009289735799765
0.1276052761938014
0.21577276035035375
0.15806153584062363
0.18675447127838532
0.1776245721661219
0.1034338919548932
0.0899635420932167
0.10497660994836487
0.22273344614845375
0.32771906901958664
0.06729021910321976
0.14805538511893082
0.016939230398618745
0.031882282620299754
0.03955536303587063
0.15355663310301546
0.2231569917462304
0.0736146549335615
0.03393028355727972
0.1592238751731277
0.03197373121329582
0.06543342228480968
0.12439404116958991
0.2676880356068414
0.006027230552934547
0.10653407704155819
0.20491391168196713
0.12093048126566067
0.07612308398920088
0.05709390278690463
0.24897474980126108
0.08235741144904042
0.15484848298522083
0.5722739821888514
0.25849295113888937
0.1052840786494437
0.15714696658401367
0.03879526272035548
0.03854195461703939
0.03896978646937897
0.16425059253922064
0.035845655582969746
0.0362842759588053
0.09343634837695942
0.04671315535465624
0.04691549107843467
0.48834227389489326
0.04212423071123447
0.04754793328915664
0.007668241665548498
0.15450310342366874
0.11884009256034327
0.05947482804851838
0.16978367789398877
0.17256867431905695
0.19608598994087054
0.24776393253077897
0.02761428304419199
0.03784027472919456
0.10150508588750964
0.1675502116457978
0.16277435337666152
0.14240549212483167
0.15826716733925913
0.1794700317316699
0.023769831115238154
0.2900938457329209
0.03795959359483063
0.05582101444424176
0.08705467679512623
0.22197623839984718
0.04472671925291248
0.3854054329435142
0.05747353561677856
0.4256285805762949
0.2647393270090473
0.3051891040017642
0.4964418358213152
0.16871833633232636
0.06269969692833863
0.11898876486595415
0.3158203012417794
0.15185719119455565
0.1581114077892642
0.10260817833798047
0.15215593331523034
0.1622556502540621
0.25293139096452244
0.18392732437997242
0.3941239853096428
0.035474041582798155
0.03636982133460046
0.04118634927098294
0.05636051463348252
0.04582522221211117
0.09835521365101371
0.03705234056713279
0.036315286101226925
0.12240223095799117
0.0709107026759131
0.018328853867987424
0.11534781201687361
0.07454404499756638
0.1552422562240258
0.07769909983624132
0.21557278815776715
0.19032365931677647
0.19582802835467567
0.07408924254033634
0.27633922140834505
0.14639066663649739
0.052608688533989575
0.09738192578296886
0.4132293430546944
0.11718499151199262
0.05646132080362531
0.1260958912803479
0.29551613703622664
0.08014926116972847
0.33195968348401483
0.10487970022320757
0.16156649883347776
0.32526386376397615
0.417058992711396
0.17782086036411376
0.10275585868252604
0.02538729067961527
0.02570808011710728
0.19224456633180304
0.02898719864761908
0.03546516173946379
0.105607575953421
0.18861098851756827
0.031688920710899356
0.03378296588986506
0.17859538306617012
0.38903717581767305
0.05323223058482634
0.042749811634765426
0.13812791245536987
0.24065961926595653
0.09386758253147683
0.3316788690295516
0.4128646818463281
0.12030092157404391
0.08225460474667627
0.139917048919198
0.1579574125913823
0.08097697857310947
0.05875828867396381
0.1878080620351734
0.1622799056186246
0.16448413086121164
0.13033768326256387
0.20386790142982217
0.0662040869170484
0.1296940788782422
0.10704337358614141
0.07165131390749896
0.1137199837347975
0.17301577927012135
0.18981227662382524
0.07498297483916257
0.06683158012670883
0.10234657553560549
0.02398633975929835
0.08970680404997844
0.10852036272039346
0.22411971326137917
0.1284325242636551
0.1818359101417274
0.08111341513788678
0.129854112503537
0.09526345662214929
0.10607798446944276
0.2480708762051174
0.13710545870556465
0.13023880323602166
0.172947475481069
0.29351275181713554
0.042330611411689985
0.2386792012050875
0.17542209489533053
0.08858889878614039
0.3532486444774229
0.08432688313850964
0.21571392944173923
0.08927585754906614
0.05793521449776449
0.06245477951270516
0.05157491242492672
0.1266765668320177
0.08237946091377545
0.3552768816908359
0.2591732550870803
0.090052254365073
0.1936069843886178
0.16636665034752024
0.2253515721255051
0.0511256308692052
0.12486873140172747
0.16664752432428614
0.3532131825080473
0.18473737207882676
0.11075302088668164
0.10166472442326335
0.26708999258915644
0.27813919555953104
0.10682970238084158
0.38960479377984253
0.24484709801056864
0.28403954724178065
0.22071518490118075
0.16646119973212722
0.11560514126531858
0.07785848335306192
0.11820005141202083
0.010148528602561817
0.07861062976820293
0.05864608387185033
0.16192369545260163
0.09985204950400427
0.106295828470995
0.15689130662958725
0.2313760038920576
0.20709543099682032
0.19099912701429014
0.07239002574613118
0.06065394587364148
0.05279414368567394
0.04260485089407054
0.06222074301727847
0.43597899731903544
0.044543525013725
0.022550436901360455
0.03740011825313417
0.33212790819285504
0.20715946996430445
0.4259816592990213
0.14359784712573925
0.26964908903051404
0.004109247068979852
0.26810409404292246
0.22301434942017145
0.04675584859660394
0.1748352643512612
0.44099235014087873
0.18621456304053838
0.2508416621789097
0.13562262081104334
0.05960211908197694
0.2544683985627062
0.30990871263561176
0.07766930548196274
0.04517434056810521
0.1758235860458908
0.10278695814089242
0.19804395106663422
0.16166314418806613
0.38897123540496964
0.1412089207370159
0.46570148213586404
0.17826606959598504
0.23407457877935903
0.14216762461995466
0.2968823352260328
0.2602249726162492
0.08537316398565267
0.09951757158755128
0.026204691966877244
0.06841965153442346
0.22623370461568365
0.19807203966171935
0.08499922971900993
0.1920083574186433
0.09397265285534405
0.11416262433752628
0.08429723987277553
0.020420832698918586
0.03607691801004712
0.22053260217429585
0.128764662149686
0.022994818770012963
0.1295972387420496
0.09265355666352196
0.20822365770694204
0.1651672274644691
0.025518792619037996
0.08812619643247403
0.020384094662789443
0.030270054087209713
0.13906945101692642
0.119566589651058
0.14519495638748428
0.3791175296569928
0.14071737327668898
0.021585248300428694
0.04684227741319443
0.12152345225129008
0.2019126621320597
0.15840050978214285
0.19770612295036122
0.18093839165663375
0.01837719201722374
0.22160424602150797
0.0509556828969982
0.29557658655996566
0.15835139297265363
0.1577911600883895
0.18836980276407192
0.06234994868531392
0.3383606940322553
0.13233608860315194
0.10085499901777137
0.07294988956637936
0.07454614977110417
0.17222526057978538
0.13236368085514247
0.14169777493784166
0.0607468704379725
0.31453315820648176
0.10577448081062711
0.13451087675293105
0.07152996347236815
0.11329535558966768
0.0831253833196684
0.13158880449307994
0.17439000913104408
0.23998605439165907
0.044567848626568776
0.14378003869461217
0.2920608926085783
0.14351830177560296
0.2616891290207795
0.13536507301508371
0.10065388854416503
0.18528145002302726
0.2559689599759705
0.27321694961231524
0.27842447512943824
0.11497974909856269
0.03120356677925128
0.03804662501312249
0.0925668354324222
0.10718363597731098
0.03025253542201766
0.10379783972372389
0.07272835729981153
0.053934461765579665
0.12587645097565772
0.22459983478409126
0.09246887983597747
0.057233336474510094
0.10999071089068332
0.1022433818262433
0.19567736393414167
0.13965731961650404
0.10577079466738405
0.1529271275636514
0.21647657040770849
0.29623955521042905
0.0497825097264392
0.15863859747281528
0.03301163881228751
0.03454986320265236
0.02935095928628693
0.20448794995088923
0.05730710655071709
0.07293685610235126
0.15889246975693258
0.08691147636386394
0.08158116921991004
0.09998337401547189
0.10308706404129894
0.10649772745842204
0.10786758533544775
0.05326910602424877
0.15264393004027701
0.23102354770916161
0.0886371384342147
0.03272622826019629
0.04548065008924354
0.25530199017224914
0.16078272963868245
0.16551508226031536
0.3882246721393468
0.2564042788613589
0.06348320110348035
0.2357938520062829
0.1247913532302148
0.14966586733883322
0.2157906172422032
0.238339330630991
0.060274328825681386
0.12580925798490752
0.07006812246201484
0.09053740104303164
0.2519930794505233
0.06679484544209681
0.10889627689172794
0.24449531094069787
0.036387976900043965
0.29025487227601704
0.251801051623287
0.14268897887905485
0.05293578533371161
0.1927893171462625
0.06570505631640378
0.11399608870348085
0.17030142248143457
0.2323082146371704
0.07683316138759964
0.07275686096668536
0.20136282836601374
0.245987831037921
0.4178181510756088
0.18142515897402897
0.3476644711553905
0.18722725560406997
0.10893419184201261
0.07297209937601566
0.04048542626895647
0.024099140480454036
0.08446962421412758
0.06572876631333034
0.030580717949897276
0.2569664542058988
0.080302199237794
0.18795177037047653
0.31941607036837927
0.07012923472831846
0.18453129073119084
0.3849920624222171
0.35204244544428576
0.04171040411702136
0.056452090016251684
0.10450680836067787
0.1212357281180232
0.12092627833533681
0.10736143106258908
0.08346703782748155
0.06428032823171198
0.28437948481132974
0.32473187887228006
0.3009229430760653
0.13656878637798597
0.021233282167374405
0.0332508166582429
0.012644083749314059
0.0406212896193991
0.2388021702457316
0.2658989604840205
0.06797633311897736
0.2191604820359799
0.06855510704065564
0.016465548984766862
0.0713901724302762
0.20412928827267438
0.15805728330379967
0.19139445648792425
0.10686955935604182
0.23867730259169587
0.22399340918374827
0.3182559475220145
0.1077688103424397
0.041636206275100306
0.26286711060069073
0.17938313944107315
0.17733322758861886
0.08070457917294935
0.06322126755460815
0.21629722426246378
0.24390724818964468
0.22460098717710703
0.2934950815761114
0.25252290128597205
0.3726171206916847
0.2162925477344651
0.1807234628380362
0.04601417425976236
0.34976669539604377
0.37195725649726086
0.3991552401876202
0.3047231291712828
0.10462965038643261
0.10028098049620045
0.037280560747849155
0.026940829723590944
0.10714507110534717
0.059068071119920997
0.21752313002101115
0.05039872210682048
0.08509626389284553
0.09462372018181613
0.12005253172895251
0.0831421187119347
0.03688768360004168
0.03626105882532163
0.07364457362028487
0.30710360552227023
0.24870499307686703
0.13338512024392865
0.07816793755623566
0.07542441404298678
0.08591283064972734
0.055339584908474224
0.20403310840343206
0.07704109179161027
0.2627578870536986
0.2507918960263022
0.1416756648062752
0.23246301345579992
0.10802722366228298
0.3564726852436084
0.10841823729168241
0.27290081914319814
0.2919119722832612
0.19070873722664733
0.026672001960283062
0.04451794321867039
0.14316951103919207
0.3017663725235356
0.044287341774633004
0.21090172133963522
0.1671135965031355
0.1654112148601961
0.059837413642745925
0.21870327077254292
0.05187340752935681
0.2132312954863831
0.1177891667455832
0.11571266921557673
0.23459415692605648
0.2968891799711816
0.16731706376363611
0.04767854346058678
0.04413642271013046
0.035011728791579086
0.2007945521485716
0.08928143314392971
0.09260303094757401
0.04524745647927541
0.023598873263210467
0.09499919405310182
0.3749785284834641
0.5621890244800561
0.03404257380713477
0.13634578493438587
0.24890848223398324
0.1443571818413869
0.12710397360685147
0.21348059771548622
0.09924837236143862
0.12482247057876202
0.17739310345311343
0.15872804207251254
0.04181567629215201
0.020098710671484284
0.19707022801220084
0.25533337610027257
0.15361668270270196
0.03061700465565292
0.02585959609942927
0.25212121050866076
0.022692272739536466
0.21201003324751388
0.019537250427967303
0.09350452095694316
0.10575390244041727
0.1713420518766296
0.2584600819233978
0.058603618576968025
0.32656768647581
0.41104864019909226
0.08755475909921732
0.0644446124955178
0.03490686624094423
0.1496616041859003
0.11857045084093301
0.019420664456193754
0.14471526965605866
0.09657745456338349
0.06796875371015643
0.09096384838529925
0.07272227740654852
0.31696518245282784
0.09055087894907977
0.1266310803586354
0.10021963264227131
0.2709560675846873
0.0714743803990994
0.16768374633955443
0.06370200454044841
0.0321859502246641
0.048873433056772476
0.04003566603813854
0.03162021173386454
0.3121087178681786
0.2718034742729401
0.44336753702324977
0.5429215830103091
0.1495043447469554
0.27827079394525406
0.05686229600545271
0.19089586987464502
0.10789170994999214
0.25104910497728433
0.19793210440628833
0.1185697075293982
0.3059684425981062
0.15589816527333786
0.0772372817989624
0.31738914993246964
0.11196497832090721
0.23809763903423503
0.2966746238127322
0.006343069751429244
0.08571357320937527
0.3960570480714319
0.45522981669260915
0.04718361386264351
0.11376243861290895
0.029717443498516488
0.0189781287598193
0.04768786621085758
0.05013850462651833
0.5125768569872194
0.19680546041931746
0.08868257347990317
0.046500706420200676
0.06725379034896875
0.24177549885404392
0.22020882032509312
0.07673853061610528
0.05468614457627677
0.06518530951745359
0.050371094109676745
0.09948666309646723
0.11459063742129909
0.08394554869575255
0.1786545768922294
0.13877820297428076
0.13402337667485367
0.23511945643922302
0.23878325689025082
0.22728864229490256
0.4131297344142585
0.10705084685451043
0.39201823520273055
0.05135020836599099
0.1350739281924341
0.02002269425203483
0.24825525706582038
0.24252033094008887
0.2188726473142796
0.17749196205069911
0.10801678015620136
0.1976423871932143
0.24769384629976413
0.23406491218506528
0.14951169596573544
0.03482411958686833
0.3128666926646385
0.05731328725747774
0.08067763632616134
0.04189160808926593
0.135543872678906
0.0749843440869362
0.05113812878302403
0.07551865367877483
0.12264555155748369
0.05671591561435498
0.05673355662603906
0.10748386122429696
0.035314618641770004
0.30998118139088743
0.02063986332470072
0.06743276333250092
0.0640052789607768
0.42998951352499676
0.06555267461716777
0.48627443511061236
0.39717857079209373
0.08453818004089887
0.5210338917569982
0.24620688734761353
0.19469001917087375
0.1408402974976745
0.12576868515929357
0.20697414290270127
0.1965225405684665
0.1133087122140422
0.18094101012055427
0.23880426045907752
0.2997332964554511
0.3743536692069999
0.1483251695175185
0.04873588741301365
0.0630605201748487
0.03529212831203552
0.36288043168359696
0.09057501648490457
0.07491908888130186
0.14697977388141156
0.04641059254050711
0.05623050248635227
0.27882606155451717
0.32844756454738355
0.029545560640319254
0.22752041640123674
0.1568786611842128
0.3251327716781325
0.24667092684598407
0.11539972912512171
0.10124880691043209
0.055815048362532364
0.11351200558578949
0.20032947884127633
0.052214705164550325
0.0256655818635907
0.15523224680400205
0.21852716520407153
0.1227217079566742
0.09175321261513394
0.10428581076471004
0.18164437071106027
0.19630188223580122
0.13733074591907027
0.3603428331420423
0.2745132554789983
0.22655812494853472
0.04863617246066476
0.26073629325270753
0.047759444852725964
0.12490721111422624
0.05035590480305846
0.1547886353446305
0.15247775849616466
0.2401595998067596
0.11140923764231432
0.383023075803943
0.132161047237002
0.2323511588579072
0.13297912147816837
0.21396693362784086
0.19465214784851112
0.09213397720788481
0.09937420739692586
0.34850518589582413
0.19246241812551665
0.1638817847187962
0.2416835592272265
0.14492370264194546
0.15757589953158457
0.10299349641918673
0.3181444824266432
0.17626956705889388
0.11593985373330903
0.04371769075544719
0.3156844789842398
0.021846089508228878
0.07509885990870253
0.011530351169298101
0.1623687869088429
0.030917064791435803
0.09872386044472756
0.09429245511564861
0.04651115086091766
0.13392995792906326
0.19041291798953666
0.07584503617263826
0.08644025771847146
0.13174699226228073
0.25368333290314915
0.03034815916343033
0.2050330933192762
0.10509613460246885
0.22624314356010536
0.332363604670595
0.1520273970627692
0.1011871612424395
0.271131546654512
0.2680258140378912
0.1969116769491362
0.06972649032751758
0.1651920217126532
0.22867461058051824
0.12778946705924585
0.11565318532845788
0.18602377967819894
0.05288563147927094
0.21898775903123002
0.23390432119592536
0.20432695980390136
0.19233069775283207
0.19543994568027903
0.15602620229101008
0.03799326357709495
0.25918424445142013
0.23384915212761623
0.14005168028087114
0.14701493023023482
0.2613864691507386
0.346558888661697
0.09230404263295972
0.26853538919777065
0.1265632440299246
0.15982536222336818
0.2273295505755577
0.30236482787258556
0.27863405039053324
0.47528950474272835
0.23432120781606963
0.20665212354879672
0.12930253115169393
0.149994388568543
0.2196794588076447
0.09237501315190068
0.153229085795012
0.12569043967596513
0.27513656959139354
0.022359518360826964
0.1655569386866426
0.15763974505817893
0.09324627218911032
0.15914577281971892
0.2271461868411235
0.16326400735545415
0.047735015311495606
0.10195824271873119
0.11540010721916867
0.0478260598121514
0.1964221784090668
0.26937609527952827
0.09495145539949443
0.21665727789237077
0.2525042319087998
0.2688638949789577
0.165524916576346
0.2264611444273083
0.11750561954838754
0.25754305213964407
0.15754361035441306
0.15789872523582596
0.16496382711158808
0.14831591666165392
0.46869970567065
0.25496509162714714
0.1171015719470674
0.27055427035212315
0.15130074751621675
0.1875384739226846
0.30718340331372174
0.060338369209050655
0.017796107082536847
0.07039837682978328
0.07281463504401757
0.16861343643534152
0.17553918116847353
0.21520656052852857
0.10055520402447972
0.13586913509142745
0.1639988280344437
0.15236013053227535
0.06931680533005453
0.11202095597212218
0.08409653255076563
0.048055895921369676
0.06627073416065954
0.11960102310600344
0.21355533668807
0.08315624239152711
0.08988400273444255
0.02637140467929601
0.06810932956021903
0.031525192429211535
0.09567510832964699
0.07481149516424693
0.10582237859680559
0.18182234786343074
0.11752707832864205
0.2653383803776764
0.2621929923877644
0.035419374302733765
0.12682096851227354
0.08228463610832124
0.06659629901492402
0.0702302307051783
0.1909711012672137
0.09034930711039711
0.2787796300271545
0.28618940782233143
0.062092674726454314
0.11757664584112168
0.2172733175164199
0.1348804899851364
0.29813082902989924
0.059340121507166416
0.37740996725110354
0.13135042105974337
0.11461783055266253
0.10258014703850399
0.14330960973508128
0.11119304919560553
0.01772032609492525
0.18174480961454062
0.09543546895710565
0.12387972541013187
0.12973032427490144
0.14788049058467856
0.056718564561105224
0.1446063331472077
0.36126480760272367
0.2357330441926541
0.22697859543728502
0.12445742157151167
0.20943001471464925
0.38989442302492666
0.06815498889735959
0.18046576922971871
0.1323597200130576
0.10028773944366166
0.07419651401511553
0.042820538743819886
0.3385569837686193
0.09964300947126688
0.10930395567157765
0.09610614700988246
0.04254855689997123
0.07537293847672238
0.4105413699674861
0.08127870147652261
0.08034665022867546
0.04390226583040657
0.014956478075956021
0.0655386068276221
0.27116285229621057
0.18210275971422732
0.049005278098166294
0.5001168554659348
0.057743571545971296
0.1018939806362133
0.061289881385943726
0.10686021338147347
0.042511777405085556
0.1301766128013931
0.14953590140443546
0.05186440865575646
0.12335039146858628
0.03543517527404501
0.18499635147434187
0.1332149818700178
0.09502459898806
0.11404958174053335
0.14136032872292864
0.25057727283353554
0.11140299276439608
0.2900688429326752
0.2674506206853061
0.08736235843484329
0.3555911583035519
0.3215303572362715
0.4203038817041569
0.24141252856532613
0.29901965732101365
0.1820379073342279
0.3860720055304887
0.4766287437480734
0.11721446907639292
0.2168814344736463
0.15775452890571864
0.18955681807451077
0.25094358731694166
0.0652189794847696
0.4994328758530869
0.13122939685069257
0.09369990123107268
0.1378322795377018
0.3529433430526784
0.2598753175136886
0.0652718134148429
0.08164742586149397
0.07193600622110326
0.29700994287631954
0.4068115941821648
0.044565305390502616
0.11733109212178446
0.14721122596357913
0.1379557168313955
0.05639068553183094
0.09943317547389142
0.16300457574714997
0.08993414281657351
0.15892679972939794
0.08950164779968543
0.20534177117321475
0.14441248484060756
0.18675541880764712
0.020643657999518856
0.03720033230021062
0.031275387547510025
0.021092117104603614
0.13160104869844624
0.1938872882058845
0.040808092005803265
0.03490309722444778
0.024744986174419246
0.22069121940407044
0.015126133666715398
0.07337344550185106
0.13243752136056328
0.03048431493511008
0.41493941403019385
0.04414745156983817
0.15494539758609618
0.4160968849593795
0.159905853354953
0.4499850735211196
0.03983925233508392
0.0464999434583693
0.11999749667021552
0.33705349007746843
0.057279078498507545
0.0426207477927509
0.06517566432843663
0.03438119030340023
0.39034974801000344
0.04187177786879209
0.4183920598563383
0.0606587418668991
0.04695031372801745
0.060079792804894686
0.2561766862034616
0.07243801204125609
0.06625947678184596
0.06394651688505067
0.04739454249872837
0.2735363011467685
0.13845863779578685
0.0523771110463771
0.04730697866753783
0.07935469248394202
0.49549368687163214
0.08215128030195333
0.16852044892945572
0.10018398151932795
0.04047366184267831
0.005442580174893647
0.0867363474210223
0.07335998913078638
0.11037771037993781
0.09737964622975367
0.07841958047136086
0.008674726793244679
0.08094478556341769
0.13677364844693257
0.058081457165245216
0.04241069425956655
0.2655736060364777
0.3473430729173242
0.044166926865232194
0.3046108492610582
0.051986971698815575
0.09885777106437059
0.040201700853693595
0.0289477410576628
0.13184436302565558
0.17380402940696774
0.054256222511348026
0.4169795743433568
0.38499071158562775
0.35260724918910524
0.026602770763775097
0.024315502863088933
0.020642651017075245
0.08240286341983405
0.4483555699576604
0.3243473483085847
0.059402422510250456
0.27300085870886337
0.11504446206816517
0.02027186559240417
0.05207829284216045
0.29107687667765986
0.0504186078390551
0.07145832235952793
0.07212966599264341
0.2914936506492477
0.01712114018095648
0.05866124524204969
0.27425859921629225
0.0573968361026942
0.30191010870678087
0.032910643096383065
0.036411810047684734
0.05533438179415068
0.03326484113463976
0.0789404578066556
0.06329356137203045
0.18025069004069366
0.13532263365142258
0.02472064482161481
0.08569403192778999
0.16646152326015443
0.009718596623648788
0.30251754873764225
0.22066029150740638
0.007968071554261907
0.1289855569461943
0.010841774087340966
0.16363551402433954
0.03692907482034795
0.04336098133374951
0.0967225730534594
0.03400909415005708
0.10034420009802691
0.0437157391554048
0.33809120054453884
0.3254938511362541
0.041659552446002085
0.4651582798507711
0.06165669299219421
0.4522507411420343
0.045695511817746295
0.11249009863835852
0.024035553066438786
0.05503696012135876
0.015290267821660979
0.5007091457130334
0.10323309073358768
0.12633178228380715
0.18910997098653842
0.2695299088397469
0.06645666814601821
0.17809859925897148
0.22700547098876098
0.1416536276568104
0.31374844934174817
0.20189158515769037
0.053779679830702844
0.10112407521524294
0.12750150590404027
0.05962042300643539
0.1505023867649433
0.1278505537411475
0.19159730637531636
0.02252127613948528
0.015067912193827627
0.06225312146929422
0.026704935036378812
0.03757572709305609
0.026021397894011592
0.03929971191054388
0.04794551481695268
0.06938879821081699
0.12204494446768761
0.05708086970498834
0.13598083180831105
0.10399446970257735
0.1202180367788577
0.366048743952517
0.3827252246108177
0.3228228877987579
0.02731136297610825
0.231586281212915
0.15553493882087088
0.0637184114040429
0.3729329480218127
0.38766736657469164
0.2534108217086195
0.11673544948369233
0.5058757645238648
0.37562869750264954
0.30377262038009506
0.5246978867719273
0.08975244984049935
0.10681593719518105
0.22635790328356295
0.19648722775512584
0.46917437418766256
0.2852305265638999
0.10547842739915411
0.027500055727489304
0.036501997619103256
0.04423178117052175
0.041830779999292446
0.28892271679736936
0.05413171925591866
0.5091451976544243
0.06931025272743072
0.06223428622925252
0.1508102995264148
0.09983717789744823
0.2679331104157549
0.0718269354572952
0.1030348906853493
0.08935010051854222
0.042055516711533285
0.11539036643308284
0.060828137106425186
0.05910296487883538
0.1541961115746644
0.21343810627998527
0.17517191493322826
0.13567724118554444
0.22834455514056684
0.31487404410511466
0.2536538169587953
0.2196232054304126
0.2953941373866808
0.1411053354953833
0.09217734860548842
0.3144040328596384
0.25160969030760877
0.1877353399618316
0.38356004830761864
0.06521191554503218
0.3951326356059527
0.2389997597928855
0.29285393357320916
0.2878189221133583
0.48609718865353546
0.13827949711333823
0.3173269731881643
0.1880699014524639
0.09741414725291683
0.4101777695636095
0.23168907781422754
0.14066628082823407
0.08374933485924176
0.50941586125896
0.1414358086618495
0.14534566305522037
0.09404016674856429
0.28871550329634577
0.3835871428357342
0.2667221845287741
0.141375961287733
0.2044750265550107
0.10259526788118467
0.12663917892332574
0.3078568000891417
0.28077365596322257
0.28132295754685865
0.1740524081712723
0.3357005273839913
0.29661623581831087
0.24197721224236834
0.1585654819455932
0.18126820603799793
0.23130116163686046
0.2457185808361882
0.28216378384859725
0.2793475175493836
0.23510368231175524
0.11964331877832438
0.13347723145525792
0.13003668640342012
0.055990138758280385
0.06569653580110141
0.018629707115410347
0.05818372046457621
0.15925052512182922
0.23753260861139383
0.11906271998197343
0.25540856879610613
0.08384747471681164
0.25969276829786164
0.18129517036991868
0.12719847347495555
0.2039746132785688
0.1998097000199569
0.1284446272479596
0.08591429984299447
0.3989378365581429
0.2054985816329918
0.22136785726406802
0.034982654969606466
0.4290554085151557
0.07398106218134627
0.11494221064779551
0.392543522507652
0.4691279340433732
0.0971710454472268
0.07078413263231882
0.3975553697119973
0.04734175008442055
0.08313852493423837
0.37951339396777334
0.13290598009025636
0.09488622219347062
0.16035974345390688
0.3327836670087847
0.06763178434721609
0.35760022350063647
0.11357956245442127
0.3032856051340729
0.10336397681351861
0.24527790117581172
0.3069348015393479
0.3230182048504494
0.13881629830047507
0.2842196009535082
0.1564594395026061
0.13415109668963665
0.03682002942451248
0.23212012685642294
0.22069784341760668
0.21494369242112582
0.1588204851284563
0.021724212348504558
0.2672289007520827
0.05611910672660293
0.11350484234221374
0.30945211759614283
0.07728231690527078
0.09415920636352501
0.04679342085937007
0.15449792136164814
0.28293668581423764
0.10846990462102922
0.13819133080381385
0.40553985085481487
0.08687433456211352
0.08899641008134873
0.18967105539796453
0.23870972028868437
0.16201138548483388
0.12835620145724005
0.21448805009632507
0.10206469333302778
0.11831606138632092
0.20116814768763885
0.07157474107351841
0.27342418796540324
0.148587616793278
0.4079832194951231
0.0674441715340597
0.11358836937635554
0.16576368733716013
0.229416426542223
0.36771383897281545
0.26467630157747646
0.30447583979417925
0.29092341763348595
0.20041786852227597
0.3206397137247151
0.11428435775579915
0.010476612106046099
0.07396908730721825
0.2571805317351345
0.1952636253120258
0.281354029926121
0.14646288868677762
0.12965513632872325
0.1803871331616725
0.07776234067542455
0.10455367150012582
0.14452682418958201
0.08470345346207088
0.18478645838405966
0.25991366167085245
0.05583796249225926
0.05338253608274652
0.09163971069021827
0.1369249240772044
0.06761584543450334
0.0680200892274805
0.028732924556673457
0.03501856879033565
0.039112080940424766
0.18519340026745473
0.22483168399320144
0.10571798147078748
0.016491067409263354
0.050909213679627335
0.30460050440545916
0.04843473836272933
0.044065231713556384
0.3086207440791616
0.3233708395701765
0.05405396017506753
0.2747018356254362
0.17497543952402855
0.11308989336703146
0.14223881449659626
0.3114245438062279
0.12792775755951977
0.07819908484407884
0.09363149320699408
0.16747556710721306
0.06949208679990666
0.133040596468816
0.26433301658724584
0.11802076716392187
0.14577459470239837
0.11920128214432787
0.16227575824215296
0.09952091748003046
0.06396865589553971
0.0352163086684805
0.21969952628402295
0.08901901023687418
0.2249777925272152
0.03583423025025719
0.04646994383228114
0.05344668364824225
0.14386798494212538
0.23707947852389435
0.2583727413312618
0.0982914462025514
0.11674193163072198
0.027373718545723458
0.059520898341600736
0.23538683618335177
0.10474911882152152
0.218002964782164
0.11476245395366133
0.4952219915669289
0.30901526241459676
0.08487543250612387
0.03611936645622479
0.12734388243806957
0.14314979088315358
0.08610873561027785
0.3250575190715328
0.045610290189219804
0.07720728809710908
0.10478431682871092
0.03268043482424823
0.03369040897200165
0.08229158108562143
0.028164657522235757
0.4660889967284518
0.07943535771734542
0.07413376617786177
0.09124130992478156
0.4905960199054862
0.2016199597038151
0.015979851598906795
0.052999628105721654
0.11689934971523527
0.07931903381720509
0.10081695962834639
0.14192480052291223
0.06737556667902278
0.2507720467006776
0.10321252989229915
0.19811179860803296
0.15151706966105916
0.09158210505283221
0.1284379467935443
0.18269765241471428
0.3338655044669178
0.27070468486695276
0.23915192731363388
0.0686493452381282
0.1133056765926331
0.2857332456873443
0.24593160023627128
0.11987371111104386
0.20031085121011336
0.08765199256470894
0.1644937879448467
0.052006699752971404
0.05252863749370568
0.16504272935697353
0.05861698991335264
0.013087112838751132
0.1720931813220355
0.08580240418579359
0.11619311164887039
0.16629140619845542
0.029301301804505638
0.1632166931066108
0.15302168856273068
0.24740100230808695
0.11317030610258318
0.04177528930634825
0.017232692792814315
0.21897132818079798
0.19818047415614143
0.025345582002925172
0.17815786516055526
0.14394486924468278
0.12701095170308327
0.2631092534296724
0.2326879939908743
0.019154565220847748
0.14754216342404428
0.25871979289598246
0.1847431347429414
0.19149748439350633
0.16894292915088657
0.26062247900795893
0.11400866203689645
0.038506568425024285
0.2512174212918622
0.16407002119145053
0.17917122254232343
0.05473155042795212
0.013348500856716749
0.004817776887756657
0.03346490990279432
0.26780840007112255
0.005108764951345192
0.30104193738348267
0.05473515600822713
0.026031229157393837
0.19561045988676706
0.18996940209582708
0.4334838513787467
0.43032701199804324
0.11196951731857417
0.04602108587965417
0.03413800801269455
0.0068268403526433995
0.05043069694795241
0.3412390988192226
0.1874941764217328
0.036640938107213965
0.1522698658288882
0.2446642270049865
0.07951815794828757
0.33879551361768834
0.14461621612028003
0.05312547177209642
0.0366636606608805
0.014933473295691887
0.02455966097500058
0.194451428523419
0.18623944095569814
0.2049946400199249
0.07565521466511738
0.11886117897249684
0.051108296167828485
0.23181166264074982
0.08879829170151432
0.02978963754362985
0.05840128517742012
0.06613335468269381
0.24948863695383983
0.10042504956143075
0.08595425649696403
0.09378080771149754
0.2462893510524255
0.26211861709199036
0.5082274605227624
0.05985381843053951
0.6039782536676124
0.1972666703670815
0.2938907234894703
0.11509315377019234
0.15577910224606759
0.40008582937284115
0.32143155590575634
0.3234996511050864
0.46418730667465363
0.163876621218889
0.30599548436304985
0.11450417651641544
0.090587072538821
0.06823312293962552
0.2850829648619114
0.29681218076176497
0.5080633957780455
0.45425853711147796
0.387747227748712
0.41477903254440507
0.42691466415579193
0.12024418969965056
0.13289118724983934
0.37575527716999
0.32015807081434583
0.07212838892254113
0.11951793795120043
0.18750400451731852
0.06519247239232512
0.06785309244740854
0.03108176613710296
0.06084342137274379
0.12994154981939365
0.022106847340017558
0.11311596176019505
0.06104604819985784
0.19439811978539956
0.04225111003127005
0.038273207751325575
0.06652070023376011
0.2738973167855562
0.02816668473729846
0.2959834198885968
0.13751451400452605
0.08856335988920797
0.04890847400661828
0.20502485968070228
0.0417424181706331
0.08390545572736549
0.11886164475198413
0.3986901057151294
0.20245548374776554
0.02770215795434502
0.1953311360703797
0.12164410905270863
0.23279952754257097
0.27772009736405645
0.361400030625593
0.049450864011073535
0.23974526133580826
0.22750847355795348
0.25302525088342004
0.11911558387718586
0.18556371924633996
0.1597821775377781
0.24427874088642856
0.233897380358208
0.16374512301950817
0.0768885121549448
0.4555159937528081
0.05946820981779755
0.084213776127957
0.1018208058711152
0.06384663716595872
0.019334868035614388
0.08709708736709522
0.21691075038841015
0.06349261593665025
0.22840755307220678
0.22896892815178607
0.22402138652110448
0.3009140648265038
0.028350139789763144
0.018629246072148713
0.20352399916942687
0.2159204741319164
0.1537150249617501
0.25994248024991456
0.2347011613549495
0.05933471056505114
0.17794006918044084
0.0930451059177872
0.2012243561154067
0.05853500335210361
0.23740101622185533
0.15717578397144458
0.27847936864488565
0.20336147768422558
0.28824737880364243
0.31907806423856766
0.3720340950115706
0.20079382328365777
0.19566671565169208
0.18428995536205373
0.19011767211880426
0.2506557833789144
0.31834975470019905
0.2830750106113559
0.17991151852817924
0.23453224859971247
0.2073225756028111
0.12248804435507568
0.28241807419455606
0.09714178093932888
0.4007771427531899
0.30144428272695534
0.34845781618792604
0.3498094997301829
0.16296815762468317
0.282284274028407
0.34262934364253456
0.1842008717590397
0.39201480251515625
0.34208567275534574
0.33425601590501514
0.38056521091961243
0.01035127765757721
0.5511901248868774
0.20010589719094682
0.16251438673413035
0.38201751856195243
0.28101222804663756
0.1725241541955697
0.18886229323354967
0.37571093070445427
0.22092760379696197
0.3676176628116492
0.03780430508564486
0.33028900211923207
0.13380643194959713
0.15088157379749667
0.07124643350864543
0.04751762452354288
0.10584503765452379
0.5133846018844783
0.17145149713993368
0.08699665921164652
0.0779160921786376
0.10585261998229228
0.1837489570763514
0.12101475732422144
0.08227268766690954
0.325234608197065
0.04473046842185829
0.11781003333978059
0.04868046436423963
0.11303998755474555
0.2467444546715397
0.10939314173170049
0.06996396762731513
0.04739307370410981
0.14280705302492874
0.0695789984621253
0.22638606543268788
0.2249648529910059
0.07264596823023946
0.2851889247686768
0.2880819217169257
0.2283327284440794
0.09261376278694908
0.6057646483674026
0.03346440144336222
0.3944613003174568
0.15812719368297082
0.056764660441172704
0.08801462369794621
0.09077928911359119
0.05548735936383738
0.06112887934824582
0.11944918595036919
0.11883363998859091
0.043044001670907106
0.5387565036283332
0.2868476051823808
0.4160297042063388
0.056256234388342125
0.08686784017635488
0.04708683485101269
0.09536089410030642
0.039915593339829934
0.21497738999206426
0.05867086256135466
0.07166969987385576
0.07705547954923261
0.03693829353238664
0.403057261670335
0.07304105655565668
0.13835173882114046
0.13113100250966112
0.09342367520173056
0.087990206589749
0.19907648099367553
0.1589570112980324
0.1189570233701734
0.11690674402382192
0.12276638692068798
0.42351344760886567
0.018421717516595514
0.26709898197422854
0.25836640901411356
0.1613402574833983
0.12826538126835077
0.029117946097826558
0.15733867811467386
0.08309247264579424
0.22121849053090809
0.08330571676728327
0.08276301089454505
0.1353956474358726
0.05509673249710718
0.5457363484964253
0.137836406937949
0.12614127107101195
0.11834604068171342
0.10216083581462906
0.12137852027604107
0.1666499643745067
0.12082284087112317
0.41153284791703887
0.19086498531128826
0.1629351843416628
0.0899474937553757
0.597459918089954
0.2872756802369962
0.3815902006335272
0.2712530157205104
0.12262686983401133
0.08973983376522995
0.2126533421030616
0.3459471018286733
0.48593551152273157
0.5841664829912674
0.24981508964378923
0.35349645703628446
0.061633329896404014
0.23542473915131487
0.4721539429263374
0.35683492877839046
0.5784606473476872
0.2973983960447944
0.13037485124929227
0.4543928006992453
0.10703696203965662
0.05390306946927565
0.11148979050306133
0.11386082930438725
0.3160964693859745
0.18113170840813447
0.1364172470945627
0.28613593191909287
0.10843112345045718
0.20537355330947762
0.038407427925192424
0.02649576251797026
0.22310099830518634
0.2564277100122789
0.024883202998767767
0.06794116046548382
0.07461192898430842
0.10312946556714005
0.5769711469608539
0.04072798522018292
0.5588531639764369
0.08068343810234706
0.09539848632314744
0.03346238240506733
0.05386904073720132
0.10063539227328748
0.11834852694573192
0.3235177644703013
0.029055412204287544
0.06878542007156108
0.11103311719773078
0.11340347235030497
0.07047975065499885
0.07853975649207115
0.41599264450359236
0.29753997945170635
0.4176628304520817
0.5636460806529807
0.24913565964614878
0.3372133023618443
0.31675872403823
0.4925193523394059
0.1532622718728201
0.47256313057517374
0.2567075260270224
0.037884894658712254
0.06264571479195061
0.01864559592415945
0.4198656292987822
0.07710217570927953
0.10684770001222638
0.18134519097834267
0.5367711817111633
0.4373131867032279
0.47837866004972224
0.030480591193478394
0.020643459983949616
0.1912873402940077
0.20559635752338948
0.07887791768593587
0.15794971991043788
0.15844866451842818
0.08666347649921269
0.4371382079878728
0.1338607923474775
0.15424394008816092
0.15320762766503326
0.14243878767495294
0.3132385447472519
0.011736103870064324
0.15340400987979783
0.5707331815901294
0.2755724668168167
0.20155727089962297
0.2494660026465231
0.5995176361256084
0.569834549252399
0.29142807981671165
0.4187614253181441
0.3505521072865251
0.2681008661296617
0.4782019079959374
0.3458664700430344
0.04285940985156006
0.04436942410502249
0.5955655312035002
0.10292182724868336
0.023179081972865303
0.007397034144633922
0.3181918707883787
0.08634349745091066
0.2594054640244361
0.3361790770584767
0.19268157737347405
0.3675850687903121
0.2561703625954984
0.19458208142070532
0.21341524023606936
0.11227868584215038
0.09325332145234413
0.08843421717063063
0.07466323108008556
0.07622411630885581
0.003114343087286412
0.07089810098021722
0.07456058862960081
0.0943884619298961
0.09841566938453462
0.23619813647619436
0.10223277669000413
0.21382412618521351
0.05588030743351678
0.0378846893797492
0.14799761875071557
0.356114474277125
0.5622875333630951
0.15569306071526406
0.3408722676611496
0.18093917045235935
0.04516835081502485
0.17848605711258728
0.19508088079258162
0.3214824254797658
0.05983923405674049
0.2335269602359125
0.20434378532409986
0.10772778793770713
0.13992984121575455
0.11225163308112156
0.1637331965263431
0.2009339797369424
0.06540292382165777
0.11221549862275743
0.36084008399564227
0.18930695612400567
0.4456599408643493
0.4337524005719952
0.3017637261035209
0.07544886642156591
0.1432325219081395
0.29842801547574244
0.037020666085941435
0.07150294266377069
0.0602793743239144
0.06173516688364057
0.1266102063321221
0.11715360677494141
0.2380217087029498
0.07810984784607511
0.11731321119291886
0.053156973755998975
0.2236958052390422
0.03452937039292605
0.0058957333203836886
0.30596983023518926
0.07913920259979597
0.06318065384048312
0.06425165589677934
0.3779794367751086
0.022432389036363395
0.11626766044080565
0.09362692191807113
0.09247707392216122
0.08143116140299245
0.09520024685990683
0.2633944540577272
0.10869557935551168
0.20251941993725103
0.10829270549399989
0.13638717523327198
0.37128420629456527
0.04924627846434215
0.4288484077370459
0.4687373479007787
0.10951542858537572
0.18341914358949496
0.04485022152160064
0.09273735216308666
0.01283375076906033
0.13943264604445466
0.06420196496410022
0.47917659917839095
0.16202831697765874
0.1438158098398946
0.20731369795865712
0.04318896340321962
0.10509810770138577
0.13849400263153985
0.2057482579539218
0.12954210156018645
0.033027668339557816
0.17756638755050072
0.15807633673581725
0.05229100014410139
0.13167119352835036
0.11927986864746182
0.2211444423226569
0.044958665097192214
0.037899431631408416
0.07043346257316507
0.13720799557633714
0.22502243152603874
0.11361065659394531
0.06160501464614455
0.135590613700127
0.10654487548815476
0.05038371077065526
0.2007129133239841
0.12196539173423705
0.22908339512209436
0.16309221466899604
0.06415834733691728
0.1038550337817545
0.10360672721214566
0.07013640987654207
0.07625290468644258
0.45486870732071716
0.12370701220800352
0.09839514569499754
0.09425933654289584
0.12282369429465373
0.35620906110134165
0.11965205843722351
0.15932776437244556
0.1904599966610394
0.0940708962242372
0.24170739958484486
0.07762542582249894
0.07236356529532806
0.10242411966066522
0.3201753333378658
0.29625806535464466
0.27206338540051395
0.10822915199379976
0.1621796204416384
0.27911986344545575
0.188533842227127
0.08155197902735185
0.12669695088478425
0.1869889877673985
0.2493250110087187
0.20588371847531028
0.13457038196367702
0.10665787343073448
0.21713894889464627
0.10838670812833458
0.16952760905819456
0.08795994660275933
0.11531786247193584
0.10033924529646564
0.12903082185814307
0.04139906326984861
0.0584149470818576
0.06566771720077044
0.08564398894176702
0.05632264000372565
0.12219747982900667
0.09054310401784839
0.07308632875010575
0.08623097135438772
0.02756528465944473
0.08803176891848058
0.10783095401058597
0.09577834209727427
0.08488803615498318
0.0944817557002826
0.07797900058028906
0.06953754416979097
0.012936850290424358
0.07132062740430195
0.018573494818848763
0.09996160778709628
0.1858499509084996
0.02499438712860311
0.0627525879107427
0.09463078070420707
0.16968865866242064
0.42260706306742546
0.2182559435454724
0.02941273658975447
0.11405990700233247
0.008876116511091488
0.04103714210765377
0.3348862647666339
0.2920547873161649
0.2745671849237912
0.4057168052907823
0.47930057742492527
0.03422750555402474
0.1943463107452366
0.3553778539303831
0.11797328736703927
0.18053081477428287
0.13035099489511262
0.0807821502694267
0.061020572104244546
0.03482247001833392
0.05862793617188906
0.0925082659393301
0.06387599687845348
0.28506614461367286
0.06961255381054293
0.15250706726803953
0.022480668588369328
0.07819933520042828
0.10777370016207134
0.13741713769217231
0.39166120503437085
0.08941650974899763
0.24538617991274542
0.03177906090430922
0.07305227388217739
0.029375151945596804
0.11608152138931364
0.09051168175637858
0.12623674396836634
0.03120922620886834
0.0397474614520462
0.041941374919336416
0.008879789642755223
0.08696880938551232
0.08685755174061469
0.044117665895632915
0.20984105883746249
0.0045255363604901275
0.03747054501372442
0.2552545485091611
0.07194391197920899
0.08514522011296025
0.08932187430897674
0.10682871859176385
0.045692598873516475
0.06455922003465858
0.031185751650877128
0.04358607365731276
0.1222460048291754
0.20675420269782904
0.05777187047992763
0.02096213170391112
0.31882333538937563
0.03927371260291826
0.01928141071828967
0.08843093639411508
0.25382313844523025
0.2334439791728192
0.18660092694325545
0.24496517900570033
0.13148452248385986
0.10407698629098644
0.14055200869962706
0.19244407769070496
0.16381433701444653
0.16765362893717758
0.042213633844438346
0.11550504789341472
0.04305630814223479
0.046292724398365986
0.030777219940923334
0.12504943489646675
0.110917836200622
0.17369719075980258
0.22174414662762584
0.06313903925878434
0.17338570179837107
0.09509758914968956
0.09057229080133243
0.08230089140230878
0.1352493732366727
0.04857764664994785
0.003826693946744093
0.14955789626000915
0.06173820899541767
0.530657901428389
0.2672430487378198
0.6249495704689885
0.2370006339775683
0.036183711290959604
0.02972469637499522
0.034404291041404175
0.0316628935856544
0.031966821643862456
0.050642488034133785
0.05632230147290495
0.040791880119120646
0.2748444957941254
0.10925123524749582
0.0527934556026526
0.05431347547504946
0.04309703074077095
0.07726877363455915
0.11264008532523974
0.037198891269660736
0.022860542580870526
0.06312831828015582
0.07514941264997228
0.052485273669437546
0.0563702460772394
0.0405884265625644
0.1537659151086455
0.08889913226210083
0.08824929559805698
0.07102092063205766
0.13065481947592966
0.11477037660691419
0.1069169378763328
0.08389611717014792
0.06507353709035278
0.07659444849874018
0.026923186577860265
0.11618389644977672
0.056574452116497816
0.06052174995934221
0.044437801636427215
0.06478631314667811
0.09518295501822704
0.049512026911797104
0.039412481483563425
0.03718743328092266
0.03048938213996942
0.07918253298454192
0.01965660985024346
0.036483601490527894
0.019704718290475796
0.03659595110069817
0.14487228976256114
0.11123540977607846
0.0524574268358841
0.044113960798079714
0.07751187992260633
0.04785403125395231
0.1583708600188372
0.015845995446424666
0.07230938606012322
0.027699167179218814
0.1217549264875915
0.028386694026272318
0.03848419756134378
0.04890772615371381
0.15286468968496192
0.027394901243872935
0.03545098662197507
0.09048183817999836
0.08548519670085773
0.04361839770678709
0.19168610363879168
0.13679289880484774
0.04796158343940446
0.036919154244215074
0.05509210210668936
0.021005465714379185
0.08494357240241711
0.04991449733292149
0.0378428601496191
0.100281029520303
0.028437049460629624
0.24410439374553072
0.04386995307133306
0.04666302138680856
0.041660715064218985
0.4447157153105183
0.10975829618997178
0.053374982580230004
0.10854638701909733
0.009804694557288655
0.4233724232777422
0.01397557861990251
0.01580507044602216
0.13028221013637908
0.037801221997698156
0.03884341076486547
0.11356516721560424
0.3127317088805818
0.046575173924286416
0.00983535867198495
0.003276892799426713
0.009235102776276118
0.0043056055150788395
0.076864582075082
0.009574753674158484
0.10861831813926053
0.005622268449707539
0.439603921827704
0.057571226260842656
0.06067255798412986
0.04604589130712486
0.03212237323312472
0.055590579461648394
0.016079727600152655
0.037278511806558945
0.054857654681391664
0.17054558231887001
0.0396085538738753
0.018229962437333946
0.18713706050109052
0.41255802265503705
0.16056268781684244
0.03759863047115751
0.03349763639791007
0.2791482882282112
0.18449683843983983
0.13581679992917667
0.09498966011414854
0.08883847430469091
0.12068127262482108
0.05942884249802933
0.09396971947606983
0.17057516980614537
0.10822781667040798
0.11302012471568423
0.12483722252183369
0.2054276883013746
0.22082635955543592
0.027618284059052242
0.12410975783626374
0.1660456708942803
0.14527713005843995
0.1827042295436789
0.027364139715002612
0.06047022324992743
0.03615233835271964
0.1506942924639997
0.10991318189768493
0.0970974216132059
0.07645833385907327
0.06869203103926395
0.046301150869310206
0.058115670184162055
0.11408315256904576
0.0370915927505571
0.025122293084253993
0.08785451563379994
0.07229867078695443
0.05399164978548507
0.017321315379714583
0.17641684791284729
0.217114105980211
0.21820503787481757
0.1814067235928325
0.06710560881519818
0.07995740456300882
0.09944950918753104
0.31818538096344084
0.04484635575449907
0.05944033277611177
0.10320810310073707
0.1119641592217675
0.3259075594284577
0.04079029476685046
0.09877869195966728
0.03061938130826988
0.14466064971723133
0.14289605974768788
0.13706116810183436
0.3591949128058589
0.1161164079611136
0.02864156456303938
0.023520629425637804
0.03848680600515115
0.12322162491263056
0.2314257723336426
0.13335637802121764
0.11224520560202182
0.12675364461349922
0.22418167211454676
0.06681187482459869
0.12657688001337972
0.08695635334395715
0.12868348734400448
0.06850363880136641
0.015443983543939787
0.03871340030102461
0.07760257898536646
0.11803631326247675
0.046749595328189016
0.04138935325543541
0.053398426402332215
0.09108329760616089
0.10048621400758083
0.14812615747415295
0.13481775715381758
0.2020363593644374
0.13904510610817547
0.17534545395280252
0.1356888067032894
0.06846896808572568
0.1271805025233163
0.16075693119390816
0.08251629457412579
0.051679872805998346
0.05122601533200513
0.09117464093017305
0.0520948979482812
0.15336829009309155
0.15073059702626204
0.3529333173876941
0.030170411565361776
0.026432427422409612
0.4305750391048247
0.3946117895468567
0.07069634450709315
0.21728770542100243
0.15030888360691955
0.12142397328970549
0.22148140017091877
0.07203884914748829
0.28720420384122397
0.32074632768893613
0.2063839204045588
0.1964596815223991
0.11148637363540499
0.22729981372094551
0.38331491374163346
0.10073625338520449
0.07334275692728869
0.042034786011185536
0.17601351732934592
0.0862908454252511
0.48845917386985893
0.1300913247686354
0.08248459491588846
0.05089541882890477
0.06402175287506279
0.043272910877329075
0.056083980148112854
0.06725314645757073
0.10815051219705579
0.05686049348997044
0.04138912093752616
0.09153745524340152
0.33380192876117876
0.030375790959855112
0.18050745724901804
0.08259900162765672
0.06224643967722621
0.07177844585312715
0.06791786351557354
0.15170119181422384
0.11900011073110947
0.09915761180495891
0.10957059771464484
0.05147131673394788
0.16127099743427648
0.037011503774947024
0.024682467863442872
0.4056585480420477
0.09369032594093589
0.06565032262175671
0.2281868189724954
0.21634723797776492
0.045126502443943686
0.42922161857922736
0.10563436610178324
0.44008312297874536
0.4069670181093286
0.10704212356009973
0.18856002070326902
0.22410150169780096
0.008443379462520714
0.10091207107934501
0.36216415436974786
0.02647327853806554
0.22754532885952397
0.02752510405348513
0.005819116767403429
0.45260636305150326
0.05085564572784667
0.1462553873639343
0.36192384462279337
0.05381795901869985
0.0624688795647541
0.08742608237252378
0.0892099065207082
0.08879629098043035
0.24294572023631547
0.07008697127652057
0.06456487297752764
0.1708595400412153
0.06217742751372479
0.07859937547395793
0.06826539589152365
0.08871685946933436
0.11121276472307527
0.17057217508770015
0.04009622414157193
0.08046392744562021
0.08471578293437605
0.0183836307629905
0.6013486643892317
0.15022039017996322
0.139738849921536
0.01406138820031342
0.01713506348320673
0.060370220431167625
0.0798125666217519
0.0219231187661112
0.32793758140197027
0.18675300898019753
0.05295904960182975
0.04512118544255526
0.20930656022543914
0.0842142109989858
0.06902109225455225
0.11445245988631322
0.07642251878711201
0.44055380559073654
0.2593878315127367
0.04375033545114242
0.06418388714572625
0.0703087057681216
0.27201382549572334
0.11396911018291467
0.19075323604408476
0.07250548564165347
0.06571121596000383
0.07520361769478173
0.09501522259125442
0.07367412681811637
0.07912878379616013
0.06463524977069444
0.07106018587164994
0.40976804334264194
0.004080660043269171
0.1413892656032575
0.07861972362927161
0.11925312962956706
0.11269418068455166
0.16363869773155243
0.09944502651820417
0.17468293985239094
0.15117487861285425
0.1575343911442239
0.10509156543453807
0.12233785319633683
0.0121182935248467
0.10845957336954294
0.016182608528692233
0.04002427568414008
0.08736651892542278
0.09955481480747272
0.06483737707924336
0.06436198075433815
0.03223310186840263
0.04515865958394506
0.05743910067533555
0.04386614578576011
0.039539108296202045
0.04258022539742419
0.07413503666353236
0.07124106672518696
0.40925043119536425
0.07501479184106755
0.1407209262399668
0.2554550297484312
0.29069539184931037
0.04503405433521396
0.4193285489817804
0.40290683706330965
0.09875356189492662
0.2951604505175237
0.22069750924035322
0.2027826707901488
0.35041969926693384
0.284126372324802
0.3626935664442478
0.35601574580011935
0.15355158130451152
0.29770523714137587
0.2576772656145387
0.029610231025473395
0.03375374484502468
0.2310710466295366
0.23406401008626765
0.6447154751254504
0.1556247160051447
0.45103449830193826
0.4236765763071827
0.039818000169621615
0.20851908386244616
0.015879339840618307
0.36904885260401554
0.1468587943519113
0.018389395808019123
0.00758423729139047
0.14653077812065946
0.2988888099321777
0.49982288351140847
0.5486418300160811
0.29890361980931307
0.10078156264401453
0.05659598446283576
0.09142454222641318
0.03643659379741148
0.34845755808340223
0.05842863549663133
0.05562894768200451
0.04248745689463865
0.07197650568233545
0.13912731125959943
0.019694449444254667
0.15472143727692453
0.08399271520560628
0.04312140684909239
0.08673905943732557
0.06219826248869896
0.15349489452199686
0.12356045668098725
0.1396397126728632
0.1279044046146226
0.04475333181647385
0.011613682236920869
0.04455143206678474
0.044724901648731
0.1038753081343338
0.30146680115766644
0.17335537226479614
0.20825076414068644
0.1627352099200836
0.20258554894446618
0.35670355892267064
0.09179156729801638
0.5521756840453937
0.036802213311475714
0.3602306959694426
0.028098618780865166
0.1819868264433235
0.22835236388838076
0.19120879044090752
0.38228756904164346
0.4897708683400991
0.18554858191428814
0.20240440091418163
0.15140795485952005
0.014824043329976902
0.1283610999155526
0.0148736025324815
0.007409485996010368
0.1551343419126568
0.027300206252224325
0.10403654947406275
0.0063233855347489
0.08255384236605834
0.10571060169428773
0.05223444282516264
0.013691572788253805
0.0691848992702438
0.060728363760263346
0.09472571009982046
0.013397621054247053
0.009540191016204569
0.017909454349544378
0.03097349701347556
0.028209083264139314
0.16129430539478976
0.011083183492529868
0.10760456701677565
0.07768477163709311
0.12508450002806917
0.017318315794686907
0.11508772091316473
0.010654111474544724
0.08440456877657708
0.06922226314153915
0.007576121059003134
0.1411913201747492
0.07451217168896968
0.2554558968487106
0.07893395795373784
0.1996156401298741
0.13742304645615977
0.6566341803199435
0.1182584511189842
0.06893251469560724
0.39867911292633873
0.15314393719619948
0.18969588304736199
0.0341611620331863
0.04010387135970229
0.10504575023359461
0.0928161598524801
0.05146241614783134
0.3154784075199311
0.09772616511841561
0.06255980982090503
0.10030232299425601
0.04076344672663865
0.05431538277639222
0.0375557438432347
0.012321890061539685
0.12440329493940705
0.008926130372631586
0.10915592784504334
0.10660154769486353
0.10092850825646472
0.03624363101839124
0.025667995532236358
0.09227554536920941
0.09170892528619501
0.09197143060916148
0.008077374698298681
0.12713874217859808
0.0246097455913372
0.13738764218542826
0.092573077200315
0.11750630482114352
0.11867372641841993
0.1400944098682328
0.038655263913796215
0.1498017307546211
0.25144894272474877
0.09693627031006435
0.0330251112212107
0.32825702680131874
0.12939388920009043
0.02649403944041791
0.08773924840196491
0.09028001981029736
0.17361515772251385
0.17464279445750286
0.09005150314994641
0.07904729427429351
0.08262437910875861
0.07673638830626672
0.08354262574529975
0.11546878657465258
0.3010159169148228
0.14887273650479202
0.14643453412372684
0.06708428033757964
0.10688703846110215
0.1380062200342961
0.1644381171909024
0.028310222301656068
0.03956553067508223
0.09318101812588594
0.04178589693215704
0.10124251843932539
0.09659240307589577
0.029777341581211154
0.020625233778761853
0.11185227596707713
0.09343150214215738
0.11220957889492603
0.189596030489568
0.14478788820525906
0.21991679500165398
0.019651523446013227
0.019180964383694703
0.03570066098377251
0.3201703899979655
0.344107641568229
0.024888519183002278
0.07124639356133292
0.33173357765282835
0.10572633563210682
0.0844777610131471
0.10616531603102854
0.020560694330116393
0.17816318109495466
0.2679430723740759
0.09759635099281949
0.1116404918628531
0.10228064394125203
0.018940168739520147
0.07718653969579874
0.09635205354639173
0.06972263100861581
0.10041297466306574
0.1606853492589677
0.14656477951429245
0.11977339933280093
0.25039437039193574
0.2430693100361512
0.18859416818800329
0.23942758673859066
0.23868188740214843
0.17784796314807502
0.15218537435792598
0.26076631008795337
0.15129692317016696
0.15998294965564663
0.09487424824259189
0.09394746946471405
0.18965621712832254
0.16877647362310846
0.10844516800475336
0.1496270709478252
0.033890434210400444
0.33798489911244545
0.19683423234735006
0.1843914711690428
0.1476867900642993
0.07063403486499009
0.15355362615054718
0.11420438998593947
0.11758490116171444
0.1555973969180707
0.02501690937058668
0.06800585079142626
0.11612916831595174
0.024967685623839633
0.016391678847767783
0.029305506393714098
0.14697712534530025
0.15575784205538878
0.20040675374039094
0.0355516252627145
0.10844343742944564
0.0432577747781471
0.17517534681952074
0.022352598409239022
0.1544807666676063
0.2557715084715693
0.13718511994033486
0.08987216300799013
0.12442749284602726
0.03188547784806498
0.02578789574612685
0.08857839659416757
0.04581468077956355
0.03510572708690657
0.05558927474880017
0.028271071733997222
0.014981145931293571
0.10498458364436469
0.06547927196119702
0.1611684286567586
0.2145668286208001
0.025736542185497112
0.24226735976621774
0.10682394006598185
0.015908109822135818
0.20585893443280115
0.15187137286648444
0.02079073070619914
0.22033611771222514
0.15759820766399632
0.08613598144770687
0.43527498011575905
0.45811923450413644
0.4296056127023146
0.41100730895286114
0.42566386057901945
0.10123973972939088
0.15365787252691435
0.17708492299693782
0.12561668482298727
0.42299972368999417
0.08298793529702067
0.16348011559448636
0.11761005030637967
0.21436739498001017
0.104064900065716
0.09433628850808347
0.2027180416387967
0.030547842839828858
0.04651892442319799
0.07622439479286613
0.23776279838416656
0.25177447145766946
0.03252456910321651
0.27457379658981385
0.32563843805751125
0.36200239239542487
0.02878126562308489
0.019700691546278282
0.057945257858387125
0.09621296170084429
0.12084806482473978
0.08646473492748866
0.2804828773957609
0.3479457069760911
0.14141147910850788
0.309433374850684
0.041293735722100766
0.14415440016080994
0.20453564580114292
0.04485373054126602
0.2673423847464368
0.39458710683433507
0.04656537680816355
0.3066262964345714
0.2579314331656027
0.1557354652379786
0.2555760910998736
0.10424210071982046
0.10360701740009545
0.12860243306456637
0.049258904789173844
0.1553903069281988
0.061868651189043236
0.13672397565010044
0.05503725256649069
0.04559891348999791
0.1969712878208959
0.10203519889154046
0.07309298819410108
0.1676181818881404
0.1675029077819679
0.09901614387211295
0.007072383711960942
0.0473815049359059
0.03726957224135518
0.2886848096724027
0.03898700317030398
0.15390677447814743
0.1479474486594014
0.30110210211245686
0.2568041246401453
0.3387811734489208
0.2067432175486279
0.22074261273265147
0.36187627959396157
0.11973832964632043
0.08011287119061183
0.05599403568808936
0.06543577434926964
0.3744561132740638
0.06438808576742248
0.12256330183962012
0.2648314477682168
0.24471388144476738
0.07913640516142276
0.0885841876341421
0.17655518749778407
0.13474870029303
0.033086365740792954
0.025203888991200768
0.2222548581855201
0.03684197275921808
0.18032975686949004
0.3430660716041242
0.4518408310812112
0.46109403661129134
0.02931500408906693
0.4354226769764806
0.06568914550607058
0.4301004296720676
0.3344163633223512
0.36657655725626154
0.041811077151995064
0.45780070748245805
0.13744356642643776
0.2193851621135755
0.11007624929352586
0.3657339940819604
0.21599913796029355
0.2492622732641832
0.11956745340012301
0.339335254051508
0.15138005050609127
0.02561011802826951
0.08461305710494298
0.02408407333120605
0.03803093293780002
0.04268619604848112
0.03427545238554273
0.07571907923335018
0.01357061070226651
0.09446340984370324
0.09549419635702168
0.054146644347513755
0.1225313053618589
0.07985787755448696
0.09523523417738965
0.049914754939689845
0.1003316135565613
0.10157740572661982
0.0753482254050273
0.15522343700520855
0.24540438716651086
0.12055389234264653
0.06936641402871578
0.05947307461613104
0.0426166834769746
0.05915921598883992
0.016133564796935222
0.34808933821415194
0.0233521034593073
0.007368400401525203
0.0376974812073025
0.43362348433100184
0.5279277020991652
0.014295723873554645
0.017657934682644486
0.4583037783411148
0.4503141159642885
0.17136766834742745
0.13660352913610244
0.0093261995730103
0.04230405880257929
0.011330390724062691
0.0453526621341023
0.10725017102119858
0.09113891891408446
0.1706528250156207
0.0586110443392429
0.024894258513590544
0.015437316544888058
0.055663224703335526
0.1445212284787336
0.1314512234852258
0.26517431138302305
0.12174247939698668
0.12596169400817545
0.15376327581247687
0.20336080623886257
0.1347076267255202
0.3480873642732221
0.14886975319507442
0.22894902120646177
0.07668274430734356
0.0504968218733992
0.06259864207583483
0.16476103276654813
0.12492475732083756
0.14866595993086026
0.051369551718575615
0.08657033001345504
0.17212248551524417
0.10337271746519838
0.11781574747702181
0.4464242836501336
0.00794091217218524
0.4376790768212388
0.3064124495537505
0.4302986403757953
0.09478426864677177
0.2623178672598722
0.07865256408021976
0.05950105178372037
0.2494410559616816
0.09774222624942482
0.4167618692085059
0.32059696990795306
0.008076907651502718
0.2328966069750483
0.241309041516632
0.03320989874175903
0.15069515432736877
0.07134947771364925
0.07357414763151407
0.0714754462090413
0.06791540930980888
0.10778594737311029
0.005598481857258683
0.16300314686203377
0.07820992085661255
0.12546698983092403
0.03526411489299016
0.0754005683825854
0.2869315767413378
0.30748257682613817
0.26019360159867955
0.1449056932541215
0.06332823543605648
0.1841655109299591
0.13077422697962726
0.17485551412619388
0.18441955787765715
0.16372531196325596
0.24134959261667177
0.15916315074633325
0.15776713857362357
0.1564870612484707
0.07876089345383269
0.13752295499025965
0.1494304379448961
0.1132741763046032
0.2991956232038389
0.14595873963257697
0.06165004078036028
0.23025355483864474
0.30309263254333685
0.141414715165733
0.13765597805930183
0.18578713482283274
0.2746685974551804
0.10938703508021168
0.13172353756144156
0.2728130257951364
0.07831788600718083
0.10625404857062584
0.007627747875471187
0.11076049768139676
0.22694609076703834
0.0798288927493009
0.12511325394029504
0.08624077360420293
0.4081338015290209
0.33913462228214214
0.04640409670698594
0.06567856840703606
0.2358738713272903
0.3982298671602278
0.12482158913927628
0.006012301447621276
0.0946154149994947
0.05117403985726065
0.23032133516866413
0.18390806439421686
0.16936682364418448
0.05517855380552443
0.018509849632764246
0.02420067961107248
0.022206366730056284
0.11855736905833587
0.054010640215558924
0.03425626435428949
0.3414553153614028
0.24662768015049252
0.07001372531977729
0.05305739691469752
0.01636002273761193
0.011665290625390127
0.14872307011531433
0.05818994872065594
0.14632590335439472
0.17120264385164707
0.14983456545650656
0.21234402263567592
0.0371723870714495
0.18815674032275478
0.018798413244575627
0.007050949060706868
0.03275112376083593
0.2751262325415337
0.0816755579675637
0.2925322491207339
0.2587256244536271
0.2976631156949162
0.26595125308651424
0.04264443596725402
0.13349887759508808
0.07283523674615253
0.2676950326277899
0.25243323843201665
0.13058018998885798
0.055558151250294355
0.02147022410186244
0.028820254094192213
0.11722331984863978
0.029639018877519352
0.046240630112750855
0.0148605878117531
0.05214966624035112
0.034778813074872815
0.15703414226035395
0.050123267450608695
0.10547746961431466
0.01926836895306582
0.12854686689689965
0.12840460903911777
0.014913174551440901
0.019736701034007726
0.008319441821665356
0.07347598078623097
0.01989061548098785
0.019702339238854606
0.07632745588210126
0.0679092821819198
0.21482228021680488
0.009472449978675312
0.03032857179523313
0.11325238310993001
0.0622965893886543
0.08393011950573126
0.11243322550718322
0.04980299273454858
0.2491815522112341
0.2488886181648929
0.07947930097937642
0.5260608827284123
0.05775291141384469
0.048277236736166455
0.0935247783283674
0.060002235382667746
0.04218510630717311
0.04442878255473946
0.024544884735950265
0.12427352962661936
0.048098580605190115
0.17818240600538118
0.13282956027538895
0.08533710952660167
0.10822853080442651
0.05201578504781581
0.04703286695409932
0.08953949123315451
0.039730460268478755
0.05289035040739908
0.06338887042197339
0.12197397958961277
0.12292716817884186
0.03187875377055509
0.10850290566093168
0.10040469449385893
0.10204434679393282
0.09090091062302452
0.16933592470616698
0.21638669295301236
0.1012433618474613
0.14557394798947992
0.09510070377823614
0.14682124167274613
0.07656261177505272
0.1383109642257824
0.173419428246702
0.06600457417887247
0.13189362625688336
0.14445054660950987
0.10721502514864589
0.09067036731694085
0.0804460096002906
0.13830980514497174
0.3149204553639374
0.2744847780254493
0.24631539557791918
0.3033720474001996
0.1411304752189445
0.2901362887370033
0.26942016609320113
0.19471719443837615
0.22476656017251345
0.02336677114588347
0.03523164333797848
0.06730416484146146
0.06654465885006887
0.06449403164485913
0.5225650693754375
0.07702031124810339
0.07800078535530783
0.36607440207670494
0.05203969015112294
0.12405502878809117
0.14023231843737888
0.08169705569970649
0.06464207302074262
0.07749776325413034
0.06439954953182253
0.035961777461865865
0.18236387788111771
0.06592547281430912
0.06353734347505992
0.08694175371560696
0.044446388678223515
0.09085981874602565
0.08413820888736039
0.06028467572929805
0.06963460682046888
0.01531225722695478
0.028543591269207705
0.2251961841936808
0.058113843989279074
0.037569964352429486
0.02721564896445409
0.04935959853125822
0.052715135481871005
0.058215839718497316
0.07870416729413207
0.08618453908010001
0.04542987124083702
0.03842484055752385
0.05886643364010855
0.15499012468777498
0.053244053325124524
0.20198838793598498
0.3396878072279739
0.12664000180078466
0.0980668641524466
0.04983077945108339
0.08220287222438889
0.045016292017089565
0.01630345954195649
0.06406979692336988
0.028269368319889243
0.08465053478460992
0.14305657699455826
0.14062956469186597
0.08633932889282889
0.08022724766185325
0.18749515042656786
0.12531914050255816
0.0678575692951425
0.04844738949752559
0.0368189746681524
0.3581573076542709
0.1559962026910098
0.09492996964924395
0.1921606263299199
0.1014091053082432
0.1722728265567394
0.13120631814373898
0.04678725916647677
0.2289785670593276
0.1367839029855296
0.1633726429163493
0.10859728475147205
0.1549873476601986
0.11628160537256654
0.25737619429370245
0.062483296745539575
0.20662771141617595
0.18173339809391045
0.01773721487008256
0.18457364398402
0.23375587441685433
0.04187502372341501
0.035980131963326153
0.04366405288912893
0.1924193875757883
0.05710556549009842
0.08054553117030282
0.15194187047044827
0.0897567590281672
0.0420352002508466
0.3417851751255751
0.04928750437947482
0.03018904721382245
0.014613232483099974
0.3269628702295365
0.1500760196860003
0.045136313737026076
0.12725446236709567
0.07313273733116091
0.03595266854096156
0.33267927330171426
0.08026649298390579
0.10605581758397359
0.08735732111933281
0.12625888031020835
0.027838540119400703
0.04238340840260688
0.11455408921476441
0.1425633846700206
0.0710958034668823
0.064520369289179
0.14896239568058695
0.12842602313173887
0.04380712132263843
0.21875146821679886
0.057693067900370244
0.040613363578340146
0.131747239015206
0.10140172796085599
0.04508267315149202
0.03949316423027851
0.03750983277199652
0.10712631254500853
0.22649250717557098
0.14255538756990546
0.1862630907360035
0.0655429925483899
0.0996726982312902
0.06980915176742614
0.022585945619252992
0.25710913701106075
0.031117129724846242
0.0545573110484139
0.09060901090995142
0.14608932633441069
0.1481059365345232
0.16204353999304474
0.024941123240899525
0.02040069023251192
0.02290382458673995
0.08289183224582021
0.08310440533916144
0.08108429895442892
0.06922589526211109
0.09501971344076007
0.06039090160838931
0.20593340645735966
0.08693034760044467
0.06730563789885725
0.06366223735411437
0.17121876599261743
0.09869519027938013
0.08867622195914772
0.2897481997922999
0.12163001711603366
0.1681582259564805
0.12102670516387992
0.24058806973142985
0.2517771653404641
0.06781317487870168
0.2610372703537841
0.03388334187037088
0.14721344730706767
0.14919603315445817
0.37800227998020725
0.2381073734856354
0.02648512462595345
0.24199015824120065
0.1620752349125229
0.17185861989099163
0.17690622774600212
0.15060059616872712
0.10143359522991036
0.19977378021122308
0.10686277395296438
0.18398717880718024
0.13843275599259966
0.2172841065889844
0.11387623653128602
0.17067035012151002
0.3423535152723634
0.29657477481898104
0.1631759246944825
0.2223199358728059
0.2036653529250509
0.16275567835989446
0.2586845244329257
0.05531205708238175
0.022630195880316964
0.21421847498637955
0.2654612154444366
0.1725523393355793
0.2691243601664394
0.028663335263859235
0.3260230902929221
0.3388244340300186
0.24455085549848438
0.2681920801319812
0.2064792951535561
0.06722511930993322
0.27615152277479965
0.09906508705512576
0.09583669100328002
0.13612939375392324
0.22442723221628336
0.408940101001306
0.08825841556930784
0.10601574116083816
0.3355074424268473
0.19738823461630936
0.12895006296905195
0.15521034714523116
0.1566284781361118
0.05322118745816534
0.14094279636295248
0.2097845505590936
0.05668904236226185
0.22896987845024294
0.06371475538239023
0.14989122399136312
0.06787176233444038
0.3728463445511718
0.0400355646264831
0.08598819286722971
0.06881164831873772
0.20075649156663536
0.06599240847998368
0.08805411565851645
0.09288645699253606
0.05419889600064815
0.0897260686888895
0.08548150882622463
0.09845685608803185
0.034767327742427814
0.07207524743698239
0.29503982591846684
0.23950005320344286
0.12629999778043713
0.04569872734964874
0.2111551611229727
0.34874018377995375
0.05544763288630981
0.08256443714066691
0.34038050798024166
0.17497335392850266
0.10240048262819126
0.10345983961486338
0.060119493155981356
0.051307828483740645
0.3125576755670136
0.12545166218555004
0.18098702554229062
0.05603588276777059
0.08805921210462943
0.14080410617853192
0.026850551478700486
0.11635111935786693
0.12884360166812578
0.030774697469307537
0.08422946924166844
0.05524972802150841
0.05558025666752086
0.08000469095845048
0.10741809826266777
0.0594821399029604
0.04697738990990276
0.3105450776424272
0.22129218872138115
0.13316102991032405
0.04327823621376173
0.1673297331786243
0.09126498386706267
0.03192121442103545
0.1601732810773917
0.08752899364423464
0.1304946418125476
0.22734263537412058
0.14812522519492255
0.07411982020943869
0.43727734350308906
0.492328212676261
0.5052454440155795
0.40592742423903544
0.4030027992842692
0.38004968024413466
0.20340055075697722
0.03273304059286588
0.03888222499675489
0.038244827172946694
0.18115920692559065
0.020882216530750456
0.08905649076275049
0.21488964766342325
0.19639898878996395
0.056949408426673155
0.2991438463108385
0.12108375304457869
0.2854102976343931
0.20231441983161885
0.06050256530679951
0.20443560430960084
0.3328410585234142
0.15530767914071064
0.12854777061868455
0.33305489048314457
0.2906590240467473
0.45002038753677565
0.04713363843174719
0.051688523958939296
0.0641737124978298
0.3091931092925397
0.04442341335636914
0.03886610401604489
0.1804252727728409
0.21291909314651256
0.244866835845273
0.1396560361942103
0.039359077708332316
0.29732901762050395
0.10235206344298459
0.09747995724275524
0.05987010205826178
0.3092634132798204
0.045025717701059294
0.07918608797645911
0.03389976560133592
0.3060219439716419
0.09520618126629556
0.208066129079929
0.21546498556555596
0.13280873799396792
0.2879549443043856
0.08985833713466408
0.06347828591678376
0.21508925586848615
0.011120221055687135
0.09235777917814425
0.05374817733287292
0.10456134803987142
0.2333257008514996
0.05818922624699048
0.05662743937321416
0.05716957052545313
0.20620196243109773
0.044048517812653745
0.05062145239860623
0.08170879625113345
0.1405086553720978
0.12562583546135814
0.032010647865594745
0.11553391466897052
0.039977081517439575
0.04591113417924284
0.08314998123153888
0.048740761553317705
0.04271898936951952
0.09451981382901471
0.03891594402757664
0.048637584174021246
0.20243675779563391
0.17810207623294796
0.17880235746680762
0.05626148307882003
0.07206635315696942
0.050195767134497554
0.07892169618455563
0.04327629536289043
0.36688469941034224
0.09869521781215797
0.19940415492487923
0.062370698185556024
0.19524181488587228
0.1552826868289639
0.045831685931489126
0.05448490553118759
0.16518225743333714
0.13185653349242815
0.11113628454622797
0.17451137914661044
0.0544045734723823
0.1539424525739686
0.08870634317067891
0.48706218595646555
0.6361808577296182
0.16516339898597526
0.6213426933209629
0.2035579151535266
0.481920337065298
0.24126192873992924
0.25059346093605206
0.2912105010612758
0.4378457578777043
0.09805419372040716
0.20732735228432195
0.04779339620302739
0.024668080558401882
0.11717960972192558
0.0783880157115323
0.12880047526931213
0.2475807604008458
0.2917202298942742
0.14444035611776446
0.027292604400010058
0.013421804774560665
0.2753088918531615
0.13646480027518076
0.056705011477515256
0.13848000087224388
0.07843190660772817
0.1995250514477559
0.3742072115853265
0.17609492826882248
0.4214515110746527
0.04057697898835214
0.13366835041590194
0.1024727573309384
0.0796901913628932
0.04799670853546894
0.056299371171932865
0.06441981119872799
0.11919710664901127
0.06586987021322985
0.0593473252211945
0.06946464456801835
0.08756622517898363
0.05134371849635816
0.05869588656398528
0.07766682318533265
0.039594369354131916
0.08894875428864332
0.3683492619743186
0.06902725682798957
0.3189991621576579
0.10106296317609337
0.18970077784853082
0.09525177537717307
0.12241250862219986
0.06897820690082955
0.18995927199006865
0.3502789429083808
0.27838097054532646
0.09861165900241944
0.15323492919153153
0.08572620850468562
0.04402048891247237
0.11830897468233531
0.3684201616214847
0.2053319322531355
0.05078010483912169
0.11611077668356716
0.21463128548823557
0.14835932567731824
0.26655322508866663
0.033203158759139526
0.09841914430762345
0.14854035085925915
0.11567484799360311
0.08566303628809342
0.06583757302946913
0.10115449555320782
0.07826093073389769
0.07563126130184553
0.062175524441259074
0.06518826225243622
0.05425824589572244
0.04380912808602292
0.053154675274845624
0.047117570552440556
0.26966571753541285
0.16386036732680892
0.4268837905755845
0.4377166304451985
0.016526956681429054
0.0423533914566117
0.025934504496749458
0.08531547171408083
0.041168937199968135
0.1842392377131356
0.05699325473347214
0.21437451584314698
0.16627504431484622
0.06557065489087081
0.06255840449273473
0.0618667252772052
0.03983027174230817
0.07675405364172055
0.34449854139744057
0.17920993628413692
0.3225264661582382
0.24894504309667423
0.3633071386080672
0.10726818358972554
0.04904606912946139
0.08824945140306589
0.06604256604758008
0.059115807455648935
0.05985677328075023
0.09932205413914526
0.26610539521500165
0.08256678235759524
0.3161655798887896
0.15285466991315072
0.27265601621398217
0.05466149512453566
0.11289621181716766
0.10936894357426845
0.18677478425446992
0.13251256204880807
0.14386649913290261
0.392121685818373
0.27940307310666324
0.049061238381878786
0.08278776630571577
0.3268015807745625
0.04931126357779432
0.28844279057050665
0.4848713282757099
0.14775338756105372
0.32829858291210623
0.09165928322984239
0.16158254801700378
0.17274845640345987
0.057703976829861996
0.2868343243230896
0.23205679396430617
0.11007498069466849
0.09548282228672691
0.14525406029223245
0.26996147062700526
0.2559552111241705
0.2465937120979824
0.0963957885268391
0.0573463045721226
0.044062213167157624
0.08060422226018818
0.17120320716305057
0.04379016562976658
0.16270364060473128
0.09492591787258603
0.04349425282640245
0.09359301094954242
0.0906591997230335
0.07491561519554557
0.1161419603965767
0.1978017820045558
0.3292656710077939
0.28399053032842453
0.07461513891084574
0.09822195331304896
0.09328474594615624
0.1313884302749193
0.12495821457557968
0.04751647656451723
0.22347821594044703
0.1258540819403812
0.23673290323548732
0.30651188094224285
0.2540860196794733
0.047322263708299186
0.16720135340200612
0.06860907856950513
0.07864429854104582
0.06657861271133797
0.12482691408102406
0.04355274309528642
0.03835785579340917
0.04593039213277876
0.12380338683008928
0.057206665682613476
0.3591326812351913
0.06438776008909863
0.3792688860845358
0.3006231139777182
0.04806688916787863
0.04190959093205142
0.37221905240477104
0.10406270012524772
0.49217188125628847
0.17330226816643587
0.2590199638762943
0.18742711739007395
0.18880380613757852
0.2914497770092489
0.05946064581517374
0.2856279871580162
0.19181246908148886
0.14443570642005787
0.11416319950026954
0.15357393910778128
0.08485087526460701
0.0976254152582137
0.09991476225060458
0.04765336456654628
0.2006624751377478
0.30825171392533207
0.05423285828116441
0.05548276866515685
0.12890917884419256
0.1786851870433923
0.13948254312892272
0.11852801899457789
0.034559455974389114
0.05149316744751364
0.14295253020961413
0.37624048469911475
0.115549000896131
0.01748352568780283
0.04503375762938557
0.11477637194796506
0.05639558396794864
0.08159596090980181
0.15743750922721966
0.05649594099999094
0.06738472217005667
0.1550112803501298
0.07618410267730806
0.0779305884636358
0.15770051871318697
0.08656342111718668
0.06638181413265476
0.1281758666921167
0.20967912427355118
0.20643671180195114
0.1933411367311704
0.15617142298126147
0.16960883980382302
0.1924329740500224
0.17390317355188448
0.18953318516021792
0.22164412612484974
0.10749342965460078
0.06964832493285693
0.12651844028930215
0.05095939867259492
0.11670973510970846
0.06002638989147006
0.09075425068381929
0.09079262435338073
0.33255969015886805
0.204126896826267
0.04378400540275119
0.05960847516884423
0.0464332856142517
0.09059411476926081
0.4458859731886389
0.11387390607594133
0.3867013698152349
0.04672567397415635
0.3954333049446155
0.2063942894273814
0.17868341501512883
0.03396177046186409
0.15373189952915273
0.09187408432345048
0.3404392688568561
0.22442701652306407
0.1022932275560815
0.04284184531254169
0.16395590740476665
0.10036146361787344
0.2193901182617397
0.32988878851273945
0.03766933150861116
0.1263373021104928
0.16241241364473535
0.23366225369169097
0.2688376173090138
0.09920675475496726
0.18516769900398064
0.08261673843563269
0.05487185515354772
0.03457265800045441
0.16388970753276252
0.13495896412201824
0.07011581894693565
0.2562621241863072
0.3182294479357059
0.05451904354761004
0.037896914402164764
0.04928158028634889
0.11512827800338246
0.42010859891143765
0.11571886897829513
0.20511265609680887
0.2531815605881829
0.20997351402211537
0.3431141978472257
0.20621435402658927
0.2047267563472775
0.015307761146088155
0.3386326283962962
0.30499102613051887
0.08397354443068018
0.12254714982187896
0.1591169219388564
0.0651922239862496
0.27387327928664323
0.16270875856636782
0.16269787303465036
0.11642450349355804
0.11148671838039755
0.007296842167218234
0.49279682851155426
0.23618214712005972
0.19630897023773747
0.1593378952338458
0.04695688744336664
0.16187058578989855
0.17407092178481462
0.043307231751043035
0.04369402013053171
0.0900924882886719
0.0938749954666442
0.19015052126982873
0.0705700360183195
0.20418186034296576
0.13756024984943296
0.20276340638108242
0.26423896089614163
0.1141085390112057
0.09655502614336535
0.13275259195002534
0.14599594538180463
0.08274212526672599
0.12535396684623468
0.137888539439724
0.02590945867384649
0.18722933841890985
0.06009825890901911
0.03406258690158745
0.06473101208891731
0.47007043679047333
0.03401798145963532
0.11977982980736271
0.2254974677286726
0.3550982039214835
0.22712265019902067
0.285821296160811
0.257369070658059
0.0706142802008635
0.27340182387059403
0.11778672897967961
0.16393487681153476
0.4111316451744822
0.3348997571257966
0.11990077550758955
0.05300292742937002
0.07952745057507571
0.14180782305695033
0.14609339504673885
0.08939830647425527
0.19207068993787074
0.3035676133351311
0.1507940677203555
0.22675463767150203
0.14836061677807588
0.3503778116887662
0.06868892402948137
0.1835417321417831
0.37507771191447586
0.13009199979545186
0.4444893312137376
0.12352142121783795
0.24808126204289985
0.3072254560961304
0.2633687045038372
0.20598116861433666
0.19731806527535173
0.2236961223313593
0.20790253378339854
0.25503646762217946
0.14319762849102166
0.18759688222632395
0.10803635289108238
0.17306612628590098
0.17656528851137254
0.20254213224872716
0.19129911536857183
0.04044335647211365
0.46437023827709545
0.1047247443833885
0.09117796980351164
0.09788367858428637
0.23585491637452186
0.17454843680518162
0.003945993881435553
0.04526114369169692
0.00395790586388152
0.3079872842624557
0.26614450052065836
0.03780813389838583
0.02728996585038521
0.025792214859541324
0.03877659468984452
0.2851709557463696
0.008587472759228682
0.10535281994259535
0.3848253051755824
0.15931601172311202
0.0819755565245847
0.27511184644317477
0.26348468860117596
0.0267394325147618
0.04561036114777659
0.27761831816965044
0.022017650045080675
0.059989238852045206
0.30050632143703215
0.07082120905559629
0.13199489168309309
0.32907998162403157
0.2622372534404545
0.07950085258628704
0.23530659251784086
0.08156052219338923
0.18042064892455942
0.05703032440760425
0.05745215074008575
0.051420495339013744
0.15037009166952425
0.1603530841967076
0.13875228363855288
0.02295838004072338
0.11478624227172372
0.06858299728217938
0.48698559905084254
0.1412318968072548
0.12092425795153822
0.05665883382382245
0.18454487700792144
0.20866584025499865
0.051847929080715206
0.026656548537947255
0.046221324176116865
0.11176806474199158
0.034430042562643697
0.07727670648170239
0.138362881433313
0.21803203913810082
0.1689896779853747
0.3269679476419694
0.11314113786080177
0.11427225457138082
0.20605125333885285
0.12574426079955803
0.13121786026996507
0.1389445806732151
0.16142285907991952
0.031604947822003224
0.04001853768964922
0.24607570845091467
0.024044201895103694
0.1961215000833572
0.17220807896329884
0.09430238709291788
0.22637311484427244
0.23279451270739523
0.02851060582195774
0.08565384084301678
0.32576048189027396
0.11229078316492505
0.1693669297594084
0.13177314091896428
0.035842146233738166
0.12720273243785563
0.11985156765154688
0.284173475257214
0.15362487091582358
0.21693900009863987
0.05730019321622498
0.28301629655824734
0.09644647663499485
0.08366149535442752
0.15384658478306582
0.1305693145096638
0.11206941350687084
0.04691037069724067
0.06629454819322009
0.09275295953154052
0.12541232035373917
0.11551658459106835
0.17725271031605846
0.12472728667992482
0.19564494932528254
0.03878634537430651
0.20377362448302308
0.2767775430127729
0.06554128806679485
0.27446711370252713
0.08430537083396991
0.1943675531999558
0.041226574139633085
0.16857370718563752
0.030053431053566972
0.0913638264598913
0.007772037513072175
0.046928932447875764
0.07776246473635648
0.059254068365268246
0.03133032849101001
0.11292544612351732
0.04826529423242928
0.01962050237681342
0.0018463812845000308
0.058226909064509925
0.023871010231049875
0.03489515812259631
0.08249670598462258
0.04060706515918853
0.02279179791564496
0.008080033599434275
0.16317653167363874
0.003986006459595114
0.13108294252687339
0.04466324262189874
0.22350618942411796
0.09449416418181776
0.31555083241596815
0.06464458511571995
0.10309104655007151
0.02849212450771629
0.08070455148059734
0.19098648587463918
0.10572896580353358
0.10871717758455082
0.05793135279086484
0.04943403287533077
0.006224800722921939
0.0035873649820836488
0.05678025335548119
0.18139530157885317
0.17742385593062432
0.20599505114845407
0.0886053232833311
0.08660961001730859
0.05661879359889859
0.07112250821188372
0.03786655684832767
0.22256189593622933
0.12799072214316007
0.16654691658947893
0.045680139778782526
0.04129879842355492
0.12050064099120253
0.03986226893660398
0.09723861146693673
0.2427978662242952
0.006256756784411098
0.0027247332136509147
0.23477066870873678
0.003086791601355359
0.20741157507555982
0.08268980263900089
0.057528224827576795
0.05013135002981434
0.07889934674583506
0.36492558905433226
0.0050514063832731845
0.08122792710112259
0.06538353018223243
0.14866627544653996
0.14047629207338552
0.056966621786175835
0.1043851932185774
0.16878030038123468
0.0016203698167764817
0.002880286121842266
0.13271666255727982
0.08053686067192657
0.12893984085350527
0.12153494785542691
0.2435112114511903
0.28115932879822797
0.0735500874697153
0.24665689149859157
0.17385313666042546
0.2637587094417581
0.13274270808463742
0.010629749998417055
0.30487615170824
0.30205377323322535
0.06408857523585505
0.11528843037860982
0.09715588475065719
0.04033452459089946
0.25994316407109685
0.09184702676858135
0.1836435465852901
0.08723429844346643
0.2154315393651966
0.14526961855066353
0.27070319771472195
0.020706133589296676
0.04131384886036071
0.11434856131860219
0.10843304961347071
0.057454454964210214
0.33531128156519463
0.004986950960729897
0.0019792749946797323
0.061625241410226336
0.2173113026212744
0.00242865310465
0.1423508818795332
0.02978383504046779
0.04489043452440496
0.27540414596297424
0.042735522131464754
0.047476406230443816
0.25687181487983596
0.007882988199638643
0.08826420797410016
0.06442777372309677
0.10334888305425423
0.018780145942441036
0.12805019871323217
0.057784062954527746
0.13593160298036278
0.13861785336434101
0.07986938547557595
0.12994933767606517
0.0528366592860564
0.11338444438768927
0.034053566762269276
0.05120295553817732
0.13757697408927858
0.04403593844196543
0.055094511332187505
0.049871724343789135
0.07349923526451035
0.056777388454674595
0.047008728814462414
0.04668416980259726
0.18717000373516868
0.19412118897658553
0.5156978575205236
0.5111785817587111
0.08515304057624563
0.11393597190682407
0.1996326272965823
0.013495975033569033
0.042792970677693096
0.09963805589688446
0.06599754162772302
0.07417230821021048
0.12217515088306174
0.0612300233219385
0.054680596957663676
0.2983922689406461
0.31995805163700625
0.20261819382902252
0.05593869376111715
0.2390619760490293
0.300990406655464
0.06887674721960495
0.014671198603881126
0.09871932263732267
0.16871789571306314
0.1344175196058918
0.07931655150619656
0.0036224406611960647
0.1279298956683806
0.10223874612908117
0.13964956992194216
0.026369396480433564
0.08009797711108341
0.16877834750659643
0.07345024100376277
0.08025644283932279
0.13102967576830019
0.027798105156897984
0.13190526853691048
0.20284388473018175
0.08320286444438203
0.5875887959282474
0.538631827963888
0.1007458043844443
0.07821803747009119
0.1574164172359449
0.05759216082432348
0.04913321068073652
0.06384298705836994
0.17629885284512117
0.06548194417914281
0.1865101182191887
0.24533814069033025
0.21087555507738917
0.09382340417860874
0.24992633690049612
0.2750606621871067
0.250148484253844
0.4257578938489975
0.2232090174538235
0.05038050584581755
0.1412354130415268
0.3202158414259797
0.24242025091697178
0.1401522899748016
0.47341922582343354
0.022296430974553843
0.024806647829434526
0.3715472855629223
0.39317958619252025
0.2773588442504319
0.026890598276584524
0.1939363172121346
0.1514726410689862
0.11749797628451503
0.12205718054985226
0.08423447241154398
0.09717202998039966
0.16779256483799077
0.1384001332925655
0.13083895544255464
0.13240286047941005
0.06369768267561325
0.053384855539590256
0.09370867737198144
0.05587064610104424
0.12881204034482824
0.0376879218785252
0.11367324208226091
0.07392265697865447
0.021171303084559362
0.058165366735652944
0.013063182835675459
0.15267660939041444
0.03106707253591157
0.009177894606789975
0.20451893860508982
0.21044890193408133
0.08740904695602654
0.06648403381659557
0.15020847645583485
0.23432628767010866
0.2869795423928383
0.09529484399100849
0.13740887070612803
0.1590207531464422
0.16407763332826025
0.20032613873801045
0.18533750556303666
0.026969845031963778
0.3277131754595545
0.18636478456187028
0.14903900171764753
0.18372023884492586
0.11805488404902756
0.1849695980987963
0.1158634754324019
0.0806886672431046
0.18856082382035771
0.08296895835325187
0.13894296445266238
0.2822430645125866
0.24107389427403492
0.10069572133004043
0.016447988050997644
0.13098184782076622
0.13012030046099454
0.19449933122560417
0.27036100221533127
0.04296125838443604
0.3602998556489259
0.23406131132078867
0.18516667643929685
0.26647887751189586
0.20931799104412396
0.09657051599571448
0.06462715635188158
0.13174286507018138
0.13078355697558036
0.06675783255714847
0.15861944526373511
0.08247554799507924
0.2700779430416136
0.03055642715020551
0.06273481820857707
0.05665771054895669
0.13886649467831252
0.12737007548554
0.09430281960004971
0.06817167948196516
0.05647295139019206
0.04080095150063883
0.12187947379381754
0.16861866931946035
0.0889903933386731
0.34858868237452256
0.01929859916160735
0.2003744097499697
0.1867104581493659
0.21545023002713815
0.10242613351297093
0.42204485649725987
0.38668300793632626
0.41490816310009065
0.09547256997206686
0.16222729553055273
0.15804037549512687
0.07017344386787777
0.2705078849552041
0.22251268913039599
0.2075298120800363
0.23512038354419518
0.1917697575487804
0.1355822234332031
0.17890830255897533
0.32509032693784673
0.10441392201822572
0.10802300358162896
0.07393791197762556
0.15652554989151438
0.1367789538939192
0.255843916385319
0.2212460697929207
0.07996341880935938
0.08914112656089392
0.1923996526759441
0.02524253690437605
0.3168405264162364
0.17230207602400574
0.08237469698265339
0.2665247800848081
0.11920217357736126
0.10003906208789945
0.08327106381237626
0.10826227943079687
0.024778596130367644
0.05071277496383043
0.07733580535234165
0.033979448408414326
0.09243871121900836
0.025028124829219175
0.07244984951409172
0.07457025730563226
0.02582407393548638
0.052385199197330964
0.14234230704234685
0.2282730596516067
0.3547851768637217
0.1611592279820104
0.22588043206365827
0.2267897313494471
0.05398927469725011
0.38123378848343764
0.3328260298554968
0.33705967743934145
0.07711167477638095
0.24775343412918413
0.13760712009626752
0.12988575233423652
0.17932014943218655
0.23225307664554953
0.20829015556196126
0.09174001543178231
0.19638363798312544
0.43334135217793585
0.14391576420618601
0.27105544432982415
0.17420618156365197
0.06164856237281835
0.24442003077496502
0.10656451499152582
0.26887425150593897
0.10160201000083813
0.21228580793955226
0.04857339325897411
0.09264278293554827
0.22228196210246975
0.13652108711883548
0.08805613633838622
0.037987441812896754
0.04650823977145386
0.31476320373987804
0.29526841298184786
0.15366317766878257
0.17773346920378189
0.22934896937004734
0.14651045911226593
0.15042128934383972
0.01757100071631632
0.21425645239015845
0.049644376051858924
0.05980749614837597
0.18874587929444409
0.1476266221018329
0.1432655245068508
0.07713732001043562
0.04325772634991034
0.23282080085241244
0.3167975456976503
0.2173456625088487
0.14648858939370613
0.32205257585084407
0.07205658599679571
0.04437942235024429
0.16936257937558416
0.16510199779721388
0.11390628417680512
0.09655164325786764
0.1482719032395399
0.07666312005428849
0.045155927182874415
0.0889361425244333
0.1890566469343052
0.043222351484544945
0.04625872229922495
0.14708033848663613
0.12902519695377956
0.04986037262307031
0.4046516172486645
0.22023571422255028
0.06054790649745932
0.031046367317654554
0.12994573022991093
0.23193846720726033
0.06353264702135182
0.06769664643338323
0.27241886227514095
0.11441869384239414
0.06746154215806406
0.2344576909906502
0.1660679895702244
0.07189633740463261
0.061892735579990275
0.29604375258541205
0.3024519833772227
0.27086204051374946
0.20145710054236873
0.07593920803837419
0.07131733707724353
0.032212976389905924
0.018152075400120735
0.12910236954136484
0.06370008582074027
0.035364594812543615
0.049597387774525714
0.04631392105642075
0.15852827310675813
0.16181659543482768
0.17057950057723234
0.09866767320726602
0.03143383616674065
0.10568250433056786
0.19451825290443706
0.09904650284647763
0.09735955511160084
0.09085941497999003
0.23780571793981164
0.038446867275499695
0.04905616268498721
0.019147046866687542
0.10616729829975369
0.1580367768395664
0.08215907743303368
0.02610336931875743
0.10761743366670865
0.12347706223492362
0.030685745732106348
0.2687936831538845
0.08051499239674922
0.029572439552532515
0.10459893702266623
0.2349223252234331
0.08967364605241734
0.14856550440850402
0.14056039467658074
0.06962569458205431
0.1314136507781311
0.06930918281768028
0.06812991122065089
0.1913562003766331
0.06373789301523043
0.16694713511734605
0.18533472894845152
0.19576144349242175
0.09116874097006743
0.0870997818472434
0.08826742345406176
0.11614451078704083
0.06132187407684962
0.06789710894885577
0.04802145337665807
0.04364250428601657
0.04234561619493745
0.03512318434528293
0.14941131617467507
0.0892848888628932
0.07808845395795007
0.06997033333158177
0.09305790372707375
0.2294479381247569
0.11781714351259175
0.0559913243519551
0.1192866608330916
0.07261336614372688
0.03457516532090149
0.10054335158907576
0.10939260792520698
0.1455266024299881
0.022238118542899643
0.10857365408389243
0.1043221266963301
0.2245503311390863
0.20733829840406406
0.04120242399623294
0.026050786617364607
0.0767120885252295
0.06645778685324784
0.10467632310433996
0.043942458221356645
0.011736425190677989
0.2560331192063461
0.19810657042297142
0.25869527898860933
0.228478313362203
0.08531018335874509
0.05153291671501803
0.01565898825591346
0.15785578554871646
0.055059615508705285
0.10106984425398897
0.1758780334727307
0.02988506928019084
0.0347135698256956
0.0931902175447836
0.08838560704265663
0.08516523974660986
0.10330422617092058
0.0626475886927668
0.025710349799367926
0.05690255908108212
0.4861540253027132
0.07226413441331753
0.08297685890485734
0.0499043941911263
0.06928197395833352
0.04160084776004648
0.07298076523006208
0.05743912436819783
0.05261615002343231
0.036688078201617784
0.11160256674131117
0.10886852188967222
0.12655340612981347
0.03904675501265226
0.10583463452423857
0.08357759172382583
0.030471199164194083
0.15486283341609414
0.24549423790657862
0.10769361028484764
0.1080560646276524
0.25724945935000715
0.055967164584800354
0.6110144936807946
0.12774466999538645
0.04274367786660302
0.061869207639849134
0.23916078127054524
0.37292138023360455
0.23918360906221162
0.04142725743743276
0.20540976036350175
0.09909097027537932
0.3124105159665404
0.08656393181049699
0.10852194498034781
0.10310940190303815
0.19915629063404836
0.22012263146208336
0.3684203366065125
0.21388120383381595
0.20477787294249997
0.16964806274357017
0.15524138138930885
0.07754676463074278
0.06552125336576307
0.04837803218019055
0.07443698982542053
0.12740362143115225
0.20378115357439813
0.19366347334737977
0.03786090337964844
0.04303956077931283
0.2609769701701112
0.10915615913435431
0.1304358272323953
0.06366148368526393
0.07278322411717203
0.06290558930826039
0.056092437105894594
0.14902621629934892
0.0850717405775995
0.16786000909408094
0.025108260567882356
0.042988244687080124
0.045341257041039404
0.09619500436496826
0.05995816508190718
0.11338032389710317
0.30955539423017564
0.13349559280079362
0.05544861249985927
0.0996409290736677
0.08955601620100222
0.08436162612265206
0.06445308392513241
0.02774413822893693
0.06163661151560734
0.07162091499406657
0.0690793255928523
0.012074691732396524
0.057224847116807934
0.058277675596614724
0.06477383703777627
0.04450147894381586
0.02700295781102064
0.07345104529984611
0.13794382473749967
0.040125620573101095
0.1008822917849387
0.08523653094582842
0.06256747557712133
0.02828210823974251
0.055334970200317114
0.060347205962604886
0.06529050149734757
0.0647939758742786
0.06988616706117587
0.037273431038066865
0.38528282821143256
0.05284318834369431
0.07064768689663477
0.03530735363518604
0.03454032307411747
0.06590727606265176
0.04863220082519843
0.04707583453757463
0.07327992829871827
0.1769044323626939
0.20339346280996565
0.17749868012654058
0.2683873793736434
0.21357243712046262
0.20979798589553889
0.3614665887860153
0.20281750053423306
0.0792605991862757
0.10596898760796988
0.1032336787901816
0.18671943707545807
0.08043074219157612
0.13651692060931483
0.10593420663258987
0.23421547338209892
0.10040174253711008
0.2779065452674236
0.32999035774959706
0.11365892476667337
0.05052737932801759
0.1523991275973032
0.11433374015370243
0.0773468379776304
0.12320685299145463
0.13084212533617934
0.2698727510054076
0.10941336791005911
0.08738038187016939
0.14596990800099727
0.2479291169323559
0.28515443830368387
0.2970120663167405
0.05389563850336726
0.11756246766701775
0.051011373611679484
0.08695278816260957
0.09073935982446711
0.022143731463282242
0.25717255571054226
0.1428938332676842
0.2706193922231995
0.04021535915705931
0.3323588485501023
0.13408768734388146
0.3158891780649049
0.19219935395822044
0.39771533292304906
0.2246037127361683
0.22579775934965352
0.12705536472904116
0.13677632091373615
0.11020734037423582
0.36710240401353006
0.08266894852426698
0.07813203969889082
0.067868613929586
0.07157311117057946
0.0734763790471252
0.1356471783123108
0.07777898504215153
0.10533076155058409
0.1365214512802658
0.1171979276562704
0.09988578824765325
0.03909840931460076
0.11579184226340633
0.07467362082014824
0.03440772427785206
0.0737331884762704
0.08042702359454029
0.18503663254701308
0.05902705165309205
0.15688919392448786
0.0775486785090518
0.026560120116910287
0.09753824560246345
0.07472528055206314
0.04994624967642442
0.08605407768662798
0.051025343948974095
0.3254618341166118
0.4096824200647085
0.029470698726115012
0.02579244589603663
0.24640625496469937
0.06815364741252747
0.25372366883876496
0.2576665370294063
0.07253568189369816
0.14402728697231162
0.34263742440872175
0.10395309324363906
0.1454328014156725
0.07811969600454893
0.23566704753391476
0.5031639789922392
0.284675762453509
0.14374460791174354
0.26865686025657143
0.4341519245966325
0.2684293529275333
0.2818946079080076
0.18060457247465703
0.2137721446428396
0.1403364889390205
0.03155765271294894
0.04755584890144303
0.07385051225787707
0.08862597406193444
0.09317025750686354
0.058762193631895235
0.06236344078611433
0.11290978087700829
0.12424970368024367
0.03880255124939585
0.13349573615226196
0.0925919403264258
0.2153309321622644
0.23331905184295537
0.35872519599096875
0.48213430676849467
0.28723633592905445
0.3832613110444631
0.18521796680086142
0.15793304664434654
0.09923586321646835
0.11363496168055039
0.0887998015403696
0.09953564525605486
0.22910840505463245
0.21873243328313452
0.09784943739945814
0.06627783262712685
0.2576548267659796
0.09589819063899896
0.10766905174225662
0.37143452834181306
0.37730703511568364
0.16784885313453327
0.08139940836422609
0.198103895722876
0.07210792027421581
0.14672937485623386
0.22051923547937108
0.0379016494554536
0.11458397421365
0.042610868386655024
0.11325155608338303
0.12633213551239625
0.20736292145827057
0.07820154073112119
0.016293472294388652
0.07743472360968424
0.08792358495344248
0.07596688605950139
0.06866304206393654
0.05353728738359313
0.06079252543033469
0.2254719789551019
0.2649279088036628
0.25181403344282904
0.10017562435216147
0.028795104854929473
0.27664747056221084
0.1042440287265383
0.23567962017718164
0.1018458624216039
0.1041512911792971
0.16885357965361
0.20007982430946974
0.27749801602933083
0.09651932104723054
0.12495425377477956
0.03212686718746407
0.07768961542205317
0.1911612571987876
0.221360128273824
0.28443351046852866
0.09953417110111541
0.1443605987954478
0.11389078985851958
0.10107997609103025
0.27006681816206796
0.2728960118856483
0.10424870055894546
0.14214184773256072
0.374555779607561
0.20378543761209617
0.19017984295873985
0.37601495674607655
0.08843930355802139
0.03729233030087269
0.0815232760225907
0.04019757644189992
0.05741914976108797
0.10110364494868866
0.03862422705427559
0.1994095695993567
0.16173091701058698
0.18356958796563083
0.07493648666611347
0.205064995342377
0.18663326404432165
0.17779838631772904
0.13662956200991042
0.19594833055810448
0.15282738706338003
0.08252275361288795
0.21174302650200055
0.16503070326509753
0.07734138214688029
0.18340689105070798
0.19204961751657312
0.06348231218611176
0.11101237712398594
0.16565728606786623
0.06631465986293497
0.11969723693336465
0.12973434286391927
0.02576734979429561
0.15879231123271645
0.14945744961310675
0.11661701820301476
0.1464535717286467
0.07129497811437226
0.10951118005069538
0.1966821769768142
0.18203268068761
0.1599515326794415
0.21529278978900757
0.21706951091958118
0.04832578594146618
0.07446774273225154
0.26871483080050285
0.2228425726821417
0.12458872226515286
0.12307707257729654
0.255137756478901
0.1418641496264551
0.06530200760403769
0.08172999466265479
0.1815118689255158
0.3046290509075609
0.020484770988818183
0.06235926819514298
0.27293191628763874
0.14731380711379852
0.20738148725849426
0.23927371572804568
0.25756885373476024
0.13230232907510645
0.04476003481117004
0.05973279205372656
0.08679327009085575
0.06381560721146211
0.14353761504357665
0.10126087591372657
0.033473651644502375
0.05842071312460884
0.05189563571831494
0.05885050847485598
0.041811826305941234
0.03871104307567586
0.09244597768985832
0.08432963402455346
0.08029742562950434
0.050210607420973684
0.1275409519450501
0.045545572297468244
0.08057576821560242
0.0702760765731057
0.0393802679486534
0.08238405024791505
0.05572314155722949
0.1251794373049445
0.05543751443962741
0.032149830588195885
0.11278754620024957
0.0802314631728191
0.11132786918535176
0.12656146562819914
0.11912548928761522
0.07606400452141576
0.1780783833578667
0.12381358836264826
0.14628035417281463
0.16585824530334012
0.15463702525528986
0.09231793741349158
0.09616309173885998
0.2144239877697455
0.14066778591009058
0.11906259033004231
0.17016063597019992
0.36861548110447717
0.2700924953414908
0.11828097690819889
0.1725238471719944
0.06340379541383434
0.13356700530896765
0.06186916353488924
0.1585368675674542
0.27119488363931543
0.18438839013592592
0.062493885323202526
0.11173637493093526
0.05114760411214795
0.12749132225243634
0.06420014698986676
0.2133070769519728
0.0399077783472187
0.10701444564346373
0.16733729969278013
0.03497157039808447
0.03971883149136161
0.12576806181087294
0.0443912499795239
0.03056527417502505
0.04568261470126651
0.3084779893770229
0.27690881939809414
0.01658152152159022
0.09570929859059626
0.01753606216523917
0.17320817442096964
0.2825214702911366
0.06246017240632289
0.19558574215729982
0.07486319632650618
0.07390182061242859
0.11353514884381254
0.06724735469321151
0.13044822827134533
0.11784412341134422
0.16829170976287294
0.2952674562269381
0.0900997542906726
0.10853334389054828
0.11525165041833296
0.11584668468997415
0.0733360664093156
0.0992317484897232
0.26798267750937954
0.11091075087812297
0.146328409175757
0.09935752093013128
0.12216933905408761
0.17557440318621043
0.1931097032260276
0.09573539835067664
0.08721925494781686
0.14972993915057098
0.10775204856849926
0.045401211433171336
0.11353562523330472
0.06090973645377982
0.08008096808817179
0.03524342441398303
0.27158680057396867
0.15559424603863733
0.1767608197709814
0.0797428029096836
0.043596068804454914
0.15488605451607954
0.15311358730695152
0.032007531008310816
0.14296448741717724
0.14539223638932747
0.10575247301869319
0.02958391356033532
0.06005251783533198
0.09865269585787242
0.06788304013993375
0.0794402645597307
0.061801172565899815
0.07281847721150131
0.02233738786070648
0.04984742926392691
0.22198155095830124
0.029812315949777398
0.11072660102284868
0.1507573311624526
0.07900996948464208
0.09471484249716398
0.13888810681832503
0.03977994213159699
0.16334039962041144
0.07548500611136104
0.05943524928258799
0.1151966174407169
0.05406325818514979
0.09300159216756738
0.08560572178545768
0.1068214411995984
0.5719872967743981
0.027241690795104717
0.1714412052344386
0.12443949355795661
0.25557351397780104
0.3747259522444809
0.18815000940383028
0.009284326721109334
0.10637678306117843
0.10398760650291153
0.1437316382598362
0.07687530323390712
0.08466069658361439
0.18871376194615527
0.06119337245797178
0.051443340810616675
0.19673121178509775
0.04011562011000689
0.029089444792326644
0.11870847855576569
0.12936323637521463
0.03045253441255226
0.0749280110484565
0.05533259161582578
0.015784080512625493
0.17707842218767827
0.1156355035840558
0.16945050742982104
0.04616989466964089
0.05328953551228201
0.1942138311406014
0.1488112740649404
0.0672806253163545
0.028481526166121634
0.05472496954356773
0.11454749287244202
0.13827017028432306
0.11745921446087637
0.22430228249151765
0.15395997485868115
0.07876638374149703
0.02670316685955213
0.15602741989065474
0.02483167536700415
0.17536412269410295
0.17920343216067494
0.02594666489241274
0.21235680930956025
0.04011927002653951
0.012524457242188206
0.013285374306656692
0.14139586003065513
0.14792997685280437
0.1812583472269624
0.13791149746012102
0.0477040692648045
0.14766720650258083
0.008869774694919067
0.7181678064448878
0.1796680447453054
0.15730983241384566
0.007765188527005199
0.0859507758672594
0.13317423184492144
0.17713975007351082
0.28802445558597783
0.05305263372493971
0.12614685688805896
0.01962169490899696
0.13633443683676302
0.022144802108863906
0.05192048461420647
0.11925836685503576
0.03522908492835561
0.16638812771988834
0.10454422579841235
0.1725923478115332
0.057183395055801486
0.19982872130482565
0.034958001997433374
0.3850019275146731
0.023238668279293027
0.023852978540943762
0.11865193106324338
0.09401413546358837
0.22929750632347098
0.12707728945562355
0.1404223097401272
0.09562121633965052
0.05995678067110902
0.08611318221575043
0.0693785193189061
0.07348885029963724
0.1715388988193235
0.02156739842521457
0.06387838771560077
0.10457104715632623
0.034681146298418494
0.1347952431094905
0.023040106934414755
0.08115604645672844
0.14144138596354938
0.07761925764962754
0.023640189855027718
0.37934270402973186
0.13106029157272317
0.11334389994344465
0.0542870926916319
0.004192430077809275
0.048442620476061606
0.36850305992360727
0.17117657382312906
0.17468678264368795
0.1362296449940125
0.13486214186349396
0.12979042691237477
0.005118756811265478
0.27399514103247125
0.2746147756356564
0.00800094987512242
0.008832263578254514
0.12041546613918724
0.11173422270069197
0.09196982977566137
0.23398542075710269
0.0314686220713145
0.11008538947659524
0.08851470663752455
0.10173073583388703
0.05805818932178706
0.045753475578492846
0.0653028657047256
0.12365931885698807
0.08496132031853276
0.051554615135351166
0.09928513691452032
0.07610768476679236
0.14666214163124047
0.20032918704385796
0.021124916986281904
0.08453004079787532
0.38162058075874433
0.14571215873928772
0.13638419711545438
0.08551135421534234
0.1535313825573205
0.19687681048202169
0.1497786409792257
0.16391698697457513
0.06789414746961135
0.0831903781691803
0.04498678215026343
0.08214471013456567
0.06961871828766276
0.06887767444820284
0.03926038573351122
0.0224581266527238
0.07141327922666316
0.03674263473592761
0.016781145317724785
0.03955511817830316
0.09848302698893162
0.14342449889276784
0.17074632644791193
0.031018759553041578
0.013533827074764644
0.06520018047005545
0.12459989842819179
0.06399685178980423
0.0190971113041
0.07459353203184141
0.07039614766563251
0.05221689940693514
0.08441917235315598
0.13210332893354335
0.02875452443078803
0.03983256796498097
0.18611696422497584
0.04149941979194977
0.05194577445018316
0.036468631913725055
0.05962834441611186
0.13439767716294737
0.04644321261507094
0.20161154172031423
0.005302304548665279
0.047518809499165184
0.016930366531510376
0.05095140496315878
0.6231963477828534
0.04166591706141583
0.29719305996267514
0.05745707970490355
0.003529273638073766
0.12106856864106673
0.12926479127257803
0.18109106830757196
0.41578140398798796
0.019428118011541425
0.16600662860476958
0.06745059927820515
0.1280949878018825
0.16322219312239483
0.11467819256325913
0.13170288671973587
0.07105471977147303
0.04312600342708695
0.02945366565177653
0.11017932783876472
0.025994819309313213
0.29098128820514274
0.13739212391970576
0.13799884672941284
0.3890620260274796
0.10646507875811678
0.3358516757305878
0.019384034362909103
0.03940076243651628
0.15585121947001454
0.044262138089925594
0.04625962290865724
0.042690629677007846
0.03926223263775028
0.27343780238268334
0.27842489792181013
0.08863109995881796
0.041493532760430774
0.07057527849390581
0.05052954273318549
0.032674517740310785
0.034369865705438776
0.12190956089586592
0.27788455074509316
0.03243927013725973
0.08431394994328668
0.030033014245587943
0.36930799941043946
0.021917620537040217
0.08724106832285443
0.73669626382847
0.2107360947776778
0.14952520902248512
0.027201796990982203
0.03830200283291827
0.7192821742213641
0.06311325813881595
0.04461408601469322
0.06248954855614724
0.05824804553797553
0.1660969497302761
0.057381061802226865
0.05311083762859788
0.11921910372173207
0.059115192096413506
0.1722230938067064
0.061302436241275675
0.030153739951624223
0.3769593798162632
0.07153628127434135
0.028844273219956498
0.05391269654022984
0.31755004900431827
0.0203231883593488
0.0585772832125878
0.02096490610121819
0.030411718648103922
0.027350819062350155
0.10038964558170738
0.04133595681448002
0.09860143223082571
0.06543668595784634
0.4062665738896946
0.02777432141562743
0.08431502171994973
0.47584024086137816
0.09040613893203833
0.10269094650931727
0.14295632292071225
0.06433247087147635
0.10857481937118658
0.07926954667184997
0.055081674221899676
0.20993371420373375
0.16814133729169004
0.04456787983532994
0.18673122905457473
0.09655323776602305
0.07527957241220261
0.007620755910114538
0.26754345007477814
0.3413905941531033
0.17272819639301415
0.08443896671633239
0.1609710621055718
0.08608045580070423
0.23298797297426765
0.13704383608172624
0.1591944293414885
0.1453273755291742
0.11864258965866402
0.17058869515438407
0.09653281800919526
0.15901743232396334
0.1961039524409262
0.1243880685700139
0.20285998216546022
0.1140212212260767
0.38084952964468827
0.1587621189562211
0.07698908076059949
0.04563550076575717
0.160083005355449
0.10584573764399162
0.0802052299761355
0.12788312594831983
0.1161973754845497
0.2056429803696645
0.08395405887595367
0.14850973119660799
0.02390058903426801
0.1474130883072437
0.028481345325016137
0.13558930386826273
0.020401704732217484
0.04523820200913272
0.1446707736127347
0.14012623721338716
0.031678083170795596
0.042640635291340934
0.14194470832016767
0.08278184999597475
0.13641541911555452
0.006477408778779884
0.11156177418314672
0.03685447855784388
0.1236223958007265
0.22649573483223479
0.24275325900069877
0.2908791021471792
0.07636416066040806
0.32272656231974295
0.15366655122891693
0.04080940085013096
0.25093751267996495
0.22377988249056316
0.054297220050611626
0.17842738690991217
0.06667348469598586
0.11300937401034265
0.1150703217510736
0.37184161335049065
0.40202136880474515
0.14224038669233485
0.39991284964013674
0.07027506170601552
0.10625682086290156
0.11809417387791073
0.4057205999050604
0.1197390063407993
0.36889885600258915
0.22587345143240398
0.3790535711202522
0.34050235868905204
0.2900126207305874
0.2052299529119462
0.10866080307123671
0.15769798090466278
0.106805684008795
0.18742233618575624
0.022081850229886523
0.13503211498357992
0.1510223147252867
0.25814664700268897
0.05216543295411307
0.12950221213369648
0.13121289882081005
0.14242100577675526
0.08167394743351337
0.030622399358274592
0.19925539569520187
0.2660782500080761
0.06180321510690031
0.08435387932992476
0.24014898298353557
0.10456156232498034
0.11793923727845385
0.20275023551793228
0.14547568595318353
0.5796968128925347
0.5634840740200052
0.010715686071081722
0.449860365988302
0.48658795626741075
0.45001893145223343
0.38370910148986626
0.5810868976507518
0.5766112668971657
0.16871185112191187
0.1446881283950786
0.04927013058932508
0.11116248837295421
0.26227498652856224
0.10631091689756128
0.5205537173097496
0.2651784472061752
0.16355446893039333
0.12770636728822288
0.09925168806905592
0.3537674871547232
0.11006261686932846
0.11207170172207057
0.09424459898711685
0.1425051220159324
0.16360464679089295
0.19400564452765415
0.3114881942706007
0.07635446866432123
0.044718032935698517
0.05712892305287122
0.02357190213067598
0.09672319895470516
0.08857189802988548
0.08794121581459327
0.09943880749440592
0.09952747024542896
0.14235120248868188
0.04316786796632927
0.23545435851809152
0.04151802706577585
0.03324927980669778
0.1388293173355154
0.009718394258541124
0.17067563635349078
0.055157177869239876
0.11295783983224505
0.08342737427321438
0.2777911849392636
0.03558737168335449
0.01177434207411093
0.04618471056430894
0.052847133009841535
0.05283969622981066
0.3196655231822483
0.11315144128721077
0.08339796668332977
0.14977015439352348
0.020521874467857002
0.03642405284876096
0.14474902822514912
0.08137736692182627
0.17595325487283847
0.13950780069432042
0.34103405205856197
0.05136908638524007
0.1914538090513657
0.06886956390876993
0.19513051912314056
0.18520896874488768
0.06643834715758298
0.04748459090944633
0.0822673044975978
0.05412173915776296
0.12391827580556872
0.2405946769465621
0.037953891551836004
0.12469920923835946
0.09074263584353505
0.09522580719148392
0.04738874593914786
0.11873730116749232
0.1714593961048957
0.004826705618605113
0.08990560256724305
0.3952441825244658
0.4740151233078075
0.09556265789808766
0.23377645853524032
0.20229398463368006
0.05301954472961627
0.6394076367753977
0.031931345000120626
0.5364011054354497
0.5325353111856455
0.21291048928639608
0.1551301533760772
0.10652320361116807
0.3897453593792851
0.31043070799003325
0.317964187221269
0.05104257207904797
0.03815275419013181
0.45407411643275525
0.026912664185647552
0.13424575481708825
0.04526977432678215
0.30475950705647875
0.08768334657339032
0.07798776944035082
0.023466255805397733
0.2702332303356523
0.1485006889435067
0.0500595937743749
0.02769180324637398
0.10623003031751947
0.08483774644760186
0.05153878386666627
0.2371412540688651
0.37460404140172787
0.07666604922984419
0.016397649224152287
0.02738483896301852
0.15146126841169966
0.10003593402803729
0.11518353079966225
0.1154019102712947
0.1659787516728857
0.053861607239572645
0.057788798990112286
0.17164997753203998
0.164208361021209
0.07339212445123215
0.13486082288961024
0.05393875822345243
0.15819350718034259
0.24656821428543907
0.06137239830745763
0.031868054928159494
0.19992612005244928
0.19005791965122712
0.24495766905751287
0.07222956318462759
0.3117146806148968
0.4383362321827455
0.2971145564081173
0.14915936264067473
0.20851453619817964
0.06557785511736676
0.03509914964956253
0.057682948683139244
0.3209180033992263
0.13858800089536666
0.00526948287308174
0.010372111506843223
0.1394414723295797
0.21273732691616237
0.0884087544889465
0.18611269209616502
0.06956614388354673
0.2444469007960385
0.20135088021638697
0.006579604403648664
0.08908551561233775
0.16921114154132655
0.05086985755990824
0.04229725639087453
0.03636447466529886
0.11465134835134161
0.03158544937400825
0.21011715105647105
0.20506255654780364
0.37565934109563476
0.02094997963646002
0.0747145670193648
0.28574410282512047
0.14740370196128838
0.19023318313827267
0.13753859501194332
0.16185279408699402
0.14440385379176568
0.26052883135289767
0.3083268826397326
0.32740684202374803
0.09168228770346444
0.2064450142153727
0.1559209794484579
0.2859565274429286
0.17500928253456827
0.12263849932589001
0.07026658871396546
0.13662787923528882
0.1342016770040373
0.17973048747678028
0.2062794200164132
0.12841281979096683
0.18077661265166356
0.07831842945996494
0.20654649365121766
0.1958660629168594
0.1417742305887045
0.1346173036521707
0.19519002015959866
0.15287937817558522
0.051147710036050814
0.40395277845935834
0.2837296180785466
0.13258124654706202
0.28753043778994786
0.3200795242625341
0.1979870190290824
0.12030138857205475
0.13295248207035862
0.07477807994312204
0.01719382010932196
0.3583626468938682
0.35792628173774854
0.3111717604593504
0.13654297988123018
0.19543245952366273
0.12840512652679859
0.13736142409222482
0.1995838261783486
0.37427286415402783
0.2340362744851437
0.32451891624435897
0.2800704669197661
0.046174609192961624
0.3843644548185952
0.1363856858291876
0.04909602237027103
0.1123732867500981
0.03979555475749771
0.03144694657982791
0.16710121879122816
0.1705872899925113
0.04386473170688614
0.14001774926776153
0.06348547902747399
0.05642455681204741
0.07477489947283245
0.07089191046149282
0.2806464402917356
0.33188116909356763
0.30081974711068565
0.2877833243599547
0.19237260274606183
0.04319835638132146
0.25450521921741126
0.08542894922049242
0.21440623396578892
0.01843718045558659
0.0841790533187308
0.055299689519107194
0.2907993958003404
0.1457926219313314
0.07906649514652048
0.1612040669358016
0.1272624449460745
0.045300815534531025
0.06697918491431624
0.35343533408496247
0.10001431311001811
0.21157107369728131
0.08570058916533346
0.10066360025423708
0.060545067113729936
0.13975355713822032
0.057633329304622206
0.06393312570544131
0.1249301703661662
0.3318290263544406
0.043873160189553166
0.09039564590398001
0.07008033797112015
0.04621920379770007
0.10647923156037181
0.04212784171717516
0.058511519148046455
0.2262838844971883
0.03913592691257438
0.17643522291707278
0.058343551380404625
0.03885234947325803
0.03111510702030343
0.10362685485836909
0.22848192671309223
0.2564175485731157
0.21331156303307194
0.14265209758486797
0.06807399544756783
0.08372233894869482
0.04343033037096493
0.019622645027894178
0.048601068858189725
0.13386203824543105
0.05754163032240122
0.08100581672291227
0.1568225742475945
0.09750816575977152
0.14221697342438502
0.12179406477357142
0.15780850757564754
0.04502005814203889
0.10867400762060636
0.09411080384616217
0.13311150082661444
0.20216098347835273
0.1800564396835183
0.20234710058084157
0.14059576992552447
0.015542669896041323
0.36137981137014574
0.0546137188724964
0.1495750244829629
0.11026855517112344
0.04320757522269585
0.08111399828307636
0.3131454157342985
0.024234210450429963
0.05809105074734133
0.1373803493808006
0.02285421579662543
0.3514788380531833
0.2245734905140375
0.1701309236101705
0.1017184845621674
0.1352460487013451
0.05376403396128249
0.3290582600197132
0.2776278957927058
0.046076075003079614
0.03855227745362266
0.30156637162935296
0.11225646953356846
0.05593038440308105
0.04899688052003509
0.06606466906928549
0.040508744751963074
0.33864563465734426
0.029990102967519746
0.034658779274216914
0.11012076617824273
0.04216599355665131
0.037564568610332916
0.05979619067800139
0.05218318512296539
0.024708963727756827
0.2628320753363063
0.04213923673972873
0.03833511815315566
0.037942726998881175
0.19996195332030556
0.05363698630980518
0.06742804261019002
0.08891793788559359
0.0654011473199265
0.12909078373030725
0.04619337707163773
0.044596520037374014
0.044618883680841846
0.07418950911378332
0.06396785253268918
0.11303690234456229
0.16315809351105076
0.22683886434239753
0.18754527577340133
0.16483873446506817
0.1300539505070939
0.14669783305356238
0.0766242385002597
0.14460338971900685
0.052003029715867934
0.04489553063745193
0.019411450182178405
0.12378440888897016
0.011476589819978702
0.3058538521760181
0.01877363013003942
0.20541962275634335
0.021954702722552087
0.02621239674648397
0.14358302429705125
0.09879631894867327
0.09690921033529207
0.3630362392673383
0.0666593279749825
0.21779436285239692
0.2727412817111024
0.37089390685615137
0.3598045412717739
0.014822504344826355
0.13142041890647596
0.07265429330237795
0.022658873872819865
0.09355206655938726
0.054849351650525305
0.06773899751489688
0.07617093782063265
0.08916133611496663
0.024581898988937
0.0805592321788152
0.21780631277377704
0.13449279578148746
0.07313615618545029
0.2692157665997478
0.07384062322158799
0.06672678621220575
0.18342024493099748
0.1473436189424651
0.23865613076489647
0.18392838889494262
0.14480326854988804
0.11396115719102005
0.12246522898291252
0.10785217762324358
0.04682493244752463
0.2621584388022299
0.15193484562855653
0.1500104653549859
0.05853402317535427
0.2631786949726017
0.05355861999326558
0.04779958954889385
0.11723624266240716
0.12105606916451127
0.10264798215816266
0.06585366050292922
0.05785715608527102
0.0526018282172935
0.04387968116913916
0.03653876669003192
0.3557285311249828
0.0664205972563098
0.2527341046262182
0.13094453294551628
0.011696209499033036
0.24947543361928942
0.06499237593534536
0.23589884854348406
0.21266648131710897
0.21392358452497398
0.13253199153704787
0.08094612772692211
0.20404918248469223
0.10834656844283744
0.024275218668111637
0.010483084201012894
0.04908940195805223
0.17939463344630868
0.19201150853312626
0.27451252746619287
0.10883736031858143
0.05500073177073526
0.06880210810423662
0.1307131927451615
0.011786659810215028
0.022533733037281446
0.07342093162340221
0.10667854620551463
0.038945810840054884
0.10525354196162275
0.05051135387544106
0.044066680892663065
0.028704613034801905
0.04269740941401775
0.11901495410902727
0.05700560193924911
0.14134376078367245
0.04443250604774376
0.0478690526862439
0.049180434565825416
0.020505133164768364
0.05895013898789278
0.3068990942455555
0.05459537049104538
0.04027780649421951
0.05121874028589262
0.19936318559105157
0.03111110649161774
0.15416524922663769
0.04025568784407494
0.15078332968899802
0.1875798217288617
0.09825869621014045
0.10551484387614231
0.009964060017194746
0.1331492099814271
0.19636316024776954
0.3437981270934812
0.313775167647422
0.01808774133696265
0.0071078303955718364
0.257864106302778
0.15577045790192323
0.18368971600287465
0.09743301030089868
0.06342032685427992
0.10348590500218656
0.033619481038166636
0.31516447213667
0.17022108652653914
0.18168745374942283
0.060375335508591234
0.15602739788695505
0.04869849786784303
0.03481856785094292
0.18515002595776714
0.07129471521076822
0.08265197855413527
0.08333870088385198
0.070237721674602
0.1539243742024434
0.030216031842255894
0.030845791779340295
0.24559592681027245
0.07047938362080856
0.06542396650858792
0.05974704672344686
0.05911816064196044
0.04461020439769911
0.20272953743525507
0.025286450058574123
0.21489182134577325
0.22162160237703024
0.029507785822374778
0.05831837649184806
0.4501078519914973
0.05354141971416759
0.27289888121285205
0.1769108601599374
0.1424920828876573
0.09904862236422654
0.15471245349666155
0.11457681847682899
0.03715996071436385
0.16197707344439163
0.12878529302340982
0.050288216064312226
0.08234317680365448
0.10890303126720353
0.010559268492851104
0.03064509580935192
0.1962830739793253
0.10272160967957641
0.09789262944216735
0.1581977242424761
0.0288392947505081
0.21437856027647603
0.030448534407338967
0.057624331325293085
0.03398959882472371
0.1288215111507197
0.05931584749853908
0.12846213251655172
0.19783429717791082
0.08880782821376144
0.09381856426806744
0.13776851006911267
0.10507178267717723
0.09404129120043994
0.28961622808475845
0.15249663465023255
0.12526440066701336
0.1722062108876583
0.03599841444230572
0.17529294027518225
0.11753936028842275
0.038634413001622035
0.18260563835575813
0.06348765990780715
0.14112653540216913
0.11369803078080609
0.13548352452751897
0.09317492258733864
0.06893487177134584
0.09103348279516978
0.10710667307259902
0.13601241114483453
0.021984009305653838
0.17550940465582132
0.27406033689158343
0.0840372825185344
0.17420842555376176
0.2774165228801511
0.17308609823375282
0.014681706671671995
0.4551294827662723
0.11605903606824564
0.2926577074245618
0.02791778804460192
0.06963722933532443
0.056694068548792304
0.06362119883441442
0.11589014940054239
0.40187631780933947
0.10207240473203065
0.08682528032083064
0.07852450454125098
0.04512456463003482
0.07916189570032149
0.05938901615360822
0.05552473101500151
0.1970344523788634
0.02235498626664103
0.09332843642150238
0.06548589292065402
0.024579904240392112
0.2952130122321009
0.15488884679939102
0.1391664571137986
0.12528054211256479
0.008238211303784816
0.052959971945475824
0.15390747837401106
0.023578156297910473
0.031329199306167746
0.19428452480622482
0.14466217577277818
0.03375996782850542
0.17133802557047512
0.21058068595905738
0.17849245710687037
0.2230022395194913
0.25945474110907546
0.19835879666222792
0.1719857874964924
0.1041288136259089
0.09602057502410508
0.0382398099237186
0.032385957689719
0.09534288292623405
0.09072163044471389
0.1263709108355176
0.09231026399914163
0.09259294087207852
0.13347007726274948
0.3074022346971609
0.03639540755267992
0.16400385332698683
0.10362646673567123
0.05193539323889476
0.04385068541127363
0.029492377985272884
0.025132071430810844
0.17408436457367052
0.02935919481778366
0.19706865478124497
0.15841263917242368
0.035576275632263434
0.12842438388663263
0.03467404261257454
0.06959296694966009
0.12291618158174444
0.2220566302072773
0.13327547576111393
0.15282610380311162
0.13665671500685622
0.09886836065954892
0.11858852426454856
0.11467182518990063
0.08031356602955661
0.17442024840056908
0.12875831693896267
0.30962087092989243
0.1597474560488187
0.01282456492088483
0.14796337083352717
0.14037568168362613
0.24229164712602838
0.049016527237145086
0.08980107786100686
0.030613577443431857
0.180812868659815
0.1542976957400593
0.19352163259544872
0.05587563685142641
0.3209825878300846
0.05682637195779982
0.1710133356038533
0.14957455932440822
0.03611456971029439
0.1631844892070309
0.13857190593028823
0.2949016535905306
0.11901286934239196
0.12898974726725487
0.10669835486207675
0.16033348525864652
0.10251692231023492
0.1710238292745144
0.03949454481435852
0.046202272134691046
0.06801214514529635
0.03896826240152736
0.05916791946514574
0.020028651857090886
0.13455992495077942
0.03781509875039644
0.08084448710347943
0.13166528294309301
0.07390268225418019
0.08666793658369577
0.07316872283230857
0.05776537354034824
0.04506126999449153
0.04839225326104278
0.02266640691638608
0.06201492893372192
0.08008752214896844
0.03445266273619731
0.03873657677661272
0.09431475882413162
0.06168638190520857
0.026459286825408452
0.09205295519597047
0.007141188140842145
0.11228698332314548
0.37069708901175813
0.019728815765616692
0.06408564549977216
0.03605185404237422
0.14519333817256141
0.10355695315109129
0.199933611411115
0.3251391141261183
0.06741141258907428
0.07464367224582151
0.043515725414879816
0.16894459812270163
0.24173080987662884
0.23006454496038142
0.16660520130755785
0.05742658204171577
0.0687727409924319
0.07724739693520688
0.04952751398171188
0.08808901521435884
0.014349038538435877
0.02158300655494472
0.017807985422732115
0.30529757792018236
0.22205261050251285
0.16954975240262088
0.03299950659607061
0.1037013520758126
0.27079098694847675
0.1609855294357724
0.1490727642535388
0.10318031896412222
0.2228474232590035
0.11693944259858446
0.014454428334127408
0.10298402590858152
0.02677572335660151
0.14655046213139086
0.09465474225793898
0.09187843316694089
0.16754545522629166
0.04201141945196578
0.011123776701193223
0.15768849202516563
0.02542177361504162
0.059257730288962335
0.0037785918738343954
0.12324006329284425
0.21757794357120447
0.006915183979745019
0.1636516073470171
0.0667749390440774
0.010095023714812808
0.04992271011900968
0.06999966351140993
0.009583185387833818
0.04156833177604069
0.2799099584503832
0.052887254635461664
0.0184181445318115
0.054561750416125064
0.05765135772356505
0.2151765192727034
0.02765294992820673
0.04343945525890146
0.045681413414035005
0.3014399564865098
0.3051999259552873
0.32186142568023624
0.22843922103333003
0.6007949010708956
0.01979654140724124
0.2744034174106687
0.007014230333594898
0.4056866859520045
0.07318745459091229
0.023505306689494482
0.2897626502856296
0.3017165800576467
0.037391749831419914
0.04484278629917772
0.07695340215199603
0.0634948686946703
0.06457844793504268
0.04902436171062287
0.03376979288513477
0.03177002790097586
0.003671191464714689
0.04037708398214927
0.06809341898717863
0.048338741630244875
0.06462705115549476
0.11791787529870701
0.21437955296204897
0.112420828886425
0.12699140957123298
0.038203757310520885
0.02415718539328269
0.09297094918239962
0.01314776886921076
0.2872782163618679
0.3107895057345648
0.2479560012244991
0.1842781326966408
0.18628975078506912
0.15633593137973184
0.21632439317011756
0.2096075925602277
0.2035281659175948
0.18366728566862983
0.08126431307533172
0.021083586257826824
0.0976109599163528
0.08126199111323132
0.03272989161269345
0.40654524832079
0.04184614214342195
0.0732627734238842
0.0773407592982878
0.0980841868909747
0.35720939817173814
0.11039723483442038
0.17777401541273188
0.08445871069921665
0.08393794007053271
0.08100043607883971
0.09952879820768916
0.12605530527065725
0.09412561948965857
0.05894356638078561
0.23792539303703
0.09812066857936219
0.0944074717574803
0.08072307865280383
0.09882541097195642
0.05106638932049185
0.11267431269153923
0.2635391322174204
0.10470824856321218
0.20455759544123925
0.2887914191710194
0.3220365835676069
0.30906902858139657
0.08260369231665653
0.05960833314429754
0.13301737565098212
0.10260932931473146
0.1235532648951411
0.0805532508280557
0.0773242874282839
0.10040701845238549
0.08565389725203702
0.11348022790013051
0.20620267852506205
0.31320745628103586
0.04205048231479981
0.29417567785639587
0.49344798437971193
0.26022281104163586
0.3389209221397868
0.33043518284879964
0.232552572364482
0.32084678079199874
0.3032914818115559
0.11628847710083345
0.13205075493464918
0.2661195409499118
0.23156116301508306
0.13943248727735533
0.2822881557540007
0.16173764212583097
0.1499067470387547
0.13006863314072867
0.13118912312669623
0.1487893642131023
0.10339708035105603
0.09663865825758593
0.23099737090267938
0.266345381366916
0.07258659283383927
0.07469781766844245
0.31733878753790845
0.06028349878071324
0.07058619370830867
0.04095351890430496
0.08055835241924972
0.04492553940021512
0.15723298658462814
0.23167715924959698
0.11879005447033786
0.2084101073767901
0.05545686931435084
0.04786858960799132
0.05685463215763054
0.24094246391461707
0.04957334116762552
0.036002608283943374
0.22568194359500557
0.15761282770483764
0.03667531810504117
0.1549206775609092
0.10038330432847167
0.05750901943245081
0.03728906829302839
0.27717126026644257
0.08787250547658755
0.07663734597856457
0.09992402781997864
0.025848132296885727
0.15517145962139237
0.2664009985131773
0.23833675510661037
0.16851325947882778
0.09123288957209687
0.1411631123490816
0.20946910690897044
0.09506026237230629
0.07416985652843529
0.03435790412243406
0.06445474343304908
0.06191932533324306
0.2993251718695592
0.08307783855099285
0.2896285782173605
0.1519183611387214
0.10260783818014989
0.05393044011551365
0.20296154328446042
0.05440070342337816
0.07396838209359605
0.22228019571600288
0.16302217242096032
0.18858811092198588
0.13512515052502896
0.2530937302099244
0.08417879599530206
0.0829320059139807
0.09820902117173254
0.0835112547353663
0.07595471956719832
0.09791505407259632
0.2469166883478277
0.24410913517350077
0.09274097118442887
0.04532794862000325
0.21192348302565903
0.0818987526256276
0.33163453947302757
0.27547749223226864
0.11829137941496712
0.08895044977178838
0.21048835846408234
0.10384176281492348
0.17165064383323667
0.23644288896034243
0.09948498665815801
0.09262709736729471
0.2778222201038486
0.0826002336023313
0.0748154960560946
0.06766796677937367
0.22264464409449938
0.02964495775515734
0.22870071832217606
0.12882426788264792
0.3046505374729229
0.14741999477943746
0.33295420701368744
0.14371984759716805
0.1771195110865854
0.030712923684161217
0.058275641355686816
0.33667415624544783
0.04776572008718792
0.054406903770750276
0.07486560687176982
0.0392244357048064
0.10350664693083053
0.1266338655439339
0.22198272947004927
0.2669982144418846
0.11852274156562513
0.25153613361961835
0.3202062972341023
0.16312723687525693
0.14570252696483935
0.11241731356947134
0.2943745191065061
0.1954344870293802
0.2023244273114579
0.12147419851558272
0.16488569606126335
0.13219797764339747
0.19529062284561166
0.16755856190915516
0.08752380222680256
0.2187992401852765
0.08846899963980533
0.16254121454954001
0.1261742892289905
0.18645992678642856
0.15396965318273248
0.07387188099153558
0.2570278329746313
0.22748390321207856
0.09732778547779077
0.11838937125190714
0.14448540038616536
0.09527687518901305
0.1955052077177678
0.22941659723650745
0.11584619629705208
0.08514726380277796
0.2902157619289563
0.17300930652667146
0.2994387827745285
0.025798352420199264
0.06920277612302272
0.16680432553794705
0.10182164367219927
0.16298683989312945
0.23891224901644867
0.20073258862746896
0.15005845091262193
0.11997622749940412
0.07577817829856008
0.12106466220655834
0.13399811507030804
0.14908117503053625
0.18546996421580086
0.15516668938333134
0.26999531829469736
0.23381418065520332
0.14216724682775045
0.09911158633144564
0.13354898989496247
0.1920328759667974
0.18255391698526344
0.18115361703991933
0.317714940891277
0.13613451847855673
0.3608032033009939
0.15067148990510107
0.03566181468655728
0.2736367686706728
0.3938494752502683
0.4441777962894578
0.17706085039250757
0.42139375782626515
0.18467002617360218
0.045818520764916756
0.13737334902189086
0.1951692211000025
0.038731825696236684
0.05316984851127013
0.2578516646672541
0.04951979010904784
0.06630878323629594
0.14734869205066942
0.3800294692864672
0.06280212201425518
0.261471887395919
0.28578688686038195
0.25616360801381216
0.048263526622032156
0.018699452709430294
0.043315154576919986
0.21683744036695796
0.028143243281569464
0.17451073490103017
0.07854878053601969
0.23292954314735376
0.19733787645516643
0.2046094091431807
0.05486414925553694
0.0994793533691257
0.17341262632258095
0.25934445366043185
0.07204236867872303
0.057988713247093385
0.09757879701730136
0.03830195154565648
0.060757327248414664
0.12003685800789
0.2588269747729978
0.13494951772733063
0.029885618679823322
0.03284468095962254
0.13424455946280858
0.07714862993210646
0.2337701134678394
0.1699755303932136
0.23259478111374174
0.26395279644339603
0.10156182664910736
0.33886246442320583
0.12456582329768918
0.1660047644370719
0.2880869099117358
0.2223422417458766
0.3401197005879154
0.12941889302256274
0.2801827562598783
0.13742467054794233
0.05206319485634356
0.15616198728889527
0.15807917327307305
0.21666856544721447
0.4885837784873558
0.23900970457129475
0.1832684036514602
0.11303418648075249
0.1974011580434789
0.17765025505282933
0.11882172074833187
0.03344689792761339
0.25048989148537354
0.33570255608264815
0.1793991051596735
0.14013694370496277
0.13448257074790876
0.10484332886902169
0.5676186694657765
0.24480528709783514
0.047569725261598333
0.24805264860400497
0.2669263676291593
0.09323719221599559
0.041222635941414745
0.1412846590892892
0.12031116726762661
0.0702778258865905
0.10691648293464152
0.10622453124766153
0.06894839139793142
0.08602093534367165
0.07339548849502343
0.0755403752999728
0.08122543204213215
0.1453481797776709
0.11230698907024438
0.05052883407803869
0.07026525576418796
0.09406809279391398
0.167771299582914
0.05615317665317237
0.3105801852094468
0.21997253115809953
0.039060085993994235
0.055723924332032895
0.43325192726975154
0.05510167277370518
0.08756510336910626
0.05277793650874265
0.1330363039616139
0.054815666561708276
0.10108353749227644
0.09257762439749798
0.14253410495507327
0.17298707332672034
0.16752259786009902
0.015989382236448232
0.23384379381923828
0.04176906242267909
0.18095476890688564
0.09915668146867847
0.019450048394715404
0.1273250143039574
0.2033283645608981
0.07643745885539359
0.18509056329398274
0.18628415993564232
0.18212334466101154
0.34881011520444893
0.07409285650331886
0.12674207658349487
0.11537106916492296
0.2511586332409557
0.020509860757066248
0.20735294499538276
0.10402473792581794
0.17331318858819475
0.31538312726342094
0.2482410605651648
0.20157978026031118
0.05799884406591028
0.2486971296806475
0.1465444746061261
0.07904916258274358
0.09125390918379923
0.22379794611172296
0.0771794213886942
0.11683908858587272
0.10991496186280157
0.06996588191024052
0.1278590295509973
0.14975518156239948
0.046703633117870194
0.06727257896128795
0.03382505235888141
0.0567502649190666
0.4117783391781595
0.030182864090234244
0.17634664762586694
0.1790833132718134
0.08046557215563603
0.32787608132316015
0.18057192548800252
0.05767880783826193
0.1386886425493478
0.0577125240526718
0.22691307459597543
0.05525262036522327
0.3337157089994353
0.09165277880463372
0.1942880477185513
0.06561067830011288
0.1373701934645617
0.1824522673291914
0.2648664562515918
0.029082392029474703
0.17593995525580183
0.10159081950813892
0.24785846565159264
0.12492979590073996
0.1341717586018281
0.39013649657584887
0.0953254558527574
0.19599776995630339
0.1105880677807484
0.41732319151090586
0.42473153787736
0.03612738260544583
0.1454878612397131
0.06509961434510421
0.04135716392415145
0.4976650076275168
0.3590322394319603
0.17163785571049842
0.06686291410169651
0.2426028692720212
0.1548206141567969
0.25355839386327783
0.1592847200383165
0.3839651355960077
0.1263919158400625
0.30506697710411684
0.37146242049576583
0.06700092363381309
0.064231837538816
0.29608430221145843
0.5565549870813928
0.1587286157613909
0.22814561598874344
0.1895988005461679
0.17341168498937673
0.0463058711514178
0.06835355201519341
0.16748498885676938
0.4868664702996334
0.03396653304846872
0.2951073000136094
0.03981729304043256
0.06190426200103647
0.20221798182054385
0.09059673155609985
0.11089964049034756
0.2855028300850765
0.13165477782887614
0.24974999536619005
0.053389234091653075
0.2029253016377508
0.17427707858968255
0.03302611110502087
0.12341399950917313
0.17578675500984595
0.14057729391604887
0.15573429694736599
0.2022521647781916
0.167835100420264
0.11622323563026186
0.08474251384982315
0.2352403783090944
0.22362934215909713
0.21466906004465647
0.23968411661115338
0.1264922894354809
0.33901002625475146
0.32571915292368464
0.09540792924198413
0.19682944432322638
0.09156122841899127
0.13658728878124798
0.053721642834220845
0.2461870080933222
0.05533268502704007
0.22537297936651746
0.10699131618015738
0.12567292613622616
0.07945443739901624
0.11343370732889012
0.10842171932547039
0.08543395898278865
0.06765209637064735
0.12801754693382178
0.16737469514569486
0.15793548823478065
0.2210426860778976
0.08615424844528534
0.12158609160501227
0.13556323576677592
0.20216634627362906
0.0283550663764339
0.06187313366826994
0.18288928603627008
0.0625637357828693
0.06387938728406786
0.09049025373268901
0.064601363315735
0.0299667438344448
0.1563850328509825
0.02750129886270901
0.195660189532572
0.29505204751317077
0.10111038957635031
0.10624482351051555
0.05116225827479342
0.07413960058529717
0.11575466825210702
0.15776438037462565
0.06449681529395349
0.06001237996241581
0.06168442861420026
0.1358334244763197
0.19036301580978543
0.22405567979078217
0.26931919343871086
0.4736610700996883
0.31144429242033456
0.30131447727447463
0.29571349119773405
0.16168183441506723
0.2691480569464506
0.2686242285126758
0.01629669035589801
0.1341986478744968
0.115382894300115
0.39605786243054464
0.09897003728460498
0.024620579727106805
0.3095133874088706
0.05534271460971902
0.143494215242776
0.08192785170940682
0.12093530429755596
0.11754578572426336
0.14822741156619068
0.17657886364330952
0.23857858168885507
0.18999030084029375
0.28436722855345287
0.12211663215492168
0.2728927710390509
0.12336524503909208
0.12923489069920693
0.36064712987204794
0.1391200110165894
0.29286444115340005
0.24044206253533418
0.1510572159837728
0.19246120636034497
0.1256702349027906
0.011942423204900278
0.12978120751306668
0.05750406716299033
0.06505568289442619
0.10779000964130764
0.1957281394311004
0.02484579616347522
0.22058571679046413
0.15297883723932146
0.1409601815476804
0.16216448194935418
0.1120047348640855
0.311820933934329
0.06463381637712785
0.04144300355815013
0.03269353071258145
0.02764991552995139
0.10404634375039414
0.19772345318026807
0.11953201931370068
0.16299799201071774
0.15535422307158744
0.16390740191547992
0.035673071250748895
0.3101412774937757
0.13004815190888064
0.15074848808499772
0.2497118735577309
0.24406340433819193
0.2977366513543559
0.14472204198415797
0.004949792651434463
0.1305296158715028
0.16577142530007188
0.04642467257969345
0.07457694942652186
0.19713392271323166
0.041352167727892686
0.03237657834175062
0.21994533789602014
0.149212174753799
0.13212252135958752
0.11946114398162039
0.051179181830623185
0.015011176438297899
0.1966018219239172
0.15916124920655633
0.20897067180859477
0.20005788685344902
0.2494070638542581
0.023582802583717928
0.10801868600517825
0.01847201599487538
0.034097633110076936
0.07956932732242457
0.11865033134612943
0.04386120874685433
0.16552282800635132
0.08742908545244917
0.1059839991144197
0.04923083080876025
0.180325697300581
0.06840978624953524
0.07234549588283527
0.08077486646352204
0.04783808649531881
0.268551349973626
0.18932828124404782
0.04914811610694325
0.04849024458197079
0.05540391082797406
0.04547840148870556
0.22519903820003134
0.16030030666808745
0.2209702546679632
0.24578340814621424
0.17489592799889384
0.22304361030499123
0.16877284115713412
0.1476331545373182
0.1626052406482527
0.17256199003475148
0.08826508343274493
0.062123645498831224
0.08559819940440425
0.0889882959901394
0.07177182034625428
0.09956068995001209
0.07434003520620426
0.15350456864456405
0.15500352708841125
0.15035947041830475
0.07244926267381392
0.36504830496799634
0.16631876861039327
0.14598994000793628
0.07727808434487896
0.10180195492635825
0.10343023447453704
0.14313961374903186
0.0799208790855402
0.15548236196344098
0.2538349306821505
0.15346723034678564
0.046008176407704084
0.17677474509467916
0.035748335082191454
0.07792400670289353
0.11893471677794534
0.07443031760071842
0.08827937353613491
0.2099154753536636
0.05567173150073935
0.16189641382072448
0.07882922778386256
0.02378217958586779
0.01607979511284323
0.23894907748814567
0.01737572339801841
0.05072647427066234
0.10971379943289869
0.07460060477514188
0.03326570866345954
0.23331046438319938
0.014208896516074595
0.034818261842316095
0.29645231082807977
0.020895373667098184
0.16687816258293325
0.2963910444618379
0.10677257622822015
0.28842555880184423
0.25780445113367617
0.17319249255220612
0.13719464280166893
0.08974683068283369
0.02442450670941674
0.1677702093350755
0.10049053924091594
0.07534480793858855
0.10648332856585538
0.06492219235337127
0.17974142587666753
0.1752010893754818
0.1250300115783074
0.06347218639654886
0.2232683558064293
0.30177716852094283
0.1313654311590928
0.07972851983204034
0.11618353776506717
0.2273356659226147
0.292979898627088
0.14850386682967903
0.0818587911650516
0.093005630629357
0.22088643786241324
0.17047505119990947
0.033700626248418714
0.07936709482220924
0.11030301413648731
0.07565221944184461
0.12200836091297833
0.0407928106306516
0.08998361267902888
0.034286188200099224
0.15481621941180337
0.0808466021330974
0.2705040833452856
0.1030339314476808
0.13122973478474836
0.03276138506276025
0.14038056326209236
0.18010544305808515
0.1714276617149632
0.12055464175214474
0.12232417941993172
0.11062234097417624
0.0339599693287992
0.15421762536784636
0.09949615348228018
0.0602257841355403
0.01637628863695605
0.38258662386889525
0.4314618314795587
0.1364799141786659
0.3675545305710392
0.21238017429557357
0.4854333865360745
0.14553877852423408
0.1693212446043606
0.11416292270269919
0.12565885295862897
0.40186486285547945
0.22693600758680707
0.1408308240632402
0.3734860016247048
0.3462661051641278
0.21064764490457707
0.09709106033143995
0.3106999700228615
0.06988218879824025
0.14286653834875568
0.28397900507683854
0.07148924837046584
0.1621761143333358
0.138508957804783
0.3427178380313621
0.09532727832638317
0.3141938092033597
0.23751222607443812
0.0335329477662026
0.36343659195302125
0.10272220010494265
0.07426014193665606
0.08611117911371283
0.47782955823574375
0.4054194819452886
0.31763475694375726
0.03693100868193765
0.10755024216311074
0.09933875923649418
0.11833615739497608
0.40750033723346657
0.10135406896329159
0.14904967802987296
0.19682097080114705
0.018865305686864585
0.04636706293070189
0.06643468450070929
0.4071796695319739
0.02397283495896034
0.05568466262319621
0.047693339198605834
0.18677495587857254
0.022224534730550013
0.213824691627992
0.17119525239617545
0.1959748337247449
0.009548651241516617
0.07065271387824261
0.018112122910502102
0.4453459706892865
0.2904663401074052
0.20392527930303228
0.061796145270872786
0.03369083052773295
0.07796595600064206
0.09006793248914205
0.1046697607789618
0.18129008917722947
0.14656489719901677
0.07646572468804688
0.34750589198101584
0.04386186701784769
0.10063209228173745
0.17503745741352153
0.40780393616737565
0.09637165018922278
0.2777952833243137
0.37232469777532945
0.32324360540174596
0.1999133038760085
0.6123737811351864
0.3616239886731259
0.3070535487517157
0.23183258017632138
0.4981636529264521
0.34073744987551896
0.0630792786061346
0.18751877591725485
0.15507569159075812
0.3275418343674667
0.05273569116652512
0.13613593687847433
0.29491516423632963
0.299318337924403
0.06609753964245471
0.08000655995108515
0.06534471732357573
0.07342629325980653
0.01972518495070784
0.38126946608745804
0.1622990027109723
0.10796057980211698
0.11290232013814588
0.01566625180285847
0.008322616066419758
0.07026358769909193
0.03232506832604173
0.01722648489506046
0.010943505061459299
0.10470215719617165
0.055339848913008194
0.12201205421410578
0.017029442048654954
0.06557934165171213
0.00957853159916425
0.30793317355086886
0.016157448483925314
0.0353737872304331
0.12462384959001735
0.09047404985770677
0.05961090895698037
0.09625700787901946
0.06400430619651083
0.11715826285870581
0.1258556426829376
0.19903848661194928
0.10495402091087201
0.13654082359012418
0.1401302902203689
0.12544596024338653
0.08194539627534184
0.1580311007703727
0.022274701039930202
0.11261662945418428
0.19881616990180423
0.07597656145300166
0.08412913126983759
0.2582772323781023
0.1687467724342434
0.08194484579679254
0.157424253188326
0.16198337715161443
0.10658798072156514
0.09013921407487122
0.2954368555885081
0.07303319490265024
0.14837938767604633
0.36326355107333275
0.41664894811444436
0.06904559080953349
0.33863534679168267
0.011514928281226432
0.1370480601582723
0.17980475111461286
0.031958775780131024
0.00883147894938555
0.18869169102661704
0.19008648412462187
0.008068567064850457
0.28944718145181175
0.09705684226562497
0.17775047251268825
0.014006136363622683
0.007630186041190056
0.017014771773354958
0.07782885655517084
0.16836906706036575
0.18526852096740445
0.013290669303498492
0.1999985801500681
0.18107734280977963
0.08616705504271015
0.027453360835165422
0.015132602440865325
0.09540317616151657
0.16460738543405656
0.26064883558758545
0.1383978572471994
0.06973408502893129
0.06423605169962941
0.3005816884507457
0.07641805193565153
0.33000368540376046
0.15931700453404332
0.16395596546280652
0.22047777797512066
0.19429447505569697
0.20990038650969461
0.19030053580794712
0.24338338915983065
0.42362816756445915
0.42196291221503235
0.15913522032112953
0.19576905402282774
0.09943754349010409
0.33093089843636697
0.43856206883890264
0.20083582276948017
0.18857678769973368
0.2750471443657784
0.0706964570718338
0.19170822983879018
0.20219990679765945
0.1941795389182097
0.1691544609771641
0.19031780712302776
0.33221003823728307
0.05268094332138468
0.15648377165725225
0.31557360733753764
0.19155689280864918
0.27672999837978823
0.02817888844378978
0.10729368483030792
0.020074569849388497
0.04639435484926429
0.005852312026483356
0.010259776401573991
0.015363028500604163
0.1215943333540944
0.09112557575219994
0.029854056450967753
0.16363876771958083
0.3709000242768371
0.03565103774809208
0.22248325839114347
0.2716223434498733
0.027336858720997788
0.030624278982059737
0.15014036024595517
0.09888409384278037
0.04341552022924055
0.1487088540732074
0.41268179659156673
0.3612455900223851
0.09526279680971529
0.08333446471423277
0.24130254395457945
0.14998653778724683
0.3160390419093487
0.22172729212113132
0.24056636835078424
0.200147354279802
0.0743684599566552
0.21127855491459147
0.09926397099395823
0.18494354260022455
0.2023977443577786
0.035359212334442745
0.06310801441842435
0.043612908368390435
0.2860816220825633
0.19343939191402187
0.07371331348163382
0.08613856894458828
0.17889872821718605
0.1368660113758042
0.16782940725281492
0.062182559628790886
0.2100883448098294
0.148908649196614
0.10631267391401028
0.0930076039648692
0.2835028605219293
0.42642847531691763
0.19595409279484258
0.14732572022555174
0.08017891058566433
0.08997968298068329
0.170940264999385
0.02259930281046094
0.1577340424389743
0.06948477433448406
0.16415798320751537
0.05299608521259467
0.06933633606959748
0.11226645957837418
0.16518860955963793
0.20007521707764164
0.13073162690881507
0.12612183735170768
0.12628042511251764
0.1774430496364747
0.12773140610413358
0.12845253271946488
0.12925219362695908
0.3779750964774259
0.085786989420199
0.053619718781454793
0.39537664358452984
0.059475905535789894
0.054113672021832586
0.36114616800526883
0.278059596874377
0.06913093688647516
0.20889401320840426
0.2523539177088214
0.2063323691135188
0.20141174443893384
0.26118063694372007
0.03792228873650991
0.14548823951122444
0.24531032949169573
0.046716002429012846
0.28220950348743346
0.04372509224615016
0.13157683465940215
0.05665530468773015
0.025830273792008647
0.06487310911826695
0.20016265283281778
0.18028490957482532
0.34216039856991526
0.05481378187678559
0.21838952700214012
0.16363112185129475
0.3740842013706375
0.12134860601333512
0.18496809958413502
0.18821587442612886
0.15560659461965776
0.13806830670267933
0.018444968092216796
0.09202009834343892
0.12344735370961128
0.054792613238178044
0.07972818851396331
0.050752187556003435
0.2308325179837522
0.03331685498642096
0.17376261188352982
0.12136149387401493
0.23680848399329535
0.20154597493380147
0.07652496252833314
0.19877462810501906
0.19313298579346636
0.19014873486862727
0.15985846691088246
0.2854070242406797
0.117077777788273
0.2669073437475839
0.21283970527935234
0.08900229304550589
0.16131759030080844
0.15956155435437197
0.1541777058855416
0.07484214027198376
0.1805739942654712
0.15070312143634224
0.1765957380993842
0.12886188247006192
0.1472519683094528
0.36925947256712094
0.1126382969323297
0.30498288602805074
0.36807878771443986
0.3484069764701397
0.15674573206806816
0.297297934747449
0.39386298719424445
0.18928605514951793
0.22931195012756406
0.4121601246946618
0.43872178506336107
0.1874509327636611
0.46957512396309725
0.12226046326269656
0.0824950879600188
0.020978802019687732
0.32916282726346774
0.12138811061199671
0.1517738471729221
0.19985332012167412
0.05782381661459832
0.12830964044614457
0.09593926438803993
0.1399738261792924
0.15302359110051986
0.014062415097152052
0.12683322582208795
0.19624389526366295
0.0036982156809833846
0.09571707429293234
0.13266474696488603
0.11199182854325797
0.016752566114092073
0.009787508356777039
0.02555124984317889
0.16824645573171837
0.0880140806364213
0.133265242169382
0.08757145971770908
0.14998120526094688
0.1273340824592055
0.021774391437684292
0.00563395265509928
0.07370455477855364
0.034418018803773306
0.20344057467611582
0.06689957205068188
0.22631905679335426
0.11926554132821486
0.06931946778454581
0.057526023964943516
0.06815158633718847
0.21428777810771013
0.17154756898067483
0.1345376888608582
0.10088701832628148
0.11920539423527558
0.11135527682201063
0.417718889126572
0.22898745365679082
0.05384186623916379
0.2057598556749428
0.21460650377518317
0.17763325573494312
0.12301059976976382
0.19461496434979467
0.0724878426040712
0.14991838269577834
0.086156775266075
0.05891348986959816
0.22547694549536368
0.17189168495335222
0.16137300535870555
0.23792005474924954
0.20007599079028254
0.21743941042527076
0.0636591973388273
0.07990296059625972
0.13716661773119382
0.20303312197887888
0.14312060905301574
0.04772420520374013
0.05692732983685982
0.1087283522973454
0.10715587565760575
0.1677385230060681
0.04850081066554048
0.07718691986719008
0.09463488814109088
0.19751693156122083
0.05918425230820062
0.10252660263557323
0.0715862025515343
0.1609455165969452
0.15491042851820927
0.057868769100611624
0.21637581421269855
0.14074440771219324
0.0791145725906657
0.0876011555487472
0.15737847820617015
0.11773915550311152
0.019060701105991944
0.15289714785870873
0.05180263865603625
0.09551246445323358
0.12955611813709922
0.10470715821735199
0.11995389091039609
0.1323657337570218
0.09426965636307094
0.10427776735720075
0.07256587878398975
0.12724004961510138
0.14386342863501364
0.07453935385208961
0.05575292997011092
0.2505432868566903
0.0722805791138326
0.06813223877833194
0.1476748605880636
0.3361586341883109
0.12878712642490217
0.275680981934009
0.19638180266618427
0.159581602500653
0.20042212353788547
0.14713579428513698
0.31783783325785747
0.08668758898413341
0.08720054544555873
0.06621615234887446
0.08594847639362788
0.17360811078308577
0.30786820684649263
0.0728203772045385
0.3536684530766783
0.17381198387131166
0.049988159612443205
0.16027175498882268
0.03899211559439267
0.22685974065525522
0.1487320132009135
0.2327530327161677
0.07441931403293303
0.15500135969257564
0.07794209844570046
0.07236649273599657
0.11846890438149685
0.08098617226704409
0.05801364133912469
0.07177165562777359
0.19227293144169078
0.21183729976406687
0.2209265169626962
0.1933784951995134
0.23151382697553927
0.1939367957734414
0.061636283738143116
0.23314709874091416
0.1567374912182369
0.15671284113581202
0.2923932071229178
0.28514625753519995
0.14656325528833722
0.35119783927195475
0.05616772864855181
0.08596639888395655
0.09665520132508618
0.3442396177091452
0.1918674710545603
0.1235016752675717
0.29354370900167387
0.2567090485165483
0.07497686518187424
0.12983840747715264
0.13745946503761927
0.19080256415167832
0.22056566731942015
0.04034106071299637
0.28366639779894615
0.30458151448482507
0.09122708868825548
0.3510428505786737
0.3617570557093825
0.3647717703056333
0.218712741398554
0.22692176269807662
0.36286746254377616
0.2319655064572751
0.3423110149490519
0.04408658612562472
0.24932863984048834
0.2538875229641308
0.09034921681730572
0.19729924377370991
0.16614125751037642
0.08559439631751983
0.012563943158917738
0.042078417122768524
0.12187604835935878
0.13892292197566594
0.09320847146200477
0.06947471901155175
0.08261859111234032
0.17042335744079679
0.13333747034537186
0.16826773024185004
0.27951400768285806
0.24844365594252665
0.3384936627901497
0.12455145624602589
0.2617735800524294
0.04804299220301405
0.07119512477427146
0.13948523867566912
0.13825960968363582
0.13155076422685624
0.24697307662092527
0.11259361825266194
0.27544334503558005
0.10855648130626962
0.3048352742789776
0.3090269410559788
0.24945243362148461
0.1578045825255891
0.15840618129636053
0.08108973655963965
0.052657897165967506
0.10604068318047818
0.11224237413553188
0.10990939332622196
0.03141139452610458
0.076294416839785
0.08201739659711772
0.2934256612873181
0.060728728631749246
0.27041270325674543
0.1377597915725668
0.048699198176643664
0.3263105795275986
0.055881761265790246
0.1253477603562065
0.18451055588810955
0.23482253661686883
0.15257788149624577
0.12615783327349148
0.013875173542304362
0.006002050392594175
0.07167098209012472
0.09243114698669963
0.1013741818332755
0.01958609272140756
0.012828309520086126
0.026114597557150378
0.10401067043123842
0.1150046515800293
0.043041807651730865
0.17288253425650882
0.03580777649215157
0.13493982261062828
0.14475336242499628
0.16693576662050882
0.039359887354637885
0.14268601422206287
0.18183436242032092
0.1779019218175203
0.17988594923864454
0.17687667555785583
0.2056546584261963
0.15030916046062087
0.11666747722461691
0.19884013110673093
0.10637022750392877
0.22074017340188964
0.2619355381835828
0.09473216881527212
0.04232857283662687
0.017678943783324987
0.2776409040429656
0.1699891257782791
0.29859417690225454
0.12465714885777468
0.13999117014240672
0.49312763925706743
0.06450378858964488
0.09466310335513589
0.14660210539268362
0.11078405712074468
0.10126302620061217
0.32076754954509207
0.018347806609351255
0.05384172752627232
0.3121824491756571
0.34267182991671685
0.23058695348280062
0.2946394019605744
0.1811322232636828
0.43564077806226253
0.1827420540925864
0.27703777227984977
0.04377363294598638
0.24836238425395532
0.19656075536746076
0.04579477350496041
0.2535512652834244
0.2717647467593229
0.20050006745877205
0.3311781357086161
0.07514739181082733
0.3496923985071219
0.13190920944779966
0.13239274023145073
0.3683770664929403
0.18951944272347
0.2494986848229577
0.1228800363283537
0.07290370041630224
0.03862655857133764
0.12915993935501818
0.0609617642408402
0.37851751260929717
0.0366128145169749
0.14931052474445433
0.07917544932480525
0.08744230872430646
0.6399956209015609
0.23129734686021225
0.07355883434669326
0.17283621931499202
0.16103129792516152
0.6609630185210247
0.5112153417746054
0.20501466240539137
0.20009223120078484
0.45006438252112296
0.15075257032862674
0.4969678848256743
0.3365240105685518
0.3945937136182919
0.2741862652926443
0.6121179023343708
0.13957443042286236
0.12591976862009494
0.28315694164131056
0.6147577470743584
0.08684759781902891
0.1137491719794125
0.46335314757091206
0.27078391321340295
0.4026405038431815
0.25537897700868745
0.5450070251249192
0.07906790771401893
0.32379063143234366
0.28626300537101246
0.06993986584542869
0.15994231943656434
0.4800947638871415
0.3936555023711463
0.05468432401580897
0.09470124387408609
0.27674351351507903
0.2640091579467697
0.24324880352188427
0.24294649893867787
0.3304174285917238
0.05928465357857068
0.05749809580079953
0.09916680799345176
0.2888136404255912
0.10170219822242675
0.15232198051321041
0.31278723597540004
0.2552502568657695
0.0926311868236308
0.23011874141953073
0.10920514292147317
0.14238460354903595
0.18147202024433598
0.4138078990103404
0.2534213759063323
0.18371171878463008
0.12751514110543385
0.04578795768611629
0.14640889387890235
0.08512464537252372
0.3343526186115748
0.1920313838219312
0.05803374017535626
0.13693802540002864
0.06300190980012538
0.18289992215452783
0.13660908530177207
0.06288007714878026
0.07255881381477251
0.09160147688774196
0.28156215273593227
0.21625696748871306
0.16374290283307255
0.48738890121150474
0.1900456271341238
0.09500718772366225
0.32855985006106236
0.3154108079999455
0.14120448982633788
0.05180990382642357
0.19015558959858966
0.1195212502573731
0.06073397639275489
0.08123197109614336
0.18890197499787353
0.2326811012541141
0.3364899625257191
0.4077502805848886
0.2645020417172934
0.2634612294706755
0.25061723119462376
0.2336770517867051
0.4233464307715961
0.10179144646237491
0.23246176696783155
0.17213831246592837
0.177493254965613
0.2948952889892929
0.28831390401048357
0.19872661116839804
0.2987977507293544
0.21672658303660408
0.05741743894964141
0.028857643194083873
0.27348064416767687
0.2659435315132412
0.14795614139089758
0.04947698530482797
0.27864545536678914
0.21370168741059736
0.34720196749369836
0.04323862184524613
0.1869799567783072
0.2819135646687107
0.08210012280487422
0.2216040090045452
0.4553099161914348
0.19596553719833357
0.04614950479418862
0.17144968097660285
0.01293159329603576
0.22011545669996185
0.5204249855291659
0.20094522826384084
0.04426479513369858
0.2328405353086224
0.23391989162925675
0.44468205776339975
0.5829765818373616
0.34841992028807095
0.26479158232199446
0.034503486401468775
0.034650338686890825
0.3145946045852297
0.30571695934165455
0.15082436512534264
0.18612125586558245
0.11200280499787012
0.30938234423084365
0.3888514241765968
0.02802856475253661
0.38673692338858345
0.11544570687541804
0.25671455700852147
0.4429371986553434
0.2012370500632827
0.16050627348818025
0.22050657690290745
0.04791241394624173
0.2717538102010149
0.07868400388664361
0.05136662538159685
0.16840479134276756
0.0636142361928838
0.10980794256887756
0.3222669489123177
0.06179726332591961
0.13581225384557905
0.2582973123782541
0.08791509106366084
0.11344259699223325
0.1819990602826117
0.1742821164438202
0.14822368651690906
0.13012950952616545
0.11826231894064948
0.34046530923707685
0.15797535123128634
0.14363033857725752
0.4534174820367545
0.2669544101356096
0.34510772241226206
0.4480259613078566
0.2613569577842256
0.14588827193717066
0.21295218320306358
0.10486164607504643
0.1924458934486372
0.0834060346190259
0.0859698592190802
0.07464116174058323
0.09218100391653657
0.10325016800784834
0.14933539516392888
0.14046557636450457
0.07571113980282836
0.1251049281355551
0.4624724864669863
0.12746279322018078
0.1393304238861628
0.0556932816621222
0.4043705445614179
0.17719146966630434
0.21601580805613957
0.1385572417356014
0.12383180947703237
0.041571274710554364
0.03930129156631043
0.0218144913265823
0.1115682967643277
0.12989839564087438
0.1306874688174698
0.14385414568427438
0.19223184068431443
0.13925085156753356
0.044924908977200355
0.005342982287882934
0.009308504833537627
0.1510997027689109
0.04208327903751501
0.017363285606995744
0.006673407825723239
0.013673612227334764
0.010631880081695008
0.14060726702708845
0.15266837766675098
0.29764770790955747
0.1574809139901385
0.29988315603228394
0.15804544898776587
0.5479550959287871
0.1725320885988861
0.32092193054008034
0.12277071215820148
0.1425998543072139
0.14426913595766433
0.16366858361151623
0.15426954466841938
0.2719757272185753
0.04144119980159963
0.13969683937137176
0.07301408850524184
0.04778953153420299
0.05737557642644712
0.04581893563489272
0.35035903579548555
0.05894130241509593
0.05076998727663124
0.3106750057349553
0.09552715649717265
0.15997319134299973
0.04832665043084947
0.024448792661240542
0.2422200792102289
0.126605955194435
0.08748127560359724
0.17410724460888083
0.20232115278103247
0.10851856445331365
0.09427160481289375
0.06646531068179705
0.16493902960322573
0.17894728434231272
0.1164151883961216
0.06898178649730367
0.14851930480934414
0.1799066942961743
0.08653281794410032
0.11558702001158101
0.16957623972166147
0.07589759468835013
0.08171331925302748
0.08355787467891303
0.0708467539058549
0.09486248317520234
0.006798178917619045
0.06889635697066415
0.05694014105546691
0.4442303942490568
0.0290471571275445
0.16912554250151116
0.36607956480293347
0.4010556617329376
0.21128684038274131
0.06654715691865318
0.10215995766850529
0.07824357756250067
0.10738874330406817
0.14801462091478595
0.09377937163903013
0.029022579265338317
0.11247762812018648
0.03948127433250665
0.23579511978109113
0.024604827044355855
0.21631104012651065
0.08876304451017886
0.08517737169422757
0.04586753985241327
0.23599791982704674
0.10934709051584496
0.1846729454521523
0.12789748701855747
0.41947385205868976
0.1181590210044349
0.12256489642633105
0.18634651937904836
0.3937516513657902
0.06520866238309095
0.03294890613188116
0.1282463506947784
0.17585378598473148
0.060097674045380536
0.056051184953562205
0.17173633698771462
0.23179077665074024
0.15199953045616996
0.23864296081846104
0.2611702040915084
0.3450985611844774
0.026931706629397825
0.27296215151054126
0.07016546911162859
0.19974550431893065
0.050073090177642623
0.05515719788594638
0.043177021849177606
0.07153402900340562
0.32559644466168464
0.15140408987949966
0.14680737748543127
0.13110064719632578
0.28721684205542375
0.31703846449394935
0.23123997563031254
0.11438921129164142
0.060238325715564194
0.08899558592859039
0.22712475796372025
0.07198155799649893
0.1199594147425162
0.061544297378615685
0.20841578214549816
0.05449435047948506
0.1255278913814416
0.01949376798284638
0.10112939524060449
0.12573312694225397
0.12799175763063134
0.05016667525231243
0.17999960833602535
0.11664600608347644
0.054384961420652356
0.046809759864887675
0.06560573875661613
0.05165760988921497
0.06592965882028175
0.07309127825445057
0.01777057755148172
0.02575482931436754
0.15758989705415258
0.2539132228062504
0.01950856055841097
0.34000583533633927
0.05488046797712891
0.3416788786701476
0.04041017941691346
0.04033262797503775
0.503934051835413
0.05958027810383005
0.08156509874276163
0.10632625786639853
0.08173673205701833
0.0749331412438679
0.0825018977565179
0.08734340185025258
0.09883846308352397
0.08583008889692066
0.03683732340808593
0.03403516367696784
0.035338745802892535
0.12537874413941572
0.1340926020054431
0.13003426183829722
0.12307282438484482
0.10126966585536402
0.15320564260055042
0.12498192042667422
0.11144392689803459
0.13569346093940912
0.14925485617377365
0.15184390889998228
0.09862863696079782
0.17031958749251616
0.1721395505184597
0.23280023713881906
0.18629925771435732
0.09741928510071221
0.12452153202079952
0.12894403069766996
0.26957991005812415
0.09156836380093127
0.14524895082706926
0.08960423601613587
0.14035133906721547
0.017267151965843826
0.13303827757978562
0.03618853712683341
0.018202878971856084
0.02485356270721018
0.07204389299320346
0.5650626499568471
0.04622831532514794
0.04498727274205486
0.049529428350462375
0.11944529068339231
0.24604343436747383
0.05238832917592633
0.0147488528761394
0.07423707504010034
0.05396859047949574
0.0655799899305807
0.17023175132763863
0.0804974840048078
0.029016022986412905
0.03993909144401382
0.10460548762398289
0.044191916767641774
0.03711624269489002
0.18719230229272574
0.12539555025075563
0.18356009756294506
0.048298472855063494
0.3763653966660899
0.13547832161303866
0.08815036921817782
0.06574999327050536
0.06812359049153445
0.08665828187192098
0.1357664855193746
0.03421783118092078
0.009971969591901369
0.07683315875471268
0.09485597537937436
0.08712903423611461
0.08460369974133819
0.03739626491793628
0.06898881785214606
0.10173330029888686
0.26081973864877517
0.10827081029696213
0.1557828754483887
0.05004179998281612
0.08160933545652391
0.09730056133385202
0.03812826177428414
0.20422602793525205
0.2641662610204664
0.06475948380109049
0.21524762390303653
0.16462251487774637
0.06090733866164537
0.10453322913740049
0.056828499470070085
0.08054649417894086
0.0692128663549077
0.034821821545591124
0.2876080356418414
0.17638027457662175
0.04493868520073475
0.2515829078360309
0.07294431665100416
0.17794652601471458
0.03762809564944162
0.05994931759849697
0.23961336470126973
0.22041872033490859
0.07374464678354359
0.043302669756335455
0.024062019702762984
0.2195986856721789
0.4138626566480553
0.16063423146599545
0.05117909943523529
0.16624715241860227
0.08609205322705256
0.05626469785804377
0.08366866045979802
0.05073413539209111
0.19452368343336082
0.0671789775646268
0.1453813881087931
0.049846850427245945
0.158029866508361
0.12132493622534901
0.08720491182910682
0.02696928846899444
0.14453332452944825
0.17991038420956734
0.32032033203223065
0.1362841525110535
0.32826094782777565
0.06615981270446247
0.21968324089004868
0.43587086628201166
0.10700504680066558
0.0845432566999195
0.1320439008969705
0.16938380566416278
0.21520120167946774
0.08772743560071168
0.04678142624835555
0.1618956361297612
0.11916621897852205
0.16000949066283632
0.05475605965430429
0.1632682262214713
0.14560074392151112
0.14651181648185688
0.07643009263396307
0.026464709705128424
0.2823093369785883
0.06656189515198538
0.4205837414405811
0.21017507622945203
0.06619585867960681
0.06034985669634644
0.024500025926381844
0.10722406740461306
0.20089633679481558
0.05194192410724907
0.1291694638513372
0.031560635515791996
0.07725632367006549
0.2350718923235909
0.14850150040883317
0.03125011822554349
0.02294347630290363
0.14209426938430755
0.061851265275932495
0.12438398978568588
0.5566807309274765
0.1884109482565845
0.3769936459833042
0.25083317543092865
0.10531856976509536
0.26335095499882544
0.20110394480745325
0.30628416505353817
0.08219847817927727
0.1415859340388745
0.21313944772489024
0.26822764792494075
0.1497042238785533
0.06230254751085964
0.37907820037792456
0.28255987770486013
0.16514891205422297
0.05638109739401339
0.14630351371221917
0.10068708097842669
0.1441805867129544
0.09339354074743372
0.08092062143403202
0.028044661472299573
0.11366945830442399
0.1927701186663805
0.0918148679623285
0.17575118669218495
0.15844382716878158
0.14112819686573844
0.1938202585876943
0.06723577046879821
0.07696471167002154
0.10089300898110104
0.04680222808220158
0.13273779407874348
0.1988798161507955
0.04432563769348367
0.1834457734257316
0.12718218872777975
0.07334052038658796
0.06652900365455115
0.05878793870547319
0.15335245270051026
0.15795399654131126
0.23264292910724854
0.0816779356131137
0.15659500631976747
0.3128724121735313
0.08034477458999446
0.024440373434077987
0.08946290831474128
0.22642434359765043
0.3708094027453033
0.22706613486855257
0.007468757243942881
0.02047938329774831
0.1517941943392385
0.15221684796755147
0.2867830625854822
0.15316577166210557
0.22157626812663617
0.04604289070116326
0.260875869153445
0.032033477913072775
0.06391365875056654
0.20015691378585806
0.11402889984981371
0.2904109435021925
0.25161522228058586
0.07696276181403848
0.283569137990965
0.2940379100648195
0.03452798440515169
0.09321592455113015
0.017328807692581327
0.5942283960340747
0.08449261514838169
0.09127370896786047
0.4411264251147891
0.04953127269088875
0.3280666042475097
0.09671855110891268
0.12088488307527209
0.10832049020067715
0.06978743449655113
0.3277629298401619
0.1612993721076288
0.2681138742620349
0.3223117359904703
0.08007537366620858
0.11457947924765076
0.020495026489086594
0.12117113074101953
0.37341436908805714
0.24723108516526573
0.17080523177086063
0.2918002577514834
0.2814352978879866
0.061805732400602234
0.2267421587197579
0.22504015102449507
0.20140848350056034
0.2920934233800287
0.1540026353740622
0.2152167798984836
0.3028802340387781
0.21931660525595056
0.1800451421700468
0.19495954861759396
0.1563477190200429
0.33421198339571706
0.17440709238353697
0.1488811924373657
0.14602478110493444
0.17127742682852787
0.29541555357266763
0.314225175897454
0.17544223546309923
0.15543248016350564
0.31316120953214394
0.2877933057983741
0.3007922404628178
0.14533032516138766
0.2976580127832274
0.3553008230194895
0.17574863166876892
0.10424017078442117
0.11939873968762744
0.2622696178385001
0.1441925142147417
0.09540475194659885
0.23974495106030885
0.5284694827395922
0.32687163762680504
0.1342160785156803
0.06098252813778931
0.18487983574739958
0.35991637341837557
0.14713126353858139
0.034151547490666775
0.18770363731152181
0.624511208355028
0.30838202649458163
0.44215503308262516
0.010952095088922077
0.041502602354992695
0.3539563069838668
0.28161982808474073
0.23701018262914778
0.5135401762898888
0.34937047101081337
0.01192625498665742
0.284048705898415
0.14859974919488741
0.39946072247167436
0.2873411133215691
0.28614163311777624
0.3421585734308519
0.254685247596683
0.08625032125937662
0.06813503138579333
0.37948640419777424
0.2825661147111483
0.3275809375136061
0.12876874630934845
0.3022854395105538
0.21921941955533392
0.19146260346696928
0.3010234073742717
0.20028881748315286
0.41793065087903275
0.26110603836636453
0.2840042010020613
0.40790956850731497
0.38870905745538176
0.23800178173752637
0.31594208016451136
0.11284928082969943
0.3132960518417575
0.23257853202359838
0.3579862830617087
0.16342468533465104
0.14149571768649474
0.264011379669512
0.30357800723601
0.3273399923521281
0.26206468005749733
0.1293461152753296
0.18749188810771986
0.267927231860448
0.1510503802164099
0.22551014511875067
0.04895502106336462
0.10494437775095526
0.06569123448556573
0.03560002682501044
0.06563551492307747
0.20871267188093343
0.281053282710596
0.26897611338178445
0.21715992810730878
0.21934228137167555
0.2547127023594774
0.1931120290356658
0.2857492550436682
0.2655932059587746
0.32001691814705846
0.14880732193794927
0.10909955433194604
0.33731739108891007
0.06395772489206905
0.24354033995467814
0.26684760627957027
0.44540584564611796
0.41825330886087236
0.31672176688385517
0.08181538067322007
0.16791983761904714
0.12768700436046457
0.24548192110598313
0.16449969205833037
0.4122789104437358
0.22660408505055887
0.4694598403798499
0.2499595762266773
0.3763400896559794
0.28117532653113736
0.2670178599511829
0.23452710146179617
0.08012343992205281
0.1530187590207578
0.2969270128852056
0.18513942358005295
0.18419354060986812
0.21054945207763606
0.3198770191661333
0.28955642352265043
0.14871424938933275
0.2539802773525817
0.18086057664738264
0.3213463247534782
0.21381367016659975
0.2937995784448671
0.3320464436178962
0.18300041528430777
0.07954558194815917
0.19997633793158962
0.5279168245077064
0.7059968450661438
0.07806263349642559
0.0550249986141532
0.13971985992040356
0.17578717241607592
0.10723978880595811
0.10198488264998187
0.6616210374825923
0.07210167947584994
0.3116362627059
0.3184847488002044
0.7056140317724506
0.1783736056301173
0.24340879759296208
0.1297448571909055
0.039113558863255495
0.4837456358065263
0.07632321803611741
0.40550413399160395
0.5037970206184115
0.1347620245661409
0.07512951993418863
0.4060828453409795
0.10135770337986812
0.509265885583079
0.2958595190030658
0.4981779759428949
0.06351301176440352
0.36651999509180644
0.015501114943447535
0.35232410178971707
0.03504957552672109
0.24538475498605403
0.5375272332522788
0.3782152127880353
0.5274686496060915
0.22093516716419714
0.1461944032064365
0.21846276393069733
0.17470086173542018
0.1609640396262086
0.16259839018440486
0.047704531360365746
0.11914664286985938
0.24985466840170523
0.14412179876504813
0.2695352326008724
0.22973922734645127
0.1377026063314721
0.23764057353017126
0.7249511473726823
0.5241963694477438
0.05475410361995559
0.15767098956852663
0.2809433064757267
0.06455969109160921
0.06396806153259971
0.05917024414747869
0.07956130092316559
0.3066017485921557
0.09363546453339777
0.09886003282645692
0.37573084805783524
0.10423509579317435
0.08025629625031057
0.34889238290929214
0.2867126027892555
0.08485490213926633
0.03498978557983824
0.12419799655865271
0.37694147321349936
0.3792929806627953
0.09912743054077505
0.34063441772223685
0.3534365680614717
0.29237057585311416
0.3332428170995878
0.3846769500370083
0.3054182295543768
0.3998887345404891
0.269589675791161
0.052133340406622576
0.08252285361060048
0.1175893985473739
0.10230578280327372
0.47414827649982094
0.4805979887713124
0.19387788153383156
0.12800694035731364
0.18128964229081942
0.12148272719807783
0.05406977628703307
0.12737232951833183
0.056428367182082106
0.07797636253288488
0.10346651276208825
0.05417539712535913
0.08098367947371064
0.26093175189520174
0.24933346883259835
0.2909475714325008
0.55372461145019
0.7074867489352634
0.06705691482803641
0.11443684296208632
0.07152965472718255
0.04669460598730906
0.20241344814207965
0.17652819746696818
0.5496074107852044
0.2818492824553826
0.1321482944056599
0.12717456937259217
0.10393249123672263
0.17185840675873773
0.00451525388368082
0.08881278119021975
0.28106218550077494
0.17481071666642997
0.24605438477532876
0.11954715336561664
0.06382632131797608
0.4977738861087333
0.3897905013668185
0.14489554113696665
0.19872513310529222
0.3259340964550104
0.033882866687434524
0.28898371126850336
0.20857051493522658
0.37428739299850333
0.09058329368229419
0.2226126181076918
0.07149787374933446
0.10385580761726328
0.09500522446691352
0.20530849552999675
0.050842508656632056
0.07937530226064114
0.0792914047694086
0.013221730739849866
0.03584836410142117
0.015543849926833674
0.01019815222087862
0.13062832270596303
0.031101374276032982
0.03207305046599871
0.16283106530356517
0.0747757412358351
0.29441538115932175
0.09578572629900407
0.02274450060001923
0.013854395007348329
0.17335942995096756
0.09603105887598096
0.5963128278764653
0.7294715977435569
0.13139196969517877
0.08135006576898322
0.13191514574124003
0.07763251764653069
0.0541251292852895
0.08460614232202476
0.3431150430208286
0.5006143293643285
0.13197090917517948
0.028414299704343116
0.16452861989359002
0.1969102124053041
0.2126481978639805
0.04358103531272534
0.17872234889750924
0.17530600089001386
0.23466468197281454
0.12369725604387635
0.19885959565077108
0.09472750963416543
0.06749117654875125
0.2260802078951328
0.4188906647428247
0.03933452583805993
0.02591624969718661
0.32116419425624576
0.20505841239540287
0.06853831113187861
0.11317222439113865
0.08576047877160413
0.07168137543172497
0.23607984745554855
0.1438009246538984
0.03556620756350802
0.12261821094893591
0.1003942352077773
0.21629689601497645
0.09397985170302496
0.08626125927656458
0.09668237268968774
0.044016168517438545
0.1064097706673564
0.1286152981450601
0.14283354183199973
0.11230449831847224
0.2997730940712304
0.13242361012383536
0.011743136239733297
0.02553428030645227
0.1055410792873346
0.34363133127332735
0.35992260120138087
0.3853008208048464
0.20401998716110173
0.347765904402859
0.3489270639267103
0.13956374057991544
0.3281671240805108
0.04379246622579341
0.08826882325328933
0.3125438751695629
0.11530664013646783
0.11396848649299084
0.042589102593845476
0.09198846811118279
0.12924571539866153
0.13395131193298912
0.11271131836342864
0.04835231192091509
0.1641409539675166
0.13827009210633343
0.02512032433879323
0.0625380444689566
0.07078931723363485
0.06464489350481008
0.1252209836135816
0.06598936869296589
0.04183167344347445
0.09126101064332413
0.10736101855294726
0.0782119341721415
0.29090976265946755
0.13055607260295013
0.06746992063884258
0.17935826948694575
0.07214102775623822
0.07137432167418253
0.11384631472413151
0.04070641438597178
0.08824255803078643
0.0961422296347062
0.07738023572606212
0.20457870911386786
0.1478125503898118
0.030488872527776312
0.10023321825872719
0.17856163398278402
0.05212618453163093
0.044816473496718696
0.11466018309819671
0.09371840024182992
0.07615336872764784
0.03383391316158671
0.025189845700620217
0.05400608184392376
0.06727711815259828
0.14437499113200467
0.19471749636222538
0.1018738000939545
0.1938809360356254
0.24456160206284622
0.16219038865620714
0.13945465208152452
0.22724673169965406
0.007292368185667493
0.11055739125458318
0.21055924223334396
0.07480786959928407
0.16066128666638038
0.22980094106444798
0.2278656573509564
0.07696234930757198
0.16127460509462743
0.12797388092899867
0.1545762938885264
0.03935852350891616
0.09693809820033618
0.125911277184832
0.09739921703281192
0.0917505221406614
0.06398767118755627
0.17930151813142015
0.03735091701378772
0.09431430517613466
0.07982506197232636
0.08875145590511666
0.08500751739201565
0.053918119223859064
0.08684592931242051
0.03617869144890519
0.017198558344608046
0.1270983277498868
0.023853465244612557
0.1841663988281447
0.015993813950796444
0.0033753487891367523
0.006838958285296475
0.003974382088051962
0.011635139725700815
0.04576541968214953
0.07509418812937711
0.1205130132059522
0.04000820917148413
0.014034033399069397
0.33775179285384116
0.11820166178495464
0.13922066077111664
0.15432544513285718
0.14528727988212184
0.1552946295948643
0.0414088667806917
0.21713513316498517
0.04278567420822566
0.018153002794335325
0.028605858446664092
0.013265490625924463
0.11545099318801384
0.057594991906727344
0.03620676050196094
0.10246630307350005
0.10441005842697462
0.033648679476113365
0.02470575473898455
0.02727101009556875
0.01708984137661575
0.121878655051414
0.11088128507431061
0.061911919900226174
0.05170520741216511
0.5370341870122752
0.08099272296089313
0.06206251843249482
0.04798266595337039
0.08154302841061874
0.15413211461033438
0.13571376442023012
0.46848955185797114
0.12209800521463912
0.12169885355070226
0.11262979321406974
0.11496362761302581
0.1414466169564671
0.11485669821118749
0.06861995049145365
0.06797669454023414
0.13286275343147136
0.34783611551151455
0.41472072434788765
0.42014022477107016
0.17758713160518821
0.22067026882621932
0.3281857848639888
0.2365415904333378
0.2882690764006837
0.3023773152274015
0.056401092888948214
0.20793949842005935
0.2125770421078164
0.06993095874737155
0.176947800545867
0.051090067481931206
0.33553696308968706
0.21605978316428998
0.1945329196793017
0.2871806726615455
0.15552633479663752
0.279661189397676
0.15342740776589525
0.04448427042871265
0.17002722333525086
0.0314541695678952
0.11614438113885715
0.0944762547304786
0.10057256338731077
0.028491222590563064
0.15373140861587137
0.12338354957465378
0.0894206181862039
0.13619267004082145
0.1895481499624361
0.3516213507098334
0.11677960630063684
0.22656468735104562
0.15195156393891968
0.14348835244427707
0.10571510492807004
0.07614977044281904
0.12369702489307059
0.06545452996482704
0.07776111012757417
0.18337366486872494
0.17679021993700256
0.09010848686077692
0.140056540637155
0.1692372325931746
0.17511925559486846
0.18916688609059049
0.020088267221675258
0.1792164673144011
0.12171419147858785
0.22651021742364102
0.01799791969132616
0.15237667751078113
0.3320360269046117
0.06929059141118724
0.42854988911865827
0.32218952272358536
0.20781986424471732
0.3655783529772217
0.2532762698463662
0.1311129552699029
0.185563223047665
0.6386192749840219
0.3816738102565672
0.2172102723644149
0.09754497731046828
0.09808867108620796
0.04866222664662478
0.030603749376049948
0.04647695954858032
0.16396340779228616
0.043165406744459164
0.09731867077882916
0.06533214571718875
0.027422065551801926
0.028922005453972482
0.036101964960262904
0.10284996745028432
0.04997328375630791
0.009211352325578487
0.14639107626057682
0.041624580991635254
0.20389572642776793
0.1912077877197102
0.01639315130267122
0.14863960587115121
0.10573461452938672
0.07226136525069385
0.06859053467636907
0.3263527550448218
0.1629757027250703
0.16139171959437631
0.06673829126939967
0.041509811030716104
0.16991956716785125
0.12247501876938112
0.24418838920124755
0.15746084591906326
0.17015078714922321
0.1931662330925959
0.14787653155753394
0.15352005512735237
0.03725428137022914
0.26526323118903844
0.30574240921426726
0.24722333695084225
0.05221244670185203
0.28402752442388
0.20642948159700866
0.06715404047728858
0.011958761052750025
0.0969270687588698
0.16105189881071227
0.06390897860012268
0.1738589139588826
0.04020464109784161
0.1076570972946574
0.26036806369895377
0.0640946219034989
0.05540065860906665
0.007077462612515691
0.05542579092741843
0.09284028557652169
0.049637042191377205
0.016191809557060635
0.010236733979095209
0.029821257138853134
0.017655191482483967
0.09095013259486809
0.015526672930286475
0.003601805175564047
0.005756029570744579
0.14035594935753742
0.1149751112310456
0.09095037733222726
0.00803715209117557
0.011870646178135658
0.07790345571962277
0.14337741817068717
0.07040961336924023
0.12985179298177268
0.1130869084454587
0.017091355481110942
0.156103691702177
0.09553582801689298
0.15798231487310452
0.109408471121548
0.041492094699200455
0.06296552112231978
0.035680451091577685
0.2041377095877479
0.05356539157867301
0.16201936983871998
0.23792170368458138
0.16544680602657352
0.2585727301073564
0.22009019783993186
0.11933473466807916
0.3224267780628829
0.03288225839325633
0.00994528774497459
0.09601904378319406
0.03503821409795758
0.012664120442825624
0.28702070045694145
0.24081348868518396
0.2536396160431536
0.26130052061473397
0.2159637606645352
0.12761654442705161
0.051815909386866234
0.32023885359454446
0.09170049294182851
0.27140641444590985
0.017269194445288596
0.022550795183854434
0.06895362054493545
0.06588530260651296
0.27467852879392224
0.005420710884556195
0.2746745251745408
0.006769678753351626
0.24854260042004894
0.24132774547657368
0.3270242223662601
0.004382318719260116
0.0054327401049886655
0.006398019233848613
0.01061556336544964
0.003251534892942658
0.1300243778624208
0.009109290054879794
0.21597287174289304
0.1314594564930582
0.007954184253181415
0.1412636415404276
0.03522456633686186
0.04118717502702511
0.02856757533142956
0.13686423229873457
0.15857309401319744
0.12490732533699467
0.09659448664051967
0.18893804468167646
0.19245195683581154
0.13353323059029049
0.09661888859869912
0.15242758925462124
0.14509954180052126
0.15672690462924246
0.36138706973357976
0.15533326148949383
0.17966597537083556
0.21369883374181473
0.15521293809489228
0.29847165918214635
0.10323326670681728
0.3718790105771487
0.26927859149014605
0.28550449867363475
0.18765358830503584
0.20520443056540796
0.328651211199574
0.2678685408989539
0.22779771279532637
0.3128201844664829
0.30591055971479914
0.10084294250790678
0.24107634764890068
0.18048265282346546
0.2082447302965847
0.13030425487907932
0.2862112773224011
0.207250103173987
0.1535843511095696
0.33552057906992805
0.018930209185015003
0.1246674253331682
0.1182464492083846
0.06976810951231222
0.17938813774504564
0.39342492722308997
0.07282744927262369
0.2006145915072021
0.19498904556846516
0.21433749331035587
0.20403381829385384
0.2561176614278341
0.3556857427523059
0.07604490844400358
0.1607082955308279
0.5455821123584567
0.12090461906381665
0.22893545396546727
0.12619330727719044
0.3095987017261888
0.07989849743171568
0.04090665195472651
0.0830186607884677
0.040448031760198934
0.16978738034013252
0.10267163557168761
0.22362047639315963
0.1162418442386346
0.15144647233443506
0.016604337282119696
0.23536983157608357
0.09001437458991098
0.12056972268949744
0.019444012692512568
0.11957343130162551
0.0478631965298118
0.19017837012264616
0.10144769791187461
0.30962510283164046
0.08507198719019762
0.06557709975531398
0.057786712045969815
0.12553286150598056
0.3975212121931752
0.2209230485459847
0.21422471873201118
0.12985779456953742
0.10990659141207694
0.019778999164409818
0.16369211629157024
0.20194112677357162
0.20858833124994106
0.2166637956047891
0.1092605858355909
0.059000206107656473
0.008455372569690887
0.08705813116054183
0.02740747590932259
0.2502196858856544
0.2729252972834338
0.2875766669740369
0.008169012787882242
0.027650843187182614
0.03641231899005392
0.13869815795303947
0.0038676309357024087
0.10399232761241563
0.11661683812014881
0.12739611355796276
0.008789583482295762
0.011459847986630616
0.2995635606460896
0.05525863452258432
0.03159930437651267
0.5074196657279996
0.17390550947721695
0.05026774429767194
0.022643648521863742
0.05694784405614389
0.08697277723328281
0.436775800132683
0.10708338113449672
0.2603714718208297
0.2422998186120104
0.17469236394972512
0.34838495609546927
0.19684478212190734
0.3895854258787517
0.05559500243520258
0.28193586006400323
0.26855452952445175
0.322479664813991
0.22943514584674846
0.13528801494265952
0.24612678755764855
0.08966569662093896
0.30911638011723014
0.09884310130625691
0.20765936729123194
0.0979924633934947
0.08531525999646439
0.08923229615557772
0.21761075962998683
0.11221691892421043
0.17503749535331573
0.10504483915284203
0.11472967504779394
0.027224230084384734
0.15211198801897435
0.18948117827250602
0.08775852449174022
0.05553129391791819
0.23514560535783752
0.3029027839513922
0.02237021669064442
0.052607292693017664
0.13346889640434356
0.28958335662369805
0.18258745486472427
0.0171268739025551
0.32901160853388145
0.07957434910248821
0.3814874268591446
0.3682782726119496
0.3109385731940357
0.1458445452039804
0.06337955200658925
0.32398070559561626
0.06070140735952425
0.23066103540880323
0.07165070747247883
0.15859807050643282
0.13153439683226287
0.43067081817629727
0.305739157530314
0.06804143062649193
0.1359304487979633
0.28366067322313226
0.11882908834058196
0.2882968843365637
0.2447576239866005
0.044602145744282694
0.25116249438516575
0.18417307935281998
0.0532833324130852
0.05334076442751321
0.3259720475416724
0.06495655220033444
0.1322303968582862
0.0926211444005156
0.08523978372416785
0.15805771888460243
0.12556696589122118
0.1218904754338832
0.263042936808829
0.1659620548670512
0.12610691622027223
0.1746072968667714
0.25893135764374475
0.08325130472392621
0.16046327533165874
0.1505980927885456
0.036538411866311675
0.2607383978213066
0.18358694892141555
0.1298930146307293
0.30586894542343046
0.11048008041901469
0.05837458665877285
0.04172737595712284
0.07576755479201062
0.032893551505711986
0.04649121667799102
0.19054747700821126
0.0795927673181597
0.051558398765906684
0.20493388127718212
0.15537038081920387
0.1066463427809678
0.19446576251739023
0.13981831882543252
0.09789453821818868
0.1281504457959826
0.0200040941564041
0.10777236380093193
0.10133582562269966
0.11468231933977804
0.2375029543286292
0.0478851447969549
0.09797812019143438
0.07743347018735709
0.08636128717288122
0.14672474021497903
0.13110062523288796
0.27532552449330944
0.09334434894736554
0.2627774630687862
0.05632475738946157
0.12165169966520202
0.20250445444440665
0.2950157506189369
0.18802839519684372
0.14564278535436306
0.31482041689398665
0.09692764224565312
0.06331025254507758
0.18716227867746515
0.21963294028287755
0.04508939016947033
0.0257884949499699
0.03427612008489901
0.14868850559770216
0.26607471285494505
0.1180518862334119
0.03931802949533452
0.03209182936495031
0.023065067642804925
0.060984737679856
0.049653899184802626
0.146431534144455
0.17768498703579952
0.2611848839789413
0.04800941965598017
0.10133782636512143
0.08615909994658885
0.042416680223530755
0.04736204584704151
0.0458992255237078
0.11154401769973266
0.05969900322059771
0.25719380131095465
0.10271753423725807
0.05010174317772678
0.045428350182835815
0.030754897094115212
0.07360510359249889
0.12671401967318097
0.19018979005999676
0.13276869424234394
0.08792543150271649
0.11751174159699115
0.4914089868315671
0.503267555213224
0.08085046240632911
0.07681327610222957
0.04602711017550106
0.39109472357328073
0.17738633704136972
0.3137215351071754
0.1852781055685965
0.47357071297892206
0.30759091132564215
0.027721729033471004
0.07523348167943357
0.07372141649440886
0.09990112328434761
0.07911205104064267
0.21586690300130065
0.0519126853902504
0.09154162568301515
0.23232064387881934
0.32275663700634194
0.1726977744372758
0.1253042373817659
0.09834499900672018
0.27834278587146605
0.2562046524762752
0.3418895166579134
0.20691785033907262
0.3212472530989062
0.0538174735591123
0.31070654480371795
0.3484926912941198
0.19268404513819587
0.22339210363107573
0.024442383527235545
0.056293813142521215
0.06972386196087688
0.3547522794563523
0.03882023208830224
0.013011573359077159
0.43622480373795064
0.04956590451707176
0.09401780940895492
0.058514287044866685
0.09830856108051472
0.010352478854357697
0.07615405413205925
0.05780170025786257
0.10726943760236977
0.011045101874840084
0.008717898394889723
0.06335440320900268
0.051338975967828986
0.009991235973285745
0.05616137200518416
0.1768897363014164
0.043693804657660935
0.16022763703132342
0.40996377330357875
0.21743395123601694
0.24999154929686537
0.23281506623620307
0.10920737254321256
0.13572211300278486
0.0878576451646124
0.058536991699762515
0.014987177424736355
0.16912665858574608
0.06250509475813248
0.203785279495249
0.05108259910287804
0.2197599573816606
0.015631115003173355
0.0860021622518239
0.03315059357000451
0.10340480162609553
0.23459673974082368
0.025819794090328488
0.027818121002953965
0.06627065209774378
0.018284259022346445
0.040910457518051495
0.026311979883055708
0.156972333816867
0.01403022462634294
0.04073523135289074
0.06220652663703688
0.03719305610039793
0.3088183523037
0.03999666171908028
0.07955497510233675
0.165129629880765
0.14051939486102968
0.11059588329152749
0.0435658735515703
0.045080781361604
0.3583648773130507
0.08181693849263695
0.15729425632732777
0.08238097373176517
0.0708013925175504
0.12241507007172654
0.1483750620125086
0.24637518736090439
0.3077903980144995
0.19615421289978954
0.13136585446977606
0.20102002858193915
0.2267160770418343
0.22529812383632716
0.13005901504919767
0.1832965696538461
0.12608098836125653
0.10165363619334182
0.08148309732454168
0.08174169187149213
0.12077968310555662
0.15015164182856272
0.23429216865483993
0.20254349721517534
0.04720461379010278
0.25571898056340425
0.02780933956597275
0.07020333524640733
0.044019878507418564
0.14607661188701535
0.22332876188484413
0.27596211545702876
0.19767877094106262
0.285824312039324
0.045721400986316885
0.07481035660331364
0.051314099724932914
0.05731299930935036
0.09668282782399834
0.14238738004517032
0.047897707698489354
0.06052187401314538
0.06425421420443468
0.05057730593049623
0.2603343489052612
0.04033967307532479
0.03765364953429274
0.1878425356427964
0.15218212744263446
0.020043733193223848
0.2803625716913662
0.13913087913605685
0.1589852128590163
0.0528397421980001
0.27448048724370055
0.03238596167812507
0.01976106721590916
0.03401464271628725
0.14875544153905942
0.12421165276854468
0.16112138124832862
0.016740400709973353
0.1650755425349403
0.0456366252323008
0.1412349098122231
0.10303367046645946
0.1866921077202971
0.10505834966237734
0.07634880939871778
0.0633147095566691
0.029154753171030535
0.16815785366245203
0.09650708314491813
0.06642972960833435
0.2479130777083114
0.13096927606748057
0.0483113115992929
0.08583004556908859
0.057036529116253704
0.06770191503919631
0.052665148286524355
0.05284622659386039
0.05996016130493311
0.0714556673611875
0.27632212300958675
0.0852167996265971
0.04292705079030315
0.06413094356433847
0.09951463006005024
0.07123583176488513
0.05862204883553837
0.25303042313441076
0.17364976167640925
0.06442482429903082
0.06356847639547344
0.08758866855498196
0.2100761286399625
0.16590363995502888
0.1488141047834054
0.16719203471284944
0.06639403528670076
0.09001441063452895
0.03394285449227608
0.15582223353915514
0.14048793968421622
0.04892889683758829
0.2940255394197206
0.22413906497850478
0.13554051615612545
0.16521982080513828
0.132881286907745
0.1369273201600671
0.14946332140071358
0.21331421126376302
0.057841758679380954
0.23176962063951365
0.11538817943817015
0.09322312839138598
0.10645188044699573
0.09670261006765198
0.07145125441765289
0.2219817355059523
0.06712220143384992
0.13768953169405396
0.04373837794960884
0.13880534604900746
0.04410595917912193
0.021736040720102042
0.0678689189408846
0.046847129955927706
0.06487059768844876
0.040892041605436
0.03362411652040329
0.07670104563220415
0.12961100282337112
0.47393981377139943
0.07611458138155158
0.26291613167460004
0.22468054352979533
0.09031198308867365
0.15553858941557341
0.1489442905258921
0.13987521357796523
0.1023520152551654
0.03813229081115539
0.08167034089510959
0.012223186262001019
0.28675560239792913
0.027487736792678415
0.09334772846425474
0.03067098972932782
0.0714393787335092
0.09246285673337043
0.0377142571250506
0.07963077247747949
0.028158974943273164
0.0399933357809628
0.12208148492920996
0.1466212730082578
0.02319245858094195
0.16720981399684584
0.07372637630278604
0.05787047688432215
0.19815283081049717
0.0961839767857663
0.02648312943409537
0.034144705394065285
0.05122474959351629
0.11797848258122384
0.055399971447173034
0.014261944899726382
0.033985691853345386
0.10193941401755233
0.12830949448478296
0.10210987618420683
0.3277854907835674
0.061553302282734125
0.3192843559558311
0.12262201820494456
0.30976075553354304
0.0473207306711318
0.2403576155033713
0.10641176346709524
0.0915695534781473
0.007314018576705096
0.2320597975573821
0.2611591321059733
0.2702068939839196
0.2710791955657932
0.3313680645091392
0.279047482366645
0.2963585457165082
0.30249585884181324
0.2734450944942238
0.3251794485039245
0.3406816777124021
0.2840815230563415
0.028214113419439715
0.1612971967882786
0.11046524348745836
0.07919158719204057
0.038155707482103646
0.08046967347052814
0.07169796233740798
0.04508272298698735
0.12709840438352243
0.11639473112022031
0.12095967122661709
0.1168284517614563
0.03681581163554426
0.06588216807545455
0.3774192925251361
0.08445792879354376
0.16432286635850196
0.009859976502007487
0.29264979061414276
0.07912573392905309
0.05163520533120861
0.2090579019071321
0.04102581436481355
0.08524716269255848
0.1146898990934799
0.10341465177398335
0.041389349356584705
0.12487372443643772
0.05459170888239586
0.11318279975238017
0.17963547795393175
0.10952078959511427
0.07703465330618359
0.11856521504762634
0.04457445245205266
0.06698788690307178
0.016085174410841504
0.14827532667603635
0.08646321175549104
0.17448786222662946
0.09440639848925884
0.26729898773665817
0.2132789288683888
0.06891807941060103
0.035644949595836965
0.26515180098207575
0.24183540757839972
0.29725727043213096
0.13280164037851264
0.33772120670455225
0.1452274669475447
0.20427384398847423
0.14282215717145635
0.07892776523356625
0.27528843794556274
0.037056055763828415
0.07071840803390797
0.06236954531838149
0.24499364518216946
0.3487726453657501
0.2078148620257351
0.13082871612236113
0.12778895785071778
0.1849505975933578
0.030348583544916267
0.10349309715141759
0.21355190844281538
0.10646083910888206
0.16582526890351865
0.04901940827131253
0.14690278669197773
0.15809655773003345
0.16006520200817456
0.1496638993713207
0.1246782742948215
0.06395031308894909
0.03759595842401755
0.36938493409931744
0.05730867413252492
0.10260513345653512
0.33192897876655886
0.13017348427643946
0.08141855550783555
0.030714039103030975
0.06602505025040617
0.10604914958074145
0.030848576074955388
0.2220970748838604
0.28900922565547216
0.30680140769670805
0.28541715318216254
0.04225533912575556
0.1718709681233385
0.34150122293508656
0.40051273581755986
0.24142105487939455
0.09126986437715008
0.1248589049411423
0.10697061576167313
0.06143743019846474
0.05895176109592982
0.34255331730071925
0.16077278650445678
0.09764868288860595
0.1944753025180504
0.2582584822632633
0.21047404355880664
0.30527536218670037
0.17883297296656567
0.1780513070796369
0.059774074184313616
0.05712274521566068
0.29734078240749595
0.15947418668471708
0.4629454118059456
0.07231192195866759
0.055579814277649096
0.045352718848047646
0.029532995322579997
0.12194341134688637
0.06151942752943804
0.038796561104250886
0.32425523967207004
0.055203516322218114
0.030918174279404045
0.1389263024989573
0.098411950330937
0.13655875570664186
0.07327209844793454
0.09707565186876957
0.08773651761620622
0.07807990888223815
0.09639946499143018
0.3215467846366636
0.07844609878143248
0.02873160830896274
0.31510511301892
0.15970332824288008
0.16594438651026502
0.02972229390099702
0.3811479926372863
0.3459829042927821
0.10335936916996419
0.0370303743839632
0.17228239374809248
0.4089762016487504
0.1241741734477755
0.3312900818852835
0.5444351552774749
0.08019303292472298
0.11074691568172366
0.08807213113119472
0.2992597762034495
0.1386983777694184
0.26001098402397826
0.20557521310412274
0.44243931910290407
0.049055128487595204
0.15482228352811236
0.23256381921664593
0.18086099340518225
0.04671467245200167
0.3074133311637393
0.10248422535186387
0.05231024930941745
0.23527207319640145
0.07817273324514694
0.13096116027457974
0.10042128230831189
0.13101086200290837
0.05914919852494748
0.15647971849028672
0.062198376364711046
0.10988726747260925
0.16138430739308574
0.24333693220427238
0.2894804393697598
0.08853337343871419
0.04330619200999819
0.04019725448424131
0.3562999451717497
0.1644648175583653
0.29750630104788817
0.08194772733368953
0.2614153415664172
0.04406358892954107
0.43922802830099733
0.038536633755914027
0.1103236899735382
0.055461856957851025
0.05338457002619194
0.24748511614895732
0.12366583140457556
0.16753321051418102
0.06259189260154788
0.19780930027635987
0.05593010610773271
0.09068507839399514
0.19935107044324443
0.28982558311812534
0.10247577825993312
0.17959858127366815
0.2452598136060124
0.09607772196374686
0.1769247286362173
0.04721754095186537
0.09182647322786233
0.16603982305200016
0.13322014405602908
0.1203738014465951
0.10769413942078315
0.10025753747907362
0.0530352663259786
0.1611964091335174
0.2012790712322912
0.23014969298686316
0.06476563536282269
0.06687156432356832
0.1511001789135947
0.06694817906703406
0.051879191245284687
0.2825451272159987
0.2957867065395213
0.022906618611728605
0.06528851965816711
0.20931227490160914
0.0185455576341863
0.04654525958423063
0.18753511884914725
0.07635689952774115
0.11704663951972692
0.09753918783642604
0.1675159461684731
0.03318035217959894
0.0810934525405236
0.3206113851394814
0.2257673540506014
0.10158536034125319
0.13401692148285996
0.08873997566015494
0.22893949567198416
0.22358243687928128
0.26432937798037326
0.14519073094973198
0.19443257682764264
0.15580444615163527
0.3459444625652359
0.2806410551445607
0.23231421563524596
0.19089078551945646
0.15171715766078556
0.08562543782956691
0.41352046097856304
0.21239860767570745
0.048350985528911115
0.09723383188265713
0.13817341867125807
0.25059538846420165
0.05671989412674363
0.1496990130788211
0.0659242222469382
0.09994324504697144
0.18106262538673293
0.05641614640907205
0.26419868965055265
0.25542441454519205
0.1256983707316203
0.06025116609487278
0.0333759651640824
0.12287757521226196
0.11954400317158947
0.1886748688476047
0.0971098148417924
0.21772134879368749
0.028423637870681008
0.09934500571934245
0.14808832329584132
0.033363260386130876
0.08799837363316347
0.2392665365997697
0.2108785314851645
0.23328191132857215
0.14529095378941428
0.3381546787591165
0.4057480094818195
0.33757390857955283
0.13046388555568375
0.03377002806268113
0.3330156918414695
0.19253468804833582
0.19192392229141367
0.12591581163239993
0.25698415967652694
0.2573845685669986
0.07996040000188741
0.06828758932703656
0.11127169820481327
0.0934638288042371
0.1674067596269219
0.3456528930644882
0.13259621019199241
0.2680839750808724
0.16763788110834196
0.12909015785488726
0.15465555414241314
0.12027490632103044
0.19471568356899763
0.09224797551346169
0.10721762202601678
0.13182187657192504
0.18073989579129987
0.1374509884923327
0.3374267264373624
0.18793602347623037
0.19541060092686635
0.0728711854490856
0.18624923950621494
0.28427888146881336
0.04223673491133644
0.2360196917888127
0.37564813955044835
0.036702689648895295
0.1919906799153866
0.15306385749482285
0.09338297731760245
0.0893701366590042
0.2532853585580253
0.1555475255187336
0.02652815074245971
0.25136131117722166
0.3639766512686871
0.2812923195640241
0.16928216799931475
0.10071884509720305
0.07380197348201818
0.0847568876346886
0.13862017330542176
0.09808721135642748
0.10421105419779715
0.05262424879051942
0.27319080787302114
0.07802370992813451
0.2037350465006228
0.04928776422610308
0.11993687290956381
0.23613525868470367
0.05101246544438301
0.14378523093068177
0.06391773278884377
0.1167117044037441
0.054753993558008425
0.05957000068482579
0.07912489059233885
0.06312475909839745
0.11148827162795244
0.16178138148891438
0.19092305037437007
0.13302173392923725
0.08476693624439471
0.06636474584461843
0.06551834696394726
0.15063457330207364
0.08643244808470875
0.1494720724518786
0.10494185548526395
0.061330072931671156
0.20598188769304085
0.06052853796997258
0.12203584414011343
0.3000523555887377
0.10268049778550728
0.04625244228682452
0.35255291592238924
0.08709786414521635
0.14187856477483396
0.20007549531378135
0.07577076897053941
0.1648720481421758
0.14732734885167706
0.04937738650202415
0.09209285304150404
0.09012336980429939
0.018447691935692546
0.09399256576057244
0.14421927718595923
0.07597766791012432
0.12896478146144563
0.3079665825694942
0.23624270051327753
0.15199931645933126
0.15621250883128102
0.10399032306076324
0.20570213814748456
0.01300748187215843
0.12105563933735967
0.20235081952890585
0.012051279760276451
0.3006461558622498
0.07390511775102113
0.14275177369228956
0.03599779461297216
0.09937306069068859
0.03975337234361546
0.18992254386296561
0.28999324486124733
0.16037199103082073
0.16851108566662995
0.18192026901788805
0.0670101677079665
0.06036189164142375
0.12577527323544938
0.11862366269108497
0.2687257503857238
0.04027427882148606
0.30315271441967906
0.21545331306019622
0.05506956544394513
0.2125676252251795
0.1299296179854782
0.18627532394557075
0.2011452208320909
0.17268610224518885
0.07771561011917907
0.037141463466263756
0.08390643576054034
0.1561700036366338
0.13702900394931136
0.05626418413454503
0.16423098994950897
0.29337729612869223
0.05682236739636156
0.06487713693197288
0.2451805212222892
0.044865785661850316
0.09778826514498128
0.10082531887443408
0.21963421241860848
0.22789946869712105
0.20955973272784276
0.12846290177127292
0.38379511644250996
0.22289969534055523
0.5148523566358978
0.1441215832493915
0.14117555715204322
0.35195030108122327
0.15715721322365037
0.2000431724361865
0.16828891858296102
0.38840488256897526
0.12634423286934704
0.11966832675328999
0.38990062793917235
0.12606967212297782
0.14396475682974388
0.33386371650951996
0.0968386863563274
0.3569256223941436
0.0665130190128066
0.13859316016887274
0.2049591139097762
0.28152509996478126
0.17485705984046823
0.21583859376269357
0.26037045897819167
0.07674449559647847
0.21000143329809284
0.07105488438004083
0.21225337548020448
0.08463899654563498
0.07886924411873505
0.06028574137096762
0.3287855859670352
0.09926362900374244
0.05203010796243757
0.07135448896434307
0.10747675158120691
0.15904874797631977
0.2416060041957226
0.2846795016099072
0.09344920345301365
0.07664358568946363
0.07530326378602333
0.11312845498344987
0.10856380678407729
0.016347343070358532
0.08673407640829976
0.1560938434372719
0.26377805025272083
0.04777189430598943
0.07741929598558012
0.10922043216858332
0.28906481413475327
0.09224487327061485
0.07553728918585517
0.10618152911892112
0.14565455248927145
0.21860111970196408
0.1310413784754271
0.09621627982591355
0.05232345935011455
0.24272878994934136
0.09517906597966996
0.38471223130696214
0.08934586469576887
0.18636153577785103
0.13313117451114428
0.1325471554904545
0.09868116707987436
0.17727412521780347
0.17944085852987138
0.059477112012121504
0.11536185614262492
0.08061589851697352
0.1047587853969202
0.11195713056918044
0.34686632405148626
0.3686499180133291
0.29885392508572384
0.41789672936432876
0.17696384769696194
0.030353370168634233
0.26256223711569737
0.22165570100325807
0.28125182098209944
0.20195538261964366
0.14588493347277928
0.07493909050565381
0.08440095929092901
0.09696603742854008
0.16766995477796157
0.10913662491895479
0.11928045655882104
0.17859883870453233
0.488234036426545
0.11136754270012161
0.10063979203378497
0.0930523817496915
0.1751681655010659
0.11867754741573643
0.06854275973176277
0.15246000657851874
0.13633391256946983
0.04022655781206374
0.12662889660671342
0.14868584628685497
0.12739736237562752
0.32896633440947787
0.3307424883523991
0.2286446256497666
0.37800820604019525
0.19458593597261106
0.09843750582307
0.40133096405081164
0.21431624495702903
0.27399354752415983
0.11682232567535931
0.13474873819390643
0.3390627601816806
0.3246078439411429
0.16248778683643614
0.3050926293755093
0.2710552682220488
0.08274865830044975
0.08987314219600648
0.1361469612864843
0.11914868605166333
0.11789641004305473
0.23714695719764442
0.12169274240434028
0.5744107321193784
0.16977406065344378
0.4092488845231814
0.14022573247783288
0.4956167600538717
0.45012920867751893
0.17843044983943288
0.11072433682228647
0.5938494249595063
0.23141262747540192
0.17914453511298134
0.6780368867597899
0.036699700508715294
0.147981523557408
0.640740688044587
0.17401944075112072
0.08288493658227379
0.2008239162580726
0.11070838475865932
0.17378935668522288
0.02792294773466335
0.4772684806840852
0.18324778294493738
0.19706732893011364
0.0921267814028428
0.2007407937093682
0.1298637191146306
0.12232790675250739
0.12142619467379408
0.024429056660738954
0.33127286890623714
0.08618811169513757
0.1966159312390022
0.1316418517656908
0.11798747939676213
0.3844778623736782
0.3320686741779422
0.3822015483610946
0.21083383727297286
0.23094673624980513
0.11148089201856033
0.2297743385168664
0.11863077869033307
0.12353631951525733
0.149078601738228
0.0651673294770604
0.20278941983884735
0.09890193289213094
0.04967221250157695
0.0717670825964969
0.24932705345352474
0.01405804918154276
0.049120288286204045
0.15323678055306467
0.25738535295860177
0.05425815009102091
0.1367036355677449
0.3018288215183388
0.045227781358676125
0.12103103182757897
0.05562240708291179
0.1788476040458108
0.29409934459955844
0.04152973559989624
0.23739881090366047
0.12468440064189974
0.06826493134961525
0.2105116194642306
0.058232610751392265
0.07759589573247276
0.07167852679897706
0.3498423845264171
0.24275421084319027
0.07344015331750477
0.09801202307417607
0.2543621618992097
0.2887771001787715
0.14266614592025187
0.011481616602122421
0.17158909333144465
0.14281751448848112
0.1735067395495203
0.31749078127020697
0.29749586967094277
0.011427493964726379
0.26981668535678655
0.2428663959717116
0.12312254633594381
0.10344207318363836
0.11752597915832858
0.08214805531502102
0.11735584658424073
0.14280239104424688
0.0957084020991487
0.11118138165035943
0.20452078802324872
0.16105049024762472
0.09024681649376808
0.08914715921598984
0.1839142179353354
0.1399825686398935
0.17473660273125682
0.1327279678428325
0.03455721876642806
0.013757648867917104
0.33566343253970526
0.2506704633771463
0.4026604788055725
0.1777551591596004
0.07510924124329708
0.3503470434538767
0.24551816094448708
0.09436674823794018
0.10886162056727916
0.3362271299781296
0.24843139584942064
0.09152711567011192
0.22561204795338435
0.36298854021765514
0.09568740561364704
0.2315313713596252
0.17777757728063842
0.16058006241202055
0.2109962418826719
0.2796500872965954
0.2021877483594845
0.2748385026376923
0.1970913190286836
0.17633046393979607
0.17490155638300361
0.21815295348960706
0.11068967203707566
0.11929417584987054
0.26570052129678357
0.1291932349851477
0.13658583863882157
0.10766981793803031
0.11171082442938417
0.16653914152065913
0.156213880380106
0.18782319658308672
0.1635332442686237
0.36778867176159646
0.10428339153717586
0.1470310992489303
0.12284685999317298
0.16162843325856485
0.0168855124757602
0.06723533609906474
0.24158182287959418
0.2126465134718992
0.0607126015423836
0.2523914545637168
0.03192675970215516
0.2783862080771041
0.05017720508443249
0.42292041162586236
0.17243179408937423
0.016039124473151645
0.4362289452089669
0.0338847150218915
0.32290793017849656
0.18445043696110552
0.33418973252307066
0.025012731150878514
0.4111959139829583
0.05479912066057371
0.385082194852839
0.09226653079886862
0.20684806082274584
0.15004423485541643
0.08484764616174087
0.25729297724185934
0.08728602620518151
0.036225189819016276
0.15877011581117265
0.26735850082164847
0.37474705809697323
0.03954246995102582
0.3581967111704979
0.36711541669359943
0.09679495361579295
0.10615808775314906
0.16586542643439148
0.18259442626742572
0.17874681280744564
0.06796223399348697
0.07418410906534685
0.199413851291819
0.08169194743230078
0.05292434316279214
0.25130150304765564
0.12032290223470606
0.12596472234430814
0.4911423430116884
0.10403442446885706
0.21053060938184104
0.21631807751892496
0.2846184117265161
0.12787366531676114
0.40785704162148617
0.2759666387619838
0.07498734031283845
0.2134943276093887
0.07311103770554409
0.062173207757259534
0.1643193017145905
0.3517244044043293
0.19505469450022223
0.014031090758630054
0.3508868649550618
0.20762556606683275
0.15996340543436907
0.4449974902333532
0.3309143274211292
0.56033607579145
0.2518975587647653
0.045247837094695355
0.09832998047673057
0.34150191686112813
0.2607920494651544
0.08592537014264379
0.12016799102504458
0.3078850759720786
0.3349445746358014
0.1275206407844599
0.19122106734381078
0.2841289513288726
0.1310428037836135
0.2537020889255546
0.20277918672657602
0.26195977931816444
0.045916192550037704
0.17912153149576707
0.17767300402586975
0.1678313694176119
0.21897715122152794
0.3512619318846513
0.09596005289573657
0.2159230700544323
0.1914610726219145
0.30072272846547554
0.11531064315446812
0.03082091105910312
0.0256809970716238
0.2653135804842065
0.2405932795328997
0.16059863498877017
0.428090947826403
0.31899584309557616
0.27394884621559207
0.1841906433236061
0.10160542066701758
0.25860177884900976
0.03427904749796522
0.06928276038070405
0.0425523713024683
0.0900016235981006
0.2773070702173978
0.1637418583135013
0.210240310796602
0.2568420303882483
0.19652047979625228
0.11024544662953557
0.23419733441456492
0.15827100079310735
0.2515865678978576
0.1378624852257883
0.059187780581695416
0.22830357608850865
0.14728524040166266
0.1086654473374944
0.22476831668803834
0.10796057761928163
0.28731598116592966
0.11643547999115439
0.010091869769330932
0.2318327847593664
0.2703511833274232
0.1431178874279638
0.19144714310372937
0.06900327264325855
0.16019375188977447
0.19916084025440106
0.2596225832543367
0.1292097531280991
0.13306645309460982
0.0628129661621514
0.06936099481661033
0.019772228932235823
0.10034080143697198
0.05268871885910068
0.07172145268394961
0.07714770247521152
0.25289365028376176
0.06561600237647809
0.1172265245156117
0.1389364091296124
0.13291228464361007
0.07458261580627208
0.15815837918316675
0.07615997024314858
0.06355288533955954
0.20458042033912516
0.16684842969286925
0.1305169570471528
0.2849318075141229
0.12458469357761041
0.05567708594057311
0.1737287992299674
0.04108305069134951
0.034134868041347084
0.14995347663174463
0.028118740915837787
0.060836928051804996
0.06502355656065295
0.1460902334694303
0.15528464262311673
0.09186861915061782
0.1840712340137516
0.1457538407601463
0.15511070394824109
0.15781747181629396
0.14963091723903793
0.166491844948203
0.23033286136150102
0.2420083979561132
0.15484538382277568
0.1730160115739871
0.2812285075125077
0.10913521864046681
0.15873432898326215
0.13384871105345497
0.16889067086035484
0.045425399874545705
0.21992747477466795
0.011661399889752087
0.06841648326421597
0.04048910424188578
0.15974962170919565
0.27742483833988996
0.06494331937663968
0.05313967356935049
0.2860710161101939
0.062319856462434556
0.021265321405786897
0.19988239182399442
0.35403521751834915
0.14730548088969694
0.04907103191933956
0.5929895058071647
0.014441635775345001
0.09122070009491326
0.1213145050179625
0.0863436734332502
0.040991014166573386
0.1836508289412861
0.10149777841398534
0.19228508889852433
0.20026261647845917
0.28439887259045993
0.07949819828797838
0.07295279533997594
0.22666376880246517
0.10090785427203769
0.168124498492905
0.07966400776831896
0.08761039076670782
0.08639701803403252
0.14740985291783829
0.17009958936957464
0.06901387449945408
0.07544304766789041
0.20446926371128207
0.1256060694796782
0.17250009365110924
0.2546034266862501
0.18043477869303245
0.1946138543467494
0.1546721708527374
0.17280674808353105
0.025433892587193918
0.23817986026066898
0.1273275710472101
0.09912717083600733
0.1048781872483369
0.07373613756115752
0.06468689112879214
0.1843270295225206
0.18188444761974454
0.04333115031715811
0.030666992744793606
0.10111294786176377
0.05853319424259545
0.15527687359459996
0.09490354035462537
0.052385764924822525
0.15487262709461141
0.20184542354675997
0.08177179039633801
0.16287410084318113
0.10716608656109473
0.2165018313576581
0.13446757750209468
0.4074310989790902
0.1076992698673645
0.17076742277350032
0.08275274709413744
0.21719136585680313
0.05028689039137631
0.0815967178348568
0.13199646921966074
0.0925045638249924
0.09189390562265298
0.30533415509726625
0.069630502266229
0.09967525367886114
0.1709982598784298
0.09227922549040757
0.2242794150890561
0.1118631963974444
0.17948964351144753
0.07862733085807352
0.2159952705426947
0.1053344251683814
0.15263229728939787
0.19847144607766698
0.16611999824757157
0.2997312049448144
0.16682940786363218
0.18626418919223767
0.12723465184053864
0.22549150314271074
0.2724087346772198
0.16438114207864554
0.0682208564761731
0.01577724450023728
0.12370351941856755
0.1358303393806065
0.029519895750220845
0.1368586357413318
0.16697817800372328
0.039272970618055555
0.12953912373138135
0.19400283351931777
0.10927720207611935
0.028775623513579807
0.27956914507870056
0.15258022228083365
0.08815807456037908
0.09494309166994659
0.12285616722499478
0.10124557847335558
0.17056685420124162
0.18160488415653653
0.18772214042681723
0.08887824723381367
0.1397021339019734
0.15862914822151888
0.13123639483152333
0.14765481816693843
0.17015736987097693
0.07536486312701654
0.07118711085268156
0.07326536722009085
0.16317840829800048
0.18000602650628061
0.08448515214565276
0.17488380601467027
0.07746931982507863
0.09324802608917823
0.10311357798418039
0.088287379602197
0.07370571236844843
0.11508113538940719
0.22734865223610257
0.019056224508695038
0.13128316334860518
0.2674548565385514
0.08587059929545306
0.22182228460329848
0.09141193564118319
0.18857816877748307
0.1491059332339016
0.10086609750025322
0.0310762148708575
0.09445774796048716
0.05821203857403899
0.017057283202361707
0.04634661840943807
0.10221657756455667
0.012137302933702004
0.12536256849674768
0.04103483223965648
0.012292415664775094
0.015238170951746524
0.17133964671729823
0.03330401266909617
0.16895543988900893
0.19212238052031796
0.08515182798059667
0.12949449960664977
0.22983133391215413
0.1510892227386357
0.14229818720631268
0.0873787178323423
0.05642566657647604
0.16535077076553506
0.19343468040899411
0.05681535590362929
0.1969079953235557
0.015575895728381913
0.10044312894855109
0.23096410493330152
0.06425462342401839
0.09778596486785154
0.1487491451213341
0.27911713867242505
0.18816346306359075
0.1201958809459358
0.1191331060233347
0.06269305500948892
0.1579823072780556
0.08653507840404877
0.10036060160313598
0.22832002375514043
0.14525401013849845
0.17159168543236375
0.14400211903911816
0.17692785878264286
0.1600218528078616
0.1556694909916665
0.16691066833995713
0.18982692045478963
0.04513597422188481
0.016733793684868957
0.17405108619348786
0.14368994750595418
0.057392038297577344
0.1549181902246523
0.019892748933655828
0.06691890002864007
0.10339687561205069
0.010548165627794037
0.13374688378455632
0.12068339490414952
0.08683939695134527
0.13612258665388147
0.12935625898462938
0.22405493546800087
0.17293160521198583
0.1665835450232156
0.18058833919212253
0.1570182794613338
0.10412404427090123
0.10908904751031245
0.14954380523524816
0.21366046475384878
0.31561422836576825
0.19084311791907996
0.13994014633126223
0.1592322679898864
0.1340719233889674
0.44081460277793
0.12852078056247143
0.15400968121148656
0.1571425983177657
0.06933664151760616
0.07521461440053771
0.14299234807215191
0.15908602267588626
0.12667660102784942
0.1571076110001929
0.1625942460538846
0.03424536578807589
0.05725696231613733
0.2499164019814275
0.15694245148496624
0.14672363945050326
0.1861508407257382
0.09005502778595836
0.19538212814830896
0.10170792752803422
0.1810655942518898
0.16471337978080156
0.11558769554050215
0.08003335533890235
0.014219302802977393
0.09276458904202954
0.3033438990051475
0.1894674540124483
0.03826181333056102
0.03818087482945995
0.11109162884776867
0.04274531142973959
0.05464156777172805
0.12725806299990117
0.05231707239906103
0.06490387734327363
0.06490611599386953
0.05886809549053994
0.020418965937027744
0.2990736101346313
0.18975590109558244
0.14462472857083838
0.16415437801749855
0.2881485937098868
0.15999898822888142
0.13152744047473797
0.013123935983276547
0.32408908339528997
0.17464465210160726
0.26657507321188195
0.1491967727750817
0.08249227729793393
0.22417662651152015
0.14651220746126958
0.20257966205858324
0.18473686796843383
0.2132023213437085
0.04350395513229693
0.26172188123413875
0.030551934866438354
0.008572133199693398
0.06281641089641149
0.19171884925233396
0.08719652104744002
0.3076043982792496
0.06471091813225303
0.0539821148884732
0.07867718702665388
0.14591915821728157
0.12290963795709041
0.06664632164689509
0.056383985733206674
0.18618416855766792
0.044830055418071814
0.09731316392487707
0.06358667189652946
0.0537214684527719
0.11226473825381951
0.04774726757143877
0.0283175985724643
0.04878850899927737
0.029561977171364696
0.20390272849823457
0.09994524313433857
0.10318630099246945
0.08126330538608177
0.0683970006969885
0.10316452384337023
0.07499307847897639
0.06079283668092424
0.010497505946867276
0.041388040920061944
0.22947384832682982
0.22922497635637953
0.09682721146010134
0.07707809139517863
0.2342587838272707
0.14229405376757132
0.16072087794572643
0.35760832294324213
0.10013306875166478
0.2008096239624272
0.447521164050335
0.011563018608936507
0.19037796242344995
0.013382062680992263
0.3166229670000168
0.25529434489592095
0.09373876759647161
0.22320900776877617
0.21606154108835215
0.26804371709687624
0.21037362799086026
0.19256089403544022
0.09931054376085971
0.05555176873121015
0.040576288932392277
0.01326258455629463
0.2768449936129652
0.03473381755397179
0.21698002259142288
0.09630524768717763
0.12240913895709707
0.23751014183988686
0.1338102685745659
0.1513175526932273
0.06061936781829198
0.1549818335657627
0.03922557387646075
0.0637557253334834
0.09125877371026606
0.03196086243528743
0.15710594831343075
0.043667767064181885
0.08070782149267146
0.05036102536671919
0.03344824683252537
0.10186697608850709
0.03556330821166511
0.22522913705166436
0.07342912269081209
0.04311483333523339
0.15612985310867772
0.2473126654118684
0.045130197188528655
0.018873787170062686
0.1983405937348249
0.12296590517710228
0.28934103608129635
0.2411476973357767
0.046649275153402614
0.2169392902413307
0.004462291988270995
0.15321884057276927
0.1367970775874934
0.04160846142026661
0.09156820673474572
0.03739673231090956
0.09379777583348271
0.1900314437629394
0.23425881528391326
0.12423345177124018
0.016003176387897902
0.2125366580023582
0.13400096368665107
0.07270167268881336
0.1384938939601163
0.1825897173582889
0.09250338206363626
0.06285046063785558
0.08438013490747615
0.2799581929441184
0.11627452477124062
0.0700097025520775
0.06455678615664182
0.08201515063884014
0.08820026914923773
0.03508191328976723
0.06039933823660795
0.044559460551485165
0.08326497138895417
0.0507497153437255
0.14008163063382928
0.056374127841198475
0.04820770382430175
0.14748231910869372
0.024413773856495274
0.021922666693673223
0.02791182991147349
0.08662924803852613
0.060145364761200935
0.0929027313857636
0.10150464166823306
0.03437249505523307
0.052112195533580805
0.09344467347626333
0.05041292096249929
0.03485814452199018
0.04867321691247613
0.11279850249172217
0.03157853346272578
0.17395193976586804
0.07182834268602653
0.004480089010017237
0.10242961925435717
0.478883345719744
0.2388711105302656
0.3204572404251432
0.0020226379355533877
0.03768223787254138
0.06045077184107256
0.1972861436165371
0.21619342757610757
0.3241231970397991
0.16176442337108624
0.023260189943143557
0.20937397719289808
0.12426340879852395
0.12383665207996306
0.025939882936875755
0.10334053820026531
0.06826556158254717
0.30124983099691915
0.157172496564178
0.1641941430614156
0.08042451206587577
0.05901246858108559
0.002324859331441962
0.026566341126792244
0.019183845987987967
0.03289571228929187
0.023531147481623195
0.004395017636773169
0.15560201639934357
0.05008814642234435
0.08357367229310611
0.14538320682584355
0.05818809042406992
0.27659753670559684
0.34169959886084755
0.04055988983323088
0.030341317014320485
0.1668684118232362
0.03210770809561109
0.037837275987696886
0.20881608826683676
0.04065880267972097
0.024511244534649684
0.07133510351745856
0.04862018897708464
0.15356002764285026
0.051840269975142156
0.15089296998097174
0.1383596323973779
0.21637268168501855
0.01855548401072601
0.13384937041645448
0.15966901055030147
0.15452435327085895
0.34649896149797443
0.12281341226545857
0.1314649173239638
0.13572500826838932
0.1376701134525179
0.13543972723648337
0.13298452776611153
0.0952552594156553
0.21179340752948062
0.008822647386855904
0.10917166871091968
0.12039556057854178
0.16994627249895175
0.11237515433499272
0.17320582958010827
0.12248830749049008
0.04822586595850889
0.23971949698619413
0.3140305253682008
0.09153537919399624
0.05957758672328796
0.03981030791241358
0.022869053819967216
0.09356060065634368
0.027393187375988937
0.026860053663232564
0.0980925412204318
0.07109071281981913
0.09313561223108512
0.15380546727970246
0.08252063818324365
0.13068385085284318
0.019064155664673368
0.2301381646842729
0.028358357300645443
0.24599399241997824
0.054533973933964204
0.28336273892813607
0.03336160430006462
0.029801074776456184
0.10796014639115609
0.06800578082520725
0.05155067120422192
0.05197618330110034
0.03032738989758749
0.04369817418818364
0.16641155719636155
0.19237530800810762
0.052188982490376
0.3063970056423256
0.1457795819336098
0.18407879685174497
0.2981736014988864
0.02076666191731727
0.2553087814851389
0.06122318563996186
0.048886685228281934
0.5090008887886541
0.10600902839822328
0.36217153197870705
0.057677602187725115
0.13470451610156275
0.40064975460928753
0.17931388442802185
0.33787894318274314
0.04943383102242023
0.04527427778144836
0.07307239917069797
0.36434184015461174
0.056045805533843696
0.028227061255843434
0.05585755160342899
0.041859348502392424
0.17565913949831138
0.11264439962389519
0.01853579629137236
0.05871753507413858
0.3022460662334187
0.17398270124216364
0.11075809915507158
0.01987511894958936
0.052553354680924626
0.06563052120489382
0.03100477989657473
0.1525518071585223
0.029456415215378003
0.02139035997868495
0.06150279602153349
0.02185337272567133
0.03771812815811206
0.21007381972970302
0.3604552692621208
0.04773565166226327
0.011749961167723692
0.044007560991138346
0.024870399962033933
0.01632459852096429
0.037605249989604614
0.1265834842014762
0.052037346073738736
0.133960353375672
0.024606899804326426
0.03253347907871888
0.3281540538950475
0.020034640070345534
0.08150539162413838
0.12243146712945052
0.27847719070023247
0.2012152962431731
0.06016565009090258
0.06525350841395372
0.18994799729006556
0.2660287003879503
0.0366783832149543
0.11271184892329122
0.19584158049694123
0.04870047068090139
0.14360015110569077
0.014723280255630817
0.10961509541793758
0.1388607350474461
0.049194775564064916
0.05147626780455032
0.12028909176599102
0.22782744789530418
0.045402742442977796
0.02473655687914067
0.04193672281067363
0.03362124631998454
0.07985257471588648
0.04743929387230763
0.022993374515129877
0.12703321044531296
0.033957196934492465
0.10003511691242492
0.035698621054316704
0.3095427051207413
0.15854239064284492
0.07333052379628578
0.018449065012408297
0.08523077957405525
0.011007265909692716
0.08029440638098846
0.2698209234031381
0.30258501248919584
0.032593161667911937
0.025466890974663807
0.03808501023942979
0.31120880737798984
0.02388637106785802
0.09276902791817526
0.22605130077028357
0.19001031029415513
0.07886612632509349
0.06720613910153615
0.21572345183172226
0.0878539159484133
0.17121178592799577
0.1754478180476783
0.04269496578462492
0.16559235083010973
0.41044262617926786
0.25856795749173983
0.06018748066378995
0.45076722340421266
0.3059722046569653
0.1929511012112518
0.09095989522944523
0.38248015500544336
0.1688487619852883
0.04758292337303812
0.09588021104542246
0.14913925123487415
0.05817189342864772
0.07275117346650052
0.12939805009549565
0.19270939202522133
0.33405661988654634
0.3137266081155342
0.08519664040143707
0.06629082752656827
0.17910294281275604
0.07875760439258646
0.06257224763814742
0.19325363464120238
0.06884350169612823
0.04412805301641252
0.12537397562329827
0.2502913820729857
0.3114091232860782
0.10293442709349762
0.2835188780755865
0.21041456132187517
0.04135565369580672
0.213029650997364
0.10105961377046006
0.11960398863564507
0.17444585276874258
0.026859212702503587
0.045042912303328346
0.13381160938371353
0.22723547125979676
0.3548220533580285
0.14927908585077088
0.09123771939692595
0.07016868141003457
0.06321227693035214
0.36214962130551714
0.17545684614166596
0.3195179374957037
0.24300080057751966
0.18891666573937085
0.06171892489499125
0.08687355154334549
0.032726899580674415
0.13594539119440052
0.12511957603297608
0.1484215950139965
0.08425823407868406
0.44905287241820285
0.06489293232263357
0.17617387794225167
0.2822375967580309
0.06165117997714702
0.03106228128391087
0.44668445187627953
0.2660081164023033
0.12081055283044122
0.027354618117849883
0.06633599414864912
0.47435770661030807
0.06093454129236828
0.30508619412989774
0.19889550252462912
0.21771209306295233
0.35310078663614325
0.051272601101586636
0.21418604497276642
0.24239265310067282
0.125377387529334
0.22055074364035013
0.03850317083106205
0.12337643290615234
0.048281017957930564
0.1383443697727412
0.10568187977678291
0.16088439983686947
0.02860467909868884
0.06904635192834017
0.15688485860803256
0.08079971716750767
0.06716350233355882
0.08255733981806034
0.0419620367669467
0.20512886254040735
0.051733236614088365
0.06451521682219416
0.040599511332562885
0.1281579615093714
0.029015518910816718
0.3901732424756014
0.023845613955992096
0.1971307797017948
0.13035128994651837
0.05131662585156381
0.0985231311159108
0.11870517861687448
0.03926268870824222
0.12439080075214409
0.09951264763220455
0.09724985006512707
0.2077678621591598
0.06697626066714252
0.2460453478454431
0.21368268110531805
0.05202801780535821
0.38235489655601296
0.44521394161719907
0.049186888356683466
0.37028436013076826
0.048807588835301896
0.21825679698317155
0.15171132145016633
0.10193678524366376
0.2632249298606378
0.4370452867225041
0.2728452124762801
0.1366304087482055
0.45802828608015284
0.13225157673284482
0.34109090328685615
0.20171242741492806
0.4527727334369379
0.07502097748412706
0.2176769576636035
0.05330173695238566
0.16946084664161604
0.030928288987956777
0.059836967163383104
0.0963540162663519
0.09306868471240883
0.0933276823882672
0.10010581713595111
0.09185833928924193
0.11370402974875889
0.06515981806325545
0.08324759308663734
0.09335129954790909
0.05442735111326964
0.1824301309946088
0.07824197722246516
0.07461638883535168
0.16892708586230545
0.16432070601888069
0.07616141381194223
0.16308318047492323
0.21308532858726212
0.12713283814298093
0.004643683931033701
0.2842227227384206
0.07078138039551639
0.006337355968761681
0.005507256831246515
0.0993338568994119
0.12052064063137988
0.20581939833563062
0.15890103203534056
0.1333202018014845
0.3570340109121993
0.09332972713590934
0.18308539429993534
0.4480551098270164
0.1684078281134477
0.10550163246974618
0.12778954240987314
0.12663353873422908
0.06905908633661358
0.10376826086621294
0.04321101916868177
0.08907906062000777
0.04979850314407988
0.03540718545889674
0.05317779002385303
0.05048365314556163
0.08774379460969241
0.062174849332936925
0.360918481120636
0.05068196501560915
0.2043466566220335
0.04064231795708812
0.14358754006878827
0.037262926443921845
0.07682076936393462
0.030550108570952573
0.12057500228454526
0.34010351431195335
0.07374897849852802
0.2577596637612283
0.15208772935246442
0.044529321341305876
0.10530614017969465
0.024894129699575936
0.0068786085659200205
0.020995928602297154
0.15321171232683034
0.1376865907010178
0.1147277934069995
0.6213707745318099
0.17922004914861156
0.36905268786492573
0.45697771662533926
0.22133982530563986
0.29928913659714657
0.17987671964249868
0.32878183664485516
0.6352886119847234
0.22909015148892647
0.35498797927075904
0.3590061634723346
0.17954870777363532
0.20307204052142563
0.06903825391001246
0.195137718297527
0.03650551661287654
0.16266702916443584
0.11515005634815628
0.07213019034633976
0.06608380253264162
0.19259236549428368
0.17032853159314065
0.04634073756549935
0.02241619513364644
0.08277856423989473
0.02887453119463731
0.1817618358802061
0.14161529553136262
0.13840016364526
0.17275046914360057
0.15435519160089914
0.15433833872347644
0.07647682340894618
0.21138128218464217
0.16855468721891434
0.20560673452039652
0.04711797074547101
0.13388230347227587
0.12260346749012704
0.10261099977645473
0.04301089559763323
0.11332596284129542
0.05440217329980187
0.09946318596773436
0.1517606194616518
0.513995592968681
0.03137866371918665
0.04354302933173692
0.24787014042190514
0.1858409662486372
0.24917844398857503
0.11376818029017285
0.19914339488561272
0.35974520676960825
0.17173391917220718
0.5873197191888331
0.03006935136297996
0.3682542634042245
0.2373236558220028
0.26878740367689086
0.08990914732320326
0.1381881425663367
0.26363601904839934
0.21163226714424402
0.1436677612238053
0.33431940133480037
0.05970681846238734
0.29187525417669374
0.07859938448271811
0.08109479943117287
0.2509255916244509
0.2566270690989481
0.2701139812696911
0.1440768737308909
0.3804849087398955
0.23196931198597331
0.06282545872594797
0.43790414472867845
0.10640522972096167
0.36287318407465385
0.05536954716148781
0.06722322601271874
0.07679680981280267
0.030414134806029912
0.04678453740339809
0.1562595329906798
0.1599955474683566
0.0894553629809234
0.23848545348909903
0.2267120460654269
0.48172952106314115
0.3688384709046017
0.11558813862530018
0.04597941346727968
0.186514886214807
0.2498701447381914
0.13312728778723937
0.334882837588424
0.1724108836445426
0.08080176802345687
0.15765958707483077
0.08878244830276959
0.10336393395103939
0.10959820861988073
0.026118149098717316
0.6446448528303347
0.6283790114029317
0.2276525467957572
0.580434260472052
0.10395412540193587
0.15566240731704042
0.09587418938725092
0.11895671491465783
0.20982875748562704
0.11931582158766402
0.022139201692353026
0.09630755072921052
0.19622832873309123
0.025699664595365525
0.15730065303801824
0.11661075797284948
0.37419672553747974
0.25433429284273945
0.3974310280874665
0.18914459287445975
0.17049724491468318
0.05635245363276199
0.21070411283990687
0.07452722986764579
0.3796487769981473
0.045455737069942784
0.2822395213624217
0.2398963205290872
0.4843802418835485
0.44944866478306694
0.14282086044593656
0.05313829030813852
0.10197452157903651
0.018320327563586456
0.022738028796464246
0.11989617166686567
0.1276532133521778
0.17381453703695038
0.3818076102833043
0.5188256172183784
0.009870594034763532
0.10986960901319509
0.038214069633539655
0.03299556147720497
0.23641280731890885
0.038389200894946525
0.13109923204204818
0.5625938383065276
0.05632696972586444
0.06954805948013737
0.7466815064363321
0.1372557309348348
0.2152415341168925
0.23972120371536396
0.43762759513308513
0.10468855180332971
0.30550333432202886
0.46972341275662916
0.1822682232160933
0.6891265405224313
0.11669460131086477
0.33368497758167076
0.34547669614091403
0.057831209622400286
0.21311677954672048
0.04963966813662857
0.005654851100761484
0.13297082250643014
0.14743050138032407
0.10740991025823723
0.049975966653130324
0.4129146465549144
0.029852387884462563
0.3535223753799134
0.2944088640162107
0.47777842993328284
0.3637926769677407
0.1134386699494416
0.047734317087268406
0.04226872229829656
0.14750900957735494
0.3574822949023604
0.27495851243074515
0.5662004228750456
0.06010107844405567
0.09699198912959657
0.516782843147586
0.3455939700400882
0.19239370485590712
0.3516600248383712
0.13182915335932385
0.11128557267747513
0.2422787139201172
0.14276790150729216
0.16635875086982113
0.052724750273839535
0.12513746360243883
0.5262515997979705
0.48745321091486776
0.3332662443300346
0.06323420934137353
0.033729122019920336
0.24553843924821292
0.10104354784414672
0.302134473455085
0.20445532680295195
0.15734514066970626
0.26123489328188715
0.4871716967111237
0.03131259551269051
0.15566405806853184
0.2915453273197317
0.09143920906050299
0.17611008638549572
0.6557098600989341
0.14470838598517438
0.11911049181573626
0.17410809878316247
0.007361850012063254
0.13531236697255566
0.15791399109560533
0.07955253298577177
0.12851862591067162
0.11412566745065324
0.06848029275969292
0.16676856809761056
0.0836956277096498
0.1464148929924212
0.0960942766925913
0.1341816633245564
0.053628873763695344
0.030692777640324197
0.19894008729833276
0.14497149115946398
0.22815122303309432
0.08306753852516735
0.10544514235800498
0.08817186162650452
0.10636728486013684
0.051760763239060946
0.025664663830185355
0.1321832104707657
0.02554427421818914
0.4099400224433685
0.22540116605634064
0.062313215254704825
0.12800902135712813
0.48456931367781964
0.26721406337131276
0.1928547789301289
0.06714149321639928
0.08535320527117372
0.12071791626226258
0.1876771542968633
0.11311820740327681
0.3221793983213699
0.10230980708357734
0.15459824236225078
0.04048313234404605
0.29410643505711215
0.19201863989361398
0.059917585485200604
0.3027165073438713
0.11539976257456387
0.12016308228827619
0.08877359659288407
0.12157063811052542
0.12206904954348363
0.3712666082418594
0.13282476987059447
0.08422944000107799
0.07207723944449457
0.00623782127749197
0.07220798696523721
0.006701575230335094
0.024139691111109335
0.05975524167276754
0.13544920637872782
0.08712704562366079
0.20643243450560642
0.18497639240020788
0.09146090577407975
0.14455747338396763
0.08674008827740655
0.10576574911660255
0.1202795965418436
0.07791637456837201
0.06736151329495726
0.22126410882462416
0.1541164101783493
0.2645572877344791
0.08777401468998018
0.09990579676618795
0.21600050611277535
0.05961308718913481
0.0715240420018101
0.15456406026603758
0.20995214721927336
0.20657921997929982
0.06299251870112485
0.15584063657323188
0.26006483482447407
0.09671251662637291
0.14120790599359972
0.21873007503876352
0.07278236099685625
0.1116263572898378
0.06196356574363282
0.1545355530980881
0.08866757169635363
0.1921849490025963
0.058007366022289154
0.13562995270436343
0.04152039313494768
0.07291001987229855
0.10170412464473001
0.552851766438972
0.4565904443506993
0.05790034701378589
0.048588360839154326
0.04905269028512409
0.10199477187280544
0.07385754002639232
0.07005713460398395
0.10866041968671564
0.03963252451388453
0.02583476023595598
0.05386198341557556
0.073099284894394
0.19015390958250353
0.19868403960268963
0.125711024112783
0.13999308585156045
0.1099071863977015
0.17443104847054638
0.15469952757132757
0.11783220208346395
0.1378534733973663
0.11540395195735388
0.2607245679385274
0.18744943862373556
0.14961997074722938
0.025204607572376334
0.1925832355743089
0.12141850883898653
0.2690089686415469
0.19962383259022357
0.14068505775702733
0.07264709359775683
0.21992830035435712
0.028473932788059028
0.10947829634578408
0.23183026934040404
0.12778835093733193
0.12899866515549707
0.08108952776659883
0.06319524670844388
0.2901516122763366
0.07290996252868176
0.2983852724638279
0.12298017880436425
0.12082696222600692
0.0893379001630898
0.028450910439166803
0.2076758461708618
0.09294010696006634
0.012181114414089114
0.13609421800273913
0.3533249320856634
0.2741044926144583
0.2075149399136708
0.17244632542008118
0.09231844231574228
0.11800463552506452
0.25887437542438385
0.13641499345619718
0.1272093312082177
0.1065690428297825
0.03902352403204961
0.003085450422042122
0.15505356371182327
0.21604891558188194
0.2325223623720441
0.24979751725863858
0.19962824786393757
0.14304310054394379
0.14586919838218795
0.18892350336430316
0.026281835317320597
0.036319799263541376
0.14433115251820547
0.09362016590630919
0.02069851890266998
0.02785031712985638
0.032584450461079426
0.15750473446033364
0.11576471788535511
0.0362138528929521
0.19449470705916186
0.2436137583372158
0.08608286046435805
0.17948066331525397
0.1023862797498421
0.35010095891486437
0.26469126938439963
0.2429155678234331
0.47650626775849636
0.08216869772321789
0.27061241763233596
0.0840692184220929
0.19507551763859038
0.13049943365465913
0.30589226344576315
0.2132747956716904
0.21345714406822763
0.2544550036754679
0.15490815976317457
0.10125557028992821
0.12829061518651994
0.17491404386286705
0.24440100918222596
0.10896674659925755
0.2688953268388393
0.17262112004616761
0.1109964242168526
0.10621582164929856
0.2302151648348734
0.13258261719420772
0.16780199251838407
0.1041706598811363
0.14034477825637118
0.1146411742168716
0.13223589165381422
0.26050760531598643
0.13433577518107942
0.05553183785878198
0.16912204869822584
0.14750426117412235
0.11761331702486746
0.19798603052558753
0.10992830976477669
0.09226362308554124
0.15811511399548986
0.02611414157662487
0.14076918667994667
0.18665905963556248
0.1587101188842582
0.11867833620535412
0.346580063752069
0.004912015435906496
0.14134108147318242
0.29064301565740897
0.3067227736426459
0.3173895365885936
0.13795681566375678
0.04005423510533309
0.11285370762314044
0.12417273329458602
0.11615884804505618
0.017487865998281144
0.11032612785901444
0.045313269422754314
0.16012063015512068
0.31193082365103686
0.07482332971587376
0.13922971576710041
0.05669949736485772
0.12079625466309887
0.13434853158446958
0.05995388980957371
0.25270934652836613
0.045756012763975444
0.05268188948842081
0.06522988250350564
0.075867415980003
0.07343725564375711
0.00564972351366887
0.06872341753766673
0.050564104929277064
0.04843359860080103
0.08009442933425724
0.0446763740060804
0.1571490023590277
0.06651791489695412
0.006901634497811345
0.12852984979620022
0.23757710493588033
0.035533258420771596
0.04159600027948444
0.16415183536510644
0.05420396972124896
0.2032350964034724
0.11313914948024895
0.3171436400017225
0.051165932337061446
0.05732639886069423
0.33028293962354877
0.2639084537830355
0.31379811500395327
0.07337058419138578
0.09337274625830043
0.28424464723687815
0.09823476890957043
0.04442637937279585
0.12443754020797339
0.2529877947373768
0.22381973706451255
0.22047359786203607
0.2750081363004374
0.33185387155312474
0.23496443470257616
0.2436532317660351
0.2071031056252823
0.08884012976633854
0.14869647233235206
0.14785966659202565
0.0711296873213528
0.061508004537947275
0.01756946194987542
0.05373611477485513
0.2361358322480456
0.10091133664924051
0.1808254057745537
0.16073925555052673
0.13729903580237815
0.13296281628675086
0.10171640350278643
0.09786698363385034
0.2572113524135026
0.02029359244695069
0.14457299509654173
0.11282374820346597
0.09552405558100494
0.13203598715362241
0.07676528925316956
0.1481724369931314
0.1273531490016595
0.13977210058649855
0.24393179123128397
0.28192797613447207
0.1830511504360581
0.14515417674667075
0.009700626399496811
0.13991683086681317
0.049753535104831256
0.17990994348103687
0.02437458373579665
0.2916898552504167
0.24076456438842359
0.21051870200822284
0.02542504393643284
0.20319431713131783
0.2146868530703636
0.07613565707718062
0.19784833310010527
0.09226914357547146
0.28066584527906413
0.28016244050368666
0.03649440077574548
0.08993343546151608
0.049685696072054225
0.3655416117718933
0.10730775511887253
0.08801143662971184
0.07610301948720104
0.3189458306229713
0.35039101460942046
0.03661489427650429
0.10400531786205303
0.2751227124810353
0.19320612781776297
0.24895865794379932
0.09661714340786033
0.13111747883081273
0.048896618837775296
0.0874856862232887
0.11751565080110432
0.1133848500568564
0.02992585484999953
0.15819909406738597
0.16742522623705097
0.41152157677744816
0.20975673670295608
0.09442607576346053
0.0185236633502847
0.03669727657872139
0.2491289352505582
0.1149049037313672
0.07240662743152301
0.07828725356928504
0.07608310412980458
0.19869019720535797
0.1267174262259122
0.008151345372348032
0.06305545917834224
0.3310223527568301
0.023358507825619927
0.08215102515243407
0.21744065753821276
0.008262647116644917
0.04527216746080292
0.026286075241547316
0.13985872719115952
0.032040208506298275
0.09436725702422641
0.0391164819472638
0.0636293094899839
0.04656499510533593
0.007446011366092567
0.10404757618902435
0.025945555005025028
0.06794407951452934
0.044471862002166025
0.09894273801458091
0.1747518707239238
0.1788453829509139
0.019567279895383587
0.06830247576585058
0.0488775240396094
0.024328955430442573
0.1706017182841061
0.21719433386472442
0.017613783745497807
0.3499140374142748
0.20628680744926503
0.13259495342550864
0.25914796397563467
0.1494047845625827
0.04409502254726146
0.1896279092476432
0.2005160827655112
0.19655867276671607
0.0997064697886072
0.008330943772098372
0.012009424434765957
0.023245027077504858
0.08329948215512428
0.01813344189701837
0.11359176389100303
0.051227553847403406
0.2558263424035788
0.09321004766217346
0.03212507519158173
0.040781387939692035
0.013152122857710388
0.07500861682225689
0.3232617433332615
0.08493952695725016
0.31407911471878813
0.0973834374236323
0.198876887144163
0.09792200956125384
0.2363146331216872
0.11584061668813748
0.05726442726947569
0.10330950646014453
0.1958556372619717
0.29457839632260785
0.025059848530348507
0.020196409901175803
0.3687755193993421
0.006278635925880615
0.1723379518936321
0.3182902882126436
0.23985282100952904
0.02283342551937916
0.317745859373707
0.06514242021225336
0.3292946217230428
0.003070670166842377
0.2845980481380669
0.1701913431587387
0.15460427856529707
0.19070296052730745
0.11133336130706611
0.34170364241924484
0.07817213203702167
0.1138451868970613
0.048753391042828796
0.09928453099833998
0.0900453355740224
0.03677438350788747
0.2174664116425922
0.04429591431608851
0.18280037630329957
0.19152322065824637
0.2862165094134803
0.13496550874512694
0.06825297968865432
0.041861888778290945
0.04058582897008405
0.05485011093688494
0.07796220799845485
0.05917622679078593
0.07690794818024589
0.04527361192756277
0.05221528268443918
0.0742396744253284
0.088183958031608
0.1968671134731231
0.07503505421765469
0.13221447077622153
0.21628412177118328
0.2112872012849664
0.17195848125892943
0.12948628727182263
0.09813383764323505
0.1333017452923838
0.09375250758180038
0.06395080997885028
0.12547501076305412
0.1491773369108512
0.12195964976720156
0.12131196501113188
0.036882565227061556
0.06289243771042274
0.16876105426296975
0.10526821045858012
0.057745565160541086
0.1897109066013729
0.07233411726625592
0.16602645174252423
0.15619130980269388
0.05242523971010409
0.036072877471678415
0.11084585277379505
0.11068991022974084
0.11584608159358648
0.09752779712270696
0.22718041051804727
0.1433174205957191
0.1346939437874833
0.05517205521396238
0.21090323210291376
0.06189273491922769
0.07919988014896602
0.09004048424869698
0.20862050625806922
0.2159051923545213
0.276895672050265
0.009064857377398372
0.2076661997609672
0.26935842327777726
0.18717153188281957
0.1783636577120327
0.05398525642226445
0.039101640633883356
0.04959277671367039
0.04392963211924858
0.018686521050116162
0.044605246129903305
0.07118503458149256
0.020701440382949157
0.0607402443067187
0.3368947242619967
0.029939409962160782
0.12726285971024368
0.11470744564512066
0.21602170415330899
0.0833408672106202
0.06640712390151403
0.12223854687993602
0.07455288430312354
0.10962576454757
0.091143576544313
0.11070744127212898
0.06220717591291123
0.46570513843597167
0.1015716476966914
0.11317907064627376
0.0893487445304575
0.09339097284362359
0.1033168668023725
0.05929168330924878
0.09752072978354154
0.1016983893562185
0.07291582084663367
0.2841116230091674
0.3464353871823189
0.4843577825870557
0.27781275582414616
0.06287269768221046
0.07071760711702439
0.07225655126167391
0.06868878510329451
0.051480076004805086
0.02986125612794294
0.22965349563403423
0.21158559839366592
0.10012033064699144
0.10027991693946745
0.09215763311498594
0.02173468436017401
0.276741698425649
0.21150328663463866
0.17660974706338958
0.14570994600637158
0.1817922025863628
0.18817506685812158
0.16024756696138034
0.19861358627930595
0.3209596951307866
0.10488010191087274
0.3309855369350265
0.06211546514129339
0.05414912588720993
0.04490814082125669
0.047470314775843805
0.3127150093651455
0.01764292205966755
0.24103686078548314
0.11290561471177965
0.069315587903287
0.11780419321860795
0.06269390963050707
0.07581155287593717
0.06991173538330878
0.0663144363157386
0.11051910109901533
0.09196552901541107
0.20719223341154439
0.07196351065426185
0.19341206624501017
0.15972835464793012
0.19924643982946144
0.09002104623854494
0.08300833500338728
0.06870211104314317
0.19670625956236643
0.34892339595522887
0.04980781320208943
0.04929220227590039
0.13360068627121116
0.0747710008995352
0.16132579052568763
0.1495648746761286
0.12295090043234023
0.13984256734835082
0.33393261369698635
0.06876037343700338
0.06209089591751425
0.14411173814712325
0.0564880218975025
0.1284144282558335
0.13698940116098726
0.14371454762885894
0.1652514002104832
0.077210145971637
0.09144516966779596
0.09329100360194471
0.13183762669273905
0.08420662291026931
0.15788830925619463
0.060816194063053934
0.06461799490362342
0.05616114065218118
0.18239686856738507
0.0616634932756531
0.12931503581034517
0.13052327176523756
0.1876396814099021
0.1525709208311324
0.09440215835402165
0.27307450684029555
0.32991497871371106
0.19886129054641222
0.18459679447230798
0.06322954878147685
0.04041485826632696
0.1097685361922108
0.09164989850921128
0.15509764129966366
0.21627586012736924
0.2148892278854713
0.2567532587814784
0.2330998627414849
0.18806544476428674
0.16984287915557286
0.16602618585079257
0.18093426443393118
0.1780191841106623
0.2092170973287325
0.0775007933995111
0.05671238544551047
0.022238816395924635
0.1730727386304297
0.18612003083282508
0.1795484972618222
0.032546101357173556
0.03757398341519065
0.02263665115352364
0.07937307492582159
0.07625987221030418
0.2469198552103177
0.023347757278415596
0.02125887999493873
0.060135965843349175
0.026939258206325516
0.1309761742378789
0.10139373105122443
0.46685567126406596
0.1366118936627675
0.41913632257953815
0.03923983318212257
0.44619757035247215
0.48158522272413107
0.030415660101909155
0.20635943940483506
0.129228473532316
0.4970902180881252
0.3440141257595142
0.32708175784797516
0.25054377187819415
0.06673915591969068
0.06926552266326262
0.13500967258163615
0.20505655308767184
0.2849276515985811
0.2431361208749946
0.2114689395822588
0.12498604221380809
0.09611470412739491
0.21690612474217277
0.21318365874288786
0.06630868819237946
0.061386888304863385
0.07014686342151727
0.08967785990547723
0.18520306045436088
0.24156459846426673
0.31857109888072066
0.09125153376957765
0.06318541735615668
0.08526663131210202
0.007224490495309445
0.010247198849216637
0.11735757100869888
0.07092117300186365
0.08407016028237106
0.022382045706452323
0.037290866897113646
0.03330748704040689
0.37932516101030145
0.02179657016102042
0.0796347570951477
0.06368184548666254
0.07767761155446128
0.07082179335978632
0.1782835504353147
0.022985840167118587
0.03105693955652271
0.02695787027196073
0.14933509904364653
0.04674775609930809
0.0889015453087197
0.11269267094479968
0.08241168357651618
0.201517997125901
0.06594115815469467
0.02929167649394426
0.01727861423621064
0.08359623263647442
0.24196264286626748
0.30769004619573503
0.0786380276806642
0.04432283695609719
0.025281092057655285
0.05004744889383847
0.09187883538372252
0.34095910450876393
0.21146809101097347
0.3724765017597906
0.3694617660462447
0.23789253408208627
0.28588654799590657
0.13849222408425774
0.2986392761586114
0.19811658823886652
0.19167113761883053
0.35451266508106954
0.19267004004873298
0.36264746680347965
0.07870938315359072
0.29645046866874886
0.09993900233548449
0.14720043012050285
0.0740833956657715
0.11510941696371317
0.11961640130967564
0.11396174287961681
0.09931233734224063
0.14339285074712796
0.39744485595605605
0.015272477539242452
0.3447932363507925
0.24161208081774094
0.13913562138932037
0.044821636291554195
0.13948002642873777
0.07268221742437267
0.35177852693160333
0.1741904592376635
0.10074264612704213
0.11125539394079854
0.10926028032000895
0.4356609415746024
0.11809208905407154
0.42332128136415303
0.1370588957017643
0.42761851563122344
0.434697852575118
0.2808189547259183
0.26654054073338596
0.040458237175155204
0.2634597506534921
0.2657877926916672
0.13818497895138215
0.18762286979881235
0.16983603546054094
0.06384506652299612
0.04691850440696271
0.06735932156930657
0.06887373917342665
0.18178045704516485
0.08572991454319266
0.15801730171974804
0.05170415507694556
0.07158567700017611
0.06716258862533397
0.10557529931551772
0.1453465970016052
0.12883580359093316
0.11013302513012516
0.20646996522499564
0.07080772059468209
0.0393279378841278
0.023558463013800893
0.016151399247328634
0.04535062876649655
0.04698230592756588
0.18345783917509673
0.15741613216693406
0.16954263879749748
0.17372590002703997
0.34151893131042316
0.04514937445207558
0.5356640761841588
0.03558874728464505
0.016308949254205948
0.25935296436378447
0.3674212756929223
0.31085627769192553
0.12037049813445032
0.4825048359708792
0.42117391122843595
0.03296708076861604
0.49562819187443824
0.37511749144992096
0.404652373027199
0.4120378552939679
0.2654449784342187
0.16948242266670943
0.37911275847927595
0.33924496727924885
0.4005630520555546
0.027089893985648227
0.29759987731079734
0.026468765269884446
0.12878129279637654
0.17464708026869227
0.1148430997767568
0.1671812499251768
0.3355315299827269
0.12074912753504591
0.32273157526526397
0.33994120930518423
0.11463788309354161
0.16015600969361268
0.1322792181163642
0.1271680631580541
0.18561613697170035
0.40179319084442855
0.200843005068094
0.051525230262434815
0.25163096235250815
0.1234938562207969
0.17221665583942702
0.05333571878073027
0.22597250307188263
0.2312905994468949
0.04337908568139648
0.02942351518451614
0.1336334006289976
0.06221605058515792
0.17652872683964813
0.17704541167214005
0.177477122632349
0.15466097244183027
0.14532167518353992
0.10913402299622663
0.03644803141288808
0.1811104541406428
0.2532585759177074
0.17999597153973831
0.3919650396777695
0.14817051843831758
0.07387289036591975
0.2261786985220606
0.2443236997727371
0.1886112504810289
0.19385670837918395
0.05162744402382172
0.23027709078093478
0.44117474877552115
0.0819873659582481
0.09845604087826136
0.09330581676440125
0.22638512398096503
0.18724141031398195
0.161287693251753
0.34516850963262385
0.32361621060358536
0.19436134692715976
0.2283905371180624
0.19402543278365994
0.13222935369634523
0.19921392761873835
0.1748498208428032
0.04929415115762163
0.09112816586260396
0.08944436884256142
0.05538451761889827
0.12687709173798395
0.09986491501028535
0.1620778716670506
0.04830152514813835
0.13492519148305968
0.12089979776881754
0.16001020931060747
0.11949216700412478
0.14576792503368094
0.04924506862217809
0.062028254670445225
0.08597390546987528
0.1996395517649297
0.35424978010670083
0.4701946477130268
0.18257412334656156
0.3399443375116129
0.28646845646402824
0.284269371272826
0.17921359732485045
0.25474643231376265
0.1135731703455754
0.02315542178785986
0.055432097201313604
0.213258010368303
0.5076066193697553
0.07123273140470972
0.18014429347254182
0.07086231608610204
0.08482191262464475
0.04454973595070103
0.10401287194098414
0.09466609899530833
0.018051038220115705
0.028592002375746373
0.041487086164801394
0.10704950737519534
0.017199511650594818
0.03460695728383575
0.009912937347298353
0.09393734701781
0.5000268826689713
0.2907251225945889
0.24026972652367926
0.08961507184826446
0.016432526251102638
0.18644069106746192
0.037836960394838255
0.1993553209246453
0.17082407475854383
0.17685669157194583
0.16191094651412333
0.2715942820155823
0.21231215127835748
0.18082970133939594
0.2854416582358794
0.21118804767611454
0.3302291099948118
0.03187722563643107
0.21525372293386322
0.11793380425248737
0.06502187651384457
0.06445076008558558
0.06354911012182292
0.099027186159708
0.1724120832125001
0.199632290389456
0.192114282391003
0.12913515171572093
0.2602442262510794
0.23946594729842097
0.27379345328986937
0.37356547134344853
0.11846015244099704
0.1544911446986734
0.45736302107494503
0.2950005462435545
0.11664445661856482
0.3552331935394181
0.0697181461745896
0.23554528538621536
0.15829098076064516
0.09048293144671166
0.12271727442223136
0.17787985062372086
0.15335972493430758
0.24261943136822553
0.08004106461399338
0.25250567055992007
0.11932929311126425
0.0477580482420328
0.1135468642438169
0.5370447571024088
0.14652536792859933
0.25370511100177623
0.2386315198381281
0.18138440580945892
0.0916680049185786
0.19616333024989036
0.07887263824425918
0.04648957791690924
0.20394962101836547
0.034574167097550006
0.04158154281936219
0.2108885758827481
0.07222916152984575
0.047621210509537
0.22379056493362068
0.06142537716494983
0.3544660385110745
0.10043483008422244
0.048351049097161806
0.20998543827757485
0.04146589619160207
0.272016755177625
0.024086474855143286
0.16462215288180357
0.0823687950934249
0.12163439691437206
0.08998421952591557
0.1110037211460518
0.2420155582636745
0.1523577735794316
0.23274199979698101
0.1348580288382016
0.292451684140522
0.08119425604440333
0.013709521566470078
0.21626418858735721
0.4883848510007331
0.1391981252603507
0.12679280323528697
0.03287934949072293
0.08724945525802871
0.07145448292907956
0.23902430009399991
0.018285751455764866
0.11941116623655028
0.12597130475881868
0.09373503955919618
0.07988309263390517
0.1329243840140375
0.1314077239821473
0.08791457241827834
0.19704462810207626
0.04338862620698204
0.2053365335062889
0.15577745872946458
0.2110314929152461
0.10291862979163402
0.14037731643761664
0.32281950574349605
0.016734481959257426
0.06635341745305923
0.3053927280512052
0.1727200483998044
0.03448298360934196
0.12681138342671258
0.2762711882483182
0.3090321673496219
0.27764848036257855
0.33529180219251364
0.1468980775577177
0.06886003076831032
0.2726315531314313
0.05062792302365287
0.1271013182391735
0.08351546704935324
0.21005073819236084
0.1156069169679127
0.37267398126296764
0.06662592399242903
0.16796526134112263
0.1361876352959334
0.14450351763923808
0.14434899095079426
0.12914751682015482
0.10925626966347309
0.16828175626156577
0.07386983175153292
0.135945414713942
0.16923515741992007
0.154937882212405
0.10710265960940002
0.19288078292800123
0.14187408459197878
0.32509875816556943
0.1846350759913322
0.3384504588966323
0.31748643059611686
0.2776589704800914
0.12076515004095911
0.1288465651051097
0.1250608724201157
0.11839811461199662
0.40893259501799256
0.30382203593711804
0.191158114048987
0.4200579601815713
0.16590647689428722
0.34277089643798514
0.23874864945699056
0.11333769823286415
0.21322718356995624
0.05332249319250096
0.06990273831577445
0.19831927883617126
0.06309531958607363
0.09300068051026518
0.09619991880748945
0.05781614678625061
0.3063401012233264
0.26190322141839684
0.1524709333937316
0.12362895538387936
0.14071376458379123
0.014645770351340674
0.027400662509974687
0.011006331209644823
0.01885933772059342
0.03904431563894999
0.024265971548290098
0.02440701751753721
0.09481811404752188
0.06706303591375684
0.09644663744279054
0.038760358860361624
0.048965532385850025
0.07870346727751648
0.16998797802690807
0.16597129960244608
0.05009361838728063
0.08353025579882703
0.22154142959384762
0.4785201790762554
0.42512305369697223
0.039337730109354804
0.045351789207943395
0.058118601077241844
0.25680270314137943
0.02827991952983544
0.017838812778389113
0.018924047167554036
0.15986508112118755
0.019427155991796778
0.04135129411657786
0.08871234696834247
0.13908846231607225
0.09514095811015727
0.07187722590897389
0.17247519818504103
0.05376062021314438
0.11842137086677029
0.2962949135509906
0.31870505346028494
0.1809950404410791
0.23332437517523746
0.24758711832864663
0.14875055241824112
0.20623074739166625
0.3208205813391471
0.36132947205639354
0.27404905827935255
0.07018319861100561
0.010724854473188678
0.2336525375893148
0.053768719662225406
0.19919712680708807
0.004765583563213091
0.2518417854104306
0.2558803652236741
0.2718421581888607
0.18155016680613872
0.20124801590858696
0.1253331285899121
0.2713151588909634
0.0345309682327518
0.1463735166140509
0.0840218215628782
0.01566993920229079
0.021716681448636956
0.0204289551982985
0.1737700164000181
0.061122559853311935
0.12354772460929851
0.1931128406327517
0.13802694801643375
0.28630627730235353
0.07976022093274053
0.14424834918057605
0.20413627249107116
0.14387928798983385
0.138964565990159
0.14435461195996538
0.16822085558514885
0.2691675908117311
0.19346642730011954
0.16708461588398796
0.049536575531052826
0.17112651147714078
0.1303919513523575
0.12314259998610265
0.1027915111018395
0.16037415466407653
0.1510568398614457
0.14922456331571604
0.11100593606250596
0.1749177135256247
0.22815740816467336
0.2526159017886602
0.11195902678190083
0.21688695759284568
0.11149793268321868
0.13328814959597074
0.25037936597651517
0.09774613042442516
0.057932505487839875
0.042875585996205404
0.0196827586627256
0.08608383201356481
0.1855012180253989
0.08175789251654192
0.0697976577705603
0.11406639511192071
0.1034940816310141
0.022362509143406636
0.08168232239288516
0.21590403843863168
0.21160971899063435
0.04483860928870754
0.5841228805171069
0.39775534086937053
0.1974585425138689
0.27190198634024215
0.1838126519210342
0.08119048743701611
0.059054145749713675
0.4133504730002629
0.1983134696423805
0.05748993922060058
0.07186026998493462
0.23245407114896954
0.04107585347706054
0.16236631099916699
0.2409795279251054
0.16537241048515375
0.10105754874964985
0.1389210768587433
0.09904317915688331
0.19746217996575532
0.17118331447952187
0.08078583931883591
0.061143445478337215
0.09310443808503034
0.05934717689800331
0.1074049188717513
0.11604602318537117
0.08888473487264312
0.07484361602727992
0.11176178809550315
0.16519504379257738
0.2909446310855907
0.200130968565659
0.08395342610756523
0.056496467789945395
0.049014253783426984
0.07935511095921893
0.06196998369983659
0.06763889056516784
0.34676082613538045
0.2981055750492569
0.22367114865726445
0.03938037680703384
0.1735782258992075
0.1962705290882398
0.1996911270412473
0.14336484676888497
0.11988371805024904
0.02858635842240543
0.03323820387568603
0.05708782026896788
0.19721680056605848
0.06504183590827665
0.17933599747505927
0.13162140846956683
0.10805856863348895
0.08771330084608304
0.35296122210045877
0.09801864421401552
0.10111850504358393
0.2816297916570663
0.12046498884380193
0.04549497430472803
0.1294321771278643
0.22150924611516531
0.155837412314344
0.005657382068229371
0.15924484271624353
0.24674873569009206
0.0914119122305535
0.07164719922685864
0.11323244189074196
0.0851661948369587
0.3086840929026271
0.19054885221619258
0.22569271001642638
0.08183961935081367
0.348306630767458
0.010218733361141815
0.035070664267981284
0.024738537031621443
0.022492434862308827
0.036678804040359086
0.010786081291654686
0.04085730545343463
0.3826098805787449
0.03526979464651045
0.4525999033802912
0.24510729743767604
0.3511812394774483
0.22965032116523418
0.3673911478969391
0.21713967304300566
0.3131360620635643
0.27352498838540173
0.14018924172210476
0.05768667033152068
0.04276030517866794
0.2752828136625928
0.3556629483894261
0.3437421132211477
0.18656559036804513
0.40586094809323026
0.3704913902526116
0.3354283404740917
0.21156376845109906
0.27129840372575864
0.19780081415280226
0.2045194962326036
0.23806456208622248
0.39786555390129263
0.08549293611640989
0.4081473551165798
0.09088804554710413
0.18400241587192864
0.3660957449265367
0.43091162657478627
0.1392506120015133
0.11484562613925063
0.15356162813963747
0.21756816879217186
0.238860471908895
0.16259252909378347
0.04890834622211096
0.3558893915903604
0.4000039787413157
0.019412891959552266
0.16591736520091904
0.0778221183395446
0.11937583508874296
0.1712600106552414
0.11238245548587965
0.08347807292384846
0.06367569328309994
0.04473782248386895
0.1081347191251584
0.07969942036252842
0.06748651152839982
0.08402444852223807
0.15132907553885847
0.029146978377690612
0.22275163407747062
0.08977431825112563
0.11290880353272437
0.2098918276568297
0.22936375221679034
0.19459209191719318
0.04707521212885022
0.0893380029404417
0.23848762369598134
0.1494512308800407
0.34861510059251605
0.2812000757539701
0.1482879735225511
0.3551235970117546
0.20966846024779642
0.09862620355263456
0.17404036585598381
0.270295802151194
0.1808577023959633
0.08333226896380787
0.10357344283045736
0.16153530037888145
0.06980797969033216
0.14898720908366406
0.17661603121915098
0.11032855945094064
0.13169598217079373
0.2614716689270492
0.18215165272977182
0.12596090344825284
0.17756089521998306
0.03355232945748991
0.014402822483435412
0.15569115033314262
0.09906641014967882
0.0159795631917625
0.29318118840217827
0.1737363182988677
0.03759887720760896
0.14132515044562635
0.18991759024788138
0.21614516211749907
0.15098027637377312
0.09587044463422348
0.05800011710339251
0.20439789932876057
0.07155122839833714
0.09500573507645411
0.5074071738402982
0.09232638753724626
0.05234953962775018
0.08761776112779644
0.09435553564973109
0.060240150344008626
0.012900111094812806
0.05883730397822672
0.08005948938963897
0.005090901127336565
0.45759881189981394
0.07635644871625295
0.18258495603714328
0.07344646896076111
0.14268095466835215
0.06034108179177815
0.16831511706956082
0.0791877262562364
0.11018821254213683
0.08575441749380273
0.01986006742293297
0.05267598082994793
0.14370128469461205
0.09735108789858138
0.10250283423465757
0.5821306400874141
0.23767163803570124
0.7382070613009573
0.6233986588365301
0.48408596091284944
0.5242775636457626
0.1267100911496362
0.14401872443373978
0.1383144345784628
0.09295721515866126
0.651152837369177
0.4251398060650631
0.7025598146825733
0.3052782902244115
0.6720317137330326
0.07021681561758963
0.1992458142440834
0.17804425865796608
0.27440847443340055
0.5494407369114206
0.06305320722468848
0.20382952569700938
0.26214376543345247
0.22338674274085882
0.037868790743866086
0.4470088426024697
0.12518779951553316
0.06590691427572112
0.1546755339313076
0.05825126164003531
0.21289957691621927
0.01834594574358266
0.2609410734707821
0.044408497779577324
0.4559260497973188
0.3480063798223446
0.24812888356732268
0.25182366597666744
0.4849468182256475
0.08952244071174063
0.08179658106769347
0.12190003066052195
0.09486788788160569
0.07217670092628103
0.2969010364196727
0.2938751604793564
0.22146897538188548
0.028688022048450983
0.07731861836289101
0.32458649907406123
0.32818805588194266
0.18674629057489536
0.2721880954992965
0.06142258494274512
0.13170554693592698
0.3787668888184584
0.012049136424056594
0.24072052682262018
0.23569270657817154
0.2931602795448315
0.20846834579130077
0.03041600699473208
0.030319984513682823
0.024396664199178023
0.07357262222267591
0.053910368691168636
0.024791584353436
0.16022326464565453
0.19430953932926115
0.1378145919069495
0.30473945992897394
0.1337272194609937
0.02917888577971635
0.14827279094768153
0.0776932313543005
0.09730432869503741
0.07112726646911162
0.1583256034621336
0.05038328547303282
0.1283767826933955
0.19312097942871823
0.09028031973238763
0.06977173321294287
0.0555658733273955
0.21062983790851536
0.04585597038085123
0.3902084206278346
0.030881394298140324
0.07036253436917686
0.04571667985919518
0.050504962060870046
0.10184468967873646
0.10235494059239278
0.06758412674902263
0.11553063587118081
0.054419836018765634
0.14759685072036177
0.2176917544584138
0.01655960528209999
0.12422403987935383
0.11726843333675598
0.2102815421696788
0.15863157482637386
0.15382340596736024
0.10455220896938536
0.08676104577463448
0.14707105155106986
0.20037286219359057
0.13255951979175737
0.33443641296938037
0.18975014694379688
0.15913947389576458
0.028863225119089116
0.05107432819117975
0.07474444835273296
0.15269473656606977
0.15742521750053395
0.1636142349404537
0.03212946417671923
0.03885490369917793
0.21478790790505056
0.2443630513305789
0.3674755349487039
0.11738428478256335
0.17762891931542252
0.21968191976796925
0.10604151603445298
0.12906968578217973
0.12797846845783012
0.10335788702424997
0.08877376120943159
0.09409313683972545
0.17727063448312697
0.08684302409873317
0.13866228661149932
0.08697588004628236
0.06993716049438675
0.1161424751844443
0.10351652039040986
0.14597433953905034
0.058301183829739624
0.1420925029169433
0.14548912611544915
0.18907494455786658
0.2292383313278285
0.06557208391365268
0.1502528795264859
0.19640494293334118
0.16797244536104403
0.11895978541976529
0.07023059987005306
0.05719864244118213
0.24582781976680956
0.12231900904717247
0.36160349712796014
0.14027886199537934
0.046601770248450344
0.39242163926191637
0.4076550985449277
0.2352666655442253
0.224953785828028
0.05508381442852211
0.18297248872721972
0.08781432056129906
0.14655982851131277
0.1308646573429387
0.147241604896502
0.0987931609598503
0.10735070125904982
0.1622898485113393
0.2077595305306758
0.1881731960302219
0.30016769246577235
0.14469795811901204
0.00547523229129925
0.003616028218737266
0.05332901101749904
0.3735146299681455
0.017647069411107812
0.19180087618030106
0.08931710522911489
0.25608176709431113
0.003522496784495013
0.006906200987145879
0.18513842671069555
0.05181074725427517
0.14732482743351788
0.14415682573956554
0.1147324328886253
0.11096068897846702
0.0464011244339781
0.09442269052625354
0.36711053635768814
0.07280995734403528
0.14563165827651153
0.09211316316347884
0.09076509173135007
0.0755679753724385
0.10598415069222308
0.006816503358377674
0.13204560651070327
0.1638814517029147
0.20199423151011586
0.3170786004427301
0.016962450756172334
0.3410315469305599
0.07969752123225625
0.22784336600389493
0.13917969185032394
0.056161742962880526
0.18408116132401903
0.03986572022625464
0.0734645258993546
0.27171143331811026
0.1026189515395017
0.16402262579168903
0.1017243509468709
0.08793906079069744
0.0931601713013603
0.12269645885512553
0.33097893192986216
0.3638774721927537
0.0840933484171681
0.08485098945117582
0.22635009597179703
0.244231940440981
0.06599517405424071
0.14345775880288036
0.016940802274620196
0.3791693575947676
0.3432947477729343
0.1465686550031476
0.04506559854699843
0.18417283253858982
0.198579083838361
0.6019634766827784
0.15523585152291955
0.11693870199264886
0.20306193383215904
0.10658743226985776
0.11122596403290831
0.07383847874571194
0.20816551998626384
0.16129499727171678
0.29474456649964365
0.1232212639798151
0.14914102901389328
0.14754755055958477
0.027334667154086053
0.1833143998929305
0.13800530215406845
0.08068852939422981
0.1398488724396131
0.20957872381219286
0.21081708479699818
0.32616114489010173
0.06691306962198194
0.16833522643649565
0.10020530789172201
0.3095113739520796
0.19017014603349686
0.17432815011672384
0.06599539363696237
0.05150512649504705
0.0467126400123606
0.0414841132476326
0.06614686243947634
0.16902559941949938
0.19698263673154864
0.12000876950363958
0.21456735882496333
0.16223795293241006
0.3731516142495018
0.3476577890707403
0.01771313569892376
0.2362304898014846
0.30808281091752127
0.06843124431624972
0.07012770776570874
0.08749271474459933
0.055892827003379476
0.13253255891596658
0.07399981115898788
0.05828062285181203
0.038779062424733945
0.05634475521522042
0.2668719362612881
0.3612488206177738
0.28936115589024874
0.03276430434269287
0.27263898071779713
0.38430512136488754
0.10558969645929385
0.040456142912621125
0.06513179965693862
0.09136450061078417
0.6380628201152975
0.2723248585113762
0.16948829988231054
0.5539713243620682
0.189300374337032
0.206682980560282
0.35149724460797416
0.2281136389046178
0.6020013797911391
0.04715649578894753
0.07352414422237048
0.10786389083671033
0.10279310843174073
0.03390973933876845
0.010386430117448532
0.007653463843583345
0.16434297222484454
0.010842513299151053
0.30021949910266466
0.12386236584307622
0.08449425720228664
0.48668905128902634
0.15494754762735963
0.2197892063134514
0.17951445715186887
0.3128522256836246
0.005642348875527888
0.23939017549253191
0.08823197018794124
0.019077833353346164
0.0979026100478267
0.12501757972313382
0.2507938401764976
0.007277584341368243
0.033947077120716734
0.01683107386412952
0.25343726131740246
0.3682213629232152
0.0018518046418694659
0.28264048082119514
0.22986890918230188
0.3559562790322356
0.13265070438205698
0.0036954613678501194
0.03816335273734101
0.020635335283917283
0.11801016157555676
0.10923986782305298
0.09662326684989085
0.5797638916334618
0.3296627049881755
0.239204781186793
0.24582565169912823
0.45800486148239256
0.059225049485564465
0.05223623912379022
0.14200459473405447
0.14700237312754968
0.09018486379424795
0.2162303975822891
0.3114553038853867
0.2043839870551775
0.16613911530991748
0.13811410856311523
0.04018167289512732
0.0037060014399023936
0.04454831803076383
0.26312747883308696
0.21309238386844076
0.056496534652707646
0.07160292270975585
0.13509963173468384
0.03464774087521574
0.13795184189276558
0.16708566271942984
0.07110866611886378
0.22397893859984663
0.1593703827411807
0.1837185480454922
0.16803888803541414
0.1503675921253565
0.15586246404722112
0.10799385440745074
0.19250421108172486
0.06828681980436568
0.0780998397347917
0.054511161797025795
0.004412181502835901
0.010865600631350007
0.046494010292304426
0.03542644322373263
0.06182273734901104
0.139021718407496
0.24138020337793334
0.04813551748014522
0.3681957165817265
0.13802575819100377
0.5347845648657455
0.17305539960765337
0.1773094669472502
0.1654815289046773
0.04327355835735435
0.1133486262748926
0.06087141504058744
0.04231769604854978
0.04399266780695612
0.0643731513763362
0.0605226969508861
0.06976862429635039
0.10522328599533715
0.07685447217738982
0.12416598685898592
0.04925214786274295
0.015117092061835594
0.08516598472144488
0.13169856404222338
0.009044807519402964
0.005669587372403778
0.11511269172573822
0.18690087394565796
0.13957555246043948
0.3766403578384508
0.07816553371175042
0.005598289974091044
0.014111092081715192
0.06683755258066242
0.1552935008063189
0.25189218708170763
0.28479547344599476
0.3356044498294816
0.34908546866061907
0.16538138562471816
0.13403073492615972
0.18498502709243758
0.5512269244458582
0.20860835872740174
0.23683933810979807
0.06733210303889836
0.17377011204287374
0.2037982546292536
0.12405034771386357
0.05776933756907708
0.1515197317154228
0.058231412692144525
0.13961975390960346
0.276334324234647
0.2550579942431302
0.21595518070948305
0.431242572974392
0.166826223953133
0.028653669168440667
0.024603842519291135
0.014960661510092677
0.04251995426636741
0.01838119841310424
0.10893326898755261
0.01306600725757194
0.017935695034014494
0.03640459809886777
0.02570625369606183
0.20312212350010098
0.21274726060841467
0.14593103772718521
0.11589555500275688
0.07319483966495668
0.1881972571741419
0.2138669192306284
0.23417944476746563
0.2361637633667851
0.21486334599945459
0.5626391495233151
0.43504966822763963
0.10625492692015177
0.24646310531899632
0.12470509156089193
0.26828086886086083
0.09029208281606092
0.4534096294717487
0.14230953635226293
0.09646135619903763
0.09797882498071403
0.14511134816423008
0.10743360068420725
0.07866167533887888
0.1882815123894908
0.5884654742494694
0.025154139966961774
0.33637666954125667
0.667204027267133
0.035055599663646485
0.18183072679208112
0.7427498208822035
0.06731944143878005
0.0257124393390706
0.09700767860227794
0.0574088392207556
0.019738510025139808
0.10961099473365876
0.035739972848833415
0.06752837808709236
0.06566548977543743
0.08872802945472374
0.30158824173283816
0.15274881748036284
0.08625296386689064
0.06632728337766822
0.1767462308176274
0.1492541065789299
0.0968108535512667
0.08119398714285846
0.1541714602837198
0.10073542992549045
0.4039598628706203
0.30231231391552743
0.22819782386361132
0.11571258866787597
0.29071207697164136
0.09964928966453689
0.42227358518154
0.12220559715276028
0.09920877771755941
0.06476509675943172
0.0676614871567126
0.020554458833412403
0.1250509800214792
0.10734013278379442
0.09503068948505386
0.077659465864902
0.18721646320302143
0.0744858532598052
0.03429479349364591
0.03867571998028834
0.1031620135911206
0.30916827070378294
0.22318161014157645
0.3962408150411294
0.02342778632109787
0.03195648215487576
0.38478750062928607
0.07132404178654551
0.04938577233585275
0.013285381580924151
0.1508250310359194
0.09358295993283063
0.26226784418240195
0.2045730882175064
0.16164001468469336
0.19716377304215676
0.04117822303680254
0.2322430461958181
0.21002778134018013
0.2708926041156957
0.2764718186221366
0.11845761327590607
0.19378800938623758
0.24076006691891674
0.2733770726698098
0.22315103265739697
0.23768368771665135
0.30310339588782415
0.12207289744080264
0.06022027846771033
0.2518493840241883
0.1017689699383786
0.34119172765755695
0.3442005396702115
0.05063019010443322
0.15410931806680492
0.4457112036249484
0.47658899421455353
0.1510385812543541
0.16366464147353177
0.05643115230120355
0.05442356035810136
0.17523848454248372
0.43635171637993986
0.11072005969941096
0.1518433605470497
0.19807955079815492
0.17262213535464044
0.016895633842913066
0.03927752761731545
0.0658689213069559
0.06635543532316986
0.00976866747606166
0.1786784089180341
0.15291543967615842
0.1744374542127934
0.0773832653895126
0.03743238102721896
0.028026868456697652
0.030406906542579992
0.005226105656544375
0.02617076797451509
0.020383724439300456
0.02243850487356281
0.018026784737612312
0.019670865295888657
0.12697844141223272
0.2686541075994579
0.3827402267922639
0.3006185130222176
0.1624203093637123
0.026000535967995553
0.02615926418575706
0.13223226347687356
0.02786339948894414
0.07496066329079124
0.09293603722989116
0.09835518263237221
0.04399978656442649
0.07493003338798902
0.13140596436326052
0.1526301337413369
0.1290069861730546
0.1416016406536484
0.1533305564469206
0.41696077064327886
0.1109030575555041
0.20393184853749155
0.29255423871860714
0.23194179218322775
0.16817397936186818
0.08077604703214479
0.0497782977383074
0.33003843398848415
0.08655882027745611
0.2620654024848001
0.40696453569948016
0.10255786055166302
0.11118753378702977
0.14374796025506922
0.13408601443387083
0.2251250169077332
0.0688690516019913
0.0899014110451209
0.1087703781672067
0.09689291302140982
0.1192744227460885
0.1672958971196344
0.13421309892150998
0.13435610301644446
0.14339881635794574
0.1367796524846915
0.049549806544006675
0.05477158666432694
0.19957564870058364
0.2058370999996169
0.2568939426065748
0.2531549020694309
0.3632250756921936
0.11546610493317531
0.1291813597348897
0.057309024251343564
0.18472950495191387
0.2539086392668776
0.17224770440404272
0.04461971623828652
0.28309785857277825
0.35053113942759545
0.1595716426689709
0.21009493975796023
0.13915883600926726
0.07172466790814344
0.18759718847730766
0.2235556359997442
0.13400146968492263
0.0344954659948089
0.11971117846094907
0.11310770085773679
0.10438164573100911
0.0777953760243184
0.06789033496913871
0.0298493927111448
0.1013117423984252
0.05944419094398711
0.10935457283773298
0.08702187204888422
0.15132774131775814
0.15544965761910245
0.11158203673383969
0.14573808024856488
0.18217978940015764
0.11925167937305772
0.07186827321541131
0.09146932398213063
0.08354821397182942
0.08580982330051491
0.08383547117168409
0.1270328829585067
0.250881995734516
0.07458928413858584
0.35820208036649553
0.3019660700677394
0.33950284519875346
0.2424545329121337
0.16392721567646468
0.0772474920716302
0.06638670448489746
0.08958249307139594
0.16862787513661137
0.14705669865419177
0.1427198747929058
0.09202942992108995
0.17986040121020822
0.027215852785981147
0.21893095215142022
0.23638415034542787
0.05213816812912397
0.03786454545478688
0.021968702568766305
0.2954384599917288
0.023960024755139853
0.02423082121140378
0.22190695912308375
0.18347863189400196
0.035653249143724176
0.11035031266209472
0.13797045944357017
0.21898337777441926
0.06153303521262256
0.051966159606384205
0.09185067313362151
0.09414495395321326
0.18727083987673215
0.07320390116782031
0.041275543895201064
0.35300171840236616
0.3449857549650508
0.09072635883594628
0.11284832630646749
0.1749659290037645
0.11757954196742006
0.11175584105309845
0.09160453393311598
0.10115004591273115
0.0868774389374663
0.17161168663666931
0.5593549017539017
0.09573675468010812
0.13303212143242307
0.06892585082206219
0.08022911282445166
0.11928829402990915
0.21260315198339177
0.17191491952430268
0.18410077515634773
0.19456825735366043
0.3029639156764463
0.07392321482581332
0.09162452097032324
0.11378828908740467
0.11972326950597986
0.10281596263176757
0.12643964853349238
0.05753247606039937
0.12763950585350023
0.0824202198212872
0.11673767767671485
0.07648450209405117
0.10934137248354
0.019137630696894937
0.12870859766467427
0.050786589031492906
0.10563699252308695
0.06333014042280362
0.4984360313520551
0.08770436716542356
0.3805624041542652
0.0366286243509811
0.09907400569690812
0.08580353529091957
0.05032597170255606
0.18956071489854182
0.1365095028287528
0.09244665771262696
0.07573139761051241
0.1542112166853635
0.2999899984027969
0.1459696527191105
0.323465651685533
0.12084181272424577
0.1429520514863666
0.11362184650656909
0.12698866805029846
0.1679149075515777
0.17500296780986707
0.20943969934180262
0.14201691986119638
0.08735336778831854
0.07177708779383582
0.13696475609892256
0.14006306400706714
0.052397248126323744
0.03934461099496196
0.16271155088782718
0.08498285141331731
0.1611545239765412
0.45594317572708387
0.09396604354575024
0.09677769068181828
0.12682096089041145
0.15460439428257566
0.10012984689695568
0.17926457650186137
0.07926240817652142
0.08337646965206924
0.07031681262375906
0.1559102831159034
0.1307997590483492
0.13841825940143515
0.06094320688555298
0.18724589392500685
0.05298546862929546
0.15070628874491596
0.0807617012914679
0.11386314078484255
0.09263252983408574
0.0821827601993155
0.3893939794255678
0.1883481736806171
0.12352566349797992
0.27526627060419157
0.18786422391196225
0.0540779950061107
0.02331007211111654
0.07545023562652442
0.05095974952648349
0.18239172834675418
0.10264605147438051
0.0826558557964085
0.31614340495009285
0.3216350526853903
0.3137380274027348
0.1847683609727031
0.034355877895830285
0.04906340531580931
0.15099342524927079
0.24299474135743376
0.14962174718190197
0.17006257118042664
0.07059569943412175
0.19015282390406915
0.075016676479549
0.06911682158009878
0.5519050805185288
0.6220760176553073
0.6588286120365666
0.07125938540910354
0.06301195596864224
0.09593458083028013
0.09889047884856297
0.17446763126970377
0.10632457079954517
0.07289890119001338
0.12071656496818674
0.33994295834934785
0.05616891108783603
0.13418356915351676
0.035611475246441406
0.08708360456419159
0.18556204618801447
0.15809042688209618
0.1149138377435208
0.38932743985208174
0.45538102342991993
0.19936990247058448
0.08090195857219624
0.2688759959295898
0.1823583709460459
0.09404265944731416
0.0432927540030944
0.23377218280514234
0.020708826431091305
0.023121574207747627
0.06022892986674781
0.09290138773015519
0.012568784060523558
0.09005876014026937
0.1030029570978522
0.07602379830594401
0.06702030510710169
0.09810599122503795
0.10619994361272919
0.09682848188879772
0.048047161932973065
0.05497659825917306
0.14107667706500626
0.09636936472530917
0.33179145163600154
0.043240462144052146
0.16961517263624595
0.06556475018953746
0.08540430994274463
0.08641456984024037
0.055435636553548315
0.1609017106297464
0.14607975272529153
0.14003312906774484
0.2558536815330434
0.12161042395845768
0.3713313131369711
0.0963122234647624
0.1129781165258241
0.4056255923696782
0.1640176144379009
0.029086168376988797
0.18309042854373614
0.3842095060740642
0.19974195164118627
0.18944006255076357
0.32368737408311393
0.1700076015376815
0.05365452997267364
0.05823399274713292
0.3412105942168737
0.20564596429127488
0.05290760552894831
0.06828038180061312
0.03232426431268101
0.23902061871656669
0.035332597956609126
0.03673920951774272
0.13024856990588848
0.052274702199089786
0.10350975271592737
0.07509802729332189
0.07013472483206694
0.0524008135946919
0.12957274871772642
0.16507855048728018
0.17721476310399695
0.14002169222405605
0.10200630705811121
0.31795368535915325
0.22474670106664843
0.3137769649221944
0.31559320188040585
0.21275864470371936
0.3975771839428062
0.3303226201947345
0.3615235308323638
0.06287061605307463
0.05273281224624786
0.08174571826265221
0.12366839894999239
0.1270893359746743
0.08490648772960958
0.06798609774007063
0.13011264579648746
0.34246468619593956
0.045712159600577326
0.050812030045845114
0.04452213052869019
0.319330383030205
0.044252286181491685
0.02842188566060687
0.04348058147427727
0.0756606468164483
0.07664536291455408
0.07009764377744276
0.18660654932784404
0.16697498103305472
0.2177444914712424
0.06546035275519708
0.07814502932050875
0.048880626089181554
0.4356942357994528
0.022119939805817307
0.05155916486068619
0.028349589443290833
0.059856776642019424
0.27257526615082633
0.22248759294881232
0.3625248474833583
0.19745231496894491
0.3723700248408689
0.5641793095621679
0.08271105046518935
0.006756349778382668
0.16718882343561486
0.02404398985882618
0.27996210668704247
0.6197138871077644
0.35527227789914684
0.2787241872037828
0.27253197877548385
0.33677570771575915
0.06150423441093345
0.3186031171471904
0.03375521650831016
0.5565129501509417
0.037699687534157963
0.06290897877116469
0.30359325234732354
0.06851329666269663
0.17196889767984577
0.05071945334077029
0.21176781759335833
0.09973796517949492
0.03311951807635817
0.06553438026873333
0.32853569662743926
0.04015431973839245
0.05038046929560189
0.10434703826161347
0.05571213890124532
0.5624552256256014
0.28789212982927853
0.6347970279865252
0.10476144678891007
0.03305075163786901
0.013991266588499633
0.007542793351897656
0.031763388347360866
0.020044752770065285
0.047168571447655974
0.24493718387198327
0.020319583880115955
0.04026968681193433
0.023679163907199333
0.2878757318811155
0.061306570351712705
0.05110243459503529
0.06167128463141951
0.18751896800711126
0.06835480242242337
0.019353058208132677
0.13217087547747775
0.11951686979799381
0.10898186047715774
0.2013225193865532
0.08650241159447852
0.11599745001062135
0.10754499676292763
0.16292589081106043
0.08208918635413143
0.07949694325617195
0.07445722139321746
0.3767741055647764
0.33524841101098124
0.07358100263553821
0.07481361917691165
0.07666068555929553
0.08786489058486532
0.05228411405488487
0.13995465834186205
0.07497985625715135
0.03603655383160216
0.08620481406040485
0.031148095292337797
0.17953119634439849
0.25519260312589237
0.017816204021710542
0.021356548654699686
0.025232017974753718
0.056311167040373145
0.32775542156456083
0.04960675287828652
0.04822421063536904
0.45491389526547404
0.37740634735967604
0.1793367209676544
0.3634056024387394
0.3221955718302975
0.30752131359488094
0.37547876336698444
0.38776809029090964
0.4211656185971375
0.1612325003144025
0.1096156829661625
0.31145341142297256
0.22758692512883424
0.12444501810590886
0.043273663980104966
0.13968978012530364
0.16521672930252435
0.34923207712096344
0.33796361527261204
0.11486496486930832
0.30328224962613193
0.07438582644308657
0.08833542042369258
0.09323780920913828
0.1341177551972443
0.11878835577184957
0.12451957430636486
0.19138040377091972
0.0555364889053561
0.08081974896796489
0.1975028662231057
0.09118537999735406
0.2174308380545129
0.21725044977256966
0.15568145708398218
0.03376419671192138
0.15821468055290747
0.13954617306028522
0.11605904298485921
0.17055528350404725
0.047778766704245884
0.07808427882016683
0.04860388586302559
0.10873777713000482
0.04129862878078831
0.10369091946678559
0.17323715959322686
0.08771125516140238
0.06546259797846299
0.03634000585463123
0.17699935868938582
0.048537776152102884
0.07302694652270875
0.09207441703790112
0.07871196268454081
0.0898660672850761
0.27820567555942194
0.12096139802224738
0.10149802864958989
0.07485143589222175
0.06289087361904439
0.13049916227952285
0.1567007706141514
0.1980919013531847
0.5397243972821165
0.08199019339167915
0.3254395242238621
0.3492783609898735
0.06669809873524882
0.07667163354556403
0.18287339835774652
0.1861650474165316
0.16934443755850562
0.03239402227571844
0.12361830954850857
0.19307425228688116
0.10724866339346605
0.09772753068026871
0.09603210815382479
0.11542482772342706
0.14850383108978893
0.08963440302886794
0.03567022434850662
0.12637645710850354
0.09928217441727583
0.09379437791649592
0.2191998264928306
0.11961935793809036
0.0847051103951755
0.191024498255429
0.12714291852326312
0.007524787824143577
0.21480222544528296
0.1162496627137735
0.06795924402375354
0.006829388841665464
0.05188258061108749
0.006172334293894273
0.005985898335561189
0.006021110545952842
0.181855333746155
0.09353650303086589
0.2040394744511928
0.18849669356919063
0.09753425574865941
0.1057447912071719
0.045557787997273634
0.09715498707685662
0.08520098669912786
0.1371717056489376
0.10369871742853133
0.5475815272206546
0.07215881865241129
0.33512066222930764
0.2250348869156023
0.09646790462844111
0.31290020553322023
0.02514147353839613
0.1754196733921076
0.08269810788718975
0.032536404588233314
0.24384994004218027
0.350215620137898
0.27034311347944173
0.05144581663482059
0.16887827367338015
0.19833121193146475
0.17022016865017037
0.3107440393668961
0.06357794702374531
0.14761843255106885
0.1627809413234866
0.07566454327783054
0.1610580260652939
0.2032643262794301
0.3069783039617082
0.11841981436665508
0.4051243900062244
0.1211202341251981
0.19800543941491985
0.1338497055044583
0.3216123948465235
0.13901087736709658
0.07682559569421611
0.21431233412073863
0.2643168206297201
0.08647269608880294
0.037136925462343595
0.17350941133058653
0.056143727495252656
0.17015010220839377
0.128504920152643
0.15040681596918004
0.2708241812056676
0.09533806558263204
0.18204261345965728
0.11654150453089655
0.12570350551756418
0.06941400830784292
0.06255569225885309
0.2247165253880281
0.034162216941854284
0.09192185464160245
0.09393365051361038
0.018618605362212496
0.105250092269781
0.04152912830097037
0.10986246208002803
0.20280089695866335
0.11234737250985705
0.12037769563271367
0.3092910558952305
0.4022386451634037
0.04418727604062315
0.1316661976209886
0.08020072884660491
0.19856798686378796
0.15565290104908525
0.04742032191095904
0.04548334498424645
0.05672691088527016
0.08542324560836281
0.06134485202041147
0.08307696365493228
0.23101844907870486
0.1885375134035163
0.19452766667083998
0.31007823942920043
0.2189431213459668
0.08249380915341566
0.03664608596845074
0.11691801581733942
0.12876056465749972
0.13853776694430373
0.36451008575640964
0.0447782601151145
0.04074242892772918
0.09392521727642042
0.2128453746738932
0.019966442211300114
0.08835266750932622
0.08588625830252837
0.1353868881810718
0.027317234386132892
0.21110059941067277
0.018079699279728013
0.08736709422121318
0.07842192525232884
0.08037315772227985
0.08036465697997937
0.19684156883040965
0.33761002935621376
0.07871489513507632
0.19616996135914186
0.15080435527197658
0.1889979452092814
0.10704283890997154
0.15921962589957792
0.14407719200623575
0.08592714020018494
0.09256978912635574
0.052429984236134736
0.2817207732244435
0.15417225771321613
0.20702594758774953
0.052898242710334734
0.07670457184991844
0.10632259556484303
0.2975348114151583
0.3855039511348096
0.18474454764589307
0.1338552923109145
0.07917037689018479
0.32801833919638046
0.07384647434237664
0.43124182366569136
0.11534476047768809
0.09910133532589632
0.09170743856442523
0.3523675647022452
0.10679231141618266
0.4543677406105611
0.07007475447405112
0.2713475628644628
0.08283877981629223
0.08169704459176426
0.14264460952841768
0.28644289151009095
0.12537881304720608
0.019847378292573943
0.08475115609709169
0.08920921436067636
0.028953942865474574
0.09719230925325734
0.06812006605983645
0.21811130215153296
0.21726761858444987
0.05271355460406144
0.16731947067166678
0.12802623460122817
0.24432488235449742
0.19656590459780834
0.08680281032304296
0.06804472112200945
0.17954921414792538
0.09792006999619095
0.07247820418996283
0.07674811201714767
0.04570449172709528
0.275238664371317
0.14088842467969276
0.3044969525367425
0.12605932209344659
0.11148547183355106
0.1810653326707581
0.0786404922185098
0.09227652550231244
0.19423150603373526
0.10795208551052
0.08198555664261313
0.11199201106008949
0.3147281411210264
0.13306072834988983
0.06380781827361615
0.12783880398059577
0.2183111692917841
0.23326575207726402
0.29362639149198383
0.05036516952595806
0.22202147085322554
0.22109943948170957
0.12814625371242064
0.0477550204640337
0.10732414570129398
0.1656069149655816
0.06276272331428152
0.2250613884681791
0.11810141864033533
0.09838205346694089
0.23591551463970054
0.06611800346039043
0.10338006850325474
0.043580067662984875
0.15753373214212082
0.13765392954028827
0.16746388613474952
0.09003831931393992
0.02688936880134616
0.025334738810931158
0.0935269226948081
0.1353034373080439
0.1300080478198621
0.14664028084842584
0.1363869402158546
0.12617071663888657
0.05106297329815454
0.21159090087621216
0.004988877092333708
0.17379396612602954
0.16437283992898438
0.2625160584040693
0.09755571903407471
0.09838422545922075
0.15972471619375597
0.11608014125427135
0.10835294834645191
0.04185111628129674
0.0506570901718289
0.10345743887019336
0.03342784436229614
0.13223729602727066
0.04284622732578481
0.08038726966849771
0.06422742125116139
0.2022715448897412
0.08591970561444683
0.3047686727817467
0.14314845373178015
0.1897969734882106
0.04954029408321463
0.3596007706935341
0.22056564449139934
0.2405304159773002
0.2988213312012248
0.36680942869901656
0.15233263012518486
0.07314206644408186
0.06000519295877511
0.030809805141801958
0.11512151429896594
0.06392701564951668
0.028778520657735875
0.056979421692018126
0.11252216273116673
0.054829102513116484
0.04655056411078631
0.1643372385062056
0.035100310647766794
0.030815060379480348
0.04712292157537601
0.021917772462594107
0.12792892586569832
0.04892637742260621
0.3614185592462174
0.08811226146863103
0.1041542475676728
0.07191553998581732
0.06576038913190849
0.0586565830372949
0.04378337278378299
0.07026364296047853
0.14469599802598834
0.07200968614053142
0.16103348396425501
0.12700096454580398
0.2523666435733761
0.2493390636706771
0.3405153266952638
0.07323834730342886
0.26379403890701475
0.2822759241205337
0.042254953379926796
0.1012699311855457
0.12269664938687615
0.01981897884022142
0.03872884548400858
0.03617317722229518
0.04136039225406056
0.14027494702557755
0.09848683032287081
0.08123656214950352
0.04371645580763028
0.042008390930192395
0.05417259699194091
0.05531576452765612
0.03361882054922984
0.07486190771993828
0.06458363120564303
0.06340653970443695
0.0393493946436624
0.03166712636911092
0.1887683065741541
0.16672347369698687
0.10689620407902282
0.0840021318231277
0.19809611104936953
0.06410566305430132
0.32448225335055814
0.15186952667055625
0.044344353285000686
0.028429345098194416
0.07643918574881563
0.027241708151924383
0.019675633448035964
0.14794331152846046
0.04138691451990565
0.23256327006489377
0.39483625850705784
0.3306200333258342
0.2708544439748909
0.169056227667424
0.0463904486929473
0.08922421786374785
0.026304796924530444
0.3811183754133985
0.10052264745188869
0.10764494180895481
0.1345090767345614
0.04988972317564695
0.08337983226692118
0.1201415935944537
0.07664437130238737
0.1765406635283419
0.2485288849683458
0.06363123753189874
0.1282843461652159
0.09898137654182537
0.15238655509782137
0.07564055633835438
0.20573289399883316
0.06652413373579621
0.23597249514558383
0.031440266980953445
0.08681541588112512
0.1295466886829786
0.16017532591430214
0.179127967988343
0.23207280480354142
0.15833090307281206
0.11396912761186337
0.1124530114407285
0.04446492198976747
0.06318999892212722
0.13231811910903002
0.38614384433936916
0.6230559363357245
0.13479074194521443
0.09528001359636358
0.3518086832587685
0.17963857450814769
0.055957214144587174
0.1801118169284527
0.10357031957357876
0.10639510207279272
0.18112334086281048
0.2617937644214868
0.3196930930856283
0.2608953291412845
0.26943009452939115
0.22636869529560003
0.07428213400997738
0.07518994469771871
0.05286902360138703
0.05438117213069352
0.02720371616330917
0.02912115325529831
0.06028515211033866
0.11186948892777236
0.06626108066620409
0.016904527365718118
0.11464942527972671
0.07531154535014634
0.07188501333990292
0.20454836285741967
0.18401045952792397
0.17805523909650953
0.0900627968099498
0.05156617096690185
0.42617148781793657
0.08272347910238062
0.0719389899217338
0.07271131036457451
0.07952578411548385
0.04646255580401204
0.16250798376663564
0.1538997602109924
0.06412822025465625
0.05505005582083393
0.050174090950340436
0.07327129987597707
0.05457015815137101
0.01829136386203922
0.26232022465598165
0.1595921251670371
0.02220360036580453
0.23973026554293078
0.1279082534829615
0.29935527211982366
0.2604853580033935
0.03006999617955212
0.2582220584984159
0.298330449565468
0.377792641518669
0.13642584820981815
0.2072753125536223
0.1355842877155839
0.14968734284073648
0.1217119957774394
0.09009638349937961
0.35372178974794216
0.14883978079008528
0.10592650098577236
0.09855135352702722
0.07464150850421325
0.13761745536847858
0.09458209722028336
0.25781744261745987
0.2016708537869883
0.047492789444612896
0.06820072033553062
0.07136497377583025
0.08535075586466985
0.0495559173956967
0.04316576102283661
0.15622448228141245
0.04437751682601412
0.03776452911664379
0.024657540226768533
0.01958009723787684
0.21727840086384234
0.026857600557546303
0.03685040823868693
0.1341947674694568
0.11609872173947813
0.07804007003848973
0.09814552340228479
0.08072497392095579
0.22658571664437946
0.11591660396358133
0.07747163478954538
0.11817281415964145
0.11998475375510037
0.14435693913262332
0.17613942909837396
0.22935538793069024
0.25555510627310396
0.18275380127899923
0.15037079504864212
0.22760263318385848
0.16688203422940176
0.057220519000939024
0.053107588795514235
0.4139146784166137
0.0891844335422589
0.046764440198878474
0.20733909416390753
0.027730342810151527
0.11417126233256888
0.047052329248865855
0.11191746760925943
0.002370904056866737
0.1753796239169627
0.2874363663464222
0.16474448836818267
0.24670885231046438
0.3029105228368509
0.258986427975717
0.261149145226394
0.14717459250636314
0.33563311157673476
0.06648700338958664
0.11416144837871954
0.14119878507169797
0.28626439707282963
0.23650825820243485
0.05839052440189297
0.3855593540180182
0.18365576481747783
0.3610140747666295
0.07976223335610928
0.18474982978757437
0.13200189108989904
0.2947996835664725
0.16296120518167578
0.17226452197721054
0.21263353087400286
0.1784243816293191
0.31330848653956733
0.16352987677964384
0.18899406259406257
0.06350382781793941
0.07043894465102371
0.10473453796920593
0.04061268707086916
0.03500940419600647
0.03831608206453036
0.02690337964960962
0.05919213798704644
0.04563111853036803
0.034001641079027124
0.044531638404063566
0.07560959549297072
0.0978326614100221
0.16733165176347445
0.15053775324313243
0.040818541474932205
0.20686223511673174
0.061404430770680814
0.06343126730965164
0.17341968827612958
0.08410502183794032
0.017344067789743144
0.008911567675103593
0.0494253535095788
0.12246066345721665
0.017506661079952524
0.07377613442899275
0.26559514540439927
0.1263070552080151
0.15803028733757435
0.25798793809458587
0.05261693994611381
0.1822484712323128
0.07612628133196535
0.13292489522931092
0.05630915994856743
0.0801178139231432
0.035302347859603504
0.14073832181751927
0.11311164271988206
0.20449142923505004
0.1763595403798652
0.0034101040104404733
0.0032944022293214504
0.005036242386611709
0.012608814253935764
0.01811610538142081
0.09507683762989351
0.08375371720996488
0.07070499734394324
0.02321512200654635
0.05578038340096993
0.08181864155815796
0.33041257037736527
0.3844693467943312
0.2810707122601953
0.35922669522785877
0.31958848011408075
0.3665235038894272
0.03302315933870766
0.08158812443426025
0.09561741625981031
0.33106095502650973
0.18356231026433262
0.047137652384082705
0.03356114374533933
0.043193616060567985
0.3351613514007046
0.22575218568039365
0.31332987851712635
0.03425192133395298
0.09905790383206703
0.04911675875970145
0.03223501211771434
0.08220317333270136
0.06530536952942477
0.07314921748012401
0.057324386247716436
0.13904651762461911
0.14368657335495236
0.05146962020552122
0.1385456907426351
0.024704867242702037
0.07769531580143745
0.11449782524579918
0.2740903351411148
0.05847735797939243
0.21236371504488022
0.1795179204803316
0.2921633161514782
0.1434917709205364
0.1761622350867519
0.1683620990483296
0.06756688972570012
0.12441174739327564
0.21111037634382554
0.06924133060346141
0.22105267627679986
0.14085849646861318
0.21339151969140158
0.37611839457183216
0.18661976167650676
0.1500119138311283
0.16284575356059525
0.10497589281436331
0.11793951840162038
0.08680388718512089
0.1801036800549605
0.28061557964069217
0.2325144793337753
0.1865548833940155
0.01133914994129484
0.283629294061427
0.19820491908710888
0.2010672935949439
0.25098731181364353
0.02385619077225111
0.23480982399630543
0.20764153783987066
0.20794367301972444
0.2545543844848251
0.17987849819226628
0.20502744160397451
0.1458380404108354
0.14585387507209854
0.20188313207460667
0.2600058742147366
0.24646230808191505
0.2695688425368911
0.2660294641031258
0.22175274342028134
0.31593710521598706
0.37915862140694373
0.5221929054786205
0.546314633576565
0.001754964980950945
0.13500698568485384
0.12624867820747723
0.14050326760124063
0.11982216781578064
0.11607713409163778
0.15203739283757212
0.30371069659094113
0.09111023797496735
0.18477182436441056
0.16821645785086003
0.11524871684851236
0.0754598801317943
0.21363700097695165
0.07120104075377058
0.2686708700618445
0.23030051100877474
0.116525084520303
0.09376344304653131
0.19926146189250224
0.2662819659870137
0.26618364320766447
0.1401610789549376
0.034325833049457195
0.1093005148448696
0.13466767331857812
0.1250244686162998
0.26797619693785063
0.07806935911604838
0.09869545679338926
0.10373371554998312
0.11791547122000554
0.4089172880518522
0.3686487510739439
0.12847807503334763
0.19241432712841872
0.2516757305249644
0.18454355025877692
0.12169528314636575
0.0904753404034933
0.03897731803519627
0.1632486766687111
0.17894372713130038
0.16645042651806444
0.11712274777486324
0.1728677057632476
0.14777630253926197
0.14859530093865306
0.12495673705137716
0.2493280640205279
0.04686645399044301
0.27630386872693374
0.09048157130407697
0.3535220868331445
0.08292796208981804
0.3077893354434944
0.386526852500348
0.06357295869813949
0.0840714807431174
0.06040823342356569
0.07592175223787447
0.04877026058542411
0.05782463174801601
0.14345229580544133
0.1048446978703402
0.37317064179513953
0.06487182472887272
0.049078316393288635
0.05753066215291529
0.2991844903560972
0.17353145300820944
0.07684651619196607
0.08729148288787346
0.33217046020639934
0.16948330401453293
0.30132137071463394
0.09577433527772183
0.07680375267653038
0.09232367752503512
0.26724184483619784
0.2980805744537424
0.23094988922473778
0.09105278090720399
0.14785681248179347
0.08615884487630311
0.16075751503166757
0.1427547642498489
0.07257774322781296
0.08290918541233451
0.06436222137332201
0.0662550765294088
0.08727852510567242
0.10166276775363052
0.06069228541058668
0.0852936456663636
0.18688118891374078
0.24838872226589997
0.12644115158468044
0.22836196796736924
0.02964375067152195
0.12249866641627052
0.07773624257746237
0.08464716491055942
0.0507508174768903
0.07789384892399079
0.1573840367089375
0.02674397641563854
0.02200815501247826
0.034921099441513836
0.027394552631955324
0.03796036368955957
0.2825182566603103
0.3097606439062594
0.2755614799978234
0.2218962683756784
0.16094221667145947
0.1890342965759047
0.1323897796500754
0.3705694145790284
0.289699631646081
0.27666362218233176
0.14054697209295378
0.10306393493071009
0.11008873160083958
0.026807498077447305
0.46751794130376967
0.22387679795550988
0.051263871213699234
0.14029497257726278
0.4554978950266744
0.22822746365126342
0.24787606021508096
0.15467739350071455
0.28902036752545884
0.39779051868297033
0.21932802123318051
0.05733519561738658
0.1517158917406083
0.0641494264503595
0.040965191746518866
0.061792754271349254
0.056570024328812606
0.2250513147803449
0.20152313433274474
0.08941773187712512
0.24705284506189645
0.4903734469174341
0.6224902703854754
0.14427108094381652
0.14089388284690296
0.2687077614145965
0.44194778686691755
0.23791998594557792
0.3727527032921757
0.5390613662352962
0.2969110499796016
0.20825082358006602
0.11124921183247578
0.21421680840651847
0.3052646392446393
0.5003930130952993
0.3764764902814229
0.21262105951117719
0.0808298567506579
0.08730859233776912
0.17599977028677463
0.5714626796306341
0.04047628963796385
0.2526029648943419
0.2676400175668743
0.147288718029535
0.0371800244184555
0.3522814930400607
0.035193654192763685
0.043036452967927796
0.0324123252487905
0.05809665166344905
0.09733322157644693
0.06526449303328959
0.13771236540006906
0.052082205444221166
0.023934326352801363
0.27641281296632547
0.01701959222162824
0.08290171334552895
0.10946928216756747
0.1619452586813775
0.13852153110325147
0.047617818148456274
0.2172812883240113
0.22337728856707526
0.2732059094901401
0.13987733183221132
0.10411218506136256
0.18598506180652016
0.2264913811437207
0.22825994476055125
0.2710847077652897
0.037669820893279145
0.03434297007641069
0.07361478611528792
0.046870134367274295
0.03196014322496573
0.11785895091582048
0.06020998999384717
0.04430355984177489
0.21929622282469616
0.2226771761362014
0.08387635718562388
0.150491865912196
0.13687044382100327
0.0489851649265209
0.045394730006281546
0.2955520850236605
0.32530844101561823
0.3311154841791106
0.23501816263185107
0.1046847327452614
0.1471183534846231
0.15942250287285262
0.18777197033448612
0.1664614195455775
0.14604323579399014
0.19144485370907346
0.06635560395897697
0.037777053051454214
0.09331623043082041
0.12022361593735253
0.0811935502769388
0.10464212429122667
0.10398544734779325
0.025293184566077535
0.16628754717125865
0.051672115506585944
0.04536658907579514
0.12346900831558529
0.03828609016955747
0.3697291489893131
0.20534010024570792
0.1933158183764285
0.09070984557293642
0.05463918049713571
0.04151525519412221
0.09730175883140367
0.1398311769241758
0.13615760648068534
0.2251021847188999
0.07843974832648926
0.08672106140435057
0.2405235671844021
0.4150363943159018
0.08065923800602083
0.2151860667624205
0.2843433324779702
0.36144416459079415
0.1710042576927213
0.14888923719314429
0.02782330614238457
0.47093827092150425
0.17587480805744116
0.08196468784355723
0.2048248172994996
0.19358010493519992
0.06863102306860182
0.1763076182260648
0.034764006708774664
0.04576005584232726
0.1542047261887787
0.13424540553707914
0.15498799982423692
0.07304730782991269
0.1312254121497753
0.13630965660130565
0.18560233631453738
0.13010076180011276
0.3346725626534319
0.40291218839602794
0.20083092514459755
0.28910052483241216
0.25384392815415235
0.3408620418807505
0.26519049302009284
0.2395141354396321
0.2282471134410032
0.060413581657172796
0.09786632169544465
0.07244069466294904
0.058501188494610355
0.10250371865391968
0.04768676299904834
0.07301416344057857
0.10651352931768465
0.11523587431055898
0.14596367801217897
0.12027356691566711
0.12409975219402927
0.28942319638137326
0.1809558354289456
0.1082086843049405
0.26905759740809504
0.26740376003468774
0.22813750776816932
0.25675449130848826
0.11524648686605922
0.0857765301012157
0.20187267966395409
0.37808919494100457
0.14401563858488986
0.17265248382371862
0.20125785981774041
0.10396299027633742
0.12958248357497154
0.22418229232922057
0.23159448980424707
0.1978327709724263
0.22588466634388565
0.30070227538544914
0.2105908217408236
0.09909037613092309
0.15025864186295926
0.24327781345765456
0.15271314147154275
0.23304905700477216
0.1175903257132287
0.04850479939922503
0.09281262347592097
0.3327358830297587
0.14677014600903762
0.0299091469455707
0.12404667524114056
0.175081622399183
0.7195698376769237
0.13836579085457218
0.1869658243070371
0.09740773189487154
0.11928799226712912
0.18187505936258144
0.16838259860230595
0.23106753847425598
0.13997950473917825
0.1645559116237388
0.10656581156212606
0.15630815856787908
0.11653681541240353
0.1231464335579302
0.0687095000108621
0.0881157491194709
0.18325511841970482
0.1104993489459673
0.22136880628094457
0.10161419472325828
0.3761087452616899
0.24174809798535393
0.19646687482875355
0.12022877257628424
0.39147528576605606
0.40795896146092364
0.28796795871852776
0.35264348464967527
0.41268944507496214
0.10926801846077071
0.3913096963041143
0.11957604584500935
0.026704548510159232
0.09488051453921599
0.034514134423503255
0.03283194498546596
0.022845503058954827
0.03900047201968656
0.1283417343988082
0.08925463412298769
0.05782706033634238
0.07094276280700497
0.10326339108534936
0.1386847547165458
0.0824370042838793
0.2976040337070819
0.1631154013982452
0.05015563123751026
0.031767637742133405
0.14940626643828342
0.02597026427280451
0.028130234229500815
0.02735942018182062
0.09970949836608539
0.10775820969379915
0.08823940411285931
0.12129204478276576
0.09288480709900378
0.12007519697620252
0.2284892952686339
0.23474638087607413
0.19500820926060075
0.14865517772543296
0.30216214650360257
0.35242095891791675
0.31478301768931344
0.08398797910394411
0.47172345942792704
0.3342062320622612
0.220674345172037
0.532919291797827
0.0762324297869246
0.10555956827973566
0.18710558143079062
0.2097493023967159
0.31700174695246447
0.16792242503311486
0.27023368910227663
0.20680733064055384
0.05938468837224801
0.1272182025061482
0.0929034045216781
0.09739599932519188
0.19044154916625033
0.07937260474100716
0.24941279163658425
0.018171525812580292
0.08884332299367122
0.2694668592060369
0.2089309826147277
0.1326762355658771
0.20395339488833447
0.23009827875155542
0.2905300096394549
0.3070668231118356
0.22508351074130728
0.07056243407083597
0.1247935673631613
0.08709908875790515
0.14181191474651197
0.11980992299796904
0.007527618828779759
0.12481933058841072
0.08049131623162083
0.06458922444675463
0.18515285425121752
0.14309380899153298
0.24693156708550051
0.06029113411113862
0.20221276828739648
0.17991009452503023
0.154910814995351
0.18592692042428643
0.09939611427024984
0.2447434355092651
0.30977713582539085
0.3084310034513578
0.2240528619539398
0.1508444010860932
0.10796299435693539
0.30411564048540235
0.17183296359474354
0.08090948692697765
0.656813295346528
0.07372739311306081
0.11210054116090737
0.2952859268200915
0.03425338362241814
0.03661525048907294
0.07232935339546297
0.1095564192656302
0.280781700170976
0.1684186118104963
0.08974883085725269
0.04910434962360052
0.21303949724612628
0.11701855530439682
0.08999128213381906
0.07362362455041939
0.06127084379654933
0.052005968583635744
0.012365355073999364
0.34352418944300744
0.01161074860035988
0.49282167345163375
0.05769230246232133
0.18643764587891484
0.3298458723374228
0.07774105324085101
0.19652362888779554
0.3552146097401984
0.23101819962588993
0.1927042308564928
0.08990472553314999
0.10285075627573342
0.34047220012535845
0.33623980581845975
0.38995398150592514
0.06128319029486609
0.30711994383295604
0.08823839869290216
0.13635130411829235
0.11578131153805878
0.10802985012613825
0.11748867361859205
0.12122103264307922
0.09877314772718997
0.10342697817324725
0.20691741304463873
0.40608732828683897
0.1555171010098177
0.4042932894193015
0.276585893985249
0.2887693610899268
0.2793543098875195
0.3248318302941485
0.3306702361554829
0.4492319436090384
0.14635010913549998
0.20131991014044257
0.18630972734527435
0.2700891555669957
0.40269965676624636
0.014068753063079281
0.09204277329835768
0.12397201539248215
0.17239950346657898
0.05295638475848398
0.038073574359789364
0.17460475959113708
0.034733423670180584
0.032228713999879276
0.03336583179577387
0.03779769948881102
0.07065240747195112
0.33739219756019273
0.172405685640873
0.42267579371357017
0.18883811133605105
0.2329967321436119
0.3222151370142808
0.04294265482773473
0.06368852731840333
0.05144655007056934
0.06316425543822564
0.08001933691749524
0.09170447381132621
0.08694619951869342
0.24516007788968647
0.40504505972373056
0.10579246464419811
0.208453433828516
0.31045273815290964
0.0063252450167510564
0.037468873011352925
0.05585256116207443
0.09130821627947441
0.13154451725525804
0.09726967851658191
0.1015998386926268
0.08950451793591366
0.09747435137555518
0.14385904059990615
0.13714838133128762
0.12101347348216215
0.10980345999990025
0.06708977871253684
0.12101984223598547
0.1532321134256417
0.017388018586141193
0.04369807450004234
0.21109608903509827
0.06872428261312705
0.08424260186334837
0.07221791654386503
0.016704609179324238
0.023276683580960376
0.0541960703709218
0.1569662945360172
0.12505346056967548
0.21128183912789014
0.192327021036161
0.18831554324731067
0.17313093292343734
0.19330243756072324
0.13791846122121532
0.11477413838481632
0.17079675670797392
0.13882944149602439
0.12421144281173398
0.03232375922293355
0.0066162301202934695
0.006460316351761863
0.13041481002544258
0.017521702208947703
0.005735697646186998
0.003292045438460965
0.008792472337537716
0.01813619288121039
0.012269651666130168
0.3152118280171658
0.31246985182524517
0.2586821554134443
0.048500761734492435
0.41593314639288514
0.40992213462720883
0.25939434715740106
0.021189184301877693
0.019346998584196643
0.11300373899610201
0.09508743087196328
0.0346198655547563
0.07584713845454083
0.03650008794806074
0.09147324416257528
0.10117699991731727
0.12819368913008497
0.41139191728536467
0.42349215951782476
0.04804314337153517
0.3187769858521985
0.38252781380803796
0.04327783838353919
0.07621184821941776
0.05693634920390515
0.07025906159115741
0.03671741781918374
0.04339706753995962
0.05022439826323384
0.05576026146411028
0.0595922345986376
0.03496621128133491
0.05310022708186073
0.04971651802649955
0.1352754531871873
0.1505830622967154
0.027428750358979098
0.12828275796925323
0.22780706889971528
0.12813037596683252
0.21643852992990298
0.19422796111132526
0.0707264258481684
0.2097709748321687
0.05543476712531794
0.08436779945656567
0.05650138577842994
0.1828039142993713
0.18703034895784174
0.061931328744224586
0.1226794009179399
0.09532435831714552
0.02814558430262251
0.1609197241262073
0.14598451082577635
0.111735530448425
0.11624041254070609
0.10574839067864734
0.04325588578871576
0.20321413282520684
0.042989911098185375
0.1492400425301005
0.27534587200768046
0.17009618437970594
0.1504506265232348
0.128047698345706
0.11971637749368975
0.07972972094230468
0.08606852617224961
0.17004112056330062
0.08343666272004395
0.04625836254894787
0.040402099408650055
0.032705703431506146
0.08544556488665478
0.07280551186915185
0.1252323788242537
0.1550507780580107
0.1953609872742794
0.1316082979765759
0.12143287435627749
0.19896718927230572
0.015505562285885947
0.009872906945340015
0.011642412717508384
0.025957790921134864
0.15899130815715729
0.02667388218903664
0.0430814992467401
0.13571932556186367
0.3686653332348411
0.28341349066393373
0.26772794928911087
0.20538032111587476
0.24873699017743317
0.28060747827935073
0.27416032421844483
0.26626229992989003
0.33138062541906405
0.12340162162043629
0.12604340797206007
0.09344901623319034
0.11646472412082216
0.11377431554471962
0.12253784260244234
0.17472153349650393
0.151612941321891
0.06141014218093716
0.028678785829736247
0.22736932951742284
0.13177116215161877
0.33923164672390843
0.33664910654707736
0.2973328610855367
0.28348729994557276
0.2724488126723356
0.24668061836210364
0.24259463521579416
0.046796476237904526
0.3482252580500545
0.2550768447079874
0.22364130527590179
0.36368780954304936
0.20807338961845243
0.18901730607619346
0.14190054251576692
0.27149320939985333
0.14721428712987022
0.14598030779085802
0.1970257802245613
0.20094735060942062
0.04425723774607388
0.29116878704986804
0.0714494252132426
0.05768899822651968
0.05781909068678792
0.17515307163125426
0.12492496328505086
0.14041169708363965
0.17296428866611835
0.10705862239275164
0.08755560968404712
0.17190351104986812
0.13462226024467588
0.22261325325950226
0.1735183155108728
0.06407182089321191
0.0768820096981546
0.16562341011818024
0.19167950712449436
0.16763989406310204
0.14944169894793113
0.1321975996870117
0.20143927710839543
0.11982071562149141
0.17246983466735066
0.17490753566156245
0.2103324000722712
0.17225596210745805
0.11558380382313779
0.2382870398732502
0.11339283302682998
0.08665247204885959
0.3961351442898738
0.0477990201856671
0.12172245908404156
0.31942350689362214
0.2446072325584244
0.1764995798470692
0.27432134048368373
0.19309288392476964
0.1870984524749937
0.13602703462464993
0.15076481349725152
0.16781595291451754
0.21184006439660247
0.29037116607380464
0.25580272848078045
0.2841668169394133
0.2787285812397881
0.26790728573383377
0.22657522440840966
0.08424979658020999
0.08728540248261103
0.09701513079711777
0.07061619110634774
0.2461061749767342
0.31385217644737584
0.04605659719919377
0.1016079362015959
0.05606165300269638
0.05722638429365276
0.09220162189592133
0.08635464954871717
0.06080218966484779
0.08882331673846194
0.14003948982022257
0.25081878902954
0.09626935679581769
0.3229293799054164
0.37978442718398314
0.06563704789908889
0.10414057972286894
0.36459527778707257
0.07859014917677112
0.28814174630654493
0.12756867940829356
0.15820493523864557
0.03291046428493869
0.059328210956370565
0.13060917008394768
0.37217499704192486
0.04845571651457921
0.016685388308305557
0.21301100555511462
0.058271388493927496
0.10751593815561793
0.12682516948799896
0.12455826671293949
0.10984930842367407
0.0890318561644086
0.11385779600634065
0.24365337336805856
0.1959113303473511
0.22938663275769322
0.22366745816406206
0.20448614909681362
0.06019253126501899
0.1039079081056744
0.048657387971724364
0.07651807091944693
0.038004673145133894
0.1114573328732566
0.047501654845451456
0.06693802343688993
0.12661406747760748
0.1914479968600129
0.21807612552513223
0.17288310455490785
0.10373570508913615
0.36236796634840246
0.10880683745354283
0.042938569243715245
0.3328617706959766
0.32187207313791905
0.11141754993164232
0.2599619124244188
0.297424843041235
0.4249773109763001
0.15264935128806095
0.030363554975335716
0.06505617719517498
0.1309085185030386
0.032224518028023
0.03719403581575528
0.12525642686200605
0.35367520445705763
0.0907449431417973
0.11302602920264455
0.2173135189679354
0.19970757702692868
0.15589147146105864
0.06137310741455632
0.2133116552853059
0.11390631542988737
0.32413173505198306
0.32728119903329306
0.18846969753649254
0.2782147857930877
0.022381756830774594
0.1349084121858706
0.3838447106468336
0.3566659621109017
0.11796971302021897
0.029962540811012284
0.044039469248385435
0.05920383415271399
0.07293898511253909
0.07387695484603403
0.15885830759200337
0.09086246644038555
0.06381257096908356
0.32893850064466423
0.04604664759598087
0.17266526479460131
0.05542283044634107
0.1666040905538919
0.20048031118694895
0.17468841804516547
0.13912103111766452
0.2246654644809208
0.16561228781248144
0.08719606635456889
0.3306736285167061
0.24938225223349259
0.275715869551146
0.2610217194325011
0.20214692736623502
0.25280804856984135
0.18265098290114246
0.039233823026862166
0.29028296707847756
0.34434429115264004
0.08790252778399382
0.28707715449113835
0.06245316026762894
0.11607869660285164
0.08343553708660742
0.24560143448228505
0.22740986455959103
0.5000643902805639
0.42526852744465043
0.1474816521456534
0.2545399792835527
0.05038928682192472
0.09494106624119905
0.08391935745076187
0.06561150811597456
0.08197014240431064
0.03188677882302708
0.14424030189978326
0.16524687168031435
0.03432733516711414
0.051063192899536036
0.09117593564866826
0.09663711896679279
0.3408912750700887
0.12294885189670095
0.1891628766151664
0.2041437970474097
0.061197456746872984
0.31071785637700383
0.2251683710962109
0.19817869750091507
0.05136439789763602
0.1267165385468339
0.3928794024641099
0.14182778111872996
0.0859481876749431
0.09012278547538422
0.40368247405775565
0.3641839468403902
0.2032902664008835
0.11275136680428703
0.14644419179917773
0.33907416981016214
0.22576533246200572
0.29722044212080406
0.1924081983782006
0.11855069618181432
0.20603326344049214
0.22710521946344187
0.1471702386204867
0.19260986812946104
0.06822498657763856
0.15623853594749842
0.051783267396175926
0.05072799999120958
0.1453993253159905
0.08853685968640732
0.13676583491122002
0.11986303661798273
0.02533642518596823
0.018914732610667583
0.03294759331211172
0.22527433641417507
0.11327693399914401
0.19562427780292543
0.0976613265228989
0.1393771150863195
0.25135647382505116
0.18056674790183178
0.16039278659778847
0.13489704784120837
0.16729558278852213
0.11512290816371648
0.14756116536860178
0.11392021719918775
0.2980077586280867
0.18526144043138515
0.04319041837105974
0.2884054197756537
0.22450446207856725
0.20528114408101228
0.1487232310213576
0.11858935711854482
0.09640530129876164
0.11274775486705214
0.08463053464519944
0.053546045622575984
0.10277365969692527
0.09385880094379617
0.07534888986921172
0.12029136437739973
0.18984782051116753
0.039181342815544765
0.43338779261383
0.25961955941533044
0.7201641850542512
0.03340604326065214
0.05399953706203678
0.6577380060799138
0.09416774345289619
0.14542328169577495
0.09366784168474242
0.08629270144352619
0.08120759097771833
0.07463444106581052
0.142557364867829
0.08590613450119282
0.14626769986516294
0.1888020122734339
0.1629426130482441
0.08989375203100933
0.208154834259386
0.2777133534411681
0.22669711675789705
0.4397277201723513
0.3381391555243315
0.29006689812635
0.1521245057432829
0.053892351691557094
0.06898799242450251
0.049628143798904484
0.07087161914500556
0.07402662698670676
0.4075699388438218
0.0942980039589581
0.16861732259499476
0.1477275613178838
0.13052358898187952
0.2653765520850968
0.16924611298701897
0.11627673193410545
0.10783806381412497
0.1251092831641865
0.10918943018390713
0.16626401603622745
0.12703343466011213
0.11562601670392446
0.24611302139975239
0.2232280012558923
0.29878808219475145
0.2388343777846641
0.31358661509795754
0.12359576453981011
0.2929469189358242
0.27211304551802534
0.32559196872560214
0.3345485733553129
0.2902336090110467
0.012356364032941249
0.058623625671422104
0.011353244442705274
0.03850640161500083
0.04895795345045336
0.015444573135506325
0.009235547070781516
0.046088817297239515
0.22442340014227283
0.08861606548132471
0.06748985088586583
0.110124176634504
0.1575911396874802
0.26455788566971755
0.2163876606472508
0.26834981873169333
0.3030291838308188
0.127430738778544
0.19337289240074026
0.06827345159211609
0.07034510935964562
0.11155772163730236
0.1025735987345357
0.13818995895471353
0.11818949240093543
0.05928175751189215
0.366321937525641
0.3358521204842052
0.38150234869037547
0.35381435843830833
0.0898496377846364
0.33131819780748845
0.28551273383700637
0.2943465865400315
0.2483027785969296
0.11482911207568426
0.41952159271374057
0.1022634604088105
0.0731943051389656
0.08139613343288606
0.2513144638780227
0.08351371811840398
0.05769154126489369
0.08472933977599133
0.1333901885290132
0.17212714020552472
0.12318940812171024
0.13320235587994578
0.12919232407234887
0.30923547422688646
0.2769497314388437
0.16400281690500682
0.2825525523425896
0.26295085910659105
0.25182072883343914
0.2747647390864429
0.2685484785132572
0.28693491158406154
0.025894948013223413
0.027505131064481523
0.023163058164997277
0.021195746259892918
0.026749701833362168
0.03178465204155017
0.02272721272955686
0.0981005768909004
0.10256558154858464
0.17702528118737573
0.06858463391334764
0.11638501027369234
0.06289244861455096
0.0801046117695298
0.049716405046720154
0.07128843543766235
0.13891035088243633
0.12497379980419376
0.11848888220190987
0.14768630030688137
0.1396093147958578
0.26409047653386636
0.23356668794624327
0.30318620578490885
0.04338379895847385
0.1999267366944531
0.053725561223490384
0.059913259238282036
0.11122372493818748
0.07511302849609383
0.10317115953367226
0.02643870607412999
0.04152897916882729
0.1146228334836907
0.1895165271661685
0.10145380793133758
0.056949719116743534
0.267910621540943
0.05534785285037401
0.06466068723647392
0.47186233088246904
0.08014347090025889
0.04043164533496583
0.08238784646744929
0.23574135329192059
0.3116024728969697
0.25841867356746473
0.2570326605675993
0.061869134456066434
0.04646006417328865
0.13350616669082888
0.0216666070445064
0.04636600626147683
0.3153485927444846
0.04639053996934059
0.05334716203073956
0.19771896819732626
0.08025082654462132
0.09415249306930609
0.19800724619161597
0.08858550860882118
0.14683723338832874
0.09291693665029212
0.025624423788044394
0.18431397518584575
0.09701641967910465
0.05082578035991042
0.02833447313047324
0.03763848653368252
0.07326429018592852
0.16552475797744462
0.026682846115868204
0.12088879532651435
0.16007820613748425
0.16135783371375542
0.11485729192384106
0.08975353379380492
0.08931962506075303
0.11165871682495403
0.035527982137702606
0.03458038581293179
0.13171223653340874
0.1035080153178144
0.027438165760328943
0.037239562310833155
0.11744896185075271
0.16871398826771614
0.3339256457292499
0.03491842007111463
0.1760540599417261
0.11517226209394098
0.23849867192870566
0.1978269022367826
0.24940753115145062
0.03465257389274416
0.30111609807294165
0.1793175362960882
0.05651818414348547
0.03714958865962366
0.16040620156854432
0.06300048284149104
0.32308493745967154
0.11179951054665173
0.301568102047773
0.12715630372869322
0.15432818595374892
0.08064254230915444
0.07984363437214262
0.10140654206482053
0.02849569256322427
0.10917947459882711
0.23932822407013618
0.07913103679981355
0.09011287856037051
0.14198972396841236
0.06582011199765098
0.027991095017778977
0.0626294589116169
0.04187226403813577
0.1786868451108012
0.1570260361160657
0.09784434631932508
0.12000063971378375
0.19838300968315553
0.12234115102029845
0.05893737943004093
0.08194511710193833
0.03057093790202934
0.1891724812408424
0.2230144508047444
0.09402467446381743
0.12386817578790262
0.28567761851735113
0.19462734816177532
0.035664967705131105
0.06242075819404345
0.08354084822998831
0.06096623928280977
0.046191370184172804
0.11892643817963126
0.06712642364830566
0.05542390076330191
0.056469071688458446
0.07763113271476345
0.0685760591317722
0.049149152937645414
0.021847016237699517
0.23039771692959238
0.03613715045580821
0.08162671308149304
0.3373555299719744
0.14207310440252913
0.040710773057816375
0.03609282103236052
0.10547789090489008
0.08089955390486192
0.24591902026990844
0.010033671608999966
0.00687818077132226
0.12026336564784024
0.11393180998437255
0.11490809747096654
0.16618541527962608
0.22547114345950514
0.0756063759487928
0.09816156740219144
0.07914246948987085
0.0683988776643401
0.14015839307665104
0.07565776560195434
0.20922765814168579
0.08643278368122362
0.402539135968856
0.1669851830401186
0.23183093857847076
0.10358961806833979
0.2956959954032315
0.3751853101897802
0.22839725903927266
0.1643117593247144
0.10338205261222372
0.10199299406710464
0.31834886675344193
0.231863594253393
0.07219168973592545
0.073802127607184
0.04033754659757555
0.027937019600974684
0.028715994044840917
0.09455758096220264
0.4551145428081485
0.4175438526792495
0.40493662991627133
0.2735324517493231
0.07369420984488868
0.03554562846045704
0.5515838360726105
0.03891337307870348
0.021518780492546595
0.04523153154976813
0.040939038445617956
0.019048140461068102
0.03154135471750701
0.08755871314709167
0.08520773861766663
0.09411461758173793
0.07937490808218563
0.12042651685524308
0.1345636265515895
0.048983037433286775
0.077985213417341
0.16552884402851842
0.26322634058240524
0.34076361432374785
0.30609343948251666
0.20828093067442585
0.22707702585876183
0.34096097019207
0.25875216252893907
0.24110404041087374
0.047298566085677264
0.0807156769893868
0.34039707569116756
0.05594739249118817
0.09855712591413568
0.2002712219965992
0.19531891240468569
0.046307396450404964
0.06914191416735997
0.18945841352069434
0.059114840638862076
0.17591595876154786
0.11608482126017017
0.2523340779576682
0.2351554427546199
0.14410069495243805
0.5734928790417083
0.31993342558336607
0.2462584456198198
0.5585400323406808
0.5805117225195939
0.039167455770941405
0.019122869150494125
0.2667536756424903
0.18394949903917607
0.21077169974603197
0.2362136157123382
0.15183493261842773
0.038993487146330746
0.21531456555453382
0.07672746022838492
0.2238375183898004
0.039876841054701684
0.12997505539316037
0.0870743252955347
0.12397579877108579
0.0785041508625868
0.09949217574996469
0.17010382204881028
0.0385724807746807
0.0564044815371599
0.050550217872549305
0.05604271102404618
0.03352059607461353
0.08392569940941462
0.04564936932223382
0.056999008969959686
0.07154914559699045
0.044049090318443986
0.10824788896329378
0.08754318755720455
0.15762904627555432
0.15140553555156222
0.21071059771575654
0.14570610913665913
0.1470573456506123
0.14255187695860086
0.11130318694680627
0.15660438943484417
0.16989003803815433
0.2198097167774726
0.07421873187288701
0.13856660747363256
0.09452421636496149
0.09338649019903303
0.05765804276126997
0.3625572776997614
0.06676799951190625
0.1049263714750725
0.06526844330151543
0.17637682992562173
0.0018520605266698358
0.20597696303541854
0.031449301071976694
0.027483548713628434
0.1662501586649918
0.16406832082864614
0.08809216982140712
0.284866171766673
0.1872463804557874
0.08271359540405403
0.07686931377057253
0.05184645796012477
0.11194318324096109
0.08587467211135774
0.10476694715471435
0.19173481764601868
0.09487358943309895
0.5307445870378248
0.15518146474031824
0.10174509479380557
0.19293430601495776
0.10371234051527088
0.09772568894546688
0.1058302369096629
0.20805574364621116
0.1945002240916488
0.21532314383274878
0.14562840484329984
0.15139733702926417
0.06446897061292903
0.21988953810701503
0.06663062202376212
0.21059531678845977
0.0916444688948728
0.18247793065203924
0.10088831101417682
0.10030352056158058
0.05692142518317909
0.09414461323828868
0.24238379397918097
0.11904486504027639
0.33052978493188534
0.19782778907548734
0.2192486239130723
0.23059377654635796
0.3387903737820607
0.23675733837965485
0.03336734169001477
0.0352412991163342
0.026450355610963323
0.06002041582147704
0.01320882333652119
0.05234546563700378
0.08398803759241741
0.11877827988333746
0.12517295530447128
0.169617315811436
0.10955143897910874
0.08017684427935037
0.30925691426934315
0.041004988898126635
0.04030048169934094
0.03808260939352724
0.6433590267100672
0.12758679058822087
0.13046941966481473
0.12628315947427113
0.04654229534061018
0.15435472972103162
0.17562048737106448
0.16020409797695226
0.06361375725096176
0.06049093838029798
0.07112770344018209
0.041896261448918865
0.08798533132789775
0.09727152512660542
0.1838832497017252
0.07982075323099576
0.08128186594535912
0.1434594576455067
0.06569134968646795
0.04874266534850961
0.0698978380067181
0.04889571481016785
0.09044562530368921
0.25188395277500447
0.3032693788116958
0.10275890335199593
0.17541821333879426
0.21819879556187377
0.15386402850041694
0.18471056334656938
0.21764890378485857
0.27510740307070386
0.06438205745480055
0.07332748553757508
0.09506245337298523
0.13997527253923503
0.13535835993062753
0.2606291079265416
0.2399938079395468
0.2501860914700004
0.27583262194205216
0.2827583599184614
0.28350571413382303
0.26676333101032373
0.08311196195971347
0.10391187497147154
0.12503125823824893
0.10697076653294327
0.11559146462185019
0.12244529547416058
0.020530513832639912
0.05505392788707843
0.017533660746937126
0.04409218138507356
0.02592676219428691
0.013345413500095781
0.018446631148883504
0.02504899510739172
0.1210892978234985
0.08987318448387584
0.07873769558821009
0.05988210555497034
0.21823011674317386
0.19103793482106582
0.08863308386487187
0.034948323420294865
0.038277817055197026
0.06867768177231856
0.1256562033597113
0.045260655746375444
0.04402897459436192
0.035954363494010017
0.12626204591762502
0.0634555777784592
0.046810085541544734
0.05314548875819391
0.0683270748946135
0.07078256788069075
0.07766242886106232
0.07789395176454367
0.07958492888284498
0.06699210090325992
0.11980656930612164
0.07654805349913764
0.16893724167098542
0.09108252936437553
0.05275978070092941
0.03979923136052721
0.03199199281600211
0.0498382459799379
0.11275306155177288
0.07101618728322764
0.0734951640463446
0.04218313125914965
0.06781779058282916
0.023697088762399218
0.035499843026069205
0.03543611021946317
0.0738718709182373
0.383776615971908
0.05194941842168183
0.04003579946517015
0.028028866241822447
0.04359759169249195
0.10155258736924562
0.08882915022393056
0.11603708286525269
0.10782169072019385
0.11741185084682026
0.1340254450347601
0.16349614495816103
0.11120413698200009
0.12145204731996165
0.02966322182184922
0.02298801924100742
0.036852209124666635
0.031822965563028986
0.02056639012744929
0.025706860885956345
0.08673717895299073
0.14705244171792248
0.14066362443946717
0.22958297053738794
0.010315532519653704
0.183546502320227
0.15324471021626382
0.1668324265720657
0.17966169592476758
0.16577948413842597
0.1395855645585638
0.19890970950862663
0.18557003565541527
0.22185823658751802
0.2037258761733842
0.23038002473721172
0.0411638689505092
0.2072948885431742
0.08991379979158694
0.07071418446767112
0.5095153754092662
0.541296162130514
0.09806658295247683
0.3156778645599914
0.5334053418978055
0.29796036690298516
0.20474221808510457
0.04675383014767855
0.09232819716039356
0.0529968776236317
0.08070075143057498
0.06353217257944097
0.12720778504287522
0.09970283007418705
0.05277330435768124
0.244947719962295
0.09485856890605063
0.2607517486543483
0.46064016715239936
0.33819170181605596
0.18061995004203482
0.16879685706934744
0.11397870041167864
0.27351103457371234
0.18686746195616796
0.3065617131929855
0.15656093993031722
0.1670162852179219
0.10219113827027498
0.14938867368913442
0.09720849167284783
0.11275547636170753
0.19420594812873151
0.2262355032304406
0.13530000889158958
0.13919421358228004
0.0968949981964875
0.19843231951349444
0.07956886364467196
0.02467801643246602
0.02007628359809792
0.008817896296810415
0.006297822175411458
0.08111034819916856
0.46989672839260943
0.27439449133047916
0.2871982991301721
0.44334909711029646
0.056725567084101425
0.02364322305692086
0.05382498000633501
0.025893835386592883
0.010473864349491241
0.02627302848734169
0.08412983523313741
0.024299606154611006
0.055387511898613226
0.4411714281657043
0.517891852272861
0.049517070813781656
0.26416748677205765
0.06494464367970536
0.0757311547782001
0.07220273346640964
0.0769105527546354
0.11959977973741887
0.24543880066026394
0.3473191307146947
0.2716225868829675
0.32749124285910436
0.17381650066397553
0.2473833772973891
0.24897693333623996
0.27949468601723026
0.07876721289050741
0.2897135851586748
0.25628242881790053
0.20614623899990134
0.08707666015459413
0.15121812866429898
0.22882926828910494
0.12984902228602688
0.09919439600364939
0.30928403923600717
0.07781281557712902
0.0646406388956734
0.1221646497020136
0.04680324640720227
0.19580198501530807
0.11253827423811477
0.07572359219633673
0.10624997987383322
0.21839894654992098
0.2771766135864504
0.031093411735896047
0.042444036342472895
0.10628682786199387
0.47857251401703776
0.044530599809921564
0.06117437355654633
0.043388555212055376
0.1934601052407466
0.1970105681580776
0.13785356295460852
0.1175109522964757
0.04588865969386631
0.129755047609437
0.0379236998853915
0.07160749092049931
0.05102155114978432
0.03107278330220799
0.11117618049306985
0.05382499729214023
0.29496568753917674
0.27420405792923014
0.354714735084669
0.23320761231269296
0.40158403619609895
0.09949044658797324
0.09445974124865474
0.05031545256032346
0.040901220495847226
0.06265045781681022
0.19908274239891272
0.05464493718174467
0.3254375383370217
0.3873163008678409
0.36950850665647256
0.23955691377012356
0.13889051947554248
0.1395530723222326
0.2804787065702291
0.04174953398148757
0.0651610460474217
0.21450721216534566
0.14407658780784444
0.11134625070913659
0.17855196345878638
0.05828597555076331
0.049431987998384996
0.02575453981559566
0.03684193055461536
0.15014218482380304
0.2729359532097875
0.20459797331319163
0.020980375848865356
0.02134278247856144
0.2577861110652691
0.24147235284726315
0.09469507786068374
0.24622291695973436
0.17990825457919304
0.2991915704696257
0.11361866879696066
0.1556299276270426
0.12476136218318963
0.2671375781672287
0.2747403814287712
0.05523347196302888
0.062459771079946866
0.23486915800289251
0.1179777687393504
0.0854111127679843
0.01697737620153532
0.11987674645047798
0.03374824622251682
0.056352914831298756
0.04434602157661778
0.13113051275712026
0.05200793364141119
0.04290476368877313
0.10855567582745784
0.20175892087006483
0.1317875863809143
0.10526474215385138
0.37215453169207385
0.05715942549293327
0.12095861388257804
0.1565608340425242
0.20471328628783172
0.10843725734329311
0.11783197937372292
0.09382108338885761
0.06281139613743719
0.04400259914524951
0.09489854291079429
0.03880934888910345
0.09660623008389654
0.04885383762048292
0.04121555498498651
0.06388876433177709
0.03739895317606069
0.06533792070149583
0.1503284893561253
0.07491883536792208
0.1298044934486685
0.24359662949985741
0.10614347284286832
0.09928304682181005
0.13404946317018848
0.12115237854965091
0.10779009796792274
0.0587579597617739
0.07759975868979173
0.11432807218840771
0.08575705422793471
0.20952768038519945
0.13151655418158217
0.2178945571298823
0.05620679293278689
0.31259713507302433
0.390756510732698
0.2737480872877623
0.09789645013511952
0.07048730995845806
0.19111187217485173
0.11450416070369189
0.10975027685358996
0.03798113263447437
0.08074703422042843
0.08320531236987269
0.1131587452842238
0.3295145554540676
0.05484421773841611
0.020425417328777746
0.02639624159576804
0.07635424762472058
0.11209842632203906
0.08631465415428335
0.17085978960986736
0.34876782769546133
0.04772788013522182
0.09251760325508439
0.08413112569077763
0.08540445450780922
0.11235361269433879
0.06537127907183295
0.05678662522954024
0.06321759548291855
0.06350999673260771
0.21871531424054197
0.18005261825104382
0.09297826721325526
0.11195301429070573
0.1481748097448285
0.09802467235752452
0.07419735191840457
0.045624552436478207
0.0242010398786125
0.030386633580956033
0.02856379728629578
0.03328631076909003
0.013624327565034372
0.139189875982136
0.21432848179007163
0.20172259750037444
0.14802516191903708
0.17281118687505642
0.17831096483268546
0.10480922198539011
0.19989187795307084
0.21869306447523199
0.24374947746620845
0.2301555765457974
0.05638044621300951
0.21635681468937976
0.034130336202465986
0.05084861607685621
0.062323671645837936
0.07842283343195741
0.07366187844376923
0.03873888165120385
0.06086616467268003
0.03112920507101497
0.4054462404692639
0.07256202923368146
0.03752583283401285
0.1654628906917378
0.058945938464511655
0.12348911810221339
0.10209952380213722
0.056579780280308446
0.07162378446112197
0.017702928931575802
0.06706582598098323
0.037743003365588404
0.004031066303283979
0.02314438245084893
0.08931925887740508
0.026911431819681513
0.28182479288435275
0.148759526261446
0.09781460849144212
0.1813691099427252
0.3019229288651006
0.06877390242849166
0.10950514460341047
0.36145210677268075
0.14693085350525364
0.21385401911251029
0.08456443385838594
0.0170121632404611
0.4859888426617908
0.12187462007685805
0.5799313838188792
0.10493590275737474
0.14797610012078594
0.07838487587571888
0.14905278504050204
0.19141646931015896
0.07995106515626549
0.06321524882654143
0.09374203529894536
0.019183114142106997
0.021940611695664747
0.03291404779511329
0.03068468215132616
0.08798825646390429
0.07231626468459923
0.03391097856747947
0.04645887016174965
0.05800331881464968
0.045670865249530235
0.05373143244827211
0.048884804566302294
0.04614840478592403
0.06558384899089824
0.07833643846836391
0.03128965451192907
0.27931967942272545
0.13521337188599947
0.23207752720348096
0.09202211216349417
0.09105623547607106
0.14979714971279398
0.10942196150062129
0.09841951319420876
0.04123746806586822
0.09909709057566433
0.1006150795069439
0.10506642662040554
0.206537796585406
0.41798513782931473
0.07382043380799042
0.29312883243238547
0.30559689931528394
0.3948493577600843
0.402291968370632
0.4215159180238434
0.42932675090237843
0.1870108854380467
0.47453099537263393
0.322564140977969
0.22891380272335504
0.47356369698834944
0.04087973453073245
0.45701207443873665
0.19264157592538816
0.3155118482142
0.1927131485614527
0.1245330050840157
0.16585901971900105
0.07277390458093996
0.17234681948649536
0.09799719605694457
0.22967653673462066
0.18152474914142894
0.21857164753911923
0.1418672800292198
0.21986800075309393
0.06908440452048872
0.18131596104052125
0.08256071016919324
0.018977525484051645
0.052457256782133706
0.05607378719752684
0.05502732465510692
0.04242462076213584
0.0103623567109863
0.015020376608053332
0.03365195497924032
0.03486185396393804
0.42014025388774345
0.32867813668212165
0.34847731916492575
0.26120257965391525
0.17182060777934186
0.0888239950354518
0.04878032555467718
0.018186312759412206
0.02821747370506219
0.037341133047498185
0.06514695304242034
0.12303371597490056
0.26370629579344707
0.2075332506695161
0.12462845530112522
0.06458107164448777
0.14594930472429918
0.04390078183251346
0.2804538408170357
0.3821457196286384
0.2016910966104927
0.2932475950341238
0.22491203192977258
0.20294617693451755
0.11017625335084397
0.06352550117816398
0.33254004383945623
0.22266618599377433
0.16289859154886835
0.09727982407095317
0.20238222718481758
0.06986345298384479
0.18844992163758423
0.1075662015296318
0.07925404616243081
0.07328742841972487
0.11313136921404408
0.215193438553316
0.07365444093826368
0.09203955390026732
0.08887076208566237
0.09543851286039484
0.0331048353477268
0.02088374755709924
0.013666587657568119
0.01970448741852185
0.020182917153286233
0.03410220023842375
0.11022594816319363
0.08524346634526446
0.07166374852627609
0.03554520961523685
0.07755925753361252
0.081226522145554
0.09171574271202419
0.05947446736462473
0.4498512651985199
0.2389317973044043
0.18105258388954673
0.22154205103515168
0.08715947673080927
0.1714118389080993
0.4262301631784392
0.1138853046763381
0.1259088344977334
0.2686848764033369
0.04791804457564029
0.17834709754872535
0.12923740681889495
0.11622058552316217
0.11113662131650195
0.147439016807963
0.14991966841882062
0.05177108689105773
0.11457740178043173
0.13608110849849495
0.21209309295131235
0.13946859459208863
0.03673146964491052
0.10677507404639781
0.14226105673626327
0.08300074471951611
0.023737207695618236
0.04668939160516434
0.04685096574718807
0.027915185925268197
0.10148732977944992
0.14954650804695313
0.03664631345608456
0.041428254730322356
0.04897224991157205
0.06807032217108437
0.16807012087869724
0.4017671673954175
0.426453601403351
0.2516818847731144
0.12976442612939285
0.3728991064316869
0.23027360355198087
0.4195557487867356
0.30854773123540524
0.343557347225725
0.3721833097554828
0.09601210762114568
0.11344887725197363
0.10506190517002922
0.06070152421158638
0.05784289989948462
0.1802488746625985
0.0956735849395468
0.20028067764097293
0.2201906083029589
0.1557631057604748
0.20345270340598876
0.19726485588570028
0.20094618665475036
0.05253496669661983
0.32776691076393916
0.14973837279384372
0.21622062141843543
0.264045377093088
0.2470537316774173
0.28133557255985525
0.2797275277113196
0.27427840716262525
0.22497078876614768
0.26816261540690717
0.23389817777090666
0.40073297344805825
0.3733403866592265
0.3745629384663101
0.05641399172180108
0.07504578475783662
0.11106997861254514
0.0815566874364094
0.018978810640942374
0.2009908501066104
0.19334713429855205
0.2239046655145394
0.11701783835538605
0.09631623109766779
0.23136176176048195
0.019173484634314442
0.02862914151792448
0.022675726524963916
0.04692052135611924
0.049505520656496375
0.04481820561407386
0.061029207909611756
0.0830404417475149
0.0991412493512433
0.1492691385608673
0.18086184331780444
0.10665824052703174
0.087764111449011
0.10199508677142537
0.13801230593929062
0.03792956249026661
0.04274363487317124
0.23151505401634903
0.06939145215791812
0.047462929709104804
0.06629870888134737
0.17504072609727406
0.22543668043784207
0.27620611918075855
0.3311924721482593
0.03397269249055261
0.13627199579267754
0.12361867223055537
0.14810471868219807
0.0925060715350487
0.024042751721866693
0.1735219560265271
0.24800949643641096
0.2681979907560909
0.16165493112617182
0.291352730943641
0.05890143821527136
0.15878007740077907
0.06699605763949368
0.23817193309514312
0.36452021320345523
0.02594250491056435
0.010210215016057109
0.158395930809074
0.014877667703163802
0.025191661776709368
0.1622848182564592
0.24683357051591898
0.1798329134266732
0.15595281536919492
0.17115354019199147
0.11031473841989133
0.17230352534961277
0.10745374600295268
0.24372079994876086
0.18618446999312105
0.05577398216508563
0.06460130940737444
0.18317619086639314
0.14197659191619333
0.11056166690834579
0.1301068770144004
0.07177889614085782
0.1456715861207689
0.15810269730413581
0.12235609379399068
0.15042342917412702
0.11237311051112482
0.19238691544397732
0.1184492073891447
0.06112575906673331
0.05245590051668646
0.12459594325206912
0.26547888647603884
0.03516541123097247
0.16967808554588812
0.01289973159469136
0.05190500998357336
0.2375122110170883
0.11380528512542754
0.02848430680701632
0.049162038240746525
0.07042638789947411
0.12115807037700502
0.12478636609156815
0.13159583457577087
0.11951485623813102
0.13590759079121856
0.20128693404627726
0.19152278458955085
0.11891344275757412
0.053728827187653205
0.09290943480547084
0.019198124927961992
0.16849163978680165
0.18630471610666552
0.02791341939456437
0.1434697202174507
0.028585239478697233
0.1183442353304104
0.012310209534571664
0.13450642118656098
0.13401535243734686
0.11853976217044689
0.12058883503014198
0.116376570838629
0.10581941054654256
0.1309960771903423
0.21753887884822237
0.2351841126030076
0.305014535024052
0.08207908655939822
0.07923367516377747
0.11142211663964313
0.046244519446093056
0.17541576102974807
0.18242498481413713
0.12022152441272085
0.24235485069219054
0.2660070384007739
0.14835731650550454
0.21419030273528686
0.317355200101678
0.17585811895674616
0.22889010601982687
0.18230436616830784
0.18371019606124803
0.13318069809066874
0.21758754399762273
0.12183439122873638
0.1387354273117808
0.10366897566605561
0.1042139339157262
0.09606987961015015
0.02292186820636834
0.049510008671011956
0.05429675737277883
0.10368183791623505
0.02176424286390231
0.04859652786233602
0.11782102487152336
0.09805441316148884
0.0143252020834162
0.08041428206773317
0.02690531775333444
0.0968016760126049
0.07737099534279183
0.017333512744234298
0.016838627069802863
0.10771850311407688
0.02423280380663898
0.01893713238116046
0.059748459049979954
0.06580895920783161
0.04014440888085382
0.0647588157673134
0.18410727220346707
0.3214160865000424
0.27324021332080084
0.31374046659485477
0.29648288484183266
0.28594420479388755
0.21525187871893078
0.1214295330421553
0.1154741038594124
0.08963730988732109
0.23756217431041488
0.13838137242574058
0.11335882348910468
0.15533664319806256
0.10391614620141187
0.0324654791054078
0.049710355874572947
0.12633415583790006
0.05550132705274261
0.08432880032872878
0.14678040914290283
0.06457783469431395
0.07024153824776178
0.09132168670946829
0.13313534082941425
0.046896183906195446
0.05610142011902043
0.06892991999306175
0.17357069748187592
0.10564346746982761
0.07866384461249129
0.17218223472268201
0.11305689562542924
0.03378649988767993
0.2126573602314681
0.11340284813410648
0.08010461610541646
0.08429483675736958
0.10552335601294016
0.1945820319852973
0.06971396207111952
0.16263064343274103
0.13002916081638224
0.13161938026329248
0.26714252254476795
0.2269879229389843
0.11798046705870441
0.24289549148707965
0.07073895767490442
0.07388209088670425
0.29899198205465527
0.14329382345993005
0.1732491733755337
0.33027923914540464
0.23864121266507946
0.08526813564428354
0.07651879925235852
0.1337951493517216
0.044197850275420246
0.036025925250144655
0.14146110667479536
0.12202444647122414
0.06496846673839211
0.1621839996067882
0.181779696161446
0.10089441119105332
0.2882840892225045
0.050645647327965004
0.3225256225885869
0.1806131478583624
0.11145686455164966
0.12015331561246903
0.11052264985637197
0.24803065574176478
0.08022885576418433
0.22959400714431225
0.14491799300800084
0.1524190010413387
0.12300856155530761
0.13192618275851245
0.29369783953932393
0.052779186025583014
0.03369794754411344
0.1553545500102631
0.048413614987930696
0.02468147415793173
0.1257446664775627
0.09550990789045626
0.019960868417291316
0.09280751206007123
0.012957229652544484
0.018925626547734938
0.012463104908131947
0.018123261182364295
0.021337403864348518
0.24013362537079233
0.01583956972821616
0.07565970878713761
0.024526852661877974
0.0751694949052092
0.0415717401595083
0.03576962625324965
0.05899905173548064
0.07855951534109402
0.06667022411840794
0.12242095810556491
0.13138203709116006
0.03587781031611279
0.05009790942093163
0.013063550832300479
0.023335838137882817
0.5050343997482697
0.04547871942478101
0.05270917087435879
0.037569130650755414
0.20223252301961378
0.032526049221558724
0.03116120888035809
0.03197850414872881
0.01952391331421332
0.2859163338856612
0.2691595138817518
0.22862796408194963
0.16635156800290452
0.028826011219212144
0.2646379951361186
0.10842909310671135
0.1332593196884553
0.16799593588002362
0.15159933047795396
0.1387592168728826
0.1493760070779441
0.06351165396570128
0.038733482421902325
0.09660925489896376
0.0182041949515534
0.01622782328520611
0.06360119961111076
0.096204433238167
0.08966844185879358
0.29553375230999124
0.12964022701216635
0.02433649978882068
0.029581654438714564
0.19103595156418865
0.23813195713038182
0.19849759362897615
0.17327221829057052
0.3022894114935185
0.1312117727663714
0.20721614465415863
0.26343816068507203
0.06558569607961433
0.19740972385322808
0.08527189208259471
0.12696544369742055
0.1339557938169888
0.14115264916495213
0.10937381327834611
0.06546796024081324
0.1309202034779465
0.14028172402587827
0.3184427450330075
0.6899761126737275
0.15685770123923964
0.6552412302699852
0.21872630600539378
0.24745707211725118
0.14770236031499193
0.264141111393616
0.025219149911137956
0.03309325156848268
0.03735212166061357
0.028987356230669496
0.15185687061158598
0.08606465213571594
0.1035033796750164
0.04299877325450029
0.30649490557234155
0.3131860711235568
0.2712701928479108
0.25634205778611424
0.018349968262561963
0.05622267655249718
0.2601677009031501
0.30540413705063324
0.0644554619308217
0.12064772233137273
0.12900782266135183
0.05318575000530895
0.08146483616519604
0.16595568624177617
0.1419030488563723
0.18987500688839073
0.16522898164877245
0.20128783666905894
0.10104145608710521
0.2269472700193736
0.18529051217057171
0.20470517008302283
0.11894575931976968
0.14848677118112466
0.06593995152287666
0.09095736008591838
0.05008356852112344
0.16171175531061016
0.11912841977996505
0.12548317911807064
0.1566762850408721
0.20298388048477703
0.11491636427618851
0.11688838755997431
0.0856784605965971
0.15026673709707433
0.14945824566369892
0.1185725605954859
0.16687529601068615
0.08364226142319396
0.06824470942609052
0.09640430763356815
0.37618779741644126
0.01696896966974581
0.029941341600869465
0.034203359037258296
0.049182360404102864
0.16153283174376487
0.13578795322617687
0.13990293408788443
0.26869921265139857
0.26363532664768663
0.15712617312698066
0.23991030039321068
0.024814876868523805
0.17722668040938167
0.03810823062040369
0.03206121176921797
0.09017670244357531
0.07848083862545736
0.3195385576948703
0.0457624349461626
0.05495731002635781
0.06390806854013248
0.023124775027679723
0.01908604263933054
0.04905195387832906
0.02026852200978168
0.03644253563333536
0.018811987032581037
0.05221403123934543
0.10102451759659463
0.06800758653509437
0.03859360578312538
0.029963512069143258
0.18731894826887824
0.044642953041339334
0.12091390989245801
0.0537193997015933
0.05813977378548983
0.4335582628273957
0.2643776632879673
0.40733923086269064
0.20259226194135782
0.34061948523149077
0.3851236718222173
0.3677352037318025
0.11902330150679499
0.27466547304906824
0.3782104781662456
0.3157293964192318
0.27099735935729447
0.23597760863248785
0.16353468524405068
0.2698869492501546
0.23387609732528333
0.2685706881865449
0.2311269575109821
0.186487496322327
0.06232369378135611
0.044894803383575856
0.04786566287785866
0.07765094367230797
0.19437668105217273
0.04821501517031239
0.13091737093156258
0.12713993198623955
0.133829942970396
0.07178421303957251
0.11407834546886154
0.0368074955644862
0.15685302579815408
0.34154281853333207
0.15049634066036133
0.15812703786706955
0.13283639947070372
0.09530734352845889
0.09270762986673872
0.06564869545331294
0.17626635073539298
0.04331589615459872
0.19954024877384674
0.1042656956056985
0.04187380986099312
0.08688827049137234
0.051435188539552874
0.12410990728505177
0.09405937281695913
0.14109522048337422
0.02674195160291735
0.024266094793945127
0.08189559449662412
0.03487923448185879
0.02058719410084405
0.019298780247868276
0.027725457930919184
0.023666414939005686
0.03221100010155816
0.10812660359602641
0.08947664090183954
0.1009549050162781
0.08071008359395752
0.10351319519665286
0.09759077919807622
0.10243518826483923
0.11888864431687406
0.16480703604715355
0.09648296176267887
0.10195737767067954
0.0829015773135061
0.05015099217941988
0.03392550922098351
0.07442894119332036
0.25141904995059566
0.12793835621779268
0.12121907896469593
0.1007120713992789
0.11185219571012307
0.10537481400692081
0.169406982586004
0.12508133183910145
0.10987203159587304
0.21875175815030026
0.18967046135265075
0.1020631879390994
0.2083257741959008
0.19556760433705547
0.33050991730020496
0.07941343673662739
0.049553459187951746
0.05216141870492452
0.1142283862362761
0.06576048468589306
0.03969487470904258
0.21115190256442412
0.19315601847029273
0.3409813357219183
0.04835318123487665
0.026402369521822944
0.008841220736316178
0.11443338683229828
0.0507463745633623
0.022950425825577166
0.01606005071127191
0.06504687349275032
0.07172736448246772
0.05406751607439688
0.06632554613706723
0.04581690953686471
0.07618351074622466
0.10060521544680912
0.06810269044703166
0.044965818360409214
0.0762798566097105
0.06841867067461797
0.11925856173203651
0.07569652660436206
0.17364929948801974
0.09702876601880393
0.2866004308108472
0.09268440599434448
0.17886145794788613
0.12592887194626048
0.3473872714959537
0.07164335498030797
0.09171207716309757
0.3020548533559559
0.19936703933163413
0.05910962884273937
0.21956103107859923
0.21596431053526094
0.22444941723837333
0.096884996505345
0.1624063574191046
0.1182815015508142
0.0875077220142052
0.29170621581009926
0.06172587377705705
0.17142286979205618
0.144013922438757
0.06246829515997363
0.19553865832511055
0.15887679991863843
0.045842829095876975
0.038231922835911564
0.07314166126818299
0.06145216869584219
0.21960995959245486
0.04719971913821614
0.06337523066331184
0.22003293633860635
0.0760403229910506
0.33440532788139554
0.17983188000432757
0.024817281099718865
0.21707875031009344
0.24425899560325517
0.2124004525417311
0.2590066177107751
0.20097106455056213
0.21391355986157043
0.13970126651989578
0.18738532457279605
0.16461276988005555
0.2017540961983776
0.0679722700236762
0.00973390609322786
0.010900084337903803
0.024156398593771892
0.10620505861964008
0.041298125219857366
0.048888860254472186
0.03756540702002414
0.11469093555068463
0.034614660076724445
0.04235254173317537
0.061905005666129234
0.1714325325867437
0.18413094034240557
0.12467495855234959
0.1731475172500669
0.12174678103140567
0.1390209403626175
0.3431028707658386
0.3035132097394608
0.24500313108230223
0.08077049701115328
0.25902277910521776
0.01882186208138121
0.3666595570670949
0.3324548725375559
0.08472472030251203
0.3961341470765698
0.3874908666019707
0.16351325488395044
0.31979069667098403
0.3662720602794519
0.14119127576796942
0.14173566116970823
0.10817594903182677
0.12364243762110538
0.11792774055629897
0.12940809716983503
0.13401082050252427
0.14747897496320564
0.03263202425432231
0.03938831882579873
0.044550787621569
0.03211403706873519
0.05709902833709006
0.04314940606468016
0.05738845519784691
0.04073932424483713
0.21831594019205314
0.16840943621629315
0.2399266096528208
0.20840743725734723
0.15418960650756017
0.13047942721886033
0.18048722291227573
0.10542393540175321
0.1640580615804042
0.11891239434641077
0.027961523866177666
0.05996838767674868
0.0810341860476544
0.087945001331148
0.06078082782793489
0.04378388104025834
0.20536228151924354
0.18952010027716124
0.19360773440449874
0.19496212345222
0.16767752144431294
0.07317179208612967
0.1488029106566425
0.007610279779263293
0.008215730426928969
0.1755102211857848
0.012424627579767113
0.010423011349383608
0.17455349088587166
0.03501872190148555
0.2515990404467315
0.1536822523678696
0.24113145897004684
0.3112860027802853
0.19818714599655893
0.0689994351706394
0.09932629400860957
0.20715387002300503
0.09177389561948066
0.11358769967507326
0.031008448653298194
0.07581100702707101
0.29389578899379615
0.04766205205414778
0.13563937950892657
0.09761332844616165
0.060132302436426345
0.08385111652534208
0.19631650509816753
0.0020356926558808344
0.011516212692641196
0.036884016407393895
0.2645875845958968
0.016817489934904346
0.055476835472113496
0.11591733175528811
0.15771548451054473
0.023748773135360057
0.019909024903107857
0.02648836294127084
0.34013217166037635
0.011899955717084219
0.025957044987163683
0.20727841740645125
0.04049703999405948
0.14785256999332128
0.38075062527268927
0.09835802424751244
0.23723640342223498
0.2226470862492965
0.17205474889030004
0.4010938917736195
0.08405575204090734
0.0863055375426661
0.11077998128752228
0.08775173693676613
0.18192543391755073
0.09702139011168597
0.09313336767762925
0.12759947742656688
0.13546231198718417
0.07850438115387025
0.06904355836778366
0.21560524759628646
0.0453609213368394
0.13090986291581377
0.10576664660081198
0.16946811726204805
0.24202615471854133
0.2519266107639734
0.21120247905103237
0.14695837626812122
0.39554072048930017
0.21047079308405459
0.16500397523564633
0.36679559202446005
0.18692992383407026
0.11957090636681134
0.15988028921228747
0.06220859543608034
0.08178253477052394
0.11283688728341648
0.04809143675192505
0.21554456109988257
0.11419479327809963
0.22171758325630467
0.07837106985725242
0.31690664585632233
0.12489863706843793
0.18630203365869252
0.25584046101921576
0.15907657281636545
0.28434179366641293
0.22551103794400035
0.23497357226261456
0.09320753165488109
0.12601280210677188
0.10135018450222387
0.2503900438993758
0.3476660280222913
0.17668130012262542
0.11434305281756472
0.09362083028123692
0.10551967756407649
0.11577913834901053
0.1069824062080994
0.1263373523376211
0.0923533606308734
0.12626608574700965
0.05892618174760018
0.06567507271679428
0.025177182726086184
0.03818298849339822
0.20457477341671074
0.02700052830572984
0.05238039272376712
0.018279215096936578
0.009969247953418844
0.13358464901183092
0.04855837253037727
0.1806171002900328
0.07015894067154593
0.10611105651090041
0.10311656044912597
0.023049642844875696
0.037915084632100755
0.3117652247362393
0.022785405587551683
0.11570424586999939
0.10105450638642223
0.054935139510539265
0.1812060162355418
0.05605355976094186
0.07747873090015632
0.09745014140491813
0.14299662979648248
0.135317905797653
0.06046011225022212
0.06352957360937117
0.044173213408950474
0.06420485022982939
0.024816938266806556
0.01941514334247736
0.031155114371285875
0.0739452584104749
0.04463370308127418
0.042723907635991674
0.04818625669034391
0.12145247463185298
0.20289531860160023
0.14024008064074645
0.05271285535777471
0.13835678044745933
0.34435657496589256
0.19022812314712012
0.09770406178579313
0.10137179785985499
0.2671613465431515
0.22789369192015907
0.055717092660877376
0.2569549191881178
0.20002969753612723
0.1365181233549952
0.251020918053228
0.27335009141020966
0.21688300519886958
0.1231452538283702
0.3277409181562417
0.19397954533649614
0.03807137503274544
0.08505774130770545
0.045760503300408185
0.049829742757038144
0.08809531656521608
0.030756346426109114
0.03209102453486742
0.18896675612685618
0.030607822968480306
0.06871531090425796
0.06521903519794998
0.17152976030497197
0.03736391324167662
0.1920402324165015
0.04225947832838558
0.17349246627844647
0.1443260516327866
0.57971566931321
0.276676047643798
0.175203843915716
0.027474988556693187
0.041025592237515424
0.039304359002897825
0.05048776327832692
0.017354769083905864
0.024567108013568806
0.15562832355685036
0.07475765115218244
0.0817042632273061
0.21851012296663128
0.07301314506868767
0.14527896645453292
0.2695992009475179
0.047035223999770476
0.06541819243717009
0.24548378800267892
0.23743492998633633
0.06845856537994231
0.2647785491367249
0.08652765935958427
0.12813781116855127
0.28951477220213273
0.12579706988837924
0.1400138537008149
0.10996177273063322
0.14031697316017486
0.12427643564722929
0.12041506490279612
0.15432642568631563
0.12245750451500338
0.2367811712724511
0.048451116571512236
0.1326517932677243
0.1578945824159036
0.28348433039481413
0.08827345979365071
0.2650843868975817
0.08687941296552962
0.14154718561590374
0.06374034389221231
0.11971174398683139
0.07042689162748705
0.15283261152731042
0.05592766604091611
0.1862489011223754
0.17648241936862513
0.16328140142245712
0.15119608533637396
0.14138190868252673
0.13645723240110022
0.0553380873596883
0.12282858738382009
0.10221867709731482
0.14973140538353574
0.005232670672666892
0.00588326036832599
0.016073775771897475
0.016904870978383064
0.01769630995121117
0.06672417476348505
0.1048934660931667
0.06767758007268478
0.05925897090414444
0.04748087823585078
0.07668871684067474
0.04984828098675861
0.04096100552828152
0.15573324161354915
0.14755963147818524
0.17840942794902126
0.1866857763469734
0.09487197285718953
0.14988290181983235
0.15206715488972541
0.055335407618770566
0.10030929059199137
0.05185262040633249
0.045678932741108395
0.11391301037937827
0.11192606069493725
0.06815301186356804
0.24171418630434682
0.13539113866346222
0.15293146830379445
0.2914469060563295
0.09595596430949634
0.09882370198429566
0.17556311413841325
0.20718141134502843
0.18894622621983972
0.10942600024807383
0.11307700735269091
0.1194225672132217
0.14405399904858837
0.16270076238574227
0.18018784822207434
0.06944295339924698
0.159062018089439
0.15048560646111392
0.14182940959112408
0.12686711117453836
0.13654333969835702
0.18046972878237774
0.06855809305872129
0.13737526693785326
0.009540385887875483
0.04968411508765345
0.022213558405929052
0.055066267287813914
0.1568111263817386
0.13628800466434005
0.13471183416792182
0.16724722293361355
0.17951199048847521
0.1821321236045001
0.19933881407430018
0.20044920733401617
0.18482386241725363
0.13648087332626924
0.2028061125940093
0.12842144106731404
0.2439554864283909
0.11574311292992658
0.13485808132866703
0.13847483391848067
0.12182956851530388
0.1487931678952163
0.0752800141956854
0.1114140451014596
0.5495140415222042
0.1330031175113594
0.06704185260143296
0.08642763394330184
0.06341229711542712
0.09686033124907736
0.08613186068418907
0.04456196437273824
0.08390305494941999
0.16858521479931565
0.13512976927021253
0.1932583552550678
0.13823465180978964
0.20393778210370908
0.19396393923328578
0.23846260486172516
0.24695471636265845
0.17701107688035378
0.18637554531143194
0.21229380926653327
0.059178984840158946
0.0567535153054745
0.0190971150140241
0.07504864925279614
0.03524198183230475
0.08254976676429804
0.08047644181725327
0.07433136616539894
0.08719614436964053
0.07954782914470993
0.09844036003569012
0.0978359265596357
0.16368408150722244
0.25051279323775405
0.18948825269403916
0.07212971428432859
0.13554437734029118
0.1255036232628227
0.07473494726087931
0.16985104166674914
0.07614789274972125
0.1026787000524104
0.1074699303295876
0.04475748486100402
0.025030313991797094
0.19151793063375824
0.04286579589315754
0.2008751040729737
0.014165063668689071
0.12326172681650224
0.008175158538961965
0.26146073392041663
0.014916747258173903
0.2503763338861398
0.25042222511580486
0.20613318236535338
0.2726933250494296
0.20029589493909167
0.21721019870791708
0.10272261080029403
0.15859450008068104
0.11759792607766831
0.0664195746722983
0.1106522617324463
0.17247555867700723
0.14222447505558872
0.042875932088994276
0.05652988141334396
0.006940490547630388
0.05962690602497539
0.11003553370580767
0.09556692105939779
0.048530724320137775
0.2676529725702274
0.20010406038558212
0.12098411436640458
0.18526360738285255
0.109349774867259
0.33418862046031866
0.29945690494413235
0.27002768526261217
0.17272756959783117
0.12942294120604783
0.22414895670500382
0.19290579559050822
0.23658244793835714
0.18163644638652904
0.3492992355113289
0.28442792216273205
0.3416797312612164
0.32672568701732024
0.36041036944190186
0.20632039231218097
0.23096318986704356
0.31029125766274396
0.3651854408463472
0.34326467498813434
0.20690324347063405
0.31004267063413826
0.20411186920757765
0.23447197248031748
0.07124307000454709
0.21233415445332476
0.2460914970949418
0.2191303692664353
0.2604442653713022
0.20276926722628708
0.14436802537230534
0.3208665882518815
0.08396547745693593
0.06715382337106607
0.052560360249068044
0.05200650378031766
0.10656022513721207
0.012190200622347984
0.0763796161483668
0.09952808160188613
0.29364996522119796
0.2346764352095857
0.05537245806973339
0.23639186093156603
0.16436284069768128
0.24808531367308279
0.1274602861311029
0.16316287746756383
0.15936659228734953
0.044971542749112955
0.15172253064946442
0.09607975722218262
0.023638319815172955
0.11102582205027062
0.09835699467557553
0.1183332136575811
0.1141915779825114
0.11652643807317058
0.05422342784758282
0.1323572453397795
0.16206183698284798
0.16226874361257732
0.07976435106517611
0.02436729023429102
0.3430853551162892
0.24459979891955422
0.2844935868797292
0.07862485849398336
0.06985285046565753
0.054596817542650306
0.06289826626255367
0.09139953213652721
0.05337401852335988
0.0953567825487162
0.05967121836734316
0.14473495219281288
0.12034997212606642
0.4048953171609714
0.2979522167293016
0.41583477969042826
0.26754120878414384
0.12361330286029501
0.17046577310492123
0.20993778813143746
0.13223017089079825
0.11917968841922143
0.21180930923315805
0.059434986703987905
0.1721913148447845
0.12423912778191572
0.20436212805122891
0.09271693596972193
0.041812232241015726
0.11416342277732185
0.03189963245076776
0.04796188011360726
0.03959276146084173
0.10232977604542394
0.2185588547140996
0.06568694835569645
0.2122883609416538
0.10608087687397089
0.02793692914938263
0.12235773873440572
0.042095092229927265
0.05019021566527728
0.09529635885362392
0.13616105154885239
0.06533364123321454
0.13162513659318864
0.12240099207814599
0.01166320723436911
0.061027246299874785
0.017284706130570326
0.04956994045227354
0.05593967821474646
0.009110314617819637
0.12046929178902104
0.053589795519826185
0.10909399067740654
0.24264044322172285
0.12337318321282126
0.21511437615658813
0.2093760873137216
0.235998411740293
0.1985234294769989
0.20082265609261213
0.2697578694163236
0.2594771809256278
0.17916485864440138
0.24795963965813717
0.2689555647312024
0.2487572955490197
0.2504237815850992
0.2138454973256025
0.0558505864224733
0.27133090236116614
0.0599334892239387
0.03324275855592926
0.03871229818685335
0.0377983418182677
0.041651750497696455
0.04583985694026947
0.3083919877612379
0.19948971063442011
0.31927275425881835
0.09600047985526183
0.14494546351321944
0.2305622786747273
0.0684345457245724
0.22080777999345286
0.11369947262608687
0.14980270773479723
0.23274275604470518
0.17302809829792715
0.14046761448838985
0.0026739910705057632
0.06553997919730402
0.06896352588148143
0.05733841805478269
0.06069971743120333
0.0585864311182057
0.05253484907963204
0.0906888746439681
0.11211492780135145
0.13445095982529862
0.09540326750832771
0.031199657018659347
0.0631245146810094
0.03267786671465901
0.0374056994304434
0.026526444755470672
0.07231670318214162
0.039451416816035326
0.22682250325375772
0.09854027099085594
0.27018205572548154
0.051625964703998294
0.09438518312881158
0.09980809943219866
0.0968839807362258
0.08884790944509698
0.11615840837792832
0.468285280262951
0.43085497842967124
0.3218557378624236
0.26264635180654144
0.3255917557618203
0.4454300929835487
0.4944343751084397
0.09840435168030312
0.03945147302431984
0.0588799448821621
0.19728148976174353
0.14540640174660402
0.10598549506093435
0.19965863769259526
0.19277751702973206
0.424136420372918
0.013631402635558856
0.31469162470447853
0.18804221120018785
0.3323609294419119
0.30143781347301907
0.1338273602613024
0.13595965604645519
0.11904316390654358
0.12293908789162565
0.2303081111647695
0.2062272865513083
0.11418675822183187
0.12658293286265554
0.37024936013869986
0.14002380290391092
0.10021793020635458
0.08259171119551109
0.14206990082198304
0.11961569025984076
0.12697337598503508
0.10591215757048607
0.1513539588418263
0.13875759824073308
0.19870415414552547
0.09527057504506332
0.08802216962590152
0.45198413825343237
0.14791394306119413
0.18828861218037604
0.27003182541487336
0.11238265805032341
0.07692080753724741
0.2986114629677053
0.058937964636634615
0.06823244044031523
0.02523380892208091
0.031471551414938806
0.02745678683314056
0.052639044491013996
0.03891833089235376
0.2605602569415778
0.2646187653206595
0.008949721596840182
0.2516970653150473
0.18326878251427878
0.10613265830771228
0.2556638751562783
0.27032669539998616
0.15431197863330595
0.14961681836964624
0.20512128458016138
0.16661629916059073
0.23119350698808083
0.12061474407839466
0.09159227309486913
0.09838774183135378
0.11945511499202435
0.30520710401035256
0.033873340778375574
0.03544701839368587
0.024858255334749998
0.03558903293465919
0.09723261273005325
0.07426231026867523
0.09208884796217484
0.07757204321510434
0.10946542908031423
0.11331882450358623
0.0756144899247626
0.07458880363627282
0.16106434303182046
0.1391203897367196
0.1299529650198217
0.12558410125759
0.13710209177458113
0.053634051260974626
0.16665569624420987
0.12166533088221614
0.09623449951013165
0.1456028454114009
0.11659473235601434
0.21999332799543303
0.14808428650012465
0.12732091618204006
0.16630187221276105
0.12285431556833558
0.12801068880168934
0.2081119694690772
0.19233062215953256
0.22303466231628685
0.14095987820732958
0.024531875008875614
0.04443903406985397
0.08755127528666697
0.04934013786770661
0.03868566966962453
0.027285860751628647
0.020393640999912692
0.020359487041275555
0.023471444386759195
0.02144934880060779
0.026176874289659657
0.03218202747525327
0.02605033550772416
0.017332500899670145
0.22463198053038066
0.14365925900068
0.25864197236397823
0.2559804559567839
0.00978642736345639
0.017183601541975232
0.029249887944940437
0.04416606241351869
0.006446499874962643
0.01998021520638903
0.09648698816632387
0.07369124198713531
0.10992642416390483
0.0709472816762841
0.11269029116947031
0.023393972701867893
0.04248156807489074
0.0852052217490132
0.10301050083038142
0.10196908950878913
0.08296489536331442
0.09020652644503958
0.12662902398015105
0.10871975234094924
0.054633177849168595
0.049513558851066244
0.05049188908274097
0.12286919095845074
0.07868409071883448
0.152916719723358
0.08104349664848566
0.24770163822381353
0.0872327334557164
0.14390956344659514
0.07244154466823277
0.43637898788903134
0.04469448698291262
0.04488161215401234
0.04453066729736817
0.03659309200351126
0.03597429670210958
0.2235212741655203
0.21793391397192838
0.2938126490632551
0.2981131155472114
0.3485359574478431
0.0869278201040122
0.17748957797537523
0.36763618941043913
0.14873339414594816
0.05856061151839512
0.17317468999078814
0.04663758397162751
0.09595308951481907
0.11874277497009067
0.04708673578215221
0.08670523967146412
0.26783156822157544
0.11880820315970689
0.03347231264766845
0.07944942195928527
0.04803128474722784
0.05537965228457814
0.07153050195955958
0.0767019015253442
0.0355380280813407
0.044776468864051296
0.0266998940575612
0.026309709582236152
0.04933946492897867
0.04383671246604349
0.031303653772268604
0.13235769821099228
0.04628015315619683
0.037569431340118774
0.06415757188989747
0.037316528400230926
0.06487751120872216
0.12851242867543455
0.08958127048622504
0.13762077256788088
0.12569582832782833
0.034763560249033536
0.12656986338582904
0.11821858394246165
0.22315285201493318
0.1309211496083885
0.16528719030150052
0.16737329627272388
0.13545827109723554
0.11785882803907226
0.12920152053155803
0.11681583042363324
0.1348910244661554
0.08783267844181172
0.11543100156748637
0.11132355085534731
0.07307715282164384
0.10066609475398391
0.21135137003379473
0.0864484037136265
0.11790378867238926
0.1566513932100937
0.23208943080205086
0.17609046699159456
0.16754642240850726
0.16333229122711632
0.1084675625437188
0.14373843785343596
0.251720206325446
0.20916964720581596
0.09217885785285623
0.12410566132149281
0.25640699436254427
0.045047783500718155
0.151569757722693
0.2712744878367837
0.26113365136014927
0.2696860045817225
0.45628078008378836
0.09374867448276918
0.0553165304544897
0.3839821604057931
0.07674019587919338
0.2763106956842887
0.0774470117888378
0.1425929993862442
0.1559324339377703
0.16473673588043306
0.16411997093147151
0.1931905305584878
0.28723074079637717
0.23181420845059922
0.1857732548106389
0.263820686873664
0.19090169810550386
0.3181264656928039
0.14686883292015093
0.12323322299801821
0.2044949031795047
0.14121665720138052
0.21204994641622482
0.19681521916059552
0.1715913908091241
0.10856740990326122
0.2230919163746187
0.14047706425216477
0.1628837337781847
0.11090834738586797
0.1276781503261885
0.11318090286583948
0.1328909670287263
0.14709823040037948
0.18375801651776955
0.2859801326120725
0.1611079920871251
0.14882049863283947
0.24828388807161184
0.21424262766194666
0.0658146840841823
0.26443892016906956
0.2897375679211403
0.05885501956134429
0.09380846545968316
0.13871632395317327
0.04729150732596624
0.046181026919071014
0.03789054010788294
0.12182561637985388
0.2812032002110234
0.11921358914911716
0.11206755603448011
0.07094479432635142
0.08962071393569025
0.17461851307696263
0.05948062501637692
0.29210559429439736
0.06887076072498119
0.11947831392615303
0.19120501473299872
0.15703676141353706
0.0507088366940578
0.07774524487463688
0.06394494525832344
0.025982010782687866
0.038249098937852354
0.04960834465935341
0.05028032180361444
0.23050331307261596
0.02048881809779399
0.19196210760644802
0.014551886980075899
0.03724791651101751
0.307314021853741
0.3547196751678894
0.304424501664525
0.33323729267069685
0.2709634765482769
0.20927601039625646
0.18164285505389002
0.39631746229322884
0.2274931059651756
0.4755490285706757
0.4637675401825558
0.26975769693062746
0.23395379680866832
0.22310379533097577
0.24108169666539303
0.32827246320638437
0.2166164261831009
0.1987888025940671
0.26395153039020564
0.26443443781370085
0.14547234900716247
0.14398789012544477
0.11873554680560543
0.10361525912073564
0.03221787638713854
0.029031799253587145
0.027538865076582653
0.02243315290249331
0.029158724638280283
0.19813590539796372
0.017799563968009798
0.03686430062800807
0.11043204750715836
0.0993985400139401
0.03253670774736646
0.06154660697659425
0.0796009091483672
0.3302067421913465
0.31491953724640315
0.3417146217474253
0.35815415789993105
0.12732503403572878
0.1930290053642956
0.12646083546148656
0.24889039883462083
0.11973764006365988
0.06387919924019575
0.05444299308659692
0.10881470242093368
0.3464113480529107
0.3572185387770554
0.3105922508016352
0.177626015984536
0.16198452134461397
0.12936896565289469
0.07786617422735055
0.06519083771754582
0.2417316401763618
0.17591648560103046
0.10500254429594585
0.10906848576343368
0.10995838466760582
0.10261046476649315
0.10705251409481698
0.13213026189007565
0.04036844403756032
0.14189340362671485
0.3356503388049083
0.02628029808740747
0.2865188782626708
0.3632820711426432
0.23547391292645778
0.09775865995464243
0.12062211872174984
0.11329923464264113
0.14609993759515408
0.12196489649265471
0.3897816058975154
0.15526891647051164
0.32853017918880356
0.1472398158386317
0.1460598902861393
0.14104929132731536
0.11999424365925768
0.11898522831521802
0.12615201367679446
0.07515561373319307
0.3230889246506523
0.2745442743150583
0.28559746059657226
0.2967894420033732
0.32154942869711534
0.32201941881006524
0.12211841315673436
0.2761782481816942
0.10643449700488558
0.48546160877668665
0.09424876879376864
0.5468199089750995
0.45777713010423804
0.4512883087216887
0.427304107293891
0.5858600016468462
0.030203680824811358
0.6028168326372808
0.24921491415793315
0.1867987730383615
0.08087947791177307
0.0475166793601585
0.08852100640074567
0.22464332741899434
0.2036014822589687
0.1873445601159854
0.1279835509434623
0.16858471732040037
0.155509874172169
0.1575972707663676
0.16469003979798008
0.2501223373793909
0.260461357682468
0.3409713625203371
0.22578056336894792
0.2430797578668237
0.3391830952639584
0.18016171248602836
0.056148166212308774
0.06429299330552511
0.03627893430144165
0.04617986725704487
0.306269714475414
0.1999052687044652
0.1791293052414681
0.10092249361069924
0.23212953214401508
0.2119281356038649
0.17613352947215014
0.15204657353342851
0.1939248884259227
0.0336923227809442
0.11651370463860995
0.12041034096412696
0.024016106215389695
0.1334928706894071
0.015841191791227904
0.08608647203711735
0.04239860927604502
0.16238107241736585
0.12562197968088948
0.19989771425949823
0.13823269390243342
0.19663909578998767
0.23492116884731343
0.20439844113925634
0.09343304208116897
0.09103099278404213
0.13563297310572503
0.20392270225629164
0.14431222137645883
0.06612818091047515
0.17343888120600662
0.1273572471798689
0.200671886150908
0.10397379567346839
0.5665157589378109
0.4715209288984965
0.5576764687116063
0.5202701121410187
0.47194425712713006
0.09938332324943057
0.05167642116922771
0.08980389465721471
0.07089591713846789
0.05740924871045752
0.07981605435463927
0.07214288107095744
0.2548928647779757
0.2593961763925018
0.13690168544944192
0.09923622408947531
0.08071260043879852
0.045577934180762336
0.07830362840372616
0.10757695333806129
0.12143397599658304
0.06295139706262536
0.3839716132667181
0.10011572693511142
0.1997519839730127
0.3145471275873472
0.2455621073622163
0.2972769770471062
0.23629248439845257
0.2782112422191169
0.24645870323669947
0.17611640669788817
0.16808628274792628
0.34039737485479343
0.16794296863136948
0.16137461272512443
0.2240556737781167
0.05579375772240976
0.07336160372765001
0.10344479762338116
0.03682140476491953
0.04509470587686433
0.05590579805614233
0.043861402868682085
0.07194324823519412
0.041189703511150595
0.045169858047725164
0.06251558514720554
0.0647176378138741
0.06809065347165669
0.06666696103625254
0.03621908256584547
0.03298968222980255
0.10674045902119123
0.039566027437473665
0.13648930641910637
0.1670815468697121
0.06840285707591316
0.282284065333225
0.12109405629619283
0.1476658975950681
0.14268915194640444
0.12014891324035182
0.13007840587828612
0.12009887269998401
0.17287230561859215
0.10641215050124586
0.10227094646529905
0.17946030625803147
0.1738742618964261
0.06220842600280333
0.025927818161773513
0.01568406599751018
0.01695325133873249
0.11013122192060337
0.28171891806790744
0.20863625508748654
0.23049940363400773
0.4272637077463905
0.1640000114910754
0.11731435079094174
0.1502100004420538
0.09417248008615575
0.1542790752337747
0.3055336711619269
0.05206705998433155
0.06818197571165392
0.11734739355695199
0.05669181354112311
0.08626111559818496
0.18106764365232206
0.19346157736201636
0.1675917622608401
0.013491123499628728
0.05284080284585695
0.028531019582456636
0.04832106605314912
0.062345592044646195
0.04883238771630686
0.05575992920074908
0.26760145753818576
0.27705075726844136
0.22881395820161346
0.16999852069503918
0.11430653743924667
0.18272112763239456
0.06175999475287805
0.2275137036325748
0.2585084631911072
0.27296597444548704
0.15372672389547845
0.19233742216439104
0.19564281325040508
0.46872137520207574
0.19248997708971768
0.24680715527599123
0.3632404496085059
0.1664670701309533
0.40030421573236663
0.26383257741813854
0.37970529183097756
0.04301629506683801
0.09458599210161492
0.052726434779427955
0.049196875798742726
0.07013851007937774
0.3950594136805157
0.0965801429229492
0.06411001339638261
0.14883682681028282
0.1629790933537907
0.20532523278056486
0.04533168017789384
0.12869697778928915
0.051359565135121577
0.0875887304742071
0.16028704347814196
0.2276434470603271
0.404234561792705
0.2638657347265254
0.20652019108076844
0.3621160174209112
0.23262204883342716
0.1176596718332039
0.11906848682168061
0.09233562939815984
0.1797617935618145
0.16135667043857957
0.34776379834864657
0.12103810151949634
0.11255847010881641
0.09130838834433105
0.087320216171117
0.05536820532608215
0.04435973340849159
0.13494922096011996
0.17306486744830252
0.3909615541871791
0.13319644809869646
0.04991332469688608
0.032557161292583486
0.08989621621624529
0.01990362286434829
0.2476477794052342
0.17471425592313294
0.32267830525537017
0.3447549247255008
0.3198268240129846
0.349131568906104
0.3984585819538051
0.08275003167271434
0.09860931878599195
0.12723506660758765
0.07816853493419067
0.060340886981179044
0.07598795563087421
0.0740517784631955
0.055284291939130925
0.0690703580042279
0.028415570322596652
0.17001547274413353
0.10693866999821446
0.035778121353075454
0.1876279992489354
0.07642217563662872
0.04726529129861009
0.3467729214486768
0.2091483154852111
0.2005621769869773
0.21674029104496215
0.05335487596794594
0.09507467318450843
0.05997645879791477
0.2337488404971065
0.14162361131959234
0.24413824456455854
0.2704995742954423
0.2402037983052745
0.15433281211939112
0.16517717131706836
0.12888237679111117
0.11492553711040691
0.11376980421965699
0.13631652952492562
0.12118879180153098
0.12789320639123364
0.1807932111280093
0.11519265491252097
0.21534027473035308
0.17284894933287379
0.15956233904707662
0.05491303919792127
0.313257206202682
0.27945323394914134
0.2561200181535921
0.14662413783612913
0.2844833738500962
0.31889303227145244
0.2371154351650678
0.16409969310631384
0.16232149425971515
0.16955162578602315
0.2174709734064183
0.14045140533303926
0.14252533069017365
0.15200958151473684
0.18514067611759924
0.15620639301447634
0.1758890371971521
0.3629165824790126
0.12630346012564447
0.2592905004438371
0.21719007134176685
0.17327306360010772
0.09780288735682013
0.07106093504726362
0.11297325516662782
0.13052362969843026
0.23728478207188844
0.13678576632141054
0.01809364982389235
0.11368552539181231
0.17561074662741968
0.040455333970668916
0.06505050350803564
0.42989255713149654
0.3964915629699176
0.35446683625503894
0.3671462927380374
0.1329042757267526
0.1309844250950973
0.17899162172452077
0.20087238381078762
0.14046821855730804
0.13248048997180298
0.13840163434072097
0.09677702217659007
0.10664243100764795
0.050690533741671255
0.1272605255657092
0.0880539897497219
0.2692298478693479
0.26716645998324734
0.25300850921039686
0.08046517438316146
0.142384926347506
0.21332225552310366
0.01753165291920881
0.0273912867076491
0.017569946554580447
0.025288521965645468
0.03833306853967874
0.04384720527407256
0.046244330367557485
0.012829695866231644
0.008489443425284716
0.042327626053986614
0.07707510668595904
0.022825616982201098
0.007677913280557098
0.13421577391206202
0.1813228627735468
0.17169910405207778
0.208312887154335
0.1124332215377523
0.06734573948116473
0.04710630285859229
0.07272811504239034
0.05351647727399283
0.08416620102891462
0.05482826641041376
0.06439480637926019
0.050906622240750925
0.035183977241659024
0.06528825293252444
0.03852712371717533
0.14627771812850993
0.09178415571503762
0.26904786958254506
0.15907020786147238
0.08376414342990576
0.1145131844587744
0.06634752979983151
0.04997114745336765
0.046108674271953184
0.04514935892555641
0.19494640190211984
0.05101504859489296
0.060550175977595606
0.03947259108064042
0.058678462077296024
0.05821234863742346
0.0377200870109686
0.0692587262664806
0.07888813771264926
0.012654975138701108
0.03864396486714596
0.03376314316067581
0.16403653975592755
0.02091600520248928
0.05424280145717298
0.10865020057873444
0.08731723648590181
0.032782241137687226
0.07260053761528618
0.0960731998013716
0.10901282242550203
0.05290058928863764
0.05105577399461704
0.2639938414995287
0.09087951805050795
0.16062686321441141
0.14644550561917144
0.1596589065438952
0.05417716424955961
0.08077969231537134
0.0594694912334986
0.19549269377383865
0.1148450856618399
0.07389517228526907
0.07764837619813722
0.11690632527281626
0.10697986007058996
0.1044850286783279
0.11511074044668997
0.1024281232327347
0.11085647342358204
0.11894663147811708
0.10692525611021172
0.1072237242742789
0.056125952143359935
0.1954010819698431
0.13145738227165787
0.16785471363240934
0.10309551968506314
0.21346081749670617
0.034235132771644736
0.06927042488193935
0.07610274073419017
0.0672184998597844
0.06063812245599806
0.05521056705205431
0.06260255514817213
0.07212484022499506
0.06973792900657302
0.05676548071120646
0.05835571924287055
0.10267802681561894
0.135634628345055
0.15681916892110828
0.17964074165468902
0.1285610616635136
0.07086669930011594
0.13043695478775358
0.08686310291611697
0.1372249383463431
0.1508019913589535
0.09163082738861834
0.27971319177277687
0.17017034519544147
0.20419721496834964
0.1570212423613371
0.23719245081842058
0.16067222718460092
0.11067038381564849
0.06271207755249562
0.058338077451128185
0.0932372468806183
0.08945171263049875
0.07456064389841009
0.2256070612678936
0.23987685644174328
0.22416812947780865
0.2440058404483127
0.12522434469715937
0.09080270374890217
0.09287347106005993
0.05320432574419392
0.15136321751496967
0.05830652510150465
0.07614984427520197
0.025750887623885825
0.30188924516547133
0.31277011221538037
0.25776593658909935
0.27803317911255343
0.2669406018965123
0.43598417295067293
0.2483860956837342
0.13138057162158912
0.05384976038098758
0.22925210551901273
0.2973253683258688
0.13001145998618807
0.05635672195394595
0.07170024421188434
0.028897430621381094
0.03607192226679952
0.03817747288883881
0.033565176027878174
0.09163773660766607
0.05443317362619225
0.06342132390672096
0.035421271789772196
0.15733130445580096
0.06229232487782955
0.13987354506079783
0.11388217452890917
0.17021916776527218
0.12347535060874858
0.15984760025223665
0.24716422940962623
0.21492843941448642
0.14134023675493138
0.08605740216382657
0.07776953262756874
0.07765781512375358
0.0811741381228898
0.0596523678356346
0.06953313850423153
0.24550190273326758
0.2843387293575255
0.2746011616321063
0.244062594802646
0.23768573101241125
0.2202761337477525
0.2767857291642802
0.1650514849207803
0.20368055530415174
0.18911293653748568
0.20891295140291707
0.1408723020461667
0.12506341604509238
0.15241429374625148
0.14298700078469626
0.15593859054717846
0.11610098493549155
0.025841439093568445
0.1589679090241768
0.3345304575352765
0.07156544070346801
0.08875164859258036
0.08934499722608562
0.09094633034498237
0.15619919123557535
0.17428087946058077
0.28127378037974493
0.1094500050910178
0.11400041644952777
0.11273289462045036
0.13758580065683224
0.12036204624529238
0.08902257630941991
0.21102733450301103
0.0871129835630884
0.06555534742381922
0.06907398990084895
0.11401180242986755
0.1013668986619749
0.05994867552774575
0.06353677201474313
0.07518920677349013
0.07247157778948235
0.08846915005784929
0.03212881160991849
0.04440120044336509
0.04278841071030281
0.04886310936753149
0.09641707150245715
0.04089600092954417
0.04895163763979064
0.07476758586492072
0.07645577586709425
0.06922720907130152
0.09128164900803067
0.1277507444217541
0.09689038456900063
0.046228772141138984
0.03902041258732368
0.03414331313415829
0.156389103982456
0.22988771804920388
0.1762630918425526
0.22480112326771437
0.07469910093037029
0.13718942906268453
0.1344255779577522
0.13678224004593634
0.1577668784853308
0.05625622969841949
0.22371044616094657
0.2616894244558187
0.19605900955225553
0.2649668216195932
0.2607364270801878
0.24515821950002287
0.04488370027231701
0.23744709392727353
0.05513055371031693
0.011276349128948805
0.06838994711169151
0.07352102407347852
0.159714537518777
0.0203924758513801
0.09220982171442946
0.12619585936124778
0.12548946689765875
0.35601072005369294
0.12445076028159476
0.01846794707677133
0.2519721514258558
0.0889932166586956
0.007983122428075425
0.02635835639466792
0.060603042678775046
0.05242335664618817
0.115103387161812
0.04178303302934612
0.08668234896846454
0.06875668446234771
0.07180105131096529
0.12856902394390107
0.10042506693594137
0.06596439479736323
0.10582092976848974
0.4286472852860481
0.511253907744825
0.5792952563888762
0.6911153667864486
0.28774202020899653
0.43907497778722937
0.1280729085475546
0.11677235005520051
0.20890985567485232
0.07363322620754692
0.13225711879701937
0.1219693324979126
0.1382077657109734
0.32063532705246534
0.3224722043925538
0.29972541605702924
0.19474070771926832
0.21662731693712653
0.23327164029078373
0.13003890517251368
0.08671419527158465
0.07471940453557047
0.09440075606196545
0.08757550149329756
0.035108849421599995
0.07291947010866807
0.04197995683921127
0.3434150358528816
0.03313327242396147
0.07925491126588635
0.06364182374995332
0.09946286502322861
0.18688702239471006
0.22741694059950984
0.22194368978544868
0.03756463124159259
0.0736712557293785
0.05119950402177852
0.06960581516785673
0.032961872696916875
0.1012171502508058
0.3321720142444054
0.06615291491678565
0.09849769206619406
0.10300061575934744
0.034280909746644626
0.09093652395679243
0.03498841006890913
0.12739630078953612
0.008243631009514312
0.014935694395091157
0.019278940819247463
0.020498944641694453
0.11077392622971467
0.021322830461703052
0.0258175465833323
0.19104468499701954
0.10518404732156111
0.08752797834556314
0.16901110463651436
0.28860529974835925
0.11455510042795945
0.10214033197881835
0.1387286596745895
0.17916469968090415
0.045305884605673856
0.17447373608064015
0.12086482300085705
0.0448906557670417
0.06702480379942716
0.17333540762137778
0.23766154474169604
0.11002377839686724
0.37635266509973175
0.26916281529873204
0.28530504075736773
0.26082568431866615
0.0393964347261083
0.1580248923656428
0.2714117811060327
0.4086152462206138
0.21289519874015103
0.3138259952505674
0.29517173119301043
0.21049501129298032
0.20391986367389983
0.12990332809404648
0.1178748991462564
0.09005213382538926
0.28820505002600244
0.2513576364655511
0.08925170454654227
0.23521840015021214
0.221252085516509
0.38322972207764266
0.19801835268354145
0.24997074447121437
0.43046978220691035
0.31033463248854415
0.27933865650021866
0.18439786569110878
0.05528309605922805
0.21772394789291205
0.16803124913972656
0.2119197143840882
0.24595802919595752
0.21879900244117023
0.27235697355084926
0.11240431210866146
0.14227432071479418
0.15172962099346143
0.15533398535218979
0.17204240522122435
0.1189670739107365
0.0748192936029658
0.178663772887958
0.05935344905750605
0.09567276738449604
0.00506884618232686
0.12738383122753308
0.03085377507644156
0.07877125815685031
0.03747271964415456
0.03880343110551345
0.03884936612448918
0.040741071932205386
0.03032213199118534
0.036154263345230704
0.2352382678178787
0.07723851865142665
0.07713178285170098
0.15760932795111546
0.028111378272724384
0.102282794738529
0.18859619439510494
0.17395506127321098
0.1932117888974122
0.5922622713499022
0.3611944935147468
0.16622519609208097
0.035236508916139296
0.11119747577201977
0.06456020769278711
0.0696774982660954
0.07399579262212981
0.15026371478029055
0.11350959357763554
0.13187299790452156
0.038644913876001996
0.027831621202710124
0.01592312932876301
0.22863488076632132
0.1220332773958413
0.00211552239105148
0.09785395968129633
0.06925173841396663
0.02939026754972118
0.04467447354700294
0.13138573192568134
0.12080458180891836
0.11748340956155143
0.1134166787784318
0.023355974778650347
0.023703347484946024
0.06456365810290382
0.030693384056594462
0.018357150127521784
0.022055658714481476
0.029192727226648393
0.031445119327228405
0.02994328569951616
0.08011490108983303
0.09661268887234034
0.06372777099781478
0.0777006031218501
0.11485069380895549
0.17685494152868733
0.032854919314947786
0.2130469232592803
0.04119915115913712
0.05474232013118091
0.10560370981978764
0.07549716143822457
0.2796582478993467
0.2607422357737959
0.18376307923300572
0.12120202556606423
0.08743240056119918
0.04564247914078673
0.0692699347168267
0.042170727156635994
0.1480374618797822
0.16993450313612601
0.1590472456634559
0.17855971725772704
0.09794439950847764
0.17468644385520263
0.05363983789367658
0.06272163609622741
0.10313564572441947
0.09490394081660117
0.038108531218165674
0.08074830496886519
0.03586465727479293
0.19427251727930978
0.11971153053534697
0.13542935955348412
0.13523036419253484
0.19657497993286913
0.13092570915548654
0.12834147416475147
0.01948150171421854
0.09621668574147672
0.21158596702249888
0.027635356936329982
0.03011149303811594
0.06570954399235614
0.04680807041550625
0.03558191293258233
0.08138356407001007
0.034029377814643325
0.028141234655077754
0.11220299872502391
0.1580286592914024
0.12952906030758796
0.30710532620735703
0.3448904720195934
0.23759374461168434
0.09158604290517479
0.21198699175469504
0.024796040742923506
0.017636643433925545
0.02993099640785181
0.404648368082576
0.41934773427133737
0.42498666677328495
0.3863943431059072
0.16444585473581794
0.1402326114110308
0.20641201270275372
0.14929028419418183
0.1359644928347812
0.07287899219847088
0.2015760072221339
0.1543915305450255
0.1658309453552296
0.1060825590078339
0.17821352112007224
0.14931961167440652
0.017488331338125843
0.053792518467556616
0.04247539778086075
0.014992088431832386
0.2802847769281678
0.01994627388355865
0.13172285573638248
0.14648394793368763
0.23736938366603358
0.24131859076249165
0.297283685213042
0.1502378745974516
0.0920248308808165
0.25088746526128314
0.21318146343487515
0.23834236872513673
0.2667145461609498
0.03151199293420806
0.26580346755777495
0.12062590228307166
0.1452946055343651
0.2541046568004027
0.21744998597645296
0.14039181091724565
0.09500905436425337
0.10358450136631303
0.16054959350118
0.05572642279270106
0.07666049472333854
0.06172898733986971
0.1204844276214855
0.06485720728114422
0.05811444567043753
0.08115937905401323
0.03538069985585127
0.26055261801329055
0.0717804192148543
0.07747858453864255
0.3825559686197445
0.10588105774341472
0.3629846024787792
0.2377417028764871
0.340746185702586
0.3277730239908628
0.3062659069185551
0.041227205177634604
0.1387236227550292
0.07769696103088014
0.06697823427988127
0.03426338442492494
0.05802803997383616
0.435301337064947
0.36653358577224304
0.13938129625500842
0.4105487378644806
0.09801895271948587
0.08337882058039427
0.18477499873109662
0.13546677497984855
0.11926716464598835
0.10620737284905281
0.08334849587153234
0.08411338252264833
0.12200437486777983
0.11132017589993617
0.1651941202279452
0.08458101914363472
0.08632939159474508
0.11630925904430539
0.15421613713500215
0.2505260641383829
0.28054050996438923
0.16278280175233062
0.17501009631801095
0.20269308912758904
0.04611009599186364
0.10799591247338892
0.04434266077541596
0.08548460285173011
0.03303903844402056
0.03049703395199336
0.025324747582200567
0.07286961509556907
0.07208407148602204
0.07562304025960956
0.04904578415569683
0.08338819131510729
0.03104513108782456
0.025403879886995544
0.13594190095172184
0.10400259702694928
0.02565048464373251
0.08882028073661476
0.01837769082150412
0.17855979719056903
0.11918019958069664
0.11388510050388903
0.015268458254929024
0.010111120599174638
0.014079337307084005
0.020447037589277947
0.021872416679749884
0.009811621626360335
0.021772530122999532
0.13048794773511035
0.1092439725711726
0.11720134908294357
0.0704269825518779
0.11036354080998013
0.020138206622104384
0.023736856628981146
0.02801513244796647
0.0225332737765157
0.023784267158628244
0.07429735582615704
0.0738134681204716
0.10655481723331199
0.09638418679095467
0.052012195748899696
0.47653972691731217
0.030525491525994344
0.31260783481968074
0.2919022851495499
0.25675453569547463
0.3312480701024123
0.27832270761078476
0.23852975171158047
0.2599050344977485
0.2556692863400045
0.2537308708002986
0.2651725347544545
0.043735134903295066
0.03501177296761241
0.042330553932737644
0.05616439968478815
0.04985149304607408
0.0767221183293878
0.033319393443160726
0.08096210779029081
0.06176251260368196
0.07576273457670381
0.05141265785758057
0.03942642698021027
0.06768528264003235
0.060211231087241406
0.05881952043299879
0.06127901638738262
0.06627451317822443
0.14104659440681808
0.11842661673013295
0.16156579227960433
0.15042666604080226
0.10199928962306902
0.08784604724837838
0.24872529485054617
0.13039155820016377
0.04986471942291446
0.107832471260656
0.1245667117835725
0.14022229364755862
0.13880914027185992
0.09363320118063224
0.12772845819916687
0.1416315766176977
0.11669381721623308
0.14327343256107078
0.1348476201271333
0.12756848673944077
0.13057313242766372
0.09888167969191758
0.08121636215010061
0.09857510533468251
0.12360764208147287
0.12303196132044172
0.11671165919082051
0.13696532387418492
0.14690343705528183
0.026175749762521183
0.12875005723698577
0.02914313474003469
0.06467658122078151
0.15066956731384162
0.3153558879490089
0.12504140114258402
0.18276475563372307
0.3325869288687477
0.2220028725389046
0.2632981809781392
0.23315729052511183
0.3344086621172507
0.012475308868012416
0.13045460656349112
0.027221928675353935
0.048039253222281586
0.10056262046820232
0.13191639161284166
0.11458846114072842
0.06563021297691365
0.12801559642280116
0.11286242932821929
0.02931605463404599
0.1607049807950549
0.13248293434623945
0.21407168754015735
0.0973535891126084
0.12765890239156324
0.22625357773773855
0.2348763190501971
0.4064807686665808
0.34707112631690396
0.4879932774836807
0.3137447847051849
0.3650893746244116
0.2774383963706814
0.20941171759618094
0.1608019488044322
0.10301117451673063
0.18861143099835603
0.19805502754964258
0.2927594731971056
0.27240541019196635
0.24209444996074653
0.2185732534745843
0.23542923484538564
0.3687145450433559
0.3064622447334651
0.3153780542827385
0.22344116515950416
0.262517211006824
0.17725836852786142
0.09962922009712744
0.10074555847951752
0.11029295268214245
0.16632714749760916
0.16219643324338173
0.11779640506163636
0.07870433379546658
0.17635363414642524
0.10808667297163335
0.17752128072019355
0.14260959459567557
0.2548759215071986
0.16234119777813708
0.29273929134399546
0.1420355940455704
0.3563617894532093
0.058750740311451555
0.04513337494555887
0.050916636634695325
0.04981864714657026
0.0428850918169557
0.05536603448333174
0.053678625886933756
0.04524405088594536
0.2974699888783738
0.23542578391661476
0.26251872147389366
0.3153082237369285
0.18713627497500743
0.09423988106015775
0.17597681856677697
0.07502108726581447
0.12067687919067396
0.11329122208933173
0.12345714217876087
0.13532389143573623
0.15366172849375626
0.14758746715643842
0.1331984431025217
0.14089729449704
0.2115313206707408
0.27788590070858404
0.06473421465273765
0.04246453220497304
0.14931099923528124
0.04098981125889173
0.15744450421607256
0.08181868525924905
0.1361042164278604
0.12613205288639914
0.12265921452339383
0.1607221835786843
0.16132151724448007
0.1412758389355205
0.15820926504267907
0.14321569573610343
0.018690541038320192
0.4139796995399736
0.2871487570940789
0.40970742361989254
0.09183907295776167
0.09072707372341253
0.3721475846778334
0.05354801240332788
0.04448099261994821
0.06525326443544824
0.04716535649225738
0.0788402258247591
0.0600375791422093
0.07177455465091817
0.14901109304099372
0.15549217015953853
0.1715896032813839
0.1746339922311053
0.26455433472240064
0.15413118300902556
0.14938615789268095
0.20531995421995194
0.13655073559713707
0.15780886450145623
0.09380541600464148
0.22180656551704217
0.11260986065347411
0.2180065323726483
0.20908673085806045
0.2605436988804911
0.2018863522919795
0.29128525853946063
0.21748271789444176
0.2701320884653044
0.24150926908700646
0.3114792425710757
0.07430615811237112
0.08432238114038573
0.10707571353001925
0.15223964072017232
0.06873933621230034
0.16542687138083115
0.08197734619669003
0.12893281001204088
0.05968824317049853
0.12946318124882075
0.289222362569706
0.3539528045401689
0.052133185577128316
0.39691279381459854
0.292031171035305
0.3737841727478362
0.35801141242675677
0.49135145290660515
0.4032721466219232
0.4598608387994121
0.1943918870802794
0.13924853095786546
0.28308060603401136
0.08631137284518296
0.06281420994911517
0.07596742581499115
0.3396588868244725
0.33613067361637644
0.2697982085009035
0.19736368913119284
0.1458532337889681
0.3280313013144127
0.06826504015017246
0.3005623138403367
0.37075345352362077
0.21851224833289698
0.18758345062269735
0.17577699211070044
0.17590053934988426
0.15247183789396102
0.0974555393943867
0.12438865622338911
0.13602202764149507
0.15504822018150327
0.12287780661636317
0.09639391396788909
0.09747397994737723
0.25853701388906625
0.23152777245985381
0.11391818625149024
0.13322705817758984
0.15311515310923063
0.13814296973657544
0.18462359923622987
0.1699052819758231
0.34107373904720034
0.4175696147921497
0.4253073588346469
0.34332175021719735
0.18443407646600843
0.3211668237270951
0.3651321541423195
0.31201352322919074
0.5426089456896811
0.06981272319870274
0.07056437677985226
0.14594101987317576
0.08424547896036035
0.15881780306677962
0.11753005421940686
0.007725378766371632
0.16538774328089922
0.14865127282579688
0.11807770127882068
0.035490715998381835
0.2039344666367926
0.16859954700403756
0.3031603028806511
0.2128500048143126
0.16635559700741262
0.2301677173322197
0.245729526752775
0.2780689332187558
0.3112922435126385
0.2604184182494059
0.1323711766725573
0.15094515226692767
0.21907260569887574
0.35751595159212823
0.222217206623833
0.2724605659703984
0.11945835378966148
0.2994337331514913
0.3111817972939685
0.10371057212292083
0.1708566595362417
0.058675871781045635
0.050849438568158815
0.043459440925252044
0.14615601768448108
0.3395880914236887
0.3688815807494369
0.0201913754564834
0.15796973187754831
0.19763205441772266
0.35491245722042397
0.28375289018515676
0.38773371555877456
0.31190178721024364
0.13697034409274078
0.07422136232129657
0.16624961773983746
0.0892161770326866
0.1543861398976091
0.2205094526943111
0.21207459343841328
0.22631191262090117
0.25977885214666574
0.2851674421163212
0.25535172727842936
0.13490803786029434
0.1814090330579349
0.1602323321156089
0.31684872271185494
0.3613455651926024
0.05700895866221805
0.331659336700704
0.3104444469617824
0.2049313092024186
0.16254955291260234
0.179614965011089
0.15535523682717156
0.17226724342225155
0.16966098372007746
0.14925841992633918
0.17880335174648185
0.22466932392660974
0.1564802394422099
0.08980210577643012
0.248063901523978
0.11758940392133645
0.23076637304628886
0.22821115179644688
0.09366226721554227
0.044131919461694
0.2041766777213062
0.32255006216149346
0.3214007225514381
0.36295565454351114
0.06580390512867933
0.06333675354808797
0.1994812831619806
0.1837745617922307
0.12519053722745274
0.1847977135387968
0.23296983636636517
0.03524192131526815
0.04846549574487361
0.03680038200273432
0.03171229769751841
0.1650505378695265
0.10878149908847326
0.02632168550382315
0.03179909862937631
0.049506162906424366
0.09875907851793858
0.27593981300771814
0.16965116117470508
0.23941022853486635
0.3037861872045399
0.2715885536415567
0.346669998605171
0.2681726713689624
0.11409531817597295
0.1087216108151762
0.11291315087687359
0.15099470021233624
0.11652212675828455
0.1536462245105094
0.13200709799163343
0.23466531989473857
0.1434301507614282
0.03570349532173736
0.031932855182206794
0.03024928306797807
0.044594638663177914
0.041404228325354585
0.24259246220502304
0.1519366907621181
0.08656486355872656
0.20204461722898928
0.2483821115544909
0.2947178367940309
0.12015972247348941
0.18844899073261268
0.03083886954631617
0.22553376489963323
0.05682698965309318
0.03706496581650431
0.04030080090210023
0.029090515945517283
0.10244010501121135
0.06979499764719799
0.08211019279958745
0.08491944120650688
0.06757373758833914
0.2961643794178344
0.33622802505632704
0.09476542079451135
0.17723002194687304
0.16712106576112506
0.14788692632868652
0.1473597338672425
0.09075163781979576
0.17815920609658092
0.13144855580303355
0.25265498805421194
0.1511494452476114
0.16453945724526786
0.18173710780014596
0.2068102979239592
0.14626622874113906
0.10481612506281678
0.10250945964512709
0.1562058293481493
0.09551992819997465
0.10833745169695429
0.1721012361231369
0.15983472331404425
0.17879976315284749
0.15590186172665435
0.09542098553167906
0.08867805197023974
0.14995942794874859
0.0846911445918408
0.07297992101184306
0.029876905132617617
0.039532179756234416
0.030587484353574834
0.04936210512681995
0.03676253155495917
0.2172589504853543
0.26264542657990486
0.18655070019838166
0.2583024176582951
0.18660422413312522
0.06413133228618201
0.05332365926411558
0.26711516213023523
0.10809343754681452
0.10621487119778306
0.06327741112466097
0.1657470851274492
0.1602616351326181
0.1561111303933168
0.15946707365545
0.24466375547735772
0.23867200679646097
0.24003265712233293
0.14392207109644714
0.17477275267275183
0.2108042602811878
0.33799390950018393
0.1774847569777412
0.09191027677414672
0.23292444157028327
0.17066144334809003
0.23240509045699925
0.12435642334727949
0.20836298638748452
0.15345739055940166
0.15268935298307454
0.2132688536933675
0.13559857824191787
0.14086381144379434
0.21468559382250083
0.13332054917633782
0.11760126771738169
0.1559634876507559
0.1477682426399307
0.1078872091631697
0.18747142241227055
0.2157871495587028
0.12161881984090658
0.1263925944948726
0.10745964071772073
0.05415902092937633
0.11462696232219353
0.11536142345857361
0.08278608494037881
0.04429502178063715
0.05457997387387309
0.0652902574069673
0.006976049477909282
0.028403543887591746
0.010347125834869787
0.01343841523402417
0.17549653344958904
0.21578422690173535
0.24764014861131212
0.22094778081097613
0.01892196642434622
0.03256469695473224
0.02453628073741739
0.29170442539961294
0.013292600072280905
0.012509861995061093
0.006374940579722823
0.01945977122250194
0.014456846249263973
0.021522143833049123
0.023456141673179783
0.015793849095502892
0.0203493335224658
0.27802117843642443
0.32231052158132983
0.11622183321334593
0.29199366498485335
0.31794695294727315
0.3343007429963557
0.3302967408863347
0.3660060561985381
0.29028838078847685
0.24807618141259233
0.30605980655682646
0.24701372173361752
0.20338511759029196
0.25971262881709173
0.10057654641590598
0.050460392134507884
0.0688083437671845
0.10442680050338446
0.08114654321197816
0.056083675349276475
0.03436754556800002
0.04840268713208418
0.09407278824728631
0.06251367364579233
0.09160241548525827
0.15077323016702274
0.08696355976399586
0.11171866090082261
0.1158598922158701
0.10311523690117139
0.1054249105174259
0.07777159315276402
0.268031748602929
0.3230474710399717
0.09547740609636685
0.2435155158917084
0.23092752660220087
0.22165719772446593
0.1049512116156925
0.03199103523401781
0.026456063005676107
0.05180761679294734
0.02640688057430158
0.023744317974606178
0.02145145954449053
0.019046806037382086
0.10292123071342883
0.3729550949465779
0.03304069232131307
0.3116936585760077
0.19193768747041418
0.25596667098027964
0.07208879156395452
0.16030036199240255
0.06282136528398012
0.3489189971320019
0.07078914478850512
0.09583984677699806
0.10659826081618656
0.11850076016675332
0.09136392021195759
0.1438568763307761
0.1900039223291855
0.25493658175886263
0.06786867124780697
0.2688044500676387
0.09378685662385236
0.18333327893854762
0.027497883598846296
0.08521557458640486
0.0794739550766445
0.11238841706554094
0.08325327034218981
0.11414216954818976
0.3340081566991698
0.26902676028995387
0.015787944688479855
0.010716381957186657
0.027920567157600718
0.022634866608846272
0.02005811383821393
0.030326060391471055
0.030931808451596397
0.02579399504748496
0.034240797998274314
0.042434561374503445
0.06284890929226211
0.2831702399419916
0.06371577202212315
0.11732737949800283
0.06668931668317357
0.1563758819325079
0.036954352000462445
0.03113334201129418
0.05616304975636746
0.09965558009956299
0.07382813416797146
0.017555970794898828
0.037282907343295
0.1091439090395916
0.10309533080225854
0.1197085601665837
0.10992682918833098
0.12353054695385919
0.08677363397076684
0.10508260984272749
0.12842789946047475
0.02180005733641878
0.025667544610036362
0.06379009666279498
0.018202901730749847
0.02467920238914203
0.02128496336408999
0.02193767554913915
0.023339916992553524
0.005626490765467884
0.00578213447174068
0.05093458744052843
0.09380288057326344
0.09257197168120282
0.012115264713202414
0.25294281442973005
0.01806764438030745
0.023912991935278023
0.2787025350715379
0.03613607456232263
0.022976736126271442
0.02858727173180034
0.15260456459886884
0.06925123894360104
0.018023138258415002
0.06863143748802263
0.09792210353287456
0.06544114873977717
0.006320438653216357
0.0037215816787485177
0.005275496915509333
0.012642145641758046
0.059496901114404116
0.08954143647134286
0.36350673938064665
0.04404000416035329
0.15204777085276122
0.20519343812151053
0.11799097191724124
0.2818494567884028
0.19670889505026024
0.14739866154652295
0.09699657369928143
0.40225792513954206
0.14025787696626407
0.1603732721398271
0.10298446920164692
0.09893978151067709
0.3032087327182566
0.21038162197938273
0.20524142397035933
0.1093953933003188
0.14792810982622992
0.2488485845301468
0.39232954687553806
0.16619623342043227
0.22069711559282945
0.2705508902464089
0.24768531157033583
0.44392454340917203
0.4388601041019457
0.45816946691967664
0.25479638324001447
0.22172521411141952
0.24665270072849804
0.14699303843947886
0.1745849420425108
0.1013659873819421
0.14598617365858443
0.11913044923639084
0.09441758042231271
0.09593017129549056
0.09682008234239547
0.06633822194627535
0.09188811404017362
0.17306045217290758
0.08897554974382993
0.0726162865935118
0.04329718371290487
0.11411980692945574
0.09503418285715955
0.17980427321815282
0.1757542830298474
0.062271362761497154
0.09163426448239213
0.05815136153414748
0.09380827964999051
0.09104652644333079
0.09213605909505604
0.2370445265611879
0.3315021165917243
0.154458174930298
0.4231266147954542
0.23122309129214044
0.3965531827097313
0.06639668354886405
0.15693332831104592
0.08256886102612368
0.050416608055580875
0.1743323701153002
0.11533931729645515
0.1898144293990984
0.19305249467101193
0.13236406208292364
0.10140630483632283
0.09773871751130327
0.10901707587645484
0.11572040720015254
0.0874346765153876
0.09724644220705195
0.09471563881106998
0.09790719718367907
0.10347316002433311
0.11769616897029064
0.11890722169321385
0.11091505589046277
0.116723666054459
0.13116548245933862
0.12953717624516672
0.0985471172515004
0.23868926646209349
0.20995309966789938
0.1753192632967799
0.18046491260841063
0.06105498696319868
0.01663163759052173
0.26155021375353654
0.06915964494026869
0.19416351917377425
0.23435872213941158
0.020044644430370587
0.04686781840511342
0.06815743422647792
0.044834133715072846
0.07146007699600175
0.06361385141672268
0.07880849913177303
0.17817937201366077
0.26917676055717527
0.17410519274062347
0.19957097280246863
0.3863291411655781
0.3579642050648461
0.3304038990929986
0.15575525454540387
0.15728894078341707
0.10325839679810137
0.13994681476066784
0.08961248402232523
0.06028431898365698
0.0617400962084685
0.04201226138437506
0.11439848631744046
0.05737733723870356
0.07357920973641542
0.05150154538748161
0.2697770934982408
0.12051586466895182
0.12537426806424642
0.2778311171131796
0.21906387108492908
0.23185863106299578
0.4311464043294826
0.01467539638589125
0.02151588354933077
0.01923053903399245
0.012290463208901876
0.10583191582241738
0.10875152636545997
0.30244112078866636
0.3557065715569931
0.02481200429352877
0.029204347875392105
0.021012260332619742
0.02135210063806836
0.028994077926502257
0.38471513968699467
0.2783542228595269
0.1808226730029057
0.18424911461832424
0.31281889335947693
0.05075941956839252
0.053560879286752315
0.051190784963347516
0.0805796130112724
0.09324072843148203
0.0793427992358852
0.10630894635512265
0.10083280242403254
0.13733941683412132
0.022136175302952355
0.054465980512956806
0.026577676569827697
0.02155879389109604
0.052116617871051985
0.04714890068075808
0.24102482125624206
0.28328032490470817
0.2408139478722069
0.2774718204590701
0.2755947834567795
0.24968010303487756
0.07374721105258121
0.05357540199721906
0.10607585048566295
0.18048461519090866
0.13914857789894272
0.10072341050781383
0.045035884088943434
0.04138068254695715
0.015718373486506218
0.051311369521342826
0.04887704867684859
0.04835103721096574
0.05541367935357265
0.013796898967090625
0.26819477818976045
0.22038325758463695
0.24968959769900614
0.27955643495533655
0.15405277996106953
0.024219749877248148
0.00858830842724912
0.025594953202948276
0.0326277019561192
0.012127346378842677
0.06974947164379008
0.054817286846687525
0.04886258066607648
0.24942215502615178
0.22674589086181607
0.2498953194580007
0.19458338937420563
0.23845394957623126
0.12699796928275614
0.18379156685400444
0.18663714624980554
0.21271646401585825
0.18466439625695616
0.06911836434185464
0.05642995756974267
0.02350551068232471
0.027887943286385414
0.02859472130374522
0.024944969087885484
0.014618573267485734
0.08015042720583096
0.08505440891508627
0.13761662832388144
0.09006554043324709
0.08819961557092952
0.10889838339795391
0.11756805317411502
0.1195510580521548
0.11454025598232716
0.168589113096826
0.13226941503254122
0.1606485196574611
0.11624149458217588
0.10717266557777738
0.10260040348994975
0.09305695880193993
0.11602127395555253
0.09095898445557825
0.11246576575142227
0.11932187059678995
0.12034403528721122
0.07691469943778666
0.09952938627824776
0.10180903279788121
0.11036718306913615
0.22099862275636437
0.3297818975643882
0.14065096413848063
0.15592533423892913
0.2873485991511668
0.29886899609824336
0.13477164100416003
0.2545429564407164
0.04958387457356008
0.23044922863349218
0.23788982085767396
0.31259983404836766
0.3100396863842302
0.3250077797814919
0.28447932379255525
0.05938650137884817
0.2798586147365997
0.25542699314069267
0.25995402662731
0.15350354047552098
0.1760093488955828
0.246665398198387
0.32277712189858676
0.34466116719813883
0.10939794783369094
0.07594599052553619
0.11538919447929653
0.12672521071173953
0.28698063310024563
0.18530652423086375
0.3509175094364005
0.35317928467978527
0.3605962144901866
0.21379446038787472
0.2458658784499982
0.34366471944951965
0.33729989452175224
0.29396075756510237
0.2530990467167534
0.312684584795422
0.21225074228057234
0.10267777077038205
0.1271572876685756
0.181711752123169
0.4264537334121759
0.18358974501731984
0.2740795151430827
0.0773655917625896
0.19146320451481144
0.14566639295840156
0.2180633329032052
0.24232501494437864
0.03758555024672509
0.03578844077847624
0.0976412406900043
0.13049970261888855
0.3004977670814636
0.306382210756166
0.26511840293452305
0.30640698694768376
0.292523571158335
0.030193799446477734
0.1575566930939633
0.24094706968155397
0.1229186546036352
0.13092219528065746
0.02549080563854936
0.09081573258645718
0.08891767624393696
0.08038041590247298
0.08824298158458645
0.10349698708037067
0.14949317733751705
0.13070711307635816
0.15422963468978373
0.12386205023309049
0.15593230481580317
0.12674327222528292
0.3699355176261097
0.3189796453993213
0.35101928397245047
0.29507670213626497
0.3430766443424406
0.34243482903591616
0.2791558603604186
0.08402027379128829
0.07855799839828657
0.09878896051465663
0.09547770409899342
0.09178392046907817
0.11339682039753626
0.34284167106564556
0.36349296350510935
0.3841387786319833
0.24917031603578615
0.19825353221671385
0.41211775912983123
0.32493748963634717
0.43360105154231415
0.24067325452393482
0.046006364247516085
0.024129326836277578
0.04042222674206851
0.05568171153393444
0.2491263356290907
0.0885628409738558
0.31101667771179203
0.09228017489479777
0.1804512487231724
0.05172751176881
0.04852451275008535
0.07688222097278487
0.10470024916213266
0.17152812953653354
0.09129672143235974
0.09314498406751888
0.0687298797012274
0.06270428740683837
0.052458758416867625
0.11443951611426029
0.12077177754858653
0.1876934410162908
0.12325577102164584
0.09342473109007642
0.058686860765648295
0.12910246047097937
0.22809673418861398
0.0935872618622364
0.20564176612347412
0.19700812829123351
0.2223102345542831
0.12646588732106637
0.0914632484504648
0.1620955263809536
0.17419527510327462
0.25319973026630704
0.19585363572552675
0.17142223785558616
0.15982753851359438
0.019460149062595175
0.027149454017117217
0.070099752764525
0.06793229366087053
0.09262127434349998
0.014523795471729987
0.33704020665353696
0.11205512567258995
0.11537303617107385
0.40301849137645424
0.3000958093977305
0.2906819179797892
0.032283152019236615
0.05390745861496776
0.050021119483970755
0.04047381727381063
0.05745486628218445
0.03379334857773404
0.07947297939733354
0.03440515494834379
0.03730670518161662
0.0663678556627431
0.05064274956845768
0.15915220848812067
0.051994606871246775
0.039362188846539026
0.18255010924883694
0.11988966696817463
0.09954464365689633
0.1708831448679259
0.18697890130420952
0.13845429528440556
0.10849785024257133
0.11772387602172885
0.0914536801938484
0.046706188284067945
0.1507705023420992
0.1211295991735482
0.13290641186327448
0.16882828444449313
0.19729600371437778
0.12565034140641063
0.10998401849866095
0.16266093274374432
0.17838932854216058
0.28144093308126894
0.20593735829203
0.10172380475809589
0.11770701472953798
0.08551896543503885
0.11106454286902634
0.1402454239357649
0.1850374589533965
0.14193479778356027
0.15549774248557988
0.17487362796660674
0.270776127724633
0.25530942834363946
0.11130602152170843
0.14273323579127037
0.1766848405242961
0.12224121682632745
0.14657783854180062
0.13284024862732402
0.10582738716954701
0.13118667399671077
0.12003752201876941
0.1214716332280609
0.03358450368166746
0.027124362771246517
0.020826712982691543
0.03372176298492021
0.19875071914701448
0.14297904593191288
0.0969251535631802
0.12315086707673974
0.1622715698472235
0.21099939250274038
0.18184931447458963
0.09908775164780816
0.21393794063444527
0.05627910796743904
0.06574940464854916
0.0480064309119472
0.11053259635279442
0.10373372019345822
0.044235017073590475
0.0772594178404709
0.094776790946509
0.028973036815153855
0.021042319633778943
0.03954305456702196
0.0474766467382421
0.06720397939549841
0.10138042219009191
0.0621397769538749
0.024849514027033132
0.047322174497831195
0.04024544388304667
0.03663488019755101
0.06159007798308778
0.04902962644084655
0.058174455509565313
0.15880506258462954
0.22876291807792679
0.22299607235043528
0.23436506319129372
0.10010424243039487
0.036181901133783424
0.14725078982925008
0.16306611952969083
0.36114058546403016
0.4098344505108305
0.3162895477497482
0.3107290263073503
0.07674666027374256
0.05369070232048249
0.034419730526581205
0.011482387837646126
0.06553336814036675
0.22258242733457093
0.0825580668650676
0.28631894736633556
0.08456611062851165
0.0836702579278568
0.3601863280209072
0.07887887634544408
0.07870640928238179
0.059940985021833135
0.06792693305396336
0.044741337242763725
0.037407572536048934
0.037611126440477295
0.034290424026059065
0.2511189888240871
0.08712403386478802
0.036868327467614315
0.09988604176883373
0.030942635429599658
0.2373003385926913
0.11617562324200356
0.22557727502466843
0.22665285580925149
0.21801138118401805
0.2601417603557639
0.10088976622931994
0.053165164074327254
0.19309740269175663
0.27015052788195953
0.13200633365538317
0.11041956340739845
0.14479043132658778
0.2767334003021922
0.2718859273870505
0.15686150845834934
0.20361985545006878
0.13828464797423232
0.16029257825602874
0.059848800908495245
0.1412826104145419
0.07765721043424519
0.1775550943599623
0.15127905126916946
0.10301748352334919
0.08453709257471456
0.16077815318403793
0.17510958140161792
0.11655486632084781
0.1555120110641088
0.20126813175622157
0.20077659648330326
0.2501908171309533
0.053655310978302784
0.21524950203882706
0.22615867939627748
0.17624105076310817
0.15167481953253187
0.10856931927060275
0.22716432536163705
0.18107916449595995
0.09138112706730421
0.08048782894418509
0.0475903082872015
0.061391798236508435
0.21950553010342083
0.10529233052147687
0.15470185258708705
0.014473191739626596
0.03437014925088885
0.14736933946349176
0.07833142715900171
0.046250639183712146
0.08207687247998013
0.07406151326074036
0.11730583158045975
0.019427815403599277
0.15849933287233872
0.19811565384190535
0.2576583232556658
0.13838244256414098
0.31231346021520806
0.2540244863040363
0.24671824873276585
0.24086745580220645
0.15434209810983004
0.15865439701980644
0.17334302636009694
0.09390402917377154
0.020715807943832758
0.029627379436663808
0.016966658495933953
0.02416368259630759
0.04727864611352372
0.05141709664987896
0.03177366846490036
0.03888284828592716
0.008791607595631494
0.007547433243828547
0.008285355453758102
0.01701226475768976
0.17524608799158484
0.11271282283204175
0.07589201769569835
0.17126622806424469
0.026561695442410306
0.06706489316674635
0.0720543549679901
0.271751764049201
0.2486112662765674
0.06464592154999974
0.17146554161062405
0.14226924812026573
0.20758587920332028
0.1174126881107605
0.23283040271721525
0.29683885152086875
0.2863931021597916
0.2636644377969188
0.038801794054347215
0.21175774961902386
0.11736950603678076
0.2208567633565583
0.16183593902368187
0.188762820379634
0.07845648757911626
0.13437784416910645
0.06407013596844553
0.1878174508853711
0.13382778967582917
0.066756162123037
0.13513308269061008
0.07813699039524837
0.22367550295744154
0.07533915984483877
0.25742249291040686
0.10689540210282639
0.18348277049883302
0.10964112680802922
0.05871822693626842
0.17273748921620607
0.13677011992689386
0.09239670699575021
0.05854754804855507
0.15241633085027725
0.09912717951080345
0.06787674429647587
0.15259628892575866
0.06246503463151416
0.058048684143642504
0.0926361105037097
0.028458320723123848
0.06141257798817917
0.07865255571799033
0.13574098549642688
0.06691821625686292
0.1937803280610454
0.12513492601180462
0.0760371063620371
0.2036909953846903
0.12616039679367025
0.23657782161087265
0.044711159140074154
0.064962870336386
0.11939542038246354
0.09053505382517094
0.13426346411177717
0.10807278004670227
0.1284170136349451
0.18478861131450774
0.10562855154882685
0.026937158867210657
0.021283379603121776
0.05064980667264904
0.040368594062903614
0.19928498018929966
0.2835858360420134
0.37889630099193156
0.22425713119508087
0.1003980731946496
0.1049470063994622
0.08456787873294727
0.12214382893989777
0.07063419721671921
0.13723871061268653
0.2738516961321378
0.21666891228663862
0.14841235918709889
0.14317664274594422
0.30842692279105033
0.10596107165335501
0.15235339126692987
0.08523444369082718
0.10725141268595498
0.025685864722272217
0.09390245299750022
0.03358919683062038
0.13133048831756738
0.03519329675447919
0.037184744265631064
0.030988854105867908
0.030404373140052156
0.036104118896466045
0.03886914237031168
0.4041415039982405
0.33641218437912773
0.24352814826775993
0.17092837865520855
0.20982067680495306
0.10224107269137718
0.1881608355151341
0.1660500930705668
0.09185962443680978
0.08345620760732295
0.08622348901017025
0.0986091499687564
0.08895681719945665
0.25797431333396426
0.24415242930294268
0.2925543067044464
0.2253711093875343
0.29775161650726
0.22486115990374006
0.24509865007749312
0.26189784731871646
0.14109757194543115
0.12760681439634447
0.11703858091095566
0.16716606698773404
0.20618573814900615
0.030810425457543894
0.04112929155812959
0.0434522471750419
0.033513238890368294
0.04168988489242145
0.13161864944510787
0.11643631046948409
0.13658673506174784
0.13531034082816618
0.08758906883116002
0.12948719794296862
0.08649079598291262
0.17825483946931797
0.01105902745008143
0.03329918219901495
0.023191631844103094
0.00803450334139038
0.010043583368178375
0.010905066933551342
0.2592140462118991
0.33646040727498167
0.3851258748676847
0.37274275374925764
0.1659195768707395
0.15232744904921577
0.08982767617618001
0.14669656822326435
0.15352478750871906
0.05744362376747549
0.09222548667521387
0.06796591710088074
0.17083976415548072
0.14240589186596705
0.13176192866308645
0.12486199160048436
0.05796342756714403
0.04034804995226869
0.05712206554909581
0.06726841115590698
0.12096253605434101
0.07755949917781514
0.3307886214344169
0.15501857614329073
0.15554729185624547
0.18525314975466334
0.23786992090663728
0.1920515446635759
0.09422009666429206
0.08615231198297414
0.10026086683558005
0.09331402131847691
0.08820212527498385
0.10392074589219626
0.03210168022759941
0.013391481884475882
0.04491434865825518
0.13733078119004768
0.08774043610348044
0.14291310641628488
0.04537171750266372
0.15197303706240972
0.11641785702863595
0.10719445162572944
0.12360000035983178
0.04963877827829122
0.057920779171071926
0.07344403268787442
0.15061023012072247
0.07098833189129496
0.11589822302268707
0.0821685692481985
0.09010176436630524
0.06651179961500406
0.192489052199151
0.32464078638172017
0.1753481877872269
0.22427210390859345
0.1714563186538839
0.17952125366749405
0.13007398623551103
0.006097791822426194
0.2367758026154464
0.09509383891342013
0.07606226931612617
0.04213025562266025
0.08039245655877113
0.04833209944510032
0.09401765074976062
0.045171988361660614
0.0455558305115983
0.03889100487626437
0.12797835949484535
0.09304102640264042
0.13361513446163453
0.19685184468599165
0.0911913191229921
0.06659684090214425
0.06703831153719829
0.11934986000537352
0.1371400629905856
0.09182835177014917
0.14790600817605074
0.13188087009082636
0.0713737965436738
0.07349427984052748
0.0346148918641683
0.09525458282434525
0.42975371142647995
0.14348989911248555
0.04350966302888008
0.07152355407912733
0.041987622147741425
0.07526819135270202
0.11060283896147877
0.073203595739935
0.13977698765841923
0.09305634831671793
0.12004964759491168
0.1871771979106836
0.10148430722846248
0.08748416899331315
0.06738457590257484
0.09441148604776485
0.05835918087643717
0.10101570612168423
0.10138139680049672
0.12349484637997321
0.11148688503585343
0.09547512556607154
0.11242430388021933
0.09056428456516606
0.10695276316184048
0.12092021482500233
0.158596202736663
0.015369817727696678
0.018904206124212935
0.02982425444372887
0.10972678227504934
0.018555652952454097
0.02194606665969927
0.07397664703299998
0.055366411767230915
0.05160994157715372
0.030154343294557143
0.023165936003587663
0.09218282680325544
0.1284558524420065
0.13674055639577146
0.12073577046210264
0.15848528268074433
0.13873614434860257
0.08496708748893789
0.15124004444990038
0.06462998203700822
0.06022882018469821
0.09608704817857142
0.1724820171738747
0.13624093746647656
0.11720623912643695
0.05002877116377542
0.06019384045580584
0.03797926177359619
0.07762669259037076
0.17432778703221627
0.14912408194170645
0.16259350030053865
0.2731674055988559
0.08542561180069111
0.6646572242215575
0.02310857064001814
0.036118332831221865
0.11689720947618758
0.07570291317243606
0.07461405623740394
0.18030339429338127
0.149304612187815
0.1388906304602334
0.0897362472246365
0.09329233745929032
0.13736063568471896
0.0843132172753314
0.1303536947755492
0.22627802030541
0.22054230715513526
0.1684882833481782
0.19415024776058704
0.12093145687037454
0.13192073562591441
0.12297439611642048
0.2206467821221203
0.1517756313227874
0.018256292058722184
0.025381050736934866
0.030751729128858644
0.029011074991002677
0.017251898767930866
0.023955094264791896
0.17032177941381024
0.19257701111759198
0.2018434568414087
0.15631439185008225
0.1825947298834951
0.24070392783870695
0.23223331427308777
0.09569823178340464
0.044989536134499145
0.05115113305989211
0.05482230419714167
0.11802843848954557
0.09202037117748708
0.14108498305606013
0.006925429619909369
0.4342632866787181
0.3569892204290416
0.36535113245946016
0.2736064093737541
0.033859967038935346
0.041476021279464884
0.04495970485193363
0.030459573910154247
0.26596152977176757
0.15789791997725144
0.31776555965940084
0.30987656665000557
0.3102949009007042
0.26119688153889353
0.3560246839984059
0.10179220374920157
0.11112032309983115
0.1188504444841353
0.10559737650636442
0.04859352781038068
0.08327155688634055
0.1744989186460693
0.14812744557182775
0.10793285940718138
0.062313058317100385
0.12456057043516315
0.1499182944138123
0.13682387324905976
0.12256940909351113
0.06789080686818645
0.12755202852888098
0.0755155599321012
0.07553233721045945
0.0851218930262456
0.11066659317982537
0.08392690710961795
0.13448552991822357
0.11006799118304726
0.14263652886662073
0.10528705629778604
0.06758124558925256
0.22705576316856232
0.08952852226158942
0.13641019335012136
0.07303449421113162
0.11444349896163493
0.052562977528207815
0.03354770565362673
0.04108279252300669
0.06162336661739627
0.05582293438331384
0.10077751591739544
0.07470590064879537
0.0857485953815497
0.07935929001889976
0.1305028293687647
0.05513461688605173
0.23288160845035913
0.18586452125097522
0.2693176383039536
0.26281763257448715
0.17940799824458073
0.15814061140700014
0.06049226309952886
0.04061469481818417
0.028617333343257015
0.25566624576176233
0.3176414737591637
0.29544853452848047
0.1067597191962819
0.32129581963877185
0.27064873132578926
0.30181548008709835
0.21462359554240873
0.20975542217652396
0.27650154415430794
0.046497874075047456
0.05273673921044648
0.050078764470853104
0.07158979382323369
0.010122214209547988
0.16726733233068777
0.3578432886649915
0.38451915620205995
0.4377793997910379
0.17172692000477516
0.17986664838574865
0.34081776085027626
0.10616090710460568
0.06431201437453715
0.08053198883090824
0.11670170488043953
0.12657116631816334
0.15966117348103875
0.1000050532681579
0.13374005437121222
0.41853908227656605
0.5705705677989488
0.38903990959359425
0.3210297869545538
0.31144516688863455
0.3259503932486806
0.5756267086841803
0.14554964036527923
0.1727700743532894
0.1582489796860463
0.14852214612761871
0.062106517130155574
0.02866526812590921
0.017616463606438787
0.033108411711080525
0.04769468889589537
0.09589117215997804
0.2865299115506189
0.07976368607741739
0.018551998899861335
0.1576021280304424
0.2315954416375095
0.04838737820790298
0.02530235745739921
0.23714765682435338
0.26385511312017085
0.016431815595453685
0.012006263469145718
0.011233332889747677
0.03191101779084949
0.1130678277917045
0.1523993647110781
0.09807998890081042
0.08264242205554073
0.20307902440151107
0.1517092902068671
0.21826467872652086
0.1962712808301162
0.15498740946761022
0.12898707294442435
0.01113403668976106
0.008902712721270727
0.025059941857692416
0.01586494345742108
0.005118501349688105
0.0883538899573688
0.07150344421873206
0.11326447352255471
0.05790389303281107
0.17570374229935812
0.27078762041074317
0.2818091812108019
0.2978347910345593
0.17949294385807013
0.16820904023828068
0.16504645025490747
0.186760179139066
0.1319962207954579
0.1556309135438305
0.09138564561027349
0.13432605208098716
0.0958776306003142
0.1411259045339434
0.24915347087420225
0.20890284018693991
0.06684643085633969
0.27924470928685813
0.15198412955546356
0.07116641395033936
0.09683552167920512
0.120822970507851
0.13559166974847933
0.16792378445808012
0.13432578376589635
0.12159653110952687
0.14840799087479342
0.2554385873901614
0.2509284878850766
0.24287460203089106
0.24702603375063434
0.26619726068069244
0.28622622593739944
0.047628170334558934
0.07112031677943242
0.09170811009423584
0.10029953461560981
0.059094178550796184
0.09130868666571985
0.07556579997333697
0.08247634698247804
0.10061604680266932
0.051978934347037986
0.1306858656174338
0.13062526657869789
0.19001778193803348
0.23824667744933664
0.13448703512738847
0.18088669525040002
0.0818124757161846
0.05071738274732703
0.012547928699063713
0.01645333613118643
0.03155677408813776
0.2230647620515594
0.12118541908074859
0.20253768036025646
0.22083546427282486
0.2298525357644203
0.31765894492669505
0.06757888258964997
0.34129045922028983
0.22261531883257446
0.07511854136754667
0.059748837616307955
0.09707180902703517
0.1327204125199627
0.17856718010979103
0.07809656635737311
0.09391810461305705
0.14742654474108247
0.15164913377134753
0.18389783432214707
0.3413969427461377
0.14906904622430225
0.1452547077302369
0.16563419362246204
0.16307905137820955
0.15798806518805236
0.17086241194524218
0.029289772597794042
0.08672221968031331
0.12032942404039813
0.14391590503625756
0.16203679340622532
0.12168412860528093
0.17911314972979622
0.2394648112278157
0.2552944295931787
0.24629813360118344
0.2788389125104446
0.15614312472521763
0.06861974175132972
0.30096349624350727
0.28838345758890854
0.14802623457470182
0.19542856437632208
0.23730225101826452
0.270210167507389
0.23890013358860376
0.1870679779225846
0.2649156459236572
0.2547070063227837
0.12835351765642558
0.07535697159794286
0.033687952745231946
0.03810762842418919
0.0326371499373841
0.05683758814519148
0.20335136468978318
0.22564281802764288
0.26579443403827996
0.23244840343018722
0.20043840079195424
0.11913652487450871
0.18785181822259256
0.162421213336896
0.19862864325509924
0.20975717669757263
0.3006206537852537
0.12957743517353792
0.18798886073915624
0.18859954194640566
0.2554445158721886
0.09921474922118502
0.18687250322429677
0.09809277463281056
0.06863602267854768
0.24656983390757067
0.2537068401145215
0.19526297386878924
0.2553834992201178
0.23349442589276728
0.26209420041567705
0.22159655827253102
0.09257913621213643
0.09144792479365417
0.07943855778788989
0.15818868241532455
0.03996746331799004
0.07088081759871424
0.04218043416770074
0.04006402865432091
0.13746859863652103
0.20149453769147083
0.11506895033057024
0.06026935607339386
0.14152414433834973
0.19677551581466932
0.3964539359780897
0.41704480694878937
0.21101754772220352
0.1941304072523107
0.25849734378119543
0.22686532372456483
0.2168280156058878
0.24086091428761922
0.24528712236231853
0.2635520134641107
0.2102423332937002
0.13777357161655546
0.17816093876906516
0.21320246980220273
0.22082874789859627
0.26423327366313537
0.16644810627845052
0.2679075771924309
0.167287639865183
0.11845183147998486
0.12189215401685956
0.1204201700843317
0.12696601231186938
0.13803853514262432
0.14804503667855318
0.13062580134629695
0.18684668743353405
0.21791966470997082
0.018703836499483376
0.0199094756733045
0.14879449854543417
0.4879686927648576
0.028068446553863043
0.04022412801678194
0.07697085348128911
0.07987435333400872
0.08739970661428734
0.09627589200107893
0.06022053406271183
0.07298192487083974
0.05461847231954978
0.0751313803218075
0.06483293805163169
0.051610298333023615
0.06729494253610557
0.05568322539312591
0.09542244731025856
0.12594513462434304
0.12271305801220452
0.10152568256783934
0.11637664634037471
0.12333315351123128
0.15546406432113144
0.15516350799713244
0.13533991001210494
0.1052682232089201
0.06777130307043026
0.10125820067033557
0.1136372805815807
0.10189644531244497
0.14628756222557235
0.07582388052114004
0.09204854965374634
0.03628216834379335
0.11888449128971472
0.10526515203237855
0.10946566264642998
0.11539858279311513
0.2529297381027329
0.2969881144235337
0.34106383232712734
0.25756136522114764
0.4825393892658373
0.04976802314091233
0.13194785939675616
0.12160707974919949
0.13069642327728145
0.27152910997825636
0.14041149291412813
0.15016596277719688
0.4654343457816166
0.44738509459653164
0.3514363938348209
0.23398979150131646
0.4343094205693531
0.41737009410667947
0.17068449818490258
0.23335609307876418
0.18259269014160245
0.006857527716143002
0.05213684374716544
0.09325670492710057
0.06368878576993789
0.2210569307725783
0.3524517686500288
0.2844277741835176
0.23294036470798146
0.4849723872312094
0.2861777699277626
0.032114875297149424
0.03378667634432655
0.05548294691277556
0.10358887435894422
0.21280982901946857
0.1874407781637145
0.20567293911161724
0.2977768224242533
0.2903594871428278
0.28791063864255667
0.32642722387993467
0.29205522910607484
0.2861416991160349
0.2916046667461303
0.29388535657780995
0.3235888567069859
0.3081809030684946
0.419123354432771
0.36618877625427304
0.2583555420157815
0.1810003159930877
0.21940660741367016
0.28412845701219014
0.4140943930047559
0.3885676843270949
0.3927254669670873
0.3564019703972699
0.20076790744899875
0.00848864434093692
0.1988549207660021
0.026872043380242874
0.011331126049890793
0.22176693435449632
0.017791766855725626
0.24189097359623715
0.2060760121833801
0.16402432859597593
0.18009599578946864
0.08388483397260943
0.15641236310965412
0.11456014863522944
0.13604429142744182
0.11888225260020624
0.16229303303192052
0.1341035191751327
0.06602432216324679
0.10426288385341789
0.044211417857419825
0.3115340647234207
0.36207641872521334
0.29332740970701543
0.3476107047466082
0.0440222730675136
0.01741448986399103
0.02082321390127398
0.015143702905558748
0.12065695648204515
0.11130067023396116
0.12078401894119749
0.09716833560518802
0.015480796715680836
0.01064662139848603
0.01605891730746
0.007424078527401657
0.2589299917263965
0.11208043468110285
0.19925776341081822
0.07065996200043231
0.03535273162116356
0.017462195229673
0.05519963328206881
0.09598914401329398
0.1594691258695214
0.08210312841220786
0.16060881146218337
0.14740646134107452
0.10471433040724029
0.10798026097148428
0.07611066350109918
0.24928370330547633
0.11052441327204152
0.037204117991432306
0.13421852858297195
0.06778428106008931
0.06095844316998639
0.04116560822557227
0.04394746112151769
0.04192505706238365
0.0359917888991236
0.05520515583192602
0.05412451192035183
0.027200367476733888
0.05610798741750113
0.15165492372735956
0.17367873713511314
0.0933789305919937
0.07168974532253419
0.04699200076544491
0.1264233935353147
0.06421197495299245
0.05333157335022236
0.09289200755045186
0.0656129478877667
0.05202617044331162
0.031644138767889594
0.09425077099554344
0.058321221803118196
0.08881492393042266
0.07671343035231996
0.27256900062608347
0.257303630580758
0.31053987965510854
0.1744518256577983
0.07673097440039908
0.06594887130198285
0.03702987519907145
0.03802651742250197
0.03572230268097177
0.1281575894392224
0.0980018611464047
0.2066911213990028
0.3123106264223467
0.04299745756739258
0.05531417150935047
0.0801073436326983
0.22809216653207012
0.12615600893194856
0.13700975144565247
0.14709174409752546
0.11492822059800001
0.13510465940517094
0.3889352649461767
0.4366197361827423
0.35421761879143177
0.019611684151551814
0.026995635898466656
0.018027486848080778
0.02453628149273341
0.02781109965352505
0.18986519863410725
0.16408395416386642
0.08138658796013508
0.15679213917066193
0.08677082496196926
0.09722238953637875
0.10810449606465049
0.1734821892734772
0.1045284927116751
0.06503916891648263
0.06657877200992113
0.09514287188992109
0.15258667160560824
0.16226856864667022
0.24449508847770945
0.1016559202569912
0.04667876191333985
0.14906633402569736
0.029191423064511637
0.04697442192623564
0.0919761847345239
0.030984158020109436
0.22065841477980194
0.1824977257046167
0.24495400141063933
0.21596000418090092
0.26914867379811835
0.2093025618866319
0.239092850395699
0.294171248203275
0.34515022272208157
0.2459393884791444
0.12375909614207298
0.11593423988079242
0.16907406124326396
0.0887727621707917
0.257354852081934
0.2706157276364495
0.3037744703224986
0.15548155587472995
0.07593253514663179
0.28147503081176284
0.27687934264624814
0.28247999340036284
0.3076272609808574
0.3138812224028002
0.3774884005079289
0.38163421126043473
0.3538013628035459
0.3213465075012204
0.07853883685382144
0.08726251414890082
0.05972421134844986
0.11709636479091341
0.1338297389872013
0.13177538910111247
0.1275972760895168
0.10542855955819107
0.042215741847089906
0.04663783539357543
0.057159096205024726
0.03399839206950337
0.2586683288991067
0.29309633661560724
0.3072518570895967
0.23369060739826994
0.13526553352588963
0.12587914295213704
0.1196476934043195
0.11206471926270986
0.12712531511263153
0.11883748542280187
0.11254524121248874
0.07203875529850173
0.06374926270349572
0.06885752018117776
0.045205055822290806
0.028909765102194403
0.06991037504675397
0.20808087957096716
0.03628253365188752
0.032104938488844666
0.0375610808262023
0.24336602803305424
0.3073446795937738
0.28372870508013276
0.0686970156372355
0.05279077043968027
0.08085499605566578
0.04777601267249965
0.03415955196532257
0.019622225940098718
0.06960835806029521
0.019886777398075577
0.3176446712527682
0.2782954954170163
0.2739684380429211
0.27855592727511713
0.12922606557985472
0.15463587691065042
0.02367432968782665
0.16664943898767964
0.20664791618086037
0.10902736259051783
0.05875842860665408
0.03991314118695011
0.015380179663967906
0.09276418331661315
0.13200809142510028
0.03359893031260159
0.07633122704756415
0.06592615013732786
0.1268691587492833
0.18860184817538778
0.11519338737153782
0.17770178930708155
0.1576857765250237
0.021973972602432737
0.015739750912980254
0.02501659123454643
0.020680113980510673
0.026506361356410633
0.13899254077580722
0.10072378126702995
0.11008833583474423
0.11106583575659397
0.3032045693000305
0.2878288157109614
0.24339361131038922
0.07853314462976622
0.09063516782540619
0.0016767103082652906
0.02756305284133037
0.0733128391421292
0.0086763799951518
0.07036311807857341
0.010190068779482253
0.14456892171644756
0.07562945687553888
0.020938732131457336
0.008000361066886296
0.06082599466608901
0.033888955597515
0.07841843291030906
0.17935685989861644
0.13591722137377027
0.1691748256836604
0.10656259231526348
0.1092683785390534
0.2661094572418434
0.10298250436451026
0.1235260417023879
0.0642722628885325
0.06045947018077677
0.04700821278535059
0.04060217712896215
0.04267519809867643
0.048559904931310315
0.06396033126234388
0.08801756151862879
0.04817214489527608
0.12688011842929772
0.08989956929951548
0.11290786067341921
0.0964166740283019
0.0985301673916568
0.05691618621931286
0.05601182996639991
0.053671340956747735
0.046934852317367735
0.09100396794763883
0.02589225994367914
0.16699524171680163
0.1789966966119522
0.18200795331059738
0.15006216095393712
0.19421402221302184
0.15925165363170393
0.22408550696097368
0.1355545888628338
0.2287503217770338
0.16863480678331835
0.14789029172564466
0.19047228075208286
0.16228205503241389
0.10964400307145804
0.1673807083817907
0.1397739178681336
0.2808975264553842
0.25750882071521003
0.2637505718750825
0.27115950578595577
0.06499373581596858
0.06314322186451189
0.06399939177885522
0.14671911770953833
0.052459811064310344
0.031062874068284164
0.10695983635364809
0.06890024348951149
0.09333361935864634
0.14391735603235808
0.16166463470645415
0.2961181047492129
0.16206013161219876
0.08915800716952856
0.12258233628137383
0.10996018437147767
0.11162179156441554
0.12097710361069815
0.1260159265807057
0.16098806021804693
0.15632699988788262
0.032048412123462815
0.03880037164818792
0.06367232093624334
0.036640433431891495
0.13833533054900268
0.12912689228239593
0.16070788724664617
0.03295597983528349
0.06092748743585491
0.19107573521032226
0.06943590826668578
0.11112004945292539
0.04471143797348787
0.030049671321376478
0.053752006921793986
0.07763165694115551
0.10793920600580341
0.16625884225503776
0.11604388053154893
0.06720133179640332
0.12335208270302829
0.3608901141173973
0.320981179245173
0.25430666357088455
0.19291961498153784
0.2564819163310662
0.143812723848224
0.22936245560916158
0.18964341403180274
0.10682909043611986
0.22677712748417866
0.10427158914043984
0.14168567972197477
0.09114440329315389
0.03970888565284928
0.2128165928040069
0.08474947709550854
0.042609765557116736
0.22044053450871387
0.21503328584599538
0.2357103284842791
0.4996996403139676
0.33698975720374924
0.355939653959297
0.10676239048491062
0.14607548818327298
0.1555381225768538
0.16629084093895177
0.36713241592226165
0.2866094557877035
0.032523920487374736
0.013130113742702097
0.027926064079761934
0.025015857488832238
0.46863079249899725
0.44183023571408614
0.14588403233448477
0.07718476819497849
0.29223880154707776
0.12356943201407625
0.11652206873147448
0.15554634947199528
0.2495880083039352
0.060695467069408045
0.2956095977967607
0.1469787355837281
0.007983937682614618
0.04780138038790567
0.012535885968341681
0.27511036465558875
0.08574801362153653
0.11483525473563187
0.13601270073135563
0.29977908669737924
0.0052518554574932505
0.12903470353595037
0.0032993977744560006
0.17108128061981584
0.08805238991196228
0.021895955768888132
0.06633491028581989
0.11230289982247914
0.17784834919838668
0.09505058255832849
0.06443827662884341
0.10532181518260256
0.20743176540597488
0.10959015454085161
0.1091140450687745
0.27077334979781953
0.15053716585967986
0.06965381390336504
0.021917309430670936
0.03758268249790556
0.06911666816651109
0.01766915443839385
0.124275986730234
0.14003535385588947
0.16957169380910392
0.018364331219176334
0.3903886882544414
0.1703135609940077
0.028898638751369013
0.08151602075077094
0.0784811850341127
0.021758844296788517
0.023832392773069023
0.037175212728704804
0.020054260127185596
0.06438906665605569
0.15487463339946556
0.09879185193167524
0.08030167461064425
0.1548672348020593
0.15610308368831385
0.2226682582039704
0.09493860384151183
0.039515573699549535
0.1745512548205843
0.31347297591571505
0.19793556775951993
0.15502177438568873
0.29727986509986376
0.21264900818894172
0.1605169686579723
0.1760645157298641
0.2591507481495662
0.09795076335729355
0.03320886578996941
0.31789699726660453
0.11321523962324441
0.25633286637495806
0.20618073287119565
0.2608097022466456
0.0065078438445396155
0.02178074610930815
0.012577134964756053
0.01232121912591735
0.10327557995636001
0.1289364910070404
0.04516970839705907
0.10607838994231765
0.09791890170165049
0.31146346501117916
0.1545360953854018
0.14526428763660154
0.1681967555323822
0.2697263239484508
0.17259146713566487
0.18906664529339332
0.03543634687475026
0.42678201630655527
0.2274504587399536
0.3398520123888012
0.14698881225389399
0.09723716202968066
0.08386935500881681
0.32581621634729596
0.2948201203846935
0.30367144083676895
0.3513065220481587
0.07646661665296514
0.047940398516675024
0.061350819020537566
0.04651343037627552
0.19749018244745306
0.12518622500344054
0.09904800144809421
0.06455824879540732
0.03808699009471268
0.07656500323598633
0.06986722181380028
0.050428591287267045
0.20734821171073053
0.1383857445450346
0.12830157753748506
0.14487860347359666
0.1431117374381266
0.12142934260215844
0.17011226435157864
0.08681881477161059
0.0935119007719548
0.09802253887767952
0.11847138803947098
0.3977154251034931
0.40966010079815224
0.3528666668646321
0.44110310656503815
0.3580048040505523
0.050360076600101306
0.05831132091024028
0.02065132927452694
0.01928618088027112
0.2053347341713418
0.2057304410766024
0.19730223610288372
0.058178760136804404
0.3018165034648981
0.06164877266977074
0.054017687618211824
0.03931479737282565
0.023664715785846096
0.25258947848158736
0.23549712526998173
0.14326423301432364
0.09267895444379416
0.22615493419638483
0.3007168442761784
0.024242622771743882
0.063433525565462
0.11874607290533412
0.08283682920449702
0.17988301065528609
0.3268448345912722
0.2679416984100469
0.173540363388304
0.12424001298060673
0.06259758645722457
0.2138603079612978
0.0927270042396338
0.34684698962281996
0.08400621955977586
0.03567039538259636
0.4418430342917524
0.13283103881948424
0.11406398215072777
0.1818905236942982
0.07340367721871523
0.24828954781771523
0.05461162318079205
0.04182145161738269
0.04688774655889119
0.1512156948124739
0.169583470473414
0.06031882959491329
0.20203315297102312
0.19786793120206667
0.23800620446756274
0.16043533169947333
0.10233989813839568
0.14007236193735073
0.1569389384888933
0.16477841362002163
0.01872144349344131
0.38430356567008184
0.322577956540831
0.382835037780386
0.21171118399395839
0.16546568832234687
0.32998358311215925
0.27443438522659397
0.07574144876915889
0.019417222605302556
0.03443776808475487
0.06819494450087588
0.11418827296070715
0.044319405307765875
0.021945876009965688
0.01779050832403864
0.1761052503330593
0.1931249183741306
0.023107482259113864
0.1504335095971774
0.24097979750581475
0.12799755004035374
0.18139893539676488
0.052686229327002704
0.28510716991730495
0.0705328503024938
0.2553606808170719
0.11128374594456893
0.08326474415076895
0.09725819882759301
0.24061878604179399
0.14348425086968877
0.0929652428840887
0.19441527143208484
0.12985011120056938
0.07029149625199328
0.17501990066959153
0.29076437373034614
0.23806948506710462
0.26980614171625616
0.09967282030823177
0.12452169888993782
0.3625755036408328
0.0717428098935804
0.14438166644448816
0.1505518875091239
0.23079067010216534
0.08894569373748369
0.09310250006842664
0.2767413578444147
0.11211937035505146
0.209521639829516
0.18521032522286313
0.19181881891358418
0.15746016775936728
0.12657384520895823
0.0032295016735458186
0.1275038225874884
0.0610984623869298
0.0278087873489606
0.14741668261499197
0.1593226801283775
0.08694107919879845
0.16675745826877295
0.17835931561992532
0.13617201982456928
0.1009744893839583
0.11540755824317128
0.11165035473536836
0.11596709786211461
0.10610369917443427
0.25612170152302105
0.13565421494029167
0.27943937131145596
0.20290734466158014
0.12500841747711308
0.1707840125588042
0.23295334688001754
0.3159280775711449
0.28615037068599014
0.3564402551926138
0.27718207304988063
0.17448627929206806
0.1647937157433411
0.08832146968398555
0.15648196228953523
0.14992234379543903
0.13096750267326326
0.2034774902784023
0.035862823861059934
0.12193831423420945
0.18990295102611815
0.17522074595734646
0.1612273676286711
0.14930502643814317
0.13116846849330868
0.11434359373447588
0.07687878685484247
0.06761737708488921
0.05823744717495094
0.1811738540620586
0.10478213343759224
0.09214788735103335
0.14158134836256622
0.059928933307125634
0.0996255125779915
0.03252514658732997
0.08760012334291321
0.10563032687493112
0.18155882331256792
0.22694407975286945
0.18731513433422176
0.209815691433519
0.20417495794465648
0.4912152013968268
0.08382740367952958
0.059353795853942425
0.07283990190091517
0.10671802101203622
0.09752367281778825
0.05405893765718811
0.05730561295771804
0.06620765450829698
0.06649839094752412
0.12213797665688186
0.08115748295096699
0.09024808557266753
0.0689849736847359
0.11782354795803296
0.3024333400442495
0.07722327098243663
0.24883826724853347
0.16523390015164519
0.15984920560514013
0.2235804666229304
0.17513263379861266
0.22915930626705303
0.2151892764283715
0.22971927610104995
0.23658819890357446
0.2830521282200495
0.342829539152881
0.39766204775035907
0.3782946360111567
0.16513152249588803
0.1253867313851207
0.0845784509711992
0.04841838763960075
0.156717723478822
0.11715920804524363
0.10383321578091732
0.10019978600972917
0.12937378558501125
0.08854108889624497
0.002275813219156345
0.390431430438395
0.056565852813385345
0.13166756252981973
0.10711399690730392
0.016662324240797863
0.04942358872117044
0.00584557430220479
0.004987541771657899
0.07911985683923675
0.16860801626929553
0.053004026271867295
0.1596729312594697
0.26347218534906114
0.05611976058278812
0.09527085365698017
0.2092319310978724
0.08152184941905531
0.08148114109566483
0.09529613677157654
0.02096918584487191
0.021945772699483373
0.03163354877164957
0.034613214981334454
0.03774454773502446
0.0037045759502868304
0.16327966136468847
0.15950823348041487
0.07196110619583304
0.07961307644508593
0.09012262409470369
0.14767265184271347
0.05960479983964788
0.11967602950101891
0.08743040826908169
0.2694786276485083
0.033462609771875616
0.018240631389360978
0.015084337866520706
0.2214838478898406
0.17543635041623837
0.17898101703335514
0.4327276483987037
0.28446408201190826
0.06293030613074296
0.07539823688932518
0.17071771806260083
0.20136620603694036
0.059858325661594526
0.291458814738162
0.10748849486639508
0.20328192903397413
0.05351251100120981
0.08043819003390186
0.374868354098737
0.02141383716739475
0.13028957335344313
0.03433683875792162
0.1455180471762039
0.2214123239850557
0.04719802490453534
0.03245082582492217
0.035226957320648164
0.1405353672167401
0.512796160032962
0.11212081734575997
0.05391584363394933
0.10012339874191105
0.23682087721571704
0.22225364638499037
0.14217166149592067
0.12299387962534879
0.06073093293703883
0.1399411380011571
0.048438933430054024
0.13196017936969542
0.12739432233666867
0.06825089273332707
0.11349563075965648
0.03327193421010116
0.047484049438713434
0.07763751519824226
0.04219669201468236
0.06007877395867531
0.04431188855479808
0.06363910778810915
0.1583823877743735
0.3973667651742105
0.47850006074361207
0.6208773509286742
0.2667810491465699
0.05674187918261658
0.14398634429989796
0.09048194487191444
0.03700199354166161
0.17999521453697448
0.169778659363237
0.3958091978524954
0.19779211473243175
0.19699847461227618
0.1659111541105382
0.11389400880015542
0.1356155412849578
0.1266296953620472
0.14913104989158874
0.23710523483291668
0.2673235497457873
0.24961853414753887
0.24871798193663838
0.028342504859968094
0.16639456803753064
0.09087252396107022
0.12586249602055263
0.23007591060580324
0.2443466360456445
0.08006798911937518
0.09199547953370771
0.11828473014704752
0.26937398281577996
0.2812434005316367
0.12522447333372022
0.11036590117521984
0.2942431599025706
0.10078164501296073
0.23588534733796726
0.13204335843204204
0.13175202498948763
0.23668774180761007
0.3893869382089447
0.08705888749426528
0.17620555321600997
0.12757679305081865
0.20061061704643926
0.1361949798211435
0.21269015016525453
0.1935648801329667
0.06922151344801704
0.08101471851369993
0.05106181046148549
0.17756181643123964
0.2973983938008285
0.17283498440265563
0.0055588268712617895
0.03928800629700146
0.028864728859688667
0.07050081007203776
0.07027085495630687
0.027786976572772133
0.06954190173825944
0.07420431635180741
0.0348411805716801
0.15556413866782187
0.05602495983122289
0.04907433746260426
0.02840910509124157
0.09327725170881487
0.014886317010910654
0.07982483588658638
0.24590329652779686
0.052338227590601465
0.24719792236313018
0.33573409013297917
0.3633016603398347
0.06448053630374657
0.021873472136802644
0.07287259683412187
0.5627042479086152
0.19100115194761025
0.08079318743852962
0.22387967942162149
0.15507804093164262
0.1416309643295098
0.28331780190406125
0.1554610144170614
0.31371009584115417
0.1240698544244075
0.2178320130030098
0.30419079160012663
0.30951950627250274
0.3037627187060079
0.3430515720761246
0.27690603835825317
0.289188572732703
0.23269809786014783
0.056234292959754066
0.1818567344890178
0.2500627389874506
0.2860832317016601
0.07134603216103134
0.05282230390748465
0.05558621450000976
0.0821602805114031
0.05515473766233955
0.048569671899255554
0.048223326460810415
0.09009628689968595
0.053502922715942175
0.4069613383502148
0.36268063425416347
0.052150197405200195
0.03340519453414759
0.023298732523700155
0.028415727690591412
0.47503922993324166
0.09780783482740621
0.44408773275841845
0.1208904409527264
0.20463498258502735
0.0561921129323526
0.26735747620339395
0.056439332712042906
0.39836085022760676
0.016259927327764545
0.2019803883398546
0.0575319583660864
0.20232362934649634
0.20597560771131987
0.3770870142416349
0.3126803072411908
0.32138883009826724
0.27503213844305957
0.14485939995915928
0.1138165308830684
0.14411121981790478
0.20812088548557317
0.10912224621875417
0.1818722545018356
0.09215156854113025
0.18038559198136195
0.21108498599896897
0.267510880224889
0.25180651252348396
0.13219691403650474
0.15819300871964528
0.2618320398782465
0.12544036236132788
0.1745855652232864
0.2832606950228346
0.04900705343236214
0.16648867712846668
0.2593919539422732
0.16350582306870864
0.050907757948379546
0.20934552152089733
0.11012970594388052
0.17271479255850658
0.04533641568559788
0.27237371661166665
0.24528405697721653
0.06015074509404834
0.0892686567215436
0.10614155303982248
0.1765126033934298
0.09720365067208186
0.07948350122249236
0.14264064021742437
0.03865122982992822
0.19252948304606454
0.003355181539241241
0.02242193075026413
0.08377162247232674
0.026391454171530635
0.11339359567501098
0.12565623236291962
0.0989971069599471
0.11342147654298029
0.14181493744770077
0.046875572594506615
0.011180275200622123
0.09312401262508019
0.08899693513810739
0.08469469269340946
0.08538137721768793
0.10355255441664596
0.3374522251439724
0.027133030213563347
0.08473031528384077
0.07382800889084355
0.05846464445864571
0.15411386655305825
0.18405255931293749
0.023020214342658222
0.3173737025761503
0.03760559703761632
0.4567362362550166
0.10143764357873115
0.18920049170251702
0.050518869409436465
0.06774226305593388
0.1360395361918163
0.04397173456358499
0.060945324804120245
0.13363542212523166
0.0930352506125539
0.11103531015183397
0.1276174178680314
0.1166238188397267
0.1871968456140771
0.13439123156082722
0.07088029274359632
0.07999009510572151
0.04370425201906271
0.034188688359740295
0.08369142573326331
0.03579377568231163
0.06661202805823774
0.08336730401858097
0.05108162512131973
0.21107218083646861
0.16626492430448028
0.10202045364634608
0.076592370196044
0.26095778326819197
0.15795512575943133
0.12755753013890647
0.06859239165654746
0.098294473453928
0.11980130760169275
0.0945600452693316
0.07940404405381744
0.16826042614839085
0.027573749593572457
0.026424367792964518
0.07800082877885389
0.0544288609748517
0.24714082589430333
0.15382893267730077
0.05822836442359868
0.14248144912156285
0.08226910246666116
0.0401449322212491
0.1270870810447976
0.12451401229332255
0.42593307721423873
0.39644247225636026
0.32061490055401193
0.4033531853103671
0.35414268837087703
0.3271740286259857
0.2236622560590181
0.20968495580139668
0.17320684330137545
0.16140360034069653
0.16405656237650434
0.031826389834577466
0.1156185651865201
0.020151667807156236
0.127519370866093
0.17165867824613806
0.14840241990073436
0.22081300091221676
0.1832145926934955
0.1826968539239361
0.20869960341237154
0.0752824548307166
0.17930294333804173
0.12400869490722811
0.19132557829895455
0.11043911911364178
0.053256841623113206
0.15531712391050914
0.06555789565057929
0.09688050568288198
0.045425489958027754
0.10081840723236918
0.024958867397218143
0.2571642570790321
0.03660388512480179
0.16456606825472966
0.16220717390817274
0.15818269522006426
0.1584947052952686
0.0907801733381395
0.13235920049937755
0.2720905620934912
0.1192329014486592
0.14015874912811857
0.11479934610091207
0.044675307119662805
0.21797259272484487
0.04210085772116053
0.035465075687613465
0.03588341633682497
0.15904460056888778
0.14120110314233975
0.10013733392666967
0.07432880434780088
0.2558785520592318
0.05159828565192719
0.02576872625198431
0.20033653482577285
0.04264243834319908
0.20133863579085165
0.23801763753658747
0.05330473959335015
0.20312804921089234
0.20416555216573223
0.14613788903098468
0.0917001263912556
0.1571757336818224
0.04298762660505182
0.04319707172472305
0.21543753703430601
0.1972356213934087
0.2010863192460598
0.12546347594977622
0.1419504341914199
0.059891916793003624
0.0286307569425979
0.24684447639654086
0.17269490403051158
0.12986207605181121
0.24227129639409178
0.18732812811203195
0.05239224777934153
0.08192844121219717
0.04473608120762863
0.1161685022182226
0.22341777709243432
0.15291666714260269
0.26602595557320297
0.08346861943567485
0.048283550230204926
0.36360617141927076
0.12953195736661194
0.1266029752516174
0.0660716760627163
0.08980251714366523
0.06852942713772471
0.0638957311449352
0.09733296098797199
0.09852815197811043
0.051203198107051595
0.041865131512074834
0.05060917443253567
0.10408728082113444
0.12581576194863167
0.12911536315112537
0.08192408874905234
0.02582572119339213
0.10264772506176037
0.24420547283929592
0.1597442515928741
0.10325804372211919
0.24896286886300364
0.283968337490297
0.3601637500679504
0.44675616143949826
0.5069815587953017
0.4749958836897642
0.4956741523233659
0.48167248384552575
0.13733876491128813
0.18130745959579478
0.13100866313548512
0.0670648464423659
0.17801052084982852
0.16027661441947222
0.15687086646167422
0.2522351145111044
0.2812588766722381
0.2384186879835061
0.2020043260877263
0.2408809276770858
0.13522237640247292
0.2664667689883345
0.2698836135145877
0.19097165766438717
0.1399197655512868
0.25338848183500123
0.1085197167592102
0.1203626783741213
0.22873672278915483
0.10765820159261905
0.17376012146539355
0.16477463621650107
0.23985078210131353
0.2004244806026356
0.17899365159191358
0.18071093372932753
0.11748064728727545
0.14665167081527059
0.11954251255168752
0.21238031462149262
0.2351278708958592
0.15836693153132336
0.14499633632943074
0.12338965788555613
0.08647731437075566
0.14246804691443193
0.1233438224348888
0.07454268348521358
0.19202740082323302
0.03840484487962597
0.20370771048886116
0.08493234812735305
0.19949601006822515
0.16255862448631314
0.14647271617682878
0.17154346280463087
0.14045505821421256
0.23347199363339455
0.19112017392425817
0.3699817910986372
0.21195836536337712
0.06720446312145734
0.09570147358740573
0.152770219718244
0.07507993820031592
0.1627307282649442
0.088020183473612
0.22600820316539946
0.14099059370220807
0.11263375648649342
0.11592478032986413
0.15720230864377532
0.07896798854783312
0.12337104020080643
0.14705969024336515
0.13178397637860892
0.13534369085919207
0.13005629302457622
0.16244886559868363
0.08567966210044174
0.12638763939393688
0.13559473050770154
0.15373103253411377
0.12375207763833272
0.10147452669253719
0.1665828153546102
0.21509452290741293
0.018285155080674756
0.1428890932649257
0.24976416655331218
0.3648213165355348
0.3885301338447172
0.35069905882666697
0.1976751959238711
0.1817227274488991
0.02609859399124819
0.10634212030805427
0.09064182180263203
0.028561642501505627
0.024521108877576105
0.06503857119471307
0.06869796292480737
0.4162020852136102
0.030799941709445673
0.019726965073816213
0.01727849540732764
0.016817997344577264
0.03461212806205352
0.09526943856711531
0.2041989221272585
0.05807355625682299
0.045700299861507976
0.03776950960739623
0.08573811244567622
0.16637755918496544
0.0228326446977887
0.14732064230482522
0.048043177410506094
0.038393421789440246
0.027451142206717367
0.03722452595151293
0.050474008234734004
0.036401280496070845
0.0445920564096828
0.07286384227838608
0.04917540606440395
0.11187760585228833
0.030462605039435136
0.10864906837054664
0.20715556392262932
0.5273252932730516
0.07710024383713353
0.012900407848336543
0.009687870781055444
0.021458662508944144
0.021417484167916976
0.01790491325294972
0.09912535285513502
0.13938427640273024
0.043168774730881626
0.03936118452989983
0.07742614433751717
0.3748108922215574
0.11973675261292173
0.03758828959503534
0.047368008368065956
0.033595790974624784
0.11168012295221326
0.05665880613915981
0.045428217152523716
0.35284344290015623
0.4743956735222887
0.3613892677161946
0.07348185304795692
0.4067907003918638
0.21458631114362217
0.3852989774498485
0.24487818793545743
0.20826745572137326
0.19754117898354448
0.26465275360182544
0.05018375198659484
0.053018255704481175
0.05846468326419788
0.07077824982198326
0.08699626067306802
0.05606574667600255
0.04534572434095922
0.04530644551360071
0.05714592755289115
0.06848260219221569
0.07194712413465283
0.08466371214559157
0.1876449520528407
0.20434999768139375
0.15793624130162978
0.15832352187233997
0.22076494431996313
0.22153612900921085
0.1976481940995262
0.007385078919466428
0.20115993156807474
0.14517533836857524
0.15363254475243748
0.10565423690046627
0.24933272241205648
0.21351069957542645
0.031969111542568374
0.015442645919233031
0.060709451514324685
0.06533117364343323
0.06975879032685578
0.08164679526121076
0.03803293891824953
0.19942908318755198
0.024596130383033876
0.06038016610456714
0.2199953959326728
0.05470242657780037
0.1450548043051289
0.21548792437600184
0.24234018397404658
0.20250302029039266
0.10011130254779624
0.2731692032076612
0.22115384442344746
0.30878140087570644
0.16727529855639986
0.30697595483081697
0.37978715074923375
0.17032283195149708
0.20511917064708687
0.06042673479757955
0.05433816169034603
0.043115624333219485
0.0477271514211812
0.04039181514104464
0.04926244393917433
0.010116378788623735
0.024710553323850394
0.07286376158504414
0.021657960655011153
0.15357852169172778
0.02998985245001491
0.1775426627953359
0.0233408295594762
0.03997454321739103
0.04558692954902339
0.0332897476131341
0.035709629832797865
0.2397887660615609
0.24397232978778993
0.011881277909650361
0.04330635104632568
0.15948986381161934
0.0706921847598725
0.032559319303228806
0.041784474564420054
0.178972492423595
0.08480590402614505
0.10080294065534572
0.023524723404957894
0.29802840430352934
0.1757868345629824
0.04901404235066829
0.18636340522111178
0.3225954485481286
0.36417216697985216
0.04789474794843785
0.04957277184477219
0.053860177043884364
0.09006218239184649
0.07842957890985958
0.13647204988280484
0.07343303640675912
0.03564603072631035
0.09303328445362465
0.01368178900665945
0.11541477808203357
0.02233081077686507
0.03506486055531433
0.19997023341525974
0.13604252501517156
0.19010522652881517
0.08976730282292032
0.1307701798263718
0.16345744584966562
0.09784167589226299
0.11340140272700501
0.46508133940773033
0.1839984245741699
0.5046273797728329
0.10340990158952146
0.15595910403886867
0.07292312713272606
0.13649951525740625
0.14856662805606713
0.02544474249329555
0.16226799571094888
0.09480302974338553
0.3997249517417936
0.3131379716737485
0.48647097786361354
0.40498808413760545
0.47718948539305284
0.44376758831859775
0.3652327827138033
0.18312136052907493
0.24689391441588324
0.2340926911702982
0.09623589776937794
0.16450738108272256
0.1023426453826393
0.12846672112359123
0.1497588043413083
0.11570107421899387
0.19015781239524687
0.27811598498700796
0.44934589638478173
0.4207348329058773
0.3827125495663741
0.22867393827667323
0.2876922042550593
0.11399397779793284
0.12935051632865677
0.06178348445219324
0.03261043500404477
0.08503049157928723
0.11615178951298913
0.23716831141589748
0.1279471522257508
0.22867504906120964
0.034516070395287896
0.05880426676380465
0.10297727870125659
0.14354437899095326
0.235387976248868
0.06052442485078877
0.14641318590331623
0.1280972298681192
0.23835008370307048
0.08382438096311645
0.2484894357648481
0.5033705279281758
0.2729301155073373
0.17397630055001895
0.3127425189232856
0.05106952326128825
0.011732417199028622
0.032747508566090856
0.017564957138682214
0.03295824860987653
0.03023085176566341
0.019586327030273253
0.1298315505669312
0.13694947649222475
0.27658696967270346
0.2344020068964305
0.06292790829969734
0.17255220125832973
0.2011398760291457
0.059275789009075076
0.046086753392104524
0.18743813406552898
0.2798675292210636
0.05720359799368043
0.05972590207837409
0.12364735906283045
0.03399829491593365
0.08213900221919675
0.0346255153678255
0.33974635239029194
0.23868615387448902
0.4305310074699657
0.20428376612175775
0.3715002951729608
0.2572494496218375
0.06970581398733687
0.4800086033660815
0.31314038068201466
0.28779761673131027
0.23505581463519054
0.5958001151135542
0.05223189465155828
0.12082944928503102
0.11272777546782668
0.08222668589953214
0.0771752268471296
0.13959318993263228
0.13526584759815274
0.08513232066534866
0.22853940245099594
0.12420455559400602
0.08867603399705443
0.05491628747891367
0.16086464626175995
0.1320172418563348
0.13832862611549723
0.1584148729209944
0.32436209490296153
0.19625181172518702
0.22596606610744555
0.32068462900047184
0.06971114997160183
0.1106833801187829
0.1606510707509293
0.09246861880548861
0.1046001646585839
0.054857218084644555
0.08053839122057779
0.055506410557755834
0.07023353055294186
0.47015698439721193
0.14913645144948678
0.0666104527075398
0.06472882021916194
0.13097444300688482
0.05917560435770007
0.08634876470883632
0.1479455729275311
0.0999082595657478
0.14963886267469487
0.3803790874033053
0.3564021724312125
0.3850630927716633
0.397361817749697
0.0858949974665079
0.2630186406960765
0.14663536544117078
0.2818296233825799
0.37502220082612037
0.194531796924849
0.17416348079665644
0.2086394366942434
0.2524719317239864
0.3001111981213886
0.31499657094074507
0.5851965674977168
0.19430556694691842
0.09692533393105567
0.346989871637504
0.13938488964649376
0.14641635974390882
0.1255495416674458
0.13072583873198246
0.11967171616328433
0.38360648242488465
0.3134937471660892
0.39026920313215746
0.06252903731916902
0.16476196278056113
0.13158155769727606
0.10622229758804216
0.028505215571445315
0.2773324958438654
0.039028112016510415
0.06843798073449062
0.14566574235048121
0.15076739314882193
0.1990463768747057
0.09890914541115406
0.11948735973612272
0.03876598584369039
0.05738418935142902
0.09705052071212444
0.035567123693502393
0.12350874213505372
0.015042228170535424
0.3437186160223551
0.07044494387312747
0.02648175367837894
0.13518643029009575
0.05483565226814044
0.02402582491895572
0.1144891384069544
0.07820650525973184
0.13558228400408948
0.03738909238167661
0.16553596282161254
0.05417248578321391
0.21530379400243652
0.5911365221165109
0.2412082595450104
0.252773109894419
0.0967540450846795
0.06729916755865768
0.07782039132468217
0.0993860308634153
0.10263692299433089
0.1305135924103453
0.09507112025799433
0.12066149353808663
0.02678112862198865
0.09123148966089978
0.1316274912080265
0.09536557317113734
0.04682314985025182
0.10073830867021874
0.17457288898058623
0.20918411775732718
0.07193206495125104
0.12274112830546283
0.12453930479030198
0.06715883528824039
0.1438277823223326
0.026095810674953233
0.2649086446280064
0.04576092936154305
0.08243328403720021
0.14778863978026535
0.05024891273853058
0.16380502130431182
0.1554691081746259
0.13391453944466303
0.060075748217873336
0.1864337758898517
0.05767333391030865
0.07820587495858403
0.18880288703637307
0.1984298966616071
0.23569868201862318
0.24567548158011965
0.179121475323838
0.17152939557158178
0.09933994966884367
0.07589487171669569
0.18543482734377
0.11463792343017278
0.08128313233432018
0.07965437587777462
0.1552624228584006
0.12305012667860157
0.1655797735572355
0.07978563023568304
0.20711488328863764
0.0892439092163737
0.040139348963631374
0.37736245037653265
0.44056799141406905
0.2897942695884239
0.16159242713178676
0.3704970965587677
0.3802620896350016
0.24222080718275452
0.028418243163837304
0.035471653175894194
0.20873082796487574
0.043126689206102686
0.053499379723526315
0.09168083478715099
0.09599249853377807
0.07322826666609382
0.07259846659706225
0.08738371561897341
0.12154378047748185
0.1705228065345127
0.14957641422469248
0.1920964735567516
0.2138175203241919
0.07901250838415791
0.07865740001181773
0.20865868773949123
0.2409860605047187
0.06452902894020952
0.05794315304399446
0.08231647771745891
0.055926348414324534
0.23742399700296443
0.09522724281874997
0.45012248941301225
0.07251962774524207
0.06635574641628728
0.12642760540604364
0.05648159580976534
0.07518928442152942
0.13654778934748238
0.10317695680246788
0.119945197841315
0.1307903431349639
0.14359394805656966
0.1120076418496589
0.04374123001331005
0.2096762704637165
0.3487869840476212
0.14259946719428676
0.13885616893567623
0.07986839617372064
0.04509245528902351
0.06998272687952785
0.027660994991987892
0.04903848659360003
0.03635408701436077
0.08635746025917101
0.07733108904721381
0.03716611364613484
0.20796468467911003
0.0032862170852892524
0.1331233180796198
0.10174090143345907
0.17549983590289978
0.19014799001727736
0.1779797307587518
0.15827414762220668
0.22081472569160374
0.31120418113559584
0.3343192323189536
0.20109121333216695
0.21834335858331996
0.15410238486369052
0.026882786270741747
0.100890835962467
0.059711453294055
0.05403437641974127
0.06529408099993438
0.045621544714185606
0.06992502403619975
0.08556177355424995
0.24216050436151584
0.17392764402947533
0.22371926350972846
0.29551925943229657
0.30298006308660086
0.3109779968442033
0.14278957545294055
0.14830264740352606
0.150774681055345
0.13521335324789258
0.13537516990499807
0.14517362953038548
0.19929507369156563
0.14750591509483918
0.1826062190989492
0.2547270944205863
0.17555431837863109
0.29148924037817353
0.07747193952696813
0.030105326737168085
0.09656564202347229
0.07665964721602292
0.03735534155659369
0.0764330222807452
0.05652710605180805
0.07387479922023334
0.3233929083540001
0.38662584741145045
0.40011523722091474
0.1039580304708109
0.24643357688640724
0.23345826603220463
0.10146685964315051
0.19555463773677065
0.1357422915405595
0.17904881336714054
0.20181589644875805
0.16530559278708454
0.13376752182019397
0.05822789433399342
0.09604445324494551
0.2467358170362776
0.17928911601926512
0.14529123789070966
0.0770237601205014
0.09593485479381154
0.15467194729424433
0.4344187628289517
0.35496725063093865
0.4421909638872159
0.25479242352526577
0.4094757883785659
0.21599020307947928
0.1709652345800744
0.13747598872985903
0.15326030582567293
0.14021408877475103
0.33105323507011913
0.1419190194358108
0.02688628288988536
0.1931211088244107
0.33921662025684657
0.42658274876250724
0.1526719200497034
0.07831687212847457
0.005886029425049898
0.19019987303301006
0.18862159065810877
0.45257850833538055
0.415459836337211
0.359718444914822
0.2654914851241631
0.4368725583779423
0.1732064078930292
0.22889616708442745
0.2262793164151054
0.19811561731023522
0.07810381036750706
0.11297938963484333
0.08036838656385518
0.0973415468748799
0.26801389219946037
0.10151417992071649
0.07363312541380433
0.12280592816407578
0.19641363634287132
0.10316650273559363
0.250982723857854
0.12493264568731684
0.1561907097704954
0.08422484164199646
0.07382677589166015
0.35809932373446757
0.26000968251881423
0.2493057895724393
0.1625661696324961
0.19744673893855946
0.04312899742018997
0.14301704528920298
0.16450777734463393
0.08729126498941214
0.11104043062353913
0.21650279046215146
0.1006783392244146
0.06139867267575709
0.10405474742378887
0.07882299209849512
0.06361984641659488
0.044227229273664175
0.12144212800390021
0.10159177845138641
0.0782532321730276
0.030303372643954492
0.022197134399340516
0.027355721974579222
0.037240879488052325
0.03291470428085541
0.08848072676129176
0.052612987685851605
0.06890130941055997
0.03544819923229322
0.027325985866350933
0.10991140118848593
0.05289054559105017
0.10443983843880242
0.07829257284220079
0.059866958005385384
0.055073702409665706
0.11008928576305015
0.19462063146267355
0.5352442253946468
0.23183501013296362
0.38774463012939603
0.05892074544451224
0.07536379870760017
0.1299752957638147
0.09763812098316813
0.05313818442117025
0.08509781892021424
0.09891910231315226
0.1201475616455096
0.12380196328523199
0.26477248325000396
0.08038859083027652
0.11661129518492952
0.7208274273719882
0.6945589383464996
0.6506354139554925
0.6109485072724933
0.610491949865169
0.05662780427617377
0.06602301426656502
0.01621850530985432
0.1058472665911043
0.06320731340802369
0.04836284813159467
0.3558323834711672
0.24355809700166373
0.18670546309247296
0.11614509883780119
0.49393797353639274
0.12250583631783046
0.10329172100020327
0.08385531608553726
0.08142531838480585
0.06646586716843511
0.09056000366793959
0.22205251784129182
0.14194622690391648
0.22794379778069507
0.12767976501598352
0.1435109059784298
0.1800577246097158
0.17010337961595617
0.17887238996677624
0.12859090425021003
0.17849575415503258
0.15764967032675883
0.13435587313366334
0.10679614935312577
0.1126246021425277
0.138504247162058
0.12949349153976128
0.0787240454444006
0.29389115478576455
0.15249576132538825
0.17681433149497836
0.13627425699846674
0.1335385033790044
0.2838989340173007
0.22014364681173262
0.1924700780741157
0.04117338899873999
0.1625496772044663
0.2359543680699519
0.2081277080024899
0.1472347221151747
0.11860447186192816
0.24467774006608
0.38648368275775796
0.13081856145448034
0.07324131920489468
0.18716147043503567
0.07478986215069049
0.07508459984060388
0.08921474703033698
0.05406807707291145
0.04783876888721688
0.07916904818552054
0.10589387483568695
0.13012703842751755
0.06776457509807607
0.06937606901535638
0.05579843915515075
0.06336630416237224
0.1840867645743982
0.06527943645786669
0.16704052101865485
0.16745960030847037
0.10557549334276707
0.15610033607352783
0.19359659644019148
0.22047866929782933
0.10793971737027236
0.19137261880426118
0.20787232878233472
0.09747992608260647
0.06810161515749354
0.12244807527969578
0.062414289515537846
0.10547183751895957
0.3071118427122029
0.21383076557463152
0.10251895251994851
0.0912312586448231
0.09326175439449916
0.13955068495269984
0.18071363665765655
0.16595450817236132
0.15460544618869998
0.19876431591238644
0.15629710895184354
0.012646453274966916
0.09658905655895628
0.005856990956055154
0.0960400186436827
0.08577013262290913
0.32334822194078944
0.14550471081546845
0.05843268572701168
0.0363824938052156
0.01859889804203794
0.15376575187947894
0.029343178664989526
0.029865499602416246
0.2164483052456527
0.3116889770966526
0.019130627182823812
0.02504317494200867
0.18211896181310036
0.0585324886252734
0.27322399342729453
0.3315155682605478
0.023913948230128133
0.038878805747525585
0.0432823705416657
0.031411687886630096
0.06738878811405653
0.046768109161732935
0.5193996998911449
0.05100242937522607
0.009404316110945488
0.013440605513750446
0.061641919648214
0.02549258392093366
0.03373241407584752
0.20209450053215708
0.16682550722516337
0.22489676422169125
0.17326018377264207
0.19811694311187295
0.21274097972143297
0.10718477409446826
0.04700924666722137
0.03335015408144957
0.024980682177896802
0.07692708213625779
0.04544245445707805
0.12456029904418674
0.1674141472652066
0.18855111887936898
0.2114883749497485
0.22705745097912983
0.23261728335086532
0.27841362644695944
0.14449286289472202
0.35131774185687975
0.11977416248341324
0.07114451293824806
0.1522318822141262
0.13142527299843157
0.12295630308835481
0.11273917859009558
0.09616985033221057
0.08277648489940567
0.2019200240675847
0.2121588712582293
0.390374389604081
0.2878771909746177
0.13386337208452212
0.05985653451177751
0.20190450122824763
0.3128377784208623
0.32648028365422327
0.1554748301894673
0.19752160721866446
0.09691662990687563
0.16151578316738477
0.06419367897522543
0.3035049579189754
0.11216246601338428
0.07076115950599964
0.049137612229371914
0.047228153540989054
0.13153088286447664
0.0418994561616278
0.1011894099795227
0.07474313473952539
0.042785170268417085
0.12755677098570803
0.1231090327385316
0.12019406860680536
0.11205565610187693
0.22035045172732884
0.21064736579472854
0.44105813019340917
0.09556366655065303
0.15303752256010006
0.19427028375565414
0.3949222004000308
0.2659367105349515
0.053305562931260105
0.33204397043925854
0.03886598480855255
0.03630603876527398
0.017468429180632117
0.30034233771611935
0.01580253208333948
0.03589937620341188
0.050118305548658135
0.015114412307680236
0.15080517037572888
0.06981417055063253
0.039225768591955895
0.041196511629157814
0.12776973564054142
0.10802417030158612
0.5966516772103446
0.540111977090185
0.4553579666265105
0.368239138388186
0.6186676578833255
0.4125506363141761
0.2898990450096668
0.16121620986014482
0.17872369198160107
0.15284572623045814
0.17239066585924445
0.17834678217789088
0.02667299748227337
0.027598606169491596
0.024591370592626893
0.11529049098964685
0.04637628752988185
0.02979845326512992
0.24713580575390562
0.2086184609764809
0.1893638283771686
0.24048765987573914
0.2241794421111795
0.17605325074357134
0.1322524419398006
0.08563604131955753
0.0898149302179366
0.06295469356542302
0.22315152818603584
0.062243339013253386
0.1829312034327112
0.06385152099295818
0.11162386140956577
0.17365845623514894
0.05748628182326544
0.18650285182165588
0.15094032996033657
0.13779134921530986
0.11334868977174366
0.11035291432679015
0.10828423006132186
0.097722416654375
0.13448261623417376
0.06158573191841256
0.03042737086844555
0.12314721253218401
0.1381499762873156
0.13081649509892998
0.11230745196831644
0.14581227072041061
0.23346036022226388
0.20297173641629138
0.2025614215912304
0.12900984640568372
0.18791835209296404
0.19567559060521053
0.3769499553918025
0.19498997187586156
0.11628673750241256
0.23119421352985906
0.14303833556311885
0.1369472940685545
0.23237229334386664
0.1580440391950486
0.14796724075582682
0.1323672155659661
0.03941779673402843
0.35257798472253754
0.2311165915421174
0.42496832353372577
0.06699038656154195
0.23608068018918774
0.2426819630064799
0.04770042111116746
0.04268059184176815
0.03757323232632138
0.037048584077996896
0.031096829581569486
0.16673473832200464
0.0364166086665666
0.034103073504970625
0.025201620196130013
0.012106059032464277
0.022755202031564514
0.039377403545875295
0.08056032596875048
0.1142625022182204
0.008368407437663487
0.11386405343793328
0.03917900023573868
0.009474687155426799
0.03789619697127707
0.016797759260194105
0.07326772731363805
0.11816857335726055
0.09433352738524904
0.08009480032295793
0.10133802501736629
0.09853018360277908
0.08331340944093717
0.28878986318490774
0.07963330214314936
0.18946029697230743
0.044851941307651584
0.053645938769115525
0.6367015639027601
0.10816973728156967
0.10377379486184722
0.16784977018515518
0.24904491275476331
0.12046553457402433
0.13638652835262355
0.2793815141677042
0.20783081274562687
0.21524745647266838
0.22644537856336075
0.4350093141321143
0.11957961083580208
0.21273423048948065
0.1174882082832458
0.04994630491291911
0.04260933343074329
0.018568460987010968
0.045810729045205265
0.08687036489156762
0.17379019741898358
0.08659092741508138
0.0971191639783797
0.08138773746777025
0.08410584260771384
0.17890143332855607
0.1172050146816174
0.13808361473236708
0.18273152281874333
0.07912504188278816
0.14341626088415277
0.1644902031280971
0.16033021247651233
0.16888757731306295
0.21448055784171718
0.12651921060014493
0.12259256274152994
0.184436475605045
0.16208850542506725
0.1790627779110149
0.11577517993218749
0.14081738700969626
0.1579423529674982
0.1494194250972622
0.12320659018299268
0.11594737453329682
0.5964751269995728
0.3046674329284275
0.3936130757903459
0.5590782403321984
0.177984654290705
0.07043803538097271
0.051975606019576806
0.08351666352131626
0.043374711142289475
0.14824330679128403
0.18904672189216795
0.11132102967425864
0.09978370176174328
0.1229842518267019
0.3375102910537293
0.3371547567094307
0.3769976826476171
0.06260052615432807
0.06220357859981508
0.05655638102802097
0.05566324395150622
0.03542721591126873
0.06291996254753832
0.04738643698464886
0.05062553840287485
0.04528219133446302
0.028588566779954392
0.05913175356051983
0.029858606922300086
0.04900684497587368
0.05460511472766282
0.053277312558324456
0.06377857596650065
0.05239821868572175
0.03238722249909625
0.19539622305125037
0.04037459976393639
0.05865810810877203
0.11132149935403511
0.10605796306684034
0.1492847872650032
0.07195608373567075
0.05405080096260006
0.052394715511650834
0.04435891744017921
0.11599059340757051
0.04934398899622203
0.10654708937661218
0.04896110684139033
0.05379203223392653
0.1125783810444209
0.055522229099811075
0.1320717555992755
0.04788910472433675
0.05884691950795151
0.0455946440712876
0.047509156012698575
0.024936424669329278
0.02536353857486862
0.05655629820589636
0.12286459358736161
0.10226007356800697
0.1807558358775176
0.05552256149431301
0.02419733468091431
0.038763111018055255
0.14743168476159418
0.188031097693582
0.18348144761179452
0.16786787204433878
0.17228780219109024
0.15549854586306147
0.03460431145604469
0.03592649411285367
0.14154439782021055
0.28586689763346085
0.06162004324539675
0.05522817481050976
0.10312490971765333
0.033522646903370125
0.14316462178727035
0.23534750408794544
0.22970858122890692
0.2250378378583477
0.2266586092477565
0.16633254969421965
0.1520980687822535
0.10347056206972519
0.08771813114483999
0.06812671844883497
0.0725436760340247
0.08449741422210769
0.09467554669056566
0.10736801000229547
0.13477037494646138
0.07463595617152016
0.13601137289626059
0.05765452185348717
0.18291392712483218
0.09292334796836907
0.04900888515029475
0.14355564050777947
0.0941880052837779
0.07265002491159875
0.21163717121869072
0.06773708150684767
0.4543425404684921
0.12074260960395983
0.39132068091507266
0.3150884791028472
0.17669782650948657
0.24722775797738347
0.1301940658249414
0.4518931483513345
0.33098751401644033
0.2991690541632712
0.4630245315219989
0.0910490690004199
0.20947479856561727
0.20794206176231095
0.4409124995248103
0.10765942966116732
0.19323966853870658
0.033978447032446055
0.22981847316275883
0.026737145533836746
0.023142219732433744
0.4878114718865531
0.5003811836317266
0.42679905311869465
0.4879414778953123
0.4170715714237133
0.22339815241087235
0.24217129641766047
0.14956896274516362
0.12169204954271921
0.13477667123747167
0.09114218741425058
0.18991929465778046
0.3242712878947084
0.17639678844137624
0.1878571753307926
0.3927536815964399
0.1908989737614754
0.08108350418067059
0.1451501973713112
0.10800416143959488
0.07493042427097968
0.12716134344614927
0.057071701503668006
0.0814621098011964
0.2665949015389472
0.15543148556710307
0.0709143167565722
0.08183076336876395
0.031114834717401944
0.10027317861381495
0.25052680304994
0.19617320023011553
0.28134484671704735
0.22654427906171554
0.10589768986531009
0.30594544165100085
0.02974482846531381
0.09721686339406138
0.062195379375161106
0.12254473915479329
0.04877951315839874
0.05277600872632373
0.01574343850317768
0.11088156813662338
0.06585419606471389
0.008919000871999289
0.032751265446699325
0.01885709310344963
0.00635075232764784
0.0788690508325307
0.05318699763532304
0.20974085580708582
0.10612946352399143
0.13591840262273622
0.1601657132838282
0.10910849939099077
0.15893989376257284
0.19957457248900623
0.10015865592726686
0.05222958472206692
0.07674791916149172
0.07617558519297044
0.19344410401018203
0.1118685724158773
0.10873730003659068
0.10831385123519945
0.07584390515956148
0.0824171001498703
0.20690225504489454
0.15929039831194575
0.10146614836433841
0.08920292921428268
0.19289886366290354
0.022405702372369163
0.1354719577145969
0.13649406160976926
0.48594332693586534
0.1962387297331437
0.09830965671986337
0.13661489466748727
0.28169370746124184
0.19963949603102094
0.3558635597701957
0.20269462731625032
0.10842605074169498
0.1723745225481372
0.27799961342716667
0.13562482213052118
0.3914316649222251
0.24117575572578262
0.44365054441657586
0.421554431378019
0.07092955339019648
0.488783567937342
0.16891410177271488
0.6150320461956108
0.5394922493117229
0.04741579060523364
0.033785216446917135
0.030266294299343036
0.0733339988820174
0.2101225352696355
0.18282430493061969
0.07485280490044537
0.1375327174745049
0.020675000154823518
0.10317736317251448
0.01912408699649782
0.02243509040722548
0.049500741938299446
0.07364620466893693
0.05200553563841956
0.08007185213058188
0.07274107179123923
0.0644838189355479
0.03618873790139465
0.1653480467429883
0.024417281561693274
0.021709882579609263
0.041333070654831126
0.041205923972128904
0.04586512697277563
0.05054988819871183
0.03491049703408189
0.0389807404410322
0.04825787760477923
0.0731409055576477
0.07170770543626066
0.06776926974054977
0.18427351841153033
0.13081392664747035
0.08739784780542746
0.28952518909709835
0.3616612897937058
0.13269377919381467
0.1607522322796196
0.13317436193134122
0.24790933239757315
0.1898207077924608
0.1444137759031746
0.16614120346925762
0.19183052864330896
0.2427693148945797
0.16404895264843083
0.1282956701788397
0.17472556924605354
0.02275912803449942
0.2245690518945951
0.22115626023470866
0.07367861245041117
0.08661176396789434
0.21823826367521568
0.17647518980758306
0.16789695402124816
0.06897147962248205
0.20347757621442084
0.138010880592156
0.11597018281901476
0.05925987085567633
0.00811939838966623
0.14861655001543214
0.1285663725032307
0.14734711756823757
0.1383064262951502
0.15334313753414283
0.05249102744130767
0.10335325264930623
0.0942262256828483
0.16209241131642013
0.17402256053885534
0.10072675618061364
0.15181305890426458
0.11100771355353277
0.02142966008515538
0.0818680308013631
0.0752310831439383
0.22756776772011153
0.1322181431595731
0.1566791491908357
0.2337996272929187
0.19223840745362286
0.029272304309763603
0.21746309266117658
0.08088307043589393
0.06988238709696516
0.06348329100809127
0.08018582020033843
0.07622373958834708
0.04817941896232286
0.09864671078589474
0.07039280452911063
0.05096707753152242
0.16053384873662319
0.109942696939356
0.3875628078401127
0.40618742731117063
0.35420991435487165
0.3898409920123304
0.2868916647931889
0.3599069250704089
0.2605341391942101
0.13356426637570218
0.1503337260279231
0.10333812024424269
0.1154043458837242
0.07494273234882928
0.09995893514497226
0.12317612756428295
0.12410039003009223
0.1772415020039685
0.19915033955058306
0.19940161669596101
0.1513602289810271
0.15910113487845956
0.14406229303347362
0.025113365162000325
0.05281574465158307
0.10980473772226203
0.013975116778576852
0.02804763758595535
0.017982788502293977
0.03417804023043399
0.10525824919571755
0.13321702478678996
0.05784205307824346
0.3256602890375315
0.15957819463982562
0.31452830139366367
0.20268945890759157
0.05724175136089161
0.3536646103475031
0.08466623054567314
0.13493747796303113
0.15870325246091763
0.0883117453139939
0.09021498593720834
0.052334668917829966
0.16129181050782654
0.17364405995411383
0.03998954019774835
0.0298508614978875
0.051014688742268124
0.0359948204374041
0.021922936071491133
0.031522769710848074
0.028368191834765077
0.0357756320481863
0.049218769243289544
0.10464299047984027
0.06443387888633145
0.050539398133647
0.09396281941655325
0.10961881618563851
0.021707753280291703
0.04172786280916906
0.17917106872374336
0.09298710779008328
0.04042782895956432
0.16529440145235913
0.18678258093739303
0.22019359020746412
0.17464117140802257
0.17029941303390495
0.11907895109039193
0.1456921499261
0.20966362616145806
0.0981164030763084
0.1409212732131699
0.23643643697318528
0.2711489206368053
0.20586220128703847
0.20474350268582886
0.3102730666492337
0.20401216908575645
0.24177139904639663
0.23993908249302145
0.3764607689233715
0.1591109603668864
0.10977837830683863
0.1546865135773892
0.16174209439937845
0.06191371788645995
0.07482923499678919
0.11267158451624844
0.0971317506708465
0.11269916445764304
0.10866229252964804
0.10277548111471402
0.08555151702490371
0.11678293832685882
0.06789648452541021
0.08496569855558764
0.0963133032062476
0.04347045042946154
0.043617827726659834
0.10952260390384114
0.04414586433318554
0.17978136498046463
0.24612153715320884
0.20670137190912674
0.35128226390068606
0.210952319239692
0.09600497713733186
0.08063689606620242
0.11648317027353806
0.1753981633912755
0.08561064703079926
0.27757015392218104
0.24592685812703183
0.24396470530015
0.20943989894275908
0.21483027746819086
0.25961357920423084
0.1356532113279961
0.040224448776465464
0.13143111733268018
0.2315996258514371
0.14919802800432017
0.05840327962811492
0.37623292986262863
0.0077266980599522295
0.028863185762711827
0.019116801331593516
0.055979919772718816
0.009386571172504566
0.017047383140050342
0.02443877594785017
0.10315925457629894
0.02013269107743594
0.03779441472388092
0.027617409373296146
0.034525419869185156
0.019824844206440047
0.08347158380015969
0.06258028865235114
0.2396704822951156
0.23293097761402584
0.01625636505564284
0.07218451131242405
0.07931073503067058
0.09861732054584164
0.11142239369499798
0.044939918817663085
0.23976969754132976
0.0685679685499301
0.08042657748790356
0.07906294827520866
0.0347492319041116
0.08621414439208563
0.17828218719524774
0.24938135662944083
0.24378038266454394
0.18375999920412991
0.22720179783632655
0.39475552929631963
0.2767792866219042
0.06676533724996456
0.10521303547499689
0.1784779709228548
0.09365673017306148
0.13406619965957597
0.1277888116463346
0.1528430692665395
0.12094660617311168
0.09853000953017013
0.054039017809162426
0.08952456369164159
0.1078973079947468
0.21047572466123218
0.08333312132464327
0.0807449305386301
0.1492283853132649
0.20741600808653307
0.1895213007215454
0.08222265531028332
0.059228099298145806
0.6164088140447301
0.6413002259936544
0.39787546287540015
0.25996836861551975
0.17687590590485053
0.2735314438397444
0.15697834456592516
0.2272097741745588
0.20601488674022383
0.12217936562257405
0.07205449558767278
0.05266154471255226
0.0600912412777192
0.11184281733819276
0.26050678668663063
0.08902460717836412
0.0436829444853569
0.05050341692248059
0.08385067461120292
0.054480930855096456
0.12547555762824816
0.27701531437747373
0.07081296774104316
0.11138872839565546
0.09482801104223121
0.15247581692439421
0.16156332184068908
0.14256478099858777
0.07400858339949573
0.10030119329117394
0.12030405629025595
0.13965792535319538
0.08241501780568684
0.05383676727706249
0.14516370156890565
0.146653305561775
0.039551106709296985
0.20513552413548172
0.1090541606503734
0.06928310993031492
0.11477429237980674
0.09133573681908667
0.06835500294891807
0.1092163598406202
0.09756546159110499
0.15353304002236973
0.17128883879595247
0.07749340711805268
0.13590520116432017
0.12882253315033873
0.10905666060732008
0.13081061476609537
0.09099654627403986
0.18787450182596
0.1420910867875756
0.12028138452305256
0.11247949340516156
0.13356021869825235
0.10415896768406943
0.10519940200643386
0.11569938943325803
0.1139241936648951
0.12539505205980095
0.3986031897355576
0.2094930109373708
0.26245614384742555
0.22636246776851532
0.3437945582982282
0.6105787106837843
0.28246225017541626
0.09404250186631535
0.2145867230967505
0.12726257799620644
0.3057367978369948
0.466768959199033
0.1531653744738248
0.2964606035774852
0.022005671949831135
0.039158152674235384
0.010230898714887922
0.007204295166467138
0.10460478507850045
0.24820527107141274
0.05938818177618841
0.2183362349076917
0.1369743157632178
0.09023815152542072
0.08608083344553821
0.34989684839917334
0.08592757698925603
0.2170989693000382
0.2792860202812288
0.05973219681380238
0.2427777343780071
0.1964944013494961
0.1833312883886777
0.06136211669888513
0.06206595322859149
0.07905190087397543
0.19113862574957396
0.29349459693462776
0.18402796527218046
0.18687726442857178
0.11713563924883581
0.3513847097424585
0.38114477964719223
0.37202419692712957
0.36825055933339934
0.40538773740007444
0.29924844871766515
0.12378353180149126
0.02860569712497961
0.028382776280647504
0.047112075858262714
0.1127163784410443
0.059478981053198016
0.06440602415175108
0.09196459248185378
0.08435594563410603
0.08792925753545107
0.10128638624763554
0.06915154137563366
0.19400989948030412
0.13287690561893206
0.20620857747348764
0.11826910777564796
0.287282856190846
0.35104220312253726
0.05151099678546373
0.04937332243376462
0.06772505286823925
0.03915271915442148
0.044986964302600276
0.044880545886497
0.05185509810028855
0.04879760098132178
0.03684362148439155
0.18045404464437118
0.2394300795967401
0.273566724890178
0.2907012002507949
0.0397304069602282
0.16379298565607547
0.044633067235908354
0.020419329753133878
0.02222746170761215
0.01769028955107869
0.07054938313883591
0.11765925164461721
0.05717766162262725
0.06685022386718438
0.027797385886719074
0.09992646550287146
0.17788442802768314
0.11100214711758108
0.1143604845110323
0.033183099122436124
0.0686202147456874
0.05033273390401081
0.23428110951931244
0.1881075755051489
0.05056996567919373
0.1786017849258329
0.07115950710346736
0.16740241738672224
0.23441585957418115
0.1441758172190214
0.08577428500608722
0.11751056831684764
0.29746176954508835
0.10796314885435292
0.06394850761805727
0.1547396790830511
0.16548046662923846
0.08570272334030214
0.15108841695934788
0.13010898986109903
0.19021817588642148
0.28007587302878295
0.2343937811380803
0.12030323303490922
0.13541892163918506
0.11196912922652971
0.14622919189146114
0.11587735049641766
0.0689783802037519
0.026596575999541423
0.1722584095861762
0.028012573562024586
0.2803409593727092
0.06981461059534559
0.06368127965805159
0.06373473687475864
0.09921921884979173
0.07459905166323334
0.1218315742999483
0.08778582633454174
0.4362713346898265
0.11571949489640045
0.12828452487860717
0.13896535733686693
0.0869518219054684
0.0723558919828462
0.14900066636873271
0.07697111679350846
0.07769936861738272
0.126999523675031
0.04450208560786252
0.20373559948010111
0.22711537511238253
0.4334127879165217
0.5929386652828104
0.11326251493131552
0.4241833044605291
0.16122758983999252
0.04351988333496296
0.06237317973158528
0.37068056783368836
0.10095153903972298
0.03542297580207725
0.04645097323552927
0.2814219354556431
0.2746829736828591
0.3029315608880325
0.3996769788494494
0.447496447409032
0.3242171305439792
0.2165465702649753
0.1028988335102827
0.3048618730291473
0.26122054207744194
0.13932570287825055
0.11898537796755379
0.14804800990189132
0.1928874435405772
0.14020382178770094
0.04782289379203125
0.22453251046463968
0.16105303973317453
0.23888635411963918
0.14920681019047946
0.06027407475016532
0.12440511201409145
0.2623318707512843
0.3471367988161617
0.3138767918748426
0.26747944828395964
0.3474485521546228
0.26411667725100474
0.20825489734793642
0.23869837348222459
0.20650058131691987
0.352391493400064
0.2999678692002867
0.1985444390303739
0.15110592407814477
0.14351169541149444
0.20814785728105617
0.15739037167694123
0.17167522033518842
0.1817626990134484
0.03840939833729374
0.18624266119371596
0.08409010714437569
0.19794489055639206
0.14108452771713423
0.16501543812310404
0.06708994303789168
0.07660768901396947
0.09115209931544312
0.11369128800479217
0.07430671631068375
0.16818321374736453
0.0564873122219095
0.19534789311672188
0.20842645058836265
0.14536183230542363
0.19175214059607262
0.15457172058825028
0.05115235592333439
0.11830618642111915
0.07906256690498739
0.087972899034627
0.30585195617449595
0.10359282587503546
0.024358787496523798
0.1934274547779312
0.17060101223189006
0.2529315312058962
0.2646654527144612
0.20915166589430573
0.19083094809909618
0.28009933727688235
0.1823007729605184
0.23151130036908296
0.305232035583302
0.41602861512353473
0.3475178023539702
0.44587595028192034
0.5459592681438726
0.33603976080146986
0.3317739995938207
0.4097395846311991
0.405115714663671
0.15107324536318445
0.17262740876836855
0.4976487664013325
0.17798974419839753
0.18504950113636456
0.14732662710618583
0.1009900414466152
0.13576542262541713
0.2099937464010398
0.47662198506826176
0.04928886811796035
0.07247709309587885
0.0773256061145205
0.07257223670390772
0.16648680443256297
0.21790407634008918
0.21172060447374136
0.2057140209321972
0.31592985999194684
0.3207371947318468
0.1605407754498449
0.1795460051379195
0.2217670310611203
0.3024464277284955
0.042722511376340484
0.12984757173186343
0.16255920160349882
0.06093612891479736
0.2151518470094008
0.5432753407569448
0.6889001516932207
0.2765481584955217
0.44068772583477517
0.31974272840287005
0.03705144828882395
0.6721218114055023
0.24354391226167946
0.10380443543443851
0.07621174731787707
0.2371545582535995
0.22068613015019564
0.4288124679376382
0.1023509442160176
0.05014567945970442
0.13316101125274268
0.06946342211620811
0.013633280466955017
0.04862278181843338
0.05546477518329363
0.16568974232220726
0.29383988404857314
0.1515859937121353
0.2314631343873986
0.3450365072893701
0.22564786622287816
0.27345011221732807
0.122044833936574
0.14319238483017224
0.11648121944174362
0.0406511311122265
0.16287542538024605
0.1380391885487187
0.15012733883112608
0.16532331122020807
0.12329182781745816
0.18064812971968247
0.13963291738920058
0.14398518077186975
0.34019099273089104
0.11249105892639796
0.14542914444626343
0.12231910714890845
0.2568189353582516
0.09541971762512545
0.1591598057686227
0.09411563073176117
0.15480881043853545
0.0670833107167759
0.0842102388848168
0.09366249807892746
0.10491604905737081
0.07904354979130528
0.15814954422522742
0.20567369260937154
0.23161152732394788
0.2107485940921108
0.15485577631829917
0.1280128134665471
0.13661065898480124
0.14286238430182013
0.09383072775281388
0.08811826595305557
0.06554466490250645
0.08466967128724637
0.09794280355191724
0.13202901461885802
0.09157863084254396
0.0928120259049379
0.07901680557057561
0.07725754899836833
0.1599470429000691
0.1674992294597097
0.1387890010140688
0.06850007782690479
0.07166155178430952
0.055258773644296516
0.06596346005565823
0.04554756525564222
0.30350820355954566
0.12089120457403607
0.13520281922054384
0.10418227906775103
0.11051920375170989
0.15110190376696325
0.12666820141199203
0.19932229463920173
0.15197279716116083
0.06425261222592381
0.024930545376807865
0.022426521296557384
0.09441718628369329
0.05056526282930549
0.08069103021785427
0.008067667782713225
0.018437291042950648
0.6058665218284014
0.46594313295365214
0.4095680936861586
0.5797461629655198
0.435127238371102
0.5048807169966469
0.08521584198622836
0.1825725493358505
0.20382888032245533
0.37903622682327176
0.289624314249389
0.32410038097682126
0.25007283984152123
0.14818361683803574
0.1385629326757673
0.12729080130004033
0.11687290773847392
0.1300446417096675
0.1109998166753903
0.01776184995556651
0.06247062566124909
0.02170757372294636
0.10338603940830038
0.09083500340448282
0.023719063529726164
0.06554067315545858
0.17593657274487098
0.2563582944267791
0.12699285765747823
0.04915678694702178
0.18519910379999147
0.10473170684554768
0.07783065969160553
0.0893302476066848
0.07594567343511925
0.16368383879977116
0.061665760178217136
0.047452264727166654
0.24368761399805342
0.05067401053786473
0.04327112857366935
0.0714552940279223
0.05860911546255964
0.11314761991942755
0.22470299601997823
0.1562091163343726
0.15156714684779798
0.28199540135309653
0.20405978019057158
0.28027189041644596
0.3344642164055999
0.3286982577100552
0.27110253320508704
0.2995849534173105
0.3580474888597333
0.15909689572790853
0.10295171401480888
0.06652370142280424
0.22851663451250162
0.07387610713692655
0.18234405197962858
0.40788192146913155
0.04304123794413211
0.10437986162768337
0.081145294189418
0.21298744786141374
0.18697442793955826
0.13458815592321793
0.1059756852638026
0.10469233345505409
0.1513701621022499
0.07403621555844861
0.11716817747416504
0.14028957557156033
0.1670617903239739
0.08884184093504055
0.09682711116265594
0.18505991817361633
0.12888576634633675
0.06251130029828592
0.16899707066205968
0.08553643390192185
0.11273788113349469
0.09443089119144489
0.11052965397992831
0.21731032270278774
0.21445472961793038
0.18574504275551165
0.08149311847382384
0.17196236564016734
0.08875333939349656
0.10573115951696385
0.4525295171140197
0.059600604690759375
0.07875438202122038
0.06287570123768692
0.06215536519386558
0.12470064493680241
0.17740812598074776
0.03719277133548483
0.030600863671853867
0.030639387592711547
0.06735773633155781
0.1172635776162049
0.1701188560097509
0.1368240454897142
0.043225936367238905
0.11483973642609566
0.1375682553284412
0.04943652843343908
0.2629069870231159
0.2048405532116086
0.16284241034307662
0.2754398148941158
0.07271031991355843
0.06634969856167085
0.02278411858311947
0.06875151383340973
0.1451426331467921
0.03371651127788949
0.12988666709404312
0.06614296315459443
0.006987161865902107
0.0817946193933398
0.11031234358264959
0.10784370654753067
0.1279558038351533
0.0805038976684799
0.050102104919938335
0.09409309680872378
0.09038181541708516
0.1192579015088824
0.2387737653473944
0.306579742116184
0.032321240923351015
0.026291865345899886
0.09730370703923553
0.06833544630196718
0.20174693785979778
0.3058567829374851
0.09993248395733102
0.10807102299292183
0.17545335501772272
0.17070718292010048
0.05247421654765098
0.06020633947108013
0.08151928307991564
0.10853579299579619
0.04603891981379955
0.04744679399235332
0.08382173939772883
0.1498650555195099
0.09910504141813307
0.4139868448992754
0.24233880717188064
0.2512894488702544
0.237177046603293
0.4397917767219509
0.4201545898793571
0.31350251473014296
0.16666871345908463
0.09327850642247701
0.13293453632423916
0.0783160425662784
0.06541326831848948
0.17698190022576282
0.1211634429018306
0.24871856476514784
0.10277935850185439
0.30566324300853515
0.1622208491129752
0.27929710019523724
0.3220220817952594
0.3070108692577044
0.20042789906332395
0.0893504264253522
0.10765830864043514
0.16528235225898133
0.1380380008013363
0.12690177719455528
0.15349023458969174
0.6683712717415848
0.3408201865454776
0.4513191335373952
0.2038340678199808
0.05557944766155703
0.6028436439629576
0.4664167180616945
0.3129571833436525
0.28262670641454696
0.20967742859558786
0.1593380088582161
0.18413647807459702
0.17964793243972677
0.09210333550253336
0.0988719693433373
0.13108329610253813
0.059421365720670825
0.06994845844564733
0.06867115954350472
0.06147501887543498
0.1398535962112657
0.2466441090594207
0.18562036318404987
0.23035289389791158
0.1019161153582822
0.09214251799203604
0.19601369388771803
0.05911503925890079
0.18293912912688814
0.10586674782421236
0.03976984258767666
0.0793071568321622
0.2463697267140486
0.12254922057137281
0.14017819812422772
0.36158997039329066
0.18528133557672433
0.10687438455714837
0.10069934781987
0.11510587910469966
0.04945574093162514
0.28044017923947845
0.1210409103620024
0.034997812442118845
0.03913331583854084
0.031565171227231716
0.13592982242784998
0.02442399899745697
0.035875850203991005
0.061973548447782564
0.16673520764947417
0.12461462654564304
0.11376166104823948
0.12547553641723008
0.08355078064468134
0.08721115036715076
0.10269366510699811
0.1643735003120593
0.1292245547426133
0.11322894666115638
0.06967773549085303
0.14310536594572873
0.11998302518766953
0.15110555010790416
0.1997465489232713
0.14550665751759492
0.19662793010680224
0.07683881594538237
0.10978991449624165
0.09320204773157442
0.14799756281540208
0.18238162094992194
0.14148702396827476
0.26223303326445146
0.04159454941533322
0.04423161565990209
0.03419235323439057
0.054489708371323234
0.029783918549236343
0.08180717259121197
0.10620734536599137
0.10064926333577491
0.08433997022321131
0.038376868181829255
0.1438090301344347
0.15738676123095394
0.202459715614496
0.04206463476791046
0.10314511885831192
0.2641642631414747
0.23011742955676892
0.04370554632430589
0.023990550525777504
0.11394220824455722
0.06526511098857059
0.043105024118647826
0.11471782531967999
0.09285688533982152
0.032798023830540035
0.07650607854739654
0.07890224455405395
0.08769786342939677
0.09434612913335937
0.06532744919545819
0.20766229654365048
0.0917891488889459
0.179384540146133
0.11139155098389357
0.06524941386328136
0.10226906893370079
0.13900797467962425
0.32290800024526967
0.36163481622769766
0.19846046771078488
0.29489963876907305
0.26826581115622994
0.32959031091900653
0.2779143816801004
0.2091862817159441
0.13533808604375183
0.05676206576182483
0.07580727265450615
0.11816004612898011
0.026821104569838224
0.048963234161943314
0.053887021003088516
0.08767950528276158
0.1942860922567328
0.1003600588542288
0.0981279964690265
0.08455470444336947
0.09729639218080736
0.15962365808697893
0.20472630115078191
0.18784486307633677
0.13833915001392774
0.13857145395023818
0.1628459876663911
0.09315938112653604
0.10701391984924265
0.0782739048048506
0.04843219878553567
0.22187935236301984
0.14112546650851548
0.13422550016147855
0.14068241218651906
0.19654929763698553
0.1669363338137011
0.06588044556952814
0.07026742922195654
0.06235585001178677
0.10580845305535198
0.10219198564618603
0.08601637519141167
0.058920772330945836
0.2147958915476541
0.25431595368092386
0.08803001942133105
0.11449782533304638
0.22487338065583087
0.13396064762210005
0.20200094846875893
0.02916253757161427
0.060297012052321665
0.11680303827361477
0.11431894255352099
0.16290719967115844
0.1289719561181712
0.1948347137533718
0.09705252163012569
0.23965027516842113
0.16840124505422954
0.17534558839763723
0.14065993049471404
0.15849732481598638
0.12087142931922483
0.20424279495318332
0.2173705041154707
0.2352421043472228
0.23122966155635347
0.21559638928024236
0.2270231118607708
0.25084476738934547
0.198409510213951
0.07003009574019989
0.04458919432982318
0.12365262257480011
0.09908708182727338
0.17729679066739146
0.07683041325340112
0.06730313741363173
0.08967613385801672
0.09023160260529116
0.08599157818270825
0.07261681664391359
0.1185419654948285
0.08412181777332882
0.06568418608409318
0.1165996980639689
0.15133262821912405
0.02636424854851158
0.4965088804682868
0.5638361818827067
0.3036280997845334
0.610811851778274
0.19298620561022065
0.22728122911882429
0.23650226795927637
0.12847406219834853
0.1886709714227271
0.16709009139902894
0.2091228070001765
0.1913829089869346
0.4647599088836435
0.4671793038734925
0.36750023704469637
0.09459608362470895
0.38604248298610405
0.039987053501898
0.05116927608682126
0.032654945218932835
0.06912030109328068
0.07610539194154245
0.08692338631695933
0.0343470165187224
0.47918978343079605
0.38688671121270796
0.39757394756977493
0.3999109841320229
0.39682869835085394
0.06420649616228062
0.07130429660152457
0.36542094881304793
0.0904468527575651
0.09485318028129369
0.16596951231992244
0.35008435108838204
0.10036871104208187
0.29172806224491304
0.11697396375720497
0.0748336111916527
0.03794913267200813
0.053383215073024376
0.0953077431089788
0.04797596120999413
0.03395000394666432
0.08833885112751037
0.06708083019891359
0.035279184307454046
0.21038497997228892
0.12612364261735648
0.07909900708187168
0.16841743040894183
0.18111007514039773
0.17284619854442743
0.25100289974310686
0.12113864817980287
0.12846261409476345
0.20449857725460202
0.09533461960084218
0.18764661244143102
0.1151120920740409
0.19682750566953716
0.19500525170805316
0.16116175560048154
0.10359828622509763
0.18721787174162066
0.12126818780861477
0.22333525246879893
0.12615673150661832
0.1426745888661201
0.13433449912187376
0.2327929691606959
0.24664268886628746
0.1740096221175075
0.2910997097448834
0.3066054470122517
0.46009721873020654
0.15446212157569214
0.384816851190381
0.07059286834637822
0.08932512257201632
0.3392444781033282
0.38022817400485326
0.3570904164095551
0.2558510306448945
0.022652823997235023
0.2986915542567654
0.3509822812133407
0.5154738640625228
0.4451208031263458
0.4008341183108961
0.4871227583560502
0.16168330810634454
0.04321042184284927
0.3230237171240081
0.22641690114874025
0.2169992553607681
0.2217909046385854
0.13715421454019858
0.6557153781204821
0.5366659591733236
0.28303694257034245
0.11609404346392413
0.6832895675772656
0.5553516107889077
0.6665881407548285
0.09328715428893865
0.09695467830401944
0.2944754199491653
0.26255408136529446
0.017507434818332883
0.16596708315141256
0.11955818231733761
0.1879899736292036
0.06730809047769762
0.050584310349607114
0.1022768211304033
0.12794548477725246
0.6328253078632906
0.08553662100742027
0.05733434287461062
0.06265199451666452
0.3423596962590149
0.023611597457390845
0.09408380509058528
0.2819638599216776
0.15069143968468804
0.16376363324559726
0.020347049582053682
0.08925938563729766
0.14479728646652504
0.10044965881445145
0.04023979309370675
0.22157878293652167
0.09531342661575458
0.026086597100277973
0.02223469323877133
0.05166545785801042
0.031125564246920475
0.3887480827690979
0.08418779582627016
0.058917310287183354
0.11065036408896728
0.06106844071784229
0.040386285688786605
0.11831750861596786
0.48530960782579013
0.07918200519426388
0.08417095247605726
0.06932421345661667
0.09283356167388289
0.07137761105289706
0.08029343025327274
0.050370811623647024
0.07900340842597701
0.06334808270853805
0.057269756220522584
0.07630666823133847
0.029126702569232655
0.024779502216588697
0.0904914036165006
0.17402941627036564
0.3651405220271573
0.33353292977874155
0.17004557355419506
0.05318018785830352
0.3438872975843615
0.1082349151572591
0.35329672370623155
0.2785698304812309
0.09728438631169778
0.23213962476924474
0.21967373123338724
0.39646696340407406
0.22049707596475587
0.3076617356648882
0.3593994675171932
0.11383618557410362
0.12232631223107865
0.25970377096303027
0.12404723768602915
0.37673091071112674
0.19576970694648474
0.2807155667124915
0.15215218264390715
0.20016315488023673
0.26346181178823147
0.07515282591686874
0.17752040589493998
0.1651800564901717
0.10393606257165436
0.15138563701780508
0.06235128787261906
0.16494332522790714
0.18174144446289678
0.09032201178438419
0.08963288131609234
0.08380931388204263
0.08675414605638365
0.04368153704617819
0.12473051742063526
0.07552783925147677
0.20114191853967286
0.16424603093625123
0.038308092778433944
0.05419127412799328
0.287488106496205
0.13741671317003187
0.02676350833807411
0.11466743069217498
0.0562961815155138
0.07239071703490882
0.07848641778117744
0.04769231876524638
0.08906441143435219
0.10655099305926813
0.08324115148573831
0.33861703696475326
0.06560843644105972
0.057749740144184644
0.13115769407152938
0.08495009260836636
0.09630527471215883
0.04609485825707889
0.2228907384402866
0.1130800422785249
0.006221912770968716
0.030536683495280145
0.02624429953483268
0.013508039332362661
0.006188439695645584
0.019364001251828106
0.03722215090610483
0.15134104782447844
0.36172996223594517
0.02973818364402092
0.18204888839362998
0.05129903489850171
0.028544034853546844
0.039316795584120205
0.029079706185825498
0.021570478573863478
0.11272706431286734
0.23649235479033348
0.24039999730418463
0.09691376664764918
0.22335806112084397
0.35226931453875293
0.25736402697501565
0.05633173114117586
0.1750786366451488
0.0554846065990809
0.11633077182255437
0.306941684883696
0.033092055659625835
0.034333426183102866
0.06863195979659917
0.1587251376890758
0.04550968308094318
0.138033069473853
0.07580946994081172
0.3395867401203063
0.27065701923735436
0.29930662284563186
0.09985407275121708
0.05592276108871177
0.054653583595805785
0.24667568910418775
0.08945369591476912
0.03963507623365497
0.0537056541415972
0.07178940006884497
0.04626140399084477
0.0503946015427412
0.08859377533090636
0.12148925624913182
0.0439122724695213
0.07190383876985158
0.07177973892119949
0.16477357244959645
0.1542736302154202
0.08639415473189022
0.09946005790390255
0.15621979547589204
0.0915575414060175
0.11845952894991275
0.15859113181223816
0.08263065037434567
0.09639298424221207
0.1349842036301304
0.17661820192689404
0.14607068126674347
0.22446299517567866
0.16335219469510398
0.15454656652621168
0.06583090262805572
0.07764484516951646
0.18092543064814964
0.16359001724384875
0.08517772722643914
0.03668946245177773
0.021915598020032154
0.08063075356438208
0.039064142312932676
0.24209915666653106
0.27247043216045563
0.2540999529076107
0.2372194163795914
0.11640169064536472
0.26000327250615246
0.07828969539745413
0.08114933146733583
0.08985684122996743
0.0752221869020508
0.24285482726123786
0.10585006415390254
0.05322974419360353
0.09429616328810791
0.057173165369097244
0.14518454453062762
0.0845131627781582
0.23237469053145274
0.10989945684411288
0.4176922558398703
0.2303850658793386
0.2729808763237491
0.10978052648849948
0.07011474323465314
0.04222784636090756
0.05457185371943753
0.015037267715725465
0.062067103016767676
0.20134948822687754
0.09094660447412797
0.4123789950988518
0.01956318946258033
0.07165715921039202
0.0972711628250759
0.08047388309132791
0.01807356625438254
0.10671875945953639
0.01866963005462748
0.01475610013715509
0.01325690468629916
0.08595577679116048
0.17495202111267993
0.2481545543951034
0.22290165238156165
0.1730311613473989
0.15040786473571005
0.047989526135325394
0.078117969288203
0.1857008493917091
0.13702260721864357
0.11200690411935214
0.17756729917803804
0.15310551392158986
0.09316916365596667
0.17741702511368823
0.156475627165948
0.164811729053223
0.15201348094142225
0.12202630471660315
0.20485663805213322
0.24122647963467966
0.24526181061078753
0.1360413480583792
0.15856662776051314
0.13077790111018148
0.24965432304555676
0.13545331478770364
0.13772979875861902
0.15215995960144907
0.30370345843638774
0.1905905294648502
0.25489204786707537
0.4101457009300048
0.37437930363947386
0.24542903430372584
0.240362525133148
0.06772417637158154
0.15019399767103517
0.05037765578098533
0.0934394964656149
0.10903527736530655
0.05248848164114926
0.08603206971112728
0.06101842235465577
0.13643945339560704
0.07459057278210382
0.27489088492711256
0.25636099170213555
0.1373540490830608
0.06034821629985536
0.3760101718930365
0.10023966950821094
0.06695690890035129
0.28863024066832127
0.2602506122995438
0.34220870528325914
0.10518984899801631
0.15793683210302978
0.12993032832268606
0.212241801222193
0.12364852457307131
0.16348716397254484
0.14943729103644415
0.12827708847855732
0.20000830426310107
0.36425019115643836
0.14192816661408086
0.11621035772432563
0.15740952917572054
0.1638972830027396
0.19007882431241213
0.16798525432086917
0.17393712147430235
0.27358225581457796
0.19949373986691887
0.25418004865452043
0.19952661973758626
0.1545375801496194
0.21718369052357986
0.05749009058586777
0.0533296563797971
0.0473912952318807
0.09754307776250132
0.04386417082925009
0.08280707409850749
0.10540845048994264
0.09338366269536538
0.033975792924425784
0.20433038128850756
0.21048616294802816
0.1615607328552782
0.13975225884083392
0.08581428696448427
0.09754173310224705
0.37188533414432084
0.6322228707570077
0.2783937308008458
0.1597663818789356
0.04344757120352593
0.026874517298275422
0.07884905031428865
0.06090346017692225
0.30254945273054445
0.1628424022835028
0.23175413657562732
0.3233658485479561
0.1038116322724022
0.11687568080118191
0.17736427135668204
0.1083410650020087
0.12879998368010367
0.1385906193451976
0.16863931960744313
0.11406770472936406
0.13370375648230307
0.13608196941976625
0.13053730645970607
0.04587564528889894
0.05566456878531079
0.09088275994240354
0.05514125455326639
0.05289323434059912
0.06360227101664782
0.05816319266654267
0.028046367802020362
0.03250918344560417
0.029705476068456926
0.03088202468323309
0.051589142323296894
0.051876847421271875
0.027699504529597494
0.03600078208679258
0.05174892782040885
0.08745640357101474
0.05528973194982332
0.04560342008733576
0.1397418354127911
0.13052904897275322
0.09248737712654143
0.07958256478985465
0.10865585958218818
0.06869418962814797
0.07420694950424511
0.05711536287764327
0.05208889143762704
0.09326822306700053
0.08316071724273325
0.0911651302965441
0.04618045329472658
0.084208854014274
0.03837186190473344
0.04919021882121957
0.04313559213452283
0.08162618281963784
0.16073203907397002
0.19162714486951535
0.16318161079249707
0.1565029513524366
0.11557949785956986
0.23498768800216074
0.1975415843544959
0.16467286572186438
0.19903505193769203
0.09955718510199582
0.09827359805952193
0.18928551705142724
0.10610759452977013
0.14679979299711346
0.2026453709641987
0.04283759760774583
0.17613563597488316
0.22424642615462279
0.05148375670141645
0.14354500378275725
0.09400349949251266
0.14356676291599219
0.0789283901041887
0.13177836433143844
0.13411246959155199
0.11199336598155359
0.10559484704800441
0.06207696631989069
0.17109523700958362
0.3831998186586662
0.38437539253074754
0.10653521499034282
0.33541210460049864
0.07278454589807083
0.09144975595198598
0.04888901390608518
0.02089240463513799
0.018590008798622708
0.031165113145943925
0.17412656670143936
0.024961484929462895
0.16625272105740516
0.1060012938862975
0.09481122540351763
0.5917687780031853
0.10747251878957081
0.5616137346761831
0.5822226894157672
0.36967817341693426
0.2921127543757114
0.11710200296816513
0.01159559970039881
0.33592379645576115
0.16858918302857884
0.14582920464714577
0.09898254176998322
0.07474936646424389
0.09236415260099311
0.08730003201442448
0.06629484703163935
0.05623858932340194
0.08485264003178279
0.08348592822973475
0.05799737431563054
0.3566330702940835
0.4073271018218491
0.27517861521307396
0.059330765218621864
0.18490574595987394
0.32054132947349495
0.20501851856230793
0.2424573708910841
0.3387541185148076
0.05660952097548418
0.3075146735090794
0.24718486712926904
0.28355442771468303
0.4463983022395026
0.2266215109768875
0.26725420009390843
0.2078489365596602
0.18860729506481105
0.1701368861378129
0.1656908042766983
0.14203798946888127
0.1591001019286285
0.14654143022049337
0.13528369286809747
0.14814839308661307
0.14097954375554578
0.3153741542571557
0.31993799933521955
0.46799118783094096
0.22485564131732555
0.4069301437066462
0.014814643897079559
0.016245999906666298
0.019654715592190668
0.016210073241774776
0.02241824766685035
0.017203139255430065
0.09609798198128702
0.023693702268613816
0.06844200583677836
0.13137531208709377
0.1673957836500136
0.16486818788727395
0.2219653364342508
0.18309893057103507
0.2082336480416608
0.2542603236577041
0.13845774395263655
0.04895212966132069
0.13340409537544737
0.2083528957543393
0.2899837848865354
0.23350481483008154
0.3969967218588613
0.22489708476402587
0.17740628263829727
0.2992557065223038
0.37139840117765893
0.17094367003398647
0.1338991195406307
0.05976911745179139
0.08798435683686276
0.2534858767503581
0.10066595513115811
0.04162438433065461
0.26550632927076373
0.21945025297273474
0.2033711806977185
0.43436487562918497
0.10873578886039201
0.21693250077870754
0.2029552401872697
0.042492836841912365
0.4311719214484965
0.29006038504863946
0.22947558554648714
0.22235583115344806
0.06357957240440597
0.22929619427360953
0.19173374128512108
0.10538257917106057
0.2856967708694732
0.12704362545127046
0.18356909923594109
0.210020079931479
0.1238829305535156
0.1914944553819682
0.1546075263708501
0.18988883129315876
0.09015142115345023
0.0721553463343407
0.14336134991713076
0.08019683643912429
0.16151220259874918
0.09193541535354635
0.1274214733764022
0.20782600432961873
0.1692791599246027
0.10042708751048977
0.06384642541819192
0.12716182936581444
0.1542268718544152
0.18487745128855249
0.1584999334052953
0.13787697350376063
0.1374693537993069
0.16091931665659578
0.07078816553292863
0.23034696488865994
0.21562689614807531
0.2269016908031422
0.07183567517664477
0.17819257916722994
0.14023098895109815
0.15770506655370992
0.12082478279363205
0.27285153806989915
0.26656568152771515
0.16626926804630882
0.1416311241841775
0.2513889348976385
0.14901465064141475
0.3154049282881965
0.17993713432566338
0.07816740085128046
0.15206794780309843
0.1738599977531625
0.1858210416912745
0.35011093172646773
0.2582644956757836
0.22933333290359764
0.2295732400053486
0.2474411405231396
0.19611401132818973
0.18955027563505872
0.1845846833677444
0.2493028900706135
0.19643452932212813
0.13163324745442984
0.2480440178069208
0.1741312595627353
0.09063142494031322
0.07679353169982191
0.06773342008996708
0.08072095856421924
0.11991072916564555
0.08063019344898065
0.1711810653984393
0.09078157955802987
0.131653080182461
0.12944934077855882
0.2283334805607106
0.07543932754029
0.07236496386457492
0.22816295098759112
0.08166444360181593
0.10647704169410489
0.08916541944359983
0.08504182528474262
0.06426319200896184
0.11895725667352161
0.21330565869507853
0.0357039422533857
0.2021193652608466
0.21245780936729936
0.09222047752294223
0.26649918677098117
0.17152710538339364
0.18483008523514874
0.1959807297100737
0.22459877045423615
0.21352907649352457
0.1644607315856532
0.13368961902395168
0.10833745554283263
0.20563984476746563
0.2677203847219565
0.11376482749091603
0.18713309767270178
0.1564994861461422
0.0441579421113818
0.20440694625264
0.16260117156505052
0.11437007404186729
0.32777653917484584
0.2015769660545536
0.2202457757576504
0.2236108018918397
0.14106659753230572
0.09762078144028807
0.047246188195347864
0.08789775136615728
0.09266662318261305
0.03700228995696643
0.05107124873591608
0.04276289235444974
0.03226971580741023
0.07710514323712454
0.11776931209015191
0.11556867660131184
0.0485769033639937
0.03799897002789428
0.13718870834945196
0.11452161162682795
0.17612732122768135
0.06597927453203081
0.07080019255192543
0.06477266849933704
0.10544314857423405
0.08907433605115807
0.0726291648782105
0.25450702051023083
0.11845618976012524
0.12560474896094573
0.17773625478664923
0.16615114573008372
0.08406249019839172
0.04546330095607233
0.2502785881103019
0.12967008559109422
0.18200972061766543
0.08558288387822063
0.08980857458058511
0.37982491974049815
0.4123276037718002
0.368966093256684
0.14080028924533441
0.2892048471496148
0.3182960456693429
0.12662315044066225
0.12278597438529242
0.09416422634608768
0.19249678594307054
0.16578317239732726
0.13278959851567357
0.13417023199180372
0.08960107045409492
0.1135856213061421
0.11993917482721342
0.11898681698996194
0.07878674602737011
0.09343576471716003
0.06846087256019023
0.15938147621894763
0.2163542916667472
0.17089509134146239
0.21359500474712784
0.2415919850017925
0.08793127076222447
0.19653956809331755
0.1876475955344784
0.3577188815483226
0.12593439115426885
0.2974379642535287
0.13988093967489723
0.11500455620818677
0.19527352661264955
0.15124026359686987
0.15751337115557057
0.18976533067073822
0.3018737431436498
0.11968881633440408
0.10227242424369562
0.14054096253516754
0.171121645748364
0.17811337138842245
0.22367062929981607
0.24005049707475173
0.22819963420141215
0.274651819390624
0.10036962671274355
0.10548992263282599
0.17429153660982008
0.24697763445110657
0.05732423079024236
0.05384081908347189
0.09075741703037546
0.06206503977464819
0.09314955038643774
0.015294128537342296
0.015189665477857411
0.03999769289656261
0.056856659407247045
0.008241577416437974
0.01103221441955058
0.017505225241486465
0.09149067410451654
0.0334918052813784
0.043273376699240085
0.042876016100541946
0.10745147801432679
0.23876040646283786
0.02483586830294209
0.026894607352456284
0.14910261281942275
0.17562276392331755
0.03944609622501432
0.022255427674789583
0.03241363970847989
0.047438622644845066
0.053603300662014394
0.028825169976865683
0.04862287974117785
0.05225583928911842
0.10424303296056593
0.10973471254037329
0.12985925653780306
0.1491093069185743
0.09053009437084238
0.08889758633341532
0.08802430152103156
0.10948820297930881
0.07393106844172008
0.1271349595367718
0.11425437682165537
0.1066786399996708
0.19462113719013888
0.16962438270912686
0.3760409585656395
0.13257710854777505
0.16934863448669552
0.14055036378418853
0.14950785225266558
0.1398808378970597
0.2113874185651598
0.051258549605877106
0.1689689746890172
0.1171535258203444
0.07215016519107056
0.11499975887838502
0.09511771076182418
0.10139448999434461
0.03720577879190134
0.07304202527765563
0.11304561837457094
0.2202436533834081
0.4024752213721686
0.22185227603148433
0.13765396068995772
0.26215477492664857
0.25562097440422854
0.3989359242696549
0.4703881469787595
0.3906513744473366
0.1418593603773675
0.13181489852024925
0.17786202342654842
0.06276313466696264
0.2338360358724433
0.12565464326521272
0.09582171339449436
0.11489717992352218
0.16496829796556187
0.18640130577226105
0.20807814844787503
0.08858702051038873
0.1573178881438572
0.068882167323275
0.3572235981212136
0.051957044394025056
0.08141316977390366
0.2835431815464188
0.06816367305316486
0.08755268488761939
0.12599271328800365
0.12674976709285668
0.03570144829810523
0.05630089942149658
0.06386476158894083
0.07808747853303334
0.12776831890293006
0.06602951226119701
0.00351053589133915
0.1413451916666455
0.039457396603479966
0.0482314793390441
0.2037950222093632
0.1236473686317164
0.1357784885360829
0.07329491394451568
0.09471527462462681
0.09073322097904388
0.10293002776078973
0.19065316516077768
0.11944679203222511
0.08565462380868367
0.03357873868164339
0.06457214610018759
0.022664494134146125
0.04097921189334498
0.10018071092993176
0.0062026675356798115
0.18560245078250948
0.014189355305498749
0.17874679186936682
0.16724992747820228
0.16224798578098962
0.17196422843384992
0.14269658406214475
0.15432703813937373
0.16053275536653358
0.21659703791617976
0.1915642924100953
0.0661840294636533
0.2560986101099024
0.13498014193450733
0.18734550690244903
0.21334378486377767
0.13807376452006603
0.15268223671192613
0.13560334586572684
0.12901870876567398
0.04787943907741535
0.1534697814399106
0.13114527240448934
0.07219469183454126
0.09799550332876245
0.19506615547592646
0.13118648591295307
0.3495713224996036
0.3339768422036524
0.2908690183380198
0.29277126874317866
0.32923821277989346
0.19325687298204952
0.1844874554402808
0.4008426847339168
0.283027288965522
0.4425437141109306
0.2743807764857636
0.3846529476835116
0.4233791736329797
0.29131768487937704
0.15561425492373793
0.14328957479546495
0.15380405837797073
0.15166247402932312
0.12138200448090311
0.15046007551711188
0.12971765990815579
0.14981717292887423
0.17967046017331945
0.1767948159496852
0.19112975452125294
0.27892639856232815
0.20496637935808093
0.2397952733136647
0.3558277382853702
0.19173752074035855
0.1634915321721352
0.28031443010259477
0.2696462199727125
0.2012405212844164
0.1728154647927817
0.13942991702705365
0.20343276779578784
0.14363515376101618
0.1536599475878192
0.12106657238867644
0.05684620905156475
0.040975956377041156
0.10158914754557363
0.048399888260543464
0.07840724018781343
0.10310766876221045
0.03996497629284836
0.07400058119766967
0.10250062776600916
0.07054608392275896
0.03955488192326572
0.0615653061301301
0.131274292804991
0.3627511790691895
0.19949706847828488
0.24218620186573556
0.11422899993128353
0.06743780611131572
0.1090176035212774
0.09631107383724306
0.1953936900688981
0.03586856807393129
0.052417267365954485
0.1778593523349204
0.11685281621522127
0.39161519643706405
0.3136848069063077
0.09992475084778249
0.12246590432492237
0.3212167638158528
0.3055807604263171
0.2659431558566875
0.272695851854399
0.2542287510636321
0.14144334499689085
0.11155109584323687
0.1383887815574716
0.10044147459578535
0.41304538296347587
0.31133195558284327
0.26586483719981124
0.03716844752902383
0.2683767175882039
0.1522460437422315
0.3438839878973043
0.24143405580025187
0.28279296371022383
0.10016200473937331
0.14510548902013515
0.13364194518793981
0.16782880934688107
0.10690375019299661
0.18729167512704764
0.18383666060386697
0.06933328540609209
0.07134831899336783
0.25519105058964703
0.15777164365756022
0.07962416347991134
0.14004160767089202
0.09932289282803493
0.1226463914022295
0.2938404750344067
0.22275280824042762
0.3772142387235495
0.30562299908509
0.26969759300335144
0.29379855624694884
0.47131840413311155
0.5049628286712116
0.10630704223245888
0.0863180431380127
0.09264633292479378
0.08396558495282838
0.05467997576713886
0.1038636540972112
0.10446664778116867
0.2064121543865154
0.04868434435321715
0.09314828428320193
0.11106965050128555
0.36571556484914763
0.1008255518623595
0.043359808864109506
0.03729572958866416
0.06261705355599091
0.03858591395859546
0.028704662694427688
0.03594089493275635
0.026868329400571593
0.02695631989741157
0.3302748786405701
0.25340959880443503
0.0594609995467157
0.17710276561858096
0.09765350006099881
0.23949398565330082
0.07864070754050165
0.3404996055620744
0.07005623937243566
0.08609411545767706
0.258594578253324
0.27070859196650143
0.19760719428676427
0.2974928185924858
0.20138112683742573
0.29308396554642435
0.11446799824422829
0.14072438548259367
0.17865601837360365
0.18212559370833714
0.09931178785174821
0.08103552196697679
0.11573807543795206
0.12995672246595316
0.07383856752624994
0.05952856830760674
0.07909586651832877
0.08027948992033575
0.037968628459803345
0.04171897204183033
0.03497723948341987
0.02280429775786526
0.09122768725240042
0.15881526805591878
0.33934068166977893
0.2571294748352281
0.18754935002177361
0.15149280969979154
0.21456630903541027
0.13628904859692115
0.1806379589565869
0.02746228160864079
0.03658088999455435
0.15084392095593374
0.17210321102555867
0.15318646791823093
0.1406746288576834
0.02162657258304907
0.018337686648875393
0.026846693333427332
0.019396908740374273
0.0107807265790855
0.016789124453824456
0.01007479369137615
0.2283062655613647
0.22560087709135618
0.30368769085263664
0.6454365896638452
0.3247777504119561
0.46645239532546984
0.09115779111159678
0.08929289026637091
0.20080475824747063
0.062408234459735486
0.06672680282635501
0.05023905678429076
0.13061027014763685
0.03872742177245092
0.07729438430167555
0.325242846589273
0.32060406248724926
0.19292294417292563
0.12060823797140754
0.17288802779698972
0.1398015595647221
0.0681896486392591
0.08160420342266675
0.1286408891093586
0.12753583565363522
0.17180867123354715
0.0748865051767798
0.10689658025668586
0.07140015452872989
0.23902016086465702
0.07212560138381997
0.08792626390081676
0.17773324420149506
0.018343622917150245
0.1380416617085101
0.031173657020810926
0.25774396404245087
0.22762510506977474
0.07092370166095077
0.030193472052411748
0.3134659816141928
0.15157041623650241
0.4724246786253586
0.3375538750300835
0.32788198310483263
0.2749893866624148
0.4989373791899934
0.31808746139712196
0.3689810303971087
0.32863181991362156
0.4446725392113069
0.1995708634573942
0.5951115261356075
0.43772501196947033
0.6563026768923346
0.48804547807503
0.6303041346944732
0.5260608653097002
0.5773399126135813
0.3469599733794139
0.4111589112787436
0.4252842492189522
0.04974488543026325
0.05545486395121978
0.031678045653862216
0.07044792771072976
0.059300576271608174
0.0488254784249036
0.10012643656011934
0.20096427582333654
0.18740284222703443
0.14014116177120464
0.22472443553343824
0.1975553228769509
0.26746010353159505
0.04923343004708044
0.14833448772942362
0.28706589963176105
0.07819413802453479
0.094651111490824
0.4976116374292992
0.21700783078633995
0.14528839096231688
0.13380058052608668
0.3479971647138875
0.21377051448580614
0.23685248262946226
0.23730002151674942
0.3598923087514905
0.13745137111846747
0.2901196002853679
0.0721913416789942
0.08630784221066523
0.15020924586288817
0.12740269518237435
0.23224217140519637
0.06999834627099666
0.2848248001003748
0.03727874676147141
0.19449730773148718
0.1982849663425108
0.24237156269777577
0.048211017335688555
0.061785554188789095
0.20447889340881711
0.2058911751765468
0.25487208912446346
0.17083557723293785
0.10787637494902019
0.10172998187953884
0.109266473561013
0.08817463006129574
0.21536722733634742
0.21095859290997832
0.10605993903870527
0.22550798642756317
0.2099064414162943
0.22379689354775592
0.1392841342608848
0.26709983263744663
0.2849591185105114
0.27974461635040004
0.21477660754787345
0.13453779167836727
0.3546695361188547
0.10234366742803808
0.18673570566853784
0.17395128642997545
0.1840886626772001
0.08142843300150689
0.34716511007627265
0.23790579756069785
0.1540171168313706
0.30909988125196
0.0920490211540878
0.08104699113123327
0.24984546740103536
0.2169529268668011
0.21488657717609752
0.21974366017478258
0.21455513895709213
0.21906365148533613
0.054231609941133324
0.06579868168885014
0.08461324622128036
0.07790693815174411
0.10703076748893962
0.10872960267503816
0.16224826548221308
0.15418842396890597
0.17537583804939064
0.08732085076958815
0.039835355327910486
0.21034171543198177
0.15966321480087597
0.10204582101806194
0.1140702182760928
0.20545555238416174
0.13161686875303177
0.30969715918023477
0.19958412336188244
0.3008022259274934
0.1320740496815688
0.17831614464346376
0.24522306694155271
0.2842622333854409
0.20319995099057953
0.06942914997880477
0.052348436662733595
0.3485606468065409
0.2506972964094538
0.09025873295199856
0.08584653962252076
0.22023128307083142
0.24750910793115383
0.3291513524819179
0.11268178896281607
0.03504790791585238
0.0711871626391208
0.144777207999454
0.17555205601361912
0.046019164994766375
0.04363050594214911
0.07048040442428309
0.14404520121545247
0.12204007675091143
0.1709729136441625
0.10176713106038257
0.040665038692928104
0.0663674626676237
0.06344889581144583
0.11092329645028652
0.03676033883361133
0.02706947214869973
0.03255657823973959
0.025743100963687544
0.017595320413996453
0.021027607252053025
0.015282898316286368
0.03250661507876903
0.041572655529049894
0.024830293595158898
0.0199078112891445
0.1568672118857055
0.03254181076054463
0.1230010694904068
0.1957745602949456
0.14521829468674657
0.16135389781824222
0.14550333630226794
0.1677003946367956
0.14522600364503357
0.111592577886084
0.10892716830394093
0.061561618784991334
0.03199370660065775
0.04413513557176511
0.05802921164365021
0.06525061539766444
0.09610527984498514
0.09792211773705015
0.17442686482048178
0.08505994285723684
0.09690677020146038
0.10121036088323758
0.1060140624525463
0.022824794042687405
0.12692946971532268
0.11907225971909868
0.10120267493581607
0.05935308082346124
0.1270615766417898
0.14722748539241484
0.02892114467510032
0.07512139512684744
0.07545703359587344
0.04268614542130331
0.10990869433285591
0.06610807512954446
0.07432107612486184
0.15208732541665868
0.12309148934618734
0.2732768383807823
0.20586762707731773
0.23944107281529425
0.23555207309997112
0.21439476133765853
0.1477973866825209
0.2611753534052461
0.040342623675371836
0.15273389744784485
0.14079480266418473
0.2736382615405439
0.24285614345517223
0.24979152423575904
0.339070953931521
0.30907890663719606
0.3587614613474491
0.19102106557692958
0.24923260632641586
0.2822134725653748
0.08935305125269395
0.24993711076391079
0.2694785236759956
0.29978793015791705
0.2814275597147987
0.23273533680431288
0.2053315267806994
0.24790877049404925
0.19377900769149084
0.17409292803979382
0.175055990671127
0.15339256593732992
0.1924118173873309
0.2808746128613015
0.1818343108384524
0.07454163181766633
0.17119158021616518
0.18840261673998226
0.15384071301370245
0.204706130365925
0.13566797594047614
0.1852572102027974
0.1092922727237153
0.104035273233021
0.13243099426817181
0.10996690700417512
0.062058793461618404
0.09503459176307576
0.04381581800668975
0.05237955155915455
0.08593107185758422
0.06171370462984037
0.13488507444099077
0.1595899089525161
0.17442037371569397
0.1852371824818696
0.09435273467149265
0.2306626250019021
0.036269115261386986
0.21595538663779043
0.08920198136514641
0.0953405549114682
0.05762466602347407
0.0795935239658545
0.12370834602200924
0.17950412283232628
0.056850655154860985
0.023535681938850767
0.20536996075598835
0.11364370215624309
0.13745043742631047
0.10826233480160594
0.08353217878528472
0.11586959560227666
0.07420988850542298
0.07232324994776772
0.12234568113809512
0.19793014442644502
0.16751183169744496
0.061403887377027906
0.13452591351354168
0.09537327222499774
0.07037694115428704
0.10320060630941978
0.10123998606772755
0.165236857021649
0.15153563978904372
0.2026449489471904
0.1633824277267851
0.14107970699754518
0.057998276085251314
0.09877179602915512
0.20514157444204126
0.1050175169904133
0.020090129934364372
0.0633856405833284
0.060272292245742466
0.08928357213936372
0.09967811761220347
0.1916968584479551
0.08579829909336578
0.08016309232906826
0.09735295512186215
0.11520130921482026
0.15545465530837957
0.06719087307980683
0.2570268187185551
0.22753093026250965
0.26350822185066675
0.11403490720999104
0.24310766951699256
0.3100911215824902
0.35667379758612816
0.22990697984014008
0.30460202834852074
0.2195094202176322
0.18406356330028395
0.24813844731575643
0.1521732548010498
0.12653256704181232
0.09714649175889506
0.15472218741411772
0.13237380864218404
0.07856272436314414
0.08989051387247361
0.07838650757103838
0.10783035223022049
0.15822815320476252
0.08197108404653533
0.045931719506981314
0.09233045281779795
0.15972031581678472
0.1305016869956657
0.13423103789411162
0.1306479356063791
0.1527814893037404
0.13186516306649146
0.1589991014727185
0.1642439139560363
0.24486448494767407
0.2092216989883172
0.06288017862670353
0.07082760539662028
0.05140431470818455
0.09326280537234066
0.09078810940694958
0.10362362266434853
0.052872740053359096
0.05271377744356469
0.03547586734036473
0.09844206731483503
0.16014635332848068
0.17624357882407626
0.1890638065535245
0.16834031074404437
0.2136956719106596
0.2529916086056235
0.2520106007411751
0.12987479917534966
0.10988707828235392
0.017840469691864005
0.008953567094274334
0.007953530511211586
0.007948719425839215
0.005584717220061557
0.004622041540519213
0.0054302028069405555
0.012929582168498956
0.0076344420936564706
0.22992970757440576
0.02528107177638609
0.1784927796779242
0.2121660081077997
0.17696504140101602
0.19245692355534058
0.0907846359491692
0.08749231970983666
0.11035632637767068
0.1013579272980323
0.06305986406228374
0.1342490215774713
0.13596000355281126
0.12007790641737376
0.17332743861609373
0.13114590168270843
0.0544610214357004
0.060727839003969795
0.1989509224636626
0.384596238006919
0.24002669381402097
0.3331404346029485
0.1622010625042842
0.17424993494527374
0.14047533627876702
0.17462400788014074
0.1898479403776251
0.1422196516348512
0.2864491645567663
0.28888838066469114
0.09227231444346103
0.20118150800095871
0.16186563697332662
0.25381834351925386
0.33127391773204773
0.15354224810369024
0.17764152594180596
0.11538679236630217
0.14826526437501533
0.15896166389639732
0.17602700725646575
0.21460938322134993
0.1553877303802583
0.2444973205452268
0.16806950245826655
0.15839668063686096
0.09234419225703139
0.03761274339139183
0.14074930446540107
0.15629949022359205
0.17463441390944368
0.14657470575948747
0.20372136096317323
0.38482828679291403
0.3457456751561108
0.2527403155199657
0.38982750790477777
0.3648729618538767
0.40047984082703436
0.33388657084327744
0.0493274358686776
0.42865028896557705
0.3664777649598775
0.2077270086314175
0.12780333448650394
0.18617162702248896
0.07151121529458303
0.08086549383793873
0.1369629668598201
0.18930010178320483
0.0979805947265585
0.07932496094352841
0.07096289145247738
0.092668440969962
0.3194323412621357
0.10217214345881642
0.0574770319943714
0.07586040653813328
0.0731812046051556
0.0642174593316969
0.04957412411839394
0.06867972675643945
0.12770329657725418
0.13122243953902957
0.14579047274268556
0.09547671184825478
0.1796163721593466
0.19634311792906162
0.20826819878631853
0.09335254647369697
0.12282453526902204
0.022410715983412852
0.03136331775647764
0.03223391814502578
0.03577202204542907
0.34754108150007035
0.5155613096514527
0.5324767111098374
0.633745090209535
0.498026773497684
0.10204700750227723
0.1927761062353238
0.14724154129051104
0.26434305217796683
0.13332228344626249
0.14031699862589972
0.14092235617161133
0.1324093433332456
0.15330929097598012
0.11617292797103876
0.12078929144052855
0.11865001336886066
0.28055854588462237
0.3289053109084342
0.25767914700628725
0.26968370680204123
0.11138287214969912
0.2532895054281911
0.15444331703985115
0.15023410826801678
0.14181899157302796
0.30089303325439254
0.2814606150711372
0.33337494077917135
0.292456151268618
0.3417675228020456
0.05720099022801913
0.05194695806819114
0.04756117794705933
0.14769192808067352
0.09184231017153928
0.29142742180051484
0.33432272096709065
0.2966766416533027
0.2527961198811228
0.33094636083708695
0.16901807914540534
0.43722315545385854
0.1970434997530352
0.36189882736955103
0.34505105204811876
0.39863285097818946
0.4151375560242667
0.39016180795547545
0.1555949898730466
0.10045780173096025
0.155392649828341
0.08257955458933258
0.1695098387939716
0.17203674059905472
0.17012996596708838
0.18880969319873167
0.232734335567779
0.1979374377453943
0.22819026787705646
0.22071506351034778
0.18130417013846517
0.06742775228598342
0.12687724610350734
0.08167824263433
0.1571504148549855
0.0950604857912357
0.13401616420769785
0.11374180261993853
0.3587230644783191
0.4577458579107415
0.28285241930054034
0.17257564311869575
0.2838548817888164
0.22726614581636978
0.3564028253479531
0.4312773148753235
0.053537897959686664
0.06276848482644157
0.06909554435802436
0.06165662913226025
0.04247954446199569
0.06721495556172172
0.13943848640223505
0.14206428331538445
0.16983683632137753
0.178629183916226
0.13161898252514911
0.0883698479631238
0.21478574768977976
0.21134194738477982
0.09505402634282244
0.19180208442986282
0.09424837578071096
0.10899655292829179
0.18708380706754754
0.09262285381537466
0.12114469475490773
0.11095392037439535
0.11909553820422986
0.27162768481840416
0.04699267090886202
0.2298263781472454
0.09254559407748734
0.1819979222949933
0.13430956463244087
0.030292691616734403
0.04246431733354463
0.0237877797747055
0.07275910975310455
0.026697072705958086
0.139721559422351
0.028295927142651722
0.019934500237387007
0.024613244326008303
0.036956656729689806
0.040867663824198396
0.030388130191125497
0.049874450859207824
0.08177910111484601
0.3658198094181202
0.27089240674555776
0.2331706833510175
0.3286287305890521
0.2688179848752107
0.4154875210287086
0.44795658843902286
0.45342506429536383
0.5143028966366305
0.39660692497651157
0.4620640054941132
0.3385843757327918
0.38650983065729994
0.5040753686898654
0.1654020889769644
0.1359904628671558
0.07436788320238531
0.12614236002692353
0.1033554337517595
0.04795179336959108
0.03380157495136011
0.03384316773486062
0.06912503038574364
0.025663695754816838
0.06799361838310308
0.027373985145751137
0.027199471658820498
0.026366323764239457
0.058992741070938284
0.12189197904471831
0.12424339899204273
0.025624725290130886
0.3682503696222663
0.2448177009609384
0.3799131434727738
0.2179636278394788
0.30590722794611946
0.3288951960829561
0.2898713589824016
0.20344001830866756
0.11575012923759276
0.13006498434287334
0.31126341775787525
0.20883462416497361
0.16608713096233982
0.13647362595083928
0.18769240522639974
0.2329530945969729
0.1726984100648292
0.13199609892085246
0.10554339469949975
0.1112345511702368
0.1842056665417588
0.2541345614552811
0.2176078336757818
0.24595708346917813
0.3002168314391414
0.12297522163409876
0.06482411639079746
0.09824734010584367
0.034352674503573766
0.09311337042814731
0.16448218637094414
0.052343110473921234
0.16013163168423222
0.08033381543180652
0.211371802412969
0.2250228977873491
0.12535656441097748
0.2389878200610834
0.059957539091462266
0.23543550734321095
0.1932128240243795
0.17781440217250533
0.20879084529684502
0.1795648601577972
0.17921020351195943
0.26470969440263487
0.21980583808009382
0.24037343354441126
0.1840816304640915
0.22188916023822433
0.2222278553816574
0.20561749423900594
0.26285207005158023
0.3634797467759439
0.1729290403366197
0.008030382113685054
0.24112169422043214
0.2231852166235619
0.11419567008567559
0.1405818456287284
0.09309582659625691
0.21301703908062797
0.0963953912003946
0.01748632770398151
0.10574524211258221
0.0857556436890567
0.04831450463997767
0.06996552614797777
0.16245550601585804
0.0823412005032061
0.06251567473995565
0.07454634586371546
0.1548992733443331
0.1425270118570643
0.06147888225481296
0.04552349756986181
0.08616830732142876
0.11683186806926835
0.28579528807008037
0.11174973612084062
0.10000304615556646
0.06235636643339058
0.08387991079241792
0.13916125428705822
0.22196205754287412
0.08797485840294839
0.0919461093287469
0.19968278726708277
0.07164213927790437
0.09621385441652157
0.041652915494778904
0.09728231158923054
0.03348500044164968
0.038188260868135246
0.0358228640930652
0.09596225226292242
0.025842083888696667
0.08359278486937433
0.07218718560620473
0.12153756519678001
0.10667191311685364
0.037308249974524664
0.10287735823975264
0.07935764473115667
0.16382035867111286
0.11602895197061805
0.0986536235382599
0.13204057588229065
0.2910944386991226
0.020464284731861168
0.05746663825148428
0.05993176471842162
0.0863041993068202
0.028093818278238123
0.02740777831705423
0.026228205272598046
0.05265693952594341
0.023731863862885633
0.01617784963035823
0.017022012421050944
0.050981859009942496
0.03281745281537137
0.02621969839754632
0.028960921909977653
0.012912377285836014
0.06135250262931085
0.19572397924877155
0.2261222270501741
0.2538440909453611
0.2666672527888284
0.24064633982787498
0.1696275015531859
0.14788081886105245
0.15627834995781578
0.08295693459200416
0.0509873459848262
0.09098937323559379
0.18124385991253605
0.04913986198796007
0.08235811649031068
0.07818015086391032
0.07616748531356282
0.14374634626881003
0.0751779398877899
0.0949062050001172
0.07922700376400671
0.08630644198382456
0.10875448879459715
0.13841295061290668
0.0035538697628009802
0.0022959226392512003
0.002085227204487883
0.03896580650648403
0.005503865714030221
0.11183634957906065
0.017791267460749906
0.01269149609729044
0.26517150275267
0.28701985030156885
0.3243542915614631
0.286857618679863
0.376257386957226
0.16338818129632182
0.19961528103268228
0.1777907929028756
0.16448157377999995
0.39505090252554564
0.053874974280664796
0.13503506649436114
0.2493169726849947
0.2284686374728874
0.08378980403818742
0.14373334197736468
0.11554053085087927
0.0810030528837936
0.09859723601871219
0.09300855363425159
0.06684577998371878
0.08721746673758997
0.08016747273573185
0.16606573785653633
0.12792641448438258
0.2196801011576364
0.21640863975019836
0.18751474855891295
0.1811472712768609
0.24516213230557002
0.0750314566507625
0.27094854980826266
0.07818694361393554
0.1529863791817588
0.13629462080391577
0.1606725265963577
0.05557753715591015
0.20959798712400923
0.26093701633459276
0.03865255701387525
0.2502071865867955
0.24214878052215322
0.2021685934479625
0.2840069543499398
0.08938852101178314
0.10081769014653474
0.14608285737321303
0.07328899028565301
0.17678417743096514
0.17156264052376058
0.1584613006426713
0.1654521597078194
0.15336514120745917
0.18173985996301578
0.17887336211300853
0.1661142590446332
0.1748705169874741
0.15965542134681757
0.05269503025772346
0.041635780927556314
0.01924084314565939
0.025842477423059257
0.026891500834266245
0.029466434865119545
0.014170246383692322
0.27030011999801057
0.27239774304848546
0.44365680544856734
0.2730171512437894
0.18659763329873952
0.185325931324199
0.20624859231978104
0.029126843611246397
0.21993095324743575
0.2120885957047713
0.2065461758229553
0.2175401067017484
0.052526987130668855
0.013927502319649138
0.1668523552926473
0.1485332155656048
0.1719345076487791
0.08941415576454118
0.11151075494490528
0.15281115965615508
0.0672919790700767
0.20598350393376688
0.10348010587975605
0.09345054552075141
0.05766741920165819
0.11020955785258775
0.13906194151262338
0.09311179367164271
0.0430455515340642
0.1471540652451191
0.07556606564056124
0.16105966607075073
0.15409020321405698
0.05791370775091734
0.07289603923941848
0.0501043465386012
0.0781675891024049
0.08871767918040402
0.17853315450020876
0.20592289766551353
0.12353296307735341
0.12218458547952243
0.18418368417971157
0.3707735221559001
0.37205838195983304
0.3501517768765261
0.12022563955303442
0.2772368253443862
0.1906443752863563
0.14194065088196464
0.23840312676077993
0.16190778526076544
0.2555758224282736
0.050979583198347306
0.036194368280004385
0.058873488704352564
0.021542589594138132
0.036787289554920374
0.1751931389064371
0.13752028095378974
0.1748044337122304
0.11158764874904833
0.14134675779354655
0.10620544467125596
0.09461415590926975
0.0970229750282287
0.06428180505011583
0.1004982645521764
0.07226414539289382
0.06483129182032622
0.04185785822012275
0.11035143950704054
0.0904378544341034
0.09131296426203496
0.07754858495474214
0.03925531104883932
0.08907626107714893
0.3520081062837812
0.25418406197148086
0.3277381704064207
0.28011199570816536
0.20097325126130683
0.2726386873583933
0.09215812204374779
0.3564653825546591
0.3441608884894081
0.30916556413586443
0.26800784643010755
0.12005433593154127
0.09202630703706659
0.22496983296035053
0.0889340206545824
0.28646984888093
0.1272200082031549
0.20634967489333422
0.23517116181910042
0.058979615278858935
0.16161372962850923
0.07712569079466612
0.04491082115117246
0.08655136154920107
0.048705673522365996
0.12957661820404934
0.29482048705144087
0.2776823054924543
0.16314140196114743
0.1373189533109474
0.06379010798389803
0.1201262410611731
0.34719083454908767
0.25324298062084255
0.16458646779111752
0.09682178212171161
0.17571845634730116
0.2585449774241199
0.2751811631200972
0.06096289296138086
0.07001652962291921
0.044241171684080566
0.0666891252918653
0.13736453925718917
0.27316560013360647
0.24974507507169946
0.44466280936510283
0.3823027067754567
0.16997411135806012
0.1083624473321874
0.026496775466343072
0.057286740486993955
0.05817116168808465
0.08809521998729876
0.15251061027803453
0.13566979866760365
0.15213539806515622
0.15209442640926535
0.18442976103178285
0.18361148547202616
0.07827801592492689
0.07391324026110328
0.09914237119360116
0.05424625571093284
0.12207696183184064
0.08437078866542995
0.18170427392583935
0.06657445214981808
0.2982285659734716
0.2615388845386918
0.2253128333103991
0.27205981655827716
0.3190324175536319
0.2080210684709825
0.19809144879505863
0.3368137823134658
0.2601594141815727
0.21156268117431992
0.23035305027171
0.27422815937844025
0.37312485653822364
0.3079245254222211
0.22773248189852788
0.20722915740268338
0.23964932157194352
0.3023114845720572
0.30649851484664176
0.2505625146109028
0.2181776078480435
0.14124171372887193
0.15011974891401186
0.14078242600316906
0.11423161366861191
0.144654863250419
0.06160147417322235
0.12359269000692669
0.05909608053861564
0.1322043898983139
0.1216583428227486
0.05552546813060373
0.07559239351808546
0.20516400650249034
0.07695473851792811
0.06995702900785528
0.09102413012244104
0.08297319437776128
0.07689115434228402
0.08853239033567671
0.0798390307283897
0.12624601760413998
0.12510958683972775
0.13285702240883682
0.08009228708792955
0.08317775569795814
0.11855278187860974
0.09169263511084988
0.08143951928463658
0.11773311965150698
0.08043839397579752
0.06447966483875374
0.03981264975650226
0.0733392919100249
0.33483071844496676
0.05382823390026711
0.06725176665495666
0.03167142722498872
0.03174672982778816
0.04779266016583146
0.19136981962947214
0.03369403046042801
0.05236756361375834
0.38356364456606556
0.03088262195463807
0.035049083294341456
0.07187049152672109
0.03242499400819779
0.024759762200355227
0.1187988970046237
0.1507856160949078
0.2543895167466468
0.36975929194969454
0.31700150491173296
0.3545968031212977
0.1530636048335344
0.2442614959910246
0.16406907581044816
0.22193355425111705
0.09886567092737503
0.14595180597908278
0.0751203142486127
0.12440069293764985
0.07877175430027633
0.16605329002322589
0.09112248990643353
0.177784752518492
0.12601519281326584
0.13193898013067462
0.10638247772406978
0.0604279083207983
0.02558180069188117
0.06266501705808043
0.026283406699377527
0.022921520025527647
0.03169332798873086
0.04654175085778536
0.35983379407677973
0.3427080018773133
0.14376743395975988
0.34420431847896577
0.33602456032290373
0.33713071087019036
0.3602445033804056
0.35830601461082934
0.07524063509420875
0.060970005176880775
0.10690015633017706
0.41823988456605393
0.4845190506434405
0.4053096718857957
0.3068669499925544
0.2879854674806734
0.1689915792335816
0.3290853661701234
0.3413781855120702
0.32917357600933644
0.2035778106859708
0.2686066863811546
0.2114298764344245
0.1436015100359511
0.11678441549004448
0.10895637718368635
0.08037322796602084
0.10407812125499351
0.19671397321231912
0.021391207277036042
0.07184366522624745
0.09958181576971865
0.1437881405560066
0.19501668349110488
0.1023849096912147
0.05973010569511078
0.15777519939374168
0.18876305451773012
0.13804598238835072
0.06187639204177277
0.13707864270462253
0.12147296349618598
0.24387926609183314
0.12864504001114144
0.23831729408469662
0.17239606636678612
0.11005683985214954
0.15047353197789962
0.2234679213010863
0.07597069481897797
0.21862754882994057
0.19602531461509506
0.17386185629756903
0.21841857035845078
0.2551789205641073
0.1483122097088118
0.28164723742961195
0.22019294129239816
0.12469430133595306
0.12262729102003131
0.08488496535873585
0.033536363422852364
0.08657754514661527
0.09336673831896164
0.07459081985720001
0.06366316586179585
0.056438444896713846
0.055900752553147234
0.04219665238446791
0.05781174523408021
0.10124833750891224
0.13483191580816126
0.040175113647323644
0.050718688366339984
0.04113108107811704
0.24781208369670163
0.249437148239919
0.06117044410801459
0.05402496239902237
0.29702287037185804
0.38440182354239566
0.25630791998464847
0.012125894944330352
0.269204587416507
0.10965453750158588
0.045564784813393336
0.0017743099658111328
0.0020948879327124005
0.016674706473241183
0.04625788441586526
0.17933843451557538
0.15269964985296994
0.041917934547720866
0.2474370777850365
0.09714073565719351
0.019338869126430226
0.05713127986355271
0.01306379769882424
0.0467754627366939
0.10856291461638609
0.31968460473872545
0.1502753602064666
0.13839297300522396
0.11987225266526101
0.15243222588577043
0.17826573224222406
0.2115618174812321
0.2204342711963339
0.19448494659102009
0.19172153125456187
0.2206230216091498
0.04283300973108975
0.03469890026854681
0.045548944262975205
0.03366662729886181
0.0346492368924127
0.11156915589276162
0.06581004303516703
0.027464755977498104
0.038080623586453984
0.037549923605890205
0.02869061536116241
0.036848234615761935
0.03997397186455864
0.031676040458999015
0.09819074353903033
0.16607977630270002
0.3043821353422533
0.1564753717980945
0.2283137704038467
0.20791109319815673
0.031006954384824592
0.02538227488788996
0.03335001544562543
0.0348936492234351
0.2596660869023307
0.2735655977828225
0.18341075617411093
0.1456803767388552
0.1276849688024336
0.09760064457268162
0.09416040350348497
0.10330322382313818
0.06886154754135661
0.1231584501326546
0.09474412090688225
0.12510220264843544
0.1388906915812741
0.16861112544784337
0.09045544987106711
0.0804746854802062
0.29585201549505113
0.26342113377416165
0.4089075843632287
0.27608653039515907
0.48126214336076306
0.5003950713710363
0.40580687093436046
0.10051991377777975
0.13054646191621294
0.07691917776598178
0.10723902321652441
0.11597272688392114
0.13095615951085293
0.0732830551057244
0.13715142321383295
0.14119506493086692
0.1656958595836717
0.16563763000424422
0.17686243276275163
0.09008369176913242
0.18737468704608176
0.08197531441239557
0.14316200218757433
0.15513834175558572
0.15742742145816807
0.12999797507936606
0.1132506024207294
0.06168518687984665
0.04908365578890873
0.05929033410451854
0.08255556136675792
0.04782178944838129
0.07927012645669192
0.039330203479966845
0.18562485878747903
0.28090160147432824
0.23573695257211333
0.24525582337175464
0.24705992690963452
0.1327418536138644
0.23927878534723748
0.31055332479331854
0.5198884647011128
0.14834003495602216
0.10379559254226843
0.06508139470878568
0.16583504101367272
0.06716755815837389
0.08684674601918924
0.27175424624718136
0.1365567408589481
0.10101146502052889
0.1492813980819951
0.020954941699586373
0.07833230879507629
0.2855822448318543
0.12865450575763204
0.2138360556908572
0.14103808052485253
0.16372800696394624
0.11447094511028148
0.14145877773123408
0.19826105836077718
0.230100228848915
0.23438802725500416
0.07451400407356105
0.06898133000376182
0.14823709240673727
0.05960136581857344
0.12726311751068267
0.08384596189363382
0.05243517363188809
0.04970419902624228
0.08316221086685384
0.09359766479354983
0.08096927559478034
0.11111604931789754
0.0720294467367566
0.05596305445439203
0.11544081002912646
0.13654691644759787
0.09645267793731749
0.09529767127239759
0.05385202696365781
0.08783091886795119
0.11407090185615584
0.10027379358150962
0.07449584213045747
0.03277197702319247
0.0327361249874631
0.035217473920086645
0.017081909028070424
0.13311665053051872
0.1595860592130373
0.15324397508565193
0.14478848935916117
0.09667157809442344
0.13239693769846886
0.1202791580758113
0.051701028205496435
0.1103894714845011
0.04413476683637347
0.1489986234621459
0.2330929830947117
0.20429456801130919
0.22302920869074633
0.06686766872919984
0.18274705398987076
0.182337024943067
0.21845298202809124
0.16854208484781136
0.17652623373573464
0.14546231605805135
0.13234651112163293
0.161144030943629
0.14670306414983772
0.2186653336521022
0.1408722177814759
0.13645826784859053
0.026691658564487783
0.0054242333928929505
0.008075736947744338
0.10101414092684625
0.028041782184891687
0.010743245167850017
0.06255348630408047
0.04858054410669804
0.12304524961188139
0.1260868834401929
0.28149237570851526
0.11278860386985566
0.17943695431087997
0.12345894797620546
0.023353475926451428
0.13819853252710562
0.10370380695329423
0.18318056010344724
0.16632280332618385
0.02819772382022791
0.07634803537565882
0.08203844685285175
0.14499497552087331
0.06180530169414253
0.1281309802569073
0.08498804200703491
0.14646653514200125
0.030702672337857742
0.05903532909657787
0.042221346221422484
0.0502964581086471
0.1389189095206175
0.09602947362404682
0.19340065648017157
0.0560000964416187
0.06382989640514208
0.05613800467829473
0.18711762381984964
0.23053405349853512
0.16227629782691155
0.1247766977220098
0.2455028236799908
0.10197606340183282
0.03951056492064886
0.06818930710324712
0.07549290179264939
0.1269068204930986
0.05439090754179229
0.12844782677600589
0.15212777519087167
0.14475266247446214
0.1104949278856759
0.32814214635557015
0.2919613169312353
0.14040288812765297
0.20559148274772662
0.2301847867650435
0.21572047882138898
0.17626914431768198
0.19671803935057416
0.18615183382603376
0.15848023097924804
0.16162185156264078
0.12036413169537238
0.15147509318762195
0.15546530728663707
0.05293941983943983
0.06359556947147404
0.11869329970469981
0.17961242607819647
0.1477753267174683
0.15133456781095492
0.18520261617265138
0.16265582290406552
0.16082292627436065
0.14317513686351302
0.1720524060892882
0.18594155831693449
0.22613580735902558
0.04535343585988836
0.19489936358066376
0.18659684035620785
0.168794328033821
0.17194877730310518
0.20090947965761902
0.15051741706562374
0.14199677716981415
0.25606234802819977
0.30046078137138016
0.042675750649554776
0.12366319432505765
0.21418413990159
0.27968288889629744
0.06040797053513411
0.18930740085093098
0.20989684294053845
0.1981973485867031
0.1214708813712036
0.27191995052386675
0.34924968322360667
0.3435206929256326
0.06386220087034815
0.30607441311655614
0.24315415238377208
0.15861488592981535
0.16046789590661478
0.18401477670833385
0.32780054028366684
0.35375468190325954
0.07537668736449422
0.13601798912243251
0.08411396265311877
0.12384467918763689
0.049085348239282976
0.06981358459653282
0.057764657670075534
0.06277030868738571
0.05054520357745907
0.09042662709912416
0.10874780012606197
0.07712163405365706
0.12165026787314209
0.3117493098088006
0.22697792183960744
0.05122961455730855
0.19017931605034555
0.04375197884160411
0.05330360023154373
0.055530952235883425
0.07104369622258822
0.06000814379720734
0.061954315577311875
0.2781875092663184
0.05234094880051861
0.04786719990215346
0.24120894730686443
0.12734680999236686
0.29797209893405996
0.12372604533483764
0.1330403602383907
0.0715004866259079
0.12701327883659094
0.29621832061875375
0.2311317905160835
0.08443117319831342
0.026753402251746487
0.14509987905950533
0.07104662880963664
0.06558994119620185
0.04104900781403345
0.06128004942724949
0.09004457724425434
0.08495332031124357
0.10058017218273418
0.1129623903576906
0.08218163305585682
0.07778171648853412
0.09666441814062743
0.08056875932629375
0.20097394680511246
0.07341643809256378
0.047054915824641295
0.053871425927909104
0.05994673882301977
0.0909088509047289
0.035417991788468495
0.026601899397320432
0.15891477801830411
0.014017232870912825
0.027332722554780396
0.01278729938694198
0.011024112531596318
0.01994284382624167
0.08596184636302368
0.15353857935875106
0.10106711634627524
0.11415740245644267
0.08713850362474754
0.047501875907763946
0.06404529884501663
0.07527350673780388
0.12985923521123935
0.0967025743027193
0.11187020549080998
0.04134342489913413
0.061083333748863454
0.03678448956229924
0.378191118627341
0.05840341037868595
0.33862450285607765
0.2883675661135913
0.17759230592899675
0.1357591211225922
0.059786693211766224
0.10015850757527994
0.06168478275005104
0.11548782597079456
0.1837677471430148
0.057696334826416514
0.11992093506772811
0.08524262627942808
0.09136162524212214
0.07026706810323087
0.07399756531027679
0.1397718085351903
0.11445752954188101
0.12672622996591215
0.18946035114517049
0.09187474644598648
0.09083136518781107
0.10120251746770419
0.17005219193981033
0.07993060606744193
0.10132883452584543
0.12254093765708565
0.08552721326450269
0.13500119796220678
0.15925334763709262
0.22080659707598183
0.15501280653841487
0.22639255103565065
0.1436045827358714
0.07285053483864298
0.21889426143805008
0.1488351292392413
0.1865443000047208
0.15041837589869234
0.17816613499034462
0.11234619831212411
0.1633171826321756
0.14482316012007182
0.12082587079633447
0.08680948311836215
0.10838897243028864
0.10400652442875778
0.08932815130955428
0.104398770844026
0.09008657786019882
0.06577584967850206
0.04363599362903878
0.048130100351351006
0.03531202028394655
0.05243828136353303
0.06944207146675899
0.44001625534002514
0.07703702249261243
0.45694269239429075
0.08167577975423768
0.1332251285499227
0.1555058059067528
0.18395622978477338
0.07091061690977528
0.2197285803889964
0.10107433042524694
0.19059191246500526
0.13666670209239123
0.224477596888853
0.15462880702724174
0.09215006161490383
0.10200243532617076
0.21514011584779275
0.20571169372869708
0.13134348167920773
0.25430591241553635
0.3613856301402378
0.1450821322311235
0.022432078143929897
0.029287041063087216
0.08326921283289783
0.08737600489714441
0.0888520749128318
0.06642962449503965
0.04730030187610101
0.10127345379922072
0.10477826653675519
0.11256828352770387
0.31467003895033024
0.13702160889992895
0.2399998291600875
0.10310929178031851
0.13635013740657087
0.12371571266077327
0.1288005788630906
0.14577576959238406
0.21154323387459836
0.13056283685267397
0.12134754114637535
0.20193819035410485
0.10708650125426702
0.03398765456033377
0.05613505445858655
0.1113481723672872
0.09987617329497353
0.11831798176584402
0.11867627960114688
0.024162485008672477
0.02140804833755054
0.04055222271690536
0.05578706245500017
0.03119995523133103
0.021671982462533403
0.06324053582883964
0.06552612398499674
0.22664071560186974
0.14292564710337818
0.11563174212054726
0.0695748631630476
0.25711059343476417
0.306445024582873
0.22693103922468558
0.17042344835262901
0.2052850039620799
0.5343642419304946
0.08600948281568549
0.05135753465347622
0.1281906478917578
0.015057610621230864
0.09492964943910498
0.05745797854018536
0.03290355316174316
0.05260562562330211
0.09820877151483527
0.13757632361376704
0.03061847669030036
0.17531236639613643
0.4164631274539556
0.3609820130925197
0.31712148423724873
0.23000686777364124
0.3184234551542796
0.3279833075789592
0.21791962212045018
0.2744758160930721
0.06411605142333579
0.05985476743153416
0.043325286217494145
0.06445204644540517
0.18892705272214685
0.08914117460605504
0.107681741926167
0.08674675415298269
0.07342267880871868
0.07096095273619456
0.11251481866668638
0.11104138213936007
0.10420925428637734
0.11833994436702736
0.101728051381632
0.09960307112707997
0.18071783852431442
0.2850109104267943
0.1471222405676264
0.4120293049232973
0.12571235789794985
0.009434892000942378
0.25208931228327863
0.37594170265282967
0.30087506535962116
0.2696090751936903
0.15119902677329272
0.20115762101676235
0.12279278747469462
0.22621230116685692
0.12543169187752073
0.1517958821567079
0.18243754033069107
0.2501449399778433
0.23394957367455602
0.07721509998118574
0.14648562150612363
0.22173277578575307
0.07995798229164928
0.03281139617442129
0.03086008098240788
0.13841205243590896
0.02644118671981416
0.029316428174673
0.034536111839837805
0.0925057008019495
0.16805742114745528
0.2243983382252402
0.3355770839166168
0.2347646348178185
0.09275008209274127
0.3969365121963064
0.05993959539662991
0.139036064706618
0.3471835697156233
0.37976613700102646
0.28551680698243953
0.05313050834904619
0.14430503332077285
0.07575542157552127
0.07138698739917651
0.015839460048558015
0.10465549311083437
0.004003141023868901
0.031198462650020003
0.08935776102545583
0.03933912312027993
0.14043509343898233
0.09382407161399973
0.057300300385344935
0.07245037433271131
0.2633298836753502
0.2527176170228853
0.2798506731623716
0.20910879635199708
0.4014339743650122
0.3610210435318268
0.40152818258963535
0.19753960364310486
0.2606376830002406
0.19606080390208805
0.25306346681596925
0.1096125117312346
0.09521119210872099
0.07711913815086438
0.07035912248669936
0.0596902002344678
0.03248932267256081
0.03643798360292847
0.029905112353276503
0.03854679952971322
0.042413147149073446
0.10538775581781686
0.0845781780999555
0.09660205454983585
0.17777233681341906
0.07516251536449167
0.45258241854931436
0.05528009869451452
0.03453940402070917
0.09654807148882845
0.0326936424259695
0.1627680995015846
0.17438216973969195
0.154399744765873
0.12730204247175503
0.09176342912022574
0.1347029809794583
0.12119168504891165
0.12429022181405894
0.2476437446030113
0.11551312078343039
0.11891456206190207
0.22198717874404308
0.14548177989946506
0.21075179420678342
0.2301911996385769
0.16039035272515173
0.18696334416132032
0.2116911297293993
0.15134865850143892
0.2639140120290735
0.21729602767930176
0.35198061722558954
0.34281124026493115
0.2966359294991552
0.059115709771024844
0.317075439602726
0.06310016070715568
0.11594082387132167
0.0938482955382201
0.09703833769095317
0.06493492971736003
0.11492005947369555
0.16090121950794292
0.21089182234319287
0.1617489721739661
0.2524332618098767
0.1810241391324388
0.20136282647907633
0.2363064980515239
0.1260602109193838
0.08611499163908432
0.051247396883839974
0.0362713182798249
0.23545772253503414
0.26821248867781244
0.05178610660107023
0.07624196629110488
0.09732223011676151
0.30821187870162453
0.22200101856602367
0.25739296690310876
0.24323375098937344
0.43996252941133074
0.7129498497507283
0.556768027097515
0.569316148329683
0.3946024925805407
0.07373936785921065
0.14274432024135006
0.13040861992592828
0.0831972759341545
0.17252082433848143
0.13591811489691216
0.19331068734484774
0.16896424965671342
0.15230645140024818
0.17242927313853243
0.12798749314350985
0.08589229844771444
0.10308333380357453
0.11261344406829679
0.11501431832808617
0.10698294822186759
0.12637719112899312
0.07820092705892114
0.09178611989821696
0.37476154763593594
0.21847689349125418
0.285246476452229
0.2490548838966885
0.24382905577320876
0.26489946845474033
0.004061914235030764
0.030929227226171127
0.02986249476516092
0.14093024615047067
0.0706663498966515
0.06827065483344015
0.08637733798517172
0.28802954704464856
0.11545490401574265
0.057882730407980754
0.18702610510069345
0.09068894578388852
0.09433138897883014
0.0602621864041056
0.21344281285140826
0.3052661329373091
0.3414187335720437
0.06765298212385083
0.13685862001536217
0.1286154356555554
0.23679194963312197
0.26980528156646955
0.10593444590008304
0.015269761479950773
0.01936894508160192
0.009141832237044345
0.013199003902488283
0.026020842754596426
0.06271678477348877
0.08039119998274641
0.10481483386928851
0.12753792188493807
0.06808696250455185
0.06029212394243304
0.04267038906337029
0.03160967617925956
0.06211568964318468
0.04864385453252523
0.04036618592230645
0.18332567675911193
0.04019131553140603
0.12149377950090645
0.1583576280177975
0.47772180881272325
0.20672505997501095
0.08196319679281816
0.21787550351030036
0.1570078160989295
0.06395054158327002
0.10451575829011915
0.13890191552214767
0.15966240731981188
0.03546607384372679
0.1312082422976633
0.14880669659400803
0.11187246810476018
0.12055849862353264
0.18725920923626005
0.06837207324902192
0.12686410229586972
0.10678881613573617
0.14880507028393467
0.16312524135595674
0.11695318578141586
0.08032943649359475
0.13684242454765383
0.23931839014689996
0.057054372688846965
0.126783023018623
0.03375772089695133
0.11066040329977046
0.07411631939226752
0.13344261403352645
0.04730245401736421
0.12746246575950843
0.074641303296877
0.24555978392377054
0.24996085851935673
0.23753064782963498
0.29293276648314737
0.05228034097199845
0.09661992209944525
0.06649542861816803
0.061394076785911696
0.04740683407365919
0.16348433625992645
0.16002520666881445
0.07658504228605477
0.11541782224486853
0.09307869833538186
0.28669708525142606
0.3399352909503237
0.11168547228579488
0.32540559986072937
0.2533013941426743
0.06114771394843333
0.18633581768771748
0.13145653506356242
0.10849366148360114
0.09900794547621909
0.09732484221620022
0.08560774696054507
0.12038682851800588
0.10927958872599755
0.06474647847980797
0.13324350287190367
0.09679333812155415
0.11680771749132907
0.027075758006613396
0.13877325519015704
0.11604850573432555
0.1727023659342407
0.09816809851034977
0.10617273779985471
0.24410515941521294
0.28238778218595706
0.33493728377748533
0.1061646437049097
0.15602392858426065
0.08646072150728323
0.1328003238587031
0.1136998605903558
0.42431467714698407
0.23101496692283177
0.2797480154665011
0.33224425266469415
0.2556940941049602
0.2758999271590367
0.48780065771771536
0.5255696039616664
0.5765315313841689
0.5833412554180885
0.030543071323994593
0.039979317243502885
0.0236224628738739
0.024785825902051216
0.023722668917282932
0.33992793585486925
0.30761089772613276
0.3681017757994087
0.386686640778318
0.21269825247055957
0.3400721573635929
0.38541147165754697
0.3425392895466254
0.13321713191334567
0.16682030080605967
0.19331895136618543
0.10712387953200846
0.3582666467542793
0.08424777798513655
0.023212829952715612
0.16143567255820332
0.04270556635567817
0.11244569712967625
0.07769601770043914
0.02086250911589015
0.020618905535134745
0.02366742791938621
0.15495140570144364
0.14395150599544415
0.14932450445467693
0.12722379158378685
0.16840052307921682
0.14189132464998983
0.11872374869252192
0.11151008004662126
0.11764789561173356
0.10443877498633664
0.0842140967400939
0.10689919036681228
0.14450881327367054
0.20890633902161154
0.2205117588636927
0.2562607324564682
0.04220934068654406
0.055408362167989576
0.058442025341518614
0.11160302930025165
0.1248886537772709
0.08816402329053719
0.13107691334913815
0.13091379828219826
0.07597129866853322
0.154072264397884
0.11486303397649802
0.09781913470693417
0.13801002414159538
0.12136717170683416
0.07102098970630992
0.07544249430682204
0.039856255718412066
0.0713043987778447
0.05811602007295784
0.062155988766509025
0.06415369280705686
0.0347449149131854
0.04955206602026148
0.16367506635249632
0.030434539893688883
0.161446591744803
0.06501965647837742
0.22437074736563076
0.3072798804433895
0.1450191526828074
0.5960210214352321
0.21108170816427602
0.5165599832980408
0.6013516761659904
0.2654093490036865
0.11344744042366099
0.2264411528412102
0.2257595006044564
0.28064879613604876
0.15362949708701623
0.31249875684574496
0.21907687308456142
0.14379838184774324
0.15666960486822035
0.14805476943076112
0.14193740363271543
0.11295394969971827
0.12093514549015011
0.08120311614376617
0.1493836408642512
0.061306232007933704
0.1257937315713919
0.09148928603519722
0.09631711084247987
0.008205915175125944
0.01733663693391862
0.02030104697223726
0.016953614464253104
0.04905408019993219
0.17561571626344735
0.25922407687017535
0.24936528516186562
0.196215505595608
0.18955220412161056
0.18164904979615887
0.24960514183221688
0.037281545910394454
0.12090154228439788
0.06930946604296714
0.11822894162358788
0.10670731986999818
0.1717026482877792
0.23401704177226215
0.09679476643121905
0.25819122964651303
0.15510876236716892
0.2090246925040382
0.16193614701723388
0.2333618718427947
0.13035966279036715
0.14258655213039703
0.10893436653544493
0.12194175608471759
0.13384674257262996
0.13329983935247186
0.130681916442549
0.08445118393802876
0.09719216675527381
0.1299861006153347
0.12265695260361215
0.12188680560933332
0.10784185655981773
0.07404532471098248
0.07961040871533591
0.06533748500294358
0.07405228711308807
0.15073511295744701
0.08475373437062424
0.08679486459644005
0.16737759934197327
0.09033772412833209
0.14725126602461067
0.13200746488411483
0.1536401047736102
0.2489422642962932
0.11972765924238464
0.06754427070890268
0.1579274969141076
stress_iload_1 1 31305 float 
4.8760360649076295 
4.231760827822537 
5.683955117732274 
4.342774750839302 
6.05306755247234 
3.61770044679744 
5.808183442890048 
4.272887055578428 
4.083977634919694 
2.6038389343017974 
4.653808384934967 
3.3221743522145912 
3.168878670414298 
2.822618586920681 
3.6093726986947785 
5.427154485917572 
21.157125071059678 
6.329526336742394 
6.575774586249074 
8.103209296472544 
6.6817431624156916 
9.011821160770422 
5.31374753441754 
5.955522189818278 
20.889183750017583 
5.371817043424258 
5.403627136052269 
2.7101789642178424 
5.993221942433407 
4.234287858294514 
3.542988353571002 
6.070275354691927 
13.600262268543917 
3.2179854108316652 
9.547679930346291 
9.554253030825874 
9.364993551095441 
15.882700479973398 
3.7675885624879246 
9.373415115135694 
8.575960634404746 
4.112013559933806 
4.078308003679415 
5.806326624247037 
5.826822132349179 
3.637664199059317 
5.147730058577163 
4.016038264588469 
4.185958882755718 
3.948538006987229 
4.772801992955229 
4.039523370893696 
2.8923626140459455 
3.0954897963968127 
5.7359779819909145 
2.752277477544468 
3.134082010366246 
2.762871171494119 
2.9492034033345043 
3.1228419721513867 
6.484554702474483 
3.344637034523813 
4.179353504364065 
5.2524929011712125 
3.8253076504171726 
5.04657465449711 
4.614623570216639 
5.219888514828573 
5.088884262466316 
4.732461036484053 
4.543639859357451 
3.868819257446176 
22.54325469171428 
2.6071719079099274 
3.5002547393421746 
7.039260468737792 
3.9684099343337764 
5.082492909265804 
5.3266478126328245 
6.115211847057252 
5.9905667294857485 
5.343309778786238 
4.257792124883765 
7.293181724402239 
8.248990485368246 
8.329148154599075 
3.9812347026058514 
5.3982653519286625 
25.898793355896395 
5.255262856095503 
3.7961008770230595 
4.408779827392814 
3.7498491168270114 
4.206814807706568 
3.1762271704688096 
3.489125699147486 
3.1908501881379885 
4.094651618087008 
3.8782147491080807 
3.3363629931287635 
5.606084328726507 
1.9297184551861946 
4.454293810457872 
2.979938173476906 
2.7488960038373076 
2.7966266566817177 
2.827511770439259 
3.036466377122053 
2.8701693320543344 
3.0584797325882174 
3.0979283429644613 
2.9096508538804446 
3.92871252691405 
2.3872645613978434 
3.294214229694795 
3.4039799687203236 
4.340223031810148 
2.414098869868531 
2.806894922155236 
6.558786672243294 
2.937596042465024 
3.05812709714926 
2.888945951483875 
2.943448561332409 
2.7481074647889043 
4.3689879701778205 
4.320883941815106 
31.29390613746603 
4.0770773236766376 
4.049562216512914 
3.5324913323295206 
20.787387420843178 
3.244702855102577 
2.9197019223310425 
6.6016383331539785 
3.66447691287322 
5.9906022426387535 
4.194786462619045 
4.308281576090933 
5.134129232242399 
9.463721344853536 
3.9718413662346634 
3.9511020496482736 
3.6653364129420094 
5.587441322371877 
3.0077434620133117 
2.353400928110287 
2.5271809742179037 
2.833587594457814 
3.53016133976271 
2.774671880868761 
12.250745040483867 
10.070443388300554 
10.266071314866384 
7.922408768394089 
5.330511405842585 
6.354751209861449 
6.482704713031632 
4.157558270386646 
4.461994768208504 
4.2160327121528205 
3.4139430801694655 
24.033527977015996 
3.8304940761774287 
5.305369114552681 
3.0992978673924414 
4.92114589993157 
5.63917492147582 
4.682834916958339 
4.322797132980732 
6.263802953426712 
7.649592217306799 
8.029202156884612 
4.681864682057717 
6.815710963987881 
5.046814118982721 
5.697132112750134 
19.806214266201636 
7.9294296685852865 
5.794670728711356 
5.968237314314502 
5.182158564069433 
4.065034935737706 
2.8067147123925156 
2.7060002574426028 
3.0458945873841445 
3.5068525398399277 
2.7683800991713405 
7.392798006944225 
3.643975116327351 
3.512630463993284 
3.5579424821643264 
9.30302428898343 
9.272374691610173 
9.190611802915067 
3.7303738998905107 
6.633896816222418 
3.7134769419104674 
3.0394089393066896 
4.398910161064776 
5.858790013291632 
6.149370214983923 
7.413193041643285 
32.86714566331257 
7.753873752606769 
2.7809127368493542 
2.9323466320762974 
3.380272692197862 
3.169249505371054 
17.104338356069757 
3.2502551259009698 
2.4877013050115893 
19.26436418295247 
3.129366939258874 
2.9624651188148743 
3.0808477321953234 
2.8287281833639226 
3.1368691847693593 
10.5975871667256 
17.59067013386739 
3.67145138727756 
3.0066752109586914 
3.4575258412601126 
2.8742775408896084 
4.219528262552103 
6.706829371821774 
3.6641622426088962 
15.771515870946729 
5.16846570539116 
9.456982555373772 
3.4957487767672357 
4.784635983836641 
2.333672328193111 
4.607393299794235 
6.257067386259588 
5.484795404221778 
3.73066470965417 
4.130359519307229 
3.413103930135955 
11.03559740039515 
8.220780386988306 
4.242743915511686 
4.993419384917723 
5.934549013554484 
6.14913107339079 
5.487781046596474 
10.855361116412519 
7.83422351868285 
7.310178412960366 
4.694247837220928 
5.854099299968674 
3.361927193152959 
4.272264650080665 
3.0440091985058544 
3.656245455384098 
5.853256865960711 
1.2572813841313404 
1.815019127343932 
3.0566699158925545 
5.506342706453553 
2.7809669213870962 
4.727759539241099 
6.138617843937551 
7.1132800323977206 
7.075205686841804 
6.039993983390577 
8.889955556668708 
7.626629589696774 
10.857677057318327 
2.689031610958248 
3.2979229133383003 
2.8856230454515863 
3.0794846296645164 
3.158462701013517 
3.161279786446026 
3.1541021907737026 
3.0825131235368137 
3.199008017041687 
4.288820548158843 
3.5911746916536735 
3.0146460361179357 
16.495773829920367 
13.688257276786967 
16.122748571078322 
14.917262990132446 
11.51064545937455 
11.89467076304999 
17.113367037601407 
22.79814037451115 
16.401617695299173 
12.987522529966247 
9.78750107090621 
9.059669229089453 
5.041807927907714 
2.1627659675002824 
3.3587536646594445 
3.373232333378172 
3.158048332590852 
3.4691458752909106 
4.152102078462867 
4.4764626715039695 
2.9373206730272288 
2.9569578135702286 
2.8494208982479896 
2.9542500578474074 
2.921639240171431 
2.9640781922431447 
3.0648633415201867 
4.5397757373960825 
9.618805234426441 
6.915068418502205 
4.662198776036113 
3.671428100401856 
8.239701768578962 
5.966562541070443 
3.0376370812510443 
3.031818773321417 
2.491263912423146 
2.737349520539144 
2.5038637812875835 
3.6933484864306307 
2.534967912248069 
3.186717311305054 
3.0797811388227547 
2.3386782279738383 
11.805876003089525 
12.281085317027761 
11.968942656949043 
8.676558005873655 
7.550551621227363 
7.984414250143198 
12.945489989582413 
3.5417231496028685 
3.5877168233241035 
4.027032380879947 
3.8637038890491864 
3.839905735949905 
3.0930258259643315 
3.0386449973511973 
13.691605720085578 
3.2076269653959364 
3.4336724984089217 
11.833410106787186 
3.222357299481043 
3.468744773307122 
3.1361518917507243 
8.057038050656576 
5.829311401924563 
5.788061204813099 
5.1576079783908035 
7.68882168694168 
9.699713498202902 
3.4122575712628147 
9.992506520305112 
9.632178844089323 
6.718305979781804 
4.675718183978047 
6.8256845505245725 
5.076698580605309 
8.462298788953426 
8.173229188901985 
11.343789855989288 
12.403526350933545 
12.176797155542596 
2.6255179375701387 
13.946860290927543 
15.955093719656471 
16.00310346189145 
11.829856673652012 
3.059077060575185 
2.7151673064439557 
2.610090445665023 
9.77479984372729 
2.9996952525074407 
2.6381532227308626 
3.2529993385385767 
4.813902424844005 
5.1687734432048495 
1.829721834535263 
4.8120742098212546 
4.305078665107824 
4.297931121063339 
2.011090686639291 
5.871105464247026 
5.114010912755426 
4.013734305514421 
2.8136763134678016 
3.3379057761486925 
5.17235331674029 
4.226350935675056 
4.190671125305137 
18.241145958649856 
12.76693979760814 
11.02767604441387 
13.758591957005113 
15.057469110548405 
15.04456263486014 
21.25364166632798 
11.284841760829961 
6.7035682599400355 
6.261452241158453 
10.113248722843595 
13.176969916114087 
5.700186830607453 
10.947558855786573 
10.788855686571253 
2.8919583215913645 
4.371009122178649 
5.841938969011642 
7.236089064899427 
3.8177648122663506 
3.408546056822787 
3.890311228045311 
3.6644763291784113 
1.9309700011680322 
5.628733944581843 
4.642504037192075 
5.759349716494856 
6.930925207076677 
9.725323384460827 
6.5105443905184375 
17.17300999662693 
13.457478073569341 
10.581188883238204 
11.734009638967889 
3.1274903790572113 
5.67821390825652 
3.412336848783816 
5.429369590342969 
3.3694942038711084 
4.366232585675776 
2.452771531544793 
2.7563296222478932 
3.4244610536473936 
4.067429982133196 
1.9397354159048628 
3.433474770753354 
16.212129835175823 
19.65622496988135 
2.835448907672375 
5.501056700663566 
4.767801788791867 
7.3622474712588994 
2.9700479296232505 
3.7590845561825255 
4.2689877744414355 
3.926253805721336 
16.67753712549845 
4.538158121797942 
3.619318732336829 
3.497336308023724 
2.0734130860343996 
1.8228736402818138 
2.9437049129230433 
2.9505807740559913 
3.3520284633241038 
4.409101194997759 
6.199438324785913 
5.0820230567386835 
4.2538863351015745 
5.311122982140143 
16.707988537649335 
8.294821615733703 
5.638382452198592 
7.797478066188108 
7.492606269233875 
7.557346067337935 
20.23479877899627 
2.784999231720783 
2.95684854215634 
3.1597659388972676 
6.601436485717852 
3.036078904286397 
2.6536973419484617 
12.323230673490999 
4.915002767214535 
2.564176031482256 
4.180622974911058 
3.5327537741338637 
3.753022695191733 
3.629466111270654 
6.002684135775805 
7.678200843255437 
2.4151286977942026 
7.240205382296691 
4.717583679896642 
3.0128030884003363 
4.528231049110507 
3.3310127121541493 
2.932343521515629 
2.5521882447764477 
4.03609705900168 
3.50618065085196 
3.166880269468973 
3.2961719648735004 
4.072980988727043 
3.42198678777935 
20.72019174904238 
3.4312823846666514 
19.000239378855255 
3.5989928436567395 
17.48604990337479 
10.591456671006457 
13.9598866374431 
15.687709601492529 
5.419200329391831 
9.952275680892845 
11.697056052894748 
14.050474650120421 
13.557215007133689 
8.143006865392357 
13.437048200769027 
15.334206190253719 
16.617963450455154 
10.348515565376765 
16.830737251494813 
15.890047419017128 
17.4162629231737 
27.701447464855175 
8.736460865283592 
17.07901658250842 
9.650277862645261 
10.994584963367192 
16.05619885655657 
3.0465611858849417 
3.6842580527045055 
3.8836076001912967 
3.682148334033321 
4.679903221667043 
4.688867281086866 
3.8161396315247593 
4.308492959579137 
5.44273328673039 
5.923107969406106 
5.982116039639296 
4.856472906029389 
4.647418879577406 
3.3423027556936877 
3.8515878200952973 
4.712332657467053 
6.3035578622110675 
3.8795891695951195 
20.362041236064996 
7.883400078522626 
7.914464705867731 
9.171497523361321 
6.566600371335894 
16.10503851162472 
3.8770929438227024 
6.61966788868987 
5.148834634837146 
15.17129674813186 
19.452342339330535 
15.528331966682515 
15.425628285003418 
22.385393884939422 
3.206272263985872 
3.236951609093086 
6.561248825549869 
4.8281814254632 
5.207770314967181 
6.078529296107398 
4.580300971812569 
5.920241815920797 
4.239637375932395 
8.806305881268408 
5.236175277908303 
4.470107354419988 
5.355128555315157 
3.291692051473023 
3.4520812802950496 
3.9836323148119424 
6.070529272887338 
7.419924229679748 
7.5246317339691124 
6.591129352136074 
16.67739263841344 
3.883444520610443 
8.555601212151226 
10.549149841521102 
13.631862420056997 
11.03500837700334 
7.00018108349518 
4.030286233098746 
3.347951146165178 
3.7006471455742815 
9.4222769589951 
12.65006741292762 
9.10094401026464 
5.609572679513917 
9.255044759893273 
9.685707035951447 
6.76749320694132 
8.447094818278623 
7.861509212658209 
5.211002814961186 
10.729744475481663 
11.357625117475642 
5.671926659906541 
2.7249600155673686 
2.8767288086788243 
21.119248377402375 
2.959946440103928 
3.0707620249509735 
2.935075894992764 
2.84583546601416 
3.125072173290267 
3.055772930855106 
3.7339127861266785 
3.956929748883914 
2.4122166510295417 
30.92117421141562 
3.020249082553786 
2.455415515407377 
2.671768090229159 
2.5461117484329234 
5.743489428219819 
3.6440292881170753 
5.710832363003602 
6.291150395780783 
11.926385126299243 
2.2008063165835328 
18.308686988154598 
15.001031674040421 
10.083786471776657 
12.834984591725187 
16.520764022947994 
7.543430364767254 
5.991877711601747 
6.440283357368194 
3.280625003613217 
4.4142025650680035 
6.400475853991099 
4.754291708279016 
6.543237321918189 
2.8179909610979617 
3.412395884826195 
3.49103574153476 
3.445423031588294 
2.680723308764197 
2.9425708697909827 
2.7417893168255887 
2.725009281008008 
5.998214803071229 
2.631466902036906 
2.76634667413237 
3.047024210482164 
3.088145436297718 
2.384033524047457 
7.647432197556405 
4.42829767766213 
2.375701637347743 
3.860081484307299 
2.9694849970615205 
3.2184992669848462 
3.6547195776787165 
2.8458669562713292 
7.889390979786189 
4.722865554616707 
3.8130214937144014 
3.6767962249468136 
3.4759033402786037 
3.968006955128423 
3.545808491521506 
4.35661260642779 
7.971108741227958 
5.6799463230454315 
5.503110622538035 
7.266419082886627 
5.952712406557329 
6.6991080986472875 
3.7073978791497715 
3.3834431321018044 
3.028193943560819 
3.218661754888887 
2.6174347584054916 
3.0420684635485773 
2.8096394468280463 
2.7617920118298507 
2.322139244764061 
2.085359706829109 
3.103350640994999 
2.8854043833546514 
2.990942457412611 
2.95036869395244 
2.857548981032697 
2.568975523287903 
6.019174343359255 
2.8680811033876767 
3.1387129629031207 
2.729825163949896 
5.736114850454269 
6.509496517327859 
6.475163537696462 
6.1507162741192625 
5.620689799731553 
5.714856305894753 
4.437044467749644 
4.250855015212503 
4.051737737027165 
4.277823105091215 
3.3980411639208823 
3.94234555135337 
2.8736787375679156 
2.98474481701767 
3.846751671068217 
3.2493880428368733 
2.6936917451740694 
3.76822922867031 
3.085611585191995 
4.348134201016876 
3.0708354779824103 
3.2101727287675894 
3.0985478504337074 
4.316327933372091 
4.681968767408874 
11.247033999732489 
11.614474635591833 
15.506291824676508 
11.658325307080432 
9.32802913973484 
14.228326764370928 
11.55223003950877 
5.97645697158141 
4.304465841195831 
4.669025300047799 
5.88295134360246 
3.169022099733847 
5.60625536981885 
7.122768550914956 
6.526956920961861 
11.693381805927075 
11.57092856468103 
16.63177428437046 
16.37898949960491 
13.990130667036935 
14.136658327836535 
9.006192397532434 
4.973604353918054 
3.0399550692151274 
7.884683424625026 
8.465631015985537 
5.701747147241336 
6.371725078234404 
6.1826735887121185 
6.85949162418936 
6.489616492753534 
7.105582715836405 
7.199779207433585 
6.191549760814471 
6.283722542575625 
5.6312576283642475 
5.785437495429987 
5.860331090927379 
7.602117388299216 
4.2417318191086615 
5.645631679127569 
2.750464588772687 
6.48622481792672 
9.901882008058713 
5.394976210792659 
3.2460219798769208 
3.558262804622946 
9.339645026957008 
2.577601257811747 
2.4669519981990864 
11.501681597601989 
8.365880167232712 
12.344547759961658 
7.768316950413616 
18.233800115554494 
11.948720241589399 
6.5852771249485125 
5.243363633041164 
6.20360618339565 
2.8202160563660237 
2.5320120751344546 
3.1181572010804905 
2.8054054617846313 
2.5272832279294484 
2.9707508842252377 
3.2003954607914613 
13.679780575806788 
6.846137791487543 
5.777605483419377 
6.486185598458464 
2.7606368392581775 
7.793804101919832 
2.559426255497335 
4.029144488359566 
4.09441840634744 
10.310818265947656 
5.9398075666676435 
16.69212896254462 
3.4922475644580153 
17.174999760897265 
7.666314318960031 
10.662915297191624 
4.571562543123022 
5.168211002778886 
4.725697999475357 
6.397841398574528 
4.5374175769511575 
5.1276774468117905 
4.556202625878537 
9.077190120237988 
5.052164796220306 
5.789814969226621 
4.792017635242375 
7.42683954848777 
15.193058390883802 
11.020510368886866 
10.656822666357902 
9.705473052417002 
12.99787157171236 
7.243187371225061 
18.139023404161794 
6.700490818327312 
19.811664357933317 
16.9578134509425 
8.090021491492644 
7.663602378320456 
6.264684024057731 
11.88666561015988 
9.251784044357459 
9.40830012092972 
5.9891165998956355 
5.270155934623505 
3.5218917449544023 
11.385077423506871 
9.790159595780775 
7.546229448274163 
4.481038740945807 
5.027356789731336 
4.854329274753072 
4.408970104504529 
3.868276744487193 
3.483159348639908 
5.419539325510742 
4.540757340363857 
4.908803691570025 
4.6968257926554005 
7.925338149304249 
7.711131317683154 
3.2681633027577743 
3.7640590013711366 
3.3391766553241737 
3.798675511171825 
4.111027586223787 
2.9824013151279614 
3.4098550172867825 
3.2536094000922766 
2.528536797780065 
3.7491212205475914 
2.660478183021338 
3.456550579680926 
2.194867354114329 
2.678424717719268 
3.261394404149599 
5.137478051120171 
4.225020407476308 
9.846993269701713 
6.088193205852577 
3.5780023676145665 
4.220364924489446 
4.099695566913456 
5.613088347107485 
4.880273216661727 
17.818165388033275 
21.255589121864553 
25.050788277979308 
24.918148076087014 
10.619409636543724 
9.124168550198263 
9.743319073234632 
11.355475798410602 
8.85886572210466 
12.22746369088221 
2.456707426554311 
13.19576371949191 
3.6227074818030616 
3.149365331214131 
2.85276069393481 
3.349692940640709 
4.815944141088748 
1.9076392223732561 
6.043035593931278 
6.302545359782745 
7.735264000812189 
6.596229038362564 
4.845141014073612 
5.5142213349849305 
7.278656847795129 
5.002605725245307 
4.953587625061931 
3.475590151304526 
3.433816565162658 
3.8314153266832296 
3.7355664123561625 
2.8321005087312394 
3.6520304044785337 
2.6316346336122107 
2.436176926698345 
3.173532710097513 
2.9092005100325204 
2.4805314557840177 
3.3336111628082046 
2.5177149567468757 
2.8862566741915385 
5.730568463782793 
6.680023129533938 
6.147540341383215 
7.8784708473691305 
2.9347105162151745 
6.493748203168387 
7.038150619885952 
4.374329114961167 
8.415728443734526 
12.410369137162768 
9.047590265634641 
7.592015917560851 
8.665045030626194 
5.290493065073842 
9.53937875944155 
5.18872432165741 
9.901681882022961 
10.949124125796237 
17.79857781441269 
13.43476935937863 
2.5932196820664624 
11.993588624064847 
10.435497301821163 
8.825969528077957 
5.341306550582405 
3.454133970125465 
4.7177626453293575 
1.9930953791949497 
3.01006625995507 
3.6837398050367676 
3.549892062653996 
2.9622294340872797 
2.7626028016829216 
2.5778613831629045 
2.9349135857576534 
2.9790025055207714 
3.981468899356247 
4.416972545825713 
4.596036429703713 
5.971693660110034 
5.821781198470535 
2.4914726572142594 
4.355614497950425 
2.4056536014037113 
11.867138708960967 
3.332019259455297 
4.78605712063205 
2.976429782602557 
2.460298867166136 
3.311814382459699 
5.186787502881666 
4.412254584167006 
2.8545946455691578 
4.004424612420654 
8.155523793456213 
4.357115470425644 
4.18486259626077 
4.766240879801292 
3.909432044955123 
4.417142990208411 
7.857308657962012 
8.003262896106339 
11.686426801740142 
10.346828406002667 
6.43171928314001 
4.6016002105244596 
4.945179519123577 
5.433616421564141 
5.1267574024193685 
5.433313494868675 
6.392035142127144 
3.7098461325956484 
3.3727922156261334 
3.0928189463000146 
3.018999120941791 
4.420599718242057 
3.222187982413305 
7.000603873918381 
3.168603101120764 
4.341189929651855 
4.176686962460187 
4.084128947551988 
4.215674219173362 
5.102760969456316 
5.0479738325221835 
4.58243110779713 
2.881549006310131 
8.184583831143986 
10.917098829589934 
6.55650843553167 
8.538761451496505 
8.795515257824917 
9.85325006916522 
8.115159421200149 
5.42171928361201 
4.787630235650287 
3.0608436410797255 
5.07564922041553 
4.405685346375646 
2.78660072213991 
3.5278502209152163 
2.691443090671188 
2.8141641789603593 
10.144000367221727 
2.86347385537826 
8.6003794670887 
2.827131045413046 
2.8182284283127896 
7.866278721820656 
8.803908417573648 
3.0550016024834727 
2.540685354079214 
3.3694899006950427 
2.9828389947351237 
2.952463209986101 
3.1057678929427905 
3.273917324008128 
4.647824041084337 
6.191667342180534 
4.041335923783071 
3.176007197035341 
3.394692894528826 
4.815179620812687 
5.996498361979996 
5.03167701482751 
5.084694803062757 
4.949730263511543 
3.1773827684435934 
3.7447631992207273 
2.722393520179396 
2.8008696794814094 
3.101162520366252 
4.580026248714583 
8.783313454047537 
5.448230872674922 
3.870266299969355 
7.161125787331382 
12.064326297030549 
17.030180523775456 
12.490560182621033 
15.720805209184082 
12.35436836341079 
9.079481907800524 
16.122856592775882 
5.077894213304551 
5.386140357181631 
4.824844303324786 
4.945969045603319 
2.9976795845709825 
2.7910905359242952 
3.992442213451626 
4.100431048769381 
3.864981873653231 
4.271425745946753 
3.5848356889874426 
3.7230172577307363 
4.16116323610236 
10.666296113141161 
13.638835599633277 
9.06616980996258 
15.73804315593038 
13.00591147870057 
5.034906874576217 
6.501002538563364 
8.463918181168387 
8.501061513712822 
6.753626668559775 
4.398143908609095 
1.984827862851058 
4.3935748035867315 
3.1351525908344215 
3.281734076906978 
4.759267412830402 
4.697775318220902 
15.490072234099815 
8.476050636313987 
8.079661172594246 
14.369368459434058 
17.04706704100916 
4.040501559730531 
7.4742133753396764 
4.756038582192736 
4.316351602212727 
3.548075976640774 
3.86696570697421 
5.056123254638205 
4.071944930281045 
4.071300555300736 
3.411600722848076 
3.817914247378166 
3.6978526647134595 
4.4571766085677895 
4.232132974565308 
4.344134544877553 
3.4688375888892353 
3.4652145657519218 
3.499251583642908 
2.926850074549399 
4.041684324457756 
5.253677856790567 
3.6110661260947614 
9.393812804732857 
8.832020832102353 
3.547285680848595 
5.236390910261007 
3.8560482975102297 
3.0212888332419094 
3.916052488674106 
3.0087873190432615 
16.775810270575228 
20.624620664730998 
5.792566092868539 
16.92964893928605 
22.419176842146484 
19.247115167866504 
18.23776888419147 
2.647561715301088 
2.674158111116326 
2.825453027822346 
5.370525652348676 
2.8228166176906586 
2.68619166790892 
5.9318648848945035 
5.1495654975995055 
3.0324267468186217 
4.556166261600581 
5.919821269043181 
5.034770372784691 
4.0884572855440995 
3.763864749036303 
3.8200876825066112 
3.7997690569057223 
2.7331242783049623 
2.8719406421965137 
4.095312083436639 
2.910569768502797 
3.368989857210154 
3.2467270449432406 
3.241554176098375 
8.88681582812893 
11.247432747273812 
7.5661433613098525 
7.100822115302104 
13.62879727515747 
13.794131289410135 
12.60262574238518 
6.298270939071511 
15.3173271581725 
14.883226238320324 
11.374686595101863 
14.012317398303953 
15.712790217423155 
21.103677979213366 
15.032093233727151 
4.6496548570600975 
9.781101976822281 
6.127465296166945 
6.1721458879005 
2.2208601998790622 
2.7389354552433844 
2.7080804598073622 
2.19060926264608 
2.854568050806965 
2.8789654619666347 
2.9743829514140723 
2.97556424488502 
3.1904575511620767 
2.887619698415831 
3.089178390331154 
5.026747629399773 
2.812793262635493 
3.059075166372266 
3.0417154136836655 
2.960347619147207 
2.927725512922541 
3.0192006010305295 
2.904578600376835 
8.833909932368666 
5.691551233444253 
5.387199385868269 
11.93568177279647 
4.994402978028738 
5.023691883437462 
8.28626375021638 
9.248797734996641 
3.675614226185122 
3.3242736855460606 
3.9448264733386056 
3.488735044069189 
3.878415806658909 
5.678529140480905 
4.879455146530322 
4.833787672463635 
8.336422001744424 
8.57546179905166 
7.431534121123588 
4.504991932489798 
7.694732679463292 
10.848502520818247 
8.517955719126956 
11.86431443099127 
7.972281995452593 
2.7813829824657232 
2.3926793839961307 
2.4426785119121646 
2.821418045337606 
6.611161326906853 
12.651283599852652 
2.974569409715967 
2.7088206323274764 
5.048489460583504 
6.238566243903691 
4.7740199663614735 
2.0647989235527815 
7.929146051338839 
7.161426692409508 
4.606094272026331 
2.9199622873071336 
8.466692419474594 
3.3865795520572397 
4.071735869375197 
5.867919285589955 
8.76328457134428 
4.89501236595318 
4.46563284901335 
3.1571741220172447 
2.5775962831796284 
3.441894310637124 
2.509029530456062 
3.015131148924095 
8.660078117039136 
6.783045022393111 
6.928776964600979 
8.545861562105037 
7.337361822479998 
5.036393227124893 
9.421207687894317 
5.530300783820014 
4.350309113955222 
6.876686768169989 
9.694009184984049 
6.368793866615514 
1.8105998895040547 
3.9704059781441394 
8.153493128905572 
6.52651199340036 
6.113610172243218 
1.5684905297804694 
10.4681714409636 
11.218511656744509 
6.339306933246529 
2.178497257916273 
6.3942713670174225 
5.849325817629725 
9.185699188366033 
6.012477618038655 
3.859285395531709 
2.0307777866879984 
3.052950778030499 
3.7118428959214875 
5.621507935653818 
5.189652081836946 
2.9756303759063516 
4.132056414991184 
8.112884824694515 
5.3713986515302325 
3.212660383619355 
4.33308638955992 
4.156274085268213 
8.093187591818955 
1.9684910201163495 
2.4280820313655593 
6.848885921308878 
3.148298331301442 
5.0888758108796255 
5.044509817518922 
7.074171540167334 
2.609703882404759 
2.2213475888840684 
5.229984240180105 
2.7390287546945893 
2.6935761846077466 
9.17528052079536 
2.2124646027018686 
5.586042058690328 
4.088889035380706 
4.526062983229004 
3.054572147679618 
6.688706193022277 
6.0993201196917015 
2.097059905470933 
6.834483990531827 
2.703007361351243 
2.7387476420921075 
7.095393486949872 
2.9988725564828886 
3.6314645800834007 
4.1616412028919 
5.405307476321362 
2.019064650938494 
7.9635952314922696 
5.28942543485104 
7.3301108397510095 
3.304223816556554 
7.593756641203477 
6.541823207075915 
7.049816486984742 
2.8560882213755416 
2.246635280178096 
7.406325335293181 
4.560191711579565 
5.497835434673393 
2.958874132034615 
7.54439833067045 
4.876285037004982 
2.6705095206652127 
2.70225211850509 
2.906367126914198 
8.423799238506339 
6.16239223497258 
6.254026863042389 
11.400946845664105 
8.606727171603083 
7.747874746859351 
8.216618806363382 
10.835519292036862 
8.584648099427538 
7.34497259751886 
6.925298912782743 
5.218502443335781 
3.6504831370540165 
3.8857253757990438 
4.199549188621139 
5.5405268273114805 
5.456911456875644 
3.749650180349397 
3.973905235829894 
12.8171006968025 
10.246531319012428 
7.791988779258872 
7.36728101131817 
10.228951342752751 
19.32840724952857 
9.458218747241752 
8.157533748977489 
10.189395411268734 
3.19497199993289 
4.96553738385692 
3.0814194104097825 
10.247522230634674 
9.07709494370008 
10.88983858742644 
3.093777604002151 
2.7731766301284937 
2.814518590492635 
3.229965837793999 
3.002943721784154 
4.053694117811058 
3.522472575019391 
2.045673596411413 
3.6482019960325403 
2.6070698321323054 
7.333945770894763 
9.96837002794566 
8.715419882542598 
5.816521666877114 
5.9960966095521835 
5.708211583616161 
14.197945234458125 
5.953367838912908 
6.060384653769956 
10.422925227478647 
5.238838105619411 
3.1953067645324387 
5.9823577157996075 
6.733633552828415 
9.554147181162815 
4.959119053373142 
3.6546320771472183 
3.938566993342831 
3.768651435069711 
5.952803507664677 
4.574280659429718 
9.25300682833592 
3.3545542528308014 
3.794201942253701 
1.9686284366834255 
3.2664029652529867 
4.087393309096134 
4.7317997208832026 
4.582221261396107 
4.71673553226503 
4.023570440770553 
3.0963949283412324 
5.195397906666155 
4.357177826825275 
8.728030634452452 
2.894192847790874 
3.164722239199966 
6.379472659252448 
3.3668098109875952 
9.473452602248669 
7.509547085199674 
8.564237115827588 
11.476658897152877 
10.805931548192 
7.566468643216529 
9.032599206265155 
12.284582635027686 
6.042615149031481 
3.513364594595383 
6.533964508941649 
7.236910114390624 
6.239628091561781 
4.919097505795944 
9.114067642602183 
3.7216162902364096 
8.203954389681511 
5.0271586496020175 
9.13360107057797 
6.7369136760395145 
6.132290947251627 
7.999019606209971 
2.8327725033484534 
2.8086126532685953 
3.1189363764972513 
3.1209657335583283 
3.5791839177342335 
3.2711725737145345 
2.899283333278524 
2.811029204568639 
3.140007532796134 
3.116829479533335 
3.6708944402054797 
2.9234202434330734 
4.122254787566811 
8.503240413974016 
10.008312787708611 
10.007248990049796 
6.791792381978793 
5.203317752195444 
10.590454849811367 
7.564927216067597 
2.9874525694582683 
13.136358019496626 
4.977469191260017 
14.700895602516256 
7.31600612972792 
5.9418457287247035 
4.783497784052835 
4.059016442573141 
3.5245946392484964 
4.194516261442997 
1.7910188139845156 
5.928041574810071 
4.383457652832126 
5.21703075745515 
5.437931042851126 
5.135495722054834 
3.981819402478381 
26.686916406091665 
2.788456129330979 
6.35659233026411 
9.546766207926291 
7.109101275603998 
6.314996705578592 
4.941902002087473 
7.660621879362298 
6.254574164882948 
8.805694437326279 
3.9010288426706063 
4.084986460833061 
2.698180795747805 
4.649347668405965 
4.651311255119106 
3.6362212414531028 
4.085980875790643 
19.226238227620044 
18.474023892791923 
19.856042136855304 
21.13073425962147 
4.5674464769857535 
3.799345411506041 
5.028419287466143 
3.428073890333098 
4.8811068284441 
5.012361013756071 
5.634370300742463 
2.9173190403370866 
5.14060749354461 
3.268683979232127 
3.8216825210168968 
4.16111938055174 
3.386260615687659 
3.508309688457265 
3.4184960677254286 
10.451084988447478 
8.13312813960925 
4.349653160808543 
2.419656535008523 
3.2208896143538155 
2.8051644669484936 
2.3855038192735014 
3.996752724425307 
3.241075404365722 
3.3929664456811004 
3.135335346249355 
7.417320450121277 
7.3624094152559225 
7.343993973323851 
7.3602386681682646 
7.554275686049354 
11.398574932181239 
11.998008424917247 
8.012320566608569 
8.080841555967382 
9.198425916576584 
10.981619727840538 
9.862276401347547 
9.150131821314956 
11.63571844845531 
7.926863968478252 
8.49107900149281 
7.936204310682732 
8.52462242408578 
8.343898792886973 
4.902168747328838 
22.362944335915405 
3.2807291676845987 
5.825120932768341 
4.6147326399506925 
21.498786593485985 
3.2034263936938547 
6.815482024551823 
10.752153409233674 
8.686606815686853 
7.633530768402062 
8.532301159741293 
22.22063456738019 
7.523984610330588 
11.345613461046993 
8.035229823538794 
9.292536108555451 
12.47620071370677 
19.675888533255815 
17.098105193957974 
22.66795188193469 
8.71500202885981 
14.555526768240052 
3.1614514873859196 
5.573465827504659 
4.827129682449785 
4.247184087716154 
5.8862008655502684 
3.8399428663577644 
3.025139587485422 
2.899546029230516 
10.443055074452609 
3.01266215207838 
17.127072851250567 
6.4347394677626975 
7.120816073835832 
4.3984604502680735 
4.860777552305833 
4.409695351474629 
6.616676103265765 
5.414896531185028 
6.942146506700443 
6.816631641768153 
6.934451123827302 
6.715875734051071 
8.427099677570611 
8.52592901866225 
14.681851549718278 
4.760202597437144 
3.6330312141721026 
3.9323925928332693 
7.422551124544538 
5.62904224080256 
4.430019289910044 
3.6378455531610903 
3.3669814364149317 
10.57285641040369 
16.85645430857739 
11.885452527769845 
8.032997169963082 
4.168035063244218 
4.954731036225771 
3.7686795038448433 
6.858678267621689 
6.84993657451279 
5.316106166103123 
3.057221973768024 
6.127643666963779 
5.940318427311698 
5.715522437343838 
5.674423059833681 
18.5207743028044 
15.95715942793737 
17.51740458850721 
13.919103192307414 
17.067674802669426 
15.756642520197081 
4.755671557147096 
13.864803513173843 
12.321255544632187 
11.659722944177128 
10.099247773950843 
27.677988858731734 
14.81637130894267 
9.89798819590873 
5.0940442437164855 
5.540289427285569 
9.525317727052713 
14.530062619536555 
8.286643425266632 
4.373672158080455 
5.385634546281156 
4.624512142918456 
4.102236551873164 
2.233036433068144 
6.962986651371626 
3.929574220399846 
4.9211925620299555 
3.774931868768864 
9.186786758676671 
7.064825018310691 
3.737647463453528 
5.76004840940063 
3.617585293714333 
6.503030714098857 
3.0167302845869712 
2.5042866636783203 
2.9684569135069374 
21.13576813648532 
8.877095770042997 
2.5466865518239263 
2.8135159457246535 
2.86734030101733 
2.6737494346204307 
2.4330983308274403 
2.959339269053342 
4.024417935680568 
3.722192492088705 
3.109453293966386 
2.9889789886564007 
2.669851103102648 
3.5066303567703305 
3.17461497567354 
2.7247870808422645 
2.8502471767819935 
2.898774901830702 
2.853856302513255 
2.3303258466763324 
2.723342199651194 
2.668190143230526 
2.4872415424163057 
2.7891955025213853 
10.095654271460127 
4.806612095238671 
7.217865234889321 
16.285599372649155 
10.17771190157594 
8.773212039804292 
7.821770662345426 
5.713587495167758 
10.334395681906347 
11.83973973481059 
3.1231879467574504 
3.729465487568672 
6.679609717909734 
6.684263353312428 
18.01691055445171 
5.250337116724 
4.075689989639249 
17.20702549555042 
18.358887410095573 
11.700381541442702 
11.037647961920452 
6.362601426898535 
7.861309272401307 
13.020743659255269 
7.988608225916318 
7.754298850446922 
6.144416004861803 
7.197481847269846 
5.943198443448559 
7.62776942549021 
8.825637820070991 
19.161824350329088 
19.309161831600857 
14.665508979654527 
15.32778516967445 
3.2198315429461046 
2.2698129345307554 
4.104360321738854 
1.9849778189569904 
5.626587423270098 
2.6512417861314543 
3.1519068519347933 
3.1270971635421505 
2.527471133492254 
2.6906457049570185 
3.25867054932789 
3.957823459794416 
4.403924952288435 
5.778797728255174 
5.0765593773244975 
6.086073096336231 
9.977642329151001 
16.34138081623478 
8.973896341262911 
9.235092446877445 
7.487244787742257 
16.384922866168587 
6.78882733208896 
3.091986240919125 
3.2152758392743537 
4.634891665946012 
6.288129672809505 
5.263250706580634 
4.032160564454268 
2.779669249857344 
2.9703029863430355 
2.644262821041428 
3.032357327543378 
2.888775202701631 
2.832195336681679 
2.8825596675295064 
2.8105039825649647 
3.3479749982837212 
10.770842285112021 
3.328074037151442 
3.0535278966751935 
5.163410738680955 
5.0613153994798 
2.704202963820404 
3.6283268724011686 
3.5859691091016743 
3.6684952078438204 
2.6745455036279515 
4.393536890984417 
9.373680698721008 
8.759391983856386 
9.340178683019642 
11.850463407727892 
2.7677966300565724 
3.033335154509364 
3.135154998105006 
2.7297886142484247 
2.637811129114233 
2.4336246922526708 
2.3468835386332323 
2.305928808557686 
2.6877642061307627 
2.3322110192141583 
2.6133247137028603 
2.660797926848613 
2.72939608361264 
17.474829025758137 
16.478207744308477 
11.369906783543442 
18.867171180736136 
19.919458764312377 
14.481446070926749 
7.671504168123844 
7.763354555424436 
7.482961066440445 
7.118442109242101 
8.17161702484761 
8.45035169988401 
7.369288093526875 
4.48785198175184 
6.575895061492887 
4.2536872754539425 
7.886453431258499 
2.728326552512938 
2.922135342485381 
2.7915220210539893 
2.7332540902030926 
3.4675144487583216 
2.8869479959570783 
2.7551695109531895 
2.629590423502793 
3.0828971303596804 
14.226279976836715 
10.280433314755225 
11.418174938629935 
4.31187666658822 
12.21250710165711 
6.1816524046156465 
10.04711192321061 
8.487729288125923 
14.28969910470103 
4.167184706125137 
5.630415980520251 
4.6541306993306835 
2.5244350082866536 
3.7927627205469383 
2.7583063124654865 
4.831690168547639 
7.632460510507616 
4.8554292686973985 
6.897744044088751 
5.004252658220545 
5.105157445513996 
4.212333146701156 
18.00019167537722 
3.045341124997379 
11.912211695206185 
3.2066708982027645 
2.7824623307430674 
2.6460058175282066 
2.616656035674998 
2.8176078621917493 
6.607484694642421 
6.917526593147721 
6.864382357692137 
8.964372077522729 
4.028505707714264 
4.0040678981902795 
5.298239395470843 
6.485385713268551 
6.7271392843846325 
3.866352080432382 
2.590547480428261 
2.7570668769014657 
3.3255144578428437 
3.5019890274584147 
1.8060099717126061 
3.138077794566705 
6.807707600642967 
5.188386655371535 
6.8043967336870566 
5.345715381440486 
5.721036112257735 
9.274953678367764 
5.006262790422367 
9.052805499408576 
8.8137156973581 
10.176718781477 
7.661231079006873 
10.63392131446636 
8.637537934909169 
8.28927149602819 
8.67611089664721 
3.8394678577561323 
2.838713897698172 
8.011179708569072 
7.855815522068951 
7.116442118553271 
5.957103773788819 
4.952430501702963 
7.654338180984245 
6.444467297790682 
2.5851288534508323 
2.8688050234397804 
3.001963530548764 
2.8310295913043095 
4.5070929886796005 
2.937861743843661 
4.424580764836979 
1.9031377972876282 
12.572502338094017 
5.42280826823962 
6.3349897507719986 
7.079572983917734 
5.318555149601402 
5.947152293505911 
7.56514285694729 
2.3163077122409605 
17.04372950113927 
11.2226715638234 
10.771155518961612 
13.173053115349234 
11.375218661640844 
7.349816198931088 
3.055141183117873 
2.82165262183228 
2.987179863213158 
5.670086738850109 
5.085783352035244 
3.3117643145931317 
5.286630706086485 
5.734550017544974 
3.816338309689686 
4.176631275590954 
5.291511557984952 
3.6484886418114875 
3.4794466822972514 
4.76618166022841 
14.034786062934327 
5.0129466284444675 
4.901755226124034 
2.5346906943654313 
2.9911058283439327 
2.7762496848253946 
2.482568676498286 
2.570902513737684 
3.084352802097068 
2.9534282487348853 
2.6299258502897267 
7.568772222607093 
4.65367878498967 
8.330102760874285 
4.3451754689205435 
1.5385538726746735 
8.773718607293647 
6.119309111988128 
5.738399280665207 
2.125469494127251 
3.9319320861956393 
3.2679005857213954 
2.483522685007245 
3.0868005163797805 
3.37278672397099 
3.522202946517369 
5.475108172889978 
11.810722509883457 
5.176955699674048 
6.764635343691475 
4.931860147410716 
7.1698095322781485 
5.2717914847205405 
6.157215347852678 
12.968467501139605 
4.259845223725772 
6.625582987438763 
4.12474074810186 
4.413730392285735 
10.463385504473372 
12.913031178221656 
5.587027117611789 
7.343004621472883 
2.729576805994286 
9.264301612921791 
5.241934414863144 
7.9670916015417985 
6.855043846083846 
8.509051826328578 
5.445585861221888 
4.725307190651115 
2.1440902789098537 
3.751719037976564 
3.842933278578021 
5.595946608161382 
7.451320242772981 
4.79407838702853 
5.044795316953575 
8.480252520596276 
10.9278671656307 
8.64363318569827 
7.289435871568156 
9.35105927901201 
10.304301319732053 
3.586853410215569 
9.964918696668967 
13.869078860711737 
11.0569897792908 
12.891113151844474 
4.086770088246191 
4.780034178196572 
4.365054240138223 
4.215700242360488 
3.2372977301121546 
6.235868175210377 
4.043507701615617 
12.098831854721658 
9.3633742346979 
23.281413636791857 
6.959423213103985 
8.946766368570643 
7.7522161913001435 
9.67365488006795 
14.34904224209452 
15.746822403726275 
12.62520597069201 
11.8242485495339 
14.022690967876358 
9.454732293857596 
7.688168751893088 
6.880302319641801 
5.215011511398837 
10.532013771240784 
8.471128418998983 
7.192018483639915 
6.75918729691383 
8.594033144411691 
7.194647432880584 
13.491627159327622 
6.764769471481978 
8.894976774308008 
13.518926973685621 
11.92781659532374 
3.6230089681316002 
5.10853684082807 
6.335663517200588 
4.752375333570009 
4.428565585003699 
9.205447684213349 
8.22898655520615 
9.372574094840145 
10.044735281725025 
8.875969229539509 
8.610596721434584 
7.867392355696435 
16.75919020186196 
13.587030072198111 
7.877906353717547 
7.8087143859797346 
7.105554394516762 
2.8119320873889313 
5.4440529328588525 
16.350846542831036 
19.201720774959075 
13.424924934243473 
13.242119334471283 
3.0869902192738254 
4.308197048899876 
4.276757944765379 
4.530675285779263 
7.617282181812224 
5.5269996970542286 
2.5123288120330316 
1.7941041502000425 
5.413103658595698 
3.3215588428034453 
6.218422264686088 
4.870932654983951 
4.664743328346115 
2.9482585947219198 
4.492136219828685 
2.826990732798754 
5.073855157765313 
6.642012419062085 
6.452995600311985 
14.615670064579271 
16.214064631523005 
15.88321751863029 
17.17382228224748 
18.34440703906262 
20.360110255626356 
20.77864797707704 
3.8428922871360993 
4.592059013582803 
4.089231905220872 
3.5261680011674414 
3.3157416792894057 
3.8884579961147705 
11.531599801513444 
3.0584311397890933 
3.716441887162915 
3.0779756444962025 
3.1014558046371454 
3.2234877787938823 
4.420925556926027 
4.954405471034155 
2.810322031323902 
4.469896771211022 
3.166966633515947 
2.259921458793849 
4.746801896462073 
7.445629318262042 
3.7784000951068046 
3.0553437193480946 
7.5662615793883345 
3.841166258824369 
6.87972710137576 
4.455768843469821 
3.269025681207354 
6.385014038800846 
10.23071950748245 
7.0556679563336635 
8.459414146226733 
14.163534637079474 
3.573335498964721 
7.209991296881808 
2.8977882182802457 
3.183594481174384 
2.907255870843329 
3.0464837636104374 
2.5384737722475688 
3.00541592877431 
2.8642315783046324 
5.132103905396122 
8.66607516570509 
9.840379573414111 
10.080587455897469 
13.335885700810651 
12.66787694395174 
6.16847264798216 
9.673551647445196 
9.195437856056026 
3.692226524804489 
6.968870827759743 
3.850080303992958 
2.99151977844551 
3.2318371222211777 
3.3726623944180503 
3.379087877470098 
6.298405880927621 
8.006641690835846 
5.4227532104358795 
7.847211923608733 
8.614175895646078 
5.379682424497244 
7.608819744504598 
9.211461087108182 
7.780295770621919 
5.528679402921177 
11.799667288534026 
3.73629923915424 
3.7130002831019526 
13.323197976178754 
3.991032440778329 
3.991476931578968 
2.780610101272162 
5.40989494681454 
3.087247011393912 
3.4057749196162805 
3.813231322778635 
2.361926437349318 
4.019541948527344 
11.46334939547766 
5.77224556976734 
13.843550007536443 
14.41158319137583 
3.8239409952123555 
11.840810375109427 
13.888012099864016 
2.915063370031778 
2.715911392086277 
4.004821891735622 
16.485382917128174 
4.271591919515979 
2.710265260781806 
5.022569931064448 
3.7303845810263616 
2.6050595296397865 
4.741495690778324 
6.221433806001801 
2.944056287350739 
5.8938752219832065 
6.5552439917201175 
3.63923533087994 
3.770743261368515 
3.846442597502245 
5.036025353341708 
4.651514425479929 
2.057090756199006 
7.471089486525141 
6.4346963597384725 
4.998985751387374 
12.913309162896025 
12.36624286739493 
11.741843421637467 
9.026402215562271 
11.638559069670558 
18.1442712945622 
19.116571438208638 
4.39027177378332 
3.7523739273660324 
30.335465253963516 
2.85926249819189 
2.578779369572268 
2.7209862575999946 
3.4865198288403976 
3.5199272798970997 
3.731942985350117 
5.959061256905806 
4.449044157216587 
6.3515690993551965 
7.796977921983425 
8.667231965210675 
4.708628661051434 
4.889080458778178 
6.105118491034544 
8.427804770369601 
10.484446422200227 
7.162406634835016 
6.253329114605062 
5.39492099484951 
5.475189870693266 
8.603773694801694 
3.280987886146613 
11.517041305000026 
4.936283475473026 
4.901170182684324 
7.079994424968683 
7.9250222236917205 
5.44866528124777 
6.111928088708115 
13.382346839438286 
6.377725875293859 
10.495715167833955 
20.157854909873425 
9.966853096263081 
10.750053093578744 
11.613975479443898 
10.024753974512011 
9.80767835594643 
6.3482982996275465 
4.317911610348728 
3.2868378039776522 
3.204126205647893 
3.6149563692169036 
3.9157595147437427 
3.517126422335849 
6.4535945512244846 
4.282187306799861 
4.9618499617851395 
5.680872321704192 
14.386064051366395 
6.250980695849676 
6.831578205996513 
6.0154854236787365 
5.493257374019194 
5.3643859327488155 
3.05384896828852 
2.9056996047612165 
3.0972770604812703 
2.5613286898715697 
2.4472370505626317 
2.9554484633926115 
2.8204362520460062 
2.5541206232267855 
3.1307367205115635 
3.168120283052736 
1.5617637872621752 
2.5564606467592537 
3.035383771594912 
4.901927238983408 
2.1456119340422357 
4.129453149096831 
24.06177011029604 
2.480580261242898 
4.857562162844369 
2.555588848737595 
9.867585747384355 
2.798350512495078 
2.877061106867021 
2.823612961447841 
2.616540740300901 
2.636987017855919 
3.1674780637599005 
2.2926926406783603 
7.081038505083561 
2.780694992684255 
9.404144163146734 
5.625523276974803 
7.543273602793551 
5.063070207155431 
4.979929835678078 
6.5983213780306285 
6.597093638484092 
4.083001916849331 
4.652879157982174 
19.02671219492251 
9.315298507489937 
3.3773182456934507 
9.005957551406539 
8.419951114425407 
2.7473830083417665 
8.198252212342917 
9.873680027470192 
9.703443288112544 
2.5088023957937464 
2.2949863616965196 
2.9312447797347527 
7.356567888835087 
2.5322539765045557 
2.722720839755919 
2.4394739610712577 
2.4168060302426997 
24.824330257595236 
4.618909704499899 
5.9673618735105505 
7.708835358968069 
2.6601197644206906 
4.710041431171634 
7.53881423839571 
10.872327564086502 
7.9576878254045 
9.51787307510073 
14.616666936345839 
6.334302919250309 
5.259293158079953 
5.310896420602579 
6.881451944735123 
5.527274751021452 
6.8250475495229725 
10.608924885464885 
6.5995834258732415 
2.9391394467842855 
2.8179488056837045 
10.717928624200878 
9.135159194824872 
8.298034843603519 
3.668301767274508 
3.846864028871606 
3.9923937424156963 
3.80169613667735 
3.413798525993952 
3.15015411193325 
3.2537116611717316 
3.0812153810383083 
3.1901159517107187 
3.1141893070293443 
2.7302175201113883 
3.1905575479121766 
2.7531789862208846 
2.4097448867399236 
12.776905758613495 
3.182070762338151 
2.875540557977237 
2.84087125465702 
3.8786912107787126 
3.706958594507438 
2.62730467292531 
3.328755347077723 
3.007641780400122 
2.9884256492245984 
31.72110070120938 
3.1413620882514333 
3.0216263346624728 
3.304534697636382 
6.068274570348757 
8.892059504563278 
9.05768181372157 
5.373583836176938 
4.376847422749367 
2.6992346494396173 
2.8724566418742787 
2.8091433482460197 
2.7620354928188293 
3.113234446724667 
3.0285215953070725 
3.11718419740256 
2.639310812483496 
6.283974013127105 
6.8094686513727005 
9.105813839587185 
8.269361527971194 
7.116263806036745 
4.964124336747534 
2.7685218195995316 
2.0981165618748445 
2.749178753256542 
1.97569940787561 
2.2266451452927893 
2.1882939546231523 
5.265303939179923 
4.394522013578174 
3.2750287922224968 
3.521914471061013 
2.6033171698778923 
2.1902606461550067 
3.8146378708959414 
3.362252439226081 
2.362001796764772 
4.682707013145864 
17.65178668039236 
5.543049604763925 
6.246306003932757 
6.645052697155254 
7.066135191683167 
7.815871031717399 
7.405430583264675 
2.70624903816579 
6.108736304073066 
4.03272122418785 
16.69589951584374 
6.946959008686941 
2.7822040397458667 
2.7997853498055667 
18.04050700490561 
3.314974179234254 
3.5099234144261056 
3.272615209174729 
3.2600673028234417 
3.2446891846516355 
3.5779153100302445 
24.857541606677522 
3.0800964955232564 
17.603938497443547 
13.669288636428174 
5.298095890007712 
5.362219005962225 
8.711479518505751 
7.423655683836588 
5.29553296368092 
9.843231774349531 
9.876947984254974 
9.965784525410104 
9.565503362333137 
2.5936487209721797 
4.9747641556648095 
1.8511786345628607 
1.8070190557463155 
7.709460603937343 
2.8752665556950965 
2.8794299046510754 
3.0861008217663213 
3.1892762043459286 
2.6640658755781788 
3.1479985686314915 
2.6521158560171174 
3.170592575711708 
4.606158828320046 
4.165880545815624 
4.2715092395862815 
3.7124035583233623 
2.640114595430545 
3.982355538634026 
11.83701808051001 
8.775487068298848 
7.739881513658206 
3.4838251355811543 
10.854248631213684 
13.486341189284678 
21.155870026356773 
11.940740110522022 
13.360729125340825 
15.575425249191674 
11.412528716946875 
3.460320322470466 
2.622709916968616 
1.93727879662188 
1.8480150225843313 
1.9491746066592441 
2.279887396447172 
3.394629159345591 
3.1262469826897226 
2.8650334437247134 
2.639423637244322 
5.540249563057121 
17.248976636062377 
16.65585599312431 
19.374555315757597 
21.74682616962701 
2.9914661485884992 
2.8488176512504833 
24.41977643738576 
4.3193046570077245 
3.2586654738982386 
3.172788807233447 
3.536268345131806 
8.045160365699108 
2.6069008169482317 
19.420242970327052 
1.7483053080309254 
4.6485248328627575 
2.313990180070679 
2.7667471463172917 
4.697486135062466 
3.1743333678854295 
2.9452503557006304 
3.3036993785863986 
5.76986724992427 
2.763095891448785 
5.739509451645345 
2.7744899287836153 
3.1982350084755913 
2.987102305684322 
2.9193539338722445 
5.34304760132395 
7.382845154328399 
29.74499783741388 
9.929061248482308 
4.818180987847655 
7.266748023939416 
5.712907367314458 
6.481224447029723 
6.365658164908675 
10.024914896447111 
21.35428255356171 
4.247175987434659 
3.4203857972918703 
7.975220651200129 
2.7955135233802175 
14.254798853212549 
12.395075939987459 
5.904429651635037 
20.854879432436714 
21.835008104031946 
9.28157892685549 
5.744311165107672 
18.71016110828795 
14.927009833801016 
13.839506206315008 
3.3661307512172423 
5.559245874770427 
3.2804300260904533 
1.6024728897236213 
10.388078843080653 
8.505081268262614 
4.8594454644949385 
8.51746811148427 
9.439573218819024 
2.644374556387975 
2.4203697914818103 
2.583968806952829 
3.127193756606257 
2.1563235574781405 
3.1401610150598263 
22.208822495744595 
3.2137612418846344 
4.038825717622695 
2.5261487204229063 
7.078809815697981 
3.407512825820741 
4.851203797282405 
4.861243707976613 
1.7858602871319622 
3.864312114555051 
4.041519839919046 
4.937782341446698 
6.712066179267469 
24.024668059297603 
2.9262769458013853 
3.693120215747068 
3.0733459795074984 
3.9925196247878976 
2.7092205583884197 
3.3133831796452737 
3.0092068640759746 
12.73005337080032 
9.315311864835856 
8.916176137506795 
3.897161289052302 
7.516003927553904 
5.900765076886561 
6.831696529355155 
6.982194918895115 
11.915681141915938 
9.122690217908081 
9.352283171786604 
2.7918352589009876 
7.874985185006945 
7.409681132168268 
9.624506241361738 
12.218240923680638 
3.2236815142403046 
2.9507405332321337 
8.579939048070443 
4.813085219457807 
4.806288392524873 
9.5435509715016 
7.147176132458085 
2.103648946510407 
3.980235960335925 
3.8929070423194023 
3.0698004425183143 
4.48715478823089 
6.768589101012829 
21.77822163305005 
11.830261943940837 
11.713185395862192 
14.24769751336558 
31.04214033755437 
10.357243615974754 
8.279911071255519 
29.540364655241113 
6.42853169246868 
15.83127081381998 
21.63048872280797 
13.148470544733353 
13.977427398052834 
23.763076214532674 
19.669586910455696 
12.650006603441005 
1.659862384300694 
2.460157329254793 
20.073513358596763 
2.9465692141439215 
7.7927297559940385 
6.888306055222159 
4.702127874319224 
24.07495058495667 
4.641565434572742 
4.543547871970728 
29.786168226461594 
30.345289835239633 
2.9910369237093533 
5.059875365489846 
3.3836219357042387 
3.610596320904736 
5.884511876563023 
3.706625701464016 
4.77236394676611 
3.395347661184279 
3.4035776142776872 
7.133497121484253 
31.465777021987606 
3.8915513753436857 
5.272735726158533 
7.05914527749592 
4.0810689223470415 
3.133885851670185 
2.693472333008313 
3.5464690112119377 
1.1302290779743716 
2.184341719401681 
4.922414864350931 
4.123921555998143 
3.7827981268953343 
2.927964502249812 
3.353349487628545 
3.2003047006569876 
2.4550643940212513 
3.1484275350442275 
2.9743068010868345 
3.66842170540416 
3.257257509460291 
2.778695164847694 
5.213035508192708 
2.7002336386351096 
3.1068592171602267 
3.217650744435057 
3.204331891565825 
3.544661436602359 
9.290068602082188 
10.782689814833752 
11.525714704238824 
31.464211873474976 
4.142975045065544 
4.38256653365923 
6.6331235850731955 
3.118934423827583 
3.4044403400434446 
3.8821148842068083 
2.8964870874652955 
3.431745648367299 
16.769937236353336 
9.264671315750496 
5.191950459221405 
12.10294959864278 
9.763300300983806 
11.329802687741497 
12.5286749800004 
10.795121506077843 
12.948794734301917 
5.049002041658457 
8.893719890925984 
17.854703605015942 
21.30538852949607 
6.574252394522995 
11.377785101095476 
7.3303900913257625 
6.2278988035895955 
2.943970947556237 
9.264572828097318 
16.493897730450243 
4.909982215714231 
2.666792967938834 
15.230423280852822 
9.591873929567276 
24.667476365492146 
10.06454995576033 
4.038228516765396 
6.6918631682647565 
21.167597812567823 
5.510472422215155 
3.3287396736022132 
16.118712136134892 
4.680116921393636 
11.399360023247183 
8.214152529289947 
10.646569025907509 
2.8208496648738355 
5.677286734818759 
13.508850904670725 
7.924876547066112 
2.7382862720905505 
4.831889996964091 
20.99247347417703 
24.94803376964488 
2.208727047376177 
21.118695343338096 
12.16692304991361 
2.442913803045459 
9.461683511096641 
10.196764018080334 
20.794764917699492 
12.361930419567791 
12.959043454903505 
9.305291903381494 
8.979396724584802 
15.700296971633295 
3.4328862468212358 
5.021188764747343 
20.198447264309053 
8.23327467198173 
20.595451257755947 
8.836847802381145 
6.354867721960018 
16.36588158747649 
23.5796641851153 
5.606310630077231 
13.313405078184601 
8.97836685443013 
10.422397335172777 
5.049970244555897 
5.937860877744654 
2.755362457956452 
22.82915092172548 
5.302538144158561 
6.07206359337557 
5.214461324564744 
3.2514384702833055 
7.747937911284756 
10.907863823757562 
3.0310542798792346 
3.3834432166995057 
4.73255934801373 
4.266459914266253 
3.9129966903255995 
6.973879655672563 
31.244499824724876 
12.022067270473139 
10.190273081702045 
20.62158732296605 
3.411887956830608 
3.506236512537164 
10.068008788161348 
4.604802254282406 
5.210185333794617 
4.063140748492619 
5.6559898564451325 
4.215113208152594 
6.478373025987237 
3.611193493935825 
1.9463427006251266 
6.236573952229285 
3.265544245055876 
3.5674313454230124 
6.714254568156332 
4.901459085497223 
1.9386460579892044 
2.4300428986655254 
3.3414386205015703 
4.550071188753617 
3.7332267242445547 
3.9867707010291817 
5.289031140898433 
7.936157364799489 
5.749341487517767 
7.894561165221166 
3.1926484906849226 
4.167166869308311 
4.487781530579879 
14.36209591683925 
8.976217528603996 
2.888846916917179 
16.8977054246521 
4.061712152476413 
4.558694483161104 
4.433917606748647 
5.475010153108863 
7.311498883678502 
9.580451254148558 
6.182523139467397 
5.5573397198286445 
8.806158406531111 
3.9230321137784965 
7.988188517531881 
8.395558002112507 
8.688268163126274 
8.040662789810694 
6.543867550746371 
11.075279620999787 
6.131364586190197 
8.765364253923485 
2.967162526743698 
4.093979732789553 
15.333298364347453 
7.298693183391732 
25.679987399991763 
5.575131531392193 
15.83213831313415 
8.643803506364161 
13.295957810869895 
15.929151917581448 
15.755744448243577 
14.272887523450706 
19.955189932072926 
6.095068889187466 
14.312399102230906 
16.174034004181912 
1.6998295739596825 
5.849230192639537 
5.067124980853053 
3.2288065170641134 
3.7372394419886747 
7.056612296937189 
4.15450546354807 
4.492858323828439 
13.588566008579846 
5.839483101405713 
9.503556319156726 
18.594197185023393 
3.2281063220662967 
13.350254326267274 
4.6419214311865655 
5.615464822751785 
3.497930771870568 
4.341124160706934 
20.29720350526952 
6.347938164491004 
5.544676730342079 
2.7357979197327666 
2.4583537111923937 
3.5100371388622666 
23.860551960604344 
6.187214617426738 
2.33578791396776 
3.387955486973321 
22.214282940762086 
21.259663985701494 
31.076273601037503 
4.659915332337455 
9.108810629870835 
7.249976180470781 
4.167074956447541 
3.3937678604348007 
2.4346483247196824 
8.490601348643475 
3.5645607190513857 
4.353391997612739 
8.567711549460771 
3.9080899587545876 
7.969284886601957 
8.325434544298972 
23.350542525027258 
9.366075414453407 
12.76430859846934 
11.194327807068852 
13.14980713418687 
4.113842902135017 
8.796240960161384 
2.572493695766383 
4.42720006423654 
7.706679660532758 
10.44868352301107 
1.84805884385025 
2.1337831041820854 
2.912461134929376 
9.316024182382552 
5.82839458018249 
4.496207115385581 
2.1296407519058262 
4.423704331245964 
8.426758288422652 
12.039618347224163 
9.427171897965627 
9.348307142404948 
2.6041504731335956 
6.250747669468795 
2.122607318295878 
4.173398306408667 
3.449909879112099 
4.534192372472377 
3.808803930788537 
4.109948063072143 
3.3125653775902295 
4.525367930116639 
2.175580050888732 
3.5381320496776114 
4.088155681834162 
2.7833083525771984 
3.1436235656799654 
3.09253811473539 
3.2532579017091723 
6.82312085083587 
2.658066434506928 
3.58143181687726 
5.685280982602628 
6.234612127568618 
6.512935550879725 
7.849461204189248 
3.5659666874412355 
6.987322681079233 
3.773424574942573 
8.951430124206778 
4.4640694484901955 
6.301359646361327 
8.607772790209404 
10.147775266474081 
8.976919561640191 
9.5203193121051 
9.82503463495735 
3.8951215866989934 
5.764507945936558 
3.542213731804548 
4.7902004177815325 
14.473075328280526 
18.111275796991738 
5.730566692762323 
7.945878320934686 
11.13614460156889 
11.339548033945631 
5.561297234672209 
3.8225744864671554 
20.79274511897225 
7.241135007774377 
12.939738209684675 
13.300243326556902 
4.700444595121209 
4.234607831851008 
9.48582875144862 
5.711618331497166 
4.719793967994372 
2.654853350037034 
17.329348284678286 
4.601022589663713 
14.147460857102063 
4.345102314985587 
6.9211176798483 
5.391357100209306 
14.012625033234196 
4.7293322014497035 
15.47906241823179 
5.570732294430811 
2.727977154325498 
8.319003265202813 
3.640836039504187 
2.8906315562754603 
3.0663208559672572 
3.0009424953421697 
2.9175491378998175 
3.18155314136299 
25.99922044593489 
11.73612657979534 
10.91053524355881 
3.8615632373206785 
9.253697791350824 
8.277420686106867 
8.32277977762214 
10.63325787576892 
5.08360672573593 
3.912551445999358 
13.173967687739207 
2.6800905556663035 
2.5578477546013523 
2.7874590611963996 
2.1712836569106697 
19.360639511587934 
3.315947467993851 
3.238118352104077 
3.7889117954940263 
3.229744631821834 
2.969901485136565 
23.02895240040039 
31.192954344395076 
4.574157668458467 
3.6331233508321605 
2.434224965330047 
28.601157196177244 
3.5477650177049727 
10.633205124709008 
31.064273868885085 
3.908089958754587 
1.312682331497852 
3.323064073108954 
3.0015299600647656 
2.7741835271050572 
5.219738782175881 
4.014880748221152 
1.517265443803025 
4.12220801203925 
2.282131161913571 
4.921466097543977 
18.575633429534474 
11.879045620272302 
16.071663779779506 
6.7446890858202035 
1.817504998584769 
14.5542785123976 
10.062397235290666 
10.485728302582281 
10.558579268403168 
14.571269105680617 
3.633132063648091 
3.871470433408464 
4.548782750662161 
3.003583241624616 
18.22158854296812 
2.996922534359485 
4.864054687817455 
3.3630718359388845 
2.505179639341414 
3.5937423864874853 
4.008846524189809 
8.184023547038848 
2.154313056029405 
2.721897439054524 
2.034683613335939 
10.442040675461522 
3.282752510040592 
6.080578253137564 
4.064139185652833 
10.26921180802815 
10.467695302389622 
7.201699086953603 
1.8445709665750305 
5.387586381819739 
4.769418087715846 
5.542525684706714 
10.532969413006377 
3.8959543481261156 
6.731621054287931 
5.036333539774995 
8.217953318287526 
2.535139076866083 
3.585166360406424 
3.7886835139431367 
8.177031650624205 
8.72323410372173 
8.870205895811722 
8.953016908656679 
4.216190635705828 
3.30814450909107 
4.903232757815716 
2.371971256388023 
3.963532849552338 
3.585938574516412 
6.1314101648387815 
3.1714658346067615 
5.723714062103801 
5.937194770393131 
4.618603969101232 
3.519567976792494 
8.08287439589707 
8.536064206761136 
15.466226554904416 
14.602262436670182 
14.199732081543665 
4.330799734360094 
13.750273070455469 
18.856067641070318 
14.644268847995884 
12.2297797718015 
3.0363500140041806 
3.5506863813397453 
3.425465609001229 
13.467078270099051 
18.130253708770724 
3.212439733315252 
3.352189440208456 
3.2076183200767203 
3.191418385055462 
3.384467756155102 
4.174235175046418 
2.9027735403227215 
3.420082314826624 
3.2806389728985663 
3.6813243610017876 
2.9329616793204734 
3.158556025844294 
3.8370854243575216 
8.851497468701188 
5.504514666513352 
5.2576635042253965 
9.072881152301 
5.220938418707615 
3.610829553411795 
1.3149635369015038 
4.9444374087111225 
3.202742841181701 
2.620389936233171 
1.964292542719448 
2.4254673292760254 
3.000523850115663 
5.416183004750038 
4.170642049919246 
7.889312010386252 
2.945168060624833 
3.7235847000661746 
9.382307482607569 
9.732313361056848 
6.6357363643643 
2.722705594906375 
8.151821737934966 
2.8465565581430763 
2.7265340950465378 
2.368556157101971 
3.210671532588011 
2.7862450590454224 
2.8355400510308493 
3.0961888090314695 
2.9085089084179447 
3.1355553544773387 
3.788168762960785 
2.5002976934429273 
2.9876024670174814 
5.297309226466909 
2.874197846067533 
2.2267576269688436 
2.29527860808582 
5.273856472419646 
5.699569476389822 
6.71647072323499 
6.217914201053675 
2.787633639226583 
5.384903012819459 
4.424308719058357 
16.037900900841397 
1.4511232579233542 
2.4420929394502155 
3.13041129889279 
1.8640314953213224 
13.625821817323972 
11.200668620172536 
10.905358963997088 
10.883796835985962 
2.972484069947197 
2.979916647721574 
2.10545639793288 
3.7608494125435135 
7.7777122088279285 
8.929810378446561 
2.7901350747234495 
3.1659053506072694 
3.8661505866352237 
2.8557349061207247 
3.6068565870773774 
3.6399456164922652 
7.459808862558859 
3.6063470064176544 
2.4455468501009494 
1.7438459274043472 
3.7875005329706823 
3.7240052439503053 
4.962881773445344 
2.0658295538023057 
2.296960114555869 
3.6690473143053435 
3.077248884166443 
3.0627094816218166 
3.105320657454686 
3.1639536851820105 
3.248558003027948 
2.0227012670980082 
3.2114021769522285 
3.599980733400485 
3.3413510342641612 
2.96693864612779 
3.021925729812157 
3.229295530206853 
3.7073663981347527 
8.582198966893875 
3.4003733691281943 
4.99816019292646 
7.703024276192781 
2.0690412035214365 
2.355298929171309 
6.5962859060756225 
2.725294550742221 
5.005985967095028 
1.3989274318308778 
7.313515322618997 
6.348656461179934 
2.3437638184827683 
5.845915943869604 
2.217914764130521 
2.4120677799581016 
3.8350831263402423 
9.275330984694959 
11.766036688476156 
4.333353152695508 
5.900529038036335 
2.9279220321674786 
8.415085945052299 
2.6201308671298404 
2.9291012139567423 
12.338785648775293 
16.220690950714374 
2.034432475182656 
3.383491705919288 
2.8129975770907683 
3.4331370534321 
17.105856280248684 
3.3483457968139207 
2.510946810486509 
2.219464058907246 
1.669308229279036 
3.684606352965992 
2.078066168358692 
3.856961520923841 
13.686468836131592 
14.48474799990867 
1.7351054410590696 
16.025016137617133 
1.5087146653548837 
15.339645327144291 
2.4862606338934325 
3.641102874557087 
3.343846030102014 
3.778906646789214 
4.00457360979213 
3.115128541901329 
1.65588705949083 
5.026178211191848 
2.9392064648637586 
5.646573723445731 
5.460083125874774 
2.4798562338629493 
7.16874898625466 
5.690723706986044 
2.124528864032665 
2.5679904130669247 
2.093073416018445 
7.947462658715796 
4.0127836994147135 
6.661159974803436 
3.661291729862983 
8.878492791129009 
7.427535039954612 
3.6836821394485315 
6.589108563029436 
11.37170097397614 
4.918079213416244 
9.365768224288823 
1.9108432328624771 
2.3170306966521905 
4.516084378320843 
6.533757080140793 
12.561714934431127 
2.984536675766661 
4.614151308744216 
3.560099402156744 
5.82550465817113 
3.7401459242998922 
4.062655534835513 
9.470366881856176 
2.7320523785051516 
13.296716567129158 
3.543445724987906 
3.4234140788787304 
8.521954026386524 
2.6478998918029166 
5.024326431732204 
3.247987963001306 
3.350813118665411 
5.405576183150029 
4.4800136630740255 
7.437803221604498 
5.734749259963063 
5.645297148569524 
2.2663175344144437 
3.7566356138376413 
2.0840645740098718 
3.5438594417492717 
3.2793068302362367 
3.342009290567987 
3.007969160425858 
3.0885220943893446 
2.2280030930169974 
2.6926448984888545 
2.581340673940763 
2.5043921267455835 
2.2297813637538995 
3.0611885426467302 
3.2645597089476945 
2.1148684612409303 
2.745753348823906 
12.457866217709842 
7.122590268330041 
2.781008831453876 
4.614339571527137 
3.7763450778102037 
3.0202328010390267 
6.951002655075665 
3.6021457209501646 
3.121142492344527 
3.463974028064592 
3.068905354750615 
3.544389577574375 
2.205189682633724 
5.486063412753699 
5.655728060205655 
4.414332669369777 
7.5724109826119905 
3.76373758461516 
3.7615334835055045 
7.2032545072322085 
3.709695030817487 
5.680291182899512 
3.866386784778419 
2.1910376496852426 
5.307000070986286 
3.3893784206338426 
3.9023245749004603 
5.5652247986099 
3.9837863497568664 
4.279231877342879 
3.8516682041668857 
3.6038000273290978 
4.8963023888699055 
3.9043468018019762 
3.939038950495877 
3.6238809038568576 
5.043309244147754 
5.62353672295054 
6.309475636584208 
4.543664387417385 
5.9880461106243486 
2.4362288820088946 
2.6179180090856518 
3.4391167005322156 
3.1697186399781736 
3.97461639948048 
2.25312114838726 
3.7694685665662506 
4.60368551216465 
3.0971515218279015 
4.079592743930928 
6.08752079244254 
7.1045263299458545 
4.395307735380895 
5.273055951914648 
3.9462563965939643 
3.6548786610985737 
4.859826411991025 
5.092457106277599 
3.8774673429807125 
12.878549116073806 
3.3547397329251445 
13.43996211667259 
14.4776276639283 
11.181405217851006 
3.8834473372176914 
15.097499643635414 
14.935308523554811 
12.656338743446716 
20.249816554467486 
11.819566986246693 
15.13276421289295 
2.505778293003992 
1.8439023676862563 
3.1938892650683033 
2.325907524348263 
18.181497535150587 
2.355526885399067 
3.3528449200512425 
13.238833850895816 
3.318564508172773 
3.8982088262498658 
6.2062601332411065 
3.8062389011021236 
2.3991243767509314 
7.70965837629118 
4.469769631709185 
4.939564193314892 
15.177849087503306 
17.029215912033923 
14.553797749000696 
16.785509864287327 
5.299334733467826 
2.9966531257487627 
4.624044743794992 
15.282644150211754 
12.076298851926307 
12.11458075720131 
2.2712223472454687 
2.933636995277725 
5.2684951891672105 
11.651470288074572 
3.0718856405209927 
10.330301215107148 
12.987559522691138 
4.003941035352791 
3.2890767837402493 
16.696630593637355 
2.6998074058535484 
5.63490792021786 
4.3649710558354355 
5.130594078284247 
4.671835230460032 
3.620572447102556 
6.83614658156672 
14.17160960836615 
3.5070426924456806 
7.06227952650673 
4.12598200874824 
4.810657626967492 
3.961709686266892 
3.241541992083867 
3.9374110810414855 
2.25478908162658 
17.01568374109708 
15.985508566898684 
15.221530832263841 
3.5021763590558668 
1.8616152465967195 
2.265117300438588 
4.563211059311813 
3.2583403085671847 
5.31651750759137 
3.3706494165378555 
4.159985202980184 
15.591286367712224 
16.68569757440652 
5.066397500263275 
3.5498831612846473 
3.7572833806136257 
13.260896390328972 
4.029797083222184 
13.760725136397557 
3.8099844895336807 
4.098053312200236 
3.4080117275342694 
3.1168925534263034 
4.107984805475344 
5.364124816241028 
3.3947876086960025 
3.062823073769523 
3.6841330645999073 
4.851252483974609 
3.7004659906450503 
4.237228016054784 
3.485834799746327 
5.695287894599838 
3.105248945855688 
3.9042425316350093 
11.681978171378313 
5.7657991456446425 
11.002339813924257 
4.619682294481207 
5.3533137918693265 
3.5303455775716435 
4.007005239876284 
7.538385825619062 
21.05202060276504 
3.8629407105216544 
3.945281874489637 
6.453427849533064 
8.383916323331102 
3.0391316682066414 
4.9533729761813685 
11.104995590397836 
3.917527217637961 
8.710394359511499 
3.322154233784026 
8.848072891409284 
5.941517765470023 
4.059847816252711 
3.1093330927640337 
3.803640830585302 
2.840686974881345 
3.137726852568137 
8.894275346333217 
10.875019193653358 
4.8699705231142385 
3.451979576743404 
4.565002988811657 
4.220314775305567 
3.7653550468892445 
3.474113797673123 
5.480797233855612 
3.699429121047214 
5.846930440550251 
5.175513819812541 
4.21525724359335 
3.7138264010182818 
4.049099846210491 
13.131572088227971 
4.372148954225247 
4.110168752678247 
3.6601137511771866 
8.347405201264808 
4.131356530821727 
7.679707702033543 
10.946020461907539 
3.920915439601084 
8.205867170334107 
4.713096254634185 
4.176012959898 
6.304749079432701 
5.917619143028782 
3.0415379254699464 
2.9895928228023805 
5.976567900003843 
2.8855893525340557 
3.035688011748256 
3.3007636504315307 
8.619412783409908 
4.091524015823403 
3.242124051351304 
15.08137660772525 
6.689003764304094 
5.771955960584037 
5.92497123698253 
4.233423079017156 
3.692634767160519 
3.276902760384456 
7.433492817187961 
6.118128467755169 
5.386657373037149 
4.06375917670827 
6.17281627267387 
5.501095729151811 
6.548962556801912 
8.405019795424835 
17.920947100963506 
10.373382171777301 
9.562831615982166 
6.051723150562377 
3.951561061768617 
3.3248415729832757 
8.9564738124613 
3.5592000912991955 
4.495852089120117 
5.08048258794336 
12.647807681021588 
4.128262111004946 
13.337631465472057 
5.463043406384161 
14.579474309508187 
10.866578288935152 
2.3475989051901855 
5.345689136097901 
4.879005295073831 
4.729539045744841 
6.181948068066648 
6.097208997024798 
4.348467661535912 
15.534026532351275 
5.196607580351495 
16.32734319134629 
5.447200010686118 
5.05126051887076 
4.4260308016630185 
4.619841309612194 
11.60529904012385 
4.928408897317601 
6.690614876766011 
5.512404440058562 
6.705368631143749 
3.1759916788168585 
5.467340974944018 
7.865842511217562 
2.5188377995426054 
9.92195098746004 
6.07637970172991 
11.488309836807108 
25.78848696095116 
2.858434067653546 
4.513924247611543 
6.232613221449628 
9.714880092294782 
8.014933312873298 
8.893943219697835 
3.4751518709801315 
5.3324858169728175 
3.3094500009035754 
3.1062075954995643 
3.9105800056659064 
6.369604424415283 
3.050264708790196 
3.5935013478223783 
3.059724105692951 
3.314859652689014 
3.194841504381515 
4.813787704983037 
3.290785371722983 
3.2937499011550786 
4.0089975737789265 
4.107418437619211 
8.761106069216734 
3.058252069700387 
3.844923742924099 
4.95641068374303 
5.52693319101849 
6.182965980125414 
2.730760998735998 
4.883927186169854 
4.2701255370618085 
4.65232024186584 
3.7626681177088863 
4.805235639580383 
5.598332683960485 
2.9626495122112066 
4.722620922857788 
4.478628933934137 
15.992798025329337 
6.058807555469508 
5.032546831036672 
3.7978308065357833 
5.5940837069778535 
10.605812522696919 
5.5134444269485385 
5.20386347396458 
4.302378152796777 
5.84860151108726 
4.114149265325912 
7.85840876360161 
8.38359255165226 
4.129256548862487 
2.636985311327596 
5.922449939358389 
20.21653194246655 
2.991905410188784 
3.4451809419511488 
2.8619955991836425 
5.895737709053497 
4.909586314364484 
3.1948981081686276 
7.116051599081179 
3.0079030357996217 
4.176067061259718 
4.393451332611503 
7.286295006465137 
3.972732813849194 
3.59569144457572 
6.549418458140689 
6.262018872028993 
4.531772163005595 
3.715301919375649 
8.164636531556498 
6.062478225076848 
6.385082981409232 
6.150902389967417 
20.229431595175356 
6.170059017361303 
3.2587901615805306 
5.852922794203841 
6.923982165984948 
10.04983667924671 
7.4697996744922746 
10.202055090174792 
4.760491938435937 
9.072951990859794 
9.020067097946669 
10.968757778436428 
8.020765410907215 
10.902381720239042 
3.0645232841602597 
2.4523964929055064 
2.4372844685187025 
2.834662523665046 
2.8278449084652264 
4.94587130294556 
8.22082230213831 
5.350685585080791 
2.9218874757972246 
7.3282839432218685 
2.7471646176660145 
6.08607044219126 
2.7363362483106384 
3.4003338056274126 
2.9030736981960397 
2.7517778355535865 
4.219453613281838 
4.01238263041956 
4.176353859009403 
8.224473178459569 
2.8609034609826924 
4.047379018567175 
6.089395009107479 
5.1552678476898555 
5.259379535809549 
4.228304073033712 
6.758420121272585 
4.586647270897467 
3.771670270576716 
5.241733685305019 
8.768508143945773 
3.275241270731775 
9.296293482290114 
8.741919941886001 
4.685787977594825 
4.043656527734475 
2.893162675989599 
3.7016624638807762 
27.010203172254254 
2.6687216313366773 
3.4260978466955265 
2.9156341355183075 
3.0120492529824543 
3.3083988974874234 
6.6729360757922445 
4.495457148357051 
3.1550118363545536 
3.3070528553399434 
3.7882300145115866 
4.761019020611336 
23.550551276226756 
23.316355546335803 
23.911003394124123 
31.364794430742204 
5.833358531475042 
27.77612714300815 
4.459901047296291 
23.919918090453315 
18.865468820422134 
24.812039222182882 
6.878159345760401 
3.0273215334934407 
3.069121449672113 
3.5647343922091177 
3.3390169428302308 
8.381436090913068 
2.8777932976412552 
3.733301448049895 
3.2531985454121113 
6.1057620950597595 
3.4550030402643506 
7.049263666158927 
5.631489166920437 
7.8557212222855215 
4.248119452078368 
10.386414201658829 
6.194433916731019 
2.7563719166348357 
10.320313529823773 
5.800604528081177 
4.088454661982818 
8.533762060758969 
8.418041469458505 
5.982542963607885 
8.745264592516337 
3.6311856737996577 
4.4448458542985065 
4.662434985478567 
12.43652824544515 
3.2868686986487314 
15.693881919935597 
6.805692113169113 
12.849117707415479 
8.781447362749722 
7.279160318432696 
3.4846387850721183 
15.38077401262396 
4.32569170396215 
5.4012648173181 
6.882725554506893 
8.960898859017133 
8.191603423685413 
5.808672965402015 
7.812048237383188 
5.192451496721287 
5.669925362709386 
8.1289676214782 
7.178842181730769 
8.603592401596721 
4.211392442631471 
5.308621132051131 
7.854735039537529 
7.230079784328794 
3.448064136207436 
3.689711111849885 
6.476261079073596 
3.767595545752198 
3.606779039815279 
9.35030352291668 
7.964768096357186 
7.506998734142971 
5.501353440533214 
2.979016674819062 
11.07760215337212 
2.695530459450406 
16.256271238434955 
5.974202568575635 
8.801128515723567 
13.58397340807661 
13.132329713244223 
6.9058674531332604 
4.619766209999555 
9.53296066402077 
4.607236161250125 
9.355869041769393 
10.020774071126619 
5.223627548609882 
10.993696265593355 
5.412321586974874 
10.007241682338718 
7.008274403817065 
5.227064681057674 
5.405226181499926 
3.8540789298239306 
9.961922011530293 
5.621729216102726 
4.789273096593675 
3.5906893988124695 
4.207599770772076 
6.171655987764259 
2.9097899004454146 
3.8639361237558743 
5.909531619027387 
4.224833722529616 
8.109360421717604 
3.685849739849929 
2.8456675169272914 
2.5234379095017463 
4.802094535762841 
7.684173908963115 
3.5387790296196955 
2.381135173786917 
4.893742928633689 
7.120722574639141 
7.04643673879469 
7.947749341487992 
7.08123272512712 
7.287057560656659 
3.9063374256766368 
4.019962045960815 
3.0452339573604124 
3.730374283089276 
5.411743883018674 
7.819255267614197 
16.435923929802232 
12.914373427393235 
10.789507112293602 
11.0072045487572 
6.594262903925846 
8.91967027819442 
6.48744666843293 
6.863071161895202 
6.47496008388339 
3.6663129158003245 
6.9535267439960995 
5.382308521012409 
6.132452131918641 
11.69329765982652 
4.116906545140736 
7.748560069685284 
6.900482038525717 
6.828681732793455 
10.225874950635228 
13.050623531229434 
7.366238830580674 
4.050462951211172 
2.681807815022375 
8.885701693483751 
5.641852803625334 
3.355100828880204 
4.859036952771271 
6.007633237541628 
4.188862035329734 
5.717558851451165 
5.602422877514471 
4.883436498520062 
10.713265993025793 
4.785181308341809 
10.865820605588965 
4.272627823303995 
5.972234658265574 
4.8454449391522685 
6.128802838138394 
4.145537826692776 
8.376656620338615 
8.504846993777779 
2.9454147011463316 
8.129849924987797 
8.621764411573924 
6.6907031013091975 
5.463472546500138 
10.747126104045101 
2.834164678720593 
10.961600543034919 
14.317876879805498 
2.784422959685601 
12.103774944797879 
4.676440840368273 
13.804512409380873 
14.802189500784827 
6.52229576737944 
7.737096063540531 
6.65290400428464 
5.439366898732728 
7.574820390219724 
6.418886841703519 
3.2168980942710017 
5.332351232761884 
9.430701367070823 
3.918374997151713 
5.038630134151052 
8.704767319853541 
7.032817189726855 
3.0612801343172733 
3.525816157362688 
4.707360771890673 
6.68431970343462 
6.855135730842719 
17.104338356069757 
3.0725352493940417 
13.363106146743903 
3.7712915625735812 
5.271193182775586 
5.2848973668188455 
3.8245158606402274 
3.596245851213299 
3.19840455107834 
3.3636908500179543 
4.266647940919143 
4.077594493948789 
15.475610185751151 
10.83963519400178 
8.466495712742686 
5.911821808540589 
2.8794108810122014 
9.898545423537655 
6.716252587263948 
9.68390911977773 
15.388730976681593 
3.867701345582695 
7.25352298380518 
2.8861368334830084 
9.711941383556793 
6.330890114164941 
9.053469553389228 
9.362048357475105 
12.41145426562227 
14.389694723279517 
11.650062100016942 
14.185976307128287 
3.5452940418211725 
11.081533776836556 
9.251126253549952 
7.160194998513916 
7.619264943301018 
7.61581786968363 
7.367356472630002 
6.49675637175609 
7.797811724420383 
7.377715170689982 
7.976812798743237 
9.744513482134076 
3.999387872134734 
7.109941701440018 
4.495567042387983 
8.214966131738477 
2.643884761246388 
9.622773541731975 
11.065571975086064 
3.880426814773529 
4.723780258950597 
3.0519106605872204 
4.860355723766994 
6.828693954547642 
10.068077827039758 
9.479886435982076 
2.886768338023063 
11.35558450727053 
4.007796725202986 
4.619374208829897 
3.5244826773113984 
3.115465189195339 
2.9211295285046672 
4.262678592534236 
3.0228857901630564 
3.039535670188868 
3.6216633125400914 
2.7511242112279737 
2.717895348250616 
9.214021613691795 
7.74204205064957 
2.7635136961092974 
5.860421821203852 
3.6863947313501417 
10.631410587539374 
6.100215762504924 
12.109857075973483 
7.432120225685209 
7.776025356715794 
3.704788954646122 
9.584366316473867 
9.6044527693817 
4.219834185227424 
1.2740076653134724 
4.595317153613121 
5.156441774218095 
3.981300602354778 
9.449181287067319 
3.3862737002318557 
5.372906081916609 
3.0922397255878713 
2.7732303736129906 
2.8068889147830696 
4.426918997489906 
2.8867187206547382 
4.371627731261851 
2.963627122718782 
3.06728780923749 
8.749287279085483 
12.905368796610398 
4.326050873033099 
10.944003327936233 
5.453980461321726 
7.496893282357544 
7.405177541981872 
9.122673318236757 
5.1460849176711045 
5.0894397270089256 
8.450287838495502 
4.167633541308913 
7.194566785683527 
11.449783958389162 
4.083785583776199 
4.287331972542083 
13.567276239812465 
2.3257776633602836 
3.6036007131193415 
4.298023111694356 
15.45055630308915 
12.709605254611256 
4.797697163664906 
6.925049035432756 
6.138697648634617 
12.816355899005718 
5.59472875145945 
12.96959296544916 
5.365204304922509 
9.00697059472991 
10.059954153364307 
8.692807979162895 
6.943925556307625 
8.53903471315799 
11.371700973976141 
10.126713856756526 
12.212519174359764 
5.0450195620597995 
4.183961951358635 
5.819763566883195 
3.108219520624938 
11.253137539050163 
3.7062227110346084 
6.528196480218635 
2.5262651603471973 
3.322988751457496 
5.703316260065776 
16.417222112100696 
2.93341383564195 
3.7662141453398004 
12.794551312440515 
5.595182274549436 
7.779886375587589 
5.910470317200494 
4.6653223876119965 
3.9518854876903746 
4.524133760291179 
1.4274641232921448 
9.550513385773112 
3.2000940558575617 
5.142583714310676 
7.373140752311415 
3.7891411256372716 
6.316239902790655 
9.576695777896203 
5.319526055823127 
3.5951367696843506 
3.736913962617941 
6.581511350800513 
4.380829318424729 
5.17646304072407 
2.329232466406334 
4.710712736362546 
5.661572708972909 
4.2358843293737705 
2.725524826070341 
4.300565090451585 
5.0194108355623595 
5.734526253019655 
3.678109781072683 
4.84919114865279 
4.587988153106319 
7.53197007971495 
4.069014183542263 
5.789198564805072 
3.654491557949016 
5.7148949679508725 
11.783835455250326 
12.928284777338748 
11.117691875652532 
9.919171896329894 
3.620487808143584 
8.013668978489855 
8.673025603496805 
13.685933300110253 
8.178620596687294 
2.8117115789480764 
3.0598946768081206 
2.083646343528783 
21.25876305369774 
2.6963369036356 
2.963101840929248 
2.778073561328644 
14.098683453573381 
7.121070731758594 
17.62786601487018 
4.753838317036091 
2.5608314431869017 
4.871780744556929 
3.1072676686590626 
3.1244728735688243 
5.919827689950922 
13.248678773991518 
3.5278186240160654 
5.574528669276988 
4.691913726836305 
5.819182092873363 
3.851182219930973 
4.21678919581121 
15.722865276017137 
11.246768911816167 
6.508996131683427 
5.233274341465419 
12.890333919562703 
3.994324062666508 
2.4945912411920363 
7.4584651239818465 
5.007842700082246 
5.003484326812489 
2.8453822650618115 
9.721890238489525 
3.3804425808040675 
3.0252172103689987 
7.120139337291268 
2.6470903615907417 
4.164349093782017 
3.7410758790795864 
3.5615216704723185 
8.791732718782084 
13.500493004731247 
2.465355502375164 
12.31529178409158 
13.701541455432855 
11.796395502712391 
2.791616596049413 
8.88814879351409 
8.379031230355958 
3.0085621219581644 
15.416939563019225 
14.3473532263635 
5.988612594213654 
2.685240886470502 
3.389151231462664 
10.076942625851135 
3.055578462258783 
3.7467032434625804 
6.022970427831147 
5.441085279366777 
14.101543699061038 
13.234278595935836 
7.825586353191999 
6.06838867501718 
11.734308183707874 
7.163392177429837 
5.988583239511642 
11.69167388444927 
14.200919783830456 
2.9254051035050566 
9.90919035862432 
5.246199746946738 
2.411802166048318 
6.106904677955678 
5.169029284789239 
14.862345149045808 
3.483765897138324 
6.14131846322572 
4.742568519141164 
3.1515568819127933 
5.0916369750426975 
3.1734721779760107 
2.7487687662286877 
6.466369292421161 
13.571224224863885 
3.639724155027766 
29.000420639506736 
14.206459165222858 
17.182477812306637 
6.247815174294233 
1.8381050238965215 
6.740666816143187 
4.3705090661912696 
3.323496093184042 
17.31430284851048 
14.84253155471336 
3.1456904149405043 
5.706091136730093 
3.2711478367427476 
15.185021603204785 
6.204423929041076 
12.151165093953109 
13.56849241152795 
1.6867956500001993 
4.47852085972762 
3.2252676071575705 
2.840073041164771 
1.710429238681901 
3.902155663183522 
12.864318834213291 
12.238550799639436 
12.498768050612242 
3.3085440986049632 
2.9165812765398123 
3.6688108087170606 
3.1579831262235945 
3.988230460275919 
14.226196949228543 
3.926832072994832 
2.775182146070659 
7.5625694700316535 
3.7118332240184353 
4.56745996430689 
4.531578939593062 
2.9704022807625488 
2.689898893371926 
13.748483007104639 
28.059772552905226 
5.309315136267435 
2.519529172371804 
1.319233873916121 
2.915761608582789 
4.790706070619822 
3.478854564834905 
6.650586263615674 
7.010511556864086 
2.6353997981670756 
2.989740048313099 
2.201206854301951 
2.841013310242506 
11.199621626950497 
2.7795885460288123 
14.438770630829868 
12.374375906356363 
12.534428880929996 
2.92815111736592 
3.1525497139483596 
17.260149082101766 
3.0740898538884185 
14.764299582686325 
18.78817283115337 
2.6156096634543458 
13.546517151884581 
15.817735098360883 
2.8840282465195926 
3.380971903336863 
14.360094365017087 
3.0743676482329185 
17.77481047190201 
16.232523938146205 
18.07090643024835 
14.54834896804555 
13.11488470445778 
21.96082233890141 
13.349800375248867 
29.749125682480067 
14.81202484860442 
3.063410689141474 
13.96461812339969 
4.979295486291133 
3.2066240555014756 
16.798122647967308 
14.80169204387767 
2.803516152440741 
16.02767882637692 
5.709320800656345 
5.913815430654919 
3.7004158368141584 
6.235140937194494 
6.246228958731496 
5.2857001348124495 
9.636399497153441 
4.7232028034788724 
8.223623308057563 
4.260255539541079 
10.068172112597649 
8.909747047765956 
9.256986729404286 
7.278099565330556 
15.64236778652648 
4.609350355975153 
10.002142612603267 
12.271571094260555 
7.089044012089936 
5.538730651459721 
12.923069794604775 
14.132867977272687 
9.486660357252665 
13.050678302482066 
14.2307719567759 
16.223069472037423 
11.245320677548367 
12.061178254627494 
12.644661517926451 
11.469486674068193 
10.000612684214977 
12.851509948724788 
25.143322883955452 
8.524786552052198 
29.981706207310847 
26.285168648154194 
7.556678531291137 
23.11976770881626 
14.568632514043628 
9.811291915392719 
5.269112936075721 
16.719720448883038 
5.9593755249396505 
14.140797705620148 
3.2255613617791234 
6.773092112303607 
3.080857643882107 
3.031329043786917 
2.6050066254059767 
17.671109278785803 
17.336580659229035 
3.224515582127635 
17.902385300009687 
3.015599530659485 
30.163656152406972 
5.188299822406862 
6.387625743245445 
4.758095897078488 
5.654859829308567 
6.250925395662931 
4.63350437280011 
2.9080102579723635 
3.2641132127961603 
6.78191347568077 
7.58256079975144 
12.347715648956521 
5.719029894346046 
19.262447322414086 
16.538363172068177 
16.673015900075516 
20.757341137989158 
6.364788424102958 
7.427463297392989 
13.579862185699717 
6.072646580896222 
5.021734719359472 
7.002512462811201 
3.034349126832998 
10.964912795683569 
3.5973772908582426 
13.30629143268334 
2.4460538090100648 
8.16467705695458 
16.926500098677003 
4.761279663527606 
6.713800720998209 
3.051975475861224 
3.204977904507334 
2.6642281964109373 
2.8734114541150286 
2.9408389014198515 
3.6340066000743825 
3.2443442795977644 
21.502277829144493 
4.94177959862893 
2.3879618261665105 
10.172267218552816 
3.3968246284842896 
6.954778022358229 
7.217446464050266 
7.591570671577739 
10.61658525892188 
17.913450930811685 
7.003399863778955 
6.316444207373054 
6.516450248552335 
6.035433637855869 
8.380648061063113 
4.4883487422039 
6.317474476956519 
19.022333137153588 
6.740004384949319 
15.938929865766791 
2.847825303340167 
16.13841984096628 
7.1077251376237145 
5.78601440467892 
4.766999311084014 
6.603425003935497 
16.48926304341396 
2.6158002309371877 
8.366918751925988 
2.9350013305223785 
3.2738960521849965 
7.7825733968998625 
16.16508726368269 
2.8569419309094437 
2.5254097087733904 
12.565124911416357 
16.54204756634863 
3.286720071961794 
2.935762736608279 
2.7941083927539796 
2.7751778438140557 
3.068695674144466 
3.0921510685866602 
7.902754769647208 
4.033075214195377 
14.156149059686053 
14.524888591532934 
17.16865581427698 
6.266174466885948 
8.134250900050196 
6.00814331847659 
15.843439004306681 
7.386449726940294 
15.453072804357872 
9.585642453478656 
9.146492020287123 
8.009795440878555 
6.577055513900234 
21.170944685129964 
3.4548379771403805 
4.174956124689896 
3.585237482806683 
3.27435762914944 
4.380531773687002 
3.8521102737363444 
10.09987558174505 
10.598288369530138 
14.19960549614128 
5.993707045331944 
4.253023001696267 
16.266776622953042 
8.700146195410376 
14.677437872778903 
24.18030449191166 
18.429254726538844 
11.33950982882743 
19.18261487133053 
9.893603983311705 
18.112456053023433 
9.048305928355084 
4.406849470712487 
16.542891709884362 
13.303148540856622 
20.379580090439827 
2.8020215607496475 
17.827375564183342 
17.30786288735084 
11.88345236571943 
8.33294489958759 
20.680731118666007 
20.31661435930324 
20.469660136262146 
16.98021571150475 
22.327913503690215 
3.7662630642485877 
6.742671010784398 
18.358770639548283 
15.149132886013625 
17.25100959447025 
16.49334435344744 
17.891376618003143 
2.5919750537470994 
17.24948852574184 
2.5037054532909266 
2.682533455490301 
2.80491938873884 
2.8754937317065794 
18.704316166345272 
17.911313398968215 
2.504673457089421 
4.5612279348710025 
2.588746580516808 
5.274837255659392 
15.214456766769011 
17.08294863979089 
15.22566224148813 
9.769782766166731 
10.660068746174462 
13.092866132794429 
3.641328660017647 
3.750868574301389 
15.45632258871471 
2.7150978803279306 
2.7627957085879626 
18.591812869261897 
4.263640703270982 
2.8172972053016796 
19.06045345484452 
12.027972764910425 
3.195209058444636 
5.794329480759419 
3.1390465439709305 
18.096274782932294 
7.769478199066953 
3.3629174827309547 
6.2962843729780955 
17.842482196677764 
5.215214308473984 
3.3366517919709575 
4.9218876991958584 
5.8820233708146334 
6.094461546408631 
2.6222236753706216 
2.3889375130436754 
8.233867839799474 
8.278193500077158 
11.834815119013124 
10.80731435348763 
9.928752673870093 
7.1303458669773185 
5.918857654442414 
17.72495000200718 
5.7795850206726005 
4.95667449956279 
6.198268838989125 
2.4513080555458036 
5.583652804470498 
11.968869680420505 
2.7750804144424572 
18.27235918242136 
17.340018045300248 
3.8249417384810838 
11.27618010493532 
2.4574049623473178 
20.22025031598391 
16.51711187466841 
22.095997038071335 
4.843549101198802 
2.9133319221437657 
3.160286463706953 
4.0447010427094074 
3.6643339899590104 
4.080168960848481 
3.412635709900685 
3.8081948920945017 
2.9415261624997315 
3.7611938696207257 
3.412681871171616 
11.203442576301175 
7.55097862219548 
8.949426748157975 
17.711443026804986 
10.46697304171215 
12.436893566804253 
19.62370832838019 
5.635437336388606 
6.862599763675776 
13.855659193100712 
14.36351201714404 
4.680227525054703 
4.102968012854398 
7.907581713163175 
3.5667528346901953 
2.9501767931683345 
13.253370061222032 
6.3256567021035135 
9.548061338150351 
5.607860571352044 
17.543330356046795 
19.110584405547424 
4.630545643128903 
20.91694295303123 
19.01358227635499 
9.540682793218224 
7.2698127152911995 
19.737606755796154 
6.82883739904533 
4.706812369149059 
3.8264346458694853 
2.8451111165676353 
5.430972988026455 
3.153568142556565 
2.404486231676924 
11.973698928602913 
8.401176545630058 
18.848584292064015 
9.624256225488939 
8.921188146620832 
9.642839239124768 
7.233486277521987 
7.08007538472927 
12.030206554721765 
6.630810074516892 
3.466976339774103 
14.729583424108425 
16.612270702478988 
21.098744539900856 
7.801404120852462 
6.264373468939669 
7.291197425887951 
6.008635936106452 
21.82665986708459 
5.436133067248879 
7.404242541953819 
20.894615190151388 
4.802759124801737 
4.09095919977806 
11.409820705422893 
15.103688009770522 
4.97850885081747 
5.916517952025536 
4.770092588593232 
20.47616883255743 
7.807356444370132 
19.518007616425844 
3.069247967057133 
5.259634613293803 
6.83921200922894 
13.870430291598597 
7.521550947248688 
9.737850317767345 
4.293171409429354 
5.493359566717445 
15.815548293012393 
11.883470986538677 
4.179777289384544 
17.414799325852485 
22.281958598114038 
20.33497561513219 
20.766449169501808 
13.110335391897648 
12.188943766648682 
3.082560382541668 
5.464571489680377 
3.118791875858112 
16.996982357872458 
4.080968775529184 
11.100470541881322 
7.972709993836071 
6.311890471066161 
2.6435594667283957 
5.592927376541415 
6.4704638987774725 
16.37570304367546 
20.097135688518705 
6.222362134315742 
4.940943543082102 
20.787163605279616 
15.292273646235122 
5.175964452092571 
2.007301188503458 
3.862992820524557 
5.177177676600595 
3.609183147875554 
9.214991466195269 
18.290108024311795 
16.047565205550473 
13.48542754697882 
8.186114408262435 
3.08714990696583 
5.106091706694511 
10.96320727002795 
8.344265534863712 
14.38672315487641 
8.440119127802179 
11.667598931856777 
4.80565958744225 
3.1618815034602075 
2.953800871479633 
2.550644724068833 
2.786907950567044 
7.504565263045799 
4.948323387443666 
3.3960378162256184 
6.102875606731543 
20.01593624793692 
3.0857663366524144 
5.151382367389491 
14.92284204347022 
2.913806679424994 
5.326740339033542 
2.722137872999567 
8.399262065947834 
20.719475680193913 
2.2958503043713674 
6.70671271445754 
4.859219820726073 
6.198960243216354 
5.318592417366142 
3.9741877620779333 
13.298710886960578 
5.8531316323648275 
8.1388586461767 
6.501436746478717 
6.090656096080351 
6.250332733023603 
21.156631678543945 
17.022441146342988 
8.682770003115467 
9.977822340279628 
13.867992963093085 
21.302790855922773 
12.065412990997208 
22.241516797465298 
15.63315586113418 
10.934711569757582 
16.882804227830096 
14.388177684636682 
20.016355149506186 
15.39619344053276 
14.402256939825277 
21.15400234975147 
19.157851135986306 
19.486193253753378 
3.192098563783894 
8.567312941679443 
10.512234820059533 
18.41778832699759 
12.11692919809976 
10.501745909361253 
9.318333355388528 
2.7534461936280445 
9.82293983257545 
10.378104362800284 
3.565238563235852 
20.578100405445458 
6.344050321117326 
18.77173837216233 
9.225176833546739 
19.589488085982747 
6.580894804886571 
7.6650552859086725 
17.019303952736045 
13.590891694141698 
6.944852984207027 
17.70369088168148 
4.719062310921258 
14.614314442026464 
17.669497209958003 
4.808283234800239 
9.95286601382149 
21.81177120704131 
9.806827719403778 
7.1998716529244255 
2.214520563953391 
6.664915627421889 
2.624273648851823 
18.326382948509544 
2.8992599992817305 
2.89989511127026 
10.504393413535235 
1.931708242768094 
2.1970808461108713 
12.488169792455672 
20.965995134514092 
20.460977277726975 
19.041130063481862 
15.80172143122455 
5.695205786650607 
20.03590788103027 
6.979032117982029 
12.850427884710866 
2.834407514512486 
4.500715883770586 
5.411600025076995 
4.133583901863398 
5.572647068881609 
10.675266066156212 
23.59496848133788 
2.875858717978115 
3.044668990777506 
2.5719518567561157 
20.560282828325573 
2.442925545600743 
3.115875625400053 
2.930306984903425 
3.0250585161474324 
3.0372062305078695 
2.955803441692492 
2.84709838643168 
2.8077083082211525 
17.1018955502712 
20.762103481922413 
2.7908616835437114 
2.761126428328134 
10.049863473683786 
10.021097919524363 
4.553788126355507 
19.026336281180548 
4.779527657544515 
5.860388068910118 
14.341784696431116 
12.58299062641714 
13.806616006956016 
10.266324653156023 
3.2554488110725095 
10.555814771914173 
3.223423957987324 
20.949100708168288 
19.35991830922895 
17.63558489216768 
3.5854333428094254 
3.5691304127347023 
3.49569381497709 
3.0844595094325213 
22.945547492205158 
15.668255343236606 
4.375542386945683 
3.1968519870830536 
5.719330226200661 
3.3441425051630573 
3.54302092625746 
6.7988983977136925 
18.538894400481407 
8.454686808195722 
11.038224729394392 
8.98361948774989 
6.109615694911186 
5.3432276664029255 
10.691575603132051 
11.166414994033993 
18.25330878917637 
10.354576615814278 
4.514518573975361 
10.76448459751697 
5.5368201182422 
5.48007460779787 
22.63225911092545 
4.248610859618003 
6.796357094932823 
7.717045917768508 
3.885014383455807 
3.361280956403235 
14.669283322917646 
3.453001834659251 
6.8739072388248035 
23.622691367708974 
7.1351093920186415 
2.46323653927848 
18.865813734257113 
3.4884589444194916 
2.7443368284735654 
6.50037843916672 
20.544971598531408 
23.136304903656395 
2.69109516296207 
3.113140007336198 
3.171128276619133 
5.88171903073376 
4.1858660983322045 
6.590298182681068 
14.199602863871615 
3.4143225328533133 
4.526841299766458 
3.4847002953665895 
3.8929167752689513 
4.513005022323328 
6.274877916803313 
22.330757228973326 
28.351176878459828 
3.2855215434060514 
13.748344693609662 
11.779889214066007 
4.180393155659744 
22.014673221869057 
9.357093050945851 
15.197760109475702 
31.338955603714023 
7.95122602845156 
2.570470902624359 
3.2692315218551777 
3.0265037344767354 
3.172391407837224 
13.815085064772255 
23.886371422209557 
4.335844193605389 
9.860070396286403 
15.714406718227563 
12.480930930072375 
5.696750919866023 
10.393261425683754 
9.3174297716821 
10.728763090837651 
5.87037339862318 
3.5919442197721194 
21.488957220581504 
15.171719062209842 
23.868594075638104 
5.390420469316463 
18.74216409673714 
3.3983062409521576 
10.849315514868135 
7.567975315169934 
6.174813051109359 
19.39746425015001 
3.526186017213196 
6.488500837302552 
3.3615708323469806 
7.1021560548582094 
22.833282075700406 
4.796928231746959 
5.910209047462657 
4.767329054170222 
7.129328723251056 
6.950738817428426 
3.1708843564367513 
14.86198225868968 
24.855726266206094 
11.821285002508288 
27.524038460308212 
18.158394063301927 
7.97247575283687 
5.193197603505012 
5.857573033059413 
6.959354532752626 
19.576165266111673 
14.311977093158841 
12.090189880695625 
14.912439853848767 
23.32469784210469 
11.5590636931305 
16.368410893304038 
11.866556437731429 
22.72688258775509 
9.386087877926391 
11.494580690156402 
15.000598777456593 
2.5582136510379945 
11.212615676094098 
26.54656138443133 
14.494605806227074 
8.836872369057518 
5.817088726530314 
2.1935524909307857 
4.796679816152911 
5.040573804128927 
3.7828169816369086 
11.001390111155667 
15.29726342517418 
5.2175745069943105 
18.27568287742438 
6.141606406431285 
7.337464491077788 
2.2480148249020275 
17.588685536990305 
20.324576492011335 
9.155986450499928 
2.6869147241679476 
24.623405952323274 
9.883941621671783 
6.0103031496938035 
11.59429288204322 
6.114419142758437 
8.227149670845982 
6.487255311227503 
19.23375389004318 
24.86693601463686 
7.516159583275747 
8.180558284797035 
9.870528721373079 
9.379034734436656 
9.587607746660115 
23.657971048073932 
8.757031424213235 
15.466594632260067 
9.336912822010321 
21.090621070625453 
5.851319022320551 
12.836166926461376 
7.9487600797682445 
4.567435054995274 
10.72331343758966 
17.698670149859115 
4.882491136335777 
7.5941341976722265 
10.947337847433321 
4.145321910882514 
5.190093919448451 
3.1636068889422924 
8.205755383135301 
22.536346363226233 
2.89616496133178 
2.4939545738172573 
5.649504555437148 
2.365544886166736 
3.220594651643455 
7.962911158914357 
10.447668420765286 
3.1359792939661704 
2.6352903421426532 
10.51205970618909 
11.643477256985122 
5.976873612716043 
15.854546009734642 
20.487092199434684 
3.2867005124583737 
5.589165242277196 
3.062482576935628 
2.5146569706340616 
6.380220183429032 
16.37171430988665 
6.903194413839726 
3.413399506212368 
9.674517769393235 
3.9022136539902075 
3.387707999316512 
3.4084159562223717 
27.397222424361935 
3.160974386124162 
8.703015410108458 
8.380654557545895 
24.997109111402175 
25.091485940062533 
15.257410613728847 
2.79590324681427 
10.77463336730183 
9.917394955233126 
7.185899572594182 
15.84594042330167 
3.958552485934309 
2.753464244633669 
3.544394765503731 
5.0020407954184405 
18.141453868098182 
23.238123745455365 
25.249822554706707 
22.215599340110867 
25.77510713281649 
10.117277411683574 
5.399538334375968 
6.412422890718916 
22.548259362886082 
3.0161359972860984 
12.795908545338254 
2.790757866084798 
6.697075092868387 
14.9359702665252 
2.035851552199226 
21.719440797379804 
2.368859893830685 
2.774231700457745 
7.754362413641291 
2.7846733649515945 
2.1995134493066613 
16.445078564345355 
2.5310058505463453 
2.3651026787708402 
7.229545209762364 
6.955236251447239 
5.643315153407285 
10.766649116768127 
13.560884282533253 
12.651730791252886 
8.725513798050443 
24.49674046394177 
2.9506408713803376 
5.908655299235688 
13.378422550638911 
12.447068306056194 
13.03065116707759 
10.944065131117931 
9.744490595995691 
12.880152736992068 
4.2099346375535065 
5.5176093988435655 
6.429886823995574 
4.813189895381808 
2.4143075698125354 
4.297771040510244 
20.315502594150672 
5.026833545409442 
3.8251771243768475 
18.298235204812748 
24.323657681688786 
18.088247466051964 
29.304182443236176 
20.873632511904507 
14.049261513333319 
16.237706354290182 
20.748847129715095 
22.96698495887695 
21.527518645266646 
12.388243361790758 
21.525945498415894 
19.329552350713232 
3.906337696991257 
10.381594295040497 
6.115988618569575 
4.157911721698676 
24.422058698126566 
12.224860678363065 
6.897786282435945 
10.175319878801941 
4.845735253107588 
4.218767095403618 
12.314522274009999 
10.340607417066776 
9.95951704747045 
22.04137590026685 
2.826153256668346 
29.35025736405997 
5.752688540521494 
16.685439895578345 
11.69971530284854 
6.422793480788945 
4.0862215911503945 
5.378737226293611 
6.378755221189376 
3.7949377932302597 
21.740400695202577 
16.590065149012105 
5.370689047684778 
5.656287846298196 
25.584739402690026 
10.441833294704365 
5.593404724940821 
26.546753412859665 
12.314773822390588 
10.405703214577162 
13.003743653538578 
15.29362860873527 
9.61500600209672 
12.88274867353158 
13.671981836496862 
7.266055799862185 
3.6696326636348884 
21.39529188073565 
3.022862584433305 
2.7204883075728206 
27.253010269365358 
11.418625382553207 
3.1897129526830286 
7.198912791497907 
7.382473904740834 
5.1137856981683765 
23.934322623159396 
5.255442625882092 
16.02892458728736 
15.904627983982689 
4.113672166412546 
7.276287285210162 
8.142260722422543 
25.555513978308916 
26.806804027923917 
5.911240047060287 
2.6620216955289697 
5.155946107942861 
2.8279698529168047 
24.548462429214176 
10.632992543436966 
10.487314610597712 
11.267000405053267 
5.002202389231704 
11.373719735727631 
12.453674448094851 
4.894025547232532 
26.41107517991548 
6.04701259302362 
6.807730420125767 
8.375293816773665 
7.668116169353615 
27.187715004983463 
8.351488623293337 
5.9834658027174505 
6.809557622882832 
3.7291458162804543 
3.0889211351598154 
14.20819941136391 
11.009790442106123 
3.4399487226953354 
3.3095631843618767 
7.036077610578263 
28.01466920808814 
22.167530310841688 
3.452200905299211 
5.379906151827834 
5.975527053790166 
4.216056758336894 
12.09696354302743 
4.479301869869122 
10.468352897879557 
10.115490989222293 
3.5914265671269807 
6.993994434961311 
12.208165881316356 
2.8185281236953674 
25.366114527484918 
2.9040104349247247 
2.4987904302460913 
21.624638097668864 
23.32700482673096 
3.2638876976810525 
2.762626527840117 
3.196707700441169 
17.838964948801493 
3.8812288938057966 
24.847065516489668 
23.24489724215016 
9.148928583189534 
5.167397109305539 
5.615911543421898 
4.791057196404931 
4.699018607915567 
16.951199078982185 
4.8065166827595895 
27.512609894333313 
6.0081826227013595 
17.672370231757913 
5.014229618016695 
8.03229633086673 
6.26200661260483 
21.853031960942413 
20.49812940072915 
27.354405243337734 
22.898986665390932 
22.66382739882604 
22.871534800817408 
28.103413680276258 
11.959406020951327 
3.104524888538378 
28.27738095529534 
3.2399908842293983 
2.767925356308035 
3.30392801829223 
3.1806199163615756 
19.078585418121047 
22.571498532996905 
19.319628697553075 
10.67572242229647 
16.766380262877924 
27.669343099197214 
12.345725436378846 
4.330037871554507 
18.257475813433548 
5.953871080365209 
4.297133854457099 
15.811089400474097 
3.134627967564503 
5.525458098828872 
5.77919062754319 
4.493115159905732 
4.672015110551666 
25.76260871216408 
21.833999459140507 
30.22377286142902 
5.7243187102827715 
16.234186059442347 
4.839794514907177 
27.436673917544205 
7.892963189871607 
2.7481633954920963 
10.860332664619008 
6.0234998417594365 
8.32557995995218 
2.67931829606564 
3.819795573831953 
5.790286436934551 
28.569422899951288 
6.1523206640202295 
23.694648756506467 
9.687649075155248 
11.529024198614554 
14.491419562215311 
7.021734026407254 
15.038339373371711 
27.74678294421841 
17.14955099561444 
2.2891181625431063 
12.404156991183891 
15.253772491754075 
19.25831028906718 
18.86940891374095 
19.04126138598375 
11.950392261625634 
23.329910433531953 
16.018401985737295 
9.085720186495948 
27.19678634578549 
11.476101877663105 
11.903448089000502 
11.607635244292707 
12.457664533987213 
12.67916307406169 
31.3578184170566 
23.474249130887852 
12.017804596545039 
10.39420722119208 
14.942624285938445 
13.654292188634244 
24.84422464182173 
12.64132061979342 
15.83003160293634 
17.763626083665628 
10.202677305629113 
8.53282769240223 
13.817666721480878 
12.420599837500133 
14.485995181374378 
3.504174631963176 
3.693327816838726 
4.557703540364198 
16.58750560194904 
5.40456854937212 
28.62004286488578 
10.528649430379646 
10.470671127770991 
3.3382783012136463 
3.3920973190831973 
5.192408505986651 
18.657347456892406 
5.271107375723827 
3.172297967329081 
29.677466548280588 
9.435455040917695 
27.64993096133621 
3.5451516222888566 
17.183385770339413 
5.265601745816464 
4.319232647921783 
5.949700815248287 
12.236625913437257 
13.353611895739176 
22.11070682784197 
21.348200662667374 
7.810673822362024 
19.42766081553302 
14.726346033662434 
16.534462451367958 
18.446868323732822 
15.12214720359725 
17.17998100949384 
25.386383131456256 
9.013624255549828 
7.652633794911587 
23.883201341785842 
6.782884102924269 
7.264809202826834 
4.945226345386724 
23.022036040833985 
5.4352810611298485 
28.38834180666962 
4.34978093538468 
28.810935389754267 
3.5431316551572145 
17.61467404652691 
4.746272538918286 
9.582112551625508 
18.79098335461 
8.15032502291307 
5.333402710066084 
15.765616413891312 
9.842086353777336 
11.221554409603684 
4.376408109345516 
28.836449740103845 
19.989534427962656 
13.455481396690205 
8.123522899777877 
4.28941245144371 
8.864935080895405 
12.533587440518886 
12.298641447656394 
5.566894874780818 
12.841351916551433 
8.498510595708703 
23.261237426390203 
25.112912889552973 
6.851413607996712 
22.20621796674278 
9.882451274485673 
7.834191314751622 
5.656037982897615 
6.140665618627446 
1.922354395872956 
12.58314706982415 
2.2623292398362613 
2.8909819709710396 
2.762675991490859 
2.79583697078613 
4.966191443801695 
3.724853562767397 
3.802924963612892 
3.174493722686191 
12.844771483433524 
3.695604677241953 
13.16099474785639 
3.2482710367252605 
3.975026029751356 
3.2555242079861877 
3.7782527648085105 
8.683387051108598 
13.008254809391573 
5.224724789838289 
8.306348611933112 
5.6428739502771945 
9.704395046782462 
4.146775330459331 
24.33113245915675 
24.885689283738454 
5.901718023299512 
6.167993852607857 
13.060974312981683 
12.760386173119413 
4.833629516088813 
4.77260147559557 
6.823847887028961 
23.804456467434665 
19.74671766157731 
3.1929854455648905 
5.725321667838007 
26.40735746218347 
31.290719247350467 
17.75966094383432 
18.984029519495984 
3.7906701988730824 
15.19871094091917 
3.820029624887614 
3.597536799173839 
30.668793205337778 
11.412800815911124 
13.576295054313103 
22.98896924122036 
7.424817841878633 
3.0358369171562702 
4.415234162804502 
31.274920230163765 
3.041741029494674 
5.180071115257871 
5.968854101604708 
9.926432806083287 
27.21787135563313 
24.96110118589241 
12.838429372633273 
32.09258918101862 
6.312140355751521 
18.64113643519474 
4.189097650069128 
4.573377805561699 
31.765927094035394 
8.814243867513177 
12.47458480436171 
24.508792063375054 
15.52189628583824 
11.059663977349418 
11.772996276076041 
5.6106694357163 
6.692661730979216 
29.420390417749978 
4.550191751115275 
4.999230887616845 
6.3533717068574616 
2.421899219610898 
8.311073333709901 
9.069141893016283 
3.333148205690672 
3.288457258848903 
3.3372650742058187 
7.332525298136813 
2.9288961573580896 
3.6389457979504995 
3.669222437110341 
3.9220273119735207 
2.9736588743689634 
27.185265609409143 
3.793978556224587 
17.499331605711145 
4.22027509668168 
3.465977650665363 
23.666966946756027 
5.851361104754091 
4.67960197320963 
15.729612503170214 
29.49533985842483 
6.778546342712486 
6.084962749794026 
16.984656390506895 
7.812359450485152 
3.687318282458713 
7.4759641695771055 
4.962407907159791 
3.5109830530322914 
2.2205277763988787 
5.696217768300131 
31.60960163356333 
1.6412223532700996 
4.271558883791694 
9.973350094859484 
5.910594471590882 
4.176514876999951 
2.1609344949961033 
17.746555270436765 
6.15115526373152 
6.272992101323744 
2.953792673876808 
29.167183501096726 
3.7229315114629093 
4.574558341597052 
2.4712102079874065 
7.576771463420666 
5.410359215491518 
14.001147864614559 
23.814985028216654 
6.890229487030257 
6.729964202935193 
30.16167656999114 
30.34044254123565 
16.923724685756973 
7.536030380705613 
5.796222276682838 
2.4041242662253817 
6.041798557497396 
8.939831472890093 
6.2653362222208315 
6.162132092687516 
30.82547076212643 
28.490333839439426 
8.239168978096872 
23.420945433736623 
29.464747648767258 
8.041841671500087 
17.40089472960901 
30.853623128409524 
3.098828368476877 
3.3629571647526153 
3.1736126556530166 
3.150661122476146 
3.2657440292630047 
29.399843364152115 
5.667021871739223 
13.777452604316261 
3.794257637483658 
5.2011053225809265 
3.873214211508582 
9.181092906645496 
4.261069791827423 
4.693876310549035 
2.9805032096108115 
3.1731577364595336 
8.581329165297813 
9.021101320030647 
6.2230310372337625 
3.184964168364527 
3.249370205575814 
3.378376229538396 
13.363234577493504 
3.361775752684368 
1.7213301905056835 
2.8452226670328056 
30.450164301664383 
19.256282237471865 
1.6676005667297968 
5.69476845977272 
31.633521105702776 
30.226774384412767 
3.271016857421651 
3.2274458754975073 
2.773271500501272 
3.3009207451349836 
24.01585191396528 
3.3531041117535962 
3.724974366417166 
30.318670127456816 
4.146611398320451 
3.184124592751371 
29.768690617064983 
3.834684947036491 
4.16422753673393 
4.375256688160129 
3.776271687573558 
20.027490901915215 
11.9326373148817 
11.728639040219699 
8.230231148626485 
25.17554538272732 
9.842904783228951 
30.861835145128403 
11.508932445446128 
8.64694568634724 
8.041483215117786 
31.49414775168552 
2.881922758607828 
25.077999115630323 
31.046642927855984 
2.1587379230412544 
18.957918050828948 
31.294075762391245 
16.31591252921233 
3.1649816090162672 
3.1676313908193086 
23.718748321950674 
24.059949128052168 
3.1399893666343246 
11.62788019187288 
3.087989302781342 
3.376350893058633 
2.835823944169781 
3.0892406484680417 
5.449028649281127 
5.961946324157618 
1.6626501169470598 
4.296142811726246 
2.781686331563091 
8.63412677393367 
12.225273781148143 
13.478331036275181 
2.626071046860464 
2.900650648907062 
9.686315210957353 
11.733754943491379 
11.475921820520432 
17.830992890115482 
25.182965617651906 
15.268833172651412 
13.857272582219071 
12.810883668436192 
2.784507954782366 
3.272641990578982 
3.127945317896081 
25.233088039331417 
2.9516365511004876 
19.698172204123356 
3.1492641332350724 
2.6356578808420585 
2.8276720259373898 
14.5438044370884 
3.1761162495965434 
10.722957990272652 
12.259423827817589 
25.079904142131255 
14.783427469648379 
12.565548383508181 
8.787134189822272 
8.604252262375702 
20.506095544643678 
7.880000103848058 
27.970392343164765 
9.472636912736757 
3.157492689736955 
4.723739933310806 
7.890116908130758 
13.96153007147647 
6.683911224117764 
29.96105416130366 
31.362426510511145 
16.081692888111967 
2.1284502606751166 
12.63934766888416 
16.27350317564987 
18.5635751651399 
5.964286497243222 
18.33297815360372 
21.835878128101793 
16.188484265632972 
17.08054840640509 
2.237043228750373 
6.588471116535139 
11.817756426896022 
13.259351736644533 
13.320442657804724 
15.832990427980661 
3.2916670475187035 
3.1822758755118934 
11.81030572365869 
2.437256955699678 
5.474782989200552 
2.5011543330180843 
2.867556965322907 
11.950379645413795 
2.9451072315578464 
3.0951424034919532 
2.9014251372384083 
3.4354353326946687 
5.889690298606388 
11.369835571212318 
3.7991788373094577 
3.0769315576201173 
17.564051071514754 
4.9197800565089524 
23.464339447165184 
3.1755055516309256 
4.768804372165658 
6.426487625411753 
7.93263618216984 
3.7338492815558726 
4.8800228625817 
5.294002609237192 
2.3724211064156404 
6.1885705853196535 
6.143604281199777 
5.494461103017708 
6.5088482344653045 
11.842005533045825 
8.748886190096401 
27.077334406301798 
5.684944343961015 
5.5121503551939535 
6.996057358213755 
6.961605315802968 
3.3965875148431777 
20.34365451581004 
15.873062428069346 
13.270120975796758 
12.084754934877992 
13.699877655073482 
16.20064619892726 
32.15884289282635 
2.929679395014726 
9.001940784116062 
2.9593174720602224 
2.9118580029904133 
2.9653807050796 
10.076351799764359 
3.2201137939727285 
13.477914434228685 
11.242941597708965 
26.092937059662013 
30.63569910076686 
3.04480897306387 
2.6857553561869785 
2.4372569556996795 
3.31375611785448 
3.0508783105074078 
6.944142573019859 
8.96961865057875 
5.0331617139065195 
3.6299107306566856 
5.140797291094898 
13.620534858740713 
5.30506086723553 
7.84468332353777 
7.132846910221588 
4.4402632801882955 
8.290354290801998 
4.770204942199309 
6.993508176990051 
3.926400578242781 
4.062513403572377 
5.875653589998314 
31.7892327312105 
6.999933211540074 
4.104075562290395 
3.4075031397625932 
9.443044584567563 
5.77482546755596 
28.875822336792403 
6.645580187086322 
7.905620301655069 
8.663297818128463 
8.60481352887302 
23.50132869442481 
9.681512515109558 
10.161665984449458 
29.243706213752464 
4.083013942537649 
16.424615479093138 
3.8798202911728636 
3.2633281540434798 
7.982946138452077 
3.9006117234121875 
3.293559636611423 
37.682832255751265 
3.2556654767888786 
2.796087972450271 
2.603327056182073 
3.29000454701407 
20.89454777158277 
3.3224312438959958 
13.590223372502924 
2.9212098558939945 
15.700296971633296 
3.2602331148457693 
21.908235010050245 
8.830337331838333 
3.217347226168325 
28.972790997084594 
9.752529059982006 
3.463961520762898 
3.5633041278731388 
31.02380893017318 
6.356094522485856 
3.433134011569798 
6.081086371325325 
5.53467867899246 
10.13226323786053 
8.231755192902966 
5.724601521984336 
12.331175883138975 
11.481498713835341 
12.626788400947051 
7.933781055791969 
17.66209241239719 
8.314339094236136 
12.124193685105311 
31.458173540289557 
27.280825446675397 
8.884026850109876 
8.175243483140543 
16.038777899002998 
12.898664865968021 
19.331399311505777 
2.2939951259601665 
2.3569913349874305 
19.443888519477447 
18.732532935955327 
18.41395402546238 
16.37438974061798 
18.683349372548225 
15.890320913007304 
20.061816949104042 
16.286807811565257 
4.728727703101163 
3.2607872526461685 
5.415702860815507 
5.014063420281984 
4.472141850723634 
3.4807729304804074 
1.3438793600379952 
2.7848690397410536 
1.8942712724008135 
4.535021446853664 
4.604254056658215 
11.41571877538085 
8.385992307632959 
4.497652957660955 
4.649983558629063 
3.433197388199108 
3.921723173355941 
2.617711415067258 
4.354863467488922 
1.9212118905708413 
1.3648500820640985 
2.3668214780835948 
1.4900382849824112 
2.8749323914786817 
3.5766120363565137 
2.4724297759040295 
4.425483463904707 
3.319592812804632 
5.769284874688945 
6.448077074338912 
1.8031353867781708 
3.6272147489845863 
8.331192196321153 
19.189526289011983 
2.692734677212485 
7.81332359738544 
3.3868100652264492 
2.599321119579276 
2.9864788393212134 
2.944537735735598 
2.4866071843811173 
2.0368944696536673 
2.880558383520841 
14.67498072382478 
7.302812978693439 
25.1788843592408 
2.5446876769779947 
1.9626791402694639 
1.7783881198102953 
1.8477021998032848 
2.0371327878853402 
6.114532254637512 
18.07895851712365 
8.01183957327125 
8.99493826798042 
2.181475611280239 
9.18521338896332 
9.42786933158403 
1.9079645508739396 
2.264188003309298 
8.916848895502307 
1.6778349294696149 
10.198129003586788 
2.343522778353839 
5.67333712757385 
17.72278589372117 
16.73526519625425 
20.76459935760479 
2.12727762219379 
18.342387731875025 
21.44253270262274 
2.5600230813605886 
18.04891625767362 
3.4266924441521316 
4.416947781241534 
1.8124833802558165 
3.234059974561121 
3.1630769057660113 
3.7079014214961106 
1.79374915286217 
4.039274738529592 
3.560599339761779 
2.164718940077781 
2.554077321855174 
1.6474877332519615 
2.7792205011245312 
2.1982292783522674 
2.145762402707694 
2.961590123174981 
2.9740260147079565 
1.8356052186916005 
2.464661623715532 
5.928950020708604 
2.883983271458487 
2.508833355037423 
3.0001904958910797 
2.9383249923576957 
1.6712508034688294 
26.30898288439867 
21.37871405233887 
26.035999754930703 
28.586578527013412 
28.17246832434367 
3.642235518704094 
23.41712857433493 
26.451552637346957 
2.482912772788621 
25.32121824313785 
9.333208420127951 
2.3580460450827854 
3.841133908228134 
16.173230149223496 
7.405446484746499 
8.681819932983919 
8.705997638259825 
2.5051400464183367 
9.680024905862668 
5.9681401466302875 
13.680737019461924 
12.603186280960196 
2.2121599250424993 
1.6563486235981812 
2.527034528939509 
4.437198391882127 
6.654482346217913 
2.442176981244954 
2.5737735368431647 
14.094426913386437 
1.8494348321103826 
12.952013824343778 
11.559653894281656 
11.85858781657383 
3.0738420182222845 
2.158724839850621 
3.0248603601405337 
2.2663713070169673 
1.8387118534983846 
15.217675771541582 
6.466242355465016 
1.598025429720759 
2.914211970128136 
3.836092484041292 
9.928440190402595 
3.4271767994220728 
2.6727966890860575 
12.33963205817 
2.077468698466801 
2.3396721153405506 
1.214508020621667 
7.730338343842028 
4.783636437866632 
10.033516197440433 
1.4791425162931962 
3.7606489430794503 
6.775392215351838 
1.835604290022578 
2.147654416520092 
5.977308448892479 
4.497590035775307 
5.466906758660942 
2.14962661467771 
7.128080568658454 
2.411715459229698 
1.9275926859108676 
1.9644511221071952 
9.896966703249511 
1.7775092539990758 
6.0563852857831435 
9.582150983093852 
1.7301086792163023 
8.793549073300303 
3.677356907513834 
3.618185111083662 
1.7688043125091717 
2.3863043733688394 
25.036794306935064 
5.114105046489729 
3.3043739805416465 
8.110625954698222 
5.782864453874198 
3.827477595899141 
1.8921926398420676 
2.3170291463044723 
1.8075571882392623 
4.391215000745201 
2.132833673297814 
2.8234898419416186 
12.553775804235768 
3.22182388740983 
2.2793598337286882 
3.0358822956064717 
1.7770091586998709 
26.717226106951713 
2.276457409232748 
3.88559199425782 
6.319597288996381 
2.2012041990934597 
6.065534535579727 
2.614221209403312 
2.1669262493393466 
3.3110283147739814 
4.418246811765642 
3.3737936359561744 
3.402149691195895 
5.931102835920739 
3.3036812167847245 
2.2139398469394123 
1.6795244441003265 
6.189309346749273 
7.923250333992388 
15.58716444192167 
2.091454138437759 
2.035618984416147 
25.74313232444639 
3.372364282878699 
14.463072085306132 
26.302140848511637 
2.244162868817435 
21.517036703942228 
7.462028579477328 
7.915046404446703 
2.989163096184748 
1.9284054140064775 
3.4362051332389942 
12.533208898362778 
14.954940270427644 
2.0628028835413312 
12.839718272510266 
2.7138149355775294 
2.3517622425067253 
3.3345392848363464 
12.941259310556184 
18.700873436436382 
2.591905850566568 
3.240512701006855 
3.28579224288695 
2.5543283537362385 
18.704601632180882 
16.204091580678625 
20.80836277487707 
11.206245201556449 
4.5398775850277895 
11.792247062507169 
10.569953838647628 
9.184138289164723 
2.57949364396589 
3.8855591513687058 
9.348977384362579 
2.703329199400068 
5.660216414085721 
4.057529335227218 
5.280744629875514 
12.68226854732225 
12.715952949416165 
2.671379841709895 
1.8107463156602652 
2.7315141396495637 
10.666531722268571 
9.049077868982517 
2.75801141318525 
11.269317233988728 
27.185798771704945 
2.790431826340689 
10.434949584077998 
13.811069214023624 
3.931751683297614 
21.532781621742583 
11.084299369105304 
3.412863249560397 
3.375792299516745 
3.1998274185554525 
6.2734408582447205 
6.798201131459142 
4.715496522635193 
3.382004287158756 
3.294398152791794 
5.867392688130078 
3.0167033814544975 
9.698479580109124 
3.27467495682071 
3.6205048188957707 
3.1656557699370125 
4.608025908426295 
4.805197777310552 
7.855303127908249 
3.215471930996437 
3.1909510556458396 
7.208971137779264 
4.906889722586741 
3.847169090960459 
3.872290045909087 
4.443902954741626 
5.281741372444001 
5.454068899529904 
3.273967911741774 
3.5708694585637 
3.9360255222627205 
3.6180574042365925 
3.7964859336580656 
4.394656736708562 
3.611502053198671 
3.1914401764040834 
4.548140300809535 
3.7822226881365757 
3.4475011806366336 
2.940405741924081 
2.8880010875949487 
2.3660239393737696 
2.379019764217535 
3.993154002231988 
9.628764615588766 
2.2721284959198553 
4.673393466167489 
7.226377532378239 
3.281638640805076 
3.9906096218495706 
2.7954672704129173 
2.863333369172986 
3.0536193380775862 
4.6852284192236535 
2.49163984315925 
3.0772656972910584 
2.842000418460797 
12.139368970276582 
14.60862433684744 
3.90470237527813 
14.224173733609167 
12.613936840166042 
3.277839371361685 
3.456471505774905 
15.300700768822706 
15.322632694609823 
13.481332224507732 
2.5004834288264326 
2.2495909832799326 
4.62328060418809 
4.3158545922804015 
22.20568480332807 
7.205441808469217 
2.669150645330329 
4.683835605301836 
3.2931316597071003 
23.993971635263506 
3.392934219746423 
5.342987136402152 
4.146727754867214 
21.711583472880744 
20.07968718978552 
20.76135459346785 
3.7358733914456597 
21.990617099316783 
3.7998103538138093 
16.230815319621115 
3.832791543237417 
16.904548557012788 
3.283249207156778 
3.8522340444508583 
3.382688868282612 
3.3710034983816315 
21.89271955158368 
4.424003240003713 
6.64610904974224 
3.974270554696526 
5.904513518137848 
3.8327550695423 
4.519403465916987 
3.951104234125424 
4.608370907182493 
3.7371572197854674 
4.705541385968775 
3.7323136761133098 
3.8388950380579066 
4.205213974186307 
6.452996971410722 
4.681676471570781 
4.599721242617146 
4.0324307814717 
12.852717918169263 
2.2870402433016332 
2.26784312491781 
1.910977715925574 
2.2188355097438475 
2.3958541961726803 
2.2327284435637433 
1.767938277004601 
4.038706176096969 
3.2792303183534046 
3.249294632303837 
3.0693369786695683 
5.2577280755691085 
3.011687160091318 
2.7550274541968873 
3.0223567961186704 
4.598785736863067 
6.625917754861976 
2.6739533466032075 
5.220346641743496 
2.813321760407471 
5.292211176634118 
5.942102763969488 
3.394301963384265 
2.1080481770309936 
4.413190063767921 
5.634199187511202 
2.0889931314614185 
2.1567134939796393 
1.9976344836703532 
6.000697539816268 
5.1593225794612545 
3.6177713100304465 
3.241658078126134 
4.4850180867204 
4.540882499093581 
3.2859739038366773 
3.2452606908021604 
4.135317596862805 
6.614040694210431 
5.136219042779363 
4.126833664552743 
3.076177820538592 
3.2020880467214847 
3.8157964873170345 
7.361545609698273 
4.738380380397004 
5.325671470032007 
2.1230121596695226 
3.2900314225690193 
5.386814763439404 
4.572737458832354 
4.6039854426144275 
3.118022042132732 
3.2813070002518443 
4.66201761747455 
3.126655146694384 
5.355105443390617 
8.313027386308729 
7.408694533053859 
5.8006877947370565 
6.010816323690822 
5.542351289144458 
7.0910594525775785 
7.571267065239244 
11.253118813744384 
4.697664121923115 
2.123514270897237 
10.190760549942421 
0.7730200515468117 
11.072498139119253 
5.986895408073601 
13.259689477752678 
6.296646715088876 
2.589102528952525 
7.996424894490738 
8.520376913931571 
6.787832967102734 
8.333101216098028 
5.929437755824649 
1.7551730626492479 
8.046157590638812 
4.693152699896926 
7.9773745627390396 
10.965487407087096 
7.395771017780306 
5.905171970848206 
7.155145315601822 
0.7548464904129395 
5.2160467224287554 
5.594201059289722 
6.186205797085251 
7.887907700779794 
7.445776909163864 
6.830387192051554 
3.6326077940964367 
5.34014320819372 
6.103084425242612 
14.58563116096539 
5.3072223771726055 
8.964006405888718 
7.646948018945728 
7.357754331010426 
6.091952040316733 
6.132189276425947 
4.216127945564302 
5.70204053955561 
3.496163511708584 
4.0792137417618966 
4.594330370699472 
4.189367330926819 
6.6628538097328285 
5.0027387071010185 
3.4480735148888844 
3.5210269485708885 
3.113875236003953 
5.300167713847877 
5.16383297853708 
4.529995612320138 
10.601530962181473 
3.0291833686197895 
2.9374632086192545 
3.7401342840997374 
3.2821015012552044 
3.6656101667621934 
3.412534800600489 
25.53924453951122 
8.640184661953095 
4.868143346297012 
7.349958334911058 
5.564741618179777 
6.004393046111145 
5.5559071559472635 
6.151431605057556 
3.9814257729644824 
4.87899040973161 
7.279782583044057 
3.7768341564735333 
12.086156361536348 
11.556022256341683 
6.71948335101079 
3.7196377545309876 
6.651346724168623 
12.105081825504096 
5.372694887789016 
6.069814249877551 
6.065245567034333 
4.176566766848526 
11.009919805702589 
6.619697365805553 
4.091450610485802 
6.292799393239333 
6.021408106382497 
3.2661480872305333 
6.125843405151921 
3.5672806873620337 
17.646252257938205 
3.1100023222883464 
6.191369472050625 
16.801088567158562 
18.76661011274481 
3.778558751250348 
7.64616539469901 
8.969317520261004 
13.723080573100578 
12.837006182936115 
12.585766796906979 
1.735749431299687 
8.569278046410826 
2.568890633784161 
6.073620672158158 
3.7127863655146793 
3.3514140063411526 
10.663976603447228 
8.949506849952106 
5.991678186058935 
1.4712230981115482 
10.415183110215661 
10.380510672977989 
2.8601244935164547 
3.6732628799550326 
8.351877083490779 
4.206562183607638 
12.18193671884088 
12.685116102407362 
6.809230603766352 
6.730748388120926 
17.462895707689594 
10.0713278998145 
6.639523213022999 
7.345837028211978 
7.750317205743389 
7.8050771128826835 
3.6193832044414567 
3.468955487917347 
25.598499829286183 
8.17073925035528 
25.062462416863866 
6.670426967142593 
7.319071930901702 
3.0755775050297762 
6.649453596174272 
6.622943137460765 
2.6726228522732667 
2.7659302273339628 
6.821103364934665 
2.5711247475764165 
4.368706996824879 
5.199498598881783 
4.755463718791449 
3.1719722195171056 
9.368534830393738 
10.170846695152502 
3.5259630176753443 
4.666155752415201 
2.9368980478296995 
6.645855763357534 
2.394980419565352 
3.751692678869325 
6.389701803327919 
4.72017727387326 
8.014487192448378 
5.203697646784765 
5.409348608149038 
7.444896582965148 
11.497782377931795 
10.874473399084907 
6.7442959386325985 
18.535117296781493 
6.7965712998937455 
12.807465718952903 
3.8552968894820467 
6.714907550944398 
6.699886056507016 
3.91668779310203 
3.3796476989420428 
8.1583971123868 
6.204667388132904 
7.503832444367552 
6.826657267370484 
11.30184209798339 
7.894292805968922 
8.887239222290612 
4.486372684124776 
8.493303405710211 
3.9202296901263245 
10.073990821048366 
27.20507154610858 
6.749762700532947 
8.112266146658028 
8.172569926504284 
8.47450699705779 
4.871291888860219 
6.983699464765835 
8.152098124665525 
4.521202160065938 
2.6978510149036 
4.218737436183662 
22.56700130509684 
8.068228381298912 
8.652482885383519 
3.1231857201296123 
5.093907441605384 
4.447114188722313 
4.958635836908022 
5.963030119258539 
7.897280629524648 
10.082037014943134 
3.6522771552261792 
27.81082939613455 
4.689889909910709 
4.572858947188599 
5.742374253540133 
7.531753760548767 
5.7289080592147075 
7.6195031365405175 
5.85926703288431 
7.827761989315453 
8.714978416210936 
9.571205815681106 
8.394051856551153 
8.067952908840603 
10.254834877894542 
7.757475576060671 
7.423951850770576 
15.736120576071364 
8.249973122926372 
8.76066268368614 
12.58460648421758 
10.386199975105502 
11.635462966816572 
11.275281230824271 
7.401156075907226 
10.948779591120639 
7.502266580754914 
8.75348480052349 
13.46853072965409 
10.809109574649451 
5.716348828529658 
7.646058740976942 
3.0299959134049828 
5.5511184634182635 
4.56904063826123 
22.645104935948456 
8.726141622523441 
7.029342569561846 
8.05890070302631 
5.203599168067439 
10.207785023686819 
26.972918516298044 
9.295709980625169 
8.719408194885798 
9.538414406523925 
10.563575995548902 
11.540942347947691 
8.608470888998818 
9.49808008167867 
4.7443838531894285 
3.2325563112424183 
8.732928428437946 
14.060588239659422 
14.595333374148924 
11.419102885868874 
16.688028061492748 
7.373131160311833 
5.988670247520822 
10.807997789887635 
26.647988983327128 
10.778192390657404 
11.34901932479371 
8.065816300668855 
8.145359838169592 
7.274961076534336 
8.829507476282773 
3.1963095465803106 
12.925324258630233 
12.074162727346838 
14.948955764634714 
8.193064463305287 
8.754854386049645 
9.010101579397205 
8.18129857890298 
19.84341154284126 
18.373846731035417 
3.5670725770272393 
8.155692377680067 
8.829411967076961 
2.611715045073143 
3.6740159052406494 
2.665536244837948 
2.7406321879063187 
4.340196252750792 
3.598424257627254 
4.892941204878276 
5.26890241009458 
11.012148294661404 
8.533776211656548 
9.3372323424894 
5.513011631768533 
8.674476963899966 
8.660309736103676 
5.301436375187843 
9.031855302750406 
10.73433254441916 
10.520500061807484 
7.1838647778690845 
9.791250625585969 
21.60342252442987 
8.984605953246168 
4.644013851221146 
1.6531533803162326 
11.062398928458014 
6.265739160152311 
10.11345012212664 
3.2864400502351256 
10.266910596776931 
9.829732784622976 
13.88724929695963 
3.5054010206106856 
8.86536075475705 
8.139238223862034 
7.045901187857207 
11.842026577918489 
14.546292629742153 
17.111104964798766 
3.209262741346942 
5.979168100844433 
13.8513583801421 
4.73600579402371 
9.425512020259747 
5.775141702704405 
8.421892689653816 
6.005142478053967 
6.031614402647991 
6.689092651497572 
10.316712537340337 
4.006891692026378 
5.737844375363738 
9.553899941332805 
8.84170807977233 
6.304859275246076 
6.056595589025664 
5.956603172826234 
4.566684831928984 
22.97216957290805 
4.8711743022423155 
6.748956957020848 
3.5539786628626326 
9.536204982049712 
4.240331998716975 
3.879676177613113 
3.971342654242795 
23.32331583829539 
8.085660890939405 
9.96185070813106 
10.345580210319508 
9.886422163514839 
11.000686680123522 
8.973673175665278 
6.217299057657727 
10.112697840248186 
5.102080224940758 
9.459324899525358 
13.621828692739735 
13.104067097077584 
4.568555458667011 
11.68715294993043 
10.765607152586277 
9.501569593562987 
26.286424603597343 
11.653073640715856 
10.119461090137671 
17.866558903655914 
22.231036460090593 
4.089665187716196 
3.06380879686412 
9.472413832462964 
15.738023398206495 
5.12423468587255 
11.01273564936915 
10.27866202608035 
9.479489367859355 
3.428320689002261 
3.3355847911778245 
3.5697358834890855 
3.6624130100162575 
2.890111700210078 
3.9569075198723414 
9.217386002514033 
14.677523003161026 
9.931213789282753 
12.049783885190587 
12.634442959488808 
10.177116438649312 
23.245223141125816 
13.88833489875113 
7.309756788522076 
10.235396915101488 
4.631673270332365 
10.959716465332686 
9.209364466833124 
10.905427631641976 
11.299292407318461 
8.250150472410752 
7.641645143104942 
10.835513042730451 
6.586608537081871 
8.399213568603768 
10.448780057169044 
13.718223556182156 
11.166299032598516 
5.0619100109145965 
12.38116839588573 
13.714150695449197 
10.271343076801742 
12.325223802374992 
7.089536685070141 
12.264449687892998 
10.179084950374857 
7.256104754337578 
9.513623059930605 
12.054071582592703 
11.735471130073792 
10.9901937783846 
2.2647317808910192 
12.089463178217427 
11.399678664948594 
12.247332186379234 
4.138318730068689 
10.27518699978705 
10.373687971546145 
15.315462513118998 
10.87174339977339 
11.613889453295885 
19.27636204148556 
10.21072724791307 
11.843343962771774 
11.529133644027333 
8.634562208464244 
13.637171442130775 
16.407943891786413 
3.615398748825204 
27.280120546654068 
3.5316603080580893 
3.3218702499919996 
2.3397021508339955 
10.764022923201342 
10.840789134260326 
6.1726707518003385 
5.27716630127476 
4.665800957350715 
8.95877707519839 
10.44201032899471 
8.066025429073061 
9.969548979656853 
11.176661184033707 
8.849300787974649 
4.04914699386096 
6.617372321543367 
11.585130034361198 
3.9878301369974087 
8.36748628743544 
7.0277205200471125 
6.5926842066916596 
7.170342029869154 
4.403842689500751 
5.913111351578701 
4.282910144030378 
13.037283970787628 
12.0284133229268 
5.329631110664772 
11.593773587611777 
10.8891895937138 
9.589185340654607 
7.956048253641204 
11.47830602822374 
10.843633724431427 
8.181550056767419 
10.176687721397784 
7.582339376268236 
9.363931152105232 
8.872078340697971 
6.541453813348309 
10.786040077301148 
4.385362393101279 
7.102718843962275 
11.754945071691132 
5.316103146277894 
3.744855719034734 
9.274863464120786 
7.101280289885916 
6.870878358485883 
11.995394227400777 
3.0349143053942003 
3.4262000814262783 
6.093168636766184 
12.054637142176102 
6.325582792207962 
11.996561826710655 
4.186250147898411 
2.3573119776684788 
11.706577113484833 
3.534501572731595 
10.54907126969389 
12.172902503383924 
11.482775862925136 
18.46235966098924 
12.88591002942491 
12.046066443752688 
11.735251212779986 
16.436509306183712 
13.157666504993134 
5.165322251689387 
4.735489691361488 
12.156257302513284 
17.11234301612068 
20.2997114820176 
11.640707248575778 
19.918818707781128 
10.811448790318552 
12.0959825608377 
12.111404795389237 
12.377688009796143 
11.887294746868102 
20.83332669159262 
11.709406135091118 
13.354511281922138 
3.7502331155134883 
9.817433870891884 
24.02735291847312 
9.555703191198024 
7.891953494368607 
19.40218700438153 
14.580569086641683 
19.257909105362792 
22.635326807165825 
19.139882604496147 
5.964297415494628 
23.393255536070644 
19.736777938421625 
19.67164537917692 
13.405069905653876 
14.373592333820152 
9.210239619320008 
16.14589435329523 
9.982287568559341 
16.148495665632915 
12.173682054725418 
12.25519540638123 
3.455787187720902 
12.994470989826699 
12.779161707608944 
8.534943094965703 
11.465030866185542 
10.686962892152103 
12.291140712986765 
3.4554315324701554 
11.10748506352814 
14.089864024001008 
5.997531999387182 
25.37450021703504 
12.96639230355475 
11.934132139946081 
6.0261454823756315 
12.338033638653743 
13.650303276759074 
13.532161274879241 
12.273102044506855 
4.774750928408438 
10.165532542077141 
11.477675366053733 
10.76750332849993 
10.030229129442235 
11.956468374274804 
8.263219023524236 
13.013081638696312 
13.671698156114019 
1.7287547594265764 
2.9701289336777963 
14.95312324989348 
13.429564953291187 
12.306482419274834 
12.497516438048276 
13.198441550787319 
3.394095243948225 
18.494219735370677 
11.116646160031884 
6.92322643702939 
10.549913767016928 
5.657458087091368 
13.770179834828374 
13.090500211542778 
26.44317047799368 
8.36761879453641 
9.115872464877583 
15.765553156241984 
12.46832852246622 
7.124147518573514 
11.654805705178758 
9.859840764157587 
12.27064343313323 
11.47691292106558 
13.006249193014026 
12.955526894175145 
7.842637818635067 
12.656599163144579 
13.711000805106975 
16.376834889676715 
11.393496799298447 
4.54371688799386 
13.291055853817237 
13.067828985060082 
2.6028414605704704 
13.635623147718736 
14.18181789630228 
9.440621706976382 
16.280623596075632 
18.766729007558176 
9.59010228421417 
11.404703262301789 
14.457390806568503 
9.753950963376326 
16.401908103420155 
4.339971202534424 
4.698910571107223 
13.197177486554487 
4.328799679688519 
3.8351276351656938 
13.687861757666635 
14.408367401108807 
15.00760143994846 
13.321565293090355 
3.898184655835533 
3.093285329275016 
3.8170583121528145 
6.589017051218654 
15.863399323228618 
4.10638349432251 
3.2518855934729647 
3.989349001542432 
4.378048541979545 
12.877978464734197 
4.49915189829675 
3.5438861800101127 
13.404084233202504 
12.04617962028495 
13.905492691566788 
3.2278339381732826 
10.652209415026007 
12.176559178318781 
7.561064116339399 
9.5620778067467 
13.695364758704528 
11.551415865259367 
6.443334025708496 
14.285307602461888 
15.236423901065335 
4.503947136878299 
12.21925936049196 
2.449338333007221 
14.893668694256247 
14.546191756881697 
13.692689666494344 
2.806421858137294 
10.28920046410961 
13.955748104489317 
2.9461745601324982 
15.236986819228173 
2.660132252432337 
12.366837513319874 
2.6656691175998954 
2.5058436347251063 
3.577353053458774 
14.37078359210547 
6.641342557356789 
2.8133478795119182 
13.62029041916571 
14.437245509641578 
14.479314477031854 
13.714407122356901 
3.6026325115966067 
10.560263538854773 
12.055753834919212 
14.793432357234362 
10.98190270810071 
6.040512377949704 
15.322341938084413 
10.073978932746797 
9.38615560587925 
14.469783861503592 
12.734514078058607 
9.12865166826589 
14.475885794731557 
12.92224005296082 
13.177691378423262 
7.594444875661977 
7.875471648273913 
4.649137703459047 
2.0662131217340916 
2.4221368175462854 
15.550143265738406 
10.043199456904588 
11.619402048896593 
14.30759693931476 
14.453639972888547 
2.913163359214788 
11.9267262000825 
2.7011481480805006 
5.8118505733902746 
3.1855610265431316 
3.1388974658133026 
3.052941282761326 
14.268805954275114 
5.270435115407037 
15.432300702917265 
12.934690693740446 
10.078089537478489 
5.474396786448332 
15.172401121721881 
4.890800481413313 
5.072994458133692 
4.789278903913549 
15.6049742832883 
14.433555492825926 
4.038241256969 
5.052520752904232 
3.2991485121278723 
13.374383707790892 
16.271462567849014 
6.774427947330496 
12.311655371297746 
5.082689126135568 
10.886542801510686 
15.224312200711351 
15.759802366149058 
8.40587421429104 
8.701832777240961 
7.481002795819429 
3.9924137839432254 
7.996123812313588 
5.2785034554008625 
16.2005577242354 
8.093293023776262 
9.379208120160182 
15.958369166825115 
16.018227370344132 
9.060005144293049 
4.000744795330475 
4.929203313506612 
3.85632963557927 
5.406343710687477 
3.1528627291552014 
3.8502332671537762 
3.5851937621659666 
2.564878887384362 
15.583971629570222 
15.021104528031952 
12.792093235076202 
2.2473738889826023 
10.410309709722254 
15.756195102432216 
3.26197752942203 
15.277422400546262 
15.20511437962679 
12.935889379070785 
16.476514580757165 
2.9674206752606986 
15.247314795797477 
7.926815625054172 
15.827898128116418 
7.303608162356421 
9.438081603926904 
3.78335552144101 
15.040245917580187 
8.143593209344504 
2.993609326732154 
4.881928947540172 
15.048708782398519 
6.341093656101305 
2.4703643543049507 
3.6633043183174374 
2.678230589880275 
6.434700919324668 
4.832848214587783 
15.205912136801222 
2.9744380044941416 
7.809753743045613 
7.5890537746968505 
3.2365273120588265 
15.958192829213596 
3.1523568492077527 
2.970913112908464 
16.66467728703144 
15.7671170993164 
3.875446337745458 
6.9671355098803645 
3.221877586120686 
2.921037436026728 
11.15217632205818 
15.212396295091107 
2.845517687620316 
3.9370376997039775 
4.1669317444158205 
3.862868981657592 
4.215894765319777 
17.323264493419618 
16.619142126307874 
13.912251382131295 
8.902924619673566 
8.911599176377306 
15.846848621817093 
9.208847258781645 
8.317561430703005 
15.757893170029345 
5.18283812821142 
15.66723241453243 
8.359818261396587 
7.622431308628195 
10.232282046526686 
3.695327250385577 
9.230557055992765 
5.126632373817056 
7.872948583931204 
15.216620234222606 
16.508642024131827 
9.801769691573327 
4.696824400184728 
5.978602283328258 
8.301053655870382 
2.853098092481628 
10.061084551944555 
15.958444826751258 
17.64477379396157 
3.7028399443326077 
9.750420249002332 
3.1849385877510676 
16.620560334779796 
3.0763005956347182 
15.420830956475655 
15.33542995800382 
3.0613759838194103 
2.90714265509215 
4.307673918572226 
16.068666454867596 
3.774760715743431 
5.378875551516279 
17.421626712519345 
16.3705041608668 
1.7682806501118447 
3.2213050171388877 
4.339039336750138 
1.7645131931063107 
16.47652447164315 
5.031976161997749 
4.806147541959224 
4.047549697921924 
8.372774478777856 
14.845883106959182 
17.689823764258605 
13.844209763564367 
6.454482468169012 
11.215157771836259 
8.049646842521717 
4.6688537399274965 
4.77854908954536 
16.741144765274917 
6.253850185243517 
2.407182883404285 
15.975189880910136 
3.3588995685293916 
2.9473844189320584 
11.33942352158169 
4.873756355795503 
17.99491385083402 
17.050595465741672 
19.321290539827743 
3.4974268097879357 
18.4463912310979 
11.842654665487059 
3.0812910025969016 
3.0929197818104925 
3.9800902433411642 
6.203843315966244 
1.9621419970724627 
6.392387233927886 
3.0090414624577058 
4.10075508711138 
6.0499411247768835 
5.911205862692574 
7.904294265111629 
11.283519540967859 
16.310372108233018 
10.787745333130339 
8.1317724275794 
14.29314925213199 
5.398585787335652 
10.1897305839755 
8.517388768763903 
18.665882372921327 
17.328810281101656 
9.891933605160549 
15.042202549153037 
3.9797351821640428 
15.202277411383113 
18.365030128800054 
3.354706132074027 
2.7479406813860545 
16.003051425334334 
3.9379027813699508 
3.788511221067732 
4.3575975261833495 
16.933403368627985 
4.88065130887022 
1.9804937483732088 
17.7335667617964 
5.0279544652339805 
3.1802668340625195 
17.18856166891618 
11.53550818281228 
9.48790775153658 
2.4905535775064958 
3.076240396995483 
3.339006909606291 
20.372773921765894 
18.157439770903828 
3.1032807039222057 
17.8549445038404 
8.175048015068697 
18.17935518598991 
5.967524443102487 
17.523013094722995 
18.05634581057251 
3.139034879023843 
5.783226142349753 
18.345686755594784 
14.660596335525705 
17.870525172822227 
3.20272268241479 
3.29916384969402 
16.497376611574357 
14.524629346452036 
3.975872872199707 
7.192215706194365 
9.196520474325665 
12.433701751346327 
14.961952575214472 
17.726192968327858 
17.89728165051519 
19.55705364536611 
17.411929312321636 
1.08053764458386 
19.039115834898176 
14.882457789014012 
17.135162262195884 
18.042698361015436 
18.6627628001366 
3.7577122980481694 
7.391339499947144 
16.236229306458615 
19.099419799360213 
5.3789073380787125 
17.943272295010953 
8.703652141108797 
8.416466630246305 
5.63911723453879 
16.94116335699973 
18.577631663324556 
4.715982990265511 
7.971346394743665 
7.46040151677659 
18.726512077501546 
6.151845628579058 
8.922322661806618 
18.84556831557827 
5.80389321483737 
9.048027503638055 
17.77939249811522 
19.205622145496378 
4.270390269875599 
25.794859431962898 
18.482833511372565 
12.48719502227776 
24.72459150301577 
6.417654373046006 
8.076894761562661 
20.850551174633186 
11.963576092619768 
8.271493842344967 
18.11394170139928 
20.10203027922555 
20.27363511504336 
21.852705594033033 
3.426884332010448 
11.982509550344394 
19.07012393596994 
12.231388719422286 
11.357255998275626 
0.8408720497607369 
19.229919196646627 
13.286890306225674 
17.651320748448846 
20.333333014259875 
11.949369458242773 
11.970463627204218 
15.13083711101295 
19.503277481791695 
10.106179808840102 
15.43565103419656 
15.12937112140598 
18.67899030660524 
12.240327625088511 
16.53693114282917 
16.46317590371872 
16.92692598891683 
3.330734864179488 
19.176172866548242 
11.957565851809337 
3.622980584273664 
17.175569421819468 
19.943014862911152 
4.5414925499843 
2.995894277023677 
18.716746611151947 
3.764948814805618 
6.32275961642167 
10.60327768042046 
22.071814895820292 
7.150780928279073 
6.054904283940766 
4.012700075050263 
14.468207817510116 
18.713493972311927 
4.384234029392851 
18.908121187984065 
18.946904456208078 
2.407958587079505 
18.935226501277157 
2.7240418065382332 
2.444071940380917 
1.4101883267873205 
18.88698888315677 
12.484890917893107 
20.033184383648127 
20.099901161709028 
18.684415458281208 
7.190961871102788 
8.877669026996077 
15.523689697025935 
15.346773700538462 
8.456405047281965 
20.66154313913945 
19.618671781246775 
19.675235415058065 
20.802250846787096 
9.15608738835907 
3.1347452891799765 
20.354843075553397 
13.53105582780887 
12.494128808150762 
7.3803753363918885 
19.14092981900566 
12.726930544616293 
11.184570247980014 
21.06219040098467 
20.136564698295654 
4.503221277648177 
16.509720728536287 
5.44157166937208 
8.950089565764541 
9.053068203205942 
5.530073092864402 
20.64168226300741 
19.318155351190878 
20.031247841144502 
20.277744483128068 
6.559238342271174 
3.510072293310485 
11.285044334653719 
14.65450710166497 
13.128263375401417 
17.84658461988441 
6.166042661235053 
6.276397256726037 
13.650332874168772 
17.76709197258033 
19.6814655360803 
4.201095858932699 
10.2456839567202 
6.070135677330958 
9.53986702101565 
19.827434586077782 
11.76507297513287 
10.624509901638064 
11.7355324994026 
2.9858699348196374 
3.3433991210007985 
20.354622628878655 
19.63856741405051 
5.0341947320400955 
8.356963513949186 
7.553908046000429 
3.5860904945306618 
4.32131042909887 
20.234511666070336 
4.60456488010226 
20.115738218657782 
17.236974098704856 
13.109022154039353 
16.32764851503137 
3.8205578249758783 
8.13488491676858 
6.585878320846089 
20.11337811177507 
8.900114115389497 
15.043547278391356 
13.264272071409746 
18.7781259996642 
3.1138211544912218 
14.601710061212223 
7.032855145241384 
17.416375316075374 
20.921374391726562 
26.41375975561792 
12.176702537900987 
4.801028013626766 
7.582579301968506 
11.596769917584739 
4.651373970364001 
4.128550380160296 
3.6495856075754185 
11.65940402402831 
9.097478676579883 
19.9681552103958 
8.111741471165892 
18.106669157566277 
6.631087170710853 
5.263965358262824 
6.268243394806646 
4.926522308287743 
20.998181082343116 
16.119177851184027 
18.697736638675696 
12.13471905203399 
19.72197211696822 
14.396169895187844 
4.267513828784357 
6.153402312346289 
20.75047339772012 
21.362771089399928 
4.809566329952347 
19.507249110729532 
19.01457305878436 
8.523796729964259 
14.780831188067545 
14.371747302325774 
17.61768906829361 
18.17297708037897 
21.389249458903613 
18.39216053761776 
6.225789395279484 
20.92322729548013 
7.086371380033185 
6.288520983133639 
20.811171160634753 
14.09303966893562 
11.716646089537887 
18.94332100005824 
2.8075843085531766 
10.480422008117955 
9.545693868562134 
9.35983436656279 
21.260459500500453 
19.959357846446743 
18.69647470709991 
7.376058709172771 
7.626122420708511 
15.286359044110247 
20.867498377899224 
9.129365479915561 
21.019164718474144 
15.69111222658224 
17.3999465454133 
15.33563401755215 
21.12770854946203 
11.79629170927769 
20.418480681432328 
7.941419237660051 
8.996288506441468 
6.913048109812039 
21.000898728212796 
12.375146669231325 
8.083750388074899 
8.567963133643097 
6.381627574397902 
12.552910022188076 
21.892927820818542 
7.177199105942876 
8.674605506935922 
18.205913109584817 
11.967725817727107 
12.696286840227906 
9.32033113189884 
21.034717321023052 
7.4826753509976065 
7.945547277739752 
9.787345239890568 
6.298350263758032 
23.56551203804423 
9.615295026456895 
7.507284181907381 
21.37534345564459 
7.523031299170926 
9.98046656208247 
22.407654148420846 
8.724971280318192 
3.198406831619696 
21.388397351688 
9.626968670926221 
12.786171612217734 
4.193077299589307 
21.676595795853043 
2.9180584068084494 
3.0096300740555377 
15.403750368231266 
18.192851983825786 
8.537787143952292 
3.2990609125626564 
22.041069801324955 
19.966963212669267 
10.873689066147119 
3.5722332475626803 
2.7272074525992185 
21.276338744876064 
21.399645966702366 
18.72912477842591 
22.034740205606813 
21.594562839965665 
2.9320371592152004 
19.650737474767773 
17.91250379740354 
1.989619674408002 
18.73672123121611 
2.3782518733375952 
3.0799614857282553 
2.7997309141732214 
3.1355174879235332 
21.108666848738476 
21.40858174428843 
2.8898059136114216 
23.1042563847413 
2.9585282611658807 
23.238972112990144 
2.838532411583428 
23.24292482217905 
3.519496350546893 
4.301126844385205 
3.315615697546156 
24.11698088955826 
4.9084079926988835 
5.879928718351751 
21.123942518584677 
3.8086077085553565 
3.7972066192727 
22.031622464947237 
24.093255580398786 
21.932860307402418 
19.24424507035974 
19.24665499616472 
22.065767463936183 
19.859264228001845 
16.614717047115903 
14.398716868658623 
13.46537777692963 
20.942075175687453 
22.074906287232213 
15.782552090132853 
11.42828417768707 
22.939379584038722 
9.34640695406052 
14.621655282791854 
24.374369173532532 
15.969118159473151 
4.408930416148451 
3.2541883097101243 
3.224817867449646 
22.97331911294409 
23.568419769358847 
3.5217958430879945 
4.1995799883058185 
14.646553054740698 
3.7079153937050364 
22.055764599022787 
20.24232963679991 
3.3736241729987158 
22.348360501973666 
22.077373312196276 
14.005259033780057 
23.296228665198154 
22.062527903428247 
12.966707992707104 
2.5918071231244433 
23.244466096140457 
23.610690380264842 
2.7954449825606695 
2.8120541757276496 
2.976545395184127 
2.785292850398831 
2.7524330392749032 
2.647800143812808 
3.519336042917026 
17.833559087789297 
3.965891917757972 
17.303439113822314 
14.718758812175837 
13.795646651594943 
3.846468252316477 
4.815613079532356 
18.972557918463238 
23.6837794756373 
6.141850995099222 
20.560102044453565 
23.70611792997702 
23.11281049767216 
5.997547281392199 
24.240017933512732 
2.842721164860587 
2.110597602290503 
2.633819832406675 
2.4585385478660124 
4.786924670868116 
22.82903888735036 
4.6534455285722 
3.5767720822732167 
20.84859863108543 
22.449763913073664 
23.50890958940526 
8.99227111022701 
5.415568586780948 
2.775283947641766 
5.130298122992954 
16.262060690430424 
22.55775152107101 
23.206994877904414 
7.839345276944369 
20.771717853767445 
22.817983337529206 
3.641740452423337 
7.186198392840835 
23.30175421139449 
11.044386605109167 
23.719543829489336 
5.686669269194896 
19.257534503157284 
5.6650252863315975 
23.51751485089569 
14.902554738395457 
13.111510557806065 
7.1795551511270554 
7.073754571121376 
7.827426758092987 
6.0756799520280875 
6.095273931893098 
9.505392986918734 
2.5870913336684347 
3.4366501086509063 
2.722683101881862 
19.86106066025839 
3.119498639286076 
2.721960943021008 
23.72361901475942 
3.3193511249579517 
15.129144762713576 
21.336683620266676 
3.163076137196365 
2.942817958880135 
2.457105029241324 
7.857199730049444 
23.163585167983705 
24.282381574420235 
25.869791584352598 
2.771628283075176 
2.9978233235257394 
22.49475153312027 
6.9577238201776925 
5.669465935651522 
21.654005429319295 
20.906603006072412 
24.11555217220022 
23.72767547975712 
5.713670567892682 
3.6009480634819946 
24.306074151471204 
23.87511342904648 
22.720745660178952 
24.55685509060977 
18.741613659243132 
3.118242111713979 
3.957813648419683 
13.153692644993574 
4.808611848665407 
3.0582452773944864 
3.1403389850509207 
23.352512317376696 
2.7491727925972866 
23.453084133564253 
2.584594234346444 
9.55819630120222 
8.941751427600497 
23.60242299901404 
9.928623355822923 
8.85059724425642 
19.900195653792554 
24.305551030306383 
9.051061228450036 
9.892856819327081 
7.1591440666431945 
13.17556133053529 
2.9456169156532086 
4.467426800413934 
4.280194090510146 
3.0855219623732095 
18.049989293230013 
24.31874372720959 
24.289047254150784 
3.217676145509102 
2.8483413544009104 
8.9935277578627 
10.784941880000387 
24.545962831147424 
25.489488593133476 
14.138264488113586 
25.812872468832747 
24.46151598363592 
14.672468639526086 
5.31162619993683 
24.45515507729196 
9.039098862783902 
10.534684299193083 
18.392925798350618 
5.175327497994586 
7.2844071500597165 
12.425819896296773 
24.872807119541402 
13.356110093862812 
6.604647673138569 
7.64661511341837 
3.805962279651429 
24.333559103683452 
2.7322765971651073 
6.9169978978754845 
23.962898999869452 
3.764959074955248 
13.972415153203004 
9.392695658500221 
25.159815312055834 
21.46628112297355 
6.747910764761375 
19.887392560232144 
24.39447842270627 
4.6106034610346045 
24.66867621706052 
9.907283871286495 
25.06007110553098 
6.757684939633677 
4.856767706739021 
4.7971002362148045 
5.033376862212153 
24.391262420253096 
3.081079102569519 
24.472521113024666 
3.8596470633503137 
25.79373566950366 
2.6175048734132416 
3.3652146900097053 
24.464898289145857 
2.976714183829404 
3.940288258775331 
28.33786672758711 
3.3200403340464404 
3.6921281372725656 
24.377931064240613 
25.64109588787458 
3.7895779729650254 
3.981856804075457 
25.10637239147682 
15.906865254908285 
23.12148087114574 
4.919025509069735 
24.61577281190557 
2.6930547784247585 
16.99706280662505 
24.906139237337356 
11.297998607889571 
15.63962205417616 
21.450808337562904 
25.520038043654033 
15.298468398397194 
12.834876861494724 
3.4568782981549835 
10.761047671708287 
24.803192013704308 
24.341516454277695 
25.46457402859009 
26.34827495462908 
27.132876674243878 
25.461801036037595 
3.5092478734875194 
2.556891918150579 
25.578864060265296 
9.876317260348767 
14.089524580334713 
25.048799311056978 
3.649639826562661 
24.69854773203866 
27.91881351711873 
24.968554689630004 
25.85675481972855 
3.2466128444396727 
2.8198530301157883 
4.914039366963755 
26.204271633988952 
25.153047341329046 
3.205708743275564 
2.7714379675823384 
2.0461165224977615 
10.349405198720984 
14.984689335585621 
18.02607709482386 
27.293815166911305 
25.408103927421834 
15.491141765030507 
25.5310911671828 
13.259756162585438 
25.262385634093693 
22.989566031104225 
19.749065275555147 
11.491768801676052 
26.945511827039 
22.144368702428228 
11.247011751288634 
2.7632431138639197 
26.302687288474782 
21.13385401543255 
11.9181770040803 
25.17482490217379 
25.182035000762173 
25.578724611942903 
2.65009205676326 
17.105983374988543 
27.083058375989154 
21.077852081225537 
26.611342908879273 
26.26993388803908 
2.6010844511879445 
8.315154711757678 
8.77725186588829 
30.803350413805454 
16.660379061866458 
6.2200754158112685 
9.610448793061101 
6.785837062964612 
9.315977762403648 
4.9716216634596435 
27.11199689487672 
4.065184840803347 
11.751739749329301 
7.4190116122303476 
27.17329481216711 
11.800625150695907 
8.955305370130166 
25.55143921826453 
10.856270703112617 
10.211085960690712 
5.020744226536079 
26.48563165440325 
27.200809494831184 
3.949957299194137 
4.061585163446938 
5.503826907457257 
8.135219877257903 
8.736028120313295 
27.574870515745808 
26.467650158188178 
3.9810200513651512 
26.44563467807076 
23.14578453227448 
21.73893620485077 
26.53834850293317 
16.70080102546842 
15.04078730070068 
17.816401133094015 
27.041187187351504 
4.673568332277069 
8.747537238868716 
12.282087339051255 
11.665460875968911 
14.407781471754387 
6.755206212075088 
26.158008656882735 
4.821915339238689 
28.76229791652251 
8.931624415288008 
27.01920528317304 
13.417780981519376 
20.322034730274904 
26.451156282359616 
25.12763016194569 
22.563410658689207 
10.815325219087692 
26.157938748310784 
9.856720696502979 
9.075847040088103 
26.538841496549104 
8.922745405843628 
5.845786578442864 
24.952584228158656 
24.609794151458285 
26.93929186857589 
11.638991598148523 
26.367520799941378 
5.513629141267486 
5.674836202420133 
25.28628474274183 
20.80628428458723 
10.813558516781915 
13.732530593683805 
15.256586345982262 
6.786931939129318 
3.95369409985338 
13.492836556195106 
29.319000299091062 
21.217457265613476 
27.120532111826144 
19.20993431513806 
13.02024681051826 
9.082896270977399 
6.1692150294599 
3.988781331114756 
3.053841677583525 
15.343172930036154 
27.025284810596606 
20.12924737240309 
12.540020042345082 
2.6450136944932328 
3.853758250639984 
23.4668441517143 
4.499195582223036 
9.68812423552403 
22.932690800488192 
24.118816506497236 
27.50599147405629 
5.693881782955489 
4.056710329938972 
27.13249764445882 
25.450679178897357 
27.635116755793906 
18.51957667198156 
28.496462531746946 
4.152770084476905 
26.933858873257865 
17.64652462395208 
5.671609559389726 
27.464583520576497 
26.98268009489934 
28.75722191322932 
5.191934036593956 
9.762146808165744 
21.20880859673842 
27.804834706701993 
29.41052407966042 
8.60304042277406 
18.131941474547812 
5.321567225921752 
11.248164395385182 
17.108788626000987 
27.947622121057044 
28.340306264231714 
27.373442354584768 
9.897847913789526 
19.081626710088198 
23.645420058226346 
27.219459905545783 
27.896007836933823 
15.895193736308379 
5.95132557496598 
4.948871792961888 
14.62326763464418 
5.77175908707611 
6.286884706366277 
5.631360711772421 
7.090480271869332 
11.270969180047535 
12.345270439540615 
10.050310142139802 
8.3559737221483 
7.142545747685371 
7.510281588960249 
13.122880048336366 
27.036160844083724 
1.8582448690620834 
2.827507364192144 
2.551030111592623 
10.616553533952157 
25.49662041178144 
27.917912073977273 
11.06062435846322 
5.738430158957278 
11.769548529305887 
29.639736203539712 
23.646997618083233 
14.687103436910283 
13.290745562096046 
28.018882584193396 
2.3266066538349266 
27.7442124749834 
6.4859846897442806 
8.952113204794662 
15.122860738688209 
9.01491291970681 
2.336365160160205 
28.27545980504112 
14.60190270341936 
14.134197569992988 
3.6007055338884864 
12.298668514907677 
18.887987183705167 
12.105682506461406 
11.936984164595165 
27.871396112276418 
5.086055620054829 
4.433783964793372 
7.742872249088245 
11.620379200173115 
27.684462868515975 
16.4655693827859 
4.48616585480335 
29.490869912865854 
8.147664237895487 
27.272360042456942 
11.994637867511852 
10.07689542084317 
4.932928958275496 
8.984229180543288 
6.0804338983721005 
21.891803065587283 
5.177727181187711 
29.5135054446193 
4.65550482228833 
15.41928313624291 
15.363914341480108 
28.180016584098638 
16.51835491800379 
27.961581914585302 
4.823054110500043 
13.205145951620926 
29.062560975246907 
4.763237861570092 
29.062315984386696 
29.621271845358493 
6.7895014665258255 
5.543256166810331 
29.390142621725655 
22.388270767941258 
17.614927565523924 
25.45726863625101 
4.702657066910129 
5.121835266869972 
12.439729889030604 
23.644333384570754 
29.269214455885848 
8.618815847005113 
31.467294269392916 
7.767150605086745 
15.397207328050586 
21.671213714248147 
30.07056600390299 
28.86474698384008 
1.9938940625373345 
3.5336845272448754 
3.0758518842796114 
7.126048531929155 
22.963428788494607 
6.519846292659123 
29.59015218702654 
3.2430330703419994 
28.511429340571922 
5.53909453155504 
7.507805251033452 
24.28166554180189 
28.16200915609128 
4.138184888587328 
7.28039320189633 
5.221083581064136 
29.573805935635797 
6.751366143321038 
3.360904357216635 
26.15785876969968 
23.695942968209184 
3.926191817426522 
18.614539022834087 
8.408711539240592 
29.925364479071902 
5.0611582919277565 
6.334414349186585 
11.953173781288369 
11.158755491564513 
19.068861542667822 
11.167835601171818 
29.8644870240609 
20.126373885662733 
12.330021322114085 
29.650684525271355 
22.045432147632077 
3.4593345131520863 
13.497484924608102 
15.850986745500325 
29.3180096075753 
30.277564607520816 
2.0106075178529608 
7.014535216306871 
2.140095393128752 
2.5705780224156207 
10.018237011283615 
6.519624929812692 
29.257533189226503 
24.434135983390377 
29.508032221590714 
16.452502424947873 
2.718315473773972 
6.546540848731101 
22.967835859568982 
12.961455575359988 
15.750069057489437 
18.592409986078337 
8.883103105328576 
10.964881580203205 
31.760214692643412 
21.895401546061603 
5.519998461856626 
29.489704924739907 
29.848771269944848 
18.060252098196266 
22.18665770349492 
6.032603753321606 
9.043345704266672 
3.351968860551345 
5.355220967242573 
3.541090235202098 
30.718792398654237 
5.773056376993364 
12.436961569449865 
29.476338385973737 
16.557285260132 
29.862406059131235 
11.261420288307013 
0.9597602847780627 
20.972413681548737 
15.522956682642278 
18.24147147874651 
7.2967222929755735 
6.676552988759621 
29.8205859848633 
5.32890661731391 
29.877367846622338 
30.90525741660549 
21.170621952101115 
7.4421175051305255 
4.900741016302877 
5.050031552459148 
24.151492997648134 
25.420507393246993 
19.554642273013744 
2.926798921476926 
14.864250150453575 
7.750904783140546 
6.149338852220511 
31.195426488557757 
7.26684163338332 
30.51254276715104 
29.924689053310043 
7.5081030611466755 
26.393047756706267 
15.94435480608208 
3.4438382511523264 
4.191358946663761 
31.55819369563714 
10.379686642214503 
15.592559115035632 
3.887581497699902 
9.034743221720769 
3.5464362886228935 
28.664323721071007 
29.984133848852533 
30.84521732160384 
4.033234387458499 
30.158437519346627 
3.4299995055657297 
3.88617656005664 
30.82782916006886 
20.98552479188695 
29.904630561310622 
31.129681117230913 
5.733947072656771 
6.291385529944796 
6.869401822388778 
5.458986045278351 
6.93148715733997 
30.05073037913114 
5.956591373080617 
9.141783062608301 
29.63285206955076 
9.415035506273938 
5.866619304073802 
6.861395962539954 
4.541070236203073 
28.423557143002235 
7.792187269506717 
4.420832943418085 
30.52048523791023 
3.6885093841326912 
30.771009450277845 
5.083713621456059 
30.353919329085237 
31.38080393656707 
4.3480004165478 
3.9941190554085777 
31.609576187545787 
12.281834740138047 
4.485986127696028 
30.042722547541413 
7.669038559999991 
10.031938133139276 
17.93681811692342 
4.013236401472908 
5.518512715422557 
14.009025795936264 
13.522586328232649 
15.872493130038972 
7.650283905343611 
30.148821928982194 
9.467969782809403 
30.848188485621638 
14.074591501787365 
26.5607967979214 
29.788664171052726 
15.309869758118332 
12.680041323808235 
30.198845828747228 
30.730858503915766 
3.6105129148347714 
3.372074956422346 
8.538192033116408 
3.123849253971969 
2.4631411273438486 
30.393998169869683 
30.800196220620627 
3.2091932038701696 
16.155970676904396 
3.031520053464397 
3.200950020554308 
3.465875221938789 
2.954849208030644 
11.229522437028946 
3.1756941832259624 
2.9887164603470384 
29.59446206652261 
31.088752397965532 
11.031155058938163 
22.725823631291025 
8.267165465947503 
27.13570075349911 
3.0498812222422953 
31.330203246332164 
2.645503013591161 
2.8703736082600826 
10.267056760395295 
3.7711193509116927 
31.211256911274436 
12.465347209460708 
10.854888039905475 
9.038127200719966 
11.095681923306074 
10.768434009346485 
11.018578761625886 
20.901789175419097 
29.908409742108628 
31.142983921973524 
6.1065474556563775 
5.174515491141861 
7.667014426521139 
8.721965633492651 
10.163846900594619 
5.331256141507152 
3.2145573649076336 
5.867295923133855 
7.297720207168798 
30.769250812707632 
31.041755465770454 
31.568140063924027 
30.75248132820132 
2.6098753173885836 
15.806102435712736 
2.8147978086495913 
2.943085203434071 
31.35796627347432 
2.8158522126633416 
18.304210940452958 
3.004230002930716 
30.221786729708917 
3.120175935097356 
2.4083734276786726 
3.1175220550074667 
2.8145821329820913 
25.4020949456899 
3.051702395560684 
2.7718324663574756 
7.6628644956485195 
18.111035180865862 
31.495978024090515 
3.2014060196754115 
3.476677142576203 
2.75815137126752 
3.409364045584927 
31.615791296312786 
23.97679167449388 
3.6072451106455254 
3.758607329804109 
19.46110139171665 
11.446076152534516 
3.58531114743346 
18.107593206337242 
5.463387819465225 
31.495229097778687 
6.793101945800574 
31.516154571673916 
32.439490927819925 
7.570520854818529 
5.178424028985476 
7.4879688873934 
3.3679845330193694 
7.337686375027025 
31.950065503025098 
7.357496886242617 
5.584564558730483 
16.288340280997975 
4.611042663182592 
7.8114440784466685 
7.66161285058209 
22.16990968506763 
8.300600228571923 
30.563892382182736 
32.19305255722728 
6.07252538310742 
15.700296971633296 
7.001590477414803 
31.044077836303742 
30.38434024080296 
17.21268715761067 
3.73370964768869 
9.294045010810239 
20.382998982935135 
18.23075195235543 
11.42613183544601 
5.196698765961745 
15.032093233727151 
21.137497080426716 
13.960887306755517 
20.375637042898973 
31.1435619929319 
26.802014335948048 
21.531866698579602 
18.14001966906041 
4.210890795475435 
4.829652995533086 
23.94793121698146 
5.050134633494919 
3.3761005475511685 
27.2046588648776 
8.304370398294463 
31.571739511833435 
6.8934305976365975 
5.5905157507842835 
27.338927059139753 
17.66209241239719 
31.578739041767662 
35.62261898857958 
27.935619786139256 
31.66504466882891 
3.610162104390224 
22.201071701960966 
3.914175742503376 
10.430229277156277 
10.191909521623492 
8.068715576082315 
5.300216226702803 
13.176340172757662 
3.2398085615182555 
5.216011748710675 
30.846986394720815 
16.036833507094773 
27.12472259388186 
8.868463695353881 
10.032097980152997 
7.175566130530335 
13.804512409380878 
8.791953464786392 
31.760594585351775 
5.784041041939065 
6.142482076488396 
9.094688652865969 
11.047519444690243 
8.538192033116406 
30.814902313141417 
30.61496754490482 
32.70614656024935 
4.483180002614423 
3.1441983155994238 
3.291301971581115 
4.616919663360248 
8.96432922244148 
31.095197053827807 
30.531028635802965 
3.843747824725871 
4.495839251204598 
28.624234965805737 
2.4989702931757423 
4.283547204875707 
3.2318622048646946 
3.1596953450060012 
5.440508369916694 
11.813292725415087 
12.172700249419593 
11.751167534076224 
31.861550096179766 
31.93290105700393 
3.2701824101124144 
19.39775334171358 
16.215529039710876 
32.64001822526871 
2.938936143742982 
12.114507075622884 
18.084708423409445 
2.4235051771460228 
12.323260760049976 
15.37884631858683 
3.646685862967612 
2.6702256528405037 
32.95457561779534 
16.114958175306693 
20.71269709130501 
19.13138116094349 
3.7327899216540623 
3.09727701887956 
3.970857130742294 
3.1652065648181718 
8.159930400785369 
11.3561550489669 
7.847638344516335 
6.326154194128811 
30.74295212313827 
14.90875819979945 
9.798977546598882 
10.5974990370707 
7.108605333119713 
3.6415841558013273 
6.757161801345486 
29.822376062655625 
8.409694744436141 
5.8478719027269985 
31.565854751496474 
3.9758478851324606 
21.69250866427032 
23.62238175354997 
31.605387658498213 
5.013298700359582 
5.388303822424498 
4.236290070162632 
26.99840773752162 
11.325618856681398 
31.875832717333118 
7.773140616324826 
11.8402793470207 
7.5365602675294365 
6.95156818942268 
12.467783374379367 
9.804538302384683 
11.750979591917728 
13.78827985100557 
12.854095688431602 
14.797850221860966 
16.425447573118504 
6.256897578852658 
32.134418164304485 
20.357053272363686 
15.09484229295011 
31.294698260376833 
22.951828118141368 
7.125345373514662 
6.0803569797720245 
29.29381579905364 
6.427465060615092 
17.8205666022461 
31.217614979715034 
31.968653122252647 
22.19380946164658 
28.52587239133038 
4.538475177186443 
4.583380111643781 
2.9693489186102537 
5.153910044452835 
30.60083135120515 
30.726988275932072 
30.074855134304787 
31.08611525783405 
7.385982886335613 
29.2939064040899 
7.035621362269421 
7.498880117811443 
8.102148171055198 
9.582808720684113 
4.329561249784637 
13.660912320952361 
23.028270747574982 
13.66608189188215 
15.576080893965603 
8.360879986323198 
31.076926249652168 
15.216615239095189 
6.1041047713439545 
3.030372657627993 
3.1967710267655143 
3.365207983807247 
3.438384300256938 
3.8127178488193354 
30.323688669537777 
4.708746768541967 
23.281413636791854 
3.9387548198750704 
4.437239998914698 
7.5245921886680955 
6.849621849004865 
20.280780173561663 
27.718407560733088 
9.676673638408829 
10.145198499666414 
7.562331655949129 
4.123301437438581 
9.586592875441777 
30.918471976553807 
9.385375615390956 
3.6774664961458496 
2.723115375509829 
3.3763378188407756 
7.98384235833487 
2.810332804685944 
19.604880011595633 
21.16562099324952 
28.66972394421975 
30.48456359280803 
22.646458068605366 
22.970481511684785 
20.550857881683402 
18.67376727928991 
7.600771103004035 
22.88645614436212 
25.199462377056385 
30.685713611139573 
21.013601964349046 
15.19871094091917 
21.40073031525904 
25.50457504586275 
4.877022186098438 
13.804766504288398 
14.796873365329477 
17.01794395980495 
13.739044109114777 
25.312703461412625 
7.985513796462368 
11.596501255944595 
9.127750634727951 
8.888938502786036 
21.04839334193569 
3.5832521655046072 
33.08483890121821 
3.532099489328888 
3.656806260668321 
4.374736741982696 
17.12645612378996 
3.580609179529809 
4.394033799486017 
25.846204126406967 
4.24888658768586 
3.4364255029139597 
5.469888114874494 
2.9953944281770855 
4.287127908198947 
4.700157142728293 
5.426546709215673 
10.33481430305903 
30.40634693361524 
3.046601824133238 
2.871346432713017 
2.8354459508646697 
2.995860339661779 
2.8671870354662485 
22.66527535767076 
8.313739849397741 
2.797493209202336 
31.61394549246044 
28.86396402717303 
23.112753757293657 
31.078104545836812 
2.7485488628811474 
9.031392007005035 
13.461026870338163 
30.361626942395134 
14.139302350508883 
16.66937401786171 
22.257112447210556 
9.525580585877037 
30.758471279462434 
16.036833507094773 
4.474608149848444 
9.798977546598882 
18.78482271652872 
20.204066903003017 
2.13548889448151 
31.604723110653108 
3.280518142975431 
18.87753093339922 
9.819063161245593 
1.7636491547569928 
5.321577281162709 
30.60153967360941 
3.7990282671092546 
2.6128206108514385 
13.666081891882156 
30.94059035079014 
31.680037697440486 
5.8335791125881435 
33.067763906408445 
20.131534442636575 
5.0300797361573455 
36.67927414820872 
6.109436755148551 
5.330256504013348 
31.0424966707931 
31.549283570478053 
11.388005785749716 
16.188561784170464 
25.78066468165444 
15.063952969790893 
6.089976479516804 
2.6746514772421137 
26.462127755420255 
10.770595509824512 
13.631785255218285 
4.409142992221387 
20.531768776973543 
23.479010259341702 
6.130091256277601 
4.911432633458023 
10.24169192196556 
3.076931557620117 
21.781501689577773 
4.53451293350582 
13.413752349314155 
26.07961610767737 
7.925757137331961 
6.243378228814137 
4.909115616305609 
18.1301941506436 
30.381840286431146 
6.361603681998895 
15.20523405694076 
28.923593156571464 
27.320516846032664 
29.098848030216892 
2.945107231557847 
10.304463471006304 
3.9876462081170203 
12.55496349946053 
10.269415924674409 
5.17292773507162 
5.252475559927105 
4.44700845294535 
4.426868798776459 
8.516964066970775 
28.259522074596042 
28.335597502157434 
28.41801858780754 
5.073687390670033 
24.92795449558473 
31.238278809349147 
22.615464547898195 
7.336134989476482 
9.573671861963438 
30.154242413002915 
9.484132181967425 
8.404393193780706 
7.180556737756483 
10.632796360476807 
20.149224863017327 
31.19479112098321 
2.438877607535285 
9.01946618067917 
8.26246673682983 
31.714050446188608 
2.983912311018913 
30.815978790155896 
28.292087440733603 
9.482471553496048 
4.581916993986564 
3.5222285472411676 
4.175368338002127 
3.8975014034683064 
4.321682658743118 
10.430229277156279 
12.704402615263996 
27.249165598522218 
4.984902522930845 
14.74068157579046 
6.037102336552684 
4.53451293350582 
11.700228848777302 
5.584564558730483 
15.014107864278497 
8.012755651799887 
9.864680170425734 
11.347096093248073 
6.166287250428571 
18.30744479697808 
30.37494561896117 
1.2991079181738188 
0.7072249008469162 
7.231350514077015 
18.211014342173073 
6.214899725759937 
31.5943855265301 
6.96815938375693 
6.361449090618569 
18.73641688403986 
6.000263647272364 
14.810258795617827 
11.68774143755716 
29.6004032186311 
14.727699028008823 
30.24939773403872 
26.209047047921874 
7.755657318129117 
20.204066903003014 
2.2000293996333897 
9.819063161245593 
10.192166775038366 
7.857004398057816 
5.964286497243223 
14.639496266562862 
13.16561167979772 
5.53467867899246 
1.5172654438030255 
5.653371889423134 
27.200811454926214 
7.806187200212186 
6.388954785125061 
1.4647869586335502 
31.518246613769282 
16.850151064225596 
2.912888072301927 
4.071280568048567 
8.10353657083021 
4.154529282309459 
25.592108514978122 
5.395603703620323 
6.768565129772033 
4.231497887176171 
13.250391679918469 
8.51017163213007 
7.323895150464079 
2.2087270473761773 
6.768565129772032 
9.908203848671338 
11.990272541120314 
9.380305157180274 
9.385970718908519 
8.718766501947572 
8.26995457190118 
1.925102482495599 
32.26430600060788 
32.3559131115061 
10.162715366279746 
5.0548354453148585 
4.7878794247942205 
22.406114820779784 
22.37466746517447 
11.16523567288633 
1.8259529872800282 
5.924979324543488 
4.714687656263097 
4.693176420585284 
32.66758597209964 
2.721270814877278 
5.880206141400058 
27.09857351332896 
4.345520548184989 
4.66338208821163 
5.170649839137121 
5.1455248126279844 
14.39912077215957 
2.812937660576162 
3.9080899587545876 
5.784097869564615 
3.0568369960141184 
2.2000293996333897 
25.863222851024936 
3.0553869388784207 
31.26660255569558 
2.916120515093549 
6.100356392097495 
4.304025136399452 
20.53772267213632 
15.00385173122883 
2.7775987579183528 
26.454282459721952 
15.586054019735943 
10.248507101997868 
2.581431023616801 
18.823613096759438 
11.349596677214418 
0.7072249008469162 
3.46639794558009 
13.378937309431171 
16.709053293032397 
20.039106906463132 
12.65409481847109 
8.390506257861581 
2.77130937403156 
3.159748340091688 
20.829398500028248 
2.2000293996333897 
7.863983947771462 
14.305989509252347 
23.392709884953817 
9.72662308788716 
5.9711095647781 
30.025388760537584 
22.204481542686615 
16.51542441000615 
16.54278810331216 
21.179386073218655 
31.210711378789615 
18.959407410517745 
21.858212759905893 
7.927649298248068 
11.873969416734793 
2.1404499924322495 
20.061910972325606 
2.912888072301926 
19.26782053835307 
31.009924791006384 
22.3843714117862 
15.992597601093065 
25.755429472896775 
2.2330364330681434 
6.801069106457412 
2.8639742109286175 
4.039364731656393 
2.814063451097007 
31.27657537262561 
2.7203698315965585 
30.657421504694522 
3.0015423981136307 
2.6441121945897526 
30.944866493189778 
21.334811708461647 
3.0522332072975917 
30.980401605606893 
2.9614792474344345 
1.9117391550367897 
3.6815596138015776 
5.842638997373594 
10.672202681206342 
28.178550898625097 
2.122976328946026 
3.0620834678229087 
2.410501600226694 
2.427837660890372 
6.509250096820952 
28.97409376618746 
3.314537661185996 
10.672202681206345 
4.510516760128789 
6.265336222220831 
7.1883038737345055 
13.25055936385177 
15.989438627093312 
22.57707537527188 
7.919089131794748 
8.23177941134771 
4.210435972555895 
17.87698094812676 
9.15843940761994 
6.218520520732986 
2.8140634510970064 
3.005657482048677 
4.719260006821788 
5.9238347455444975 
5.705412867251127 
17.905106792809534 
3.6287683640487467 
5.66537302298806 
11.099270751907445 
2.9400463563177746 
16.80270234592755 
5.900293194488546 
2.822313577955694 
6.901889501438416 
3.6520655002616738 
5.705412867251123 
6.041894584243525 
27.40083742447505 
29.73694052280136 
5.3677623465486075 
7.151143201161574 
5.546780904629456 
5.1135987435404715 
26.938251347127572 
3.0904846153474117 
6.1310709086984865 
10.26968933867465 
2.4385770155846607 
6.353562763426726 
6.8447317053945245 
10.219022785512804 
5.917151988971692 
8.49542166523284 
7.868988268127483 
2.0294409192072633 
4.12329514572696 
6.930266992323846 
14.869569967334712 
9.442511701142259 
7.599257147526708 
3.964095117603034 
29.89205388274865 
4.600258907539642 
5.7831520930725855 
5.723968484327079 
3.6265833477769 
27.362703974735435 
19.150467373226114 
4.944231310827693 
8.036681792135633 
6.33941065866082 
14.39387905449395 
32.482415502706814 
7.85523599627254 
18.060557157063595 
6.139355163978615 
30.551941905400046 
9.417061991112286 
7.8185457744641225 
8.119603157978457 
3.0004398283024063 
22.252195648785534 
7.391339499947144 
8.243510993709883 
7.473182820197104 
9.426201835685426 
14.477123032142913 
2.791392946428512 
3.2606956829325062 
12.713712497439296 
3.3804120887593023 
3.813204249299155 
3.3581798504533147 
3.151313115817299 
11.617289441411607 
3.147758683324909 
6.397723979082927 
4.415869174591864 
7.397572970315647 
15.162977059032444 
6.678596539917375 
9.320909282489136 
3.175437477942758 
28.335052881607655 
7.115880188497575 
10.68534311506999 
5.130872027937465 
27.858487208749715 
32.34698100060988 
8.974062682641412 
4.308000680821371 
8.27458169945073 
9.417061991112286 
7.387030374786989 
11.301809210874229 
12.65671091217132 
2.7570652606460313 
11.467400151762204 
28.952952749051935 
27.54667890300049 
20.27722926668259 
13.759606485209204 
11.47830205259897 
3.0293258892329047 
21.23484743128236 
8.849803814384122 
2.791457995377482 
14.752319713518663 
9.338563080129783 
19.072870898003202 
12.713712497439293 
12.949555470972207 
10.456196556835321 
9.012937074224299 
16.295768907574352 
19.566838335002664 
19.680102171526656 
11.320757840412007 
19.424749344394936 
16.549537297867317 
23.044148105212038 
17.064848650191234 
19.343366248981983 
13.218969963891759 
13.312247204466871 
10.039115253027717 
21.824246382515234 
1.0164147730745252 
27.18761281139304 
6.844731705394525 
3.183256760050371 
2.6533907125499288 
5.888582595804637 
4.669720398844156 
30.43076317827731 
4.853465340081309 
3.3944643484458727 
9.140195535699274 
13.066563571587409 
6.572791239882882 
11.323423548760836 
8.775791823252165 
10.616280278367727 
8.5027929400759 
13.96153007147647 
30.483817530694413 
11.753100336284234 
29.582427851545997 
5.617786019226687 
19.013757135357675 
20.711201042968092 
26.354417731705468 
30.425725022403512 
11.163582040652187 
10.408550338122474 
13.055685835967122 
10.657480408777031 
9.624951309937325 
30.953682707164266 
12.49533789826665 
29.576880258868457 
10.728087230348102 
3.8475759982128097 
12.776636939716658 
11.381833522139603 
13.421211761833233 
11.615306314434124 
14.011304744489166 
14.955957413796598 
32.10337127798682 
3.333898703627372 
25.23587711795352 
1.2856739450057473 
2.555589840937302 
3.506511189141639 
4.0433612237204635 
27.76232563483982 
3.0440864953669746 
20.27722926668259 
30.728276003564893 
2.752343106108273 
2.861141659746129 
13.863252181783192 
17.83430405191846 
19.601447716274574 
10.853886728049613 
11.725757304097367 
12.850852056948998 
16.841920240735394 
17.476423344572638 
19.01375713535768 
12.245819959700741 
13.776017254657473 
22.593360654017424 
11.615957489884511 
19.900101338197505 
17.797383975927044 
26.417494921251325 
3.433763146425295 
4.491495665295175 
16.68260854387681 
22.2804827589008 
30.623136971812656 
6.880243575759842 
4.942843200346759 
5.742110009032542 
5.242411107775238 
20.60585092944098 
3.541025615385301 
5.859977152786478 
8.142606529392607 
5.417614869853276 
6.260977199139854 
12.816735486016292 
14.477123032142911 
31.605167438573233 
13.975686269027745 
9.789755237562927 
25.75358364713433 
11.612283820805539 
18.945619200398266 
18.282617803078036 
6.037865807918948 
29.71376585482387 
17.05625391953919 
11.179232069225312 
18.00746958538289 
13.123857854006003 
12.526903634773328 
7.30964683071616 
14.116887383298662 
14.573393870978819 
15.5233857909762 
22.04300215792184 
14.269987993777056 
15.172292110764998 
14.94616489582032 
3.9829191748354162 
29.063986218149985 
29.447827391118704 
2.354910226875551 
26.909730369332795 
2.292058309863629 
3.329789480749262 
1.8679038479160077 
2.877377677732197 
25.53941131736797 
22.075525341866268 
17.21943073964485 
11.510968502028218 
4.4704733752083365 
7.96944167529024 
9.106372112071107 
11.96655272309386 
10.876694280320562 
11.700275934028532 
3.096413746836719 
2.2081958908631476 
3.6610730158953126 
3.3566523322907784 
2.8242781948477074 
3.5806632072686124 
3.043719560243362 
2.8971753893053633 
3.072627038034745 
3.1198359038342276 
3.0550628064853194 
6.156706837427804 
3.1206777873584874 
2.4919131949018016 
1.9217134338134614 
1.940642372012912 
3.2475016868776194 
6.797296561359684 
5.8431221515082035 
9.265555916447084 
7.152790175778421 
5.680020070025098 
3.420601868150902 
2.884526773157424 
3.0261099521639823 
22.751791502855163 
3.1691272371241475 
3.2580929492924455 
3.357457526329839 
3.461147169092472 
3.505009653462423 
14.473079419459939 
3.0991664746222387 
6.37837967948199 
2.8530264828687653 
7.828478927131962 
10.642047755820549 
7.532044995286156 
8.840741674591024 
12.733791424087304 
12.66363593239318 
22.454480133303996 
13.688408526735717 
2.1411619958708727 
14.8976086363671 
22.259412556081383 
17.114728165072158 
15.90324677504192 
3.2959037000504217 
17.276342349527305 
15.634403860526342 
21.574713577597077 
3.251822926000611 
3.832133320316155 
4.0610396456717135 
2.3948456696337956 
3.9101100222123657 
3.0930983513446226 
2.0362641807792445 
3.1955474362474843 
9.597817463256563 
3.519416953782504 
2.108479771440926 
2.4717107491590045 
1.808186405504226 
12.676285500248554 
9.151069915678068 
9.105466575413224 
21.88754699905285 
12.10696037431536 
22.589155534817348 
2.552473775804518 
1.834071219213858 
2.46218219198215 
2.1087334474202644 
6.791705183865469 
12.101070784304596 
3.305887348089964 
5.711469250423543 
2.0404791126878954 
2.900098202337985 
1.7952731538886122 
2.6788428297724116 
2.869185183186902 
2.8698777482045923 
2.868358578372922 
23.200677590593077 
2.7339548296436056 
1.9322881910360445 
1.6267977507647735 
2.509052552095849 
12.359051952867834 
3.6022573992198725 
2.3827189849990473 
1.0263157237494915 
2.393467375704822 
2.861015260429439 
2.2456563982650852 
2.4746288660170475 
3.0950253769611944 
2.8938819241002744 
2.4066298717115813 
2.5931224549212755 
2.595028310149199 
3.0301046396222797 
3.0311126520791865 
2.3327179313462483 
8.78519017325446 
3.1313052018123515 
14.00431830917543 
1.890194314046243 
2.557009700590739 
7.37985240290051 
2.504383838386132 
2.043640706060725 
2.729843009997265 
7.205069707119492 
6.133328065342664 
12.256433839627922 
2.4940322053432697 
12.095566693230552 
11.343048686378081 
3.8263179065965875 
13.633781301578368 
3.659217396530227 
5.015875090651249 
2.22431943716987 
2.0059120442373835 
3.7488926073035973 
2.1097294276700347 
2.364651600754267 
6.449809398312904 
3.9560504397466496 
2.6591028665472556 
2.691166752867471 
5.667670422119047 
1.757116081798118 
1.6197218581262411 
3.563719224351101 
3.274735151641395 
1.9531562035040426 
3.599850769147881 
3.201273239125319 
3.534639924438856 
2.0954964574947734 
5.658823643514344 
16.473347483983755 
10.230761027672695 
1.4294511534486234 
2.186516359413076 
3.17651696744114 
1.9266758638948975 
1.7682659540650416 
3.6433338393453956 
8.084954871324125 
5.774849835761804 
3.134237800913409 
3.041007274004434 
4.187493360930884 
3.8755066008291283 
1.6025240297197259 
2.4328815983872114 
2.4301622596930565 
17.260289675783014 
5.125676202166852 
2.2069668712760566 
6.48006317405299 
2.2604116746092333 
17.68362466404152 
2.5876330546585176 
9.39207792401029 
9.763693983783163 
8.999314587190971 
6.244563867923199 
10.612238914835562 
7.731951841501617 
7.7005082619120335 
7.919277352595107 
2.186916745084014 
2.0353861768975032 
9.137937969030856 
26.950726449350665 
7.413061674839829 
3.5771000820712198 
3.790329601936931 
7.023520412236622 
2.0281370843683533 
7.118641976087851 
3.8329954843028444 
8.000676273495328 
4.017086684892592 
2.5572035422164756 
2.5884704059043298 
3.898803906512881 
6.264605021517184 
3.544147900776752 
3.302464183129743 
4.198215172188259 
9.098956768982921 
25.993572799223095 
2.29004401109462 
2.0913717413129302 
2.366775685658021 
2.110260510930259 
2.902347082528699 
2.7249330893453094 
2.419921283468554 
2.671644017475758 
3.0770967259680533 
1.8047909195180365 
3.2514159476985873 
2.1955501349026645 
16.168347685036167 
2.5194430290669287 
1.2299720921584512 
2.127604055447339 
3.188881085426162 
3.690693403682121 
1.1368176523317428 
4.44692549486002 
3.8155406016542552 
2.151576663194312 
11.749152977129752 
16.49756731354653 
2.094429956332341 
22.0526187041432 
8.889662321813605 
10.292453503626328 
4.023579945561381 
13.36972348795765 
13.856043185223223 
15.257409541152123 
2.6900773540583893 
13.071838770307115 
11.010349769755532 
10.187495555833054 
2.2252443593998947 
18.638405425916392 
2.680787174731061 
14.791668663800086 
2.6299748418597586 
3.2996839511333604 
12.82189195523309 
5.981952795936285 
0.8318384520503722 
2.573616835313249 
3.6580680338974156 
2.6090557473883345 
6.56604671847888 
3.9107235871260384 
8.56907660301216 
4.630992832486639 
12.486109457181259 
11.68093886179957 
3.773990928254959 
3.4855930495437772 
2.5597264350098956 
12.736708267995093 
5.67747359685441 
1.2997114660276774 
10.797165309014405 
4.3486551014901025 
15.60947383329915 
2.7883455283872522 
3.9423563678550204 
3.9008010981139245 
7.340626902510359 
3.2240034582982995 
3.3938124604544013 
2.9488657774320015 
2.4229111674885524 
3.1777243290324995 
2.44308121904968 
3.04535307969169 
2.8062840407281042 
3.229549679909731 
8.662685987101407 
7.944183543469404 
3.187638479654875 
9.371517931933052 
10.452494195888463 
20.707173576181983 
26.131836220549978 
3.943126393258801 
3.596851809892639 
3.2838113497371917 
4.190541352170077 
3.011327692830024 
3.880934777617743 
3.3412171754461424 
21.27330327034763 
6.236630703358665 
2.7493075755650755 
3.2525372719346355 
3.779565795986318 
3.9539612957660535 
8.393110102495621 
3.8047204380255555 
2.2449442755474727 
7.735602580450321 
7.066842526826453 
6.172168845056577 
8.521038188529445 
3.891409161894846 
24.79709818255412 
5.197153993258871 
3.2009026997610976 
1.6284796238855488 
3.601037990739469 
3.20541394805345 
3.016346841227982 
3.3044822653125707 
5.04932591952855 
3.611586885042352 
3.3856978581546446 
3.7229305193364555 
3.1286668292128272 
3.342783554161712 
3.3741934963686315 
3.8930242608012313 
3.4735942564462245 
3.28910207621101 
3.3450120649080124 
3.9455178219820457 
3.3292883841599235 
3.4710495193135147 
3.7143816059021058 
4.22581381740771 
4.571985778753162 
8.043242715769736 
4.206382127420469 
5.1026973706402385 
25.83244362368642 
7.718161023244788 
10.972268010438272 
2.5054541211945707 
3.3365361395412876 
3.315853143269643 
3.148466649093173 
4.792984507251436 
3.27479614305538 
5.170419029954542 
2.7607630924485376 
2.9681080107696842 
7.947108964832177 
8.609731333292046 
4.57694866023037 
3.517943168185541 
3.009151124508883 
4.549791079348967 
3.428086480105515 
3.8013023869044176 
3.9675283246657784 
2.9328945178601074 
4.551505124597179 
7.014557636684154 
2.950406820602295 
5.399297850934365 
5.35886165096997 
3.39547383923455 
2.5555700114016906 
1.1770458684408063 
2.895091460273444 
3.443720334869844 
4.603888721229198 
3.0433970468014224 
3.043138726819462 
5.146374772351826 
3.9545720557832604 
2.4023268767279813 
3.8111515624168866 
3.3220379082489826 
3.0280523868913725 
2.857663426538226 
23.25709596310193 
3.997270359139129 
22.6791729143425 
3.358684825759377 
2.3745369635447573 
3.9003139513396095 
5.196655659182658 
12.473023876471188 
12.837208694295796 
17.641780549480163 
18.295996246209373 
11.735181519395576 
4.691768504598221 
14.645433944469655 
15.09752186453382 
14.097084022664747 
5.336604755779507 
2.5636531343967244 
2.46906771043129 
1.9293747372164352 
3.10466196593634 
3.7317841141919095 
3.8250688887831523 
3.017522371083851 
2.9761859554658705 
6.578938291643355 
2.951821824679242 
2.5189820271686147 
4.62072895257509 
3.7234253478370762 
5.268844016386633 
4.553505979729455 
2.89405615865962 
5.648995316856631 
2.285123161952144 
4.948526691403072 
4.436034480466434 
11.109324654796032 
5.33715575112606 
11.440926833130227 
10.350780754480695 
4.199522442073668 
7.07686078604619 
4.406145465710396 
4.6357992323465185 
6.218164881828785 
4.812159090260215 
14.357335762199618 
12.901984584077956 
4.624203176806096 
4.688496433425149 
4.521174861353775 
7.514347244850877 
3.475615700242813 
5.291578253976034 
13.919321325757862 
13.568163168689097 
3.5047542226934874 
10.739117751330364 
5.8387127228147815 
6.575103094301753 
8.709313031041827 
3.2002492972497087 
11.951446328882326 
3.894800837718247 
4.971694909439789 
7.622140563956926 
2.6613119130020912 
6.974352643891985 
4.918398010538466 
6.622035570476525 
3.460607434747002 
2.6864983872758548 
6.068095805555807 
2.6375357952036644 
4.215978854835936 
4.133972185192135 
3.979114917829115 
5.204291423054323 
4.575922989697358 
5.87402133388241 
3.4289772621252395 
3.675440872346435 
3.598842454675784 
5.206994725192595 
5.521516551919239 
3.272794185615776 
6.562932706933536 
11.102255277458466 
12.874125769888142 
4.4086658691324825 
12.883875754159805 
8.178063712939661 
5.724733703067682 
4.685122399229046 
5.25351490005904 
9.634485173060723 
4.594744016502154 
3.8587643561372045 
9.953854583430914 
6.423939364853003 
5.3277660961210245 
11.69379854890461 
5.468939565558311 
4.432969132420211 
4.909051643297035 
6.6977180618035055 
8.477108915280539 
13.748959142289003 
11.393144584717911 
8.908715604851716 
2.7843685115070214 
2.4745074011518957 
2.755976278372706 
5.226007537551978 
5.995666796481022 
4.175450579763969 
3.4190194192882246 
5.381033661425335 
12.095400434492028 
2.150266402934149 
3.6750821779864427 
3.4552286132364114 
4.600712586248575 
6.96030525284601 
6.684506220048902 
9.416655217266563 
11.403963689662937 
6.0702880472741345 
4.46418433975638 
4.774068745007369 
5.794691524199898 
5.991963543211642 
6.735831397355475 
3.7462604692693953 
4.639021238192077 
3.3742985714542306 
4.640141702878523 
3.2955966442866425 
4.216843559136408 
3.4231768264943536 
2.891858640406924 
3.6520933182039257 
4.7041444905107275 
5.6675668902556575 
9.625608229981195 
5.6927788845456995 
5.927236296930857 
9.141362660906157 
10.761066438521542 
3.338727139566967 
5.853922997633833 
3.433943436917368 
22.10270455675271 
23.936690343852213 
6.687233253320213 
6.0089711135080375 
5.58277550126408 
7.366925675601775 
5.9589359065709315 
5.568051338604502 
6.625279502756058 
20.53039002785136 
13.10220818808977 
7.33773682777242 
4.532856567231909 
6.701770699243302 
3.2122479624239095 
4.001147677172608 
4.445081245111507 
3.6716400602160157 
6.647361514874936 
2.969771792535333 
4.08366818232453 
3.5661648722075663 
4.659773705574246 
10.106091512307838 
7.459105208283067 
19.442501192935325 
3.9429113929514954 
11.91731725931051 
3.0488513943758018 
5.6593525092457035 
9.49985250691431 
8.198369765436423 
6.697930123645207 
3.8012764385637827 
3.2659009033640105 
7.579852864370555 
10.975167266875943 
7.570968868949195 
4.935939402398325 
4.43439449329506 
7.556505254864463 
6.593971815076084 
8.880809118716266 
7.221588476657026 
7.569794425446932 
4.5577899800627835 
7.8160945371944965 
7.581624130931513 
6.706432732240063 
7.279475198233882 
6.338074004700798 
6.708420265771529 
6.64724424770735 
7.457794313349201 
6.083065650009622 
2.178560087739289 
7.319898019085121 
6.541837609034487 
2.59108290104604 
6.989173790310252 
4.827109833938807 
7.354571750910706 
6.261197584791237 
7.144622021760478 
12.92630971832076 
5.30774136070003 
8.531574870299163 
5.27304994522864 
8.834985341475095 
8.24655893206865 
10.814365298477448 
8.746273536326475 
13.314837290939623 
12.178382443813174 
9.25895882172989 
7.2849895014475825 
4.9661961140850925 
8.100478595939643 
6.093787039866152 
7.335732158656251 
5.442265975829165 
8.873417325283105 
6.084195866261113 
5.294135991641361 
7.433808704699232 
11.75389379591533 
7.418030782691502 
3.8309127533872185 
8.758888924226357 
5.702733361546442 
3.3723741994943 
5.166111907042695 
5.02560171181117 
22.252983753655613 
3.3994614376110404 
6.207044752791251 
9.47797332118646 
5.102503898257433 
8.173257149419387 
5.7935852590336125 
6.0440331313621956 
14.0511452519735 
6.49526527313482 
6.098653730999989 
15.991458417118974 
3.400909415509057 
4.569736711081012 
8.234621290820067 
9.41651385626374 
4.837785889641129 
7.079277151835628 
8.039841103476022 
21.646047825263175 
6.7387784752067255 
3.276846220518468 
3.4425111377180633 
10.241526758598726 
8.293178361729147 
3.3738471882082686 
8.769150504401487 
14.314236171353757 
3.182707195084939 
19.725120125747615 
3.4338752512636574 
3.0797653005654864 
10.340088396055584 
3.9957518406866948 
8.059624147925096 
3.767954255989684 
9.038193121717931 
7.96842051962156 
3.9105737251485033 
8.003900170656843 
3.9304711029626787 
3.55442771319846 
9.459545977837493 
7.902841821406886 
8.649577981781585 
2.9069310182536583 
4.341726652527254 
9.36292465838982 
8.831299894131885 
3.02441263590623 
4.5101480603951085 
3.4090609480738903 
9.661002086583222 
3.2448791487175326 
2.4349087785981234 
10.098240031394285 
3.662096077964424 
3.5952096334712755 
8.085311714090716 
22.375807423355536 
3.541588160714902 
2.9244522284184176 
8.046306668534413 
8.30527652829644 
8.12553774861581 
2.824384311053376 
8.027218661112663 
3.7069299280817605 
3.4553170294815896 
4.922338849070104 
7.57559905330201 
19.41356378692052 
5.077036250055994 
7.672924683265304 
5.543140989206695 
4.976766673673526 
7.609661606684317 
8.074600873213534 
9.52289497379057 
8.047822218974812 
7.274893463970088 
9.411518581596455 
11.609055525045594 
5.293081195171955 
13.618427663468923 
7.854702178991062 
12.203997150868831 
6.647070443266022 
19.69970147402075 
19.295364541946647 
7.879554312788749 
17.273570198818497 
10.538805443774624 
15.629310163182739 
9.304976628592211 
5.42849581845244 
18.663055888716833 
6.685974049913857 
9.430137899575092 
19.39861570936529 
8.85100198679667 
3.481043800927136 
5.763205515327495 
8.931551575428093 
4.120469906565945 
3.6065174877231074 
10.193899026266317 
8.622927097209754 
2.2010315001781615 
4.261763657490384 
8.47410131715964 
2.7751803941753534 
6.3650726896759 
4.532517397481537 
4.664893089619859 
3.0179419936647585 
2.885469816931821 
4.810191337082158 
8.564316365711436 
21.76083567762263 
9.728580308881849 
21.960210156508158 
2.917534894118695 
10.1926032145043 
5.511142266910712 
8.061658090722736 
8.686713262055859 
2.466863286868821 
6.036415357499314 
3.383677485572553 
8.855398379255272 
2.768766555793978 
2.673484989273472 
4.666223202815696 
8.787967553507453 
5.916861369744717 
3.270513237794532 
3.2924030952482046 
9.55162934430687 
4.789529812170797 
8.042903606882032 
3.999355839268391 
3.2554381138639976 
3.0088605228159944 
8.758786160390281 
5.8295826932821075 
4.875245064753033 
7.05918516003084 
6.478634049601059 
13.50541533266929 
13.495133219861014 
9.483634157651975 
5.662741250758878 
13.167843527738505 
9.515073118722933 
9.641892744988436 
11.797749317108025 
9.471467418690116 
2.9095224784047566 
16.623787102512757 
5.814353029509402 
3.4454595205650906 
18.378027629890926 
10.930984970317924 
4.414729855790144 
10.192762542940011 
14.681419169398254 
13.410726055504972 
8.744886522043988 
10.33416500534666 
4.476643621545755 
10.768954908228954 
8.137560117995717 
20.522705350076777 
3.3015973607269067 
12.36496944019564 
9.888771092324872 
8.139242308612108 
4.309826847205238 
9.704650629533942 
2.184231326057116 
4.769642440114724 
19.93978149841882 
9.68094132630028 
9.5776063434632 
3.4097769698869995 
9.53929819790432 
8.02600843008936 
8.536596742771168 
8.489284183568998 
9.408157964761005 
7.086951992167267 
6.442926342354214 
12.439484343566027 
10.206982301349823 
7.160477210537333 
8.546659388627257 
10.500036367419922 
8.342777840003963 
10.748452469081755 
13.026544573714261 
15.181025634030966 
7.7526048495526005 
9.640614085843318 
4.435984335744554 
11.843828125423443 
13.956357278625589 
10.172198078453551 
8.719214502748459 
9.35372820750159 
11.747668971289716 
12.038903576890394 
7.774570367285125 
10.294422747186944 
12.309432005909462 
3.5786867601283467 
10.286138010419013 
8.443501338102932 
9.8428446306204 
10.325545186839442 
3.0287053365443257 
8.23382561016358 
3.3077285950423665 
10.761732242086707 
10.566778572511057 
6.019842906790071 
10.040106385431791 
5.964103072825215 
4.659742691286488 
10.985280520553173 
3.0395737011538473 
5.378351770351652 
10.522343696901732 
9.037995541728321 
7.764246678918183 
7.124340401619537 
7.639169434886612 
9.284399340887632 
2.347162347172402 
7.3792246314438215 
8.454319979285188 
4.946429627038102 
7.191209335129997 
11.117117228395907 
8.771651344852685 
10.253328503007898 
10.80812102469051 
9.38046783923204 
9.782286770407934 
11.49281772056929 
18.149586805078503 
12.040636994622737 
11.667735348853242 
6.190532124556426 
17.31252882168823 
19.84815125093896 
4.333639819980253 
4.994793593599713 
9.183092004366108 
4.400286963562305 
4.135594111918355 
3.986485004606689 
9.693277751367166 
5.744469309390437 
4.978473200578791 
4.135609616993383 
1.7213841018989855 
5.697215417809095 
8.747476321394146 
11.164257507520947 
18.546553077780388 
12.447665034109708 
11.512481882849144 
10.870848734379273 
7.436725469921064 
6.423286473577751 
20.690947197855415 
11.677898500840422 
3.2518469579284663 
6.82289091751854 
3.5936047977959586 
14.169048487718351 
14.962833114598928 
10.66993333320431 
8.633409019782613 
7.018452249861724 
11.104291063010153 
12.913695184077405 
13.158268287501253 
11.37987666000286 
9.110872898016375 
6.252274793267691 
5.401722386085031 
6.48788859718155 
19.091180020983703 
10.512964172052309 
9.450385402385454 
6.685195367647282 
10.20997841777084 
10.7350079781242 
15.476238418659479 
9.836230996701687 
17.698553337766384 
10.253830185693417 
12.010249840242114 
5.566479989024688 
13.440220668918421 
18.86664439448761 
12.499333898698069 
20.70805820953289 
26.732105360300526 
12.897699883582467 
17.58155983130296 
25.13243342695563 
19.782964714147568 
11.605103863174438 
3.489617306794494 
23.38646411460685 
4.662164514539892 
7.320026112402976 
12.063002900669483 
12.353032585236702 
3.2009697450820656 
8.799035822115565 
10.798729909251428 
7.755263198620763 
2.509724307888629 
10.365677992646306 
12.524368708330021 
2.9915909697059484 
15.74611349887168 
8.374208603066041 
9.374273222066156 
5.557370660858015 
13.17995301850799 
12.34146324306531 
11.372759124945713 
11.910350543972319 
8.22447094561856 
10.5049443053763 
7.545649750247625 
7.158970700675154 
12.504930317666377 
8.642887667396128 
8.93411699532798 
11.953033240726457 
2.615409433903104 
7.516270365506285 
11.890858227643132 
8.374571086344101 
11.545602844236354 
10.801711291198993 
9.055027852482743 
10.905644439901787 
9.50516577620537 
5.504375381856247 
7.482994113073409 
12.623040493035738 
12.111885816161106 
7.495314420534393 
10.359679845096423 
7.438630746022077 
10.788060266966253 
13.080312101978805 
6.923273737678576 
8.309253755713126 
8.339059582824461 
7.899037248796889 
4.919513794824502 
4.610252498661013 
6.145288232506962 
6.09296972578022 
5.8258975753373194 
4.46963565676434 
12.279471953496166 
5.483609880632109 
5.391283841392958 
12.898630746104578 
12.665453615988573 
4.364210650064787 
4.483962284976596 
4.710863478197874 
14.367482129891583 
9.113430460605631 
9.104622695735928 
2.9743344082438465 
3.0347172204382997 
2.762667166635209 
8.49977593181826 
6.517722896223949 
11.194066833106913 
2.8765598560956813 
3.237032417877026 
2.8765742811442556 
9.084245505099089 
20.52939130275377 
12.312370009909992 
12.557555111080296 
4.8499371201052695 
15.044204149299654 
8.534432471358993 
14.96019454647836 
12.929826865919726 
16.57338849093235 
10.8091496410593 
7.005448409067418 
12.965380438310799 
19.96685390394462 
11.36940581289359 
12.90703601556964 
11.034049621766949 
13.228145229284378 
10.658161211291366 
14.51462077663312 
12.239605314384514 
8.905742743492093 
12.680531825423744 
12.48944002583659 
10.541717887149616 
10.445624522030398 
13.151266503200974 
13.16336878336172 
14.02470945779044 
4.951541932707503 
17.54263665078015 
14.427565887448168 
12.478107967974308 
12.38213159907614 
11.902880223052948 
14.430647198652824 
12.055627782897732 
7.203565439858638 
3.5736647079901767 
13.65164864233103 
13.008913895744715 
8.029878102741213 
13.480740124027976 
10.940501099245264 
5.158528051881 
4.369766700305892 
15.147533607431354 
2.16675124410432 
2.026850301831679 
10.797049971228242 
16.61334717009924 
2.494625157231747 
2.059355229690296 
13.635848693395506 
2.316516924269357 
2.9438682880817937 
3.91546323314943 
3.3601445621912442 
9.09028500668537 
8.10751763405255 
14.835430066982333 
14.12470875221887 
4.300370339874122 
3.6382520673502663 
3.552661143996195 
3.248634179285891 
12.848463778759827 
8.842611875254283 
14.116030568132688 
9.50607227581175 
9.617587237358736 
5.555431667301549 
12.817603690308937 
9.007823820966161 
10.993630551842116 
8.355915493244849 
10.704387472120885 
12.952145713971687 
5.515262562070102 
11.172964032267448 
14.485330204429836 
14.282576320038617 
7.883062192665118 
8.382454153924186 
9.179282463887494 
6.7128401032863465 
9.883448071869003 
10.856036790646865 
7.6924327680323445 
5.882286835318249 
4.1321847931786095 
7.916070397474401 
14.280770192154403 
15.108550262945244 
14.183162552223333 
21.725635424623302 
13.538954982679083 
5.974687842306692 
3.5388136230122478 
4.557378267478681 
5.815840799641099 
5.124836887602779 
3.2798086007645817 
2.8166836779330158 
13.4680272022139 
13.58261808569185 
4.684701872680732 
14.099101475428505 
5.633502877141277 
14.109098098392826 
5.951881719000687 
7.564535289275097 
11.919151946138182 
4.070453865457477 
2.416189352252866 
8.294263007574122 
3.823551368030864 
5.94522335121636 
2.52376990474847 
6.400337003958414 
8.183818144096547 
12.652468233875133 
7.607355674329985 
4.507997527429196 
5.47866018197347 
13.516151187427905 
13.421066567037078 
26.525637574595113 
3.5416664306205807 
3.952743521490455 
13.592961598497547 
8.792593183051371 
5.903713570856328 
13.528363484968507 
3.037887393588422 
10.77108587150267 
14.501661975758786 
2.458411347733305 
5.366983747164489 
6.163355358102341 
2.2659820920404066 
7.57191158373098 
12.380530218790724 
4.481390170058297 
9.566750852163484 
5.307057455612698 
3.434974082304031 
17.443429693481843 
6.98506169627185 
14.45639853882293 
14.336512925976505 
22.815238603363884 
14.530429267201503 
13.37487312467205 
15.872627221365205 
10.500295863222053 
12.846351503071622 
14.048545000504811 
3.6766309687387246 
2.849274388318155 
5.452895386404217 
15.219254883026089 
4.1515390204692135 
3.789961404096619 
17.837001102271856 
14.479597158279233 
5.8275263918824525 
5.395529674922487 
8.144390279604403 
10.19530607148198 
3.820304270886221 
6.971270229839044 
6.4189615805953455 
8.232313843568942 
8.46987097157886 
9.804776663843072 
6.017221414390328 
5.163500257552525 
15.112934312324535 
11.955767682271876 
12.739685775787407 
7.443820228625968 
14.54114017474921 
7.127140215835719 
6.052570823909197 
15.087896668604309 
9.73382093086065 
7.054375353569609 
14.619578810491836 
10.373825364253618 
6.823560735418481 
6.046100162980824 
5.040568045490022 
4.441696654120344 
10.732405676576942 
9.749968457949842 
10.171599850386947 
12.915535854695491 
10.533789041557027 
13.142996986911674 
15.062276446428365 
4.333914958323458 
15.283601373323165 
18.594779409430547 
8.27744664398763 
2.775084475926159 
7.986680399462405 
3.636839002060043 
15.279167933752097 
4.24598379402852 
11.767848094053855 
2.472862891449037 
14.595449107968017 
9.691136356281987 
5.315083505832565 
6.959127644292966 
4.387529781542654 
15.99967989532452 
4.568853093096987 
8.36860653979656 
15.834877103714152 
2.6360703793725597 
2.829897024458111 
14.951075693469607 
6.042899460985083 
4.133799489100653 
15.752036057739627 
14.80013227347866 
7.415283926848985 
17.27160626767608 
3.0354506197924973 
16.738312465447297 
15.608583249697906 
10.771760894211408 
3.3554970054925595 
15.717561401406597 
15.312403589514622 
4.041486912511701 
16.708352825660057 
14.97868076986801 
10.288119037841362 
11.334036767101866 
4.043895836911921 
5.969583857706403 
5.536010203748684 
15.46002011568256 
15.674672082827529 
15.141271971071484 
10.174747578274927 
3.2783928627503243 
3.4333174694281183 
3.185161550582657 
3.275729356885396 
2.9248643430521293 
3.1138925472459102 
3.9949375437496566 
15.820178741638978 
17.3033536714927 
13.756960458967715 
16.41401055865776 
4.655117459062678 
16.631600813838546 
3.0371914369310655 
15.19656673238862 
7.902152907755585 
4.781680124450637 
3.2426583587871987 
5.711414986105536 
4.656123924758483 
3.6863605906437242 
4.0145588419576965 
15.328951491310791 
3.6861520844516775 
16.48294484689387 
7.623142940695699 
4.5586681682947505 
17.435972153585798 
15.336087335016963 
7.419564385370457 
8.32143449985018 
17.752312970330113 
10.053201723971219 
15.994198324609808 
12.386246307606195 
13.442191913774606 
6.005744176355171 
4.741325488881989 
4.889601437552707 
7.0757831012763654 
8.147847672739438 
10.040103933548368 
9.352503762846311 
4.304809271392958 
15.732966550235052 
7.6944747575029036 
10.018477935236183 
15.72135097753232 
4.135845441325 
9.883803223671217 
14.384065239602615 
5.569780138708535 
11.36266083847825 
11.748452662112527 
4.559887497919535 
13.582469732825505 
2.6778300936541317 
3.689005514951789 
4.433652775861759 
16.050014880656818 
17.21964069872587 
3.3553646423695156 
2.6609235814943415 
4.862396342519579 
16.35318003396896 
17.17218476952174 
7.936702943491897 
7.303612861122191 
4.140175501199204 
16.438113885325542 
6.201504379180394 
3.582507714072761 
3.9431885849502324 
11.789309483860702 
14.354631316504182 
13.087976798120389 
2.8856138638640605 
3.865739955511159 
19.076753482704778 
17.345163733912102 
14.347284838530149 
13.364756428051408 
12.649024396053363 
3.20456055556452 
9.030192266205324 
15.262760689125747 
16.55507610994644 
3.1600308529920893 
3.314746748210949 
16.85230401570641 
11.327558727641792 
3.1944311244466337 
3.488262882023095 
4.849648483475127 
6.152464918482422 
2.5573382093603607 
3.2598719493236428 
9.086464274413423 
17.15299366201822 
15.579404685588031 
3.2647002575126463 
3.3952599803283254 
13.479600716380565 
3.3942982833293036 
7.633015045611517 
17.281151207009714 
3.420812725490449 
3.1437223486449293 
2.7865938793179454 
3.0283703220935565 
19.985910300157304 
10.381856538391563 
2.9380545568838254 
2.9774373540963692 
21.333483246295074 
3.1067352444367566 
17.096906196690572 
2.757169417076084 
3.031283039698953 
2.375887620405142 
17.30663216286349 
3.665781828957736 
3.4312150164491797 
2.9905109786356756 
7.599153279691677 
8.372119855138994 
17.161771993406344 
14.313406468541057 
6.716802864161847 
19.492332511713656 
4.844346843391775 
17.987565410327054 
8.829185463545267 
8.952677791917496 
9.641294783472087 
17.993127725554377 
24.468071826821227 
3.0332732897367745 
6.825051967508143 
15.382633348646284 
6.307129690891272 
5.966526969353813 
17.357828106777355 
3.2020451199128606 
17.516887368458733 
5.80498887618171 
17.03065089549573 
8.47813684761495 
17.129136750443813 
15.042559580948652 
17.81512793580597 
5.453421665797337 
6.586936099427272 
3.2538022032728047 
13.891314075562512 
6.9072518232706415 
17.35032015138002 
14.058683599725644 
12.618740653520826 
15.493721936973998 
15.334217287915322 
6.730601624410629 
14.756407101979445 
10.10135952124605 
15.758465008897833 
2.989787629675675 
17.911345046400353 
13.216627309135607 
2.472294215594311 
21.89868142865832 
14.092392924426003 
3.009526125820448 
3.231640901872532 
3.1287621294807866 
18.02410403493785 
2.795136862771859 
17.815327405025172 
10.065932176779564 
3.315182101726391 
2.8520161252115064 
13.249250414936697 
9.55384566682006 
7.27665453760493 
3.6501655626170595 
6.766334096339605 
16.447739776096775 
3.7556530869119267 
6.582778140681038 
4.525315712978832 
4.4574766344866275 
2.6298986818191703 
17.97223381424544 
17.78414441817855 
9.180600373842625 
3.8704303903888997 
4.353543694756922 
17.92203100422247 
2.4759866533710406 
16.467512200251413 
5.014849928222666 
17.401161496563024 
6.691093211889115 
4.224943474946869 
6.560586042538925 
4.978434562403591 
17.751215624896115 
10.9811206907059 
9.019777092943574 
18.503465583762736 
4.702601828474709 
14.825098691603221 
5.270577807570794 
3.16283092819786 
18.736456392456255 
3.7037287511695443 
3.2100828894500397 
18.100663580086707 
5.388330573780303 
14.680168705105183 
16.014250230447193 
4.085613656008929 
5.025295849684877 
9.574898480266171 
3.5637556916292694 
15.30017268880125 
3.022689273900299 
2.9863249185205247 
3.671736795215824 
5.833231145343992 
18.15415501785111 
19.60297471809842 
13.069752178063574 
1.9672247152803828 
18.53351127593728 
4.529209593406047 
7.655776636221077 
11.990885911145252 
5.631596477399994 
19.164678144155697 
14.19619411075351 
5.384320966781923 
18.660695696970027 
20.670818741558087 
19.170116163309917 
9.009608691886381 
18.560890866289217 
2.6732676312522425 
5.19326947660734 
4.626998973653977 
2.613187451885666 
18.583556489611112 
11.573943714878586 
7.539449413657455 
16.101173014965454 
18.910615375523097 
4.692134880556921 
2.7217714103022432 
20.05439623183768 
2.6562385414315597 
13.854501679934488 
21.41778395656535 
10.362054914498636 
4.555471834342681 
19.421824584817614 
11.852854476321404 
3.208505802917801 
16.157991781667075 
2.710783997288567 
4.725498157364648 
16.9525275523962 
19.98562635228718 
3.809574138814596 
7.573380752241188 
3.1544374929878445 
19.39989196443698 
5.4412665604786925 
3.041115574966317 
3.804027242932588 
7.073662140958479 
4.063887899518525 
3.822673094798319 
2.8230480129622295 
4.538905395108629 
3.3003814470449178 
3.881573754559046 
3.737826595273576 
18.25570488139679 
3.3016544965682844 
4.193347281765577 
19.00889860912103 
21.99621489679421 
13.78988341430073 
19.77145715659933 
21.342135786424688 
4.067985902446268 
23.216402599867642 
15.880963132625665 
6.308407362401882 
13.105156943512705 
12.546288397373866 
24.304392800673266 
6.150324152532427 
13.262216386971321 
25.022002332519328 
10.7301693662217 
2.0826316079978655 
18.15959095646357 
20.229056087586976 
14.327433537326934 
19.338868461672316 
14.716472319982437 
16.12980936891281 
14.567108428820953 
17.02939515810588 
19.392711733549078 
19.615968921168953 
6.33166158739406 
4.052104595634194 
7.454000716071707 
19.414821314675265 
8.281150679254642 
17.10730782107671 
16.434670752302353 
6.579280424607388 
19.972807241672005 
3.505072017936728 
5.2180684886061535 
7.79500846833173 
10.877538441566944 
2.313312534579355 
3.842615608252803 
9.992136019554358 
2.3285974596522636 
3.7779891581266463 
17.697712094666226 
20.513243802507052 
18.905347297532412 
17.29079016696792 
4.682231372550908 
20.349010853686824 
5.138301913901319 
4.112606662150832 
21.027154014722814 
19.846874720334068 
24.90380102640917 
23.71105400080261 
17.6764659371811 
20.60959253909993 
3.4465754756625784 
20.697881459637124 
3.400892160700699 
4.17436246865788 
3.0084410048394146 
2.779524866533178 
2.894545817074095 
12.863466056661181 
6.014884914796533 
2.9298990800168827 
4.866566612376536 
20.83238042985895 
11.104388398966957 
10.740461862161927 
21.321602966845926 
3.4829032443521473 
23.00776907073635 
3.0302875628646215 
2.9240605619831217 
3.3200200202453587 
4.017567776951646 
19.997274591011184 
20.628559210615165 
7.847890628999743 
19.199660497598337 
7.949893240883556 
20.097386173497103 
7.875512813485718 
17.267295228158147 
3.7305304052060997 
20.979334539094616 
21.19226103444604 
6.20236475590322 
1.7160589996356297 
7.465648413424451 
3.8165832227258187 
7.640968174558246 
20.389678788322804 
2.0596411933020455 
19.222625370525616 
20.59884114550864 
20.919361808640637 
6.900084876167489 
23.234386235376178 
22.729615346815205 
20.84573403121 
11.993255518511281 
11.140073292813293 
8.854962207098819 
4.178377582916238 
12.412899321030013 
4.222474658196494 
7.428619352599801 
15.460198358643382 
7.874807253994159 
10.116231336155574 
7.737778830250418 
10.470125944081872 
11.49660410483073 
21.790641709611123 
22.747762964607226 
21.13077542522783 
4.246124542023193 
11.90609250744057 
20.87681348889822 
17.149363826027116 
20.73594829578353 
13.765194683231496 
11.607218795299632 
21.596409318993693 
9.044628680876412 
6.505211801049887 
10.469734239115207 
18.37072487528016 
18.1636468354189 
17.46598330774295 
7.547530043231088 
16.461160919320363 
25.256295575995384 
16.119974035673444 
22.110398720054555 
11.699872632102567 
21.300786024730392 
23.16019106833593 
4.046413877289078 
20.173365589579745 
20.503742685688536 
21.005128596705514 
21.204076995674146 
5.213052569436328 
18.35659017019187 
24.550572150012435 
24.83591268632733 
12.58213067791297 
27.399861151952855 
25.2041898125353 
29.684638101967252 
9.234982213513799 
6.011031540805333 
5.830858741986522 
3.150800982487641 
13.668209968124863 
21.950641167761173 
9.108258149297765 
3.6230771392434935 
9.679398959362107 
5.063249348761953 
6.920848169522782 
6.187317275180509 
4.913229790244306 
3.37978250250096 
10.638467066847342 
16.525508917773493 
6.179496791847722 
18.204739724252153 
22.107823797004304 
17.756644173687704 
18.04070402945406 
21.662822697924422 
21.37948349952335 
2.683549147864965 
3.380490367756719 
18.229166068267226 
3.29979638019681 
5.541507712614212 
17.294329140911795 
18.113071738005416 
13.531813597374757 
18.28173882489414 
18.498179497128945 
7.023795409143553 
19.989767794148282 
23.72986060764484 
5.099086165109958 
18.06045929747844 
26.50340329850988 
3.3893229070690643 
15.467622340699146 
5.415634462318184 
7.029817868974515 
5.530058188025517 
21.760431680570928 
6.1841291941715095 
4.132288557480603 
5.6417404313492865 
4.2881414347041 
4.289236025298859 
5.90250750332153 
4.786275315851936 
5.3227286489483925 
5.095197503324489 
5.204576399393473 
4.902499928853511 
22.113249160827895 
3.5136263302189494 
23.1298620890708 
6.877605632123238 
6.894065098180949 
8.358466654230265 
8.849734189601847 
23.057758953575377 
5.634074624741207 
22.37423797343285 
5.905556138358021 
6.742886437871852 
2.0478290035017226 
10.13833811922704 
6.558411445775869 
14.63542781327974 
5.071839549807808 
5.5103335443076995 
3.919708633853587 
23.104691156781026 
9.177899933325472 
9.257369586884792 
25.765989209490233 
17.890697847108708 
5.687143654074557 
8.128434635751532 
10.714043673392066 
1.4396283713763367 
28.703250574663173 
11.685268885541376 
22.851025309015895 
6.848446802872847 
22.845849320585067 
21.73041616191077 
15.74422436470968 
6.263018062674741 
3.3315713845330905 
17.575054661131418 
9.126866822829607 
7.838890554878479 
9.295466281554376 
14.032751565795685 
22.742748526278433 
11.77404008171736 
16.33053275397813 
21.99165978593319 
9.796487760628324 
20.677026141464808 
5.245687411297912 
12.059284166527917 
13.719042310511414 
15.69643288974932 
17.836782008161457 
19.750736830777406 
2.5600507836199657 
10.164042348803207 
15.96317226103222 
16.44737668763118 
9.72891354480919 
19.10695490676265 
23.073884558684263 
14.42951127130016 
2.6357819844310537 
7.897228877178988 
8.233792536641804 
23.089197290432452 
5.79225449745074 
8.87333097918887 
14.77165794130097 
26.039513843720385 
23.740396715693283 
2.1856019666322886 
1.478336052850886 
2.1629724930379353 
2.131146434952412 
22.849875811853487 
20.026057945465283 
6.324758512894961 
10.945294398722384 
22.934728289707795 
13.13793529311287 
18.07169772199762 
12.399581858618957 
1.478433774131049 
7.032617556845309 
3.900682583529357 
23.794084328994604 
21.991430592259796 
24.89981672793937 
5.225551528974622 
17.807350681740076 
4.3848796255308695 
19.517091422350877 
6.432826047743211 
22.38790069591433 
20.003780727152954 
8.653373794187218 
18.43174172974351 
24.579418000429694 
23.812115344083935 
4.438647426386071 
12.335739497053567 
3.719062511022476 
10.341441164334626 
4.86961891636623 
13.700625772097045 
4.017045039113904 
3.991360582349195 
9.611791901191088 
6.073551757644536 
10.366533257716865 
3.0715171671515646 
23.311982981118188 
13.35668239981231 
2.617506220033934 
4.110655474676274 
19.50529732876057 
19.585384607280197 
13.563460706205763 
17.528429620857594 
9.977158918601472 
5.81611484216424 
7.129605419836755 
8.919976735252941 
11.843629228911219 
20.627136875688578 
2.726022551851008 
10.084715458296838 
3.3620411312401313 
4.8699491521150415 
3.4516898248557903 
5.601809892150125 
26.732865649675283 
4.441834604464969 
23.08603038355813 
12.83470225830104 
5.973798477787676 
12.706372112575833 
14.086279776778984 
4.94560977267765 
5.817544338034714 
12.105958450115567 
20.794921430383074 
3.667257255902722 
13.680677772363154 
12.603112839106652 
25.249390948701425 
3.135197102120674 
18.903177995682746 
6.169059638467354 
6.163330554644146 
15.53101640976819 
12.130750421289202 
5.9681433414055896 
23.971899244522792 
5.9556256650669415 
24.566455384931732 
12.559966392064048 
20.437763704296987 
24.493315386641907 
27.269722557468896 
12.377855085377726 
11.05629839244849 
24.246497458886303 
12.624778578104586 
13.609089923470313 
21.058156900988894 
4.9026548410071475 
9.718892332427332 
13.362815040611375 
24.07357902261313 
24.25174138462989 
11.18171922593887 
3.8880835150447743 
5.093639138555718 
4.9681647926244175 
26.700775559550422 
4.706534529075962 
4.605719589355819 
13.928021007616344 
10.927142560655431 
19.90996103061494 
5.748604577936853 
5.813370720394961 
24.183824414016236 
4.507585243760919 
3.27188828204408 
20.95581636437578 
5.304101832458241 
10.477849647183309 
15.08224255208938 
5.088637090610697 
20.90543531092044 
3.0437376171643296 
13.530501299706792 
7.720467152411087 
20.342813766965197 
10.513795525986792 
17.830453798659303 
6.217145367584549 
12.359161828819238 
13.40192709033411 
20.63058596304498 
3.771812796557974 
15.338327208028836 
25.969647761765952 
25.541457419785154 
24.424212536200656 
4.028879363774949 
18.120539690752157 
4.756785136657815 
21.444106849690375 
26.236605337630472 
16.10856118270797 
3.981919358919417 
13.472200643706106 
3.371743722176353 
3.3817600809746886 
18.02606898123032 
3.1943451630401425 
25.479610971458957 
11.085950925844331 
3.2246678290648054 
15.804488735645943 
8.784530534481494 
15.435341994722094 
3.1533431083943135 
9.621600181771248 
2.9364637740473554 
12.657975934942883 
21.011406789054263 
23.808522849880966 
10.989213024675987 
5.1071345192749735 
7.301933933212565 
3.9232755484266697 
9.322320083692786 
5.581146109120347 
7.287530518858469 
7.653854187190015 
8.517991049230794 
23.69807367649115 
26.074175673961914 
5.213230419229964 
23.866102455689735 
18.79519080109607 
5.153264979754292 
5.658111993624934 
20.706378989099143 
26.403540922282772 
14.571784672839389 
25.544038665308303 
9.92009103603472 
17.906474536831436 
2.9305005826329946 
3.046028951145555 
2.952526234718402 
4.261687759494724 
15.747816198464472 
25.438166084735457 
16.138345235897727 
22.495292700218954 
18.231779012801855 
4.7704673124363355 
4.132240269266392 
29.78773251073359 
27.390315072704436 
14.783823593376686 
12.310183867758228 
17.73696662446181 
26.129577779747862 
20.93654621988347 
11.556033013614712 
11.327222736931986 
22.90867990330284 
10.898851373276408 
10.935142850190536 
13.653614222276136 
6.0384843501976695 
4.139655195445395 
11.050230732981452 
25.80818991634432 
13.306130922771313 
8.15730801066962 
13.07013625750758 
23.023464249292648 
8.488013545161293 
15.79462120007753 
5.8829998349750285 
18.405297092271912 
26.284207624954664 
28.133653504385304 
18.716456303246144 
13.002792918771224 
12.306231289829201 
23.958116053061616 
19.979760585699342 
15.254488997412855 
8.795363519366425 
26.83495575758845 
9.836264505356906 
12.679580615941463 
26.597434197450962 
25.413050910588723 
5.2438736576909175 
12.290578400600308 
26.351970806860635 
22.459669418305335 
24.642689046150164 
28.711060805126237 
25.93097276137664 
24.815352240913747 
12.90957214687397 
19.011044765098692 
16.92757353282151 
20.82202412554246 
16.106429987528703 
26.468621158690702 
17.64721246556112 
25.502866763800174 
11.9095029428359 
22.818237273402914 
15.922435650950106 
29.721261614620463 
28.625015814423264 
27.495183140279398 
19.662203922896925 
17.157405606683557 
18.86466459245695 
15.34124914705245 
8.267347036065596 
10.725146029522161 
5.304255638244741 
21.132528400628367 
21.97518540042769 
13.327889751694288 
13.811516047064046 
11.908753439366178 
2.894145383125749 
26.86626344655031 
2.752778746541704 
3.7700833663413813 
19.2752861221047 
2.6645243023428042 
3.015061851632261 
3.2468032773404625 
21.956798271585146 
25.55100430734526 
29.639255754193776 
5.409151428495667 
5.642285862866317 
3.3651727602176735 
4.5418076586117095 
5.475227537338315 
21.318295925170673 
14.437529472695287 
5.403382760179497 
26.664467295653044 
3.411639399592175 
4.061259495807304 
24.09931321539617 
18.83783934338818 
28.74833497635357 
22.831756541774748 
26.504300767320604 
27.521155260512028 
11.18994762247988 
6.785570593385588 
12.773220970902203 
10.974390598928718 
27.78020945077608 
10.554809915145979 
23.418943462344345 
13.857571716991712 
22.470662492190726 
20.28879962906055 
27.39724873096332 
26.827448499077857 
13.254968905766797 
9.982097726540161 
7.537417812221509 
7.144720466980519 
5.903020395560349 
3.727700981757235 
7.090785812911949 
28.147420918790665 
8.899905788217728 
8.642664609653414 
9.557038655499172 
4.698951473685467 
14.459263503957098 
7.210998511703163 
7.845297908902099 
7.5726189105272566 
23.311646387258357 
10.415424568254101 
22.86169218477673 
18.431197015253098 
28.352143617472013 
5.3876717356645925 
3.919186917213608 
7.8513140340487855 
4.104098036299532 
10.963926672615314 
3.8194919411129846 
4.817862817995569 
6.000841220635847 
1.2565805077386543 
27.07824795683675 
4.023709904103182 
28.794767372084273 
10.753628598944458 
5.404919915998678 
12.684884812920773 
8.44736251256026 
28.92021764375032 
5.178783696100016 
24.24875061526321 
27.694674778487784 
13.671295909517756 
14.411797564997679 
23.291346804524185 
14.128689025724466 
5.387542024107752 
23.829956231744177 
7.495377738508318 
17.375680118463297 
22.952143335424015 
13.055685835967122 
24.51816459573944 
30.59115547048978 
19.202174484303356 
5.391102975231034 
28.053577500217077 
4.555955866947944 
27.830286259616816 
3.7178231293811357 
3.647057534561538 
3.5165762137831824 
28.007111578860815 
4.8493480405671 
6.184717162111158 
4.296785771560814 
4.669937188396266 
20.165893642044573 
3.6310859699839444 
3.914249106217981 
11.472791880744179 
4.877807412461485 
28.291883975080637 
28.206325615809106 
13.870462086455786 
9.53372520971872 
4.063642874113418 
4.904446890613117 
4.948380265939124 
4.990849091149873 
15.169235622129973 
18.546864744713936 
17.86361504677196 
4.389624935561254 
27.428429464691096 
5.26184339998899 
4.92667453172937 
12.830970403321098 
24.571359008820206 
5.342375429288264 
4.318964516953994 
8.40365121884589 
24.225089867762854 
27.511190876664116 
5.423887973000413 
24.18425242366654 
13.8110596986072 
3.0521173721711894 
28.710721623397152 
3.150107990637795 
19.407986887699884 
20.188403982221423 
24.845503519242218 
12.645235880855417 
29.422214338188176 
18.48769764462543 
14.211510651866536 
2.547092478614829 
2.8468510595948935 
3.1577361811729663 
2.8264237294150214 
2.9489875997651587 
2.9524634101042766 
2.5469569700857857 
29.105894420916673 
2.765452740915872 
28.60552752085369 
29.010750657685072 
2.912810665767295 
2.9119095971452365 
21.567740153002138 
19.029586800743814 
17.200595444294002 
6.735584008411935 
28.739689289011345 
11.97020860307877 
8.067985302675865 
24.93425764789679 
7.392271235459456 
18.468887122040737 
28.154694810635853 
28.80365790410216 
29.559565758288546 
4.331766128573128 
16.951774228433873 
29.165053984844434 
17.86701213110133 
7.368552957675443 
7.137832827046233 
22.44166926653979 
8.168532888538884 
14.86353280275118 
25.5924639803876 
6.510101946618136 
18.702985664746972 
11.391440731856088 
29.25368435697917 
24.843217067117905 
20.185682160635864 
12.880257086397014 
12.031169176568602 
6.289277760884774 
27.465159852193157 
6.130541540874804 
24.480821971364172 
8.936842199874459 
28.991301437270547 
11.424712607300773 
3.6990489154625115 
3.3561030214085434 
3.6499657782341344 
4.413739285966872 
12.960577641422153 
14.597579643406288 
5.4965140687929255 
8.242401773608101 
30.022794338694883 
29.887943667110374 
7.88152056969129 
10.234505960534815 
29.84256018231767 
29.08919708211122 
10.32896500383894 
3.6575303777627126 
6.551573006866829 
13.679244511707862 
5.4564468970449145 
21.042455060736174 
28.398763041861116 
21.365778164150242 
29.220313712424094 
29.601257009542564 
12.765829175286209 
5.060383532985344 
29.73317934128677 
24.981186763281144 
29.573846638152563 
7.663429627393586 
3.9080899587545876 
2.8406139959235737 
9.37400873808705 
10.043066540785851 
7.845457951965986 
10.638623538734633 
9.9892542090329 
29.47493191369292 
31.258217428674882 
10.33836773669807 
19.614312099648483 
13.92641380009004 
12.193816806156168 
24.0374951384499 
3.412284951309817 
5.917151988971692 
4.242179332814148 
2.5911351961565936 
19.079052607605277 
29.913043005173314 
30.89525038819104 
14.414212156547661 
2.999190909472218 
27.14093339836121 
30.903970867103386 
4.399336644313666 
24.97031219682978 
3.780988511920414 
24.834690317022993 
31.068771330121724 
29.501578976719344 
5.528952336187538 
4.609549791654957 
31.08090706614878 
30.572631345233553 
24.54522994846387 
3.56240329792905 
30.808070136808983 
7.905111620955751 
24.066576777475692 
3.670743115580847 
4.61607338219313 
5.545809630995783 
9.26169281887681 
25.487159361167386 
8.717428670705287 
9.41014275892437 
11.10113558936034 
8.03507694519402 
30.811892333009403 
31.400383070747715 
7.52772528982913 
30.52729333537447 
2.8372868869441374 
3.387119713026864 
3.57741529724567 
14.04981303455059 
29.220881756406623 
30.922452370863425 
31.04209507962612 
10.25019448941457 
3.1609721476443875 
6.2653362222208315 
30.652970838685796 
2.817739837847472 
3.3493269809710267 
20.489297947055007 
4.908711024640499 
17.104803278418625 
29.876506238334088 
26.476685410106725 
2.782657652104353 
10.349853843439291 
26.615497031696396 
29.786895573061514 
10.008726854612137 
27.22115102947781 
16.48352828313011 
25.49763976569566 
16.6549389103289 
28.041411095477514 
29.91926374051648 
30.205326391411845 
11.240856611396218 
1.4767006523584898 
9.754265784413791 
13.042839618485374 
17.9529269812353 
10.617343910742711 
13.118900028712366 
5.8660296768321665 
6.079586310341974 
5.47964150531437 
4.950886481023568 
17.311706341852094 
9.161511911191697 
5.2895464538758405 
5.824141990378718 
8.006164758923253 
30.721686598398836 
6.401057106132187 
30.444657460902274 
4.228667616177629 
6.694642671963535 
4.946703938696797 
18.302290214041516 
15.800762478312048 
7.75790998683477 
27.9089673985121 
14.284945400222682 
4.938505349660649 
8.54257176624065 
21.66993941443293 
19.768900351079882 
24.66474735385167 
4.05274067720846 
18.25513463258692 
6.604289487178647 
30.835481182571556 
23.575235815940562 
30.089996946379866 
11.524712304985561 
29.37553489920178 
8.808861960287615 
31.191495915790494 
29.954399672395418 
9.640347651742296 
9.423855645809754 
8.950413289711655 
22.299671826889583 
13.0544863957725 
9.012600628733631 
31.200049814058477 
19.201720774959075 
13.059046769721258 
10.697056917203316 
10.476137174138936 
12.745941772136856 
7.851801735541933 
10.079798688680574 
8.361336002010008 
17.10521899646454 
16.461556688641174 
22.919072077943344 
30.42574272720172 
31.502236283154534 
14.4162065850644 
31.7785124272258 
17.548119950750163 
17.941754924562847 
7.593842877476613 
13.012562307347922 
8.834029800620383 
31.625998264816843 
9.320909282489136 
2.6486322578248584 
14.39387905449395 
28.917769128493518 
2.9381710968102017 
13.493778592206 
2.197347024820045 
30.696981743730213 
2.8417974952989837 
2.705798135560952 
2.8208589176706083 
7.387154554135415 
31.28977242279323 
30.42262125409385 
23.541682617712528 
31.640474369649073 
2.263307694622336 
16.577597363548634 
31.96372883572712 
4.0081716396736535 
30.564504982268573 
18.6674505059868 
31.35138614823431 
2.7811973255363527 
26.68053179223032 
31.579231395058496 
27.28531077666358 
11.214484817264623 
31.764855257898958 
2.545349436406377 
2.8689017144121123 
5.899095401591296 
3.1412631684190666 
2.7135463658154597 
2.8935623425930515 
3.071342231462382 
3.081085721838366 
3.1244711555713582 
31.73790881843952 
14.647880360651516 
27.031361669840763 
31.58587272868343 
27.20988095774409 
27.146948977450087 
3.4869087746712886 
13.06656357158741 
13.456440179386853 
18.934508434561348 
17.287292191022527 
12.75152817651311 
10.009038998358802 
14.515341311527528 
7.243019961275884 
27.387647049174408 
30.840760966917212 
3.404229020533468 
9.008994344307526 
3.327061235235891 
30.421843135615543 
31.009956211988293 
6.388190150259541 
7.551290530700099 
31.525014471510126 
6.121971747291806 
31.620559762473565 
4.374990972890624 
3.3394057504826717 
10.455500593201464 
5.75891651430122 
6.182353316388768 
31.329752447448243 
6.312730029584246 
27.474378042533466 
3.629964315862144 
3.879808102328933 
9.49973993644604 
25.371827368334493 
13.056081563550842 
13.785783055458435 
4.143380874907184 
30.97386785132108 
4.0119505479458875 
30.239634194881237 
4.230435986655625 
27.005016827143987 
4.853567695831866 
9.827581512973738 
7.406438254417706 
6.630010017988859 
5.597857249446223 
27.74153177772824 
5.2116505904098105 
4.383300847764676 
5.419484236019787 
2.6386954778511726 
31.633125148688688 
31.001325545580826 
11.61738374414127 
2.9149519174293888 
2.561838173518622 
5.342060545719041 
13.84679355446587 
31.25121504499614 
22.612612846537857 
8.974062682641412 
30.288512302262397 
6.447375822111833 
31.463279344482025 
5.08412065636552 
21.50854166762017 
30.86266310572232 
30.677456094471683 
21.30648619743638 
28.323826140469244 
23.76162477910307 
31.140470359024913 
13.759606485209208 
16.65615202574685 
3.7751840523458133 
3.3680733731355175 
3.0482811116291826 
29.950948694442786 
3.487053566900293 
3.4500288151642744 
2.478017719394507 
17.310576798661742 
3.5926971095876126 
15.800843947204667 
30.981588507346338 
31.65531002443701 
3.2934198313547047 
2.8357487560023054 
12.017700484948929 
3.724820221528355 
27.357679467650097 
27.291258544895122 
7.487076239887143 
26.91451406549583 
24.392175034314917 
30.44550313506437 
15.376269960898476 
29.6989732134937 
28.82608753172531 
3.5214250063281907 
19.730052126391897 
13.914717322996001 
11.231028469675872 
4.9245625012009455 
11.097815817664658 
10.615846659965973 
5.756588563377179 
12.39794512835697 
9.24732094960719 
3.1038325410118968 
32.403014144751964 
3.3294427596943432 
19.601447716274574 
30.436297917242474 
6.446906159080798 
9.415571140706767 
5.011178091189399 
26.541080629471146 
31.012937897048374 
30.698881169135557 
28.259690956276778 
7.401919487685301 
30.364632292661664 
19.06955122938247 
30.21241768904027 
3.2133374383284616 
9.423087813603543 
9.10401074645166 
25.437911483993005 
30.90772435777868 
10.466532478764936 
6.830469817705903 
31.42372773403878 
7.519807209700846 
21.606377405107345 
25.82275239774455 
32.20373882539167 
8.053447819381313 
18.240121858756382 
24.50828572206016 
6.844731705394525 
11.499449777610495 
5.441747081732426 
20.401932316209663 
10.360552897952337 
14.580919532544756 
40.021555357237084 
31.459779841960565 
14.580452837465675 
17.950193702258865 
10.968106902198707 
18.17282491250286 
11.329284893449747 
7.529905858077496 
25.54401484468355 
4.185900585980284 
5.304620423379092 
29.897387022529383 
21.459379114898418 
28.409916397252914 
33.70285114148048 
12.6011038374914 
9.103430542068152 
18.59700215169091 
13.17726037160122 
2.685489637149148 
11.02783451258388 
18.432621050155987 
32.1626818164892 
31.4477148691394 
31.096993017495826 
12.59496032586134 
19.06955122938247 
12.276507322139096 
30.47232668046143 
11.861777961080552 
11.904253501227911 
4.737124151945011 
31.965112316665845 
17.737685101546713 
30.834169778209755 
17.974167587542954 
31.84132564432982 
2.926982645084173 
31.566252951296555 
3.6449905298951775 
5.964956730557378 
30.497966305370728 
8.28128714696919 
18.301420752102143 
31.13107804948089 
31.40553161529725 
8.492587284539301 
30.562980142476306 
22.06757816555848 
19.97835230618396 
6.20478247282285 
6.7211605501350435 
8.179198345904863 
7.932248266695579 
29.520429206183334 
31.98146163893883 
7.757399973846194 
6.990341686837726 
7.953008174453712 
6.187518186628245 
10.684993125892507 
7.115346729796624 
3.51967983558911 
5.140952323255769 
2.657527681009564 
3.3854963789077437 
28.398605905813476 
6.6373365220265415 
2.5063527414704305 
1.1779349662167977 
5.808375625452246 
4.473961179922145 
8.519902623684494 
10.339467279852688 
8.832891124012033 
1.9693721151130583 
8.63997234299258 
7.5898469698322835 
2.3508621942890673 
28.77197851754511 
10.31352740518521 
7.696977121228441 
2.9089210509675234 
4.313972773185596 
2.2039950075026127 
3.3940303334642903 
12.243009353765345 
6.759108281032799 
27.150718761547214 
7.016773359188504 
6.754821197080371 
3.4291742201381505 
4.059081844083464 
4.329555229211152 
2.661828085097611 
2.15557379319917 
10.53634099091204 
12.226108442813276 
3.0598858066497154 
12.685571217315704 
8.093866070680074 
11.291884409540959 
1.953960555303136 
2.902968043048763 
4.089685053420051 
12.021885803368232 
2.3068930557665284 
2.5490881709066824 
11.180621320760729 
9.783597783572652 
9.898073439274928 
12.037131347896361 
3.1010436024619286 
3.8534001794812363 
6.250298539319273 
2.510061746158167 
3.0003519699253736 
2.885199598986841 
2.8627341852235904 
3.233546433259283 
10.63622333511788 
15.049225559050301 
4.060071026067796 
14.236087206979892 
2.9156074998297963 
16.100865775728508 
3.6434384229766565 
14.5371255352308 
1.9600722862240425 
7.631391169207218 
1.809532594170059 
5.621139893135152 
5.007763327850709 
10.949808686003063 
3.8318370270560362 
3.540694472143608 
2.132600553354686 
8.129037343665614 
11.194874417333349 
6.887823247091655 
3.863817026379861 
3.757361808548644 
2.420112706773849 
3.4407668766533566 
8.744458461721697 
3.2217866969618227 
6.56606965658137 
2.6563701389323997 
11.78762668225533 
2.1288062231876035 
3.8486492417884786 
3.2362824545434594 
9.317963980038634 
9.269483885901161 
2.4515480769997664 
6.851938729013055 
2.31000471191643 
2.97308126215783 
3.1182378217865176 
3.7670329709549155 
9.146090202632694 
9.216782207007824 
8.1790124258751 
3.1689502471294397 
16.293406537939546 
14.118453825668675 
16.16015535666302 
26.21835411348916 
22.374736099604032 
2.5233035124334524 
4.111187668384573 
2.699640851802713 
1.9361845440001402 
26.435593409138725 
15.764902883220627 
1.0309483326437632 
23.055989625045044 
2.1604144481077143 
17.031165495387445 
2.7661547829829196 
2.5377999094442205 
2.0726294581973663 
18.02728446507325 
21.797600427554475 
3.038908844847168 
2.1109776926340142 
2.98319103426577 
2.7756126211734164 
3.249750985521645 
3.1324609356242443 
3.4677941908913987 
2.68960680874489 
1.7220040201418754 
3.1734480404941783 
3.5789454831094676 
10.09413311455902 
10.03524871303287 
2.334953415950241 
3.4322250747486382 
2.2981854044782635 
2.1283456490782693 
2.522474366917328 
2.3408810345486173 
12.81027454446425 
2.6890342924691213 
3.4343017439711594 
3.7883325700894916 
9.997392112534902 
1.9720067033050461 
4.797876691309162 
9.116015264749658 
2.49366376036977 
2.6712257088518707 
1.6346454890781907 
5.274734600193167 
2.632890277848749 
3.28823884871935 
1.7831476663068835 
2.300974383059456 
6.5367497577214 
3.34691656009482 
2.3099591097250514 
2.292046925393632 
2.0435436432405716 
5.097674479630172 
28.30352229288869 
6.192677910368507 
6.58832960434747 
6.6883212256271385 
2.5805891322699877 
7.13735307974822 
3.797701375431334 
0.7867239477203981 
4.9964837128944515 
1.1074109748748588 
2.8040150666187826 
5.526002884643012 
1.9616595103046413 
3.452367410376715 
2.2648457174468173 
3.588490423257498 
2.531999089662697 
2.2661969512506626 
5.078223362438242 
6.065160929334146 
2.25528240695359 
2.37309090203416 
2.500890789893719 
5.893653767231663 
3.868132098406241 
2.4016033131371426 
1.726371086786923 
2.22398864835214 
5.868383309638271 
2.246024114987398 
2.2975474156144045 
5.497004553157468 
2.3692290343241345 
2.7659291615557065 
4.454946634677751 
8.603430947925537 
3.1251682320961582 
4.646740167756905 
4.482620573036122 
5.798442760831681 
1.3015235585779048 
2.1747724814588882 
2.54788362755641 
2.558144526535853 
2.591496768724863 
2.8605560460874955 
4.252932581788928 
2.544716404611871 
5.749884553395039 
2.9896095249597527 
3.8260040991721915 
4.630501700252339 
2.571608294468007 
4.159615044910285 
1.9667047473225696 
1.8958667167526717 
3.72076839073918 
1.815503552336291 
2.6205762400986834 
1.7282640551337336 
4.08018489413486 
2.8464068043418953 
2.2510946833760945 
2.441764177119576 
3.459257263234006 
9.496158996381762 
10.04409171581598 
15.66510782025264 
2.3554540077754527 
2.5078796417124005 
2.0582906398195977 
2.2891293292153745 
2.174160889628729 
18.2786781184146 
2.2176838778794012 
19.299788529515222 
20.285274245304393 
2.3829499686252418 
3.8732593234054002 
2.7516615962737405 
20.873957057543567 
3.66294052909122 
13.057319030346193 
2.4709871153281737 
2.17340687290977 
2.1443870041856123 
2.0416871579235787 
2.268879949814444 
1.6225042927419855 
1.8029201370707082 
2.174051406577159 
2.9195878685371057 
1.5937407292910675 
2.8987578584132505 
1.7865155710048508 
1.982433787346062 
2.4200907374794984 
2.5134938645057816 
0.8431460667882167 
5.7846867148897 
3.7536603859359414 
1.709659814529476 
1.2099172832877305 
2.4029882627911414 
4.956515171208689 
1.224140081995746 
4.942290689626838 
2.711217055081976 
6.029377080036456 
2.8124833031212426 
20.73235775044578 
27.998778898881294 
27.043426712548083 
1.9386224694721659 
22.02575886013765 
2.27751355833107 
2.185170850273624 
2.5176268731488562 
13.12416975899746 
1.904541911530189 
3.541624433330439 
3.3139538916997537 
7.907025178806128 
3.8107268792142626 
3.639280957265226 
1.2748366662943513 
0.8450503490964368 
3.4754015733823893 
7.227267538095301 
0.9484422418641841 
2.9730426851405376 
10.993388425789268 
1.7167361134362058 
1.7881163458994545 
2.3421866629999704 
7.162434487464399 
1.541662892546244 
2.4515823289885486 
2.2209851315275237 
5.573190900207579 
8.407112691905668 
1.9292025882988186 
2.732515321606904 
9.85275810193725 
7.004896400337356 
1.6323164526093912 
2.546210501960112 
2.546958969525468 
10.55363897383207 
11.086770507363935 
2.64328970569057 
1.7495313371140733 
12.501861441096896 
2.7077586118388255 
6.505267926822317 
1.7767332498565434 
4.331333081481648 
3.3602680739895794 
2.0669007325723583 
5.1385243924792015 
4.975758963912737 
2.5110431291535926 
2.2994344875531594 
2.311488855255669 
2.192019087049183 
2.2303402695526215 
4.210825382927086 
2.7120364537530026 
3.6971653949031515 
2.7278632118089114 
3.621842679278018 
16.784341669201698 
2.2299606940268 
2.2321892967792056 
3.452646263649039 
3.737313759120684 
2.7627966757002977 
2.7327984926451423 
2.4751495746715797 
2.141639139302614 
2.95195932952299 
2.3458061927815175 
4.563558512388341 
2.209130885593367 
2.357455198209145 
3.07858954699469 
2.6672719384701358 
7.4362491291698225 
2.477694937268462 
3.262964268439377 
8.26065191327887 
11.127075138526067 
8.266026251650167 
1.7424247258242198 
7.1442817993783585 
3.5910530173749784 
1.885338305888881 
7.6646603804992015 
2.5599464864372203 
1.8844590242034185 
2.6439377562506134 
10.564090992829176 
2.6174401378322125 
1.9814050543776918 
2.081822583572025 
12.849172513404339 
2.752483025181156 
2.4919375754030875 
2.3348893788384433 
2.484797997030039 
16.584794001689385 
2.505641557007831 
3.3164821547572743 
2.4769939506015706 
14.657414505661801 
2.76213157945989 
2.090713470282832 
2.401059344829225 
2.372890273933657 
5.612421949060419 
3.1197837298211573 
2.1662701612642308 
3.654131022574027 
4.339672604671989 
3.519822201792372 
2.4068693972427715 
16.9543904239333 
12.530443921843581 
16.061722614150444 
1.7311351511129456 
1.778176086752939 
2.568300002269873 
1.9696883721334546 
11.912952738651205 
4.108044796577231 
2.569726161099403 
2.5627939640104627 
1.7510085142659924 
10.655575952981787 
9.027536993581345 
1.8703032309561398 
2.1204855408952104 
12.317802576149303 
7.26908956633137 
2.981268891570073 
2.0278217458053662 
2.957588506066189 
2.623934471969666 
2.8954688549057437 
2.6273850752468135 
10.231258413029977 
2.995660203848449 
7.8234076096300615 
2.445339398941703 
2.2271221580570266 
2.3101188070814644 
3.1763169320106464 
2.4850423427340433 
10.431318259756274 
2.5713178543332758 
2.091286728067725 
3.7618908641529694 
2.128664507647024 
2.2750983796858617 
2.811186970382078 
10.257762184544733 
3.854530202157853 
4.45123397343575 
11.33568298353375 
3.1011765679563528 
8.051961377474411 
2.517360177076881 
3.073338916630814 
14.876043012820036 
20.78621701582514 
1.7654810326556016 
18.458917848971925 
2.7396445632581594 
2.8463844742894624 
14.268833248076993 
6.486946231714613 
1.9194006896314382 
2.7817529755962096 
10.025793620653213 
11.36951690542979 
18.457696368935395 
1.9879751134642738 
2.9178957038611704 
13.077532732375236 
12.765562010398577 
9.868262530167684 
3.6283051927613617 
2.9028953137582603 
2.6192155827416306 
2.8056408378375726 
11.60864338649831 
6.2130591464739044 
13.03330514550533 
2.0869845162865337 
3.041041399293164 
2.2061447255209257 
3.569756005879484 
2.5315901798307436 
2.096089641099358 
3.22871901831951 
8.282748232475411 
9.298207469477928 
3.2225117104693717 
2.5131631042175617 
12.980674363094144 
3.7018990118925137 
12.0745449145444 
2.5124475942739526 
2.2458927242988835 
2.779993350684302 
2.8419694212550195 
13.659801642762634 
2.6562404853550046 
2.584472744753276 
2.049057478587922 
3.366614850415893 
2.074425398365036 
8.52378949806839 
1.9194586904088555 
1.675422304073732 
2.7877231501253807 
2.21450862706181 
10.333361633160315 
3.008760747056386 
15.821463760702661 
2.2487286306320393 
3.565153928915647 
3.6516858081988355 
3.531298480145667 
3.1556372970205397 
1.9117179576208314 
2.900295043921584 
3.1189607897867035 
2.7123372098424836 
2.9144367984987514 
12.114926222650444 
2.9543897010660176 
5.99688989949809 
3.7506739867072314 
3.7488061199370355 
2.6408928261410147 
3.3003175773152624 
2.622180673768397 
2.192261082686844 
5.998188591409675 
2.934554046291274 
3.6039451211623845 
6.28669054276251 
2.465956792390979 
3.193234304240955 
7.314651189103371 
3.6147622802916137 
4.107431041357048 
1.1466810051196068 
4.207214755498793 
3.2526632514249383 
2.2341347948972956 
3.597613256000009 
3.303185645914495 
2.349577940176085 
3.0393624634315377 
3.781590859887445 
2.807366759120338 
2.869743536096173 
3.4790427105742068 
2.5632591304261423 
3.615671715492076 
2.9949931124300373 
3.8604068947477774 
3.605684952255799 
3.519972429741682 
3.1745581054036727 
3.738942647947666 
4.049916651503518 
20.719371890806002 
4.911228053927567 
2.9056589176358707 
5.3849652401977695 
2.734901710101612 
1.9032306286877312 
5.305852612242191 
1.9707168280486602 
3.9326894741944027 
5.304697702148363 
2.8207095110420783 
2.300498176926898 
2.005882607405794 
6.353562763426726 
1.5666086459032345 
6.487221760683785 
2.1742237025870614 
12.5273119324312 
1.8575365748352228 
14.1035045351475 
2.1971451816166603 
3.925194534290989 
1.0969448010794698 
2.1695736633016853 
12.79878904789957 
3.039314513907306 
17.860192996702647 
3.5877885884595466 
18.55087239473822 
11.130109207236092 
3.1173804462971186 
3.6456188312498186 
13.524152259112368 
3.4851149875515177 
3.875921232820444 
3.7626287234886475 
13.30233713007795 
3.1787892404449476 
3.8282092069721783 
2.2586850588024583 
3.633947947230523 
2.217099385337369 
3.19123641799459 
3.3338407847464344 
4.388898788337635 
0.7573202659782717 
3.291828395263968 
3.0982867123367996 
3.6319950706887627 
10.50480423663583 
2.5673727795591326 
3.1948451201352874 
0.9344672401712661 
3.7996779685960846 
1.862497612658412 
9.893897202629502 
9.275387765445416 
15.619386489531387 
1.940476209483064 
10.177008263660161 
2.704010713156985 
9.920373188684271 
1.441273380622233 
9.8678521708188 
12.605940895975474 
2.1903669001970463 
2.2382883977471533 
6.745065745684762 
2.6884205231030966 
3.1330882671567535 
2.534186729165899 
11.111871978972642 
9.526392432570553 
10.72968238579768 
11.321502097168539 
3.9074461486806538 
4.603935962241596 
2.906185067343956 
3.1675117764454943 
10.978752959533624 
3.869434784370773 
11.596502513819637 
13.821604145948161 
10.822056937348625 
3.694377004191268 
3.6905376971106416 
5.361654800585808 
3.705223883995247 
7.191524071870186 
3.9105414347476484 
3.8225555506243243 
11.999558416117871 
6.6568362036218724 
3.1712066857256724 
3.870830367144243 
4.668659999264214 
3.907952290112813 
2.2366787164250788 
2.553988656093375 
7.690282018475649 
6.036480612788179 
4.592031246766317 
1.6276747869323225 
3.234542151825451 
3.335236466250749 
2.6558225064787626 
2.46409631006438 
3.3071194153425685 
2.3962026521696207 
6.210384422220775 
5.263083089954827 
6.064035471934337 
5.973800802471737 
2.2001247943383615 
2.8656346197825004 
6.777763961666306 
3.848035599148394 
3.1164717122121575 
2.3167678506270053 
2.8103037943667357 
2.297822864614764 
2.7899014249766085 
9.937897979639027 
2.966761999288254 
2.19677663913064 
15.99420758924613 
3.3058568142042213 
15.901442711877138 
2.8988080790136217 
14.065004890802841 
2.2351272427459667 
3.686513506817255 
4.996254968762133 
3.181519642217615 
3.046758198551762 
24.10397971915692 
3.2659093834348396 
13.232341933382877 
18.485675833010394 
2.57937886754468 
2.359493058727306 
3.7426064010545352 
2.3790776685910844 
3.7088419317198515 
3.8671316362265205 
3.562435526449816 
3.173997147609028 
3.9526118689982686 
8.003141451722891 
3.618004114089445 
1.5352222213734685 
3.8417699853869194 
3.98088105778399 
3.301713879960046 
3.547802044125638 
9.233895918934783 
2.2247256647366176 
3.9281585379847823 
3.7062404241139 
8.025925868798097 
1.95986765429035 
5.1753679585394785 
3.3298367758807865 
2.5664049639700566 
2.955472670929774 
14.230370794501843 
8.33521480842086 
14.253681363062427 
2.835867137127924 
13.33818808038083 
3.327144391068077 
2.522982979852435 
7.662202879448812 
4.162846884149122 
12.941962017213038 
6.084253711403718 
12.772137949526435 
2.8854324799333315 
6.163037263718618 
3.0933289811419877 
15.193214462043 
2.7506917783020133 
6.065521609174643 
2.7231944969851924 
4.522501075566173 
14.530125478139524 
14.02082615127213 
3.596829129105345 
4.9040070714952915 
3.4581776807576805 
3.1586002558694593 
5.257720846600269 
4.630842762083618 
4.519391970729421 
5.56355121756498 
4.52492511248174 
5.20227109725999 
5.263789742184119 
7.29257739030631 
3.514918826021445 
2.1944037422685736 
5.638811647421601 
3.506035816982863 
6.180900508638644 
5.760386684827158 
4.967373667925719 
4.007167190179329 
21.768504681614157 
3.1760222067743364 
3.4045538689630543 
9.038620870680745 
5.329467005547256 
2.843272834535309 
1.9686333472719268 
4.316500407680207 
1.8455964815331636 
3.6617599658342446 
7.805843024494544 
3.1213757651417895 
2.6477246271792523 
9.574442804657322 
11.336206221669961 
3.250519230610838 
2.7899354918027814 
2.952160957144526 
3.518518654188801 
4.67155672083893 
3.9214243665739903 
3.8066519379245647 
3.2328098414063855 
3.5451198727952296 
4.370809989144811 
3.902343694423023 
3.646825161249844 
6.368518300287899 
5.488610762694436 
3.7172714772329747 
3.042652600832395 
2.180575900780904 
4.3746154513887365 
2.873645486264019 
3.207794731512494 
4.4190256765009375 
9.969307572505887 
9.400836464759672 
5.5253715034167135 
12.800002450331446 
2.8885448105790013 
3.676777914234183 
6.774035676197084 
11.076461075774892 
4.143894299785911 
15.360690064809798 
3.233145290989938 
9.357884740147451 
3.7828944507856512 
3.943021808222539 
5.20128848493837 
7.568633240236113 
9.551416582856717 
9.291245767994415 
3.6357343806507845 
7.05336337894482 
4.1939506155185455 
3.4323999997501664 
3.465640591582117 
3.197386960759449 
3.9156955935771163 
5.2702828172268 
3.517256582017407 
7.14789223532158 
3.1493862892483597 
5.55483898954593 
4.6719028865163645 
3.1991491647598314 
4.310511357072554 
8.41689724481326 
7.173602013809627 
7.425273867337106 
5.446944760548489 
3.74512461741492 
22.746766771284896 
7.364938664912092 
4.08651223862194 
3.761510267278868 
4.174029026594598 
4.674253474283803 
3.423979634175999 
4.660302613937109 
1.9802980143525943 
22.849785033462815 
9.60881334917794 
5.050724951959569 
8.72713846615562 
5.266134015845387 
7.126034125841631 
7.640533796825209 
2.7991264653355454 
2.8611033649859254 
3.3584756137596377 
7.902795343222184 
3.6774866898520373 
4.5817918958684105 
4.467407673178602 
4.561944239469774 
3.099341435453154 
2.8899900243882746 
3.9334894069827735 
5.371427757953801 
3.315952532868961 
8.039397681307248 
4.942054809140558 
3.1294255897199847 
4.40181518450314 
3.5804677026481406 
5.651219556314696 
5.304033664050089 
12.795345754064444 
8.647803239545324 
11.676787731815313 
2.728450634869722 
10.52491382286571 
4.326256900469889 
4.620637838323837 
3.1782455475094538 
19.937460480500015 
5.996699492794627 
4.565910040633144 
5.802200234503095 
11.838661305718825 
5.145867283150983 
3.885146471788008 
20.377189812529494 
5.734659195027666 
4.001276963082589 
16.042306059365043 
3.9363485221039825 
19.351944906057188 
1.4789509535596 
3.685325925435485 
4.940486252241184 
3.922075426757159 
4.400630258234587 
3.6408810882691687 
4.831071333871504 
4.698044968603461 
4.167850765571102 
4.380661050260105 
3.177835264767013 
3.9476865037811497 
5.47330531207602 
7.990404935409678 
10.218682562432173 
2.2692003015310833 
3.3358731877637635 
5.2641217182637465 
3.2356512068696146 
3.6167997832694674 
5.978604888729299 
3.95096612939384 
5.351681467435979 
2.4946379498698055 
3.9810410966469103 
2.61399935662466 
11.19510397058603 
3.1616858755743937 
3.1255924533716173 
4.1948997440413205 
3.676937172704516 
3.9986071476756138 
4.481243452811893 
13.447036593474808 
12.739426468615864 
15.27261714458914 
11.052783014555118 
4.359204013956786 
4.145564329869949 
18.236711559302424 
13.514700732780756 
4.863335238832366 
11.430233924477207 
9.317164031680385 
5.305723316740873 
8.735551791904935 
17.349791150743435 
6.155977350416593 
10.071566898724058 
5.0414949464899 
3.3324701113548696 
8.838696364889685 
3.293583806099145 
8.231378609667141 
7.558967134249753 
10.599125842551965 
6.153076993673864 
3.7516519522667213 
4.816338999579255 
6.570805195495769 
9.643401495526408 
4.002588143405089 
4.576450130180791 
3.1247438370028124 
4.057500127880926 
3.6149811246454018 
4.107587866859016 
9.544176103025265 
1.4892718628185235 
4.276100175218331 
9.232739319489513 
3.188014696113255 
3.0507619404917974 
6.221198386349601 
6.029423923580149 
9.919492246975656 
5.7719908689638455 
2.718396481354358 
4.169494027261753 
24.60012774424605 
4.17712841580658 
4.159688566025958 
4.917670071636066 
4.3384558331266145 
4.379773523807922 
3.9099904496694524 
23.620177996307387 
5.398693650582368 
7.4975464995723025 
6.111498069913571 
4.560254863141238 
21.380689055978436 
5.302086021938351 
3.5605427551518325 
4.571583271460115 
4.060393329331551 
4.204655931439372 
20.111608646807873 
22.674744872221613 
15.342074071391126 
4.257526962512572 
9.795884204119814 
7.645456464766418 
3.9312070105779506 
10.07349016447818 
3.232556049671818 
3.2351878369236813 
4.842312305783462 
4.512716763676348 
7.990878488801688 
4.225810655848933 
3.406980193350614 
4.1566208959008115 
4.1752664897576475 
6.751205989271326 
3.1598755431982366 
9.422705499626794 
3.7379073183247296 
5.544461261916748 
4.825104190614144 
5.330930801032792 
4.5144492009133845 
10.051782000780907 
3.3878742194242326 
11.037995120922632 
3.506739374554388 
5.494813971198425 
12.622211840995279 
5.125999921840113 
5.227545219068097 
11.81141603495941 
4.293572503103903 
3.1091343932950775 
5.83583708810905 
4.179968022415947 
7.556969993202919 
6.256390647560847 
3.578624640406642 
4.1989694691828765 
9.540550014943129 
4.074351991377518 
6.699369902876405 
6.0601278514269605 
6.666914222547447 
4.283803156961955 
4.658103838943672 
18.73866240986882 
6.102321019284942 
6.597808111734818 
4.135434001630431 
4.3506073809672 
5.406814175826211 
3.186211216500559 
2.965493070812343 
3.637357801599388 
5.482823589315515 
5.179888139523656 
4.223596888169331 
4.003164930383112 
7.907336283912533 
3.670579389283382 
5.197252380286343 
4.825890348794956 
9.434640144645464 
3.2539530358881303 
6.690725356616674 
5.438756591739533 
6.275258607523636 
3.2918892055263735 
5.2653384868237705 
3.3779173387328405 
4.665764778467367 
3.445484231857829 
3.58453720570534 
7.953484332956837 
3.6315869775340808 
2.5764435587662993 
4.898487958079798 
2.783702876125074 
7.5937302485851275 
3.0200355885323398 
5.1379890087856 
4.21114936296535 
5.9388847034067975 
25.95743337588826 
5.740009728094264 
4.4785847417080635 
5.10447959436492 
7.433867091492194 
7.943156848707741 
14.276893387474171 
6.852342971052873 
1.9284511516344005 
6.3951607517194855 
2.0195886188130743 
7.846331296467667 
3.2273630759165615 
2.0848618876022034 
2.555733173157082 
7.081221102490764 
2.4926879086617584 
5.524656160450146 
4.029001529306852 
5.2994816686329935 
11.712656369264371 
9.188901792187215 
2.143380161250463 
6.817010136987653 
4.347218349625708 
3.988976533606599 
2.8222675575925855 
2.287852203788249 
3.637720272789807 
4.409213700753012 
5.122816952717875 
13.005308870994401 
15.22143272558197 
5.661261449220726 
20.677310597420565 
9.60819509318755 
4.879777891242392 
5.975758070798357 
5.465795842048088 
19.865536800329448 
8.480611592660773 
5.212631929074905 
17.742417216061202 
6.65252726168932 
17.675677094499907 
24.83665459845253 
4.667813337124023 
6.833541484404772 
5.634902453305863 
5.437825544929316 
5.606425108399646 
3.5137698227257617 
7.419779926976419 
6.931491839540771 
7.267080708476152 
8.860563370162302 
9.340145261076414 
11.260305780059168 
15.470459773698433 
6.226681352076144 
9.370634116360227 
19.333997486278452 
10.892651924086781 
15.417779264089836 
5.811402295309786 
16.32439042678572 
10.711207130945317 
9.750083528320873 
5.210681199709652 
20.36861239164326 
4.292848832743907 
3.177326399402313 
20.25315752427565 
12.314437791723089 
16.826607966342827 
20.21522531906396 
4.456679498904853 
7.308683498142075 
8.477639212537426 
5.43558083647814 
10.285191742350444 
2.381717793727003 
19.029377092672604 
6.024249132846973 
3.0397022740241044 
14.369256778868467 
5.059013788096174 
9.93265170772276 
9.398525440750658 
7.196581531554314 
16.999255591638377 
7.739874636341175 
2.644287454459615 
13.735528726883988 
7.334610261875176 
6.183449156977857 
6.891277907566955 
10.334279796061733 
4.924452711261997 
4.408203829388903 
8.50170516596775 
7.857292884894425 
7.36106649786326 
6.8258897233940905 
15.823515579114403 
8.062314716819783 
4.4452129442307085 
8.435932559240253 
6.202215604668621 
6.686898031855433 
16.638987044279276 
8.974552416295797 
16.08199479367461 
7.375843963213315 
11.020766828524998 
5.472154493895681 
7.544782066715049 
10.598224687895746 
3.4532834234712118 
3.0750276566594206 
8.095067549836662 
3.5243429277848435 
12.033207027607935 
18.955935427590408 
7.932418676144259 
4.53305342351538 
7.413756661450552 
5.665940399096563 
3.1959177032832864 
7.033627606072883 
12.412294201893328 
8.269799171833807 
5.316870187281672 
3.6346207535775297 
8.82697449474729 
3.5278933423256116 
2.6478429094949454 
4.212316735974768 
7.594635029559329 
8.690547621520897 
6.144051897648951 
2.5563856244151233 
7.793946299730466 
8.296049786839399 
10.576005288645506 
13.136704880573298 
5.046265479365778 
3.7535923030325513 
7.514554736293585 
11.861553031442115 
3.5598222148851275 
2.3137194058799824 
11.719688303265535 
4.0706178983423 
3.019648450813454 
8.619612157248044 
7.390174952415449 
3.7210168481212333 
4.475080800490442 
5.667584866056196 
12.299244926238211 
4.007485983688829 
4.446601091170882 
8.68027880735194 
4.759368275808022 
12.054729904751118 
9.107605678802525 
2.85640663245411 
11.432309736914076 
3.965459433565768 
7.7206452699184585 
5.193305650256918 
4.521095607228369 
7.990010925089001 
8.049086523188379 
9.06277755161635 
6.67387645913218 
7.9765423368640045 
3.403126981516135 
10.503999759681587 
12.847067781392786 
4.113885030694811 
4.055784470941585 
3.761014410250402 
8.251170867502093 
6.617295612852045 
2.576086569349758 
8.418356428707346 
3.217316415564188 
8.268012036167102 
11.033244654866408 
9.508330278738423 
14.3665212829539 
11.829316211599684 
2.981964561494216 
9.400784918789599 
9.186162996535693 
7.600033376745275 
6.669752806315485 
2.5739570800765628 
2.510476474688018 
2.676467702745585 
2.7289901652749204 
3.0277345687117876 
8.551846463157647 
2.627300530237082 
4.751658783070973 
3.5873291105430094 
12.908688378775077 
11.802382033637342 
12.890470956216168 
11.338717187473003 
6.27418217458002 
3.487606748309949 
19.710495560898256 
17.67390264729786 
20.495699297538877 
3.5790904872533162 
2.75886726737207 
11.640589045486252 
5.093825055611928 
17.69013278015919 
7.698103894276131 
15.164437488097066 
6.999338958033714 
21.13329221312708 
5.321783365175272 
12.426025232356189 
3.4262713898833472 
14.271822015619954 
13.801479828141325 
2.702719239087201 
16.279717796366967 
4.740282169742792 
14.311184643203346 
9.013833817733895 
6.415445628734014 
9.101055548008729 
8.531552940754661 
7.613614207544709 
9.750853272802473 
9.352040360428084 
6.727710383846021 
10.332927249277255 
4.780395340239475 
6.9972220687034135 
5.289521944081871 
12.223878983917842 
12.324466210747106 
4.222747762575382 
11.825494813218684 
9.688515615798169 
23.54967160630012 
8.07744343549509 
4.985170907951291 
27.003167751319626 
5.8333437872660605 
6.2323954315527335 
22.548992085953284 
6.592228286469296 
5.905664970251543 
3.297863930907344 
12.342434290027054 
3.688811401533681 
3.0269753290843378 
8.299078246952163 
9.38578288212645 
15.266879590133495 
3.5668419878467925 
7.827650846342046 
3.7526466111546313 
5.389461475615015 
6.910362871710302 
8.448239843345261 
9.090551491072427 
7.650730315152275 
9.44181891203927 
12.672488899333771 
4.079903621713344 
4.362986507177117 
6.021742113481591 
3.3639406939265983 
14.337826788091151 
13.49150174281155 
10.681375500358172 
7.400567337507023 
11.925166812564926 
10.595157277542004 
14.313128537317139 
9.886238847070375 
5.581347265487624 
14.063910926211483 
10.381260554741822 
9.381342089745829 
10.912273532137705 
12.888597227487848 
5.842159134790096 
12.116628814912747 
3.0547998469454143 
12.964950899131859 
4.166090379216215 
12.51559005154257 
8.406078938244864 
3.3038802832018215 
2.8146675892200284 
2.714597160343989 
7.580312661880208 
7.464303436326661 
7.166292289408887 
26.879359263358513 
5.146689014925116 
3.764561027544797 
9.243248986770793 
12.528351997239271 
5.131007289059766 
2.6814559184574764 
2.7338362490975876 
2.848141861704035 
3.036965832444205 
2.714337799722283 
6.251344131723479 
3.9186160279311415 
5.049060361383786 
4.279757668576302 
17.298361956032274 
3.653207199344644 
10.573156259365229 
4.496422117526444 
11.61223707224782 
3.2659124232441177 
6.304429888963907 
4.466584179425751 
12.075777840606506 
3.195706923800628 
5.85140632176038 
10.383252299133641 
5.400875160604041 
4.599141324130525 
7.815365554963208 
13.825266808381414 
7.185765640029487 
10.03308366672655 
5.057434024926694 
2.708992701143273 
11.047923721228747 
3.200559861577194 
11.827918490033571 
10.687336852640655 
11.799878947852973 
13.728214337119722 
10.733776323796134 
7.318959044065916 
14.350555561609184 
14.252230663703326 
11.75321179988264 
16.489272521431836 
8.138351363286485 
12.847151869745485 
3.4876955049062603 
3.571246240247148 
15.706468004243597 
11.716964069380227 
14.899325096289472 
4.6914050393632705 
5.472650104367626 
3.660598184148498 
9.849079031832487 
8.684522024298671 
5.7526843639877745 
2.6244235924013304 
2.7700610031385082 
5.4105546524554144 
3.893663390733976 
9.855016543951924 
5.344246066146917 
5.033571292990969 
3.261601397923561 
6.254723587532789 
8.349533662687199 
4.309110646336067 
12.539025308653748 
6.516100616507629 
10.59018802493418 
6.377662263702075 
5.977095356557065 
8.171362063693836 
3.6731676402836646 
2.4318439733242228 
10.422153612477015 
2.923623668861113 
10.387953603889544 
11.812604578214934 
8.747005828329605 
13.52800271552741 
6.588327801106336 
15.091258129038081 
3.678501829707 
13.293299446645547 
12.283472666523028 
12.101639154930139 
5.699916053291472 
8.543441142839958 
2.6838466851078895 
2.7215582973029453 
6.327743017383592 
4.220656017706951 
2.90768703511042 
7.045711693543694 
2.8611653076351855 
15.127499844849767 
13.566179685494953 
2.6023955510085455 
11.292028539192849 
2.77685263457012 
13.540329049620933 
16.00850998648918 
13.719811844044523 
10.265300248465921 
2.819309240885447 
13.611509617993578 
7.805808363214325 
2.7655332688683827 
2.235648799312901 
29.020875087374748 
4.574012680007692 
2.697073656375417 
8.838996763879944 
19.079810364551808 
6.704281265138086 
1.7806564634787259 
13.494276751628961 
5.681826377202797 
2.4148164665539453 
1.616058673142362 
5.892407112875973 
11.75726298088297 
15.379240986264087 
4.211589471908881 
11.160305433909254 
4.7095872984772305 
11.644916160611343 
11.984418870531393 
2.7440770827743948 
17.703099640336113 
9.432193103338756 
14.467254836068554 
8.365237527708373 
11.21989865847607 
12.798757284586722 
6.650093642181373 
5.5871125769513315 
4.833614614859375 
12.135849006268783 
15.862765286145 
9.406859788118707 
4.404299717518901 
7.26147288621305 
8.7405497900287 
13.411486591752999 
8.89510431291434 
8.34391017380956 
12.989419488002648 
5.248519563798784 
3.732001846177519 
16.48247655495471 
17.514030970643454 
9.029494850507843 
16.126108799971686 
3.6770898645588033 
4.879566810119868 
5.1183192044221135 
9.537606754406518 
7.117131270053191 
6.051276400932535 
4.777512591357149 
14.203654805646549 
5.487410593235634 
10.880357083934562 
12.670844040153911 
7.4270094057600335 
3.9087295072776147 
10.80248945544697 
6.429107909705879 
10.458757637760469 
9.121860980858411 
7.074652830128447 
12.260363863907285 
12.270364319638933 
8.886466958112154 
3.8666457422066207 
6.451272071870193 
8.398732245997232 
2.90572752629454 
11.672301562132217 
3.255133114843736 
13.5329305422618 
16.022245764107094 
15.934228672150269 
3.270080752719816 
3.185377646151123 
11.859937918547487 
15.012268295634899 
3.8881099894777766 
15.106216656558077 
3.1063682063146603 
3.2259852342937236 
10.151882827265544 
14.081289534311686 
3.1393010942378523 
4.104518556943654 
4.334381626150404 
6.069744513998233 
4.3478486593118815 
5.427222190853737 
3.5033229455569312 
13.780319432885584 
16.48202557716993 
3.874738844305253 
3.5573126540361786 
7.817004709472957 
13.160549640114713 
4.228090056032294 
10.27281186948641 
3.622557966632899 
6.213325762284931 
2.4416979288303344 
6.759305641260948 
9.614489270518792 
3.876301294842421 
15.391680211224642 
4.532026163597945 
7.026894661526302 
15.118395501384137 
10.25642437351878 
5.868936074930401 
12.397674003345463 
9.63360041076576 
9.397369666209226 
15.730201860167835 
15.370174132051154 
4.405633819769006 
12.254564064757458 
28.99260925748843 
12.95884464394683 
11.900665614308402 
15.927910490081114 
11.998752733076879 
10.59328066698262 
16.3826122061407 
12.323301474208712 
17.585404981489347 
10.431793126425145 
15.452836880882382 
19.03146904462128 
13.403310092498018 
13.815638778030342 
13.821923251331762 
18.06092871506983 
8.736092181331392 
18.070515194431675 
21.70656215342121 
17.497186300569563 
11.391890874598968 
15.857140928599765 
10.614985310186874 
18.085536153293035 
4.213513244465805 
25.321244696866756 
9.484508435350941 
13.191307933470968 
14.785978825437418 
4.004327134564693 
19.297032273688263 
13.837181457560819 
9.754859816500216 
12.089049657577643 
7.364579072402975 
17.703601297580292 
12.119326759456662 
9.91456181977377 
6.207158614623241 
7.2199831491132445 
19.176245118475588 
18.030735012786643 
13.826801582577716 
13.614567323830524 
10.236036121278309 
10.419523134842898 
7.683282747038193 
13.925747809807532 
7.217371839687049 
14.357363182753346 
9.679379030834369 
9.632290186897926 
2.951625552524958 
17.656252456911947 
12.883577238491254 
6.656304009026696 
5.226456176115885 
3.6322871307364077 
3.5589055183116067 
11.054127876071224 
17.41631724388093 
3.8666071513533673 
8.759555832041475 
6.631240431078702 
7.303852660676122 
6.957358241883254 
6.805968430228022 
6.537868929059659 
5.9583514551465555 
9.00633892631742 
8.987938173240396 
4.379412009251634 
8.411495406421183 
16.498773183816777 
4.405277238596549 
7.871696433438976 
5.55664976369926 
2.9147402427679845 
5.954356671825761 
5.494932271019278 
22.13451699035283 
6.764926842839368 
4.171195957712187 
10.402566839961073 
4.739833735534992 
14.79651774336929 
8.699278854840932 
6.200364025379918 
14.63942008885095 
3.616128959275108 
6.6189054047159654 
14.927278386409455 
10.394871011005014 
20.49291231988832 
7.754794543174173 
11.74930429545501 
13.276618719676792 
14.452870304338587 
15.27858686675818 
28.221264624164423 
11.082365927718431 
5.404614141828552 
6.061794892071948 
4.026639516880916 
5.810678591852517 
19.026712254830088 
13.539946927333505 
18.699954656513317 
4.612096561106913 
8.20328086899164 
13.337708187796354 
12.458796322778507 
16.508410740156823 
10.077105677747202 
15.812223679775412 
8.227874780361494 
8.499717386544264 
17.8893880989624 
16.579400083996056 
18.867435857152465 
11.975790649242395 
2.760126532631721 
8.122554943259221 
7.864790765523905 
5.8821699520808375 
3.738452552375803 
3.8211871230404566 
6.825031140407055 
19.876635467011393 
18.0358564119988 
6.565034193291628 
5.29704707423112 
7.508740723280731 
14.109337435050678 
13.932243783211465 
8.65737860383449 
10.896406406695007 
12.783824856178384 
20.399085800803697 
16.37677048456358 
8.083976639450599 
14.876448361129526 
6.588251024323208 
8.257758784279329 
10.404757112457773 
13.824309578191118 
17.694825810663108 
7.261582333540569 
5.5871373306710055 
5.285994563381846 
14.549938780526869 
10.181298412568822 
9.084607538489518 
28.413209703441535 
15.493817814117259 
15.405310710804224 
2.4885202133072895 
7.067618477130389 
17.537312226622994 
19.510256329079727 
7.044624788220378 
13.83509669929963 
14.81603759799732 
11.555618629475322 
6.60646045216621 
19.572236730210427 
5.009490706924313 
18.789498604239576 
6.274409553320789 
7.207697014362301 
4.697343898054539 
18.73058331308471 
10.731958405307926 
12.732047395016082 
10.21023903643926 
6.226077273060951 
22.245176303062745 
6.18987602403672 
3.5191155364928464 
14.137071779095207 
16.68345140534608 
18.44806757649753 
3.280925738533225 
19.695802255716163 
19.68957156823162 
12.928527155738678 
8.547063174435278 
11.088470694105455 
5.82132520143721 
8.147553703234287 
19.773338064945357 
2.9545640616450286 
12.89237704601048 
15.333035186192095 
4.086217486901296 
6.4737276085111315 
14.02446176110829 
11.108971696419301 
19.44436123817154 
9.232988893375959 
11.315449568893097 
10.78770016364882 
15.379691065105446 
14.241157877657828 
16.634957872494255 
15.793233771738981 
14.328022212026005 
17.496008148988192 
19.950357974462513 
15.62251577473743 
14.598767575700734 
19.70119606632446 
5.594277146311786 
10.997113238595313 
19.543453021236623 
11.269544890923731 
19.331085837028976 
15.628871744857852 
6.449488172079163 
11.470066131467435 
8.91157684867169 
18.971947727706237 
19.32105909451595 
7.638724166953078 
11.479311877197093 
13.796938092571345 
9.50992406264182 
9.363266615223836 
10.737194988987813 
17.35422358640821 
20.468739693792738 
13.230947078056511 
17.592859430508472 
4.603168022956063 
4.520401621168473 
13.697888224406185 
14.567341994054537 
14.61878204839683 
10.8850392145875 
14.73767940174486 
10.175019077188509 
10.689709171055515 
7.8046469868644115 
11.603649001940518 
21.223373369209405 
11.678964231279384 
12.820802458733342 
16.976661148757078 
8.38721819010304 
14.948756106965167 
14.334667162807094 
19.476523168549235 
5.222678902886623 
15.293718034414239 
5.386797822474395 
8.91547112268455 
14.877875415500487 
11.542274092680005 
20.998645234404094 
17.37240713483565 
12.551016216313814 
17.44897676554555 
20.97051748076138 
15.606374826275035 
2.477671597606708 
15.973643033581249 
15.054812089403931 
21.08475853429339 
5.802802599202972 
4.333830659101438 
18.98908187328518 
6.133931766258176 
16.0817304438019 
8.913428512679753 
16.904175835833072 
5.405425939857055 
13.036011363628045 
7.29198310577161 
4.996825285849429 
3.0242021596556596 
6.491152178867745 
5.599230160156203 
16.19312583147379 
4.047433851967892 
4.256174734538514 
9.3168923744507 
7.8549836396512 
20.460237127290462 
4.7079428294588705 
9.125254789965533 
11.501549211207648 
8.677771055575596 
11.33855299269028 
3.7790425834920396 
7.112118573068783 
15.147298442752026 
5.78207519266868 
6.763606969724948 
9.013634019298808 
9.254374300467692 
8.151096313951166 
13.68007369554171 
11.914451496200785 
15.693144695667186 
6.8403917093136535 
23.066525288184614 
9.65956023284716 
12.167350269886171 
15.52847003462626 
11.656353434442961 
19.998183363845573 
20.663422151040876 
12.966763245521395 
10.965218335477452 
11.002488353963138 
3.136716337195208 
17.62130856065513 
2.9722541289814863 
23.24522769580893 
16.670427662166812 
21.57122915729453 
3.030743336829443 
13.135537513255413 
2.8248724211664444 
21.001939524555826 
16.412436605733014 
3.01155826443883 
5.61652377788267 
9.721020033758919 
12.16049119834931 
4.6710132250318575 
7.770505767284086 
6.218973099189454 
6.666563134336245 
7.357822590743249 
4.957576160984705 
18.248180976714004 
14.171006543829677 
5.588266241697606 
20.81604484731668 
17.720787146820598 
7.2509913513271345 
21.03143484846124 
25.018713281663487 
5.080558122528994 
6.121168723746511 
21.381148989560828 
26.275297831506524 
3.6991091809150074 
23.550666207198095 
18.39060975964434 
6.4147092895980435 
7.104834774496434 
18.50659511945312 
27.19437449534929 
22.16600146145319 
15.427369652432553 
12.659056337269577 
20.079221510535206 
17.085181673816756 
5.996034380445451 
6.172883868086543 
16.999945312138333 
15.955937372623577 
17.556635376703106 
7.160086393847248 
15.942790876478552 
7.296952922388732 
20.577693579173598 
9.587149850796507 
22.298510286807215 
22.150839823381872 
16.282820528553433 
12.53722106937442 
23.42202555716367 
13.65821501041029 
22.320738759191567 
18.20030770146963 
21.19820341173177 
12.147916904996338 
13.332851239882272 
13.142560584789381 
13.220855347137894 
16.587179297247935 
4.2370685059898285 
10.044150667150697 
8.123954697534298 
13.205997571570544 
4.060029596373513 
3.536908072721514 
20.55012299067338 
13.091744445872278 
23.518662684130373 
9.882105895708422 
8.286854028721963 
10.218266616270581 
4.740630981167606 
13.199916898613845 
9.236560122383644 
2.9264747562652618 
3.799192414104545 
15.226958158433415 
3.4616104364535736 
21.489850364782306 
22.878962326118227 
18.395034332166233 
4.82163908124152 
4.849500001000293 
8.697119038018604 
19.511326762865338 
13.04303655520353 
20.018445837742934 
4.753910740043536 
6.062561107335842 
7.565858676343419 
4.582221755150571 
13.159536641518823 
14.79610866872954 
18.94351272751935 
21.485327312805822 
17.645176987793988 
14.679185755822127 
12.25048643775079 
20.806536402517203 
17.285000634027423 
9.570673325696992 
17.0488316953475 
21.444347657348597 
16.68665548880826 
16.711869836012198 
21.257043481600338 
18.832935821172924 
19.29174967467096 
12.578398272174791 
18.61182343091027 
21.579240642364024 
14.663172584429478 
10.381626892721046 
19.920412581633197 
19.496871490402373 
10.854911137201457 
11.502692905106027 
6.980585925163768 
3.013080961717879 
16.98247392672951 
8.923981561123997 
5.350082391293403 
17.961430407449864 
19.6506617737133 
15.684300358467175 
4.603251200335595 
4.000915881831165 
23.24642595764921 
22.203390489662446 
5.824405152172659 
16.981211874514074 
4.9047344304012785 
4.032028171532021 
7.384182081072189 
21.452575915114554 
4.021717299648779 
3.9835976207398827 
13.414677983938116 
17.9321902016519 
3.3725660650185185 
18.604942383476665 
18.357175483234883 
7.958597395363712 
6.852193373166503 
2.841345184180732 
16.70507373242508 
9.714321233315642 
17.32312237145445 
21.86573709304929 
26.358613267919967 
24.403228301136703 
2.9941909445067796 
11.174707929610534 
22.52178290134445 
14.409641101209466 
10.659420182514111 
13.570602964401877 
16.749335918060993 
17.13019269624467 
4.618402428243394 
24.1465718268761 
25.62501991759018 
8.42537775686491 
7.923542697185038 
5.758947822791937 
7.382232294489606 
19.22175331974282 
18.85473852045258 
12.98498823662562 
5.24236683297341 
14.39686503583554 
5.086269240724622 
13.216387400379292 
9.940747514568928 
13.025738469089447 
5.918034430032301 
6.684600861624425 
7.145942232695161 
23.510653015738306 
19.97171748577508 
8.640197669413526 
9.783383024317322 
23.411696108335892 
17.019002716930352 
20.40691178542352 
13.251276184135184 
22.695233944442673 
13.62894040300639 
13.956403819388342 
13.260758885864574 
14.056745871705882 
22.20345450411917 
18.673505277877545 
23.022047559178723 
24.559113736963926 
8.501293346524069 
16.296472072821633 
3.2066693981079726 
19.97963734485974 
21.812052960426353 
23.316779499290142 
2.9394167199968675 
24.749068772759742 
18.176888835278138 
3.292737154172509 
3.4594548994758316 
24.444141901065276 
22.993326219062055 
3.4752276103326896 
10.610695569255613 
3.567631253049861 
24.252422111534063 
3.21609494029117 
6.779512372679169 
7.221786146173209 
5.530557020978592 
15.897814703297326 
3.92320532505541 
17.131769251443654 
4.124536548703737 
7.08840513393737 
5.677342023817014 
22.117233735059976 
6.750499250560224 
6.958614012533878 
10.1157442819898 
23.151160611027905 
4.180721815215516 
4.525909315942055 
20.92357373944754 
8.971810504830332 
8.320444820929772 
6.692767164786738 
5.6386420988278765 
3.6292978460842606 
17.64252405311776 
23.26853173755862 
9.748016360810634 
5.681628348484834 
4.196788521954028 
8.425805018835556 
4.628559109392757 
14.128622189588166 
13.780865077310681 
20.292016074504104 
7.934832927851037 
10.398991628528849 
6.4194217058882845 
18.108759272245425 
15.682087226710244 
12.489539376860263 
13.17559611315683 
5.567462018897505 
25.792171407211352 
2.131524960000117 
20.914739469008484 
20.289840820611655 
25.064309740547145 
15.223567856429298 
9.037728983761838 
18.99515975797637 
2.124235057361427 
2.2530912580019233 
25.690073733602485 
24.484312069119678 
2.2635284071963078 
11.102515542835159 
16.936121093520928 
5.14362998663424 
19.674776342891363 
1.7707557190035872 
7.196214837991798 
5.758601224692125 
5.372256647776025 
1.2344436007222765 
24.61660031173855 
8.61818246102246 
17.429828508742638 
3.7307241456148357 
4.820558283572484 
4.549269735846875 
11.61083407525667 
2.316044809026014 
5.9695026882748365 
25.014233562123174 
2.7379181377118003 
21.574460536911438 
2.0077594593545167 
24.056862433809133 
1.9695541571869117 
1.6464509575380937 
6.949937160777232 
14.909439096351445 
15.087469963847072 
20.602364583065384 
11.11787854274368 
24.7752010445457 
2.17867819328537 
14.345835411597143 
20.42418826986981 
2.1041756831244567 
22.83269456838087 
3.2731637843371897 
4.632134716344562 
18.886314118753344 
6.369841796483236 
21.659398362505364 
1.9793664438802017 
15.416491113696466 
24.705573938298308 
8.918628805903728 
21.3873148181694 
9.370374580990138 
26.426533264963858 
20.362800244836222 
10.035228442435368 
13.189834299684033 
15.63330679922097 
19.487454862074703 
25.72371223633609 
14.703652857683169 
26.18701297470229 
21.354603678048367 
9.896682472826393 
7.563884163851237 
25.821711816133494 
18.861861578253013 
4.866922446384232 
15.207477723993096 
25.033946401744213 
3.1528055719490085 
24.71955880066427 
8.702978099933112 
27.2964936067283 
25.172035659187625 
10.239757210191373 
2.6553208981139793 
25.409225280789997 
19.339992992342122 
5.012841933720223 
11.219464922818986 
8.238860817631295 
3.625123022439488 
4.417923150389753 
6.596585800480521 
13.196577971325304 
2.78414524758742 
19.49419668618634 
24.959629866901345 
13.356413346915383 
24.724686900854298 
11.702342795328784 
3.1420304947570354 
16.44221776277382 
19.734520954068504 
3.1339837873999863 
20.82801242870304 
22.61713140717322 
8.408575933477806 
3.4048859125843314 
5.701325985995492 
28.218827088300017 
14.752746817784681 
4.266770585368563 
2.7031675774671187 
22.237173569492946 
10.026664247304439 
2.875836645302458 
2.970614424092034 
3.32695463977157 
13.731944507053571 
6.4906377382740486 
12.190817433092061 
10.331916224503225 
27.384505775731437 
22.073494134687046 
9.799567137065225 
12.336482936099877 
24.81575523736288 
25.308462423676836 
11.04123931051111 
10.899586116460712 
14.61370517422768 
23.672480128117193 
27.682260733101376 
20.543033072472802 
17.27885216555847 
24.209139906828224 
25.7981543522437 
15.934821604062275 
27.48497656018192 
23.636884960716937 
10.369529448255854 
15.402892789269492 
4.454789490878584 
16.060594749574246 
5.724840626381989 
11.67379992827696 
5.124315025002207 
12.254097296493086 
6.873310280878494 
16.758653674379758 
15.447178680182036 
12.375691563856272 
6.2984954797146715 
4.532594340923505 
21.137058878991844 
27.429433513898612 
19.77583659535344 
23.865038510714676 
15.406921198209863 
5.190455367970135 
14.894384904795118 
25.321694429944877 
5.837943661679176 
16.001053828288697 
28.320453890922924 
9.92986099810485 
7.945480047626457 
5.672577806870214 
3.0522348172028417 
20.738757829956022 
3.7972142003061773 
16.483709479543315 
20.392566458742287 
5.086136371878875 
28.4952037702879 
12.479397140530466 
27.35707455552625 
5.514252961375749 
4.967229529912482 
21.106670579565872 
18.90494797466558 
4.743845515708969 
19.217075549673766 
6.5188460412567855 
16.35570265856427 
8.483860514616977 
5.482373510536018 
24.95141331779954 
18.911064000645382 
7.1679359676955325 
5.235335677583766 
15.090053680127566 
7.01426166895579 
26.376076900495345 
5.89365395734239 
18.616870859734668 
17.31716543953766 
11.12709410180573 
5.465663091605932 
25.054920123013943 
4.15881025007083 
13.572938033475781 
9.858178543899974 
16.674812031326777 
25.929061940768744 
4.3071050699783004 
4.567616169663439 
21.399192360667143 
6.039430692998761 
3.942107701887643 
29.52590401090734 
3.750963541267853 
8.346749029520637 
20.59077151594563 
17.14829080013619 
2.8887538676315705 
3.0660063713474344 
15.70436773784126 
28.610560795558104 
9.391498821930135 
12.156079036255123 
24.78850825522852 
7.957074675634489 
9.550948129185528 
10.181029158590933 
7.080752840765606 
13.934772392439374 
11.73021315874308 
6.763123067415391 
8.264456566903087 
22.947356750352494 
6.255755116648665 
18.155818356392917 
3.6558004003423394 
13.12380963259723 
11.729004728587089 
7.035895350378883 
1.8506784373996201 
8.22187958216391 
12.759979153033527 
5.351955351375769 
21.478060853915757 
3.6543674073858705 
4.611214595560031 
30.932842689107982 
8.145764436784253 
13.493219060191054 
8.617434226501576 
3.193984621574369 
3.7842859810289897 
8.091992843177866 
4.539626571460924 
3.1942469183527678 
24.058798686757186 
18.62864487723538 
28.19045266703576 
11.71852338849824 
3.791246363592548 
2.5010381652883646 
16.621104847491225 
2.6683026653218387 
27.102389412495967 
25.184068411998542 
3.1807353712263495 
28.17703518739663 
26.880090109789094 
2.8638513148169946 
7.92518200866064 
17.548050146244208 
12.59321838629658 
23.750105273403832 
3.182157976501559 
25.42369110212886 
16.24358545994338 
19.048999090931435 
29.55561572270307 
29.455872207751096 
21.49742867302965 
3.1022355569403994 
2.716349944624042 
3.9829738359691964 
10.795911733334764 
21.711299676139483 
20.794517307205325 
2.6813954844198706 
18.570039102881772 
12.24841485283294 
5.549660645769658 
9.94999748351609 
6.2056247181802755 
27.368764016677538 
29.518390014653473 
12.682731565687472 
10.249579698301257 
8.950975627690854 
23.923981080398757 
27.926380270506026 
30.902470531622967 
5.051924551070117 
4.764570650862914 
17.864428970066605 
21.241879186915494 
14.677708078703299 
7.368552957675444 
8.41745820193166 
11.038699267043588 
12.143426561619378 
18.312021052452547 
26.978182802459834 
23.67840097727747 
9.52231231648171 
5.242896901438741 
16.188746249254574 
6.397368374419422 
20.756175657751992 
18.170008779920327 
4.147327747782025 
29.820515832831934 
5.132041324076591 
5.05554456132341 
8.627462780370225 
24.187296552083026 
16.681242330990184 
24.452888412225217 
6.4292359816784055 
30.84066813344605 
4.668746294133282 
3.6986743162875437 
26.2906895674456 
26.28186197870513 
17.173687477134603 
9.295394678243092 
3.412055091157515 
6.1775809087897375 
23.725857839997545 
5.739675414809524 
5.99816031915125 
25.452061634359 
5.223422329556489 
10.812810988506023 
3.4865344104875904 
29.600181301463998 
28.88597055430054 
10.921033832183376 
13.229179407820993 
28.167659036739543 
28.7584439856394 
13.863624582859925 
11.243217149867757 
4.635315272995129 
21.335737217421748 
24.305443820949268 
3.824280454197522 
12.468318248608126 
17.0532250526233 
7.593335595910738 
4.912102535772328 
22.222517342533852 
23.656610710001562 
20.041157855795472 
24.373091241732556 
25.17922007273884 
3.993901947199772 
6.9281500798702655 
25.54957078582251 
30.404266678408494 
26.67827814132502 
28.153389512187 
3.9676312283161335 
4.2371208301352254 
13.046622903684424 
5.785434951740327 
2.9411366639039636 
30.948383403781992 
3.592741430317627 
3.060175148854875 
12.892799244970496 
10.535159307029812 
24.902747860582455 
20.225484338695647 
2.119082948766086 
10.602814501157773 
14.798041475953111 
16.631172777286594 
16.303726925210196 
2.382027735371076 
29.667950513011206 
4.0729197373861 
30.00426630702395 
29.536416654132456 
3.2772434508466435 
8.121336534203778 
5.378377430913815 
17.266767538164082 
5.884999806342044 
3.4887616395147503 
7.277093264532111 
3.1270018620713174 
17.136292483701578 
7.034314190497624 
3.6255708562511955 
26.758023665815934 
22.724116984116108 
18.6061816606959 
7.0146228335906935 
24.831445832418545 
7.857572338144434 
17.793638986800307 
25.340070958827496 
10.35747804544027 
22.705788988379528 
8.52077246037369 
23.77462545660258 
29.80610520733618 
7.909248219301358 
18.32070855549385 
11.58366803090517 
12.29755654083682 
23.81955193939298 
14.535452050181348 
22.601669892104926 
19.303986418826007 
14.152314690634679 
5.290661466463284 
5.916018735342613 
2.3707957014520074 
15.742173692636149 
8.23692052450424 
31.521633839057195 
7.086449388880423 
29.946785306079093 
30.55252468484834 
5.841739275302337 
31.07567454025478 
23.367774413329403 
26.595601098082266 
8.344686579325293 
16.95049782149377 
5.549884391127161 
3.7611392949205866 
1.9403749819892484 
5.801624167372195 
8.444372896923841 
25.53399796766991 
9.423379019568952 
7.267939740639621 
28.090260995038026 
11.82642100163472 
6.51125316434531 
10.036536055675024 
7.608452825120354 
12.433298277566518 
6.396156135482481 
24.51565487675137 
21.977017213534776 
12.664677170479623 
6.591954098597983 
18.53752227216854 
8.141970701993671 
4.618914809760755 
24.53883982856668 
6.638936015131283 
18.097552974512297 
25.80759283690642 
4.411635481916705 
3.8058003730169747 
5.800629314830026 
3.1274350534811144 
22.669445717489367 
25.56358268291243 
4.6275640635493245 
32.14846168574862 
7.529810033937351 
5.385764755130818 
20.997762966135927 
3.8537939960840952 
5.237696821620832 
30.243082030439556 
4.009901624202442 
6.2653362222208315 
3.7908713973091444 
31.079101156553282 
9.42351044810726 
10.282734570408632 
9.813985034100586 
7.397342635643084 
3.557573041011761 
5.904429651635037 
7.5041452953783025 
21.552855579076763 
9.41557114070677 
17.506533783732188 
9.810707169941757 
20.833522437214437 
3.739791785168421 
25.70533468972874 
18.268110561626557 
10.799787848183472 
29.151438631930365 
11.336971540360175 
9.612781222227078 
5.404081393942727 
13.057056674636845 
23.414409815809613 
4.355041498563572 
3.141890747655098 
3.410762580063665 
5.733947072656771 
5.98919276804927 
24.471730674211003 
22.787873699388708 
3.462448746599976 
3.1672646601792045 
26.94215640420853 
31.752683744075323 
2.8774063667330667 
11.746742139728891 
4.5105198662537385 
3.6287683640487463 
6.740656233447353 
10.273321804110978 
3.3395119299852025 
26.792490557829097 
2.6821968163465852 
3.1262005985979706 
3.0322763934975203 
3.038813331369945 
25.118014015905626 
12.427369568543577 
3.213212954535821 
3.0936731023239274 
2.9654389912670776 
11.98488184228477 
25.793718401449944 
4.124271227513266 
8.197326215010394 
6.348428251937284 
2.305816655148211 
3.3583638889867244 
3.261229033215498 
31.06074867180047 
6.749292728578358 
30.945360942279283 
2.8329479414762897 
18.81542247903446 
31.183758181941563 
10.375350942901914 
3.2361363784878217 
21.790621310587458 
31.491344467804463 
3.575408520864493 
24.047990653698427 
29.356778619397847 
3.110482964383793 
23.458968128880397 
3.412779210801716 
26.68369836288415 
15.262734503207916 
22.595329268771334 
12.09341994588178 
32.04175341950641 
11.141503400836152 
19.306718764209688 
13.46356421958556 
17.83897008874002 
8.893783969828137 
14.946083421005609 
13.863137302058233 
31.73280449420548 
18.521846098879095 
15.445294614068217 
17.014437570332262 
11.83237740712616 
27.170168074925655 
13.842053082727148 
24.262043125733932 
4.6358222365832 
5.511382786102523 
6.041894584243528 
4.789317979924465 
3.544462648890816 
7.505527773297369 
18.522061995976365 
15.185269756535916 
7.714745887933755 
3.261499132636092 
27.990228158442292 
25.251300575484727 
1.9763233523521608 
4.435605935587307 
4.4791189707266055 
17.631293125685644 
4.012469270422228 
12.74892627369419 
12.954059001275644 
16.852799356153888 
2.757842028093639 
2.1404499924322495 
3.642164393262274 
21.43394894611815 
25.034845056731385 
3.7763737888527555 
26.710844434074275 
3.602595378762175 
21.967538917118304 
11.200655446103502 
4.4894226030402855 
14.610835788689805 
3.91674839575899 
4.339367137242637 
3.3537712577101995 
9.784301085538043 
5.579862968465774 
3.7880064892581933 
14.443051286526442 
29.772951975453058 
14.802206921065347 
6.820060258119776 
9.52558058587704 
6.42301351670836 
12.2105698159268 
5.678486133527037 
13.441932353456815 
15.194852717491303 
3.957750214316887 
12.032066966541882 
7.7381056778601645 
5.592692344190315 
7.75787163615769 
27.05422868714334 
4.332011542422477 
11.617092727028075 
14.546601070905545 
4.3998831040064585 
31.666060186581976 
6.211461692544616 
5.971142315051649 
2.562485929747776 
6.632291354037592 
19.264722588925277 
7.797131317003352 
13.592303570874693 
7.258718102576685 
19.474786756676366 
27.777929080920984 
26.382003219199984 
26.66262282935609 
24.037985254897734 
23.748299265869885 
18.219955012379707 
28.324012841880098 
23.434513600376278 
4.1308447353497915 
28.758743372122684 
13.153553812197941 
17.889522369478446 
8.96432922244148 
14.214600814523388 
1.9898242319622321 
10.413911489658977 
6.365676532292349 
25.23834409044795 
21.2134757205905 
19.1830027063173 
15.05131885999723 
26.324197789241666 
11.474975721458042 
11.819265244328154 
20.350157624062973 
19.564347860316833 
28.435010732136792 
19.64470479828192 
5.08288766096193 
3.5366906958098703 
3.922248489356609 
23.333083252274317 
8.089080606854349 
4.181142023418586 
3.7852630147882027 
27.48532185034522 
3.451251862934408 
2.2520967535949703 
13.644256909899275 
2.4901209368194537 
23.41268054929246 
23.750818049678966 
31.462107903016147 
14.681265038048263 
13.148702580751149 
6.814795531059085 
2.1127080186193474 
17.957024429218606 
2.8358189773574884 
23.51988119961912 
28.567406516661674 
3.2034522619915062 
24.65965467649274 
15.217921885932304 
3.086821427370353 
9.365253191266882 
18.67112594029936 
19.537864747693284 
2.1055603005268373 
2.76921315047506 
10.614956070340755 
18.05208281867268 
5.956507597745101 
2.16248525691468 
2.5005483192458886 
11.816187312643011 
9.288040003206532 
1.3126823314978517 
17.374359526362866 
5.964286497243222 
2.789775681358931 
12.058853871850289 
5.022804270348342 
7.696929732029645 
17.68210633600023 
6.863317605526401 
4.766795232442747 
20.59834652013076 
15.325530809635497 
18.279172526815817 
15.483184183987802 
6.168143356068156 
5.726059699775893 
6.0779657813176025 
2.706914256787375 
15.714158092115266 
21.33481170846164 
6.7560262658178125 
5.8474426874973915 
8.388427272797358 
4.10368146933279 
3.533599589963756 
4.05175824920398 
4.26387905852791 
15.23925854279885 
3.6674575332008934 
8.870282312880017 
11.733143885579656 
5.846825791217142 
5.095647691979417 
12.64481503194864 
3.2100794765245215 
4.013461314195837 
13.304495435172054 
9.258407876562094 
27.978901846731365 
31.740840658815717 
20.168156528769792 
15.388936675459151 
2.481061636785405 
2.8861188132714166 
8.43700629853687 
4.429677306744812 
2.4939027631239723 
2.718046053947274 
4.5712812630329305 
2.282976432377035 
3.5735999346126035 
13.403531078335218 
31.65087385058639 
5.83186635214883 
6.122224969004814 
7.100891736485286 
13.910271387014925 
21.50719315338413 
19.72232889175763 
14.684748306860854 
21.444179408075772 
13.300541234194936 
19.13405911637284 
15.846178937367354 
16.777239445124447 
15.91928865721542 
3.3578753429030175 
18.99600579485747 
2.449923355053085 
2.6350502553735073 
21.79292442301228 
0.8146733731546825 
3.735702710363929 
15.138035011662625 
2.80620130012605 
2.705412656121788 
7.084696361021741 
5.614068368085206 
3.161105483032914 
4.945500629368904 
9.029889022079484 
2.5633719552704863 
8.363959482503404 
7.196066741526178 
16.15592303118951 
13.718219477441968 
6.405306200212299 
7.875740049896875 
8.600080193658332 
2.2408975063352 
16.500586748037307 
6.460240297300633 
2.267143439140935 
3.3787540043467295 
1.4703260263262152 
10.135007683087283 
2.220137154511311 
4.275974649507122 
4.663053973098835 
2.7086714435343304 
3.4424998903860153 
4.7041319222516105 
7.136028995505775 
7.447221781216356 
5.086088433370522 
8.015972285581945 
8.241614176390879 
4.850764812744841 
3.505508777222543 
4.525330811920639 
8.474239036380188 
8.428520015886136 
3.7192620268915673 
8.454418360886676 
24.991282668529703 
5.341142652190927 
22.349683346700484 
3.859440131685252 
3.2603188737199886 
3.117797038972519 
16.646392525282693 
21.709072560148 
3.916337138269348 
21.46934245615937 
22.684873022388125 
1.9815441971455132 
19.43407326242378 
4.720008479313202 
5.522546926346763 
5.30904675975128 
4.338875314509742 
13.606116836910152 
16.778704367214573 
4.7089361291704925 
25.102233127823265 
14.634166899354572 
3.9606569722897746 
5.1292012827594125 
5.345551032240172 
5.974364577822145 
12.607022613020822 
10.607336457689696 
15.111124880557737 
3.448525467156925 
4.025885571560815 
4.2652473370122514 
14.79184325972106 
13.356847171483823 
17.028750946135 
7.413653361612755 
2.786335489489593 
31.269505376200097 
19.179986002956728 
19.272063247691676 
3.9738539974781437 
14.734127379873009 
5.456925509077538 
3.5330279410136356 
7.112180500435373 
4.876141855720271 
5.774232882248243 
10.45869871933483 
6.380963824503454 
5.990201000236075 
15.462595749885729 
10.587177862249867 
16.55906241185091 
5.538839736094337 
3.6844348443107164 
6.055090423071408 
6.060614625971715 
6.7665518980685215 
3.3726235231896675 
6.127140420600434 
4.756049167320873 
8.478207118622475 
6.262169710248327 
5.040884570275816 
5.809770612299913 
3.1342395712266633 
3.183773534242363 
4.507438166052959 
10.746225154724408 
5.741579752471057 
8.964209500202033 
3.653428895263098 
3.5854785664265676 
5.617677041890681 
7.79915494329796 
6.818844834886467 
8.025528869336211 
7.349156707439092 
7.064256735227418 
27.330152397789305 
8.0240284744191 
6.635212543682238 
6.76229391008531 
8.05979308983542 
8.00574713654705 
7.885519795403319 
8.696551136224153 
7.881675654987989 
7.902612720854159 
3.1015285807465123 
3.5035520308900163 
2.9674171634495785 
3.2046527294237186 
25.892318145776972 
27.572175628561972 
26.720866125319002 
26.489661408926228 
7.946410083179481 
22.42535089268555 
10.117593581709317 
7.760466524882337 
9.492534133230823 
7.252302484806392 
8.86455700594572 
7.2957626227193035 
4.504298672648768 
7.017735320204287 
4.039061560557118 
3.41723245776092 
10.178184725082069 
3.0322847408769364 
8.584154972072318 
10.366386461752437 
10.506763626504384 
2.7199276253399858 
6.124982875875776 
3.3377608395213505 
3.3850684681995697 
2.590061653395492 
7.033345107906312 
25.691754359243564 
20.727684659917582 
10.041349928681514 
7.5985646298695375 
5.085820505249145 
18.515710995729478 
4.757498084202371 
23.312778631945694 
23.505551127755734 
22.60771603055638 
7.29669373380709 
6.205740058286253 
3.89151669573564 
23.628275911661834 
3.5807161341071576 
3.3861234983956585 
6.930198297051248 
22.945046475332727 
23.961242043596666 
20.40212378318588 
24.651419092917855 
8.416406896970262 
3.4777571794384112 
3.0403482748656785 
13.126332904892248 
2.349146981229278 
10.238855524773035 
11.072226895034154 
12.881421011911467 
12.995899543170271 
2.9657470316747547 
3.460975601449455 
2.966656387881039 
11.557362138036256 
2.41313086444366 
13.535918048603353 
14.284040918623585 
12.07274694361025 
11.16363175714944 
3.4635236817972594 
3.4884696908303368 
3.682008141895005 
11.785210032161217 
3.298777852211168 
13.339526851802152 
2.667578104202194 
3.474431476006509 
2.638539778025446 
15.0988364969762 
3.2459911432675512 
15.135384460022156 
3.074476914218937 
6.069998414412265 
3.156285638454028 
2.407278626891757 
5.329376128808995 
3.2834061807231123 
22.43445200227882 
3.405160874882869 
18.918023457525376 
2.948437883313782 
3.9662079969875292 
2.337246427307643 
5.794875340296454 
12.349616539376239 
14.867153063804466 
6.292919518643452 
6.878048042768216 
13.150145107545253 
4.203440408412719 
8.314255656920645 
15.563337364348916 
8.20564563344559 
4.733967216835001 
6.517762196481547 
6.989481466509704 
5.8886865544680855 
6.834338979629076 
4.241922079993191 
6.927399992068857 
5.871932635018819 
3.3973820388136184 
5.489507095383109 
7.553561293569407 
10.236000690432684 
3.3251431217638294 
5.171656487869802 
6.115223331581612 
14.122490326795214 
5.32773837053885 
4.043396946765278 
10.16511329715754 
25.64209642741677 
13.191158036984207 
22.61902551195708 
12.837659008106993 
22.135874755799918 
26.327099927256704 
4.140717122742752 
4.869478271065727 
10.933334904234641 
5.534627402092462 
1.0445895798964058 
1.6474039646180096 
1.7346293243698652 
3.9025739171622167 
3.7849045528820824 
3.5202894045077566 
17.161991068828485 
15.483653299162428 
17.17647657120258 
14.121770587681898 
3.8780547301531287 
4.709561900883131 
18.333078416717452 
4.8484981444074995 
8.61153947736383 
5.581762834051607 
5.726972383200609 
14.687840209173473 
14.9601213362357 
16.8771297852496 
17.5226805287903 
13.156714159380389 
12.172919115352352 
9.552164508587163 
4.510767373363671 
1.5451079647583332 
11.376019117213616 
8.506369337871263 
8.409022000061269 
6.531565999190827 
6.57523337590013 
6.012597813496455 
30.942694187274398 
0.8917778973946172 
18.681760123645102 
4.584111501584495 
13.37373789961423 
27.096849723762787 
2.893652607662027 
5.5255045915406695 
5.742809573988788 
6.7999238675251235 
10.698888200454837 
7.461456938975767 
4.175189894080417 
3.666704268248878 
3.2664506427127997 
7.046771845041072 
19.28148210870069 
17.05678960839921 
19.860729696733408 
16.685118359267353 
17.66585338666462 
1.7472682949121547 
21.298989686224914 
19.347479546736125 
1.2991079181738188 
18.983582385799423 
10.638553574258433 
20.403718425411306 
19.344387241728192 
4.715294280146178 
5.057179281560412 
23.350542525027265 
8.272050752043263 
5.533135637459053 
27.571163824127623 
24.650214221443072 
3.514734361371816 
7.7622332498242965 
10.826722348728897 
24.498096331744392 
4.056140040845989 
28.527119967057903 
4.201366329396311 
4.514422858505842 
4.079786857046554 
6.105740755693581 
4.859547256681744 
5.279541545058059 
5.488432153934881 
16.39354309787463 
27.472495396875313 
8.255626987655281 
24.34212410886576 
28.35630610152786 
5.463791557798061 
5.922805053569078 
11.197631594892439 
12.500797472515082 
23.197173119845267 
13.421211761833234 
12.877389539759376 
11.898907992573946 
13.829239980242486 
19.284099109995793 
13.807355846879352 
18.03148167953802 
9.964778921150172 
19.63220700379815 
20.611180316554236 
19.722725569391685 
12.088403379096903 
9.384954701973488 
20.153496395225595 
21.986425528927708 
20.321949289848394 
21.0250157060841 
21.443733905169285 
29.503994377262458 
11.500112796084522 
24.823035877804678 
28.80277686791884 
15.978341834740364 
29.078828344877127 
4.564220592288159 
6.555188136743356 
27.126737939104327 
3.7871302873966854 
4.259548093443949 
19.3044488973772 
4.749436673454889 
14.305883648740112 
14.985067178654022 
14.961765324076039 
8.623787275525679 
8.960923864892479 
8.885196455534146 
7.7166127761122905 
8.217575659101366 
8.620484791113737 
19.662714278892473 
20.548737603476138 
25.090374560123774 
3.13334441055366 
7.5734627534949635 
2.368281820886361 
8.407981189703225 
9.22832575146096 
3.2767284234855505 
3.2177316438631007 
3.1751929260691303 
12.787651074550878 
3.0686600127021793 
3.1008188035470563 
2.7918352589009876 
3.149412071812594 
4.984560615660274 
4.846337870546736 
4.808006033104829 
4.0829917026095055 
4.119679226904589 
5.59120682526413 
10.984657518039324 
5.180017180274481 
2.729701029368765 
4.478385065899443 
2.3651462433469463 
4.503070315813097 
4.4111836295676925 
5.9268153916982165 
5.437886888235862 
4.426162292353258 
6.075969697465398 
3.178793103733767 
4.598978408052544 
6.669667098492738 
8.538192033116408 
26.30478986012103 
3.805968744499885 
6.47037542285763 
5.272944791496816 
7.7994311637652896 
7.276513504536597 
2.8298100372733748 
6.1541473795371635 
7.905000979612607 
3.597114499186866 
11.488172357081144 
3.5445579285631585 
5.453309325726225 
16.4828577922142 
6.206076399076522 
20.48699607894481 
3.383852168648431 
6.20961879006405 
6.573492915450863 
7.3560039191542375 
8.837451811092173 
19.24082313735719 
4.90273517245908 
20.238349326267816 
2.2608343672587528 
7.0984030787929635 
17.499698721416447 
6.218381436298322 
14.681851549718276 
27.62943542282835 
28.351145728060523 
6.089549982149843 
5.662276990716526 
25.030287802069836 
21.402549547023785 
24.04300770072525 
8.577418355485282 
11.988676793815879 
25.407464119948195 
22.200898661405844 
22.304052813333136 
3.127659770328879 
11.805253142945414 
10.788356703667151 
5.263626572562801 
7.384247431092383 
5.334448413868197 
8.66298673067377 
21.041353840529467 
21.298179230898192 
9.757168136766497 
9.075286290972226 
2.9444596812035444 
5.367593940331571 
12.490181144339326 
4.708701611355989 
11.522936510415372 
4.492121961815813 
10.09028670169277 
5.063123710114417 
11.14788284633 
3.254034873441907 
3.326796678768062 
10.32548105702144 
12.0042691042902 
9.714357506244424 
17.144949887230684 
18.482005371852903 
3.033247164523491 
14.872458989404649 
23.117903671473744 
18.2859177134998 
22.019600000487028 
13.188353351514342 
15.996316798115087 
5.306615049097603 
5.836820940247888 
12.338220341527823 
7.462427146087781 
2.74356550031377 
14.695889919845083 
4.788514786956291 
13.195141702579503 
12.424307073176909 
10.022851178498966 
10.601503243647693 
8.341218290826887 
10.933883169309041 
7.815389851642883 
5.268324872507532 
8.32146072515198 
5.543947924239692 
4.7696491509946055 
5.766371298636376 
6.589110727216725 
15.219085692463802 
24.261787066043183 
21.054063530337462 
2.657929328552084 
3.627385049419728 
5.4479572490767945 
3.1155257725765244 
1.2347135288347 
14.90754085113948 
10.022881214217897 
18.996368938295312 
15.181216172886774 
16.00362110212127 
5.300146623778785 
17.943399037041495 
12.701198957210021 
5.139766533991381 
31.071437484949353 
8.936012094704601 
4.0989076441689685 
3.1783843171850332 
2.4439916174792238 
4.387484072481989 
17.985794003746086 
9.975529400963886 
8.486249034488651 
8.917853199007446 
30.42453143356696 
2.5060469369872638 
7.781708262455937 
24.269571989024588 
17.790356501370784 
8.02700446219645 
7.049223607139874 
20.017212412661234 
10.485885211934638 
8.155387776894736 
24.37537348121238 
22.581884482606746 
8.293426115022093 
4.027968401808869 
18.75905088634405 
12.770689103122255 
23.419921905423855 
4.2546920174823 
2.983655566233025 
31.05833451974575 
3.3942496242410245 
3.787162490533059 
25.344923860019495 
4.5046273491401205 
28.17514695769378 
2.3338373917374224 
30.092399437274835 
24.71921850438829 
3.0371763896781436 
2.4384710001958045 
3.1535168231505546 
30.629537097552905 
4.982360326215297 
2.4876895374329613 
6.505706600370255 
4.449062816340314 
18.761713852813116 
14.127907788721581 
8.211133182664383 
3.3888404016682525 
13.291492583228996 
21.698688810862752 
14.317573411632823 
2.8783826296993293 
3.2815307101738544 
7.828503289748379 
6.529616051225812 
6.878770651681662 
4.072226742035895 
9.53513582641913 
7.116764349922464 
8.798948866682892 
7.383035949465225 
5.785878508521146 
9.655705312701775 
7.980651503856328 
11.825912328753871 
12.191612804040828 
6.225345440778551 
10.861621756898685 
3.3263265746301265 
3.437428212171263 
2.1708305059357467 
3.9113070705349133 
2.1643437073278653 
2.0296427568541677 
3.8475515117267998 
3.9091293564153102 
16.376883278946426 
16.200646198927252 
28.907178564445573 
14.48682285867687 
14.869569967334712 
25.33448555098334 
31.926917699528303 
27.05614518168066 
1.6154916388117515 
2.774251771309395 
2.715122210900997 
2.1165056791088706 
3.1796492268397265 
2.1877359922511554 
2.7255221327445756 
7.344188958150519 
2.3716198963029655 
1.806240697430094 
6.775162995633937 
4.376036491594602 
3.909158320392757 
3.660640747682612 
18.045437788441042 
19.179901893878455 
19.17990189387846 
27.834044859134956 
14.797850221860966 
18.07893099309794 
29.644909823404838 
2.413408069789126 
2.6566735816827833 
1.826556558895595 
4.0474183824906 
3.7676986671540833 
2.5061579065601935 
4.554074590294325 
6.0608645283680245 
5.480739616538671 
6.17936181671923 
7.470983811036881 
2.7344139090955863 
3.286038648922041 
3.4422440751785794 
4.067543658466623 
5.532693760987083 
6.649798868634058 
6.576542608155199 
4.787764038128261 
4.16561539822716 
9.652451812958322 
7.098993048817762 
28.983523166020866 
33.094127714637736 
20.357053272363693 
20.622961166112674 
18.285275455092044 
21.333214851813363 
20.901588629033544 
25.355935978508704 
3.795067770525168 
7.554317271016337 
2.8114305041902954 
3.3324342272727616 
6.045186480091739 
2.6701092774674136 
5.779168385200766 
8.069481848855606 
6.264595129269402 
4.221232067738288 
5.004755239494824 
4.972114900308041 
4.079408352171856 
3.382342597106029 
4.107111504615223 
4.72339316165109 
8.835835283579321 
3.221671767648693 
3.939316474649988 
8.30273806538896 
26.068324334466997 
29.145093001728775 
24.90533316750262 
21.98072010092804 
28.890042868056085 
15.968753740543049 
25.493676712055144 
26.26976816992997 
24.02241645622959 
28.582597689079638 
18.745774829088866 
26.433945109794298 
2.76481743227648 
20.387288575149338 
19.800390039178446 
22.801903163593657 
17.19007195244361 
22.31026989444624 
15.407633830988695 
14.697635804319383 
21.425002366357667 
5.765637385455327 
22.669894033648884 
22.446108496449444 
16.125132769567653 
4.4130418892260606 
2.581105599146293 
2.317186642550019 
19.792065002060323 
3.85567342573657 
22.703782502564874 
6.157170069904872 
4.512386602764881 
5.5413407120739135 
6.70662040500969 
4.596695885757333 
6.704126101315997 
5.267089748565982 
10.575875261955378 
9.516928949671035 
9.481322004309181 
10.846699487840986 
11.00421102375903 
5.220583180588089 
8.572830739878896 
10.410267924883367 
9.706309285636523 
10.516292421582671 
20.491108069596937 
3.6595320525071875 
17.12105699915846 
4.426315613113711 
5.183863879354571 
21.49558801222833 
7.961709499937491 
7.856829255633917 
7.896092547605577 
4.962663355313853 
6.451563263766871 
3.8384965593907903 
9.21317534493826 
2.082231360799306 
3.5349688181468086 
2.1307025806566062 
2.276970342675983 
2.145566089888682 
2.0398064339769446 
4.4151560882387155 
4.365637275670267 
4.48351469597594 
4.2029842973398095 
4.340652312969927 
2.7894398534289877 
15.05631486861338 
3.5626041619356736 
3.718250027310759 
13.988509983943766 
9.887810462566707 
11.819983607742678 
4.903529510274629 
3.0633531374660254 
3.5082127826468414 
3.2348642004211685 
3.309869115071975 
5.520661800050947 
2.356703402904308 
12.012225787499085 
13.81456826577364 
7.788319637172997 
9.964354464517458 
7.704399555509788 
5.943105984565671 
8.611981287849002 
11.094074750993414 
2.480540210025351 
24.797678436600936 
27.666388209890656 
28.22145870294247 
30.500568763917087 
28.36282987321099 
8.337220059573154 
28.484315220914933 
10.69793685419862 
5.347244386663547 
8.337220059573152 
5.368031714606361 
6.836786945948838 
16.52167665538731 
8.013457914770798 
13.337275280336511 
17.12549220252232 
10.617641382981969 
15.269087243707071 
4.629652796704296 
10.4869592887812 
3.594342804206517 
17.43180190162885 
20.101557425753846 
7.6152272398115235 
16.496852589398674 
17.01597677940176 
15.582481474259074 
3.6900447587897767 
10.221019643181705 
18.6764072260968 
4.727060484044707 
3.714051317489935 
12.220600043324655 
19.589319892453197 
3.982064280883164 
4.804774472137127 
12.988863451284224 
11.611265947127796 
12.739441805826525 
11.602599263973811 
10.07443485909747 
1.8124172546427793 
0.8268299879459597 
1.8016650808060823 
1.6704931997949963 
2.0049606542637215 
1.8160721928215429 
1.818771494727484 
6.013333862261889 
5.939005298421805 
3.345352334930811 
2.9833902801089174 
3.2429895568159437 
3.463093172645685 
2.8529149844207433 
3.3865938089543373 
2.517593181681206 
2.145186850164871 
2.713849035994278 
2.670915868171168 
3.3132958600359577 
3.922950274108255 
2.395213888914793 
2.2677961643195936 
11.881983310406312 
11.2673215326359 
11.13346610221443 
12.877988126899625 
26.607501697732122 
26.355068233164744 
6.139355163978618 
31.128624112134364 
3.6980661235535566 
11.845352103552571 
16.297679083336575 
26.773313692680205 
5.783945647696027 
3.707122154043058 
14.05253147084475 
13.769624340615524 
15.8452483805532 
15.260360876374138 
11.057611236423678 
22.392592432686403 
24.284890451374334 
23.459246731014048 
17.12183225337424 
17.651800104251663 
21.310717554795193 
26.399023506080173 
20.874954169865916 
7.384999418223993 
26.255437331289542 
24.174620035710987 
14.280261365101916 
15.16358012913786 
19.18792386758022 
12.57530312751074 
17.793055050206807 
25.478440127232073 
25.301099972434052 
11.77674327446725 
6.983233599300716 
18.01954825134389 
6.248658481787243 
3.0253374512334066 
10.832093165471939 
3.837366264792984 
3.463636696700339 
4.841152150172739 
5.1853314421970005 
3.765225546288411 
15.183750865937254 
9.56663351454788 
17.4891381780618 
21.104170118582697 
7.667687031270168 
5.183617911957218 
17.28683377014806 
22.610011064667937 
33.01896756967057 
21.108133729999487 
39.97701751003758 
22.951828118141368 
32.13316466910214 
3.263344159174564 
2.2027167443841127 
3.4501532905173384 
3.0520518662841423 
3.7133174202191466 
7.281678821976736 
9.207919963364043 
4.368056906751355 
6.480960963213249 
2.4827669027036983 
5.192966535735451 
4.909518800038024 
9.996114919389347 
5.653820810826084 
8.308621627712585 
8.517786976483675 
4.990556590967175 
3.6853701918174835 
4.886222286961607 
10.26318827758069 
5.555191635054834 
10.966073511473416 
10.12972704332901 
9.69806105183255 
2.258154738637439 
3.0964392771744844 
2.151190614057641 
2.2202012422333404 
4.465898981196425 
2.707120011733232 
14.798567543894016 
14.537259369279457 
17.738961357539324 
18.445585073369266 
8.74063279958834 
17.248217404248074 
4.0866852966685485 
20.66089063196482 
17.324501821839725 
20.196833342150732 
3.19681393447582 
14.075958623431019 
6.536095648967382 
16.69854632696032 
18.34487936352209 
3.8640246295360297 
12.904113446207758 
10.444420198593978 
14.56568809048757 
15.594038004960026 
11.537328372046321 
8.510824609512968 
14.55654415854059 
3.1686394801844937 
4.003718355962316 
3.6886664960626847 
5.8773307885756205 
17.896886172223276 
5.313215380639218 
4.927811705846783 
6.606591402139766 
3.4750031991288384 
7.042089238185208 
6.018833247678154 
10.970802847927196 
6.689793707685815 
24.11340609921642 
4.015549773286076 
16.127340501612615 
24.463790827162917 
23.652557670376957 
24.874778440687198 
19.303983322009508 
23.86964099300511 
23.165520762788052 
27.53829338978932 
22.87544193689116 
22.63343079754121 
15.161486336048728 
16.312310343799655 
19.205547026701442 
15.730370580990263 
19.187111623664464 
15.918995946530325 
14.70655806499836 
17.16812432733217 
30.185778003249304 
14.476097829325216 
31.779325081938307 
2.3160464177430433 
3.759453905682306 
1.4540149243868146 
8.101233542164518 
9.120939746071272 
2.5723485989565478 
11.585118819820302 
10.919944050993223 
3.0494741856019747 
3.805285889834548 
3.480023583348713 
3.8789869697334445 
2.8635433208296286 
3.805890630738557 
1.9809249361879073 
3.4241089224572905 
6.99278319997323 
3.690848714754839 
4.582584526464626 
3.2810718744187755 
24.32962573074487 
24.778700083583185 
24.596229370017298 
24.44380108993341 
29.28165247375022 
23.632766995151183 
16.3331258758862 
26.5171376772253 
3.916958646252742 
25.38000195752349 
28.05218188240334 
29.3343308128768 
24.303710923768758 
23.974713199529983 
24.273004624493613 
5.770049783556841 
2.9672077704350364 
5.673822488145381 
25.17155738319331 
25.047888132919056 
17.660818693069963 
4.243109461288829 
2.832181931332921 
2.0396799413050193 
4.70869613037321 
2.1385881824571724 
3.391425705285332 
2.6001375518477787 
3.0795043805407656 
2.940965850310633 
4.146588742415649 
2.298388120544323 
3.256951511537644 
1.5737296617479204 
3.567919262663805 
3.510700524342292 
3.6856778720124 
2.9152606605701834 
3.7818543578607184 
13.837019756559272 
15.531706305754387 
7.75902573391906 
14.973127475983818 
14.146551652866822 
18.602310993225895 
4.9352872377321875 
6.120114484621691 
13.218477418980315 
12.574509650324783 
31.219740033547705 
29.69176539965882 
25.32048818103595 
30.813304391419134 
5.474782989200548 
8.538192033116408 
26.871908586150298 
5.035207161705351 
29.49588631387826 
18.455930538968857 
30.510722721953293 
19.920465906945847 
23.205132428890302 
23.510372614339545 
26.271352451367598 
16.354191334867533 
19.439940353181733 
22.43573289593384 
3.782704112398714 
3.6383515637851023 
3.4474886549353054 
3.312100163158306 
3.897498882081492 
12.534375204282986 
19.0433325230002 
6.556126789443862 
5.2089477516036915 
3.758492384326926 
4.716901477212773 
2.1955139873561307 
3.123758355346348 
2.623327029801076 
3.609011676775733 
3.627448094850716 
2.1915190350960825 
2.0659573360338217 
17.010588995830418 
13.307630725476525 
17.191122619071034 
11.213273893847333 
17.172662020896908 
17.268623813336497 
10.823036202433713 
14.10938463760973 
20.102281122031563 
6.045738334364947 
6.557383217970242 
15.670495472176858 
11.874931701085659 
13.000860017022385 
13.365292363337385 
5.180577226429291 
10.276395614215646 
6.254586982520126 
9.288809875012888 
7.810529680797227 
11.9247645083471 
20.605850929440965 
32.67906808539755 
31.269397806995826 
30.95342449897416 
19.75991817824381 
4.604236625190027 
21.368395834004897 
30.294308128518832 
3.229990832554379 
3.530167930784467 
5.471677787853675 
5.517165378988658 
3.499597908720392 
3.786185651663047 
3.456683792124653 
6.383750210518441 
12.76570688548958 
5.983869919930658 
4.295844990936373 
10.156987479421929 
6.809507600632093 
6.488308357514527 
3.5269305110998648 
7.914894193592328 
5.86583945267245 
9.47495671541588 
4.152554414471218 
3.7778385117896467 
5.8964585746827165 
4.786145623510824 
4.725914507877507 
4.7466216184409005 
4.945719106164972 
17.539257936436798 
16.436802812798398 
11.016426102034371 
4.229463967520565 
12.192049683069499 
3.8550413989344796 
3.52842001199144 
10.550506233633731 
12.716146138708607 
3.194725579688408 
19.92681774889188 
20.014538105608104 
20.308988590462832 
16.185848254345373 
16.104142982586954 
24.962664752682674 
13.939200416764283 
4.685508442510439 
1.756698601527248 
3.997118800743789 
4.392202414294676 
5.3661467394797295 
7.2653515234386905 
3.521426829886635 
4.190769473465092 
10.832942872342251 
9.811966459442843 
7.360810991658667 
11.598250055436273 
11.672354882079714 
8.665121720170752 
8.603807020101224 
10.171247848441936 
3.9680061963245836 
3.0533362863659805 
12.483804506727674 
11.31759279983481 
10.476827552196967 
5.396906474864098 
8.759840930727322 
8.863224790285255 
8.537521189469578 
7.034399063035023 
14.213277528014682 
12.648361981543644 
7.718275551913233 
11.839328316031253 
7.969857528719848 
5.851533363852489 
6.127585093025862 
5.8059796989447 
3.5994831412707544 
12.893435912194912 
7.964548052011751 
12.45357662550044 
12.543673434542413 
14.319828893898231 
14.26283463304097 
13.98010001548108 
14.812351972893701 
8.906950373807035 
11.140012458342133 
12.805491798278307 
3.3886949335836767 
1.3374162399820175 
2.1930581512636262 
2.909917458457273 
3.4032548610737026 
3.157085443885787 
3.590017975734902 
3.873088745890061 
2.705522801175875 
3.9637994013274325 
3.9536449085386423 
2.059815557478618 
14.338800139829502 
14.9244574280606 
16.184551412571977 
8.034786550265014 
8.044153692338904 
5.236233470609389 
9.050592281609378 
9.801959298256905 
7.189283620272795 
4.650779625533437 
5.001010209082577 
13.604204716797698 
16.847366350851843 
7.728763565330746 
2.9828044864009406 
18.933572914476574 
15.015807914716344 
10.380849828837428 
10.623286421512836 
16.859500835772195 
20.76641107103002 
6.488927903633091 
11.718555221187856 
12.23503580854913 
11.274390444299765 
11.372974752578108 
10.556389613708317 
12.036225385225304 
11.289601925530972 
20.361925771661447 
4.528768227283941 
2.8463566269773004 
20.16725423096923 
22.92443726001705 
8.620961003592578 
23.029258058769102 
18.354490400658293 
21.25887870508706 
19.542769396847095 
7.312942003552705 
4.676658946497411 
6.071055224347274 
4.03316254819436 
3.9201957416184188 
3.2570230852999753 
6.363446302350665 
5.761350590314371 
4.252001110256803 
3.72086991642507 
7.2657535533158635 
6.144764099705801 
5.489788189624354 
5.038342588510167 
5.470404155459434 
4.975199263500337 
5.4172736434991675 
3.290755105084672 
10.152725441180799 
3.888166097266764 
4.481968475527672 
8.325890284405016 
5.136956333127929 
4.213688318051964 
25.969528060837145 
30.212151588665346 
28.303689437349938 
30.542842321878336 
12.630398508253107 
8.91278267461236 
29.31439437865174 
13.227097719494004 
12.441137244055058 
16.42840893860557 
15.694591055661608 
12.559223891956336 
11.012607217242573 
14.419724268956067 
3.3306257130234753 
24.83644533401642 
26.568980661935843 
21.175840150876063 
10.497400891730148 
24.029015517812283 
25.543663861455673 
17.79501004604816 
24.598488751484332 
3.023108323343457 
19.181576920908476 
27.105465719960474 
22.300456384371746 
19.433463564797083 
7.864264026950108 
10.79219465611874 
10.866665945512043 
11.134228949560422 
27.565572202997537 
8.965432384231917 
10.18747727544179 
3.655564878830831 
8.306702421846271 
8.185359569897715 
5.504146541786737 
2.527281291028459 
3.551277624931464 
7.732997254783415 
4.642183133940378 
3.740903774506064 
4.6840257311491245 
11.184561292018635 
2.6207251649173973 
5.527058731356163 
12.044898326163137 
12.625354469405762 
12.243425309274528 
5.9977597475880575 
10.888385646938108 
9.860370779627047 
15.09668198275264 
3.4685059752543648 
3.755122772789822 
11.861394717570807 
14.143740088929736 
14.216872313170157 
14.73455531831873 
13.696592995779826 
12.060130696948749 
15.076413831808521 
15.180071580618742 
3.7602523398587495 
6.144639046246586 
7.376233513422004 
6.359329862315666 
15.931401514637214 
8.577550499711824 
15.049795666528158 
5.923032169553641 
9.063289569677073 
15.288110182373458 
6.7318271128394125 
4.701580713800682 
13.153526082242076 
4.075993356884966 
2.7746788534346942 
16.924610620650114 
1.6774676906868065 
2.118243136399165 
9.706399763386965 
6.252916851599662 
4.9368974067488836 
22.23684623280291 
8.359137353837966 
9.284981970586456 
4.165731647593052 
24.329884179965855 
15.715521337933252 
23.559709736797306 
2.4055928776614626 
28.06340630775913 
30.289637814781646 
4.372300185849617 
10.703903315227837 
3.6338532344983028 
5.249546507865307 
12.338552858222098 
28.217940682745024 
11.957111202889854 
8.421235384321852 
11.023742330310872 
10.910495274157002 
13.785954121113686 
14.38327143157289 
5.563329601614198 
7.702945357911242 
5.387586151140675 
21.265393753864092 
14.888736709309358 
2.7786272310816345 
19.549266800838836 
13.16379491888474 
9.687677072099767 
23.250167780507613 
27.123469099669705 
20.150103714071697 
1.7346713827716358 
3.2429511837010687 
0.8355022000481609 
2.025586699584025 
1.126693810551103 
1.2907433439310663 
0.8660535542417124 
1.8339597106726588 
2.039400003681632 
1.2108922630890595 
18.252205619105972 
5.627114913562713 
12.11041511584776 
19.259714934549862 
24.841446162937018 
4.715373904476442 
9.913140547903094 
24.68060740986153 
23.117942191537196 
7.9298345715458405 
2.6310756638764645 
11.535889607038225 
11.453545170256948 
11.240456333937598 
11.989358051557025 
12.112760431872493 
7.6264695516858305 
10.308658750279088 
10.566146873668297 
11.767031857742444 
10.750076062536216 
15.773491136913352 
5.811539077624032 
8.064293522742275 
6.698239598259833 
20.099205968871708 
23.439291115847006 
25.7109103843533 
5.783855153491971 
6.455330597693913 
16.466705109505146 
27.956570623258575 
15.731882556312254 
8.813481879813292 
3.314108531276755 
10.77086657431728 
8.796834112255954 
14.50701945151409 
11.720781911946283 
6.844731705394525 
2.3827265273943383 
11.547138661848624 
11.745997772062793 
5.8141227213904365 
16.188340932814814 
5.456698044745366 
2.9112092258653526 
6.353562763426725 
2.2205277763988787 
20.833503230650486 
7.115124916108721 
7.820078740935298 
5.100296222250966 
16.2344748645537 
12.294189700036512 
9.410804082982903 
9.158888536991288 
14.531254297050614 
10.543955632291745 
17.17575246201422 
16.605076550782947 
11.803000647537292 
14.13776410584089 
5.001780631596573 
10.24709159665695 
11.430912680255311 
3.569533291390068 
1.2527023672312114 
24.599049437094653 
24.34507494424493 
23.895347557007643 
28.21783897904242 
24.83500373025032 
2.9524593009864843 
6.591818303254373 
23.698975618003715 
26.786685153111552 
21.744201832430345 
15.510567338627075 
15.245600543830747 
24.663859185108745 
28.188752035495632 
25.060502327329676 
24.315357264178466 
27.834723023148637 
21.33834649210864 
24.113944293659696 
25.205602148812748 
14.872277780746758 
17.13927209558288 
3.4582653384680304 
18.2973061215436 
13.421561818085843 
17.423855921104234 
12.112998826134707 
15.967816521723076 
13.997943054234172 
8.41620894669711 
14.128317412039932 
8.064063758801945 
17.555005994629834 
26.332178448214485 
13.624125907597861 
14.274462394528834 
22.62393376458429 
12.67199457672144 
22.51776405057872 
3.3422358935244283 
3.6565861698774493 
11.535942957085915 
12.117246162292012 
11.685495420458766 
13.434912107276348 
13.426901320108641 
11.348952860503447 
13.333228016775431 
11.465837988495844 
5.34423482593527 
12.08218715419218 
9.338668689935863 
5.090013414701039 
10.27004811519963 
19.460403349126096 
16.2229947540865 
20.53508430846698 
17.058364508462315 
7.557656217624759 
26.22666071769274 
6.752717471151577 
22.09871218883561 
25.05897391320122 
5.03940629322843 
14.907330755818448 
14.3565494107978 
4.157461598186619 
6.693364154378695 
6.640943202851495 
11.907248456807896 
2.556558577439739 
3.6098283294121263 
3.8713040825455547 
10.251276626045401 
11.545346596991852 
9.406391164330598 
9.112963766841544 
10.302947919457628 
10.845129022012488 
8.515909871226759 
10.170168666678318 
7.774840868377312 
3.274289417352464 
2.183033794830577 
10.216354296476561 
1.744749693871387 
2.517504593234354 
4.8582861587474255 
4.297854345198352 
3.225528664474716 
3.4864969791497753 
3.554615003171048 
3.646991626001153 
5.076317028197271 
6.794952668382194 
2.8762864521608966 
3.4845086769611924 
13.916720753639288 
18.969656774403266 
20.284343379987543 
24.67129796073109 
3.5991002473063105 
13.124069053093272 
23.36066215937886 
21.363095478886557 
20.400659563180685 
2.974472829374501 
2.74027768430521 
3.426358601580571 
2.577054654222573 
20.47399133377533 
24.753169558189395 
12.838633505870915 
11.664053476381664 
17.447282168092556 
21.70476264507612 
24.67629313805391 
28.818210505432603 
25.86521568931946 
3.4185397944220646 
3.1099055821841537 
3.7493344807588453 
4.597380461417864 
10.986034636269004 
9.4018763755824 
1.5240248192952077 
6.655074958502636 
3.481056920829405 
22.44839673571382 
3.7341747759713555 
23.55154735546797 
22.878999890011922 
28.218586973716288 
22.31515018544079 
27.0528726950303 
18.601525820904293 
27.46548995486047 
27.539068763625693 
28.519987130822972 
12.011956299500323 
9.573124443147819 
23.76123039867654 
27.140727477286894 
23.31363413941339 
4.798201215526907 
15.692341221445798 
24.432367853892327 
3.8374677983488046 
26.66717397403367 
16.655017308924705 
15.810846348709944 
6.842434899447287 
14.439574993924047 
14.580112076013734 
4.169812309807624 
13.755538211695818 
15.699431050392985 
3.6817838538976817 
3.405784556721105 
3.5419444050014692 
2.2397928730045034 
2.797319628577051 
2.7133606529434346 
3.3275948869209233 
11.619110718573546 
7.638727622210111 
8.28387149983049 
7.371824162800114 
8.924626316999936 
10.141826727564828 
8.048037213557683 
10.891578992800682 
3.216996274153966 
11.579607276084896 
2.5831597466503773 
2.5464441852211315 
4.066740279065606 
3.2960269584737363 
1.182755822096048 
3.366272742262879 
3.3999369021018016 
3.3470593731714495 
3.2383252835209344 
5.863000332910957 
5.496518442925314 
7.788617732597724 
4.8917330128026375 
3.253925840651865 
2.1831057198083776 
2.457977090694432 
3.1963013900075974 
2.758957542146808 
2.113435888590545 
2.117052420706265 
2.167336217985987 
2.1002242784209972 
2.751177103702619 
2.372740583371067 
3.8679701163744133 
4.503693577951525 
4.529822016591154 
4.672976578039496 
5.629564367782683 
5.547043703351276 
3.2903972966833437 
5.88862517013132 
6.170495167900176 
7.393469513382468 
7.4106620175445554 
7.326198807448271 
3.173344901870468 
6.471692477871573 
8.79781502885506 
3.799553580369769 
6.414996724150327 
8.04278317351467 
11.036832472976458 
5.204067927010207 
4.459547188243306 
3.755466014678038 
3.952899375453369 
6.668241244366553 
4.2836619530119 
3.7254257130462247 
3.508242833604691 
25.522143441524133 
12.432015767702572 
22.93078693762759 
16.150120728945875 
10.372974289314627 
15.539135869992757 
23.53368541155534 
27.81408309718737 
26.462803094947024 
30.4150891576526 
3.1657196540077215 
3.142337666461503 
3.1487640065329 
3.2503374186459495 
2.717032049934777 
3.9153628366384554 
3.6932948434872173 
2.975578538483648 
2.8963911720675317 
7.148864426075054 
9.86475701776 
8.309887226953574 
9.07551012103465 
3.4144653539816963 
4.172241624513667 
6.012824563584051 
14.380541729168852 
12.305841145379853 
12.705961131901475 
16.397014366971277 
14.268141756041711 
14.03911896488273 
6.326917452120165 
7.4239905132057435 
3.5588619831543826 
17.5614112545943 
16.877577210568152 
9.689453985529074 
12.249357963132528 
9.942347537225581 
11.205973682688054 
5.663948863098058 
6.818996071136851 
4.868921282787847 
4.664003879970693 
15.534508054867157 
21.905396934545454 
22.35680569966757 
14.660461771171123 
22.976682501162877 
21.600443212512722 
22.824835987384986 
22.582295077172535 
21.162192310237543 
22.219443599293577 
21.926401383204656 
19.931139806705822 
2.9527291439367183 
2.7226052640464817 
2.0933732034473 
2.924558965380515 
17.66537403273017 
3.6676003569203046 
9.875142922026827 
10.226428237185772 
15.358588067594107 
16.451996394306445 
17.174631466858827 
17.64965914889164 
23.314620448294125 
19.305323462001596 
9.39907227988293 
23.721199190961034 
18.716397056961043 
14.331032318226598 
12.534569019962383 
14.516188042825673 
10.02554795668025 
6.610084628595336 
2.650562807358256 
2.742908186721271 
3.37804986596207 
2.7766174957212004 
3.1985375545517294 
3.366254838515873 
3.2399956315817833 
2.557819271585439 
2.6028999176157437 
3.1072561517323116 
2.730757354333433 
3.0699476049097694 
3.4474759912245667 
4.132733428938602 
3.1926163154564455 
3.3713193406182325 
3.067971924035444 
3.660076990603702 
4.681686360212117 
3.746257888699001 
2.6819290819269823 
3.7576333106162068 
3.456315241135711 
4.291602553252262 
3.6593351177954694 
3.843561771142461 
5.480981043760775 
3.9640720918553534 
3.8498873663010023 
6.229807895090396 
8.008611940844098 
7.908506317138187 
7.258165629747208 
3.909540221797945 
3.7228500953898047 
6.920495576772084 
7.201305680965909 
7.87206279366494 
7.5661653176620645 
18.371260478547907 
4.168406061466871 
7.680771142473489 
16.6791816611508 
8.822339652427745 
7.396713628950388 
11.966589372776662 
12.241496665515022 
4.361924343773355 
12.626904446828648 
13.316388538278414 
6.426405888667324 
5.83275047390908 
15.948478021175669 
16.543050333279165 
17.62425072792607 
15.164287136813728 
14.67625761633112 
15.961115818403151 
10.776945703744866 
13.461390238880448 
18.644730808359387 
15.230016295406223 
24.22669895772347 
25.355099334516296 
24.900289977479005 
26.696881223250767 
8.087130969435721 
8.734960797571635 
8.962339875801012 
21.31378969483676 
13.367371980993006 
8.898509183348772 
5.830782786178991 
9.87004513834656 
7.655533412643537 
17.912859099284894 
9.739912136625339 
12.232767741129258 
9.343847009112839 
11.142540686339506 
12.905890536592036 
16.750072941453215 
14.637409780304331 
5.702044154553664 
3.2747932661046497 
12.890465628093402 
19.548911290016264 
14.475735770070548 
18.071084689018154 
1.75647557314842 
3.7899695475966837 
7.473231283626361 
16.992836261997578 
25.499606860582542 
2.766013464394506 
11.346316330468776 
13.87243082865875 
15.38978760636789 
17.7094374076526 
15.37480439516189 
8.499007658596048 
16.579594325035487 
17.702025006332416 
15.838496409196967 
2.6966321137067677 
1.677746056588983 
2.195540384668633 
2.446844499758665 
1.8485235010849157 
2.8547396546674353 
1.8670833204547437 
2.1203330970152536 
1.6470022456382947 
2.205565389345682 
1.9800763166555537 
2.981366801605624 
2.645427759329158 
3.08788046061461 
3.43156180607717 
12.091453845170777 
4.10978425838491 
3.488805427201999 
3.3113628135407267 
11.022726780439765 
3.4058324666352386 
13.257093010544281 
8.36549655247816 
4.445382972127674 
3.658606830781219 
5.971962691402588 
7.382717524726425 
15.305046708619166 
18.52358287362066 
13.37741265148378 
16.511631582066144 
19.549173243191863 
11.357299500410264 
17.842189810698986 
11.769573832028797 
20.235951466840206 
3.0007412390310786 
4.280374198767891 
3.872055104896454 
3.633349660809561 
5.62855997940345 
2.992646708091093 
6.931940401621868 
5.7382593775508415 
7.321955056255825 
4.787517203045049 
9.14856136943402 
9.136219910027707 
3.7075041096085566 
9.13047325740951 
10.334197635458603 
2.9236266656099517 
8.011217580443487 
9.189109039497309 
10.461763219814515 
3.7936429226992794 
4.62944940590976 
3.4601473937565137 
3.9296833427076656 
4.996928878266454 
2.648454280849648 
5.292036800479163 
24.759700436173343 
22.500377416875732 
7.614758070031109 
12.378489635569137 
19.494987223852483 
10.781714697638051 
9.68481258437723 
6.747866498049105 
12.901240079107199 
25.61021348556678 
18.050701351442058 
19.941370256181546 
14.793588303996406 
18.22219805009762 
17.442866774308328 
23.443502926035432 
20.435480017034465 
20.20177819753165 
3.022691804292259 
24.94287353386862 
11.283210341711905 
18.965477948639425 
8.784642904838487 
21.314606865863393 
24.003812402089245 
12.959336897193406 
24.260124252885866 
21.88835289591197 
18.220650935306693 
11.476783853819711 
3.6485966828280723 
19.08521064902909 
3.746706499117851 
13.003008042342021 
5.8344155018137975 
13.847856134955133 
8.00837162994137 
8.018298454794705 
9.126224596778139 
13.653439480438376 
14.540623165152034 
13.195039843304267 
4.738282578319822 
3.2249469812462737 
7.367822899468029 
7.490998303732574 
11.619122652937923 
13.04987568015488 
1.3780852091802143 
3.5997370513570948 
2.12476003441505 
2.5047865614233857 
2.56052161680163 
2.82842302717243 
1.5032985469297666 
1.7823793570983637 
2.5784406177447745 
1.7888044556636795 
4.234736264791345 
6.042182453518337 
6.653569867635993 
6.423943536524048 
26.939902811487357 
27.108639224236093 
25.90555164234407 
4.006849346250248 
11.528306353209121 
15.567968726570598 
22.50693400634722 
8.7196850895866 
16.267931068805122 
8.236030201856838 
21.742767824798523 
12.42635094599966 
12.720625601046955 
14.254080636727018 
15.0835489642908 
3.3921377210448482 
9.842337525528839 
11.504179001481893 
20.139449371508736 
17.694693569716204 
21.184442687791698 
10.076319731805636 
19.346271514556477 
13.22945584280549 
11.245009455143112 
21.666357461658738 
22.6659405379931 
19.01501086038078 
19.340954016241618 
18.7248699152791 
2.7068731916957556 
2.394814739863633 
1.8320193540879492 
2.3781824419366613 
2.123099668316382 
2.2765631445165475 
2.7420336356638435 
20.635602572528384 
19.953016250311535 
24.17739424989612 
23.948073280134587 
9.935608449884494 
26.99332914600921 
23.953059936382694 
23.65449936818828 
13.702790486456605 
19.529244721419673 
20.640165321709173 
21.86175221307102 
5.032023134253232 
4.934947524127441 
3.8299563187573544 
9.48662191469661 
7.122620430155435 
3.9377036241755894 
3.975088972798812 
6.821194792058461 
4.541602187914012 
8.634312977225438 
3.283060728775948 
27.01715689048292 
19.94925535930006 
25.60546041567851 
27.438091476291113 
27.274105350988105 
26.51429564581595 
31.432257341225778 
31.337336099591894 
26.148715194671517 
26.824940970800938 
6.372587811265921 
12.434756712289621 
12.963200195680795 
8.174580943768001 
17.541446284049364 
6.215788894390367 
25.229046630714684 
3.306581470392428 
25.355013743232053 
21.59904174363861 
22.276957751696166 
9.295332553389589 
9.229406649403444 
8.44408994203163 
16.157592294881702 
3.87349015735653 
27.880378100620838 
29.113048212757164 
21.76410471064792 
14.288629630882678 
21.564472803363966 
20.59337120824671 
10.140037240232115 
17.743174640079147 
18.003285232627007 
13.880745352854923 
18.355762286501243 
18.907336424122043 
20.708045198105797 
15.731743307544505 
11.496514302737728 
25.70479424058234 
25.680950255767723 
25.679239285051807 
29.877177904302183 
24.175811214738136 
26.75638099811939 
5.881555353516229 
14.86034261872898 
22.509302054760933 
17.618377101531152 
19.087279777962653 
16.04898021874129 
6.249809342123736 
17.387710895478275 
18.759441224364497 
14.4226807086856 
17.740162163724186 
3.213438010127599 
8.956719467820152 
11.60692705376124 
7.820870789989065 
12.295452547609136 
9.563632750337188 
5.128395052647079 
11.87693498828911 
25.055778652831556 
29.565678995187763 
27.171192047625514 
10.625353555712943 
28.91642125322997 
9.328063522273094 
4.711802302743419 
15.077716939602443 
15.16793467589801 
4.80067279062028 
8.258734422605157 
7.5005410786149005 
14.098714910762363 
15.597857773403016 
10.771768422306618 
29.474778564470153 
9.887473461693974 
24.671533624884862 
11.229505620334065 
25.049381515159 
8.923107367374223 
9.385053646493633 
11.020505771983169 
4.012317404413521 
4.8673047413646255 
4.474642826663226 
3.7348681651418243 
3.075896859592915 
3.643509684439297 
3.588291800558967 
20.23656240867918 
19.532316113346834 
19.59457132282108 
20.320462706674007 
5.15604674542538 
13.43502601374542 
19.77832934027848 
15.188469551778457 
19.209468165109485 
19.75018431642194 
4.900776160336743 
5.175623146455615 
6.943431783384905 
6.9279689895856675 
4.689291282709338 
2.9185784192357147 
1.1975782216447823 
4.330299364522026 
1.691559493633285 
1.4471045723983766 
3.6676468966250186 
4.302064908314693 
7.155465947313948 
3.5447464406647997 
4.350939446470285 
3.586806052527924 
3.3853337531352694 
3.784793841485876 
4.106328135217852 
7.334318294081307 
4.686161469674764 
9.473834891238784 
10.565514132296846 
12.487022513009375 
5.5010637203107375 
29.571693138509023 
12.053315883884844 
24.980637937427282 
29.551149564009748 
26.115128662702784 
25.922426975536904 
25.025100715072092 
7.302232898271875 
9.073115712159716 
9.225325558728855 
10.731407904172029 
6.131967116236689 
8.792281616242596 
9.532793679285714 
6.587187116201977 
6.168750293348699 
2.782611654361026 
3.4856687859396085 
1.8588995928184304 
2.180677486881415 
2.6860434498475594 
2.1059080407655473 
2.2325089047786464 
2.2181901645298945 
2.639767259068276 
2.7945057315385986 
1.8488990036162756 
15.755378518879503 
0.7730543155991335 
2.0970491058724834 
3.048561450575022 
1.5167369236589137 
2.5198138302101865 
2.210081466910965 
1.9378911288877199 
2.426211819060914 
30.02628109527237 
32.31151021098524 
32.39294864013095 
26.019148902871898 
36.86482991479244 
24.76561173834988 
2.8115508536868483 
4.2936058460580195 
13.993165983272638 
10.840877410157663 
14.651097886258398 
4.73486112749654 
9.08721437672703 
5.820475362888303 
14.937141800796866 
5.462937931753925 
27.258997219714065 
17.10806777071968 
11.99066056566038 
13.385488826517214 
4.249832955673087 
27.25882024891903 
5.882950042150952 
3.9114702447045295 
7.676001861076119 
6.930266992323845 
8.128144870570633 
11.983528412528356 
5.645091373885174 
7.659743341838385 
10.816607029700128 
5.2762079505073824 
9.808160229518057 
9.946543227760953 
18.386895417287306 
4.946885042827254 
5.9175631151439 
4.94202565902244 
5.552856183391727 
4.83879139433707 
4.976898321892304 
4.020169810525405 
7.855409689516985 
5.0102080944307 
3.655239611915995 
3.1318906967811975 
5.423800820941733 
3.5540584986550607 
5.310664567322353 
2.4817286245505796 
4.40810559218028 
3.992881575188304 
10.753529469575545 
9.074891934032754 
4.415539547807845 
6.84246381748154 
10.850092304111906 
4.418924264501446 
18.531128169805285 
6.68211081923752 
14.30589902680087 
19.572852366150606 
24.782624513184583 
3.2617827366466825 
7.935736593090012 
2.6739774565520693 
17.54269144932514 
11.283189706480115 
5.39739874889709 
18.178683790930826 
15.402356096505128 
4.493722209603241 
23.53605862167597 
11.122698415550873 
16.58506360693801 
27.411104622060723 
9.938615639119725 
11.78271310411649 
6.100214548338222 
9.117348135735906 
6.294114431859783 
5.819900681099384 
11.370098641083954 
16.320804480233907 
13.910779702969938 
15.73799311769054 
12.02415640033162 
6.378545228918518 
4.573982674282686 
7.476736228797252 
5.178795258863429 
24.321290730491985 
9.85312834999959 
27.323941765969007 
30.847055389733022 
25.421212813986283 
18.153664510080837 
16.189643390489877 
23.2707620222209 
15.929318755671265 
10.457013622388537 
11.97397949248489 
10.906249885031736 
5.818393433156788 
7.445022662459357 
12.2695133828693 
10.060999548785627 
5.738569369914939 
3.4974071729885226 
1.9076618699984709 
2.2043038905776298 
1.8405839730157076 
2.9652204034597753 
2.6536860821568267 
2.6893286023208742 
2.116656892294351 
1.1621752382467068 
2.6180360024206166 
3.377546725915204 
2.6528691583018675 
2.235765046208252 
2.1291649790047242 
1.9405086340225657 
2.3701095303655513 
2.200398179377044 
3.604079588429641 
4.3496596681715065 
4.151623164867336 
3.485064704496354 
15.41960394174097 
3.4458432781117696 
4.775903209315982 
23.906385651626458 
22.324170642460462 
24.016265116984837 
24.19956057922508 
23.945554179883086 
13.673615615480932 
5.997098961867149 
12.593855767479013 
13.88396516570636 
13.738781957806186 
10.503296943337057 
10.91887878787229 
10.930050513225275 
14.790476527305591 
8.793145373659046 
2.9250173773376185 
2.160236766607814 
3.0924722878491204 
2.103281361361639 
2.2021392236824084 
1.76829057451427 
2.257710332254276 
1.7321092796112882 
2.8575472899177567 
3.2280795070066675 
2.18562993428885 
3.530785454883904 
2.8096183661856378 
3.249301836573421 
1.8097684544736257 
2.510243725364975 
2.6142186253882675 
2.4782853716429196 
2.2126255151313843 
3.254740252840483 
2.6771297192968415 
5.7305377839788 
7.268327676803402 
12.809236194735776 
6.032267241360453 
7.673722469255738 
3.088307696978957 
4.959377055682772 
15.482191799501207 
23.619521157021065 
17.51590004439148 
15.960927102834342 
19.60761640301185 
20.297287625213112 
27.555814056542676 
4.4788114458054435 
9.830954631496299 
2.3192316936510053 
3.234554352502408 
3.417136746477063 
1.2233917720249328 
2.3187517030035334 
2.7501487796553628 
2.3261999835158513 
2.2089952769898025 
2.3415592294269785 
11.652866480216646 
10.982841370773517 
11.087296241618466 
6.083600681803529 
7.31115870239515 
8.146220636243129 
8.255135994500927 
6.228324611201474 
6.526939024622168 
3.475085750422104 
24.74187940434808 
24.14253952176488 
19.355820137524972 
21.867881758055567 
24.902026927218763 
24.95121836662234 
3.6533871322302955 
1.6738155597163686 
2.560001782672387 
2.114041806866008 
2.7448001626244296 
6.334558167890016 
8.874836990884285 
27.152234424849485 
7.785483660664658 
6.2786900031658 
4.3658002417522255 
9.942168437564076 
4.957579565601432 
1.3910191947214587 
9.703699777230234 
29.407490473881804 
30.471390842306946 
30.34756323546068 
26.0459629249214 
5.291279828267072 
27.196467091265024 
25.436992653262674 
1.8078564577062444 
2.6630422157949516 
3.4485357683387323 
2.239485861294081 
2.324517741748571 
2.702859772962389 
2.045419141308225 
3.9041470877763307 
9.097455551109181 
8.587175412502198 
8.043905244562167 
9.450744972028355 
20.36416221496499 
13.567459716037105 
6.004550729144056 
13.660044296877212 
15.591459538353384 
5.957947557052349 
5.3057848227637265 
6.045551839655344 
5.794153617531536 
6.026549398474445 
6.754483780137308 
5.9509859268365215 
6.012497961337312 
6.27037389915534 
11.1945380227698 
11.756093825655066 
13.026875014704475 
12.321378003847522 
12.555406827438507 
12.106086683162095 
14.418616481405973 
10.449382086262657 
11.935374242604205 
7.572359375734584 
12.295236624030965 
3.8850935462878637 
13.954539613159296 
7.57450354469651 
7.488496152691516 
11.839743331104843 
4.9274045096907 
7.3959068628078555 
15.54614015761699 
4.439596551032762 
3.2132381773048055 
9.271981950099178 
8.590721001311595 
6.718495989352331 
6.491449615550082 
4.337480908421785 
8.016112547523557 
8.126097008356112 
8.771425488261883 
9.411041291158122 
5.2168872150936245 
5.022014470481469 
7.361993365791936 
7.739625788324958 
5.689628471795562 
7.235471878913348 
30.640159998241575 
13.561060887838222 
25.51976087368277 
16.941942962407403 
2.053008821311767 
27.323318605881045 
13.529318216182682 
28.123544706345392 
29.980362064189293 
16.406575767039982 
13.610945672300302 
13.912008249449483 
7.3060309249915845 
21.198935731710847 
9.218954149825528 
22.80222581739797 
4.473457357691184 
3.4656824368951873 
4.24294716388568 
6.6591611809514815 
6.821924771123409 
3.5485616027634936 
3.4438905080186806 
5.518468522056316 
3.1915210885642105 
3.574634026377956 
6.578256856083261 
6.728107537460777 
6.962988330040547 
6.685469217865131 
8.29793697183724 
4.7726930044192395 
10.083764998024543 
8.648334129898835 
5.255631938517013 
10.258418901001974 
5.470914913757521 
6.260433001820871 
3.545121778031687 
5.4721718480283155 
5.452208263748764 
6.466539615456266 
4.149544009215337 
4.624507876361445 
6.999023577356959 
5.444190970003872 
6.883168798271998 
7.43523521534792 
6.150257295295355 
5.436876757975571 
3.890119008584806 
3.7412086390850847 
5.4871445007011905 
7.658929130439779 
4.448859759748531 
8.042101715637871 
7.8467582738924895 
12.707747865951037 
13.224682847382518 
12.599419374164569 
12.87198353178436 
27.57274528307415 
10.220818174781533 
17.367727161999433 
8.032773916933445 
10.454369645603276 
4.052921243766833 
1.267617714170619 
8.755233270306482 
3.5135881758738816 
6.5358295803344415 
7.6359669994343795 
7.341781031175245 
4.6496280661652865 
3.5307525522846626 
7.46142999499992 
12.870201289122491 
4.024543496171966 
7.411072049365542 
7.684569273024561 
4.791928395718644 
3.61689050484889 
3.6986902200705623 
3.295535150969056 
3.57220570562872 
3.3757341540445 
2.4819402043805616 
3.581532751256425 
2.8259487145875184 
6.493653758025419 
5.908202367984823 
2.924193998764569 
5.026163262191005 
6.52980924810842 
3.4004842751550766 
3.630898091827789 
5.499605826648293 
6.417139527000939 
11.663499267061965 
11.552052379933198 
6.357761567097318 
9.967164150703082 
13.99819746374935 
16.469108045237682 
12.31192694449398 
14.369992937147902 
14.321122830476767 
13.563640749034484 
13.343796720809246 
13.576125036390593 
6.227157918797561 
3.6866867240641614 
4.820137383758583 
3.777290447928754 
6.509837698164091 
4.298579770961513 
7.480331687679166 
3.8426975333500764 
8.065343472500981 
3.314192742722551 
20.365156391382033 
27.137737814064536 
25.76931486605474 
13.610233139485155 
27.823154378148423 
6.37176718520646 
16.078708758713088 
28.8153240041094 
28.742854070014246 
30.02008759740179 
23.18150747430311 
19.15926815434751 
14.441802883033782 
22.400296633406892 
15.8915997501195 
8.107169969359289 
19.612285920190672 
5.020144103665475 
11.532947742277896 
21.770664984188087 
20.044537659558276 
4.165991127611852 
5.647291076156921 
3.6865606967302296 
3.5387081425669744 
18.38957193387389 
4.139995461083486 
11.007658776680605 
18.577339651364383 
29.92979334412556 
10.19240609284516 
15.208460558839004 
1.9781723238495774 
2.9041629228374473 
2.217012746756432 
1.954816264853768 
5.515684521254143 
6.457956567020092 
14.177867584161472 
6.137462719081349 
13.249411917144444 
9.954958511707073 
6.558115534980821 
4.32898933559977 
6.592637870368872 
6.344237602917279 
6.989213389128136 
4.5513077687606245 
5.355499447374826 
8.391619213639116 
3.1667601728066845 
31.597863686152223 
30.78341772313396 
19.563816544397035 
25.326610331202982 
21.143692962888572 
27.026350459562565 
15.231427154749772 
14.750374732409822 
12.790492510692632 
8.788037838347812 
16.5533456316346 
10.37977111226663 
9.716169180295541 
10.267426904864529 
9.924702957049828 
10.594934718933638 
9.896248606735684 
3.4543002752253926 
3.457314280623482 
2.4082843774880955 
2.0821073148808056 
11.459813273128642 
3.053180018559211 
2.4790401691366717 
2.5777118965832386 
4.254160720688812 
3.4996558887074904 
12.170569776329458 
8.150321199045557 
14.245211823993143 
6.287054779859083 
23.05656367521457 
14.950826282010599 
21.30658933050679 
22.742159504819686 
5.427363920986603 
21.053906895383136 
20.74525113344952 
23.3883560592661 
24.967854231937842 
23.643855579818144 
27.36221690887521 
15.652653943824731 
11.652597751495609 
22.637376679358653 
7.476200686250514 
11.018092121982058 
7.100487255945214 
11.846211164363 
4.98608724103908 
8.143796532551407 
25.069369070237656 
10.966745926187533 
16.69400794999758 
15.964711867608266 
29.30484797337401 
25.392129474141772 
19.241971470141817 
3.8907067655458367 
8.530817429209609 
9.304746095909344 
8.753527108168326 
5.922370242783277 
6.298682664932958 
4.543322243200643 
10.669570209597174 
30.647426976890703 
32.22770784874947 
16.979335126226996 
1.833054912383099 
29.376368996636035 
13.781643118082131 
11.811974987928826 
18.268282154536056 
11.624129238480405 
21.55312703922357 
18.436976296340863 
12.948032519282561 
18.31885234686188 
3.8325325205270446 
3.6614230931918295 
3.0840601648389403 
3.0635275014436427 
3.63176353248357 
4.5122066944516765 
4.583469991583946 
5.563689259585787 
8.051882212398432 
6.868234462245138 
6.776525565231602 
6.308422865304266 
24.45849780888512 
22.499588873518928 
12.103945852784815 
6.500212852563998 
5.928579429804422 
3.7623306180189604 
3.8283953046137458 
10.153424020054649 
5.768247569403879 
6.737343626135834 
8.31581953419145 
9.270858374271073 
5.42647055160972 
4.92985791608734 
5.500354769086598 
4.531390853885309 
14.75763459197108 
4.907781731584363 
3.1332198228092993 
6.959303574206035 
13.948983328082234 
17.110996214176723 
13.408615239171516 
10.346872514487803 
11.272157420983708 
16.455603124667462 
11.2563423441834 
23.02641390084458 
19.376854156857117 
21.007259560715354 
21.650655367586374 
14.434328465931513 
21.542500116390762 
17.79960117003938 
10.455470784593139 
12.924874921362003 
16.435569153901266 
12.74766568956044 
18.232201493828523 
15.791456813699995 
3.2620902315905806 
3.119944920960174 
3.884697646471564 
2.899406716614474 
3.0548455901860043 
4.325446998401386 
3.957631376215012 
4.964690736411236 
4.9232904496316765 
3.4353982091473934 
3.5621723109846815 
3.3970637614117396 
1.6996208830617212 
3.312966050145367 
1.6521945075085591 
3.7304834094738064 
6.775985788001083 
3.319219643004599 
3.4398922147308357 
15.03698746723366 
6.5153274413845805 
8.543879784615415 
8.308451411920528 
10.919780390155102 
10.940137907475728 
7.700978125658565 
6.353035924664699 
3.3434850274621306 
4.82751728137717 
4.035535958045612 
4.135208350247223 
3.816597521009227 
3.304212360888388 
5.16013815683888 
2.76081464673406 
23.90200057859679 
19.476262056085996 
20.862455154193864 
12.036984001095885 
5.0823626487514675 
9.074350342813009 
22.531601339097325 
23.27662905312357 
13.75296688425076 
4.84013913616465 
2.9485156413754194 
2.935942122277914 
5.009147886242163 
4.53745617922352 
17.107293834778933 
17.133911713279172 
15.956697042191339 
16.058860103977928 
16.911499484142382 
19.81207495583989 
15.710948944212058 
19.370833924298076 
20.39145302554213 
17.684975868817716 
17.91737841285236 
16.595372397313533 
17.17994014818954 
18.075185757671687 
17.44251884617261 
17.386856028074618 
12.166041699087431 
11.878288138973604 
14.457753855784564 
2.1762018529488594 
2.2708684411720204 
1.8538356426911198 
2.6535835159803023 
2.0071181920144827 
5.836077701792763 
5.540647231965118 
5.581536519071848 
4.948800230320463 
3.1908100334081384 
5.026475330834537 
4.4885146740087425 
14.673710217475989 
14.050418653270212 
3.8973967027974328 
8.059524295274718 
7.2139243549925505 
15.521096658729666 
18.09948280009815 
19.270085727185357 
2.6442504236992246 
9.321813532996302 
15.785674053932324 
19.531454332150055 
16.018352840964905 
16.369200513915125 
19.159257878543784 
15.854128226338915 
19.344415917218775 
3.5240578779028406 
2.735602167643568 
3.9206095074560317 
2.09985805050503 
2.8797693598353002 
2.1238652471284984 
2.5881747246574784 
3.2184305116021403 
2.559660399755947 
3.08388733377902 
9.508932073694478 
21.975810724195448 
9.84665105766141 
7.291136013646745 
11.003822642877239 
10.424014191920795 
5.74944732057391 
24.692037747949204 
5.819575059555381 
7.052358481590303 
8.644523693726397 
9.06542446726498 
9.62593163729804 
16.312715257944436 
15.938354826851098 
6.176626725024883 
11.837440714195868 
18.33422177816386 
26.017990802319343 
25.807318974738784 
9.403845029834716 
24.835144875663694 
19.209254867916954 
24.744701165267976 
3.937507683379615 
10.491162353368182 
3.8272234748261855 
19.644046505672485 
2.800650640458948 
3.020792411893481 
4.104792511569457 
3.517721535623982 
15.166429870734698 
17.40121301787258 
10.82060622054797 
10.316059197191812 
16.895758268458238 
14.324040735051543 
9.86734239871389 
1.690951079798923 
3.1402589989814023 
2.5991043566673575 
6.984362994931443 
7.358089169618829 
26.625611535193975 
27.30586690174948 
26.502706869254165 
5.552657644978015 
17.16000467989474 
10.466498584565954 
27.61576621782981 
31.5623973651637 
21.584810559822788 
22.750053726081628 
2.696783043543718 
23.786792880018133 
18.057028993758685 
24.043313709922792 
19.995547419154246 
21.07245730513525 
22.464925516696134 
10.344956203611368 
9.020046619009312 
26.68159123049653 
25.93104537521569 
11.667428895783843 
26.69280538404376 
11.801426364922465 
27.516153967902135 
25.338663657906167 
31.747211762492974 
26.492240248910942 
30.147957998847954 
25.457507728808846 
21.71337588431075 
25.7467749846318 
25.801735026226986 
29.817536969645555 
20.281862603838977 
6.7670916053357315 
6.725775842887904 
14.42325705550863 
19.509115448761708 
18.8563453557446 
13.460428580693522 
24.3311113942199 
3.4539481133194423 
16.260194634693153 
19.676273884210566 
13.74521695414955 
8.459058984226822 
20.588503347629644 
9.995470332280963 
19.18776335520112 
11.110732478331691 
14.135626909993396 
18.28259819732413 
20.895706467046782 
10.029608346838849 
16.94107975698056 
7.070348662970591 
24.56403403973927 
10.980848839015607 
8.54477449403992 
3.109723387350125 
4.804342882693979 
3.9839905522299817 
5.719444083578912 
26.842109014716314 
23.33916411307142 
22.66399109077755 
8.552316608450004 
4.316834667113468 
3.1908524928145976 
26.323032019980726 
11.109276922754935 
29.571552381821746 
26.521606234625665 
6.837499187250177 
15.427396485124156 
5.765138819024609 
6.390761964134443 
16.044308982769074 
7.279112838601852 
6.991177849836687 
8.228048148769775 
29.37836106339902 
22.830082269901936 
29.021292046658846 
28.098173662961557 
6.723509505099866 
6.5827510879966065 
15.266258326925456 
15.87947315168361 
16.345960391825077 
6.574125042732716 
14.695314888562548 
17.399351632002098 
11.432755798235771 
15.034431418909875 
12.20691549436513 
18.665339739624727 
17.82547383227546 
11.26424849684507 
16.955968215763487 
17.99548153033999 
12.541450562573234 
12.902217550091292 
4.409618818846918 
5.80690768957887 
2.927878418643092 
7.15417155813161 
7.280441334584788 
5.583568025006406 
11.625080298053543 
4.326879799886538 
10.156994655795199 
18.370986078033198 
13.47902361975828 
4.187396351619836 
2.252311850480827 
2.29051577549439 
2.3764732633235885 
1.9982266035248957 
7.886197831121075 
2.4045184603399328 
2.006894110740845 
1.7961935545594214 
4.610303872172475 
4.681174377476725 
3.50525037046802 
6.561529856106571 
6.690938563011501 
4.79856649326501 
4.902694722425106 
6.037771942751561 
3.928369762660011 
4.8941604252786854 
3.6715755635755576 
10.013180249361756 
10.150204742494093 
18.493266925676014 
19.901935266257677 
7.460129459494928 
18.385928255204988 
25.514540304058652 
24.06405721610562 
4.9244684970813095 
5.64629816623176 
4.442318784209197 
3.6354362640565627 
5.044149186903596 
5.153514293530537 
5.185814341264485 
22.978151601497775 
24.116817378937014 
22.72591606433211 
23.627099511361642 
23.75635808831836 
22.97888558218986 
22.745030983480873 
21.151011772170282 
3.4499039330621053 
1.961936461111131 
2.223662254534258 
2.251498527414326 
3.1125862995887723 
3.108152391335949 
3.023846731817725 
3.119441474501808 
23.79303905069423 
23.401340586329916 
16.996520464088 
22.820086580582892 
19.03128154643901 
12.559233221568963 
23.224159070327484 
25.550251341286582 
11.205855458153952 
8.940032234514248 
14.282890092250291 
10.465365171944693 
12.78164397447562 
9.576495688675097 
6.015118828638419 
13.46753169986604 
21.3192094544827 
21.236359864536244 
13.72968445410167 
19.384188601331807 
14.956762400477766 
24.638610473963233 
14.620557785229504 
15.306320073194053 
13.551794621658683 
8.64892598424214 
16.24459264751163 
15.878989871817735 
17.095935180392964 
17.625896542767638 
17.29714804330827 
12.91431759091347 
16.815065608681543 
14.676073087656883 
10.750966561738036 
7.540625747663268 
8.069832149397275 
8.599577568844119 
5.2790209792189025 
6.610797701803805 
7.684510041129388 
9.785914404753507 
5.658956541524155 
8.362497179399453 
9.149207283039704 
13.294285503844621 
6.051333590159765 
12.525005468953912 
1.343160583480506 
2.791157788079316 
5.350643334464704 
3.5886355380979307 
15.536504180076827 
23.266064352505282 
4.030169527522778 
5.357579096696855 
4.713441394422803 
4.339308713614986 
4.745432693721372 
3.0350553084596816 
4.28805693791874 
9.5112822376643 
3.1994266259311943 
28.636598736049212 
9.508025881775886 
12.880967120333128 
11.638012245166397 
10.27964652932434 
11.03026759075101 
9.865329084608891 
6.384700033970955 
13.019644734652973 
7.285413412026176 
2.36378666717464 
7.151645780831623 
5.3126721776715735 
2.924627090373886 
11.37373657955364 
12.115509859980714 
4.890869938774051 
10.363310809926073 
9.57711197700925 
5.092688957194378 
6.685383872002395 
4.210458885179547 
4.967416983704237 
5.699390903408837 
4.126674218346755 
5.659735620498337 
4.354433926411931 
5.268878076992271 
6.520618037073561 
5.918141007835481 
7.591023476799784 
4.904073049075277 
14.92066358255751 
19.41834578370095 
27.13250434963227 
10.88345429829275 
4.462460902535199 
10.783391263959375 
21.752247415507103 
24.019552709983458 
15.923984423953812 
13.36708759192165 
9.08180670672103 
7.245587383131874 
12.430336292325094 
9.448006935875569 
12.296853584054244 
12.667322768969212 
12.339957267646136 
12.183767584726027 
12.161346371795698 
12.307505646662687 
6.178538365318878 
5.214850356332799 
7.072846224506954 
4.905713302861425 
15.57237854051639 
4.237957937230975 
20.049786437806887 
5.808498138894408 
5.6084047807603525 
4.826732450039462 
5.658170257543929 
9.302337899096406 
8.148407693251382 
6.764727923498591 
10.72587336729437 
10.674137914869906 
4.665925448870231 
4.267741230719628 
4.103293123800314 
7.395240808426872 
4.993202524744514 
7.241769738009254 
6.154284814294575 
6.958039302871621 
6.723745944186883 
6.637778705171944 
4.872874112216646 
6.319493755691499 
7.357869367102097 
8.43675621327242 
2.656676480733897 
3.376295452490966 
3.5330964611988973 
2.455111617421878 
2.8226134345817657 
3.415885985590535 
3.3107637667554846 
3.3534214934512474 
3.0649181849955944 
16.213070474264445 
15.864697446818314 
16.383948533262792 
18.335706518616128 
8.67796999755726 
8.704020667423771 
17.183259834977733 
17.671530296863807 
20.1355613321271 
17.450062058723 
18.276314517131503 
19.68433169760519 
12.244652585317969 
17.330508120278676 
20.742670347660518 
18.62621497766081 
17.445769989787582 
2.8653500070881437 
3.4220592957116667 
3.2631339071068997 
1.4900620235364779 
3.3365900312717387 
3.0590786772550564 
4.167839402818313 
15.674962107761553 
13.751974242955352 
12.679937898929627 
16.502489991804453 
16.88357011573689 
7.258937221701548 
9.229890872042217 
8.033771591094853 
9.4043661242035 
7.465116545749079 
3.9388757631623923 
3.5491480404109392 
18.728547148808335 
21.97137132215794 
4.337400762442714 
6.695210108221075 
6.366855663541727 
3.84992813873946 
12.597225735649122 
6.882359361754555 
26.77222865249025 
26.767159790899214 
29.730967409467883 
25.285910939698248 
28.302215768165183 
23.175686102381704 
26.998374419532464 
20.814841549224177 
12.520605556041593 
25.194091214996245 
21.415432846607075 
25.042765670952267 
24.75526887196801 
15.262713694679576 
26.16881322748808 
25.30771108846731 
5.3225998269490695 
5.943242493509039 
9.919268354955674 
9.41553867861988 
10.16776939771475 
7.591421209100513 
10.480744456790438 
11.75919315484329 
11.23804701816512 
12.642405945164057 
11.332352677843737 
11.437184134638132 
12.803622635345963 
28.423940022941988 
18.328479721412343 
7.922576744135272 
26.800909279148843 
31.41217149273905 
31.192398514627158 
25.607080245124333 
14.7158088810461 
30.640174831990308 
14.6842170053358 
17.192387028493826 
23.462304646056573 
3.8915195602930557 
20.29726343666379 
19.197294838377168 
23.53976055539881 
23.231907565512717 
15.401014963637227 
12.396654572442742 
7.290650057931723 
4.758673745820454 
22.71242078445698 
22.635317114537656 
12.144765179851785 
29.540570536827637 
19.912356390665263 
19.017916400013814 
24.533382142183807 
29.691790272680347 
21.104850604795065 
23.48238762282988 
10.106541797724773 
6.564706538371325 
19.98882087928985 
20.131534442636575 
30.587571615514367 
28.590533973724046 
27.352163755571677 
25.612066573010036 
29.974496091664193 
29.577199164689105 
30.90815810472921 
29.28815406647677 
9.387416525041738 
10.803450694070838 
10.721685972393061 
3.2289720607210266 
11.14427444351723 
10.999730852645985 
1.5489754662231132 
2.0921206645470165 
2.993355762325859 
1.7235844019981295 
23.083320761568277 
30.857511074351486 
17.311968566429787 
16.854175522426512 
12.384227380770033 
22.19469952838301 
25.797792085985588 
18.261640777154255 
23.60647477225655 
15.96029675989232 
25.956601453321024 
21.170003736963906 
26.311676143483062 
13.853183575459687 
12.688938985970173 
11.660249163698975 
21.281462307863073 
15.125899678490843 
9.1422998143776 
14.026886712437214 
16.417485260103046 
8.838851294545037 
14.009685369653585 
1.9753071300494396 
1.230051227912509 
4.410601965377414 
2.430460388074199 
1.9830535307368093 
3.486417439984112 
2.2658062647661663 
2.2373326287150492 
2.135224408045563 
2.0822192296539055 
1.8564919554308772 
1.204270753024539 
2.013880127867497 
1.9721902055610614 
1.4272138107106924 
17.674275960355768 
21.448411773428752 
17.082092202894735 
19.11792473632564 
16.293293677047835 
2.917528151769966 
11.416000328456676 
7.220924033168092 
2.1878798246100715 
6.106999112737189 
16.520865902756874 
14.172155259356916 
16.95416458445775 
15.653349848296715 
14.235371249972138 
12.357449408401097 
14.481396959231208 
7.345324062424435 
6.286047201750605 
8.039920215306585 
6.809523242459912 
6.407449714083418 
3.441265150364054 
3.5830789111293275 
6.309004380740222 
7.965050472053596 
8.654090322068058 
3.8706571644856083 
7.143484833537314 
31.109689045183387 
30.321348403371836 
26.516709590257115 
25.14218018723414 
23.564133476945518 
22.38385796401291 
23.10268554249555 
8.860682074082476 
5.563720647616651 
6.305931206490437 
8.669094728194672 
5.35547643385892 
8.73303548999703 
8.550885418142858 
11.66736834615593 
6.963495070790393 
3.0031004794401595 
12.182780625676044 
2.797954491596208 
13.888737728304953 
14.358801214519552 
12.908047539111056 
6.786251635178124 
7.675122804860253 
15.36078000207545 
7.259997202310626 
8.297949407202951 
7.759595728269283 
3.9059927156527188 
5.758678968870776 
4.8928306633105105 
5.923214880720824 
5.567539308756118 
4.432684418487647 
9.135123222338283 
2.4117745979632583 
26.890471018224886 
3.733577879482598 
3.356567075183725 
2.680949623353586 
4.043438812887838 
10.039723473143068 
24.756481799112397 
8.45564199369418 
3.5353782148005912 
16.501959411083412 
15.897900264395226 
11.312810723713437 
17.485772261292094 
5.154570121394644 
5.042075572244881 
6.7632276023208 
4.369171191168308 
7.368857095069827 
5.637006823122541 
3.141425304495075 
3.275796282062155 
2.6022473516588733 
3.063461522513156 
2.7332173042362795 
2.9226387978808006 
2.476890370340781 
2.9649789797590906 
3.4168806298790315 
2.8364549552435743 
0.6822439695494376 
2.414183090716335 
2.273153422135497 
0.9846573971127055 
2.784456802761267 
1.8839735715262127 
2.971854084274384 
2.8580866916487553 
2.5188413562942364 
2.275856358028533 
3.277741749655681 
7.568992893776838 
21.042487747976995 
29.271120872418265 
25.129134464529756 
20.37276541040229 
16.776237807715447 
24.877921648651057 
25.113295213225435 
3.277610065265548 
2.5711589075380967 
3.5753826051191298 
3.3639098732585913 
3.3477336803241755 
8.33030209579963 
2.9919090847327463 
2.893873574029225 
7.6550630042719 
2.5812455841514104 
1.994256232287 
0.817858558668499 
2.834236538864665 
4.541216209313742 
27.70874822417721 
31.587309148263238 
7.941237911130634 
4.306168641757325 
2.3091407589426387 
3.7047879698241157 
4.582967260744775 
3.9849674222941682 
5.374023596140586 
9.456805570616545 
4.234063336852443 
10.973782333788824 
6.010004999789391 
2.599050642783616 
3.0112148224209196 
2.7831351052048916 
2.13690239148987 
3.6345754197924736 
2.9173727995585605 
2.1839585927940686 
4.010503939173212 
3.802479375658782 
4.716615454826021 
3.5075792267211443 
4.389857564965339 
4.0537143141213585 
5.28112844127583 
4.516789431686182 
27.5486433559107 
27.141160655674323 
18.094999997724827 
26.41931294033565 
21.14130921350599 
8.53838757549946 
3.5486687476755163 
2.916832545858657 
3.319521552314375 
2.8506816729165787 
3.1538649467001783 
3.1892949789442366 
6.873838837773342 
15.965457448603768 
13.889963274554399 
8.239591095420417 
4.740426406904475 
7.648920596853686 
2.5259009284429563 
2.616273318967086 
2.428161720850017 
2.2669172079267605 
2.631142832768654 
1.829541169626533 
7.0948898076445 
11.757409899567312 
6.806299930575811 
10.024608050515353 
20.54169233956869 
24.188070788067037 
8.962937654867394 
8.97087359999205 
20.845738270413396 
20.421841686083294 
13.362532107819986 
20.071089619231543 
10.292216422878221 
14.102180624089076 
15.350722828331111 
9.530313029142258 
5.368719206207413 
4.55021141660371 
17.914023234842944 
6.231144665028486 
21.430759119772127 
19.68739044163615 
5.8096860616583506 
17.632468276712572 
21.34100192699364 
4.261953592884779 
5.127349458013982 
4.293179989398357 
4.486171932963039 
3.755940417782237 
4.595888607159755 
3.673596307675441 
2.6092186243452806 
3.008244210229871 
3.3113258440637945 
3.399797708673829 
2.2136698147064715 
2.0978927580728794 
3.021626014635788 
3.3495050025809823 
1.962350431170216 
2.366329432506806 
3.4624688559703083 
7.629962969647363 
10.37690221430881 
5.790261724627569 
11.694341525633469 
13.962703045890867 
14.408159835194954 
9.87742280907839 
4.24952561024848 
14.71018883712951 
10.640068024928825 
23.25083345735828 
22.78200839120395 
22.32187145811911 
19.261564249463767 
3.7745494980258654 
3.1815190446198653 
17.182974969118003 
20.30237902612049 
19.15204489190198 
19.304886520294257 
17.721993349737712 
7.385281989253931 
20.688378318390647 
7.572001953633139 
22.874269787527766 
3.5413719248260622 
2.7849629367594053 
3.2740209374727 
3.2616228066582953 
2.9939538582738994 
2.2439076767478623 
18.268329285221665 
11.66926558073549 
13.767645983957797 
17.002316406384747 
20.732247455300428 
12.504725949518209 
7.234226518862676 
16.9091887803248 
17.49940262624621 
16.645686351141087 
26.349519899349325 
18.30744479697808 
28.612022935050973 
31.29639482276886 
3.237273955026987 
4.536872845099692 
3.7441237599304116 
12.843816582389227 
6.473006339079445 
5.8357298533934845 
3.5561550257995833 
7.525281511569725 
31.37354060788104 
22.164870394622245 
27.493583436377055 
16.86285854816363 
16.011299931408423 
4.906534273308661 
30.240699746431023 
27.137759069148256 
5.613608196118135 
4.463092407241534 
3.5357157769458953 
7.313716857016895 
3.9374077768731803 
5.64767495721116 
6.490630203069687 
6.328571927476973 
6.660953400613801 
4.611716472672505 
3.335164477661578 
4.6657224814308975 
3.0640578135632763 
14.810864317873747 
4.334131707107989 
12.11851800124651 
3.8411736709374393 
3.8568837990007587 
4.102602675597902 
6.754608983147078 
2.276378046693392 
2.911828912640947 
2.3637172321461217 
2.977440606265175 
3.26623419284552 
2.4695470711843743 
3.167290386109115 
1.976623727486661 
9.461081365894417 
27.112237808290566 
22.280504281734114 
10.471639470280296 
5.725677632418235 
4.805191213920155 
19.903002225369065 
15.632858112842257 
5.6641737851789715 
12.574869945525686 
11.7505739880204 
13.481734913662635 
12.240706535656308 
3.0159412052837182 
8.08777052903201 
23.05157704868871 
25.409621559706004 
8.419987504490276 
18.22072525397674 
20.23694667807524 
20.6140498096236 
22.493213899112625 
28.408525896830533 
24.788687960029065 
27.114859128107327 
24.4359863531813 
24.177100429311498 
25.283014467520864 
2.6649226297703517 
2.192132906609934 
3.118125150813429 
3.4942033729347046 
3.0362460199573107 
2.419462721056405 
3.4400457056026763 
1.7011885715216126 
3.6790239699941694 
3.45947459378419 
3.5937709535475175 
7.5159191806708625 
6.612658936737263 
5.234026392789152 
6.837568270514313 
6.079797678084567 
6.290800855396293 
5.298137132057314 
3.2959444946933294 
2.310880428378765 
2.325504229232438 
2.2670488167528515 
3.1255310121072806 
1.9037731057554577 
2.240196126728319 
2.8033710692677603 
2.678815639310637 
2.5159296881628923 
1.8431712159363365 
1.87586265812225 
16.9796093089903 
24.673165220732407 
14.223559367384404 
24.79387620025755 
14.13270588558085 
5.063173262786161 
20.979453223670546 
14.788584043495156 
8.327023733666378 
13.445987302795606 
13.839036995821877 
12.139905527536191 
10.915055803532812 
13.84169756844015 
7.901868263201213 
12.60706990405513 
14.103027992811155 
13.217091545640118 
13.47026972352847 
25.882609962140723 
24.89922312557866 
24.53092040850788 
29.27234373100409 
29.204079407891328 
25.728659251874454 
19.951064177793775 
3.190572529871118 
3.3345474480596775 
2.9768865735534304 
3.3656388519069904 
3.310040933900056 
2.9826838410126673 
2.776170093057597 
3.4503882184595374 
3.157195632544076 
6.666416802229223 
11.313607939248952 
11.67794841374291 
9.997949587894018 
5.446263282432689 
4.709612762419267 
9.890951262937806 
7.979975937388406 
5.071249760148841 
3.0173438255923983 
2.2855823473572268 
2.123045640559993 
2.283799269289242 
2.4514945328192987 
19.353018540691323 
31.893211128904614 
25.695109428283523 
25.954527973881024 
21.264343276957476 
27.193086853077613 
22.786342401985586 
22.996549510908444 
25.084310994560308 
22.292599922500873 
24.21852793031026 
26.837447658843374 
23.81581148469141 
23.6889218806799 
23.809518245837396 
20.872132106786264 
2.0519682013744633 
3.4547129462043373 
2.5378813384882495 
2.844310560583403 
1.5986693110287458 
2.1939897055648583 
2.6569969523965873 
3.094396709228293 
2.9095552050991382 
1.46556479993042 
2.1036219614659486 
2.1433010790319384 
3.2722146967648817 
4.164635545068128 
7.919005403655639 
5.848193087584831 
8.494909625058286 
1.9206044766980475 
2.9345071091318453 
13.605621362893652 
16.345504820685388 
18.56772379632778 
13.44797595389939 
11.992247623882053 
3.015010185410637 
4.820726915447614 
20.74395752549034 
13.523421953265746 
15.244129547337156 
8.779325494749044 
18.518036537555336 
3.070714287891506 
17.983718729260485 
10.520419826809903 
13.919378265271819 
17.942345530316636 
18.225996851179872 
8.797901915104626 
5.583433552910851 
5.684016381197728 
17.20032675579062 
12.884269425558422 
13.387934460135815 
3.54398570295169 
2.0070531149062734 
7.485981759828499 
17.163951182542817 
3.54019111236278 
3.920067281645639 
4.8053597398469785 
3.892628621655142 
3.356050393729039 
5.237637817266642 
3.6028592552837653 
6.6763565484642236 
6.032019365965953 
10.380229371972932 
3.649132569742702 
9.033223255891007 
7.081691488425259 
11.496758213331425 
7.039260391436417 
9.592511405195095 
7.908231541567228 
11.501618560671574 
4.9752138668317665 
8.788870334836313 
7.93826138390115 
5.469799941512115 
10.653461693309815 
14.694916365252144 
14.081903294467255 
13.383420191010051 
9.525031947542363 
13.838866880432436 
7.100888726703462 
10.450728980201795 
9.894248098165976 
19.11605257663049 
20.653731964798894 
19.110858776767884 
7.632008864520658 
4.46086625503722 
4.627760104285534 
4.673281435048659 
5.031182896021695 
5.628004229412621 
22.920152817793984 
10.888031496163858 
14.450617158690267 
21.987778972353492 
22.96482548899519 
19.965398796020786 
25.600820691225064 
24.880126551076536 
5.860871663510005 
25.083747880201216 
8.564489664641842 
9.067330520109518 
12.220213862662497 
13.62378330609428 
11.66937819951925 
8.772115628006462 
9.988135231467473 
10.175616572707561 
6.661173326531823 
7.33110101427924 
12.04389676198513 
6.945352129314733 
8.653556311049487 
12.52843132721715 
7.626061689527638 
17.84397596275867 
15.748021424931972 
5.8617855832057515 
26.281342104966765 
26.291918170868364 
13.117337190729135 
2.8708202917684424 
12.624874338069661 
11.971344969517 
19.65580715400976 
19.97332600290825 
18.589564651522558 
16.672732417510353 
18.512288123841476 
17.9757118356375 
8.567356960091436 
16.030386354000456 
16.52213771168081 
14.301944662473844 
9.86105460469603 
11.680544254010503 
15.678055286075748 
3.4642214290541595 
10.725091209554122 
16.064945721736883 
15.382503567740219 
7.304715268485184 
7.038930868580238 
18.315319397383337 
18.991126865701204 
19.94675238137331 
22.96805122196559 
10.258645756234907 
11.824052163324142 
11.4233916328766 
11.236864965742118 
9.678769930283602 
11.144795810844583 
13.485656670490739 
11.886357440771095 
10.950197822898556 
4.343492146860751 
3.7841341866177087 
5.138263657523017 
3.567941483711202 
3.7416558502202215 
5.49724858155168 
4.176046581890949 
5.413447659282158 
5.869706122401927 
5.316364037034468 
4.172582879729254 
3.3065266597280587 
3.167086998358864 
3.4660874603846135 
3.450567815972493 
4.906702079822572 
3.6142842145477583 
3.1530695952396695 
19.298067487683547 
14.28904223294155 
13.600386419623689 
9.526887134363603 
14.869483420142474 
16.508107779803918 
17.195024029655023 
17.828592969332565 
17.975268265186514 
11.683042288965915 
15.285159700754225 
17.291400784167795 
15.328204924461991 
17.96711711851209 
14.999104064841875 
16.06882313507894 
12.408197315458764 
16.385742523287494 
4.207251669443306 
7.859199329184632 
7.691927821112795 
15.021701338760266 
15.460254736074036 
11.972930056949558 
7.675752863759977 
9.257581053619043 
10.269793495582219 
21.143267217894792 
8.545094493418606 
20.138699210093876 
16.974687761003278 
5.108040521393369 
18.6808377904679 
20.711522951919047 
2.6561037401556207 
2.941103595025131 
2.2377148541413394 
2.0455453036180082 
1.9536454852898797 
3.58767205915586 
15.389625283277976 
11.756948301503767 
6.6591925834319765 
3.844258021511237 
15.932757381514842 
20.140155871421985 
19.03190681961045 
17.537549166320936 
3.0625540207937054 
4.859280346217002 
9.050657175018385 
19.67905405376548 
8.335240561040372 
20.818629661527094 
16.83802036123625 
20.741429917006055 
18.255771131682 
17.250037211054156 
7.751985329779933 
12.098160519150543 
11.81468768568483 
8.441619022695091 
7.110556703780417 
19.018452114691826 
15.836461768074942 
17.60741043502854 
17.105047651970242 
17.874005989146927 
18.80720963217996 
19.441251696577975 
3.8800064830049235 
21.94427876965451 
4.959888624444156 
5.063461575703095 
4.3854848425142485 
4.872132462161519 
5.002671744181472 
5.729532536191523 
4.471170696019309 
5.577124204020693 
3.5015373837103843 
12.66748847993823 
9.742797914966147 
15.223355346779847 
9.5025745661153 
13.146237916601228 
17.467890598323592 
10.545531745901904 
10.691298110553587 
15.976039888112425 
8.310878504825448 
6.990115092474746 
14.150053985425627 
13.233957515104175 
14.330467891301112 
12.23814415491957 
16.355754681359848 
13.948119139317647 
13.658313113624443 
13.25136782568787 
13.816410423785698 
9.601381154370594 
13.262083343778865 
1.932859035341313 
1.982840939500729 
1.8222590143337063 
19.414632954488848 
18.64093752448817 
21.466237677024832 
16.34984252190428 
9.142184435925298 
3.0081925322496432 
13.632162009835055 
11.8248456970205 
16.404868270718538 
2.7137559647627016 
2.044490391922112 
2.8641275077210033 
2.510837306388995 
26.33431777226549 
8.424189077565423 
2.4667573720207865 
7.022114176057647 
27.02780383886723 
1.2392000701602355 
30.72736827068581 
26.581462875401783 
4.45461042383436 
25.434961003324588 
30.16995263945237 
6.542772851673307 
19.691776437869425 
17.66048200540359 
21.160772862253296 
19.77169685428127 
22.57882084801979 
20.047599725061993 
19.806157933160637 
20.04761251081158 
19.38815970736977 
17.424995774047975 
19.912921538853233 
21.54551866097289 
19.757103015713582 
5.112242478815614 
23.10986435931926 
20.882286452094995 
17.889334426061456 
12.892360039297271 
12.88186447480682 
8.13589800773471 
12.57978516230046 
6.719666502519402 
7.380009703942759 
3.9335890857090767 
9.452866722776621 
6.132754236744064 
6.7782472575791175 
4.503880239984614 
3.9132601989125053 
12.9042382788694 
7.14372999774112 
4.6544998877342 
13.832096584629475 
3.9951989313755916 
8.685924456617963 
7.217034250343219 
3.7728552476911545 
3.997485551603728 
3.3100310362393173 
6.47050878728562 
7.266994870911352 
6.1438109600999224 
10.644476130756926 
10.34360302030422 
10.460852169273158 
6.124456476445578 
3.5453184113529654 
5.427353925591737 
3.235340371853133 
3.9202292562507757 
3.6562328874234162 
3.6702431986454283 
3.5487398646210058 
20.766922263587155 
19.55704138755664 
19.09205725757016 
16.063651168173713 
20.415024661336258 
25.185757034417104 
15.52111453097875 
12.57223654946617 
12.120401599604788 
10.793207413100754 
12.62075485622041 
1.7160037561665942 
6.387874926102404 
5.9330111983298695 
5.793460360355285 
13.30936432982781 
14.393555020394652 
11.680249959671562 
17.0241388847814 
17.460581283967144 
11.838999995005125 
14.608764459352223 
7.515388151058202 
18.269947083626956 
4.442993001253453 
4.485137445731541 
5.308777023553221 
3.785153894635435 
3.4916330056295326 
3.5574792021990147 
3.301524906743522 
32.3189808465378 
30.9126979013234 
25.7440392844604 
27.40364161786544 
22.896649665997817 
7.333104332032204 
6.957183805567263 
4.854560250795609 
6.758260244395719 
4.4715080578620015 
5.741498585030984 
4.879920246691609 
9.949474128178432 
7.756940723379384 
3.9763356857489285 
2.013686124861782 
3.9895051193522013 
1.0341874813755616 
1.8010776273355544 
2.3723319078318554 
7.4825186937107 
7.785684204217629 
12.115559757474557 
24.803969941293108 
19.278860729568162 
13.804766504288397 
1.9823026416582787 
27.452027011785116 
5.709331620689123 
17.205308769502288 
8.381334032858433 
8.219036613205542 
7.567389644436194 
8.341021729982776 
18.21860391902685 
15.597938198293708 
15.665070148768416 
7.3646383122757575 
6.632698033438873 
16.117281581120483 
19.141841005089073 
12.815257297746514 
18.478877621833522 
19.62769870153452 
18.454609239961734 
17.705491346435423 
18.2550397476527 
19.11740403808406 
18.594314029427366 
17.980885197718393 
18.299031376660928 
14.635768790750227 
17.18235942169239 
13.72600860669526 
12.14516088243064 
7.0824809384504785 
16.27341556937981 
16.5235441271934 
15.811657328584793 
15.563561464833246 
9.405883021585787 
9.218539047320434 
10.099554222132426 
10.257636456978764 
15.917612864518368 
18.549437113303913 
19.078632204649384 
13.827675836073178 
23.284766535594603 
22.831512476652765 
20.020718387930536 
23.938864714753944 
22.364077064549203 
23.579129437071884 
12.880179115917457 
16.406712709012783 
10.810304363742619 
17.189198714977703 
23.003865881836653 
16.2927508481253 
7.251807390610066 
3.5802936910066268 
5.607822244558673 
10.69033471637283 
4.864484654613421 
30.421824881165538 
7.350961980420685 
27.39530129263265 
6.114966395891025 
15.97522962525384 
17.610984664608782 
11.695911794915341 
26.81936313848457 
26.151533726913826 
18.480204557220414 
18.243609955583008 
19.42398077537983 
18.94343284027417 
8.416965286998371 
20.401046995775967 
8.68141004286935 
9.895635321500482 
4.828585784385929 
7.975355195201628 
3.487393104363106 
13.898463109904736 
17.900258080128115 
4.658993612324319 
3.578450515187501 
3.2665890306571663 
4.387288838428785 
5.2774087615415874 
5.101638717419981 
4.251579483581014 
3.693626585862587 
12.395430304119111 
15.65343939741507 
16.405409281126015 
14.636196325780018 
14.338085995886551 
14.20705755140408 
2.0584394691757955 
2.5202035909530958 
1.7012320921043653 
2.7339499216996694 
1.6308967664870877 
27.576215859594846 
23.859742062087836 
24.36365386429655 
1.7170565848797485 
23.757629039033862 
24.112794506470447 
6.266064146390182 
6.750283902040521 
7.569756971840456 
3.731392060865513 
8.104957418704538 
4.6390937677490305 
4.823470157607647 
25.550506294149358 
25.81309854711114 
12.773363820732971 
10.819646239481935 
26.09638331345486 
10.07162966627877 
12.863522289155979 
12.827770152413494 
9.595846895161031 
6.672519808642503 
9.797097876739562 
13.645334006841594 
7.276682394182206 
18.790983354610002 
12.037166902253155 
18.421105070121374 
17.322680786014114 
13.249299383899457 
9.128497530966726 
7.489823329566431 
10.824877120310253 
4.659618911559456 
20.627244663567968 
19.337736371891857 
22.82253474195314 
19.464254086433428 
22.48228928949226 
7.942546848046453 
8.528984603300218 
7.9653670100140435 
7.406116952817726 
7.490186019841199 
8.757812763607365 
6.773649810966452 
7.426623233738649 
4.88595930538591 
30.236406125541638 
26.49212881357802 
21.75226434381179 
12.519906660001132 
21.196416267440263 
10.470944691325348 
27.683145933875895 
30.770045797434626 
29.602242723833736 
3.9817777084064527 
5.510273967049958 
4.535924247268716 
3.0372221232615235 
3.0991204039252165 
4.086314313572646 
4.665370893039025 
4.819302133663762 
4.549392337734425 
4.3517510793847745 
11.083089743004168 
6.949320752956553 
2.035033589908902 
5.208879183477312 
4.181279952775858 
4.021280755901278 
8.42134603322872 
23.69088571528933 
18.14003403887329 
21.662735041448357 
16.923535222725185 
2.642829635927113 
3.3956402454961667 
2.141598279659184 
2.249822194535548 
2.831665316391545 
2.6834409368624357 
2.8858557370651337 
2.034187289031657 
24.97019340538223 
22.12347059957596 
21.84357725385923 
22.127488760563967 
21.837084567737307 
18.154050080508842 
20.560417119593364 
15.844916123929465 
15.68053842954653 
13.757868845811224 
10.65927437540457 
14.18544681106385 
22.29403875363429 
23.104863134012923 
15.552422401600634 
11.055743631772403 
9.522064031870272 
12.149804875105195 
18.277790446522356 
3.6634722578096257 
2.3949447031649926 
1.9035927539588908 
1.628621490512995 
3.954525088778919 
2.8811788160739233 
3.1021691249981336 
2.3242724290327494 
30.696888083815356 
31.505494699696477 
22.545928037508435 
30.442876839504887 
28.947365362771137 
17.83786928650353 
22.775642028533287 
31.95356749226595 
28.672764242295237 
23.881889465657604 
1.6217591571179317 
2.372689413439452 
0.9254555562957691 
3.0739069001697645 
2.911194289261466 
2.3421672146752393 
7.261746265764576 
9.662421841748037 
10.92340834681932 
9.497195732769244 
6.776752578144679 
9.742607243519235 
10.725320365363668 
13.101498885378872 
2.0087217467198157 
2.4549740009614687 
1.8505539418071908 
1.8421321372852268 
1.7555124659721686 
2.5732736758522643 
1.856909632499146 
23.42424471054908 
15.61266817924848 
21.470571492617633 
21.662006940155425 
8.20034459794364 
25.429016518586756 
16.837507586144632 
29.6725952739711 
10.003519240456397 
8.378707309486051 
12.197149452901195 
8.125493536425154 
11.128122157410896 
11.016946780991073 
5.750981699736507 
5.914314520946498 
9.827110149022774 
11.013144793690211 
8.871011276920035 
10.965790051023887 
4.920275665647825 
4.876521804001259 
11.17845237936973 
17.97793940011664 
19.520068748915065 
19.354582081258442 
18.411704818977476 
17.97929710073595 
21.413436252929646 
21.469954989905144 
19.78581871101985 
18.2678419211441 
18.587289029005436 
18.634679477611037 
3.6667771982030533 
4.374168974251486 
3.0446211997769366 
4.601761524708792 
5.683473610439099 
3.673508368667585 
3.970016593534973 
7.22360305148226 
4.695413556944203 
3.2232912663368603 
2.8889020332835 
2.5187406389856624 
2.6095778986075264 
3.767184946173559 
4.0637115945996385 
4.168443776787412 
3.309440669004876 
10.569946145644867 
11.310029363202073 
17.36753715107405 
16.85473867892559 
11.115689148355433 
10.607118460768705 
10.40984325757041 
8.705188167488135 
9.19169055999539 
9.81128243920876 
15.899776052596147 
11.502243011876946 
9.24246689301825 
7.505517245294837 
9.956094652670965 
18.313621510522275 
11.401133180007264 
9.88552678992303 
21.006910411191193 
15.102647246180775 
12.682708443259559 
19.470946134961814 
14.241402248966743 
19.136410698689872 
11.626053276952007 
14.163450151314231 
9.700305148384238 
10.111578251280708 
9.5872553634322 
7.959974320353491 
20.54922876495302 
19.762948412777867 
18.014156252330437 
9.472434997914009 
12.430962452600106 
22.96656673272967 
23.266559858017974 
19.669167337528954 
14.91635094214304 
15.697010150988604 
15.00654957424956 
14.901958959973832 
17.52819536658703 
14.765632336690413 
15.386965477332504 
15.615566182102716 
15.620852565107127 
18.680103979051253 
15.102067587440835 
10.19627017902024 
15.981974330869852 
10.03085539304247 
9.46365673821172 
13.142732298550792 
12.174456032860663 
15.91245328632299 
9.030118922586352 
17.543383700887837 
9.692111423014229 
13.408821676009694 
14.351859212145337 
12.711821185939698 
7.37041620969777 
5.155904792514 
3.621308906220401 
11.996639319444409 
3.6889253717848747 
11.553565125564274 
10.38611593795702 
3.330325273424332 
11.903019458562378 
12.409922924642144 
12.569130842746322 
7.2654584279152825 
2.8861956866375498 
13.387496745689159 
14.810772536194454 
11.828692016799877 
5.1996239407842415 
17.02219401625967 
26.532395366910833 
13.86959386372466 
23.191098087716036 
22.060021529227672 
14.567799301251288 
21.79479587955662 
26.541708332642322 
19.07487032983412 
3.098394696705976 
3.0148127793668262 
3.192197305585369 
17.475612820696337 
22.51716542693567 
12.517137513613898 
16.410056183600794 
3.11434461207869 
6.4901005638856075 
31.255622296006813 
17.9181045912525 
18.113231386050778 
14.14614807942976 
22.383972795107912 
9.415343255681458 
19.7930742432172 
11.234119071730545 
19.29392812476563 
16.929777334122036 
4.833003080327862 
10.490249605428765 
5.091355523153528 
16.210354392781326 
14.766458695993075 
4.105010237284298 
6.428778116588262 
5.65260847065702 
5.085050923632629 
4.285606732059103 
3.7535091021725435 
3.920396059023505 
3.8180056423064554 
11.68103111608611 
19.631171716187712 
12.011803753155336 
13.271817462078058 
10.74106896118417 
15.515870273604516 
22.212793640858173 
23.342557657953428 
14.308416112593438 
3.0339206329124324 
18.470322144027417 
14.375883330830044 
9.789322981747011 
18.46045485573767 
10.464640361007904 
12.174943469056037 
10.135687476109267 
17.270154728477365 
3.066236504722857 
2.939988334488774 
3.1918946893847773 
2.5821538149395344 
2.7984875172996886 
4.036937902670063 
4.904979761950123 
10.625692253698404 
2.949580959556511 
1.7671302439445895 
11.200493715348005 
7.833861346007385 
2.4537450130511993 
17.097307015756964 
18.328997038326726 
6.749644089129398 
4.315866233105258 
13.133562312198777 
14.661111936685309 
12.071338580257414 
7.659209018127556 
7.2907807927363635 
14.252865074198631 
9.945741155996245 
17.759965725659967 
10.01027029509432 
13.006637146772452 
11.967090065383443 
26.686654517070735 
16.50130050098261 
8.92625615105624 
9.906256383025621 
20.729509527787183 
10.603283000888453 
24.45450463023685 
19.708402305269807 
14.34272770989251 
3.124999890880215 
13.654783671163464 
11.703047349890758 
8.753637389889052 
9.054463867696997 
19.28439822669716 
20.242972028788504 
19.359162947823833 
19.56151631279723 
9.895450280926125 
7.269070619694331 
18.527877400688148 
15.36792087366244 
16.744997783132717 
18.578443439938667 
12.550041176552924 
10.856795967456998 
17.16514185322726 
2.6181239486049224 
3.280842054685132 
3.1411236233374007 
3.371825505419634 
3.251567911552766 
15.050785712205561 
11.62285397263227 
7.312764766228643 
15.307683845968905 
14.063572497590771 
14.089021401067798 
16.03030690410203 
14.657131276520738 
14.598596864209759 
12.05787014319742 
18.982886617103475 
12.478117225365438 
9.378340611374883 
8.20810591098 
12.284685169130036 
12.690063033675889 
10.499990809158659 
16.86881604637949 
19.501434499273618 
17.265712975102844 
16.98893947572086 
16.7414601278569 
14.054128573102394 
9.693263152979279 
16.701064321974304 
7.8511043960647475 
3.977779484392246 
14.979456784745642 
11.978545274882592 
3.1512091277291745 
3.384189143042219 
3.200214688856543 
3.128787875832037 
3.0617409527754322 
2.48604146875846 
7.392503581461233 
7.820732148070806 
5.749365405619754 
6.8892916656120375 
13.91813094085976 
12.121472965938784 
6.358092593620348 
4.678743905554523 
14.34952785551454 
7.941704072337242 
6.335722318283361 
6.387176214226573 
11.788403727362878 
3.187202330450635 
16.66940286233994 
10.82190660465596 
7.576729773332971 
9.596509388535164 
2.686709816149717 
2.9622134543144076 
2.8386089041636304 
3.314662335288507 
3.4227435782779776 
4.140795392460938 
3.0506712428752505 
1.9043171806198136 
3.5029476184107287 
23.542436731989458 
19.622822254127055 
24.291562509409015 
18.41687531619699 
16.03721017735158 
14.732725020881674 
6.431775310618436 
22.349501839669394 
14.340130669363932 
13.835930423698855 
7.886571675940756 
6.739121169815964 
7.115357553774578 
8.638518786250769 
5.79219121953543 
5.964368511724349 
9.677614026725971 
5.4546942788943635 
10.905652179813337 
12.363215626461443 
8.092994129422129 
6.279287409522619 
9.501123752873042 
4.5251574335604445 
5.619542229736355 
7.283958541278989 
6.238768436497612 
5.748952542043856 
4.708197492939181 
5.305174218680925 
3.7018956735425346 
10.72893037060854 
12.457528166412564 
17.17970508501303 
12.67614511916195 
11.510987686941775 
15.931314761565238 
15.825753803527434 
14.042077241549167 
13.552048534882275 
13.35991274077407 
12.296548249377201 
12.679648713887639 
11.262437121492786 
14.760057302287665 
11.408428490023551 
13.353546463908252 
12.870653157918092 
14.279901073902032 
11.834814703532228 
11.068191730547097 
5.546260337228028 
6.905990599155774 
5.90457151233634 
5.942270872287532 
5.685264470824969 
9.59292078299055 
4.450775714174559 
4.97824235551959 
26.859012698043465 
18.99783910675828 
4.095190004821279 
9.536172128195274 
11.032518741918363 
9.86386673079687 
11.643797106529984 
9.369269826061355 
10.330697332974895 
14.461776581778935 
6.646477890321016 
14.64209093483085 
14.144907894375716 
10.921639603833686 
3.1405534772709154 
2.8672823480255434 
3.181707681740599 
3.7821334132233044 
3.357551221191387 
3.0287767925169744 
2.924007652964473 
2.420889865627005 
3.672456885279532 
3.36449431229785 
7.040116225618841 
8.33990715942453 
9.94581574165995 
8.541835747860565 
7.808593880266516 
4.911534810245997 
4.082705136210289 
4.344037972709449 
4.75036964918653 
4.213223706629275 
5.4335137522317725 
4.486026684017711 
6.155850667791629 
3.5434142347706596 
20.12279309500287 
2.611596712431137 
3.2232138320179504 
2.8925485375077846 
13.091794535931939 
17.04814284761344 
18.77347724245145 
20.791766403333185 
20.8043665390424 
23.624587936843792 
23.553913070169866 
23.63118753245764 
18.912766951658178 
17.635270905152197 
17.449219916688033 
9.684294490266414 
21.149256237815564 
21.127980845180815 
23.96357515703261 
15.891757612587716 
17.15917373878056 
25.040206739657787 
6.899556699971044 
8.834029800620385 
12.411483234913256 
25.727035974473793 
7.619764543878426 
7.28844593758608 
5.479450225410493 
6.752157808299964 
7.262346565172764 
7.227619667086747 
6.749693252291257 
7.310785592943857 
7.27756311502732 
6.789325947316112 
6.993301837042382 
5.90542491459549 
8.097888125051886 
4.251965721898504 
4.696213253278723 
8.147739174365286 
4.373140386948301 
7.090678973488504 
5.478124529575189 
3.6647166502162882 
5.493057800039391 
6.355391050833664 
6.717812777154766 
6.43385436069478 
6.5743640439537225 
3.1186938664544277 
2.819054669087872 
2.0595304404702333 
2.090446315593013 
1.6272580375615904 
15.248704475899213 
20.65239568946144 
18.420082644758573 
17.389569829080163 
20.231372466150095 
20.082914136974303 
25.28426755160006 
24.626941210836137 
24.555036247691703 
17.37522536601623 
24.56641407092089 
19.15948200528005 
3.860099239946458 
6.252973774443235 
6.104231397975387 
3.8167241744870597 
6.313157630142822 
4.136895372305022 
4.276361549816499 
4.263341006115414 
13.320500900195523 
8.613864842478714 
13.963709503228387 
13.861085841859241 
18.58664115136991 
18.688686368154563 
18.309583056654237 
13.073820725011274 
16.63579293204929 
19.786709609470744 
19.194493793082085 
17.967637456514485 
19.167102848977844 
19.14418037712152 
18.58419501171865 
19.187027521932265 
17.929174710132052 
21.196849456089446 
17.233219341651825 
2.560430099744718 
2.317148925997984 
2.3963623262727483 
2.4466519960228283 
2.139407574986006 
2.1328101020355588 
7.262770187111764 
5.294412022553816 
8.64280272989426 
5.770600358948925 
6.433887110433764 
6.9459460835931015 
12.21307502545461 
14.00173439859628 
15.187781199469336 
10.996720189380383 
13.9362279207286 
13.872661939379164 
9.793863241302297 
8.922805346826785 
12.766583215438745 
4.989954389488352 
3.406533426184894 
21.684990522662446 
5.491006274780372 
5.181063096871753 
21.33379906606838 
4.43178817184531 
4.510275996108502 
3.04827877787602 
3.523048470434122 
3.654293577879156 
3.2660913694070777 
2.981178647214968 
3.171187247905007 
3.175453533476191 
2.6310290761242485 
14.270290479836966 
13.673738774172843 
25.426572770649717 
14.047522152222792 
15.518456193238512 
3.469612607376943 
3.8331347548686034 
5.728403415792513 
8.469206999536574 
4.244472581606101 
4.782277321404713 
6.453564448309714 
3.739037334259738 
3.4572862336533086 
3.511276348460587 
2.7639990009747892 
2.9080130782215976 
2.1802618419520625 
2.5048375516514487 
3.074394770892589 
2.683144424293525 
2.7799043142238835 
3.261646835174427 
3.0917725594230356 
11.69196653227394 
11.005770178773728 
10.839121860273318 
21.637287360144448 
23.006781617682513 
15.855793167881753 
8.582389544140646 
12.001040361262914 
24.341027089146312 
2.591032634316072 
3.0782645067471197 
2.0754383800845577 
2.8322244147868485 
1.9572664773967787 
2.08578249878384 
2.227915429468993 
2.5167701684820054 
2.2901997861233014 
16.177221414737886 
3.186337993311747 
7.787220512705995 
10.711160825135817 
10.906307855952315 
14.223173893808513 
13.011908586510327 
16.198060100315352 
28.097909042136777 
19.581092596138593 
26.82788322609695 
14.563438510641706 
6.150232333202592 
24.2096634350683 
20.197961110058138 
11.105861673553703 
20.804724583913853 
25.558713531209175 
29.437527453461175 
25.264869458379177 
25.94870219033056 
21.933332654879045 
20.374918736438648 
25.356345587753072 
18.029567541747426 
16.034556493297995 
12.935707849135278 
11.140295691716231 
15.079883533655753 
16.674879598441976 
17.261736502594346 
19.38669794284424 
16.761473602362923 
7.433676248696721 
16.703572655140075 
7.7032768489836965 
9.090865949679287 
16.308168003204656 
20.278830397947083 
2.0538166300735083 
2.00341114982997 
1.660493951970116 
15.504150109615898 
2.5460209910573686 
2.3851021988933203 
2.153424813183684 
2.343410819577176 
5.3221954571803325 
6.4445258301351975 
4.719471430405549 
4.642831292460887 
12.53755724747441 
4.7625138896318315 
5.109287763114606 
6.308506032753043 
4.166067938095979 
6.693368320495426 
5.533272448280693 
6.101707009778001 
3.4815928550857773 
3.362279307512835 
19.29385944013125 
3.601459990318301 
3.0271232771797627 
3.0682140669250453 
19.29529003002114 
16.266413634144683 
12.993898222056016 
13.444109646528627 
16.70913332710817 
15.602219037052942 
17.181742542932486 
18.578747364655516 
27.319287484542937 
31.38467952734451 
26.752599170893433 
27.16132290769305 
21.738980289580763 
4.517475610293633 
6.387579253001647 
3.824196072263332 
4.627547054033484 
5.199209751648491 
23.352702119944823 
14.849020936397382 
22.105778805060154 
22.548341174948956 
26.83542474950583 
24.329474733388484 
23.48290637091159 
24.535014295382076 
25.089146299704012 
27.83395206809407 
23.983851030293497 
22.71055853754632 
21.96436476218067 
23.475054681334957 
10.80067400853483 
11.732207149585859 
12.469300635640813 
6.467629907658941 
17.301667784417823 
16.931691259165177 
21.090161014728256 
22.03399654362604 
7.659469286478019 
7.079524152186854 
9.694142772641506 
7.128648256694133 
11.114839709202277 
10.619710326943869 
9.11403430341868 
5.154221030692324 
2.994465542593235 
3.216273115636385 
2.9963417428306514 
14.239124567943229 
2.510145660075209 
2.752336064295405 
3.3281010431732083 
3.3520578048561935 
3.227928269926668 
3.6304650912054797 
3.3999801377266823 
3.2352157843954426 
2.2784111685528035 
2.34664872567868 
2.235327081739423 
2.9292628084467633 
2.9761563612230915 
3.0920267570926483 
1.9496626376880717 
10.741078949552898 
9.565481794698202 
8.854252210518482 
9.335948205450025 
9.182765727976376 
11.449752921223336 
9.901660729263604 
10.523849903690783 
7.023207992685304 
8.689624292571175 
15.56738246229117 
11.91671301761094 
15.03444932156609 
17.47519530088699 
13.471422158160442 
19.731447702414584 
3.663094090866814 
3.6074108458666676 
16.957475037551067 
16.47768492615548 
2.787607952648565 
2.5164670685308104 
2.340670182100805 
2.8900935887078143 
2.6829665800101252 
2.1305009040301743 
2.7956260392572654 
2.5583000789447974 
16.00890447421983 
1.792274319718078 
2.067628477703954 
3.2309775349922805 
2.156711373727346 
3.6015276652156674 
3.3768673974397947 
26.196606155306128 
27.158797553780364 
27.506698364557625 
21.749730028804642 
27.19089358923766 
27.279820982418787 
25.683688011260923 
24.20623321335204 
26.0300323144612 
31.094488005286685 
31.30378231914155 
26.690919107556937 
27.38677591560597 
10.58546250165861 
8.233404897338266 
16.623314269022323 
8.371565210901569 
10.743237045581086 
3.3369437666701014 
2.1031758286158873 
3.39932604316536 
3.585364380164792 
3.4966052407557298 
3.4457530290442864 
27.675175722129534 
27.983721572123134 
27.53814603805819 
27.782914394586708 
27.27104728000146 
22.404917241354088 
21.54809373860375 
18.158578184377628 
23.981788225235764 
22.437938633362673 
22.515364892294276 
5.08148042468469 
4.765850061281816 
7.152421193810694 
7.168680009183075 
6.659794343723089 
5.982252825304574 
8.641667798935439 
8.032685448960558 
19.18696051165491 
22.071622633931575 
25.622478793772057 
17.652733411861686 
10.889190497006982 
20.062240238323778 
26.196346224813862 
16.225505121470075 
25.900921841491574 
23.59073335166985 
20.58732590867035 
16.059482419499105 
21.25304376426243 
16.083860347847796 
29.327880723906066 
24.13371220728566 
6.197835929743929 
2.908733748646366 
3.931303089268542 
3.7958638641959794 
3.7185115710920247 
4.045925811859561 
2.905510780386744 
3.721259166094229 
2.2002222941372303 
3.258871138734808 
3.453792655869077 
2.2475329371398227 
3.4113907858527317 
2.3034204779704663 
2.249122519522858 
2.3202287214132022 
3.260795613848061 
2.517366507791281 
2.2948226784385457 
1.9308751102063162 
14.885360432806783 
2.108175537142 
2.186670160366755 
1.9509619966723837 
1.1524657553789635 
2.2542293313263913 
1.4680947648551794 
1.864199481974454 
2.187338024393043 
2.9028923068311347 
2.685184504359647 
2.8478589714750555 
2.8132791003410476 
5.07513860965937 
6.483342190363141 
5.532297361895589 
6.783436281450066 
6.3526751002538 
7.763510357012047 
8.753184265368338 
5.311966743963695 
7.873327977524142 
7.546317555269466 
7.353850972711189 
21.006255293982022 
3.1274095600502205 
2.9566435059672878 
9.797375626454818 
12.096988257467276 
11.69318818026061 
9.44882490614572 
11.5592878731067 
11.600567545330728 
14.139588099798127 
5.260816468314489 
7.103260757796693 
24.117602593833826 
22.480563575258095 
14.98706795817993 
24.815230036257198 
29.265859390301635 
14.66964254144948 
14.486956023098312 
14.240505793394268 
15.057648872086835 
17.668673074215263 
15.174816816888224 
9.201037031745333 
17.331155712848446 
14.924588761078379 
12.301870290162709 
7.63077593967457 
16.175847059394986 
3.1665000868162787 
15.681043154152894 
8.770067059509937 
15.806444458260199 
6.823759934823987 
6.58443731739557 
7.063957977685174 
8.266157361882296 
6.828111006734036 
4.992531686403222 
7.26351660333493 
5.3269934624209405 
5.716857411499764 
8.498420718069697 
6.724715797791146 
8.675408014036725 
8.54278599897608 
7.608323207688094 
8.414796055133817 
8.495455639943785 
16.666595441247935 
19.6676171185809 
12.87869524715242 
17.510769250327737 
3.5510150593608043 
2.0314663755722075 
3.1032759296111903 
3.1485551514430483 
2.8328934481352834 
14.020669578563597 
12.914909715809365 
12.181305621379316 
10.79860569789508 
24.05862598300749 
12.871828466154978 
11.964623768253144 
15.56857710185443 
11.180407420154513 
4.379875371523207 
21.68868034338953 
10.37307723361558 
14.780775381008011 
14.557704707415665 
15.116987202040026 
15.198230081158284 
7.119758333244558 
8.640923112081095 
13.791573454245013 
9.413214503651993 
5.926073008798805 
7.20862829187426 
13.371570405856044 
11.929321264542478 
11.728462897431639 
12.255252052299825 
12.162552929661969 
22.02884390144989 
22.60276002474823 
25.504975658232052 
14.547260825211213 
24.90672299986479 
21.27209273190877 
21.719079469526577 
5.317241792336375 
6.310482896140319 
8.358220954230152 
9.928560168289318 
8.992375798371299 
10.031493810469762 
7.598094063896167 
7.512311754910312 
8.267409101893751 
11.201489630331949 
8.03321071629147 
11.308681425773774 
9.61384393876964 
7.461500675802088 
10.813154990967405 
9.615061701148989 
9.51376507161945 
9.326570580395563 
8.49086918761038 
9.484479808211784 
5.240572221374832 
5.7115875373477065 
3.080916485880225 
4.370154056142558 
4.167242950226509 
4.177586148497194 
4.774205335063192 
4.0527219283089995 
17.485138942410003 
17.5135991985657 
17.595803173966313 
17.244966304664207 
18.00054648454797 
17.09030544822158 
12.971562441761064 
14.038646400985778 
7.403221374690981 
5.701142819005675 
7.541660183217686 
8.499166729648831 
20.711201042968092 
28.50421444398439 
36.292334318465535 
20.448680358371668 
32.721793586026514 
32.09468982020762 
12.691303391473294 
14.942332705243452 
11.354286214127711 
13.472574441710165 
13.21148106447753 
13.386283054485842 
10.228537834046767 
8.96427854691855 
8.415531880966187 
8.548284757720095 
2.5512148462130972 
3.741549949256524 
6.0766591288402845 
15.812434451132658 
11.316392125810284 
5.628490778373651 
16.74216502914892 
15.550113946375298 
15.339132292874508 
12.56360402546474 
14.216109859006021 
5.874873004841524 
3.5814476981177186 
15.320991303342998 
16.792379809888438 
4.003350145213071 
3.8056272746546327 
16.786162811850083 
2.9507200033005274 
3.838891280083076 
3.6392368541312887 
3.2853526598041163 
2.8887070046615957 
11.910931925929505 
12.203021921273464 
11.48322084159689 
13.514281601329051 
12.43893145262365 
10.2320834174115 
11.735977261053165 
9.45187067824185 
6.238506162438166 
4.854547318790722 
8.154877937586445 
7.06089620153238 
5.420231201829115 
19.545642574891076 
8.459864442390803 
7.259234051198168 
6.8333378943864735 
3.6062319290570746 
8.498800302467332 
8.98180493998895 
3.2707697998681398 
2.4252706875862913 
2.9784044832238985 
3.7995782439372987 
2.45655844123877 
2.937312806453341 
3.0519127020699806 
2.7008525061889244 
3.927872484120433 
11.96245109440437 
12.152469227325977 
12.069394423198005 
11.394946884575699 
14.113681218479313 
11.901037921882152 
23.302116073646093 
24.126641857625206 
28.410372282050055 
25.14086382144185 
25.4714071394082 
28.115821466222954 
14.903704072388056 
27.75346144049784 
27.917731319042435 
21.65825706639691 
13.401249861941084 
13.549388221902523 
16.39487700623496 
18.356374958865782 
10.498200496407478 
12.315511849552772 
16.31091990570909 
10.77867434516981 
25.00010858770973 
4.342607725194846 
3.673976435384656 
2.842662209205932 
4.214287124707373 
3.103045654744459 
3.00870335267106 
3.5962295652236373 
3.2635846796894787 
3.5899986332123315 
2.7577927629805625 
3.3073497202068034 
3.5026314980316404 
3.696982508250569 
3.4779082926724936 
3.5116511421949266 
3.2872705871579555 
2.7480554831516852 
3.795762297760753 
6.146396781074798 
4.365942473565347 
4.317344529837255 
3.347237753360862 
3.2481793909502046 
4.298843470476773 
4.288593736841364 
22.934303931827813 
22.808699788643786 
19.623551193370393 
20.086732461965415 
19.245524093976304 
20.462647130256407 
9.169343950591667 
25.68168903348107 
29.899967779446445 
21.55758454669955 
14.797585813734544 
17.807265119685425 
26.011512386322476 
26.855518271517425 
25.191799348751182 
21.247321795456788 
26.645046250133777 
26.587321352971365 
9.830557606435411 
8.767600781523404 
26.554363532259135 
26.059375141481087 
24.330449470296962 
27.45308760574484 
12.18826945462916 
23.774340139320913 
11.181192785264383 
3.3753519453674405 
4.090749488142103 
12.056262022460277 
7.258713039543516 
6.178285851059875 
26.23171962353355 
26.939215913205544 
25.766278374700335 
16.12809478136208 
15.867918822878368 
13.518557152749443 
14.931804350696009 
15.415146389623414 
12.704402615263996 
8.823850633041053 
18.367473746961156 
17.665845567240584 
14.682600193955555 
10.940320146923655 
4.61679508931093 
3.837873936313288 
8.103848310711292 
2.8895014308763027 
12.591993477446398 
15.177082659976143 
11.533134901198794 
4.23855884027677 
3.6638633450744864 
9.850774317247426 
9.071153678741789 
8.353955376803437 
10.86622112278769 
9.74144360667868 
10.44666592005152 
10.372626358829798 
7.10472842314435 
6.832979500686593 
3.501862007871652 
4.56182187009597 
5.7365257186281395 
22.689899183550057 
27.064521903756237 
24.152287517655054 
22.858240637595593 
25.972525467971273 
26.197623695593183 
22.95559576845237 
14.358324723339745 
23.3449820381104 
25.391556576441047 
22.404465112874902 
13.00714039164157 
22.39936933271939 
5.331162372112915 
22.12531014245821 
10.804826992085871 
13.660130903332488 
21.20444708884894 
6.070495542400098 
11.860695817336657 
25.78364028392974 
26.163821333510445 
25.3994368042004 
25.928510582345048 
29.602646374942328 
21.371258661286046 
9.952967910625388 
6.112268480181102 
19.25685168212401 
16.236690576760147 
4.8666785227336105 
3.944420309279901 
5.7474173011007945 
5.287053552649034 
5.802660277920194 
3.6882126034914346 
3.28913612246055 
9.71964708144197 
4.745633443356823 
7.407604852540322 
5.5719890365168645 
6.320499276484292 
25.31693780311795 
23.26634088195211 
29.287022114146733 
25.43947110789997 
30.680491810590084 
25.9927018112984 
26.78552239331312 
25.738054273631988 
15.053266293289667 
13.439416489712189 
7.468449305397709 
14.593558510786343 
10.179594654125466 
9.410602251465173 
17.80058834063985 
11.42745594248682 
28.934163723001365 
28.61692870111604 
31.959664124887226 
2.036640568862609 
32.62410055983161 
0.9585775410592455 
11.283242801758156 
26.489298197132293 
19.18743192059233 
11.369359435672267 
17.24606854226973 
17.820056934409752 
23.678662673111933 
26.21684698678461 
24.73141277809805 
27.67006441677278 
3.433134011569798 
7.644217725284679 
2.779460428176549 
5.266394950889544 
1.9010423092019946 
2.043080331787854 
2.959112339507101 
1.9486359586688442 
0.79428337593139 
1.898592490573894 
2.1557557136654784 
2.537492192132104 
10.844920641865528 
13.660712760217178 
17.458176183756002 
5.581033345377077 
15.343165365726689 
25.940730693746158 
12.69000432173336 
10.140572913561154 
11.171952342653025 
14.352242290456857 
3.591410214357756 
11.632331713276697 
20.837495938099533 
17.960692836018545 
20.698506865028676 
10.806995430040743 
3.1795544916638185 
3.2367901143890827 
6.733424289734044 
5.014881505754224 
6.1925807071628025 
23.308910387265925 
20.351304637032424 
20.19893667933715 
17.466237795118616 
22.791880998927095 
20.786889803230572 
15.960362983790347 
17.37751801122503 
3.470156300959211 
25.926436958052953 
20.842190782272944 
17.048335745305454 
4.82213073838427 
4.737953802929156 
4.035660882575327 
3.5225440387197504 
12.637433599644899 
12.832423642048935 
12.528765951028602 
11.709658175926421 
11.250803272969872 
14.172969250758642 
10.006591398704177 
19.92873379401407 
19.744321549980864 
10.306125290351556 
14.299208367898688 
16.480830927679428 
10.157172209925488 
10.60449622396478 
4.647792452792311 
4.221941032604012 
4.003640923158201 
3.983457424684728 
4.669211222456603 
6.546248742801801 
14.953882167655578 
11.84154050291474 
15.52414681192526 
14.980130359427346 
20.760293375445457 
15.10647993440092 
23.70748037661854 
15.290145841205888 
16.01134439864029 
17.08317605259498 
22.570749657360487 
16.642559600527424 
16.39110474298481 
5.0497852831235575 
9.566743192571055 
7.911293967540808 
12.05356457368342 
8.971522817531223 
12.356294376597706 
7.506317549035571 
6.906746648084766 
7.327431736551938 
7.844348294633144 
12.091964668321424 
14.388506774887704 
10.13715735141415 
2.6019980600888237 
2.376660728620907 
3.2580024277798687 
1.8735230440100052 
2.5843146032673383 
22.163525980171425 
25.99118528942716 
16.89985853407724 
26.320764787729335 
31.50009717061663 
25.921544465518952 
30.305014547854324 
17.75135525006698 
16.859821378143053 
14.83058205820181 
17.706331944572955 
14.916704088963867 
7.142791929941568 
14.994495884850881 
15.280772218568966 
15.812896595164801 
14.196894415829231 
14.786501232161752 
23.643401983359578 
11.676684327710223 
5.311891694380782 
8.197376170145589 
7.1093710250762445 
12.700281781207028 
12.261176091892057 
11.713012710746138 
6.088171345772067 
10.171599457256141 
7.993412956056629 
9.427054896055507 
7.866646915754747 
8.584411665032595 
7.465833542144603 
9.4547425022138 
11.353216870936922 
12.962280462591888 
26.922990414748867 
14.323659934483572 
31.148184155752844 
24.163749106077 
27.400875190427076 
7.652101947337157 
12.523841061779432 
12.38179299275314 
11.336320373170944 
8.304931038540689 
8.665240624379804 
13.427889217625253 
17.934851548959614 
17.64514602321253 
16.757850718088175 
20.618383881473775 
13.679037028669146 
19.142818160512522 
15.015827511678557 
14.375193152735612 
28.7982711458276 
8.606358508869071 
16.273722742021118 
3.1134852448246884 
3.0510505428296213 
2.848369133433615 
24.218859734933147 
10.878281704776903 
23.953812685115647 
18.907990039185286 
23.855999283777166 
15.396933627768858 
24.33311922142263 
23.851858521978937 
27.182528888549406 
28.263955664629844 
22.684796385953895 
22.609751201163352 
22.427983307152093 
21.00063967872052 
17.840614051861834 
17.9243581444884 
20.252993890464936 
20.1227152038568 
19.617142956649918 
19.748462099345094 
20.683385716581917 
19.462376730196826 
18.36255187191651 
21.031025424243072 
21.972723823385145 
24.46798991049804 
14.171822453354167 
6.854802872119748 
20.89173234731883 
14.632396239446503 
16.232477784888278 
10.091676594023266 
8.67772235714792 
14.771291768795777 
15.339622274517136 
16.06248194522865 
25.453767516023568 
19.015856197143318 
15.61015038638268 
11.954075545787806 
30.933975556847212 
16.85738584752056 
15.050181874149487 
20.454646651024696 
3.754010423841036 
26.465139397092518 
16.59480176180281 
29.406984113207496 
27.489026463594445 
26.75154018740083 
4.555317470658305 
17.262204864042545 
22.98079749998051 
30.688081660208585 
2.7530879573165223 
4.966684782432826 
3.4602433683206257 
3.397267972076839 
3.809644511606913 
4.799931334589858 
2.614593485062635 
3.8940865966562184 
3.218242203412076 
23.83056672762107 
21.30303645737455 
20.527505218287228 
15.29462809692475 
4.588263189382945 
4.365787486929633 
3.7704069942093152 
3.572347222517637 
2.523069418802121 
4.230921676319704 
4.38669340667121 
9.756193302518032 
9.718037861233608 
5.344389939412069 
20.166785903188117 
6.561692504262667 
9.639747065833028 
9.071781838759431 
17.982893116188528 
18.122629564874025 
17.74772082768217 
21.025902121065464 
19.111507963601206 
19.397511740955004 
17.917738691282906 
11.49818366035878 
18.859734598040493 
11.440275752687123 
15.482492949737342 
18.280500365586985 
2.0508521480264514 
2.281865599806828 
2.23282032055689 
2.4557943930140196 
1.9769807585499406 
2.2389172818169385 
2.7193999509577016 
2.7243327527491594 
3.827476094540254 
5.702461493269937 
2.568299413594776 
8.627058426423112 
1.9658616861718812 
4.66616871810093 
1.9167297167121702 
17.69612489897614 
7.832317302104698 
2.0376625314922663 
2.4920220377368776 
2.0741933000335946 
1.9282968386090937 
1.6663159816181417 
2.4512544321212366 
1.650080451785024 
1.8760237431639681 
1.80775758205222 
1.6619806917436377 
2.7438883622478767 
8.373369258131781 
8.316392720642382 
10.111255205207357 
8.466264112323449 
20.215373707870246 
8.60467613856292 
7.645551528918383 
25.421789193171076 
31.021141766216704 
29.01806824673235 
25.589837032464438 
12.87042827746269 
31.192949221849403 
28.601042776552042 
32.96047735755274 
24.216991009844822 
24.591389820700822 
21.61479515807121 
12.25379498122592 
3.4588775734915522 
4.0503086019603645 
2.860028965523087 
9.53468460714199 
14.477535629643265 
4.217936359353158 
11.898734264744697 
0.9935852683881867 
1.7888167810678994 
1.8940565949505683 
2.16115336998246 
0.7996026336312211 
1.9692610860051338 
19.473057291721766 
20.12353698718887 
19.715241306817212 
22.672821415039802 
26.81233493513481 
26.406565681420197 
26.32030780986178 
31.35746738851175 
26.388252821270573 
26.36309153386165 
2.9570078206286587 
3.232044267000808 
2.798782678552437 
2.9290514217671393 
3.0020371357020093 
5.922833221993194 
7.353298637653029 
5.865031025366254 
6.750418820280564 
6.592779221297436 
18.30122099300078 
18.379221032684885 
18.41570024546237 
18.14258878169722 
20.113953010888654 
17.25339135166449 
17.31604556841077 
17.040848184251438 
14.852672962507603 
6.7630698727567635 
13.067603414690511 
18.91497334328677 
5.366408828448167 
15.205488226870864 
8.028996148183309 
14.766811175773245 
17.602518165284188 
5.4855945078075345 
3.923664524381305 
4.635221878456842 
6.061954779458449 
10.528482017587404 
11.200714901709397 
10.191238816981075 
11.161311343857422 
9.367511134946358 
5.036610912350266 
14.566888550645505 
22.41782722238113 
21.836621718369905 
22.787507178240702 
22.309618852856502 
26.14747462600243 
26.764789739580518 
25.871905305568927 
22.836622853554413 
17.358919457140043 
1.15127576238606 
1.4960350664465307 
1.786909052845857 
1.8441933202488825 
2.0058371514099447 
2.887450351570124 
1.2224708617803985 
1.6863849058400193 
0.9502108163836842 
2.6043807505416736 
3.9731134948897284 
12.826115039136297 
15.576779487237598 
9.617565444641137 
6.123467404148536 
4.236463160740207 
4.908842224304244 
17.34800880589989 
4.788711544823697 
4.023407315314105 
3.5143863244361486 
5.339879576989837 
2.9663627508924097 
6.892145387373801 
4.951318727924692 
7.308137140502376 
6.270234859420316 
5.615066315922903 
8.97686237930176 
6.931683246753529 
7.129488688362949 
4.683345405173949 
9.909094926432065 
10.960298698469899 
5.0162388556700614 
9.840371446953615 
5.924961573629357 
3.3321679431720006 
3.2942310627136364 
3.6224864687190466 
3.494575205767491 
3.316845768914478 
2.981022808091261 
27.21737846660218 
20.61260931364319 
26.588236451798203 
30.76484293988973 
27.21066321981986 
15.786257887878412 
4.242933279514099 
6.355439984563873 
6.866491176532371 
4.270567462126137 
6.076099822036967 
6.552591730393933 
3.928239120970789 
4.232274847061927 
5.678369932815969 
5.373406739526351 
5.026914274886823 
15.267324979271685 
23.079773724656636 
5.247150990300381 
10.46679509046035 
20.48213064275693 
15.302045576028183 
5.672771327840316 
11.091301569466081 
10.243297771579494 
12.44428893982089 
17.172041822157627 
14.126540408191783 
17.81910886395182 
12.63469991415453 
16.510149309315825 
16.30816673511161 
26.944149001003794 
30.10051651982278 
30.36937636606373 
26.42765195361492 
24.780295395118216 
16.768347063504134 
27.279935171733545 
21.433035371213958 
23.98845173942733 
25.02024878204709 
24.252941240850806 
24.075197894028847 
13.929996860967234 
31.09388095878194 
27.28797877561602 
27.849507528239442 
28.266975708800008 
18.848737232130038 
28.18578202275778 
18.564118847534786 
29.139631485962322 
6.607437361230327 
2.8345642869542216 
9.288559821317648 
6.12801589789165 
12.110138802871855 
7.050140079194943 
11.798395492372025 
9.040904706271657 
11.798668038828627 
9.900563496315925 
12.650083974915411 
6.655298182552504 
5.890330521434923 
6.726987902806718 
4.557170137421449 
5.856651093908591 
22.561733424724167 
16.74378536698949 
21.564310459163416 
16.75798415680724 
20.198975680926893 
2.9589333732881102 
3.1806119409931197 
1.1318946026026377 
1.176458909933378 
1.675659510485382 
1.7825762578425102 
1.2942160228653659 
0.8663512013995617 
2.302011455404335 
2.0108791291131713 
1.87315780441745 
2.1647589093241515 
20.05958127364174 
23.823793128988704 
16.092282011072143 
20.271981299775234 
20.837493647571637 
4.58660544175463 
2.5641218139331476 
4.8535244032647125 
20.459365618936943 
2.131047344119201 
1.8116938727798528 
2.281074557055712 
1.7771599104250992 
2.120461964783027 
1.9291312328923942 
14.39810713276946 
12.158876623102568 
21.65512422038534 
17.522751543494337 
4.203745088383652 
13.116517189361133 
9.282777725095015 
12.04677375739041 
25.13180683937392 
4.436065747890011 
6.532071977247606 
6.88027560194335 
9.974636190091212 
14.271584134587265 
2.8810135901713836 
20.606829114045887 
21.338169064173186 
22.022448411260672 
16.401119809202136 
25.379898988345033 
14.24521880819476 
21.428586773279264 
21.6394016876345 
12.173973996615143 
7.372326832756495 
8.0754863038113 
6.114663766285012 
7.1501733853709295 
5.392351428483639 
4.821580133787565 
4.091546017074623 
6.748120905482988 
4.87848059256257 
2.1158356382627077 
13.73492184107111 
9.261852635555927 
13.771543632600894 
6.0761698430847195 
10.129425543553825 
13.633742820636849 
6.282672503035979 
3.4265945512061484 
3.312127590198774 
3.238130699320422 
3.4687839546304406 
3.723941194551458 
4.284007609284401 
3.641666443271584 
3.2858062668679344 
3.4694776583491937 
2.8009367835075905 
3.3195463252059367 
3.417185151133852 
20.691640216117705 
3.090544328529452 
3.450573808386173 
2.670140170407364 
2.077098546803686 
3.2816437816411597 
2.0947179707955716 
25.358372663115986 
2.962908059837881 
2.2287640104099413 
1.8942389658134253 
14.80423017773679 
2.645593835222735 
26.422224370821105 
16.66618664432289 
6.888396992725341 
2.4733952237450536 
2.8518292349555194 
2.1384410801576967 
2.6222333559384325 
2.5134397158504274 
8.146997174983625 
2.569758624008545 
2.7133684854092768 
7.005874418084936 
3.1492830233197413 
3.3833195913517393 
3.10119044064064 
3.138395637834673 
2.21434834407835 
2.877844778087287 
3.3472261026501067 
8.455988300548823 
11.188830803802817 
12.67819124901959 
6.536415916955772 
8.72311885803683 
7.9668930250154295 
12.404181352625347 
11.207418922192037 
25.42018198318838 
8.737066327625065 
27.81797926244202 
18.064871394123454 
28.652421774255654 
14.793977734758942 
24.19239392409656 
31.439070217393393 
9.65663935724927 
9.71885640579741 
5.208493997980842 
9.53107739415125 
9.649541046361445 
7.7611909255962495 
11.408192318218266 
4.929122955280142 
2.6268283774590953 
1.1835480959060465 
1.7657550628494123 
1.8305397001004342 
3.1068920415204455 
11.270778712279936 
18.247991405561788 
11.116049586255386 
9.567937640606134 
13.63920923875643 
8.519663884129233 
16.08648974792781 
3.407979184972971 
12.115828989342251 
30.50854455834536 
21.575044477396858 
13.016591742975116 
13.114686577025862 
22.110860470067443 
13.396844872939262 
17.242380516011714 
27.098256771171457 
28.13731251024336 
6.612886550620741 
7.85918368645089 
7.344468630584844 
6.685219239154954 
6.412593394491901 
6.431962840029511 
4.991538570577877 
3.41612720426275 
3.665531989586856 
3.266367677300076 
3.4779264366683678 
3.3023329793565366 
3.6476795191822107 
3.073348410144739 
3.192948592297725 
3.1401787701553365 
3.508459631583445 
6.500261368675566 
2.516763516444853 
2.335006065030914 
19.69890077208377 
16.555366363314043 
14.277825532312825 
17.49718895746114 
16.960683033117824 
5.541235146956246 
10.610044863595405 
5.965541410727984 
13.848655679340295 
20.616843752581264 
4.256409173808391 
1.2056097572162379 
2.665276579327928 
3.378504179463984 
2.7330645950535573 
2.430895528193783 
3.458615078369857 
24.215863532747296 
23.644066693900648 
24.496608838115776 
24.34443370557441 
14.882909069627322 
18.660880222950148 
18.725308354946115 
16.065942599708123 
7.989980973021844 
16.335610909472347 
18.45351252768065 
3.6882213616369754 
4.289127341875071 
3.6873090778889894 
3.619598683320484 
3.533803567725209 
4.135767912626083 
16.76363819712779 
19.131784883636566 
15.15630250251866 
23.052568541332885 
19.956266055440334 
12.407505736029387 
4.949744643553928 
5.0507368094182645 
6.91037348243018 
4.967022808662835 
3.5167701917228453 
12.02276437054555 
4.074190229578792 
23.59270765791761 
21.694435505823368 
23.984142037117223 
23.29248103538787 
23.945348754826426 
8.013147640767288 
13.572003534772923 
13.643835198935696 
8.994310121884194 
9.126029397390674 
2.869329695252947 
2.631750888852118 
2.9491870472636323 
2.6840372771209147 
6.599824948059033 
5.993192579837591 
6.202467425600441 
6.278623491863502 
6.120512450915638 
3.073883546832905 
6.676445579190264 
5.997920999479622 
7.498384377793923 
5.170768489709823 
5.06305675136446 
5.2879348099457015 
6.146432755567645 
5.767944508924039 
4.28729599923283 
4.903854796518341 
17.613530438566006 
7.555154086896515 
8.519679088009985 
7.662317797805097 
8.56629631907628 
7.136228857401805 
9.68662592012623 
6.671901841110047 
18.90966529362933 
5.60726231342364 
10.196668759295777 
2.710627018621775 
4.967657936011542 
6.777143120688552 
12.36332394300492 
25.431691673098236 
25.679744909712277 
29.5215909064309 
25.52614023835332 
7.466615249960076 
31.06066556870244 
1.027826912786036 
1.8693157755838241 
1.112982652096277 
2.3522761288082887 
2.695718138022367 
1.4728618408165275 
5.964675046123806 
10.776583763864723 
3.0246910165621026 
11.509021765498204 
7.371470779087729 
26.885558868532403 
7.4400323166163345 
12.463464660221982 
13.939824004151573 
24.20862276677721 
17.676094890098543 
12.324745747444034 
13.362130852647123 
14.147304529248299 
6.962203551919341 
5.937860977570286 
5.798869414639759 
8.092279538554171 
5.310200109388842 
8.433000769526725 
5.525026754288935 
7.262468551989614 
21.292181454819943 
17.022189919648767 
21.175708886077853 
21.119295165625285 
24.601815015462265 
9.109812761365612 
8.323149764953492 
8.445909411102619 
8.274341780780597 
11.383104477365213 
9.158018921466205 
12.467521113085555 
13.286957705994647 
14.03746340032557 
5.8241400010348165 
12.215157974366122 
11.374672919812657 
9.248974502393546 
9.70316511167699 
8.580991666688025 
9.15528272567278 
7.495217891797648 
19.431690942872066 
13.608740891613662 
16.866459496063126 
14.481711570432031 
13.993127709673141 
17.45140209284055 
17.252378487894127 
32.36093255975189 
25.230037359966794 
17.71125560351035 
27.399157178852125 
13.381659745281327 
18.505056471412402 
27.154027532691856 
27.551011422033753 
3.4933622678949883 
22.813741000402356 
19.27533354655689 
4.333163958640122 
3.6456468685217227 
4.607738571047128 
3.3834712232936535 
3.3135366186183774 
4.046736904810842 
3.1912707642823706 
4.33742060463943 
11.097129884088412 
10.03024461839204 
23.69011658632468 
15.468162742366127 
10.142316979747113 
20.260234676181266 
20.84520696279324 
24.115462617274943 
13.847223408918353 
16.72847343450969 
25.87341611212481 
32.16131040841474 
28.158177655858275 
23.26272674556915 
31.77132465015962 
28.631702476723863 
23.393947205147303 
9.924538471684857 
9.655656405504681 
7.419228063485363 
26.99416369296831 
16.75717843831469 
27.89358987371934 
16.745741990115835 
24.761863215254063 
29.049858468197943 
9.4457877962297 
28.68932310707161 
10.142149802192028 
9.196404347530896 
9.365092792503846 
10.987765033927081 
10.785904310573745 
9.558112881758436 
2.248335519372463 
3.425141255226839 
2.2825147747171166 
3.1114235134318693 
3.196322936861374 
2.671989565171889 
3.1149213319383433 
2.242530743351369 
3.635924033393529 
16.35344877223554 
20.315579891299876 
19.44820212261997 
22.473243931301425 
20.29433555160348 
18.011294717986594 
20.471799126907648 
18.292299959588615 
25.98121381531032 
26.834479777177176 
15.363845777552157 
14.761590902231234 
12.02619712530984 
28.559419811177705 
27.77587127478696 
18.04872137198505 
14.752738840116454 
11.701047193252375 
12.81191718063297 
5.302206347998636 
8.774651218124443 
4.955685803484656 
9.499422454581675 
10.897605599821432 
4.521096044252046 
28.65355806337273 
11.918948926628506 
9.375962891316492 
4.880523237558417 
4.40540721694149 
3.723839549053314 
5.146943822992636 
3.812785832258422 
15.139421834687251 
10.426881122003884 
10.98381944796358 
14.164502065495839 
10.680252443606262 
15.4772665202086 
9.37329258766613 
13.343285534521206 
16.633294311739387 
12.613849683171164 
16.98470137952094 
10.641839852697599 
17.095391028548175 
12.360625075090327 
2.995385046741514 
3.539913227770954 
3.1304396631366047 
2.386099692039838 
2.1114171516311067 
3.0542488114440776 
2.9088869280024396 
2.210844527489595 
4.437628122565915 
3.0029440997169465 
3.0833250685571736 
2.4416193617305484 
3.1180168845808116 
3.026273779227988 
4.315753515929328 
3.04488851710792 
18.43165384468229 
19.998195418104267 
23.983624531719972 
19.58026477382123 
24.33701090628479 
6.7716941158658654 
8.317473925518277 
7.918644325810581 
6.259951733499568 
4.904127387185257 
7.709214344324884 
3.762704300244241 
8.364409483086162 
24.489261449115045 
14.59286017246381 
17.583642313473124 
24.884678702903496 
25.4873251607672 
9.620755968320575 
15.521872520004996 
27.24472365346041 
7.3602292471858926 
7.914772608116643 
8.003380622562663 
10.2780986831014 
12.095611695852984 
27.040589059523665 
15.32470349667771 
20.29384757062517 
19.0089684440018 
19.136433659141247 
18.68202327078271 
16.966173469784945 
26.56535869556814 
27.041165931092113 
19.790009672691163 
24.364848899265166 
24.765713810023048 
22.543956290052765 
18.633716848742004 
16.681497636486448 
6.452074494463164 
8.227229167230286 
4.060334202418208 
5.601321757025624 
7.624332484819151 
4.698059214226314 
6.207628226718439 
27.1808496980729 
19.58734866194222 
16.147202161943365 
13.300750425219569 
16.106473216060923 
12.660492571984582 
15.971564114012805 
12.524028221910909 
2.1843161601860626 
2.688721952614358 
2.290638472439742 
1.3765226306629952 
2.0383010402664503 
24.221596681847547 
28.75139817349119 
25.315323395541213 
19.74808102486073 
30.609860053018885 
26.25727187157307 
25.653922013994542 
21.389059737103292 
1.1272089948908046 
1.8088459484544026 
1.899603815282259 
1.8833175196876193 
1.8385303959221087 
1.779674819653245 
17.097528168950582 
14.726740868879713 
14.791362514673928 
18.183651096926425 
15.001349567694124 
14.804411885149397 
1.6464696744136158 
3.0365863706283527 
2.4617841462582235 
2.977423139532926 
1.5559166143817436 
2.9821010598183366 
2.0475448306341733 
2.0069783533018524 
1.7467254049150325 
2.5402234588406443 
1.7614483989890521 
2.061286315141053 
1.8518109117429542 
0.8428093025717108 
1.8223912680704502 
2.443742936720732 
2.8685311102089166 
27.495994386040284 
30.71559177724046 
28.414737261362816 
27.124830945855788 
24.721549199899854 
9.157627996361514 
27.23360708367954 
28.57549818722036 
26.48942213341535 
24.033088058088293 
19.73608631076365 
18.392176947353292 
14.535241678943805 
23.61114524963154 
13.806100491367475 
13.539638978765979 
8.779671056390185 
9.310050540697066 
10.998622565307466 
4.957925705047492 
5.561681546835124 
6.007575720818813 
5.804861624039996 
6.92320425033069 
5.134247262276411 
4.71413733187937 
7.836229488883668 
6.791913298019706 
9.055603978717754 
9.73372791539139 
9.913579352115011 
8.003461857047615 
20.15989370792692 
24.143225453554596 
25.79982966796556 
12.428974994584228 
12.32209590667562 
1.7532583048031585 
3.9251733840485494 
4.373436969119887 
3.3017185726239697 
10.269606275637395 
23.4448862250638 
1.195615387895452 
6.612441091571509 
21.352156605335146 
12.952111163698635 
22.074455870928958 
14.44173450036455 
21.894003175425926 
11.81496824804927 
15.291801358583907 
16.57781920819906 
13.759708651172376 
16.693367653175912 
15.791658015605964 
16.483830692823403 
15.898539572301486 
1.470053303596308 
4.268397325748227 
3.998927205150606 
4.763809037073818 
4.470372888341545 
3.491344243796314 
3.701545307499654 
6.912240253013353 
14.617582388682985 
5.503886580780229 
7.122604747967866 
8.305730315469965 
6.843465203186445 
5.2327190719959695 
7.296762203935256 
25.637806382109577 
11.8565687129913 
10.842022654287204 
2.136832771177295 
11.170603866437776 
10.780533615037058 
25.52295041266996 
21.703194939579102 
23.478911407801675 
25.02333690142607 
4.228393962783506 
14.827731231095601 
29.260386466333312 
26.11742304392094 
3.767225392736108 
5.002741204811008 
3.707814054640928 
5.19146929021322 
4.837886379698073 
5.302715504285547 
5.981321123757466 
12.862183077308558 
26.237236398629715 
27.2599498699255 
27.492724605256097 
27.832325807334378 
5.936066385332213 
6.845422570987259 
6.6288155759065575 
6.280180293935927 
6.707136714606074 
6.897286474526272 
5.818642990985296 
18.19539258450411 
14.943021477983846 
17.592597812382447 
20.60125934325959 
15.35835066586035 
24.29735192867495 
20.729842327346717 
14.776151613865064 
15.502407515324936 
11.578813958350898 
16.72012716730727 
21.867954465557098 
21.887557217002808 
22.403667716596964 
25.67723831560577 
21.674589830904957 
17.128079447195443 
16.878920418640917 
13.009220482998005 
15.163354475557856 
11.699572344452594 
20.63051824715635 
23.926538758778744 
25.06839688393767 
20.074042221536534 
17.768587363739638 
21.060810177325862 
24.89453966740736 
25.665380130153032 
25.508340744059705 
24.619490400646068 
25.67057190287764 
3.057726212004517 
2.8736980340678366 
2.362780996271312 
2.359316116777201 
2.2657230859243542 
6.831497513578615 
7.534118294767675 
5.343864526285128 
8.123175931056897 
6.70802006946299 
5.030466645300712 
5.6609377180250515 
5.5197345297610765 
5.43999817933544 
8.12434458521472 
6.390849896450434 
11.240844574041166 
6.788231454059004 
7.465389527633082 
8.51115354769925 
8.379476503188398 
16.74028320827685 
17.093105132206585 
19.344690149363622 
17.466715912399433 
2.132883327568551 
13.649579632094413 
7.269480573278714 
17.172773686944623 
3.0410968862621415 
2.873869355907526 
2.8927280109101368 
3.401736422312371 
2.5995179839107307 
3.345518480497167 
3.603683709648447 
20.842056623159433 
27.823086833912715 
29.16959663106623 
18.624843320417153 
25.935264048741146 
12.80233914176712 
18.881946159860206 
8.320663370272278 
5.951143702433705 
7.692620485007328 
8.89117876187682 
12.890148486859362 
8.319079005376711 
19.93831275222219 
18.55835365206273 
11.280890840934228 
26.739962076662618 
6.245013273566725 
11.482294809112695 
3.169749758718544 
10.797894051455673 
14.527911035242242 
17.990620407440144 
14.00471986270616 
11.151789321271615 
16.24945708952194 
17.302424595567203 
12.65700400970701 
16.446159867260082 
10.925946598771734 
15.733087450770192 
9.808969513007053 
8.962067813058654 
9.213711212357497 
9.651123743146979 
8.92259873210844 
8.91899875073243 
8.100756354972091 
9.889930840929772 
10.789599913575442 
10.948703396616295 
10.6885791618054 
11.6233944188362 
13.470640728108071 
11.870542803358152 
11.362149244573017 
7.795222367881296 
11.625687654928704 
6.0597347564755015 
9.81694099736868 
11.636298410972833 
9.621050456901367 
18.432597806412215 
18.87753093339923 
31.2215927497948 
27.513995117766182 
19.411692673569643 
20.122891161173957 
20.902313197921018 
25.43422065971473 
25.243938212593946 
25.029627495811212 
17.82711743323034 
26.853823239699853 
11.693404683132027 
15.308029224458807 
16.37501416214161 
4.468266739658039 
21.786680367343063 
25.625411740075393 
26.043581035839242 
15.283200333004315 
14.227453816079102 
25.424372673483653 
28.805595656006005 
12.573975330257468 
13.584451338512773 
15.711165182429898 
15.441391274422452 
26.30973194276054 
13.622567133962425 
13.630724176815495 
16.68204891402705 
17.32186401270757 
14.475567643674314 
2.393849163220521 
2.5433629585023567 
2.6701371251433303 
1.8610956217903052 
2.4501182456711215 
1.3107579502099302 
3.24138891330322 
13.963025685690766 
14.0324235634221 
11.751705297718889 
20.31628759888308 
14.709463070731472 
13.509736464389437 
13.481873996190965 
20.76693515948654 
21.808461183741002 
10.43535524312298 
9.728049985801915 
10.362491795206076 
10.373697228739816 
11.749544003010609 
10.727123995085977 
8.778575604254033 
7.1215681006488 
3.9827557800044993 
14.718339739742207 
6.5048559927935985 
8.032747145664503 
9.653049904405377 
12.350946907174524 
16.819187177060698 
9.129292652924223 
11.776415540539471 
15.988909123292949 
21.473735546036654 
21.911161130709363 
14.083383719342683 
21.002702756522396 
22.343007979941067 
20.721957896862786 
19.247859704877232 
21.74080829377658 
15.335335757548172 
22.172153212398776 
16.187347901292704 
3.165300920580192 
3.897272599677055 
4.594888654731938 
3.6669292138768377 
4.14375258500369 
3.8361097447067705 
27.258818864357007 
20.835848864944914 
22.81070230716257 
28.161186464094172 
20.974343219043927 
25.4293893307716 
21.54466000986233 
26.073826557156902 
11.491774135722224 
21.13540567224524 
13.590158194466186 
17.841236568495052 
16.961556254633887 
1.9441350507885904 
1.6438742788774852 
1.4064175745777066 
2.0806911603896685 
1.8890130074797853 
2.1023858841524783 
17.71692670379108 
18.17478933768913 
17.013078636874322 
18.08475270344628 
18.359213703517696 
26.271014163240263 
22.974294223946835 
19.69961303118697 
11.224781782598006 
21.51824125400014 
12.310750987717885 
11.511508828528065 
9.32586781916435 
2.4065632244211157 
2.5195965569079983 
3.066701094524531 
14.86852754036894 
17.1905259539634 
17.626435245785032 
12.794975172614233 
12.815213107348809 
12.992602590543841 
3.2127786957845794 
2.247544855179542 
2.3786941728714392 
2.1522151942290653 
1.854461306312186 
1.9787817510922008 
2.7063771241966217 
2.7816901904515188 
5.914619749506179 
3.943955393698101 
9.109544491941614 
12.01071780607064 
14.978609132905449 
4.804680771057929 
3.3247913555343436 
26.636061148491123 
25.64221557080649 
25.911078358958903 
26.277660218918147 
26.330644508478137 
14.155076828706832 
9.978804268504945 
13.554565264435094 
13.850232383853466 
11.140898716516318 
13.657132697926512 
13.239591950840392 
16.150339894007278 
16.263457153374716 
13.928056856803371 
15.844062700495817 
15.300166633306258 
14.97928008213744 
25.533060527341625 
22.763599947103756 
21.9554880682942 
25.286778353253204 
14.418689341189836 
22.295267302050373 
1.2106120599286714 
1.2783582305177819 
2.1236973132742842 
1.937006146008538 
1.5746130102780254 
1.6476896036221553 
2.563551566497651 
2.210759414350334 
2.739686463668797 
3.4982338087841396 
3.2701639590428773 
7.082526354733994 
20.388485246697226 
20.141413328270374 
24.32160699336784 
16.379425922577642 
19.541713350974618 
15.60265033704148 
20.135380624573436 
16.63711789507191 
20.084217335947343 
19.906793177780738 
10.479570999707853 
18.030900527433374 
15.706141951187952 
15.041898025472754 
14.977032317924529 
15.002858206582447 
4.8633502885404924 
9.099493448411861 
10.12567695962231 
7.020176225679803 
7.799297899597868 
17.6166941931079 
11.140919994848913 
5.369053654496904 
4.504766917075024 
2.1566555711995106 
11.442030818941399 
2.781422551982937 
27.34329723162305 
24.772119469289592 
17.61839589711112 
16.8945135939487 
28.440933036608186 
17.567904932712075 
29.43054200188533 
23.073391437168887 
21.193394348379268 
16.00551266599511 
20.472174011154973 
16.28672251220377 
15.582900283879816 
17.702842667790883 
25.811321279020728 
22.079247631693466 
20.601204911373728 
24.050349557699576 
27.949578391573176 
19.776953448867523 
25.12575777005893 
8.575676223598556 
13.621721201882641 
12.466003752748955 
5.733235218238374 
6.23242644775497 
12.282748074102718 
16.88707716217188 
12.07219342942214 
11.741551004616044 
12.361871923462102 
20.415552731147642 
3.9630151260099726 
12.172042219363776 
14.15552073376615 
26.71902043755335 
7.755668070061531 
22.302385167094318 
9.292213897728848 
8.868827875812697 
7.35164824175584 
6.418127439051838 
23.82797038661392 
20.851254848977046 
15.541464718198508 
24.14398363975845 
23.582911606003805 
23.569784930651494 
20.38166220963909 
23.20418823368241 
27.40477388401185 
11.95484278413513 
10.517368424478835 
10.953285373650804 
9.195392589856299 
10.009481143451973 
3.3969711013351676 
2.0750334914407125 
3.325430822891782 
1.5307456461455964 
2.6447909184429266 
3.20310062397055 
25.071985750496673 
24.74332168206753 
24.24477012478725 
25.030529069528292 
25.18593975259923 
8.87573655112131 
7.803081501106619 
9.610497689112076 
8.185125058141349 
4.960101160964534 
5.996669814941322 
4.256174009125342 
5.034790501600485 
4.441170798767787 
5.069233172754064 
18.78482271652872 
25.42484362693773 
28.1163984950338 
12.087771188625544 
20.098603610763437 
19.48709795889432 
24.647048118700308 
26.6615325949863 
25.100611384715876 
21.57629032096744 
25.386915877045748 
15.615751515532695 
21.31245352607904 
23.16548516837245 
10.787732441967119 
28.702226769459433 
27.80320053949717 
12.275322850735801 
13.155478205085693 
10.922467118199343 
13.318810529639459 
12.990783607354784 
8.869339893049176 
13.00472250284704 
10.56830483054434 
5.787914010347187 
3.209324296743981 
6.489767660719112 
13.373290295929317 
12.967948132891946 
13.688021874427193 
19.779284699413587 
16.354652996586296 
26.917047107207708 
23.772389095223843 
23.887924475637014 
23.579424472259575 
23.00166350725517 
20.204221886303426 
24.17730067503263 
15.698349026411481 
20.24302254608306 
20.6984041442894 
18.454557609709795 
21.109726658539238 
10.386274773042862 
8.181784013919634 
7.295324501766024 
9.719757622863211 
10.506002174222447 
9.109884751109288 
9.661958629601182 
12.620718140825758 
14.104929892683653 
9.423327781214601 
11.188583526917945 
10.38000708794332 
10.288516993989818 
3.841172715628861 
4.069526268793891 
2.9986332057472382 
4.140766742275686 
3.9739266877634627 
2.9555118059124075 
5.658283820704727 
9.098324002282776 
7.926450509459795 
9.714806140229719 
9.075424841753552 
19.258944022227823 
17.06828900085008 
19.532844462928896 
19.61082180141735 
14.011679150691077 
15.681161061406206 
19.45418301162467 
13.281832456047724 
10.721964727349327 
4.527169131583094 
3.0798452918627235 
3.2493498969433805 
3.0562291877732153 
2.8536899698845968 
3.287651986028955 
19.24535723504645 
23.65011249762519 
18.69300372200497 
14.175879969903567 
18.998140258346382 
22.406931922997078 
6.877191005888135 
6.210379637361993 
11.66536201330683 
12.417226017600912 
4.982706326840676 
9.377136175432916 
8.852706470077816 
11.667212243612704 
23.903318013885112 
14.69727901698955 
5.964286497243224 
6.278881575945155 
8.718292756560889 
4.715314344391102 
5.312977661865496 
5.020880597959681 
6.956142506492809 
8.081858215298826 
8.071983621800221 
8.608679169360371 
8.566018802477432 
7.957161498029809 
8.032528862181312 
7.95384880339483 
8.264782544169089 
25.625568818760758 
21.521558220778207 
27.90789961224564 
29.522260559668688 
25.14161976999084 
26.303481452043698 
19.793320171342266 
7.440066196112631 
6.779401162964552 
7.604574142862838 
8.779885880669157 
7.45790587031405 
2.3135260395591106 
3.727857582775131 
2.2926568516965182 
2.5238769554755733 
2.1788153495153764 
2.202973084188539 
2.6757831799699945 
1.8513360145819049 
19.51690234718293 
17.222380633854545 
15.281182987619673 
17.159614254253775 
4.375926084985047 
9.29424044570812 
17.38219232938694 
18.461406728023643 
6.2991409134239555 
3.5762443928364487 
3.3439937895468477 
10.760582733399488 
9.786407847476715 
11.791410143669204 
8.870341130903729 
10.075606114592807 
8.128253003546188 
7.895152726621925 
8.779778070848248 
8.41182315413053 
8.266033195955528 
8.872181758678964 
6.653696982838707 
8.989216982250504 
13.873486729528993 
6.888818642419794 
26.001531428569457 
30.05879940253072 
21.080602851704654 
26.315374699892185 
26.12991127033616 
25.974073504945935 
26.242589835398153 
25.732542258816036 
30.010778864333076 
20.4287081276129 
19.047140657428372 
8.994555002233525 
20.28323806685806 
2.1051876722612723 
2.5219267300186092 
2.481465765549567 
2.019968158093862 
2.255033842746845 
2.2705387184811663 
2.8605666508729297 
2.314695551083322 
2.5733834367020783 
2.376202348439928 
1.7471901920123536 
1.9258986497052173 
1.7850965435934831 
1.900021389989876 
4.877876874712674 
5.412817597363168 
5.259574886578545 
4.090527692698257 
5.861282674537469 
4.801799862998231 
5.157247494833402 
2.6784705615469067 
2.7819761918585426 
2.8823163183956444 
1.357425325793831 
2.4695419550577826 
17.807027274052412 
17.452046513937884 
14.825078538790923 
17.002038602846184 
14.388592486373811 
14.147481163854453 
15.84821386698224 
12.644215502872823 
16.435027334166925 
16.68258171053754 
4.108327595296543 
3.7756195674340463 
3.638823361143897 
3.2993026566583334 
3.8957792894029666 
4.043324831158982 
9.84082326835978 
7.3910482908277775 
9.768602598568709 
9.276714459283324 
10.6794369493872 
20.585778648699794 
21.4596135357393 
26.609162014316244 
22.058682600679326 
26.4735183816421 
21.486117665643903 
27.578167533994666 
13.21608891619007 
24.287972032516045 
25.617921570349353 
20.634268283751325 
13.585673441150078 
15.039480485724644 
14.638750440667753 
14.006089453335218 
15.96000929967309 
12.89505376387133 
11.23645356237756 
17.381006655199375 
17.818362604162253 
17.011655533124458 
20.505326166169198 
16.801254200945227 
11.287164722694776 
14.325980352388708 
10.140653889682829 
9.69319691184041 
17.09030703751085 
16.553066025946457 
9.31161376244723 
20.38274953805078 
11.246371522273472 
14.577722761230675 
17.14269263702365 
17.429618874651666 
17.397875942197825 
17.22876368822214 
16.545132460170283 
22.226401852986307 
22.94467594355219 
18.518203734783828 
26.455299327321978 
18.853455124388486 
22.321313306608253 
22.033810388210444 
22.230605429116558 
2.659484934177155 
2.615844596862701 
2.062668768335177 
2.0361787408429834 
27.642114970298188 
27.61913034204744 
22.87301160196694 
18.62040406983464 
17.491375455251585 
30.630789481414006 
27.91706321766513 
27.090427636169018 
17.2751147210289 
24.267242173286384 
12.555918120742925 
24.13481805685385 
26.11529657058162 
26.211081179363866 
27.327357007281712 
21.578445495770897 
27.455440328662977 
15.09548522217819 
22.98257269885947 
11.514417888592998 
24.57218431840093 
14.26622382177043 
15.604232714466972 
8.99798280236711 
22.87153018938494 
15.32369294881812 
23.88697212842907 
18.282414158382476 
16.33059351465729 
16.80643785567432 
16.946066644684656 
16.486765367792977 
19.38263227092206 
20.228426751305353 
16.413028568035582 
5.250372432396431 
4.725509172579213 
5.448250829691715 
4.367791837752161 
4.72300950038654 
4.330407153593305 
5.313847816546626 
4.330190546468504 
5.313249625601195 
5.380791207827401 
4.489887744459787 
3.802624387111677 
5.678075557269015 
3.6049513001269475 
4.551482826094435 
5.828464446936381 
12.148657657253935 
14.843147358992793 
12.437633820200261 
10.51992940134619 
11.860717974505604 
10.82663489943806 
16.535333185036002 
19.09100554979794 
27.688585004335977 
29.123194182553377 
28.537548428422603 
21.371677664908702 
27.681772263169517 
28.812686777626194 
30.918586604034317 
25.29159983233439 
27.011516961732628 
6.395967376789526 
4.281998354739529 
5.036369841879065 
8.501046196997239 
6.3764657873221555 
6.517912917366504 
7.312604947986882 
8.011406606610606 
6.087898158553591 
6.789637439371969 
6.507551095431279 
6.0591120558076215 
6.725216189540371 
3.418210698685045 
3.3325487515102994 
2.9315664077503465 
3.653711694085869 
3.863816228712877 
10.534943701686903 
12.338046923611214 
8.912072426170543 
12.341235143497302 
10.38454976386718 
9.988847860639522 
9.954882975203786 
9.990478983547233 
3.8720903867933303 
3.6958170214276276 
3.8946378285642753 
3.693326233579677 
3.225228563312882 
2.868462382161325 
2.249142652951879 
3.424027537873705 
3.18905818502988 
16.314620769329167 
17.17059678044947 
13.219658497347712 
20.561677610414456 
15.85957806018214 
10.344059892945882 
9.86379219978247 
6.350791202946217 
9.812557379976987 
10.469085517659462 
3.0460387634925388 
3.607737075081325 
2.737414475400925 
2.9761797932087815 
3.207003991631042 
3.35698314456789 
3.151695686702331 
3.261183894388945 
3.208781355323461 
3.6029145674565424 
3.6273222119087447 
3.487940057591622 
3.382776791787765 
3.050094359628105 
3.252792416401712 
3.02566965491984 
3.572604252750956 
3.2002620639228225 
3.3082973216609655 
1.4235380815497791 
2.9424101821928588 
1.813392025648258 
5.496151619621756 
1.6151670309262713 
2.6027647575559363 
1.803934666726526 
1.972669350309849 
1.9563430040224774 
12.221080069754185 
10.94930299200886 
18.142749829982762 
12.7844155482985 
25.451557886112667 
16.442605108902 
25.321739713744837 
1.6067455922400609 
11.141106124763176 
1.6242048554990798 
2.1821835247511165 
2.930205333824042 
3.0112341177231206 
2.6972062338101424 
2.271160409721255 
2.2702396981875856 
7.406054406540718 
8.881284539572038 
4.889961588102706 
4.510624856485681 
4.24810272619576 
8.389716549532684 
8.926542191439339 
7.493064351991385 
7.9403115442757874 
9.685576768535492 
14.299835886203912 
4.577997501338937 
20.938196110990205 
8.321617827726978 
12.969130970917892 
10.59340084382857 
21.028896431652267 
11.633637729312573 
3.793865210881229 
20.865207768474217 
22.24076477313023 
11.47837186936003 
2.4563139151973776 
1.2634927338426654 
1.6659210144733583 
2.368120450015459 
2.1429961606162578 
1.7054381392220712 
1.89096870782272 
1.752683936126314 
2.207757594039735 
3.842342123821069 
4.491291897596622 
3.8738198863498217 
4.659446462108516 
3.576169777993135 
3.5007642594023793 
2.9949645000111227 
25.2176813689205 
24.296205884173112 
19.8900742467851 
16.714913226462 
3.314302579063233 
2.9642054203769885 
3.3040191796412723 
3.743558048541423 
26.327529838234902 
27.816637941551488 
14.147325792586853 
8.011419218783303 
4.178421788651295 
28.015960854793406 
12.631038434135919 
30.90951229789182 
28.625963733664378 
20.03181792710817 
16.488003083078357 
20.859737402879595 
12.363305410602493 
7.904115591459419 
7.982182295947254 
6.855104109900632 
7.200383305912782 
7.943286108670469 
3.1116385816817353 
7.518455519560783 
8.12406637873417 
9.262477523015162 
8.505192950912862 
6.454340891361172 
6.080238850400283 
6.966013736045326 
10.320258029679353 
10.319921466674066 
6.092817071390063 
7.004010124206094 
7.1537354972829466 
10.078474199461638 
8.005370605581332 
7.609147085694312 
11.457577538655684 
10.239693470050911 
7.289410738796525 
10.888447911373323 
4.12804688567169 
7.429974763164524 
6.861679234204038 
7.8064433744183415 
8.445700094017095 
6.476058448436148 
6.555144293157912 
14.723739397790501 
24.405366257986387 
15.56936306847852 
13.785757858828255 
11.405830216581764 
12.694994908538092 
10.52843554311378 
10.194939652257661 
8.440013629549776 
11.902652751692665 
5.25038029903047 
12.167202286526978 
12.360121468613247 
12.703809958695823 
14.275428938953725 
10.806455257944176 
10.688750367412622 
21.174312756205413 
14.346370506607972 
26.940568978313255 
8.37217641907285 
9.322138842327604 
8.91541394837514 
10.680071823366676 
9.5714716281695 
11.387876536802025 
7.233762020455438 
8.009425114647575 
3.271973092846857 
3.9839384346749753 
3.3195529937149773 
3.5788895468087083 
3.6585208616922857 
3.5492914192771354 
3.654990299264991 
3.3150837549353347 
3.674507939022947 
25.699875669838477 
23.227787319278267 
22.997713958266623 
22.635994053963785 
22.70875902154984 
3.8980296685595857 
4.553526902069667 
3.5329688013093157 
3.9418366188110405 
4.25890497964731 
3.5630585579271914 
5.090064168859835 
21.962501289359466 
15.182353487066832 
20.706821798679037 
8.224338404544103 
14.540663181340339 
20.97705287026616 
27.01101808866211 
1.3919296278993551 
1.7435096806691106 
4.947894805455129 
2.09448751086551 
1.8506794451977024 
1.6576927618029615 
2.9113010595270765 
0.7721566828485675 
4.81360975133348 
4.329336094174525 
5.227870411695683 
4.636956813699958 
5.296598691038816 
3.840097853922803 
4.702063591581889 
3.618977617630681 
7.339922896640012 
9.292827741501688 
9.309189889046147 
12.044231453779242 
24.06325309124599 
24.580263755825097 
14.62037682518914 
22.03544179080694 
28.179471826998853 
24.980238752521718 
15.141913974289603 
17.649087823941137 
14.514602413327301 
12.244087101829212 
9.469255008964177 
4.734511831929567 
3.8619843575208823 
4.678120836031987 
5.453765351255985 
4.8128676080820005 
4.4614724839790805 
4.972430988828668 
5.381738921825972 
5.622508817214674 
6.275044663633691 
5.640583692367695 
5.539715322715795 
5.274291919584007 
5.6191848340970285 
5.92421346692897 
5.930807011226485 
3.642923381845632 
5.895282500431638 
4.933180314346878 
6.567731368693936 
10.09934162682626 
9.865057460159385 
9.829673793493319 
9.968584111194923 
12.874238799840516 
12.724265350938376 
12.892206209615116 
14.752278582925035 
14.666290329093021 
15.704223460917268 
1.7201639609827 
2.1712391766918078 
2.4663819942257854 
1.2928416701724594 
2.188976035048122 
1.27528068225608 
1.7361557897704152 
1.241300979523111 
1.7721937077565286 
4.000968369072445 
3.7758753748579026 
4.095537864583414 
4.116659373533371 
3.686137217633422 
3.4766918963888243 
8.525367145574416 
4.838062411180985 
4.727963574584734 
14.833787853330334 
13.008490578758897 
12.623259160909157 
20.11805661400324 
3.8483712933192478 
3.8089735307063792 
3.541178790783257 
3.197854493690412 
4.056319305418566 
17.782855677465882 
19.973028864353743 
14.600813403698057 
17.695424764420316 
25.518683245551316 
15.055672446208941 
26.992313984229792 
27.78054769328201 
18.56448773014868 
18.833106189419514 
22.731276697887154 
22.711206423457252 
28.14476454913654 
25.510805067095106 
27.434575353453113 
3.9620271963200118 
22.132901060628292 
27.64095641311154 
18.081056931691645 
26.841526306736007 
30.458481748272167 
18.393472920670014 
27.01022330545302 
31.41467343624749 
27.499521358487023 
1.3892197581214358 
2.042983155166223 
2.1820234720465677 
1.7666159996475839 
1.5363897073690949 
2.0126419818169996 
1.8166051833235037 
1.3703394487232101 
1.9460235026808033 
1.594099120894955 
1.8233879253098213 
1.7707162344854983 
1.1617279245908785 
1.9500054002717517 
1.9018583267166143 
2.7872567453303447 
2.6746853771251895 
2.9462124046486915 
3.160322423135286 
2.2172084165477144 
2.0726737014689585 
2.7380719726927447 
3.888519298436895 
9.155367665654172 
10.947007096247859 
8.293523865448329 
10.732809914706078 
23.210053086523576 
22.954672729637917 
22.754873460942218 
22.184777426320643 
22.586916450864873 
28.17255355461464 
26.70635671589776 
13.2987487544973 
22.654680174274283 
22.506619981055877 
19.166163048690603 
12.855651685862052 
17.65822612797669 
17.43887234521767 
27.256791992795858 
18.265588941102575 
23.634260511378503 
26.904585990928926 
17.710896942018774 
15.663259769663831 
16.884734347349635 
19.12230287101337 
3.7364138902273893 
12.179468123602303 
17.11462690461712 
17.71790614859643 
19.354400171813797 
21.892741118189658 
4.011106990255851 
21.41873949720101 
17.130414219058608 
15.613431105875218 
25.24049305795402 
20.473415201866022 
7.131090558713621 
2.02435827037961 
11.60320596774639 
15.81618654988426 
3.696823154538449 
12.074039705235428 
15.129635755478558 
16.37648006326011 
15.34948131693637 
12.072895284827794 
11.18044603042437 
11.385000409118815 
10.627478187530738 
10.694924960069185 
8.030871106467433 
25.43671191952682 
16.82599174876464 
29.947569108397847 
20.88985768856491 
10.382416260885421 
25.78099566425167 
25.61970866961542 
16.852537223376338 
26.481296217145463 
23.109331062111167 
24.928232967562405 
30.242230742306536 
18.104012532369858 
17.311296219788076 
16.576261164318616 
21.764513832092792 
12.700763193317002 
11.585120038332668 
10.716062843257152 
13.911878410637325 
11.671053231076904 
16.480035005663037 
14.726241537298883 
9.427454204650505 
7.472976796580979 
7.441656835399307 
9.641436743270905 
21.12994139735142 
22.074239045122134 
26.569158253065225 
22.026073104898686 
26.995451379200876 
27.276173373705756 
25.45315123106465 
22.471486530530186 
21.487834152724044 
26.657338932385073 
26.751229604569264 
17.357596385587403 
19.96655298466552 
21.308293845531246 
17.953329075000948 
20.3233477311715 
23.574011913304368 
20.153044343400467 
17.58435777277902 
8.732125554234067 
5.106207625997192 
8.569507021611898 
21.999544085194724 
21.66305296132962 
17.73727570330949 
22.029033091960983 
22.416812497288 
20.620434206413215 
21.327883290625294 
21.643276919989397 
19.921610848742482 
28.433126783492217 
19.734536609330668 
27.856855000778282 
18.63507189255226 
2.670767089822612 
11.643179150823235 
15.446540344107452 
3.9467443564003615 
13.256771780858887 
16.077560748735443 
9.374215917629927 
13.377820642853305 
15.829014905352256 
15.614189213287839 
15.90791840522386 
14.574438562157374 
20.912333722664044 
20.856621806010097 
20.694260195283203 
23.956054965825942 
31.68946939863819 
26.42277572064775 
27.47628475823113 
4.462243590184427 
12.34631952034057 
3.1807325167778124 
23.884537663309978 
15.601107884963529 
24.799028438112792 
22.96634666671127 
20.614635173634685 
27.898834595211255 
24.20931957713308 
19.136414263599868 
20.350097600895115 
17.82433349172004 
21.02136161665859 
13.978119320852844 
3.673730350031329 
18.767184245113118 
21.97707646911689 
19.369216388225116 
16.120971561905495 
12.39091462348231 
22.499385189782082 
18.63654136851805 
21.249956357404045 
5.205913395696796 
21.878662807936745 
12.85591856313768 
16.014897316412885 
16.783754590072014 
16.597240408181758 
19.32546733724586 
19.99967907428103 
13.593011164586088 
18.088067466595007 
18.48086236488887 
18.259905237449267 
18.501053484467768 
18.938853590685262 
18.20238509293198 
20.066569995924777 
6.783203133569693 
13.07536441628257 
19.75296265177475 
13.048848841162927 
5.452350287345471 
5.404191255768765 
5.29819681625771 
4.951329390503316 
6.636237348348348 
5.0317072813101555 
5.513546510063601 
3.846123729231169 
5.0403146492371595 
16.989054245934966 
14.27736096734792 
20.24054453165385 
17.56655597987323 
22.531490591523163 
13.288270156782303 
23.562607691026493 
23.77483347159421 
19.841790136258986 
23.561569992969464 
20.906580045060785 
20.069973422797577 
20.950023922877428 
20.617886176469945 
21.19609976652047 
20.2427629015435 
20.490750628089096 
17.80247165146562 
22.35139304081857 
26.030856200421187 
10.270390562574805 
12.716152580586325 
5.641246024469283 
10.510378842696532 
4.788682425448863 
4.058993295472006 
10.99269133782772 
1.9268114971468155 
2.4298774010079294 
1.778690433605081 
2.9523315650464292 
2.025349505676055 
4.2683787122182615 
4.638361433506962 
5.122260233488038 
3.1725299102932447 
7.058317201077923 
4.004347101263999 
3.119741243975184 
10.113109378780678 
23.843862579525382 
23.77160805381182 
16.14392682551849 
19.65981478087427 
21.675440718707986 
21.877723464800695 
25.52152921088444 
22.874504802163393 
20.88820854659692 
17.0555254835262 
21.543394658267605 
16.97711128495386 
3.401708518627987 
2.82071762839153 
4.031863570920667 
3.5317972120348085 
3.7272684350637126 
3.7010532775290748 
3.681390628240218 
25.450114034316762 
25.704597677883164 
26.003942250196285 
22.16911646651974 
14.954994922604536 
15.38564570851042 
10.686991069532521 
10.579820193060314 
22.157285875736424 
16.991543700642215 
23.269058810638988 
23.35042195253486 
21.810423253368697 
9.871605372715333 
8.978698035880901 
7.073666437245143 
4.372407963918311 
9.24888643820059 
4.378609407125377 
4.946418639077135 
4.550777284054713 
3.752091713109345 
21.214715754936297 
26.434890080828435 
21.32780844447613 
3.3900678433347005 
3.6540824052313474 
3.5855837488142432 
3.109637134820442 
3.155628426269586 
3.205039991276509 
3.2381814624109246 
3.414028308994535 
23.319813334825994 
24.770793586982812 
28.79906050452597 
27.543415617179054 
13.42848165787795 
23.606604093077408 
3.9663709423134783 
3.991294464007117 
4.292893134412167 
8.036960652489455 
4.416607961957696 
3.492373621925499 
3.724500047349523 
15.404746926156285 
14.606428375694152 
12.32351081417322 
15.482362165045382 
17.242706685640975 
14.792479107589136 
16.821897574543566 
1.8024360505828414 
2.0797173196592644 
1.7788981352875657 
2.1148628988139375 
2.6332291994558874 
20.585971421026287 
28.799146508339053 
28.780303765555438 
28.965385408000973 
18.871696763428186 
28.825809456770592 
28.586741116574558 
22.06007803834103 
3.125589006351766 
3.4403784886386686 
3.1466861270094015 
3.715668351423399 
5.439379003115123 
7.759796902479244 
5.892217350245779 
5.507335349204407 
20.239451691686163 
20.626821576595773 
13.461614029758138 
14.56473174916212 
9.30327267439501 
14.3854664970343 
12.854687599582615 
14.34692166905255 
17.99978770848612 
19.383515650254072 
21.42982104725375 
20.718654483567907 
18.290734006856244 
24.959868683371113 
22.090901650122237 
17.964950672283933 
17.417924801811132 
13.992857084113618 
20.851212652242204 
24.637964997918008 
24.28807680782074 
19.48742519470283 
13.179519489756649 
19.51399896038399 
12.819812611447764 
17.83952655299792 
13.616708567806107 
16.00572418686043 
17.01605689345194 
19.33325004112643 
12.1185297925803 
16.24188470014102 
19.51786780295873 
20.002507868536785 
24.730299969158445 
26.842867855498287 
21.723814283749107 
26.37296180285267 
22.510772620377637 
9.60156249988025 
4.918672758551012 
9.72445475080327 
21.760125510897083 
7.97270982688257 
9.400729402890565 
3.5336882897923574 
3.5867821402899205 
3.1342168526801233 
3.069288058896628 
2.994230943310224 
3.77589087103394 
3.699482814781358 
2.9876395632822157 
2.520682959259091 
2.879114275423081 
3.85751208641839 
3.7206885277399047 
3.0238559154102527 
24.791716575158265 
21.945916681338026 
18.171087751156136 
21.041110788405792 
10.411102908423272 
9.527373328578367 
6.887931404333435 
8.733886021448102 
9.112170656621458 
9.485156403405421 
10.825102489830012 
9.029884219322463 
7.855700311037964 
7.0560825361197725 
10.240473078799596 
7.12452655610046 
10.8880486159714 
22.512359132374666 
23.990796788895402 
23.516491689637057 
6.29638406516946 
22.620527347040905 
5.030367116010054 
5.4638386315362375 
6.0446900015761384 
7.335446049315891 
5.943743627914721 
12.343904776699173 
12.794396720044713 
10.774122289888538 
13.496842435250677 
15.130781880749236 
2.305325289182857 
2.5730253233901474 
2.9610599345215967 
1.5041796084668806 
1.6113315722821886 
20.934013718496285 
5.695029921175607 
12.512442330517944 
25.980375245481362 
16.75179465786425 
20.034326276887796 
26.405300408170888 
3.4211467176850423 
3.2391914097920043 
2.6709813971077665 
3.115791590576783 
13.80632255742001 
13.696618680085225 
12.93211574548226 
9.882689696593559 
11.681135137149466 
9.747322641899409 
2.2980060448478707 
1.2369745479892162 
2.5993616662885843 
2.8941563559543444 
1.4898085770056766 
2.160170195521682 
0.7893305102819775 
22.461156181633868 
8.35623244775523 
21.577675515169478 
19.128911584807376 
22.606657987806592 
22.40658405772206 
8.461152808698529 
6.884483044493434 
11.67331803194716 
8.97662196818579 
8.757467103088135 
6.8010864625356895 
9.333846085277086 
6.464072704970992 
14.747687676413143 
7.211708228977142 
7.999915154266093 
8.215440414128668 
8.135684739940302 
10.604546915460816 
7.147067633666721 
2.7915035160076846 
3.281250375127658 
7.038553104728564 
3.9624182309230873 
3.3135111709841927 
3.2227514125447465 
3.9525809316790155 
2.903078350703394 
1.804374928999671 
1.999054040381639 
2.46908562840891 
1.6389655320109302 
1.1615360050701897 
1.9612150391749092 
5.453507097175109 
5.368038913522526 
4.980904129634626 
4.484207131865428 
5.856875710403634 
3.8009380413768827 
3.218085463132886 
3.7855048340163724 
3.814719601760625 
3.178419638011822 
3.633009491508287 
4.694441079047075 
4.483824140357584 
3.274083765145134 
2.9635067596337024 
0.8196937256882159 
1.8929750564285566 
2.103766489191065 
1.9615378693773498 
7.891306355019574 
7.803583677911601 
7.604202181557272 
6.904673666873314 
5.386465321077135 
8.200681761119595 
12.926667592644819 
12.855894557825302 
16.34845346077153 
13.031664984135332 
9.580564667587051 
13.72957188972754 
1.841615302638834 
1.8306759155739851 
1.6246868759389976 
1.3481664956091677 
1.7393030584106868 
2.1367960437347375 
2.2289140646136807 
1.2615891147846723 
2.1880960352654624 
2.504266028414616 
2.289745210115598 
2.79137170207416 
2.2255293958807583 
2.107405055070704 
2.5758159976025 
2.7957213998619097 
3.1085648311298892 
2.576903054169099 
7.693305229963333 
2.077065820544324 
5.999484108862766 
11.928621645888391 
7.611798887441431 
8.04189353171263 
2.419155929017008 
13.422088851505023 
11.250182898053083 
11.246105966435612 
11.292279887267627 
11.643044942494136 
16.119489681295367 
16.63675172810884 
16.345506380388976 
15.19643466091154 
13.219327121093086 
13.584370677643701 
16.94245606876285 
12.398081020576619 
13.607109039475187 
1.22810916635105 
0.8548369056398216 
1.6351755639340888 
2.035062932386457 
1.6281285712197366 
4.708690832409306 
4.726993903488775 
3.0328768322249795 
4.483494172366808 
3.7122730271331177 
3.0299931175568364 
31.130261353073443 
26.823467690697573 
27.00671986125708 
23.206517014904612 
18.478965863620505 
26.920335147685382 
7.601520556626464 
8.088543096970625 
7.726965464726987 
7.034765249115689 
3.245487092848347 
2.8233162709936903 
2.5048357778971178 
2.446007866476844 
2.1106495364666826 
3.907435303508063 
2.6613141008912895 
2.8082887577250926 
2.248331703578087 
26.416152942480934 
31.036566897236895 
26.087865385874217 
26.741997512575697 
7.318051511516373 
6.627942015925988 
9.875864236743936 
4.8566446489915185 
2.3096353101352594 
2.2439815324626236 
2.2557008909748157 
2.840537574310273 
3.2987068624762306 
2.3934113877073773 
3.0950179013339825 
2.181197414655294 
0.933100046521779 
1.8040466805534443 
1.1220161290954465 
1.857140684115342 
1.5962264682405327 
0.9977392025164954 
4.129941234129819 
3.6302958473479703 
3.7460441398103272 
3.7248022638753566 
24.740790492815517 
7.194951847618345 
19.006571596950945 
12.695371025357387 
3.901632480400011 
3.752522070149117 
3.069120911211943 
3.1160749495172344 
9.46543787386153 
8.762167303629754 
4.676023267888196 
4.948074310267088 
17.78407213192198 
20.492170851107986 
10.587656946674407 
6.477477443801097 
7.446843155076392 
9.499939597923012 
9.022286946271423 
9.780078346611406 
3.1092232194030727 
2.370631648888017 
2.6558131824730267 
1.7794370881043176 
2.4035958196346816 
2.2623590704168013 
1.8085830077274474 
12.506763158207114 
14.63399772329408 
18.392262520463515 
3.0681324404394097 
14.026116715361075 
7.964718819097612 
3.808349233351358 
7.8250578560957305 
7.54926576007853 
7.947318766877505 
8.058844823147846 
2.625584652930778 
2.87059958740894 
1.7914847435579329 
2.8500126670824337 
2.870876193855294 
2.1439145104963733 
1.3845468700784251 
2.0575376641819383 
4.624013696064979 
4.53733557884588 
3.774812792520623 
4.651698431832963 
5.270990779428652 
3.9828907046003335 
3.7430329030412666 
3.2569074563883507 
3.8950924808793013 
3.9419594738795567 
3.52684954329207 
3.265267517708398 
4.958795395394677 
4.4813075456589315 
4.6522979420748785 
4.41964776169413 
4.97964022473235 
4.4956958551896795 
3.1277162397087412 
10.427365095449714 
18.178655308721442 
9.23637216473684 
15.293853588561042 
9.676513100111432 
6.804484168106877 
5.2708300908615175 
4.857143492594679 
3.845949094462753 
19.82511535095897 
22.10289802108448 
11.870369168569962 
16.55797269592632 
20.314124613694723 
20.413553399181453 
6.508542382796155 
2.316924532845658 
2.437571326933809 
3.099241732419167 
2.8954820859935624 
3.1685051104067723 
2.3116329248169114 
2.921778049737249 
2.2347245302016794 
13.6465609831632 
11.533483114193512 
10.115385049650492 
12.253645779313947 
16.789183525398442 
23.357408898288924 
14.24596394467582 
18.062075288543163 
26.68443808715777 
18.535618007133284 
16.52128425419599 
16.061202636008108 
16.13910945869693 
16.51942012734398 
10.658084232953227 
13.217114805608839 
13.700288262199443 
13.456140738187907 
11.686506660825632 
14.439740530635019 
8.530693118773296 
10.139721409776293 
9.211153715094952 
7.93001671051194 
8.220103304249552 
5.396141905240905 
4.411433502256662 
11.135423317973325 
10.000201854254312 
12.875940364943048 
10.852165881476077 
16.02710060263041 
15.836852016784457 
26.247893046008137 
13.436697735345202 
14.474859999766322 
27.25985160613498 
19.775792369059445 
26.884377220072615 
24.791886031562232 
32.38058569786669 
24.121030186294888 
17.083982871589658 
18.83567888974545 
6.0152058077998225 
9.15537098112194 
6.489791354619509 
16.154651332207816 
3.1736380841209 
3.224220637608991 
2.4340685704707057 
3.2984925897076574 
3.5267289030150213 
2.9815686574799196 
21.45360663610466 
17.833632747471054 
20.039704664301627 
20.95878601812507 
29.739498110267323 
23.202483755143454 
4.730762831890532 
5.536313516871839 
6.388561536071705 
20.776788257745753 
4.869631898495543 
1.1906006178204482 
2.1995143169938154 
1.3429734206070516 
2.5514950296655248 
2.4906116384291446 
1.7193079705055885 
2.4096518769752238 
2.337600056425671 
11.10795477584701 
17.247997120320303 
11.455100499289358 
17.63786632786906 
15.336712666436839 
15.685801239538804 
3.359230923414347 
6.749906115688697 
14.841870723261481 
9.625921376109527 
7.568129699020414 
2.6081492228299656 
2.9564035655224075 
2.904256752824349 
2.779715192334624 
2.3583499731735253 
2.528233214920941 
1.5699045455291112 
2.4481635165872833 
2.9238295261325633 
2.1744025671332063 
20.786307602988362 
23.848044659594095 
19.45207684640383 
16.01785221362348 
16.53491499018839 
19.581765549414417 
12.671215979552084 
19.84445887754027 
1.6638551005480453 
0.8482388490632742 
1.6612201507992996 
1.9589151836797811 
1.5041015924943535 
2.2015753958429602 
4.670548197672683 
8.423578172584568 
8.22718834708864 
8.446252411766796 
6.211525990117066 
8.39940219631832 
13.719958103276744 
13.096250395084672 
15.097324136614477 
16.6127373258304 
7.3886560826675725 
16.517278833704125 
6.929049829395076 
23.02979690168922 
19.791422427636576 
23.014372135000702 
23.26556245337335 
22.5491744717091 
22.374791015362735 
2.802741242836782 
2.507244391601371 
3.3322256459937996 
2.774581548904978 
3.661352587466218 
3.458631673660441 
3.675133880326034 
5.864350346607981 
3.9452638202105375 
3.8502529271926362 
4.7230988504827165 
3.517357255400382 
5.4624179287236085 
6.700692314401546 
5.721951350520725 
6.313232334371394 
8.022059720971987 
10.491910186948822 
11.371264250755202 
11.616659348594801 
10.949014537520618 
27.967779429387544 
21.621912378833944 
26.922365431578992 
27.851382515394146 
26.098657470158358 
15.064895041869661 
16.397046198720805 
18.211720795627325 
18.15234430888643 
15.097401441865827 
23.302807204182308 
26.162277378658256 
23.160641000585713 
27.002456168672985 
12.579135606440612 
7.241134983165967 
10.199555175827685 
25.74153778553497 
5.904073175367813 
12.654893532084879 
11.838907515662006 
5.558676051220117 
7.528834362643966 
7.778050237784649 
22.26492419738387 
23.164598109533113 
19.33342724631467 
27.177397510539635 
20.759045593027995 
21.03306611193858 
21.188997317180284 
21.01580097574625 
20.764440991816908 
21.111089712131804 
24.24336482714752 
21.435938764465543 
29.66250209527703 
25.64401588608151 
25.789265021217734 
25.35798551168125 
2.424998553356049 
2.4146847457136484 
3.0260184096164457 
2.6041260593319175 
2.6738962451162247 
8.018324368760835 
16.999360121592467 
2.926087552926212 
3.8581259325627824 
7.185174664487951 
10.131579669312003 
14.967724425054364 
21.960043600045783 
22.40688265167536 
21.157783703288054 
16.09184929370343 
18.399232075060045 
16.636518263925996 
21.354634791664246 
20.60885869662904 
4.312464690914817 
7.3209009309095965 
2.9387434875797847 
4.933740318007313 
4.262430052941805 
4.225356050883512 
7.5063476028654215 
4.441361489167364 
2.9652129711791573 
7.085730426676184 
6.3726020257119655 
5.470990993307069 
7.4788229520583185 
8.46151422878427 
5.030895350779399 
5.278197040016325 
4.367111401734541 
5.150380083112903 
4.854302526808276 
10.17760760307889 
6.2055487147149435 
10.775467931562224 
13.997968182899141 
4.779203441456703 
8.549339534528775 
11.693375114705054 
3.7557173235082426 
20.97944065242324 
21.327403029097642 
21.898149048106614 
18.517394902211336 
24.815351840648685 
21.27439873570767 
21.94875164427955 
13.16424758387726 
13.097452115511949 
5.6619505490239606 
5.119372512690281 
13.926970673962552 
14.154167729741596 
19.41582241299431 
20.79962643889376 
19.34693619802263 
19.203501220803613 
25.559593247066562 
21.78180874738928 
25.739343077712302 
25.70771845784356 
25.58624752286992 
17.117782796250385 
18.616326821805266 
17.050140003149572 
9.829788496970359 
3.8181870316297255 
18.11185075686724 
18.512261637785816 
24.78957626477691 
14.461642290669996 
13.102427012787421 
26.234419132219355 
3.3494956035102175 
3.2505522708583845 
3.6690496975214195 
9.181837200365901 
15.732132730510592 
18.402916295410567 
18.266508196793946 
15.041467190902715 
14.601055323216361 
15.366647434576922 
23.580181323530486 
20.7591775730568 
18.04102456268751 
20.289545522868387 
17.68463736965929 
5.832000891390015 
3.49600024686687 
4.608166883491874 
3.3553532918777416 
13.191365779297481 
14.00074456761394 
11.946215469709196 
13.201255046762162 
12.513774826473336 
14.49022733617662 
14.07650121196599 
14.297712340213398 
14.688699142437768 
16.203964065788153 
12.359809903569593 
24.224005560420604 
20.978346067845553 
21.165916156550285 
18.22791923212156 
3.2047905992575347 
4.983273900852074 
4.091409737932241 
3.0372877698183527 
3.3518782035488153 
6.241522894390994 
2.6370913325844363 
3.024436405419315 
5.0009458932322355 
6.8263608344239515 
24.850837493643457 
21.45100297349819 
21.94757053497543 
21.2853795132339 
27.419356841176427 
30.080725457268027 
28.144916699934786 
23.766512467673774 
16.697001567781125 
6.592007441901619 
5.1578071275925295 
7.547993316696876 
21.960395672118462 
4.819525506638182 
17.343091066962703 
23.412612895916794 
19.957099009196938 
22.63311671059121 
2.2407814201011695 
2.137229987585484 
2.6522289259434055 
2.772126431467206 
25.753175299210987 
16.591872408425022 
26.480287000896624 
7.869206248116148 
26.624425925192064 
25.80938149214998 
7.990658273058852 
6.9212577242897675 
5.684047995609775 
7.024124823600888 
25.61462312636471 
22.86086525135732 
21.567925058324835 
17.991390622651807 
25.65183104067269 
26.307826612283026 
7.701570686638775 
1.1598769914161022 
1.8984053627617359 
2.3350088554678607 
1.5324317962914498 
1.38429704514731 
1.865257203261351 
8.415268178747638 
11.42928859058174 
16.599222057249452 
10.830378558477172 
8.202653945150933 
11.033039641264779 
16.199030355187634 
24.03344685348199 
6.375816461620934 
7.877946581125161 
7.61150530188872 
7.916018742798255 
12.970541989863769 
15.718331174487563 
12.528018430671544 
8.616479294910132 
21.7658240765818 
16.46983338980926 
22.291889480483636 
18.964829390147116 
21.19221874208719 
19.33743046827874 
22.408467913129957 
21.439813937476103 
11.330755289323228 
10.736702517902362 
14.745216022328947 
23.50679283112291 
8.70187830491842 
13.378480989701181 
14.884006621067854 
9.001168277186805 
8.329908763511881 
20.89091717348757 
20.909750232233698 
15.9446907418023 
17.19047361617894 
7.75105219722992 
3.6397890268891593 
8.449224769277428 
10.627922100887112 
5.935563436975856 
5.458628827135556 
5.481565096596374 
4.768128142820153 
4.6434528871871485 
4.593697184405955 
6.64644624821378 
6.2980724560118 
6.781214886666623 
3.2550903953348773 
3.6449709268043975 
3.2347648151749655 
3.307706200682661 
1.3853848906763413 
1.230775972252845 
2.189094235769584 
2.1747590015875224 
2.3177418742848235 
20.802233232236265 
11.242941597708962 
14.948353273198158 
16.004856078461227 
17.477506975288883 
10.099801746624031 
7.0592393768167705 
8.22861876722671 
6.662530067634822 
7.093132819622876 
8.742574865493408 
7.660339554477795 
7.862738607076249 
9.806321999396417 
7.622914344798639 
24.486001278155886 
27.271657635284374 
22.629109378229977 
2.9317482211367736 
30.725268492074555 
26.276660203890277 
15.700296971633295 
14.229097780258295 
15.967328034863016 
17.834755255235116 
8.999851780300908 
3.221699851748518 
4.2478151004591105 
3.9025545066560854 
5.294202105980079 
15.127681226682718 
4.001865306308536 
23.879668184333713 
24.24200107573328 
13.445210138155963 
13.919463061174627 
2.4461118402778426 
2.7559201870467307 
2.9563190838550533 
2.8986975883808017 
6.607881355427878 
6.252193257833033 
6.36352424420189 
6.078531152919493 
6.567628914486732 
2.077253141826641 
3.5573051213889753 
1.6193657491721798 
1.92848194832132 
2.173582851678961 
2.267664120893223 
3.040419565745969 
32.14344265017639 
23.354995559993927 
23.916468646568493 
29.158492105108678 
4.468990500934474 
5.442513897209571 
8.342024363934692 
3.8569380495739005 
5.426365127755601 
25.72226437066335 
27.404634912405154 
26.97238078485489 
21.397913558368174 
31.77357557258469 
21.623076119205297 
6.2545797133325 
22.149858763279028 
20.963674957025805 
31.343400013150784 
7.923750744296876 
8.627930966993045 
9.44250928115564 
8.103909412714314 
27.072138123707546 
5.9826371345983 
26.262650426740702 
26.771956821008658 
5.443661248644946 
5.828238957882424 
16.116120121026803 
17.86376479058575 
15.241419174464717 
15.531337233274025 
27.93174501764337 
18.08215426249929 
18.600487338500226 
18.64490736005296 
31.281313189764195 
9.248897172956093 
20.553105722538188 
15.951856248387298 
4.60593399726772 
9.565193374907407 
1.6896911155011964 
2.2378955837461185 
1.7755551131589304 
16.571197924745487 
20.258054146701777 
19.129274384519302 
15.391479491592998 
20.019479894289034 
25.792186811658357 
20.060721538713523 
25.073162861445994 
19.36011483518454 
24.869400868359143 
5.956059640274982 
8.163398867951333 
10.97943136453858 
9.54815727722922 
6.124651966647536 
6.141884488729654 
6.790725355153394 
6.1025185374289626 
12.378354848861381 
12.474701823757515 
11.76466743517617 
11.737318760496995 
11.348035074743635 
8.723999484389033 
11.628961524834837 
10.268800703780416 
9.805635037679759 
9.852751844144908 
9.181835415653621 
13.285306222758237 
13.13450937746447 
13.204945796281699 
13.175324957602777 
10.856918610476786 
3.462644214620077 
2.4803646083513806 
2.982141378635247 
2.300943763923509 
6.296204449223828 
11.24630076889208 
11.87620269716273 
8.986957185274845 
10.443643282871749 
5.209839668280718 
4.408452033234092 
7.608832657937548 
17.89248170555292 
17.947466997320863 
14.985017318420306 
11.59495087713517 
15.324152495029518 
9.770259416200002 
10.63132366599635 
10.860661143669482 
10.717830127714668 
10.429554820199872 
3.651762500830124 
2.1801906048248 
3.5505233875319995 
2.5752076139239937 
2.5332936670232624 
3.6153267713035033 
3.2554911574598373 
3.0331489620109306 
3.0146136954614717 
16.32465186397132 
19.22150060572944 
19.215581892663803 
16.06590848608742 
16.92278978682516 
23.20619512722861 
27.500815563611624 
26.906981655538974 
27.888398801207618 
27.5781858231509 
27.142097861133863 
11.40060874942158 
11.302876077092433 
16.58092335361169 
12.436698453888638 
15.172019546683975 
11.736855317962545 
16.855533519162837 
25.951339841369514 
24.72881136987034 
28.297110193787663 
28.50098023262571 
26.59727176154376 
30.023092242745165 
26.756185317906883 
23.046104026783784 
5.426871388994329 
15.034588366013795 
15.591250954693395 
19.407445704113307 
15.74024430202913 
0.9568239978954824 
1.814267304269737 
1.842739313717719 
0.8114788917196352 
6.201872993488297 
10.328822759914036 
7.949038236794248 
10.209700142409167 
7.8732490024229875 
2.926197023451255 
3.272310782528742 
3.124039417720063 
3.140928766182148 
7.19479226659651 
7.887872493799247 
8.603944710268198 
7.324641061690244 
8.508583969857654 
7.999692582163552 
16.564045587525232 
22.055237874353033 
22.05104972848396 
22.349032024768533 
24.759373983104133 
24.39324891437922 
28.82652992556096 
28.77042830708679 
27.10437626655629 
3.1396890529905153 
2.9641474259331417 
5.169721299360804 
3.3580889393724753 
3.033440375323147 
2.452959222274017 
2.4372437235375095 
15.18358440654929 
12.755125114904372 
14.904525205304568 
15.781209472168985 
14.762764692044986 
15.761712720540036 
14.59781863209583 
14.643006514350558 
10.924549366784133 
14.983848163529064 
3.0170283424538793 
2.8125280947666673 
3.406371651780969 
3.563445760284681 
2.0442456062081154 
2.834195854859949 
3.445109761512905 
3.262325992573441 
3.128197840550468 
31.841964492408707 
23.003415164652367 
34.87423048541426 
33.12793060825588 
26.692995459476606 
22.808381649703033 
5.963695402321441 
3.571387899087626 
6.349042900772534 
6.303593034688644 
5.1649207619061706 
6.54732475823405 
6.598496563764797 
24.881982698781076 
21.623521628650973 
25.890976614630834 
26.488005216897335 
26.06032484367185 
19.744704177689147 
17.21563036805306 
16.75607019811341 
19.9368194406732 
20.10641757558874 
2.1123008474882905 
2.3611528303545595 
2.2294263147684727 
3.4876996835368184 
2.0991900099506218 
2.4099012277929686 
2.624927186337633 
2.352468078635299 
2.9077242268430195 
2.795928239209368 
3.457092593070871 
2.902733456962497 
6.190622454863379 
5.388348426764535 
5.986997270384609 
6.138596698013673 
7.163895968427711 
6.684347099898965 
4.561656678218321 
4.993349156083209 
4.859427283979242 
4.828453592937783 
3.182846233113415 
7.887823173860979 
8.250049011411212 
7.297427434920153 
7.720416924446723 
16.036112766495105 
15.323766551445898 
15.565181556124726 
17.177941986632536 
19.238973732036715 
8.243666429393247 
4.038549042986616 
8.310843147660693 
2.462645100238936 
21.29081513109529 
8.586024407122208 
9.747070961439265 
13.253047673505282 
3.0649415570566765 
3.150554440867466 
3.2544363838845 
3.024551642031603 
2.961185666529781 
11.929835258231694 
11.733250879106318 
6.385768365193294 
16.343142319656383 
14.01319803255307 
6.777806551934002 
13.582979909480471 
13.9419665877446 
12.920872394999687 
15.07999792208569 
15.126185684046398 
15.352385568145605 
13.054533147518342 
17.39839361338078 
16.445623101507866 
16.32209850017187 
16.504538211321673 
13.532635916788664 
18.692416913642546 
18.262153167677695 
17.442199421184604 
17.744145787812403 
4.321534332286265 
17.041522907997305 
17.52978648069991 
16.71007860360825 
3.910191856844947 
2.3117788388922467 
3.452204486745941 
3.8196324309926717 
5.273765100330028 
4.939526661278987 
4.103658447209883 
4.35043868239178 
1.9127668163191498 
2.47500276015228 
2.120889862266116 
0.9103350827983632 
2.963721238590171 
2.708660291551237 
2.00079983464459 
2.9154635632476555 
17.00437668988423 
18.18404986597448 
17.04119792373839 
20.238004096626263 
20.570746067311042 
20.940267230510123 
21.022879558379834 
15.111308167050487 
18.005239046825533 
21.950028610851568 
20.63341835739561 
11.98677265316813 
12.357431046500837 
8.402748244321247 
13.08680646247702 
12.721413253500467 
5.574332659009338 
10.485269434263069 
3.0583563794105006 
3.204759457815078 
3.1746549152468964 
3.3827194107814518 
2.9478800316440377 
5.581051174550522 
6.468504968570275 
9.536463428848709 
6.535523832491966 
6.891312785423935 
3.1644940925238627 
2.76306987057871 
2.6779296662224423 
2.6317307349505996 
7.37486127234237 
6.21997191600354 
5.76466169342758 
6.748690592770862 
15.813377367281651 
13.438974995918588 
11.990538798177736 
14.187414094080726 
9.875483288416033 
11.772958280978338 
10.039579432250662 
10.653706417959189 
12.25705917020062 
25.32661811293297 
21.21195638200921 
25.25055449945526 
16.052825092352037 
15.828812260016798 
18.455941095725375 
6.800764016030589 
8.16424800960817 
2.7526566355693167 
6.937895572121183 
10.01713763555863 
10.132598570990462 
9.884906051314985 
6.983240282205687 
12.732302960218204 
9.63676426338399 
13.502960471730304 
10.24645515149898 
12.994027112800563 
13.275124446011528 
23.293694776188747 
4.150177257937428 
22.908819809576652 
21.25381777179434 
1.8010216790725013 
1.6206595004749342 
2.3039353961455076 
1.5437374513257063 
0.9276608249851045 
0.9613708268498504 
9.131274531895247 
2.3378184642697937 
8.068696068822502 
7.297472999765346 
9.155388851378182 
10.381040626209627 
11.418915729103698 
9.11798498410571 
9.69035757947767 
31.670258487775207 
28.87316893723245 
24.589073491363223 
29.08511259991413 
20.664209343517204 
20.13240626885372 
15.296433433367916 
17.36303136118943 
13.759631444533833 
5.987401236789067 
6.013945492080316 
5.768232459738342 
6.692323956684657 
5.671195146937456 
4.278575539651427 
3.1798438297200704 
3.250891145455126 
3.069790907318141 
7.117026379582063 
8.574907083244005 
9.384241114927013 
9.30026384792163 
5.357946130537285 
8.536490090064573 
9.307817092327184 
3.2445332910280698 
20.199839598901963 
20.919057199846876 
21.050348756803885 
17.68387769365049 
16.82622045965442 
20.744832846803003 
19.67484474429184 
20.643669084249172 
16.039233978182537 
17.13684007697899 
14.912189276900127 
16.954148835795564 
17.03359469818836 
14.004030264965602 
11.65295533089821 
11.402098431518544 
14.01251744564136 
8.505464468547393 
8.578512768402646 
5.317582250549618 
6.230999335234624 
9.512001957285047 
7.545914427662731 
7.4962518916677165 
3.9183055305079812 
17.87243621623102 
18.711080362310508 
18.460418045348813 
18.045978529105227 
13.762792968802822 
17.906308238902508 
14.186708960742871 
14.622329942165774 
14.495521434587575 
12.467535077307874 
3.4423688147300076 
3.4664372385008204 
3.438666026031717 
3.812269649055171 
3.0761661898760098 
1.523085766421399 
2.339685018859709 
3.1242393534117334 
2.915954507787101 
2.46784598868535 
1.9831761252520366 
2.530195036145061 
1.2462365560333903 
3.612529279802064 
1.5257394024159416 
1.686661124410761 
16.03756305380386 
4.454279207922182 
8.822171576481574 
15.119241346156217 
16.099398631065 
3.877150656949418 
14.614382661675132 
11.903902013355292 
9.447944891320056 
6.5636053038033415 
9.398869676812247 
9.2014954174555 
26.31895112042167 
19.696773651393755 
22.7972463131989 
22.91061269847961 
21.349424891192832 
24.162669163471424 
20.910889169000097 
20.934707151678694 
20.807930755467897 
17.684478659844427 
17.390314228935637 
15.349430268266802 
27.69433578344111 
28.22061029663554 
26.95963732866093 
28.121724752139393 
17.756254063891646 
18.93069032012048 
19.620340007610555 
16.489966864534285 
19.474969609521274 
16.01158762804537 
22.32524844632662 
22.29242689143024 
16.386456298642816 
20.59343945894888 
16.02765857206699 
13.22317314402545 
18.402812110295876 
13.778440119781543 
18.192961710511376 
18.254771797503 
18.53828814987348 
8.569899097711035 
8.62833434005391 
8.803706208242682 
18.726140310717568 
13.782864208513725 
16.570480938704776 
15.594896117233143 
24.52766413492258 
27.09629772679173 
27.284547391770236 
26.91828581685542 
26.932851409662852 
24.348737669177428 
26.630047381758168 
27.66261924236997 
8.782492037870231 
7.95316548951868 
10.33904031702069 
11.693819442592769 
5.9647751672139995 
8.260532598623902 
20.640053677821683 
30.048712168446865 
19.813067560814744 
32.062102940058104 
25.6308712256008 
20.86836768634401 
29.543283973605877 
8.70109035006544 
4.3554115684513075 
3.546052206716812 
4.367699483128609 
3.4697700364833692 
3.5569425825496133 
4.539800264802763 
3.1263328942078217 
6.2251826681454645 
6.898552695841469 
3.220748568076467 
6.139945288201279 
4.987077234775769 
3.6674607550019505 
6.685189136025763 
0.9093849372443091 
1.9620022861782809 
2.2673696164418446 
10.266083140309991 
9.496873674397863 
13.67822328481735 
10.79586202605136 
10.550564352090623 
17.34818556069785 
1.6924314693045708 
18.14993581962355 
22.059395036542167 
20.871900141154185 
16.11793284851671 
21.763959137794764 
19.55083947755297 
4.582323479954591 
20.006457023955342 
16.31067536921763 
3.431142463154092 
16.692045127897618 
14.044593269733866 
30.5341871341228 
21.166351083168262 
30.008722534098304 
32.632847652323775 
31.422062963605462 
18.56163548358395 
17.17422072914778 
30.42096563478397 
29.501254820685617 
18.9512026107071 
17.19434733599203 
16.553803425690226 
17.08830212244026 
30.47373535305925 
26.30450046078851 
23.06694217396024 
27.268307368430328 
2.0363422019408524 
0.8853042593800774 
0.8930165762996183 
0.8334556033033518 
1.6566513473263196 
1.7612443549674566 
28.86778191001739 
26.500315748195412 
7.3072996873890945 
7.61641708520401 
8.980949645252949 
9.059462902395774 
8.588676238948235 
9.580319744582582 
9.220109223374688 
8.563670085338492 
10.161203568576497 
7.749521310344145 
8.598864449310321 
21.711378002738474 
23.091126986720564 
23.889119859010478 
20.212612321858042 
9.939650334889285 
10.436717318704194 
11.03739941967317 
9.25194212724359 
7.689242757220679 
4.947844402203251 
23.855934052326162 
9.010565614067223 
3.5893017443868653 
2.12552858329695 
4.767011151257732 
2.280223707859251 
2.2795326184113702 
2.6443037742832107 
2.194575629278572 
1.918328883418326 
2.4736643461285346 
2.2203612635224332 
6.590573693041817 
6.305679609969584 
6.357824593188194 
5.577781514793674 
5.90401619101825 
5.55842729523862 
5.665935487453515 
7.906880590514108 
12.581529802453476 
22.47689461630526 
19.113087791142117 
27.462679524759686 
31.148103461275124 
26.677711700718127 
7.526740126741266 
5.822300481862969 
5.262940783794436 
5.9018266672996695 
5.429774455424265 
28.122247341056305 
24.25487188521834 
21.17110937422119 
25.20434829651319 
10.628239066274183 
13.256628602871547 
13.308417770644356 
13.186688008358352 
12.938744291873585 
16.64402625263923 
16.545805891490154 
16.015788632104794 
16.34681199638313 
16.331558041087053 
3.194445491279276 
3.0077851650881633 
2.3922370056800895 
2.8200787118065933 
3.7234037399329667 
11.74224809457031 
8.869025243232846 
12.215057819093257 
9.749690505220874 
3.2701878607565003 
8.503383894857242 
7.496729148092783 
4.555607749632012 
4.917107472970831 
3.2861630729013496 
14.73732985960896 
16.425011314554528 
14.469425381161045 
16.7099918967601 
16.841860060128617 
16.683643208274304 
17.91414131988704 
11.739320287911472 
9.065937478115561 
17.33880666513509 
14.719381313595235 
12.884970813414386 
14.554102312870668 
23.163505661355718 
23.787236698267684 
7.525915936355308 
16.337274640152327 
3.9652154376822595 
7.00293218222822 
10.58290161614676 
13.60247011080826 
5.77453852439285 
7.577234325180568 
3.8773059944474606 
5.051949952317845 
21.51799173573716 
16.295224886469544 
22.078118208271064 
20.94514705098449 
11.812661072706613 
4.262750883031697 
8.884037039393032 
4.881021195728517 
11.19404907130341 
8.220505779055035 
11.423575500439036 
4.039029611992164 
6.568646179636002 
10.591208502146362 
10.225179339821343 
6.386649026181749 
7.1718778394427884 
2.4273934727731086 
1.9695251385503445 
2.5914264226769155 
32.207377612295446 
30.756492482771066 
20.80483555616571 
24.273233079444466 
20.67450926644613 
19.493343232057406 
8.63027853324426 
9.645943190793485 
20.272492121712546 
8.49974607298071 
3.297714048529532 
13.415755178798836 
22.14995516023667 
22.737582955323358 
19.746730220755552 
26.094190772541186 
22.14069586038347 
4.201480363033161 
19.873910602789017 
28.110337889578265 
21.58201757498107 
28.221781200562784 
25.558006395688835 
9.478324761129418 
3.7249603328221155 
2.539124277490413 
3.081020945847058 
3.2991100633968147 
3.079461715029108 
2.888868906956779 
3.142394569713441 
7.9485391949632795 
2.4950945963188613 
8.577532307117172 
5.6237744004129535 
3.54143051925546 
8.243560184466471 
12.56059122831599 
5.452147794668589 
6.659408153902137 
12.780734890445347 
3.34533318293898 
5.122427209087878 
16.270509083182112 
6.6939286366492095 
1.0944616371567264 
2.1646453166907587 
1.9411647641558154 
20.655090881206757 
22.96411068843948 
31.596834740947205 
31.62440170028991 
0.8797190303509396 
3.2600097066215827 
1.8541313560641395 
1.8351760932410477 
2.112111823303 
12.968490980487378 
15.733994656210651 
15.775287967475707 
16.060140234600922 
16.219414336133585 
16.319220157749484 
12.374420870245775 
12.971363090144008 
14.617759869518476 
14.992712535012892 
14.704444976934921 
1.664842235230948 
1.9191482144069394 
2.5232191304409906 
2.652037847755557 
3.1351561680314983 
3.240618659768877 
2.923440124197125 
2.088485771972758 
33.504823049360695 
27.97990056919825 
30.803650010802002 
4.503915207374499 
8.758470242005401 
3.2793786682558665 
4.5414736070989505 
17.65320382435287 
19.859331608750548 
19.084056727301004 
18.6378261629613 
6.243932303932461 
10.595076507814976 
10.610675887703454 
9.914088895330234 
10.34965906863475 
8.12356708437914 
9.810785731596766 
0.8134466223325832 
1.9786365687553247 
1.8199707652057278 
1.7589457194452285 
19.205219715490276 
23.137153305682283 
22.84361755761703 
23.03052821640879 
26.792020164000864 
1.6282980071378725 
9.647609225702713 
5.965003410810972 
21.21417747191592 
9.673966098914601 
12.609053845136508 
6.469267729542326 
10.991003900929067 
4.272623675811842 
28.444262038776596 
26.4438173125962 
21.33090245386658 
6.700715532013557 
3.531837803252441 
26.363609298485752 
23.201068510415293 
16.245393543953593 
7.204400041061961 
21.85116183147395 
5.022778451367028 
4.287388691733393 
4.3433590304760585 
3.7188234854504683 
15.22326417950199 
3.6344166310529076 
3.6088617084978885 
2.8471067923137077 
3.6542178551153777 
3.5160149475538747 
3.220032415936307 
2.782299928209039 
3.469302851987806 
2.6178245340267856 
1.873381401826496 
3.453535076715229 
3.074259812028766 
2.8815982743956843 
3.292162059252444 
4.102603547212123 
26.671684565361343 
6.331290915103364 
13.130424167524502 
31.1085308214473 
6.341079419400944 
1.7080528573965081 
2.311375819261249 
6.947169247698352 
10.038606219811731 
10.744540773706994 
21.991158556919373 
18.941070565749754 
5.535571302376425 
21.85195657265456 
20.232066927461194 
18.531333086759936 
3.485638683408661 
3.2287403757403217 
3.669034914368986 
3.3391782627980717 
2.9932983928671955 
3.435167664870124 
3.3996399938441106 
2.1837766139964025 
2.1941970154547037 
2.171908834327259 
2.596815004681063 
2.5654087610539107 
2.7242687183925645 
2.140948135523192 
2.161484355908969 
2.738212484592955 
5.291912395835995 
3.576782651367375 
4.803535635010763 
4.183039910170252 
3.8782399214840604 
4.5859242332752705 
3.733243429729226 
1.7339881304652138 
3.430451595222963 
2.1970029033099108 
2.8222704705712736 
3.1884842707155427 
3.3326221299638794 
4.876385751997516 
3.0121427270463874 
3.8551920232992103 
8.348675166296601 
3.625731802693984 
7.0707153049756615 
7.247138026921868 
3.88413371687293 
6.466936024651024 
4.043605418594868 
4.359173055892923 
3.5292677842094133 
11.654799591424297 
3.6107004807575187 
6.223393864452817 
7.53330841131702 
2.846686728650517 
4.152358850940612 
8.778933253552493 
4.631469990713945 
8.707240614341806 
3.9297225824628277 
1.694154885627774 
11.279267679944878 
3.1573858097361183 
3.243342633591244 
13.088649020657687 
4.2364677108646935 
4.530822112027496 
10.898294350366685 
8.414931101322448 
11.479369150602357 
12.144596292268226 
2.2110857624453186 
3.7174222008686235 
8.212956946295801 
8.87555458589647 
7.748521749588936 
25.660414437295 
25.77868840465901 
24.68569677203192 
2.153241217994252 
21.129812146769908 
14.966518309248322 
15.096870591437883 
19.953490330507915 
16.924589423725543 
17.45424146316599 
14.904260154626915 
16.260477064913523 
20.521894673887765 
17.387160960603016 
17.88086177006757 
17.15671243132471 
16.950833879583687 
17.153953297615487 
20.441904786830282 
12.974688924912751 
19.30557582190315 
2.0196514633518126 
21.737570658850387 
26.3458523651744 
22.856525416052843 
19.847520872919954 
22.602845596276314 
23.195563205669696 
22.062069412318184 
11.945297375625596 
23.64924668899098 
17.282831167124783 
22.29377104330582 
15.321554616548056 
21.316701531155015 
12.787200655585208 
21.68810932912212 
17.26005692742743 
3.112176235452649 
4.137225017417355 
16.126298479933386 
3.1303907859539937 
4.585586503313005 
8.952885083104047 
5.545160563301233 
4.957350128831916 
6.3092243685610905 
5.762346297984891 
2.2626829026463535 
4.864344772666812 
4.4630103861574115 
2.815572596063946 
4.881525193034845 
10.646249790410414 
4.131125387790178 
2.2273834588727657 
2.349553146902852 
2.5657733957711018 
2.3123523103110726 
3.29645867851957 
2.42161847880658 
3.4168751517874245 
2.299684156880138 
3.7471093886399953 
3.3274013279404233 
3.1930349591579748 
3.343440314681594 
3.255679701264146 
3.3462529955541083 
3.5428779586564625 
3.238232345841635 
3.4211811157938032 
3.5020191868538215 
3.7126209449493293 
5.258785792047724 
4.938519719850135 
3.575059895701856 
4.823692616564971 
3.6557324532043536 
1.598486250503991 
3.2134629721289496 
6.829594563127595 
6.953502583423594 
2.913735072785682 
5.075449502381022 
3.8555464748895467 
13.416631947530753 
3.3121703770755917 
12.132523714398257 
8.731577712469557 
4.633745243601457 
10.940444535249362 
7.8056422851971385 
12.722148049901174 
13.207048091648156 
10.281783629172775 
3.3272643068672134 
1.6985614350882143 
5.448571545074856 
3.269825215439502 
2.935033682726397 
5.489424562366785 
6.5066375702299455 
11.24617672401147 
13.295505592674273 
13.597960084334815 
12.743719605818328 
10.447111118302805 
12.839547814264709 
13.253563779340562 
8.940458092963262 
14.289373201727367 
3.452442619650551 
6.640409347252902 
16.66500461936312 
15.544219808773505 
14.747679414590095 
16.460334222410797 
3.1572779962892126 
15.054851188634283 
15.98821525045276 
10.856904448988626 
8.033717896591522 
10.256190222095867 
10.915062556830303 
12.50989814435737 
14.647037278590666 
13.355739100226993 
9.122944199205998 
13.384942873143357 
9.392943213540065 
16.266986673702995 
12.145485553117762 
17.00067851638663 
11.32552195375733 
12.183460515573115 
20.755687309153473 
20.19545162010547 
16.597455321158172 
26.17637198683712 
10.23782196830945 
19.69963235014801 
27.7906575668475 
20.77119800027151 
25.64705635649972 
26.838517879865904 
11.800378108107589 
20.47083285824434 
30.701456413983994 
25.15986119693794 
18.840190923648322 
21.773463682077317 
25.665339897268442 
19.68602185674743 
25.199902815547386 
24.653713640217607 
4.4778227950004315 
23.47883049795589 
8.740785477079525 
11.68927645049867 
5.114565871116709 
10.649021410344679 
3.869042236639433 
24.443345581259344 
21.35989338613794 
20.57564979512758 
4.18564222941054 
9.599293855503232 
4.922633308115886 
3.7137433330191727 
1.26967832055447 
7.317916907379494 
16.217227991535278 
6.259466530927804 
20.71513943838101 
21.847233243289832 
6.575002111713208 
30.84544160667849 
10.370877853425723 
8.698671019104628 
11.163951739872754 
12.99207192753032 
10.084682357791054 
21.850624653483663 
22.336645541675267 
27.30342146739668 
25.079962850537854 
24.35066362343642 
24.890747661469735 
23.49162435967179 
23.86055863922147 
2.245904525735572 
1.3602975634341148 
2.211374457747128 
1.4253817310341586 
16.53613598134815 
9.219391053243351 
7.131268296859824 
6.494147403409331 
3.694598469559183 
6.396417831241562 
9.591398427062812 
2.70680752118825 
2.7774244088536926 
5.643731698585987 
3.663440493174438 
5.059580653402194 
7.749558215317982 
3.8565185936280715 
3.658528245997687 
3.3050660094890696 
3.0739906898173515 
4.189951581305205 
3.8193575363390595 
4.1025098283068795 
6.971766358272554 
4.049953060785386 
5.732258097373708 
3.472343456269054 
3.137616487490778 
3.556906504375488 
3.2427010620816956 
5.132386922356603 
3.4699809584823678 
5.176593933377381 
4.434961714426028 
3.7856918880293744 
3.636613794049117 
12.800761603943068 
7.493828692370151 
11.311875861238507 
11.45899635817743 
13.640152757672613 
9.776773770635533 
16.58006112272003 
10.898470397296586 
16.052583842722473 
20.585892210463577 
15.67455805752058 
14.113416465317131 
21.27286983098654 
5.088456788871636 
5.905370997765436 
19.159571682030343 
18.748333929535622 
11.22961774193278 
13.722202629848224 
24.319654625922595 
23.60417126894842 
3.7295452113268626 
20.760241791910072 
15.219879395654155 
9.954596394608624 
25.26540050373204 
10.537851318844178 
13.433574378287446 
18.374587259481576 
16.10589080447291 
19.194918315834478 
14.962687101414833 
18.544391646926435 
18.067329059533773 
14.390618517105409 
18.54678224723119 
19.952739532392606 
22.38918098404987 
17.441972155721988 
10.322424995529824 
14.481112797861798 
20.111525270241675 
16.82077106026633 
17.245807432068712 
22.69948199046938 
26.47931209693954 
5.778545932623178 
3.3033242535702447 
4.155310915266448 
3.955009605001444 
3.850922906197933 
3.4253087710394095 
3.5360660539241544 
5.491508337427715 
3.377354356996719 
21.910493844036054 
2.779500580288723 
10.437688550163042 
3.6412659321873453 
9.552708948327515 
5.132369747189063 
25.258233390726357 
3.252963206504819 
3.4634921341741562 
4.4373613231081865 
3.7050120167340124 
4.6164924875646625 
4.008775686933442 
4.477422678373196 
29.510431019812998 
3.2022474984833886 
3.3219835072823796 
6.289551612242411 
14.09710251546231 
13.264849369518451 
18.347532074764416 
18.18422130934024 
19.664272539945447 
17.825666238040803 
7.582547258530431 
8.72651210346144 
4.892646448475645 
12.19519174713705 
5.046181326727593 
6.837823550408111 
6.5721046096772175 
15.608234043631068 
8.47287170469986 
15.329109484012177 
7.367648988529037 
10.862211223405644 
10.410028024338116 
12.758212803250954 
13.814628663546541 
4.370094371217955 
14.022635665261921 
15.458559946594502 
4.279362030805302 
16.76266560053447 
10.16913318715428 
4.532798870080023 
13.731166998226225 
5.726100167309318 
14.268018392575671 
8.918110602911597 
20.593189377535868 
11.464392991584207 
5.368588067421822 
8.904795604581842 
10.435604658390494 
15.643740530323088 
13.172459904386384 
12.603960364483493 
12.468797531894845 
11.100574032349328 
8.764780916146496 
4.103169001138141 
19.852526043817544 
22.067141661403994 
20.69965259117669 
18.931937617473004 
19.73884176606248 
21.71950778103904 
21.805222855394604 
11.122753653479524 
19.52824559900828 
16.247691349090054 
18.534836377183456 
15.76965199399158 
11.765443984023747 
7.711354600301092 
12.745874116700785 
5.037772838089279 
16.46209600386965 
13.07984056529244 
14.508319607494775 
12.944785533124262 
3.4553835246867526 
3.1526065090352255 
2.6511113413990004 
3.3375055744153417 
2.11936004101179 
3.384311401399646 
9.879073296383877 
10.143034583871978 
16.691603630029494 
7.820443457936832 
11.731373927158577 
13.29353724232713 
12.099592953901979 
4.6078061313629535 
5.532906119001064 
4.830255311535146 
5.029263436160914 
3.39132103915461 
3.645007463709082 
5.139309285910339 
18.082394448461933 
15.565613683418682 
16.914318084462863 
13.019467878990048 
6.76095602041369 
14.161702543803786 
13.283102508423086 
12.134328903337169 
13.161446731867807 
3.0505524758945963 
9.825536153110393 
4.371871169838324 
3.461642772776368 
4.961631818403493 
4.254450536871545 
9.278847967159146 
10.391013817322015 
2.3281062991908463 
2.693306551053458 
2.9976657016235495 
2.6913986177516698 
22.3053499347854 
16.529362630448592 
12.270353724891871 
17.155152812089735 
15.604120050628696 
25.178783705176613 
17.972899313465536 
2.3948893320167994 
1.3753691948184734 
1.89516806346225 
3.0634752535075633 
2.6536167976790743 
3.4214791759037344 
5.884943597153589 
4.862343262030837 
7.482906330919187 
6.225069922474708 
4.9920021386330236 
7.901451925688135 
7.49993532141366 
5.813982839311041 
25.70679544288862 
15.914093037514844 
19.00506560850662 
23.12228530733765 
16.15578376051118 
14.930802080019232 
30.87217874222384 
22.828694980491495 
9.243035134072548 
11.572935297974734 
10.122916162302667 
20.968412629674955 
16.370856144116193 
25.08127667727378 
4.0282832736691985 
4.0309324772888955 
4.4018592489395685 
3.6271763176592065 
18.117501119807663 
11.57075761149941 
15.07556133691635 
15.173653048054547 
18.204030402147907 
5.496387957874813 
15.198332837076613 
15.454572694014105 
3.2418022660425585 
4.99446169433536 
22.129139647506793 
14.196431881856174 
26.688762016205978 
8.095099613470316 
21.909031794889867 
17.379187737317793 
15.169437160194162 
25.79576879232201 
25.91275688564511 
26.894036677056864 
22.55909059214258 
8.113894239413284 
9.157751247503292 
27.974476022908377 
16.232020190110074 
7.087350217156882 
14.990567199659676 
17.71074594277978 
22.734004756675002 
4.573886625397039 
26.564974508317814 
13.918596032930225 
11.798868747495947 
13.704705230867816 
15.504582438707894 
12.979540766943465 
10.62430290701325 
2.0271157691150075 
18.474910094741656 
8.18206694428137 
21.745600897732206 
9.192016105546175 
12.803685613800065 
20.687086299886392 
24.840480991116266 
23.594374708923592 
2.747936173157824 
4.740755062678016 
12.520143822015534 
14.483518189016186 
21.76995696337611 
10.995418342844324 
8.494353697321705 
9.924728923983952 
3.3453377353730813 
7.777858290653819 
15.535754772562942 
19.006389002998567 
24.75616118695532 
14.519676179495036 
6.372148536925385 
13.928555305534282 
15.925733546710862 
27.075546738679247 
26.535713135370848 
12.188253572321003 
7.083085080326598 
2.521023174981328 
6.098090277648999 
3.5653062329252125 
1.471660716807362 
3.6991065488087647 
3.2282063523473403 
1.973710853159044 
3.4666463589333416 
8.90392560898859 
10.291010512621444 
5.55150129629509 
9.72657783573067 
4.443766831385622 
3.3464147759614 
10.824211049618112 
2.148847685207034 
2.462869376983793 
2.9418320704001952 
21.409213913655247 
2.222244249191243 
2.4856052038050276 
3.4522388892165834 
3.5445102116313403 
3.550374081348032 
3.1501990878174597 
3.4187246025391596 
2.8190033793489815 
3.4166668533500677 
3.857564214160497 
4.117012003266316 
3.1811760813701 
3.5205942451608894 
3.2739365800331055 
5.820078377406279 
4.9236844036210865 
6.541261690468128 
5.019643681263817 
6.324268702465729 
3.1815053177673924 
4.754488712846258 
6.041431001441966 
5.5760920328657155 
19.990526557526692 
3.696038038552589 
3.7514100273784745 
4.301274508756086 
8.480672395078038 
5.703916027599084 
4.37378079850247 
19.498422032109687 
3.165215173213053 
3.5512367809907093 
6.296363316553059 
5.868125270435933 
4.438875883498671 
3.642838642466784 
5.214074993142968 
3.2492929148507894 
3.639019527283406 
3.5397418242358016 
3.8426840014449173 
6.315640458818362 
11.79031202798831 
8.780307858760374 
7.243040472206583 
4.127692656055158 
3.7501061007443677 
12.906024950469995 
3.470099816445685 
3.520451454885292 
3.0691679254495474 
3.8287103654782833 
4.385563412019354 
7.165945032418102 
10.36991194874748 
8.201118082359088 
5.09080954324649 
6.888853755562828 
10.330740073506348 
6.823851967566605 
5.71730699935724 
3.3837421227570874 
10.161783343029835 
7.905293759335553 
10.339002929933178 
14.905245229680897 
5.064260574629599 
10.828837569472642 
11.632735473851092 
8.64066531753391 
10.582570293133854 
10.190032785314118 
14.026864910110621 
13.535307382526566 
9.98570388858019 
12.946699147522837 
4.957897034939319 
10.025803780578796 
17.9198824883365 
13.236776979986914 
16.38229642798051 
7.924396872211927 
11.049688919449913 
13.432846683093977 
3.3561568381535722 
9.645729251038897 
15.348366268175608 
3.987096166671334 
4.024865786059697 
3.7759335079787983 
3.7729903376403184 
3.6493374091109136 
6.845115296001074 
4.728104281697059 
6.974233734645619 
2.3980678895212866 
8.286900020368595 
5.837280331984114 
7.332180566312261 
3.2687613291414186 
5.4928349088151185 
4.871555109889426 
3.1754746033690986 
3.7528411386208944 
5.194368484657172 
4.757849938539306 
3.909935823762495 
6.818334608142289 
5.566498852643421 
8.456206472494113 
6.01809142139962 
9.438126650670284 
20.96788906793438 
4.33968277494233 
16.785122321962863 
8.530153904436991 
3.4174990560969922 
8.468374834934393 
4.679673295052656 
5.076044845186803 
3.1740770648616343 
3.276776044500272 
8.204709546175541 
5.117626280209334 
10.250007440554693 
8.5113953973317 
16.58274941747312 
13.813578106041648 
23.212056848971756 
11.47202587607711 
6.920361102815425 
3.694661865255716 
5.1323230090592835 
5.193766683107287 
5.358262083799938 
5.85278390361977 
3.7838273776793683 
10.995392249391523 
7.036186576918682 
5.432187605219541 
22.97845714224292 
2.3033520250480244 
2.436480056372001 
1.7726192797484406 
2.4220605763551135 
1.7621669609421065 
1.4436583475091382 
2.2926330357922424 
3.303649904398771 
3.1828733779833045 
2.5499598107888715 
2.831215156364656 
3.248969148424294 
2.614456560366756 
2.4204166948816552 
3.137491468573001 
3.798623664682222 
2.767005612801308 
2.8776945297798617 
6.862278241536602 
6.8690663138921 
6.3494033396268685 
5.595324088998034 
5.3635756963015675 
5.906743590393965 
7.044691118445856 
8.121927733752953 
7.613227123911539 
6.7834303240517935 
6.328042416385844 
8.725227337935047 
9.11656424165745 
5.750330863869763 
6.630856576698217 
5.52042681307696 
7.99470212662051 
5.516175864613516 
6.461358253430924 
10.93403082562194 
4.324171297314202 
6.40785338111526 
3.5063321662771836 
10.42119367887501 
12.155858923215138 
10.520562161722477 
12.614554786722158 
8.50123145061698 
4.755118030202122 
6.341597491262273 
12.597094136807753 
17.199451852552535 
11.608818330187754 
6.343548325364919 
8.942835202448688 
6.810736537859045 
4.174720371680337 
8.262131165032443 
3.4718487161047156 
4.834465969570764 
3.224152054351067 
3.240901056605696 
7.069869261890003 
2.9211999611016695 
19.278102321875682 
17.08096446110244 
16.090176497222515 
19.017702463064843 
18.341261994952323 
22.968062907156664 
19.648564014316452 
2.1549019165162573 
2.295149316603422 
4.652839135776977 
6.119094721943831 
4.541480677267852 
5.316214605476829 
15.99474437710864 
17.092599157777983 
6.384638935159504 
15.665982303675808 
10.424946409814412 
7.4031485705222275 
21.548050066341098 
19.699876739361642 
25.875726271020756 
25.44680445514552 
20.402605921482333 
21.489663281665717 
9.183789878633837 
12.824118043811215 
4.90435178317908 
9.017026108731564 
6.788798329099573 
2.477377798359053 
11.031625405501973 
3.4983258997908018 
19.80439578728117 
23.024106046285315 
17.544943250398685 
20.7885052240983 
25.89124172625834 
28.20690908661296 
22.86882631573796 
27.404633803022723 
23.207328566073933 
23.341198132763 
16.74960201890339 
25.1993942162904 
19.066023658482997 
22.752048961225103 
21.631571568004958 
18.0485654948266 
24.90512546936914 
11.177081741565543 
16.455066054607993 
13.135337013403355 
8.709650911712089 
14.135685584174253 
9.294970848034625 
3.14383083576331 
5.065352757586647 
20.163468838894996 
23.303339103070883 
6.378403013529601 
20.588392717336916 
13.172844099421567 
8.008279956994937 
1.856810007779348 
11.664761853089658 
1.9720653091469251 
14.704069138194628 
24.895946717451192 
8.1434732894481 
13.278551986306317 
16.467558394860628 
27.060960619680177 
16.126471215020253 
18.288904605274983 
3.457202280963429 
3.3297133748019188 
3.5388631589202606 
3.4982981038832595 
3.189423302298052 
3.3934375772163863 
3.3608310985630667 
3.821390708247389 
3.4104274270322312 
3.1494242640867762 
5.2692525017549166 
4.569420306793988 
3.6776472412031334 
3.5210444422498886 
9.597010034512069 
8.124503607842552 
8.864538999401612 
6.0443156830571665 
4.454846535490459 
3.86063878041949 
3.551805359471995 
8.757867043961756 
9.99926725190444 
8.009975700545093 
7.517263738067542 
9.511706957994694 
3.15148198634665 
6.476972510855682 
6.196980992983465 
4.883132092171134 
2.698061746177774 
4.136467868698517 
6.7629885520898005 
7.410362517102003 
3.7998224820772992 
9.87762937596181 
14.017446772129373 
22.872489859579755 
13.44679102270749 
3.463038516002408 
15.843092870579587 
23.106773512295803 
14.197178326465167 
17.06400506489654 
14.499229975223495 
14.598812873181597 
17.85724962236597 
12.898129715765254 
5.267241457917794 
14.901214394101885 
3.518405251877392 
3.225070470780938 
2.2153005177683234 
2.347065164439087 
20.80999802513441 
7.190867039593663 
13.562518488891245 
12.836186471850919 
21.59084492545301 
18.905308498887226 
19.13862465639475 
3.551589194758711 
12.648936026975623 
13.045093263661169 
20.397150317827702 
16.643480728926225 
16.613972213726683 
18.7585873522192 
6.773596293927776 
22.07902602871685 
13.796651435923316 
25.971046794254594 
21.648535975196356 
23.928191224929673 
18.651651158542073 
23.72392175468407 
24.239479813933315 
23.249187994484835 
25.346441525113764 
25.141894101379048 
24.844832997748515 
25.06014772547986 
25.234323787094574 
21.506085097564693 
16.709991930895153 
18.11628072207452 
28.18343698489122 
20.63367031479395 
20.211490694954616 
15.589411811604904 
20.693295627505996 
3.4713612859118825 
2.856128505748283 
3.1333359150178373 
2.8029422702549502 
3.4195129039292387 
2.9207269965855724 
2.87104709717609 
2.702586132062905 
2.6460235767351565 
2.2991311195415527 
1.8120887226896831 
2.6911943696277185 
2.873206937696262 
2.6815694616619976 
3.410867248949489 
2.8558522756177744 
2.960067843080911 
2.9752955887034753 
2.981544207791257 
2.5206749464440836 
25.458998676273747 
3.346990361970109 
3.3591845003141048 
5.293462169658387 
3.2246272254642783 
3.8333604776064787 
4.001746719955792 
4.191990424012765 
4.813563272789155 
4.5516369450990135 
4.029896429429454 
7.070796138614515 
8.093761225096438 
7.491107661346419 
8.248552673816645 
3.239317583849352 
5.664372570710814 
3.569657486998437 
3.722298242898634 
7.056191446571457 
3.8761625748812385 
3.8414891507048172 
3.165795894953583 
3.8208366597066794 
3.7635883311643488 
4.456564487387603 
9.151837909345028 
10.215406713642839 
10.468404665358596 
4.004293647616389 
7.535749755494049 
12.717257066380435 
12.103428739466034 
9.714353316143935 
10.652815341860036 
3.173893438400764 
11.35683675235892 
2.9880116995438764 
7.152111016729843 
3.00073580165008 
4.982261947430002 
2.9892940388295868 
8.479318249048314 
18.894086576944343 
11.51584903342037 
14.388954923211962 
16.188507779539314 
15.981375381113814 
14.479478272149569 
11.759376573556354 
14.767889391985735 
11.435798452820729 
22.25175866620015 
11.72427332270881 
6.630369421726771 
17.329760112091932 
2.102337803213107 
5.947556390263315 
13.647901801837234 
8.348254010281524 
19.539515766149677 
2.88573325636762 
5.782532503184438 
13.470143651514276 
8.88468889567172 
20.96276323415256 
20.99942880045455 
12.317468954055938 
2.369293427858739 
6.239209321477612 
4.774663223188645 
9.572445649562608 
8.917860184893092 
3.273335266247109 
3.351661354914848 
5.057532124950174 
2.949267331919413 
3.117469494547747 
3.2338302281921383 
2.9898234272442585 
16.513442312090795 
20.63406761679649 
7.000783144763183 
11.882254231668853 
21.772945107158982 
3.029129796715234 
18.112403243990663 
19.584104209103664 
14.652062613180039 
3.581996994623473 
12.827843654529246 
6.217463111933866 
9.147423061423988 
3.2634522778986854 
3.288003993869088 
4.507691843746332 
3.1767735065456595 
2.7939280430732922 
2.7262420459352783 
3.4687917281565954 
4.08269018872874 
3.2832025344135536 
3.592761622634897 
3.744323671508908 
6.591442583676459 
4.200236401476381 
8.113244261345233 
9.180417877866917 
6.640404235043292 
9.377831693365106 
7.148455796691944 
9.065843836555821 
3.3559201997987276 
7.457233132442648 
6.094206359070331 
6.689623064460547 
8.589037618268254 
8.09639440767027 
10.663744008103704 
20.665261091268 
19.98165054504765 
21.465893406809172 
13.301903921221527 
20.761527450143852 
2.6714503293910035 
2.1659242400995424 
3.008391718588295 
3.159535925494268 
3.2983579398312064 
19.025446095802387 
2.775550813741256 
2.884611311034123 
2.0473594711196945 
14.647022141954526 
15.290468062085353 
19.551917270175974 
14.359416159103109 
13.303275964475398 
12.804331164104015 
9.730593756479545 
14.300582273409782 
9.879176982163866 
19.01316854290746 
12.642369993616743 
3.409238562694268 
7.154446428243589 
14.808786338599917 
6.0426932011328285 
26.433953390578537 
2.8570175121708146 
3.099746422281251 
3.0998595488560112 
2.2775984948406682 
2.8449294210557103 
15.26399958721477 
5.251659631038874 
19.30029954525081 
15.3145934550804 
2.344833632312308 
20.09241319947087 
9.1891596367785 
11.798467623291776 
21.2103098684828 
13.515385975451245 
20.49763240845742 
10.508643603739282 
12.900223879637533 
11.224994013329402 
14.13178699444157 
5.074124512312447 
2.3700317669421493 
16.38558427777524 
6.778701163186145 
3.9347619921618366 
3.221262515119621 
2.9629249695147934 
21.095894546419945 
15.158059989966251 
13.54173221883115 
15.912185095510226 
14.254163409247122 
23.226202683835584 
25.614957669957185 
22.8481391111741 
7.060986791290162 
2.6973937027571693 
12.601511307121445 
5.4098589515674425 
13.565493466424574 
2.584400751043607 
14.79644363470649 
11.84883339155223 
3.4112135715546024 
3.3287365922553365 
3.5286539652674778 
3.7811889628320365 
19.206913267065875 
5.95463648797116 
2.2000293996333897 
16.25385276414196 
2.654503349462402 
2.1427941797439907 
2.63897233347243 
1.8104348946227138 
2.7977309464691746 
2.320793832642746 
5.120132380409355 
4.059546777030859 
3.262204043130221 
4.116816243656618 
3.954961384503619 
3.163355458718583 
5.135673748977363 
2.023209750468029 
5.700875494010396 
5.27473529864739 
5.911862894888528 
10.440817285681733 
3.0882938488024787 
3.6533450732377633 
3.038487169095075 
3.0206015455113158 
3.4246509743035465 
3.4912530141326292 
14.717322919765975 
2.716033369143093 
2.7909121273227755 
2.7621147332072593 
2.648108615328917 
3.37734838862002 
2.725085339696903 
2.7651340661476067 
2.3434123298551155 
2.221896028124947 
3.14745414044213 
3.253681356347472 
2.3977029958595937 
1.6679595916975007 
3.6248148964646636 
3.382639930613195 
3.5129961866989947 
3.2362374937770118 
3.3644443273683757 
3.4546038582772973 
3.221806661633926 
3.588963059030316 
3.75200849534539 
6.02356134180144 
5.242292960838085 
7.104827512197576 
3.76333519946065 
3.533577026972716 
3.343958830601601 
3.593273840388554 
3.143913366995854 
3.4666421249957304 
4.7677038050021485 
3.36349332145464 
3.5068463755610235 
7.366401141600231 
9.213731488520656 
4.578489094357778 
6.873272725382942 
3.461727653195018 
3.783835038182486 
8.204110769568487 
3.529717541881259 
3.971199861051304 
3.675349562359319 
2.770994531021266 
2.5594924340912604 
12.177839527308247 
5.768331519367611 
5.2414604634395285 
3.0892013641421774 
3.2041559092601717 
4.008053477839522 
3.2283721105790253 
4.599248323482248 
28.212203839536787 
31.963939155580416 
23.322006309935034 
18.094663912830388 
17.59426811302371 
17.86011459967084 
4.753500065383757 
5.051085721046697 
3.9447242731075836 
15.972973829186031 
14.977989014655618 
13.382583516236254 
4.072221498263259 
9.380500934616899 
4.203330589550104 
15.865811001791043 
13.850213731110914 
9.212466210587321 
11.069460481050642 
12.679948156231678 
14.042644048513235 
16.22207784639846 
15.237070037316771 
16.161336045313124 
14.39213852889339 
17.780178150849018 
14.285002020942137 
5.229032199188999 
10.156355128743222 
13.316106952768187 
8.608548254597318 
17.013544856609226 
16.541339317701294 
9.625251162106418 
17.08715896596834 
14.165894065159184 
20.308542481124373 
17.326983689061727 
17.060854222988613 
5.34978447927253 
3.0304793681764934 
4.1301127348344835 
8.718625904148363 
4.643356767489818 
13.131200945124958 
4.44092392841288 
4.738069882003641 
3.3839044777504994 
3.516116371832305 
13.038706851780141 
9.33126607414474 
8.877984023961604 
4.768498100393194 
4.146390834453872 
4.280707456355471 
3.92263751767062 
6.49563733555555 
22.876509676854184 
9.057176925046491 
5.231154040813771 
6.841382554987889 
7.60535459432117 
13.983612815142465 
7.329922274430215 
11.746794911463915 
13.125066819144285 
13.641034090250876 
19.10178562151696 
17.30404826655462 
19.745382908588915 
5.117832968044097 
7.873295944854455 
25.067994498745946 
25.497880917318504 
19.502875206678212 
28.68812203408003 
25.082104436473845 
6.525158289922256 
4.2456306547733 
8.472388858479722 
12.595343770199285 
2.83440067460651 
2.2817084069514886 
2.0892565819766573 
2.307340546042016 
1.3954710879326713 
2.773878388130249 
3.1889288880819397 
6.279235808753626 
6.442912269837721 
6.079896246942979 
2.4617174964956967 
6.395448987065618 
6.661715662810493 
3.240267090227371 
3.771925496252685 
3.4745555840277245 
3.7890175909870476 
3.7673132082611813 
3.2576177971032334 
4.0042030295848345 
3.6473537601031807 
9.138799777985733 
9.260342718601866 
6.908094425680036 
10.878678374277365 
8.376304138469534 
9.228865175922367 
9.293359619925793 
9.208369508520233 
12.457967093640809 
4.417680868137179 
7.300297381321099 
5.660666212462058 
4.27502422142366 
11.135272833147239 
6.939681689101755 
6.861173167405052 
4.059180672105862 
14.199509208715218 
8.84892850777739 
13.142800220119984 
7.820678398597059 
3.5472843080890146 
4.29576904914224 
4.016109144994415 
3.4399716532898417 
2.5578821528070397 
9.161638646842055 
5.551421167861528 
12.141510260710552 
15.657547058281361 
12.933756316768246 
11.734512938186507 
11.14921506944813 
17.300313233502923 
9.63308568738759 
17.780248830313198 
16.538156898683734 
14.312374564512576 
13.563818090030182 
10.457827747516243 
6.8747833701446615 
7.709299304868792 
6.213701106543197 
4.135010555218399 
8.978681660386725 
4.379836161462974 
3.485530585651812 
7.7620892865279005 
11.423506071441286 
4.748877609623007 
5.341217710093237 
5.676475753686249 
7.128220444919119 
5.088600387007517 
5.349079377459061 
7.193766799154327 
20.422598147192474 
18.69433721905787 
13.903891763989868 
15.967436019120697 
6.897761616673578 
17.512781196201114 
26.46400921709349 
25.45033495091055 
25.14110006718297 
23.845191458528173 
24.0788688679291 
7.330775721593658 
19.631377169280743 
5.211924640655816 
7.630079214820266 
7.732023182216301 
22.10277643947057 
3.4365754719651913 
22.634383661664923 
7.963932260569944 
17.170707494911596 
23.925627507654998 
16.25802212230469 
22.207340933244403 
4.00468033948289 
19.180431777627177 
13.320418584852701 
24.396657143307692 
19.18426681534204 
12.839975655175742 
5.150748847957518 
4.166897544460946 
16.414833217929605 
21.79870064025093 
23.265497665201565 
22.15838624481766 
21.132653136598964 
5.991518348993266 
4.868312574780479 
2.1993118096384294 
10.546766719038935 
16.214967309154574 
8.472207677553477 
12.86566017710419 
13.35170767989354 
4.059304060296166 
3.0334938785963934 
6.210916191741124 
5.331210976128152 
7.234766927080712 
10.192111915621256 
10.838495520735288 
13.251273376394906 
19.850411885459938 
25.34402935694101 
10.500701977213282 
15.585712073206137 
10.906326301070193 
3.0320009996795187 
2.9895980205777977 
2.4580736104095764 
2.817063664950906 
2.7432746795533083 
17.805565852896777 
2.4940532173973695 
2.372337733978877 
3.84731831612719 
2.9761081118623096 
3.753192282075988 
3.348305405186087 
3.7674016306088856 
3.1154892727319274 
3.9803760713592378 
3.4754214328433513 
9.270982006888186 
7.298844721209179 
10.790664261094832 
10.027871848432671 
4.756868210030536 
8.49608941843115 
10.644415911298989 
8.253023538865941 
10.290109447175832 
5.941818910506743 
4.2670045429122085 
6.847096479175812 
4.286395809560155 
4.09957628013907 
15.451841302867074 
12.879120213200293 
17.51447898736812 
10.766603649922946 
13.767297939318977 
7.211464641696716 
15.874141152465446 
18.64512251195969 
18.517885902718533 
5.011120653614916 
4.479906987478111 
6.9769859563966365 
5.2446174552687586 
3.5557032134707462 
6.754209625023708 
4.812697712783156 
4.680414517258749 
7.248451952374592 
15.436186535619457 
17.08459662857934 
15.038042643475741 
15.81121694113105 
3.0038614237360837 
15.560011534469552 
10.128909294632248 
10.637038508910003 
11.057529224669384 
15.776096705282711 
8.102143334918946 
15.792476526429551 
13.77139857905165 
2.427967872906187 
14.280095893662738 
4.709379896364395 
4.162697779331238 
6.710532632802323 
9.745285536470208 
15.835720237327584 
22.10190618493259 
24.430888919405557 
24.26036175076326 
24.61453075886251 
25.17635103851519 
24.941890564015846 
24.040864880930993 
4.766766095550465 
4.712708560946815 
4.948425760839902 
3.3613140347010244 
2.8081570122258417 
7.093742620003147 
4.234017021824915 
0.8883996697744021 
3.7114084888438006 
2.909298128155716 
4.535278992772952 
2.5285221435624856 
2.611440062207439 
2.5008602408873712 
2.522113297207829 
1.8573582364822698 
2.029478676406738 
2.6078667362918773 
2.3510119642610734 
2.516260511810741 
2.275522116887244 
2.809623989333937 
2.544515639256499 
4.001728788742213 
6.330469773702588 
3.7268635170137925 
2.809782871076822 
2.871353400900462 
3.346090323038755 
3.218986746791975 
3.115711444953619 
3.2614863352647356 
3.8842965620008756 
2.881242771643975 
5.235237432683281 
3.9077151976976223 
2.513068844460553 
3.5305475675400784 
5.702985653319399 
5.404520660711977 
5.405496167613789 
5.7106827990118445 
4.641525334999006 
3.3340922838014655 
3.031717889683153 
2.8176783492736877 
3.215058362602376 
3.0504597401208375 
3.3929154894303926 
12.31148632087999 
16.113173590977826 
13.800861589664894 
13.46497432819256 
13.808151721211617 
12.457074982222618 
14.01828495548978 
14.002243353767046 
2.8746385466075957 
9.713433160708126 
4.185502432262435 
10.724490614533057 
11.057739249390142 
3.6836281306643612 
15.254848418856243 
9.599372490009006 
3.3892461561030287 
2.2579651960415847 
5.322755813691101 
3.7077706420089447 
5.226759417045569 
4.5412567636144345 
14.679604617718903 
7.352008581886565 
5.76202732524073 
18.46032757531641 
2.343155195112365 
24.302193159861762 
22.156565341886015 
19.985033099712325 
18.149479070013253 
13.355894587141036 
23.276028604814464 
21.061948658899276 
20.423041778022803 
21.31971464701013 
5.40283675633969 
5.9713369976249115 
21.52436663136561 
20.967842929137426 
26.969134694560182 
19.931941161346604 
20.748216575190344 
20.388571806983574 
23.39009527431637 
16.944042147745222 
16.59606894352872 
26.077126415533098 
18.66181940081356 
2.9104584045330006 
3.850806754714696 
3.6943525724926354 
6.218310507946951 
5.718948588673177 
4.382825015010062 
4.986048744094406 
2.8928091425720335 
10.669742547805908 
16.055857308027335 
3.15847981886991 
18.803234255787707 
7.9781974309808525 
13.403913486467452 
7.080758797687983 
1.5929315142409348 
1.7144083097955973 
3.317758435801309 
1.5694268263682287 
2.8916604288914196 
15.50751163117214 
2.0611114086513136 
2.096582374155997 
2.531294021057192 
2.304483024654514 
6.955940755346338 
11.951735782452895 
11.803702324359032 
6.99131188693552 
9.722670408288248 
7.799531078155146 
7.613826743535778 
11.260095484193398 
11.40108965775109 
12.826671659084349 
9.183912966097292 
9.273375076492407 
10.296923725931965 
8.899167773546685 
9.452089043212046 
8.520313618326986 
21.861692310635565 
9.310801522313088 
14.609125589863028 
19.373971950300163 
20.06610832417792 
2.515504587306325 
3.3146446553059383 
23.229049767108155 
9.242583603521354 
3.099144279910029 
8.746135520685165 
10.577379083637078 
12.321875560474133 
12.878573285591099 
17.57147743182549 
17.950942470153045 
14.516864531646265 
12.812051033587826 
13.210720554131425 
19.396188894347034 
19.538792824365974 
6.80218898190061 
2.294105474331744 
2.5956375630594835 
2.7281512999418833 
1.7779515135659598 
2.199998650851601 
2.8495002996219982 
2.1843664695780016 
2.2605859734407807 
2.8587156620937133 
4.219688979392 
4.562828067303767 
3.3050141493008733 
6.071675913279559 
4.539293142839066 
4.776165516133483 
3.196491818377963 
4.93733085605028 
9.157433600095604 
7.3226844862978915 
12.671374101199467 
10.485995753881594 
7.7393863820950894 
19.526896247557076 
16.37583375417287 
13.622422533823586 
14.273842862461974 
18.968477347184127 
17.62965860632475 
22.45660375407816 
9.28267367138772 
27.114519609387052 
27.542082856289344 
2.659601561891437 
3.8358097776505717 
3.6559964825791464 
3.5099523380475763 
3.600797516797669 
3.3776414594229873 
3.4485439210313618 
3.2002168488514746 
3.351213602839348 
3.311061942817284 
6.590589606899171 
9.897443929663247 
10.146508282958754 
7.415602338738034 
9.90140041586904 
10.779372691338256 
10.474166288565305 
9.619652044596352 
3.429103733196246 
3.2705100430734273 
3.3033668682440824 
3.1142858144572223 
3.3386443170983537 
3.006759580425086 
1.4264612238200045 
7.027400409401707 
11.996355656102681 
4.1822313039703465 
3.329921149590279 
2.82161276382251 
3.493836889605113 
3.1644757586695014 
3.245895426900162 
4.243653950787667 
5.082305693799955 
4.0818168743088785 
3.68140898427214 
3.5653654131980383 
5.943003049802855 
16.209880770503933 
17.68044139757828 
16.14627896968957 
13.450092353754322 
17.124030542860645 
15.695321460629744 
2.718941343876313 
2.9537543749836335 
2.8545266864013796 
2.7887740368055307 
2.0128788663982093 
2.780047500556214 
3.009431952585842 
2.824425191866038 
2.825487027557271 
2.9963690649046337 
3.050063971996846 
3.072443764892002 
3.0984628645942767 
3.1154938190260366 
2.799951555133791 
3.3369896035357396 
3.152422097859243 
3.158137708167082 
3.265192772727267 
3.3969163511322655 
3.9068470074554433 
9.430552848258323 
3.3866567125865283 
5.1039229709505545 
8.643704683912462 
7.1181087942381716 
4.238389589618109 
4.663036128217674 
5.395855380336629 
6.752455703262517 
14.521316579870584 
9.025132677777599 
6.9433053500635316 
3.432025586764524 
3.364617265621567 
3.339416470149999 
3.8463053254746584 
4.692588230356915 
9.057535961919106 
4.126914377976168 
3.5562451932303265 
6.906328385127361 
9.348565821407554 
3.1817750444582793 
7.883163286954037 
3.7481067893498508 
3.7788964265222567 
3.6139990140935616 
6.062945814171861 
11.893613706360087 
10.153333797495776 
7.88459230396371 
11.01072669929952 
12.133438494400526 
7.249240466441015 
3.412638476719637 
10.193992052155666 
3.8661993064718345 
10.784444582689 
4.146936202930387 
10.224323292297369 
2.606996814559645 
3.5464647831833616 
3.4570400785944817 
4.360844905055122 
3.572368277359028 
3.230430754319378 
7.879365816880036 
4.433988548385127 
7.065203890763754 
4.863196807608557 
5.158939133179555 
3.376527600809072 
8.977505002220896 
10.579718074147802 
9.233184729749551 
26.247632320570034 
21.725160716825073 
25.0739514447138 
24.229895711675308 
17.21472894646112 
19.227953209330288 
25.717271154433394 
9.147067265899576 
4.873539686018821 
3.9283252946651213 
4.3401952948876845 
3.4578783056771467 
14.955510045984623 
7.153706947952054 
10.769449696434586 
8.03318073442504 
3.629020080724527 
12.163648853131942 
7.334360279889308 
18.015129363038668 
19.77553625613039 
17.04912247643911 
16.857747461385532 
10.428782627442697 
11.672284389918811 
15.015502887373813 
16.302893953357238 
19.252939928443908 
12.969267593672718 
16.814072271045585 
4.756326066814719 
16.194457176784844 
16.02069068759453 
6.21757359503138 
9.132044984840435 
4.218310798253457 
3.6082175829083756 
9.629305948815487 
8.197570767122698 
7.8319939875644655 
6.564110454849386 
3.2799329304347404 
12.441585222146818 
3.9930335081773554 
3.9575259121678763 
4.078377399927432 
3.7129373323528427 
6.1524225105360575 
4.5720742184458905 
6.099788187301394 
5.009520577500998 
11.689186317598438 
4.999934376822849 
23.537049530707385 
2.753614040922913 
3.457589916382362 
5.881738293557178 
19.033269613957398 
3.4882841631078834 
4.736538622918339 
9.319671602609858 
15.923460466875481 
3.9636330104628974 
11.943497283996875 
5.793380783515305 
5.133310297701351 
3.926590485803498 
5.026314234162326 
5.218055614760335 
3.5335805076821027 
4.255109315948787 
6.927696846206273 
22.30087114249645 
14.249106461515458 
13.676501031306005 
6.876534391456577 
2.327653299667385 
1.9068716188949257 
2.7705524119982834 
2.3849938872205887 
1.7049990741938565 
2.0564167497885393 
2.365782190197924 
2.6582106104263516 
2.0824409177661987 
2.2183730347584407 
2.1004079403556166 
1.6755047910076923 
2.965316707092808 
4.329463417735918 
3.3051197070995206 
2.55776108176391 
2.1457686377883034 
2.6456717011132955 
6.347098073841884 
5.150328162136478 
6.581999272085092 
6.1777500905295195 
7.607510636536198 
6.370347749066743 
3.2571108399450495 
3.2762623116725975 
3.2893999669116822 
2.681766509470728 
3.3844406527574473 
3.530402822507117 
3.119068500391306 
8.232684801732688 
3.7454593769417017 
4.173532799044811 
7.56482669507401 
3.779211110691836 
7.632171753597785 
7.6684924593251695 
9.101469173273296 
6.436334795096817 
12.559233662735652 
3.901852454892856 
8.555502225579328 
6.2113458612592565 
7.1676720245580965 
5.293818573921051 
10.578494490868167 
8.393440632539876 
2.9403900832962684 
3.6997965408495 
3.9050732408513755 
4.83302673494322 
4.611701116940816 
5.991704175491403 
8.764181971687224 
6.538899280222128 
5.030089259039405 
5.05044250156588 
14.858088076672514 
16.702965088318177 
15.466966215510157 
9.092022215106617 
7.556746529058152 
14.218628489808166 
14.993589232961817 
7.93563345459138 
4.127147185314919 
3.4437926167293846 
15.599617774145308 
3.762644266722771 
3.4432085249352444 
4.658392415360444 
14.972292731675074 
10.043028836710457 
6.802485982895126 
20.11201096391713 
23.222776513951946 
17.432034030068017 
20.19792434455063 
17.91591035771367 
19.633088648228515 
23.704197806600074 
15.912174856230507 
16.28188299839103 
12.009332441024613 
10.955849370173818 
9.578763578706955 
13.232331110412362 
13.297307147895966 
12.118165870635396 
24.55079712661914 
27.948847992002406 
23.207639382729326 
20.45263016117256 
22.74760937234008 
22.303522906819392 
9.84475284143084 
8.85517077023793 
11.129464031801879 
4.198563196697107 
4.1603359654971985 
12.291570133769024 
5.608661073636662 
22.13022810951013 
10.255182445800958 
27.79626563470786 
15.061564101802135 
13.014087497360874 
12.91373875168453 
8.469435076257993 
18.30605863961034 
26.700270923938955 
16.877019747731143 
16.659327423645056 
15.925121914143586 
25.40083190288502 
18.092011965465915 
7.562752955546604 
18.991511665363376 
18.80998187230934 
19.65729361968876 
13.944886193851344 
10.525569477037966 
20.724608237292454 
16.555683987251832 
16.324813791200263 
21.58036108116465 
5.945473169586192 
12.081737166516119 
4.2488931662466305 
5.325156857682386 
12.623299488442742 
4.598416446349102 
5.122927675179124 
2.850092080246579 
14.100786836073109 
5.629921635657157 
26.116707557113582 
19.328152064464327 
2.827414493409957 
6.690848080131725 
10.18157062726349 
19.986981630878162 
19.855235252902197 
21.99380270331185 
18.22874444176549 
19.42654350272016 
20.12632538045591 
21.915938608350423 
23.248808108313696 
23.513120207444405 
2.1526794374416522 
1.9968403380992887 
2.946828926782458 
2.641776132140226 
2.522676274771505 
2.3504516017602266 
2.626301632053542 
8.956083500266272 
3.129344011763604 
3.654284063057893 
9.08036998775484 
3.2074389316219887 
2.9551458971058713 
2.7065672946729613 
3.4349984070438944 
3.924428438406118 
3.0665504740156204 
5.9096279664488 
4.929833948956459 
6.729496805674989 
5.992388780656336 
6.623317674811273 
5.632470957570533 
6.855523339834883 
6.441875143531321 
6.100158398700311 
7.138891797855179 
8.66754872080776 
7.352135047432065 
8.437446782593408 
6.772971181258571 
8.398536641256472 
6.347540384989269 
2.785798788783599 
2.4859385197326063 
2.563110317287456 
3.136745909568788 
3.7924299723414334 
3.947446521932247 
3.4161492268191704 
4.049455058505351 
6.360020151520458 
16.126822777975363 
19.449384551336358 
15.269279596028275 
6.319336389360025 
17.24325382727223 
6.858003211328386 
21.896184469501023 
23.608606472970603 
16.664070707220333 
22.037360958032654 
16.589361775149627 
14.530010376408404 
25.187941950390403 
17.859316569743395 
22.408569514301607 
11.93650290470513 
5.33804742960277 
4.1108405469613185 
5.228498665117091 
4.630736102028517 
5.437231355651094 
13.249766312831381 
3.0657067545107206 
18.29144305259749 
19.789850775147723 
5.960896146834684 
5.167035339547984 
24.741687968402914 
25.485524027500986 
7.885728313573801 
10.526646689312606 
18.520936860071505 
17.081632750756775 
19.367541868799844 
20.786545960313077 
3.777938832778577 
8.65509282500994 
7.442626490624634 
2.318365504670459 
2.3254465365801638 
11.272507103798175 
2.05918653153984 
2.674332177716675 
2.5467962078711723 
2.5372142395854205 
2.815309413711858 
11.169888622829776 
2.362834267453446 
2.424023123852331 
5.238112043432699 
4.226771107266123 
4.6392925969586045 
5.690058630983454 
6.290327668252751 
5.885695110887999 
4.396291519861149 
3.4004389107281874 
3.3000253682525127 
3.5925486098131225 
3.5736711311707468 
10.8397700579986 
9.65871689488606 
11.775925810510047 
18.92552872212824 
21.13988936017879 
3.193958716213786 
3.6240641486073857 
4.074809078070472 
4.246962450798571 
4.645290824176147 
3.538366148903784 
4.007177840697292 
7.228103975627698 
8.328126655455415 
3.296081887707299 
3.3870831216258668 
4.054433763997742 
4.061460880760369 
4.776405000720856 
3.8090845361843164 
15.695746503218528 
15.301741713501574 
15.234445024829983 
15.242048618563834 
22.38024419174541 
6.602577289317096 
2.805417797106643 
14.954107875642324 
17.939613358370302 
21.408780879679057 
21.53379335289431 
19.165306402802457 
18.873225510934247 
19.612686512605386 
22.34168478926 
22.51174502479075 
4.51812528138194 
2.694730327348017 
8.289937055790638 
8.15085832980117 
3.357608087378519 
7.94321625959401 
6.500592987233307 
18.079761842826546 
9.443633141913867 
11.718361513979875 
9.058134467918656 
13.364028442945964 
16.36495800161509 
17.76392780575835 
5.432759163144941 
18.98320142239643 
4.297608819713886 
7.051568793838477 
2.9470281516843446 
4.5059281482156495 
12.727145333827725 
6.935806301156302 
3.3781440886189684 
3.6007744083090993 
3.0296667671070963 
2.8712787194613125 
15.808181932208115 
15.960155976211189 
15.763109382248857 
16.562687582894963 
16.563860803324307 
12.580234613014088 
11.266455884161948 
12.718830984919274 
14.745271214785449 
13.386484699580777 
7.168520752999033 
12.684697915067357 
10.973152002841463 
7.338736853195787 
5.5102229316699045 
11.191638662053673 
6.404050031023404 
7.529183852420249 
11.343800330958926 
9.851423731332602 
9.429938608273375 
9.941774512504635 
12.18839301648423 
3.615823914659315 
14.194720619443805 
5.601485801125874 
4.803690283039862 
5.066131127041962 
7.295831418654881 
7.084637816858664 
6.026166954678489 
5.832628057932965 
14.94666089372598 
16.919764223585542 
13.902317942332843 
13.345429334275899 
14.46162747647347 
10.416691010090192 
16.048540325998992 
7.280136895086328 
2.909463624984782 
6.4567085361877625 
4.197965978185781 
8.528763214773932 
8.502016786933288 
6.096982268010896 
15.360411145374663 
13.555140930727138 
14.041412224845525 
14.450073891367754 
15.856418845509795 
13.479023672200091 
2.3174893247623354 
2.2590453253565386 
2.2683861812399733 
4.472879661863192 
4.434525732550778 
4.428435816908875 
3.889999362173877 
8.233204567593548 
9.815935983785803 
4.325795746120973 
12.351246092243516 
13.052545099149082 
9.130035936046191 
11.605966455015226 
8.140002960387408 
5.726194148940373 
5.8566440388913845 
3.427582063962648 
9.615602225903967 
13.847158285364197 
6.301664238993657 
11.49935752581561 
16.14783650459998 
15.512375742059028 
16.46415064770103 
19.516658975861542 
10.449598271584854 
18.30417505242918 
16.932464460087555 
17.299243365714855 
22.526947168602657 
9.193870283147257 
12.666652375796255 
16.823485697530348 
11.47358805271853 
9.005316581244067 
9.044906098585026 
4.366733853017628 
3.2783476174279866 
6.0084919981432305 
22.813223917394016 
1.5119305851392253 
3.583813168004845 
7.240194503039933 
9.055416878664596 
9.017350444713191 
9.637462565897177 
10.99837857795412 
8.471499175772786 
5.527296898036249 
7.029515340282774 
19.981060540025226 
15.280950029238218 
11.687907883472178 
15.962457627494638 
16.177225020691377 
16.19693255295842 
13.916654670920925 
10.69749307347373 
10.572399069549007 
8.140822553986443 
9.997564864151533 
9.138121141577557 
9.837332774502503 
8.493821646651504 
6.959903289917891 
10.031261999970537 
9.21060201464513 
3.828470881382693 
3.8263736893379225 
3.2070258773558065 
3.5703880350680683 
3.3185608794800148 
8.381634394380809 
4.137860051933882 
3.35475973507283 
10.93794257693302 
11.491163816272968 
10.946126509710986 
13.150526134200216 
6.5786843905248835 
3.1616312907801145 
8.131583221248338 
3.1639007238414316 
2.498763362098665 
1.2537790744436672 
1.9105860951991969 
3.2775578310675435 
3.39842593711984 
2.725767146758179 
3.346562300861962 
3.513035784064115 
16.47648474475873 
17.1723021622972 
16.997990242606313 
17.090342083824634 
13.588412683212923 
8.02106634816657 
18.711392783608453 
4.722528484831347 
3.937106605673746 
6.171060579614492 
7.624514284882479 
3.1122728536965516 
4.486406906716371 
2.1726750154288887 
2.814495734122386 
4.431620909761013 
2.3442714794245854 
2.171722668675509 
2.6510925353288477 
3.4336832557784636 
3.540511290598922 
3.143082016875541 
3.4468412336825667 
3.479299586289368 
2.7333262327399486 
2.920757981324541 
2.6031917727945006 
3.161656743264102 
2.2478816095652876 
3.2027718574442265 
2.8096089081551696 
2.775963351749516 
7.697450689543484 
7.529928714218774 
8.713408229713997 
6.430514483735412 
7.406414068330289 
7.2339432599604825 
4.802595720497507 
6.585238481211331 
2.8508863963568554 
3.554450781799479 
3.419697550468905 
3.254417331800451 
4.773793646852684 
3.220513122661146 
3.0612104088896688 
3.694607235729009 
3.5620943519145416 
3.2032427680963886 
3.6652293897850208 
3.8686952738109635 
4.258875480496278 
4.067342446575452 
9.59491356481311 
8.998226748808154 
10.076799706859518 
6.914908636059012 
8.926987274528964 
3.7956009862337727 
9.375004245721206 
9.07689042770423 
10.076244375416112 
11.111413481271308 
4.834196812038002 
4.230599228652656 
3.9328488358300713 
6.569110470322483 
2.981408255583888 
4.928626237177318 
10.152049776645239 
6.198817239866606 
6.826052750200411 
3.8148914411433226 
3.134597133783348 
3.5405429562682804 
8.210078389220296 
10.99144556187864 
7.7175635617477125 
10.235380451269588 
11.083464545396769 
9.14447799870321 
8.755497232160492 
8.98838944771663 
3.622599658639566 
3.735948163369256 
3.9188424593802846 
6.516350424904821 
6.242613195802718 
14.493102425895753 
17.97055318682623 
17.968268868240934 
17.88594162023272 
11.585235943517258 
18.17500281169736 
16.245489077991614 
18.653664716814735 
20.34866455607561 
17.432281377102594 
17.700085839775937 
18.766760518341744 
4.057547428973225 
9.575406968973173 
14.693705234992834 
3.733231677722291 
15.577853484711333 
19.046448894473528 
14.795862853826451 
13.206403946397483 
15.259337421234612 
19.449890102396537 
3.28149879626411 
5.189332372873757 
8.511697014240667 
9.202464607441499 
8.431506469355972 
21.52187501182736 
21.79948591915066 
18.242329740689424 
21.654179390561442 
21.40139221010436 
24.134385193446654 
19.49945997390565 
20.86232418141183 
15.027050620936839 
21.504492806221595 
24.266787152139912 
7.0648538709028745 
8.17637045892148 
4.455403668766493 
3.225144636165549 
5.309735447056936 
1.7012333596163887 
18.9574259754746 
3.408885345254001 
16.340312886502943 
2.818078607590352 
3.677121171697678 
19.833084567454154 
11.961935138873367 
8.446385481787162 
15.17506317977917 
16.705848486558555 
3.8918496651900156 
6.950215795362184 
16.466163883855472 
24.625096546507823 
19.66576100831447 
15.860796551226974 
2.8857953145848843 
2.6368126488435877 
1.8523767346262925 
1.7837765789982174 
1.3606407514866332 
1.6040212327827517 
1.7473325151940424 
1.4402579831619355 
1.682610470027473 
4.188425357982605 
3.7722517878621975 
3.743628597590122 
6.498041644995816 
4.851645307597836 
4.250240939219819 
3.457847288400089 
4.477694456792154 
3.8376778003184047 
5.602364051921791 
4.140032539406577 
3.897751480869745 
4.670295444619872 
3.064584294624915 
3.2163727169891048 
3.1234617935962556 
3.6105777022602297 
3.5215527237330964 
3.6688195632274216 
3.806144792412052 
3.4276461534597438 
3.788227661044957 
4.246309782832388 
3.585739690554775 
13.546225088191662 
13.509944769483873 
14.11428397558585 
11.869953999756646 
14.196459095248978 
13.933152590299342 
6.047491445011282 
4.450175956880742 
3.3672141974032184 
8.983184549944609 
9.126447490916535 
2.893041062666755 
3.2385979486186356 
2.6356827787083414 
4.102542395746661 
7.77277003169694 
10.273715469783836 
9.304970133015887 
9.41943677860111 
11.948040195277683 
7.685927496970777 
6.198606567058784 
9.67612854478347 
4.919589186862632 
4.7333084830774785 
8.267403872268318 
8.42840616537715 
7.528913032621682 
3.5160405510366917 
12.962265420289786 
15.6190316603438 
13.514329339268993 
13.076149532257384 
21.338138744252547 
21.324136806828314 
25.074872756352345 
23.650518898688873 
19.551185940008864 
20.106824927163473 
20.362236135425995 
3.0410027383665703 
23.236388973985726 
18.54663008085433 
7.540563592207254 
25.202148451973198 
28.20887577542261 
23.878717416893913 
23.324194589081376 
24.21873558245208 
23.82965323736024 
23.850340985458026 
26.449763216274985 
23.05882958907005 
10.138994119185922 
20.087188427707993 
26.084993640097537 
21.029276101777363 
24.460954131531686 
11.207817478719655 
10.427151418319726 
15.873398318966393 
15.83585466925445 
5.760274642812669 
4.798011727334811 
8.71356185899562 
15.222900297883536 
10.66838811296641 
13.615747146831758 
6.9950434222835005 
7.358905799963394 
7.021037585299596 
25.656625877337582 
18.585110076055358 
25.933541989228484 
6.897003701204263 
29.63099633604485 
22.69781818447778 
26.85960712289363 
29.973774050349803 
2.8065456178937525 
12.974533102701185 
5.070418237590096 
5.871985998106117 
22.562324518255192 
30.74387898214155 
3.7358330111564744 
18.751224468648978 
7.1483725289085145 
10.618967394217849 
21.52702444834093 
15.063444614364307 
12.620611961401787 
22.33193452214649 
22.940739373754116 
2.9916911160910877 
2.9556794970285476 
2.4555441752116245 
3.202226361880251 
2.0786792949646515 
2.2044810778584667 
4.784397126605599 
3.2327051026305154 
3.3831926779997636 
5.088958424418721 
4.428105020527015 
5.754484870263482 
2.8012588250496404 
4.419178277695076 
4.345314959060745 
6.080573674198445 
6.237520550414549 
5.470884631984554 
3.3784581745086992 
5.05002583124899 
6.269990064397483 
4.282111259542702 
5.833366787179089 
4.631099043214398 
4.385467586171226 
4.9970543719394485 
5.8132801212103935 
2.607278373815474 
4.106484400841526 
5.558976506810573 
6.103119062861389 
3.019111839183154 
8.073667805746089 
3.6015766466651895 
4.316428115398253 
4.677057702443955 
4.569779628655496 
4.374961759051646 
3.532538133627057 
4.36890722310789 
4.052646847981698 
2.7648404566791775 
4.017376927211482 
3.6838960442224433 
5.026880238547658 
6.932953658677621 
11.35855445175026 
11.615092763258316 
9.992222603276135 
15.358981466082943 
6.377721719808683 
4.7438202978741 
8.000254075253773 
5.7889900436504425 
3.35279152228046 
13.422162096478841 
15.716603477938431 
16.86610110497141 
10.963782755908719 
3.752885209997574 
16.256481457903245 
11.581518029925748 
13.990747737567727 
16.517432070397632 
9.606510524456676 
13.806733023570539 
25.776684505583745 
22.182521367424897 
21.96080424202465 
23.222867011586384 
18.206897708258506 
22.24618416367395 
6.912278884173609 
4.676955953515437 
5.2095749583881705 
2.988607386052564 
8.55440685738534 
3.2141316634927373 
6.019196996106372 
5.46855202651927 
16.019533330726254 
17.808935053931652 
14.69412584868989 
13.185250280057526 
13.04320785531885 
16.453659307357377 
7.461980848340714 
11.787726542768706 
15.25306720366702 
4.231570375334644 
6.521541090149127 
10.79949046837026 
15.963317337745309 
3.027476312440086 
14.29953673129787 
15.918428379549598 
18.248641437792337 
15.5041789702231 
13.76703843282735 
11.535786698332831 
2.989719989548849 
2.838144608617562 
3.422110544432619 
2.766249177256914 
3.302548921867001 
2.5203196307180145 
2.915820015603045 
2.4033202210660956 
3.0844235242423363 
3.0076626704746525 
2.1758723608715482 
2.897821897224316 
3.20974875312027 
2.5506966994566116 
2.982333519380944 
3.380271864587887 
2.8265804457737738 
3.5259607572584066 
3.5243378657779596 
3.3581575728627233 
3.4257166784497133 
3.394199544271397 
3.367989703596774 
3.6201421276895878 
3.2243889828399217 
3.2438186305150274 
2.954206289647374 
3.504717177713034 
3.550550511400939 
3.2806868210619244 
3.0450216890118695 
5.31022288245354 
4.738678331668927 
4.555683217994083 
3.4618176640872993 
18.009789518985656 
19.465727196027448 
4.8364172224808355 
5.249144851285887 
8.802984631584701 
8.949343160703934 
8.84781025334409 
11.516746924610805 
5.3400344866705245 
4.911998112175863 
12.315624885346848 
9.282357129304458 
11.516324229280364 
5.294462825129578 
14.665712126582228 
13.293934456633835 
13.438091617252338 
12.366839672972645 
4.891036103511594 
4.303021458117598 
3.535382174531334 
6.142158691900102 
3.8209480345882345 
3.549810619963152 
19.10041307131593 
12.640972277495159 
16.996994473558807 
19.456502464293944 
20.10779990068166 
8.197459157875933 
10.312421556267699 
19.230432968999587 
20.07925514515084 
24.737784149735017 
16.4253788092766 
15.54094449220962 
12.529228136844367 
6.002026369777452 
13.31482448998997 
4.500159207099552 
12.386303201348083 
3.330391703715734 
9.705953847156636 
4.567250621050859 
4.823613526586396 
2.6942986121560435 
7.1834978453323135 
5.104668541921603 
3.871085870807741 
3.7750878941183212 
3.726125967765219 
3.0502323441973096 
3.9456885644359865 
4.597822403194067 
17.437826674185395 
17.352577604480743 
17.651470017643828 
9.455897822785062 
13.015452711894465 
6.018609377448377 
15.009647146065474 
4.9240709113893315 
3.6514195062370463 
2.9165511325085496 
3.6613280583370296 
5.750094641216992 
4.802140141377471 
2.6970831466396117 
4.211965375150555 
3.3924519084386477 
3.4194343932922058 
3.743285642124702 
3.59905788626899 
9.454741938825684 
7.818237975901621 
8.582188286261621 
7.8720690303328675 
6.14514373049448 
8.29089565406161 
8.18993538421736 
6.852422715322875 
10.706501956972694 
7.321446445939836 
11.768133129987888 
8.437206395895172 
12.725750658357473 
11.00823476102859 
13.213890870351603 
10.278488255785264 
5.945616303080111 
5.238749818546224 
3.5647642355283837 
5.099639813839692 
10.17088758747268 
10.610847538577218 
4.187037007971382 
2.254580094932741 
2.340653182830065 
2.9308502211227694 
2.873646940816569 
2.3732950147252 
3.085528885090147 
2.9201207114803305 
3.9795366684152635 
5.920093093798371 
6.00048811048353 
5.652477304425668 
4.412216322399393 
1.9066290696775852 
2.826471912405744 
2.2416305933271365 
2.515872697460269 
2.335010501163954 
2.152650543532496 
1.965311158078548 
1.5171601764468479 
4.477308514864994 
18.456652060798824 
23.3000731362076 
28.384117169976374 
17.10643918654144 
23.169403020972787 
23.151927873662387 
22.66226077733132 
11.941624124131904 
9.487971190161273 
7.2251683665329 
6.906442488033447 
4.172837600292846 
3.3001914446203777 
10.188206550613817 
8.282407574004505 
8.574636844417656 
12.48429470748042 
14.915578269367002 
5.9521213625134815 
12.053770950778846 
14.262233355015852 
12.08987704127639 
2.017031000821353 
1.9899723146704902 
2.4122203178975195 
2.4174146037292608 
1.7327997282092997 
1.2914709904103447 
14.107650881715143 
12.550498836572478 
13.528183429884079 
13.171335277353467 
6.160103163533629 
17.367796003585617 
17.111060458125245 
21.318233673492102 
26.204448196788466 
8.87178481008934 
6.702492370080759 
3.915967116783322 
3.552901190801963 
3.798884088017572 
11.288085322289977 
9.187987946597435 
7.242219175169694 
15.112379110261665 
21.60565428587381 
14.909523367185521 
16.576794483089202 
3.0677230729938954 
16.741876834611137 
2.5837893132235603 
5.87331343070252 
11.339472761496374 
2.4065648469186733 
6.441629794497212 
7.180010405462329 
3.700562265859348 
3.8257730682937887 
6.153160566074022 
4.849604409597508 
3.207902441428181 
3.301725418194359 
3.5274654968309647 
10.819905307767526 
10.23475727463715 
22.043856655190318 
15.502212885005905 
21.026857240969825 
21.870258995294034 
22.30441426262031 
17.619408162192407 
11.278473388761093 
3.589853026063413 
2.765538518043757 
2.8349062347568683 
3.1689082772525423 
3.2484896064822597 
3.2326922536628344 
3.203904547562557 
3.0466234096774825 
9.158157967315702 
4.254326769222924 
3.5428699061442686 
6.096478641132778 
12.584938111852473 
11.31675952352278 
12.239727752409253 
13.058367241196978 
11.487306145193497 
11.211553239699269 
12.937231797708579 
10.211650224085826 
6.069124695586203 
4.8198170794272075 
10.575095349130002 
14.035321062332804 
5.568531938231012 
1.8536394200555426 
2.341680915543761 
2.6071909015820687 
2.5413661054680436 
2.716349746968254 
2.651303316019142 
1.3680682783063125 
3.566442173567679 
3.2277228650939453 
3.4268788984072374 
3.5545890950382737 
3.433767668974233 
2.675623541924826 
2.8093329097792292 
2.6092854463451 
2.7975859909548744 
2.82830003009892 
2.3851907270761656 
4.579503356832966 
3.2088156720708794 
4.601098394322066 
7.908660057472325 
6.836815986520131 
3.3270013509408094 
4.150078984794903 
3.5538538307038667 
3.1338404498712826 
3.4205894591599244 
3.6563110855130816 
3.6102827911063273 
3.590275990929946 
4.466114125509235 
6.622387802761642 
6.773670291799646 
3.617443486427598 
3.0859657587243414 
8.410101408967693 
12.744184659542587 
6.9465698009256664 
9.798525694688308 
3.5066808271488745 
9.469012133534855 
12.332473570242543 
12.674870952102017 
10.431415010539286 
14.871472638106978 
13.485889533452028 
13.349021034768047 
15.257511617954686 
2.740418789917239 
7.136975840218049 
6.796734793229962 
8.256173977081897 
5.794153053377111 
3.447918749272223 
6.699453172457017 
7.274534138849587 
5.028929732669777 
5.442682054768874 
5.262432431804847 
6.409751315957157 
11.28336326110907 
8.565391053107314 
7.087339483945908 
2.9533952830867487 
10.913415050541431 
8.660225931805737 
12.319908199293948 
10.968873283492675 
2.6229693314184335 
17.47644331046871 
17.467860364950347 
17.458678997529745 
16.742514041304972 
16.963055683872533 
11.972786831707136 
9.120768649349642 
14.536335159215083 
15.109306397334043 
4.235668064137111 
11.06901053547864 
8.110467796208649 
22.81742986243216 
24.129149504787232 
23.595690284542652 
18.7681170450235 
24.687166601348096 
23.944204880992466 
25.254714825319216 
17.5865190136869 
18.086592881941964 
16.087212397825287 
20.021134524889064 
11.208571941348513 
6.270090209116498 
6.964195100064173 
18.320630520329242 
17.69546004145275 
18.463998944512127 
17.92437328142105 
5.065530634033086 
3.336521337000673 
3.2590151782373042 
7.818047782674706 
2.2894350652669804 
3.477373900185841 
7.131216022262373 
13.345839741585404 
14.999150219451572 
22.128704237431485 
16.625988353456158 
18.604263098122924 
17.799444734809157 
16.10497402751852 
15.034572786240378 
6.045249483326936 
12.867304147319711 
18.723843948703585 
26.513158517130293 
26.492218176538533 
13.648645567413284 
20.97377713334626 
2.885538284698708 
4.1914751840429325 
6.038556563113315 
5.311633854091834 
5.4320329324726035 
5.104006044764459 
3.2945117591216184 
2.840779546431649 
5.350675635170056 
4.99917424365423 
2.529666281588522 
3.0328813917998603 
3.286869667725731 
3.3306263318338076 
3.475718223963094 
5.835374129386283 
6.1849336318106936 
6.125772942741274 
6.1039575593625965 
2.916850455821716 
3.960586007709452 
3.5083139832049706 
3.152248788727817 
6.99799713286654 
3.95798556696255 
6.333358871551881 
5.035474966241612 
7.418317528657988 
6.389457316207276 
7.640933620974037 
6.072458261462773 
2.7722673489677847 
6.3219152202983855 
4.9589131120515635 
3.128169043701878 
8.251322122212207 
4.111745730572976 
3.6327789575465834 
2.8343215793054863 
7.216071277934837 
3.36177602227025 
5.628154911555849 
8.919765447954692 
3.5777381305909 
6.260927055830793 
8.092242343275544 
8.528604388553418 
7.954732156339755 
2.74848664475166 
3.347718396954183 
3.898945105176564 
3.7648432366927094 
4.137423880974398 
6.234361219963272 
10.187683202149366 
7.253034306474998 
4.46430495036998 
11.65216996312993 
14.018039335758909 
16.807682367825457 
10.4950422095615 
11.9888536748213 
9.007394154264114 
1.2110060478525457 
9.123029228848214 
10.108712057300767 
12.411295958427878 
12.12090743160455 
11.88377640982032 
15.878833055645247 
12.064356902640775 
13.021532149196307 
7.858057009742551 
11.674339636574846 
13.83273478910189 
11.74283423950562 
15.164079235753983 
15.58880280974029 
3.4604973793870024 
8.966000802103768 
19.412463753530577 
19.588241951409373 
1.7696313623965865 
23.97032712390998 
19.741817469069083 
1.5075879255882756 
18.392078777735776 
8.773793202807655 
12.614970288866893 
5.466695376401606 
15.632776695835371 
3.3979203436723204 
4.023777876546993 
7.6031690442029864 
20.007270215811136 
22.02801185222368 
13.465578115114228 
25.399721575533906 
25.16853854015399 
2.1893763961637087 
6.751640097435551 
6.324018585081648 
5.070570151565974 
24.740264952321265 
1.2097643252253587 
20.430798807595888 
4.7391534189536095 
8.989721327392402 
20.29840868388467 
17.32813202565007 
17.32890691580902 
18.3412055211154 
17.379807190902316 
19.979229678168657 
24.954022670974933 
19.17330615290915 
15.594628479824829 
19.428002960004715 
26.694032861883045 
19.30779523078194 
1.4079219001952914 
12.592207612303163 
18.11094304424769 
15.858453346262893 
23.11635151448937 
0.8519527923783308 
12.880640888891474 
15.070161783311812 
27.38411997684139 
15.710316080887372 
17.548105741335892 
15.308401567454256 
22.84855389403123 
9.0633317512915 
3.2757301229356464 
3.446193217663977 
3.066192770507021 
3.533100011867076 
4.930797824741109 
3.3935047166869254 
5.053142062825248 
3.428385141944006 
5.659367609802575 
6.211884046798977 
5.728926151361565 
5.462758543943158 
7.9376460192307805 
6.77738863740413 
8.62617575186299 
3.6090270294251776 
3.4590188843749163 
3.771353646985246 
6.678067910638462 
6.248327239770487 
6.362813483718467 
5.55838895943618 
9.440953242304603 
8.514117578650648 
11.418837308720919 
7.743282454596 
9.684616052609156 
8.633095422947951 
8.523692299849964 
6.674213064154323 
2.8029579883103475 
3.70643627370582 
3.681768213722776 
3.8314016950489553 
4.016051747287083 
4.96101500883701 
6.935512869988596 
8.89074236980286 
11.713395419293155 
8.004198556412756 
12.747340468436022 
11.55360016127777 
8.59725434457019 
4.660476726919199 
5.401578850339282 
4.099660352118471 
4.487308940343961 
3.157429566262116 
11.324765811659008 
10.394157692798888 
10.145398321116183 
13.12158477632706 
9.674114692348564 
13.850614438413926 
20.190949117007655 
24.567574690184657 
20.821105037369158 
20.382479639043588 
19.385148339233048 
15.766411994737425 
12.395562457916888 
20.074128248262078 
3.932193384631541 
19.005375031099508 
13.81464783548359 
8.905999015462601 
3.599691674104102 
17.38186665794076 
3.045307461282272 
2.8319054004285538 
5.1690017519542435 
2.4796708284531666 
14.576795078044194 
11.540864244626116 
10.839598626181184 
15.01212610370142 
12.402035720905058 
9.012908875319601 
13.321260821078834 
3.163991318073057 
4.879943671063571 
6.3675368214231485 
5.053523402119184 
5.461072177764413 
5.251750343862345 
16.43302100384137 
2.782855176425219 
2.7656071499146404 
2.415217864059944 
2.6405094190542227 
3.1660747314665874 
3.195596608421317 
1.4747702361194295 
1.2777555554080955 
1.9648628731411355 
1.6361945792423835 
2.078320922511229 
1.6593346846883048 
1.4277489453368242 
2.368203952919907 
3.2411078289715807 
3.8716210384961998 
3.356788527860115 
3.1806157032364952 
2.0512830463207163 
3.476607845071365 
3.2225587451778046 
4.393131434665058 
6.93630506605541 
3.4789321716959525 
3.31807560348513 
3.3310130893990304 
3.081737962071012 
3.543034235307915 
3.4776324442783877 
8.102120505479347 
3.137378565850046 
3.2546588865352324 
3.1896804516652324 
2.788783009690295 
3.325227216600228 
3.244983573444621 
2.527479834266562 
3.536435943097947 
3.4651132808700793 
2.531238768916686 
3.3916161224692423 
4.614564123636854 
3.9937276663677967 
3.855826866850009 
3.1364294181283507 
2.9938590853979052 
3.800528384266069 
4.020552803551033 
4.557848630905331 
11.12554610537871 
9.088137024913415 
4.253344184898889 
4.83397850904984 
4.305197842090826 
9.684300674824573 
3.6817344924822217 
10.003495727646518 
11.789843268672183 
14.108909905995716 
3.474448000614441 
2.9751529406069346 
3.779327766212309 
3.9882068006596647 
3.015818603759616 
4.749773716292743 
4.657860887345319 
5.4744599184368505 
4.157739382204737 
4.597846071797343 
3.6624566285927993 
5.158995552898062 
14.698456547436006 
5.234906178554105 
5.790510857896275 
3.0014965304095966 
6.147444152185333 
3.6316878715720606 
6.117367012278776 
9.26413278494034 
9.465279089696383 
4.521706596040676 
8.572433465279754 
13.602700648343198 
19.62303197770063 
15.975964830970968 
14.795124472027185 
17.008531837033555 
12.86900068465141 
13.70768923808578 
19.59324955730621 
20.96313636524418 
16.872974361669808 
14.262453455948329 
12.754657328373982 
14.935383006089126 
19.574795002863095 
15.072392596131259 
12.700230438946223 
14.441816428104865 
17.550233777535727 
16.36775387195254 
15.724823755153896 
8.516118507551052 
6.237663786678763 
8.045511727372029 
7.217380191090121 
7.293282189345521 
6.986543885199045 
6.893998741876681 
2.2956343171306757 
2.470112209225905 
2.368116748852128 
2.0629229721393174 
2.2945775777948167 
2.3256507556152353 
1.8369231990614816 
1.814498690663319 
7.487712137739853 
7.17577168522004 
7.39652829985376 
8.631605371202305 
8.514061308378043 
9.597775219207964 
8.333882334849264 
3.1621408791907446 
2.985627957876142 
3.2320596289399988 
3.044929701503932 
3.472261406843797 
3.584390007595383 
2.8298632643964923 
4.402254953125932 
21.168476307278535 
31.456158745096598 
19.926957300359682 
23.43128453219581 
10.7855634491566 
20.15809073656896 
26.616060987132073 
3.873735676056042 
10.422375140453987 
6.636978518183935 
11.09899874763553 
12.327435169419175 
2.6606582635865843 
8.261664723651656 
12.03123639009028 
3.98218774356133 
8.855555839033972 
8.928464860172406 
7.524108185310361 
9.174659023803835 
6.524861943970928 
7.1408540062271735 
11.292699045524863 
4.053090060041931 
10.339102188851461 
9.166696551891263 
5.326024567646701 
6.141146999258562 
12.829211984582125 
3.6616021977153084 
4.29701374014631 
4.928113964541225 
3.7673200406489395 
3.8923410145902086 
5.3981520558907725 
3.3403914229767175 
3.1864252236590658 
3.229604401377823 
6.230557213271072 
2.7198092264741547 
2.9043159553774043 
2.759460074243083 
17.32485446159688 
11.138943609328894 
10.777955534414522 
15.360090354270147 
11.264231048681987 
10.09478501755419 
3.3878926373617815 
8.057854523337467 
3.218701620140619 
7.1865399576811 
10.588619057010147 
7.416793397786496 
4.470939460240903 
2.613379010356405 
3.1776308344798783 
5.0861862261731625 
8.370855472713684 
10.06728129296776 
10.153849203418465 
10.27966400671725 
11.498907172599171 
12.936875337900563 
13.64025533100904 
13.378685822576328 
10.801001158118828 
13.113059813569366 
13.83149446564226 
16.89088419515598 
17.307695717271105 
19.290224738556528 
23.231624449140693 
19.06766694108194 
2.7674414398836604 
19.99304079045168 
23.980629963938448 
19.621407699577663 
17.02700240630482 
12.663571857870386 
2.43237908588418 
13.193231330729315 
13.082460841078792 
15.88450063398513 
12.267250239470117 
3.835507355050497 
3.5673828336405244 
3.4824429516089097 
4.898156312654695 
4.250962327070351 
7.338490753164466 
11.234144012568526 
12.85195900572048 
16.25310641294218 
11.988062279487178 
15.29954043296442 
11.030765623799809 
3.8084634759244143 
3.342550672822802 
3.816865966327718 
3.702432676239846 
3.5482181680671365 
5.005053717986381 
8.671404014155245 
5.861249343950139 
8.19088359178191 
8.223831173924456 
5.286602881848131 
3.9194350863516827 
15.533473027236592 
17.294593316695178 
15.747634450903195 
12.11172583580445 
13.17380084576855 
3.5479964730318394 
3.015603852473746 
2.938383122667322 
3.7577180476390355 
7.105829208826234 
7.716301107658159 
2.853215495867507 
11.081606584324572 
3.847823881892852 
3.4266889741815425 
3.474628204673616 
13.169034071374014 
18.678890947971226 
13.172188996054697 
9.866560055908408 
13.579448865135705 
3.1915439686401434 
2.8405447316976664 
3.271603011720204 
3.250392272970333 
3.0918829660038667 
2.738614502360528 
3.1149092783000505 
3.2089483844593487 
2.8721509605675504 
2.782926394558607 
3.5607568403482257 
3.8562635127069673 
4.4206897522216115 
2.724774275036967 
3.310632824466086 
3.9698782217955895 
5.244425175266839 
5.1934094594244815 
5.252730241841331 
5.21481246962249 
5.998255384452718 
4.766640020250696 
5.309725547819306 
4.295040772005923 
5.9955860838554775 
8.005519861701826 
4.868826763286596 
6.784888392142092 
9.34609215798821 
6.73287253678092 
3.0478887339087923 
3.095685800266409 
4.878565519026409 
4.964690183415795 
5.9138403849150025 
7.011463252363814 
6.040157418968706 
4.604105420377824 
6.713786194105646 
6.543395907631936 
4.438471639543458 
8.377875249711515 
6.827151929680904 
4.514467221695352 
8.318001836806449 
11.009089970480689 
8.29373537576135 
8.312998887682452 
8.642429091104132 
6.707012545709906 
9.347356102930268 
10.86125928208364 
4.342661830449791 
12.031276954459626 
12.9476037618371 
12.012830274554782 
3.6930963909169225 
4.639895116464304 
5.8060269361484895 
4.082365497687374 
3.007310136825651 
3.389021723186797 
5.346624761612903 
8.510380309857272 
3.65727077186407 
3.828245140089509 
2.740199593080094 
3.8778491656276532 
3.7856605636722853 
7.736770873311353 
3.756270427909928 
3.71599238661326 
4.414773012791116 
3.488008146411462 
3.2740434019354088 
2.53218799789698 
3.1943031876657932 
3.14403113380952 
3.5408709854999025 
4.324956228632974 
4.252603144645275 
5.973269376605669 
19.351856897333086 
16.77124193663614 
16.526714286988224 
17.161745216972506 
7.023171749320281 
9.037557429128459 
9.983633014309842 
3.3214823710345454 
16.23078342893706 
17.983890501901794 
17.453628205253302 
16.67282381443808 
13.309412443962138 
3.843008985825531 
16.078494034594215 
18.910780582270228 
13.249073458200945 
12.142953310370343 
10.976010709880624 
13.780647151807777 
20.74633444227162 
8.812705008840464 
3.8848083221378795 
6.771888483153076 
8.715122550906047 
4.5462914817072395 
25.78547034274272 
30.013425523093854 
25.624222426347263 
25.508241010489463 
25.006001049125256 
19.063731422437783 
4.4920476171723 
5.705915958142156 
5.085638217606204 
20.72136844042916 
12.284918377753685 
9.625163382392682 
3.029845297526032 
6.066173790260444 
2.685590388278196 
2.28544071568852 
2.6038672730785586 
2.9747779176410014 
2.426303805076802 
2.28742443957341 
2.3523324239854726 
2.798533991128196 
4.239153965621032 
4.377722319029318 
4.339980765293935 
3.4787933396493376 
3.9771849481751493 
3.696273098512128 
3.2962832891817975 
2.9223736005943475 
5.740953851910755 
3.2139498274395666 
3.423704195853823 
4.303155694737136 
4.495897874485346 
8.349215798668668 
7.186193855215407 
6.437244499529926 
7.158032752683741 
8.660870896818492 
6.745107307002024 
5.399622789312849 
4.6510992639952375 
3.609456873926262 
6.662486544686492 
6.422435762991492 
7.427670748473107 
6.3205649949084295 
5.09849176098382 
7.319607879103551 
8.204608618252335 
6.6993803591464 
5.88372960999305 
3.7932884495828247 
7.073100722629552 
7.041989548712642 
6.047747308435902 
6.08784372301363 
6.876141826235391 
4.872246050239383 
7.580993756663377 
5.957727872953237 
8.947280518042001 
7.9185961487448715 
10.030475297046443 
17.818359796737322 
3.68831265138419 
6.292760990820032 
3.8279254834661 
3.091796460155789 
6.1771547109330385 
5.427052810796068 
3.693061514101161 
2.154086385552871 
2.613451750095723 
3.432451551996955 
9.300861044657896 
11.379927712668414 
8.802375022648032 
11.932893087987217 
9.258441506223873 
9.413263702110346 
11.113277032556093 
11.104921449311947 
9.454091570846419 
9.635796118046022 
4.814140408880284 
5.317755967340343 
8.03928326775169 
13.418057114331425 
4.840574395895464 
8.906220106743392 
7.608560937596188 
7.249269827124575 
11.097549358566003 
7.836364544687224 
7.171002419986885 
8.778241262672006 
10.015505698801402 
12.10207123382471 
9.228027795140468 
11.886058790679664 
12.003999421010999 
15.800230467774606 
14.989539700353669 
14.96941431519773 
11.96559377582182 
9.755758074522925 
18.342817837401334 
12.91533350865631 
15.230954104921192 
16.1419015916719 
18.15444223718411 
15.15017132508572 
14.996619531715526 
19.43206196582412 
14.569122243587426 
19.793208611207092 
19.481374136997168 
22.05581792479648 
11.554248672685047 
15.64774850411662 
7.233642098864323 
4.970378702387789 
16.463466620198574 
11.10454877930657 
6.136051959932468 
5.585453717621531 
4.63888283872107 
10.213483367819503 
8.387770029408362 
14.271240677585537 
9.55954092542094 
5.269616807325433 
10.051607681626455 
9.098713085140815 
18.74659183738338 
5.746871966689863 
5.519908813422853 
3.7546752027493824 
2.9724680614406083 
19.681176683960807 
15.574093666817692 
16.307660423629002 
26.275456300262427 
27.886214601367666 
24.618738941994643 
22.729101573271457 
4.381446879573706 
7.305576235089339 
7.2745216365511665 
21.97011160886478 
5.059541993253651 
8.693950623206106 
7.066058610407337 
7.4433657739086545 
10.970655644782415 
19.97303710868559 
17.308987705982403 
5.5523288908591155 
27.28236236557177 
22.55191505551134 
27.919731551474964 
27.19168348156824 
24.244790113373664 
27.91812730732542 
23.481712304129054 
24.070442289909387 
3.5423942481518167 
3.192016568186501 
3.1752501924835697 
2.5484184728850106 
2.8833777594246066 
3.563746492213704 
3.0788604793464898 
3.23468250830365 
2.8755394445793367 
3.1837656645011028 
2.7642329533650494 
3.295525534220332 
3.2759802843857093 
2.7574472802737326 
3.9037494015410314 
4.134022603815505 
4.886634545938523 
6.308386640447213 
4.854640517277046 
5.4343410942239245 
6.705767658865072 
5.4626427681110625 
3.018076640030195 
23.76181763631449 
5.182954155198053 
9.672294929830429 
22.85255791079101 
15.01045380230393 
9.435222401668105 
12.58725084607336 
8.335446054239712 
15.007943882846938 
14.59308576811882 
5.978929765570206 
4.097707321352346 
20.956987770839277 
12.693438277219355 
4.69372378655819 
17.939563867920484 
3.698989087095179 
9.480230717711997 
8.426486127954389 
3.889088444867254 
5.3866101113189355 
4.854407647736917 
4.801824202636286 
2.7858650849776363 
3.435595779643133 
20.44533551070923 
17.666875962836983 
16.552659892794576 
12.589291286459188 
16.777396319646023 
11.230901174453393 
13.645029569390996 
16.21625475227723 
21.84958413199177 
23.551948916695146 
16.539856635049706 
23.714133105471344 
23.369535010313587 
20.75786086212977 
25.291118791550918 
23.313100937999927 
25.93127151204675 
2.5674164312338075 
10.585748694349112 
12.022006588358002 
9.977335420695551 
14.417670436195491 
10.612221317617559 
14.91639482204677 
13.796589638304242 
17.83256439787439 
21.810430062937954 
27.373773568812794 
25.707948322632028 
21.43325751760135 
23.330253061923763 
26.297188444193417 
23.65427932340993 
2.9566954171600077 
3.1894157253738995 
2.9189788790953304 
3.2917437182092852 
2.7603954841515956 
1.7405902762619168 
1.772495006056819 
1.8201137301722523 
1.5623312767015685 
1.2595350625077602 
3.10784098977959 
3.1485577801843196 
3.229646270794273 
3.5831294838466334 
3.3710694003404624 
3.0616317738342156 
3.6026905680780303 
5.374771684983276 
4.92071116047558 
4.691112621997804 
5.516160330850185 
4.565825226946338 
4.434170514271932 
3.852497880673554 
3.421185373578595 
3.1469901212485873 
3.271184947089839 
3.33369848904826 
4.305446501255234 
3.765965153786497 
3.703557320111394 
3.8453559196677296 
3.6483748004775576 
3.7126229347087545 
26.398091549019146 
3.803747594365899 
4.1237673930480305 
3.91981739317257 
12.729692240925697 
11.993186382034093 
10.42130319232406 
12.941850875378478 
3.863021126842633 
10.36581696562618 
8.334744490175495 
13.320434912798925 
17.88342411452767 
10.923170453403399 
12.911132362401682 
9.37136006470711 
9.66848839632419 
14.347167047147956 
18.95806275425227 
22.25109605542877 
18.628299182861504 
17.245261884264448 
23.24688340507247 
19.47322267143022 
18.221833326087637 
8.215095938271942 
11.838338082052257 
13.332450179301642 
7.779607952823045 
4.910986765978104 
3.8236087675982087 
7.144192865020319 
3.5483320465324057 
11.580612221066525 
9.795035193253153 
12.467413826364488 
8.746955845861798 
3.4065377338146146 
12.834982810392601 
14.078520512298134 
18.301267630593017 
11.74976472777328 
14.88823593019332 
3.9099229589195073 
3.3011586929370185 
5.051476356747779 
6.08892933554638 
3.4493859922624748 
2.9842093211089447 
2.4637516758552036 
7.020269105985964 
2.9093064398372452 
3.81335258977191 
2.1236137776035644 
2.0219360718825072 
2.729161439160338 
2.1538924781732893 
2.66411765857451 
2.0174314010040857 
2.304670472972132 
1.0533195724652034 
27.963727982472694 
28.00532161762614 
22.95926308835344 
21.221496269437797 
27.521620675259847 
7.183930807922865 
22.701687779656936 
27.975099380988375 
20.859729896676743 
11.30250543423355 
11.639658812466987 
9.202479942471344 
12.408463111003007 
12.609811874862691 
13.267864002616646 
12.533884195083434 
10.151293209053977 
6.814285718415511 
11.567335593979575 
17.1397550859099 
16.950460594063703 
2.6490790201797845 
13.512434666027282 
11.970065521239716 
16.007016640678923 
4.303020568262338 
9.648557152012131 
15.477647636676773 
19.019856448421443 
19.176915491003594 
4.301290168044363 
7.830786203505209 
12.67745974409375 
9.300237131925114 
10.473970991603856 
13.645713252023626 
12.892474051396787 
14.419615643846292 
14.041834044998913 
14.683835011897695 
12.717497339934383 
12.084718076987427 
22.49096878587937 
13.631568902648336 
20.469246232443766 
7.686331191659513 
17.430456988261493 
21.859389086978318 
6.301397828184261 
2.2550292469414455 
2.548564955528072 
2.1544359329693687 
1.8263509967086844 
2.107440629231433 
2.6520268951915895 
8.11936763044167 
7.672510902633189 
5.8809352223795965 
8.000098036555569 
9.473850098376573 
11.01807095159017 
8.401490043804131 
3.7865639946414853 
11.075351072059105 
30.66794232914468 
25.806825092522526 
26.865155375381423 
31.116842027624624 
27.37994235436902 
30.590756005336253 
26.60975506980819 
28.91429547396982 
8.441163619228547 
8.386675651488039 
21.924464984821157 
16.815891315939886 
19.421770993627423 
6.279010930383836 
14.865445337892623 
6.320050156269349 
15.748468239802623 
12.674703461662657 
12.163928973884136 
12.277817997650642 
12.381708413040688 
11.927994208766124 
19.753397329248795 
20.20120292565523 
18.914581505592274 
19.761096578025274 
16.209021652409106 
20.72349741541843 
15.909507799835364 
16.125315268414894 
12.977459545123285 
12.789958273787128 
6.205049457218572 
12.445434316032582 
9.683815999479853 
5.297545107946539 
4.6011476462341 
3.746862984367393 
6.528384303523934 
5.178114372924803 
15.203423865082812 
14.003778912823151 
4.436414772385174 
3.290354618601866 
2.468280692073819 
12.180129026167512 
3.543939339597592 
3.477036167709244 
3.384958966732462 
3.27772324057703 
3.630972508319002 
3.340602924984617 
3.183501343339604 
4.136972047138749 
5.160345737332948 
5.954784835759912 
4.283071982270305 
6.486482630541869 
5.58546083579487 
6.471052435545706 
7.237534884014344 
12.207975010204565 
21.054797016455378 
12.97846823650244 
7.395938799995435 
10.084897762922825 
14.524766116858597 
22.7370755508893 
16.086528564060792 
2.827976511218988 
4.177908090146814 
3.8589155284542573 
4.379667261191935 
2.4095843707045286 
2.5350210999896787 
3.872103300175608 
3.55131688775244 
9.628105553059669 
11.616248743140467 
5.4226710609064765 
8.59287397939163 
8.055610181434034 
2.379014644014854 
6.578174018438364 
9.488625923045575 
5.22836209748539 
6.476663162024871 
6.16188765527949 
12.455163114891025 
2.327813685328473 
13.42351153124927 
2.7055569151290584 
2.779560612979688 
2.715030587383405 
3.1569148520550563 
3.0300232434314847 
2.6652683649327833 
2.8426884440662126 
3.018721319004589 
2.8715986455233455 
6.389971670735825 
3.4862109527368643 
20.72998841378176 
3.5608260971083 
3.149833828697593 
3.6285001816362863 
3.3322798298200516 
5.108239435978817 
3.3381295012256738 
2.7970298805959724 
1.8539973998271844 
2.5373414079519456 
2.4919786711966654 
2.196822894219399 
2.0188418469757226 
2.529886149906229 
3.400786809452586 
3.047020106366404 
4.267022493023843 
4.392412269968112 
4.605877751028065 
4.136953680018276 
5.249672799741419 
5.932322873468601 
3.2193995692698136 
3.4033320703702765 
5.224853613747375 
3.0452802480406183 
2.6816927405306408 
5.148883790735524 
6.377837313156417 
6.153482174667985 
5.202111620761311 
3.2568816816563153 
3.9999687703926745 
3.191414931471602 
4.633789295799058 
5.595283440131081 
5.566391510317856 
3.1493685060488077 
4.42686928651018 
4.584322888084346 
21.939101065289144 
3.579821945628529 
3.6174646538770743 
3.7430715925680778 
3.773628826002955 
3.722415971838151 
3.458762602927816 
5.70672931120909 
21.29813915745913 
4.655452202010963 
10.036765407029334 
4.545007598697124 
4.359218296830729 
2.939559091914038 
3.6692983775279746 
16.550765978259918 
5.91747124377939 
7.305866007769425 
4.160895939124357 
6.043154193796613 
3.6297268373874707 
6.014304194952042 
6.785533148054663 
4.107536987484772 
3.463864264420992 
3.3253052449837837 
3.4081611158074145 
3.4470689788067146 
6.26984399808038 
15.86304277996801 
15.73512746330949 
15.394634957263015 
18.462354146814715 
3.2463189810499875 
14.927852214697134 
7.202538333453414 
5.307684081079336 
6.072217719709146 
9.956971671075332 
21.744302945157475 
7.728486361618372 
16.178951277947032 
14.908587447477686 
11.721487219252625 
12.417153888816348 
16.12630379548191 
13.248796308210101 
19.17321779393807 
12.948771631467968 
14.978716766924283 
2.842556763166925 
12.042771942279321 
12.359764525851382 
9.959163514896758 
5.492195400714942 
13.077320388611508 
3.5126936784702845 
4.936231410092846 
7.02434124092911 
13.556582308937676 
7.430602023927254 
4.178769934961386 
3.129508656240333 
25.283169212298294 
19.64213841388026 
26.870654654662722 
8.221733862283545 
16.56733619827327 
2.226941230890935 
17.58908289910914 
3.1889776051954306 
7.7772437813337945 
14.020450889774056 
22.232022596492197 
14.021215959131467 
21.09372357409302 
9.221719204128002 
5.700044326152961 
15.679695318238467 
4.8134869257891415 
5.217518055926721 
4.932874626409923 
5.039123875099967 
4.471670312205814 
10.928966612530957 
5.171982061309429 
3.6644920773769485 
3.0200616508396574 
5.945711503448593 
6.27969653078816 
4.809692678816013 
9.20408314719542 
4.994618346728558 
4.7592588637924 
2.3484666209552496 
1.988659667316111 
2.401462933181878 
2.249012350454558 
2.3292883765014882 
2.0074969123214648 
3.7886184087021895 
3.7959318368069526 
3.6488935877722235 
4.418198906369026 
3.7650584340422237 
3.7224400472382633 
3.4682757108569553 
4.542749980633684 
3.339842275407948 
3.886355290948223 
4.155860735491601 
4.521669548003985 
3.6789036480226556 
11.907529541941564 
3.513840211248075 
3.337358642006886 
3.450378889941192 
4.302631100715001 
6.3646740430673 
4.301455199939951 
3.4434832367490533 
4.367311455152982 
5.045477429256124 
23.136698060811604 
5.696498615687498 
2.92009197966676 
3.4976820271383082 
7.065270450186253 
3.154494021615184 
3.3209702887337538 
6.674540249120583 
8.797790603040594 
8.341315771833205 
8.155233956329491 
25.199124360495237 
9.068364441710411 
3.8945007294974965 
3.6772144044945163 
2.2709906439985654 
14.165426312099802 
15.117686452178697 
12.62345984093566 
14.380512284421384 
14.215139051830976 
12.719228017592561 
13.19327328062482 
10.219548257192434 
12.351970245931621 
4.410415021148964 
14.249334616451383 
12.21588287998528 
12.165974675557813 
7.563341337778608 
12.84108946044429 
22.84521195631414 
14.849162634834054 
13.902887665246327 
10.696923781463504 
8.874299175971899 
10.558412243898314 
12.595017848084666 
9.919070011568502 
22.838204381339548 
2.4685505790091864 
3.883609808210939 
2.00001850739283 
3.392240748117017 
4.628701161396574 
5.7618940576456685 
3.7200605673930105 
17.227814918713776 
16.676199590092505 
15.309428333413681 
14.331480665165449 
4.825322438908025 
2.9924149749777045 
5.319501034104172 
5.001492985404025 
3.0708253890462585 
5.54144321156198 
14.97466311631239 
16.435441335434028 
15.59252781303107 
22.264678059480993 
11.201284434051969 
16.347682357275854 
7.754310747938574 
16.455907179052673 
26.158926996695264 
30.47688687295644 
25.475667549830067 
19.326983961890974 
23.87741761986764 
24.900287733972583 
25.726136502289215 
21.187591211486787 
21.05023089345978 
31.099804906110887 
25.62549406033421 
25.720865006635265 
28.621522071889114 
25.35207158590361 
20.690788940263907 
14.724962075295567 
5.454929114118153 
16.690157862086142 
19.16007747519298 
5.291153439198728 
20.418910593499163 
18.3914678786375 
10.313547293068522 
22.825498631240244 
18.165087931391938 
21.712265754997176 
22.93928785569489 
15.41072240317849 
18.860442032459122 
21.804253393328572 
13.100647244526503 
4.500002916392492 
14.363839712083063 
26.173430426648512 
21.066715433463035 
16.510110473179576 
19.61001635599007 
27.033684578203705 
27.460056166716313 
17.985779613228832 
25.850151055819158 
26.07971581025751 
27.474591734694325 
26.74772424626065 
20.972600671476084 
28.073351473650977 
2.1628622188651945 
3.7673640847059726 
2.9286899141633853 
3.131873860187609 
3.2022977079360664 
3.3853233133883376 
2.840685460730703 
2.30914522257403 
8.708757806906512 
4.210017014085504 
8.178262564536674 
7.038301127451629 
6.8490414649029105 
2.8242046252091946 
6.3801417613453735 
5.3771062481105485 
4.977362310316882 
4.158389814359754 
5.584731443981444 
4.629156311246995 
5.2626001939687574 
22.599427052608913 
3.8173148349672132 
18.693791734851775 
3.4244936648453757 
3.569168202356791 
3.707650160881345 
3.3482408585326824 
5.033409095903604 
10.74752214538077 
4.6696786841904805 
11.161619617260929 
13.713603828747303 
14.030395743528885 
13.93760516760853 
12.52281114690029 
13.000177707085438 
12.524817779908224 
14.960083554210176 
18.720807665685147 
18.791935543881106 
17.285724991716876 
18.38812533995119 
17.73978128787354 
17.8872115682713 
18.900701030654822 
19.16626945078583 
9.74758828565958 
16.301495703933075 
17.656419443840782 
16.869405012762265 
18.37178683326525 
13.426565734024956 
6.495057943647479 
22.393699191832177 
21.09969132837634 
20.651049643668046 
21.25536969863014 
24.572091289497383 
22.18749975662909 
16.568615499920103 
18.292731492527192 
20.825668059674268 
8.299298134665616 
6.665431618589554 
17.281595059708227 
4.96403581995013 
12.939449975410596 
14.151177995844925 
17.964140375180747 
15.713587111420258 
14.95808578918263 
18.176875511153515 
17.843522063724315 
15.575737016803867 
15.347701703986852 
16.058606408751988 
13.309691923504605 
15.748790311365454 
4.879275140828269 
27.47944799775737 
17.56032902378077 
2.989860322555953 
2.5826492647268022 
2.7314872472239804 
2.7488738208497465 
2.6732882903625486 
2.3305895069872875 
2.2295278561216496 
2.298748999986952 
3.6851749452722222 
3.2258035113043584 
3.527245189889751 
3.95985247057801 
3.8225942256691043 
3.393103969407659 
3.2341356965275994 
3.234305902211512 
3.6661159535949213 
4.5162009741053115 
4.047299652686743 
4.800234639041395 
5.456583187833854 
9.661584234250729 
4.770689940073562 
4.530464483893891 
20.58284137672628 
16.269704338155364 
20.243746462538393 
15.7231756540829 
21.20785146012791 
3.010011395494843 
3.209817411652144 
4.125846641523896 
3.416776060615251 
3.0312535938122096 
6.2645087013400325 
5.673799001032149 
7.112170886182573 
8.136679640701143 
8.8955617656293 
6.729268428824336 
24.058042308521756 
6.095403848003111 
23.587713872743663 
21.33771331720047 
20.323351190568 
10.785545395664201 
10.122561520241762 
10.545659986209321 
9.39049870701349 
10.31790928959646 
9.509232050941735 
15.88462251346365 
16.967649076657903 
14.40295785295588 
20.33200087904388 
2.1515867219737603 
13.030884018131237 
11.870290916941663 
17.493151902973846 
17.405498837107395 
17.910012486942044 
18.173228908202088 
17.403019050806083 
25.056989542142937 
21.115244420556778 
19.284768709953592 
19.084671717726717 
25.662545321737767 
17.078690659440397 
20.460671876322987 
21.945683524918525 
21.701013958011202 
6.4351738234288804 
8.8728624046144 
16.117219637039696 
14.472550681239131 
4.385603093443696 
9.335982932161652 
8.376527112183021 
5.241320631202546 
4.458254613537707 
2.9815094625196528 
3.534688465307107 
4.108660525751547 
3.1384014153546516 
2.7678874760444883 
5.474307986666096 
2.8267874749433015 
15.984984056554193 
7.147192682777359 
14.950663007768659 
7.74549154572722 
7.839281184233522 
11.472138366068119 
11.800953862573973 
19.108966943164823 
16.65946878059123 
3.2690036602994845 
16.748235906066764 
6.537847630016378 
8.317911991505513 
7.255885238492045 
2.0421356261116888 
1.80940400714201 
2.524490547110018 
1.9822319996929287 
2.1496449419074133 
3.1461058177219554 
3.0522093645825366 
3.2529589198796915 
4.155332824348865 
3.6845309958320778 
17.830243015850193 
18.82383882170439 
17.391049322582372 
24.038799698553014 
17.89218855541231 
16.96455407312402 
3.3110427301314647 
3.205787876484089 
2.835786756271854 
2.89122137531172 
3.4817467723738793 
3.4906560104639723 
2.886184429094875 
7.020799163812073 
4.959813132660177 
6.1266215722821284 
4.1468753573184625 
3.0395930626339847 
8.98610882307998 
8.567585717089345 
2.7897536344679263 
3.5405940840607544 
3.4470599106072153 
2.8577375697738083 
2.43307377184308 
13.77574625177321 
5.026587560584133 
9.12433934660593 
5.633182171859597 
10.03020220224847 
7.159598116970507 
3.4316594863792256 
6.856900977754084 
15.836180569094218 
9.283052262923505 
10.293847071934918 
13.54425903303181 
12.894907278493573 
13.521885464792435 
9.456369593793905 
8.97918232620268 
11.030026538077957 
10.253363165409683 
10.223572832901707 
8.616124106611325 
10.45504088367565 
10.2544728559435 
2.758272717650378 
4.4671813162676814 
3.566801691092054 
5.846047534413408 
3.0516017692327764 
6.437746559215481 
5.848406133472198 
5.094734939620944 
4.737833658199433 
2.748331295871866 
5.545604400099669 
4.438266283039848 
3.413056044184013 
4.66233233108566 
5.2179659811380255 
5.3406327137865555 
23.46773947350858 
27.268894079934913 
9.228505281617675 
19.699493808358575 
17.26935459888245 
2.515951281599764 
3.293512105136057 
4.574006995765088 
16.08177606964909 
2.8661186169757573 
22.58233175521803 
9.268375760563716 
1.9828683140225587 
4.374347761935292 
3.6484968635067845 
3.814863208736481 
4.336962007845583 
4.514055732733788 
3.4421161525243598 
9.269521218709075 
4.378123395943367 
3.4774026165292944 
3.498229173410616 
6.640696934470117 
3.0401651305725323 
6.374596426601932 
4.603190883491587 
4.653471740341215 
2.701564215372121 
4.541152765932007 
4.607004951587424 
6.822465502121355 
27.044502450474262 
3.306137130917074 
5.351592282996051 
5.276628154895406 
3.7291874471468773 
22.855314142635354 
4.278877550364373 
3.7800130959896108 
2.233164641097602 
1.6576452037841256 
2.15698370055708 
2.9101085032107794 
2.6992251176401774 
3.0293682126856627 
2.519495415320405 
2.5616027866536397 
2.4031421211317605 
5.359023928067125 
4.451821813260294 
4.342194953254756 
3.4503161995489986 
3.5323441108302474 
3.4312176126854563 
3.2132184456843897 
3.565349781571225 
3.310236756964048 
3.6404470435830256 
3.041576206275774 
3.182198449226883 
4.3687555368123405 
4.016414759510666 
3.6283694309838217 
3.7868346318982007 
3.9607326496129454 
4.641390811538199 
4.349546936821318 
3.66738607492341 
2.7549927208894824 
3.5596486731501513 
7.59245543600872 
6.292884709761625 
6.536535813037804 
5.8198003916534935 
6.721343542972572 
6.410614358122882 
6.405865240404079 
8.212364697406855 
5.651455514365062 
5.71612252499593 
21.41990161521851 
4.619680161511191 
23.476226788797536 
8.570682647887494 
1.907873307941823 
6.499572121769606 
2.9654003881877062 
3.538295916098974 
3.1957471760957095 
10.414747509835246 
3.140916761480987 
3.656952651782108 
4.29974727067305 
27.469238123077467 
31.644457305712027 
3.328502138150683 
4.883280596258462 
2.737635373212356 
4.096465369253631 
4.224867964656022 
6.63967005930288 
4.888809728489828 
3.0732091341576706 
4.059576149973659 
23.489446474287202 
28.022505246533637 
11.317642442190145 
21.150573498043908 
14.241972339909442 
27.873532919280784 
17.67621468199512 
14.188545329095815 
15.515329106951238 
10.052686802281146 
17.657303805722748 
11.413605540618756 
18.772902938717333 
18.753568932642448 
20.87696349762718 
19.422112951799747 
12.918014937545749 
14.755128283001666 
10.578806681844178 
3.1573626509640293 
2.5129484380922142 
10.21507622459987 
8.229674865859065 
9.621504713383873 
5.62148315258435 
4.07984322440698 
3.6488585328391854 
3.0696953270570497 
13.443692183524055 
5.131688127829336 
11.529091521982235 
7.6438373784399145 
3.0744771319579303 
13.230185951371123 
9.447818266494274 
27.367157638034428 
13.34621893219661 
14.858508619079213 
22.019136385599552 
14.611854963625508 
26.428343291171046 
26.853205823854783 
26.20362139397112 
26.479552043701972 
20.94582145028522 
18.08891376815784 
17.44302310718823 
18.096249929946413 
18.195254697556535 
18.5994314992296 
16.003337693740686 
17.176981275125815 
19.85760045457661 
16.491602707467003 
16.417249847721937 
21.014300337251623 
20.65458857402272 
5.390831207864458 
25.575567208750993 
17.878475698804586 
21.12264429352842 
15.862918711223966 
25.43100057144567 
20.57311477178847 
21.417692316770808 
16.18307941263638 
14.842443887557764 
5.943308497140377 
5.413859333270289 
5.46784058590705 
3.087374559488895 
1.938965021841443 
6.646064604857266 
3.0704744828654125 
1.6009033719708998 
1.6550070995291812 
1.7537787893252939 
2.7410634769164517 
1.5834031746678896 
1.8824037279080719 
1.7836546749796751 
2.185793320953535 
4.361719436515581 
4.5100814913844856 
4.666191296451612 
3.18137914059974 
2.9243878758163286 
3.3766778950727225 
4.619145814623243 
3.5478292090874968 
3.327580337793698 
6.6329544713355695 
5.496512532355791 
6.024967057013836 
5.933020547256372 
4.815516275271947 
3.2316685449369453 
11.50751772345393 
11.67799088152979 
11.842375537032371 
9.713769197588332 
11.405754687736627 
7.897090462403075 
10.765298039071833 
11.887356360317156 
8.753415849889334 
8.56694534169012 
8.092947386465708 
8.495796190229779 
7.697194017404371 
2.1963262925511575 
6.828243207083117 
3.5923823952487055 
3.5841077359418607 
3.625335480704366 
6.977716515831616 
3.1320361240882066 
7.176742580948086 
2.577120277542471 
15.313957016964714 
16.600143783829154 
16.20683998237275 
15.587907355978308 
12.505364375285911 
12.026349815981556 
11.633461214812765 
16.07880400656509 
9.12919628706146 
18.76507357395212 
8.628357458643283 
6.272953624781593 
4.756825515549396 
3.9827179904438075 
4.822185813184725 
2.322396760714284 
4.507632725195678 
4.412747841103337 
12.877605414545698 
13.492121767045523 
11.860252212574094 
9.031579920578721 
10.327113583726245 
4.5313537566595885 
7.529895511776264 
18.85342053974473 
3.8103649732634226 
4.719360464587624 
4.815326737441468 
4.542556663986892 
15.449698146444911 
14.38955972262797 
15.293041379043286 
15.155597113466506 
25.596132420042668 
21.66166374701273 
22.33202984431508 
22.552280395672952 
21.21957861566732 
22.991593280522427 
22.59838350996659 
22.908063331360182 
22.652201213131054 
22.572426507967347 
13.684296831573294 
20.70567779984526 
21.213147281016944 
13.54891308454351 
16.3826497873273 
21.550551411184447 
20.67105375716564 
18.992160500300226 
18.54296364441537 
17.96548385216947 
17.802705335636457 
20.10187394691311 
12.16485728334022 
22.06046694418683 
18.969005656221057 
24.82592097097383 
25.066083838065122 
18.961307790264286 
27.302083786789023 
17.97773815145823 
4.953820914313681 
14.989502796963505 
11.527044115130105 
8.88629855531998 
23.692872421858507 
6.920869497041261 
8.44541178226612 
4.675928119765326 
12.619349725313665 
5.618387507440999 
2.5825404732347996 
24.606857602269855 
11.079587714357341 
12.547961283839212 
4.134140007538484 
9.009019896714797 
11.160623753694134 
16.35376158724464 
25.568794786130404 
26.306516610357306 
3.4745904029574888 
6.130718432310131 
7.903240845120207 
13.82815661431931 
16.6822498656875 
2.9303526749990962 
3.2547034185583748 
2.830487910419003 
4.407105216783901 
2.8671494850434565 
2.7503182650392453 
2.7573494828875615 
2.3636622376846 
2.8923117425092086 
3.258819413239511 
3.468586108013882 
3.616573703212809 
3.6532236671982794 
3.4551231842138224 
3.654959376111286 
3.494345114614978 
3.700327239929595 
3.4527652046765716 
2.8670875124751944 
3.840537123352754 
4.924155503481021 
3.908979119540545 
3.455727690775039 
3.450952127538077 
3.9631015102438205 
3.5529300296733264 
3.8439552348627855 
4.523218617440883 
9.25742848025487 
12.53065166248361 
13.484228674975224 
5.671983797305699 
6.639080995968072 
11.37398727251174 
10.38850245478756 
9.535047948697784 
10.245747962893526 
7.6107119407968 
12.374710680083036 
3.279964667723699 
20.550328917690607 
18.733887051292523 
18.560515161913855 
19.56769772975402 
19.20943405901159 
11.609560082401796 
19.95317414622866 
24.0626597472364 
19.77559702120153 
15.235315409697552 
10.59955580091217 
9.696620615420388 
15.831163337412846 
12.02912181771601 
18.311108208910813 
10.064449175740284 
7.07351225945885 
5.365923565095891 
4.731912206350214 
4.024440642673396 
5.437650611413128 
2.426539837529397 
17.861268526561343 
4.491845784127947 
13.822617074550841 
22.65135275794389 
21.13738965089084 
23.078673139325513 
3.021568492923369 
6.39650163588959 
7.54222185939326 
3.019496708311787 
2.5265863055500026 
6.903302493097322 
10.804117661378397 
3.553763530815992 
4.090585713499968 
4.2539389804319825 
27.792259864448816 
23.177186026499996 
23.667100677719244 
16.972971720560704 
13.428511866418 
3.4760173033513277 
3.504361539938124 
3.1771762001718864 
3.577717967882774 
2.2928141300556284 
2.3631042816902728 
2.7927390318603575 
2.6271849654524715 
1.9087195409011994 
2.601574868651155 
2.9176870238974075 
4.083310968908791 
5.4242748745541105 
4.963866232255188 
4.948886054380508 
3.958535584283916 
5.853478474117283 
4.717067895440169 
3.716724257622821 
3.7616556277521895 
4.373460569504544 
3.959534610297665 
4.072310519934071 
3.7928906903068818 
16.646167530820804 
15.501322444871676 
19.93045720882043 
20.623216592153973 
16.293815150392014 
20.33803765520077 
20.648721726112335 
20.956951035051297 
7.349833298496328 
12.34643329837534 
11.719229751053001 
9.553654205561013 
9.370809392223823 
8.89860657718872 
3.3295664721638847 
2.7535466252953555 
3.332787934392715 
3.7518213389158706 
5.233784511216331 
3.771274962358867 
8.369466533856547 
11.068845224668612 
11.56610633023095 
14.19213566944789 
11.578678826468787 
9.507500915397861 
7.307559367271462 
10.898648385299973 
9.34099185763996 
13.5758507654883 
13.073035892681817 
12.528630974481294 
2.67702532512813 
16.248082670922727 
2.3144068178544965 
2.613933598173561 
2.614103124795451 
12.828317344241883 
17.311466198658756 
13.126541415160608 
14.056359924879688 
22.524987648874692 
18.21928316944605 
11.231297573899719 
16.640917905100768 
15.994871051854103 
17.530445305848097 
24.22367026329935 
2.3289521124085555 
19.646896049164237 
13.83856378252998 
13.812206095044864 
19.75322409737496 
19.966045109043307 
9.762533767031835 
23.35770883919044 
9.478436686801066 
12.343549450493017 
15.530805582646636 
11.326937368656992 
20.868612578211753 
16.434728894622467 
15.432212077909876 
26.802459067766296 
15.985300869469357 
19.969092862153175 
3.4716520672706923 
3.6667732365160983 
3.092207176283465 
3.493496877313026 
3.180662430662087 
3.789565508982624 
2.729783618001902 
3.2226932136322155 
2.731754385322425 
11.827873264201296 
9.16945898054138 
18.22482252869427 
5.5806864972446775 
18.989930417713165 
8.592170342105472 
18.662976527890613 
9.354232190016653 
4.779507282175593 
3.6997448946930387 
4.782456334708076 
3.3193985417793743 
11.872619492311246 
7.987275446890583 
10.124174332306623 
3.4088307670497144 
3.593474915996296 
2.5915121455937635 
3.5697868972462268 
3.280023896094483 
4.058441380351221 
3.8347150009209643 
2.439106741058257 
2.3534458449804583 
3.2056830874558946 
2.35695399793069 
2.278090252629581 
2.003682883919234 
2.2842638509133026 
2.1482696816850084 
2.3515405744577307 
2.486710475584196 
2.9459082917991757 
12.471879412553413 
10.149187599436212 
9.548114248947723 
1.8835126794780608 
1.8950780024490927 
2.9256602022334315 
2.0519452663887807 
2.545416089917414 
2.297490403787011 
2.8704532995224414 
2.3564421873809525 
2.2701943930295676 
2.863274893729474 
2.2168909313151386 
1.786879687917495 
2.534575834510698 
1.9454532089448155 
4.004010101562919 
5.0390330882559065 
4.727976898117573 
5.421107867217626 
4.085402496529639 
3.4530409058113083 
8.191690185444742 
10.888392975926129 
3.1909492607931056 
7.715705913328373 
13.875866741756644 
14.924055312259314 
13.744461859998815 
14.008620394696957 
9.724738500806971 
16.977070949737055 
9.158647699044977 
13.815627839403827 
6.227725299571224 
8.870926048854171 
7.7564784701789335 
14.821402007028148 
13.759241282655818 
4.893431099015084 
4.155470763124933 
13.96378689957304 
3.3376093164794916 
2.872853531023371 
3.6767277840515598 
7.404271554845547 
2.8981908059537624 
5.671481284037653 
6.717467076460484 
8.158448497072541 
6.343515970218035 
8.913758903834532 
5.1266009265943975 
8.353522930245527 
9.815470777186377 
8.677983252119095 
9.34206517896097 
13.993553297881135 
15.870881324985584 
3.3120232159294027 
6.519228421127175 
7.340613365943855 
11.574819234704902 
14.627496561625103 
26.62271855640666 
19.455716428036432 
5.718346689239944 
19.408666504920582 
22.706379233522245 
21.27131388925212 
13.680299534351484 
12.835323345514087 
7.892550993346929 
11.19291790626028 
11.49278049537789 
11.714844402536437 
6.933418262782635 
3.593356682233456 
11.032778848263549 
6.466785662381101 
11.393205357449599 
14.928064595107795 
8.982818604995026 
5.467338948655849 
7.8308167151648265 
5.901101824908553 
10.42065342864472 
5.743850370322048 
4.1683933121402825 
7.383413986920513 
7.514946290875077 
7.480790384104885 
8.119872299843813 
7.969154146368151 
3.961726950318224 
3.043642825381299 
3.969828171789374 
2.869963210180768 
3.7890686743438886 
2.0743524836597533 
1.4813152517250603 
2.074872437103495 
2.13964149791135 
2.2860566813175645 
14.610917415753418 
2.5506323763736556 
1.9034586648616858 
2.0890748295539012 
1.9341216737078484 
2.67229774539572 
2.0974478321870014 
1.8483973257172825 
2.1100890929719114 
3.433791751818941 
15.137974632284664 
19.440836382472963 
2.898213804556378 
2.7723096513990946 
3.550386679382036 
2.020793226790806 
2.46536559981445 
1.5197354136794572 
1.4927389136456592 
3.620572166299989 
3.623975596168052 
3.1492134916919774 
4.038888726685188 
3.9722276302456945 
3.926952861386158 
4.048640603681744 
4.100826442491034 
3.247872277668762 
3.8190301422301896 
3.4967774496600326 
2.8216926262791495 
2.8750606825571356 
5.576472308387998 
3.39320871932232 
2.7197035104286775 
4.647715033565168 
4.384054228691956 
2.9078983998704935 
3.151974827522342 
3.135525024502461 
3.330434698436495 
3.294490164977739 
3.3710988224266414 
3.6462933800773665 
3.7191569205509993 
3.7260143833295643 
3.3457537153155856 
3.33642799597126 
3.5368657655110796 
5.359177101530057 
4.604778652218951 
6.104906912026714 
20.28817180739645 
5.652187310026292 
7.176476723741223 
9.379795024750013 
6.981864612778622 
8.030282606260332 
8.693043981388612 
10.837412526851786 
4.754947239680965 
15.941566373993057 
8.618410428422907 
9.874639766127968 
9.385105425178837 
8.38737632028317 
10.721610053452938 
10.69677220371585 
12.50007853802968 
13.693918393099834 
13.906887084798402 
11.287366333085492 
11.467922530156105 
17.089770155422137 
15.187410472966414 
21.16042960790651 
21.77140400430523 
21.551347315013306 
16.125350380673016 
13.332561782892034 
11.173301649009021 
10.296236955313057 
4.704816954914892 
4.043330765797446 
2.433259017514086 
15.04211339286474 
3.2919599753692803 
7.013935992087178 
4.604769998167228 
5.782077537242856 
3.9557197720208417 
2.3490705893127126 
2.5079596003050475 
3.8856710022960437 
2.6868657100429845 
3.1203061502469422 
3.7398872176918543 
9.411127250468615 
4.851330203826477 
3.294937729407356 
13.050434393921918 
7.528907528676714 
11.16010798162553 
9.667142665056211 
7.262884603873255 
9.223118343048545 
13.209411164223644 
20.848616199248994 
25.764088264795813 
18.475738585628513 
15.447610349515655 
14.068494570102565 
14.953243333896356 
13.150598737989112 
11.807947461982053 
13.74903283917084 
12.483072909758805 
18.25997401819966 
5.099973731250683 
8.794119711075433 
8.57325499012415 
10.878543974188752 
4.573220647952077 
16.696015867803677 
10.181499671722873 
16.387812277067724 
13.974224172591317 
2.885730387560742 
3.4961599384940047 
5.749935938995037 
10.116826812608025 
1.6666973908698797 
1.7969048171882858 
2.160802161232096 
1.8269344996241326 
1.1836459130741646 
9.23454486249679 
2.6310138313970475 
4.3166229723797835 
4.127157770821683 
3.401526202949316 
5.284875239324626 
3.2152620358439337 
4.192083900140195 
5.919907506480622 
4.710341501319825 
5.299215835079359 
3.5168354009486675 
3.4224803170544753 
3.3298825543736155 
6.7761296182099136 
3.3110964487684047 
2.9800841918521823 
3.99773730461505 
9.271374656258004 
11.043389415107702 
10.812586479051333 
5.909796968412488 
10.621309134066559 
10.71379979780741 
10.546793480001988 
10.684995864215502 
7.5449720344946165 
9.579996155659325 
8.597182271218506 
8.436855263622482 
9.172639915297106 
9.555310771165178 
7.724895160468502 
8.7809685495562 
13.234307672269493 
3.562263716456981 
3.7331361740518 
13.016560002954702 
7.967766986657702 
11.289130592641131 
10.552984456398118 
7.700429030542053 
3.4479403493657843 
8.262952505372022 
14.786044610493665 
10.238368107031452 
6.911229029827304 
9.469622642387229 
10.388325459594396 
4.004263460898094 
12.923723537704639 
8.98081820407771 
12.297251741460345 
7.146267846517593 
9.085118066511134 
5.107582413841312 
7.198797798402892 
8.72017025306657 
8.887758749828896 
8.051370528917818 
13.516897146256635 
18.439877460408 
6.189360621711471 
16.988782502101316 
16.023805387147288 
18.299825005917263 
18.5011669366411 
23.363924689512064 
20.13504339170367 
17.695504859202455 
8.925070639061847 
3.2958221435813915 
16.29335804685942 
22.007352908413797 
23.907380168554376 
21.326187987120882 
25.16712197574463 
21.54819050482859 
25.01085338240174 
25.820799357699386 
24.650305446427872 
19.354497181417468 
19.49386191841949 
7.877617816982291 
6.389510027592878 
25.451912113094828 
20.659606859992532 
25.533881650285505 
26.344939592321033 
20.745844965082558 
25.311853755131825 
15.758996858417607 
1.9724078204904454 
3.8918275459515743 
2.5242205228364205 
2.672612057441505 
18.933231437337785 
8.275460072410631 
5.127285740771084 
3.0339255774463716 
4.628883582294244 
2.8401787894424335 
9.628704312833145 
3.4984784805924622 
11.248148818961017 
20.94599453626216 
19.892317793082395 
18.784838248332818 
18.58103263038456 
3.2083188220374774 
3.438941245891904 
2.8207059163088326 
3.193369785957644 
3.3906530920386517 
3.3179442996144193 
3.0322152750427134 
2.0029961525385707 
2.2011944929468186 
2.037807144507253 
3.2258175085202057 
2.000278362212658 
3.4445245322978817 
3.250465880302022 
3.232097592699405 
3.4280750812337004 
5.085067102088135 
4.695799136394928 
4.299027729338244 
4.499261052553538 
4.25255646311346 
4.079636396762027 
7.304720358928435 
5.552424437656472 
7.223365428100838 
5.495039400191262 
6.767032900499722 
4.99151612268326 
5.126793837650465 
4.582271000553002 
4.3134786764778115 
2.6424529159278025 
8.351485283142791 
3.603849287136174 
5.585972210331437 
6.880817467440327 
4.378655397650838 
6.057606878798692 
6.88955050885304 
7.583233543490178 
8.47411044519446 
5.884200393865823 
4.801208814378641 
7.904247979401533 
17.629734531828007 
19.04030747898396 
16.11801286555204 
15.332661109923833 
16.977232911101222 
2.52504919372306 
20.816667144573863 
16.94079543012889 
14.835645117378453 
11.327658384002453 
3.6724669331267497 
12.960484880426097 
8.868713520332468 
2.9442455034581765 
10.615848621835967 
9.742809901692018 
3.166352503248736 
16.77118595017298 
16.249264451905397 
14.171217863697423 
18.653530938896694 
16.69748798127907 
16.09500719379086 
12.829827440334645 
9.96087606910142 
13.415529247059192 
9.802559941386457 
17.05378231537467 
20.43301988481782 
14.465415982063218 
21.48020115491639 
5.721482666650784 
17.222011846279987 
19.56973351844911 
20.058936064751368 
20.394254312396956 
19.24580980381806 
20.119488255659608 
11.09066586119169 
1.4888204064224904 
6.32511676469576 
4.618865779496908 
9.531593531767449 
19.78201499500543 
14.748328942775998 
14.783463816409677 
15.735894455195847 
2.94259866574031 
3.3816396707600447 
3.595954249259297 
3.1922283751100657 
3.107903166348249 
2.9039045139770012 
3.8339867065996875 
2.9391220404674394 
2.876148578065752 
2.8614281484034776 
5.27491842043259 
2.333583176075155 
3.097357670177685 
4.442704427763938 
3.8247294273227204 
3.5200937988215193 
4.268416772888343 
2.1652187086073953 
2.174858141522793 
1.7715207096655785 
2.86382993649806 
1.8563135258778398 
2.520393399154956 
1.9100822868233673 
3.342718308972126 
6.276102233531644 
6.192836230467829 
5.4654977463388805 
5.717609301967107 
4.958135970250628 
3.5512284388448925 
5.30073085759821 
5.8895552763588555 
5.776889262108151 
5.348618683112414 
4.0819430456346435 
7.9052034294522295 
3.4552860655389335 
5.44397044664259 
4.860530815127159 
3.9386617979695067 
2.9872017319404947 
2.687629973687126 
4.156240421942255 
8.51148910057457 
3.8257104236274047 
15.562657749879829 
8.603945622296942 
9.609064418935581 
3.9433405442916483 
10.664642626227096 
10.567859549008087 
9.894426627738698 
9.439453502887787 
9.304186875764216 
13.591702975546623 
7.8108805777282155 
3.6958143677786355 
3.5958076433322135 
5.043520885470041 
2.8278495745785137 
5.156973062613896 
16.558592570734927 
6.061191866437093 
16.03942403478488 
3.8383308455528398 
23.399844937973292 
16.29953893898136 
21.896320147346707 
13.266288552559187 
20.905594834941706 
18.090302730320076 
21.009723407418612 
24.63035347455337 
27.39850444726641 
27.49129535211311 
27.13780353920557 
24.241645464031254 
15.75000878633555 
11.519108003838037 
4.678929454619606 
9.096999753805514 
11.752045517862637 
8.846845253322549 
3.210639703136334 
3.5152761763371725 
3.7144696791693232 
3.484904901169019 
3.40538240566492 
3.6481948764401153 
3.524058109813551 
5.746620672902123 
12.584771450650404 
11.600119952435822 
8.54884362682179 
13.482355605618343 
3.5234331526897025 
6.419321339555232 
4.9154429783389215 
11.40115082769785 
14.561028165781957 
20.591073533366092 
20.32892806432281 
20.734902044435568 
19.975701979461395 
20.857872845237562 
16.697822846554306 
3.8193993899583054 
7.403559376184224 
12.727862203833919 
16.50809726319603 
5.763831533017076 
5.460319887605313 
11.163007794245637 
10.920149543713359 
11.278379639700505 
11.025288429902586 
11.08013694073973 
10.977124194107487 
6.1812425502809285 
6.130843259677512 
3.6021151791243717 
5.527714263501348 
5.615031046371966 
7.016986119566295 
10.960094339452867 
13.188786865883136 
10.277706744676863 
10.922864750521427 
12.08711547195941 
16.0949611120476 
5.226159396818575 
5.3866973484844305 
9.994513226586518 
4.57223274004661 
8.778219987113005 
4.475431754997917 
5.200831178735752 
4.3309518737718244 
5.805197114058465 
9.559483428014339 
5.525780385329722 
2.8946736588327 
2.416897109295009 
2.5979989568829547 
2.2584198613818063 
2.7421361032605485 
2.308476381635262 
3.1057556780944937 
2.014474268554233 
1.7941989477912748 
2.9185384648310686 
2.7857007393837243 
3.1755414342972452 
3.3568536490205485 
3.022313056733351 
5.2124071352347086 
5.583940068227922 
4.693567011656176 
5.130360943420095 
4.794072389164027 
4.652305059059037 
5.585027430278666 
5.823297791020023 
4.946550604832688 
4.930512769636916 
4.8797149072631925 
5.925673722497446 
9.213284131843501 
13.562617173525169 
5.426138230197494 
10.83190107640027 
3.661851844268644 
6.071289907403987 
2.933137574517375 
4.890335597331714 
4.196719721494957 
18.906920815485535 
21.504045239123286 
19.835551522074443 
3.5711519870296238 
23.588815255238057 
26.719609004430655 
19.67793461280068 
8.187894284321334 
3.8031876466483645 
12.580756451819692 
4.991112160699058 
3.3082037615010225 
8.181797877671613 
7.760416379826665 
5.165476358390712 
3.8838322660159803 
1.7625971118760593 
2.386226639466615 
12.456005981661233 
1.2470195913115834 
6.6762531423812 
12.087421030868585 
13.83871043387336 
14.084012002602632 
10.014271946152098 
16.899476111742356 
10.408797519836064 
16.058210399180446 
14.126606985855236 
22.645410633608442 
15.12106301529502 
12.960769483714598 
10.409611371788746 
8.621199098816783 
9.143297020503036 
13.88971234368591 
10.790546515329654 
11.956773579818815 
8.38759490484048 
8.829646974863278 
6.976280330362388 
13.315789460405977 
8.87333284204046 
6.501069638684609 
8.636190009548491 
4.857471526927161 
4.042191145618058 
6.37997888053025 
4.1837046473605275 
3.8389310303954045 
4.15653062617863 
3.3630181062326137 
25.901517073844747 
20.736377704426147 
12.786225443846199 
11.45565678886086 
16.042109639553544 
3.431317928641465 
3.3918369194198137 
2.8295044649557988 
3.5866102022042154 
2.1674039774983487 
2.6914214340450036 
2.166828761049966 
2.3502998034159117 
2.9428759956371557 
17.68762921868227 
3.022089716137317 
3.2054374624689115 
3.9741378206305575 
2.8041172652751576 
3.118756672345892 
2.1293106049498065 
1.8557377566831903 
5.072708548188307 
2.1864976027715928 
3.3061657541442613 
3.3708225841993764 
3.565865846242137 
2.8857212718902567 
3.386420537846749 
3.452648395445672 
4.334625442506796 
3.143237983594675 
3.420626860045498 
3.684362621160933 
3.2607222626590024 
2.829951235440058 
3.1241019025692296 
3.337805653145084 
6.347204923444013 
6.076388269242501 
6.3147518823829865 
6.856330160945513 
6.905540047626962 
3.600989925283744 
3.541481036072165 
3.849125582123794 
3.563659072881925 
3.7329879949094016 
9.028553573138428 
5.409607517960109 
4.746371942478159 
3.557491271633228 
4.33431046567354 
4.764586468114655 
3.999278979243411 
3.586433232391202 
6.361357694721592 
10.869004922320904 
6.991861074454527 
2.4643944264247106 
9.693253697350265 
8.986688416695895 
11.188185689969249 
11.330851784237876 
12.188060759342378 
12.12066522206677 
18.56714225876963 
12.253439815970866 
10.587916640373324 
12.25922446387377 
9.822229263408529 
8.399803785595868 
11.949285844030296 
11.876419037145787 
11.848917386430612 
11.602389520284337 
18.94890313592164 
24.65384604739958 
20.103789040676542 
19.660435897960856 
19.34861292019893 
3.592162059329178 
10.719956504797421 
10.680677041377576 
4.731321822019211 
9.257622648361364 
10.297580429737208 
9.817088385184087 
11.048260898485658 
17.17769061915568 
17.93844395008471 
15.87627682678215 
3.4246908461842667 
18.65695718198637 
4.1650221707530894 
15.836574962992799 
18.317837992498447 
14.338162883959917 
12.071950815624065 
13.189349879013086 
23.59679052988213 
17.858298798950283 
18.221858307208013 
21.20273789635606 
19.525989782759684 
2.0777905728557093 
3.3344075809354714 
8.214773510677977 
5.8871863094674755 
11.132170669843688 
13.599275442322885 
8.57400786442957 
7.242351830743646 
10.82714744951876 
5.611481844212818 
15.915714039232608 
10.936663739581356 
13.212565511801317 
8.127228453278288 
6.922540134405617 
16.770495718734935 
17.172542977402113 
19.908151054743286 
3.3929056228280245 
13.225997394337911 
16.656061219658657 
15.522600152961372 
16.037546333048514 
9.826743900128669 
4.962466987023946 
4.714239128473312 
10.177302585409704 
3.5924359589718575 
4.685586529291132 
5.611683784299382 
3.853195197548254 
3.7914157375604933 
6.867958116813062 
8.088452004646259 
10.09937473160859 
2.2726875722856623 
2.393181157123622 
2.7189916288534177 
2.7277369023992026 
2.4621392337333172 
3.5919801835400937 
9.642984793171646 
2.439425547649381 
4.593432065169319 
3.280036725149388 
3.494146584873479 
6.650788288964542 
4.601990229169882 
5.145207886090989 
9.06622386185412 
4.402853301687013 
5.143232039611042 
4.393696634853059 
10.81002379271153 
5.83746801842371 
6.426516792846472 
7.213641179144254 
2.8561248759740563 
6.187866324809384 
4.017082060234164 
8.192154281901571 
8.311637043469194 
8.878597638291676 
6.889460971164828 
7.043603749351033 
3.4656333978988845 
3.945318279838481 
2.29382691886584 
3.1994743382800697 
2.926865896271147 
11.570123316594517 
2.950349844330562 
6.674066811281973 
3.8327930981103013 
15.369564784185862 
13.775866405542244 
11.673687126648638 
15.589945692088556 
9.964908799896966 
4.3928881736301735 
7.346088919773714 
10.718574028278004 
8.652666578967407 
12.645647571041689 
12.811978400377287 
11.697741615891474 
11.541419026065086 
4.220613099531131 
4.467544659904529 
4.049405497827263 
4.160427380741939 
9.423471453118916 
9.263749799477502 
13.492470161432905 
9.00616042322801 
6.136623531585474 
18.121921882601097 
11.941721345662236 
12.102947731948255 
23.06884608982012 
18.857229619853207 
13.327211768357827 
13.1140585718877 
18.716457988476833 
6.417464147353551 
18.188421614512972 
19.25590716514307 
18.884278233497266 
19.77319331461167 
13.107863503529 
18.2601170081014 
19.32632990117832 
26.515068739726544 
27.52411346979301 
31.208341663182807 
29.9220724128972 
25.046768099260255 
19.56209622674772 
11.990793741859623 
11.330025104845515 
7.352800064817745 
8.225884445724102 
15.752886981898694 
19.267217993967073 
13.020288581815038 
17.063376974035478 
18.650997246190887 
16.644806895907397 
14.850608993761712 
19.48957755582062 
22.099238193370205 
17.589496266710118 
18.22694467513835 
10.24204271435968 
10.583197940578277 
16.75470274709499 
12.324148052090724 
11.684556269552605 
27.81075252176415 
22.987856508729887 
22.931128230338906 
16.258841206203023 
12.736746947847319 
25.98828410531406 
16.655713688183827 
15.59513998546742 
12.321003255887549 
8.459991175783538 
12.851249046105366 
4.453530327521016 
2.5414937015258214 
17.929707978709814 
15.021172408157994 
11.538721019175075 
11.876273501989454 
10.49269561683918 
20.29219266101524 
14.659771389122985 
11.18540476736259 
10.438898077871222 
4.503297866143878 
4.602761201412307 
4.541756522958796 
4.079722999974922 
11.757738992267674 
6.057145737588528 
5.286439643790559 
3.9206813489818177 
3.824384974294109 
3.167046500121155 
3.4564921175116776 
4.175321695283296 
6.460246753776006 
9.949551859979454 
9.922948822505692 
10.061481182769262 
8.731691401676944 
7.448161280611432 
7.180129998005564 
6.663212119169199 
7.208600642960913 
7.58220776611135 
6.703407685029017 
8.81548504846473 
7.418874417987766 
3.038602779978152 
8.038850705757229 
3.040035490507298 
4.573144848004771 
2.58663584554344 
6.071262603352026 
6.495295141522277 
5.475358826321422 
10.711242322872957 
8.064912929661634 
8.475847246064518 
6.987814654081918 
7.231966173860525 
7.647722092141087 
12.49387831309064 
9.181474663892551 
7.286277947815192 
9.012926206583087 
13.006512870509745 
12.773068524482628 
13.346594085515171 
3.045022703264004 
4.157782449101475 
6.427894173511023 
3.7684567892095098 
7.322644517290702 
5.279326335326161 
15.294261594654715 
13.606237062914758 
11.550105816046052 
11.097127007493992 
13.331427632694659 
11.767301327474776 
17.980954674952116 
22.512657980115563 
18.747643069516034 
18.556206830456215 
18.43635470885027 
18.315451649362686 
16.131242822194917 
6.211831074719309 
4.056329985132252 
5.052842772527291 
9.659911166974549 
1.9231154386743072 
15.880301063639667 
16.098008017978383 
17.151537532875103 
17.231680502211372 
3.4324896460995613 
19.476816768009073 
23.459180474363755 
23.630419161970593 
16.6227534531119 
19.192555778174434 
19.531383629252822 
17.79660099757928 
6.22555252276841 
15.316065343428841 
21.623381586376972 
3.0947354611062288 
2.918387011561015 
2.885319091604697 
3.538864733701743 
4.296760469087345 
3.096888917950762 
4.467622649673495 
4.938406453908755 
3.590394525664143 
3.4427055569773097 
3.3307886166876233 
4.012457126782687 
3.5814029567863748 
3.534554463594966 
3.4996239910043805 
4.051833829535249 
3.882115152370367 
2.421236626685501 
2.4442605511529782 
2.5542231164129188 
2.5009131442721824 
1.9970221915333553 
2.2817521125567324 
1.7038700506953965 
2.0368445190105176 
2.1285600381785343 
2.3575295201355626 
11.572379552891242 
6.149110203089847 
5.448883080199824 
4.514835052813468 
3.0799224055723986 
3.338809565882966 
5.959687771624422 
5.673658017042803 
9.594231221437196 
3.865020709442596 
7.0409499288572714 
12.2190330472192 
POINT_DATA 6348
FIELD FieldData 1
displacement_1 3 6348 float
2.6070855580472043e-5 -0.05009050498092291 -0.007356614832126659
-1.6249252323655442e-5 -0.05008163573644976 0.0073366445128508016
0.0 0.0 0.0
0.0 0.0 0.0
5.980628254070997e-6 -0.050069000570843215 0.007354671798617531
0.0 0.0 0.0
0.0 0.0 0.0
4.882399078464674e-6 -0.050059787308757764 -0.007335755584087873
1.886371285343353e-5 -0.0500708225401472 -0.005846375817802195
1.817107859454371e-5 -0.05005308169976312 -0.004368483410152655
1.5438857419026692e-5 -0.05003897817368502 -0.00290512564017237
1.161698115602566e-5 -0.05003094468045981 -0.0014509970262875289
4.3892765122986155e-6 -0.05002695265986126 -1.0630395152240823e-6
-2.068642739099402e-6 -0.050028586700856324 0.0014489424688357956
-6.647148940945592e-6 -0.05003659624026256 0.002902495225389066
-1.021424462141143e-5 -0.05004921395489704 0.0043650337730456205
-1.2610052995584508e-5 -0.05006486992502479 0.005840320255392576
-1.983247023755445e-6 -0.04854882580242681 0.0073327024394124595
1.0807956066104447e-5 -0.04704614036243694 0.007318063511326146
2.1696603463214014e-5 -0.04555292663113112 0.007299595621366765
3.2779143142546535e-5 -0.04406500679607762 0.007276824615493275
4.334057717199909e-5 -0.04258271525199229 0.007249217650987399
5.3779885139825416e-5 -0.04110684527209751 0.00721609852938658
6.398951682966504e-5 -0.039638362989684664 0.007177314708420971
7.427547338588903e-5 -0.03817819783067332 0.0071326996835472485
8.41006537445726e-5 -0.03672726086289991 0.007082617851431593
9.407585198779041e-5 -0.035286951413371834 0.007025948668211769
0.0001042008426424807 -0.03385921463069066 0.006963622617129735
0.00011479209885332747 -0.03244405520447003 0.00689539213237434
0.0001249027668142747 -0.03104294824736097 0.006821684242128919
0.00013494090906901758 -0.029656763172676345 0.006741912548489842
0.00014484219762474722 -0.028287152644902773 0.006655938166098951
0.0001546246837681204 -0.026935183180771437 0.006563994812454016
0.00016474720604635763 -0.025602566491300705 0.006465595385786701
0.00017478491834163078 -0.024291006432599124 0.006361847442717914
0.0001848029398793307 -0.023000487867221146 0.006252400422055283
0.00019462164284538897 -0.021732664555957015 0.006136696813841936
0.00020530155220577914 -0.020488118651254956 0.006015264439220568
0.00021521318611321643 -0.01926828776675484 0.005887909244136762
0.00022490014246255628 -0.01807498068109784 0.005754230812320119
0.0002344532802511753 -0.016909143168651573 0.005614970623334877
0.000244292640304273 -0.01577101891135767 0.005469731628344121
0.0002537222805859289 -0.014662761130587239 0.005317917202613783
0.00026442779407532597 -0.013585889243585874 0.0051602482800618965
0.0002745653170639733 -0.012539677858848824 0.004998117285170158
0.0002844683416829399 -0.011526259403386257 0.0048286349849656915
0.0002950668606616092 -0.010548803867744 0.004653665363634241
0.00030556736201001574 -0.009606471191023265 0.004472768722712739
0.0003165540160745249 -0.008701165110267863 0.004286863385970128
0.00032680226239514896 -0.007832230246607817 0.0040942930333463575
0.0003366917144103993 -0.007002776319606526 0.0038952878878912903
0.000346564704471922 -0.006214357174607476 0.003690155187788662
0.0003571163907665034 -0.005469247111060573 0.003480527701720646
0.0003662439951191142 -0.004764681696360101 0.003265499433261997
0.00037416537112678185 -0.004103911899788843 0.003043040186422667
0.00038366966115843887 -0.003489963736362564 0.002814553848369309
0.0003939039215842853 -0.00292323455419487 0.002581243609071664
0.0004036383177712482 -0.0024024511893754098 0.0023432999986247338
0.00041173682443896214 -0.0019297236221226162 0.0020998568055156787
0.0004183360004221468 -0.0015082224235789749 0.0018518022320757374
0.0004198954584394873 -0.0011426555355356063 0.001598921297068277
0.00042008817967041954 -0.0008292841816636286 0.001345782644852819
0.0004074939014357867 -0.0005707139042932847 0.001090835312408581
0.00038222907255264915 -0.0003694265911696657 0.0008346293397828472
0.00033400124977296447 -0.0002242218852177469 0.0005788417030752547
0.00025392085979231545 -0.00011873387941191127 0.0003173482147806227
0.0 0.0 0.0
0.0 0.0 0.0
0.0 0.0 0.0
0.0 0.0 0.0
0.0 0.0 0.0
0.0 0.0 0.0
0.0 0.0 0.0
0.0 0.0 0.0
0.0 0.0 0.0
-0.00020740538015647525 -0.00016713804912955332 -0.00031325007589243513
-0.0003157150531428638 -0.00024502541483929573 -0.0005755421345029092
-0.0003691928268495037 -0.000382276695726657 -0.0008342866614461843
-0.0003969398959291985 -0.0005778318357100586 -0.001089150218637324
-0.00040475605279570334 -0.0008344685352579027 -0.0013448105869173334
-0.00040821641292488784 -0.0011483526959011365 -0.0016022787075705089
-0.0004110454495608424 -0.0015111397171598984 -0.0018528662358269238
-0.00039854714643146463 -0.0019286410011209165 -0.002103499920655325
-0.00039163447017920533 -0.002400041273802838 -0.002346856845680723
-0.000384078918560826 -0.0029222300424112135 -0.002585229132427453
-0.0003745487286460446 -0.00349073670500785 -0.0028167948609212033
-0.0003629684664539374 -0.0041045687586611914 -0.0030452005549911967
-0.0003536946607299206 -0.004766814903685997 -0.003266953384138976
-0.0003422609041558655 -0.005474112278355633 -0.003486515947502725
-0.00032914994926027096 -0.0062159976992774545 -0.00368901985905458
-0.0003188520709019947 -0.007002394157888198 -0.0038970865503405536
-0.00031011549957799656 -0.007832766047559713 -0.004099288087574933
-0.00030009873956961247 -0.008702510279167939 -0.004291962297049666
-0.0002874864515680537 -0.00960621756414599 -0.004475057152041515
-0.00028095147522435286 -0.01054942051842027 -0.004658098043575673
-0.00026771164162213857 -0.011525837272360843 -0.004833529361088894
-0.0002587393426484783 -0.01253996370019117 -0.004999551652111507
-0.00024924177483941613 -0.013584506857753868 -0.00516490772654331
-0.00023934446283300904 -0.014663030804096366 -0.005322617099590283
-0.00023014830558664947 -0.01577013020598193 -0.005473304621630293
-0.0002167047349207565 -0.016907912900125135 -0.00562194432267488
-0.00021210948155854118 -0.0180758427107986 -0.005758688362352607
-0.00019810180976480906 -0.019268857643815827 -0.005891741118616077
-0.00018857546096115067 -0.020488098064068302 -0.006019019845373913
-0.000179373903706194 -0.021734977185841498 -0.006140877338067505
-0.00016976982918605053 -0.02300347469066187 -0.006254887351181045
-0.00015820747001848347 -0.024292468191126123 -0.006364663354618183
-0.00014777696564246672 -0.02560535184206599 -0.0064683541022333155
-0.0001395584047539919 -0.026938245964291223 -0.0065648841797031725
-0.0001287619996594915 -0.02828863599533038 -0.006657806285019315
-0.00011840717794405206 -0.029657429014195977 -0.00674444219601382
-0.00010901491001477887 -0.031043441036769887 -0.006824215765449106
-9.952122977256042e-5 -0.032444829638082415 -0.006899140108816918
-9.037643660135186e-5 -0.03385960661307075 -0.006967937466382078
-8.025275040956675e-5 -0.035288121075961354 -0.007029723850295102
-7.02673982842821e-5 -0.03672844884884423 -0.007086175748783059
-6.0153284434161545e-5 -0.0381793969736908 -0.007137104805103903
-5.130822832527531e-5 -0.039638988122387586 -0.00718120504506086
-4.197959155557056e-5 -0.041107863046617614 -0.007219762918261369
-3.207306542530561e-5 -0.042584018786667295 -0.007252425205783102
-2.261671183072928e-5 -0.044066123512715105 -0.007280082941931697
-1.1631091900321152e-5 -0.04555399419546239 -0.0073033997778962296
-4.3070477350342584e-7 -0.04704881811868138 -0.0073226135834005045
1.2990236463437851e-5 -0.04855355214756182 -0.007338884736715315
-1.2570283115974315e-5 -0.050067454520995716 0.0073488513785752545
-9.894060992575879e-6 -0.050060141599639695 0.007350480112233093
-8.166543286230927e-6 -0.05005525261531919 0.007350941395922645
-7.052256855938446e-6 -0.05005251411792237 0.007351870449770531
-6.8691785603872825e-6 -0.05005022887590338 0.007351828655840671
-6.421793665281812e-6 -0.05004820771493744 0.007351608319539308
-6.259844075889201e-6 -0.05004522051824811 0.007350646195380185
-4.35579079490399e-6 -0.05004561866664565 0.007350805342557982
-7.224426410965806e-8 -0.050051166475527514 0.007351457927769873
-8.30299842186555e-6 -0.04853283722437498 0.007337570426179679
-2.2409608392483343e-5 -0.04702680103671725 0.0073216445672730675
-3.342827400377383e-5 -0.04553254305483167 0.007302984542582167
-4.3903328093026715e-5 -0.04404402265244956 0.007279913640029787
-5.377608557613285e-5 -0.04256177877578084 0.007252398025346891
-6.335674773329185e-5 -0.04108616067024976 0.007219269861957662
-7.301389903161304e-5 -0.03961818517834354 0.007180557109112224
-8.252665099938845e-5 -0.03815820959968664 0.007136183805336596
-9.205666264179007e-5 -0.03670777681330776 0.007085702155865854
-0.00010182880051461521 -0.03526739135177325 0.0070297399031151965
-0.00011131395806965965 -0.03383886347000508 0.006967319703176546
-0.00012075068973623996 -0.03242407224087108 0.00689921461770549
-0.0001298551992015207 -0.03102335042245042 0.006825293226035482
-0.00013893411958767611 -0.0296378034776031 0.006745468805371111
-0.00014848390619491016 -0.028269435470264406 0.006659414328663421
-0.00015865625716569582 -0.026918617980070406 0.006567714585796748
-0.00016580924606968532 -0.025589864520004727 0.006468542999035474
-0.0001770655527510435 -0.02427593874033082 0.006364196823712343
-0.00018600230930991974 -0.02298363620515034 0.006256536007619376
-0.00019745815544913132 -0.02171422358912676 0.00614033717779869
-0.00020638485527774283 -0.020470259543319127 0.006018882163708641
-0.00021562503139878727 -0.019251117901043748 0.0058909903778380105
-0.00022540043831932845 -0.018059830937049784 0.005757190197499638
-0.00023490134153117073 -0.016894347843986943 0.005618515747591949
-0.00024407053492551487 -0.015757791389144828 0.00547305906932322
-0.00025376476990115256 -0.014649806661446116 0.005322816644777134
-0.00026251390390652344 -0.013571592779711797 0.005165365433612462
-0.00027337872667528593 -0.012527107512628005 0.005001932068505351
-0.000282305993873846 -0.011515948439526486 0.004834109988441688
-0.0002908762735233464 -0.010539100150077432 0.004659216056347204
-0.00030114290974499094 -0.009598035454697063 0.004479624909164289
-0.0003101847251620486 -0.00868982857741759 0.004293010468028316
-0.0003208889399114293 -0.007820897599260166 0.004097757522241387
-0.00033147802933831255 -0.006994423463567042 0.0038991638904801117
-0.0003398339189142219 -0.006207525336745223 0.0036939895588717236
-0.00034972217878383394 -0.005462860356738675 0.003483046936876394
-0.00035941085264390286 -0.004760777891450648 0.003267475346667832
-0.0003686964385758301 -0.004101946078476752 0.003045339434994173
-0.0003771629459080158 -0.003489917671902759 0.0028180830592339744
-0.0003868963840696453 -0.002922661316818992 0.0025861555809094327
-0.00039560656195125127 -0.0023986029722175887 0.00234817420973074
-0.0004046650695046972 -0.0019252878169296963 0.0021022156592623957
-0.00041145717041412585 -0.0015065771337227365 0.0018533676274688515
-0.0004125789078188991 -0.0011416239771455184 0.0016020673588499393
-0.000409883883135467 -0.0008343965632498663 0.001347020967389562
-0.00039301793925539347 -0.0005822653951311296 0.0010915760199288486
-0.00036085971531539963 -0.0003890334302939291 0.0008342209568508244
-0.00030629382654833945 -0.0002534563909875715 0.0005756429852135641
-0.00020388364159472234 -0.00017273207334730193 0.0003121486241044439
0.0 0.0 0.0
0.0 0.0 0.0
0.0 0.0 0.0
0.0 0.0 0.0
0.0 0.0 0.0
0.0 0.0 0.0
0.0 0.0 0.0
0.0 0.0 0.0
0.0 0.0 0.0
0.0 0.0 0.0
0.0 0.0 0.0
0.0 0.0 0.0
0.0 0.0 0.0
0.0 0.0 0.0
0.0 0.0 0.0
0.0 0.0 0.0
0.0 0.0 0.0
0.0 0.0 0.0
0.0 0.0 0.0
0.0 0.0 0.0
0.0 0.0 0.0
0.0 0.0 0.0
0.0 0.0 0.0
0.0 0.0 0.0
0.0 0.0 0.0
0.0 0.0 0.0
0.0 0.0 0.0
7.810794363188407e-6 -0.05005034333880319 -0.007348639001510592
1.1089498191013552e-5 -0.05004769836775995 -0.007351099756679147
1.2778613590653036e-5 -0.050048028059611165 -0.007351741666419103
1.3805780601613666e-5 -0.050048732464001204 -0.007352179226076811
1.408638159684056e-5 -0.0500498076021638 -0.007351955912192581
1.4521822177498482e-5 -0.050053047040918126 -0.007352191674976532
1.496963897703338e-5 -0.05005616084233444 -0.007352646262007552
1.6805577074370476e-5 -0.05006160684577027 -0.0073531055276204165
1.997644682882603e-5 -0.050070219037941614 -0.0073545144173009155
0.00025234153994251133 -0.00011847173761074627 -0.00031853762137839484
0.00033394967395487997 -0.00022488781056474185 -0.000578029739577567
0.00038080787311184106 -0.00037264863810261946 -0.0008350629689020173
0.00040458894973150156 -0.0005759909097795847 -0.0010909164947553334
0.0004158714874847376 -0.0008363422318357739 -0.0013451885935235539
0.0004186335308912451 -0.0011440295442828542 -0.0015981919068714478
0.00041652929349645485 -0.0015070697969983122 -0.001850079419128271
0.00041346571215477966 -0.0019284886232063402 -0.0020982350044884
0.00040539420126195 -0.0023977984354152434 -0.002342715004866647
0.00040610077406042454 -0.0029185382877889 -0.0025838823546306985
0.00039179514892320505 -0.0034833236351705494 -0.0028136291837238814
0.00038166518102494097 -0.004096990203685235 -0.0030433119450267313
0.0003762490974049962 -0.004756829188272617 -0.003264295111177318
0.00036424613301861363 -0.005461348680438396 -0.003479557896844685
0.00035557205248142233 -0.006206245946798962 -0.0036905054584566526
0.0003462954723988627 -0.006995935722304093 -0.003896561906074992
0.0003380074444918843 -0.0078218884302872 -0.004093055949280345
0.0003271043072315625 -0.008685125880625514 -0.004286115186194069
0.00031682657896391585 -0.009591264673727706 -0.0044746499152308475
0.0003066258795568124 -0.010535119843419522 -0.004656032250468804
0.00029948466161826124 -0.011515617238046012 -0.004831322128359586
0.00028867306590484113 -0.012527130230639024 -0.004999413341635918
0.00027542085848222554 -0.013569765815115355 -0.005163073167057572
0.0002697348329021882 -0.014648204814740672 -0.005319273419453488
0.00026015154175558204 -0.01575492196047024 -0.0054707541017881564
0.0002487750191461378 -0.016892467404211665 -0.005615778833263748
0.000240900767098808 -0.018057886383136837 -0.0057549681023978
0.00023235251388378298 -0.01925070126427764 -0.005888363887029934
0.00022028391151682444 -0.0204703156984513 -0.006015921945990934
0.0002119943740179565 -0.021714711630332017 -0.006137251429962823
0.0002014694368233223 -0.022982671702983286 -0.0062516883624582995
0.00019330669313563065 -0.02427272160813938 -0.006362888796296514
0.0001834288916288133 -0.025584002832632815 -0.006466179239350045
0.00017534261232151965 -0.026917956445200123 -0.006564623581738968
0.00016400726371576472 -0.02826819211114762 -0.0066569704882145884
0.00015365136595890417 -0.029636107865104722 -0.006743018547712283
0.0001450073570680065 -0.03102200882802418 -0.006822498140678906
0.00013510114175667185 -0.032423006498619907 -0.00689619164035867
0.00012564912670514464 -0.03383793253292388 -0.006964221263000469
0.00011563326822536895 -0.03526623577034567 -0.007026280362206416
0.00010538755988888623 -0.036707449087877805 -0.0070817939751270965
9.478506985186826e-5 -0.03815744347670974 -0.007132742539230769
8.600026264244999e-5 -0.03961706169352005 -0.0071771723680807
7.544696654264638e-5 -0.041085973295078584 -0.0072164779369046465
6.528937500608077e-5 -0.04256149792313583 -0.0072491706039290865
5.4754415508139964e-5 -0.04404332923213443 -0.0072766773669237835
4.411333498970426e-5 -0.04553100298379934 -0.007299435577830738
3.1932493785492237e-5 -0.047024269466519546 -0.007317706496664406
1.8810324703122345e-5 -0.04852783935795146 -0.007332220445790583
3.4945298155192473e-6 -0.05004369868976987 -0.005839596407730176
2.0197290226410764e-6 -0.05002768080575767 -0.004364554273412618
1.868572111741666e-6 -0.05001483918165254 -0.0029024710319869324
2.713473363156083e-6 -0.05000752275604717 -0.0014487016391206058
4.447030644780336e-6 -0.050005230346695545 1.1355920686676079e-6
6.2729166683304e-6 -0.05000898822950027 0.0014508277442093448
6.723503939473996e-6 -0.050017579632284676 0.002904971539179061
5.1982383890088065e-6 -0.05003085088179609 0.004367545564262883
2.8347873151489874e-6 -0.050050042832477375 0.0058451829107668725
1.0887459082010646e-5 -0.04854757185311816 -0.0058405744011925794
1.0879253518870605e-5 -0.04854081527473092 -0.004364303614380917
9.596364021007496e-6 -0.048535507384675415 -0.002902527172489639
7.63318981748368e-6 -0.048532160270185795 -0.0014497766624532629
4.132092223881423e-6 -0.048530567012683684 -1.5627748438864956e-6
1.1110666236609015e-6 -0.04853109891151408 0.0014464691660002395
-9.63466671473801e-7 -0.04853407681937529 0.002898754152875928
-1.807247286997951e-6 -0.04853880485721327 0.004360203869179813
-1.5239232139445599e-6 -0.04854413157978472 0.005835241457218052
9.761190368453339e-7 -0.04704333452101879 -0.0058326470485039125
3.1167243279214435e-6 -0.0470398072971699 -0.004360093990503876
4.3649588756829565e-6 -0.047037365672414184 -0.0029005605142568623
4.5643758893217e-6 -0.04703516658784995 -0.001449389283086998
4.644662593638449e-6 -0.04703487535983002 -1.7474838215032255e-6
4.416222298187471e-6 -0.04703526444288031 0.0014452785977907402
4.795516926279113e-6 -0.04703639532127953 0.00289639050206248
6.669943101213847e-6 -0.04703806814426958 0.004356960114095998
9.20917308445843e-6 -0.047041093347725105 0.005828268199853157
-8.27565434584903e-6 -0.04554840879924678 -0.005821404210828236
-4.725438688125079e-6 -0.04554402900706687 -0.004352535147316783
-1.2384128654818021e-6 -0.04554181814615308 -0.0028962571928691314
2.276876096593991e-6 -0.0455406262479096 -0.0014473420312431883
5.038860087354715e-6 -0.045539434526863584 -1.912718486108549e-6
7.062258076985378e-6 -0.04553970298604066 0.001443701412779962
1.0636267162535954e-5 -0.04554050004412028 0.002892522718211647
1.4231387022074866e-5 -0.045543183363262234 0.004348909442762427
1.8519345747090446e-5 -0.045546854940138624 0.005816575047573631
-1.706663874536079e-5 -0.044058826912856085 -0.005804801395097217
-1.113731165143029e-5 -0.04405272973940069 -0.004341433303501755
-5.419461187201758e-6 -0.044049372596095204 -0.002889347665419207
-2.659986106342762e-7 -0.04404814917402237 -0.0014443257932196746
5.263710939900882e-6 -0.04404753895221144 -1.8035518749607938e-6
1.0625989508236908e-5 -0.04404765148565844 0.0014404518877540328
1.5353843968246055e-5 -0.04404929642300799 0.002885474374212448
2.1217500190029004e-5 -0.04405223677649698 0.004337596252637435
2.754635073777765e-5 -0.044057379825352294 0.005799892464918641
-2.5644297978087477e-5 -0.04257475449958155 -0.005782639112628212
-1.8109102670443726e-5 -0.0425674795993868 -0.004325809129023026
-9.815192757428586e-6 -0.042562885517023634 -0.0028795789823578637
-2.2276638399085835e-6 -0.042560045606476304 -0.0014395036393441156
5.750522199528167e-6 -0.04255922367410397 -1.713277176650042e-6
1.297466429742144e-5 -0.04255978311952724 0.001436078983691148
2.0831046043100848e-5 -0.04256237763666285 0.002875416555713372
2.8383399060634952e-5 -0.0425669125930647 0.0043224159398643
3.6230559933936e-5 -0.04257353399196446 0.005778737988541909
-3.352698107676017e-5 -0.04109677221036344 -0.005756552525783626
-2.3690726641812793e-5 -0.04108823124424603 -0.004306986937267564
-1.4080039532279113e-5 -0.04108227880538814 -0.0028670737376862926
-3.9491181126655964e-6 -0.0410789434093535 -0.0014336397573087136
5.7189650867899755e-6 -0.04107790774404257 -1.5922002475603628e-6
1.5231546769245162e-5 -0.04107892947385782 0.001429532744088524
2.4894864182165222e-5 -0.04108194234943089 0.0028630537885499952
3.4893895686305845e-5 -0.041087503713917325 0.0043033100107253515
4.478821120114521e-5 -0.041095767944677376 0.0057526671520567
-4.074236707638549e-5 -0.03962609871747976 -0.005726012613576189
-2.9344579160673435e-5 -0.0396167599377415 -0.004284809465126383
-1.73281830799561e-5 -0.03960923955641602 -0.0028521900601647665
-5.7092721946185545e-6 -0.03960508379246406 -0.0014260274143122367
5.526165652960492e-6 -0.03960438228846374 -1.6653016179938005e-6
1.797210572877727e-5 -0.03960529521277877 0.0014220350425130559
2.9800915016700893e-5 -0.039609000071561956 0.0028479135261386917
4.1436750214192467e-5 -0.03961580476286765 0.0042805052219217835
5.310352202485084e-5 -0.039625525811218754 0.0057218818749811854
-4.8722221334945e-5 -0.03816483023670741 -0.005690559221756927
-3.491777233917793e-5 -0.038152892124326696 -0.004258057434574188
-2.1662287257357495e-5 -0.03814483035412078 -0.0028342706916446897
-7.791205078468964e-6 -0.03813921328327097 -0.0014172262920408493
6.6949572636255355e-6 -0.03813785690321914 -2.7110586865840394e-6
1.9313636751008562e-5 -0.03814121575105505 0.001413958082530635
3.326820047745353e-5 -0.03814450226375455 0.002831564590731477
4.772938195089389e-5 -0.038152344860340956 0.004253751620994391
6.15816434264277e-5 -0.03816364982020786 0.0056859800431107175
-5.5776013295668266e-5 -0.03671184482153233 -0.005649921069584275
-4.112120352863038e-5 -0.03669879891451286 -0.004227474208179391
-2.626001047691888e-5 -0.036689507871475575 -0.0028143149120496086
-1.0205569494326232e-5 -0.03668355189106387 -0.0014078674645252563
6.366841226340205e-6 -0.03668183772729225 -2.7253614454405706e-6
2.1633253191158815e-5 -0.036683415552871114 0.0014035282280517004
3.811791721974778e-5 -0.036689162686342335 0.002810377832544681
5.379329073578596e-5 -0.03669840452386509 0.004223501923682399
6.959877119298747e-5 -0.03671086027489841 0.005646018826273589
-6.434166114782988e-5 -0.0352699306533069 -0.005604559926541753
-4.776440586920186e-5 -0.035255338859378024 -0.004193568539611426
-2.941067729670601e-5 -0.03524446597599317 -0.0027920338604014174
-1.208758810334139e-5 -0.03523846116612303 -0.0013967432209233582
6.177044832306703e-6 -0.03523621645749025 -2.2702194897535516e-6
2.562003968500868e-5 -0.03523817697589707 0.0013913083967600787
4.286640898565081e-5 -0.035244231326326744 0.0027880394720440444
5.974224615543784e-5 -0.03525438381209581 0.0041899187964784795
7.755835503661132e-5 -0.03526863766753274 0.005600678468906762
-7.219453563039371e-5 -0.03383954230039997 -0.005555025534188384
-5.325058854881312e-5 -0.033823518232923074 -0.004156071395142685
-3.272569022494718e-5 -0.033811858811460774 -0.0027675549274509314
-1.3567541072253475e-5 -0.03380510769371358 -0.001384264862494671
7.183614253814798e-6 -0.033803036920893495 -2.2813400266624147e-6
2.7774824304063757e-5 -0.03380516032511107 0.0013798731827852303
4.664066257536488e-5 -0.03381224947886112 0.0027628360757541064
6.591287844513178e-5 -0.033823422730762547 0.004151957488546535
8.585108590538783e-5 -0.033838877898334355 0.0055506994650431855
-8.020562414868947e-5 -0.03242304222849466 -0.0055014702487494425
-5.8058478896706584e-5 -0.03240531206178966 -0.0041151161735148625
-3.6895061215777366e-5 -0.03239253298677375 -0.0027394541684299294
-1.501038176205804e-5 -0.032384549915061484 -0.0013711473986604801
8.499313023436747e-6 -0.03238231834768263 -2.1545208023333716e-6
2.99228361185925e-5 -0.03238505948082411 0.001366195333837968
5.1596950945156345e-5 -0.0323924937914495 0.002736259399167872
7.361370676077534e-5 -0.03240507220732963 0.004110833402192747
9.477141296428282e-5 -0.03242211312095766 0.0054958264656076216
-8.799425496342572e-5 -0.03101916935958805 -0.005441628144476145
-6.522918399073336e-5 -0.031000500315387168 -0.004070329743507465
-4.0359318511859084e-5 -0.030986938736698978 -0.0027095625289173795
-1.6749923467225285e-5 -0.0309784896836289 -0.0013561001831588076
7.805996043825707e-6 -0.030976176888295064 -2.4344846752440642e-6
3.102241016593731e-5 -0.030978952597261605 0.0013514832667084005
5.54345730406329e-5 -0.030986837366335743 0.0027064827778959712
7.963613097001114e-5 -0.03100044395986335 0.004066670829929438
0.00010320189410195976 -0.031019141531235396 0.005436636697904994
-9.616909060096168e-5 -0.02963166061183228 -0.005377578797514774
-7.060319300306137e-5 -0.029611407933018277 -0.004022344158016516
-4.4785639479188636e-5 -0.02959729755367588 -0.0026771084936060277
-1.867587045446895e-5 -0.029588168418121782 -0.0013399535615069259
7.079626062166808e-6 -0.029585276633958765 -2.8904912396278803e-6
3.4620869797116084e-5 -0.029588387243626516 0.0013348977267600098
5.8877646206331e-5 -0.029597506257000555 0.002673466336069001
8.457456410186093e-5 -0.029611519343598614 0.0040188783076407514
0.00011072577168579374 -0.02963115452446559 0.005372917669973766
-0.00010427229932564384 -0.028260993790180915 -0.005310367993142391
-7.657463443008768e-5 -0.02823932263929268 -0.0039718018554508825
-4.9494765406412334e-5 -0.028224413026235403 -0.0026426820165598823
-2.033300587213207e-5 -0.02821453958247664 -0.0013228268948630554
7.771800210172216e-6 -0.028211418382196502 -2.0472451958570845e-6
3.4099502477339e-5 -0.028215547895250322 0.001317400650013067
6.324344453492762e-5 -0.028222846409801917 0.002639598529661096
9.123007509477955e-5 -0.02823845350359406 0.003966891693915837
0.00011871490623970924 -0.028259551957631333 0.005303989230400415
-0.00011094661633130447 -0.026906184438920573 -0.005236815796918175
-8.290542698516023e-5 -0.026884191888036868 -0.003916799104657865
-5.337427364572206e-5 -0.026867474186739994 -0.0026064702911635764
-2.351124635601834e-5 -0.026858338097627492 -0.001303444642793318
6.045693947514097e-6 -0.02685528668101352 -1.4782232081079092e-6
3.920741074087769e-5 -0.02685797638416114 0.0012995702908129467
6.761065708394747e-5 -0.026867634031834536 0.002602354511738904
9.70455649559937e-5 -0.026883250567961644 0.003911651752036617
0.0001266696167680472 -0.026905630007913642 0.005230038403166922
-0.00012023897822563743 -0.025575286576146942 -0.00515512831401738
-8.818749584900571e-5 -0.025548933141576295 -0.0038572919763113817
-5.721376007088696e-5 -0.025533103754865342 -0.002568791544147135
-2.4914742367880008e-5 -0.02552294342334895 -0.0012851258602383593
6.157269325872251e-6 -0.025518015315434916 -1.8282908135099915e-6
3.951681975814245e-5 -0.025521904022529608 0.0012809797759049304
7.194292175287766e-5 -0.025531370558225894 0.002564942941805872
0.0001035289179464303 -0.02554755739928794 0.0038528171057110564
0.00013544568146367102 -0.02557153484877166 0.005151344005632589
-0.0001283895833150804 -0.02425948479678624 -0.005072759130026911
-9.650129010083085e-5 -0.024234423907905894 -0.003796369851886057
-6.0291236216159144e-5 -0.024215490315382983 -0.0025275729666719734
-2.5968493837812653e-5 -0.024204651366221977 -0.0012634327956856817
9.852018273737437e-6 -0.024200964759425254 -1.6613151851809457e-6
4.2420430355232553e-5 -0.02420343548062016 0.001261171621965548
7.589908195666217e-5 -0.02421441873854081 0.002524656048978974
0.00011026162345554855 -0.02423287468197033 0.003790903098385402
0.00014404701205748488 -0.02425827629747507 0.005068765770148631
-0.0001357043470286367 -0.02296835970073122 -0.004986614486490454
-9.810185746169236e-5 -0.022940070637903747 -0.003730010537351815
-6.368280386536543e-5 -0.022918838917821472 -0.0024828907220374582
-2.9895758460730705e-5 -0.02290741230404813 -0.0012421528910875241
7.5338109029135205e-6 -0.02290514404795541 -1.3377009123446567e-6
4.255462927157362e-5 -0.022906292178468294 0.0012385554281908514
7.968347240320817e-5 -0.022919474718039824 0.0024775141275007163
0.0001153993764156702 -0.022938611385005445 0.0037253719849154004
0.0001516452564133951 -0.022965658818559123 0.004981420759920672
-0.00014294116475400208 -0.021696972246687558 -0.004892259586216473
-0.00010678032743850295 -0.02166804188526754 -0.0036582503209213503
-6.617155372358693e-5 -0.02164660891195068 -0.0024357957173345044
-2.812524474646972e-5 -0.021637001414990833 -0.0012202492732439098
5.203440511761852e-6 -0.021630512093280797 8.507173256886015e-7
4.571196673503156e-5 -0.021635017514276877 0.0012164323256864654
8.365364933512264e-5 -0.02164577386256445 0.0024334068173319044
0.00012205605346193334 -0.021667472937137267 0.0036552513111116356
0.00015959665540726974 -0.021695795797227146 0.004888928505963438
-0.0001528253600220263 -0.020450033866823224 -0.0047951733160372205
-0.00011381637502697631 -0.0204193812343712 -0.0035856349297281173
-7.323367178570453e-5 -0.020398084070045352 -0.0023864052351821805
-3.293767962024301e-5 -0.020385485567975738 -0.0011956906327937559
6.700277625756114e-6 -0.020380266449588968 -3.713927540070266e-7
4.784684351992365e-5 -0.0203843252608671 0.0011935872896243675
8.887678639487201e-5 -0.020397919178411165 0.002382285684116484
0.0001286134801761175 -0.020419593814130787 0.0035823910642123528
0.00016788780325383685 -0.020449523199227278 0.004791198805420861
-0.0001604192571076052 -0.019229848399200625 -0.004693953043679979
-0.00011869223081162176 -0.019197868626660185 -0.003509588051520879
-7.633814742687054e-5 -0.019175184424651725 -0.0023350777714536844
-3.518438839676217e-5 -0.019159973764106688 -0.0011695103844877363
7.351933464161024e-6 -0.01915491468619389 -2.144315874595046e-6
5.0592506924807496e-5 -0.01916096246786557 0.001165373727679576
9.21229497752208e-5 -0.01917411932859266 0.002333745369072349
0.00013356542705491138 -0.01919640524350189 0.003505608544788269
0.0001759088580972734 -0.01922746817451208 0.0046894135702894146
-0.00016740036870967263 -0.01803329272784604 -0.004588414373120833
-0.00012442321240264883 -0.01800070025593473 -0.003430334540584496
-8.171132392663687e-5 -0.01797783910611309 -0.0022822374796868552
-3.635714582120897e-5 -0.017963345122340622 -0.0011424785108766966
5.2018963104655755e-6 -0.01795592057113071 -2.555342698675981e-6
4.9121679510986154e-5 -0.017962185634851774 0.0011393998480374945
9.427774609447183e-5 -0.01797593293594446 0.002279929469280482
0.00013980764020022339 -0.01800021908034762 0.003425514205137622
0.00018392399034566445 -0.01803264811108158 0.0045824211200017366
-0.00017686748480249466 -0.01686459059856817 -0.004475928737411031
-0.00013108979920478282 -0.01683025577092206 -0.0033470007695218656
-8.643904360792497e-5 -0.016806265017659923 -0.0022263315626702986
-4.195439578403486e-5 -0.01679105412526011 -0.0011131783705037525
8.443813524560061e-6 -0.016786212087616596 -2.2099167068441044e-6
5.402496863246974e-5 -0.016790983014056446 0.0011104701820379038
9.884589971324526e-5 -0.016806065522655594 0.0022218280642728916
0.00014637411113880243 -0.016830861300019297 0.0033424875782468487
0.00019203968199845993 -0.016865201377592 0.004471018338211536
-0.00018577150742139724 -0.015724061857570793 -0.004359681742760291
-0.0001378514102891007 -0.015687671465807233 -0.003260568360531119
-9.109880233091923e-5 -0.01566298165432725 -0.0021680708372351608
-4.0019853814846e-5 -0.015648249025330938 -0.0010862883004812704
6.964803076897162e-6 -0.015641715555640267 -1.4345568160752894e-6
5.485290186982482e-5 -0.015648279810652036 0.001081770654757284
0.0001034796524522091 -0.015664212082372488 0.0021621534705835673
0.00015140603002135731 -0.01568988757200257 0.003254692976264105
0.00019914410955656773 -0.015724917925795317 0.0043547990331871764
-0.0001930162732233808 -0.014614392569750952 -0.0042396799826158755
-0.00014428294082155358 -0.014577471030441968 -0.0031689713072998605
-9.249216522554689e-5 -0.014550054129130194 -0.002108306563922362
-4.491824455815358e-5 -0.014533603220908242 -0.0010549493968441085
9.156941464572082e-6 -0.01452922023381039 -2.4286000224151908e-6
5.864087095077165e-5 -0.014534725732872721 0.0010493580762901398
0.00011007659853470712 -0.0145514219066409 0.0021015850360592806
0.00015723389559654972 -0.014577773020121998 0.0031635375856935324
0.00020711347026385586 -0.01461459192087088 0.004232864931500658
-0.0002016891684736452 -0.013534799547242604 -0.004115332748620441
-0.0001497494780753496 -0.01349619155720945 -0.00307518294875945
-9.693325111886682e-5 -0.013468979224637677 -0.002044273487038262
-4.3451353503643724e-5 -0.013453075655333536 -0.0010260518198677588
5.035110408263781e-6 -0.013445482308072966 -1.8052417827176178e-6
6.229404382910243e-5 -0.013452500310433916 0.0010180887279339246
0.00011399274679167086 -0.013468449509497204 0.002041737093129991
0.0001653147133826453 -0.013497716680523261 0.0030677238102470405
0.0002153910903946675 -0.013536047560354056 0.004106188804215952
-0.0002095667148635463 -0.012485904599336716 -0.003987248975109826
-0.00015641044545878087 -0.012446660105666803 -0.0029780262066521845
-0.00010083626682044202 -0.01241804835354639 -0.00197957968977303
-4.4012556286011455e-5 -0.012402004737014628 -0.0009930231993126534
7.874678803583854e-6 -0.012396716059492443 -3.0347062401063214e-6
6.172028618706294e-5 -0.012401416006808675 0.0009865352946635678
0.00011716633413526546 -0.012419994822387473 0.0019740890732262715
0.00017288291433132193 -0.012449349652910762 0.002969875009902239
0.00022437815849462567 -0.012488266026499573 0.003975966888038439
-0.00021951697364759818 -0.011476886949642101 -0.0038474989121801153
-0.00016243328712028493 -0.0114339970099013 -0.0028752934382589358
-0.00010738766967931601 -0.011404572786992797 -0.001911317958841768
-4.80844380198046e-5 -0.01138543700489965 -0.0009556698271222771
9.286528107782286e-6 -0.011377720172825047 -1.2925872644305092e-6
6.300668735008778e-5 -0.011386198551945956 0.0009494663804083102
0.00012167923848449009 -0.011403379856162054 0.0019071905712332998
0.0001768167494623325 -0.011430934970980477 0.002872232685705774
0.00023323169401578647 -0.011473562351413967 0.0038406706830646487
-0.0002291691628266247 -0.010492428208213509 -0.0037118461758993363
-0.0001667183767670728 -0.010451381096196486 -0.002771224351928071
-0.0001091937859323882 -0.010420895461965247 -0.0018416465554347162
-5.5503186685010245e-5 -0.010402795249509336 -0.0009193785708507989
7.828850178524129e-6 -0.010396902442618606 -2.477239536062376e-6
6.643396246581281e-5 -0.010403435518111305 0.0009143519267108705
0.00012337917387570562 -0.01042045059381421 0.0018391953324435747
0.00018136814941318633 -0.010450936896551424 0.0027647897659098747
0.00024123267869579208 -0.010493598838890134 0.0037009872564162235
-0.00023040975247564882 -0.00954962548041201 -0.0035645688955817916
-0.00017690036239058108 -0.009507167542315072 -0.0026591863517825116
-0.00011398746760175975 -0.009472662218406416 -0.0017691912105630722
-5.4590066257014514e-5 -0.00945543285739744 -0.0008845132829421595
6.754531312239377e-6 -0.00945014500757551 -3.095893823552975e-6
6.950190596925044e-5 -0.009455033189152837 0.0008809360130880266
0.00012773512636893915 -0.0094729595914904 0.0017676020237057095
0.000188838906385049 -0.009505100272067003 0.0026570291040982803
0.0002493203539067271 -0.009549505020009369 0.0035560237778384453
-0.00024229339081653075 -0.008642965291523707 -0.0034130235663228266
-0.00018238240106492102 -0.008596351776258743 -0.002549019814879114
-0.00012065778394324676 -0.008562522366403489 -0.0016960892210396157
-5.684830355266787e-5 -0.008544031277823714 -0.0008515752936338334
8.822260647831206e-6 -0.008539222270120562 -4.53852605145948e-6
7.519732753098712e-5 -0.008544182652163028 0.0008441177129554272
0.0001340523545305236 -0.008563600720136745 0.0016913696707313095
0.00019575684255841738 -0.008596606098949454 0.002543867871230323
0.000258409010838878 -0.008642216548224608 0.0034070558762156365
-0.0002502333536711378 -0.007771412998008875 -0.003258132782327819
-0.00018732011725252102 -0.007724387588151616 -0.0024335423887221637
-0.00012313123664770337 -0.007691593037887279 -0.0016191128139503908
-5.841552191185202e-5 -0.007669849843979457 -0.0008125954113632005
7.452754548332557e-6 -0.007663679741574583 -2.045695621408242e-6
7.108878005376081e-5 -0.00766911429814163 0.0008064785145267354
0.00013701141635477987 -0.007689820384112022 0.001614987987760758
0.00020280687815955246 -0.007724620437711845 0.0024264023228796664
0.000266990545187996 -0.00777144842445908 0.0032523514373996366
-0.0002592244801548412 -0.0069398682233915805 -0.003099328266647684
-0.00019284610787478857 -0.006893723270072448 -0.002314863359372583
-0.0001269847896903643 -0.00686018598623496 -0.0015383675377415205
-5.8706484517880485e-5 -0.0068389817749134225 -0.0007742542525995247
5.936761427560357e-6 -0.00683275928001271 -7.096880781238269e-6
7.269993558638106e-5 -0.006837201785003221 0.0007673999438111403
0.00013871523468069643 -0.006857978914712798 0.0015317483223144935
0.00020881281351041995 -0.00689231092198434 0.002308630934955995
0.00027526285937564397 -0.0069405276218135956 0.0030936241312273707
-0.00027131417698328717 -0.006157553609411432 -0.0029398684106248106
-0.00019980486476461795 -0.006104112257027305 -0.0021946732908746623
-0.00013015493466061353 -0.006066385631576543 -0.0014577641451144437
-6.413447189030182e-5 -0.006045542448395261 -0.0007310039390798782
1.0894321686469225e-5 -0.006036411706977505 -3.961539304287325e-6
7.628772471478202e-5 -0.006043863663134896 0.000724515163382977
0.0001449365215509265 -0.006065862537949398 0.0014476022492918821
0.00021266708307223652 -0.006101901788172658 0.002185885430322002
0.00028197535008522666 -0.006150034706921045 0.002930340641662141
-0.0002745687714560445 -0.005403136645428714 -0.002766325097197234
-0.00020395429692466737 -0.005351712262234024 -0.002064664148358144
-0.0001339911977981284 -0.005316304869648012 -0.0013723711430878574
-6.360609921294067e-5 -0.005293843562284051 -0.0006875324024995142
7.44034928347683e-6 -0.005284825499072878 -3.449431909616449e-6
8.364382877002919e-5 -0.005293487645848374 0.0006822643206489153
0.00015298312475033035 -0.005315107239712225 0.0013663676209806131
0.00022185425281483063 -0.005352657212489408 0.0020591726129778084
0.0002916334699784789 -0.0054032250915171595 0.002762567613368885
-0.00028397448943327683 -0.0046980573383212975 -0.0025966564934018447
-0.00021075317463069586 -0.004644034180455568 -0.0019352483056861807
-0.00013887241799471098 -0.0046064068500637914 -0.0012844554352206118
-6.444170055028587e-5 -0.00458490465258835 -0.0006446937796505989
6.479806966276509e-6 -0.004577401497958972 -3.6446900833472085e-8
7.740913536829938e-5 -0.004584348358854178 0.0006393595821776697
0.0001540829551007922 -0.004605540968851675 0.0012831125767926062
0.00022725074946249407 -0.0046436453536260495 0.0019313033505157738
0.0002991987848395055 -0.004696388202677213 0.0025903443269315184
-0.00029156206555595605 -0.004034176299622867 -0.002416778933223815
-0.0002192599318058761 -0.003981667166535259 -0.001802486902083678
-0.00014388277852894768 -0.003939815116127633 -0.0011966023157961208
-6.908227947428009e-5 -0.00391860239386205 -0.0006028397457172774
4.9038673084260755e-6 -0.003912758248852569 -3.903036984087447e-6
8.064134461441368e-5 -0.003920291282541276 0.0005949193857998969
0.00015781125420707805 -0.003944487086256938 0.0011929606898886825
0.00023018526939238917 -0.003981997725628175 0.001798646393117848
0.00030496327294761124 -0.004034712279788222 0.0024128149902546132
-0.00030188560001974103 -0.003419183828211682 -0.0022349094478979433
-0.00022662501439209807 -0.003363448464579341 -0.0016651784496711803
-0.0001511645879346415 -0.0033234121578720973 -0.0011066279341170105
-7.659222765883596e-5 -0.0033008720505152923 -0.0005528279070454667
9.870550524335405e-6 -0.0032926600070409713 -3.527917805771452e-6
8.417202277849028e-5 -0.0032981121141329715 0.0005526422544071874
0.00015898640229811486 -0.003322705927115007 0.0011053560776676172
0.00023705897118061169 -0.0033636572255580214 0.0016627917087274381
0.00031230215638364847 -0.003418141558147352 0.0022312406790427762
-0.0003100070269396457 -0.002848445944421595 -0.0020480004804212725
-0.0002344917894693534 -0.002791769936136066 -0.0015257971345415315
-0.00015442219995790514 -0.0027528623934517426 -0.0010133327341571349
-7.49886712711673e-5 -0.002728398057217578 -0.0005102665204724692
2.4644303663237202e-6 -0.0027156945899678474 1.2774567542343766e-6
8.586056348287301e-5 -0.0027270796147221515 0.000501461722403253
0.00016193832961417556 -0.0027526566648860113 0.0010083454229301294
0.00024161403758033822 -0.0027940985989537955 0.0015217366195182565
0.00031970280469769834 -0.0028496808549823343 0.002043853220420308
-0.00031756397032456834 -0.002326711594432076 -0.0018585231234713629
-0.00023906006070777242 -0.0022699153098996562 -0.0013848356452925412
-0.0001584042250160561 -0.002227124555761063 -0.000918640500241013
-7.607679608962468e-5 -0.0022022510008958447 -0.00046118930727401155
9.75860872255053e-7 -0.0021957200720310586 -4.5647307794011985e-6
9.313410867900981e-5 -0.002203441600356231 0.0004548361242924198
0.00016970333997403796 -0.002227070688179035 0.000913082360271973
0.000247390022704836 -0.0022678356057788136 0.001378940894980747
0.00032806296693529095 -0.002326621780659497 0.0018525705658679142
-0.0003239790605888498 -0.0018546866243122748 -0.0016663597447751745
-0.00024293551361898993 -0.0017942743017700451 -0.00124065037234964
-0.00016112957966560223 -0.0017537166422280854 -0.0008258863908836833
-8.104482195058578e-5 -0.0017294143966868401 -0.0004164139762140753
1.0632658787010842e-5 -0.0017226200336283937 -6.004572282055723e-6
8.985626075580791e-5 -0.001728337513180716 0.0004142504216322969
0.00017071374467450453 -0.001753099554774987 0.0008194253697776299
0.00025316773593654613 -0.0017946845657154104 0.0012316010985858326
0.00033547895690457256 -0.0018535241107569122 0.0016574366352522087
-0.0003277332790454293 -0.0014372496402689134 -0.0014646900359005734
-0.0002452177595679864 -0.0013742558109762094 -0.001092719637175568
-0.00016495269263061308 -0.0013266640708736411 -0.0007237622880769006
-8.25842685624883e-5 -0.0013007575983461153 -0.00036399502424125553
8.325691955053503e-6 -0.0012908761959384658 -2.7934730968005074e-6
9.111937394180298e-5 -0.0013018819936623728 0.00036090315281759645
0.00017277733442692356 -0.0013277350520699725 0.0007185376795584401
0.0002573766737885638 -0.0013724565150859726 0.0010838655688973423
0.0003403750589073219 -0.001430737649656017 0.001460719308970146
-0.0003323535141787438 -0.001068469136885963 -0.0012605612468032767
-0.0002510360304941579 -0.0010041521859128321 -0.0009383030271641322
-0.0001702748413731128 -0.0009595687210028044 -0.0006228922312315518
-8.310690716638287e-5 -0.0009294678465073699 -0.0003140879064986769
4.851648402746176e-6 -0.000919848105256004 -2.127240804591025e-6
8.723207910697213e-5 -0.0009289879004444688 0.0003113301711000261
0.00017288622195268632 -0.0009565578190489089 0.0006158663928711131
0.0002588226397113415 -0.0010010136545622816 0.0009351648749715982
0.00034186515844022915 -0.0010625680295816497 0.0012609048979608745
-0.0003332879523111936 -0.0007534919029501596 -0.0010625751555360789
-0.0002521383460794556 -0.0006890845553336854 -0.0007877925727348317
-0.00016992476762782134 -0.0006426091639367724 -0.0005233954191478481
-8.267582202506469e-5 -0.0006129370573738234 -0.0002609440624342961
2.7678448120734495e-6 -0.0006022456957351232 -2.7072875007320536e-7
8.840251687531743e-5 -0.0006102334164748194 0.0002571189862302977
0.00017426333353525722 -0.00063811114977799 0.0005149322764242152
0.0002599829764209087 -0.0006844007321708458 0.0007844644822904115
0.0003415397515914234 -0.0007479740341696959 0.0010582161222444768
-0.00032787213858185513 -0.0004955871564855944 -0.0008618479406368202
-0.000249137532289817 -0.00043052709621732593 -0.000636915080515882
-0.00016438460563483176 -0.00038083897621695286 -0.00041971770386659094
-7.718282770730223e-5 -0.00034984597589238274 -0.00020527962232311857
4.1157065170043115e-6 -0.00034248172610985513 1.1577623408025827e-6
8.249176643054846e-5 -0.00035163667805019553 0.00020531427533060478
0.0001696407210554057 -0.0003803340574783587 0.0004134779509476943
0.0002537599551832786 -0.0004258322478977961 0.000632196678958845
0.0003323901525982466 -0.0004891046671801082 0.0008554185695804383
-0.0003060600431143481 -0.00029607292163795766 -0.0006586519886473333
-0.00023121473837437047 -0.00022796942349261891 -0.00047900487369982266
-0.0001545893444963604 -0.00017991950341493055 -0.0003127889599834884
-7.236858257830387e-5 -0.0001531643068315463 -0.0001482100299067352
-2.183461687555584e-6 -0.00014447258325272458 -1.638391410625281e-6
7.768173880223135e-5 -0.0001518794757907421 0.00014916850341158884
0.00015971964091100464 -0.00018043805832973711 0.00030859219872106516
0.00023889494118712256 -0.0002228127654014901 0.00048021870898500425
0.00031106425041372676 -0.0002868833344872712 0.0006503065765936797
-0.00027562262635116885 -0.00015343448210235552 -0.0004560984591851099
-0.0002058843957886967 -8.751913854801983e-5 -0.0003310217668095013
-0.0001434946108962315 -4.1710867815447574e-5 -0.00021568889394790272
-7.151533765521947e-5 -1.8230801986061172e-5 -0.00010394906135911164
-3.347039445314905e-6 -9.21674412011713e-6 -3.6952286906791712e-6
6.806338982091447e-5 -1.7753563914637995e-5 9.762558385356862e-5
0.00014494370306315077 -4.058241464589436e-5 0.0002065157532971182
0.00021189921643344887 -8.118930091559134e-5 0.00032782681980347427
0.00027119088105772036 -0.000142001684365334 0.00044651029771428764
-0.00020185441531595587 -6.389928963570743e-5 -0.00023913008522111838
-0.00015595554342416392 -4.013721349109507e-6 -0.00017191384007671565
-0.00010804304662988025 2.4419712706394618e-5 -0.00011832195783461144
-5.756063160723453e-5 4.116521229656016e-5 -5.7724996912655256e-5
-3.2848208023098025e-6 4.6227245249457335e-5 -5.274459742917157e-6
5.331812275329006e-5 4.287342355497585e-5 5.2294866210682e-5
9.66082023671123e-5 2.4349264535722443e-5 0.00010226620712437016
0.00015052155057659577 1.1727319916349735e-6 0.00017258130771103232
0.00020196688853873427 -4.531627448086431e-5 0.00023506037950590575
-4.049761195073347e-6 -0.04854723123105098 0.007340587355322187
-4.708453298120045e-6 -0.0485435353431537 0.00734221493340954
-4.85180558386637e-6 -0.048540949492376084 0.007342123514419417
-5.686493312191481e-6 -0.0485384505175074 0.007343369447973504
-6.774515685251801e-6 -0.04853629282213957 0.007343386133426276
-7.4197336889705995e-6 -0.0485341298057326 0.00734378033885497
-7.785422095565966e-6 -0.04853244020436976 0.007343032568584287
-7.631573878032789e-6 -0.04853135874829467 0.007342985422444578
-7.78949743314583e-6 -0.04852977977543951 0.00734152459973713
6.309154352986547e-6 -0.047047080242469334 0.007325083475496296
2.9055925029238668e-6 -0.04704670212944114 0.0073280527973755
-2.87626683567823e-7 -0.047045654529118804 0.007326615427134828
-3.1419425268710445e-6 -0.047044001045015986 0.007329472338520974
-6.320863416901596e-6 -0.047041924195596774 0.007329169283229313
-9.176257820580345e-6 -0.0470397171618209 0.007329531165984306
-1.1844798308397285e-5 -0.047036987064726705 0.007328631466306562
-1.4156976029038542e-5 -0.047034876684274765 0.00732948366433666
-1.8073457331913714e-5 -0.04703084038999706 0.007328029467072689
1.5440366535105647e-5 -0.04555606933591199 0.007307439077740936
9.481926789325818e-6 -0.045556801538845865 0.0073089324456958385
4.549992022590545e-6 -0.04555708979096129 0.007310692914339456
-9.177468539289807e-7 -0.04555668074885808 0.007310163988698127
-5.862506108153662e-6 -0.04555484388950625 0.00731172110281807
-1.067711812525703e-5 -0.045552478376562774 0.007312261269964913
-1.5405474741417675e-5 -0.0455495028360332 0.007311589488742483
-2.159102953045758e-5 -0.04554480589472258 0.0073115668585272955
-2.702262659935596e-5 -0.04553944370123576 0.007309761035582383
2.4550769733712598e-5 -0.0440700214594452 0.0072847698466675945
1.6827757117760383e-5 -0.04407329422944301 0.007287237992227688
9.315427584679775e-6 -0.044074933939987765 0.007288550663197165
1.3022663733953483e-6 -0.0440750871968003 0.007288221544309355
-5.6024750022135996e-6 -0.044072772647206875 0.007289100329529002
-1.2811990919537915e-5 -0.04406994705997898 0.007289887808296511
-1.9975433038018673e-5 -0.044065652186605596 0.0072901807291986
-2.8005586495279602e-5 -0.04406025649624592 0.0072889713421251025
-3.598735008542956e-5 -0.04405291242897819 0.007286656952926234
3.3388465790370365e-5 -0.04258947118141059 0.007257239583092871
2.362223817624207e-5 -0.042594346338948444 0.007259720851763684
1.4047971555352435e-5 -0.04259681767015541 0.007261035587833132
4.79988595752082e-6 -0.042598062236106585 0.007261040213724164
-5.4154085883179415e-6 -0.04259730092173401 0.007261857029925201
-1.4606147207916176e-5 -0.042593849666350596 0.007261894855766359
-2.4473931388326074e-5 -0.042588977876376555 0.007261833394796226
-3.452158824063684e-5 -0.042581496232001755 0.007260759332435157
-4.420754308925583e-5 -0.04257248500888535 0.007258824017795093
4.1879125281782896e-5 -0.04111556160052117 0.00722422793536228
2.9966424223844944e-5 -0.041121995115246106 0.007226905205537194
1.7951448337745372e-5 -0.04112550115092951 0.007228360914863204
6.223331595905878e-6 -0.04112636782390472 0.007228907990383221
-5.2030023290883035e-6 -0.04112612239919733 0.007228859882468653
-1.6445626970728592e-5 -0.041122052327945226 0.00723014304741574
-2.8252750592891704e-5 -0.041117372480392614 0.007229306639000143
-4.0172646857647905e-5 -0.0411089487035288 0.007227845653665983
-5.189967233399991e-5 -0.041098685904659725 0.007225697067889423
5.022613548998484e-5 -0.039648897458036216 0.007185285617574512
3.633151978328255e-5 -0.039657151856368804 0.007187926959206091
2.2026508809313864e-5 -0.03966143293884749 0.0071893540501857915
8.752562884064522e-6 -0.03966233332344858 0.007190336486174264
-4.43847511049232e-6 -0.039661806196650384 0.007190922899872336
-1.830035320934078e-5 -0.03965864421727009 0.0071910361782956764
-3.193512677404199e-5 -0.0396529591462427 0.007190720588611679
-4.571279986929353e-5 -0.039644003233971534 0.007189207477392666
-5.973721538613618e-5 -0.039632727338294704 0.007186890968216452
5.855226637744118e-5 -0.038190561178090075 0.007140692301607866
4.26823361095514e-5 -0.038199185671769824 0.007143508199313419
2.7010018638243195e-5 -0.03820497863480206 0.007145376332087649
1.1530699001374172e-5 -0.03820719520087484 0.007146472540251888
-4.385143541960281e-6 -0.03820694841502053 0.007146069950761135
-2.0148092738813252e-5 -0.03820301284746335 0.007146135297320759
-3.601633391328236e-5 -0.03819621932333198 0.0071461151873784545
-5.152942116584053e-5 -0.03818649147183204 0.007144792348166614
-6.719269011320949e-5 -0.038174049562701345 0.007142723856792445
6.655541092982672e-5 -0.03674130821721119 0.00709078118167997
4.8709803190602465e-5 -0.03675122323246919 0.007093313580807563
3.130552929187806e-5 -0.03675773520117745 0.007094888343166281
1.3919238375756708e-5 -0.03675990639432512 0.007095137970205586
-3.342125876817423e-6 -0.036761497596149856 0.007095252335792373
-2.177099456920843e-5 -0.036757504314165496 0.00709477348057285
-3.958985117396752e-5 -0.036750248202743266 0.007095002529192081
-5.712160952563329e-5 -0.03673886799789129 0.007094190877937941
-7.47012155998694e-5 -0.03672510021882119 0.007091858959479728
7.438644037811583e-5 -0.03530249686588671 0.007034047336659618
5.529724558045877e-5 -0.03531417368708015 0.007036911863880249
3.5733357905251346e-5 -0.035322152575613976 0.007038172066976055
1.618851632238847e-5 -0.035326101952012585 0.007038973069563955
-4.009071765530372e-6 -0.03532607743156208 0.007038167840658183
-2.3578753750688662e-5 -0.03532142556569615 0.007038734738809949
-4.301214556585236e-5 -0.03531511021476041 0.0070386061270808825
-6.295811838883243e-5 -0.03530298707636391 0.00703787735323964
-8.283290835011342e-5 -0.03528718027456487 0.007036018612014162
8.274637581165828e-5 -0.03387677839448512 0.006972175757088033
6.105346384711318e-5 -0.0338898565028124 0.00697507365891077
3.9527770985221306e-5 -0.033898445372728514 0.006976655493186157
1.8426617866479137e-5 -0.03390261353837333 0.006976573359479551
-3.843432513515155e-6 -0.03390384481962608 0.006974408612738176
-2.565454103285503e-5 -0.03389892598680299 0.0069760278577252
-4.744935092866103e-5 -0.03389057349945652 0.006976656314651791
-6.905948531446477e-5 -0.033877353712541365 0.006975690682268437
-9.049448075208566e-5 -0.03385985807893139 0.006973531809794633
9.150211139402037e-5 -0.03246348679790635 0.006903784751441183
6.779470063783465e-5 -0.03247789963919952 0.006906780915621988
4.410914839605348e-5 -0.032488400359043934 0.006908112436042278
1.984030740362417e-5 -0.03249295692083494 0.006908283700729208
-3.0044702105764325e-6 -0.03249283876732884 0.00690497640621947
-2.6489569373683682e-5 -0.03248866753854664 0.006908242262824461
-5.0390955560084066e-5 -0.03247988632866881 0.006908217915788601
-7.431031598797108e-5 -0.032465717642774755 0.00690712038157695
-9.781704853680591e-5 -0.032446737179034235 0.006905272630938476
9.956419801788217e-5 -0.03106429592751899 0.006830275825867484
7.359008663599688e-5 -0.031079941912426644 0.006833271624883612
4.806360573785409e-5 -0.031090115055191953 0.006835450357309933
2.2520285185555683e-5 -0.03109476634525019 0.006835906840368175
-3.2130992116273994e-6 -0.03109547562634674 0.0068323016361929575
-2.838243168268176e-5 -0.0310917462181785 0.0068344974415206605
-5.424149959418542e-5 -0.031081908877589076 0.00683406055134476
-7.962034783698996e-5 -0.03106703891586463 0.006832828618520999
-0.00010493403536760909 -0.031047303378964917 0.006831040855933995
0.0001074913289195807 -0.029679767861085633 0.006750187444719995
7.969876627740638e-5 -0.029696939454778373 0.0067531898280735045
5.1874357260397296e-5 -0.029708669041638696 0.006754347960042103
2.3867153488181522e-5 -0.0297133847278394 0.006752721389256823
-2.342775243292792e-6 -0.029714927223998593 0.006752909890668048
-3.0185832914605227e-5 -0.029710915039615485 0.0067549089155382195
-5.7757420205303377e-5 -0.02970015505121636 0.00675424143084722
-8.495983900138497e-5 -0.029684661212154892 0.0067530254686822555
-0.00011214010457530688 -0.02966372710530544 0.006751126104148562
0.00011561030340548011 -0.028312168530284575 0.006664314390620153
8.596792955553839e-5 -0.02832994683603385 0.006667301539204088
5.689650942629366e-5 -0.028342961133133664 0.006668611790334679
2.798486484073864e-5 -0.02835122721823654 0.006669344476848959
-3.1117952133038615e-6 -0.028351075427181047 0.0066683462969483465
-3.220709710801778e-5 -0.028346897034062856 0.006668549641797678
-6.16441779183206e-5 -0.028335630905072545 0.006667577000734715
-9.047791979393399e-5 -0.028319577069113203 0.006667055158836243
-0.00012000694309206979 -0.028297853319738532 0.0066650206449946035
0.00012362528949658454 -0.026961898079533187 0.006572920555187006
9.205634965207418e-5 -0.026981368365877 0.006575477682404676
6.147769157812332e-5 -0.02699558942124334 0.006577128844085929
3.0249155807014508e-5 -0.02700383263153932 0.00657692984970895
-7.657965946308773e-7 -0.027004755264001354 0.006576969826945053
-3.386956778868075e-5 -0.026999711274806194 0.006576387224396596
-6.469433705759595e-5 -0.026988447355480408 0.006577097259842866
-9.623043473812007e-5 -0.02697216680772321 0.006575904779931772
-0.0001276587790236705 -0.026948823159890074 0.006574031717333423
0.00013184050925261923 -0.025630826753239574 0.0064743828874352545
9.866352906919172e-5 -0.025652681768784415 0.006476825286241351
6.569556844205237e-5 -0.02566873479459139 0.006478194061959931
3.312080125157064e-5 -0.02567676469396968 0.006479914803150424
-1.4466083006896386e-6 -0.02567554478304925 0.006476480494737735
-3.339344973594245e-5 -0.02567162961990944 0.006477335576513815
-6.773092568279215e-5 -0.02566135487123192 0.006477958008029708
-0.00010082115120416676 -0.025643257926778452 0.006477728238177748
-0.0001340467777499318 -0.025618906924399516 0.006474963359409383
0.00013972354572659655 -0.02432076855724406 0.006370711179787518
0.00010435473441434683 -0.02434353849512555 0.006373537630973248
6.919487467005524e-5 -0.02435927703413114 0.006375606822331671
3.332866630993324e-5 -0.024367905330088167 0.006377696027497848
-2.7591131688555468e-6 -0.024370252933430283 0.006375595513982359
-3.733045586329221e-5 -0.024364985896377887 0.006373314497712784
-7.240967039872966e-5 -0.024353901932858503 0.006374495666383111
-0.0001079599703409525 -0.02433528499285029 0.006373739735398837
-0.00014239318756574637 -0.024307432186529906 0.006373033556232038
0.00014797775116204818 -0.023032047950627806 0.00626126043425663
0.00011087826096436339 -0.023056592581585482 0.006263869594236779
7.373198238862565e-5 -0.023073117370899534 0.006264572159820632
3.63786110514279e-5 -0.023082788743226456 0.006265422418352802
-8.738954383221468e-7 -0.023085913984057932 0.006266269507419035
-4.0313644742980825e-5 -0.023077844694648127 0.0062646928069146415
-7.766254706448257e-5 -0.023065620668907983 0.0062639072863359905
-0.00011462638144095042 -0.023045049187686587 0.006262886012429805
-0.00015149318600220942 -0.023016023038531685 0.006260720218941729
0.0001557498324713336 -0.021766511311841392 0.006145464989245104
0.00011626212028314046 -0.021792339919171726 0.006148827859960048
7.68638167839913e-5 -0.02180993243400652 0.006149444070310206
3.7924915581818625e-5 -0.021819536993368478 0.006150371517030629
-2.195322027673158e-7 -0.02182110910855008 0.006150294981196025
-4.273031576389645e-5 -0.02181918037708965 0.006148529075524198
-8.208399193693294e-5 -0.021803463429171988 0.006148296825905251
-0.00012033278926836857 -0.02177995289833791 0.0061470229985232825
-0.00015891181283855015 -0.0217500511345049 0.0061453853576488955
0.00016428277626828812 -0.02052362056713836 0.0060242500300330334
0.0001225574154028094 -0.02054974309045569 0.006027561629415133
8.079894013313185e-5 -0.02056867566800169 0.006028730212320564
3.922470445561652e-5 -0.020579045241474414 0.0060279560171894765
-2.0283090731445016e-6 -0.020581759461582697 0.006027564943108272
-4.231695809702021e-5 -0.020575116665198477 0.006026548083171855
-8.361667322460315e-5 -0.020562304168241466 0.006028555500372169
-0.00012464435981667047 -0.02053959402245883 0.006026804773084658
-0.00016623921003615936 -0.020508715829183257 0.0060239885324458505
0.00017251798618477072 -0.019306071143783812 0.005896917688944104
0.00012860578743414144 -0.019333527884029564 0.005899121840855191
8.564252222848615e-5 -0.01935274749355713 0.005900293483705325
4.232115690355247e-5 -0.0193633681577946 0.0058991158958128795
-1.3000989585196645e-6 -0.01936709854808034 0.005897644038983273
-4.432449858174737e-5 -0.019362081496811498 0.005899556559633029
-8.805576500417619e-5 -0.019347385691130987 0.005901272804660408
-0.0001310177720761629 -0.019323099865326526 0.0058992066448208934
-0.00017336198347237794 -0.01929052683784777 0.005896348689955918
0.0001802407323288432 -0.018114434160005313 0.005763175202934271
0.00013480886000649648 -0.018144778293189643 0.005765738751277078
8.912205820407918e-5 -0.018164576249848664 0.0057672522800143655
4.4230211406166385e-5 -0.018175138713125847 0.005765825314739556
-1.656016673547608e-6 -0.018179224152501373 0.005761785708064004
-4.603512321528673e-5 -0.018171377609911225 0.005764655308755656
-9.077712360214263e-5 -0.018156235497127374 0.005766436586145203
-0.00013617289898722664 -0.018133193848458514 0.005764575701771729
-0.00018101810045164645 -0.01810092118660333 0.005762319135980719
0.00018775214572635442 -0.016950036138810392 0.005623618669285251
0.00014042167212191702 -0.016980968070375975 0.005626034614949666
9.359321832359821e-5 -0.017003381322311977 0.005627415363787216
4.5916254728956785e-5 -0.01701272994359226 0.005624852704421195
8.86034721077445e-7 -0.017014860784270117 0.005628632766938321
-4.70125434128475e-5 -0.017009353572120682 0.00562608868792893
-9.440790869178431e-5 -0.016994758261521112 0.005626690450486912
-0.00014179700855540414 -0.0169704876498834 0.005625831478076663
-0.0001883609547407156 -0.016936500400963943 0.005624243096582818
0.00019571428415723668 -0.015813757202324273 0.005478582416862193
0.0001465876354793468 -0.01584668122276445 0.005480452473087381
9.806594415245936e-5 -0.015869364820745878 0.005483272726157117
5.149748324277893e-5 -0.015884228089782466 0.005483772464837312
5.401290967292678e-7 -0.015890813955363774 0.005479542407490053
-5.2159486744710896e-5 -0.01588311381920313 0.0054770638729968475
-9.887901932043852e-5 -0.01586220094296173 0.005479986282784205
-0.00014777826688181647 -0.01583602278680914 0.005479291627747773
-0.0001961465540002444 -0.015801273345718098 0.005477760401097119
0.00020286640950387987 -0.014707204496364637 0.00532720112717232
0.00015146020910685303 -0.014740292795997728 0.005329765788380493
0.0001008852819528466 -0.014762300598044772 0.005332028750677417
4.975941667725534e-5 -0.014776351361087781 0.0053314222334347496
-2.063142709295642e-6 -0.014781100567328178 0.005326211524153213
-4.93345357864067e-5 -0.014774776256750527 0.00533192466573093
-0.00010118855034761598 -0.014759018147717275 0.005329467960133477
-0.00015333915537732145 -0.01473167146254333 0.00532888947516924
-0.00020324354439920004 -0.01469436720663289 0.005328457114638965
0.00021217844230058338 -0.013632803262330023 0.005169738182491217
0.00015813957480942042 -0.013668637039801102 0.00517258260378333
0.00010433465438817582 -0.013691689939887128 0.005174549592860413
5.039505976747129e-5 -0.01370488876992134 0.005174198945742988
-6.604835326734942e-7 -0.013706681553568835 0.005173929547153486
-5.3131087657466596e-5 -0.013699559517462424 0.005172817699937656
-0.00010502123198980085 -0.013682874090443883 0.00517163517372104
-0.0001584036102097982 -0.013654971205879945 0.0051707262505035585
-0.00020989998366779285 -0.01361731760184001 0.005170099264440962
0.00022103360738736795 -0.012588389583649558 0.005008214785967616
0.00016519327265297407 -0.012626077106368485 0.005011013907513813
0.00010896208944186928 -0.012650576202324999 0.0050120439778282904
5.3656091896307366e-5 -0.012664905630720091 0.005013138005215855
-8.118261157793857e-7 -0.012667395571699765 0.00501287726621738
-5.504945737105729e-5 -0.012662205902426803 0.0050102551858188
-0.00010925874441772985 -0.012644463110332491 0.005008920369100021
-0.0001649731326455499 -0.012617244158620856 0.005006134176115785
-0.00021987790226899495 -0.01257714293535386 0.005005438654574741
0.00022809391674674868 -0.011575157005482627 0.004838654900649128
0.00017189254648419602 -0.011613306506720641 0.004841534355055915
0.00011553648826000496 -0.011640742681554812 0.004842375559247096
5.774742387470228e-5 -0.011655756030722497 0.00484161779091146
1.3647373082153199e-6 -0.011657372334132145 0.004844596568878771
-5.5002919462980735e-5 -0.011654370803327225 0.004840925142775134
-0.0001131947984135884 -0.011638045900129186 0.0048403708218183895
-0.0001701573900929857 -0.011609806504783155 0.004839733953325486
-0.00022685565108842233 -0.011567857025623735 0.004838872396314187
0.00023681041877410034 -0.010600209761491456 0.004663482368753803
0.00017826139096503238 -0.010640470687364716 0.004666424182361168
0.00011996038887661581 -0.010668468049030117 0.00466578950312861
6.10794806991472e-5 -0.010685686872433488 0.004665650672149527
3.53437074206651e-6 -0.010691714421238615 0.004670808163487546
-5.767259749822538e-5 -0.010683981744397397 0.0046638811959103235
-0.00011763516214610136 -0.010663262201076154 0.0046641690561491705
-0.000175723083078079 -0.01063283093467959 0.004663971890917361
-0.00023312712888307947 -0.010591505349050742 0.004663224119579467
0.00024558825608373926 -0.009660152883362584 0.0044830254406433385
0.00018513445779189412 -0.009702036552526001 0.004486473772409956
0.0001245096307213628 -0.009731905796122287 0.004487629197326937
6.34101059414919e-5 -0.009748330544362095 0.004485944517185962
4.341056641701495e-6 -0.009748190141760558 0.004496759037622886
-6.106713124579937e-5 -0.009744292124341207 0.0044803288447651975
-0.00012014387933828553 -0.00972612657226036 0.004484858187902284
-0.00017962950714770013 -0.009695307475113902 0.004487171919262313
-0.00024135432758779618 -0.009653405283157094 0.0044849382787339066
0.00025496036262750705 -0.00875729798504935 0.0042975617906596125
0.000191451888822765 -0.008801259732814867 0.004300477905986235
0.0001281334016494209 -0.008830620745125885 0.004302678066052677
6.549971335721574e-5 -0.00884717547056362 0.004304819786831295
6.997976136279889e-7 -0.008849904023900804 0.004296934322065841
-6.200576547485554e-5 -0.008845304081851009 0.004298597399213556
-0.00012351773046344585 -0.008822814249156504 0.004299280503975876
-0.00018570963138184814 -0.008791360879207979 0.00429986066490693
-0.0002484014757038746 -0.008746413920956122 0.004298072452518804
0.00026297379610090753 -0.007889919173623304 0.004104841561043966
0.00019788093880500663 -0.007934633779825883 0.00410867748366064
0.0001329435256590628 -0.007965263898115976 0.0041091790463710295
6.835916024602499e-5 -0.007984689845043825 0.004109818457225407
2.753328596581309e-6 -0.007991711275792195 0.0041059488347723345
-6.414483836548641e-5 -0.007980108267752119 0.004101704740494813
-0.00012781677836549342 -0.007958285871770216 0.004103967231792673
-0.00019309826312148985 -0.007926755982074969 0.004104533403304754
-0.00025771832254565787 -0.007879148714577995 0.004102451093184987
0.0002704104486634394 -0.00706208400218084 0.003904869742944043
0.00020444301580241638 -0.007107060205912082 0.003908863699066563
0.000139007700423097 -0.007140495829360383 0.003909606094566726
7.264445184576936e-5 -0.007162118716004607 0.003908164960619852
3.4966834139597495e-6 -0.007173435648908632 0.0039043863078281325
-6.684804938380195e-5 -0.007163620326993029 0.003901896540800068
-0.00013216414009384846 -0.007139246787334476 0.003906448971997028
-0.00019921410560132268 -0.007105079298317912 0.003906293459472772
-0.0002660361816987078 -0.0070556116202754775 0.003903956566879551
0.0002784404745366387 -0.006273948507680626 0.0037004395296714367
0.00021129115640838725 -0.006322538560996656 0.003702227168888209
0.0001414325090531741 -0.0063574596702458625 0.0037047973776888313
7.313674667031538e-5 -0.0063776268568571035 0.0037023113902561523
3.184583344862451e-6 -0.006387312636614834 0.0037028736744231156
-6.567761369480064e-5 -0.006375960984178169 0.003701113542871127
-0.00013482027669896256 -0.006354228663494994 0.003700613778596775
-0.00020377299951684154 -0.006318565453202795 0.0037007792890636692
-0.00027213264197540525 -0.006268805272269746 0.0036984498906702575
0.00028758498520253117 -0.00553148476456141 0.0034898076645641036
0.00021724578898379464 -0.0055816644891960795 0.003492554782508865
0.0001440468131570686 -0.0056154065913424835 0.0034938904299393067
7.496089379092929e-5 -0.005633936067665568 0.0034931521659343893
3.1187404092870953e-6 -0.005640983417082849 0.0034912687420757807
-6.725544858452371e-5 -0.005632869829055793 0.003493697200933575
-0.00013850002451488023 -0.005612865926718789 0.003492265147084605
-0.0002097898101676698 -0.005577157075164152 0.003490070046158298
-0.0002803308690637875 -0.0055260249441449125 0.0034873515967452956
0.00029475469093429734 -0.0048296608978728025 0.0032752620859947314
0.00022155946038146786 -0.004879332985617522 0.003277004580850536
0.0001493152103921915 -0.004913271550824551 0.003277876465874538
7.835678674368896e-5 -0.004932896111310412 0.0032784257466606397
4.3670759946759925e-6 -0.004941336176264702 0.003274464169413136
-6.959583658830091e-5 -0.004934940025840072 0.003275867400950821
-0.0001429114251066675 -0.0049154140853665445 0.003275087448611066
-0.00021571735681938012 -0.004878686952724406 0.0032737493761881365
-0.0002886817422096969 -0.004826483122884393 0.0032714682617587046
0.00030071563056071867 -0.004168971510673653 0.00305203743433536
0.0002274385442117704 -0.0042203651530278085 0.003054796992927364
0.0001544041036394936 -0.004257496402737355 0.0030568893829325226
8.082145972138183e-5 -0.0042787140251055195 0.003057284071301553
4.242534900572348e-6 -0.004285307161630768 0.0030518661533547853
-7.137659688771702e-5 -0.004278553325865055 0.003053064231664311
-0.0001451120677307045 -0.004256812037081146 0.0030537682074404733
-0.00022058800910346548 -0.0042218655284119635 0.0030509935299339068
-0.00029572225744878673 -0.0041689831457081845 0.003048987687233849
0.0003080973044692689 -0.0035571770979829233 0.002823373456513755
0.00023317645496272277 -0.0036099273399058484 0.002827042593000996
0.00015823380966064948 -0.0036489627125753242 0.0028275137278281548
8.071917441195214e-5 -0.0036701671739183344 0.0028248656197836916
6.404661876176304e-7 -0.0036788672227195843 0.002816147996867408
-7.422907391085573e-5 -0.0036680654064136045 0.0028224591559926526
-0.000148220472838034 -0.003646635205407769 0.002824342291121837
-0.00022546647306928043 -0.0036104533569866516 0.002822504459433793
-0.00030270937086471645 -0.0035588851004050275 0.002820755970024168
0.00031656027773434964 -0.0029930019420361066 0.0025898804034631454
0.00023801947378903392 -0.0030472016954824744 0.00259301899815826
0.00015855882673620884 -0.0030836186682261717 0.0025920533222865325
8.094070813073482e-5 -0.0031036769902929684 0.0025904610748269372
4.374152429501531e-6 -0.0031110903354979007 0.0025907242754252824
-7.399863244628801e-5 -0.0031053321092570432 0.00259174136503274
-0.00015319571354809866 -0.0030822627409595456 0.0025896675575069533
-0.00023118113312711194 -0.0030445221396411364 0.0025899720517672665
-0.00030947848019268983 -0.0029923561784982564 0.0025904095624430194
0.00032557754274771837 -0.002475895513779386 0.0023527884295690303
0.00024318958003259367 -0.0025309459800935898 0.0023534094872512817
0.000161051386261775 -0.0025676023565679214 0.0023515339653680024
8.190776501485597e-5 -0.002588743055755606 0.002352292851419483
5.898352835440628e-6 -0.0025985403890755013 0.002357500603633049
-7.735367517099008e-5 -0.0025887970336609077 0.0023491806468326193
-0.00015518467469321975 -0.0025657005953232544 0.0023492764828255542
-0.00023602751465268753 -0.0025268820278860037 0.0023510119842183627
-0.00031657816543864946 -0.0024705064537664835 0.0023518379501946815
0.00033112322717155555 -0.0020031627866648545 0.002107731239800127
0.00024782513339640055 -0.00205804609152141 0.0021076717885583525
0.00016566847613314008 -0.00209438292811968 0.0021030975609998646
8.605965226595843e-5 -0.0021151729339533264 0.002104304673107462
4.7284501795050725e-6 -0.0021245311705830653 0.0021020571351713594
-7.937973680401225e-5 -0.0021191734986712573 0.0021002494445240506
-0.00016032722226560567 -0.002095755795902795 0.0021006748015080664
-0.00024270686747545082 -0.0020565031357897257 0.0021028544565456324
-0.0003250240373094298 -0.001998147805354299 0.002103590052701485
0.0003361752568111341 -0.0015807173033713865 0.0018560297611789408
0.00025445255428539054 -0.0016395807069175168 0.0018543897987429092
0.00017196121773861112 -0.0016853876666634154 0.0018524858446717582
8.98644029365463e-5 -0.0017084823244081263 0.001849731920439209
2.5729430829906916e-6 -0.001716576716294835 0.0018385227429966555
-8.070505568857976e-5 -0.0017030578109085031 0.0018465655610729174
-0.000163181464171744 -0.0016766412632267156 0.0018488963119848178
-0.00024550855407039354 -0.0016379021380424782 0.0018504727848355908
-0.00033031391434027173 -0.0015803073238077384 0.0018512115107413283
0.0003376128549101425 -0.0012170619449709743 0.0015980800644335876
0.0002539209523762793 -0.0012721386629323964 0.0015968538978183423
0.00016985210483042113 -0.0013140380718960824 0.0015963746341557258
8.509820011474779e-5 -0.0013341857595444376 0.001593205817234926
4.174488370133987e-6 -0.0013455593423602312 0.0015859430121314257
-8.022447984906234e-5 -0.0013368452993183814 0.0015861725397898871
-0.00016115209342396132 -0.001309530938641805 0.0015889171346682462
-0.00024402260999974916 -0.0012705771215632269 0.0015903718568456293
-0.0003293176991805225 -0.0012150356711777195 0.0015955356001175667
0.0003386613454056673 -0.0009050206545652404 0.001341898765227011
0.0002466179233996505 -0.0009609093212753382 0.001332301682172698
0.00016479088112106722 -0.000998254220956741 0.0013308819013143672
8.280257894695587e-5 -0.0010177091293837497 0.0013240040956722784
5.571313587799703e-6 -0.0010292701376243857 0.0013203794187735217
-7.561525871495777e-5 -0.0010239743881322865 0.0013231468358763762
-0.00015468248658607445 -0.0009952125194315096 0.0013288830340469193
-0.0002374369616613367 -0.0009591280783324746 0.0013264139270550014
-0.00032465430996204666 -0.0009065618005441219 0.0013357333199703167
0.00032384680032910673 -0.0006420116760997711 0.0010765472034303307
0.00023814211325214025 -0.0006976790682673381 0.0010668693341945635
0.00015722636582537694 -0.0007311510775361985 0.001063733400542394
7.922382059427411e-5 -0.0007577403057378822 0.001067823228384927
5.3319674972264e-6 -0.0007661622914471415 0.0010644475730537794
-6.881272205995091e-5 -0.0007567548911903159 0.0010667336953050983
-0.0001457407830431179 -0.0007339258957628228 0.0010655381402383318
-0.00022785050398839928 -0.0006990335429497405 0.0010511247151469873
-0.0003079782776139289 -0.0006460117370122324 0.0010716106775553805
0.00029892131998630704 -0.00043511923858931734 0.0008100769629765754
0.00021784542811540544 -0.0004833872539474149 0.0008004690401415716
0.00014408105150149107 -0.0005178134459763053 0.0007950057740148953
7.204962554253573e-5 -0.0005424547858773759 0.0007957000628214028
5.767554532233794e-6 -0.0005468951173607204 0.0007889411077308518
-6.022938916984318e-5 -0.0005410552378475217 0.0007983897333431989
-0.0001302080456922731 -0.0005247987984454577 0.0007911052837773844
-0.00019823470960527028 -0.0005013794385190105 0.0007902858934002267
-0.0002780833847814221 -0.0004504844101724192 0.0008038879055977736
0.00024887656037414686 -0.0002865186314450475 0.000541953178747585
0.00017138324711678818 -0.00032852366201683675 0.0005302710816881039
0.0001097401231624773 -0.0003486389735228951 0.0005320839908079957
5.188576267204001e-5 -0.0003676520105888662 0.0005306320097111695
2.566601906127341e-6 -0.0003689445478320415 0.0005372063502484956
-4.811307594779162e-5 -0.0003671168902554954 0.0005306502352626245
-0.00010096579250122608 -0.0003501941850918632 0.0005285319940342903
-0.00015879275305579016 -0.0003291442267659054 0.0005305878881054393
-0.00022646786305210607 -0.00029951568572241877 0.0005376239595425277
0.0001584812185470895 -0.00017911014608160765 0.00026869745540013045
0.00010356323355791054 -0.00020652048159279298 0.0002690246809591274
6.097034362260176e-5 -0.00021874758071971218 0.000262138972147708
3.0312090900790747e-5 -0.00022351074649031908 0.00026999478370462096
7.324367875956394e-7 -0.00022352209828875068 0.0002770321046562295
-2.7155309276202776e-5 -0.00022154333913458057 0.00027400941369392306
-5.712356140349057e-5 -0.00021280615170635425 0.0002724028709513311
-9.44419863696919e-5 -0.00019711796910554775 0.0002605646203825654
-0.00013703786609182793 -0.00018387561550913475 0.0002734265582621762
0.0 0.0 0.0
0.0 0.0 0.0
0.0 0.0 0.0
0.0 0.0 0.0
0.0 0.0 0.0
0.0 0.0 0.0
0.0 0.0 0.0
0.0 0.0 0.0
0.0 0.0 0.0
0.0 0.0 0.0
0.0 0.0 0.0
0.0 0.0 0.0
0.0 0.0 0.0
0.0 0.0 0.0
0.0 0.0 0.0
0.0 0.0 0.0
0.0 0.0 0.0
0.0 0.0 0.0
0.0 0.0 0.0
0.0 0.0 0.0
0.0 0.0 0.0
0.0 0.0 0.0
0.0 0.0 0.0
0.0 0.0 0.0
0.0 0.0 0.0
0.0 0.0 0.0
0.0 0.0 0.0
0.0 0.0 0.0
0.0 0.0 0.0
0.0 0.0 0.0
0.0 0.0 0.0
0.0 0.0 0.0
0.0 0.0 0.0
0.0 0.0 0.0
0.0 0.0 0.0
0.0 0.0 0.0
0.0 0.0 0.0
0.0 0.0 0.0
0.0 0.0 0.0
0.0 0.0 0.0
0.0 0.0 0.0
0.0 0.0 0.0
0.0 0.0 0.0
0.0 0.0 0.0
0.0 0.0 0.0
0.0 0.0 0.0
0.0 0.0 0.0
0.0 0.0 0.0
0.0 0.0 0.0
0.0 0.0 0.0
0.0 0.0 0.0
0.0 0.0 0.0
0.0 0.0 0.0
0.0 0.0 0.0
0.0 0.0 0.0
0.0 0.0 0.0
0.0 0.0 0.0
0.0 0.0 0.0
0.0 0.0 0.0
0.0 0.0 0.0
0.0 0.0 0.0
0.0 0.0 0.0
0.0 0.0 0.0
0.0 0.0 0.0
0.0 0.0 0.0
0.0 0.0 0.0
0.0 0.0 0.0
0.0 0.0 0.0
0.0 0.0 0.0
0.0 0.0 0.0
0.0 0.0 0.0
0.0 0.0 0.0
0.0 0.0 0.0
0.0 0.0 0.0
0.0 0.0 0.0
0.0 0.0 0.0
0.0 0.0 0.0
0.0 0.0 0.0
0.0 0.0 0.0
0.0 0.0 0.0
0.0 0.0 0.0
1.7261513235448247e-5 -0.048529680076106696 -0.007340588876280726
1.652572145153586e-5 -0.04853086879191656 -0.007342542319385735
1.593789745710342e-5 -0.04853236375735474 -0.007343121797090371
1.534362564485451e-5 -0.048533864292048 -0.007343569880652829
1.4603530679535184e-5 -0.048535751470320125 -0.007343588332502177
1.3755091032470617e-5 -0.04853812424484587 -0.007343746343909704
1.323968962344257e-5 -0.04854063595183425 -0.007344325265100167
1.335932179949005e-5 -0.0485429315934036 -0.007344930400610103
1.4068470335587346e-5 -0.04854680792578662 -0.007344712340689436
2.7784275150792416e-5 -0.047029773208681805 -0.007324281029771498
2.3823222484414727e-5 -0.04703415452860965 -0.007328058741038976
2.0672944949695248e-5 -0.04703707036257279 -0.007328836758619936
1.777679005347539e-5 -0.047039427070938236 -0.007329298887398062
1.5002644754547244e-5 -0.047041581355177414 -0.007329442399673584
1.2037693372063882e-5 -0.04704337977661988 -0.00732957528058538
9.481344745873643e-6 -0.04704503495341045 -0.007330260007108614
6.8340717314697725e-6 -0.04704663459587447 -0.007330619261020824
4.362775556536383e-6 -0.047048739021440855 -0.007329875382597213
3.755577641954861e-5 -0.04553815922573494 -0.0073067941939930795
3.1338485704402964e-5 -0.04554420101280722 -0.0073100277765477265
2.594978696325947e-5 -0.045548618748764556 -0.007311261111348796
2.0330618259781512e-5 -0.045552357018707725 -0.007311310126625426
1.523426719402204e-5 -0.04555428432154981 -0.007311655848757914
1.0628979141290227e-5 -0.04555617900274248 -0.007312389815079819
5.787119701233991e-6 -0.04555778085895558 -0.007312411780110248
8.887299281769254e-7 -0.04555803080253492 -0.0073119650706183195
-5.759787848995264e-6 -0.045556491876154015 -0.007309629269575355
4.6524669629747706e-5 -0.04405255057945559 -0.007284360565706352
3.821009383505509e-5 -0.04405971769880923 -0.007287306707477731
3.068194934636406e-5 -0.044065029840272184 -0.007288703268531751
2.348279392045479e-5 -0.04407002754363602 -0.007289554760981044
1.6677768714858115e-5 -0.04407327023399299 -0.0072895014301437334
8.048667360486522e-6 -0.04407521983995637 -0.0072894292462895955
8.745333488872814e-7 -0.04407457585088835 -0.007290076637494164
-6.372672357408776e-6 -0.04407282988194704 -0.007289844445050417
-1.4759331724704562e-5 -0.04407127348912201 -0.007286711221725489
5.518554737718191e-5 -0.04257246825235779 -0.0072568743074953816
4.53391036365629e-5 -0.04258150763746676 -0.007259835035798821
3.544271662896032e-5 -0.04258887498870955 -0.007261164813913098
2.5786453758644608e-5 -0.04259369475619214 -0.007262004712172501
1.5353400686994215e-5 -0.04259713659946386 -0.007261581080704807
6.388859925747736e-6 -0.04259783602750537 -0.007262492747207418
-3.1791703021199696e-6 -0.042597029761071825 -0.007262499845687627
-1.2807759847838593e-5 -0.042594569937721836 -0.007262073190391903
-2.2574367165563582e-5 -0.04259027634875535 -0.0072590973694365984
6.35489163737061e-5 -0.04109901331417921 -0.007224295047090064
5.1341060984522034e-5 -0.04110957926885664 -0.007226747218371688
3.9478844264459643e-5 -0.041117446407814 -0.007228456299088841
2.733003282140886e-5 -0.04112194394709505 -0.007229475137591187
1.6251944780839487e-5 -0.04112527756961661 -0.007228999054271959
4.388118030928184e-6 -0.04112669525083529 -0.007229794384014804
-7.260380936929484e-6 -0.04112508501255822 -0.007229235470941309
-1.8754314555846374e-5 -0.04112174486562678 -0.007228749290009549
-3.057801868860476e-5 -0.041115895594056054 -0.007226160521276057
7.153474025188672e-5 -0.03963192867995164 -0.007184821175476573
5.77640501515215e-5 -0.03964325194543903 -0.007188030391204976
4.3873720898065945e-5 -0.03965319276001734 -0.007189359251313098
2.9318659805361856e-5 -0.03965894954031885 -0.007190258187310962
1.5991470128189782e-5 -0.03966201429576361 -0.007189684284465242
2.4448206828352686e-6 -0.03966251749376586 -0.0071908685681037
-1.0891945081694062e-5 -0.03966080796704464 -0.0071902489586587
-2.4390646048825604e-5 -0.03965647580434374 -0.007189585287595668
-3.7978617238958005e-5 -0.039648836373317294 -0.007187014962245328
7.918350133126107e-5 -0.03817329841006234 -0.007140147617469304
6.367099271519983e-5 -0.03818660210474068 -0.007143457970854826
4.7850099292447586e-5 -0.038196797654588735 -0.007144775085816644
3.20518984075541e-5 -0.03820318953705182 -0.007145803522981301
1.6349126790685775e-5 -0.03820696299223477 -0.007145513446810225
3.116548969328398e-7 -0.038207483289604424 -0.007146178695900031
-1.4826945335511321e-5 -0.038205666418453216 -0.007146007086556717
-3.009912937227445e-5 -0.03819960665738847 -0.0071448813018721415
-4.5711522138779685e-5 -0.038190925088755774 -0.007141384328656812
8.734627562151372e-5 -0.03672478131076847 -0.007089685673371812
6.962298814190224e-5 -0.03673929953972431 -0.007093017996108213
5.151853404476334e-5 -0.03675010077456615 -0.00709435886097741
3.3908676697966686e-5 -0.03675689057986012 -0.00709525532020068
1.6433943478667713e-5 -0.03676060501007826 -0.007094665720209799
-9.6085324276066e-7 -0.0367604274969093 -0.007096350048773816
-1.8033165451241386e-5 -0.036757593685746055 -0.007096353791845193
-3.579564731703595e-5 -0.03675197161502601 -0.007094591824646153
-5.324955229444678e-5 -0.03674195677385353 -0.007091809443487927
9.641832889963894e-5 -0.03528720326837591 -0.007033327825800984
7.604114490885061e-5 -0.03530303648493722 -0.007037419278529356
5.5811770415669795e-5 -0.035313875819136226 -0.007038489344433945
3.59874629685208e-5 -0.03532207489723192 -0.007039568089594779
1.6643069115594e-5 -0.035326023448393105 -0.007039160822720444
-2.867158062491538e-6 -0.03532659380590108 -0.007039948456012228
-2.2844921052236982e-5 -0.03532369352142576 -0.007039450075806539
-4.2200355358788e-5 -0.03531551554332118 -0.007038491954792755
-6.123246828216497e-5 -0.03530342801142862 -0.007035960862558135
0.00010418344958193433 -0.03385968827988092 -0.006971529666131228
8.221135193927e-5 -0.03387745656604058 -0.00697468603864481
6.0041204711544215e-5 -0.03389030550029087 -0.006975796844699477
3.837776910579823e-5 -0.033898651290397964 -0.006976103460442604
1.6652097505819817e-5 -0.033903127127087485 -0.006975536514376332
-4.6335167075771915e-6 -0.03390193960054378 -0.006977435457241734
-2.618887893615415e-5 -0.0338979025924697 -0.006977840298656526
-4.7622430039053215e-5 -0.03388946926398176 -0.006976900952779109
-6.929041543145399e-5 -0.03387695718900187 -0.006973868524517706
0.00011195847086283966 -0.03244674807643418 -0.0069038807906354515
8.784080440289525e-5 -0.03246551880458544 -0.006906930075789912
6.414222373771646e-5 -0.03247902495658903 -0.006908085822997181
4.076657321626939e-5 -0.03248854667562585 -0.0069088790630865
1.8158005850831197e-5 -0.03249459658581209 -0.00690888413120145
-7.213000858734217e-6 -0.03249235217487556 -0.0069085306536907825
-3.0168717008757326e-5 -0.032486993969122795 -0.006909415255519655
-5.3739101820385e-5 -0.03247700616291914 -0.006908147264575813
-7.64365204525897e-5 -0.03246272067775089 -0.006905487637655187
0.0001197130163540682 -0.031047019707352144 -0.006829367526262227
9.392481582275324e-5 -0.031067525956107782 -0.006832399082893024
6.770246860889151e-5 -0.031082120465450617 -0.006833494703478318
4.2586951571587635e-5 -0.03109092363786277 -0.006835881408030625
1.6170706078393618e-5 -0.031095027889090424 -0.006836626335359502
-1.0131611254921406e-5 -0.031095905759214282 -0.006835753784216109
-3.4651925505004914e-5 -0.031089718236960127 -0.006834971096669777
-5.9080504467562745e-5 -0.031079654390349713 -0.006834262957807472
-8.453276240460596e-5 -0.031063598032109292 -0.006830888286919373
0.0001276280061037737 -0.02966348979748886 -0.006748612059016828
9.965020516933585e-5 -0.02968471791295301 -0.006751946034626547
7.252178378000541e-5 -0.029700079637139915 -0.006753675087993604
4.4100175652926504e-5 -0.0297105993304635 -0.0067538961662408185
1.6283194961900756e-5 -0.029715300423049984 -0.006754339189433544
-1.141949480755297e-5 -0.029714784915795555 -0.006754808793881884
-3.79274966616295e-5 -0.02970865899489324 -0.006755019606826488
-6.548416829058653e-5 -0.029696398285462028 -0.006753511025114299
-9.239737225944739e-5 -0.029678976105000966 -0.006751081883430729
0.00013540070778204232 -0.028296021765031067 -0.0066617161990085785
0.00010554945517299213 -0.028319430222573667 -0.006665897254629603
7.611340840779927e-5 -0.028335988428301387 -0.006667151547158409
4.7013979307214876e-5 -0.028346799521889357 -0.00666901951213382
1.721372079534008e-5 -0.028353385728908213 -0.0066686790347649195
-1.2802086114470606e-5 -0.02835304455010342 -0.006668873210480828
-4.2535084779930253e-5 -0.028344304643091085 -0.006668318324485827
-7.176809602500741e-5 -0.028331447684958905 -0.006667317932220461
-0.00010063221749710765 -0.028311731355319395 -0.006665217299926934
0.0001422334383629623 -0.026948496102764934 -0.006572352957710228
0.00011035927425550863 -0.026970974503496628 -0.0065751329987774115
7.835886353146917e-5 -0.02698753886840902 -0.006575220005434977
4.7997193237327406e-5 -0.026998495135194898 -0.0065765091453323325
1.6875189137158965e-5 -0.027005863139730635 -0.006578470603344346
-1.368643110483515e-5 -0.027005621748950707 -0.006579197602532256
-4.7223799206444187e-5 -0.02699761385005898 -0.006576913361420306
-7.801586606789216e-5 -0.02698478312246966 -0.006575790196845005
-0.00010837228313100394 -0.026964001021581616 -0.006574509981584374
0.00015044632655450253 -0.025616158851492106 -0.006473409563134292
0.00011638787344468178 -0.02564185925589849 -0.006476684285801943
8.284909005835757e-5 -0.025660393977677193 -0.006477795533352175
4.951761278615061e-5 -0.025672021085739457 -0.006477450885980514
1.617051994445268e-5 -0.025677118166517788 -0.006479607546442179
-1.7743636803996524e-5 -0.02567582020201537 -0.006478890303881552
-5.058772950953176e-5 -0.025669196759797407 -0.0064802398996894025
-8.331588135958422e-5 -0.02565335512527411 -0.006479490048471957
-0.00011772166522148466 -0.02563221968032985 -0.0064763469112613156
0.00015812265593656132 -0.02430631732567171 -0.006367660316867169
0.00012294787921319808 -0.024332803896737778 -0.006372130923645748
8.79301187304705e-5 -0.024352101690582658 -0.006373905373287342
5.2758568999841126e-5 -0.024365636684000627 -0.006373441284200275
1.4826559988922715e-5 -0.02437156869709424 -0.0063747700679574575
-1.988402300950716e-5 -0.024368085006355754 -0.006377750570774568
-5.436719221006217e-5 -0.024357833809104973 -0.006377685786368696
-8.862656982825892e-5 -0.02434255422564313 -0.006373976379228163
-0.00012421759165233442 -0.024321847245055202 -0.006371676110103964
0.00016626304273459965 -0.02301902036175553 -0.006258780396664224
0.00012921141110809706 -0.023047355102959452 -0.00626309164153806
9.074697509905662e-5 -0.02306836928868769 -0.006263726882688114
5.3246103197035815e-5 -0.02307721401825555 -0.006264791223464886
1.7939450989864725e-5 -0.0230840447585402 -0.006267570757364308
-1.9362657443319493e-5 -0.023083531870660704 -0.006268023145145854
-5.852163186019895e-5 -0.023075991404172866 -0.00626751779453435
-9.643827646321568e-5 -0.023058430277183965 -0.006265314862052134
-0.00013368209724628742 -0.02303512795907149 -0.006261827129365952
0.00017321645887017373 -0.021751867216231638 -0.006144663107749546
0.0001343605950385091 -0.021781513188984632 -0.006148471512675725
9.388424570253493e-5 -0.021802612578869143 -0.006148857011721788
5.581706834376578e-5 -0.02181413806789189 -0.006150742385920858
1.6385549113999503e-5 -0.02182077324885267 -0.006148142484930669
-2.3489957148808733e-5 -0.021819609017958357 -0.006149112408587237
-6.260834124501755e-5 -0.021808750921277185 -0.006149658053478786
-0.00010084390239337938 -0.02179212554883417 -0.00615030248264885
-0.0001401110248074658 -0.02176795371576216 -0.006147744580629739
0.0001809335417162853 -0.02051050590793566 -0.006023242167154772
0.0001387671124882164 -0.020539362243108112 -0.0060267631355019596
9.70977630423885e-5 -0.020559320868936404 -0.006027598497507139
5.471385301089594e-5 -0.020573581679444713 -0.006024197006752817
1.5622768297617255e-5 -0.02058038486132237 -0.006024421274587455
-2.4927912657159313e-5 -0.02057866908583012 -0.006028286117603283
-6.643439253526159e-5 -0.020567205720016003 -0.006028812590394731
-0.00010695914523989309 -0.020547897339846116 -0.006028152787879071
-0.00014788690187777235 -0.02052194045545175 -0.006024928394349636
0.0001888583857571406 -0.01929139359176051 -0.005895690871770348
0.00014576227298274867 -0.0193240572738803 -0.005899222803772057
0.00010231330967320305 -0.019347825396431057 -0.005899119661975998
5.912742587753547e-5 -0.019363928768369412 -0.005899686696164387
1.334766996132302e-5 -0.019367757356149408 -0.0058979464982638705
-2.82138781986439e-5 -0.019364647296543636 -0.005902806962305819
-7.133969027900991e-5 -0.019353413592152702 -0.005900621849277539
-0.00011303616046771458 -0.019334790161565814 -0.005899003325834463
-0.00015709027595470955 -0.019306938229079418 -0.00589575047745282
0.0001963318828230803 -0.018100124866606764 -0.005762160369319176
0.00015104380485094092 -0.018133943772755432 -0.005765501563707172
0.00010535237285177952 -0.018159840830108086 -0.005766131504817153
5.8147028522486196e-5 -0.01817436370258478 -0.005765391742406374
1.744198805584127e-5 -0.018178246974065396 -0.0057686314894435965
-2.8406684133292272e-5 -0.018176067364866162 -0.005768355360509695
-7.304074203091846e-5 -0.018166516057425558 -0.005768315180928357
-0.00012078692360797296 -0.018146025673442014 -0.005767897392829169
-0.0001656385239861221 -0.018116220320316772 -0.0057650344113459664
0.00020426671113223322 -0.01693821863081905 -0.0056229854160689124
0.0001566036099910161 -0.01697151669537558 -0.005626629421003244
0.00010856642358249932 -0.01699658761387493 -0.005626112042104413
6.199918336811645e-5 -0.017011595527561832 -0.0056272393726831856
1.576991378955691e-5 -0.017017380622787154 -0.005629069002788529
-3.2202903809948664e-5 -0.01701158331211279 -0.0056282391811736604
-8.032179012809646e-5 -0.017000091217252104 -0.005626679629133422
-0.00012662887433159955 -0.01697557339265206 -0.005627557124791109
-0.00017282336845541864 -0.01694828084806899 -0.005625523892323594
0.00021075265823586447 -0.015800047051940234 -0.005478275319031849
0.00016263245982211497 -0.01583549083379492 -0.005481036796656494
0.00011351597457213282 -0.01586146798109617 -0.005481716443547644
6.771781731579438e-5 -0.015880810561944837 -0.005481027308752654
1.504677461302132e-5 -0.015891890635215965 -0.005478723428917387
-3.6302800945215444e-5 -0.015883108698104297 -0.0054806015874995714
-8.415838695389597e-5 -0.01586876125891539 -0.005481506897349414
-0.0001323888541700987 -0.015845568442308482 -0.005482037989362323
-0.00018178640457696614 -0.01581238151823087 -0.00547892189026387
0.00022040489565512136 -0.014697120551882306 -0.005327231329895773
0.0001679541392371484 -0.014732576276664038 -0.005328178507481351
0.00011716683015380285 -0.014758075823480288 -0.005333166004717141
6.407401688084744e-5 -0.014774262873837245 -0.005330688536997252
1.6475367563588785e-5 -0.014779675677174716 -0.005329316796584862
-3.395098381275184e-5 -0.014777379589950844 -0.00533339700123941
-8.659529953801217e-5 -0.014765390865314794 -0.005330661434324965
-0.00013919384719725679 -0.014742174721483167 -0.0053293587523738865
-0.00019009252735056238 -0.01470738229267092 -0.005327830820926382
0.00022436660771241407 -0.013617940836686108 -0.005170311118685891
0.0001740751645197984 -0.01365959853997167 -0.005175325302857251
0.00012062705349108817 -0.013687135797168844 -0.005176415819961188
6.834084026086577e-5 -0.013704412509264378 -0.005179077177254156
1.1238001222770228e-5 -0.013708855088928669 -0.0051762913839830125
-3.890771894634915e-5 -0.01370330723923179 -0.005176137149864172
-9.159255963299282e-5 -0.01369009130667608 -0.005174279205281565
-0.0001445478795389348 -0.013665596924289909 -0.005172788930176737
-0.00019763907907220028 -0.013629623540702965 -0.005171636006571437
0.00023315330155464526 -0.012577091240351376 -0.005008315503017525
0.0001791442165743963 -0.012615491484231658 -0.005011141455661552
0.00012382666464523338 -0.012641111563938427 -0.005010564553918668
6.881764213987331e-5 -0.012658322076822357 -0.005013593140376706
1.3890613410351348e-5 -0.01266853600221133 -0.005016513233223684
-4.187448495381525e-5 -0.01266279842069832 -0.005013355517201721
-9.633829255719063e-5 -0.012649289072784264 -0.0050106786739462774
-0.00015079365834257016 -0.012623055683691035 -0.005009058812714992
-0.00020556279703109407 -0.01258651157474188 -0.0050091567790267865
0.000242939886261574 -0.01157020423897405 -0.004840950855780438
0.00018492580044002915 -0.011612447104294578 -0.004840851978794978
0.00013023239604157135 -0.011637151884544311 -0.004839255290269522
6.847611662130505e-5 -0.011655362673446384 -0.0048409595869809445
1.3663177874847629e-5 -0.011661686700021276 -0.004842560158099031
-4.4174685396174895e-5 -0.011657119384525216 -0.004842824027808341
-0.00010177363078232523 -0.011643306507226477 -0.004841410301436465
-0.0001589917778520254 -0.011614224704006089 -0.004839908223646397
-0.00021650657760317258 -0.011573906168427702 -0.004840695900702744
0.00024761591386050167 -0.01058933445742388 -0.004666834348051113
0.00018971155164310924 -0.010633781475629793 -0.004672900070475191
0.00012862011753564796 -0.010667071581153757 -0.004667746572533612
7.297766677470004e-5 -0.010682762955012972 -0.004668740134229294
1.3865077172155297e-5 -0.01069346908031046 -0.004666598645071471
-4.5154163511887266e-5 -0.010689647045839749 -0.004666995819660163
-0.00010613425282437566 -0.010671274160420288 -0.004664680353671244
-0.00016546859135257376 -0.010642250328131965 -0.004663006289145338
-0.00022318735734037524 -0.010601885376128923 -0.00466145363040751
0.0002576560676524999 -0.009648935034043333 -0.004485438139433598
0.00019480008647967283 -0.009688225876863948 -0.004486620398885136
0.0001344155186945404 -0.009721588881482859 -0.004486280069100866
7.479987176607332e-5 -0.009739120997461746 -0.004486966081381478
1.48893818523818e-5 -0.00974794175260988 -0.004491702235323397
-4.848183356932379e-5 -0.009746360564539903 -0.004487122193659328
-0.00010988318326099578 -0.00973106100776724 -0.00448489562850661
-0.00017059391691958157 -0.009702923703248227 -0.004485150544205666
-0.00023087814729434966 -0.009659676156272858 -0.00448515180004769
0.00026458117420095136 -0.008741929767339302 -0.004294813747486684
0.00020214653339127963 -0.008790986889288319 -0.004297982831740049
0.00013745700702019325 -0.008822907012480011 -0.004298869778391111
7.515740563096999e-5 -0.008841836932811384 -0.0042987404967921305
1.114592015012499e-5 -0.00884836528222253 -0.0042957712092964425
-4.8671893097432036e-5 -0.008842097485333099 -0.00429944719963595
-0.00011088007131510646 -0.008829115930961659 -0.004300897717092029
-0.00017515214618217748 -0.00880079487864956 -0.004300356070977626
-0.00023848703792750476 -0.008757400272690778 -0.004295190280706028
0.0002730944582802721 -0.00788148657224904 -0.004100851145976155
0.0002086272734021592 -0.007927543966109873 -0.004103951989896766
0.0001454901176960833 -0.007964623183441079 -0.004104539088864421
7.661504406151065e-5 -0.007985676070398306 -0.004105980145799205
1.153719235273381e-5 -0.007988725466792681 -0.004104122194639885
-5.101516887411871e-5 -0.00798052348371932 -0.00410544700447596
-0.00011616985068387647 -0.007965404193883354 -0.004108145391155379
-0.0001818859005264312 -0.007934970582289874 -0.004109604465015977
-0.000246945102460738 -0.007888415885198875 -0.004101405985598436
0.00028050027001466404 -0.007055714141211211 -0.003904387072273638
0.00021348294392522376 -0.00710592095908868 -0.0039057062830104906
0.00014638391903819219 -0.007136995900197791 -0.003906755992456172
8.0419255372762e-5 -0.007158106194904868 -0.003909556556088447
9.258330056348258e-6 -0.007171431856810851 -0.00391115677858018
-5.6802516569584514e-5 -0.0071611158256023 -0.00391114720820211
-0.0001237163129027489 -0.007143256781576391 -0.003908343094521516
-0.00018895635816533552 -0.007107785052462784 -0.003908834822161598
-0.00025475746396581785 -0.007060402207271411 -0.0039019205216901235
0.0002866199686213732 -0.006268490139929121 -0.0036991510290979718
0.00021742629831213192 -0.006316330032164595 -0.0037017656610184497
0.00014802641727612993 -0.006350254491748652 -0.0037022562424872027
8.238880184339585e-5 -0.006371853856700642 -0.0037022685229926625
1.4124978463219196e-5 -0.006387295490291549 -0.0037014932436474765
-6.165523220599443e-5 -0.006380049194091878 -0.003702356388999454
-0.0001273755957369189 -0.0063580417080700575 -0.0037049292552220193
-0.00019703085137943934 -0.00632282398980123 -0.003702052480363248
-0.00026545061955208794 -0.006277518533847681 -0.003694469446504417
0.000295091695312516 -0.0055268509264192675 -0.003488911291749319
0.00022293723595485975 -0.005576826247550249 -0.0034918432307176014
0.00014949567689260697 -0.0056123192325475925 -0.0034938147052293216
7.836269308367967e-5 -0.005633155081099616 -0.0034951552389498822
9.587808564767883e-6 -0.005641066530484737 -0.003488925551493997
-5.971039348631485e-5 -0.005637001112980331 -0.003497525508946314
-0.00013429456921100054 -0.0056194497062243024 -0.003493263219100173
-0.00020362710592111325 -0.00558249826250163 -0.0034916143133523407
-0.0002738100233682725 -0.005537257358821332 -0.0034898386457058316
0.00030260371667302337 -0.004822797983637482 -0.0032707548794033924
0.0002301746804431562 -0.0048762932263942535 -0.0032728422959657595
0.00015614681508263717 -0.004911729259044817 -0.0032787264312603977
8.18066422932117e-5 -0.004932813832535754 -0.0032790947547502373
1.0134230297176592e-5 -0.004939543124694432 -0.0032726638667325307
-6.424003311064501e-5 -0.004931186454676749 -0.0032758583337207424
-0.0001352084328107005 -0.004914259492428661 -0.0032778912837467308
-0.00020775882023753233 -0.004879946971100429 -0.003276640374542716
-0.00028016869029066883 -0.004829196809564561 -0.003275255236923952
0.00030968334328802474 -0.004162231047682803 -0.0030526670074811388
0.00023609098217350978 -0.004217058840404446 -0.003053830692991748
0.00016070438948793752 -0.004258182344043079 -0.003052376164371907
8.747973785663959e-5 -0.004284676141510804 -0.0030571904883366003
1.0534776860752132e-5 -0.004291284546031066 -0.003049878417273564
-6.626041036844652e-5 -0.004280906047935737 -0.0030574779880833468
-0.00014146806376893236 -0.004256641737289018 -0.003054158174061336
-0.00021535132461210292 -0.004222219029226074 -0.003051322660193078
-0.00028868783834930185 -0.004169982248130658 -0.0030506173923196054
0.00031667963160942453 -0.0035539769073801293 -0.0028227629478894435
0.000240250184439212 -0.0036065489259885027 -0.0028248961216635502
0.00016173551074978213 -0.0036441837608583963 -0.002825420984428206
8.401620078567719e-5 -0.003666989783215117 -0.0028308134559710835
1.0518081808172432e-5 -0.003677261838703126 -0.002828891842122211
-6.799526036495304e-5 -0.00367351553451579 -0.002825976347388265
-0.0001455068914517216 -0.003650682783653452 -0.0028253080027786964
-0.00022223155311458444 -0.003613735634456651 -0.002822365621921034
-0.00029926015240761065 -0.0035601852896039016 -0.0028204149868718375
0.000320743256173376 -0.0029872340008999403 -0.0025871042108514706
0.0002445093757732905 -0.0030404232157588613 -0.00258751560749168
0.00016772389939643617 -0.0030810459804472786 -0.0025892768107672257
8.806338963054927e-5 -0.0031036904163027684 -0.0025915394565644134
8.036217242620586e-6 -0.003112237904456174 -0.0025900509433681575
-7.173712745204247e-5 -0.003104914473818503 -0.0025928901905052453
-0.0001494524783593704 -0.0030839829796653674 -0.002592097708706189
-0.0002281554254042742 -0.0030460431066700938 -0.00258967977005315
-0.0003071136801554807 -0.002992063173839898 -0.0025883144805295354
0.00032766525599201555 -0.0024691512135890745 -0.0023504556016680543
0.00024758232130327147 -0.0025252805680871407 -0.002349105988501022
0.00016901260901403193 -0.0025632328958392655 -0.00234930747792174
8.736548875229707e-5 -0.002586416381918625 -0.0023488194575029112
6.947871035466217e-6 -0.0025935092484493626 -0.0023472662880426095
-7.4752642651947e-5 -0.0025866336900462273 -0.0023498446697406434
-0.00015300581648592353 -0.0025642275758071603 -0.0023493390421728514
-0.00023337560173944172 -0.002525068926191023 -0.0023471962670962884
-0.00031323263982985716 -0.0024709432727284524 -0.002346978913543679
0.00033300965534376775 -0.001997676319562386 -0.0021091637084425384
0.00025095653759269707 -0.002054399437110208 -0.0021033374576944013
0.00016947372178881015 -0.0020948880236177207 -0.0020997444019715465
8.847563229108767e-5 -0.002119561895468749 -0.0020985212804379757
7.837045890852555e-6 -0.0021279403785009554 -0.002097017948366443
-7.018090706926063e-5 -0.0021252896503803184 -0.0020996633654600423
-0.00015601467924924087 -0.002097401478293709 -0.0020992640354588
-0.00023783342843099924 -0.0020597322231172993 -0.002099273347489633
-0.00032103329476524853 -0.002004387257459231 -0.0020985093585313736
0.0003358504541475027 -0.0015785372320923725 -0.0018563331626379842
0.00025272036600419885 -0.0016372471326891237 -0.0018510054910133185
0.00017032489270513076 -0.0016794760510193127 -0.001849560988784533
8.686712453455893e-5 -0.0017030722998476505 -0.0018508283858731263
4.142306745420019e-6 -0.0017103429399834469 -0.0018504170656780772
-7.860606356194031e-5 -0.0017005340226193524 -0.0018513588693518793
-0.0001627317400925253 -0.0016828169489718195 -0.0018448968937914056
-0.00024292846074598504 -0.0016426311569961187 -0.001849922517162273
-0.0003243900410470076 -0.0015872086935532085 -0.001854272317929599
0.0003345745421885279 -0.0012168873314081015 -0.0015972191403487007
0.0002523404696060037 -0.0012723491121409251 -0.0015944455511783275
0.00016883758622010718 -0.0013108900724630966 -0.0015912228156655058
8.584509783816952e-5 -0.0013368147890011372 -0.0015894307052950563
7.215566648351437e-6 -0.0013461912996825744 -0.001590676449253752
-8.278821775551287e-5 -0.00133691693400716 -0.001589979096329549
-0.00016181731599833858 -0.001315342522381943 -0.0015908657247653709
-0.00024293698338868382 -0.0012742237632489743 -0.0015946470501791345
-0.0003274531911597456 -0.0012209322665675541 -0.00159578320665717
0.0003341434569356972 -0.000909228221197543 -0.0013410264807120257
0.0002465151704997708 -0.0009697374976124547 -0.001334121419221565
0.00015754464060923162 -0.001002532202116217 -0.0013281885679042984
7.986922914913178e-5 -0.001020477025151036 -0.001327058235112847
-3.977043524363405e-8 -0.0010227309232809642 -0.0013250814168606958
-7.720847289729828e-5 -0.0010149006553764625 -0.001328056470406621
-0.0001558015173019975 -0.0009928876508615225 -0.0013301728519695057
-0.00023998141170995427 -0.000958806000372407 -0.0013312615665889566
-0.0003237584072652643 -0.0009029521477920604 -0.0013358180284517192
0.00032144151065798335 -0.0006456127094201759 -0.0010780142288444267
0.0002368500824230611 -0.0006993673183190217 -0.0010684377371593646
0.0001554722034961924 -0.0007352661167900052 -0.0010653184494920816
7.810820327541507e-5 -0.0007597023176303065 -0.0010634154249620873
4.457469268684055e-6 -0.0007666112998856714 -0.0010627732401778034
-6.946500719073946e-5 -0.0007606998998202383 -0.0010641701667380558
-0.00015141442966749415 -0.0007357808016253935 -0.0010648418119562
-0.0002302012383175485 -0.0006974781008508142 -0.0010662611012015766
-0.000315258597822129 -0.0006449544033141391 -0.001072109933483985
0.0002969421308792697 -0.00043946700729682723 -0.0008105614801301528
0.00021415713046401652 -0.0004902962252031392 -0.0007997091177682174
0.0001383028164061315 -0.0005217785490223173 -0.0007972598885781774
7.018065739384158e-5 -0.000542296460693181 -0.0007961272287833621
2.9988737375234114e-6 -0.0005498949206249101 -0.0007957729735076924
-6.418197197863045e-5 -0.0005421117645900309 -0.0007945268997333506
-0.00012944198549536844 -0.0005253029698923067 -0.0007958672599010271
-0.00020640445117521073 -0.0004918542076822332 -0.0007960033214325236
-0.0002880583403435649 -0.00044252275778124134 -0.0008090896488737745
0.0002482458173124381 -0.00028639370639790466 -0.0005398341286210659
0.00017419922733015477 -0.00032482428984872513 -0.0005333370179268754
0.0001112872522558815 -0.0003537450429152445 -0.000536642476705177
5.391942730885562e-5 -0.0003685542078451451 -0.0005354312651860826
3.942008654831496e-6 -0.0003745234804602065 -0.000536721821578662
-4.8851574587623565e-5 -0.00036879819013412946 -0.0005343227402167071
-0.00010093804510029035 -0.00035670845985745074 -0.0005313639017758768
-0.00016224963535470914 -0.00033170983500524807 -0.0005240576835651819
-0.00023648408266621596 -0.0002908447626404199 -0.0005379898265204012
0.00015768583212822572 -0.00017867027580962505 -0.0002684215781084442
0.0001056706280988004 -0.00020117062603000033 -0.00026751081388632026
6.151205950764697e-5 -0.00021628838781037615 -0.0002702679372008353
3.0061372801611544e-5 -0.00022402679495401353 -0.0002765625079384192
1.8102941641998441e-6 -0.0002250670429283454 -0.0002763998398519169
-2.7179629767189456e-5 -0.00022168547029944793 -0.00027362950891319306
-5.737144889424166e-5 -0.00021574972272566718 -0.0002704342704290696
-9.404046216353756e-5 -0.00020227016942504694 -0.00026740982736454
-0.0001394640319874768 -0.00018467764654526292 -0.00027229835931072736
7.620858436271315e-6 -0.05003431428933248 -0.005848492539083727
5.376649732910412e-6 -0.05001770927314443 -0.00437168434256701
4.019833348665859e-6 -0.05000424829399757 -0.002907552506586247
3.811517675848435e-6 -0.04999551549609585 -0.0014513318489603885
3.6416555501412234e-6 -0.04999262065970754 1.3935909977520788e-6
4.021270005437228e-6 -0.04999605249018242 0.0014534976185557155
3.550766111396943e-6 -0.0500048359946152 0.0029098117461777056
1.513153098078769e-6 -0.0500185259149141 0.004373724625197575
-8.445553395059545e-7 -0.05003604073817304 0.005852593903524907
1.0391700858584609e-5 -0.05003248340994113 -0.00585236552044444
8.027091169922092e-6 -0.05001732781988056 -0.004375568053383091
6.054337067242749e-6 -0.050004969858908024 -0.0029105483167956815
4.488435027656366e-6 -0.049997150954091255 -0.0014528086730992745
3.616098782642512e-6 -0.04999410345988685 1.2660292176796267e-6
2.7307281713620144e-6 -0.0499967048961521 0.00145517491862399
1.2157280574726604e-6 -0.05000442002854355 0.0029119339037979347
-1.0289146398035197e-6 -0.05001728261321521 0.004376212277441025
-2.6118145004962273e-6 -0.050033650313641334 0.005855193529535805
1.2023769789367837e-5 -0.05003400353167605 -0.005854296608555388
9.405943059190405e-6 -0.05001852430379545 -0.0043778064917146566
6.969438484551263e-6 -0.05000630685284812 -0.0029123059597080535
5.06571790090642e-6 -0.04999861699768475 -0.0014541131444433613
3.6332316845569364e-6 -0.049996373718542285 7.444420761603516e-7
1.8173405168748067e-6 -0.04999892462043821 0.0014552620841416872
3.8773449705010195e-7 -0.050006633612303536 0.0029135279977687773
-1.6616549327797287e-6 -0.050019014004365564 0.004378488713996802
-4.722246845163852e-6 -0.050032700789024914 0.005855332533428504
1.2511957342977981e-5 -0.05003467322696221 -0.00585560013674472
1.0160022052093385e-5 -0.05002090829825672 -0.004379107651681374
7.605892376401286e-6 -0.05000947097265696 -0.0029135725514885386
5.478441580426615e-6 -0.05000195471982648 -0.0014550815417676717
3.425948039425943e-6 -0.04999941107845724 1.9209480497678162e-7
1.6782343269000622e-6 -0.05000195024614055 0.0014553111048518617
-2.785947702160193e-7 -0.05000930540926518 0.0029142081779976584
-2.4385678747415405e-6 -0.05002087556598958 0.0043790232813911
-4.778535810982931e-6 -0.0500346776481506 0.005855448714748379
1.2345809136627462e-5 -0.050035681276418754 -0.005856222227312173
1.030672268698248e-5 -0.050022785199160084 -0.00437964750062141
7.771151235019732e-6 -0.050011760569257505 -0.002914300638056055
5.798443047111719e-6 -0.05000466990513729 -0.0014556484207953254
3.5323860783373465e-6 -0.05000179318210314 -2.0462888504341981e-7
1.5823397129110427e-6 -0.05000443381965953 0.0014554242665117442
-4.896915542611587e-7 -0.050011706762040045 0.002914175100262381
-2.442250913108677e-6 -0.05002308752541991 0.004379394167520996
-4.403134637932322e-6 -0.050037107388298994 0.005855384910048126
1.243258364193338e-5 -0.050038859974217455 -0.005855972853950002
1.0442189535048674e-5 -0.050025058026524065 -0.004379387332869998
7.706463801841387e-6 -0.050013774794760456 -0.0029145568618101072
5.922233485828633e-6 -0.0500061545520627 -0.0014557253570174524
3.7738615994321216e-6 -0.050003584592408834 -5.630167362280569e-7
1.5241742729793268e-6 -0.05000639708255997 0.0014548027890124368
-6.413274995168026e-7 -0.050013739277100615 0.002913729195480495
-2.596892420349634e-6 -0.05002500849338726 0.0043792758537362425
-4.416297474907371e-6 -0.050038843567948285 0.005855417135213082
1.2669803340592743e-5 -0.05004212358526814 -0.005855687115355019
1.0868121964452552e-5 -0.050027592086108456 -0.004378966866606824
8.652428585718587e-6 -0.050016182121429206 -0.0029148195676593743
6.148065637117148e-6 -0.0500077373099959 -0.0014557242497849068
3.6079693486172674e-6 -0.05000470843517541 -7.017338258260869e-7
1.088549276452787e-6 -0.05000760409575189 0.0014543319604683992
-1.3667550266644492e-6 -0.050015263186109944 0.002912571640361175
-3.0968821733032335e-6 -0.05002693763144232 0.004377236663028307
-5.044332524272371e-6 -0.050041214397513085 0.005853971464455948
1.3583550286877763e-5 -0.05004647837743938 -0.00585471003881074
1.1849218053550943e-5 -0.05003064977510498 -0.004377279815544434
1.0293624393788527e-5 -0.050018402853271 -0.002913294892311124
7.0992774499399344e-6 -0.05000977065804472 -0.001455023732075184
3.5764054879625465e-6 -0.050006713377097625 -1.0875848138704977e-6
3.322337764703157e-7 -0.05000951461857199 0.0014531068285905638
-2.4279081680085365e-6 -0.05001765531380224 0.0029106116749157834
-4.325208839300253e-6 -0.05002988842636351 0.004375367073136934
-5.954405234735317e-6 -0.0500452089414705 0.005851861329418415
1.5584367345149188e-5 -0.050053362907779904 -0.005852364719719677
1.422292196076303e-5 -0.0500361165422002 -0.004374271347173537
1.238490123104587e-5 -0.05002253127903225 -0.00290992203742571
8.46711595498573e-6 -0.050013860862872815 -0.0014535586133302208
3.6944810953641747e-6 -0.050011804151036496 -1.833368714962937e-6
-7.906923307339293e-7 -0.050013498384566285 0.0014511843841353892
-4.432632781546799e-6 -0.05002166449556919 0.0029073787101876743
-6.7459321248786156e-6 -0.050034607622257844 0.004371312923014375
-8.588313779217803e-6 -0.05005074337295665 0.005849150626566269
-5.8248579423409545e-6 -0.0485266738512144 0.005838977858729258
-1.526620726618641e-6 -0.04852041966081176 0.004363561085074662
1.563301584321459e-6 -0.048514711312543896 0.0029022265046149214
3.1808562017770296e-6 -0.04851053922811696 0.0014497437840269394
4.159844814738086e-6 -0.04850879386046131 1.9061139175456267e-6
5.095049414035038e-6 -0.04851015947666506 -0.001446675264987744
7.276680367049859e-6 -0.04851268804987693 -0.002899308701869336
1.0294632490348885e-5 -0.04851808337915162 -0.004360508948698885
1.5030396288531074e-5 -0.04852320374575704 -0.005833916223647341
-1.6660265018711356e-5 -0.04702192938910319 0.005832084180656676
-9.79958982222449e-6 -0.047018378595326454 0.004359248606792404
-3.953921459885635e-6 -0.04701595623558674 0.002899800497658732
4.578455122303285e-7 -0.047014051805970535 0.0014487662665249419
4.6575390340285186e-6 -0.04701330282178881 2.0998392294634127e-6
8.718294057309588e-6 -0.047013640682119585 -0.001444775605910998
1.3758521409900478e-5 -0.047014835657320266 -0.002896863342490756
1.9008567807166816e-5 -0.0470168732209001 -0.00435631077471585
2.6406785289434487e-5 -0.047019666864152085 -0.00582764816641568
-2.5817181948289612e-5 -0.04552634325886733 0.00582019750874659
-1.735154337115205e-5 -0.04552266550633191 0.004352039714322078
-9.527829576238477e-6 -0.04552019858135666 0.002895242089475192
-2.2607577545660597e-6 -0.04551875584043875 0.0014468625871758153
4.915987666899697e-6 -0.0455184473795012 2.2204321793077833e-6
1.1407500489750417e-5 -0.045518212031098966 -0.0014432740151580756
1.9032111681098485e-5 -0.045519463841864616 -0.002892315203174564
2.731424863391979e-5 -0.045521286044093064 -0.004348455136208363
3.598367165471131e-5 -0.04552465096301999 -0.00581636339112754
-3.431810859274397e-5 -0.044036499783480426 0.005803739410112257
-2.4176974267883055e-5 -0.04403153803220368 0.004341169465913689
-1.4290958979027277e-5 -0.04402862860931186 0.0028887814867183453
-3.6912588924143343e-6 -0.04402623942164711 0.0014440543709906806
4.9333050813702076e-6 -0.04402592362553395 1.8642769603434589e-6
1.3811733357170255e-5 -0.044026427522779854 -0.0014404757409882895
2.4550333534779633e-5 -0.04402777130077462 -0.00288527774920131
3.424530763149006e-5 -0.04403066807033886 -0.004337815426023912
4.477896828382155e-5 -0.04403562423963576 -0.005800036041727777
-4.2108138258236366e-5 -0.04255238007712994 0.005782769335043536
-3.0086249828866517e-5 -0.04254592717562359 0.004326411684600008
-1.885977634605796e-5 -0.04254151124336708 0.0028789539240689174
-5.8653572541167024e-6 -0.04253904878293693 0.0014393420953710124
5.727398057638359e-6 -0.042538401083642444 1.7482693776651327e-6
1.712830372389625e-5 -0.04253958204184816 -0.0014354325898644495
2.8989157984761635e-5 -0.04254129544322167 -0.002876108815693769
4.073943192001382e-5 -0.04254535494694708 -0.004323003233890185
5.3549686770415065e-5 -0.04255232215326862 -0.00577888052036217
-4.980471948017218e-5 -0.04107500571048896 0.0057569022723608105
-3.59204338540723e-5 -0.04106691881234889 0.004307469909815734
-2.223487396644906e-5 -0.041061139082155945 0.0028672403657723695
-7.712883911936476e-6 -0.04105794510559233 0.0014328145195263802
5.879439926657909e-6 -0.04105689926812907 1.6758474020639998e-6
2.0161387521827198e-5 -0.041058185649545886 -0.001429307883035578
3.3653306347326214e-5 -0.04106106975437165 -0.0028640595329173677
4.783426549236787e-5 -0.04106676619248705 -0.004303481395136957
6.166834293759573e-5 -0.04107465929257443 -0.005753279930293866
-5.765350012737132e-5 -0.03960497192990094 0.005726155537874984
-4.1970698599517705e-5 -0.03959524227206739 0.004284591222321825
-2.580485623739792e-5 -0.03958840403044065 0.0028525882303072395
-1.003284405730218e-5 -0.03958441700765499 0.0014249385299683226
5.095318763005853e-6 -0.039583515025253306 2.0205387797886814e-6
2.253618847915903e-5 -0.039584317425095085 -0.0014220918642663383
3.80652993263838e-5 -0.039588177650886104 -0.0028490028936059373
5.40674609455427e-5 -0.039594875602932386 -0.004281509655626417
6.964967419027386e-5 -0.03960433723458235 -0.005722810480568375
-6.544772306096016e-5 -0.038143247824885554 0.005690625277941996
-4.759925606708511e-5 -0.038132112280412245 0.004258358086014122
-3.020580431179576e-5 -0.03812372883871925 0.0028349285981498413
-1.1800862973225813e-5 -0.03811851291056863 0.001416663041140392
5.858593871978828e-6 -0.038117857009983956 1.4070193154053655e-6
2.3142893458829903e-5 -0.038118321611555366 -0.0014145520406862065
4.180253603317278e-5 -0.03812345106783232 -0.002831644873611321
6.010440211570575e-5 -0.038131262683539786 -0.004254770999165442
7.713493109650182e-5 -0.03814260946837487 -0.005687941881175845
-7.329977662914248e-5 -0.03669108164399144 0.0056504257650493595
-5.317100024211981e-5 -0.036678219497097854 0.004228006229498147
-3.31063986909896e-5 -0.036668624378783314 0.0028147701722282432
-1.3009771770793115e-5 -0.03666305162545302 0.001406104514487799
6.118125914985384e-6 -0.03666146843851371 2.118126596967124e-6
2.5733118957607188e-5 -0.036663302709744834 -0.0014034319941733644
4.573773864743817e-5 -0.03666825215079803 -0.0028115279029224034
6.70626111847755e-5 -0.036676734881792614 -0.004223739109064214
8.575609835434477e-5 -0.03669127363879956 -0.00564706561473123
-8.104746858186252e-5 -0.035248593252248724 0.0056054270744532435
-5.925331640603892e-5 -0.03523430042366732 0.004193545691233602
-3.7319579096787585e-5 -0.035224047222932285 0.0027913178809571607
-1.5890936434723786e-5 -0.03521857243151124 0.0013953183454195855
7.440494137620536e-6 -0.03521566038359619 2.7448287890929823e-6
2.938275304989094e-5 -0.03521751248048998 -0.0013917947930360771
5.00703486091417e-5 -0.03522402654409221 -0.0027884470857974684
7.183401584834724e-5 -0.03523474895102618 -0.004189120151725294
9.53718964254032e-5 -0.03524864583011803 -0.005600820702420888
-8.868862733570929e-5 -0.033818340787135664 0.005555586192740394
-6.53757185789209e-5 -0.033803042188426224 0.0041570873438032795
-4.174379864659102e-5 -0.03379191626935268 0.0027667713710697295
-1.7146356511399078e-5 -0.033785211990146585 0.0013824287126019622
6.714792115270151e-6 -0.033783130967082846 2.1006187709479476e-6
2.9518987236692916e-5 -0.033785561382245824 -0.001378693572297867
5.595875802970513e-5 -0.03379206390738236 -0.002763125563524728
7.945640243497679e-5 -0.033803206803197546 -0.004151615824429716
0.00010211382495180734 -0.03381790708116904 -0.0055521321458111665
-9.659984611031084e-5 -0.032401767983338575 0.005501289991794722
-7.109701505693748e-5 -0.03238495398783363 0.0041163109304768785
-4.564882489054564e-5 -0.03237293004883545 0.002740170276306212
-1.8904888155932907e-5 -0.03236571261282741 0.0013686480135799265
6.253042723500016e-6 -0.03236330085885179 9.809805002850022e-7
3.3028952591133276e-5 -0.03236580776992181 -0.001364952772185075
5.843840765532094e-5 -0.032372452261275136 -0.002735983619830566
8.560096453507553e-5 -0.03238414073788223 -0.004112162880387115
0.00011065028604719962 -0.0324012067865811 -0.005497294275038236
-0.00010431290066528352 -0.03099938101252904 0.005442281641916234
-7.657391107095352e-5 -0.03098077227640496 0.004071818414235274
-4.867181489603371e-5 -0.030968192723093937 0.0027111777610018496
-2.2016325641858064e-5 -0.030959746478861922 0.0013541974789838872
6.90387166861281e-6 -0.030956776275031992 2.900496784689739e-6
3.5127093199012226e-5 -0.03095919890251795 -0.001350108013598893
6.322697384253238e-5 -0.030967189812607442 -0.0027064767973806244
9.050424357215511e-5 -0.030979939668708364 -0.004068138002112592
0.00011904251896512627 -0.030998686784889363 -0.0054380661934141095
-0.00011121866455737678 -0.029612115784041357 0.005379067044104794
-8.203623934378132e-5 -0.02959261721730061 0.004024708522184253
-5.255405597866446e-5 -0.029578246925734245 0.002678500322299131
-2.2891412270590186e-5 -0.02956940866003765 0.0013373757734063093
7.976854875037007e-6 -0.029565826143654907 2.4522325162350523e-6
3.7749990939066325e-5 -0.0295685280123876 -0.0013339386544213635
6.697172256053116e-5 -0.029577223956880137 -0.0026741735744851376
9.67566446764684e-5 -0.029591265604677137 -0.004019777278523295
0.0001263254159277107 -0.0296114238320149 -0.005374583876916369
-0.00011846535564079596 -0.0282414281140665 0.005310019320171741
-8.757080873881419e-5 -0.028220233376881433 0.003973184234435759
-5.643727834347954e-5 -0.02820422071436847 0.002644069726541349
-2.461784925826514e-5 -0.028194970637008727 0.0013201528759514537
8.430478460543314e-6 -0.028191694780935386 1.8303841376703743e-6
4.015878753501788e-5 -0.02819473831232365 -0.0013169254217790007
7.10564039738677e-5 -0.028203986014690853 -0.002639435834710179
0.00010319139510586682 -0.028219143226046878 -0.003967983572273824
0.0001331161926729485 -0.028240224567348853 -0.005305887385322813
-0.000126078225395341 -0.026889307714623126 0.005235858125230287
-9.409197807170416e-5 -0.02686553437086087 0.0039175420387138095
-5.995772936788663e-5 -0.02684873696819114 0.0026078778226105133
-2.6142779956510223e-5 -0.026839201581815807 0.0013011437408344457
8.055442674099793e-6 -0.026836093431033492 1.1849061627357044e-6
4.2655501641035274e-5 -0.026839052309029422 -0.0012987029671543918
7.523282572014252e-5 -0.0268481557198752 -0.002602948871050558
0.00010859221245393009 -0.026865047691414012 -0.003912387356746043
0.00014261250586652355 -0.026888053143627123 -0.005231629846384616
-0.00013540013484669613 -0.025558345897997974 0.005156133582411744
-0.00010156766912859014 -0.025530322214181958 0.003859336688354487
-6.195888071305773e-5 -0.025513374268179248 0.0025689347771796875
-2.7641515082261143e-5 -0.025503119313941298 0.0012817513673565224
6.380318249666918e-6 -0.025499940157560613 2.8233633218371902e-8
4.535489227409707e-5 -0.025502919298589243 -0.0012805975398663574
7.947894802567427e-5 -0.02551158173079803 -0.002564017028648233
0.00011513106986561907 -0.025529014173142187 -0.0038536633060534684
0.00014992884235445623 -0.02555313434543413 -0.005153035395879436
-0.0001441813285002473 -0.024242948730392486 0.005073722162077004
-0.00010324816701517059 -0.02421626525130884 0.0037961561889736897
-6.668413060835136e-5 -0.02419680985092572 0.002524898502769875
-2.9939116340682275e-5 -0.024186486763977243 0.0012614312932795059
7.857729495789564e-6 -0.024183458003439427 1.5398456361497423e-6
4.684347104502369e-5 -0.024187865444160322 -0.0012638875757268377
8.418870324408136e-5 -0.024197302887175146 -0.00252323711077083
0.00012112274304002963 -0.02421472169657684 -0.003791490601055683
0.00015763025228355418 -0.024239922667173532 -0.005069723030775954
-0.00015095223784226662 -0.022948897347900666 0.004985622274472084
-0.00011205879081236242 -0.022921408181361087 0.003731989448864646
-7.369119087373469e-5 -0.022901484844045056 0.0024816272571272723
-3.323498847183781e-5 -0.022889346445084016 0.0012396416071637838
8.803217471573212e-6 -0.02288806685193383 5.923051480199703e-8
4.8006193415881246e-5 -0.02289126125799047 -0.0012413874569305035
8.706747716465571e-5 -0.022903278242029906 -0.002480190897541767
0.00012592170515536905 -0.022922123666910307 -0.0037262103527692667
0.00016613115559596826 -0.02294915751149937 -0.004983207306831208
-0.00015927912999767136 -0.021677649878030135 0.004895134328882576
-0.00011789439990758038 -0.021648330456531188 0.0036605251183796164
-7.80852381552854e-5 -0.021628639886866554 0.002437775405656922
-3.4610377211749685e-5 -0.021616079147638623 0.0012175955904111554
8.495474363269625e-6 -0.0216126005789616 2.4324057088394844e-6
4.768245073015152e-5 -0.02161985138441575 -0.0012157813667030423
9.018817101813566e-5 -0.02163078679858989 -0.00243397763403793
0.00013142083442687293 -0.021650713586398265 -0.0036570017513090835
0.00017288774091194683 -0.021678462829582322 -0.004890583477081937
-0.00016574852984562727 -0.02043109456774679 0.004798237606483842
-0.00012366115475951858 -0.02040170209354952 0.0035893107897129956
-8.050161731722347e-5 -0.020380994995051045 0.0023904636237088344
-3.7051814608371604e-5 -0.020367999465271333 0.0011928347313016944
6.966996991031755e-6 -0.02036358889945838 2.5528248630048595e-6
5.091443805617961e-5 -0.02036801417086094 -0.0011896778286204113
9.460208536248401e-5 -0.02038118920768529 -0.002384594265207975
0.000137983220140819 -0.02040252019624602 -0.003583862720881099
0.0001814560889714807 -0.02043299877802685 -0.004793202260073885
-0.00017267107458958524 -0.019210197398093255 0.004696294244144919
-0.00012679301298082723 -0.019180150325101446 0.0035139787509659306
-8.277109171309485e-5 -0.019157441725033364 0.0023396658678704234
-3.761146672833369e-5 -0.019144496037677983 0.00116675476552142
6.706811409954077e-6 -0.019139389321749637 1.8588128587539222e-6
5.2280623522009524e-5 -0.019144623953965104 -0.0011622920966800295
9.7529046870063e-5 -0.019157371259345107 -0.002333900947434385
0.00014331698771259503 -0.019179816075142297 -0.0035074281046084243
0.00018880872286360637 -0.01921043623589108 -0.0046910141311357475
-0.00018212550872663186 -0.018017055488308797 0.004589289397198302
-0.0001338010565543842 -0.01798325676874376 0.0034328106221118765
-8.581101184865012e-5 -0.017958904135282224 0.0022854571484837113
-4.09250404751274e-5 -0.017945417507844997 0.0011410947481079814
8.633294783222355e-6 -0.017941371586144658 2.2556145328822905e-6
5.6674135273030915e-5 -0.01794634827858683 -0.001135744927777368
0.00010246844666949768 -0.017960615230233613 -0.0022799840633418987
0.00014991362874996483 -0.0179836478324167 -0.003428154430358609
0.0001960214598860688 -0.01801583833807696 -0.004584783022971029
-0.00018971521310822177 -0.016849880920589075 0.0044778506026061605
-0.00014060722703254533 -0.01681479723375666 0.0033474009003958793
-9.157610726765084e-5 -0.016789718765448734 0.0022295947451127568
-4.280129045478715e-5 -0.01677508371234034 0.0011136380785652102
7.623922225317844e-6 -0.01677131382466267 2.5002459387531463e-6
5.723520725033799e-5 -0.016776447032278746 -0.0011074265743328286
0.00010624754576039018 -0.016789150663249538 -0.0022250571210576226
0.0001564705087879822 -0.016814285866782786 -0.0033443910564932506
0.00020482379392999515 -0.01684972262130958 -0.004473546205429552
-0.00019782908526158298 -0.01571113354988023 0.004361318542163535
-0.00014773511832359915 -0.015675234792239725 0.003260793008967248
-9.496937692601256e-5 -0.015650066571503484 0.00217134093885888
-4.3572308029695374e-5 -0.015635310783274185 0.0010864059254445588
5.251559972960573e-6 -0.015628806587130555 5.206079563598996e-7
5.8739103576986094e-5 -0.015633451470679283 -0.0010788398468865343
0.00011020850976182901 -0.01564789244546367 -0.0021666861828145605
0.00016158173615119176 -0.015674439612526465 -0.0032563604465337824
0.00021163029712587106 -0.01570961585754821 -0.004356822408941141
-0.00020538474553959907 -0.014601755436371128 0.0042412265526349715
-0.00015284245324301954 -0.014565404301221496 0.0031723705367988956
-9.967026570898413e-5 -0.014538232490802282 0.002110154291794228
-4.4210782806667996e-5 -0.014522295783019792 0.0010550144798915477
4.396812597258056e-6 -0.014515527031186505 1.2291531215105422e-6
6.11222660678887e-5 -0.014521653921511423 -0.0010473515510045462
0.00011519640194910375 -0.014537550631150564 -0.002104796504427749
0.00016722945952642236 -0.01456383841670044 -0.0031655261622896653
0.0002190850731582078 -0.014600452486517588 -0.004235800397798223
-0.00021272574873719657 -0.013521998150921664 0.004115528031872741
-0.00015764889442719087 -0.013483851738096981 0.0030774051195937933
-0.00010288845213823584 -0.013457813918719945 0.002048939549713319
-4.7457940671771986e-5 -0.013441177355013684 0.0010210885124358868
7.668125619110608e-6 -0.013435877832702031 2.61423491518896e-6
6.318686042544023e-5 -0.01344057206872153 -0.001016809690916299
0.00011939899623508501 -0.013456397784495552 -0.0020425456178361063
0.00017413958059487005 -0.013483440326234159 -0.003071741444773024
0.00022840099762339998 -0.013523164509537557 -0.0041100291796319025
-0.000220613785481802 -0.012475136098529009 0.003985987945033545
-0.0001639491383445172 -0.012435402626086368 0.0029805213670410402
-0.00010718131255788677 -0.012407474962576326 0.0019832356478116943
-4.852649928229921e-5 -0.012390389028765448 0.0009907210709668426
7.193682018142046e-6 -0.012383990006220926 5.421970250493328e-6
6.719681097713291e-5 -0.012390308270938679 -0.0009863436254598599
0.00011854554111017862 -0.012406196622611356 -0.0019782306128263627
0.00017689329754297793 -0.01243459880462374 -0.0029747384033559717
0.00023529263135247687 -0.012475987407311503 -0.003979868026634241
-0.0002273216964765447 -0.01146226307657329 0.0038511179468037897
-0.00016955315651217783 -0.011420960248819313 0.0028797138808370638
-0.00010999781043963093 -0.011390475162785432 0.0019160140514770411
-4.781966845850211e-5 -0.011373103867110903 0.000954229577210867
5.79661713760218e-6 -0.01136832978799429 5.332168020618302e-6
6.415378809894994e-5 -0.01137272299464218 -0.0009521986290238635
0.0001271136867902556 -0.01139016557046783 -0.0019096462149256867
0.00018297348068091403 -0.011421305019774496 -0.002870684069396161
0.00024084024468031418 -0.011461102302118619 -0.0038445887981077287
-0.00023429346642706028 -0.010483721552262437 0.0037113638061336356
-0.00017541804424377975 -0.010441203239193016 0.002774065167014501
-0.00011544328143613941 -0.010408476869413591 0.0018455610795354376
-5.553308899976002e-5 -0.010390988458253841 0.000921588682641225
1.414255394412293e-5 -0.010382408716131813 4.269052124359596e-6
7.293749080271342e-5 -0.010389686228350495 -0.0009162762389842359
0.00012896463024946307 -0.010407386071426513 -0.0018396930685636746
0.0001927448305264813 -0.010438877520987155 -0.0027649992638386833
0.00024731394823105496 -0.010480117648281181 -0.0037020176677687146
-0.00024338991083657893 -0.009540747053849392 0.0035670147927420563
-0.00018168984202824795 -0.009495941502573949 0.0026653262963823245
-0.00011723865149977057 -0.009461944179106889 0.0017737185097837674
-5.6543651736737295e-5 -0.009443719075192352 0.0008826170303630095
9.144747342060608e-6 -0.00943748994253115 2.767505720451704e-6
6.980871541469251e-5 -0.009444489610447932 -0.0008817901152962568
0.00012897150483506584 -0.009463699347559886 -0.00176700736236174
0.00019535064056134507 -0.009493299104322684 -0.0026559139118562365
0.0002596029193450653 -0.009534538860939693 -0.003557309621605294
-0.00025013762979806965 -0.008630048476413472 0.0034172531107829534
-0.0001871434456684256 -0.008584607401745646 0.002551289705181481
-0.00012130185854801898 -0.00855228043052786 0.0016964489231541136
-5.630555451358112e-5 -0.008534107392925818 0.000848775569475712
6.0057056290655755e-6 -0.00852907509194995 1.2355711885795094e-6
6.64353465086401e-5 -0.008533787482984315 -0.0008451313269048175
0.0001424279171650831 -0.00855222282326072 -0.0016930893454873024
0.00020370625541112625 -0.008583579261589204 -0.0025478228700052557
0.0002660191079290848 -0.008627099258470198 -0.003409339294037862
-0.0002578083333936132 -0.007759641848748761 0.0032617423616425013
-0.0001939043366334973 -0.007713621290357451 0.002437409174450367
-0.0001273563914087008 -0.007681314095534313 0.0016223139970928924
-5.8451783145476366e-5 -0.007660822755260869 0.0008082700220332318
1.0012019380006643e-5 -0.007654060598983681 1.2355452934245733e-6
7.354549237914538e-5 -0.007661622657640514 -0.0008050372498734674
0.00014139866944282858 -0.007679269529899756 -0.0016167869279865798
0.00020587516192390465 -0.007712768169798099 -0.0024336712983851726
0.00027315423107697077 -0.0077596793195514845 -0.0032559504966826066
-0.00026700322457601136 -0.006931306759656388 0.0031037090322112446
-0.00019870770349787848 -0.006883608711060917 0.00231965142632235
-0.0001310086410138924 -0.006850021867672424 0.0015433614141382162
-6.465149083157916e-5 -0.006828144250722763 0.0007673487230107765
5.933780756869998e-6 -0.006820977452510091 2.952614061161349e-6
7.996302993577767e-5 -0.0068277288462041345 -0.0007659363116322277
0.00014492377739545962 -0.006849506392534475 -0.0015362187977626914
0.00021340462179420038 -0.006887590317078036 -0.0023122591370125303
0.0002809105482191231 -0.006934499410107243 -0.003094865285470949
-0.0002738378928911185 -0.006142693199363703 0.002939341589283867
-0.00020359556818570234 -0.006093368637120482 0.0021967719207443624
-0.0001345688863714656 -0.006057276284914601 0.0014602157591924062
-6.379756657283101e-5 -0.006035780812517394 0.0007277181889186803
5.031702197977003e-6 -0.00602801411291941 1.461219404117145e-7
7.209496108725731e-5 -0.006035820600505895 -0.0007233230046765818
0.0001469250711943565 -0.006057719804548807 -0.0014504626201540284
0.00022027064351619308 -0.006090958208708717 -0.0021883765158554
0.0002901502837199647 -0.006141117672519199 -0.0029305194691728186
-0.0002829705390102281 -0.005396719344775571 0.002770731268474895
-0.00020988058503427478 -0.0053450132493475895 0.0020692296489819087
-0.0001368769203820932 -0.005310091731101724 0.001378115961352727
-6.699337551538105e-5 -0.0052870966103220896 0.0006833866572611876
6.305218835488191e-6 -0.005278456096824366 1.893615563396144e-6
7.99674307499943e-5 -0.005285138979900052 -0.0006810968610803639
0.00015096067800146078 -0.005306556222373659 -0.001371891943254415
0.00022118502205868966 -0.005341975084325312 -0.0020643199216957343
0.0002964932021456065 -0.005394596802080577 -0.0027636288508252034
-0.00029081231627345626 -0.00469251327504501 0.002598764732427301
-0.00021752553660923672 -0.004639524696597033 0.0019400631379008757
-0.00014318888732599416 -0.004600838911456496 0.0012894549848879765
-7.016743575052394e-5 -0.004576807541947024 0.000643186300056815
5.70027952044006e-6 -0.004570635121463862 4.046146299092486e-6
8.062261440923608e-5 -0.004578083143459819 -0.0006373857115150959
0.00015445088946675441 -0.00459742822536572 -0.0012847257391638309
0.00023145737775248797 -0.004636934874588681 -0.0019300865578974194
0.0003032769402087045 -0.004687615328259816 -0.0025919587173869013
-0.00029751522196728736 -0.004031886083417517 0.0024211382546953735
-0.00022295800694486183 -0.003978741324710786 0.0018062125497593938
-0.0001486369669869409 -0.003940259583818568 0.0012011841739338603
-7.497175738570157e-5 -0.003914637963482505 0.0005983182091368603
3.4870107116911812e-6 -0.003908279853576797 2.5195744701141613e-6
8.717323176385991e-5 -0.003913396496419411 -0.0005934164299666837
0.0001635741314138288 -0.003935235924787269 -0.0011961329341678999
0.00023990389638776653 -0.003975492031660865 -0.0017983913171879676
0.00031111660507606484 -0.004028640371600286 -0.0024124378584702367
-0.00030418546510151324 -0.0034175601653452115 0.002239745572380635
-0.00022690839616257557 -0.003362689965412775 0.0016695399234060992
-0.0001497900386028539 -0.003322242521087696 0.0011092486919865709
-7.173349414409897e-5 -0.0032968353930720585 0.0005532226836383884
8.643225297148596e-6 -0.003287281155818399 2.3667626939471836e-6
8.550050383410651e-5 -0.003295347361318279 -0.0005501687543876945
0.0001603212282695443 -0.0033185246768752696 -0.0011043499396510255
0.000241333556811735 -0.003355124624319897 -0.0016643293871636711
0.00032073922477573335 -0.0034091955048009387 -0.00223299213914319
-0.0003124194605546658 -0.0028492626979661796 0.0020525431447170135
-0.00023353802026165245 -0.0027923833769227155 0.0015284031896433496
-0.0001539889501097009 -0.0027485800231567808 0.001013676991049983
-7.18359066684611e-5 -0.002723586284681085 0.0005040340546694645
7.14463023104843e-6 -0.002714407731572634 1.519382096895265e-6
8.870777126251416e-5 -0.0027247403742930772 -0.0005076001028406789
0.00016571249162498545 -0.0027469921493082053 -0.0010185955963903776
0.0002442047077600054 -0.002785108405603377 -0.0015281828772861017
0.000320750792687068 -0.002842702801806532 -0.002045352089518567
-0.000319863018646379 -0.002323087277415121 0.0018618259228920786
-0.00023923547611505246 -0.002265307187629775 0.0013829560299056037
-0.00015421190287067156 -0.002226100887234937 0.0009175313964351925
-7.097765920091322e-5 -0.0022063790165472727 0.0004529652818356108
6.814305583070142e-6 -0.0021954458178397255 -1.1353764628997937e-7
8.378312732009499e-5 -0.002197884118576047 -0.00046365924013370806
0.00016764957003857086 -0.002222778483055351 -0.0009221584327123558
0.0002480232617353781 -0.0022621155028456482 -0.0013849090282021168
0.00033002846226232185 -0.002322998388066621 -0.0018527607280647226
-0.00032737820979560094 -0.0018478365671468096 0.001666924377614717
-0.000246427694592732 -0.0017903463982016608 0.0012418305694686293
-0.00016300501642916684 -0.001749118913902615 0.0008212543202705434
-8.005069322353365e-5 -0.001728765749999731 0.00040842120953844666
5.218955408848052e-6 -0.0017180566914192213 -1.5509883996699872e-6
8.661077174404775e-5 -0.0017224625350826684 -0.00041396457335341976
0.00017270190393050828 -0.0017489388931228194 -0.0008253636913387716
0.00025732553995794634 -0.0017926855964623045 -0.0012355747436679748
0.00033632019926366875 -0.001852414388513487 -0.001659412735643461
-0.0003331860584518995 -0.0014287098379499495 0.0014706026367167547
-0.00025084086308451526 -0.0013672119412856058 0.0010942340477175132
-0.0001662186340251938 -0.0013267372712325364 0.0007278796132947253
-8.040877963958409e-5 -0.0013025553810579185 0.00035692811525688065
4.128330171009632e-6 -0.001294113420797413 1.4928779167667252e-6
8.882431920708477e-5 -0.0013023806132318415 -0.0003600257774567013
0.00017535944160904134 -0.0013283181879131798 -0.0007271442603295654
0.00025990523003150236 -0.0013707330075515554 -0.0010922612782534578
0.0003407752217263245 -0.0014307367035331373 -0.0014634844803773047
-0.00033391374077030737 -0.0010618937724614925 0.0012727116084244566
-0.00024945085975386746 -0.0009999049313314987 0.000947190788200622
-0.00016670955959951095 -0.0009551603859637163 0.0006266951950656208
-8.07758043204587e-5 -0.0009256004978574732 0.00030752411663627566
4.922037991649761e-6 -0.0009190511958904808 -4.377143552826328e-6
9.063789738413324e-5 -0.0009293036611976718 -0.0003100306392693916
0.00017527325208921383 -0.0009563376032017048 -0.0006255747710710573
0.00026047155381601585 -0.001003482596284753 -0.0009420307375710158
0.00034076634425445735 -0.0010633789238856978 -0.001265605180541621
-0.0003326656549619422 -0.0007510582505652105 0.001069737896680865
-0.0002514602920230686 -0.0006859517967792572 0.0007947061484098373
-0.0001665734307596889 -0.0006382989833970845 0.0005234282261128866
-8.405909251032959e-5 -0.0006092309589821725 0.0002556121647125103
1.4149227120686112e-6 -0.0005972266435615413 1.303855896750317e-6
9.20896058636207e-5 -0.0006082928824111144 -0.00025761925764922704
0.00017051128610405848 -0.0006380785605183301 -0.0005206801044817509
0.0002536675088692311 -0.0006915024457561975 -0.0007889975810643795
0.0003357981991567455 -0.0007551955934343587 -0.0010598540991239604
-0.0003192127599649876 -0.0005009344074177563 0.0008638910957301803
-0.0002470885516911863 -0.0004337121930382316 0.0006410788366997271
-0.00016472496143669696 -0.00038315284389149606 0.0004191274721456016
-8.674105382792088e-5 -0.00035473086828925824 0.00020018680869837116
2.0381146495152037e-6 -0.0003442126561530092 -3.191553782748535e-7
8.650327457858943e-5 -0.00035309964952294303 -0.00020340587241076113
0.00017149582758521417 -0.0003821423786536451 -0.00041121688191917365
0.00025218885457320867 -0.0004304181492330783 -0.0006306450472176144
0.0003288586381384995 -0.0004941891768902486 -0.0008548759388781089
-0.000304383768738631 -0.0003022279924416778 0.0006577553151090088
-0.0002242770252720969 -0.00023230157350407913 0.00048086468301828316
-0.00015892469643658872 -0.00018180368640631579 0.0003152574604744459
-7.904039090236445e-5 -0.00015212851058947325 0.00015039007387836176
-3.6563465452673403e-6 -0.00014369377443519218 1.679704409484438e-6
7.827407268819966e-5 -0.00015012176775036103 -0.0001489065738231487
0.0001550672007206121 -0.00017881876170084988 -0.00030900278689517696
0.00023931333469199006 -0.00022471922726196924 -0.00047769055587072035
0.00031045853116322327 -0.0002886277288173606 -0.0006509150032617706
-0.000262126294056166 -0.00016358946295763805 0.000447015067581441
-0.00020841167891161777 -9.492895746917974e-5 0.00032766466273435256
-0.00013185208289752206 -4.5219922740142794e-5 0.00021009085985255658
-7.359434274521559e-5 -1.849887023676066e-5 0.00010163943751061662
1.2317668939450308e-7 -7.356139410320914e-6 -5.837512250516289e-7
7.166463978494057e-5 -1.1244371446547422e-5 -0.00010462866404016379
0.00014304160415379752 -4.358991466025839e-5 -0.0002019396384853242
0.00020631222478309847 -8.501804123985268e-5 -0.00032512437612752326
0.00026941891384934467 -0.00014344433588446646 -0.00044476730100281566
-0.0001841335832044218 -6.92779922805998e-5 0.00021084367365885637
-0.00015791103512205918 -6.241829676074648e-6 0.00017165216235251964
-0.00010816130014614822 2.3301990381879692e-5 0.00011138467864138848
-5.860298130495978e-5 4.1420079712967557e-5 5.7984706622407355e-5
-6.858370125081499e-6 4.6589572273800976e-5 4.320889640659038e-6
5.497813910838172e-5 4.409482150861624e-5 -5.772628754141651e-5
0.0001047540599388019 2.887971829294099e-5 -0.00010964311427666149
0.00014923402315082082 1.220204386950457e-6 -0.00016896798693706548
0.0002018951930733663 -4.579974333375665e-5 -0.00023570958060927107
5.955344032155939e-6 -0.007155576731197506 0.0007754965254199909
2.3124483135696613e-7 -0.006856896460531979 0.0015913134122210444
-5.6272241961700455e-6 -0.006790792487489379 0.0007021211007462198
5.491436940500547e-6 -0.0062611375458566125 0.00046315914804921876
5.298415860086998e-6 -0.007025497793064262 1.1311075556607592e-5
2.7159476578698403e-5 -0.0034834203713734638 -0.0004603363974026803
5.425131947913664e-6 -0.004181081262591408 2.807406260085458e-5
-9.060431649045949e-6 -0.003622020739228855 0.00024329000677755875
8.32527347573157e-6 -0.0037716842447071087 -7.532489708753517e-5
2.852649984339672e-5 -0.004038579113013263 -0.0006198946342967542
8.380735680071154e-7 -0.004521024501705017 0.0003285437505241933
-4.592064803875643e-6 -0.005004280769301575 0.0003170668712892128
-3.542753582897553e-5 -0.00418601494347987 0.0009110460853486662
6.8167431507428135e-6 -0.004888991972149792 -9.48856589793298e-5
1.807378598883576e-5 -0.0046140998121667375 -0.0004212445867102384
2.3862543320838166e-5 -0.003851241394732565 -0.0002380536488511105
-2.536457030355472e-5 -0.003651120849965935 0.0007299153786694947
3.85446058581847e-6 -0.01701630910756081 0.0005717807041910259
1.8385763982963732e-5 -0.016497130993978648 -0.0007432411227711706
-2.322702236878036e-6 -0.016266433546655024 0.0008543751381382089
6.795487628906382e-6 -0.01765483393917362 4.32512454419072e-6
6.329188237178735e-6 -0.016616611840429844 -0.0003955769215058769
7.817019853907004e-6 -0.0157813235481466 8.708057140759054e-6
7.514844161462287e-6 -0.017683653616998595 0.0003949873025841933
6.1825841410766386e-6 -0.01793315474394938 0.0015136033984554946
1.2388717455324457e-5 -0.016873428938200093 0.0018259120311766755
1.0771834132394772e-5 -0.016043457393768723 0.0005798277217512974
-2.235292311107685e-6 -0.018039581815249305 0.0009086524383475805
5.260901182418579e-6 -0.0185805493277212 4.46694047233166e-6
1.4570562763703848e-5 -0.0020601116289687828 0.0002732417093922192
5.819739376133013e-6 -0.0020321965089127535 -0.00019657730533291764
6.23299192680352e-6 -0.0025429077891983734 0.00027191566036465967
3.722800621788424e-6 -0.0024205583312078755 -6.441445170435049e-6
5.464774437477475e-6 -0.0017598342921565718 0.00032429841907897084
6.493430040696145e-6 -0.0019558579357990312 0.0006959759767686696
4.4388047571520524e-5 -0.006091167941299877 -0.003056762063955868
4.6307680336556516e-5 -0.006912726248826635 -0.002744766765577227
-1.041302145641371e-5 -0.006513205835754965 -0.0031903037588036525
3.578525718109852e-5 -0.0070617928837865464 -0.003345700479855215
3.2335261944991e-5 -0.0029111916235963343 0.0005060222755050686
1.3327441784599215e-5 -0.002350973078015977 8.329901022286852e-5
6.08219055843893e-5 -0.00241289186333693 0.0006255544857915032
3.63050192814285e-5 -0.00172962277127102 0.000531128186819348
2.6603145148748827e-5 -0.001747272658619685 0.0007640610803265715
5.716172468741497e-7 -0.0005733048516911284 -0.0002270981454335243
4.8594557568988864e-6 -0.0004614841582754072 6.690204195230347e-5
6.415443217032402e-6 -0.00040289538700761255 -8.154421196823354e-5
-2.144939560277088e-6 -0.0002967079766339884 -8.461041505840394e-5
7.7311351130593e-6 -0.0009973461986308857 -0.00028424794109410597
1.3738480201758923e-6 -0.0007512347316926049 -3.579266123074144e-5
-1.7645613396657098e-5 -0.0007081261234139394 -0.0003806331382924663
5.518662157635422e-6 -0.0006410811248054449 -5.179520736325407e-5
-9.811342441979791e-6 -0.006026842186884753 0.0008549143355016759
-0.00027694085690800575 -0.00515807386088906 -0.002889061763012447
-0.00021770612055113287 -0.005419239354314282 -0.0027095467484103985
-0.0002640765094758451 -0.0049728172880133216 -0.0028823279662277103
-0.0002061002185521785 -0.004971084024742103 -0.0022836843031371016
-3.905779437572104e-6 -0.007648008630493822 0.001449789745108002
-4.2386003651982e-6 -0.007716108060467198 0.0006136168809235679
-3.082288513901022e-5 -0.007298493129058124 0.0011500184308415162
4.367311926537824e-6 -0.006946785042740661 6.317152919102745e-5
5.53367776649818e-6 -0.020607007216306164 0.0009953685329336874
8.592218913843567e-6 -0.020387734326583536 -8.124344078539924e-5
5.7197042446620335e-6 -0.020253242963693397 -5.804410775766498e-5
1.1745147501793798e-6 -0.01960865325931182 0.0008513808439949172
8.754345828891717e-6 -0.02244893694822767 0.002053815871733321
-3.7136983059990946e-6 -0.020725558602446893 0.00202899651021904
1.445997771782694e-5 -0.020779888498576433 0.0020703502707214694
-6.623034354122212e-6 -0.020776397150394126 0.001411727754673512
9.848111808659438e-7 -0.022048315063859965 0.001020742422719574
8.175491236057088e-6 -0.021738828345189264 -7.195131744168909e-7
4.408421939893368e-6 -0.0015311939107310237 -0.00030905975849480655
1.9147133828552273e-6 -0.0012079565587261476 -0.00018510499704136457
-1.4619461688606794e-5 -0.0012745811190156158 -0.000587249002720771
-3.5395263611261233e-5 -0.0008418597794208467 -0.00037812818471714185
-2.994790788579994e-6 -0.000979337625529652 8.058286421810548e-5
2.4783812149229896e-5 -0.0008349969810593427 -0.000260543169248755
-1.3374878149148236e-5 -0.0008365246226911077 -0.0006810813767515384
-0.0001743777962694061 -0.015368940541264862 -0.004652951846907937
-0.00018137659506028254 -0.014128371334001827 -0.004517453795372456
9.82466260107329e-6 -0.0010857757294510445 0.00014211970053316423
2.936735793201616e-6 -0.0014608106320151276 0.0004717791403156766
3.226103667572531e-6 -0.0015758171794356159 5.335506607510666e-6
4.6390468572919985e-6 -0.0013915603485274613 -3.584267357505365e-7
-2.2737718760404486e-6 -0.0010949707775916413 0.0006060410304134245
2.3597855917934287e-5 -0.0009847385172587913 0.0004100658376426472
6.516767613522916e-6 -0.0014651213620358453 -8.686080725805143e-6
3.3234076228738634e-5 -0.0012773447236925626 0.0004910520002740298
3.148239537513381e-5 -0.0008778515308891949 0.00023507516736109748
-7.186808087870324e-5 -0.009616988587590013 -0.0014523625462651672
-2.3896805479980203e-5 -0.00867387944030839 -0.0005705513553740133
-3.5774018203639706e-5 -0.009672800177252602 -0.0011756426204181153
-3.087964096309655e-5 -0.008610672408785668 -0.0009746701674742912
5.2356038899279605e-6 -0.014190848749359693 -0.0011655527478418174
1.771319982954076e-5 -0.015269011418921218 -0.0009774960226625806
4.470860754357059e-6 -0.014568805605029076 4.261903467257511e-5
7.860516909616438e-6 -0.015698535032924402 -0.001064092722454129
1.4212364854220538e-5 -0.013625513955981033 -0.0008437838236854884
-1.5393054078553428e-6 -0.016059528212176363 -0.001132899216322313
7.830418778194669e-6 -0.017393662325929222 -0.0015675628680672468
7.903888601730513e-6 -0.03910682337358881 -0.00086718687592998
5.992383006755059e-6 -0.038212310037582124 3.0180272922881004e-5
3.7199376225376784e-6 -0.039467603312226665 0.0005312501649953265
9.470401913013993e-6 -0.03952789404833213 -0.0005975351691342879
7.075857958878923e-6 -0.03784672197084904 -7.696766098963638e-5
6.492646743430046e-6 -0.038294954701115005 -0.001940806518384147
1.3698422146489943e-5 -0.03832557987684951 -0.0016299576512523934
-2.959189477710622e-5 -0.025905457916175594 -0.0017506855519217625
-4.564387191255329e-5 -0.024474811458392042 -0.003068087341208705
-1.3999406520418017e-5 -0.025849702154999522 -0.0013636404193113853
-4.346021576050031e-5 -0.025765144674317755 -0.003174961806539455
1.3905357377541582e-5 -0.03952893118882105 -0.003520918008282655
1.692584379178681e-5 -0.03962791123433345 -0.002769373731710342
1.0293147396893791e-5 -0.04095524507364233 -0.0024922172356347245
5.868334946713606e-6 -0.04015666829659107 -0.002049272439493327
5.812803583451948e-6 -0.03989892371201853 -6.375795196192581e-5
1.2498671358314864e-5 -0.04072107785786546 -0.0018406232974591495
6.164268497386656e-5 -0.02560643403058477 -0.004031798159399799
4.472087437807981e-5 -0.0260245993544325 -0.002675898982322989
3.657770218707272e-5 -0.024522037681869273 -0.003314923383304941
3.232433037130931e-5 -0.025945370927549453 -0.003933157372638897
2.6720457005130694e-5 -0.025149039941226355 -0.0020409833367496387
2.1939542282869394e-5 -0.024194091432215317 -0.0010667205240480662
1.635012420679908e-5 -0.024274602769530362 -0.0012983979556468947
1.0177543297069918e-5 -0.025273081309371177 -0.00018901528499606812
1.6454827929290493e-5 -0.026015937709860583 -0.0013213945901640893
2.8163661706740448e-5 -0.026519045311626247 -0.0023711656100934677
2.1940325161257905e-5 -0.026809476708157524 -0.0011525463545096184
3.238387102363574e-5 -0.023612152453641753 -0.0021780955407714395
3.334221335074514e-5 -0.025120602142006898 -0.0017689623955971807
5.1317567982659796e-5 -0.023922678744283173 -0.002724519287745617
1.5527225942638286e-5 -0.02529503281334722 -0.002362706862548557
4.1019990014432785e-6 -0.005667940421659667 -7.577984195083509e-6
8.173333049216941e-6 -0.005467962201896713 -0.0009541355503382736
9.440813447400075e-6 -0.006186815814483826 -0.00021194181791463898
-1.4184546100678126e-6 -0.006302979537760783 -0.0004237317049836943
1.4024719042444443e-5 -0.0057758050629326835 0.0005557803453769492
4.947772865366358e-6 -0.005711681680436945 -4.7729658552978226e-5
-0.0001954492524866014 -0.0008027022749315382 0.0008898601980069195
-0.00025521809503303606 -0.0012892477275574462 0.0014138944916464626
-0.0001356177202623295 -0.000987305226671 0.0007282947034996545
-0.00024841731179282736 -0.0010041841854912766 0.0010658266219672498
-3.3362795010823128e-6 -0.00914630580562466 -0.0004306553621238213
-3.045862006497636e-6 -0.009421120239287808 -0.0008025024137257918
1.1287474879624638e-5 -0.008540052313526805 0.00024297248539491487
1.3798410087716293e-5 -0.00959299938542435 0.0006592256620381891
-1.8083026713785717e-5 -0.010341652262191539 -0.0011495935166597822
1.1234235511952653e-5 -0.010364010165916175 0.00023288818376801952
-4.183230398476059e-5 -0.009130829278178097 -0.0016769992941189761
-5.718854620831216e-6 -0.008241618319295154 -0.0002865919930258908
3.133460792125631e-5 -0.00853199887046976 0.000852790153485569
-1.5458403118160787e-5 -0.00844967291991579 -0.0010084482641261698
-1.2790451753548403e-6 -0.028051548334445894 -0.00118387867948727
-1.7530320042806977e-5 -0.029235070137396176 -0.0028251572464517466
-2.2066536291308225e-5 -0.027860014586412237 -0.0027705956238983074
-1.0207197616855213e-5 -0.02855019828167589 -0.0030761251330293253
-4.5020077921904915e-6 -0.0267000892862493 -0.003338703838352291
3.5521621328105495e-6 -0.027762279645684677 -0.001849449877944499
2.20026595603387e-6 -0.029198984822744207 -0.0033432034572847074
6.521926285393221e-6 -0.014859086490934885 0.0012043615924618553
-9.132703562589593e-6 -0.01585393496572963 0.0020522936137345816
4.3950887011922605e-7 -0.014944149097852992 0.0007265052468696318
-1.2440672401069004e-5 -0.014825041736866534 0.0023132592494977482
-2.7579532647768956e-6 -0.014751977102382238 0.0030478374352680263
1.3599324230180542e-5 -0.015228008980202054 0.0023738692475157737
1.9139437641573437e-5 -0.013663827283258751 0.0021601090201910254
4.200841088394503e-6 -0.013783850756873288 0.001428983890704396
2.396911841908141e-5 -0.014462045363725948 0.0016665937302302771
-0.00014524222240494729 -0.0009883858214508605 0.0009745593160919944
-0.00025827586790475 -0.0009715111350325047 0.0012236050337087324
-0.00018693368165530517 -0.0013363857578829682 0.0014231236267963087
9.215679173436284e-6 -0.0133981175778212 -1.3908426343454216e-5
2.2174838818724707e-5 -0.015351225536103526 0.0012325249432874462
-1.0142029822980234e-7 -0.03215197975412555 0.0011892498928120488
5.582830541503284e-6 -0.03331452117246793 1.9156487246098928e-5
6.260285324231627e-6 -0.03180423326174664 6.89575586967681e-5
6.659627151782639e-6 -0.0319213420604893 4.05487074191133e-5
-8.443956740351201e-6 -0.031668526319911315 0.0016560879847012456
-3.584550515883851e-6 -0.033100401676611005 0.0011925012420037925
3.324849859597597e-6 -0.03217355577237417 0.0020281045415466298
3.607905596573451e-6 -0.030285586585157946 0.0015102109350670738
-9.182603404015975e-6 -0.031080869479045533 0.0027135674704028864
-9.364634884203023e-6 -0.03250386798904384 0.0023842986701609497
1.584817721142815e-6 -0.03354177039865626 0.0015412879275688992
1.3293195007136942e-5 -0.017982706523879774 -0.000777464774956395
3.4753210667139404e-5 -0.015839594420919145 -0.0019341053111315244
1.0047232069889666e-5 -0.016325502126125963 -0.0022887980245372298
-9.526127862787031e-7 -0.014930687854481975 -0.0008311378003555374
-1.329909006580251e-6 -0.015020617206990364 -0.002036254670516878
6.109721769899997e-6 -0.017112961311220514 -3.9669790237215335e-5
2.9647658162236888e-6 -0.017469527486388463 -0.000780589050074234
4.012264770407432e-6 -0.04164565593306043 0.0011174457569105801
5.891010524622195e-6 -0.04274895001138894 -0.0003748167749783675
5.594515784818494e-6 -0.042985631616547615 0.0010513350310912646
5.037188741586887e-6 -0.04138544842140467 -0.00015024490198590454
1.5477649654945973e-6 -0.041448159580406374 0.0011913085606682261
5.3518737721451015e-6 -0.0424338523770267 -5.602574241829008e-5
5.183525371197045e-6 -0.04101574624807548 -3.0474630813362583e-7
4.423483289014106e-7 -0.04262224230679056 0.002391182949562339
2.415417476148727e-6 -0.04060750309157989 0.0024277922897241004
4.41656077157819e-6 -0.04360511552521429 0.0005580710736610637
7.0448056312094065e-6 -0.04127424596527987 0.0017941989739814503
1.124070171348633e-5 -0.030236832694907203 -0.0007173942525145435
5.458281419145558e-6 -0.029441124013038236 -0.0008209783002044421
1.3844392510744078e-5 -0.02933805248930333 -0.0020213677966638716
8.952191030273885e-6 -0.03104215564833762 -0.001178050125196516
-6.728267076146851e-7 -0.029652136700456327 0.0007783506010902972
1.6598881998196147e-5 -0.03008389162309887 -0.0008693556954710756
7.597395886650755e-6 -0.02840786763028914 -9.962430212232411e-6
7.902977631848842e-7 -0.030983585606709826 0.0006600036214132721
2.0941560513144835e-5 -0.028517835828637168 -0.0011537391603976717
9.541719767399718e-6 -0.02883637948591052 -0.0005598081180596738
1.225026825779914e-5 -0.042022710200485695 -0.0021324931994135096
1.1488861523101738e-5 -0.04352611096280606 -0.002420784959563984
1.6890160176383332e-5 -0.04325180495490993 -0.004239283274191379
1.8667285683664133e-5 -0.043223832920405374 -0.003048693893975257
2.0445074225858615e-5 -0.040710653545289265 -0.002680980162057814
1.4354263549173264e-5 -0.04209754247607502 -0.001662073237374589
2.326526723419843e-5 -0.04163183434975827 -0.0036920272658712188
3.152976455280519e-5 -0.02517320272405197 0.0020158910572678863
8.241610967061688e-6 -0.024792994596570545 0.0022335333633380296
3.9891872692643554e-5 -0.024631489342381085 0.0028465147984955644
2.811138662125919e-5 -0.025604758255166227 0.0031769928981402558
1.2052608630569247e-5 -0.040832070516665674 -0.0012452007756504572
7.185116986051352e-6 -0.04307021222691009 -0.0011732224265416829
7.563396209231785e-6 -0.041413395002367376 -0.0012087106601061104
5.55429964211845e-6 -0.04208311315254223 -0.000104862513135626
9.289124017733602e-6 -0.02326749008771602 -0.0012456326461465317
9.601596527184496e-6 -0.02177398050675236 -0.001013470457151365
-5.392076352971632e-6 -0.02203771550175236 -0.0021719478283679454
2.4810411301104315e-6 -0.022408634650574383 -0.0009763708184204332
5.088280504561837e-6 -0.02396066490733868 -0.002390755469418388
8.43303170303465e-6 -0.025009867006374715 -0.0004139499381917287
0.00020474424259827153 -0.00015619349310540482 -0.00034081842818644393
7.725173275396677e-5 -7.717449258911331e-5 -0.00012751306332683853
8.902895811916662e-5 -4.7950509657004696e-5 -9.805727362443646e-5
4.745575873112191e-6 -0.02481386886334783 -0.0005585686823024787
-1.0475924851908173e-6 -0.02420170939107289 -0.0015732850738462128
1.7416296682908672e-5 -0.023025498086357014 -0.0011205484342076187
8.3596859086171e-6 -0.02308838824571992 -2.168125819304564e-5
0.00013829433026626338 -0.00033364402791918174 -0.0005070370138642369
0.00012886757672195525 -0.00019476336246763466 -0.0003041291058379109
0.00011644749505300332 -0.0004192016141184142 -0.0005284656413782424
0.000179552191575651 -0.00043039251027238786 -0.0005914804372799096
1.2125779098173254e-5 -0.0226617746271401 0.0009396078259351978
5.476711532813312e-6 -0.023751113162225113 -1.0007566357352932e-5
7.255891917393959e-6 -0.021799665163675964 -6.2048565970615375e-6
1.1885646865991917e-5 -0.024137630769958247 0.0012750543108416312
7.74548314874864e-6 -0.02342923523945762 -3.3207048802351966e-5
-1.750431012525594e-5 -0.0040176754961379554 -0.0008076463293164456
1.1208280349784804e-5 -0.00412993075796697 -0.0003350017737338757
7.490034026318279e-6 -0.0034515481715381704 -0.0009168377210084994
2.7679325176058995e-6 -0.003732433190434742 -0.00028395590625066204
5.800417918357288e-6 -0.003280668317694539 -0.0002998870777717633
7.2715629594548795e-6 -0.004062807999055482 0.00032956607887186753
-2.9642757837786735e-5 -0.003485525824657913 -0.0008390648057267614
-3.068909416304409e-5 -0.003818613909403318 -0.0006348377617592526
-6.339833453742151e-6 -0.0033451982322235804 -0.0003113188417359614
-1.2302507874797025e-6 -0.0045031364029060415 -0.0005503105546835046
1.4660903530375044e-5 -0.0042133906025325595 0.0003194891370450184
-6.981205482404346e-6 -0.004177714916013106 -0.00025823388032937935
3.4512230232663862e-6 -0.0027779133234320306 -0.0008191514522043861
2.2972915524529174e-5 -0.0027828779129426807 -0.000571985616127704
-8.164296324249326e-7 -0.0030132875864500126 -0.00027489742882373614
3.7488594543495047e-6 -0.0031296586876709094 0.0002973620073055527
5.92656914288563e-6 -0.002799393805977853 2.636041234006597e-6
6.0213379667891375e-6 -0.002645782667863321 -0.00029489021115467476
9.459476055029834e-6 -0.03661021235572117 -0.0006538415146757436
3.624309238834679e-6 -0.036350702436037934 0.0006301328393409876
6.10620073943039e-6 -0.0349216915488252 7.749638485211994e-7
1.0414592628239287e-5 -0.034753529460287265 -0.001138431527360418
6.483625777061732e-6 -0.03663350501802706 0.00043236777599346606
6.137815631052153e-6 -0.035542125448964 -0.0003800159294192898
1.0234075624887858e-5 -0.03666024694716366 -0.0018780115241044133
6.648523076293117e-5 -0.0033658626817537392 -0.0009010315720832593
8.798982334320583e-5 -0.003360379705052014 -0.001572349516351052
5.253940752726563e-5 -0.0029384674961659804 -0.0009188014514060462
0.00010350820773997296 -0.0029019641198274725 -0.0013188290505092173
9.797226307122552e-5 -0.002730615726755059 -0.0009220224960296761
6.768797300178799e-5 -0.003989142982485025 -0.0011589730907795499
0.00012994820452317212 -0.0035859546081510978 -0.0016588113000441504
8.026348363068507e-5 -0.003823472432812414 -0.0009293433577168824
-3.0350988147576507e-6 -0.023587891214064634 0.0028884771874688087
-2.134631894882396e-7 -0.025025414629943312 0.003373645902776579
-2.7477300443706468e-5 -0.024485450817241045 0.0042340543087126
-1.6325853055567747e-6 -0.022924210395902037 0.004163546165622826
-1.4666732569863337e-5 -0.023139318781927792 0.0025840561148550065
-2.870564831576452e-5 -0.02403780620669892 0.0031960259989097487
-6.738598489137554e-6 -0.024688240554545587 0.002207398450180239
-6.03239577762229e-6 -0.022206146973501404 0.0029439925834772044
4.406053976354906e-6 -0.0232590720207729 0.0013851221890004675
1.5825774527143266e-5 -0.023975336111803785 0.003328864074936902
1.6122678143234295e-5 -0.031578750979434356 0.0025304326576416603
7.898330000207437e-6 -0.03081660344137692 0.002548316537778062
4.411173434841652e-6 -0.033132393999941175 0.0031689592061036704
4.720633689157617e-6 -0.03187606807733712 0.004589606714012719
2.4309701985453867e-5 -0.03329436046568305 0.002983707001912415
2.7550266043065235e-5 -0.03191680094017502 0.0025532396621481684
1.5725072403117443e-5 -0.03292222813321199 0.0032173330966505827
1.669250329368862e-5 -0.033117435747764726 0.0014294596470106687
1.9888827564928718e-5 -0.0437066645487672 -0.0024982600931495813
9.653845612595998e-6 -0.043404554058526806 -0.000717223317141523
1.7356531850662464e-5 -0.04460449923965343 -0.002381464260399312
-0.00022806951487880036 -0.005592529662887476 -0.0026849781605840675
1.3912074923586014e-5 -0.03185523576634993 0.0010622238646421278
8.676094208884473e-6 -0.032105872778397736 0.0010296140384072393
2.0635540337288017e-5 -0.030612090103989808 0.0035248229298103033
1.4663326204542877e-5 -0.03022792165142694 0.0018480896440847849
2.6096262309613814e-5 -0.03255382002855855 0.0045035093128555454
3.451022487754697e-5 -0.031209279041745478 0.003534144636556771
2.893908549334733e-5 -0.030317768102464247 0.002531673317692767
1.8246396157261537e-5 -0.026669289283658696 0.003245627545482518
3.0476905899275856e-5 -0.027211242159789536 0.0029144414975612225
1.0995600887113252e-5 -0.027737120487054068 0.00228682642061335
1.5285274891517464e-5 -0.02854253020837868 0.003464219365246149
3.795043320001016e-5 -0.026240268099259844 0.004339478552513406
3.188705325764756e-5 -0.02853021674479674 0.004488091384038502
1.8323073337862784e-5 -0.025404104535608457 0.004432221364435689
1.5787329058876982e-5 -0.026781235866875475 0.004549823481276955
1.6285033795001724e-5 -0.025880053357921734 0.0018907578053135932
-4.038194020195754e-5 -0.008418559270518293 0.0007999880634326121
-3.4543907176830365e-5 -0.0074149409294946966 0.0005463448718331524
-7.738865663722909e-5 -0.008039500893482763 0.00151716378584848
-8.441938268190296e-5 -0.007619753906149404 0.0013115894017427408
-5.240052941578553e-7 -0.026358506117798358 0.0022525343772815936
6.58521170578591e-6 -0.02615332878606959 0.0033247714818670964
7.29117519477797e-6 -0.012256835220635991 -0.0006104563685557002
2.400389950847301e-5 -0.01285364114834404 -0.0009080421461857311
1.3563497840298971e-5 -0.012248102925142633 -0.0016054139606925912
3.2116454925188166e-5 -0.012046927977451391 -0.001376365350302151
6.182564043869497e-5 -2.3780747569691012e-5 -8.282685867530872e-5
4.266509354594522e-5 -4.478800639452565e-5 -0.00010340613765905988
1.4507180002159354e-5 -0.0005259652368870315 6.163172217235917e-5
-1.047040967923546e-5 -0.0005717598732751616 -0.0001471525996972724
9.032359880917607e-6 -0.0005158648687594942 5.402548776147642e-5
5.51670980943743e-6 -0.0008399148651105932 -2.230176566060106e-6
5.0513674846422615e-5 -0.0005024989770781122 0.00026953249749484383
3.20353144422364e-5 -0.0003298187735708383 0.00011720877335029524
1.8433080159616454e-5 -0.0005033427096815266 7.029809016947385e-5
-2.9438119630940853e-5 -0.0006680615826873541 -0.00019013024436658664
4.184144518069045e-6 -0.0007601663455270182 -7.641293343505377e-7
1.4659649146121623e-5 -0.021681962008149484 -0.0009877692418600583
8.402220061922992e-5 -0.032822963924171736 -0.005881495561603173
9.24797356295717e-5 -0.03194248216175534 -0.0050218098058437575
0.00010700483403184709 -0.03186425586426051 -0.00592875974940897
8.72091837902018e-5 -0.031499935186599666 -0.005842649721007714
1.808732250397797e-6 -0.0010017520295427505 -5.909065634513238e-6
1.3899888622122267e-5 -0.0005305079894813683 -7.195474526081547e-5
5.6913240739717375e-5 -0.0007241524853090995 -0.0005672140610096251
3.348517902052922e-5 -0.0005196764288623734 -0.0002687985151652084
4.140358512484988e-5 -0.0008356811916072479 -0.0002615328587503188
2.0817167791616282e-5 -0.0012741773358311908 -0.00028919493858403997
5.5302417016432216e-5 -0.0010458732962580802 -0.000518795263323162
1.825006405139651e-5 -0.00362819938491007 0.00017497889752863757
7.297580335586888e-6 -0.004822652187905049 -6.751726910547015e-5
2.6048200443138204e-5 -0.004342495158016931 0.0003180145817407054
4.193058451554841e-6 -0.005036187041785223 0.0003885387841025223
2.8128965708355184e-5 -0.00438366795543189 0.0012970842590548958
3.032804470053504e-5 -0.0047617917670442975 0.0006932985115528717
1.9220356362642045e-5 -0.0036154595937424 0.0006304897601831982
4.331342430346351e-6 -0.004030956375808337 0.0009944344716458005
4.7463547530828656e-5 -0.004042025461000514 0.0010737712422295997
7.434689441041606e-6 -0.040817343306667 -0.0034675450184506362
8.089882182936824e-6 -0.04227296280512533 -0.0024210497865227074
1.340206765646021e-5 -0.041799974264937985 -0.003699130483809087
1.940723567793424e-5 -0.040639695775491286 -0.0037390962284521477
2.6592324979081062e-5 -0.03939648318751372 -0.0047191075609625795
7.033537818048932e-5 -1.1848485387952255e-5 -7.388148007512876e-5
3.765066370619997e-6 -0.036470496556254305 -0.0015229771134752498
-9.015648124804858e-5 -6.4709904233565145e-6 9.41682972930906e-5
-8.614170535179344e-5 -7.779438009585941e-7 0.00010216791549654019
-0.0001348412049172707 -4.980641310155093e-5 0.0001928012646523668
5.4053312933118535e-6 -0.037658577104738 -0.0006661668091169567
4.3733600648424195e-6 -0.0381448113614063 0.001199125417169853
7.540459350170452e-6 -0.037272795468441956 0.001403321053179296
6.6280417546696595e-6 -0.03887948434652145 0.001234813516439679
5.612546485525085e-6 -0.03932346571288381 5.356589094894724e-6
6.633947880809916e-6 -0.036988618873651326 -2.707650660409993e-5
6.46054804342017e-5 -0.002463892378209251 -0.0011260245777933943
6.852447067589047e-5 -0.0024561231673596437 -0.0007918186283313089
4.02879920940672e-5 -0.0021923167712132184 -0.0006879067513329095
0.0001067150790084938 -0.0021144792133038666 -0.0010688262349052497
0.00014468867290296113 -0.0024769361364339595 -0.00157354876093176
9.321060924590235e-5 -0.0021936161442391174 -0.0014177903903454068
5.181219450448303e-6 -0.03843599682167181 0.0024910659493706687
-1.7598595014720597e-6 -0.03962559123274976 0.00232833057597618
-2.4053570302881514e-5 -0.0026870705879981464 -0.0006652261085477066
-9.840714194119926e-6 -0.002212198950916773 -0.00047001915557167215
-1.0419049954585952e-5 -0.0022712052882040965 -0.00025532043768746024
4.852751143325506e-6 -0.0028565940365476087 2.5932877700941855e-5
6.539276905970444e-5 5.38676588966718e-7 -7.662665321920116e-5
-2.6255153387579817e-5 -0.002935756464263949 -0.0011533088158492961
-6.783130264614024e-6 -0.022879819181037868 -0.003076824539534669
1.0806726673680648e-5 -0.007878396668341937 0.000374832661144952
8.025991838579092e-6 -0.008357902807173419 -6.069673160055409e-5
-5.837002639163633e-6 -0.008563325604485311 0.0012989828892933698
2.5786237302588448e-5 -0.007468114623911591 0.0008733799333645499
7.3256296186689674e-6 -0.006997194545995702 4.212167994673631e-5
6.494453111484208e-6 -0.00694096953123608 4.473196173495709e-5
1.5752337427315246e-5 -0.008041398971284572 0.001705307710616002
1.5733283749247995e-5 -0.006350657510611234 0.0011449878478164363
1.7846103083923242e-5 -0.006654968142133053 0.000582889586821626
8.250201350489515e-6 -0.0073194157811835615 -0.0006174416310186334
4.896137924780186e-6 -0.008249625627154143 -0.0006835468436542976
-3.2562129254941857e-6 -0.007350312468428848 -0.0006467808912915493
4.313549100042713e-5 -0.007006778159426399 0.00165903186324392
4.841172814557686e-5 -0.007342795849842385 0.00106356920104744
1.0714500533938059e-5 -0.008850856788986165 0.000804051267844004
2.6088622517000782e-5 -0.008401956486021907 0.0011362256752594053
9.232828492530102e-6 -0.01734785718070587 -0.0027442723011424273
3.5353974407613053e-5 -0.016598699876403025 -0.0034536753461872215
3.413019505443085e-5 -0.01794643056521161 -0.0035587387058049723
-2.2807238987766984e-6 -0.016892640337832398 -0.00377187399395757
3.6179456350630984e-5 -0.017455377633990427 -0.002319879471493266
2.3481194142670474e-5 -0.018268159737104783 -0.002417019420016851
-7.135503792744876e-7 -0.01863835350450203 -0.0024116752214626046
1.990317997903907e-5 -0.006971129024819978 -0.0006702726213573537
1.058794538007452e-5 -0.007835960253045293 -0.00010689456977704808
7.146247353870914e-6 -0.020181506895197886 5.199641958943622e-6
-2.9780183690431196e-5 -0.020550077017265907 0.002098627267434553
8.768360679250204e-6 -0.008852668388639864 -6.495947114701627e-5
-1.4322392334361141e-6 -0.009178652176675121 0.00048553781739909505
2.4140402281812265e-5 -0.009021661359165632 -0.0006358819038733758
4.139289354781752e-5 -0.00778502796352563 -0.001290665380764697
1.4333482240857215e-5 -0.008862785487903044 -0.00010377583236894593
2.231134843678846e-5 -0.0027824667942398327 -0.00032334637202492174
-5.0607640853429035e-6 -0.002967077408211312 0.00024953362195281415
1.143682677874432e-5 -0.0020580288256367833 -0.00023655106389074252
-9.444859409498218e-6 -0.0022989454097963598 0.00017790187209630276
-1.1752831459546494e-5 -0.0025869726064721163 0.0005410941766199914
-1.7209970406059627e-6 -0.012657887538042086 0.0009902281282270073
5.054175855266512e-6 -0.012404790523434128 0.0016421227120908242
-1.2825047237520636e-5 -0.013637198247606553 0.002079895495928531
2.8738667904726844e-5 -0.014442971250817522 -0.0014854732984328073
4.830630124028631e-5 -0.014879556367600697 -0.002293863455863396
1.880001479743485e-5 -0.014987352738742002 -0.0020310224713517453
5.188479344080422e-5 -0.016355621241891057 -0.0028681548447449124
3.625244761546149e-5 -0.015329527699893711 -0.0033411138098971035
-6.107519030404282e-6 -0.04100529828065704 0.0039161132356123445
-4.146792882013604e-6 -0.040813108682973415 0.002106700279658907
-1.1380636593533486e-6 -0.039386501669885075 0.0009686224836843841
1.2036157590736363e-6 -0.039537045611726856 0.0007987257435308041
-4.731805095625132e-6 -0.03899010471838619 0.0019345968963896056
-3.864425045979815e-6 -0.04061491506821481 0.0012922364192872928
2.4658474801488104e-7 -0.041598074910048195 0.0011919098547397615
-1.2493025069674122e-5 -0.040189175738801375 0.003007840043160965
-1.1109745284968259e-6 -0.04258154627525355 0.0017900180618187558
-7.397001707981764e-6 -0.04247330013113931 0.00261088272448674
-9.063508675892206e-6 -0.03916532664102568 0.0032659942484634073
4.565986461534453e-6 -0.028667653505219482 0.0013757697916149175
4.701211820642466e-6 -0.029579880028001042 0.000526625051879214
6.793565804065255e-6 -0.030465560208000477 0.00013821461416329683
8.640874202975796e-8 -0.029115382937355754 0.0030450429479837965
-3.054519300491732e-7 -0.027760266907437922 0.002287162403704335
1.1380781192103041e-5 -0.027959283774825663 0.0011490814812840733
7.739764220074277e-6 -0.028108556447331522 -0.00012771529943063855
1.323341475874107e-5 -0.029071666979414088 0.002033051179296987
2.547834517992736e-5 -0.0014485657226589715 0.0009534326274689175
1.7868940470634613e-5 -0.0012121874509377802 0.0010423869807424534
2.582924260696846e-5 -0.0007479249633897909 0.0006053553805840881
6.662986309267429e-5 -0.000918517865767099 0.000661748871541877
8.361740634537043e-5 -0.0014443578549231844 0.0010917930528898888
8.828257188740392e-5 -0.00102964965731697 0.000611889297044985
0.00010452750378139148 -0.0014051151081384795 0.0008602245684722527
4.6666802468510766e-5 -0.0006949616807557346 0.0003846844052817965
5.911361671228894e-5 -0.0005484522923686105 0.0004955514706379858
0.00010525180975267795 -0.00011857652707470907 -0.00023256511632177074
0.00022074785942168484 -0.00020366374961001515 -0.00044965278511336927
0.00016655200496216237 -9.131579490848455e-5 -0.00024793693025783667
0.0001266466224378474 -3.363609040415564e-5 -0.00017328067607606101
9.303396649397173e-5 -0.0007492096527381567 0.0005268764172376229
-7.838322975212576e-6 -0.003153646964555762 0.0005623531171245774
-7.171280180077668e-6 -0.002912636018816736 0.0009953267649294019
-3.5550773795894354e-5 -0.0029865888003877757 0.0008934781371546798
-4.378090432869397e-6 -0.03393482678351787 0.0018508097845320692
-5.671045104803577e-6 -0.033340299729166765 0.003120009812649418
-1.613895329354507e-5 -0.03342037274547842 0.003349112965205055
-1.7299944464974244e-5 -0.03288203480139869 0.002384251007577229
3.5203120330775153e-6 -0.03497073233837719 0.0010015761681227817
-3.2105339599746953e-6 -0.034775855305785565 0.0029064533979121787
-2.717490267917392e-6 -0.03607201940773241 0.0022546225430410357
-1.5178108086532642e-5 -0.03491893378171213 0.0033023903957659496
5.9005279388639965e-6 -0.04506645134306839 -0.0008264768232432093
5.070421141302129e-6 -0.04458605824367252 -0.00034947534270322124
6.94356926980016e-6 -0.0446817233555655 -0.000849166448655862
7.093142414059173e-6 -0.04379518026086418 -0.002450782901024958
3.7907419272256616e-6 -0.043065499243879916 -0.002426641809199381
-3.737420976006842e-6 -0.0002052489898836856 5.3024263108814425e-5
-1.5464724954540529e-6 -0.00028413247757928144 0.00017181020754828612
2.401724655223329e-5 -0.00035414980066211517 0.0002126786735655697
1.960092672546616e-5 -0.0005399474697990883 0.0003624661279126447
-1.1990809632588622e-5 -0.0006885339269327345 0.00020324209121054114
-2.2835976986370854e-5 -0.0006401172473716552 0.00042308559748468696
2.0083759057799897e-6 -0.0007397961990754148 0.0002533502022314033
-7.4835414633160125e-6 -0.0004047862866099859 8.1162086163844e-5
-3.2893108561616206e-8 -0.035929006312175445 0.0009407867438928011
5.34024852125514e-6 -0.03624987403287942 0.0021686092486338086
3.841347055469074e-6 -0.03432815006708026 0.002319166167441459
3.2049574637795593e-6 -0.010454304080858462 -0.0005613842207027016
7.145188172943591e-6 -0.03306700610377806 -0.0005756057030542989
5.66713274876259e-6 -0.03445005335461039 0.0005780188202668787
-4.9233515443017845e-5 -0.005970732847763434 -0.0017114764657739491
-4.414714659090633e-5 -0.005177976399407227 -0.0010508434816604106
-1.903879322995601e-5 -0.005767532132556216 -0.001015105939445935
-4.0393657626000155e-5 -0.00518104677080478 -0.0015671001680194459
-2.9730951740228218e-5 -0.007156172726750894 -0.0019751041882862396
-1.4409811885628506e-5 -0.0067022185230971604 -0.0012662285433907249
-6.643844134586022e-5 -0.006821156812602635 -0.0019635886005054588
-5.528780986966656e-5 -0.0067695553403953725 -0.0025573723023261897
-5.061078989534103e-5 -0.006421108709440698 -0.0012529971745209997
-1.5814809933453284e-5 -0.006370897605495063 -0.0005706256315559981
-9.097082936890232e-5 -0.005505163990706424 -0.0017988373564225535
3.815263748801485e-6 -0.03833126602204452 -0.003131260633434199
1.936635660548738e-6 -0.036457860337818615 -0.004092200145454148
4.011625499195566e-6 -0.03585571154555961 -0.002993626574781634
9.743063647745304e-6 -0.03743760684260345 -0.0031966183077135886
-4.126774802796689e-6 -0.03678367505323458 -0.0034332892008253936
1.630443198076483e-5 -0.03665998490603623 -0.0031376685976502554
8.327703112506504e-6 -0.038172707495931414 -0.004460367061026432
1.7563693586406534e-5 -0.039551865154808775 -0.0019412409543542093
2.4667248148708948e-5 -0.038424182603111465 -0.0029361334832940537
2.5890000766091215e-5 -0.03965124293819008 -0.0035249989265075886
2.2764413501892413e-5 -0.03832538930539977 -0.0038039502166332837
-4.86129428812951e-5 -0.007778638046260308 -0.002617913606237981
1.0083467055043637e-5 -0.007711852584388531 -0.0026913740667726684
-2.96395111141693e-5 -0.007873196683186014 -0.0019706588071776053
3.743667470408268e-5 -0.02012364176019012 -0.0028297660520628654
5.9197681079127655e-5 -0.018837534252891933 -0.0028348632329088007
4.064480417816237e-5 -0.019402486689130884 -0.0018205784605847908
7.291539178571542e-5 -0.01973095853565975 -0.0036411871189819716
-1.1666253018549888e-5 -0.005229656367120716 -0.0004636906847610297
5.300086283613193e-6 -0.005578545720611951 -2.7925890998560757e-5
8.091091649528225e-5 -0.020383440721778376 -0.003038132136456981
3.983984359310367e-5 -0.02052695891078897 -0.0019032822910961301
5.818840679208398e-5 -0.01863830605783793 -0.0019465400309460184
4.088287707134332e-5 -0.0180971892868692 -0.0017688275787040907
8.570538014068176e-5 -0.019258979935999003 -0.002989527086769698
8.801304558980629e-5 -0.01852968906384597 -0.003850909252775544
1.3069427589796334e-5 -0.04164666217611069 -0.0009096545843043238
0.0001077226677664244 -0.019310835515786048 -0.003984505820237399
1.8219044201568247e-5 -0.021549850563375224 0.0031590662999322395
-1.7292876689570382e-5 -0.020829597063976708 0.004366682574303138
-2.4923320596454564e-5 -0.023398848959401017 0.00389242373668838
-2.0913478163506038e-5 -0.02155107035147007 0.002345159593902351
-2.6683012220803483e-5 -0.021043696840699278 0.0033708025389000695
-2.9558878262202673e-5 -0.02212759709836868 0.003835506015595171
-1.1117331312748784e-6 -0.007599726905760301 -0.0013109721538461057
1.5120070862021484e-5 -0.008021251515081308 -0.0018869216178441332
5.138652503007658e-6 -0.006950005694727001 -0.0019983990851668992
-3.6751799004348607e-6 -0.006007472915902296 -0.0016608553094731495
2.5619083963496075e-5 -0.006033060885746377 0.0004413939311119263
4.230889787355915e-6 -0.0061743075953827 -3.315417174483039e-5
3.2024327059310356e-5 1.4904715507492935e-5 -3.255137617806491e-5
-2.0174725546673076e-5 -0.007073819432224598 -0.0029179164356016012
6.594009774047929e-6 -0.0332313281887324 9.483449612969021e-5
6.099162091545618e-6 -0.03442595838456436 -9.243930581702748e-5
6.146551552130771e-6 -0.03431395152375445 -0.0012351190278742858
-2.745073239881113e-5 -0.006594405678051702 0.0014076880514031513
9.180986392828845e-6 -0.03513172104493646 0.00150645352595217
8.114728377719552e-6 -0.0352291995788044 -0.002056542529013565
-3.2609440716749886e-6 -0.0018502095183605116 -7.156377501853475e-5
-9.67659758124283e-6 -0.0017714980425811407 -0.00033948887984511326
2.4815999163098733e-5 -0.0017039462094889692 0.0002696674108663675
1.4993957119721891e-5 -0.03150945869133438 -0.0023642310737600385
2.7628996023841723e-5 -0.029293358665469615 -0.0023496463186014425
2.7622078996473277e-5 -0.028872774020002323 -0.0031211192545548996
2.1391675396427745e-5 -0.030427996970075737 -0.002321612298543109
2.007576047395884e-5 -0.02852688359440583 -0.003985531484436894
1.323502543135086e-5 -0.027227960771850693 -0.0020781167453002665
2.0960781750867988e-5 -0.027761957555273335 -0.0016906698603178791
-6.517390148261678e-5 -0.0011718392333706913 -0.0009887696538908464
-6.185127879182723e-5 -0.000749540264535564 -0.0005679303037373326
4.317582546412963e-5 -0.003569125987173589 -0.0010329371001375125
4.517627781751604e-5 -0.004151007218232643 -0.0014410596956989789
-5.724978621903555e-5 -0.00047925572254572 -0.0004174133102442322
-4.041079150838618e-5 -0.000400662327771772 -0.00021910742678125366
-7.626746853618192e-5 -0.0006553785314284587 -0.00042562408931711603
-1.4633145386396031e-5 -0.0005056033932758442 -0.0004228173020045483
-0.00010972730884919394 -0.0006095555047074619 -0.0006002700650549963
-8.551485925972551e-5 -0.000963219163470315 -0.0006036123219172545
-7.899062306092451e-5 -0.0006788008278471443 -0.0007104662334383052
2.9105128545951325e-5 -0.005122145166752921 -0.0014207099985785406
-5.169179100561311e-6 -0.005764415976603365 -0.0022893337175675143
-1.1608466939799072e-5 -0.005185310844663237 -0.0013940617838262266
-3.887230543212727e-5 -0.0031024539859530833 0.0013580075226729002
-7.142781006975808e-5 -0.0034193258664761616 0.0013265437750989584
-8.115242904583392e-5 -0.002810064079294262 0.0012091401848860278
-4.2245498186988305e-5 -0.0031147521204646163 0.0006117390139509906
5.593064506700119e-6 -0.004907804445161553 -0.00036075131056618527
-2.1459553809798506e-5 -0.004777711990541416 -0.0007885356725133489
5.702083049598428e-6 -0.026647895140579043 0.001112490156442493
7.374431497996402e-6 -0.026974808983380002 -9.112155703486895e-5
7.472221154402416e-6 -0.026921338919559893 -1.7798209384948766e-5
1.0625323558731043e-6 -0.028018790224457538 0.0011169763364787817
-1.6370704170452523e-7 -0.026546584861831382 0.001125472742576442
-1.4378358189939738e-6 -0.02535959065818595 0.0010981632316221818
5.02888587840834e-6 -0.02426900670467243 0.0007951324150906444
8.446442925504786e-6 -0.025949044969840143 0.0005161624147541504
3.4014997182336456e-5 -0.027234329644784824 -0.0033778888819416073
4.212257991561549e-5 -0.028176377858846254 -0.0028016205863124082
4.1532653174912305e-5 -0.029077861625151427 -0.004505570595961942
5.373678231488487e-5 -0.02830757681042829 -0.004152911049228775
1.5119266350613764e-5 -0.0002829593921421826 -0.00020319813348079142
-6.367802475646443e-6 -0.023015447918496867 0.001311459500514791
8.271858375730532e-6 -0.013338011539518895 -0.001700145334527798
3.3623491153649005e-6 -0.013373995403893368 -0.000581466247082175
7.910700064181798e-6 -0.012300002253159898 0.0005054827120002306
7.072002385508436e-6 -0.012418383971565063 -0.00011134377065205309
1.274522731062677e-5 -0.013158558724850005 0.0008702953601340621
4.272213107501702e-6 -0.005601238509273699 0.00027842223679621134
2.3725856279000102e-5 -0.0055743533350785 -0.000720775764052965
-9.46129544857831e-5 -0.007564107432044863 -0.0025656806722547634
-0.00014293865769498865 -0.007685436650261955 -0.0034354253730872184
-0.00012676328831482121 -0.007873380978991748 -0.00255973358490231
-0.00014625296250425686 -0.006903487982717122 -0.0026553105637039088
-0.00014571031672432178 -0.006869552468744161 -0.0032683644856844767
6.354548049381035e-6 -0.005234168627524835 0.0011202057554450223
-8.842494054366734e-6 -0.00514069298688241 0.0007864338563162854
-2.521711154329875e-5 -0.005845669381514146 0.0006819515425252647
6.586719455347395e-6 -0.00605496755512725 1.284553581985375e-6
9.693143091444556e-7 -0.033519745941776306 -0.0019957943679280296
4.315573456056816e-6 -0.03128340328404446 -0.0024956756293649123
-6.922261129687578e-6 -0.03266321162706679 -0.003289579858395352
-7.695776907970237e-6 -0.03122208346531102 -0.002765802698572301
4.708721087943906e-6 -0.03227849180384919 -0.0011778836880630113
-8.67234280360717e-7 -0.03132082673200039 -0.0012442818555384084
-0.00015005211934024433 -0.005806152989313618 -0.0023145854723115524
-0.00011975083127596423 -0.005679880082428035 -0.002432887127821576
-0.00015251596449806414 -0.006094295533029373 -0.003085076271722014
1.2127836515387398e-5 -0.03313159241653985 -0.0021638115145959508
-2.9093079304404665e-6 -0.010283139225994414 0.0005318822772510295
9.24334751528049e-6 -0.010944133196088725 -0.0001949068814720685
-1.3662530629357617e-5 -0.01075376902387233 0.0007533272501965126
-3.2511998066068274e-6 -0.011343647290973966 0.0010781541320754348
3.146613493744613e-5 -0.011054510343619954 -0.0010425338313966516
1.0192996172410923e-5 -0.011272319118744703 -0.0001269524204182525
1.0079801477711973e-5 -0.01027051731172858 -0.0001779201484113398
1.889386413927755e-6 -0.012912401814767518 0.0003307164097902156
-2.7779450002040107e-6 -0.01255943930193129 0.0002872475660221434
3.7188615029231526e-5 -0.012402168692261767 -0.000981564961690516
1.130921792288173e-5 -0.01202000533932768 -8.575140270441837e-5
-2.2745493843619554e-6 -0.0003355568813818044 -4.669137648683915e-5
-6.459605777798933e-6 -0.00035656782936077815 -3.642329083986971e-5
7.335796456385306e-6 -0.00019737017465845823 7.604278515822129e-5
1.5282977031259063e-5 -0.00028072778885500436 6.798749312977165e-5
-1.1994676859035335e-5 -0.00019674498591917564 -7.92027498881998e-5
-0.00011020884170279556 -0.0064551412225738215 -0.0019209091540054277
-0.00019227920714984533 -0.006370925581406225 -0.002561830190123453
-3.0157073982421032e-5 -0.017098746912058767 0.002629867004826807
-2.9680720553770527e-5 -0.016555026038993833 0.0016973265145685268
-1.9161871460164307e-5 -0.015041343844839362 0.001636836346130137
-3.314443922811852e-5 -0.015397615663376791 0.003527839663527473
-4.727523962504185e-5 -0.01607084438702139 0.002673571846279318
-1.4471712370575478e-5 -0.004484055691850376 0.0012242385223287713
-0.00010800387964049601 -0.006616179529937174 -0.0025603797620105803
-9.919425402933865e-5 -0.007260865707474097 -0.0019210860428043337
-0.00018097339956075874 -0.007219124292427122 -0.0026933044887947175
3.3313721960239375e-6 -0.018566217184104037 -0.0005019351167836174
1.678370409087275e-5 -0.017792870463286987 0.001347989497722826
-3.4575164510886687e-6 -0.01689829332236058 0.001734377688387478
7.828470212179857e-6 -0.03303364781940425 -0.0031687112966643878
4.4848967382086884e-6 -0.03433985026151153 -0.0029234666958532956
1.9987083275364693e-5 -0.03462744734655465 -0.00291541324645397
1.2064408112493178e-5 -0.03496541120432555 -0.0038921763940075456
5.763033241604402e-6 -0.03337584723560809 0.0015349942526772338
1.2909557235947282e-5 -0.031730525510057395 -0.001185308860215227
-0.0002398215584476411 -0.006663550399982545 -0.003237532971846747
-0.0002330820746535753 -0.0075376508053270385 -0.0034671831687166066
-4.463884589137747e-5 -0.0005214636852666577 -0.0006142111322652208
1.1256370236242953e-5 -0.0005261496706762475 -0.0006086019442922909
1.481900954318054e-5 -0.04922185059604164 -0.0065315712734306045
8.173685287337635e-6 -0.0003524278558227161 -0.0003886598897677346
3.0804329520012044e-5 -0.0005251785317344043 -0.0004634268354320179
-3.2127302987902636e-5 -0.0003401150122939116 -0.00038140280165358697
3.1057561916781727e-6 -0.00019279968117563904 -0.00020607693034377085
-2.6182400612643012e-5 -0.00025272062276654033 -0.00022416245534492287
0.00012897042601849788 -0.0010412148185831491 0.0009181426332872551
0.00015056509802960713 -0.0007802292164796654 0.0006646234609709999
0.00010718701523510677 -0.0010187056360631615 0.0005574907316328914
6.44474902510238e-5 -0.0008032295515993253 0.00028716902550750625
0.00012989659905495856 -0.00048202170419941136 0.00045950093474570624
0.00011376064518961203 -0.0004903335702169166 0.0005064035331683116
5.309847219229072e-5 -0.00034548542332331746 -0.00030756979107274957
7.47205166927001e-5 -0.00019637141084910228 -0.00024379221041111304
1.9797452317660083e-5 -9.386076753438388e-5 -9.164691465949189e-5
3.4461949229042944e-5 -0.00022033526511660442 -0.00014314750648002853
6.099619337908951e-5 -0.0002844774555341913 -0.0003510960926526052
7.077728570213952e-5 -0.0005079690780406198 -0.0005991897314917493
0.00029202517392003084 -0.003178859146561355 0.002312468985459008
4.67177205147819e-5 -0.00040186256067778047 -0.0001779421552886798
3.187842513048248e-5 -0.005162852747453084 0.0028754448921941233
3.953672139945128e-5 -0.005775955209820944 0.002204653172979915
0.00010390658085849132 -0.005331182583272805 0.0028828706054197396
4.457828596302729e-5 -0.004879103866650809 0.0020659081139922466
3.916947173277776e-5 -0.00010671964953548244 -0.00016518274192036818
2.3657903600087072e-5 -0.0001207178179476189 -0.0001771043987813072
9.733874201501623e-5 -0.00040302975358287867 -0.0004261317146500676
-2.085197529398307e-6 -0.02991282877773832 -0.0023258539881569895
2.544868640320651e-5 -0.031680664974015005 -0.002368190315582883
2.74796467525131e-5 -0.031547798508155964 -0.003557717885051798
3.4820918685977e-5 -0.030392525472500712 -0.0025445637971908642
3.633942550006184e-5 -0.030138903736050708 -0.0036550379130615546
-1.1252545778841126e-6 -0.030497396376938015 0.0037580207268235162
1.5102275336214139e-5 -0.029231890252826354 0.004653399034935573
-4.454548567044197e-6 -0.029434340462690837 0.004513512134716618
-1.2386632699042194e-5 -0.027802308488801098 0.0033681392540429976
-2.0567136689712597e-5 -0.029564422846349293 0.004364086063610373
-7.600906123589402e-6 -0.028953635340400314 0.00231869210706778
-6.942318545602693e-6 -0.002110928841515619 0.0003872632218887852
8.525418690080502e-5 -0.0054628134494273594 0.0022246791166361307
0.00013136655589000436 -0.005140712898801623 0.0022659390559038152
0.00010833647291213701 -0.0047315425821199625 0.0026830503443575154
2.7885225611672663e-5 -0.0009661090505707372 -0.0006837069663261432
6.683576543896583e-7 -0.0012274649316286147 -0.0008037276780480729
4.814112929380838e-5 -0.0012502665642107273 -0.0011115579343601778
6.199332065216164e-5 -0.001270335497012086 -0.0008523268187854784
3.0480447753266372e-5 -0.022923486758241414 -0.0012939677409022458
5.652822180804309e-5 -0.022617090395861465 -0.0028747272451884994
6.388021456940702e-5 -0.023467692479779548 -0.00396553698218445
9.296377216336309e-5 -0.023122036134707986 -0.004166366824153743
7.484308499181541e-5 -0.022897809213121813 -0.0031152399257034073
3.6228269410753464e-5 -0.023847467614876217 -0.0013832187112408983
-1.774052234967238e-5 -0.0010941443224336247 -0.0009950413990117318
3.1142319663197945e-5 -0.0010137694626962924 -0.0011304790358134347
5.8170833085573034e-5 -0.0008226650635457471 -0.0008287972157494463
8.591485500684473e-5 -0.0010803507004753204 -0.0009433369492704472
7.626247641719728e-6 -0.026155362470888226 -0.0011651625567233722
3.514525045734089e-5 -0.000199354077428293 0.00014147691314995552
1.2250375142720388e-5 -9.480207676440484e-5 6.205690172814913e-5
1.9783074288729306e-5 -0.0066638053860809095 -0.0013063146429590018
2.2992827294254172e-5 -0.007663657045971651 -0.0012636093315893375
-9.2847049050453e-6 -0.015305983375775207 -0.0008461265640102356
7.5795137314871904e-6 -0.014001717150216062 1.578399564120024e-5
-1.44831123900405e-5 -0.014412133311205368 -0.0010882735440775838
4.958210420520959e-6 -0.01565297422360736 -2.3518488945178705e-5
-2.1158563342325865e-5 -0.015316142039122627 -0.0017859558785842293
1.6223556983949543e-5 -0.011142736905275525 -0.0011604065100151444
1.3073130321187683e-5 -0.01012304916567541 -0.0012673586360901644
2.6227281704310037e-5 -0.010170889640353628 -0.0010374974054651051
3.9060539303286045e-5 -0.010867151631132029 -0.0019553013763233544
-1.2682523690851224e-5 -0.011466460200389186 -0.002100085856451281
-1.3233698628728663e-5 -0.010422108682999026 -0.001875094566790779
-5.701847809874175e-6 -0.011852427258537744 -0.0012161792039095216
1.2345944324309373e-5 -0.011316283163745753 -0.002090500229514371
6.7909189405775e-5 -0.006355361469913627 0.0026965828160190647
0.00011017348935082596 -0.006157220082190694 0.003062929571343221
0.00013508695987961278 -0.005889855014888548 0.0024660560276710103
9.964509946631208e-5 -0.0067522036057910675 0.0023966206793717363
2.5183828558355568e-5 -0.004614361740882368 -0.0010215927894037906
5.46392272917562e-6 -0.004207189843942271 -0.0010126001873532336
4.992634161042603e-6 -0.004276627917397934 -0.0016885480874135991
1.1249671978561413e-5 -0.004847784621171794 -0.0017835287071355462
6.23852759918928e-6 -0.004779338053826256 -0.001073127784222877
4.054403427314335e-5 -0.001806039273995402 -0.00041285873832693046
0.00014769484197574702 -0.0023413156608092962 -0.0011965229374371498
9.37562007567827e-5 -0.002068207084539317 -0.0007229297417625682
5.636262702625253e-5 -0.0028924461700033537 -0.000463223625965713
2.588578006126643e-5 -0.002272470908368905 -0.0002712398799907736
5.022323363913967e-5 -0.005128602919663023 0.0013771649698967523
7.046297517465583e-5 -0.0047879609148283805 0.0008231400690372323
5.894136120334627e-5 -0.005540019072806691 0.0010807517096146568
0.00011066844184925498 -0.004854160184554249 0.001466014851452963
4.9264524078328445e-5 -0.0022842015159846817 -0.00033962674140343836
4.396258535920013e-6 -0.002117029936966372 -0.0007192842836961647
4.766323804544514e-5 -0.0060521839664793775 0.0017042162131446054
2.424720451155992e-5 -0.00558057950869903 0.0014643005553285045
6.792105050685606e-7 -0.0016386524960635516 -0.0008032383177855842
2.0211307322763175e-5 -0.0012408280353644477 -0.0005618285597293662
1.6123251330775783e-6 -0.04396387637471984 0.0011033758398627893
3.9153806959453106e-6 -0.042308365101439115 0.002522089356426142
1.0190348234529141e-5 -0.042880821446593165 -0.001235607694361205
-0.00011696036113445415 -0.0016452539814277233 -0.0015657215824656685
-6.502258720087369e-8 -0.029956086257439857 -0.0011259760179911826
-2.6990758278033697e-5 -0.02396860626512164 0.0023808669292017417
-3.1614028765829975e-5 -0.025129180292091935 0.002699260280833558
-5.9823082260585785e-6 -0.024395758311127082 0.0010910137112878633
-1.4665088175511207e-5 -0.023264996582603805 0.001343763179544122
-2.0336324202744843e-5 -0.024241905250264966 0.001358395553751194
-3.450652504737433e-5 -0.022600289574316527 0.002574046492253183
2.426111851275721e-5 -0.003596313684571518 -0.0014732649383148843
8.879670294098552e-6 -0.025450693176122644 3.7515718182296377e-6
8.097300121950303e-6 -0.02673241696121996 1.2090876613426539e-6
4.7642527948209675e-5 -0.004507711813218164 -0.001985603500146233
6.224118624342584e-5 -0.0037701782276877696 -0.0020644055097125058
4.848806061791886e-5 -0.003026976286456324 -0.0013595328109081524
7.427472415989927e-6 -0.0028938291688203922 -0.0014100788797013063
-2.1662774740314515e-5 -0.003917121153654663 -0.0013586944276736041
-2.4536413917781164e-5 -0.0035917975759896786 -0.0017173240226774078
1.4996866191611845e-5 -0.003634996485425934 -0.0021650108807365334
1.6693818801181194e-6 -0.04196057534952732 -0.003613001132904839
6.6545596178902165e-6 -0.0425538767604329 -0.0040482415011935035
1.0215254428429798e-5 -0.041534406471296643 -0.004876640597631039
1.1719447013125494e-6 -0.0413558056621244 -0.004892139707760752
1.0030950898591874e-5 -0.03989928145674431 -0.004824945441258339
-8.519490226744638e-6 -0.03945970357423429 -0.004505226392971081
-2.792059775119942e-6 -0.04137066753021431 -0.0031818380131261345
5.738677811928796e-7 -0.03975366519385231 -0.0029497887526603304
-6.0869156070233346e-6 -0.04197358841411258 -0.004844239237257721
3.853281140519102e-6 -0.04119167044688701 -0.0018641636067443478
1.176113171326067e-5 -0.04418110342063743 -0.0019015601869172098
1.4408817628570118e-5 -0.04553728909422906 -0.003867923559497337
1.8102328442262015e-5 -0.044777647074492194 -0.0036895232571995612
-2.2487058905810514e-5 -0.018739349156277882 -0.0018003195338112004
-2.25239963268517e-5 -0.017484337659959655 -0.0017567134773233332
-1.5019138004857458e-5 -0.017250333177075954 -0.0008897217500164795
-4.411110123776706e-6 -0.017489345038345892 -0.0006696957710958882
1.1998812622114467e-5 -0.04558029346677714 -0.0025754004192442585
1.5526744513333356e-5 -0.04486880912637588 -0.0025394016178925402
8.763348756075989e-6 -0.04524075034772779 -0.0011956542758150166
7.850283999476052e-6 -0.04607072329851782 -0.0013033893072208148
9.065416170571438e-6 -0.04535392695329076 -0.0021948162128856627
5.575384993970504e-6 -0.043619986725670995 -0.00013805636916936406
3.0660330909723954e-5 -0.016390519657410806 0.002270286370312622
3.1392790980877876e-5 -0.017471824681748467 0.0023424305112936207
2.6274602003612036e-5 -0.01643956649511193 0.003476707494888559
5.629681460949674e-5 -0.016710881190249684 0.003529669311229663
1.1334979414195433e-5 -0.018360680254110466 -0.0032037615811563065
-1.1511677142430871e-5 -0.029855206165535268 0.001941512439580205
-1.2571781895825743e-5 -0.03769646782646261 0.0034755099849313525
-5.114876341262385e-7 -0.038117284580619526 0.0036225263874469288
-8.860173043128917e-6 -0.0370046179125175 0.003999647591662343
-4.758175756813001e-7 -0.037791784296067714 0.002429391573592842
1.0501466006353856e-6 -0.03808634325753666 0.0012851563107695136
-1.617069582516432e-5 -0.037790931055749245 0.005045889326352681
-1.2949415930734718e-5 -0.03916185961992943 0.004676854050392442
-2.2799941085039317e-5 -0.03834804517273899 0.004484820206816819
-1.2624718876964919e-5 -0.03611165386739751 0.002313519468394495
-2.5589184960728576e-5 -0.0368049215828905 0.004304226696521393
-1.448182524702899e-5 -0.03815633256076691 0.002978681613714157
-2.156391260674531e-5 -0.03614902553567433 0.004655692105767657
2.8576185112105974e-5 -0.008805886314697302 -0.0016167627667817356
-1.0800247827297936e-6 -0.008658974055820461 -0.001746633290908516
1.0928876571978787e-5 -0.009208412983545433 -0.0009419959662580627
-7.531707899004785e-7 -0.0281520904459387 0.004626912206314807
1.1039578997120562e-5 -0.04409341593032799 -0.00365248957012051
1.186717975493705e-5 -0.04317616223546895 -0.004923627935119729
-5.681612540134022e-6 -0.021725147008658286 -0.0011128406138085566
4.758867444125596e-6 -0.02052860912901702 -0.00010830127341990669
6.685984479429464e-6 -0.02176237145000498 1.403026293947189e-5
6.0404965439538996e-6 -0.04072642433407183 -3.771361163542129e-5
-2.526687359342337e-5 -0.022679520203265788 -0.002521984771306717
-1.4519146542815996e-5 -0.02403695975612894 -0.0021374191195436968
-3.979211849448045e-5 -0.023206645947818617 -0.003905384617823492
4.373493239750083e-6 -0.027467788885416834 0.003423865705685274
-2.9053801079426363e-5 -0.02777857567907015 0.004380170878101184
-3.337681844006022e-5 -0.026781974271426007 0.003473115964425933
-1.83721601084569e-5 -0.026021040303027015 0.0035089155163930295
-1.9150761917079373e-5 -0.027775175437653538 0.0027514194505801823
-4.21241609066477e-5 -0.028451990771161874 0.004188907525852197
-8.832439317319606e-6 1.90457746624523e-5 1.01961426459133e-5
1.1721259382225674e-5 2.420828789343833e-5 -1.3002398901138072e-5
-9.34536164850997e-6 -0.03740833668767104 0.005940890899334879
-1.1496531725591896e-5 -0.038767206149319014 0.006026882293308546
-2.4714129822704366e-5 -0.03860049749841089 0.00608988164205955
-1.46673163250349e-6 -0.03726603842831068 0.0011462059333600951
2.9542550330942037e-6 -0.038493553921925105 -0.0018112147648034528
-3.0742079802773163e-6 -0.037953719325989524 -0.004300894060866555
1.404605517633159e-5 -0.03667270819352804 -0.004248627990942151
1.764994062978592e-5 -0.038336408304631586 -0.004621630565756431
-1.3519595515851317e-6 -0.019565903821200565 -0.001206778201710133
-8.512450497702143e-6 -0.018031441600820673 -0.0015880331489893512
-1.4115274177539767e-5 -0.019508417555180384 -0.0024414833576438524
-7.17593806282813e-5 -0.0009055796003388145 0.00044640180334704847
-9.933388887567541e-5 -0.0006570972792731499 0.0004712454986008978
-0.00012192059016788739 -0.0006148299837217083 0.0004224601608293816
-4.872796794988201e-5 -0.0006165916571335675 0.0001974898493349663
-4.1666914237685005e-5 -0.0006192260557243317 0.0002524294817463103
-0.0001432193689380874 -0.0013192944536360763 0.0008647822390377483
-8.039783283991331e-5 -0.0012677917884297116 0.0006797490719772141
-8.49588501933755e-5 -0.0013557157372339414 0.0005764130059641034
-7.339504976471783e-5 -0.0009005329291516953 0.0006190302340890829
-2.9088413870529526e-5 -0.0010796686030001062 0.00040241868858957125
-3.0514092495690136e-5 -0.001066949412319857 0.00026882967412813997
-9.53105921253151e-6 -0.025959434309933888 -0.002363140664641925
-1.667993706526196e-5 -0.023926119488168744 -0.0032819188925542427
2.185518978847576e-6 -0.026191033626855802 -0.001180486707815024
3.812673573841448e-6 -0.025960087258853452 -0.00041891418979043586
-1.9036600157713083e-5 -0.025062239699974277 -0.0018917033621469682
-1.9545668321055554e-5 -0.026459831192613577 -0.0023476838033599126
2.9664082739826217e-6 -0.025456742434443614 -0.0023979078343313604
2.0328040876126562e-5 -0.020959282222809933 0.0009897657365145179
-3.287543485745267e-5 -0.026444245064005584 -0.004098602328933776
-2.4508232585115677e-5 -0.025411344958144462 -0.004118367913951976
3.980033908794963e-5 -0.007754872420031327 -0.002260833861888428
5.0082432350197364e-5 -0.008201509857301049 -0.0020166260280217504
8.031788523367977e-5 -0.007445539147664767 -0.0026655300748927753
4.9565850334678936e-5 -0.007658825305705976 -0.0034167965944833126
7.334988414068534e-5 -0.008314301983575342 -0.0030162306599323696
4.2998943083868774e-5 -0.008703842298473916 -0.00264854745394015
-6.394899933141472e-6 -0.00953382381015227 -0.0018198055461510633
9.791590275072866e-6 -0.009805053286049826 -6.366977125701046e-5
-2.011884720365562e-5 -0.020096627748491278 -0.0017915040814433958
-1.1971859133987247e-5 -0.020338618145722544 -0.00097796570256134
-1.8937272331514099e-6 -0.019032338878551137 -0.0006749099639447435
2.7815162720049648e-5 -0.021859540415322953 0.002047691653369403
4.0897756724232434e-5 -0.02066198013721156 0.0037273049139275693
5.218014323488759e-5 -0.020982553074990442 0.0028905306853111326
5.701418952271189e-5 -0.021644563382512604 0.003791708200441996
-1.6755283725592484e-5 -0.026209004150472778 0.002248861792603796
-6.758334074884396e-5 -0.026364823477633897 0.00405750144050582
-4.8698399547007526e-5 -0.027726225560373498 0.00329367610181396
-3.47948040760264e-5 -0.0262781737205625 0.0027009483886173574
-4.607058093247891e-5 -0.025681532735237416 0.004070950483281756
-4.289332129498e-5 -0.027200822652808005 0.005408993599229557
-5.2904318375457956e-5 -0.026994875531778383 0.004471904554536367
-1.2415216241101298e-5 -0.027935112683698398 -0.004309423866818232
7.832075718659128e-6 -0.027667966605039663 -0.0044393839079053055
-2.859704008775882e-6 -0.026431457628243872 -0.005464070923702722
8.995670310682904e-6 -0.026152618769347834 -0.0039853565613265285
-1.8453290217114146e-5 -0.0019014101380864113 -0.0001562094051171594
2.6232186250398417e-6 -0.0014566036392022442 6.050760140274698e-6
-3.348869303057706e-5 -0.0015456639885429394 -0.0002793107233506721
-4.5676642700795796e-5 -0.0017307075123423811 -0.000563319290440686
-6.961862356736851e-5 -0.01190116232419165 -0.0021775310858650385
-0.00011293807756175737 -0.011695729196182985 -0.0024818076855291
-0.00010190008557043588 -0.012813458622311726 -0.0024086245539925153
-6.093220861488849e-5 -0.012637699038666444 -0.0015843140822676598
7.346953976123809e-5 -0.020447045642257893 0.004047396043284536
-2.856541573673982e-5 -0.01618839247757035 0.00471458786739631
-4.8242752605837395e-5 -0.016968413961505207 0.0036288844268588492
-2.7268641560773833e-6 -0.016312341059238743 0.0034029856259857323
7.345118733527183e-5 -0.021804166183268654 0.003165697512322766
7.483647876483179e-5 -0.020560802770523395 0.003100234620158499
-3.5869861855842036e-5 -0.013726583879798998 0.0033732244323150568
-5.487871351816493e-5 -0.01465980524056097 0.0033899577290963526
0.00012724630577474439 -0.0038463623283607573 -0.0010295457537507432
0.0001085709623267441 -0.003241588347128804 -0.0008393163990356129
5.1513302500770946e-5 -0.003932189101967678 -0.00040142714901465597
-8.945905445789456e-5 -0.005552101913703471 -0.002961610369636932
-0.00011809651645634093 -0.0048529599302756495 -0.002193771217932693
-0.0001552967937263187 -0.005372057613839462 -0.0029196621545187775
1.76350601299131e-6 -0.01469815868570032 0.004149262973014208
4.6760034128634786e-5 -0.003956553087332125 0.0004942448250879425
6.71334660354055e-5 -0.0033519832676625135 0.0006698629037298404
1.887011575242465e-5 -0.0031357510854620988 0.0001271609426082726
5.704932931329329e-5 -0.003678100327522639 0.0008534257292504797
-7.984310362254163e-6 -0.04299405797974129 0.0036749585023942116
-1.7844289400412286e-5 -0.04127609288825555 0.004536068138419971
8.71967444287959e-5 -0.004506428993152216 -0.0015661092731909542
6.037989606712118e-5 -0.005154137115057233 -0.0015580073559414533
6.034130115159627e-5 -0.005140384335739086 -0.0010499210297648695
-1.3778563818645232e-5 -0.004367330075464145 0.00029192940188111553
2.1225583259476403e-5 -0.005542183564182147 -0.0003271571330371605
-0.00015004668300689868 -0.004790904082364211 -0.0020401749451310638
-9.514688109187315e-5 -0.004738432080180521 -0.001441118834584
-0.00015228359875291776 -0.004169953877238288 -0.0019089200519411846
-7.567372482251379e-6 -0.0016166863927623617 0.0002974142409693827
-0.00016596911080829594 -0.012225726649779677 -0.0042705008110167
-0.00021863024739858107 -0.010917792465223447 -0.004088052626267369
3.72798743299569e-5 -0.0023889310271565834 0.0008720732738100081
2.3668172710655794e-6 -0.0025013611728476486 0.0008002104536202776
8.098728475477944e-5 -8.675356932853767e-5 -0.00014537693115425953
-6.567637659022209e-5 -0.007132529275940056 0.002377464383404839
-2.6900922834405436e-5 -0.006609689823820544 0.002189625007987075
-3.620962779553977e-6 -0.007715077493761939 0.002270558023908684
1.0957955276234426e-6 -0.0060441315575552315 0.0016733298486602572
1.891734721400569e-5 -0.006684480403456313 0.002224126704018654
-0.00018710732001192575 -0.005153335942612515 -0.0026396183923002837
-4.484956076548891e-5 -0.03576535863777387 0.006012749160997978
-0.00016378940734478414 -0.00466723072639484 -0.0027224983054469016
3.162138836785314e-5 -0.012773140187701504 0.002145445303486868
1.7645358590248343e-6 -0.013284268104770569 0.002788090912115298
2.769272463709968e-5 -0.0018888706987609698 -0.0008466934683528315
4.1386384578631446e-5 -0.0015956601474285015 -0.0005529900270545621
2.0325833547699794e-6 -0.001749468589570011 -9.945152890036808e-7
3.4283807128026114e-5 -0.0012999195634006708 -0.0002951325975885727
8.112978444992531e-6 -0.02395812790824764 -1.0343735856645816e-6
5.616881295288059e-6 -0.02280433842035471 -8.278821661178362e-7
6.788609931398563e-5 -0.0019156107956778837 -0.0009551175614317779
1.091105056719899e-5 -0.011457746524259665 0.0002929347301698484
2.7000869723538497e-5 -0.011267886451212163 0.0016543620917691237
-2.014361659916998e-5 -0.011743020829067684 0.0014797130855377814
1.8854966327024275e-5 -0.02330383481735717 -0.0022932613955130845
-3.798656133618907e-6 -0.005228013984917286 -0.0005653143441148047
6.0992926969653245e-6 -0.03700949368525065 0.0035038288651845734
1.1259930829744169e-5 -0.037940608490284786 0.00351259829939104
5.903242030876917e-6 -0.03816585117135131 0.004931022817270688
1.610738443324498e-5 -0.03735063428328878 0.004567706013413868
1.4972764006885285e-5 -0.03595202244218475 0.0032776179509554316
6.40760457732709e-7 -0.03589748337000167 0.0032633894767332083
-5.850935006315784e-7 -0.03670464681491346 0.004716192318420522
2.93844383265091e-6 -0.04019941819097549 0.003921181916354256
1.1657039550374218e-5 -0.038179278911089326 0.002529374099035471
1.0494666369451524e-5 -0.03952216161012827 0.002519801387479137
6.65964363762568e-6 -0.03131051473170538 3.445912855904107e-5
8.627595409396468e-6 -0.029804012922848334 0.000256995417310337
-9.129475927204737e-6 -0.016377530260748372 -0.0008619846851299843
-1.4651955784132892e-5 -0.016525811022978273 -0.001816823194427073
-2.1241013628432935e-5 -0.0009531921466584184 0.0008615636758928686
1.6821400165786748e-5 -0.0007785299000761244 0.0008742182172518484
-1.4071232866417777e-5 -0.0005168973555334328 0.0005928706407515633
-3.2315358945398596e-5 -0.0010720268977850115 0.001177440930526509
-5.5082402577089285e-5 -0.0007726300401685229 0.0008601263591727492
-8.087170193918651e-5 -0.0009555241884331664 0.0008992385534200673
9.993246115920871e-5 -0.00631006266813 0.0012158629539927612
8.413952730629061e-5 -0.00559862309012429 0.0011566252779708912
0.00013079726941562692 -0.005702153558450515 0.0017840841856254879
0.00010247776962550765 -0.006359942328651334 0.001574913672933935
4.219117817691925e-5 -0.0065873213263184915 0.000641641612730218
5.451037824502526e-5 -0.0064051067556690905 0.001122572244718545
7.821578969799025e-5 -0.0070009613546709315 0.0013067808028202484
9.314811688231648e-5 -0.005745810179376085 0.0017629666018331041
0.00015453819714465495 -0.007112160214931968 0.002057857997959263
0.00012168572589345942 -0.007304220060996832 0.002046487619378122
9.880831524793544e-5 -0.007131730635681814 0.0012954975499551724
8.405722740174847e-5 -0.006954945471995151 0.0017765058229376536
0.00015193588045094608 -0.00633910470077186 0.00231960104590532
-5.7294787656505746e-6 -0.026401163563990485 0.00112470358001274
2.2598068470030863e-5 -0.01117305431513008 0.0006954304812872002
3.3411778841100705e-5 -0.012013820143423452 0.0013436662464049191
-6.109531217260853e-6 -0.011463333694856446 -0.0006638663340086492
1.4846630010852391e-5 -0.018536383378218967 0.002352217577273327
5.859022930850411e-6 -0.017467156527088416 0.002565161797782568
2.1077526537547095e-5 -0.016307187308737977 0.0008633231376163821
1.8689923122578744e-5 -0.0217954602419953 -0.002100062902277147
5.6222984690911295e-6 -0.020091810441128538 -0.0018551548380059519
1.8697149997730898e-5 -0.020049993539136106 -0.0014546570872130686
6.015243306523502e-7 -0.02094796404901325 -0.0011388744458175925
-1.6760403178681832e-5 -0.025499615678893254 0.0013378946608215278
-2.0733266532548998e-5 4.470419238440867e-6 2.1720191367068187e-5
3.225100998956338e-5 -2.938887356559216e-6 -4.485485059343105e-5
-4.405797604660505e-6 -4.241161380147215e-5 6.22079064367373e-6
6.474444264589475e-6 1.4640483381694564e-5 -8.123862027906876e-6
1.1266896685826656e-5 -0.03317339000863767 -0.0011392959287619766
1.1114021611300781e-5 -0.046802099016439655 -0.0029438282681181907
8.861874804381445e-6 -0.04693593870538631 -0.001872404563415178
-8.462508994781171e-6 -0.013605486871863227 0.0010947056383152267
-2.3887514496290898e-5 -0.013255868524972184 0.001119919104145409
-3.543066986660211e-5 -0.014007796248675717 0.002299789435820848
-1.858612623461818e-5 -0.012784971668996004 0.002196111381823613
6.158555275004391e-6 -0.013915947733633294 -8.523581487526495e-5
-6.940103476181967e-5 -0.026570227674198088 0.0034013211571659553
-5.868627414394302e-5 -0.0021111520520223745 -0.0008346296233771108
-4.330384476229584e-5 -0.0017078894407449835 -0.0009049567166370126
-2.8184353456731623e-5 -0.0021688613363469358 -0.0009858704097420224
-0.00010846302722737455 -0.0019236693387173283 -0.0012868728980988521
-4.834185027069305e-5 -0.005344572523071729 0.0010259103070296982
-6.872633178563425e-5 -0.004498746432962024 0.0009791907831363772
-3.163157929615917e-5 -0.012504398183178125 -0.0013955426529562033
-4.906819448435526e-6 -0.012294924056849893 -0.00048141900590426825
6.3322934991484406e-6 -0.01234710232120089 -2.6726885167678455e-5
-1.874534854662826e-5 -0.013421713463630549 -0.0008441866553595933
-4.325461560186634e-5 -0.01139909533229596 -0.00244591847406508
-3.6116676524404014e-5 -0.012776879225493316 -0.00248066054195803
-8.246981287874832e-6 -0.013376608971288662 -0.000725663990527559
7.326089864998707e-5 -0.00032776007987613264 0.00029721794254429176
1.8977848820936483e-5 -0.0002037270103702909 0.00020870687192454896
0.000102681895465895 -0.000277195958271924 0.00037698883044786724
3.279234801754674e-5 -0.0003442978570829206 0.0003755255242901937
5.138057215609094e-5 -8.527076213632752e-5 0.00014038879220044082
5.647883992927531e-5 -0.00017248669422366644 0.00024866817302355464
8.763124375831865e-5 -0.00031576050648947823 0.0002686056291040895
4.0211724418034204e-5 -0.02175114997614339 -0.003151707804953686
3.0738623510251204e-5 -0.022433767993986463 -0.0020661142745184817
6.392072083993099e-6 -0.021664369231420802 0.00010229826759218551
2.387208187137177e-5 -0.021672277802695237 -0.001056064384569301
3.6881317157066638e-6 -0.04480842742218309 0.0010016116819164063
5.451552338873165e-6 -0.04158769216112251 9.759992055598704e-8
-1.5895090545441685e-5 -0.01860365669689693 0.001229933820905973
-2.084260423040185e-5 -0.019619554677532722 0.0012688792615778302
-2.330588712576783e-5 -0.018890572150703583 0.0019579745517749134
-2.003403626371182e-5 -0.01759742513695738 0.001308701331341462
-1.0239219882988537e-5 -0.018387798305202572 0.0023256784707585167
1.5275833411172853e-5 -0.01981997895328275 0.002551378273727089
3.4919880403550284e-6 -0.019095526439498755 0.0016044812329603412
1.9063608027049604e-5 -0.01971358481278863 0.001399515220659751
-9.194650730369663e-6 -0.019615919859695036 0.002458827131930122
8.28233826679463e-6 -0.018907689138627427 8.120165839506934e-7
1.9757267987709664e-5 -0.020690329497181668 0.004442482743256246
2.016228113094118e-5 -0.019892453713745577 0.005264154746080276
-2.2380974068131868e-5 -0.01980474791826461 0.005109921684321835
1.396834305645826e-6 -0.019173686551223888 0.004524425368957496
1.0787374626512344e-5 -0.019100635833117115 -0.0014833385973451617
1.0235460665967946e-5 -0.01881098258194123 0.0005219762182669264
-2.5107018389379346e-5 -0.0011239063315191154 -0.0002696522752214794
2.6683102372298354e-5 -0.03349461954916982 -0.0032283019097732735
2.1181170592624665e-5 -0.033266534264347766 -0.004302910925517603
-5.848923274545381e-5 -0.017387267526425033 0.003068869588708501
-4.421823506731991e-5 -0.018455088938785523 0.0027384033851120112
-3.728346180836254e-5 -0.018198654941715516 0.0032707111714695763
-0.00010209461161803629 -0.017333321795793128 0.0047792261484252965
-7.985964114151456e-5 -0.016286136736499285 0.003736724966689287
-3.488791076283936e-5 1.5155333994074673e-5 3.785684549820784e-5
-6.749398295156206e-6 -0.027744666837757326 0.0011420740777661291
-2.474696152504271e-5 -0.027735669919518542 0.0022259022850359815
-2.6753004854427654e-5 -0.028945996054958536 0.002562045160538522
1.2437587986106212e-5 -0.025382196134030307 0.0006366532749121316
2.0058163248822094e-5 -0.02576690340981311 0.0008952194936066996
1.6630865672739884e-5 -0.026892016085558607 0.0011282596879437967
-1.324542866757289e-7 -0.02454100486609217 -0.0006420155237722686
6.866958778435982e-6 -0.02708819110925222 -6.957542309768159e-5
2.7326296613917736e-5 -0.034945139402964925 -0.004630961955645299
1.8032507941497622e-5 -0.03690227687293365 -0.0022344402899885383
-6.48288079357534e-5 -0.022490176902904002 0.0030772595384508474
-6.184052323455173e-5 -0.023514550612646835 0.004167032761782872
-5.6940745860553977e-5 -0.023715324434751127 0.0031003839301862036
2.0080293593241726e-5 -0.03580335385491814 -0.0019783328855165145
2.7729850828206275e-5 -0.036504183376328186 -0.004236244157512906
2.794188806041653e-5 -0.03698584714342978 -0.002939957589511608
-5.5185936987185975e-5 -0.025495299730328276 0.0032122055995061644
-3.3778056720731315e-6 -0.0040677988868151205 -0.00013570050910947581
-4.391539731617709e-5 -0.004362944369575638 -0.0007168735831056532
-2.6787853472438704e-5 -0.004136610174448458 -0.0002981731404600432
-3.3098442846100957e-5 -0.0036102457009436913 -0.0004469113779602065
-2.282286950436124e-5 -0.0034522631055682713 -0.0002503863000583225
4.928438512391887e-5 -0.003535571948872203 0.0003742922152067672
1.631524017972296e-5 -0.0046338458643936375 0.00014000871557571316
4.315177238987859e-5 -0.004179819383846259 0.00037221145443669
-2.5051762189499003e-5 -0.004570465219009957 -0.0003678531014891688
-5.746207852168231e-5 -0.0022241201536023795 0.001052935096410651
-5.2048128545495714e-5 -0.0020839329746295677 0.0006787343560612094
-3.3600517924504984e-5 -0.002544451866808667 0.0010444066589627304
4.845934702199521e-5 -0.015309207531482018 0.0025695256681756507
5.282641747349833e-5 -0.015289228804094918 0.0034686677388539016
4.37750041505418e-5 -0.013873938100502962 0.0024573900039242306
7.548472154290829e-5 -0.014300006365811923 0.0032618278823046097
2.7392682478802006e-5 -0.014491949381202487 0.001076461202290906
4.8840385266409324e-5 -0.015579697382440043 0.0017174562018698314
2.6862594850107744e-5 -0.02274522015946598 0.0011803115703864571
2.4085340986022035e-5 -0.023313571135344265 0.002153296659182503
1.850767909071772e-5 -0.023883514598554947 0.0009987280706972746
3.856901695975389e-5 -0.029261167048868473 0.005706202036593025
1.730774041192458e-5 -0.04333121734991385 -0.00244045952487417
-5.76074671153678e-5 -0.0031666889916472703 -0.0007767139147047856
-4.4533834455547324e-6 -0.0353348795936975 -0.00319779464465558
-4.77969041556677e-6 -0.03457198468649975 -0.0020743830217811662
9.799228045950022e-6 -0.03610414296292263 0.0009753505520993989
-6.757078343947674e-5 -0.027799030417370755 0.00350599577956102
-6.327713996330836e-5 -0.029171149095186484 0.0035496337300364943
3.331807932112828e-5 -3.532894056308477e-5 -6.86485823638695e-5
1.8238141588362444e-5 -9.430037732671518e-5 -3.6631154812479705e-5
1.681409475320484e-5 -0.03917986113217685 -0.0014047642406184596
1.4364229201607148e-5 -0.03827004579822919 -0.0013048237339184806
3.148542953475449e-5 -0.012584869168404145 -0.001983874094959581
-6.313973859733636e-5 -0.0039539525468103905 -0.0013337676814145388
-1.8492395406044385e-5 -0.004518764365174329 -0.0014321569751881682
-4.4739289024337334e-5 -0.004297345210696998 -0.0020491762808641798
-8.368927769976529e-5 -0.0037662772731054 -0.001931344903823893
-6.724220537292107e-5 -0.00336280748442247 -0.0013993770299848543
-0.00013301866374013509 -0.0036172255007617467 -0.001572216081165651
-0.00012349544017178652 -0.004163377919831362 -0.0020340758583474255
-0.00010453991537233503 -0.0030825199310306473 -0.0011617809808198347
-9.641583927596474e-5 -0.003951963817865268 -0.0012788936118838094
-8.102899893837963e-5 -0.004494090097700008 -0.001747428920394972
3.4763235807347274e-5 -0.019876830153408014 0.002770749219478911
3.234120310410788e-5 -0.020190417724240937 0.0017698622982899295
4.409978981562178e-5 -0.018727334036113086 0.0020046589163012804
2.4343282192211232e-5 -0.03737266194447794 -0.005854958903147425
3.672269224734968e-5 -0.037222867782314976 -0.004423741014144328
3.54970666043683e-5 -0.03714025530723403 -0.006016419425828008
3.303468534526731e-5 -0.038644552536169344 -0.00609012304243912
3.413831129404766e-5 -0.038684016649616786 -0.004482776510032331
-5.288386678821481e-5 -0.012211742348097574 0.002805491363133183
-8.990378842236549e-5 -0.01298512770516476 0.0033552840533930947
-4.950949409965858e-5 -0.012963292586102241 0.002429917414775295
-7.034819435368896e-5 -0.012354856102242174 0.0021876392160732434
-9.52624613074144e-5 -0.011949139271169728 0.003270384908233947
-7.803419884959088e-5 -0.012807545099493396 0.004100613993004156
-8.011557751332418e-5 -0.011929901710449177 0.004171666041012381
-5.4384198761033456e-5 -0.011331822906881018 0.0030681368971488235
-3.295909223859624e-5 -0.012521744338758854 0.0033102810885104355
2.986139180475957e-5 -0.01814942324444094 -0.0008908773622246103
2.168771977453531e-5 -0.018890278985632676 -0.001620368582105928
5.5391486425193214e-5 -0.00013503558028857157 -0.00013352512763801364
6.739173218585191e-5 -0.017417674673922197 -0.0026225212392303777
1.2541351829705935e-5 -0.01978638010673807 -0.0028184919188812543
7.903524698097727e-6 -0.000257051214173789 -5.200996975339381e-5
8.656545402483969e-6 -0.02983223555495247 -0.004534078445435662
1.634157944095005e-5 -0.029946293237929456 -0.003459835913020562
-9.223460663839761e-6 -0.02975023080209021 -0.004371322390407769
-4.695286914657612e-6 -0.03846414833222551 0.004988982773712681
-8.741507655682152e-6 -0.03560743864589994 0.0043420721215702935
9.673241139714188e-6 -0.024064577533777227 -0.00012845580930662272
3.6823530571926864e-5 -0.023492767307180997 0.0042315799223904115
5.470890966773397e-5 -0.022653613159181102 0.005299127638719342
3.743178332629911e-5 -0.02216824622752024 0.004113200230548623
5.63599157205244e-5 -0.02289005584644194 0.0038874082658593087
3.738969917746341e-5 -0.024975929634745087 0.004335438290835494
5.178129538381567e-5 -0.023925785626161364 0.005397363916535525
5.189629793776496e-5 -0.024117857401462856 0.003957719582453999
1.572522512158989e-5 -0.034818032524958534 0.0020138925711272854
4.0254543626103285e-5 4.598578140761523e-6 -4.618957652158363e-5
1.1566542215354852e-5 -0.03449909380763512 0.002939804227604719
1.5795455976294253e-5 -0.036216723562755265 0.0022858865271557388
3.686624365344185e-5 -0.00028881160227135663 -0.0003825442803543388
-1.5677565728088954e-5 -0.0002899603082122321 -0.0003815337144925395
5.88582986168213e-6 -0.00014577017036075275 -0.00020866404847966804
1.1584788137206591e-6 -0.04763659551123584 0.0019930477491803904
2.418133662965536e-6 -0.048884712619788405 0.0010055921431114563
3.1930075145924556e-6 -0.04763212449000606 0.0005437899858615322
2.812441807448079e-6 -0.04885435977280256 0.0006920292803699037
4.610674674110411e-7 -0.04891495539785948 0.0024247275626150485
2.3618326662216864e-6 -0.046468076036463184 0.0014864410394089356
1.9432491688942342e-6 -0.047529002749608674 0.0019361765322446292
2.0966705924122162e-5 -1.0002486927160998e-5 -5.035315454245126e-5
1.7812897810479837e-6 -0.04637565081346284 0.001527487701736577
2.0714917114438503e-7 -0.04749100149645898 0.0019851965443335572
3.099456242730938e-6 -0.04768502560494431 0.0005359006600117359
2.75831849160749e-7 -0.04876802935340265 0.0024245590746939626
-2.7483021396997978e-5 -0.029721214356653577 -0.004227594342805563
5.933453176996042e-6 -0.021792662019626898 -6.249428161959479e-5
3.366540077053563e-5 -0.02249671013143972 0.0011090000090523977
3.411337425740606e-5 -0.021751375050397218 0.0013263931524730853
2.8469650185003894e-5 -0.024304800613939328 0.0013171289871643837
4.492242486233014e-5 -0.02258567571121108 0.0026123429926329885
5.1458918671551084e-5 -0.022722394878989298 0.002252562142513328
8.426703196661314e-6 -0.023261330726394476 -1.1242450241736586e-5
-1.7553299922643381e-6 -9.359846213187787e-5 6.031524119765448e-5
8.515829446938027e-6 -8.771563037411917e-5 8.663881902260789e-5
-9.398445134299423e-7 -0.00010502366920312023 0.0001331772403201437
-3.341452614602487e-5 -0.00019241292469204083 0.0002067865123910436
-7.223241879853052e-6 -0.0002745981430596035 0.00029447832089125073
-3.868497250967639e-5 -0.00037354981769018264 0.000287223346740216
-6.703841385196855e-5 -0.0005670217771577544 0.000465802251838043
7.277640951454995e-6 -8.577399073408155e-6 -2.252479647254448e-5
1.9560690419241386e-5 -7.491767823998308e-5 -5.718528547981075e-5
6.19831923720468e-6 -1.9905513691434424e-7 -9.290128773523226e-6
-6.966500574103046e-5 -3.811791683752318e-7 8.579250077139501e-5
-7.027877019369629e-6 -0.04452923014387213 0.003790689552321224
-6.344095598341122e-6 -0.0433913007072316 0.004803798561247065
-1.1788104096860536e-5 -0.04351420741765839 0.004997384852529557
-7.835955852158365e-7 -0.04403694380872147 0.0015208731551368013
-2.4726083361104065e-6 -0.04549360339553787 0.0020839007327604925
-6.614948999183185e-7 -0.044399494486261855 0.0024993689138139326
-1.3149976441877185e-5 -0.04434123783138716 0.004709422666817567
1.189033874151673e-5 -0.0434570726829348 0.0029116229198589767
1.9094339518353712e-5 -0.042711950010317 0.004685241593849284
1.6057273643987e-5 -0.04399088591659208 0.0049144901418550204
1.1007569446741148e-5 -0.04283552889847694 0.0031520075465685388
1.0798946299762902e-5 -0.04470503578643353 0.0037840144313131415
1.4915465477975397e-5 -0.04416416010076133 0.003783511729741897
1.2343636593567413e-5 -0.04400817214965107 0.0025811733908585217
7.017692825185033e-6 -0.043679388444727366 0.0019161754878874659
6.771983590894723e-6 -0.04449072071056792 0.0030573652467012153
8.912013807570486e-6 -0.04401591589717528 0.001693091638423857
9.48828584355597e-6 -0.04248764124102858 0.0015573790320726703
1.8036370069403078e-5 -0.04165330826632224 0.0035041552082662117
4.707760927614914e-6 -0.04621756628526597 -0.0002754331695464767
6.080888122443521e-6 -0.04746167404842129 -0.0018681622158383461
4.5065965654938705e-6 -0.04601347385970121 -0.0005886868396632447
6.151656517330282e-6 -0.0451298558508333 -0.002122065367018433
2.7921090667977574e-5 -8.825749803956153e-5 0.00011937477543884176
8.200412817108733e-7 -7.691899253250601e-5 -5.063893406022837e-6
1.5785999713058136e-6 -0.00010121120081690369 -6.080408780451518e-5
-1.5272427527435152e-6 -6.948439724004111e-5 1.7769044232056727e-5
5.883145980307072e-6 -8.705037119491645e-5 -3.50099587338622e-5
-3.628892933797012e-5 -0.00022158289221321412 0.00014993946458540143
-3.0925390039500056e-6 -4.0073985120341395e-5 2.8810027908298397e-5
6.639610385585383e-5 -7.950060232921969e-5 -0.0001511952685397702
-4.684897517142251e-6 -0.03970459971615869 0.004303725322139463
2.850736682597749e-6 -0.03905314777081168 0.005994431201655392
7.123639032241189e-6 -0.040906289890630894 0.0034499653196812235
1.2936264813386832e-5 -0.03960980323951076 0.004670486831863277
1.9260255173308506e-6 -0.04064299306281795 0.005974900868963707
7.1439487242704555e-6 -0.041774841592583024 0.004623028548023043
1.4231902209612738e-5 -0.013212012865740981 -0.00027443228214423334
5.959614822050694e-5 -0.011654009698564585 -0.0016265975942820093
4.181692867942663e-5 -0.013490247344710628 -0.0013719974186317432
-1.502395723488337e-5 -0.016703575904260717 -0.0027897857764524405
-4.101079412391588e-5 -0.015676158856627116 -0.0022723553767093436
-5.7926079900300745e-5 -0.016866932529337363 -0.0035423351739329472
-2.247623476837431e-5 -0.015762240639779927 -0.0036320532847004677
-4.5728665024612445e-5 -0.01768816667474921 -0.0029775554532424893
-2.3521079863684592e-5 -0.01836723939529281 -0.002683893561540166
-8.029987542435644e-5 -0.015279047437464274 0.0036315710481318896
2.524037490661657e-6 -0.04398999809629911 0.002805680658935822
9.15279473407586e-8 -0.042820264162895784 0.003536569699748575
4.3669393442418085e-6 -0.04477389702209711 0.0024047635238622625
8.749950864747007e-7 -0.04605049399860603 0.0029397080809616255
2.8990995629806213e-6 -0.044786756186548815 0.004078489029556957
2.029768472923729e-6 -0.043432481492581235 0.004785507830338241
-1.5751007259740652e-6 -0.04476585610324682 0.0038528934492452834
-1.960453008864289e-5 -0.012029208386881566 0.0009176005157382213
1.0072376164171763e-5 -0.01049404973710531 0.0007956128948190094
5.740132452094522e-5 -0.011788475066189161 -0.002693346652062942
2.833417887540796e-5 -0.009643179152690882 0.0008453140085794085
1.382830940160602e-5 -0.008973010069764257 0.00014868548235965077
4.9939489224298406e-5 -0.009224391069829321 0.0016345561880095388
6.970785793644101e-5 -0.009944986288012572 0.0021718664356730733
3.2980600837636845e-5 -0.010240589929810544 0.0015738992961680386
1.2548520802939915e-5 -0.037055510270554246 -0.0009602032982750533
1.976565649099385e-5 -0.0239180957901543 0.005411017310803759
2.698251264675112e-5 -0.02283436851382705 0.003103133158631094
-1.8292517726861074e-5 -0.00018507536168135063 -6.328383935218476e-5
4.0033662107082246e-7 -8.075348685290789e-5 5.509791476887286e-6
2.676887827456598e-5 -0.009148129749386922 -0.00030665226870547544
1.3787016651290883e-5 -0.04896667171083628 -0.006456309659439568
2.1133026675084195e-5 -0.015118420454670423 -0.0007317362094636738
6.482978324525893e-5 -0.01443013233894419 -0.002100566855892457
-1.4025838176925824e-6 -0.009514796818201905 0.0011123276543666498
3.328147405398309e-5 -0.013706181951180799 -0.002099792345507955
6.385729583042549e-5 -0.013539302845599642 -0.002538086061264419
1.8909332113164204e-5 -0.04655275936811249 -0.006245348604521605
-1.600271888010225e-5 -0.006603362077794731 0.0006231693215534773
-1.331233204795246e-5 -0.011383483338635075 0.0021495284830285784
-2.4189630397851553e-5 -0.007937776184280107 0.0007116345772479602
4.017557193121187e-5 -0.008564070378078095 -0.0006140044006088452
-2.0412553774554266e-5 -0.008777565285125402 0.0005870951119572662
-3.130324435662323e-5 -0.00856311458161678 0.0012338751255808625
-2.224329211723694e-5 -0.010261507707217215 0.0015526310872662837
-1.6328342241371118e-5 -0.02683121163995662 0.0013584309401813944
-4.451793267119655e-5 -0.02655705248171336 0.0022948644050949465
-3.826756936298933e-5 -0.027997841309059406 0.0021966514931610064
1.1919572280005e-6 -0.048933827653194296 0.0019304912411252163
3.1662260107802317e-7 -0.048747746589776965 0.0026418202283861997
4.566760201945307e-6 -0.04888204925174825 -0.0004841755531391979
5.8538856828037856e-5 -0.012634752082607621 0.0013618576151236193
3.838260192756793e-5 -0.012648725643752773 0.001169262686196047
3.460763267367407e-5 -0.013483090136989112 0.0008627106562741959
4.725438586445235e-6 -0.04765185661694562 -0.0005575687450464976
3.0843147206739145e-6 -0.04742849785339915 0.0010906629281619727
3.186267473755352e-6 -0.0489132891868961 0.00045327301499653295
2.9301370043133248e-6 -0.0013243770062994788 -4.119511109036086e-6
1.35368398961862e-5 -0.002784161249727042 -6.834046573305714e-5
1.2611027397173275e-5 -0.04897410311207214 -0.005322198508671741
1.0033377089101268e-5 -0.0489172127474194 -0.003824024760792657
1.1964102397528984e-5 -0.048918172072484695 -0.005074682461017444
-5.906746509254341e-5 -0.0025962008363488737 0.0007181829193296372
1.2253281850687665e-5 -0.010547131075687378 0.0019254709908170151
3.527154755516447e-5 -0.009488011787193358 0.0004859897485164742
-2.380028461218351e-5 -0.009402394684495219 -0.0004703825995379647
-2.3214317642361028e-6 -0.00970466479701493 -0.00023517449587337087
7.711842554143297e-7 -0.04360771189471493 -0.0025112872170596663
3.1060146047477615e-7 -0.04326335916188222 -0.003642953084814936
5.976818732913341e-6 -0.043890159317853256 -0.003651184438141038
2.508503744700293e-6 -0.044974021263971035 -0.003720393441782098
-4.6614676388232226e-5 -0.007488248435594631 -0.0013922608651883662
-3.933726755355942e-5 -0.0068624331707489005 -0.0008107274153180558
-2.8070768353974298e-5 -0.005919290064026862 -0.0005748029432484502
-8.414807625033678e-5 -0.006282210218066605 -0.0011950990218481453
-1.9423469814631684e-5 -0.00597183304012469 -0.000331389592216743
-1.4530385802105122e-5 -0.007311321723534495 -0.000597233329012892
-8.317986331094131e-5 -0.005808591146319909 -0.0014168704699531582
8.357531933417507e-5 -0.004210603794800017 0.0010585750023565754
2.4647182395014538e-5 -0.03478912091601495 0.002212418648891176
3.984841149831263e-5 -0.033896593763114796 0.003626162653559796
3.1283069105562695e-5 -0.033218940459365985 0.0024546492354004094
3.625716676092679e-5 -0.033798801642313366 0.004621147720761128
1.9153330008870912e-5 -0.03430804546455899 0.004332002651700213
-4.006046625943703e-5 -0.0014059886089531266 -0.0005637094275078862
-8.280571712362169e-5 -0.0015102504646184527 -0.0006989124861670211
-0.00011940162082858799 -0.0014839844091294634 -0.001101839117331837
2.7793472763304497e-5 -0.0371688897631522 -0.002309305715836009
3.877660073722926e-5 -0.038039618140331466 -0.0036742067200664715
3.4155779975058906e-5 -0.03781695205698193 -0.0025564625364010605
2.1280105294060786e-5 -0.03874221682004471 -0.005973090269685049
-1.988278926874143e-5 -0.030601630925322445 -0.0024602982351900663
-7.591643720954556e-6 -0.03133742670711011 -0.001387366682053321
-6.462817780031155e-5 -0.015419384474528943 0.0027162925911196584
2.2847874403713667e-5 -0.04128583027482814 -0.004848119032630739
1.7144614332988767e-5 -0.04293212033881974 -0.006169395724385633
4.297638440300001e-5 -0.036588220882818365 -0.0036478474748779153
3.548814614004329e-5 -0.039491915423842165 -0.0036940108246081888
1.888427902980271e-5 -0.04467659130549472 -0.004883126191081929
2.3557258092631588e-5 -0.043639869996978685 -0.004563927649912207
-5.019949060304389e-6 -0.020801380403413033 -0.0028070134593809488
-2.2517176442301733e-5 -0.021771246691692555 -0.0033350885241340065
-8.218963039438043e-6 -0.02210518237655702 -0.004156921887374614
8.385658948092006e-6 -0.021909368356252165 -0.0031937032848478905
-0.00011127696676768867 -0.02406799011151117 0.004556119419729975
-2.70552988054807e-5 -0.02042329544457751 -0.003672390425435915
2.2249241338464343e-5 -0.020771739471995475 -0.0029958854676354406
1.1233572261569572e-5 -0.008290317239228868 0.0028603615309453997
5.6484581233016086e-5 -0.007517408572907897 0.0025989977547706466
4.526124423864238e-5 -0.004245798921740862 -0.0004952825842492947
7.484623309008423e-6 -0.02049897767704506 -4.839978003069392e-5
-1.8943301966651087e-5 -0.023388527141444314 0.001042488383536444
-1.142784903533473e-5 -0.02493251775584121 0.000745126909036361
1.0461238207505996e-5 -0.023998726358287613 -0.00010458205208046056
5.15910879696827e-5 -0.012626941042045396 -0.0033243965958929646
-1.332156802164955e-5 -0.027165576423683262 0.00451924583283387
2.2589183892998353e-5 -0.0076818274548070145 0.00048615612877372396
3.3435121913917554e-5 -0.008683887696241281 0.002245518451911765
1.5309282827925033e-5 -0.009171617028349035 0.001810545871239939
-1.553506947682168e-5 -0.008758552196714666 0.002202675657763648
-3.2913815699958575e-5 -0.007982645138651137 0.0016113627035316295
-0.00012991360515866211 -0.026367528236997676 0.00597755799798301
-0.00013107809747702365 -0.02472272734886235 0.0055301666834316615
9.19488075273103e-5 -0.022082916822693113 0.003263355183766247
-2.0449202018364934e-5 -0.014329145345684623 -0.0024435145661615824
-1.0454135125178962e-5 -0.013469901144137552 -0.0016475539524414245
-4.598019874158146e-5 -0.00254715289711045 -0.0006006649590051824
7.930320918731178e-6 -0.01582875981190872 5.636205587575069e-7
-2.7293307794631428e-5 -0.015750219487334377 -0.0011163025600559003
0.00010173305856847846 -0.013501191655172806 -0.0035132892195182423
8.383547458150704e-5 -0.013298435324044485 -0.0022165447614898135
5.686125918502972e-7 -0.04288766978429491 -0.0048600394761047164
-5.235789311967452e-6 -0.03913103449315837 -0.002995239936875618
8.53132350925745e-7 -0.040761546142589054 -0.0015054356160591096
4.149701805896853e-5 -0.01565634421885608 -0.001077386001687332
7.788537793235655e-6 -0.014506491962406243 2.073200696074497e-5
1.2367068551925626e-5 -0.015725937345231346 -0.00013385013925167673
-1.227185642235592e-5 -0.04169072182113018 -0.004514165455364589
-6.281032305516352e-6 -0.04059835600762439 -0.002551621193109116
-1.2467943794378956e-5 -0.03969376961605437 -0.0035885611914956055
-4.804453141434023e-7 -0.041509502942064895 -0.0015081347015114416
-4.370032988724837e-6 -0.042338521435549344 -0.0030147575724474
5.923718002792534e-6 -0.0434702478234438 0.003368752635540317
5.487370977150898e-6 -0.045042734511184096 0.0011888313867679174
4.697665983400071e-6 -0.04303111101830605 -0.00021520764296258056
4.5736239130907815e-5 -0.0034202810253875274 -0.0004201994062949738
-1.540099704132509e-5 -0.03153934905077085 0.0058463777164772445
-1.6319571262837318e-5 -0.03020643601627278 0.005733972825636037
-3.686995273075873e-5 -0.03153028232242711 0.005853266082337431
-5.188923137011364e-5 -0.02328354776078729 0.005204843428997788
-8.19322141044466e-5 -0.006226560800864973 -0.0024244696768054665
2.6755978991627745e-5 -0.028951511992776867 -0.005577711548756902
-1.3214054700170347e-5 -0.046982610081171224 0.006223859693911973
2.8506625225762762e-5 -0.029892026884984758 -0.004680581960913715
3.970459794865278e-5 -0.03226183356498381 -0.003430759074505486
3.611831331451813e-5 -0.03215894592042197 -0.0023070726581972192
0.00022316109846635612 -0.0037538595569325925 -0.0024444565242458145
0.00017557489680306598 -0.003565528077247551 -0.0023499532423483017
1.6483474915603667e-5 -0.031885728362044966 -0.001185939000809389
-7.653091552901808e-6 -8.95860728892488e-5 -8.94570060095808e-5
6.347200121677891e-6 -0.01563368607501335 2.74180055927923e-5
-5.160279250227424e-5 -0.0015524285391266502 -0.0011429961664643545
-3.536525470620576e-5 -0.0019397146210291209 -0.0012776837923995034
-3.645462997380575e-5 -0.0012773186423866282 -0.0013412456803712268
-2.6103052421965397e-5 -0.005187263346209789 -0.0005235399810329897
3.0223472197021544e-5 -0.016958172306977215 -0.0011400147731488522
-9.400087611200556e-6 -0.022097006085884476 0.0010643600064746883
-2.1093082912886913e-5 -0.022551682745865862 0.0013024340536801
4.863074687605484e-6 -0.02267065734115424 -2.485288917001217e-7
-5.459561878513563e-6 -0.020987895244515213 0.0008392516312405433
7.1662576913574626e-6 -0.02158772456520523 -5.924477566874658e-7
-5.572944396677432e-5 -0.013805638279790283 -0.002000061131257858
-2.9815851474421124e-5 -0.013624144869671308 -0.0016021537931531643
-1.4960456999752295e-5 -0.014484600551035304 -0.0008219464147151547
-4.585427537507717e-5 -0.014782283321240541 -0.0017421475881928574
-5.3151039388199326e-5 -0.013802999944448667 -0.0014176651845432796
-9.481404270598502e-5 -0.013857636374326054 -0.002447841575244783
-6.264293044684346e-5 -0.014764693218819468 -0.001753625300650264
-5.288654801120704e-5 -0.014151659216775326 -0.0025694159712698426
-6.655667427328462e-5 -0.012939463143651119 -0.00222994689356379
2.6669264064742425e-5 -0.01411470207863736 0.0030934215410350356
8.893595319520831e-5 -0.01567251844290906 0.003737561958103626
7.84348623218921e-5 -0.014415996352676274 0.004460911863355762
8.666089615484918e-5 -0.01580949151165665 0.002794058083114935
4.3675640642113284e-5 -0.017361092788378808 0.0019800162422914263
2.7415723548455685e-5 -0.015092598563395494 0.0030561952757815177
6.0387221214118715e-5 -0.014469424214437894 0.0022322746622499006
-2.741903675907128e-5 -0.020056408621315015 0.0027470385156323197
-5.739167767701128e-5 -0.01911727947594116 0.002584825121161661
-4.490363911814025e-5 -0.019512597793135834 0.003838628275436585
-1.7599235631445266e-5 -0.019659409807271724 0.003662115551349396
0.00022238476811482866 -0.0050183684436340414 -0.0028540964134851385
0.00022130469416414332 -0.004293217061434985 -0.0024585316703635766
-5.851256117124872e-6 -0.023275399274801066 -0.0011093738173519813
0.000160948213178673 -0.006355772218612572 -0.003113073305422982
0.0001596069400050372 -0.005602876018114516 -0.002948228850253501
7.891850647750132e-5 -0.01702660515933866 -0.0035059430358864484
9.649731261704595e-5 -0.0006103456463039278 0.000381676153984906
4.008017329970775e-5 -0.00045827330354978544 0.00011066592597278425
-6.992632177054067e-5 -3.492570418801436e-5 0.00010323763404860287
-0.00018428862375860183 -0.0001294503904257652 0.000316400861683164
5.990003133790968e-5 -0.01611311841371807 -0.002284082346370989
8.137680396131622e-5 -0.015889047274389577 -0.0034121180855207905
-8.591264301714993e-5 -0.005476653373264409 -0.0010857095138126574
-2.881938795527664e-5 -0.021453566650695546 -0.002531471022012289
3.021730686502436e-6 -0.04224960733177355 -0.0012411114311958007
-8.038506705995116e-5 -0.008143568884561872 -0.0018263171575721411
-5.559426293826363e-5 -0.00864765446969307 -0.0022438435300920663
-7.892825794627099e-5 -0.009024409183846721 -0.0019089445095031097
2.5547391086440206e-6 -0.045119619498471465 0.000929671291794315
-6.661920962134146e-5 -0.005380890151211247 -0.002222284570642393
3.5618729827926824e-6 -0.020337887417503985 0.0030341721702613245
1.3895746943596831e-6 -0.0189295606831162 0.003265762113202408
-4.97376495508943e-5 -0.02479341575298851 0.005384050801348107
-5.652078477702792e-5 -0.0016313365097096494 0.0005852040122855897
-1.9753851442410272e-5 -0.0019231915892609633 0.000777211453561558
-3.6626982165558505e-6 -0.031912111066666464 0.003445902423642806
7.728762330468382e-5 -0.003628054017697625 0.0013316573514028686
4.45225950704926e-5 -0.0035828908988967526 0.001425739835061565
2.831556799682228e-5 -0.0029602723819875214 0.0009966177443728938
-3.806680467952027e-5 -0.029821604147531627 0.004240130200564987
-3.262940097230306e-5 -0.04038476953139489 -0.006203767526152673
-2.633131854631285e-5 -0.04170038380705289 -0.00624396006912172
3.963203784992819e-5 -0.032179276887652444 -0.004749431710914685
2.357135474491256e-5 -0.03189577273873183 -0.005862804277533092
2.2825679258296812e-5 -0.03300436887098013 -0.005980827597971462
4.96152004111255e-5 -0.03125462219695619 -0.005546191245817164
2.6712706016560936e-5 -0.031197442580824658 -0.004696372277048654
5.577173755227732e-5 -0.03150226571889507 -0.004514761844899598
-1.990300471606393e-5 -0.043347757629537166 -0.006584468423410643
6.0688597850245186e-5 -0.03291765898210389 -0.005904795103874114
3.796920482719606e-5 -0.03346808640307127 -0.004513832308446648
4.358831101882273e-5 -0.03283028063547189 -0.005884820924639755
-9.296091110038534e-5 -0.006274450477591357 -0.0030248551189438026
0.00014455559161651163 -0.004173909143916282 -0.0018827814890762838
0.00011206175128503465 -0.005025181953750672 -0.002071297843234695
0.000120405124814383 -0.0046782768477578495 -0.0014813891665890675
0.00012400975668377072 -0.003958834695727664 -0.002078919367111369
-0.0001115019218165335 -0.0005315458947049604 0.0007458704767649949
-6.249116625201069e-5 -0.0004912073424622533 0.0005943502804842624
-9.689079580118863e-5 -0.0003359546432135716 0.0005039235631613219
-0.00013487442373194815 -0.00036585375538796813 0.0005357530950261541
-3.933622120417436e-6 -0.0329142210765419 0.0044606083054138
1.061981778818231e-5 -0.0334400583273028 0.004322477097633587
-9.21388423529972e-6 1.1347736359514586e-5 1.3018161879991386e-5
1.0436980260002845e-5 -0.047584694251138426 -0.0034251266436258563
4.9234920421666115e-6 -0.046587165095407015 -0.0004494860743577985
-5.00804386690681e-5 -0.00031652146730625993 0.000373425790162674
-6.30157390515867e-5 -0.00015498532059186822 0.0002561653492467465
-3.3193234289024154e-5 -0.0002832666476615104 0.0003872331722292268
8.536843097678536e-5 -0.011679114764308132 0.0016143091502903494
1.158391455096389e-5 -0.04569020990364214 -0.0037218088067065827
-8.018366454712334e-6 -0.04449735807193299 0.0032474400581046898
-1.7709137531833764e-6 -0.046120522731698456 0.002895210483117501
-6.510067754845141e-6 -0.04584042223344407 0.003992334405547716
-6.1472904900006925e-6 -0.044862098660309255 0.00485751131320698
-6.953587995770584e-5 -0.007766537866260244 0.0018633112236750603
-6.8680544749303e-5 -0.006382770340659027 0.0014498585931285671
-7.558368942850605e-5 -0.0004177516735210972 0.00024460674383692627
-0.00014458292292985904 -0.0005100668588289672 0.0005351390964393786
-0.00012364461595757792 -0.0004412466854523104 0.00037563157114255976
1.2049549988853312e-6 -0.011146325681294351 -0.00023369669562417218
2.0285664796941875e-5 -0.01188110133156465 0.00042250809822914426
-1.2153071829558162e-6 -1.326034170693828e-5 9.26694020254682e-6
-9.309987803542365e-5 -0.00032990074232626496 0.0003498934309470971
-0.00011525021900210529 -0.0006724954434351252 0.0007137220144584064
-3.130111428692383e-5 -0.011484275558469136 -0.0013808523512706759
-4.351296202918939e-5 -0.00010706692467049995 0.00016615352370271048
-1.9649571536615152e-5 -0.00011355650001002756 0.00017170351965780495
-0.00011601174429744879 -0.00017229248260855465 0.0002758968774364899
-0.0001720243187993506 -0.00042274929630701857 0.0005791308393503792
-0.00017624194767975533 -0.000389822723790508 0.0004958238790358115
-0.0002221444344871365 -0.00029966882073866177 0.0005385169702178682
7.340538757861833e-5 -0.002960006986591238 0.001074090868187348
6.944547592889912e-5 -0.002598829450275937 0.0005898989384082227
8.551745742902641e-5 -0.0024514573551513747 0.0011294657478416702
-5.0627077487377905e-5 -0.0011946067242230279 0.0008201241429519658
-0.00011628013041145716 -0.0012933489644430928 0.0010358689355512288
-1.4815872158863514e-5 -0.03103161639559698 -0.004278096078265665
-7.988211561142218e-6 -0.032297424617566274 -0.004329511631756797
-2.9455419383901225e-5 -0.031870497388090654 -0.004595612443600593
-3.216864169593655e-5 -0.028171574976842827 -0.004205850633312242
-7.103220355461607e-6 -0.02886006179544926 -0.001421135804385965
9.448594404846227e-6 -0.031254491183484036 -0.0036308132022652606
7.895801760090876e-7 -0.04609501451246903 0.0014472855855679437
4.346307443975921e-6 -0.047038503719748444 -9.444064313835091e-5
2.028738250856801e-5 -0.0001101639234437695 0.00016461550750725514
-2.032896526785767e-6 -2.6460069459549224e-5 6.43691172103205e-5
7.006547279960658e-6 -1.9289718745345434e-5 4.9298350980957874e-5
4.215988828758015e-5 -0.006629133299394363 -0.0013126880172071166
8.070481049850532e-5 -0.006252531159955148 -0.0015313814555543831
3.799900454993944e-5 -0.006008144679884685 -0.0016882146204147497
5.5401246126127305e-5 -0.006964818749350445 -0.002000583920860159
2.8908718339473505e-5 -0.04180511231915814 -0.0036388012099459696
3.253080104518195e-5 -0.04266256972720236 -0.004885246186992484
3.4470142919513755e-5 -0.040173701454311754 -0.0047718220171691075
-1.3091309279665206e-5 -0.045246629458917574 0.006122434897577681
-1.4108389231879888e-5 -0.04411240003975792 0.0060006387534999985
-1.937538954531327e-5 -0.044086403825623954 0.006046080146644179
-1.8393322661365398e-5 -0.04269583814082761 0.004873044074590484
-1.4667306334626963e-5 -0.04384519928377903 0.003763183159572312
-1.1454254955468337e-5 -0.04574931054199897 0.004895847604784982
6.604638648678565e-5 -0.001669821489180253 0.0008940192720456783
4.486205861250931e-5 -0.0019314492678002184 0.0012832903561314734
7.39247908018652e-5 -0.001133773792232796 0.00098455372885652
4.566748906477001e-5 -0.001484309691332376 0.0012883531225325907
3.1292468144712284e-5 -0.02739659141650904 -0.004628409356860084
3.0303432446394077e-5 -0.024835660765629767 -0.004417210504646568
7.712650932241976e-6 -0.024603532395244505 -0.0036295633126198924
2.7967849185741292e-5 -0.026146989368724897 -0.00541143078504737
2.3585866812847894e-6 -0.03983329374199861 -0.0012413575842830792
2.491285243038081e-6 -0.03759893432828151 -0.0009834121683652123
-2.3070005664116556e-5 -0.0015496887695642789 0.0007899330773902583
5.058465336162688e-5 -0.027730626956955984 0.00439256800373846
-1.716213677770623e-5 -0.01793739983189943 0.0009304795315640726
7.426318544317343e-6 -0.017761337548658093 6.019186534256891e-7
-5.7585982199425455e-5 -0.017847621866963575 0.002466513549792115
-8.46021466920986e-6 -0.01252018303680274 -0.002322037001371166
-1.2646814205264915e-5 -0.01383436741871842 -0.003224124201419055
-2.7529482231254284e-5 -0.012455415457049403 -0.0033050442348539367
4.460633490148418e-5 -0.009022646625375238 -0.001112578288523581
5.693859889450641e-5 -0.009159891505969202 -0.0019343919085675972
3.4644153892937614e-5 -0.009947563586516685 -0.0018849090974749326
7.379953858569528e-5 -0.010086561014441409 -0.0021446316556032164
5.5874576555003156e-5 -0.009897628941772272 -0.001320757884227664
3.0901265605741964e-5 -0.010341013470554132 -0.0006275819657930615
-8.740938967356708e-6 2.06736326666519e-5 -9.489066674946338e-6
-3.358719847390555e-6 -0.04192075908831275 0.004821602478981155
-3.4919762034046403e-6 -0.04894547991899447 0.005342564962978696
-4.737723039946671e-6 -0.048999541465872154 0.006327961594121649
-2.837120647376377e-6 -0.04878977717361599 0.005268437591246349
-9.594967586306105e-6 -0.04027666948805723 0.005907706101570491
1.2936110755274028e-5 -0.01359699413917976 -0.0028548432277795657
5.703757425866546e-5 -0.01963598842250141 0.0029292572088559544
7.021283242093178e-5 -0.019308285061091512 0.003893321247115464
0.00010341165038048906 -0.01983590111809029 0.004060294205524369
7.956212001126894e-5 -0.019262939218919393 0.0030306301447233903
4.8175233134684035e-5 -0.018385054706567032 0.0036378697587358903
6.857147580816272e-5 -0.018176538233767216 0.0029819776599588894
5.093873819967414e-6 -0.01661940877718853 7.439616518591498e-5
-2.407251152950791e-6 -0.01664226692083638 0.0005673965405172132
2.254407273131856e-6 -0.04618338496971981 0.0033452060192283002
3.38282936681163e-6 -0.046009884699705496 0.0014076905159061688
-9.385404423996095e-6 -0.014227341692524282 0.0007287234563219324
-8.203780278805717e-5 -0.013461087040056519 -0.003432595022083453
-8.362594257619018e-5 -0.012477774759446541 -0.0033315348193097075
-7.089046912334086e-5 -0.010909025627053159 -0.0020693294506379254
-2.9829309651652876e-5 -0.010340050799869781 -0.000865202354936108
-2.904206067557961e-8 -0.0101632905609697 -0.00019560672578593455
-8.891165046542705e-5 -9.605450005530989e-5 0.00018932036945905337
3.7566835614000336e-5 -0.01401437869443359 -0.003306432970348892
-4.667206730297356e-5 -0.01366343291358271 -0.0033315183781415262
-5.695377796499968e-5 -0.011957686898794518 -0.003267276478919922
8.461809033183267e-5 -0.014716346206482135 -0.003377266829465081
4.721415262645648e-5 -0.011775459511336633 -0.0009165146779924327
-1.9174476659969477e-5 -0.01205183018548314 0.0005571113169843782
2.7004053716282925e-5 -0.012114542734544976 -0.00039794063437345714
-2.32922284407166e-5 -0.013155571458539938 0.000625026202816156
-3.908422100987062e-5 -0.012214598548806658 0.0011380579346317486
1.2233354396262097e-6 -0.03968093900459829 -0.004666520970518438
6.562495762732638e-6 -0.039052044877175875 -0.005996382620722853
8.638966333557018e-6 -0.03763056952154667 -0.006106574160406279
6.926610309643097e-5 -0.00819955173709125 0.0021161107874726006
-1.005114128963699e-5 -0.03790415691847048 -0.005980897173685935
-1.1260376978862456e-5 -0.03645659365264426 -0.005939539622341868
1.540461177552799e-5 -0.046226480779515196 -0.0037887035336182607
1.0886921587824035e-5 -0.04441028361696688 -0.0013809577424882045
-3.283867335776532e-7 -0.04893405610439712 0.0024437786172726342
-8.88963428116186e-8 -0.048829039673670555 0.002835206125679007
-2.4329351163407664e-6 -0.04046809008413259 0.0009349766375428948
-1.4101181808710733e-5 -0.027415861102987302 -0.0013763228090585174
6.1545109333588225e-6 -0.027188736141171687 -6.28782075474687e-6
-3.417022670095456e-5 -0.02702800258953713 -0.002169144384780305
-0.00014650052494128378 -0.022162073611243997 0.00537278674947321
-0.0001223261017079497 -0.02350812330590456 0.00544967685053805
-4.154794279926133e-5 -0.02766518916020758 -0.0033001918093692813
-5.5996704165071004e-5 -0.02687761555227985 -0.004323698057286988
1.2736694907962082e-5 -0.012200824261227884 -0.002827507548261737
-2.9425800903263516e-5 -0.011446932576199383 -0.00319430512758237
0.00011604885829974964 -0.0037220145348393838 0.0013061311791491325
9.639354782818863e-5 -0.004503117010848926 0.0016154109909026805
-3.406318841880037e-5 -0.007759966613807402 -0.0007745603157748971
-8.16063574738422e-5 -0.00876503116618396 -0.0014044197455812812
-3.911783660042875e-5 -0.003975241733451788 0.0013267546535352874
4.038778037424635e-6 -0.003336564183210737 0.0009005433038407443
-5.979109641125244e-5 -0.00981515717324686 0.0028960019474221724
-8.7628316754315e-5 -0.010323018367986356 0.002722697029995997
-2.7024941173028033e-5 -0.03203425522278281 0.003349953662208857
-3.740652815259114e-5 -0.031208785617252956 0.004289081297508604
-2.4268223342441975e-5 -0.030322445748129378 0.0025941086674149973
-2.3496434467458958e-5 -0.03257875890002033 0.004308722006141481
-2.1832529108180487e-5 -0.031094030039779594 0.0044328152580642615
-0.00010991649183685459 -6.696915275912313e-5 0.00013668670652587417
-0.00017459256154481696 -0.008995175810785157 -0.002974342661376415
-6.103980277169711e-5 -0.006900707770439731 0.0012144465661313377
-4.752589601670307e-5 -0.011305528542145558 0.0018776621668768478
-3.0099823719547908e-5 -0.0003947945981372558 0.00011991214728102157
-4.3581535613317006e-5 -0.00014491315867353271 0.00010707652338011688
-5.107133308513323e-5 -0.00024318170373567623 0.00011826917251215729
6.455344988788487e-7 -0.0003901874876060833 1.7094677543265183e-6
-4.6985299488963893e-5 -0.0005430828226177948 0.00014655269996687793
-0.0001094934179464827 -0.0002735161447844603 0.0002601598496687313
5.308079134723275e-6 -0.005348930053069335 1.249566539014358e-6
8.273194215866178e-6 -0.0045186009876577934 -3.352005347717814e-5
5.56164894035153e-5 -0.004804103153930992 -0.0005496431654022694
-3.6943202299583323e-5 -0.003970836503432063 0.00039865629249175163
3.7878441642045965e-5 -0.005260332900844989 -0.0005134915600081436
-2.5322030307779665e-5 -0.005135447536819351 0.0004804271956808683
-5.73587506521446e-5 -0.020937093144147594 0.005144659375648444
-5.430959749730269e-5 -0.021898806255931855 0.003812839425644076
-5.7813926170697336e-5 -0.020663594925400156 0.0037760049108882384
-1.9415569180039983e-5 -8.222201001164165e-5 -8.74308975225497e-5
-4.5410466500474786e-5 -0.0001681150219917528 -0.00019265181991515417
-1.4472346730265714e-5 -0.00011999827867612925 -0.00017189745150629363
-1.4328256235136994e-5 -0.010663938917182354 0.0028739491838365434
-3.764424184549479e-5 -0.011758572056369305 0.0039025972111645366
-3.8640317315983605e-5 -0.010872333962911002 0.0038856536424349245
-4.4379565995695715e-5 -8.567960395261556e-5 -0.00012115645894371894
1.0569447826136288e-5 -0.01149754577623376 0.0027661565061747606
3.7576833597740237e-6 -0.011650181809443428 0.003711498974934288
-2.740826298984149e-6 -0.00357811638483951 0.0001036436631416967
8.927354696906436e-6 -0.003093273629428421 -2.418631292159036e-6
7.566190147529467e-5 -0.0005805529031371134 -0.0003718182080579896
0.00011911939176960452 -0.0008872258368849992 -0.0008196416456217808
8.664864097787199e-5 -0.0008039608275719304 -0.0005354791115973598
0.00012030351984993541 -0.0006457703726932955 -0.0006884755009888636
-1.7584725270994473e-5 -0.009774595640079037 0.0023637049808710566
1.5662378248807733e-5 -0.017664844408589016 0.0007203614270630718
1.9825017468425697e-5 -0.019311944963516108 0.0008421976973232071
-7.803374876596454e-5 -0.00256397151108397 -0.0011510630313352984
-6.869677594287848e-5 -0.0019297262758290266 -0.0006134671395176967
1.0059061861607765e-5 -0.04203198744263493 0.003231499254463168
7.540869931961258e-6 -0.04197706732483761 0.0013043146941044183
3.833261886300682e-6 -0.04629823960353564 0.0017973791204164507
-7.747804579112494e-5 -0.009989634343470825 -0.001994987806699019
-5.712173744660686e-5 -0.009865618052996114 -0.00238792884955292
-9.484696046938571e-5 -0.009223859853011638 -0.0029146123323202915
3.897673839797057e-6 -0.045555239720043564 -0.0004099820516784681
-8.190137818357657e-6 -0.03718154476382149 -0.0028441634337495205
3.9923382798092626e-5 -0.021806701232424373 -0.004199318230877384
2.4309978689551876e-5 -0.02057524931756481 -0.004418396605016871
-6.299643395271119e-6 -0.02063779641388787 -0.004361667507555185
1.4176613303251427e-5 -0.021246811921191208 0.0010415658057724919
-0.00011100298576594875 -0.00013326485200787757 0.0002178030259069933
-1.8503591412740963e-5 -0.042093271786586096 -0.0062693802998351955
2.1285501224404507e-6 -0.012477656061461215 0.002701257575954409
1.132189779978544e-5 -0.010311499157332637 -2.3556892635798498e-5
1.024014614901308e-5 -0.038349885898817014 0.001232175467394042
1.4318476058693074e-5 -0.0385783114438242 0.001452760715538723
2.189555688093983e-5 -0.037950933663442626 0.0025843425874409074
1.320020345705214e-5 -0.0365450887293835 0.001092884308513956
5.8270420668659e-6 -0.0365822728370794 1.1820253823427605e-7
1.5209018032037987e-5 -0.03625268453790123 -0.0010027870681898234
-2.7118996359290442e-5 -0.037218226425466454 0.006071202836083395
1.0326031151887658e-5 -0.04013563912950154 0.0014516012166305226
1.3120013456867038e-5 -0.040614299277502965 0.003031085110164846
-1.4712577917560503e-5 -0.0016032262548268024 0.001146847692056628
4.570958289509461e-6 -0.0019930612535898748 0.001122725052561082
-4.1305595232935225e-5 -0.0019809331791727693 0.0013093216444549504
-7.422317397281873e-5 -0.0016433149559772103 0.001167537798628063
9.149513733254858e-5 -0.0003332937010173582 -0.0004938098814626939
-3.573487421938532e-5 -0.01415547614507253 0.001454353220344425
-4.782914227343632e-5 -0.01523351368878234 0.001809762483426035
8.98174909954907e-6 -0.035613081200064615 0.0043679032036357595
-7.187346343724025e-5 -0.013386352706997444 0.0022605820185607746
-6.751308467978387e-5 -0.014393946953746229 0.0017479079538915304
-8.467675499325742e-5 -0.014210270132179027 0.0026255571188945302
-7.238411595855167e-5 -0.013156043354342114 0.0016870939251827587
-1.3040695775910086e-5 -0.015231230447905286 0.0008397604795622189
-5.605688272472476e-6 -0.023317502375222832 -0.004301132238614104
1.417831275957452e-5 -0.02361316757334723 -0.0033153124843465047
3.08945698861367e-5 -0.0026091191763655797 -0.0010047040223220417
5.2160614441089976e-5 -0.011611215541731707 0.001157912013618611
3.222507573853818e-5 -0.011592974780231321 0.000523728352075221
2.6838912833601692e-5 -0.010602344340243038 0.00046026869853005086
2.2134443566716142e-5 -0.013377056187223743 0.0006399113200020991
6.560877650853175e-5 -0.020994060134470197 -0.0037236570931115293
5.364502177706884e-5 -0.021335290070604317 -0.002043949715859826
3.6519812064126345e-5 -0.023010444473958832 -0.003269219334329653
9.037602015313881e-6 -0.045767408597118676 -0.00354284491947396
7.4002021509231756e-6 -0.04685574579107971 -0.002189908095614243
3.1424968451209862e-6 -0.04456328935891734 -0.0014051864633046224
5.8786021572066074e-6 -0.04565174916756242 -0.0039020868411482894
-4.147790866960899e-6 -0.046634804049969315 0.0032836442656095114
-5.248520477236067e-6 -0.04356528504704513 0.0018997598635475742
-5.3293749536621225e-6 -0.04494057665840441 0.00235480043161007
4.3548961511457484e-7 -0.047540824041942695 0.0017254308864889352
6.676194538853652e-7 -0.04757323605526128 0.0015689839542295427
3.50719268448371e-6 -0.04504303376469728 0.00043073923561574916
-4.9985496192513174e-5 -0.019433376260549487 -0.0025720590221991572
-8.044648944580117e-5 -0.01951991205335342 -0.0029537217292253544
-8.25163369324122e-5 -0.019365253963857798 -0.0037058807262356206
-7.660031312556464e-5 -0.02063643879918752 -0.0030693363387083055
0.00010673773726751762 -0.004753513166478134 0.0010850981457642724
7.131599891720552e-6 -0.04362892067222664 0.004686235856756497
6.683534402563315e-6 -0.04542422446562481 0.004214482304351015
4.4073994212653185e-6 -0.0452181043374212 0.005263705878791902
1.2078287461855479e-5 -0.04232673610424245 0.004488163650079336
1.0402298147756058e-5 -0.04409643155656163 0.00495381826402418
1.528582405907991e-5 -0.043607426839533475 0.0061441980580196984
1.0734017649629328e-5 -0.04240229906018939 0.006023954188827862
0.00016129964385896766 -0.0050378341734481505 0.0021303383978039047
-8.105852506141515e-5 -0.024945847907812884 0.004373972424370079
-7.419233798257194e-5 -0.026077743435833526 0.0055489012093671766
-0.00010401496541407501 -0.026047006402725194 0.005629708275074201
-0.00010353091289501167 -0.0249646343482275 0.005521516651146796
-8.85688179399317e-6 -0.033358769908966496 -0.0022726064082547928
-1.0035807580775993e-5 -0.03210090516505845 -0.0023525496458001037
-2.1728211771377377e-5 -0.032972365657332206 -0.0030622492806902835
-1.2114959166288012e-5 -0.033862706634865326 -0.0036753659436397257
-3.4863481747003366e-6 -0.034076948800049175 -0.0011741568547403115
1.350955714812594e-6 -0.03287445802398404 -0.0010862013393468707
4.299114787685722e-6 -0.04644711930422699 0.0008998215900322562
4.450590367193229e-6 -0.04491728955670393 4.1027426467049905e-5
6.453475598008215e-6 -0.04520637102426017 0.0010639172653199983
4.274614338977436e-6 -0.04766721430827143 -0.00033011969150771467
3.960543336416099e-6 -0.04730451296521689 0.0002666200231480948
2.326982082121394e-6 -0.04778567907225994 0.0018520311929018274
4.215735833259901e-6 -0.046398784872188244 -0.00011327374361579417
4.455638378892297e-6 -0.04673943128314623 0.0003419375285084426
0.0001661776510591657 -0.004128718800550873 0.001901490853404394
0.00020596034560165153 -0.00031272866705357597 -0.0005516446231203818
8.390340269705928e-5 -0.0018283248577392133 0.0008060721754184402
2.7884911880025404e-5 -0.005161515681557209 0.0004686192358818235
7.220532984955945e-5 -0.01239177286869496 -0.0024700507301797106
9.015950425209546e-5 -0.012372764928379071 -0.002217335012422038
1.62716144340339e-5 -0.04637498259646302 -0.0035333198262961223
2.120751152134428e-5 -0.04524086209679779 -0.004945362807791546
1.3120027552712019e-5 -0.04755581439326531 -0.003961966742073662
1.995196284432122e-5 -0.04665211523617181 -0.004976867276121249
1.6531401687750683e-5 -0.04647065906895483 -0.004963027352269488
2.4384874714502218e-5 -0.0451851765435541 -0.004695836199925802
2.880938094118918e-5 -0.028551640225499258 0.0024311315035031003
2.6270211300321056e-5 -0.02948553039640556 0.0035752892465472867
1.6929195180454945e-5 -0.0286248259731356 0.0011454131157373642
6.465415954775637e-6 -0.028282567162304897 -5.621263935195707e-5
0.0001349004027094363 -0.004106440783571915 0.002010633891783123
0.00013018342876599138 -0.0035275279005406706 0.0018805774359345164
7.779131852675178e-5 -0.004154616894716565 0.0017867595141074705
5.4079821956216044e-5 -0.00395524703791812 0.0020114222606754375
-0.00021137819414503392 -0.005823050899694568 -0.003078863801089031
-1.280584046935167e-5 -0.0002229944570150642 5.169770891463095e-5
2.262040536111778e-5 -0.021382301590272424 0.005216452362396645
-1.5135049107247067e-5 -0.0022195456568585327 0.00014424827547212198
5.669268037893654e-6 -0.0017527699074894629 -2.326763113083055e-6
3.4729456844817854e-5 -0.006208489225364176 -0.0006354791961781448
-1.0730335115556653e-5 -0.04214584671617174 0.004781511475413738
-4.821232724362862e-6 -0.04165031213556255 0.0060912498687467394
-9.834179500877554e-6 -0.04260982953138435 0.005992070876326557
-1.9746615315082524e-5 -0.04141128775757854 0.006033864443861779
4.916377542630977e-5 -0.005222769114913365 -0.0021212858045001398
0.00010782109210334941 -0.005753517971048869 -0.002190001259795036
4.4084560879226696e-5 -0.006153779965161539 -0.0024346342235161116
0.00010411268112552292 -0.006443339379636106 -0.00231676579021855
8.983402647409653e-6 -0.04759729444742192 -0.0036559245315791844
1.1985061599869672e-5 -0.04763129382861777 -0.004961163600487438
1.4206825456427198e-5 -0.04633869538032398 -0.004941468239674476
1.2937696900425605e-5 -0.04636127745514365 -0.006019908841211416
1.4042832255261937e-5 -0.04482219103785406 -0.004896965410910877
9.076371295404676e-6 -0.0451316371487651 0.006035803717583687
6.381528895490726e-6 -0.04636943697724114 0.006121290244073648
1.4167147232912543e-6 -0.047012913610533384 0.005380858606321604
-1.2552903261033953e-5 -0.03234241920849418 0.0014274648156470332
6.5692679597539435e-6 -0.03209463040670353 -2.401472352481833e-7
4.828460090995832e-6 -0.0003113885241384547 0.0004244241801706842
1.9711290458664815e-6 -0.00014602376470892553 0.0002180868607719871
-1.206466771009479e-5 -0.034331967639805325 0.0021621427825872265
-6.085930084498791e-6 -0.033725794597594734 0.001076050973570064
-5.465873380679098e-6 -0.03499477425439937 0.001085290731563227
-8.423415082407186e-6 -0.02085062900688432 -0.000527546519854343
1.9118693954007474e-5 -0.03406023797983327 -0.0011662689109439251
1.3660014383288461e-5 -0.03388173021270952 -0.0009746301133925531
6.357977685926244e-6 -0.033508351020613385 1.793482210058745e-7
-3.405702002519391e-5 -0.03290658334058466 0.005896409826866893
2.4136614011154484e-6 -0.04755035047913525 0.004798167077623916
1.1373696740714085e-5 -0.04578928169208981 0.00519870010455171
-2.2773492470930256e-6 -0.042998684684525605 -0.00198284415363985
2.182389270826911e-6 -0.04312476001806887 -0.0011417756450433007
-2.1142609184722053e-6 -0.04402735516772367 -0.002529069122840614
-3.885467018404367e-5 -8.375406351275896e-5 6.280053705044564e-5
1.6555281378627517e-5 -0.04105231659126161 0.004503123031108392
-6.828618290955987e-5 -0.02411104967269973 -0.003218902706221899
0.00018561976037531237 -0.0016709280057790462 -0.001585070827281723
-5.807784956281208e-6 -0.030490632847453746 -0.0008448722369498992
-1.0449485825690635e-5 -0.029736976033835266 -0.0014075007051829957
-2.059457234157568e-5 -0.031405635451020555 -0.001926128294498999
-2.5031863519072363e-5 -0.029956327168810415 -0.002015362298299101
-1.2308277840198847e-6 -0.041960247711443424 0.0009396395621711038
-1.508322163740314e-5 -1.563506529578799e-5 4.975099421862999e-5
-0.00020413022438498898 -0.006748927098645857 -0.003303503131644569
3.4335937453972653e-5 -0.013652349434613012 -0.000567871582997135
4.202652621133512e-6 -0.0015973582167609838 -0.0012028712508500774
6.372506543355701e-6 -0.0021054603239290142 -0.001200367825132472
4.376620351428673e-5 -0.001931618211185285 -0.0012631740129257808
1.268028362719983e-5 -0.04916977028181559 -0.004983306064914931
6.917378544084618e-5 -0.007112937572277543 -0.0014890725937870208
2.7861278159554024e-5 -0.007221961198478704 -0.0006543831205189206
4.1944345300338876e-5 -0.04293971490150815 -0.006160935737151805
4.700992069217229e-5 -0.04332211138689902 -0.006260279708233301
5.603045334672661e-5 -0.00023868336161879644 -0.000124093621813623
0.00010563986435054891 -0.006437772328923931 -0.0015495840529383459
4.7509638676782524e-5 -0.007674984458560694 -0.0007596333429161778
6.561579612594471e-5 -0.008053731624436459 -0.0014516689747253524
5.711729214543894e-5 -0.006856704172872875 -0.0008472187944482462
0.00011405842443166891 -0.007377456300658339 -0.0019043723709322223
1.8746522567917e-5 -0.029259897674556515 -0.0006938059182985463
2.6447682025527037e-5 -0.030592850863829978 -0.0014062845301809985
-2.4298031723931306e-5 -0.042074127452445854 0.003855575258562429
-1.2388327822695634e-5 -0.04230337726389745 0.00239895788820002
1.7128840884977777e-7 -0.04654417747506149 -0.005341780020884973
3.0414679434689778e-5 -0.040110740303296526 0.003815283858425533
-3.673983699955788e-6 -0.04909833077573877 0.0037862281612808073
-2.1469038940286214e-5 -0.04156784661795693 -0.00503028711438494
8.47512524264481e-6 -0.009503720082189904 -3.382127154473832e-5
-7.433215394931434e-6 -2.097642882978366e-5 -5.207311581935394e-5
7.008723290602874e-7 -1.0832573339542074e-5 -2.2943044037768112e-5
-3.650095561355744e-7 -1.9428800192319494e-5 -5.334267529795453e-5
8.112848841333312e-5 -8.044204801551928e-5 0.0001247825954209178
0.00010257292926708486 -5.968302525096166e-5 0.00012034638832062555
7.03903599840591e-5 -3.9918689720640125e-5 9.788900201132262e-5
0.00016423788282175447 -8.62097218269519e-5 0.00024409778108712727
-2.0358499027052446e-5 -0.03980764813548334 0.004512071794315741
1.4981513830532951e-5 -0.04505583654885951 0.006312798379269509
1.9933775707893112e-5 -0.04481974266187237 0.0062882059888410766
1.7742055390838296e-5 -0.033237541651248516 0.0007365140651541898
-6.450716877614192e-5 -0.0113278976959048 0.0017653984687322605
-0.00010687812598008578 -0.010796601899678213 0.002598144770609926
-0.00011772333824915859 -0.012102039580175654 0.0030759344554546183
-0.00012940475507964788 -0.011135213415391908 0.0025197393007458163
-8.015004867124707e-5 -0.010358697212522552 0.0015597323068143626
-0.00012485150156494533 -0.012132711767201316 0.0026073965921054507
1.989983566079534e-5 -0.03431410925055359 -0.0008850917746003837
3.7236192370745785e-5 -0.03372459565949921 -0.002055209909595387
-6.489198566733986e-5 -0.030073848146144635 -0.00453753311014573
-3.1368660495104304e-5 -0.01111972503609209 0.000835099389444359
-4.6112085886756774e-5 -0.010091308050199154 0.0012385829384547456
-6.213396323840929e-5 -0.01563120450851818 -0.003470184536949933
-7.87600019335109e-5 -0.014999100039541965 -0.002690565038974504
-3.858608745323427e-5 -0.01481278400267993 -0.003247154783817173
-6.995331157412548e-5 -0.028718302424118457 -0.004442532891625344
-1.9664178947565428e-5 -0.043634999873657064 0.003946688236599123
-2.237709806743944e-5 -0.04506716527086525 0.005320221213505039
-2.960911329234514e-5 -0.04354577546479594 0.005312253269098717
-8.043839499494259e-5 -0.027362360236793205 -0.004694738920111203
-3.986773788003234e-5 -0.03014184159203691 0.005787563747929021
4.7058226535557297e-5 -0.0301011373321827 -0.005735159561657529
-1.567855018356285e-5 -0.04565317713348498 0.006249418920013718
-0.0001715040812167925 -0.0004690434650821865 -0.0006309096877153506
-0.00024902343896366177 -0.00037834461409300124 -0.000643677444572331
-0.0002405981145032052 -0.0005716897876168258 -0.0007722237375514298
-0.00018360524404493803 -0.0003117028182453743 -0.00045681128428308454
3.052533159257332e-5 -0.016141328897495973 -0.004683474058825803
1.283431466526505e-5 -0.01483899935232816 -0.003966647876780248
-1.409080927637622e-5 -0.016033812300676818 -0.004622137562787997
-0.0002907169683266023 -0.00044239632180645985 -0.0007925001483917899
-0.00016392027235519733 -0.018691542312302696 0.005012606701671852
0.00023439389852999683 -0.009178843316569249 0.0037840748681665366
-5.0775327072685485e-5 -0.014536932997070614 -0.004412617875397387
-1.9212502211598332e-5 -0.014179747778783142 -0.004343853608522857
-6.321100400954911e-5 -0.015527631901343016 -0.004500780404984619
-5.616707064778247e-5 -0.016742546619903396 -0.0046570667482819005
1.4457943525304005e-5 -0.047961669889049284 -0.006301128073419635
1.1134281985355075e-5 -0.04891932928951303 -0.005173701059574041
-0.00019678186564911325 -0.009091690412076341 -0.00372969441949647
4.151682668546569e-5 -0.01287477116542842 -0.0008562382390722826
2.862016172753868e-5 -0.007150250969961472 0.0032806453898309323
0.00018692756663651482 -0.0012926139800253167 -0.0013687962251311221
-5.786322008201974e-6 -0.030836780850270338 0.000939416714774375
-5.102954911472062e-6 -0.029452286782486157 0.0009281824156643812
4.7909074648452396e-5 -0.00957781125750586 0.0010138652229086723
4.109553131295143e-5 -0.0002559751978555144 0.00010640209421465154
-2.357756170701684e-5 -8.885326284223304e-5 0.00012085705920110425
1.6985498048537065e-6 -0.04789454020689998 0.006337214162422121
2.9582758968882296e-6 -0.04900600578195534 0.00048489138717119174
6.494564588344307e-5 -0.037153730011209876 -0.006041620874438729
5.7490610707897197e-5 -0.03891072368247494 -0.00599393561238992
1.9736106116956326e-5 -0.040115316232883134 -0.004983926899641894
1.0942075688608346e-5 -0.04213605973343006 -0.0061762926833416575
-5.796614226312814e-5 -0.03893759613354875 0.006160388538519171
2.143311950997798e-5 -0.037710156685085774 0.00321740857175755
2.1643600688909962e-5 -0.0382931701313379 0.004379634524206285
1.7600998178769357e-5 -0.03931204585503047 0.002506821788227166
-9.953414719018194e-5 -0.02738641074132127 0.005711761202928114
-9.243130756826962e-5 -0.028740458626298756 0.00578956804236461
-0.00011470493732594679 -0.02754702159545125 0.005701096800889263
-2.297241049119429e-5 -0.0267794975840397 -0.005600079331112375
5.115837882621548e-5 -0.0011641708879886253 0.001261296946656706
-3.0725287109236526e-5 -0.03215536893583895 0.0022787897352985016
2.5596518390934285e-5 -0.031460350339104916 -0.0011431470020009922
4.725062105626554e-5 -0.03210769962852124 -0.00245900776045309
5.0780361005926655e-5 -0.030707268889671437 -0.0024315893363105845
9.219792551832445e-5 -0.028724355580043843 0.004886402098105898
1.7524803473590432e-5 -0.04133424847383305 0.002389155964264558
-4.471961495625717e-5 -0.004099124951650023 0.0020192098087202775
-5.101375408504547e-5 -0.004724540215456865 0.0021114901769035467
-0.0001425186360527363 -0.004857611416602695 -0.0016221835576072517
-4.731663300420137e-5 -0.0038823126091101765 0.000629053240780671
-0.00010813690871872483 -0.003953509857451525 0.0013733432351164974
-4.671320067532214e-5 -0.003483176270826731 0.0018448822496810431
2.8332083974160004e-6 -0.0034952236424360362 0.0015375086455866127
2.915723063552376e-5 -0.020907366447516798 0.0007806041516018331
0.00010073267159541822 -0.01959877372760655 0.003131582953296398
0.00014410657828068798 -0.018443591915705992 0.004238091409641867
0.0001010368811724151 -0.018259440168671936 0.002987952309468158
0.0001943915244178613 -0.0005388175381040848 0.0006010260169896984
0.0001624504756129725 -0.014998644014716412 0.00392395321693239
3.4892205245063645e-5 -0.008374196873899663 0.00040531426244179333
-2.7756915353277174e-5 -0.014423209704230486 0.0008822945164776195
8.247460151974881e-6 -0.014486015109086188 -1.4921052796487771e-5
4.142057972211475e-5 -0.006429288868546732 0.00044346088019275566
-0.00014490827398822004 -0.004207703669882947 -0.001455227042016685
9.933139802236065e-5 -0.007989622625522 0.0014042832771906295
-0.00012649770508314906 -0.009871876861876972 0.0037527460435100193
-2.32171218966272e-5 -0.0025480497908374755 -0.00017553957930075504
0.0001752953964111862 -0.011760845340857617 0.0034363064284107145
8.034226207351154e-6 -0.014665549678395852 -0.0031224083264323353
6.7850571777862774e-6 -0.019610257332514116 1.0445644908726769e-5
2.607162355216563e-5 -0.020278777273426248 0.0009260828989628478
6.5862055634253585e-6 -0.01934718470468681 -9.840093993482598e-6
8.959782693959942e-6 -0.02052937980312856 4.3953000755686133e-5
0.0001308628528115357 -0.012804710106386662 0.0026643916792616178
0.000168358204312364 -0.012786617905887131 0.0035542284813612885
3.512131215751466e-5 -0.016118973660814346 0.0007024230318831726
5.661869918455693e-5 -0.02464721161536916 0.002137658319043436
5.1302627906105465e-5 -0.02577241206620292 0.00214543395618526
0.0002735744925911486 -0.005133924164820786 0.002915559221944836
-8.244869059647879e-6 3.586051599573009e-6 -1.6317953837660765e-5
-1.15009954852368e-5 -5.926390136435732e-5 -9.959176121007759e-5
-5.504162390351065e-5 -0.00018518408137604975 -0.0002813374653618307
0.00012348269523664542 -0.0002844611735844966 0.00029494030542492905
-7.799728480211622e-5 -0.004814350555130423 -0.0009213530690733982
-0.0002132027385282937 -0.011054379352779331 0.004084259471298778
-0.00012928094276473204 -0.00638088211857794 -0.0017393958853802447
-0.00013535349071484298 -0.0070681869754262465 -0.0019569939512881847
2.3700758815679623e-5 -7.50489285528859e-5 0.00010611438725177825
5.483447630067245e-7 -0.033395146303763 -0.004267901802542535
-0.00020199070010323448 -0.008138585001995326 0.003598469785085993
-0.0002434525651263662 -0.007429681373032211 0.0034404567155557767
-0.00020864698733909058 -0.007301745253743979 0.003429132650420317
6.857011047838007e-6 -0.004920491764817126 -0.0025015268985327387
-3.236981159231542e-5 -0.00447072505071635 -0.0026842751313724
6.524905948333058e-6 -0.004292005757642372 -0.002383852851706153
0.00010292615898782868 -0.00795831585856544 -0.0034267815680587258
-1.7230296388491196e-5 -0.0027129944156161017 0.00019178380573660008
-0.00022634804187311952 -0.0005270826269107893 -0.0008112396308731547
-0.0001042690108538269 -0.003222949978005445 0.0009001425707836658
-9.695469028361867e-6 -0.00026086456108072314 -2.8092891739066308e-5
-0.0001787631856620121 -0.0007201140323750053 0.0009576883900620427
0.00012517326046330795 -0.002667408616745631 -0.0008725803731724375
-4.7205782419947224e-7 -0.04801476933196127 0.0024192945628502675
8.523297125753137e-7 -0.034179857337856195 0.003863735712686992
2.42574560677216e-6 -0.043942336496005215 -0.0009032898851724384
2.5585650977946853e-6 -0.04296907477631071 0.006070007576896233
-1.0612285296231802e-5 -0.03851680167580402 -0.0021294330266590404
1.3914940763497839e-5 -0.049063237083591414 -0.006329782055685322
1.3444797088418666e-5 -0.04661362323779238 -0.002747913402900059
3.179439071363548e-5 -0.0031593344835438926 -0.0002059243415898167
-2.845219129594763e-5 -0.04022601282535417 0.004813674183374438
-2.7746051734365068e-5 -0.04139814894748919 0.006063016927311447
-3.883285196114117e-5 -0.04158564062643458 0.006259326191081173
-4.487439268004453e-5 -0.040116174300049864 0.0062278818541456156
3.04457578185882e-6 -0.03286005740358994 -0.005917328834734603
5.9277202555492265e-5 -0.03170114252449362 0.004681685204948789
5.918180032329576e-5 -0.03060465774040219 0.005809794943831652
8.213202048224873e-5 -0.030589694026295845 0.005884048737397091
7.644555394061127e-5 -0.031986012128458696 0.005950132816737659
0.000163822933457368 -0.02123606848668957 -0.005294920038355618
1.7385056769257434e-5 -0.035721272212508225 0.0010744729239507054
1.4076649571896775e-5 -0.034805945648270754 0.0006498906271249957
5.7970225058380836e-6 -0.03544101232846765 -8.950897595908476e-5
-0.00016047543824073 -0.010646413500258283 -0.0031895003830473352
-5.877261601302296e-5 -0.03150513409668893 0.005847506132317032
-8.303721636635329e-5 -0.030360039160790116 -0.005847120500165646
-8.234093553369129e-5 -0.03173108560564103 -0.00612835420871669
5.6969428922646495e-5 -0.0262017059314769 0.00425306945724526
-9.569093716199776e-5 -0.026565582033697292 0.004561669259913839
0.0001224148712963311 -0.0031926814653501735 -0.0012474778982383755
3.930349331624446e-5 -0.019199382571919204 -0.0048010594932905585
8.477263155852692e-6 -0.03479894512738962 0.0060525375267525975
2.6034477987601355e-5 -0.03506990181240538 0.005844091200108645
-0.00010312917194530753 -0.005093427706666035 0.002834167506889339
0.00010084184657094859 -0.018930695899372126 0.004987572966251915
-3.397284226023944e-5 -0.022978168153274144 -0.00537466556658664
7.794468178117502e-5 -0.01109496886052639 -0.003307433053479745
0.00011167747468036124 -0.010217596164072862 -0.0030294927809891184
0.00014859925860325526 -0.01029560514088204 -0.0039292706983184225
9.881113354261399e-5 -0.010330211091913654 -0.003921582011002681
3.421664576312849e-5 -0.011382193579697648 -0.003053695572538388
-7.107783675271722e-5 -0.012407867540226348 -0.0041691269797711605
-2.1763698666541232e-5 -0.01658794297536724 -0.0007488623339071095
-5.902148548593572e-5 -0.017021017345894007 -0.001907958908199108
-5.2152632981818156e-5 -0.01591655470099484 -0.001570184477008408
8.750741251785e-5 -0.011557776173439593 -0.004092479883127448
0.00012396783697425146 -0.011750676765492707 -0.004074336022318024
5.043720835625338e-5 -0.011165796560361985 -0.003853079580127134
5.281005386791536e-5 -0.010397848649799294 -0.003068988342879649
-4.6615048024861245e-6 -0.04905405527525089 0.005608898929622888
-5.697709786657213e-6 -0.049003617734167726 0.006329638580318688
-1.627074181449951e-5 -0.01874570659442064 -0.0007242085252837984
3.6470575009386978e-6 2.5663532409438364e-6 4.632692559841979e-6
3.471005496742094e-5 -5.0535577765140834e-5 6.90514281569795e-5
1.9255713226704436e-5 -4.305916065710942e-6 3.783670793540864e-5
-8.266811888961682e-5 -0.01089948763410125 0.0039691193142617
6.959756623666383e-6 -0.014716942011921681 -3.0874292983868994e-5
-0.0001281348618192572 -0.00797929647846421 -0.0020234510652843247
-1.961570669965582e-5 -0.01613973760602763 0.0009057983058946925
-1.1374876393330956e-5 -0.02637466537354145 0.0008367005415558191
-1.7535990234147458e-5 -0.023020044077113912 -0.0011021743641627371
0.0002512600257381891 -0.008259018243736283 -0.0036128796630075987
0.00025875178767982744 -0.007531680604756206 -0.003491495962302732
7.78645460147595e-5 -0.03541907522022248 -0.005334170026436459
8.565878802689767e-5 -0.03335313764907521 -0.005073763457713992
9.32316323927401e-5 -0.034567457728444294 -0.0060699163249832095
7.6549070324301e-5 -0.03437843852120763 -0.00597527677890194
0.00010549168195490384 -0.006846656540510006 -0.0032458859419108245
1.489898080500702e-5 -0.030843976492278297 0.004717884938553634
-0.00023019285713069432 -0.0020163434544203255 -0.001445683153602243
-0.00017632233897290158 -0.0008501196833265086 -0.0008409591717614416
-0.0002553788688474333 -0.0007441443452782857 -0.001040453644044975
-0.00010552692518403075 -0.0007597061841200474 0.000971478096939901
-1.8783946228523496e-5 -0.03010435417664039 0.0015930846972728601
4.074655905505903e-5 -0.027989027622122742 0.005529869604557397
4.690423572983167e-5 -0.026608191619021893 0.005600901891941147
5.749912812668484e-6 -0.029442041427647406 3.680330691000847e-7
-4.306854529085454e-6 -0.030156698019991296 0.000620551579013615
7.634928611715575e-6 -0.030830043826800293 9.016611750986243e-7
4.693369651314851e-5 -0.0011226699716317158 -0.0001902359987036241
-9.922389093915579e-5 -0.002384083211702073 -0.0007188707292211769
-3.1064767163888585e-6 -0.03147929900424439 0.0005123101893065638
-3.442661522206927e-5 -0.030635842482921317 0.00225233867939792
-4.5525393230544517e-5 -0.029563815365514813 0.0033683770815803277
7.738446282468673e-5 -0.02527231128574841 0.005415214887103025
4.645543114280568e-5 -0.02539352278214136 0.005341732620424039
-1.511964973914206e-5 2.854764074496387e-6 2.8197480787824007e-5
1.4829321410803998e-5 -0.025647360430961757 0.0055223769390951765
-0.00012111813111916757 -0.00032873923213500337 -0.0003808717978794809
2.592972715025617e-5 -0.03371956794445357 -0.002152187863938397
4.7915783477301656e-5 -0.03307736888212916 -0.0033178676307477764
-6.361193278120762e-5 -0.0004966983142842147 -0.0002472396595450724
3.119844761636887e-5 -0.043860925875077623 -0.005038437234050583
3.344468037864063e-5 -0.0005329732260664124 -9.969968068591158e-5
-6.991245039476257e-5 -0.0001521901128088565 -0.00017047568526775878
1.7083148386928178e-5 -0.04797947406123606 -0.006267103984962922
2.231172748796081e-5 -0.046549445807165635 -0.006243007249277897
2.3304783925887145e-6 -0.04892892585169692 0.0009925690405672776
-5.036718337878398e-6 -0.0443522570725067 -0.003766051370188417
2.3725285048116136e-6 -0.04660258628119241 -0.003935582825051546
-6.052621595688693e-5 -0.0003068502423198886 -0.0001983109553354441
1.2571354721947974e-5 -0.04900166321698934 -0.006328057777436066
5.779975085956907e-5 -0.030492807802782674 -0.0034706393280637795
8.875955889272321e-5 -0.012892841883116221 0.002369221296931285
8.36484070810012e-5 -0.01184976251463702 0.0021464107345658626
5.625545841949208e-5 -0.01284411886503933 0.002223371092760586
5.5302518406992525e-5 -0.013555245183381207 0.0032116964677591908
6.299277738717236e-5 -0.012503866241417045 0.0032161023995792098
4.1435917808628725e-5 -0.011837059919767207 0.002398363850584355
4.4757308762234617e-5 -0.013547515403547972 0.001620212060666029
-2.2007566948649786e-6 -0.04892936493134867 0.0038800438819147163
2.4812452211269945e-5 -0.04652394500800105 -0.005337251359833302
3.24856120131106e-5 -0.04503182601538178 -0.005326329159424104
3.972718628713749e-5 -0.043545286283917205 -0.005310577721408044
3.86564592940055e-5 -0.04481452572122233 -0.006283949074913278
3.2988894147145834e-5 -0.04159001547609544 0.005282792132103063
4.390928312275847e-5 -0.040419685132790505 0.006211107340337913
3.9913832742325084e-5 -0.04011830451338648 0.005256083305753035
3.5268020110812967e-5 -0.04442156467303664 -0.006182845736213804
-9.071698713214828e-6 -0.04387207890354155 0.006121788826012274
-4.702461841185242e-7 -0.03880614690980885 -0.0014953454193122214
9.938647725908682e-5 -0.03334437035275362 -0.00600852261394527
3.3425841599375026e-6 -0.049130884796637464 0.0006054521033636105
-2.571196149410317e-5 -0.025252850662716295 -0.003048459522645644
-4.389886292999859e-5 -0.021520436536886216 -0.005111374996661557
-4.3347442596338374e-5 -0.022356845645722143 -0.004533902989279066
-4.623733350330361e-5 -0.021322133649644054 -0.0038372582018094087
-8.552009295531317e-6 -0.01948070413927237 -0.0037982157652087143
-4.318774340152216e-5 -0.03495908231880932 0.0036282499052937623
-2.5788648389765213e-5 -0.0347898381395189 0.002320315567969314
-0.00015074242371665772 -0.021131124818140706 0.0052320502136539325
-3.180643375204244e-5 -0.014084095161513162 0.004434974570069743
5.654667584548444e-5 -0.02796706742885935 -0.002368868303256782
2.786890873510218e-5 -0.02436415440304323 -0.00537997925384791
-9.505271907679312e-5 -0.018708332811785928 0.0030514190385040264
-2.0668906174791572e-5 -0.014503824729268951 -0.0006668440774423095
0.0001973848139901996 -0.01610865346554663 -0.004804641886684902
-9.304308726773711e-5 -0.020621625033510678 0.004781393175466576
0.00010610114007619461 -0.011140203281463147 0.0031822168909643985
9.699299542051642e-5 -0.012159764568855687 0.003274958347403833
4.690651301162496e-5 -0.011599811858824373 0.003237114050197218
8.597519235393869e-5 -0.011280159057270029 0.004078814813661588
0.00018469083655888078 -0.0027015125598234416 -0.0013493867482505663
0.0001963861404025924 -0.002152243973286767 -0.001229219111783597
-0.00010308155045876158 -0.003402378783741564 -0.0009440850927098395
0.0002812925642491931 -0.004997041131794318 -0.0028701947895575603
-0.00014543893689510277 -0.005532910290340274 -0.0018114801621090216
-1.6469878972830245e-5 -0.008470917583652319 -0.002651368219978736
-1.4152257705822774e-5 -0.03655252864124142 -0.004444202968788482
-2.2771441641396467e-5 -0.03782660293353926 -0.006049632329589987
1.8726825918425306e-5 -0.03259109084308822 -0.0010388800568037018
-0.00015751610857629616 -0.01325672623302016 -0.004421506688304746
-0.0002862444570740351 -0.003181228362771117 0.0023151296108886842
8.840347822887295e-5 -0.0005188380036265938 -0.000716827700300758
4.8223144011637145e-5 -0.0005060372655939293 -0.000690350871714522
-1.1018940553740754e-5 -1.912258948698031e-5 3.750253736692566e-5
0.00024102559893730073 -0.0021259803978975196 -0.0018514278711228534
-0.00010288701334505464 -0.013724874861609017 -0.0032372363572189962
-0.00013984083663727022 -0.01391621651135301 -0.0034372913450981357
5.279246017853015e-6 -0.048844603758226274 -0.0010445412112595938
3.399031609415716e-6 -0.04880927095538469 0.0002914357162415255
5.388870959333506e-6 -0.048722395521755134 -0.00091710734818137
-0.00015121721781656794 -0.014352684952664433 -0.004533541730588392
8.256298729507394e-6 -0.04798270054059308 -0.006339464897295686
7.44711645381307e-6 -0.04803612611853732 -0.0033908588345646314
1.2652111792913661e-5 -0.04902183552840293 -0.006311181974062343
1.1207014186467234e-5 -0.04906205869855777 -0.0035599109489967465
1.4132965732433466e-5 -0.049215117438983706 -0.00653424493170067
8.634212142374333e-6 -0.04902830676211332 -0.0019365674072139118
1.1534707215660859e-5 -0.048942741629376806 -0.005327939251628256
6.279566050043731e-6 -0.049274728475135206 -0.0008323383604382305
-4.885792695002637e-5 -0.01904045271802266 -0.003269829129691681
-5.218657118923589e-5 -0.02029017513641136 -0.003313001443997464
-6.760334317157458e-5 -0.01933800907594581 -0.004327924393135793
-8.087997208643508e-5 -0.018233334060614937 -0.003842957050076234
-3.876305533366131e-5 -0.018616570506519672 -0.003952720603810463
2.240820509702506e-6 -0.04882379637907546 0.0009696224240816706
1.2949075849568233e-6 -0.04927430243617898 0.0007235364853381987
-1.4847647584574804e-6 -0.04900817711408489 0.002402729258995276
1.7243254618264184e-6 -0.04801392584205166 0.0019322333262710078
-8.337331250441035e-5 -0.0022935591822068257 0.001469677289520536
-3.700590451790275e-5 -0.0024429743808485472 0.0014329456499023179
-0.00011672732032588208 -0.0022795115801790443 0.001023350940966615
-8.854540940305702e-5 -0.00208929232013816 0.0010511940371226401
-0.0001311658463972338 -0.0026308708230199343 0.0016072511886101595
-0.00015806264289800487 -0.003154814778524191 0.001781747264916102
-8.570584369966736e-5 -0.0030583596375650013 0.0017213292554650282
4.107525817273865e-5 -0.03431034650198933 -0.0031377683936870313
6.479817954908743e-5 -0.03346229383087407 -0.0037999275044575706
-0.0001288448214047815 -0.0028475883274705275 0.001269828114306375
6.818968961732422e-5 -0.0014207431697838518 0.0005928394229766853
5.1572478749731495e-6 -0.046662844226929616 0.0025354934728475513
0.00011935537003847409 -0.0018124820359570778 0.0012389067959864574
3.604596436035652e-5 -0.041892038234837524 0.006241912757285763
2.606488243400533e-5 -0.04018432391484796 -0.002713197364772925
-9.573764186941528e-7 -0.04511022410481503 0.0012348867130907754
-7.628863714750758e-7 -0.04359627410743752 0.0009985105060095804
-1.4931355803026529e-5 -0.04298223688775355 -0.005073570937919069
7.362067772410539e-7 -0.04803565295873741 0.003387547672350184
-2.5459006411121117e-6 -0.048904378071909976 0.005336254987916174
-1.2067459833117849e-6 -0.048039065941348026 0.00634139887120123
7.936242587707212e-6 -0.04892648859088904 -0.002423568503834898
-4.951335175706915e-6 -0.04666514702004015 0.006211471379846529
-3.918427979961108e-6 -0.049041116707736504 0.004856615058465062
-6.068160082456793e-6 -0.049196007508435474 0.006412006325390381
5.521074766216643e-6 -0.038484789397195 -6.771935452917508e-7
6.127754185042423e-6 -0.04106488156544052 -5.04152448440009e-6
-1.9183291040647714e-6 -0.048908440708642455 0.004003093559647876
5.573135499508077e-6 -0.03788375801697238 3.6157122374226075e-5
8.386211737270717e-5 -0.03614369288913977 -0.006095002895962974
2.437993193820458e-5 -0.027390365668623535 0.001439240047627667
5.3188575548052054e-5 -0.027425247235380684 0.0032310112061950547
9.572652942139112e-6 -0.04804064846557996 -0.006343310463135995
-2.6406554883499624e-7 -0.0460486075762743 -0.0063274458374141
-2.2170923196524937e-6 -0.04636087950980903 -0.00663529375787223
-8.146510720187244e-6 -0.043038911313127454 -0.003416423418392618
1.391509842179591e-5 -0.049010852826614874 -0.006309512006165866
0.00015029299879094774 -0.0016356344015600146 0.0009929074676016541
6.505554533418663e-5 -0.0015250994348966359 0.00040977309854467946
9.263677899168062e-5 -0.0019627826095454316 0.0006923967946063103
5.368851043760686e-6 -0.047994370492493915 -0.0011469401961168083
2.5355936057219336e-5 -0.0012796315116365424 0.00022096786848799897
7.648605789012107e-6 -0.048941751698193675 -0.002790841343142125
-4.526859654518922e-6 -0.04900345286876469 0.006374178712004916
1.0253714107125016e-5 -0.0465059718714515 0.006340591801261633
3.0089940768500298e-6 -0.04805978284991843 0.0004752991626888351
4.88564257594764e-6 -0.04635796130196486 -0.00018045213349576772
1.626509054182668e-6 -0.04618445900074222 0.0009005903582216107
4.735632510479886e-6 -0.04502527926138933 -1.6648556476131592e-6
5.904149315298259e-6 -0.043772041087651294 -0.0001369479450734608
2.536671183740399e-5 -0.04295400129848826 -0.006164864209011292
2.7160891123438746e-5 -0.037084075903102594 0.0024440705932398834
3.0059861235293095e-5 -0.0373881938715712 0.0036571528824843593
3.4946070479668157e-5 -0.03863822730808592 0.003786597651410434
-6.0985968039174055e-5 -0.004916412292701258 0.0016048792977355634
1.2905045362347929e-5 -0.04802719070963086 -0.006262035072365056
-1.1649082607165157e-5 -0.04469115084461077 -0.006434596855763084
2.3195524571995468e-5 -0.03628184032471597 0.002476415076239432
-7.812910610279456e-6 -0.0445379976825287 -0.00486678444718901
-9.424939887216561e-6 -0.04406628979037671 -0.00626136403181902
-4.46839552818649e-5 -0.007833036419960034 0.002873746813714755
-5.588983436147321e-5 -0.008446588707474539 0.0025245519001957785
-4.004328590890703e-5 -0.008783911417094123 0.003329595305355583
-8.19255212892838e-6 -0.04655414236993691 0.006246720016612846
6.583409817499791e-6 -0.043982482544657676 0.0062015118141141145
-2.3432009594388714e-7 -0.04506651446848629 -0.002430540626469125
-3.0951627728229045e-5 -0.007265803006746281 0.0033598127652102938
-2.4026205578109776e-5 -0.04301955718182379 0.006186075910847996
-3.239175743415468e-5 -0.0430949228106383 0.006282689672370538
-1.211976524414901e-6 -0.0488934060071516 0.003906924020535171
1.5672909283405073e-5 -0.04806131614671962 -0.006349071095283412
-4.2115169963968295e-6 -0.04900965468366028 0.006366237609571698
-4.2026384143053164e-6 -0.049018254518310725 0.00631098403856633
9.159718106179379e-6 -0.045211224586217076 0.0025707747501827706
1.4294352618200822e-5 -0.0430355765734999 0.002424720520847298
8.094218814268026e-6 -0.0461148409913179 0.0037849513911830525
-2.10437091670669e-6 -0.048037612741759675 0.006343155871268949
2.0133305777799757e-5 -0.04302396393484427 0.0038366451629885355
4.819006862086102e-5 -0.02047049096001852 0.0020004808164084897
5.109623073427125e-6 -0.044715993046982046 -0.004884202447399923
-2.44823028126519e-5 -0.0018281488531220794 0.0003668434865511396
-4.509571064230309e-5 5.4063866218488355e-6 4.7466500179539127e-5
1.3519596999724847e-5 -0.04903200774470682 -0.006313127501734761
-5.0575153449698175e-5 -0.04040209099332781 0.006196273574414359
-4.766974010064819e-5 -0.03912368746676247 0.0052371275382508044
0.00011726702012221595 -0.0024269213938731024 0.0010474299648257405
5.4116427072705876e-5 -0.0019456309726479306 0.0003269449415226983
2.4078947826886983e-5 -0.03966084213151429 0.0036593236767987277
8.181924507791486e-6 -0.043173214456905785 0.0008179685981430153
-6.152526187527902e-6 -0.0414563921125496 -0.002153523275064325
1.5234758085026582e-5 -0.028020413900625932 0.005619521764164855
1.852987578773642e-5 -0.044551004622930795 0.005265690572625076
2.471343103236451e-5 -0.041399827422949724 0.003770478050259206
1.330530668037646e-5 -0.03987765905251219 0.0011872589371617233
1.1940352372641024e-5 -0.041055539455426004 0.0015899284467898894
2.7988788720303533e-5 -0.04337151519034039 0.0062672823751477105
2.577376882603341e-5 -0.04309896609766891 0.005276598844629596
-0.00011152876854276398 -0.007350587582761418 0.0026647431678471657
-0.00011167467735258219 -0.006684304850234496 0.0019033581253097061
-1.148850185812754e-5 -0.04157943804637221 -0.0033604695276001147
7.11820292547864e-5 -0.010786862862071853 -0.0014514331508038737
2.5836732196171662e-5 -0.03844517546791485 0.0025535098699148934
2.2253069691523015e-5 -0.0398668484414278 0.0026027862947216943
9.572758345729635e-7 -0.04203073084408011 -0.0009001117226200213
2.0328294001187096e-5 -0.04209863756741957 0.006188170436450664
5.580573142168835e-5 -0.03625183331335078 0.006116303659194211
4.969975370518915e-5 -0.037699758428124445 0.00616196247186709
7.7419058105903e-6 -0.027944830226107126 -1.2309993227504621e-6
5.6852931623246325e-5 -0.03184012307350362 -0.0035513869143346784
6.440821752346808e-5 -0.03255214401282856 -0.004670420209947209
3.351119660329937e-5 -0.026428574701559775 0.0020412737267677507
5.432040641192653e-6 -0.03834685930067214 1.637691877534608e-5
6.964253453840785e-5 -0.025455761162942472 -0.0032352980252925503
5.342236466994046e-5 -0.02483027002483761 -0.0023103011982653996
7.419076699746736e-5 -0.024163244818977754 -0.0031917878431805464
3.1888632092894184e-5 -0.02540003112752264 -0.0012741718576621851
4.9425542015919244e-5 -0.02612884848853394 -0.0022941528521274786
0.00017100618909518306 -0.002603983612699227 0.0015232282828439516
8.381605389278899e-5 -0.0032388301395215365 0.0015489403290272665
-4.712262277567973e-5 -4.954834199624956e-6 6.478575607204163e-5
-2.6720106228444767e-5 -0.03999562031239194 -0.005014984709419781
5.9404015727314385e-5 -0.0030289066826622666 0.001718750611455595
0.0001242387035955391 -0.0029953889989726046 0.0012155590261704943
0.00013772109846375775 -0.002945910278267808 0.0017263051960772233
2.395650413192918e-7 -0.047665226785027104 0.003938540161193405
1.1075068266221292e-5 -0.0443271055418435 -0.006185041627615627
4.347916134019729e-6 -0.04903152095645551 -0.0007392064219977042
-6.481174683387332e-7 -0.04456896884727361 0.005135805096450889
9.735285172337956e-6 -0.04167009879278458 0.0008814735278123415
2.819575333150958e-7 -0.040553031993889495 -0.0008959659071782822
-0.00014692852882441628 -0.007849173068604831 0.0027627877330835787
-9.658869024570482e-5 -0.008184255586575024 0.002800084594464904
-0.00014193821909388554 -0.00865677100611094 0.0028812404272117215
-0.00014454560783976788 -0.008176123497758418 0.003555541725479161
-0.00015352487472287526 -0.007056462019627353 0.002670490972400798
-0.00014945768048153421 -0.0073418175971113765 0.003386941270981349
-0.00014166818908371517 -0.008338736856334534 0.0022278422556217294
-0.00019509716382016615 -0.00836555375436305 0.003067669399531948
-0.0001961946794552674 -0.007555107069598607 0.0028445681658818374
5.1507179889683106e-5 -0.03895486913729338 0.006175307970835252
1.4385994452488425e-5 -0.037217352543207315 0.0009091584255773978
-7.415503649956681e-5 -0.03314990047763684 -0.00624717457043785
-1.669568366042146e-5 -0.04008451556598725 -0.0033852520568342344
-9.000062562760532e-5 -0.0016626685448038038 0.0009237030168889853
-0.00019711665944428222 -0.0014999653488923137 0.0012582488803665156
-0.0001461104033616767 -0.0017015818729093225 0.00128321539898386
-0.00013164349585114937 -0.0018345390057492616 0.0010096038996729798
-7.4808168818286576e-6 -0.039966982151059746 -0.002172971031272467
2.7860823913142722e-5 -0.04508402417717396 -0.0062244378948451305
2.7302240067500327e-5 -0.04600291840876364 -0.006231650774302752
-2.8035336660926518e-5 -0.035736227611214096 -0.0032819014354038786
2.4069953776039233e-5 -0.030026193194003896 0.001398169560498374
3.7913308035665654e-5 -0.02942510615100496 0.002427898970624971
2.670556742085426e-5 -0.028306931680332735 0.001435472135300219
-2.3603254992577205e-5 -0.03716202278234416 -0.00334337922459502
4.370105250110696e-5 -0.03552712264038591 0.003647954340630015
3.948956802916192e-5 -0.04067284243372929 -0.0038722668263656474
3.5380163985228164e-5 -0.04213819572993045 -0.003987172607018564
2.322310623123753e-5 -0.026968671623007926 0.0007888882110475784
9.07775907885324e-6 -0.02708268651005289 7.76814594141556e-5
3.949714564482221e-5 -0.03718614440381076 0.003764581451462994
5.9573990419719023e-5 -0.03749922045771696 0.006134558818592502
5.250738710464304e-5 -0.028829510061058394 0.003445440041875439
2.9366457158585255e-5 -0.042092437040226346 0.006267904003932717
-2.4581681534856237e-5 -0.0406203593249503 -0.006239047059154253
-4.772004902962467e-5 -0.03728958961360944 -0.006145680773792259
-3.6224615185393164e-5 -0.03769988497294405 -0.006163012735889632
-1.386529296648103e-5 -0.037125289313426034 -0.0020566812522265746
-6.165762185730552e-7 -0.04229464432257126 -0.006081520272660202
-9.753816194741747e-6 -0.042218894319871206 -0.006152383959098639
-3.8179253363456464e-5 -0.03711900256322413 -0.005017521926508088
-2.1508879381590687e-5 -0.03849861178755813 -0.003602494786227206
-9.390786845483719e-7 -0.0390829789787453 -0.0008912670463248106
7.34354759679202e-6 -0.029954657871093308 2.0117515039778994e-5
7.808526354857126e-6 -0.02834867666476273 1.553901851536146e-5
-8.105526550107473e-5 -0.03150315282280865 0.005928871534726004
1.482336051105377e-5 -0.010424414599932874 -0.0024420035312160953
-1.8163031254665392e-5 -0.03928267173406071 -0.0060892352336054
1.3781817063352908e-5 -0.040810973681373694 0.0060434189020677695
5.918803280207708e-5 -0.035753503944167174 0.005150156246947053
4.621324854080155e-5 -0.03865394451517234 0.005225114183114595
-4.644294730232309e-6 -0.03188950545562052 -0.0008548543370402771
6.591253227385274e-5 -0.034320773162434204 0.005105750438611991
5.346668848575845e-6 -0.04761143910650191 -0.0014798216215258298
4.920341723647372e-6 -0.04638236576093827 -0.002249962997352283
3.986889519010611e-6 -0.04642400776580931 -0.0013129876485760892
7.318984790030416e-5 -0.03769206659348398 -0.005960784331938928
5.2656442407157084e-5 -0.039030451793804294 -0.004995951894759814
5.073486164519961e-5 -0.03776510108436187 -0.003937428597799993
1.8939841504993996e-5 -0.0378933950031381 -0.0012827240684744055
-4.899172541078991e-5 -0.034817979817483836 -0.006067781224042513
2.487218455476543e-5 -0.04062743276040733 0.006158641054585025
1.6287560389704298e-5 -0.03915230289640062 0.005847116299772683
-4.103253458249674e-5 -0.02168876505927129 0.002102133932539869
5.446721806422302e-6 -0.035832989127446375 -0.006090215222057164
6.847239366704078e-5 -0.02961624455041373 0.004601278839988664
6.38195483109306e-5 -0.029337197977727256 0.0057089774440951995
4.9449584559496146e-5 -0.0005181637005886502 0.0006065873183451083
9.820104284677863e-5 -0.030298968414510165 0.005833623523464068
-1.7656626680346712e-6 -0.037601533640761804 -0.0008701420355114842
-7.840830356298834e-6 -0.027736603953362887 -0.0008319961223572868
-9.997885906293822e-6 -0.02643171767011726 -0.0008144686094221502
3.111147713398151e-5 -0.035722849356797835 0.0023433855160919764
4.7460197794238504e-5 -0.03425634295290114 0.0036000255029234695
2.9781903342334757e-5 -0.0391049922761788 0.006176656097727425
-7.468663537710933e-5 -0.00027608137202954765 -0.00035057969911733624
5.367663624080375e-5 -0.03719893877885873 0.005189122087473698
5.747119301408753e-7 -0.0007316032479337019 1.7556875078834055e-6
-2.7035486479287807e-5 -0.0237271165991885 -0.001989360406369023
-1.92221314909646e-5 -0.022181401762470323 -0.0013152771148040399
-5.192371211390386e-5 -0.023070213739682655 -0.0031679369659367426
-4.4050308004642075e-5 -0.022888181159195546 -0.002197287700995027
6.648418705201116e-5 -0.03605247274006642 0.006088808276543083
-4.1574647226437354e-5 -0.035739347230812096 -0.004701803846889172
-6.700458101337517e-5 -0.016205941814987614 0.004716890789394167
2.449346337517735e-6 -0.043771969673089973 -0.006105540530655187
-3.176521228122852e-5 -0.03853223253138763 -0.004986761788637041
-4.884046761215717e-5 -0.016320195912858833 0.0018434828087449844
-7.964664102930374e-5 -0.016422431203235742 0.002794173638588423
-4.972931785796587e-5 -0.03422951098650701 -0.0048116221124003085
-1.817192774372684e-5 -0.03544809867811809 -0.0023495048758260775
-5.436205022069687e-5 -0.0328386520479316 -0.004708390105387934
-1.5415176289825298e-5 -0.03823046011449432 -0.003566363901046319
-2.8014620059678054e-5 -0.03351611805450422 0.0035947936532147
-3.5965901764376864e-6 -0.034721038552891714 -0.0008607756148333326
-3.0591056449035544e-6 -0.03617198864579401 -0.0008792723093728646
-3.83805977361821e-5 -0.03233519364209689 0.0034286907076767933
-4.111098125103234e-5 -0.032115589619838666 -0.005921362772045925
-5.390101553589435e-5 -0.032338534759502 0.004612645942287337
-5.443129838695138e-5 -0.030926706242896087 0.0042568994270417776
-4.112347494274393e-5 -0.03270312326640372 0.004756027270584099
3.6007047628205324e-5 -0.040619826064397756 0.006237579865307514
-2.4648369377621963e-5 -0.028635713404578714 -0.0018232515538496618
-5.3242110775209565e-5 -0.027249846929872805 -0.003196424945970613
-5.336154053938036e-5 -0.028526716119070147 -0.003451536780051498
2.0486635223615015e-5 -0.03149879897131165 0.0008776209377822142
7.436594160700824e-5 -0.03461826686097854 0.006037878914130276
4.772583251347427e-5 -0.028513887520714556 0.0023871174887375142
5.499830809885502e-5 -0.032873833572364085 0.003663957797095153
0.00023723302726468893 -0.005335135404703672 -0.002576505979584265
-2.6776419997470697e-5 -0.0359483033149653 -0.004424951859747317
-4.254327182829586e-5 -0.036253264015378595 -0.006117686769066765
-3.1871580463366704e-5 -0.03428084198596901 -0.0032876338681892456
-1.9850868104895363e-5 -0.00015607540454857537 -4.3634131917101174e-5
-4.111494478786116e-6 -0.00029817812390510115 8.788694387628324e-7
-6.148674671221608e-5 -0.03137495779564775 -0.004773335575095297
-1.4236781242720339e-5 -0.03434690363985627 -0.0018937996768447908
-5.917262232628696e-6 -0.0387036241981409 0.00114561531206531
8.172917502112762e-6 -0.03912700943410564 -0.00032003976533215013
-2.5996577753245453e-5 -6.186812895761788e-5 -7.58603408412124e-5
-1.822112050450504e-5 -3.5671278780147084e-5 -3.6542376864843426e-5
-7.160495054849766e-5 -0.02745871303340918 0.004527293867679943
3.341376266876585e-5 -0.034288542173431275 0.0022865040325096425
8.041765601494174e-5 -0.0314924805567103 0.005003816094826037
6.022970406779725e-5 -0.031453438033746554 0.0036188139877145566
3.229870217891842e-5 -0.023219973661687408 -0.004367403733676132
-1.7974817616198057e-5 -0.02441664172943871 -0.004321594871374184
8.213230101386267e-5 -0.03319595900606113 0.005981608684491075
9.221983052647502e-6 -0.044715059574919044 -0.004884502657730741
-5.373251900607497e-6 -0.024411449514826586 -0.0008819746033497846
-1.294040172225449e-5 -0.02402570101667553 -0.0008642543300188266
0.00011908761239430322 -0.023407012266585533 0.004596456555843396
7.287795795264368e-5 -0.032899946540590926 0.005057578233791668
8.650021990881478e-5 -0.030101227968927502 0.004946862326254394
-3.958049343562812e-5 -0.03144996537720152 -0.0032211922334249173
-3.3925133297760956e-5 -0.03287889794149695 -0.003216449115347749
-1.772089511859505e-5 -0.03284389026590294 -0.0018911709691953537
4.994903366321675e-5 -0.029139381804920407 0.00447780467524071
6.975060995020043e-5 -0.027972646387779184 0.005634972372064586
-3.015975541402942e-6 -0.033313900797987114 -0.0007603497780600369
-0.00029006400114886223 -0.00048213897142282983 0.0008433691823474747
-0.00026176554693392725 -0.0006838803705629721 0.000902272626214244
-0.0003085728885759497 -0.0007221721408226341 0.0010623798208745738
-0.0002489758273487913 -0.0006785924852353051 0.0009713277459666217
3.959084680235402e-5 -0.03269294717543245 0.002409950018178594
2.0457412275769914e-5 -0.030103943157325133 0.0008674598304266264
6.318931232044869e-5 -0.030062546811307593 0.0035778254892664656
-0.00011841711725366736 -0.0002117327405732683 0.00034633356217359207
-4.3299998325065356e-5 -4.1227163219485985e-5 8.85669817236761e-5
-8.051883811964006e-5 -0.00019928120741541348 0.0003052308295023152
-0.0001353625735042203 -0.00015728862752537376 0.0002800711247193192
-0.00016334190032461053 -0.00021197252299740187 0.00038676607503063847
2.150505340538049e-5 -0.03945931287955445 0.004790438388193825
5.3904462432242805e-5 -0.026057333878838764 -0.005538486191754062
6.0850831843521184e-5 -0.03483119384676564 0.005983715401001821
-4.783616365433848e-5 -0.005618752835721578 0.0016003780762438365
-1.7073470333739692e-5 -0.005474666284083823 0.0014444517430473413
-9.20989039598598e-5 -0.028817855001931344 -0.005805693007520765
-4.4181739435529946e-5 -0.02999001868139964 -0.0033169916566818344
-3.4406273349331874e-5 -0.034185129622802846 0.005861813012222645
-5.380323842211567e-5 -0.032958930996731556 0.00587550032441652
-2.1400275787395943e-5 -0.032189381317524204 -0.005778085977391202
-1.5480924278534542e-5 -0.03502430432651523 -0.005889765635216274
5.288489434811527e-6 -0.03980982156765216 2.6584054790971173e-5
4.399242587911405e-5 -0.03004861171878342 0.0022609547775643887
5.8595375042398976e-5 -0.027055646168503745 -0.004119893427329005
4.1409627621758516e-5 -0.031936953559091694 0.004517644095534443
5.593821177652817e-5 -0.032113501667739255 0.005872077255183916
3.613661217289725e-5 -0.03064218876583214 0.005797452676057074
3.968912100757012e-5 -0.03146313353523554 0.0022673938578894564
4.8037084708780444e-5 -0.03342067002146701 0.005907275430061198
9.050311781150937e-5 -0.03178744257755057 0.005920493587426874
1.964791844594528e-5 -0.0026044097004634353 0.00016049854810707806
4.9470899090851404e-5 -0.002944676369379692 0.0003503656888101488
4.410981385610771e-5 -0.03484149359833212 0.0059776575771270666
-4.4387370949776586e-5 -0.0028793828915310467 -0.00042533912785359555
-9.341428289876898e-5 -0.023400887092185935 -0.004246673548714128
-0.00010014801007760779 -0.02741127252732195 -0.005718261195466495
-9.021135816219843e-5 -0.026472160840495477 -0.005564353277230806
-5.979208549032517e-5 -0.03201651497412288 -0.005901769910693602
-1.7258649077494372e-5 -0.03359871134064636 -0.005836702490584722
1.815501813556498e-5 -0.029127521809746423 0.0005835615564816776
2.4037127995949015e-5 -0.03451529187755658 -0.0062229709052771505
8.942438374467679e-5 -0.0012857700900354367 -0.0007035450736466286
-4.448794236457053e-5 -0.018311751948142545 -0.0015843988514279126
-1.2187916416974196e-5 -0.026685115076439718 0.005526516537147212
-4.704124553846303e-5 -0.02607366487512324 0.005537267966823303
-3.121821927525101e-5 -0.002690118831890689 0.00033498694539935565
-2.930732874440695e-7 -0.029313636679438166 -0.0056267533390967454
-0.00010090005924575727 -0.003354864215294364 0.0012112927651602861
-7.453651740699103e-6 -0.029106559395020885 -0.000834611746202561
-6.011098208577881e-5 -0.025815405192987025 -0.0033246526841474986
-7.38527478147809e-5 -0.027290088932631813 0.005596236451255088
0.00012797824093650453 -0.02498667462608065 0.005537436791402105
0.000135391791576538 -0.023685008482643048 0.0054456439892701875
0.00011339383538302834 -0.024704817308503896 0.004674679165123346
0.00010493455495858354 -0.029014484858710846 0.0057827813551110255
3.2531521207279095e-5 -0.03228811822428785 0.005774086511951114
0.00011258319551130134 -0.027653156219587628 0.005706286152992132
-2.587578563428248e-5 -0.00570925319436505 0.0022844377959551996
-2.3899628243781826e-5 -4.6576629872869366e-5 9.124432244480875e-5
5.2831559271663584e-5 -0.027378114682885216 -0.005556878862326944
1.600456559586634e-5 -0.04106881242805758 -0.001485720394826735
-8.025050031083398e-5 -0.025999897156383824 -0.00433504704840829
5.7289921637726425e-6 -0.025719892472887026 -6.137984786563223e-5
2.615839356578215e-5 -0.024698336941058666 0.0008213304432905713
-3.9097493813002e-5 -0.023948743630068842 -0.002052742477819635
-3.877566913101278e-5 -0.03252847116213424 -0.004308719086581273
-5.504706702656459e-5 -0.03338851705670103 -0.0059792630960341315
-3.2001466569791876e-5 -0.03435027488797976 -0.004343291618310333
4.743289053661589e-5 -0.027312378251984827 0.0021823055839135506
-2.2844918323201584e-5 -0.03620076941297855 0.0023394670146955417
5.520562167961706e-7 -0.0024286526009597324 0.0012856490045676525
4.875654582452003e-6 -0.002940764893896714 0.0014189559287648378
0.00010538787036066726 -0.026024415403097103 0.00474933513816665
9.831351697876337e-5 -0.02736494365271978 0.004819425323017778
7.370117466166555e-5 -0.027337190036009023 0.003498199993881387
2.4107616038469306e-5 -0.042461277569827226 -0.004708297048357103
7.330516014051869e-5 -0.026532015488384072 0.005581338316782916
8.340704402831436e-5 -0.02321498409793107 0.0032437991225027136
-3.367805998776558e-5 -0.019088683268586912 0.004494280113965368
-6.37627489386528e-5 -0.01957014586481442 0.004989824953163704
-2.4436534626114312e-5 -0.018551107705106765 0.0050046207420385794
-6.376650870650856e-5 -0.018506616345701093 0.0049400170569381865
-1.9667622026313222e-5 -0.017645717743820843 0.003587725108915363
-2.8965117245399443e-5 -0.017252727049520532 0.004749258929825648
3.1271670800561676e-5 -0.02818430396729987 -0.0013740570992247436
2.4939226020142617e-5 -0.028704932226557903 -0.00083102703266975
5.3645164465043674e-5 -0.029301480621974723 -0.0023894489849003576
3.116724397157494e-5 -0.030227676013769078 0.004634668034452701
-8.92828708907e-5 -0.024634225772854595 -0.004372993018066778
-5.492037570545526e-5 -0.027975555007839825 -0.005635307146258936
-5.971550881506985e-5 -0.026631955377811014 -0.005555852171898627
-0.00011654552499491771 -0.024826928622480832 -0.00556899065234419
-0.00012511709661850037 -0.023451269118898197 -0.0054519568335785204
-9.919387807363169e-5 -0.023876547631837473 -0.00547943425756015
-2.4588854513947973e-5 -0.030793135064976947 -0.0057144388645981705
2.5519435142152814e-5 -0.02339338151139187 0.0008055125526299428
7.321700265156473e-5 -0.02756840609705946 0.004511283268535767
7.686920354181552e-5 -0.025995458126077828 0.00343760881918702
0.0001198843718143268 -0.026309386751918646 0.005624335395680162
2.5755869240586e-6 -1.0997354748287772e-5 1.5980790146504815e-5
-1.5763724212184336e-6 -1.0953705361613768e-5 -7.412180105332026e-6
0.0001583810253319272 -0.02378289182512626 -0.005496440678006146
0.0001255720242694923 -0.023326700672695006 -0.005332799742991699
-0.00010126341412019568 -0.022061749961402786 -0.004328040726279395
9.516792565377045e-5 -0.02068707879036324 0.0031216812959626848
-7.237763276176481e-5 -0.021975232136636148 -0.00306993856763682
4.240858935611592e-5 -0.014520191627965863 0.004236246631006144
5.6782957074831536e-5 -0.02334592144584926 0.0021009272108056237
4.5342323587010005e-5 -0.0023680611314671144 -0.0014217953834594602
8.303740702868308e-5 -0.024681029774239888 0.0033915464891908294
9.233805880650701e-5 -0.0016864822319724757 -0.000809159704962741
9.892511477340891e-5 -0.007716058587979895 -0.0022202572366778963
0.00014286943180054546 -0.022404440349036943 0.005348995149325956
-0.00016565864342969262 -0.008348023378824702 -0.003288183875565005
-0.00021926281210775695 -0.008317350103765895 -0.0036294522579181886
-0.00017743869218737838 -0.008035739473165677 -0.002819120027481663
-0.0001348320418266057 -0.02111742826722521 -0.005235616334981147
-0.00014397709960411328 -0.01988337231651555 -0.005124252610381573
-3.924656669591845e-5 -0.019573586349062012 -0.001619229184837922
2.905433833511795e-6 -0.03519827773138304 -0.004358007119968483
-0.00010672612854050796 -0.02085404021100409 -0.004115707338740072
-6.955893065451326e-7 -0.0362613359038385 -0.0015787147524827288
6.707510459125072e-5 -0.023508557936953407 0.0032440796919162938
8.485063195557468e-6 -0.028070765944578396 -7.488171379601002e-7
-1.604751351867765e-5 -0.02819329720570136 0.0013873361684842603
-5.9759025441227035e-6 -6.772825418959657e-7 -1.8713315359595265e-5
6.19722985292077e-5 -0.02207353686195063 0.002056093627526628
-4.7058953270136245e-5 -0.020655874943599144 -0.001899315238730988
0.00013089981283733978 -0.02087706012692346 0.0044260532829149685
0.00012532462154038853 -0.022129077439703555 0.004514356613349031
2.6199342123529994e-5 -0.009499697925364592 -0.002563618473620844
3.129425631466091e-5 -0.03929450821039218 -0.0025045207047730976
-4.095214259963195e-5 -0.021792168565364603 -0.001997472337885987
-8.73162745757079e-5 -0.023387386490032403 0.0053470016990620674
7.732179994138743e-6 -0.028390780215084805 8.418630815657312e-5
-0.00015691781533782874 -0.018142201570176552 -0.005003734308673622
8.306721315417271e-5 -0.023894426377038758 0.0054076492085961955
0.00011459830458279771 -0.023873929650713468 0.005477958823101362
6.259498796053085e-5 -0.020827589662473462 0.0020050224210235892
6.949016893047626e-6 -0.03258396341024241 7.242210974500012e-5
3.0117281723315493e-5 -0.019625093387049507 0.0007634519788978767
0.00015067708748283767 -0.021063067272786607 0.005225157952233187
0.00012359257753528455 -0.0012876324894481584 -0.0010267214675301992
-3.0501384955441952e-5 -0.03155236326001678 -0.0034250585604225694
-0.00012796347279989828 -0.02005855406185783 0.004319272149841097
-9.369550220235575e-6 -0.018056603100939105 -0.0036348482852574826
-0.00011601756794202595 -0.01958107661683794 -0.004084251578797329
-0.000106756752100829 -0.02259605541127406 -0.005381778091773945
-4.2404147303097253e-5 -0.025118812136242223 0.0021302782830401558
3.808462835194559e-5 -0.021364283592695245 -0.0052178545663409725
6.323087072177839e-5 -0.025269313957382054 -0.0023014035029990908
3.484610980032108e-5 -0.010035673717777844 -0.00037264838828781504
5.060594501891201e-5 -0.009616052559863978 -0.0008443874778793065
-4.1504611679281154e-5 -0.009651481677646036 0.001475699469294494
-3.199048534528966e-5 -0.00926482221034854 0.0006514830855487185
5.550350332572792e-5 -0.021472091254973107 0.005154501667019692
0.00015249218046335168 -0.01654885398025739 0.004819343411936265
0.00010796047199200272 -0.01657295604348051 0.004724238356326423
6.775040510255626e-5 -0.018393243740618587 0.0019178045384143309
0.00015852263105766942 -0.019914557112655603 0.005139510143838633
0.00013510658359133917 -0.020098643953348864 0.005173186872046443
8.777258186854694e-5 -0.022614686461428724 0.005313480693208452
-0.00011491012156159636 -0.018412540170680388 -0.003822789332792576
6.111092872950402e-6 -0.016715541837313615 2.249578134272735e-5
6.050050758049401e-6 -0.015650591918301184 -6.311280686968034e-6
-8.746056958656569e-6 -0.01968303426969487 -0.0005100834654752395
0.00020343470702730154 -0.013093107937709444 0.0043867538973557385
0.0001585915549300401 -0.013818002535108285 0.0036246785097953
0.00017356382498429836 -0.013261346091299872 0.004422287900776432
6.146109792223592e-6 -0.005975965772277648 -3.8405242024173854e-7
5.3712155794170015e-5 -0.006089406927995158 -0.0007238460428409582
6.158694809106764e-5 -0.01823645221386262 -0.003736636794036599
7.15421394762038e-5 -0.019572105303387148 -0.004959378179450495
6.63337446514383e-5 -0.018507985043275204 -0.004938170566203316
0.00016852454107011447 -0.00018968046276519445 -0.00034632125692979197
0.000262147253545626 -0.0002722604973812321 -0.0005687258342544387
1.3006510394847933e-5 -0.048996038350094355 -0.006475306808868735
7.126612365073019e-5 -0.019446795378584448 0.002110638308960293
8.944170339556248e-6 -0.04090942070205831 -0.006072104835515595
-3.225709019932952e-7 -0.04426084933895451 -0.004937011891909391
-1.1611654952651563e-6 -0.04475105466697543 -0.0037711346214172304
-9.915278773663171e-6 -0.02391422986220289 -0.005307801987580134
1.7264311392994432e-6 -0.02269310219845367 -0.005352339727998052
-7.054474384080105e-6 -0.04317032902136011 -0.004533651827108509
0.0001272676332664607 -0.021333269286057926 0.005278357906969024
2.4391873331895605e-5 -0.0437804662406761 -0.003688118395171903
0.00018026239619757726 -0.016295422389981856 0.004764722405565125
0.00014692085757368091 -0.017704551640592536 0.0049418743075466025
0.00016540519906893653 -0.018706896422540982 0.005026661152733128
0.00013843169402350753 -0.018886894167194728 0.004993593698788017
0.00010544334655539565 -0.0004843891441559259 0.0006191450424751872
0.00014550418641761333 -0.0002153048685549377 0.00036821840983736697
0.00010886234791297319 -0.00019776696913804712 0.00027934953215639515
0.00015608224809654766 -0.0003947457138814633 0.0005280854350853554
0.0002622579131436434 -0.000950338667020977 -0.0010606380616696232
0.0002726849640932581 -0.001333882529044732 -0.001280896647517506
-8.850963775879355e-5 -2.562934903421278e-5 -0.00010859206135313364
-9.855892812377396e-5 -5.909948937107859e-5 -0.00012467933344106425
-0.0001314712638867754 -0.00015471740280331397 -0.0002648031871475586
-0.00019902652164450476 -0.0001554351646207857 -0.00033868667581881794
-0.00013069644902256487 -0.016109314935927804 -0.0037475088567518995
-0.0001740822656522022 -0.016280118216970934 -0.00490570106375221
-7.983622439311555e-5 -0.01806224664978985 -0.004892360729253262
0.00015906858701076777 -0.015421648098283206 0.0046923239602491805
0.00016459111228464093 -0.014324025823714248 0.004559233096326751
2.113682502938278e-5 -0.018745034628218596 0.0004353539515799086
2.5308133792803095e-5 -0.017461666654469337 0.0005669645398208379
-8.695655424179799e-5 -0.01710852979070046 -0.00284087061822061
-0.00011898574823928154 -0.017790246503602967 -0.004883646300159237
0.00017292560568758482 -0.017526487806334763 0.004908884583408714
2.437724043193737e-5 -0.019621550040494044 0.0037616114207626914
5.950675819067627e-5 -0.020160452994428594 0.005095096948951105
0.00031631013757222074 -0.0009750510484942999 -0.0012570216705222275
0.00024952096687435 -0.0008728876405137437 -0.0011293161174779256
0.0002517885200877893 -0.001274757616712478 -0.0013933526580464325
0.0003076715083404412 -0.0006831978147934206 -0.0010280630145805241
0.00025349822686912906 -0.0006106662361698672 -0.0008296546348777341
-0.00012888123826091224 -0.017276715927356193 -0.003988310290680333
-9.62346721506525e-6 -0.01743208554093579 -0.004869132822928831
8.056044576539729e-5 -0.01764476218253756 0.0038370524314449562
7.061069925457551e-5 -0.016599012572350982 0.004756030417138618
0.00010645838274421424 -0.017731356187630123 0.004879106631543941
6.42442892927535e-6 -0.04356024604219465 0.000526610809740873
7.25083403554103e-5 -0.01719732228418039 0.0018897560673177079
0.00010742886005117388 -0.017076984613911796 0.0029617432081194025
-2.578862344821746e-6 -0.021571597367649388 -0.005174039516098517
-0.0001884686605924588 -0.013209765163181399 -0.0043861587165132405
6.914676720607939e-5 -0.017334015459965782 -0.004820241691245234
0.0001568376704170821 -0.016119124991957685 0.004032062938551709
0.00015112349165157522 -0.017267748145245596 0.004137379400223209
0.00010021614247872701 -0.005043344143647172 -0.0028077659599409902
5.852375748533147e-5 -0.004979579978572931 -0.0027316968185687324
0.00011291277652811559 -0.004342519140905562 -0.0025780532027573373
-9.820048093460723e-5 -0.015937164558306672 -0.0028419247805374676
-9.265214684005077e-5 -0.014945864798258188 -0.002515105798857206
-0.00013847046698729342 -0.014914883072237631 -0.0037629178024519818
6.227846746701117e-5 -0.013730148600791336 0.0016685131729130226
8.976602038000306e-6 -0.01575848942400061 -2.4606707759527937e-5
6.40383318138502e-6 -0.016960747795004377 7.515799979975601e-7
4.555434946236219e-5 -0.030496123701744322 0.004522687925770006
2.813149675740783e-5 -0.017454715988739645 -0.0005434998447793336
8.237837710066341e-6 -0.017854933296940635 -3.248389975844391e-5
3.553429363142112e-5 -0.017504688324254447 -0.004515400209153364
7.248758635280741e-5 -0.01604752707311487 0.001833049967799758
1.7893809118060946e-5 -0.030265574767786824 0.005757840690646629
6.492276635990544e-5 -0.017770924900224538 0.004868806711540625
0.00011278311783838058 -0.016083519279013483 0.0028850358193480458
2.9790043592487616e-5 -0.012727419210927826 0.0031506777035501332
3.2829243003097645e-5 -0.012260431310873409 0.004245296449704161
3.7877600399661456e-5 -0.013477693626115273 0.0041206980855696225
1.1836249948824258e-6 -0.01254746024841331 0.0038916687494514163
0.00012517937508579462 -0.013856986916961448 0.002751299487083832
-9.74279022609294e-5 -0.004092298139070229 -0.001008431618215864
0.00019406491105680338 -0.014154944101344356 0.004524486802679309
-0.0001370393960262569 -0.016466450017604536 -0.00473174596793645
-9.812433181982154e-5 -0.016661735632783628 -0.004741399886673421
1.5572347292509088e-5 -0.013681517640090114 -0.003943213453930039
-0.0001966362014816191 -0.0001914928126129209 -0.0003994605551479542
-0.0002557026573686983 -0.00026221605312862575 -0.000551531337925634
-9.076604716127398e-5 -0.00044501332928599747 -0.0005796469793514632
-0.00011240606681146633 -0.013370115349333191 -0.004347700252385272
9.705786523507828e-5 -0.02169413188833701 0.004188115588836259
-0.00010388222914131971 -0.015492198531030567 -0.004607650903022224
3.981540771490934e-6 -0.010731340119759273 0.0036319918145392457
4.197062275794005e-5 -0.012260993948032532 -0.004269056103323821
6.866690354014949e-6 -0.0182955130299078 4.1629820111986435e-7
1.3437335186700617e-5 -0.009333380599801716 0.0029008353924275757
7.405876345555884e-5 -0.014766224688396138 0.0016900681877584783
-3.9154786858122325e-5 -0.0012503783020389341 0.0010992885800643801
6.969160399069676e-6 -0.0190219289151215 3.2182852339044367e-5
3.913723789134414e-5 -0.02002138719755866 -0.0012749426784120967
9.247956046941505e-5 -0.0007586109070754977 0.00076469265198367
0.00011692470917809518 -0.015506784262660032 0.00463183006554631
7.593594902230794e-6 -0.047474757129725285 -0.0018137506716265047
-7.69175235476042e-6 -0.010720967685601088 -0.000318580874792303
3.922032659275789e-5 -0.012791814096183315 0.0006642213421907409
8.440981966166023e-5 -0.012783677147849117 0.001679212173998218
-0.00010738581696395355 -0.014400951605123113 -0.004471495819289893
-1.8966654199927253e-5 -0.012985526929479933 -0.004298268781514723
-6.721168922626546e-5 -0.013442088442213633 -0.004303373249194002
6.963224785388718e-5 -0.015488390438192319 0.00460279661956046
3.7960456492303765e-5 -0.013909480492243097 0.0006839972601627884
6.082282449172637e-5 -0.011396674273883444 0.0020590598950902066
5.264301474276418e-5 -0.01085599622616229 0.002560255882001445
4.069396594620291e-5 -0.010160429857244243 -0.004049943626161812
-1.809466498569032e-5 -0.012794923036792819 -0.0005588428369000928
0.0001346852447957605 -0.011264536484841622 0.004078322155052161
0.00018504143846152053 -0.011222276307018355 0.004132407322683491
0.00017889126420247788 -0.012224552767415566 0.004277671265808652
-0.00019026703957273302 -0.00901021249886253 0.003712562205214741
-0.00013694228739378914 -0.009052308850192458 0.0037051821583260515
-3.088073238964856e-5 -0.011384665122278372 -0.0009723742585118105
6.681694587298003e-6 -0.013769178277925937 -4.750707515457896e-6
1.5614571250654622e-5 -0.030157695919576313 0.0011681036168695036
0.00010039323264803786 -0.009323991591762438 -0.0023735780757304847
-0.00014713394720564964 -0.012851607707269105 -0.003394127049696024
0.0002214889098894215 -0.01198823502586419 -0.004225814455428585
-7.173899170210455e-5 -0.011610508256981235 -0.0016032178760390517
7.595816063897145e-5 -0.009556697044725258 -0.002859110242688629
4.5123045291719426e-5 -0.029312344961652286 -0.0023970591397400923
-0.00015092521180100333 -0.011816115190270406 -0.0032772279033483863
5.9315246542692705e-5 -0.03013690586653217 -0.004512675295499122
7.441823119299628e-5 -0.013381504068742259 0.0043264247708583795
-1.0797290279514794e-5 -0.011699703434697117 -0.00042859992763369
-0.00019549494571109317 -0.00758180417989369 -0.0034852073579625833
0.0001238493616859429 -0.013293178442368119 0.00436685114224953
0.00021014977884132547 -0.012060293625529671 0.004243521597200666
4.013503446766459e-5 -0.010623173025417468 0.0005869482939239597
8.513832346768502e-5 -0.010812104188464379 0.0015182277817371945
2.132700700302803e-5 -0.02272615237729618 0.005291456149175466
0.00021825167928048162 -0.007236457195504252 0.0028899891559298952
-0.00012849730978445683 -0.010370498055604456 -0.003912729631927163
-0.0001240089182673709 -0.011333676270681768 -0.004063030119447477
0.00010165719959007168 -0.019691389096090556 -0.005055293375851334
1.0281404886426624e-5 -0.02036108852775022 -6.903616258762153e-5
3.3763280323735194e-5 -0.008258571896037592 -0.0035732870309713822
9.536705756168865e-5 -0.017996032876888515 -0.003076068028146524
0.0001389264902481621 -0.00901400215633297 -0.003698431980159858
0.0001444509931811176 -0.009569346850800475 -0.003673907358844959
-0.00010924583851149991 -0.010780547976510233 -0.0022034412622522676
6.210374569480139e-6 -0.013649063441223646 -2.2060339792204243e-5
0.00013620227870134375 -0.011779468383654118 0.0025769839916575336
0.00013575620549277428 -0.010786288922836618 0.0024865576483858614
0.00012995737802371697 -0.012259667226461877 0.004222699007213006
0.00021873965931747745 -0.011041219346704503 0.004090804858150327
0.00019102758921862254 -0.01083825309250984 0.0034385721719094675
0.0001962383955493157 -0.009881687767732728 0.0033091987053654216
0.00014138078769928701 -0.010999798579006617 0.0032320207951904247
-1.4140992893846543e-5 -0.021035531903363148 0.0009806446249019207
0.00010980296191929928 -0.0035392295650814344 0.0009040324535975765
0.00011345125705258654 -0.004186900899577589 0.0010305501844795851
-6.631498751050992e-5 -0.010695207138846323 -0.0013944247356043877
-1.1024259901969888e-5 -0.013488050313716799 0.0004749623765612947
7.967871901173447e-5 -0.017756732421517103 -0.002043861958103012
1.343996252134615e-5 -0.035163221091228165 0.0010617612771243782
7.790271907270153e-5 -0.012298816703890686 0.004172580438165365
1.2660095900788933e-5 -0.03375094798077106 0.0006489895139116022
9.475702212170214e-5 -0.009740612504720228 0.0015555080291416404
0.00010175385497314583 -0.008782316915544118 0.0015439898528746784
-4.6640772315090347e-5 -0.024906725234580228 -0.004282990889425069
0.00013917419175668352 -0.010302639875082927 0.003928031659931298
1.9139460077835876e-5 -0.010204876028464305 0.0027355932776381036
4.5473401874672154e-5 -0.011074028366534022 0.003825541141752612
-0.00021602636822928113 -0.004249622055980879 -0.002172300422408237
0.00012412164795988295 -0.007157850252833617 -0.002600184422878684
-0.00011965177523058811 -0.0098788286752237 -0.0022538543152268134
0.00018882295257318483 -0.0034260784092681714 -0.0018969234697116377
0.00019408136683834846 -0.0028980293595237557 -0.0017518270640612854
0.00014279726921293396 -0.003157304758637206 -0.0017914547170184475
0.00016892688577593563 -0.0056508597726710385 0.0018594801513685036
0.00011088337866281992 -0.0055410048982108915 0.0011585250240113802
-0.00012461912189906524 -0.008857913305973662 -0.0021196975734052454
-1.73133660397534e-5 -0.012022660834336885 -0.004212933927843653
0.0001388528380467321 -0.00972029606581868 0.0023292736249884718
9.849730204634337e-5 -0.007661159086513778 0.0034387288585872164
9.166759782678691e-5 -0.008474571250928988 0.003540345694996153
0.00022560004749755708 -0.010103002903576106 0.0039419444661099
-2.842143327752756e-5 -0.008267503181352066 -0.0005447585192096161
8.740345586139218e-5 -0.010469724350782954 0.0038529585565924445
0.00019959094832066614 -0.009331543610425479 0.0038218212017156307
-1.710165372891959e-5 -0.04290148886919556 0.00611122478605156
0.00021043805407738563 -0.008079940396150384 0.003034924317334255
0.0001047799733117516 -0.008994795004116625 0.002394171379877338
7.282544652894626e-5 -0.008180264621046075 0.0013401013499008442
-2.9320509549068572e-5 -0.0007373101709317774 -0.0009216242180795268
0.00018315006066105962 -0.004227339431273513 -0.0016485451457020463
0.0002455560773501393 -0.004468396571444044 -0.002321582192386567
5.94120925191737e-6 -0.0014309094934049943 -3.983608011632959e-6
-5.388544812535874e-5 -0.03597030281243583 -0.006090050589394147
4.808617001735476e-5 -0.0015126688303248655 0.00021621699403738886
0.00011792610074684051 -0.001959871694824459 0.0006659489930536264
-2.7863211012269617e-6 -0.00923767792795754 0.0037044323958426526
3.981568846825144e-6 -0.04765280902172269 4.338224394534618e-5
5.246835094703347e-6 -0.04886666057329656 -0.000976512788198634
0.000122369462688948 -0.011924473204366275 0.0030427670518515144
2.9448153507272334e-6 -0.04891235348501353 0.00043431902901546805
0.00015240544101157498 -0.008035127584636691 0.0021947220129523285
0.0001470063743453679 -0.008924979814074793 0.0023020027392853877
0.00025717001308727603 -0.0065926361350255565 0.003265035435095568
0.00025073646007363234 -0.00740132332065227 0.0034396975418306713
0.00015085144537256998 -0.008485358377584518 0.0036100623842540407
0.00014538807188519342 -0.009374595739199177 0.003771664800759499
0.00011358978931020861 -0.008393313871116193 0.0028354968926457462
0.00020398491803702375 -0.008964055812279615 0.0031746909804841942
-1.8704223832019958e-5 -0.0019306153775077621 -0.00013943766819021538
3.719150074526263e-5 -0.0022030835739570024 0.00020096949234067258
-4.486110672553111e-5 -0.016745792540163257 -0.0019402903466814669
-5.2507872644610365e-5 -0.018044367434160973 -0.0025126993733234036
-7.292514412603635e-5 -0.00795091659291262 -0.0012186458413766192
0.00013128099483832977 -0.012983984025884764 0.0034735608660471564
9.280934355524432e-5 -0.01395377748021052 0.0026094727898133057
-8.8932732084633e-5 -0.016997183145496718 -0.0034952244536304794
-2.7368516650265595e-5 -0.007346997155420933 -0.0004782524273807853
0.00015337708363322828 -0.007620411070079656 0.0034449740019468498
0.0002423715992949087 -0.008289667652388729 0.0036205961649292246
-2.2964501465689715e-5 -0.03998533812344225 0.006062564159460872
0.0001607994749154591 -0.007384564641900485 0.0027204137177384573
0.00020761009503846844 -0.006607979757580752 0.0032560702463800975
0.0002125667022326016 -0.007583038340862751 0.0034875468691738256
-2.144290038250763e-6 -0.03267500959811826 -0.001021811971420957
0.00028889134100323134 -0.004520922240636633 -0.0027643817363405933
3.837385770897011e-5 -0.003268074527321999 -0.0023114623339940184
-8.340368460702502e-5 -0.009506113768602022 -0.0037212405686259144
-7.093040842857219e-5 -0.007154679341313589 -0.001081795276275387
-9.214281173951287e-5 -0.00693841526479141 -0.0032365114263181094
0.0001244248300880763 -0.014628635082376731 0.003626510220812887
0.0002653447729372873 -0.005860247190984593 0.0030982649477644406
0.0002242097217077719 -0.005695004648287098 0.0025629454209128936
0.00023372048080508463 -0.005267971945002426 0.002951375459128941
-5.335945487902567e-7 -1.5157295311712095e-5 4.6208240947766305e-5
-5.938549210533004e-6 -1.9996425335367106e-5 5.292691419814155e-5
0.00015638768547810163 -0.0063427311467678885 0.0019216276223854938
-1.868798863060204e-5 -8.85412744680977e-5 9.600246526821669e-5
0.00020665990023268217 -0.008439374185677155 0.003657673341565577
-2.587693758214585e-5 -0.005175837710181331 -0.002088379676367233
0.0003172071532656584 -0.000972431209777753 0.0012594671927999826
0.00024884989358190627 -0.003331591528969649 0.002366510705630411
0.0001804963081544017 -0.003378736727242906 0.002344291475548625
-6.16226635420687e-5 -0.03455552824323102 -0.006035335490134576
7.659345101380417e-5 -0.00901572891514753 0.002711114240903189
4.965262793259842e-5 -0.0096940788932898 0.0026031182255085855
4.7214955793575164e-5 -0.004646603712756331 0.00273747353725994
0.00017334526148047956 -0.003517354093777602 0.0014709460093867165
0.0001851549313330214 -0.0030176555411628586 0.0014006860881028847
-3.202299977393952e-5 -0.005052372800052281 -0.0004087364820210742
0.00022307868070998722 -0.006434254522473669 0.002741624988032711
-0.00017912827274002473 -0.010000231751415706 -0.003772866894885388
-0.00017105668672820677 -0.011210534221416274 -0.0041194882414204315
4.704277069224639e-5 -0.005627097198973382 0.0004392099943226295
-0.0002199579815803626 -0.0035952013541572223 -0.001992394568452419
3.418862846772973e-5 -0.005015010571881144 0.0002603247734749311
0.00010744153970867215 -0.005698783444857759 -0.002880847058228407
-0.00010067029739324242 -0.004504292505673741 0.0010575352843911786
-0.00010801937845178782 -0.0037826987878947053 0.0009807187634855818
3.6207431551939956e-5 -0.005933135606941958 0.003179564473307178
-8.634353040409216e-5 -0.007750004590742447 -0.0033854126432157805
0.00016717982636854775 -0.004842457841532212 0.0017111446293029409
0.00023080566058988674 -0.011123450420316172 -0.004168063241077142
0.00019661428883852516 -0.011176657659382703 -0.003538657437384882
0.00022949087100714607 -0.010236848009579936 -0.003892670071751179
0.00019586315753536136 -0.01032246416899472 -0.003980659200767799
-0.00010842218209443771 -0.00293972313329511 -0.0008581007741424974
0.00022120226569613592 -0.00568468001796044 -0.003000329293377987
0.00012322204303696172 -0.008353736105800267 -0.0021516739831094716
0.00015443385981207537 -0.0094920070677367 -0.0024284215817089783
0.0001508876356421231 -0.00880607289734655 -0.0029697650689400426
5.332215491715545e-5 -0.007407850212920509 0.0007101906151327757
5.779847806071661e-6 -0.007001909823349805 3.3244455622421826e-5
1.20894188970927e-5 -0.00782264657236769 7.831244157749947e-5
4.717757998878535e-5 -0.0007269374382525955 -0.000905606833429976
0.00022543611423432803 -0.005967406098606227 0.0031060738862763544
1.7135464418171926e-6 -0.04752846869124281 0.002627966856142678
4.6825265528568384e-6 -0.04617959150124131 0.0032663246795116515
0.0003156039215961939 -0.0013160590408643142 -0.001487330282293963
0.00024292766420022728 -0.0016903436511715689 -0.0016404568340565922
0.00032297756754355204 -0.001716897026890312 -0.0017149487667477235
-0.00022063482203646173 -0.004580408713388417 -0.0027231013547449638
-0.00023096271537139111 -0.003919199454456851 -0.0025457698024960226
-0.00016637872878842535 -0.003960745820592097 -0.0024461268624212215
2.5407676951655133e-6 -0.047536691448457645 0.001858909971917954
-8.75591286775591e-6 -0.04643405369416142 0.005347198409347347
-4.971182904617869e-6 -0.04829063078167367 0.004908415330335456
-4.2178802152880494e-6 -0.0484266563270644 0.005060394931989437
-4.370063771666827e-6 -0.047504630919313645 0.00413372931761216
-8.584140915145173e-5 -0.008989448817685312 0.003583849721804259
-2.0990319680185763e-6 -0.04888000978825269 0.0036512018585868177
-5.580359315718623e-6 -0.04738580782019782 0.0039041983449716574
-2.3132587456375724e-6 -0.04759425474947817 0.003655215231955518
-5.571652816836898e-6 -0.0464190792580627 0.004888954870258657
-3.437013163372524e-5 -0.03477523911623792 0.0034740631417688084
-2.3165488451501257e-5 -0.034135974940754446 0.0045614636977681
0.00023806020453814693 -0.004951863707314981 0.002433103290265753
0.00012130688158444272 -0.0016762402043640442 -0.001187479307485447
8.832572491157823e-5 -0.0014771995950327679 -0.0011952167347726453
4.488824894882711e-5 -0.0018162222049866695 -0.0015495031347647044
2.8149791220701344e-5 -0.0014880173875762613 -0.001465330076569679
0.00010574774944405279 -0.001750642376461264 -0.0016251027039623045
9.962936995246697e-5 -0.0013814270586569534 -0.0014178598331447212
0.00017943061626692305 -0.018673261477149112 -0.005021949598201044
0.00018697152193968797 -0.01762294893502906 -0.0049607883004523946
-0.0001644210530608767 -0.0035039010283313904 -0.001469342085743942
-0.0002702165898016671 -0.004413223420441422 -0.0027425965960262352
5.9854603268499154e-5 -0.005651654136316484 -0.0006360972880965741
-0.00010178892259650376 -0.004730017971623871 -0.00270480728722422
-0.00018166885076859038 -0.0023638947568936143 -0.0019271679358288647
4.556156164203274e-5 -0.03172222867865405 0.0035161505036864064
5.051941422767703e-5 -0.030208533023431128 0.003488632859145386
5.59007451092824e-5 -0.00315651578656902 -0.0018847326888523377
0.0001634294925191211 -0.0041713693490365005 0.0015749145585804722
3.541050127996049e-5 -0.030810653360948587 0.0024578795855733754
0.0002781877067069515 -0.004449437774895555 0.002725222348539203
0.00024133796616014898 -0.004278302550259808 0.0022722332649703515
0.0001702791793713128 -0.0053472272847862315 0.0029109910456935747
0.0002855174413752776 -0.0037662225055505724 0.0025117625125570284
-8.970403083148864e-5 -0.014032947864787431 0.0034923715452318616
-7.610538059249119e-5 -0.013896134834778098 0.004342622394904154
-7.36770775154122e-5 -0.015017100742399871 0.004470653872690932
0.00011529510924926475 -0.0029742363031379777 0.0008786188425193804
0.0002473955935224922 -0.0036447494336324707 0.002108925996469626
-0.00011040732746657602 -0.0007623194861796721 -0.0004139883777284538
-3.3159827778498964e-5 -0.005700178550979853 0.00043196752494248505
-0.00027359168813321426 -0.003799909896473884 -0.0025197404434545963
-0.000284168236019364 -0.003291027522784456 -0.002355278339424165
-0.00016855345857189706 -0.002963799949070023 -0.0013514481460980346
3.2475684658910685e-5 -0.0025972269337870097 -0.0001755976511270384
6.165113900142858e-6 -0.004685367823856189 0.0017188742350582988
2.860608554822301e-6 -0.005341663351973677 0.001895095811511715
0.00023685159142528228 -0.004574061872533317 0.0027603338348695084
-7.691469215906567e-5 -0.012118504916847305 0.0016512894526291696
-9.351945269736054e-5 -0.00662388436697511 0.0012592478305009584
-7.326072728106908e-5 -0.011213055928536528 0.001535939172006189
-3.5423834325414914e-6 -0.036277072147649594 0.001092324367658567
0.0001191037177467997 -0.00399384569576022 -0.0011090718686233394
0.00018314040099954958 -0.003374237809868236 -0.0014530378551378578
0.00011675896492092445 -0.002364796510647554 0.0007662147444365625
0.0001833103648941409 -0.0031042952192852124 -0.0021960709565067666
-4.0117844193727214e-5 -0.0015828882546853813 -0.00023294867663214842
-7.147033837430939e-5 -0.002044592397836426 -0.0005030094682210248
0.0001151751708705831 -0.024720486122239056 -0.005462192956867065
0.00011097618280397163 -0.02599452246599792 -0.005533690468735403
8.014903014011216e-5 -0.026050046988400893 -0.005542431012880127
0.00014346441954822645 -0.025125692455655105 -0.0055833787901497026
-3.578809159151519e-5 -0.0023674529200697733 -0.00034814218409999476
-0.00022849706231068185 -0.003010640656180613 -0.0018307570619697266
-0.0002895441097525232 -0.002733199852522703 -0.002146987967014377
-0.00023418850169704112 -0.002484919914424251 -0.0016477894998741726
-0.0002971612577210823 -0.0022128711139840327 -0.0019319214094702358
-0.00023333114416558472 -0.0015787885228927016 -0.0012781282212934334
3.718495511344527e-5 -0.03453958110232223 -0.003904323488201663
5.0483401226451685e-5 -0.03399322230976411 -0.004592174272724843
-0.00016697438362436615 -0.0015213637289775647 -0.0009291546097941785
-0.00010447420375416343 -0.00349136203420656 -0.0023229456186814688
0.0002503360733569921 -0.0030648509111620907 0.001939160464197879
3.990505424378185e-5 -0.03429585334972463 -0.005953532319701899
9.721503185495754e-5 -0.0007529470161022557 -0.0009507741928138188
0.00017577348796328065 -0.0006034581898969778 -0.0008498864432418104
0.0001124866135013174 -0.002939539372333804 0.002111574399296506
0.00030705000937164746 -0.0021748402778806143 0.0019207208328296363
0.0002591123892324478 -0.002524198208006549 0.0017638259993275835
0.00014833511153252509 -0.0013852891240661216 0.0011463156503123142
4.489995668638123e-5 -0.0012018079032066482 0.000259209137910037
0.00014808322675266992 -0.0012265505984139738 0.000834299066598349
0.00030017524994175644 -0.0026734594383726476 0.0021297606514673775
-3.8679759995472676e-5 -0.03905375348118493 -0.006164002663379037
6.439581990815387e-5 -0.028059017205546308 -0.0034284309741915075
4.8709671254245036e-5 -0.02748599741758167 -0.0023823179462970187
6.770754815273488e-5 -0.026804660418616393 -0.003393225202119713
-2.5616015427819673e-5 -0.0023240435545693757 0.0019048068099047678
-0.00015707099307108257 -0.002457534405424239 -0.0011267123351714342
-0.0001750227642514238 -0.003412582306005734 -0.002321201857901855
-0.00010662720336740287 -0.0021069566224980675 0.0007319818866107454
-0.00010430558783092788 -0.0027073502641860097 0.0008260572521373462
5.3320566737321465e-6 -0.001765903254665263 -2.7765202101907234e-5
4.493359754532745e-5 -0.0019645465532438216 -0.0002621182591288934
5.6000300395686894e-5 -0.0010992379023576047 0.00021788230648233536
0.00012225922313478758 -0.001117572395546488 0.0005430259293945264
0.00011707026374515994 -0.004604063442962018 -0.0011302602293003785
0.00017389551960207271 -0.0026300428870321244 -0.0020291837291023227
0.0001718081810272854 -0.002165897115313361 -0.0018480530365895243
0.00016291303787169023 -0.007536111252550516 -0.0022054739770199327
9.81260586668527e-5 -0.007629869598332342 -0.001332149461523245
-0.0001113274053425478 -0.0014338556572028203 -0.0006058540584886371
0.00018145780292611798 -0.002425046287205166 0.0012406277235628886
0.00015039068108245267 -0.0018490681268701944 -0.0010645134706303426
9.286327669816011e-5 -0.002747381644084661 -0.0015944656364289592
0.00010954033945662802 -0.0026422293418913493 -0.0020194175633910043
-4.027143516052623e-5 -4.5788145152771505e-5 7.776802407877769e-5
-6.467766908699131e-5 -0.003070858043770776 0.0007109285695816444
0.0003125693231940922 -0.0006972541413491567 0.001045725937030974
0.00025435919682551027 -0.0008536568283062764 0.0011193580875514322
-0.00030387571237309037 -0.0006543238936298244 -0.0010107159223694151
-7.638157976048823e-5 -0.004197290087118661 0.0015053663181555637
-0.00011787444752385261 -0.004704358371563523 0.0015906685781596707
-0.00014575282562550353 -0.01542045356032881 -0.00469266347449888
-0.00017763123106726722 -0.0019258000755676618 -0.001098242282845432
-0.00011381996705958684 -0.002920021341821344 -0.0021225056975283357
0.00024138223276749378 -0.003422074446535227 -0.001963094850488024
-3.899429340641273e-5 -0.0022653831227413043 -0.001871108464250378
-2.9956665344182363e-5 -0.0032724461929254578 0.0002860360273820696
4.566436654552933e-5 -0.0028658544950113597 0.0021532650340885047
0.00019056753180913928 -0.0019771410525363767 0.0011412842767817729
0.00027279121867063166 -0.0012089169427934247 0.0012217812261818319
0.0002732003849539741 -0.0008748112515295113 0.0010347883795908156
0.0001290499306602707 -0.0014822163457475816 0.0006477239872771018
-0.0001864281445127817 -0.0008155486703937584 -0.0010324867745897174
-0.00011870878714626832 -0.00085516798128514 -0.0008166111693725712
-0.00012818866871770095 -0.0006661429390544485 -0.0005566247272428979
0.0002656146189135416 -0.0020348830911366585 0.001584798075209387
-0.00016865471785839994 -0.0005868135810607934 -0.0008300750078658515
0.0002711868471972615 -0.001596734907031468 0.0014029001088065676
0.00018341442248221898 -0.0028296801590619713 0.0021394885527387776
0.0003124235850512898 -0.0017255151773705973 0.0017073491308833024
0.00019544876280520914 -0.0015424744690368203 0.0010084854306561927
-2.4546286074657736e-5 -8.806364120976843e-5 -0.00012031912014814676
-1.812775328754341e-5 -0.035491924273167066 0.0023009165146498506
-2.872091221514838e-5 -0.03664269163383671 0.003516659837940961
4.8679937515052006e-5 -0.0028358543779315355 -0.002122935206585199
-0.00018316174628981436 -0.0011169659264977387 -0.0008323882701164627
-0.00010107636193960625 -0.0011045624847262085 -0.0004593377418585536
-0.0001827893563469036 -0.00216271273264631 0.0018552136703436448
-0.00017424807975723185 -0.002635743594350277 0.0020566918918291177
0.00016771851349507057 -0.005002600207611197 -0.0027921114732319795
-4.202268913956206e-5 -0.0012093878527758462 -0.0002121132022152032
-5.681870819022942e-6 -0.046164443781204496 0.0031020965525860662
-1.1533123721352146e-6 -0.04630522915841594 0.0016717385074436347
-8.29830713174786e-6 -0.037730138832588286 0.0014858832517807565
4.6764161276001426e-5 -0.035280496857449634 -0.0037150031737008815
3.080375856881612e-5 -0.03567488360407387 -0.0023161409929085834
6.6208894509025814e-6 -0.03364810983317913 1.1011534270892272e-6
0.00019136240936586232 -0.0011033005845724922 0.0008422178001483291
6.510583614976366e-6 -0.035078023166051076 1.2744276460006022e-6
3.728549323565537e-5 -0.036391970925492116 -0.0025292923913646974
1.874946058149955e-5 -0.03573179787995878 -0.000964636701023932
0.00019042404374900945 -0.0007838164875226954 0.000705514039656901
1.5811274903582555e-5 -2.748934993492792e-5 -6.815255540729254e-5
3.421955668727752e-6 -3.528416199249349e-5 -8.088410386786878e-5
0.0002623390480714868 -0.002282035628842596 0.0019572960105369804
1.2444465552889862e-5 -0.03230302760142937 -0.004522916459528248
3.128571430187871e-7 -0.030774123707650244 -0.005806710766703422
-0.0002392105646895913 -0.0011754498493839398 -0.0011380494806122459
-0.00024385125358470774 -0.0008549581933487883 -0.0009437327798035848
9.409607374029442e-6 -6.244656345184454e-5 0.00010876855630407316
-0.00016896893045403893 -0.0008045020326097855 -0.0006574580659074867
9.54792489593122e-6 1.612050319096568e-5 1.1539394053066201e-5
1.9759648297400387e-5 -2.3885388361226508e-5 2.9091890770164342e-5
0.0002962995361983037 -0.0004620308839927272 0.0008182111974037619
-4.0113085125962486e-5 -0.0005105441924457223 0.0006991558709759901
2.306343382460435e-5 -0.000542592631031754 0.0007331179304872517
0.0002186312529615233 -0.0003429516510457451 0.0006057791090829393
0.00031764556922123593 -0.001373537872130889 0.0015252718442578441
-1.3412737857540891e-5 -0.03567086777511492 -0.0024861191977066125
-1.469849092646171e-5 -0.0380663742224312 -0.004771862157002022
-4.007065154032893e-5 -0.0005572321014298431 -0.00013713771045709668
-0.00011950683787235259 -0.00047499649814335436 -0.0003685875807070923
-9.756494553329887e-7 -0.03767286765317916 -0.0011010693136983521
-2.1175292728966974e-6 -0.035428276896610766 -0.0011056375294781233
-6.262834958967681e-6 -0.03471423702752963 0.0008990687682179273
-2.4040647845236472e-5 -0.0372994167213873 -0.004436243658538386
-1.228601865768472e-6 -0.035748981131325026 0.0005272426390087405
-4.3078939720082406e-5 -0.0008570808438722931 -0.0001789595089068377
0.00012427785434292082 -0.0007605886950665271 0.0004540638580008092
-0.00018080716674984937 -0.0017242402886089357 0.0010411330255502536
-2.0343666567710436e-5 -0.03416636508526236 0.0023547587552121474
6.63411254733679e-5 -2.329660023928049e-5 9.628775325166751e-5
-0.00011549180284635413 -0.0017885672926424045 -0.0007119825745912456
3.481555040150152e-5 -0.019267383379443292 0.0012174764260027334
-8.302216463841451e-6 -0.04802371537464145 0.005348268167604432
-1.1500270453715397e-6 -0.04927850589504764 0.005105149823675531
-3.470875016251979e-6 -0.048018943233612964 0.003878042155336453
-1.6389096701540755e-5 -0.025837584014422314 0.00449145127291387
0.000175319803821428 -0.00031923790069939305 0.00044811328605282177
0.00027038783262859863 -0.0014158249554771043 0.0015246331206046372
0.00019676763121451632 -0.0014712203821754173 0.001500200571742772
0.00020701420631282345 -0.00130128987437059 0.0011606308343792306
-5.2460916826576946e-6 -0.045196289072649845 0.0061678303886912
-3.3264416006429e-6 -0.043607820199700734 0.005944381011353594
-6.546428327464233e-5 -0.02542342846329996 -0.004408821958556553
-6.385872631196394e-5 -0.023921402383699136 -0.00431157186998978
-1.5088534565459681e-5 -1.0017157665330448e-5 -4.904045187772826e-5
0.0003378783377220673 -0.002299493078964994 -0.002094715199405824
-0.00017402651797313143 -0.0005243553256323541 -0.0005397148259576784
1.0485117506550838e-5 -0.04518502947279455 -0.0013455627056149588
1.0284122469245713e-5 -0.04637172557000108 -0.001785952557580372
6.324790747970648e-6 -0.044979038141637895 -0.0003952141734025227
-0.00017983486805803471 -0.001897697747289049 -0.0017103885282683203
6.4483853177014466e-6 -0.0010572186436203436 5.266304419849866e-6
4.796836692760043e-5 -0.000765341516797048 0.00018001054062371442
-1.4496907453218693e-5 -0.04022316549648214 -0.004860483435026177
-2.8269331336162197e-6 -0.04928884707001718 0.006593002023746492
-5.112206405124577e-6 -0.04895157361426929 0.006279800390313429
0.00026971005724764244 -0.0005961804760742802 0.0008425670540338446
-9.403866736253569e-6 -0.04524936074464942 0.00612457076453838
0.00012681329751121887 -0.0011657831886365336 0.0012793049926195315
0.0001249683334351105 -0.0015171066515379376 0.0014974384049836675
-1.3012917172107986e-6 -0.03966830313308817 -0.0014996499226624844
0.00025203926419349387 -0.000371477843714789 0.0006471634056476696
6.54872408819541e-5 -0.013923981518139818 -0.003338359849715471
-0.0002620911129473206 -0.0010742116856788978 -0.0012902201319608386
0.0001316594331632304 -0.012604740655185428 -0.0033220568724714886
-0.00011625169031288132 -0.0002652654123424066 -0.00028833939044968753
-6.549253117456466e-5 -6.286600754008054e-5 -0.00011035551276635449
-2.980045486120341e-6 -0.046382880098811176 0.004835318700523915
2.2120826878406975e-6 -2.749647606220587e-6 7.077486881404703e-6
4.757040765373214e-6 -0.04232785398364913 1.5260732281918164e-5
2.3738695643311627e-5 -0.04226167512004639 -0.0025417894340079234
1.1773924600099365e-5 -0.04301071286511509 -0.0011799718849193166
-2.126623481516838e-5 -8.519303826314779e-5 -3.770120098118835e-5
1.4656827516300412e-5 -1.4661701330546959e-5 4.6307665721927145e-5
-2.576024517353278e-7 -0.0007092276503639787 -2.434576730829873e-6
9.051459981240983e-5 -0.012830693642296572 -0.004187960822191876
4.558808260112207e-5 -0.013421176014193065 -0.004322150655376106
7.29361320843616e-5 -0.015040838194772008 -0.004547129034699314
0.0001910613065182665 -0.001870786586098292 0.0017182088994588632
0.00019445857345481296 -0.002361327308270512 0.0019337713896408937
0.0001661047720046701 -0.00016703612478046175 0.0003339443497392437
0.00022633624757980222 -0.0002009275240465222 0.00044752595518346433
9.604659804915605e-6 -1.0358080889684956e-5 -5.472778067383361e-5
0.0002673981103775703 -0.0002830237938551321 0.0005884048963286968
0.0002723156974551561 -0.0059425816730967924 -0.0031380862860353447
-8.622917603281453e-6 -0.0005100728511621134 -0.0006874439983917843
-9.907761604641556e-6 -0.0003440264050542561 -0.00047477662949609034
1.0304740898814085e-5 -0.006964444888534784 7.578037039071236e-5
4.2812951292433176e-5 -0.005479842030842969 0.0005432424230725167
-4.8688343866294257e-5 -5.280382072584107e-5 -0.00010290807926284905
-8.38919053614324e-5 -0.0006146977279839793 -0.0008284762599384966
4.1916522748108444e-7 -0.0462005341823567 0.004942577767514646
-0.00013256140862487768 -0.0001233617374264558 -0.0002484506841198602
-0.0001046024932639344 -6.260376746739488e-5 -0.00017115152463355765
0.00011497696953506965 -0.0040078605858177635 0.0025399603248834127
4.70917065373256e-6 -0.04699535672211166 -0.004519643212518172
-7.860142924369201e-7 -0.04520059624424225 -0.004993817245109912
-7.760324963500349e-5 -0.0001081257574025436 -0.00014832104322484095
-9.126654839421161e-5 -3.1634693710116154e-5 -0.0001335135344632664
-1.2892734438919496e-5 1.2852838892212172e-5 -1.5275586988991978e-5
5.382975472225584e-6 -0.04141963197364193 -9.224614183723125e-7
0.00010387410311504268 -0.00011019337741571976 0.00019388099501541049
3.374393204187194e-5 8.88926935556846e-6 4.084829143336909e-5
4.0499445127813996e-5 2.3116739422133647e-5 3.957807689278402e-5
-3.3251758862678944e-5 1.3519937293180636e-5 -4.2170101458168186e-5
-1.0877222130317427e-5 -0.03396094556134708 0.004324408283547959
7.45113205557841e-5 -0.030915197705459835 -0.004655143818453043
6.690383266775275e-5 -0.03149705413001173 -0.005825556517184776
7.045288631006613e-5 -0.032047003031985426 -0.0037621793961944475
7.315803348579813e-5 -0.030647745714079484 -0.003720278416281471
7.353895244849175e-5 -0.02894392616304571 -0.004495594237244563
7.754827834967371e-5 -0.029282269217318316 -0.0036508002101942865
6.865139064914053e-7 -0.048995294552909956 0.003407747919584411
0.00017611667936816056 -0.0196311905264055 -0.0051631515725264095
-0.00020330046425915473 -0.00029533823374634706 -0.0005323758114682863
9.64196797755233e-6 2.641752657216023e-5 8.431366370454427e-6
-6.28329956871115e-5 9.5226732544512e-7 -7.034062314071932e-5
0.0002001693612836144 -0.00014851206512339518 0.0003298981892457557
-6.391517505286999e-6 -9.220956417555084e-5 0.000121425632482105
-4.338594003410283e-6 -0.04369698490266388 -0.0061765028829294955
4.506268840413228e-5 -0.026113161527254174 0.003166320370447309
0.00011870836434297828 -0.0004764531536513426 0.000362596226101617
0.0001421510593761757 -0.0003009549738981126 0.00048683143897736993
0.00017022374261356745 -0.0001958285462499632 0.0003631140039708453
-6.813678653661785e-5 -0.01613088846376366 -0.0025577525090638435
-3.9180533061098186e-5 -0.024350575812298846 -0.005314429924343829
-2.129144637150186e-6 -0.025115677781413447 -0.005314333043325844
-0.00011808637305405762 -0.0009379985738292427 -0.0011047177533083242
3.145487549156727e-5 -0.041654714217701644 -0.004870212039303726
2.1199187481661938e-5 -0.04069528948804094 -0.006145581253913872
3.484416987838151e-5 -0.04287212216361732 -0.006089240147582668
3.0100446910830706e-5 -0.044056625473986755 -0.006106712242691266
9.300742920332006e-5 -3.132683333679537e-5 0.00010716612263630322
-4.096309168630932e-5 1.6456919677536877e-5 -4.275381809262986e-5
4.223963362380342e-5 -0.00036217658659333074 0.0005091595208823615
5.366003403659895e-6 -0.0010849714911238793 -4.583719382305986e-6
-5.1318394201372945e-5 -0.003076450895953952 0.002074746112742674
-0.00013752731128962973 -0.0021404336340756277 0.0014493443327421066
-3.708253737747911e-5 -1.8373313801733095e-5 7.240740032282814e-5
-0.00011247197170605721 -0.0021906497644519425 0.0018444768197671756
6.318077941821431e-5 -0.005691970718465426 -0.002902367266975916
0.0001001449746752863 -0.006301511007443929 -0.003010743556268601
1.3360885398864984e-5 -0.03514599407264055 -0.005453923135908378
-9.64120275868395e-6 -0.03495095984168311 -0.004521546949964394
-1.8426347894685572e-8 -0.048041569633577724 0.0063388122222385
4.270095811614678e-6 -0.04750136628069534 0.005282502593166281
6.919194472518916e-6 -0.047563329431671526 -0.003423854056200414
8.253573678452584e-6 -0.04899560427810428 -0.003001199476394628
9.554046708016026e-6 -0.04883627539448072 -0.004013332547620036
-3.7698624119305163e-6 -0.0489031790842803 0.00511099415970965
-3.165164269895955e-5 -0.009162854346356372 0.0017069517934469802
-1.5466396425249994e-6 -0.048825229792474396 0.0037884920862157347
-1.958855580299217e-6 -0.04893741256789464 0.0038850465293854388
-0.00024399735055631147 -0.0002734743189742202 0.0005490116139146657
-5.456014889801945e-6 -0.04901414651414603 0.006311431244060774
1.342248175828292e-6 -0.04886715861999501 0.0017799213501900582
-3.981218361263524e-6 -0.04803570506728726 0.006343342707409639
-5.485858207881374e-5 -4.476344224712212e-5 8.38768055161817e-5
-9.449938612473171e-5 -0.006347019899578224 0.002346872783386729
-8.899752073998174e-5 -0.0065357626750676715 0.0031540295085300337
-6.0368298124926264e-5 -0.006227853756153251 0.0027184700414300067
-2.7736803113787465e-5 -0.005284454917861327 0.0029031366930105528
-9.064074845092413e-5 -0.005679911617132275 0.00282671780852973
-1.7817513226214374e-5 -0.006064016480496433 0.0031024793044589793
-2.2437243359570821e-7 -0.049014880896780126 0.003395152098876133
-2.8706644196404776e-5 -0.033542872605688036 0.0022925844281976335
-5.739213377523426e-7 -0.04758024800698364 0.003338898190714957
9.904218534267382e-9 -0.04876369917770887 0.002613395728005612
6.092834414225039e-6 -0.04659096882081122 -0.0029194503012902545
-6.46437271310296e-5 -0.034794244400383624 0.005092755676703096
6.445547073624333e-6 -0.047634040121715904 -0.0028100897578586157
-4.4879779157718246e-5 -0.0009687606637527735 -0.0010966461581772586
-5.587407334108808e-5 -0.0005152040250487147 -0.000700470826339484
-3.50700332759982e-6 -0.04767112263331256 0.005002076409029143
-2.1493804749178756e-5 -0.04633965964987569 0.006500572463202517
-1.5193043311973372e-5 -0.04655700243890166 0.0053119372673555145
-6.082453882704909e-7 -0.04516540144147003 0.006166873133257274
-1.3485197064971971e-6 -0.04661707107478644 0.006188094511738384
-5.486245864303514e-6 -0.04803329236279675 0.0063440292141094526
1.1800764297052817e-5 -0.0068410684913591075 -0.00011338977641803212
-6.811691319266216e-6 -0.04803084925477992 0.006344406776579578
-9.50593563353263e-6 -0.047543041777438365 0.00623846317021226
-2.6127413506030458e-5 -0.010349921054869907 0.0005668324952957673
2.4390452889211988e-5 -0.011062869016174882 -0.00030071461516872325
-1.2834505578486021e-5 -0.046311797717857574 0.005165405948266364
-1.2865473166503266e-5 -0.04777670938983163 0.006585645143247954
-4.875172963647862e-5 -0.001813233910585046 -0.0015973207287586914
0.00012558055785440842 -0.016553310469502612 -0.0030480151072689635
0.00015713213040980756 -0.017635085103908286 -0.004145220257303878
0.00016625123732056396 -0.016484135114320415 -0.004064260474558827
9.759564766976903e-5 -0.0010461258947994422 -0.0011904047935469974
1.8110019330999143e-6 -0.04872096250473484 0.0013721114429111267
-1.3501669659833912e-6 -0.04881331499977388 0.0041184739414335024
-1.4662869714955866e-5 -0.04081776071668771 0.002405109738813927
2.028289032282492e-6 -0.049009291659977444 0.001937309764195527
2.3109035354792296e-6 -0.048012246437472206 0.0009675136107506605
-2.5297669997518954e-5 -0.04456362442874977 0.006259952435306201
-2.851924041228546e-7 -0.04893313685158053 0.0032827807119153365
2.226280937349202e-5 -0.04357118802709618 0.006292455288109203
5.318318135719693e-6 -0.004014633663338702 0.0016414011930368294
-3.4700290682627765e-5 -0.005786599382084436 0.0006011666107666573
-9.883479855839619e-5 -0.005309128577624025 0.0015143333796816213
-3.733949879284942e-5 -0.03865220426804437 0.006104854158737987
0.0001015549803158781 -0.010922902923399234 -0.002652667068419867
-3.066759482610053e-5 -0.04466467676718837 0.006429858773785987
-4.3425100001822393e-5 -0.04187414432101864 0.006226752341144799
-3.6303158100625644e-5 -0.043353439795701935 0.006252358224142973
2.2249106394659047e-5 -0.03795243968318155 0.006072862878787925
0.00012055726107285117 -0.017634459259641567 -0.003111553918418009
8.306589186026688e-5 -0.01659116352328449 -0.001996254990481739
1.3597659076247361e-5 -0.04773793048857246 -0.0050298803702904975
9.450484863685649e-6 -0.04889425589848457 -0.0035444198142859117
-6.247134845831557e-5 -0.009015600762516684 0.0014550071127413938
-8.937925625988915e-5 -0.009197359673924033 0.0025352506971429486
-3.213791051862455e-5 -0.039978827701820825 0.006061301815261478
0.00012465228912622258 -0.008167709133150482 0.0022051760710150815
0.00013263885050041415 -0.009975456098955365 0.002830068091730786
0.00015410438178701112 -0.00912202777504044 0.002985939265756769
8.956373185077923e-5 -0.009621231018218258 0.0019210545990794288
0.0001072758110906048 -0.009589560001567738 0.003008663006964963
0.00015755227504427217 -0.00823454390141841 0.002855273106365932
8.726746552786378e-7 -0.04653426888279029 0.0009815867830151484
-3.795714979934781e-6 -0.04653902305467032 0.0024270644666470934
-1.4622219959018993e-5 -0.007245908743062818 0.00041447061969650565
4.263872657246816e-5 -0.03915522002764675 0.006201699845134719
0.0001226780840047903 -0.0008796693323278206 0.0010632720424562088
-1.7635869175928987e-5 -0.03929357564567675 0.0023387167156621444
3.452866514716016e-5 -0.03784239284151667 0.006019900870548536
2.9712624457668737e-5 -0.04141726555853724 -0.006056191543644274
4.186473387813758e-5 -0.04009653364288896 -0.006114981671813235
3.334012283462534e-5 -0.039888074815712195 -0.005982603377783109
0.00011549281520517466 -0.016959674541321846 -0.003841641859103874
0.0001495052495261963 -0.017322034380143653 -0.0048578338839438484
2.018383091501631e-5 -0.04391561197463145 -0.006082677915978372
1.8460155973127676e-5 -0.04524989996527768 -0.006123956646068771
1.4888104904680925e-5 -0.0452343273758595 -0.006077620670827463
-9.050007945247905e-6 -0.04653849871380644 0.003888869965325785
-5.1330979661989374e-5 -0.038654876112815185 0.006190483195292618
3.986703191082476e-5 -0.03627559163831466 0.006035450593026669
-2.1255673951601723e-5 -0.03770948700349662 0.0023574229566297733
2.3766335297802463e-6 -0.04528810674278062 -0.0014739760535093856
4.087349343399232e-5 -0.03548464371327604 -0.00588147886069681
4.69631972377981e-6 -0.04642159152735799 0.002222760623474345
-3.3879896955389816e-5 -0.03923829220717603 0.003921820738334444
9.666222676051778e-5 -0.01320561268052983 0.0034341662713259376
1.876115034940659e-6 -0.04763105302299454 0.003548096653547914
8.973435633660015e-6 -0.033326305988190474 0.006022563526708771
2.9544152874204622e-5 -0.03345974562341907 0.005911211980895862
-3.358959049543558e-5 -0.0209661247269295 -0.0020180320589171952
-5.526077095036714e-5 -0.02176972587022319 -0.003011044446053025
6.626525532372464e-5 -0.02210862569799825 -0.004930490593580335
6.907541427297233e-5 -0.023240653262352407 -0.005245384419701372
-1.4983978437582498e-5 -0.034325243543422895 0.0059322657344736815
1.0093907300880888e-5 -0.037346018726271295 0.00603373440784761
0.00015202289442033912 -0.0161648217606149 -0.0047166632721156124
8.154333866536308e-5 -0.022180726450044434 -0.0043002730582525845
-4.12267444912114e-5 -0.037188463966339375 0.006057002355549509
-6.333923893447415e-5 -0.0357595435406754 0.006101732281368966
-6.015099865432747e-5 -0.0362185837618523 0.005164664871098432
4.092382202874401e-6 -0.03440053943925498 -0.006037099954648278
1.2514437055354245e-5 -0.03388106960123223 -0.005412682927104132
7.673104809863195e-5 -0.002084924854163648 0.0011993048876896056
2.3859740851672713e-5 -0.03627024940795974 0.006039709047616706
4.39678377032762e-5 -0.04043418386018803 -0.004994708982641342
5.7922345221689924e-5 -0.04005940266297535 -0.006232277118728267
4.226880642298397e-6 -0.03589633602749428 0.006045540734285877
6.982247483952542e-6 -0.031139969002912014 -2.9915602005793347e-5
-1.720041389436125e-6 -0.03530510575439937 0.005457853566802182
-0.00012320900475433497 -0.003554719473569572 0.0018740334245511876
-2.755403185631991e-5 -0.009694683283717398 -0.0029157912819196613
-5.6791707993399285e-5 -0.03720031191342149 0.006148743154487456
-2.8716558535671548e-5 -0.04059086981361282 0.0038294246716965175
-3.545199553479631e-5 -0.04206463612182654 0.0052919358239676756
-6.486464663729442e-5 -0.03748154056798432 0.006119732579178977
-3.752799652900933e-5 -0.037657637236881925 0.0037778643635385406
-7.905878205806777e-5 -0.008642503705529636 -0.0035443002374194927
0.00026627666270039393 -0.0018232640255157462 0.0017424075948136762
-7.997329821366734e-6 -0.03619288820170505 0.006065643488079866
2.6036161038097827e-5 -0.03603524853568404 -0.005730230069072817
8.117748692821117e-5 -0.027518667525305997 -0.004497430105349361
0.000105915328671844 -0.027350072731774748 -0.005480488841558169
9.89363928739622e-5 -0.02878137436726072 -0.005698755831558113
7.457132446047619e-5 -0.028755142770857788 -0.005653486377302832
8.88237158438656e-5 -0.029210090034046347 0.005812225475391195
-3.666722919677622e-5 -0.03885294106730893 0.004958540900052435
-5.400456951357694e-5 -0.03766588904084739 0.005202720608770509
6.290646999352105e-5 -0.0336916722553523 -0.0045325835948451885
6.02009394630234e-5 -0.034887824063409754 -0.0038346577795884463
5.2358062005233226e-5 -0.03371087523440851 0.004762302406640871
2.9436390177504134e-5 -0.03514808912549466 0.004635336475996704
-5.200010169406822e-5 -0.03431703590103632 0.005921015707685832
-2.961851399164227e-5 -0.03576575593661978 0.006006830250679097
-4.1550204867088355e-5 -0.04059064851949649 0.005266907028433301
-7.228742568329274e-5 -0.03603639039926741 0.006074014096338597
-8.642922012142014e-5 -0.03317818310057018 0.005966803783560257
-6.858565446816305e-5 -0.03438074360651437 0.006017606001621184
0.0003095472487305035 -0.002812635440560883 -0.0021920280482440034
6.897727707891727e-5 -0.03339415257200726 0.006010034491056177
6.83195682944964e-5 -0.028703108862309888 0.003544786487192589
-3.570784276149509e-5 -0.02925241785603831 0.0022240612029178273
0.0002556769150763166 -0.003246557095788775 -0.002324741233547266
6.350518108735373e-5 -0.03419168913183337 -0.00588786534057807
-6.226640297653103e-5 -0.028869060774750172 0.004438339939677867
-5.230279869503224e-5 -0.02815624833548351 -0.0045039199415192
-9.347055785914608e-5 -0.02517849644978067 -0.0055688477772238365
-8.055420117413528e-5 -0.027848538250939716 -0.005738946011266652
-7.948073898738794e-5 -0.03460013048014953 0.006022672245540895
-9.351612191279234e-5 -0.03176956416569726 0.0059054315907145875
-1.71520158093596e-5 -0.028755134156448765 0.005639217066441736
-4.222961406988129e-5 -0.028754731671216744 0.0056987905996933675
1.5674034000541487e-5 -0.03171839844692987 0.005757689485747365
2.6254051892534245e-5 -0.027344217895433304 -0.0008196892852018801
-1.95470486590593e-6 -0.0076687398176859545 0.00015062187031893634
-3.568142085208281e-5 -0.03354781933534366 -0.005871374543578621
-1.0534526165821277e-5 -0.03328182304186838 0.006032037929229149
-6.076188830858516e-5 -0.0007508882685240995 -0.0002631677732778483
-7.512871324902533e-5 -0.032908240673749325 0.005992152895696267
-1.3842520292523448e-5 -0.01905731177478338 -0.0009464247421632868
7.2817902130154984e-6 -0.01813135773253433 -1.1646670141990909e-6
6.335791726300907e-6 -0.017072477612076756 5.993356952002144e-6
3.7648305218489245e-5 -0.01719034410059458 0.001171872392985763
8.377061507195836e-5 -0.005314008347270163 -0.0011247915673603364
0.00013036338287324224 -0.0053970051921730195 -0.0017517610779455334
0.00010943699605649824 -0.006259256456824069 -0.0013019477075714818
9.553762036914591e-5 -0.02784818959902188 0.0057372240313589475
6.974194565846862e-6 -0.03797453734792347 -4.976144093914963e-5
-0.0001003123799421292 -0.03037585543219113 0.005839443488496467
-8.649437433491303e-5 -0.0301135857188584 0.00586156305113098
-4.509378414418818e-5 -0.030716286227551494 -0.005779153782249497
9.309769112968618e-5 -0.03010431628399479 -0.005780265782781194
0.00010437212435112439 -0.029163580154719336 -0.004905015042027715
-2.6949787594442832e-5 -0.02868827169379483 -0.005660286654354122
-1.947300139975865e-5 -0.02750255659629136 0.005692581830818512
0.00012804961697415737 -0.022116139916149868 -0.005232191498673436
0.00010133975604679323 -0.026501866582155895 0.005655707021390507
-6.269997002119811e-5 -0.03012894599119934 0.005786974878091753
-5.071601301931379e-5 -0.03334407428700142 0.0036812442356465337
-6.671971352324594e-5 -0.028756492550919575 0.005715630805014569
6.003680189958171e-6 -0.03223097564968216 1.8738284143543765e-6
3.928003113268496e-5 -0.035782101779328654 -0.004341677211888481
-0.0001067613899027573 -0.028998037760142585 0.005768319170443184
0.0001182170674152646 -0.011708905164123993 -0.0027939875642928134
0.00018403709719568028 -0.01164799181182596 -0.004124791116293771
0.0001904751465899215 -0.012157965755688959 -0.0036059919756130645
0.00014595056984100673 -0.010779799632686767 -0.0025091195472091254
0.00014687287561050266 -0.011070605503272992 -0.0033246784793032804
8.902802373986561e-5 -0.02654755797717661 -0.0035746259007319683
8.389210696175376e-5 -0.027908230831391496 -0.003621946565564059
8.241418827340589e-5 -0.024890607622968807 0.004316281349360945
0.0001083714179894233 -0.011992345230934974 -0.0033133127440077544
0.00015432887387043347 -0.006085919812822437 -0.0022723537659561266
0.0001211156550378972 -0.022591789664591442 0.005381644706415858
0.00016774224329388097 -0.006754366405777165 -0.002595239275640216
0.0001632976963185509 -0.0061929250221749626 -0.0019187088091375162
9.368685135218876e-5 -0.02521818432490416 -0.0035200387749839807
-3.68666051235138e-5 -0.025382931353137045 -0.00541249217666149
0.0001103195398758525 -0.0069219118231145516 -0.0013629715905645282
-5.289215418705132e-5 -0.0009412657844727616 0.0002992644103365042
-8.825614039986402e-5 -0.02916847812564167 0.004904721307587274
3.226649091465042e-5 -0.026829500677839877 -0.0013563730861972502
2.70908846527967e-5 -0.02602156321558339 -0.0007949311207760565
8.076678354525914e-6 -0.026719877217723818 1.5074035646153346e-7
9.241623857828978e-5 -0.0230148615877411 0.004244267255850027
0.00016295497176396586 -0.01484318646698352 -0.004571259784660361
-0.00010840024014830283 -0.007427034832423652 0.001961208526062076
-0.0001476748922668154 -0.006731537074423514 0.002012382380769884
-0.00013909332833183206 -0.0075699045681687765 0.002092437732586086
3.186324356430754e-5 -0.00741050660512076 0.0005223726135684449
-0.0001527749757654674 -0.006532956732782619 0.0032076759406381985
6.170556163941462e-5 -0.024601784959831417 -0.005351355114917379
-0.0002133583672597821 -0.006500244660827369 0.003251411133003016
6.185734400762992e-5 -0.01912214667386962 0.004886630067233311
0.0002928808031346686 -0.0037886938671006535 -0.0025357955299331074
-0.00010222456849763913 -0.003715855310815445 0.0023958143436669213
-0.00011854246097960688 -0.0031366559242024636 0.002200241163918182
-0.00010974231089208492 -0.002681465874698726 0.0020597534375144666
-0.00017338688387922972 -0.003168205119318622 0.0022492654505751743
2.5015966648136326e-5 -0.018853280685891514 0.004997200318964725
0.00010817930480333136 -0.02517792949761558 0.005569296541128697
0.00013851271135717656 -0.019646087191675387 0.004333486979967565
9.001899427314647e-5 -0.02135708192716663 0.0052142580918839495
0.0002549484058796532 -0.0026613598252182465 -0.0017938632639095593
-1.8607776740197416e-5 -0.02473733790109576 0.005450227700292151
3.712117877084515e-5 -0.022723093267108623 -0.0011156543588567212
6.901903409650361e-5 -0.022622621220261745 -0.002248874139499064
6.728846568701633e-5 -0.023961641561097882 -0.0022647064319161903
-7.671786793854074e-5 -0.024625498215369045 0.005423426521747321
-5.024094539478936e-5 -0.02933675079014529 -0.005709650549016606
-1.812804271932523e-5 -0.023008392251256816 0.005337913405598946
0.00016009670171725923 -0.022145155789070947 -0.0053226986449251695
-8.797186596943394e-6 -0.019791078389253595 -0.005145693405576593
-9.018143574531918e-6 -0.01861697181784926 -0.0050064582932037496
0.0002071860185923227 -0.014276258485402335 -0.004558279379895819
-9.357728349565927e-5 -0.027816461588986034 0.004816970102567061
-6.1866223061144e-5 -0.02220911390289063 0.005152589637278221
0.00011464253568082238 -0.007539065820504736 0.0027047409645256236
9.710068383578047e-5 -0.006961381747811651 0.0032178032165921435
7.918858333870177e-6 -0.019051330395075148 -8.915303034967485e-7
-6.795852109593387e-5 -0.017318032923135482 0.0047894782713176
-1.884535094026404e-5 -0.03457677949633482 -0.0031070122707037282
-7.807566291045259e-5 -0.023963865887417963 0.0033089876014355656
0.00011275221121766763 -0.018345873026789156 -0.0048508656438359206
7.2501498988183336e-6 -0.020268335376501773 4.526665442113444e-7
5.244321393712343e-6 -0.04789081198163705 -0.0009342490307660522
-2.004398374922459e-5 -0.02186311315452976 0.005237709972468735
-0.00012412138938835344 -0.02215473573474531 0.005346169989693512
3.72328277846217e-5 -0.018388703195980106 -0.0008269083504596152
-0.0001054605194484371 -0.022575978288473807 0.004331949820460858
-0.0001875882204587219 -0.015162330014620602 0.004648029304037277
-0.00017873288085029767 -0.016358859792924278 0.004772648421769622
7.101547009138135e-5 -0.010464073535801607 0.0017226097754677327
-0.00012985331939926662 -0.020928892282133394 0.005248126814311298
-7.082971074515404e-5 -0.02035354705611252 0.003053790503787905
0.0001144161636988008 -0.016872183049837883 0.003864945557403606
0.00011132295280153674 -0.0180378044962065 0.00392317573826731
8.608660253620674e-5 -0.017313176224629166 0.0029435937511524107
-1.8693993261190854e-5 -0.041056056643295896 0.0035305280063300058
-3.538672144984118e-6 -0.04212299744262283 0.0015190363852601362
0.00017246207449985246 -0.01535624324100119 -0.003957276667012754
-1.4511377108803237e-5 -0.022451664623424905 0.0007979987751627215
-3.166945203621184e-5 -0.012992628395732175 0.004300279055013584
-0.00015733889943573626 -0.01989799596366427 0.005124490032301948
0.00015705513117107416 -0.004792122214576827 -0.0021232070051846632
-8.493524997553903e-5 -0.022533171802844948 0.0032853425290737194
-0.00012607715915484712 -0.021290207184871388 0.004429038022923539
-8.41309276604706e-5 -0.021396443686767394 0.003120211612160147
-0.00016457581945436117 -0.0139494408286218 0.004515018265248523
-0.00011504329421615952 -0.013890798911459059 0.004401148916057742
-0.00011437673025831458 -0.015071569056682109 0.004588016334137483
-5.7433226408246965e-5 -0.018797952020419076 0.0019383142147241185
-4.004099120943711e-6 -0.040822263241639976 -0.006052058918339965
9.880692631403583e-5 -0.020217671909616278 0.005084155161247978
8.422851816900325e-5 -0.013799282421394025 0.0017267024826247486
7.228327613926588e-6 -0.023039040758467636 2.4473636430185565e-5
-9.274283276907653e-5 -0.01973470293269899 0.004974768950332751
7.0019950254754575e-6 -0.026596892393731985 -5.863992540962604e-7
-0.00013433582949905066 -0.019686953644518817 0.005111508621135089
2.9291786233038518e-5 -0.008189923333352452 0.0005016097734079465
-9.227525665034779e-5 -0.020262382917422092 0.003181034356669448
-0.00010258317438867332 -0.018491039268331077 0.004953337878499135
2.6346732915354185e-5 -0.017712626966596628 0.004813112005005011
0.00012996423527698937 -0.015384086426147752 -0.0029550610793005316
-8.494391074114567e-5 -0.018350223123761944 -0.00287939981894109
-7.878281777284103e-5 -0.020279978000533876 -0.00514351341030449
3.414371316979172e-5 -0.01496039794209653 0.0006888445946763261
-0.00014080762429313686 -0.018476614392886854 0.005021000118711033
2.7789178776595776e-5 -0.01563622017509008 0.004597320041718732
0.00020013928626117275 -0.015187624832046462 -0.004650779762602763
-0.00015363494318381747 -0.015403000762079646 0.003870523719943972
-0.00011191030626763163 -0.01608233612463834 0.004651111186012994
-0.00014828448227831341 -0.017305732166066738 0.004901630232676821
2.7480052158306003e-5 -0.021064941464228236 -0.0009386537502096936
-0.00017300313536851856 -0.01746190708784368 0.004901635093305982
0.00018689501085544222 -0.015248593028931216 0.004658480948652018
9.683755196808739e-5 -0.00988822493483784 -0.0019922704257955034
0.00011920936205165925 -0.014965751446549687 0.002842692276647313
-1.7423874336291037e-5 -0.017962451841677926 0.0006862578729222691
2.4198668262815772e-5 -0.017806804811382755 0.0036628933964620003
6.111710735401259e-7 -0.018181730542564327 0.004476205534759602
-1.7771080789780325e-5 -0.021185642868558483 0.0008263749145935684
6.524051990415204e-6 -0.021515472769915656 1.2679815620313652e-6
-5.6965452670715386e-5 -0.017689627702641014 0.0018560116710480657
-0.00019252638003317539 -0.014141417589690676 0.004512472941224816
-0.00010244804318234773 -0.017622887371464776 0.0030221901313048816
-2.4696497559082994e-5 -0.028664044690996916 -0.002362897884647898
8.539267523275739e-5 -0.015457548773931563 -0.0019434635667930128
6.269535298187983e-5 -0.016524910506948348 0.002013219234938673
-0.00015019101047514545 -0.01616626117846316 0.004726653734446334
-2.3776348500033753e-5 -0.01533894258032606 0.0007473142076236997
9.511427599119418e-5 -0.00970046901017315 -0.0014697045529543408
-0.00014679834950768791 -0.01764468067907875 0.004169851141337583
-0.0001450661575414246 -0.016533310003091363 0.0039764485127872125
9.912706327937316e-5 -0.008716892756505983 -0.002714065065679061
-0.00016062537610496235 -0.015043454520165487 0.004646884975898748
3.512108872077754e-5 -0.009135584725964348 -0.003724118999923272
1.7974664866923694e-5 -0.008751215994689046 -0.0033096166649421634
8.861000158456232e-5 -0.009005613204438415 -0.003682405652605416
0.00012094429440361149 -0.014426126820255038 0.004432885477155536
-3.016434868569604e-5 -0.03915515983277022 -0.00620350662588341
-0.00011219730740176811 -0.0010413845141960636 0.0011945516219953557
-6.607504730354665e-5 -0.015353383738679631 0.0017923132785444913
-5.437179286636681e-5 -0.0010548077255088542 -0.0003121562016311503
-0.0001376939201313789 -0.0011195458331953415 -0.0007643371148545236
-0.00012561452466277153 -0.0011703019133029705 -0.0010103922344822565
-0.00020103546884657494 -0.01300900015440757 0.00437680869005107
-0.00011625740970679624 -0.014237241920701124 0.002783984523672066
-0.0001072644996465767 -0.015478806294652743 0.0028085859432242653
9.066007931131149e-6 -0.006325147092697944 0.0027601607059626197
-6.509229428541332e-5 -0.01644636851920178 0.001844386044373381
-0.00022806106710344937 -0.009169255160384368 0.0037739224122615433
0.00017847501312978037 -0.014261034193627542 -0.0038329901896701547
0.00018541820976564248 -0.013189572833688165 -0.0037280136952508596
1.7373582939502722e-6 -0.045314967019119475 -0.0024623133256040665
7.3488175760429e-6 -0.047948154064718536 -0.005255759276387098
6.373156433145867e-6 -0.04654675099335676 -0.006250809699001702
6.1849195961607976e-6 -0.04604963023498596 -0.004997358179148077
7.260580203830206e-6 -0.04738789312129287 -0.005106644491848063
-0.0001411867075459316 -0.0019032078969093988 -0.0010905529403870656
-0.00017708356409689224 -0.0014958825789469217 -0.0011779717944343296
-0.00012612399799619834 -0.012886190086669514 0.004297724744398139
-0.00012706853731443455 -0.011915407116278552 0.004173038884721142
-0.00019033260622107893 -0.009942240736782534 0.0039280862264762266
-1.3946984085097528e-5 -0.04074662517415452 -0.006123152036421489
0.0001346530234690057 -0.014345282043490915 -0.002886051187359273
-0.00017880372638636062 -0.011882670006667834 0.004227972287609613
-0.00018188505204549683 -0.010887914192205812 0.004079567470095383
-0.00017165766560755825 -0.012898341937613482 0.00437389584088906
3.4856047160110133e-5 -0.014087724700751893 -0.0008770389514474631
9.10408013795694e-5 -0.012238776427322514 -0.0017717719050423526
4.6363238669632245e-5 -0.01013514557548039 0.0036709688442141774
-3.044706748456228e-5 -0.00997819377319745 0.0038378487544525513
-2.1449160386962796e-5 -0.03470248683379351 -0.004687087994786327
-0.00014511601934495406 -0.009571260272159623 0.003090166103259261
-0.00012868408850134647 -0.010279642530877216 0.002381608282326089
-9.19020816178753e-5 -0.009518759223081187 0.0020107252394726202
-0.00014034364258610807 -0.009220372200366193 0.0023337978003429745
-0.0002080303211182471 -0.012051004895334845 0.004231368215357204
0.0001406616271543418 -0.0005445777168214988 -0.000544516130588673
-2.730327821644209e-5 -0.0363805537422238 -0.00600556449681206
-0.00022115976883056447 -0.010095313209789814 0.003931846995159279
9.684481123059695e-5 -0.0003242770039259562 -0.0003001030546091797
5.775864165001819e-5 -0.00017569639534473157 -0.00026696735908378127
0.00019215361039282193 -0.01025888803456147 0.003977037998127013
6.237820344920441e-5 -0.0009530848146214842 -0.00030981543379626374
8.953506170400465e-5 -0.009539653753625884 0.003703341515551263
4.955911044440031e-5 -0.0005941992782425568 -0.0001979364588737005
3.9748997499896335e-5 -0.014873257419167198 0.0010635938235611334
-0.00018525984504647245 -0.010192687513396737 0.003352194152918037
3.0192546711941392e-5 -0.016252867584360356 0.000860392543376261
-9.68192211273153e-5 -0.0071907549555034955 0.0032520507139893527
5.891945279950974e-5 -0.018299909811961716 0.0020890080352784493
-6.577406038507543e-6 -0.03935857171184856 -0.006018675091516634
1.4009701517990737e-5 -0.009694489370802549 -0.0033838714937270637
-3.054866280204292e-5 -0.010539967648509965 -0.003746105580753414
-8.391390069647618e-5 -0.009983428038177934 0.003866478553131838
-9.040074460846563e-5 -0.008147014106623763 0.0035156933581570356
0.00015906076223224256 -0.004403380810724507 -0.0026632639648012145
0.00016279666301355434 -0.013828154475894491 -0.004216320890896323
7.294168771744697e-6 -0.03133964006937891 -6.804210939490732e-6
4.6759613236606505e-5 -0.00822048289920568 0.0033297297882372763
-1.842009112508112e-5 -0.008479946842383335 0.003639486040583287
4.1052761719999744e-5 -9.161682540399126e-5 0.00015966507122333774
-0.00021274114501484433 -0.005933504705179856 0.002609100415327877
-0.00015031440535407555 -0.005185559602165568 0.001751185318220881
-0.00015005428715178078 -0.005895680732869863 0.001892436262999098
-0.00023541358418303253 -0.00821828895268382 0.003606766752474915
1.3792827015864063e-5 -3.141725677803954e-5 6.809326294663934e-5
2.5246752766036288e-5 -0.04406034370319368 -0.00610767069703448
0.0001592325773644684 -0.006808304672393022 0.0032667811875264543
5.409758087715597e-6 -8.51584016786191e-6 2.78297949301211e-5
-3.151728261456758e-5 -0.00826567604164267 -0.0033742794464721995
-0.00015768040613909102 -0.005783700589860847 0.003034805941986041
6.538983083135291e-6 -0.03682328723657689 -2.447768742495051e-6
5.079096291744537e-6 -0.03552898993248157 -7.466628481269404e-5
3.069511320030668e-5 -2.5466667278044187e-5 7.620887188210937e-5
0.00016547834676224898 -0.006062409919028304 0.0031453632743306194
-0.000250058965490307 -0.006620344172454168 0.003265685438069068
7.453299817007863e-6 -0.005433647678111882 -1.2295163961188032e-6
7.741137579702989e-6 -0.006162124125663348 -4.919784719817134e-6
-2.7085521910826056e-5 -0.006479921483425425 0.0005899250910145344
-3.464276143199557e-5 -0.006581203408259239 0.0005129098336756993
9.7589775932269e-6 -0.006781760813520404 -3.482969393883444e-5
-0.0002568503011400867 -0.00585297350609965 0.003086850027012703
-0.00016226440371003157 -0.0050665107696270095 0.0028502035801405905
-0.0002250796246652469 -0.005014657044576478 0.002862502112409034
3.918177803581062e-5 -0.0038967753536126087 0.002595993359853543
0.00011157361605340521 -0.003497175240058356 0.0023098128020052878
4.052062637114536e-5 -0.00803393835330422 -0.0005010825019021282
-0.0002196308123715502 -0.005741843282959331 0.003071682639683235
-3.689408737463763e-5 -0.0038382794940461677 0.002502646221016018
-4.323173722909766e-5 -0.0014191505365443989 0.0014290182084276122
-0.00010040828156973146 -0.004342761430496183 0.002585866359960362
5.8647641523726e-5 -0.0025529142202076385 0.0015763996232149738
0.000178008751451171 -0.003978477536447646 0.0025370294309871246
0.00017296751550875396 -0.004622639290674231 0.0027255831132426416
-4.3099200874264354e-5 -0.0017988272117917057 0.0016599779405157792
0.0002430025531604506 -0.00392939084495293 0.002567396358861493
-0.00011317793570104085 -0.0013713208249364435 0.001413757007865686
-9.570810987200704e-5 -0.0060224775519296635 0.0012432040302257602
-8.477926194300704e-5 -0.004061829992946063 -0.002547616192309389
-0.00016831220226478695 -0.003749352597063797 0.002449939612546696
-0.0002654004113272871 -0.00512847258749794 0.0029033678487727596
-0.00023299322179557173 -0.004355129567090294 0.0026933550869097708
-0.00016620179403081816 -0.004397655728507391 0.0026611718025113112
-0.00027259449166606005 -0.004402398628271763 0.0027086724498619924
-0.0001285839651969281 -0.008710901394993842 -0.002746631975986583
-3.5088839137059196e-5 -0.004474372061857174 0.002691545195698921
-4.1697009355107743e-5 -0.0026909489532924878 0.0020484209299561876
0.00025655066121969567 -0.0027874316989252574 0.0021663564142103994
-0.00023816067939696385 -0.003726793238899228 0.0024971873181919295
-0.0002916406299224317 -0.0026717989616291816 0.0021209170278904464
-0.0002991423866660503 -0.002166464852712836 0.0019106506072379481
-0.0002501394815121835 -0.002192639328431194 0.0016315960735979263
-0.0002483263180609283 -0.0026079243480314324 0.0020961840412034335
-0.00010701657763024117 -0.002334230278580102 -0.0010138650210067773
-0.00015316814394275604 -0.005345219400022286 0.0021953885724422012
-0.000114897138092321 -0.005518953604136853 0.002316119807159262
-0.00022282912118674338 -0.005184787559818505 0.0024458907036209914
-0.00022590680434404734 -0.00449605537210251 0.0023031694661512707
-0.00027856596605702386 -0.003808496943369504 0.002520955133144415
3.987145460967805e-5 -0.035418322330378824 0.004405916548125261
3.8712189373264504e-5 -0.003313634223272925 0.0023833368455887186
-0.0001764697613929702 -0.0028512384932769053 -0.0021051097309297785
-0.0002083098400470083 -0.006700298019328351 0.0027733279605875157
6.531333625537389e-6 -0.00545213292073363 0.0026404654123272165
4.7216507190422036e-5 -0.0002813052387626561 0.00037991735519721513
-0.00024185912071061387 -0.003252319998807918 0.0019891508596531922
-2.644814923562988e-5 -0.0332244129711336 -0.004620708728426376
-0.0001812066486355213 -0.002654645359011896 0.0013155652385255722
-0.00017375149144303542 -0.003212223622635727 0.0014434761404596226
8.355650168108869e-6 -0.02278428934106522 2.0694400904388706e-6
0.00012782780276543118 -0.0021592652030237624 -0.0008029803057989619
0.00010365984520808546 -0.014445201872902557 -0.002685558931282294
7.026171747564682e-5 -0.015088290786194948 -0.0019398673089867364
8.293865830525366e-5 -0.01435805148541198 -0.001771360298805963
-0.00024601098158482895 -0.0031488252723530876 0.0022979722167490264
-0.00019125983413838187 -0.000633195128525476 0.0006541821081601736
-5.002222246352944e-6 -3.2252381614212136e-5 -7.146480233481838e-5
3.7603862596288566e-5 -0.0022802803642812536 0.0019334686098851281
2.38599049514861e-6 -0.0030165638004772182 0.001973193542610426
4.965345057946538e-6 -0.003532067726789866 0.0021468846104439596
-3.9611199098863654e-5 -0.0019071420307228085 0.00034493103352115285
-3.4738122403532146e-5 -0.0014648199612949137 0.00026958541317173866
0.00011547191800631134 -0.0023637829639413855 0.0019227366346399428
0.00019323206731113808 -0.0011175406088609504 0.0012798041359029367
0.00020514246802932974 -0.000956910629844269 0.0009821518071279865
5.952842528147884e-6 -0.004183016232004945 0.0023341061716007686
-3.614187118471995e-5 -0.0032585300003952224 -0.002288731918082047
-4.025565318247418e-6 -0.002984253070602372 -0.00198526994488475
-0.00025592974221789506 -0.002117410515490166 0.001881379432170649
6.250076935353231e-5 -0.016883379460612247 -0.0018785010831713356
-0.0002625627382617062 -0.001680936795267633 0.0016648573296833193
-1.7487529026378261e-6 -0.047523458400614185 0.004581301155099277
6.296817699270396e-5 -0.024891143995107248 0.0032407123264045646
0.0001209845258424586 -0.0019638815311943574 0.0017084639826256745
0.00016649162199567304 -0.005423520138754667 -0.002353793402518017
-0.00019002897528365195 -0.0017242604070582999 0.0016395406440696653
0.00019864973304722984 -0.0006344913879734133 0.0007773877840750899
0.0001462352392822072 -0.0007333409078942949 0.0007962216642034085
6.6085896224623525e-6 -0.0060663949463408305 -2.6128867697524415e-5
-0.00017226455772623075 -0.0009574230198476499 0.001134183357512661
-0.0003070630297442015 -0.001702056119682557 0.001691707714263448
3.4018355094990906e-5 -0.0018265968938610026 0.0017095585005062065
-0.00018356146742526486 -0.0013337541117791293 0.0009240807566853912
-0.00011948731137659843 -0.0017546596669117814 0.0016215454521476015
-0.0003095666015428117 -0.0013260223658669757 0.001482396037736876
7.422540111099783e-5 -0.02016427982480981 -0.0021392690403465083
9.274243426641238e-5 -0.011342894294123256 -0.001638152032020993
9.212455734286007e-5 -0.010437458369274443 -0.0015318749299754718
0.00016857951159718554 -0.0035003934263822733 0.001773500754166927
-0.0001238091128335088 -0.003258050291144537 -0.0018028109889870973
-0.00017045073268861626 -0.0025835537925309377 -0.0015194073253382173
-0.00014538340685992624 -0.002442137689979612 -0.0015719441032961174
-5.19764305526445e-5 -0.002472956287838569 -0.0015736555788484104
-4.351698453433838e-5 -0.00020854292009957605 0.00030430790882743575
2.1390636565830427e-6 -0.04333762720796695 -0.0007720997477361678
5.063457456454462e-6 -0.042566365246367276 -1.121423859688783e-6
-0.0001763964554440425 -0.0021931254667834016 0.001175757595301563
-5.555934347039915e-5 -0.00035517280163818753 -0.0001702473032895358
0.00012375430547595086 -0.0002692461188001207 -0.000291191599666097
8.825277250285809e-5 -0.00012113697997444782 0.00020429797747595083
0.00019091353898068958 -0.0007939871031939842 0.0010280850853364816
0.00024793224542282705 -0.0005285428434284521 0.0008274280179222527
0.00018495169637827027 -0.0016766657111777917 -0.0013091603710352893
0.00018487380563145565 -0.0012859073819569027 -0.0011378830724704666
-0.00030744975263561144 -0.0009858576816582144 0.0012630852705945751
6.988373349057101e-6 -0.002557822571050731 0.0018067337945873476
0.00024411628972861846 -0.009102686388479974 -0.0037642936144032524
0.00015532478621000978 -0.0004947634279396687 0.0007238185738286022
0.00021112957309663206 -0.00951732041526361 -0.003957899672339637
4.345480624567711e-5 -9.628865889809105e-5 7.802169118160455e-5
7.893432599456081e-5 -0.0005247440297266957 0.0007279564825701755
0.00012383668111304454 -0.0009230418543031087 -0.0005044056822257499
3.820958076359529e-5 -5.2656793255326896e-5 9.573907256241194e-5
-9.289453070783317e-6 -5.477024378368923e-5 9.733795638856792e-5
-0.00018781915099679247 -0.0009363084387999217 0.0007777967950568296
-0.00011392212120172286 -0.0012823308607642727 0.0005755177997886859
-0.00022496325604963018 -0.00046490419822922305 0.0007514971224988391
9.785969578040093e-5 -0.0003966717360212246 0.0005796487316675125
5.1347966362197886e-5 -8.668747391534199e-5 0.00011925309592849829
7.06603783280745e-5 -0.0002031078543422051 0.00030632330007544014
4.476016970671913e-5 -1.2528171940269325e-5 7.28068109409529e-5
-5.5918056945920245e-5 -0.00038643381383269627 0.0005542264998315673
-0.00019106022838011447 -0.0002938449062620269 0.0005145971015229349
-0.00019933443786492443 -0.0001769795220234647 0.0003619682453362429
-8.146365998013183e-5 -0.01474218525949739 -0.0036109874039713863
6.605689125594454e-5 1.106898104882501e-6 7.630408306732458e-5
0.00012195622216829214 -4.002839747344357e-5 0.00017160631836587873
0.000192377498800828 -0.00901828207988197 -0.0037131717061436626
2.514180579269955e-5 -0.00019499116250099155 0.00028492868984349656
-7.557278363357174e-6 -0.00021322757975949388 0.0003070201999125959
3.4873253961359934e-5 -0.01949366659948352 -0.003672433108074021
7.078646803675278e-5 -0.01618938914103926 -0.0046995838121651765
-1.7900119770621695e-5 -2.4737323070528538e-5 7.543526864606005e-5
-4.534713025918595e-5 -0.029829712714099912 -0.004215211403401919
-0.00018214899758256048 -0.0001290990101986983 -0.00030632348136137264
1.1659101919703144e-5 -9.13319089776306e-5 0.00011450876967359035
0.00020264353423297564 -0.007314467173136744 -0.0033841203623625657
0.00020450653333703184 -0.008070823646281023 -0.003516147706934321
-0.0001245471694007708 -0.0011872626531694089 -0.001277360905934161
-3.590843765680166e-5 -6.258333589166495e-5 9.505501213887769e-5
-5.058854164006257e-5 -0.0029805467740010062 -0.0017075036203264996
9.615279056901956e-6 -0.046423204809701066 -0.004890643402152999
-3.7274248168619914e-5 -6.990944054819051e-5 0.00011792899565524347
4.355733464584671e-5 -0.0018988361091303429 -0.0003045564400880224
0.00010108368228352149 -0.000699416687437263 0.0009041707236637299
-7.652882379478235e-5 -0.02279586652843067 -0.004220410730000601
-6.407058158019499e-5 -0.02274357696031574 -0.005323902208796544
-7.517074461209747e-5 -0.01817902266456814 0.003801131213567794
7.569936997962259e-5 -0.026109448801626894 0.004291395203672716
-4.322825139950065e-5 -0.0016178007060570685 0.0002477498540804831
-3.599029709092434e-5 -0.0007771982679790071 0.00014171385063362825
-0.00026630172450985574 -0.0013628768720862932 -0.0014776356730398202
-8.564519451431142e-7 -0.002024481922172 0.0015990611339850376
-0.0001878858352278465 -0.0014990026116066422 -0.0015047954093974241
-0.00025734979211054304 -0.001740019381718792 0.0014535848906462882
-4.564320033586774e-5 -7.63461991198389e-5 -0.00014374339875363598
-2.8730875261061336e-5 -5.854611454959042e-5 -0.00010266968273058907
0.00017696878317022366 -0.000886139686436126 -0.0010969623014467785
2.078714420886818e-5 -9.94496474261041e-5 -0.00011757282812066839
-1.787768063948324e-5 4.223444340281939e-6 -1.8744655836053598e-5
-5.2175537123881736e-5 -1.548978297914687e-5 -8.071410379045552e-5
-0.00013706930041687047 -0.00035982050248474214 -0.0005563640442711179
-0.00025342850342221487 -0.0018101947885999284 -0.0016973560852192786
1.078635566451834e-5 -8.996563537486445e-5 -0.00012331663675844745
3.4654184620840546e-6 -5.350923441653822e-5 -9.726605090613282e-5
-2.659250773747102e-5 -7.233283488664623e-6 -5.216693789185235e-5
-0.00011814112409853203 -0.0008940023160747966 0.0004861042795442043
3.03202894226632e-5 -0.0001455065893254348 6.913732675040946e-5
-0.00033035782180693146 -0.0014717154110757474 -0.0016563476599485275
-0.0003271004320991918 -0.001005387813140617 -0.001327389692441648
-1.58756229552828e-6 -0.03403899965963409 0.005417036834197098
-3.199283521168535e-5 -0.017354973528282976 -0.0036164774466461587
-8.578078986451652e-5 -5.678918047304996e-5 -0.00013811580728707252
-3.544375638367646e-5 -0.03458810483497515 0.004660235385713136
0.00017726708118760899 -0.0002606002995494702 -0.0004129973558108099
1.498992022402063e-5 -1.0855716623566554e-5 -5.015522645551787e-5
2.590975226925363e-5 -2.69073663779621e-5 -7.265226903724911e-5
2.3100106712714195e-5 -6.61806164577637e-5 -0.00011562219041702499
-7.860610809910019e-5 -0.00018298249521373763 -0.00027260529557088605
-6.003642195915804e-5 -0.00033131525736366314 -0.00047525865488602236
4.1711328516527655e-5 -0.0003495611982466488 -0.0004907357295599464
0.00014473441401372918 -0.002387089362302375 0.0015464331337883427
0.00014302185653130645 -0.0020615397241359897 0.0010836132743050255
2.407744783054597e-6 -0.01349606847498098 0.003921913427387009
4.9542897165917174e-5 -8.919005748440366e-5 -0.00011766761497613041
5.6261727831918164e-5 -0.00018660609615503014 -0.0002690151052212454
-7.1634047155619e-6 -9.033940406851964e-5 -0.00012280222620744883
0.00017617441722532774 -0.00083598538416592 -0.0008782032286108703
2.0925999455931347e-5 -0.0001935757031287294 -0.0002774308486455529
-4.275294025189593e-5 -0.00019144205187530548 -0.00027032484981624576
-0.00012011856722846707 -0.004804131301891577 0.002233587378949128
0.00011382649089361458 -0.00021302468163681806 -0.0003422212838855231
0.0002945799345471404 -0.0004496777905340053 -0.0008019943963892279
-0.0001254664253090213 -0.0041683807708955785 0.0020522827398260996
1.2990137699221145e-5 -0.04906198278662027 -0.006297136750552745
8.446707787892767e-6 -0.049275960133981854 -0.005102039816611495
1.8463359518426818e-5 -0.048025533891773844 -0.00633932717872989
1.1883601279265215e-5 -0.04892770786984454 -0.005298942899439639
1.6224941153433256e-5 -0.048022134731495046 -0.005344959796207557
-0.0001428913316507513 -0.006159311897292444 0.002318745717347474
9.693707383982115e-5 -0.01564420705581073 -0.002813082758260849
9.579383244946773e-5 -0.01678101710010095 -0.0028869776646822777
2.236717652497331e-5 -0.032419564018202014 0.0014377903262379208
9.683312054796178e-6 -0.046555272544822106 -0.006247515566862461
9.4716096944066e-6 -0.04894029687997537 -0.003885505314745588
1.1127158622369861e-5 -0.04894851633908798 -0.005326066742006707
5.3425551910217294e-5 -0.03578717353324576 -0.0059386447613323165
1.0453343107784044e-5 -0.04803881955097143 -0.006343933788329045
-1.4918826979475281e-5 -0.04507025148090258 0.003908028454675713
9.298919929719164e-6 -0.04525413031319324 -0.006124591811932765
5.0274419168218646e-6 -0.044644940967550506 -0.006221698155848942
-2.085866258832013e-5 -0.04385678677903988 0.0050181612839198236
-1.7209231845995555e-5 -0.042493916180693314 0.0036221254624658377
1.1898655618353181e-5 -0.04904218175816269 -0.005355080026778389
8.450180092501374e-6 -0.047633005198546664 -0.003980215824890895
9.638901056004863e-6 -0.048903623756830515 -0.003923864475959292
1.98191276659729e-5 -0.047945923269960236 -0.006377009226573571
6.659014624190559e-5 -0.04030781824266235 -0.006485520645642211
5.4170484176113426e-5 -0.04197404694372865 -0.006247267778806406
1.103119947688338e-5 -0.047985143830260354 -0.0033722283675188982
8.566555452599254e-6 -0.04901741111000891 -0.0038812869711707565
3.671176058701742e-5 -0.041594206574151076 -0.006178155407855608
3.0264156882862074e-6 -0.0465137998155445 -0.002428043553777213
1.1452750877711594e-5 -0.04801814237797745 -0.006286839603074258
7.117431918283557e-6 -0.04874676908462122 -0.0023950010479548956
5.321764288577963e-5 -0.04058941578176125 -0.00526467851232282
1.0366865429960835e-6 -0.04518136573259427 -0.006196333893852969
3.208954945443315e-5 -0.04604116646062402 -0.006296148535478921
8.565287277964487e-5 -0.021674085894265536 -0.0033662318809399923
-2.0314975702728685e-6 -0.03731144958682711 0.0007126162231420054
0.00014236585841491953 -0.0011062823557939987 -0.0007734838792008712
4.822543782190576e-5 -0.04146390591504319 -0.00613517348348078
7.076213434923917e-6 -0.048871415245749866 -0.0021741448802822688
-9.646571844196363e-5 -0.002668920920096331 -0.0016179388584750324
2.251342008363937e-5 -0.04505297349557246 -0.006232592417061952
0.00011399944517761407 -0.030543563376622236 -0.005880200271289848
6.110676174055531e-5 -0.036740976951617876 -0.004910543660411483
4.9937809043055585e-5 -0.03736703458684281 -0.004878904954329667
6.871727726237149e-6 -0.04891385602481342 -0.0019669488098699897
-1.2531231146326688e-5 -0.03938213199742848 0.0023119875378294795
2.932631117721595e-5 -0.04365162788120213 -0.003911541906383074
-4.0008496017696555e-5 -0.0358039410070032 0.004696731832022061
-1.0535050716925778e-5 -0.04352201882924818 0.0024071590062127637
1.472011803877634e-5 -0.0401527533142238 -0.000953317437031858
2.7666410870497587e-5 -0.04072188549298595 -0.002527503115522301
0.00010982046838210856 -0.003740872842296701 -0.0023918723458503164
2.5184547485424076e-6 -0.01690747843792762 0.004364035364575274
6.462703924318363e-6 -0.03989990341351253 -3.702301677500625e-5
0.00011129746333464322 -0.02643161818396184 -0.004535310865503195
0.00012248041880565954 -0.025158739658574254 -0.004696005077872138
6.240690234496368e-6 -0.04753272632004965 -0.0009999055470358935
5.533491203320856e-6 -0.046569985166492765 -0.0004114633184385602
0.00011490571891299539 -0.027692966713360818 -0.0050223110055261375
2.176660610488019e-5 -0.034871205597549235 0.0033080123495713666
6.406493392011802e-6 -0.014723290847044905 -1.976250711697184e-5
8.402753104990842e-5 -0.03730885022027427 -0.0065014880733683215
5.4943022194548166e-5 -0.03574176081124008 -0.004803887111038628
7.285511904725054e-5 -0.035640504898948516 -0.005978872898287955
2.355087177649822e-5 -0.030084469075901725 -0.000840438634992841
4.988083081153153e-5 -0.03716720783908465 -0.006041731120727725
5.503150320912852e-5 -0.03632713202823032 -0.0038675225237552843
4.0315529102213366e-5 -0.03522566401109576 -0.0025562445977866813
5.545080949008176e-6 -0.03685844330932514 -1.9242155338126973e-6
-7.383011950090512e-5 -0.02920981779176593 -0.005813861033006045
-3.255993533618948e-5 -0.034946240149128296 -0.005957178559281909
0.0001262164037900043 -0.028795664022860826 -0.005858794586807468
7.674400501458396e-5 -0.01894584747788552 -0.0020948241173646
3.0284963512142474e-5 -0.01698741987301995 -0.0008481882097539586
-7.023428527254612e-6 -0.03328471154737955 0.0008918102522813847
-6.728232437115107e-5 -0.030589173872007658 -0.005883875405511052
8.05958130676581e-5 -0.008618783205381376 -0.0014788702118889126
9.505185903876286e-6 -0.008531934588646364 -1.4521008327253358e-5
2.3869492870702504e-5 -0.03050551173099276 -0.005767446901490994
-2.3346926363627158e-5 -0.039548611357315 0.0035879626306194253
5.654373483947661e-5 -0.004275652390840432 -0.0025321635413687415
9.938126312674441e-5 -0.03054535114676448 -0.004965351390280547
3.317553840575205e-5 -0.02787715478140805 -0.0056609248060785254
-2.0348869159912217e-7 -0.02810803472233289 -0.005636925730577637
-4.585122363213878e-5 -0.024003269042869195 0.002101031269696672
-4.6154008246354275e-5 -0.03375352614511355 0.004327597260154991
-7.107424903811097e-5 -0.03337019492539286 0.005045614369409626
-2.6257697011610697e-5 -0.02969252389124959 -0.005659977208896416
3.2158676405824546e-5 -0.020807720255883625 -0.0008101111271293312
7.050759110741671e-5 -0.02140582995196714 -0.002184136226005703
7.216128375545661e-5 -0.030057175296855386 -0.005749218472487556
5.651096080862166e-5 -0.02861478517865782 -0.005584754240834083
-9.07539916679672e-6 -0.027673962066381185 0.0008080620837723416
8.147990608218341e-5 -0.0272693581854633 -0.005552738436430885
7.783020131141425e-6 -0.029763564957681437 -1.7398796394824624e-5
8.443303343620675e-5 -0.02475355992041191 -0.005467953606134604
-6.397009764606505e-5 -0.025303359001794857 -0.005472689517712011
0.00014150195958070172 -0.01965150387530178 -0.005045086358141536
-7.921168887113345e-5 -0.021454710785493106 -0.005188539943740621
2.0034494179000687e-5 -0.03291042628536399 -0.00084499030910911
2.6213393468481387e-5 -0.022559924354796576 -0.005193062068253462
0.00022210795519421534 -0.01292423473222614 -0.00443992981563896
-1.0705662863128775e-5 -0.0290891781820864 0.0008604207739877501
5.976045708300921e-5 -0.026601500991482355 -0.002337497906251599
2.9323311248258665e-6 -0.0010293108906855868 -2.345856906668439e-6
-8.371196193993443e-5 -0.03056209240771546 0.00493910522644423
-7.757199027550894e-5 -0.031946090227240084 0.005019105905795225
0.00013548289267860365 -0.02253758681738512 -0.004538097443576124
9.015103414896873e-5 -0.02345659645537645 -0.005376060103419785
6.85847467229407e-6 -0.002099793840373008 -0.0016350292672489613
9.881734532283249e-5 -0.020805336797946217 -0.00502356146498165
6.193848939910986e-5 -0.020924241154955805 -0.005157388262914199
0.00010282847567008006 -0.020591559170489233 -0.004118932013813401
0.00010548206240453375 -0.021242576942962263 -0.003320479210857096
0.0001108657920010868 -0.020118792209852174 -0.0032694801404621597
0.00013756670784963336 -0.0212134157225715 -0.004373511038062488
-0.00012988176629583658 -0.022226485659294606 -0.005371210063564911
-0.00011369939741044892 -0.020038663490595642 -0.005057531220780458
-0.00011149250997963085 -0.021332930620011063 -0.005279925394581616
1.178241741894351e-5 -0.01932144971540759 -0.004569717069289621
9.564123859735241e-5 -0.022191398711594812 -0.005274902990656963
0.00014790224243682986 -0.02003877095630417 -0.004361803430580611
1.8212477779732703e-5 -0.025048865367384397 -0.00045443968928694946
-1.8258090164801505e-5 -0.019949503904967122 0.0008072565964469724
-5.6051542669988064e-5 -0.020050687645440587 0.0019770649089635444
0.0001010776985256294 -0.022624690355011218 -0.0034012506710125773
1.387181862099208e-5 -0.01826295194573781 -0.004478794162706693
-7.180160583843974e-5 -0.022962181979068467 -0.0032970201004610938
1.7582629742277245e-6 -0.001344823710410831 -3.5660243412639904e-6
0.0001310348500431396 -0.020996534281446974 -0.0051204201150475215
4.982826265090645e-5 -0.008967028889798384 0.0032157606064514774
3.5457502026447834e-5 -0.014943862002836872 -0.0006872963509252037
-4.97390093293991e-5 -0.020305367432889396 -0.005003787837542971
-6.719050746174533e-5 -0.019487680320112145 0.0038503772042234813
-4.179988634254027e-5 -0.018966512443403423 -0.00500257842563317
0.00010626264486686282 -0.017340288393548887 -0.004839491090036375
0.00011738236473353506 -0.016075331119702874 -0.004640984898698117
-0.00013369639360981525 -0.010913443404105239 0.004024177214067836
0.00016900356173684596 -0.012902156830825353 -0.004318481614779754
-5.1754086454780644e-5 -0.017890611352747204 -0.004759850195198158
-0.00011844943454260438 -0.013175525017869292 0.002696193372055454
0.00012432512760341625 -0.012918390324448572 -0.004311827521371323
8.827376142439386e-5 -0.013829545620710282 -0.004322160553816305
0.00012144225022962627 -0.015012227157870761 -0.004553840234232212
8.050944430143691e-6 -0.03406109863765512 9.172269723650397e-5
7.866773055045554e-6 -0.032551954011173244 5.413565655673106e-6
3.428053550002013e-5 -0.016114257135157958 -0.0006784536742372692
0.00012013726129312622 -0.013994430351660056 -0.004461598381147834
-0.0001600919611953014 -0.01427361389357016 0.003822508178756107
7.656335381168877e-6 -0.04861854858573288 -0.002653978599451906
-0.00013318510392623922 -0.009210005073896252 -0.0037152727824111796
8.934477309892165e-5 -0.013343468381802248 -0.0017610395975634833
6.7852397738191326e-6 -0.04761767101028189 -0.0012562774918360106
-0.00011709056441138432 -0.012335424347390815 -0.004208735909517798
2.6672194067312945e-5 -0.036379146369187224 0.004355696595211857
0.00016289686917273242 -0.008397977799397363 -0.002312250084959941
6.221366069735488e-5 -0.001318764757368696 -0.0003956558039116541
0.00015266790087592276 -0.001431734886198806 -0.0009323854235157626
-0.000118100520877654 -0.010628322641644527 -0.002980200905077326
-0.0001296166573332915 -0.00970478771717105 -0.0028842311580462997
-9.369836363048772e-5 -0.01024993875624402 -0.003056110483256807
-0.00010596015589110934 -0.015305867501848598 0.0034374738337830616
0.00012361951518782382 -0.014679386125655908 -0.0036081754873593286
0.00013641726280261943 -0.013263780356038568 -0.002798471597279695
-0.00012043190360579282 -0.0001861736689605459 -0.0003081825499576531
0.00010068470380650887 -0.009687805469420727 -0.003715601738514377
-7.481158455266579e-5 -0.011407320444743676 -0.004026201716158952
-7.805222108308517e-5 -0.010439212522175525 -0.0038698872498468396
-8.739583056059963e-6 -0.011220329803284539 -0.004154970040374544
0.00015747224382936154 -0.009703214304907684 -0.0031156065427613844
-0.00013160430039098822 -0.008514047180609429 -0.0036193331069344628
1.2763194613553903e-5 -0.012721878972844021 -0.003896786333265681
-0.00010994036309160162 -0.011578157658588072 -0.0030152164319493277
0.00020496683135535414 -0.009419440674632325 -0.0032147534969301783
-0.0001702538497255044 -0.0043614497222731925 0.0021349362168534064
-0.0001728539711349012 -0.0037868378316301965 0.0019740294321063715
-0.0002330269392075301 -0.003859647582239669 0.0021463217356411097
-0.00016910510488955268 -0.0038161858320057006 0.0015550008201923972
0.00014028164983685218 -0.008182233687403985 -0.0035488014565188794
-1.1376650529948971e-5 -0.009346681543212611 -0.003788732264030937
8.19987615150397e-5 -0.00856948016284115 -0.001183736583051971
4.461362703943323e-5 -0.007187622915077708 -0.0005423816385901975
0.00014193596921558666 -0.01220735906294626 -0.0027063726285700244
-9.025725570215957e-5 -0.022134919301174845 0.00514614568195035
0.00013615475999855854 -0.026473315043822315 -0.00565888493999037
0.00016075087967824334 -0.007281901516334346 -0.0033582057233377733
0.00015206378197427106 -0.0037703084968930163 -0.0015158454890474963
-2.3953517660981917e-5 -0.00808789131382581 0.0004695499922807881
-5.419754093711167e-5 -0.021479755207751184 0.0020458038700276256
-5.3562731988738116e-5 -0.022515212622492772 0.0020536564534607052
-6.289099575364878e-5 -0.010819597266141184 -0.0031518468965178684
-9.871193994506934e-5 -0.0051223571803351515 0.0011242055639706175
-3.229862874474573e-5 -0.005132068034325496 -0.0028782653572624875
0.00011075011790596643 -0.005184377515361836 -0.0011619270715063983
-0.00016769324970981387 -0.0031683628173586518 -0.0017208981185577227
-0.00024495904407089553 -0.002780439976727244 -0.0021596454439082877
-0.00024120585385428858 -0.0033265286269186893 -0.0023474664382947034
-3.2766377760323034e-5 -0.0038656328684059356 -0.002483302903698958
0.0002062205679489868 -0.005728520229438576 -0.002349546050315845
0.00017525708495323133 -0.005182722100033041 -0.0018605117636871788
0.00010381217805254539 -0.0032134043358991848 -0.0022596520449650417
-0.00010552379014747533 -0.0021504040667913054 -0.0017865305804680323
7.04223519963159e-5 -0.03906935281671237 -0.006299769217654339
-3.787010746535241e-5 -0.0027195313103915352 -0.0020936249678585555
0.0002424098618406926 -0.002597011193174907 -0.0020220542202000597
-9.718519247230858e-5 -0.019108400123012136 0.0038076817756714154
0.00012989731202968542 -0.0017020702870795483 -0.0007234923416805598
-0.00019427231399588086 -0.0011409696407633757 -0.001275617023461317
6.401214193371394e-5 -0.001706436374981934 -0.00036798132017425817
-0.0001803295545534753 -0.001884976036924624 -0.0014080864023472113
-0.0002501691904159567 -0.0022767350593101954 -0.001952127450184551
0.00016565089979345322 -0.0007290243295341625 -0.0006714170839930587
0.00020563495145747002 -0.0009638833319396838 -0.0008267906149191317
0.0001258386257426829 -0.0006915206146403816 -0.00046667412476767946
-0.0002493960678318963 -0.0013021946528269707 0.0012014384876484828
-0.00011060346658910767 -0.002539763766384287 -0.0019605349186507318
5.094747862703032e-5 -0.0023631761609833 -0.001941260699843098
5.1288756868298986e-5 -0.0007628157720420105 -0.0001861170073318787
6.481258381159216e-6 -0.0009681468873009136 -5.58519849661209e-6
6.118107953308219e-6 -0.0013431591263518973 -9.172057516677132e-6
0.00020425306261070587 -0.0013185829453980656 -0.0009655725031616983
0.00014437432129844562 -0.018428146533425085 -0.00491892669510595
-0.00010585389161359335 -0.001720110341917902 0.000644782762148018
-0.00010075106949116281 -0.00017226783217337555 -0.0002906090474669688
0.00024822208012399027 -0.0005307441736846669 -0.0008292613268942776
4.2570243577863446e-5 -6.2333240890655025e-6 -6.463639566414471e-5
-1.0019476776995632e-5 -0.00019791186459380128 -0.0002738177960678351
0.00012491417267603504 -0.00048714736011297655 -0.0003790807212592778
-0.00012741646890165146 -0.0003371249226482342 -0.00048303797559643726
0.00019743243658221817 -0.0005249712579146938 -0.0006032858357353483
5.751889156279435e-6 -0.04932845987885608 -0.0035725622259257144
1.4806927118577641e-5 -0.04739711197820044 -0.004243167805372641
5.326444881349987e-6 -0.04898884083440742 -0.002297263651967442
-3.1495485064961483e-6 -0.049014176759823 0.0048630315912593074
2.4115720581645823e-6 -0.04898863468682256 0.0019510611541184754
-3.244825954260039e-6 -0.049002041662021704 0.0053366197338172595
4.6148390114172675e-6 -0.04900655379019201 -0.0009663364831118417
1.5978817622495206e-5 -0.04653992030852048 -0.006250266619179024
-5.474314630078325e-5 -0.030717677089566842 0.003519366964121793
5.05316717922625e-6 -0.04891380883358265 -0.0009995369724896837
2.330042499766393e-5 -0.045370656586318336 -0.0039576084358312925
3.9634034490730635e-6 -0.04886834712348654 -2.1283057684410738e-5
5.947748501381748e-6 -0.0488980132655738 -0.0010902630214125765
5.4956910007303645e-6 -0.04882155061497882 -0.0011631467147525055
-5.8842609088621184e-5 -6.064462321903917e-5 -0.00011941175733797349
4.514679711331143e-5 -0.0392372536374904 -0.003919929820890461
7.454794641406854e-6 -0.048665949340997314 -0.0024703968126453474
4.659930682697378e-5 -0.03856887951885809 -0.006053211653166209
4.6785502747172364e-5 -0.042064929229315866 -0.005289773551655437
-4.219540515869487e-5 -0.03626673180177261 0.0038082463713988044
-0.00010079968205654642 -0.008361504550302866 -0.002815777667467154
4.223725262738077e-5 -0.006410044782956802 -0.0004323067681201969
5.40691585513958e-6 -0.036541253977479475 4.917228175622868e-5
-5.481920605758897e-5 -0.03193162271016357 0.0036432730068899515
3.962785212030446e-5 -0.037410847699081526 0.004853218439473099
0.0001830828199839488 -0.002117676524271312 -0.0014701267158715356
0.00023046843118827508 -0.006423627139600101 -0.0027414823104116768
8.599276340033923e-5 -0.025705402936955068 -0.004393324404008209
8.950990317540733e-5 -0.024388555274876513 -0.004297060389789788
8.153219334008761e-6 -0.0243811428167324 6.826630546082431e-7
-8.095965558386888e-5 -0.025321654179060966 0.003641083142069157
0.00012981477997725681 -0.02382171984822127 -0.004619868368448547
-3.180981574423694e-5 -0.016687861450099026 0.0010232406236208927
-0.0001094610541361374 -0.017497299267336085 0.003882273509946364
9.797543728341228e-5 -0.023910566525918185 -0.0034618154944270193
-2.411994600410461e-5 -0.0019312158643403957 0.0001633913455587343
-0.00013902657374965775 -0.018827260252266772 0.004269306637844886
2.5868248795718426e-5 -0.019743868404944014 -0.0006148032017936723
-0.00018540596065786844 -0.0023902227892782864 0.0015715965674553962
2.6328217947063757e-5 -0.041071969236169674 0.0049368879175321866
9.260892327990328e-6 -0.011712473098508355 -0.0037684948754701524
0.00011513720474663515 -0.01890450002784234 -0.0031989503774495064
0.0001521790221646323 -0.018805943050518397 -0.004223187016510698
3.207552884472564e-5 -0.03945881106662334 0.004938475922720947
-9.57629211434866e-5 -0.015838064833551567 -0.0036324198105088506
-0.00010777193883405028 -0.016476760608320887 0.002939280298870517
-0.00016767875010153667 -0.01321254239765873 0.0036880440227427306
0.00011791499857509797 -0.015838318263756354 -0.0037138012803641005
-8.822408687668917e-5 -0.011468080712346642 -0.003220004536059291
-0.00017897260403933147 -0.011159289213112425 0.0034792974892712426
-0.0001727578244928392 -0.012167751297936333 0.00358867978101475
-0.00019487196683466837 -0.009259652568719875 0.0032181725483212114
-0.00019051764310542958 -0.0019546602726424594 0.0014383205566009837
8.555138881069078e-5 -0.00016516338906636465 0.0002690467639842169
0.00021567694901316933 -0.008358618933753646 -0.0030811305494061834
0.0002207117319309684 -0.007504716039112563 -0.0029402290528376188
-8.229230262550029e-5 -0.009200145968187549 0.0014710181305068737
-8.574770132346258e-5 -0.00835084731336262 0.001370971416679192
2.572789597482482e-6 -0.004783481755013337 0.002509094481648252
0.00026982071617370204 -0.006710262174136154 -0.0033108842574939706
0.00020561235361631685 -0.006505494391577257 -0.0032059416512248357
-0.00016560837961364464 -0.004461620533720896 0.0016768708519061294
-0.0002495433351944389 -0.0027034126881841755 0.0018159375680355516
-5.178971041012282e-5 -0.0011377925209587053 0.0002650485667541718
-3.0005657751456415e-5 -0.0048233877040561165 0.0003948780873255865
7.970053614657413e-6 -0.002534289093184944 -0.0018100360553038684
0.00012740263681006964 -0.0012922391306467572 -0.0005990291847335867
0.00027021753355722987 -0.00219251294321491 -0.0016645041733975945
0.00010203460075837589 -0.0021952365273355564 -0.00184281033434401
0.00020022392827567545 -0.002144535997151542 0.001499505770679482
0.00020453285174048419 -0.0017308567518558582 -0.0011024748218228398
-7.749529084534914e-5 -0.021004666918122594 -0.00382684731391288
0.0002711986118977169 -0.0017319911358829757 -0.0014648943592127876
-0.00016750999395524644 -0.0005636108004134391 0.0007075397137121864
0.0002533514733839801 -0.0003729466833307738 -0.0006464352150566845
-8.013937392360595e-5 -0.021564153552023006 0.0037894651472842595
5.321163231087036e-6 -0.04122846613559736 -1.0295554122742197e-5
0.0002037055935203739 -0.0016948562425082028 0.0013331565605041555
0.00014895084975003796 -0.007894292457634308 -0.0027755217369852068
8.274852825880207e-6 -0.025389378869724765 1.7548145707358543e-7
6.886189425082633e-6 -0.040914100457871166 -6.388636530045149e-5
5.681606219095728e-6 -0.042379169388473414 3.535360577638118e-6
2.28535185352798e-6 -0.0006726746523208428 1.4020275022649335e-7
-0.00011196818737149123 -0.01313564184627735 0.003178449155640526
4.260207480647037e-6 -0.04772799008767595 -3.4708636653875066e-5
-2.6632313218124263e-5 -0.03808735743766434 0.0035643497560399096
-0.00010614414570135707 -0.012593543804140694 -0.003121858750643911
1.153809761030324e-5 -0.010627209792954152 -0.003615194060522545
1.3155081790046419e-5 -0.03403837149338367 0.00541647270303717
-2.4394543148573366e-5 -0.04169715207431424 0.0048380925220420385
-3.667649967551222e-5 -0.03730869378808242 0.0047538306688013265
0.00012110728638404398 -0.0157385776088577 0.0037274530559847823
8.736967849545121e-5 -8.561760056524545e-5 0.00017086049343505578
