# vtk DataFile Version 1.0
Bar_TO_3D
ASCII
DATASET UNSTRUCTURED_GRID
POINTS 12174 float 
96.0 0.0 0.0
94.0 0.0 0.0
90.0 0.0 0.0
88.0 0.0 0.0
84.0 0.0 0.0
82.0 0.0 0.0
78.0 0.0 0.0
76.0 0.0 0.0
72.0 0.0 0.0
68.0 0.0 0.0
66.0 0.0 0.0
62.0 0.0 0.0
60.0 0.0 0.0
56.0 0.0 0.0
54.0 0.0 0.0
50.0 0.0 0.0
46.0 0.0 0.0
44.0 0.0 0.0
40.0 0.0 0.0
38.0 0.0 0.0
34.0 0.0 0.0
32.0 0.0 0.0
28.0 0.0 0.0
26.0 0.0 0.0
22.0 0.0 0.0
18.0 0.0 0.0
16.0 0.0 0.0
12.0 0.0 0.0
10.0 0.0 0.0
6.0 0.0 0.0
4.0 0.0 0.0
100.0 0.0 0.0
0.0 0.0 0.0
0.0 4.0 0.0
0.0 6.0 0.0
0.0 10.0 0.0
0.0 12.0 0.0
0.0 16.0 0.0
0.0 18.0 0.0
0.0 22.0 0.0
0.0 24.0 0.0
0.0 28.0 0.0
0.0 32.0 0.0
0.0 34.0 0.0
0.0 38.0 0.0
0.0 40.0 0.0
0.0 44.0 0.0
0.0 46.0 0.0
0.0 50.0 0.0
0.0 54.0 0.0
0.0 56.0 0.0
0.0 60.0 0.0
0.0 62.0 0.0
0.0 66.0 0.0
0.0 68.0 0.0
0.0 72.0 0.0
0.0 74.0 0.0
0.0 78.0 0.0
0.0 82.0 0.0
0.0 84.0 0.0
0.0 88.0 0.0
0.0 90.0 0.0
0.0 94.0 0.0
0.0 96.0 0.0
0.0 100.0 0.0
4.0 100.0 0.0
10.0 100.0 0.0
14.0 100.0 0.0
20.0 100.0 0.0
24.0 100.0 0.0
30.0 100.0 0.0
34.0 100.0 0.0
40.0 100.0 0.0
40.0 44.0 0.0
40.0 48.0 0.0
40.0 52.0 0.0
40.0 54.0 0.0
40.0 58.0 0.0
40.0 62.0 0.0
40.0 66.0 0.0
40.0 70.0 0.0
40.0 74.0 0.0
40.0 78.0 0.0
40.0 82.0 0.0
40.0 84.0 0.0
40.0 88.0 0.0
40.0 92.0 0.0
40.0 96.0 0.0
40.0 40.0 0.0
96.0 40.0 0.0
92.0 40.0 0.0
88.0 40.0 0.0
86.0 40.0 0.0
82.0 40.0 0.0
78.0 40.0 0.0
74.0 40.0 0.0
70.0 40.0 0.0
66.0 40.0 0.0
62.0 40.0 0.0
58.0 40.0 0.0
56.0 40.0 0.0
52.0 40.0 0.0
48.0 40.0 0.0
44.0 40.0 0.0
100.0 40.0 0.0
100.0 36.0 0.0
100.0 30.0 0.0
100.0 26.0 0.0
100.0 20.0 0.0
100.0 16.0 0.0
100.0 10.0 0.0
100.0 6.0 0.0
4.15280294 4.16630173 0.0
8.3700285 4.30302286 0.0
12.4098711 3.93831658 0.0
16.310051 3.87328553 0.0
20.2036705 4.03112984 0.0
24.2145939 4.33294678 0.0
28.7772808 5.03288651 0.0
32.7411346 3.85475469 0.0
36.517067 3.82171869 0.0
42.0387802 3.86816287 0.0
45.8033981 4.06726742 0.0
50.004097 4.71917295 0.0
54.0183372 3.93797636 0.0
58.2245674 4.87414598 0.0
62.5502052 3.77882957 0.0
67.2750473 5.15574551 0.0
70.7734833 4.46764183 0.0
74.7921066 5.12396193 0.0
80.1252975 4.43903923 0.0
83.8619385 3.90427375 0.0
87.7472153 4.74412346 0.0
92.0174789 4.19015932 0.0
95.9748688 4.06366396 0.0
4.08784819 8.21089458 0.0
7.70617294 8.7223568 0.0
11.8222694 9.45137215 0.0
16.4834976 7.67375088 0.0
20.1508293 7.92666197 0.0
23.9054718 8.3372345 0.0
29.6148911 8.15605259 0.0
33.5872803 8.65404892 0.0
37.3790131 8.18856907 0.0
42.0682831 7.67571259 0.0
45.2545395 8.13835526 0.0
50.6868439 7.89065599 0.0
54.7233505 7.91246462 0.0
58.1124916 8.30289459 0.0
63.5312309 8.90739441 0.0
66.4926224 9.36891937 0.0
70.266922 8.85576248 0.0
74.6072693 8.20598602 0.0
78.887291 8.99817848 0.0
83.5705185 8.6196804 0.0
87.1733932 7.74610376 0.0
92.4673004 8.02637672 0.0
96.0442657 8.00386238 0.0
4.15784597 12.3741951 0.0
8.13913441 11.2280455 0.0
11.6115608 12.2554827 0.0
15.783946 13.1541872 0.0
19.8237171 11.9135256 0.0
25.0906906 12.4315615 0.0
28.5411053 13.5338497 0.0
32.6507111 11.8082571 0.0
37.7847595 12.6582613 0.0
41.9324951 12.8231945 0.0
47.5365639 12.5772104 0.0
50.3485565 12.1578379 0.0
54.0582619 12.9793854 0.0
57.7840309 11.7029543 0.0
62.4014587 12.0840816 0.0
65.8407898 13.2368259 0.0
71.3058472 11.4527121 0.0
75.3729706 11.4559326 0.0
79.5208511 11.5715017 0.0
83.1968002 10.9537067 0.0
87.5776596 12.5248318 0.0
91.1291122 12.7805576 0.0
95.5030365 12.2973223 0.0
3.75831175 16.2575455 0.0
9.60991383 16.2472248 0.0
13.1020365 16.4232578 0.0
17.3644218 16.8548775 0.0
20.8361092 15.8680401 0.0
25.001646 16.9155521 0.0
28.8136501 17.9389706 0.0
33.232933 17.5455017 0.0
37.7154274 17.0351391 0.0
40.7648697 16.8495979 0.0
44.923996 16.8988628 0.0
50.5142288 16.2069778 0.0
55.0853996 15.8484974 0.0
57.1431847 16.1924152 0.0
63.0562515 17.4309196 0.0
67.3248749 16.8482723 0.0
71.1770325 15.9822502 0.0
75.4041061 16.2060356 0.0
79.7553177 16.2358646 0.0
84.1440659 16.3749447 0.0
88.1792679 16.8311749 0.0
91.4832687 17.8696423 0.0
94.9203644 16.9201164 0.0
4.38782263 20.2206345 0.0
7.79606009 20.2994232 0.0
11.5397215 21.9488888 0.0
17.0244904 20.0665302 0.0
20.1300163 20.8272228 0.0
25.407053 22.435154 0.0
29.8942776 21.7187576 0.0
33.1837387 20.1862869 0.0
37.0446243 20.7140427 0.0
41.8205032 20.9896145 0.0
45.8697014 21.1519108 0.0
49.4784393 19.4253025 0.0
53.0983963 20.6343117 0.0
58.5140724 20.891243 0.0
63.0299683 20.8879604 0.0
66.159317 20.0903378 0.0
71.1514816 20.261879 0.0
75.8672943 20.6813812 0.0
83.9359207 20.3757648 0.0
86.7332458 21.3724556 0.0
91.6577988 20.5914078 0.0
95.0615692 20.9848003 0.0
4.2758131 25.8185272 0.0
8.92153645 25.581068 0.0
12.2322044 25.350338 0.0
16.2193375 25.7707939 0.0
20.7412853 24.9444885 0.0
23.4843674 26.2534599 0.0
29.8271694 25.3878326 0.0
34.2556419 23.6067848 0.0
37.5835686 24.3730526 0.0
41.2360458 24.6371765 0.0
45.0844116 25.1228313 0.0
49.7854538 22.8705997 0.0
54.516613 25.640873 0.0
59.3007126 25.176712 0.0
62.9642868 24.860117 0.0
66.5198059 24.0174923 0.0
71.1389465 24.8826885 0.0
74.7060623 24.7096901 0.0
80.1701279 24.4889812 0.0
82.8194733 24.7170162 0.0
88.1828995 24.3349209 0.0
91.5007782 26.0758648 0.0
96.0914612 25.1077728 0.0
4.12153435 29.8405972 0.0
8.12670517 29.9287109 0.0
12.3276138 29.1126747 0.0
17.891346 29.6010857 0.0
19.9165077 29.7743073 0.0
24.1680698 28.5607719 0.0
28.7385654 29.4620323 0.0
33.5126534 26.9827881 0.0
37.2080498 28.4549294 0.0
41.3557091 30.2081146 0.0
45.8551865 29.3451328 0.0
50.2635193 28.9758949 0.0
53.9765129 29.7054253 0.0
59.2410965 29.725811 0.0
62.8574982 29.844656 0.0
66.6092834 29.8013401 0.0
72.457695 29.682724 0.0
75.5888138 30.7709637 0.0
80.0881348 27.9142723 0.0
83.9328842 29.5340824 0.0
90.2335663 29.1997643 0.0
96.8320312 28.3486118 0.0
4.05126572 33.8147278 0.0
7.86805677 33.5986137 0.0
11.5691948 33.5320549 0.0
15.6512451 34.0631256 0.0
20.7817345 33.6513672 0.0
24.1799011 33.6730843 0.0
28.9775124 33.6707878 0.0
33.2053719 32.4453812 0.0
37.5459251 32.510643 0.0
41.5680809 34.3973045 0.0
46.5124626 32.8294144 0.0
51.5057793 33.5717773 0.0
55.6175842 33.8958321 0.0
59.4664459 33.9691467 0.0
63.0839119 33.9117432 0.0
66.2320786 33.289196 0.0
71.8458176 33.9285126 0.0
75.3805618 34.1727104 0.0
78.3972626 34.1357231 0.0
83.5370407 34.0955658 0.0
87.8008957 32.3388023 0.0
89.9807205 33.0815544 0.0
96.5144882 31.9332428 0.0
4.19800043 37.7831001 0.0
8.14406967 36.9041748 0.0
12.8731489 36.7465286 0.0
16.0549393 37.1026001 0.0
20.757597 38.1237068 0.0
24.7427673 36.8159218 0.0
28.1208649 37.4598198 0.0
32.189827 38.6742935 0.0
35.9814529 36.5879669 0.0
41.8842735 38.205143 0.0
45.5332794 36.2086601 0.0
49.7692986 37.9204025 0.0
53.7858467 37.9133072 0.0
59.7922363 37.9785843 0.0
63.7529221 37.907032 0.0
67.7615738 37.7140503 0.0
71.8479996 37.9386864 0.0
75.7865372 37.9757805 0.0
79.7641525 37.8336411 0.0
83.7548828 38.025013 0.0
87.7194824 37.9912453 0.0
91.7854843 37.6752167 0.0
96.0350113 35.8526955 0.0
4.09324217 41.738945 0.0
8.81849289 40.6585922 0.0
12.431735 42.4387627 0.0
16.890871 41.2837067 0.0
20.5276642 42.6177711 0.0
26.7052555 42.5306129 0.0
30.529047 42.270092 0.0
34.3961258 42.0997276 0.0
38.1927643 42.0220337 0.0
3.91039777 45.6618385 0.0
9.25484943 45.8131638 0.0
11.662838 47.7963028 0.0
16.5130119 46.5954971 0.0
20.3243256 46.237606 0.0
24.8194466 46.0546417 0.0
28.8794708 45.8209877 0.0
32.6718979 45.7659073 0.0
36.4192772 45.8305321 0.0
4.77405548 49.7210579 0.0
8.03316021 49.4093513 0.0
12.3197289 50.0527802 0.0
16.7371044 50.1016312 0.0
20.6857967 49.7393761 0.0
24.1830845 51.4275017 0.0
29.1357117 49.2390862 0.0
32.7705078 49.4234047 0.0
36.4353943 49.7092934 0.0
3.87597275 53.9978447 0.0
9.15812302 56.199646 0.0
12.8755178 53.8488464 0.0
16.8944473 53.9203987 0.0
20.149786 55.1324615 0.0
24.1427498 54.5679817 0.0
28.4243031 53.9264069 0.0
32.1190109 54.8081055 0.0
35.9799156 55.5280266 0.0
3.68565226 57.8081169 0.0
9.16372395 59.4611397 0.0
12.011548 59.2983932 0.0
16.8973866 58.5782089 0.0
20.6859741 58.7508354 0.0
24.7122173 58.3076591 0.0
29.1280937 57.841877 0.0
33.0435638 58.7932549 0.0
37.3656464 60.0388031 0.0
3.69408369 63.4390411 0.0
7.41960859 63.110508 0.0
11.7919788 63.3858795 0.0
16.4330254 61.7685623 0.0
20.6056347 62.3886909 0.0
24.7643566 62.2271843 0.0
29.6562099 62.5214233 0.0
34.2026138 62.6263733 0.0
38.0386848 64.1818771 0.0
3.82566929 67.1241684 0.0
8.50469875 66.5183182 0.0
12.6346502 67.078331 0.0
17.7474327 66.0749207 0.0
21.7947865 66.9165268 0.0
24.2558117 66.0605087 0.0
28.8530903 65.3733521 0.0
32.1786537 66.1324539 0.0
38.0261154 68.1219101 0.0
4.9681201 71.0353317 0.0
7.90629196 69.8165207 0.0
12.601656 71.0750198 0.0
17.3022614 72.5831985 0.0
21.7184258 70.7945633 0.0
25.4765396 71.6427689 0.0
29.9428158 71.4903107 0.0
33.3351173 70.4414902 0.0
38.0843239 72.0172119 0.0
4.52242661 75.7000198 0.0
9.07929611 75.0182953 0.0
13.0730591 74.9469681 0.0
14.5960293 75.3255463 0.0
21.2461987 74.5138168 0.0
24.8379269 75.9376144 0.0
28.5806446 75.7642593 0.0
32.496994 75.9791718 0.0
38.1397781 75.9810028 0.0
6.12833405 80.1760635 0.0
9.02919769 79.3044205 0.0
11.9899549 79.1563187 0.0
16.4112377 80.1904221 0.0
21.6344643 79.1844177 0.0
25.4465008 79.2600174 0.0
30.3586178 79.5625687 0.0
34.2984428 79.7133408 0.0
38.1055908 79.9152603 0.0
5.11151981 83.8960571 0.0
8.8939352 83.2650223 0.0
12.5922203 83.614151 0.0
15.5188236 82.4895325 0.0
19.2533894 83.4165497 0.0
26.5462074 83.4956131 0.0
30.7468262 83.3473053 0.0
34.2793007 83.5418472 0.0
38.0822792 83.8526993 0.0
3.52774525 87.5252457 0.0
8.81181717 86.9140854 0.0
13.0578899 87.5302963 0.0
16.6326694 88.444046 0.0
19.3906593 87.8338776 0.0
24.9696445 86.4078064 0.0
29.3275433 87.070549 0.0
34.3470154 87.4021301 0.0
38.1072197 87.7816772 0.0
4.90272856 91.5592346 0.0
8.14474487 90.7507935 0.0
16.4196415 92.1858826 0.0
19.5498638 91.8949509 0.0
25.7391472 92.2520828 0.0
29.3708534 92.6440811 0.0
34.4703255 91.1095123 0.0
38.1193008 91.6591644 0.0
4.22867298 96.0440826 0.0
10.0475225 96.6350555 0.0
13.8715944 95.7668915 0.0
17.8814087 96.3623047 0.0
21.6345825 95.9033051 0.0
25.6584339 96.0445862 0.0
29.5857906 96.2755585 0.0
33.3732033 96.3582687 0.0
37.4657669 95.6894913 0.0
98.0 0.0 0.0
92.0 0.0 0.0
86.0 0.0 0.0
80.0 0.0 0.0
74.0 0.0 0.0
70.0 0.0 0.0
64.0 0.0 0.0
58.0 0.0 0.0
52.0 0.0 0.0
48.0 0.0 0.0
42.0 0.0 0.0
36.0 0.0 0.0
30.0 0.0 0.0
24.0 0.0 0.0
20.0 0.0 0.0
14.0 0.0 0.0
8.0 0.0 0.0
2.0 0.0 0.0
0.0 2.0 0.0
0.0 8.0 0.0
0.0 14.0 0.0
0.0 20.0 0.0
0.0 26.0 0.0
0.0 30.0 0.0
0.0 36.0 0.0
0.0 42.0 0.0
0.0 48.0 0.0
0.0 52.0 0.0
0.0 58.0 0.0
0.0 64.0 0.0
0.0 70.0 0.0
0.0 76.0 0.0
0.0 80.0 0.0
0.0 86.0 0.0
0.0 92.0 0.0
0.0 98.0 0.0
2.0 100.0 0.0
6.0 100.0 0.0
8.0 100.0 0.0
12.0 100.0 0.0
16.0 100.0 0.0
18.0 100.0 0.0
22.0 100.0 0.0
26.0 100.0 0.0
28.0 100.0 0.0
32.0 100.0 0.0
36.0 100.0 0.0
38.0 100.0 0.0
40.0 42.0 0.0
40.0 46.0 0.0
40.0 50.0 0.0
40.0 56.0 0.0
40.0 60.0 0.0
40.0 64.0 0.0
40.0 68.0 0.0
40.0 72.0 0.0
40.0 76.0 0.0
40.0 80.0 0.0
40.0 86.0 0.0
40.0 90.0 0.0
40.0 94.0 0.0
40.0 98.0 0.0
98.0 40.0 0.0
94.0 40.0 0.0
90.0 40.0 0.0
84.0 40.0 0.0
80.0 40.0 0.0
76.0 40.0 0.0
72.0 40.0 0.0
68.0 40.0 0.0
64.0 40.0 0.0
60.0 40.0 0.0
54.0 40.0 0.0
50.0 40.0 0.0
46.0 40.0 0.0
42.0 40.0 0.0
100.0 38.0 0.0
100.0 34.0 0.0
100.0 32.0 0.0
100.0 28.0 0.0
100.0 24.0 0.0
100.0 22.0 0.0
100.0 18.0 0.0
100.0 14.0 0.0
100.0 12.0 0.0
100.0 8.0 0.0
100.0 4.0 0.0
100.0 2.0 0.0
97.9777451 2.02768016 0.0
97.9789886 4.03089714 0.0
2.07358479 8.10907173 0.0
2.05820894 12.1656446 0.0
1.98620641 14.1394176 0.0
1.93720841 18.1335659 0.0
2.00782228 20.0684948 0.0
2.10687375 23.8918495 0.0
2.13435316 25.8832397 0.0
2.0704968 29.9053726 0.0
37.7429237 57.8514519 0.0
38.2184906 43.9540253 0.0
93.9694748 2.0776248 0.0
91.9652557 2.12642908 0.0
87.9117432 2.24420738 0.0
85.9171677 2.07500529 0.0
81.9917374 2.00087476 0.0
80.0748444 2.11084795 0.0
75.9322968 2.9164319 0.0
73.6263351 2.43498516 0.0
69.6520309 1.77531433 0.0
66.3573608 3.21641779 0.0
60.154068 2.11116982 0.0
58.1199417 2.27115297 0.0
54.0369682 2.05160117 0.0
47.9454994 2.15375113 0.0
43.9783974 1.96019375 0.0
42.0242004 1.92016995 0.0
38.1807404 1.90586281 0.0
36.2688789 1.88322866 0.0
32.3249359 1.98014402 0.0
30.3312702 2.17806387 0.0
26.2567406 2.32453847 0.0
24.1695843 2.20366979 0.0
20.1300068 2.02931666 0.0
16.1644192 1.94480932 0.0
10.168519 2.053334 0.0
8.1655674 2.12163949 0.0
4.09534264 2.09816384 0.0
2.05239534 2.05588078 0.0
2.07770967 6.09192133 0.0
2.04366374 33.9119415 0.0
2.05847144 35.9143753 0.0
2.08272195 39.8729935 0.0
2.03317189 41.843544 0.0
1.99054623 45.8621902 0.0
2.10603094 51.906559 0.0
1.88036633 55.9323463 0.0
1.8405571 57.8952293 0.0
1.8424269 61.7781639 0.0
1.83979464 63.7194901 0.0
1.96613252 67.610199 0.0
2.15273523 69.6026917 0.0
2.33596849 73.6940613 0.0
2.24934721 75.7982941 0.0
1.99771571 79.8592148 0.0
21.8477383 98.0061569 0.0
25.8021641 98.0215759 0.0
29.7701359 98.1323318 0.0
3.44931078 83.8054047 0.0
1.72573626 85.8332291 0.0
15.9558249 98.0690842 0.0
2.06564093 89.8370972 0.0
2.29641581 91.8454437 0.0
2.14185452 95.9696274 0.0
2.05594397 97.9916992 0.0
6.07426167 98.1258545 0.0
12.0252962 98.2028503 0.0
33.6980057 98.1494827 0.0
2.1010766 47.8797226 0.0
38.0941925 81.8831406 0.0
38.1295471 77.9486542 0.0
55.8043098 37.9459114 0.0
98.1324539 34.0024071 0.0
98.3670959 28.1663036 0.0
97.8758774 24.3266296 0.0
97.9791641 8.02656937 0.0
98.0632782 14.0960903 0.0
14.1779165 1.94329894 0.0
51.9807281 2.08443713 0.0
64.1679611 1.71061313 0.0
93.8782043 37.7623711 0.0
96.8681488 17.6859417 0.0
97.1909485 22.1171436 0.0
95.9772873 2.04454851 0.0
89.9288101 2.20461535 0.0
83.9469452 1.98032379 0.0
78.1273041 2.21196461 0.0
71.5358353 2.17836094 0.0
67.7020187 2.73225737 0.0
62.1924095 1.90735137 0.0
56.0751915 2.159657 0.0
49.9569817 2.22546172 0.0
45.9489975 2.04053044 0.0
40.0799408 1.90784788 0.0
34.3142853 1.89226198 0.0
28.3404236 2.37836218 0.0
22.1344433 2.10110784 0.0
18.1458569 1.97453344 0.0
12.1792488 1.98596025 0.0
6.14116096 2.13063502 0.0
2.07542968 4.08336639 0.0
2.07084703 10.1528549 0.0
1.91876531 16.1210232 0.0
1.92626727 21.9725304 0.0
2.1016624 27.8995266 0.0
2.04677033 31.9101028 0.0
2.07850504 37.9033966 0.0
1.98421705 43.8463707 0.0
2.22611141 49.8698463 0.0
1.97091675 53.9394035 0.0
1.83134592 59.8379593 0.0
1.86784685 65.6580048 0.0
2.36619353 71.5862656 0.0
2.15305543 77.8379745 0.0
3.70381045 81.88311 0.0
1.83162522 87.8231812 0.0
2.2565167 93.9081497 0.0
4.07907486 98.0377655 0.0
8.05652237 98.2251129 0.0
10.0260944 98.2752533 0.0
13.991684 98.0322876 0.0
17.9280396 98.132637 0.0
19.9090309 98.0882797 0.0
23.8090248 97.9918976 0.0
27.7935486 98.0832901 0.0
31.73382 98.1656189 0.0
35.7065697 98.0623779 0.0
38.0953598 85.8216476 0.0
38.1307983 89.7312241 0.0
85.7261047 38.0521507 0.0
81.7696152 37.9294739 0.0
77.7732925 37.9191704 0.0
73.8214417 37.9884644 0.0
69.8189316 37.8253517 0.0
65.7592087 37.8058624 0.0
61.7722359 37.9624405 0.0
43.8345337 38.1668205 0.0
98.0470047 35.9661636 0.0
98.2543182 32.0281067 0.0
98.3599854 30.0868149 0.0
98.2198792 26.2712421 0.0
97.8059692 19.8143234 0.0
96.5135269 16.2565136 0.0
97.8826218 12.124095 0.0
97.9330597 10.0703964 0.0
97.9884186 6.02511358 0.0
37.9249458 62.2250137 0.0
89.7504959 37.8245468 0.0
35.6035461 57.4218521 0.0
36.3731308 43.9288216 0.0
57.6552353 35.9556427 0.0
43.6296196 36.2889366 0.0
93.9382629 35.5533791 0.0
36.2864532 93.0469894 0.0
89.3270416 35.7279129 0.0
36.2638283 89.4834518 0.0
61.5328407 35.9546623 0.0
35.9574203 61.2229691 0.0
85.4604645 36.1445885 0.0
36.1844521 85.644577 0.0
65.3939667 35.6786079 0.0
37.7876244 97.911293 0.0
4.14432192 6.19512081 0.0
39.9355545 38.2384644 0.0
96.2570496 33.8576469 0.0
89.9982376 4.37202454 0.0
68.8860931 3.56154728 0.0
55.9487572 4.24579859 0.0
40.1569595 3.90319729 0.0
18.2523308 3.92974091 0.0
6.25933504 4.26504946 0.0
4.08556271 10.3053751 0.0
4.06172323 31.8344917 0.0
3.9276576 43.7068367 0.0
3.68401504 59.6896935 0.0
5.52547646 82.121933 0.0
4.48927546 93.9479904 0.0
38.1275787 40.1264877 0.0
11.8836975 96.5359802 0.0
16.0339603 96.1076584 0.0
35.2953873 96.249588 0.0
95.9947739 9.99723244 0.0
96.0222778 6.03299141 0.0
81.6809692 35.8492622 0.0
36.181736 81.7511673 0.0
69.8243256 35.7035904 0.0
77.4595871 35.9581985 0.0
36.2457428 77.8971252 0.0
73.6734238 36.0120125 0.0
38.023632 38.3132057 0.0
39.8192711 36.3826485 0.0
36.2334938 40.2220802 0.0
36.1200867 94.3822403 0.0
6.02964687 31.789854 0.0
18.3066254 5.85710955 0.0
69.306221 6.25305557 0.0
7.25273037 82.6102219 0.0
14.6962414 93.7181549 0.0
36.3133774 42.0612526 0.0
35.0757561 59.2145996 0.0
59.6187134 35.9788666 0.0
41.7272453 36.333271 0.0
36.3139458 91.3290939 0.0
91.5466919 35.0149345 0.0
90.3926239 6.38720465 0.0
10.1993361 95.0842896 0.0
94.307663 9.74599075 0.0
5.90491438 10.3377228 0.0
40.3272133 5.89250517 0.0
5.53581095 59.5755272 0.0
36.1063004 62.6111641 0.0
63.4445877 35.8800812 0.0
36.2318611 87.5775833 0.0
87.3506927 36.051403 0.0
36.1866913 83.6968689 0.0
67.5532684 35.1669807 0.0
83.5963593 36.0599403 0.0
37.9621353 55.8330612 0.0
45.7985573 38.1042557 0.0
36.2194595 79.8221283 0.0
71.8074951 35.9283371 0.0
79.5484238 35.4858513 0.0
34.4067307 76.0012207 0.0
75.561615 36.04702 0.0
94.1031647 6.05548716 0.0
55.3778687 6.11710548 0.0
5.78165865 43.635273 0.0
6.25397968 6.36241102 0.0
6.57090378 94.320755 0.0
77.0831223 34.2555962 0.0
73.5920639 34.0529518 0.0
34.5556335 92.8519516 0.0
5.98948288 33.7020111 0.0
16.4175491 5.76816511 0.0
6.74583149 84.2154846 0.0
66.8594513 7.3932209 0.0
12.3615532 94.3610458 0.0
33.5806465 56.9922676 0.0
34.4815559 43.9280319 0.0
57.5798912 33.9605675 0.0
43.4221611 34.3951073 0.0
92.2383728 6.14427376 0.0
94.2443695 7.94405508 0.0
8.49669552 94.734024 0.0
5.97816658 8.33428288 0.0
42.0791283 5.78274012 0.0
5.49794102 57.7658958 0.0
34.4428749 60.8862953 0.0
61.3039818 33.958374 0.0
36.0541611 66.2593079 0.0
88.5539627 33.8702774 0.0
34.4192276 89.2880554 0.0
85.2299728 34.2759209 0.0
34.320446 85.4809113 0.0
64.7842484 33.7781105 0.0
47.7900696 38.0094528 0.0
80.2031174 33.4021797 0.0
70.1646729 33.822216 0.0
36.2492714 74.0543823 0.0
39.6685333 34.4439621 0.0
34.3029747 40.3091507 0.0
94.0188599 4.08966827 0.0
53.1475677 7.30262041 0.0
7.70427513 46.2918358 0.0
8.18962955 96.4694901 0.0
31.4878559 96.3507767 0.0
19.7606239 96.1866226 0.0
95.6472855 18.9531288 0.0
30.8592548 4.25792503 0.0
3.77288318 18.1553211 0.0
82.0824966 3.91230774 0.0
4.16989946 69.0088272 0.0
34.1759109 38.5383911 0.0
37.7242203 34.525631 0.0
32.4017105 77.7972946 0.0
81.9899521 31.7416096 0.0
32.3972893 81.4833984 0.0
69.2749329 31.5835838 0.0
8.61241627 6.74568701 0.0
32.5240479 85.3469467 0.0
64.3781738 32.044075 0.0
94.8291473 31.5913105 0.0
31.6294212 56.5676079 0.0
32.5696487 43.959343 0.0
57.546093 31.9541569 0.0
43.3093224 32.4640274 0.0
73.642952 32.0904808 0.0
47.515625 36.0174522 0.0
61.1233025 31.886158 0.0
32.6377411 89.1522827 0.0
31.2874298 94.5537109 0.0
95.2369537 29.8497715 0.0
19.3374424 94.3917236 0.0
93.4413681 19.0064392 0.0
31.7593384 6.06173229 0.0
5.11504412 17.9046974 0.0
82.3341446 5.37863398 0.0
5.83372259 68.0953903 0.0
6.05369997 35.5903168 0.0
7.92939377 31.8086033 0.0
14.5621204 5.74809504 0.0
18.2942066 7.78457499 0.0
68.5991287 8.0523653 0.0
9.57456207 81.7744446 0.0
4.91865635 85.5627823 0.0
64.9718628 5.33798122 0.0
15.1994896 92.2675934 0.0
45.2452316 34.3835144 0.0
34.0119286 55.1805573 0.0
34.5613213 45.7894592 0.0
55.6761703 35.9073906 0.0
94.3689346 33.5008926 0.0
9.05845547 93.0684509 0.0
7.2027092 10.1222811 0.0
43.8023987 5.8695755 0.0
5.53366232 55.9812889 0.0
40.7539062 7.42299318 0.0
7.37802172 59.5184288 0.0
34.1478081 64.3795547 0.0
38.039299 66.1477585 0.0
38.123806 74.0076523 0.0
34.4167786 74.203064 0.0
52.4615021 5.32656193 0.0
6.04620075 46.953495 0.0
7.44277954 45.0739441 0.0
35.7643127 34.6678047 0.0
34.2943611 81.6137619 0.0
68.5629959 33.1988258 0.0
34.3559113 77.8577423 0.0
92.7060776 9.76448536 0.0
56.5921288 9.56820107 0.0
9.11793804 44.7364388 0.0
93.8693771 29.2071877 0.0
7.42889929 61.3462029 0.0
39.8341713 8.54022026 0.0
9.84423161 91.4402161 0.0
14.3264112 90.9262619 0.0
92.8897858 11.4940968 0.0
88.6891556 6.85798502 0.0
68.0718155 9.88250923 0.0
10.8187323 82.5135574 0.0
18.2014103 9.75073814 0.0
9.77937222 31.9110203 0.0
91.2113724 9.87779236 0.0
90.8464203 8.22504234 0.0
30.5520916 75.8813095 0.0
78.8150024 31.257452 0.0
32.3802452 79.6249008 0.0
71.7498322 31.6467724 0.0
10.7765284 6.09899187 0.0
90.9995575 31.7336235 0.0
32.4638405 42.1768951 0.0
31.0448647 58.3756523 0.0
59.3680534 31.9085045 0.0
41.4287567 32.3794365 0.0
32.8579826 92.7994308 0.0
16.6251278 94.0654144 0.0
92.6959457 16.021841 0.0
32.6612129 7.55005932 0.0
5.50120068 16.5528507 0.0
83.7581558 5.95435429 0.0
6.97029305 67.4064789 0.0
6.14774656 29.8327007 0.0
4.08969641 35.7866058 0.0
7.91221762 35.2933311 0.0
14.7192383 7.60975218 0.0
14.3662395 3.86516857 0.0
20.2051067 5.98114491 0.0
71.4734879 6.01963186 0.0
7.97956371 80.9208984 0.0
6.35085201 85.680809 0.0
64.9641495 9.09896564 0.0
3.37699103 85.6676788 0.0
64.5309677 3.52651405 0.0
43.6317902 7.77972031 0.0
7.31865215 57.7609978 0.0
38.480751 6.48477602 0.0
5.54501152 61.4317894 0.0
52.101593 3.97511482 0.0
43.915287 3.92055345 0.0
4.17737341 47.5874939 0.0
3.72936201 55.9321823 0.0
36.1056633 72.0994568 0.0
56.9400787 6.85077333 0.0
6.15457487 41.7650299 0.0
8.24638748 47.380127 0.0
34.609623 47.6692963 0.0
53.6505432 35.8318329 0.0
32.4820595 83.4148636 0.0
67.9699554 30.6670723 0.0
32.595005 87.2698441 0.0
62.8244286 31.9490814 0.0
7.14917421 92.4568024 0.0
75.4056931 32.3968735 0.0
33.9925423 36.7496834 0.0
89.8071747 10.1793556 0.0
31.1354961 92.7442245 0.0
35.3817406 32.5326843 0.0
31.6496811 35.1446419 0.0
32.4858932 60.6436386 0.0
88.8566437 31.6752129 0.0
35.8973312 70.1905441 0.0
9.30237103 46.7216492 0.0
54.4442062 10.0827837 0.0
95.6291504 28.5106392 0.0
10.7649708 59.4166985 0.0
41.753231 9.83702374 0.0
7.89036894 88.3745956 0.0
9.97811985 8.47827339 0.0
59.5313072 6.95588541 0.0
6.81328201 39.6105118 0.0
12.3832235 90.4114456 0.0
66.1113663 11.3252296 0.0
10.7162447 83.9863281 0.0
16.4165554 9.59224796 0.0
9.71781349 33.5302238 0.0
30.4032803 77.770546 0.0
32.6427994 74.3134613 0.0
6.49776077 12.5716705 0.0
5.51482391 63.2341232 0.0
36.5761337 5.74044085 0.0
81.9966431 29.6709061 0.0
30.5751781 81.4242249 0.0
68.6844864 29.1481228 0.0
11.3887501 7.86378717 0.0
39.518795 32.4168129 0.0
32.3409538 40.4164505 0.0
57.5211334 29.9647636 0.0
29.734663 56.0939674 0.0
30.6640453 44.0235748 0.0
43.4111443 30.4943848 0.0
18.3522205 93.0774155 0.0
91.6073303 19.1941147 0.0
94.2269363 15.1406736 0.0
34.8526115 5.43650627 0.0
31.7053528 8.31233501 0.0
5.93113756 14.7512789 0.0
7.20288086 17.3513908 0.0
82.4662094 7.40990305 0.0
7.77359104 67.8736801 0.0
85.260994 5.46994972 0.0
5.47102547 64.9689713 0.0
6.27090979 37.4958992 0.0
12.6996107 5.83394623 0.0
6.07062292 86.8097382 0.0
63.4071846 7.2595005 0.0
6.7650795 48.3393898 0.0
51.5494919 6.34012318 0.0
6.64682198 89.835144 0.0
30.8643188 85.2609253 0.0
64.5399933 30.3879776 0.0
30.9543743 89.0542603 0.0
61.0392303 29.6539574 0.0
74.0015259 30.3298988 0.0
77.0812454 32.6124916 0.0
86.2501831 6.38288546 0.0
93.1297607 13.3915157 0.0
22.1437759 6.13853264 0.0
6.31864643 27.8395309 0.0
72.7722015 6.23265314 0.0
7.13650942 77.8801804 0.0
89.6039581 30.5793037 0.0
94.7402802 27.3964443 0.0
6.81716681 50.7673187 0.0
49.0468521 6.90915203 0.0
6.83938122 87.53125 0.0
81.2753754 8.64245701 0.0
8.75843811 68.3900528 0.0
89.8804779 19.5528088 0.0
9.33096218 18.3794117 0.0
30.7796516 8.87436771 0.0
87.9135513 9.24955463 0.0
10.7746687 93.6212387 0.0
29.9902592 37.1623497 0.0
37.45895 30.4364662 0.0
33.4642944 33.4126587 0.0
18.0469398 90.9128036 0.0
61.187748 6.0717845 0.0
87.9979324 30.7910023 0.0
32.1590614 62.52248 0.0
38.02425 70.0759277 0.0
9.28309155 48.2880821 0.0
52.4044113 8.96146584 0.0
11.1088095 44.1086845 0.0
9.10940552 57.7874489 0.0
43.3900681 9.35994148 0.0
11.1261683 61.1599731 0.0
40.4106827 11.6187305 0.0
10.0355015 87.6420441 0.0
10.7350769 9.5398531 0.0
14.534914 88.8217621 0.0
67.6143723 11.6816082 0.0
12.2378502 81.7526169 0.0
64.6077347 11.0343742 0.0
9.62982178 85.4684982 0.0
17.9778633 11.698595 0.0
14.748024 9.44557095 0.0
11.5163832 32.0783997 0.0
9.73065853 35.0460052 0.0
8.46030712 13.8307695 0.0
7.24060965 64.8072891 0.0
34.0795593 7.87258768 0.0
83.5857773 32.017231 0.0
39.375721 30.296423 0.0
30.2546234 54.4168205 0.0
45.3716774 30.9874668 0.0
93.2713013 20.5320435 0.0
96.0555038 14.4131861 0.0
30.4886951 6.85977411 0.0
33.6854057 6.94184732 0.0
7.78882265 15.5409756 0.0
6.15779352 18.9707508 0.0
81.2439957 6.19931269 0.0
6.64368629 69.2039566 0.0
7.05225563 66.3039017 0.0
32.7355537 90.9963226 0.0
85.7976379 8.69785309 0.0
91.6885757 14.9030066 0.0
88.1558762 29.7498894 0.0
28.3267612 77.7407913 0.0
77.2044907 31.0544052 0.0
81.5581741 27.8574982 0.0
28.9040489 81.5792007 0.0
69.3790512 27.5789585 0.0
74.4990616 28.7373753 0.0
30.4050655 40.5570564 0.0
30.8456879 74.0415344 0.0
60.5631828 8.5818758 0.0
8.69553089 38.292675 0.0
29.3303947 85.2118301 0.0
65.0905838 28.9173775 0.0
29.3324928 88.9489288 0.0
61.0284691 27.2590122 0.0
32.7481041 47.5976334 0.0
53.6288109 33.7731018 0.0
72.5524292 7.91524124 0.0
9.58581066 76.590126 0.0
22.0144444 8.0966711 0.0
8.44795418 27.9355221 0.0
28.744669 44.1131554 0.0
55.9870567 27.8136005 0.0
27.834362 55.5368576 0.0
43.7575531 28.5973206 0.0
51.7722511 37.8918495 0.0
36.4380112 47.7690048 0.0
73.0529785 4.49912214 0.0
4.43959475 77.7838364 0.0
22.1787624 4.1500535 0.0
4.1967802 27.8413677 0.0
32.2094383 64.3288116 0.0
5.70662594 54.2023506 0.0
45.5599899 6.07843971 0.0
34.3194008 53.3339424 0.0
87.1882553 31.0890751 0.0
81.8477783 33.811367 0.0
96.5336609 26.7375679 0.0
4.20304775 51.9865646 0.0
47.7757797 4.31141615 0.0
9.76941299 67.1368561 0.0
82.371048 9.75655174 0.0
89.4679184 17.9452209 0.0
11.5389643 16.3760777 0.0
32.681118 9.92818451 0.0
39.0874825 28.1763935 0.0
28.5065193 40.721096 0.0
30.6608601 52.7562752 0.0
47.2376709 31.76614 0.0
35.5026741 28.5549259 0.0
29.5778389 35.4410477 0.0
16.3477917 90.5549469 0.0
60.5005112 4.20933008 0.0
4.27072477 39.7337723 0.0
30.3895607 60.3044777 0.0
10.8351784 57.8486099 0.0
43.1535721 11.5542746 0.0
38.4575272 10.2745419 0.0
9.40707493 63.2020988 0.0
9.72167683 12.3173361 0.0
36.3831978 10.4490862 0.0
9.04342556 64.9884491 0.0
89.6658249 12.108758 0.0
90.9778061 27.7904835 0.0
79.8768082 26.2815514 0.0
59.2944221 9.93213463 0.0
27.8390312 86.9385986 0.0
10.2834044 10.6307297 0.0
30.8884869 47.5486755 0.0
53.7520866 31.7471313 0.0
31.6946964 72.1929626 0.0
72.0145874 9.67229462 0.0
10.6395521 77.9427338 0.0
74.0118866 6.4789176 0.0
6.85724163 75.5569687 0.0
21.8323135 10.0376368 0.0
24.093996 6.35712767 0.0
10.4553223 28.4544792 0.0
6.4142561 25.9090443 0.0
28.6304474 42.4141197 0.0
27.2181129 57.2439156 0.0
58.7791443 27.1650982 0.0
41.33078 27.7274475 0.0
51.5788422 35.7416115 0.0
34.5966415 49.5636559 0.0
28.7022972 73.6165771 0.0
13.1256857 44.9114571 0.0
56.0634155 14.0120983 0.0
93.8564301 22.6397476 0.0
12.732233 60.3977737 0.0
39.5164223 13.6093941 0.0
86.632019 29.8324089 0.0
11.4997692 34.9954453 0.0
13.173851 10.9463129 0.0
11.5061197 85.2062454 0.0
26.6345406 75.8457565 0.0
28.0435677 79.6737213 0.0
71.7061462 27.1648254 0.0
52.9174767 11.6554193 0.0
14.1969585 87.0268021 0.0
63.3574028 27.4632339 0.0
27.8396149 83.4738083 0.0
67.4889145 26.2818623 0.0
76.1086731 28.1434441 0.0
21.2725677 93.4625778 0.0
67.3543396 13.4140635 0.0
13.7382984 82.0883789 0.0
17.5802765 13.4916458 0.0
13.4651985 31.088438 0.0
32.6786232 51.2457695 0.0
35.9363327 68.2372131 0.0
30.7274876 65.9235687 0.0
25.9611263 54.9541702 0.0
26.9118729 45.8997993 0.0
54.274929 27.6336308 0.0
44.423069 26.8846149 0.0
36.3585205 51.6610451 0.0
61.8790512 7.6518569 0.0
30.3365669 64.5260468 0.0
27.9417667 7.24154758 0.0
6.1941123 21.8103867 0.0
78.7315292 6.18712759 0.0
7.1824522 71.5569534 0.0
82.9117203 27.3218975 0.0
88.4187012 28.0058594 0.0
29.4539814 94.4589844 0.0
33.7578926 68.2313995 0.0
34.0326805 66.2620163 0.0
30.8741684 51.0397873 0.0
9.77210999 36.4436035 0.0
11.7156382 10.8532619 0.0
10.8256159 86.2742233 0.0
63.102623 10.533062 0.0
13.2685556 35.1119537 0.0
13.8433743 13.1085062 0.0
13.1027546 85.412056 0.0
64.0815201 13.1400843 0.0
81.315506 10.6326313 0.0
87.655571 19.1204472 0.0
11.6367998 17.8291264 0.0
30.8374386 10.1738615 0.0
49.1128159 33.2641029 0.0
31.2592239 33.318573 0.0
18.6179848 89.4161377 0.0
90.2782059 11.2546215 0.0
78.575676 27.8569317 0.0
81.7973404 25.7365837 0.0
9.62485123 42.8265266 0.0
26.1818161 88.5321808 0.0
30.7894211 45.7832832 0.0
55.6634712 31.8942242 0.0
69.6985474 10.5963249 0.0
10.6888285 80.4621811 0.0
19.9949341 9.90018749 0.0
10.0159101 30.1960716 0.0
25.3759689 56.665905 0.0
42.6121788 26.0054092 0.0
28.4153633 59.6580811 0.0
54.7844582 14.3607092 0.0
14.0908813 47.1325989 0.0
41.2492638 14.6197348 0.0
85.8984451 27.8968182 0.0
26.3465042 77.5398941 0.0
68.9268875 24.988575 0.0
27.6143436 81.9401398 0.0
27.5656433 94.3192139 0.0
13.102561 56.3647499 0.0
44.0766296 13.1639566 0.0
10.6854706 49.1437721 0.0
51.423069 10.5450306 0.0
60.8626556 24.6714573 0.0
65.3841705 26.5022392 0.0
26.5258732 85.0255051 0.0
73.8788452 26.3621788 0.0
65.9120178 15.0252504 0.0
14.17097 83.2512817 0.0
16.7535896 15.1093578 0.0
13.6869087 33.3766441 0.0
34.4965706 51.4576035 0.0
31.6699104 67.8712769 0.0
27.131752 47.6036301 0.0
52.4628296 27.4146709 0.0
26.4708462 53.0651169 0.0
46.3956375 27.637167 0.0
26.767704 44.2146111 0.0
56.6186714 25.49617 0.0
73.7299957 10.4466276 0.0
11.4896107 75.6701584 0.0
11.1393204 26.7794571 0.0
23.6496925 10.259594 0.0
52.9829445 14.0694513 0.0
13.2584267 48.5897903 0.0
51.7763824 31.4693699 0.0
30.9288387 49.3055954 0.0
30.9919872 69.6616974 0.0
89.8119736 25.810463 0.0
27.5709839 92.4928055 0.0
9.8249197 37.5076637 0.0
62.3889465 8.7942152 0.0
6.25832558 24.3071995 0.0
26.0606709 6.69505882 0.0
76.111084 6.47145271 0.0
6.88042164 73.4863129 0.0
10.0507174 14.6581564 0.0
34.7892456 9.05724716 0.0
47.3173485 6.37819338 0.0
6.10189629 52.4309692 0.0
27.8531952 64.0193634 0.0
30.2372894 38.8621101 0.0
94.833046 25.8278351 0.0
49.5112305 35.7448006 0.0
77.4914551 7.80463409 0.0
9.00250149 73.2924652 0.0
7.75721216 23.3596516 0.0
92.0750809 24.0215321 0.0
25.7197418 8.70298767 0.0
14.0379725 29.7710266 0.0
19.5938187 14.1006899 0.0
14.7430534 79.0160141 0.0
72.0457077 14.2019176 0.0
23.8811913 91.87677 0.0
33.870369 31.5556164 0.0
15.8552275 86.3702774 0.0
23.6346893 95.9302597 0.0
77.3430786 4.87072706 0.0
4.68489981 73.4876938 0.0
4.50647545 23.5429211 0.0
26.3353271 4.60131025 0.0
95.1813126 23.7194996 0.0
36.9794197 14.5088921 0.0
13.7054758 61.8334579 0.0
15.3546295 42.224041 0.0
57.6479187 14.1818895 0.0
26.5758953 74.369957 0.0
26.6493435 40.867012 0.0
39.9554596 25.5433464 0.0
29.5698395 67.1656342 0.0
10.8465223 65.6208191 0.0
11.8714962 14.9143724 0.0
34.5615196 10.3496523 0.0
7.83560133 52.9255676 0.0
46.859333 8.36736679 0.0
93.0804062 26.752985 0.0
93.760994 25.0959358 0.0
25.6243935 94.1205368 0.0
60.787117 11.159606 0.0
52.1243935 29.4013786 0.0
29.017498 47.5384674 0.0
49.7965393 30.989048 0.0
72.9010849 12.3756943 0.0
12.2415133 76.8666153 0.0
23.4064941 12.0935907 0.0
12.9918537 27.6882381 0.0
24.907011 73.0595551 0.0
24.6433773 39.4393883 0.0
39.024353 23.7078838 0.0
80.2105637 9.98878956 0.0
9.47502422 70.0415115 0.0
29.163826 9.79218769 0.0
47.111763 34.1695824 0.0
20.3364296 90.3599777 0.0
78.3252029 26.1424274 0.0
27.6389103 90.6482544 0.0
26.5197525 58.9567833 0.0
15.2546167 60.3066139 0.0
38.7206764 15.4973459 0.0
27.6409454 96.1833267 0.0
28.9753513 52.4516983 0.0
47.8575783 30.1581745 0.0
52.7298584 25.5798283 0.0
25.2520103 47.803978 0.0
76.334259 9.53163147 0.0
11.0586891 74.3803635 0.0
25.3981113 10.6165333 0.0
10.7317181 24.0219269 0.0
77.9221802 10.6537008 0.0
10.8988924 72.9327164 0.0
9.65271282 21.9346657 0.0
89.5176315 22.0479603 0.0
27.1220493 11.0890436 0.0
15.6423216 30.4359245 0.0
14.6605606 28.4337521 0.0
21.5746288 13.6815157 0.0
18.2810116 15.7363005 0.0
13.347537 77.9842529 0.0
14.7166729 81.2174759 0.0
69.3812408 15.0177679 0.0
22.6287193 89.3973236 0.0
23.5868454 93.8464966 0.0
13.7073765 64.8335724 0.0
59.915596 12.8007793 0.0
13.9110842 40.6859131 0.0
14.8554058 45.7902527 0.0
56.086834 15.4124842 0.0
84.1595383 26.2396984 0.0
27.1680355 72.2769623 0.0
26.5199738 39.2832527 0.0
38.3859596 26.1798592 0.0
9.50030613 53.3065491 0.0
47.9486542 10.1195164 0.0
87.980072 14.6180677 0.0
86.3650742 11.8246784 0.0
26.4040794 63.0273666 0.0
51.0825424 25.0976009 0.0
25.6147861 49.5258636 0.0
51.7217598 23.0176945 0.0
23.5401325 48.2198906 0.0
86.5605469 25.8570213 0.0
27.5621452 61.4215927 0.0
23.9671326 59.9220543 0.0
76.8355103 24.5272846 0.0
77.0502014 12.4872179 0.0
12.7319727 73.8430786 0.0
12.2982807 23.0371819 0.0
26.7361469 12.9422874 0.0
23.0304489 74.5455551 0.0
42.2207451 23.9257698 0.0
22.9488525 42.2823639 0.0
90.3494034 20.6814384 0.0
16.231184 29.0917015 0.0
15.7649841 77.7571106 0.0
24.2708321 89.9767914 0.0
59.4496803 14.8996696 0.0
16.1642151 39.9867973 0.0
85.3110428 13.0269604 0.0
26.6065845 65.2944031 0.0
89.8838348 24.0474815 0.0
74.5248566 13.3600569 0.0
13.6031876 76.0007095 0.0
23.1817322 13.7900772 0.0
13.8350258 26.3508244 0.0
26.2442474 70.167984 0.0
61.606308 13.5413713 0.0
14.1406975 38.6953011 0.0
26.3512592 37.797184 0.0
36.7357903 26.5858707 0.0
15.778327 47.9384499 0.0
52.4205055 15.4079103 0.0
16.5432472 83.7890854 0.0
36.1251984 16.0457325 0.0
14.9611464 63.1036034 0.0
46.9376106 25.8164654 0.0
24.4416809 52.9819565 0.0
27.4910393 67.1741333 0.0
27.5011139 50.8424721 0.0
48.8443832 26.4720898 0.0
27.6364822 65.9708405 0.0
86.8704071 17.9816265 0.0
73.0234985 23.9547863 0.0
27.3347034 49.2903366 0.0
17.2031555 45.404007 0.0
55.696682 17.6461372 0.0
15.0451918 57.4442024 0.0
42.9928055 16.9593582 0.0
16.5836964 81.7064896 0.0
68.9113617 17.2225933 0.0
19.4855099 16.9255676 0.0
17.3240585 31.0419178 0.0
23.5597382 85.9821701 0.0
64.8059082 24.4163818 0.0
64.4642944 15.2907505 0.0
15.5599089 14.4398804 0.0
14.8771639 35.4674683 0.0
24.6481705 44.2767792 0.0
55.7488289 23.2308178 0.0
34.1406212 15.2069521 0.0
15.6370287 65.6931915 0.0
17.8879204 85.3728867 0.0
13.4200068 24.1568279 0.0
76.227272 14.3706264 0.0
14.4798126 74.4703369 0.0
24.7073784 14.1553249 0.0
58.9766769 17.4769535 0.0
17.806776 39.4951668 0.0
35.3944626 17.5015087 0.0
17.8138676 63.4976883 0.0
72.8921356 16.9962578 0.0
16.6379471 76.4489136 0.0
22.469265 17.2693233 0.0
16.8428783 27.7854519 0.0
47.4304771 23.9435425 0.0
22.9639168 52.9987793 0.0
25.7826271 66.7100449 0.0
87.6565781 22.8079777 0.0
22.4660873 46.4833946 0.0
22.9681377 57.7373428 0.0
79.5199509 22.6104031 0.0
23.2387123 72.8112259 0.0
43.7484627 22.7991829 0.0
40.4423141 23.0047951 0.0
22.5928059 39.7469749 0.0
84.1802597 14.5409985 0.0
17.5314846 35.0015907 0.0
64.9468613 17.4677582 0.0
17.6873837 56.3637962 0.0
43.3568344 19.0616016 0.0
17.4723091 48.6447945 0.0
52.0559769 16.8948517 0.0
25.0834427 68.1758652 0.0
14.3796091 54.7611198 0.0
45.8195724 14.60466 0.0
14.983614 49.3884468 0.0
51.0220413 14.6279373 0.0
85.7697372 15.0926142 0.0
62.8669205 14.0510502 0.0
14.4397192 37.0214806 0.0
36.1482391 24.858057 0.0
25.272337 35.0189247 0.0
85.9376221 17.0753574 0.0
86.2040634 23.625124 0.0
53.3270073 18.9605408 0.0
18.1574078 47.2645035 0.0
18.4215488 33.2236595 0.0
17.7972202 82.4063339 0.0
66.7411041 18.4311485 0.0
27.8271198 15.453887 0.0
14.1126728 72.324791 0.0
78.7687531 13.3925962 0.0
13.7120256 21.9426765 0.0
20.4987297 18.242506 0.0
18.5751038 80.7218933 0.0
70.5156784 17.7365913 0.0
19.2464867 41.5977173 0.0
57.372654 19.1340637 0.0
23.8836021 84.4389572 0.0
66.0834579 21.9945965 0.0
62.679039 22.8694344 0.0
21.5428658 86.9220734 0.0
75.6287155 22.8457184 0.0
71.8041306 23.8411007 0.0
85.9655838 19.9593525 0.0
15.3843269 27.1026115 0.0
73.7083893 15.1950483 0.0
14.5262356 76.9083405 0.0
19.096962 61.6474648 0.0
36.728714 18.4547615 0.0
22.4414501 54.1886902 0.0
45.5305748 23.2270203 0.0
51.2373848 20.646471 0.0
21.315506 48.1797752 0.0
22.306736 59.3002892 0.0
23.5912552 56.1671638 0.0
81.5897446 23.4169712 0.0
77.7574539 20.940115 0.0
23.7093544 71.225029 0.0
23.1576519 76.3130798 0.0
22.613802 37.6732597 0.0
81.45858 12.1552391 0.0
41.5726814 19.1392803 0.0
34.6870079 25.1833458 0.0
27.0354748 34.248436 0.0
14.9469595 67.6233673 0.0
32.2385941 16.0431538 0.0
19.9140739 86.1274872 0.0
54.3388443 20.5628662 0.0
16.130394 18.5435829 0.0
29.5871544 16.1799717 0.0
14.193655 70.9737396 0.0
80.4437561 14.114068 0.0
15.1929302 20.9230824 0.0
18.8618126 19.2574863 0.0
68.5453568 19.3123131 0.0
19.2231464 43.508461 0.0
54.9113884 19.4103565 0.0
23.99086 83.0218048 0.0
69.222496 22.9171524 0.0
64.2911911 21.9907265 0.0
72.9928818 21.8736248 0.0
85.1866608 22.2420101 0.0
85.7305984 18.7829342 0.0
77.9994431 15.3623238 0.0
15.3687325 73.3022079 0.0
14.7157478 23.1029186 0.0
27.0957394 17.4198952 0.0
23.3593616 67.5963058 0.0
49.485817 13.6980476 0.0
14.1700573 50.8863106 0.0
15.2200899 53.1704292 0.0
47.3525772 14.740592 0.0
61.2242165 15.3654766 0.0
15.9897137 38.5629463 0.0
83.9474335 23.4434509 0.0
63.0887794 19.3453617 0.0
17.6353836 36.8162727 0.0
18.5200939 54.5642242 0.0
45.0359039 19.0107727 0.0
50.0653229 17.8500328 0.0
19.1060295 49.2306824 0.0
19.3164158 65.4015808 0.0
34.4026451 18.8238869 0.0
22.2801037 50.086525 0.0
49.9004784 21.4480801 0.0
33.1500664 25.3552628 0.0
26.0027637 32.6250229 0.0
43.7241859 21.0328121 0.0
23.8119812 77.9943619 0.0
21.2575836 76.6675949 0.0
35.3723373 13.7386866 0.0
17.9914589 87.2368774 0.0
19.7172127 63.9767494 0.0
35.7499008 19.8031693 0.0
39.1691399 18.2306709 0.0
17.8179035 60.4348679 0.0
22.0967922 51.826683 0.0
47.9193039 22.2249241 0.0
35.5547028 23.2271538 0.0
38.1936302 22.0670567 0.0
27.7009296 35.8611565 0.0
35.1335831 26.8237705 0.0
16.7338428 70.2765427 0.0
31.0501442 17.2215977 0.0
22.7870502 65.3508835 0.0
15.9776907 51.6238976 0.0
47.1126976 16.4181023 0.0
64.6521225 19.6864319 0.0
61.445713 19.4287663 0.0
19.1897469 38.1419754 0.0
19.710001 35.3898926 0.0
19.4417019 56.7882195 0.0
17.6932507 52.2899361 0.0
46.6069946 17.6863155 0.0
47.9854202 18.5119381 0.0
18.4287224 50.7322426 0.0
51.679821 18.5701313 0.0
19.776989 47.7203522 0.0
19.3736439 67.3712997 0.0
32.2277412 18.468935 0.0
69.6317215 21.3798027 0.0
22.1756096 82.6824341 0.0
61.4752617 23.1259251 0.0
23.1059322 87.631546 0.0
26.7945023 19.3585701 0.0
77.2159042 17.1962109 0.0
16.1030064 74.2700043 0.0
17.0178375 24.0922356 0.0
22.4934216 34.9176788 0.0
81.8560715 14.7533073 0.0
81.1204681 21.0168095 0.0
21.2272625 57.2348595 0.0
72.1263199 18.738821 0.0
22.8446541 19.4776821 0.0
19.2931919 27.730238 0.0
19.234024 39.2431755 0.0
59.912365 19.9041195 0.0
59.4943428 22.7355156 0.0
13.9064188 19.3964462 0.0
82.9798813 17.9402332 0.0
22.5018768 69.1651459 0.0
77.7663422 19.4470768 0.0
30.814085 14.2512217 0.0
12.7226067 69.3696747 0.0
19.1476784 76.5602417 0.0
74.6350632 17.9821701 0.0
24.8646183 19.2329559 0.0
18.5591736 25.2582397 0.0
36.2761154 21.6075172 0.0
50.6652336 27.0037479 0.0
85.6804581 4.01118946 0.0
34.6317368 3.73763061 0.0
3.69279623 65.2963791 0.0
20.1420269 51.2901573 0.0
47.1859856 19.845747 0.0
13.4272327 52.370182 0.0
23.4179783 80.6638718 0.0
21.8367825 55.6858864 0.0
82.6798859 22.0132294 0.0
81.6822662 18.9608269 0.0
31.5239487 25.4317665 0.0
24.5066185 31.1057491 0.0
19.3500595 70.138649 0.0
30.2680798 18.5633678 0.0
40.1990242 19.4582939 0.0
20.0903664 60.2301979 0.0
15.5703926 16.7204952 0.0
25.2656956 64.5259094 0.0
67.7479095 21.788229 0.0
70.1035538 23.8695107 0.0
21.3696098 26.7114944 0.0
22.7265282 21.9064617 0.0
22.8506317 32.3431129 0.0
21.3354378 36.2126465 0.0
81.4132156 16.6125851 0.0
79.2125931 18.5138702 0.0
19.1922531 78.8389359 0.0
23.7766495 63.7811394 0.0
31.4595184 20.3364391 0.0
28.4724026 19.703558 0.0
19.3889313 72.3211975 0.0
22.9604816 29.8305225 0.0
33.9653549 22.2925014 0.0
29.8040066 27.5463314 0.0
25.8687782 29.8486671 0.0
21.5855846 28.7281685 0.0
21.4219952 23.973074 0.0
23.7573967 36.0614052 0.0
20.449192 81.5116119 0.0
48.9471054 11.1295338 0.0
11.2438431 51.5912132 0.0
76.3694382 18.7948589 0.0
19.5371819 74.3254471 0.0
21.3285828 64.6316528 0.0
26.7532501 21.1390686 0.0
46.7327728 10.3825665 0.0
10.9325666 54.8770065 0.0
21.5811634 31.0252075 0.0
27.9694576 31.5453129 0.0
22.6910534 27.5462685 0.0
18.5919552 22.9561863 0.0
22.6006165 24.075367 0.0
32.8215332 22.0159988 0.0
73.9016724 19.8688946 0.0
27.6246777 26.680542 0.0
26.8454475 28.3367786 0.0
31.4012756 23.6574097 0.0
23.1221561 61.5156364 0.0
21.385704 72.538765 0.0
25.7909985 25.7518196 0.0
44.8498192 10.4603758 0.0
10.9626045 56.3565598 0.0
30.2284069 31.7161541 0.0
19.6271744 24.0733299 0.0
26.716898 22.7577782 0.0
28.2675381 23.1663456 0.0
25.0660553 27.2221432 0.0
30.34062 30.2402573 0.0
24.6564751 23.3970299 0.0
17.9036274 21.5515976 0.0
32.5974541 31.0953732 0.0
26.322237 24.2851791 0.0
32.4065399 28.6725979 0.0
22.1882229 44.1187553 0.0
38.022316 93.5874405 0.0
95.961731 37.8805656 0.0
4.01090622 89.4287109 0.0
10.400115 4.11605787 0.0
92.4440689 28.495739 0.0
85.4926682 30.8106155 0.0
61.9478683 21.256834 0.0
25.9166393 51.1853142 0.0
49.3233986 24.5942707 0.0
86.589325 9.87646103 0.0
5.61785507 88.5858231 0.0
38.2317543 45.9125061 0.0
76.4218063 26.0328903 0.0
18.9590874 59.6739388 0.0
22.0439796 25.5310173 0.0
66.0582504 1.54250693 0.0
67.8679886 1.46733904 0.0
1.74700093 83.8604736 0.0
1.86434627 81.8729095 0.0
97.9983368 37.9585304 0.0
98.2423019 16.0250168 0.0
98.2452698 17.9244938 0.0
38.1023178 53.8367882 0.0
38.1790009 51.849144 0.0
38.2195854 49.8628693 0.0
38.2308769 47.8854713 0.0
57.8126945 37.9737701 0.0
38.3517303 3.96607089 0.0
37.8866615 36.4540062 0.0
36.1979103 53.6069908 0.0
36.1114311 38.4122429 0.0
4.09316587 79.87323 0.0
6.24399948 96.2369232 0.0
78.5081482 3.85631251 0.0
3.96822357 14.3473501 0.0
3.60570598 21.9151783 0.0
94.2048645 11.1898985 0.0
3.6756258 61.5907593 0.0
92.5791702 32.841156 0.0
96.768425 30.0785789 0.0
36.111515 64.3556519 0.0
36.275425 75.9896622 0.0
34.7734146 94.5800247 0.0
33.0776482 94.6076813 0.0
86.8986435 34.2419853 0.0
33.2160072 5.55080318 0.0
4.9916234 87.140625 0.0
53.7890701 5.6652379 0.0
63.0231705 5.58549404 0.0
33.7358704 34.9679642 0.0
67.2246857 32.1048775 0.0
78.6795654 32.8748245 0.0
93.268837 30.9748478 0.0
91.7660904 30.1466885 0.0
11.5157061 95.3468246 0.0
34.1886597 72.3789062 0.0
22.0526619 91.2967682 0.0
13.1982336 92.8233719 0.0
17.943716 94.9766846 0.0
92.936554 21.7899666 0.0
86.5213547 32.6490288 0.0
85.1453476 32.4661865 0.0
80.382225 31.5035915 0.0
13.0110359 7.63639545 0.0
27.4608288 9.20790291 0.0
34.9093513 6.81577682 0.0
36.2168922 7.17685747 0.0
5.49897814 66.6145554 0.0
70.3986206 32.322197 0.0
48.4069748 8.71272564 0.0
49.9016685 9.53029823 0.0
5.75238514 45.359272 0.0
31.9531784 36.9239655 0.0
45.0847549 32.6560364 0.0
65.5049973 32.0951271 0.0
93.2186584 17.4796848 0.0
65.0848923 7.20781898 0.0
9.1585722 89.1526337 0.0
32.4498062 53.0495834 0.0
66.002121 31.0850391 0.0
10.6646271 89.8344498 0.0
9.01861286 9.74965477 0.0
11.5663033 92.0821457 0.0
31.0357838 90.9155045 0.0
29.3447456 90.8097687 0.0
90.307663 14.0878477 0.0
56.0358734 8.1260128 0.0
91.4082565 11.3831768 0.0
70.1592331 30.213131 0.0
25.9505997 90.3789978 0.0
20.9785652 88.6444702 0.0
32.8079033 72.9449005 0.0
9.17786121 71.6052094 0.0
7.35266876 56.095417 0.0
7.51480436 54.4776459 0.0
8.49568462 51.5159912 0.0
9.59843445 50.3593483 0.0
7.45451307 43.6668777 0.0
7.9663887 42.1656113 0.0
35.7576027 8.01452923 0.0
36.1450272 8.95022583 0.0
35.6699944 30.3934898 0.0
32.0711327 32.1253777 0.0
8.2583971 84.7618866 0.0
86.4292679 31.4851379 0.0
80.3335648 29.6555061 0.0
78.7726364 29.5808392 0.0
91.4991074 16.725378 0.0
91.5533066 22.1628075 0.0
70.8418274 7.24942064 0.0
13.2081547 9.36561203 0.0
28.9003296 11.6151323 0.0
17.5950394 92.0601883 0.0
48.3607216 28.3399105 0.0
11.3706026 88.3039627 0.0
80.0289078 7.46835852 0.0
61.6875763 9.79203987 0.0
36.0696716 12.1335354 0.0
34.0971794 30.1318436 0.0
34.8836861 7.94273901 0.0
7.61503029 86.207962 0.0
12.8573246 88.802803 0.0
34.3701859 11.7866821 0.0
55.7565041 29.883564 0.0
51.79002 13.1327534 0.0
45.5857124 12.7051506 0.0
84.8412399 7.44623423 0.0
27.7494164 88.7866974 0.0
24.6395512 88.1565628 0.0
28.9321156 69.0536118 0.0
28.1123486 70.7552338 0.0
55.6209221 12.1594658 0.0
31.2784767 31.5093002 0.0
14.5366755 11.2169437 0.0
16.1578941 11.4405117 0.0
21.6283855 11.941349 0.0
89.7524109 27.2022972 0.0
10.9460917 71.364151 0.0
11.0323944 69.747757 0.0
9.31064034 61.3383255 0.0
9.28175259 54.7274132 0.0
9.70771599 52.1883316 0.0
8.77940083 43.7854919 0.0
10.6691437 41.4680557 0.0
11.730814 39.953949 0.0
33.8987656 28.5570297 0.0
34.2375641 13.0238075 0.0
13.4471741 80.2368469 0.0
69.1289825 12.2639685 0.0
28.3572502 39.0841103 0.0
12.0850039 86.8831406 0.0
70.9440384 28.7023029 0.0
25.7126808 60.6135139 0.0
90.4603653 16.1965103 0.0
89.2679291 15.4429827 0.0
88.8822937 13.3127947 0.0
30.7952595 11.9540281 0.0
67.1723709 28.288559 0.0
77.2842941 29.5047588 0.0
77.1352005 27.88521 0.0
70.5365524 13.2216988 0.0
10.8485069 20.0378399 0.0
9.61607265 68.8813629 0.0
32.7402878 29.9507027 0.0
42.9952965 13.644721 0.0
30.9347992 87.1706924 0.0
65.8652802 27.9244671 0.0
29.1491165 50.867733 0.0
10.2948256 47.1675072 0.0
32.9444771 13.5865173 0.0
89.3192978 8.63311672 0.0
11.1520052 53.3958549 0.0
10.8450041 45.8121376 0.0
84.498848 9.77279568 0.0
88.2192917 26.0085106 0.0
26.3902855 86.7343903 0.0
22.1006393 85.3456879 0.0
20.7497444 84.4083939 0.0
10.5187817 13.5547323 0.0
68.5819168 13.5233545 0.0
26.9687157 68.6448517 0.0
88.3936539 20.4761982 0.0
85.1780701 24.8286781 0.0
12.5715055 72.5644913 0.0
44.4208908 14.9188595 0.0
48.9672813 15.3965979 0.0
12.0377007 19.018713 0.0
12.8959827 12.0910501 0.0
26.1510639 14.8280802 0.0
75.1997757 27.2765961 0.0
12.4827518 20.8407631 0.0
73.127327 28.004427 0.0
70.2515411 26.1953526 0.0
75.8560715 29.3087845 0.0
61.1306801 17.4093685 0.0
53.8669243 14.7523146 0.0
53.7750664 15.8839045 0.0
26.0237637 36.3595352 0.0
88.4357986 10.9758482 0.0
86.6358185 13.8187695 0.0
12.4070005 38.3811913 0.0
31.8189812 27.1235332 0.0
31.5039444 30.7075195 0.0
10.7718153 68.2008514 0.0
87.0246964 15.9022827 0.0
62.9440117 15.5425997 0.0
42.9024391 15.0618992 0.0
10.0039415 39.2405853 0.0
81.0905533 26.5554008 0.0
14.9210958 84.7249069 0.0
11.9330654 13.5185242 0.0
27.6489983 52.0979042 0.0
57.3963509 28.2559338 0.0
27.9062786 85.1621094 0.0
22.2199993 63.0753784 0.0
53.6759567 17.3745441 0.0
45.9606209 16.0026512 0.0
48.5356865 17.0463505 0.0
11.8071804 30.5773163 0.0
10.8956242 37.9307899 0.0
11.3068495 36.4906387 0.0
24.5804768 37.9916229 0.0
24.8758297 40.9515228 0.0
24.7944489 42.5766335 0.0
13.6051321 17.6091404 0.0
67.4887772 15.0893583 0.0
25.1814423 84.8050003 0.0
22.7367821 84.1996307 0.0
85.2703934 16.2083168 0.0
24.3766441 69.6846848 0.0
14.1040173 43.5059471 0.0
34.235363 16.77738 0.0
38.1133423 19.5913239 0.0
39.7303352 21.0441132 0.0
26.2593708 73.281662 0.0
14.1957674 73.4865341 0.0
14.5632715 69.4720459 0.0
24.1821747 15.5262556 0.0
31.3523312 19.0993118 0.0
14.002861 15.1102629 0.0
87.124855 10.870944 0.0
86.9942322 24.5922489 0.0
72.4655151 25.6342793 0.0
78.2705383 24.4468307 0.0
52.9283333 24.1413536 0.0
31.0912151 29.0968018 0.0
14.7434149 25.131815 0.0
12.4361439 46.3700294 0.0
85.374649 10.8556871 0.0
84.1576462 12.037322 0.0
82.8901978 13.3262234 0.0
21.5314655 60.8595428 0.0
43.4457588 24.4782372 0.0
68.0434723 23.402422 0.0
20.4704628 32.0873222 0.0
28.0297832 24.9456673 0.0
54.2085037 23.7917938 0.0
31.7813892 29.9512806 0.0
15.4408197 24.105484 0.0
17.313364 78.5340652 0.0
16.1987209 22.3613186 0.0
42.0452614 22.6459713 0.0
12.3246479 54.9970398 0.0
15.5035362 75.752182 0.0
29.2308483 83.3976059 0.0
23.9366894 49.8683243 0.0
12.5250254 58.1256866 0.0
15.7072935 44.534317 0.0
16.76717 43.3919296 0.0
18.0246296 42.4527359 0.0
56.1550713 20.5609722 0.0
57.1514473 22.1559391 0.0
24.7881126 74.5115128 0.0
25.2899342 83.429512 0.0
25.0010071 77.1282806 0.0
23.4661579 41.0119247 0.0
71.1767273 22.7110863 0.0
77.8312225 22.6748562 0.0
82.8883743 15.2602539 0.0
82.8421097 16.5588474 0.0
17.9463406 17.9230976 0.0
17.6445923 38.2701912 0.0
18.2786961 40.6170425 0.0
48.6104164 20.7407227 0.0
15.5440273 71.2230148 0.0
16.9526329 68.2087021 0.0
17.6859417 77.1983643 0.0
32.8900414 23.6990795 0.0
29.8537617 23.4937515 0.0
17.7008743 26.5708904 0.0
19.0282516 31.5667934 0.0
24.1092434 24.8158722 0.0
29.9899139 20.0877666 0.0
53.4829826 22.255579 0.0
79.4363174 20.7650204 0.0
16.0126247 55.6583595 0.0
70.0406723 19.0860519 0.0
80.7090073 22.3621864 0.0
84.4821091 18.2026901 0.0
36.8820305 22.8272419 0.0
46.2197723 18.8265686 0.0
54.9541283 21.6437778 0.0
60.6909561 21.7917576 0.0
26.3831139 82.1388855 0.0
25.449482 82.407692 0.0
24.637125 81.6981506 0.0
34.942009 21.3814964 0.0
16.1116524 64.0935593 0.0
16.1024952 35.8973961 0.0
27.1965275 80.7971878 0.0
25.9055061 80.8882446 0.0
67.4769058 20.3959637 0.0
12.9259758 32.1612701 0.0
19.9486332 22.2285366 0.0
66.0811996 16.4779987 0.0
20.962923 53.5213814 0.0
16.5612621 32.5664749 0.0
18.0424099 44.3399315 0.0
18.6817856 46.0379372 0.0
31.4068375 21.911581 0.0
28.3531418 21.4330578 0.0
18.5514965 68.5420456 0.0
20.4373589 66.1302643 0.0
15.6235819 72.3416214 0.0
22.9280205 15.4290953 0.0
21.7669239 15.0270472 0.0
14.8915272 31.8466949 0.0
20.4856014 37.0795059 0.0
19.243 36.8275146 0.0
20.746994 39.3864021 0.0
58.1576385 23.8985023 0.0
18.0216141 28.4195652 0.0
19.9681568 26.1444798 0.0
21.1471024 19.4974117 0.0
17.4790421 75.2965698 0.0
19.3581257 52.9000549 0.0
24.9510021 21.1205997 0.0
20.7905254 68.4069214 0.0
18.1482811 74.1274643 0.0
19.2431889 40.1226044 0.0
18.9559097 45.0914764 0.0
20.2019958 44.7656975 0.0
22.3651237 48.8103752 0.0
13.9796782 59.063961 0.0
20.7827625 27.7317581 0.0
20.9110527 23.0330124 0.0
21.5352421 41.3868675 0.0
20.2187157 40.6374664 0.0
18.9797344 58.4209137 0.0
96.0 0.0 2.0
94.0 0.0 2.0
90.0 0.0 2.0
88.0 0.0 2.0
84.0 0.0 2.0
82.0 0.0 2.0
78.0 0.0 2.0
76.0 0.0 2.0
72.0 0.0 2.0
68.0 0.0 2.0
66.0 0.0 2.0
62.0 0.0 2.0
60.0 0.0 2.0
56.0 0.0 2.0
54.0 0.0 2.0
50.0 0.0 2.0
46.0 0.0 2.0
44.0 0.0 2.0
40.0 0.0 2.0
38.0 0.0 2.0
34.0 0.0 2.0
32.0 0.0 2.0
28.0 0.0 2.0
26.0 0.0 2.0
22.0 0.0 2.0
18.0 0.0 2.0
16.0 0.0 2.0
12.0 0.0 2.0
10.0 0.0 2.0
6.0 0.0 2.0
4.0 0.0 2.0
100.0 0.0 2.0
0.0 0.0 2.0
0.0 4.0 2.0
0.0 6.0 2.0
0.0 10.0 2.0
0.0 12.0 2.0
0.0 16.0 2.0
0.0 18.0 2.0
0.0 22.0 2.0
0.0 24.0 2.0
0.0 28.0 2.0
0.0 32.0 2.0
0.0 34.0 2.0
0.0 38.0 2.0
0.0 40.0 2.0
0.0 44.0 2.0
0.0 46.0 2.0
0.0 50.0 2.0
0.0 54.0 2.0
0.0 56.0 2.0
0.0 60.0 2.0
0.0 62.0 2.0
0.0 66.0 2.0
0.0 68.0 2.0
0.0 72.0 2.0
0.0 74.0 2.0
0.0 78.0 2.0
0.0 82.0 2.0
0.0 84.0 2.0
0.0 88.0 2.0
0.0 90.0 2.0
0.0 94.0 2.0
0.0 96.0 2.0
0.0 100.0 2.0
4.0 100.0 2.0
10.0 100.0 2.0
14.0 100.0 2.0
20.0 100.0 2.0
24.0 100.0 2.0
30.0 100.0 2.0
34.0 100.0 2.0
40.0 100.0 2.0
40.0 44.0 2.0
40.0 48.0 2.0
40.0 52.0 2.0
40.0 54.0 2.0
40.0 58.0 2.0
40.0 62.0 2.0
40.0 66.0 2.0
40.0 70.0 2.0
40.0 74.0 2.0
40.0 78.0 2.0
40.0 82.0 2.0
40.0 84.0 2.0
40.0 88.0 2.0
40.0 92.0 2.0
40.0 96.0 2.0
40.0 40.0 2.0
96.0 40.0 2.0
92.0 40.0 2.0
88.0 40.0 2.0
86.0 40.0 2.0
82.0 40.0 2.0
78.0 40.0 2.0
74.0 40.0 2.0
70.0 40.0 2.0
66.0 40.0 2.0
62.0 40.0 2.0
58.0 40.0 2.0
56.0 40.0 2.0
52.0 40.0 2.0
48.0 40.0 2.0
44.0 40.0 2.0
100.0 40.0 2.0
100.0 36.0 2.0
100.0 30.0 2.0
100.0 26.0 2.0
100.0 20.0 2.0
100.0 16.0 2.0
100.0 10.0 2.0
100.0 6.0 2.0
4.15280294 4.16630173 2.0
8.3700285 4.30302286 2.0
12.4098711 3.93831658 2.0
16.310051 3.87328553 2.0
20.2036705 4.03112984 2.0
24.2145939 4.33294678 2.0
28.7772808 5.03288651 2.0
32.7411346 3.85475469 2.0
36.517067 3.82171869 2.0
42.0387802 3.86816287 2.0
45.8033981 4.06726742 2.0
50.004097 4.71917295 2.0
54.0183372 3.93797636 2.0
58.2245674 4.87414598 2.0
62.5502052 3.77882957 2.0
67.2750473 5.15574551 2.0
70.7734833 4.46764183 2.0
74.7921066 5.12396193 2.0
80.1252975 4.43903923 2.0
83.8619385 3.90427375 2.0
87.7472153 4.74412346 2.0
92.0174789 4.19015932 2.0
95.9748688 4.06366396 2.0
4.08784819 8.21089458 2.0
7.70617294 8.7223568 2.0
11.8222694 9.45137215 2.0
16.4834976 7.67375088 2.0
20.1508293 7.92666197 2.0
23.9054718 8.3372345 2.0
29.6148911 8.15605259 2.0
33.5872803 8.65404892 2.0
37.3790131 8.18856907 2.0
42.0682831 7.67571259 2.0
45.2545395 8.13835526 2.0
50.6868439 7.89065599 2.0
54.7233505 7.91246462 2.0
58.1124916 8.30289459 2.0
63.5312309 8.90739441 2.0
66.4926224 9.36891937 2.0
70.266922 8.85576248 2.0
74.6072693 8.20598602 2.0
78.887291 8.99817848 2.0
83.5705185 8.6196804 2.0
87.1733932 7.74610376 2.0
92.4673004 8.02637672 2.0
96.0442657 8.00386238 2.0
4.15784597 12.3741951 2.0
8.13913441 11.2280455 2.0
11.6115608 12.2554827 2.0
15.783946 13.1541872 2.0
19.8237171 11.9135256 2.0
25.0906906 12.4315615 2.0
28.5411053 13.5338497 2.0
32.6507111 11.8082571 2.0
37.7847595 12.6582613 2.0
41.9324951 12.8231945 2.0
47.5365639 12.5772104 2.0
50.3485565 12.1578379 2.0
54.0582619 12.9793854 2.0
57.7840309 11.7029543 2.0
62.4014587 12.0840816 2.0
65.8407898 13.2368259 2.0
71.3058472 11.4527121 2.0
75.3729706 11.4559326 2.0
79.5208511 11.5715017 2.0
83.1968002 10.9537067 2.0
87.5776596 12.5248318 2.0
91.1291122 12.7805576 2.0
95.5030365 12.2973223 2.0
3.75831175 16.2575455 2.0
9.60991383 16.2472248 2.0
13.1020365 16.4232578 2.0
17.3644218 16.8548775 2.0
20.8361092 15.8680401 2.0
25.001646 16.9155521 2.0
28.8136501 17.9389706 2.0
33.232933 17.5455017 2.0
37.7154274 17.0351391 2.0
40.7648697 16.8495979 2.0
44.923996 16.8988628 2.0
50.5142288 16.2069778 2.0
55.0853996 15.8484974 2.0
57.1431847 16.1924152 2.0
63.0562515 17.4309196 2.0
67.3248749 16.8482723 2.0
71.1770325 15.9822502 2.0
75.4041061 16.2060356 2.0
79.7553177 16.2358646 2.0
84.1440659 16.3749447 2.0
88.1792679 16.8311749 2.0
91.4832687 17.8696423 2.0
94.9203644 16.9201164 2.0
4.38782263 20.2206345 2.0
7.79606009 20.2994232 2.0
11.5397215 21.9488888 2.0
17.0244904 20.0665302 2.0
20.1300163 20.8272228 2.0
25.407053 22.435154 2.0
29.8942776 21.7187576 2.0
33.1837387 20.1862869 2.0
37.0446243 20.7140427 2.0
41.8205032 20.9896145 2.0
45.8697014 21.1519108 2.0
49.4784393 19.4253025 2.0
53.0983963 20.6343117 2.0
58.5140724 20.891243 2.0
63.0299683 20.8879604 2.0
66.159317 20.0903378 2.0
71.1514816 20.261879 2.0
75.8672943 20.6813812 2.0
83.9359207 20.3757648 2.0
86.7332458 21.3724556 2.0
91.6577988 20.5914078 2.0
95.0615692 20.9848003 2.0
4.2758131 25.8185272 2.0
8.92153645 25.581068 2.0
12.2322044 25.350338 2.0
16.2193375 25.7707939 2.0
20.7412853 24.9444885 2.0
23.4843674 26.2534599 2.0
29.8271694 25.3878326 2.0
34.2556419 23.6067848 2.0
37.5835686 24.3730526 2.0
41.2360458 24.6371765 2.0
45.0844116 25.1228313 2.0
49.7854538 22.8705997 2.0
54.516613 25.640873 2.0
59.3007126 25.176712 2.0
62.9642868 24.860117 2.0
66.5198059 24.0174923 2.0
71.1389465 24.8826885 2.0
74.7060623 24.7096901 2.0
80.1701279 24.4889812 2.0
82.8194733 24.7170162 2.0
88.1828995 24.3349209 2.0
91.5007782 26.0758648 2.0
96.0914612 25.1077728 2.0
4.12153435 29.8405972 2.0
8.12670517 29.9287109 2.0
12.3276138 29.1126747 2.0
17.891346 29.6010857 2.0
19.9165077 29.7743073 2.0
24.1680698 28.5607719 2.0
28.7385654 29.4620323 2.0
33.5126534 26.9827881 2.0
37.2080498 28.4549294 2.0
41.3557091 30.2081146 2.0
45.8551865 29.3451328 2.0
50.2635193 28.9758949 2.0
53.9765129 29.7054253 2.0
59.2410965 29.725811 2.0
62.8574982 29.844656 2.0
66.6092834 29.8013401 2.0
72.457695 29.682724 2.0
75.5888138 30.7709637 2.0
80.0881348 27.9142723 2.0
83.9328842 29.5340824 2.0
90.2335663 29.1997643 2.0
96.8320312 28.3486118 2.0
4.05126572 33.8147278 2.0
7.86805677 33.5986137 2.0
11.5691948 33.5320549 2.0
15.6512451 34.0631256 2.0
20.7817345 33.6513672 2.0
24.1799011 33.6730843 2.0
28.9775124 33.6707878 2.0
33.2053719 32.4453812 2.0
37.5459251 32.510643 2.0
41.5680809 34.3973045 2.0
46.5124626 32.8294144 2.0
51.5057793 33.5717773 2.0
55.6175842 33.8958321 2.0
59.4664459 33.9691467 2.0
63.0839119 33.9117432 2.0
66.2320786 33.289196 2.0
71.8458176 33.9285126 2.0
75.3805618 34.1727104 2.0
78.3972626 34.1357231 2.0
83.5370407 34.0955658 2.0
87.8008957 32.3388023 2.0
89.9807205 33.0815544 2.0
96.5144882 31.9332428 2.0
4.19800043 37.7831001 2.0
8.14406967 36.9041748 2.0
12.8731489 36.7465286 2.0
16.0549393 37.1026001 2.0
20.757597 38.1237068 2.0
24.7427673 36.8159218 2.0
28.1208649 37.4598198 2.0
32.189827 38.6742935 2.0
35.9814529 36.5879669 2.0
41.8842735 38.205143 2.0
45.5332794 36.2086601 2.0
49.7692986 37.9204025 2.0
53.7858467 37.9133072 2.0
59.7922363 37.9785843 2.0
63.7529221 37.907032 2.0
67.7615738 37.7140503 2.0
71.8479996 37.9386864 2.0
75.7865372 37.9757805 2.0
79.7641525 37.8336411 2.0
83.7548828 38.025013 2.0
87.7194824 37.9912453 2.0
91.7854843 37.6752167 2.0
96.0350113 35.8526955 2.0
4.09324217 41.738945 2.0
8.81849289 40.6585922 2.0
12.431735 42.4387627 2.0
16.890871 41.2837067 2.0
20.5276642 42.6177711 2.0
26.7052555 42.5306129 2.0
30.529047 42.270092 2.0
34.3961258 42.0997276 2.0
38.1927643 42.0220337 2.0
3.91039777 45.6618385 2.0
9.25484943 45.8131638 2.0
11.662838 47.7963028 2.0
16.5130119 46.5954971 2.0
20.3243256 46.237606 2.0
24.8194466 46.0546417 2.0
28.8794708 45.8209877 2.0
32.6718979 45.7659073 2.0
36.4192772 45.8305321 2.0
4.77405548 49.7210579 2.0
8.03316021 49.4093513 2.0
12.3197289 50.0527802 2.0
16.7371044 50.1016312 2.0
20.6857967 49.7393761 2.0
24.1830845 51.4275017 2.0
29.1357117 49.2390862 2.0
32.7705078 49.4234047 2.0
36.4353943 49.7092934 2.0
3.87597275 53.9978447 2.0
9.15812302 56.199646 2.0
12.8755178 53.8488464 2.0
16.8944473 53.9203987 2.0
20.149786 55.1324615 2.0
24.1427498 54.5679817 2.0
28.4243031 53.9264069 2.0
32.1190109 54.8081055 2.0
35.9799156 55.5280266 2.0
3.68565226 57.8081169 2.0
9.16372395 59.4611397 2.0
12.011548 59.2983932 2.0
16.8973866 58.5782089 2.0
20.6859741 58.7508354 2.0
24.7122173 58.3076591 2.0
29.1280937 57.841877 2.0
33.0435638 58.7932549 2.0
37.3656464 60.0388031 2.0
3.69408369 63.4390411 2.0
7.41960859 63.110508 2.0
11.7919788 63.3858795 2.0
16.4330254 61.7685623 2.0
20.6056347 62.3886909 2.0
24.7643566 62.2271843 2.0
29.6562099 62.5214233 2.0
34.2026138 62.6263733 2.0
38.0386848 64.1818771 2.0
3.82566929 67.1241684 2.0
8.50469875 66.5183182 2.0
12.6346502 67.078331 2.0
17.7474327 66.0749207 2.0
21.7947865 66.9165268 2.0
24.2558117 66.0605087 2.0
28.8530903 65.3733521 2.0
32.1786537 66.1324539 2.0
38.0261154 68.1219101 2.0
4.9681201 71.0353317 2.0
7.90629196 69.8165207 2.0
12.601656 71.0750198 2.0
17.3022614 72.5831985 2.0
21.7184258 70.7945633 2.0
25.4765396 71.6427689 2.0
29.9428158 71.4903107 2.0
33.3351173 70.4414902 2.0
38.0843239 72.0172119 2.0
4.52242661 75.7000198 2.0
9.07929611 75.0182953 2.0
13.0730591 74.9469681 2.0
14.5960293 75.3255463 2.0
21.2461987 74.5138168 2.0
24.8379269 75.9376144 2.0
28.5806446 75.7642593 2.0
32.496994 75.9791718 2.0
38.1397781 75.9810028 2.0
6.12833405 80.1760635 2.0
9.02919769 79.3044205 2.0
11.9899549 79.1563187 2.0
16.4112377 80.1904221 2.0
21.6344643 79.1844177 2.0
25.4465008 79.2600174 2.0
30.3586178 79.5625687 2.0
34.2984428 79.7133408 2.0
38.1055908 79.9152603 2.0
5.11151981 83.8960571 2.0
8.8939352 83.2650223 2.0
12.5922203 83.614151 2.0
15.5188236 82.4895325 2.0
19.2533894 83.4165497 2.0
26.5462074 83.4956131 2.0
30.7468262 83.3473053 2.0
34.2793007 83.5418472 2.0
38.0822792 83.8526993 2.0
3.52774525 87.5252457 2.0
8.81181717 86.9140854 2.0
13.0578899 87.5302963 2.0
16.6326694 88.444046 2.0
19.3906593 87.8338776 2.0
24.9696445 86.4078064 2.0
29.3275433 87.070549 2.0
34.3470154 87.4021301 2.0
38.1072197 87.7816772 2.0
4.90272856 91.5592346 2.0
8.14474487 90.7507935 2.0
16.4196415 92.1858826 2.0
19.5498638 91.8949509 2.0
25.7391472 92.2520828 2.0
29.3708534 92.6440811 2.0
34.4703255 91.1095123 2.0
38.1193008 91.6591644 2.0
4.22867298 96.0440826 2.0
10.0475225 96.6350555 2.0
13.8715944 95.7668915 2.0
17.8814087 96.3623047 2.0
21.6345825 95.9033051 2.0
25.6584339 96.0445862 2.0
29.5857906 96.2755585 2.0
33.3732033 96.3582687 2.0
37.4657669 95.6894913 2.0
98.0 0.0 2.0
92.0 0.0 2.0
86.0 0.0 2.0
80.0 0.0 2.0
74.0 0.0 2.0
70.0 0.0 2.0
64.0 0.0 2.0
58.0 0.0 2.0
52.0 0.0 2.0
48.0 0.0 2.0
42.0 0.0 2.0
36.0 0.0 2.0
30.0 0.0 2.0
24.0 0.0 2.0
20.0 0.0 2.0
14.0 0.0 2.0
8.0 0.0 2.0
2.0 0.0 2.0
0.0 2.0 2.0
0.0 8.0 2.0
0.0 14.0 2.0
0.0 20.0 2.0
0.0 26.0 2.0
0.0 30.0 2.0
0.0 36.0 2.0
0.0 42.0 2.0
0.0 48.0 2.0
0.0 52.0 2.0
0.0 58.0 2.0
0.0 64.0 2.0
0.0 70.0 2.0
0.0 76.0 2.0
0.0 80.0 2.0
0.0 86.0 2.0
0.0 92.0 2.0
0.0 98.0 2.0
2.0 100.0 2.0
6.0 100.0 2.0
8.0 100.0 2.0
12.0 100.0 2.0
16.0 100.0 2.0
18.0 100.0 2.0
22.0 100.0 2.0
26.0 100.0 2.0
28.0 100.0 2.0
32.0 100.0 2.0
36.0 100.0 2.0
38.0 100.0 2.0
40.0 42.0 2.0
40.0 46.0 2.0
40.0 50.0 2.0
40.0 56.0 2.0
40.0 60.0 2.0
40.0 64.0 2.0
40.0 68.0 2.0
40.0 72.0 2.0
40.0 76.0 2.0
40.0 80.0 2.0
40.0 86.0 2.0
40.0 90.0 2.0
40.0 94.0 2.0
40.0 98.0 2.0
98.0 40.0 2.0
94.0 40.0 2.0
90.0 40.0 2.0
84.0 40.0 2.0
80.0 40.0 2.0
76.0 40.0 2.0
72.0 40.0 2.0
68.0 40.0 2.0
64.0 40.0 2.0
60.0 40.0 2.0
54.0 40.0 2.0
50.0 40.0 2.0
46.0 40.0 2.0
42.0 40.0 2.0
100.0 38.0 2.0
100.0 34.0 2.0
100.0 32.0 2.0
100.0 28.0 2.0
100.0 24.0 2.0
100.0 22.0 2.0
100.0 18.0 2.0
100.0 14.0 2.0
100.0 12.0 2.0
100.0 8.0 2.0
100.0 4.0 2.0
100.0 2.0 2.0
97.9777451 2.02768016 2.0
97.9789886 4.03089714 2.0
2.07358479 8.10907173 2.0
2.05820894 12.1656446 2.0
1.98620641 14.1394176 2.0
1.93720841 18.1335659 2.0
2.00782228 20.0684948 2.0
2.10687375 23.8918495 2.0
2.13435316 25.8832397 2.0
2.0704968 29.9053726 2.0
37.7429237 57.8514519 2.0
38.2184906 43.9540253 2.0
93.9694748 2.0776248 2.0
91.9652557 2.12642908 2.0
87.9117432 2.24420738 2.0
85.9171677 2.07500529 2.0
81.9917374 2.00087476 2.0
80.0748444 2.11084795 2.0
75.9322968 2.9164319 2.0
73.6263351 2.43498516 2.0
69.6520309 1.77531433 2.0
66.3573608 3.21641779 2.0
60.154068 2.11116982 2.0
58.1199417 2.27115297 2.0
54.0369682 2.05160117 2.0
47.9454994 2.15375113 2.0
43.9783974 1.96019375 2.0
42.0242004 1.92016995 2.0
38.1807404 1.90586281 2.0
36.2688789 1.88322866 2.0
32.3249359 1.98014402 2.0
30.3312702 2.17806387 2.0
26.2567406 2.32453847 2.0
24.1695843 2.20366979 2.0
20.1300068 2.02931666 2.0
16.1644192 1.94480932 2.0
10.168519 2.053334 2.0
8.1655674 2.12163949 2.0
4.09534264 2.09816384 2.0
2.05239534 2.05588078 2.0
2.07770967 6.09192133 2.0
2.04366374 33.9119415 2.0
2.05847144 35.9143753 2.0
2.08272195 39.8729935 2.0
2.03317189 41.843544 2.0
1.99054623 45.8621902 2.0
2.10603094 51.906559 2.0
1.88036633 55.9323463 2.0
1.8405571 57.8952293 2.0
1.8424269 61.7781639 2.0
1.83979464 63.7194901 2.0
1.96613252 67.610199 2.0
2.15273523 69.6026917 2.0
2.33596849 73.6940613 2.0
2.24934721 75.7982941 2.0
1.99771571 79.8592148 2.0
21.8477383 98.0061569 2.0
25.8021641 98.0215759 2.0
29.7701359 98.1323318 2.0
3.44931078 83.8054047 2.0
1.72573626 85.8332291 2.0
15.9558249 98.0690842 2.0
2.06564093 89.8370972 2.0
2.29641581 91.8454437 2.0
2.14185452 95.9696274 2.0
2.05594397 97.9916992 2.0
6.07426167 98.1258545 2.0
12.0252962 98.2028503 2.0
33.6980057 98.1494827 2.0
2.1010766 47.8797226 2.0
38.0941925 81.8831406 2.0
38.1295471 77.9486542 2.0
55.8043098 37.9459114 2.0
98.1324539 34.0024071 2.0
98.3670959 28.1663036 2.0
97.8758774 24.3266296 2.0
97.9791641 8.02656937 2.0
98.0632782 14.0960903 2.0
14.1779165 1.94329894 2.0
51.9807281 2.08443713 2.0
64.1679611 1.71061313 2.0
93.8782043 37.7623711 2.0
96.8681488 17.6859417 2.0
97.1909485 22.1171436 2.0
95.9772873 2.04454851 2.0
89.9288101 2.20461535 2.0
83.9469452 1.98032379 2.0
78.1273041 2.21196461 2.0
71.5358353 2.17836094 2.0
67.7020187 2.73225737 2.0
62.1924095 1.90735137 2.0
56.0751915 2.159657 2.0
49.9569817 2.22546172 2.0
45.9489975 2.04053044 2.0
40.0799408 1.90784788 2.0
34.3142853 1.89226198 2.0
28.3404236 2.37836218 2.0
22.1344433 2.10110784 2.0
18.1458569 1.97453344 2.0
12.1792488 1.98596025 2.0
6.14116096 2.13063502 2.0
2.07542968 4.08336639 2.0
2.07084703 10.1528549 2.0
1.91876531 16.1210232 2.0
1.92626727 21.9725304 2.0
2.1016624 27.8995266 2.0
2.04677033 31.9101028 2.0
2.07850504 37.9033966 2.0
1.98421705 43.8463707 2.0
2.22611141 49.8698463 2.0
1.97091675 53.9394035 2.0
1.83134592 59.8379593 2.0
1.86784685 65.6580048 2.0
2.36619353 71.5862656 2.0
2.15305543 77.8379745 2.0
3.70381045 81.88311 2.0
1.83162522 87.8231812 2.0
2.2565167 93.9081497 2.0
4.07907486 98.0377655 2.0
8.05652237 98.2251129 2.0
10.0260944 98.2752533 2.0
13.991684 98.0322876 2.0
17.9280396 98.132637 2.0
19.9090309 98.0882797 2.0
23.8090248 97.9918976 2.0
27.7935486 98.0832901 2.0
31.73382 98.1656189 2.0
35.7065697 98.0623779 2.0
38.0953598 85.8216476 2.0
38.1307983 89.7312241 2.0
85.7261047 38.0521507 2.0
81.7696152 37.9294739 2.0
77.7732925 37.9191704 2.0
73.8214417 37.9884644 2.0
69.8189316 37.8253517 2.0
65.7592087 37.8058624 2.0
61.7722359 37.9624405 2.0
43.8345337 38.1668205 2.0
98.0470047 35.9661636 2.0
98.2543182 32.0281067 2.0
98.3599854 30.0868149 2.0
98.2198792 26.2712421 2.0
97.8059692 19.8143234 2.0
96.5135269 16.2565136 2.0
97.8826218 12.124095 2.0
97.9330597 10.0703964 2.0
97.9884186 6.02511358 2.0
37.9249458 62.2250137 2.0
89.7504959 37.8245468 2.0
35.6035461 57.4218521 2.0
36.3731308 43.9288216 2.0
57.6552353 35.9556427 2.0
43.6296196 36.2889366 2.0
93.9382629 35.5533791 2.0
36.2864532 93.0469894 2.0
89.3270416 35.7279129 2.0
36.2638283 89.4834518 2.0
61.5328407 35.9546623 2.0
35.9574203 61.2229691 2.0
85.4604645 36.1445885 2.0
36.1844521 85.644577 2.0
65.3939667 35.6786079 2.0
37.7876244 97.911293 2.0
4.14432192 6.19512081 2.0
39.9355545 38.2384644 2.0
96.2570496 33.8576469 2.0
89.9982376 4.37202454 2.0
68.8860931 3.56154728 2.0
55.9487572 4.24579859 2.0
40.1569595 3.90319729 2.0
18.2523308 3.92974091 2.0
6.25933504 4.26504946 2.0
4.08556271 10.3053751 2.0
4.06172323 31.8344917 2.0
3.9276576 43.7068367 2.0
3.68401504 59.6896935 2.0
5.52547646 82.121933 2.0
4.48927546 93.9479904 2.0
38.1275787 40.1264877 2.0
11.8836975 96.5359802 2.0
16.0339603 96.1076584 2.0
35.2953873 96.249588 2.0
95.9947739 9.99723244 2.0
96.0222778 6.03299141 2.0
81.6809692 35.8492622 2.0
36.181736 81.7511673 2.0
69.8243256 35.7035904 2.0
77.4595871 35.9581985 2.0
36.2457428 77.8971252 2.0
73.6734238 36.0120125 2.0
38.023632 38.3132057 2.0
39.8192711 36.3826485 2.0
36.2334938 40.2220802 2.0
36.1200867 94.3822403 2.0
6.02964687 31.789854 2.0
18.3066254 5.85710955 2.0
69.306221 6.25305557 2.0
7.25273037 82.6102219 2.0
14.6962414 93.7181549 2.0
36.3133774 42.0612526 2.0
35.0757561 59.2145996 2.0
59.6187134 35.9788666 2.0
41.7272453 36.333271 2.0
36.3139458 91.3290939 2.0
91.5466919 35.0149345 2.0
90.3926239 6.38720465 2.0
10.1993361 95.0842896 2.0
94.307663 9.74599075 2.0
5.90491438 10.3377228 2.0
40.3272133 5.89250517 2.0
5.53581095 59.5755272 2.0
36.1063004 62.6111641 2.0
63.4445877 35.8800812 2.0
36.2318611 87.5775833 2.0
87.3506927 36.051403 2.0
36.1866913 83.6968689 2.0
67.5532684 35.1669807 2.0
83.5963593 36.0599403 2.0
37.9621353 55.8330612 2.0
45.7985573 38.1042557 2.0
36.2194595 79.8221283 2.0
71.8074951 35.9283371 2.0
79.5484238 35.4858513 2.0
34.4067307 76.0012207 2.0
75.561615 36.04702 2.0
94.1031647 6.05548716 2.0
55.3778687 6.11710548 2.0
5.78165865 43.635273 2.0
6.25397968 6.36241102 2.0
6.57090378 94.320755 2.0
77.0831223 34.2555962 2.0
73.5920639 34.0529518 2.0
34.5556335 92.8519516 2.0
5.98948288 33.7020111 2.0
16.4175491 5.76816511 2.0
6.74583149 84.2154846 2.0
66.8594513 7.3932209 2.0
12.3615532 94.3610458 2.0
33.5806465 56.9922676 2.0
34.4815559 43.9280319 2.0
57.5798912 33.9605675 2.0
43.4221611 34.3951073 2.0
92.2383728 6.14427376 2.0
94.2443695 7.94405508 2.0
8.49669552 94.734024 2.0
5.97816658 8.33428288 2.0
42.0791283 5.78274012 2.0
5.49794102 57.7658958 2.0
34.4428749 60.8862953 2.0
61.3039818 33.958374 2.0
36.0541611 66.2593079 2.0
88.5539627 33.8702774 2.0
34.4192276 89.2880554 2.0
85.2299728 34.2759209 2.0
34.320446 85.4809113 2.0
64.7842484 33.7781105 2.0
47.7900696 38.0094528 2.0
80.2031174 33.4021797 2.0
70.1646729 33.822216 2.0
36.2492714 74.0543823 2.0
39.6685333 34.4439621 2.0
34.3029747 40.3091507 2.0
94.0188599 4.08966827 2.0
53.1475677 7.30262041 2.0
7.70427513 46.2918358 2.0
8.18962955 96.4694901 2.0
31.4878559 96.3507767 2.0
19.7606239 96.1866226 2.0
95.6472855 18.9531288 2.0
30.8592548 4.25792503 2.0
3.77288318 18.1553211 2.0
82.0824966 3.91230774 2.0
4.16989946 69.0088272 2.0
34.1759109 38.5383911 2.0
37.7242203 34.525631 2.0
32.4017105 77.7972946 2.0
81.9899521 31.7416096 2.0
32.3972893 81.4833984 2.0
69.2749329 31.5835838 2.0
8.61241627 6.74568701 2.0
32.5240479 85.3469467 2.0
64.3781738 32.044075 2.0
94.8291473 31.5913105 2.0
31.6294212 56.5676079 2.0
32.5696487 43.959343 2.0
57.546093 31.9541569 2.0
43.3093224 32.4640274 2.0
73.642952 32.0904808 2.0
47.515625 36.0174522 2.0
61.1233025 31.886158 2.0
32.6377411 89.1522827 2.0
31.2874298 94.5537109 2.0
95.2369537 29.8497715 2.0
19.3374424 94.3917236 2.0
93.4413681 19.0064392 2.0
31.7593384 6.06173229 2.0
5.11504412 17.9046974 2.0
82.3341446 5.37863398 2.0
5.83372259 68.0953903 2.0
6.05369997 35.5903168 2.0
7.92939377 31.8086033 2.0
14.5621204 5.74809504 2.0
18.2942066 7.78457499 2.0
68.5991287 8.0523653 2.0
9.57456207 81.7744446 2.0
4.91865635 85.5627823 2.0
64.9718628 5.33798122 2.0
15.1994896 92.2675934 2.0
45.2452316 34.3835144 2.0
34.0119286 55.1805573 2.0
34.5613213 45.7894592 2.0
55.6761703 35.9073906 2.0
94.3689346 33.5008926 2.0
9.05845547 93.0684509 2.0
7.2027092 10.1222811 2.0
43.8023987 5.8695755 2.0
5.53366232 55.9812889 2.0
40.7539062 7.42299318 2.0
7.37802172 59.5184288 2.0
34.1478081 64.3795547 2.0
38.039299 66.1477585 2.0
38.123806 74.0076523 2.0
34.4167786 74.203064 2.0
52.4615021 5.32656193 2.0
6.04620075 46.953495 2.0
7.44277954 45.0739441 2.0
35.7643127 34.6678047 2.0
34.2943611 81.6137619 2.0
68.5629959 33.1988258 2.0
34.3559113 77.8577423 2.0
92.7060776 9.76448536 2.0
56.5921288 9.56820107 2.0
9.11793804 44.7364388 2.0
93.8693771 29.2071877 2.0
7.42889929 61.3462029 2.0
39.8341713 8.54022026 2.0
9.84423161 91.4402161 2.0
14.3264112 90.9262619 2.0
92.8897858 11.4940968 2.0
88.6891556 6.85798502 2.0
68.0718155 9.88250923 2.0
10.8187323 82.5135574 2.0
18.2014103 9.75073814 2.0
9.77937222 31.9110203 2.0
91.2113724 9.87779236 2.0
90.8464203 8.22504234 2.0
30.5520916 75.8813095 2.0
78.8150024 31.257452 2.0
32.3802452 79.6249008 2.0
71.7498322 31.6467724 2.0
10.7765284 6.09899187 2.0
90.9995575 31.7336235 2.0
32.4638405 42.1768951 2.0
31.0448647 58.3756523 2.0
59.3680534 31.9085045 2.0
41.4287567 32.3794365 2.0
32.8579826 92.7994308 2.0
16.6251278 94.0654144 2.0
92.6959457 16.021841 2.0
32.6612129 7.55005932 2.0
5.50120068 16.5528507 2.0
83.7581558 5.95435429 2.0
6.97029305 67.4064789 2.0
6.14774656 29.8327007 2.0
4.08969641 35.7866058 2.0
7.91221762 35.2933311 2.0
14.7192383 7.60975218 2.0
14.3662395 3.86516857 2.0
20.2051067 5.98114491 2.0
71.4734879 6.01963186 2.0
7.97956371 80.9208984 2.0
6.35085201 85.680809 2.0
64.9641495 9.09896564 2.0
3.37699103 85.6676788 2.0
64.5309677 3.52651405 2.0
43.6317902 7.77972031 2.0
7.31865215 57.7609978 2.0
38.480751 6.48477602 2.0
5.54501152 61.4317894 2.0
52.101593 3.97511482 2.0
43.915287 3.92055345 2.0
4.17737341 47.5874939 2.0
3.72936201 55.9321823 2.0
36.1056633 72.0994568 2.0
56.9400787 6.85077333 2.0
6.15457487 41.7650299 2.0
8.24638748 47.380127 2.0
34.609623 47.6692963 2.0
53.6505432 35.8318329 2.0
32.4820595 83.4148636 2.0
67.9699554 30.6670723 2.0
32.595005 87.2698441 2.0
62.8244286 31.9490814 2.0
7.14917421 92.4568024 2.0
75.4056931 32.3968735 2.0
33.9925423 36.7496834 2.0
89.8071747 10.1793556 2.0
31.1354961 92.7442245 2.0
35.3817406 32.5326843 2.0
31.6496811 35.1446419 2.0
32.4858932 60.6436386 2.0
88.8566437 31.6752129 2.0
35.8973312 70.1905441 2.0
9.30237103 46.7216492 2.0
54.4442062 10.0827837 2.0
95.6291504 28.5106392 2.0
10.7649708 59.4166985 2.0
41.753231 9.83702374 2.0
7.89036894 88.3745956 2.0
9.97811985 8.47827339 2.0
59.5313072 6.95588541 2.0
6.81328201 39.6105118 2.0
12.3832235 90.4114456 2.0
66.1113663 11.3252296 2.0
10.7162447 83.9863281 2.0
16.4165554 9.59224796 2.0
9.71781349 33.5302238 2.0
30.4032803 77.770546 2.0
32.6427994 74.3134613 2.0
6.49776077 12.5716705 2.0
5.51482391 63.2341232 2.0
36.5761337 5.74044085 2.0
81.9966431 29.6709061 2.0
30.5751781 81.4242249 2.0
68.6844864 29.1481228 2.0
11.3887501 7.86378717 2.0
39.518795 32.4168129 2.0
32.3409538 40.4164505 2.0
57.5211334 29.9647636 2.0
29.734663 56.0939674 2.0
30.6640453 44.0235748 2.0
43.4111443 30.4943848 2.0
18.3522205 93.0774155 2.0
91.6073303 19.1941147 2.0
94.2269363 15.1406736 2.0
34.8526115 5.43650627 2.0
31.7053528 8.31233501 2.0
5.93113756 14.7512789 2.0
7.20288086 17.3513908 2.0
82.4662094 7.40990305 2.0
7.77359104 67.8736801 2.0
85.260994 5.46994972 2.0
5.47102547 64.9689713 2.0
6.27090979 37.4958992 2.0
12.6996107 5.83394623 2.0
6.07062292 86.8097382 2.0
63.4071846 7.2595005 2.0
6.7650795 48.3393898 2.0
51.5494919 6.34012318 2.0
6.64682198 89.835144 2.0
30.8643188 85.2609253 2.0
64.5399933 30.3879776 2.0
30.9543743 89.0542603 2.0
61.0392303 29.6539574 2.0
74.0015259 30.3298988 2.0
77.0812454 32.6124916 2.0
86.2501831 6.38288546 2.0
93.1297607 13.3915157 2.0
22.1437759 6.13853264 2.0
6.31864643 27.8395309 2.0
72.7722015 6.23265314 2.0
7.13650942 77.8801804 2.0
89.6039581 30.5793037 2.0
94.7402802 27.3964443 2.0
6.81716681 50.7673187 2.0
49.0468521 6.90915203 2.0
6.83938122 87.53125 2.0
81.2753754 8.64245701 2.0
8.75843811 68.3900528 2.0
89.8804779 19.5528088 2.0
9.33096218 18.3794117 2.0
30.7796516 8.87436771 2.0
87.9135513 9.24955463 2.0
10.7746687 93.6212387 2.0
29.9902592 37.1623497 2.0
37.45895 30.4364662 2.0
33.4642944 33.4126587 2.0
18.0469398 90.9128036 2.0
61.187748 6.0717845 2.0
87.9979324 30.7910023 2.0
32.1590614 62.52248 2.0
38.02425 70.0759277 2.0
9.28309155 48.2880821 2.0
52.4044113 8.96146584 2.0
11.1088095 44.1086845 2.0
9.10940552 57.7874489 2.0
43.3900681 9.35994148 2.0
11.1261683 61.1599731 2.0
40.4106827 11.6187305 2.0
10.0355015 87.6420441 2.0
10.7350769 9.5398531 2.0
14.534914 88.8217621 2.0
67.6143723 11.6816082 2.0
12.2378502 81.7526169 2.0
64.6077347 11.0343742 2.0
9.62982178 85.4684982 2.0
17.9778633 11.698595 2.0
14.748024 9.44557095 2.0
11.5163832 32.0783997 2.0
9.73065853 35.0460052 2.0
8.46030712 13.8307695 2.0
7.24060965 64.8072891 2.0
34.0795593 7.87258768 2.0
83.5857773 32.017231 2.0
39.375721 30.296423 2.0
30.2546234 54.4168205 2.0
45.3716774 30.9874668 2.0
93.2713013 20.5320435 2.0
96.0555038 14.4131861 2.0
30.4886951 6.85977411 2.0
33.6854057 6.94184732 2.0
7.78882265 15.5409756 2.0
6.15779352 18.9707508 2.0
81.2439957 6.19931269 2.0
6.64368629 69.2039566 2.0
7.05225563 66.3039017 2.0
32.7355537 90.9963226 2.0
85.7976379 8.69785309 2.0
91.6885757 14.9030066 2.0
88.1558762 29.7498894 2.0
28.3267612 77.7407913 2.0
77.2044907 31.0544052 2.0
81.5581741 27.8574982 2.0
28.9040489 81.5792007 2.0
69.3790512 27.5789585 2.0
74.4990616 28.7373753 2.0
30.4050655 40.5570564 2.0
30.8456879 74.0415344 2.0
60.5631828 8.5818758 2.0
8.69553089 38.292675 2.0
29.3303947 85.2118301 2.0
65.0905838 28.9173775 2.0
29.3324928 88.9489288 2.0
61.0284691 27.2590122 2.0
32.7481041 47.5976334 2.0
53.6288109 33.7731018 2.0
72.5524292 7.91524124 2.0
9.58581066 76.590126 2.0
22.0144444 8.0966711 2.0
8.44795418 27.9355221 2.0
28.744669 44.1131554 2.0
55.9870567 27.8136005 2.0
27.834362 55.5368576 2.0
43.7575531 28.5973206 2.0
51.7722511 37.8918495 2.0
36.4380112 47.7690048 2.0
73.0529785 4.49912214 2.0
4.43959475 77.7838364 2.0
22.1787624 4.1500535 2.0
4.1967802 27.8413677 2.0
32.2094383 64.3288116 2.0
5.70662594 54.2023506 2.0
45.5599899 6.07843971 2.0
34.3194008 53.3339424 2.0
87.1882553 31.0890751 2.0
81.8477783 33.811367 2.0
96.5336609 26.7375679 2.0
4.20304775 51.9865646 2.0
47.7757797 4.31141615 2.0
9.76941299 67.1368561 2.0
82.371048 9.75655174 2.0
89.4679184 17.9452209 2.0
11.5389643 16.3760777 2.0
32.681118 9.92818451 2.0
39.0874825 28.1763935 2.0
28.5065193 40.721096 2.0
30.6608601 52.7562752 2.0
47.2376709 31.76614 2.0
35.5026741 28.5549259 2.0
29.5778389 35.4410477 2.0
16.3477917 90.5549469 2.0
60.5005112 4.20933008 2.0
4.27072477 39.7337723 2.0
30.3895607 60.3044777 2.0
10.8351784 57.8486099 2.0
43.1535721 11.5542746 2.0
38.4575272 10.2745419 2.0
9.40707493 63.2020988 2.0
9.72167683 12.3173361 2.0
36.3831978 10.4490862 2.0
9.04342556 64.9884491 2.0
89.6658249 12.108758 2.0
90.9778061 27.7904835 2.0
79.8768082 26.2815514 2.0
59.2944221 9.93213463 2.0
27.8390312 86.9385986 2.0
10.2834044 10.6307297 2.0
30.8884869 47.5486755 2.0
53.7520866 31.7471313 2.0
31.6946964 72.1929626 2.0
72.0145874 9.67229462 2.0
10.6395521 77.9427338 2.0
74.0118866 6.4789176 2.0
6.85724163 75.5569687 2.0
21.8323135 10.0376368 2.0
24.093996 6.35712767 2.0
10.4553223 28.4544792 2.0
6.4142561 25.9090443 2.0
28.6304474 42.4141197 2.0
27.2181129 57.2439156 2.0
58.7791443 27.1650982 2.0
41.33078 27.7274475 2.0
51.5788422 35.7416115 2.0
34.5966415 49.5636559 2.0
28.7022972 73.6165771 2.0
13.1256857 44.9114571 2.0
56.0634155 14.0120983 2.0
93.8564301 22.6397476 2.0
12.732233 60.3977737 2.0
39.5164223 13.6093941 2.0
86.632019 29.8324089 2.0
11.4997692 34.9954453 2.0
13.173851 10.9463129 2.0
11.5061197 85.2062454 2.0
26.6345406 75.8457565 2.0
28.0435677 79.6737213 2.0
71.7061462 27.1648254 2.0
52.9174767 11.6554193 2.0
14.1969585 87.0268021 2.0
63.3574028 27.4632339 2.0
27.8396149 83.4738083 2.0
67.4889145 26.2818623 2.0
76.1086731 28.1434441 2.0
21.2725677 93.4625778 2.0
67.3543396 13.4140635 2.0
13.7382984 82.0883789 2.0
17.5802765 13.4916458 2.0
13.4651985 31.088438 2.0
32.6786232 51.2457695 2.0
35.9363327 68.2372131 2.0
30.7274876 65.9235687 2.0
25.9611263 54.9541702 2.0
26.9118729 45.8997993 2.0
54.274929 27.6336308 2.0
44.423069 26.8846149 2.0
36.3585205 51.6610451 2.0
61.8790512 7.6518569 2.0
30.3365669 64.5260468 2.0
27.9417667 7.24154758 2.0
6.1941123 21.8103867 2.0
78.7315292 6.18712759 2.0
7.1824522 71.5569534 2.0
82.9117203 27.3218975 2.0
88.4187012 28.0058594 2.0
29.4539814 94.4589844 2.0
33.7578926 68.2313995 2.0
34.0326805 66.2620163 2.0
30.8741684 51.0397873 2.0
9.77210999 36.4436035 2.0
11.7156382 10.8532619 2.0
10.8256159 86.2742233 2.0
63.102623 10.533062 2.0
13.2685556 35.1119537 2.0
13.8433743 13.1085062 2.0
13.1027546 85.412056 2.0
64.0815201 13.1400843 2.0
81.315506 10.6326313 2.0
87.655571 19.1204472 2.0
11.6367998 17.8291264 2.0
30.8374386 10.1738615 2.0
49.1128159 33.2641029 2.0
31.2592239 33.318573 2.0
18.6179848 89.4161377 2.0
90.2782059 11.2546215 2.0
78.575676 27.8569317 2.0
81.7973404 25.7365837 2.0
9.62485123 42.8265266 2.0
26.1818161 88.5321808 2.0
30.7894211 45.7832832 2.0
55.6634712 31.8942242 2.0
69.6985474 10.5963249 2.0
10.6888285 80.4621811 2.0
19.9949341 9.90018749 2.0
10.0159101 30.1960716 2.0
25.3759689 56.665905 2.0
42.6121788 26.0054092 2.0
28.4153633 59.6580811 2.0
54.7844582 14.3607092 2.0
14.0908813 47.1325989 2.0
41.2492638 14.6197348 2.0
85.8984451 27.8968182 2.0
26.3465042 77.5398941 2.0
68.9268875 24.988575 2.0
27.6143436 81.9401398 2.0
27.5656433 94.3192139 2.0
13.102561 56.3647499 2.0
44.0766296 13.1639566 2.0
10.6854706 49.1437721 2.0
51.423069 10.5450306 2.0
60.8626556 24.6714573 2.0
65.3841705 26.5022392 2.0
26.5258732 85.0255051 2.0
73.8788452 26.3621788 2.0
65.9120178 15.0252504 2.0
14.17097 83.2512817 2.0
16.7535896 15.1093578 2.0
13.6869087 33.3766441 2.0
34.4965706 51.4576035 2.0
31.6699104 67.8712769 2.0
27.131752 47.6036301 2.0
52.4628296 27.4146709 2.0
26.4708462 53.0651169 2.0
46.3956375 27.637167 2.0
26.767704 44.2146111 2.0
56.6186714 25.49617 2.0
73.7299957 10.4466276 2.0
11.4896107 75.6701584 2.0
11.1393204 26.7794571 2.0
23.6496925 10.259594 2.0
52.9829445 14.0694513 2.0
13.2584267 48.5897903 2.0
51.7763824 31.4693699 2.0
30.9288387 49.3055954 2.0
30.9919872 69.6616974 2.0
89.8119736 25.810463 2.0
27.5709839 92.4928055 2.0
9.8249197 37.5076637 2.0
62.3889465 8.7942152 2.0
6.25832558 24.3071995 2.0
26.0606709 6.69505882 2.0
76.111084 6.47145271 2.0
6.88042164 73.4863129 2.0
10.0507174 14.6581564 2.0
34.7892456 9.05724716 2.0
47.3173485 6.37819338 2.0
6.10189629 52.4309692 2.0
27.8531952 64.0193634 2.0
30.2372894 38.8621101 2.0
94.833046 25.8278351 2.0
49.5112305 35.7448006 2.0
77.4914551 7.80463409 2.0
9.00250149 73.2924652 2.0
7.75721216 23.3596516 2.0
92.0750809 24.0215321 2.0
25.7197418 8.70298767 2.0
14.0379725 29.7710266 2.0
19.5938187 14.1006899 2.0
14.7430534 79.0160141 2.0
72.0457077 14.2019176 2.0
23.8811913 91.87677 2.0
33.870369 31.5556164 2.0
15.8552275 86.3702774 2.0
23.6346893 95.9302597 2.0
77.3430786 4.87072706 2.0
4.68489981 73.4876938 2.0
4.50647545 23.5429211 2.0
26.3353271 4.60131025 2.0
95.1813126 23.7194996 2.0
36.9794197 14.5088921 2.0
13.7054758 61.8334579 2.0
15.3546295 42.224041 2.0
57.6479187 14.1818895 2.0
26.5758953 74.369957 2.0
26.6493435 40.867012 2.0
39.9554596 25.5433464 2.0
29.5698395 67.1656342 2.0
10.8465223 65.6208191 2.0
11.8714962 14.9143724 2.0
34.5615196 10.3496523 2.0
7.83560133 52.9255676 2.0
46.859333 8.36736679 2.0
93.0804062 26.752985 2.0
93.760994 25.0959358 2.0
25.6243935 94.1205368 2.0
60.787117 11.159606 2.0
52.1243935 29.4013786 2.0
29.017498 47.5384674 2.0
49.7965393 30.989048 2.0
72.9010849 12.3756943 2.0
12.2415133 76.8666153 2.0
23.4064941 12.0935907 2.0
12.9918537 27.6882381 2.0
24.907011 73.0595551 2.0
24.6433773 39.4393883 2.0
39.024353 23.7078838 2.0
80.2105637 9.98878956 2.0
9.47502422 70.0415115 2.0
29.163826 9.79218769 2.0
47.111763 34.1695824 2.0
20.3364296 90.3599777 2.0
78.3252029 26.1424274 2.0
27.6389103 90.6482544 2.0
26.5197525 58.9567833 2.0
15.2546167 60.3066139 2.0
38.7206764 15.4973459 2.0
27.6409454 96.1833267 2.0
28.9753513 52.4516983 2.0
47.8575783 30.1581745 2.0
52.7298584 25.5798283 2.0
25.2520103 47.803978 2.0
76.334259 9.53163147 2.0
11.0586891 74.3803635 2.0
25.3981113 10.6165333 2.0
10.7317181 24.0219269 2.0
77.9221802 10.6537008 2.0
10.8988924 72.9327164 2.0
9.65271282 21.9346657 2.0
89.5176315 22.0479603 2.0
27.1220493 11.0890436 2.0
15.6423216 30.4359245 2.0
14.6605606 28.4337521 2.0
21.5746288 13.6815157 2.0
18.2810116 15.7363005 2.0
13.347537 77.9842529 2.0
14.7166729 81.2174759 2.0
69.3812408 15.0177679 2.0
22.6287193 89.3973236 2.0
23.5868454 93.8464966 2.0
13.7073765 64.8335724 2.0
59.915596 12.8007793 2.0
13.9110842 40.6859131 2.0
14.8554058 45.7902527 2.0
56.086834 15.4124842 2.0
84.1595383 26.2396984 2.0
27.1680355 72.2769623 2.0
26.5199738 39.2832527 2.0
38.3859596 26.1798592 2.0
9.50030613 53.3065491 2.0
47.9486542 10.1195164 2.0
87.980072 14.6180677 2.0
86.3650742 11.8246784 2.0
26.4040794 63.0273666 2.0
51.0825424 25.0976009 2.0
25.6147861 49.5258636 2.0
51.7217598 23.0176945 2.0
23.5401325 48.2198906 2.0
86.5605469 25.8570213 2.0
27.5621452 61.4215927 2.0
23.9671326 59.9220543 2.0
76.8355103 24.5272846 2.0
77.0502014 12.4872179 2.0
12.7319727 73.8430786 2.0
12.2982807 23.0371819 2.0
26.7361469 12.9422874 2.0
23.0304489 74.5455551 2.0
42.2207451 23.9257698 2.0
22.9488525 42.2823639 2.0
90.3494034 20.6814384 2.0
16.231184 29.0917015 2.0
15.7649841 77.7571106 2.0
24.2708321 89.9767914 2.0
59.4496803 14.8996696 2.0
16.1642151 39.9867973 2.0
85.3110428 13.0269604 2.0
26.6065845 65.2944031 2.0
89.8838348 24.0474815 2.0
74.5248566 13.3600569 2.0
13.6031876 76.0007095 2.0
23.1817322 13.7900772 2.0
13.8350258 26.3508244 2.0
26.2442474 70.167984 2.0
61.606308 13.5413713 2.0
14.1406975 38.6953011 2.0
26.3512592 37.797184 2.0
36.7357903 26.5858707 2.0
15.778327 47.9384499 2.0
52.4205055 15.4079103 2.0
16.5432472 83.7890854 2.0
36.1251984 16.0457325 2.0
14.9611464 63.1036034 2.0
46.9376106 25.8164654 2.0
24.4416809 52.9819565 2.0
27.4910393 67.1741333 2.0
27.5011139 50.8424721 2.0
48.8443832 26.4720898 2.0
27.6364822 65.9708405 2.0
86.8704071 17.9816265 2.0
73.0234985 23.9547863 2.0
27.3347034 49.2903366 2.0
17.2031555 45.404007 2.0
55.696682 17.6461372 2.0
15.0451918 57.4442024 2.0
42.9928055 16.9593582 2.0
16.5836964 81.7064896 2.0
68.9113617 17.2225933 2.0
19.4855099 16.9255676 2.0
17.3240585 31.0419178 2.0
23.5597382 85.9821701 2.0
64.8059082 24.4163818 2.0
64.4642944 15.2907505 2.0
15.5599089 14.4398804 2.0
14.8771639 35.4674683 2.0
24.6481705 44.2767792 2.0
55.7488289 23.2308178 2.0
34.1406212 15.2069521 2.0
15.6370287 65.6931915 2.0
17.8879204 85.3728867 2.0
13.4200068 24.1568279 2.0
76.227272 14.3706264 2.0
14.4798126 74.4703369 2.0
24.7073784 14.1553249 2.0
58.9766769 17.4769535 2.0
17.806776 39.4951668 2.0
35.3944626 17.5015087 2.0
17.8138676 63.4976883 2.0
72.8921356 16.9962578 2.0
16.6379471 76.4489136 2.0
22.469265 17.2693233 2.0
16.8428783 27.7854519 2.0
47.4304771 23.9435425 2.0
22.9639168 52.9987793 2.0
25.7826271 66.7100449 2.0
87.6565781 22.8079777 2.0
22.4660873 46.4833946 2.0
22.9681377 57.7373428 2.0
79.5199509 22.6104031 2.0
23.2387123 72.8112259 2.0
43.7484627 22.7991829 2.0
40.4423141 23.0047951 2.0
22.5928059 39.7469749 2.0
84.1802597 14.5409985 2.0
17.5314846 35.0015907 2.0
64.9468613 17.4677582 2.0
17.6873837 56.3637962 2.0
43.3568344 19.0616016 2.0
17.4723091 48.6447945 2.0
52.0559769 16.8948517 2.0
25.0834427 68.1758652 2.0
14.3796091 54.7611198 2.0
45.8195724 14.60466 2.0
14.983614 49.3884468 2.0
51.0220413 14.6279373 2.0
85.7697372 15.0926142 2.0
62.8669205 14.0510502 2.0
14.4397192 37.0214806 2.0
36.1482391 24.858057 2.0
25.272337 35.0189247 2.0
85.9376221 17.0753574 2.0
86.2040634 23.625124 2.0
53.3270073 18.9605408 2.0
18.1574078 47.2645035 2.0
18.4215488 33.2236595 2.0
17.7972202 82.4063339 2.0
66.7411041 18.4311485 2.0
27.8271198 15.453887 2.0
14.1126728 72.324791 2.0
78.7687531 13.3925962 2.0
13.7120256 21.9426765 2.0
20.4987297 18.242506 2.0
18.5751038 80.7218933 2.0
70.5156784 17.7365913 2.0
19.2464867 41.5977173 2.0
57.372654 19.1340637 2.0
23.8836021 84.4389572 2.0
66.0834579 21.9945965 2.0
62.679039 22.8694344 2.0
21.5428658 86.9220734 2.0
75.6287155 22.8457184 2.0
71.8041306 23.8411007 2.0
85.9655838 19.9593525 2.0
15.3843269 27.1026115 2.0
73.7083893 15.1950483 2.0
14.5262356 76.9083405 2.0
19.096962 61.6474648 2.0
36.728714 18.4547615 2.0
22.4414501 54.1886902 2.0
45.5305748 23.2270203 2.0
51.2373848 20.646471 2.0
21.315506 48.1797752 2.0
22.306736 59.3002892 2.0
23.5912552 56.1671638 2.0
81.5897446 23.4169712 2.0
77.7574539 20.940115 2.0
23.7093544 71.225029 2.0
23.1576519 76.3130798 2.0
22.613802 37.6732597 2.0
81.45858 12.1552391 2.0
41.5726814 19.1392803 2.0
34.6870079 25.1833458 2.0
27.0354748 34.248436 2.0
14.9469595 67.6233673 2.0
32.2385941 16.0431538 2.0
19.9140739 86.1274872 2.0
54.3388443 20.5628662 2.0
16.130394 18.5435829 2.0
29.5871544 16.1799717 2.0
14.193655 70.9737396 2.0
80.4437561 14.114068 2.0
15.1929302 20.9230824 2.0
18.8618126 19.2574863 2.0
68.5453568 19.3123131 2.0
19.2231464 43.508461 2.0
54.9113884 19.4103565 2.0
23.99086 83.0218048 2.0
69.222496 22.9171524 2.0
64.2911911 21.9907265 2.0
72.9928818 21.8736248 2.0
85.1866608 22.2420101 2.0
85.7305984 18.7829342 2.0
77.9994431 15.3623238 2.0
15.3687325 73.3022079 2.0
14.7157478 23.1029186 2.0
27.0957394 17.4198952 2.0
23.3593616 67.5963058 2.0
49.485817 13.6980476 2.0
14.1700573 50.8863106 2.0
15.2200899 53.1704292 2.0
47.3525772 14.740592 2.0
61.2242165 15.3654766 2.0
15.9897137 38.5629463 2.0
83.9474335 23.4434509 2.0
63.0887794 19.3453617 2.0
17.6353836 36.8162727 2.0
18.5200939 54.5642242 2.0
45.0359039 19.0107727 2.0
50.0653229 17.8500328 2.0
19.1060295 49.2306824 2.0
19.3164158 65.4015808 2.0
34.4026451 18.8238869 2.0
22.2801037 50.086525 2.0
49.9004784 21.4480801 2.0
33.1500664 25.3552628 2.0
26.0027637 32.6250229 2.0
43.7241859 21.0328121 2.0
23.8119812 77.9943619 2.0
21.2575836 76.6675949 2.0
35.3723373 13.7386866 2.0
17.9914589 87.2368774 2.0
19.7172127 63.9767494 2.0
35.7499008 19.8031693 2.0
39.1691399 18.2306709 2.0
17.8179035 60.4348679 2.0
22.0967922 51.826683 2.0
47.9193039 22.2249241 2.0
35.5547028 23.2271538 2.0
38.1936302 22.0670567 2.0
27.7009296 35.8611565 2.0
35.1335831 26.8237705 2.0
16.7338428 70.2765427 2.0
31.0501442 17.2215977 2.0
22.7870502 65.3508835 2.0
15.9776907 51.6238976 2.0
47.1126976 16.4181023 2.0
64.6521225 19.6864319 2.0
61.445713 19.4287663 2.0
19.1897469 38.1419754 2.0
19.710001 35.3898926 2.0
19.4417019 56.7882195 2.0
17.6932507 52.2899361 2.0
46.6069946 17.6863155 2.0
47.9854202 18.5119381 2.0
18.4287224 50.7322426 2.0
51.679821 18.5701313 2.0
19.776989 47.7203522 2.0
19.3736439 67.3712997 2.0
32.2277412 18.468935 2.0
69.6317215 21.3798027 2.0
22.1756096 82.6824341 2.0
61.4752617 23.1259251 2.0
23.1059322 87.631546 2.0
26.7945023 19.3585701 2.0
77.2159042 17.1962109 2.0
16.1030064 74.2700043 2.0
17.0178375 24.0922356 2.0
22.4934216 34.9176788 2.0
81.8560715 14.7533073 2.0
81.1204681 21.0168095 2.0
21.2272625 57.2348595 2.0
72.1263199 18.738821 2.0
22.8446541 19.4776821 2.0
19.2931919 27.730238 2.0
19.234024 39.2431755 2.0
59.912365 19.9041195 2.0
59.4943428 22.7355156 2.0
13.9064188 19.3964462 2.0
82.9798813 17.9402332 2.0
22.5018768 69.1651459 2.0
77.7663422 19.4470768 2.0
30.814085 14.2512217 2.0
12.7226067 69.3696747 2.0
19.1476784 76.5602417 2.0
74.6350632 17.9821701 2.0
24.8646183 19.2329559 2.0
18.5591736 25.2582397 2.0
36.2761154 21.6075172 2.0
50.6652336 27.0037479 2.0
85.6804581 4.01118946 2.0
34.6317368 3.73763061 2.0
3.69279623 65.2963791 2.0
20.1420269 51.2901573 2.0
47.1859856 19.845747 2.0
13.4272327 52.370182 2.0
23.4179783 80.6638718 2.0
21.8367825 55.6858864 2.0
82.6798859 22.0132294 2.0
81.6822662 18.9608269 2.0
31.5239487 25.4317665 2.0
24.5066185 31.1057491 2.0
19.3500595 70.138649 2.0
30.2680798 18.5633678 2.0
40.1990242 19.4582939 2.0
20.0903664 60.2301979 2.0
15.5703926 16.7204952 2.0
25.2656956 64.5259094 2.0
67.7479095 21.788229 2.0
70.1035538 23.8695107 2.0
21.3696098 26.7114944 2.0
22.7265282 21.9064617 2.0
22.8506317 32.3431129 2.0
21.3354378 36.2126465 2.0
81.4132156 16.6125851 2.0
79.2125931 18.5138702 2.0
19.1922531 78.8389359 2.0
23.7766495 63.7811394 2.0
31.4595184 20.3364391 2.0
28.4724026 19.703558 2.0
19.3889313 72.3211975 2.0
22.9604816 29.8305225 2.0
33.9653549 22.2925014 2.0
29.8040066 27.5463314 2.0
25.8687782 29.8486671 2.0
21.5855846 28.7281685 2.0
21.4219952 23.973074 2.0
23.7573967 36.0614052 2.0
20.449192 81.5116119 2.0
48.9471054 11.1295338 2.0
11.2438431 51.5912132 2.0
76.3694382 18.7948589 2.0
19.5371819 74.3254471 2.0
21.3285828 64.6316528 2.0
26.7532501 21.1390686 2.0
46.7327728 10.3825665 2.0
10.9325666 54.8770065 2.0
21.5811634 31.0252075 2.0
27.9694576 31.5453129 2.0
22.6910534 27.5462685 2.0
18.5919552 22.9561863 2.0
22.6006165 24.075367 2.0
32.8215332 22.0159988 2.0
73.9016724 19.8688946 2.0
27.6246777 26.680542 2.0
26.8454475 28.3367786 2.0
31.4012756 23.6574097 2.0
23.1221561 61.5156364 2.0
21.385704 72.538765 2.0
25.7909985 25.7518196 2.0
44.8498192 10.4603758 2.0
10.9626045 56.3565598 2.0
30.2284069 31.7161541 2.0
19.6271744 24.0733299 2.0
26.716898 22.7577782 2.0
28.2675381 23.1663456 2.0
25.0660553 27.2221432 2.0
30.34062 30.2402573 2.0
24.6564751 23.3970299 2.0
17.9036274 21.5515976 2.0
32.5974541 31.0953732 2.0
26.322237 24.2851791 2.0
32.4065399 28.6725979 2.0
22.1882229 44.1187553 2.0
38.022316 93.5874405 2.0
95.961731 37.8805656 2.0
4.01090622 89.4287109 2.0
10.400115 4.11605787 2.0
92.4440689 28.495739 2.0
85.4926682 30.8106155 2.0
61.9478683 21.256834 2.0
25.9166393 51.1853142 2.0
49.3233986 24.5942707 2.0
86.589325 9.87646103 2.0
5.61785507 88.5858231 2.0
38.2317543 45.9125061 2.0
76.4218063 26.0328903 2.0
18.9590874 59.6739388 2.0
22.0439796 25.5310173 2.0
66.0582504 1.54250693 2.0
67.8679886 1.46733904 2.0
1.74700093 83.8604736 2.0
1.86434627 81.8729095 2.0
97.9983368 37.9585304 2.0
98.2423019 16.0250168 2.0
98.2452698 17.9244938 2.0
38.1023178 53.8367882 2.0
38.1790009 51.849144 2.0
38.2195854 49.8628693 2.0
38.2308769 47.8854713 2.0
57.8126945 37.9737701 2.0
38.3517303 3.96607089 2.0
37.8866615 36.4540062 2.0
36.1979103 53.6069908 2.0
36.1114311 38.4122429 2.0
4.09316587 79.87323 2.0
6.24399948 96.2369232 2.0
78.5081482 3.85631251 2.0
3.96822357 14.3473501 2.0
3.60570598 21.9151783 2.0
94.2048645 11.1898985 2.0
3.6756258 61.5907593 2.0
92.5791702 32.841156 2.0
96.768425 30.0785789 2.0
36.111515 64.3556519 2.0
36.275425 75.9896622 2.0
34.7734146 94.5800247 2.0
33.0776482 94.6076813 2.0
86.8986435 34.2419853 2.0
33.2160072 5.55080318 2.0
4.9916234 87.140625 2.0
53.7890701 5.6652379 2.0
63.0231705 5.58549404 2.0
33.7358704 34.9679642 2.0
67.2246857 32.1048775 2.0
78.6795654 32.8748245 2.0
93.268837 30.9748478 2.0
91.7660904 30.1466885 2.0
11.5157061 95.3468246 2.0
34.1886597 72.3789062 2.0
22.0526619 91.2967682 2.0
13.1982336 92.8233719 2.0
17.943716 94.9766846 2.0
92.936554 21.7899666 2.0
86.5213547 32.6490288 2.0
85.1453476 32.4661865 2.0
80.382225 31.5035915 2.0
13.0110359 7.63639545 2.0
27.4608288 9.20790291 2.0
34.9093513 6.81577682 2.0
36.2168922 7.17685747 2.0
5.49897814 66.6145554 2.0
70.3986206 32.322197 2.0
48.4069748 8.71272564 2.0
49.9016685 9.53029823 2.0
5.75238514 45.359272 2.0
31.9531784 36.9239655 2.0
45.0847549 32.6560364 2.0
65.5049973 32.0951271 2.0
93.2186584 17.4796848 2.0
65.0848923 7.20781898 2.0
9.1585722 89.1526337 2.0
32.4498062 53.0495834 2.0
66.002121 31.0850391 2.0
10.6646271 89.8344498 2.0
9.01861286 9.74965477 2.0
11.5663033 92.0821457 2.0
31.0357838 90.9155045 2.0
29.3447456 90.8097687 2.0
90.307663 14.0878477 2.0
56.0358734 8.1260128 2.0
91.4082565 11.3831768 2.0
70.1592331 30.213131 2.0
25.9505997 90.3789978 2.0
20.9785652 88.6444702 2.0
32.8079033 72.9449005 2.0
9.17786121 71.6052094 2.0
7.35266876 56.095417 2.0
7.51480436 54.4776459 2.0
8.49568462 51.5159912 2.0
9.59843445 50.3593483 2.0
7.45451307 43.6668777 2.0
7.9663887 42.1656113 2.0
35.7576027 8.01452923 2.0
36.1450272 8.95022583 2.0
35.6699944 30.3934898 2.0
32.0711327 32.1253777 2.0
8.2583971 84.7618866 2.0
86.4292679 31.4851379 2.0
80.3335648 29.6555061 2.0
78.7726364 29.5808392 2.0
91.4991074 16.725378 2.0
91.5533066 22.1628075 2.0
70.8418274 7.24942064 2.0
13.2081547 9.36561203 2.0
28.9003296 11.6151323 2.0
17.5950394 92.0601883 2.0
48.3607216 28.3399105 2.0
11.3706026 88.3039627 2.0
80.0289078 7.46835852 2.0
61.6875763 9.79203987 2.0
36.0696716 12.1335354 2.0
34.0971794 30.1318436 2.0
34.8836861 7.94273901 2.0
7.61503029 86.207962 2.0
12.8573246 88.802803 2.0
34.3701859 11.7866821 2.0
55.7565041 29.883564 2.0
51.79002 13.1327534 2.0
45.5857124 12.7051506 2.0
84.8412399 7.44623423 2.0
27.7494164 88.7866974 2.0
24.6395512 88.1565628 2.0
28.9321156 69.0536118 2.0
28.1123486 70.7552338 2.0
55.6209221 12.1594658 2.0
31.2784767 31.5093002 2.0
14.5366755 11.2169437 2.0
16.1578941 11.4405117 2.0
21.6283855 11.941349 2.0
89.7524109 27.2022972 2.0
10.9460917 71.364151 2.0
11.0323944 69.747757 2.0
9.31064034 61.3383255 2.0
9.28175259 54.7274132 2.0
9.70771599 52.1883316 2.0
8.77940083 43.7854919 2.0
10.6691437 41.4680557 2.0
11.730814 39.953949 2.0
33.8987656 28.5570297 2.0
34.2375641 13.0238075 2.0
13.4471741 80.2368469 2.0
69.1289825 12.2639685 2.0
28.3572502 39.0841103 2.0
12.0850039 86.8831406 2.0
70.9440384 28.7023029 2.0
25.7126808 60.6135139 2.0
90.4603653 16.1965103 2.0
89.2679291 15.4429827 2.0
88.8822937 13.3127947 2.0
30.7952595 11.9540281 2.0
67.1723709 28.288559 2.0
77.2842941 29.5047588 2.0
77.1352005 27.88521 2.0
70.5365524 13.2216988 2.0
10.8485069 20.0378399 2.0
9.61607265 68.8813629 2.0
32.7402878 29.9507027 2.0
42.9952965 13.644721 2.0
30.9347992 87.1706924 2.0
65.8652802 27.9244671 2.0
29.1491165 50.867733 2.0
10.2948256 47.1675072 2.0
32.9444771 13.5865173 2.0
89.3192978 8.63311672 2.0
11.1520052 53.3958549 2.0
10.8450041 45.8121376 2.0
84.498848 9.77279568 2.0
88.2192917 26.0085106 2.0
26.3902855 86.7343903 2.0
22.1006393 85.3456879 2.0
20.7497444 84.4083939 2.0
10.5187817 13.5547323 2.0
68.5819168 13.5233545 2.0
26.9687157 68.6448517 2.0
88.3936539 20.4761982 2.0
85.1780701 24.8286781 2.0
12.5715055 72.5644913 2.0
44.4208908 14.9188595 2.0
48.9672813 15.3965979 2.0
12.0377007 19.018713 2.0
12.8959827 12.0910501 2.0
26.1510639 14.8280802 2.0
75.1997757 27.2765961 2.0
12.4827518 20.8407631 2.0
73.127327 28.004427 2.0
70.2515411 26.1953526 2.0
75.8560715 29.3087845 2.0
61.1306801 17.4093685 2.0
53.8669243 14.7523146 2.0
53.7750664 15.8839045 2.0
26.0237637 36.3595352 2.0
88.4357986 10.9758482 2.0
86.6358185 13.8187695 2.0
12.4070005 38.3811913 2.0
31.8189812 27.1235332 2.0
31.5039444 30.7075195 2.0
10.7718153 68.2008514 2.0
87.0246964 15.9022827 2.0
62.9440117 15.5425997 2.0
42.9024391 15.0618992 2.0
10.0039415 39.2405853 2.0
81.0905533 26.5554008 2.0
14.9210958 84.7249069 2.0
11.9330654 13.5185242 2.0
27.6489983 52.0979042 2.0
57.3963509 28.2559338 2.0
27.9062786 85.1621094 2.0
22.2199993 63.0753784 2.0
53.6759567 17.3745441 2.0
45.9606209 16.0026512 2.0
48.5356865 17.0463505 2.0
11.8071804 30.5773163 2.0
10.8956242 37.9307899 2.0
11.3068495 36.4906387 2.0
24.5804768 37.9916229 2.0
24.8758297 40.9515228 2.0
24.7944489 42.5766335 2.0
13.6051321 17.6091404 2.0
67.4887772 15.0893583 2.0
25.1814423 84.8050003 2.0
22.7367821 84.1996307 2.0
85.2703934 16.2083168 2.0
24.3766441 69.6846848 2.0
14.1040173 43.5059471 2.0
34.235363 16.77738 2.0
38.1133423 19.5913239 2.0
39.7303352 21.0441132 2.0
26.2593708 73.281662 2.0
14.1957674 73.4865341 2.0
14.5632715 69.4720459 2.0
24.1821747 15.5262556 2.0
31.3523312 19.0993118 2.0
14.002861 15.1102629 2.0
87.124855 10.870944 2.0
86.9942322 24.5922489 2.0
72.4655151 25.6342793 2.0
78.2705383 24.4468307 2.0
52.9283333 24.1413536 2.0
31.0912151 29.0968018 2.0
14.7434149 25.131815 2.0
12.4361439 46.3700294 2.0
85.374649 10.8556871 2.0
84.1576462 12.037322 2.0
82.8901978 13.3262234 2.0
21.5314655 60.8595428 2.0
43.4457588 24.4782372 2.0
68.0434723 23.402422 2.0
20.4704628 32.0873222 2.0
28.0297832 24.9456673 2.0
54.2085037 23.7917938 2.0
31.7813892 29.9512806 2.0
15.4408197 24.105484 2.0
17.313364 78.5340652 2.0
16.1987209 22.3613186 2.0
42.0452614 22.6459713 2.0
12.3246479 54.9970398 2.0
15.5035362 75.752182 2.0
29.2308483 83.3976059 2.0
23.9366894 49.8683243 2.0
12.5250254 58.1256866 2.0
15.7072935 44.534317 2.0
16.76717 43.3919296 2.0
18.0246296 42.4527359 2.0
56.1550713 20.5609722 2.0
57.1514473 22.1559391 2.0
24.7881126 74.5115128 2.0
25.2899342 83.429512 2.0
25.0010071 77.1282806 2.0
23.4661579 41.0119247 2.0
71.1767273 22.7110863 2.0
77.8312225 22.6748562 2.0
82.8883743 15.2602539 2.0
82.8421097 16.5588474 2.0
17.9463406 17.9230976 2.0
17.6445923 38.2701912 2.0
18.2786961 40.6170425 2.0
48.6104164 20.7407227 2.0
15.5440273 71.2230148 2.0
16.9526329 68.2087021 2.0
17.6859417 77.1983643 2.0
32.8900414 23.6990795 2.0
29.8537617 23.4937515 2.0
17.7008743 26.5708904 2.0
19.0282516 31.5667934 2.0
24.1092434 24.8158722 2.0
29.9899139 20.0877666 2.0
53.4829826 22.255579 2.0
79.4363174 20.7650204 2.0
16.0126247 55.6583595 2.0
70.0406723 19.0860519 2.0
80.7090073 22.3621864 2.0
84.4821091 18.2026901 2.0
36.8820305 22.8272419 2.0
46.2197723 18.8265686 2.0
54.9541283 21.6437778 2.0
60.6909561 21.7917576 2.0
26.3831139 82.1388855 2.0
25.449482 82.407692 2.0
24.637125 81.6981506 2.0
34.942009 21.3814964 2.0
16.1116524 64.0935593 2.0
16.1024952 35.8973961 2.0
27.1965275 80.7971878 2.0
25.9055061 80.8882446 2.0
67.4769058 20.3959637 2.0
12.9259758 32.1612701 2.0
19.9486332 22.2285366 2.0
66.0811996 16.4779987 2.0
20.962923 53.5213814 2.0
16.5612621 32.5664749 2.0
18.0424099 44.3399315 2.0
18.6817856 46.0379372 2.0
31.4068375 21.911581 2.0
28.3531418 21.4330578 2.0
18.5514965 68.5420456 2.0
20.4373589 66.1302643 2.0
15.6235819 72.3416214 2.0
22.9280205 15.4290953 2.0
21.7669239 15.0270472 2.0
14.8915272 31.8466949 2.0
20.4856014 37.0795059 2.0
19.243 36.8275146 2.0
20.746994 39.3864021 2.0
58.1576385 23.8985023 2.0
18.0216141 28.4195652 2.0
19.9681568 26.1444798 2.0
21.1471024 19.4974117 2.0
17.4790421 75.2965698 2.0
19.3581257 52.9000549 2.0
24.9510021 21.1205997 2.0
20.7905254 68.4069214 2.0
18.1482811 74.1274643 2.0
19.2431889 40.1226044 2.0
18.9559097 45.0914764 2.0
20.2019958 44.7656975 2.0
22.3651237 48.8103752 2.0
13.9796782 59.063961 2.0
20.7827625 27.7317581 2.0
20.9110527 23.0330124 2.0
21.5352421 41.3868675 2.0
20.2187157 40.6374664 2.0
18.9797344 58.4209137 2.0
96.0 0.0 4.0
94.0 0.0 4.0
90.0 0.0 4.0
88.0 0.0 4.0
84.0 0.0 4.0
82.0 0.0 4.0
78.0 0.0 4.0
76.0 0.0 4.0
72.0 0.0 4.0
68.0 0.0 4.0
66.0 0.0 4.0
62.0 0.0 4.0
60.0 0.0 4.0
56.0 0.0 4.0
54.0 0.0 4.0
50.0 0.0 4.0
46.0 0.0 4.0
44.0 0.0 4.0
40.0 0.0 4.0
38.0 0.0 4.0
34.0 0.0 4.0
32.0 0.0 4.0
28.0 0.0 4.0
26.0 0.0 4.0
22.0 0.0 4.0
18.0 0.0 4.0
16.0 0.0 4.0
12.0 0.0 4.0
10.0 0.0 4.0
6.0 0.0 4.0
4.0 0.0 4.0
100.0 0.0 4.0
0.0 0.0 4.0
0.0 4.0 4.0
0.0 6.0 4.0
0.0 10.0 4.0
0.0 12.0 4.0
0.0 16.0 4.0
0.0 18.0 4.0
0.0 22.0 4.0
0.0 24.0 4.0
0.0 28.0 4.0
0.0 32.0 4.0
0.0 34.0 4.0
0.0 38.0 4.0
0.0 40.0 4.0
0.0 44.0 4.0
0.0 46.0 4.0
0.0 50.0 4.0
0.0 54.0 4.0
0.0 56.0 4.0
0.0 60.0 4.0
0.0 62.0 4.0
0.0 66.0 4.0
0.0 68.0 4.0
0.0 72.0 4.0
0.0 74.0 4.0
0.0 78.0 4.0
0.0 82.0 4.0
0.0 84.0 4.0
0.0 88.0 4.0
0.0 90.0 4.0
0.0 94.0 4.0
0.0 96.0 4.0
0.0 100.0 4.0
4.0 100.0 4.0
10.0 100.0 4.0
14.0 100.0 4.0
20.0 100.0 4.0
24.0 100.0 4.0
30.0 100.0 4.0
34.0 100.0 4.0
40.0 100.0 4.0
40.0 44.0 4.0
40.0 48.0 4.0
40.0 52.0 4.0
40.0 54.0 4.0
40.0 58.0 4.0
40.0 62.0 4.0
40.0 66.0 4.0
40.0 70.0 4.0
40.0 74.0 4.0
40.0 78.0 4.0
40.0 82.0 4.0
40.0 84.0 4.0
40.0 88.0 4.0
40.0 92.0 4.0
40.0 96.0 4.0
40.0 40.0 4.0
96.0 40.0 4.0
92.0 40.0 4.0
88.0 40.0 4.0
86.0 40.0 4.0
82.0 40.0 4.0
78.0 40.0 4.0
74.0 40.0 4.0
70.0 40.0 4.0
66.0 40.0 4.0
62.0 40.0 4.0
58.0 40.0 4.0
56.0 40.0 4.0
52.0 40.0 4.0
48.0 40.0 4.0
44.0 40.0 4.0
100.0 40.0 4.0
100.0 36.0 4.0
100.0 30.0 4.0
100.0 26.0 4.0
100.0 20.0 4.0
100.0 16.0 4.0
100.0 10.0 4.0
100.0 6.0 4.0
4.15280294 4.16630173 4.0
8.3700285 4.30302286 4.0
12.4098711 3.93831658 4.0
16.310051 3.87328553 4.0
20.2036705 4.03112984 4.0
24.2145939 4.33294678 4.0
28.7772808 5.03288651 4.0
32.7411346 3.85475469 4.0
36.517067 3.82171869 4.0
42.0387802 3.86816287 4.0
45.8033981 4.06726742 4.0
50.004097 4.71917295 4.0
54.0183372 3.93797636 4.0
58.2245674 4.87414598 4.0
62.5502052 3.77882957 4.0
67.2750473 5.15574551 4.0
70.7734833 4.46764183 4.0
74.7921066 5.12396193 4.0
80.1252975 4.43903923 4.0
83.8619385 3.90427375 4.0
87.7472153 4.74412346 4.0
92.0174789 4.19015932 4.0
95.9748688 4.06366396 4.0
4.08784819 8.21089458 4.0
7.70617294 8.7223568 4.0
11.8222694 9.45137215 4.0
16.4834976 7.67375088 4.0
20.1508293 7.92666197 4.0
23.9054718 8.3372345 4.0
29.6148911 8.15605259 4.0
33.5872803 8.65404892 4.0
37.3790131 8.18856907 4.0
42.0682831 7.67571259 4.0
45.2545395 8.13835526 4.0
50.6868439 7.89065599 4.0
54.7233505 7.91246462 4.0
58.1124916 8.30289459 4.0
63.5312309 8.90739441 4.0
66.4926224 9.36891937 4.0
70.266922 8.85576248 4.0
74.6072693 8.20598602 4.0
78.887291 8.99817848 4.0
83.5705185 8.6196804 4.0
87.1733932 7.74610376 4.0
92.4673004 8.02637672 4.0
96.0442657 8.00386238 4.0
4.15784597 12.3741951 4.0
8.13913441 11.2280455 4.0
11.6115608 12.2554827 4.0
15.783946 13.1541872 4.0
19.8237171 11.9135256 4.0
25.0906906 12.4315615 4.0
28.5411053 13.5338497 4.0
32.6507111 11.8082571 4.0
37.7847595 12.6582613 4.0
41.9324951 12.8231945 4.0
47.5365639 12.5772104 4.0
50.3485565 12.1578379 4.0
54.0582619 12.9793854 4.0
57.7840309 11.7029543 4.0
62.4014587 12.0840816 4.0
65.8407898 13.2368259 4.0
71.3058472 11.4527121 4.0
75.3729706 11.4559326 4.0
79.5208511 11.5715017 4.0
83.1968002 10.9537067 4.0
87.5776596 12.5248318 4.0
91.1291122 12.7805576 4.0
95.5030365 12.2973223 4.0
3.75831175 16.2575455 4.0
9.60991383 16.2472248 4.0
13.1020365 16.4232578 4.0
17.3644218 16.8548775 4.0
20.8361092 15.8680401 4.0
25.001646 16.9155521 4.0
28.8136501 17.9389706 4.0
33.232933 17.5455017 4.0
37.7154274 17.0351391 4.0
40.7648697 16.8495979 4.0
44.923996 16.8988628 4.0
50.5142288 16.2069778 4.0
55.0853996 15.8484974 4.0
57.1431847 16.1924152 4.0
63.0562515 17.4309196 4.0
67.3248749 16.8482723 4.0
71.1770325 15.9822502 4.0
75.4041061 16.2060356 4.0
79.7553177 16.2358646 4.0
84.1440659 16.3749447 4.0
88.1792679 16.8311749 4.0
91.4832687 17.8696423 4.0
94.9203644 16.9201164 4.0
4.38782263 20.2206345 4.0
7.79606009 20.2994232 4.0
11.5397215 21.9488888 4.0
17.0244904 20.0665302 4.0
20.1300163 20.8272228 4.0
25.407053 22.435154 4.0
29.8942776 21.7187576 4.0
33.1837387 20.1862869 4.0
37.0446243 20.7140427 4.0
41.8205032 20.9896145 4.0
45.8697014 21.1519108 4.0
49.4784393 19.4253025 4.0
53.0983963 20.6343117 4.0
58.5140724 20.891243 4.0
63.0299683 20.8879604 4.0
66.159317 20.0903378 4.0
71.1514816 20.261879 4.0
75.8672943 20.6813812 4.0
83.9359207 20.3757648 4.0
86.7332458 21.3724556 4.0
91.6577988 20.5914078 4.0
95.0615692 20.9848003 4.0
4.2758131 25.8185272 4.0
8.92153645 25.581068 4.0
12.2322044 25.350338 4.0
16.2193375 25.7707939 4.0
20.7412853 24.9444885 4.0
23.4843674 26.2534599 4.0
29.8271694 25.3878326 4.0
34.2556419 23.6067848 4.0
37.5835686 24.3730526 4.0
41.2360458 24.6371765 4.0
45.0844116 25.1228313 4.0
49.7854538 22.8705997 4.0
54.516613 25.640873 4.0
59.3007126 25.176712 4.0
62.9642868 24.860117 4.0
66.5198059 24.0174923 4.0
71.1389465 24.8826885 4.0
74.7060623 24.7096901 4.0
80.1701279 24.4889812 4.0
82.8194733 24.7170162 4.0
88.1828995 24.3349209 4.0
91.5007782 26.0758648 4.0
96.0914612 25.1077728 4.0
4.12153435 29.8405972 4.0
8.12670517 29.9287109 4.0
12.3276138 29.1126747 4.0
17.891346 29.6010857 4.0
19.9165077 29.7743073 4.0
24.1680698 28.5607719 4.0
28.7385654 29.4620323 4.0
33.5126534 26.9827881 4.0
37.2080498 28.4549294 4.0
41.3557091 30.2081146 4.0
45.8551865 29.3451328 4.0
50.2635193 28.9758949 4.0
53.9765129 29.7054253 4.0
59.2410965 29.725811 4.0
62.8574982 29.844656 4.0
66.6092834 29.8013401 4.0
72.457695 29.682724 4.0
75.5888138 30.7709637 4.0
80.0881348 27.9142723 4.0
83.9328842 29.5340824 4.0
90.2335663 29.1997643 4.0
96.8320312 28.3486118 4.0
4.05126572 33.8147278 4.0
7.86805677 33.5986137 4.0
11.5691948 33.5320549 4.0
15.6512451 34.0631256 4.0
20.7817345 33.6513672 4.0
24.1799011 33.6730843 4.0
28.9775124 33.6707878 4.0
33.2053719 32.4453812 4.0
37.5459251 32.510643 4.0
41.5680809 34.3973045 4.0
46.5124626 32.8294144 4.0
51.5057793 33.5717773 4.0
55.6175842 33.8958321 4.0
59.4664459 33.9691467 4.0
63.0839119 33.9117432 4.0
66.2320786 33.289196 4.0
71.8458176 33.9285126 4.0
75.3805618 34.1727104 4.0
78.3972626 34.1357231 4.0
83.5370407 34.0955658 4.0
87.8008957 32.3388023 4.0
89.9807205 33.0815544 4.0
96.5144882 31.9332428 4.0
4.19800043 37.7831001 4.0
8.14406967 36.9041748 4.0
12.8731489 36.7465286 4.0
16.0549393 37.1026001 4.0
20.757597 38.1237068 4.0
24.7427673 36.8159218 4.0
28.1208649 37.4598198 4.0
32.189827 38.6742935 4.0
35.9814529 36.5879669 4.0
41.8842735 38.205143 4.0
45.5332794 36.2086601 4.0
49.7692986 37.9204025 4.0
53.7858467 37.9133072 4.0
59.7922363 37.9785843 4.0
63.7529221 37.907032 4.0
67.7615738 37.7140503 4.0
71.8479996 37.9386864 4.0
75.7865372 37.9757805 4.0
79.7641525 37.8336411 4.0
83.7548828 38.025013 4.0
87.7194824 37.9912453 4.0
91.7854843 37.6752167 4.0
96.0350113 35.8526955 4.0
4.09324217 41.738945 4.0
8.81849289 40.6585922 4.0
12.431735 42.4387627 4.0
16.890871 41.2837067 4.0
20.5276642 42.6177711 4.0
26.7052555 42.5306129 4.0
30.529047 42.270092 4.0
34.3961258 42.0997276 4.0
38.1927643 42.0220337 4.0
3.91039777 45.6618385 4.0
9.25484943 45.8131638 4.0
11.662838 47.7963028 4.0
16.5130119 46.5954971 4.0
20.3243256 46.237606 4.0
24.8194466 46.0546417 4.0
28.8794708 45.8209877 4.0
32.6718979 45.7659073 4.0
36.4192772 45.8305321 4.0
4.77405548 49.7210579 4.0
8.03316021 49.4093513 4.0
12.3197289 50.0527802 4.0
16.7371044 50.1016312 4.0
20.6857967 49.7393761 4.0
24.1830845 51.4275017 4.0
29.1357117 49.2390862 4.0
32.7705078 49.4234047 4.0
36.4353943 49.7092934 4.0
3.87597275 53.9978447 4.0
9.15812302 56.199646 4.0
12.8755178 53.8488464 4.0
16.8944473 53.9203987 4.0
20.149786 55.1324615 4.0
24.1427498 54.5679817 4.0
28.4243031 53.9264069 4.0
32.1190109 54.8081055 4.0
35.9799156 55.5280266 4.0
3.68565226 57.8081169 4.0
9.16372395 59.4611397 4.0
12.011548 59.2983932 4.0
16.8973866 58.5782089 4.0
20.6859741 58.7508354 4.0
24.7122173 58.3076591 4.0
29.1280937 57.841877 4.0
33.0435638 58.7932549 4.0
37.3656464 60.0388031 4.0
3.69408369 63.4390411 4.0
7.41960859 63.110508 4.0
11.7919788 63.3858795 4.0
16.4330254 61.7685623 4.0
20.6056347 62.3886909 4.0
24.7643566 62.2271843 4.0
29.6562099 62.5214233 4.0
34.2026138 62.6263733 4.0
38.0386848 64.1818771 4.0
3.82566929 67.1241684 4.0
8.50469875 66.5183182 4.0
12.6346502 67.078331 4.0
17.7474327 66.0749207 4.0
21.7947865 66.9165268 4.0
24.2558117 66.0605087 4.0
28.8530903 65.3733521 4.0
32.1786537 66.1324539 4.0
38.0261154 68.1219101 4.0
4.9681201 71.0353317 4.0
7.90629196 69.8165207 4.0
12.601656 71.0750198 4.0
17.3022614 72.5831985 4.0
21.7184258 70.7945633 4.0
25.4765396 71.6427689 4.0
29.9428158 71.4903107 4.0
33.3351173 70.4414902 4.0
38.0843239 72.0172119 4.0
4.52242661 75.7000198 4.0
9.07929611 75.0182953 4.0
13.0730591 74.9469681 4.0
14.5960293 75.3255463 4.0
21.2461987 74.5138168 4.0
24.8379269 75.9376144 4.0
28.5806446 75.7642593 4.0
32.496994 75.9791718 4.0
38.1397781 75.9810028 4.0
6.12833405 80.1760635 4.0
9.02919769 79.3044205 4.0
11.9899549 79.1563187 4.0
16.4112377 80.1904221 4.0
21.6344643 79.1844177 4.0
25.4465008 79.2600174 4.0
30.3586178 79.5625687 4.0
34.2984428 79.7133408 4.0
38.1055908 79.9152603 4.0
5.11151981 83.8960571 4.0
8.8939352 83.2650223 4.0
12.5922203 83.614151 4.0
15.5188236 82.4895325 4.0
19.2533894 83.4165497 4.0
26.5462074 83.4956131 4.0
30.7468262 83.3473053 4.0
34.2793007 83.5418472 4.0
38.0822792 83.8526993 4.0
3.52774525 87.5252457 4.0
8.81181717 86.9140854 4.0
13.0578899 87.5302963 4.0
16.6326694 88.444046 4.0
19.3906593 87.8338776 4.0
24.9696445 86.4078064 4.0
29.3275433 87.070549 4.0
34.3470154 87.4021301 4.0
38.1072197 87.7816772 4.0
4.90272856 91.5592346 4.0
8.14474487 90.7507935 4.0
16.4196415 92.1858826 4.0
19.5498638 91.8949509 4.0
25.7391472 92.2520828 4.0
29.3708534 92.6440811 4.0
34.4703255 91.1095123 4.0
38.1193008 91.6591644 4.0
4.22867298 96.0440826 4.0
10.0475225 96.6350555 4.0
13.8715944 95.7668915 4.0
17.8814087 96.3623047 4.0
21.6345825 95.9033051 4.0
25.6584339 96.0445862 4.0
29.5857906 96.2755585 4.0
33.3732033 96.3582687 4.0
37.4657669 95.6894913 4.0
98.0 0.0 4.0
92.0 0.0 4.0
86.0 0.0 4.0
80.0 0.0 4.0
74.0 0.0 4.0
70.0 0.0 4.0
64.0 0.0 4.0
58.0 0.0 4.0
52.0 0.0 4.0
48.0 0.0 4.0
42.0 0.0 4.0
36.0 0.0 4.0
30.0 0.0 4.0
24.0 0.0 4.0
20.0 0.0 4.0
14.0 0.0 4.0
8.0 0.0 4.0
2.0 0.0 4.0
0.0 2.0 4.0
0.0 8.0 4.0
0.0 14.0 4.0
0.0 20.0 4.0
0.0 26.0 4.0
0.0 30.0 4.0
0.0 36.0 4.0
0.0 42.0 4.0
0.0 48.0 4.0
0.0 52.0 4.0
0.0 58.0 4.0
0.0 64.0 4.0
0.0 70.0 4.0
0.0 76.0 4.0
0.0 80.0 4.0
0.0 86.0 4.0
0.0 92.0 4.0
0.0 98.0 4.0
2.0 100.0 4.0
6.0 100.0 4.0
8.0 100.0 4.0
12.0 100.0 4.0
16.0 100.0 4.0
18.0 100.0 4.0
22.0 100.0 4.0
26.0 100.0 4.0
28.0 100.0 4.0
32.0 100.0 4.0
36.0 100.0 4.0
38.0 100.0 4.0
40.0 42.0 4.0
40.0 46.0 4.0
40.0 50.0 4.0
40.0 56.0 4.0
40.0 60.0 4.0
40.0 64.0 4.0
40.0 68.0 4.0
40.0 72.0 4.0
40.0 76.0 4.0
40.0 80.0 4.0
40.0 86.0 4.0
40.0 90.0 4.0
40.0 94.0 4.0
40.0 98.0 4.0
98.0 40.0 4.0
94.0 40.0 4.0
90.0 40.0 4.0
84.0 40.0 4.0
80.0 40.0 4.0
76.0 40.0 4.0
72.0 40.0 4.0
68.0 40.0 4.0
64.0 40.0 4.0
60.0 40.0 4.0
54.0 40.0 4.0
50.0 40.0 4.0
46.0 40.0 4.0
42.0 40.0 4.0
100.0 38.0 4.0
100.0 34.0 4.0
100.0 32.0 4.0
100.0 28.0 4.0
100.0 24.0 4.0
100.0 22.0 4.0
100.0 18.0 4.0
100.0 14.0 4.0
100.0 12.0 4.0
100.0 8.0 4.0
100.0 4.0 4.0
100.0 2.0 4.0
97.9777451 2.02768016 4.0
97.9789886 4.03089714 4.0
2.07358479 8.10907173 4.0
2.05820894 12.1656446 4.0
1.98620641 14.1394176 4.0
1.93720841 18.1335659 4.0
2.00782228 20.0684948 4.0
2.10687375 23.8918495 4.0
2.13435316 25.8832397 4.0
2.0704968 29.9053726 4.0
37.7429237 57.8514519 4.0
38.2184906 43.9540253 4.0
93.9694748 2.0776248 4.0
91.9652557 2.12642908 4.0
87.9117432 2.24420738 4.0
85.9171677 2.07500529 4.0
81.9917374 2.00087476 4.0
80.0748444 2.11084795 4.0
75.9322968 2.9164319 4.0
73.6263351 2.43498516 4.0
69.6520309 1.77531433 4.0
66.3573608 3.21641779 4.0
60.154068 2.11116982 4.0
58.1199417 2.27115297 4.0
54.0369682 2.05160117 4.0
47.9454994 2.15375113 4.0
43.9783974 1.96019375 4.0
42.0242004 1.92016995 4.0
38.1807404 1.90586281 4.0
36.2688789 1.88322866 4.0
32.3249359 1.98014402 4.0
30.3312702 2.17806387 4.0
26.2567406 2.32453847 4.0
24.1695843 2.20366979 4.0
20.1300068 2.02931666 4.0
16.1644192 1.94480932 4.0
10.168519 2.053334 4.0
8.1655674 2.12163949 4.0
4.09534264 2.09816384 4.0
2.05239534 2.05588078 4.0
2.07770967 6.09192133 4.0
2.04366374 33.9119415 4.0
2.05847144 35.9143753 4.0
2.08272195 39.8729935 4.0
2.03317189 41.843544 4.0
1.99054623 45.8621902 4.0
2.10603094 51.906559 4.0
1.88036633 55.9323463 4.0
1.8405571 57.8952293 4.0
1.8424269 61.7781639 4.0
1.83979464 63.7194901 4.0
1.96613252 67.610199 4.0
2.15273523 69.6026917 4.0
2.33596849 73.6940613 4.0
2.24934721 75.7982941 4.0
1.99771571 79.8592148 4.0
21.8477383 98.0061569 4.0
25.8021641 98.0215759 4.0
29.7701359 98.1323318 4.0
3.44931078 83.8054047 4.0
1.72573626 85.8332291 4.0
15.9558249 98.0690842 4.0
2.06564093 89.8370972 4.0
2.29641581 91.8454437 4.0
2.14185452 95.9696274 4.0
2.05594397 97.9916992 4.0
6.07426167 98.1258545 4.0
12.0252962 98.2028503 4.0
33.6980057 98.1494827 4.0
2.1010766 47.8797226 4.0
38.0941925 81.8831406 4.0
38.1295471 77.9486542 4.0
55.8043098 37.9459114 4.0
98.1324539 34.0024071 4.0
98.3670959 28.1663036 4.0
97.8758774 24.3266296 4.0
97.9791641 8.02656937 4.0
98.0632782 14.0960903 4.0
14.1779165 1.94329894 4.0
51.9807281 2.08443713 4.0
64.1679611 1.71061313 4.0
93.8782043 37.7623711 4.0
96.8681488 17.6859417 4.0
97.1909485 22.1171436 4.0
95.9772873 2.04454851 4.0
89.9288101 2.20461535 4.0
83.9469452 1.98032379 4.0
78.1273041 2.21196461 4.0
71.5358353 2.17836094 4.0
67.7020187 2.73225737 4.0
62.1924095 1.90735137 4.0
56.0751915 2.159657 4.0
49.9569817 2.22546172 4.0
45.9489975 2.04053044 4.0
40.0799408 1.90784788 4.0
34.3142853 1.89226198 4.0
28.3404236 2.37836218 4.0
22.1344433 2.10110784 4.0
18.1458569 1.97453344 4.0
12.1792488 1.98596025 4.0
6.14116096 2.13063502 4.0
2.07542968 4.08336639 4.0
2.07084703 10.1528549 4.0
1.91876531 16.1210232 4.0
1.92626727 21.9725304 4.0
2.1016624 27.8995266 4.0
2.04677033 31.9101028 4.0
2.07850504 37.9033966 4.0
1.98421705 43.8463707 4.0
2.22611141 49.8698463 4.0
1.97091675 53.9394035 4.0
1.83134592 59.8379593 4.0
1.86784685 65.6580048 4.0
2.36619353 71.5862656 4.0
2.15305543 77.8379745 4.0
3.70381045 81.88311 4.0
1.83162522 87.8231812 4.0
2.2565167 93.9081497 4.0
4.07907486 98.0377655 4.0
8.05652237 98.2251129 4.0
10.0260944 98.2752533 4.0
13.991684 98.0322876 4.0
17.9280396 98.132637 4.0
19.9090309 98.0882797 4.0
23.8090248 97.9918976 4.0
27.7935486 98.0832901 4.0
31.73382 98.1656189 4.0
35.7065697 98.0623779 4.0
38.0953598 85.8216476 4.0
38.1307983 89.7312241 4.0
85.7261047 38.0521507 4.0
81.7696152 37.9294739 4.0
77.7732925 37.9191704 4.0
73.8214417 37.9884644 4.0
69.8189316 37.8253517 4.0
65.7592087 37.8058624 4.0
61.7722359 37.9624405 4.0
43.8345337 38.1668205 4.0
98.0470047 35.9661636 4.0
98.2543182 32.0281067 4.0
98.3599854 30.0868149 4.0
98.2198792 26.2712421 4.0
97.8059692 19.8143234 4.0
96.5135269 16.2565136 4.0
97.8826218 12.124095 4.0
97.9330597 10.0703964 4.0
97.9884186 6.02511358 4.0
37.9249458 62.2250137 4.0
89.7504959 37.8245468 4.0
35.6035461 57.4218521 4.0
36.3731308 43.9288216 4.0
57.6552353 35.9556427 4.0
43.6296196 36.2889366 4.0
93.9382629 35.5533791 4.0
36.2864532 93.0469894 4.0
89.3270416 35.7279129 4.0
36.2638283 89.4834518 4.0
61.5328407 35.9546623 4.0
35.9574203 61.2229691 4.0
85.4604645 36.1445885 4.0
36.1844521 85.644577 4.0
65.3939667 35.6786079 4.0
37.7876244 97.911293 4.0
4.14432192 6.19512081 4.0
39.9355545 38.2384644 4.0
96.2570496 33.8576469 4.0
89.9982376 4.37202454 4.0
68.8860931 3.56154728 4.0
55.9487572 4.24579859 4.0
40.1569595 3.90319729 4.0
18.2523308 3.92974091 4.0
6.25933504 4.26504946 4.0
4.08556271 10.3053751 4.0
4.06172323 31.8344917 4.0
3.9276576 43.7068367 4.0
3.68401504 59.6896935 4.0
5.52547646 82.121933 4.0
4.48927546 93.9479904 4.0
38.1275787 40.1264877 4.0
11.8836975 96.5359802 4.0
16.0339603 96.1076584 4.0
35.2953873 96.249588 4.0
95.9947739 9.99723244 4.0
96.0222778 6.03299141 4.0
81.6809692 35.8492622 4.0
36.181736 81.7511673 4.0
69.8243256 35.7035904 4.0
77.4595871 35.9581985 4.0
36.2457428 77.8971252 4.0
73.6734238 36.0120125 4.0
38.023632 38.3132057 4.0
39.8192711 36.3826485 4.0
36.2334938 40.2220802 4.0
36.1200867 94.3822403 4.0
6.02964687 31.789854 4.0
18.3066254 5.85710955 4.0
69.306221 6.25305557 4.0
7.25273037 82.6102219 4.0
14.6962414 93.7181549 4.0
36.3133774 42.0612526 4.0
35.0757561 59.2145996 4.0
59.6187134 35.9788666 4.0
41.7272453 36.333271 4.0
36.3139458 91.3290939 4.0
91.5466919 35.0149345 4.0
90.3926239 6.38720465 4.0
10.1993361 95.0842896 4.0
94.307663 9.74599075 4.0
5.90491438 10.3377228 4.0
40.3272133 5.89250517 4.0
5.53581095 59.5755272 4.0
36.1063004 62.6111641 4.0
63.4445877 35.8800812 4.0
36.2318611 87.5775833 4.0
87.3506927 36.051403 4.0
36.1866913 83.6968689 4.0
67.5532684 35.1669807 4.0
83.5963593 36.0599403 4.0
37.9621353 55.8330612 4.0
45.7985573 38.1042557 4.0
36.2194595 79.8221283 4.0
71.8074951 35.9283371 4.0
79.5484238 35.4858513 4.0
34.4067307 76.0012207 4.0
75.561615 36.04702 4.0
94.1031647 6.05548716 4.0
55.3778687 6.11710548 4.0
5.78165865 43.635273 4.0
6.25397968 6.36241102 4.0
6.57090378 94.320755 4.0
77.0831223 34.2555962 4.0
73.5920639 34.0529518 4.0
34.5556335 92.8519516 4.0
5.98948288 33.7020111 4.0
16.4175491 5.76816511 4.0
6.74583149 84.2154846 4.0
66.8594513 7.3932209 4.0
12.3615532 94.3610458 4.0
33.5806465 56.9922676 4.0
34.4815559 43.9280319 4.0
57.5798912 33.9605675 4.0
43.4221611 34.3951073 4.0
92.2383728 6.14427376 4.0
94.2443695 7.94405508 4.0
8.49669552 94.734024 4.0
5.97816658 8.33428288 4.0
42.0791283 5.78274012 4.0
5.49794102 57.7658958 4.0
34.4428749 60.8862953 4.0
61.3039818 33.958374 4.0
36.0541611 66.2593079 4.0
88.5539627 33.8702774 4.0
34.4192276 89.2880554 4.0
85.2299728 34.2759209 4.0
34.320446 85.4809113 4.0
64.7842484 33.7781105 4.0
47.7900696 38.0094528 4.0
80.2031174 33.4021797 4.0
70.1646729 33.822216 4.0
36.2492714 74.0543823 4.0
39.6685333 34.4439621 4.0
34.3029747 40.3091507 4.0
94.0188599 4.08966827 4.0
53.1475677 7.30262041 4.0
7.70427513 46.2918358 4.0
8.18962955 96.4694901 4.0
31.4878559 96.3507767 4.0
19.7606239 96.1866226 4.0
95.6472855 18.9531288 4.0
30.8592548 4.25792503 4.0
3.77288318 18.1553211 4.0
82.0824966 3.91230774 4.0
4.16989946 69.0088272 4.0
34.1759109 38.5383911 4.0
37.7242203 34.525631 4.0
32.4017105 77.7972946 4.0
81.9899521 31.7416096 4.0
32.3972893 81.4833984 4.0
69.2749329 31.5835838 4.0
8.61241627 6.74568701 4.0
32.5240479 85.3469467 4.0
64.3781738 32.044075 4.0
94.8291473 31.5913105 4.0
31.6294212 56.5676079 4.0
32.5696487 43.959343 4.0
57.546093 31.9541569 4.0
43.3093224 32.4640274 4.0
73.642952 32.0904808 4.0
47.515625 36.0174522 4.0
61.1233025 31.886158 4.0
32.6377411 89.1522827 4.0
31.2874298 94.5537109 4.0
95.2369537 29.8497715 4.0
19.3374424 94.3917236 4.0
93.4413681 19.0064392 4.0
31.7593384 6.06173229 4.0
5.11504412 17.9046974 4.0
82.3341446 5.37863398 4.0
5.83372259 68.0953903 4.0
6.05369997 35.5903168 4.0
7.92939377 31.8086033 4.0
14.5621204 5.74809504 4.0
18.2942066 7.78457499 4.0
68.5991287 8.0523653 4.0
9.57456207 81.7744446 4.0
4.91865635 85.5627823 4.0
64.9718628 5.33798122 4.0
15.1994896 92.2675934 4.0
45.2452316 34.3835144 4.0
34.0119286 55.1805573 4.0
34.5613213 45.7894592 4.0
55.6761703 35.9073906 4.0
94.3689346 33.5008926 4.0
9.05845547 93.0684509 4.0
7.2027092 10.1222811 4.0
43.8023987 5.8695755 4.0
5.53366232 55.9812889 4.0
40.7539062 7.42299318 4.0
7.37802172 59.5184288 4.0
34.1478081 64.3795547 4.0
38.039299 66.1477585 4.0
38.123806 74.0076523 4.0
34.4167786 74.203064 4.0
52.4615021 5.32656193 4.0
6.04620075 46.953495 4.0
7.44277954 45.0739441 4.0
35.7643127 34.6678047 4.0
34.2943611 81.6137619 4.0
68.5629959 33.1988258 4.0
34.3559113 77.8577423 4.0
92.7060776 9.76448536 4.0
56.5921288 9.56820107 4.0
9.11793804 44.7364388 4.0
93.8693771 29.2071877 4.0
7.42889929 61.3462029 4.0
39.8341713 8.54022026 4.0
9.84423161 91.4402161 4.0
14.3264112 90.9262619 4.0
92.8897858 11.4940968 4.0
88.6891556 6.85798502 4.0
68.0718155 9.88250923 4.0
10.8187323 82.5135574 4.0
18.2014103 9.75073814 4.0
9.77937222 31.9110203 4.0
91.2113724 9.87779236 4.0
90.8464203 8.22504234 4.0
30.5520916 75.8813095 4.0
78.8150024 31.257452 4.0
32.3802452 79.6249008 4.0
71.7498322 31.6467724 4.0
10.7765284 6.09899187 4.0
90.9995575 31.7336235 4.0
32.4638405 42.1768951 4.0
31.0448647 58.3756523 4.0
59.3680534 31.9085045 4.0
41.4287567 32.3794365 4.0
32.8579826 92.7994308 4.0
16.6251278 94.0654144 4.0
92.6959457 16.021841 4.0
32.6612129 7.55005932 4.0
5.50120068 16.5528507 4.0
83.7581558 5.95435429 4.0
6.97029305 67.4064789 4.0
6.14774656 29.8327007 4.0
4.08969641 35.7866058 4.0
7.91221762 35.2933311 4.0
14.7192383 7.60975218 4.0
14.3662395 3.86516857 4.0
20.2051067 5.98114491 4.0
71.4734879 6.01963186 4.0
7.97956371 80.9208984 4.0
6.35085201 85.680809 4.0
64.9641495 9.09896564 4.0
3.37699103 85.6676788 4.0
64.5309677 3.52651405 4.0
43.6317902 7.77972031 4.0
7.31865215 57.7609978 4.0
38.480751 6.48477602 4.0
5.54501152 61.4317894 4.0
52.101593 3.97511482 4.0
43.915287 3.92055345 4.0
4.17737341 47.5874939 4.0
3.72936201 55.9321823 4.0
36.1056633 72.0994568 4.0
56.9400787 6.85077333 4.0
6.15457487 41.7650299 4.0
8.24638748 47.380127 4.0
34.609623 47.6692963 4.0
53.6505432 35.8318329 4.0
32.4820595 83.4148636 4.0
67.9699554 30.6670723 4.0
32.595005 87.2698441 4.0
62.8244286 31.9490814 4.0
7.14917421 92.4568024 4.0
75.4056931 32.3968735 4.0
33.9925423 36.7496834 4.0
89.8071747 10.1793556 4.0
31.1354961 92.7442245 4.0
35.3817406 32.5326843 4.0
31.6496811 35.1446419 4.0
32.4858932 60.6436386 4.0
88.8566437 31.6752129 4.0
35.8973312 70.1905441 4.0
9.30237103 46.7216492 4.0
54.4442062 10.0827837 4.0
95.6291504 28.5106392 4.0
10.7649708 59.4166985 4.0
41.753231 9.83702374 4.0
7.89036894 88.3745956 4.0
9.97811985 8.47827339 4.0
59.5313072 6.95588541 4.0
6.81328201 39.6105118 4.0
12.3832235 90.4114456 4.0
66.1113663 11.3252296 4.0
10.7162447 83.9863281 4.0
16.4165554 9.59224796 4.0
9.71781349 33.5302238 4.0
30.4032803 77.770546 4.0
32.6427994 74.3134613 4.0
6.49776077 12.5716705 4.0
5.51482391 63.2341232 4.0
36.5761337 5.74044085 4.0
81.9966431 29.6709061 4.0
30.5751781 81.4242249 4.0
68.6844864 29.1481228 4.0
11.3887501 7.86378717 4.0
39.518795 32.4168129 4.0
32.3409538 40.4164505 4.0
57.5211334 29.9647636 4.0
29.734663 56.0939674 4.0
30.6640453 44.0235748 4.0
43.4111443 30.4943848 4.0
18.3522205 93.0774155 4.0
91.6073303 19.1941147 4.0
94.2269363 15.1406736 4.0
34.8526115 5.43650627 4.0
31.7053528 8.31233501 4.0
5.93113756 14.7512789 4.0
7.20288086 17.3513908 4.0
82.4662094 7.40990305 4.0
7.77359104 67.8736801 4.0
85.260994 5.46994972 4.0
5.47102547 64.9689713 4.0
6.27090979 37.4958992 4.0
12.6996107 5.83394623 4.0
6.07062292 86.8097382 4.0
63.4071846 7.2595005 4.0
6.7650795 48.3393898 4.0
51.5494919 6.34012318 4.0
6.64682198 89.835144 4.0
30.8643188 85.2609253 4.0
64.5399933 30.3879776 4.0
30.9543743 89.0542603 4.0
61.0392303 29.6539574 4.0
74.0015259 30.3298988 4.0
77.0812454 32.6124916 4.0
86.2501831 6.38288546 4.0
93.1297607 13.3915157 4.0
22.1437759 6.13853264 4.0
6.31864643 27.8395309 4.0
72.7722015 6.23265314 4.0
7.13650942 77.8801804 4.0
89.6039581 30.5793037 4.0
94.7402802 27.3964443 4.0
6.81716681 50.7673187 4.0
49.0468521 6.90915203 4.0
6.83938122 87.53125 4.0
81.2753754 8.64245701 4.0
8.75843811 68.3900528 4.0
89.8804779 19.5528088 4.0
9.33096218 18.3794117 4.0
30.7796516 8.87436771 4.0
87.9135513 9.24955463 4.0
10.7746687 93.6212387 4.0
29.9902592 37.1623497 4.0
37.45895 30.4364662 4.0
33.4642944 33.4126587 4.0
18.0469398 90.9128036 4.0
61.187748 6.0717845 4.0
87.9979324 30.7910023 4.0
32.1590614 62.52248 4.0
38.02425 70.0759277 4.0
9.28309155 48.2880821 4.0
52.4044113 8.96146584 4.0
11.1088095 44.1086845 4.0
9.10940552 57.7874489 4.0
43.3900681 9.35994148 4.0
11.1261683 61.1599731 4.0
40.4106827 11.6187305 4.0
10.0355015 87.6420441 4.0
10.7350769 9.5398531 4.0
14.534914 88.8217621 4.0
67.6143723 11.6816082 4.0
12.2378502 81.7526169 4.0
64.6077347 11.0343742 4.0
9.62982178 85.4684982 4.0
17.9778633 11.698595 4.0
14.748024 9.44557095 4.0
11.5163832 32.0783997 4.0
9.73065853 35.0460052 4.0
8.46030712 13.8307695 4.0
7.24060965 64.8072891 4.0
34.0795593 7.87258768 4.0
83.5857773 32.017231 4.0
39.375721 30.296423 4.0
30.2546234 54.4168205 4.0
45.3716774 30.9874668 4.0
93.2713013 20.5320435 4.0
96.0555038 14.4131861 4.0
30.4886951 6.85977411 4.0
33.6854057 6.94184732 4.0
7.78882265 15.5409756 4.0
6.15779352 18.9707508 4.0
81.2439957 6.19931269 4.0
6.64368629 69.2039566 4.0
7.05225563 66.3039017 4.0
32.7355537 90.9963226 4.0
85.7976379 8.69785309 4.0
91.6885757 14.9030066 4.0
88.1558762 29.7498894 4.0
28.3267612 77.7407913 4.0
77.2044907 31.0544052 4.0
81.5581741 27.8574982 4.0
28.9040489 81.5792007 4.0
69.3790512 27.5789585 4.0
74.4990616 28.7373753 4.0
30.4050655 40.5570564 4.0
30.8456879 74.0415344 4.0
60.5631828 8.5818758 4.0
8.69553089 38.292675 4.0
29.3303947 85.2118301 4.0
65.0905838 28.9173775 4.0
29.3324928 88.9489288 4.0
61.0284691 27.2590122 4.0
32.7481041 47.5976334 4.0
53.6288109 33.7731018 4.0
72.5524292 7.91524124 4.0
9.58581066 76.590126 4.0
22.0144444 8.0966711 4.0
8.44795418 27.9355221 4.0
28.744669 44.1131554 4.0
55.9870567 27.8136005 4.0
27.834362 55.5368576 4.0
43.7575531 28.5973206 4.0
51.7722511 37.8918495 4.0
36.4380112 47.7690048 4.0
73.0529785 4.49912214 4.0
4.43959475 77.7838364 4.0
22.1787624 4.1500535 4.0
4.1967802 27.8413677 4.0
32.2094383 64.3288116 4.0
5.70662594 54.2023506 4.0
45.5599899 6.07843971 4.0
34.3194008 53.3339424 4.0
87.1882553 31.0890751 4.0
81.8477783 33.811367 4.0
96.5336609 26.7375679 4.0
4.20304775 51.9865646 4.0
47.7757797 4.31141615 4.0
9.76941299 67.1368561 4.0
82.371048 9.75655174 4.0
89.4679184 17.9452209 4.0
11.5389643 16.3760777 4.0
32.681118 9.92818451 4.0
39.0874825 28.1763935 4.0
28.5065193 40.721096 4.0
30.6608601 52.7562752 4.0
47.2376709 31.76614 4.0
35.5026741 28.5549259 4.0
29.5778389 35.4410477 4.0
16.3477917 90.5549469 4.0
60.5005112 4.20933008 4.0
4.27072477 39.7337723 4.0
30.3895607 60.3044777 4.0
10.8351784 57.8486099 4.0
43.1535721 11.5542746 4.0
38.4575272 10.2745419 4.0
9.40707493 63.2020988 4.0
9.72167683 12.3173361 4.0
36.3831978 10.4490862 4.0
9.04342556 64.9884491 4.0
89.6658249 12.108758 4.0
90.9778061 27.7904835 4.0
79.8768082 26.2815514 4.0
59.2944221 9.93213463 4.0
27.8390312 86.9385986 4.0
10.2834044 10.6307297 4.0
30.8884869 47.5486755 4.0
53.7520866 31.7471313 4.0
31.6946964 72.1929626 4.0
72.0145874 9.67229462 4.0
10.6395521 77.9427338 4.0
74.0118866 6.4789176 4.0
6.85724163 75.5569687 4.0
21.8323135 10.0376368 4.0
24.093996 6.35712767 4.0
10.4553223 28.4544792 4.0
6.4142561 25.9090443 4.0
28.6304474 42.4141197 4.0
27.2181129 57.2439156 4.0
58.7791443 27.1650982 4.0
41.33078 27.7274475 4.0
51.5788422 35.7416115 4.0
34.5966415 49.5636559 4.0
28.7022972 73.6165771 4.0
13.1256857 44.9114571 4.0
56.0634155 14.0120983 4.0
93.8564301 22.6397476 4.0
12.732233 60.3977737 4.0
39.5164223 13.6093941 4.0
86.632019 29.8324089 4.0
11.4997692 34.9954453 4.0
13.173851 10.9463129 4.0
11.5061197 85.2062454 4.0
26.6345406 75.8457565 4.0
28.0435677 79.6737213 4.0
71.7061462 27.1648254 4.0
52.9174767 11.6554193 4.0
14.1969585 87.0268021 4.0
63.3574028 27.4632339 4.0
27.8396149 83.4738083 4.0
67.4889145 26.2818623 4.0
76.1086731 28.1434441 4.0
21.2725677 93.4625778 4.0
67.3543396 13.4140635 4.0
13.7382984 82.0883789 4.0
17.5802765 13.4916458 4.0
13.4651985 31.088438 4.0
32.6786232 51.2457695 4.0
35.9363327 68.2372131 4.0
30.7274876 65.9235687 4.0
25.9611263 54.9541702 4.0
26.9118729 45.8997993 4.0
54.274929 27.6336308 4.0
44.423069 26.8846149 4.0
36.3585205 51.6610451 4.0
61.8790512 7.6518569 4.0
30.3365669 64.5260468 4.0
27.9417667 7.24154758 4.0
6.1941123 21.8103867 4.0
78.7315292 6.18712759 4.0
7.1824522 71.5569534 4.0
82.9117203 27.3218975 4.0
88.4187012 28.0058594 4.0
29.4539814 94.4589844 4.0
33.7578926 68.2313995 4.0
34.0326805 66.2620163 4.0
30.8741684 51.0397873 4.0
9.77210999 36.4436035 4.0
11.7156382 10.8532619 4.0
10.8256159 86.2742233 4.0
63.102623 10.533062 4.0
13.2685556 35.1119537 4.0
13.8433743 13.1085062 4.0
13.1027546 85.412056 4.0
64.0815201 13.1400843 4.0
81.315506 10.6326313 4.0
87.655571 19.1204472 4.0
11.6367998 17.8291264 4.0
30.8374386 10.1738615 4.0
49.1128159 33.2641029 4.0
31.2592239 33.318573 4.0
18.6179848 89.4161377 4.0
90.2782059 11.2546215 4.0
78.575676 27.8569317 4.0
81.7973404 25.7365837 4.0
9.62485123 42.8265266 4.0
26.1818161 88.5321808 4.0
30.7894211 45.7832832 4.0
55.6634712 31.8942242 4.0
69.6985474 10.5963249 4.0
10.6888285 80.4621811 4.0
19.9949341 9.90018749 4.0
10.0159101 30.1960716 4.0
25.3759689 56.665905 4.0
42.6121788 26.0054092 4.0
28.4153633 59.6580811 4.0
54.7844582 14.3607092 4.0
14.0908813 47.1325989 4.0
41.2492638 14.6197348 4.0
85.8984451 27.8968182 4.0
26.3465042 77.5398941 4.0
68.9268875 24.988575 4.0
27.6143436 81.9401398 4.0
27.5656433 94.3192139 4.0
13.102561 56.3647499 4.0
44.0766296 13.1639566 4.0
10.6854706 49.1437721 4.0
51.423069 10.5450306 4.0
60.8626556 24.6714573 4.0
65.3841705 26.5022392 4.0
26.5258732 85.0255051 4.0
73.8788452 26.3621788 4.0
65.9120178 15.0252504 4.0
14.17097 83.2512817 4.0
16.7535896 15.1093578 4.0
13.6869087 33.3766441 4.0
34.4965706 51.4576035 4.0
31.6699104 67.8712769 4.0
27.131752 47.6036301 4.0
52.4628296 27.4146709 4.0
26.4708462 53.0651169 4.0
46.3956375 27.637167 4.0
26.767704 44.2146111 4.0
56.6186714 25.49617 4.0
73.7299957 10.4466276 4.0
11.4896107 75.6701584 4.0
11.1393204 26.7794571 4.0
23.6496925 10.259594 4.0
52.9829445 14.0694513 4.0
13.2584267 48.5897903 4.0
51.7763824 31.4693699 4.0
30.9288387 49.3055954 4.0
30.9919872 69.6616974 4.0
89.8119736 25.810463 4.0
27.5709839 92.4928055 4.0
9.8249197 37.5076637 4.0
62.3889465 8.7942152 4.0
6.25832558 24.3071995 4.0
26.0606709 6.69505882 4.0
76.111084 6.47145271 4.0
6.88042164 73.4863129 4.0
10.0507174 14.6581564 4.0
34.7892456 9.05724716 4.0
47.3173485 6.37819338 4.0
6.10189629 52.4309692 4.0
27.8531952 64.0193634 4.0
30.2372894 38.8621101 4.0
94.833046 25.8278351 4.0
49.5112305 35.7448006 4.0
77.4914551 7.80463409 4.0
9.00250149 73.2924652 4.0
7.75721216 23.3596516 4.0
92.0750809 24.0215321 4.0
25.7197418 8.70298767 4.0
14.0379725 29.7710266 4.0
19.5938187 14.1006899 4.0
14.7430534 79.0160141 4.0
72.0457077 14.2019176 4.0
23.8811913 91.87677 4.0
33.870369 31.5556164 4.0
15.8552275 86.3702774 4.0
23.6346893 95.9302597 4.0
77.3430786 4.87072706 4.0
4.68489981 73.4876938 4.0
4.50647545 23.5429211 4.0
26.3353271 4.60131025 4.0
95.1813126 23.7194996 4.0
36.9794197 14.5088921 4.0
13.7054758 61.8334579 4.0
15.3546295 42.224041 4.0
57.6479187 14.1818895 4.0
26.5758953 74.369957 4.0
26.6493435 40.867012 4.0
39.9554596 25.5433464 4.0
29.5698395 67.1656342 4.0
10.8465223 65.6208191 4.0
11.8714962 14.9143724 4.0
34.5615196 10.3496523 4.0
7.83560133 52.9255676 4.0
46.859333 8.36736679 4.0
93.0804062 26.752985 4.0
93.760994 25.0959358 4.0
25.6243935 94.1205368 4.0
60.787117 11.159606 4.0
52.1243935 29.4013786 4.0
29.017498 47.5384674 4.0
49.7965393 30.989048 4.0
72.9010849 12.3756943 4.0
12.2415133 76.8666153 4.0
23.4064941 12.0935907 4.0
12.9918537 27.6882381 4.0
24.907011 73.0595551 4.0
24.6433773 39.4393883 4.0
39.024353 23.7078838 4.0
80.2105637 9.98878956 4.0
9.47502422 70.0415115 4.0
29.163826 9.79218769 4.0
47.111763 34.1695824 4.0
20.3364296 90.3599777 4.0
78.3252029 26.1424274 4.0
27.6389103 90.6482544 4.0
26.5197525 58.9567833 4.0
15.2546167 60.3066139 4.0
38.7206764 15.4973459 4.0
27.6409454 96.1833267 4.0
28.9753513 52.4516983 4.0
47.8575783 30.1581745 4.0
52.7298584 25.5798283 4.0
25.2520103 47.803978 4.0
76.334259 9.53163147 4.0
11.0586891 74.3803635 4.0
25.3981113 10.6165333 4.0
10.7317181 24.0219269 4.0
77.9221802 10.6537008 4.0
10.8988924 72.9327164 4.0
9.65271282 21.9346657 4.0
89.5176315 22.0479603 4.0
27.1220493 11.0890436 4.0
15.6423216 30.4359245 4.0
14.6605606 28.4337521 4.0
21.5746288 13.6815157 4.0
18.2810116 15.7363005 4.0
13.347537 77.9842529 4.0
14.7166729 81.2174759 4.0
69.3812408 15.0177679 4.0
22.6287193 89.3973236 4.0
23.5868454 93.8464966 4.0
13.7073765 64.8335724 4.0
59.915596 12.8007793 4.0
13.9110842 40.6859131 4.0
14.8554058 45.7902527 4.0
56.086834 15.4124842 4.0
84.1595383 26.2396984 4.0
27.1680355 72.2769623 4.0
26.5199738 39.2832527 4.0
38.3859596 26.1798592 4.0
9.50030613 53.3065491 4.0
47.9486542 10.1195164 4.0
87.980072 14.6180677 4.0
86.3650742 11.8246784 4.0
26.4040794 63.0273666 4.0
51.0825424 25.0976009 4.0
25.6147861 49.5258636 4.0
51.7217598 23.0176945 4.0
23.5401325 48.2198906 4.0
86.5605469 25.8570213 4.0
27.5621452 61.4215927 4.0
23.9671326 59.9220543 4.0
76.8355103 24.5272846 4.0
77.0502014 12.4872179 4.0
12.7319727 73.8430786 4.0
12.2982807 23.0371819 4.0
26.7361469 12.9422874 4.0
23.0304489 74.5455551 4.0
42.2207451 23.9257698 4.0
22.9488525 42.2823639 4.0
90.3494034 20.6814384 4.0
16.231184 29.0917015 4.0
15.7649841 77.7571106 4.0
24.2708321 89.9767914 4.0
59.4496803 14.8996696 4.0
16.1642151 39.9867973 4.0
85.3110428 13.0269604 4.0
26.6065845 65.2944031 4.0
89.8838348 24.0474815 4.0
74.5248566 13.3600569 4.0
13.6031876 76.0007095 4.0
23.1817322 13.7900772 4.0
13.8350258 26.3508244 4.0
26.2442474 70.167984 4.0
61.606308 13.5413713 4.0
14.1406975 38.6953011 4.0
26.3512592 37.797184 4.0
36.7357903 26.5858707 4.0
15.778327 47.9384499 4.0
52.4205055 15.4079103 4.0
16.5432472 83.7890854 4.0
36.1251984 16.0457325 4.0
14.9611464 63.1036034 4.0
46.9376106 25.8164654 4.0
24.4416809 52.9819565 4.0
27.4910393 67.1741333 4.0
27.5011139 50.8424721 4.0
48.8443832 26.4720898 4.0
27.6364822 65.9708405 4.0
86.8704071 17.9816265 4.0
73.0234985 23.9547863 4.0
27.3347034 49.2903366 4.0
17.2031555 45.404007 4.0
55.696682 17.6461372 4.0
15.0451918 57.4442024 4.0
42.9928055 16.9593582 4.0
16.5836964 81.7064896 4.0
68.9113617 17.2225933 4.0
19.4855099 16.9255676 4.0
17.3240585 31.0419178 4.0
23.5597382 85.9821701 4.0
64.8059082 24.4163818 4.0
64.4642944 15.2907505 4.0
15.5599089 14.4398804 4.0
14.8771639 35.4674683 4.0
24.6481705 44.2767792 4.0
55.7488289 23.2308178 4.0
34.1406212 15.2069521 4.0
15.6370287 65.6931915 4.0
17.8879204 85.3728867 4.0
13.4200068 24.1568279 4.0
76.227272 14.3706264 4.0
14.4798126 74.4703369 4.0
24.7073784 14.1553249 4.0
58.9766769 17.4769535 4.0
17.806776 39.4951668 4.0
35.3944626 17.5015087 4.0
17.8138676 63.4976883 4.0
72.8921356 16.9962578 4.0
16.6379471 76.4489136 4.0
22.469265 17.2693233 4.0
16.8428783 27.7854519 4.0
47.4304771 23.9435425 4.0
22.9639168 52.9987793 4.0
25.7826271 66.7100449 4.0
87.6565781 22.8079777 4.0
22.4660873 46.4833946 4.0
22.9681377 57.7373428 4.0
79.5199509 22.6104031 4.0
23.2387123 72.8112259 4.0
43.7484627 22.7991829 4.0
40.4423141 23.0047951 4.0
22.5928059 39.7469749 4.0
84.1802597 14.5409985 4.0
17.5314846 35.0015907 4.0
64.9468613 17.4677582 4.0
17.6873837 56.3637962 4.0
43.3568344 19.0616016 4.0
17.4723091 48.6447945 4.0
52.0559769 16.8948517 4.0
25.0834427 68.1758652 4.0
14.3796091 54.7611198 4.0
45.8195724 14.60466 4.0
14.983614 49.3884468 4.0
51.0220413 14.6279373 4.0
85.7697372 15.0926142 4.0
62.8669205 14.0510502 4.0
14.4397192 37.0214806 4.0
36.1482391 24.858057 4.0
25.272337 35.0189247 4.0
85.9376221 17.0753574 4.0
86.2040634 23.625124 4.0
53.3270073 18.9605408 4.0
18.1574078 47.2645035 4.0
18.4215488 33.2236595 4.0
17.7972202 82.4063339 4.0
66.7411041 18.4311485 4.0
27.8271198 15.453887 4.0
14.1126728 72.324791 4.0
78.7687531 13.3925962 4.0
13.7120256 21.9426765 4.0
20.4987297 18.242506 4.0
18.5751038 80.7218933 4.0
70.5156784 17.7365913 4.0
19.2464867 41.5977173 4.0
57.372654 19.1340637 4.0
23.8836021 84.4389572 4.0
66.0834579 21.9945965 4.0
62.679039 22.8694344 4.0
21.5428658 86.9220734 4.0
75.6287155 22.8457184 4.0
71.8041306 23.8411007 4.0
85.9655838 19.9593525 4.0
15.3843269 27.1026115 4.0
73.7083893 15.1950483 4.0
14.5262356 76.9083405 4.0
19.096962 61.6474648 4.0
36.728714 18.4547615 4.0
22.4414501 54.1886902 4.0
45.5305748 23.2270203 4.0
51.2373848 20.646471 4.0
21.315506 48.1797752 4.0
22.306736 59.3002892 4.0
23.5912552 56.1671638 4.0
81.5897446 23.4169712 4.0
77.7574539 20.940115 4.0
23.7093544 71.225029 4.0
23.1576519 76.3130798 4.0
22.613802 37.6732597 4.0
81.45858 12.1552391 4.0
41.5726814 19.1392803 4.0
34.6870079 25.1833458 4.0
27.0354748 34.248436 4.0
14.9469595 67.6233673 4.0
32.2385941 16.0431538 4.0
19.9140739 86.1274872 4.0
54.3388443 20.5628662 4.0
16.130394 18.5435829 4.0
29.5871544 16.1799717 4.0
14.193655 70.9737396 4.0
80.4437561 14.114068 4.0
15.1929302 20.9230824 4.0
18.8618126 19.2574863 4.0
68.5453568 19.3123131 4.0
19.2231464 43.508461 4.0
54.9113884 19.4103565 4.0
23.99086 83.0218048 4.0
69.222496 22.9171524 4.0
64.2911911 21.9907265 4.0
72.9928818 21.8736248 4.0
85.1866608 22.2420101 4.0
85.7305984 18.7829342 4.0
77.9994431 15.3623238 4.0
15.3687325 73.3022079 4.0
14.7157478 23.1029186 4.0
27.0957394 17.4198952 4.0
23.3593616 67.5963058 4.0
49.485817 13.6980476 4.0
14.1700573 50.8863106 4.0
15.2200899 53.1704292 4.0
47.3525772 14.740592 4.0
61.2242165 15.3654766 4.0
15.9897137 38.5629463 4.0
83.9474335 23.4434509 4.0
63.0887794 19.3453617 4.0
17.6353836 36.8162727 4.0
18.5200939 54.5642242 4.0
45.0359039 19.0107727 4.0
50.0653229 17.8500328 4.0
19.1060295 49.2306824 4.0
19.3164158 65.4015808 4.0
34.4026451 18.8238869 4.0
22.2801037 50.086525 4.0
49.9004784 21.4480801 4.0
33.1500664 25.3552628 4.0
26.0027637 32.6250229 4.0
43.7241859 21.0328121 4.0
23.8119812 77.9943619 4.0
21.2575836 76.6675949 4.0
35.3723373 13.7386866 4.0
17.9914589 87.2368774 4.0
19.7172127 63.9767494 4.0
35.7499008 19.8031693 4.0
39.1691399 18.2306709 4.0
17.8179035 60.4348679 4.0
22.0967922 51.826683 4.0
47.9193039 22.2249241 4.0
35.5547028 23.2271538 4.0
38.1936302 22.0670567 4.0
27.7009296 35.8611565 4.0
35.1335831 26.8237705 4.0
16.7338428 70.2765427 4.0
31.0501442 17.2215977 4.0
22.7870502 65.3508835 4.0
15.9776907 51.6238976 4.0
47.1126976 16.4181023 4.0
64.6521225 19.6864319 4.0
61.445713 19.4287663 4.0
19.1897469 38.1419754 4.0
19.710001 35.3898926 4.0
19.4417019 56.7882195 4.0
17.6932507 52.2899361 4.0
46.6069946 17.6863155 4.0
47.9854202 18.5119381 4.0
18.4287224 50.7322426 4.0
51.679821 18.5701313 4.0
19.776989 47.7203522 4.0
19.3736439 67.3712997 4.0
32.2277412 18.468935 4.0
69.6317215 21.3798027 4.0
22.1756096 82.6824341 4.0
61.4752617 23.1259251 4.0
23.1059322 87.631546 4.0
26.7945023 19.3585701 4.0
77.2159042 17.1962109 4.0
16.1030064 74.2700043 4.0
17.0178375 24.0922356 4.0
22.4934216 34.9176788 4.0
81.8560715 14.7533073 4.0
81.1204681 21.0168095 4.0
21.2272625 57.2348595 4.0
72.1263199 18.738821 4.0
22.8446541 19.4776821 4.0
19.2931919 27.730238 4.0
19.234024 39.2431755 4.0
59.912365 19.9041195 4.0
59.4943428 22.7355156 4.0
13.9064188 19.3964462 4.0
82.9798813 17.9402332 4.0
22.5018768 69.1651459 4.0
77.7663422 19.4470768 4.0
30.814085 14.2512217 4.0
12.7226067 69.3696747 4.0
19.1476784 76.5602417 4.0
74.6350632 17.9821701 4.0
24.8646183 19.2329559 4.0
18.5591736 25.2582397 4.0
36.2761154 21.6075172 4.0
50.6652336 27.0037479 4.0
85.6804581 4.01118946 4.0
34.6317368 3.73763061 4.0
3.69279623 65.2963791 4.0
20.1420269 51.2901573 4.0
47.1859856 19.845747 4.0
13.4272327 52.370182 4.0
23.4179783 80.6638718 4.0
21.8367825 55.6858864 4.0
82.6798859 22.0132294 4.0
81.6822662 18.9608269 4.0
31.5239487 25.4317665 4.0
24.5066185 31.1057491 4.0
19.3500595 70.138649 4.0
30.2680798 18.5633678 4.0
40.1990242 19.4582939 4.0
20.0903664 60.2301979 4.0
15.5703926 16.7204952 4.0
25.2656956 64.5259094 4.0
67.7479095 21.788229 4.0
70.1035538 23.8695107 4.0
21.3696098 26.7114944 4.0
22.7265282 21.9064617 4.0
22.8506317 32.3431129 4.0
21.3354378 36.2126465 4.0
81.4132156 16.6125851 4.0
79.2125931 18.5138702 4.0
19.1922531 78.8389359 4.0
23.7766495 63.7811394 4.0
31.4595184 20.3364391 4.0
28.4724026 19.703558 4.0
19.3889313 72.3211975 4.0
22.9604816 29.8305225 4.0
33.9653549 22.2925014 4.0
29.8040066 27.5463314 4.0
25.8687782 29.8486671 4.0
21.5855846 28.7281685 4.0
21.4219952 23.973074 4.0
23.7573967 36.0614052 4.0
20.449192 81.5116119 4.0
48.9471054 11.1295338 4.0
11.2438431 51.5912132 4.0
76.3694382 18.7948589 4.0
19.5371819 74.3254471 4.0
21.3285828 64.6316528 4.0
26.7532501 21.1390686 4.0
46.7327728 10.3825665 4.0
10.9325666 54.8770065 4.0
21.5811634 31.0252075 4.0
27.9694576 31.5453129 4.0
22.6910534 27.5462685 4.0
18.5919552 22.9561863 4.0
22.6006165 24.075367 4.0
32.8215332 22.0159988 4.0
73.9016724 19.8688946 4.0
27.6246777 26.680542 4.0
26.8454475 28.3367786 4.0
31.4012756 23.6574097 4.0
23.1221561 61.5156364 4.0
21.385704 72.538765 4.0
25.7909985 25.7518196 4.0
44.8498192 10.4603758 4.0
10.9626045 56.3565598 4.0
30.2284069 31.7161541 4.0
19.6271744 24.0733299 4.0
26.716898 22.7577782 4.0
28.2675381 23.1663456 4.0
25.0660553 27.2221432 4.0
30.34062 30.2402573 4.0
24.6564751 23.3970299 4.0
17.9036274 21.5515976 4.0
32.5974541 31.0953732 4.0
26.322237 24.2851791 4.0
32.4065399 28.6725979 4.0
22.1882229 44.1187553 4.0
38.022316 93.5874405 4.0
95.961731 37.8805656 4.0
4.01090622 89.4287109 4.0
10.400115 4.11605787 4.0
92.4440689 28.495739 4.0
85.4926682 30.8106155 4.0
61.9478683 21.256834 4.0
25.9166393 51.1853142 4.0
49.3233986 24.5942707 4.0
86.589325 9.87646103 4.0
5.61785507 88.5858231 4.0
38.2317543 45.9125061 4.0
76.4218063 26.0328903 4.0
18.9590874 59.6739388 4.0
22.0439796 25.5310173 4.0
66.0582504 1.54250693 4.0
67.8679886 1.46733904 4.0
1.74700093 83.8604736 4.0
1.86434627 81.8729095 4.0
97.9983368 37.9585304 4.0
98.2423019 16.0250168 4.0
98.2452698 17.9244938 4.0
38.1023178 53.8367882 4.0
38.1790009 51.849144 4.0
38.2195854 49.8628693 4.0
38.2308769 47.8854713 4.0
57.8126945 37.9737701 4.0
38.3517303 3.96607089 4.0
37.8866615 36.4540062 4.0
36.1979103 53.6069908 4.0
36.1114311 38.4122429 4.0
4.09316587 79.87323 4.0
6.24399948 96.2369232 4.0
78.5081482 3.85631251 4.0
3.96822357 14.3473501 4.0
3.60570598 21.9151783 4.0
94.2048645 11.1898985 4.0
3.6756258 61.5907593 4.0
92.5791702 32.841156 4.0
96.768425 30.0785789 4.0
36.111515 64.3556519 4.0
36.275425 75.9896622 4.0
34.7734146 94.5800247 4.0
33.0776482 94.6076813 4.0
86.8986435 34.2419853 4.0
33.2160072 5.55080318 4.0
4.9916234 87.140625 4.0
53.7890701 5.6652379 4.0
63.0231705 5.58549404 4.0
33.7358704 34.9679642 4.0
67.2246857 32.1048775 4.0
78.6795654 32.8748245 4.0
93.268837 30.9748478 4.0
91.7660904 30.1466885 4.0
11.5157061 95.3468246 4.0
34.1886597 72.3789062 4.0
22.0526619 91.2967682 4.0
13.1982336 92.8233719 4.0
17.943716 94.9766846 4.0
92.936554 21.7899666 4.0
86.5213547 32.6490288 4.0
85.1453476 32.4661865 4.0
80.382225 31.5035915 4.0
13.0110359 7.63639545 4.0
27.4608288 9.20790291 4.0
34.9093513 6.81577682 4.0
36.2168922 7.17685747 4.0
5.49897814 66.6145554 4.0
70.3986206 32.322197 4.0
48.4069748 8.71272564 4.0
49.9016685 9.53029823 4.0
5.75238514 45.359272 4.0
31.9531784 36.9239655 4.0
45.0847549 32.6560364 4.0
65.5049973 32.0951271 4.0
93.2186584 17.4796848 4.0
65.0848923 7.20781898 4.0
9.1585722 89.1526337 4.0
32.4498062 53.0495834 4.0
66.002121 31.0850391 4.0
10.6646271 89.8344498 4.0
9.01861286 9.74965477 4.0
11.5663033 92.0821457 4.0
31.0357838 90.9155045 4.0
29.3447456 90.8097687 4.0
90.307663 14.0878477 4.0
56.0358734 8.1260128 4.0
91.4082565 11.3831768 4.0
70.1592331 30.213131 4.0
25.9505997 90.3789978 4.0
20.9785652 88.6444702 4.0
32.8079033 72.9449005 4.0
9.17786121 71.6052094 4.0
7.35266876 56.095417 4.0
7.51480436 54.4776459 4.0
8.49568462 51.5159912 4.0
9.59843445 50.3593483 4.0
7.45451307 43.6668777 4.0
7.9663887 42.1656113 4.0
35.7576027 8.01452923 4.0
36.1450272 8.95022583 4.0
35.6699944 30.3934898 4.0
32.0711327 32.1253777 4.0
8.2583971 84.7618866 4.0
86.4292679 31.4851379 4.0
80.3335648 29.6555061 4.0
78.7726364 29.5808392 4.0
91.4991074 16.725378 4.0
91.5533066 22.1628075 4.0
70.8418274 7.24942064 4.0
13.2081547 9.36561203 4.0
28.9003296 11.6151323 4.0
17.5950394 92.0601883 4.0
48.3607216 28.3399105 4.0
11.3706026 88.3039627 4.0
80.0289078 7.46835852 4.0
61.6875763 9.79203987 4.0
36.0696716 12.1335354 4.0
34.0971794 30.1318436 4.0
34.8836861 7.94273901 4.0
7.61503029 86.207962 4.0
12.8573246 88.802803 4.0
34.3701859 11.7866821 4.0
55.7565041 29.883564 4.0
51.79002 13.1327534 4.0
45.5857124 12.7051506 4.0
84.8412399 7.44623423 4.0
27.7494164 88.7866974 4.0
24.6395512 88.1565628 4.0
28.9321156 69.0536118 4.0
28.1123486 70.7552338 4.0
55.6209221 12.1594658 4.0
31.2784767 31.5093002 4.0
14.5366755 11.2169437 4.0
16.1578941 11.4405117 4.0
21.6283855 11.941349 4.0
89.7524109 27.2022972 4.0
10.9460917 71.364151 4.0
11.0323944 69.747757 4.0
9.31064034 61.3383255 4.0
9.28175259 54.7274132 4.0
9.70771599 52.1883316 4.0
8.77940083 43.7854919 4.0
10.6691437 41.4680557 4.0
11.730814 39.953949 4.0
33.8987656 28.5570297 4.0
34.2375641 13.0238075 4.0
13.4471741 80.2368469 4.0
69.1289825 12.2639685 4.0
28.3572502 39.0841103 4.0
12.0850039 86.8831406 4.0
70.9440384 28.7023029 4.0
25.7126808 60.6135139 4.0
90.4603653 16.1965103 4.0
89.2679291 15.4429827 4.0
88.8822937 13.3127947 4.0
30.7952595 11.9540281 4.0
67.1723709 28.288559 4.0
77.2842941 29.5047588 4.0
77.1352005 27.88521 4.0
70.5365524 13.2216988 4.0
10.8485069 20.0378399 4.0
9.61607265 68.8813629 4.0
32.7402878 29.9507027 4.0
42.9952965 13.644721 4.0
30.9347992 87.1706924 4.0
65.8652802 27.9244671 4.0
29.1491165 50.867733 4.0
10.2948256 47.1675072 4.0
32.9444771 13.5865173 4.0
89.3192978 8.63311672 4.0
11.1520052 53.3958549 4.0
10.8450041 45.8121376 4.0
84.498848 9.77279568 4.0
88.2192917 26.0085106 4.0
26.3902855 86.7343903 4.0
22.1006393 85.3456879 4.0
20.7497444 84.4083939 4.0
10.5187817 13.5547323 4.0
68.5819168 13.5233545 4.0
26.9687157 68.6448517 4.0
88.3936539 20.4761982 4.0
85.1780701 24.8286781 4.0
12.5715055 72.5644913 4.0
44.4208908 14.9188595 4.0
48.9672813 15.3965979 4.0
12.0377007 19.018713 4.0
12.8959827 12.0910501 4.0
26.1510639 14.8280802 4.0
75.1997757 27.2765961 4.0
12.4827518 20.8407631 4.0
73.127327 28.004427 4.0
70.2515411 26.1953526 4.0
75.8560715 29.3087845 4.0
61.1306801 17.4093685 4.0
53.8669243 14.7523146 4.0
53.7750664 15.8839045 4.0
26.0237637 36.3595352 4.0
88.4357986 10.9758482 4.0
86.6358185 13.8187695 4.0
12.4070005 38.3811913 4.0
31.8189812 27.1235332 4.0
31.5039444 30.7075195 4.0
10.7718153 68.2008514 4.0
87.0246964 15.9022827 4.0
62.9440117 15.5425997 4.0
42.9024391 15.0618992 4.0
10.0039415 39.2405853 4.0
81.0905533 26.5554008 4.0
14.9210958 84.7249069 4.0
11.9330654 13.5185242 4.0
27.6489983 52.0979042 4.0
57.3963509 28.2559338 4.0
27.9062786 85.1621094 4.0
22.2199993 63.0753784 4.0
53.6759567 17.3745441 4.0
45.9606209 16.0026512 4.0
48.5356865 17.0463505 4.0
11.8071804 30.5773163 4.0
10.8956242 37.9307899 4.0
11.3068495 36.4906387 4.0
24.5804768 37.9916229 4.0
24.8758297 40.9515228 4.0
24.7944489 42.5766335 4.0
13.6051321 17.6091404 4.0
67.4887772 15.0893583 4.0
25.1814423 84.8050003 4.0
22.7367821 84.1996307 4.0
85.2703934 16.2083168 4.0
24.3766441 69.6846848 4.0
14.1040173 43.5059471 4.0
34.235363 16.77738 4.0
38.1133423 19.5913239 4.0
39.7303352 21.0441132 4.0
26.2593708 73.281662 4.0
14.1957674 73.4865341 4.0
14.5632715 69.4720459 4.0
24.1821747 15.5262556 4.0
31.3523312 19.0993118 4.0
14.002861 15.1102629 4.0
87.124855 10.870944 4.0
86.9942322 24.5922489 4.0
72.4655151 25.6342793 4.0
78.2705383 24.4468307 4.0
52.9283333 24.1413536 4.0
31.0912151 29.0968018 4.0
14.7434149 25.131815 4.0
12.4361439 46.3700294 4.0
85.374649 10.8556871 4.0
84.1576462 12.037322 4.0
82.8901978 13.3262234 4.0
21.5314655 60.8595428 4.0
43.4457588 24.4782372 4.0
68.0434723 23.402422 4.0
20.4704628 32.0873222 4.0
28.0297832 24.9456673 4.0
54.2085037 23.7917938 4.0
31.7813892 29.9512806 4.0
15.4408197 24.105484 4.0
17.313364 78.5340652 4.0
16.1987209 22.3613186 4.0
42.0452614 22.6459713 4.0
12.3246479 54.9970398 4.0
15.5035362 75.752182 4.0
29.2308483 83.3976059 4.0
23.9366894 49.8683243 4.0
12.5250254 58.1256866 4.0
15.7072935 44.534317 4.0
16.76717 43.3919296 4.0
18.0246296 42.4527359 4.0
56.1550713 20.5609722 4.0
57.1514473 22.1559391 4.0
24.7881126 74.5115128 4.0
25.2899342 83.429512 4.0
25.0010071 77.1282806 4.0
23.4661579 41.0119247 4.0
71.1767273 22.7110863 4.0
77.8312225 22.6748562 4.0
82.8883743 15.2602539 4.0
82.8421097 16.5588474 4.0
17.9463406 17.9230976 4.0
17.6445923 38.2701912 4.0
18.2786961 40.6170425 4.0
48.6104164 20.7407227 4.0
15.5440273 71.2230148 4.0
16.9526329 68.2087021 4.0
17.6859417 77.1983643 4.0
32.8900414 23.6990795 4.0
29.8537617 23.4937515 4.0
17.7008743 26.5708904 4.0
19.0282516 31.5667934 4.0
24.1092434 24.8158722 4.0
29.9899139 20.0877666 4.0
53.4829826 22.255579 4.0
79.4363174 20.7650204 4.0
16.0126247 55.6583595 4.0
70.0406723 19.0860519 4.0
80.7090073 22.3621864 4.0
84.4821091 18.2026901 4.0
36.8820305 22.8272419 4.0
46.2197723 18.8265686 4.0
54.9541283 21.6437778 4.0
60.6909561 21.7917576 4.0
26.3831139 82.1388855 4.0
25.449482 82.407692 4.0
24.637125 81.6981506 4.0
34.942009 21.3814964 4.0
16.1116524 64.0935593 4.0
16.1024952 35.8973961 4.0
27.1965275 80.7971878 4.0
25.9055061 80.8882446 4.0
67.4769058 20.3959637 4.0
12.9259758 32.1612701 4.0
19.9486332 22.2285366 4.0
66.0811996 16.4779987 4.0
20.962923 53.5213814 4.0
16.5612621 32.5664749 4.0
18.0424099 44.3399315 4.0
18.6817856 46.0379372 4.0
31.4068375 21.911581 4.0
28.3531418 21.4330578 4.0
18.5514965 68.5420456 4.0
20.4373589 66.1302643 4.0
15.6235819 72.3416214 4.0
22.9280205 15.4290953 4.0
21.7669239 15.0270472 4.0
14.8915272 31.8466949 4.0
20.4856014 37.0795059 4.0
19.243 36.8275146 4.0
20.746994 39.3864021 4.0
58.1576385 23.8985023 4.0
18.0216141 28.4195652 4.0
19.9681568 26.1444798 4.0
21.1471024 19.4974117 4.0
17.4790421 75.2965698 4.0
19.3581257 52.9000549 4.0
24.9510021 21.1205997 4.0
20.7905254 68.4069214 4.0
18.1482811 74.1274643 4.0
19.2431889 40.1226044 4.0
18.9559097 45.0914764 4.0
20.2019958 44.7656975 4.0
22.3651237 48.8103752 4.0
13.9796782 59.063961 4.0
20.7827625 27.7317581 4.0
20.9110527 23.0330124 4.0
21.5352421 41.3868675 4.0
20.2187157 40.6374664 4.0
18.9797344 58.4209137 4.0
96.0 0.0 6.0
94.0 0.0 6.0
90.0 0.0 6.0
88.0 0.0 6.0
84.0 0.0 6.0
82.0 0.0 6.0
78.0 0.0 6.0
76.0 0.0 6.0
72.0 0.0 6.0
68.0 0.0 6.0
66.0 0.0 6.0
62.0 0.0 6.0
60.0 0.0 6.0
56.0 0.0 6.0
54.0 0.0 6.0
50.0 0.0 6.0
46.0 0.0 6.0
44.0 0.0 6.0
40.0 0.0 6.0
38.0 0.0 6.0
34.0 0.0 6.0
32.0 0.0 6.0
28.0 0.0 6.0
26.0 0.0 6.0
22.0 0.0 6.0
18.0 0.0 6.0
16.0 0.0 6.0
12.0 0.0 6.0
10.0 0.0 6.0
6.0 0.0 6.0
4.0 0.0 6.0
100.0 0.0 6.0
0.0 0.0 6.0
0.0 4.0 6.0
0.0 6.0 6.0
0.0 10.0 6.0
0.0 12.0 6.0
0.0 16.0 6.0
0.0 18.0 6.0
0.0 22.0 6.0
0.0 24.0 6.0
0.0 28.0 6.0
0.0 32.0 6.0
0.0 34.0 6.0
0.0 38.0 6.0
0.0 40.0 6.0
0.0 44.0 6.0
0.0 46.0 6.0
0.0 50.0 6.0
0.0 54.0 6.0
0.0 56.0 6.0
0.0 60.0 6.0
0.0 62.0 6.0
0.0 66.0 6.0
0.0 68.0 6.0
0.0 72.0 6.0
0.0 74.0 6.0
0.0 78.0 6.0
0.0 82.0 6.0
0.0 84.0 6.0
0.0 88.0 6.0
0.0 90.0 6.0
0.0 94.0 6.0
0.0 96.0 6.0
0.0 100.0 6.0
4.0 100.0 6.0
10.0 100.0 6.0
14.0 100.0 6.0
20.0 100.0 6.0
24.0 100.0 6.0
30.0 100.0 6.0
34.0 100.0 6.0
40.0 100.0 6.0
40.0 44.0 6.0
40.0 48.0 6.0
40.0 52.0 6.0
40.0 54.0 6.0
40.0 58.0 6.0
40.0 62.0 6.0
40.0 66.0 6.0
40.0 70.0 6.0
40.0 74.0 6.0
40.0 78.0 6.0
40.0 82.0 6.0
40.0 84.0 6.0
40.0 88.0 6.0
40.0 92.0 6.0
40.0 96.0 6.0
40.0 40.0 6.0
96.0 40.0 6.0
92.0 40.0 6.0
88.0 40.0 6.0
86.0 40.0 6.0
82.0 40.0 6.0
78.0 40.0 6.0
74.0 40.0 6.0
70.0 40.0 6.0
66.0 40.0 6.0
62.0 40.0 6.0
58.0 40.0 6.0
56.0 40.0 6.0
52.0 40.0 6.0
48.0 40.0 6.0
44.0 40.0 6.0
100.0 40.0 6.0
100.0 36.0 6.0
100.0 30.0 6.0
100.0 26.0 6.0
100.0 20.0 6.0
100.0 16.0 6.0
100.0 10.0 6.0
100.0 6.0 6.0
4.15280294 4.16630173 6.0
8.3700285 4.30302286 6.0
12.4098711 3.93831658 6.0
16.310051 3.87328553 6.0
20.2036705 4.03112984 6.0
24.2145939 4.33294678 6.0
28.7772808 5.03288651 6.0
32.7411346 3.85475469 6.0
36.517067 3.82171869 6.0
42.0387802 3.86816287 6.0
45.8033981 4.06726742 6.0
50.004097 4.71917295 6.0
54.0183372 3.93797636 6.0
58.2245674 4.87414598 6.0
62.5502052 3.77882957 6.0
67.2750473 5.15574551 6.0
70.7734833 4.46764183 6.0
74.7921066 5.12396193 6.0
80.1252975 4.43903923 6.0
83.8619385 3.90427375 6.0
87.7472153 4.74412346 6.0
92.0174789 4.19015932 6.0
95.9748688 4.06366396 6.0
4.08784819 8.21089458 6.0
7.70617294 8.7223568 6.0
11.8222694 9.45137215 6.0
16.4834976 7.67375088 6.0
20.1508293 7.92666197 6.0
23.9054718 8.3372345 6.0
29.6148911 8.15605259 6.0
33.5872803 8.65404892 6.0
37.3790131 8.18856907 6.0
42.0682831 7.67571259 6.0
45.2545395 8.13835526 6.0
50.6868439 7.89065599 6.0
54.7233505 7.91246462 6.0
58.1124916 8.30289459 6.0
63.5312309 8.90739441 6.0
66.4926224 9.36891937 6.0
70.266922 8.85576248 6.0
74.6072693 8.20598602 6.0
78.887291 8.99817848 6.0
83.5705185 8.6196804 6.0
87.1733932 7.74610376 6.0
92.4673004 8.02637672 6.0
96.0442657 8.00386238 6.0
4.15784597 12.3741951 6.0
8.13913441 11.2280455 6.0
11.6115608 12.2554827 6.0
15.783946 13.1541872 6.0
19.8237171 11.9135256 6.0
25.0906906 12.4315615 6.0
28.5411053 13.5338497 6.0
32.6507111 11.8082571 6.0
37.7847595 12.6582613 6.0
41.9324951 12.8231945 6.0
47.5365639 12.5772104 6.0
50.3485565 12.1578379 6.0
54.0582619 12.9793854 6.0
57.7840309 11.7029543 6.0
62.4014587 12.0840816 6.0
65.8407898 13.2368259 6.0
71.3058472 11.4527121 6.0
75.3729706 11.4559326 6.0
79.5208511 11.5715017 6.0
83.1968002 10.9537067 6.0
87.5776596 12.5248318 6.0
91.1291122 12.7805576 6.0
95.5030365 12.2973223 6.0
3.75831175 16.2575455 6.0
9.60991383 16.2472248 6.0
13.1020365 16.4232578 6.0
17.3644218 16.8548775 6.0
20.8361092 15.8680401 6.0
25.001646 16.9155521 6.0
28.8136501 17.9389706 6.0
33.232933 17.5455017 6.0
37.7154274 17.0351391 6.0
40.7648697 16.8495979 6.0
44.923996 16.8988628 6.0
50.5142288 16.2069778 6.0
55.0853996 15.8484974 6.0
57.1431847 16.1924152 6.0
63.0562515 17.4309196 6.0
67.3248749 16.8482723 6.0
71.1770325 15.9822502 6.0
75.4041061 16.2060356 6.0
79.7553177 16.2358646 6.0
84.1440659 16.3749447 6.0
88.1792679 16.8311749 6.0
91.4832687 17.8696423 6.0
94.9203644 16.9201164 6.0
4.38782263 20.2206345 6.0
7.79606009 20.2994232 6.0
11.5397215 21.9488888 6.0
17.0244904 20.0665302 6.0
20.1300163 20.8272228 6.0
25.407053 22.435154 6.0
29.8942776 21.7187576 6.0
33.1837387 20.1862869 6.0
37.0446243 20.7140427 6.0
41.8205032 20.9896145 6.0
45.8697014 21.1519108 6.0
49.4784393 19.4253025 6.0
53.0983963 20.6343117 6.0
58.5140724 20.891243 6.0
63.0299683 20.8879604 6.0
66.159317 20.0903378 6.0
71.1514816 20.261879 6.0
75.8672943 20.6813812 6.0
83.9359207 20.3757648 6.0
86.7332458 21.3724556 6.0
91.6577988 20.5914078 6.0
95.0615692 20.9848003 6.0
4.2758131 25.8185272 6.0
8.92153645 25.581068 6.0
12.2322044 25.350338 6.0
16.2193375 25.7707939 6.0
20.7412853 24.9444885 6.0
23.4843674 26.2534599 6.0
29.8271694 25.3878326 6.0
34.2556419 23.6067848 6.0
37.5835686 24.3730526 6.0
41.2360458 24.6371765 6.0
45.0844116 25.1228313 6.0
49.7854538 22.8705997 6.0
54.516613 25.640873 6.0
59.3007126 25.176712 6.0
62.9642868 24.860117 6.0
66.5198059 24.0174923 6.0
71.1389465 24.8826885 6.0
74.7060623 24.7096901 6.0
80.1701279 24.4889812 6.0
82.8194733 24.7170162 6.0
88.1828995 24.3349209 6.0
91.5007782 26.0758648 6.0
96.0914612 25.1077728 6.0
4.12153435 29.8405972 6.0
8.12670517 29.9287109 6.0
12.3276138 29.1126747 6.0
17.891346 29.6010857 6.0
19.9165077 29.7743073 6.0
24.1680698 28.5607719 6.0
28.7385654 29.4620323 6.0
33.5126534 26.9827881 6.0
37.2080498 28.4549294 6.0
41.3557091 30.2081146 6.0
45.8551865 29.3451328 6.0
50.2635193 28.9758949 6.0
53.9765129 29.7054253 6.0
59.2410965 29.725811 6.0
62.8574982 29.844656 6.0
66.6092834 29.8013401 6.0
72.457695 29.682724 6.0
75.5888138 30.7709637 6.0
80.0881348 27.9142723 6.0
83.9328842 29.5340824 6.0
90.2335663 29.1997643 6.0
96.8320312 28.3486118 6.0
4.05126572 33.8147278 6.0
7.86805677 33.5986137 6.0
11.5691948 33.5320549 6.0
15.6512451 34.0631256 6.0
20.7817345 33.6513672 6.0
24.1799011 33.6730843 6.0
28.9775124 33.6707878 6.0
33.2053719 32.4453812 6.0
37.5459251 32.510643 6.0
41.5680809 34.3973045 6.0
46.5124626 32.8294144 6.0
51.5057793 33.5717773 6.0
55.6175842 33.8958321 6.0
59.4664459 33.9691467 6.0
63.0839119 33.9117432 6.0
66.2320786 33.289196 6.0
71.8458176 33.9285126 6.0
75.3805618 34.1727104 6.0
78.3972626 34.1357231 6.0
83.5370407 34.0955658 6.0
87.8008957 32.3388023 6.0
89.9807205 33.0815544 6.0
96.5144882 31.9332428 6.0
4.19800043 37.7831001 6.0
8.14406967 36.9041748 6.0
12.8731489 36.7465286 6.0
16.0549393 37.1026001 6.0
20.757597 38.1237068 6.0
24.7427673 36.8159218 6.0
28.1208649 37.4598198 6.0
32.189827 38.6742935 6.0
35.9814529 36.5879669 6.0
41.8842735 38.205143 6.0
45.5332794 36.2086601 6.0
49.7692986 37.9204025 6.0
53.7858467 37.9133072 6.0
59.7922363 37.9785843 6.0
63.7529221 37.907032 6.0
67.7615738 37.7140503 6.0
71.8479996 37.9386864 6.0
75.7865372 37.9757805 6.0
79.7641525 37.8336411 6.0
83.7548828 38.025013 6.0
87.7194824 37.9912453 6.0
91.7854843 37.6752167 6.0
96.0350113 35.8526955 6.0
4.09324217 41.738945 6.0
8.81849289 40.6585922 6.0
12.431735 42.4387627 6.0
16.890871 41.2837067 6.0
20.5276642 42.6177711 6.0
26.7052555 42.5306129 6.0
30.529047 42.270092 6.0
34.3961258 42.0997276 6.0
38.1927643 42.0220337 6.0
3.91039777 45.6618385 6.0
9.25484943 45.8131638 6.0
11.662838 47.7963028 6.0
16.5130119 46.5954971 6.0
20.3243256 46.237606 6.0
24.8194466 46.0546417 6.0
28.8794708 45.8209877 6.0
32.6718979 45.7659073 6.0
36.4192772 45.8305321 6.0
4.77405548 49.7210579 6.0
8.03316021 49.4093513 6.0
12.3197289 50.0527802 6.0
16.7371044 50.1016312 6.0
20.6857967 49.7393761 6.0
24.1830845 51.4275017 6.0
29.1357117 49.2390862 6.0
32.7705078 49.4234047 6.0
36.4353943 49.7092934 6.0
3.87597275 53.9978447 6.0
9.15812302 56.199646 6.0
12.8755178 53.8488464 6.0
16.8944473 53.9203987 6.0
20.149786 55.1324615 6.0
24.1427498 54.5679817 6.0
28.4243031 53.9264069 6.0
32.1190109 54.8081055 6.0
35.9799156 55.5280266 6.0
3.68565226 57.8081169 6.0
9.16372395 59.4611397 6.0
12.011548 59.2983932 6.0
16.8973866 58.5782089 6.0
20.6859741 58.7508354 6.0
24.7122173 58.3076591 6.0
29.1280937 57.841877 6.0
33.0435638 58.7932549 6.0
37.3656464 60.0388031 6.0
3.69408369 63.4390411 6.0
7.41960859 63.110508 6.0
11.7919788 63.3858795 6.0
16.4330254 61.7685623 6.0
20.6056347 62.3886909 6.0
24.7643566 62.2271843 6.0
29.6562099 62.5214233 6.0
34.2026138 62.6263733 6.0
38.0386848 64.1818771 6.0
3.82566929 67.1241684 6.0
8.50469875 66.5183182 6.0
12.6346502 67.078331 6.0
17.7474327 66.0749207 6.0
21.7947865 66.9165268 6.0
24.2558117 66.0605087 6.0
28.8530903 65.3733521 6.0
32.1786537 66.1324539 6.0
38.0261154 68.1219101 6.0
4.9681201 71.0353317 6.0
7.90629196 69.8165207 6.0
12.601656 71.0750198 6.0
17.3022614 72.5831985 6.0
21.7184258 70.7945633 6.0
25.4765396 71.6427689 6.0
29.9428158 71.4903107 6.0
33.3351173 70.4414902 6.0
38.0843239 72.0172119 6.0
4.52242661 75.7000198 6.0
9.07929611 75.0182953 6.0
13.0730591 74.9469681 6.0
14.5960293 75.3255463 6.0
21.2461987 74.5138168 6.0
24.8379269 75.9376144 6.0
28.5806446 75.7642593 6.0
32.496994 75.9791718 6.0
38.1397781 75.9810028 6.0
6.12833405 80.1760635 6.0
9.02919769 79.3044205 6.0
11.9899549 79.1563187 6.0
16.4112377 80.1904221 6.0
21.6344643 79.1844177 6.0
25.4465008 79.2600174 6.0
30.3586178 79.5625687 6.0
34.2984428 79.7133408 6.0
38.1055908 79.9152603 6.0
5.11151981 83.8960571 6.0
8.8939352 83.2650223 6.0
12.5922203 83.614151 6.0
15.5188236 82.4895325 6.0
19.2533894 83.4165497 6.0
26.5462074 83.4956131 6.0
30.7468262 83.3473053 6.0
34.2793007 83.5418472 6.0
38.0822792 83.8526993 6.0
3.52774525 87.5252457 6.0
8.81181717 86.9140854 6.0
13.0578899 87.5302963 6.0
16.6326694 88.444046 6.0
19.3906593 87.8338776 6.0
24.9696445 86.4078064 6.0
29.3275433 87.070549 6.0
34.3470154 87.4021301 6.0
38.1072197 87.7816772 6.0
4.90272856 91.5592346 6.0
8.14474487 90.7507935 6.0
16.4196415 92.1858826 6.0
19.5498638 91.8949509 6.0
25.7391472 92.2520828 6.0
29.3708534 92.6440811 6.0
34.4703255 91.1095123 6.0
38.1193008 91.6591644 6.0
4.22867298 96.0440826 6.0
10.0475225 96.6350555 6.0
13.8715944 95.7668915 6.0
17.8814087 96.3623047 6.0
21.6345825 95.9033051 6.0
25.6584339 96.0445862 6.0
29.5857906 96.2755585 6.0
33.3732033 96.3582687 6.0
37.4657669 95.6894913 6.0
98.0 0.0 6.0
92.0 0.0 6.0
86.0 0.0 6.0
80.0 0.0 6.0
74.0 0.0 6.0
70.0 0.0 6.0
64.0 0.0 6.0
58.0 0.0 6.0
52.0 0.0 6.0
48.0 0.0 6.0
42.0 0.0 6.0
36.0 0.0 6.0
30.0 0.0 6.0
24.0 0.0 6.0
20.0 0.0 6.0
14.0 0.0 6.0
8.0 0.0 6.0
2.0 0.0 6.0
0.0 2.0 6.0
0.0 8.0 6.0
0.0 14.0 6.0
0.0 20.0 6.0
0.0 26.0 6.0
0.0 30.0 6.0
0.0 36.0 6.0
0.0 42.0 6.0
0.0 48.0 6.0
0.0 52.0 6.0
0.0 58.0 6.0
0.0 64.0 6.0
0.0 70.0 6.0
0.0 76.0 6.0
0.0 80.0 6.0
0.0 86.0 6.0
0.0 92.0 6.0
0.0 98.0 6.0
2.0 100.0 6.0
6.0 100.0 6.0
8.0 100.0 6.0
12.0 100.0 6.0
16.0 100.0 6.0
18.0 100.0 6.0
22.0 100.0 6.0
26.0 100.0 6.0
28.0 100.0 6.0
32.0 100.0 6.0
36.0 100.0 6.0
38.0 100.0 6.0
40.0 42.0 6.0
40.0 46.0 6.0
40.0 50.0 6.0
40.0 56.0 6.0
40.0 60.0 6.0
40.0 64.0 6.0
40.0 68.0 6.0
40.0 72.0 6.0
40.0 76.0 6.0
40.0 80.0 6.0
40.0 86.0 6.0
40.0 90.0 6.0
40.0 94.0 6.0
40.0 98.0 6.0
98.0 40.0 6.0
94.0 40.0 6.0
90.0 40.0 6.0
84.0 40.0 6.0
80.0 40.0 6.0
76.0 40.0 6.0
72.0 40.0 6.0
68.0 40.0 6.0
64.0 40.0 6.0
60.0 40.0 6.0
54.0 40.0 6.0
50.0 40.0 6.0
46.0 40.0 6.0
42.0 40.0 6.0
100.0 38.0 6.0
100.0 34.0 6.0
100.0 32.0 6.0
100.0 28.0 6.0
100.0 24.0 6.0
100.0 22.0 6.0
100.0 18.0 6.0
100.0 14.0 6.0
100.0 12.0 6.0
100.0 8.0 6.0
100.0 4.0 6.0
100.0 2.0 6.0
97.9777451 2.02768016 6.0
97.9789886 4.03089714 6.0
2.07358479 8.10907173 6.0
2.05820894 12.1656446 6.0
1.98620641 14.1394176 6.0
1.93720841 18.1335659 6.0
2.00782228 20.0684948 6.0
2.10687375 23.8918495 6.0
2.13435316 25.8832397 6.0
2.0704968 29.9053726 6.0
37.7429237 57.8514519 6.0
38.2184906 43.9540253 6.0
93.9694748 2.0776248 6.0
91.9652557 2.12642908 6.0
87.9117432 2.24420738 6.0
85.9171677 2.07500529 6.0
81.9917374 2.00087476 6.0
80.0748444 2.11084795 6.0
75.9322968 2.9164319 6.0
73.6263351 2.43498516 6.0
69.6520309 1.77531433 6.0
66.3573608 3.21641779 6.0
60.154068 2.11116982 6.0
58.1199417 2.27115297 6.0
54.0369682 2.05160117 6.0
47.9454994 2.15375113 6.0
43.9783974 1.96019375 6.0
42.0242004 1.92016995 6.0
38.1807404 1.90586281 6.0
36.2688789 1.88322866 6.0
32.3249359 1.98014402 6.0
30.3312702 2.17806387 6.0
26.2567406 2.32453847 6.0
24.1695843 2.20366979 6.0
20.1300068 2.02931666 6.0
16.1644192 1.94480932 6.0
10.168519 2.053334 6.0
8.1655674 2.12163949 6.0
4.09534264 2.09816384 6.0
2.05239534 2.05588078 6.0
2.07770967 6.09192133 6.0
2.04366374 33.9119415 6.0
2.05847144 35.9143753 6.0
2.08272195 39.8729935 6.0
2.03317189 41.843544 6.0
1.99054623 45.8621902 6.0
2.10603094 51.906559 6.0
1.88036633 55.9323463 6.0
1.8405571 57.8952293 6.0
1.8424269 61.7781639 6.0
1.83979464 63.7194901 6.0
1.96613252 67.610199 6.0
2.15273523 69.6026917 6.0
2.33596849 73.6940613 6.0
2.24934721 75.7982941 6.0
1.99771571 79.8592148 6.0
21.8477383 98.0061569 6.0
25.8021641 98.0215759 6.0
29.7701359 98.1323318 6.0
3.44931078 83.8054047 6.0
1.72573626 85.8332291 6.0
15.9558249 98.0690842 6.0
2.06564093 89.8370972 6.0
2.29641581 91.8454437 6.0
2.14185452 95.9696274 6.0
2.05594397 97.9916992 6.0
6.07426167 98.1258545 6.0
12.0252962 98.2028503 6.0
33.6980057 98.1494827 6.0
2.1010766 47.8797226 6.0
38.0941925 81.8831406 6.0
38.1295471 77.9486542 6.0
55.8043098 37.9459114 6.0
98.1324539 34.0024071 6.0
98.3670959 28.1663036 6.0
97.8758774 24.3266296 6.0
97.9791641 8.02656937 6.0
98.0632782 14.0960903 6.0
14.1779165 1.94329894 6.0
51.9807281 2.08443713 6.0
64.1679611 1.71061313 6.0
93.8782043 37.7623711 6.0
96.8681488 17.6859417 6.0
97.1909485 22.1171436 6.0
95.9772873 2.04454851 6.0
89.9288101 2.20461535 6.0
83.9469452 1.98032379 6.0
78.1273041 2.21196461 6.0
71.5358353 2.17836094 6.0
67.7020187 2.73225737 6.0
62.1924095 1.90735137 6.0
56.0751915 2.159657 6.0
49.9569817 2.22546172 6.0
45.9489975 2.04053044 6.0
40.0799408 1.90784788 6.0
34.3142853 1.89226198 6.0
28.3404236 2.37836218 6.0
22.1344433 2.10110784 6.0
18.1458569 1.97453344 6.0
12.1792488 1.98596025 6.0
6.14116096 2.13063502 6.0
2.07542968 4.08336639 6.0
2.07084703 10.1528549 6.0
1.91876531 16.1210232 6.0
1.92626727 21.9725304 6.0
2.1016624 27.8995266 6.0
2.04677033 31.9101028 6.0
2.07850504 37.9033966 6.0
1.98421705 43.8463707 6.0
2.22611141 49.8698463 6.0
1.97091675 53.9394035 6.0
1.83134592 59.8379593 6.0
1.86784685 65.6580048 6.0
2.36619353 71.5862656 6.0
2.15305543 77.8379745 6.0
3.70381045 81.88311 6.0
1.83162522 87.8231812 6.0
2.2565167 93.9081497 6.0
4.07907486 98.0377655 6.0
8.05652237 98.2251129 6.0
10.0260944 98.2752533 6.0
13.991684 98.0322876 6.0
17.9280396 98.132637 6.0
19.9090309 98.0882797 6.0
23.8090248 97.9918976 6.0
27.7935486 98.0832901 6.0
31.73382 98.1656189 6.0
35.7065697 98.0623779 6.0
38.0953598 85.8216476 6.0
38.1307983 89.7312241 6.0
85.7261047 38.0521507 6.0
81.7696152 37.9294739 6.0
77.7732925 37.9191704 6.0
73.8214417 37.9884644 6.0
69.8189316 37.8253517 6.0
65.7592087 37.8058624 6.0
61.7722359 37.9624405 6.0
43.8345337 38.1668205 6.0
98.0470047 35.9661636 6.0
98.2543182 32.0281067 6.0
98.3599854 30.0868149 6.0
98.2198792 26.2712421 6.0
97.8059692 19.8143234 6.0
96.5135269 16.2565136 6.0
97.8826218 12.124095 6.0
97.9330597 10.0703964 6.0
97.9884186 6.02511358 6.0
37.9249458 62.2250137 6.0
89.7504959 37.8245468 6.0
35.6035461 57.4218521 6.0
36.3731308 43.9288216 6.0
57.6552353 35.9556427 6.0
43.6296196 36.2889366 6.0
93.9382629 35.5533791 6.0
36.2864532 93.0469894 6.0
89.3270416 35.7279129 6.0
36.2638283 89.4834518 6.0
61.5328407 35.9546623 6.0
35.9574203 61.2229691 6.0
85.4604645 36.1445885 6.0
36.1844521 85.644577 6.0
65.3939667 35.6786079 6.0
37.7876244 97.911293 6.0
4.14432192 6.19512081 6.0
39.9355545 38.2384644 6.0
96.2570496 33.8576469 6.0
89.9982376 4.37202454 6.0
68.8860931 3.56154728 6.0
55.9487572 4.24579859 6.0
40.1569595 3.90319729 6.0
18.2523308 3.92974091 6.0
6.25933504 4.26504946 6.0
4.08556271 10.3053751 6.0
4.06172323 31.8344917 6.0
3.9276576 43.7068367 6.0
3.68401504 59.6896935 6.0
5.52547646 82.121933 6.0
4.48927546 93.9479904 6.0
38.1275787 40.1264877 6.0
11.8836975 96.5359802 6.0
16.0339603 96.1076584 6.0
35.2953873 96.249588 6.0
95.9947739 9.99723244 6.0
96.0222778 6.03299141 6.0
81.6809692 35.8492622 6.0
36.181736 81.7511673 6.0
69.8243256 35.7035904 6.0
77.4595871 35.9581985 6.0
36.2457428 77.8971252 6.0
73.6734238 36.0120125 6.0
38.023632 38.3132057 6.0
39.8192711 36.3826485 6.0
36.2334938 40.2220802 6.0
36.1200867 94.3822403 6.0
6.02964687 31.789854 6.0
18.3066254 5.85710955 6.0
69.306221 6.25305557 6.0
7.25273037 82.6102219 6.0
14.6962414 93.7181549 6.0
36.3133774 42.0612526 6.0
35.0757561 59.2145996 6.0
59.6187134 35.9788666 6.0
41.7272453 36.333271 6.0
36.3139458 91.3290939 6.0
91.5466919 35.0149345 6.0
90.3926239 6.38720465 6.0
10.1993361 95.0842896 6.0
94.307663 9.74599075 6.0
5.90491438 10.3377228 6.0
40.3272133 5.89250517 6.0
5.53581095 59.5755272 6.0
36.1063004 62.6111641 6.0
63.4445877 35.8800812 6.0
36.2318611 87.5775833 6.0
87.3506927 36.051403 6.0
36.1866913 83.6968689 6.0
67.5532684 35.1669807 6.0
83.5963593 36.0599403 6.0
37.9621353 55.8330612 6.0
45.7985573 38.1042557 6.0
36.2194595 79.8221283 6.0
71.8074951 35.9283371 6.0
79.5484238 35.4858513 6.0
34.4067307 76.0012207 6.0
75.561615 36.04702 6.0
94.1031647 6.05548716 6.0
55.3778687 6.11710548 6.0
5.78165865 43.635273 6.0
6.25397968 6.36241102 6.0
6.57090378 94.320755 6.0
77.0831223 34.2555962 6.0
73.5920639 34.0529518 6.0
34.5556335 92.8519516 6.0
5.98948288 33.7020111 6.0
16.4175491 5.76816511 6.0
6.74583149 84.2154846 6.0
66.8594513 7.3932209 6.0
12.3615532 94.3610458 6.0
33.5806465 56.9922676 6.0
34.4815559 43.9280319 6.0
57.5798912 33.9605675 6.0
43.4221611 34.3951073 6.0
92.2383728 6.14427376 6.0
94.2443695 7.94405508 6.0
8.49669552 94.734024 6.0
5.97816658 8.33428288 6.0
42.0791283 5.78274012 6.0
5.49794102 57.7658958 6.0
34.4428749 60.8862953 6.0
61.3039818 33.958374 6.0
36.0541611 66.2593079 6.0
88.5539627 33.8702774 6.0
34.4192276 89.2880554 6.0
85.2299728 34.2759209 6.0
34.320446 85.4809113 6.0
64.7842484 33.7781105 6.0
47.7900696 38.0094528 6.0
80.2031174 33.4021797 6.0
70.1646729 33.822216 6.0
36.2492714 74.0543823 6.0
39.6685333 34.4439621 6.0
34.3029747 40.3091507 6.0
94.0188599 4.08966827 6.0
53.1475677 7.30262041 6.0
7.70427513 46.2918358 6.0
8.18962955 96.4694901 6.0
31.4878559 96.3507767 6.0
19.7606239 96.1866226 6.0
95.6472855 18.9531288 6.0
30.8592548 4.25792503 6.0
3.77288318 18.1553211 6.0
82.0824966 3.91230774 6.0
4.16989946 69.0088272 6.0
34.1759109 38.5383911 6.0
37.7242203 34.525631 6.0
32.4017105 77.7972946 6.0
81.9899521 31.7416096 6.0
32.3972893 81.4833984 6.0
69.2749329 31.5835838 6.0
8.61241627 6.74568701 6.0
32.5240479 85.3469467 6.0
64.3781738 32.044075 6.0
94.8291473 31.5913105 6.0
31.6294212 56.5676079 6.0
32.5696487 43.959343 6.0
57.546093 31.9541569 6.0
43.3093224 32.4640274 6.0
73.642952 32.0904808 6.0
47.515625 36.0174522 6.0
61.1233025 31.886158 6.0
32.6377411 89.1522827 6.0
31.2874298 94.5537109 6.0
95.2369537 29.8497715 6.0
19.3374424 94.3917236 6.0
93.4413681 19.0064392 6.0
31.7593384 6.06173229 6.0
5.11504412 17.9046974 6.0
82.3341446 5.37863398 6.0
5.83372259 68.0953903 6.0
6.05369997 35.5903168 6.0
7.92939377 31.8086033 6.0
14.5621204 5.74809504 6.0
18.2942066 7.78457499 6.0
68.5991287 8.0523653 6.0
9.57456207 81.7744446 6.0
4.91865635 85.5627823 6.0
64.9718628 5.33798122 6.0
15.1994896 92.2675934 6.0
45.2452316 34.3835144 6.0
34.0119286 55.1805573 6.0
34.5613213 45.7894592 6.0
55.6761703 35.9073906 6.0
94.3689346 33.5008926 6.0
9.05845547 93.0684509 6.0
7.2027092 10.1222811 6.0
43.8023987 5.8695755 6.0
5.53366232 55.9812889 6.0
40.7539062 7.42299318 6.0
7.37802172 59.5184288 6.0
34.1478081 64.3795547 6.0
38.039299 66.1477585 6.0
38.123806 74.0076523 6.0
34.4167786 74.203064 6.0
52.4615021 5.32656193 6.0
6.04620075 46.953495 6.0
7.44277954 45.0739441 6.0
35.7643127 34.6678047 6.0
34.2943611 81.6137619 6.0
68.5629959 33.1988258 6.0
34.3559113 77.8577423 6.0
92.7060776 9.76448536 6.0
56.5921288 9.56820107 6.0
9.11793804 44.7364388 6.0
93.8693771 29.2071877 6.0
7.42889929 61.3462029 6.0
39.8341713 8.54022026 6.0
9.84423161 91.4402161 6.0
14.3264112 90.9262619 6.0
92.8897858 11.4940968 6.0
88.6891556 6.85798502 6.0
68.0718155 9.88250923 6.0
10.8187323 82.5135574 6.0
18.2014103 9.75073814 6.0
9.77937222 31.9110203 6.0
91.2113724 9.87779236 6.0
90.8464203 8.22504234 6.0
30.5520916 75.8813095 6.0
78.8150024 31.257452 6.0
32.3802452 79.6249008 6.0
71.7498322 31.6467724 6.0
10.7765284 6.09899187 6.0
90.9995575 31.7336235 6.0
32.4638405 42.1768951 6.0
31.0448647 58.3756523 6.0
59.3680534 31.9085045 6.0
41.4287567 32.3794365 6.0
32.8579826 92.7994308 6.0
16.6251278 94.0654144 6.0
92.6959457 16.021841 6.0
32.6612129 7.55005932 6.0
5.50120068 16.5528507 6.0
83.7581558 5.95435429 6.0
6.97029305 67.4064789 6.0
6.14774656 29.8327007 6.0
4.08969641 35.7866058 6.0
7.91221762 35.2933311 6.0
14.7192383 7.60975218 6.0
14.3662395 3.86516857 6.0
20.2051067 5.98114491 6.0
71.4734879 6.01963186 6.0
7.97956371 80.9208984 6.0
6.35085201 85.680809 6.0
64.9641495 9.09896564 6.0
3.37699103 85.6676788 6.0
64.5309677 3.52651405 6.0
43.6317902 7.77972031 6.0
7.31865215 57.7609978 6.0
38.480751 6.48477602 6.0
5.54501152 61.4317894 6.0
52.101593 3.97511482 6.0
43.915287 3.92055345 6.0
4.17737341 47.5874939 6.0
3.72936201 55.9321823 6.0
36.1056633 72.0994568 6.0
56.9400787 6.85077333 6.0
6.15457487 41.7650299 6.0
8.24638748 47.380127 6.0
34.609623 47.6692963 6.0
53.6505432 35.8318329 6.0
32.4820595 83.4148636 6.0
67.9699554 30.6670723 6.0
32.595005 87.2698441 6.0
62.8244286 31.9490814 6.0
7.14917421 92.4568024 6.0
75.4056931 32.3968735 6.0
33.9925423 36.7496834 6.0
89.8071747 10.1793556 6.0
31.1354961 92.7442245 6.0
35.3817406 32.5326843 6.0
31.6496811 35.1446419 6.0
32.4858932 60.6436386 6.0
88.8566437 31.6752129 6.0
35.8973312 70.1905441 6.0
9.30237103 46.7216492 6.0
54.4442062 10.0827837 6.0
95.6291504 28.5106392 6.0
10.7649708 59.4166985 6.0
41.753231 9.83702374 6.0
7.89036894 88.3745956 6.0
9.97811985 8.47827339 6.0
59.5313072 6.95588541 6.0
6.81328201 39.6105118 6.0
12.3832235 90.4114456 6.0
66.1113663 11.3252296 6.0
10.7162447 83.9863281 6.0
16.4165554 9.59224796 6.0
9.71781349 33.5302238 6.0
30.4032803 77.770546 6.0
32.6427994 74.3134613 6.0
6.49776077 12.5716705 6.0
5.51482391 63.2341232 6.0
36.5761337 5.74044085 6.0
81.9966431 29.6709061 6.0
30.5751781 81.4242249 6.0
68.6844864 29.1481228 6.0
11.3887501 7.86378717 6.0
39.518795 32.4168129 6.0
32.3409538 40.4164505 6.0
57.5211334 29.9647636 6.0
29.734663 56.0939674 6.0
30.6640453 44.0235748 6.0
43.4111443 30.4943848 6.0
18.3522205 93.0774155 6.0
91.6073303 19.1941147 6.0
94.2269363 15.1406736 6.0
34.8526115 5.43650627 6.0
31.7053528 8.31233501 6.0
5.93113756 14.7512789 6.0
7.20288086 17.3513908 6.0
82.4662094 7.40990305 6.0
7.77359104 67.8736801 6.0
85.260994 5.46994972 6.0
5.47102547 64.9689713 6.0
6.27090979 37.4958992 6.0
12.6996107 5.83394623 6.0
6.07062292 86.8097382 6.0
63.4071846 7.2595005 6.0
6.7650795 48.3393898 6.0
51.5494919 6.34012318 6.0
6.64682198 89.835144 6.0
30.8643188 85.2609253 6.0
64.5399933 30.3879776 6.0
30.9543743 89.0542603 6.0
61.0392303 29.6539574 6.0
74.0015259 30.3298988 6.0
77.0812454 32.6124916 6.0
86.2501831 6.38288546 6.0
93.1297607 13.3915157 6.0
22.1437759 6.13853264 6.0
6.31864643 27.8395309 6.0
72.7722015 6.23265314 6.0
7.13650942 77.8801804 6.0
89.6039581 30.5793037 6.0
94.7402802 27.3964443 6.0
6.81716681 50.7673187 6.0
49.0468521 6.90915203 6.0
6.83938122 87.53125 6.0
81.2753754 8.64245701 6.0
8.75843811 68.3900528 6.0
89.8804779 19.5528088 6.0
9.33096218 18.3794117 6.0
30.7796516 8.87436771 6.0
87.9135513 9.24955463 6.0
10.7746687 93.6212387 6.0
29.9902592 37.1623497 6.0
37.45895 30.4364662 6.0
33.4642944 33.4126587 6.0
18.0469398 90.9128036 6.0
61.187748 6.0717845 6.0
87.9979324 30.7910023 6.0
32.1590614 62.52248 6.0
38.02425 70.0759277 6.0
9.28309155 48.2880821 6.0
52.4044113 8.96146584 6.0
11.1088095 44.1086845 6.0
9.10940552 57.7874489 6.0
43.3900681 9.35994148 6.0
11.1261683 61.1599731 6.0
40.4106827 11.6187305 6.0
10.0355015 87.6420441 6.0
10.7350769 9.5398531 6.0
14.534914 88.8217621 6.0
67.6143723 11.6816082 6.0
12.2378502 81.7526169 6.0
64.6077347 11.0343742 6.0
9.62982178 85.4684982 6.0
17.9778633 11.698595 6.0
14.748024 9.44557095 6.0
11.5163832 32.0783997 6.0
9.73065853 35.0460052 6.0
8.46030712 13.8307695 6.0
7.24060965 64.8072891 6.0
34.0795593 7.87258768 6.0
83.5857773 32.017231 6.0
39.375721 30.296423 6.0
30.2546234 54.4168205 6.0
45.3716774 30.9874668 6.0
93.2713013 20.5320435 6.0
96.0555038 14.4131861 6.0
30.4886951 6.85977411 6.0
33.6854057 6.94184732 6.0
7.78882265 15.5409756 6.0
6.15779352 18.9707508 6.0
81.2439957 6.19931269 6.0
6.64368629 69.2039566 6.0
7.05225563 66.3039017 6.0
32.7355537 90.9963226 6.0
85.7976379 8.69785309 6.0
91.6885757 14.9030066 6.0
88.1558762 29.7498894 6.0
28.3267612 77.7407913 6.0
77.2044907 31.0544052 6.0
81.5581741 27.8574982 6.0
28.9040489 81.5792007 6.0
69.3790512 27.5789585 6.0
74.4990616 28.7373753 6.0
30.4050655 40.5570564 6.0
30.8456879 74.0415344 6.0
60.5631828 8.5818758 6.0
8.69553089 38.292675 6.0
29.3303947 85.2118301 6.0
65.0905838 28.9173775 6.0
29.3324928 88.9489288 6.0
61.0284691 27.2590122 6.0
32.7481041 47.5976334 6.0
53.6288109 33.7731018 6.0
72.5524292 7.91524124 6.0
9.58581066 76.590126 6.0
22.0144444 8.0966711 6.0
8.44795418 27.9355221 6.0
28.744669 44.1131554 6.0
55.9870567 27.8136005 6.0
27.834362 55.5368576 6.0
43.7575531 28.5973206 6.0
51.7722511 37.8918495 6.0
36.4380112 47.7690048 6.0
73.0529785 4.49912214 6.0
4.43959475 77.7838364 6.0
22.1787624 4.1500535 6.0
4.1967802 27.8413677 6.0
32.2094383 64.3288116 6.0
5.70662594 54.2023506 6.0
45.5599899 6.07843971 6.0
34.3194008 53.3339424 6.0
87.1882553 31.0890751 6.0
81.8477783 33.811367 6.0
96.5336609 26.7375679 6.0
4.20304775 51.9865646 6.0
47.7757797 4.31141615 6.0
9.76941299 67.1368561 6.0
82.371048 9.75655174 6.0
89.4679184 17.9452209 6.0
11.5389643 16.3760777 6.0
32.681118 9.92818451 6.0
39.0874825 28.1763935 6.0
28.5065193 40.721096 6.0
30.6608601 52.7562752 6.0
47.2376709 31.76614 6.0
35.5026741 28.5549259 6.0
29.5778389 35.4410477 6.0
16.3477917 90.5549469 6.0
60.5005112 4.20933008 6.0
4.27072477 39.7337723 6.0
30.3895607 60.3044777 6.0
10.8351784 57.8486099 6.0
43.1535721 11.5542746 6.0
38.4575272 10.2745419 6.0
9.40707493 63.2020988 6.0
9.72167683 12.3173361 6.0
36.3831978 10.4490862 6.0
9.04342556 64.9884491 6.0
89.6658249 12.108758 6.0
90.9778061 27.7904835 6.0
79.8768082 26.2815514 6.0
59.2944221 9.93213463 6.0
27.8390312 86.9385986 6.0
10.2834044 10.6307297 6.0
30.8884869 47.5486755 6.0
53.7520866 31.7471313 6.0
31.6946964 72.1929626 6.0
72.0145874 9.67229462 6.0
10.6395521 77.9427338 6.0
74.0118866 6.4789176 6.0
6.85724163 75.5569687 6.0
21.8323135 10.0376368 6.0
24.093996 6.35712767 6.0
10.4553223 28.4544792 6.0
6.4142561 25.9090443 6.0
28.6304474 42.4141197 6.0
27.2181129 57.2439156 6.0
58.7791443 27.1650982 6.0
41.33078 27.7274475 6.0
51.5788422 35.7416115 6.0
34.5966415 49.5636559 6.0
28.7022972 73.6165771 6.0
13.1256857 44.9114571 6.0
56.0634155 14.0120983 6.0
93.8564301 22.6397476 6.0
12.732233 60.3977737 6.0
39.5164223 13.6093941 6.0
86.632019 29.8324089 6.0
11.4997692 34.9954453 6.0
13.173851 10.9463129 6.0
11.5061197 85.2062454 6.0
26.6345406 75.8457565 6.0
28.0435677 79.6737213 6.0
71.7061462 27.1648254 6.0
52.9174767 11.6554193 6.0
14.1969585 87.0268021 6.0
63.3574028 27.4632339 6.0
27.8396149 83.4738083 6.0
67.4889145 26.2818623 6.0
76.1086731 28.1434441 6.0
21.2725677 93.4625778 6.0
67.3543396 13.4140635 6.0
13.7382984 82.0883789 6.0
17.5802765 13.4916458 6.0
13.4651985 31.088438 6.0
32.6786232 51.2457695 6.0
35.9363327 68.2372131 6.0
30.7274876 65.9235687 6.0
25.9611263 54.9541702 6.0
26.9118729 45.8997993 6.0
54.274929 27.6336308 6.0
44.423069 26.8846149 6.0
36.3585205 51.6610451 6.0
61.8790512 7.6518569 6.0
30.3365669 64.5260468 6.0
27.9417667 7.24154758 6.0
6.1941123 21.8103867 6.0
78.7315292 6.18712759 6.0
7.1824522 71.5569534 6.0
82.9117203 27.3218975 6.0
88.4187012 28.0058594 6.0
29.4539814 94.4589844 6.0
33.7578926 68.2313995 6.0
34.0326805 66.2620163 6.0
30.8741684 51.0397873 6.0
9.77210999 36.4436035 6.0
11.7156382 10.8532619 6.0
10.8256159 86.2742233 6.0
63.102623 10.533062 6.0
13.2685556 35.1119537 6.0
13.8433743 13.1085062 6.0
13.1027546 85.412056 6.0
64.0815201 13.1400843 6.0
81.315506 10.6326313 6.0
87.655571 19.1204472 6.0
11.6367998 17.8291264 6.0
30.8374386 10.1738615 6.0
49.1128159 33.2641029 6.0
31.2592239 33.318573 6.0
18.6179848 89.4161377 6.0
90.2782059 11.2546215 6.0
78.575676 27.8569317 6.0
81.7973404 25.7365837 6.0
9.62485123 42.8265266 6.0
26.1818161 88.5321808 6.0
30.7894211 45.7832832 6.0
55.6634712 31.8942242 6.0
69.6985474 10.5963249 6.0
10.6888285 80.4621811 6.0
19.9949341 9.90018749 6.0
10.0159101 30.1960716 6.0
25.3759689 56.665905 6.0
42.6121788 26.0054092 6.0
28.4153633 59.6580811 6.0
54.7844582 14.3607092 6.0
14.0908813 47.1325989 6.0
41.2492638 14.6197348 6.0
85.8984451 27.8968182 6.0
26.3465042 77.5398941 6.0
68.9268875 24.988575 6.0
27.6143436 81.9401398 6.0
27.5656433 94.3192139 6.0
13.102561 56.3647499 6.0
44.0766296 13.1639566 6.0
10.6854706 49.1437721 6.0
51.423069 10.5450306 6.0
60.8626556 24.6714573 6.0
65.3841705 26.5022392 6.0
26.5258732 85.0255051 6.0
73.8788452 26.3621788 6.0
65.9120178 15.0252504 6.0
14.17097 83.2512817 6.0
16.7535896 15.1093578 6.0
13.6869087 33.3766441 6.0
34.4965706 51.4576035 6.0
31.6699104 67.8712769 6.0
27.131752 47.6036301 6.0
52.4628296 27.4146709 6.0
26.4708462 53.0651169 6.0
46.3956375 27.637167 6.0
26.767704 44.2146111 6.0
56.6186714 25.49617 6.0
73.7299957 10.4466276 6.0
11.4896107 75.6701584 6.0
11.1393204 26.7794571 6.0
23.6496925 10.259594 6.0
52.9829445 14.0694513 6.0
13.2584267 48.5897903 6.0
51.7763824 31.4693699 6.0
30.9288387 49.3055954 6.0
30.9919872 69.6616974 6.0
89.8119736 25.810463 6.0
27.5709839 92.4928055 6.0
9.8249197 37.5076637 6.0
62.3889465 8.7942152 6.0
6.25832558 24.3071995 6.0
26.0606709 6.69505882 6.0
76.111084 6.47145271 6.0
6.88042164 73.4863129 6.0
10.0507174 14.6581564 6.0
34.7892456 9.05724716 6.0
47.3173485 6.37819338 6.0
6.10189629 52.4309692 6.0
27.8531952 64.0193634 6.0
30.2372894 38.8621101 6.0
94.833046 25.8278351 6.0
49.5112305 35.7448006 6.0
77.4914551 7.80463409 6.0
9.00250149 73.2924652 6.0
7.75721216 23.3596516 6.0
92.0750809 24.0215321 6.0
25.7197418 8.70298767 6.0
14.0379725 29.7710266 6.0
19.5938187 14.1006899 6.0
14.7430534 79.0160141 6.0
72.0457077 14.2019176 6.0
23.8811913 91.87677 6.0
33.870369 31.5556164 6.0
15.8552275 86.3702774 6.0
23.6346893 95.9302597 6.0
77.3430786 4.87072706 6.0
4.68489981 73.4876938 6.0
4.50647545 23.5429211 6.0
26.3353271 4.60131025 6.0
95.1813126 23.7194996 6.0
36.9794197 14.5088921 6.0
13.7054758 61.8334579 6.0
15.3546295 42.224041 6.0
57.6479187 14.1818895 6.0
26.5758953 74.369957 6.0
26.6493435 40.867012 6.0
39.9554596 25.5433464 6.0
29.5698395 67.1656342 6.0
10.8465223 65.6208191 6.0
11.8714962 14.9143724 6.0
34.5615196 10.3496523 6.0
7.83560133 52.9255676 6.0
46.859333 8.36736679 6.0
93.0804062 26.752985 6.0
93.760994 25.0959358 6.0
25.6243935 94.1205368 6.0
60.787117 11.159606 6.0
52.1243935 29.4013786 6.0
29.017498 47.5384674 6.0
49.7965393 30.989048 6.0
72.9010849 12.3756943 6.0
12.2415133 76.8666153 6.0
23.4064941 12.0935907 6.0
12.9918537 27.6882381 6.0
24.907011 73.0595551 6.0
24.6433773 39.4393883 6.0
39.024353 23.7078838 6.0
80.2105637 9.98878956 6.0
9.47502422 70.0415115 6.0
29.163826 9.79218769 6.0
47.111763 34.1695824 6.0
20.3364296 90.3599777 6.0
78.3252029 26.1424274 6.0
27.6389103 90.6482544 6.0
26.5197525 58.9567833 6.0
15.2546167 60.3066139 6.0
38.7206764 15.4973459 6.0
27.6409454 96.1833267 6.0
28.9753513 52.4516983 6.0
47.8575783 30.1581745 6.0
52.7298584 25.5798283 6.0
25.2520103 47.803978 6.0
76.334259 9.53163147 6.0
11.0586891 74.3803635 6.0
25.3981113 10.6165333 6.0
10.7317181 24.0219269 6.0
77.9221802 10.6537008 6.0
10.8988924 72.9327164 6.0
9.65271282 21.9346657 6.0
89.5176315 22.0479603 6.0
27.1220493 11.0890436 6.0
15.6423216 30.4359245 6.0
14.6605606 28.4337521 6.0
21.5746288 13.6815157 6.0
18.2810116 15.7363005 6.0
13.347537 77.9842529 6.0
14.7166729 81.2174759 6.0
69.3812408 15.0177679 6.0
22.6287193 89.3973236 6.0
23.5868454 93.8464966 6.0
13.7073765 64.8335724 6.0
59.915596 12.8007793 6.0
13.9110842 40.6859131 6.0
14.8554058 45.7902527 6.0
56.086834 15.4124842 6.0
84.1595383 26.2396984 6.0
27.1680355 72.2769623 6.0
26.5199738 39.2832527 6.0
38.3859596 26.1798592 6.0
9.50030613 53.3065491 6.0
47.9486542 10.1195164 6.0
87.980072 14.6180677 6.0
86.3650742 11.8246784 6.0
26.4040794 63.0273666 6.0
51.0825424 25.0976009 6.0
25.6147861 49.5258636 6.0
51.7217598 23.0176945 6.0
23.5401325 48.2198906 6.0
86.5605469 25.8570213 6.0
27.5621452 61.4215927 6.0
23.9671326 59.9220543 6.0
76.8355103 24.5272846 6.0
77.0502014 12.4872179 6.0
12.7319727 73.8430786 6.0
12.2982807 23.0371819 6.0
26.7361469 12.9422874 6.0
23.0304489 74.5455551 6.0
42.2207451 23.9257698 6.0
22.9488525 42.2823639 6.0
90.3494034 20.6814384 6.0
16.231184 29.0917015 6.0
15.7649841 77.7571106 6.0
24.2708321 89.9767914 6.0
59.4496803 14.8996696 6.0
16.1642151 39.9867973 6.0
85.3110428 13.0269604 6.0
26.6065845 65.2944031 6.0
89.8838348 24.0474815 6.0
74.5248566 13.3600569 6.0
13.6031876 76.0007095 6.0
23.1817322 13.7900772 6.0
13.8350258 26.3508244 6.0
26.2442474 70.167984 6.0
61.606308 13.5413713 6.0
14.1406975 38.6953011 6.0
26.3512592 37.797184 6.0
36.7357903 26.5858707 6.0
15.778327 47.9384499 6.0
52.4205055 15.4079103 6.0
16.5432472 83.7890854 6.0
36.1251984 16.0457325 6.0
14.9611464 63.1036034 6.0
46.9376106 25.8164654 6.0
24.4416809 52.9819565 6.0
27.4910393 67.1741333 6.0
27.5011139 50.8424721 6.0
48.8443832 26.4720898 6.0
27.6364822 65.9708405 6.0
86.8704071 17.9816265 6.0
73.0234985 23.9547863 6.0
27.3347034 49.2903366 6.0
17.2031555 45.404007 6.0
55.696682 17.6461372 6.0
15.0451918 57.4442024 6.0
42.9928055 16.9593582 6.0
16.5836964 81.7064896 6.0
68.9113617 17.2225933 6.0
19.4855099 16.9255676 6.0
17.3240585 31.0419178 6.0
23.5597382 85.9821701 6.0
64.8059082 24.4163818 6.0
64.4642944 15.2907505 6.0
15.5599089 14.4398804 6.0
14.8771639 35.4674683 6.0
24.6481705 44.2767792 6.0
55.7488289 23.2308178 6.0
34.1406212 15.2069521 6.0
15.6370287 65.6931915 6.0
17.8879204 85.3728867 6.0
13.4200068 24.1568279 6.0
76.227272 14.3706264 6.0
14.4798126 74.4703369 6.0
24.7073784 14.1553249 6.0
58.9766769 17.4769535 6.0
17.806776 39.4951668 6.0
35.3944626 17.5015087 6.0
17.8138676 63.4976883 6.0
72.8921356 16.9962578 6.0
16.6379471 76.4489136 6.0
22.469265 17.2693233 6.0
16.8428783 27.7854519 6.0
47.4304771 23.9435425 6.0
22.9639168 52.9987793 6.0
25.7826271 66.7100449 6.0
87.6565781 22.8079777 6.0
22.4660873 46.4833946 6.0
22.9681377 57.7373428 6.0
79.5199509 22.6104031 6.0
23.2387123 72.8112259 6.0
43.7484627 22.7991829 6.0
40.4423141 23.0047951 6.0
22.5928059 39.7469749 6.0
84.1802597 14.5409985 6.0
17.5314846 35.0015907 6.0
64.9468613 17.4677582 6.0
17.6873837 56.3637962 6.0
43.3568344 19.0616016 6.0
17.4723091 48.6447945 6.0
52.0559769 16.8948517 6.0
25.0834427 68.1758652 6.0
14.3796091 54.7611198 6.0
45.8195724 14.60466 6.0
14.983614 49.3884468 6.0
51.0220413 14.6279373 6.0
85.7697372 15.0926142 6.0
62.8669205 14.0510502 6.0
14.4397192 37.0214806 6.0
36.1482391 24.858057 6.0
25.272337 35.0189247 6.0
85.9376221 17.0753574 6.0
86.2040634 23.625124 6.0
53.3270073 18.9605408 6.0
18.1574078 47.2645035 6.0
18.4215488 33.2236595 6.0
17.7972202 82.4063339 6.0
66.7411041 18.4311485 6.0
27.8271198 15.453887 6.0
14.1126728 72.324791 6.0
78.7687531 13.3925962 6.0
13.7120256 21.9426765 6.0
20.4987297 18.242506 6.0
18.5751038 80.7218933 6.0
70.5156784 17.7365913 6.0
19.2464867 41.5977173 6.0
57.372654 19.1340637 6.0
23.8836021 84.4389572 6.0
66.0834579 21.9945965 6.0
62.679039 22.8694344 6.0
21.5428658 86.9220734 6.0
75.6287155 22.8457184 6.0
71.8041306 23.8411007 6.0
85.9655838 19.9593525 6.0
15.3843269 27.1026115 6.0
73.7083893 15.1950483 6.0
14.5262356 76.9083405 6.0
19.096962 61.6474648 6.0
36.728714 18.4547615 6.0
22.4414501 54.1886902 6.0
45.5305748 23.2270203 6.0
51.2373848 20.646471 6.0
21.315506 48.1797752 6.0
22.306736 59.3002892 6.0
23.5912552 56.1671638 6.0
81.5897446 23.4169712 6.0
77.7574539 20.940115 6.0
23.7093544 71.225029 6.0
23.1576519 76.3130798 6.0
22.613802 37.6732597 6.0
81.45858 12.1552391 6.0
41.5726814 19.1392803 6.0
34.6870079 25.1833458 6.0
27.0354748 34.248436 6.0
14.9469595 67.6233673 6.0
32.2385941 16.0431538 6.0
19.9140739 86.1274872 6.0
54.3388443 20.5628662 6.0
16.130394 18.5435829 6.0
29.5871544 16.1799717 6.0
14.193655 70.9737396 6.0
80.4437561 14.114068 6.0
15.1929302 20.9230824 6.0
18.8618126 19.2574863 6.0
68.5453568 19.3123131 6.0
19.2231464 43.508461 6.0
54.9113884 19.4103565 6.0
23.99086 83.0218048 6.0
69.222496 22.9171524 6.0
64.2911911 21.9907265 6.0
72.9928818 21.8736248 6.0
85.1866608 22.2420101 6.0
85.7305984 18.7829342 6.0
77.9994431 15.3623238 6.0
15.3687325 73.3022079 6.0
14.7157478 23.1029186 6.0
27.0957394 17.4198952 6.0
23.3593616 67.5963058 6.0
49.485817 13.6980476 6.0
14.1700573 50.8863106 6.0
15.2200899 53.1704292 6.0
47.3525772 14.740592 6.0
61.2242165 15.3654766 6.0
15.9897137 38.5629463 6.0
83.9474335 23.4434509 6.0
63.0887794 19.3453617 6.0
17.6353836 36.8162727 6.0
18.5200939 54.5642242 6.0
45.0359039 19.0107727 6.0
50.0653229 17.8500328 6.0
19.1060295 49.2306824 6.0
19.3164158 65.4015808 6.0
34.4026451 18.8238869 6.0
22.2801037 50.086525 6.0
49.9004784 21.4480801 6.0
33.1500664 25.3552628 6.0
26.0027637 32.6250229 6.0
43.7241859 21.0328121 6.0
23.8119812 77.9943619 6.0
21.2575836 76.6675949 6.0
35.3723373 13.7386866 6.0
17.9914589 87.2368774 6.0
19.7172127 63.9767494 6.0
35.7499008 19.8031693 6.0
39.1691399 18.2306709 6.0
17.8179035 60.4348679 6.0
22.0967922 51.826683 6.0
47.9193039 22.2249241 6.0
35.5547028 23.2271538 6.0
38.1936302 22.0670567 6.0
27.7009296 35.8611565 6.0
35.1335831 26.8237705 6.0
16.7338428 70.2765427 6.0
31.0501442 17.2215977 6.0
22.7870502 65.3508835 6.0
15.9776907 51.6238976 6.0
47.1126976 16.4181023 6.0
64.6521225 19.6864319 6.0
61.445713 19.4287663 6.0
19.1897469 38.1419754 6.0
19.710001 35.3898926 6.0
19.4417019 56.7882195 6.0
17.6932507 52.2899361 6.0
46.6069946 17.6863155 6.0
47.9854202 18.5119381 6.0
18.4287224 50.7322426 6.0
51.679821 18.5701313 6.0
19.776989 47.7203522 6.0
19.3736439 67.3712997 6.0
32.2277412 18.468935 6.0
69.6317215 21.3798027 6.0
22.1756096 82.6824341 6.0
61.4752617 23.1259251 6.0
23.1059322 87.631546 6.0
26.7945023 19.3585701 6.0
77.2159042 17.1962109 6.0
16.1030064 74.2700043 6.0
17.0178375 24.0922356 6.0
22.4934216 34.9176788 6.0
81.8560715 14.7533073 6.0
81.1204681 21.0168095 6.0
21.2272625 57.2348595 6.0
72.1263199 18.738821 6.0
22.8446541 19.4776821 6.0
19.2931919 27.730238 6.0
19.234024 39.2431755 6.0
59.912365 19.9041195 6.0
59.4943428 22.7355156 6.0
13.9064188 19.3964462 6.0
82.9798813 17.9402332 6.0
22.5018768 69.1651459 6.0
77.7663422 19.4470768 6.0
30.814085 14.2512217 6.0
12.7226067 69.3696747 6.0
19.1476784 76.5602417 6.0
74.6350632 17.9821701 6.0
24.8646183 19.2329559 6.0
18.5591736 25.2582397 6.0
36.2761154 21.6075172 6.0
50.6652336 27.0037479 6.0
85.6804581 4.01118946 6.0
34.6317368 3.73763061 6.0
3.69279623 65.2963791 6.0
20.1420269 51.2901573 6.0
47.1859856 19.845747 6.0
13.4272327 52.370182 6.0
23.4179783 80.6638718 6.0
21.8367825 55.6858864 6.0
82.6798859 22.0132294 6.0
81.6822662 18.9608269 6.0
31.5239487 25.4317665 6.0
24.5066185 31.1057491 6.0
19.3500595 70.138649 6.0
30.2680798 18.5633678 6.0
40.1990242 19.4582939 6.0
20.0903664 60.2301979 6.0
15.5703926 16.7204952 6.0
25.2656956 64.5259094 6.0
67.7479095 21.788229 6.0
70.1035538 23.8695107 6.0
21.3696098 26.7114944 6.0
22.7265282 21.9064617 6.0
22.8506317 32.3431129 6.0
21.3354378 36.2126465 6.0
81.4132156 16.6125851 6.0
79.2125931 18.5138702 6.0
19.1922531 78.8389359 6.0
23.7766495 63.7811394 6.0
31.4595184 20.3364391 6.0
28.4724026 19.703558 6.0
19.3889313 72.3211975 6.0
22.9604816 29.8305225 6.0
33.9653549 22.2925014 6.0
29.8040066 27.5463314 6.0
25.8687782 29.8486671 6.0
21.5855846 28.7281685 6.0
21.4219952 23.973074 6.0
23.7573967 36.0614052 6.0
20.449192 81.5116119 6.0
48.9471054 11.1295338 6.0
11.2438431 51.5912132 6.0
76.3694382 18.7948589 6.0
19.5371819 74.3254471 6.0
21.3285828 64.6316528 6.0
26.7532501 21.1390686 6.0
46.7327728 10.3825665 6.0
10.9325666 54.8770065 6.0
21.5811634 31.0252075 6.0
27.9694576 31.5453129 6.0
22.6910534 27.5462685 6.0
18.5919552 22.9561863 6.0
22.6006165 24.075367 6.0
32.8215332 22.0159988 6.0
73.9016724 19.8688946 6.0
27.6246777 26.680542 6.0
26.8454475 28.3367786 6.0
31.4012756 23.6574097 6.0
23.1221561 61.5156364 6.0
21.385704 72.538765 6.0
25.7909985 25.7518196 6.0
44.8498192 10.4603758 6.0
10.9626045 56.3565598 6.0
30.2284069 31.7161541 6.0
19.6271744 24.0733299 6.0
26.716898 22.7577782 6.0
28.2675381 23.1663456 6.0
25.0660553 27.2221432 6.0
30.34062 30.2402573 6.0
24.6564751 23.3970299 6.0
17.9036274 21.5515976 6.0
32.5974541 31.0953732 6.0
26.322237 24.2851791 6.0
32.4065399 28.6725979 6.0
22.1882229 44.1187553 6.0
38.022316 93.5874405 6.0
95.961731 37.8805656 6.0
4.01090622 89.4287109 6.0
10.400115 4.11605787 6.0
92.4440689 28.495739 6.0
85.4926682 30.8106155 6.0
61.9478683 21.256834 6.0
25.9166393 51.1853142 6.0
49.3233986 24.5942707 6.0
86.589325 9.87646103 6.0
5.61785507 88.5858231 6.0
38.2317543 45.9125061 6.0
76.4218063 26.0328903 6.0
18.9590874 59.6739388 6.0
22.0439796 25.5310173 6.0
66.0582504 1.54250693 6.0
67.8679886 1.46733904 6.0
1.74700093 83.8604736 6.0
1.86434627 81.8729095 6.0
97.9983368 37.9585304 6.0
98.2423019 16.0250168 6.0
98.2452698 17.9244938 6.0
38.1023178 53.8367882 6.0
38.1790009 51.849144 6.0
38.2195854 49.8628693 6.0
38.2308769 47.8854713 6.0
57.8126945 37.9737701 6.0
38.3517303 3.96607089 6.0
37.8866615 36.4540062 6.0
36.1979103 53.6069908 6.0
36.1114311 38.4122429 6.0
4.09316587 79.87323 6.0
6.24399948 96.2369232 6.0
78.5081482 3.85631251 6.0
3.96822357 14.3473501 6.0
3.60570598 21.9151783 6.0
94.2048645 11.1898985 6.0
3.6756258 61.5907593 6.0
92.5791702 32.841156 6.0
96.768425 30.0785789 6.0
36.111515 64.3556519 6.0
36.275425 75.9896622 6.0
34.7734146 94.5800247 6.0
33.0776482 94.6076813 6.0
86.8986435 34.2419853 6.0
33.2160072 5.55080318 6.0
4.9916234 87.140625 6.0
53.7890701 5.6652379 6.0
63.0231705 5.58549404 6.0
33.7358704 34.9679642 6.0
67.2246857 32.1048775 6.0
78.6795654 32.8748245 6.0
93.268837 30.9748478 6.0
91.7660904 30.1466885 6.0
11.5157061 95.3468246 6.0
34.1886597 72.3789062 6.0
22.0526619 91.2967682 6.0
13.1982336 92.8233719 6.0
17.943716 94.9766846 6.0
92.936554 21.7899666 6.0
86.5213547 32.6490288 6.0
85.1453476 32.4661865 6.0
80.382225 31.5035915 6.0
13.0110359 7.63639545 6.0
27.4608288 9.20790291 6.0
34.9093513 6.81577682 6.0
36.2168922 7.17685747 6.0
5.49897814 66.6145554 6.0
70.3986206 32.322197 6.0
48.4069748 8.71272564 6.0
49.9016685 9.53029823 6.0
5.75238514 45.359272 6.0
31.9531784 36.9239655 6.0
45.0847549 32.6560364 6.0
65.5049973 32.0951271 6.0
93.2186584 17.4796848 6.0
65.0848923 7.20781898 6.0
9.1585722 89.1526337 6.0
32.4498062 53.0495834 6.0
66.002121 31.0850391 6.0
10.6646271 89.8344498 6.0
9.01861286 9.74965477 6.0
11.5663033 92.0821457 6.0
31.0357838 90.9155045 6.0
29.3447456 90.8097687 6.0
90.307663 14.0878477 6.0
56.0358734 8.1260128 6.0
91.4082565 11.3831768 6.0
70.1592331 30.213131 6.0
25.9505997 90.3789978 6.0
20.9785652 88.6444702 6.0
32.8079033 72.9449005 6.0
9.17786121 71.6052094 6.0
7.35266876 56.095417 6.0
7.51480436 54.4776459 6.0
8.49568462 51.5159912 6.0
9.59843445 50.3593483 6.0
7.45451307 43.6668777 6.0
7.9663887 42.1656113 6.0
35.7576027 8.01452923 6.0
36.1450272 8.95022583 6.0
35.6699944 30.3934898 6.0
32.0711327 32.1253777 6.0
8.2583971 84.7618866 6.0
86.4292679 31.4851379 6.0
80.3335648 29.6555061 6.0
78.7726364 29.5808392 6.0
91.4991074 16.725378 6.0
91.5533066 22.1628075 6.0
70.8418274 7.24942064 6.0
13.2081547 9.36561203 6.0
28.9003296 11.6151323 6.0
17.5950394 92.0601883 6.0
48.3607216 28.3399105 6.0
11.3706026 88.3039627 6.0
80.0289078 7.46835852 6.0
61.6875763 9.79203987 6.0
36.0696716 12.1335354 6.0
34.0971794 30.1318436 6.0
34.8836861 7.94273901 6.0
7.61503029 86.207962 6.0
12.8573246 88.802803 6.0
34.3701859 11.7866821 6.0
55.7565041 29.883564 6.0
51.79002 13.1327534 6.0
45.5857124 12.7051506 6.0
84.8412399 7.44623423 6.0
27.7494164 88.7866974 6.0
24.6395512 88.1565628 6.0
28.9321156 69.0536118 6.0
28.1123486 70.7552338 6.0
55.6209221 12.1594658 6.0
31.2784767 31.5093002 6.0
14.5366755 11.2169437 6.0
16.1578941 11.4405117 6.0
21.6283855 11.941349 6.0
89.7524109 27.2022972 6.0
10.9460917 71.364151 6.0
11.0323944 69.747757 6.0
9.31064034 61.3383255 6.0
9.28175259 54.7274132 6.0
9.70771599 52.1883316 6.0
8.77940083 43.7854919 6.0
10.6691437 41.4680557 6.0
11.730814 39.953949 6.0
33.8987656 28.5570297 6.0
34.2375641 13.0238075 6.0
13.4471741 80.2368469 6.0
69.1289825 12.2639685 6.0
28.3572502 39.0841103 6.0
12.0850039 86.8831406 6.0
70.9440384 28.7023029 6.0
25.7126808 60.6135139 6.0
90.4603653 16.1965103 6.0
89.2679291 15.4429827 6.0
88.8822937 13.3127947 6.0
30.7952595 11.9540281 6.0
67.1723709 28.288559 6.0
77.2842941 29.5047588 6.0
77.1352005 27.88521 6.0
70.5365524 13.2216988 6.0
10.8485069 20.0378399 6.0
9.61607265 68.8813629 6.0
32.7402878 29.9507027 6.0
42.9952965 13.644721 6.0
30.9347992 87.1706924 6.0
65.8652802 27.9244671 6.0
29.1491165 50.867733 6.0
10.2948256 47.1675072 6.0
32.9444771 13.5865173 6.0
89.3192978 8.63311672 6.0
11.1520052 53.3958549 6.0
10.8450041 45.8121376 6.0
84.498848 9.77279568 6.0
88.2192917 26.0085106 6.0
26.3902855 86.7343903 6.0
22.1006393 85.3456879 6.0
20.7497444 84.4083939 6.0
10.5187817 13.5547323 6.0
68.5819168 13.5233545 6.0
26.9687157 68.6448517 6.0
88.3936539 20.4761982 6.0
85.1780701 24.8286781 6.0
12.5715055 72.5644913 6.0
44.4208908 14.9188595 6.0
48.9672813 15.3965979 6.0
12.0377007 19.018713 6.0
12.8959827 12.0910501 6.0
26.1510639 14.8280802 6.0
75.1997757 27.2765961 6.0
12.4827518 20.8407631 6.0
73.127327 28.004427 6.0
70.2515411 26.1953526 6.0
75.8560715 29.3087845 6.0
61.1306801 17.4093685 6.0
53.8669243 14.7523146 6.0
53.7750664 15.8839045 6.0
26.0237637 36.3595352 6.0
88.4357986 10.9758482 6.0
86.6358185 13.8187695 6.0
12.4070005 38.3811913 6.0
31.8189812 27.1235332 6.0
31.5039444 30.7075195 6.0
10.7718153 68.2008514 6.0
87.0246964 15.9022827 6.0
62.9440117 15.5425997 6.0
42.9024391 15.0618992 6.0
10.0039415 39.2405853 6.0
81.0905533 26.5554008 6.0
14.9210958 84.7249069 6.0
11.9330654 13.5185242 6.0
27.6489983 52.0979042 6.0
57.3963509 28.2559338 6.0
27.9062786 85.1621094 6.0
22.2199993 63.0753784 6.0
53.6759567 17.3745441 6.0
45.9606209 16.0026512 6.0
48.5356865 17.0463505 6.0
11.8071804 30.5773163 6.0
10.8956242 37.9307899 6.0
11.3068495 36.4906387 6.0
24.5804768 37.9916229 6.0
24.8758297 40.9515228 6.0
24.7944489 42.5766335 6.0
13.6051321 17.6091404 6.0
67.4887772 15.0893583 6.0
25.1814423 84.8050003 6.0
22.7367821 84.1996307 6.0
85.2703934 16.2083168 6.0
24.3766441 69.6846848 6.0
14.1040173 43.5059471 6.0
34.235363 16.77738 6.0
38.1133423 19.5913239 6.0
39.7303352 21.0441132 6.0
26.2593708 73.281662 6.0
14.1957674 73.4865341 6.0
14.5632715 69.4720459 6.0
24.1821747 15.5262556 6.0
31.3523312 19.0993118 6.0
14.002861 15.1102629 6.0
87.124855 10.870944 6.0
86.9942322 24.5922489 6.0
72.4655151 25.6342793 6.0
78.2705383 24.4468307 6.0
52.9283333 24.1413536 6.0
31.0912151 29.0968018 6.0
14.7434149 25.131815 6.0
12.4361439 46.3700294 6.0
85.374649 10.8556871 6.0
84.1576462 12.037322 6.0
82.8901978 13.3262234 6.0
21.5314655 60.8595428 6.0
43.4457588 24.4782372 6.0
68.0434723 23.402422 6.0
20.4704628 32.0873222 6.0
28.0297832 24.9456673 6.0
54.2085037 23.7917938 6.0
31.7813892 29.9512806 6.0
15.4408197 24.105484 6.0
17.313364 78.5340652 6.0
16.1987209 22.3613186 6.0
42.0452614 22.6459713 6.0
12.3246479 54.9970398 6.0
15.5035362 75.752182 6.0
29.2308483 83.3976059 6.0
23.9366894 49.8683243 6.0
12.5250254 58.1256866 6.0
15.7072935 44.534317 6.0
16.76717 43.3919296 6.0
18.0246296 42.4527359 6.0
56.1550713 20.5609722 6.0
57.1514473 22.1559391 6.0
24.7881126 74.5115128 6.0
25.2899342 83.429512 6.0
25.0010071 77.1282806 6.0
23.4661579 41.0119247 6.0
71.1767273 22.7110863 6.0
77.8312225 22.6748562 6.0
82.8883743 15.2602539 6.0
82.8421097 16.5588474 6.0
17.9463406 17.9230976 6.0
17.6445923 38.2701912 6.0
18.2786961 40.6170425 6.0
48.6104164 20.7407227 6.0
15.5440273 71.2230148 6.0
16.9526329 68.2087021 6.0
17.6859417 77.1983643 6.0
32.8900414 23.6990795 6.0
29.8537617 23.4937515 6.0
17.7008743 26.5708904 6.0
19.0282516 31.5667934 6.0
24.1092434 24.8158722 6.0
29.9899139 20.0877666 6.0
53.4829826 22.255579 6.0
79.4363174 20.7650204 6.0
16.0126247 55.6583595 6.0
70.0406723 19.0860519 6.0
80.7090073 22.3621864 6.0
84.4821091 18.2026901 6.0
36.8820305 22.8272419 6.0
46.2197723 18.8265686 6.0
54.9541283 21.6437778 6.0
60.6909561 21.7917576 6.0
26.3831139 82.1388855 6.0
25.449482 82.407692 6.0
24.637125 81.6981506 6.0
34.942009 21.3814964 6.0
16.1116524 64.0935593 6.0
16.1024952 35.8973961 6.0
27.1965275 80.7971878 6.0
25.9055061 80.8882446 6.0
67.4769058 20.3959637 6.0
12.9259758 32.1612701 6.0
19.9486332 22.2285366 6.0
66.0811996 16.4779987 6.0
20.962923 53.5213814 6.0
16.5612621 32.5664749 6.0
18.0424099 44.3399315 6.0
18.6817856 46.0379372 6.0
31.4068375 21.911581 6.0
28.3531418 21.4330578 6.0
18.5514965 68.5420456 6.0
20.4373589 66.1302643 6.0
15.6235819 72.3416214 6.0
22.9280205 15.4290953 6.0
21.7669239 15.0270472 6.0
14.8915272 31.8466949 6.0
20.4856014 37.0795059 6.0
19.243 36.8275146 6.0
20.746994 39.3864021 6.0
58.1576385 23.8985023 6.0
18.0216141 28.4195652 6.0
19.9681568 26.1444798 6.0
21.1471024 19.4974117 6.0
17.4790421 75.2965698 6.0
19.3581257 52.9000549 6.0
24.9510021 21.1205997 6.0
20.7905254 68.4069214 6.0
18.1482811 74.1274643 6.0
19.2431889 40.1226044 6.0
18.9559097 45.0914764 6.0
20.2019958 44.7656975 6.0
22.3651237 48.8103752 6.0
13.9796782 59.063961 6.0
20.7827625 27.7317581 6.0
20.9110527 23.0330124 6.0
21.5352421 41.3868675 6.0
20.2187157 40.6374664 6.0
18.9797344 58.4209137 6.0
96.0 0.0 8.0
94.0 0.0 8.0
90.0 0.0 8.0
88.0 0.0 8.0
84.0 0.0 8.0
82.0 0.0 8.0
78.0 0.0 8.0
76.0 0.0 8.0
72.0 0.0 8.0
68.0 0.0 8.0
66.0 0.0 8.0
62.0 0.0 8.0
60.0 0.0 8.0
56.0 0.0 8.0
54.0 0.0 8.0
50.0 0.0 8.0
46.0 0.0 8.0
44.0 0.0 8.0
40.0 0.0 8.0
38.0 0.0 8.0
34.0 0.0 8.0
32.0 0.0 8.0
28.0 0.0 8.0
26.0 0.0 8.0
22.0 0.0 8.0
18.0 0.0 8.0
16.0 0.0 8.0
12.0 0.0 8.0
10.0 0.0 8.0
6.0 0.0 8.0
4.0 0.0 8.0
100.0 0.0 8.0
0.0 0.0 8.0
0.0 4.0 8.0
0.0 6.0 8.0
0.0 10.0 8.0
0.0 12.0 8.0
0.0 16.0 8.0
0.0 18.0 8.0
0.0 22.0 8.0
0.0 24.0 8.0
0.0 28.0 8.0
0.0 32.0 8.0
0.0 34.0 8.0
0.0 38.0 8.0
0.0 40.0 8.0
0.0 44.0 8.0
0.0 46.0 8.0
0.0 50.0 8.0
0.0 54.0 8.0
0.0 56.0 8.0
0.0 60.0 8.0
0.0 62.0 8.0
0.0 66.0 8.0
0.0 68.0 8.0
0.0 72.0 8.0
0.0 74.0 8.0
0.0 78.0 8.0
0.0 82.0 8.0
0.0 84.0 8.0
0.0 88.0 8.0
0.0 90.0 8.0
0.0 94.0 8.0
0.0 96.0 8.0
0.0 100.0 8.0
4.0 100.0 8.0
10.0 100.0 8.0
14.0 100.0 8.0
20.0 100.0 8.0
24.0 100.0 8.0
30.0 100.0 8.0
34.0 100.0 8.0
40.0 100.0 8.0
40.0 44.0 8.0
40.0 48.0 8.0
40.0 52.0 8.0
40.0 54.0 8.0
40.0 58.0 8.0
40.0 62.0 8.0
40.0 66.0 8.0
40.0 70.0 8.0
40.0 74.0 8.0
40.0 78.0 8.0
40.0 82.0 8.0
40.0 84.0 8.0
40.0 88.0 8.0
40.0 92.0 8.0
40.0 96.0 8.0
40.0 40.0 8.0
96.0 40.0 8.0
92.0 40.0 8.0
88.0 40.0 8.0
86.0 40.0 8.0
82.0 40.0 8.0
78.0 40.0 8.0
74.0 40.0 8.0
70.0 40.0 8.0
66.0 40.0 8.0
62.0 40.0 8.0
58.0 40.0 8.0
56.0 40.0 8.0
52.0 40.0 8.0
48.0 40.0 8.0
44.0 40.0 8.0
100.0 40.0 8.0
100.0 36.0 8.0
100.0 30.0 8.0
100.0 26.0 8.0
100.0 20.0 8.0
100.0 16.0 8.0
100.0 10.0 8.0
100.0 6.0 8.0
4.15280294 4.16630173 8.0
8.3700285 4.30302286 8.0
12.4098711 3.93831658 8.0
16.310051 3.87328553 8.0
20.2036705 4.03112984 8.0
24.2145939 4.33294678 8.0
28.7772808 5.03288651 8.0
32.7411346 3.85475469 8.0
36.517067 3.82171869 8.0
42.0387802 3.86816287 8.0
45.8033981 4.06726742 8.0
50.004097 4.71917295 8.0
54.0183372 3.93797636 8.0
58.2245674 4.87414598 8.0
62.5502052 3.77882957 8.0
67.2750473 5.15574551 8.0
70.7734833 4.46764183 8.0
74.7921066 5.12396193 8.0
80.1252975 4.43903923 8.0
83.8619385 3.90427375 8.0
87.7472153 4.74412346 8.0
92.0174789 4.19015932 8.0
95.9748688 4.06366396 8.0
4.08784819 8.21089458 8.0
7.70617294 8.7223568 8.0
11.8222694 9.45137215 8.0
16.4834976 7.67375088 8.0
20.1508293 7.92666197 8.0
23.9054718 8.3372345 8.0
29.6148911 8.15605259 8.0
33.5872803 8.65404892 8.0
37.3790131 8.18856907 8.0
42.0682831 7.67571259 8.0
45.2545395 8.13835526 8.0
50.6868439 7.89065599 8.0
54.7233505 7.91246462 8.0
58.1124916 8.30289459 8.0
63.5312309 8.90739441 8.0
66.4926224 9.36891937 8.0
70.266922 8.85576248 8.0
74.6072693 8.20598602 8.0
78.887291 8.99817848 8.0
83.5705185 8.6196804 8.0
87.1733932 7.74610376 8.0
92.4673004 8.02637672 8.0
96.0442657 8.00386238 8.0
4.15784597 12.3741951 8.0
8.13913441 11.2280455 8.0
11.6115608 12.2554827 8.0
15.783946 13.1541872 8.0
19.8237171 11.9135256 8.0
25.0906906 12.4315615 8.0
28.5411053 13.5338497 8.0
32.6507111 11.8082571 8.0
37.7847595 12.6582613 8.0
41.9324951 12.8231945 8.0
47.5365639 12.5772104 8.0
50.3485565 12.1578379 8.0
54.0582619 12.9793854 8.0
57.7840309 11.7029543 8.0
62.4014587 12.0840816 8.0
65.8407898 13.2368259 8.0
71.3058472 11.4527121 8.0
75.3729706 11.4559326 8.0
79.5208511 11.5715017 8.0
83.1968002 10.9537067 8.0
87.5776596 12.5248318 8.0
91.1291122 12.7805576 8.0
95.5030365 12.2973223 8.0
3.75831175 16.2575455 8.0
9.60991383 16.2472248 8.0
13.1020365 16.4232578 8.0
17.3644218 16.8548775 8.0
20.8361092 15.8680401 8.0
25.001646 16.9155521 8.0
28.8136501 17.9389706 8.0
33.232933 17.5455017 8.0
37.7154274 17.0351391 8.0
40.7648697 16.8495979 8.0
44.923996 16.8988628 8.0
50.5142288 16.2069778 8.0
55.0853996 15.8484974 8.0
57.1431847 16.1924152 8.0
63.0562515 17.4309196 8.0
67.3248749 16.8482723 8.0
71.1770325 15.9822502 8.0
75.4041061 16.2060356 8.0
79.7553177 16.2358646 8.0
84.1440659 16.3749447 8.0
88.1792679 16.8311749 8.0
91.4832687 17.8696423 8.0
94.9203644 16.9201164 8.0
4.38782263 20.2206345 8.0
7.79606009 20.2994232 8.0
11.5397215 21.9488888 8.0
17.0244904 20.0665302 8.0
20.1300163 20.8272228 8.0
25.407053 22.435154 8.0
29.8942776 21.7187576 8.0
33.1837387 20.1862869 8.0
37.0446243 20.7140427 8.0
41.8205032 20.9896145 8.0
45.8697014 21.1519108 8.0
49.4784393 19.4253025 8.0
53.0983963 20.6343117 8.0
58.5140724 20.891243 8.0
63.0299683 20.8879604 8.0
66.159317 20.0903378 8.0
71.1514816 20.261879 8.0
75.8672943 20.6813812 8.0
83.9359207 20.3757648 8.0
86.7332458 21.3724556 8.0
91.6577988 20.5914078 8.0
95.0615692 20.9848003 8.0
4.2758131 25.8185272 8.0
8.92153645 25.581068 8.0
12.2322044 25.350338 8.0
16.2193375 25.7707939 8.0
20.7412853 24.9444885 8.0
23.4843674 26.2534599 8.0
29.8271694 25.3878326 8.0
34.2556419 23.6067848 8.0
37.5835686 24.3730526 8.0
41.2360458 24.6371765 8.0
45.0844116 25.1228313 8.0
49.7854538 22.8705997 8.0
54.516613 25.640873 8.0
59.3007126 25.176712 8.0
62.9642868 24.860117 8.0
66.5198059 24.0174923 8.0
71.1389465 24.8826885 8.0
74.7060623 24.7096901 8.0
80.1701279 24.4889812 8.0
82.8194733 24.7170162 8.0
88.1828995 24.3349209 8.0
91.5007782 26.0758648 8.0
96.0914612 25.1077728 8.0
4.12153435 29.8405972 8.0
8.12670517 29.9287109 8.0
12.3276138 29.1126747 8.0
17.891346 29.6010857 8.0
19.9165077 29.7743073 8.0
24.1680698 28.5607719 8.0
28.7385654 29.4620323 8.0
33.5126534 26.9827881 8.0
37.2080498 28.4549294 8.0
41.3557091 30.2081146 8.0
45.8551865 29.3451328 8.0
50.2635193 28.9758949 8.0
53.9765129 29.7054253 8.0
59.2410965 29.725811 8.0
62.8574982 29.844656 8.0
66.6092834 29.8013401 8.0
72.457695 29.682724 8.0
75.5888138 30.7709637 8.0
80.0881348 27.9142723 8.0
83.9328842 29.5340824 8.0
90.2335663 29.1997643 8.0
96.8320312 28.3486118 8.0
4.05126572 33.8147278 8.0
7.86805677 33.5986137 8.0
11.5691948 33.5320549 8.0
15.6512451 34.0631256 8.0
20.7817345 33.6513672 8.0
24.1799011 33.6730843 8.0
28.9775124 33.6707878 8.0
33.2053719 32.4453812 8.0
37.5459251 32.510643 8.0
41.5680809 34.3973045 8.0
46.5124626 32.8294144 8.0
51.5057793 33.5717773 8.0
55.6175842 33.8958321 8.0
59.4664459 33.9691467 8.0
63.0839119 33.9117432 8.0
66.2320786 33.289196 8.0
71.8458176 33.9285126 8.0
75.3805618 34.1727104 8.0
78.3972626 34.1357231 8.0
83.5370407 34.0955658 8.0
87.8008957 32.3388023 8.0
89.9807205 33.0815544 8.0
96.5144882 31.9332428 8.0
4.19800043 37.7831001 8.0
8.14406967 36.9041748 8.0
12.8731489 36.7465286 8.0
16.0549393 37.1026001 8.0
20.757597 38.1237068 8.0
24.7427673 36.8159218 8.0
28.1208649 37.4598198 8.0
32.189827 38.6742935 8.0
35.9814529 36.5879669 8.0
41.8842735 38.205143 8.0
45.5332794 36.2086601 8.0
49.7692986 37.9204025 8.0
53.7858467 37.9133072 8.0
59.7922363 37.9785843 8.0
63.7529221 37.907032 8.0
67.7615738 37.7140503 8.0
71.8479996 37.9386864 8.0
75.7865372 37.9757805 8.0
79.7641525 37.8336411 8.0
83.7548828 38.025013 8.0
87.7194824 37.9912453 8.0
91.7854843 37.6752167 8.0
96.0350113 35.8526955 8.0
4.09324217 41.738945 8.0
8.81849289 40.6585922 8.0
12.431735 42.4387627 8.0
16.890871 41.2837067 8.0
20.5276642 42.6177711 8.0
26.7052555 42.5306129 8.0
30.529047 42.270092 8.0
34.3961258 42.0997276 8.0
38.1927643 42.0220337 8.0
3.91039777 45.6618385 8.0
9.25484943 45.8131638 8.0
11.662838 47.7963028 8.0
16.5130119 46.5954971 8.0
20.3243256 46.237606 8.0
24.8194466 46.0546417 8.0
28.8794708 45.8209877 8.0
32.6718979 45.7659073 8.0
36.4192772 45.8305321 8.0
4.77405548 49.7210579 8.0
8.03316021 49.4093513 8.0
12.3197289 50.0527802 8.0
16.7371044 50.1016312 8.0
20.6857967 49.7393761 8.0
24.1830845 51.4275017 8.0
29.1357117 49.2390862 8.0
32.7705078 49.4234047 8.0
36.4353943 49.7092934 8.0
3.87597275 53.9978447 8.0
9.15812302 56.199646 8.0
12.8755178 53.8488464 8.0
16.8944473 53.9203987 8.0
20.149786 55.1324615 8.0
24.1427498 54.5679817 8.0
28.4243031 53.9264069 8.0
32.1190109 54.8081055 8.0
35.9799156 55.5280266 8.0
3.68565226 57.8081169 8.0
9.16372395 59.4611397 8.0
12.011548 59.2983932 8.0
16.8973866 58.5782089 8.0
20.6859741 58.7508354 8.0
24.7122173 58.3076591 8.0
29.1280937 57.841877 8.0
33.0435638 58.7932549 8.0
37.3656464 60.0388031 8.0
3.69408369 63.4390411 8.0
7.41960859 63.110508 8.0
11.7919788 63.3858795 8.0
16.4330254 61.7685623 8.0
20.6056347 62.3886909 8.0
24.7643566 62.2271843 8.0
29.6562099 62.5214233 8.0
34.2026138 62.6263733 8.0
38.0386848 64.1818771 8.0
3.82566929 67.1241684 8.0
8.50469875 66.5183182 8.0
12.6346502 67.078331 8.0
17.7474327 66.0749207 8.0
21.7947865 66.9165268 8.0
24.2558117 66.0605087 8.0
28.8530903 65.3733521 8.0
32.1786537 66.1324539 8.0
38.0261154 68.1219101 8.0
4.9681201 71.0353317 8.0
7.90629196 69.8165207 8.0
12.601656 71.0750198 8.0
17.3022614 72.5831985 8.0
21.7184258 70.7945633 8.0
25.4765396 71.6427689 8.0
29.9428158 71.4903107 8.0
33.3351173 70.4414902 8.0
38.0843239 72.0172119 8.0
4.52242661 75.7000198 8.0
9.07929611 75.0182953 8.0
13.0730591 74.9469681 8.0
14.5960293 75.3255463 8.0
21.2461987 74.5138168 8.0
24.8379269 75.9376144 8.0
28.5806446 75.7642593 8.0
32.496994 75.9791718 8.0
38.1397781 75.9810028 8.0
6.12833405 80.1760635 8.0
9.02919769 79.3044205 8.0
11.9899549 79.1563187 8.0
16.4112377 80.1904221 8.0
21.6344643 79.1844177 8.0
25.4465008 79.2600174 8.0
30.3586178 79.5625687 8.0
34.2984428 79.7133408 8.0
38.1055908 79.9152603 8.0
5.11151981 83.8960571 8.0
8.8939352 83.2650223 8.0
12.5922203 83.614151 8.0
15.5188236 82.4895325 8.0
19.2533894 83.4165497 8.0
26.5462074 83.4956131 8.0
30.7468262 83.3473053 8.0
34.2793007 83.5418472 8.0
38.0822792 83.8526993 8.0
3.52774525 87.5252457 8.0
8.81181717 86.9140854 8.0
13.0578899 87.5302963 8.0
16.6326694 88.444046 8.0
19.3906593 87.8338776 8.0
24.9696445 86.4078064 8.0
29.3275433 87.070549 8.0
34.3470154 87.4021301 8.0
38.1072197 87.7816772 8.0
4.90272856 91.5592346 8.0
8.14474487 90.7507935 8.0
16.4196415 92.1858826 8.0
19.5498638 91.8949509 8.0
25.7391472 92.2520828 8.0
29.3708534 92.6440811 8.0
34.4703255 91.1095123 8.0
38.1193008 91.6591644 8.0
4.22867298 96.0440826 8.0
10.0475225 96.6350555 8.0
13.8715944 95.7668915 8.0
17.8814087 96.3623047 8.0
21.6345825 95.9033051 8.0
25.6584339 96.0445862 8.0
29.5857906 96.2755585 8.0
33.3732033 96.3582687 8.0
37.4657669 95.6894913 8.0
98.0 0.0 8.0
92.0 0.0 8.0
86.0 0.0 8.0
80.0 0.0 8.0
74.0 0.0 8.0
70.0 0.0 8.0
64.0 0.0 8.0
58.0 0.0 8.0
52.0 0.0 8.0
48.0 0.0 8.0
42.0 0.0 8.0
36.0 0.0 8.0
30.0 0.0 8.0
24.0 0.0 8.0
20.0 0.0 8.0
14.0 0.0 8.0
8.0 0.0 8.0
2.0 0.0 8.0
0.0 2.0 8.0
0.0 8.0 8.0
0.0 14.0 8.0
0.0 20.0 8.0
0.0 26.0 8.0
0.0 30.0 8.0
0.0 36.0 8.0
0.0 42.0 8.0
0.0 48.0 8.0
0.0 52.0 8.0
0.0 58.0 8.0
0.0 64.0 8.0
0.0 70.0 8.0
0.0 76.0 8.0
0.0 80.0 8.0
0.0 86.0 8.0
0.0 92.0 8.0
0.0 98.0 8.0
2.0 100.0 8.0
6.0 100.0 8.0
8.0 100.0 8.0
12.0 100.0 8.0
16.0 100.0 8.0
18.0 100.0 8.0
22.0 100.0 8.0
26.0 100.0 8.0
28.0 100.0 8.0
32.0 100.0 8.0
36.0 100.0 8.0
38.0 100.0 8.0
40.0 42.0 8.0
40.0 46.0 8.0
40.0 50.0 8.0
40.0 56.0 8.0
40.0 60.0 8.0
40.0 64.0 8.0
40.0 68.0 8.0
40.0 72.0 8.0
40.0 76.0 8.0
40.0 80.0 8.0
40.0 86.0 8.0
40.0 90.0 8.0
40.0 94.0 8.0
40.0 98.0 8.0
98.0 40.0 8.0
94.0 40.0 8.0
90.0 40.0 8.0
84.0 40.0 8.0
80.0 40.0 8.0
76.0 40.0 8.0
72.0 40.0 8.0
68.0 40.0 8.0
64.0 40.0 8.0
60.0 40.0 8.0
54.0 40.0 8.0
50.0 40.0 8.0
46.0 40.0 8.0
42.0 40.0 8.0
100.0 38.0 8.0
100.0 34.0 8.0
100.0 32.0 8.0
100.0 28.0 8.0
100.0 24.0 8.0
100.0 22.0 8.0
100.0 18.0 8.0
100.0 14.0 8.0
100.0 12.0 8.0
100.0 8.0 8.0
100.0 4.0 8.0
100.0 2.0 8.0
97.9777451 2.02768016 8.0
97.9789886 4.03089714 8.0
2.07358479 8.10907173 8.0
2.05820894 12.1656446 8.0
1.98620641 14.1394176 8.0
1.93720841 18.1335659 8.0
2.00782228 20.0684948 8.0
2.10687375 23.8918495 8.0
2.13435316 25.8832397 8.0
2.0704968 29.9053726 8.0
37.7429237 57.8514519 8.0
38.2184906 43.9540253 8.0
93.9694748 2.0776248 8.0
91.9652557 2.12642908 8.0
87.9117432 2.24420738 8.0
85.9171677 2.07500529 8.0
81.9917374 2.00087476 8.0
80.0748444 2.11084795 8.0
75.9322968 2.9164319 8.0
73.6263351 2.43498516 8.0
69.6520309 1.77531433 8.0
66.3573608 3.21641779 8.0
60.154068 2.11116982 8.0
58.1199417 2.27115297 8.0
54.0369682 2.05160117 8.0
47.9454994 2.15375113 8.0
43.9783974 1.96019375 8.0
42.0242004 1.92016995 8.0
38.1807404 1.90586281 8.0
36.2688789 1.88322866 8.0
32.3249359 1.98014402 8.0
30.3312702 2.17806387 8.0
26.2567406 2.32453847 8.0
24.1695843 2.20366979 8.0
20.1300068 2.02931666 8.0
16.1644192 1.94480932 8.0
10.168519 2.053334 8.0
8.1655674 2.12163949 8.0
4.09534264 2.09816384 8.0
2.05239534 2.05588078 8.0
2.07770967 6.09192133 8.0
2.04366374 33.9119415 8.0
2.05847144 35.9143753 8.0
2.08272195 39.8729935 8.0
2.03317189 41.843544 8.0
1.99054623 45.8621902 8.0
2.10603094 51.906559 8.0
1.88036633 55.9323463 8.0
1.8405571 57.8952293 8.0
1.8424269 61.7781639 8.0
1.83979464 63.7194901 8.0
1.96613252 67.610199 8.0
2.15273523 69.6026917 8.0
2.33596849 73.6940613 8.0
2.24934721 75.7982941 8.0
1.99771571 79.8592148 8.0
21.8477383 98.0061569 8.0
25.8021641 98.0215759 8.0
29.7701359 98.1323318 8.0
3.44931078 83.8054047 8.0
1.72573626 85.8332291 8.0
15.9558249 98.0690842 8.0
2.06564093 89.8370972 8.0
2.29641581 91.8454437 8.0
2.14185452 95.9696274 8.0
2.05594397 97.9916992 8.0
6.07426167 98.1258545 8.0
12.0252962 98.2028503 8.0
33.6980057 98.1494827 8.0
2.1010766 47.8797226 8.0
38.0941925 81.8831406 8.0
38.1295471 77.9486542 8.0
55.8043098 37.9459114 8.0
98.1324539 34.0024071 8.0
98.3670959 28.1663036 8.0
97.8758774 24.3266296 8.0
97.9791641 8.02656937 8.0
98.0632782 14.0960903 8.0
14.1779165 1.94329894 8.0
51.9807281 2.08443713 8.0
64.1679611 1.71061313 8.0
93.8782043 37.7623711 8.0
96.8681488 17.6859417 8.0
97.1909485 22.1171436 8.0
95.9772873 2.04454851 8.0
89.9288101 2.20461535 8.0
83.9469452 1.98032379 8.0
78.1273041 2.21196461 8.0
71.5358353 2.17836094 8.0
67.7020187 2.73225737 8.0
62.1924095 1.90735137 8.0
56.0751915 2.159657 8.0
49.9569817 2.22546172 8.0
45.9489975 2.04053044 8.0
40.0799408 1.90784788 8.0
34.3142853 1.89226198 8.0
28.3404236 2.37836218 8.0
22.1344433 2.10110784 8.0
18.1458569 1.97453344 8.0
12.1792488 1.98596025 8.0
6.14116096 2.13063502 8.0
2.07542968 4.08336639 8.0
2.07084703 10.1528549 8.0
1.91876531 16.1210232 8.0
1.92626727 21.9725304 8.0
2.1016624 27.8995266 8.0
2.04677033 31.9101028 8.0
2.07850504 37.9033966 8.0
1.98421705 43.8463707 8.0
2.22611141 49.8698463 8.0
1.97091675 53.9394035 8.0
1.83134592 59.8379593 8.0
1.86784685 65.6580048 8.0
2.36619353 71.5862656 8.0
2.15305543 77.8379745 8.0
3.70381045 81.88311 8.0
1.83162522 87.8231812 8.0
2.2565167 93.9081497 8.0
4.07907486 98.0377655 8.0
8.05652237 98.2251129 8.0
10.0260944 98.2752533 8.0
13.991684 98.0322876 8.0
17.9280396 98.132637 8.0
19.9090309 98.0882797 8.0
23.8090248 97.9918976 8.0
27.7935486 98.0832901 8.0
31.73382 98.1656189 8.0
35.7065697 98.0623779 8.0
38.0953598 85.8216476 8.0
38.1307983 89.7312241 8.0
85.7261047 38.0521507 8.0
81.7696152 37.9294739 8.0
77.7732925 37.9191704 8.0
73.8214417 37.9884644 8.0
69.8189316 37.8253517 8.0
65.7592087 37.8058624 8.0
61.7722359 37.9624405 8.0
43.8345337 38.1668205 8.0
98.0470047 35.9661636 8.0
98.2543182 32.0281067 8.0
98.3599854 30.0868149 8.0
98.2198792 26.2712421 8.0
97.8059692 19.8143234 8.0
96.5135269 16.2565136 8.0
97.8826218 12.124095 8.0
97.9330597 10.0703964 8.0
97.9884186 6.02511358 8.0
37.9249458 62.2250137 8.0
89.7504959 37.8245468 8.0
35.6035461 57.4218521 8.0
36.3731308 43.9288216 8.0
57.6552353 35.9556427 8.0
43.6296196 36.2889366 8.0
93.9382629 35.5533791 8.0
36.2864532 93.0469894 8.0
89.3270416 35.7279129 8.0
36.2638283 89.4834518 8.0
61.5328407 35.9546623 8.0
35.9574203 61.2229691 8.0
85.4604645 36.1445885 8.0
36.1844521 85.644577 8.0
65.3939667 35.6786079 8.0
37.7876244 97.911293 8.0
4.14432192 6.19512081 8.0
39.9355545 38.2384644 8.0
96.2570496 33.8576469 8.0
89.9982376 4.37202454 8.0
68.8860931 3.56154728 8.0
55.9487572 4.24579859 8.0
40.1569595 3.90319729 8.0
18.2523308 3.92974091 8.0
6.25933504 4.26504946 8.0
4.08556271 10.3053751 8.0
4.06172323 31.8344917 8.0
3.9276576 43.7068367 8.0
3.68401504 59.6896935 8.0
5.52547646 82.121933 8.0
4.48927546 93.9479904 8.0
38.1275787 40.1264877 8.0
11.8836975 96.5359802 8.0
16.0339603 96.1076584 8.0
35.2953873 96.249588 8.0
95.9947739 9.99723244 8.0
96.0222778 6.03299141 8.0
81.6809692 35.8492622 8.0
36.181736 81.7511673 8.0
69.8243256 35.7035904 8.0
77.4595871 35.9581985 8.0
36.2457428 77.8971252 8.0
73.6734238 36.0120125 8.0
38.023632 38.3132057 8.0
39.8192711 36.3826485 8.0
36.2334938 40.2220802 8.0
36.1200867 94.3822403 8.0
6.02964687 31.789854 8.0
18.3066254 5.85710955 8.0
69.306221 6.25305557 8.0
7.25273037 82.6102219 8.0
14.6962414 93.7181549 8.0
36.3133774 42.0612526 8.0
35.0757561 59.2145996 8.0
59.6187134 35.9788666 8.0
41.7272453 36.333271 8.0
36.3139458 91.3290939 8.0
91.5466919 35.0149345 8.0
90.3926239 6.38720465 8.0
10.1993361 95.0842896 8.0
94.307663 9.74599075 8.0
5.90491438 10.3377228 8.0
40.3272133 5.89250517 8.0
5.53581095 59.5755272 8.0
36.1063004 62.6111641 8.0
63.4445877 35.8800812 8.0
36.2318611 87.5775833 8.0
87.3506927 36.051403 8.0
36.1866913 83.6968689 8.0
67.5532684 35.1669807 8.0
83.5963593 36.0599403 8.0
37.9621353 55.8330612 8.0
45.7985573 38.1042557 8.0
36.2194595 79.8221283 8.0
71.8074951 35.9283371 8.0
79.5484238 35.4858513 8.0
34.4067307 76.0012207 8.0
75.561615 36.04702 8.0
94.1031647 6.05548716 8.0
55.3778687 6.11710548 8.0
5.78165865 43.635273 8.0
6.25397968 6.36241102 8.0
6.57090378 94.320755 8.0
77.0831223 34.2555962 8.0
73.5920639 34.0529518 8.0
34.5556335 92.8519516 8.0
5.98948288 33.7020111 8.0
16.4175491 5.76816511 8.0
6.74583149 84.2154846 8.0
66.8594513 7.3932209 8.0
12.3615532 94.3610458 8.0
33.5806465 56.9922676 8.0
34.4815559 43.9280319 8.0
57.5798912 33.9605675 8.0
43.4221611 34.3951073 8.0
92.2383728 6.14427376 8.0
94.2443695 7.94405508 8.0
8.49669552 94.734024 8.0
5.97816658 8.33428288 8.0
42.0791283 5.78274012 8.0
5.49794102 57.7658958 8.0
34.4428749 60.8862953 8.0
61.3039818 33.958374 8.0
36.0541611 66.2593079 8.0
88.5539627 33.8702774 8.0
34.4192276 89.2880554 8.0
85.2299728 34.2759209 8.0
34.320446 85.4809113 8.0
64.7842484 33.7781105 8.0
47.7900696 38.0094528 8.0
80.2031174 33.4021797 8.0
70.1646729 33.822216 8.0
36.2492714 74.0543823 8.0
39.6685333 34.4439621 8.0
34.3029747 40.3091507 8.0
94.0188599 4.08966827 8.0
53.1475677 7.30262041 8.0
7.70427513 46.2918358 8.0
8.18962955 96.4694901 8.0
31.4878559 96.3507767 8.0
19.7606239 96.1866226 8.0
95.6472855 18.9531288 8.0
30.8592548 4.25792503 8.0
3.77288318 18.1553211 8.0
82.0824966 3.91230774 8.0
4.16989946 69.0088272 8.0
34.1759109 38.5383911 8.0
37.7242203 34.525631 8.0
32.4017105 77.7972946 8.0
81.9899521 31.7416096 8.0
32.3972893 81.4833984 8.0
69.2749329 31.5835838 8.0
8.61241627 6.74568701 8.0
32.5240479 85.3469467 8.0
64.3781738 32.044075 8.0
94.8291473 31.5913105 8.0
31.6294212 56.5676079 8.0
32.5696487 43.959343 8.0
57.546093 31.9541569 8.0
43.3093224 32.4640274 8.0
73.642952 32.0904808 8.0
47.515625 36.0174522 8.0
61.1233025 31.886158 8.0
32.6377411 89.1522827 8.0
31.2874298 94.5537109 8.0
95.2369537 29.8497715 8.0
19.3374424 94.3917236 8.0
93.4413681 19.0064392 8.0
31.7593384 6.06173229 8.0
5.11504412 17.9046974 8.0
82.3341446 5.37863398 8.0
5.83372259 68.0953903 8.0
6.05369997 35.5903168 8.0
7.92939377 31.8086033 8.0
14.5621204 5.74809504 8.0
18.2942066 7.78457499 8.0
68.5991287 8.0523653 8.0
9.57456207 81.7744446 8.0
4.91865635 85.5627823 8.0
64.9718628 5.33798122 8.0
15.1994896 92.2675934 8.0
45.2452316 34.3835144 8.0
34.0119286 55.1805573 8.0
34.5613213 45.7894592 8.0
55.6761703 35.9073906 8.0
94.3689346 33.5008926 8.0
9.05845547 93.0684509 8.0
7.2027092 10.1222811 8.0
43.8023987 5.8695755 8.0
5.53366232 55.9812889 8.0
40.7539062 7.42299318 8.0
7.37802172 59.5184288 8.0
34.1478081 64.3795547 8.0
38.039299 66.1477585 8.0
38.123806 74.0076523 8.0
34.4167786 74.203064 8.0
52.4615021 5.32656193 8.0
6.04620075 46.953495 8.0
7.44277954 45.0739441 8.0
35.7643127 34.6678047 8.0
34.2943611 81.6137619 8.0
68.5629959 33.1988258 8.0
34.3559113 77.8577423 8.0
92.7060776 9.76448536 8.0
56.5921288 9.56820107 8.0
9.11793804 44.7364388 8.0
93.8693771 29.2071877 8.0
7.42889929 61.3462029 8.0
39.8341713 8.54022026 8.0
9.84423161 91.4402161 8.0
14.3264112 90.9262619 8.0
92.8897858 11.4940968 8.0
88.6891556 6.85798502 8.0
68.0718155 9.88250923 8.0
10.8187323 82.5135574 8.0
18.2014103 9.75073814 8.0
9.77937222 31.9110203 8.0
91.2113724 9.87779236 8.0
90.8464203 8.22504234 8.0
30.5520916 75.8813095 8.0
78.8150024 31.257452 8.0
32.3802452 79.6249008 8.0
71.7498322 31.6467724 8.0
10.7765284 6.09899187 8.0
90.9995575 31.7336235 8.0
32.4638405 42.1768951 8.0
31.0448647 58.3756523 8.0
59.3680534 31.9085045 8.0
41.4287567 32.3794365 8.0
32.8579826 92.7994308 8.0
16.6251278 94.0654144 8.0
92.6959457 16.021841 8.0
32.6612129 7.55005932 8.0
5.50120068 16.5528507 8.0
83.7581558 5.95435429 8.0
6.97029305 67.4064789 8.0
6.14774656 29.8327007 8.0
4.08969641 35.7866058 8.0
7.91221762 35.2933311 8.0
14.7192383 7.60975218 8.0
14.3662395 3.86516857 8.0
20.2051067 5.98114491 8.0
71.4734879 6.01963186 8.0
7.97956371 80.9208984 8.0
6.35085201 85.680809 8.0
64.9641495 9.09896564 8.0
3.37699103 85.6676788 8.0
64.5309677 3.52651405 8.0
43.6317902 7.77972031 8.0
7.31865215 57.7609978 8.0
38.480751 6.48477602 8.0
5.54501152 61.4317894 8.0
52.101593 3.97511482 8.0
43.915287 3.92055345 8.0
4.17737341 47.5874939 8.0
3.72936201 55.9321823 8.0
36.1056633 72.0994568 8.0
56.9400787 6.85077333 8.0
6.15457487 41.7650299 8.0
8.24638748 47.380127 8.0
34.609623 47.6692963 8.0
53.6505432 35.8318329 8.0
32.4820595 83.4148636 8.0
67.9699554 30.6670723 8.0
32.595005 87.2698441 8.0
62.8244286 31.9490814 8.0
7.14917421 92.4568024 8.0
75.4056931 32.3968735 8.0
33.9925423 36.7496834 8.0
89.8071747 10.1793556 8.0
31.1354961 92.7442245 8.0
35.3817406 32.5326843 8.0
31.6496811 35.1446419 8.0
32.4858932 60.6436386 8.0
88.8566437 31.6752129 8.0
35.8973312 70.1905441 8.0
9.30237103 46.7216492 8.0
54.4442062 10.0827837 8.0
95.6291504 28.5106392 8.0
10.7649708 59.4166985 8.0
41.753231 9.83702374 8.0
7.89036894 88.3745956 8.0
9.97811985 8.47827339 8.0
59.5313072 6.95588541 8.0
6.81328201 39.6105118 8.0
12.3832235 90.4114456 8.0
66.1113663 11.3252296 8.0
10.7162447 83.9863281 8.0
16.4165554 9.59224796 8.0
9.71781349 33.5302238 8.0
30.4032803 77.770546 8.0
32.6427994 74.3134613 8.0
6.49776077 12.5716705 8.0
5.51482391 63.2341232 8.0
36.5761337 5.74044085 8.0
81.9966431 29.6709061 8.0
30.5751781 81.4242249 8.0
68.6844864 29.1481228 8.0
11.3887501 7.86378717 8.0
39.518795 32.4168129 8.0
32.3409538 40.4164505 8.0
57.5211334 29.9647636 8.0
29.734663 56.0939674 8.0
30.6640453 44.0235748 8.0
43.4111443 30.4943848 8.0
18.3522205 93.0774155 8.0
91.6073303 19.1941147 8.0
94.2269363 15.1406736 8.0
34.8526115 5.43650627 8.0
31.7053528 8.31233501 8.0
5.93113756 14.7512789 8.0
7.20288086 17.3513908 8.0
82.4662094 7.40990305 8.0
7.77359104 67.8736801 8.0
85.260994 5.46994972 8.0
5.47102547 64.9689713 8.0
6.27090979 37.4958992 8.0
12.6996107 5.83394623 8.0
6.07062292 86.8097382 8.0
63.4071846 7.2595005 8.0
6.7650795 48.3393898 8.0
51.5494919 6.34012318 8.0
6.64682198 89.835144 8.0
30.8643188 85.2609253 8.0
64.5399933 30.3879776 8.0
30.9543743 89.0542603 8.0
61.0392303 29.6539574 8.0
74.0015259 30.3298988 8.0
77.0812454 32.6124916 8.0
86.2501831 6.38288546 8.0
93.1297607 13.3915157 8.0
22.1437759 6.13853264 8.0
6.31864643 27.8395309 8.0
72.7722015 6.23265314 8.0
7.13650942 77.8801804 8.0
89.6039581 30.5793037 8.0
94.7402802 27.3964443 8.0
6.81716681 50.7673187 8.0
49.0468521 6.90915203 8.0
6.83938122 87.53125 8.0
81.2753754 8.64245701 8.0
8.75843811 68.3900528 8.0
89.8804779 19.5528088 8.0
9.33096218 18.3794117 8.0
30.7796516 8.87436771 8.0
87.9135513 9.24955463 8.0
10.7746687 93.6212387 8.0
29.9902592 37.1623497 8.0
37.45895 30.4364662 8.0
33.4642944 33.4126587 8.0
18.0469398 90.9128036 8.0
61.187748 6.0717845 8.0
87.9979324 30.7910023 8.0
32.1590614 62.52248 8.0
38.02425 70.0759277 8.0
9.28309155 48.2880821 8.0
52.4044113 8.96146584 8.0
11.1088095 44.1086845 8.0
9.10940552 57.7874489 8.0
43.3900681 9.35994148 8.0
11.1261683 61.1599731 8.0
40.4106827 11.6187305 8.0
10.0355015 87.6420441 8.0
10.7350769 9.5398531 8.0
14.534914 88.8217621 8.0
67.6143723 11.6816082 8.0
12.2378502 81.7526169 8.0
64.6077347 11.0343742 8.0
9.62982178 85.4684982 8.0
17.9778633 11.698595 8.0
14.748024 9.44557095 8.0
11.5163832 32.0783997 8.0
9.73065853 35.0460052 8.0
8.46030712 13.8307695 8.0
7.24060965 64.8072891 8.0
34.0795593 7.87258768 8.0
83.5857773 32.017231 8.0
39.375721 30.296423 8.0
30.2546234 54.4168205 8.0
45.3716774 30.9874668 8.0
93.2713013 20.5320435 8.0
96.0555038 14.4131861 8.0
30.4886951 6.85977411 8.0
33.6854057 6.94184732 8.0
7.78882265 15.5409756 8.0
6.15779352 18.9707508 8.0
81.2439957 6.19931269 8.0
6.64368629 69.2039566 8.0
7.05225563 66.3039017 8.0
32.7355537 90.9963226 8.0
85.7976379 8.69785309 8.0
91.6885757 14.9030066 8.0
88.1558762 29.7498894 8.0
28.3267612 77.7407913 8.0
77.2044907 31.0544052 8.0
81.5581741 27.8574982 8.0
28.9040489 81.5792007 8.0
69.3790512 27.5789585 8.0
74.4990616 28.7373753 8.0
30.4050655 40.5570564 8.0
30.8456879 74.0415344 8.0
60.5631828 8.5818758 8.0
8.69553089 38.292675 8.0
29.3303947 85.2118301 8.0
65.0905838 28.9173775 8.0
29.3324928 88.9489288 8.0
61.0284691 27.2590122 8.0
32.7481041 47.5976334 8.0
53.6288109 33.7731018 8.0
72.5524292 7.91524124 8.0
9.58581066 76.590126 8.0
22.0144444 8.0966711 8.0
8.44795418 27.9355221 8.0
28.744669 44.1131554 8.0
55.9870567 27.8136005 8.0
27.834362 55.5368576 8.0
43.7575531 28.5973206 8.0
51.7722511 37.8918495 8.0
36.4380112 47.7690048 8.0
73.0529785 4.49912214 8.0
4.43959475 77.7838364 8.0
22.1787624 4.1500535 8.0
4.1967802 27.8413677 8.0
32.2094383 64.3288116 8.0
5.70662594 54.2023506 8.0
45.5599899 6.07843971 8.0
34.3194008 53.3339424 8.0
87.1882553 31.0890751 8.0
81.8477783 33.811367 8.0
96.5336609 26.7375679 8.0
4.20304775 51.9865646 8.0
47.7757797 4.31141615 8.0
9.76941299 67.1368561 8.0
82.371048 9.75655174 8.0
89.4679184 17.9452209 8.0
11.5389643 16.3760777 8.0
32.681118 9.92818451 8.0
39.0874825 28.1763935 8.0
28.5065193 40.721096 8.0
30.6608601 52.7562752 8.0
47.2376709 31.76614 8.0
35.5026741 28.5549259 8.0
29.5778389 35.4410477 8.0
16.3477917 90.5549469 8.0
60.5005112 4.20933008 8.0
4.27072477 39.7337723 8.0
30.3895607 60.3044777 8.0
10.8351784 57.8486099 8.0
43.1535721 11.5542746 8.0
38.4575272 10.2745419 8.0
9.40707493 63.2020988 8.0
9.72167683 12.3173361 8.0
36.3831978 10.4490862 8.0
9.04342556 64.9884491 8.0
89.6658249 12.108758 8.0
90.9778061 27.7904835 8.0
79.8768082 26.2815514 8.0
59.2944221 9.93213463 8.0
27.8390312 86.9385986 8.0
10.2834044 10.6307297 8.0
30.8884869 47.5486755 8.0
53.7520866 31.7471313 8.0
31.6946964 72.1929626 8.0
72.0145874 9.67229462 8.0
10.6395521 77.9427338 8.0
74.0118866 6.4789176 8.0
6.85724163 75.5569687 8.0
21.8323135 10.0376368 8.0
24.093996 6.35712767 8.0
10.4553223 28.4544792 8.0
6.4142561 25.9090443 8.0
28.6304474 42.4141197 8.0
27.2181129 57.2439156 8.0
58.7791443 27.1650982 8.0
41.33078 27.7274475 8.0
51.5788422 35.7416115 8.0
34.5966415 49.5636559 8.0
28.7022972 73.6165771 8.0
13.1256857 44.9114571 8.0
56.0634155 14.0120983 8.0
93.8564301 22.6397476 8.0
12.732233 60.3977737 8.0
39.5164223 13.6093941 8.0
86.632019 29.8324089 8.0
11.4997692 34.9954453 8.0
13.173851 10.9463129 8.0
11.5061197 85.2062454 8.0
26.6345406 75.8457565 8.0
28.0435677 79.6737213 8.0
71.7061462 27.1648254 8.0
52.9174767 11.6554193 8.0
14.1969585 87.0268021 8.0
63.3574028 27.4632339 8.0
27.8396149 83.4738083 8.0
67.4889145 26.2818623 8.0
76.1086731 28.1434441 8.0
21.2725677 93.4625778 8.0
67.3543396 13.4140635 8.0
13.7382984 82.0883789 8.0
17.5802765 13.4916458 8.0
13.4651985 31.088438 8.0
32.6786232 51.2457695 8.0
35.9363327 68.2372131 8.0
30.7274876 65.9235687 8.0
25.9611263 54.9541702 8.0
26.9118729 45.8997993 8.0
54.274929 27.6336308 8.0
44.423069 26.8846149 8.0
36.3585205 51.6610451 8.0
61.8790512 7.6518569 8.0
30.3365669 64.5260468 8.0
27.9417667 7.24154758 8.0
6.1941123 21.8103867 8.0
78.7315292 6.18712759 8.0
7.1824522 71.5569534 8.0
82.9117203 27.3218975 8.0
88.4187012 28.0058594 8.0
29.4539814 94.4589844 8.0
33.7578926 68.2313995 8.0
34.0326805 66.2620163 8.0
30.8741684 51.0397873 8.0
9.77210999 36.4436035 8.0
11.7156382 10.8532619 8.0
10.8256159 86.2742233 8.0
63.102623 10.533062 8.0
13.2685556 35.1119537 8.0
13.8433743 13.1085062 8.0
13.1027546 85.412056 8.0
64.0815201 13.1400843 8.0
81.315506 10.6326313 8.0
87.655571 19.1204472 8.0
11.6367998 17.8291264 8.0
30.8374386 10.1738615 8.0
49.1128159 33.2641029 8.0
31.2592239 33.318573 8.0
18.6179848 89.4161377 8.0
90.2782059 11.2546215 8.0
78.575676 27.8569317 8.0
81.7973404 25.7365837 8.0
9.62485123 42.8265266 8.0
26.1818161 88.5321808 8.0
30.7894211 45.7832832 8.0
55.6634712 31.8942242 8.0
69.6985474 10.5963249 8.0
10.6888285 80.4621811 8.0
19.9949341 9.90018749 8.0
10.0159101 30.1960716 8.0
25.3759689 56.665905 8.0
42.6121788 26.0054092 8.0
28.4153633 59.6580811 8.0
54.7844582 14.3607092 8.0
14.0908813 47.1325989 8.0
41.2492638 14.6197348 8.0
85.8984451 27.8968182 8.0
26.3465042 77.5398941 8.0
68.9268875 24.988575 8.0
27.6143436 81.9401398 8.0
27.5656433 94.3192139 8.0
13.102561 56.3647499 8.0
44.0766296 13.1639566 8.0
10.6854706 49.1437721 8.0
51.423069 10.5450306 8.0
60.8626556 24.6714573 8.0
65.3841705 26.5022392 8.0
26.5258732 85.0255051 8.0
73.8788452 26.3621788 8.0
65.9120178 15.0252504 8.0
14.17097 83.2512817 8.0
16.7535896 15.1093578 8.0
13.6869087 33.3766441 8.0
34.4965706 51.4576035 8.0
31.6699104 67.8712769 8.0
27.131752 47.6036301 8.0
52.4628296 27.4146709 8.0
26.4708462 53.0651169 8.0
46.3956375 27.637167 8.0
26.767704 44.2146111 8.0
56.6186714 25.49617 8.0
73.7299957 10.4466276 8.0
11.4896107 75.6701584 8.0
11.1393204 26.7794571 8.0
23.6496925 10.259594 8.0
52.9829445 14.0694513 8.0
13.2584267 48.5897903 8.0
51.7763824 31.4693699 8.0
30.9288387 49.3055954 8.0
30.9919872 69.6616974 8.0
89.8119736 25.810463 8.0
27.5709839 92.4928055 8.0
9.8249197 37.5076637 8.0
62.3889465 8.7942152 8.0
6.25832558 24.3071995 8.0
26.0606709 6.69505882 8.0
76.111084 6.47145271 8.0
6.88042164 73.4863129 8.0
10.0507174 14.6581564 8.0
34.7892456 9.05724716 8.0
47.3173485 6.37819338 8.0
6.10189629 52.4309692 8.0
27.8531952 64.0193634 8.0
30.2372894 38.8621101 8.0
94.833046 25.8278351 8.0
49.5112305 35.7448006 8.0
77.4914551 7.80463409 8.0
9.00250149 73.2924652 8.0
7.75721216 23.3596516 8.0
92.0750809 24.0215321 8.0
25.7197418 8.70298767 8.0
14.0379725 29.7710266 8.0
19.5938187 14.1006899 8.0
14.7430534 79.0160141 8.0
72.0457077 14.2019176 8.0
23.8811913 91.87677 8.0
33.870369 31.5556164 8.0
15.8552275 86.3702774 8.0
23.6346893 95.9302597 8.0
77.3430786 4.87072706 8.0
4.68489981 73.4876938 8.0
4.50647545 23.5429211 8.0
26.3353271 4.60131025 8.0
95.1813126 23.7194996 8.0
36.9794197 14.5088921 8.0
13.7054758 61.8334579 8.0
15.3546295 42.224041 8.0
57.6479187 14.1818895 8.0
26.5758953 74.369957 8.0
26.6493435 40.867012 8.0
39.9554596 25.5433464 8.0
29.5698395 67.1656342 8.0
10.8465223 65.6208191 8.0
11.8714962 14.9143724 8.0
34.5615196 10.3496523 8.0
7.83560133 52.9255676 8.0
46.859333 8.36736679 8.0
93.0804062 26.752985 8.0
93.760994 25.0959358 8.0
25.6243935 94.1205368 8.0
60.787117 11.159606 8.0
52.1243935 29.4013786 8.0
29.017498 47.5384674 8.0
49.7965393 30.989048 8.0
72.9010849 12.3756943 8.0
12.2415133 76.8666153 8.0
23.4064941 12.0935907 8.0
12.9918537 27.6882381 8.0
24.907011 73.0595551 8.0
24.6433773 39.4393883 8.0
39.024353 23.7078838 8.0
80.2105637 9.98878956 8.0
9.47502422 70.0415115 8.0
29.163826 9.79218769 8.0
47.111763 34.1695824 8.0
20.3364296 90.3599777 8.0
78.3252029 26.1424274 8.0
27.6389103 90.6482544 8.0
26.5197525 58.9567833 8.0
15.2546167 60.3066139 8.0
38.7206764 15.4973459 8.0
27.6409454 96.1833267 8.0
28.9753513 52.4516983 8.0
47.8575783 30.1581745 8.0
52.7298584 25.5798283 8.0
25.2520103 47.803978 8.0
76.334259 9.53163147 8.0
11.0586891 74.3803635 8.0
25.3981113 10.6165333 8.0
10.7317181 24.0219269 8.0
77.9221802 10.6537008 8.0
10.8988924 72.9327164 8.0
9.65271282 21.9346657 8.0
89.5176315 22.0479603 8.0
27.1220493 11.0890436 8.0
15.6423216 30.4359245 8.0
14.6605606 28.4337521 8.0
21.5746288 13.6815157 8.0
18.2810116 15.7363005 8.0
13.347537 77.9842529 8.0
14.7166729 81.2174759 8.0
69.3812408 15.0177679 8.0
22.6287193 89.3973236 8.0
23.5868454 93.8464966 8.0
13.7073765 64.8335724 8.0
59.915596 12.8007793 8.0
13.9110842 40.6859131 8.0
14.8554058 45.7902527 8.0
56.086834 15.4124842 8.0
84.1595383 26.2396984 8.0
27.1680355 72.2769623 8.0
26.5199738 39.2832527 8.0
38.3859596 26.1798592 8.0
9.50030613 53.3065491 8.0
47.9486542 10.1195164 8.0
87.980072 14.6180677 8.0
86.3650742 11.8246784 8.0
26.4040794 63.0273666 8.0
51.0825424 25.0976009 8.0
25.6147861 49.5258636 8.0
51.7217598 23.0176945 8.0
23.5401325 48.2198906 8.0
86.5605469 25.8570213 8.0
27.5621452 61.4215927 8.0
23.9671326 59.9220543 8.0
76.8355103 24.5272846 8.0
77.0502014 12.4872179 8.0
12.7319727 73.8430786 8.0
12.2982807 23.0371819 8.0
26.7361469 12.9422874 8.0
23.0304489 74.5455551 8.0
42.2207451 23.9257698 8.0
22.9488525 42.2823639 8.0
90.3494034 20.6814384 8.0
16.231184 29.0917015 8.0
15.7649841 77.7571106 8.0
24.2708321 89.9767914 8.0
59.4496803 14.8996696 8.0
16.1642151 39.9867973 8.0
85.3110428 13.0269604 8.0
26.6065845 65.2944031 8.0
89.8838348 24.0474815 8.0
74.5248566 13.3600569 8.0
13.6031876 76.0007095 8.0
23.1817322 13.7900772 8.0
13.8350258 26.3508244 8.0
26.2442474 70.167984 8.0
61.606308 13.5413713 8.0
14.1406975 38.6953011 8.0
26.3512592 37.797184 8.0
36.7357903 26.5858707 8.0
15.778327 47.9384499 8.0
52.4205055 15.4079103 8.0
16.5432472 83.7890854 8.0
36.1251984 16.0457325 8.0
14.9611464 63.1036034 8.0
46.9376106 25.8164654 8.0
24.4416809 52.9819565 8.0
27.4910393 67.1741333 8.0
27.5011139 50.8424721 8.0
48.8443832 26.4720898 8.0
27.6364822 65.9708405 8.0
86.8704071 17.9816265 8.0
73.0234985 23.9547863 8.0
27.3347034 49.2903366 8.0
17.2031555 45.404007 8.0
55.696682 17.6461372 8.0
15.0451918 57.4442024 8.0
42.9928055 16.9593582 8.0
16.5836964 81.7064896 8.0
68.9113617 17.2225933 8.0
19.4855099 16.9255676 8.0
17.3240585 31.0419178 8.0
23.5597382 85.9821701 8.0
64.8059082 24.4163818 8.0
64.4642944 15.2907505 8.0
15.5599089 14.4398804 8.0
14.8771639 35.4674683 8.0
24.6481705 44.2767792 8.0
55.7488289 23.2308178 8.0
34.1406212 15.2069521 8.0
15.6370287 65.6931915 8.0
17.8879204 85.3728867 8.0
13.4200068 24.1568279 8.0
76.227272 14.3706264 8.0
14.4798126 74.4703369 8.0
24.7073784 14.1553249 8.0
58.9766769 17.4769535 8.0
17.806776 39.4951668 8.0
35.3944626 17.5015087 8.0
17.8138676 63.4976883 8.0
72.8921356 16.9962578 8.0
16.6379471 76.4489136 8.0
22.469265 17.2693233 8.0
16.8428783 27.7854519 8.0
47.4304771 23.9435425 8.0
22.9639168 52.9987793 8.0
25.7826271 66.7100449 8.0
87.6565781 22.8079777 8.0
22.4660873 46.4833946 8.0
22.9681377 57.7373428 8.0
79.5199509 22.6104031 8.0
23.2387123 72.8112259 8.0
43.7484627 22.7991829 8.0
40.4423141 23.0047951 8.0
22.5928059 39.7469749 8.0
84.1802597 14.5409985 8.0
17.5314846 35.0015907 8.0
64.9468613 17.4677582 8.0
17.6873837 56.3637962 8.0
43.3568344 19.0616016 8.0
17.4723091 48.6447945 8.0
52.0559769 16.8948517 8.0
25.0834427 68.1758652 8.0
14.3796091 54.7611198 8.0
45.8195724 14.60466 8.0
14.983614 49.3884468 8.0
51.0220413 14.6279373 8.0
85.7697372 15.0926142 8.0
62.8669205 14.0510502 8.0
14.4397192 37.0214806 8.0
36.1482391 24.858057 8.0
25.272337 35.0189247 8.0
85.9376221 17.0753574 8.0
86.2040634 23.625124 8.0
53.3270073 18.9605408 8.0
18.1574078 47.2645035 8.0
18.4215488 33.2236595 8.0
17.7972202 82.4063339 8.0
66.7411041 18.4311485 8.0
27.8271198 15.453887 8.0
14.1126728 72.324791 8.0
78.7687531 13.3925962 8.0
13.7120256 21.9426765 8.0
20.4987297 18.242506 8.0
18.5751038 80.7218933 8.0
70.5156784 17.7365913 8.0
19.2464867 41.5977173 8.0
57.372654 19.1340637 8.0
23.8836021 84.4389572 8.0
66.0834579 21.9945965 8.0
62.679039 22.8694344 8.0
21.5428658 86.9220734 8.0
75.6287155 22.8457184 8.0
71.8041306 23.8411007 8.0
85.9655838 19.9593525 8.0
15.3843269 27.1026115 8.0
73.7083893 15.1950483 8.0
14.5262356 76.9083405 8.0
19.096962 61.6474648 8.0
36.728714 18.4547615 8.0
22.4414501 54.1886902 8.0
45.5305748 23.2270203 8.0
51.2373848 20.646471 8.0
21.315506 48.1797752 8.0
22.306736 59.3002892 8.0
23.5912552 56.1671638 8.0
81.5897446 23.4169712 8.0
77.7574539 20.940115 8.0
23.7093544 71.225029 8.0
23.1576519 76.3130798 8.0
22.613802 37.6732597 8.0
81.45858 12.1552391 8.0
41.5726814 19.1392803 8.0
34.6870079 25.1833458 8.0
27.0354748 34.248436 8.0
14.9469595 67.6233673 8.0
32.2385941 16.0431538 8.0
19.9140739 86.1274872 8.0
54.3388443 20.5628662 8.0
16.130394 18.5435829 8.0
29.5871544 16.1799717 8.0
14.193655 70.9737396 8.0
80.4437561 14.114068 8.0
15.1929302 20.9230824 8.0
18.8618126 19.2574863 8.0
68.5453568 19.3123131 8.0
19.2231464 43.508461 8.0
54.9113884 19.4103565 8.0
23.99086 83.0218048 8.0
69.222496 22.9171524 8.0
64.2911911 21.9907265 8.0
72.9928818 21.8736248 8.0
85.1866608 22.2420101 8.0
85.7305984 18.7829342 8.0
77.9994431 15.3623238 8.0
15.3687325 73.3022079 8.0
14.7157478 23.1029186 8.0
27.0957394 17.4198952 8.0
23.3593616 67.5963058 8.0
49.485817 13.6980476 8.0
14.1700573 50.8863106 8.0
15.2200899 53.1704292 8.0
47.3525772 14.740592 8.0
61.2242165 15.3654766 8.0
15.9897137 38.5629463 8.0
83.9474335 23.4434509 8.0
63.0887794 19.3453617 8.0
17.6353836 36.8162727 8.0
18.5200939 54.5642242 8.0
45.0359039 19.0107727 8.0
50.0653229 17.8500328 8.0
19.1060295 49.2306824 8.0
19.3164158 65.4015808 8.0
34.4026451 18.8238869 8.0
22.2801037 50.086525 8.0
49.9004784 21.4480801 8.0
33.1500664 25.3552628 8.0
26.0027637 32.6250229 8.0
43.7241859 21.0328121 8.0
23.8119812 77.9943619 8.0
21.2575836 76.6675949 8.0
35.3723373 13.7386866 8.0
17.9914589 87.2368774 8.0
19.7172127 63.9767494 8.0
35.7499008 19.8031693 8.0
39.1691399 18.2306709 8.0
17.8179035 60.4348679 8.0
22.0967922 51.826683 8.0
47.9193039 22.2249241 8.0
35.5547028 23.2271538 8.0
38.1936302 22.0670567 8.0
27.7009296 35.8611565 8.0
35.1335831 26.8237705 8.0
16.7338428 70.2765427 8.0
31.0501442 17.2215977 8.0
22.7870502 65.3508835 8.0
15.9776907 51.6238976 8.0
47.1126976 16.4181023 8.0
64.6521225 19.6864319 8.0
61.445713 19.4287663 8.0
19.1897469 38.1419754 8.0
19.710001 35.3898926 8.0
19.4417019 56.7882195 8.0
17.6932507 52.2899361 8.0
46.6069946 17.6863155 8.0
47.9854202 18.5119381 8.0
18.4287224 50.7322426 8.0
51.679821 18.5701313 8.0
19.776989 47.7203522 8.0
19.3736439 67.3712997 8.0
32.2277412 18.468935 8.0
69.6317215 21.3798027 8.0
22.1756096 82.6824341 8.0
61.4752617 23.1259251 8.0
23.1059322 87.631546 8.0
26.7945023 19.3585701 8.0
77.2159042 17.1962109 8.0
16.1030064 74.2700043 8.0
17.0178375 24.0922356 8.0
22.4934216 34.9176788 8.0
81.8560715 14.7533073 8.0
81.1204681 21.0168095 8.0
21.2272625 57.2348595 8.0
72.1263199 18.738821 8.0
22.8446541 19.4776821 8.0
19.2931919 27.730238 8.0
19.234024 39.2431755 8.0
59.912365 19.9041195 8.0
59.4943428 22.7355156 8.0
13.9064188 19.3964462 8.0
82.9798813 17.9402332 8.0
22.5018768 69.1651459 8.0
77.7663422 19.4470768 8.0
30.814085 14.2512217 8.0
12.7226067 69.3696747 8.0
19.1476784 76.5602417 8.0
74.6350632 17.9821701 8.0
24.8646183 19.2329559 8.0
18.5591736 25.2582397 8.0
36.2761154 21.6075172 8.0
50.6652336 27.0037479 8.0
85.6804581 4.01118946 8.0
34.6317368 3.73763061 8.0
3.69279623 65.2963791 8.0
20.1420269 51.2901573 8.0
47.1859856 19.845747 8.0
13.4272327 52.370182 8.0
23.4179783 80.6638718 8.0
21.8367825 55.6858864 8.0
82.6798859 22.0132294 8.0
81.6822662 18.9608269 8.0
31.5239487 25.4317665 8.0
24.5066185 31.1057491 8.0
19.3500595 70.138649 8.0
30.2680798 18.5633678 8.0
40.1990242 19.4582939 8.0
20.0903664 60.2301979 8.0
15.5703926 16.7204952 8.0
25.2656956 64.5259094 8.0
67.7479095 21.788229 8.0
70.1035538 23.8695107 8.0
21.3696098 26.7114944 8.0
22.7265282 21.9064617 8.0
22.8506317 32.3431129 8.0
21.3354378 36.2126465 8.0
81.4132156 16.6125851 8.0
79.2125931 18.5138702 8.0
19.1922531 78.8389359 8.0
23.7766495 63.7811394 8.0
31.4595184 20.3364391 8.0
28.4724026 19.703558 8.0
19.3889313 72.3211975 8.0
22.9604816 29.8305225 8.0
33.9653549 22.2925014 8.0
29.8040066 27.5463314 8.0
25.8687782 29.8486671 8.0
21.5855846 28.7281685 8.0
21.4219952 23.973074 8.0
23.7573967 36.0614052 8.0
20.449192 81.5116119 8.0
48.9471054 11.1295338 8.0
11.2438431 51.5912132 8.0
76.3694382 18.7948589 8.0
19.5371819 74.3254471 8.0
21.3285828 64.6316528 8.0
26.7532501 21.1390686 8.0
46.7327728 10.3825665 8.0
10.9325666 54.8770065 8.0
21.5811634 31.0252075 8.0
27.9694576 31.5453129 8.0
22.6910534 27.5462685 8.0
18.5919552 22.9561863 8.0
22.6006165 24.075367 8.0
32.8215332 22.0159988 8.0
73.9016724 19.8688946 8.0
27.6246777 26.680542 8.0
26.8454475 28.3367786 8.0
31.4012756 23.6574097 8.0
23.1221561 61.5156364 8.0
21.385704 72.538765 8.0
25.7909985 25.7518196 8.0
44.8498192 10.4603758 8.0
10.9626045 56.3565598 8.0
30.2284069 31.7161541 8.0
19.6271744 24.0733299 8.0
26.716898 22.7577782 8.0
28.2675381 23.1663456 8.0
25.0660553 27.2221432 8.0
30.34062 30.2402573 8.0
24.6564751 23.3970299 8.0
17.9036274 21.5515976 8.0
32.5974541 31.0953732 8.0
26.322237 24.2851791 8.0
32.4065399 28.6725979 8.0
22.1882229 44.1187553 8.0
38.022316 93.5874405 8.0
95.961731 37.8805656 8.0
4.01090622 89.4287109 8.0
10.400115 4.11605787 8.0
92.4440689 28.495739 8.0
85.4926682 30.8106155 8.0
61.9478683 21.256834 8.0
25.9166393 51.1853142 8.0
49.3233986 24.5942707 8.0
86.589325 9.87646103 8.0
5.61785507 88.5858231 8.0
38.2317543 45.9125061 8.0
76.4218063 26.0328903 8.0
18.9590874 59.6739388 8.0
22.0439796 25.5310173 8.0
66.0582504 1.54250693 8.0
67.8679886 1.46733904 8.0
1.74700093 83.8604736 8.0
1.86434627 81.8729095 8.0
97.9983368 37.9585304 8.0
98.2423019 16.0250168 8.0
98.2452698 17.9244938 8.0
38.1023178 53.8367882 8.0
38.1790009 51.849144 8.0
38.2195854 49.8628693 8.0
38.2308769 47.8854713 8.0
57.8126945 37.9737701 8.0
38.3517303 3.96607089 8.0
37.8866615 36.4540062 8.0
36.1979103 53.6069908 8.0
36.1114311 38.4122429 8.0
4.09316587 79.87323 8.0
6.24399948 96.2369232 8.0
78.5081482 3.85631251 8.0
3.96822357 14.3473501 8.0
3.60570598 21.9151783 8.0
94.2048645 11.1898985 8.0
3.6756258 61.5907593 8.0
92.5791702 32.841156 8.0
96.768425 30.0785789 8.0
36.111515 64.3556519 8.0
36.275425 75.9896622 8.0
34.7734146 94.5800247 8.0
33.0776482 94.6076813 8.0
86.8986435 34.2419853 8.0
33.2160072 5.55080318 8.0
4.9916234 87.140625 8.0
53.7890701 5.6652379 8.0
63.0231705 5.58549404 8.0
33.7358704 34.9679642 8.0
67.2246857 32.1048775 8.0
78.6795654 32.8748245 8.0
93.268837 30.9748478 8.0
91.7660904 30.1466885 8.0
11.5157061 95.3468246 8.0
34.1886597 72.3789062 8.0
22.0526619 91.2967682 8.0
13.1982336 92.8233719 8.0
17.943716 94.9766846 8.0
92.936554 21.7899666 8.0
86.5213547 32.6490288 8.0
85.1453476 32.4661865 8.0
80.382225 31.5035915 8.0
13.0110359 7.63639545 8.0
27.4608288 9.20790291 8.0
34.9093513 6.81577682 8.0
36.2168922 7.17685747 8.0
5.49897814 66.6145554 8.0
70.3986206 32.322197 8.0
48.4069748 8.71272564 8.0
49.9016685 9.53029823 8.0
5.75238514 45.359272 8.0
31.9531784 36.9239655 8.0
45.0847549 32.6560364 8.0
65.5049973 32.0951271 8.0
93.2186584 17.4796848 8.0
65.0848923 7.20781898 8.0
9.1585722 89.1526337 8.0
32.4498062 53.0495834 8.0
66.002121 31.0850391 8.0
10.6646271 89.8344498 8.0
9.01861286 9.74965477 8.0
11.5663033 92.0821457 8.0
31.0357838 90.9155045 8.0
29.3447456 90.8097687 8.0
90.307663 14.0878477 8.0
56.0358734 8.1260128 8.0
91.4082565 11.3831768 8.0
70.1592331 30.213131 8.0
25.9505997 90.3789978 8.0
20.9785652 88.6444702 8.0
32.8079033 72.9449005 8.0
9.17786121 71.6052094 8.0
7.35266876 56.095417 8.0
7.51480436 54.4776459 8.0
8.49568462 51.5159912 8.0
9.59843445 50.3593483 8.0
7.45451307 43.6668777 8.0
7.9663887 42.1656113 8.0
35.7576027 8.01452923 8.0
36.1450272 8.95022583 8.0
35.6699944 30.3934898 8.0
32.0711327 32.1253777 8.0
8.2583971 84.7618866 8.0
86.4292679 31.4851379 8.0
80.3335648 29.6555061 8.0
78.7726364 29.5808392 8.0
91.4991074 16.725378 8.0
91.5533066 22.1628075 8.0
70.8418274 7.24942064 8.0
13.2081547 9.36561203 8.0
28.9003296 11.6151323 8.0
17.5950394 92.0601883 8.0
48.3607216 28.3399105 8.0
11.3706026 88.3039627 8.0
80.0289078 7.46835852 8.0
61.6875763 9.79203987 8.0
36.0696716 12.1335354 8.0
34.0971794 30.1318436 8.0
34.8836861 7.94273901 8.0
7.61503029 86.207962 8.0
12.8573246 88.802803 8.0
34.3701859 11.7866821 8.0
55.7565041 29.883564 8.0
51.79002 13.1327534 8.0
45.5857124 12.7051506 8.0
84.8412399 7.44623423 8.0
27.7494164 88.7866974 8.0
24.6395512 88.1565628 8.0
28.9321156 69.0536118 8.0
28.1123486 70.7552338 8.0
55.6209221 12.1594658 8.0
31.2784767 31.5093002 8.0
14.5366755 11.2169437 8.0
16.1578941 11.4405117 8.0
21.6283855 11.941349 8.0
89.7524109 27.2022972 8.0
10.9460917 71.364151 8.0
11.0323944 69.747757 8.0
9.31064034 61.3383255 8.0
9.28175259 54.7274132 8.0
9.70771599 52.1883316 8.0
8.77940083 43.7854919 8.0
10.6691437 41.4680557 8.0
11.730814 39.953949 8.0
33.8987656 28.5570297 8.0
34.2375641 13.0238075 8.0
13.4471741 80.2368469 8.0
69.1289825 12.2639685 8.0
28.3572502 39.0841103 8.0
12.0850039 86.8831406 8.0
70.9440384 28.7023029 8.0
25.7126808 60.6135139 8.0
90.4603653 16.1965103 8.0
89.2679291 15.4429827 8.0
88.8822937 13.3127947 8.0
30.7952595 11.9540281 8.0
67.1723709 28.288559 8.0
77.2842941 29.5047588 8.0
77.1352005 27.88521 8.0
70.5365524 13.2216988 8.0
10.8485069 20.0378399 8.0
9.61607265 68.8813629 8.0
32.7402878 29.9507027 8.0
42.9952965 13.644721 8.0
30.9347992 87.1706924 8.0
65.8652802 27.9244671 8.0
29.1491165 50.867733 8.0
10.2948256 47.1675072 8.0
32.9444771 13.5865173 8.0
89.3192978 8.63311672 8.0
11.1520052 53.3958549 8.0
10.8450041 45.8121376 8.0
84.498848 9.77279568 8.0
88.2192917 26.0085106 8.0
26.3902855 86.7343903 8.0
22.1006393 85.3456879 8.0
20.7497444 84.4083939 8.0
10.5187817 13.5547323 8.0
68.5819168 13.5233545 8.0
26.9687157 68.6448517 8.0
88.3936539 20.4761982 8.0
85.1780701 24.8286781 8.0
12.5715055 72.5644913 8.0
44.4208908 14.9188595 8.0
48.9672813 15.3965979 8.0
12.0377007 19.018713 8.0
12.8959827 12.0910501 8.0
26.1510639 14.8280802 8.0
75.1997757 27.2765961 8.0
12.4827518 20.8407631 8.0
73.127327 28.004427 8.0
70.2515411 26.1953526 8.0
75.8560715 29.3087845 8.0
61.1306801 17.4093685 8.0
53.8669243 14.7523146 8.0
53.7750664 15.8839045 8.0
26.0237637 36.3595352 8.0
88.4357986 10.9758482 8.0
86.6358185 13.8187695 8.0
12.4070005 38.3811913 8.0
31.8189812 27.1235332 8.0
31.5039444 30.7075195 8.0
10.7718153 68.2008514 8.0
87.0246964 15.9022827 8.0
62.9440117 15.5425997 8.0
42.9024391 15.0618992 8.0
10.0039415 39.2405853 8.0
81.0905533 26.5554008 8.0
14.9210958 84.7249069 8.0
11.9330654 13.5185242 8.0
27.6489983 52.0979042 8.0
57.3963509 28.2559338 8.0
27.9062786 85.1621094 8.0
22.2199993 63.0753784 8.0
53.6759567 17.3745441 8.0
45.9606209 16.0026512 8.0
48.5356865 17.0463505 8.0
11.8071804 30.5773163 8.0
10.8956242 37.9307899 8.0
11.3068495 36.4906387 8.0
24.5804768 37.9916229 8.0
24.8758297 40.9515228 8.0
24.7944489 42.5766335 8.0
13.6051321 17.6091404 8.0
67.4887772 15.0893583 8.0
25.1814423 84.8050003 8.0
22.7367821 84.1996307 8.0
85.2703934 16.2083168 8.0
24.3766441 69.6846848 8.0
14.1040173 43.5059471 8.0
34.235363 16.77738 8.0
38.1133423 19.5913239 8.0
39.7303352 21.0441132 8.0
26.2593708 73.281662 8.0
14.1957674 73.4865341 8.0
14.5632715 69.4720459 8.0
24.1821747 15.5262556 8.0
31.3523312 19.0993118 8.0
14.002861 15.1102629 8.0
87.124855 10.870944 8.0
86.9942322 24.5922489 8.0
72.4655151 25.6342793 8.0
78.2705383 24.4468307 8.0
52.9283333 24.1413536 8.0
31.0912151 29.0968018 8.0
14.7434149 25.131815 8.0
12.4361439 46.3700294 8.0
85.374649 10.8556871 8.0
84.1576462 12.037322 8.0
82.8901978 13.3262234 8.0
21.5314655 60.8595428 8.0
43.4457588 24.4782372 8.0
68.0434723 23.402422 8.0
20.4704628 32.0873222 8.0
28.0297832 24.9456673 8.0
54.2085037 23.7917938 8.0
31.7813892 29.9512806 8.0
15.4408197 24.105484 8.0
17.313364 78.5340652 8.0
16.1987209 22.3613186 8.0
42.0452614 22.6459713 8.0
12.3246479 54.9970398 8.0
15.5035362 75.752182 8.0
29.2308483 83.3976059 8.0
23.9366894 49.8683243 8.0
12.5250254 58.1256866 8.0
15.7072935 44.534317 8.0
16.76717 43.3919296 8.0
18.0246296 42.4527359 8.0
56.1550713 20.5609722 8.0
57.1514473 22.1559391 8.0
24.7881126 74.5115128 8.0
25.2899342 83.429512 8.0
25.0010071 77.1282806 8.0
23.4661579 41.0119247 8.0
71.1767273 22.7110863 8.0
77.8312225 22.6748562 8.0
82.8883743 15.2602539 8.0
82.8421097 16.5588474 8.0
17.9463406 17.9230976 8.0
17.6445923 38.2701912 8.0
18.2786961 40.6170425 8.0
48.6104164 20.7407227 8.0
15.5440273 71.2230148 8.0
16.9526329 68.2087021 8.0
17.6859417 77.1983643 8.0
32.8900414 23.6990795 8.0
29.8537617 23.4937515 8.0
17.7008743 26.5708904 8.0
19.0282516 31.5667934 8.0
24.1092434 24.8158722 8.0
29.9899139 20.0877666 8.0
53.4829826 22.255579 8.0
79.4363174 20.7650204 8.0
16.0126247 55.6583595 8.0
70.0406723 19.0860519 8.0
80.7090073 22.3621864 8.0
84.4821091 18.2026901 8.0
36.8820305 22.8272419 8.0
46.2197723 18.8265686 8.0
54.9541283 21.6437778 8.0
60.6909561 21.7917576 8.0
26.3831139 82.1388855 8.0
25.449482 82.407692 8.0
24.637125 81.6981506 8.0
34.942009 21.3814964 8.0
16.1116524 64.0935593 8.0
16.1024952 35.8973961 8.0
27.1965275 80.7971878 8.0
25.9055061 80.8882446 8.0
67.4769058 20.3959637 8.0
12.9259758 32.1612701 8.0
19.9486332 22.2285366 8.0
66.0811996 16.4779987 8.0
20.962923 53.5213814 8.0
16.5612621 32.5664749 8.0
18.0424099 44.3399315 8.0
18.6817856 46.0379372 8.0
31.4068375 21.911581 8.0
28.3531418 21.4330578 8.0
18.5514965 68.5420456 8.0
20.4373589 66.1302643 8.0
15.6235819 72.3416214 8.0
22.9280205 15.4290953 8.0
21.7669239 15.0270472 8.0
14.8915272 31.8466949 8.0
20.4856014 37.0795059 8.0
19.243 36.8275146 8.0
20.746994 39.3864021 8.0
58.1576385 23.8985023 8.0
18.0216141 28.4195652 8.0
19.9681568 26.1444798 8.0
21.1471024 19.4974117 8.0
17.4790421 75.2965698 8.0
19.3581257 52.9000549 8.0
24.9510021 21.1205997 8.0
20.7905254 68.4069214 8.0
18.1482811 74.1274643 8.0
19.2431889 40.1226044 8.0
18.9559097 45.0914764 8.0
20.2019958 44.7656975 8.0
22.3651237 48.8103752 8.0
13.9796782 59.063961 8.0
20.7827625 27.7317581 8.0
20.9110527 23.0330124 8.0
21.5352421 41.3868675 8.0
20.2187157 40.6374664 8.0
18.9797344 58.4209137 8.0
96.0 0.0 10.0
94.0 0.0 10.0
90.0 0.0 10.0
88.0 0.0 10.0
84.0 0.0 10.0
82.0 0.0 10.0
78.0 0.0 10.0
76.0 0.0 10.0
72.0 0.0 10.0
68.0 0.0 10.0
66.0 0.0 10.0
62.0 0.0 10.0
60.0 0.0 10.0
56.0 0.0 10.0
54.0 0.0 10.0
50.0 0.0 10.0
46.0 0.0 10.0
44.0 0.0 10.0
40.0 0.0 10.0
38.0 0.0 10.0
34.0 0.0 10.0
32.0 0.0 10.0
28.0 0.0 10.0
26.0 0.0 10.0
22.0 0.0 10.0
18.0 0.0 10.0
16.0 0.0 10.0
12.0 0.0 10.0
10.0 0.0 10.0
6.0 0.0 10.0
4.0 0.0 10.0
100.0 0.0 10.0
0.0 0.0 10.0
0.0 4.0 10.0
0.0 6.0 10.0
0.0 10.0 10.0
0.0 12.0 10.0
0.0 16.0 10.0
0.0 18.0 10.0
0.0 22.0 10.0
0.0 24.0 10.0
0.0 28.0 10.0
0.0 32.0 10.0
0.0 34.0 10.0
0.0 38.0 10.0
0.0 40.0 10.0
0.0 44.0 10.0
0.0 46.0 10.0
0.0 50.0 10.0
0.0 54.0 10.0
0.0 56.0 10.0
0.0 60.0 10.0
0.0 62.0 10.0
0.0 66.0 10.0
0.0 68.0 10.0
0.0 72.0 10.0
0.0 74.0 10.0
0.0 78.0 10.0
0.0 82.0 10.0
0.0 84.0 10.0
0.0 88.0 10.0
0.0 90.0 10.0
0.0 94.0 10.0
0.0 96.0 10.0
0.0 100.0 10.0
4.0 100.0 10.0
10.0 100.0 10.0
14.0 100.0 10.0
20.0 100.0 10.0
24.0 100.0 10.0
30.0 100.0 10.0
34.0 100.0 10.0
40.0 100.0 10.0
40.0 44.0 10.0
40.0 48.0 10.0
40.0 52.0 10.0
40.0 54.0 10.0
40.0 58.0 10.0
40.0 62.0 10.0
40.0 66.0 10.0
40.0 70.0 10.0
40.0 74.0 10.0
40.0 78.0 10.0
40.0 82.0 10.0
40.0 84.0 10.0
40.0 88.0 10.0
40.0 92.0 10.0
40.0 96.0 10.0
40.0 40.0 10.0
96.0 40.0 10.0
92.0 40.0 10.0
88.0 40.0 10.0
86.0 40.0 10.0
82.0 40.0 10.0
78.0 40.0 10.0
74.0 40.0 10.0
70.0 40.0 10.0
66.0 40.0 10.0
62.0 40.0 10.0
58.0 40.0 10.0
56.0 40.0 10.0
52.0 40.0 10.0
48.0 40.0 10.0
44.0 40.0 10.0
100.0 40.0 10.0
100.0 36.0 10.0
100.0 30.0 10.0
100.0 26.0 10.0
100.0 20.0 10.0
100.0 16.0 10.0
100.0 10.0 10.0
100.0 6.0 10.0
4.15280294 4.16630173 10.0
8.3700285 4.30302286 10.0
12.4098711 3.93831658 10.0
16.310051 3.87328553 10.0
20.2036705 4.03112984 10.0
24.2145939 4.33294678 10.0
28.7772808 5.03288651 10.0
32.7411346 3.85475469 10.0
36.517067 3.82171869 10.0
42.0387802 3.86816287 10.0
45.8033981 4.06726742 10.0
50.004097 4.71917295 10.0
54.0183372 3.93797636 10.0
58.2245674 4.87414598 10.0
62.5502052 3.77882957 10.0
67.2750473 5.15574551 10.0
70.7734833 4.46764183 10.0
74.7921066 5.12396193 10.0
80.1252975 4.43903923 10.0
83.8619385 3.90427375 10.0
87.7472153 4.74412346 10.0
92.0174789 4.19015932 10.0
95.9748688 4.06366396 10.0
4.08784819 8.21089458 10.0
7.70617294 8.7223568 10.0
11.8222694 9.45137215 10.0
16.4834976 7.67375088 10.0
20.1508293 7.92666197 10.0
23.9054718 8.3372345 10.0
29.6148911 8.15605259 10.0
33.5872803 8.65404892 10.0
37.3790131 8.18856907 10.0
42.0682831 7.67571259 10.0
45.2545395 8.13835526 10.0
50.6868439 7.89065599 10.0
54.7233505 7.91246462 10.0
58.1124916 8.30289459 10.0
63.5312309 8.90739441 10.0
66.4926224 9.36891937 10.0
70.266922 8.85576248 10.0
74.6072693 8.20598602 10.0
78.887291 8.99817848 10.0
83.5705185 8.6196804 10.0
87.1733932 7.74610376 10.0
92.4673004 8.02637672 10.0
96.0442657 8.00386238 10.0
4.15784597 12.3741951 10.0
8.13913441 11.2280455 10.0
11.6115608 12.2554827 10.0
15.783946 13.1541872 10.0
19.8237171 11.9135256 10.0
25.0906906 12.4315615 10.0
28.5411053 13.5338497 10.0
32.6507111 11.8082571 10.0
37.7847595 12.6582613 10.0
41.9324951 12.8231945 10.0
47.5365639 12.5772104 10.0
50.3485565 12.1578379 10.0
54.0582619 12.9793854 10.0
57.7840309 11.7029543 10.0
62.4014587 12.0840816 10.0
65.8407898 13.2368259 10.0
71.3058472 11.4527121 10.0
75.3729706 11.4559326 10.0
79.5208511 11.5715017 10.0
83.1968002 10.9537067 10.0
87.5776596 12.5248318 10.0
91.1291122 12.7805576 10.0
95.5030365 12.2973223 10.0
3.75831175 16.2575455 10.0
9.60991383 16.2472248 10.0
13.1020365 16.4232578 10.0
17.3644218 16.8548775 10.0
20.8361092 15.8680401 10.0
25.001646 16.9155521 10.0
28.8136501 17.9389706 10.0
33.232933 17.5455017 10.0
37.7154274 17.0351391 10.0
40.7648697 16.8495979 10.0
44.923996 16.8988628 10.0
50.5142288 16.2069778 10.0
55.0853996 15.8484974 10.0
57.1431847 16.1924152 10.0
63.0562515 17.4309196 10.0
67.3248749 16.8482723 10.0
71.1770325 15.9822502 10.0
75.4041061 16.2060356 10.0
79.7553177 16.2358646 10.0
84.1440659 16.3749447 10.0
88.1792679 16.8311749 10.0
91.4832687 17.8696423 10.0
94.9203644 16.9201164 10.0
4.38782263 20.2206345 10.0
7.79606009 20.2994232 10.0
11.5397215 21.9488888 10.0
17.0244904 20.0665302 10.0
20.1300163 20.8272228 10.0
25.407053 22.435154 10.0
29.8942776 21.7187576 10.0
33.1837387 20.1862869 10.0
37.0446243 20.7140427 10.0
41.8205032 20.9896145 10.0
45.8697014 21.1519108 10.0
49.4784393 19.4253025 10.0
53.0983963 20.6343117 10.0
58.5140724 20.891243 10.0
63.0299683 20.8879604 10.0
66.159317 20.0903378 10.0
71.1514816 20.261879 10.0
75.8672943 20.6813812 10.0
83.9359207 20.3757648 10.0
86.7332458 21.3724556 10.0
91.6577988 20.5914078 10.0
95.0615692 20.9848003 10.0
4.2758131 25.8185272 10.0
8.92153645 25.581068 10.0
12.2322044 25.350338 10.0
16.2193375 25.7707939 10.0
20.7412853 24.9444885 10.0
23.4843674 26.2534599 10.0
29.8271694 25.3878326 10.0
34.2556419 23.6067848 10.0
37.5835686 24.3730526 10.0
41.2360458 24.6371765 10.0
45.0844116 25.1228313 10.0
49.7854538 22.8705997 10.0
54.516613 25.640873 10.0
59.3007126 25.176712 10.0
62.9642868 24.860117 10.0
66.5198059 24.0174923 10.0
71.1389465 24.8826885 10.0
74.7060623 24.7096901 10.0
80.1701279 24.4889812 10.0
82.8194733 24.7170162 10.0
88.1828995 24.3349209 10.0
91.5007782 26.0758648 10.0
96.0914612 25.1077728 10.0
4.12153435 29.8405972 10.0
8.12670517 29.9287109 10.0
12.3276138 29.1126747 10.0
17.891346 29.6010857 10.0
19.9165077 29.7743073 10.0
24.1680698 28.5607719 10.0
28.7385654 29.4620323 10.0
33.5126534 26.9827881 10.0
37.2080498 28.4549294 10.0
41.3557091 30.2081146 10.0
45.8551865 29.3451328 10.0
50.2635193 28.9758949 10.0
53.9765129 29.7054253 10.0
59.2410965 29.725811 10.0
62.8574982 29.844656 10.0
66.6092834 29.8013401 10.0
72.457695 29.682724 10.0
75.5888138 30.7709637 10.0
80.0881348 27.9142723 10.0
83.9328842 29.5340824 10.0
90.2335663 29.1997643 10.0
96.8320312 28.3486118 10.0
4.05126572 33.8147278 10.0
7.86805677 33.5986137 10.0
11.5691948 33.5320549 10.0
15.6512451 34.0631256 10.0
20.7817345 33.6513672 10.0
24.1799011 33.6730843 10.0
28.9775124 33.6707878 10.0
33.2053719 32.4453812 10.0
37.5459251 32.510643 10.0
41.5680809 34.3973045 10.0
46.5124626 32.8294144 10.0
51.5057793 33.5717773 10.0
55.6175842 33.8958321 10.0
59.4664459 33.9691467 10.0
63.0839119 33.9117432 10.0
66.2320786 33.289196 10.0
71.8458176 33.9285126 10.0
75.3805618 34.1727104 10.0
78.3972626 34.1357231 10.0
83.5370407 34.0955658 10.0
87.8008957 32.3388023 10.0
89.9807205 33.0815544 10.0
96.5144882 31.9332428 10.0
4.19800043 37.7831001 10.0
8.14406967 36.9041748 10.0
12.8731489 36.7465286 10.0
16.0549393 37.1026001 10.0
20.757597 38.1237068 10.0
24.7427673 36.8159218 10.0
28.1208649 37.4598198 10.0
32.189827 38.6742935 10.0
35.9814529 36.5879669 10.0
41.8842735 38.205143 10.0
45.5332794 36.2086601 10.0
49.7692986 37.9204025 10.0
53.7858467 37.9133072 10.0
59.7922363 37.9785843 10.0
63.7529221 37.907032 10.0
67.7615738 37.7140503 10.0
71.8479996 37.9386864 10.0
75.7865372 37.9757805 10.0
79.7641525 37.8336411 10.0
83.7548828 38.025013 10.0
87.7194824 37.9912453 10.0
91.7854843 37.6752167 10.0
96.0350113 35.8526955 10.0
4.09324217 41.738945 10.0
8.81849289 40.6585922 10.0
12.431735 42.4387627 10.0
16.890871 41.2837067 10.0
20.5276642 42.6177711 10.0
26.7052555 42.5306129 10.0
30.529047 42.270092 10.0
34.3961258 42.0997276 10.0
38.1927643 42.0220337 10.0
3.91039777 45.6618385 10.0
9.25484943 45.8131638 10.0
11.662838 47.7963028 10.0
16.5130119 46.5954971 10.0
20.3243256 46.237606 10.0
24.8194466 46.0546417 10.0
28.8794708 45.8209877 10.0
32.6718979 45.7659073 10.0
36.4192772 45.8305321 10.0
4.77405548 49.7210579 10.0
8.03316021 49.4093513 10.0
12.3197289 50.0527802 10.0
16.7371044 50.1016312 10.0
20.6857967 49.7393761 10.0
24.1830845 51.4275017 10.0
29.1357117 49.2390862 10.0
32.7705078 49.4234047 10.0
36.4353943 49.7092934 10.0
3.87597275 53.9978447 10.0
9.15812302 56.199646 10.0
12.8755178 53.8488464 10.0
16.8944473 53.9203987 10.0
20.149786 55.1324615 10.0
24.1427498 54.5679817 10.0
28.4243031 53.9264069 10.0
32.1190109 54.8081055 10.0
35.9799156 55.5280266 10.0
3.68565226 57.8081169 10.0
9.16372395 59.4611397 10.0
12.011548 59.2983932 10.0
16.8973866 58.5782089 10.0
20.6859741 58.7508354 10.0
24.7122173 58.3076591 10.0
29.1280937 57.841877 10.0
33.0435638 58.7932549 10.0
37.3656464 60.0388031 10.0
3.69408369 63.4390411 10.0
7.41960859 63.110508 10.0
11.7919788 63.3858795 10.0
16.4330254 61.7685623 10.0
20.6056347 62.3886909 10.0
24.7643566 62.2271843 10.0
29.6562099 62.5214233 10.0
34.2026138 62.6263733 10.0
38.0386848 64.1818771 10.0
3.82566929 67.1241684 10.0
8.50469875 66.5183182 10.0
12.6346502 67.078331 10.0
17.7474327 66.0749207 10.0
21.7947865 66.9165268 10.0
24.2558117 66.0605087 10.0
28.8530903 65.3733521 10.0
32.1786537 66.1324539 10.0
38.0261154 68.1219101 10.0
4.9681201 71.0353317 10.0
7.90629196 69.8165207 10.0
12.601656 71.0750198 10.0
17.3022614 72.5831985 10.0
21.7184258 70.7945633 10.0
25.4765396 71.6427689 10.0
29.9428158 71.4903107 10.0
33.3351173 70.4414902 10.0
38.0843239 72.0172119 10.0
4.52242661 75.7000198 10.0
9.07929611 75.0182953 10.0
13.0730591 74.9469681 10.0
14.5960293 75.3255463 10.0
21.2461987 74.5138168 10.0
24.8379269 75.9376144 10.0
28.5806446 75.7642593 10.0
32.496994 75.9791718 10.0
38.1397781 75.9810028 10.0
6.12833405 80.1760635 10.0
9.02919769 79.3044205 10.0
11.9899549 79.1563187 10.0
16.4112377 80.1904221 10.0
21.6344643 79.1844177 10.0
25.4465008 79.2600174 10.0
30.3586178 79.5625687 10.0
34.2984428 79.7133408 10.0
38.1055908 79.9152603 10.0
5.11151981 83.8960571 10.0
8.8939352 83.2650223 10.0
12.5922203 83.614151 10.0
15.5188236 82.4895325 10.0
19.2533894 83.4165497 10.0
26.5462074 83.4956131 10.0
30.7468262 83.3473053 10.0
34.2793007 83.5418472 10.0
38.0822792 83.8526993 10.0
3.52774525 87.5252457 10.0
8.81181717 86.9140854 10.0
13.0578899 87.5302963 10.0
16.6326694 88.444046 10.0
19.3906593 87.8338776 10.0
24.9696445 86.4078064 10.0
29.3275433 87.070549 10.0
34.3470154 87.4021301 10.0
38.1072197 87.7816772 10.0
4.90272856 91.5592346 10.0
8.14474487 90.7507935 10.0
16.4196415 92.1858826 10.0
19.5498638 91.8949509 10.0
25.7391472 92.2520828 10.0
29.3708534 92.6440811 10.0
34.4703255 91.1095123 10.0
38.1193008 91.6591644 10.0
4.22867298 96.0440826 10.0
10.0475225 96.6350555 10.0
13.8715944 95.7668915 10.0
17.8814087 96.3623047 10.0
21.6345825 95.9033051 10.0
25.6584339 96.0445862 10.0
29.5857906 96.2755585 10.0
33.3732033 96.3582687 10.0
37.4657669 95.6894913 10.0
98.0 0.0 10.0
92.0 0.0 10.0
86.0 0.0 10.0
80.0 0.0 10.0
74.0 0.0 10.0
70.0 0.0 10.0
64.0 0.0 10.0
58.0 0.0 10.0
52.0 0.0 10.0
48.0 0.0 10.0
42.0 0.0 10.0
36.0 0.0 10.0
30.0 0.0 10.0
24.0 0.0 10.0
20.0 0.0 10.0
14.0 0.0 10.0
8.0 0.0 10.0
2.0 0.0 10.0
0.0 2.0 10.0
0.0 8.0 10.0
0.0 14.0 10.0
0.0 20.0 10.0
0.0 26.0 10.0
0.0 30.0 10.0
0.0 36.0 10.0
0.0 42.0 10.0
0.0 48.0 10.0
0.0 52.0 10.0
0.0 58.0 10.0
0.0 64.0 10.0
0.0 70.0 10.0
0.0 76.0 10.0
0.0 80.0 10.0
0.0 86.0 10.0
0.0 92.0 10.0
0.0 98.0 10.0
2.0 100.0 10.0
6.0 100.0 10.0
8.0 100.0 10.0
12.0 100.0 10.0
16.0 100.0 10.0
18.0 100.0 10.0
22.0 100.0 10.0
26.0 100.0 10.0
28.0 100.0 10.0
32.0 100.0 10.0
36.0 100.0 10.0
38.0 100.0 10.0
40.0 42.0 10.0
40.0 46.0 10.0
40.0 50.0 10.0
40.0 56.0 10.0
40.0 60.0 10.0
40.0 64.0 10.0
40.0 68.0 10.0
40.0 72.0 10.0
40.0 76.0 10.0
40.0 80.0 10.0
40.0 86.0 10.0
40.0 90.0 10.0
40.0 94.0 10.0
40.0 98.0 10.0
98.0 40.0 10.0
94.0 40.0 10.0
90.0 40.0 10.0
84.0 40.0 10.0
80.0 40.0 10.0
76.0 40.0 10.0
72.0 40.0 10.0
68.0 40.0 10.0
64.0 40.0 10.0
60.0 40.0 10.0
54.0 40.0 10.0
50.0 40.0 10.0
46.0 40.0 10.0
42.0 40.0 10.0
100.0 38.0 10.0
100.0 34.0 10.0
100.0 32.0 10.0
100.0 28.0 10.0
100.0 24.0 10.0
100.0 22.0 10.0
100.0 18.0 10.0
100.0 14.0 10.0
100.0 12.0 10.0
100.0 8.0 10.0
100.0 4.0 10.0
100.0 2.0 10.0
97.9777451 2.02768016 10.0
97.9789886 4.03089714 10.0
2.07358479 8.10907173 10.0
2.05820894 12.1656446 10.0
1.98620641 14.1394176 10.0
1.93720841 18.1335659 10.0
2.00782228 20.0684948 10.0
2.10687375 23.8918495 10.0
2.13435316 25.8832397 10.0
2.0704968 29.9053726 10.0
37.7429237 57.8514519 10.0
38.2184906 43.9540253 10.0
93.9694748 2.0776248 10.0
91.9652557 2.12642908 10.0
87.9117432 2.24420738 10.0
85.9171677 2.07500529 10.0
81.9917374 2.00087476 10.0
80.0748444 2.11084795 10.0
75.9322968 2.9164319 10.0
73.6263351 2.43498516 10.0
69.6520309 1.77531433 10.0
66.3573608 3.21641779 10.0
60.154068 2.11116982 10.0
58.1199417 2.27115297 10.0
54.0369682 2.05160117 10.0
47.9454994 2.15375113 10.0
43.9783974 1.96019375 10.0
42.0242004 1.92016995 10.0
38.1807404 1.90586281 10.0
36.2688789 1.88322866 10.0
32.3249359 1.98014402 10.0
30.3312702 2.17806387 10.0
26.2567406 2.32453847 10.0
24.1695843 2.20366979 10.0
20.1300068 2.02931666 10.0
16.1644192 1.94480932 10.0
10.168519 2.053334 10.0
8.1655674 2.12163949 10.0
4.09534264 2.09816384 10.0
2.05239534 2.05588078 10.0
2.07770967 6.09192133 10.0
2.04366374 33.9119415 10.0
2.05847144 35.9143753 10.0
2.08272195 39.8729935 10.0
2.03317189 41.843544 10.0
1.99054623 45.8621902 10.0
2.10603094 51.906559 10.0
1.88036633 55.9323463 10.0
1.8405571 57.8952293 10.0
1.8424269 61.7781639 10.0
1.83979464 63.7194901 10.0
1.96613252 67.610199 10.0
2.15273523 69.6026917 10.0
2.33596849 73.6940613 10.0
2.24934721 75.7982941 10.0
1.99771571 79.8592148 10.0
21.8477383 98.0061569 10.0
25.8021641 98.0215759 10.0
29.7701359 98.1323318 10.0
3.44931078 83.8054047 10.0
1.72573626 85.8332291 10.0
15.9558249 98.0690842 10.0
2.06564093 89.8370972 10.0
2.29641581 91.8454437 10.0
2.14185452 95.9696274 10.0
2.05594397 97.9916992 10.0
6.07426167 98.1258545 10.0
12.0252962 98.2028503 10.0
33.6980057 98.1494827 10.0
2.1010766 47.8797226 10.0
38.0941925 81.8831406 10.0
38.1295471 77.9486542 10.0
55.8043098 37.9459114 10.0
98.1324539 34.0024071 10.0
98.3670959 28.1663036 10.0
97.8758774 24.3266296 10.0
97.9791641 8.02656937 10.0
98.0632782 14.0960903 10.0
14.1779165 1.94329894 10.0
51.9807281 2.08443713 10.0
64.1679611 1.71061313 10.0
93.8782043 37.7623711 10.0
96.8681488 17.6859417 10.0
97.1909485 22.1171436 10.0
95.9772873 2.04454851 10.0
89.9288101 2.20461535 10.0
83.9469452 1.98032379 10.0
78.1273041 2.21196461 10.0
71.5358353 2.17836094 10.0
67.7020187 2.73225737 10.0
62.1924095 1.90735137 10.0
56.0751915 2.159657 10.0
49.9569817 2.22546172 10.0
45.9489975 2.04053044 10.0
40.0799408 1.90784788 10.0
34.3142853 1.89226198 10.0
28.3404236 2.37836218 10.0
22.1344433 2.10110784 10.0
18.1458569 1.97453344 10.0
12.1792488 1.98596025 10.0
6.14116096 2.13063502 10.0
2.07542968 4.08336639 10.0
2.07084703 10.1528549 10.0
1.91876531 16.1210232 10.0
1.92626727 21.9725304 10.0
2.1016624 27.8995266 10.0
2.04677033 31.9101028 10.0
2.07850504 37.9033966 10.0
1.98421705 43.8463707 10.0
2.22611141 49.8698463 10.0
1.97091675 53.9394035 10.0
1.83134592 59.8379593 10.0
1.86784685 65.6580048 10.0
2.36619353 71.5862656 10.0
2.15305543 77.8379745 10.0
3.70381045 81.88311 10.0
1.83162522 87.8231812 10.0
2.2565167 93.9081497 10.0
4.07907486 98.0377655 10.0
8.05652237 98.2251129 10.0
10.0260944 98.2752533 10.0
13.991684 98.0322876 10.0
17.9280396 98.132637 10.0
19.9090309 98.0882797 10.0
23.8090248 97.9918976 10.0
27.7935486 98.0832901 10.0
31.73382 98.1656189 10.0
35.7065697 98.0623779 10.0
38.0953598 85.8216476 10.0
38.1307983 89.7312241 10.0
85.7261047 38.0521507 10.0
81.7696152 37.9294739 10.0
77.7732925 37.9191704 10.0
73.8214417 37.9884644 10.0
69.8189316 37.8253517 10.0
65.7592087 37.8058624 10.0
61.7722359 37.9624405 10.0
43.8345337 38.1668205 10.0
98.0470047 35.9661636 10.0
98.2543182 32.0281067 10.0
98.3599854 30.0868149 10.0
98.2198792 26.2712421 10.0
97.8059692 19.8143234 10.0
96.5135269 16.2565136 10.0
97.8826218 12.124095 10.0
97.9330597 10.0703964 10.0
97.9884186 6.02511358 10.0
37.9249458 62.2250137 10.0
89.7504959 37.8245468 10.0
35.6035461 57.4218521 10.0
36.3731308 43.9288216 10.0
57.6552353 35.9556427 10.0
43.6296196 36.2889366 10.0
93.9382629 35.5533791 10.0
36.2864532 93.0469894 10.0
89.3270416 35.7279129 10.0
36.2638283 89.4834518 10.0
61.5328407 35.9546623 10.0
35.9574203 61.2229691 10.0
85.4604645 36.1445885 10.0
36.1844521 85.644577 10.0
65.3939667 35.6786079 10.0
37.7876244 97.911293 10.0
4.14432192 6.19512081 10.0
39.9355545 38.2384644 10.0
96.2570496 33.8576469 10.0
89.9982376 4.37202454 10.0
68.8860931 3.56154728 10.0
55.9487572 4.24579859 10.0
40.1569595 3.90319729 10.0
18.2523308 3.92974091 10.0
6.25933504 4.26504946 10.0
4.08556271 10.3053751 10.0
4.06172323 31.8344917 10.0
3.9276576 43.7068367 10.0
3.68401504 59.6896935 10.0
5.52547646 82.121933 10.0
4.48927546 93.9479904 10.0
38.1275787 40.1264877 10.0
11.8836975 96.5359802 10.0
16.0339603 96.1076584 10.0
35.2953873 96.249588 10.0
95.9947739 9.99723244 10.0
96.0222778 6.03299141 10.0
81.6809692 35.8492622 10.0
36.181736 81.7511673 10.0
69.8243256 35.7035904 10.0
77.4595871 35.9581985 10.0
36.2457428 77.8971252 10.0
73.6734238 36.0120125 10.0
38.023632 38.3132057 10.0
39.8192711 36.3826485 10.0
36.2334938 40.2220802 10.0
36.1200867 94.3822403 10.0
6.02964687 31.789854 10.0
18.3066254 5.85710955 10.0
69.306221 6.25305557 10.0
7.25273037 82.6102219 10.0
14.6962414 93.7181549 10.0
36.3133774 42.0612526 10.0
35.0757561 59.2145996 10.0
59.6187134 35.9788666 10.0
41.7272453 36.333271 10.0
36.3139458 91.3290939 10.0
91.5466919 35.0149345 10.0
90.3926239 6.38720465 10.0
10.1993361 95.0842896 10.0
94.307663 9.74599075 10.0
5.90491438 10.3377228 10.0
40.3272133 5.89250517 10.0
5.53581095 59.5755272 10.0
36.1063004 62.6111641 10.0
63.4445877 35.8800812 10.0
36.2318611 87.5775833 10.0
87.3506927 36.051403 10.0
36.1866913 83.6968689 10.0
67.5532684 35.1669807 10.0
83.5963593 36.0599403 10.0
37.9621353 55.8330612 10.0
45.7985573 38.1042557 10.0
36.2194595 79.8221283 10.0
71.8074951 35.9283371 10.0
79.5484238 35.4858513 10.0
34.4067307 76.0012207 10.0
75.561615 36.04702 10.0
94.1031647 6.05548716 10.0
55.3778687 6.11710548 10.0
5.78165865 43.635273 10.0
6.25397968 6.36241102 10.0
6.57090378 94.320755 10.0
77.0831223 34.2555962 10.0
73.5920639 34.0529518 10.0
34.5556335 92.8519516 10.0
5.98948288 33.7020111 10.0
16.4175491 5.76816511 10.0
6.74583149 84.2154846 10.0
66.8594513 7.3932209 10.0
12.3615532 94.3610458 10.0
33.5806465 56.9922676 10.0
34.4815559 43.9280319 10.0
57.5798912 33.9605675 10.0
43.4221611 34.3951073 10.0
92.2383728 6.14427376 10.0
94.2443695 7.94405508 10.0
8.49669552 94.734024 10.0
5.97816658 8.33428288 10.0
42.0791283 5.78274012 10.0
5.49794102 57.7658958 10.0
34.4428749 60.8862953 10.0
61.3039818 33.958374 10.0
36.0541611 66.2593079 10.0
88.5539627 33.8702774 10.0
34.4192276 89.2880554 10.0
85.2299728 34.2759209 10.0
34.320446 85.4809113 10.0
64.7842484 33.7781105 10.0
47.7900696 38.0094528 10.0
80.2031174 33.4021797 10.0
70.1646729 33.822216 10.0
36.2492714 74.0543823 10.0
39.6685333 34.4439621 10.0
34.3029747 40.3091507 10.0
94.0188599 4.08966827 10.0
53.1475677 7.30262041 10.0
7.70427513 46.2918358 10.0
8.18962955 96.4694901 10.0
31.4878559 96.3507767 10.0
19.7606239 96.1866226 10.0
95.6472855 18.9531288 10.0
30.8592548 4.25792503 10.0
3.77288318 18.1553211 10.0
82.0824966 3.91230774 10.0
4.16989946 69.0088272 10.0
34.1759109 38.5383911 10.0
37.7242203 34.525631 10.0
32.4017105 77.7972946 10.0
81.9899521 31.7416096 10.0
32.3972893 81.4833984 10.0
69.2749329 31.5835838 10.0
8.61241627 6.74568701 10.0
32.5240479 85.3469467 10.0
64.3781738 32.044075 10.0
94.8291473 31.5913105 10.0
31.6294212 56.5676079 10.0
32.5696487 43.959343 10.0
57.546093 31.9541569 10.0
43.3093224 32.4640274 10.0
73.642952 32.0904808 10.0
47.515625 36.0174522 10.0
61.1233025 31.886158 10.0
32.6377411 89.1522827 10.0
31.2874298 94.5537109 10.0
95.2369537 29.8497715 10.0
19.3374424 94.3917236 10.0
93.4413681 19.0064392 10.0
31.7593384 6.06173229 10.0
5.11504412 17.9046974 10.0
82.3341446 5.37863398 10.0
5.83372259 68.0953903 10.0
6.05369997 35.5903168 10.0
7.92939377 31.8086033 10.0
14.5621204 5.74809504 10.0
18.2942066 7.78457499 10.0
68.5991287 8.0523653 10.0
9.57456207 81.7744446 10.0
4.91865635 85.5627823 10.0
64.9718628 5.33798122 10.0
15.1994896 92.2675934 10.0
45.2452316 34.3835144 10.0
34.0119286 55.1805573 10.0
34.5613213 45.7894592 10.0
55.6761703 35.9073906 10.0
94.3689346 33.5008926 10.0
9.05845547 93.0684509 10.0
7.2027092 10.1222811 10.0
43.8023987 5.8695755 10.0
5.53366232 55.9812889 10.0
40.7539062 7.42299318 10.0
7.37802172 59.5184288 10.0
34.1478081 64.3795547 10.0
38.039299 66.1477585 10.0
38.123806 74.0076523 10.0
34.4167786 74.203064 10.0
52.4615021 5.32656193 10.0
6.04620075 46.953495 10.0
7.44277954 45.0739441 10.0
35.7643127 34.6678047 10.0
34.2943611 81.6137619 10.0
68.5629959 33.1988258 10.0
34.3559113 77.8577423 10.0
92.7060776 9.76448536 10.0
56.5921288 9.56820107 10.0
9.11793804 44.7364388 10.0
93.8693771 29.2071877 10.0
7.42889929 61.3462029 10.0
39.8341713 8.54022026 10.0
9.84423161 91.4402161 10.0
14.3264112 90.9262619 10.0
92.8897858 11.4940968 10.0
88.6891556 6.85798502 10.0
68.0718155 9.88250923 10.0
10.8187323 82.5135574 10.0
18.2014103 9.75073814 10.0
9.77937222 31.9110203 10.0
91.2113724 9.87779236 10.0
90.8464203 8.22504234 10.0
30.5520916 75.8813095 10.0
78.8150024 31.257452 10.0
32.3802452 79.6249008 10.0
71.7498322 31.6467724 10.0
10.7765284 6.09899187 10.0
90.9995575 31.7336235 10.0
32.4638405 42.1768951 10.0
31.0448647 58.3756523 10.0
59.3680534 31.9085045 10.0
41.4287567 32.3794365 10.0
32.8579826 92.7994308 10.0
16.6251278 94.0654144 10.0
92.6959457 16.021841 10.0
32.6612129 7.55005932 10.0
5.50120068 16.5528507 10.0
83.7581558 5.95435429 10.0
6.97029305 67.4064789 10.0
6.14774656 29.8327007 10.0
4.08969641 35.7866058 10.0
7.91221762 35.2933311 10.0
14.7192383 7.60975218 10.0
14.3662395 3.86516857 10.0
20.2051067 5.98114491 10.0
71.4734879 6.01963186 10.0
7.97956371 80.9208984 10.0
6.35085201 85.680809 10.0
64.9641495 9.09896564 10.0
3.37699103 85.6676788 10.0
64.5309677 3.52651405 10.0
43.6317902 7.77972031 10.0
7.31865215 57.7609978 10.0
38.480751 6.48477602 10.0
5.54501152 61.4317894 10.0
52.101593 3.97511482 10.0
43.915287 3.92055345 10.0
4.17737341 47.5874939 10.0
3.72936201 55.9321823 10.0
36.1056633 72.0994568 10.0
56.9400787 6.85077333 10.0
6.15457487 41.7650299 10.0
8.24638748 47.380127 10.0
34.609623 47.6692963 10.0
53.6505432 35.8318329 10.0
32.4820595 83.4148636 10.0
67.9699554 30.6670723 10.0
32.595005 87.2698441 10.0
62.8244286 31.9490814 10.0
7.14917421 92.4568024 10.0
75.4056931 32.3968735 10.0
33.9925423 36.7496834 10.0
89.8071747 10.1793556 10.0
31.1354961 92.7442245 10.0
35.3817406 32.5326843 10.0
31.6496811 35.1446419 10.0
32.4858932 60.6436386 10.0
88.8566437 31.6752129 10.0
35.8973312 70.1905441 10.0
9.30237103 46.7216492 10.0
54.4442062 10.0827837 10.0
95.6291504 28.5106392 10.0
10.7649708 59.4166985 10.0
41.753231 9.83702374 10.0
7.89036894 88.3745956 10.0
9.97811985 8.47827339 10.0
59.5313072 6.95588541 10.0
6.81328201 39.6105118 10.0
12.3832235 90.4114456 10.0
66.1113663 11.3252296 10.0
10.7162447 83.9863281 10.0
16.4165554 9.59224796 10.0
9.71781349 33.5302238 10.0
30.4032803 77.770546 10.0
32.6427994 74.3134613 10.0
6.49776077 12.5716705 10.0
5.51482391 63.2341232 10.0
36.5761337 5.74044085 10.0
81.9966431 29.6709061 10.0
30.5751781 81.4242249 10.0
68.6844864 29.1481228 10.0
11.3887501 7.86378717 10.0
39.518795 32.4168129 10.0
32.3409538 40.4164505 10.0
57.5211334 29.9647636 10.0
29.734663 56.0939674 10.0
30.6640453 44.0235748 10.0
43.4111443 30.4943848 10.0
18.3522205 93.0774155 10.0
91.6073303 19.1941147 10.0
94.2269363 15.1406736 10.0
34.8526115 5.43650627 10.0
31.7053528 8.31233501 10.0
5.93113756 14.7512789 10.0
7.20288086 17.3513908 10.0
82.4662094 7.40990305 10.0
7.77359104 67.8736801 10.0
85.260994 5.46994972 10.0
5.47102547 64.9689713 10.0
6.27090979 37.4958992 10.0
12.6996107 5.83394623 10.0
6.07062292 86.8097382 10.0
63.4071846 7.2595005 10.0
6.7650795 48.3393898 10.0
51.5494919 6.34012318 10.0
6.64682198 89.835144 10.0
30.8643188 85.2609253 10.0
64.5399933 30.3879776 10.0
30.9543743 89.0542603 10.0
61.0392303 29.6539574 10.0
74.0015259 30.3298988 10.0
77.0812454 32.6124916 10.0
86.2501831 6.38288546 10.0
93.1297607 13.3915157 10.0
22.1437759 6.13853264 10.0
6.31864643 27.8395309 10.0
72.7722015 6.23265314 10.0
7.13650942 77.8801804 10.0
89.6039581 30.5793037 10.0
94.7402802 27.3964443 10.0
6.81716681 50.7673187 10.0
49.0468521 6.90915203 10.0
6.83938122 87.53125 10.0
81.2753754 8.64245701 10.0
8.75843811 68.3900528 10.0
89.8804779 19.5528088 10.0
9.33096218 18.3794117 10.0
30.7796516 8.87436771 10.0
87.9135513 9.24955463 10.0
10.7746687 93.6212387 10.0
29.9902592 37.1623497 10.0
37.45895 30.4364662 10.0
33.4642944 33.4126587 10.0
18.0469398 90.9128036 10.0
61.187748 6.0717845 10.0
87.9979324 30.7910023 10.0
32.1590614 62.52248 10.0
38.02425 70.0759277 10.0
9.28309155 48.2880821 10.0
52.4044113 8.96146584 10.0
11.1088095 44.1086845 10.0
9.10940552 57.7874489 10.0
43.3900681 9.35994148 10.0
11.1261683 61.1599731 10.0
40.4106827 11.6187305 10.0
10.0355015 87.6420441 10.0
10.7350769 9.5398531 10.0
14.534914 88.8217621 10.0
67.6143723 11.6816082 10.0
12.2378502 81.7526169 10.0
64.6077347 11.0343742 10.0
9.62982178 85.4684982 10.0
17.9778633 11.698595 10.0
14.748024 9.44557095 10.0
11.5163832 32.0783997 10.0
9.73065853 35.0460052 10.0
8.46030712 13.8307695 10.0
7.24060965 64.8072891 10.0
34.0795593 7.87258768 10.0
83.5857773 32.017231 10.0
39.375721 30.296423 10.0
30.2546234 54.4168205 10.0
45.3716774 30.9874668 10.0
93.2713013 20.5320435 10.0
96.0555038 14.4131861 10.0
30.4886951 6.85977411 10.0
33.6854057 6.94184732 10.0
7.78882265 15.5409756 10.0
6.15779352 18.9707508 10.0
81.2439957 6.19931269 10.0
6.64368629 69.2039566 10.0
7.05225563 66.3039017 10.0
32.7355537 90.9963226 10.0
85.7976379 8.69785309 10.0
91.6885757 14.9030066 10.0
88.1558762 29.7498894 10.0
28.3267612 77.7407913 10.0
77.2044907 31.0544052 10.0
81.5581741 27.8574982 10.0
28.9040489 81.5792007 10.0
69.3790512 27.5789585 10.0
74.4990616 28.7373753 10.0
30.4050655 40.5570564 10.0
30.8456879 74.0415344 10.0
60.5631828 8.5818758 10.0
8.69553089 38.292675 10.0
29.3303947 85.2118301 10.0
65.0905838 28.9173775 10.0
29.3324928 88.9489288 10.0
61.0284691 27.2590122 10.0
32.7481041 47.5976334 10.0
53.6288109 33.7731018 10.0
72.5524292 7.91524124 10.0
9.58581066 76.590126 10.0
22.0144444 8.0966711 10.0
8.44795418 27.9355221 10.0
28.744669 44.1131554 10.0
55.9870567 27.8136005 10.0
27.834362 55.5368576 10.0
43.7575531 28.5973206 10.0
51.7722511 37.8918495 10.0
36.4380112 47.7690048 10.0
73.0529785 4.49912214 10.0
4.43959475 77.7838364 10.0
22.1787624 4.1500535 10.0
4.1967802 27.8413677 10.0
32.2094383 64.3288116 10.0
5.70662594 54.2023506 10.0
45.5599899 6.07843971 10.0
34.3194008 53.3339424 10.0
87.1882553 31.0890751 10.0
81.8477783 33.811367 10.0
96.5336609 26.7375679 10.0
4.20304775 51.9865646 10.0
47.7757797 4.31141615 10.0
9.76941299 67.1368561 10.0
82.371048 9.75655174 10.0
89.4679184 17.9452209 10.0
11.5389643 16.3760777 10.0
32.681118 9.92818451 10.0
39.0874825 28.1763935 10.0
28.5065193 40.721096 10.0
30.6608601 52.7562752 10.0
47.2376709 31.76614 10.0
35.5026741 28.5549259 10.0
29.5778389 35.4410477 10.0
16.3477917 90.5549469 10.0
60.5005112 4.20933008 10.0
4.27072477 39.7337723 10.0
30.3895607 60.3044777 10.0
10.8351784 57.8486099 10.0
43.1535721 11.5542746 10.0
38.4575272 10.2745419 10.0
9.40707493 63.2020988 10.0
9.72167683 12.3173361 10.0
36.3831978 10.4490862 10.0
9.04342556 64.9884491 10.0
89.6658249 12.108758 10.0
90.9778061 27.7904835 10.0
79.8768082 26.2815514 10.0
59.2944221 9.93213463 10.0
27.8390312 86.9385986 10.0
10.2834044 10.6307297 10.0
30.8884869 47.5486755 10.0
53.7520866 31.7471313 10.0
31.6946964 72.1929626 10.0
72.0145874 9.67229462 10.0
10.6395521 77.9427338 10.0
74.0118866 6.4789176 10.0
6.85724163 75.5569687 10.0
21.8323135 10.0376368 10.0
24.093996 6.35712767 10.0
10.4553223 28.4544792 10.0
6.4142561 25.9090443 10.0
28.6304474 42.4141197 10.0
27.2181129 57.2439156 10.0
58.7791443 27.1650982 10.0
41.33078 27.7274475 10.0
51.5788422 35.7416115 10.0
34.5966415 49.5636559 10.0
28.7022972 73.6165771 10.0
13.1256857 44.9114571 10.0
56.0634155 14.0120983 10.0
93.8564301 22.6397476 10.0
12.732233 60.3977737 10.0
39.5164223 13.6093941 10.0
86.632019 29.8324089 10.0
11.4997692 34.9954453 10.0
13.173851 10.9463129 10.0
11.5061197 85.2062454 10.0
26.6345406 75.8457565 10.0
28.0435677 79.6737213 10.0
71.7061462 27.1648254 10.0
52.9174767 11.6554193 10.0
14.1969585 87.0268021 10.0
63.3574028 27.4632339 10.0
27.8396149 83.4738083 10.0
67.4889145 26.2818623 10.0
76.1086731 28.1434441 10.0
21.2725677 93.4625778 10.0
67.3543396 13.4140635 10.0
13.7382984 82.0883789 10.0
17.5802765 13.4916458 10.0
13.4651985 31.088438 10.0
32.6786232 51.2457695 10.0
35.9363327 68.2372131 10.0
30.7274876 65.9235687 10.0
25.9611263 54.9541702 10.0
26.9118729 45.8997993 10.0
54.274929 27.6336308 10.0
44.423069 26.8846149 10.0
36.3585205 51.6610451 10.0
61.8790512 7.6518569 10.0
30.3365669 64.5260468 10.0
27.9417667 7.24154758 10.0
6.1941123 21.8103867 10.0
78.7315292 6.18712759 10.0
7.1824522 71.5569534 10.0
82.9117203 27.3218975 10.0
88.4187012 28.0058594 10.0
29.4539814 94.4589844 10.0
33.7578926 68.2313995 10.0
34.0326805 66.2620163 10.0
30.8741684 51.0397873 10.0
9.77210999 36.4436035 10.0
11.7156382 10.8532619 10.0
10.8256159 86.2742233 10.0
63.102623 10.533062 10.0
13.2685556 35.1119537 10.0
13.8433743 13.1085062 10.0
13.1027546 85.412056 10.0
64.0815201 13.1400843 10.0
81.315506 10.6326313 10.0
87.655571 19.1204472 10.0
11.6367998 17.8291264 10.0
30.8374386 10.1738615 10.0
49.1128159 33.2641029 10.0
31.2592239 33.318573 10.0
18.6179848 89.4161377 10.0
90.2782059 11.2546215 10.0
78.575676 27.8569317 10.0
81.7973404 25.7365837 10.0
9.62485123 42.8265266 10.0
26.1818161 88.5321808 10.0
30.7894211 45.7832832 10.0
55.6634712 31.8942242 10.0
69.6985474 10.5963249 10.0
10.6888285 80.4621811 10.0
19.9949341 9.90018749 10.0
10.0159101 30.1960716 10.0
25.3759689 56.665905 10.0
42.6121788 26.0054092 10.0
28.4153633 59.6580811 10.0
54.7844582 14.3607092 10.0
14.0908813 47.1325989 10.0
41.2492638 14.6197348 10.0
85.8984451 27.8968182 10.0
26.3465042 77.5398941 10.0
68.9268875 24.988575 10.0
27.6143436 81.9401398 10.0
27.5656433 94.3192139 10.0
13.102561 56.3647499 10.0
44.0766296 13.1639566 10.0
10.6854706 49.1437721 10.0
51.423069 10.5450306 10.0
60.8626556 24.6714573 10.0
65.3841705 26.5022392 10.0
26.5258732 85.0255051 10.0
73.8788452 26.3621788 10.0
65.9120178 15.0252504 10.0
14.17097 83.2512817 10.0
16.7535896 15.1093578 10.0
13.6869087 33.3766441 10.0
34.4965706 51.4576035 10.0
31.6699104 67.8712769 10.0
27.131752 47.6036301 10.0
52.4628296 27.4146709 10.0
26.4708462 53.0651169 10.0
46.3956375 27.637167 10.0
26.767704 44.2146111 10.0
56.6186714 25.49617 10.0
73.7299957 10.4466276 10.0
11.4896107 75.6701584 10.0
11.1393204 26.7794571 10.0
23.6496925 10.259594 10.0
52.9829445 14.0694513 10.0
13.2584267 48.5897903 10.0
51.7763824 31.4693699 10.0
30.9288387 49.3055954 10.0
30.9919872 69.6616974 10.0
89.8119736 25.810463 10.0
27.5709839 92.4928055 10.0
9.8249197 37.5076637 10.0
62.3889465 8.7942152 10.0
6.25832558 24.3071995 10.0
26.0606709 6.69505882 10.0
76.111084 6.47145271 10.0
6.88042164 73.4863129 10.0
10.0507174 14.6581564 10.0
34.7892456 9.05724716 10.0
47.3173485 6.37819338 10.0
6.10189629 52.4309692 10.0
27.8531952 64.0193634 10.0
30.2372894 38.8621101 10.0
94.833046 25.8278351 10.0
49.5112305 35.7448006 10.0
77.4914551 7.80463409 10.0
9.00250149 73.2924652 10.0
7.75721216 23.3596516 10.0
92.0750809 24.0215321 10.0
25.7197418 8.70298767 10.0
14.0379725 29.7710266 10.0
19.5938187 14.1006899 10.0
14.7430534 79.0160141 10.0
72.0457077 14.2019176 10.0
23.8811913 91.87677 10.0
33.870369 31.5556164 10.0
15.8552275 86.3702774 10.0
23.6346893 95.9302597 10.0
77.3430786 4.87072706 10.0
4.68489981 73.4876938 10.0
4.50647545 23.5429211 10.0
26.3353271 4.60131025 10.0
95.1813126 23.7194996 10.0
36.9794197 14.5088921 10.0
13.7054758 61.8334579 10.0
15.3546295 42.224041 10.0
57.6479187 14.1818895 10.0
26.5758953 74.369957 10.0
26.6493435 40.867012 10.0
39.9554596 25.5433464 10.0
29.5698395 67.1656342 10.0
10.8465223 65.6208191 10.0
11.8714962 14.9143724 10.0
34.5615196 10.3496523 10.0
7.83560133 52.9255676 10.0
46.859333 8.36736679 10.0
93.0804062 26.752985 10.0
93.760994 25.0959358 10.0
25.6243935 94.1205368 10.0
60.787117 11.159606 10.0
52.1243935 29.4013786 10.0
29.017498 47.5384674 10.0
49.7965393 30.989048 10.0
72.9010849 12.3756943 10.0
12.2415133 76.8666153 10.0
23.4064941 12.0935907 10.0
12.9918537 27.6882381 10.0
24.907011 73.0595551 10.0
24.6433773 39.4393883 10.0
39.024353 23.7078838 10.0
80.2105637 9.98878956 10.0
9.47502422 70.0415115 10.0
29.163826 9.79218769 10.0
47.111763 34.1695824 10.0
20.3364296 90.3599777 10.0
78.3252029 26.1424274 10.0
27.6389103 90.6482544 10.0
26.5197525 58.9567833 10.0
15.2546167 60.3066139 10.0
38.7206764 15.4973459 10.0
27.6409454 96.1833267 10.0
28.9753513 52.4516983 10.0
47.8575783 30.1581745 10.0
52.7298584 25.5798283 10.0
25.2520103 47.803978 10.0
76.334259 9.53163147 10.0
11.0586891 74.3803635 10.0
25.3981113 10.6165333 10.0
10.7317181 24.0219269 10.0
77.9221802 10.6537008 10.0
10.8988924 72.9327164 10.0
9.65271282 21.9346657 10.0
89.5176315 22.0479603 10.0
27.1220493 11.0890436 10.0
15.6423216 30.4359245 10.0
14.6605606 28.4337521 10.0
21.5746288 13.6815157 10.0
18.2810116 15.7363005 10.0
13.347537 77.9842529 10.0
14.7166729 81.2174759 10.0
69.3812408 15.0177679 10.0
22.6287193 89.3973236 10.0
23.5868454 93.8464966 10.0
13.7073765 64.8335724 10.0
59.915596 12.8007793 10.0
13.9110842 40.6859131 10.0
14.8554058 45.7902527 10.0
56.086834 15.4124842 10.0
84.1595383 26.2396984 10.0
27.1680355 72.2769623 10.0
26.5199738 39.2832527 10.0
38.3859596 26.1798592 10.0
9.50030613 53.3065491 10.0
47.9486542 10.1195164 10.0
87.980072 14.6180677 10.0
86.3650742 11.8246784 10.0
26.4040794 63.0273666 10.0
51.0825424 25.0976009 10.0
25.6147861 49.5258636 10.0
51.7217598 23.0176945 10.0
23.5401325 48.2198906 10.0
86.5605469 25.8570213 10.0
27.5621452 61.4215927 10.0
23.9671326 59.9220543 10.0
76.8355103 24.5272846 10.0
77.0502014 12.4872179 10.0
12.7319727 73.8430786 10.0
12.2982807 23.0371819 10.0
26.7361469 12.9422874 10.0
23.0304489 74.5455551 10.0
42.2207451 23.9257698 10.0
22.9488525 42.2823639 10.0
90.3494034 20.6814384 10.0
16.231184 29.0917015 10.0
15.7649841 77.7571106 10.0
24.2708321 89.9767914 10.0
59.4496803 14.8996696 10.0
16.1642151 39.9867973 10.0
85.3110428 13.0269604 10.0
26.6065845 65.2944031 10.0
89.8838348 24.0474815 10.0
74.5248566 13.3600569 10.0
13.6031876 76.0007095 10.0
23.1817322 13.7900772 10.0
13.8350258 26.3508244 10.0
26.2442474 70.167984 10.0
61.606308 13.5413713 10.0
14.1406975 38.6953011 10.0
26.3512592 37.797184 10.0
36.7357903 26.5858707 10.0
15.778327 47.9384499 10.0
52.4205055 15.4079103 10.0
16.5432472 83.7890854 10.0
36.1251984 16.0457325 10.0
14.9611464 63.1036034 10.0
46.9376106 25.8164654 10.0
24.4416809 52.9819565 10.0
27.4910393 67.1741333 10.0
27.5011139 50.8424721 10.0
48.8443832 26.4720898 10.0
27.6364822 65.9708405 10.0
86.8704071 17.9816265 10.0
73.0234985 23.9547863 10.0
27.3347034 49.2903366 10.0
17.2031555 45.404007 10.0
55.696682 17.6461372 10.0
15.0451918 57.4442024 10.0
42.9928055 16.9593582 10.0
16.5836964 81.7064896 10.0
68.9113617 17.2225933 10.0
19.4855099 16.9255676 10.0
17.3240585 31.0419178 10.0
23.5597382 85.9821701 10.0
64.8059082 24.4163818 10.0
64.4642944 15.2907505 10.0
15.5599089 14.4398804 10.0
14.8771639 35.4674683 10.0
24.6481705 44.2767792 10.0
55.7488289 23.2308178 10.0
34.1406212 15.2069521 10.0
15.6370287 65.6931915 10.0
17.8879204 85.3728867 10.0
13.4200068 24.1568279 10.0
76.227272 14.3706264 10.0
14.4798126 74.4703369 10.0
24.7073784 14.1553249 10.0
58.9766769 17.4769535 10.0
17.806776 39.4951668 10.0
35.3944626 17.5015087 10.0
17.8138676 63.4976883 10.0
72.8921356 16.9962578 10.0
16.6379471 76.4489136 10.0
22.469265 17.2693233 10.0
16.8428783 27.7854519 10.0
47.4304771 23.9435425 10.0
22.9639168 52.9987793 10.0
25.7826271 66.7100449 10.0
87.6565781 22.8079777 10.0
22.4660873 46.4833946 10.0
22.9681377 57.7373428 10.0
79.5199509 22.6104031 10.0
23.2387123 72.8112259 10.0
43.7484627 22.7991829 10.0
40.4423141 23.0047951 10.0
22.5928059 39.7469749 10.0
84.1802597 14.5409985 10.0
17.5314846 35.0015907 10.0
64.9468613 17.4677582 10.0
17.6873837 56.3637962 10.0
43.3568344 19.0616016 10.0
17.4723091 48.6447945 10.0
52.0559769 16.8948517 10.0
25.0834427 68.1758652 10.0
14.3796091 54.7611198 10.0
45.8195724 14.60466 10.0
14.983614 49.3884468 10.0
51.0220413 14.6279373 10.0
85.7697372 15.0926142 10.0
62.8669205 14.0510502 10.0
14.4397192 37.0214806 10.0
36.1482391 24.858057 10.0
25.272337 35.0189247 10.0
85.9376221 17.0753574 10.0
86.2040634 23.625124 10.0
53.3270073 18.9605408 10.0
18.1574078 47.2645035 10.0
18.4215488 33.2236595 10.0
17.7972202 82.4063339 10.0
66.7411041 18.4311485 10.0
27.8271198 15.453887 10.0
14.1126728 72.324791 10.0
78.7687531 13.3925962 10.0
13.7120256 21.9426765 10.0
20.4987297 18.242506 10.0
18.5751038 80.7218933 10.0
70.5156784 17.7365913 10.0
19.2464867 41.5977173 10.0
57.372654 19.1340637 10.0
23.8836021 84.4389572 10.0
66.0834579 21.9945965 10.0
62.679039 22.8694344 10.0
21.5428658 86.9220734 10.0
75.6287155 22.8457184 10.0
71.8041306 23.8411007 10.0
85.9655838 19.9593525 10.0
15.3843269 27.1026115 10.0
73.7083893 15.1950483 10.0
14.5262356 76.9083405 10.0
19.096962 61.6474648 10.0
36.728714 18.4547615 10.0
22.4414501 54.1886902 10.0
45.5305748 23.2270203 10.0
51.2373848 20.646471 10.0
21.315506 48.1797752 10.0
22.306736 59.3002892 10.0
23.5912552 56.1671638 10.0
81.5897446 23.4169712 10.0
77.7574539 20.940115 10.0
23.7093544 71.225029 10.0
23.1576519 76.3130798 10.0
22.613802 37.6732597 10.0
81.45858 12.1552391 10.0
41.5726814 19.1392803 10.0
34.6870079 25.1833458 10.0
27.0354748 34.248436 10.0
14.9469595 67.6233673 10.0
32.2385941 16.0431538 10.0
19.9140739 86.1274872 10.0
54.3388443 20.5628662 10.0
16.130394 18.5435829 10.0
29.5871544 16.1799717 10.0
14.193655 70.9737396 10.0
80.4437561 14.114068 10.0
15.1929302 20.9230824 10.0
18.8618126 19.2574863 10.0
68.5453568 19.3123131 10.0
19.2231464 43.508461 10.0
54.9113884 19.4103565 10.0
23.99086 83.0218048 10.0
69.222496 22.9171524 10.0
64.2911911 21.9907265 10.0
72.9928818 21.8736248 10.0
85.1866608 22.2420101 10.0
85.7305984 18.7829342 10.0
77.9994431 15.3623238 10.0
15.3687325 73.3022079 10.0
14.7157478 23.1029186 10.0
27.0957394 17.4198952 10.0
23.3593616 67.5963058 10.0
49.485817 13.6980476 10.0
14.1700573 50.8863106 10.0
15.2200899 53.1704292 10.0
47.3525772 14.740592 10.0
61.2242165 15.3654766 10.0
15.9897137 38.5629463 10.0
83.9474335 23.4434509 10.0
63.0887794 19.3453617 10.0
17.6353836 36.8162727 10.0
18.5200939 54.5642242 10.0
45.0359039 19.0107727 10.0
50.0653229 17.8500328 10.0
19.1060295 49.2306824 10.0
19.3164158 65.4015808 10.0
34.4026451 18.8238869 10.0
22.2801037 50.086525 10.0
49.9004784 21.4480801 10.0
33.1500664 25.3552628 10.0
26.0027637 32.6250229 10.0
43.7241859 21.0328121 10.0
23.8119812 77.9943619 10.0
21.2575836 76.6675949 10.0
35.3723373 13.7386866 10.0
17.9914589 87.2368774 10.0
19.7172127 63.9767494 10.0
35.7499008 19.8031693 10.0
39.1691399 18.2306709 10.0
17.8179035 60.4348679 10.0
22.0967922 51.826683 10.0
47.9193039 22.2249241 10.0
35.5547028 23.2271538 10.0
38.1936302 22.0670567 10.0
27.7009296 35.8611565 10.0
35.1335831 26.8237705 10.0
16.7338428 70.2765427 10.0
31.0501442 17.2215977 10.0
22.7870502 65.3508835 10.0
15.9776907 51.6238976 10.0
47.1126976 16.4181023 10.0
64.6521225 19.6864319 10.0
61.445713 19.4287663 10.0
19.1897469 38.1419754 10.0
19.710001 35.3898926 10.0
19.4417019 56.7882195 10.0
17.6932507 52.2899361 10.0
46.6069946 17.6863155 10.0
47.9854202 18.5119381 10.0
18.4287224 50.7322426 10.0
51.679821 18.5701313 10.0
19.776989 47.7203522 10.0
19.3736439 67.3712997 10.0
32.2277412 18.468935 10.0
69.6317215 21.3798027 10.0
22.1756096 82.6824341 10.0
61.4752617 23.1259251 10.0
23.1059322 87.631546 10.0
26.7945023 19.3585701 10.0
77.2159042 17.1962109 10.0
16.1030064 74.2700043 10.0
17.0178375 24.0922356 10.0
22.4934216 34.9176788 10.0
81.8560715 14.7533073 10.0
81.1204681 21.0168095 10.0
21.2272625 57.2348595 10.0
72.1263199 18.738821 10.0
22.8446541 19.4776821 10.0
19.2931919 27.730238 10.0
19.234024 39.2431755 10.0
59.912365 19.9041195 10.0
59.4943428 22.7355156 10.0
13.9064188 19.3964462 10.0
82.9798813 17.9402332 10.0
22.5018768 69.1651459 10.0
77.7663422 19.4470768 10.0
30.814085 14.2512217 10.0
12.7226067 69.3696747 10.0
19.1476784 76.5602417 10.0
74.6350632 17.9821701 10.0
24.8646183 19.2329559 10.0
18.5591736 25.2582397 10.0
36.2761154 21.6075172 10.0
50.6652336 27.0037479 10.0
85.6804581 4.01118946 10.0
34.6317368 3.73763061 10.0
3.69279623 65.2963791 10.0
20.1420269 51.2901573 10.0
47.1859856 19.845747 10.0
13.4272327 52.370182 10.0
23.4179783 80.6638718 10.0
21.8367825 55.6858864 10.0
82.6798859 22.0132294 10.0
81.6822662 18.9608269 10.0
31.5239487 25.4317665 10.0
24.5066185 31.1057491 10.0
19.3500595 70.138649 10.0
30.2680798 18.5633678 10.0
40.1990242 19.4582939 10.0
20.0903664 60.2301979 10.0
15.5703926 16.7204952 10.0
25.2656956 64.5259094 10.0
67.7479095 21.788229 10.0
70.1035538 23.8695107 10.0
21.3696098 26.7114944 10.0
22.7265282 21.9064617 10.0
22.8506317 32.3431129 10.0
21.3354378 36.2126465 10.0
81.4132156 16.6125851 10.0
79.2125931 18.5138702 10.0
19.1922531 78.8389359 10.0
23.7766495 63.7811394 10.0
31.4595184 20.3364391 10.0
28.4724026 19.703558 10.0
19.3889313 72.3211975 10.0
22.9604816 29.8305225 10.0
33.9653549 22.2925014 10.0
29.8040066 27.5463314 10.0
25.8687782 29.8486671 10.0
21.5855846 28.7281685 10.0
21.4219952 23.973074 10.0
23.7573967 36.0614052 10.0
20.449192 81.5116119 10.0
48.9471054 11.1295338 10.0
11.2438431 51.5912132 10.0
76.3694382 18.7948589 10.0
19.5371819 74.3254471 10.0
21.3285828 64.6316528 10.0
26.7532501 21.1390686 10.0
46.7327728 10.3825665 10.0
10.9325666 54.8770065 10.0
21.5811634 31.0252075 10.0
27.9694576 31.5453129 10.0
22.6910534 27.5462685 10.0
18.5919552 22.9561863 10.0
22.6006165 24.075367 10.0
32.8215332 22.0159988 10.0
73.9016724 19.8688946 10.0
27.6246777 26.680542 10.0
26.8454475 28.3367786 10.0
31.4012756 23.6574097 10.0
23.1221561 61.5156364 10.0
21.385704 72.538765 10.0
25.7909985 25.7518196 10.0
44.8498192 10.4603758 10.0
10.9626045 56.3565598 10.0
30.2284069 31.7161541 10.0
19.6271744 24.0733299 10.0
26.716898 22.7577782 10.0
28.2675381 23.1663456 10.0
25.0660553 27.2221432 10.0
30.34062 30.2402573 10.0
24.6564751 23.3970299 10.0
17.9036274 21.5515976 10.0
32.5974541 31.0953732 10.0
26.322237 24.2851791 10.0
32.4065399 28.6725979 10.0
22.1882229 44.1187553 10.0
38.022316 93.5874405 10.0
95.961731 37.8805656 10.0
4.01090622 89.4287109 10.0
10.400115 4.11605787 10.0
92.4440689 28.495739 10.0
85.4926682 30.8106155 10.0
61.9478683 21.256834 10.0
25.9166393 51.1853142 10.0
49.3233986 24.5942707 10.0
86.589325 9.87646103 10.0
5.61785507 88.5858231 10.0
38.2317543 45.9125061 10.0
76.4218063 26.0328903 10.0
18.9590874 59.6739388 10.0
22.0439796 25.5310173 10.0
66.0582504 1.54250693 10.0
67.8679886 1.46733904 10.0
1.74700093 83.8604736 10.0
1.86434627 81.8729095 10.0
97.9983368 37.9585304 10.0
98.2423019 16.0250168 10.0
98.2452698 17.9244938 10.0
38.1023178 53.8367882 10.0
38.1790009 51.849144 10.0
38.2195854 49.8628693 10.0
38.2308769 47.8854713 10.0
57.8126945 37.9737701 10.0
38.3517303 3.96607089 10.0
37.8866615 36.4540062 10.0
36.1979103 53.6069908 10.0
36.1114311 38.4122429 10.0
4.09316587 79.87323 10.0
6.24399948 96.2369232 10.0
78.5081482 3.85631251 10.0
3.96822357 14.3473501 10.0
3.60570598 21.9151783 10.0
94.2048645 11.1898985 10.0
3.6756258 61.5907593 10.0
92.5791702 32.841156 10.0
96.768425 30.0785789 10.0
36.111515 64.3556519 10.0
36.275425 75.9896622 10.0
34.7734146 94.5800247 10.0
33.0776482 94.6076813 10.0
86.8986435 34.2419853 10.0
33.2160072 5.55080318 10.0
4.9916234 87.140625 10.0
53.7890701 5.6652379 10.0
63.0231705 5.58549404 10.0
33.7358704 34.9679642 10.0
67.2246857 32.1048775 10.0
78.6795654 32.8748245 10.0
93.268837 30.9748478 10.0
91.7660904 30.1466885 10.0
11.5157061 95.3468246 10.0
34.1886597 72.3789062 10.0
22.0526619 91.2967682 10.0
13.1982336 92.8233719 10.0
17.943716 94.9766846 10.0
92.936554 21.7899666 10.0
86.5213547 32.6490288 10.0
85.1453476 32.4661865 10.0
80.382225 31.5035915 10.0
13.0110359 7.63639545 10.0
27.4608288 9.20790291 10.0
34.9093513 6.81577682 10.0
36.2168922 7.17685747 10.0
5.49897814 66.6145554 10.0
70.3986206 32.322197 10.0
48.4069748 8.71272564 10.0
49.9016685 9.53029823 10.0
5.75238514 45.359272 10.0
31.9531784 36.9239655 10.0
45.0847549 32.6560364 10.0
65.5049973 32.0951271 10.0
93.2186584 17.4796848 10.0
65.0848923 7.20781898 10.0
9.1585722 89.1526337 10.0
32.4498062 53.0495834 10.0
66.002121 31.0850391 10.0
10.6646271 89.8344498 10.0
9.01861286 9.74965477 10.0
11.5663033 92.0821457 10.0
31.0357838 90.9155045 10.0
29.3447456 90.8097687 10.0
90.307663 14.0878477 10.0
56.0358734 8.1260128 10.0
91.4082565 11.3831768 10.0
70.1592331 30.213131 10.0
25.9505997 90.3789978 10.0
20.9785652 88.6444702 10.0
32.8079033 72.9449005 10.0
9.17786121 71.6052094 10.0
7.35266876 56.095417 10.0
7.51480436 54.4776459 10.0
8.49568462 51.5159912 10.0
9.59843445 50.3593483 10.0
7.45451307 43.6668777 10.0
7.9663887 42.1656113 10.0
35.7576027 8.01452923 10.0
36.1450272 8.95022583 10.0
35.6699944 30.3934898 10.0
32.0711327 32.1253777 10.0
8.2583971 84.7618866 10.0
86.4292679 31.4851379 10.0
80.3335648 29.6555061 10.0
78.7726364 29.5808392 10.0
91.4991074 16.725378 10.0
91.5533066 22.1628075 10.0
70.8418274 7.24942064 10.0
13.2081547 9.36561203 10.0
28.9003296 11.6151323 10.0
17.5950394 92.0601883 10.0
48.3607216 28.3399105 10.0
11.3706026 88.3039627 10.0
80.0289078 7.46835852 10.0
61.6875763 9.79203987 10.0
36.0696716 12.1335354 10.0
34.0971794 30.1318436 10.0
34.8836861 7.94273901 10.0
7.61503029 86.207962 10.0
12.8573246 88.802803 10.0
34.3701859 11.7866821 10.0
55.7565041 29.883564 10.0
51.79002 13.1327534 10.0
45.5857124 12.7051506 10.0
84.8412399 7.44623423 10.0
27.7494164 88.7866974 10.0
24.6395512 88.1565628 10.0
28.9321156 69.0536118 10.0
28.1123486 70.7552338 10.0
55.6209221 12.1594658 10.0
31.2784767 31.5093002 10.0
14.5366755 11.2169437 10.0
16.1578941 11.4405117 10.0
21.6283855 11.941349 10.0
89.7524109 27.2022972 10.0
10.9460917 71.364151 10.0
11.0323944 69.747757 10.0
9.31064034 61.3383255 10.0
9.28175259 54.7274132 10.0
9.70771599 52.1883316 10.0
8.77940083 43.7854919 10.0
10.6691437 41.4680557 10.0
11.730814 39.953949 10.0
33.8987656 28.5570297 10.0
34.2375641 13.0238075 10.0
13.4471741 80.2368469 10.0
69.1289825 12.2639685 10.0
28.3572502 39.0841103 10.0
12.0850039 86.8831406 10.0
70.9440384 28.7023029 10.0
25.7126808 60.6135139 10.0
90.4603653 16.1965103 10.0
89.2679291 15.4429827 10.0
88.8822937 13.3127947 10.0
30.7952595 11.9540281 10.0
67.1723709 28.288559 10.0
77.2842941 29.5047588 10.0
77.1352005 27.88521 10.0
70.5365524 13.2216988 10.0
10.8485069 20.0378399 10.0
9.61607265 68.8813629 10.0
32.7402878 29.9507027 10.0
42.9952965 13.644721 10.0
30.9347992 87.1706924 10.0
65.8652802 27.9244671 10.0
29.1491165 50.867733 10.0
10.2948256 47.1675072 10.0
32.9444771 13.5865173 10.0
89.3192978 8.63311672 10.0
11.1520052 53.3958549 10.0
10.8450041 45.8121376 10.0
84.498848 9.77279568 10.0
88.2192917 26.0085106 10.0
26.3902855 86.7343903 10.0
22.1006393 85.3456879 10.0
20.7497444 84.4083939 10.0
10.5187817 13.5547323 10.0
68.5819168 13.5233545 10.0
26.9687157 68.6448517 10.0
88.3936539 20.4761982 10.0
85.1780701 24.8286781 10.0
12.5715055 72.5644913 10.0
44.4208908 14.9188595 10.0
48.9672813 15.3965979 10.0
12.0377007 19.018713 10.0
12.8959827 12.0910501 10.0
26.1510639 14.8280802 10.0
75.1997757 27.2765961 10.0
12.4827518 20.8407631 10.0
73.127327 28.004427 10.0
70.2515411 26.1953526 10.0
75.8560715 29.3087845 10.0
61.1306801 17.4093685 10.0
53.8669243 14.7523146 10.0
53.7750664 15.8839045 10.0
26.0237637 36.3595352 10.0
88.4357986 10.9758482 10.0
86.6358185 13.8187695 10.0
12.4070005 38.3811913 10.0
31.8189812 27.1235332 10.0
31.5039444 30.7075195 10.0
10.7718153 68.2008514 10.0
87.0246964 15.9022827 10.0
62.9440117 15.5425997 10.0
42.9024391 15.0618992 10.0
10.0039415 39.2405853 10.0
81.0905533 26.5554008 10.0
14.9210958 84.7249069 10.0
11.9330654 13.5185242 10.0
27.6489983 52.0979042 10.0
57.3963509 28.2559338 10.0
27.9062786 85.1621094 10.0
22.2199993 63.0753784 10.0
53.6759567 17.3745441 10.0
45.9606209 16.0026512 10.0
48.5356865 17.0463505 10.0
11.8071804 30.5773163 10.0
10.8956242 37.9307899 10.0
11.3068495 36.4906387 10.0
24.5804768 37.9916229 10.0
24.8758297 40.9515228 10.0
24.7944489 42.5766335 10.0
13.6051321 17.6091404 10.0
67.4887772 15.0893583 10.0
25.1814423 84.8050003 10.0
22.7367821 84.1996307 10.0
85.2703934 16.2083168 10.0
24.3766441 69.6846848 10.0
14.1040173 43.5059471 10.0
34.235363 16.77738 10.0
38.1133423 19.5913239 10.0
39.7303352 21.0441132 10.0
26.2593708 73.281662 10.0
14.1957674 73.4865341 10.0
14.5632715 69.4720459 10.0
24.1821747 15.5262556 10.0
31.3523312 19.0993118 10.0
14.002861 15.1102629 10.0
87.124855 10.870944 10.0
86.9942322 24.5922489 10.0
72.4655151 25.6342793 10.0
78.2705383 24.4468307 10.0
52.9283333 24.1413536 10.0
31.0912151 29.0968018 10.0
14.7434149 25.131815 10.0
12.4361439 46.3700294 10.0
85.374649 10.8556871 10.0
84.1576462 12.037322 10.0
82.8901978 13.3262234 10.0
21.5314655 60.8595428 10.0
43.4457588 24.4782372 10.0
68.0434723 23.402422 10.0
20.4704628 32.0873222 10.0
28.0297832 24.9456673 10.0
54.2085037 23.7917938 10.0
31.7813892 29.9512806 10.0
15.4408197 24.105484 10.0
17.313364 78.5340652 10.0
16.1987209 22.3613186 10.0
42.0452614 22.6459713 10.0
12.3246479 54.9970398 10.0
15.5035362 75.752182 10.0
29.2308483 83.3976059 10.0
23.9366894 49.8683243 10.0
12.5250254 58.1256866 10.0
15.7072935 44.534317 10.0
16.76717 43.3919296 10.0
18.0246296 42.4527359 10.0
56.1550713 20.5609722 10.0
57.1514473 22.1559391 10.0
24.7881126 74.5115128 10.0
25.2899342 83.429512 10.0
25.0010071 77.1282806 10.0
23.4661579 41.0119247 10.0
71.1767273 22.7110863 10.0
77.8312225 22.6748562 10.0
82.8883743 15.2602539 10.0
82.8421097 16.5588474 10.0
17.9463406 17.9230976 10.0
17.6445923 38.2701912 10.0
18.2786961 40.6170425 10.0
48.6104164 20.7407227 10.0
15.5440273 71.2230148 10.0
16.9526329 68.2087021 10.0
17.6859417 77.1983643 10.0
32.8900414 23.6990795 10.0
29.8537617 23.4937515 10.0
17.7008743 26.5708904 10.0
19.0282516 31.5667934 10.0
24.1092434 24.8158722 10.0
29.9899139 20.0877666 10.0
53.4829826 22.255579 10.0
79.4363174 20.7650204 10.0
16.0126247 55.6583595 10.0
70.0406723 19.0860519 10.0
80.7090073 22.3621864 10.0
84.4821091 18.2026901 10.0
36.8820305 22.8272419 10.0
46.2197723 18.8265686 10.0
54.9541283 21.6437778 10.0
60.6909561 21.7917576 10.0
26.3831139 82.1388855 10.0
25.449482 82.407692 10.0
24.637125 81.6981506 10.0
34.942009 21.3814964 10.0
16.1116524 64.0935593 10.0
16.1024952 35.8973961 10.0
27.1965275 80.7971878 10.0
25.9055061 80.8882446 10.0
67.4769058 20.3959637 10.0
12.9259758 32.1612701 10.0
19.9486332 22.2285366 10.0
66.0811996 16.4779987 10.0
20.962923 53.5213814 10.0
16.5612621 32.5664749 10.0
18.0424099 44.3399315 10.0
18.6817856 46.0379372 10.0
31.4068375 21.911581 10.0
28.3531418 21.4330578 10.0
18.5514965 68.5420456 10.0
20.4373589 66.1302643 10.0
15.6235819 72.3416214 10.0
22.9280205 15.4290953 10.0
21.7669239 15.0270472 10.0
14.8915272 31.8466949 10.0
20.4856014 37.0795059 10.0
19.243 36.8275146 10.0
20.746994 39.3864021 10.0
58.1576385 23.8985023 10.0
18.0216141 28.4195652 10.0
19.9681568 26.1444798 10.0
21.1471024 19.4974117 10.0
17.4790421 75.2965698 10.0
19.3581257 52.9000549 10.0
24.9510021 21.1205997 10.0
20.7905254 68.4069214 10.0
18.1482811 74.1274643 10.0
19.2431889 40.1226044 10.0
18.9559097 45.0914764 10.0
20.2019958 44.7656975 10.0
22.3651237 48.8103752 10.0
13.9796782 59.063961 10.0
20.7827625 27.7317581 10.0
20.9110527 23.0330124 10.0
21.5352421 41.3868675 10.0
20.2187157 40.6374664 10.0
18.9797344 58.4209137 10.0
CELLS 9640 86760
8 31 529 530 442 2060 2558 2559 2471
8 529 528 531 530 2558 2557 2560 2559
8 792 134 713 755 2821 2163 2742 2784
8 772 735 696 133 2801 2764 2725 2162
8 986 155 1047 1806 3015 2184 3076 3835
8 1043 827 891 969 3072 2856 2920 2998
8 153 1260 1170 1795 2182 3289 3199 3824
8 1076 129 1122 990 3105 2158 3151 3019
8 128 899 1789 726 2157 2928 3818 2755
8 870 150 766 833 2899 2179 2795 2862
8 125 1101 1008 940 2154 3130 3037 2969
8 914 756 698 125 2943 2785 2727 2154
8 146 995 123 978 2175 3024 2152 3007
8 144 776 845 905 2173 2805 2874 2934
8 776 739 699 121 2805 2768 2728 2150
8 1745 1040 1725 965 3774 3069 3754 2994
8 1039 825 889 966 3068 2854 2918 2995
8 118 1039 141 1168 2147 3068 2170 3197
8 117 1125 988 1078 2146 3154 3017 3107
8 139 832 725 898 2168 2861 2754 2927
8 725 832 138 764 2754 2861 2167 2793
8 880 955 939 809 2909 2984 2968 2838
8 693 112 701 758 2722 2141 2730 2787
8 135 532 570 693 2164 2561 2599 2722
8 532 632 35 461 2561 2661 2064 2490
8 632 533 36 35 2661 2562 2065 2064
8 533 534 462 36 2562 2563 2491 2065
8 890 181 1714 967 2919 2210 3743 2996
8 463 38 535 536 2492 2067 2564 2565
8 537 538 464 40 2566 2567 2493 2069
8 226 1079 635 538 2255 3108 2664 2567
8 635 539 465 41 2664 2568 2494 2070
8 249 703 636 539 2278 2732 2665 2568
8 724 830 272 763 2753 2859 2301 2792
8 1927 1135 1341 1208 3956 3164 3370 3237
8 1536 1445 1460 1573 3565 3474 3489 3602
8 1945 340 1552 1539 3974 2369 3581 3568
8 1231 350 1072 1161 3260 2379 3101 3190
8 730 778 930 360 2759 2807 2959 2389
8 1720 741 677 370 3749 2770 2706 2399
8 932 1159 379 1011 2961 3188 2408 3040
8 1159 780 850 379 3188 2809 2879 2408
8 1720 370 850 780 3749 2399 2879 2809
8 361 494 78 677 2390 2523 2107 2706
8 748 493 77 540 2777 2522 2106 2569
8 75 76 1702 1703 2104 2105 3731 3732
8 75 1703 1704 492 2104 3732 3733 2521
8 74 1705 1691 491 2103 3734 3720 2520
8 73 541 325 490 2102 2570 2354 2519
8 720 1708 721 694 2749 3737 2750 2723
8 732 721 790 280 2761 2750 2819 2309
8 1094 1034 1005 257 3123 3063 3034 2286
8 1346 1284 1131 1094 3375 3313 3160 3123
8 213 1941 1438 1913 2242 3970 3467 3942
8 1912 1484 189 1550 3941 3513 2218 3579
8 1314 1278 166 1139 3343 3307 2195 3168
8 937 1018 1106 865 2966 3047 3135 2894
8 907 1707 699 739 2936 3736 2728 2768
8 614 542 1 0 2643 2571 2030 2029
8 133 543 542 792 2162 2572 2571 2821
8 443 1 542 543 2472 2030 2571 2572
8 544 545 444 3 2573 2574 2473 2032
8 131 616 545 1606 2160 2645 2574 3635
8 616 546 5 4 2645 2575 2034 2033
8 130 547 546 801 2159 2576 2575 2830
8 445 5 546 547 2474 2034 2575 2576
8 548 549 446 7 2577 2578 2475 2036
8 128 618 549 1076 2157 2647 2578 3105
8 8 618 550 447 2037 2647 2579 2476
8 697 127 551 619 2726 2156 2580 2648
8 1695 551 904 610 3724 2580 2933 2639
8 620 552 12 11 2649 2581 2041 2040
8 552 553 449 12 2581 2582 2478 2041
8 125 698 621 553 2154 2727 2650 2582
8 124 554 621 698 2153 2583 2650 2727
8 1727 853 909 124 3756 2882 2938 2153
8 555 623 16 451 2584 2652 2045 2480
8 1254 1088 123 995 3283 3117 2152 3024
8 623 556 17 16 2652 2585 2046 2045
8 1082 845 910 122 3111 2874 2939 2151
8 452 17 556 557 2481 2046 2585 2586
8 558 559 453 19 2587 2588 2482 2048
8 120 1607 625 559 2149 3636 2654 2588
8 625 560 21 20 2654 2589 2050 2049
8 119 799 561 560 2148 2828 2590 2589
8 454 21 560 561 2483 2050 2589 2590
8 562 563 455 23 2591 2592 2484 2052
8 1078 627 563 117 3107 2656 2592 2146
8 627 564 456 24 2656 2593 2485 2053
8 116 700 628 564 2145 2729 2657 2593
8 115 565 628 700 2144 2594 2657 2729
8 115 897 608 565 2144 2926 2637 2594
8 629 566 28 27 2658 2595 2057 2056
8 566 567 458 28 2595 2596 2487 2057
8 701 630 567 113 2730 2659 2596 2142
8 112 568 630 701 2141 2597 2659 2730
8 569 631 33 460 2598 2660 2062 2489
8 459 30 568 569 2488 2059 2597 2598
8 461 34 570 532 2490 2063 2599 2561
8 636 571 43 42 2665 2600 2072 2071
8 466 43 571 572 2495 2072 2600 2601
8 294 973 941 1102 2323 3002 2970 3131
8 1822 1196 1014 862 3851 3225 3043 2891
8 1450 1240 1208 1385 3479 3269 3237 3414
8 1609 2015 1568 1571 3638 4044 3597 3600
8 1434 1587 1613 1490 3463 3616 3642 3519
8 1312 1129 359 1206 3341 3158 2388 3235
8 378 1160 1167 1080 2407 3189 3196 3109
8 1011 388 913 932 3040 2417 2942 2961
8 913 388 851 789 2942 2417 2880 2818
8 379 496 80 1011 2408 2525 2109 3040
8 271 894 572 571 2300 2923 2601 2600
8 637 573 45 44 2666 2602 2074 2073
8 467 45 573 574 2496 2074 2602 2603
8 326 575 638 704 2355 2604 2667 2733
8 1751 854 911 326 3780 2883 2940 2355
8 576 640 49 469 2605 2669 2078 2498
8 1255 1087 335 994 3284 3116 2364 3023
8 640 577 50 49 2669 2606 2079 2078
8 1081 846 912 344 3110 2875 2941 2373
8 777 740 705 353 2806 2769 2734 2382
8 1031 363 1107 1110 3060 2392 3136 3139
8 374 1965 1500 1415 2403 3994 3529 3444
8 1558 1618 1636 383 3587 3647 3665 2412
8 1952 394 1494 1364 3981 2423 3523 3393
8 953 1053 1145 404 2982 3082 3174 2433
8 784 810 919 414 2813 2839 2948 2443
8 659 686 743 424 2688 2715 2772 2453
8 659 501 86 432 2688 2530 2115 2461
8 424 85 501 659 2453 2114 2530 2688
8 658 500 85 424 2687 2529 2114 2453
8 415 84 500 658 2444 2113 2529 2687
8 745 715 600 415 2774 2744 2629 2444
8 404 947 805 878 2433 2976 2834 2907
8 1134 395 1144 1282 3163 2424 3173 3311
8 1447 1909 1596 1523 3476 3938 3625 3552
8 1548 1537 374 1424 3577 3566 2403 3453
8 1017 1138 1279 364 3046 3167 3308 2393
8 1104 1946 355 936 3133 3975 2384 2965
8 336 994 335 977 2365 3023 2364 3006
8 906 777 846 1773 2935 2806 2875 3802
8 470 50 577 578 2499 2079 2606 2607
8 353 705 641 578 2382 2734 2670 2607
8 362 1717 908 950 2391 3746 2937 2979
8 1306 1842 1883 1818 3335 3871 3912 3847
8 1419 391 1361 1915 3448 2420 3390 3944
8 1426 2014 1600 1966 3455 4043 3629 3995
8 1906 1473 1513 1953 3935 3502 3542 3982
8 980 1060 1944 413 3009 3089 3973 2442
8 782 820 921 423 2811 2849 2950 2452
8 1680 684 733 432 3709 2713 2762 2461
8 441 1680 502 87 2470 3709 2531 2116
8 432 86 502 1680 2461 2115 2531 3709
8 579 580 471 52 2608 2609 2500 2081
8 972 1747 371 1608 3001 3776 2400 3637
8 472 54 581 582 2501 2083 2610 2611
8 583 584 473 56 2612 2613 2502 2085
8 1077 644 584 389 3106 2673 2613 2418
8 644 585 474 57 2673 2614 2503 2086
8 398 706 645 1711 2427 2735 2674 3740
8 900 834 408 727 2929 2863 2437 2756
8 1794 1760 1757 1019 3823 3789 3786 3048
8 887 1738 436 710 2916 3767 2465 2739
8 586 653 797 437 2615 2682 2826 2466
8 586 654 69 484 2615 2683 2098 2513
8 437 1272 654 586 2466 3301 2683 2615
8 486 485 587 655 2515 2514 2616 2684
8 588 656 487 70 2617 2685 2516 2099
8 1723 821 927 886 3752 2850 2956 2915
8 982 820 1046 1763 3011 2849 3075 3792
8 1062 1807 1115 422 3091 3836 3144 2451
8 1115 1855 1221 1893 3144 3884 3250 3922
8 1855 421 1906 1221 3884 2450 3935 3250
8 419 1271 1416 1547 2448 3300 3445 3576
8 1143 1180 1025 944 3172 3209 3054 2973
8 58 1698 1697 59 2087 3727 3726 2088
8 589 903 590 1697 2618 2932 2619 3726
8 979 425 1682 1690 3008 2454 3711 3719
8 767 435 709 1734 2796 2464 2738 3763
8 652 591 710 436 2681 2620 2739 2465
8 591 652 483 482 2620 2681 2512 2511
8 646 592 61 60 2675 2621 2090 2089
8 476 61 592 593 2505 2090 2621 2622
8 433 594 647 707 2462 2623 2676 2736
8 595 648 65 478 2624 2677 2094 2507
8 477 63 594 595 2506 2092 2623 2624
8 596 649 480 479 2625 2678 2509 2508
8 596 1712 795 649 2625 3741 2824 2678
8 795 434 650 649 2824 2463 2679 2678
8 736 1734 709 434 2765 3763 2738 2463
8 923 759 707 425 2952 2788 2736 2454
8 1690 996 938 979 3719 3025 2967 3008
8 425 593 592 1682 2454 2622 2621 3711
8 67 481 597 651 2096 2510 2626 2680
8 439 588 655 1315 2468 2617 2684 3344
8 598 657 488 71 2627 2686 2517 2100
8 1722 723 441 711 3751 2752 2470 2740
8 440 598 656 796 2469 2627 2685 2825
8 488 657 692 489 2517 2686 2721 2518
8 600 83 84 415 2629 2112 2113 2444
8 406 750 718 601 2435 2779 2747 2630
8 1050 395 876 947 3079 2424 2905 2976
8 1810 1344 385 1380 3839 3373 2414 3409
8 376 1523 375 1560 2405 3552 2404 3589
8 1424 365 1551 1483 3453 2394 3580 3512
8 336 1012 1217 1776 2365 3041 3246 3805
8 911 854 977 335 2940 2883 3006 2364
8 468 47 575 599 2497 2076 2604 2628
8 83 600 406 499 2112 2629 2435 2528
8 499 406 601 82 2528 2435 2630 2111
8 387 1119 386 1243 2416 3148 2415 3272
8 1256 377 1395 1374 3285 2406 3424 3403
8 1931 1489 1358 1663 3960 3518 3387 3692
8 1567 2028 356 1443 3596 4057 2385 3472
8 1611 1526 1448 346 3640 3555 3477 2375
8 1751 326 704 757 3780 2355 2733 2786
8 317 704 638 574 2346 2733 2667 2603
8 82 601 397 498 2111 2630 2426 2527
8 397 1721 789 851 2426 3750 2818 2880
8 1735 387 932 913 3764 2416 2961 2942
8 368 1010 1080 1167 2397 3039 3109 3196
8 1204 1129 1312 358 3233 3158 3341 2387
8 1526 1561 1568 347 3555 3590 3597 2376
8 1102 941 915 317 3131 2970 2944 2346
8 88 694 303 517 2117 2723 2332 2546
8 103 517 303 667 2132 2546 2332 2696
8 304 682 771 838 2333 2711 2800 2867
8 816 885 258 961 2845 2914 2287 2990
8 1932 236 1164 1205 3961 2265 3193 3234
8 1402 1444 1497 190 3431 3473 3526 2219
8 1209 1886 1402 190 3238 3915 3431 2219
8 167 1018 937 1105 2196 3047 2966 3134
8 667 749 516 103 2696 2778 2545 2132
8 304 818 786 749 2333 2847 2815 2778
8 818 1308 1190 1259 2847 3337 3219 3288
8 236 1390 1232 1164 2265 3419 3261 3193
8 1429 1486 214 1553 3458 3515 2243 3582
8 1896 1562 1569 191 3925 3591 3598 2220
8 1805 168 1527 1449 3834 2197 3556 3478
8 1750 146 1013 1218 3779 2175 3042 3247
8 786 305 515 102 2815 2334 2544 2131
8 514 101 1074 306 2543 2130 3103 2335
8 306 1074 1132 918 2335 3103 3161 2947
8 1118 1199 283 1065 3147 3228 2312 3094
8 1230 1318 238 1163 3259 3347 2267 3192
8 1973 1354 1487 216 4002 3383 3516 2245
8 1572 1535 192 1446 3601 3564 2221 3475
8 1804 1239 1386 1451 3833 3268 3415 3480
8 770 284 731 681 2799 2313 2760 2710
8 815 958 262 884 2844 2987 2291 2913
8 1163 238 1234 1071 3192 2267 3263 3100
8 1234 1413 1951 2010 3263 3442 3980 4039
8 1876 193 1400 1895 3905 2222 3429 3924
8 1811 1136 1207 170 3840 3165 3236 2199
8 147 1766 861 934 2176 3795 2890 2963
8 1727 124 698 756 3756 2153 2727 2785
8 513 99 1706 307 2542 2128 3735 2336
8 285 742 687 779 2314 2771 2716 2808
8 263 922 819 983 2292 2951 2848 3012
8 1149 1063 1219 240 3178 3092 3248 2269
8 1130 1234 2010 239 3159 3263 4039 2268
8 1400 194 1421 1472 3429 2223 3450 3501
8 1114 1294 1339 171 3143 3323 3368 2200
8 1294 1114 1058 1796 3323 3143 3087 3825
8 148 914 125 940 2177 2943 2154 2969
8 98 513 307 666 2127 2542 2336 2695
8 666 308 512 98 2695 2337 2541 2127
8 665 309 511 97 2694 2338 2540 2126
8 664 310 510 96 2693 2339 2539 2125
8 663 311 509 95 2692 2340 2538 2124
8 662 312 508 94 2691 2341 2537 2123
8 661 313 507 93 2690 2342 2536 2122
8 660 314 91 92 2689 2343 2120 2121
8 734 315 678 685 2763 2344 2707 2714
8 1681 611 683 316 3710 2640 2712 2345
8 1699 504 89 1681 3728 2533 2118 3710
8 316 695 603 668 2345 2724 2632 2697
8 842 1718 1732 812 2871 3747 3761 2841
8 1432 1458 1517 223 3461 3487 3546 2252
8 199 1630 1615 1631 2228 3659 3644 3660
8 1581 198 1418 1519 3610 2227 3447 3548
8 174 1120 1235 1298 2203 3149 3264 3327
8 127 726 833 766 2156 2755 2862 2795
8 1022 943 150 870 3051 2972 2179 2899
8 1185 172 1181 1024 3214 2201 3210 3053
8 1756 766 150 902 3785 2795 2179 2931
8 603 669 520 519 2632 2698 2549 2548
8 293 1719 670 669 2322 3748 2699 2698
8 863 1684 1291 993 2892 3713 3320 3022
8 1327 1788 1263 1375 3356 3817 3292 3404
8 1978 1457 1396 1518 4007 3486 3425 3547
8 1373 1440 1930 1929 3402 3469 3959 3958
8 153 1305 176 1324 2182 3334 2205 3353
8 899 990 1066 1789 2928 3019 3095 3818
8 152 1235 1120 1066 2181 3264 3149 3095
8 670 604 521 106 2699 2633 2550 2135
8 270 1086 671 604 2299 3115 2700 2633
8 1292 1277 248 1258 3321 3306 2277 3287
8 1091 999 1861 1187 3120 3028 3890 3216
8 1978 200 1908 1457 4007 2229 3937 3486
8 1795 997 1305 153 3824 3026 3334 2182
8 1273 1170 1260 1250 3302 3199 3289 3279
8 175 1320 1324 1360 2204 3349 3353 3389
8 605 613 523 522 2634 2642 2552 2551
8 224 963 824 1037 2253 2992 2853 3066
8 1835 1765 1834 1349 3864 3794 3863 3378
8 1853 1047 1689 1928 3882 3076 3718 3957
8 1090 1186 1305 997 3119 3215 3334 3026
8 111 527 606 676 2140 2556 2635 2705
8 157 713 676 606 2186 2742 2705 2635
8 607 674 526 525 2636 2703 2555 2554
8 180 712 675 674 2209 2741 2704 2703
8 773 157 712 737 2802 2186 2741 2766
8 926 874 1767 1193 2955 2903 3796 3222
8 1929 177 1853 1928 3958 2206 3882 3957
8 1878 926 1193 1111 3907 2955 3222 3140
8 1048 1833 1834 1765 3077 3862 3863 3794
8 964 888 1048 987 2993 2917 3077 3016
8 1700 607 525 109 3729 2636 2554 2138
8 1038 964 987 180 3067 2993 3016 2209
8 1716 737 712 180 3745 2766 2741 2209
8 457 26 565 608 2486 2055 2594 2637
8 563 562 1276 117 2592 2591 3305 2146
8 624 699 1707 558 2653 2728 3736 2587
8 450 14 554 609 2479 2043 2583 2638
8 1250 129 548 1273 3279 2158 2577 3302
8 615 696 132 544 2644 2725 2161 2573
8 775 738 702 135 2804 2767 2731 2164
8 1108 1858 1252 1030 3137 3887 3281 3059
8 1622 184 1960 1504 3651 2213 3989 3533
8 208 1993 1656 1675 2237 4022 3685 3704
8 231 1655 1626 1694 2260 3684 3655 3723
8 1499 1542 1654 277 3528 3571 3683 2306
8 1710 722 791 803 3739 2751 2820 2832
8 694 88 708 720 2723 2117 2737 2749
8 1116 1761 939 1020 3145 3790 2968 3049
8 1814 161 1183 1813 3843 2190 3212 3842
8 1266 185 1405 1332 3295 2214 3434 3361
8 1674 1627 2016 209 3703 3656 4045 2238
8 1677 1935 1660 1665 3706 3964 3689 3694
8 255 1673 1668 1654 2284 3702 3697 3683
8 928 279 804 856 2957 2308 2833 2885
8 667 303 732 682 2696 2332 2761 2711
8 831 764 138 896 2860 2793 2167 2925
8 1813 1142 1790 1027 3842 3171 3819 3056
8 1266 1156 1026 162 3295 3185 3055 2191
8 1427 2004 1917 186 3456 4033 3946 2215
8 209 1670 1677 1674 2238 3699 3706 3703
8 1498 1541 1967 233 3527 3570 3996 2262
8 1781 1098 257 1005 3810 3127 2286 3034
8 956 1034 258 885 2985 3063 2287 2914
8 1202 872 832 139 3231 2901 2861 2168
8 1378 1331 1815 1300 3407 3360 3844 3329
8 1635 1580 1522 187 3664 3609 3551 2216
8 1986 1638 1658 211 4015 3667 3687 2240
8 1455 234 1346 1384 3484 2263 3375 3413
8 1034 1094 1131 258 3063 3123 3160 2287
8 1078 988 898 116 3107 3017 2927 2145
8 1068 140 1238 1124 3097 2169 3267 3153
8 164 1464 1868 1363 2193 3493 3897 3392
8 1505 1559 1619 187 3534 3588 3648 2216
8 1986 1604 1979 1554 4015 3633 4008 3583
8 235 1438 1941 1365 2264 3467 3970 3394
8 1744 1264 1249 1168 3773 3293 3278 3197
8 163 1322 1328 1363 2192 3351 3357 3392
8 1849 1598 1836 165 3878 3627 3865 2194
8 1484 1423 1388 189 3513 3452 3417 2218
8 1913 1620 1497 213 3942 3649 3526 2242
8 1189 1001 966 1093 3218 3030 2995 3122
8 1797 166 1278 1546 3826 2195 3307 3575
8 1388 1278 1314 189 3417 3307 3343 2218
8 825 1725 1040 889 2854 3754 3069 2918
8 1780 143 1106 1109 3809 2172 3135 3138
8 907 865 1106 143 2936 2894 3135 2172
8 891 971 986 1806 2920 3000 3015 3835
8 735 869 132 696 2764 2898 2161 2725
8 773 755 713 157 2802 2784 2742 2186
8 949 158 702 738 2978 2187 2731 2767
8 1000 182 1092 1188 3029 2211 3121 3217
8 1521 1417 1362 1467 3550 3446 3391 3496
8 1583 1603 1969 229 3612 3632 3998 2258
8 1653 1637 1617 1628 3682 3666 3646 3657
8 1829 1345 1383 300 3858 3374 3412 2329
8 301 957 1056 1257 2330 2986 3085 3286
8 708 325 729 722 2737 2354 2758 2751
8 1179 160 1108 1116 3208 2189 3137 3145
8 1813 1183 1867 1142 3842 3212 3896 3171
8 1026 1814 945 872 3055 3843 2974 2901
8 1815 1124 1238 1300 3844 3153 3267 3329
8 164 1363 1328 1791 2193 3392 3357 3820
8 1189 1307 141 1001 3218 3336 2170 3030
8 142 1253 1288 1093 2171 3282 3317 3122
8 1290 1651 1666 145 3319 3680 3695 2174
8 169 1645 1750 1218 2198 3674 3779 3247
8 1218 1013 934 1147 3247 3042 2963 3176
8 940 1058 1114 148 2969 3087 3143 2177
8 943 173 1185 1024 2972 2202 3214 3053
8 1470 1404 1335 197 3499 3433 3364 2226
8 267 1194 1310 1113 2296 3223 3339 3142
8 290 1085 806 1033 2319 3114 2835 3062
8 744 314 660 689 2773 2343 2689 2718
8 314 678 506 91 2343 2707 2535 2120
8 292 734 685 781 2321 2763 2714 2810
8 734 683 611 315 2763 2712 2640 2344
8 315 611 505 90 2344 2640 2534 2119
8 1268 197 1335 1840 3297 2226 3364 3869
8 1154 1905 1223 173 3183 3934 3252 2202
8 1268 1840 174 1298 3297 3869 2203 3327
8 1519 1418 1360 1466 3548 3447 3389 3495
8 1507 1496 1930 1585 3536 3525 3959 3614
8 178 1879 1373 1350 2207 3908 3402 3379
8 181 633 534 1714 2210 2662 2563 3743
8 968 890 967 1041 2997 2919 2996 3070
8 890 968 1042 826 2919 2997 3071 2855
8 206 1362 1323 1326 2235 3391 3352 3355
8 1330 1368 1329 1265 3359 3397 3358 3294
8 1643 1584 276 1456 3672 3613 2305 3485
8 1283 1345 1829 1095 3312 3374 3858 3124
8 769 814 882 324 2798 2843 2911 2353
8 1075 917 840 334 3104 2946 2869 2363
8 343 1075 1705 1704 2372 3104 3734 3733
8 182 1252 1287 1092 2211 3281 3316 3121
8 1622 1904 183 1919 3651 3933 2212 3948
8 1225 1156 1266 1332 3254 3185 3295 3361
8 1331 2005 185 1266 3360 4034 2214 3295
8 1464 1522 186 1868 3493 3551 2215 3897
8 1598 1501 1559 1505 3627 3530 3588 3534
8 1886 1844 1216 1864 3915 3873 3245 3893
8 1804 1451 1524 169 3833 3480 3553 2198
8 1239 170 1207 1875 3268 2199 3236 3904
8 194 1342 1136 1281 2223 3371 3165 3310
8 1421 194 1281 1371 3450 2223 3310 3400
8 1381 172 1185 1453 3410 2201 3214 3482
8 1463 1442 1994 196 3492 3471 4023 2225
8 1933 1624 1576 1514 3962 3653 3605 3543
8 1873 1055 1869 1152 3902 3084 3898 3181
8 747 313 661 714 2776 2342 2690 2743
8 747 689 660 313 2776 2718 2689 2342
8 1516 220 1588 1659 3545 2249 3617 3688
8 1588 1470 197 1425 3617 3499 2226 3454
8 1601 198 1581 1647 3630 2227 3610 3676
8 1631 1581 1519 199 3660 3610 3548 2228
8 1595 1615 1630 1959 3624 3644 3659 3988
8 1457 1884 201 1396 3486 3913 2230 3425
8 963 999 1091 202 2992 3028 3120 2231
8 202 1755 824 963 2231 3784 2853 2992
8 524 108 672 1701 2553 2137 2701 3730
8 204 536 535 800 2233 2565 2564 2829
8 890 826 800 181 2919 2855 2829 2210
8 204 1042 205 1169 2233 3071 2234 3198
8 227 1237 1126 1069 2256 3266 3155 3098
8 1996 274 1226 2006 4025 2303 3255 4035
8 275 1566 1441 1461 2304 3595 3470 3490
8 1901 1303 1439 1495 3930 3332 3468 3524
8 960 1070 1128 323 2989 3099 3157 2352
8 1198 333 1064 1117 3227 2362 3093 3146
8 1133 343 1165 1227 3162 2372 3194 3256
8 1702 1709 1165 1703 3731 3738 3194 3732
8 1509 207 1504 1960 3538 2236 3533 3989
8 1960 1405 1468 1509 3989 3434 3497 3538
8 2013 1468 1427 1589 4042 3497 3456 3618
8 211 1575 188 1538 2240 3604 2217 3567
8 1986 211 1538 1549 4015 2240 3567 3578
8 214 1543 1444 1534 2243 3572 3473 3563
8 1610 1980 1569 1570 3639 4009 3598 3599
8 1487 215 1535 1572 3516 2244 3564 3601
8 1950 1512 1400 1472 3979 3541 3429 3501
8 1593 217 1592 1982 3622 2246 3621 4011
8 1515 218 1531 1563 3544 2247 3560 3592
8 240 1475 1515 1408 2269 3504 3544 3437
8 1625 242 1872 1212 3654 2271 3901 3241
8 266 924 817 984 2295 2953 2846 3013
8 752 312 662 717 2781 2341 2691 2746
8 752 714 661 312 2781 2743 2690 2341
8 1470 1976 1510 1404 3499 4005 3539 3433
8 1310 1692 1359 1923 3339 3721 3388 3952
8 1435 1957 1492 1974 3464 3986 3521 4003
8 1977 1586 1614 1491 4006 3615 3643 3520
8 1974 1586 1977 1435 4003 3615 4006 3464
8 1862 1530 1517 1458 3891 3559 3546 3487
8 1854 246 1375 1244 3883 2275 3404 3273
8 1739 1037 225 1137 3768 3066 2254 3166
8 634 537 40 39 2663 2566 2069 2068
8 1275 1248 1127 226 3304 3277 3156 2255
8 227 1069 989 1127 2256 3098 3018 3156
8 1203 1898 1028 873 3232 3927 3057 2902
8 274 1411 1182 1226 2303 3440 3211 3255
8 1529 297 1532 1961 3558 2326 3561 3990
8 1296 1229 1162 332 3325 3258 3191 2361
8 1096 1758 351 1035 3125 3787 2380 3064
8 768 839 352 679 2797 2868 2381 2708
8 1870 206 1326 1841 3899 2235 3355 3870
8 1657 1694 230 1642 3686 3723 2259 3671
8 1627 1674 1971 1657 3656 3703 4000 3686
8 1616 1881 1639 232 3645 3910 3668 2261
8 1554 1455 1498 233 3583 3484 3527 2262
8 1205 235 1365 1932 3234 2264 3394 3961
8 1486 1429 1390 236 3515 3458 3419 2265
8 1688 237 1354 1352 3717 2266 3383 3381
8 1936 1413 1234 238 3965 3442 3263 2267
8 1515 1475 1686 218 3544 3504 3715 2247
8 241 1408 1515 1474 2270 3437 3544 3503
8 1408 241 1151 1220 3437 2270 3180 3249
8 879 1748 808 1768 2908 3777 2837 3797
8 754 311 663 719 2783 2340 2692 2748
8 754 717 662 311 2783 2746 2691 2340
8 1516 1956 1576 220 3545 3985 3605 2249
8 1478 1397 1922 242 3507 3426 3951 2271
8 1785 267 1052 952 3814 2296 3081 2981
8 1343 1172 1195 245 3372 3201 3224 2274
8 1210 1356 1854 1173 3239 3385 3883 3202
8 1862 1356 1210 1343 3891 3385 3239 3372
8 1173 1854 1244 1816 3202 3883 3273 3845
8 993 1086 270 935 3022 3115 2299 2964
8 226 1127 989 1079 2255 3156 3018 3108
8 250 830 724 893 2279 2859 2753 2922
8 273 1141 1029 946 2302 3170 3058 2975
8 1340 1372 320 1280 3369 3401 2349 3309
8 2021 330 1998 2020 4050 2359 4027 4049
8 1319 1355 1433 331 3348 3384 3462 2360
8 351 813 959 1035 2380 2842 2988 3064
8 778 730 361 688 2807 2759 2390 2717
8 251 1126 1237 1301 2280 3155 3266 3330
8 1265 251 1301 1330 3294 2280 3330 3359
8 252 2011 1590 253 2281 4040 3619 2282
8 1653 253 1641 1637 3682 2282 3670 3666
8 1661 1672 1665 1660 3690 3701 3694 3689
8 1678 1925 1639 1881 3707 3954 3668 3910
8 1094 257 1384 1346 3123 2286 3413 3375
8 1131 1073 961 258 3160 3102 2990 2287
8 259 1073 1164 1232 2288 3102 3193 3261
8 1295 1230 1163 261 3324 3259 3192 2290
8 261 1163 1071 1803 2290 3192 3100 3832
8 1130 1063 983 262 3159 3092 3012 2291
8 1846 1061 1149 1220 3875 3090 3178 3249
8 1759 1754 811 981 3788 3783 2840 3010
8 751 310 664 716 2780 2339 2693 2745
8 310 663 95 510 2339 2692 2124 2539
8 751 719 663 310 2780 2748 2692 2339
8 264 1837 954 920 2293 3866 2983 2949
8 265 1871 1055 984 2294 3900 3084 3013
8 291 1740 1784 1084 2320 3769 3813 3113
8 1784 1685 1140 1084 3813 3714 3169 3113
8 291 931 292 781 2320 2960 2321 2810
8 881 992 269 1733 2910 3021 2298 3762
8 270 1719 822 935 2299 3748 2851 2964
8 703 724 763 271 2732 2753 2792 2300
8 830 873 946 272 2859 2902 2975 2301
8 1157 2006 1226 1992 3186 4035 3255 4021
8 1406 1970 1461 1996 3435 3999 3490 4025
8 1640 1617 1637 254 3669 3646 3666 2283
8 1499 1456 276 1542 3528 3485 2305 3571
8 1191 277 1654 1668 3220 2306 3683 3697
8 1270 928 1006 278 3299 2957 3035 2307
8 885 816 771 280 2914 2845 2800 2309
8 1190 1097 1317 1297 3219 3126 3346 3326
8 282 1241 1118 1065 2311 3270 3147 3094
8 1199 815 770 283 3228 2844 2799 2312
8 884 819 779 284 2913 2848 2808 2313
8 263 981 811 922 2292 3010 2840 2951
8 746 309 665 691 2775 2338 2694 2720
8 309 664 96 511 2338 2693 2125 2540
8 746 716 664 309 2775 2745 2693 2338
8 920 808 858 1730 2949 2837 2887 3759
8 879 817 761 287 2908 2846 2790 2316
8 760 288 924 985 2789 2317 2953 3014
8 1785 952 806 1742 3814 2981 2835 3771
8 894 829 973 294 2923 2858 3002 2323
8 1141 1900 1178 1029 3170 3929 3207 3058
8 1880 296 1454 1382 3909 2325 3483 3411
8 1988 1441 1532 297 4017 3470 3561 2326
8 1495 1629 1584 1643 3524 3658 3613 3672
8 1901 299 1877 1383 3930 2328 3906 3412
8 1752 1004 1099 929 3781 3033 3128 2958
8 1710 803 925 302 3739 2832 2954 2331
8 282 1065 918 1132 2311 3094 2947 3161
8 1706 602 841 681 3735 2631 2870 2710
8 731 687 666 307 2760 2716 2695 2336
8 308 665 97 512 2337 2694 2126 2541
8 742 691 665 308 2771 2720 2694 2337
8 941 1059 1887 318 2970 3088 3916 2347
8 915 757 704 317 2944 2786 2733 2346
8 2027 1471 1962 2019 4056 3500 3991 4048
8 1366 2026 1439 1955 3395 4055 3468 3984
8 322 1283 1095 1128 2351 3312 3124 3157
8 323 1056 957 882 2352 3085 2986 2911
8 324 791 722 729 2353 2820 2751 2758
8 862 327 794 855 2891 2356 2823 2884
8 1014 1135 1927 1852 3043 3164 3956 3881
8 1852 327 862 1014 3881 2356 2891 3043
8 329 1399 1998 1460 2358 3428 4027 3489
8 331 1433 1679 1412 2360 3462 3708 3441
8 322 1128 1070 1233 2351 3157 3099 3262
8 333 1198 960 814 2362 3227 2989 2843
8 334 840 769 680 2363 2869 2798 2709
8 337 1646 1776 1217 2366 3675 3805 3246
8 1571 338 1445 1536 3600 2367 3474 3565
8 1240 1450 1525 337 3269 3479 3554 2366
8 1355 1945 1539 2022 3384 3974 3568 4051
8 1229 1319 331 1162 3258 3348 2360 3191
8 342 1242 1117 1064 2371 3271 3146 3093
8 343 1133 917 1075 2372 3162 2946 3104
8 1820 1652 1667 345 3849 3681 3696 2374
8 1448 1975 1401 1215 3477 4004 3430 3244
8 1485 1995 1552 1430 3514 4024 3581 3459
8 349 1391 1231 1161 2378 3420 3260 3190
8 1316 1096 1035 350 3345 3125 3064 2379
8 1758 1083 839 351 3787 3112 2868 2380
8 364 1107 1819 1017 2393 3136 3848 3046
8 354 936 1017 1819 2383 2965 3046 3848
8 2023 1313 1279 1138 4052 3342 3308 3167
8 2028 357 1621 1693 4057 2386 3650 3722
8 1129 1204 1161 1072 3158 3233 3190 3101
8 1489 1434 358 1358 3518 3463 2387 3387
8 359 959 813 883 2388 2988 2842 2912
8 360 768 679 730 2389 2797 2708 2759
8 908 1717 705 740 2937 3746 2734 2769
8 1279 1389 1338 364 3308 3418 3367 2393
8 1623 376 1560 1633 3652 2405 3589 3662
8 1206 359 883 1103 3235 2388 2912 3132
8 1351 1357 368 1256 3380 3386 2397 3285
8 369 778 688 741 2398 2807 2717 2770
8 362 1608 642 580 2391 3637 2671 2609
8 1031 1045 1747 972 3060 3074 3776 3001
8 970 1044 828 892 2999 3073 2857 2921
8 1863 1361 1321 1325 3892 3390 3350 3354
8 1939 401 1267 1369 3968 2430 3296 3398
8 411 1462 1469 1644 2440 3491 3498 3673
8 1907 1577 1513 1473 3936 3606 3542 3502
8 372 1110 1286 1089 2401 3139 3315 3118
8 2002 1574 374 1537 4031 3603 2403 3566
8 1431 1447 1523 376 3460 3476 3552 2405
8 1134 1344 1810 386 3163 3373 3839 2415
8 1720 780 1176 849 3749 2809 3205 2878
8 1167 1160 1285 377 3196 3189 3314 2406
8 371 802 582 581 2400 2831 2611 2610
8 1747 828 802 371 3776 2857 2831 2400
8 380 1044 381 1171 2409 3073 2410 3200
8 1299 1121 1067 1236 3328 3150 3096 3265
8 410 1224 1155 1334 2439 3253 3184 3363
8 382 1599 1916 1506 2411 3628 3945 3535
8 1302 1952 1364 1436 3331 3981 3393 3465
8 393 1664 1436 1364 2422 3693 3465 3393
8 1057 1119 1771 948 3086 3148 3800 2977
8 643 583 56 55 2672 2612 2085 2084
8 1274 1251 1123 389 3303 3280 3152 2418
8 390 1067 991 1123 2419 3096 3020 3152
8 834 1201 1023 871 2863 3230 3052 2900
8 401 1334 1827 1267 2430 3363 3856 3296
8 382 1863 1325 1817 2411 3892 3354 3846
8 1582 1943 392 1419 3611 3972 2421 3448
8 403 1211 1050 1145 2432 3240 3079 3174
8 1954 394 1144 1211 3983 2423 3173 3240
8 947 876 396 805 2976 2905 2425 2834
8 718 1721 397 601 2747 3750 2426 2630
8 389 1123 991 1077 2418 3152 3020 3106
8 1023 409 944 871 3052 2438 2973 2900
8 1121 1299 1333 400 3150 3328 3362 2429
8 401 1939 1632 1469 2430 3968 3661 3498
8 1545 393 1364 1494 3574 2422 3393 3523
8 413 953 807 919 2442 2982 2836 2948
8 404 878 807 953 2433 2907 2836 2982
8 750 406 600 715 2779 2435 2629 2744
8 706 727 765 407 2735 2756 2794 2436
8 1944 1150 1213 1053 3973 3179 3242 3082
8 743 690 658 424 2772 2719 2687 2453
8 745 415 658 690 2774 2444 2687 2719
8 901 975 1726 835 2930 3004 3755 2864
8 837 867 1100 427 2866 2896 3129 2456
8 1153 823 962 428 3182 2852 2991 2457
8 1293 438 1272 1337 3322 2467 3301 3366
8 1337 1269 429 1293 3366 3298 2458 3322
8 1315 1214 1174 439 3344 3243 3203 2468
8 1214 1245 430 1174 3243 3274 2459 3203
8 1764 430 1245 1311 3793 2459 3274 3340
8 1502 1476 1770 420 3531 3505 3799 2449
8 1907 1473 1407 1856 3936 3502 3436 3885
8 1007 1100 419 1192 3036 3129 2448 3221
8 1153 428 1309 1736 3182 2457 3338 3765
8 921 1845 980 810 2950 3874 3009 2839
8 923 426 866 843 2952 2455 2895 2872
8 1762 942 867 1737 3791 2971 2896 3766
8 962 887 427 1792 2991 2916 2456 3821
8 431 782 686 733 2460 2811 2715 2762
8 425 707 647 593 2454 2736 2676 2622
8 1712 433 707 759 3741 2462 2736 2788
8 887 710 435 728 2916 2739 2464 2757
8 436 1738 823 797 2465 3767 2852 2826
8 1174 821 796 439 3203 2850 2825 2468
8 792 542 614 134 2821 2571 2643 2163
8 801 546 616 131 2830 2575 2645 2160
8 1273 548 617 1713 3302 2577 2646 3742
8 697 550 618 128 2726 2579 2647 2157
8 451 15 622 555 2480 2044 2651 2584
8 122 910 556 623 2151 2939 2585 2652
8 1607 119 560 625 3636 2148 2589 2654
8 118 1276 562 626 2147 3305 2591 2655
8 1078 116 564 627 3107 2145 2593 2656
8 569 460 32 459 2598 2489 2061 2488
8 693 570 631 112 2722 2599 2660 2141
8 158 533 632 702 2187 2562 2661 2731
8 800 535 633 181 2829 2564 2662 2210
8 1715 1275 537 634 3744 3304 2566 2663
8 1079 249 539 635 3108 2278 2568 2664
8 636 703 271 571 2665 2732 2300 2600
8 294 1102 573 637 2323 3131 2602 2666
8 469 48 639 576 2498 2077 2668 2605
8 344 912 577 640 2373 2941 2606 2669
8 1717 579 641 705 3746 2608 2670 2734
8 1608 371 581 642 3637 2400 2610 2671
8 380 1274 583 643 2409 3303 2612 2672
8 1077 1711 585 644 3106 3740 2614 2673
8 645 706 407 589 2674 2735 2436 2618
8 416 1682 592 646 2445 3711 2621 2675
8 595 478 64 477 2624 2507 2093 2506
8 1712 596 648 433 3741 2625 2677 2462
8 481 66 650 597 2510 2095 2679 2626
8 482 67 651 591 2511 2096 2680 2620
8 484 68 653 586 2513 2097 2682 2615
8 1272 438 587 654 3301 2467 2616 2683
8 489 692 503 72 2518 2721 2532 2101
8 325 708 88 490 2354 2737 2117 2519
8 541 73 491 1691 2570 2102 2520 3720
8 492 1704 1705 74 2521 3733 3734 2103
8 748 1702 76 493 2777 3731 2105 2522
8 540 77 494 361 2569 2106 2523 2390
8 677 78 495 370 2706 2107 2524 2399
8 850 79 496 379 2879 2108 2525 2408
8 1011 80 497 388 3040 2109 2526 2417
8 851 81 498 397 2880 2110 2527 2426
8 503 692 441 87 2532 2721 2470 2116
8 504 1699 518 104 2533 3728 2547 2133
8 611 1681 89 505 2640 3710 2118 2534
8 678 315 90 506 2707 2344 2119 2535
8 313 660 92 507 2342 2689 2121 2536
8 312 661 93 508 2341 2690 2122 2537
8 311 662 94 509 2340 2691 2123 2538
8 305 1074 101 515 2334 3103 2130 2544
8 749 786 102 516 2778 2815 2131 2545
8 519 105 668 603 2548 2134 2697 2632
8 671 1086 248 605 2700 3115 2277 2634
8 1277 613 605 248 3306 2642 2634 2277
8 673 1038 607 1700 2702 3067 2636 3729
8 527 110 675 606 2556 2139 2704 2635
8 528 111 676 531 2557 2140 2705 2560
8 530 614 0 442 2559 2643 2029 2471
8 134 614 530 531 2163 2643 2559 2560
8 134 531 676 713 2163 2560 2705 2742
8 135 702 632 532 2164 2731 2661 2561
8 534 633 37 462 2563 2662 2066 2491
8 158 1714 534 533 2187 3743 2563 2562
8 633 535 38 37 2662 2564 2067 2066
8 536 634 39 463 2565 2663 2068 2492
8 538 537 1275 226 2567 2566 3304 2255
8 1275 1715 204 1169 3304 3744 2233 3198
8 538 635 41 464 2567 2664 2070 2493
8 539 636 42 465 2568 2665 2071 2494
8 748 540 679 352 2777 2569 2708 2381
8 729 325 541 680 2758 2354 2570 2709
8 680 541 1691 334 2709 2570 3720 2363
8 543 615 2 443 2572 2644 2031 2472
8 133 696 615 543 2162 2725 2644 2572
8 615 544 3 2 2644 2573 2032 2031
8 545 616 4 444 2574 2645 2033 2473
8 1606 545 544 132 3635 2574 2573 2161
8 891 131 1606 971 2920 2160 3635 3000
8 547 617 6 445 2576 2646 2035 2474
8 130 1713 617 547 2159 3742 2646 2576
8 617 548 7 6 2646 2577 2036 2035
8 549 618 8 446 2578 2647 2037 2475
8 1076 549 548 129 3105 2578 2577 2158
8 9 447 550 1696 2038 2476 2579 3725
8 10 9 1696 1695 2039 2038 3725 3724
8 1695 610 448 10 3724 2639 2477 2039
8 1728 1008 1101 126 3757 3037 3130 2155
8 610 904 126 620 2639 2933 2155 2649
8 553 621 13 449 2582 2650 2042 2478
8 552 1101 125 553 2581 3130 2154 2582
8 621 554 14 13 2650 2583 2043 2042
8 978 123 909 853 3007 2152 2938 2882
8 1082 122 1088 1254 3111 2151 3117 3283
8 557 624 18 452 2586 2653 2047 2481
8 776 121 910 845 2805 2150 2939 2874
8 121 699 624 557 2150 2728 2653 2586
8 624 558 19 18 2653 2587 2048 2047
8 559 625 20 453 2588 2654 2049 2482
8 1707 120 559 558 3736 2149 2588 2587
8 965 1725 119 1607 2994 3754 2148 3636
8 561 626 22 454 2590 2655 2051 2483
8 626 561 799 118 2655 2590 2828 2147
8 626 562 23 22 2655 2591 2052 2051
8 563 627 24 455 2592 2656 2053 2484
8 564 628 25 456 2593 2657 2054 2485
8 628 565 26 25 2657 2594 2055 2054
8 974 880 1683 114 3003 2909 3712 2143
8 608 897 114 629 2637 2926 2143 2658
8 567 630 29 458 2596 2659 2058 2487
8 809 113 1683 880 2838 2142 3712 2909
8 630 568 30 29 2659 2597 2059 2058
8 112 631 569 568 2141 2660 2598 2597
8 631 570 34 33 2660 2599 2063 2062
8 572 637 44 466 2601 2666 2073 2495
8 763 829 894 271 2792 2858 2923 2300
8 572 894 294 637 2601 2923 2323 2666
8 574 638 46 467 2603 2667 2075 2496
8 573 1102 317 574 2602 3131 2346 2603
8 638 575 47 46 2667 2604 2076 2075
8 1081 344 1087 1255 3110 2373 3116 3284
8 578 641 51 470 2607 2670 2080 2499
8 777 353 912 846 2806 2382 2941 2875
8 641 579 52 51 2670 2608 2081 2080
8 580 642 53 471 2609 2671 2082 2500
8 1717 362 580 579 3746 2391 2609 2608
8 642 581 54 53 2671 2610 2083 2082
8 582 643 55 472 2611 2672 2084 2501
8 643 582 802 380 2672 2611 2831 2409
8 584 583 1274 389 2613 2612 3303 2418
8 584 644 57 473 2613 2673 2086 2502
8 58 474 585 1698 2087 2503 2614 3727
8 436 797 653 652 2465 2826 2682 2681
8 654 587 485 69 2683 2616 2514 2098
8 588 70 486 655 2617 2099 2515 2684
8 1293 1214 1315 438 3322 3243 3344 2467
8 598 71 487 656 2627 2100 2516 2685
8 439 796 656 588 2468 2825 2685 2617
8 1697 590 475 59 3726 2619 2504 2088
8 590 646 60 475 2619 2675 2089 2504
8 589 407 835 903 2618 2436 2864 2932
8 709 435 651 597 2738 2464 2680 2626
8 590 903 416 646 2619 2932 2445 2675
8 593 647 62 476 2622 2676 2091 2505
8 647 594 63 62 2676 2623 2092 2091
8 433 648 595 594 2462 2677 2624 2623
8 648 596 479 65 2677 2625 2508 2094
8 440 711 657 598 2469 2740 2686 2627
8 48 468 599 639 2077 2497 2628 2668
8 326 911 599 575 2355 2940 2628 2604
8 602 1706 99 100 2631 3735 2128 2129
8 293 669 603 695 2322 2698 2632 2724
8 604 671 107 521 2633 2700 2136 2550
8 671 605 522 107 2700 2634 2551 2136
8 157 606 675 712 2186 2635 2704 2741
8 1038 673 203 964 3067 2702 2232 2993
8 673 612 798 203 2702 2641 2827 2232
8 27 457 608 629 2056 2486 2637 2658
8 764 831 897 115 2793 2860 2926 2144
8 15 450 609 622 2044 2479 2638 2651
8 124 909 609 554 2153 2938 2638 2583
8 11 448 610 620 2040 2477 2639 2649
8 551 127 836 904 2580 2156 2865 2933
8 798 672 613 225 2827 2701 2642 2254
8 672 108 523 613 2701 2137 2552 2642
8 1137 225 613 1277 3166 2254 2642 3306
8 1696 550 697 619 3725 2579 2726 2648
8 126 1101 552 620 2155 3130 2581 2649
8 1088 555 622 123 3117 2584 2651 2152
8 114 1683 566 629 2143 3712 2595 2658
8 335 1087 576 639 2364 3116 2605 2668
8 1711 645 1698 585 3740 2674 3727 2614
8 66 480 649 650 2095 2509 2678 2679
8 434 709 597 650 2463 2738 2626 2679
8 435 710 591 651 2464 2739 2620 2680
8 68 483 652 653 2097 2512 2681 2682
8 441 692 657 711 2470 2721 2686 2740
8 742 308 666 687 2771 2337 2695 2716
8 749 667 682 304 2778 2696 2711 2333
8 1699 1681 316 668 3728 3710 2345 2697
8 1699 668 105 518 3728 2697 2134 2547
8 106 520 669 670 2135 2549 2698 2699
8 1719 270 604 670 3748 2299 2633 2699
8 798 612 1701 672 2827 2641 3730 2701
8 1701 612 673 1700 3730 2641 2702 3729
8 110 526 674 675 2139 2555 2703 2704
8 607 1038 180 674 2636 3067 2209 2703
8 741 688 361 677 2770 2717 2390 2706
8 730 679 540 361 2759 2708 2569 2390
8 324 729 680 769 2353 2758 2709 2798
8 731 307 1706 681 2760 2336 3735 2710
8 283 770 681 841 2312 2799 2710 2870
8 694 721 732 303 2723 2750 2761 2332
8 683 842 695 316 2712 2871 2724 2345
8 842 683 734 1718 2871 2712 2763 3747
8 723 1722 762 684 2752 3751 2791 2713
8 723 684 1680 441 2752 2713 3709 2470
8 1724 781 685 744 3753 2810 2714 2773
8 744 685 678 314 2773 2714 2707 2343
8 423 743 686 782 2452 2772 2715 2811
8 733 686 659 432 2762 2715 2688 2461
8 284 779 687 731 2313 2808 2716 2760
8 783 1724 744 689 2812 3753 2773 2718
8 290 783 689 747 2319 2812 2718 2776
8 414 745 690 784 2443 2774 2719 2813
8 423 784 690 743 2452 2813 2719 2772
8 286 746 691 785 2315 2775 2720 2814
8 285 785 691 742 2314 2814 2720 2771
8 693 758 775 135 2722 2787 2804 2164
8 695 842 812 293 2724 2871 2841 2322
8 128 726 127 697 2157 2755 2156 2726
8 764 115 700 725 2793 2144 2729 2754
8 854 1751 855 794 2883 3780 2884 2823
8 774 795 1712 759 2803 2824 3741 2788
8 722 1710 720 708 2751 3739 2749 2737
8 1003 767 1734 736 3032 2796 3763 2765
8 290 747 714 1085 2319 2776 2743 3114
8 1085 714 752 787 3114 2743 2781 2816
8 405 750 715 857 2434 2779 2744 2886
8 287 751 716 788 2316 2780 2745 2817
8 746 858 788 716 2775 2887 2817 2745
8 289 752 717 760 2318 2781 2746 2789
8 396 753 859 805 2425 2782 2888 2834
8 1721 718 859 753 3750 2747 2888 2782
8 288 754 719 761 2317 2783 2748 2790
8 287 761 719 751 2316 2790 2748 2780
8 1708 720 1710 302 3737 2749 3739 2331
8 1708 804 790 721 3737 2833 2819 2750
8 431 733 684 762 2460 2762 2713 2791
8 893 724 703 249 2922 2753 2732 2278
8 898 725 700 116 2927 2754 2729 2145
8 1783 765 727 408 3812 2794 2756 2437
8 900 727 706 398 2929 2756 2735 2427
8 427 887 728 837 2456 2916 2757 2866
8 728 1737 867 837 2757 3766 2896 2866
8 280 771 682 732 2309 2800 2711 2761
8 885 280 790 956 2914 2309 2819 2985
8 1850 869 735 875 3879 2898 2764 2904
8 875 735 772 156 2904 2764 2801 2185
8 1003 736 774 843 3032 2765 2803 2872
8 156 773 737 860 2185 2802 2766 2889
8 1716 868 860 737 3745 2897 2889 2766
8 775 136 844 738 2804 2165 2873 2767
8 865 907 739 847 2894 2936 2768 2876
8 144 847 739 776 2173 2876 2768 2805
8 864 908 740 848 2893 2937 2769 2877
8 906 848 740 777 2935 2877 2769 2806
8 1010 369 849 1080 3039 2398 2878 3109
8 852 789 1721 753 2881 2818 3750 2782
8 948 852 753 396 2977 2881 2782 2425
8 288 760 717 754 2317 2789 2746 2783
8 772 133 792 755 2801 2162 2821 2784
8 773 156 772 755 2802 2185 2801 2784
8 1727 756 147 793 3756 2785 2176 2822
8 1766 147 756 914 3795 2176 2785 2943
8 1777 855 1751 757 3806 2884 3780 2786
8 843 774 759 923 2872 2803 2788 2952
8 760 985 1731 289 2789 3014 3760 2318
8 924 288 761 817 2953 2317 2790 2846
8 440 796 821 1723 2469 2825 2850 3752
8 886 762 1722 1723 2915 2791 3751 3752
8 829 763 272 895 2858 2792 2301 2924
8 897 831 974 114 2926 2860 3003 2143
8 901 835 407 765 2930 2864 2436 2794
8 1800 901 765 1783 3829 2930 2794 3812
8 1756 836 127 766 3785 2865 2156 2795
8 1756 976 1728 836 3785 3005 3757 2865
8 1737 728 435 767 3766 2757 2464 2796
8 839 768 813 351 2868 2797 2842 2380
8 814 769 840 333 2843 2798 2869 2362
8 884 284 770 815 2913 2313 2799 2844
8 838 771 816 1753 2867 2800 2845 3782
8 795 774 736 434 2824 2803 2765 2463
8 775 758 809 136 2804 2787 2838 2165
8 1016 937 144 905 3045 2966 2173 2934
8 145 905 845 1082 2174 2934 2874 3111
8 848 906 1015 354 2877 2935 3044 2383
8 1103 883 360 930 3132 2912 2389 2959
8 922 285 779 819 2951 2314 2808 2848
8 992 881 292 931 3021 2910 2321 2960
8 1740 291 781 1724 3769 2320 2810 3753
8 931 291 1084 1009 2960 2320 3113 3038
8 1754 286 785 811 3783 2315 2814 2840
8 1259 305 786 818 3288 2334 2815 2847
8 1742 806 1085 787 3771 2835 3114 2816
8 1731 787 752 289 3760 2816 2781 2318
8 878 405 857 807 2907 2434 2886 2836
8 879 287 788 1748 2908 2316 2817 3777
8 808 1748 788 858 2837 3777 2817 2887
8 1735 913 789 852 3764 2942 2818 2881
8 956 790 804 279 2985 2819 2833 2308
8 803 791 957 301 2832 2820 2986 2330
8 978 853 1727 793 3007 2882 3756 2822
8 933 916 794 327 2962 2945 2823 2356
8 701 113 809 758 2730 2142 2838 2787
8 1719 293 812 822 3748 2322 2841 2851
8 1153 437 797 823 3182 2466 2826 2852
8 1755 203 798 824 3784 2232 2827 2853
8 1039 118 799 825 3068 2147 2828 2854
8 1042 204 800 826 3071 2233 2829 2855
8 827 1043 130 801 2856 3072 2159 2830
8 1044 380 802 828 3073 2409 2831 2857
8 804 1708 302 856 2833 3737 2331 2885
8 405 878 805 859 2434 2907 2834 2888
8 952 268 1033 806 2981 2297 3062 2835
8 919 807 857 414 2948 2836 2886 2443
8 1768 808 920 954 3797 2837 2949 2983
8 1761 136 809 939 3790 2165 2838 2968
8 1743 955 880 974 3772 2984 2909 3003
8 413 919 810 980 2442 2948 2839 3009
8 921 810 784 423 2950 2839 2813 2452
8 922 811 785 285 2951 2840 2814 2314
8 1061 264 1759 981 3090 2293 3788 3010
8 1684 863 1732 1733 3713 2892 3761 3762
8 883 813 768 360 2912 2842 2797 2389
8 814 960 323 882 2843 2989 2352 2911
8 1199 1803 958 815 3228 3832 2987 2844
8 1753 816 961 1036 3782 2845 2990 3065
8 265 984 817 879 2294 3013 2846 2908
8 1074 305 1259 1132 3103 2334 3288 3161
8 1097 1190 1308 281 3126 3219 3337 2310
8 262 983 819 884 2291 3012 2848 2913
8 1845 921 820 982 3874 2950 2849 3011
8 431 1046 820 782 2460 3075 2849 2811
8 430 927 821 1174 2459 2956 2850 3203
8 993 935 822 863 3022 2964 2851 2892
8 823 1738 887 962 2852 3767 2916 2991
8 1037 824 798 225 3066 2853 2827 2254
8 888 964 203 1755 2917 2993 2232 3784
8 1725 825 799 119 3754 2854 2828 2148
8 891 827 801 131 2920 2856 2830 2160
8 295 973 829 895 2324 3002 2858 2924
8 1790 137 955 1743 3819 2166 2984 3772
8 945 138 832 872 2974 2167 2861 2901
8 944 408 834 871 2973 2437 2863 2900
8 1201 834 900 399 3230 2863 2929 2428
8 149 976 1756 902 2178 3005 3785 2931
8 838 1308 818 304 2867 3337 2847 2333
8 1308 838 1753 281 3337 2867 3782 2310
8 1083 1709 352 839 3112 3738 2381 2868
8 1064 333 840 917 3093 2362 2869 2946
8 1065 283 841 918 3094 2312 2870 2947
8 918 841 602 306 2947 2870 2631 2335
8 860 874 875 156 2889 2903 2904 2185
8 1762 1003 843 866 3791 3032 2872 2895
8 949 738 844 159 2978 2767 2873 2188
8 1720 849 369 741 3749 2878 2398 2770
8 1228 378 1176 1175 3257 2407 3205 3204
8 370 495 79 850 2399 2524 2108 2879
8 388 497 81 851 2417 2526 2110 2880
8 948 1771 1735 852 2977 3800 3764 2881
8 854 794 916 977 2883 2823 2945 3006
8 934 1013 793 147 2963 3042 2822 2176
8 1778 1777 757 915 3807 3806 2786 2944
8 1729 856 302 925 3758 2885 2331 2954
8 715 745 414 857 2744 2774 2443 2886
8 1730 858 746 286 3759 2887 2775 2315
8 718 750 405 859 2747 2779 2434 2888
8 874 860 868 1767 2903 2889 2897 3796
8 934 861 171 1811 2963 2890 2200 3840
8 941 318 1778 915 2970 2347 3807 2944
8 1718 881 1733 1732 3747 2910 3762 3761
8 812 1732 863 822 2841 3761 2892 2851
8 1819 1107 363 864 3848 3136 2392 2893
8 1819 864 848 354 3848 2893 2877 2383
8 937 865 847 144 2966 2894 2876 2173
8 866 1760 942 1762 2895 3789 2971 3791
8 417 1019 1757 938 2446 3048 3786 2967
8 1761 1116 1108 159 3790 3145 3137 2188
8 1761 159 844 136 3790 2188 2873 2165
8 419 1100 867 1021 2448 3129 2896 3050
8 942 1801 1021 867 2971 3830 3050 2896
8 1606 132 986 971 3635 2161 3015 3000
8 1828 1022 870 1200 3857 3051 2899 3229
8 1200 870 833 151 3229 2899 2862 2180
8 162 1026 872 1202 2191 3055 2901 3231
8 273 946 873 1028 2302 2975 2902 3057
8 1203 873 830 250 3232 2902 2859 2279
8 926 1878 1002 1850 2955 3907 3031 3879
8 155 869 1850 1002 2184 2898 3879 3031
8 1057 948 396 876 3086 2977 2425 2905
8 266 1051 985 924 2295 3080 3014 2953
8 734 292 881 1718 2763 2321 2910 3747
8 791 324 882 957 2820 2353 2911 2986
8 958 1803 1071 1892 2987 3832 3100 3921
8 1046 431 762 886 3075 2460 2791 2915
8 1745 1799 1032 1040 3774 3828 3061 3069
8 120 1707 907 951 2149 3736 2936 2980
8 967 949 1030 1041 2996 2978 3059 3070
8 828 1747 1045 892 2857 3776 3074 2921
8 363 1031 972 950 2392 3060 3001 2979
8 1069 250 893 989 3098 2279 2922 3018
8 1178 295 895 1029 3207 2324 2924 3058
8 1743 896 1027 1790 3772 2925 3056 3819
8 1068 139 898 988 3097 2168 2927 3017
8 398 991 399 900 2427 3020 2428 2929
8 417 1800 1783 1025 2446 3829 3812 3054
8 1181 149 902 1024 3210 2178 2931 3053
8 835 1726 416 903 2864 3755 2445 2932
8 836 1728 126 904 2865 3757 2155 2933
8 967 1714 158 949 2996 3743 2187 2978
8 1774 1773 846 1081 3803 3802 2875 3110
8 1607 120 951 965 3636 2149 2980 2994
8 1608 362 950 972 3637 2391 2979 3001
8 950 908 864 363 2979 2937 2893 2392
8 123 622 609 909 2152 2651 2638 2938
8 121 557 556 910 2150 2586 2585 2939
8 335 639 599 911 2364 2668 2628 2940
8 353 578 577 912 2382 2607 2606 2941
8 977 916 1012 336 3006 2945 3041 2365
8 793 1013 146 978 2822 3042 2175 3007
8 1133 342 1064 917 3162 2371 3093 2946
8 286 1754 1759 1730 2315 3783 3788 3759
8 1757 426 979 938 3786 2455 3008 2967
8 1191 1006 1729 929 3220 3035 3758 2958
8 925 1752 929 1729 2954 3781 2958 3758
8 301 1752 925 803 2330 3781 2954 2832
8 926 1850 875 874 2955 3879 2904 2903
8 1781 1005 279 928 3810 3034 2308 2957
8 1798 1781 928 1270 3827 3810 2957 3299
8 1556 1099 1004 300 3585 3128 3033 2329
8 368 1103 930 1010 2397 3132 2959 3039
8 1010 930 778 369 3039 2959 2807 2398
8 1049 992 931 1009 3078 3021 2960 3038
8 387 1175 1159 932 2416 3204 3188 2961
8 1012 1848 328 1217 3041 3877 2357 3246
8 170 1147 934 1811 2199 3176 2963 3840
8 354 1015 1104 936 2383 3044 3133 2965
8 1666 1105 937 1016 3695 3134 2966 3045
8 417 938 996 1800 2446 2967 3025 3829
8 1020 939 955 137 3049 2968 2984 2166
8 1728 976 1166 1008 3757 3005 3195 3037
8 902 150 943 1024 2931 2179 2972 3053
8 1154 173 943 1022 3183 2202 2972 3051
8 1783 408 944 1025 3812 2437 2973 3054
8 896 138 945 1027 2925 2167 2974 3056
8 895 272 946 1029 2924 2301 2975 3058
8 1252 182 1041 1030 3281 2211 3070 3059
8 889 1040 1032 142 2918 3069 3061 2171
8 143 1746 951 907 2172 3775 2980 2936
8 1052 1172 268 952 3081 3201 2297 2981
8 1194 267 1785 1786 3223 2296 3814 3815
8 1768 954 1054 1831 3797 2983 3083 3860
8 1151 1054 954 1837 3180 3083 2983 3866
8 1004 1752 301 1257 3033 3781 2330 3286
8 1803 1199 1118 261 3832 3228 3147 2290
8 1035 959 1072 350 3064 2988 3101 2379
8 1296 332 1198 1117 3325 2361 3227 3146
8 259 1036 961 1073 2288 3065 2990 3102
8 962 1792 1007 428 2991 3821 3036 2457
8 427 1100 1007 1792 2456 3129 3036 3821
8 868 1716 180 987 2897 3745 2209 3016
8 1039 966 1001 141 3068 2995 3030 2170
8 1093 966 889 142 3122 2995 2918 2171
8 205 1042 968 1000 2234 3071 2997 3029
8 1000 968 1041 182 3029 2997 3070 2211
8 1043 969 997 1795 3072 2998 3026 3824
8 891 1806 154 969 2920 3835 2183 2998
8 1044 970 998 381 3073 2999 3027 2410
8 970 892 1045 372 2999 2921 3074 2401
8 1743 974 831 896 3772 3003 2860 2925
8 1726 1690 1682 416 3755 3719 3711 2445
8 996 975 901 1800 3025 3004 2930 3829
8 426 923 425 979 2455 2952 2454 3008
8 1060 980 1845 422 3089 3009 3874 2451
8 422 1845 982 1062 2451 3874 3011 3091
8 886 927 1763 1046 2915 2956 3792 3075
8 1149 263 983 1063 3178 2292 3012 3092
8 1055 1873 266 984 3084 3902 2295 3013
8 877 1731 985 1051 2906 3760 3014 3080
8 132 869 155 986 2161 2898 2184 3015
8 1048 1765 179 987 3077 3794 2208 3016
8 140 1068 988 1125 2169 3097 3017 3154
8 1079 989 893 249 3108 3018 2922 2278
8 152 1066 990 1122 2181 3095 3019 3151
8 1076 990 899 128 3105 3019 2928 2157
8 1121 399 991 1067 3150 2428 3020 3096
8 1173 269 992 1049 3202 2298 3021 3078
8 248 1086 993 1258 2277 3115 3022 3287
8 993 1291 1292 1258 3022 3320 3321 3287
8 1081 1255 1289 1774 3110 3284 3318 3803
8 994 1775 1289 1255 3023 3804 3318 3284
8 1254 1290 145 1082 3283 3319 2174 3111
8 995 1749 1290 1254 3024 3778 3319 3283
8 996 1690 1726 975 3025 3719 3755 3004
8 1090 997 969 154 3119 3026 2998 2183
8 1842 1306 381 998 3871 3335 2410 3027
8 1089 998 970 372 3118 3027 2999 2401
8 1367 999 963 224 3396 3028 2992 2253
8 1326 205 1000 1841 3355 2234 3029 3870
8 1836 1189 1093 165 3865 3218 3122 2194
8 1002 1689 1047 155 3031 3718 3076 2184
8 1350 1928 1689 1920 3379 3957 3718 3949
8 1762 1737 767 1003 3791 3766 2796 3032
8 300 1004 1257 1829 2329 3033 3286 3858
8 1034 956 279 1005 3063 2985 2308 3034
8 1557 1384 257 1098 3586 3413 2286 3127
8 1729 1006 928 856 3758 3035 2957 2885
8 1191 1782 278 1006 3220 3811 2307 3035
8 428 1007 1192 1309 2457 3036 3221 3338
8 1008 1166 1058 940 3037 3195 3087 2969
8 295 1059 941 973 2324 3088 2970 3002
8 1049 1009 1084 1140 3078 3038 3113 3169
8 916 933 1848 1012 2945 2962 3877 3041
8 337 1217 328 1240 2366 3246 2357 3269
8 1340 319 1823 1824 3369 2348 3852 3853
8 148 1114 171 861 2177 3143 2200 2890
8 906 1773 345 1015 2935 3802 2374 3044
8 1138 1017 936 355 3167 3046 2965 2384
8 1106 1018 1139 166 3135 3047 3168 2195
8 1143 1184 1830 1180 3172 3213 3859 3209
8 1183 1890 160 1867 3212 3919 2189 3896
8 1271 419 1021 1148 3300 2448 3050 3177
8 1148 1021 1801 418 3177 3050 3830 2447
8 151 1120 174 1200 2180 3149 2203 3229
8 1224 409 1023 1155 3253 2438 3052 3184
8 399 1121 400 1201 2428 3150 2429 3230
8 1025 1180 1019 417 3054 3209 3048 2446
8 1814 1026 1156 161 3843 3055 3185 2190
8 1815 162 1202 1124 3844 2191 3231 3153
8 1116 1020 137 1179 3145 3049 2166 3208
8 1226 273 1028 1992 3255 2302 3057 4021
8 1898 1203 1126 251 3927 3232 3155 2280
8 1108 1030 949 159 3137 3059 2978 2188
8 783 290 1033 1741 2812 2319 3062 3770
8 1227 1083 1758 1158 3256 3112 3787 3187
8 1795 1170 130 1043 3824 3199 2159 3072
8 177 1090 154 1853 2206 3119 2183 3882
8 1833 1048 888 1787 3862 3077 2917 3816
8 179 1765 1835 1111 2208 3794 3864 3140
8 1173 1816 1112 269 3202 3845 3141 2298
8 247 1112 1816 1244 2276 3141 3845 3273
8 1145 1050 947 404 3174 3079 2976 2433
8 1211 1144 395 1050 3240 3173 2424 3079
8 1052 1888 1195 1172 3081 3917 3224 3201
8 1145 1053 1213 1989 3174 3082 3242 4018
8 1944 1053 953 413 3973 3082 2982 2442
8 1872 1146 1831 1054 3901 3175 3860 3083
8 1872 1054 1151 1212 3901 3083 3180 3241
8 1146 1922 1222 1871 3175 3951 3251 3900
8 1257 1056 1095 1829 3286 3085 3124 3858
8 1119 1057 1134 386 3148 3086 3163 2415
8 1134 1057 876 395 3163 3086 2905 2424
8 1796 1058 1166 1247 3825 3087 3195 3276
8 319 1014 1196 1823 2348 3043 3225 3852
8 1893 1221 412 1150 3922 3250 2441 3179
8 1149 1061 981 263 3178 3090 3010 2292
8 1807 1197 1855 1115 3836 3226 3884 3144
8 1807 1062 1764 1311 3836 3091 3793 3340
8 1063 1130 239 1219 3092 3159 2268 3248
8 1789 1066 1120 151 3818 3095 3149 2180
8 1202 139 1068 1124 3231 2168 3097 3153
8 1203 250 1069 1126 3232 2279 3098 3155
8 332 1162 1233 1070 2361 3191 3262 3099
8 1198 332 1070 960 3227 2361 3099 2989
8 1071 1234 1130 1892 3100 3263 3159 3921
8 1490 349 1161 1204 3519 2378 3190 3233
8 1129 1072 959 359 3158 3101 2988 2388
8 1131 1205 1164 1073 3160 3234 3193 3102
8 1711 1077 991 398 3740 3106 3020 2427
8 1176 378 1080 849 3205 2407 3109 2878
8 1227 1165 1709 1083 3256 3194 3738 3112
8 1177 1158 1758 1096 3206 3187 3787 3125
8 344 640 576 1087 2373 2669 2605 3116
8 122 623 555 1088 2151 2652 2584 3117
8 998 1089 1883 1842 3027 3118 3912 3871
8 1396 201 1091 1187 3425 2230 3120 3216
8 1252 1858 1890 1287 3281 3887 3919 3316
8 1780 1109 1288 1253 3809 3138 3317 3282
8 1128 1095 1056 323 3157 3124 3085 2352
8 1847 1177 1096 1316 3876 3206 3125 3345
8 1190 1297 1241 282 3219 3326 3270 2311
8 1678 1881 256 1825 3707 3910 2285 3854
8 1499 277 1099 1556 3528 2306 3128 3585
8 1215 1667 1652 1942 3244 3696 3681 3971
8 1844 167 1105 1216 3873 2196 3134 3245
8 168 1805 1666 1651 2197 3834 3695 3680
8 1797 1109 1106 166 3826 3138 3135 2195
8 372 1045 1031 1110 2401 3074 3060 3139
8 1286 1110 1107 364 3315 3139 3136 2393
8 1767 179 1111 1193 3796 2208 3140 3222
8 247 1291 1684 1112 2276 3320 3713 3141
8 1888 1052 267 1113 3917 3081 2296 3142
8 149 1181 1796 1247 2178 3210 3825 3276
8 1382 1340 1824 1880 3411 3369 3853 3909
8 1246 1178 1900 1899 3275 3207 3929 3928
8 1893 1060 422 1115 3922 3089 2451 3144
8 1808 1579 1407 421 3837 3608 3436 2450
8 1158 1177 1242 342 3187 3206 3271 2371
8 1241 1295 261 1118 3270 3324 2290 3147
8 1285 1160 378 1228 3314 3189 2407 3257
8 380 1171 1251 1274 2409 3200 3280 3303
8 118 1168 1249 1276 2147 3197 3278 3305
8 1262 1248 1275 1169 3291 3277 3304 3198
8 1412 1233 1162 331 3441 3262 3191 2360
8 235 1205 1131 1284 2264 3234 3160 3313
8 1132 1259 1190 282 3161 3288 3219 2311
8 1133 1227 1158 342 3162 3256 3187 2371
8 1914 1344 1134 1282 3943 3373 3163 3311
8 1947 1341 1135 1910 3976 3370 3164 3939
8 1910 1135 1014 319 3939 3164 3043 2348
8 193 1207 1136 1342 2222 3236 3165 3371
8 1281 1136 1811 171 3310 3165 3840 2200
8 1263 1137 1277 1292 3292 3166 3306 3321
8 1389 1279 1313 365 3418 3308 3342 2394
8 1209 1139 1018 167 3238 3168 3047 2196
8 1173 1049 1140 1210 3202 3078 3169 3239
8 268 1210 1140 1685 2297 3239 3169 3714
8 1900 1141 1182 296 3929 3170 3211 2325
8 1184 1143 944 409 3213 3172 2973 2438
8 1544 1494 394 1954 3573 3523 2423 3983
8 1985 1990 1983 1984 4014 4019 4012 4013
8 170 1239 1804 1147 2199 3268 3833 3176
8 1927 328 1848 1852 3956 2357 3877 3881
8 1060 1893 1150 1944 3089 3922 3179 3973
8 1473 1906 421 1407 3502 3935 2450 3436
8 1220 1151 1837 1846 3249 3180 3866 3875
8 1871 1222 1869 1055 3900 3251 3898 3084
8 1337 1272 437 1153 3366 3301 2466 3182
8 1335 1859 1828 1840 3364 3888 3857 3869
8 1023 1827 1334 1155 3052 3856 3363 3184
8 1410 161 1156 1225 3439 2190 3185 3254
8 2006 1157 1265 1329 4035 3186 3294 3358
8 251 1265 1157 1898 2280 3294 3186 3927
8 780 1159 1175 1176 2809 3188 3204 3205
8 1243 1809 1285 1228 3272 3838 3314 3257
8 1231 1891 1316 350 3260 3920 3345 2379
8 1793 1317 259 1232 3822 3346 2288 3261
8 1437 1486 236 1932 3466 3515 2265 3961
8 149 1247 1166 976 2178 3276 3195 3005
8 377 1256 368 1167 2406 3285 2397 3196
8 1276 1249 1125 117 3305 3278 3154 2146
8 536 204 1715 634 2565 2233 3744 2663
8 1273 1713 130 1170 3302 3742 2159 3199
8 152 1122 129 1250 2181 3151 2158 3279
8 1772 1261 1251 1171 3801 3290 3280 3200
8 244 1491 245 1195 2273 3520 2274 3224
8 1458 1921 1356 1862 3487 3950 3385 3891
8 1059 295 1178 1246 3088 2324 3207 3275
8 137 1790 1142 1179 2166 3819 3171 3208
8 1794 1019 1180 1830 3823 3048 3209 3859
8 1411 1454 296 1182 3440 3483 2325 3211
8 1226 1182 1141 273 3255 3211 3170 2302
8 1287 1890 1183 1919 3316 3919 3212 3948
8 1183 161 1410 1919 3212 2190 3439 3948
8 173 1223 1409 1185 2202 3252 3438 3214
8 1305 1186 1496 176 3334 3215 3525 2205
8 999 1367 1327 1861 3028 3396 3356 3890
8 1467 1870 1594 1508 3496 3899 3623 3537
8 1904 1188 1092 183 3933 3217 3121 2212
8 1464 164 1598 1505 3493 2193 3627 3534
8 1191 1668 1812 1782 3220 3697 3841 3811
8 929 1099 277 1191 2958 3128 2306 3220
8 1192 419 1547 420 3221 2448 3576 2449
8 1692 1310 1194 1839 3721 3339 3223 3868
8 1310 1923 244 1113 3339 3952 2273 3142
8 1113 244 1195 1888 3142 2273 3224 3917
8 1823 1196 1778 318 3852 3225 3807 2347
8 1769 1311 1245 429 3798 3340 3274 2458
8 1827 1023 1201 400 3856 3052 3230 2429
8 1357 1206 1103 368 3386 3235 3132 2397
8 1876 1386 1239 1875 3905 3415 3268 3904
8 328 1927 1208 1240 2357 3956 3237 3269
8 1399 329 1341 1947 3428 2358 3370 3976
8 2023 1946 1215 1401 4052 3975 3244 3430
8 1172 1343 1210 268 3201 3372 3239 2297
8 1933 1212 1151 241 3962 3241 3180 2270
8 1983 1213 1150 412 4012 3242 3179 2441
8 429 1245 1214 1293 2458 3274 3243 3322
8 655 587 438 1315 2684 2616 2467 3344
8 346 1448 1215 1942 2375 3477 3244 3971
8 1104 1667 1215 1946 3133 3696 3244 3975
8 1805 1449 1864 1216 3834 3478 3893 3245
8 1646 1821 1775 1776 3675 3850 3804 3805
8 1645 1348 1749 1750 3674 3377 3778 3779
8 1804 169 1218 1147 3833 2198 3247 3176
8 1408 1220 1149 240 3437 3249 3178 2269
8 1222 1922 1397 243 3251 3951 3426 2272
8 1425 197 1268 1481 3454 2226 3297 3510
8 1889 1184 409 1224 3918 3213 2438 3253
8 1406 1329 1368 252 3435 3358 3397 2281
8 387 1243 1228 1175 2416 3272 3257 3204
8 1229 1398 1353 1319 3258 3427 3382 3348
8 341 1398 1229 1296 2370 3427 3258 3325
8 1605 1352 1318 1230 3634 3381 3347 3259
8 260 1605 1230 1295 2289 3634 3259 3324
8 1945 1353 1687 340 3974 3382 3716 2369
8 1393 1891 1231 1687 3422 3920 3260 3716
8 1429 1688 1394 1390 3458 3717 3423 3419
8 1412 1903 322 1233 3441 3932 2351 3262
8 1250 1260 1320 152 3279 3289 3349 2181
8 1325 1321 390 1261 3354 3350 2419 3290
8 1321 1236 1067 390 3350 3265 3096 2419
8 1326 1323 227 1262 3355 3352 2256 3291
8 1238 140 1264 1322 3267 2169 3293 3351
8 1295 1241 1297 260 3324 3270 3326 2289
8 341 1296 1117 1242 2370 3325 3146 3271
8 1847 341 1242 1177 3876 2370 3271 3206
8 1375 246 1432 1327 3404 2275 3461 3356
8 1181 172 1294 1796 3210 2201 3323 3825
8 1262 227 1127 1248 3291 2256 3156 3277
8 1264 140 1125 1249 3293 2169 3154 3278
8 1261 390 1123 1251 3290 2419 3152 3280
8 1919 183 1092 1287 3948 2212 3121 3316
8 1032 1799 1253 142 3061 3828 3282 2171
8 1288 1802 165 1093 3317 3831 2194 3122
8 1633 367 1351 1623 3662 2396 3380 3652
8 175 1235 152 1320 2204 3264 2181 3349
8 1817 1325 1261 1772 3846 3354 3290 3801
8 228 1237 227 1323 2257 3266 2256 3352
8 1326 1262 1169 205 3355 3291 3198 2234
8 1291 247 1263 1292 3320 2276 3292 3321
8 1482 1369 1267 1333 3511 3398 3296 3362
8 400 1333 1267 1827 2429 3362 3296 3856
8 1736 1336 1370 1269 3765 3365 3399 3298
8 1269 1337 1153 1736 3298 3366 3182 3765
8 1782 1812 1882 1676 3811 3841 3911 3705
8 1416 1271 1889 1387 3445 3300 3918 3416
8 190 1550 189 1314 2219 3579 2218 3343
8 373 1286 364 1338 2402 3315 2393 3367
8 356 1551 365 1313 2385 3580 2394 3342
8 171 1339 1371 1281 2200 3368 3400 3310
8 1282 1952 1302 1914 3311 3981 3331 3943
8 1952 1282 1144 394 3981 3311 3173 2423
8 1283 1902 1303 1345 3312 3931 3332 3374
8 1438 235 1284 1304 3467 2264 3313 3333
8 1304 1284 1346 234 3333 3313 3375 2263
8 1860 1392 1285 1809 3889 3421 3314 3838
8 1414 1546 1278 1388 3443 3575 3307 3417
8 1802 1288 1109 1797 3831 3317 3138 3826
8 1851 1652 1820 1347 3880 3681 3849 3376
8 1733 269 1112 1684 3762 2298 3141 3713
8 1280 1910 319 1340 3309 3939 2348 3369
8 1059 1246 1899 1887 3088 3275 3928 3916
8 1317 1793 260 1297 3346 3822 2289 3326
8 175 1376 1298 1235 2204 3405 3327 3264
8 1377 1299 1236 391 3406 3328 3265 2420
8 1815 1331 1266 162 3844 3360 3295 2191
8 1322 163 1300 1238 3351 2192 3329 3267
8 1379 1301 1237 228 3408 3330 3266 2257
8 385 1302 1436 1493 2414 3331 3465 3522
8 2027 2009 1439 2026 4056 4038 3468 4055
8 1604 212 1555 1979 3633 2241 3584 4008
8 1324 1320 1260 153 3353 3349 3289 2182
8 1791 1328 1744 1307 3820 3357 3773 3336
8 1770 1336 1736 1309 3799 3365 3765 3338
8 420 1770 1309 1192 2449 3799 3338 3221
8 1222 243 1692 1869 3251 2272 3721 3898
8 1807 1311 1769 1197 3836 3340 3798 3226
8 1832 1358 358 1312 3861 3387 2387 3341
8 1832 1357 1351 367 3861 3386 3380 2396
8 1401 356 1313 2023 3430 2385 3342 4052
8 1139 1209 190 1314 3168 3238 2219 3343
8 1891 1393 1847 1316 3920 3422 3876 3345
8 1605 260 1793 1394 3634 2289 3822 3423
8 1936 238 1318 1924 3965 2267 3347 3953
8 1354 1924 1318 1352 3383 3953 3347 3381
8 1353 1945 1355 1319 3382 3974 3384 3348
8 1361 391 1236 1321 3390 2420 3265 3350
8 1417 228 1323 1362 3446 2257 3352 3391
8 1171 381 1306 1772 3200 2410 3335 3801
8 224 1788 1327 1367 2253 3817 3356 3396
8 223 1861 1327 1432 2252 3890 3356 3461
8 1168 141 1307 1744 3197 2170 3336 3773
8 1744 1328 1322 1264 3773 3357 3351 3293
8 1406 1996 2006 1329 3435 4025 4035 3358
8 1428 1368 1330 1480 3457 3397 3359 3509
8 1480 1330 1301 1379 3509 3359 3330 3408
8 1378 2004 2005 1331 3407 4033 4034 3360
8 1622 1225 1332 184 3651 3254 3361 2213
8 1405 1960 184 1332 3434 3989 2213 3361
8 1376 1481 1268 1298 3405 3510 3297 3327
8 1482 1333 1299 1377 3511 3362 3328 3406
8 401 1403 410 1334 2430 3432 2439 3363
8 1154 1859 1335 1905 3183 3888 3364 3934
8 196 1905 1335 1404 2225 3934 3364 3433
8 1370 1769 429 1269 3399 3798 2458 3298
8 1476 1579 1336 1770 3505 3608 3365 3799
8 1987 1415 1338 1389 4016 3444 3367 3418
8 1381 1528 1371 1339 3410 3557 3400 3368
8 172 1381 1339 1294 2201 3410 3368 3323
8 1382 1529 1372 1340 3411 3558 3401 3369
8 329 1385 1208 1341 2358 3414 3237 3370
8 1302 385 1344 1914 3331 2414 3373 3943
8 1456 1499 1556 1877 3485 3528 3585 3906
8 1383 1345 1303 1901 3412 3374 3332 3930
8 346 1942 1652 1851 2375 3971 3681 3880
8 1525 1611 1646 337 3554 3640 3675 2366
8 168 1651 1348 1645 2197 3680 3377 3674
8 1524 168 1645 169 3553 2197 3674 2198
8 1440 1373 1879 1452 3469 3402 3908 3481
8 1834 1833 1091 201 3863 3862 3120 2230
8 1350 1373 1929 1928 3379 3402 3958 3957
8 1878 178 1350 1920 3907 2207 3379 3949
8 1605 1394 1688 1352 3634 3423 3717 3381
8 1398 1393 1687 1353 3427 3422 3716 3382
8 237 1540 1487 1354 2266 3569 3516 3383
8 1573 330 1433 1488 3602 2359 3462 3517
8 1357 1832 1312 1206 3386 3861 3341 3235
8 1663 1358 1832 367 3692 3387 3861 2396
8 357 1587 1434 1489 2386 3616 3463 3518
8 244 1923 1957 1435 2273 3952 3986 3464
8 1957 1923 1359 1477 3986 3952 3388 3506
8 1376 175 1360 1418 3405 2204 3389 3447
8 1466 1360 1324 176 3495 3389 3353 2205
8 1465 1915 1361 1863 3494 3944 3390 3892
8 1868 1420 163 1363 3897 3449 2192 3392
8 1365 1941 1437 1932 3394 3970 3466 3961
8 1679 1366 1903 1412 3708 3395 3932 3441
8 1955 1902 1903 1366 3984 3931 3932 3395
8 2011 252 1368 1428 4040 2281 3397 3457
8 2005 2004 1427 185 4034 4033 3456 2214
8 1769 1370 1808 1197 3798 3399 3837 3226
8 1962 320 1372 1422 3991 2349 3401 3451
8 200 1440 1452 1908 2229 3469 3481 3937
8 376 1623 1374 1431 2405 3652 3403 3460
8 1623 1351 1256 1374 3652 3380 3285 3403
8 1263 247 1244 1375 3292 2276 3273 3404
8 198 1481 1376 1418 2227 3510 3405 3447
8 1943 1482 1377 392 3972 3511 3406 2421
8 1420 1917 2004 1378 3449 3946 4033 3407
8 1420 1378 1300 163 3449 3407 3329 2192
8 1417 1926 1379 228 3446 3955 3408 2257
8 1374 1395 1392 1431 3403 3424 3421 3460
8 1909 1447 1860 1380 3938 3476 3889 3409
8 1643 1456 1877 299 3672 3485 3906 2328
8 1384 1557 1498 1455 3413 3586 3527 3484
8 1450 1385 1445 338 3479 3414 3474 2367
8 1451 1386 1446 192 3480 3415 3475 2221
8 1895 1446 1386 1876 3924 3475 3415 3905
8 1387 410 1403 1462 3416 2439 3432 3491
8 1889 1224 410 1387 3918 3253 2439 3416
8 1414 1388 1423 1911 3443 3417 3452 3940
8 365 1424 1987 1389 2394 3453 4016 3418
8 1231 1391 340 1687 3260 3420 2369 3716
8 1395 377 1285 1392 3424 2406 3314 3421
8 1847 1393 1398 341 3876 3422 3427 2370
8 1390 1394 1793 1232 3419 3423 3822 3261
8 1187 1479 1518 1396 3216 3508 3547 3425
8 1516 1477 243 1397 3545 3506 2272 3426
8 321 1511 1949 1471 2350 3540 3978 3500
8 1399 1947 1948 1997 3428 3976 3977 4026
8 1895 1400 1512 1459 3924 3429 3541 3488
8 194 1400 193 1342 2223 3429 2222 3371
8 1975 1443 356 1401 4004 3472 2385 3430
8 1510 1463 196 1404 3539 3492 2225 3433
8 1406 252 253 1970 3435 2281 2282 3999
8 1885 1409 1442 195 3914 3438 3471 2224
8 1223 1994 1442 1409 3252 4023 3471 3438
8 1225 1622 1919 1410 3254 3651 3948 3439
8 1981 1973 216 1503 4010 4002 2245 3532
8 1598 1849 1414 1501 3627 3878 3443 3530
8 1538 188 1911 1423 3567 2217 3940 3452
8 373 1338 1415 1500 2402 3367 3444 3529
8 1415 1987 1424 374 3444 4016 3453 2403
8 1857 1856 1476 1502 3886 3885 3505 3531
8 1387 1462 411 1416 3416 3491 2440 3445
8 1379 1926 229 1480 3408 3955 2258 3509
8 392 1377 391 1419 2421 3406 2420 3448
8 1465 2003 1520 1915 3494 4032 3549 3944
8 1564 1874 195 1531 3593 3903 2224 3560
8 1371 1528 1874 1421 3400 3557 3903 3450
8 1591 2009 2027 2019 3620 4038 4056 4048
8 1422 1372 1529 1961 3451 3401 3558 3990
8 1484 1549 1538 1423 3513 3578 3567 3452
8 1649 1560 375 2002 3678 3589 2404 4031
8 1659 1588 1425 1601 3688 3617 3454 3630
8 1601 1425 1481 198 3630 3454 3510 2227
8 1494 1544 402 1545 3523 3573 2431 3574
8 1369 1482 1943 1426 3398 3511 3972 3455
8 1405 185 1427 1468 3434 2214 3456 3497
8 186 1602 1589 1427 2215 3631 3618 3456
8 1428 1969 1590 2011 3457 3998 3619 4040
8 229 1969 1428 1480 2258 3998 3457 3509
8 1963 1540 237 1553 3992 3569 2266 3582
8 2015 1609 1552 1995 4044 3638 3581 4024
8 1485 1430 1391 349 3514 3459 3420 2378
8 1392 1860 1447 1431 3421 3889 3476 3460
8 223 1517 222 1479 2252 3546 2251 3508
8 1924 1354 1973 1936 3953 3383 4002 3965
8 1459 216 1487 1572 3488 2245 3516 3601
8 1434 1490 1204 358 3463 3519 3233 2387
8 1435 1977 1491 244 3464 4006 3520 2273
8 393 1648 1636 1664 2422 3677 3665 3693
8 214 1486 1437 1543 2243 3515 3466 3572
8 2009 1591 1565 298 4038 3620 3594 2327
8 298 1565 2008 2007 2327 3594 4037 4036
8 1411 274 1441 1988 3440 2303 3470 4017
8 1563 1531 195 1442 3592 3560 2224 3471
8 219 1563 1442 1463 2248 3592 3471 3492
8 348 1567 1443 1533 2377 3596 3472 3562
8 347 1533 1443 1975 2376 3562 3472 4004
8 1543 213 1497 1444 3572 2242 3526 3473
8 1534 1444 1402 191 3563 3473 3431 2220
8 1488 339 1536 1573 3517 2368 3565 3602
8 1460 1445 1385 329 3489 3474 3414 2358
8 1446 1895 1459 1572 3475 3924 3488 3601
8 1875 1207 193 1876 3904 3236 2222 3905
8 1523 1596 2017 375 3552 3625 4046 2404
8 1611 1525 1561 1526 3640 3554 3590 3555
8 1527 1865 1897 1562 3556 3894 3926 3591
8 1879 1349 1884 1452 3908 3378 3913 3481
8 1885 1528 1381 1453 3914 3557 3410 3482
8 297 1529 1382 1454 2326 3558 3411 3483
8 1454 1411 1988 297 3483 3440 4017 2326
8 298 2007 1629 1495 2327 4036 3658 3524
8 1978 1518 1479 222 4007 3547 3508 2251
8 1921 1458 1432 246 3950 3487 3461 2275
8 1981 1503 1512 1950 4010 3532 3541 3979
8 1475 240 1219 1578 3504 2269 3248 3607
8 1996 1461 1441 274 4025 3490 3470 2303
8 1509 1468 2013 208 3538 3497 4042 2237
8 187 1522 1464 1505 2216 3551 3493 3534
8 1506 1465 1863 382 3535 3494 3892 2411
8 199 1519 1466 1507 2228 3548 3495 3536
8 1940 1521 1467 1508 3969 3550 3496 3537
8 1870 1467 1362 206 3899 3496 3391 2235
8 1589 1627 208 2013 3618 3656 2237 4042
8 1600 1545 402 1632 3629 3574 2431 3661
8 401 1469 1462 1403 2430 3498 3491 3432
8 220 1976 1470 1588 2249 4005 3499 3617
8 1961 1565 1591 1422 3990 3594 3620 3451
8 320 1962 1471 1949 2349 3991 3500 3978
8 1874 1564 1592 1421 3903 3593 3621 3450
8 412 1953 1984 1983 2441 3982 4013 4012
8 1857 1502 1416 411 3886 3531 3445 2440
8 219 1474 1515 1563 2248 3503 3544 3592
8 1476 1856 1407 1579 3505 3885 3436 3608
8 1692 243 1477 1359 3721 2272 3506 3388
8 1956 1625 1514 1576 3985 3654 3543 3605
8 1530 1614 222 1517 3559 3643 2251 3546
8 1861 223 1479 1187 3890 2252 3508 3216
8 1583 229 1926 1938 3612 2258 3955 3967
8 1551 1693 1621 1483 3580 3722 3650 3512
8 349 1490 1613 1485 2378 3519 3642 3514
8 1963 215 1487 1540 3992 2244 3516 3569
8 1488 2022 1539 339 3517 4051 3568 2368
8 366 1931 1663 1894 2395 3960 3692 3923
8 1491 1614 1530 245 3520 3643 3559 2274
8 1957 1477 221 1492 3986 3506 2250 3521
8 384 1596 1909 1493 2413 3625 3938 3522
8 1493 1436 1664 384 3522 3465 3693 2413
8 1495 1439 2009 298 3524 3468 4038 2327
8 1507 1466 176 1496 3536 3495 2205 3525
8 1630 199 1507 1585 3659 2228 3536 3614
8 2028 1693 1551 356 4057 3722 3580 2385
8 1620 1550 190 1497 3649 3579 2219 3526
8 1541 1498 1557 256 3570 3527 3586 2285
8 1979 1555 1304 234 4008 3584 3333 2263
8 1965 1558 1916 1500 3994 3587 3945 3529
8 1911 188 1501 1414 3940 2217 3530 3443
8 1502 420 1547 1416 3531 2449 3576 3445
8 2010 1593 1219 239 4039 3622 3248 2268
8 1594 1866 1188 1904 3623 3895 3217 3933
8 207 1508 1594 1504 2236 3537 3623 3533
8 1506 1916 1558 1964 3535 3945 3587 3993
8 1440 200 1959 1958 3469 2229 3988 3987
8 1970 1934 275 1461 3999 3963 2304 3490
8 1934 1653 1628 275 3963 3682 3657 2304
8 1940 1675 1656 1583 3969 3704 3685 3612
8 1612 1985 1513 1577 3641 4014 3542 3606
8 1991 219 1463 1510 4020 2248 3492 3539
8 1399 1997 2020 1998 3428 4026 4049 4027
8 2021 1511 321 1679 4050 3540 2350 3708
8 1503 216 1459 1512 3532 2245 3488 3541
8 402 1612 1577 1644 2431 3641 3606 3673
8 1474 1624 1933 241 3503 3653 3962 2270
8 1933 1514 1625 1212 3962 3543 3654 3241
8 1659 221 1477 1516 3688 2250 3506 3545
8 1595 1959 200 1978 3624 3988 2229 4007
8 1915 1520 1582 1419 3944 3549 3611 3448
8 1582 1520 2003 383 3611 3549 4032 2412
8 1521 1940 1583 1938 3550 3969 3612 3967
8 1602 186 1522 1580 3631 2215 3551 3609
8 192 1865 1524 1451 2221 3894 3553 3480
8 1561 1525 1450 338 3590 3554 3479 2367
8 347 1975 1448 1526 2376 4004 3477 3555
8 1562 1896 1449 1527 3591 3925 3478 3556
8 1437 1941 213 1543 3466 3970 2242 3572
8 1874 1528 1885 195 3903 3557 3914 2224
8 1615 222 1614 1586 3644 2251 3643 3615
8 1343 245 1530 1862 3372 2274 3559 3891
8 2008 1565 1961 1532 4037 3594 3990 3561
8 1566 275 1584 1629 3595 2304 3613 3658
8 1609 1571 1536 339 3638 3600 3565 2368
8 1897 1535 215 1570 3926 3564 2244 3599
8 1568 1561 338 1571 3597 3590 2367 3600
8 2001 1965 374 1574 4030 3994 2403 3603
8 1894 1633 1560 1649 3923 3662 3589 3678
8 1501 188 1575 1559 3530 2217 3604 3588
8 212 1604 1986 1549 2241 3633 4015 3578
8 1609 339 1539 1552 3638 2368 3568 3581
8 1570 215 1963 1610 3599 2244 3992 3639
8 1617 1640 1654 1542 3646 3669 3683 3571
8 1211 403 1544 1954 3240 2432 3573 3983
8 1648 393 1545 1600 3677 2422 3574 3629
8 1826 1802 1797 1546 3855 3831 3826 3575
8 1424 1483 366 1548 3453 3512 2395 3577
8 1484 1912 212 1549 3513 3941 2241 3578
8 1913 1912 1550 1620 3942 3941 3579 3649
8 1931 366 1483 1621 3960 2395 3512 3650
8 1391 1430 1552 340 3420 3459 3581 2369
8 1688 1429 1553 237 3717 3458 3582 2266
8 234 1455 1554 1979 2263 3484 3583 4008
8 1913 1438 1304 1555 3942 3467 3333 3584
8 1825 256 1557 1098 3854 2285 3586 3127
8 1574 2017 1618 2001 3603 4046 3647 4030
8 1918 1619 1559 1575 3947 3648 3588 3604
8 2015 1533 347 1568 4044 3562 2376 3597
8 1980 1534 191 1569 4009 3563 2220 3598
8 217 1472 1421 1592 2246 3501 3450 3621
8 1531 218 1686 1564 3560 2247 3715 3593
8 1422 1591 2019 1962 3451 3620 4048 3991
8 1629 2007 2008 1566 3658 4036 4037 3595
8 1567 1587 357 2028 3596 3616 2386 4057
8 1963 1553 214 1610 3992 3582 2243 3639
8 1865 192 1535 1897 3894 2221 3564 3926
8 1562 1897 1570 1569 3591 3926 3599 3598
8 1460 1998 330 1573 3489 4027 2359 3602
8 1972 1619 1918 1634 4001 3648 3947 3663
8 1510 1976 220 1576 3539 4005 2249 3605
8 1624 1991 1510 1576 3653 4020 3539 3605
8 1857 411 1644 1577 3886 2440 3673 3606
8 1982 1592 1564 1686 4011 3621 3593 3715
8 1579 1808 1370 1336 3608 3837 3399 3365
8 1972 1635 187 1619 4001 3664 2216 3648
8 1647 1581 1631 1597 3676 3610 3660 3626
8 230 1669 2025 1642 2259 3698 4054 3671
8 1542 276 1628 1617 3571 2305 3657 3646
8 1440 1958 1585 1930 3469 3987 3614 3959
8 1978 222 1615 1595 4007 2251 3644 3624
8 1615 1586 1974 1631 3644 3615 4003 3660
8 1567 348 1613 1587 3596 2377 3642 3616
8 1602 2016 1627 1589 3631 4045 3656 3618
8 1641 253 1590 2024 3670 2282 3619 4053
8 1590 1969 1603 2012 3619 3998 3632 4041
8 1593 2010 1951 217 3622 4039 3980 2246
8 1982 1578 1219 1593 4011 3607 3248 3622
8 1594 1904 1622 1504 3623 3933 3651 3533
8 1380 385 1493 1909 3409 2414 3522 3938
8 1647 1597 1492 221 3676 3626 3521 2250
8 1631 1974 1492 1597 3660 4003 3521 3626
8 1916 1599 373 1500 3945 3628 2402 3529
8 373 1599 1818 1883 2402 3628 3847 3912
8 1426 1943 1582 2014 3455 3972 3611 4043
8 221 1659 1601 1647 2250 3688 3630 3676
8 1603 1583 1656 1669 3632 3612 3685 3698
8 1865 1527 168 1524 3894 3556 2197 3553
8 402 1544 403 1612 2431 3573 2432 3641
8 348 1995 1485 1613 2377 4024 3514 3642
8 233 1967 1658 1638 2262 3996 3687 3667
8 1999 1658 1967 1662 4028 3687 3996 3691
8 2014 1582 383 2018 4043 3611 2412 4047
8 210 2000 1635 1972 2239 4029 3664 4001
8 1489 1931 1621 357 3518 3960 3650 2386
8 219 1991 1624 1474 2248 4020 3653 3503
8 1956 1478 242 1625 3985 3507 2271 3654
8 1637 1641 1655 254 3666 3670 3684 2283
8 1694 1626 2012 230 3723 3655 4041 2259
8 1627 2025 1993 208 3656 4054 4022 2237
8 276 1584 275 1628 2305 3613 2304 3657
8 1600 1632 1939 1966 3629 3661 3968 3995
8 1644 1469 1632 402 3673 3498 3661 2431
8 1894 1663 367 1633 3923 3692 2396 3662
8 1894 1649 1548 366 3923 3678 3577 2395
8 2002 375 2017 1574 4031 2404 4046 3603
8 210 1999 1662 1968 2239 4028 3691 3997
8 1575 211 1634 1918 3604 2240 3663 3947
8 2016 1602 1580 1650 4045 3631 3609 3679
8 1999 210 1972 1634 4028 2239 4001 3663
8 1648 2018 383 1636 3677 4047 2412 3665
8 1664 1636 1618 384 3693 3665 3647 2413
8 1934 1970 253 1653 3963 3999 2282 3682
8 1638 1986 1554 233 3667 4015 3583 2262
8 1999 1634 211 1658 4028 3663 2240 3687
8 1935 232 1639 1660 3964 2261 3668 3689
8 1673 1925 1937 1882 3702 3954 3966 3911
8 1639 255 1661 1660 3668 2284 3690 3689
8 1640 254 1672 1661 3669 2283 3701 3690
8 1626 1655 1641 2024 3655 3684 3670 4053
8 1669 1656 1993 2025 3698 3685 4022 4054
8 1901 1495 1643 299 3930 3524 3672 2328
8 1749 1348 1651 1290 3778 3377 3680 3319
8 1774 1289 1347 1820 3803 3318 3376 3849
8 346 1851 1646 1611 2375 3880 3675 3640
8 1600 2014 2018 1648 3629 4043 4047 3677
8 2002 1537 1548 1649 4031 3566 3577 3678
8 209 2016 1650 1670 2238 4045 3679 3699
8 1580 1635 2000 1650 3609 3664 4029 3679
8 1016 905 145 1666 3045 2934 2174 3695
8 1104 1015 345 1667 3133 3044 2374 3696
8 1661 255 1654 1640 3690 2284 3683 3669
8 1971 231 1694 1657 4000 2260 3723 3686
8 207 1509 208 1675 2236 3538 2237 3704
8 1642 2025 1627 1657 3671 4054 3656 3686
8 1968 1671 2000 210 3997 3700 4029 2239
8 231 1672 254 1655 2260 3701 2283 3684
8 1968 1662 1616 232 3997 3691 3645 2261
8 1541 1616 1662 1967 3570 3645 3691 3996
8 232 1935 1671 1968 2261 3964 3700 3997
8 1971 1665 1672 231 4000 3694 3701 2260
8 1216 1105 1666 1805 3245 3134 3695 3834
8 278 1782 1676 1270 2307 3811 3705 3299
8 230 2012 1603 1669 2259 4041 3632 3698
8 1671 1670 1650 2000 3700 3699 3679 4029
8 1670 1671 1935 1677 3699 3700 3964 3706
8 1925 1678 1843 1937 3954 3707 3872 3966
8 1665 1971 1674 1677 3694 4000 3703 3706
8 1676 1843 1798 1270 3705 3872 3827 3299
8 1508 207 1675 1940 3537 2236 3704 3969
8 1882 1812 1668 1673 3911 3841 3697 3702
8 1673 255 1639 1925 3702 2284 3668 3954
8 330 2021 1679 1433 2359 4050 3708 3462
8 113 567 566 1683 2142 2596 2595 3712
8 1741 1033 268 1685 3770 3062 2297 3714
8 1982 1686 1475 1578 4011 3715 3504 3607
8 1878 1920 1689 1002 3907 3949 3718 3031
8 306 602 100 514 2335 2631 2129 2543
8 1705 1075 334 1691 3734 3104 2363 3720
8 619 551 1695 1696 2648 2580 3724 3725
8 645 589 1697 1698 2674 2618 3726 3727
8 109 524 1701 1700 2138 2553 3730 3729
8 1709 1702 748 352 3738 3731 2777 2381
8 1704 1703 1165 343 3733 3732 3194 2372
8 1723 1722 711 440 3752 3751 2740 2469
8 787 1731 877 1742 2816 3760 2906 3771
8 987 179 1767 868 3016 2208 3796 2897
8 1119 387 1735 1771 3148 2416 3764 3800
8 1788 224 1037 1739 3817 2253 3066 3768
8 1741 1740 1724 783 3770 3769 3753 2812
8 1740 1741 1685 1784 3769 3770 3714 3813
8 1779 1799 1745 1746 3808 3828 3774 3775
8 1746 1745 965 951 3775 3774 2994 2980
8 914 148 861 1766 2943 2177 2890 3795
8 1750 1749 995 146 3779 3778 3024 2175
8 1036 1097 281 1753 3065 3126 2310 3782
8 1787 888 1755 202 3816 2917 3784 2231
8 1760 866 426 1757 3789 2895 2455 3786
8 264 920 1730 1759 2293 2949 3759 3788
8 1839 1194 1786 1838 3868 3223 3815 3867
8 1801 942 1760 1794 3830 2971 3789 3823
8 1062 982 1763 1764 3091 3011 3792 3793
8 1764 1763 927 430 3793 3792 2956 2459
8 151 833 726 1789 2180 2862 2755 3818
8 1831 265 879 1768 3860 2294 2908 3797
8 1820 345 1773 1774 3849 2374 3802 3803
8 1776 1775 994 336 3805 3804 3023 2365
8 1821 1347 1289 1775 3850 3376 3318 3804
8 855 1777 1822 862 2884 3806 3851 2891
8 1196 1822 1777 1778 3225 3851 3806 3807
8 1746 143 1780 1779 3775 2172 3809 3808
8 1253 1799 1779 1780 3282 3828 3808 3809
8 1317 1097 1036 259 3346 3126 3065 2288
8 1825 1098 1781 1798 3854 3127 3810 3827
8 1786 1785 1742 877 3815 3814 3771 2906
8 1788 1739 1137 1263 3817 3768 3166 3292
8 1598 164 1791 1836 3627 2193 3820 3865
8 418 1801 1794 1830 2447 3830 3823 3859
8 1787 202 1091 1833 3816 2231 3120 3862
8 1849 165 1802 1826 3878 2194 3831 3855
8 1047 1853 154 1806 3076 3882 2183 3835
8 421 1855 1197 1808 2450 3884 3226 3837
8 1810 1809 1243 386 3839 3838 3272 2415
8 1380 1860 1809 1810 3409 3889 3838 3839
8 1814 1813 1027 945 3843 3842 3056 2974
8 1599 382 1817 1818 3628 2411 3846 3847
8 1818 1817 1772 1306 3847 3846 3801 3335
8 1646 1851 1347 1821 3675 3880 3376 3850
8 1824 1823 318 1887 3853 3852 2347 3916
8 1798 1843 1678 1825 3827 3872 3707 3854
8 1849 1826 1546 1414 3878 3855 3575 3443
8 1022 1828 1859 1154 3051 3857 3888 3183
8 1840 1828 1200 174 3869 3857 3229 2203
8 1830 1184 1148 418 3859 3213 3177 2447
8 1146 1871 265 1831 3175 3900 2294 3860
8 1884 1349 1834 201 3913 3378 3863 2230
8 178 1878 1111 1835 2207 3907 3140 3864
8 1879 178 1835 1349 3908 2207 3864 3378
8 1791 1307 1189 1836 3820 3336 3218 3865
8 1051 1838 1786 877 3080 3867 3815 2906
8 1838 1873 1152 1839 3867 3902 3181 3868
8 1594 1870 1841 1866 3623 3899 3870 3895
8 1866 1841 1000 1188 3895 3870 3029 3217
8 1837 264 1061 1846 3866 2293 3090 3875
8 1838 1051 266 1873 3867 3080 2295 3902
8 1869 1692 1839 1152 3898 3721 3868 3181
8 167 1844 1886 1209 2196 3873 3915 3238
8 191 1402 1886 1864 2220 3431 3915 3893
8 1852 1848 933 327 3881 3877 2962 2356
8 1184 1889 1271 1148 3213 3918 3300 3177
8 1577 1907 1856 1857 3606 3936 3885 3886
8 1449 1896 191 1864 3478 3925 2220 3893
8 1867 160 1179 1142 3896 2189 3208 3171
8 1917 1420 1868 186 3946 3449 3897 2215
8 242 1922 1146 1872 2271 3951 3175 3901
8 1556 300 1383 1877 3585 2329 3412 3906
8 1899 1880 1824 1887 3928 3909 3853 3916
8 1616 1541 256 1881 3645 3570 2285 3910
8 1937 1843 1676 1882 3966 3872 3705 3911
8 1089 1286 373 1883 3118 3315 2402 3912
8 1457 1908 1452 1884 3486 3937 3481 3913
8 1130 262 958 1892 3159 2291 2987 3921
8 1880 1899 1900 296 3909 3928 3929 2325
8 1157 1992 1028 1898 3186 4021 3057 3927
8 1903 1902 1283 322 3932 3931 3312 2351
8 1439 1303 1902 1955 3468 3332 3931 3984
8 196 1994 1223 1905 2225 4023 3252 3934
8 1953 412 1221 1906 3982 2441 3250 3935
8 1108 160 1890 1858 3137 2189 3919 3887
8 1555 212 1912 1913 3584 2241 3941 3942
8 1185 1409 1885 1453 3214 3438 3914 3482
8 246 1854 1356 1921 2275 3883 3385 3950
8 1930 1496 177 1929 3959 3525 2206 3958
8 177 1496 1186 1090 2206 3525 3215 3119
8 1926 1417 1521 1938 3955 3446 3550 3967
8 1973 1981 1413 1936 4002 4010 3442 3965
8 1966 1939 1369 1426 3995 3968 3398 3455
8 1910 1280 1948 1947 3939 3309 3977 3976
8 1949 1948 1280 320 3978 3977 3309 2349
8 1948 1949 1511 1997 3977 3978 3540 4026
8 1951 1950 1472 217 3980 3979 3501 2246
8 1413 1981 1950 1951 3442 4010 3979 3980
8 1630 1585 1958 1959 3659 3614 3987 3988
8 1964 2003 1465 1506 3993 4032 3494 3535
8 383 2003 1964 1558 2412 4032 3993 3587
8 1618 1558 1965 2001 3647 3587 3994 4030
8 1610 214 1534 1980 3639 2243 3563 4009
8 1989 1213 1983 1990 4018 3242 4012 4019
8 1985 1984 1953 1513 4014 4013 3982 3542
8 1990 1985 1612 403 4019 4014 3641 2432
8 1990 403 1145 1989 4019 2432 3174 4018
8 1397 1478 1956 1516 3426 3507 3985 3545
8 1618 2017 1596 384 3647 4046 3625 2413
8 1532 1441 1566 2008 3561 3470 3595 4037
8 1626 2024 1590 2012 3655 4053 3619 4041
8 1995 348 1533 2015 4024 2377 3562 4044
8 2021 2020 1997 1511 4050 4049 4026 3540
8 1488 1433 1355 2022 3517 3462 3384 4051
8 1946 2023 1138 355 3975 4052 3167 2384
8 1679 321 2026 1366 3708 2350 4055 3395
8 2026 321 1471 2027 4055 2350 3500 4056
8 2060 2558 2559 2471 4089 4587 4588 4500
8 2558 2557 2560 2559 4587 4586 4589 4588
8 2821 2163 2742 2784 4850 4192 4771 4813
8 2801 2764 2725 2162 4830 4793 4754 4191
8 3015 2184 3076 3835 5044 4213 5105 5864
8 3072 2856 2920 2998 5101 4885 4949 5027
8 2182 3289 3199 3824 4211 5318 5228 5853
8 3105 2158 3151 3019 5134 4187 5180 5048
8 2157 2928 3818 2755 4186 4957 5847 4784
8 2899 2179 2795 2862 4928 4208 4824 4891
8 2154 3130 3037 2969 4183 5159 5066 4998
8 2943 2785 2727 2154 4972 4814 4756 4183
8 2175 3024 2152 3007 4204 5053 4181 5036
8 2173 2805 2874 2934 4202 4834 4903 4963
8 2805 2768 2728 2150 4834 4797 4757 4179
8 3774 3069 3754 2994 5803 5098 5783 5023
8 3068 2854 2918 2995 5097 4883 4947 5024
8 2147 3068 2170 3197 4176 5097 4199 5226
8 2146 3154 3017 3107 4175 5183 5046 5136
8 2168 2861 2754 2927 4197 4890 4783 4956
8 2754 2861 2167 2793 4783 4890 4196 4822
8 2909 2984 2968 2838 4938 5013 4997 4867
8 2722 2141 2730 2787 4751 4170 4759 4816
8 2164 2561 2599 2722 4193 4590 4628 4751
8 2561 2661 2064 2490 4590 4690 4093 4519
8 2661 2562 2065 2064 4690 4591 4094 4093
8 2562 2563 2491 2065 4591 4592 4520 4094
8 2919 2210 3743 2996 4948 4239 5772 5025
8 2492 2067 2564 2565 4521 4096 4593 4594
8 2566 2567 2493 2069 4595 4596 4522 4098
8 2255 3108 2664 2567 4284 5137 4693 4596
8 2664 2568 2494 2070 4693 4597 4523 4099
8 2278 2732 2665 2568 4307 4761 4694 4597
8 2753 2859 2301 2792 4782 4888 4330 4821
8 3956 3164 3370 3237 5985 5193 5399 5266
8 3565 3474 3489 3602 5594 5503 5518 5631
8 3974 2369 3581 3568 6003 4398 5610 5597
8 3260 2379 3101 3190 5289 4408 5130 5219
8 2759 2807 2959 2389 4788 4836 4988 4418
8 3749 2770 2706 2399 5778 4799 4735 4428
8 2961 3188 2408 3040 4990 5217 4437 5069
8 3188 2809 2879 2408 5217 4838 4908 4437
8 3749 2399 2879 2809 5778 4428 4908 4838
8 2390 2523 2107 2706 4419 4552 4136 4735
8 2777 2522 2106 2569 4806 4551 4135 4598
8 2104 2105 3731 3732 4133 4134 5760 5761
8 2104 3732 3733 2521 4133 5761 5762 4550
8 2103 3734 3720 2520 4132 5763 5749 4549
8 2102 2570 2354 2519 4131 4599 4383 4548
8 2749 3737 2750 2723 4778 5766 4779 4752
8 2761 2750 2819 2309 4790 4779 4848 4338
8 3123 3063 3034 2286 5152 5092 5063 4315
8 3375 3313 3160 3123 5404 5342 5189 5152
8 2242 3970 3467 3942 4271 5999 5496 5971
8 3941 3513 2218 3579 5970 5542 4247 5608
8 3343 3307 2195 3168 5372 5336 4224 5197
8 2966 3047 3135 2894 4995 5076 5164 4923
8 2936 3736 2728 2768 4965 5765 4757 4797
8 2643 2571 2030 2029 4672 4600 4059 4058
8 2162 2572 2571 2821 4191 4601 4600 4850
8 2472 2030 2571 2572 4501 4059 4600 4601
8 2573 2574 2473 2032 4602 4603 4502 4061
8 2160 2645 2574 3635 4189 4674 4603 5664
8 2645 2575 2034 2033 4674 4604 4063 4062
8 2159 2576 2575 2830 4188 4605 4604 4859
8 2474 2034 2575 2576 4503 4063 4604 4605
8 2577 2578 2475 2036 4606 4607 4504 4065
8 2157 2647 2578 3105 4186 4676 4607 5134
8 2037 2647 2579 2476 4066 4676 4608 4505
8 2726 2156 2580 2648 4755 4185 4609 4677
8 3724 2580 2933 2639 5753 4609 4962 4668
8 2649 2581 2041 2040 4678 4610 4070 4069
8 2581 2582 2478 2041 4610 4611 4507 4070
8 2154 2727 2650 2582 4183 4756 4679 4611
8 2153 2583 2650 2727 4182 4612 4679 4756
8 3756 2882 2938 2153 5785 4911 4967 4182
8 2584 2652 2045 2480 4613 4681 4074 4509
8 3283 3117 2152 3024 5312 5146 4181 5053
8 2652 2585 2046 2045 4681 4614 4075 4074
8 3111 2874 2939 2151 5140 4903 4968 4180
8 2481 2046 2585 2586 4510 4075 4614 4615
8 2587 2588 2482 2048 4616 4617 4511 4077
8 2149 3636 2654 2588 4178 5665 4683 4617
8 2654 2589 2050 2049 4683 4618 4079 4078
8 2148 2828 2590 2589 4177 4857 4619 4618
8 2483 2050 2589 2590 4512 4079 4618 4619
8 2591 2592 2484 2052 4620 4621 4513 4081
8 3107 2656 2592 2146 5136 4685 4621 4175
8 2656 2593 2485 2053 4685 4622 4514 4082
8 2145 2729 2657 2593 4174 4758 4686 4622
8 2144 2594 2657 2729 4173 4623 4686 4758
8 2144 2926 2637 2594 4173 4955 4666 4623
8 2658 2595 2057 2056 4687 4624 4086 4085
8 2595 2596 2487 2057 4624 4625 4516 4086
8 2730 2659 2596 2142 4759 4688 4625 4171
8 2141 2597 2659 2730 4170 4626 4688 4759
8 2598 2660 2062 2489 4627 4689 4091 4518
8 2488 2059 2597 2598 4517 4088 4626 4627
8 2490 2063 2599 2561 4519 4092 4628 4590
8 2665 2600 2072 2071 4694 4629 4101 4100
8 2495 2072 2600 2601 4524 4101 4629 4630
8 2323 3002 2970 3131 4352 5031 4999 5160
8 3851 3225 3043 2891 5880 5254 5072 4920
8 3479 3269 3237 3414 5508 5298 5266 5443
8 3638 4044 3597 3600 5667 6073 5626 5629
8 3463 3616 3642 3519 5492 5645 5671 5548
8 3341 3158 2388 3235 5370 5187 4417 5264
8 2407 3189 3196 3109 4436 5218 5225 5138
8 3040 2417 2942 2961 5069 4446 4971 4990
8 2942 2417 2880 2818 4971 4446 4909 4847
8 2408 2525 2109 3040 4437 4554 4138 5069
8 2300 2923 2601 2600 4329 4952 4630 4629
8 2666 2602 2074 2073 4695 4631 4103 4102
8 2496 2074 2602 2603 4525 4103 4631 4632
8 2355 2604 2667 2733 4384 4633 4696 4762
8 3780 2883 2940 2355 5809 4912 4969 4384
8 2605 2669 2078 2498 4634 4698 4107 4527
8 3284 3116 2364 3023 5313 5145 4393 5052
8 2669 2606 2079 2078 4698 4635 4108 4107
8 3110 2875 2941 2373 5139 4904 4970 4402
8 2806 2769 2734 2382 4835 4798 4763 4411
8 3060 2392 3136 3139 5089 4421 5165 5168
8 2403 3994 3529 3444 4432 6023 5558 5473
8 3587 3647 3665 2412 5616 5676 5694 4441
8 3981 2423 3523 3393 6010 4452 5552 5422
8 2982 3082 3174 2433 5011 5111 5203 4462
8 2813 2839 2948 2443 4842 4868 4977 4472
8 2688 2715 2772 2453 4717 4744 4801 4482
8 2688 2530 2115 2461 4717 4559 4144 4490
8 2453 2114 2530 2688 4482 4143 4559 4717
8 2687 2529 2114 2453 4716 4558 4143 4482
8 2444 2113 2529 2687 4473 4142 4558 4716
8 2774 2744 2629 2444 4803 4773 4658 4473
8 2433 2976 2834 2907 4462 5005 4863 4936
8 3163 2424 3173 3311 5192 4453 5202 5340
8 3476 3938 3625 3552 5505 5967 5654 5581
8 3577 3566 2403 3453 5606 5595 4432 5482
8 3046 3167 3308 2393 5075 5196 5337 4422
8 3133 3975 2384 2965 5162 6004 4413 4994
8 2365 3023 2364 3006 4394 5052 4393 5035
8 2935 2806 2875 3802 4964 4835 4904 5831
8 2499 2079 2606 2607 4528 4108 4635 4636
8 2382 2734 2670 2607 4411 4763 4699 4636
8 2391 3746 2937 2979 4420 5775 4966 5008
8 3335 3871 3912 3847 5364 5900 5941 5876
8 3448 2420 3390 3944 5477 4449 5419 5973
8 3455 4043 3629 3995 5484 6072 5658 6024
8 3935 3502 3542 3982 5964 5531 5571 6011
8 3009 3089 3973 2442 5038 5118 6002 4471
8 2811 2849 2950 2452 4840 4878 4979 4481
8 3709 2713 2762 2461 5738 4742 4791 4490
8 2470 3709 2531 2116 4499 5738 4560 4145
8 2461 2115 2531 3709 4490 4144 4560 5738
8 2608 2609 2500 2081 4637 4638 4529 4110
8 3001 3776 2400 3637 5030 5805 4429 5666
8 2501 2083 2610 2611 4530 4112 4639 4640
8 2612 2613 2502 2085 4641 4642 4531 4114
8 3106 2673 2613 2418 5135 4702 4642 4447
8 2673 2614 2503 2086 4702 4643 4532 4115
8 2427 2735 2674 3740 4456 4764 4703 5769
8 2929 2863 2437 2756 4958 4892 4466 4785
8 3823 3789 3786 3048 5852 5818 5815 5077
8 2916 3767 2465 2739 4945 5796 4494 4768
8 2615 2682 2826 2466 4644 4711 4855 4495
8 2615 2683 2098 2513 4644 4712 4127 4542
8 2466 3301 2683 2615 4495 5330 4712 4644
8 2515 2514 2616 2684 4544 4543 4645 4713
8 2617 2685 2516 2099 4646 4714 4545 4128
8 3752 2850 2956 2915 5781 4879 4985 4944
8 3011 2849 3075 3792 5040 4878 5104 5821
8 3091 3836 3144 2451 5120 5865 5173 4480
8 3144 3884 3250 3922 5173 5913 5279 5951
8 3884 2450 3935 3250 5913 4479 5964 5279
8 2448 3300 3445 3576 4477 5329 5474 5605
8 3172 3209 3054 2973 5201 5238 5083 5002
8 2087 3727 3726 2088 4116 5756 5755 4117
8 2618 2932 2619 3726 4647 4961 4648 5755
8 3008 2454 3711 3719 5037 4483 5740 5748
8 2796 2464 2738 3763 4825 4493 4767 5792
8 2681 2620 2739 2465 4710 4649 4768 4494
8 2620 2681 2512 2511 4649 4710 4541 4540
8 2675 2621 2090 2089 4704 4650 4119 4118
8 2505 2090 2621 2622 4534 4119 4650 4651
8 2462 2623 2676 2736 4491 4652 4705 4765
8 2624 2677 2094 2507 4653 4706 4123 4536
8 2506 2092 2623 2624 4535 4121 4652 4653
8 2625 2678 2509 2508 4654 4707 4538 4537
8 2625 3741 2824 2678 4654 5770 4853 4707
8 2824 2463 2679 2678 4853 4492 4708 4707
8 2765 3763 2738 2463 4794 5792 4767 4492
8 2952 2788 2736 2454 4981 4817 4765 4483
8 3719 3025 2967 3008 5748 5054 4996 5037
8 2454 2622 2621 3711 4483 4651 4650 5740
8 2096 2510 2626 2680 4125 4539 4655 4709
8 2468 2617 2684 3344 4497 4646 4713 5373
8 2627 2686 2517 2100 4656 4715 4546 4129
8 3751 2752 2470 2740 5780 4781 4499 4769
8 2469 2627 2685 2825 4498 4656 4714 4854
8 2517 2686 2721 2518 4546 4715 4750 4547
8 2629 2112 2113 2444 4658 4141 4142 4473
8 2435 2779 2747 2630 4464 4808 4776 4659
8 3079 2424 2905 2976 5108 4453 4934 5005
8 3839 3373 2414 3409 5868 5402 4443 5438
8 2405 3552 2404 3589 4434 5581 4433 5618
8 3453 2394 3580 3512 5482 4423 5609 5541
8 2365 3041 3246 3805 4394 5070 5275 5834
8 2940 2883 3006 2364 4969 4912 5035 4393
8 2497 2076 2604 2628 4526 4105 4633 4657
8 2112 2629 2435 2528 4141 4658 4464 4557
8 2528 2435 2630 2111 4557 4464 4659 4140
8 2416 3148 2415 3272 4445 5177 4444 5301
8 3285 2406 3424 3403 5314 4435 5453 5432
8 3960 3518 3387 3692 5989 5547 5416 5721
8 3596 4057 2385 3472 5625 6086 4414 5501
8 3640 3555 3477 2375 5669 5584 5506 4404
8 3780 2355 2733 2786 5809 4384 4762 4815
8 2346 2733 2667 2603 4375 4762 4696 4632
8 2111 2630 2426 2527 4140 4659 4455 4556
8 2426 3750 2818 2880 4455 5779 4847 4909
8 3764 2416 2961 2942 5793 4445 4990 4971
8 2397 3039 3109 3196 4426 5068 5138 5225
8 3233 3158 3341 2387 5262 5187 5370 4416
8 3555 3590 3597 2376 5584 5619 5626 4405
8 3131 2970 2944 2346 5160 4999 4973 4375
8 2117 2723 2332 2546 4146 4752 4361 4575
8 2132 2546 2332 2696 4161 4575 4361 4725
8 2333 2711 2800 2867 4362 4740 4829 4896
8 2845 2914 2287 2990 4874 4943 4316 5019
8 3961 2265 3193 3234 5990 4294 5222 5263
8 3431 3473 3526 2219 5460 5502 5555 4248
8 3238 3915 3431 2219 5267 5944 5460 4248
8 2196 3047 2966 3134 4225 5076 4995 5163
8 2696 2778 2545 2132 4725 4807 4574 4161
8 2333 2847 2815 2778 4362 4876 4844 4807
8 2847 3337 3219 3288 4876 5366 5248 5317
8 2265 3419 3261 3193 4294 5448 5290 5222
8 3458 3515 2243 3582 5487 5544 4272 5611
8 3925 3591 3598 2220 5954 5620 5627 4249
8 3834 2197 3556 3478 5863 4226 5585 5507
8 3779 2175 3042 3247 5808 4204 5071 5276
8 2815 2334 2544 2131 4844 4363 4573 4160
8 2543 2130 3103 2335 4572 4159 5132 4364
8 2335 3103 3161 2947 4364 5132 5190 4976
8 3147 3228 2312 3094 5176 5257 4341 5123
8 3259 3347 2267 3192 5288 5376 4296 5221
8 4002 3383 3516 2245 6031 5412 5545 4274
8 3601 3564 2221 3475 5630 5593 4250 5504
8 3833 3268 3415 3480 5862 5297 5444 5509
8 2799 2313 2760 2710 4828 4342 4789 4739
8 2844 2987 2291 2913 4873 5016 4320 4942
8 3192 2267 3263 3100 5221 4296 5292 5129
8 3263 3442 3980 4039 5292 5471 6009 6068
8 3905 2222 3429 3924 5934 4251 5458 5953
8 3840 3165 3236 2199 5869 5194 5265 4228
8 2176 3795 2890 2963 4205 5824 4919 4992
8 3756 2153 2727 2785 5785 4182 4756 4814
8 2542 2128 3735 2336 4571 4157 5764 4365
8 2314 2771 2716 2808 4343 4800 4745 4837
8 2292 2951 2848 3012 4321 4980 4877 5041
8 3178 3092 3248 2269 5207 5121 5277 4298
8 3159 3263 4039 2268 5188 5292 6068 4297
8 3429 2223 3450 3501 5458 4252 5479 5530
8 3143 3323 3368 2200 5172 5352 5397 4229
8 3323 3143 3087 3825 5352 5172 5116 5854
8 2177 2943 2154 2969 4206 4972 4183 4998
8 2127 2542 2336 2695 4156 4571 4365 4724
8 2695 2337 2541 2127 4724 4366 4570 4156
8 2694 2338 2540 2126 4723 4367 4569 4155
8 2693 2339 2539 2125 4722 4368 4568 4154
8 2692 2340 2538 2124 4721 4369 4567 4153
8 2691 2341 2537 2123 4720 4370 4566 4152
8 2690 2342 2536 2122 4719 4371 4565 4151
8 2689 2343 2120 2121 4718 4372 4149 4150
8 2763 2344 2707 2714 4792 4373 4736 4743
8 3710 2640 2712 2345 5739 4669 4741 4374
8 3728 2533 2118 3710 5757 4562 4147 5739
8 2345 2724 2632 2697 4374 4753 4661 4726
8 2871 3747 3761 2841 4900 5776 5790 4870
8 3461 3487 3546 2252 5490 5516 5575 4281
8 2228 3659 3644 3660 4257 5688 5673 5689
8 3610 2227 3447 3548 5639 4256 5476 5577
8 2203 3149 3264 3327 4232 5178 5293 5356
8 2156 2755 2862 2795 4185 4784 4891 4824
8 3051 2972 2179 2899 5080 5001 4208 4928
8 3214 2201 3210 3053 5243 4230 5239 5082
8 3785 2795 2179 2931 5814 4824 4208 4960
8 2632 2698 2549 2548 4661 4727 4578 4577
8 2322 3748 2699 2698 4351 5777 4728 4727
8 2892 3713 3320 3022 4921 5742 5349 5051
8 3356 3817 3292 3404 5385 5846 5321 5433
8 4007 3486 3425 3547 6036 5515 5454 5576
8 3402 3469 3959 3958 5431 5498 5988 5987
8 2182 3334 2205 3353 4211 5363 4234 5382
8 2928 3019 3095 3818 4957 5048 5124 5847
8 2181 3264 3149 3095 4210 5293 5178 5124
8 2699 2633 2550 2135 4728 4662 4579 4164
8 2299 3115 2700 2633 4328 5144 4729 4662
8 3321 3306 2277 3287 5350 5335 4306 5316
8 3120 3028 3890 3216 5149 5057 5919 5245
8 4007 2229 3937 3486 6036 4258 5966 5515
8 3824 3026 3334 2182 5853 5055 5363 4211
8 3302 3199 3289 3279 5331 5228 5318 5308
8 2204 3349 3353 3389 4233 5378 5382 5418
8 2634 2642 2552 2551 4663 4671 4581 4580
8 2253 2992 2853 3066 4282 5021 4882 5095
8 3864 3794 3863 3378 5893 5823 5892 5407
8 3882 3076 3718 3957 5911 5105 5747 5986
8 3119 3215 3334 3026 5148 5244 5363 5055
8 2140 2556 2635 2705 4169 4585 4664 4734
8 2186 2742 2705 2635 4215 4771 4734 4664
8 2636 2703 2555 2554 4665 4732 4584 4583
8 2209 2741 2704 2703 4238 4770 4733 4732
8 2802 2186 2741 2766 4831 4215 4770 4795
8 2955 2903 3796 3222 4984 4932 5825 5251
8 3958 2206 3882 3957 5987 4235 5911 5986
8 3907 2955 3222 3140 5936 4984 5251 5169
8 3077 3862 3863 3794 5106 5891 5892 5823
8 2993 2917 3077 3016 5022 4946 5106 5045
8 3729 2636 2554 2138 5758 4665 4583 4167
8 3067 2993 3016 2209 5096 5022 5045 4238
8 3745 2766 2741 2209 5774 4795 4770 4238
8 2486 2055 2594 2637 4515 4084 4623 4666
8 2592 2591 3305 2146 4621 4620 5334 4175
8 2653 2728 3736 2587 4682 4757 5765 4616
8 2479 2043 2583 2638 4508 4072 4612 4667
8 3279 2158 2577 3302 5308 4187 4606 5331
8 2644 2725 2161 2573 4673 4754 4190 4602
8 2804 2767 2731 2164 4833 4796 4760 4193
8 3137 3887 3281 3059 5166 5916 5310 5088
8 3651 2213 3989 3533 5680 4242 6018 5562
8 2237 4022 3685 3704 4266 6051 5714 5733
8 2260 3684 3655 3723 4289 5713 5684 5752
8 3528 3571 3683 2306 5557 5600 5712 4335
8 3739 2751 2820 2832 5768 4780 4849 4861
8 2723 2117 2737 2749 4752 4146 4766 4778
8 3145 3790 2968 3049 5174 5819 4997 5078
8 3843 2190 3212 3842 5872 4219 5241 5871
8 3295 2214 3434 3361 5324 4243 5463 5390
8 3703 3656 4045 2238 5732 5685 6074 4267
8 3706 3964 3689 3694 5735 5993 5718 5723
8 2284 3702 3697 3683 4313 5731 5726 5712
8 2957 2308 2833 2885 4986 4337 4862 4914
8 2696 2332 2761 2711 4725 4361 4790 4740
8 2860 2793 2167 2925 4889 4822 4196 4954
8 3842 3171 3819 3056 5871 5200 5848 5085
8 3295 3185 3055 2191 5324 5214 5084 4220
8 3456 4033 3946 2215 5485 6062 5975 4244
8 2238 3699 3706 3703 4267 5728 5735 5732
8 3527 3570 3996 2262 5556 5599 6025 4291
8 3810 3127 2286 3034 5839 5156 4315 5063
8 2985 3063 2287 2914 5014 5092 4316 4943
8 3231 2901 2861 2168 5260 4930 4890 4197
8 3407 3360 3844 3329 5436 5389 5873 5358
8 3664 3609 3551 2216 5693 5638 5580 4245
8 4015 3667 3687 2240 6044 5696 5716 4269
8 3484 2263 3375 3413 5513 4292 5404 5442
8 3063 3123 3160 2287 5092 5152 5189 4316
8 3107 3017 2927 2145 5136 5046 4956 4174
8 3097 2169 3267 3153 5126 4198 5296 5182
8 2193 3493 3897 3392 4222 5522 5926 5421
8 3534 3588 3648 2216 5563 5617 5677 4245
8 4015 3633 4008 3583 6044 5662 6037 5612
8 2264 3467 3970 3394 4293 5496 5999 5423
8 3773 3293 3278 3197 5802 5322 5307 5226
8 2192 3351 3357 3392 4221 5380 5386 5421
8 3878 3627 3865 2194 5907 5656 5894 4223
8 3513 3452 3417 2218 5542 5481 5446 4247
8 3942 3649 3526 2242 5971 5678 5555 4271
8 3218 3030 2995 3122 5247 5059 5024 5151
8 3826 2195 3307 3575 5855 4224 5336 5604
8 3417 3307 3343 2218 5446 5336 5372 4247
8 2854 3754 3069 2918 4883 5783 5098 4947
8 3809 2172 3135 3138 5838 4201 5164 5167
8 2936 2894 3135 2172 4965 4923 5164 4201
8 2920 3000 3015 3835 4949 5029 5044 5864
8 2764 2898 2161 2725 4793 4927 4190 4754
8 2802 2784 2742 2186 4831 4813 4771 4215
8 2978 2187 2731 2767 5007 4216 4760 4796
8 3029 2211 3121 3217 5058 4240 5150 5246
8 3550 3446 3391 3496 5579 5475 5420 5525
8 3612 3632 3998 2258 5641 5661 6027 4287
8 3682 3666 3646 3657 5711 5695 5675 5686
8 3858 3374 3412 2329 5887 5403 5441 4358
8 2330 2986 3085 3286 4359 5015 5114 5315
8 2737 2354 2758 2751 4766 4383 4787 4780
8 3208 2189 3137 3145 5237 4218 5166 5174
8 3842 3212 3896 3171 5871 5241 5925 5200
8 3055 3843 2974 2901 5084 5872 5003 4930
8 3844 3153 3267 3329 5873 5182 5296 5358
8 2193 3392 3357 3820 4222 5421 5386 5849
8 3218 3336 2170 3030 5247 5365 4199 5059
8 2171 3282 3317 3122 4200 5311 5346 5151
8 3319 3680 3695 2174 5348 5709 5724 4203
8 2198 3674 3779 3247 4227 5703 5808 5276
8 3247 3042 2963 3176 5276 5071 4992 5205
8 2969 3087 3143 2177 4998 5116 5172 4206
8 2972 2202 3214 3053 5001 4231 5243 5082
8 3499 3433 3364 2226 5528 5462 5393 4255
8 2296 3223 3339 3142 4325 5252 5368 5171
8 2319 3114 2835 3062 4348 5143 4864 5091
8 2773 2343 2689 2718 4802 4372 4718 4747
8 2343 2707 2535 2120 4372 4736 4564 4149
8 2321 2763 2714 2810 4350 4792 4743 4839
8 2763 2712 2640 2344 4792 4741 4669 4373
8 2344 2640 2534 2119 4373 4669 4563 4148
8 3297 2226 3364 3869 5326 4255 5393 5898
8 3183 3934 3252 2202 5212 5963 5281 4231
8 3297 3869 2203 3327 5326 5898 4232 5356
8 3548 3447 3389 3495 5577 5476 5418 5524
8 3536 3525 3959 3614 5565 5554 5988 5643
8 2207 3908 3402 3379 4236 5937 5431 5408
8 2210 2662 2563 3743 4239 4691 4592 5772
8 2997 2919 2996 3070 5026 4948 5025 5099
8 2919 2997 3071 2855 4948 5026 5100 4884
8 2235 3391 3352 3355 4264 5420 5381 5384
8 3359 3397 3358 3294 5388 5426 5387 5323
8 3672 3613 2305 3485 5701 5642 4334 5514
8 3312 3374 3858 3124 5341 5403 5887 5153
8 2798 2843 2911 2353 4827 4872 4940 4382
8 3104 2946 2869 2363 5133 4975 4898 4392
8 2372 3104 3734 3733 4401 5133 5763 5762
8 2211 3281 3316 3121 4240 5310 5345 5150
8 3651 3933 2212 3948 5680 5962 4241 5977
8 3254 3185 3295 3361 5283 5214 5324 5390
8 3360 4034 2214 3295 5389 6063 4243 5324
8 3493 3551 2215 3897 5522 5580 4244 5926
8 3627 3530 3588 3534 5656 5559 5617 5563
8 3915 3873 3245 3893 5944 5902 5274 5922
8 3833 3480 3553 2198 5862 5509 5582 4227
8 3268 2199 3236 3904 5297 4228 5265 5933
8 2223 3371 3165 3310 4252 5400 5194 5339
8 3450 2223 3310 3400 5479 4252 5339 5429
8 3410 2201 3214 3482 5439 4230 5243 5511
8 3492 3471 4023 2225 5521 5500 6052 4254
8 3962 3653 3605 3543 5991 5682 5634 5572
8 3902 3084 3898 3181 5931 5113 5927 5210
8 2776 2342 2690 2743 4805 4371 4719 4772
8 2776 2718 2689 2342 4805 4747 4718 4371
8 3545 2249 3617 3688 5574 4278 5646 5717
8 3617 3499 2226 3454 5646 5528 4255 5483
8 3630 2227 3610 3676 5659 4256 5639 5705
8 3660 3610 3548 2228 5689 5639 5577 4257
8 3624 3644 3659 3988 5653 5673 5688 6017
8 3486 3913 2230 3425 5515 5942 4259 5454
8 2992 3028 3120 2231 5021 5057 5149 4260
8 2231 3784 2853 2992 4260 5813 4882 5021
8 2553 2137 2701 3730 4582 4166 4730 5759
8 2233 2565 2564 2829 4262 4594 4593 4858
8 2919 2855 2829 2210 4948 4884 4858 4239
8 2233 3071 2234 3198 4262 5100 4263 5227
8 2256 3266 3155 3098 4285 5295 5184 5127
8 4025 2303 3255 4035 6054 4332 5284 6064
8 2304 3595 3470 3490 4333 5624 5499 5519
8 3930 3332 3468 3524 5959 5361 5497 5553
8 2989 3099 3157 2352 5018 5128 5186 4381
8 3227 2362 3093 3146 5256 4391 5122 5175
8 3162 2372 3194 3256 5191 4401 5223 5285
8 3731 3738 3194 3732 5760 5767 5223 5761
8 3538 2236 3533 3989 5567 4265 5562 6018
8 3989 3434 3497 3538 6018 5463 5526 5567
8 4042 3497 3456 3618 6071 5526 5485 5647
8 2240 3604 2217 3567 4269 5633 4246 5596
8 4015 2240 3567 3578 6044 4269 5596 5607
8 2243 3572 3473 3563 4272 5601 5502 5592
8 3639 4009 3598 3599 5668 6038 5627 5628
8 3516 2244 3564 3601 5545 4273 5593 5630
8 3979 3541 3429 3501 6008 5570 5458 5530
8 3622 2246 3621 4011 5651 4275 5650 6040
8 3544 2247 3560 3592 5573 4276 5589 5621
8 2269 3504 3544 3437 4298 5533 5573 5466
8 3654 2271 3901 3241 5683 4300 5930 5270
8 2295 2953 2846 3013 4324 4982 4875 5042
8 2781 2341 2691 2746 4810 4370 4720 4775
8 2781 2743 2690 2341 4810 4772 4719 4370
8 3499 4005 3539 3433 5528 6034 5568 5462
8 3339 3721 3388 3952 5368 5750 5417 5981
8 3464 3986 3521 4003 5493 6015 5550 6032
8 4006 3615 3643 3520 6035 5644 5672 5549
8 4003 3615 4006 3464 6032 5644 6035 5493
8 3891 3559 3546 3487 5920 5588 5575 5516
8 3883 2275 3404 3273 5912 4304 5433 5302
8 3768 3066 2254 3166 5797 5095 4283 5195
8 2663 2566 2069 2068 4692 4595 4098 4097
8 3304 3277 3156 2255 5333 5306 5185 4284
8 2256 3098 3018 3156 4285 5127 5047 5185
8 3232 3927 3057 2902 5261 5956 5086 4931
8 2303 3440 3211 3255 4332 5469 5240 5284
8 3558 2326 3561 3990 5587 4355 5590 6019
8 3325 3258 3191 2361 5354 5287 5220 4390
8 3125 3787 2380 3064 5154 5816 4409 5093
8 2797 2868 2381 2708 4826 4897 4410 4737
8 3899 2235 3355 3870 5928 4264 5384 5899
8 3686 3723 2259 3671 5715 5752 4288 5700
8 3656 3703 4000 3686 5685 5732 6029 5715
8 3645 3910 3668 2261 5674 5939 5697 4290
8 3583 3484 3527 2262 5612 5513 5556 4291
8 3234 2264 3394 3961 5263 4293 5423 5990
8 3515 3458 3419 2265 5544 5487 5448 4294
8 3717 2266 3383 3381 5746 4295 5412 5410
8 3965 3442 3263 2267 5994 5471 5292 4296
8 3544 3504 3715 2247 5573 5533 5744 4276
8 2270 3437 3544 3503 4299 5466 5573 5532
8 3437 2270 3180 3249 5466 4299 5209 5278
8 2908 3777 2837 3797 4937 5806 4866 5826
8 2783 2340 2692 2748 4812 4369 4721 4777
8 2783 2746 2691 2340 4812 4775 4720 4369
8 3545 3985 3605 2249 5574 6014 5634 4278
8 3507 3426 3951 2271 5536 5455 5980 4300
8 3814 2296 3081 2981 5843 4325 5110 5010
8 3372 3201 3224 2274 5401 5230 5253 4303
8 3239 3385 3883 3202 5268 5414 5912 5231
8 3891 3385 3239 3372 5920 5414 5268 5401
8 3202 3883 3273 3845 5231 5912 5302 5874
8 3022 3115 2299 2964 5051 5144 4328 4993
8 2255 3156 3018 3108 4284 5185 5047 5137
8 2279 2859 2753 2922 4308 4888 4782 4951
8 2302 3170 3058 2975 4331 5199 5087 5004
8 3369 3401 2349 3309 5398 5430 4378 5338
8 4050 2359 4027 4049 6079 4388 6056 6078
8 3348 3384 3462 2360 5377 5413 5491 4389
8 2380 2842 2988 3064 4409 4871 5017 5093
8 2807 2759 2390 2717 4836 4788 4419 4746
8 2280 3155 3266 3330 4309 5184 5295 5359
8 3294 2280 3330 3359 5323 4309 5359 5388
8 2281 4040 3619 2282 4310 6069 5648 4311
8 3682 2282 3670 3666 5711 4311 5699 5695
8 3690 3701 3694 3689 5719 5730 5723 5718
8 3707 3954 3668 3910 5736 5983 5697 5939
8 3123 2286 3413 3375 5152 4315 5442 5404
8 3160 3102 2990 2287 5189 5131 5019 4316
8 2288 3102 3193 3261 4317 5131 5222 5290
8 3324 3259 3192 2290 5353 5288 5221 4319
8 2290 3192 3100 3832 4319 5221 5129 5861
8 3159 3092 3012 2291 5188 5121 5041 4320
8 3875 3090 3178 3249 5904 5119 5207 5278
8 3788 3783 2840 3010 5817 5812 4869 5039
8 2780 2339 2693 2745 4809 4368 4722 4774
8 2339 2692 2124 2539 4368 4721 4153 4568
8 2780 2748 2692 2339 4809 4777 4721 4368
8 2293 3866 2983 2949 4322 5895 5012 4978
8 2294 3900 3084 3013 4323 5929 5113 5042
8 2320 3769 3813 3113 4349 5798 5842 5142
8 3813 3714 3169 3113 5842 5743 5198 5142
8 2320 2960 2321 2810 4349 4989 4350 4839
8 2910 3021 2298 3762 4939 5050 4327 5791
8 2299 3748 2851 2964 4328 5777 4880 4993
8 2732 2753 2792 2300 4761 4782 4821 4329
8 2859 2902 2975 2301 4888 4931 5004 4330
8 3186 4035 3255 4021 5215 6064 5284 6050
8 3435 3999 3490 4025 5464 6028 5519 6054
8 3669 3646 3666 2283 5698 5675 5695 4312
8 3528 3485 2305 3571 5557 5514 4334 5600
8 3220 2306 3683 3697 5249 4335 5712 5726
8 3299 2957 3035 2307 5328 4986 5064 4336
8 2914 2845 2800 2309 4943 4874 4829 4338
8 3219 3126 3346 3326 5248 5155 5375 5355
8 2311 3270 3147 3094 4340 5299 5176 5123
8 3228 2844 2799 2312 5257 4873 4828 4341
8 2913 2848 2808 2313 4942 4877 4837 4342
8 2292 3010 2840 2951 4321 5039 4869 4980
8 2775 2338 2694 2720 4804 4367 4723 4749
8 2338 2693 2125 2540 4367 4722 4154 4569
8 2775 2745 2693 2338 4804 4774 4722 4367
8 2949 2837 2887 3759 4978 4866 4916 5788
8 2908 2846 2790 2316 4937 4875 4819 4345
8 2789 2317 2953 3014 4818 4346 4982 5043
8 3814 2981 2835 3771 5843 5010 4864 5800
8 2923 2858 3002 2323 4952 4887 5031 4352
8 3170 3929 3207 3058 5199 5958 5236 5087
8 3909 2325 3483 3411 5938 4354 5512 5440
8 4017 3470 3561 2326 6046 5499 5590 4355
8 3524 3658 3613 3672 5553 5687 5642 5701
8 3930 2328 3906 3412 5959 4357 5935 5441
8 3781 3033 3128 2958 5810 5062 5157 4987
8 3739 2832 2954 2331 5768 4861 4983 4360
8 2311 3094 2947 3161 4340 5123 4976 5190
8 3735 2631 2870 2710 5764 4660 4899 4739
8 2760 2716 2695 2336 4789 4745 4724 4365
8 2337 2694 2126 2541 4366 4723 4155 4570
8 2771 2720 2694 2337 4800 4749 4723 4366
8 2970 3088 3916 2347 4999 5117 5945 4376
8 2944 2786 2733 2346 4973 4815 4762 4375
8 4056 3500 3991 4048 6085 5529 6020 6077
8 3395 4055 3468 3984 5424 6084 5497 6013
8 2351 3312 3124 3157 4380 5341 5153 5186
8 2352 3085 2986 2911 4381 5114 5015 4940
8 2353 2820 2751 2758 4382 4849 4780 4787
8 2891 2356 2823 2884 4920 4385 4852 4913
8 3043 3164 3956 3881 5072 5193 5985 5910
8 3881 2356 2891 3043 5910 4385 4920 5072
8 2358 3428 4027 3489 4387 5457 6056 5518
8 2360 3462 3708 3441 4389 5491 5737 5470
8 2351 3157 3099 3262 4380 5186 5128 5291
8 2362 3227 2989 2843 4391 5256 5018 4872
8 2363 2869 2798 2709 4392 4898 4827 4738
8 2366 3675 3805 3246 4395 5704 5834 5275
8 3600 2367 3474 3565 5629 4396 5503 5594
8 3269 3479 3554 2366 5298 5508 5583 4395
8 3384 3974 3568 4051 5413 6003 5597 6080
8 3258 3348 2360 3191 5287 5377 4389 5220
8 2371 3271 3146 3093 4400 5300 5175 5122
8 2372 3162 2946 3104 4401 5191 4975 5133
8 3849 3681 3696 2374 5878 5710 5725 4403
8 3477 4004 3430 3244 5506 6033 5459 5273
8 3514 4024 3581 3459 5543 6053 5610 5488
8 2378 3420 3260 3190 4407 5449 5289 5219
8 3345 3125 3064 2379 5374 5154 5093 4408
8 3787 3112 2868 2380 5816 5141 4897 4409
8 2393 3136 3848 3046 4422 5165 5877 5075
8 2383 2965 3046 3848 4412 4994 5075 5877
8 4052 3342 3308 3167 6081 5371 5337 5196
8 4057 2386 3650 3722 6086 4415 5679 5751
8 3158 3233 3190 3101 5187 5262 5219 5130
8 3518 3463 2387 3387 5547 5492 4416 5416
8 2388 2988 2842 2912 4417 5017 4871 4941
8 2389 2797 2708 2759 4418 4826 4737 4788
8 2937 3746 2734 2769 4966 5775 4763 4798
8 3308 3418 3367 2393 5337 5447 5396 4422
8 3652 2405 3589 3662 5681 4434 5618 5691
8 3235 2388 2912 3132 5264 4417 4941 5161
8 3380 3386 2397 3285 5409 5415 4426 5314
8 2398 2807 2717 2770 4427 4836 4746 4799
8 2391 3637 2671 2609 4420 5666 4700 4638
8 3060 3074 3776 3001 5089 5103 5805 5030
8 2999 3073 2857 2921 5028 5102 4886 4950
8 3892 3390 3350 3354 5921 5419 5379 5383
8 3968 2430 3296 3398 5997 4459 5325 5427
8 2440 3491 3498 3673 4469 5520 5527 5702
8 3936 3606 3542 3502 5965 5635 5571 5531
8 2401 3139 3315 3118 4430 5168 5344 5147
8 4031 3603 2403 3566 6060 5632 4432 5595
8 3460 3476 3552 2405 5489 5505 5581 4434
8 3163 3373 3839 2415 5192 5402 5868 4444
8 3749 2809 3205 2878 5778 4838 5234 4907
8 3196 3189 3314 2406 5225 5218 5343 4435
8 2400 2831 2611 2610 4429 4860 4640 4639
8 3776 2857 2831 2400 5805 4886 4860 4429
8 2409 3073 2410 3200 4438 5102 4439 5229
8 3328 3150 3096 3265 5357 5179 5125 5294
8 2439 3253 3184 3363 4468 5282 5213 5392
8 2411 3628 3945 3535 4440 5657 5974 5564
8 3331 3981 3393 3465 5360 6010 5422 5494
8 2422 3693 3465 3393 4451 5722 5494 5422
8 3086 3148 3800 2977 5115 5177 5829 5006
8 2672 2612 2085 2084 4701 4641 4114 4113
8 3303 3280 3152 2418 5332 5309 5181 4447
8 2419 3096 3020 3152 4448 5125 5049 5181
8 2863 3230 3052 2900 4892 5259 5081 4929
8 2430 3363 3856 3296 4459 5392 5885 5325
8 2411 3892 3354 3846 4440 5921 5383 5875
8 3611 3972 2421 3448 5640 6001 4450 5477
8 2432 3240 3079 3174 4461 5269 5108 5203
8 3983 2423 3173 3240 6012 4452 5202 5269
8 2976 2905 2425 2834 5005 4934 4454 4863
8 2747 3750 2426 2630 4776 5779 4455 4659
8 2418 3152 3020 3106 4447 5181 5049 5135
8 3052 2438 2973 2900 5081 4467 5002 4929
8 3150 3328 3362 2429 5179 5357 5391 4458
8 2430 3968 3661 3498 4459 5997 5690 5527
8 3574 2422 3393 3523 5603 4451 5422 5552
8 2442 2982 2836 2948 4471 5011 4865 4977
8 2433 2907 2836 2982 4462 4936 4865 5011
8 2779 2435 2629 2744 4808 4464 4658 4773
8 2735 2756 2794 2436 4764 4785 4823 4465
8 3973 3179 3242 3082 6002 5208 5271 5111
8 2772 2719 2687 2453 4801 4748 4716 4482
8 2774 2444 2687 2719 4803 4473 4716 4748
8 2930 3004 3755 2864 4959 5033 5784 4893
8 2866 2896 3129 2456 4895 4925 5158 4485
8 3182 2852 2991 2457 5211 4881 5020 4486
8 3322 2467 3301 3366 5351 4496 5330 5395
8 3366 3298 2458 3322 5395 5327 4487 5351
8 3344 3243 3203 2468 5373 5272 5232 4497
8 3243 3274 2459 3203 5272 5303 4488 5232
8 3793 2459 3274 3340 5822 4488 5303 5369
8 3531 3505 3799 2449 5560 5534 5828 4478
8 3936 3502 3436 3885 5965 5531 5465 5914
8 3036 3129 2448 3221 5065 5158 4477 5250
8 3182 2457 3338 3765 5211 4486 5367 5794
8 2950 3874 3009 2839 4979 5903 5038 4868
8 2952 2455 2895 2872 4981 4484 4924 4901
8 3791 2971 2896 3766 5820 5000 4925 5795
8 2991 2916 2456 3821 5020 4945 4485 5850
8 2460 2811 2715 2762 4489 4840 4744 4791
8 2454 2736 2676 2622 4483 4765 4705 4651
8 3741 2462 2736 2788 5770 4491 4765 4817
8 2916 2739 2464 2757 4945 4768 4493 4786
8 2465 3767 2852 2826 4494 5796 4881 4855
8 3203 2850 2825 2468 5232 4879 4854 4497
8 2821 2571 2643 2163 4850 4600 4672 4192
8 2830 2575 2645 2160 4859 4604 4674 4189
8 3302 2577 2646 3742 5331 4606 4675 5771
8 2726 2579 2647 2157 4755 4608 4676 4186
8 2480 2044 2651 2584 4509 4073 4680 4613
8 2151 2939 2585 2652 4180 4968 4614 4681
8 3636 2148 2589 2654 5665 4177 4618 4683
8 2147 3305 2591 2655 4176 5334 4620 4684
8 3107 2145 2593 2656 5136 4174 4622 4685
8 2598 2489 2061 2488 4627 4518 4090 4517
8 2722 2599 2660 2141 4751 4628 4689 4170
8 2187 2562 2661 2731 4216 4591 4690 4760
8 2829 2564 2662 2210 4858 4593 4691 4239
8 3744 3304 2566 2663 5773 5333 4595 4692
8 3108 2278 2568 2664 5137 4307 4597 4693
8 2665 2732 2300 2600 4694 4761 4329 4629
8 2323 3131 2602 2666 4352 5160 4631 4695
8 2498 2077 2668 2605 4527 4106 4697 4634
8 2373 2941 2606 2669 4402 4970 4635 4698
8 3746 2608 2670 2734 5775 4637 4699 4763
8 3637 2400 2610 2671 5666 4429 4639 4700
8 2409 3303 2612 2672 4438 5332 4641 4701
8 3106 3740 2614 2673 5135 5769 4643 4702
8 2674 2735 2436 2618 4703 4764 4465 4647
8 2445 3711 2621 2675 4474 5740 4650 4704
8 2624 2507 2093 2506 4653 4536 4122 4535
8 3741 2625 2677 2462 5770 4654 4706 4491
8 2510 2095 2679 2626 4539 4124 4708 4655
8 2511 2096 2680 2620 4540 4125 4709 4649
8 2513 2097 2682 2615 4542 4126 4711 4644
8 3301 2467 2616 2683 5330 4496 4645 4712
8 2518 2721 2532 2101 4547 4750 4561 4130
8 2354 2737 2117 2519 4383 4766 4146 4548
8 2570 2102 2520 3720 4599 4131 4549 5749
8 2521 3733 3734 2103 4550 5762 5763 4132
8 2777 3731 2105 2522 4806 5760 4134 4551
8 2569 2106 2523 2390 4598 4135 4552 4419
8 2706 2107 2524 2399 4735 4136 4553 4428
8 2879 2108 2525 2408 4908 4137 4554 4437
8 3040 2109 2526 2417 5069 4138 4555 4446
8 2880 2110 2527 2426 4909 4139 4556 4455
8 2532 2721 2470 2116 4561 4750 4499 4145
8 2533 3728 2547 2133 4562 5757 4576 4162
8 2640 3710 2118 2534 4669 5739 4147 4563
8 2707 2344 2119 2535 4736 4373 4148 4564
8 2342 2689 2121 2536 4371 4718 4150 4565
8 2341 2690 2122 2537 4370 4719 4151 4566
8 2340 2691 2123 2538 4369 4720 4152 4567
8 2334 3103 2130 2544 4363 5132 4159 4573
8 2778 2815 2131 2545 4807 4844 4160 4574
8 2548 2134 2697 2632 4577 4163 4726 4661
8 2700 3115 2277 2634 4729 5144 4306 4663
8 3306 2642 2634 2277 5335 4671 4663 4306
8 2702 3067 2636 3729 4731 5096 4665 5758
8 2556 2139 2704 2635 4585 4168 4733 4664
8 2557 2140 2705 2560 4586 4169 4734 4589
8 2559 2643 2029 2471 4588 4672 4058 4500
8 2163 2643 2559 2560 4192 4672 4588 4589
8 2163 2560 2705 2742 4192 4589 4734 4771
8 2164 2731 2661 2561 4193 4760 4690 4590
8 2563 2662 2066 2491 4592 4691 4095 4520
8 2187 3743 2563 2562 4216 5772 4592 4591
8 2662 2564 2067 2066 4691 4593 4096 4095
8 2565 2663 2068 2492 4594 4692 4097 4521
8 2567 2566 3304 2255 4596 4595 5333 4284
8 3304 3744 2233 3198 5333 5773 4262 5227
8 2567 2664 2070 2493 4596 4693 4099 4522
8 2568 2665 2071 2494 4597 4694 4100 4523
8 2777 2569 2708 2381 4806 4598 4737 4410
8 2758 2354 2570 2709 4787 4383 4599 4738
8 2709 2570 3720 2363 4738 4599 5749 4392
8 2572 2644 2031 2472 4601 4673 4060 4501
8 2162 2725 2644 2572 4191 4754 4673 4601
8 2644 2573 2032 2031 4673 4602 4061 4060
8 2574 2645 2033 2473 4603 4674 4062 4502
8 3635 2574 2573 2161 5664 4603 4602 4190
8 2920 2160 3635 3000 4949 4189 5664 5029
8 2576 2646 2035 2474 4605 4675 4064 4503
8 2159 3742 2646 2576 4188 5771 4675 4605
8 2646 2577 2036 2035 4675 4606 4065 4064
8 2578 2647 2037 2475 4607 4676 4066 4504
8 3105 2578 2577 2158 5134 4607 4606 4187
8 2038 2476 2579 3725 4067 4505 4608 5754
8 2039 2038 3725 3724 4068 4067 5754 5753
8 3724 2639 2477 2039 5753 4668 4506 4068
8 3757 3037 3130 2155 5786 5066 5159 4184
8 2639 2933 2155 2649 4668 4962 4184 4678
8 2582 2650 2042 2478 4611 4679 4071 4507
8 2581 3130 2154 2582 4610 5159 4183 4611
8 2650 2583 2043 2042 4679 4612 4072 4071
8 3007 2152 2938 2882 5036 4181 4967 4911
8 3111 2151 3117 3283 5140 4180 5146 5312
8 2586 2653 2047 2481 4615 4682 4076 4510
8 2805 2150 2939 2874 4834 4179 4968 4903
8 2150 2728 2653 2586 4179 4757 4682 4615
8 2653 2587 2048 2047 4682 4616 4077 4076
8 2588 2654 2049 2482 4617 4683 4078 4511
8 3736 2149 2588 2587 5765 4178 4617 4616
8 2994 3754 2148 3636 5023 5783 4177 5665
8 2590 2655 2051 2483 4619 4684 4080 4512
8 2655 2590 2828 2147 4684 4619 4857 4176
8 2655 2591 2052 2051 4684 4620 4081 4080
8 2592 2656 2053 2484 4621 4685 4082 4513
8 2593 2657 2054 2485 4622 4686 4083 4514
8 2657 2594 2055 2054 4686 4623 4084 4083
8 3003 2909 3712 2143 5032 4938 5741 4172
8 2637 2926 2143 2658 4666 4955 4172 4687
8 2596 2659 2058 2487 4625 4688 4087 4516
8 2838 2142 3712 2909 4867 4171 5741 4938
8 2659 2597 2059 2058 4688 4626 4088 4087
8 2141 2660 2598 2597 4170 4689 4627 4626
8 2660 2599 2063 2062 4689 4628 4092 4091
8 2601 2666 2073 2495 4630 4695 4102 4524
8 2792 2858 2923 2300 4821 4887 4952 4329
8 2601 2923 2323 2666 4630 4952 4352 4695
8 2603 2667 2075 2496 4632 4696 4104 4525
8 2602 3131 2346 2603 4631 5160 4375 4632
8 2667 2604 2076 2075 4696 4633 4105 4104
8 3110 2373 3116 3284 5139 4402 5145 5313
8 2607 2670 2080 2499 4636 4699 4109 4528
8 2806 2382 2941 2875 4835 4411 4970 4904
8 2670 2608 2081 2080 4699 4637 4110 4109
8 2609 2671 2082 2500 4638 4700 4111 4529
8 3746 2391 2609 2608 5775 4420 4638 4637
8 2671 2610 2083 2082 4700 4639 4112 4111
8 2611 2672 2084 2501 4640 4701 4113 4530
8 2672 2611 2831 2409 4701 4640 4860 4438
8 2613 2612 3303 2418 4642 4641 5332 4447
8 2613 2673 2086 2502 4642 4702 4115 4531
8 2087 2503 2614 3727 4116 4532 4643 5756
8 2465 2826 2682 2681 4494 4855 4711 4710
8 2683 2616 2514 2098 4712 4645 4543 4127
8 2617 2099 2515 2684 4646 4128 4544 4713
8 3322 3243 3344 2467 5351 5272 5373 4496
8 2627 2100 2516 2685 4656 4129 4545 4714
8 2468 2825 2685 2617 4497 4854 4714 4646
8 3726 2619 2504 2088 5755 4648 4533 4117
8 2619 2675 2089 2504 4648 4704 4118 4533
8 2618 2436 2864 2932 4647 4465 4893 4961
8 2738 2464 2680 2626 4767 4493 4709 4655
8 2619 2932 2445 2675 4648 4961 4474 4704
8 2622 2676 2091 2505 4651 4705 4120 4534
8 2676 2623 2092 2091 4705 4652 4121 4120
8 2462 2677 2624 2623 4491 4706 4653 4652
8 2677 2625 2508 2094 4706 4654 4537 4123
8 2469 2740 2686 2627 4498 4769 4715 4656
8 2077 2497 2628 2668 4106 4526 4657 4697
8 2355 2940 2628 2604 4384 4969 4657 4633
8 2631 3735 2128 2129 4660 5764 4157 4158
8 2322 2698 2632 2724 4351 4727 4661 4753
8 2633 2700 2136 2550 4662 4729 4165 4579
8 2700 2634 2551 2136 4729 4663 4580 4165
8 2186 2635 2704 2741 4215 4664 4733 4770
8 3067 2702 2232 2993 5096 4731 4261 5022
8 2702 2641 2827 2232 4731 4670 4856 4261
8 2056 2486 2637 2658 4085 4515 4666 4687
8 2793 2860 2926 2144 4822 4889 4955 4173
8 2044 2479 2638 2651 4073 4508 4667 4680
8 2153 2938 2638 2583 4182 4967 4667 4612
8 2040 2477 2639 2649 4069 4506 4668 4678
8 2580 2156 2865 2933 4609 4185 4894 4962
8 2827 2701 2642 2254 4856 4730 4671 4283
8 2701 2137 2552 2642 4730 4166 4581 4671
8 3166 2254 2642 3306 5195 4283 4671 5335
8 3725 2579 2726 2648 5754 4608 4755 4677
8 2155 3130 2581 2649 4184 5159 4610 4678
8 3117 2584 2651 2152 5146 4613 4680 4181
8 2143 3712 2595 2658 4172 5741 4624 4687
8 2364 3116 2605 2668 4393 5145 4634 4697
8 3740 2674 3727 2614 5769 4703 5756 4643
8 2095 2509 2678 2679 4124 4538 4707 4708
8 2463 2738 2626 2679 4492 4767 4655 4708
8 2464 2739 2620 2680 4493 4768 4649 4709
8 2097 2512 2681 2682 4126 4541 4710 4711
8 2470 2721 2686 2740 4499 4750 4715 4769
8 2771 2337 2695 2716 4800 4366 4724 4745
8 2778 2696 2711 2333 4807 4725 4740 4362
8 3728 3710 2345 2697 5757 5739 4374 4726
8 3728 2697 2134 2547 5757 4726 4163 4576
8 2135 2549 2698 2699 4164 4578 4727 4728
8 3748 2299 2633 2699 5777 4328 4662 4728
8 2827 2641 3730 2701 4856 4670 5759 4730
8 3730 2641 2702 3729 5759 4670 4731 5758
8 2139 2555 2703 2704 4168 4584 4732 4733
8 2636 3067 2209 2703 4665 5096 4238 4732
8 2770 2717 2390 2706 4799 4746 4419 4735
8 2759 2708 2569 2390 4788 4737 4598 4419
8 2353 2758 2709 2798 4382 4787 4738 4827
8 2760 2336 3735 2710 4789 4365 5764 4739
8 2312 2799 2710 2870 4341 4828 4739 4899
8 2723 2750 2761 2332 4752 4779 4790 4361
8 2712 2871 2724 2345 4741 4900 4753 4374
8 2871 2712 2763 3747 4900 4741 4792 5776
8 2752 3751 2791 2713 4781 5780 4820 4742
8 2752 2713 3709 2470 4781 4742 5738 4499
8 3753 2810 2714 2773 5782 4839 4743 4802
8 2773 2714 2707 2343 4802 4743 4736 4372
8 2452 2772 2715 2811 4481 4801 4744 4840
8 2762 2715 2688 2461 4791 4744 4717 4490
8 2313 2808 2716 2760 4342 4837 4745 4789
8 2812 3753 2773 2718 4841 5782 4802 4747
8 2319 2812 2718 2776 4348 4841 4747 4805
8 2443 2774 2719 2813 4472 4803 4748 4842
8 2452 2813 2719 2772 4481 4842 4748 4801
8 2315 2775 2720 2814 4344 4804 4749 4843
8 2314 2814 2720 2771 4343 4843 4749 4800
8 2722 2787 2804 2164 4751 4816 4833 4193
8 2724 2871 2841 2322 4753 4900 4870 4351
8 2157 2755 2156 2726 4186 4784 4185 4755
8 2793 2144 2729 2754 4822 4173 4758 4783
8 2883 3780 2884 2823 4912 5809 4913 4852
8 2803 2824 3741 2788 4832 4853 5770 4817
8 2751 3739 2749 2737 4780 5768 4778 4766
8 3032 2796 3763 2765 5061 4825 5792 4794
8 2319 2776 2743 3114 4348 4805 4772 5143
8 3114 2743 2781 2816 5143 4772 4810 4845
8 2434 2779 2744 2886 4463 4808 4773 4915
8 2316 2780 2745 2817 4345 4809 4774 4846
8 2775 2887 2817 2745 4804 4916 4846 4774
8 2318 2781 2746 2789 4347 4810 4775 4818
8 2425 2782 2888 2834 4454 4811 4917 4863
8 3750 2747 2888 2782 5779 4776 4917 4811
8 2317 2783 2748 2790 4346 4812 4777 4819
8 2316 2790 2748 2780 4345 4819 4777 4809
8 3737 2749 3739 2331 5766 4778 5768 4360
8 3737 2833 2819 2750 5766 4862 4848 4779
8 2460 2762 2713 2791 4489 4791 4742 4820
8 2922 2753 2732 2278 4951 4782 4761 4307
8 2927 2754 2729 2145 4956 4783 4758 4174
8 3812 2794 2756 2437 5841 4823 4785 4466
8 2929 2756 2735 2427 4958 4785 4764 4456
8 2456 2916 2757 2866 4485 4945 4786 4895
8 2757 3766 2896 2866 4786 5795 4925 4895
8 2309 2800 2711 2761 4338 4829 4740 4790
8 2914 2309 2819 2985 4943 4338 4848 5014
8 3879 2898 2764 2904 5908 4927 4793 4933
8 2904 2764 2801 2185 4933 4793 4830 4214
8 3032 2765 2803 2872 5061 4794 4832 4901
8 2185 2802 2766 2889 4214 4831 4795 4918
8 3745 2897 2889 2766 5774 4926 4918 4795
8 2804 2165 2873 2767 4833 4194 4902 4796
8 2894 2936 2768 2876 4923 4965 4797 4905
8 2173 2876 2768 2805 4202 4905 4797 4834
8 2893 2937 2769 2877 4922 4966 4798 4906
8 2935 2877 2769 2806 4964 4906 4798 4835
8 3039 2398 2878 3109 5068 4427 4907 5138
8 2881 2818 3750 2782 4910 4847 5779 4811
8 2977 2881 2782 2425 5006 4910 4811 4454
8 2317 2789 2746 2783 4346 4818 4775 4812
8 2801 2162 2821 2784 4830 4191 4850 4813
8 2802 2185 2801 2784 4831 4214 4830 4813
8 3756 2785 2176 2822 5785 4814 4205 4851
8 3795 2176 2785 2943 5824 4205 4814 4972
8 3806 2884 3780 2786 5835 4913 5809 4815
8 2872 2803 2788 2952 4901 4832 4817 4981
8 2789 3014 3760 2318 4818 5043 5789 4347
8 2953 2317 2790 2846 4982 4346 4819 4875
8 2469 2825 2850 3752 4498 4854 4879 5781
8 2915 2791 3751 3752 4944 4820 5780 5781
8 2858 2792 2301 2924 4887 4821 4330 4953
8 2926 2860 3003 2143 4955 4889 5032 4172
8 2930 2864 2436 2794 4959 4893 4465 4823
8 3829 2930 2794 3812 5858 4959 4823 5841
8 3785 2865 2156 2795 5814 4894 4185 4824
8 3785 3005 3757 2865 5814 5034 5786 4894
8 3766 2757 2464 2796 5795 4786 4493 4825
8 2868 2797 2842 2380 4897 4826 4871 4409
8 2843 2798 2869 2362 4872 4827 4898 4391
8 2913 2313 2799 2844 4942 4342 4828 4873
8 2867 2800 2845 3782 4896 4829 4874 5811
8 2824 2803 2765 2463 4853 4832 4794 4492
8 2804 2787 2838 2165 4833 4816 4867 4194
8 3045 2966 2173 2934 5074 4995 4202 4963
8 2174 2934 2874 3111 4203 4963 4903 5140
8 2877 2935 3044 2383 4906 4964 5073 4412
8 3132 2912 2389 2959 5161 4941 4418 4988
8 2951 2314 2808 2848 4980 4343 4837 4877
8 3021 2910 2321 2960 5050 4939 4350 4989
8 3769 2320 2810 3753 5798 4349 4839 5782
8 2960 2320 3113 3038 4989 4349 5142 5067
8 3783 2315 2814 2840 5812 4344 4843 4869
8 3288 2334 2815 2847 5317 4363 4844 4876
8 3771 2835 3114 2816 5800 4864 5143 4845
8 3760 2816 2781 2318 5789 4845 4810 4347
8 2907 2434 2886 2836 4936 4463 4915 4865
8 2908 2316 2817 3777 4937 4345 4846 5806
8 2837 3777 2817 2887 4866 5806 4846 4916
8 3764 2942 2818 2881 5793 4971 4847 4910
8 2985 2819 2833 2308 5014 4848 4862 4337
8 2832 2820 2986 2330 4861 4849 5015 4359
8 3007 2882 3756 2822 5036 4911 5785 4851
8 2962 2945 2823 2356 4991 4974 4852 4385
8 2730 2142 2838 2787 4759 4171 4867 4816
8 3748 2322 2841 2851 5777 4351 4870 4880
8 3182 2466 2826 2852 5211 4495 4855 4881
8 3784 2232 2827 2853 5813 4261 4856 4882
8 3068 2147 2828 2854 5097 4176 4857 4883
8 3071 2233 2829 2855 5100 4262 4858 4884
8 2856 3072 2159 2830 4885 5101 4188 4859
8 3073 2409 2831 2857 5102 4438 4860 4886
8 2833 3737 2331 2885 4862 5766 4360 4914
8 2434 2907 2834 2888 4463 4936 4863 4917
8 2981 2297 3062 2835 5010 4326 5091 4864
8 2948 2836 2886 2443 4977 4865 4915 4472
8 3797 2837 2949 2983 5826 4866 4978 5012
8 3790 2165 2838 2968 5819 4194 4867 4997
8 3772 2984 2909 3003 5801 5013 4938 5032
8 2442 2948 2839 3009 4471 4977 4868 5038
8 2950 2839 2813 2452 4979 4868 4842 4481
8 2951 2840 2814 2314 4980 4869 4843 4343
8 3090 2293 3788 3010 5119 4322 5817 5039
8 3713 2892 3761 3762 5742 4921 5790 5791
8 2912 2842 2797 2389 4941 4871 4826 4418
8 2843 2989 2352 2911 4872 5018 4381 4940
8 3228 3832 2987 2844 5257 5861 5016 4873
8 3782 2845 2990 3065 5811 4874 5019 5094
8 2294 3013 2846 2908 4323 5042 4875 4937
8 3103 2334 3288 3161 5132 4363 5317 5190
8 3126 3219 3337 2310 5155 5248 5366 4339
8 2291 3012 2848 2913 4320 5041 4877 4942
8 3874 2950 2849 3011 5903 4979 4878 5040
8 2460 3075 2849 2811 4489 5104 4878 4840
8 2459 2956 2850 3203 4488 4985 4879 5232
8 3022 2964 2851 2892 5051 4993 4880 4921
8 2852 3767 2916 2991 4881 5796 4945 5020
8 3066 2853 2827 2254 5095 4882 4856 4283
8 2917 2993 2232 3784 4946 5022 4261 5813
8 3754 2854 2828 2148 5783 4883 4857 4177
8 2920 2856 2830 2160 4949 4885 4859 4189
8 2324 3002 2858 2924 4353 5031 4887 4953
8 3819 2166 2984 3772 5848 4195 5013 5801
8 2974 2167 2861 2901 5003 4196 4890 4930
8 2973 2437 2863 2900 5002 4466 4892 4929
8 3230 2863 2929 2428 5259 4892 4958 4457
8 2178 3005 3785 2931 4207 5034 5814 4960
8 2867 3337 2847 2333 4896 5366 4876 4362
8 3337 2867 3782 2310 5366 4896 5811 4339
8 3112 3738 2381 2868 5141 5767 4410 4897
8 3093 2362 2869 2946 5122 4391 4898 4975
8 3094 2312 2870 2947 5123 4341 4899 4976
8 2947 2870 2631 2335 4976 4899 4660 4364
8 2889 2903 2904 2185 4918 4932 4933 4214
8 3791 3032 2872 2895 5820 5061 4901 4924
8 2978 2767 2873 2188 5007 4796 4902 4217
8 3749 2878 2398 2770 5778 4907 4427 4799
8 3257 2407 3205 3204 5286 4436 5234 5233
8 2399 2524 2108 2879 4428 4553 4137 4908
8 2417 2526 2110 2880 4446 4555 4139 4909
8 2977 3800 3764 2881 5006 5829 5793 4910
8 2883 2823 2945 3006 4912 4852 4974 5035
8 2963 3042 2822 2176 4992 5071 4851 4205
8 3807 3806 2786 2944 5836 5835 4815 4973
8 3758 2885 2331 2954 5787 4914 4360 4983
8 2744 2774 2443 2886 4773 4803 4472 4915
8 3759 2887 2775 2315 5788 4916 4804 4344
8 2747 2779 2434 2888 4776 4808 4463 4917
8 2903 2889 2897 3796 4932 4918 4926 5825
8 2963 2890 2200 3840 4992 4919 4229 5869
8 2970 2347 3807 2944 4999 4376 5836 4973
8 3747 2910 3762 3761 5776 4939 5791 5790
8 2841 3761 2892 2851 4870 5790 4921 4880
8 3848 3136 2392 2893 5877 5165 4421 4922
8 3848 2893 2877 2383 5877 4922 4906 4412
8 2966 2894 2876 2173 4995 4923 4905 4202
8 2895 3789 2971 3791 4924 5818 5000 5820
8 2446 3048 3786 2967 4475 5077 5815 4996
8 3790 3145 3137 2188 5819 5174 5166 4217
8 3790 2188 2873 2165 5819 4217 4902 4194
8 2448 3129 2896 3050 4477 5158 4925 5079
8 2971 3830 3050 2896 5000 5859 5079 4925
8 3635 2161 3015 3000 5664 4190 5044 5029
8 3857 3051 2899 3229 5886 5080 4928 5258
8 3229 2899 2862 2180 5258 4928 4891 4209
8 2191 3055 2901 3231 4220 5084 4930 5260
8 2302 2975 2902 3057 4331 5004 4931 5086
8 3232 2902 2859 2279 5261 4931 4888 4308
8 2955 3907 3031 3879 4984 5936 5060 5908
8 2184 2898 3879 3031 4213 4927 5908 5060
8 3086 2977 2425 2905 5115 5006 4454 4934
8 2295 3080 3014 2953 4324 5109 5043 4982
8 2763 2321 2910 3747 4792 4350 4939 5776
8 2820 2353 2911 2986 4849 4382 4940 5015
8 2987 3832 3100 3921 5016 5861 5129 5950
8 3075 2460 2791 2915 5104 4489 4820 4944
8 3774 3828 3061 3069 5803 5857 5090 5098
8 2149 3736 2936 2980 4178 5765 4965 5009
8 2996 2978 3059 3070 5025 5007 5088 5099
8 2857 3776 3074 2921 4886 5805 5103 4950
8 2392 3060 3001 2979 4421 5089 5030 5008
8 3098 2279 2922 3018 5127 4308 4951 5047
8 3207 2324 2924 3058 5236 4353 4953 5087
8 3772 2925 3056 3819 5801 4954 5085 5848
8 3097 2168 2927 3017 5126 4197 4956 5046
8 2427 3020 2428 2929 4456 5049 4457 4958
8 2446 3829 3812 3054 4475 5858 5841 5083
8 3210 2178 2931 3053 5239 4207 4960 5082
8 2864 3755 2445 2932 4893 5784 4474 4961
8 2865 3757 2155 2933 4894 5786 4184 4962
8 2996 3743 2187 2978 5025 5772 4216 5007
8 3803 3802 2875 3110 5832 5831 4904 5139
8 3636 2149 2980 2994 5665 4178 5009 5023
8 3637 2391 2979 3001 5666 4420 5008 5030
8 2979 2937 2893 2392 5008 4966 4922 4421
8 2152 2651 2638 2938 4181 4680 4667 4967
8 2150 2586 2585 2939 4179 4615 4614 4968
8 2364 2668 2628 2940 4393 4697 4657 4969
8 2382 2607 2606 2941 4411 4636 4635 4970
8 3006 2945 3041 2365 5035 4974 5070 4394
8 2822 3042 2175 3007 4851 5071 4204 5036
8 3162 2371 3093 2946 5191 4400 5122 4975
8 2315 3783 3788 3759 4344 5812 5817 5788
8 3786 2455 3008 2967 5815 4484 5037 4996
8 3220 3035 3758 2958 5249 5064 5787 4987
8 2954 3781 2958 3758 4983 5810 4987 5787
8 2330 3781 2954 2832 4359 5810 4983 4861
8 2955 3879 2904 2903 4984 5908 4933 4932
8 3810 3034 2308 2957 5839 5063 4337 4986
8 3827 3810 2957 3299 5856 5839 4986 5328
8 3585 3128 3033 2329 5614 5157 5062 4358
8 2397 3132 2959 3039 4426 5161 4988 5068
8 3039 2959 2807 2398 5068 4988 4836 4427
8 3078 3021 2960 3038 5107 5050 4989 5067
8 2416 3204 3188 2961 4445 5233 5217 4990
8 3041 3877 2357 3246 5070 5906 4386 5275
8 2199 3176 2963 3840 4228 5205 4992 5869
8 2383 3044 3133 2965 4412 5073 5162 4994
8 3695 3134 2966 3045 5724 5163 4995 5074
8 2446 2967 3025 3829 4475 4996 5054 5858
8 3049 2968 2984 2166 5078 4997 5013 4195
8 3757 3005 3195 3037 5786 5034 5224 5066
8 2931 2179 2972 3053 4960 4208 5001 5082
8 3183 2202 2972 3051 5212 4231 5001 5080
8 3812 2437 2973 3054 5841 4466 5002 5083
8 2925 2167 2974 3056 4954 4196 5003 5085
8 2924 2301 2975 3058 4953 4330 5004 5087
8 3281 2211 3070 3059 5310 4240 5099 5088
8 2918 3069 3061 2171 4947 5098 5090 4200
8 2172 3775 2980 2936 4201 5804 5009 4965
8 3081 3201 2297 2981 5110 5230 4326 5010
8 3223 2296 3814 3815 5252 4325 5843 5844
8 3797 2983 3083 3860 5826 5012 5112 5889
8 3180 3083 2983 3866 5209 5112 5012 5895
8 3033 3781 2330 3286 5062 5810 4359 5315
8 3832 3228 3147 2290 5861 5257 5176 4319
8 3064 2988 3101 2379 5093 5017 5130 4408
8 3325 2361 3227 3146 5354 4390 5256 5175
8 2288 3065 2990 3102 4317 5094 5019 5131
8 2991 3821 3036 2457 5020 5850 5065 4486
8 2456 3129 3036 3821 4485 5158 5065 5850
8 2897 3745 2209 3016 4926 5774 4238 5045
8 3068 2995 3030 2170 5097 5024 5059 4199
8 3122 2995 2918 2171 5151 5024 4947 4200
8 2234 3071 2997 3029 4263 5100 5026 5058
8 3029 2997 3070 2211 5058 5026 5099 4240
8 3072 2998 3026 3824 5101 5027 5055 5853
8 2920 3835 2183 2998 4949 5864 4212 5027
8 3073 2999 3027 2410 5102 5028 5056 4439
8 2999 2921 3074 2401 5028 4950 5103 4430
8 3772 3003 2860 2925 5801 5032 4889 4954
8 3755 3719 3711 2445 5784 5748 5740 4474
8 3025 3004 2930 3829 5054 5033 4959 5858
8 2455 2952 2454 3008 4484 4981 4483 5037
8 3089 3009 3874 2451 5118 5038 5903 4480
8 2451 3874 3011 3091 4480 5903 5040 5120
8 2915 2956 3792 3075 4944 4985 5821 5104
8 3178 2292 3012 3092 5207 4321 5041 5121
8 3084 3902 2295 3013 5113 5931 4324 5042
8 2906 3760 3014 3080 4935 5789 5043 5109
8 2161 2898 2184 3015 4190 4927 4213 5044
8 3077 3794 2208 3016 5106 5823 4237 5045
8 2169 3097 3017 3154 4198 5126 5046 5183
8 3108 3018 2922 2278 5137 5047 4951 4307
8 2181 3095 3019 3151 4210 5124 5048 5180
8 3105 3019 2928 2157 5134 5048 4957 4186
8 3150 2428 3020 3096 5179 4457 5049 5125
8 3202 2298 3021 3078 5231 4327 5050 5107
8 2277 3115 3022 3287 4306 5144 5051 5316
8 3022 3320 3321 3287 5051 5349 5350 5316
8 3110 3284 3318 3803 5139 5313 5347 5832
8 3023 3804 3318 3284 5052 5833 5347 5313
8 3283 3319 2174 3111 5312 5348 4203 5140
8 3024 3778 3319 3283 5053 5807 5348 5312
8 3025 3719 3755 3004 5054 5748 5784 5033
8 3119 3026 2998 2183 5148 5055 5027 4212
8 3871 3335 2410 3027 5900 5364 4439 5056
8 3118 3027 2999 2401 5147 5056 5028 4430
8 3396 3028 2992 2253 5425 5057 5021 4282
8 3355 2234 3029 3870 5384 4263 5058 5899
8 3865 3218 3122 2194 5894 5247 5151 4223
8 3031 3718 3076 2184 5060 5747 5105 4213
8 3379 3957 3718 3949 5408 5986 5747 5978
8 3791 3766 2796 3032 5820 5795 4825 5061
8 2329 3033 3286 3858 4358 5062 5315 5887
8 3063 2985 2308 3034 5092 5014 4337 5063
8 3586 3413 2286 3127 5615 5442 4315 5156
8 3758 3035 2957 2885 5787 5064 4986 4914
8 3220 3811 2307 3035 5249 5840 4336 5064
8 2457 3036 3221 3338 4486 5065 5250 5367
8 3037 3195 3087 2969 5066 5224 5116 4998
8 2324 3088 2970 3002 4353 5117 4999 5031
8 3078 3038 3113 3169 5107 5067 5142 5198
8 2945 2962 3877 3041 4974 4991 5906 5070
8 2366 3246 2357 3269 4395 5275 4386 5298
8 3369 2348 3852 3853 5398 4377 5881 5882
8 2177 3143 2200 2890 4206 5172 4229 4919
8 2935 3802 2374 3044 4964 5831 4403 5073
8 3167 3046 2965 2384 5196 5075 4994 4413
8 3135 3047 3168 2195 5164 5076 5197 4224
8 3172 3213 3859 3209 5201 5242 5888 5238
8 3212 3919 2189 3896 5241 5948 4218 5925
8 3300 2448 3050 3177 5329 4477 5079 5206
8 3177 3050 3830 2447 5206 5079 5859 4476
8 2180 3149 2203 3229 4209 5178 4232 5258
8 3253 2438 3052 3184 5282 4467 5081 5213
8 2428 3150 2429 3230 4457 5179 4458 5259
8 3054 3209 3048 2446 5083 5238 5077 4475
8 3843 3055 3185 2190 5872 5084 5214 4219
8 3844 2191 3231 3153 5873 4220 5260 5182
8 3145 3049 2166 3208 5174 5078 4195 5237
8 3255 2302 3057 4021 5284 4331 5086 6050
8 3927 3232 3155 2280 5956 5261 5184 4309
8 3137 3059 2978 2188 5166 5088 5007 4217
8 2812 2319 3062 3770 4841 4348 5091 5799
8 3256 3112 3787 3187 5285 5141 5816 5216
8 3824 3199 2159 3072 5853 5228 4188 5101
8 2206 3119 2183 3882 4235 5148 4212 5911
8 3862 3077 2917 3816 5891 5106 4946 5845
8 2208 3794 3864 3140 4237 5823 5893 5169
8 3202 3845 3141 2298 5231 5874 5170 4327
8 2276 3141 3845 3273 4305 5170 5874 5302
8 3174 3079 2976 2433 5203 5108 5005 4462
8 3240 3173 2424 3079 5269 5202 4453 5108
8 3081 3917 3224 3201 5110 5946 5253 5230
8 3174 3082 3242 4018 5203 5111 5271 6047
8 3973 3082 2982 2442 6002 5111 5011 4471
8 3901 3175 3860 3083 5930 5204 5889 5112
8 3901 3083 3180 3241 5930 5112 5209 5270
8 3175 3951 3251 3900 5204 5980 5280 5929
8 3286 3085 3124 3858 5315 5114 5153 5887
8 3148 3086 3163 2415 5177 5115 5192 4444
8 3163 3086 2905 2424 5192 5115 4934 4453
8 3825 3087 3195 3276 5854 5116 5224 5305
8 2348 3043 3225 3852 4377 5072 5254 5881
8 3922 3250 2441 3179 5951 5279 4470 5208
8 3178 3090 3010 2292 5207 5119 5039 4321
8 3836 3226 3884 3144 5865 5255 5913 5173
8 3836 3091 3793 3340 5865 5120 5822 5369
8 3092 3159 2268 3248 5121 5188 4297 5277
8 3818 3095 3149 2180 5847 5124 5178 4209
8 3231 2168 3097 3153 5260 4197 5126 5182
8 3232 2279 3098 3155 5261 4308 5127 5184
8 2361 3191 3262 3099 4390 5220 5291 5128
8 3227 2361 3099 2989 5256 4390 5128 5018
8 3100 3263 3159 3921 5129 5292 5188 5950
8 3519 2378 3190 3233 5548 4407 5219 5262
8 3158 3101 2988 2388 5187 5130 5017 4417
8 3160 3234 3193 3102 5189 5263 5222 5131
8 3740 3106 3020 2427 5769 5135 5049 4456
8 3205 2407 3109 2878 5234 4436 5138 4907
8 3256 3194 3738 3112 5285 5223 5767 5141
8 3206 3187 3787 3125 5235 5216 5816 5154
8 2373 2669 2605 3116 4402 4698 4634 5145
8 2151 2652 2584 3117 4180 4681 4613 5146
8 3027 3118 3912 3871 5056 5147 5941 5900
8 3425 2230 3120 3216 5454 4259 5149 5245
8 3281 3887 3919 3316 5310 5916 5948 5345
8 3809 3138 3317 3282 5838 5167 5346 5311
8 3157 3124 3085 2352 5186 5153 5114 4381
8 3876 3206 3125 3345 5905 5235 5154 5374
8 3219 3326 3270 2311 5248 5355 5299 4340
8 3707 3910 2285 3854 5736 5939 4314 5883
8 3528 2306 3128 3585 5557 4335 5157 5614
8 3244 3696 3681 3971 5273 5725 5710 6000
8 3873 2196 3134 3245 5902 4225 5163 5274
8 2197 3834 3695 3680 4226 5863 5724 5709
8 3826 3138 3135 2195 5855 5167 5164 4224
8 2401 3074 3060 3139 4430 5103 5089 5168
8 3315 3139 3136 2393 5344 5168 5165 4422
8 3796 2208 3140 3222 5825 4237 5169 5251
8 2276 3320 3713 3141 4305 5349 5742 5170
8 3917 3081 2296 3142 5946 5110 4325 5171
8 2178 3210 3825 3276 4207 5239 5854 5305
8 3411 3369 3853 3909 5440 5398 5882 5938
8 3275 3207 3929 3928 5304 5236 5958 5957
8 3922 3089 2451 3144 5951 5118 4480 5173
8 3837 3608 3436 2450 5866 5637 5465 4479
8 3187 3206 3271 2371 5216 5235 5300 4400
8 3270 3324 2290 3147 5299 5353 4319 5176
8 3314 3189 2407 3257 5343 5218 4436 5286
8 2409 3200 3280 3303 4438 5229 5309 5332
8 2147 3197 3278 3305 4176 5226 5307 5334
8 3291 3277 3304 3198 5320 5306 5333 5227
8 3441 3262 3191 2360 5470 5291 5220 4389
8 2264 3234 3160 3313 4293 5263 5189 5342
8 3161 3288 3219 2311 5190 5317 5248 4340
8 3162 3256 3187 2371 5191 5285 5216 4400
8 3943 3373 3163 3311 5972 5402 5192 5340
8 3976 3370 3164 3939 6005 5399 5193 5968
8 3939 3164 3043 2348 5968 5193 5072 4377
8 2222 3236 3165 3371 4251 5265 5194 5400
8 3310 3165 3840 2200 5339 5194 5869 4229
8 3292 3166 3306 3321 5321 5195 5335 5350
8 3418 3308 3342 2394 5447 5337 5371 4423
8 3238 3168 3047 2196 5267 5197 5076 4225
8 3202 3078 3169 3239 5231 5107 5198 5268
8 2297 3239 3169 3714 4326 5268 5198 5743
8 3929 3170 3211 2325 5958 5199 5240 4354
8 3213 3172 2973 2438 5242 5201 5002 4467
8 3573 3523 2423 3983 5602 5552 4452 6012
8 4014 4019 4012 4013 6043 6048 6041 6042
8 2199 3268 3833 3176 4228 5297 5862 5205
8 3956 2357 3877 3881 5985 4386 5906 5910
8 3089 3922 3179 3973 5118 5951 5208 6002
8 3502 3935 2450 3436 5531 5964 4479 5465
8 3249 3180 3866 3875 5278 5209 5895 5904
8 3900 3251 3898 3084 5929 5280 5927 5113
8 3366 3301 2466 3182 5395 5330 4495 5211
8 3364 3888 3857 3869 5393 5917 5886 5898
8 3052 3856 3363 3184 5081 5885 5392 5213
8 3439 2190 3185 3254 5468 4219 5214 5283
8 4035 3186 3294 3358 6064 5215 5323 5387
8 2280 3294 3186 3927 4309 5323 5215 5956
8 2809 3188 3204 3205 4838 5217 5233 5234
8 3272 3838 3314 3257 5301 5867 5343 5286
8 3260 3920 3345 2379 5289 5949 5374 4408
8 3822 3346 2288 3261 5851 5375 4317 5290
8 3466 3515 2265 3961 5495 5544 4294 5990
8 2178 3276 3195 3005 4207 5305 5224 5034
8 2406 3285 2397 3196 4435 5314 4426 5225
8 3305 3278 3154 2146 5334 5307 5183 4175
8 2565 2233 3744 2663 4594 4262 5773 4692
8 3302 3742 2159 3199 5331 5771 4188 5228
8 2181 3151 2158 3279 4210 5180 4187 5308
8 3801 3290 3280 3200 5830 5319 5309 5229
8 2273 3520 2274 3224 4302 5549 4303 5253
8 3487 3950 3385 3891 5516 5979 5414 5920
8 3088 2324 3207 3275 5117 4353 5236 5304
8 2166 3819 3171 3208 4195 5848 5200 5237
8 3823 3048 3209 3859 5852 5077 5238 5888
8 3440 3483 2325 3211 5469 5512 4354 5240
8 3255 3211 3170 2302 5284 5240 5199 4331
8 3316 3919 3212 3948 5345 5948 5241 5977
8 3212 2190 3439 3948 5241 4219 5468 5977
8 2202 3252 3438 3214 4231 5281 5467 5243
8 3334 3215 3525 2205 5363 5244 5554 4234
8 3028 3396 3356 3890 5057 5425 5385 5919
8 3496 3899 3623 3537 5525 5928 5652 5566
8 3933 3217 3121 2212 5962 5246 5150 4241
8 3493 2193 3627 3534 5522 4222 5656 5563
8 3220 3697 3841 3811 5249 5726 5870 5840
8 2958 3128 2306 3220 4987 5157 4335 5249
8 3221 2448 3576 2449 5250 4477 5605 4478
8 3721 3339 3223 3868 5750 5368 5252 5897
8 3339 3952 2273 3142 5368 5981 4302 5171
8 3142 2273 3224 3917 5171 4302 5253 5946
8 3852 3225 3807 2347 5881 5254 5836 4376
8 3798 3340 3274 2458 5827 5369 5303 4487
8 3856 3052 3230 2429 5885 5081 5259 4458
8 3386 3235 3132 2397 5415 5264 5161 4426
8 3905 3415 3268 3904 5934 5444 5297 5933
8 2357 3956 3237 3269 4386 5985 5266 5298
8 3428 2358 3370 3976 5457 4387 5399 6005
8 4052 3975 3244 3430 6081 6004 5273 5459
8 3201 3372 3239 2297 5230 5401 5268 4326
8 3962 3241 3180 2270 5991 5270 5209 4299
8 4012 3242 3179 2441 6041 5271 5208 4470
8 2458 3274 3243 3322 4487 5303 5272 5351
8 2684 2616 2467 3344 4713 4645 4496 5373
8 2375 3477 3244 3971 4404 5506 5273 6000
8 3133 3696 3244 3975 5162 5725 5273 6004
8 3834 3478 3893 3245 5863 5507 5922 5274
8 3675 3850 3804 3805 5704 5879 5833 5834
8 3674 3377 3778 3779 5703 5406 5807 5808
8 3833 2198 3247 3176 5862 4227 5276 5205
8 3437 3249 3178 2269 5466 5278 5207 4298
8 3251 3951 3426 2272 5280 5980 5455 4301
8 3454 2226 3297 3510 5483 4255 5326 5539
8 3918 3213 2438 3253 5947 5242 4467 5282
8 3435 3358 3397 2281 5464 5387 5426 4310
8 2416 3272 3257 3204 4445 5301 5286 5233
8 3258 3427 3382 3348 5287 5456 5411 5377
8 2370 3427 3258 3325 4399 5456 5287 5354
8 3634 3381 3347 3259 5663 5410 5376 5288
8 2289 3634 3259 3324 4318 5663 5288 5353
8 3974 3382 3716 2369 6003 5411 5745 4398
8 3422 3920 3260 3716 5451 5949 5289 5745
8 3458 3717 3423 3419 5487 5746 5452 5448
8 3441 3932 2351 3262 5470 5961 4380 5291
8 3279 3289 3349 2181 5308 5318 5378 4210
8 3354 3350 2419 3290 5383 5379 4448 5319
8 3350 3265 3096 2419 5379 5294 5125 4448
8 3355 3352 2256 3291 5384 5381 4285 5320
8 3267 2169 3293 3351 5296 4198 5322 5380
8 3324 3270 3326 2289 5353 5299 5355 4318
8 2370 3325 3146 3271 4399 5354 5175 5300
8 3876 2370 3271 3206 5905 4399 5300 5235
8 3404 2275 3461 3356 5433 4304 5490 5385
8 3210 2201 3323 3825 5239 4230 5352 5854
8 3291 2256 3156 3277 5320 4285 5185 5306
8 3293 2169 3154 3278 5322 4198 5183 5307
8 3290 2419 3152 3280 5319 4448 5181 5309
8 3948 2212 3121 3316 5977 4241 5150 5345
8 3061 3828 3282 2171 5090 5857 5311 4200
8 3317 3831 2194 3122 5346 5860 4223 5151
8 3662 2396 3380 3652 5691 4425 5409 5681
8 2204 3264 2181 3349 4233 5293 4210 5378
8 3846 3354 3290 3801 5875 5383 5319 5830
8 2257 3266 2256 3352 4286 5295 4285 5381
8 3355 3291 3198 2234 5384 5320 5227 4263
8 3320 2276 3292 3321 5349 4305 5321 5350
8 3511 3398 3296 3362 5540 5427 5325 5391
8 2429 3362 3296 3856 4458 5391 5325 5885
8 3765 3365 3399 3298 5794 5394 5428 5327
8 3298 3366 3182 3765 5327 5395 5211 5794
8 3811 3841 3911 3705 5840 5870 5940 5734
8 3445 3300 3918 3416 5474 5329 5947 5445
8 2219 3579 2218 3343 4248 5608 4247 5372
8 2402 3315 2393 3367 4431 5344 4422 5396
8 2385 3580 2394 3342 4414 5609 4423 5371
8 2200 3368 3400 3310 4229 5397 5429 5339
8 3311 3981 3331 3943 5340 6010 5360 5972
8 3981 3311 3173 2423 6010 5340 5202 4452
8 3312 3931 3332 3374 5341 5960 5361 5403
8 3467 2264 3313 3333 5496 4293 5342 5362
8 3333 3313 3375 2263 5362 5342 5404 4292
8 3889 3421 3314 3838 5918 5450 5343 5867
8 3443 3575 3307 3417 5472 5604 5336 5446
8 3831 3317 3138 3826 5860 5346 5167 5855
8 3880 3681 3849 3376 5909 5710 5878 5405
8 3762 2298 3141 3713 5791 4327 5170 5742
8 3309 3939 2348 3369 5338 5968 4377 5398
8 3088 3275 3928 3916 5117 5304 5957 5945
8 3346 3822 2289 3326 5375 5851 4318 5355
8 2204 3405 3327 3264 4233 5434 5356 5293
8 3406 3328 3265 2420 5435 5357 5294 4449
8 3844 3360 3295 2191 5873 5389 5324 4220
8 3351 2192 3329 3267 5380 4221 5358 5296
8 3408 3330 3266 2257 5437 5359 5295 4286
8 2414 3331 3465 3522 4443 5360 5494 5551
8 4056 4038 3468 4055 6085 6067 5497 6084
8 3633 2241 3584 4008 5662 4270 5613 6037
8 3353 3349 3289 2182 5382 5378 5318 4211
8 3820 3357 3773 3336 5849 5386 5802 5365
8 3799 3365 3765 3338 5828 5394 5794 5367
8 2449 3799 3338 3221 4478 5828 5367 5250
8 3251 2272 3721 3898 5280 4301 5750 5927
8 3836 3340 3798 3226 5865 5369 5827 5255
8 3861 3387 2387 3341 5890 5416 4416 5370
8 3861 3386 3380 2396 5890 5415 5409 4425
8 3430 2385 3342 4052 5459 4414 5371 6081
8 3168 3238 2219 3343 5197 5267 4248 5372
8 3920 3422 3876 3345 5949 5451 5905 5374
8 3634 2289 3822 3423 5663 4318 5851 5452
8 3965 2267 3347 3953 5994 4296 5376 5982
8 3383 3953 3347 3381 5412 5982 5376 5410
8 3382 3974 3384 3348 5411 6003 5413 5377
8 3390 2420 3265 3350 5419 4449 5294 5379
8 3446 2257 3352 3391 5475 4286 5381 5420
8 3200 2410 3335 3801 5229 4439 5364 5830
8 2253 3817 3356 3396 4282 5846 5385 5425
8 2252 3890 3356 3461 4281 5919 5385 5490
8 3197 2170 3336 3773 5226 4199 5365 5802
8 3773 3357 3351 3293 5802 5386 5380 5322
8 3435 4025 4035 3358 5464 6054 6064 5387
8 3457 3397 3359 3509 5486 5426 5388 5538
8 3509 3359 3330 3408 5538 5388 5359 5437
8 3407 4033 4034 3360 5436 6062 6063 5389
8 3651 3254 3361 2213 5680 5283 5390 4242
8 3434 3989 2213 3361 5463 6018 4242 5390
8 3405 3510 3297 3327 5434 5539 5326 5356
8 3511 3362 3328 3406 5540 5391 5357 5435
8 2430 3432 2439 3363 4459 5461 4468 5392
8 3183 3888 3364 3934 5212 5917 5393 5963
8 2225 3934 3364 3433 4254 5963 5393 5462
8 3399 3798 2458 3298 5428 5827 4487 5327
8 3505 3608 3365 3799 5534 5637 5394 5828
8 4016 3444 3367 3418 6045 5473 5396 5447
8 3410 3557 3400 3368 5439 5586 5429 5397
8 2201 3410 3368 3323 4230 5439 5397 5352
8 3411 3558 3401 3369 5440 5587 5430 5398
8 2358 3414 3237 3370 4387 5443 5266 5399
8 3331 2414 3373 3943 5360 4443 5402 5972
8 3485 3528 3585 3906 5514 5557 5614 5935
8 3412 3374 3332 3930 5441 5403 5361 5959
8 2375 3971 3681 3880 4404 6000 5710 5909
8 3554 3640 3675 2366 5583 5669 5704 4395
8 2197 3680 3377 3674 4226 5709 5406 5703
8 3553 2197 3674 2198 5582 4226 5703 4227
8 3469 3402 3908 3481 5498 5431 5937 5510
8 3863 3862 3120 2230 5892 5891 5149 4259
8 3379 3402 3958 3957 5408 5431 5987 5986
8 3907 2207 3379 3949 5936 4236 5408 5978
8 3634 3423 3717 3381 5663 5452 5746 5410
8 3427 3422 3716 3382 5456 5451 5745 5411
8 2266 3569 3516 3383 4295 5598 5545 5412
8 3602 2359 3462 3517 5631 4388 5491 5546
8 3386 3861 3341 3235 5415 5890 5370 5264
8 3692 3387 3861 2396 5721 5416 5890 4425
8 2386 3616 3463 3518 4415 5645 5492 5547
8 2273 3952 3986 3464 4302 5981 6015 5493
8 3986 3952 3388 3506 6015 5981 5417 5535
8 3405 2204 3389 3447 5434 4233 5418 5476
8 3495 3389 3353 2205 5524 5418 5382 4234
8 3494 3944 3390 3892 5523 5973 5419 5921
8 3897 3449 2192 3392 5926 5478 4221 5421
8 3394 3970 3466 3961 5423 5999 5495 5990
8 3708 3395 3932 3441 5737 5424 5961 5470
8 3984 3931 3932 3395 6013 5960 5961 5424
8 4040 2281 3397 3457 6069 4310 5426 5486
8 4034 4033 3456 2214 6063 6062 5485 4243
8 3798 3399 3837 3226 5827 5428 5866 5255
8 3991 2349 3401 3451 6020 4378 5430 5480
8 2229 3469 3481 3937 4258 5498 5510 5966
8 2405 3652 3403 3460 4434 5681 5432 5489
8 3652 3380 3285 3403 5681 5409 5314 5432
8 3292 2276 3273 3404 5321 4305 5302 5433
8 2227 3510 3405 3447 4256 5539 5434 5476
8 3972 3511 3406 2421 6001 5540 5435 4450
8 3449 3946 4033 3407 5478 5975 6062 5436
8 3449 3407 3329 2192 5478 5436 5358 4221
8 3446 3955 3408 2257 5475 5984 5437 4286
8 3403 3424 3421 3460 5432 5453 5450 5489
8 3938 3476 3889 3409 5967 5505 5918 5438
8 3672 3485 3906 2328 5701 5514 5935 4357
8 3413 3586 3527 3484 5442 5615 5556 5513
8 3479 3414 3474 2367 5508 5443 5503 4396
8 3480 3415 3475 2221 5509 5444 5504 4250
8 3924 3475 3415 3905 5953 5504 5444 5934
8 3416 2439 3432 3491 5445 4468 5461 5520
8 3918 3253 2439 3416 5947 5282 4468 5445
8 3443 3417 3452 3940 5472 5446 5481 5969
8 2394 3453 4016 3418 4423 5482 6045 5447
8 3260 3420 2369 3716 5289 5449 4398 5745
8 3424 2406 3314 3421 5453 4435 5343 5450
8 3876 3422 3427 2370 5905 5451 5456 4399
8 3419 3423 3822 3261 5448 5452 5851 5290
8 3216 3508 3547 3425 5245 5537 5576 5454
8 3545 3506 2272 3426 5574 5535 4301 5455
8 2350 3540 3978 3500 4379 5569 6007 5529
8 3428 3976 3977 4026 5457 6005 6006 6055
8 3924 3429 3541 3488 5953 5458 5570 5517
8 2223 3429 2222 3371 4252 5458 4251 5400
8 4004 3472 2385 3430 6033 5501 4414 5459
8 3539 3492 2225 3433 5568 5521 4254 5462
8 3435 2281 2282 3999 5464 4310 4311 6028
8 3914 3438 3471 2224 5943 5467 5500 4253
8 3252 4023 3471 3438 5281 6052 5500 5467
8 3254 3651 3948 3439 5283 5680 5977 5468
8 4010 4002 2245 3532 6039 6031 4274 5561
8 3627 3878 3443 3530 5656 5907 5472 5559
8 3567 2217 3940 3452 5596 4246 5969 5481
8 2402 3367 3444 3529 4431 5396 5473 5558
8 3444 4016 3453 2403 5473 6045 5482 4432
8 3886 3885 3505 3531 5915 5914 5534 5560
8 3416 3491 2440 3445 5445 5520 4469 5474
8 3408 3955 2258 3509 5437 5984 4287 5538
8 2421 3406 2420 3448 4450 5435 4449 5477
8 3494 4032 3549 3944 5523 6061 5578 5973
8 3593 3903 2224 3560 5622 5932 4253 5589
8 3400 3557 3903 3450 5429 5586 5932 5479
8 3620 4038 4056 4048 5649 6067 6085 6077
8 3451 3401 3558 3990 5480 5430 5587 6019
8 3513 3578 3567 3452 5542 5607 5596 5481
8 3678 3589 2404 4031 5707 5618 4433 6060
8 3688 3617 3454 3630 5717 5646 5483 5659
8 3630 3454 3510 2227 5659 5483 5539 4256
8 3523 3573 2431 3574 5552 5602 4460 5603
8 3398 3511 3972 3455 5427 5540 6001 5484
8 3434 2214 3456 3497 5463 4243 5485 5526
8 2215 3631 3618 3456 4244 5660 5647 5485
8 3457 3998 3619 4040 5486 6027 5648 6069
8 2258 3998 3457 3509 4287 6027 5486 5538
8 3992 3569 2266 3582 6021 5598 4295 5611
8 4044 3638 3581 4024 6073 5667 5610 6053
8 3514 3459 3420 2378 5543 5488 5449 4407
8 3421 3889 3476 3460 5450 5918 5505 5489
8 2252 3546 2251 3508 4281 5575 4280 5537
8 3953 3383 4002 3965 5982 5412 6031 5994
8 3488 2245 3516 3601 5517 4274 5545 5630
8 3463 3519 3233 2387 5492 5548 5262 4416
8 3464 4006 3520 2273 5493 6035 5549 4302
8 2422 3677 3665 3693 4451 5706 5694 5722
8 2243 3515 3466 3572 4272 5544 5495 5601
8 4038 3620 3594 2327 6067 5649 5623 4356
8 2327 3594 4037 4036 4356 5623 6066 6065
8 3440 2303 3470 4017 5469 4332 5499 6046
8 3592 3560 2224 3471 5621 5589 4253 5500
8 2248 3592 3471 3492 4277 5621 5500 5521
8 2377 3596 3472 3562 4406 5625 5501 5591
8 2376 3562 3472 4004 4405 5591 5501 6033
8 3572 2242 3526 3473 5601 4271 5555 5502
8 3563 3473 3431 2220 5592 5502 5460 4249
8 3517 2368 3565 3602 5546 4397 5594 5631
8 3489 3474 3414 2358 5518 5503 5443 4387
8 3475 3924 3488 3601 5504 5953 5517 5630
8 3904 3236 2222 3905 5933 5265 4251 5934
8 3552 3625 4046 2404 5581 5654 6075 4433
8 3640 3554 3590 3555 5669 5583 5619 5584
8 3556 3894 3926 3591 5585 5923 5955 5620
8 3908 3378 3913 3481 5937 5407 5942 5510
8 3914 3557 3410 3482 5943 5586 5439 5511
8 2326 3558 3411 3483 4355 5587 5440 5512
8 3483 3440 4017 2326 5512 5469 6046 4355
8 2327 4036 3658 3524 4356 6065 5687 5553
8 4007 3547 3508 2251 6036 5576 5537 4280
8 3950 3487 3461 2275 5979 5516 5490 4304
8 4010 3532 3541 3979 6039 5561 5570 6008
8 3504 2269 3248 3607 5533 4298 5277 5636
8 4025 3490 3470 2303 6054 5519 5499 4332
8 3538 3497 4042 2237 5567 5526 6071 4266
8 2216 3551 3493 3534 4245 5580 5522 5563
8 3535 3494 3892 2411 5564 5523 5921 4440
8 2228 3548 3495 3536 4257 5577 5524 5565
8 3969 3550 3496 3537 5998 5579 5525 5566
8 3899 3496 3391 2235 5928 5525 5420 4264
8 3618 3656 2237 4042 5647 5685 4266 6071
8 3629 3574 2431 3661 5658 5603 4460 5690
8 2430 3498 3491 3432 4459 5527 5520 5461
8 2249 4005 3499 3617 4278 6034 5528 5646
8 3990 3594 3620 3451 6019 5623 5649 5480
8 2349 3991 3500 3978 4378 6020 5529 6007
8 3903 3593 3621 3450 5932 5622 5650 5479
8 2441 3982 4013 4012 4470 6011 6042 6041
8 3886 3531 3445 2440 5915 5560 5474 4469
8 2248 3503 3544 3592 4277 5532 5573 5621
8 3505 3885 3436 3608 5534 5914 5465 5637
8 3721 2272 3506 3388 5750 4301 5535 5417
8 3985 3654 3543 3605 6014 5683 5572 5634
8 3559 3643 2251 3546 5588 5672 4280 5575
8 3890 2252 3508 3216 5919 4281 5537 5245
8 3612 2258 3955 3967 5641 4287 5984 5996
8 3580 3722 3650 3512 5609 5751 5679 5541
8 2378 3519 3642 3514 4407 5548 5671 5543
8 3992 2244 3516 3569 6021 4273 5545 5598
8 3517 4051 3568 2368 5546 6080 5597 4397
8 2395 3960 3692 3923 4424 5989 5721 5952
8 3520 3643 3559 2274 5549 5672 5588 4303
8 3986 3506 2250 3521 6015 5535 4279 5550
8 2413 3625 3938 3522 4442 5654 5967 5551
8 3522 3465 3693 2413 5551 5494 5722 4442
8 3524 3468 4038 2327 5553 5497 6067 4356
8 3536 3495 2205 3525 5565 5524 4234 5554
8 3659 2228 3536 3614 5688 4257 5565 5643
8 4057 3722 3580 2385 6086 5751 5609 4414
8 3649 3579 2219 3526 5678 5608 4248 5555
8 3570 3527 3586 2285 5599 5556 5615 4314
8 4008 3584 3333 2263 6037 5613 5362 4292
8 3994 3587 3945 3529 6023 5616 5974 5558
8 3940 2217 3530 3443 5969 4246 5559 5472
8 3531 2449 3576 3445 5560 4478 5605 5474
8 4039 3622 3248 2268 6068 5651 5277 4297
8 3623 3895 3217 3933 5652 5924 5246 5962
8 2236 3537 3623 3533 4265 5566 5652 5562
8 3535 3945 3587 3993 5564 5974 5616 6022
8 3469 2229 3988 3987 5498 4258 6017 6016
8 3999 3963 2304 3490 6028 5992 4333 5519
8 3963 3682 3657 2304 5992 5711 5686 4333
8 3969 3704 3685 3612 5998 5733 5714 5641
8 3641 4014 3542 3606 5670 6043 5571 5635
8 4020 2248 3492 3539 6049 4277 5521 5568
8 3428 4026 4049 4027 5457 6055 6078 6056
8 4050 3540 2350 3708 6079 5569 4379 5737
8 3532 2245 3488 3541 5561 4274 5517 5570
8 2431 3641 3606 3673 4460 5670 5635 5702
8 3503 3653 3962 2270 5532 5682 5991 4299
8 3962 3543 3654 3241 5991 5572 5683 5270
8 3688 2250 3506 3545 5717 4279 5535 5574
8 3624 3988 2229 4007 5653 6017 4258 6036
8 3944 3549 3611 3448 5973 5578 5640 5477
8 3611 3549 4032 2412 5640 5578 6061 4441
8 3550 3969 3612 3967 5579 5998 5641 5996
8 3631 2215 3551 3609 5660 4244 5580 5638
8 2221 3894 3553 3480 4250 5923 5582 5509
8 3590 3554 3479 2367 5619 5583 5508 4396
8 2376 4004 3477 3555 4405 6033 5506 5584
8 3591 3925 3478 3556 5620 5954 5507 5585
8 3466 3970 2242 3572 5495 5999 4271 5601
8 3903 3557 3914 2224 5932 5586 5943 4253
8 3644 2251 3643 3615 5673 4280 5672 5644
8 3372 2274 3559 3891 5401 4303 5588 5920
8 4037 3594 3990 3561 6066 5623 6019 5590
8 3595 2304 3613 3658 5624 4333 5642 5687
8 3638 3600 3565 2368 5667 5629 5594 4397
8 3926 3564 2244 3599 5955 5593 4273 5628
8 3597 3590 2367 3600 5626 5619 4396 5629
8 4030 3994 2403 3603 6059 6023 4432 5632
8 3923 3662 3589 3678 5952 5691 5618 5707
8 3530 2217 3604 3588 5559 4246 5633 5617
8 2241 3633 4015 3578 4270 5662 6044 5607
8 3638 2368 3568 3581 5667 4397 5597 5610
8 3599 2244 3992 3639 5628 4273 6021 5668
8 3646 3669 3683 3571 5675 5698 5712 5600
8 3240 2432 3573 3983 5269 4461 5602 6012
8 3677 2422 3574 3629 5706 4451 5603 5658
8 3855 3831 3826 3575 5884 5860 5855 5604
8 3453 3512 2395 3577 5482 5541 4424 5606
8 3513 3941 2241 3578 5542 5970 4270 5607
8 3942 3941 3579 3649 5971 5970 5608 5678
8 3960 2395 3512 3650 5989 4424 5541 5679
8 3420 3459 3581 2369 5449 5488 5610 4398
8 3717 3458 3582 2266 5746 5487 5611 4295
8 2263 3484 3583 4008 4292 5513 5612 6037
8 3942 3467 3333 3584 5971 5496 5362 5613
8 3854 2285 3586 3127 5883 4314 5615 5156
8 3603 4046 3647 4030 5632 6075 5676 6059
8 3947 3648 3588 3604 5976 5677 5617 5633
8 4044 3562 2376 3597 6073 5591 4405 5626
8 4009 3563 2220 3598 6038 5592 4249 5627
8 2246 3501 3450 3621 4275 5530 5479 5650
8 3560 2247 3715 3593 5589 4276 5744 5622
8 3451 3620 4048 3991 5480 5649 6077 6020
8 3658 4036 4037 3595 5687 6065 6066 5624
8 3596 3616 2386 4057 5625 5645 4415 6086
8 3992 3582 2243 3639 6021 5611 4272 5668
8 3894 2221 3564 3926 5923 4250 5593 5955
8 3591 3926 3599 3598 5620 5955 5628 5627
8 3489 4027 2359 3602 5518 6056 4388 5631
8 4001 3648 3947 3663 6030 5677 5976 5692
8 3539 4005 2249 3605 5568 6034 4278 5634
8 3653 4020 3539 3605 5682 6049 5568 5634
8 3886 2440 3673 3606 5915 4469 5702 5635
8 4011 3621 3593 3715 6040 5650 5622 5744
8 3608 3837 3399 3365 5637 5866 5428 5394
8 4001 3664 2216 3648 6030 5693 4245 5677
8 3676 3610 3660 3626 5705 5639 5689 5655
8 2259 3698 4054 3671 4288 5727 6083 5700
8 3571 2305 3657 3646 5600 4334 5686 5675
8 3469 3987 3614 3959 5498 6016 5643 5988
8 4007 2251 3644 3624 6036 4280 5673 5653
8 3644 3615 4003 3660 5673 5644 6032 5689
8 3596 2377 3642 3616 5625 4406 5671 5645
8 3631 4045 3656 3618 5660 6074 5685 5647
8 3670 2282 3619 4053 5699 4311 5648 6082
8 3619 3998 3632 4041 5648 6027 5661 6070
8 3622 4039 3980 2246 5651 6068 6009 4275
8 4011 3607 3248 3622 6040 5636 5277 5651
8 3623 3933 3651 3533 5652 5962 5680 5562
8 3409 2414 3522 3938 5438 4443 5551 5967
8 3676 3626 3521 2250 5705 5655 5550 4279
8 3660 4003 3521 3626 5689 6032 5550 5655
8 3945 3628 2402 3529 5974 5657 4431 5558
8 2402 3628 3847 3912 4431 5657 5876 5941
8 3455 3972 3611 4043 5484 6001 5640 6072
8 2250 3688 3630 3676 4279 5717 5659 5705
8 3632 3612 3685 3698 5661 5641 5714 5727
8 3894 3556 2197 3553 5923 5585 4226 5582
8 2431 3573 2432 3641 4460 5602 4461 5670
8 2377 4024 3514 3642 4406 6053 5543 5671
8 2262 3996 3687 3667 4291 6025 5716 5696
8 4028 3687 3996 3691 6057 5716 6025 5720
8 4043 3611 2412 4047 6072 5640 4441 6076
8 2239 4029 3664 4001 4268 6058 5693 6030
8 3518 3960 3650 2386 5547 5989 5679 4415
8 2248 4020 3653 3503 4277 6049 5682 5532
8 3985 3507 2271 3654 6014 5536 4300 5683
8 3666 3670 3684 2283 5695 5699 5713 4312
8 3723 3655 4041 2259 5752 5684 6070 4288
8 3656 4054 4022 2237 5685 6083 6051 4266
8 2305 3613 2304 3657 4334 5642 4333 5686
8 3629 3661 3968 3995 5658 5690 5997 6024
8 3673 3498 3661 2431 5702 5527 5690 4460
8 3923 3692 2396 3662 5952 5721 4425 5691
8 3923 3678 3577 2395 5952 5707 5606 4424
8 4031 2404 4046 3603 6060 4433 6075 5632
8 2239 4028 3691 3997 4268 6057 5720 6026
8 3604 2240 3663 3947 5633 4269 5692 5976
8 4045 3631 3609 3679 6074 5660 5638 5708
8 4028 2239 4001 3663 6057 4268 6030 5692
8 3677 4047 2412 3665 5706 6076 4441 5694
8 3693 3665 3647 2413 5722 5694 5676 4442
8 3963 3999 2282 3682 5992 6028 4311 5711
8 3667 4015 3583 2262 5696 6044 5612 4291
8 4028 3663 2240 3687 6057 5692 4269 5716
8 3964 2261 3668 3689 5993 4290 5697 5718
8 3702 3954 3966 3911 5731 5983 5995 5940
8 3668 2284 3690 3689 5697 4313 5719 5718
8 3669 2283 3701 3690 5698 4312 5730 5719
8 3655 3684 3670 4053 5684 5713 5699 6082
8 3698 3685 4022 4054 5727 5714 6051 6083
8 3930 3524 3672 2328 5959 5553 5701 4357
8 3778 3377 3680 3319 5807 5406 5709 5348
8 3803 3318 3376 3849 5832 5347 5405 5878
8 2375 3880 3675 3640 4404 5909 5704 5669
8 3629 4043 4047 3677 5658 6072 6076 5706
8 4031 3566 3577 3678 6060 5595 5606 5707
8 2238 4045 3679 3699 4267 6074 5708 5728
8 3609 3664 4029 3679 5638 5693 6058 5708
8 3045 2934 2174 3695 5074 4963 4203 5724
8 3133 3044 2374 3696 5162 5073 4403 5725
8 3690 2284 3683 3669 5719 4313 5712 5698
8 4000 2260 3723 3686 6029 4289 5752 5715
8 2236 3538 2237 3704 4265 5567 4266 5733
8 3671 4054 3656 3686 5700 6083 5685 5715
8 3997 3700 4029 2239 6026 5729 6058 4268
8 2260 3701 2283 3684 4289 5730 4312 5713
8 3997 3691 3645 2261 6026 5720 5674 4290
8 3570 3645 3691 3996 5599 5674 5720 6025
8 2261 3964 3700 3997 4290 5993 5729 6026
8 4000 3694 3701 2260 6029 5723 5730 4289
8 3245 3134 3695 3834 5274 5163 5724 5863
8 2307 3811 3705 3299 4336 5840 5734 5328
8 2259 4041 3632 3698 4288 6070 5661 5727
8 3700 3699 3679 4029 5729 5728 5708 6058
8 3699 3700 3964 3706 5728 5729 5993 5735
8 3954 3707 3872 3966 5983 5736 5901 5995
8 3694 4000 3703 3706 5723 6029 5732 5735
8 3705 3872 3827 3299 5734 5901 5856 5328
8 3537 2236 3704 3969 5566 4265 5733 5998
8 3911 3841 3697 3702 5940 5870 5726 5731
8 3702 2284 3668 3954 5731 4313 5697 5983
8 2359 4050 3708 3462 4388 6079 5737 5491
8 2142 2596 2595 3712 4171 4625 4624 5741
8 3770 3062 2297 3714 5799 5091 4326 5743
8 4011 3715 3504 3607 6040 5744 5533 5636
8 3907 3949 3718 3031 5936 5978 5747 5060
8 2335 2631 2129 2543 4364 4660 4158 4572
8 3734 3104 2363 3720 5763 5133 4392 5749
8 2648 2580 3724 3725 4677 4609 5753 5754
8 2674 2618 3726 3727 4703 4647 5755 5756
8 2138 2553 3730 3729 4167 4582 5759 5758
8 3738 3731 2777 2381 5767 5760 4806 4410
8 3733 3732 3194 2372 5762 5761 5223 4401
8 3752 3751 2740 2469 5781 5780 4769 4498
8 2816 3760 2906 3771 4845 5789 4935 5800
8 3016 2208 3796 2897 5045 4237 5825 4926
8 3148 2416 3764 3800 5177 4445 5793 5829
8 3817 2253 3066 3768 5846 4282 5095 5797
8 3770 3769 3753 2812 5799 5798 5782 4841
8 3769 3770 3714 3813 5798 5799 5743 5842
8 3808 3828 3774 3775 5837 5857 5803 5804
8 3775 3774 2994 2980 5804 5803 5023 5009
8 2943 2177 2890 3795 4972 4206 4919 5824
8 3779 3778 3024 2175 5808 5807 5053 4204
8 3065 3126 2310 3782 5094 5155 4339 5811
8 3816 2917 3784 2231 5845 4946 5813 4260
8 3789 2895 2455 3786 5818 4924 4484 5815
8 2293 2949 3759 3788 4322 4978 5788 5817
8 3868 3223 3815 3867 5897 5252 5844 5896
8 3830 2971 3789 3823 5859 5000 5818 5852
8 3091 3011 3792 3793 5120 5040 5821 5822
8 3793 3792 2956 2459 5822 5821 4985 4488
8 2180 2862 2755 3818 4209 4891 4784 5847
8 3860 2294 2908 3797 5889 4323 4937 5826
8 3849 2374 3802 3803 5878 4403 5831 5832
8 3805 3804 3023 2365 5834 5833 5052 4394
8 3850 3376 3318 3804 5879 5405 5347 5833
8 2884 3806 3851 2891 4913 5835 5880 4920
8 3225 3851 3806 3807 5254 5880 5835 5836
8 3775 2172 3809 3808 5804 4201 5838 5837
8 3282 3828 3808 3809 5311 5857 5837 5838
8 3346 3126 3065 2288 5375 5155 5094 4317
8 3854 3127 3810 3827 5883 5156 5839 5856
8 3815 3814 3771 2906 5844 5843 5800 4935
8 3817 3768 3166 3292 5846 5797 5195 5321
8 3627 2193 3820 3865 5656 4222 5849 5894
8 2447 3830 3823 3859 4476 5859 5852 5888
8 3816 2231 3120 3862 5845 4260 5149 5891
8 3878 2194 3831 3855 5907 4223 5860 5884
8 3076 3882 2183 3835 5105 5911 4212 5864
8 2450 3884 3226 3837 4479 5913 5255 5866
8 3839 3838 3272 2415 5868 5867 5301 4444
8 3409 3889 3838 3839 5438 5918 5867 5868
8 3843 3842 3056 2974 5872 5871 5085 5003
8 3628 2411 3846 3847 5657 4440 5875 5876
8 3847 3846 3801 3335 5876 5875 5830 5364
8 3675 3880 3376 3850 5704 5909 5405 5879
8 3853 3852 2347 3916 5882 5881 4376 5945
8 3827 3872 3707 3854 5856 5901 5736 5883
8 3878 3855 3575 3443 5907 5884 5604 5472
8 3051 3857 3888 3183 5080 5886 5917 5212
8 3869 3857 3229 2203 5898 5886 5258 4232
8 3859 3213 3177 2447 5888 5242 5206 4476
8 3175 3900 2294 3860 5204 5929 4323 5889
8 3913 3378 3863 2230 5942 5407 5892 4259
8 2207 3907 3140 3864 4236 5936 5169 5893
8 3908 2207 3864 3378 5937 4236 5893 5407
8 3820 3336 3218 3865 5849 5365 5247 5894
8 3080 3867 3815 2906 5109 5896 5844 4935
8 3867 3902 3181 3868 5896 5931 5210 5897
8 3623 3899 3870 3895 5652 5928 5899 5924
8 3895 3870 3029 3217 5924 5899 5058 5246
8 3866 2293 3090 3875 5895 4322 5119 5904
8 3867 3080 2295 3902 5896 5109 4324 5931
8 3898 3721 3868 3181 5927 5750 5897 5210
8 2196 3873 3915 3238 4225 5902 5944 5267
8 2220 3431 3915 3893 4249 5460 5944 5922
8 3881 3877 2962 2356 5910 5906 4991 4385
8 3213 3918 3300 3177 5242 5947 5329 5206
8 3606 3936 3885 3886 5635 5965 5914 5915
8 3478 3925 2220 3893 5507 5954 4249 5922
8 3896 2189 3208 3171 5925 4218 5237 5200
8 3946 3449 3897 2215 5975 5478 5926 4244
8 2271 3951 3175 3901 4300 5980 5204 5930
8 3585 2329 3412 3906 5614 4358 5441 5935
8 3928 3909 3853 3916 5957 5938 5882 5945
8 3645 3570 2285 3910 5674 5599 4314 5939
8 3966 3872 3705 3911 5995 5901 5734 5940
8 3118 3315 2402 3912 5147 5344 4431 5941
8 3486 3937 3481 3913 5515 5966 5510 5942
8 3159 2291 2987 3921 5188 4320 5016 5950
8 3909 3928 3929 2325 5938 5957 5958 4354
8 3186 4021 3057 3927 5215 6050 5086 5956
8 3932 3931 3312 2351 5961 5960 5341 4380
8 3468 3332 3931 3984 5497 5361 5960 6013
8 2225 4023 3252 3934 4254 6052 5281 5963
8 3982 2441 3250 3935 6011 4470 5279 5964
8 3137 2189 3919 3887 5166 4218 5948 5916
8 3584 2241 3941 3942 5613 4270 5970 5971
8 3214 3438 3914 3482 5243 5467 5943 5511
8 2275 3883 3385 3950 4304 5912 5414 5979
8 3959 3525 2206 3958 5988 5554 4235 5987
8 2206 3525 3215 3119 4235 5554 5244 5148
8 3955 3446 3550 3967 5984 5475 5579 5996
8 4002 4010 3442 3965 6031 6039 5471 5994
8 3995 3968 3398 3455 6024 5997 5427 5484
8 3939 3309 3977 3976 5968 5338 6006 6005
8 3978 3977 3309 2349 6007 6006 5338 4378
8 3977 3978 3540 4026 6006 6007 5569 6055
8 3980 3979 3501 2246 6009 6008 5530 4275
8 3442 4010 3979 3980 5471 6039 6008 6009
8 3659 3614 3987 3988 5688 5643 6016 6017
8 3993 4032 3494 3535 6022 6061 5523 5564
8 2412 4032 3993 3587 4441 6061 6022 5616
8 3647 3587 3994 4030 5676 5616 6023 6059
8 3639 2243 3563 4009 5668 4272 5592 6038
8 4018 3242 4012 4019 6047 5271 6041 6048
8 4014 4013 3982 3542 6043 6042 6011 5571
8 4019 4014 3641 2432 6048 6043 5670 4461
8 4019 2432 3174 4018 6048 4461 5203 6047
8 3426 3507 3985 3545 5455 5536 6014 5574
8 3647 4046 3625 2413 5676 6075 5654 4442
8 3561 3470 3595 4037 5590 5499 5624 6066
8 3655 4053 3619 4041 5684 6082 5648 6070
8 4024 2377 3562 4044 6053 4406 5591 6073
8 4050 4049 4026 3540 6079 6078 6055 5569
8 3517 3462 3384 4051 5546 5491 5413 6080
8 3975 4052 3167 2384 6004 6081 5196 4413
8 3708 2350 4055 3395 5737 4379 6084 5424
8 4055 2350 3500 4056 6084 4379 5529 6085
8 4089 4587 4588 4500 6118 6616 6617 6529
8 4587 4586 4589 4588 6616 6615 6618 6617
8 4850 4192 4771 4813 6879 6221 6800 6842
8 4830 4793 4754 4191 6859 6822 6783 6220
8 5044 4213 5105 5864 7073 6242 7134 7893
8 5101 4885 4949 5027 7130 6914 6978 7056
8 4211 5318 5228 5853 6240 7347 7257 7882
8 5134 4187 5180 5048 7163 6216 7209 7077
8 4186 4957 5847 4784 6215 6986 7876 6813
8 4928 4208 4824 4891 6957 6237 6853 6920
8 4183 5159 5066 4998 6212 7188 7095 7027
8 4972 4814 4756 4183 7001 6843 6785 6212
8 4204 5053 4181 5036 6233 7082 6210 7065
8 4202 4834 4903 4963 6231 6863 6932 6992
8 4834 4797 4757 4179 6863 6826 6786 6208
8 5803 5098 5783 5023 7832 7127 7812 7052
8 5097 4883 4947 5024 7126 6912 6976 7053
8 4176 5097 4199 5226 6205 7126 6228 7255
8 4175 5183 5046 5136 6204 7212 7075 7165
8 4197 4890 4783 4956 6226 6919 6812 6985
8 4783 4890 4196 4822 6812 6919 6225 6851
8 4938 5013 4997 4867 6967 7042 7026 6896
8 4751 4170 4759 4816 6780 6199 6788 6845
8 4193 4590 4628 4751 6222 6619 6657 6780
8 4590 4690 4093 4519 6619 6719 6122 6548
8 4690 4591 4094 4093 6719 6620 6123 6122
8 4591 4592 4520 4094 6620 6621 6549 6123
8 4948 4239 5772 5025 6977 6268 7801 7054
8 4521 4096 4593 4594 6550 6125 6622 6623
8 4595 4596 4522 4098 6624 6625 6551 6127
8 4284 5137 4693 4596 6313 7166 6722 6625
8 4693 4597 4523 4099 6722 6626 6552 6128
8 4307 4761 4694 4597 6336 6790 6723 6626
8 4782 4888 4330 4821 6811 6917 6359 6850
8 5985 5193 5399 5266 8014 7222 7428 7295
8 5594 5503 5518 5631 7623 7532 7547 7660
8 6003 4398 5610 5597 8032 6427 7639 7626
8 5289 4408 5130 5219 7318 6437 7159 7248
8 4788 4836 4988 4418 6817 6865 7017 6447
8 5778 4799 4735 4428 7807 6828 6764 6457
8 4990 5217 4437 5069 7019 7246 6466 7098
8 5217 4838 4908 4437 7246 6867 6937 6466
8 5778 4428 4908 4838 7807 6457 6937 6867
8 4419 4552 4136 4735 6448 6581 6165 6764
8 4806 4551 4135 4598 6835 6580 6164 6627
8 4133 4134 5760 5761 6162 6163 7789 7790
8 4133 5761 5762 4550 6162 7790 7791 6579
8 4132 5763 5749 4549 6161 7792 7778 6578
8 4131 4599 4383 4548 6160 6628 6412 6577
8 4778 5766 4779 4752 6807 7795 6808 6781
8 4790 4779 4848 4338 6819 6808 6877 6367
8 5152 5092 5063 4315 7181 7121 7092 6344
8 5404 5342 5189 5152 7433 7371 7218 7181
8 4271 5999 5496 5971 6300 8028 7525 8000
8 5970 5542 4247 5608 7999 7571 6276 7637
8 5372 5336 4224 5197 7401 7365 6253 7226
8 4995 5076 5164 4923 7024 7105 7193 6952
8 4965 5765 4757 4797 6994 7794 6786 6826
8 4672 4600 4059 4058 6701 6629 6088 6087
8 4191 4601 4600 4850 6220 6630 6629 6879
8 4501 4059 4600 4601 6530 6088 6629 6630
8 4602 4603 4502 4061 6631 6632 6531 6090
8 4189 4674 4603 5664 6218 6703 6632 7693
8 4674 4604 4063 4062 6703 6633 6092 6091
8 4188 4605 4604 4859 6217 6634 6633 6888
8 4503 4063 4604 4605 6532 6092 6633 6634
8 4606 4607 4504 4065 6635 6636 6533 6094
8 4186 4676 4607 5134 6215 6705 6636 7163
8 4066 4676 4608 4505 6095 6705 6637 6534
8 4755 4185 4609 4677 6784 6214 6638 6706
8 5753 4609 4962 4668 7782 6638 6991 6697
8 4678 4610 4070 4069 6707 6639 6099 6098
8 4610 4611 4507 4070 6639 6640 6536 6099
8 4183 4756 4679 4611 6212 6785 6708 6640
8 4182 4612 4679 4756 6211 6641 6708 6785
8 5785 4911 4967 4182 7814 6940 6996 6211
8 4613 4681 4074 4509 6642 6710 6103 6538
8 5312 5146 4181 5053 7341 7175 6210 7082
8 4681 4614 4075 4074 6710 6643 6104 6103
8 5140 4903 4968 4180 7169 6932 6997 6209
8 4510 4075 4614 4615 6539 6104 6643 6644
8 4616 4617 4511 4077 6645 6646 6540 6106
8 4178 5665 4683 4617 6207 7694 6712 6646
8 4683 4618 4079 4078 6712 6647 6108 6107
8 4177 4857 4619 4618 6206 6886 6648 6647
8 4512 4079 4618 4619 6541 6108 6647 6648
8 4620 4621 4513 4081 6649 6650 6542 6110
8 5136 4685 4621 4175 7165 6714 6650 6204
8 4685 4622 4514 4082 6714 6651 6543 6111
8 4174 4758 4686 4622 6203 6787 6715 6651
8 4173 4623 4686 4758 6202 6652 6715 6787
8 4173 4955 4666 4623 6202 6984 6695 6652
8 4687 4624 4086 4085 6716 6653 6115 6114
8 4624 4625 4516 4086 6653 6654 6545 6115
8 4759 4688 4625 4171 6788 6717 6654 6200
8 4170 4626 4688 4759 6199 6655 6717 6788
8 4627 4689 4091 4518 6656 6718 6120 6547
8 4517 4088 4626 4627 6546 6117 6655 6656
8 4519 4092 4628 4590 6548 6121 6657 6619
8 4694 4629 4101 4100 6723 6658 6130 6129
8 4524 4101 4629 4630 6553 6130 6658 6659
8 4352 5031 4999 5160 6381 7060 7028 7189
8 5880 5254 5072 4920 7909 7283 7101 6949
8 5508 5298 5266 5443 7537 7327 7295 7472
8 5667 6073 5626 5629 7696 8102 7655 7658
8 5492 5645 5671 5548 7521 7674 7700 7577
8 5370 5187 4417 5264 7399 7216 6446 7293
8 4436 5218 5225 5138 6465 7247 7254 7167
8 5069 4446 4971 4990 7098 6475 7000 7019
8 4971 4446 4909 4847 7000 6475 6938 6876
8 4437 4554 4138 5069 6466 6583 6167 7098
8 4329 4952 4630 4629 6358 6981 6659 6658
8 4695 4631 4103 4102 6724 6660 6132 6131
8 4525 4103 4631 4632 6554 6132 6660 6661
8 4384 4633 4696 4762 6413 6662 6725 6791
8 5809 4912 4969 4384 7838 6941 6998 6413
8 4634 4698 4107 4527 6663 6727 6136 6556
8 5313 5145 4393 5052 7342 7174 6422 7081
8 4698 4635 4108 4107 6727 6664 6137 6136
8 5139 4904 4970 4402 7168 6933 6999 6431
8 4835 4798 4763 4411 6864 6827 6792 6440
8 5089 4421 5165 5168 7118 6450 7194 7197
8 4432 6023 5558 5473 6461 8052 7587 7502
8 5616 5676 5694 4441 7645 7705 7723 6470
8 6010 4452 5552 5422 8039 6481 7581 7451
8 5011 5111 5203 4462 7040 7140 7232 6491
8 4842 4868 4977 4472 6871 6897 7006 6501
8 4717 4744 4801 4482 6746 6773 6830 6511
8 4717 4559 4144 4490 6746 6588 6173 6519
8 4482 4143 4559 4717 6511 6172 6588 6746
8 4716 4558 4143 4482 6745 6587 6172 6511
8 4473 4142 4558 4716 6502 6171 6587 6745
8 4803 4773 4658 4473 6832 6802 6687 6502
8 4462 5005 4863 4936 6491 7034 6892 6965
8 5192 4453 5202 5340 7221 6482 7231 7369
8 5505 5967 5654 5581 7534 7996 7683 7610
8 5606 5595 4432 5482 7635 7624 6461 7511
8 5075 5196 5337 4422 7104 7225 7366 6451
8 5162 6004 4413 4994 7191 8033 6442 7023
8 4394 5052 4393 5035 6423 7081 6422 7064
8 4964 4835 4904 5831 6993 6864 6933 7860
8 4528 4108 4635 4636 6557 6137 6664 6665
8 4411 4763 4699 4636 6440 6792 6728 6665
8 4420 5775 4966 5008 6449 7804 6995 7037
8 5364 5900 5941 5876 7393 7929 7970 7905
8 5477 4449 5419 5973 7506 6478 7448 8002
8 5484 6072 5658 6024 7513 8101 7687 8053
8 5964 5531 5571 6011 7993 7560 7600 8040
8 5038 5118 6002 4471 7067 7147 8031 6500
8 4840 4878 4979 4481 6869 6907 7008 6510
8 5738 4742 4791 4490 7767 6771 6820 6519
8 4499 5738 4560 4145 6528 7767 6589 6174
8 4490 4144 4560 5738 6519 6173 6589 7767
8 4637 4638 4529 4110 6666 6667 6558 6139
8 5030 5805 4429 5666 7059 7834 6458 7695
8 4530 4112 4639 4640 6559 6141 6668 6669
8 4641 4642 4531 4114 6670 6671 6560 6143
8 5135 4702 4642 4447 7164 6731 6671 6476
8 4702 4643 4532 4115 6731 6672 6561 6144
8 4456 4764 4703 5769 6485 6793 6732 7798
8 4958 4892 4466 4785 6987 6921 6495 6814
8 5852 5818 5815 5077 7881 7847 7844 7106
8 4945 5796 4494 4768 6974 7825 6523 6797
8 4644 4711 4855 4495 6673 6740 6884 6524
8 4644 4712 4127 4542 6673 6741 6156 6571
8 4495 5330 4712 4644 6524 7359 6741 6673
8 4544 4543 4645 4713 6573 6572 6674 6742
8 4646 4714 4545 4128 6675 6743 6574 6157
8 5781 4879 4985 4944 7810 6908 7014 6973
8 5040 4878 5104 5821 7069 6907 7133 7850
8 5120 5865 5173 4480 7149 7894 7202 6509
8 5173 5913 5279 5951 7202 7942 7308 7980
8 5913 4479 5964 5279 7942 6508 7993 7308
8 4477 5329 5474 5605 6506 7358 7503 7634
8 5201 5238 5083 5002 7230 7267 7112 7031
8 4116 5756 5755 4117 6145 7785 7784 6146
8 4647 4961 4648 5755 6676 6990 6677 7784
8 5037 4483 5740 5748 7066 6512 7769 7777
8 4825 4493 4767 5792 6854 6522 6796 7821
8 4710 4649 4768 4494 6739 6678 6797 6523
8 4649 4710 4541 4540 6678 6739 6570 6569
8 4704 4650 4119 4118 6733 6679 6148 6147
8 4534 4119 4650 4651 6563 6148 6679 6680
8 4491 4652 4705 4765 6520 6681 6734 6794
8 4653 4706 4123 4536 6682 6735 6152 6565
8 4535 4121 4652 4653 6564 6150 6681 6682
8 4654 4707 4538 4537 6683 6736 6567 6566
8 4654 5770 4853 4707 6683 7799 6882 6736
8 4853 4492 4708 4707 6882 6521 6737 6736
8 4794 5792 4767 4492 6823 7821 6796 6521
8 4981 4817 4765 4483 7010 6846 6794 6512
8 5748 5054 4996 5037 7777 7083 7025 7066
8 4483 4651 4650 5740 6512 6680 6679 7769
8 4125 4539 4655 4709 6154 6568 6684 6738
8 4497 4646 4713 5373 6526 6675 6742 7402
8 4656 4715 4546 4129 6685 6744 6575 6158
8 5780 4781 4499 4769 7809 6810 6528 6798
8 4498 4656 4714 4854 6527 6685 6743 6883
8 4546 4715 4750 4547 6575 6744 6779 6576
8 4658 4141 4142 4473 6687 6170 6171 6502
8 4464 4808 4776 4659 6493 6837 6805 6688
8 5108 4453 4934 5005 7137 6482 6963 7034
8 5868 5402 4443 5438 7897 7431 6472 7467
8 4434 5581 4433 5618 6463 7610 6462 7647
8 5482 4423 5609 5541 7511 6452 7638 7570
8 4394 5070 5275 5834 6423 7099 7304 7863
8 4969 4912 5035 4393 6998 6941 7064 6422
8 4526 4105 4633 4657 6555 6134 6662 6686
8 4141 4658 4464 4557 6170 6687 6493 6586
8 4557 4464 4659 4140 6586 6493 6688 6169
8 4445 5177 4444 5301 6474 7206 6473 7330
8 5314 4435 5453 5432 7343 6464 7482 7461
8 5989 5547 5416 5721 8018 7576 7445 7750
8 5625 6086 4414 5501 7654 8115 6443 7530
8 5669 5584 5506 4404 7698 7613 7535 6433
8 5809 4384 4762 4815 7838 6413 6791 6844
8 4375 4762 4696 4632 6404 6791 6725 6661
8 4140 4659 4455 4556 6169 6688 6484 6585
8 4455 5779 4847 4909 6484 7808 6876 6938
8 5793 4445 4990 4971 7822 6474 7019 7000
8 4426 5068 5138 5225 6455 7097 7167 7254
8 5262 5187 5370 4416 7291 7216 7399 6445
8 5584 5619 5626 4405 7613 7648 7655 6434
8 5160 4999 4973 4375 7189 7028 7002 6404
8 4146 4752 4361 4575 6175 6781 6390 6604
8 4161 4575 4361 4725 6190 6604 6390 6754
8 4362 4740 4829 4896 6391 6769 6858 6925
8 4874 4943 4316 5019 6903 6972 6345 7048
8 5990 4294 5222 5263 8019 6323 7251 7292
8 5460 5502 5555 4248 7489 7531 7584 6277
8 5267 5944 5460 4248 7296 7973 7489 6277
8 4225 5076 4995 5163 6254 7105 7024 7192
8 4725 4807 4574 4161 6754 6836 6603 6190
8 4362 4876 4844 4807 6391 6905 6873 6836
8 4876 5366 5248 5317 6905 7395 7277 7346
8 4294 5448 5290 5222 6323 7477 7319 7251
8 5487 5544 4272 5611 7516 7573 6301 7640
8 5954 5620 5627 4249 7983 7649 7656 6278
8 5863 4226 5585 5507 7892 6255 7614 7536
8 5808 4204 5071 5276 7837 6233 7100 7305
8 4844 4363 4573 4160 6873 6392 6602 6189
8 4572 4159 5132 4364 6601 6188 7161 6393
8 4364 5132 5190 4976 6393 7161 7219 7005
8 5176 5257 4341 5123 7205 7286 6370 7152
8 5288 5376 4296 5221 7317 7405 6325 7250
8 6031 5412 5545 4274 8060 7441 7574 6303
8 5630 5593 4250 5504 7659 7622 6279 7533
8 5862 5297 5444 5509 7891 7326 7473 7538
8 4828 4342 4789 4739 6857 6371 6818 6768
8 4873 5016 4320 4942 6902 7045 6349 6971
8 5221 4296 5292 5129 7250 6325 7321 7158
8 5292 5471 6009 6068 7321 7500 8038 8097
8 5934 4251 5458 5953 7963 6280 7487 7982
8 5869 5194 5265 4228 7898 7223 7294 6257
8 4205 5824 4919 4992 6234 7853 6948 7021
8 5785 4182 4756 4814 7814 6211 6785 6843
8 4571 4157 5764 4365 6600 6186 7793 6394
8 4343 4800 4745 4837 6372 6829 6774 6866
8 4321 4980 4877 5041 6350 7009 6906 7070
8 5207 5121 5277 4298 7236 7150 7306 6327
8 5188 5292 6068 4297 7217 7321 8097 6326
8 5458 4252 5479 5530 7487 6281 7508 7559
8 5172 5352 5397 4229 7201 7381 7426 6258
8 5352 5172 5116 5854 7381 7201 7145 7883
8 4206 4972 4183 4998 6235 7001 6212 7027
8 4156 4571 4365 4724 6185 6600 6394 6753
8 4724 4366 4570 4156 6753 6395 6599 6185
8 4723 4367 4569 4155 6752 6396 6598 6184
8 4722 4368 4568 4154 6751 6397 6597 6183
8 4721 4369 4567 4153 6750 6398 6596 6182
8 4720 4370 4566 4152 6749 6399 6595 6181
8 4719 4371 4565 4151 6748 6400 6594 6180
8 4718 4372 4149 4150 6747 6401 6178 6179
8 4792 4373 4736 4743 6821 6402 6765 6772
8 5739 4669 4741 4374 7768 6698 6770 6403
8 5757 4562 4147 5739 7786 6591 6176 7768
8 4374 4753 4661 4726 6403 6782 6690 6755
8 4900 5776 5790 4870 6929 7805 7819 6899
8 5490 5516 5575 4281 7519 7545 7604 6310
8 4257 5688 5673 5689 6286 7717 7702 7718
8 5639 4256 5476 5577 7668 6285 7505 7606
8 4232 5178 5293 5356 6261 7207 7322 7385
8 4185 4784 4891 4824 6214 6813 6920 6853
8 5080 5001 4208 4928 7109 7030 6237 6957
8 5243 4230 5239 5082 7272 6259 7268 7111
8 5814 4824 4208 4960 7843 6853 6237 6989
8 4661 4727 4578 4577 6690 6756 6607 6606
8 4351 5777 4728 4727 6380 7806 6757 6756
8 4921 5742 5349 5051 6950 7771 7378 7080
8 5385 5846 5321 5433 7414 7875 7350 7462
8 6036 5515 5454 5576 8065 7544 7483 7605
8 5431 5498 5988 5987 7460 7527 8017 8016
8 4211 5363 4234 5382 6240 7392 6263 7411
8 4957 5048 5124 5847 6986 7077 7153 7876
8 4210 5293 5178 5124 6239 7322 7207 7153
8 4728 4662 4579 4164 6757 6691 6608 6193
8 4328 5144 4729 4662 6357 7173 6758 6691
8 5350 5335 4306 5316 7379 7364 6335 7345
8 5149 5057 5919 5245 7178 7086 7948 7274
8 6036 4258 5966 5515 8065 6287 7995 7544
8 5853 5055 5363 4211 7882 7084 7392 6240
8 5331 5228 5318 5308 7360 7257 7347 7337
8 4233 5378 5382 5418 6262 7407 7411 7447
8 4663 4671 4581 4580 6692 6700 6610 6609
8 4282 5021 4882 5095 6311 7050 6911 7124
8 5893 5823 5892 5407 7922 7852 7921 7436
8 5911 5105 5747 5986 7940 7134 7776 8015
8 5148 5244 5363 5055 7177 7273 7392 7084
8 4169 4585 4664 4734 6198 6614 6693 6763
8 4215 4771 4734 4664 6244 6800 6763 6693
8 4665 4732 4584 4583 6694 6761 6613 6612
8 4238 4770 4733 4732 6267 6799 6762 6761
8 4831 4215 4770 4795 6860 6244 6799 6824
8 4984 4932 5825 5251 7013 6961 7854 7280
8 5987 4235 5911 5986 8016 6264 7940 8015
8 5936 4984 5251 5169 7965 7013 7280 7198
8 5106 5891 5892 5823 7135 7920 7921 7852
8 5022 4946 5106 5045 7051 6975 7135 7074
8 5758 4665 4583 4167 7787 6694 6612 6196
8 5096 5022 5045 4238 7125 7051 7074 6267
8 5774 4795 4770 4238 7803 6824 6799 6267
8 4515 4084 4623 4666 6544 6113 6652 6695
8 4621 4620 5334 4175 6650 6649 7363 6204
8 4682 4757 5765 4616 6711 6786 7794 6645
8 4508 4072 4612 4667 6537 6101 6641 6696
8 5308 4187 4606 5331 7337 6216 6635 7360
8 4673 4754 4190 4602 6702 6783 6219 6631
8 4833 4796 4760 4193 6862 6825 6789 6222
8 5166 5916 5310 5088 7195 7945 7339 7117
8 5680 4242 6018 5562 7709 6271 8047 7591
8 4266 6051 5714 5733 6295 8080 7743 7762
8 4289 5713 5684 5752 6318 7742 7713 7781
8 5557 5600 5712 4335 7586 7629 7741 6364
8 5768 4780 4849 4861 7797 6809 6878 6890
8 4752 4146 4766 4778 6781 6175 6795 6807
8 5174 5819 4997 5078 7203 7848 7026 7107
8 5872 4219 5241 5871 7901 6248 7270 7900
8 5324 4243 5463 5390 7353 6272 7492 7419
8 5732 5685 6074 4267 7761 7714 8103 6296
8 5735 5993 5718 5723 7764 8022 7747 7752
8 4313 5731 5726 5712 6342 7760 7755 7741
8 4986 4337 4862 4914 7015 6366 6891 6943
8 4725 4361 4790 4740 6754 6390 6819 6769
8 4889 4822 4196 4954 6918 6851 6225 6983
8 5871 5200 5848 5085 7900 7229 7877 7114
8 5324 5214 5084 4220 7353 7243 7113 6249
8 5485 6062 5975 4244 7514 8091 8004 6273
8 4267 5728 5735 5732 6296 7757 7764 7761
8 5556 5599 6025 4291 7585 7628 8054 6320
8 5839 5156 4315 5063 7868 7185 6344 7092
8 5014 5092 4316 4943 7043 7121 6345 6972
8 5260 4930 4890 4197 7289 6959 6919 6226
8 5436 5389 5873 5358 7465 7418 7902 7387
8 5693 5638 5580 4245 7722 7667 7609 6274
8 6044 5696 5716 4269 8073 7725 7745 6298
8 5513 4292 5404 5442 7542 6321 7433 7471
8 5092 5152 5189 4316 7121 7181 7218 6345
8 5136 5046 4956 4174 7165 7075 6985 6203
8 5126 4198 5296 5182 7155 6227 7325 7211
8 4222 5522 5926 5421 6251 7551 7955 7450
8 5563 5617 5677 4245 7592 7646 7706 6274
8 6044 5662 6037 5612 8073 7691 8066 7641
8 4293 5496 5999 5423 6322 7525 8028 7452
8 5802 5322 5307 5226 7831 7351 7336 7255
8 4221 5380 5386 5421 6250 7409 7415 7450
8 5907 5656 5894 4223 7936 7685 7923 6252
8 5542 5481 5446 4247 7571 7510 7475 6276
8 5971 5678 5555 4271 8000 7707 7584 6300
8 5247 5059 5024 5151 7276 7088 7053 7180
8 5855 4224 5336 5604 7884 6253 7365 7633
8 5446 5336 5372 4247 7475 7365 7401 6276
8 4883 5783 5098 4947 6912 7812 7127 6976
8 5838 4201 5164 5167 7867 6230 7193 7196
8 4965 4923 5164 4201 6994 6952 7193 6230
8 4949 5029 5044 5864 6978 7058 7073 7893
8 4793 4927 4190 4754 6822 6956 6219 6783
8 4831 4813 4771 4215 6860 6842 6800 6244
8 5007 4216 4760 4796 7036 6245 6789 6825
8 5058 4240 5150 5246 7087 6269 7179 7275
8 5579 5475 5420 5525 7608 7504 7449 7554
8 5641 5661 6027 4287 7670 7690 8056 6316
8 5711 5695 5675 5686 7740 7724 7704 7715
8 5887 5403 5441 4358 7916 7432 7470 6387
8 4359 5015 5114 5315 6388 7044 7143 7344
8 4766 4383 4787 4780 6795 6412 6816 6809
8 5237 4218 5166 5174 7266 6247 7195 7203
8 5871 5241 5925 5200 7900 7270 7954 7229
8 5084 5872 5003 4930 7113 7901 7032 6959
8 5873 5182 5296 5358 7902 7211 7325 7387
8 4222 5421 5386 5849 6251 7450 7415 7878
8 5247 5365 4199 5059 7276 7394 6228 7088
8 4200 5311 5346 5151 6229 7340 7375 7180
8 5348 5709 5724 4203 7377 7738 7753 6232
8 4227 5703 5808 5276 6256 7732 7837 7305
8 5276 5071 4992 5205 7305 7100 7021 7234
8 4998 5116 5172 4206 7027 7145 7201 6235
8 5001 4231 5243 5082 7030 6260 7272 7111
8 5528 5462 5393 4255 7557 7491 7422 6284
8 4325 5252 5368 5171 6354 7281 7397 7200
8 4348 5143 4864 5091 6377 7172 6893 7120
8 4802 4372 4718 4747 6831 6401 6747 6776
8 4372 4736 4564 4149 6401 6765 6593 6178
8 4350 4792 4743 4839 6379 6821 6772 6868
8 4792 4741 4669 4373 6821 6770 6698 6402
8 4373 4669 4563 4148 6402 6698 6592 6177
8 5326 4255 5393 5898 7355 6284 7422 7927
8 5212 5963 5281 4231 7241 7992 7310 6260
8 5326 5898 4232 5356 7355 7927 6261 7385
8 5577 5476 5418 5524 7606 7505 7447 7553
8 5565 5554 5988 5643 7594 7583 8017 7672
8 4236 5937 5431 5408 6265 7966 7460 7437
8 4239 4691 4592 5772 6268 6720 6621 7801
8 5026 4948 5025 5099 7055 6977 7054 7128
8 4948 5026 5100 4884 6977 7055 7129 6913
8 4264 5420 5381 5384 6293 7449 7410 7413
8 5388 5426 5387 5323 7417 7455 7416 7352
8 5701 5642 4334 5514 7730 7671 6363 7543
8 5341 5403 5887 5153 7370 7432 7916 7182
8 4827 4872 4940 4382 6856 6901 6969 6411
8 5133 4975 4898 4392 7162 7004 6927 6421
8 4401 5133 5763 5762 6430 7162 7792 7791
8 4240 5310 5345 5150 6269 7339 7374 7179
8 5680 5962 4241 5977 7709 7991 6270 8006
8 5283 5214 5324 5390 7312 7243 7353 7419
8 5389 6063 4243 5324 7418 8092 6272 7353
8 5522 5580 4244 5926 7551 7609 6273 7955
8 5656 5559 5617 5563 7685 7588 7646 7592
8 5944 5902 5274 5922 7973 7931 7303 7951
8 5862 5509 5582 4227 7891 7538 7611 6256
8 5297 4228 5265 5933 7326 6257 7294 7962
8 4252 5400 5194 5339 6281 7429 7223 7368
8 5479 4252 5339 5429 7508 6281 7368 7458
8 5439 4230 5243 5511 7468 6259 7272 7540
8 5521 5500 6052 4254 7550 7529 8081 6283
8 5991 5682 5634 5572 8020 7711 7663 7601
8 5931 5113 5927 5210 7960 7142 7956 7239
8 4805 4371 4719 4772 6834 6400 6748 6801
8 4805 4747 4718 4371 6834 6776 6747 6400
8 5574 4278 5646 5717 7603 6307 7675 7746
8 5646 5528 4255 5483 7675 7557 6284 7512
8 5659 4256 5639 5705 7688 6285 7668 7734
8 5689 5639 5577 4257 7718 7668 7606 6286
8 5653 5673 5688 6017 7682 7702 7717 8046
8 5515 5942 4259 5454 7544 7971 6288 7483
8 5021 5057 5149 4260 7050 7086 7178 6289
8 4260 5813 4882 5021 6289 7842 6911 7050
8 4582 4166 4730 5759 6611 6195 6759 7788
8 4262 4594 4593 4858 6291 6623 6622 6887
8 4948 4884 4858 4239 6977 6913 6887 6268
8 4262 5100 4263 5227 6291 7129 6292 7256
8 4285 5295 5184 5127 6314 7324 7213 7156
8 6054 4332 5284 6064 8083 6361 7313 8093
8 4333 5624 5499 5519 6362 7653 7528 7548
8 5959 5361 5497 5553 7988 7390 7526 7582
8 5018 5128 5186 4381 7047 7157 7215 6410
8 5256 4391 5122 5175 7285 6420 7151 7204
8 5191 4401 5223 5285 7220 6430 7252 7314
8 5760 5767 5223 5761 7789 7796 7252 7790
8 5567 4265 5562 6018 7596 6294 7591 8047
8 6018 5463 5526 5567 8047 7492 7555 7596
8 6071 5526 5485 5647 8100 7555 7514 7676
8 4269 5633 4246 5596 6298 7662 6275 7625
8 6044 4269 5596 5607 8073 6298 7625 7636
8 4272 5601 5502 5592 6301 7630 7531 7621
8 5668 6038 5627 5628 7697 8067 7656 7657
8 5545 4273 5593 5630 7574 6302 7622 7659
8 6008 5570 5458 5530 8037 7599 7487 7559
8 5651 4275 5650 6040 7680 6304 7679 8069
8 5573 4276 5589 5621 7602 6305 7618 7650
8 4298 5533 5573 5466 6327 7562 7602 7495
8 5683 4300 5930 5270 7712 6329 7959 7299
8 4324 4982 4875 5042 6353 7011 6904 7071
8 4810 4370 4720 4775 6839 6399 6749 6804
8 4810 4772 4719 4370 6839 6801 6748 6399
8 5528 6034 5568 5462 7557 8063 7597 7491
8 5368 5750 5417 5981 7397 7779 7446 8010
8 5493 6015 5550 6032 7522 8044 7579 8061
8 6035 5644 5672 5549 8064 7673 7701 7578
8 6032 5644 6035 5493 8061 7673 8064 7522
8 5920 5588 5575 5516 7949 7617 7604 7545
8 5912 4304 5433 5302 7941 6333 7462 7331
8 5797 5095 4283 5195 7826 7124 6312 7224
8 4692 4595 4098 4097 6721 6624 6127 6126
8 5333 5306 5185 4284 7362 7335 7214 6313
8 4285 5127 5047 5185 6314 7156 7076 7214
8 5261 5956 5086 4931 7290 7985 7115 6960
8 4332 5469 5240 5284 6361 7498 7269 7313
8 5587 4355 5590 6019 7616 6384 7619 8048
8 5354 5287 5220 4390 7383 7316 7249 6419
8 5154 5816 4409 5093 7183 7845 6438 7122
8 4826 4897 4410 4737 6855 6926 6439 6766
8 5928 4264 5384 5899 7957 6293 7413 7928
8 5715 5752 4288 5700 7744 7781 6317 7729
8 5685 5732 6029 5715 7714 7761 8058 7744
8 5674 5939 5697 4290 7703 7968 7726 6319
8 5612 5513 5556 4291 7641 7542 7585 6320
8 5263 4293 5423 5990 7292 6322 7452 8019
8 5544 5487 5448 4294 7573 7516 7477 6323
8 5746 4295 5412 5410 7775 6324 7441 7439
8 5994 5471 5292 4296 8023 7500 7321 6325
8 5573 5533 5744 4276 7602 7562 7773 6305
8 4299 5466 5573 5532 6328 7495 7602 7561
8 5466 4299 5209 5278 7495 6328 7238 7307
8 4937 5806 4866 5826 6966 7835 6895 7855
8 4812 4369 4721 4777 6841 6398 6750 6806
8 4812 4775 4720 4369 6841 6804 6749 6398
8 5574 6014 5634 4278 7603 8043 7663 6307
8 5536 5455 5980 4300 7565 7484 8009 6329
8 5843 4325 5110 5010 7872 6354 7139 7039
8 5401 5230 5253 4303 7430 7259 7282 6332
8 5268 5414 5912 5231 7297 7443 7941 7260
8 5920 5414 5268 5401 7949 7443 7297 7430
8 5231 5912 5302 5874 7260 7941 7331 7903
8 5051 5144 4328 4993 7080 7173 6357 7022
8 4284 5185 5047 5137 6313 7214 7076 7166
8 4308 4888 4782 4951 6337 6917 6811 6980
8 4331 5199 5087 5004 6360 7228 7116 7033
8 5398 5430 4378 5338 7427 7459 6407 7367
8 6079 4388 6056 6078 8108 6417 8085 8107
8 5377 5413 5491 4389 7406 7442 7520 6418
8 4409 4871 5017 5093 6438 6900 7046 7122
8 4836 4788 4419 4746 6865 6817 6448 6775
8 4309 5184 5295 5359 6338 7213 7324 7388
8 5323 4309 5359 5388 7352 6338 7388 7417
8 4310 6069 5648 4311 6339 8098 7677 6340
8 5711 4311 5699 5695 7740 6340 7728 7724
8 5719 5730 5723 5718 7748 7759 7752 7747
8 5736 5983 5697 5939 7765 8012 7726 7968
8 5152 4315 5442 5404 7181 6344 7471 7433
8 5189 5131 5019 4316 7218 7160 7048 6345
8 4317 5131 5222 5290 6346 7160 7251 7319
8 5353 5288 5221 4319 7382 7317 7250 6348
8 4319 5221 5129 5861 6348 7250 7158 7890
8 5188 5121 5041 4320 7217 7150 7070 6349
8 5904 5119 5207 5278 7933 7148 7236 7307
8 5817 5812 4869 5039 7846 7841 6898 7068
8 4809 4368 4722 4774 6838 6397 6751 6803
8 4368 4721 4153 4568 6397 6750 6182 6597
8 4809 4777 4721 4368 6838 6806 6750 6397
8 4322 5895 5012 4978 6351 7924 7041 7007
8 4323 5929 5113 5042 6352 7958 7142 7071
8 4349 5798 5842 5142 6378 7827 7871 7171
8 5842 5743 5198 5142 7871 7772 7227 7171
8 4349 4989 4350 4839 6378 7018 6379 6868
8 4939 5050 4327 5791 6968 7079 6356 7820
8 4328 5777 4880 4993 6357 7806 6909 7022
8 4761 4782 4821 4329 6790 6811 6850 6358
8 4888 4931 5004 4330 6917 6960 7033 6359
8 5215 6064 5284 6050 7244 8093 7313 8079
8 5464 6028 5519 6054 7493 8057 7548 8083
8 5698 5675 5695 4312 7727 7704 7724 6341
8 5557 5514 4334 5600 7586 7543 6363 7629
8 5249 4335 5712 5726 7278 6364 7741 7755
8 5328 4986 5064 4336 7357 7015 7093 6365
8 4943 4874 4829 4338 6972 6903 6858 6367
8 5248 5155 5375 5355 7277 7184 7404 7384
8 4340 5299 5176 5123 6369 7328 7205 7152
8 5257 4873 4828 4341 7286 6902 6857 6370
8 4942 4877 4837 4342 6971 6906 6866 6371
8 4321 5039 4869 4980 6350 7068 6898 7009
8 4804 4367 4723 4749 6833 6396 6752 6778
8 4367 4722 4154 4569 6396 6751 6183 6598
8 4804 4774 4722 4367 6833 6803 6751 6396
8 4978 4866 4916 5788 7007 6895 6945 7817
8 4937 4875 4819 4345 6966 6904 6848 6374
8 4818 4346 4982 5043 6847 6375 7011 7072
8 5843 5010 4864 5800 7872 7039 6893 7829
8 4952 4887 5031 4352 6981 6916 7060 6381
8 5199 5958 5236 5087 7228 7987 7265 7116
8 5938 4354 5512 5440 7967 6383 7541 7469
8 6046 5499 5590 4355 8075 7528 7619 6384
8 5553 5687 5642 5701 7582 7716 7671 7730
8 5959 4357 5935 5441 7988 6386 7964 7470
8 5810 5062 5157 4987 7839 7091 7186 7016
8 5768 4861 4983 4360 7797 6890 7012 6389
8 4340 5123 4976 5190 6369 7152 7005 7219
8 5764 4660 4899 4739 7793 6689 6928 6768
8 4789 4745 4724 4365 6818 6774 6753 6394
8 4366 4723 4155 4570 6395 6752 6184 6599
8 4800 4749 4723 4366 6829 6778 6752 6395
8 4999 5117 5945 4376 7028 7146 7974 6405
8 4973 4815 4762 4375 7002 6844 6791 6404
8 6085 5529 6020 6077 8114 7558 8049 8106
8 5424 6084 5497 6013 7453 8113 7526 8042
8 4380 5341 5153 5186 6409 7370 7182 7215
8 4381 5114 5015 4940 6410 7143 7044 6969
8 4382 4849 4780 4787 6411 6878 6809 6816
8 4920 4385 4852 4913 6949 6414 6881 6942
8 5072 5193 5985 5910 7101 7222 8014 7939
8 5910 4385 4920 5072 7939 6414 6949 7101
8 4387 5457 6056 5518 6416 7486 8085 7547
8 4389 5491 5737 5470 6418 7520 7766 7499
8 4380 5186 5128 5291 6409 7215 7157 7320
8 4391 5256 5018 4872 6420 7285 7047 6901
8 4392 4898 4827 4738 6421 6927 6856 6767
8 4395 5704 5834 5275 6424 7733 7863 7304
8 5629 4396 5503 5594 7658 6425 7532 7623
8 5298 5508 5583 4395 7327 7537 7612 6424
8 5413 6003 5597 6080 7442 8032 7626 8109
8 5287 5377 4389 5220 7316 7406 6418 7249
8 4400 5300 5175 5122 6429 7329 7204 7151
8 4401 5191 4975 5133 6430 7220 7004 7162
8 5878 5710 5725 4403 7907 7739 7754 6432
8 5506 6033 5459 5273 7535 8062 7488 7302
8 5543 6053 5610 5488 7572 8082 7639 7517
8 4407 5449 5289 5219 6436 7478 7318 7248
8 5374 5154 5093 4408 7403 7183 7122 6437
8 5816 5141 4897 4409 7845 7170 6926 6438
8 4422 5165 5877 5075 6451 7194 7906 7104
8 4412 4994 5075 5877 6441 7023 7104 7906
8 6081 5371 5337 5196 8110 7400 7366 7225
8 6086 4415 5679 5751 8115 6444 7708 7780
8 5187 5262 5219 5130 7216 7291 7248 7159
8 5547 5492 4416 5416 7576 7521 6445 7445
8 4417 5017 4871 4941 6446 7046 6900 6970
8 4418 4826 4737 4788 6447 6855 6766 6817
8 4966 5775 4763 4798 6995 7804 6792 6827
8 5337 5447 5396 4422 7366 7476 7425 6451
8 5681 4434 5618 5691 7710 6463 7647 7720
8 5264 4417 4941 5161 7293 6446 6970 7190
8 5409 5415 4426 5314 7438 7444 6455 7343
8 4427 4836 4746 4799 6456 6865 6775 6828
8 4420 5666 4700 4638 6449 7695 6729 6667
8 5089 5103 5805 5030 7118 7132 7834 7059
8 5028 5102 4886 4950 7057 7131 6915 6979
8 5921 5419 5379 5383 7950 7448 7408 7412
8 5997 4459 5325 5427 8026 6488 7354 7456
8 4469 5520 5527 5702 6498 7549 7556 7731
8 5965 5635 5571 5531 7994 7664 7600 7560
8 4430 5168 5344 5147 6459 7197 7373 7176
8 6060 5632 4432 5595 8089 7661 6461 7624
8 5489 5505 5581 4434 7518 7534 7610 6463
8 5192 5402 5868 4444 7221 7431 7897 6473
8 5778 4838 5234 4907 7807 6867 7263 6936
8 5225 5218 5343 4435 7254 7247 7372 6464
8 4429 4860 4640 4639 6458 6889 6669 6668
8 5805 4886 4860 4429 7834 6915 6889 6458
8 4438 5102 4439 5229 6467 7131 6468 7258
8 5357 5179 5125 5294 7386 7208 7154 7323
8 4468 5282 5213 5392 6497 7311 7242 7421
8 4440 5657 5974 5564 6469 7686 8003 7593
8 5360 6010 5422 5494 7389 8039 7451 7523
8 4451 5722 5494 5422 6480 7751 7523 7451
8 5115 5177 5829 5006 7144 7206 7858 7035
8 4701 4641 4114 4113 6730 6670 6143 6142
8 5332 5309 5181 4447 7361 7338 7210 6476
8 4448 5125 5049 5181 6477 7154 7078 7210
8 4892 5259 5081 4929 6921 7288 7110 6958
8 4459 5392 5885 5325 6488 7421 7914 7354
8 4440 5921 5383 5875 6469 7950 7412 7904
8 5640 6001 4450 5477 7669 8030 6479 7506
8 4461 5269 5108 5203 6490 7298 7137 7232
8 6012 4452 5202 5269 8041 6481 7231 7298
8 5005 4934 4454 4863 7034 6963 6483 6892
8 4776 5779 4455 4659 6805 7808 6484 6688
8 4447 5181 5049 5135 6476 7210 7078 7164
8 5081 4467 5002 4929 7110 6496 7031 6958
8 5179 5357 5391 4458 7208 7386 7420 6487
8 4459 5997 5690 5527 6488 8026 7719 7556
8 5603 4451 5422 5552 7632 6480 7451 7581
8 4471 5011 4865 4977 6500 7040 6894 7006
8 4462 4936 4865 5011 6491 6965 6894 7040
8 4808 4464 4658 4773 6837 6493 6687 6802
8 4764 4785 4823 4465 6793 6814 6852 6494
8 6002 5208 5271 5111 8031 7237 7300 7140
8 4801 4748 4716 4482 6830 6777 6745 6511
8 4803 4473 4716 4748 6832 6502 6745 6777
8 4959 5033 5784 4893 6988 7062 7813 6922
8 4895 4925 5158 4485 6924 6954 7187 6514
8 5211 4881 5020 4486 7240 6910 7049 6515
8 5351 4496 5330 5395 7380 6525 7359 7424
8 5395 5327 4487 5351 7424 7356 6516 7380
8 5373 5272 5232 4497 7402 7301 7261 6526
8 5272 5303 4488 5232 7301 7332 6517 7261
8 5822 4488 5303 5369 7851 6517 7332 7398
8 5560 5534 5828 4478 7589 7563 7857 6507
8 5965 5531 5465 5914 7994 7560 7494 7943
8 5065 5158 4477 5250 7094 7187 6506 7279
8 5211 4486 5367 5794 7240 6515 7396 7823
8 4979 5903 5038 4868 7008 7932 7067 6897
8 4981 4484 4924 4901 7010 6513 6953 6930
8 5820 5000 4925 5795 7849 7029 6954 7824
8 5020 4945 4485 5850 7049 6974 6514 7879
8 4489 4840 4744 4791 6518 6869 6773 6820
8 4483 4765 4705 4651 6512 6794 6734 6680
8 5770 4491 4765 4817 7799 6520 6794 6846
8 4945 4768 4493 4786 6974 6797 6522 6815
8 4494 5796 4881 4855 6523 7825 6910 6884
8 5232 4879 4854 4497 7261 6908 6883 6526
8 4850 4600 4672 4192 6879 6629 6701 6221
8 4859 4604 4674 4189 6888 6633 6703 6218
8 5331 4606 4675 5771 7360 6635 6704 7800
8 4755 4608 4676 4186 6784 6637 6705 6215
8 4509 4073 4680 4613 6538 6102 6709 6642
8 4180 4968 4614 4681 6209 6997 6643 6710
8 5665 4177 4618 4683 7694 6206 6647 6712
8 4176 5334 4620 4684 6205 7363 6649 6713
8 5136 4174 4622 4685 7165 6203 6651 6714
8 4627 4518 4090 4517 6656 6547 6119 6546
8 4751 4628 4689 4170 6780 6657 6718 6199
8 4216 4591 4690 4760 6245 6620 6719 6789
8 4858 4593 4691 4239 6887 6622 6720 6268
8 5773 5333 4595 4692 7802 7362 6624 6721
8 5137 4307 4597 4693 7166 6336 6626 6722
8 4694 4761 4329 4629 6723 6790 6358 6658
8 4352 5160 4631 4695 6381 7189 6660 6724
8 4527 4106 4697 4634 6556 6135 6726 6663
8 4402 4970 4635 4698 6431 6999 6664 6727
8 5775 4637 4699 4763 7804 6666 6728 6792
8 5666 4429 4639 4700 7695 6458 6668 6729
8 4438 5332 4641 4701 6467 7361 6670 6730
8 5135 5769 4643 4702 7164 7798 6672 6731
8 4703 4764 4465 4647 6732 6793 6494 6676
8 4474 5740 4650 4704 6503 7769 6679 6733
8 4653 4536 4122 4535 6682 6565 6151 6564
8 5770 4654 4706 4491 7799 6683 6735 6520
8 4539 4124 4708 4655 6568 6153 6737 6684
8 4540 4125 4709 4649 6569 6154 6738 6678
8 4542 4126 4711 4644 6571 6155 6740 6673
8 5330 4496 4645 4712 7359 6525 6674 6741
8 4547 4750 4561 4130 6576 6779 6590 6159
8 4383 4766 4146 4548 6412 6795 6175 6577
8 4599 4131 4549 5749 6628 6160 6578 7778
8 4550 5762 5763 4132 6579 7791 7792 6161
8 4806 5760 4134 4551 6835 7789 6163 6580
8 4598 4135 4552 4419 6627 6164 6581 6448
8 4735 4136 4553 4428 6764 6165 6582 6457
8 4908 4137 4554 4437 6937 6166 6583 6466
8 5069 4138 4555 4446 7098 6167 6584 6475
8 4909 4139 4556 4455 6938 6168 6585 6484
8 4561 4750 4499 4145 6590 6779 6528 6174
8 4562 5757 4576 4162 6591 7786 6605 6191
8 4669 5739 4147 4563 6698 7768 6176 6592
8 4736 4373 4148 4564 6765 6402 6177 6593
8 4371 4718 4150 4565 6400 6747 6179 6594
8 4370 4719 4151 4566 6399 6748 6180 6595
8 4369 4720 4152 4567 6398 6749 6181 6596
8 4363 5132 4159 4573 6392 7161 6188 6602
8 4807 4844 4160 4574 6836 6873 6189 6603
8 4577 4163 4726 4661 6606 6192 6755 6690
8 4729 5144 4306 4663 6758 7173 6335 6692
8 5335 4671 4663 4306 7364 6700 6692 6335
8 4731 5096 4665 5758 6760 7125 6694 7787
8 4585 4168 4733 4664 6614 6197 6762 6693
8 4586 4169 4734 4589 6615 6198 6763 6618
8 4588 4672 4058 4500 6617 6701 6087 6529
8 4192 4672 4588 4589 6221 6701 6617 6618
8 4192 4589 4734 4771 6221 6618 6763 6800
8 4193 4760 4690 4590 6222 6789 6719 6619
8 4592 4691 4095 4520 6621 6720 6124 6549
8 4216 5772 4592 4591 6245 7801 6621 6620
8 4691 4593 4096 4095 6720 6622 6125 6124
8 4594 4692 4097 4521 6623 6721 6126 6550
8 4596 4595 5333 4284 6625 6624 7362 6313
8 5333 5773 4262 5227 7362 7802 6291 7256
8 4596 4693 4099 4522 6625 6722 6128 6551
8 4597 4694 4100 4523 6626 6723 6129 6552
8 4806 4598 4737 4410 6835 6627 6766 6439
8 4787 4383 4599 4738 6816 6412 6628 6767
8 4738 4599 5749 4392 6767 6628 7778 6421
8 4601 4673 4060 4501 6630 6702 6089 6530
8 4191 4754 4673 4601 6220 6783 6702 6630
8 4673 4602 4061 4060 6702 6631 6090 6089
8 4603 4674 4062 4502 6632 6703 6091 6531
8 5664 4603 4602 4190 7693 6632 6631 6219
8 4949 4189 5664 5029 6978 6218 7693 7058
8 4605 4675 4064 4503 6634 6704 6093 6532
8 4188 5771 4675 4605 6217 7800 6704 6634
8 4675 4606 4065 4064 6704 6635 6094 6093
8 4607 4676 4066 4504 6636 6705 6095 6533
8 5134 4607 4606 4187 7163 6636 6635 6216
8 4067 4505 4608 5754 6096 6534 6637 7783
8 4068 4067 5754 5753 6097 6096 7783 7782
8 5753 4668 4506 4068 7782 6697 6535 6097
8 5786 5066 5159 4184 7815 7095 7188 6213
8 4668 4962 4184 4678 6697 6991 6213 6707
8 4611 4679 4071 4507 6640 6708 6100 6536
8 4610 5159 4183 4611 6639 7188 6212 6640
8 4679 4612 4072 4071 6708 6641 6101 6100
8 5036 4181 4967 4911 7065 6210 6996 6940
8 5140 4180 5146 5312 7169 6209 7175 7341
8 4615 4682 4076 4510 6644 6711 6105 6539
8 4834 4179 4968 4903 6863 6208 6997 6932
8 4179 4757 4682 4615 6208 6786 6711 6644
8 4682 4616 4077 4076 6711 6645 6106 6105
8 4617 4683 4078 4511 6646 6712 6107 6540
8 5765 4178 4617 4616 7794 6207 6646 6645
8 5023 5783 4177 5665 7052 7812 6206 7694
8 4619 4684 4080 4512 6648 6713 6109 6541
8 4684 4619 4857 4176 6713 6648 6886 6205
8 4684 4620 4081 4080 6713 6649 6110 6109
8 4621 4685 4082 4513 6650 6714 6111 6542
8 4622 4686 4083 4514 6651 6715 6112 6543
8 4686 4623 4084 4083 6715 6652 6113 6112
8 5032 4938 5741 4172 7061 6967 7770 6201
8 4666 4955 4172 4687 6695 6984 6201 6716
8 4625 4688 4087 4516 6654 6717 6116 6545
8 4867 4171 5741 4938 6896 6200 7770 6967
8 4688 4626 4088 4087 6717 6655 6117 6116
8 4170 4689 4627 4626 6199 6718 6656 6655
8 4689 4628 4092 4091 6718 6657 6121 6120
8 4630 4695 4102 4524 6659 6724 6131 6553
8 4821 4887 4952 4329 6850 6916 6981 6358
8 4630 4952 4352 4695 6659 6981 6381 6724
8 4632 4696 4104 4525 6661 6725 6133 6554
8 4631 5160 4375 4632 6660 7189 6404 6661
8 4696 4633 4105 4104 6725 6662 6134 6133
8 5139 4402 5145 5313 7168 6431 7174 7342
8 4636 4699 4109 4528 6665 6728 6138 6557
8 4835 4411 4970 4904 6864 6440 6999 6933
8 4699 4637 4110 4109 6728 6666 6139 6138
8 4638 4700 4111 4529 6667 6729 6140 6558
8 5775 4420 4638 4637 7804 6449 6667 6666
8 4700 4639 4112 4111 6729 6668 6141 6140
8 4640 4701 4113 4530 6669 6730 6142 6559
8 4701 4640 4860 4438 6730 6669 6889 6467
8 4642 4641 5332 4447 6671 6670 7361 6476
8 4642 4702 4115 4531 6671 6731 6144 6560
8 4116 4532 4643 5756 6145 6561 6672 7785
8 4494 4855 4711 4710 6523 6884 6740 6739
8 4712 4645 4543 4127 6741 6674 6572 6156
8 4646 4128 4544 4713 6675 6157 6573 6742
8 5351 5272 5373 4496 7380 7301 7402 6525
8 4656 4129 4545 4714 6685 6158 6574 6743
8 4497 4854 4714 4646 6526 6883 6743 6675
8 5755 4648 4533 4117 7784 6677 6562 6146
8 4648 4704 4118 4533 6677 6733 6147 6562
8 4647 4465 4893 4961 6676 6494 6922 6990
8 4767 4493 4709 4655 6796 6522 6738 6684
8 4648 4961 4474 4704 6677 6990 6503 6733
8 4651 4705 4120 4534 6680 6734 6149 6563
8 4705 4652 4121 4120 6734 6681 6150 6149
8 4491 4706 4653 4652 6520 6735 6682 6681
8 4706 4654 4537 4123 6735 6683 6566 6152
8 4498 4769 4715 4656 6527 6798 6744 6685
8 4106 4526 4657 4697 6135 6555 6686 6726
8 4384 4969 4657 4633 6413 6998 6686 6662
8 4660 5764 4157 4158 6689 7793 6186 6187
8 4351 4727 4661 4753 6380 6756 6690 6782
8 4662 4729 4165 4579 6691 6758 6194 6608
8 4729 4663 4580 4165 6758 6692 6609 6194
8 4215 4664 4733 4770 6244 6693 6762 6799
8 5096 4731 4261 5022 7125 6760 6290 7051
8 4731 4670 4856 4261 6760 6699 6885 6290
8 4085 4515 4666 4687 6114 6544 6695 6716
8 4822 4889 4955 4173 6851 6918 6984 6202
8 4073 4508 4667 4680 6102 6537 6696 6709
8 4182 4967 4667 4612 6211 6996 6696 6641
8 4069 4506 4668 4678 6098 6535 6697 6707
8 4609 4185 4894 4962 6638 6214 6923 6991
8 4856 4730 4671 4283 6885 6759 6700 6312
8 4730 4166 4581 4671 6759 6195 6610 6700
8 5195 4283 4671 5335 7224 6312 6700 7364
8 5754 4608 4755 4677 7783 6637 6784 6706
8 4184 5159 4610 4678 6213 7188 6639 6707
8 5146 4613 4680 4181 7175 6642 6709 6210
8 4172 5741 4624 4687 6201 7770 6653 6716
8 4393 5145 4634 4697 6422 7174 6663 6726
8 5769 4703 5756 4643 7798 6732 7785 6672
8 4124 4538 4707 4708 6153 6567 6736 6737
8 4492 4767 4655 4708 6521 6796 6684 6737
8 4493 4768 4649 4709 6522 6797 6678 6738
8 4126 4541 4710 4711 6155 6570 6739 6740
8 4499 4750 4715 4769 6528 6779 6744 6798
8 4800 4366 4724 4745 6829 6395 6753 6774
8 4807 4725 4740 4362 6836 6754 6769 6391
8 5757 5739 4374 4726 7786 7768 6403 6755
8 5757 4726 4163 4576 7786 6755 6192 6605
8 4164 4578 4727 4728 6193 6607 6756 6757
8 5777 4328 4662 4728 7806 6357 6691 6757
8 4856 4670 5759 4730 6885 6699 7788 6759
8 5759 4670 4731 5758 7788 6699 6760 7787
8 4168 4584 4732 4733 6197 6613 6761 6762
8 4665 5096 4238 4732 6694 7125 6267 6761
8 4799 4746 4419 4735 6828 6775 6448 6764
8 4788 4737 4598 4419 6817 6766 6627 6448
8 4382 4787 4738 4827 6411 6816 6767 6856
8 4789 4365 5764 4739 6818 6394 7793 6768
8 4341 4828 4739 4899 6370 6857 6768 6928
8 4752 4779 4790 4361 6781 6808 6819 6390
8 4741 4900 4753 4374 6770 6929 6782 6403
8 4900 4741 4792 5776 6929 6770 6821 7805
8 4781 5780 4820 4742 6810 7809 6849 6771
8 4781 4742 5738 4499 6810 6771 7767 6528
8 5782 4839 4743 4802 7811 6868 6772 6831
8 4802 4743 4736 4372 6831 6772 6765 6401
8 4481 4801 4744 4840 6510 6830 6773 6869
8 4791 4744 4717 4490 6820 6773 6746 6519
8 4342 4837 4745 4789 6371 6866 6774 6818
8 4841 5782 4802 4747 6870 7811 6831 6776
8 4348 4841 4747 4805 6377 6870 6776 6834
8 4472 4803 4748 4842 6501 6832 6777 6871
8 4481 4842 4748 4801 6510 6871 6777 6830
8 4344 4804 4749 4843 6373 6833 6778 6872
8 4343 4843 4749 4800 6372 6872 6778 6829
8 4751 4816 4833 4193 6780 6845 6862 6222
8 4753 4900 4870 4351 6782 6929 6899 6380
8 4186 4784 4185 4755 6215 6813 6214 6784
8 4822 4173 4758 4783 6851 6202 6787 6812
8 4912 5809 4913 4852 6941 7838 6942 6881
8 4832 4853 5770 4817 6861 6882 7799 6846
8 4780 5768 4778 4766 6809 7797 6807 6795
8 5061 4825 5792 4794 7090 6854 7821 6823
8 4348 4805 4772 5143 6377 6834 6801 7172
8 5143 4772 4810 4845 7172 6801 6839 6874
8 4463 4808 4773 4915 6492 6837 6802 6944
8 4345 4809 4774 4846 6374 6838 6803 6875
8 4804 4916 4846 4774 6833 6945 6875 6803
8 4347 4810 4775 4818 6376 6839 6804 6847
8 4454 4811 4917 4863 6483 6840 6946 6892
8 5779 4776 4917 4811 7808 6805 6946 6840
8 4346 4812 4777 4819 6375 6841 6806 6848
8 4345 4819 4777 4809 6374 6848 6806 6838
8 5766 4778 5768 4360 7795 6807 7797 6389
8 5766 4862 4848 4779 7795 6891 6877 6808
8 4489 4791 4742 4820 6518 6820 6771 6849
8 4951 4782 4761 4307 6980 6811 6790 6336
8 4956 4783 4758 4174 6985 6812 6787 6203
8 5841 4823 4785 4466 7870 6852 6814 6495
8 4958 4785 4764 4456 6987 6814 6793 6485
8 4485 4945 4786 4895 6514 6974 6815 6924
8 4786 5795 4925 4895 6815 7824 6954 6924
8 4338 4829 4740 4790 6367 6858 6769 6819
8 4943 4338 4848 5014 6972 6367 6877 7043
8 5908 4927 4793 4933 7937 6956 6822 6962
8 4933 4793 4830 4214 6962 6822 6859 6243
8 5061 4794 4832 4901 7090 6823 6861 6930
8 4214 4831 4795 4918 6243 6860 6824 6947
8 5774 4926 4918 4795 7803 6955 6947 6824
8 4833 4194 4902 4796 6862 6223 6931 6825
8 4923 4965 4797 4905 6952 6994 6826 6934
8 4202 4905 4797 4834 6231 6934 6826 6863
8 4922 4966 4798 4906 6951 6995 6827 6935
8 4964 4906 4798 4835 6993 6935 6827 6864
8 5068 4427 4907 5138 7097 6456 6936 7167
8 4910 4847 5779 4811 6939 6876 7808 6840
8 5006 4910 4811 4454 7035 6939 6840 6483
8 4346 4818 4775 4812 6375 6847 6804 6841
8 4830 4191 4850 4813 6859 6220 6879 6842
8 4831 4214 4830 4813 6860 6243 6859 6842
8 5785 4814 4205 4851 7814 6843 6234 6880
8 5824 4205 4814 4972 7853 6234 6843 7001
8 5835 4913 5809 4815 7864 6942 7838 6844
8 4901 4832 4817 4981 6930 6861 6846 7010
8 4818 5043 5789 4347 6847 7072 7818 6376
8 4982 4346 4819 4875 7011 6375 6848 6904
8 4498 4854 4879 5781 6527 6883 6908 7810
8 4944 4820 5780 5781 6973 6849 7809 7810
8 4887 4821 4330 4953 6916 6850 6359 6982
8 4955 4889 5032 4172 6984 6918 7061 6201
8 4959 4893 4465 4823 6988 6922 6494 6852
8 5858 4959 4823 5841 7887 6988 6852 7870
8 5814 4894 4185 4824 7843 6923 6214 6853
8 5814 5034 5786 4894 7843 7063 7815 6923
8 5795 4786 4493 4825 7824 6815 6522 6854
8 4897 4826 4871 4409 6926 6855 6900 6438
8 4872 4827 4898 4391 6901 6856 6927 6420
8 4942 4342 4828 4873 6971 6371 6857 6902
8 4896 4829 4874 5811 6925 6858 6903 7840
8 4853 4832 4794 4492 6882 6861 6823 6521
8 4833 4816 4867 4194 6862 6845 6896 6223
8 5074 4995 4202 4963 7103 7024 6231 6992
8 4203 4963 4903 5140 6232 6992 6932 7169
8 4906 4964 5073 4412 6935 6993 7102 6441
8 5161 4941 4418 4988 7190 6970 6447 7017
8 4980 4343 4837 4877 7009 6372 6866 6906
8 5050 4939 4350 4989 7079 6968 6379 7018
8 5798 4349 4839 5782 7827 6378 6868 7811
8 4989 4349 5142 5067 7018 6378 7171 7096
8 5812 4344 4843 4869 7841 6373 6872 6898
8 5317 4363 4844 4876 7346 6392 6873 6905
8 5800 4864 5143 4845 7829 6893 7172 6874
8 5789 4845 4810 4347 7818 6874 6839 6376
8 4936 4463 4915 4865 6965 6492 6944 6894
8 4937 4345 4846 5806 6966 6374 6875 7835
8 4866 5806 4846 4916 6895 7835 6875 6945
8 5793 4971 4847 4910 7822 7000 6876 6939
8 5014 4848 4862 4337 7043 6877 6891 6366
8 4861 4849 5015 4359 6890 6878 7044 6388
8 5036 4911 5785 4851 7065 6940 7814 6880
8 4991 4974 4852 4385 7020 7003 6881 6414
8 4759 4171 4867 4816 6788 6200 6896 6845
8 5777 4351 4870 4880 7806 6380 6899 6909
8 5211 4495 4855 4881 7240 6524 6884 6910
8 5813 4261 4856 4882 7842 6290 6885 6911
8 5097 4176 4857 4883 7126 6205 6886 6912
8 5100 4262 4858 4884 7129 6291 6887 6913
8 4885 5101 4188 4859 6914 7130 6217 6888
8 5102 4438 4860 4886 7131 6467 6889 6915
8 4862 5766 4360 4914 6891 7795 6389 6943
8 4463 4936 4863 4917 6492 6965 6892 6946
8 5010 4326 5091 4864 7039 6355 7120 6893
8 4977 4865 4915 4472 7006 6894 6944 6501
8 5826 4866 4978 5012 7855 6895 7007 7041
8 5819 4194 4867 4997 7848 6223 6896 7026
8 5801 5013 4938 5032 7830 7042 6967 7061
8 4471 4977 4868 5038 6500 7006 6897 7067
8 4979 4868 4842 4481 7008 6897 6871 6510
8 4980 4869 4843 4343 7009 6898 6872 6372
8 5119 4322 5817 5039 7148 6351 7846 7068
8 5742 4921 5790 5791 7771 6950 7819 7820
8 4941 4871 4826 4418 6970 6900 6855 6447
8 4872 5018 4381 4940 6901 7047 6410 6969
8 5257 5861 5016 4873 7286 7890 7045 6902
8 5811 4874 5019 5094 7840 6903 7048 7123
8 4323 5042 4875 4937 6352 7071 6904 6966
8 5132 4363 5317 5190 7161 6392 7346 7219
8 5155 5248 5366 4339 7184 7277 7395 6368
8 4320 5041 4877 4942 6349 7070 6906 6971
8 5903 4979 4878 5040 7932 7008 6907 7069
8 4489 5104 4878 4840 6518 7133 6907 6869
8 4488 4985 4879 5232 6517 7014 6908 7261
8 5051 4993 4880 4921 7080 7022 6909 6950
8 4881 5796 4945 5020 6910 7825 6974 7049
8 5095 4882 4856 4283 7124 6911 6885 6312
8 4946 5022 4261 5813 6975 7051 6290 7842
8 5783 4883 4857 4177 7812 6912 6886 6206
8 4949 4885 4859 4189 6978 6914 6888 6218
8 4353 5031 4887 4953 6382 7060 6916 6982
8 5848 4195 5013 5801 7877 6224 7042 7830
8 5003 4196 4890 4930 7032 6225 6919 6959
8 5002 4466 4892 4929 7031 6495 6921 6958
8 5259 4892 4958 4457 7288 6921 6987 6486
8 4207 5034 5814 4960 6236 7063 7843 6989
8 4896 5366 4876 4362 6925 7395 6905 6391
8 5366 4896 5811 4339 7395 6925 7840 6368
8 5141 5767 4410 4897 7170 7796 6439 6926
8 5122 4391 4898 4975 7151 6420 6927 7004
8 5123 4341 4899 4976 7152 6370 6928 7005
8 4976 4899 4660 4364 7005 6928 6689 6393
8 4918 4932 4933 4214 6947 6961 6962 6243
8 5820 5061 4901 4924 7849 7090 6930 6953
8 5007 4796 4902 4217 7036 6825 6931 6246
8 5778 4907 4427 4799 7807 6936 6456 6828
8 5286 4436 5234 5233 7315 6465 7263 7262
8 4428 4553 4137 4908 6457 6582 6166 6937
8 4446 4555 4139 4909 6475 6584 6168 6938
8 5006 5829 5793 4910 7035 7858 7822 6939
8 4912 4852 4974 5035 6941 6881 7003 7064
8 4992 5071 4851 4205 7021 7100 6880 6234
8 5836 5835 4815 4973 7865 7864 6844 7002
8 5787 4914 4360 4983 7816 6943 6389 7012
8 4773 4803 4472 4915 6802 6832 6501 6944
8 5788 4916 4804 4344 7817 6945 6833 6373
8 4776 4808 4463 4917 6805 6837 6492 6946
8 4932 4918 4926 5825 6961 6947 6955 7854
8 4992 4919 4229 5869 7021 6948 6258 7898
8 4999 4376 5836 4973 7028 6405 7865 7002
8 5776 4939 5791 5790 7805 6968 7820 7819
8 4870 5790 4921 4880 6899 7819 6950 6909
8 5877 5165 4421 4922 7906 7194 6450 6951
8 5877 4922 4906 4412 7906 6951 6935 6441
8 4995 4923 4905 4202 7024 6952 6934 6231
8 4924 5818 5000 5820 6953 7847 7029 7849
8 4475 5077 5815 4996 6504 7106 7844 7025
8 5819 5174 5166 4217 7848 7203 7195 6246
8 5819 4217 4902 4194 7848 6246 6931 6223
8 4477 5158 4925 5079 6506 7187 6954 7108
8 5000 5859 5079 4925 7029 7888 7108 6954
8 5664 4190 5044 5029 7693 6219 7073 7058
8 5886 5080 4928 5258 7915 7109 6957 7287
8 5258 4928 4891 4209 7287 6957 6920 6238
8 4220 5084 4930 5260 6249 7113 6959 7289
8 4331 5004 4931 5086 6360 7033 6960 7115
8 5261 4931 4888 4308 7290 6960 6917 6337
8 4984 5936 5060 5908 7013 7965 7089 7937
8 4213 4927 5908 5060 6242 6956 7937 7089
8 5115 5006 4454 4934 7144 7035 6483 6963
8 4324 5109 5043 4982 6353 7138 7072 7011
8 4792 4350 4939 5776 6821 6379 6968 7805
8 4849 4382 4940 5015 6878 6411 6969 7044
8 5016 5861 5129 5950 7045 7890 7158 7979
8 5104 4489 4820 4944 7133 6518 6849 6973
8 5803 5857 5090 5098 7832 7886 7119 7127
8 4178 5765 4965 5009 6207 7794 6994 7038
8 5025 5007 5088 5099 7054 7036 7117 7128
8 4886 5805 5103 4950 6915 7834 7132 6979
8 4421 5089 5030 5008 6450 7118 7059 7037
8 5127 4308 4951 5047 7156 6337 6980 7076
8 5236 4353 4953 5087 7265 6382 6982 7116
8 5801 4954 5085 5848 7830 6983 7114 7877
8 5126 4197 4956 5046 7155 6226 6985 7075
8 4456 5049 4457 4958 6485 7078 6486 6987
8 4475 5858 5841 5083 6504 7887 7870 7112
8 5239 4207 4960 5082 7268 6236 6989 7111
8 4893 5784 4474 4961 6922 7813 6503 6990
8 4894 5786 4184 4962 6923 7815 6213 6991
8 5025 5772 4216 5007 7054 7801 6245 7036
8 5832 5831 4904 5139 7861 7860 6933 7168
8 5665 4178 5009 5023 7694 6207 7038 7052
8 5666 4420 5008 5030 7695 6449 7037 7059
8 5008 4966 4922 4421 7037 6995 6951 6450
8 4181 4680 4667 4967 6210 6709 6696 6996
8 4179 4615 4614 4968 6208 6644 6643 6997
8 4393 4697 4657 4969 6422 6726 6686 6998
8 4411 4636 4635 4970 6440 6665 6664 6999
8 5035 4974 5070 4394 7064 7003 7099 6423
8 4851 5071 4204 5036 6880 7100 6233 7065
8 5191 4400 5122 4975 7220 6429 7151 7004
8 4344 5812 5817 5788 6373 7841 7846 7817
8 5815 4484 5037 4996 7844 6513 7066 7025
8 5249 5064 5787 4987 7278 7093 7816 7016
8 4983 5810 4987 5787 7012 7839 7016 7816
8 4359 5810 4983 4861 6388 7839 7012 6890
8 4984 5908 4933 4932 7013 7937 6962 6961
8 5839 5063 4337 4986 7868 7092 6366 7015
8 5856 5839 4986 5328 7885 7868 7015 7357
8 5614 5157 5062 4358 7643 7186 7091 6387
8 4426 5161 4988 5068 6455 7190 7017 7097
8 5068 4988 4836 4427 7097 7017 6865 6456
8 5107 5050 4989 5067 7136 7079 7018 7096
8 4445 5233 5217 4990 6474 7262 7246 7019
8 5070 5906 4386 5275 7099 7935 6415 7304
8 4228 5205 4992 5869 6257 7234 7021 7898
8 4412 5073 5162 4994 6441 7102 7191 7023
8 5724 5163 4995 5074 7753 7192 7024 7103
8 4475 4996 5054 5858 6504 7025 7083 7887
8 5078 4997 5013 4195 7107 7026 7042 6224
8 5786 5034 5224 5066 7815 7063 7253 7095
8 4960 4208 5001 5082 6989 6237 7030 7111
8 5212 4231 5001 5080 7241 6260 7030 7109
8 5841 4466 5002 5083 7870 6495 7031 7112
8 4954 4196 5003 5085 6983 6225 7032 7114
8 4953 4330 5004 5087 6982 6359 7033 7116
8 5310 4240 5099 5088 7339 6269 7128 7117
8 4947 5098 5090 4200 6976 7127 7119 6229
8 4201 5804 5009 4965 6230 7833 7038 6994
8 5110 5230 4326 5010 7139 7259 6355 7039
8 5252 4325 5843 5844 7281 6354 7872 7873
8 5826 5012 5112 5889 7855 7041 7141 7918
8 5209 5112 5012 5895 7238 7141 7041 7924
8 5062 5810 4359 5315 7091 7839 6388 7344
8 5861 5257 5176 4319 7890 7286 7205 6348
8 5093 5017 5130 4408 7122 7046 7159 6437
8 5354 4390 5256 5175 7383 6419 7285 7204
8 4317 5094 5019 5131 6346 7123 7048 7160
8 5020 5850 5065 4486 7049 7879 7094 6515
8 4485 5158 5065 5850 6514 7187 7094 7879
8 4926 5774 4238 5045 6955 7803 6267 7074
8 5097 5024 5059 4199 7126 7053 7088 6228
8 5151 5024 4947 4200 7180 7053 6976 6229
8 4263 5100 5026 5058 6292 7129 7055 7087
8 5058 5026 5099 4240 7087 7055 7128 6269
8 5101 5027 5055 5853 7130 7056 7084 7882
8 4949 5864 4212 5027 6978 7893 6241 7056
8 5102 5028 5056 4439 7131 7057 7085 6468
8 5028 4950 5103 4430 7057 6979 7132 6459
8 5801 5032 4889 4954 7830 7061 6918 6983
8 5784 5748 5740 4474 7813 7777 7769 6503
8 5054 5033 4959 5858 7083 7062 6988 7887
8 4484 4981 4483 5037 6513 7010 6512 7066
8 5118 5038 5903 4480 7147 7067 7932 6509
8 4480 5903 5040 5120 6509 7932 7069 7149
8 4944 4985 5821 5104 6973 7014 7850 7133
8 5207 4321 5041 5121 7236 6350 7070 7150
8 5113 5931 4324 5042 7142 7960 6353 7071
8 4935 5789 5043 5109 6964 7818 7072 7138
8 4190 4927 4213 5044 6219 6956 6242 7073
8 5106 5823 4237 5045 7135 7852 6266 7074
8 4198 5126 5046 5183 6227 7155 7075 7212
8 5137 5047 4951 4307 7166 7076 6980 6336
8 4210 5124 5048 5180 6239 7153 7077 7209
8 5134 5048 4957 4186 7163 7077 6986 6215
8 5179 4457 5049 5125 7208 6486 7078 7154
8 5231 4327 5050 5107 7260 6356 7079 7136
8 4306 5144 5051 5316 6335 7173 7080 7345
8 5051 5349 5350 5316 7080 7378 7379 7345
8 5139 5313 5347 5832 7168 7342 7376 7861
8 5052 5833 5347 5313 7081 7862 7376 7342
8 5312 5348 4203 5140 7341 7377 6232 7169
8 5053 5807 5348 5312 7082 7836 7377 7341
8 5054 5748 5784 5033 7083 7777 7813 7062
8 5148 5055 5027 4212 7177 7084 7056 6241
8 5900 5364 4439 5056 7929 7393 6468 7085
8 5147 5056 5028 4430 7176 7085 7057 6459
8 5425 5057 5021 4282 7454 7086 7050 6311
8 5384 4263 5058 5899 7413 6292 7087 7928
8 5894 5247 5151 4223 7923 7276 7180 6252
8 5060 5747 5105 4213 7089 7776 7134 6242
8 5408 5986 5747 5978 7437 8015 7776 8007
8 5820 5795 4825 5061 7849 7824 6854 7090
8 4358 5062 5315 5887 6387 7091 7344 7916
8 5092 5014 4337 5063 7121 7043 6366 7092
8 5615 5442 4315 5156 7644 7471 6344 7185
8 5787 5064 4986 4914 7816 7093 7015 6943
8 5249 5840 4336 5064 7278 7869 6365 7093
8 4486 5065 5250 5367 6515 7094 7279 7396
8 5066 5224 5116 4998 7095 7253 7145 7027
8 4353 5117 4999 5031 6382 7146 7028 7060
8 5107 5067 5142 5198 7136 7096 7171 7227
8 4974 4991 5906 5070 7003 7020 7935 7099
8 4395 5275 4386 5298 6424 7304 6415 7327
8 5398 4377 5881 5882 7427 6406 7910 7911
8 4206 5172 4229 4919 6235 7201 6258 6948
8 4964 5831 4403 5073 6993 7860 6432 7102
8 5196 5075 4994 4413 7225 7104 7023 6442
8 5164 5076 5197 4224 7193 7105 7226 6253
8 5201 5242 5888 5238 7230 7271 7917 7267
8 5241 5948 4218 5925 7270 7977 6247 7954
8 5329 4477 5079 5206 7358 6506 7108 7235
8 5206 5079 5859 4476 7235 7108 7888 6505
8 4209 5178 4232 5258 6238 7207 6261 7287
8 5282 4467 5081 5213 7311 6496 7110 7242
8 4457 5179 4458 5259 6486 7208 6487 7288
8 5083 5238 5077 4475 7112 7267 7106 6504
8 5872 5084 5214 4219 7901 7113 7243 6248
8 5873 4220 5260 5182 7902 6249 7289 7211
8 5174 5078 4195 5237 7203 7107 6224 7266
8 5284 4331 5086 6050 7313 6360 7115 8079
8 5956 5261 5184 4309 7985 7290 7213 6338
8 5166 5088 5007 4217 7195 7117 7036 6246
8 4841 4348 5091 5799 6870 6377 7120 7828
8 5285 5141 5816 5216 7314 7170 7845 7245
8 5853 5228 4188 5101 7882 7257 6217 7130
8 4235 5148 4212 5911 6264 7177 6241 7940
8 5891 5106 4946 5845 7920 7135 6975 7874
8 4237 5823 5893 5169 6266 7852 7922 7198
8 5231 5874 5170 4327 7260 7903 7199 6356
8 4305 5170 5874 5302 6334 7199 7903 7331
8 5203 5108 5005 4462 7232 7137 7034 6491
8 5269 5202 4453 5108 7298 7231 6482 7137
8 5110 5946 5253 5230 7139 7975 7282 7259
8 5203 5111 5271 6047 7232 7140 7300 8076
8 6002 5111 5011 4471 8031 7140 7040 6500
8 5930 5204 5889 5112 7959 7233 7918 7141
8 5930 5112 5209 5270 7959 7141 7238 7299
8 5204 5980 5280 5929 7233 8009 7309 7958
8 5315 5114 5153 5887 7344 7143 7182 7916
8 5177 5115 5192 4444 7206 7144 7221 6473
8 5192 5115 4934 4453 7221 7144 6963 6482
8 5854 5116 5224 5305 7883 7145 7253 7334
8 4377 5072 5254 5881 6406 7101 7283 7910
8 5951 5279 4470 5208 7980 7308 6499 7237
8 5207 5119 5039 4321 7236 7148 7068 6350
8 5865 5255 5913 5173 7894 7284 7942 7202
8 5865 5120 5822 5369 7894 7149 7851 7398
8 5121 5188 4297 5277 7150 7217 6326 7306
8 5847 5124 5178 4209 7876 7153 7207 6238
8 5260 4197 5126 5182 7289 6226 7155 7211
8 5261 4308 5127 5184 7290 6337 7156 7213
8 4390 5220 5291 5128 6419 7249 7320 7157
8 5256 4390 5128 5018 7285 6419 7157 7047
8 5129 5292 5188 5950 7158 7321 7217 7979
8 5548 4407 5219 5262 7577 6436 7248 7291
8 5187 5130 5017 4417 7216 7159 7046 6446
8 5189 5263 5222 5131 7218 7292 7251 7160
8 5769 5135 5049 4456 7798 7164 7078 6485
8 5234 4436 5138 4907 7263 6465 7167 6936
8 5285 5223 5767 5141 7314 7252 7796 7170
8 5235 5216 5816 5154 7264 7245 7845 7183
8 4402 4698 4634 5145 6431 6727 6663 7174
8 4180 4681 4613 5146 6209 6710 6642 7175
8 5056 5147 5941 5900 7085 7176 7970 7929
8 5454 4259 5149 5245 7483 6288 7178 7274
8 5310 5916 5948 5345 7339 7945 7977 7374
8 5838 5167 5346 5311 7867 7196 7375 7340
8 5186 5153 5114 4381 7215 7182 7143 6410
8 5905 5235 5154 5374 7934 7264 7183 7403
8 5248 5355 5299 4340 7277 7384 7328 6369
8 5736 5939 4314 5883 7765 7968 6343 7912
8 5557 4335 5157 5614 7586 6364 7186 7643
8 5273 5725 5710 6000 7302 7754 7739 8029
8 5902 4225 5163 5274 7931 6254 7192 7303
8 4226 5863 5724 5709 6255 7892 7753 7738
8 5855 5167 5164 4224 7884 7196 7193 6253
8 4430 5103 5089 5168 6459 7132 7118 7197
8 5344 5168 5165 4422 7373 7197 7194 6451
8 5825 4237 5169 5251 7854 6266 7198 7280
8 4305 5349 5742 5170 6334 7378 7771 7199
8 5946 5110 4325 5171 7975 7139 6354 7200
8 4207 5239 5854 5305 6236 7268 7883 7334
8 5440 5398 5882 5938 7469 7427 7911 7967
8 5304 5236 5958 5957 7333 7265 7987 7986
8 5951 5118 4480 5173 7980 7147 6509 7202
8 5866 5637 5465 4479 7895 7666 7494 6508
8 5216 5235 5300 4400 7245 7264 7329 6429
8 5299 5353 4319 5176 7328 7382 6348 7205
8 5343 5218 4436 5286 7372 7247 6465 7315
8 4438 5229 5309 5332 6467 7258 7338 7361
8 4176 5226 5307 5334 6205 7255 7336 7363
8 5320 5306 5333 5227 7349 7335 7362 7256
8 5470 5291 5220 4389 7499 7320 7249 6418
8 4293 5263 5189 5342 6322 7292 7218 7371
8 5190 5317 5248 4340 7219 7346 7277 6369
8 5191 5285 5216 4400 7220 7314 7245 6429
8 5972 5402 5192 5340 8001 7431 7221 7369
8 6005 5399 5193 5968 8034 7428 7222 7997
8 5968 5193 5072 4377 7997 7222 7101 6406
8 4251 5265 5194 5400 6280 7294 7223 7429
8 5339 5194 5869 4229 7368 7223 7898 6258
8 5321 5195 5335 5350 7350 7224 7364 7379
8 5447 5337 5371 4423 7476 7366 7400 6452
8 5267 5197 5076 4225 7296 7226 7105 6254
8 5231 5107 5198 5268 7260 7136 7227 7297
8 4326 5268 5198 5743 6355 7297 7227 7772
8 5958 5199 5240 4354 7987 7228 7269 6383
8 5242 5201 5002 4467 7271 7230 7031 6496
8 5602 5552 4452 6012 7631 7581 6481 8041
8 6043 6048 6041 6042 8072 8077 8070 8071
8 4228 5297 5862 5205 6257 7326 7891 7234
8 5985 4386 5906 5910 8014 6415 7935 7939
8 5118 5951 5208 6002 7147 7980 7237 8031
8 5531 5964 4479 5465 7560 7993 6508 7494
8 5278 5209 5895 5904 7307 7238 7924 7933
8 5929 5280 5927 5113 7958 7309 7956 7142
8 5395 5330 4495 5211 7424 7359 6524 7240
8 5393 5917 5886 5898 7422 7946 7915 7927
8 5081 5885 5392 5213 7110 7914 7421 7242
8 5468 4219 5214 5283 7497 6248 7243 7312
8 6064 5215 5323 5387 8093 7244 7352 7416
8 4309 5323 5215 5956 6338 7352 7244 7985
8 4838 5217 5233 5234 6867 7246 7262 7263
8 5301 5867 5343 5286 7330 7896 7372 7315
8 5289 5949 5374 4408 7318 7978 7403 6437
8 5851 5375 4317 5290 7880 7404 6346 7319
8 5495 5544 4294 5990 7524 7573 6323 8019
8 4207 5305 5224 5034 6236 7334 7253 7063
8 4435 5314 4426 5225 6464 7343 6455 7254
8 5334 5307 5183 4175 7363 7336 7212 6204
8 4594 4262 5773 4692 6623 6291 7802 6721
8 5331 5771 4188 5228 7360 7800 6217 7257
8 4210 5180 4187 5308 6239 7209 6216 7337
8 5830 5319 5309 5229 7859 7348 7338 7258
8 4302 5549 4303 5253 6331 7578 6332 7282
8 5516 5979 5414 5920 7545 8008 7443 7949
8 5117 4353 5236 5304 7146 6382 7265 7333
8 4195 5848 5200 5237 6224 7877 7229 7266
8 5852 5077 5238 5888 7881 7106 7267 7917
8 5469 5512 4354 5240 7498 7541 6383 7269
8 5284 5240 5199 4331 7313 7269 7228 6360
8 5345 5948 5241 5977 7374 7977 7270 8006
8 5241 4219 5468 5977 7270 6248 7497 8006
8 4231 5281 5467 5243 6260 7310 7496 7272
8 5363 5244 5554 4234 7392 7273 7583 6263
8 5057 5425 5385 5919 7086 7454 7414 7948
8 5525 5928 5652 5566 7554 7957 7681 7595
8 5962 5246 5150 4241 7991 7275 7179 6270
8 5522 4222 5656 5563 7551 6251 7685 7592
8 5249 5726 5870 5840 7278 7755 7899 7869
8 4987 5157 4335 5249 7016 7186 6364 7278
8 5250 4477 5605 4478 7279 6506 7634 6507
8 5750 5368 5252 5897 7779 7397 7281 7926
8 5368 5981 4302 5171 7397 8010 6331 7200
8 5171 4302 5253 5946 7200 6331 7282 7975
8 5881 5254 5836 4376 7910 7283 7865 6405
8 5827 5369 5303 4487 7856 7398 7332 6516
8 5885 5081 5259 4458 7914 7110 7288 6487
8 5415 5264 5161 4426 7444 7293 7190 6455
8 5934 5444 5297 5933 7963 7473 7326 7962
8 4386 5985 5266 5298 6415 8014 7295 7327
8 5457 4387 5399 6005 7486 6416 7428 8034
8 6081 6004 5273 5459 8110 8033 7302 7488
8 5230 5401 5268 4326 7259 7430 7297 6355
8 5991 5270 5209 4299 8020 7299 7238 6328
8 6041 5271 5208 4470 8070 7300 7237 6499
8 4487 5303 5272 5351 6516 7332 7301 7380
8 4713 4645 4496 5373 6742 6674 6525 7402
8 4404 5506 5273 6000 6433 7535 7302 8029
8 5162 5725 5273 6004 7191 7754 7302 8033
8 5863 5507 5922 5274 7892 7536 7951 7303
8 5704 5879 5833 5834 7733 7908 7862 7863
8 5703 5406 5807 5808 7732 7435 7836 7837
8 5862 4227 5276 5205 7891 6256 7305 7234
8 5466 5278 5207 4298 7495 7307 7236 6327
8 5280 5980 5455 4301 7309 8009 7484 6330
8 5483 4255 5326 5539 7512 6284 7355 7568
8 5947 5242 4467 5282 7976 7271 6496 7311
8 5464 5387 5426 4310 7493 7416 7455 6339
8 4445 5301 5286 5233 6474 7330 7315 7262
8 5287 5456 5411 5377 7316 7485 7440 7406
8 4399 5456 5287 5354 6428 7485 7316 7383
8 5663 5410 5376 5288 7692 7439 7405 7317
8 4318 5663 5288 5353 6347 7692 7317 7382
8 6003 5411 5745 4398 8032 7440 7774 6427
8 5451 5949 5289 5745 7480 7978 7318 7774
8 5487 5746 5452 5448 7516 7775 7481 7477
8 5470 5961 4380 5291 7499 7990 6409 7320
8 5308 5318 5378 4210 7337 7347 7407 6239
8 5383 5379 4448 5319 7412 7408 6477 7348
8 5379 5294 5125 4448 7408 7323 7154 6477
8 5384 5381 4285 5320 7413 7410 6314 7349
8 5296 4198 5322 5380 7325 6227 7351 7409
8 5353 5299 5355 4318 7382 7328 7384 6347
8 4399 5354 5175 5300 6428 7383 7204 7329
8 5905 4399 5300 5235 7934 6428 7329 7264
8 5433 4304 5490 5385 7462 6333 7519 7414
8 5239 4230 5352 5854 7268 6259 7381 7883
8 5320 4285 5185 5306 7349 6314 7214 7335
8 5322 4198 5183 5307 7351 6227 7212 7336
8 5319 4448 5181 5309 7348 6477 7210 7338
8 5977 4241 5150 5345 8006 6270 7179 7374
8 5090 5857 5311 4200 7119 7886 7340 6229
8 5346 5860 4223 5151 7375 7889 6252 7180
8 5691 4425 5409 5681 7720 6454 7438 7710
8 4233 5293 4210 5378 6262 7322 6239 7407
8 5875 5383 5319 5830 7904 7412 7348 7859
8 4286 5295 4285 5381 6315 7324 6314 7410
8 5384 5320 5227 4263 7413 7349 7256 6292
8 5349 4305 5321 5350 7378 6334 7350 7379
8 5540 5427 5325 5391 7569 7456 7354 7420
8 4458 5391 5325 5885 6487 7420 7354 7914
8 5794 5394 5428 5327 7823 7423 7457 7356
8 5327 5395 5211 5794 7356 7424 7240 7823
8 5840 5870 5940 5734 7869 7899 7969 7763
8 5474 5329 5947 5445 7503 7358 7976 7474
8 4248 5608 4247 5372 6277 7637 6276 7401
8 4431 5344 4422 5396 6460 7373 6451 7425
8 4414 5609 4423 5371 6443 7638 6452 7400
8 4229 5397 5429 5339 6258 7426 7458 7368
8 5340 6010 5360 5972 7369 8039 7389 8001
8 6010 5340 5202 4452 8039 7369 7231 6481
8 5341 5960 5361 5403 7370 7989 7390 7432
8 5496 4293 5342 5362 7525 6322 7371 7391
8 5362 5342 5404 4292 7391 7371 7433 6321
8 5918 5450 5343 5867 7947 7479 7372 7896
8 5472 5604 5336 5446 7501 7633 7365 7475
8 5860 5346 5167 5855 7889 7375 7196 7884
8 5909 5710 5878 5405 7938 7739 7907 7434
8 5791 4327 5170 5742 7820 6356 7199 7771
8 5338 5968 4377 5398 7367 7997 6406 7427
8 5117 5304 5957 5945 7146 7333 7986 7974
8 5375 5851 4318 5355 7404 7880 6347 7384
8 4233 5434 5356 5293 6262 7463 7385 7322
8 5435 5357 5294 4449 7464 7386 7323 6478
8 5873 5389 5324 4220 7902 7418 7353 6249
8 5380 4221 5358 5296 7409 6250 7387 7325
8 5437 5359 5295 4286 7466 7388 7324 6315
8 4443 5360 5494 5551 6472 7389 7523 7580
8 6085 6067 5497 6084 8114 8096 7526 8113
8 5662 4270 5613 6037 7691 6299 7642 8066
8 5382 5378 5318 4211 7411 7407 7347 6240
8 5849 5386 5802 5365 7878 7415 7831 7394
8 5828 5394 5794 5367 7857 7423 7823 7396
8 4478 5828 5367 5250 6507 7857 7396 7279
8 5280 4301 5750 5927 7309 6330 7779 7956
8 5865 5369 5827 5255 7894 7398 7856 7284
8 5890 5416 4416 5370 7919 7445 6445 7399
8 5890 5415 5409 4425 7919 7444 7438 6454
8 5459 4414 5371 6081 7488 6443 7400 8110
8 5197 5267 4248 5372 7226 7296 6277 7401
8 5949 5451 5905 5374 7978 7480 7934 7403
8 5663 4318 5851 5452 7692 6347 7880 7481
8 5994 4296 5376 5982 8023 6325 7405 8011
8 5412 5982 5376 5410 7441 8011 7405 7439
8 5411 6003 5413 5377 7440 8032 7442 7406
8 5419 4449 5294 5379 7448 6478 7323 7408
8 5475 4286 5381 5420 7504 6315 7410 7449
8 5229 4439 5364 5830 7258 6468 7393 7859
8 4282 5846 5385 5425 6311 7875 7414 7454
8 4281 5919 5385 5490 6310 7948 7414 7519
8 5226 4199 5365 5802 7255 6228 7394 7831
8 5802 5386 5380 5322 7831 7415 7409 7351
8 5464 6054 6064 5387 7493 8083 8093 7416
8 5486 5426 5388 5538 7515 7455 7417 7567
8 5538 5388 5359 5437 7567 7417 7388 7466
8 5436 6062 6063 5389 7465 8091 8092 7418
8 5680 5283 5390 4242 7709 7312 7419 6271
8 5463 6018 4242 5390 7492 8047 6271 7419
8 5434 5539 5326 5356 7463 7568 7355 7385
8 5540 5391 5357 5435 7569 7420 7386 7464
8 4459 5461 4468 5392 6488 7490 6497 7421
8 5212 5917 5393 5963 7241 7946 7422 7992
8 4254 5963 5393 5462 6283 7992 7422 7491
8 5428 5827 4487 5327 7457 7856 6516 7356
8 5534 5637 5394 5828 7563 7666 7423 7857
8 6045 5473 5396 5447 8074 7502 7425 7476
8 5439 5586 5429 5397 7468 7615 7458 7426
8 4230 5439 5397 5352 6259 7468 7426 7381
8 5440 5587 5430 5398 7469 7616 7459 7427
8 4387 5443 5266 5399 6416 7472 7295 7428
8 5360 4443 5402 5972 7389 6472 7431 8001
8 5514 5557 5614 5935 7543 7586 7643 7964
8 5441 5403 5361 5959 7470 7432 7390 7988
8 4404 6000 5710 5909 6433 8029 7739 7938
8 5583 5669 5704 4395 7612 7698 7733 6424
8 4226 5709 5406 5703 6255 7738 7435 7732
8 5582 4226 5703 4227 7611 6255 7732 6256
8 5498 5431 5937 5510 7527 7460 7966 7539
8 5892 5891 5149 4259 7921 7920 7178 6288
8 5408 5431 5987 5986 7437 7460 8016 8015
8 5936 4236 5408 5978 7965 6265 7437 8007
8 5663 5452 5746 5410 7692 7481 7775 7439
8 5456 5451 5745 5411 7485 7480 7774 7440
8 4295 5598 5545 5412 6324 7627 7574 7441
8 5631 4388 5491 5546 7660 6417 7520 7575
8 5415 5890 5370 5264 7444 7919 7399 7293
8 5721 5416 5890 4425 7750 7445 7919 6454
8 4415 5645 5492 5547 6444 7674 7521 7576
8 4302 5981 6015 5493 6331 8010 8044 7522
8 6015 5981 5417 5535 8044 8010 7446 7564
8 5434 4233 5418 5476 7463 6262 7447 7505
8 5524 5418 5382 4234 7553 7447 7411 6263
8 5523 5973 5419 5921 7552 8002 7448 7950
8 5926 5478 4221 5421 7955 7507 6250 7450
8 5423 5999 5495 5990 7452 8028 7524 8019
8 5737 5424 5961 5470 7766 7453 7990 7499
8 6013 5960 5961 5424 8042 7989 7990 7453
8 6069 4310 5426 5486 8098 6339 7455 7515
8 6063 6062 5485 4243 8092 8091 7514 6272
8 5827 5428 5866 5255 7856 7457 7895 7284
8 6020 4378 5430 5480 8049 6407 7459 7509
8 4258 5498 5510 5966 6287 7527 7539 7995
8 4434 5681 5432 5489 6463 7710 7461 7518
8 5681 5409 5314 5432 7710 7438 7343 7461
8 5321 4305 5302 5433 7350 6334 7331 7462
8 4256 5539 5434 5476 6285 7568 7463 7505
8 6001 5540 5435 4450 8030 7569 7464 6479
8 5478 5975 6062 5436 7507 8004 8091 7465
8 5478 5436 5358 4221 7507 7465 7387 6250
8 5475 5984 5437 4286 7504 8013 7466 6315
8 5432 5453 5450 5489 7461 7482 7479 7518
8 5967 5505 5918 5438 7996 7534 7947 7467
8 5701 5514 5935 4357 7730 7543 7964 6386
8 5442 5615 5556 5513 7471 7644 7585 7542
8 5508 5443 5503 4396 7537 7472 7532 6425
8 5509 5444 5504 4250 7538 7473 7533 6279
8 5953 5504 5444 5934 7982 7533 7473 7963
8 5445 4468 5461 5520 7474 6497 7490 7549
8 5947 5282 4468 5445 7976 7311 6497 7474
8 5472 5446 5481 5969 7501 7475 7510 7998
8 4423 5482 6045 5447 6452 7511 8074 7476
8 5289 5449 4398 5745 7318 7478 6427 7774
8 5453 4435 5343 5450 7482 6464 7372 7479
8 5905 5451 5456 4399 7934 7480 7485 6428
8 5448 5452 5851 5290 7477 7481 7880 7319
8 5245 5537 5576 5454 7274 7566 7605 7483
8 5574 5535 4301 5455 7603 7564 6330 7484
8 4379 5569 6007 5529 6408 7598 8036 7558
8 5457 6005 6006 6055 7486 8034 8035 8084
8 5953 5458 5570 5517 7982 7487 7599 7546
8 4252 5458 4251 5400 6281 7487 6280 7429
8 6033 5501 4414 5459 8062 7530 6443 7488
8 5568 5521 4254 5462 7597 7550 6283 7491
8 5464 4310 4311 6028 7493 6339 6340 8057
8 5943 5467 5500 4253 7972 7496 7529 6282
8 5281 6052 5500 5467 7310 8081 7529 7496
8 5283 5680 5977 5468 7312 7709 8006 7497
8 6039 6031 4274 5561 8068 8060 6303 7590
8 5656 5907 5472 5559 7685 7936 7501 7588
8 5596 4246 5969 5481 7625 6275 7998 7510
8 4431 5396 5473 5558 6460 7425 7502 7587
8 5473 6045 5482 4432 7502 8074 7511 6461
8 5915 5914 5534 5560 7944 7943 7563 7589
8 5445 5520 4469 5474 7474 7549 6498 7503
8 5437 5984 4287 5538 7466 8013 6316 7567
8 4450 5435 4449 5477 6479 7464 6478 7506
8 5523 6061 5578 5973 7552 8090 7607 8002
8 5622 5932 4253 5589 7651 7961 6282 7618
8 5429 5586 5932 5479 7458 7615 7961 7508
8 5649 6067 6085 6077 7678 8096 8114 8106
8 5480 5430 5587 6019 7509 7459 7616 8048
8 5542 5607 5596 5481 7571 7636 7625 7510
8 5707 5618 4433 6060 7736 7647 6462 8089
8 5717 5646 5483 5659 7746 7675 7512 7688
8 5659 5483 5539 4256 7688 7512 7568 6285
8 5552 5602 4460 5603 7581 7631 6489 7632
8 5427 5540 6001 5484 7456 7569 8030 7513
8 5463 4243 5485 5526 7492 6272 7514 7555
8 4244 5660 5647 5485 6273 7689 7676 7514
8 5486 6027 5648 6069 7515 8056 7677 8098
8 4287 6027 5486 5538 6316 8056 7515 7567
8 6021 5598 4295 5611 8050 7627 6324 7640
8 6073 5667 5610 6053 8102 7696 7639 8082
8 5543 5488 5449 4407 7572 7517 7478 6436
8 5450 5918 5505 5489 7479 7947 7534 7518
8 4281 5575 4280 5537 6310 7604 6309 7566
8 5982 5412 6031 5994 8011 7441 8060 8023
8 5517 4274 5545 5630 7546 6303 7574 7659
8 5492 5548 5262 4416 7521 7577 7291 6445
8 5493 6035 5549 4302 7522 8064 7578 6331
8 4451 5706 5694 5722 6480 7735 7723 7751
8 4272 5544 5495 5601 6301 7573 7524 7630
8 6067 5649 5623 4356 8096 7678 7652 6385
8 4356 5623 6066 6065 6385 7652 8095 8094
8 5469 4332 5499 6046 7498 6361 7528 8075
8 5621 5589 4253 5500 7650 7618 6282 7529
8 4277 5621 5500 5521 6306 7650 7529 7550
8 4406 5625 5501 5591 6435 7654 7530 7620
8 4405 5591 5501 6033 6434 7620 7530 8062
8 5601 4271 5555 5502 7630 6300 7584 7531
8 5592 5502 5460 4249 7621 7531 7489 6278
8 5546 4397 5594 5631 7575 6426 7623 7660
8 5518 5503 5443 4387 7547 7532 7472 6416
8 5504 5953 5517 5630 7533 7982 7546 7659
8 5933 5265 4251 5934 7962 7294 6280 7963
8 5581 5654 6075 4433 7610 7683 8104 6462
8 5669 5583 5619 5584 7698 7612 7648 7613
8 5585 5923 5955 5620 7614 7952 7984 7649
8 5937 5407 5942 5510 7966 7436 7971 7539
8 5943 5586 5439 5511 7972 7615 7468 7540
8 4355 5587 5440 5512 6384 7616 7469 7541
8 5512 5469 6046 4355 7541 7498 8075 6384
8 4356 6065 5687 5553 6385 8094 7716 7582
8 6036 5576 5537 4280 8065 7605 7566 6309
8 5979 5516 5490 4304 8008 7545 7519 6333
8 6039 5561 5570 6008 8068 7590 7599 8037
8 5533 4298 5277 5636 7562 6327 7306 7665
8 6054 5519 5499 4332 8083 7548 7528 6361
8 5567 5526 6071 4266 7596 7555 8100 6295
8 4245 5580 5522 5563 6274 7609 7551 7592
8 5564 5523 5921 4440 7593 7552 7950 6469
8 4257 5577 5524 5565 6286 7606 7553 7594
8 5998 5579 5525 5566 8027 7608 7554 7595
8 5928 5525 5420 4264 7957 7554 7449 6293
8 5647 5685 4266 6071 7676 7714 6295 8100
8 5658 5603 4460 5690 7687 7632 6489 7719
8 4459 5527 5520 5461 6488 7556 7549 7490
8 4278 6034 5528 5646 6307 8063 7557 7675
8 6019 5623 5649 5480 8048 7652 7678 7509
8 4378 6020 5529 6007 6407 8049 7558 8036
8 5932 5622 5650 5479 7961 7651 7679 7508
8 4470 6011 6042 6041 6499 8040 8071 8070
8 5915 5560 5474 4469 7944 7589 7503 6498
8 4277 5532 5573 5621 6306 7561 7602 7650
8 5534 5914 5465 5637 7563 7943 7494 7666
8 5750 4301 5535 5417 7779 6330 7564 7446
8 6014 5683 5572 5634 8043 7712 7601 7663
8 5588 5672 4280 5575 7617 7701 6309 7604
8 5919 4281 5537 5245 7948 6310 7566 7274
8 5641 4287 5984 5996 7670 6316 8013 8025
8 5609 5751 5679 5541 7638 7780 7708 7570
8 4407 5548 5671 5543 6436 7577 7700 7572
8 6021 4273 5545 5598 8050 6302 7574 7627
8 5546 6080 5597 4397 7575 8109 7626 6426
8 4424 5989 5721 5952 6453 8018 7750 7981
8 5549 5672 5588 4303 7578 7701 7617 6332
8 6015 5535 4279 5550 8044 7564 6308 7579
8 4442 5654 5967 5551 6471 7683 7996 7580
8 5551 5494 5722 4442 7580 7523 7751 6471
8 5553 5497 6067 4356 7582 7526 8096 6385
8 5565 5524 4234 5554 7594 7553 6263 7583
8 5688 4257 5565 5643 7717 6286 7594 7672
8 6086 5751 5609 4414 8115 7780 7638 6443
8 5678 5608 4248 5555 7707 7637 6277 7584
8 5599 5556 5615 4314 7628 7585 7644 6343
8 6037 5613 5362 4292 8066 7642 7391 6321
8 6023 5616 5974 5558 8052 7645 8003 7587
8 5969 4246 5559 5472 7998 6275 7588 7501
8 5560 4478 5605 5474 7589 6507 7634 7503
8 6068 5651 5277 4297 8097 7680 7306 6326
8 5652 5924 5246 5962 7681 7953 7275 7991
8 4265 5566 5652 5562 6294 7595 7681 7591
8 5564 5974 5616 6022 7593 8003 7645 8051
8 5498 4258 6017 6016 7527 6287 8046 8045
8 6028 5992 4333 5519 8057 8021 6362 7548
8 5992 5711 5686 4333 8021 7740 7715 6362
8 5998 5733 5714 5641 8027 7762 7743 7670
8 5670 6043 5571 5635 7699 8072 7600 7664
8 6049 4277 5521 5568 8078 6306 7550 7597
8 5457 6055 6078 6056 7486 8084 8107 8085
8 6079 5569 4379 5737 8108 7598 6408 7766
8 5561 4274 5517 5570 7590 6303 7546 7599
8 4460 5670 5635 5702 6489 7699 7664 7731
8 5532 5682 5991 4299 7561 7711 8020 6328
8 5991 5572 5683 5270 8020 7601 7712 7299
8 5717 4279 5535 5574 7746 6308 7564 7603
8 5653 6017 4258 6036 7682 8046 6287 8065
8 5973 5578 5640 5477 8002 7607 7669 7506
8 5640 5578 6061 4441 7669 7607 8090 6470
8 5579 5998 5641 5996 7608 8027 7670 8025
8 5660 4244 5580 5638 7689 6273 7609 7667
8 4250 5923 5582 5509 6279 7952 7611 7538
8 5619 5583 5508 4396 7648 7612 7537 6425
8 4405 6033 5506 5584 6434 8062 7535 7613
8 5620 5954 5507 5585 7649 7983 7536 7614
8 5495 5999 4271 5601 7524 8028 6300 7630
8 5932 5586 5943 4253 7961 7615 7972 6282
8 5673 4280 5672 5644 7702 6309 7701 7673
8 5401 4303 5588 5920 7430 6332 7617 7949
8 6066 5623 6019 5590 8095 7652 8048 7619
8 5624 4333 5642 5687 7653 6362 7671 7716
8 5667 5629 5594 4397 7696 7658 7623 6426
8 5955 5593 4273 5628 7984 7622 6302 7657
8 5626 5619 4396 5629 7655 7648 6425 7658
8 6059 6023 4432 5632 8088 8052 6461 7661
8 5952 5691 5618 5707 7981 7720 7647 7736
8 5559 4246 5633 5617 7588 6275 7662 7646
8 4270 5662 6044 5607 6299 7691 8073 7636
8 5667 4397 5597 5610 7696 6426 7626 7639
8 5628 4273 6021 5668 7657 6302 8050 7697
8 5675 5698 5712 5600 7704 7727 7741 7629
8 5269 4461 5602 6012 7298 6490 7631 8041
8 5706 4451 5603 5658 7735 6480 7632 7687
8 5884 5860 5855 5604 7913 7889 7884 7633
8 5482 5541 4424 5606 7511 7570 6453 7635
8 5542 5970 4270 5607 7571 7999 6299 7636
8 5971 5970 5608 5678 8000 7999 7637 7707
8 5989 4424 5541 5679 8018 6453 7570 7708
8 5449 5488 5610 4398 7478 7517 7639 6427
8 5746 5487 5611 4295 7775 7516 7640 6324
8 4292 5513 5612 6037 6321 7542 7641 8066
8 5971 5496 5362 5613 8000 7525 7391 7642
8 5883 4314 5615 5156 7912 6343 7644 7185
8 5632 6075 5676 6059 7661 8104 7705 8088
8 5976 5677 5617 5633 8005 7706 7646 7662
8 6073 5591 4405 5626 8102 7620 6434 7655
8 6038 5592 4249 5627 8067 7621 6278 7656
8 4275 5530 5479 5650 6304 7559 7508 7679
8 5589 4276 5744 5622 7618 6305 7773 7651
8 5480 5649 6077 6020 7509 7678 8106 8049
8 5687 6065 6066 5624 7716 8094 8095 7653
8 5625 5645 4415 6086 7654 7674 6444 8115
8 6021 5611 4272 5668 8050 7640 6301 7697
8 5923 4250 5593 5955 7952 6279 7622 7984
8 5620 5955 5628 5627 7649 7984 7657 7656
8 5518 6056 4388 5631 7547 8085 6417 7660
8 6030 5677 5976 5692 8059 7706 8005 7721
8 5568 6034 4278 5634 7597 8063 6307 7663
8 5682 6049 5568 5634 7711 8078 7597 7663
8 5915 4469 5702 5635 7944 6498 7731 7664
8 6040 5650 5622 5744 8069 7679 7651 7773
8 5637 5866 5428 5394 7666 7895 7457 7423
8 6030 5693 4245 5677 8059 7722 6274 7706
8 5705 5639 5689 5655 7734 7668 7718 7684
8 4288 5727 6083 5700 6317 7756 8112 7729
8 5600 4334 5686 5675 7629 6363 7715 7704
8 5498 6016 5643 5988 7527 8045 7672 8017
8 6036 4280 5673 5653 8065 6309 7702 7682
8 5673 5644 6032 5689 7702 7673 8061 7718
8 5625 4406 5671 5645 7654 6435 7700 7674
8 5660 6074 5685 5647 7689 8103 7714 7676
8 5699 4311 5648 6082 7728 6340 7677 8111
8 5648 6027 5661 6070 7677 8056 7690 8099
8 5651 6068 6009 4275 7680 8097 8038 6304
8 6040 5636 5277 5651 8069 7665 7306 7680
8 5652 5962 5680 5562 7681 7991 7709 7591
8 5438 4443 5551 5967 7467 6472 7580 7996
8 5705 5655 5550 4279 7734 7684 7579 6308
8 5689 6032 5550 5655 7718 8061 7579 7684
8 5974 5657 4431 5558 8003 7686 6460 7587
8 4431 5657 5876 5941 6460 7686 7905 7970
8 5484 6001 5640 6072 7513 8030 7669 8101
8 4279 5717 5659 5705 6308 7746 7688 7734
8 5661 5641 5714 5727 7690 7670 7743 7756
8 5923 5585 4226 5582 7952 7614 6255 7611
8 4460 5602 4461 5670 6489 7631 6490 7699
8 4406 6053 5543 5671 6435 8082 7572 7700
8 4291 6025 5716 5696 6320 8054 7745 7725
8 6057 5716 6025 5720 8086 7745 8054 7749
8 6072 5640 4441 6076 8101 7669 6470 8105
8 4268 6058 5693 6030 6297 8087 7722 8059
8 5547 5989 5679 4415 7576 8018 7708 6444
8 4277 6049 5682 5532 6306 8078 7711 7561
8 6014 5536 4300 5683 8043 7565 6329 7712
8 5695 5699 5713 4312 7724 7728 7742 6341
8 5752 5684 6070 4288 7781 7713 8099 6317
8 5685 6083 6051 4266 7714 8112 8080 6295
8 4334 5642 4333 5686 6363 7671 6362 7715
8 5658 5690 5997 6024 7687 7719 8026 8053
8 5702 5527 5690 4460 7731 7556 7719 6489
8 5952 5721 4425 5691 7981 7750 6454 7720
8 5952 5707 5606 4424 7981 7736 7635 6453
8 6060 4433 6075 5632 8089 6462 8104 7661
8 4268 6057 5720 6026 6297 8086 7749 8055
8 5633 4269 5692 5976 7662 6298 7721 8005
8 6074 5660 5638 5708 8103 7689 7667 7737
8 6057 4268 6030 5692 8086 6297 8059 7721
8 5706 6076 4441 5694 7735 8105 6470 7723
8 5722 5694 5676 4442 7751 7723 7705 6471
8 5992 6028 4311 5711 8021 8057 6340 7740
8 5696 6044 5612 4291 7725 8073 7641 6320
8 6057 5692 4269 5716 8086 7721 6298 7745
8 5993 4290 5697 5718 8022 6319 7726 7747
8 5731 5983 5995 5940 7760 8012 8024 7969
8 5697 4313 5719 5718 7726 6342 7748 7747
8 5698 4312 5730 5719 7727 6341 7759 7748
8 5684 5713 5699 6082 7713 7742 7728 8111
8 5727 5714 6051 6083 7756 7743 8080 8112
8 5959 5553 5701 4357 7988 7582 7730 6386
8 5807 5406 5709 5348 7836 7435 7738 7377
8 5832 5347 5405 5878 7861 7376 7434 7907
8 4404 5909 5704 5669 6433 7938 7733 7698
8 5658 6072 6076 5706 7687 8101 8105 7735
8 6060 5595 5606 5707 8089 7624 7635 7736
8 4267 6074 5708 5728 6296 8103 7737 7757
8 5638 5693 6058 5708 7667 7722 8087 7737
8 5074 4963 4203 5724 7103 6992 6232 7753
8 5162 5073 4403 5725 7191 7102 6432 7754
8 5719 4313 5712 5698 7748 6342 7741 7727
8 6029 4289 5752 5715 8058 6318 7781 7744
8 4265 5567 4266 5733 6294 7596 6295 7762
8 5700 6083 5685 5715 7729 8112 7714 7744
8 6026 5729 6058 4268 8055 7758 8087 6297
8 4289 5730 4312 5713 6318 7759 6341 7742
8 6026 5720 5674 4290 8055 7749 7703 6319
8 5599 5674 5720 6025 7628 7703 7749 8054
8 4290 5993 5729 6026 6319 8022 7758 8055
8 6029 5723 5730 4289 8058 7752 7759 6318
8 5274 5163 5724 5863 7303 7192 7753 7892
8 4336 5840 5734 5328 6365 7869 7763 7357
8 4288 6070 5661 5727 6317 8099 7690 7756
8 5729 5728 5708 6058 7758 7757 7737 8087
8 5728 5729 5993 5735 7757 7758 8022 7764
8 5983 5736 5901 5995 8012 7765 7930 8024
8 5723 6029 5732 5735 7752 8058 7761 7764
8 5734 5901 5856 5328 7763 7930 7885 7357
8 5566 4265 5733 5998 7595 6294 7762 8027
8 5940 5870 5726 5731 7969 7899 7755 7760
8 5731 4313 5697 5983 7760 6342 7726 8012
8 4388 6079 5737 5491 6417 8108 7766 7520
8 4171 4625 4624 5741 6200 6654 6653 7770
8 5799 5091 4326 5743 7828 7120 6355 7772
8 6040 5744 5533 5636 8069 7773 7562 7665
8 5936 5978 5747 5060 7965 8007 7776 7089
8 4364 4660 4158 4572 6393 6689 6187 6601
8 5763 5133 4392 5749 7792 7162 6421 7778
8 4677 4609 5753 5754 6706 6638 7782 7783
8 4703 4647 5755 5756 6732 6676 7784 7785
8 4167 4582 5759 5758 6196 6611 7788 7787
8 5767 5760 4806 4410 7796 7789 6835 6439
8 5762 5761 5223 4401 7791 7790 7252 6430
8 5781 5780 4769 4498 7810 7809 6798 6527
8 4845 5789 4935 5800 6874 7818 6964 7829
8 5045 4237 5825 4926 7074 6266 7854 6955
8 5177 4445 5793 5829 7206 6474 7822 7858
8 5846 4282 5095 5797 7875 6311 7124 7826
8 5799 5798 5782 4841 7828 7827 7811 6870
8 5798 5799 5743 5842 7827 7828 7772 7871
8 5837 5857 5803 5804 7866 7886 7832 7833
8 5804 5803 5023 5009 7833 7832 7052 7038
8 4972 4206 4919 5824 7001 6235 6948 7853
8 5808 5807 5053 4204 7837 7836 7082 6233
8 5094 5155 4339 5811 7123 7184 6368 7840
8 5845 4946 5813 4260 7874 6975 7842 6289
8 5818 4924 4484 5815 7847 6953 6513 7844
8 4322 4978 5788 5817 6351 7007 7817 7846
8 5897 5252 5844 5896 7926 7281 7873 7925
8 5859 5000 5818 5852 7888 7029 7847 7881
8 5120 5040 5821 5822 7149 7069 7850 7851
8 5822 5821 4985 4488 7851 7850 7014 6517
8 4209 4891 4784 5847 6238 6920 6813 7876
8 5889 4323 4937 5826 7918 6352 6966 7855
8 5878 4403 5831 5832 7907 6432 7860 7861
8 5834 5833 5052 4394 7863 7862 7081 6423
8 5879 5405 5347 5833 7908 7434 7376 7862
8 4913 5835 5880 4920 6942 7864 7909 6949
8 5254 5880 5835 5836 7283 7909 7864 7865
8 5804 4201 5838 5837 7833 6230 7867 7866
8 5311 5857 5837 5838 7340 7886 7866 7867
8 5375 5155 5094 4317 7404 7184 7123 6346
8 5883 5156 5839 5856 7912 7185 7868 7885
8 5844 5843 5800 4935 7873 7872 7829 6964
8 5846 5797 5195 5321 7875 7826 7224 7350
8 5656 4222 5849 5894 7685 6251 7878 7923
8 4476 5859 5852 5888 6505 7888 7881 7917
8 5845 4260 5149 5891 7874 6289 7178 7920
8 5907 4223 5860 5884 7936 6252 7889 7913
8 5105 5911 4212 5864 7134 7940 6241 7893
8 4479 5913 5255 5866 6508 7942 7284 7895
8 5868 5867 5301 4444 7897 7896 7330 6473
8 5438 5918 5867 5868 7467 7947 7896 7897
8 5872 5871 5085 5003 7901 7900 7114 7032
8 5657 4440 5875 5876 7686 6469 7904 7905
8 5876 5875 5830 5364 7905 7904 7859 7393
8 5704 5909 5405 5879 7733 7938 7434 7908
8 5882 5881 4376 5945 7911 7910 6405 7974
8 5856 5901 5736 5883 7885 7930 7765 7912
8 5907 5884 5604 5472 7936 7913 7633 7501
8 5080 5886 5917 5212 7109 7915 7946 7241
8 5898 5886 5258 4232 7927 7915 7287 6261
8 5888 5242 5206 4476 7917 7271 7235 6505
8 5204 5929 4323 5889 7233 7958 6352 7918
8 5942 5407 5892 4259 7971 7436 7921 6288
8 4236 5936 5169 5893 6265 7965 7198 7922
8 5937 4236 5893 5407 7966 6265 7922 7436
8 5849 5365 5247 5894 7878 7394 7276 7923
8 5109 5896 5844 4935 7138 7925 7873 6964
8 5896 5931 5210 5897 7925 7960 7239 7926
8 5652 5928 5899 5924 7681 7957 7928 7953
8 5924 5899 5058 5246 7953 7928 7087 7275
8 5895 4322 5119 5904 7924 6351 7148 7933
8 5896 5109 4324 5931 7925 7138 6353 7960
8 5927 5750 5897 5210 7956 7779 7926 7239
8 4225 5902 5944 5267 6254 7931 7973 7296
8 4249 5460 5944 5922 6278 7489 7973 7951
8 5910 5906 4991 4385 7939 7935 7020 6414
8 5242 5947 5329 5206 7271 7976 7358 7235
8 5635 5965 5914 5915 7664 7994 7943 7944
8 5507 5954 4249 5922 7536 7983 6278 7951
8 5925 4218 5237 5200 7954 6247 7266 7229
8 5975 5478 5926 4244 8004 7507 7955 6273
8 4300 5980 5204 5930 6329 8009 7233 7959
8 5614 4358 5441 5935 7643 6387 7470 7964
8 5957 5938 5882 5945 7986 7967 7911 7974
8 5674 5599 4314 5939 7703 7628 6343 7968
8 5995 5901 5734 5940 8024 7930 7763 7969
8 5147 5344 4431 5941 7176 7373 6460 7970
8 5515 5966 5510 5942 7544 7995 7539 7971
8 5188 4320 5016 5950 7217 6349 7045 7979
8 5938 5957 5958 4354 7967 7986 7987 6383
8 5215 6050 5086 5956 7244 8079 7115 7985
8 5961 5960 5341 4380 7990 7989 7370 6409
8 5497 5361 5960 6013 7526 7390 7989 8042
8 4254 6052 5281 5963 6283 8081 7310 7992
8 6011 4470 5279 5964 8040 6499 7308 7993
8 5166 4218 5948 5916 7195 6247 7977 7945
8 5613 4270 5970 5971 7642 6299 7999 8000
8 5243 5467 5943 5511 7272 7496 7972 7540
8 4304 5912 5414 5979 6333 7941 7443 8008
8 5988 5554 4235 5987 8017 7583 6264 8016
8 4235 5554 5244 5148 6264 7583 7273 7177
8 5984 5475 5579 5996 8013 7504 7608 8025
8 6031 6039 5471 5994 8060 8068 7500 8023
8 6024 5997 5427 5484 8053 8026 7456 7513
8 5968 5338 6006 6005 7997 7367 8035 8034
8 6007 6006 5338 4378 8036 8035 7367 6407
8 6006 6007 5569 6055 8035 8036 7598 8084
8 6009 6008 5530 4275 8038 8037 7559 6304
8 5471 6039 6008 6009 7500 8068 8037 8038
8 5688 5643 6016 6017 7717 7672 8045 8046
8 6022 6061 5523 5564 8051 8090 7552 7593
8 4441 6061 6022 5616 6470 8090 8051 7645
8 5676 5616 6023 6059 7705 7645 8052 8088
8 5668 4272 5592 6038 7697 6301 7621 8067
8 6047 5271 6041 6048 8076 7300 8070 8077
8 6043 6042 6011 5571 8072 8071 8040 7600
8 6048 6043 5670 4461 8077 8072 7699 6490
8 6048 4461 5203 6047 8077 6490 7232 8076
8 5455 5536 6014 5574 7484 7565 8043 7603
8 5676 6075 5654 4442 7705 8104 7683 6471
8 5590 5499 5624 6066 7619 7528 7653 8095
8 5684 6082 5648 6070 7713 8111 7677 8099
8 6053 4406 5591 6073 8082 6435 7620 8102
8 6079 6078 6055 5569 8108 8107 8084 7598
8 5546 5491 5413 6080 7575 7520 7442 8109
8 6004 6081 5196 4413 8033 8110 7225 6442
8 5737 4379 6084 5424 7766 6408 8113 7453
8 6084 4379 5529 6085 8113 6408 7558 8114
8 6118 6616 6617 6529 8147 8645 8646 8558
8 6616 6615 6618 6617 8645 8644 8647 8646
8 6879 6221 6800 6842 8908 8250 8829 8871
8 6859 6822 6783 6220 8888 8851 8812 8249
8 7073 6242 7134 7893 9102 8271 9163 9922
8 7130 6914 6978 7056 9159 8943 9007 9085
8 6240 7347 7257 7882 8269 9376 9286 9911
8 7163 6216 7209 7077 9192 8245 9238 9106
8 6215 6986 7876 6813 8244 9015 9905 8842
8 6957 6237 6853 6920 8986 8266 8882 8949
8 6212 7188 7095 7027 8241 9217 9124 9056
8 7001 6843 6785 6212 9030 8872 8814 8241
8 6233 7082 6210 7065 8262 9111 8239 9094
8 6231 6863 6932 6992 8260 8892 8961 9021
8 6863 6826 6786 6208 8892 8855 8815 8237
8 7832 7127 7812 7052 9861 9156 9841 9081
8 7126 6912 6976 7053 9155 8941 9005 9082
8 6205 7126 6228 7255 8234 9155 8257 9284
8 6204 7212 7075 7165 8233 9241 9104 9194
8 6226 6919 6812 6985 8255 8948 8841 9014
8 6812 6919 6225 6851 8841 8948 8254 8880
8 6967 7042 7026 6896 8996 9071 9055 8925
8 6780 6199 6788 6845 8809 8228 8817 8874
8 6222 6619 6657 6780 8251 8648 8686 8809
8 6619 6719 6122 6548 8648 8748 8151 8577
8 6719 6620 6123 6122 8748 8649 8152 8151
8 6620 6621 6549 6123 8649 8650 8578 8152
8 6977 6268 7801 7054 9006 8297 9830 9083
8 6550 6125 6622 6623 8579 8154 8651 8652
8 6624 6625 6551 6127 8653 8654 8580 8156
8 6313 7166 6722 6625 8342 9195 8751 8654
8 6722 6626 6552 6128 8751 8655 8581 8157
8 6336 6790 6723 6626 8365 8819 8752 8655
8 6811 6917 6359 6850 8840 8946 8388 8879
8 8014 7222 7428 7295 10043 9251 9457 9324
8 7623 7532 7547 7660 9652 9561 9576 9689
8 8032 6427 7639 7626 10061 8456 9668 9655
8 7318 6437 7159 7248 9347 8466 9188 9277
8 6817 6865 7017 6447 8846 8894 9046 8476
8 7807 6828 6764 6457 9836 8857 8793 8486
8 7019 7246 6466 7098 9048 9275 8495 9127
8 7246 6867 6937 6466 9275 8896 8966 8495
8 7807 6457 6937 6867 9836 8486 8966 8896
8 6448 6581 6165 6764 8477 8610 8194 8793
8 6835 6580 6164 6627 8864 8609 8193 8656
8 6162 6163 7789 7790 8191 8192 9818 9819
8 6162 7790 7791 6579 8191 9819 9820 8608
8 6161 7792 7778 6578 8190 9821 9807 8607
8 6160 6628 6412 6577 8189 8657 8441 8606
8 6807 7795 6808 6781 8836 9824 8837 8810
8 6819 6808 6877 6367 8848 8837 8906 8396
8 7181 7121 7092 6344 9210 9150 9121 8373
8 7433 7371 7218 7181 9462 9400 9247 9210
8 6300 8028 7525 8000 8329 10057 9554 10029
8 7999 7571 6276 7637 10028 9600 8305 9666
8 7401 7365 6253 7226 9430 9394 8282 9255
8 7024 7105 7193 6952 9053 9134 9222 8981
8 6994 7794 6786 6826 9023 9823 8815 8855
8 6701 6629 6088 6087 8730 8658 8117 8116
8 6220 6630 6629 6879 8249 8659 8658 8908
8 6530 6088 6629 6630 8559 8117 8658 8659
8 6631 6632 6531 6090 8660 8661 8560 8119
8 6218 6703 6632 7693 8247 8732 8661 9722
8 6703 6633 6092 6091 8732 8662 8121 8120
8 6217 6634 6633 6888 8246 8663 8662 8917
8 6532 6092 6633 6634 8561 8121 8662 8663
8 6635 6636 6533 6094 8664 8665 8562 8123
8 6215 6705 6636 7163 8244 8734 8665 9192
8 6095 6705 6637 6534 8124 8734 8666 8563
8 6784 6214 6638 6706 8813 8243 8667 8735
8 7782 6638 6991 6697 9811 8667 9020 8726
8 6707 6639 6099 6098 8736 8668 8128 8127
8 6639 6640 6536 6099 8668 8669 8565 8128
8 6212 6785 6708 6640 8241 8814 8737 8669
8 6211 6641 6708 6785 8240 8670 8737 8814
8 7814 6940 6996 6211 9843 8969 9025 8240
8 6642 6710 6103 6538 8671 8739 8132 8567
8 7341 7175 6210 7082 9370 9204 8239 9111
8 6710 6643 6104 6103 8739 8672 8133 8132
8 7169 6932 6997 6209 9198 8961 9026 8238
8 6539 6104 6643 6644 8568 8133 8672 8673
8 6645 6646 6540 6106 8674 8675 8569 8135
8 6207 7694 6712 6646 8236 9723 8741 8675
8 6712 6647 6108 6107 8741 8676 8137 8136
8 6206 6886 6648 6647 8235 8915 8677 8676
8 6541 6108 6647 6648 8570 8137 8676 8677
8 6649 6650 6542 6110 8678 8679 8571 8139
8 7165 6714 6650 6204 9194 8743 8679 8233
8 6714 6651 6543 6111 8743 8680 8572 8140
8 6203 6787 6715 6651 8232 8816 8744 8680
8 6202 6652 6715 6787 8231 8681 8744 8816
8 6202 6984 6695 6652 8231 9013 8724 8681
8 6716 6653 6115 6114 8745 8682 8144 8143
8 6653 6654 6545 6115 8682 8683 8574 8144
8 6788 6717 6654 6200 8817 8746 8683 8229
8 6199 6655 6717 6788 8228 8684 8746 8817
8 6656 6718 6120 6547 8685 8747 8149 8576
8 6546 6117 6655 6656 8575 8146 8684 8685
8 6548 6121 6657 6619 8577 8150 8686 8648
8 6723 6658 6130 6129 8752 8687 8159 8158
8 6553 6130 6658 6659 8582 8159 8687 8688
8 6381 7060 7028 7189 8410 9089 9057 9218
8 7909 7283 7101 6949 9938 9312 9130 8978
8 7537 7327 7295 7472 9566 9356 9324 9501
8 7696 8102 7655 7658 9725 10131 9684 9687
8 7521 7674 7700 7577 9550 9703 9729 9606
8 7399 7216 6446 7293 9428 9245 8475 9322
8 6465 7247 7254 7167 8494 9276 9283 9196
8 7098 6475 7000 7019 9127 8504 9029 9048
8 7000 6475 6938 6876 9029 8504 8967 8905
8 6466 6583 6167 7098 8495 8612 8196 9127
8 6358 6981 6659 6658 8387 9010 8688 8687
8 6724 6660 6132 6131 8753 8689 8161 8160
8 6554 6132 6660 6661 8583 8161 8689 8690
8 6413 6662 6725 6791 8442 8691 8754 8820
8 7838 6941 6998 6413 9867 8970 9027 8442
8 6663 6727 6136 6556 8692 8756 8165 8585
8 7342 7174 6422 7081 9371 9203 8451 9110
8 6727 6664 6137 6136 8756 8693 8166 8165
8 7168 6933 6999 6431 9197 8962 9028 8460
8 6864 6827 6792 6440 8893 8856 8821 8469
8 7118 6450 7194 7197 9147 8479 9223 9226
8 6461 8052 7587 7502 8490 10081 9616 9531
8 7645 7705 7723 6470 9674 9734 9752 8499
8 8039 6481 7581 7451 10068 8510 9610 9480
8 7040 7140 7232 6491 9069 9169 9261 8520
8 6871 6897 7006 6501 8900 8926 9035 8530
8 6746 6773 6830 6511 8775 8802 8859 8540
8 6746 6588 6173 6519 8775 8617 8202 8548
8 6511 6172 6588 6746 8540 8201 8617 8775
8 6745 6587 6172 6511 8774 8616 8201 8540
8 6502 6171 6587 6745 8531 8200 8616 8774
8 6832 6802 6687 6502 8861 8831 8716 8531
8 6491 7034 6892 6965 8520 9063 8921 8994
8 7221 6482 7231 7369 9250 8511 9260 9398
8 7534 7996 7683 7610 9563 10025 9712 9639
8 7635 7624 6461 7511 9664 9653 8490 9540
8 7104 7225 7366 6451 9133 9254 9395 8480
8 7191 8033 6442 7023 9220 10062 8471 9052
8 6423 7081 6422 7064 8452 9110 8451 9093
8 6993 6864 6933 7860 9022 8893 8962 9889
8 6557 6137 6664 6665 8586 8166 8693 8694
8 6440 6792 6728 6665 8469 8821 8757 8694
8 6449 7804 6995 7037 8478 9833 9024 9066
8 7393 7929 7970 7905 9422 9958 9999 9934
8 7506 6478 7448 8002 9535 8507 9477 10031
8 7513 8101 7687 8053 9542 10130 9716 10082
8 7993 7560 7600 8040 10022 9589 9629 10069
8 7067 7147 8031 6500 9096 9176 10060 8529
8 6869 6907 7008 6510 8898 8936 9037 8539
8 7767 6771 6820 6519 9796 8800 8849 8548
8 6528 7767 6589 6174 8557 9796 8618 8203
8 6519 6173 6589 7767 8548 8202 8618 9796
8 6666 6667 6558 6139 8695 8696 8587 8168
8 7059 7834 6458 7695 9088 9863 8487 9724
8 6559 6141 6668 6669 8588 8170 8697 8698
8 6670 6671 6560 6143 8699 8700 8589 8172
8 7164 6731 6671 6476 9193 8760 8700 8505
8 6731 6672 6561 6144 8760 8701 8590 8173
8 6485 6793 6732 7798 8514 8822 8761 9827
8 6987 6921 6495 6814 9016 8950 8524 8843
8 7881 7847 7844 7106 9910 9876 9873 9135
8 6974 7825 6523 6797 9003 9854 8552 8826
8 6673 6740 6884 6524 8702 8769 8913 8553
8 6673 6741 6156 6571 8702 8770 8185 8600
8 6524 7359 6741 6673 8553 9388 8770 8702
8 6573 6572 6674 6742 8602 8601 8703 8771
8 6675 6743 6574 6157 8704 8772 8603 8186
8 7810 6908 7014 6973 9839 8937 9043 9002
8 7069 6907 7133 7850 9098 8936 9162 9879
8 7149 7894 7202 6509 9178 9923 9231 8538
8 7202 7942 7308 7980 9231 9971 9337 10009
8 7942 6508 7993 7308 9971 8537 10022 9337
8 6506 7358 7503 7634 8535 9387 9532 9663
8 7230 7267 7112 7031 9259 9296 9141 9060
8 6145 7785 7784 6146 8174 9814 9813 8175
8 6676 6990 6677 7784 8705 9019 8706 9813
8 7066 6512 7769 7777 9095 8541 9798 9806
8 6854 6522 6796 7821 8883 8551 8825 9850
8 6739 6678 6797 6523 8768 8707 8826 8552
8 6678 6739 6570 6569 8707 8768 8599 8598
8 6733 6679 6148 6147 8762 8708 8177 8176
8 6563 6148 6679 6680 8592 8177 8708 8709
8 6520 6681 6734 6794 8549 8710 8763 8823
8 6682 6735 6152 6565 8711 8764 8181 8594
8 6564 6150 6681 6682 8593 8179 8710 8711
8 6683 6736 6567 6566 8712 8765 8596 8595
8 6683 7799 6882 6736 8712 9828 8911 8765
8 6882 6521 6737 6736 8911 8550 8766 8765
8 6823 7821 6796 6521 8852 9850 8825 8550
8 7010 6846 6794 6512 9039 8875 8823 8541
8 7777 7083 7025 7066 9806 9112 9054 9095
8 6512 6680 6679 7769 8541 8709 8708 9798
8 6154 6568 6684 6738 8183 8597 8713 8767
8 6526 6675 6742 7402 8555 8704 8771 9431
8 6685 6744 6575 6158 8714 8773 8604 8187
8 7809 6810 6528 6798 9838 8839 8557 8827
8 6527 6685 6743 6883 8556 8714 8772 8912
8 6575 6744 6779 6576 8604 8773 8808 8605
8 6687 6170 6171 6502 8716 8199 8200 8531
8 6493 6837 6805 6688 8522 8866 8834 8717
8 7137 6482 6963 7034 9166 8511 8992 9063
8 7897 7431 6472 7467 9926 9460 8501 9496
8 6463 7610 6462 7647 8492 9639 8491 9676
8 7511 6452 7638 7570 9540 8481 9667 9599
8 6423 7099 7304 7863 8452 9128 9333 9892
8 6998 6941 7064 6422 9027 8970 9093 8451
8 6555 6134 6662 6686 8584 8163 8691 8715
8 6170 6687 6493 6586 8199 8716 8522 8615
8 6586 6493 6688 6169 8615 8522 8717 8198
8 6474 7206 6473 7330 8503 9235 8502 9359
8 7343 6464 7482 7461 9372 8493 9511 9490
8 8018 7576 7445 7750 10047 9605 9474 9779
8 7654 8115 6443 7530 9683 10144 8472 9559
8 7698 7613 7535 6433 9727 9642 9564 8462
8 7838 6413 6791 6844 9867 8442 8820 8873
8 6404 6791 6725 6661 8433 8820 8754 8690
8 6169 6688 6484 6585 8198 8717 8513 8614
8 6484 7808 6876 6938 8513 9837 8905 8967
8 7822 6474 7019 7000 9851 8503 9048 9029
8 6455 7097 7167 7254 8484 9126 9196 9283
8 7291 7216 7399 6445 9320 9245 9428 8474
8 7613 7648 7655 6434 9642 9677 9684 8463
8 7189 7028 7002 6404 9218 9057 9031 8433
8 6175 6781 6390 6604 8204 8810 8419 8633
8 6190 6604 6390 6754 8219 8633 8419 8783
8 6391 6769 6858 6925 8420 8798 8887 8954
8 6903 6972 6345 7048 8932 9001 8374 9077
8 8019 6323 7251 7292 10048 8352 9280 9321
8 7489 7531 7584 6277 9518 9560 9613 8306
8 7296 7973 7489 6277 9325 10002 9518 8306
8 6254 7105 7024 7192 8283 9134 9053 9221
8 6754 6836 6603 6190 8783 8865 8632 8219
8 6391 6905 6873 6836 8420 8934 8902 8865
8 6905 7395 7277 7346 8934 9424 9306 9375
8 6323 7477 7319 7251 8352 9506 9348 9280
8 7516 7573 6301 7640 9545 9602 8330 9669
8 7983 7649 7656 6278 10012 9678 9685 8307
8 7892 6255 7614 7536 9921 8284 9643 9565
8 7837 6233 7100 7305 9866 8262 9129 9334
8 6873 6392 6602 6189 8902 8421 8631 8218
8 6601 6188 7161 6393 8630 8217 9190 8422
8 6393 7161 7219 7005 8422 9190 9248 9034
8 7205 7286 6370 7152 9234 9315 8399 9181
8 7317 7405 6325 7250 9346 9434 8354 9279
8 8060 7441 7574 6303 10089 9470 9603 8332
8 7659 7622 6279 7533 9688 9651 8308 9562
8 7891 7326 7473 7538 9920 9355 9502 9567
8 6857 6371 6818 6768 8886 8400 8847 8797
8 6902 7045 6349 6971 8931 9074 8378 9000
8 7250 6325 7321 7158 9279 8354 9350 9187
8 7321 7500 8038 8097 9350 9529 10067 10126
8 7963 6280 7487 7982 9992 8309 9516 10011
8 7898 7223 7294 6257 9927 9252 9323 8286
8 6234 7853 6948 7021 8263 9882 8977 9050
8 7814 6211 6785 6843 9843 8240 8814 8872
8 6600 6186 7793 6394 8629 8215 9822 8423
8 6372 6829 6774 6866 8401 8858 8803 8895
8 6350 7009 6906 7070 8379 9038 8935 9099
8 7236 7150 7306 6327 9265 9179 9335 8356
8 7217 7321 8097 6326 9246 9350 10126 8355
8 7487 6281 7508 7559 9516 8310 9537 9588
8 7201 7381 7426 6258 9230 9410 9455 8287
8 7381 7201 7145 7883 9410 9230 9174 9912
8 6235 7001 6212 7027 8264 9030 8241 9056
8 6185 6600 6394 6753 8214 8629 8423 8782
8 6753 6395 6599 6185 8782 8424 8628 8214
8 6752 6396 6598 6184 8781 8425 8627 8213
8 6751 6397 6597 6183 8780 8426 8626 8212
8 6750 6398 6596 6182 8779 8427 8625 8211
8 6749 6399 6595 6181 8778 8428 8624 8210
8 6748 6400 6594 6180 8777 8429 8623 8209
8 6747 6401 6178 6179 8776 8430 8207 8208
8 6821 6402 6765 6772 8850 8431 8794 8801
8 7768 6698 6770 6403 9797 8727 8799 8432
8 7786 6591 6176 7768 9815 8620 8205 9797
8 6403 6782 6690 6755 8432 8811 8719 8784
8 6929 7805 7819 6899 8958 9834 9848 8928
8 7519 7545 7604 6310 9548 9574 9633 8339
8 6286 7717 7702 7718 8315 9746 9731 9747
8 7668 6285 7505 7606 9697 8314 9534 9635
8 6261 7207 7322 7385 8290 9236 9351 9414
8 6214 6813 6920 6853 8243 8842 8949 8882
8 7109 7030 6237 6957 9138 9059 8266 8986
8 7272 6259 7268 7111 9301 8288 9297 9140
8 7843 6853 6237 6989 9872 8882 8266 9018
8 6690 6756 6607 6606 8719 8785 8636 8635
8 6380 7806 6757 6756 8409 9835 8786 8785
8 6950 7771 7378 7080 8979 9800 9407 9109
8 7414 7875 7350 7462 9443 9904 9379 9491
8 8065 7544 7483 7605 10094 9573 9512 9634
8 7460 7527 8017 8016 9489 9556 10046 10045
8 6240 7392 6263 7411 8269 9421 8292 9440
8 6986 7077 7153 7876 9015 9106 9182 9905
8 6239 7322 7207 7153 8268 9351 9236 9182
8 6757 6691 6608 6193 8786 8720 8637 8222
8 6357 7173 6758 6691 8386 9202 8787 8720
8 7379 7364 6335 7345 9408 9393 8364 9374
8 7178 7086 7948 7274 9207 9115 9977 9303
8 8065 6287 7995 7544 10094 8316 10024 9573
8 7882 7084 7392 6240 9911 9113 9421 8269
8 7360 7257 7347 7337 9389 9286 9376 9366
8 6262 7407 7411 7447 8291 9436 9440 9476
8 6692 6700 6610 6609 8721 8729 8639 8638
8 6311 7050 6911 7124 8340 9079 8940 9153
8 7922 7852 7921 7436 9951 9881 9950 9465
8 7940 7134 7776 8015 9969 9163 9805 10044
8 7177 7273 7392 7084 9206 9302 9421 9113
8 6198 6614 6693 6763 8227 8643 8722 8792
8 6244 6800 6763 6693 8273 8829 8792 8722
8 6694 6761 6613 6612 8723 8790 8642 8641
8 6267 6799 6762 6761 8296 8828 8791 8790
8 6860 6244 6799 6824 8889 8273 8828 8853
8 7013 6961 7854 7280 9042 8990 9883 9309
8 8016 6264 7940 8015 10045 8293 9969 10044
8 7965 7013 7280 7198 9994 9042 9309 9227
8 7135 7920 7921 7852 9164 9949 9950 9881
8 7051 6975 7135 7074 9080 9004 9164 9103
8 7787 6694 6612 6196 9816 8723 8641 8225
8 7125 7051 7074 6267 9154 9080 9103 8296
8 7803 6824 6799 6267 9832 8853 8828 8296
8 6544 6113 6652 6695 8573 8142 8681 8724
8 6650 6649 7363 6204 8679 8678 9392 8233
8 6711 6786 7794 6645 8740 8815 9823 8674
8 6537 6101 6641 6696 8566 8130 8670 8725
8 7337 6216 6635 7360 9366 8245 8664 9389
8 6702 6783 6219 6631 8731 8812 8248 8660
8 6862 6825 6789 6222 8891 8854 8818 8251
8 7195 7945 7339 7117 9224 9974 9368 9146
8 7709 6271 8047 7591 9738 8300 10076 9620
8 6295 8080 7743 7762 8324 10109 9772 9791
8 6318 7742 7713 7781 8347 9771 9742 9810
8 7586 7629 7741 6364 9615 9658 9770 8393
8 7797 6809 6878 6890 9826 8838 8907 8919
8 6781 6175 6795 6807 8810 8204 8824 8836
8 7203 7848 7026 7107 9232 9877 9055 9136
8 7901 6248 7270 7900 9930 8277 9299 9929
8 7353 6272 7492 7419 9382 8301 9521 9448
8 7761 7714 8103 6296 9790 9743 10132 8325
8 7764 8022 7747 7752 9793 10051 9776 9781
8 6342 7760 7755 7741 8371 9789 9784 9770
8 7015 6366 6891 6943 9044 8395 8920 8972
8 6754 6390 6819 6769 8783 8419 8848 8798
8 6918 6851 6225 6983 8947 8880 8254 9012
8 7900 7229 7877 7114 9929 9258 9906 9143
8 7353 7243 7113 6249 9382 9272 9142 8278
8 7514 8091 8004 6273 9543 10120 10033 8302
8 6296 7757 7764 7761 8325 9786 9793 9790
8 7585 7628 8054 6320 9614 9657 10083 8349
8 7868 7185 6344 7092 9897 9214 8373 9121
8 7043 7121 6345 6972 9072 9150 8374 9001
8 7289 6959 6919 6226 9318 8988 8948 8255
8 7465 7418 7902 7387 9494 9447 9931 9416
8 7722 7667 7609 6274 9751 9696 9638 8303
8 8073 7725 7745 6298 10102 9754 9774 8327
8 7542 6321 7433 7471 9571 8350 9462 9500
8 7121 7181 7218 6345 9150 9210 9247 8374
8 7165 7075 6985 6203 9194 9104 9014 8232
8 7155 6227 7325 7211 9184 8256 9354 9240
8 6251 7551 7955 7450 8280 9580 9984 9479
8 7592 7646 7706 6274 9621 9675 9735 8303
8 8073 7691 8066 7641 10102 9720 10095 9670
8 6322 7525 8028 7452 8351 9554 10057 9481
8 7831 7351 7336 7255 9860 9380 9365 9284
8 6250 7409 7415 7450 8279 9438 9444 9479
8 7936 7685 7923 6252 9965 9714 9952 8281
8 7571 7510 7475 6276 9600 9539 9504 8305
8 8000 7707 7584 6300 10029 9736 9613 8329
8 7276 7088 7053 7180 9305 9117 9082 9209
8 7884 6253 7365 7633 9913 8282 9394 9662
8 7475 7365 7401 6276 9504 9394 9430 8305
8 6912 7812 7127 6976 8941 9841 9156 9005
8 7867 6230 7193 7196 9896 8259 9222 9225
8 6994 6952 7193 6230 9023 8981 9222 8259
8 6978 7058 7073 7893 9007 9087 9102 9922
8 6822 6956 6219 6783 8851 8985 8248 8812
8 6860 6842 6800 6244 8889 8871 8829 8273
8 7036 6245 6789 6825 9065 8274 8818 8854
8 7087 6269 7179 7275 9116 8298 9208 9304
8 7608 7504 7449 7554 9637 9533 9478 9583
8 7670 7690 8056 6316 9699 9719 10085 8345
8 7740 7724 7704 7715 9769 9753 9733 9744
8 7916 7432 7470 6387 9945 9461 9499 8416
8 6388 7044 7143 7344 8417 9073 9172 9373
8 6795 6412 6816 6809 8824 8441 8845 8838
8 7266 6247 7195 7203 9295 8276 9224 9232
8 7900 7270 7954 7229 9929 9299 9983 9258
8 7113 7901 7032 6959 9142 9930 9061 8988
8 7902 7211 7325 7387 9931 9240 9354 9416
8 6251 7450 7415 7878 8280 9479 9444 9907
8 7276 7394 6228 7088 9305 9423 8257 9117
8 6229 7340 7375 7180 8258 9369 9404 9209
8 7377 7738 7753 6232 9406 9767 9782 8261
8 6256 7732 7837 7305 8285 9761 9866 9334
8 7305 7100 7021 7234 9334 9129 9050 9263
8 7027 7145 7201 6235 9056 9174 9230 8264
8 7030 6260 7272 7111 9059 8289 9301 9140
8 7557 7491 7422 6284 9586 9520 9451 8313
8 6354 7281 7397 7200 8383 9310 9426 9229
8 6377 7172 6893 7120 8406 9201 8922 9149
8 6831 6401 6747 6776 8860 8430 8776 8805
8 6401 6765 6593 6178 8430 8794 8622 8207
8 6379 6821 6772 6868 8408 8850 8801 8897
8 6821 6770 6698 6402 8850 8799 8727 8431
8 6402 6698 6592 6177 8431 8727 8621 8206
8 7355 6284 7422 7927 9384 8313 9451 9956
8 7241 7992 7310 6260 9270 10021 9339 8289
8 7355 7927 6261 7385 9384 9956 8290 9414
8 7606 7505 7447 7553 9635 9534 9476 9582
8 7594 7583 8017 7672 9623 9612 10046 9701
8 6265 7966 7460 7437 8294 9995 9489 9466
8 6268 6720 6621 7801 8297 8749 8650 9830
8 7055 6977 7054 7128 9084 9006 9083 9157
8 6977 7055 7129 6913 9006 9084 9158 8942
8 6293 7449 7410 7413 8322 9478 9439 9442
8 7417 7455 7416 7352 9446 9484 9445 9381
8 7730 7671 6363 7543 9759 9700 8392 9572
8 7370 7432 7916 7182 9399 9461 9945 9211
8 6856 6901 6969 6411 8885 8930 8998 8440
8 7162 7004 6927 6421 9191 9033 8956 8450
8 6430 7162 7792 7791 8459 9191 9821 9820
8 6269 7339 7374 7179 8298 9368 9403 9208
8 7709 7991 6270 8006 9738 10020 8299 10035
8 7312 7243 7353 7419 9341 9272 9382 9448
8 7418 8092 6272 7353 9447 10121 8301 9382
8 7551 7609 6273 7955 9580 9638 8302 9984
8 7685 7588 7646 7592 9714 9617 9675 9621
8 7973 7931 7303 7951 10002 9960 9332 9980
8 7891 7538 7611 6256 9920 9567 9640 8285
8 7326 6257 7294 7962 9355 8286 9323 9991
8 6281 7429 7223 7368 8310 9458 9252 9397
8 7508 6281 7368 7458 9537 8310 9397 9487
8 7468 6259 7272 7540 9497 8288 9301 9569
8 7550 7529 8081 6283 9579 9558 10110 8312
8 8020 7711 7663 7601 10049 9740 9692 9630
8 7960 7142 7956 7239 9989 9171 9985 9268
8 6834 6400 6748 6801 8863 8429 8777 8830
8 6834 6776 6747 6400 8863 8805 8776 8429
8 7603 6307 7675 7746 9632 8336 9704 9775
8 7675 7557 6284 7512 9704 9586 8313 9541
8 7688 6285 7668 7734 9717 8314 9697 9763
8 7718 7668 7606 6286 9747 9697 9635 8315
8 7682 7702 7717 8046 9711 9731 9746 10075
8 7544 7971 6288 7483 9573 10000 8317 9512
8 7050 7086 7178 6289 9079 9115 9207 8318
8 6289 7842 6911 7050 8318 9871 8940 9079
8 6611 6195 6759 7788 8640 8224 8788 9817
8 6291 6623 6622 6887 8320 8652 8651 8916
8 6977 6913 6887 6268 9006 8942 8916 8297
8 6291 7129 6292 7256 8320 9158 8321 9285
8 6314 7324 7213 7156 8343 9353 9242 9185
8 8083 6361 7313 8093 10112 8390 9342 10122
8 6362 7653 7528 7548 8391 9682 9557 9577
8 7988 7390 7526 7582 10017 9419 9555 9611
8 7047 7157 7215 6410 9076 9186 9244 8439
8 7285 6420 7151 7204 9314 8449 9180 9233
8 7220 6430 7252 7314 9249 8459 9281 9343
8 7789 7796 7252 7790 9818 9825 9281 9819
8 7596 6294 7591 8047 9625 8323 9620 10076
8 8047 7492 7555 7596 10076 9521 9584 9625
8 8100 7555 7514 7676 10129 9584 9543 9705
8 6298 7662 6275 7625 8327 9691 8304 9654
8 8073 6298 7625 7636 10102 8327 9654 9665
8 6301 7630 7531 7621 8330 9659 9560 9650
8 7697 8067 7656 7657 9726 10096 9685 9686
8 7574 6302 7622 7659 9603 8331 9651 9688
8 8037 7599 7487 7559 10066 9628 9516 9588
8 7680 6304 7679 8069 9709 8333 9708 10098
8 7602 6305 7618 7650 9631 8334 9647 9679
8 6327 7562 7602 7495 8356 9591 9631 9524
8 7712 6329 7959 7299 9741 8358 9988 9328
8 6353 7011 6904 7071 8382 9040 8933 9100
8 6839 6399 6749 6804 8868 8428 8778 8833
8 6839 6801 6748 6399 8868 8830 8777 8428
8 7557 8063 7597 7491 9586 10092 9626 9520
8 7397 7779 7446 8010 9426 9808 9475 10039
8 7522 8044 7579 8061 9551 10073 9608 10090
8 8064 7673 7701 7578 10093 9702 9730 9607
8 8061 7673 8064 7522 10090 9702 10093 9551
8 7949 7617 7604 7545 9978 9646 9633 9574
8 7941 6333 7462 7331 9970 8362 9491 9360
8 7826 7124 6312 7224 9855 9153 8341 9253
8 6721 6624 6127 6126 8750 8653 8156 8155
8 7362 7335 7214 6313 9391 9364 9243 8342
8 6314 7156 7076 7214 8343 9185 9105 9243
8 7290 7985 7115 6960 9319 10014 9144 8989
8 6361 7498 7269 7313 8390 9527 9298 9342
8 7616 6384 7619 8048 9645 8413 9648 10077
8 7383 7316 7249 6419 9412 9345 9278 8448
8 7183 7845 6438 7122 9212 9874 8467 9151
8 6855 6926 6439 6766 8884 8955 8468 8795
8 7957 6293 7413 7928 9986 8322 9442 9957
8 7744 7781 6317 7729 9773 9810 8346 9758
8 7714 7761 8058 7744 9743 9790 10087 9773
8 7703 7968 7726 6319 9732 9997 9755 8348
8 7641 7542 7585 6320 9670 9571 9614 8349
8 7292 6322 7452 8019 9321 8351 9481 10048
8 7573 7516 7477 6323 9602 9545 9506 8352
8 7775 6324 7441 7439 9804 8353 9470 9468
8 8023 7500 7321 6325 10052 9529 9350 8354
8 7602 7562 7773 6305 9631 9591 9802 8334
8 6328 7495 7602 7561 8357 9524 9631 9590
8 7495 6328 7238 7307 9524 8357 9267 9336
8 6966 7835 6895 7855 8995 9864 8924 9884
8 6841 6398 6750 6806 8870 8427 8779 8835
8 6841 6804 6749 6398 8870 8833 8778 8427
8 7603 8043 7663 6307 9632 10072 9692 8336
8 7565 7484 8009 6329 9594 9513 10038 8358
8 7872 6354 7139 7039 9901 8383 9168 9068
8 7430 7259 7282 6332 9459 9288 9311 8361
8 7297 7443 7941 7260 9326 9472 9970 9289
8 7949 7443 7297 7430 9978 9472 9326 9459
8 7260 7941 7331 7903 9289 9970 9360 9932
8 7080 7173 6357 7022 9109 9202 8386 9051
8 6313 7214 7076 7166 8342 9243 9105 9195
8 6337 6917 6811 6980 8366 8946 8840 9009
8 6360 7228 7116 7033 8389 9257 9145 9062
8 7427 7459 6407 7367 9456 9488 8436 9396
8 8108 6417 8085 8107 10137 8446 10114 10136
8 7406 7442 7520 6418 9435 9471 9549 8447
8 6438 6900 7046 7122 8467 8929 9075 9151
8 6865 6817 6448 6775 8894 8846 8477 8804
8 6338 7213 7324 7388 8367 9242 9353 9417
8 7352 6338 7388 7417 9381 8367 9417 9446
8 6339 8098 7677 6340 8368 10127 9706 8369
8 7740 6340 7728 7724 9769 8369 9757 9753
8 7748 7759 7752 7747 9777 9788 9781 9776
8 7765 8012 7726 7968 9794 10041 9755 9997
8 7181 6344 7471 7433 9210 8373 9500 9462
8 7218 7160 7048 6345 9247 9189 9077 8374
8 6346 7160 7251 7319 8375 9189 9280 9348
8 7382 7317 7250 6348 9411 9346 9279 8377
8 6348 7250 7158 7890 8377 9279 9187 9919
8 7217 7150 7070 6349 9246 9179 9099 8378
8 7933 7148 7236 7307 9962 9177 9265 9336
8 7846 7841 6898 7068 9875 9870 8927 9097
8 6838 6397 6751 6803 8867 8426 8780 8832
8 6397 6750 6182 6597 8426 8779 8211 8626
8 6838 6806 6750 6397 8867 8835 8779 8426
8 6351 7924 7041 7007 8380 9953 9070 9036
8 6352 7958 7142 7071 8381 9987 9171 9100
8 6378 7827 7871 7171 8407 9856 9900 9200
8 7871 7772 7227 7171 9900 9801 9256 9200
8 6378 7018 6379 6868 8407 9047 8408 8897
8 6968 7079 6356 7820 8997 9108 8385 9849
8 6357 7806 6909 7022 8386 9835 8938 9051
8 6790 6811 6850 6358 8819 8840 8879 8387
8 6917 6960 7033 6359 8946 8989 9062 8388
8 7244 8093 7313 8079 9273 10122 9342 10108
8 7493 8057 7548 8083 9522 10086 9577 10112
8 7727 7704 7724 6341 9756 9733 9753 8370
8 7586 7543 6363 7629 9615 9572 8392 9658
8 7278 6364 7741 7755 9307 8393 9770 9784
8 7357 7015 7093 6365 9386 9044 9122 8394
8 6972 6903 6858 6367 9001 8932 8887 8396
8 7277 7184 7404 7384 9306 9213 9433 9413
8 6369 7328 7205 7152 8398 9357 9234 9181
8 7286 6902 6857 6370 9315 8931 8886 8399
8 6971 6906 6866 6371 9000 8935 8895 8400
8 6350 7068 6898 7009 8379 9097 8927 9038
8 6833 6396 6752 6778 8862 8425 8781 8807
8 6396 6751 6183 6598 8425 8780 8212 8627
8 6833 6803 6751 6396 8862 8832 8780 8425
8 7007 6895 6945 7817 9036 8924 8974 9846
8 6966 6904 6848 6374 8995 8933 8877 8403
8 6847 6375 7011 7072 8876 8404 9040 9101
8 7872 7039 6893 7829 9901 9068 8922 9858
8 6981 6916 7060 6381 9010 8945 9089 8410
8 7228 7987 7265 7116 9257 10016 9294 9145
8 7967 6383 7541 7469 9996 8412 9570 9498
8 8075 7528 7619 6384 10104 9557 9648 8413
8 7582 7716 7671 7730 9611 9745 9700 9759
8 7988 6386 7964 7470 10017 8415 9993 9499
8 7839 7091 7186 7016 9868 9120 9215 9045
8 7797 6890 7012 6389 9826 8919 9041 8418
8 6369 7152 7005 7219 8398 9181 9034 9248
8 7793 6689 6928 6768 9822 8718 8957 8797
8 6818 6774 6753 6394 8847 8803 8782 8423
8 6395 6752 6184 6599 8424 8781 8213 8628
8 6829 6778 6752 6395 8858 8807 8781 8424
8 7028 7146 7974 6405 9057 9175 10003 8434
8 7002 6844 6791 6404 9031 8873 8820 8433
8 8114 7558 8049 8106 10143 9587 10078 10135
8 7453 8113 7526 8042 9482 10142 9555 10071
8 6409 7370 7182 7215 8438 9399 9211 9244
8 6410 7143 7044 6969 8439 9172 9073 8998
8 6411 6878 6809 6816 8440 8907 8838 8845
8 6949 6414 6881 6942 8978 8443 8910 8971
8 7101 7222 8014 7939 9130 9251 10043 9968
8 7939 6414 6949 7101 9968 8443 8978 9130
8 6416 7486 8085 7547 8445 9515 10114 9576
8 6418 7520 7766 7499 8447 9549 9795 9528
8 6409 7215 7157 7320 8438 9244 9186 9349
8 6420 7285 7047 6901 8449 9314 9076 8930
8 6421 6927 6856 6767 8450 8956 8885 8796
8 6424 7733 7863 7304 8453 9762 9892 9333
8 7658 6425 7532 7623 9687 8454 9561 9652
8 7327 7537 7612 6424 9356 9566 9641 8453
8 7442 8032 7626 8109 9471 10061 9655 10138
8 7316 7406 6418 7249 9345 9435 8447 9278
8 6429 7329 7204 7151 8458 9358 9233 9180
8 6430 7220 7004 7162 8459 9249 9033 9191
8 7907 7739 7754 6432 9936 9768 9783 8461
8 7535 8062 7488 7302 9564 10091 9517 9331
8 7572 8082 7639 7517 9601 10111 9668 9546
8 6436 7478 7318 7248 8465 9507 9347 9277
8 7403 7183 7122 6437 9432 9212 9151 8466
8 7845 7170 6926 6438 9874 9199 8955 8467
8 6451 7194 7906 7104 8480 9223 9935 9133
8 6441 7023 7104 7906 8470 9052 9133 9935
8 8110 7400 7366 7225 10139 9429 9395 9254
8 8115 6444 7708 7780 10144 8473 9737 9809
8 7216 7291 7248 7159 9245 9320 9277 9188
8 7576 7521 6445 7445 9605 9550 8474 9474
8 6446 7046 6900 6970 8475 9075 8929 8999
8 6447 6855 6766 6817 8476 8884 8795 8846
8 6995 7804 6792 6827 9024 9833 8821 8856
8 7366 7476 7425 6451 9395 9505 9454 8480
8 7710 6463 7647 7720 9739 8492 9676 9749
8 7293 6446 6970 7190 9322 8475 8999 9219
8 7438 7444 6455 7343 9467 9473 8484 9372
8 6456 6865 6775 6828 8485 8894 8804 8857
8 6449 7695 6729 6667 8478 9724 8758 8696
8 7118 7132 7834 7059 9147 9161 9863 9088
8 7057 7131 6915 6979 9086 9160 8944 9008
8 7950 7448 7408 7412 9979 9477 9437 9441
8 8026 6488 7354 7456 10055 8517 9383 9485
8 6498 7549 7556 7731 8527 9578 9585 9760
8 7994 7664 7600 7560 10023 9693 9629 9589
8 6459 7197 7373 7176 8488 9226 9402 9205
8 8089 7661 6461 7624 10118 9690 8490 9653
8 7518 7534 7610 6463 9547 9563 9639 8492
8 7221 7431 7897 6473 9250 9460 9926 8502
8 7807 6867 7263 6936 9836 8896 9292 8965
8 7254 7247 7372 6464 9283 9276 9401 8493
8 6458 6889 6669 6668 8487 8918 8698 8697
8 7834 6915 6889 6458 9863 8944 8918 8487
8 6467 7131 6468 7258 8496 9160 8497 9287
8 7386 7208 7154 7323 9415 9237 9183 9352
8 6497 7311 7242 7421 8526 9340 9271 9450
8 6469 7686 8003 7593 8498 9715 10032 9622
8 7389 8039 7451 7523 9418 10068 9480 9552
8 6480 7751 7523 7451 8509 9780 9552 9480
8 7144 7206 7858 7035 9173 9235 9887 9064
8 6730 6670 6143 6142 8759 8699 8172 8171
8 7361 7338 7210 6476 9390 9367 9239 8505
8 6477 7154 7078 7210 8506 9183 9107 9239
8 6921 7288 7110 6958 8950 9317 9139 8987
8 6488 7421 7914 7354 8517 9450 9943 9383
8 6469 7950 7412 7904 8498 9979 9441 9933
8 7669 8030 6479 7506 9698 10059 8508 9535
8 6490 7298 7137 7232 8519 9327 9166 9261
8 8041 6481 7231 7298 10070 8510 9260 9327
8 7034 6963 6483 6892 9063 8992 8512 8921
8 6805 7808 6484 6688 8834 9837 8513 8717
8 6476 7210 7078 7164 8505 9239 9107 9193
8 7110 6496 7031 6958 9139 8525 9060 8987
8 7208 7386 7420 6487 9237 9415 9449 8516
8 6488 8026 7719 7556 8517 10055 9748 9585
8 7632 6480 7451 7581 9661 8509 9480 9610
8 6500 7040 6894 7006 8529 9069 8923 9035
8 6491 6965 6894 7040 8520 8994 8923 9069
8 6837 6493 6687 6802 8866 8522 8716 8831
8 6793 6814 6852 6494 8822 8843 8881 8523
8 8031 7237 7300 7140 10060 9266 9329 9169
8 6830 6777 6745 6511 8859 8806 8774 8540
8 6832 6502 6745 6777 8861 8531 8774 8806
8 6988 7062 7813 6922 9017 9091 9842 8951
8 6924 6954 7187 6514 8953 8983 9216 8543
8 7240 6910 7049 6515 9269 8939 9078 8544
8 7380 6525 7359 7424 9409 8554 9388 9453
8 7424 7356 6516 7380 9453 9385 8545 9409
8 7402 7301 7261 6526 9431 9330 9290 8555
8 7301 7332 6517 7261 9330 9361 8546 9290
8 7851 6517 7332 7398 9880 8546 9361 9427
8 7589 7563 7857 6507 9618 9592 9886 8536
8 7994 7560 7494 7943 10023 9589 9523 9972
8 7094 7187 6506 7279 9123 9216 8535 9308
8 7240 6515 7396 7823 9269 8544 9425 9852
8 7008 7932 7067 6897 9037 9961 9096 8926
8 7010 6513 6953 6930 9039 8542 8982 8959
8 7849 7029 6954 7824 9878 9058 8983 9853
8 7049 6974 6514 7879 9078 9003 8543 9908
8 6518 6869 6773 6820 8547 8898 8802 8849
8 6512 6794 6734 6680 8541 8823 8763 8709
8 7799 6520 6794 6846 9828 8549 8823 8875
8 6974 6797 6522 6815 9003 8826 8551 8844
8 6523 7825 6910 6884 8552 9854 8939 8913
8 7261 6908 6883 6526 9290 8937 8912 8555
8 6879 6629 6701 6221 8908 8658 8730 8250
8 6888 6633 6703 6218 8917 8662 8732 8247
8 7360 6635 6704 7800 9389 8664 8733 9829
8 6784 6637 6705 6215 8813 8666 8734 8244
8 6538 6102 6709 6642 8567 8131 8738 8671
8 6209 6997 6643 6710 8238 9026 8672 8739
8 7694 6206 6647 6712 9723 8235 8676 8741
8 6205 7363 6649 6713 8234 9392 8678 8742
8 7165 6203 6651 6714 9194 8232 8680 8743
8 6656 6547 6119 6546 8685 8576 8148 8575
8 6780 6657 6718 6199 8809 8686 8747 8228
8 6245 6620 6719 6789 8274 8649 8748 8818
8 6887 6622 6720 6268 8916 8651 8749 8297
8 7802 7362 6624 6721 9831 9391 8653 8750
8 7166 6336 6626 6722 9195 8365 8655 8751
8 6723 6790 6358 6658 8752 8819 8387 8687
8 6381 7189 6660 6724 8410 9218 8689 8753
8 6556 6135 6726 6663 8585 8164 8755 8692
8 6431 6999 6664 6727 8460 9028 8693 8756
8 7804 6666 6728 6792 9833 8695 8757 8821
8 7695 6458 6668 6729 9724 8487 8697 8758
8 6467 7361 6670 6730 8496 9390 8699 8759
8 7164 7798 6672 6731 9193 9827 8701 8760
8 6732 6793 6494 6676 8761 8822 8523 8705
8 6503 7769 6679 6733 8532 9798 8708 8762
8 6682 6565 6151 6564 8711 8594 8180 8593
8 7799 6683 6735 6520 9828 8712 8764 8549
8 6568 6153 6737 6684 8597 8182 8766 8713
8 6569 6154 6738 6678 8598 8183 8767 8707
8 6571 6155 6740 6673 8600 8184 8769 8702
8 7359 6525 6674 6741 9388 8554 8703 8770
8 6576 6779 6590 6159 8605 8808 8619 8188
8 6412 6795 6175 6577 8441 8824 8204 8606
8 6628 6160 6578 7778 8657 8189 8607 9807
8 6579 7791 7792 6161 8608 9820 9821 8190
8 6835 7789 6163 6580 8864 9818 8192 8609
8 6627 6164 6581 6448 8656 8193 8610 8477
8 6764 6165 6582 6457 8793 8194 8611 8486
8 6937 6166 6583 6466 8966 8195 8612 8495
8 7098 6167 6584 6475 9127 8196 8613 8504
8 6938 6168 6585 6484 8967 8197 8614 8513
8 6590 6779 6528 6174 8619 8808 8557 8203
8 6591 7786 6605 6191 8620 9815 8634 8220
8 6698 7768 6176 6592 8727 9797 8205 8621
8 6765 6402 6177 6593 8794 8431 8206 8622
8 6400 6747 6179 6594 8429 8776 8208 8623
8 6399 6748 6180 6595 8428 8777 8209 8624
8 6398 6749 6181 6596 8427 8778 8210 8625
8 6392 7161 6188 6602 8421 9190 8217 8631
8 6836 6873 6189 6603 8865 8902 8218 8632
8 6606 6192 6755 6690 8635 8221 8784 8719
8 6758 7173 6335 6692 8787 9202 8364 8721
8 7364 6700 6692 6335 9393 8729 8721 8364
8 6760 7125 6694 7787 8789 9154 8723 9816
8 6614 6197 6762 6693 8643 8226 8791 8722
8 6615 6198 6763 6618 8644 8227 8792 8647
8 6617 6701 6087 6529 8646 8730 8116 8558
8 6221 6701 6617 6618 8250 8730 8646 8647
8 6221 6618 6763 6800 8250 8647 8792 8829
8 6222 6789 6719 6619 8251 8818 8748 8648
8 6621 6720 6124 6549 8650 8749 8153 8578
8 6245 7801 6621 6620 8274 9830 8650 8649
8 6720 6622 6125 6124 8749 8651 8154 8153
8 6623 6721 6126 6550 8652 8750 8155 8579
8 6625 6624 7362 6313 8654 8653 9391 8342
8 7362 7802 6291 7256 9391 9831 8320 9285
8 6625 6722 6128 6551 8654 8751 8157 8580
8 6626 6723 6129 6552 8655 8752 8158 8581
8 6835 6627 6766 6439 8864 8656 8795 8468
8 6816 6412 6628 6767 8845 8441 8657 8796
8 6767 6628 7778 6421 8796 8657 9807 8450
8 6630 6702 6089 6530 8659 8731 8118 8559
8 6220 6783 6702 6630 8249 8812 8731 8659
8 6702 6631 6090 6089 8731 8660 8119 8118
8 6632 6703 6091 6531 8661 8732 8120 8560
8 7693 6632 6631 6219 9722 8661 8660 8248
8 6978 6218 7693 7058 9007 8247 9722 9087
8 6634 6704 6093 6532 8663 8733 8122 8561
8 6217 7800 6704 6634 8246 9829 8733 8663
8 6704 6635 6094 6093 8733 8664 8123 8122
8 6636 6705 6095 6533 8665 8734 8124 8562
8 7163 6636 6635 6216 9192 8665 8664 8245
8 6096 6534 6637 7783 8125 8563 8666 9812
8 6097 6096 7783 7782 8126 8125 9812 9811
8 7782 6697 6535 6097 9811 8726 8564 8126
8 7815 7095 7188 6213 9844 9124 9217 8242
8 6697 6991 6213 6707 8726 9020 8242 8736
8 6640 6708 6100 6536 8669 8737 8129 8565
8 6639 7188 6212 6640 8668 9217 8241 8669
8 6708 6641 6101 6100 8737 8670 8130 8129
8 7065 6210 6996 6940 9094 8239 9025 8969
8 7169 6209 7175 7341 9198 8238 9204 9370
8 6644 6711 6105 6539 8673 8740 8134 8568
8 6863 6208 6997 6932 8892 8237 9026 8961
8 6208 6786 6711 6644 8237 8815 8740 8673
8 6711 6645 6106 6105 8740 8674 8135 8134
8 6646 6712 6107 6540 8675 8741 8136 8569
8 7794 6207 6646 6645 9823 8236 8675 8674
8 7052 7812 6206 7694 9081 9841 8235 9723
8 6648 6713 6109 6541 8677 8742 8138 8570
8 6713 6648 6886 6205 8742 8677 8915 8234
8 6713 6649 6110 6109 8742 8678 8139 8138
8 6650 6714 6111 6542 8679 8743 8140 8571
8 6651 6715 6112 6543 8680 8744 8141 8572
8 6715 6652 6113 6112 8744 8681 8142 8141
8 7061 6967 7770 6201 9090 8996 9799 8230
8 6695 6984 6201 6716 8724 9013 8230 8745
8 6654 6717 6116 6545 8683 8746 8145 8574
8 6896 6200 7770 6967 8925 8229 9799 8996
8 6717 6655 6117 6116 8746 8684 8146 8145
8 6199 6718 6656 6655 8228 8747 8685 8684
8 6718 6657 6121 6120 8747 8686 8150 8149
8 6659 6724 6131 6553 8688 8753 8160 8582
8 6850 6916 6981 6358 8879 8945 9010 8387
8 6659 6981 6381 6724 8688 9010 8410 8753
8 6661 6725 6133 6554 8690 8754 8162 8583
8 6660 7189 6404 6661 8689 9218 8433 8690
8 6725 6662 6134 6133 8754 8691 8163 8162
8 7168 6431 7174 7342 9197 8460 9203 9371
8 6665 6728 6138 6557 8694 8757 8167 8586
8 6864 6440 6999 6933 8893 8469 9028 8962
8 6728 6666 6139 6138 8757 8695 8168 8167
8 6667 6729 6140 6558 8696 8758 8169 8587
8 7804 6449 6667 6666 9833 8478 8696 8695
8 6729 6668 6141 6140 8758 8697 8170 8169
8 6669 6730 6142 6559 8698 8759 8171 8588
8 6730 6669 6889 6467 8759 8698 8918 8496
8 6671 6670 7361 6476 8700 8699 9390 8505
8 6671 6731 6144 6560 8700 8760 8173 8589
8 6145 6561 6672 7785 8174 8590 8701 9814
8 6523 6884 6740 6739 8552 8913 8769 8768
8 6741 6674 6572 6156 8770 8703 8601 8185
8 6675 6157 6573 6742 8704 8186 8602 8771
8 7380 7301 7402 6525 9409 9330 9431 8554
8 6685 6158 6574 6743 8714 8187 8603 8772
8 6526 6883 6743 6675 8555 8912 8772 8704
8 7784 6677 6562 6146 9813 8706 8591 8175
8 6677 6733 6147 6562 8706 8762 8176 8591
8 6676 6494 6922 6990 8705 8523 8951 9019
8 6796 6522 6738 6684 8825 8551 8767 8713
8 6677 6990 6503 6733 8706 9019 8532 8762
8 6680 6734 6149 6563 8709 8763 8178 8592
8 6734 6681 6150 6149 8763 8710 8179 8178
8 6520 6735 6682 6681 8549 8764 8711 8710
8 6735 6683 6566 6152 8764 8712 8595 8181
8 6527 6798 6744 6685 8556 8827 8773 8714
8 6135 6555 6686 6726 8164 8584 8715 8755
8 6413 6998 6686 6662 8442 9027 8715 8691
8 6689 7793 6186 6187 8718 9822 8215 8216
8 6380 6756 6690 6782 8409 8785 8719 8811
8 6691 6758 6194 6608 8720 8787 8223 8637
8 6758 6692 6609 6194 8787 8721 8638 8223
8 6244 6693 6762 6799 8273 8722 8791 8828
8 7125 6760 6290 7051 9154 8789 8319 9080
8 6760 6699 6885 6290 8789 8728 8914 8319
8 6114 6544 6695 6716 8143 8573 8724 8745
8 6851 6918 6984 6202 8880 8947 9013 8231
8 6102 6537 6696 6709 8131 8566 8725 8738
8 6211 6996 6696 6641 8240 9025 8725 8670
8 6098 6535 6697 6707 8127 8564 8726 8736
8 6638 6214 6923 6991 8667 8243 8952 9020
8 6885 6759 6700 6312 8914 8788 8729 8341
8 6759 6195 6610 6700 8788 8224 8639 8729
8 7224 6312 6700 7364 9253 8341 8729 9393
8 7783 6637 6784 6706 9812 8666 8813 8735
8 6213 7188 6639 6707 8242 9217 8668 8736
8 7175 6642 6709 6210 9204 8671 8738 8239
8 6201 7770 6653 6716 8230 9799 8682 8745
8 6422 7174 6663 6726 8451 9203 8692 8755
8 7798 6732 7785 6672 9827 8761 9814 8701
8 6153 6567 6736 6737 8182 8596 8765 8766
8 6521 6796 6684 6737 8550 8825 8713 8766
8 6522 6797 6678 6738 8551 8826 8707 8767
8 6155 6570 6739 6740 8184 8599 8768 8769
8 6528 6779 6744 6798 8557 8808 8773 8827
8 6829 6395 6753 6774 8858 8424 8782 8803
8 6836 6754 6769 6391 8865 8783 8798 8420
8 7786 7768 6403 6755 9815 9797 8432 8784
8 7786 6755 6192 6605 9815 8784 8221 8634
8 6193 6607 6756 6757 8222 8636 8785 8786
8 7806 6357 6691 6757 9835 8386 8720 8786
8 6885 6699 7788 6759 8914 8728 9817 8788
8 7788 6699 6760 7787 9817 8728 8789 9816
8 6197 6613 6761 6762 8226 8642 8790 8791
8 6694 7125 6267 6761 8723 9154 8296 8790
8 6828 6775 6448 6764 8857 8804 8477 8793
8 6817 6766 6627 6448 8846 8795 8656 8477
8 6411 6816 6767 6856 8440 8845 8796 8885
8 6818 6394 7793 6768 8847 8423 9822 8797
8 6370 6857 6768 6928 8399 8886 8797 8957
8 6781 6808 6819 6390 8810 8837 8848 8419
8 6770 6929 6782 6403 8799 8958 8811 8432
8 6929 6770 6821 7805 8958 8799 8850 9834
8 6810 7809 6849 6771 8839 9838 8878 8800
8 6810 6771 7767 6528 8839 8800 9796 8557
8 7811 6868 6772 6831 9840 8897 8801 8860
8 6831 6772 6765 6401 8860 8801 8794 8430
8 6510 6830 6773 6869 8539 8859 8802 8898
8 6820 6773 6746 6519 8849 8802 8775 8548
8 6371 6866 6774 6818 8400 8895 8803 8847
8 6870 7811 6831 6776 8899 9840 8860 8805
8 6377 6870 6776 6834 8406 8899 8805 8863
8 6501 6832 6777 6871 8530 8861 8806 8900
8 6510 6871 6777 6830 8539 8900 8806 8859
8 6373 6833 6778 6872 8402 8862 8807 8901
8 6372 6872 6778 6829 8401 8901 8807 8858
8 6780 6845 6862 6222 8809 8874 8891 8251
8 6782 6929 6899 6380 8811 8958 8928 8409
8 6215 6813 6214 6784 8244 8842 8243 8813
8 6851 6202 6787 6812 8880 8231 8816 8841
8 6941 7838 6942 6881 8970 9867 8971 8910
8 6861 6882 7799 6846 8890 8911 9828 8875
8 6809 7797 6807 6795 8838 9826 8836 8824
8 7090 6854 7821 6823 9119 8883 9850 8852
8 6377 6834 6801 7172 8406 8863 8830 9201
8 7172 6801 6839 6874 9201 8830 8868 8903
8 6492 6837 6802 6944 8521 8866 8831 8973
8 6374 6838 6803 6875 8403 8867 8832 8904
8 6833 6945 6875 6803 8862 8974 8904 8832
8 6376 6839 6804 6847 8405 8868 8833 8876
8 6483 6840 6946 6892 8512 8869 8975 8921
8 7808 6805 6946 6840 9837 8834 8975 8869
8 6375 6841 6806 6848 8404 8870 8835 8877
8 6374 6848 6806 6838 8403 8877 8835 8867
8 7795 6807 7797 6389 9824 8836 9826 8418
8 7795 6891 6877 6808 9824 8920 8906 8837
8 6518 6820 6771 6849 8547 8849 8800 8878
8 6980 6811 6790 6336 9009 8840 8819 8365
8 6985 6812 6787 6203 9014 8841 8816 8232
8 7870 6852 6814 6495 9899 8881 8843 8524
8 6987 6814 6793 6485 9016 8843 8822 8514
8 6514 6974 6815 6924 8543 9003 8844 8953
8 6815 7824 6954 6924 8844 9853 8983 8953
8 6367 6858 6769 6819 8396 8887 8798 8848
8 6972 6367 6877 7043 9001 8396 8906 9072
8 7937 6956 6822 6962 9966 8985 8851 8991
8 6962 6822 6859 6243 8991 8851 8888 8272
8 7090 6823 6861 6930 9119 8852 8890 8959
8 6243 6860 6824 6947 8272 8889 8853 8976
8 7803 6955 6947 6824 9832 8984 8976 8853
8 6862 6223 6931 6825 8891 8252 8960 8854
8 6952 6994 6826 6934 8981 9023 8855 8963
8 6231 6934 6826 6863 8260 8963 8855 8892
8 6951 6995 6827 6935 8980 9024 8856 8964
8 6993 6935 6827 6864 9022 8964 8856 8893
8 7097 6456 6936 7167 9126 8485 8965 9196
8 6939 6876 7808 6840 8968 8905 9837 8869
8 7035 6939 6840 6483 9064 8968 8869 8512
8 6375 6847 6804 6841 8404 8876 8833 8870
8 6859 6220 6879 6842 8888 8249 8908 8871
8 6860 6243 6859 6842 8889 8272 8888 8871
8 7814 6843 6234 6880 9843 8872 8263 8909
8 7853 6234 6843 7001 9882 8263 8872 9030
8 7864 6942 7838 6844 9893 8971 9867 8873
8 6930 6861 6846 7010 8959 8890 8875 9039
8 6847 7072 7818 6376 8876 9101 9847 8405
8 7011 6375 6848 6904 9040 8404 8877 8933
8 6527 6883 6908 7810 8556 8912 8937 9839
8 6973 6849 7809 7810 9002 8878 9838 9839
8 6916 6850 6359 6982 8945 8879 8388 9011
8 6984 6918 7061 6201 9013 8947 9090 8230
8 6988 6922 6494 6852 9017 8951 8523 8881
8 7887 6988 6852 7870 9916 9017 8881 9899
8 7843 6923 6214 6853 9872 8952 8243 8882
8 7843 7063 7815 6923 9872 9092 9844 8952
8 7824 6815 6522 6854 9853 8844 8551 8883
8 6926 6855 6900 6438 8955 8884 8929 8467
8 6901 6856 6927 6420 8930 8885 8956 8449
8 6971 6371 6857 6902 9000 8400 8886 8931
8 6925 6858 6903 7840 8954 8887 8932 9869
8 6882 6861 6823 6521 8911 8890 8852 8550
8 6862 6845 6896 6223 8891 8874 8925 8252
8 7103 7024 6231 6992 9132 9053 8260 9021
8 6232 6992 6932 7169 8261 9021 8961 9198
8 6935 6993 7102 6441 8964 9022 9131 8470
8 7190 6970 6447 7017 9219 8999 8476 9046
8 7009 6372 6866 6906 9038 8401 8895 8935
8 7079 6968 6379 7018 9108 8997 8408 9047
8 7827 6378 6868 7811 9856 8407 8897 9840
8 7018 6378 7171 7096 9047 8407 9200 9125
8 7841 6373 6872 6898 9870 8402 8901 8927
8 7346 6392 6873 6905 9375 8421 8902 8934
8 7829 6893 7172 6874 9858 8922 9201 8903
8 7818 6874 6839 6376 9847 8903 8868 8405
8 6965 6492 6944 6894 8994 8521 8973 8923
8 6966 6374 6875 7835 8995 8403 8904 9864
8 6895 7835 6875 6945 8924 9864 8904 8974
8 7822 7000 6876 6939 9851 9029 8905 8968
8 7043 6877 6891 6366 9072 8906 8920 8395
8 6890 6878 7044 6388 8919 8907 9073 8417
8 7065 6940 7814 6880 9094 8969 9843 8909
8 7020 7003 6881 6414 9049 9032 8910 8443
8 6788 6200 6896 6845 8817 8229 8925 8874
8 7806 6380 6899 6909 9835 8409 8928 8938
8 7240 6524 6884 6910 9269 8553 8913 8939
8 7842 6290 6885 6911 9871 8319 8914 8940
8 7126 6205 6886 6912 9155 8234 8915 8941
8 7129 6291 6887 6913 9158 8320 8916 8942
8 6914 7130 6217 6888 8943 9159 8246 8917
8 7131 6467 6889 6915 9160 8496 8918 8944
8 6891 7795 6389 6943 8920 9824 8418 8972
8 6492 6965 6892 6946 8521 8994 8921 8975
8 7039 6355 7120 6893 9068 8384 9149 8922
8 7006 6894 6944 6501 9035 8923 8973 8530
8 7855 6895 7007 7041 9884 8924 9036 9070
8 7848 6223 6896 7026 9877 8252 8925 9055
8 7830 7042 6967 7061 9859 9071 8996 9090
8 6500 7006 6897 7067 8529 9035 8926 9096
8 7008 6897 6871 6510 9037 8926 8900 8539
8 7009 6898 6872 6372 9038 8927 8901 8401
8 7148 6351 7846 7068 9177 8380 9875 9097
8 7771 6950 7819 7820 9800 8979 9848 9849
8 6970 6900 6855 6447 8999 8929 8884 8476
8 6901 7047 6410 6969 8930 9076 8439 8998
8 7286 7890 7045 6902 9315 9919 9074 8931
8 7840 6903 7048 7123 9869 8932 9077 9152
8 6352 7071 6904 6966 8381 9100 8933 8995
8 7161 6392 7346 7219 9190 8421 9375 9248
8 7184 7277 7395 6368 9213 9306 9424 8397
8 6349 7070 6906 6971 8378 9099 8935 9000
8 7932 7008 6907 7069 9961 9037 8936 9098
8 6518 7133 6907 6869 8547 9162 8936 8898
8 6517 7014 6908 7261 8546 9043 8937 9290
8 7080 7022 6909 6950 9109 9051 8938 8979
8 6910 7825 6974 7049 8939 9854 9003 9078
8 7124 6911 6885 6312 9153 8940 8914 8341
8 6975 7051 6290 7842 9004 9080 8319 9871
8 7812 6912 6886 6206 9841 8941 8915 8235
8 6978 6914 6888 6218 9007 8943 8917 8247
8 6382 7060 6916 6982 8411 9089 8945 9011
8 7877 6224 7042 7830 9906 8253 9071 9859
8 7032 6225 6919 6959 9061 8254 8948 8988
8 7031 6495 6921 6958 9060 8524 8950 8987
8 7288 6921 6987 6486 9317 8950 9016 8515
8 6236 7063 7843 6989 8265 9092 9872 9018
8 6925 7395 6905 6391 8954 9424 8934 8420
8 7395 6925 7840 6368 9424 8954 9869 8397
8 7170 7796 6439 6926 9199 9825 8468 8955
8 7151 6420 6927 7004 9180 8449 8956 9033
8 7152 6370 6928 7005 9181 8399 8957 9034
8 7005 6928 6689 6393 9034 8957 8718 8422
8 6947 6961 6962 6243 8976 8990 8991 8272
8 7849 7090 6930 6953 9878 9119 8959 8982
8 7036 6825 6931 6246 9065 8854 8960 8275
8 7807 6936 6456 6828 9836 8965 8485 8857
8 7315 6465 7263 7262 9344 8494 9292 9291
8 6457 6582 6166 6937 8486 8611 8195 8966
8 6475 6584 6168 6938 8504 8613 8197 8967
8 7035 7858 7822 6939 9064 9887 9851 8968
8 6941 6881 7003 7064 8970 8910 9032 9093
8 7021 7100 6880 6234 9050 9129 8909 8263
8 7865 7864 6844 7002 9894 9893 8873 9031
8 7816 6943 6389 7012 9845 8972 8418 9041
8 6802 6832 6501 6944 8831 8861 8530 8973
8 7817 6945 6833 6373 9846 8974 8862 8402
8 6805 6837 6492 6946 8834 8866 8521 8975
8 6961 6947 6955 7854 8990 8976 8984 9883
8 7021 6948 6258 7898 9050 8977 8287 9927
8 7028 6405 7865 7002 9057 8434 9894 9031
8 7805 6968 7820 7819 9834 8997 9849 9848
8 6899 7819 6950 6909 8928 9848 8979 8938
8 7906 7194 6450 6951 9935 9223 8479 8980
8 7906 6951 6935 6441 9935 8980 8964 8470
8 7024 6952 6934 6231 9053 8981 8963 8260
8 6953 7847 7029 7849 8982 9876 9058 9878
8 6504 7106 7844 7025 8533 9135 9873 9054
8 7848 7203 7195 6246 9877 9232 9224 8275
8 7848 6246 6931 6223 9877 8275 8960 8252
8 6506 7187 6954 7108 8535 9216 8983 9137
8 7029 7888 7108 6954 9058 9917 9137 8983
8 7693 6219 7073 7058 9722 8248 9102 9087
8 7915 7109 6957 7287 9944 9138 8986 9316
8 7287 6957 6920 6238 9316 8986 8949 8267
8 6249 7113 6959 7289 8278 9142 8988 9318
8 6360 7033 6960 7115 8389 9062 8989 9144
8 7290 6960 6917 6337 9319 8989 8946 8366
8 7013 7965 7089 7937 9042 9994 9118 9966
8 6242 6956 7937 7089 8271 8985 9966 9118
8 7144 7035 6483 6963 9173 9064 8512 8992
8 6353 7138 7072 7011 8382 9167 9101 9040
8 6821 6379 6968 7805 8850 8408 8997 9834
8 6878 6411 6969 7044 8907 8440 8998 9073
8 7045 7890 7158 7979 9074 9919 9187 10008
8 7133 6518 6849 6973 9162 8547 8878 9002
8 7832 7886 7119 7127 9861 9915 9148 9156
8 6207 7794 6994 7038 8236 9823 9023 9067
8 7054 7036 7117 7128 9083 9065 9146 9157
8 6915 7834 7132 6979 8944 9863 9161 9008
8 6450 7118 7059 7037 8479 9147 9088 9066
8 7156 6337 6980 7076 9185 8366 9009 9105
8 7265 6382 6982 7116 9294 8411 9011 9145
8 7830 6983 7114 7877 9859 9012 9143 9906
8 7155 6226 6985 7075 9184 8255 9014 9104
8 6485 7078 6486 6987 8514 9107 8515 9016
8 6504 7887 7870 7112 8533 9916 9899 9141
8 7268 6236 6989 7111 9297 8265 9018 9140
8 6922 7813 6503 6990 8951 9842 8532 9019
8 6923 7815 6213 6991 8952 9844 8242 9020
8 7054 7801 6245 7036 9083 9830 8274 9065
8 7861 7860 6933 7168 9890 9889 8962 9197
8 7694 6207 7038 7052 9723 8236 9067 9081
8 7695 6449 7037 7059 9724 8478 9066 9088
8 7037 6995 6951 6450 9066 9024 8980 8479
8 6210 6709 6696 6996 8239 8738 8725 9025
8 6208 6644 6643 6997 8237 8673 8672 9026
8 6422 6726 6686 6998 8451 8755 8715 9027
8 6440 6665 6664 6999 8469 8694 8693 9028
8 7064 7003 7099 6423 9093 9032 9128 8452
8 6880 7100 6233 7065 8909 9129 8262 9094
8 7220 6429 7151 7004 9249 8458 9180 9033
8 6373 7841 7846 7817 8402 9870 9875 9846
8 7844 6513 7066 7025 9873 8542 9095 9054
8 7278 7093 7816 7016 9307 9122 9845 9045
8 7012 7839 7016 7816 9041 9868 9045 9845
8 6388 7839 7012 6890 8417 9868 9041 8919
8 7013 7937 6962 6961 9042 9966 8991 8990
8 7868 7092 6366 7015 9897 9121 8395 9044
8 7885 7868 7015 7357 9914 9897 9044 9386
8 7643 7186 7091 6387 9672 9215 9120 8416
8 6455 7190 7017 7097 8484 9219 9046 9126
8 7097 7017 6865 6456 9126 9046 8894 8485
8 7136 7079 7018 7096 9165 9108 9047 9125
8 6474 7262 7246 7019 8503 9291 9275 9048
8 7099 7935 6415 7304 9128 9964 8444 9333
8 6257 7234 7021 7898 8286 9263 9050 9927
8 6441 7102 7191 7023 8470 9131 9220 9052
8 7753 7192 7024 7103 9782 9221 9053 9132
8 6504 7025 7083 7887 8533 9054 9112 9916
8 7107 7026 7042 6224 9136 9055 9071 8253
8 7815 7063 7253 7095 9844 9092 9282 9124
8 6989 6237 7030 7111 9018 8266 9059 9140
8 7241 6260 7030 7109 9270 8289 9059 9138
8 7870 6495 7031 7112 9899 8524 9060 9141
8 6983 6225 7032 7114 9012 8254 9061 9143
8 6982 6359 7033 7116 9011 8388 9062 9145
8 7339 6269 7128 7117 9368 8298 9157 9146
8 6976 7127 7119 6229 9005 9156 9148 8258
8 6230 7833 7038 6994 8259 9862 9067 9023
8 7139 7259 6355 7039 9168 9288 8384 9068
8 7281 6354 7872 7873 9310 8383 9901 9902
8 7855 7041 7141 7918 9884 9070 9170 9947
8 7238 7141 7041 7924 9267 9170 9070 9953
8 7091 7839 6388 7344 9120 9868 8417 9373
8 7890 7286 7205 6348 9919 9315 9234 8377
8 7122 7046 7159 6437 9151 9075 9188 8466
8 7383 6419 7285 7204 9412 8448 9314 9233
8 6346 7123 7048 7160 8375 9152 9077 9189
8 7049 7879 7094 6515 9078 9908 9123 8544
8 6514 7187 7094 7879 8543 9216 9123 9908
8 6955 7803 6267 7074 8984 9832 8296 9103
8 7126 7053 7088 6228 9155 9082 9117 8257
8 7180 7053 6976 6229 9209 9082 9005 8258
8 6292 7129 7055 7087 8321 9158 9084 9116
8 7087 7055 7128 6269 9116 9084 9157 8298
8 7130 7056 7084 7882 9159 9085 9113 9911
8 6978 7893 6241 7056 9007 9922 8270 9085
8 7131 7057 7085 6468 9160 9086 9114 8497
8 7057 6979 7132 6459 9086 9008 9161 8488
8 7830 7061 6918 6983 9859 9090 8947 9012
8 7813 7777 7769 6503 9842 9806 9798 8532
8 7083 7062 6988 7887 9112 9091 9017 9916
8 6513 7010 6512 7066 8542 9039 8541 9095
8 7147 7067 7932 6509 9176 9096 9961 8538
8 6509 7932 7069 7149 8538 9961 9098 9178
8 6973 7014 7850 7133 9002 9043 9879 9162
8 7236 6350 7070 7150 9265 8379 9099 9179
8 7142 7960 6353 7071 9171 9989 8382 9100
8 6964 7818 7072 7138 8993 9847 9101 9167
8 6219 6956 6242 7073 8248 8985 8271 9102
8 7135 7852 6266 7074 9164 9881 8295 9103
8 6227 7155 7075 7212 8256 9184 9104 9241
8 7166 7076 6980 6336 9195 9105 9009 8365
8 6239 7153 7077 7209 8268 9182 9106 9238
8 7163 7077 6986 6215 9192 9106 9015 8244
8 7208 6486 7078 7154 9237 8515 9107 9183
8 7260 6356 7079 7136 9289 8385 9108 9165
8 6335 7173 7080 7345 8364 9202 9109 9374
8 7080 7378 7379 7345 9109 9407 9408 9374
8 7168 7342 7376 7861 9197 9371 9405 9890
8 7081 7862 7376 7342 9110 9891 9405 9371
8 7341 7377 6232 7169 9370 9406 8261 9198
8 7082 7836 7377 7341 9111 9865 9406 9370
8 7083 7777 7813 7062 9112 9806 9842 9091
8 7177 7084 7056 6241 9206 9113 9085 8270
8 7929 7393 6468 7085 9958 9422 8497 9114
8 7176 7085 7057 6459 9205 9114 9086 8488
8 7454 7086 7050 6311 9483 9115 9079 8340
8 7413 6292 7087 7928 9442 8321 9116 9957
8 7923 7276 7180 6252 9952 9305 9209 8281
8 7089 7776 7134 6242 9118 9805 9163 8271
8 7437 8015 7776 8007 9466 10044 9805 10036
8 7849 7824 6854 7090 9878 9853 8883 9119
8 6387 7091 7344 7916 8416 9120 9373 9945
8 7121 7043 6366 7092 9150 9072 8395 9121
8 7644 7471 6344 7185 9673 9500 8373 9214
8 7816 7093 7015 6943 9845 9122 9044 8972
8 7278 7869 6365 7093 9307 9898 8394 9122
8 6515 7094 7279 7396 8544 9123 9308 9425
8 7095 7253 7145 7027 9124 9282 9174 9056
8 6382 7146 7028 7060 8411 9175 9057 9089
8 7136 7096 7171 7227 9165 9125 9200 9256
8 7003 7020 7935 7099 9032 9049 9964 9128
8 6424 7304 6415 7327 8453 9333 8444 9356
8 7427 6406 7910 7911 9456 8435 9939 9940
8 6235 7201 6258 6948 8264 9230 8287 8977
8 6993 7860 6432 7102 9022 9889 8461 9131
8 7225 7104 7023 6442 9254 9133 9052 8471
8 7193 7105 7226 6253 9222 9134 9255 8282
8 7230 7271 7917 7267 9259 9300 9946 9296
8 7270 7977 6247 7954 9299 10006 8276 9983
8 7358 6506 7108 7235 9387 8535 9137 9264
8 7235 7108 7888 6505 9264 9137 9917 8534
8 6238 7207 6261 7287 8267 9236 8290 9316
8 7311 6496 7110 7242 9340 8525 9139 9271
8 6486 7208 6487 7288 8515 9237 8516 9317
8 7112 7267 7106 6504 9141 9296 9135 8533
8 7901 7113 7243 6248 9930 9142 9272 8277
8 7902 6249 7289 7211 9931 8278 9318 9240
8 7203 7107 6224 7266 9232 9136 8253 9295
8 7313 6360 7115 8079 9342 8389 9144 10108
8 7985 7290 7213 6338 10014 9319 9242 8367
8 7195 7117 7036 6246 9224 9146 9065 8275
8 6870 6377 7120 7828 8899 8406 9149 9857
8 7314 7170 7845 7245 9343 9199 9874 9274
8 7882 7257 6217 7130 9911 9286 8246 9159
8 6264 7177 6241 7940 8293 9206 8270 9969
8 7920 7135 6975 7874 9949 9164 9004 9903
8 6266 7852 7922 7198 8295 9881 9951 9227
8 7260 7903 7199 6356 9289 9932 9228 8385
8 6334 7199 7903 7331 8363 9228 9932 9360
8 7232 7137 7034 6491 9261 9166 9063 8520
8 7298 7231 6482 7137 9327 9260 8511 9166
8 7139 7975 7282 7259 9168 10004 9311 9288
8 7232 7140 7300 8076 9261 9169 9329 10105
8 8031 7140 7040 6500 10060 9169 9069 8529
8 7959 7233 7918 7141 9988 9262 9947 9170
8 7959 7141 7238 7299 9988 9170 9267 9328
8 7233 8009 7309 7958 9262 10038 9338 9987
8 7344 7143 7182 7916 9373 9172 9211 9945
8 7206 7144 7221 6473 9235 9173 9250 8502
8 7221 7144 6963 6482 9250 9173 8992 8511
8 7883 7145 7253 7334 9912 9174 9282 9363
8 6406 7101 7283 7910 8435 9130 9312 9939
8 7980 7308 6499 7237 10009 9337 8528 9266
8 7236 7148 7068 6350 9265 9177 9097 8379
8 7894 7284 7942 7202 9923 9313 9971 9231
8 7894 7149 7851 7398 9923 9178 9880 9427
8 7150 7217 6326 7306 9179 9246 8355 9335
8 7876 7153 7207 6238 9905 9182 9236 8267
8 7289 6226 7155 7211 9318 8255 9184 9240
8 7290 6337 7156 7213 9319 8366 9185 9242
8 6419 7249 7320 7157 8448 9278 9349 9186
8 7285 6419 7157 7047 9314 8448 9186 9076
8 7158 7321 7217 7979 9187 9350 9246 10008
8 7577 6436 7248 7291 9606 8465 9277 9320
8 7216 7159 7046 6446 9245 9188 9075 8475
8 7218 7292 7251 7160 9247 9321 9280 9189
8 7798 7164 7078 6485 9827 9193 9107 8514
8 7263 6465 7167 6936 9292 8494 9196 8965
8 7314 7252 7796 7170 9343 9281 9825 9199
8 7264 7245 7845 7183 9293 9274 9874 9212
8 6431 6727 6663 7174 8460 8756 8692 9203
8 6209 6710 6642 7175 8238 8739 8671 9204
8 7085 7176 7970 7929 9114 9205 9999 9958
8 7483 6288 7178 7274 9512 8317 9207 9303
8 7339 7945 7977 7374 9368 9974 10006 9403
8 7867 7196 7375 7340 9896 9225 9404 9369
8 7215 7182 7143 6410 9244 9211 9172 8439
8 7934 7264 7183 7403 9963 9293 9212 9432
8 7277 7384 7328 6369 9306 9413 9357 8398
8 7765 7968 6343 7912 9794 9997 8372 9941
8 7586 6364 7186 7643 9615 8393 9215 9672
8 7302 7754 7739 8029 9331 9783 9768 10058
8 7931 6254 7192 7303 9960 8283 9221 9332
8 6255 7892 7753 7738 8284 9921 9782 9767
8 7884 7196 7193 6253 9913 9225 9222 8282
8 6459 7132 7118 7197 8488 9161 9147 9226
8 7373 7197 7194 6451 9402 9226 9223 8480
8 7854 6266 7198 7280 9883 8295 9227 9309
8 6334 7378 7771 7199 8363 9407 9800 9228
8 7975 7139 6354 7200 10004 9168 8383 9229
8 6236 7268 7883 7334 8265 9297 9912 9363
8 7469 7427 7911 7967 9498 9456 9940 9996
8 7333 7265 7987 7986 9362 9294 10016 10015
8 7980 7147 6509 7202 10009 9176 8538 9231
8 7895 7666 7494 6508 9924 9695 9523 8537
8 7245 7264 7329 6429 9274 9293 9358 8458
8 7328 7382 6348 7205 9357 9411 8377 9234
8 7372 7247 6465 7315 9401 9276 8494 9344
8 6467 7258 7338 7361 8496 9287 9367 9390
8 6205 7255 7336 7363 8234 9284 9365 9392
8 7349 7335 7362 7256 9378 9364 9391 9285
8 7499 7320 7249 6418 9528 9349 9278 8447
8 6322 7292 7218 7371 8351 9321 9247 9400
8 7219 7346 7277 6369 9248 9375 9306 8398
8 7220 7314 7245 6429 9249 9343 9274 8458
8 8001 7431 7221 7369 10030 9460 9250 9398
8 8034 7428 7222 7997 10063 9457 9251 10026
8 7997 7222 7101 6406 10026 9251 9130 8435
8 6280 7294 7223 7429 8309 9323 9252 9458
8 7368 7223 7898 6258 9397 9252 9927 8287
8 7350 7224 7364 7379 9379 9253 9393 9408
8 7476 7366 7400 6452 9505 9395 9429 8481
8 7296 7226 7105 6254 9325 9255 9134 8283
8 7260 7136 7227 7297 9289 9165 9256 9326
8 6355 7297 7227 7772 8384 9326 9256 9801
8 7987 7228 7269 6383 10016 9257 9298 8412
8 7271 7230 7031 6496 9300 9259 9060 8525
8 7631 7581 6481 8041 9660 9610 8510 10070
8 8072 8077 8070 8071 10101 10106 10099 10100
8 6257 7326 7891 7234 8286 9355 9920 9263
8 8014 6415 7935 7939 10043 8444 9964 9968
8 7147 7980 7237 8031 9176 10009 9266 10060
8 7560 7993 6508 7494 9589 10022 8537 9523
8 7307 7238 7924 7933 9336 9267 9953 9962
8 7958 7309 7956 7142 9987 9338 9985 9171
8 7424 7359 6524 7240 9453 9388 8553 9269
8 7422 7946 7915 7927 9451 9975 9944 9956
8 7110 7914 7421 7242 9139 9943 9450 9271
8 7497 6248 7243 7312 9526 8277 9272 9341
8 8093 7244 7352 7416 10122 9273 9381 9445
8 6338 7352 7244 7985 8367 9381 9273 10014
8 6867 7246 7262 7263 8896 9275 9291 9292
8 7330 7896 7372 7315 9359 9925 9401 9344
8 7318 7978 7403 6437 9347 10007 9432 8466
8 7880 7404 6346 7319 9909 9433 8375 9348
8 7524 7573 6323 8019 9553 9602 8352 10048
8 6236 7334 7253 7063 8265 9363 9282 9092
8 6464 7343 6455 7254 8493 9372 8484 9283
8 7363 7336 7212 6204 9392 9365 9241 8233
8 6623 6291 7802 6721 8652 8320 9831 8750
8 7360 7800 6217 7257 9389 9829 8246 9286
8 6239 7209 6216 7337 8268 9238 8245 9366
8 7859 7348 7338 7258 9888 9377 9367 9287
8 6331 7578 6332 7282 8360 9607 8361 9311
8 7545 8008 7443 7949 9574 10037 9472 9978
8 7146 6382 7265 7333 9175 8411 9294 9362
8 6224 7877 7229 7266 8253 9906 9258 9295
8 7881 7106 7267 7917 9910 9135 9296 9946
8 7498 7541 6383 7269 9527 9570 8412 9298
8 7313 7269 7228 6360 9342 9298 9257 8389
8 7374 7977 7270 8006 9403 10006 9299 10035
8 7270 6248 7497 8006 9299 8277 9526 10035
8 6260 7310 7496 7272 8289 9339 9525 9301
8 7392 7273 7583 6263 9421 9302 9612 8292
8 7086 7454 7414 7948 9115 9483 9443 9977
8 7554 7957 7681 7595 9583 9986 9710 9624
8 7991 7275 7179 6270 10020 9304 9208 8299
8 7551 6251 7685 7592 9580 8280 9714 9621
8 7278 7755 7899 7869 9307 9784 9928 9898
8 7016 7186 6364 7278 9045 9215 8393 9307
8 7279 6506 7634 6507 9308 8535 9663 8536
8 7779 7397 7281 7926 9808 9426 9310 9955
8 7397 8010 6331 7200 9426 10039 8360 9229
8 7200 6331 7282 7975 9229 8360 9311 10004
8 7910 7283 7865 6405 9939 9312 9894 8434
8 7856 7398 7332 6516 9885 9427 9361 8545
8 7914 7110 7288 6487 9943 9139 9317 8516
8 7444 7293 7190 6455 9473 9322 9219 8484
8 7963 7473 7326 7962 9992 9502 9355 9991
8 6415 8014 7295 7327 8444 10043 9324 9356
8 7486 6416 7428 8034 9515 8445 9457 10063
8 8110 8033 7302 7488 10139 10062 9331 9517
8 7259 7430 7297 6355 9288 9459 9326 8384
8 8020 7299 7238 6328 10049 9328 9267 8357
8 8070 7300 7237 6499 10099 9329 9266 8528
8 6516 7332 7301 7380 8545 9361 9330 9409
8 6742 6674 6525 7402 8771 8703 8554 9431
8 6433 7535 7302 8029 8462 9564 9331 10058
8 7191 7754 7302 8033 9220 9783 9331 10062
8 7892 7536 7951 7303 9921 9565 9980 9332
8 7733 7908 7862 7863 9762 9937 9891 9892
8 7732 7435 7836 7837 9761 9464 9865 9866
8 7891 6256 7305 7234 9920 8285 9334 9263
8 7495 7307 7236 6327 9524 9336 9265 8356
8 7309 8009 7484 6330 9338 10038 9513 8359
8 7512 6284 7355 7568 9541 8313 9384 9597
8 7976 7271 6496 7311 10005 9300 8525 9340
8 7493 7416 7455 6339 9522 9445 9484 8368
8 6474 7330 7315 7262 8503 9359 9344 9291
8 7316 7485 7440 7406 9345 9514 9469 9435
8 6428 7485 7316 7383 8457 9514 9345 9412
8 7692 7439 7405 7317 9721 9468 9434 9346
8 6347 7692 7317 7382 8376 9721 9346 9411
8 8032 7440 7774 6427 10061 9469 9803 8456
8 7480 7978 7318 7774 9509 10007 9347 9803
8 7516 7775 7481 7477 9545 9804 9510 9506
8 7499 7990 6409 7320 9528 10019 8438 9349
8 7337 7347 7407 6239 9366 9376 9436 8268
8 7412 7408 6477 7348 9441 9437 8506 9377
8 7408 7323 7154 6477 9437 9352 9183 8506
8 7413 7410 6314 7349 9442 9439 8343 9378
8 7325 6227 7351 7409 9354 8256 9380 9438
8 7382 7328 7384 6347 9411 9357 9413 8376
8 6428 7383 7204 7329 8457 9412 9233 9358
8 7934 6428 7329 7264 9963 8457 9358 9293
8 7462 6333 7519 7414 9491 8362 9548 9443
8 7268 6259 7381 7883 9297 8288 9410 9912
8 7349 6314 7214 7335 9378 8343 9243 9364
8 7351 6227 7212 7336 9380 8256 9241 9365
8 7348 6477 7210 7338 9377 8506 9239 9367
8 8006 6270 7179 7374 10035 8299 9208 9403
8 7119 7886 7340 6229 9148 9915 9369 8258
8 7375 7889 6252 7180 9404 9918 8281 9209
8 7720 6454 7438 7710 9749 8483 9467 9739
8 6262 7322 6239 7407 8291 9351 8268 9436
8 7904 7412 7348 7859 9933 9441 9377 9888
8 6315 7324 6314 7410 8344 9353 8343 9439
8 7413 7349 7256 6292 9442 9378 9285 8321
8 7378 6334 7350 7379 9407 8363 9379 9408
8 7569 7456 7354 7420 9598 9485 9383 9449
8 6487 7420 7354 7914 8516 9449 9383 9943
8 7823 7423 7457 7356 9852 9452 9486 9385
8 7356 7424 7240 7823 9385 9453 9269 9852
8 7869 7899 7969 7763 9898 9928 9998 9792
8 7503 7358 7976 7474 9532 9387 10005 9503
8 6277 7637 6276 7401 8306 9666 8305 9430
8 6460 7373 6451 7425 8489 9402 8480 9454
8 6443 7638 6452 7400 8472 9667 8481 9429
8 6258 7426 7458 7368 8287 9455 9487 9397
8 7369 8039 7389 8001 9398 10068 9418 10030
8 8039 7369 7231 6481 10068 9398 9260 8510
8 7370 7989 7390 7432 9399 10018 9419 9461
8 7525 6322 7371 7391 9554 8351 9400 9420
8 7391 7371 7433 6321 9420 9400 9462 8350
8 7947 7479 7372 7896 9976 9508 9401 9925
8 7501 7633 7365 7475 9530 9662 9394 9504
8 7889 7375 7196 7884 9918 9404 9225 9913
8 7938 7739 7907 7434 9967 9768 9936 9463
8 7820 6356 7199 7771 9849 8385 9228 9800
8 7367 7997 6406 7427 9396 10026 8435 9456
8 7146 7333 7986 7974 9175 9362 10015 10003
8 7404 7880 6347 7384 9433 9909 8376 9413
8 6262 7463 7385 7322 8291 9492 9414 9351
8 7464 7386 7323 6478 9493 9415 9352 8507
8 7902 7418 7353 6249 9931 9447 9382 8278
8 7409 6250 7387 7325 9438 8279 9416 9354
8 7466 7388 7324 6315 9495 9417 9353 8344
8 6472 7389 7523 7580 8501 9418 9552 9609
8 8114 8096 7526 8113 10143 10125 9555 10142
8 7691 6299 7642 8066 9720 8328 9671 10095
8 7411 7407 7347 6240 9440 9436 9376 8269
8 7878 7415 7831 7394 9907 9444 9860 9423
8 7857 7423 7823 7396 9886 9452 9852 9425
8 6507 7857 7396 7279 8536 9886 9425 9308
8 7309 6330 7779 7956 9338 8359 9808 9985
8 7894 7398 7856 7284 9923 9427 9885 9313
8 7919 7445 6445 7399 9948 9474 8474 9428
8 7919 7444 7438 6454 9948 9473 9467 8483
8 7488 6443 7400 8110 9517 8472 9429 10139
8 7226 7296 6277 7401 9255 9325 8306 9430
8 7978 7480 7934 7403 10007 9509 9963 9432
8 7692 6347 7880 7481 9721 8376 9909 9510
8 8023 6325 7405 8011 10052 8354 9434 10040
8 7441 8011 7405 7439 9470 10040 9434 9468
8 7440 8032 7442 7406 9469 10061 9471 9435
8 7448 6478 7323 7408 9477 8507 9352 9437
8 7504 6315 7410 7449 9533 8344 9439 9478
8 7258 6468 7393 7859 9287 8497 9422 9888
8 6311 7875 7414 7454 8340 9904 9443 9483
8 6310 7948 7414 7519 8339 9977 9443 9548
8 7255 6228 7394 7831 9284 8257 9423 9860
8 7831 7415 7409 7351 9860 9444 9438 9380
8 7493 8083 8093 7416 9522 10112 10122 9445
8 7515 7455 7417 7567 9544 9484 9446 9596
8 7567 7417 7388 7466 9596 9446 9417 9495
8 7465 8091 8092 7418 9494 10120 10121 9447
8 7709 7312 7419 6271 9738 9341 9448 8300
8 7492 8047 6271 7419 9521 10076 8300 9448
8 7463 7568 7355 7385 9492 9597 9384 9414
8 7569 7420 7386 7464 9598 9449 9415 9493
8 6488 7490 6497 7421 8517 9519 8526 9450
8 7241 7946 7422 7992 9270 9975 9451 10021
8 6283 7992 7422 7491 8312 10021 9451 9520
8 7457 7856 6516 7356 9486 9885 8545 9385
8 7563 7666 7423 7857 9592 9695 9452 9886
8 8074 7502 7425 7476 10103 9531 9454 9505
8 7468 7615 7458 7426 9497 9644 9487 9455
8 6259 7468 7426 7381 8288 9497 9455 9410
8 7469 7616 7459 7427 9498 9645 9488 9456
8 6416 7472 7295 7428 8445 9501 9324 9457
8 7389 6472 7431 8001 9418 8501 9460 10030
8 7543 7586 7643 7964 9572 9615 9672 9993
8 7470 7432 7390 7988 9499 9461 9419 10017
8 6433 8029 7739 7938 8462 10058 9768 9967
8 7612 7698 7733 6424 9641 9727 9762 8453
8 6255 7738 7435 7732 8284 9767 9464 9761
8 7611 6255 7732 6256 9640 8284 9761 8285
8 7527 7460 7966 7539 9556 9489 9995 9568
8 7921 7920 7178 6288 9950 9949 9207 8317
8 7437 7460 8016 8015 9466 9489 10045 10044
8 7965 6265 7437 8007 9994 8294 9466 10036
8 7692 7481 7775 7439 9721 9510 9804 9468
8 7485 7480 7774 7440 9514 9509 9803 9469
8 6324 7627 7574 7441 8353 9656 9603 9470
8 7660 6417 7520 7575 9689 8446 9549 9604
8 7444 7919 7399 7293 9473 9948 9428 9322
8 7750 7445 7919 6454 9779 9474 9948 8483
8 6444 7674 7521 7576 8473 9703 9550 9605
8 6331 8010 8044 7522 8360 10039 10073 9551
8 8044 8010 7446 7564 10073 10039 9475 9593
8 7463 6262 7447 7505 9492 8291 9476 9534
8 7553 7447 7411 6263 9582 9476 9440 8292
8 7552 8002 7448 7950 9581 10031 9477 9979
8 7955 7507 6250 7450 9984 9536 8279 9479
8 7452 8028 7524 8019 9481 10057 9553 10048
8 7766 7453 7990 7499 9795 9482 10019 9528
8 8042 7989 7990 7453 10071 10018 10019 9482
8 8098 6339 7455 7515 10127 8368 9484 9544
8 8092 8091 7514 6272 10121 10120 9543 8301
8 7856 7457 7895 7284 9885 9486 9924 9313
8 8049 6407 7459 7509 10078 8436 9488 9538
8 6287 7527 7539 7995 8316 9556 9568 10024
8 6463 7710 7461 7518 8492 9739 9490 9547
8 7710 7438 7343 7461 9739 9467 9372 9490
8 7350 6334 7331 7462 9379 8363 9360 9491
8 6285 7568 7463 7505 8314 9597 9492 9534
8 8030 7569 7464 6479 10059 9598 9493 8508
8 7507 8004 8091 7465 9536 10033 10120 9494
8 7507 7465 7387 6250 9536 9494 9416 8279
8 7504 8013 7466 6315 9533 10042 9495 8344
8 7461 7482 7479 7518 9490 9511 9508 9547
8 7996 7534 7947 7467 10025 9563 9976 9496
8 7730 7543 7964 6386 9759 9572 9993 8415
8 7471 7644 7585 7542 9500 9673 9614 9571
8 7537 7472 7532 6425 9566 9501 9561 8454
8 7538 7473 7533 6279 9567 9502 9562 8308
8 7982 7533 7473 7963 10011 9562 9502 9992
8 7474 6497 7490 7549 9503 8526 9519 9578
8 7976 7311 6497 7474 10005 9340 8526 9503
8 7501 7475 7510 7998 9530 9504 9539 10027
8 6452 7511 8074 7476 8481 9540 10103 9505
8 7318 7478 6427 7774 9347 9507 8456 9803
8 7482 6464 7372 7479 9511 8493 9401 9508
8 7934 7480 7485 6428 9963 9509 9514 8457
8 7477 7481 7880 7319 9506 9510 9909 9348
8 7274 7566 7605 7483 9303 9595 9634 9512
8 7603 7564 6330 7484 9632 9593 8359 9513
8 6408 7598 8036 7558 8437 9627 10065 9587
8 7486 8034 8035 8084 9515 10063 10064 10113
8 7982 7487 7599 7546 10011 9516 9628 9575
8 6281 7487 6280 7429 8310 9516 8309 9458
8 8062 7530 6443 7488 10091 9559 8472 9517
8 7597 7550 6283 7491 9626 9579 8312 9520
8 7493 6339 6340 8057 9522 8368 8369 10086
8 7972 7496 7529 6282 10001 9525 9558 8311
8 7310 8081 7529 7496 9339 10110 9558 9525
8 7312 7709 8006 7497 9341 9738 10035 9526
8 8068 8060 6303 7590 10097 10089 8332 9619
8 7685 7936 7501 7588 9714 9965 9530 9617
8 7625 6275 7998 7510 9654 8304 10027 9539
8 6460 7425 7502 7587 8489 9454 9531 9616
8 7502 8074 7511 6461 9531 10103 9540 8490
8 7944 7943 7563 7589 9973 9972 9592 9618
8 7474 7549 6498 7503 9503 9578 8527 9532
8 7466 8013 6316 7567 9495 10042 8345 9596
8 6479 7464 6478 7506 8508 9493 8507 9535
8 7552 8090 7607 8002 9581 10119 9636 10031
8 7651 7961 6282 7618 9680 9990 8311 9647
8 7458 7615 7961 7508 9487 9644 9990 9537
8 7678 8096 8114 8106 9707 10125 10143 10135
8 7509 7459 7616 8048 9538 9488 9645 10077
8 7571 7636 7625 7510 9600 9665 9654 9539
8 7736 7647 6462 8089 9765 9676 8491 10118
8 7746 7675 7512 7688 9775 9704 9541 9717
8 7688 7512 7568 6285 9717 9541 9597 8314
8 7581 7631 6489 7632 9610 9660 8518 9661
8 7456 7569 8030 7513 9485 9598 10059 9542
8 7492 6272 7514 7555 9521 8301 9543 9584
8 6273 7689 7676 7514 8302 9718 9705 9543
8 7515 8056 7677 8098 9544 10085 9706 10127
8 6316 8056 7515 7567 8345 10085 9544 9596
8 8050 7627 6324 7640 10079 9656 8353 9669
8 8102 7696 7639 8082 10131 9725 9668 10111
8 7572 7517 7478 6436 9601 9546 9507 8465
8 7479 7947 7534 7518 9508 9976 9563 9547
8 6310 7604 6309 7566 8339 9633 8338 9595
8 8011 7441 8060 8023 10040 9470 10089 10052
8 7546 6303 7574 7659 9575 8332 9603 9688
8 7521 7577 7291 6445 9550 9606 9320 8474
8 7522 8064 7578 6331 9551 10093 9607 8360
8 6480 7735 7723 7751 8509 9764 9752 9780
8 6301 7573 7524 7630 8330 9602 9553 9659
8 8096 7678 7652 6385 10125 9707 9681 8414
8 6385 7652 8095 8094 8414 9681 10124 10123
8 7498 6361 7528 8075 9527 8390 9557 10104
8 7650 7618 6282 7529 9679 9647 8311 9558
8 6306 7650 7529 7550 8335 9679 9558 9579
8 6435 7654 7530 7620 8464 9683 9559 9649
8 6434 7620 7530 8062 8463 9649 9559 10091
8 7630 6300 7584 7531 9659 8329 9613 9560
8 7621 7531 7489 6278 9650 9560 9518 8307
8 7575 6426 7623 7660 9604 8455 9652 9689
8 7547 7532 7472 6416 9576 9561 9501 8445
8 7533 7982 7546 7659 9562 10011 9575 9688
8 7962 7294 6280 7963 9991 9323 8309 9992
8 7610 7683 8104 6462 9639 9712 10133 8491
8 7698 7612 7648 7613 9727 9641 9677 9642
8 7614 7952 7984 7649 9643 9981 10013 9678
8 7966 7436 7971 7539 9995 9465 10000 9568
8 7972 7615 7468 7540 10001 9644 9497 9569
8 6384 7616 7469 7541 8413 9645 9498 9570
8 7541 7498 8075 6384 9570 9527 10104 8413
8 6385 8094 7716 7582 8414 10123 9745 9611
8 8065 7605 7566 6309 10094 9634 9595 8338
8 8008 7545 7519 6333 10037 9574 9548 8362
8 8068 7590 7599 8037 10097 9619 9628 10066
8 7562 6327 7306 7665 9591 8356 9335 9694
8 8083 7548 7528 6361 10112 9577 9557 8390
8 7596 7555 8100 6295 9625 9584 10129 8324
8 6274 7609 7551 7592 8303 9638 9580 9621
8 7593 7552 7950 6469 9622 9581 9979 8498
8 6286 7606 7553 7594 8315 9635 9582 9623
8 8027 7608 7554 7595 10056 9637 9583 9624
8 7957 7554 7449 6293 9986 9583 9478 8322
8 7676 7714 6295 8100 9705 9743 8324 10129
8 7687 7632 6489 7719 9716 9661 8518 9748
8 6488 7556 7549 7490 8517 9585 9578 9519
8 6307 8063 7557 7675 8336 10092 9586 9704
8 8048 7652 7678 7509 10077 9681 9707 9538
8 6407 8049 7558 8036 8436 10078 9587 10065
8 7961 7651 7679 7508 9990 9680 9708 9537
8 6499 8040 8071 8070 8528 10069 10100 10099
8 7944 7589 7503 6498 9973 9618 9532 8527
8 6306 7561 7602 7650 8335 9590 9631 9679
8 7563 7943 7494 7666 9592 9972 9523 9695
8 7779 6330 7564 7446 9808 8359 9593 9475
8 8043 7712 7601 7663 10072 9741 9630 9692
8 7617 7701 6309 7604 9646 9730 8338 9633
8 7948 6310 7566 7274 9977 8339 9595 9303
8 7670 6316 8013 8025 9699 8345 10042 10054
8 7638 7780 7708 7570 9667 9809 9737 9599
8 6436 7577 7700 7572 8465 9606 9729 9601
8 8050 6302 7574 7627 10079 8331 9603 9656
8 7575 8109 7626 6426 9604 10138 9655 8455
8 6453 8018 7750 7981 8482 10047 9779 10010
8 7578 7701 7617 6332 9607 9730 9646 8361
8 8044 7564 6308 7579 10073 9593 8337 9608
8 6471 7683 7996 7580 8500 9712 10025 9609
8 7580 7523 7751 6471 9609 9552 9780 8500
8 7582 7526 8096 6385 9611 9555 10125 8414
8 7594 7553 6263 7583 9623 9582 8292 9612
8 7717 6286 7594 7672 9746 8315 9623 9701
8 8115 7780 7638 6443 10144 9809 9667 8472
8 7707 7637 6277 7584 9736 9666 8306 9613
8 7628 7585 7644 6343 9657 9614 9673 8372
8 8066 7642 7391 6321 10095 9671 9420 8350
8 8052 7645 8003 7587 10081 9674 10032 9616
8 7998 6275 7588 7501 10027 8304 9617 9530
8 7589 6507 7634 7503 9618 8536 9663 9532
8 8097 7680 7306 6326 10126 9709 9335 8355
8 7681 7953 7275 7991 9710 9982 9304 10020
8 6294 7595 7681 7591 8323 9624 9710 9620
8 7593 8003 7645 8051 9622 10032 9674 10080
8 7527 6287 8046 8045 9556 8316 10075 10074
8 8057 8021 6362 7548 10086 10050 8391 9577
8 8021 7740 7715 6362 10050 9769 9744 8391
8 8027 7762 7743 7670 10056 9791 9772 9699
8 7699 8072 7600 7664 9728 10101 9629 9693
8 8078 6306 7550 7597 10107 8335 9579 9626
8 7486 8084 8107 8085 9515 10113 10136 10114
8 8108 7598 6408 7766 10137 9627 8437 9795
8 7590 6303 7546 7599 9619 8332 9575 9628
8 6489 7699 7664 7731 8518 9728 9693 9760
8 7561 7711 8020 6328 9590 9740 10049 8357
8 8020 7601 7712 7299 10049 9630 9741 9328
8 7746 6308 7564 7603 9775 8337 9593 9632
8 7682 8046 6287 8065 9711 10075 8316 10094
8 8002 7607 7669 7506 10031 9636 9698 9535
8 7669 7607 8090 6470 9698 9636 10119 8499
8 7608 8027 7670 8025 9637 10056 9699 10054
8 7689 6273 7609 7667 9718 8302 9638 9696
8 6279 7952 7611 7538 8308 9981 9640 9567
8 7648 7612 7537 6425 9677 9641 9566 8454
8 6434 8062 7535 7613 8463 10091 9564 9642
8 7649 7983 7536 7614 9678 10012 9565 9643
8 7524 8028 6300 7630 9553 10057 8329 9659
8 7961 7615 7972 6282 9990 9644 10001 8311
8 7702 6309 7701 7673 9731 8338 9730 9702
8 7430 6332 7617 7949 9459 8361 9646 9978
8 8095 7652 8048 7619 10124 9681 10077 9648
8 7653 6362 7671 7716 9682 8391 9700 9745
8 7696 7658 7623 6426 9725 9687 9652 8455
8 7984 7622 6302 7657 10013 9651 8331 9686
8 7655 7648 6425 7658 9684 9677 8454 9687
8 8088 8052 6461 7661 10117 10081 8490 9690
8 7981 7720 7647 7736 10010 9749 9676 9765
8 7588 6275 7662 7646 9617 8304 9691 9675
8 6299 7691 8073 7636 8328 9720 10102 9665
8 7696 6426 7626 7639 9725 8455 9655 9668
8 7657 6302 8050 7697 9686 8331 10079 9726
8 7704 7727 7741 7629 9733 9756 9770 9658
8 7298 6490 7631 8041 9327 8519 9660 10070
8 7735 6480 7632 7687 9764 8509 9661 9716
8 7913 7889 7884 7633 9942 9918 9913 9662
8 7511 7570 6453 7635 9540 9599 8482 9664
8 7571 7999 6299 7636 9600 10028 8328 9665
8 8000 7999 7637 7707 10029 10028 9666 9736
8 8018 6453 7570 7708 10047 8482 9599 9737
8 7478 7517 7639 6427 9507 9546 9668 8456
8 7775 7516 7640 6324 9804 9545 9669 8353
8 6321 7542 7641 8066 8350 9571 9670 10095
8 8000 7525 7391 7642 10029 9554 9420 9671
8 7912 6343 7644 7185 9941 8372 9673 9214
8 7661 8104 7705 8088 9690 10133 9734 10117
8 8005 7706 7646 7662 10034 9735 9675 9691
8 8102 7620 6434 7655 10131 9649 8463 9684
8 8067 7621 6278 7656 10096 9650 8307 9685
8 6304 7559 7508 7679 8333 9588 9537 9708
8 7618 6305 7773 7651 9647 8334 9802 9680
8 7509 7678 8106 8049 9538 9707 10135 10078
8 7716 8094 8095 7653 9745 10123 10124 9682
8 7654 7674 6444 8115 9683 9703 8473 10144
8 8050 7640 6301 7697 10079 9669 8330 9726
8 7952 6279 7622 7984 9981 8308 9651 10013
8 7649 7984 7657 7656 9678 10013 9686 9685
8 7547 8085 6417 7660 9576 10114 8446 9689
8 8059 7706 8005 7721 10088 9735 10034 9750
8 7597 8063 6307 7663 9626 10092 8336 9692
8 7711 8078 7597 7663 9740 10107 9626 9692
8 7944 6498 7731 7664 9973 8527 9760 9693
8 8069 7679 7651 7773 10098 9708 9680 9802
8 7666 7895 7457 7423 9695 9924 9486 9452
8 8059 7722 6274 7706 10088 9751 8303 9735
8 7734 7668 7718 7684 9763 9697 9747 9713
8 6317 7756 8112 7729 8346 9785 10141 9758
8 7629 6363 7715 7704 9658 8392 9744 9733
8 7527 8045 7672 8017 9556 10074 9701 10046
8 8065 6309 7702 7682 10094 8338 9731 9711
8 7702 7673 8061 7718 9731 9702 10090 9747
8 7654 6435 7700 7674 9683 8464 9729 9703
8 7689 8103 7714 7676 9718 10132 9743 9705
8 7728 6340 7677 8111 9757 8369 9706 10140
8 7677 8056 7690 8099 9706 10085 9719 10128
8 7680 8097 8038 6304 9709 10126 10067 8333
8 8069 7665 7306 7680 10098 9694 9335 9709
8 7681 7991 7709 7591 9710 10020 9738 9620
8 7467 6472 7580 7996 9496 8501 9609 10025
8 7734 7684 7579 6308 9763 9713 9608 8337
8 7718 8061 7579 7684 9747 10090 9608 9713
8 8003 7686 6460 7587 10032 9715 8489 9616
8 6460 7686 7905 7970 8489 9715 9934 9999
8 7513 8030 7669 8101 9542 10059 9698 10130
8 6308 7746 7688 7734 8337 9775 9717 9763
8 7690 7670 7743 7756 9719 9699 9772 9785
8 7952 7614 6255 7611 9981 9643 8284 9640
8 6489 7631 6490 7699 8518 9660 8519 9728
8 6435 8082 7572 7700 8464 10111 9601 9729
8 6320 8054 7745 7725 8349 10083 9774 9754
8 8086 7745 8054 7749 10115 9774 10083 9778
8 8101 7669 6470 8105 10130 9698 8499 10134
8 6297 8087 7722 8059 8326 10116 9751 10088
8 7576 8018 7708 6444 9605 10047 9737 8473
8 6306 8078 7711 7561 8335 10107 9740 9590
8 8043 7565 6329 7712 10072 9594 8358 9741
8 7724 7728 7742 6341 9753 9757 9771 8370
8 7781 7713 8099 6317 9810 9742 10128 8346
8 7714 8112 8080 6295 9743 10141 10109 8324
8 6363 7671 6362 7715 8392 9700 8391 9744
8 7687 7719 8026 8053 9716 9748 10055 10082
8 7731 7556 7719 6489 9760 9585 9748 8518
8 7981 7750 6454 7720 10010 9779 8483 9749
8 7981 7736 7635 6453 10010 9765 9664 8482
8 8089 6462 8104 7661 10118 8491 10133 9690
8 6297 8086 7749 8055 8326 10115 9778 10084
8 7662 6298 7721 8005 9691 8327 9750 10034
8 8103 7689 7667 7737 10132 9718 9696 9766
8 8086 6297 8059 7721 10115 8326 10088 9750
8 7735 8105 6470 7723 9764 10134 8499 9752
8 7751 7723 7705 6471 9780 9752 9734 8500
8 8021 8057 6340 7740 10050 10086 8369 9769
8 7725 8073 7641 6320 9754 10102 9670 8349
8 8086 7721 6298 7745 10115 9750 8327 9774
8 8022 6319 7726 7747 10051 8348 9755 9776
8 7760 8012 8024 7969 9789 10041 10053 9998
8 7726 6342 7748 7747 9755 8371 9777 9776
8 7727 6341 7759 7748 9756 8370 9788 9777
8 7713 7742 7728 8111 9742 9771 9757 10140
8 7756 7743 8080 8112 9785 9772 10109 10141
8 7988 7582 7730 6386 10017 9611 9759 8415
8 7836 7435 7738 7377 9865 9464 9767 9406
8 7861 7376 7434 7907 9890 9405 9463 9936
8 6433 7938 7733 7698 8462 9967 9762 9727
8 7687 8101 8105 7735 9716 10130 10134 9764
8 8089 7624 7635 7736 10118 9653 9664 9765
8 6296 8103 7737 7757 8325 10132 9766 9786
8 7667 7722 8087 7737 9696 9751 10116 9766
8 7103 6992 6232 7753 9132 9021 8261 9782
8 7191 7102 6432 7754 9220 9131 8461 9783
8 7748 6342 7741 7727 9777 8371 9770 9756
8 8058 6318 7781 7744 10087 8347 9810 9773
8 6294 7596 6295 7762 8323 9625 8324 9791
8 7729 8112 7714 7744 9758 10141 9743 9773
8 8055 7758 8087 6297 10084 9787 10116 8326
8 6318 7759 6341 7742 8347 9788 8370 9771
8 8055 7749 7703 6319 10084 9778 9732 8348
8 7628 7703 7749 8054 9657 9732 9778 10083
8 6319 8022 7758 8055 8348 10051 9787 10084
8 8058 7752 7759 6318 10087 9781 9788 8347
8 7303 7192 7753 7892 9332 9221 9782 9921
8 6365 7869 7763 7357 8394 9898 9792 9386
8 6317 8099 7690 7756 8346 10128 9719 9785
8 7758 7757 7737 8087 9787 9786 9766 10116
8 7757 7758 8022 7764 9786 9787 10051 9793
8 8012 7765 7930 8024 10041 9794 9959 10053
8 7752 8058 7761 7764 9781 10087 9790 9793
8 7763 7930 7885 7357 9792 9959 9914 9386
8 7595 6294 7762 8027 9624 8323 9791 10056
8 7969 7899 7755 7760 9998 9928 9784 9789
8 7760 6342 7726 8012 9789 8371 9755 10041
8 6417 8108 7766 7520 8446 10137 9795 9549
8 6200 6654 6653 7770 8229 8683 8682 9799
8 7828 7120 6355 7772 9857 9149 8384 9801
8 8069 7773 7562 7665 10098 9802 9591 9694
8 7965 8007 7776 7089 9994 10036 9805 9118
8 6393 6689 6187 6601 8422 8718 8216 8630
8 7792 7162 6421 7778 9821 9191 8450 9807
8 6706 6638 7782 7783 8735 8667 9811 9812
8 6732 6676 7784 7785 8761 8705 9813 9814
8 6196 6611 7788 7787 8225 8640 9817 9816
8 7796 7789 6835 6439 9825 9818 8864 8468
8 7791 7790 7252 6430 9820 9819 9281 8459
8 7810 7809 6798 6527 9839 9838 8827 8556
8 6874 7818 6964 7829 8903 9847 8993 9858
8 7074 6266 7854 6955 9103 8295 9883 8984
8 7206 6474 7822 7858 9235 8503 9851 9887
8 7875 6311 7124 7826 9904 8340 9153 9855
8 7828 7827 7811 6870 9857 9856 9840 8899
8 7827 7828 7772 7871 9856 9857 9801 9900
8 7866 7886 7832 7833 9895 9915 9861 9862
8 7833 7832 7052 7038 9862 9861 9081 9067
8 7001 6235 6948 7853 9030 8264 8977 9882
8 7837 7836 7082 6233 9866 9865 9111 8262
8 7123 7184 6368 7840 9152 9213 8397 9869
8 7874 6975 7842 6289 9903 9004 9871 8318
8 7847 6953 6513 7844 9876 8982 8542 9873
8 6351 7007 7817 7846 8380 9036 9846 9875
8 7926 7281 7873 7925 9955 9310 9902 9954
8 7888 7029 7847 7881 9917 9058 9876 9910
8 7149 7069 7850 7851 9178 9098 9879 9880
8 7851 7850 7014 6517 9880 9879 9043 8546
8 6238 6920 6813 7876 8267 8949 8842 9905
8 7918 6352 6966 7855 9947 8381 8995 9884
8 7907 6432 7860 7861 9936 8461 9889 9890
8 7863 7862 7081 6423 9892 9891 9110 8452
8 7908 7434 7376 7862 9937 9463 9405 9891
8 6942 7864 7909 6949 8971 9893 9938 8978
8 7283 7909 7864 7865 9312 9938 9893 9894
8 7833 6230 7867 7866 9862 8259 9896 9895
8 7340 7886 7866 7867 9369 9915 9895 9896
8 7404 7184 7123 6346 9433 9213 9152 8375
8 7912 7185 7868 7885 9941 9214 9897 9914
8 7873 7872 7829 6964 9902 9901 9858 8993
8 7875 7826 7224 7350 9904 9855 9253 9379
8 7685 6251 7878 7923 9714 8280 9907 9952
8 6505 7888 7881 7917 8534 9917 9910 9946
8 7874 6289 7178 7920 9903 8318 9207 9949
8 7936 6252 7889 7913 9965 8281 9918 9942
8 7134 7940 6241 7893 9163 9969 8270 9922
8 6508 7942 7284 7895 8537 9971 9313 9924
8 7897 7896 7330 6473 9926 9925 9359 8502
8 7467 7947 7896 7897 9496 9976 9925 9926
8 7901 7900 7114 7032 9930 9929 9143 9061
8 7686 6469 7904 7905 9715 8498 9933 9934
8 7905 7904 7859 7393 9934 9933 9888 9422
8 7733 7938 7434 7908 9762 9967 9463 9937
8 7911 7910 6405 7974 9940 9939 8434 10003
8 7885 7930 7765 7912 9914 9959 9794 9941
8 7936 7913 7633 7501 9965 9942 9662 9530
8 7109 7915 7946 7241 9138 9944 9975 9270
8 7927 7915 7287 6261 9956 9944 9316 8290
8 7917 7271 7235 6505 9946 9300 9264 8534
8 7233 7958 6352 7918 9262 9987 8381 9947
8 7971 7436 7921 6288 10000 9465 9950 8317
8 6265 7965 7198 7922 8294 9994 9227 9951
8 7966 6265 7922 7436 9995 8294 9951 9465
8 7878 7394 7276 7923 9907 9423 9305 9952
8 7138 7925 7873 6964 9167 9954 9902 8993
8 7925 7960 7239 7926 9954 9989 9268 9955
8 7681 7957 7928 7953 9710 9986 9957 9982
8 7953 7928 7087 7275 9982 9957 9116 9304
8 7924 6351 7148 7933 9953 8380 9177 9962
8 7925 7138 6353 7960 9954 9167 8382 9989
8 7956 7779 7926 7239 9985 9808 9955 9268
8 6254 7931 7973 7296 8283 9960 10002 9325
8 6278 7489 7973 7951 8307 9518 10002 9980
8 7939 7935 7020 6414 9968 9964 9049 8443
8 7271 7976 7358 7235 9300 10005 9387 9264
8 7664 7994 7943 7944 9693 10023 9972 9973
8 7536 7983 6278 7951 9565 10012 8307 9980
8 7954 6247 7266 7229 9983 8276 9295 9258
8 8004 7507 7955 6273 10033 9536 9984 8302
8 6329 8009 7233 7959 8358 10038 9262 9988
8 7643 6387 7470 7964 9672 8416 9499 9993
8 7986 7967 7911 7974 10015 9996 9940 10003
8 7703 7628 6343 7968 9732 9657 8372 9997
8 8024 7930 7763 7969 10053 9959 9792 9998
8 7176 7373 6460 7970 9205 9402 8489 9999
8 7544 7995 7539 7971 9573 10024 9568 10000
8 7217 6349 7045 7979 9246 8378 9074 10008
8 7967 7986 7987 6383 9996 10015 10016 8412
8 7244 8079 7115 7985 9273 10108 9144 10014
8 7990 7989 7370 6409 10019 10018 9399 8438
8 7526 7390 7989 8042 9555 9419 10018 10071
8 6283 8081 7310 7992 8312 10110 9339 10021
8 8040 6499 7308 7993 10069 8528 9337 10022
8 7195 6247 7977 7945 9224 8276 10006 9974
8 7642 6299 7999 8000 9671 8328 10028 10029
8 7272 7496 7972 7540 9301 9525 10001 9569
8 6333 7941 7443 8008 8362 9970 9472 10037
8 8017 7583 6264 8016 10046 9612 8293 10045
8 6264 7583 7273 7177 8293 9612 9302 9206
8 8013 7504 7608 8025 10042 9533 9637 10054
8 8060 8068 7500 8023 10089 10097 9529 10052
8 8053 8026 7456 7513 10082 10055 9485 9542
8 7997 7367 8035 8034 10026 9396 10064 10063
8 8036 8035 7367 6407 10065 10064 9396 8436
8 8035 8036 7598 8084 10064 10065 9627 10113
8 8038 8037 7559 6304 10067 10066 9588 8333
8 7500 8068 8037 8038 9529 10097 10066 10067
8 7717 7672 8045 8046 9746 9701 10074 10075
8 8051 8090 7552 7593 10080 10119 9581 9622
8 6470 8090 8051 7645 8499 10119 10080 9674
8 7705 7645 8052 8088 9734 9674 10081 10117
8 7697 6301 7621 8067 9726 8330 9650 10096
8 8076 7300 8070 8077 10105 9329 10099 10106
8 8072 8071 8040 7600 10101 10100 10069 9629
8 8077 8072 7699 6490 10106 10101 9728 8519
8 8077 6490 7232 8076 10106 8519 9261 10105
8 7484 7565 8043 7603 9513 9594 10072 9632
8 7705 8104 7683 6471 9734 10133 9712 8500
8 7619 7528 7653 8095 9648 9557 9682 10124
8 7713 8111 7677 8099 9742 10140 9706 10128
8 8082 6435 7620 8102 10111 8464 9649 10131
8 8108 8107 8084 7598 10137 10136 10113 9627
8 7575 7520 7442 8109 9604 9549 9471 10138
8 8033 8110 7225 6442 10062 10139 9254 8471
8 7766 6408 8113 7453 9795 8437 10142 9482
8 8113 6408 7558 8114 10142 8437 9587 10143
8 8147 8645 8646 8558 10176 10674 10675 10587
8 8645 8644 8647 8646 10674 10673 10676 10675
8 8908 8250 8829 8871 10937 10279 10858 10900
8 8888 8851 8812 8249 10917 10880 10841 10278
8 9102 8271 9163 9922 11131 10300 11192 11951
8 9159 8943 9007 9085 11188 10972 11036 11114
8 8269 9376 9286 9911 10298 11405 11315 11940
8 9192 8245 9238 9106 11221 10274 11267 11135
8 8244 9015 9905 8842 10273 11044 11934 10871
8 8986 8266 8882 8949 11015 10295 10911 10978
8 8241 9217 9124 9056 10270 11246 11153 11085
8 9030 8872 8814 8241 11059 10901 10843 10270
8 8262 9111 8239 9094 10291 11140 10268 11123
8 8260 8892 8961 9021 10289 10921 10990 11050
8 8892 8855 8815 8237 10921 10884 10844 10266
8 9861 9156 9841 9081 11890 11185 11870 11110
8 9155 8941 9005 9082 11184 10970 11034 11111
8 8234 9155 8257 9284 10263 11184 10286 11313
8 8233 9241 9104 9194 10262 11270 11133 11223
8 8255 8948 8841 9014 10284 10977 10870 11043
8 8841 8948 8254 8880 10870 10977 10283 10909
8 8996 9071 9055 8925 11025 11100 11084 10954
8 8809 8228 8817 8874 10838 10257 10846 10903
8 8251 8648 8686 8809 10280 10677 10715 10838
8 8648 8748 8151 8577 10677 10777 10180 10606
8 8748 8649 8152 8151 10777 10678 10181 10180
8 8649 8650 8578 8152 10678 10679 10607 10181
8 9006 8297 9830 9083 11035 10326 11859 11112
8 8579 8154 8651 8652 10608 10183 10680 10681
8 8653 8654 8580 8156 10682 10683 10609 10185
8 8342 9195 8751 8654 10371 11224 10780 10683
8 8751 8655 8581 8157 10780 10684 10610 10186
8 8365 8819 8752 8655 10394 10848 10781 10684
8 8840 8946 8388 8879 10869 10975 10417 10908
8 10043 9251 9457 9324 12072 11280 11486 11353
8 9652 9561 9576 9689 11681 11590 11605 11718
8 10061 8456 9668 9655 12090 10485 11697 11684
8 9347 8466 9188 9277 11376 10495 11217 11306
8 8846 8894 9046 8476 10875 10923 11075 10505
8 9836 8857 8793 8486 11865 10886 10822 10515
8 9048 9275 8495 9127 11077 11304 10524 11156
8 9275 8896 8966 8495 11304 10925 10995 10524
8 9836 8486 8966 8896 11865 10515 10995 10925
8 8477 8610 8194 8793 10506 10639 10223 10822
8 8864 8609 8193 8656 10893 10638 10222 10685
8 8191 8192 9818 9819 10220 10221 11847 11848
8 8191 9819 9820 8608 10220 11848 11849 10637
8 8190 9821 9807 8607 10219 11850 11836 10636
8 8189 8657 8441 8606 10218 10686 10470 10635
8 8836 9824 8837 8810 10865 11853 10866 10839
8 8848 8837 8906 8396 10877 10866 10935 10425
8 9210 9150 9121 8373 11239 11179 11150 10402
8 9462 9400 9247 9210 11491 11429 11276 11239
8 8329 10057 9554 10029 10358 12086 11583 12058
8 10028 9600 8305 9666 12057 11629 10334 11695
8 9430 9394 8282 9255 11459 11423 10311 11284
8 9053 9134 9222 8981 11082 11163 11251 11010
8 9023 9823 8815 8855 11052 11852 10844 10884
8 8730 8658 8117 8116 10759 10687 10146 10145
8 8249 8659 8658 8908 10278 10688 10687 10937
8 8559 8117 8658 8659 10588 10146 10687 10688
8 8660 8661 8560 8119 10689 10690 10589 10148
8 8247 8732 8661 9722 10276 10761 10690 11751
8 8732 8662 8121 8120 10761 10691 10150 10149
8 8246 8663 8662 8917 10275 10692 10691 10946
8 8561 8121 8662 8663 10590 10150 10691 10692
8 8664 8665 8562 8123 10693 10694 10591 10152
8 8244 8734 8665 9192 10273 10763 10694 11221
8 8124 8734 8666 8563 10153 10763 10695 10592
8 8813 8243 8667 8735 10842 10272 10696 10764
8 9811 8667 9020 8726 11840 10696 11049 10755
8 8736 8668 8128 8127 10765 10697 10157 10156
8 8668 8669 8565 8128 10697 10698 10594 10157
8 8241 8814 8737 8669 10270 10843 10766 10698
8 8240 8670 8737 8814 10269 10699 10766 10843
8 9843 8969 9025 8240 11872 10998 11054 10269
8 8671 8739 8132 8567 10700 10768 10161 10596
8 9370 9204 8239 9111 11399 11233 10268 11140
8 8739 8672 8133 8132 10768 10701 10162 10161
8 9198 8961 9026 8238 11227 10990 11055 10267
8 8568 8133 8672 8673 10597 10162 10701 10702
8 8674 8675 8569 8135 10703 10704 10598 10164
8 8236 9723 8741 8675 10265 11752 10770 10704
8 8741 8676 8137 8136 10770 10705 10166 10165
8 8235 8915 8677 8676 10264 10944 10706 10705
8 8570 8137 8676 8677 10599 10166 10705 10706
8 8678 8679 8571 8139 10707 10708 10600 10168
8 9194 8743 8679 8233 11223 10772 10708 10262
8 8743 8680 8572 8140 10772 10709 10601 10169
8 8232 8816 8744 8680 10261 10845 10773 10709
8 8231 8681 8744 8816 10260 10710 10773 10845
8 8231 9013 8724 8681 10260 11042 10753 10710
8 8745 8682 8144 8143 10774 10711 10173 10172
8 8682 8683 8574 8144 10711 10712 10603 10173
8 8817 8746 8683 8229 10846 10775 10712 10258
8 8228 8684 8746 8817 10257 10713 10775 10846
8 8685 8747 8149 8576 10714 10776 10178 10605
8 8575 8146 8684 8685 10604 10175 10713 10714
8 8577 8150 8686 8648 10606 10179 10715 10677
8 8752 8687 8159 8158 10781 10716 10188 10187
8 8582 8159 8687 8688 10611 10188 10716 10717
8 8410 9089 9057 9218 10439 11118 11086 11247
8 9938 9312 9130 8978 11967 11341 11159 11007
8 9566 9356 9324 9501 11595 11385 11353 11530
8 9725 10131 9684 9687 11754 12160 11713 11716
8 9550 9703 9729 9606 11579 11732 11758 11635
8 9428 9245 8475 9322 11457 11274 10504 11351
8 8494 9276 9283 9196 10523 11305 11312 11225
8 9127 8504 9029 9048 11156 10533 11058 11077
8 9029 8504 8967 8905 11058 10533 10996 10934
8 8495 8612 8196 9127 10524 10641 10225 11156
8 8387 9010 8688 8687 10416 11039 10717 10716
8 8753 8689 8161 8160 10782 10718 10190 10189
8 8583 8161 8689 8690 10612 10190 10718 10719
8 8442 8691 8754 8820 10471 10720 10783 10849
8 9867 8970 9027 8442 11896 10999 11056 10471
8 8692 8756 8165 8585 10721 10785 10194 10614
8 9371 9203 8451 9110 11400 11232 10480 11139
8 8756 8693 8166 8165 10785 10722 10195 10194
8 9197 8962 9028 8460 11226 10991 11057 10489
8 8893 8856 8821 8469 10922 10885 10850 10498
8 9147 8479 9223 9226 11176 10508 11252 11255
8 8490 10081 9616 9531 10519 12110 11645 11560
8 9674 9734 9752 8499 11703 11763 11781 10528
8 10068 8510 9610 9480 12097 10539 11639 11509
8 9069 9169 9261 8520 11098 11198 11290 10549
8 8900 8926 9035 8530 10929 10955 11064 10559
8 8775 8802 8859 8540 10804 10831 10888 10569
8 8775 8617 8202 8548 10804 10646 10231 10577
8 8540 8201 8617 8775 10569 10230 10646 10804
8 8774 8616 8201 8540 10803 10645 10230 10569
8 8531 8200 8616 8774 10560 10229 10645 10803
8 8861 8831 8716 8531 10890 10860 10745 10560
8 8520 9063 8921 8994 10549 11092 10950 11023
8 9250 8511 9260 9398 11279 10540 11289 11427
8 9563 10025 9712 9639 11592 12054 11741 11668
8 9664 9653 8490 9540 11693 11682 10519 11569
8 9133 9254 9395 8480 11162 11283 11424 10509
8 9220 10062 8471 9052 11249 12091 10500 11081
8 8452 9110 8451 9093 10481 11139 10480 11122
8 9022 8893 8962 9889 11051 10922 10991 11918
8 8586 8166 8693 8694 10615 10195 10722 10723
8 8469 8821 8757 8694 10498 10850 10786 10723
8 8478 9833 9024 9066 10507 11862 11053 11095
8 9422 9958 9999 9934 11451 11987 12028 11963
8 9535 8507 9477 10031 11564 10536 11506 12060
8 9542 10130 9716 10082 11571 12159 11745 12111
8 10022 9589 9629 10069 12051 11618 11658 12098
8 9096 9176 10060 8529 11125 11205 12089 10558
8 8898 8936 9037 8539 10927 10965 11066 10568
8 9796 8800 8849 8548 11825 10829 10878 10577
8 8557 9796 8618 8203 10586 11825 10647 10232
8 8548 8202 8618 9796 10577 10231 10647 11825
8 8695 8696 8587 8168 10724 10725 10616 10197
8 9088 9863 8487 9724 11117 11892 10516 11753
8 8588 8170 8697 8698 10617 10199 10726 10727
8 8699 8700 8589 8172 10728 10729 10618 10201
8 9193 8760 8700 8505 11222 10789 10729 10534
8 8760 8701 8590 8173 10789 10730 10619 10202
8 8514 8822 8761 9827 10543 10851 10790 11856
8 9016 8950 8524 8843 11045 10979 10553 10872
8 9910 9876 9873 9135 11939 11905 11902 11164
8 9003 9854 8552 8826 11032 11883 10581 10855
8 8702 8769 8913 8553 10731 10798 10942 10582
8 8702 8770 8185 8600 10731 10799 10214 10629
8 8553 9388 8770 8702 10582 11417 10799 10731
8 8602 8601 8703 8771 10631 10630 10732 10800
8 8704 8772 8603 8186 10733 10801 10632 10215
8 9839 8937 9043 9002 11868 10966 11072 11031
8 9098 8936 9162 9879 11127 10965 11191 11908
8 9178 9923 9231 8538 11207 11952 11260 10567
8 9231 9971 9337 10009 11260 12000 11366 12038
8 9971 8537 10022 9337 12000 10566 12051 11366
8 8535 9387 9532 9663 10564 11416 11561 11692
8 9259 9296 9141 9060 11288 11325 11170 11089
8 8174 9814 9813 8175 10203 11843 11842 10204
8 8705 9019 8706 9813 10734 11048 10735 11842
8 9095 8541 9798 9806 11124 10570 11827 11835
8 8883 8551 8825 9850 10912 10580 10854 11879
8 8768 8707 8826 8552 10797 10736 10855 10581
8 8707 8768 8599 8598 10736 10797 10628 10627
8 8762 8708 8177 8176 10791 10737 10206 10205
8 8592 8177 8708 8709 10621 10206 10737 10738
8 8549 8710 8763 8823 10578 10739 10792 10852
8 8711 8764 8181 8594 10740 10793 10210 10623
8 8593 8179 8710 8711 10622 10208 10739 10740
8 8712 8765 8596 8595 10741 10794 10625 10624
8 8712 9828 8911 8765 10741 11857 10940 10794
8 8911 8550 8766 8765 10940 10579 10795 10794
8 8852 9850 8825 8550 10881 11879 10854 10579
8 9039 8875 8823 8541 11068 10904 10852 10570
8 9806 9112 9054 9095 11835 11141 11083 11124
8 8541 8709 8708 9798 10570 10738 10737 11827
8 8183 8597 8713 8767 10212 10626 10742 10796
8 8555 8704 8771 9431 10584 10733 10800 11460
8 8714 8773 8604 8187 10743 10802 10633 10216
8 9838 8839 8557 8827 11867 10868 10586 10856
8 8556 8714 8772 8912 10585 10743 10801 10941
8 8604 8773 8808 8605 10633 10802 10837 10634
8 8716 8199 8200 8531 10745 10228 10229 10560
8 8522 8866 8834 8717 10551 10895 10863 10746
8 9166 8511 8992 9063 11195 10540 11021 11092
8 9926 9460 8501 9496 11955 11489 10530 11525
8 8492 9639 8491 9676 10521 11668 10520 11705
8 9540 8481 9667 9599 11569 10510 11696 11628
8 8452 9128 9333 9892 10481 11157 11362 11921
8 9027 8970 9093 8451 11056 10999 11122 10480
8 8584 8163 8691 8715 10613 10192 10720 10744
8 8199 8716 8522 8615 10228 10745 10551 10644
8 8615 8522 8717 8198 10644 10551 10746 10227
8 8503 9235 8502 9359 10532 11264 10531 11388
8 9372 8493 9511 9490 11401 10522 11540 11519
8 10047 9605 9474 9779 12076 11634 11503 11808
8 9683 10144 8472 9559 11712 12173 10501 11588
8 9727 9642 9564 8462 11756 11671 11593 10491
8 9867 8442 8820 8873 11896 10471 10849 10902
8 8433 8820 8754 8690 10462 10849 10783 10719
8 8198 8717 8513 8614 10227 10746 10542 10643
8 8513 9837 8905 8967 10542 11866 10934 10996
8 9851 8503 9048 9029 11880 10532 11077 11058
8 8484 9126 9196 9283 10513 11155 11225 11312
8 9320 9245 9428 8474 11349 11274 11457 10503
8 9642 9677 9684 8463 11671 11706 11713 10492
8 9218 9057 9031 8433 11247 11086 11060 10462
8 8204 8810 8419 8633 10233 10839 10448 10662
8 8219 8633 8419 8783 10248 10662 10448 10812
8 8420 8798 8887 8954 10449 10827 10916 10983
8 8932 9001 8374 9077 10961 11030 10403 11106
8 10048 8352 9280 9321 12077 10381 11309 11350
8 9518 9560 9613 8306 11547 11589 11642 10335
8 9325 10002 9518 8306 11354 12031 11547 10335
8 8283 9134 9053 9221 10312 11163 11082 11250
8 8783 8865 8632 8219 10812 10894 10661 10248
8 8420 8934 8902 8865 10449 10963 10931 10894
8 8934 9424 9306 9375 10963 11453 11335 11404
8 8352 9506 9348 9280 10381 11535 11377 11309
8 9545 9602 8330 9669 11574 11631 10359 11698
8 10012 9678 9685 8307 12041 11707 11714 10336
8 9921 8284 9643 9565 11950 10313 11672 11594
8 9866 8262 9129 9334 11895 10291 11158 11363
8 8902 8421 8631 8218 10931 10450 10660 10247
8 8630 8217 9190 8422 10659 10246 11219 10451
8 8422 9190 9248 9034 10451 11219 11277 11063
8 9234 9315 8399 9181 11263 11344 10428 11210
8 9346 9434 8354 9279 11375 11463 10383 11308
8 10089 9470 9603 8332 12118 11499 11632 10361
8 9688 9651 8308 9562 11717 11680 10337 11591
8 9920 9355 9502 9567 11949 11384 11531 11596
8 8886 8400 8847 8797 10915 10429 10876 10826
8 8931 9074 8378 9000 10960 11103 10407 11029
8 9279 8354 9350 9187 11308 10383 11379 11216
8 9350 9529 10067 10126 11379 11558 12096 12155
8 9992 8309 9516 10011 12021 10338 11545 12040
8 9927 9252 9323 8286 11956 11281 11352 10315
8 8263 9882 8977 9050 10292 11911 11006 11079
8 9843 8240 8814 8872 11872 10269 10843 10901
8 8629 8215 9822 8423 10658 10244 11851 10452
8 8401 8858 8803 8895 10430 10887 10832 10924
8 8379 9038 8935 9099 10408 11067 10964 11128
8 9265 9179 9335 8356 11294 11208 11364 10385
8 9246 9350 10126 8355 11275 11379 12155 10384
8 9516 8310 9537 9588 11545 10339 11566 11617
8 9230 9410 9455 8287 11259 11439 11484 10316
8 9410 9230 9174 9912 11439 11259 11203 11941
8 8264 9030 8241 9056 10293 11059 10270 11085
8 8214 8629 8423 8782 10243 10658 10452 10811
8 8782 8424 8628 8214 10811 10453 10657 10243
8 8781 8425 8627 8213 10810 10454 10656 10242
8 8780 8426 8626 8212 10809 10455 10655 10241
8 8779 8427 8625 8211 10808 10456 10654 10240
8 8778 8428 8624 8210 10807 10457 10653 10239
8 8777 8429 8623 8209 10806 10458 10652 10238
8 8776 8430 8207 8208 10805 10459 10236 10237
8 8850 8431 8794 8801 10879 10460 10823 10830
8 9797 8727 8799 8432 11826 10756 10828 10461
8 9815 8620 8205 9797 11844 10649 10234 11826
8 8432 8811 8719 8784 10461 10840 10748 10813
8 8958 9834 9848 8928 10987 11863 11877 10957
8 9548 9574 9633 8339 11577 11603 11662 10368
8 8315 9746 9731 9747 10344 11775 11760 11776
8 9697 8314 9534 9635 11726 10343 11563 11664
8 8290 9236 9351 9414 10319 11265 11380 11443
8 8243 8842 8949 8882 10272 10871 10978 10911
8 9138 9059 8266 8986 11167 11088 10295 11015
8 9301 8288 9297 9140 11330 10317 11326 11169
8 9872 8882 8266 9018 11901 10911 10295 11047
8 8719 8785 8636 8635 10748 10814 10665 10664
8 8409 9835 8786 8785 10438 11864 10815 10814
8 8979 9800 9407 9109 11008 11829 11436 11138
8 9443 9904 9379 9491 11472 11933 11408 11520
8 10094 9573 9512 9634 12123 11602 11541 11663
8 9489 9556 10046 10045 11518 11585 12075 12074
8 8269 9421 8292 9440 10298 11450 10321 11469
8 9015 9106 9182 9905 11044 11135 11211 11934
8 8268 9351 9236 9182 10297 11380 11265 11211
8 8786 8720 8637 8222 10815 10749 10666 10251
8 8386 9202 8787 8720 10415 11231 10816 10749
8 9408 9393 8364 9374 11437 11422 10393 11403
8 9207 9115 9977 9303 11236 11144 12006 11332
8 10094 8316 10024 9573 12123 10345 12053 11602
8 9911 9113 9421 8269 11940 11142 11450 10298
8 9389 9286 9376 9366 11418 11315 11405 11395
8 8291 9436 9440 9476 10320 11465 11469 11505
8 8721 8729 8639 8638 10750 10758 10668 10667
8 8340 9079 8940 9153 10369 11108 10969 11182
8 9951 9881 9950 9465 11980 11910 11979 11494
8 9969 9163 9805 10044 11998 11192 11834 12073
8 9206 9302 9421 9113 11235 11331 11450 11142
8 8227 8643 8722 8792 10256 10672 10751 10821
8 8273 8829 8792 8722 10302 10858 10821 10751
8 8723 8790 8642 8641 10752 10819 10671 10670
8 8296 8828 8791 8790 10325 10857 10820 10819
8 8889 8273 8828 8853 10918 10302 10857 10882
8 9042 8990 9883 9309 11071 11019 11912 11338
8 10045 8293 9969 10044 12074 10322 11998 12073
8 9994 9042 9309 9227 12023 11071 11338 11256
8 9164 9949 9950 9881 11193 11978 11979 11910
8 9080 9004 9164 9103 11109 11033 11193 11132
8 9816 8723 8641 8225 11845 10752 10670 10254
8 9154 9080 9103 8296 11183 11109 11132 10325
8 9832 8853 8828 8296 11861 10882 10857 10325
8 8573 8142 8681 8724 10602 10171 10710 10753
8 8679 8678 9392 8233 10708 10707 11421 10262
8 8740 8815 9823 8674 10769 10844 11852 10703
8 8566 8130 8670 8725 10595 10159 10699 10754
8 9366 8245 8664 9389 11395 10274 10693 11418
8 8731 8812 8248 8660 10760 10841 10277 10689
8 8891 8854 8818 8251 10920 10883 10847 10280
8 9224 9974 9368 9146 11253 12003 11397 11175
8 9738 8300 10076 9620 11767 10329 12105 11649
8 8324 10109 9772 9791 10353 12138 11801 11820
8 8347 9771 9742 9810 10376 11800 11771 11839
8 9615 9658 9770 8393 11644 11687 11799 10422
8 9826 8838 8907 8919 11855 10867 10936 10948
8 8810 8204 8824 8836 10839 10233 10853 10865
8 9232 9877 9055 9136 11261 11906 11084 11165
8 9930 8277 9299 9929 11959 10306 11328 11958
8 9382 8301 9521 9448 11411 10330 11550 11477
8 9790 9743 10132 8325 11819 11772 12161 10354
8 9793 10051 9776 9781 11822 12080 11805 11810
8 8371 9789 9784 9770 10400 11818 11813 11799
8 9044 8395 8920 8972 11073 10424 10949 11001
8 8783 8419 8848 8798 10812 10448 10877 10827
8 8947 8880 8254 9012 10976 10909 10283 11041
8 9929 9258 9906 9143 11958 11287 11935 11172
8 9382 9272 9142 8278 11411 11301 11171 10307
8 9543 10120 10033 8302 11572 12149 12062 10331
8 8325 9786 9793 9790 10354 11815 11822 11819
8 9614 9657 10083 8349 11643 11686 12112 10378
8 9897 9214 8373 9121 11926 11243 10402 11150
8 9072 9150 8374 9001 11101 11179 10403 11030
8 9318 8988 8948 8255 11347 11017 10977 10284
8 9494 9447 9931 9416 11523 11476 11960 11445
8 9751 9696 9638 8303 11780 11725 11667 10332
8 10102 9754 9774 8327 12131 11783 11803 10356
8 9571 8350 9462 9500 11600 10379 11491 11529
8 9150 9210 9247 8374 11179 11239 11276 10403
8 9194 9104 9014 8232 11223 11133 11043 10261
8 9184 8256 9354 9240 11213 10285 11383 11269
8 8280 9580 9984 9479 10309 11609 12013 11508
8 9621 9675 9735 8303 11650 11704 11764 10332
8 10102 9720 10095 9670 12131 11749 12124 11699
8 8351 9554 10057 9481 10380 11583 12086 11510
8 9860 9380 9365 9284 11889 11409 11394 11313
8 8279 9438 9444 9479 10308 11467 11473 11508
8 9965 9714 9952 8281 11994 11743 11981 10310
8 9600 9539 9504 8305 11629 11568 11533 10334
8 10029 9736 9613 8329 12058 11765 11642 10358
8 9305 9117 9082 9209 11334 11146 11111 11238
8 9913 8282 9394 9662 11942 10311 11423 11691
8 9504 9394 9430 8305 11533 11423 11459 10334
8 8941 9841 9156 9005 10970 11870 11185 11034
8 9896 8259 9222 9225 11925 10288 11251 11254
8 9023 8981 9222 8259 11052 11010 11251 10288
8 9007 9087 9102 9922 11036 11116 11131 11951
8 8851 8985 8248 8812 10880 11014 10277 10841
8 8889 8871 8829 8273 10918 10900 10858 10302
8 9065 8274 8818 8854 11094 10303 10847 10883
8 9116 8298 9208 9304 11145 10327 11237 11333
8 9637 9533 9478 9583 11666 11562 11507 11612
8 9699 9719 10085 8345 11728 11748 12114 10374
8 9769 9753 9733 9744 11798 11782 11762 11773
8 9945 9461 9499 8416 11974 11490 11528 10445
8 8417 9073 9172 9373 10446 11102 11201 11402
8 8824 8441 8845 8838 10853 10470 10874 10867
8 9295 8276 9224 9232 11324 10305 11253 11261
8 9929 9299 9983 9258 11958 11328 12012 11287
8 9142 9930 9061 8988 11171 11959 11090 11017
8 9931 9240 9354 9416 11960 11269 11383 11445
8 8280 9479 9444 9907 10309 11508 11473 11936
8 9305 9423 8257 9117 11334 11452 10286 11146
8 8258 9369 9404 9209 10287 11398 11433 11238
8 9406 9767 9782 8261 11435 11796 11811 10290
8 8285 9761 9866 9334 10314 11790 11895 11363
8 9334 9129 9050 9263 11363 11158 11079 11292
8 9056 9174 9230 8264 11085 11203 11259 10293
8 9059 8289 9301 9140 11088 10318 11330 11169
8 9586 9520 9451 8313 11615 11549 11480 10342
8 8383 9310 9426 9229 10412 11339 11455 11258
8 8406 9201 8922 9149 10435 11230 10951 11178
8 8860 8430 8776 8805 10889 10459 10805 10834
8 8430 8794 8622 8207 10459 10823 10651 10236
8 8408 8850 8801 8897 10437 10879 10830 10926
8 8850 8799 8727 8431 10879 10828 10756 10460
8 8431 8727 8621 8206 10460 10756 10650 10235
8 9384 8313 9451 9956 11413 10342 11480 11985
8 9270 10021 9339 8289 11299 12050 11368 10318
8 9384 9956 8290 9414 11413 11985 10319 11443
8 9635 9534 9476 9582 11664 11563 11505 11611
8 9623 9612 10046 9701 11652 11641 12075 11730
8 8294 9995 9489 9466 10323 12024 11518 11495
8 8297 8749 8650 9830 10326 10778 10679 11859
8 9084 9006 9083 9157 11113 11035 11112 11186
8 9006 9084 9158 8942 11035 11113 11187 10971
8 8322 9478 9439 9442 10351 11507 11468 11471
8 9446 9484 9445 9381 11475 11513 11474 11410
8 9759 9700 8392 9572 11788 11729 10421 11601
8 9399 9461 9945 9211 11428 11490 11974 11240
8 8885 8930 8998 8440 10914 10959 11027 10469
8 9191 9033 8956 8450 11220 11062 10985 10479
8 8459 9191 9821 9820 10488 11220 11850 11849
8 8298 9368 9403 9208 10327 11397 11432 11237
8 9738 10020 8299 10035 11767 12049 10328 12064
8 9341 9272 9382 9448 11370 11301 11411 11477
8 9447 10121 8301 9382 11476 12150 10330 11411
8 9580 9638 8302 9984 11609 11667 10331 12013
8 9714 9617 9675 9621 11743 11646 11704 11650
8 10002 9960 9332 9980 12031 11989 11361 12009
8 9920 9567 9640 8285 11949 11596 11669 10314
8 9355 8286 9323 9991 11384 10315 11352 12020
8 8310 9458 9252 9397 10339 11487 11281 11426
8 9537 8310 9397 9487 11566 10339 11426 11516
8 9497 8288 9301 9569 11526 10317 11330 11598
8 9579 9558 10110 8312 11608 11587 12139 10341
8 10049 9740 9692 9630 12078 11769 11721 11659
8 9989 9171 9985 9268 12018 11200 12014 11297
8 8863 8429 8777 8830 10892 10458 10806 10859
8 8863 8805 8776 8429 10892 10834 10805 10458
8 9632 8336 9704 9775 11661 10365 11733 11804
8 9704 9586 8313 9541 11733 11615 10342 11570
8 9717 8314 9697 9763 11746 10343 11726 11792
8 9747 9697 9635 8315 11776 11726 11664 10344
8 9711 9731 9746 10075 11740 11760 11775 12104
8 9573 10000 8317 9512 11602 12029 10346 11541
8 9079 9115 9207 8318 11108 11144 11236 10347
8 8318 9871 8940 9079 10347 11900 10969 11108
8 8640 8224 8788 9817 10669 10253 10817 11846
8 8320 8652 8651 8916 10349 10681 10680 10945
8 9006 8942 8916 8297 11035 10971 10945 10326
8 8320 9158 8321 9285 10349 11187 10350 11314
8 8343 9353 9242 9185 10372 11382 11271 11214
8 10112 8390 9342 10122 12141 10419 11371 12151
8 8391 9682 9557 9577 10420 11711 11586 11606
8 10017 9419 9555 9611 12046 11448 11584 11640
8 9076 9186 9244 8439 11105 11215 11273 10468
8 9314 8449 9180 9233 11343 10478 11209 11262
8 9249 8459 9281 9343 11278 10488 11310 11372
8 9818 9825 9281 9819 11847 11854 11310 11848
8 9625 8323 9620 10076 11654 10352 11649 12105
8 10076 9521 9584 9625 12105 11550 11613 11654
8 10129 9584 9543 9705 12158 11613 11572 11734
8 8327 9691 8304 9654 10356 11720 10333 11683
8 10102 8327 9654 9665 12131 10356 11683 11694
8 8330 9659 9560 9650 10359 11688 11589 11679
8 9726 10096 9685 9686 11755 12125 11714 11715
8 9603 8331 9651 9688 11632 10360 11680 11717
8 10066 9628 9516 9588 12095 11657 11545 11617
8 9709 8333 9708 10098 11738 10362 11737 12127
8 9631 8334 9647 9679 11660 10363 11676 11708
8 8356 9591 9631 9524 10385 11620 11660 11553
8 9741 8358 9988 9328 11770 10387 12017 11357
8 8382 9040 8933 9100 10411 11069 10962 11129
8 8868 8428 8778 8833 10897 10457 10807 10862
8 8868 8830 8777 8428 10897 10859 10806 10457
8 9586 10092 9626 9520 11615 12121 11655 11549
8 9426 9808 9475 10039 11455 11837 11504 12068
8 9551 10073 9608 10090 11580 12102 11637 12119
8 10093 9702 9730 9607 12122 11731 11759 11636
8 10090 9702 10093 9551 12119 11731 12122 11580
8 9978 9646 9633 9574 12007 11675 11662 11603
8 9970 8362 9491 9360 11999 10391 11520 11389
8 9855 9153 8341 9253 11884 11182 10370 11282
8 8750 8653 8156 8155 10779 10682 10185 10184
8 9391 9364 9243 8342 11420 11393 11272 10371
8 8343 9185 9105 9243 10372 11214 11134 11272
8 9319 10014 9144 8989 11348 12043 11173 11018
8 8390 9527 9298 9342 10419 11556 11327 11371
8 9645 8413 9648 10077 11674 10442 11677 12106
8 9412 9345 9278 8448 11441 11374 11307 10477
8 9212 9874 8467 9151 11241 11903 10496 11180
8 8884 8955 8468 8795 10913 10984 10497 10824
8 9986 8322 9442 9957 12015 10351 11471 11986
8 9773 9810 8346 9758 11802 11839 10375 11787
8 9743 9790 10087 9773 11772 11819 12116 11802
8 9732 9997 9755 8348 11761 12026 11784 10377
8 9670 9571 9614 8349 11699 11600 11643 10378
8 9321 8351 9481 10048 11350 10380 11510 12077
8 9602 9545 9506 8352 11631 11574 11535 10381
8 9804 8353 9470 9468 11833 10382 11499 11497
8 10052 9529 9350 8354 12081 11558 11379 10383
8 9631 9591 9802 8334 11660 11620 11831 10363
8 8357 9524 9631 9590 10386 11553 11660 11619
8 9524 8357 9267 9336 11553 10386 11296 11365
8 8995 9864 8924 9884 11024 11893 10953 11913
8 8870 8427 8779 8835 10899 10456 10808 10864
8 8870 8833 8778 8427 10899 10862 10807 10456
8 9632 10072 9692 8336 11661 12101 11721 10365
8 9594 9513 10038 8358 11623 11542 12067 10387
8 9901 8383 9168 9068 11930 10412 11197 11097
8 9459 9288 9311 8361 11488 11317 11340 10390
8 9326 9472 9970 9289 11355 11501 11999 11318
8 9978 9472 9326 9459 12007 11501 11355 11488
8 9289 9970 9360 9932 11318 11999 11389 11961
8 9109 9202 8386 9051 11138 11231 10415 11080
8 8342 9243 9105 9195 10371 11272 11134 11224
8 8366 8946 8840 9009 10395 10975 10869 11038
8 8389 9257 9145 9062 10418 11286 11174 11091
8 9456 9488 8436 9396 11485 11517 10465 11425
8 10137 8446 10114 10136 12166 10475 12143 12165
8 9435 9471 9549 8447 11464 11500 11578 10476
8 8467 8929 9075 9151 10496 10958 11104 11180
8 8894 8846 8477 8804 10923 10875 10506 10833
8 8367 9242 9353 9417 10396 11271 11382 11446
8 9381 8367 9417 9446 11410 10396 11446 11475
8 8368 10127 9706 8369 10397 12156 11735 10398
8 9769 8369 9757 9753 11798 10398 11786 11782
8 9777 9788 9781 9776 11806 11817 11810 11805
8 9794 10041 9755 9997 11823 12070 11784 12026
8 9210 8373 9500 9462 11239 10402 11529 11491
8 9247 9189 9077 8374 11276 11218 11106 10403
8 8375 9189 9280 9348 10404 11218 11309 11377
8 9411 9346 9279 8377 11440 11375 11308 10406
8 8377 9279 9187 9919 10406 11308 11216 11948
8 9246 9179 9099 8378 11275 11208 11128 10407
8 9962 9177 9265 9336 11991 11206 11294 11365
8 9875 9870 8927 9097 11904 11899 10956 11126
8 8867 8426 8780 8832 10896 10455 10809 10861
8 8426 8779 8211 8626 10455 10808 10240 10655
8 8867 8835 8779 8426 10896 10864 10808 10455
8 8380 9953 9070 9036 10409 11982 11099 11065
8 8381 9987 9171 9100 10410 12016 11200 11129
8 8407 9856 9900 9200 10436 11885 11929 11229
8 9900 9801 9256 9200 11929 11830 11285 11229
8 8407 9047 8408 8897 10436 11076 10437 10926
8 8997 9108 8385 9849 11026 11137 10414 11878
8 8386 9835 8938 9051 10415 11864 10967 11080
8 8819 8840 8879 8387 10848 10869 10908 10416
8 8946 8989 9062 8388 10975 11018 11091 10417
8 9273 10122 9342 10108 11302 12151 11371 12137
8 9522 10086 9577 10112 11551 12115 11606 12141
8 9756 9733 9753 8370 11785 11762 11782 10399
8 9615 9572 8392 9658 11644 11601 10421 11687
8 9307 8393 9770 9784 11336 10422 11799 11813
8 9386 9044 9122 8394 11415 11073 11151 10423
8 9001 8932 8887 8396 11030 10961 10916 10425
8 9306 9213 9433 9413 11335 11242 11462 11442
8 8398 9357 9234 9181 10427 11386 11263 11210
8 9315 8931 8886 8399 11344 10960 10915 10428
8 9000 8935 8895 8400 11029 10964 10924 10429
8 8379 9097 8927 9038 10408 11126 10956 11067
8 8862 8425 8781 8807 10891 10454 10810 10836
8 8425 8780 8212 8627 10454 10809 10241 10656
8 8862 8832 8780 8425 10891 10861 10809 10454
8 9036 8924 8974 9846 11065 10953 11003 11875
8 8995 8933 8877 8403 11024 10962 10906 10432
8 8876 8404 9040 9101 10905 10433 11069 11130
8 9901 9068 8922 9858 11930 11097 10951 11887
8 9010 8945 9089 8410 11039 10974 11118 10439
8 9257 10016 9294 9145 11286 12045 11323 11174
8 9996 8412 9570 9498 12025 10441 11599 11527
8 10104 9557 9648 8413 12133 11586 11677 10442
8 9611 9745 9700 9759 11640 11774 11729 11788
8 10017 8415 9993 9499 12046 10444 12022 11528
8 9868 9120 9215 9045 11897 11149 11244 11074
8 9826 8919 9041 8418 11855 10948 11070 10447
8 8398 9181 9034 9248 10427 11210 11063 11277
8 9822 8718 8957 8797 11851 10747 10986 10826
8 8847 8803 8782 8423 10876 10832 10811 10452
8 8424 8781 8213 8628 10453 10810 10242 10657
8 8858 8807 8781 8424 10887 10836 10810 10453
8 9057 9175 10003 8434 11086 11204 12032 10463
8 9031 8873 8820 8433 11060 10902 10849 10462
8 10143 9587 10078 10135 12172 11616 12107 12164
8 9482 10142 9555 10071 11511 12171 11584 12100
8 8438 9399 9211 9244 10467 11428 11240 11273
8 8439 9172 9073 8998 10468 11201 11102 11027
8 8440 8907 8838 8845 10469 10936 10867 10874
8 8978 8443 8910 8971 11007 10472 10939 11000
8 9130 9251 10043 9968 11159 11280 12072 11997
8 9968 8443 8978 9130 11997 10472 11007 11159
8 8445 9515 10114 9576 10474 11544 12143 11605
8 8447 9549 9795 9528 10476 11578 11824 11557
8 8438 9244 9186 9349 10467 11273 11215 11378
8 8449 9314 9076 8930 10478 11343 11105 10959
8 8450 8956 8885 8796 10479 10985 10914 10825
8 8453 9762 9892 9333 10482 11791 11921 11362
8 9687 8454 9561 9652 11716 10483 11590 11681
8 9356 9566 9641 8453 11385 11595 11670 10482
8 9471 10061 9655 10138 11500 12090 11684 12167
8 9345 9435 8447 9278 11374 11464 10476 11307
8 8458 9358 9233 9180 10487 11387 11262 11209
8 8459 9249 9033 9191 10488 11278 11062 11220
8 9936 9768 9783 8461 11965 11797 11812 10490
8 9564 10091 9517 9331 11593 12120 11546 11360
8 9601 10111 9668 9546 11630 12140 11697 11575
8 8465 9507 9347 9277 10494 11536 11376 11306
8 9432 9212 9151 8466 11461 11241 11180 10495
8 9874 9199 8955 8467 11903 11228 10984 10496
8 8480 9223 9935 9133 10509 11252 11964 11162
8 8470 9052 9133 9935 10499 11081 11162 11964
8 10139 9429 9395 9254 12168 11458 11424 11283
8 10144 8473 9737 9809 12173 10502 11766 11838
8 9245 9320 9277 9188 11274 11349 11306 11217
8 9605 9550 8474 9474 11634 11579 10503 11503
8 8475 9075 8929 8999 10504 11104 10958 11028
8 8476 8884 8795 8846 10505 10913 10824 10875
8 9024 9833 8821 8856 11053 11862 10850 10885
8 9395 9505 9454 8480 11424 11534 11483 10509
8 9739 8492 9676 9749 11768 10521 11705 11778
8 9322 8475 8999 9219 11351 10504 11028 11248
8 9467 9473 8484 9372 11496 11502 10513 11401
8 8485 8894 8804 8857 10514 10923 10833 10886
8 8478 9724 8758 8696 10507 11753 10787 10725
8 9147 9161 9863 9088 11176 11190 11892 11117
8 9086 9160 8944 9008 11115 11189 10973 11037
8 9979 9477 9437 9441 12008 11506 11466 11470
8 10055 8517 9383 9485 12084 10546 11412 11514
8 8527 9578 9585 9760 10556 11607 11614 11789
8 10023 9693 9629 9589 12052 11722 11658 11618
8 8488 9226 9402 9205 10517 11255 11431 11234
8 10118 9690 8490 9653 12147 11719 10519 11682
8 9547 9563 9639 8492 11576 11592 11668 10521
8 9250 9460 9926 8502 11279 11489 11955 10531
8 9836 8896 9292 8965 11865 10925 11321 10994
8 9283 9276 9401 8493 11312 11305 11430 10522
8 8487 8918 8698 8697 10516 10947 10727 10726
8 9863 8944 8918 8487 11892 10973 10947 10516
8 8496 9160 8497 9287 10525 11189 10526 11316
8 9415 9237 9183 9352 11444 11266 11212 11381
8 8526 9340 9271 9450 10555 11369 11300 11479
8 8498 9715 10032 9622 10527 11744 12061 11651
8 9418 10068 9480 9552 11447 12097 11509 11581
8 8509 9780 9552 9480 10538 11809 11581 11509
8 9173 9235 9887 9064 11202 11264 11916 11093
8 8759 8699 8172 8171 10788 10728 10201 10200
8 9390 9367 9239 8505 11419 11396 11268 10534
8 8506 9183 9107 9239 10535 11212 11136 11268
8 8950 9317 9139 8987 10979 11346 11168 11016
8 8517 9450 9943 9383 10546 11479 11972 11412
8 8498 9979 9441 9933 10527 12008 11470 11962
8 9698 10059 8508 9535 11727 12088 10537 11564
8 8519 9327 9166 9261 10548 11356 11195 11290
8 10070 8510 9260 9327 12099 10539 11289 11356
8 9063 8992 8512 8921 11092 11021 10541 10950
8 8834 9837 8513 8717 10863 11866 10542 10746
8 8505 9239 9107 9193 10534 11268 11136 11222
8 9139 8525 9060 8987 11168 10554 11089 11016
8 9237 9415 9449 8516 11266 11444 11478 10545
8 8517 10055 9748 9585 10546 12084 11777 11614
8 9661 8509 9480 9610 11690 10538 11509 11639
8 8529 9069 8923 9035 10558 11098 10952 11064
8 8520 8994 8923 9069 10549 11023 10952 11098
8 8866 8522 8716 8831 10895 10551 10745 10860
8 8822 8843 8881 8523 10851 10872 10910 10552
8 10060 9266 9329 9169 12089 11295 11358 11198
8 8859 8806 8774 8540 10888 10835 10803 10569
8 8861 8531 8774 8806 10890 10560 10803 10835
8 9017 9091 9842 8951 11046 11120 11871 10980
8 8953 8983 9216 8543 10982 11012 11245 10572
8 9269 8939 9078 8544 11298 10968 11107 10573
8 9409 8554 9388 9453 11438 10583 11417 11482
8 9453 9385 8545 9409 11482 11414 10574 11438
8 9431 9330 9290 8555 11460 11359 11319 10584
8 9330 9361 8546 9290 11359 11390 10575 11319
8 9880 8546 9361 9427 11909 10575 11390 11456
8 9618 9592 9886 8536 11647 11621 11915 10565
8 10023 9589 9523 9972 12052 11618 11552 12001
8 9123 9216 8535 9308 11152 11245 10564 11337
8 9269 8544 9425 9852 11298 10573 11454 11881
8 9037 9961 9096 8926 11066 11990 11125 10955
8 9039 8542 8982 8959 11068 10571 11011 10988
8 9878 9058 8983 9853 11907 11087 11012 11882
8 9078 9003 8543 9908 11107 11032 10572 11937
8 8547 8898 8802 8849 10576 10927 10831 10878
8 8541 8823 8763 8709 10570 10852 10792 10738
8 9828 8549 8823 8875 11857 10578 10852 10904
8 9003 8826 8551 8844 11032 10855 10580 10873
8 8552 9854 8939 8913 10581 11883 10968 10942
8 9290 8937 8912 8555 11319 10966 10941 10584
8 8908 8658 8730 8250 10937 10687 10759 10279
8 8917 8662 8732 8247 10946 10691 10761 10276
8 9389 8664 8733 9829 11418 10693 10762 11858
8 8813 8666 8734 8244 10842 10695 10763 10273
8 8567 8131 8738 8671 10596 10160 10767 10700
8 8238 9026 8672 8739 10267 11055 10701 10768
8 9723 8235 8676 8741 11752 10264 10705 10770
8 8234 9392 8678 8742 10263 11421 10707 10771
8 9194 8232 8680 8743 11223 10261 10709 10772
8 8685 8576 8148 8575 10714 10605 10177 10604
8 8809 8686 8747 8228 10838 10715 10776 10257
8 8274 8649 8748 8818 10303 10678 10777 10847
8 8916 8651 8749 8297 10945 10680 10778 10326
8 9831 9391 8653 8750 11860 11420 10682 10779
8 9195 8365 8655 8751 11224 10394 10684 10780
8 8752 8819 8387 8687 10781 10848 10416 10716
8 8410 9218 8689 8753 10439 11247 10718 10782
8 8585 8164 8755 8692 10614 10193 10784 10721
8 8460 9028 8693 8756 10489 11057 10722 10785
8 9833 8695 8757 8821 11862 10724 10786 10850
8 9724 8487 8697 8758 11753 10516 10726 10787
8 8496 9390 8699 8759 10525 11419 10728 10788
8 9193 9827 8701 8760 11222 11856 10730 10789
8 8761 8822 8523 8705 10790 10851 10552 10734
8 8532 9798 8708 8762 10561 11827 10737 10791
8 8711 8594 8180 8593 10740 10623 10209 10622
8 9828 8712 8764 8549 11857 10741 10793 10578
8 8597 8182 8766 8713 10626 10211 10795 10742
8 8598 8183 8767 8707 10627 10212 10796 10736
8 8600 8184 8769 8702 10629 10213 10798 10731
8 9388 8554 8703 8770 11417 10583 10732 10799
8 8605 8808 8619 8188 10634 10837 10648 10217
8 8441 8824 8204 8606 10470 10853 10233 10635
8 8657 8189 8607 9807 10686 10218 10636 11836
8 8608 9820 9821 8190 10637 11849 11850 10219
8 8864 9818 8192 8609 10893 11847 10221 10638
8 8656 8193 8610 8477 10685 10222 10639 10506
8 8793 8194 8611 8486 10822 10223 10640 10515
8 8966 8195 8612 8495 10995 10224 10641 10524
8 9127 8196 8613 8504 11156 10225 10642 10533
8 8967 8197 8614 8513 10996 10226 10643 10542
8 8619 8808 8557 8203 10648 10837 10586 10232
8 8620 9815 8634 8220 10649 11844 10663 10249
8 8727 9797 8205 8621 10756 11826 10234 10650
8 8794 8431 8206 8622 10823 10460 10235 10651
8 8429 8776 8208 8623 10458 10805 10237 10652
8 8428 8777 8209 8624 10457 10806 10238 10653
8 8427 8778 8210 8625 10456 10807 10239 10654
8 8421 9190 8217 8631 10450 11219 10246 10660
8 8865 8902 8218 8632 10894 10931 10247 10661
8 8635 8221 8784 8719 10664 10250 10813 10748
8 8787 9202 8364 8721 10816 11231 10393 10750
8 9393 8729 8721 8364 11422 10758 10750 10393
8 8789 9154 8723 9816 10818 11183 10752 11845
8 8643 8226 8791 8722 10672 10255 10820 10751
8 8644 8227 8792 8647 10673 10256 10821 10676
8 8646 8730 8116 8558 10675 10759 10145 10587
8 8250 8730 8646 8647 10279 10759 10675 10676
8 8250 8647 8792 8829 10279 10676 10821 10858
8 8251 8818 8748 8648 10280 10847 10777 10677
8 8650 8749 8153 8578 10679 10778 10182 10607
8 8274 9830 8650 8649 10303 11859 10679 10678
8 8749 8651 8154 8153 10778 10680 10183 10182
8 8652 8750 8155 8579 10681 10779 10184 10608
8 8654 8653 9391 8342 10683 10682 11420 10371
8 9391 9831 8320 9285 11420 11860 10349 11314
8 8654 8751 8157 8580 10683 10780 10186 10609
8 8655 8752 8158 8581 10684 10781 10187 10610
8 8864 8656 8795 8468 10893 10685 10824 10497
8 8845 8441 8657 8796 10874 10470 10686 10825
8 8796 8657 9807 8450 10825 10686 11836 10479
8 8659 8731 8118 8559 10688 10760 10147 10588
8 8249 8812 8731 8659 10278 10841 10760 10688
8 8731 8660 8119 8118 10760 10689 10148 10147
8 8661 8732 8120 8560 10690 10761 10149 10589
8 9722 8661 8660 8248 11751 10690 10689 10277
8 9007 8247 9722 9087 11036 10276 11751 11116
8 8663 8733 8122 8561 10692 10762 10151 10590
8 8246 9829 8733 8663 10275 11858 10762 10692
8 8733 8664 8123 8122 10762 10693 10152 10151
8 8665 8734 8124 8562 10694 10763 10153 10591
8 9192 8665 8664 8245 11221 10694 10693 10274
8 8125 8563 8666 9812 10154 10592 10695 11841
8 8126 8125 9812 9811 10155 10154 11841 11840
8 9811 8726 8564 8126 11840 10755 10593 10155
8 9844 9124 9217 8242 11873 11153 11246 10271
8 8726 9020 8242 8736 10755 11049 10271 10765
8 8669 8737 8129 8565 10698 10766 10158 10594
8 8668 9217 8241 8669 10697 11246 10270 10698
8 8737 8670 8130 8129 10766 10699 10159 10158
8 9094 8239 9025 8969 11123 10268 11054 10998
8 9198 8238 9204 9370 11227 10267 11233 11399
8 8673 8740 8134 8568 10702 10769 10163 10597
8 8892 8237 9026 8961 10921 10266 11055 10990
8 8237 8815 8740 8673 10266 10844 10769 10702
8 8740 8674 8135 8134 10769 10703 10164 10163
8 8675 8741 8136 8569 10704 10770 10165 10598
8 9823 8236 8675 8674 11852 10265 10704 10703
8 9081 9841 8235 9723 11110 11870 10264 11752
8 8677 8742 8138 8570 10706 10771 10167 10599
8 8742 8677 8915 8234 10771 10706 10944 10263
8 8742 8678 8139 8138 10771 10707 10168 10167
8 8679 8743 8140 8571 10708 10772 10169 10600
8 8680 8744 8141 8572 10709 10773 10170 10601
8 8744 8681 8142 8141 10773 10710 10171 10170
8 9090 8996 9799 8230 11119 11025 11828 10259
8 8724 9013 8230 8745 10753 11042 10259 10774
8 8683 8746 8145 8574 10712 10775 10174 10603
8 8925 8229 9799 8996 10954 10258 11828 11025
8 8746 8684 8146 8145 10775 10713 10175 10174
8 8228 8747 8685 8684 10257 10776 10714 10713
8 8747 8686 8150 8149 10776 10715 10179 10178
8 8688 8753 8160 8582 10717 10782 10189 10611
8 8879 8945 9010 8387 10908 10974 11039 10416
8 8688 9010 8410 8753 10717 11039 10439 10782
8 8690 8754 8162 8583 10719 10783 10191 10612
8 8689 9218 8433 8690 10718 11247 10462 10719
8 8754 8691 8163 8162 10783 10720 10192 10191
8 9197 8460 9203 9371 11226 10489 11232 11400
8 8694 8757 8167 8586 10723 10786 10196 10615
8 8893 8469 9028 8962 10922 10498 11057 10991
8 8757 8695 8168 8167 10786 10724 10197 10196
8 8696 8758 8169 8587 10725 10787 10198 10616
8 9833 8478 8696 8695 11862 10507 10725 10724
8 8758 8697 8170 8169 10787 10726 10199 10198
8 8698 8759 8171 8588 10727 10788 10200 10617
8 8759 8698 8918 8496 10788 10727 10947 10525
8 8700 8699 9390 8505 10729 10728 11419 10534
8 8700 8760 8173 8589 10729 10789 10202 10618
8 8174 8590 8701 9814 10203 10619 10730 11843
8 8552 8913 8769 8768 10581 10942 10798 10797
8 8770 8703 8601 8185 10799 10732 10630 10214
8 8704 8186 8602 8771 10733 10215 10631 10800
8 9409 9330 9431 8554 11438 11359 11460 10583
8 8714 8187 8603 8772 10743 10216 10632 10801
8 8555 8912 8772 8704 10584 10941 10801 10733
8 9813 8706 8591 8175 11842 10735 10620 10204
8 8706 8762 8176 8591 10735 10791 10205 10620
8 8705 8523 8951 9019 10734 10552 10980 11048
8 8825 8551 8767 8713 10854 10580 10796 10742
8 8706 9019 8532 8762 10735 11048 10561 10791
8 8709 8763 8178 8592 10738 10792 10207 10621
8 8763 8710 8179 8178 10792 10739 10208 10207
8 8549 8764 8711 8710 10578 10793 10740 10739
8 8764 8712 8595 8181 10793 10741 10624 10210
8 8556 8827 8773 8714 10585 10856 10802 10743
8 8164 8584 8715 8755 10193 10613 10744 10784
8 8442 9027 8715 8691 10471 11056 10744 10720
8 8718 9822 8215 8216 10747 11851 10244 10245
8 8409 8785 8719 8811 10438 10814 10748 10840
8 8720 8787 8223 8637 10749 10816 10252 10666
8 8787 8721 8638 8223 10816 10750 10667 10252
8 8273 8722 8791 8828 10302 10751 10820 10857
8 9154 8789 8319 9080 11183 10818 10348 11109
8 8789 8728 8914 8319 10818 10757 10943 10348
8 8143 8573 8724 8745 10172 10602 10753 10774
8 8880 8947 9013 8231 10909 10976 11042 10260
8 8131 8566 8725 8738 10160 10595 10754 10767
8 8240 9025 8725 8670 10269 11054 10754 10699
8 8127 8564 8726 8736 10156 10593 10755 10765
8 8667 8243 8952 9020 10696 10272 10981 11049
8 8914 8788 8729 8341 10943 10817 10758 10370
8 8788 8224 8639 8729 10817 10253 10668 10758
8 9253 8341 8729 9393 11282 10370 10758 11422
8 9812 8666 8813 8735 11841 10695 10842 10764
8 8242 9217 8668 8736 10271 11246 10697 10765
8 9204 8671 8738 8239 11233 10700 10767 10268
8 8230 9799 8682 8745 10259 11828 10711 10774
8 8451 9203 8692 8755 10480 11232 10721 10784
8 9827 8761 9814 8701 11856 10790 11843 10730
8 8182 8596 8765 8766 10211 10625 10794 10795
8 8550 8825 8713 8766 10579 10854 10742 10795
8 8551 8826 8707 8767 10580 10855 10736 10796
8 8184 8599 8768 8769 10213 10628 10797 10798
8 8557 8808 8773 8827 10586 10837 10802 10856
8 8858 8424 8782 8803 10887 10453 10811 10832
8 8865 8783 8798 8420 10894 10812 10827 10449
8 9815 9797 8432 8784 11844 11826 10461 10813
8 9815 8784 8221 8634 11844 10813 10250 10663
8 8222 8636 8785 8786 10251 10665 10814 10815
8 9835 8386 8720 8786 11864 10415 10749 10815
8 8914 8728 9817 8788 10943 10757 11846 10817
8 9817 8728 8789 9816 11846 10757 10818 11845
8 8226 8642 8790 8791 10255 10671 10819 10820
8 8723 9154 8296 8790 10752 11183 10325 10819
8 8857 8804 8477 8793 10886 10833 10506 10822
8 8846 8795 8656 8477 10875 10824 10685 10506
8 8440 8845 8796 8885 10469 10874 10825 10914
8 8847 8423 9822 8797 10876 10452 11851 10826
8 8399 8886 8797 8957 10428 10915 10826 10986
8 8810 8837 8848 8419 10839 10866 10877 10448
8 8799 8958 8811 8432 10828 10987 10840 10461
8 8958 8799 8850 9834 10987 10828 10879 11863
8 8839 9838 8878 8800 10868 11867 10907 10829
8 8839 8800 9796 8557 10868 10829 11825 10586
8 9840 8897 8801 8860 11869 10926 10830 10889
8 8860 8801 8794 8430 10889 10830 10823 10459
8 8539 8859 8802 8898 10568 10888 10831 10927
8 8849 8802 8775 8548 10878 10831 10804 10577
8 8400 8895 8803 8847 10429 10924 10832 10876
8 8899 9840 8860 8805 10928 11869 10889 10834
8 8406 8899 8805 8863 10435 10928 10834 10892
8 8530 8861 8806 8900 10559 10890 10835 10929
8 8539 8900 8806 8859 10568 10929 10835 10888
8 8402 8862 8807 8901 10431 10891 10836 10930
8 8401 8901 8807 8858 10430 10930 10836 10887
8 8809 8874 8891 8251 10838 10903 10920 10280
8 8811 8958 8928 8409 10840 10987 10957 10438
8 8244 8842 8243 8813 10273 10871 10272 10842
8 8880 8231 8816 8841 10909 10260 10845 10870
8 8970 9867 8971 8910 10999 11896 11000 10939
8 8890 8911 9828 8875 10919 10940 11857 10904
8 8838 9826 8836 8824 10867 11855 10865 10853
8 9119 8883 9850 8852 11148 10912 11879 10881
8 8406 8863 8830 9201 10435 10892 10859 11230
8 9201 8830 8868 8903 11230 10859 10897 10932
8 8521 8866 8831 8973 10550 10895 10860 11002
8 8403 8867 8832 8904 10432 10896 10861 10933
8 8862 8974 8904 8832 10891 11003 10933 10861
8 8405 8868 8833 8876 10434 10897 10862 10905
8 8512 8869 8975 8921 10541 10898 11004 10950
8 9837 8834 8975 8869 11866 10863 11004 10898
8 8404 8870 8835 8877 10433 10899 10864 10906
8 8403 8877 8835 8867 10432 10906 10864 10896
8 9824 8836 9826 8418 11853 10865 11855 10447
8 9824 8920 8906 8837 11853 10949 10935 10866
8 8547 8849 8800 8878 10576 10878 10829 10907
8 9009 8840 8819 8365 11038 10869 10848 10394
8 9014 8841 8816 8232 11043 10870 10845 10261
8 9899 8881 8843 8524 11928 10910 10872 10553
8 9016 8843 8822 8514 11045 10872 10851 10543
8 8543 9003 8844 8953 10572 11032 10873 10982
8 8844 9853 8983 8953 10873 11882 11012 10982
8 8396 8887 8798 8848 10425 10916 10827 10877
8 9001 8396 8906 9072 11030 10425 10935 11101
8 9966 8985 8851 8991 11995 11014 10880 11020
8 8991 8851 8888 8272 11020 10880 10917 10301
8 9119 8852 8890 8959 11148 10881 10919 10988
8 8272 8889 8853 8976 10301 10918 10882 11005
8 9832 8984 8976 8853 11861 11013 11005 10882
8 8891 8252 8960 8854 10920 10281 10989 10883
8 8981 9023 8855 8963 11010 11052 10884 10992
8 8260 8963 8855 8892 10289 10992 10884 10921
8 8980 9024 8856 8964 11009 11053 10885 10993
8 9022 8964 8856 8893 11051 10993 10885 10922
8 9126 8485 8965 9196 11155 10514 10994 11225
8 8968 8905 9837 8869 10997 10934 11866 10898
8 9064 8968 8869 8512 11093 10997 10898 10541
8 8404 8876 8833 8870 10433 10905 10862 10899
8 8888 8249 8908 8871 10917 10278 10937 10900
8 8889 8272 8888 8871 10918 10301 10917 10900
8 9843 8872 8263 8909 11872 10901 10292 10938
8 9882 8263 8872 9030 11911 10292 10901 11059
8 9893 8971 9867 8873 11922 11000 11896 10902
8 8959 8890 8875 9039 10988 10919 10904 11068
8 8876 9101 9847 8405 10905 11130 11876 10434
8 9040 8404 8877 8933 11069 10433 10906 10962
8 8556 8912 8937 9839 10585 10941 10966 11868
8 9002 8878 9838 9839 11031 10907 11867 11868
8 8945 8879 8388 9011 10974 10908 10417 11040
8 9013 8947 9090 8230 11042 10976 11119 10259
8 9017 8951 8523 8881 11046 10980 10552 10910
8 9916 9017 8881 9899 11945 11046 10910 11928
8 9872 8952 8243 8882 11901 10981 10272 10911
8 9872 9092 9844 8952 11901 11121 11873 10981
8 9853 8844 8551 8883 11882 10873 10580 10912
8 8955 8884 8929 8467 10984 10913 10958 10496
8 8930 8885 8956 8449 10959 10914 10985 10478
8 9000 8400 8886 8931 11029 10429 10915 10960
8 8954 8887 8932 9869 10983 10916 10961 11898
8 8911 8890 8852 8550 10940 10919 10881 10579
8 8891 8874 8925 8252 10920 10903 10954 10281
8 9132 9053 8260 9021 11161 11082 10289 11050
8 8261 9021 8961 9198 10290 11050 10990 11227
8 8964 9022 9131 8470 10993 11051 11160 10499
8 9219 8999 8476 9046 11248 11028 10505 11075
8 9038 8401 8895 8935 11067 10430 10924 10964
8 9108 8997 8408 9047 11137 11026 10437 11076
8 9856 8407 8897 9840 11885 10436 10926 11869
8 9047 8407 9200 9125 11076 10436 11229 11154
8 9870 8402 8901 8927 11899 10431 10930 10956
8 9375 8421 8902 8934 11404 10450 10931 10963
8 9858 8922 9201 8903 11887 10951 11230 10932
8 9847 8903 8868 8405 11876 10932 10897 10434
8 8994 8521 8973 8923 11023 10550 11002 10952
8 8995 8403 8904 9864 11024 10432 10933 11893
8 8924 9864 8904 8974 10953 11893 10933 11003
8 9851 9029 8905 8968 11880 11058 10934 10997
8 9072 8906 8920 8395 11101 10935 10949 10424
8 8919 8907 9073 8417 10948 10936 11102 10446
8 9094 8969 9843 8909 11123 10998 11872 10938
8 9049 9032 8910 8443 11078 11061 10939 10472
8 8817 8229 8925 8874 10846 10258 10954 10903
8 9835 8409 8928 8938 11864 10438 10957 10967
8 9269 8553 8913 8939 11298 10582 10942 10968
8 9871 8319 8914 8940 11900 10348 10943 10969
8 9155 8234 8915 8941 11184 10263 10944 10970
8 9158 8320 8916 8942 11187 10349 10945 10971
8 8943 9159 8246 8917 10972 11188 10275 10946
8 9160 8496 8918 8944 11189 10525 10947 10973
8 8920 9824 8418 8972 10949 11853 10447 11001
8 8521 8994 8921 8975 10550 11023 10950 11004
8 9068 8384 9149 8922 11097 10413 11178 10951
8 9035 8923 8973 8530 11064 10952 11002 10559
8 9884 8924 9036 9070 11913 10953 11065 11099
8 9877 8252 8925 9055 11906 10281 10954 11084
8 9859 9071 8996 9090 11888 11100 11025 11119
8 8529 9035 8926 9096 10558 11064 10955 11125
8 9037 8926 8900 8539 11066 10955 10929 10568
8 9038 8927 8901 8401 11067 10956 10930 10430
8 9177 8380 9875 9097 11206 10409 11904 11126
8 9800 8979 9848 9849 11829 11008 11877 11878
8 8999 8929 8884 8476 11028 10958 10913 10505
8 8930 9076 8439 8998 10959 11105 10468 11027
8 9315 9919 9074 8931 11344 11948 11103 10960
8 9869 8932 9077 9152 11898 10961 11106 11181
8 8381 9100 8933 8995 10410 11129 10962 11024
8 9190 8421 9375 9248 11219 10450 11404 11277
8 9213 9306 9424 8397 11242 11335 11453 10426
8 8378 9099 8935 9000 10407 11128 10964 11029
8 9961 9037 8936 9098 11990 11066 10965 11127
8 8547 9162 8936 8898 10576 11191 10965 10927
8 8546 9043 8937 9290 10575 11072 10966 11319
8 9109 9051 8938 8979 11138 11080 10967 11008
8 8939 9854 9003 9078 10968 11883 11032 11107
8 9153 8940 8914 8341 11182 10969 10943 10370
8 9004 9080 8319 9871 11033 11109 10348 11900
8 9841 8941 8915 8235 11870 10970 10944 10264
8 9007 8943 8917 8247 11036 10972 10946 10276
8 8411 9089 8945 9011 10440 11118 10974 11040
8 9906 8253 9071 9859 11935 10282 11100 11888
8 9061 8254 8948 8988 11090 10283 10977 11017
8 9060 8524 8950 8987 11089 10553 10979 11016
8 9317 8950 9016 8515 11346 10979 11045 10544
8 8265 9092 9872 9018 10294 11121 11901 11047
8 8954 9424 8934 8420 10983 11453 10963 10449
8 9424 8954 9869 8397 11453 10983 11898 10426
8 9199 9825 8468 8955 11228 11854 10497 10984
8 9180 8449 8956 9033 11209 10478 10985 11062
8 9181 8399 8957 9034 11210 10428 10986 11063
8 9034 8957 8718 8422 11063 10986 10747 10451
8 8976 8990 8991 8272 11005 11019 11020 10301
8 9878 9119 8959 8982 11907 11148 10988 11011
8 9065 8854 8960 8275 11094 10883 10989 10304
8 9836 8965 8485 8857 11865 10994 10514 10886
8 9344 8494 9292 9291 11373 10523 11321 11320
8 8486 8611 8195 8966 10515 10640 10224 10995
8 8504 8613 8197 8967 10533 10642 10226 10996
8 9064 9887 9851 8968 11093 11916 11880 10997
8 8970 8910 9032 9093 10999 10939 11061 11122
8 9050 9129 8909 8263 11079 11158 10938 10292
8 9894 9893 8873 9031 11923 11922 10902 11060
8 9845 8972 8418 9041 11874 11001 10447 11070
8 8831 8861 8530 8973 10860 10890 10559 11002
8 9846 8974 8862 8402 11875 11003 10891 10431
8 8834 8866 8521 8975 10863 10895 10550 11004
8 8990 8976 8984 9883 11019 11005 11013 11912
8 9050 8977 8287 9927 11079 11006 10316 11956
8 9057 8434 9894 9031 11086 10463 11923 11060
8 9834 8997 9849 9848 11863 11026 11878 11877
8 8928 9848 8979 8938 10957 11877 11008 10967
8 9935 9223 8479 8980 11964 11252 10508 11009
8 9935 8980 8964 8470 11964 11009 10993 10499
8 9053 8981 8963 8260 11082 11010 10992 10289
8 8982 9876 9058 9878 11011 11905 11087 11907
8 8533 9135 9873 9054 10562 11164 11902 11083
8 9877 9232 9224 8275 11906 11261 11253 10304
8 9877 8275 8960 8252 11906 10304 10989 10281
8 8535 9216 8983 9137 10564 11245 11012 11166
8 9058 9917 9137 8983 11087 11946 11166 11012
8 9722 8248 9102 9087 11751 10277 11131 11116
8 9944 9138 8986 9316 11973 11167 11015 11345
8 9316 8986 8949 8267 11345 11015 10978 10296
8 8278 9142 8988 9318 10307 11171 11017 11347
8 8389 9062 8989 9144 10418 11091 11018 11173
8 9319 8989 8946 8366 11348 11018 10975 10395
8 9042 9994 9118 9966 11071 12023 11147 11995
8 8271 8985 9966 9118 10300 11014 11995 11147
8 9173 9064 8512 8992 11202 11093 10541 11021
8 8382 9167 9101 9040 10411 11196 11130 11069
8 8850 8408 8997 9834 10879 10437 11026 11863
8 8907 8440 8998 9073 10936 10469 11027 11102
8 9074 9919 9187 10008 11103 11948 11216 12037
8 9162 8547 8878 9002 11191 10576 10907 11031
8 9861 9915 9148 9156 11890 11944 11177 11185
8 8236 9823 9023 9067 10265 11852 11052 11096
8 9083 9065 9146 9157 11112 11094 11175 11186
8 8944 9863 9161 9008 10973 11892 11190 11037
8 8479 9147 9088 9066 10508 11176 11117 11095
8 9185 8366 9009 9105 11214 10395 11038 11134
8 9294 8411 9011 9145 11323 10440 11040 11174
8 9859 9012 9143 9906 11888 11041 11172 11935
8 9184 8255 9014 9104 11213 10284 11043 11133
8 8514 9107 8515 9016 10543 11136 10544 11045
8 8533 9916 9899 9141 10562 11945 11928 11170
8 9297 8265 9018 9140 11326 10294 11047 11169
8 8951 9842 8532 9019 10980 11871 10561 11048
8 8952 9844 8242 9020 10981 11873 10271 11049
8 9083 9830 8274 9065 11112 11859 10303 11094
8 9890 9889 8962 9197 11919 11918 10991 11226
8 9723 8236 9067 9081 11752 10265 11096 11110
8 9724 8478 9066 9088 11753 10507 11095 11117
8 9066 9024 8980 8479 11095 11053 11009 10508
8 8239 8738 8725 9025 10268 10767 10754 11054
8 8237 8673 8672 9026 10266 10702 10701 11055
8 8451 8755 8715 9027 10480 10784 10744 11056
8 8469 8694 8693 9028 10498 10723 10722 11057
8 9093 9032 9128 8452 11122 11061 11157 10481
8 8909 9129 8262 9094 10938 11158 10291 11123
8 9249 8458 9180 9033 11278 10487 11209 11062
8 8402 9870 9875 9846 10431 11899 11904 11875
8 9873 8542 9095 9054 11902 10571 11124 11083
8 9307 9122 9845 9045 11336 11151 11874 11074
8 9041 9868 9045 9845 11070 11897 11074 11874
8 8417 9868 9041 8919 10446 11897 11070 10948
8 9042 9966 8991 8990 11071 11995 11020 11019
8 9897 9121 8395 9044 11926 11150 10424 11073
8 9914 9897 9044 9386 11943 11926 11073 11415
8 9672 9215 9120 8416 11701 11244 11149 10445
8 8484 9219 9046 9126 10513 11248 11075 11155
8 9126 9046 8894 8485 11155 11075 10923 10514
8 9165 9108 9047 9125 11194 11137 11076 11154
8 8503 9291 9275 9048 10532 11320 11304 11077
8 9128 9964 8444 9333 11157 11993 10473 11362
8 8286 9263 9050 9927 10315 11292 11079 11956
8 8470 9131 9220 9052 10499 11160 11249 11081
8 9782 9221 9053 9132 11811 11250 11082 11161
8 8533 9054 9112 9916 10562 11083 11141 11945
8 9136 9055 9071 8253 11165 11084 11100 10282
8 9844 9092 9282 9124 11873 11121 11311 11153
8 9018 8266 9059 9140 11047 10295 11088 11169
8 9270 8289 9059 9138 11299 10318 11088 11167
8 9899 8524 9060 9141 11928 10553 11089 11170
8 9012 8254 9061 9143 11041 10283 11090 11172
8 9011 8388 9062 9145 11040 10417 11091 11174
8 9368 8298 9157 9146 11397 10327 11186 11175
8 9005 9156 9148 8258 11034 11185 11177 10287
8 8259 9862 9067 9023 10288 11891 11096 11052
8 9168 9288 8384 9068 11197 11317 10413 11097
8 9310 8383 9901 9902 11339 10412 11930 11931
8 9884 9070 9170 9947 11913 11099 11199 11976
8 9267 9170 9070 9953 11296 11199 11099 11982
8 9120 9868 8417 9373 11149 11897 10446 11402
8 9919 9315 9234 8377 11948 11344 11263 10406
8 9151 9075 9188 8466 11180 11104 11217 10495
8 9412 8448 9314 9233 11441 10477 11343 11262
8 8375 9152 9077 9189 10404 11181 11106 11218
8 9078 9908 9123 8544 11107 11937 11152 10573
8 8543 9216 9123 9908 10572 11245 11152 11937
8 8984 9832 8296 9103 11013 11861 10325 11132
8 9155 9082 9117 8257 11184 11111 11146 10286
8 9209 9082 9005 8258 11238 11111 11034 10287
8 8321 9158 9084 9116 10350 11187 11113 11145
8 9116 9084 9157 8298 11145 11113 11186 10327
8 9159 9085 9113 9911 11188 11114 11142 11940
8 9007 9922 8270 9085 11036 11951 10299 11114
8 9160 9086 9114 8497 11189 11115 11143 10526
8 9086 9008 9161 8488 11115 11037 11190 10517
8 9859 9090 8947 9012 11888 11119 10976 11041
8 9842 9806 9798 8532 11871 11835 11827 10561
8 9112 9091 9017 9916 11141 11120 11046 11945
8 8542 9039 8541 9095 10571 11068 10570 11124
8 9176 9096 9961 8538 11205 11125 11990 10567
8 8538 9961 9098 9178 10567 11990 11127 11207
8 9002 9043 9879 9162 11031 11072 11908 11191
8 9265 8379 9099 9179 11294 10408 11128 11208
8 9171 9989 8382 9100 11200 12018 10411 11129
8 8993 9847 9101 9167 11022 11876 11130 11196
8 8248 8985 8271 9102 10277 11014 10300 11131
8 9164 9881 8295 9103 11193 11910 10324 11132
8 8256 9184 9104 9241 10285 11213 11133 11270
8 9195 9105 9009 8365 11224 11134 11038 10394
8 8268 9182 9106 9238 10297 11211 11135 11267
8 9192 9106 9015 8244 11221 11135 11044 10273
8 9237 8515 9107 9183 11266 10544 11136 11212
8 9289 8385 9108 9165 11318 10414 11137 11194
8 8364 9202 9109 9374 10393 11231 11138 11403
8 9109 9407 9408 9374 11138 11436 11437 11403
8 9197 9371 9405 9890 11226 11400 11434 11919
8 9110 9891 9405 9371 11139 11920 11434 11400
8 9370 9406 8261 9198 11399 11435 10290 11227
8 9111 9865 9406 9370 11140 11894 11435 11399
8 9112 9806 9842 9091 11141 11835 11871 11120
8 9206 9113 9085 8270 11235 11142 11114 10299
8 9958 9422 8497 9114 11987 11451 10526 11143
8 9205 9114 9086 8488 11234 11143 11115 10517
8 9483 9115 9079 8340 11512 11144 11108 10369
8 9442 8321 9116 9957 11471 10350 11145 11986
8 9952 9305 9209 8281 11981 11334 11238 10310
8 9118 9805 9163 8271 11147 11834 11192 10300
8 9466 10044 9805 10036 11495 12073 11834 12065
8 9878 9853 8883 9119 11907 11882 10912 11148
8 8416 9120 9373 9945 10445 11149 11402 11974
8 9150 9072 8395 9121 11179 11101 10424 11150
8 9673 9500 8373 9214 11702 11529 10402 11243
8 9845 9122 9044 8972 11874 11151 11073 11001
8 9307 9898 8394 9122 11336 11927 10423 11151
8 8544 9123 9308 9425 10573 11152 11337 11454
8 9124 9282 9174 9056 11153 11311 11203 11085
8 8411 9175 9057 9089 10440 11204 11086 11118
8 9165 9125 9200 9256 11194 11154 11229 11285
8 9032 9049 9964 9128 11061 11078 11993 11157
8 8453 9333 8444 9356 10482 11362 10473 11385
8 9456 8435 9939 9940 11485 10464 11968 11969
8 8264 9230 8287 8977 10293 11259 10316 11006
8 9022 9889 8461 9131 11051 11918 10490 11160
8 9254 9133 9052 8471 11283 11162 11081 10500
8 9222 9134 9255 8282 11251 11163 11284 10311
8 9259 9300 9946 9296 11288 11329 11975 11325
8 9299 10006 8276 9983 11328 12035 10305 12012
8 9387 8535 9137 9264 11416 10564 11166 11293
8 9264 9137 9917 8534 11293 11166 11946 10563
8 8267 9236 8290 9316 10296 11265 10319 11345
8 9340 8525 9139 9271 11369 10554 11168 11300
8 8515 9237 8516 9317 10544 11266 10545 11346
8 9141 9296 9135 8533 11170 11325 11164 10562
8 9930 9142 9272 8277 11959 11171 11301 10306
8 9931 8278 9318 9240 11960 10307 11347 11269
8 9232 9136 8253 9295 11261 11165 10282 11324
8 9342 8389 9144 10108 11371 10418 11173 12137
8 10014 9319 9242 8367 12043 11348 11271 10396
8 9224 9146 9065 8275 11253 11175 11094 10304
8 8899 8406 9149 9857 10928 10435 11178 11886
8 9343 9199 9874 9274 11372 11228 11903 11303
8 9911 9286 8246 9159 11940 11315 10275 11188
8 8293 9206 8270 9969 10322 11235 10299 11998
8 9949 9164 9004 9903 11978 11193 11033 11932
8 8295 9881 9951 9227 10324 11910 11980 11256
8 9289 9932 9228 8385 11318 11961 11257 10414
8 8363 9228 9932 9360 10392 11257 11961 11389
8 9261 9166 9063 8520 11290 11195 11092 10549
8 9327 9260 8511 9166 11356 11289 10540 11195
8 9168 10004 9311 9288 11197 12033 11340 11317
8 9261 9169 9329 10105 11290 11198 11358 12134
8 10060 9169 9069 8529 12089 11198 11098 10558
8 9988 9262 9947 9170 12017 11291 11976 11199
8 9988 9170 9267 9328 12017 11199 11296 11357
8 9262 10038 9338 9987 11291 12067 11367 12016
8 9373 9172 9211 9945 11402 11201 11240 11974
8 9235 9173 9250 8502 11264 11202 11279 10531
8 9250 9173 8992 8511 11279 11202 11021 10540
8 9912 9174 9282 9363 11941 11203 11311 11392
8 8435 9130 9312 9939 10464 11159 11341 11968
8 10009 9337 8528 9266 12038 11366 10557 11295
8 9265 9177 9097 8379 11294 11206 11126 10408
8 9923 9313 9971 9231 11952 11342 12000 11260
8 9923 9178 9880 9427 11952 11207 11909 11456
8 9179 9246 8355 9335 11208 11275 10384 11364
8 9905 9182 9236 8267 11934 11211 11265 10296
8 9318 8255 9184 9240 11347 10284 11213 11269
8 9319 8366 9185 9242 11348 10395 11214 11271
8 8448 9278 9349 9186 10477 11307 11378 11215
8 9314 8448 9186 9076 11343 10477 11215 11105
8 9187 9350 9246 10008 11216 11379 11275 12037
8 9606 8465 9277 9320 11635 10494 11306 11349
8 9245 9188 9075 8475 11274 11217 11104 10504
8 9247 9321 9280 9189 11276 11350 11309 11218
8 9827 9193 9107 8514 11856 11222 11136 10543
8 9292 8494 9196 8965 11321 10523 11225 10994
8 9343 9281 9825 9199 11372 11310 11854 11228
8 9293 9274 9874 9212 11322 11303 11903 11241
8 8460 8756 8692 9203 10489 10785 10721 11232
8 8238 8739 8671 9204 10267 10768 10700 11233
8 9114 9205 9999 9958 11143 11234 12028 11987
8 9512 8317 9207 9303 11541 10346 11236 11332
8 9368 9974 10006 9403 11397 12003 12035 11432
8 9896 9225 9404 9369 11925 11254 11433 11398
8 9244 9211 9172 8439 11273 11240 11201 10468
8 9963 9293 9212 9432 11992 11322 11241 11461
8 9306 9413 9357 8398 11335 11442 11386 10427
8 9794 9997 8372 9941 11823 12026 10401 11970
8 9615 8393 9215 9672 11644 10422 11244 11701
8 9331 9783 9768 10058 11360 11812 11797 12087
8 9960 8283 9221 9332 11989 10312 11250 11361
8 8284 9921 9782 9767 10313 11950 11811 11796
8 9913 9225 9222 8282 11942 11254 11251 10311
8 8488 9161 9147 9226 10517 11190 11176 11255
8 9402 9226 9223 8480 11431 11255 11252 10509
8 9883 8295 9227 9309 11912 10324 11256 11338
8 8363 9407 9800 9228 10392 11436 11829 11257
8 10004 9168 8383 9229 12033 11197 10412 11258
8 8265 9297 9912 9363 10294 11326 11941 11392
8 9498 9456 9940 9996 11527 11485 11969 12025
8 9362 9294 10016 10015 11391 11323 12045 12044
8 10009 9176 8538 9231 12038 11205 10567 11260
8 9924 9695 9523 8537 11953 11724 11552 10566
8 9274 9293 9358 8458 11303 11322 11387 10487
8 9357 9411 8377 9234 11386 11440 10406 11263
8 9401 9276 8494 9344 11430 11305 10523 11373
8 8496 9287 9367 9390 10525 11316 11396 11419
8 8234 9284 9365 9392 10263 11313 11394 11421
8 9378 9364 9391 9285 11407 11393 11420 11314
8 9528 9349 9278 8447 11557 11378 11307 10476
8 8351 9321 9247 9400 10380 11350 11276 11429
8 9248 9375 9306 8398 11277 11404 11335 10427
8 9249 9343 9274 8458 11278 11372 11303 10487
8 10030 9460 9250 9398 12059 11489 11279 11427
8 10063 9457 9251 10026 12092 11486 11280 12055
8 10026 9251 9130 8435 12055 11280 11159 10464
8 8309 9323 9252 9458 10338 11352 11281 11487
8 9397 9252 9927 8287 11426 11281 11956 10316
8 9379 9253 9393 9408 11408 11282 11422 11437
8 9505 9395 9429 8481 11534 11424 11458 10510
8 9325 9255 9134 8283 11354 11284 11163 10312
8 9289 9165 9256 9326 11318 11194 11285 11355
8 8384 9326 9256 9801 10413 11355 11285 11830
8 10016 9257 9298 8412 12045 11286 11327 10441
8 9300 9259 9060 8525 11329 11288 11089 10554
8 9660 9610 8510 10070 11689 11639 10539 12099
8 10101 10106 10099 10100 12130 12135 12128 12129
8 8286 9355 9920 9263 10315 11384 11949 11292
8 10043 8444 9964 9968 12072 10473 11993 11997
8 9176 10009 9266 10060 11205 12038 11295 12089
8 9589 10022 8537 9523 11618 12051 10566 11552
8 9336 9267 9953 9962 11365 11296 11982 11991
8 9987 9338 9985 9171 12016 11367 12014 11200
8 9453 9388 8553 9269 11482 11417 10582 11298
8 9451 9975 9944 9956 11480 12004 11973 11985
8 9139 9943 9450 9271 11168 11972 11479 11300
8 9526 8277 9272 9341 11555 10306 11301 11370
8 10122 9273 9381 9445 12151 11302 11410 11474
8 8367 9381 9273 10014 10396 11410 11302 12043
8 8896 9275 9291 9292 10925 11304 11320 11321
8 9359 9925 9401 9344 11388 11954 11430 11373
8 9347 10007 9432 8466 11376 12036 11461 10495
8 9909 9433 8375 9348 11938 11462 10404 11377
8 9553 9602 8352 10048 11582 11631 10381 12077
8 8265 9363 9282 9092 10294 11392 11311 11121
8 8493 9372 8484 9283 10522 11401 10513 11312
8 9392 9365 9241 8233 11421 11394 11270 10262
8 8652 8320 9831 8750 10681 10349 11860 10779
8 9389 9829 8246 9286 11418 11858 10275 11315
8 8268 9238 8245 9366 10297 11267 10274 11395
8 9888 9377 9367 9287 11917 11406 11396 11316
8 8360 9607 8361 9311 10389 11636 10390 11340
8 9574 10037 9472 9978 11603 12066 11501 12007
8 9175 8411 9294 9362 11204 10440 11323 11391
8 8253 9906 9258 9295 10282 11935 11287 11324
8 9910 9135 9296 9946 11939 11164 11325 11975
8 9527 9570 8412 9298 11556 11599 10441 11327
8 9342 9298 9257 8389 11371 11327 11286 10418
8 9403 10006 9299 10035 11432 12035 11328 12064
8 9299 8277 9526 10035 11328 10306 11555 12064
8 8289 9339 9525 9301 10318 11368 11554 11330
8 9421 9302 9612 8292 11450 11331 11641 10321
8 9115 9483 9443 9977 11144 11512 11472 12006
8 9583 9986 9710 9624 11612 12015 11739 11653
8 10020 9304 9208 8299 12049 11333 11237 10328
8 9580 8280 9714 9621 11609 10309 11743 11650
8 9307 9784 9928 9898 11336 11813 11957 11927
8 9045 9215 8393 9307 11074 11244 10422 11336
8 9308 8535 9663 8536 11337 10564 11692 10565
8 9808 9426 9310 9955 11837 11455 11339 11984
8 9426 10039 8360 9229 11455 12068 10389 11258
8 9229 8360 9311 10004 11258 10389 11340 12033
8 9939 9312 9894 8434 11968 11341 11923 10463
8 9885 9427 9361 8545 11914 11456 11390 10574
8 9943 9139 9317 8516 11972 11168 11346 10545
8 9473 9322 9219 8484 11502 11351 11248 10513
8 9992 9502 9355 9991 12021 11531 11384 12020
8 8444 10043 9324 9356 10473 12072 11353 11385
8 9515 8445 9457 10063 11544 10474 11486 12092
8 10139 10062 9331 9517 12168 12091 11360 11546
8 9288 9459 9326 8384 11317 11488 11355 10413
8 10049 9328 9267 8357 12078 11357 11296 10386
8 10099 9329 9266 8528 12128 11358 11295 10557
8 8545 9361 9330 9409 10574 11390 11359 11438
8 8771 8703 8554 9431 10800 10732 10583 11460
8 8462 9564 9331 10058 10491 11593 11360 12087
8 9220 9783 9331 10062 11249 11812 11360 12091
8 9921 9565 9980 9332 11950 11594 12009 11361
8 9762 9937 9891 9892 11791 11966 11920 11921
8 9761 9464 9865 9866 11790 11493 11894 11895
8 9920 8285 9334 9263 11949 10314 11363 11292
8 9524 9336 9265 8356 11553 11365 11294 10385
8 9338 10038 9513 8359 11367 12067 11542 10388
8 9541 8313 9384 9597 11570 10342 11413 11626
8 10005 9300 8525 9340 12034 11329 10554 11369
8 9522 9445 9484 8368 11551 11474 11513 10397
8 8503 9359 9344 9291 10532 11388 11373 11320
8 9345 9514 9469 9435 11374 11543 11498 11464
8 8457 9514 9345 9412 10486 11543 11374 11441
8 9721 9468 9434 9346 11750 11497 11463 11375
8 8376 9721 9346 9411 10405 11750 11375 11440
8 10061 9469 9803 8456 12090 11498 11832 10485
8 9509 10007 9347 9803 11538 12036 11376 11832
8 9545 9804 9510 9506 11574 11833 11539 11535
8 9528 10019 8438 9349 11557 12048 10467 11378
8 9366 9376 9436 8268 11395 11405 11465 10297
8 9441 9437 8506 9377 11470 11466 10535 11406
8 9437 9352 9183 8506 11466 11381 11212 10535
8 9442 9439 8343 9378 11471 11468 10372 11407
8 9354 8256 9380 9438 11383 10285 11409 11467
8 9411 9357 9413 8376 11440 11386 11442 10405
8 8457 9412 9233 9358 10486 11441 11262 11387
8 9963 8457 9358 9293 11992 10486 11387 11322
8 9491 8362 9548 9443 11520 10391 11577 11472
8 9297 8288 9410 9912 11326 10317 11439 11941
8 9378 8343 9243 9364 11407 10372 11272 11393
8 9380 8256 9241 9365 11409 10285 11270 11394
8 9377 8506 9239 9367 11406 10535 11268 11396
8 10035 8299 9208 9403 12064 10328 11237 11432
8 9148 9915 9369 8258 11177 11944 11398 10287
8 9404 9918 8281 9209 11433 11947 10310 11238
8 9749 8483 9467 9739 11778 10512 11496 11768
8 8291 9351 8268 9436 10320 11380 10297 11465
8 9933 9441 9377 9888 11962 11470 11406 11917
8 8344 9353 8343 9439 10373 11382 10372 11468
8 9442 9378 9285 8321 11471 11407 11314 10350
8 9407 8363 9379 9408 11436 10392 11408 11437
8 9598 9485 9383 9449 11627 11514 11412 11478
8 8516 9449 9383 9943 10545 11478 11412 11972
8 9852 9452 9486 9385 11881 11481 11515 11414
8 9385 9453 9269 9852 11414 11482 11298 11881
8 9898 9928 9998 9792 11927 11957 12027 11821
8 9532 9387 10005 9503 11561 11416 12034 11532
8 8306 9666 8305 9430 10335 11695 10334 11459
8 8489 9402 8480 9454 10518 11431 10509 11483
8 8472 9667 8481 9429 10501 11696 10510 11458
8 8287 9455 9487 9397 10316 11484 11516 11426
8 9398 10068 9418 10030 11427 12097 11447 12059
8 10068 9398 9260 8510 12097 11427 11289 10539
8 9399 10018 9419 9461 11428 12047 11448 11490
8 9554 8351 9400 9420 11583 10380 11429 11449
8 9420 9400 9462 8350 11449 11429 11491 10379
8 9976 9508 9401 9925 12005 11537 11430 11954
8 9530 9662 9394 9504 11559 11691 11423 11533
8 9918 9404 9225 9913 11947 11433 11254 11942
8 9967 9768 9936 9463 11996 11797 11965 11492
8 9849 8385 9228 9800 11878 10414 11257 11829
8 9396 10026 8435 9456 11425 12055 10464 11485
8 9175 9362 10015 10003 11204 11391 12044 12032
8 9433 9909 8376 9413 11462 11938 10405 11442
8 8291 9492 9414 9351 10320 11521 11443 11380
8 9493 9415 9352 8507 11522 11444 11381 10536
8 9931 9447 9382 8278 11960 11476 11411 10307
8 9438 8279 9416 9354 11467 10308 11445 11383
8 9495 9417 9353 8344 11524 11446 11382 10373
8 8501 9418 9552 9609 10530 11447 11581 11638
8 10143 10125 9555 10142 12172 12154 11584 12171
8 9720 8328 9671 10095 11749 10357 11700 12124
8 9440 9436 9376 8269 11469 11465 11405 10298
8 9907 9444 9860 9423 11936 11473 11889 11452
8 9886 9452 9852 9425 11915 11481 11881 11454
8 8536 9886 9425 9308 10565 11915 11454 11337
8 9338 8359 9808 9985 11367 10388 11837 12014
8 9923 9427 9885 9313 11952 11456 11914 11342
8 9948 9474 8474 9428 11977 11503 10503 11457
8 9948 9473 9467 8483 11977 11502 11496 10512
8 9517 8472 9429 10139 11546 10501 11458 12168
8 9255 9325 8306 9430 11284 11354 10335 11459
8 10007 9509 9963 9432 12036 11538 11992 11461
8 9721 8376 9909 9510 11750 10405 11938 11539
8 10052 8354 9434 10040 12081 10383 11463 12069
8 9470 10040 9434 9468 11499 12069 11463 11497
8 9469 10061 9471 9435 11498 12090 11500 11464
8 9477 8507 9352 9437 11506 10536 11381 11466
8 9533 8344 9439 9478 11562 10373 11468 11507
8 9287 8497 9422 9888 11316 10526 11451 11917
8 8340 9904 9443 9483 10369 11933 11472 11512
8 8339 9977 9443 9548 10368 12006 11472 11577
8 9284 8257 9423 9860 11313 10286 11452 11889
8 9860 9444 9438 9380 11889 11473 11467 11409
8 9522 10112 10122 9445 11551 12141 12151 11474
8 9544 9484 9446 9596 11573 11513 11475 11625
8 9596 9446 9417 9495 11625 11475 11446 11524
8 9494 10120 10121 9447 11523 12149 12150 11476
8 9738 9341 9448 8300 11767 11370 11477 10329
8 9521 10076 8300 9448 11550 12105 10329 11477
8 9492 9597 9384 9414 11521 11626 11413 11443
8 9598 9449 9415 9493 11627 11478 11444 11522
8 8517 9519 8526 9450 10546 11548 10555 11479
8 9270 9975 9451 10021 11299 12004 11480 12050
8 8312 10021 9451 9520 10341 12050 11480 11549
8 9486 9885 8545 9385 11515 11914 10574 11414
8 9592 9695 9452 9886 11621 11724 11481 11915
8 10103 9531 9454 9505 12132 11560 11483 11534
8 9497 9644 9487 9455 11526 11673 11516 11484
8 8288 9497 9455 9410 10317 11526 11484 11439
8 9498 9645 9488 9456 11527 11674 11517 11485
8 8445 9501 9324 9457 10474 11530 11353 11486
8 9418 8501 9460 10030 11447 10530 11489 12059
8 9572 9615 9672 9993 11601 11644 11701 12022
8 9499 9461 9419 10017 11528 11490 11448 12046
8 8462 10058 9768 9967 10491 12087 11797 11996
8 9641 9727 9762 8453 11670 11756 11791 10482
8 8284 9767 9464 9761 10313 11796 11493 11790
8 9640 8284 9761 8285 11669 10313 11790 10314
8 9556 9489 9995 9568 11585 11518 12024 11597
8 9950 9949 9207 8317 11979 11978 11236 10346
8 9466 9489 10045 10044 11495 11518 12074 12073
8 9994 8294 9466 10036 12023 10323 11495 12065
8 9721 9510 9804 9468 11750 11539 11833 11497
8 9514 9509 9803 9469 11543 11538 11832 11498
8 8353 9656 9603 9470 10382 11685 11632 11499
8 9689 8446 9549 9604 11718 10475 11578 11633
8 9473 9948 9428 9322 11502 11977 11457 11351
8 9779 9474 9948 8483 11808 11503 11977 10512
8 8473 9703 9550 9605 10502 11732 11579 11634
8 8360 10039 10073 9551 10389 12068 12102 11580
8 10073 10039 9475 9593 12102 12068 11504 11622
8 9492 8291 9476 9534 11521 10320 11505 11563
8 9582 9476 9440 8292 11611 11505 11469 10321
8 9581 10031 9477 9979 11610 12060 11506 12008
8 9984 9536 8279 9479 12013 11565 10308 11508
8 9481 10057 9553 10048 11510 12086 11582 12077
8 9795 9482 10019 9528 11824 11511 12048 11557
8 10071 10018 10019 9482 12100 12047 12048 11511
8 10127 8368 9484 9544 12156 10397 11513 11573
8 10121 10120 9543 8301 12150 12149 11572 10330
8 9885 9486 9924 9313 11914 11515 11953 11342
8 10078 8436 9488 9538 12107 10465 11517 11567
8 8316 9556 9568 10024 10345 11585 11597 12053
8 8492 9739 9490 9547 10521 11768 11519 11576
8 9739 9467 9372 9490 11768 11496 11401 11519
8 9379 8363 9360 9491 11408 10392 11389 11520
8 8314 9597 9492 9534 10343 11626 11521 11563
8 10059 9598 9493 8508 12088 11627 11522 10537
8 9536 10033 10120 9494 11565 12062 12149 11523
8 9536 9494 9416 8279 11565 11523 11445 10308
8 9533 10042 9495 8344 11562 12071 11524 10373
8 9490 9511 9508 9547 11519 11540 11537 11576
8 10025 9563 9976 9496 12054 11592 12005 11525
8 9759 9572 9993 8415 11788 11601 12022 10444
8 9500 9673 9614 9571 11529 11702 11643 11600
8 9566 9501 9561 8454 11595 11530 11590 10483
8 9567 9502 9562 8308 11596 11531 11591 10337
8 10011 9562 9502 9992 12040 11591 11531 12021
8 9503 8526 9519 9578 11532 10555 11548 11607
8 10005 9340 8526 9503 12034 11369 10555 11532
8 9530 9504 9539 10027 11559 11533 11568 12056
8 8481 9540 10103 9505 10510 11569 12132 11534
8 9347 9507 8456 9803 11376 11536 10485 11832
8 9511 8493 9401 9508 11540 10522 11430 11537
8 9963 9509 9514 8457 11992 11538 11543 10486
8 9506 9510 9909 9348 11535 11539 11938 11377
8 9303 9595 9634 9512 11332 11624 11663 11541
8 9632 9593 8359 9513 11661 11622 10388 11542
8 8437 9627 10065 9587 10466 11656 12094 11616
8 9515 10063 10064 10113 11544 12092 12093 12142
8 10011 9516 9628 9575 12040 11545 11657 11604
8 8310 9516 8309 9458 10339 11545 10338 11487
8 10091 9559 8472 9517 12120 11588 10501 11546
8 9626 9579 8312 9520 11655 11608 10341 11549
8 9522 8368 8369 10086 11551 10397 10398 12115
8 10001 9525 9558 8311 12030 11554 11587 10340
8 9339 10110 9558 9525 11368 12139 11587 11554
8 9341 9738 10035 9526 11370 11767 12064 11555
8 10097 10089 8332 9619 12126 12118 10361 11648
8 9714 9965 9530 9617 11743 11994 11559 11646
8 9654 8304 10027 9539 11683 10333 12056 11568
8 8489 9454 9531 9616 10518 11483 11560 11645
8 9531 10103 9540 8490 11560 12132 11569 10519
8 9973 9972 9592 9618 12002 12001 11621 11647
8 9503 9578 8527 9532 11532 11607 10556 11561
8 9495 10042 8345 9596 11524 12071 10374 11625
8 8508 9493 8507 9535 10537 11522 10536 11564
8 9581 10119 9636 10031 11610 12148 11665 12060
8 9680 9990 8311 9647 11709 12019 10340 11676
8 9487 9644 9990 9537 11516 11673 12019 11566
8 9707 10125 10143 10135 11736 12154 12172 12164
8 9538 9488 9645 10077 11567 11517 11674 12106
8 9600 9665 9654 9539 11629 11694 11683 11568
8 9765 9676 8491 10118 11794 11705 10520 12147
8 9775 9704 9541 9717 11804 11733 11570 11746
8 9717 9541 9597 8314 11746 11570 11626 10343
8 9610 9660 8518 9661 11639 11689 10547 11690
8 9485 9598 10059 9542 11514 11627 12088 11571
8 9521 8301 9543 9584 11550 10330 11572 11613
8 8302 9718 9705 9543 10331 11747 11734 11572
8 9544 10085 9706 10127 11573 12114 11735 12156
8 8345 10085 9544 9596 10374 12114 11573 11625
8 10079 9656 8353 9669 12108 11685 10382 11698
8 10131 9725 9668 10111 12160 11754 11697 12140
8 9601 9546 9507 8465 11630 11575 11536 10494
8 9508 9976 9563 9547 11537 12005 11592 11576
8 8339 9633 8338 9595 10368 11662 10367 11624
8 10040 9470 10089 10052 12069 11499 12118 12081
8 9575 8332 9603 9688 11604 10361 11632 11717
8 9550 9606 9320 8474 11579 11635 11349 10503
8 9551 10093 9607 8360 11580 12122 11636 10389
8 8509 9764 9752 9780 10538 11793 11781 11809
8 8330 9602 9553 9659 10359 11631 11582 11688
8 10125 9707 9681 8414 12154 11736 11710 10443
8 8414 9681 10124 10123 10443 11710 12153 12152
8 9527 8390 9557 10104 11556 10419 11586 12133
8 9679 9647 8311 9558 11708 11676 10340 11587
8 8335 9679 9558 9579 10364 11708 11587 11608
8 8464 9683 9559 9649 10493 11712 11588 11678
8 8463 9649 9559 10091 10492 11678 11588 12120
8 9659 8329 9613 9560 11688 10358 11642 11589
8 9650 9560 9518 8307 11679 11589 11547 10336
8 9604 8455 9652 9689 11633 10484 11681 11718
8 9576 9561 9501 8445 11605 11590 11530 10474
8 9562 10011 9575 9688 11591 12040 11604 11717
8 9991 9323 8309 9992 12020 11352 10338 12021
8 9639 9712 10133 8491 11668 11741 12162 10520
8 9727 9641 9677 9642 11756 11670 11706 11671
8 9643 9981 10013 9678 11672 12010 12042 11707
8 9995 9465 10000 9568 12024 11494 12029 11597
8 10001 9644 9497 9569 12030 11673 11526 11598
8 8413 9645 9498 9570 10442 11674 11527 11599
8 9570 9527 10104 8413 11599 11556 12133 10442
8 8414 10123 9745 9611 10443 12152 11774 11640
8 10094 9634 9595 8338 12123 11663 11624 10367
8 10037 9574 9548 8362 12066 11603 11577 10391
8 10097 9619 9628 10066 12126 11648 11657 12095
8 9591 8356 9335 9694 11620 10385 11364 11723
8 10112 9577 9557 8390 12141 11606 11586 10419
8 9625 9584 10129 8324 11654 11613 12158 10353
8 8303 9638 9580 9621 10332 11667 11609 11650
8 9622 9581 9979 8498 11651 11610 12008 10527
8 8315 9635 9582 9623 10344 11664 11611 11652
8 10056 9637 9583 9624 12085 11666 11612 11653
8 9986 9583 9478 8322 12015 11612 11507 10351
8 9705 9743 8324 10129 11734 11772 10353 12158
8 9716 9661 8518 9748 11745 11690 10547 11777
8 8517 9585 9578 9519 10546 11614 11607 11548
8 8336 10092 9586 9704 10365 12121 11615 11733
8 10077 9681 9707 9538 12106 11710 11736 11567
8 8436 10078 9587 10065 10465 12107 11616 12094
8 9990 9680 9708 9537 12019 11709 11737 11566
8 8528 10069 10100 10099 10557 12098 12129 12128
8 9973 9618 9532 8527 12002 11647 11561 10556
8 8335 9590 9631 9679 10364 11619 11660 11708
8 9592 9972 9523 9695 11621 12001 11552 11724
8 9808 8359 9593 9475 11837 10388 11622 11504
8 10072 9741 9630 9692 12101 11770 11659 11721
8 9646 9730 8338 9633 11675 11759 10367 11662
8 9977 8339 9595 9303 12006 10368 11624 11332
8 9699 8345 10042 10054 11728 10374 12071 12083
8 9667 9809 9737 9599 11696 11838 11766 11628
8 8465 9606 9729 9601 10494 11635 11758 11630
8 10079 8331 9603 9656 12108 10360 11632 11685
8 9604 10138 9655 8455 11633 12167 11684 10484
8 8482 10047 9779 10010 10511 12076 11808 12039
8 9607 9730 9646 8361 11636 11759 11675 10390
8 10073 9593 8337 9608 12102 11622 10366 11637
8 8500 9712 10025 9609 10529 11741 12054 11638
8 9609 9552 9780 8500 11638 11581 11809 10529
8 9611 9555 10125 8414 11640 11584 12154 10443
8 9623 9582 8292 9612 11652 11611 10321 11641
8 9746 8315 9623 9701 11775 10344 11652 11730
8 10144 9809 9667 8472 12173 11838 11696 10501
8 9736 9666 8306 9613 11765 11695 10335 11642
8 9657 9614 9673 8372 11686 11643 11702 10401
8 10095 9671 9420 8350 12124 11700 11449 10379
8 10081 9674 10032 9616 12110 11703 12061 11645
8 10027 8304 9617 9530 12056 10333 11646 11559
8 9618 8536 9663 9532 11647 10565 11692 11561
8 10126 9709 9335 8355 12155 11738 11364 10384
8 9710 9982 9304 10020 11739 12011 11333 12049
8 8323 9624 9710 9620 10352 11653 11739 11649
8 9622 10032 9674 10080 11651 12061 11703 12109
8 9556 8316 10075 10074 11585 10345 12104 12103
8 10086 10050 8391 9577 12115 12079 10420 11606
8 10050 9769 9744 8391 12079 11798 11773 10420
8 10056 9791 9772 9699 12085 11820 11801 11728
8 9728 10101 9629 9693 11757 12130 11658 11722
8 10107 8335 9579 9626 12136 10364 11608 11655
8 9515 10113 10136 10114 11544 12142 12165 12143
8 10137 9627 8437 9795 12166 11656 10466 11824
8 9619 8332 9575 9628 11648 10361 11604 11657
8 8518 9728 9693 9760 10547 11757 11722 11789
8 9590 9740 10049 8357 11619 11769 12078 10386
8 10049 9630 9741 9328 12078 11659 11770 11357
8 9775 8337 9593 9632 11804 10366 11622 11661
8 9711 10075 8316 10094 11740 12104 10345 12123
8 10031 9636 9698 9535 12060 11665 11727 11564
8 9698 9636 10119 8499 11727 11665 12148 10528
8 9637 10056 9699 10054 11666 12085 11728 12083
8 9718 8302 9638 9696 11747 10331 11667 11725
8 8308 9981 9640 9567 10337 12010 11669 11596
8 9677 9641 9566 8454 11706 11670 11595 10483
8 8463 10091 9564 9642 10492 12120 11593 11671
8 9678 10012 9565 9643 11707 12041 11594 11672
8 9553 10057 8329 9659 11582 12086 10358 11688
8 9990 9644 10001 8311 12019 11673 12030 10340
8 9731 8338 9730 9702 11760 10367 11759 11731
8 9459 8361 9646 9978 11488 10390 11675 12007
8 10124 9681 10077 9648 12153 11710 12106 11677
8 9682 8391 9700 9745 11711 10420 11729 11774
8 9725 9687 9652 8455 11754 11716 11681 10484
8 10013 9651 8331 9686 12042 11680 10360 11715
8 9684 9677 8454 9687 11713 11706 10483 11716
8 10117 10081 8490 9690 12146 12110 10519 11719
8 10010 9749 9676 9765 12039 11778 11705 11794
8 9617 8304 9691 9675 11646 10333 11720 11704
8 8328 9720 10102 9665 10357 11749 12131 11694
8 9725 8455 9655 9668 11754 10484 11684 11697
8 9686 8331 10079 9726 11715 10360 12108 11755
8 9733 9756 9770 9658 11762 11785 11799 11687
8 9327 8519 9660 10070 11356 10548 11689 12099
8 9764 8509 9661 9716 11793 10538 11690 11745
8 9942 9918 9913 9662 11971 11947 11942 11691
8 9540 9599 8482 9664 11569 11628 10511 11693
8 9600 10028 8328 9665 11629 12057 10357 11694
8 10029 10028 9666 9736 12058 12057 11695 11765
8 10047 8482 9599 9737 12076 10511 11628 11766
8 9507 9546 9668 8456 11536 11575 11697 10485
8 9804 9545 9669 8353 11833 11574 11698 10382
8 8350 9571 9670 10095 10379 11600 11699 12124
8 10029 9554 9420 9671 12058 11583 11449 11700
8 9941 8372 9673 9214 11970 10401 11702 11243
8 9690 10133 9734 10117 11719 12162 11763 12146
8 10034 9735 9675 9691 12063 11764 11704 11720
8 10131 9649 8463 9684 12160 11678 10492 11713
8 10096 9650 8307 9685 12125 11679 10336 11714
8 8333 9588 9537 9708 10362 11617 11566 11737
8 9647 8334 9802 9680 11676 10363 11831 11709
8 9538 9707 10135 10078 11567 11736 12164 12107
8 9745 10123 10124 9682 11774 12152 12153 11711
8 9683 9703 8473 10144 11712 11732 10502 12173
8 10079 9669 8330 9726 12108 11698 10359 11755
8 9981 8308 9651 10013 12010 10337 11680 12042
8 9678 10013 9686 9685 11707 12042 11715 11714
8 9576 10114 8446 9689 11605 12143 10475 11718
8 10088 9735 10034 9750 12117 11764 12063 11779
8 9626 10092 8336 9692 11655 12121 10365 11721
8 9740 10107 9626 9692 11769 12136 11655 11721
8 9973 8527 9760 9693 12002 10556 11789 11722
8 10098 9708 9680 9802 12127 11737 11709 11831
8 9695 9924 9486 9452 11724 11953 11515 11481
8 10088 9751 8303 9735 12117 11780 10332 11764
8 9763 9697 9747 9713 11792 11726 11776 11742
8 8346 9785 10141 9758 10375 11814 12170 11787
8 9658 8392 9744 9733 11687 10421 11773 11762
8 9556 10074 9701 10046 11585 12103 11730 12075
8 10094 8338 9731 9711 12123 10367 11760 11740
8 9731 9702 10090 9747 11760 11731 12119 11776
8 9683 8464 9729 9703 11712 10493 11758 11732
8 9718 10132 9743 9705 11747 12161 11772 11734
8 9757 8369 9706 10140 11786 10398 11735 12169
8 9706 10085 9719 10128 11735 12114 11748 12157
8 9709 10126 10067 8333 11738 12155 12096 10362
8 10098 9694 9335 9709 12127 11723 11364 11738
8 9710 10020 9738 9620 11739 12049 11767 11649
8 9496 8501 9609 10025 11525 10530 11638 12054
8 9763 9713 9608 8337 11792 11742 11637 10366
8 9747 10090 9608 9713 11776 12119 11637 11742
8 10032 9715 8489 9616 12061 11744 10518 11645
8 8489 9715 9934 9999 10518 11744 11963 12028
8 9542 10059 9698 10130 11571 12088 11727 12159
8 8337 9775 9717 9763 10366 11804 11746 11792
8 9719 9699 9772 9785 11748 11728 11801 11814
8 9981 9643 8284 9640 12010 11672 10313 11669
8 8518 9660 8519 9728 10547 11689 10548 11757
8 8464 10111 9601 9729 10493 12140 11630 11758
8 8349 10083 9774 9754 10378 12112 11803 11783
8 10115 9774 10083 9778 12144 11803 12112 11807
8 10130 9698 8499 10134 12159 11727 10528 12163
8 8326 10116 9751 10088 10355 12145 11780 12117
8 9605 10047 9737 8473 11634 12076 11766 10502
8 8335 10107 9740 9590 10364 12136 11769 11619
8 10072 9594 8358 9741 12101 11623 10387 11770
8 9753 9757 9771 8370 11782 11786 11800 10399
8 9810 9742 10128 8346 11839 11771 12157 10375
8 9743 10141 10109 8324 11772 12170 12138 10353
8 8392 9700 8391 9744 10421 11729 10420 11773
8 9716 9748 10055 10082 11745 11777 12084 12111
8 9760 9585 9748 8518 11789 11614 11777 10547
8 10010 9779 8483 9749 12039 11808 10512 11778
8 10010 9765 9664 8482 12039 11794 11693 10511
8 10118 8491 10133 9690 12147 10520 12162 11719
8 8326 10115 9778 10084 10355 12144 11807 12113
8 9691 8327 9750 10034 11720 10356 11779 12063
8 10132 9718 9696 9766 12161 11747 11725 11795
8 10115 8326 10088 9750 12144 10355 12117 11779
8 9764 10134 8499 9752 11793 12163 10528 11781
8 9780 9752 9734 8500 11809 11781 11763 10529
8 10050 10086 8369 9769 12079 12115 10398 11798
8 9754 10102 9670 8349 11783 12131 11699 10378
8 10115 9750 8327 9774 12144 11779 10356 11803
8 10051 8348 9755 9776 12080 10377 11784 11805
8 9789 10041 10053 9998 11818 12070 12082 12027
8 9755 8371 9777 9776 11784 10400 11806 11805
8 9756 8370 9788 9777 11785 10399 11817 11806
8 9742 9771 9757 10140 11771 11800 11786 12169
8 9785 9772 10109 10141 11814 11801 12138 12170
8 10017 9611 9759 8415 12046 11640 11788 10444
8 9865 9464 9767 9406 11894 11493 11796 11435
8 9890 9405 9463 9936 11919 11434 11492 11965
8 8462 9967 9762 9727 10491 11996 11791 11756
8 9716 10130 10134 9764 11745 12159 12163 11793
8 10118 9653 9664 9765 12147 11682 11693 11794
8 8325 10132 9766 9786 10354 12161 11795 11815
8 9696 9751 10116 9766 11725 11780 12145 11795
8 9132 9021 8261 9782 11161 11050 10290 11811
8 9220 9131 8461 9783 11249 11160 10490 11812
8 9777 8371 9770 9756 11806 10400 11799 11785
8 10087 8347 9810 9773 12116 10376 11839 11802
8 8323 9625 8324 9791 10352 11654 10353 11820
8 9758 10141 9743 9773 11787 12170 11772 11802
8 10084 9787 10116 8326 12113 11816 12145 10355
8 8347 9788 8370 9771 10376 11817 10399 11800
8 10084 9778 9732 8348 12113 11807 11761 10377
8 9657 9732 9778 10083 11686 11761 11807 12112
8 8348 10051 9787 10084 10377 12080 11816 12113
8 10087 9781 9788 8347 12116 11810 11817 10376
8 9332 9221 9782 9921 11361 11250 11811 11950
8 8394 9898 9792 9386 10423 11927 11821 11415
8 8346 10128 9719 9785 10375 12157 11748 11814
8 9787 9786 9766 10116 11816 11815 11795 12145
8 9786 9787 10051 9793 11815 11816 12080 11822
8 10041 9794 9959 10053 12070 11823 11988 12082
8 9781 10087 9790 9793 11810 12116 11819 11822
8 9792 9959 9914 9386 11821 11988 11943 11415
8 9624 8323 9791 10056 11653 10352 11820 12085
8 9998 9928 9784 9789 12027 11957 11813 11818
8 9789 8371 9755 10041 11818 10400 11784 12070
8 8446 10137 9795 9549 10475 12166 11824 11578
8 8229 8683 8682 9799 10258 10712 10711 11828
8 9857 9149 8384 9801 11886 11178 10413 11830
8 10098 9802 9591 9694 12127 11831 11620 11723
8 9994 10036 9805 9118 12023 12065 11834 11147
8 8422 8718 8216 8630 10451 10747 10245 10659
8 9821 9191 8450 9807 11850 11220 10479 11836
8 8735 8667 9811 9812 10764 10696 11840 11841
8 8761 8705 9813 9814 10790 10734 11842 11843
8 8225 8640 9817 9816 10254 10669 11846 11845
8 9825 9818 8864 8468 11854 11847 10893 10497
8 9820 9819 9281 8459 11849 11848 11310 10488
8 9839 9838 8827 8556 11868 11867 10856 10585
8 8903 9847 8993 9858 10932 11876 11022 11887
8 9103 8295 9883 8984 11132 10324 11912 11013
8 9235 8503 9851 9887 11264 10532 11880 11916
8 9904 8340 9153 9855 11933 10369 11182 11884
8 9857 9856 9840 8899 11886 11885 11869 10928
8 9856 9857 9801 9900 11885 11886 11830 11929
8 9895 9915 9861 9862 11924 11944 11890 11891
8 9862 9861 9081 9067 11891 11890 11110 11096
8 9030 8264 8977 9882 11059 10293 11006 11911
8 9866 9865 9111 8262 11895 11894 11140 10291
8 9152 9213 8397 9869 11181 11242 10426 11898
8 9903 9004 9871 8318 11932 11033 11900 10347
8 9876 8982 8542 9873 11905 11011 10571 11902
8 8380 9036 9846 9875 10409 11065 11875 11904
8 9955 9310 9902 9954 11984 11339 11931 11983
8 9917 9058 9876 9910 11946 11087 11905 11939
8 9178 9098 9879 9880 11207 11127 11908 11909
8 9880 9879 9043 8546 11909 11908 11072 10575
8 8267 8949 8842 9905 10296 10978 10871 11934
8 9947 8381 8995 9884 11976 10410 11024 11913
8 9936 8461 9889 9890 11965 10490 11918 11919
8 9892 9891 9110 8452 11921 11920 11139 10481
8 9937 9463 9405 9891 11966 11492 11434 11920
8 8971 9893 9938 8978 11000 11922 11967 11007
8 9312 9938 9893 9894 11341 11967 11922 11923
8 9862 8259 9896 9895 11891 10288 11925 11924
8 9369 9915 9895 9896 11398 11944 11924 11925
8 9433 9213 9152 8375 11462 11242 11181 10404
8 9941 9214 9897 9914 11970 11243 11926 11943
8 9902 9901 9858 8993 11931 11930 11887 11022
8 9904 9855 9253 9379 11933 11884 11282 11408
8 9714 8280 9907 9952 11743 10309 11936 11981
8 8534 9917 9910 9946 10563 11946 11939 11975
8 9903 8318 9207 9949 11932 10347 11236 11978
8 9965 8281 9918 9942 11994 10310 11947 11971
8 9163 9969 8270 9922 11192 11998 10299 11951
8 8537 9971 9313 9924 10566 12000 11342 11953
8 9926 9925 9359 8502 11955 11954 11388 10531
8 9496 9976 9925 9926 11525 12005 11954 11955
8 9930 9929 9143 9061 11959 11958 11172 11090
8 9715 8498 9933 9934 11744 10527 11962 11963
8 9934 9933 9888 9422 11963 11962 11917 11451
8 9762 9967 9463 9937 11791 11996 11492 11966
8 9940 9939 8434 10003 11969 11968 10463 12032
8 9914 9959 9794 9941 11943 11988 11823 11970
8 9965 9942 9662 9530 11994 11971 11691 11559
8 9138 9944 9975 9270 11167 11973 12004 11299
8 9956 9944 9316 8290 11985 11973 11345 10319
8 9946 9300 9264 8534 11975 11329 11293 10563
8 9262 9987 8381 9947 11291 12016 10410 11976
8 10000 9465 9950 8317 12029 11494 11979 10346
8 8294 9994 9227 9951 10323 12023 11256 11980
8 9995 8294 9951 9465 12024 10323 11980 11494
8 9907 9423 9305 9952 11936 11452 11334 11981
8 9167 9954 9902 8993 11196 11983 11931 11022
8 9954 9989 9268 9955 11983 12018 11297 11984
8 9710 9986 9957 9982 11739 12015 11986 12011
8 9982 9957 9116 9304 12011 11986 11145 11333
8 9953 8380 9177 9962 11982 10409 11206 11991
8 9954 9167 8382 9989 11983 11196 10411 12018
8 9985 9808 9955 9268 12014 11837 11984 11297
8 8283 9960 10002 9325 10312 11989 12031 11354
8 8307 9518 10002 9980 10336 11547 12031 12009
8 9968 9964 9049 8443 11997 11993 11078 10472
8 9300 10005 9387 9264 11329 12034 11416 11293
8 9693 10023 9972 9973 11722 12052 12001 12002
8 9565 10012 8307 9980 11594 12041 10336 12009
8 9983 8276 9295 9258 12012 10305 11324 11287
8 10033 9536 9984 8302 12062 11565 12013 10331
8 8358 10038 9262 9988 10387 12067 11291 12017
8 9672 8416 9499 9993 11701 10445 11528 12022
8 10015 9996 9940 10003 12044 12025 11969 12032
8 9732 9657 8372 9997 11761 11686 10401 12026
8 10053 9959 9792 9998 12082 11988 11821 12027
8 9205 9402 8489 9999 11234 11431 10518 12028
8 9573 10024 9568 10000 11602 12053 11597 12029
8 9246 8378 9074 10008 11275 10407 11103 12037
8 9996 10015 10016 8412 12025 12044 12045 10441
8 9273 10108 9144 10014 11302 12137 11173 12043
8 10019 10018 9399 8438 12048 12047 11428 10467
8 9555 9419 10018 10071 11584 11448 12047 12100
8 8312 10110 9339 10021 10341 12139 11368 12050
8 10069 8528 9337 10022 12098 10557 11366 12051
8 9224 8276 10006 9974 11253 10305 12035 12003
8 9671 8328 10028 10029 11700 10357 12057 12058
8 9301 9525 10001 9569 11330 11554 12030 11598
8 8362 9970 9472 10037 10391 11999 11501 12066
8 10046 9612 8293 10045 12075 11641 10322 12074
8 8293 9612 9302 9206 10322 11641 11331 11235
8 10042 9533 9637 10054 12071 11562 11666 12083
8 10089 10097 9529 10052 12118 12126 11558 12081
8 10082 10055 9485 9542 12111 12084 11514 11571
8 10026 9396 10064 10063 12055 11425 12093 12092
8 10065 10064 9396 8436 12094 12093 11425 10465
8 10064 10065 9627 10113 12093 12094 11656 12142
8 10067 10066 9588 8333 12096 12095 11617 10362
8 9529 10097 10066 10067 11558 12126 12095 12096
8 9746 9701 10074 10075 11775 11730 12103 12104
8 10080 10119 9581 9622 12109 12148 11610 11651
8 8499 10119 10080 9674 10528 12148 12109 11703
8 9734 9674 10081 10117 11763 11703 12110 12146
8 9726 8330 9650 10096 11755 10359 11679 12125
8 10105 9329 10099 10106 12134 11358 12128 12135
8 10101 10100 10069 9629 12130 12129 12098 11658
8 10106 10101 9728 8519 12135 12130 11757 10548
8 10106 8519 9261 10105 12135 10548 11290 12134
8 9513 9594 10072 9632 11542 11623 12101 11661
8 9734 10133 9712 8500 11763 12162 11741 10529
8 9648 9557 9682 10124 11677 11586 11711 12153
8 9742 10140 9706 10128 11771 12169 11735 12157
8 10111 8464 9649 10131 12140 10493 11678 12160
8 10137 10136 10113 9627 12166 12165 12142 11656
8 9604 9549 9471 10138 11633 11578 11500 12167
8 10062 10139 9254 8471 12091 12168 11283 10500
8 9795 8437 10142 9482 11824 10466 12171 11511
8 10142 8437 9587 10143 12171 10466 11616 12172
CELL_TYPES 9640
12
12
12
12
12
12
12
12
12
12
12
12
12
12
12
12
12
12
12
12
12
12
12
12
12
12
12
12
12
12
12
12
12
12
12
12
12
12
12
12
12
12
12
12
12
12
12
12
12
12
12
12
12
12
12
12
12
12
12
12
12
12
12
12
12
12
12
12
12
12
12
12
12
12
12
12
12
12
12
12
12
12
12
12
12
12
12
12
12
12
12
12
12
12
12
12
12
12
12
12
12
12
12
12
12
12
12
12
12
12
12
12
12
12
12
12
12
12
12
12
12
12
12
12
12
12
12
12
12
12
12
12
12
12
12
12
12
12
12
12
12
12
12
12
12
12
12
12
12
12
12
12
12
12
12
12
12
12
12
12
12
12
12
12
12
12
12
12
12
12
12
12
12
12
12
12
12
12
12
12
12
12
12
12
12
12
12
12
12
12
12
12
12
12
12
12
12
12
12
12
12
12
12
12
12
12
12
12
12
12
12
12
12
12
12
12
12
12
12
12
12
12
12
12
12
12
12
12
12
12
12
12
12
12
12
12
12
12
12
12
12
12
12
12
12
12
12
12
12
12
12
12
12
12
12
12
12
12
12
12
12
12
12
12
12
12
12
12
12
12
12
12
12
12
12
12
12
12
12
12
12
12
12
12
12
12
12
12
12
12
12
12
12
12
12
12
12
12
12
12
12
12
12
12
12
12
12
12
12
12
12
12
12
12
12
12
12
12
12
12
12
12
12
12
12
12
12
12
12
12
12
12
12
12
12
12
12
12
12
12
12
12
12
12
12
12
12
12
12
12
12
12
12
12
12
12
12
12
12
12
12
12
12
12
12
12
12
12
12
12
12
12
12
12
12
12
12
12
12
12
12
12
12
12
12
12
12
12
12
12
12
12
12
12
12
12
12
12
12
12
12
12
12
12
12
12
12
12
12
12
12
12
12
12
12
12
12
12
12
12
12
12
12
12
12
12
12
12
12
12
12
12
12
12
12
12
12
12
12
12
12
12
12
12
12
12
12
12
12
12
12
12
12
12
12
12
12
12
12
12
12
12
12
12
12
12
12
12
12
12
12
12
12
12
12
12
12
12
12
12
12
12
12
12
12
12
12
12
12
12
12
12
12
12
12
12
12
12
12
12
12
12
12
12
12
12
12
12
12
12
12
12
12
12
12
12
12
12
12
12
12
12
12
12
12
12
12
12
12
12
12
12
12
12
12
12
12
12
12
12
12
12
12
12
12
12
12
12
12
12
12
12
12
12
12
12
12
12
12
12
12
12
12
12
12
12
12
12
12
12
12
12
12
12
12
12
12
12
12
12
12
12
12
12
12
12
12
12
12
12
12
12
12
12
12
12
12
12
12
12
12
12
12
12
12
12
12
12
12
12
12
12
12
12
12
12
12
12
12
12
12
12
12
12
12
12
12
12
12
12
12
12
12
12
12
12
12
12
12
12
12
12
12
12
12
12
12
12
12
12
12
12
12
12
12
12
12
12
12
12
12
12
12
12
12
12
12
12
12
12
12
12
12
12
12
12
12
12
12
12
12
12
12
12
12
12
12
12
12
12
12
12
12
12
12
12
12
12
12
12
12
12
12
12
12
12
12
12
12
12
12
12
12
12
12
12
12
12
12
12
12
12
12
12
12
12
12
12
12
12
12
12
12
12
12
12
12
12
12
12
12
12
12
12
12
12
12
12
12
12
12
12
12
12
12
12
12
12
12
12
12
12
12
12
12
12
12
12
12
12
12
12
12
12
12
12
12
12
12
12
12
12
12
12
12
12
12
12
12
12
12
12
12
12
12
12
12
12
12
12
12
12
12
12
12
12
12
12
12
12
12
12
12
12
12
12
12
12
12
12
12
12
12
12
12
12
12
12
12
12
12
12
12
12
12
12
12
12
12
12
12
12
12
12
12
12
12
12
12
12
12
12
12
12
12
12
12
12
12
12
12
12
12
12
12
12
12
12
12
12
12
12
12
12
12
12
12
12
12
12
12
12
12
12
12
12
12
12
12
12
12
12
12
12
12
12
12
12
12
12
12
12
12
12
12
12
12
12
12
12
12
12
12
12
12
12
12
12
12
12
12
12
12
12
12
12
12
12
12
12
12
12
12
12
12
12
12
12
12
12
12
12
12
12
12
12
12
12
12
12
12
12
12
12
12
12
12
12
12
12
12
12
12
12
12
12
12
12
12
12
12
12
12
12
12
12
12
12
12
12
12
12
12
12
12
12
12
12
12
12
12
12
12
12
12
12
12
12
12
12
12
12
12
12
12
12
12
12
12
12
12
12
12
12
12
12
12
12
12
12
12
12
12
12
12
12
12
12
12
12
12
12
12
12
12
12
12
12
12
12
12
12
12
12
12
12
12
12
12
12
12
12
12
12
12
12
12
12
12
12
12
12
12
12
12
12
12
12
12
12
12
12
12
12
12
12
12
12
12
12
12
12
12
12
12
12
12
12
12
12
12
12
12
12
12
12
12
12
12
12
12
12
12
12
12
12
12
12
12
12
12
12
12
12
12
12
12
12
12
12
12
12
12
12
12
12
12
12
12
12
12
12
12
12
12
12
12
12
12
12
12
12
12
12
12
12
12
12
12
12
12
12
12
12
12
12
12
12
12
12
12
12
12
12
12
12
12
12
12
12
12
12
12
12
12
12
12
12
12
12
12
12
12
12
12
12
12
12
12
12
12
12
12
12
12
12
12
12
12
12
12
12
12
12
12
12
12
12
12
12
12
12
12
12
12
12
12
12
12
12
12
12
12
12
12
12
12
12
12
12
12
12
12
12
12
12
12
12
12
12
12
12
12
12
12
12
12
12
12
12
12
12
12
12
12
12
12
12
12
12
12
12
12
12
12
12
12
12
12
12
12
12
12
12
12
12
12
12
12
12
12
12
12
12
12
12
12
12
12
12
12
12
12
12
12
12
12
12
12
12
12
12
12
12
12
12
12
12
12
12
12
12
12
12
12
12
12
12
12
12
12
12
12
12
12
12
12
12
12
12
12
12
12
12
12
12
12
12
12
12
12
12
12
12
12
12
12
12
12
12
12
12
12
12
12
12
12
12
12
12
12
12
12
12
12
12
12
12
12
12
12
12
12
12
12
12
12
12
12
12
12
12
12
12
12
12
12
12
12
12
12
12
12
12
12
12
12
12
12
12
12
12
12
12
12
12
12
12
12
12
12
12
12
12
12
12
12
12
12
12
12
12
12
12
12
12
12
12
12
12
12
12
12
12
12
12
12
12
12
12
12
12
12
12
12
12
12
12
12
12
12
12
12
12
12
12
12
12
12
12
12
12
12
12
12
12
12
12
12
12
12
12
12
12
12
12
12
12
12
12
12
12
12
12
12
12
12
12
12
12
12
12
12
12
12
12
12
12
12
12
12
12
12
12
12
12
12
12
12
12
12
12
12
12
12
12
12
12
12
12
12
12
12
12
12
12
12
12
12
12
12
12
12
12
12
12
12
12
12
12
12
12
12
12
12
12
12
12
12
12
12
12
12
12
12
12
12
12
12
12
12
12
12
12
12
12
12
12
12
12
12
12
12
12
12
12
12
12
12
12
12
12
12
12
12
12
12
12
12
12
12
12
12
12
12
12
12
12
12
12
12
12
12
12
12
12
12
12
12
12
12
12
12
12
12
12
12
12
12
12
12
12
12
12
12
12
12
12
12
12
12
12
12
12
12
12
12
12
12
12
12
12
12
12
12
12
12
12
12
12
12
12
12
12
12
12
12
12
12
12
12
12
12
12
12
12
12
12
12
12
12
12
12
12
12
12
12
12
12
12
12
12
12
12
12
12
12
12
12
12
12
12
12
12
12
12
12
12
12
12
12
12
12
12
12
12
12
12
12
12
12
12
12
12
12
12
12
12
12
12
12
12
12
12
12
12
12
12
12
12
12
12
12
12
12
12
12
12
12
12
12
12
12
12
12
12
12
12
12
12
12
12
12
12
12
12
12
12
12
12
12
12
12
12
12
12
12
12
12
12
12
12
12
12
12
12
12
12
12
12
12
12
12
12
12
12
12
12
12
12
12
12
12
12
12
12
12
12
12
12
12
12
12
12
12
12
12
12
12
12
12
12
12
12
12
12
12
12
12
12
12
12
12
12
12
12
12
12
12
12
12
12
12
12
12
12
12
12
12
12
12
12
12
12
12
12
12
12
12
12
12
12
12
12
12
12
12
12
12
12
12
12
12
12
12
12
12
12
12
12
12
12
12
12
12
12
12
12
12
12
12
12
12
12
12
12
12
12
12
12
12
12
12
12
12
12
12
12
12
12
12
12
12
12
12
12
12
12
12
12
12
12
12
12
12
12
12
12
12
12
12
12
12
12
12
12
12
12
12
12
12
12
12
12
12
12
12
12
12
12
12
12
12
12
12
12
12
12
12
12
12
12
12
12
12
12
12
12
12
12
12
12
12
12
12
12
12
12
12
12
12
12
12
12
12
12
12
12
12
12
12
12
12
12
12
12
12
12
12
12
12
12
12
12
12
12
12
12
12
12
12
12
12
12
12
12
12
12
12
12
12
12
12
12
12
12
12
12
12
12
12
12
12
12
12
12
12
12
12
12
12
12
12
12
12
12
12
12
12
12
12
12
12
12
12
12
12
12
12
12
12
12
12
12
12
12
12
12
12
12
12
12
12
12
12
12
12
12
12
12
12
12
12
12
12
12
12
12
12
12
12
12
12
12
12
12
12
12
12
12
12
12
12
12
12
12
12
12
12
12
12
12
12
12
12
12
12
12
12
12
12
12
12
12
12
12
12
12
12
12
12
12
12
12
12
12
12
12
12
12
12
12
12
12
12
12
12
12
12
12
12
12
12
12
12
12
12
12
12
12
12
12
12
12
12
12
12
12
12
12
12
12
12
12
12
12
12
12
12
12
12
12
12
12
12
12
12
12
12
12
12
12
12
12
12
12
12
12
12
12
12
12
12
12
12
12
12
12
12
12
12
12
12
12
12
12
12
12
12
12
12
12
12
12
12
12
12
12
12
12
12
12
12
12
12
12
12
12
12
12
12
12
12
12
12
12
12
12
12
12
12
12
12
12
12
12
12
12
12
12
12
12
12
12
12
12
12
12
12
12
12
12
12
12
12
12
12
12
12
12
12
12
12
12
12
12
12
12
12
12
12
12
12
12
12
12
12
12
12
12
12
12
12
12
12
12
12
12
12
12
12
12
12
12
12
12
12
12
12
12
12
12
12
12
12
12
12
12
12
12
12
12
12
12
12
12
12
12
12
12
12
12
12
12
12
12
12
12
12
12
12
12
12
12
12
12
12
12
12
12
12
12
12
12
12
12
12
12
12
12
12
12
12
12
12
12
12
12
12
12
12
12
12
12
12
12
12
12
12
12
12
12
12
12
12
12
12
12
12
12
12
12
12
12
12
12
12
12
12
12
12
12
12
12
12
12
12
12
12
12
12
12
12
12
12
12
12
12
12
12
12
12
12
12
12
12
12
12
12
12
12
12
12
12
12
12
12
12
12
12
12
12
12
12
12
12
12
12
12
12
12
12
12
12
12
12
12
12
12
12
12
12
12
12
12
12
12
12
12
12
12
12
12
12
12
12
12
12
12
12
12
12
12
12
12
12
12
12
12
12
12
12
12
12
12
12
12
12
12
12
12
12
12
12
12
12
12
12
12
12
12
12
12
12
12
12
12
12
12
12
12
12
12
12
12
12
12
12
12
12
12
12
12
12
12
12
12
12
12
12
12
12
12
12
12
12
12
12
12
12
12
12
12
12
12
12
12
12
12
12
12
12
12
12
12
12
12
12
12
12
12
12
12
12
12
12
12
12
12
12
12
12
12
12
12
12
12
12
12
12
12
12
12
12
12
12
12
12
12
12
12
12
12
12
12
12
12
12
12
12
12
12
12
12
12
12
12
12
12
12
12
12
12
12
12
12
12
12
12
12
12
12
12
12
12
12
12
12
12
12
12
12
12
12
12
12
12
12
12
12
12
12
12
12
12
12
12
12
12
12
12
12
12
12
12
12
12
12
12
12
12
12
12
12
12
12
12
12
12
12
12
12
12
12
12
12
12
12
12
12
12
12
12
12
12
12
12
12
12
12
12
12
12
12
12
12
12
12
12
12
12
12
12
12
12
12
12
12
12
12
12
12
12
12
12
12
12
12
12
12
12
12
12
12
12
12
12
12
12
12
12
12
12
12
12
12
12
12
12
12
12
12
12
12
12
12
12
12
12
12
12
12
12
12
12
12
12
12
12
12
12
12
12
12
12
12
12
12
12
12
12
12
12
12
12
12
12
12
12
12
12
12
12
12
12
12
12
12
12
12
12
12
12
12
12
12
12
12
12
12
12
12
12
12
12
12
12
12
12
12
12
12
12
12
12
12
12
12
12
12
12
12
12
12
12
12
12
12
12
12
12
12
12
12
12
12
12
12
12
12
12
12
12
12
12
12
12
12
12
12
12
12
12
12
12
12
12
12
12
12
12
12
12
12
12
12
12
12
12
12
12
12
12
12
12
12
12
12
12
12
12
12
12
12
12
12
12
12
12
12
12
12
12
12
12
12
12
12
12
12
12
12
12
12
12
12
12
12
12
12
12
12
12
12
12
12
12
12
12
12
12
12
12
12
12
12
12
12
12
12
12
12
12
12
12
12
12
12
12
12
12
12
12
12
12
12
12
12
12
12
12
12
12
12
12
12
12
12
12
12
12
12
12
12
12
12
12
12
12
12
12
12
12
12
12
12
12
12
12
12
12
12
12
12
12
12
12
12
12
12
12
12
12
12
12
12
12
12
12
12
12
12
12
12
12
12
12
12
12
12
12
12
12
12
12
12
12
12
12
12
12
12
12
12
12
12
12
12
12
12
12
12
12
12
12
12
12
12
12
12
12
12
12
12
12
12
12
12
12
12
12
12
12
12
12
12
12
12
12
12
12
12
12
12
12
12
12
12
12
12
12
12
12
12
12
12
12
12
12
12
12
12
12
12
12
12
12
12
12
12
12
12
12
12
12
12
12
12
12
12
12
12
12
12
12
12
12
12
12
12
12
12
12
12
12
12
12
12
12
12
12
12
12
12
12
12
12
12
12
12
12
12
12
12
12
12
12
12
12
12
12
12
12
12
12
12
12
12
12
12
12
12
12
12
12
12
12
12
12
12
12
12
12
12
12
12
12
12
12
12
12
12
12
12
12
12
12
12
12
12
12
12
12
12
12
12
12
12
12
12
12
12
12
12
12
12
12
12
12
12
12
12
12
12
12
12
12
12
12
12
12
12
12
12
12
12
12
12
12
12
12
12
12
12
12
12
12
12
12
12
12
12
12
12
12
12
12
12
12
12
12
12
12
12
12
12
12
12
12
12
12
12
12
12
12
12
12
12
12
12
12
12
12
12
12
12
12
12
12
12
12
12
12
12
12
12
12
12
12
12
12
12
12
12
12
12
12
12
12
12
12
12
12
12
12
12
12
12
12
12
12
12
12
12
12
12
12
12
12
12
12
12
12
12
12
12
12
12
12
12
12
12
12
12
12
12
12
12
12
12
12
12
12
12
12
12
12
12
12
12
12
12
12
12
12
12
12
12
12
12
12
12
12
12
12
12
12
12
12
12
12
12
12
12
12
12
12
12
12
12
12
12
12
12
12
12
12
12
12
12
12
12
12
12
12
12
12
12
12
12
12
12
12
12
12
12
12
12
12
12
12
12
12
12
12
12
12
12
12
12
12
12
12
12
12
12
12
12
12
12
12
12
12
12
12
12
12
12
12
12
12
12
12
12
12
12
12
12
12
12
12
12
12
12
12
12
12
12
12
12
12
12
12
12
12
12
12
12
12
12
12
12
12
12
12
12
12
12
12
12
12
12
12
12
12
12
12
12
12
12
12
12
12
12
12
12
12
12
12
12
12
12
12
12
12
12
12
12
12
12
12
12
12
12
12
12
12
12
12
12
12
12
12
12
12
12
12
12
12
12
12
12
12
12
12
12
12
12
12
12
12
12
12
12
12
12
12
12
12
12
12
12
12
12
12
12
12
12
12
12
12
12
12
12
12
12
12
12
12
12
12
12
12
12
12
12
12
12
12
12
12
12
12
12
12
12
12
12
12
12
12
12
12
12
12
12
12
12
12
12
12
12
12
12
12
12
12
12
12
12
12
12
12
12
12
12
12
12
12
12
12
12
12
12
12
12
12
12
12
12
12
12
12
12
12
12
12
12
12
12
12
12
12
12
12
12
12
12
12
12
12
12
12
12
12
12
12
12
12
12
12
12
12
12
12
12
12
12
12
12
12
12
12
12
12
12
12
12
12
12
12
12
12
12
12
12
12
12
12
12
12
12
12
12
12
12
12
12
12
12
12
12
12
12
12
12
12
12
12
12
12
12
12
12
12
12
12
12
12
12
12
12
12
12
12
12
12
12
12
12
12
12
12
12
12
12
12
12
12
12
12
12
12
12
12
12
12
12
12
12
12
12
12
12
12
12
12
12
12
12
12
12
12
12
12
12
12
12
12
12
12
12
12
12
12
12
12
12
12
12
12
12
12
12
12
12
12
12
12
12
12
12
12
12
12
12
12
12
12
12
12
12
12
12
12
12
12
12
12
12
12
12
12
12
12
12
12
12
12
12
12
12
12
12
12
12
12
12
12
12
12
12
12
12
12
12
12
12
12
12
12
12
12
12
12
12
12
12
12
12
12
12
12
12
12
12
12
12
12
12
12
12
12
12
12
12
12
12
12
12
12
12
12
12
12
12
12
12
12
12
12
12
12
12
12
12
12
12
12
12
12
12
12
12
12
12
12
12
12
12
12
12
12
12
12
12
12
12
12
12
12
12
12
12
12
12
12
12
12
12
12
12
12
12
12
12
12
12
12
12
12
12
12
12
12
12
12
12
12
12
12
12
12
12
12
12
12
12
12
12
12
12
12
12
12
12
12
12
12
12
12
12
12
12
12
12
12
12
12
12
12
12
12
12
12
12
12
12
12
12
12
12
12
12
12
12
12
12
12
12
12
12
12
12
12
12
12
12
12
12
12
12
12
12
12
12
12
12
12
12
12
12
12
12
12
12
12
12
12
12
12
12
12
12
12
12
12
12
12
12
12
12
12
12
12
12
12
12
12
12
12
12
12
12
12
12
12
12
12
12
12
12
12
12
12
12
12
12
12
12
12
12
12
12
12
12
12
12
12
12
12
12
12
12
12
12
12
12
12
12
12
12
12
12
12
12
12
12
12
12
12
12
12
12
12
12
12
12
12
12
12
12
12
12
12
12
12
12
12
12
12
12
12
12
12
12
12
12
12
12
12
12
12
12
12
12
12
12
12
12
12
12
12
12
12
12
12
12
12
12
12
12
12
12
12
12
12
12
12
12
12
12
12
12
12
12
12
12
12
12
12
12
12
12
12
12
12
12
12
12
12
12
12
12
12
12
12
12
12
12
12
12
12
12
12
12
12
12
12
12
12
12
12
12
12
12
12
12
12
12
12
12
12
12
12
12
12
12
12
12
12
12
12
12
12
12
12
12
12
12
12
12
12
12
12
12
12
12
12
12
12
12
12
12
12
12
12
12
12
12
12
12
12
12
12
12
12
12
12
12
12
12
12
12
12
12
12
12
12
12
12
12
12
12
12
12
12
12
12
12
12
12
12
12
12
12
12
12
12
12
12
12
12
12
12
12
12
12
12
12
12
12
12
12
12
12
12
12
12
12
12
12
12
12
12
12
12
12
12
12
12
12
12
12
12
12
12
12
12
12
12
12
12
12
12
12
12
12
12
12
12
12
12
12
12
12
12
12
12
12
12
12
12
12
12
12
12
12
12
12
12
12
12
12
12
12
12
12
12
12
12
12
12
12
12
12
12
12
12
12
12
12
12
12
12
12
12
12
12
12
12
12
12
12
12
12
12
12
12
12
12
12
12
12
12
12
12
12
12
12
12
12
12
12
12
12
12
12
12
12
12
12
12
12
12
12
12
12
12
12
12
12
12
12
12
12
12
12
12
12
12
12
12
12
12
12
12
12
12
12
12
12
12
12
12
12
12
12
12
12
12
12
12
12
12
12
12
12
12
12
12
12
12
12
12
12
12
12
12
12
12
12
12
12
12
12
12
12
12
12
12
12
12
12
12
12
12
12
12
12
12
12
12
12
12
12
12
12
12
12
12
12
12
12
12
12
12
12
12
12
12
12
12
12
12
12
12
12
12
12
12
12
12
12
12
12
12
12
12
12
12
12
12
12
12
12
12
12
12
12
12
12
12
12
12
12
12
12
12
12
12
12
12
12
12
12
12
12
12
12
12
12
12
12
12
12
12
12
12
12
12
12
12
12
12
12
12
12
12
12
12
12
12
12
12
12
12
12
12
12
12
12
12
12
12
12
12
12
12
12
12
12
12
12
12
12
12
12
12
12
12
12
12
12
12
12
12
12
12
12
12
12
12
12
12
12
12
12
12
12
12
12
12
12
12
12
12
12
12
12
12
12
12
12
12
12
12
12
12
12
12
12
12
12
12
12
12
12
12
12
12
12
12
12
12
12
12
12
12
12
12
12
12
12
12
12
12
12
12
12
12
12
12
12
12
12
12
12
12
12
12
12
12
12
12
12
12
12
12
12
12
12
12
12
12
12
12
12
12
12
12
12
12
12
12
12
12
12
12
12
12
12
12
12
12
12
12
12
12
12
12
12
12
12
12
12
12
12
12
12
12
12
12
12
12
12
12
12
12
12
12
12
12
12
12
12
12
12
12
12
12
12
12
12
12
12
12
12
12
12
12
12
12
12
12
12
12
12
12
12
12
12
12
12
12
12
12
12
12
12
12
12
12
12
12
12
12
12
12
12
12
12
12
12
12
12
12
12
12
12
12
12
12
12
12
12
12
12
12
12
12
12
12
12
12
12
12
12
12
12
12
12
12
12
12
12
12
12
12
12
12
12
12
12
12
12
12
12
12
12
12
12
12
12
12
12
12
12
12
12
12
12
12
12
12
12
12
12
12
12
12
12
12
12
12
12
12
12
12
12
12
12
12
12
12
12
12
12
12
12
12
12
12
12
12
12
12
12
12
12
12
12
12
12
12
12
12
12
12
12
12
12
12
12
12
12
12
12
12
12
12
12
12
12
12
12
12
12
12
12
12
12
12
12
12
12
12
12
12
12
12
12
12
12
12
12
12
12
12
12
12
12
12
12
12
12
12
12
12
12
12
12
12
12
12
12
12
12
12
12
12
12
12
12
12
12
12
12
12
12
12
12
12
12
12
12
12
12
12
12
12
12
12
12
12
12
12
12
12
12
12
12
12
12
12
12
12
12
12
12
12
12
12
12
12
12
12
12
12
12
12
12
12
12
12
12
12
12
12
12
12
12
12
12
12
12
12
12
12
12
12
12
12
12
12
12
12
12
12
12
12
12
12
12
12
12
12
12
12
12
12
12
12
12
12
12
12
12
12
12
12
12
12
12
12
12
12
12
12
12
12
12
12
12
12
12
12
12
12
12
12
12
12
12
12
12
12
12
12
12
12
12
12
12
12
12
12
12
12
12
12
12
12
12
12
12
12
12
12
12
12
12
12
12
12
12
12
12
12
12
12
12
12
12
12
12
12
12
12
12
12
12
12
12
12
12
12
12
12
12
12
12
12
12
12
12
12
12
12
12
12
12
12
12
12
12
12
12
12
12
12
12
12
12
12
12
12
12
12
12
12
12
12
12
12
12
12
12
12
12
12
12
12
12
12
12
12
12
12
12
12
12
12
12
12
12
12
12
12
12
12
12
12
12
12
12
12
12
12
12
12
12
12
12
12
12
12
12
12
12
12
12
12
12
12
12
12
12
12
12
12
12
12
12
12
12
12
12
12
12
12
12
12
12
12
12
12
12
12
12
12
12
12
12
12
12
12
12
12
12
12
12
12
12
12
12
12
12
12
12
12
12
12
12
12
12
12
12
12
12
12
12
12
12
12
12
12
12
12
12
12
12
12
12
12
12
12
12
12
12
12
12
12
12
12
12
12
12
12
12
12
12
12
12
12
12
12
12
12
12
12
12
12
12
12
12
12
12
12
12
12
12
12
12
12
12
12
12
12
12
12
12
12
12
12
12
12
12
12
12
12
12
12
12
12
12
12
12
12
12
12
12
12
12
12
12
12
12
12
12
12
12
12
12
12
12
12
12
12
12
12
12
12
12
12
12
12
12
12
12
12
12
12
12
12
12
12
12
12
12
12
12
12
12
12
12
12
12
12
12
12
12
12
12
12
12
12
12
12
12
12
12
12
12
12
12
12
12
12
12
12
12
12
12
12
12
12
12
12
12
12
12
12
12
12
12
12
12
12
12
12
12
12
12
12
12
12
12
12
12
12
12
12
12
12
12
12
12
12
12
12
12
12
12
12
12
12
12
12
12
12
12
12
12
12
12
12
12
12
12
12
12
12
12
12
12
12
12
12
12
12
12
12
12
12
12
12
12
12
12
12
12
12
12
12
12
12
12
12
12
12
12
12
12
12
12
12
12
12
12
12
12
12
12
12
12
12
12
12
12
12
12
12
12
12
12
12
12
12
12
12
12
12
12
12
12
12
12
12
12
12
12
12
12
12
12
12
12
12
12
12
12
12
12
12
12
12
12
12
12
12
12
12
12
12
12
12
12
12
12
12
12
12
12
12
12
12
12
12
12
12
12
12
12
12
12
12
12
12
12
12
12
12
12
12
12
12
12
12
12
12
12
12
12
12
12
12
12
12
12
12
12
12
12
12
12
12
12
12
12
12
12
12
12
12
12
12
12
12
12
12
12
12
12
12
12
12
12
12
12
12
12
12
12
12
12
12
12
12
12
12
12
12
12
12
12
12
12
12
12
12
12
12
12
12
12
12
12
12
12
12
12
12
12
12
12
12
12
12
12
12
12
12
12
12
12
12
12
12
12
12
12
12
12
12
12
12
12
12
12
12
12
12
12
12
12
12
12
12
12
12
12
12
12
12
12
12
12
12
12
12
12
12
12
12
12
12
12
12
12
12
12
12
12
12
12
12
12
12
12
12
12
12
12
12
12
12
12
12
12
12
12
12
12
12
12
12
12
12
12
12
12
12
12
12
12
12
12
12
12
12
12
12
12
12
12
12
12
12
12
12
12
12
12
12
12
12
12
12
12
12
12
12
12
12
12
12
12
12
12
12
12
12
12
12
12
12
12
12
12
12
12
12
12
12
12
12
12
12
12
12
12
12
12
12
12
12
12
12
12
12
12
12
12
12
12
12
12
12
12
12
12
12
12
12
12
12
12
12
12
12
12
12
12
12
12
12
12
12
12
12
12
12
12
12
12
12
12
12
12
12
12
12
12
12
12
12
12
12
12
12
12
12
12
12
12
12
12
12
12
12
12
12
12
12
12
12
12
12
12
12
12
12
12
12
12
12
12
12
12
12
12
12
12
12
12
12
12
12
12
12
12
12
12
12
12
12
12
12
12
12
12
12
12
12
12
12
12
12
12
12
12
12
12
12
12
12
12
12
12
12
12
12
12
12
12
12
12
12
12
12
12
12
12
12
12
12
12
12
12
12
12
12
12
12
12
12
12
12
12
12
12
12
12
12
12
12
12
12
12
12
12
12
12
12
12
12
12
12
12
12
12
12
12
12
12
12
12
12
12
12
12
12
12
12
12
12
12
12
12
12
12
12
12
12
12
12
12
12
12
12
12
12
12
12
12
12
12
12
12
12
12
12
12
12
12
12
12
12
12
12
12
12
12
12
12
12
12
12
12
12
12
12
12
12
12
12
12
12
12
12
12
12
12
12
12
12
12
12
12
12
12
12
12
12
12
12
12
12
12
12
12
12
12
12
12
12
12
12
12
12
12
12
12
12
12
12
12
12
12
12
12
12
12
12
12
12
12
12
12
12
12
12
12
12
12
12
12
12
12
12
12
12
12
12
12
12
12
12
12
12
12
12
12
12
12
12
12
12
12
12
12
12
12
12
12
12
12
12
12
12
12
12
12
12
12
12
12
12
12
12
12
12
12
12
12
12
12
12
12
12
12
12
12
12
12
12
12
12
12
12
12
12
12
12
12
12
12
12
12
12
12
12
12
12
12
12
12
12
12
12
12
12
12
12
12
12
12
12
12
12
12
12
12
12
12
12
12
12
12
12
12
12
12
12
12
12
12
12
12
12
12
12
12
12
12
12
12
12
12
12
12
12
12
12
12
12
12
12
12
12
12
12
12
12
12
12
12
12
12
12
12
12
12
12
12
12
12
12
12
12
12
12
12
12
12
12
12
12
12
12
12
12
12
12
12
12
12
12
12
12
12
12
12
12
12
12
12
12
12
12
12
12
12
12
12
12
12
12
12
12
12
12
12
12
12
12
12
12
12
12
12
12
12
12
12
12
12
12
12
12
12
12
12
12
12
12
12
12
12
12
12
12
12
12
12
12
12
12
12
12
12
12
12
12
12
12
12
12
12
12
12
12
12
12
12
12
12
12
12
12
12
12
12
12
12
12
12
12
12
12
12
12
12
12
12
12
12
12
12
12
12
12
12
12
12
12
12
12
12
12
12
12
12
12
12
12
12
12
12
12
12
12
12
12
12
12
12
12
12
12
12
12
12
12
12
12
12
12
12
12
12
12
12
12
12
12
12
12
12
12
12
12
12
12
12
12
12
12
12
12
12
12
12
12
12
12
12
12
12
12
12
12
12
12
12
12
12
12
12
12
12
12
12
12
12
12
12
12
12
12
12
12
12
12
12
12
12
12
12
12
12
12
12
12
12
12
12
12
12
12
12
12
12
12
12
12
12
12
12
12
12
12
12
12
12
12
12
12
12
12
12
12
12
12
12
12
12
12
12
12
12
12
12
12
12
12
12
12
12
12
12
12
12
12
12
12
12
12
12
12
12
12
12
12
12
12
12
12
12
12
12
12
12
12
12
12
12
12
12
12
12
12
12
12
12
12
12
12
12
12
12
12
12
12
12
12
12
12
12
12
12
12
12
12
12
12
12
12
12
12
12
12
12
12
12
12
12
12
12
12
12
12
12
12
12
12
12
12
12
12
12
12
12
12
12
12
12
12
12
12
12
12
12
12
12
12
12
12
12
12
12
12
12
12
12
12
12
12
12
12
12
12
12
12
12
12
12
12
12
12
12
12
12
12
12
12
12
12
12
12
12
12
12
12
12
12
12
12
12
12
12
12
12
12
12
12
12
12
12
12
12
12
12
12
12
12
12
12
12
12
12
12
12
12
12
12
12
12
12
12
12
12
12
12
12
12
12
12
12
12
12
12
12
12
12
12
12
12
12
12
12
12
12
12
12
12
12
12
12
12
12
12
12
12
12
12
12
12
12
12
12
12
12
12
12
12
12
12
12
12
12
12
12
12
12
12
12
12
12
12
12
12
12
12
12
12
12
12
12
12
12
12
12
12
12
12
12
12
12
12
12
12
12
12
12
12
12
12
12
12
12
12
12
12
12
12
12
12
12
12
12
12
12
12
12
12
12
12
12
12
12
12
12
12
12
12
12
12
12
12
12
12
12
12
12
12
12
12
12
12
12
12
12
12
12
12
12
12
12
12
12
12
12
12
12
12
12
12
12
12
12
12
12
12
12
12
12
12
12
12
12
12
12
12
12
12
12
12
12
12
12
12
12
12
12
12
12
12
12
12
12
12
12
12
12
12
12
12
12
12
12
12
12
12
12
12
12
12
12
12
12
12
12
12
12
12
12
12
12
12
12
12
12
12
12
12
12
12
12
12
12
12
12
12
12
12
12
12
12
12
12
12
12
12
12
12
12
12
12
12
12
12
12
12
12
12
12
12
12
12
12
12
12
12
12
12
12
12
12
12
12
12
12
12
12
12
12
12
12
12
12
12
12
12
12
12
12
12
12
12
12
12
12
12
12
12
12
12
12
12
12
12
12
12
12
12
12
12
12
12
12
12
12
12
12
12
12
12
12
12
12
12
12
12
12
12
12
12
12
12
12
12
12
12
12
12
12
12
12
12
12
12
12
12
12
12
12
12
12
12
12
12
12
12
12
12
12
12
12
12
12
12
12
12
12
12
12
12
12
12
12
12
12
12
12
12
12
12
12
12
12
12
12
12
12
12
12
12
12
12
12
12
12
12
12
12
12
12
12
12
12
12
12
12
12
12
12
12
12
12
12
12
12
12
12
12
12
12
12
12
12
12
12
12
12
12
12
12
12
12
12
12
12
12
12
12
12
12
12
12
12
12
12
12
12
12
12
12
12
12
12
12
12
12
12
12
12
12
12
12
12
12
12
12
12
12
12
12
12
12
12
12
12
12
12
12
12
12
12
12
12
12
12
12
12
12
12
12
12
12
12
12
12
12
12
12
12
12
12
12
12
12
12
12
12
12
12
12
12
12
12
12
12
12
12
12
12
12
12
12
12
12
12
12
12
12
12
12
12
12
12
12
12
12
12
12
12
12
12
12
12
12
12
12
12
12
12
12
12
12
12
12
12
12
12
12
12
12
12
12
12
12
12
12
12
12
12
12
12
12
12
12
12
12
12
12
12
12
12
12
12
12
12
12
12
12
12
12
12
12
12
12
12
12
12
12
12
12
12
12
12
12
12
12
12
12
12
12
12
12
12
12
12
12
12
12
12
12
12
12
12
12
12
12
12
12
12
12
12
12
12
12
12
12
12
12
12
12
12
12
12
12
12
12
12
12
12
12
12
12
12
12
12
12
12
12
12
12
12
12
12
12
12
12
12
12
12
12
12
12
12
12
12
12
12
12
12
12
12
12
12
12
12
12
12
12
12
12
12
12
12
12
12
12
12
12
12
12
12
12
12
12
12
12
12
12
12
12
12
12
12
12
12
12
12
12
12
12
12
12
12
12
12
12
12
12
12
12
12
12
12
12
12
12
12
12
12
12
12
12
12
12
12
12
12
12
12
12
12
12
12
12
12
12
12
12
12
12
12
12
12
12
12
12
12
12
12
12
12
12
12
12
12
12
12
12
12
12
12
12
12
12
12
12
12
12
12
12
12
12
12
12
12
12
12
12
12
12
12
12
12
12
12
12
12
12
12
12
12
12
12
12
12
12
12
12
12
12
12
12
12
12
12
12
12
12
12
12
12
12
12
12
12
12
12
12
12
12
12
12
12
12
12
12
12
12
12
12
12
12
12
12
12
12
12
12
12
12
12
12
12
12
12
12
12
12
12
12
12
12
12
12
12
12
12
12
12
12
12
12
12
12
12
12
12
12
12
12
12
12
12
12
12
12
12
12
12
12
12
12
12
12
12
12
12
12
12
12
12
12
12
12
12
12
12
12
12
12
12
12
12
12
12
12
12
12
12
12
12
12
12
12
12
12
12
12
12
12
12
12
12
12
12
12
12
12
12
12
12
12
12
12
12
12
12
12
12
12
12
12
12
12
12
12
12
12
12
12
12
12
12
12
12
12
12
12
12
12
12
12
12
12
12
12
12
12
12
12
12
12
12
12
12
12
12
12
12
12
12
12
12
12
12
12
12
12
12
12
12
12
12
12
12
12
12
12
12
12
12
12
12
12
12
12
12
12
12
12
12
12
12
12
12
12
12
12
12
12
12
12
12
12
12
12
12
12
12
12
12
12
12
12
12
12
12
12
12
12
12
12
12
12
12
12
12
12
12
12
12
12
12
12
12
12
12
12
12
12
12
12
12
12
12
12
12
12
12
12
12
12
12
12
12
12
12
12
12
12
12
12
12
12
12
12
12
12
12
12
12
12
12
12
12
12
12
12
12
12
12
12
12
12
12
12
12
12
12
12
12
12
12
12
12
12
12
12
12
12
12
12
12
12
12
12
12
12
12
12
12
12
12
12
12
12
12
12
12
12
12
12
12
12
12
12
12
12
12
12
12
12
12
12
12
12
12
12
12
12
12
12
12
12
12
12
12
12
12
12
12
12
12
12
12
12
12
12
12
12
12
12
12
12
12
12
12
12
12
12
12
12
12
12
12
12
12
12
12
12
12
12
12
12
12
12
12
12
12
12
12
12
12
12
12
12
12
12
12
12
12
12
12
12
12
12
12
12
12
12
12
12
12
12
12
12
12
12
12
12
12
12
12
12
12
12
12
12
12
12
12
12
12
12
12
12
12
12
12
12
12
12
12
12
12
12
12
12
12
12
12
12
12
12
12
12
12
12
12
12
12
12
12
12
12
12
12
12
12
12
12
12
12
12
12
12
12
12
12
12
12
12
12
12
12
12
12
12
12
12
12
12
12
12
12
12
12
12
12
12
12
12
12
12
12
12
12
12
12
12
12
12
12
12
12
12
12
12
12
12
12
12
12
12
12
12
12
12
12
12
12
12
12
12
12
12
12
12
12
12
12
12
12
12
12
12
12
12
12
12
12
12
12
12
12
12
12
12
12
12
12
12
12
12
12
12
12
12
12
12
12
12
12
12
12
12
12
12
12
12
12
12
12
12
12
12
12
12
12
12
12
12
12
12
12
12
12
12
12
12
12
12
12
12
12
12
12
12
12
12
12
12
12
12
12
12
12
12
12
12
12
12
12
12
12
12
12
12
12
12
12
12
12
12
12
12
12
12
12
12
12
12
12
12
12
12
12
12
12
12
12
12
12
12
12
12
12
12
12
12
12
12
12
12
12
12
12
12
12
12
12
12
12
12
12
12
12
12
12
12
12
12
12
12
12
12
12
12
12
12
12
12
12
12
12
12
12
12
12
12
12
12
12
12
12
12
12
12
12
12
12
12
12
12
12
12
12
12
12
12
12
12
12
12
12
12
12
12
12
12
12
12
12
12
12
12
12
12
12
12
12
12
12
12
12
12
12
12
12
12
12
12
12
12
12
12
12
12
12
12
12
12
12
12
12
12
12
12
12
12
12
12
12
12
12
12
12
12
12
12
12
12
12
12
12
12
12
12
12
12
12
12
12
12
12
12
12
12
12
12
12
12
12
12
12
12
12
12
12
12
12
12
12
12
12
12
12
12
12
12
12
12
12
12
12
12
12
12
12
12
12
12
12
12
12
12
12
12
12
12
12
12
12
12
12
12
12
12
12
12
12
12
12
12
12
12
12
12
12
12
12
12
12
12
12
12
12
12
12
12
12
12
12
12
12
12
12
12
12
12
12
12
12
12
12
12
12
12
12
12
12
12
12
12
12
12
12
12
12
12
12
12
12
12
12
12
12
12
12
12
12
12
12
12
12
12
12
12
12
12
12
12
12
12
12
12
12
12
12
12
12
12
12
12
12
12
12
12
12
12
12
12
12
12
12
12
12
12
12
12
12
12
12
12
12
12
12
12
12
12
12
12
12
12
12
12
12
12
12
12
12
12
12
12
12
12
12
12
12
12
12
12
12
12
12
12
12
12
12
12
12
12
12
12
12
12
12
12
12
12
12
12
12
12
12
12
12
12
12
12
12
12
12
12
12
12
12
12
12
12
12
12
12
12
12
12
12
12
12
12
12
12
12
12
12
12
12
12
12
12
12
12
12
12
12
12
12
12
12
12
12
12
12
12
12
12
12
12
12
12
12
12
12
12
12
12
12
12
12
12
12
12
12
12
12
12
12
12
12
12
12
12
12
12
12
12
12
12
12
12
12
12
12
12
12
12
12
12
12
12
12
12
12
12
12
12
12
12
12
12
12
12
12
12
12
12
12
12
12
12
12
12
12
12
12
12
12
12
12
12
12
12
12
12
12
12
12
12
12
12
12
12
12
12
12
12
12
12
12
12
12
12
12
12
12
12
12
12
12
12
12
12
12
12
12
12
12
12
12
12
12
12
12
12
12
12
12
12
12
12
12
12
12
12
12
12
12
12
12
12
12
12
12
12
12
12
12
12
12
12
12
12
12
12
12
12
12
12
12
12
12
12
12
12
12
12
12
12
12
12
12
12
12
12
12
12
12
12
12
12
12
12
12
12
12
12
12
12
12
12
12
12
12
12
12
12
12
12
12
12
12
12
12
12
12
12
12
12
12
12
12
12
12
12
12
12
12
12
12
12
12
12
12
12
12
12
12
12
12
12
12
12
12
12
12
12
12
12
12
12
12
12
12
12
12
12
12
12
12
12
12
12
12
12
12
12
12
12
12
12
12
12
12
12
12
12
12
12
12
12
12
12
12
12
12
12
12
12
12
12
12
12
12
12
12
12
12
12
12
12
12
12
12
12
12
12
12
12
12
12
12
12
12
12
12
12
12
12
12
12
12
12
12
12
12
12
12
12
12
12
12
12
12
12
12
12
12
12
12
12
12
12
12
12
12
12
12
12
12
12
12
12
12
12
12
12
12
12
12
12
12
12
12
12
12
12
12
12
12
12
12
12
12
12
12
12
12
12
12
12
12
12
12
12
12
12
12
12
12
12
12
12
12
12
12
12
12
12
12
12
12
12
12
12
12
12
12
12
12
12
12
12
12
12
12
12
12
12
12
12
12
12
12
12
12
12
12
12
12
12
12
12
12
12
12
12
12
12
12
12
12
12
12
12
12
12
12
12
12
12
12
12
12
12
12
12
12
12
12
12
12
12
12
12
12
12
12
12
12
12
12
12
12
12
12
12
12
12
12
12
12
12
12
12
12
12
12
12
12
12
12
12
12
12
12
12
12
12
12
12
12
12
12
12
12
12
12
12
12
12
12
12
12
12
12
12
12
12
12
12
12
12
12
12
12
12
12
12
12
12
12
12
12
12
12
12
12
12
12
12
12
12
12
12
12
12
12
12
12
12
12
12
12
12
12
12
12
12
12
12
12
12
12
12
12
12
12
12
12
12
12
12
12
12
12
12
12
12
12
12
12
12
12
12
12
12
12
12
12
12
12
12
12
12
12
12
12
12
12
12
12
12
12
12
12
12
12
12
12
12
12
12
12
12
12
12
12
12
12
12
12
12
12
12
12
12
12
12
12
12
12
12
12
12
12
12
12
12
12
12
12
12
12
12
12
12
12
12
12
12
12
12
12
12
12
12
12
12
12
12
12
12
12
12
12
12
12
12
12
12
12
12
12
12
12
12
12
12
12
12
12
12
12
12
12
12
12
12
12
12
12
12
12
12
12
12
12
12
12
12
12
12
12
12
12
12
12
12
12
12
12
12
12
12
12
12
12
12
12
12
12
12
12
12
12
12
12
12
12
12
12
12
12
12
12
12
12
12
12
12
12
12
12
12
12
12
12
12
12
12
12
12
12
12
12
12
12
12
12
12
12
12
12
12
12
12
12
12
12
12
12
12
12
12
12
12
12
12
12
12
12
12
12
12
12
12
12
12
12
12
12
12
12
12
12
12
12
12
12
12
12
12
12
12
12
12
12
12
12
12
12
12
12
12
12
12
12
12
12
12
12
12
12
12
12
12
12
12
12
12
12
12
12
12
12
12
12
12
12
12
12
12
12
12
12
12
12
12
12
12
12
12
12
12
12
12
12
12
12
12
12
12
12
12
12
12
12
12
12
12
12
12
12
12
12
12
12
12
12
12
12
12
12
12
12
12
12
12
12
12
12
12
12
12
12
12
12
12
12
12
12
12
12
12
12
12
12
12
12
12
12
12
12
12
12
12
12
12
12
12
12
12
12
12
12
12
12
12
12
12
12
12
12
12
12
12
12
12
12
12
12
12
12
12
12
12
12
12
12
12
12
12
12
12
12
12
12
12
12
12
12
12
12
12
12
12
12
12
12
12
12
12
12
12
12
12
12
12
12
12
12
12
12
12
12
12
12
12
12
12
12
12
12
12
12
12
12
12
12
12
12
12
12
12
12
12
12
12
12
12
12
12
12
12
12
12
12
12
12
12
12
CELL_DATA 9640 
FIELD FieldData  2
density 1 9640 float
0.9382218810438561
0.0934193813965808
0.3036826037719387
0.4347214663551633
0.882172061338952
0.9223385002764933
0.0010000033001772589
0.11396843542268893
0.7772141963806207
0.9942627298113831
0.9022182655566114
0.08929313814826659
0.4759690688616861
0.34669455404382843
0.03342791338193839
0.09156075194176812
0.7165655652729911
0.02383247419298505
0.9901055650519085
0.9555175492243422
0.8269464838143774
0.9213247959164641
0.001009557789629117
0.13150765138097545
0.16862343599540952
0.10611840715244795
0.043989222891894914
0.0010000205583161554
0.4677232117422771
0.008312794054173435
0.007693258425089496
0.9361843744189746
0.886800462299667
0.006434829691001312
0.9823056868139581
0.8360183534299414
0.7742378704320824
0.09951393711571195
0.0010002053475808095
0.44405733625976646
0.0031838145960037443
0.0012230490454326393
0.0010005201615138233
0.6080641939571373
0.0010121302001263233
0.0010000084964184102
0.6499828043340817
0.8216436662443979
0.0010002637153069785
0.0010154678717953494
0.9336917839482886
0.8817743262672657
0.48468188864011047
0.006564876353198333
0.8386173390144445
0.0010947512768504101
0.021129874010342185
0.0012503295182722004
0.31269107304383703
0.9807698496888833
0.5850898471357082
0.0010000000031179974
0.00993807052274982
0.0010023194469817053
0.19967220099626917
0.0010102248554726282
0.9558008282045255
0.025627923879778233
0.4683041829930271
0.9252656623661043
0.48592279963861257
0.8240883846208447
0.001016240582732487
0.8047358469775139
0.18194811172546857
0.0010000136977444652
0.004764920892345632
0.37962052429170434
0.0010000003770952587
0.0010000221096696821
0.0010820495404008223
0.4541871919545402
0.0017973433741459547
0.8920519209330863
0.01348907984434606
0.0010000566404751385
0.0010000724589660337
0.9416939891939505
0.0033153740537854933
0.9951224828470818
0.9990205407367233
0.9184574443963228
0.5469257531289905
0.0010048085413042053
0.9120123931620001
0.478509209634486
0.7572726691084771
0.005169271606592302
0.800736593773764
0.0032578777467058406
0.9950015479134982
0.9983355241540122
0.001000052027292461
0.00295312016681266
0.001039289394397227
0.027406791636473075
0.9758993863715169
0.6100715813338756
0.21614901331296968
0.0010149831254143678
0.0010000074707581712
0.3863151080139206
0.001000193978586816
0.0013194899423185269
0.00100006329427562
0.0010030134245689595
0.04073461202494185
0.0011075105891208633
0.12371205738753092
0.11710975032167197
0.8963835339200297
0.9873785349927706
0.9942525648262791
0.0018554942381327193
0.0010001455323692555
0.0010134852752945525
0.001100453760937256
0.002373690481534631
0.011001658649741501
0.6941057682136608
0.19877229693953535
0.9869887884547409
0.0010206807352189874
0.5458506783679642
0.9727112204182151
0.21802860041031677
0.9940963714847414
0.0018035002837406575
0.030626113988539264
0.6102356192857393
0.9086693135960197
0.34771552977546444
0.6851576935269832
0.9847377991341927
0.09178558839723187
0.05865737572963878
0.005989555028091902
0.6691370943098343
0.549955179471834
0.02656385465660574
0.2855413618150511
0.003716307159188515
0.0010014298382240454
0.6459833186848093
0.9059680398336135
0.0309094511697677
0.028457618716390243
0.9510745891669219
0.9638931292512254
0.30946640177496637
0.5791659790059935
0.8544778031885538
0.829685051768348
0.003519170139290004
0.0011011523876357724
0.009652431439243703
0.0015668323854507104
0.9924252807082952
0.9633231671206846
0.2588482513222434
0.9685737544372169
0.9731168266130005
0.9919543864592102
0.001514746496269277
0.04190824642221799
0.0010000880751958713
0.0010124705036427656
0.8789194404796746
0.9555894025226158
0.0013903146193237255
0.01685350209790155
0.008716717077588606
0.09160454972091917
0.09416390377690567
0.9994975561919591
0.0010082713799602903
0.00462946043458566
0.2269481726805247
0.007081792711737118
0.6425779131169606
0.9656453263077834
0.7208742537287163
0.0014605698359827673
0.7278963067241824
0.0014733482061900945
0.9983580106057672
0.0880614041893743
0.6278241060862888
0.9968707937200436
0.8066380889775683
0.35820848904368724
0.9323734769266742
0.0010016354328638245
0.0013511713090223003
0.1997164315541708
0.16493409245458776
0.8050691765192879
0.003610702277769472
0.5786152254061215
0.9476441252642235
0.7364611970027398
0.9050387558700563
0.0010830816243251361
0.001957026387803485
0.9762074626434402
0.0010000007783469397
0.002797626279037654
0.998773593983957
0.18775046591820838
0.0010000064935496466
0.738087458530196
0.006432443428267563
0.9704239520694768
0.9271205062475227
0.9869766985294058
0.9972192999160349
0.39959967689272896
0.8894482631106987
0.0010002332025683704
0.7246453356235395
0.950066970775039
0.0010842615053622737
0.06123276859056483
0.001000000422468463
0.04111501199956645
0.001000001410590855
0.8247934787212847
0.6694417094960399
0.6162196083949596
0.1853976034518379
0.3683927641191123
0.18998742957696585
0.0010158495155172898
0.9722926359618781
0.001237150697116914
0.0010042853336519036
0.0426204313881106
0.6944290664867345
0.7916043056271715
0.8473225174867121
0.5162057658752659
0.5425037298541886
0.9235953025362637
0.8086010931660165
0.8837968510365515
0.030502477228537397
0.9448540096861551
0.4133653280880975
0.0010000332978695313
0.0010000014484985622
0.001025513966020348
0.9993144517452082
0.024669206421804223
0.007092216688891716
0.0012688702390504666
0.07493561097055829
0.008990674761056226
0.0013024439182963358
0.06451578758763764
0.2504574729779612
0.9306272340171596
0.010070932028234222
0.9403262855528797
0.9909011259661354
0.9338035352126974
0.99752206554092
0.0071899919849404935
0.0010000034967695755
0.014990859401566005
0.8312982950108013
0.0010000038257725625
0.0010010405747612012
0.9942121385098747
0.9821345054589735
0.001220477166353866
0.957446355121213
0.0010000002709681722
0.001001042901607234
0.10518676808755154
0.0010000051758799712
0.8971164893748446
0.08678766122277112
0.8474130728777226
0.943232011947944
0.39842641700894804
0.8475014784171475
0.27359627060147956
0.0010002530192435941
0.11864860278608408
0.07856047630723793
0.012770196964734692
0.0010000200729426772
0.9787522139060423
0.5938219546821695
0.004380381027452265
0.0010663835964100077
0.38269217853669435
0.15452945281867492
0.021996548575655864
0.01269647347342602
0.011246206171952183
0.05798272385973173
0.003020280124597909
0.3352285264445202
0.050769503011937105
0.412663665269894
0.004496189315293999
0.0010604575706595401
0.0010000000000860991
0.0020312287656425684
0.953886435795058
0.9972300257499336
0.001002324892860534
0.0023280692597283255
0.9011425536230593
0.008839491331300707
0.00100001093596851
0.7049388791078166
0.6505951468776839
0.0010783647045084438
0.001008825526282005
0.0010124456779665423
0.0010148394842017646
0.001000505485958384
0.0010553834437878912
0.00519234650852749
0.785289492500712
0.9900893046068143
0.8932088748142787
0.002348048260412623
0.6004281010842705
0.9926660085825266
0.9849481583451095
0.001000056197904263
0.04561605522678333
0.21102585347102243
0.2171119258998912
0.8002876306791912
0.782248742073259
0.7648883505565552
0.6727989334227821
0.0010003248634788558
0.9756268952503535
0.9877146497022858
0.9076990121373433
0.006190921245711912
0.9792225780094028
0.9907185221602459
0.001035708574208891
0.0010000815088767072
0.9576884751612706
0.2401008144906798
0.6481274076760322
0.012196737844490484
0.0010000861511266146
0.9198457634253212
0.9802655180534995
0.001018900855411518
0.3749219142844527
0.0010040551166134702
0.17072047870740809
0.4175803602668145
0.983239208380538
0.991636961077524
0.3422499416813458
0.15070464098714567
0.00100009673711112
0.11083192687160012
0.9115095131463813
0.0017172876240823273
0.00677480078233702
0.001000000005379366
0.9108612101155678
0.006954542658997538
0.0010366541488927505
0.41507301937172647
0.6036697408057897
0.03587916649607408
0.002571260233401036
0.0010000004765613642
0.0062863623426420495
0.7406141698108994
0.8703282021370594
0.037776613577349565
0.7191040388982874
0.0010003241801035568
0.011869263793112237
0.6051040396827067
0.08563049665448712
0.0031042916802886855
0.9886880147297638
0.8627508183682531
0.9061478651047677
0.09517903588842008
0.0010000000381995822
0.9941324683499185
0.046757427554188255
0.008411809828905032
0.0011873945944000856
0.0012368260870203361
0.025948246846965575
0.006765906118452458
0.001001611022650675
0.0010068506051422593
0.6398458700923141
0.9115973035387351
0.1293840543441309
0.12764186586949736
0.837972023304435
0.0015809927859113243
0.0010771175906810196
0.8259366776999102
0.0036929153534548463
0.7739452037278893
0.9862914023028057
0.01562866524328957
0.0030505971401166765
0.33641168464947857
0.4817986532182788
0.8313189584683727
0.41971568149938243
0.9443318314154753
0.05590049971676147
0.05830905308918956
0.33989682686940753
0.4592477753672396
0.3336280260758004
0.6675338024802335
0.6994317984334104
0.9220805846731686
0.0010042402015988366
0.8892476783641413
0.01058135845297948
0.2595341253235175
0.09251442926035132
0.1163182762654813
0.0010050294058365804
0.0010005851284452282
0.0010000016358045385
0.1133226539252305
0.456829776832502
0.0026803631883994287
0.9960505631722844
0.745350003861596
0.9765966470228196
0.3419895572958994
0.14718418674583936
0.0010614853695846028
0.0010000378682784915
0.533160407058186
0.5267708586207487
0.9567965283165575
0.6922642850807726
0.38079515201926817
0.001005613824180965
0.05123363579944183
0.00215127389004008
0.9002534575368372
0.8674869373709605
0.2729322707555482
0.11255593593075774
0.9636644798251224
0.0010133110084524694
0.0010000838077851549
0.0014360714214442555
0.19408960572700817
0.8503273841766842
0.9539038419960837
0.9007943604274925
0.28822842381454933
0.001165668154292038
0.028301022825365955
0.8100977725485605
0.9629832740279817
0.016327861273799652
0.29848096234271304
0.08620567707438051
0.8409732784996282
0.0011018136247928454
0.0012482654836756303
0.011239522474120137
0.015790524110304925
0.0010010501569024384
0.4974250056184163
0.005092122485685617
0.40140811907043006
0.4712177429035277
0.0013200800256703187
0.6842077797979675
0.1895900486909016
0.7626575119177033
0.2097807392172879
0.001001373980185172
0.0010004684474647365
0.6819483798345866
0.07514778117635
0.0010215360967756654
0.02329691681768416
0.0010277917784137169
0.930863466408808
0.0010244585739277588
0.17477968508375402
0.10262476227250128
0.7217180480619289
0.5973801751543504
0.47312097609675163
0.851975229415031
0.041984592001904755
0.15281944075719828
0.6248073102929556
0.0044658245541426495
0.0016160217898343217
0.9883964627006973
0.9934265767262422
0.001781222635155241
0.0010000280783843281
0.016911828501118904
0.0010053196256833625
0.8194990350513774
0.9984123756501723
0.0010000165411128972
0.0011015120159159968
0.19553990810222077
0.25240457945006717
0.02413878694025255
0.9343901070201208
0.9966836069050896
0.0010081193766997992
0.7534826478290441
0.8874107279677366
0.09930999337098723
0.005643407922338642
0.0010827779737440785
0.13114729926770052
0.22089357043513802
0.19429051882547155
0.17208700625643714
0.0010537601820234514
0.987251807668439
0.001000369310631386
0.3116324702572068
0.1691588649700397
0.001412703266265663
0.4268842800334581
0.2378452068604913
0.001000000049195145
0.38323808062006604
0.982863378697748
0.001029136249615155
0.010429972208182689
0.9810368000186552
0.9509788103999101
0.9995591228743387
0.9505914220160009
0.41919271711538997
0.16315834357452097
0.0010001501651189845
0.9239605417422172
0.00200850213531349
0.0031115177134483506
0.028111207223368455
0.3614669459080253
0.1251454672471388
0.8048566866721364
0.0010661457846745479
0.07937302127709729
0.9924616154670002
0.9475703496184105
0.0010113156888329298
0.010056475884899743
0.02131263705456304
0.0010160945595589091
0.010313313866100921
0.0010013699672613546
0.07145500634164083
0.5315999151034896
0.0010068572297325584
0.0032519819342518978
0.5444039646794868
0.0010016644610324114
0.8947388188638625
0.15216767632951195
0.8787969217169854
0.9233141142144475
0.08300519260968561
0.0010450431645745194
0.012892164750483156
0.36131467645694076
0.7121975891070096
0.0010009318322233846
0.15624564768392313
0.0010254836095983867
0.0010062680110550044
0.43137919687333504
0.013529350188756756
0.003135982667673019
0.6642227240472345
0.0010309982770552932
0.6966330192910664
0.9751975704392566
0.001000004299787522
0.0010035385187494915
0.0022344040927996297
0.0010181139965971633
0.9569872072701981
0.7315473651708269
0.8375123613983589
0.0010000060925343896
0.3132392949560462
0.9889351005270468
0.002681110058086954
0.0010104129594008795
0.29861586544465135
0.9940626789948487
0.5231704988760383
0.9905311981338644
0.9107080348541309
0.0010011835186126662
0.001246044332184529
0.9661772623580808
0.2826508096244981
0.09730347876170532
0.001001148521467862
0.8286925539111224
0.9618960155840444
0.001010747348017443
0.6046860261313997
0.0040440857696535035
0.2728360190179673
0.001000000409092895
0.18270528296494407
0.0010219319436757099
0.0010000516711238527
0.0010095945265138908
0.8719874037842308
0.9069840671036813
0.9857523717222226
0.30723963204561267
0.8447429101329101
0.9462366614617217
0.07630562253666887
0.025802497157819026
0.4713589180586039
0.25309633868620146
0.9395009433946387
0.026121847368064638
0.0386271182257967
0.0012587092536764538
0.010218338696611397
0.0010000014934760438
0.21014372794393416
0.0015842993440104765
0.011032219061807486
0.9675994579199363
0.0018468543514283896
0.008895538643435903
0.8041283376630133
0.04794962947268852
0.14673178513464638
0.0010045783946049994
0.013303457634083613
0.8964261648496684
0.001000001545558597
0.0010019286220311553
0.028677320375309373
0.0018687537704772067
0.001006219577032737
0.013623650702068994
0.0010024065396237894
0.8245250505236509
0.022034749895290345
0.0012213741017936615
0.4519602828773603
0.912883896783995
0.001000168980878749
0.980362190994311
0.035789505342456
0.8244492919700638
0.0010173244495747657
0.6995068726192867
0.5237940187690501
0.20001928144510378
0.003451930561185024
0.08533911899057003
0.0010000000635521547
0.35945408375919613
0.01731250532615125
0.9918967873833046
0.15099646503498537
0.3688967547140607
0.9798421057517894
0.0010060338654034567
0.009091105203412626
0.012966084820398599
0.00579806469163004
0.0010000932420245671
0.8500979488046142
0.00406574870663909
0.00343445686785662
0.0018841824293434708
0.9584199052713116
0.021996220522116812
0.002518098570690541
0.0010002904274733812
0.9972580328081229
0.999754584112937
0.5503434914159112
0.004704544464993084
0.0021513950342045584
0.0010004580943717718
0.9071510902200648
0.0010853224913093765
0.7970986052660877
0.8562003243176668
0.0010001359174213083
0.001003156333415587
0.001056144326576732
0.0010000000284741935
0.0011097343600373485
0.9841558306623972
0.9899882092024785
0.9630584616267688
0.22427820579307708
0.0010002163560651092
0.05095483377195864
0.0025781374663932386
0.7916246898202965
0.0011168625693748137
0.0010000255540386397
0.0010026586568142423
0.19259933632309853
0.02211440625609169
0.0010000000259901907
0.0016390854401232163
0.0014702660781375566
0.0010060023863361993
0.0010388570595033769
0.22504441047505425
0.6311977596274528
0.8871472299590542
0.9441152031787087
0.9440033700030039
0.9901536739117748
0.07502271640188647
0.0013885631091652912
0.39839157221381366
0.9710907330521749
0.9900625732140037
0.0012283783459426999
0.35046127591580684
0.7820364275311482
0.995788104424468
0.0010000000006254103
0.0010001947576508757
0.0010000009925837884
0.03217025977727316
0.5714435273313054
0.3094314980575999
0.991392779675477
0.9937464313494868
0.0010126160249854157
0.7475521475581688
0.6180811875382072
0.4483007791973468
0.927598970167794
0.04117360309647603
0.002051630431790863
0.5795020898299335
0.9267839586746368
0.0010000143666904996
0.0010053054953678452
0.23287354092033624
0.0022150946578487632
0.0021947906636097256
0.006339982684864318
0.7523250358884914
0.007153630373328439
0.8199130661548347
0.0010000011060527013
0.0010000043898540946
0.12165574357532559
0.0010096268141879623
0.3704738274987985
0.9553345503428369
0.9902192997596757
0.01770246822486879
0.7208220009859129
0.8343402865066093
0.993166577394637
0.0013923086806684128
0.8844542099597509
0.9728867183110875
0.03940283335923457
0.22331776363878822
0.0011136928224682804
0.044866821991160016
0.392161112059327
0.001000012254666843
0.0036292376935251674
0.4644483696542756
0.0010000007106516448
0.0023328763790241252
0.8964167690324106
0.0019723415674710526
0.9659393129855596
0.08636408476563416
0.9990553308109243
0.9645835540035457
0.9809550315739259
0.0011766976523678167
0.001010557017102825
0.005692759241181441
0.0010000004698059927
0.9968020490398132
0.3874583143612628
0.17651127302582553
0.0010009438986781495
0.0010955852721851792
0.980810456774796
0.0010000412665469949
0.16403146765253895
0.0010049813755444803
0.9852157538148982
0.9992761088315469
0.8289708279795829
0.5049346178042521
0.0010000000915322863
0.9347972379924551
0.0010000024689034515
0.015496738173386943
0.9315629583242463
0.0011373382190494282
0.001000137157751074
0.016702090314895775
0.8950951200679648
0.0010017656137926492
0.5538776711713463
0.003027783082687267
0.7609507335681694
0.9353721927465447
0.0010058320602795165
0.001000008971164027
0.5917432434533214
0.33807775383471256
0.8711643077693473
0.9917652979160629
0.0010328423357386868
0.001008870876349168
0.5798540896968338
0.001074022412606792
0.8640845199278153
0.001000140040612798
0.0010000091421834216
0.987687579864354
0.06682416832026006
0.0013353588823125273
0.9854147203761711
0.317573628078602
0.0010304791050070017
0.30324286090252317
0.001003722367698725
0.0010115035176867019
0.887951090210258
0.0010000158246299467
0.5565644608925436
0.9956591989293058
0.06015176833966315
0.9933767329877435
0.992222761721564
0.9969772044342854
0.0010552326051719038
0.0010000001178832197
0.6660519055537921
0.01281810010569736
0.9808734176665044
0.99924685526603
0.0012341136715817527
0.38756578449205786
0.596813117466151
0.8993381669682746
0.9108774284918282
0.4282245940343673
0.0026968108306075975
0.02496009408700519
0.0011834240551890694
0.3589653163228322
0.001000010051363521
0.9878473212386144
0.9799429115987571
0.027627156223675394
0.0010011146292838236
0.0010003794252003216
0.15540121171631116
0.7512381932702591
0.0010035580800011195
0.458296388881694
0.9971250447986078
0.24432292972445419
0.0035381696372889853
0.007140986941438307
0.001077706009045237
0.4049254502833888
0.9868354920742973
0.001000684987124435
0.0011326646301402224
0.9769625389760712
0.9772374453033885
0.9959550606460178
0.9501448030870219
0.7341167404393037
0.1819650656706224
0.025323015753712007
0.6094989844309916
0.2719733744194773
0.8745012666952354
0.2594282609197479
0.0017871928848098486
0.6236445735932407
0.9692475614738776
0.008132127131219836
0.7841711234141704
0.5464162258260474
0.1022551244191339
0.9043246739994724
0.001010417770475517
0.0010014526127012304
0.01260754305611082
0.4200895747858978
0.0017939497136872419
0.0010019206379745854
0.3499962561163103
0.24823935242644463
0.001055457764285384
0.00100003131225035
0.08121287672171013
0.7778073826467055
0.7746990209550425
0.9803851464635386
0.0016390088112212071
0.0028285490615535293
0.7313105189319427
0.8522211448203157
0.8915815837683055
0.7843977673086169
0.34305655258829476
0.08905148350570523
0.834451609330098
0.7410622974988225
0.49094842197123023
0.0013000548973502572
0.253049297844761
0.002016592162136401
0.01544632008399014
0.97461168045077
0.014429471945815748
0.0010000386066700557
0.13097041704475418
0.25092759379899654
0.0017471255459220172
0.725130796909788
0.3817307615993977
0.0010002258492269255
0.0010276888280301372
0.036956138190822434
0.03175113336216822
0.02826018206779769
0.0010000019428906672
0.4147196319654109
0.0010020153660391703
0.0010149071087484573
0.15432720978753595
0.0010041374298412392
0.0010036823367526736
0.0010407419048547109
0.18884712937514866
0.5519567317963706
0.0010234772857925574
0.12278902255612754
0.021986125805160284
0.0013502269080603708
0.16166015573203976
0.013872207193062876
0.001397662201584261
0.04663616703203498
0.30400436676654663
0.7013926618541788
0.4958387408331269
0.0013301233930264741
0.0017655442186367953
0.8650514293840902
0.0021258217303300395
0.6005586359678066
0.9566324733863802
0.6783150193368809
0.06385099809318404
0.025634659797112234
0.030051021984895822
0.0015969014894419676
0.001135860369026475
0.46255854655111367
0.9071135056429932
0.0010030137244225249
0.4462935725882534
0.7659033046670186
0.0023068887614561564
0.002509187499501452
0.9428284938512211
0.8083489391018168
0.7771136015373294
0.0010294138242686358
0.0013027280009695543
0.08628348718951562
0.17468202323582763
0.8837436551641994
0.0036731705357402676
0.11266244116128996
0.0010483372583163352
0.00697164663865606
0.9575946930402462
0.1294138518180661
0.7424278328454152
0.02522528464410033
0.001772371265870711
0.01951801176111055
0.1182557360550159
0.0010000000000160393
0.0012876090460516587
0.0010084451337590435
0.2526590891951364
0.32118375145401545
0.05401529921313741
0.6991984603920177
0.002233910802401425
0.9484096827491183
0.003286787989598855
0.5363203184235795
0.9939947147177489
0.649119415534658
0.004097159946286009
0.001035702334377006
0.04879076395365312
0.8149872118944529
0.8145525144993503
0.558013282302818
0.9082281010365871
0.09551019792779859
0.0074944513853026015
0.804049482123401
0.4445704533578376
0.001412485422559796
0.9623351321034761
0.8946680876006468
0.001000014591702728
0.9060301922555408
0.0010257489767570903
0.8752184691888949
0.9910989966625987
0.004840852897018788
0.43430894700249223
0.0043716124276202036
0.0028138888869555217
0.028875572829761963
0.9899977540960193
0.03713836176043563
0.0320718134209769
0.27954969429131327
0.9341995718016973
0.9777560892753442
0.888949873638917
0.12512717397218245
0.0010000088468911366
0.9758681187627675
0.0010656018309697347
0.07317810749783765
0.860929320525467
0.001001300361527328
0.740550694483725
0.22093100664060153
0.8058967672081165
0.4914611621158302
0.9885921939115444
0.32272239902480565
0.33183089066683347
0.0010000174062016055
0.0015827060033545112
0.4613273857569435
0.529704634391115
0.16232868445677492
0.0010738627495315656
0.9879986553313219
0.9070255766260702
0.7155327584655579
0.015417607654282656
0.0010000028665763246
0.8175542778614451
0.7860358301146414
0.08605659829727329
0.9837324980552038
0.6872317630594227
0.0010000279374849591
0.001112269322254581
0.001001982832280987
0.003338176625303314
0.9958246256852064
0.8579268284391351
0.0010020222339291798
0.694840721840418
0.010877989345999605
0.21198342425372466
0.9808575438364232
0.7064024782468699
0.01807198418288363
0.001079984258146107
0.015962360565121313
0.05446933650759837
0.07368710137404796
0.9412651268180918
0.09947708888645511
0.022415313460806097
0.0010200997738610063
0.987226032410258
0.0032971077355122935
0.7692365828637587
0.1698576902187306
0.04174259701336721
0.013153363104253878
0.1372593114190246
0.33594677279280527
0.9814772530006316
0.1850323752177216
0.5583638236247294
0.22689157498541254
0.21761627281791168
0.7981793421918854
0.887378211669837
0.0011501759067142209
0.841213389643401
0.001000003638082538
0.0010004049961270549
0.48352327284491814
0.9669385335542046
0.9633237401557109
0.9124164332289912
0.8177513317270102
0.0010080253652949174
0.9361488242079524
0.0451030707237295
0.8128607544627714
0.0011246426458461816
0.9945137662777728
0.8101127207997476
0.9902321534932573
0.2474419412450617
0.0010558086055240154
0.004728229955947252
0.0014914961984992853
0.00110574217262913
0.0012620315826328888
0.06979965599915643
0.019614352607628276
0.19595928639965593
0.03703068606052894
0.8934234674598202
0.006666811726235309
0.07030679759380314
0.017163198141810686
0.0011521848170613941
0.6561952419376149
0.9005843459059919
0.18823756396063007
0.0016687984061364487
0.908633071193679
0.30631432690881155
0.7477396815806484
0.9837809459226569
0.060901648638842794
0.018296886571503357
0.0011460442634275278
0.4351905651787906
0.001024088038682097
0.05607590341281092
0.0010001769101726868
0.896967401953442
0.5389762480685549
0.810806824615197
0.14084497319645073
0.001000000024302354
0.050355714413658735
0.8909138186746838
0.8199663306443771
0.4246096106916732
0.12431859067669801
0.001000151084593173
0.001008002096119293
0.11986228045435048
0.8766034488759149
0.0010000856982347345
0.019711834843573122
0.9982927784678713
0.897968593869445
0.8694172373025185
0.5517048398004256
0.0012050944930139334
0.0010000754107021023
0.1795833185573821
0.006967514924220429
0.002374084511575429
0.7977782352806392
0.4385959687823826
0.11464214946657465
0.962636968830433
0.03275866872848353
0.0028408490937433823
0.0010260855110019343
0.0010621323521216644
0.9156874946618965
0.003505365073320441
0.2417576037122327
0.0011325296059877016
0.8487887183286057
0.05526623811619812
0.011638145186047676
0.9357243298596105
0.027156781986705663
0.973261899856898
0.28713342784109264
0.29139715271545774
0.7798197403976376
0.0022414399316728
0.8500180432450049
0.08621248209324002
0.4082124940301474
0.001002530349368032
0.0010079855793846207
0.9111574855138497
0.002676507773331286
0.0010000161129781907
0.31730824196253427
0.0011700630528111732
0.060570130089741596
0.001000454769615619
0.16517312333113945
0.0022995739447891133
0.3625929940256938
0.9599064761141343
0.8600454318239916
0.6829899857290517
0.8664637550881413
0.0010000019063048618
0.0010622667209091404
0.00154313909101454
0.0011767609594078156
0.0010157504059693954
0.8683810074642173
0.0013620912605920694
0.994809218863296
0.9948563366752379
0.04651131288758909
0.010034678328159331
0.0014421604277240403
0.3831668301133105
0.006577116401705414
0.001001286850401155
0.8152246601974208
0.31962521557335893
0.015405754005153122
0.15320193727572698
0.23325704500530495
0.8527202821107572
0.0030287676930497737
0.9480638972652973
0.0012957565151404185
0.03376996224574101
0.0011231856341781513
0.024287806820125126
0.038151829944333186
0.954338275730448
0.9736935352027254
0.1857271275790574
0.7106782426819597
0.0019970385165436213
0.0010000006062145358
0.0010000017455740677
0.0010018468002834541
0.0010567702914132454
0.0018170428062097305
0.008314860622828735
0.001514160816051532
0.0027467396067949227
0.9392362664273749
0.07529850676315672
0.10688791424605858
0.49383717766090957
0.9431530020991369
0.006903283614855803
0.0010000245603553255
0.9860449394416859
0.001000328880980072
0.23136887376929363
0.9096153324550585
0.9674657172426783
0.7650952456045474
0.0010030260934655508
0.894259688857934
0.00131645466644671
0.00155019324235172
0.5768340831840462
0.9230859341864281
0.04015626526254912
0.009506928033025414
0.0010013648541643365
0.8778974211312517
0.9871905919643736
0.9271342596307424
0.0032839921341261138
0.001433364111886248
0.08034260794605748
0.19920516244430772
0.0016224107075484971
0.9828121086383002
0.9712091590812382
0.20953809639826523
0.0010304310576996541
0.07958844491559948
0.019554447801539625
0.9498354213396013
0.7764623062381019
0.034538875989633615
0.001819930206870687
0.0011610892725493612
0.0010001067444806561
0.7679954700498809
0.3589877368855521
0.0201203803441096
0.009306558429711613
0.9278507127869559
0.0010091722572657272
0.017584175431065274
0.6702931321159624
0.2698072669472021
0.9539822834653894
0.0012469071075306827
0.9300589684040824
0.08475814506027414
0.11714619715360092
0.49131720427225356
0.0010000122290530788
0.35495476531578624
0.0012730614370878909
0.9514766519899904
0.4550656796988296
0.14785829042800813
0.45174360330442975
0.0010000053607039352
0.03852025760189239
0.972453762063975
0.0010000115399326733
0.001401200095532806
0.1040577638018642
0.0010017827963026218
0.001005070444793206
0.0014411573702821797
0.0032919421063025214
0.0016126216900044796
0.011034995425275793
0.8800994053233264
0.031210943038897473
0.04351545944798963
0.9964161535146282
0.9910055081175608
0.953607501526279
0.001006112627905244
0.0010002938561156202
0.3745357850584008
0.654357866533185
0.0010337715087164736
0.003509576972281653
0.6916076864152995
0.9036828181799802
0.9993890035414358
0.967048722414058
0.26854727317345056
0.7336539457432193
0.11282297847793685
0.009510872175893019
0.998701176861636
0.008023647744551471
0.0020884535777003317
0.0010117088377307464
0.4186215934119509
0.10434647781751669
0.009227734800608428
0.0010680441574419139
0.0011963213186495982
0.0010002076280131197
0.06822717114673174
0.001000000000524944
0.6371160993863416
0.18928793866789803
0.08103991156388159
0.2082898829874162
0.4489288850215013
0.17977777775593767
0.003403223949493465
0.001000170669117701
0.0020671224410159254
0.5213261498469814
0.0011494030186081595
0.15585656430337902
0.9922878289500269
0.0011264110191905293
0.0010002301882833429
0.6629764969384855
0.2863454053777392
0.12574547862127972
0.003989460246746145
0.9676647241357401
0.014905400685690975
0.0010002151152962435
0.0010845445583513827
0.8924600603989645
0.0010000371328757476
0.0011340272414083884
0.0010067538905299098
0.09040802854633934
0.7611602067163394
0.048626253633574014
0.15497070636252153
0.3021859231657467
0.20902701709184834
0.79875603087978
0.8752772177737062
0.0010015201715954864
0.0010041596966803535
0.35968370897484986
0.9707668426666397
0.02139230160734887
0.2685670159143589
0.0010234353353234787
0.006213546371686459
0.001045723025317901
0.0010000093780910201
0.0010307917949407336
0.768784312867433
0.9969002491230571
0.9589805229573242
0.15916877639966076
0.6466775313370648
0.44691871718635184
0.005052570582836118
0.001036946347403992
0.684847573412862
0.002143423601239325
0.7576847107579697
0.0840614143226179
0.8460668747114678
0.17705478468986077
0.002799128774950481
0.0010023690785019228
0.7500834025702156
0.0021985524582329155
0.2973114844746073
0.5539087279621706
0.0421341139602784
0.5382828681962863
0.9154167730351601
0.38793010041312365
0.03644722721440585
0.06002946061820887
0.1546893120388321
0.0026271335826830826
0.9038358977291234
0.001001488492263149
0.18474237389567413
0.07592991715056062
0.9487658835913425
0.0046037077219207405
0.016629485939019552
0.8849271390836213
0.5098955643446434
0.0501114761433146
0.8849400940576952
0.18376247056976783
0.007016776267548834
0.2211603731572712
0.0010013675095745694
0.0010016035182796245
0.001282206908343882
0.9148396626413011
0.10374696275869294
0.3826575286439289
0.005264599554375337
0.0781139881912505
0.4458279477724792
0.0010865513153558027
0.0010000036161822267
0.011768122970444581
0.7697193277978832
0.9074516879212096
0.7858441908181573
0.06689050644421328
0.0013998499087459566
0.4238058672998061
0.08477691936909632
0.0010548364734798456
0.06423974140824236
0.5616136609845306
0.0010000011780634042
0.0010000001326001334
0.9314494778200286
0.09043997810676227
0.0031361839800693268
0.5946729970898215
0.0167092420377256
0.8188648400829974
0.9800245260848313
0.0010000599236382065
0.8581566801330046
0.6344957468114968
0.041009587898279146
0.9357629688044078
0.15127611578613365
0.0010011971329611856
0.0011270229273899787
0.645621383278627
0.2536884203270222
0.0021623455791585405
0.0010000004155418392
0.025234703099555434
0.9818202196523156
0.0010010278287846883
0.9972368582894098
0.005318330168157331
0.0010580927708327547
0.8753931104862055
0.012204688008062094
0.009203751066976126
0.04296167551422956
0.01218373752781662
0.0010393114728441428
0.7612490183632927
0.8131105966072733
0.0020576583830543673
0.4813563123208236
0.001029622430434087
0.005415210561250452
0.1632585284419214
0.953156217881172
0.26318210826872873
0.0011688092607543604
0.07285417174195194
0.6611048130183996
0.008052636438472958
0.0018874568588331646
0.0010850972266603241
0.982349425395009
0.0010000010985636426
0.0010488590748636772
0.008758911154820186
0.7586054121761392
0.0010002301143515013
0.8174826731102599
0.008609723522095832
0.37328120252437297
0.001000050226372632
0.954966811151779
0.9034826387048744
0.8477303155712105
0.93083958470333
0.03360321882439796
0.007743666312270456
0.1437085337571991
0.16487713438372287
0.06862622869450687
0.6628387128688062
0.0033521747308104923
0.9983521917090135
0.2807797225742213
0.0010034371251504833
0.4781130102498952
0.014801123080971791
0.0010400317639841562
0.6575180907246427
0.9863326798372579
0.001018012581454472
0.0010000184696401355
0.010596279761526533
0.001000000398282383
0.05857576416161855
0.9525774408102442
0.027495528719415522
0.9021877631806713
0.007829402482809427
0.49702274583866424
0.0012989774755168234
0.001000151769091098
0.001006439134325579
0.7699803733426916
0.26263571096565214
0.7094591197600048
0.44481416256785117
0.4959898672877215
0.654333966027144
0.9025840341968772
0.0011876904954485376
0.0019356525144855025
0.009657959622873712
0.8167324172117726
0.7487577961959297
0.0036399047580388515
0.0012297026807608152
0.0011094762571755036
0.0512823049579341
0.2377769198896526
0.3482514750652543
0.9922329908915519
0.30650291431249976
0.0011555268265203448
0.0013401823223286365
0.03670949825989178
0.8137854142673041
0.0899341058290537
0.001007275403839591
0.1308118277770022
0.756286876214276
0.03959669282246603
0.9882683355305294
0.9038756173595334
0.0010827216062686837
0.9082272376044446
0.8460965541782729
0.001000312011229329
0.878435357679997
0.0026370949619572205
0.6781353155951015
0.0010002106732498281
0.4410771369833167
0.005619447764838844
0.19616433355158505
0.42067498344483883
0.9254410708741548
0.0010001603782840863
0.7914714526892239
0.5532194102058486
0.3729444217089916
0.001011977144733072
0.0017205302727612269
0.04609724546975208
0.645474212802155
0.0010165079431825566
0.774517343604993
0.3799489970150086
0.888851715689901
0.938903360661052
0.7773913183959061
0.06343268931171271
0.0019212588016806402
0.7374019527027947
0.9684435791780769
0.9134813120914128
0.8249990719521625
0.001138890447591744
0.2530889226092785
0.05820739584463123
0.5196630376548157
0.9220770220283085
0.9211288805895179
0.0013080192114574701
0.35424147575534537
0.015283026542802156
0.8261374883829955
0.005344770463886104
0.0010388708944930854
0.31443984920112505
0.9509701361620917
0.0013838372997591502
0.0054536457396360824
0.07830799164656754
0.15408122802089463
0.942298825176307
0.3764854156897449
0.13461398155804227
0.4869051991784185
0.0017448418668015754
0.9187247935092037
0.8749287858390272
0.001982310279599649
0.7785625417365386
0.27409216004948295
0.11114787446704033
0.8711273653251602
0.00378327399072918
0.015891302270719176
0.5306840279516806
0.26142650906535764
0.3547703477203878
0.6033881236532626
0.16303206205050688
0.20761835504515658
0.006265694328246403
0.5122494864444883
0.22650519679656686
0.819946847931521
0.587916721289682
0.0010022991816718417
0.001003115850394384
0.00101618824942798
0.02178853829251473
0.9498505343819187
0.8086276103475013
0.31226573865607804
0.0027886423140520778
0.0027646084318336487
0.9380539942431144
0.8095386206516081
0.0010000847361317324
0.0020470381354309383
0.17394712576533108
0.4829531648503752
0.5652723502111731
0.008920210927855582
0.8448389652640003
0.0028657360975863962
0.7805878680747509
0.01321675645267276
0.11112837810101235
0.252824872369599
0.8399059751353242
0.6672213068701506
0.9218450986664174
0.005429991827152951
0.00820234607252538
0.8366912487762594
0.028602682939385008
0.0010196813715965393
0.0010040266589399604
0.0010000017715417378
0.001000228890593136
0.0010002200018603311
0.001011110683982314
0.609403852627381
0.9877785200524166
0.0010091843499268332
0.114025758600184
0.8428319942982931
0.6399380168952049
0.002775651166729988
0.0077495738475281736
0.05785028165865735
0.0026615158732369052
0.7140035229630018
0.5571938601270052
0.02474001485498314
0.002422888165385719
0.001024158086583765
0.9724898759318661
0.0010459003351100157
0.0017283782033660911
0.3670389597494983
0.80889950190821
0.002755153186913662
0.4623540348422564
0.1147196708245361
0.9134095980392974
0.9244108967401069
0.8933953996085513
0.0016494709950112354
0.0020329031726291054
0.8885719619921701
0.004247071598913447
0.0010000163420012737
0.0010123560709797133
0.08482372159284178
0.6184781954114739
0.8930919077179086
0.9231930986850272
0.9106274785613863
0.4537568584645774
0.009497478952232807
0.006248319025837902
0.002649986899738221
0.735579698670537
0.3791153092106981
0.0010099361385771475
0.2290390604071657
0.0011239789098147718
0.0010051453979052745
0.004979779756506864
0.09800988523840153
0.36314035362560343
0.0012199829938147986
0.16604364390533358
0.2212700160709976
0.5010216756828435
0.7780851071468619
0.028828487168322713
0.5657295797701636
0.0010000019535173332
0.0010000000697201234
0.7859023361373014
0.0010955842475968871
0.6941164891970258
0.0025368601484794667
0.045389972207814835
0.0010037404569355835
0.0011781658741938702
0.2902323253746563
0.029269605108965063
0.23528803151921687
0.44241054303334315
0.3807531058127462
0.4703972893043486
0.013009018188350152
0.024922342018937258
0.939094052943079
0.9917242469186932
0.9036264946990238
0.45439488760259944
0.2240266715254732
0.005027310277083824
0.26451985111534154
0.0010000002851234344
0.3136016030004519
0.4018293824460432
0.37712125372486227
0.001835214430234842
0.0011327288495655656
0.9210206679377835
0.7510033425390181
0.001003733211877914
0.012535789739133031
0.0011141113921860147
0.001102993962646733
0.435543979339816
0.07130803146399599
0.15119509981098486
0.9152414382294927
0.8067373299100066
0.8656724258832318
0.002927534555373523
0.00100017044901845
0.09744495138738589
0.18993059651822652
0.9579799867693223
0.12350818749369205
0.5054872625737131
0.0010014385055138373
0.3127879670435496
0.9605936832699417
0.8820061005939726
0.0043243869029553255
0.0010017705966645066
0.0013343365243065025
0.0016446417699778038
0.0010001089535908265
0.12046428135600018
0.5693220308287028
0.9270571945282625
0.8395212790175419
0.8519350356573209
0.7755792418319812
0.958929799148061
0.3540611589708949
0.0010096986370367958
0.6730226936573835
0.0019017925910850932
0.0010028630909905327
0.0010005857781204134
0.9497808424060624
0.7072488206479356
0.04446423436443247
0.0012051836909272712
0.9135770974784534
0.00595447417814083
0.5528961121692222
0.0010171482018781468
0.0011386738595607054
0.005533443022819846
0.13329357394219696
0.0010003406847510364
0.9713381732496765
0.011794995302516494
0.06901619571311973
0.00517532904455565
0.9590891759083852
0.8262680479838465
0.0010043744111512844
0.057064575165639404
0.001031889362533367
0.0010018210273485093
0.0011165422934816354
0.001036686657924876
0.0010000001065969132
0.016522205922234353
0.24641669325711002
0.40734965945160256
0.48406790525980814
0.0010641277075800894
0.0010001376140433595
0.001057536693705946
0.2754789246926301
0.7176658442878158
0.012598484577211813
0.001000650238201495
0.004935661454692019
0.02941806028427498
0.0010026772173083699
0.0010489266661809892
0.0010214976019821398
0.0010434996392510061
0.9458343317417709
0.008343952203059009
0.38617642682441067
0.5525018921926895
0.40561058590984134
0.0010007781222658861
0.04921033336378425
0.04719964859420738
0.20306346735998348
0.0020023427835884865
0.0010119356669867968
0.9585828051253152
0.14568211929454308
0.4967141331320057
0.0029942431128366707
0.8337711124062643
0.7043515052762315
0.9960601369667661
0.9899811114595439
0.19605265763725918
0.854163826602611
0.6244231081031604
0.7470412179338572
0.7946704879609672
0.47247017467966534
0.001092860430724027
0.9969830433437754
0.8981766705511368
0.6404761167471074
0.6679895598359962
0.001000000085777499
0.112749505604824
0.8562502560371467
0.8979338410045771
0.2992614593386461
0.0475667843649475
0.9588995750451665
0.0010000178390292545
0.44203063868129844
0.0012001896718199848
0.001591227032318549
0.8556523883558653
0.02469910186092123
0.4176782285708952
0.2616801540731541
0.0010485421427746625
0.2004995554496885
0.3155404897050903
0.0010009363395392912
0.0010376222032929087
0.0010161067912666465
0.12550844484548104
0.6165838842762382
0.0010298350726331386
0.909802243828859
0.0010233935619753892
0.0010000014676234553
0.0040870762922997576
0.8587233227028662
0.593355865769281
0.19374009368780507
0.9271535290912215
0.45007926651025476
0.0010003916504472703
0.7740425189515773
0.614043624604875
0.9379379654700403
0.9912321587983186
0.8637638536353942
0.3947004266572472
0.0043156687121397915
0.001102663777380317
0.0022230227251995188
0.9152423982286522
0.48167483514226767
0.0010417869733217702
0.7488440956142307
0.8767363581436578
0.04006409865514462
0.0010002213134447423
0.0010000001324812547
0.9913564861743837
0.3762716681893993
0.0010065936409777115
0.065437405125129
0.9941492109850381
0.04460405455435459
0.2878636942675065
0.34729812867740434
0.6976167985654351
0.0010157188458983296
0.001071456208782565
0.0010977560187717189
0.0011994467680277053
0.001157177227677704
0.9423174375834901
0.029672060967945453
0.991464367467768
0.9883427967964308
0.2463693120083992
0.4033699058205878
0.2566298769396046
0.9099704631501224
0.20757746052214812
0.952548322173444
0.9991193280203321
0.9923053964429285
0.0010089860647645363
0.850745331641292
0.9737797011190504
0.0025208162025697634
0.0037040267355734026
0.045232930211351545
0.7603799066954338
0.0021338246947559224
0.9813027785513364
0.0010000061272215836
0.0010001868698929558
0.0010000777869937564
0.3414945079481548
0.837303420808285
0.9836929888131315
0.001064933906306161
0.5227786000789202
0.8426592680407947
0.001000056371231908
0.4794158385016765
0.4902104857253919
0.9295566422340372
0.16223024275731804
0.9525845750330123
0.0010003422736583822
0.14108102206783799
0.005883305963282733
0.879658045561943
0.09935115496049433
0.0010000061923906942
0.001049797747223861
0.0010858258852638942
0.9618424261581883
0.0010052111741093697
0.9623382526410078
0.013744052049993929
0.010968442314318125
0.19257589833450484
0.00101379370448687
0.0035103638720227807
0.0635383404149417
0.9573496555698257
0.09572001550942083
0.9146559249020357
0.7378305254611971
0.0010154841884871433
0.33840691500636555
0.0011035284957332354
0.29160923867075283
0.0020575322165945565
0.012123108391767643
0.1366973793303573
0.9639340607658873
0.0010251422602634453
0.7057919523632058
0.004866709998248137
0.18387439066713943
0.8775223577224355
0.0016821045698591044
0.9731055137477677
0.04973490258201671
0.10663477524618283
0.9763918880757937
0.13305813580328904
0.11110273400118298
0.0010002483771614913
0.06170819227097879
0.7416275647401369
0.9959679757289931
0.6743309654198083
0.05286046590028521
0.04336338332618615
0.9079540916350525
0.9848149133986369
0.41482894728649333
0.22030140346589772
0.001000053356271571
0.339930042531009
0.3384758806664349
0.9773959952660484
0.40388059607071913
0.9212775529028454
0.0010009205226551073
0.020864449541730903
0.0010001017198514837
0.9985110878317792
0.012821879590187414
0.7908747931065949
0.0592853329078129
0.0043079926589579785
0.7531854622647585
0.4366284948637541
0.7331092120291002
0.8665951019842197
0.40625781154812496
0.002471928322284017
0.9651979406869401
0.8784110061359869
0.9643739945562202
0.9863019344035137
0.7775395126455996
0.0010994564177774376
0.9128212839890213
0.0012591023806151674
0.0010000549917012196
0.0010223252278562728
0.07300155449317995
0.9774011223364915
0.9544277676454176
0.0010000356472805651
0.001000000318080205
0.0900353990505005
0.9982911795531711
0.0014668299256647243
0.001003006304129233
0.9894061393472054
0.0011147401200293301
0.0010007166664336028
0.0012134058779253091
0.3388614646487691
0.0010000147088775274
0.9981942403295608
0.001000010848956535
0.9967999131394383
0.9940260763969744
0.8541011787883855
0.6482472119443734
0.07583861021513762
0.34352219834738246
0.004305988071219888
0.4423691385419726
0.9908338961607169
0.0011801836204122164
0.001000158579697182
0.0010000000125152456
0.0010574910009985771
0.001001234900992815
0.7347866209392536
0.5703122969415193
0.6929770228798418
0.020028438636939514
0.002658890956954013
0.44794859109457
0.0023983105553589987
0.10334842592240974
0.816175253495147
0.20518449473975262
0.023549732386590614
0.07514033897887029
0.9107625911452696
0.9928620036598551
0.007984913929088993
0.22316497960348128
0.7731079465360763
0.0010614331556513723
0.0014642518344017128
0.040931304405556916
0.9583156768174593
0.002129575147079312
0.0010353589282047903
0.001000463361864294
0.0010044111344738656
0.7864157353512476
0.6971680324944396
0.29406268924217044
0.001710835045058652
0.0012496364604611416
0.004017259645039002
0.15191344134417004
0.13575670300738954
0.4312953160443128
0.3685368110551646
0.8783000285299677
0.9924517398183247
0.9616239970192755
0.9313360699583338
0.9724393699217222
0.9696619509657367
0.0025995823353211255
0.03368399499235792
0.4626514090536406
0.011230155463455432
0.014302270495873216
0.9338160573959036
0.7640519173705399
0.0010165641238199133
0.8715405004845388
0.8961388442758487
0.028285604775935377
0.0010028716971938352
0.0015305841715576984
0.7990659389471007
0.00247467811247664
0.9094517484604566
0.8213828135930394
0.0031602363967246174
0.8466472241107041
0.8768979330319384
0.0010010333611414788
0.9191159226508623
0.3388640620667408
0.012431546258644448
0.0075265150169039115
0.9942294569278207
0.9968292569729884
0.018017048769094653
0.007552205494415972
0.04091397588201819
0.002058412408181164
0.0010204016008184054
0.008781605652693267
0.6078445319027354
0.0030835345850755893
0.001037545011068204
0.7433701043872414
0.0010580531796344273
0.2965855365963704
0.8829148894344964
0.6732724787539813
0.001000004350226403
0.0345438428589982
0.013333796541011907
0.7374506530336018
0.0010357652471471857
0.39651433245959977
0.04034282296970201
0.26562015159427566
0.0010079739766044558
0.12439727309723946
0.7045438933472696
0.001001776836139851
0.0012084831340918732
0.0010494962054950715
0.0971625790796586
0.001000691930995778
0.006699720479388873
0.0011393950489047735
0.17017127933900963
0.00640943086522518
0.8284842976689002
0.07997382028026812
0.0036499956857950623
0.8326771560348185
0.6977263044600099
0.0013894961452369996
0.009000208361727876
0.001002827437074942
0.0010936932990817296
0.3675334394691512
0.021923831062349092
0.02081980103772537
0.027899115853333063
0.005893846888492233
0.9910228898058608
0.8556981428677451
0.6874359933947999
0.0010118503829503382
0.7758199510750269
0.6317628177790771
0.20706379190450258
0.8007485652311992
0.47731431177434724
0.00205614385245581
0.9567009466480473
0.0016136978763855343
0.001003994928256056
0.9543459655934399
0.6231577413562894
0.192932366096615
0.17802249368768225
0.0011956641841541732
0.0034272969069337592
0.7370483698413063
0.030215828692970636
0.2249189443388312
0.0010548157906687023
0.19486213344700848
0.0010000078426080825
0.003626805392448795
0.9692404746141101
0.2635483909485886
0.0070816334575367415
0.0010161815499519368
0.006889284820815267
0.0012516478392973992
0.0010022942426220808
0.24122011915223848
0.7859944930551868
0.001577253460462601
0.8229465849971402
0.0010053010621931962
0.0010349358881435583
0.8116978790621283
0.005982826434537833
0.009676629934768675
0.0012070921638878363
0.5637692037983827
0.0010198510088750437
0.9134618487530151
0.952595203318799
0.8970755161007425
0.9642237082198984
0.9967043894502426
0.9796544051865429
0.8647438923209594
0.0010000484983137253
0.9943780499960593
0.001349576805933942
0.3784601486872783
0.7541798052015779
0.050567923368541226
0.007607475522402868
0.0013783131561692012
0.07826358625264579
0.0012714383089916363
0.02890564900939898
0.0021880480215634604
0.002157794810712538
0.001007192406004617
0.7040497643391059
0.0010123980482088103
0.0010032585356973738
0.40792390970647757
0.0010020792087404504
0.0010000040990032974
0.5008979833805457
0.8817248680225447
0.0010293586779325688
0.3541933155975508
0.807924631963778
0.0018069076760788122
0.002613594526475436
0.46787919531356753
0.5572076304665601
0.5507233833105523
0.0021430901279888086
0.0010248057617126866
0.6427046025172881
0.39387847437713724
0.854603065197681
0.987607308867118
0.1978084560943483
0.46164305200861716
0.06286710319819495
0.08845988430049548
0.9831301473591344
0.44619323691969476
0.0010809018762257174
0.5408538983691364
0.0013570891976281661
0.4788997202790064
0.0010002880017617192
0.001033349503574723
0.3954005395041346
0.25475179197476616
0.9929477135598588
0.001627094986002879
0.3219917487209598
0.07821241914907498
0.001003662696089763
0.0010153245628635504
0.001000028161397159
0.11048932802083863
0.0025468790247112653
0.0033556850012554373
0.05705300664027046
0.022659666469766714
0.00245734654978944
0.6699525805235721
0.017123258435403427
0.002674267115426028
0.002475519416304725
0.8844594044073103
0.05318775657168951
0.006165851648369108
0.017357666192585847
0.09624026293346159
0.9885033161362428
0.8964878056591549
0.9534946309851865
0.9457486061744133
0.19869363161330741
0.0010002638359994992
0.01897521284336799
0.0011125162527764589
0.00100009000426742
0.1846119248970352
0.0062325238581580145
0.05968772377042713
0.29204841806050086
0.8929667063182153
0.2821083218431124
0.0010040149307076174
0.0014800862486476793
0.07085433362014136
0.19955090463570951
0.01716929748206468
0.7720031552787204
0.0010065090038089797
0.8452432421129069
0.002661246732500398
0.001640171080482746
0.029604324958286878
0.09079711457601966
0.03522374273670885
0.5294088500142017
0.011795536312739028
0.0032611521989823152
0.001227763752479349
0.18650916540048842
0.9192556981819829
0.001023704713485392
0.4657816434701797
0.2920069979929993
0.7854412807946253
0.0010241960795761794
0.4513171806489902
0.5748693794757548
0.01362585324964485
0.0010007521158521264
0.06037523559807079
0.012350417763624822
0.776087253478604
0.05633414568185435
0.09878737554449238
0.17109186412881805
0.0011805676703060225
0.7280942301964911
0.42532196372913034
0.5967238054751701
0.9542001289243374
0.0010047976167020523
0.2960453866769602
0.3427426321442578
0.9885266233063306
0.021438680769383878
0.3595997504638475
0.021421831693728372
0.0012686483828652714
0.002405123421472429
0.06518875374395933
0.13301997852989492
0.2249959299953847
0.16170521639824287
0.5561299561827601
0.9890152886452452
0.1371432615545985
0.9955997327527664
0.0014559527111899443
0.8730069015390496
0.0010000758029295733
0.46755008373161494
0.057461057636133274
0.051744283360009524
0.046631167666178946
0.37298313783422965
0.23637035686383756
0.08214888874857679
0.47822734854544363
0.7105388212691026
0.001138804533085344
0.9922221467427602
0.9839397597860787
0.8928044158251162
0.5447710850220897
0.9693542655777362
0.004436997664089589
0.37592907182748847
0.4124147732535822
0.3035308019024962
0.37952755221672174
0.0011993140018655337
0.0012760397380954902
0.0010414475567487307
0.8688335409961264
0.06750198970227456
0.9953470601920534
0.37724806569059693
0.8297324948881752
0.3787516659087085
0.9483098776796646
0.8775311776954821
0.0011060955642818646
0.001011676461218746
0.0011147538542772438
0.03418152684986516
0.023170635636575447
0.0010028207011747849
0.08265790258733505
0.005668930835094018
0.0011837285565421806
0.0064207883592897605
0.0016370450560081423
0.9747995401847599
0.8972141205825577
0.6111546188002183
0.002184184648184805
0.6466657702189859
0.0164944066359524
0.05409204711946332
0.0010985664097577863
0.0010511464251281276
0.0010062132533665562
0.4384149827386702
0.9289421994743287
0.039810620400066464
0.001000058021434075
0.9480742568596179
0.14652532852383107
0.8817381318101133
0.4452417368741633
0.001000015194161493
0.00103922458146241
0.0010000025030802323
0.004725557501203985
0.0014420332737002898
0.965443125273161
0.23367071221656005
0.0010000003225230359
0.005545320643603885
0.7734645049209545
0.37588394118513263
0.007317777895498965
0.021860370173523002
0.3002531737989754
0.00101590311082891
0.5425965978798122
0.016847281178040886
0.1201360434914169
0.0030412301639107823
0.004993478740011026
0.1281966777019663
0.052291587964008485
0.0012432667940561444
0.37646765083200584
0.9959674791966979
0.0011319316089909409
0.0011702741092331176
0.0010290477870399935
0.0013041814797115762
0.0010000564904015423
0.001002458604429767
0.28036394340520304
0.09280166118493381
0.0034144670290240224
0.684975130075467
0.8140655231751616
0.9318394172530978
0.04861417757292202
0.5109391485834073
0.03252857704584031
0.7084283975701415
0.0010000279980315586
0.23405268487472736
0.8375191340927856
0.13112633153368577
0.5938321455492407
0.05461058071230442
0.024444172129781512
0.0010093189039129793
0.0011471082308929087
0.8706754445087886
0.9872804487093902
0.0010051190151495126
0.23260435488887687
0.001027143785190532
0.08550782368181326
0.03003179041620109
0.2334096848558234
0.20896884461997778
0.0010068384657978943
0.634235488821373
0.2571352004009618
0.0010270483626617622
0.001090010408072085
0.0017191444989725969
0.8204910766156356
0.006707213833024385
0.7618248158688455
0.0010000000981704269
0.06431106057794442
0.447073598207017
0.00117971698556623
0.12454170539666669
0.18994295271453165
0.0010001691668555938
0.7563116541982542
0.07204318613500285
0.32902326540862764
0.0010147158620206296
0.29185931375197893
0.025943485771115424
0.0013305613772983168
0.0017614195115754619
0.003890722201288787
0.019347720879584793
0.0010014179839015669
0.001000000651115486
0.5434477878371858
0.9882806822746055
0.1688099581102799
0.040120085444634135
0.002798579797141036
0.0014280109627915435
0.04177771110520652
0.6033234380203556
0.3016273809284853
0.8441857188258602
0.16255559531005973
0.1393132850841428
0.0010007780945812117
0.0020697520757389084
0.0015875595650858747
0.0010003061313888792
0.0018883148740070153
0.9983238767548333
0.9979751572128732
0.7570349285866443
0.004278169377712311
0.0010050101247286625
0.002138109813251551
0.9943835039068595
0.0018320814653834505
0.01850443989084407
0.0024364166784647335
0.0010902552610820486
0.00116783349882046
0.0015580084079945405
0.0010000666344366447
0.0010000005683975196
0.13880088692141349
0.9921140266350704
0.8520452729328464
0.001000054232719541
0.001042821066326463
0.03869590569796014
0.0037961425199106095
0.23238059926644816
0.0024314541247801524
0.001000000413689737
0.26839649622263495
0.20659385199092578
0.1538351202903152
0.0010001321356524942
0.0012774842215730442
0.0010007107137419281
0.001002181345353452
0.0010006035479939838
0.0010590004113974563
0.039869862132876674
0.02486822073905409
0.1272164984712629
0.7138743080414718
0.672671014783537
0.0014250861097887856
0.0010110134120832547
0.00910909771461553
0.0010000410357933563
0.9907869330974552
0.0010120834424875245
0.34300510373564935
0.0010362877498938086
0.9648291404478593
0.0010000000008156225
0.0012334057985087126
0.001063302968170031
0.001983890312839907
0.9773937256874479
0.0023438843526791217
0.9950066200904327
0.2006471442923085
0.04947583213106327
0.5850382824758519
0.2379725951009638
0.02129089890719954
0.9993821952341614
0.0016414556590403466
0.0010004343143094122
0.8328646683978544
0.044192692483241036
0.0010064218170652874
0.39053113499698916
0.0010296259356095637
0.844946361485128
0.11063077799922859
0.001319075991055686
0.00246626185351831
0.17636003859387392
0.9607287789898245
0.0010013662465656464
0.0010000007340624168
0.001000205731210294
0.9345833396545613
0.9597465078094886
0.9400902915385805
0.6935681089609868
0.002235350096528353
0.9475860005449108
0.10761650197128453
0.9997687262213141
0.7749259240198471
0.7894641488117853
0.999523311108152
0.2525877671627761
0.7857157705893757
0.032655324161643684
0.6640591199649888
0.9054156901939269
0.001000084056344968
0.38080077159994996
0.8976868123794035
0.0010002584910296392
0.045180325870474644
0.8478938967534212
0.11711593513255826
0.859183604171235
0.1136916732030486
0.8545877523282073
0.8597512720439802
0.9217224310508616
0.038633221316482065
0.0259504109169841
0.0010839818980033333
0.001024839640692913
0.9992625654902768
0.4351963728462016
0.7528220440395171
0.0011777518632274278
0.04209470891403171
0.9801023307874503
0.019694761698916846
0.0010449796083208131
0.001000040775010173
0.9186684028209422
0.99569233835456
0.9497366956271872
0.7222498226472676
0.3234308400081407
0.9633972468404676
0.5378358052861276
0.02395611059727559
0.30597247383160814
0.19780191436494945
0.001006310882814297
0.39434141614555135
0.007462755746318676
0.0010009029406674438
0.0010000056064244553
0.0026281543544713045
0.0010022350809443217
0.4703559074455486
0.0010004664251847667
0.008956657001443012
0.001000213670748288
0.23614490986072628
0.9198431881672164
0.836816367860069
0.001102401913705268
0.9175294636941637
0.011542301933181266
0.6459420794126763
0.8564258943776989
0.0012120726833829692
0.001706027204879007
0.9979038318587913
0.02777511368916264
0.0010001139487872434
0.9983195576814594
0.5676680446055669
0.7134280288511489
0.5354574399893458
0.0021475919215762046
0.0016406780241856747
0.00438182956580457
0.008531020834645044
0.7739962260180691
0.9933761034909806
0.42100751102097844
0.9983533039111467
0.5518093917075576
0.97463327304492
0.3082253764994016
0.08372345876582665
0.24700808289896903
0.9057665338305954
0.9879241976390833
0.9996894510009788
0.19854119808940004
0.047117234147016775
0.2881540004879519
0.8923837075798676
0.9133193762422305
0.2777945623399314
0.0671716702910237
0.6412440665486232
0.20787827205831333
0.0010015751400201693
0.0011459235089195804
0.9825291977362667
0.9120823350605701
0.011960291153791887
0.0010002034971156755
0.0010006607084784907
0.9230589214641297
0.7271435283927005
0.1252345520556716
0.8094447012241629
0.9783768441716769
0.0073483999704773645
0.0010002178745843872
0.011710391541876787
0.0014087237890696611
0.6458178308693251
0.9825778363694844
0.001125981907701244
0.0010820711788499626
0.10280298130815121
0.7487606425611947
0.9304987283222346
0.5292214593823754
0.027687555819860286
0.1331378814523919
0.02507816424335959
0.0870346661777977
0.8249759298841736
0.3880736205813915
0.6816472894250004
0.7758943071789509
0.42635603916935083
0.49643065528631675
0.007430965276391553
0.04401951779646798
0.48148245063700373
0.002579568599451445
0.9402018894216415
0.21310385923244018
0.03645344987107481
0.4611531731731553
0.0012743067260558808
0.003635671025754418
0.0013472151840503617
0.279652699312605
0.09849884245154246
0.0011323227463718132
0.0010117830306559368
0.0010044172455856836
0.9363663959926891
0.19418091325526204
0.3469129966018419
0.18367863450993743
0.0010017355314885068
0.49798584879937424
0.359950374766329
0.2076418596256866
0.33661780271390956
0.6255968273209312
0.002275593387464158
0.7378257143952898
0.9910828963200073
0.1930858652819705
0.0017089865047180404
0.0011598773094890706
0.018240951521375334
0.009511802611071686
0.8331015171369742
0.0010832824167310519
0.0010240250014572673
0.917096755331259
0.5430784163144977
0.26120378740605305
0.23130539308728382
0.00145158633489729
0.8844863236700756
0.0014681931357999945
0.9894064924857038
0.6878771107629502
0.08791525938141113
0.0010014702067198207
0.6633933473587
0.0018785721971917263
0.008737987785028784
0.08245835800334392
0.0010000067235323186
0.001007237373254492
0.17598898247620706
0.24246613764745117
0.004461286753306853
0.19780329249544726
0.04059618562482247
0.0012988282493202354
0.0010033039219725925
0.8813152042081354
0.9058633382983148
0.888211565404163
0.08783587610646995
0.07655027081228791
0.01030605725313076
0.4663986459095217
0.008784348535510952
0.0012705921937208673
0.24604444158997527
0.004589133465657283
0.0010037705762963463
0.9252668866272636
0.0205013047481387
0.010525537536704283
0.8504837887678418
0.09971069486801448
0.5040971869925178
0.9788268402686037
0.0010252956055411466
0.6158333589584826
0.0011038281497866352
0.015079936005329784
0.09179838880205031
0.0010191974217278403
0.035361377607562666
0.9137507310694646
0.17988857889484636
0.38958576211959073
0.0010000239813013874
0.03397291235808669
0.10623143128909499
0.002329637431970125
0.3090553087300337
0.0010010552097806517
0.054851784837263225
0.18449851585815877
0.0011206358694313588
0.886796912733163
0.001043381198127673
0.8752377385189707
0.7685330473573312
0.04940429732334886
0.009734151080772063
0.2271358650229541
0.001000000028566496
0.0010000914872177228
0.03097769558884187
0.4876531587763981
0.0024762717680109495
0.09552432586147676
0.030254788684435666
0.022659042336956776
0.4488070802046435
0.11543919985196191
0.3088448634474109
0.001718865366767928
0.9910610937068386
0.8631590416249786
0.001002823780124004
0.07615031264189401
0.5108092329866513
0.712719196811742
0.551513078704001
0.9003604004204547
0.12161813037358175
0.005382635281919056
0.510116632638987
0.2118238610206641
0.0013128867099669573
0.32255015355248234
0.8920281817353246
0.0010000175982138066
0.5071394305302447
0.0010113121066051118
0.59425843613888
0.33332120465397796
0.7076352275313093
0.0011799199429259346
0.8855913656100575
0.0018898051289142404
0.004176166393570804
0.49616690636900257
0.15456088105043753
0.7445583652444746
0.8478919049822754
0.03646543678767332
0.5335237360569166
0.07727734878884765
0.3513417243092656
0.0010000012204673702
0.9765774981521506
0.001000604507131965
0.02172907691958989
0.02482462367150823
0.010391762843851227
0.6263429072613311
0.5979738926345062
0.6945188346928041
0.9290784309699008
0.7637629823506564
0.002593732459349061
0.001172244376728175
0.4428123015744842
0.9500996830849042
0.2890908444341609
0.13418846490329137
0.12440723768688469
0.003836047235956126
0.8230321937295214
0.9735673668724443
0.15480655132160373
0.10023844729509168
0.0027963588911232564
0.7146124132944547
0.2003781467799021
0.08382102871442626
0.9325480961358812
0.993183505440783
0.03439877855603874
0.5126518511824044
0.001000917901555379
0.0026062671478044664
0.001582143530162109
0.09233513899491123
0.0010032789340398921
0.667619672505818
0.0010130936570262655
0.8019647095361513
0.8742384907287715
0.0013107405501540002
0.012827632339801193
0.001117181314996837
0.07646565707518228
0.030457770526858018
0.3061878857211647
0.36224454925228955
0.06181976869456588
0.28749855749105907
0.007803981272289658
0.588888097679749
0.0033171388439604283
0.6253126801346518
0.1413347464514932
0.2796380302934204
0.0011842897726942548
0.1757588618891253
0.7472635323402974
0.6162993719619267
0.01568597435545334
0.6822351508377298
0.001006502679603074
0.1352533871707406
0.2194284906552148
0.0011272972529555645
0.0010000112481623256
0.0022029333235429986
0.0010000070781962054
0.0011541561193349355
0.46630373922135404
0.49764803570137606
0.05663147163253337
0.0012524061318518478
0.46898722863600717
0.0015469947514832423
0.21979106777928417
0.004021764099973584
0.07568212858059395
0.7255094261611267
0.9992830495702676
0.4105209747516987
0.9152024659628232
0.4909512660129747
0.0013091310665634254
0.7170581232087501
0.030615393571905278
0.0010007639872975707
0.00100243175406602
0.001009405276934172
0.002023511710993082
0.660412887841759
0.1076059652813443
0.002215459353320851
0.0010000623577611904
0.0010001005704155957
0.8040625759238759
0.0010000003788651437
0.8456146664051435
0.41413892719901924
0.017631028607281846
0.10189113233594782
0.002086215714884479
0.003556059808491597
0.6314490708993398
0.08234476686727386
0.03563476770660102
0.02441520297302927
0.47650000942448234
0.32037427991462436
0.23753435488581098
0.15036302327737758
0.0010001123463258745
0.010291800827008993
0.9264719849081824
0.6397452766403722
0.0011062721823947971
0.001113059152346296
0.9145800272747647
0.5933153140911799
0.08319230723939641
0.6649612208186112
0.5467760050866889
0.0010004293062604171
0.013740141349580185
0.36780654031357574
0.0014516770651045625
0.271344439422722
0.0014017029899399066
0.9907355126304681
0.11358847515894926
0.9180511019001144
0.5442586772068997
0.37749648221569354
0.015328698352168487
0.0010258161616468055
0.918208915870955
0.21633837053034238
0.8796202340748734
0.7830834925887645
0.17410426709859828
0.015135365012992317
0.4573121881727605
0.0010001482812679234
0.0023274867212267026
0.0011721969088187142
0.05863873118360013
0.0010101407099597141
0.0010074129841984737
0.0010035049799985713
0.7793409876832216
0.03552978242184842
0.0033756912703986923
0.8006003061867042
0.02607416931613186
0.9154051304850745
0.013761439436567626
0.49457981296383374
0.1518650017093758
0.6253550362959718
0.0025712316735256088
0.8339325502328641
0.9465653316081318
0.0010001028203840228
0.0010234605354834648
0.0011207795613178751
0.5086469172108745
0.8850165396769593
0.642612692992155
0.34408590495824015
0.8686077737654978
0.5703014627346007
0.1939707391869255
0.0010000184289369204
0.6337914773096964
0.19052547888333618
0.2684544319114039
0.23517962003194473
0.7625850331514364
0.06102508759934871
0.27606096880543524
0.7541426579495781
0.8210175835996566
0.0011479669959474676
0.5143646472598299
0.03474381728315721
0.08481609850699043
0.9731323719984899
0.2314419059486579
0.0010121389014677085
0.7520915866230877
0.003956747696477048
0.002308929085565981
0.09064364814811489
0.0796734775458199
0.9697853098982363
0.0030651991584295176
0.2124283316668488
0.6808138523778982
0.6380147734602366
0.0010018384217967483
0.34255457451230953
0.0029830220939108102
0.5308510537251558
0.9047633408924987
0.07209191088251746
0.0020753872242460234
0.0010165372287335532
0.024455953479889724
0.001126956794664955
0.10181811177647962
0.0010000088370441002
0.001000000147439049
0.0010000181605974913
0.10419861676899368
0.031462991095287184
0.3162024446525841
0.5730250736689825
0.415124648397267
0.0011935464274794479
0.003561151832850507
0.0014531506305974454
0.1945606663470377
0.7726476898281549
0.42559524363118173
0.0010038581963625309
0.0052530778309571495
0.8134502150627957
0.0010012639892117094
0.0010000061895101503
0.003535839141930615
0.016871185922764726
0.03882537542086551
0.0010000149446967575
0.6627556320887756
0.0010001292015881787
0.009396199978042107
0.03789972168718129
0.9988358972101626
0.569744880576319
0.006024759860955002
0.008418977932782814
0.888933282567994
0.9647291225815683
0.8037274263644152
0.4903013263128097
0.04473656544897427
0.0022292460091962287
0.9733165105359887
0.0342739930548232
0.9564666776761779
0.20360172160440634
0.0010133510618300923
0.0010000687331257602
0.08637939578470619
0.5893084966599832
0.9669853980253504
0.29552703286987375
0.4492096711914211
0.005424558707143829
0.29668583903090245
0.2633908359063525
0.3982608118107187
0.9767749559434306
0.8907183280307783
0.7580796291035178
0.47205545098018553
0.012115987604052629
0.83789461346872
0.05786944318982427
0.0010532052675698085
0.0011766555381722337
0.3297657893876096
0.3754296839017121
0.0016264464533118812
0.06792950996804976
0.27123566017267753
0.009734737435918732
0.8568542630650052
0.5769363191431068
0.5543267720670184
0.06606253213954077
0.15660685090767784
0.0031674212518586807
0.0010028596084683725
0.0010012440786688248
0.9976515968744533
0.021069507146923502
0.0010103024922468891
0.3898709657665789
0.39139557604768466
0.0039040252858409943
0.8950929192965447
0.46919415096533346
0.03656055224469617
0.01775525399728352
0.001139492994837096
0.8366260333690754
0.005540544317576831
0.9245964509491232
0.20760306185785396
0.8077438018595998
0.0010004625472357135
0.001024141828323503
0.0010742945871960868
0.0059025170132793415
0.008750614043112136
0.0010182790229592118
0.18465978588435425
0.9410809682388773
0.9916424022982245
0.0810671717367136
0.32426054735206766
0.9903548111935646
0.001547594523269238
0.0010431315072304567
0.932208816667316
0.0011219093956888638
0.014228751955996377
0.0010000052040725247
0.43854544927799605
0.8038769548185177
0.0010005850559759897
0.00100000254121566
0.007801032063811443
0.0010064618593728003
0.06741610060122698
0.0010000000000913746
0.01143498591941208
0.8355012184818115
0.16673441812663992
0.647904260319141
0.01102542103438139
0.16936765575296597
0.0010000919574882894
0.0023650833752492865
0.01675950516770065
0.5670275830184469
0.028224630061794643
0.6285524844449691
0.4072245656073812
0.474572244236809
0.001001388364429337
0.9866723666269078
0.41977492794738147
0.8493096204125414
0.0019338441518042754
0.826730175770528
0.310687252300337
0.0011248269111088028
0.0010602488719220265
0.922490905861196
0.0010000003715570503
0.0010039692172044822
0.0016656234334137896
0.0010000257156492739
0.1188125910179905
0.0010104782357261072
0.0011902694889234615
0.037754703074493454
0.6284131476476315
0.7161238832793225
0.6646280486323551
0.034962066728867
0.1451824067248455
0.6837671689830025
0.8076241375613419
0.21028413395897627
0.002604734117662012
0.07012381048320986
0.0026456235125233594
0.0010013072867578565
0.001000000334238466
0.0010000031160694704
0.5440715662053163
0.9330132512174075
0.5379215463542409
0.0010000224859697709
0.0011018608367072606
0.9902394251236395
0.11039651960652634
0.00113236804623609
0.48767003162086764
0.9021360296737088
0.0027343860508907735
0.9515756784686953
0.09750968207247072
0.7882019427259331
0.18030854384826647
0.001135218638020845
0.0028441967567796878
0.015399416546251161
0.18346170041764184
0.004747382960391259
0.592026335255395
0.23272029687285292
0.7467952382802457
0.934318980636579
0.015336426585004125
0.9406832406727242
0.02168393569527042
0.004974358371882947
0.6610767524352892
0.03910176469811386
0.9748563581715768
0.0010007645863020654
0.0035584542852209575
0.0010252259253570063
0.24455519373545012
0.9922664029252195
0.8268952477595815
0.9962985483596969
0.9633877158980907
0.016680400030035535
0.5970625728508846
0.9226217150423321
0.5904227832454576
0.001298931137857293
0.05694908997143107
0.0012441181056885733
0.1936230864311429
0.013783486212052224
0.04572552211113788
0.9385513490044012
0.943369502507319
0.047986831573047874
0.7842599584986778
0.3122108154577236
0.03990245608753129
0.8768838571587171
0.8306602028424606
0.9851553932934437
0.0010207448128947978
0.0010043407422640894
0.01581181988719657
0.012356194658342524
0.047290508730410845
0.30840618325256436
0.0010875245258333342
0.0010003940519296857
0.9107364055710737
0.0013578658299841675
0.00104627646376774
0.9817043372527372
0.06906285165320229
0.004496104396700494
0.7158868816920662
0.0010003534528673047
0.001012586893542435
0.0010036036266371435
0.5861177261020438
0.14134318154758616
0.2682510615329899
0.47227472610273874
0.03566518871605855
0.001072321019255401
0.0017738778735700252
0.0010000005105493786
0.004133603917584852
0.13684815510628945
0.6516802564507749
0.0010029268491103657
0.45278358783088357
0.41398581455952593
0.1688228156583474
0.7133995296406921
0.4270268232841293
0.007209842354729615
0.0016983953505921305
0.0010006380346924755
0.001002849124314851
0.0024480859203972094
0.0012770602774537123
0.0010151688486090295
0.9533929538861022
0.9426361556851253
0.47510372120227296
0.3296513210623786
0.0010004379280523293
0.00738297421938397
0.13884479398142094
0.13221994781692303
0.9562260288352765
0.02258418318677804
0.0010368880220722962
0.17901685795940941
0.9037363895475421
0.0015298558309783158
0.04742139988526124
0.014888296360925962
0.9207304046716928
0.0010014033072185682
0.7082679781901466
0.001035468002579245
0.0011026663694525744
0.001000041574731213
0.20044468260319387
0.10619352160143923
0.21178692944157307
0.9551176452796457
0.003693802427346846
0.004825969731496219
0.0024534430453705554
0.01638046568660417
0.10875346753246667
0.005805778204754892
0.0010051700552858368
0.9978369795108359
0.8047893826733502
0.0012941825837652526
0.8586883438206645
0.034719475136620694
0.0016561968368728722
0.006430499452705705
0.976700459706307
0.057558430078407975
0.007589470341937061
0.00168563901975593
0.001000000022831951
0.001000066979295374
0.9823069016052801
0.0010044989659181633
0.8714913182173681
0.7305072398400001
0.42469486991880434
0.0010001351434043187
0.00845235787130698
0.002095624031736667
0.6398235927231004
0.0010945840593551662
0.0021172004089181724
0.001013778712532897
0.06351261016349073
0.9336625725641237
0.0011493255695337132
0.7702433186544958
0.0011131663839959091
0.0730197760160636
0.9187199985827857
0.28358106535614264
0.0016320835182081822
0.0010045490860351735
0.01849562561174084
0.8316447997917084
0.0013103658259473118
0.008225313662076825
0.9707773258460208
0.9617495854024823
0.06945448563973901
0.80979759154217
0.21113452439726624
0.5211646709527202
0.7017086652735742
0.001001381842328552
0.37348451431152385
0.20175637652237713
0.0014068075116498156
0.7688610698717964
0.8872639718448017
0.8149255966201553
0.9524449344217988
0.2228492063370322
0.22081980029712575
0.0016014458183788698
0.0016425595678993099
0.48737976770420866
0.0014162590737161872
0.820438018766018
0.0014521391214373958
0.1218135927877647
0.0013230577956393679
0.0010166997308881614
0.007929256497526103
0.827311127438063
0.006819800114112106
0.005972575721461463
0.17141299909589564
0.11963035352234956
0.14370486305937774
0.038023049152056974
0.023823692788286867
0.6302573498384119
0.8440931898225215
0.94231008932004
0.9803494582674669
0.3809650845454779
0.7624339804599316
0.0011143115144519255
0.806218683366051
0.9911369717225939
0.0011991078125810218
0.0019720652628452164
0.0026192072999971063
0.7166943123867607
0.9333944002401161
0.9178807680444031
0.6063644924117335
0.1152719042376467
0.0010008538668369235
0.023305128272109073
0.2404503164421344
0.974404021531503
0.004220187460854164
0.001006221252488
0.6345942721633775
0.039712302918777524
0.0010050324791938555
0.7510173936874326
0.0020737772801441958
0.028344784016225002
0.4571823577091412
0.00222734363898135
0.6638376514460123
0.6021009692325803
0.3579221079284204
0.5024335851724626
0.9901187587317686
0.018132763778203952
0.0016555922865436421
0.001777112726618
0.0010095853479226277
0.0010705002465622286
0.0026607431479512824
0.5360695799819679
0.8513585470130022
0.7225623605699708
0.0012052478050490819
0.29065123474644716
0.010369981996406478
0.028460739125906305
0.6534993199116097
0.0010549459348626318
0.8414244171307796
0.4997829844646552
0.9100042495297026
0.0027378696373901094
0.17816543909470703
0.004602556072877184
0.8274089331383363
0.704773766948237
0.7534212125455907
0.9114299479825577
0.06471187102356447
0.013622267960004299
0.9842706902878933
0.7419933306877197
0.0010061263667732747
0.002131472324857388
0.8981188318811385
0.939951955759808
0.008542458461756199
0.0010500709122326466
0.801721517510879
0.08524029075353397
0.878763908341854
0.7971250730738773
0.5980817530246262
0.66046978521113
0.5200814068001971
0.616356326423657
0.1898635482201244
0.0010442102133773343
0.1064172489598251
0.012692848693675596
0.1441732226757915
0.0035604218806274133
0.0010081618043297092
0.0010000020524686957
0.025433837489130875
0.0010000108731540662
0.02347183623737309
0.0011377203684312656
0.924790591154587
0.0010250990212360485
0.12543524924745827
0.29110792122769485
0.8052352521929499
0.002685757135516435
0.0010002454033953266
0.0692988225647538
0.1343953614648237
0.08044378730091165
0.6372305869878409
0.8600338139199516
0.03769593247092593
0.2269987502366023
0.9932466926965627
0.0019382262136330957
0.01218491343707901
0.001080151401856785
0.11676627832027964
0.0013576217620294667
0.637986369979351
0.001046160211723351
0.5352948317015851
0.8293789474223705
0.06555685953329271
0.0010196179426238
0.35959421300768596
0.9317461037183296
0.001962365297228244
0.0010014786598733791
0.001010426977345439
0.0016160644708797776
0.25045429688132487
0.7868789609665254
0.30369845753417035
0.8277420438796936
0.040320151465209994
0.006191087251506941
0.02228320594045307
0.09009571028166079
0.04922395958215214
0.009062306214685227
0.12560994098904973
0.011204045066644849
0.02821196770117084
0.7714318756002088
0.006090137912016879
0.2728815738520993
0.0010000005656907844
0.001003675011030234
0.2447073220377053
0.004029500265429422
0.06431803146900153
0.4973919182873786
0.001731641652831698
0.44539056836918
0.001000000194734386
0.0010000008194613133
0.9451905404962184
0.07054090486958997
0.23216318116224807
0.6475245756565877
0.3395425576685064
0.002744716751029569
0.001633607355383228
0.41629095373956043
0.12990032053095224
0.09590099685426998
0.7141876064031317
0.04514649036103623
0.607562345967101
0.07397090342063342
0.8378994063998619
0.986119127552673
0.5504337106061737
0.43405693575585563
0.8148144703829435
0.0019665403377887546
0.001129740205230508
0.12224230149066863
0.0045369800826741274
0.22946701378040918
0.0029423899232151156
0.0029468811983798713
0.008088039197640718
0.08939558586565166
0.0886332580397681
0.04022538311085012
0.0011229004810523375
0.07748847192723972
0.17552240747384762
0.0010035409340452917
0.04777623177377912
0.9693804501091182
0.988393470811648
0.9723286516174203
0.0013299903336906555
0.9912005711817107
0.0012411432646468427
0.0011103514588475067
0.0306725524837272
0.0011685938155158015
0.24643743623175604
0.027573442063267443
0.9698508458567969
0.07523426237417308
0.3882550006264127
0.011718545423048083
0.562697802052105
0.8058604179436744
0.051878952111951385
0.0031800756577600293
0.0025868336499338253
0.0014340016200617414
0.0010179938218743013
0.0376752705958958
0.05299873080152398
0.11673605899199857
0.4952445173417188
0.09051777165827009
0.007886349142782745
0.0011339598290195272
0.03932853033724298
0.35180248728312874
0.0036883924123403806
0.0011639827947764476
0.0017912452967635347
0.35343869458802935
0.6602125241235424
0.016087857043571515
0.0010026145796589521
0.31383572592703596
0.6453447931575538
0.02051330393263355
0.04640789189281307
0.001000291343249518
0.027006301320608432
0.8966001945120122
0.3739861222928305
0.9131832952209735
0.00581474377487004
0.0017583539238338395
0.5497805510210212
0.938397779383461
0.7137770718420229
0.04395346677189421
0.02297713221901315
0.009966523588792315
0.0010129847195515446
0.0010064982190983278
0.007860130324744072
0.001053443392986881
0.001011800273991955
0.0010027034726197812
0.0011938957204777228
0.001005327335717899
0.11432509517781253
0.1729901805017536
0.022413826507898416
0.0010293843173171007
0.0012683823334791156
0.8059392610696064
0.0010165543374687487
0.0010033155902612822
0.034311102976873245
0.001000586449397161
0.0010000099179310045
0.012078244424507147
0.0026348837231289007
0.0018248120713447859
0.0017103578487832473
0.4616563400791005
0.0010084148078361645
0.004341423100983828
0.0010072726130354935
0.027994112222950708
0.00100671417287295
0.0010049062116380232
0.0010002154650794709
0.0010025948852627402
0.39866569820069536
0.12630541900071285
0.749792358964991
0.9687877697632638
0.9637239736198455
0.0017080934489155926
0.7527120011678204
0.9742571324078533
0.045768373549244123
0.7755179070969157
0.10998824044862404
0.15756468948858665
0.2069796828434797
0.0057539811167863445
0.001150820103010132
0.9983469662386157
0.0010023623258336863
0.02839667346124278
0.054129866619121156
0.0010000000001316798
0.8626826496084633
0.9759166892647531
0.40822956435452035
0.08855363857577978
0.7810682436734142
0.25690988592143804
0.0010000008092363086
0.9546336876762408
0.45778459952495704
0.0015526692546285552
0.8049106739713408
0.0010098554938879995
0.0010661324461343055
0.1283248243374572
0.20925628284271025
0.9882403968433912
0.027557625474047425
0.00118843264571585
0.006647276106316342
0.025477307634517804
0.9804255278337798
0.9650023644332827
0.0010725269317358257
0.9635882465803634
0.21509583157948922
0.001003527427243141
0.3144443969241907
0.001262373335785937
0.0011092796234167715
0.0010171023099438015
0.9933296066697437
0.0010338674794401505
0.0010012785231135544
0.9295801076780158
0.9304029690706219
0.9428186720784422
0.969434351079197
0.9965030980521492
0.5567117982486303
0.2495845954934894
0.048618996922395165
0.0010387269659545958
0.9595716752625444
0.0011087300912324023
0.5793516917479217
0.15720822568180537
0.9254080954067603
0.31243103201979255
0.0010002631215252562
0.0025478169462633407
0.9952645482898422
0.40091307313630553
0.01889995433832797
0.001420227378573782
0.9200466467794802
0.7141626377940413
0.33194670788740166
0.9775777929606513
0.7756565429851637
0.0010235407300968082
0.001010442496104773
0.0387646897951651
0.0010044109590243886
0.2212931266400872
0.9917470395091966
0.7537520546692208
0.07293296390828018
0.0011284441097214313
0.001000122899921567
0.32490844112767325
0.6809636679872259
0.5649603581167955
0.0010003080270352854
0.007325700911536018
0.9995928059263318
0.9995206211154752
0.03334668139160792
0.6368929377889929
0.33565757564413984
0.07053927031437192
0.031364431078796905
0.01925115050391798
0.870525898941714
0.3901174147172819
0.6117456670982474
0.0010952746990633645
0.0010002354898246192
0.0010000001046449093
0.5142974637242457
0.9486009155703382
0.9982652025903952
0.001077757693282751
0.0010149906140434573
0.010244568679384777
0.0010106865061649717
0.6058965639657521
0.0011452179393380483
0.8231297768078667
0.0010187525375214182
0.9968605809959746
0.008122953016063809
0.10147447628167809
0.7279499818638178
0.9737469770552998
0.02599757510033301
0.0010133191382257793
0.0014475912382474058
0.0010898503528264626
0.967465513562913
0.3829862738531368
0.28654158156789994
0.00100019197723979
0.009774898179225552
0.0038032787843238314
0.026976747320417608
0.0017363471934722572
0.3952726102819215
0.13908227387148542
0.39916861351707944
0.7598290028483914
0.6278730658310004
0.001134526404746743
0.737502533729486
0.10694550329009614
0.07812649183922699
0.10296986729817449
0.0010059685472634942
0.6227059883356241
0.9803823536116275
0.1785719866117171
0.24390458302056886
0.0010274758579191753
0.10021353998044168
0.0010022036927351701
0.0010000007027807136
0.13766902350989008
0.019542370271367262
0.0010005383096321823
0.45417468516145854
0.1945447555447928
0.038479680097255525
0.009435022603660519
0.4594725099523464
0.26364210349970746
0.9667071838313244
0.3316021849442791
0.06701980759811232
0.002320647502614711
0.0035208488020011613
0.03795430989501682
0.8037875919218087
0.016200492331070317
0.0010032184489074353
0.6602254772452857
0.01246284342311799
0.004261321936898304
0.4562603565065412
0.8175607276768774
0.0010042189888920514
0.0012123333305062481
0.0010008209795949804
0.8530839628569677
0.0016403245618180256
0.7148026642458577
0.014619856667167638
0.0010411062673029593
0.0037089940008588856
0.13152058099042213
0.334560117981876
0.8471405420497244
0.2118797733763353
0.001001390488361292
0.6545870975686766
0.9869217524782705
0.7563310050424731
0.9973524518008074
0.9660077222110602
0.07066981232296128
0.3758741890049798
0.0036694164802321483
0.005285073474639438
0.3954300713857241
0.0011086092464023018
0.3643736590603669
0.764169339264781
0.0010000442799845317
0.0010000017264511871
0.001246240416846841
0.9952237616021204
0.04828073750402866
0.0010002426429880302
0.10849757691555442
0.0010951429941319377
0.0012785730190657746
0.0010265573376146242
0.004300038336147888
0.7548095510907145
0.9629626666307204
0.0010675429089923624
0.0014489012762466278
0.9920543720486017
0.014589578648497616
0.9032011328386368
0.40106381893522275
0.0011757175339262712
0.0012886842125721441
0.00100002683690102
0.001869764351457458
0.9476292369976268
0.4100473863268855
0.0010080488547731525
0.0010000356554075538
0.22047416597896247
0.7765500339505823
0.961317175876403
0.5414734989433995
0.01140868414299968
0.0010955449032825392
0.01595604094239299
0.0010267112003526002
0.001122115615167585
0.9886195338653104
0.0010524017086199677
0.006140318370248387
0.4185837287946185
0.9184879372279928
0.8409563075290786
0.009106914438426365
0.011245444960763802
0.7491517925896866
0.0012033332820497664
0.05100512543033797
0.005281166933664604
0.9611524172509619
0.0010490073693037933
0.002132537450452366
0.9734640733150621
0.0010564616139457235
0.47364394603180227
0.03986425830169487
0.038896531523132515
0.004511190054797719
0.002340123570369914
0.0010000512239900564
0.7533098754297342
0.5299735298621844
0.9825595346254097
0.0010683279026625035
0.874469611832752
0.6705447966785765
0.8905556286061255
0.09558666388919798
0.9862791432029808
0.9069860075300127
0.47306783669350266
0.6110694494466784
0.0012240957797233151
0.01969817323907631
0.12472101384507839
0.5006147161652517
0.001061952753908778
0.0010017822194661706
0.8751130246806572
0.9712208416715991
0.009350766263042074
0.0036210703933240497
0.9579958373787882
0.004135702252398049
0.0011679620641906537
0.9874843946294007
0.003178922402072371
0.0016441210646805614
0.0148986424693443
0.2763597804917146
0.2344837639569595
0.7211445162585238
0.005263887315547184
0.28816600542416837
0.5855234598131976
0.9980040802268184
0.9906590312803545
0.45094525801923696
0.008449044458301585
0.11694309922478688
0.0010279461740295294
0.998575972676773
0.9835832314166401
0.0014003378120124713
0.9393549921952552
0.001044753459198894
0.058015181231585666
0.001323138938925309
0.07248864159222239
0.7466807555115358
0.9811265717562645
0.0010002615198661767
0.0019459787675649356
0.7685242391535848
0.05167911150696323
0.0032289072689789746
0.8432761049415851
0.009457636035372918
0.8655590978353129
0.0011137945830189257
0.0010005005822865836
0.009393494632682811
0.001793749234450188
0.0025383484038019617
0.001656060141521897
0.00620733364694887
0.04654086559453279
0.0491984952189445
0.013032436267041266
0.030396632755925506
0.021830012472270722
0.42814139652383143
0.0021136261369029837
0.8399290499195248
0.7336764094650663
0.6437286499008585
0.6868093455870006
0.0015326549234378657
0.001026982544233106
0.044522212543433026
0.009533165961913517
0.02384351580261135
0.0012662262608387038
0.0010000774354584625
0.854701477939377
0.10582349089164318
0.7472542063538505
0.8698510874229144
0.001261364771258072
0.0010160110583036749
0.0015536229920286291
0.9929970686976328
0.2757379539459593
0.26894896211814756
0.0029136282564502934
0.9452258123120612
0.025419881044000767
0.0032684452045584934
0.4801573296554048
0.001011184887682074
0.6887656401928289
0.02247397122919365
0.0011319654312090966
0.0010006361613924917
0.08608487362395799
0.0010416647464596062
0.0010038443884494304
0.04149595255501576
0.00120172569713119
0.0010001834330861062
0.0010033361730569295
0.392728557958665
0.7165159838122231
0.059868958972999806
0.001032297578896909
0.008286778232341724
0.13129968300870265
0.0010388665487794896
0.007473392227994188
0.14980833856114603
0.87600061326526
0.9676681946952638
0.0010085294116306905
0.0010001379953904262
0.6925854825881237
0.21969402646903818
0.0016546667720391487
0.001000027143241372
0.9447786539891293
0.0010000002297511565
0.16294869551711139
0.9826529116482852
0.5253481715642968
0.6726953122774281
0.7712290587945767
0.9773026246850555
0.35369682432019894
0.6026623999303804
0.04771725507012812
0.0010003872017975346
0.026258251262627864
0.037083071962562435
0.01836486534159198
0.012220605474945398
0.040963765191099975
0.5459924045678094
0.5758784760334689
0.024996349505478754
0.0010239348896614168
0.0011562396037308937
0.001019915806113644
0.08168586045365925
0.10343206842679806
0.026955143680977258
0.001044340183948494
0.0010000005194498575
0.0010531045574645656
0.001077272406139831
0.4209124444033263
0.0010000021154350975
0.0958759713536421
0.8490353929020954
0.011623001949166864
0.3542699812438117
0.3868981669132987
0.216452512923553
0.16349051255745348
0.04897301151480094
0.0010003820244072657
0.030614385477969734
0.06087714064734286
0.03557545628513139
0.021114702437276627
0.0014903802421837786
0.013042985920360316
0.04575614231406456
0.003525266630339197
0.9819431105788811
0.4043951612722844
0.0022079788937844954
0.9217218404255122
0.13680804209079206
0.2245822221605015
0.6357623188879205
0.0010036076484283675
0.001001051838224113
0.30742075745300257
0.9915323055032684
0.0021949643592418713
0.8588737906123047
0.009051886074414095
0.0012619885082646276
0.184544370278295
0.013768820829057182
0.03388716227464023
0.14596731680960806
0.0013000461689132315
0.8967935368623124
0.5762525061377064
0.0031368632324451457
0.1473309274375392
0.10507889314450193
0.9609520182498977
0.17389333715473768
0.010102170713549047
0.6316116478224083
0.0026165907651374267
0.8442625777022549
0.0010837029047409364
0.9469184317921366
0.6610281623519928
0.9285794288833217
0.661316065174777
0.9023925712136537
0.20655530272123054
0.0010002811065459377
0.001000695672604362
0.9931732142180648
0.008398546943238288
0.0010009649725615448
0.0027072670082470807
0.24771539424085062
0.9660887971915884
0.9745293766387088
0.004466434756272288
0.0039071900141048905
0.0011001885074793866
0.8549071013596107
0.004582502713015528
0.19741336764981116
0.2249446128931494
0.5561775553690795
0.006381014138479981
0.5212319472053442
0.7328670154463546
0.9890759431017477
0.00207316537446626
0.6905505655929465
0.02572559694973233
0.009404604443650953
0.0035021645071038913
0.8554947519414436
0.134832454135246
0.0011179558281509704
0.0012288424838470778
0.9375076629455394
0.7177438772963498
0.2629353842510551
0.01930382013731382
0.008308823103699504
0.06912387385991992
0.0010001549087042636
0.16154286834798523
0.8575239489726115
0.9699177020233454
0.2895726922611362
0.0011555983084149337
0.9792223397086068
0.0194017526906658
0.008480885637834203
0.982878703686889
0.0013799953991048457
0.9672966408081688
0.8508985092610505
0.15802783964462966
0.5352351089812516
0.9876500529769614
0.13102505730574515
0.004503313529943795
0.0010445026718445176
0.9326904347176466
0.04157136002145853
0.006559308185031966
0.0011734209660740282
0.15345332824007563
0.08636859592928127
0.2593250377687005
0.9647138572879125
0.01498486070417249
0.9967155414287207
0.0010184196822497103
0.6988276420424366
0.0010360068068046334
0.07097242638439054
0.0010301212570018796
0.9627293537008514
0.006672876429440928
0.0021174383533564666
0.9860135302456643
0.39851964432036924
0.001045658190920906
0.27690401029670275
0.0010672281900939594
0.21242010087375882
0.9955194380139835
0.7642797341490324
0.0018720999918357918
0.011369590424158728
0.001046575323474521
0.9022359922969523
0.2849984310777082
0.02210852325793254
0.0011638745622822798
0.001009488757587047
0.21073950154603324
0.006118595232319859
0.9906774003514075
0.12464938976596919
0.975236690917011
0.003856485691631309
0.9623224340405605
0.008047797371218371
0.9477879430010253
0.29024874183556776
0.03022367233624823
0.0010026871212093693
0.20916859384608832
0.44270918390618336
0.11390612839879304
0.2021990531890693
0.004732234846797511
0.0010340020857187659
0.003125499774717923
0.0010503078784437185
0.3779655509711948
0.9896022694887248
0.17432001505751973
0.6165982106518553
0.0012367369696315868
0.02866641462988571
0.0010027454687570882
0.0010496047045025392
0.0012211047338162894
0.0021371453159054286
0.024495768740845497
0.8152851948761668
0.5639271138501797
0.8311315272441768
0.33300719786308886
0.911173155968526
0.6419277627708614
0.12525801841483702
0.001302572810709122
0.899139516812336
0.0010027496238514235
0.004008190957088386
0.014997706469079112
0.6618858466554944
0.9947058203502283
0.7188552913464276
0.027504416675327225
0.8494722845660215
0.96749385265986
0.9920367986179786
0.010293298741697623
0.012644163381327966
0.0513779521235933
0.0010099236434472476
0.885087167128887
0.30838486106559704
0.9352502331258079
0.4758753068500345
0.0021214858141836174
0.141220478158113
0.006732329048564857
0.16824750327959603
0.02391948426018669
0.9198746970034759
0.01179844797609815
0.0010530333737026362
0.001089168879846293
0.0010208157299781697
0.001000750962237994
0.0010006913501128573
0.010159680837951796
0.02076452539494912
0.0041371911326341035
0.0010000876775861291
0.028514781619673867
0.8683436085899318
0.001000862132492068
0.20844522418016503
0.4561964378504973
0.3510774232874452
0.026237892518398795
0.08499253787822789
0.0010347550528329759
0.11512683901626433
0.15528838593141767
0.0010012177678903667
0.0034197652768860587
0.7481027698959932
0.0010086360320568785
0.8859780717567991
0.9848383501985272
0.007476522709060221
0.001000101393949492
0.0010021407891142443
0.016990013683154295
0.1934693020156652
0.03171054434464548
0.19173095401329607
0.001000310880281186
0.09038191626111794
0.1230680460790421
0.0010001560183479348
0.0011789393702340794
0.32811622011739433
0.0036950790374784682
0.15084339129156257
0.8868074531378651
0.0011013646497537671
0.1556384649432662
0.23834769161888983
0.0010207731716925141
0.0012268840029686931
0.001000221075737893
0.0010140027191533126
0.8149399823493302
0.9213988960211096
0.0014204159950054864
0.0010942634958391803
0.03023817583618636
0.5285327586470001
0.0010004372189019355
0.0011484946343028443
0.003288545353217715
0.8654443110515243
0.0020362019170734598
0.001000057663553119
0.665724346207985
0.9878038263668671
0.0036659722026907305
0.0010000002898339652
0.0038065981524760444
0.0012375815190250098
0.61882440350737
0.9585867269429453
0.0420023762416615
0.0010002492908353867
0.1265854138575403
0.7511862397709236
0.0010010464236230431
0.0010003382123223016
0.0010151750059007921
0.001000133640466408
0.001724975528230419
0.9442116741752047
0.8576134706871343
0.0012730916412555283
0.43756466630754376
0.001001645786599936
0.21878158564192854
0.9830252780697568
0.0012857857261122166
0.2329219504073386
0.5753577563924249
0.0011143361750143874
0.9952415889989296
0.8830937795459033
0.0010000280407924023
0.0010000373880984111
0.0010001028867557779
0.08554136209450543
0.9972126747518101
0.0010083368952145282
0.4032001856828882
0.002674609351231365
0.001000979972622363
0.11254162278480269
0.1066786084539627
0.0010006358500817165
0.48603424709169973
0.08723860556284492
0.8859043325646765
0.0020318027745550725
0.994836872992027
0.5626877602366523
0.00100001379120015
0.0010000078175394142
0.03232428833199136
0.001278391179925591
0.08702160674825228
0.0010141760900193792
0.06305936000150797
0.0010407143024073278
0.001000584871762478
0.0016724497586187463
0.21436704631298154
0.0010021898208752882
0.9899164272462644
0.0010015210045051799
0.4374037938140228
0.13283967963187313
0.7445928400003232
0.0010002815050432908
0.0010317010349820358
0.0010423421253544535
0.7416539348328453
0.4356885462324229
0.0010000003540448043
0.08959816004389119
0.8008079256437713
0.9816177010347445
0.010099656083186349
0.11882309192968091
0.02016617942505476
0.946363107713095
0.0010009490928175198
0.0068950669759231895
0.34415281320807
0.0015347543707592537
0.027924676302299292
0.4369180229201454
0.19138833204428687
0.2905775427924111
0.8834375778504013
0.16564484029463608
0.23207143841754183
0.014091555174400625
0.8543763178157275
0.002781547877658734
0.0010006035479195152
0.0010011206199347577
0.9942299393236487
0.9831781710727805
0.7344503292306237
0.015034548300984652
0.018877863421360126
0.957634377308593
0.0010001409183081655
0.9647823058719704
0.0012737076158184327
0.11318365169639356
0.973048936177756
0.8530520726503361
0.6318426371307958
0.7083781355914823
0.7624053928641579
0.2118683565412765
0.0010004759246284862
0.40938080258447623
0.06727555757488654
0.0014399828322420826
0.004670028370587734
0.8374502906848356
0.004230878900193823
0.20271422429630606
0.8922267343370721
0.0010092322958112966
0.08424860054839359
0.0036880615359998013
0.08185322655308282
0.9140907936548192
0.0011065657659387912
0.001003037943352428
0.9412027969412015
0.12345710200742686
0.9792693235056674
0.4860518209337416
0.006142553332930165
0.16404944075199948
0.09727993139563908
0.0010001089342377384
0.0010017112511746258
0.08495218670184657
0.4354520611632254
0.6142369058451863
0.2708324942826543
0.04963365092451808
0.924459147477912
0.7663007602925376
0.6490274313193543
0.25492548732787645
0.9926317672776507
0.02846275483303875
0.8414979468237489
0.007576081409907311
0.001083841723385629
0.001083382914809535
0.14323527760330274
0.001000628638808254
0.6836828379511376
0.15837323082645033
0.3368679764426223
0.06614862074133446
0.08670713738891299
0.04184370203139386
0.40447559481019046
0.013795321452844466
0.10224010631342159
0.0010472746343825599
0.042908325449543656
0.0011815328012156877
0.6847451035686131
0.1684885155777791
0.997779407092239
0.00591791168388275
0.0061370639438602945
0.9996209317662204
0.9842420828065626
0.5293211382516513
0.003155071297470616
0.4518848643632589
0.33950926286289645
0.03562659710746643
0.027978806622580617
0.5979229986032261
0.9957566485674877
0.30491292362591715
0.9946609499465862
0.0011517127827596059
0.23930722639618623
0.0010053463486587814
0.0010686429955671238
0.6162232565268305
0.9677193113118601
0.8106245728590041
0.9848229112516138
0.0010713302542386162
0.07306788020402664
0.22161970756568436
0.26815410470097084
0.023626281419229324
0.3790980553514711
0.0013310975007492887
0.24457291471869894
0.679527852134056
0.0010000378624278766
0.005483522295659268
0.06268817233047431
0.014927350786737192
0.001000352242965169
0.0010988106770052119
0.05771276521892343
0.16497010091082526
0.001423819248718212
0.10472538725451165
0.33769424616839205
0.6903225917342556
0.717416334619402
0.001032948261046064
0.0010001631053504565
0.011722859211262801
0.004827296113766945
0.046781394931846014
0.35793348909404044
0.0010001931912342347
0.001532306287796424
0.0044686168845346885
0.00100575742912526
0.0010139172331201888
0.0010003404612657742
0.01791635719872723
0.13301608847871738
0.2553555378017264
0.0010058843122213983
0.0012465569310616215
0.002736051940459564
0.5388919013400787
0.0017231907464569985
0.10532729065889967
0.001177087006621369
0.003082699006673326
0.05441442619414465
0.06144542772735225
0.7549884229829831
0.0722071976149742
0.5366408600203033
0.051142409852158774
0.0010026717622973976
0.014222437569257229
0.0010006674260655828
0.8191051803244603
0.2709177166334989
0.0010393561778197227
0.0010116328309574827
0.0010929043820782525
0.049891602611120384
0.36890894957540243
0.09440361128625228
0.31021228535547624
0.0012718952543011185
0.0011763785779271584
0.0043142444135441695
0.5629584702811755
0.3430122067417732
0.014072972702156437
0.04438401098787146
0.03358627564108562
0.7018396215800962
0.19602263727451347
0.0010387229101654271
0.0038913945380778026
0.2258733617128335
0.00109011576155974
0.0011498644714377658
0.010254951321170783
0.006440334988224278
0.7061522419354567
0.06066699902143801
0.11010765263672338
0.20305986664359818
0.009130872944116034
0.9580821149240217
0.06357516247173654
0.7640017464426824
0.08256309041039292
0.12759583761259294
0.3071072186468539
0.0011475760699364086
0.07411758930407379
0.6423471022368886
0.0010388803021638047
0.0010596719979430098
0.0010599015643970532
0.0010962601781090212
0.3474474551675056
0.006609015332534725
0.9106111762531857
0.4006506673704309
0.0028050448011490954
0.001045920349280963
0.005910624754797253
0.8646662380363287
0.8241961601240874
0.002349718371386209
0.42385948360212095
0.0010539276283611603
0.9605823716020224
0.0010553070390182482
0.2501613013431186
0.005220848002339625
0.5968945164345927
0.004627862520589003
0.6104395783017835
0.0010276704838646706
0.0061658432998089934
0.012794178611564459
0.0016782130136203336
0.1288099862315894
0.934903040015783
0.0010111102432835287
0.0010055115360640663
0.0032093503959162903
0.1107612694650107
0.0010037257830047546
0.6118718552604315
0.7694734623965926
0.6253869694989932
0.9310892728378114
0.05914783155231966
0.0010000773053079313
0.981036336598272
0.0010001977498849356
0.0010017107775995647
0.6405901391629245
0.001000026635046554
0.001090830809152556
0.9123711949693764
0.042394434129184706
0.07321249392512955
0.001030312641759508
0.017051953202833887
0.929462632606081
0.001409214469312154
0.001001694875718386
0.0010265825538914963
0.0017017672482179994
0.00100000001677061
0.5748231452380947
0.0010099575330806535
0.1891423408518672
0.3528336787953142
0.001394363855298138
0.20275365725434027
0.04503886264023088
0.18688792974943877
0.025411164591862746
0.0010487122532255567
0.9957381553810832
0.9825642806501171
0.003964102406457157
0.005486124868826893
0.06577393274570972
0.2496882475212811
0.21149065566658354
0.7078838925005286
0.034070765611554414
0.04742658538850739
0.0013178761712405941
0.0010015579665959568
0.001068363982126714
0.001002466641330184
0.0011201632283535992
0.01999793758812298
0.0011052831417862458
0.0010020552837132339
0.33384967733187665
0.00587932438837324
0.001538105817339824
0.0010097380138756578
0.8974018584478726
0.4263659593708569
0.024786785359085253
0.0010561893309963403
0.01170914167350397
0.9326480555391817
0.9406241650545909
0.004778727016586456
0.009906554322599136
0.7997618586140405
0.0016031273546329222
0.0010091796349457037
0.0022628134383560214
0.0010004522157374082
0.15042828974658434
0.2693077470161786
0.006178085055517462
0.0227109498647198
0.9456980111495441
0.06073740739488927
0.7171892308491153
0.43633246337222104
0.0011703159687766692
0.003825468678803353
0.987642102040754
0.8938039379901755
0.38519183979007476
0.0011453497964729223
0.8252038474964519
0.32389208578577944
0.01647608967275575
0.5732040593141945
0.10098763572678768
0.06873862070167015
0.02078606187400112
0.468331949903121
0.6183875258983113
0.5134791132828568
0.9815573319162729
0.8803827953106863
0.728648578957842
0.2025271731816046
0.9878267071814826
0.0010001092997834304
0.0010000392277485556
0.0010010883658419039
0.7638790911968655
0.4978250822285002
0.0011839679176033938
0.8521322358595048
0.007381353517719569
0.0010000456029075184
0.002004156505906997
0.8404515614780516
0.004043474734631767
0.0015171167066596286
0.024208851987714504
0.0469152618305423
0.007761118977684125
0.9678438206502737
0.0010641557279197054
0.0030083850795985
0.7634792592133987
0.15823826229174812
0.9408406324036229
0.6118788031473328
0.8547723500777529
0.0017489499223050965
0.16904080972519644
0.4930928648520162
0.0017624267083741112
0.40611836814233676
0.0026379323432912613
0.0017978510524046848
0.20053780359752282
0.007417211386078815
0.0010000229458510534
0.001405425428118644
0.0013069208035634877
0.0010398619344501457
0.14727209061306515
0.006301387242859412
0.22044825909258153
0.001057789317746546
0.012652887601086644
0.04582608947318033
0.0010050011429987502
0.04186188240425901
0.0010016718002792174
0.7983542385297085
0.9974963309235274
0.14937282118398426
0.5216424515502509
0.3819252234158492
0.8814461023043838
0.12463411259463256
0.3072985025589418
0.027825281444032107
0.2699415483605441
0.885283641905819
0.001489273350502277
0.6189268555493038
0.027553790460429422
0.0010015199728093355
0.001000020396798684
0.0010003242638333288
0.8414194716570488
0.0010000000804940526
0.1561854983489913
0.3036273085211505
0.09191453404391675
0.023118013094720724
0.013354587922520686
0.0010018944531099362
0.1696896450732096
0.0010084851341629422
0.1040575836855075
0.01290610456151399
0.9806253472696175
0.0010124058950223118
0.1351600512472171
0.0010018794083807958
0.0010000233086572858
0.0010011201920218221
0.9141666183492382
0.0026669123431106844
0.001267105760306582
0.021978570058976007
0.5800281871832647
0.06491569466871071
0.0010225449174828037
0.08924952608495039
0.0013985853115307872
0.0010008813683712128
0.5150456413186
0.6421017255713827
0.020737936803994647
0.7753774215318999
0.0010738099009737641
0.8829758024762467
0.6255464715593053
0.34159030077780117
0.002927046237260031
0.9877195173671307
0.6131311631948527
0.0010034620153966764
0.9926881042671857
0.025255911889890806
0.8970933973666253
0.9738798208905275
0.9500343935341642
0.0021046935379298104
0.71758779482458
0.001000317526031696
0.04115871106491524
0.0017517505879930911
0.011962484339884626
0.002585729727411016
0.0010102349354331438
0.0010000436733079612
0.0010034032470430973
0.45570566173174404
0.0010000756514741743
0.0010549405587405782
0.001006836841313729
0.3790340924478154
0.025746134207497662
0.7188173194119213
0.0010038688787097144
0.9364495803115708
0.3021334796404169
0.46985140750470317
0.7202594420459312
0.0010000065352184417
0.25827238581613365
0.8852450646030197
0.6546114343439144
0.8872729914450899
0.0028301163238760854
0.9654541919079057
0.985161589617899
0.2647280475212986
0.020186869726568225
0.0010026623058477253
0.11873824654986476
0.0022878167303125247
0.015241318834621372
0.6182325398597291
0.7505336276084098
0.983865059713467
0.942684772185133
0.983244047548043
0.650611319961722
0.9314333886113437
0.9770694858268426
0.1744994239982508
0.0011191950133263894
0.7068429516842063
0.04445434565997098
0.05663340223920325
0.9368482367899965
0.08825681933764433
0.0027201783342796753
0.023217543012367794
0.0015254883301847196
0.49523321483029775
0.32416900379267843
0.11035310248981182
0.003927816054578315
0.8686225264597869
0.001000012631956576
0.001001529566101628
0.13035102974917612
0.44137917701838625
0.9301261506503111
0.7925988741408433
0.0015401822223002608
0.0010006038010129264
0.0010664096207357746
0.005774280254485631
0.35340878009928317
0.014492269946863232
0.14260493825350917
0.5428825804069138
0.0026224875498558264
0.0010266325227653043
0.028473563696249364
0.007771316933038232
0.45714602463594217
0.0010552565583872619
0.0036806991311696623
0.0010005650168468188
0.0010060297072366027
0.1956997388551446
0.6089267297640121
0.0010016706127564403
0.09006094187547677
0.001203524751090398
0.001000360567785797
0.0010004484183916615
0.001059092566384134
0.017471990757403813
0.17701238978344108
0.0010049200269250927
0.48370653412435016
0.12614795486483332
0.001284775400444514
0.6920889805424498
0.9951898537436762
0.5985041485811424
0.3203552387968441
0.0010406582455609963
0.9804818183001884
0.9555003621179481
0.12210271772708704
0.34066989790722463
0.0011230694957443156
0.0010402767873543973
0.5981826658172343
0.0010009466738893395
0.27201570253576196
0.0010038504489062914
0.0010011335094664154
0.0010000007298321225
0.5500741383795393
0.6455185555794876
0.9902080365635653
0.0010010935385759412
0.0017911339765022353
0.8532752725706176
0.9899305546817087
0.9445892385582293
0.7543870808543878
0.7955423866639699
0.7899506714432452
0.24896472683288426
0.015848462276620835
0.005192253880871527
0.9886509794724211
0.3080657174941164
0.0010065371080765976
0.0010572863524157229
0.9802506033168208
0.0010000137764027482
0.8211791490063644
0.001001175405605427
0.08349063400917124
0.001005604617637337
0.0808320964746391
0.6493012412541005
0.4728842340676771
0.181802805549648
0.11785178301772024
0.001177271972289596
0.9703076235408543
0.0010002078787981214
0.9428793389198421
0.006521154820471052
0.0011133572426272002
0.25640830687074156
0.5090031339405553
0.7648510581415476
0.9985015807655614
0.8589786426628273
0.005151074331202796
0.006291321525152936
0.1763988268876887
0.9934393718480578
0.8575500629279927
0.9768721147041021
0.1228058496262171
0.001009213061573092
0.48579861681312553
0.35481419348192855
0.17938660220402128
0.33828550851961375
0.8502713708206906
0.0013342309701328992
0.009357091745678753
0.9366089962626419
0.9293687367236716
0.0010000022443624568
0.022166688259647734
0.8966879432666568
0.4164786460909678
0.44276436390387014
0.9672519613565739
0.0010000459921879427
0.0010000294350203222
0.011017797862989197
0.008843247687771023
0.2539851704343491
0.0010026803302038755
0.014931902449704444
0.6323703141513111
0.001111136509445575
0.005539108668147948
0.026402481709888303
0.9389141818658309
0.9861967008569256
0.005473771190771683
0.049532389495002264
0.23008673736340254
0.3327116685191462
0.0010022845255919452
0.0033281253061979614
0.014202985642685202
0.3001722614278704
0.28831150245213427
0.7581900031651513
0.008598458051710028
0.036538671766510135
0.7130725046270195
0.9721605597531192
0.28673162148330783
0.007554335245019042
0.21989736839481042
0.001635091985777239
0.003662503123431633
0.1091150085467976
0.002109754922375226
0.9990277192384034
0.0010000204239976657
0.019752274922673434
0.012196009767848473
0.0010238459825931486
0.001015837598015709
0.2162621505682615
0.3398886796967283
0.9989556717184097
0.6003483368681652
0.6451601507085915
0.9364490793037348
0.7566243100186882
0.6817133085709818
0.02507170333714372
0.8909800423812106
0.0012466268078534016
0.0011373104266241753
0.7839020117006694
0.09375617222821724
0.0010194238147716121
0.0013743829218467378
0.00100008969262505
0.14906584215812715
0.2135098382389277
0.0011246238144022786
0.0011803741658613922
0.035508983397749154
0.9719737412480965
0.004448456854381629
0.08851634254664305
0.0013228223707385444
0.1013781503903546
0.001000037382409639
0.19416025767520315
0.7484772851365034
0.9164971754429544
0.06812138719391846
0.0010610759012167554
0.0025801762283779155
0.00538956193063894
0.5837448828530061
0.1257291412106888
0.05695273406340918
0.0010000764895011982
0.791309445652449
0.8024839019338679
0.0037028589499858958
0.838316349856826
0.0024162530759003235
0.12281547116664324
0.9614506610618027
0.04658010128404911
0.621621872399704
0.0010000415728459737
0.4079807219478571
0.33114051207051437
0.025272227140068
0.9140372067468682
0.001000789162744772
0.963657602885097
0.9541415574469265
0.2515739746825917
0.01242485944189278
0.5304248066270381
0.9808518484097256
0.3445138676757702
0.5643683100352009
0.0015389499607222404
0.0010000449578191123
0.002372596499718715
0.0014020416911702215
0.9686211767354836
0.9810469307258833
0.9770721416265621
0.9949136795872302
0.04675946463568737
0.001036045691927098
0.004432557823429274
0.4056688652423875
0.9787114028601709
0.0010011492355051163
0.002161507708149679
0.29244932839758064
0.006687780620847639
0.007908635736564727
0.5777896214305636
0.6493403011089813
0.0015650339640405522
0.42088340431163296
0.8434089464126423
0.032154438817908235
0.9060059742696213
0.7821644443315812
0.2006085022889401
0.00668046238336244
0.0010000000238909424
0.0010000041711013563
0.003867137544639892
0.787779640325811
0.22430145461134204
0.8827950657005278
0.9657837163836958
0.9219910338144773
0.0010005067132109237
0.001000315423714748
0.0010018977153780045
0.0010963894298262474
0.0034600996994845956
0.05459012524993179
0.7068900576903292
0.8259360633770172
0.002946382637745453
0.9773825413443153
0.5192689356427173
0.470460023323515
0.08705118430592532
0.3795080790042232
0.0035445931830948908
0.0011678061144381941
0.0023091145450544613
0.0010005031893525844
0.2484748268198722
0.001019175558674075
0.9532912579744781
0.38041752562255554
0.0057878109638269054
0.004293611883684297
0.911519828728294
0.8763669472807578
0.5579069006985521
0.8193994387750534
0.7015083247208885
0.289161272480499
0.005868861731042084
0.7674433523677973
0.001155404313795645
0.0037190373555119633
0.01325651465396261
0.88388138242037
0.011228478767722143
0.011505811255037572
0.004077655504528776
0.00610444739546533
0.0010000006919973724
0.003811189409452458
0.006875186089229346
0.014003599516082484
0.0627469189433311
0.009353581011679147
0.001893899832709652
0.0010058855943425105
0.0011030123653052646
0.5097746462765174
0.18771223733872555
0.012227436888507668
0.004572370882922266
0.6460260279025065
0.0013848364944273293
0.9156740708500007
0.0010047857535073284
0.0010000173677794247
0.33065675297928276
0.06405465309191932
0.332734398031933
0.011567915800229336
0.8665722483046074
0.0010000000197109052
0.0011712632752977133
0.8537345914988214
0.004278207531675293
0.14378077729996017
0.9855534695252864
0.6441400811594354
0.0010060769000040078
0.978360210463715
0.8338671811349111
0.03586597372734201
0.001125175131786883
0.0010124370206971408
0.7514764344278896
0.0016516209661933162
0.8946024872589239
0.004814026440328887
0.03600856393017363
0.0010000039557275266
0.10624663209532033
0.8083118875490259
0.07236637830494995
0.008704962142970146
0.0011369740346132496
0.929768627715153
0.9128136445200753
0.0010049964605843586
0.0012854985887499404
0.0419286708998645
0.0010367143091297418
0.7120722006494563
0.5062473807317027
0.5958783451239023
0.7803176472893198
0.004578042847246103
0.0013073442900329185
0.011600949943090907
0.6822464795182865
0.24359514555853995
0.05066689975758622
0.31755845159481905
0.8399353655033158
0.34297522909831174
0.005446813844448137
0.8581643881628592
0.0010000684284277594
0.0011250379471753787
0.39240243877253295
0.00872401295979804
0.005043312081719179
0.01877338338354807
0.9198247545792815
0.0011152706452707036
0.0010000939640289008
0.017397443825307994
0.017838476753114844
0.46670986952129534
0.21447401425689622
0.00100090024215426
0.006660648913340401
0.4744819514771511
0.0164509373538355
0.08266408503676559
0.008714928036920252
0.10469153054006608
0.0010951623763721706
0.0017009100450995312
0.6803377179478245
0.9235014775212862
0.008196151166587002
0.5446154588672707
0.07184113955416209
0.005359006060924892
0.04632172486418772
0.0018510320053932508
0.6727388491363155
0.013202878909865205
0.9339971366316584
0.7371577389848326
0.00262334277238831
0.0010040335468492075
0.053883535978459435
0.9362586163672277
0.010025960988513168
0.260513014597769
0.11854278455621929
0.012878121937125859
0.0010088811188260474
0.0010000378819326507
0.3950275769629217
0.0010246151681326963
0.4183407120918645
0.34965890203246797
0.08134528008932926
0.9526527944614654
0.9140799564889961
0.7275817795009586
0.3381728220453903
0.6208246338234907
0.8842520225059337
0.6834109297321962
0.05554092039003128
0.0010173224059784368
0.003093703340413866
0.001022621004954229
0.7396500421268482
0.005672667126074224
0.9817027557426844
0.001000257622801467
0.7961168438522479
0.5887005658283104
0.8806720987654223
0.9929312327452112
0.018389220007196436
0.001652955848876788
0.8270975905281935
0.8784036707830406
0.16651921210866774
0.0010043295380881899
0.0010788501717268373
0.642423382311197
0.010311320736722106
0.9593237981269378
0.9686868420719815
0.6051032627375894
0.8484202386368125
0.16434129325932265
0.23698666636838434
0.0010304901788975717
0.013022370274966104
0.16649669147583623
0.9697320778398271
0.005261133466514003
0.5380472535339572
0.24742597353505927
0.0010000002445466638
0.8280193241335375
0.4996611059140907
0.9327766065724745
0.9957597114478891
0.05785871638684223
0.24999840951808164
0.018300298659656263
0.004262473423657272
0.001271821598615253
0.3998616768039998
0.47606093704492236
0.054072944436769126
0.025914797989731123
0.001007406037700904
0.0010133900275876206
0.5771341507561416
0.7471138096248091
0.09318257377034606
0.1379442745026461
0.08240399844629522
0.03245211976472047
0.7041307785360462
0.16282305566068836
0.213210265003486
0.0010268664734965085
0.19386959595661746
0.6708106094111026
0.024611145595507387
0.8223726754853276
0.09483375437645777
0.8489253865414104
0.001180577854795636
0.6684847893977368
0.03579785075331989
0.3747788938104832
0.008269337489815332
0.3845759643846542
0.8499721717697667
0.001013424952920089
0.024879561514376935
0.10478502538955638
0.40516717513974687
0.04113246854092175
0.03043175711767234
0.025008517006469305
0.9057238457233225
0.0014121505798335276
0.0010018425121021846
0.0019031582879243342
0.009453440688026032
0.03951934359496193
0.46082791883106006
0.05334336609978386
0.4524950187937972
0.0011340951771265382
0.9582739102116844
0.3254253519682332
0.6484441774737105
0.02127086197651372
0.04821060569931295
0.8303714310218238
0.001024565093290353
0.37881745731918115
0.10203989632298495
0.7451675938768698
0.7447562672106472
0.0010000002239236821
0.001003547672661154
0.005750843124836785
0.24194345839159742
0.15479963442035838
0.31505254962536594
0.3560985376335151
0.7134980385478605
0.001000011829288092
0.0010042257363869493
0.5502763406441195
0.6451186933952605
0.6697630452484846
0.9484597886001326
0.007915610915770092
0.4839530104550409
0.4209398920843506
0.02278890572414327
0.005852084348542983
0.0036194720285911797
0.252535999540722
0.10209711892731223
0.8379630697603981
0.002296122647575805
0.9147288640107855
0.5952969534377338
0.001682349535853399
0.8725761538481461
0.006819834998054264
0.34613818811000163
0.027382649950183784
0.001001118995141344
0.0010465363902171137
0.3937652483981261
0.26865084923359445
0.9133566222800558
0.14061012662855707
0.5838312497801444
0.001154118355806465
0.002719540367403953
0.03782282456032152
0.1111158139242425
0.9303832606022214
0.05135872121791471
0.0010578499689349633
0.7739659935564109
0.9924039045281824
0.25144753958693233
0.04003735951877282
0.4916194404042622
0.001028146017044152
0.0010019448166823217
0.4721551973528784
0.1798426613311945
0.029343918745209606
0.010092292110746404
0.4462114285592906
0.8356895286658954
0.018761650659403706
0.001030966987251422
0.0010305920181697284
0.806311545625643
0.035496274366181635
0.014747876792743444
0.01551791241927565
0.00451343555079387
0.001000000591286326
0.30760037495996445
0.009598050893129807
0.16306484105727248
0.29905099883183767
0.021157237206827623
0.0013942464624001646
0.0013209405198196886
0.4468587525112092
0.0010013072951842563
0.0010096258754216576
0.0011716101431887187
0.7844776239764427
0.019866741648134557
0.044029915519539935
0.001081376826259863
0.002787024631917211
0.8283573417190571
0.5625214500448421
0.64502875137857
0.6836048602696967
0.09166819626547369
0.0028049264425306854
0.8510149988186831
0.11080825494967626
0.5071378452945893
0.7135471529068749
0.23564567103952416
0.0016700493625417076
0.0014703360889279356
0.01809035935297969
0.029494317822844056
0.01587636076295648
0.21803586280443776
0.0012121070939585202
0.0010780193948381224
0.5631898171822994
0.003220540098267662
0.034089293787340394
0.0010264141284540636
0.010885577969196616
0.0010462884878995535
0.014357481205755609
0.30980033616912045
0.001007368842125421
0.0010822598195406204
0.0010283648578226351
0.811967670400871
0.024113114726125887
0.0010002079099679475
0.0036639662752315305
0.008890032893408891
0.0010003690562063853
0.002790264256481723
0.11097898169136816
0.0010029165093582138
0.18805873927740124
0.9800951976059341
0.0010007872610113173
0.0010294153074796618
0.47503243034710424
0.15075711996362104
0.0010072825496300795
0.35458690228339074
0.0010005593520185303
0.013432888662003255
0.6589723319653045
0.625345976002166
0.6527635993291262
0.9119126780104145
0.056694645428569265
0.0010005289650365037
0.8963242558251026
0.0012313891979899396
0.0010370087647875123
0.0010924700770717894
0.0010353546242265308
0.0010000000781377565
0.0057542344686751
0.8452282603269488
0.980711843625317
0.9955228688747957
0.0010564557841086853
0.04143959445665628
0.309348270634851
0.0010000026505251087
0.9335597918396243
0.0010545919310416623
0.0010521606495382445
0.8120388348115058
0.5805385759243031
0.001008165086214821
0.0020699704948427614
0.535383593098423
0.0011793021910446644
0.01674308671084652
0.8334795207614591
0.0010005583773148234
0.38547031460654474
0.3729728754473215
0.9690793878699401
0.6837093466948472
0.0010425365868568758
0.6484841277875102
0.0012610199021288173
0.0010003919451303316
0.962976607561113
0.9971724055735848
0.0010005930642065458
0.0016911365076271976
0.0010925201515527855
0.001446932021244368
0.9032478316822788
0.9424816777882966
0.6900830548963133
0.00126750391783725
0.964071890736262
0.04582636879257729
0.0014217094706041012
0.9619355429369904
0.0010019132544324776
0.8508533022648308
0.9781749949154693
0.9971775169792968
0.07380774697743055
0.1844097295608717
0.06317117316438382
0.0010000304039559386
0.9797585229903386
0.001000004743884589
0.8016837350105847
0.5031734682953153
0.9164596234812913
0.6880555379651022
0.4025394171591584
0.9915568480019823
0.9001200755979128
0.8664333926856495
0.010066087179579655
0.0015985160871039511
0.0010956528069011393
0.9792135947520475
0.8072784026247338
0.9948863751445995
0.8402466693099993
0.004062926398449376
0.5432246031866396
0.9001478567941137
0.13891178890583894
0.0010000000911999248
0.25632216660605567
0.001006239192603525
0.349077269769288
0.0010820405654907899
0.0010000001128069125
0.0010000040099468316
0.0010000148501963632
0.02996569312605101
0.001000000395522294
0.001000009925679088
0.037808361893604994
0.9864507311488777
0.008851073377736957
0.0010044662306394096
0.7645161926425498
0.08957183339341442
0.2457524322970936
0.1927200007147778
0.619053537142774
0.08504491124538481
0.055351854176464
0.5162660120817835
0.017080266281736027
0.0010056678453193874
0.004482348789050435
0.4444527064510509
0.3427207355088779
0.8827660707660007
0.001001301563381687
0.0017349101635233803
0.5242132727470403
0.0012109914785410714
0.0010053975210536688
0.013702165816742239
0.5732547589264071
0.9853345106703514
0.004130052296300261
0.001052607483851816
0.025260194106106932
0.5130210154091787
0.00738401030933194
0.001003808659241075
0.001000302812813513
0.0010400991313941252
0.9824609041403048
0.9786726227608779
0.0010163345616018766
0.035092419182336125
0.006275493946414599
0.7145916675670266
0.019621509827092896
0.13042923821958158
0.08060211527566828
0.006534198483843925
0.32613657731475515
0.8204650330073016
0.4559853259597019
0.006760253407242106
0.8705214488653606
0.8247268238792156
0.0028580248169678946
0.011881406560651547
0.4778755185974101
0.0022906137065345613
0.9754771360744245
0.6997778390920542
0.7673478986232848
0.4446298693197838
0.0010000539102558946
0.0010082725840888356
0.001164565813976222
0.0010007592975697934
0.3429270214451106
0.5774945199113043
0.0010075002833431093
0.5781436334456767
0.001022977710659375
0.39625196478263014
0.001691873125216859
0.0010113689438884714
0.7359961245955788
0.9981107532976663
0.9817287142899116
0.8816195940729418
0.0016501165284862405
0.0017006423986457076
0.8232956502385701
0.004949330640017662
0.0010042292760480665
0.5514162291894653
0.2826924126607658
0.0010304527678296502
0.4693335870266765
0.9723413555658581
0.0010075313691072197
0.0010038098079543623
0.0010000011793033891
0.0014008857279890993
0.9961992434849072
0.38158890920396665
0.0380218316403823
0.7245695253442299
0.0024431519200198647
0.0010283133895880399
0.2188183139040712
0.612523693859625
0.4552350825046116
0.0010000020490040275
0.9974938588132382
0.978268967985356
0.6341886092246014
0.9923616805042349
0.9968137990814233
0.834108673510393
0.43894827462269415
0.001001508245118714
0.001469862077541905
0.008106950254250815
0.001020506371528678
0.0010780927137266309
0.9106117686353704
0.9833540901933904
0.8171019894004383
0.7176935740670466
0.7167264248953882
0.003433501029104189
0.0012918246532309923
0.11162075949133402
0.05525748200842997
0.7193173926801828
0.6445094192145893
0.060241508894409185
0.17274205747928337
0.22471863673615555
0.0010025030542572212
0.009494356458531587
0.9961433200312031
0.0010796992928624415
0.039173701930939636
0.1456766414477369
0.003243625785690844
0.9410970399310071
0.0010031667272044024
0.0010008180993779237
0.9932742406942732
0.46809788904052785
0.0011382267060709402
0.0010000026627548506
0.13017877869082622
0.5932226224067298
0.13781326623341122
0.0010299363900976718
0.6819171583367221
0.0010019170407479022
0.002196223502646012
0.005702395682543719
0.9472862964093086
0.9806594967443534
0.0010023270598280714
0.5030266195843353
0.9379319950522754
0.24263463168740543
0.001014060707118565
0.8363397858633337
0.0010121036131885248
0.9475595562711244
0.7097250567547063
0.28781790603242824
0.001009032544632193
0.0025387475451924685
0.0010034423847017518
0.04374670611212319
0.7536946598560358
0.008901948974510823
0.9917098956896091
0.0068465874264279775
0.002956138111363466
0.0019327738416793799
0.6525386272224503
0.002703297977873862
0.0010004402725449922
0.0010003053181912686
0.9848390892272983
0.6394319805088369
0.6024056862490164
0.7580938109012382
0.9850460969189957
0.0010013166313296807
0.9510043791847225
0.45574176147564477
0.9482169408971379
0.0010042928825169974
0.3935867488005247
0.001019415169120677
0.9880930742058638
0.933502685860847
0.12465156091556814
0.001887600301257981
0.8268614697263327
0.45089796849017943
0.7991488410941312
0.27815647211074823
0.8797698889542138
0.5988512756681802
0.003964430738095725
0.12185497585445798
0.0010140115701546214
0.4516033128208347
0.0014152726303328336
0.04301162495093622
0.018025736763796957
0.40408073158272795
0.08274125179997151
0.09627351893252818
0.0027932229294842605
0.9463366443341705
0.0034764281256460558
0.3983733096213779
0.03887015153349695
0.6543779903091339
0.00110719707228778
0.9493655596869265
0.3312124337001826
0.04312468130897772
0.5236854478178536
0.007078928627802782
0.04149325873598473
0.2694075840516682
0.1267921315172009
0.5462527638489927
0.9030751873067833
0.003258286406007584
0.029230678721823514
0.979930414259279
0.0010000001792452994
0.0010000001349943115
0.009081960098353676
0.10987088645392104
0.21293950170674752
0.9787977055888676
0.0010036019995970245
0.5850849162615295
0.0010673674079710275
0.9084315536984919
0.001050288846510635
0.0010000258972909049
0.040330182211754044
0.4997851906798045
0.9493371032182444
0.21838847769077738
0.32602378702415896
0.7715722864172778
0.001194418434477483
0.24557173544321861
0.9897446418043783
0.37382800565388863
0.4861260878126994
0.003173831391920887
0.0012828373900372354
0.5119139890565102
0.02076108052202018
0.0010365889972721806
0.9679358859538684
0.32250455215459856
0.3335521026046936
0.6827121006710161
0.17295102124155148
0.5602371764308719
0.15240327366897694
0.0010956523298851987
0.5669819174102928
0.9987763656592162
0.6974708153264484
0.0020641628809963527
0.0015000248359901575
0.9209145075894745
0.4186944668992521
0.670966283850797
0.643931073431215
0.0012986872533957998
0.5776385085029939
0.9674482259787497
0.004553513002601638
0.06902948358933808
0.010254542036529955
0.004494069210479924
0.016134415736817172
0.9303434624917787
0.002125461629991571
0.01056064243639681
0.1254751075367062
0.9312259963283361
0.774478924700286
0.015809697193261366
0.0014638253539767821
0.0013295905462282847
0.5699453599077516
0.0010055164884165133
0.7935891007857568
0.09544263248524572
0.12087321103164167
0.9934702351708968
0.2759003735878954
0.7924086204112257
0.8740594319942341
0.5539625642531476
0.6531709432871935
0.001016235944730777
0.04398468138886028
0.001000533866131035
0.2232367754292154
0.001630317770822987
0.001009017151001375
0.8373828714612119
0.9383838399957273
0.919526632939136
0.2210141076560453
0.7242872679809131
0.3776409671653475
0.01211204978837484
0.9127364991479928
0.0011064243369645977
0.2920801709680338
0.4743807205185292
0.9140361826339561
0.0028827161571716563
0.18650290228328947
0.3871799442008885
0.040199140283184734
0.005813148507749011
0.0010007114445092424
0.08929803509910376
0.9731380011246731
0.34952142085584265
0.5822472184319334
0.001000811524709887
0.2567461811262739
0.4210574123063129
0.37239856940510097
0.0010056150502103743
0.2827016534694394
0.7478848862981424
0.910999330107334
0.9810466735911819
0.678092726879726
0.7063311624891236
0.15885972878995877
0.06884006849719865
0.0010115943180076428
0.03401982890377562
0.4591783851049961
0.8727469470308735
0.004012578889124858
0.0010041706329785745
0.0011616139107318674
0.4884681542187489
0.662935453750263
0.8796173276830496
0.1589619464049139
0.9658950171424099
0.24181080383141787
0.666090639757891
0.26360821350017155
0.8333678768719381
0.5026964158763406
0.0010213638844576817
0.0183750115138289
0.8064260365862853
0.01624406448595439
0.7965092547608185
0.0010002589717240963
0.026635140149416297
0.9407196042021703
0.09049472388057038
0.260881780610641
0.2910041222033291
0.0010001224282113184
0.46266066684411145
0.8255678124305346
0.9768834709259494
0.008718714293741108
0.9822282092404092
0.015189530358821007
0.8887519516932086
0.73233696567235
0.4566764915106031
0.0016412556335044701
0.5962473377472833
0.0010324335420693704
0.958771388349379
0.015483020518856864
0.7404210017807515
0.029330871446094305
0.08802970648143507
0.9394942156074878
0.00784945537220285
0.5877576657964347
0.9753788617137099
0.07472614008814953
0.03134334132720384
0.16905559162488246
0.00236223314333476
0.0355048160196359
0.8132270981133881
0.8032184964748276
0.0011602164380117965
0.00259640294860323
0.9942367178046726
0.0010081324350496074
0.9683133284518898
0.040000977188625955
0.13045712051071678
0.7631921253822072
0.9397642612847883
0.0013762986714337302
0.6336250908966939
0.0010062146902020442
0.06817831714227855
0.0010794721240571987
0.01203211328580062
0.018873774570374285
0.0011652939186697034
0.8599551953233452
0.001700795327777939
0.4287946322693064
0.6634271078266217
0.8301849194157767
0.019566108264769053
0.04125872852790766
0.006678456621467615
0.5560817580434486
0.0010143553922574244
0.026671734937057826
0.5665585278460942
0.9618018885910775
0.08953534458836307
0.1085214376308699
0.901496100185265
0.012876314808856176
0.008531430569557012
0.9295938287686631
0.14974733879623162
0.04758161841594737
0.9118304247266769
0.007718121977915415
0.7108846179047137
0.7499193155986208
0.453602812338521
0.0328079489161757
0.0010000017534022934
0.3385231375900093
0.00452380299616421
0.0528364347685057
0.17369987575799958
0.02066393134652263
0.0013735196338441238
0.07643760470991122
0.0010050322143052095
0.7881906667380082
0.971695967096493
0.01612615115922601
0.7623154107729351
0.5130001372515233
0.015253065212035115
0.12022629022229729
0.13619957993981793
0.18060508203505501
0.4329545252938855
0.004617538008259212
0.30271981897977446
0.4970727148052628
0.0016341205797264966
0.012751681155152867
0.0025683044267863255
0.36824152918217656
0.8906058952911575
0.0014497986447154813
0.23552889847076158
0.0075119425093720955
0.10539978536656816
0.0018742757856565163
0.0010038346141584848
0.09317790056904077
0.0012784518059494644
0.3312742207045447
0.001146111669667603
0.12025629439353909
0.7113146604457885
0.5436554148302198
0.0011882419184958803
0.9135580120452973
0.0013642440978875168
0.1039862196439214
0.18566970079733436
0.9090808412212046
0.019447301599810063
0.44536335192871235
0.002695348279429576
0.30828747778172055
0.0010971871175842
0.019382411701183697
0.0010211068360358375
0.00249555079240464
0.02781474962585798
0.0010878549438106903
0.4287241860235801
0.005780027063352836
0.8744974784609101
0.0012681627328457606
0.7885377127007126
0.1324501018608402
0.004204936786779262
0.0010369610199976833
0.0010098717977719393
0.9297002174827543
0.9796131055512473
0.001265369573284116
0.33812511127365663
0.9620555492291668
0.0641297105288681
0.015515479412780094
0.001044517401167617
0.0010022944296547709
0.9226277888233084
0.0024836485182566353
0.45059382649195484
0.0010002374289264566
0.8624190272478398
0.1960797861194848
0.08651299618485535
0.7087042111355242
0.839397183369222
0.792667595085449
0.00824519303372446
0.0842362714370099
0.9862303713156584
0.5435373192176591
0.22074211649837977
0.9821952889422843
0.5107217450168862
0.15922760702272015
0.5319624460017829
0.18611515722154084
0.7188648683253207
0.040097413828019235
0.09333010869446016
0.00100001871358378
0.05101495484924327
0.0015916050375604706
0.01955322829252285
0.7203924975035193
0.0010010550071476224
0.0010470681747734012
0.019020590842686307
0.0010385781487327022
0.03519832297105511
0.3865725546449661
0.001008013467030387
0.3915252043218661
0.0025471775372168754
0.001191430536761628
0.32084420599512586
0.9835427737560117
0.6502313551693641
0.20767542413133722
0.001349980604824342
0.0010000250309621461
0.5264403780816708
0.0012336979459341003
0.0010027439790632994
0.0010000109178881723
0.27389319444541227
0.0010975162822126504
0.7873489788053392
0.13065979228193
0.9576062884707982
0.1871637588585554
0.00100013856856211
0.42109406200861976
0.7987491346179851
0.6470830767786844
0.9185599682484007
0.00107515432406518
0.026481207706949485
0.546233793562948
0.0010107081220807935
0.34519007507081967
0.9847141384415482
0.015220491315514912
0.014326652689108488
0.9878282840423815
0.3974296907862872
0.6574057273684571
0.0012358066466004582
0.7012935734972415
0.21044658970051602
0.008475421324176988
0.0010298645937819016
0.0010001832118750344
0.9622012680848849
0.019186847139274453
0.0013661121667665516
0.16586471239604078
0.0013273226103299586
0.0010384728679305078
0.457805706924133
0.7382481925740617
0.9805754641251755
0.6258067694796586
0.0010004869943103258
0.9209050545043864
0.0010039589381303758
0.7502546926213913
0.0010007161327280668
0.39184217189325177
0.9667849445085523
0.41327779002579723
0.3239929959363386
0.0020198248934839786
0.34278746815582495
0.0030856541330277565
0.7319825779334648
0.09679738775521372
0.8974358751981376
0.45586355676994383
0.039629829367584885
0.0025850481198828623
0.9851547313207317
0.0010154950838978374
0.0086852714216539
0.7978387284110785
0.0010834173046851217
0.06724241677643461
0.17560584369483348
0.0016087018827184855
0.0010003443140893641
0.10711866455858285
0.9013949489179292
0.9996957766799788
0.11065624867641406
0.0010000597829611286
0.1834291843596175
0.006230662515410333
0.0020405982845397696
0.9720188332389749
0.0010009077471674003
0.9976903193416707
0.15716575208317976
0.016883817900943753
0.8367448085524058
0.0017521789473969622
0.002405795507672808
0.001106137029924082
0.0014781966850038024
0.003959230395972291
0.07530339353533254
0.992833163142902
0.001054978529173931
0.0016362276716240542
0.0010016665134493284
0.0010061332922829496
0.001003923991344537
0.8651438737524563
0.0016405856776241946
0.021133990577307978
0.001000035659310315
0.9866969063275574
0.9666150317986778
0.001014464570253544
0.0010506404400415221
0.9983556228043198
0.001013165485648029
0.0032972418607791903
0.9883412574678484
0.9931749476705879
0.00135371898100579
0.0010026436682497013
0.09794028444578337
0.9083186191892498
0.9124025885964376
0.0010042119166671164
0.008085401811865265
0.812386005479248
0.45113220425580314
0.9144784152697337
0.7358729635164316
0.14702224043391035
0.0011042894580518734
0.003673044958079103
0.9983567691743327
0.0016312342018923185
0.9529837276139878
0.0414986266805376
0.04605927187763319
0.017026829318745787
0.005870598382642502
0.005598156777456685
0.00444982389367861
0.9861482332219308
0.0839615296284972
0.018444785913459057
0.5041780127910698
0.0012262478295223377
0.001037553597425874
0.0010000821763003268
0.059459207859668683
0.0014762881892333131
0.0010013803878053556
0.0010000013243878034
0.08717783022554357
0.001043180477598798
0.0026168940784919233
0.0010002691376697487
0.9388676887381091
0.0011552630370439715
0.4937669555845354
0.0010000080929383549
0.14162798381925448
0.3136814999548987
0.32133905638731014
0.15514464538800526
0.9336832179247725
0.001620786229557056
0.3108909114130508
0.9060536322018866
0.7171247977909723
0.0010280985573135233
0.0010001145897958713
0.7317655763222951
0.4963214768404188
0.001000007772756628
0.0010007485658696902
0.6952159192317091
0.9377019730212298
0.0010158049913919058
0.06027240258914396
0.987175892724266
0.0010883399025745975
0.9631877441440252
0.8630873507479839
0.5109367886615314
0.0012742983772360923
0.09785450096867099
0.0010000003441424943
0.13648852131195802
0.003065289751706149
0.0010003186734198674
0.9556869786063591
0.9846486715414533
0.013285872183471482
0.001000004517549674
0.6461603221054373
0.025790676895963083
0.001002292115331624
0.008758615287140389
0.009072060947222443
0.0017430228463825447
0.0010000000191575725
0.0529650416496615
0.929825034046767
0.571125973916071
0.0026118451628948836
0.6314401275103418
0.3547768843441512
0.9227505484198416
0.800158820525866
0.938789706940058
0.0015956379508269944
0.831289025535933
0.0010000005557801687
0.6963526003455542
0.4278016980946285
0.4431506287149794
0.0040413566528163004
0.3174702833516736
0.9821127079849173
0.9940460496776657
0.0015385259614424118
0.001536347942783607
0.9680526337811872
0.5755817194675912
0.6800228254099245
0.051114733124698025
0.020757926826315866
0.07502873679301247
0.6984950672711275
0.0889648346293805
0.7071117437524578
0.9784715420699016
0.04960521095378913
0.2240056829588204
0.03273165466569223
0.774177749173862
0.001015610348411181
0.001140850802338584
0.8187011573596613
0.7146990041136695
0.8697283740343292
0.824425807799567
0.4620545445306867
0.0010156514465924974
0.07212236180892799
0.7849684314394574
0.005879510984691324
0.2888371148954719
0.09551707036553916
0.5988852740216627
0.44036944431984604
0.0010001166616894009
0.7135303704678069
0.004825095523728862
0.5747664604041419
0.0013385285253327392
0.0010071980687444096
0.2981328966709987
0.12400333886734076
0.0013782427807124149
0.14457963748125735
0.004290268848191885
0.0010093334787352867
0.957341419309316
0.0022687048546319523
0.0010047809244676995
0.26215427973403793
0.013938828083438985
0.0028920655513283186
0.3833775808827765
0.06321201805792032
0.0059281707786348085
0.08975551814626892
0.197035017399163
0.856284583086432
0.005168396492754603
0.8608819446410374
0.9600392668678089
0.982033459191258
0.7043533987637485
0.0010044194193297414
0.0018240362570508366
0.17903665776529204
0.07538473853995838
0.8439452786947687
0.001000945597833417
0.0010262461508006122
0.001000014596386099
0.0010200816985905653
0.0027427797850631125
0.0031454958017490277
0.8742854007721246
0.08055802269123763
0.0010007249126474948
0.7049098301317378
0.33884787867242827
0.5517174037185351
0.37575102935599564
0.002884577257101199
0.0010000095605078292
0.10296627412965287
0.6648941619894154
0.8089418657758346
0.9878467671273052
0.6314043863030305
0.001731227321217491
0.7421736313024292
0.7706014440234487
0.9478163467572676
0.7893527116182325
0.33140767870127874
0.15860889808332795
0.2651551822150424
0.007107634464900967
0.7804254554997362
0.09405366951813508
0.0010558803940048955
0.09865337740605261
0.04248642898782691
0.001001845345428507
0.26873976349971
0.026319348130690416
0.004134114820815776
0.5311763403000453
0.009645457107668055
0.8353842046796681
0.0012250003382379
0.5561942901454202
0.7556603139769712
0.0010207905929745461
0.0016193961218839781
0.021373584433807113
0.4580790020992228
0.4698377640949549
0.4384894210880152
0.19942059442048976
0.0010855661795603148
0.0013526968886901488
0.8188263266712439
0.001098107295436879
0.023472611601376998
0.9251557363389273
0.602466089013619
0.0010919488835922438
0.28103819272150715
0.2232774024307172
0.0010001006253122441
0.0011291043551081672
0.3300447830297783
0.0010004688668871068
0.5053378010610473
0.057877146782009496
0.9293923112053346
0.001320904565955311
0.8316776235026558
0.0014325487316831816
0.4331133557641345
0.595746714676313
0.05407115335154782
0.0018543447395870964
0.8542438058411911
0.8693254759996988
0.0010953610735636944
0.0019910082999343532
0.0012312831354974903
0.21417643219846638
0.8920699553289042
0.9572981858106523
0.9228105746649155
0.03270378150731702
0.5779543295979613
0.6995954191246808
0.7963991977514273
0.10771294656334138
0.0010345895106804934
0.16332702174416497
0.5907999903761555
0.034545291469465375
0.44756637688883977
0.3819580907066831
0.001000439649748367
0.007978682921402615
0.7482783279987901
0.8217408459578577
0.03204441050459729
0.5171477271082107
0.027090078428104368
0.8762198535471964
0.006744029266465195
0.0010001227331281708
0.001000159250653546
0.0010061915592565723
0.0010660109640086414
0.6209822748404513
0.001417970562003342
0.5225510620046244
0.2703850725111943
0.7925228134058759
0.49000981672223054
0.6655602220840092
0.0015603593608759531
0.003811703325651621
0.004291140543929772
0.8998031518807003
0.2723937487750202
0.9387453656543541
0.004611715569755068
0.0010120241090118502
0.0025391375461204287
0.5925561562048108
0.01128036886029778
0.9519815013201559
0.11824024387763696
0.0038345094486031926
0.001034900191929212
0.32646718711981365
0.6202700893807385
0.0010529262867708588
0.0012297795841608918
0.0016977140221593268
0.02036337057420462
0.07410985311853495
0.0010350436669300058
0.0012309668485090987
0.004536950379052938
0.03734832054516912
0.2510572944702807
0.08960238291616691
0.7417879453173313
0.12833369062644748
0.23120541552587945
0.532678000251673
0.28315423718447247
0.7997251726584875
0.05177743123469397
0.0011487260662066308
0.0018903588276161648
0.0010151670535573092
0.0143197997601745
0.7078270359935085
0.02239247002643396
0.09211669839190127
0.33046094907064016
0.8579202502577566
0.2735098949251629
0.005754465603000555
0.9883625811603609
0.001168125581034826
0.9775988777531759
0.9490816146132306
0.43797498333012713
0.7395783687467391
0.001218817327985341
0.6026727466474088
0.2830267094295176
0.07646768928676657
0.002755147264602065
0.7257979782783716
0.02497729308852526
0.5123303267919527
0.02136234006775238
0.8858635897053907
0.5974747029764469
0.01888411779159094
0.001002448853617339
0.007838747756082988
0.0010214880809322681
0.9734934592180517
0.001000009465727458
0.001890951336735139
0.0010759241378958022
0.9864516020633315
0.504589382985242
0.6991979462301192
0.12575876886743143
0.0010687824922998336
0.1831023783611161
0.7457246163996483
0.27315662065191515
0.21569321935005842
0.0017062654988814377
0.563475595759056
0.20458127349445182
0.0010000710033499672
0.01412821945807996
0.0010000305152750466
0.10874393578309312
0.8044946089732452
0.8872916163116206
0.791525031532447
0.44015964377633127
0.8898210595054464
0.08003270467910155
0.9210623479012708
0.8515501893207155
0.9774238909317616
0.9439789442289968
0.001308302725972876
0.0010116115981396868
0.7855907866483498
0.8530936307811608
0.019395415711689682
0.10627941646607514
0.16179277983414184
0.004248153947340207
0.5556189157752507
0.01829478898224985
0.7740433402426405
0.6100251022689043
0.9696510300310687
0.953421110928506
0.019622056270773052
0.016544106107032854
0.0014306540771769328
0.13168333422759326
0.9783222445490174
0.0010021357114620361
0.014680120550477922
0.018621935644190162
0.8363278687703644
0.001000214523665277
0.2186181811707091
0.057427141372629796
0.9867719804359832
0.9927322967958289
0.0077733286357676195
0.024982442243335016
0.22498962620958296
0.0034035452329959984
0.0011882746108603647
0.027861267783391114
0.8004327452730085
0.0011656714115233372
0.5272548279492587
0.13931336608899086
0.9015374738868615
0.49475088253930677
0.004421187938762393
0.7049653227283036
0.9576744179226712
0.8642174534227994
0.6823564258150584
0.32497145536126515
0.4788173664252891
0.0013664804037056087
0.0010908325660193854
0.0010003912844685002
0.0010403578377528508
0.8342140800259472
0.0010041740181871645
0.2621917953279408
0.007289780656827909
0.0010538740584113884
0.0010999579099308559
0.6273395730554623
0.0050227273087282975
0.19869865592806724
0.03687609520796192
0.0010000040167479757
0.0028329606254862503
0.047831966412931415
0.007316222781632601
0.720772518155076
0.734804399184754
0.3145798045407926
0.8997400081157552
0.6652636492792097
0.0010002766809570083
0.24800391355194767
0.17578864557639476
0.004388126639089095
0.873828520172791
0.006647798529803781
0.08084211553373473
0.8816785578309212
0.8597677850571103
0.028027667404618865
0.09107315455773489
0.001007095744523229
0.002937001806515166
0.0010897592527340804
0.021272993539926618
0.008229058939187298
0.001018943408594308
0.10915229647356456
0.05893311697065927
0.3261891772527879
0.0010568882437775548
0.0010000748328193095
0.004214574927613459
0.190336962135064
0.9865974047045902
0.28276113582678003
0.0010093348611825827
0.6563561341421268
0.2230636584461189
0.003743618910859358
0.03637487252924023
0.002873520122035171
0.4438051848205905
0.916807781014089
0.9479388488918583
0.5319415089286501
0.001025815438960896
0.2671652868163394
0.0012774485564521927
0.022033991970044364
0.05744346211651683
0.00679185998862762
0.8599425533545113
0.7993841947180087
0.30541494223982213
0.2791902257059094
0.003196866752849982
0.0010018423649546684
0.9016657559360093
0.0023020214960603027
0.8176823687149617
0.9785283367998076
0.8005361094660247
0.0012775513564197293
0.15737438853116303
0.9566043636456399
0.0020811627883045173
0.006619629857025473
0.002158822071375027
0.3034152446515163
0.8282047796870636
0.0010056324741788962
0.024561005161353122
0.018205240676994697
0.0029228401450841525
0.14495088061664999
0.0019328274028942434
0.9992823381410582
0.0012501777576079203
0.8761692633393672
0.003091110415805459
0.9419449441036114
0.08086756923077278
0.5528463911058292
0.0029025380310965863
0.0010586062777732355
0.19512634534947018
0.9692856401434756
0.9669876390220504
0.721095887470626
0.008953799145984473
0.16342017763357047
0.001000014508311231
0.0010000180882708608
0.0014201034796872134
0.0010094331607590039
0.004436706580484248
0.0013839699039293852
0.8020191556588951
0.0010000002861063847
0.0010002782764370302
0.015167331199056961
0.9055495322835424
0.002379475636382169
0.39403504926601884
0.22691284264261324
0.001024062427714262
0.10878297911426887
0.742735975160246
0.7234868682689569
0.0010431359143651326
0.005791072966801063
0.2576752997883685
0.08434966473152798
0.5554205241662742
0.17604164110349116
0.690200761711696
0.0013749525409183956
0.8286846144645537
0.0010000392710727368
0.06833362987852082
0.8581648365410247
0.12076105489636742
0.16772027394253208
0.0010219985443741075
0.03932382019816719
0.001553627742533341
0.0012368014648875703
0.23532635110207564
0.466012573680857
0.31888738258937355
0.026249487232736582
0.31128915591493117
0.22006885987157512
0.9730057044024715
0.012543754457836346
0.08777045716253071
0.6179868739137679
0.44013340929308253
0.9898091243406625
0.002055184730171567
0.0010094192367951429
0.005708882301627104
0.03996773630259574
0.3358325432824896
0.0010032945505132104
0.0016204299110539667
0.9361008509208869
0.0010001435267320811
0.039628723053317216
0.6878443556679262
0.0011474998463587972
0.8197247877933685
0.0010004294799333502
0.4336712978253875
0.0010731635339715617
0.00490266514345156
0.6278209665206947
0.06723256857762985
0.10474365482095739
0.20975255504686283
0.3387287501544084
0.28327194068123374
0.001006164975335304
0.5818356934830612
0.0010001258458216514
0.2799746728213087
0.9585645936767044
0.3544668518670297
0.6092902867164165
0.9859323837163514
0.0012092844324415382
0.036259403882587624
0.005392640066397463
0.03242151250263589
0.7875739287532271
0.6383539322504773
0.9761939350173413
0.001808636361475932
0.0030001630406964698
0.9946319043608346
0.0010044484946968393
0.10092663140383115
0.013511278535559057
0.0020939476967787056
0.015077636861576104
0.4626737083343561
0.8710401071103336
0.018190330918301956
0.0023949122923119055
0.6065289798299465
0.5522614638378943
0.8484729071560823
0.9531276359578497
0.9795531801556474
0.001000001468227945
0.38696787795047033
0.16398229021907057
0.0010028643824618877
0.0010007972964160851
0.35357719413891825
0.9522757684840883
0.1375983095883778
0.001001360030652137
0.8623102782236808
0.9974038327047121
0.05597124537646643
0.9970775346034513
0.0010062135695654375
0.0010073346219307017
0.15078738207016854
0.5008669715870829
0.09716391408927956
0.0010012546026742536
0.07403054668735118
0.051528773218239794
0.7110266931998616
0.0011172038391839968
0.7009688839784243
0.0025793491183570844
0.033061557377190284
0.44403145760244495
0.2641197302535531
0.37087126532910797
0.9293280156170451
0.0010000056412367677
0.001171325664681213
0.8278425415696726
0.0012417322559414227
0.9722173631778273
0.6074602413755426
0.9050971205817593
0.6554143399843216
0.0023226373439184647
0.004181840914640058
0.0010085332031181807
0.008616664698648063
0.9942893420977179
0.3353362689859903
0.00446840313642333
0.006142600368966477
0.9618311601794625
0.8844300692806454
0.042087458393283234
0.9013972043104485
0.0010007397230856435
0.003266507121289243
0.8302590954278571
0.001000763126578232
0.9158852257691487
0.8873268651815016
0.6995549018334887
0.07356417845323016
0.007444539793048207
0.6262234017816609
0.3934469447140204
0.45268918350101206
0.802523282171731
0.0010096643765997346
0.7258261048786381
0.09819543344292675
0.018523816454269378
0.003929581673017686
0.40071963070637956
0.008326453744607564
0.650275499392453
0.023848654318120856
0.36896320416718814
0.01114137521995608
0.0010006210963735577
0.013954210511810755
0.010590927272110213
0.2129517369958861
0.008354394373797397
0.33852914841753756
0.6375478429840074
0.0010166381570001794
0.9303474596957393
0.4758858313940089
0.8138488567951856
0.9208245750784078
0.021107406468749486
0.0010166506527780946
0.014814665733231508
0.0010000484705057332
0.49394217903752824
0.0019110308971274897
0.746379190383797
0.0015040088025580008
0.001158535455480957
0.7628630684988489
0.8422498863642802
0.030678072850940263
0.9440962107944939
0.3358739440764528
0.1225671423255889
0.24884740040795533
0.7718764594699924
0.0010003259654355408
0.1589410131235575
0.001026087741075581
0.9563587099691151
0.5829472468357036
0.8855476204320767
0.18850970892329103
0.004696354270529219
0.19868833570672562
0.01241665467281261
0.0010359413323190916
0.8800362679116487
0.001909438717680631
0.0023101479777799623
0.06319518372258359
0.923167482064906
0.3051732888723044
0.6671685473076351
0.6614302857465565
0.0010014090823019146
0.011566840793873885
0.09564014280977914
0.7199363717397063
0.19501841865950564
0.4913686369435674
0.003978679685160133
0.5908533719268156
0.0011901774790419246
0.0012921125806219901
0.2459745085816079
0.9919468436049856
0.9758683043557209
0.9345070468995852
0.8135709001916629
0.9355344596494299
0.0011916363380006752
0.005075177079427507
0.2092848891114017
0.016760953902596222
0.17048430795480068
0.02788878917289216
0.8825489913302214
0.6009746408192792
0.0010000042658302737
0.5948349289542592
0.1853545856327275
0.5880136422503489
0.5620739682225385
0.19930844327859326
0.0022544633080499614
0.09373590853305276
0.17351371555738945
0.0018904441251939947
0.06475357261625449
0.0010076860848663807
0.5988010565850826
0.0012324388384608196
0.001646925210048189
0.6273582975437332
0.0010522453214842436
0.7471044084376037
0.15098282841904367
0.001324632275393698
0.8840314175358795
0.025625225744081298
0.12338136624012867
0.0010762423860717104
0.13006127443825333
0.013225326527735705
0.0010127104988300489
0.842401861832971
0.0015746534958233978
0.026223109101097652
0.022446194038037888
0.01988136783422017
0.00244043528284969
0.012508237910506731
0.2195077767747302
0.7213233297486746
0.7857814366313075
0.003481457900936384
0.0016050254810208314
0.18197215258235377
0.5831253677157294
0.3123710514438442
0.9204733257092328
0.0010221627362613824
0.40908540195530224
0.0013476420194415656
0.029819254491168134
0.5099702174417396
0.02301108997734532
0.004143491438300817
0.28846738685482465
0.25915062137871037
0.002096692199851941
0.41076118684890545
0.2513125848607816
0.0015345118272947949
0.9826019552869112
0.0019686593848321538
0.2013915549717845
0.04558461842356573
0.9550975538173667
0.902978142859073
0.3737507058693241
0.0018882674527143622
0.826510003924567
0.11852315686791597
0.04890637295694319
0.05761205378563415
0.9122659330778979
0.0010080093486628345
0.16535132014318007
0.9278080819930683
0.001228860122713323
0.001559079701669301
0.23311382773605235
0.0010031964343279233
0.0011996620750784888
0.030838991728916416
0.002180919700505092
0.3200462037002178
0.09998883831248515
0.018329310134054755
0.053613616521750264
0.0028341054626788145
0.014584272594046845
0.9022709025480009
0.7578024561155708
0.6485855874345203
0.9921208718860043
0.0011338072509693336
0.00115086019844532
0.41456688165393085
0.2994287063570273
0.5706295367564773
0.9123235404033078
0.30798036596989076
0.8997258940820262
0.0010212782544015227
0.31694192732254206
0.1336564277632294
0.021653674816539265
0.0010058452050574658
0.014530574502060474
0.0010060937306386128
0.009591746633273265
0.008158587284491689
0.8511896085999693
0.011607692659456298
0.001299730517249808
0.5571847675821562
0.001000000195903701
0.38232300870617086
0.8357051633875398
0.8682865131620712
0.26362732132256117
0.8079267005085433
0.6369519968613954
0.043251879397059496
0.00395043457995599
0.0021008969900359773
0.4420354083067076
0.004983667644666848
0.0013575310041924371
0.9052193878349235
0.0010812779957254184
0.0010185648429974277
0.6819401226562511
0.022050069952900705
0.15197991188953994
0.49574358918803246
0.6054000646921782
0.23045638861483084
0.5260302075896962
0.36612281338965075
0.316575047360981
0.0010085205702485953
0.536098212511515
0.5410679275566042
0.0044497464639386
0.25815674514208525
0.006795814933224816
0.0014881052716478901
0.003747536003967978
0.0010007735890605921
0.35879251678167806
0.0015598814303616607
0.4136812690293906
0.02496030004400744
0.0027263026191885987
0.8799656745696705
0.9502694124703941
0.2663472424675546
0.5024947865518848
0.594338424559797
0.10349727793008728
0.9923264649902099
0.9096662948230927
0.017221171744876588
0.08670856707041769
0.0320167831715413
0.01116423647406465
0.025310388077239423
0.24208778802489325
0.0033352949277730337
0.40736418354936016
0.03622520153879644
0.38703305976713415
0.5953193002853188
0.3021796379842319
0.0077733620315862464
0.48229648164533445
0.0389501123025102
0.39163242846109764
0.006063560741530542
0.00103111168419439
0.8482133298489548
0.001019290687689494
0.9783753586347013
0.8387034492810801
0.2853466978330322
0.8319953841308732
0.0010000171792855154
0.001415229447370446
0.001000019835280483
0.0013542540850253436
0.0018091419229321302
0.48880146018818255
0.9546276221517032
0.8355811083979104
0.7412176567512008
0.0010000010027335197
0.5629555016364975
0.0010003450649487494
0.4812550309494864
0.9914704371191825
0.00569450217877001
0.0019400792539919559
0.3576122441965831
0.6393389516893598
0.0041668170878972335
0.9118730878505285
0.8004548899036952
0.0026691042944204948
0.001101525180772124
0.9121914444246755
0.001002642537236427
0.5668297239822828
0.0010000293257752682
0.8705485804276446
0.005854883666043557
0.24148312503950758
0.0012284594124711385
0.29269419114366857
0.7209679768184204
0.0035391790111937876
0.0010616126719763504
0.004050402028828526
0.49843111002435736
0.0013472487831315875
0.14496710650654362
0.04807393418296016
0.16477779917843874
0.013219894054429217
0.8831282200039179
0.0026430741049356153
0.9114581561962309
0.001205568225143515
0.05285634194580992
0.990559929608844
0.0012842120067809157
0.219664494982432
0.5233530953115033
0.8063804235661811
0.9167920175271532
0.7743546335498933
0.6738382371506517
0.7636597372952514
0.0010006224156626114
0.8693643149715942
0.13706838350089248
0.4460371986280108
0.018212592878793978
0.7579086693344279
0.4650488341893034
0.7910882868143719
0.001082440148944683
0.9949136941834997
0.11899257086068775
0.5890724816376253
0.9275753772994938
0.37969354881286255
0.1953617254684272
0.001001508725105293
0.1640228989265
0.4769913252186469
0.26232500808453224
0.2603428584269158
0.0010002001730687446
0.0010000000044237593
0.0010000544923970487
0.3495311364250648
0.6708175322382143
0.001582883279420362
0.017577896255820152
0.9704949828874937
0.0016721027965950807
0.17974839597256206
0.9244724538928883
0.04464703043482756
0.9448912493371321
0.9159056134708735
0.0027156182856757846
0.6079480105479069
0.8673447044215722
0.05847717793429625
0.00210269945132979
0.1599703406036137
0.056364377033517585
0.004936219000870747
0.2849954443371048
0.09329241169100255
0.6944580721783575
0.0013331592062136872
0.0016955654784036858
0.025179950853265826
0.0010265330582134636
0.9974225482100284
0.9927758448534935
0.001001376621990224
0.0010024319567914725
0.978917501694913
0.3222999131858963
0.9687540870103355
0.19361187559194687
0.38682377405909296
0.07366973254580042
0.27263479245628425
0.006667401128319622
0.9610689575822016
0.14370281729937853
0.918108337428859
0.3098860336198496
0.005887873231861662
0.9363571617740857
0.01696588081805222
0.6602946752952793
0.014087678545058165
0.0010007769302784564
0.001000000109081781
0.047377472183946806
0.7918967191953823
0.04516737895018638
0.005164252458721609
0.07822487804739875
0.3056841546531938
0.020774499851830622
0.6669200457938594
0.5382884146023401
0.12895748008467306
0.008986361325618548
0.43020164446577946
0.3406831692227364
0.1524139399797716
0.012052263763880671
0.004185856871889732
0.001150097267818797
0.876107295974728
0.968496001448339
0.6565229937898269
0.0014721766932802058
0.001088443402436106
0.2602981331058917
0.0010062055003421872
0.0010004845824211194
0.0022790462820266523
0.028081613913991405
0.0014921781289410256
0.09123710213369628
0.04102567162851789
0.0452791022659248
0.002377070229728679
0.17694717745919192
0.9378575962045423
0.15016077880855624
0.7139299699684629
0.00438730499964945
0.06555135431558505
0.0035486898214385017
0.6107213503122491
0.23042451505841863
0.07788354377781147
0.004728639712273641
0.0010062722659060477
0.7861701063681285
0.002640564963983675
0.704743436409742
0.004532746076107571
0.025468791385749857
0.006913909799816297
0.38649121810302367
0.017421640086096934
0.429107675889484
0.07480879046813764
0.5473992835792639
0.0211727189851871
0.05287511917707538
0.0019743162679860963
0.001018117038987603
0.03204186577158829
0.11819864404908821
0.07646252225649447
0.0011479076196661232
0.0010441267273322084
0.005762197560523939
0.03607183055188112
0.004492281657646777
0.027584662553880267
0.204506424173234
0.0010308665465944742
0.08194488478004065
0.9886982385260239
0.0010488888070456048
0.022547090034155285
0.8162892411436027
0.5723332061349562
0.1995238707777679
0.999907070343931
0.99089703947545
0.004225235178016786
0.005939196608161763
0.9178733442696887
0.5821054626085714
0.008900799673449134
0.004037850099870864
0.0013510204156448422
0.9742688123133869
0.10007689286234334
0.0010268329137602076
0.43908747382289176
0.0013720665052695414
0.0010000000013018913
0.11569313115066951
0.904279899628703
0.8450664145844372
0.7029990940761428
0.03780820609717087
0.8230712699213727
0.716732440556716
0.001008030517386289
0.2586003427887929
0.029598260098848334
0.2957555342371509
0.9477511667948937
0.9920228246088759
0.02125124988427474
0.07035641254417069
0.006776467701534028
0.0010067223313010366
0.017697259840509315
0.0014433101218163942
0.02728289886085891
0.0010226686032746971
0.26994349094240716
0.8480383819861879
0.0014306458808155862
0.30846699061097627
0.9982910341543334
0.9944569870263075
0.17000015386895614
0.9866159131236859
0.9993490177753044
0.001001622793246206
0.047646310484279364
0.1281294049130886
0.0010008431333925329
0.0130013152241121
0.6270441568224951
0.9779109134882711
0.7449390353711561
0.9157061778468452
0.004185872454432579
0.34548707338834767
0.5422217641268459
0.0010001088462585374
0.8577642862722207
0.20113570971030506
0.8923012138139533
0.2565832124629159
0.00627124909295963
0.9501165600992232
0.14305027231173553
0.9948988168180026
0.022617981967664794
0.019668423789341357
0.9997350507779543
0.11235919044735665
0.8601002315569274
0.7299236046528175
0.9674005863940713
0.0012259484772275866
0.0010003492395961639
0.0015724762492410342
0.04760976528871435
0.0010000264534109897
0.9988535873626533
0.04776275223960444
0.961659598408315
0.001256890404181445
0.405812722246073
0.0014712980687608815
0.19190842056361532
0.0028349472482342092
0.0010000000000021012
0.0017983796352322075
0.0010016572951752844
0.9719014758885974
0.9443473813507157
0.0011908076198008548
0.013074044945308005
0.0010050731920330323
0.0012362652910642125
0.8836385105426402
0.0789709547822946
0.9334701212617679
0.21475439834328214
0.004461904532587265
0.0010000047232602578
0.9990690777488387
0.001142308865420502
0.5035091552947975
0.0010233737773723286
0.07251739878485187
0.9979636776745319
0.006963375150629841
0.9966775970422723
0.8803655503351933
0.9984020902850473
0.0010085793353892577
0.0010008375414658863
0.0010000023389629851
0.43577474513505754
0.0010000100107402127
0.9527908702606751
0.00839989644782568
0.887411742807272
0.0010000425968183487
0.44414097072294656
0.3782593848522068
0.0010935178542326885
0.13203108354606988
0.10832907939466221
0.0012959815400121564
0.020472799128240505
0.7147595636576467
0.03811697003284532
0.0011305038449385373
0.0010650681146724137
0.48491510264275445
0.12588604776634116
0.0010018428022158855
0.25937231047772186
0.0010085208672141245
0.9939190042357726
0.001000007336411168
0.2324010101181738
0.001094277043433429
0.007042319942630081
0.9929894848724207
0.9409050113924491
0.001393424249472389
0.008907807698205074
0.875928457446719
0.625480073068534
0.001003834735983472
0.15128477811232993
0.8845434073221298
0.1417562235383115
0.9968824843291099
0.9362253368954745
0.07060640370833196
0.006347835940190716
0.0010170990635112293
0.0010174005743077265
0.011975679682115277
0.002057158933831956
0.5808545673012886
0.7077835543054875
0.203157631203775
0.8078965884781423
0.0010032626926596824
0.9114013446544262
0.0010004735695798937
0.001005449014283425
0.0010370008380414571
0.9385973768462786
0.21797168414877288
0.9948262598607742
0.056507660792011846
0.0011704948030458958
0.0010153088327871426
0.09445821704936795
0.007303159078007976
0.0010302549613032939
0.8368907548506392
0.001018882366765042
0.819000439402346
0.4491057338383602
0.0010905198876443114
0.0010000000036758548
0.0010158681672092025
0.001002967366811717
0.9863216539386194
0.001012101147010906
0.0010019550413710237
0.6882956479407052
0.011237149445992203
0.226207034584824
0.9833315211873614
0.059250937288214046
0.9952733439154247
0.0010000000958563398
0.9938456636698142
0.9984118556390872
0.0013557524025904332
0.98152105232407
0.1649898312130165
0.5980919216176389
0.0010021010612430966
0.0010001888469425776
0.001064271867830022
0.001000094148518246
0.9142755243074833
0.0010000793967747485
0.003354749975313598
0.9499098776141067
0.818046045200199
0.4323322966217778
0.7071959809250127
0.0010006728102027835
0.0015953544965778724
0.004449842072150249
0.0011858149604104986
0.004517019026687635
0.0039043700155894302
0.0029247829950791323
0.00337891122135684
0.903803322267695
0.9253395584202485
0.0010000135889213788
0.8979860660328146
0.0013585932902029463
0.7307862451503319
0.39640618012652584
0.0010324008135544653
0.8256995874386694
0.007536360894137409
0.0010242492541923153
0.3636131635104412
0.1810886222835873
0.0014106180276392127
0.0010001722064260621
0.0010012982645156588
0.21306139147502864
0.9019693882236156
0.9421351118605784
0.621782935713357
0.021552740084012718
0.0011380971500563708
0.006458979500563123
0.6969671277296533
0.9363323705836166
0.001419232327603801
0.7119176846788937
0.9806743690867146
0.10914549514596047
0.0010000016691330952
0.5749382762643294
0.0010016233882217899
0.5221844869705469
0.9525607175952688
0.9897726097333935
0.001000349115535961
0.00617927475369999
0.7391193014274485
0.1809544449798276
0.004263838087995975
0.0010000321453775976
0.9997383341915832
0.1702913299144786
0.001001390530836721
0.04794263718105258
0.00131079140424058
0.005976527958095577
0.0010022333794870372
0.0012100856637041238
0.9636449149907984
0.0010116500313202721
0.0010045849898983638
0.005981960666864299
0.23852895677286068
0.008059653848163189
0.9957850328273178
0.0012301770806354161
0.001546001637343422
0.0020333372667848213
0.9466937298545202
0.9179491831790964
0.9553667510963314
0.990598562922177
0.7950710255655955
0.0012719859952942723
0.12311137906041396
0.011979563941372433
0.23138296406080963
0.003627179180519078
0.005280536924113556
0.5606986161678355
0.18056486127647361
0.06884644155244755
0.00946661869888792
0.5027825629939645
0.001995221088205266
0.0010174957920938258
0.0010356254853730344
0.002077056801461874
0.6738640652030763
0.8571255531557487
0.0010001506156242744
0.9590262211144882
0.06097164337890811
0.5311877986900092
0.2199309564782205
0.30190328971402386
0.10706833433331887
0.8776414588239675
0.001000040648638802
0.9930653822231487
0.0010040266095388277
0.0011664933056320592
0.929301670268674
0.028249651973898005
0.9273241222831308
0.007625889935344727
0.46529543770700005
0.8745963631781837
0.9915227522187398
0.8457556213814467
0.028280184692050243
0.0010000000131575148
0.0010097245080147978
0.001000003917286832
0.6988873902581583
0.684534357106534
0.0011926288185377554
0.0037390114177583136
0.0010002175344706384
0.007473545407625468
0.0010071355408899033
0.03436834700427165
0.5655143356610123
0.05287802218264693
0.5846337141095223
0.004775770242084599
0.0764580657653218
0.962331211992938
0.6842563344571777
0.0010002163951966401
0.19265607831258208
0.9658895869276755
0.0022496503277135357
0.0010003943068123211
0.01338035718941532
0.8516372804595039
0.9293636913033316
0.5929453444451944
0.9680517284706304
0.8202003660766304
0.0010166708892919859
0.8413154325989448
0.001061033575385707
0.7833523060886364
0.001097479640069181
0.9873628748081658
0.006600695998529635
0.9919404635415882
0.756492410745273
0.0010240815429584924
0.0013183629436104675
0.3899829421613331
0.8886054490828719
0.9409552005459536
0.0010500633524982458
0.005947221018475333
0.6283428145198056
0.9960779794654916
0.695517046478051
0.5796779077487085
0.6058272295750778
0.001230771620279547
0.0010022115516698327
0.9144897609498296
0.001117015317721433
0.0010936513762278988
0.027339599704622162
0.779337155898989
0.232896626934088
0.8367467650700975
0.8673034789297671
0.0010010341568873285
0.2715248165902737
0.009439292122551304
0.1521835372090753
0.0010749597234748444
0.0010025296439062253
0.9817712970976077
0.976552620653235
0.9888644220744102
0.9876004283479767
0.17682701799273712
0.49698644564919664
0.1751007066025869
0.00100003611318298
0.0011014448057453708
0.9308312939402809
0.001004014775493932
0.0034178700576001616
0.0010952612805944274
0.5297901334460209
0.6922982708964596
0.980674257978818
0.5924702297925617
0.9551657265389997
0.0019256761303365955
0.9248984308023837
0.9478469430700109
0.0878466264727609
0.514369309977935
0.9882158387475153
0.3971041993157175
0.9698320286272878
0.0984456268614645
0.0010000528838624712
0.04093237636515871
0.0010000016772036002
0.7254550134569878
0.9229388384762565
0.9698219430014566
0.04155887376773976
0.0010001167015092102
0.03647649952229499
0.9804527353116889
0.3854001792459601
0.006081344037030419
0.41068359237571567
0.42468195543172216
0.9735321062688115
0.9343134590135452
0.9955292147084256
0.10946083642677813
0.0058916616540853565
0.8977378008889226
0.08225849445393252
0.003238723336093873
0.001327183411904878
0.9309901674845646
0.8646721717116238
0.9266328610474873
0.16284503334385605
0.9394562774797337
0.010459617964205532
0.12072165533223787
0.01878942068211708
0.9695312779270674
0.050606106118021445
0.985037454071954
0.9852723900933561
0.00100000035619146
0.001031399844399805
0.44947150243155437
0.26607919928240414
0.9204501953843932
0.3570547121740267
0.23767580696314972
0.001001203815902363
0.0010836857544018455
0.0638876861068591
0.006582284537170971
0.00239528446423429
0.018923686368657787
0.0010055328789353873
0.25628903070982506
0.0707456964060528
0.9899722109999863
0.011361332903635411
0.9845971619540931
0.0012199310225222957
0.9909081682503291
0.0019031875482913877
0.0016543830283783326
0.001047045567066578
0.16741856717522355
0.8976176021398495
0.9988957820370403
0.7486751198093042
0.9916760237211018
0.016147945186138876
0.020148181336153117
0.8644375052372869
0.5943880789499459
0.7949014704161759
0.5605748678883796
0.5289351498947575
0.0026745608347633933
0.9393911839668292
0.001029353929335165
0.7057911760940232
0.0019273097919687914
0.6279624148599577
0.0010002430173731683
0.1417857679943777
0.9804320995576499
0.001093476247251167
0.8988225957392058
0.0010167006781429623
0.0010004093735906821
0.9052248486782658
0.928899269690784
0.0023818496643306557
0.9881215023607249
0.0010002024225952949
0.008426290543364166
0.0010070832730834475
0.10258809600212274
0.7971226717846224
0.004917376757076205
0.7178659432849616
0.18067177172200208
0.9731510724921996
0.8991506223368141
0.0014233110172510023
0.008349648140342013
0.1690106948588517
0.0046466442768599205
0.49863201142661545
0.002902304335705575
0.9876689016005779
0.6779530106991973
0.9842939895898482
0.0010000000254782886
0.0010000016665667178
0.5416368192634206
0.8841200308139022
0.7004322378386846
0.028073703871108423
0.017025898351549773
0.023334361633964573
0.001000091447383698
0.10326597435351212
0.009689224937982303
0.8132429525665412
0.10749766301512216
0.8774711897575787
0.0010000564816362487
0.26423609645191326
0.002923820151934229
0.42545083806824163
0.0015233875872630556
0.03346061502187218
0.0015045676132012583
0.31163591279161207
0.01380465417403071
0.0011649487137215526
0.0010031354720404565
0.0036735375792601435
0.06366940920783133
0.12716631703610576
0.5417062304300565
0.02119240024307764
0.04019404318156472
0.17668904754412845
0.0016044091597135562
0.0010000579194657405
0.0014398888867561464
0.07570359371376675
0.5695201349964855
0.8257236531341922
0.8602514646068327
0.45243150729936543
0.9873222894865843
0.21692835239913136
0.06993254400006181
0.4702374182691409
0.7240006307628197
0.7729567657022293
0.0010005720845251494
0.004480312452058673
0.5369594120235096
0.9010107664417348
0.001572632163167481
0.014521346134366057
0.8973552453931147
0.0697977224723962
0.0010010649510597941
0.8329370337903612
0.06268929903791888
0.06343874920204945
0.8417594726232933
0.08894754599417692
0.9120769920190394
0.0010030262326700672
0.001000104324930344
0.9832329984493104
0.0010180554913468325
0.0010388250212887784
0.15806589494697607
0.0015421605785894375
0.0011959529388659745
0.0025801449320764468
0.00100838133313385
0.4200901957668737
0.13024023070854948
0.9967881899728568
0.0019372635023664772
0.7604101352127114
0.11165958027488274
0.5119788669345845
0.00121425576238896
0.9574259300325618
0.5837043901038614
0.0010143792402958307
0.07946558686581971
0.3274125832444414
0.0678220247441008
0.9366063578931147
0.0010596084179960556
0.0010075381120953893
0.0076037837887941075
0.24608544101436616
0.9786989561183395
0.0010000735027505512
0.7367941804455365
0.0010000027486676939
0.0026914383569314362
0.0013813047506858744
0.007908739156179744
0.9950568068568633
0.05673947317416693
0.9624252003944938
0.9288064621452545
0.007906962436809769
0.8849737515759368
0.9432741940644354
0.2547921792354571
0.25158664629430516
0.009968070192556047
0.01071704070158996
0.7156743190991411
0.28087193549283895
0.1374611303245211
0.02017061079896838
0.30077311637988974
0.0010008154552779125
0.016171779924123084
0.9406755318229943
0.2813073353196133
0.0010146312887798648
0.7388359911362871
0.2738377571874284
0.047801816176553075
0.0010199245772282003
0.0012029548393849554
0.7711592870487546
0.9188290134989935
0.9073071880715906
0.2806355873349307
0.9473563525410079
0.16233939735809516
0.04130338517704794
0.00239670370231894
0.001000005850661751
0.0016389708855381218
0.834043611146728
0.7883566854686807
0.2057419496442127
0.0010127795572178713
0.09288769109532688
0.7343494692518489
0.0010295916741899426
0.7733918010558019
0.029926516166741038
0.0010006480834629519
0.9471528058736278
0.9243688411586458
0.8170988117159683
0.7899381225228783
0.0010262301994191255
0.0010003641055311107
0.42134303086348435
0.0010002034921598396
0.1646262951323193
0.8412132819131113
0.3265577777825921
0.0011885926922289918
0.9086202183596126
0.0010000178311528579
0.7720363904261892
0.001720744872577176
0.001006102561218846
0.8083533868009884
0.4637756911253245
0.5934599323395118
0.0010140568607901882
0.0010115436426312533
0.5660808881419707
0.0010000206809837803
0.9440390306605675
0.14566833059319934
0.9693448332335937
0.98584063580999
0.9832813387174304
0.8673366410573125
0.7349064665785249
0.0844980609331399
0.6798609044249647
0.0010015000471411887
0.8291643049013295
0.032083475468799055
0.9764495322432698
0.18537195786894406
0.2465347994962526
0.0010001004632539418
0.0011823354332080008
0.9956752571589733
0.05743967814878784
0.00432578312443504
0.0010234600177674474
0.01356056322896932
0.676060758505031
0.08081311964463907
0.01920149172607458
0.06171100338769705
0.012291958812446914
0.9976127631723568
0.03688501728035439
0.13656009807414313
0.0010000975598691154
0.3882063107643577
0.0013958215249512476
0.0010000050198182213
0.9641657410663986
0.9977108646612128
0.9998759079500347
0.0075641706751052185
0.9896496257655544
0.9989590830800981
0.0368352295171323
0.816930582600248
0.7081987258612092
0.8102685434724242
0.9351185693484289
0.0010003851998009637
0.001825598511201894
0.011281485349088523
0.0010701774873437843
0.0034696108733382447
0.0010899014001193568
0.012088145903468215
0.0010447516775242156
0.9526399616493391
0.9488246830927191
0.12488776273708943
0.9895978636190959
0.9286810833611095
0.0010012849137094632
0.3200775292364104
0.12196476616184196
0.11939463736191448
0.09101619529558164
0.0010116499206526354
0.21212893319796042
0.07183893628489754
0.0010000001055052584
0.084657952398493
0.9850361646390802
0.0023682021285811724
0.0014534951778239534
0.013984153937750654
0.332932247724396
0.0010006413237841516
0.0010446342431989935
0.8351767148956152
0.30284153167645267
0.9907331846836706
0.8356926465027615
0.9310479807980934
0.9986399867734134
0.0011002205471047867
0.993517245077881
0.2467657520710813
0.7863941886734399
0.0010936000360015265
0.9728914477792366
0.07867060246908557
0.20924677880635603
0.0010135399746344163
0.7836180751202317
0.0010000026307681099
0.0010000022207370292
0.0010109880157576324
0.0010000000503645366
0.0010000000137699026
0.7944970437743599
0.214443410307788
0.24837490796254613
0.5849203174974918
0.0010000611832134644
0.0010000785700450378
0.00100000113270998
0.35294811735151316
0.9422794220132116
0.0010006623079006855
0.0010000236203299916
0.9443931047950339
0.03905322961386379
0.9959891549531562
0.8817227988048463
0.9466160404392003
0.0010097210365914303
0.0688575452242254
0.001804361393357602
0.0015416376201001507
0.0010004777298259129
0.02244699116586665
0.0011065382798866677
0.9468582013784249
0.010544821672434385
0.001042201217817079
0.6927148836853195
0.01020422586707255
0.001000870206414336
0.0010000299150805326
0.001089236251573931
0.0012556368812097572
0.001000000024207663
0.965831879681418
0.7310604725035709
0.059278355006916916
0.001000334296224962
0.3370697928296401
0.09671938075979379
0.0010000044941700958
0.08919158492161111
0.7630429191610478
0.0017657138070774413
0.9450344755776977
0.04191611729186717
0.0010000000001670866
0.0010001073738716104
0.7378986165848966
0.0010003471316531191
0.7435960971842586
0.9791866660416495
0.0010028337139662738
0.0010000000037123633
0.0011596912369780396
0.015711287526104498
0.03714960600268667
0.0010000034791187188
0.3185441983407214
0.0010901907806446075
0.0010109104902327655
0.0018752128120908126
0.9951603730870621
0.00100096718645694
0.630959597470521
0.10345588928966133
0.6212044091036696
0.9956206532159259
0.7461171364072212
0.9428067607955166
0.5509526251957413
0.0011325923156366084
0.001000156776007084
0.4219933640508044
0.9982037018183997
0.8464401561600876
0.9625744455008063
0.1296702452156218
0.8052121989723346
0.9969661056328559
0.002048886563245525
0.44588192847340746
0.9397588832953895
0.499831646469511
0.36756320702381634
0.0010078641465406418
0.004088115142436347
0.00440375224734277
0.251480544868691
0.9968355197635217
0.9951219947308809
0.898493949390902
0.0011014392288636935
0.748594090238313
0.0011454755856355513
0.017887453881815587
0.001000495048412851
0.2693362202992575
0.9864669526128642
0.9889652841550001
0.3170140549929738
0.0010126786556047904
0.9765266562909032
0.029440888257409585
0.7875484942747369
0.025337355874873877
0.03419298538152958
0.9035161418758296
0.9671390176323935
0.998784135532454
0.9436061623790399
0.0010051411263419757
0.001000192786113712
0.012628852730896114
0.9908031701149499
0.0012043547501974685
0.0010000008177397334
0.32073637195071575
0.0010062420891531522
0.5749552331386631
0.16357471631524773
0.08862350701336581
0.0010022029699988306
0.9493303929911174
0.11050985181362653
0.005417096362227805
0.033907158106718974
0.10949980998836495
0.06123412871440909
0.0020477678263627905
0.07371710733124208
0.17991479042070194
0.002501511517958314
0.8672488613068944
0.7667562865221792
0.0010289017059159217
0.2481551797062787
0.001416372557705983
0.9438904459614921
0.26693906390084793
0.04582746981880578
0.004111091401103951
0.001342636526284169
0.032074019276565176
0.598448169124609
0.001000089063466
0.0044538354367658385
0.0010010135475649045
0.002322996449058216
0.3975892952246864
0.8210176172206278
0.03692343693134382
0.006977602656983715
0.0010453912064654432
0.0026607433436725302
0.03037571099876483
0.9360421632375141
0.953430666255506
0.0010009700747692322
0.0010000003023149183
0.9783536678691718
0.14978015539303
0.2718085370672925
0.9865847083507213
0.10717757252923882
0.0010000033679038818
0.498484687871082
0.7600577963935689
0.9228452282478937
0.6518155019204198
0.001000000124907674
0.25395419195803076
0.5696129954037024
0.008508584428836933
0.012491494155581654
0.0035789268321837005
0.001010679921284753
0.9403535288673606
0.0015224963733025717
0.020482029034209502
0.18999485674204886
0.8742212633376988
0.011352610689273901
0.35797645964838803
0.005041328016789592
0.9971101211547315
0.00455303865854951
0.1645991835216642
0.9715378551772392
0.0010106188753126121
0.0010148312012558216
0.0024361362842716013
0.03835280948059669
0.1449509913750703
0.9704726401339785
0.8821777634686532
0.0038098237599216546
0.0010003538375394996
0.001573342922220144
0.0010069899495497726
0.26060825411850397
0.0054989400529111354
0.9525441562665815
0.012956180809878051
0.8288369265925631
0.002594849716591431
0.005070151726792962
0.7800386249405251
0.0011079032295953938
0.0010736959040145285
0.45596872803958477
0.0035052317307980928
0.8542249270148862
0.14309978078191804
0.9916676470065481
0.011992021487604608
0.3020141945110118
0.11418723341111067
0.9806028470561438
0.001000011542209817
0.6920255825550453
0.001097793392027172
0.0012378772447772498
0.004496201724476515
0.001123288626526209
0.18036675752475617
0.8653558712212571
0.038359268042889215
0.02185661760365114
0.6492661995378307
0.1961927755480582
0.21643237517858413
0.2884917443735119
0.002235866705988073
0.0012353057702063934
0.0019573560346085343
0.0010084262932243346
0.7658392117865203
0.8541926919892368
0.0010000988990719925
0.0027914765586533404
0.04150255383632982
0.9701036200272665
0.5752878498442723
0.01082168074761648
0.001754034224677851
0.028390246663008614
0.16420748217455375
0.0010000041323304728
0.7024226957870553
0.0010000002927383778
0.0068600411690737575
0.9683060929312081
0.0011379338620072605
0.0027415450261248646
0.780517521208862
0.0011430536506472956
0.05755561613706758
0.05435344967284575
0.9941204956479436
0.14329350879338745
0.3516744779527795
0.9902909611466892
0.07960603377940821
0.004935537101610174
0.015258439633199929
0.607876915375312
0.010531859235963871
0.2965597675120124
0.006349061814442267
0.9664849127875996
0.11967160425540108
0.0010207563602895112
0.026412400957252672
0.001038393292370909
0.9695611296515503
0.8152102681106675
0.021552376912665722
0.0010011264549621842
0.010584138660078925
0.4327573487290461
0.884061076547012
0.023607973524171152
0.0010000275248742048
0.3261929010291234
0.017349765917867053
0.8546934670586575
0.0010005514332160888
0.5692655850437383
0.8206497003010124
0.003149863077924311
0.021778922008527702
0.386306796563431
0.046056523625588014
0.8327391718374053
0.0010864279950716024
0.0010000095739663211
0.0010036733222444161
0.0010278300794035445
0.4146782006796187
0.0010000014201507611
0.11073817253985228
0.9681807641921669
0.9797482587861951
0.0010043109480981592
0.0019465210779309968
0.7105122092012979
0.0012566866605769056
0.7332328275346562
0.011112171258118645
0.05974360860834259
0.9867597881646728
0.20030099517062547
0.9217759589559295
0.030629043779555245
0.9783290982649014
0.9285473697070349
0.15335710877334355
0.003800972694327967
0.9731688701114998
0.963772156446087
0.5181501220757887
0.6248740659212143
0.0018365066029561597
0.5201105202840887
0.12009838323957663
0.0030804924115125465
0.09947975313510476
0.2422385351437222
0.9835624978645747
0.007919984899108945
0.9955112459747759
0.9630523052356074
0.7084298958821331
0.00101458579720917
0.0010012022715918953
0.05542322782898047
0.6515227414498735
0.0010014186207134442
0.07402681383307778
0.0010102739524647396
0.9602309373198206
0.001010894850759453
0.0012528641646519544
0.12467975079945352
0.001004824427886275
0.93007951138456
0.6876122902790569
0.01908281625194139
0.43507110846525154
0.17222631382056733
0.03827718602085273
0.01952131350156664
0.9034416508371788
0.9897778989218643
0.9888157097837545
0.9983492247393445
0.9988944861303377
0.8166462439045759
0.9922620480050595
0.4579261205678821
0.7885211970649983
0.1579262992268477
0.0010000235439842733
0.33447268434327515
0.9323249128372333
0.0891922476491887
0.8449867016284535
0.9239900135220702
0.1319326133363173
0.9969489928342921
0.010501864049938896
0.9939490850580398
0.5111124153676978
0.07806298726711806
0.6273905482831368
0.14927625514113554
0.00523174842324321
0.001232893915493571
0.8791035435906757
0.00736361169210621
0.0012260962947587331
0.0010002273456812603
0.22458434559432358
0.9359538607562604
0.0010047992306907187
0.021204730907267027
0.9338748065066371
0.2559448361034848
0.006881250014380103
0.20378082002614797
0.9732617000082207
0.9207186266487329
0.1549421578326653
0.10145156463883057
0.6879836951694439
0.0010003616458182604
0.001010587466631115
0.769844243166616
0.7715334228604503
0.4421278188347362
0.00916650566735528
0.003977791795932294
0.0019891298435502566
0.2436535406424154
0.0010514986212305831
0.0026223838408809307
0.9756366286059025
0.9439023495675926
0.001002902230863887
0.01852415048288366
0.0012740997708653274
0.0066009794140689665
0.0019414082369227854
0.0011585259121124581
0.0031952480159255507
0.022534857424375755
0.031428464019135315
0.006557536012013526
0.7260178225898852
0.13853339652735003
0.0013789420201754958
0.9697841681184032
0.4331436406400657
0.07519409201262062
0.06303894190417504
0.0010459800860045283
0.034725838127266866
0.7009951335717631
0.07038490589244743
0.0010890892623146124
0.0015998137476410249
0.27461958648428664
0.7718011785581255
0.2974636810516849
0.01125596304654028
0.0010120482775095067
0.015041436058422144
0.22245946089149993
0.01258319426770681
0.5433969573263826
0.9698866473034189
0.7082490694755038
0.0010000322534652107
0.0012802643353542983
0.0010005049226214262
0.0010006643555458467
0.303210507730024
0.0010000078254394345
0.24849715650266413
0.9459772278640287
0.9848659460424294
0.0010001010508160458
0.001771004571332454
0.7420886857996298
0.0777901495043543
0.0010000056552341564
0.008720322883335907
0.0010000803394931877
0.32111138348831875
0.9796303170531396
0.1851044289677928
0.0425377574604016
0.004493994125069859
0.12889957344743877
0.0012437823395198549
0.0022607150519434525
0.0010003323379890465
0.05400940479048915
0.0010026910138495133
0.10671401231740665
0.8007243402257745
0.6037522706996145
0.001003325802897907
0.00100000267484019
0.04156328645627164
0.26321419374165034
0.908898078861291
0.7301482809465188
0.982367450041696
0.8839796874376618
0.0012094991240485492
0.8508766473674444
0.6431963320626762
0.001087424665550675
0.0012317709848331283
0.0010004075927594633
0.006187364450548288
0.0010000294155645792
0.2682277989991891
0.7315975047555863
0.0011421036956603167
0.031179766114235015
0.0010404780787901457
0.9953010120591351
0.6294501825628099
0.848698150011153
0.0010530515186572542
0.7946544833047733
0.001575169238174559
0.5082142879152948
0.26347587300232217
0.19864236691252035
0.9807353389684557
0.7324008914606858
0.9251091434398223
0.7163355483434071
0.0010000000541523198
0.007508240290679802
0.001000225469511826
0.0010479189228945409
0.0010073932094217368
0.11199838523751451
0.18719181458067927
0.4044296778916577
0.9929184213360542
0.0013599902980491678
0.0010002641830525007
0.0010422227571497734
0.9516126852762701
0.13389674723689363
0.001045680916830088
0.05744318912019576
0.05278121515482593
0.0014581396389487938
0.01571092548065283
0.25073812676931145
0.0018236816977992205
0.3841020331799215
0.0010163785913106704
0.0010000412869686276
0.6154012784115636
0.0010000556659836963
0.7832818520050159
0.004946281812306789
0.0010324232446683316
0.0032556585396750415
0.003240793331243078
0.031004792336736076
0.2543302839200466
0.927787537286715
0.0013338346689019157
0.0016045370654393753
0.00332049718734672
0.020059827446997944
0.029707983074250394
0.008702170856489421
0.001419535682599757
0.009917919298890611
0.04153936022112239
0.8349597678770453
0.0010231532315102966
0.0010203916872147199
0.5214530539722424
0.0030028240376601366
0.015634852268596594
0.7461351821659172
0.11182419089926758
0.008157326494221268
0.0015669501224316715
0.027008872788439036
0.48101505354250373
0.7091786277033614
0.952210785482525
0.9625332627425717
0.07112451466862141
0.002565722107245931
0.2192831875037023
0.2780031322253377
0.996654808411403
0.0010009371085644492
0.9110560172100332
0.0010358288941449553
0.5240150582471783
0.6470845693089794
0.8513465183685015
0.8353449901482688
0.019168124556977237
0.9202077323651039
0.14616448363583817
0.7581921565759272
0.9425006560748115
0.001005321671171933
0.0010174523775665664
0.044997593416198745
0.8795367256063136
0.2847078770317657
0.9319587570659277
0.00516873695262838
0.002321372367014492
0.0010000154039650857
0.22963877458231416
0.0021127267351014755
0.0010057886833196256
0.781530760432989
0.47165403290088825
0.009385138501354976
0.9866373007510321
0.0020566759981982268
0.0631221281950502
0.001108469723494182
0.002038109082436901
0.0010179950683352871
0.9488470900050042
0.9219319979639657
0.1694578474941998
0.002847032467022944
0.951235683695643
0.02003502023367824
0.0441750749552244
0.405647620383138
0.08352950337044089
0.0010000000000064512
0.9611181097267824
0.0010052005258952286
0.0018400701801678306
0.012562793321238077
0.009013340060405387
0.0010027089259399948
0.0013641202860294722
0.001000000043500153
0.2217418264232621
0.9919638562639052
0.001000026825656747
0.9861674297337847
0.04943345331682914
0.004164246880482152
0.005151483406778243
0.1449036939119743
0.027117568536041897
0.0020229406033085984
0.11219497502895215
0.6824283249084214
0.6975489687446861
0.017950576213373464
0.775503757790578
0.004567260896543538
0.00100001189336163
0.001662762163123106
0.9028965132426475
0.9840534155825674
0.36589632563472024
0.001000000000000419
0.0069725252166129206
0.5193167730479005
0.011807715787971875
0.6027619022020609
0.9968514545622384
0.0997184649770922
0.708538365496086
0.7867724824119404
0.5699785955936048
0.11022008074540857
0.26877207387405194
0.5247488036582622
0.05384066215076476
0.0010070692322863037
0.006332872350957392
0.9438643392291677
0.07737931802061984
0.8381717867356747
0.9300469579010279
0.0010000048046017898
0.0010019856827496033
0.9755998140816905
0.0012200699640248045
0.9917574347405861
0.9831147500877379
0.003879204428481981
0.001000009067382837
0.0010000000015824104
0.9940219284824815
0.053140679722316106
0.003968363716574198
0.015821075202041568
0.1387794209012282
0.023556872948517514
0.0042379582591052425
0.004813775911918878
0.1467067872344318
0.9163453771369583
0.0010000221946356714
0.010291730781188092
0.0011595172331763277
0.16380838582969806
0.004077777306212251
0.0022551691553754534
0.03461140736223892
0.03501822520724748
0.9271774505502307
0.8969226861864315
0.09117112724402009
0.40664032282113133
0.5358712989334729
0.001030951414870587
0.7203310270487564
0.8784243610106212
0.914178669964354
0.0022175232256287135
0.0010000001510262395
0.025335506157342216
0.821033897210349
0.31692509756134335
0.0010576175739385987
0.9988604622255207
0.9972630252479588
0.0024937526559951307
0.8559505081809888
0.801750706208054
0.7559665834198218
0.9192434096389844
0.0010018708097476194
0.0010012106144132553
0.001046320044528109
0.9953329711466753
0.37501719801416517
0.901282050200788
0.41581112762936534
0.7201424867658703
0.028371858348685844
0.0010055575122872589
0.0018894033903014223
0.03539350830859066
0.9619395577854727
0.1598483845110026
0.0010013625937458869
0.928588241584929
0.00111699630294377
0.0012631758369170446
0.06313693623645987
0.6685515303908731
0.9230734277026138
0.7176670080515904
0.0029657720228824136
0.0010000159207163304
0.0011774488094399903
0.0010027759194127346
0.001082614552494076
0.7462919105349188
0.012062009441369492
0.05365439383443827
0.007707321438299007
0.8641883793625385
0.11353096719636172
0.022101503941255658
0.9934458752869292
0.8102145920685719
0.01808288165320533
0.003940520103568255
0.5055649155510271
0.1883340150376191
0.0016322260291427968
0.0027698416519868372
0.0786566325669183
0.009746607897237265
0.0055551228038013874
0.001009498351657914
0.7709708733724712
0.0010144589580906131
0.03499987967878466
0.0035679718485343305
0.6717867822344104
0.3588891128136074
0.7882934613829381
0.8001065620659443
0.8004609707271654
0.9061237054409775
0.0010504704825941265
0.0025928958812705396
0.03735607016610423
0.48361811677195493
0.02647093159737844
0.0017319688203627714
0.6193326195095324
0.00100000066826968
0.3675671471730023
0.040602744422122306
0.001000003706599433
0.23698302961759174
0.0010325849356889805
0.7944535646966214
0.001000479464126392
0.0187198504260553
0.6297762566752201
0.0843741138038263
0.982296678283045
0.01896259526579549
0.13726743709237255
0.1441317181713843
0.010021196388563466
0.012690500986677802
0.1720127489543678
0.2123565718632188
0.10932925493160216
0.2582051548074071
0.0023406912379543192
0.6813538685163104
0.001030585327479829
0.0020204274619897975
0.8751835129530736
0.6244096517044054
0.001000012223761724
0.0010067106832842023
0.04858312767722563
0.6422100635298731
0.06142915131420579
0.8245365604078895
0.6044690867366123
0.8004066865160204
0.7517836827225125
0.5201347996405229
0.17375308592344635
0.740569540570621
0.001019610008744658
0.6237894552535352
0.0010021639325525813
0.8252811102967276
0.19957207575385363
0.7331848433004153
0.0664270816765281
0.38698439317917704
0.011109566807787994
0.0023531835076451737
0.504741768037473
0.35277875012328636
0.8883217210787661
0.5510578080485329
0.0010056831020782504
0.09832143519033684
0.9884046169268624
0.059660040078073864
0.9716576138819748
0.6013939177092917
0.001000017619649039
0.001010203280464802
0.8046760713015245
0.007847685623248243
0.002387540277384085
0.001000213911947978
0.0018955437653917482
0.00912481357008401
0.0010908535509706197
0.9951745151284966
0.27628798049090647
0.6856090512459939
0.6091885275162238
0.8925479903093234
0.0017777814528252586
0.0015753515860518802
0.02000971996945359
0.40781897847804266
0.00938867492137999
0.22401813878203441
0.12424578806753153
0.02202888394548394
0.0022511806458920336
0.0010001134760201594
0.001006629402476481
0.7387365099051092
0.5528380717249439
0.22644655850020406
0.15980319509935234
0.09556776989025698
0.2806144983059089
0.6813195446338208
0.003568655111462664
0.002203378483119873
0.9288463594752008
0.0010001146464543868
0.9817909326826053
0.9847827281148174
0.9993694094941418
0.9521934215774759
0.401707567597612
0.03275926581059823
0.8984221089246882
0.0010086877867665238
0.010458995257068372
0.005875307247272821
0.0013018714248653012
0.7464930800378314
0.355623974447659
0.6279793677014844
0.1994250597892164
0.3427270577806129
0.055095417753289994
0.995289549953561
0.0010102439355429665
0.004822310990511425
0.0010049947508399563
0.0010144860680571693
0.0010213102837969231
0.4407401680212647
0.008350381976037491
0.12548442872030147
0.0010962064717778778
0.001043060395041627
0.31981057560208004
0.04928964181964822
0.0012367892492779918
0.047071378936046876
0.0018266806385071246
0.07971214082919731
0.1274153074970838
0.022243923008899158
0.001043438607018134
0.001003385241619818
0.9242961982672305
0.5856278661778411
0.021865168283355926
0.05035644837317264
0.0010864331806944136
0.8403670995106073
0.9314870240705992
0.817939766958356
0.79775406293708
0.6992208739527228
0.01984628591418859
0.0010256169497070435
0.051481639987247564
0.2468461156199314
0.0013447028891445585
0.2486792430477862
0.10716171681177714
0.9153521655253989
0.593687289300062
0.08951203573874293
0.9025366692836464
0.04707866767692925
0.6923110198552557
0.001374407397803821
0.7764156918566026
0.1910981852557857
0.9881675649837374
0.012941219668229201
0.17380557674199545
0.21452877961919728
0.5857964144876313
0.9067511609461526
0.0010159506124563617
0.6498513789148967
0.0010000000005192656
0.0010003773587916318
0.7397381286488651
0.2880725249896342
0.8078934496073613
0.5189498064223192
0.05223219111593258
0.14187785102896233
0.31522459941594727
0.034894963641031604
0.02805455364986799
0.38226095206716504
0.6580554143593319
0.6614821478872401
0.23127589745851734
0.8645589635876136
0.0010573726367041573
0.9932646329666407
0.9353408740471303
0.13866579211408214
0.001005250567190508
0.21433467253300403
0.5997015763278274
0.14184199356449542
0.12284853264701297
0.04336586671395923
0.009435133561452862
0.0013787452129463528
0.005740041532097291
0.009623573659419273
0.7823157637454876
0.10478394096017427
0.1359082950021559
0.4944018545762496
0.8308745989787377
0.1620349577451034
0.28918378344047013
0.9968301912823521
0.0010103683433338119
0.7048486825287602
0.8821642669100108
0.02581770238410921
0.07369191861235971
0.024423933625461074
0.0446754861666621
0.7527012954488125
0.8046358348201652
0.6483713545181302
0.6996795062307299
0.9894452821472399
0.9875154741926492
0.887107345376823
0.11848551116987821
0.0010429277311572015
0.0010001951896699917
0.14317879136416994
0.04222919049176463
0.619669346442697
0.3670416634503869
0.9312969813212186
0.8747436921129421
0.9853183233582369
0.0018308646942189711
0.9931523834270131
0.002879588726794489
0.10087815873403104
0.9982104846245701
0.9937867840684788
0.0011408730897314696
0.0041547891286899015
0.0029546325408732373
0.4564989952288092
0.0012479420961150998
0.0010143331397344966
0.0013344751935713583
0.0010000000831504225
0.1608098451546719
0.4731970124986756
0.42032040997639
0.0010000097041558027
0.3390971286011785
0.5109348232526743
0.3485695944644393
0.13953903590543199
0.9942973905561985
0.046806490276957914
0.915242604378391
0.9960862966430057
0.17889961217569011
0.00103868068835212
0.9268900403633595
0.25741236454761707
0.012202529287802473
0.20036113998347413
0.02042922800450535
0.4941247949987656
0.37577122937665564
0.2154613022939734
0.0016423014190398322
0.38794500912089774
0.3689325165750432
0.6960825359677825
0.001002873362533495
0.8775611889532546
0.3002529833666137
0.004867755889294443
0.001000000386057368
0.06181818741644572
0.7060313238812146
0.821448608308599
0.0010096007915698726
0.0010138327416061887
0.00647793283266567
0.6331963797275029
0.0010144140910060303
0.7707593214547188
0.9222124448973121
0.9508401758536601
0.7685041705905198
0.0026847983927543373
0.0010378956911063187
0.0010000224882319372
0.15607699443283474
0.46525119007939436
0.01293133768172007
0.001000002536974612
0.0012537141468557554
0.847591159849065
0.0010845424380776932
0.7054436650677908
0.6708827989859778
0.002439256879864367
0.0010345982013730628
0.20406494072461778
0.4047343073391928
0.04162118498428918
0.0018184274651999886
0.3730053767941096
0.49870138909441736
0.5457373700678604
0.7644475707893159
0.9631640809126245
0.7249239813959256
0.001018441541972719
0.4314320382733046
0.20532086146984707
0.6815969967654851
0.5759195931230345
0.11165598946067633
0.10082349689905562
0.0010426687120683761
0.0011437193201282185
0.016080336918690038
0.7178725696187053
0.0014873698668959703
0.8600721471297096
0.9671248426455655
0.0011013593197506662
0.0010108912625582118
0.6810564298016971
0.001015903040557277
0.2643131011800093
0.30256619480891944
0.001067556562907932
0.0010000681284687237
0.20917577962506345
0.0015983471794000705
0.0031329333022894505
0.0010348473249728806
0.0010000041577884163
0.06348732766488126
0.31661691438587086
0.5273127694333087
0.7639933091326125
0.0013550867329517892
0.0010854541941534297
0.6671106125953189
0.017144020629770638
0.03246333687427045
0.004016875400275669
0.5038972781533634
0.02749748706144294
0.0010724970115160595
0.0010009448518459405
0.022532354055669297
0.386602432312058
0.31618831208536197
0.0010019309733997337
0.002386529415150924
0.4436866688835643
0.002864407867420961
0.9615683807230039
0.9737836616326947
0.5374277976756613
0.16576090766047946
0.025470590772341924
0.16292209418640538
0.2560169816653386
0.0018791394457416395
0.40974679173752504
0.6146762407362558
0.0010130313939655867
0.4827851368078445
stress_iload_1 1 9640 float 
0.0014507110966807378 
0.0009937469418922712 
0.025230700233542975 
0.05034643368760228 
0.09533354953307997 
0.10457642345580268 
0.12406265816764875 
0.14342511822077977 
0.15449162132441327 
0.15665277096195607 
0.20931651850739288 
0.22241386121345239 
0.22572429478717282 
0.2320022509953362 
0.2608584010438245 
0.23074007520243028 
0.21560960978013394 
0.20861350122777655 
0.18264998136807903 
0.1652993306177249 
0.15258596668287022 
0.10054221770227088 
0.03765167627847047 
0.035315156177627934 
0.029610884171313145 
0.04653813062891695 
0.06639089870911062 
0.12534861482493215 
0.1413453966292102 
0.22465046523120652 
0.23417040209068812 
0.281189213138173 
0.2775293254236718 
0.25428773378583724 
0.16636540355324175 
0.07152920514595959 
0.0961785341815546 
0.22280739588312198 
0.41660123578100083 
0.49872053685737544 
0.4970067980729659 
0.4974712227555691 
0.49864516456062435 
0.5406935283135517 
0.5437825490874428 
0.5544537013289519 
0.5640172778615918 
0.6080401762586675 
0.7656909494624555 
0.4512491471021943 
0.40474149952814664 
0.21457199786894596 
0.17757271997705124 
0.13820371385235916 
0.15402184837631147 
0.16681015741043811 
0.19184659147854508 
0.25576891441303756 
0.004632485973898481 
0.025264049563940922 
0.011756013571587749 
0.0469227010796027 
0.0734254572283455 
0.0782256479885297 
0.09830355589947432 
0.0949361418233889 
0.14648379732494587 
0.1560159282226517 
0.18305342175111922 
0.18652943477459502 
0.2111281570863624 
0.2591707542232255 
0.2721545219717201 
0.24849140995237542 
0.26335910987746614 
0.24701911543504215 
0.3336708566888283 
0.24599327492322715 
0.3381436937492018 
0.2595618223216273 
0.33977766012755395 
0.3252957821587844 
0.2797013517960626 
0.2987879444750856 
0.2536598760525338 
0.28029626875651065 
0.21330140594893596 
0.18203783430819534 
0.16338498027943207 
0.14309011765359675 
0.1233447827107164 
0.104067438440678 
0.046236525586253366 
0.029727080895170635 
0.037166985556153165 
0.021631092001503087 
0.001347180133296783 
0.001340916543375867 
0.016097463621779395 
0.33325585344295183 
0.3565323099043769 
0.3027635418661231 
0.2422657986168736 
0.13977285449021098 
0.04113651800974594 
0.09892564286181035 
0.25346759428604887 
0.35420274202640806 
0.49852846455518046 
0.5016652595329798 
0.5492698332199105 
0.31596588563261874 
0.39633077245794684 
0.41323961046793567 
0.38617436634753494 
0.34383533304307706 
0.46754793631886077 
0.343793593121117 
0.47268601738974336 
0.36671372836051985 
0.3726084753750484 
0.27121653684495767 
0.0506159638492673 
0.0018238915941848582 
0.15570025193056472 
0.30584814177986613 
0.4086183048824862 
0.5017409913271286 
0.5389731345837336 
0.5430842766360084 
0.5458651650141341 
0.5478539738623431 
0.5017738955994475 
0.35518497203371646 
0.25780995302099546 
0.15184392071417877 
0.008210902812643688 
0.1669196006981977 
0.1871938322490462 
0.3090977028238749 
0.32137297718044233 
0.47601259888734515 
0.42436502471455806 
0.3732928380601608 
0.2198713721133609 
0.12577952353461672 
0.014897601199981153 
0.17534415724992353 
0.3217526581154404 
0.4122158653037242 
0.49988287225195616 
0.5238294946129641 
0.5324925624012512 
0.47805622810803683 
0.37384433512761034 
0.47321284105732564 
0.4669104206423921 
0.40692365003924813 
0.46843073761135984 
0.365504596419879 
0.27134672736603455 
0.22123405041037475 
0.039644587639168206 
0.07104248657181159 
0.11393783643494898 
0.10665968208464806 
0.17707187167001823 
0.2505955947531174 
0.3583166567386858 
0.3671601674687756 
0.28087121452016606 
0.24403270157778625 
0.2064281292695977 
0.03390394337857692 
0.20837249238344707 
0.4694380864097811 
0.42478971591710796 
0.35710275401853653 
0.14718585940158554 
0.05502011193878671 
0.07911293663076634 
0.4593629964635257 
0.45182696407311973 
0.3932719907989923 
0.3224304698189225 
0.4495857255344092 
0.22730693903909802 
0.2618905544622793 
0.21236876158389778 
0.17882964568968518 
0.3385254665522567 
0.31644375574705796 
0.40219300023905113 
0.12212446948088353 
0.23598731813328178 
0.3375784346407948 
0.45654629819703285 
0.331109271692118 
0.39889502775900487 
0.5494294585499696 
0.5031711104256031 
0.3021886096247848 
0.23038324180726738 
0.1304783279033194 
0.01734976759788535 
0.2446766496708945 
0.3391351802495219 
0.4492420308513951 
0.550638447603723 
0.5514919670272668 
0.3554218001567308 
0.2554354201871902 
0.11587990702745654 
0.02313440416886715 
0.13204840917709793 
0.3403814940620651 
0.3748819963256958 
0.5519179318916305 
0.5032093272076578 
0.4437725338461903 
0.3457672719207517 
0.19924095973317332 
0.07821735315835422 
0.3135847800154277 
0.8570055006266402 
0.5554111106782167 
0.3840910531330135 
0.2564020850245507 
0.15094089185742865 
0.13257667817666807 
0.1393210486950592 
0.17293087588977926 
0.4228667645413947 
0.37092072360814043 
0.30486630799950365 
0.15911445774664468 
0.12482290273902129 
0.12582056030095431 
0.14664266297988415 
0.1880198260039807 
0.3269322722186515 
0.28256427214904534 
0.27180721317504714 
0.21640375673216108 
0.15342810802324078 
0.12250956029632742 
0.11956253085596837 
0.13640796630321403 
0.21264251946379684 
0.17597338085219624 
0.14785054880951645 
0.12767617667403391 
0.1228927966840176 
0.14242903749942512 
0.18332447147812303 
0.23610593530987978 
0.2454865617480476 
0.192445745344857 
0.1597216825454959 
0.1297762488718773 
0.13445098309699158 
0.12290011077681308 
0.152644807714097 
0.16378464470664955 
0.19917232707889937 
0.2356129189140962 
0.22610190711453088 
0.2075426218603373 
0.19214876614950738 
0.17970698385541753 
0.17061723300532747 
0.17081884736698716 
0.18279689639648297 
0.09934722855232991 
0.04095055497318213 
0.24823706228065176 
0.3074898427437944 
0.15402429404663187 
0.1387239859472602 
0.1377266289734976 
0.136482761188743 
0.1413052880237571 
0.16357614732207038 
0.14952334599436004 
0.14805316197613566 
0.16272594713296565 
0.5134351120343223 
0.3270824008373237 
0.18354117136988712 
0.15477944178298575 
0.1404294335960935 
0.13027429555966613 
0.1306260513880043 
0.14699829780157267 
0.1420626635067539 
0.3209342077212039 
0.245153224918896 
0.18292781280112744 
0.14282060587132253 
0.1391076218881549 
0.12360154862774664 
0.12563843827280735 
0.13585766437868452 
0.17859719796890483 
0.14183425154177987 
0.1215977268531103 
0.1105907518726768 
0.12357464425616875 
0.011739058967193463 
0.02512217502344975 
0.05140758505611554 
0.05361193393860512 
0.049675788754517544 
0.09108872821348254 
0.12022429365037099 
0.10082081032398589 
0.1205254339503756 
0.10708766470902052 
0.06973027708661293 
0.08955257067852103 
0.0668926712548095 
0.08830370739289362 
0.20017282763636024 
0.2927237415293577 
0.3100121030887674 
0.13056915111581965 
0.05096186780970152 
0.0713172426893644 
0.15125146329781883 
0.21708037490702203 
0.2365509720024328 
0.23781596784194453 
0.2189237514348987 
0.3411127453416511 
0.5951796429229538 
0.11961425716775327 
0.1794390407087582 
0.21748644414916377 
0.2376153253532984 
0.23270028008686083 
0.22833328389022114 
0.2833444833097035 
0.524603929039087 
0.13899699178536448 
0.15737646854215304 
0.2018191959150431 
0.2215972274277587 
0.23499556860504694 
0.1959686279891833 
0.2189676080024764 
0.2535427258304161 
0.17758472220135632 
0.20863854240626167 
0.2171165280732753 
0.18456557157694947 
0.17765786155637178 
0.20597314094258096 
0.16842908598245235 
0.19386770422576954 
0.21086066882668347 
0.20487841520638905 
0.17271785411191926 
0.14452943605185284 
0.2012574867690438 
0.20639541564409716 
0.19448726461925492 
0.1650275920858476 
0.13256863043157144 
0.20293359745898987 
0.17762345495124587 
0.16382266087266348 
0.2237674182136891 
0.1983056748474987 
0.21154943827397774 
0.09409994403667331 
0.06540223272268758 
0.03711459120693462 
0.09287070152321254 
0.1850797046706753 
0.22560738174066736 
0.23752793148126922 
0.2231491670994165 
0.17437774266918066 
0.22617891220921982 
0.5615374846933051 
0.143547374981238 
0.16725592141097045 
0.18023855611076847 
0.2013197190005001 
0.20610536712565433 
0.20325065657231947 
0.20269404359465232 
0.19275911274763857 
0.1704752319192704 
0.17357537499730913 
0.17894766998620082 
0.1445680864102268 
0.13124238714195915 
0.09140689157681105 
0.07377378721819758 
0.1333187687341641 
0.19256676569697825 
0.034318857637350327 
0.059718685445629235 
0.22123590000489968 
0.13549792024209042 
0.1365621705506971 
0.13966928422604122 
0.1375274833865276 
0.13468118371320265 
0.12251573439237873 
0.1056359443602375 
0.14637586264564195 
0.15476068951971791 
0.2138638924540612 
0.23042461556497612 
0.1965660080883914 
0.16422483229736115 
0.35438888348918285 
0.499772837349569 
0.5474290672150087 
0.17468447837843562 
0.20158814985936416 
0.20872099620188106 
0.21633109558535796 
0.2170480438081034 
0.19675343615898358 
0.14647116263025814 
0.14417951250893232 
0.13747113042261086 
0.13298248145595684 
0.1290091657872209 
0.14159792690240455 
0.12517270618326473 
0.11401431352481768 
0.0956811751491502 
0.13716891485394608 
0.13635721279261281 
0.12107470172481191 
0.1298505468979033 
0.13296672203735865 
0.1361525868298396 
0.13954068176428672 
0.137197744678852 
0.13848173667336394 
0.133227556810419 
0.11501356743492248 
0.14797724715293264 
0.1390662162738022 
0.17611942114007242 
0.2271371582379874 
0.2188833703470845 
0.20364219172197195 
0.1555262480064551 
0.21237028370363867 
0.33122585818655204 
0.48071769744204756 
0.5168499309847153 
0.22554939347215475 
0.22709417013018807 
0.23172653016182712 
0.18674423329256662 
0.18037906303128912 
0.12004241392567086 
0.11879682049377345 
0.11526971564188813 
0.12017328165479599 
0.11911881472252336 
0.11855478030641836 
0.11954159381619534 
0.10927405649959172 
0.10800447205980818 
0.14503533243774688 
0.13855945467963474 
0.12726201410538823 
0.10241312947007092 
0.12232658925893414 
0.12566271080203797 
0.12507486051563632 
0.12966174054838642 
0.14227157123020007 
0.1501333352525534 
0.19694067864796694 
0.21107683227450771 
0.22248532137740137 
0.23209082097589112 
0.21541359673596985 
0.183847359311543 
0.19890386842563784 
0.3499143702340039 
0.4465489740761151 
0.21061914570455575 
0.23975574444292003 
0.23668640209359332 
0.21884342009998675 
0.18491831352009674 
0.14812491580292692 
0.13872594690781362 
0.1323272565097364 
0.13472668871528143 
0.11989882559818994 
0.11776851294703593 
0.11779947248370577 
0.1276309728249297 
0.1597806220128173 
0.153147421210831 
0.11693488906092939 
0.1065495490829096 
0.0795663618056641 
0.10460040845572265 
0.11754109705231483 
0.11027088847102309 
0.1320495480054896 
0.22663174623296214 
0.22533425492528514 
0.2446037506535598 
0.2330435747192139 
0.16714949382261993 
0.08824749421084252 
0.1040189496798228 
0.33888716937835645 
0.46356231058966885 
0.22943815597044445 
0.2307349524464979 
0.2355112129889319 
0.22939545873457046 
0.23381711373979358 
0.2244687783223356 
0.18967588431674742 
0.20866129778178666 
0.18631723418362542 
0.1749910990268435 
0.17228197289711308 
0.1489965292475835 
0.12676468479354897 
0.15041890745272132 
0.1720372590270005 
0.18561779597611178 
0.1660935191845761 
0.1269659664583003 
0.10288399145188742 
0.05183922955065708 
0.062472094639143744 
0.04458855951041735 
0.10994805600672254 
0.25023935565531225 
0.2721322255348332 
0.24180463261787 
0.22375825423035142 
0.21912221073769686 
0.2290640734504931 
0.20779613963995255 
0.22474604976249557 
0.24298205787048197 
0.3209369348608616 
0.2406338300512801 
0.22884922426212753 
0.2051705749740563 
0.18484967646280454 
0.15350943435553008 
0.18755210185252477 
0.19947274827788553 
0.17807006865140226 
0.1400200220227005 
0.12785239419457206 
0.11499842251374638 
0.0727245920928427 
0.29559362635430697 
0.23190125625183677 
0.20588863100003327 
0.19674792325384932 
0.1811361609689586 
0.1768778611329087 
0.2238801854777457 
0.308242783306877 
0.2526381870920003 
0.24106193936079398 
0.2189130226485467 
0.2167017736022835 
0.19874781259141694 
0.2544299308836697 
0.32940675846789946 
0.14159291999409573 
0.12689277005190255 
0.15996902976331803 
0.24374478735866204 
0.4075118297326699 
0.26591191018266286 
0.20115071176967278 
0.2289437013850881 
0.1012377494987647 
0.09676438506781293 
0.16559623608483007 
0.3048895672576284 
0.49840829574101314 
0.2086169897487318 
0.06868211906738002 
0.15082195591731004 
0.09060214632640176 
0.14639164043530747 
0.34834350836316663 
0.4913168983109766 
0.22443262108006723 
0.10957658704014682 
0.08036500723446229 
0.16750569614026015 
0.29348290374252 
0.405809115750307 
0.21317926195301867 
0.22304628497445336 
0.12069776548875405 
0.033258402208760744 
0.21269825190086947 
0.13326783523631203 
0.3249391513460848 
0.4313608911791562 
0.37298852378515485 
0.12876495920754244 
0.1554887191610464 
0.3088067809663101 
0.25808446062593365 
0.4500739402672725 
0.4252960464934092 
0.3262306497385979 
0.31054141067383356 
0.17512913520011167 
0.05916704298856057 
0.02251397857425521 
0.13529641449871854 
0.23688916139365296 
0.027029311597489062 
0.17256371082985822 
0.27905136834818584 
0.4485100133229226 
0.313150684203082 
0.417393246518191 
0.368988860974375 
0.31518282718816026 
0.19926240906904163 
0.1068268404468725 
0.12873052944751956 
0.15709639827391217 
0.10867000170648912 
0.3672940580803434 
0.46711600859761293 
0.3420633650366197 
0.27933034578847626 
0.20478611675201502 
0.09563177399271458 
0.17640140101466534 
0.08190836827354021 
0.24104134380611889 
0.2065718239252698 
0.35578909658201846 
0.5037768233349019 
0.3403700856825676 
0.18261293182992575 
0.16964793596207747 
0.009173389451169174 
0.10636044289996052 
0.36008866258630656 
0.355813467243533 
0.5024523833306179 
0.33226715908004134 
0.2778521800790426 
0.5015533978784569 
0.5014884705054204 
0.3490040039551774 
0.07112679122676378 
0.031625321572629365 
0.15117038737970004 
0.16223926142772752 
0.24624408252732638 
0.2597971966239843 
0.2697388940708125 
0.058772132474035524 
0.13291281485731335 
0.030817054254795258 
0.06550169021255066 
0.3661749362747572 
0.26497297505408113 
0.14835780008598928 
0.035740523495439346 
0.4585336029000963 
0.3942868999257519 
0.33423400896814437 
0.07615402034039138 
0.026401617902771707 
0.29457437252875573 
0.014579381130595346 
0.0846812149735961 
0.125393717152764 
0.17278845244318547 
0.3269121113499889 
0.2957691467545343 
0.26863120383581957 
0.21663573703454 
0.16284520199344668 
0.001966190664148236 
0.020931959008563854 
0.06998157492855489 
0.12510154713287747 
0.1917851729333369 
0.25626586862189604 
0.2976430692762023 
0.34672359393674435 
0.4613174772999966 
0.4175810319156626 
0.4250559933664529 
0.42359114118064567 
0.3994407823129461 
0.4103061877812148 
0.37708952598529494 
0.4148080798681962 
0.4201096373883449 
0.31864196966588165 
0.15444001636039664 
0.09649661760474232 
0.0899721914788041 
0.14835332699413686 
0.5210581073593838 
0.9721781790777319 
0.6531863324619835 
0.5801019475152716 
0.5486061952825764 
0.5395182306702889 
0.5456473045610184 
0.548636290681863 
0.5504273538658523 
0.5518779631504416 
0.5412638090467036 
0.6524548068850621 
0.24136683125139374 
0.20373253280651718 
0.17539433942095325 
0.169340276735976 
0.17455153521085873 
0.30127802403439286 
0.36534215217127675 
0.705971659833439 
0.21025369598123925 
0.1796685396912992 
0.08356853597302549 
0.022180010343136238 
0.004574413372128376 
0.000976018264172313 
0.006019836804787584 
0.01450678754785312 
0.051878077187386885 
0.08893359370464503 
0.08735354268954518 
0.11426630060934084 
0.16830574974824514 
0.21137796010166154 
0.18427032394358267 
0.25313142028101826 
0.3080380097601278 
0.49726859203740026 
0.6360379965779285 
0.6057305500316351 
0.02163248264347309 
0.03733879348366664 
0.03378293798033811 
0.0620368135555534 
0.06314959235937405 
0.08523379800458095 
0.11079392399721563 
0.11157893229586045 
0.1280862034092176 
0.1653851023284093 
0.14234418832104118 
0.20067547027651556 
0.2172795199614788 
0.23190817887633636 
0.20556404616879778 
0.22053597933733746 
0.2849756504782106 
0.2371805306398931 
0.2982809995531362 
0.24756961697113522 
0.2542525337448112 
0.33819253172879965 
0.2621882510891921 
0.2965513189319246 
0.3333588390272625 
0.31392995736773055 
0.28713382326255704 
0.2465991130698889 
0.25898779819350554 
0.23535483384617387 
0.2368364932461162 
0.18875468609052434 
0.13773559421293124 
0.11246141284997253 
0.09106637965818451 
0.08581383288307833 
0.016596598834942338 
0.07693089922339455 
0.006774209993245125 
0.008857075848974695 
0.006497470220386311 
0.3777174418152593 
0.28521337553217574 
0.33209013022214584 
0.42802430793887114 
0.3602404931185404 
0.4400766786491486 
0.35800805912566164 
0.4776672461930946 
0.37091466529541817 
0.4781701588426682 
0.4775781494127771 
0.4257283604056288 
0.4760309418091276 
0.46952632686928525 
0.40687032606851514 
0.40310507634336584 
0.467511450412067 
0.4692715051600446 
0.04787690394487409 
0.1437823619339312 
0.2128130696652264 
0.1989966934235317 
0.2911309849690038 
0.2816416554633036 
0.4683468952313006 
0.46505136170220296 
0.38317755978837637 
0.12552850161670115 
0.4227896456701762 
0.4447563300448619 
0.43749186764405573 
0.38797447878331837 
0.27003717474841415 
0.38700191940734385 
0.45579253472878684 
0.3919827762719848 
0.2559933724390283 
0.3546829400798423 
0.26456494478658943 
0.21886108434044393 
0.03756325188429394 
0.09997325421486779 
0.11137365237933437 
0.06599781882635211 
0.12181433192707813 
0.3193481958884156 
0.27340317689548166 
0.24577785845902403 
0.18880919234686225 
0.1415207541462684 
0.14369998444246362 
0.15838942422245184 
0.18960073315023024 
0.22945379898506993 
0.2815751286939348 
0.06891594642191984 
0.3969250354108813 
0.417047489956535 
0.18955036217751733 
0.16900116048855565 
0.08853736985148372 
0.07625603698150943 
0.46785296938772164 
0.20889313704600765 
0.43468073934991797 
0.21435056186745816 
0.731866876813216 
0.3944718328226073 
0.28535177136321815 
0.1183702838918648 
0.09889971696766559 
0.035979701335145824 
0.0691075050342069 
0.4953972669765156 
0.48695168445023873 
0.46619971347521666 
0.22929976759349502 
0.22403811055244743 
0.5475187095703264 
0.14661062899314786 
0.07062033697891808 
0.45075614825832433 
0.4952765458749361 
0.06725936119594848 
0.12383877398038973 
0.4576972958039016 
0.5014658880546473 
0.2020778609241513 
0.08706390719359922 
0.0966424124356349 
0.454960793783166 
0.4561984692251201 
0.17213334345619583 
0.18279408826263735 
0.05367581745471416 
0.22596241805832962 
0.16814114388411416 
0.13769474976125354 
0.30163324171956923 
0.27393476815288736 
0.43440858196756 
0.1805985634599763 
0.10280481970721882 
0.10787937728526327 
0.4543707912543298 
0.15317560870159944 
0.15927328396513418 
0.12431351952302684 
0.4071884924992318 
0.45576013147251554 
0.13993062164237693 
0.14659008140402874 
0.37089293294359804 
0.3667969322327657 
0.45688888010231965 
0.25719573072960245 
0.1534266234239352 
0.2882069905993176 
0.31748177287367896 
0.06671548925281777 
0.10471915368375453 
0.4071155319546993 
0.31555931731522824 
0.07460374720289248 
0.06216042133081557 
0.22391212461151486 
0.061758633334938556 
0.07215694597732104 
0.08789507833191954 
0.22835028512605177 
0.23341914750712106 
0.3215036752555756 
0.3218613476990951 
0.40024750611368254 
0.45618517487294036 
0.4091298533481774 
0.13270428984331067 
0.037355462307181966 
0.04937135556318384 
0.21157646305609804 
0.20146633664017968 
0.3008850591359149 
0.2759005233495481 
0.10782987417356203 
0.121542654897743 
0.3446199706970309 
0.4079421344407273 
0.26256472117534196 
0.10614855337298829 
0.3429341194358434 
0.30351713731381846 
0.17466207589913377 
0.18166258091331489 
0.12153733948334297 
0.3935627709497644 
0.3910348221632464 
0.19466470927318927 
0.3177877595023301 
0.22136337838852502 
0.0761348446497762 
0.20476503922662787 
0.2277803111813566 
0.27309209631723624 
0.3625754544382148 
0.17587768407878537 
0.0705682141783642 
0.043229656182892366 
0.05972728311869393 
0.16039083987747996 
0.32632568259480765 
0.080705618428111 
0.1049459335132483 
0.4059655133910922 
0.13618458267913802 
0.1404479390821559 
0.4528042634445216 
0.30084048263303653 
0.27558247977763245 
0.22448244928070013 
0.2599371690183847 
0.05822885416041147 
0.253841754897347 
0.05880014643691291 
0.123854142268264 
0.2222612014485908 
0.1596053849004774 
0.1052188676667665 
0.3526352864556658 
0.3265817190150178 
0.40567464051553653 
0.06534010031054789 
0.4068688196125338 
0.12695883824218857 
0.09908139971512378 
0.1114790326606151 
0.36369138539543727 
0.4105038813333246 
0.16801538696934432 
0.1390799638255379 
0.16387718434645013 
0.3790446008923831 
0.2728433470597565 
0.18519088290026403 
0.26176868323283686 
0.1141070216537872 
0.2950637260711208 
0.27908380555085394 
0.16697732349521258 
0.36737386294870233 
0.4128089153144265 
0.30864007310327496 
0.21348594490572553 
0.018961335779683203 
0.13667019461977867 
0.11341863817392968 
0.23618007172428926 
0.0945236998354573 
0.26831684050792715 
0.13066926372017496 
0.1669958961507525 
0.22591602401564137 
0.24445383932974363 
0.16808409810676686 
0.34344144064707105 
0.3066812652503035 
0.45890120281512126 
0.4130342182766883 
0.2373716320879951 
0.25465885432912094 
0.07241521310316153 
0.21468498026076674 
0.10802098501470175 
0.4496454812234764 
0.3933286503728437 
0.5478227875652475 
0.5513001389552634 
0.4100187041425879 
0.29201353474559055 
0.1897390068828505 
0.2928486847594525 
0.2870929518672603 
0.4543937733864765 
0.15547880377251597 
0.4551889268640334 
0.08223542002704902 
0.16246607685969203 
0.27877403827397457 
0.12196494915841061 
0.19673550949181995 
0.2683809923920421 
0.2703037062847748 
0.21057333815838927 
0.1967249860899679 
0.2577816326868588 
0.12517225354811426 
0.10629354556537554 
0.07872331854559488 
0.12926308254766095 
0.0779065452032163 
0.14539610994607924 
0.14996432494919948 
0.18967928848631954 
0.23268383386011923 
0.23700363506786604 
0.0952525053079112 
0.08719308887503086 
0.3596597389009899 
0.10174846261258047 
0.05601483392536544 
0.3098566374170048 
0.16761922424112954 
0.41128090597952793 
0.22020898878078937 
0.25302796415097045 
0.13600622457542091 
0.3253447282379879 
0.3229192898654525 
0.23379404404198026 
0.24753089087492153 
0.14244696496536036 
0.17698183111754165 
0.2953258993409966 
0.26773317532847074 
0.15705089105977818 
0.3835909117363269 
0.198467580329357 
0.11157542797201757 
0.3178625413607687 
0.2521861574518081 
0.37438237846110106 
0.3213295851623471 
0.27747069408061 
0.2976802911335724 
0.3918786760606401 
0.4223840071341246 
0.2740471098146202 
0.20581853300819306 
0.42112373497382694 
0.1501299672573626 
0.2846070075606414 
0.24522020228502187 
0.25187830573933173 
0.2588235673271173 
0.08346885521548368 
0.2459059943770265 
0.24477925124616717 
0.2019327384052258 
0.3471602464390671 
0.40442795434222595 
0.078430997632145 
0.4384122989887045 
0.2218120335694533 
0.15551309243843725 
0.2271186084356723 
0.18616143471204205 
0.28878419053835647 
0.12116488333754084 
0.18609089115848018 
0.15345764034531814 
0.1427602015925186 
0.24635918418860242 
0.15511098646304852 
0.2455363995153551 
0.15688159492956733 
0.21485375771841303 
0.22943109260960304 
0.08113147234096904 
0.08253074641841485 
0.11660211224376749 
0.11854759691566834 
0.22164201540014333 
0.19432007023647527 
0.28329363426358384 
0.2600631272458023 
0.21874880865485685 
0.007760161886207422 
0.03771817540034842 
0.08052724219897602 
0.2074485720790722 
0.20945811788973884 
0.17350652181392173 
0.16678507348911842 
0.11462398298567958 
0.10492754348514549 
0.28606929775354323 
0.2897566923935066 
0.1251362555741726 
0.37554913738743717 
0.3178847790416545 
0.31572166621928 
0.3236114273264458 
0.3234745266667391 
0.36476984509428767 
0.14128813396769113 
0.09915604384411328 
0.09459604911704689 
0.0799898318030802 
0.10745183910088335 
0.18721230153433463 
0.24127151829162333 
0.14097746890053167 
0.15353506497609895 
0.2499818523022137 
0.1064874509981708 
0.20241778148499992 
0.19140158657274253 
0.30970861818151496 
0.29440413817508104 
0.22233481774073133 
0.21465716682514677 
0.34130837173989864 
0.11575803555449006 
0.25476301850063626 
0.2598358240471667 
0.14438485830819942 
0.19380213811706254 
0.19959495051302406 
0.09930231853214265 
0.11308914231130372 
0.1677739200124668 
0.19389405769187887 
0.25072441116285576 
0.20089328102221335 
0.266549969594143 
0.24328200952043078 
0.01966197890029393 
0.1844115406311465 
0.2705692800087871 
0.0735083740359793 
0.24734176037132782 
0.18893707565436102 
0.2062041047094611 
0.16969306395104866 
0.2725647478222238 
0.18488031478467015 
0.17581499699634584 
0.17802433455471528 
0.1674685451162066 
0.08558282363938689 
0.12730000487446771 
0.14502200608386032 
0.1435331376430133 
0.21089764217909276 
0.2349996656912232 
0.1911014100496875 
0.1965597312670089 
0.13452367258291079 
0.2287882659701016 
0.23036845016611127 
0.12945430128976862 
0.06508720796874495 
0.415009508795498 
0.11379753151711927 
0.11816756436532982 
0.12162741660927406 
0.11036067755502361 
0.12825622402311349 
0.14525689553847448 
0.29871220753379346 
0.25215161020108057 
0.09568068619565168 
0.26578087730512157 
0.3164946688460799 
0.10942508285279882 
0.11208580676008444 
0.10289763790740321 
0.18999405511679535 
0.3243780085304889 
0.306581656492246 
0.17049462859341882 
0.21948180305450285 
0.24534498281499065 
0.14077347462184467 
0.2393930794170456 
0.27660329416825774 
0.13688722413654647 
0.1468015721548079 
0.18660578804596115 
0.23142770653524464 
0.17952526277574232 
0.23589563110403042 
0.15097005357355786 
0.16036697335915343 
0.2691408922877157 
0.17160389029100187 
0.34969300299644795 
0.3986618068478247 
0.46979417725113337 
0.3560724267435051 
0.4091789920295992 
0.2901952472738147 
0.23267077605264672 
0.1391702918949897 
0.16737819681000374 
0.19911481142840218 
0.19559150007586842 
0.29795368914770065 
0.2436359841407621 
0.21724828781133745 
0.21031441795779118 
0.18262667998619148 
0.1589625901323718 
0.16769896438576298 
0.18796389913404446 
0.2796911019582628 
0.2174513672990302 
0.10044578417968572 
0.16201742438462452 
0.09118206747883384 
0.16191767225252082 
0.20111242743314955 
0.23139550993889252 
0.2830814392012554 
0.15889930042522382 
0.35608757933423657 
0.20205738141274068 
0.3466309065475319 
0.33953522963980665 
0.20804736497337814 
0.19843269079400588 
0.13317390755575892 
0.16723077930286978 
0.27285908134484727 
0.4205755281263317 
0.24143910412418257 
0.1600900868894297 
0.19155721651088642 
0.1324597243440562 
0.14320995014364002 
0.16794134081237752 
0.08951026688969985 
0.162057915577006 
0.09369205868974487 
0.07619853106711692 
0.22027695372103265 
0.17165125142738394 
0.16329490500773922 
0.2039074913106097 
0.14690003048392417 
0.2073049991594766 
0.2822739807214651 
0.16831014545979117 
0.11916790644950286 
0.09888010754191381 
0.10140588209175379 
0.1390706159340601 
0.13053164981559345 
0.19845938538223146 
0.22725107506416048 
0.2292361478759503 
0.44438972002946003 
0.32300279161535683 
0.24171610302418006 
0.19653663726161266 
0.13477648168737674 
0.17141464126188447 
0.2966611826480778 
0.1957192701610313 
0.16909171538746007 
0.11731163653000251 
0.13679100612011744 
0.2785450488651117 
0.11117833516043431 
0.12802586809902988 
0.2445295286416369 
0.1458293288574838 
0.19990489185953833 
0.2105227385985525 
0.22263771194894746 
0.18059942084816102 
0.18976581800340264 
0.1371587287091542 
0.1298121966519929 
0.14575819272210958 
0.2201530508424 
0.19655228892300783 
0.2053050795751947 
0.23371888801857132 
0.22664430294940946 
0.005455934972689636 
0.09282195216203765 
0.10178960642805272 
0.10308672751283035 
0.2476511525088568 
0.22255402273458635 
0.16974514484630082 
0.29121518028478643 
0.13136401322112365 
0.17498034102565585 
0.12937081260010577 
0.13308690251549954 
0.09247666831023202 
0.11318556016111185 
0.24151791642843906 
0.21117029333046622 
0.19169923970551117 
0.15178721999856684 
0.1784779398359719 
0.14733058742361185 
0.2367450588929107 
0.1841259225886899 
0.15780526315257487 
0.1229799978593519 
0.10421864580991316 
0.13458643554381958 
0.13060584634064193 
0.22912168477808095 
0.383406981041357 
0.1665968799007379 
0.21935917142251066 
0.15384512894592872 
0.17659161781059068 
0.14158815072187408 
0.20137156515588406 
0.14473308475051583 
0.12999417015814546 
0.13327907875640652 
0.22546456850239147 
0.216004398401884 
0.21166247556492715 
0.19923418258880776 
0.2048189478926882 
0.28031891014385657 
0.2935704934465084 
0.1453336385809554 
0.15423583690774345 
0.21401646598291077 
0.19602295823444532 
0.28286391934273597 
0.18934208733024854 
0.21119465678461863 
0.19652664599364136 
0.18272557470278344 
0.137587304550153 
0.2254892437221235 
0.22270375911071325 
0.19491557626621503 
0.16765700313069729 
0.10076829487994317 
0.1337377346892337 
0.12972519940523813 
0.11176459790075874 
0.2330113239016492 
0.05831085618334889 
0.1500687017703431 
0.1643811688703971 
0.050910338455178186 
0.14175426465597463 
0.20180473771584978 
0.20441109204759925 
0.1470386759053747 
0.15299057708408392 
0.16479038747124244 
0.27150526096148836 
0.17508664294863285 
0.19254420112581588 
0.2218368883551835 
0.14168341179601238 
0.18105112805596885 
0.23810572790849377 
0.20477908612481843 
0.13916946104341615 
0.15474132927762 
0.20650140478216902 
0.20482876909458284 
0.22909710953320891 
0.16660228692123666 
0.1366174647768153 
0.1607618989010576 
0.13141923596757402 
0.20409871140627775 
0.08538545000490523 
0.03879027352067172 
0.10013995335844014 
0.23218256009749177 
0.18236748178027962 
0.2106478323635796 
0.08763132862731976 
0.15313620753463517 
0.2474516779978937 
0.17491715556134615 
0.13824647528456963 
0.1379166586509353 
0.1234972906313259 
0.16807522987495954 
0.22243325117925883 
0.26993165724599705 
0.15087499211837163 
0.1450675085882245 
0.20445261496185965 
0.202589053658112 
0.22346409927338995 
0.23310626660613307 
0.2321070904334668 
0.21552832506781133 
0.21182405763731563 
0.21983844280868414 
0.1379070837148031 
0.13222780017874117 
0.06540666948718805 
0.13582394364030095 
0.1309025950797612 
0.17589508914365876 
0.10304060776376853 
0.08630492684252322 
0.13713353413485882 
0.14584746480357827 
0.1858898863689709 
0.13286623899053907 
0.20951905658819633 
0.19830097387331677 
0.16148117630017975 
0.1848604860150581 
0.1658739070188071 
0.17378055010844268 
0.15372113561780143 
0.13064335672061322 
0.13239090758432023 
0.12200471912278645 
0.1129338937929197 
0.15146996044970515 
0.18496860507917895 
0.11929417571243303 
0.06841654298743495 
0.23347200400342527 
0.1624476928315305 
0.08607000806139742 
0.11341608164850461 
0.10890623728587522 
0.1379198690751666 
0.1353768205539725 
0.13182273986590107 
0.21175930209658933 
0.1355776978233601 
0.10897622832591737 
0.12451743205556194 
0.23343744348206308 
0.22315180481408858 
0.18846879372114553 
0.15987166271510975 
0.13601366958502162 
0.19462881563841455 
0.2234657087819163 
0.1537134889979323 
0.13702720663384674 
0.10112682994385827 
0.21636877744508431 
0.21108578838830724 
0.22947851474361347 
0.23243217629308185 
0.20126381312253316 
0.1887355403955175 
0.190322724929109 
0.10317918057779668 
0.12719048112837125 
0.12368859552269801 
0.04763267838652122 
0.08357487411798126 
0.1753938874978584 
0.05458390127523411 
0.15881984117158288 
0.27456750017976855 
0.23641066784316717 
0.1680023000120504 
0.14212618672479177 
0.11050542173662654 
0.12203539854479466 
0.12657792779693222 
0.11979903213937271 
0.1291340330160195 
0.061194227956977175 
0.12557288869296646 
0.22661184286958624 
0.12848546589770574 
0.13079982015867994 
0.20177758442005075 
0.12178748226397347 
0.19137229854373078 
0.18050315221673008 
0.10919864395439416 
0.03589952834089081 
0.07486431847006085 
0.012787173037120443 
0.23337756215917882 
0.11808782856468461 
0.0933140194146141 
0.12258184243470259 
0.12880255758209672 
0.14768788732431187 
0.17125688928433175 
0.17069447984918512 
0.09117942292865315 
0.12780339416872627 
0.13345118689054017 
0.11192777162961874 
0.07324665258896658 
0.22487032142007682 
0.22852176031332475 
0.23628797963654846 
0.23574600529584763 
0.1206321341488621 
0.047308922049628055 
0.11857112009770453 
0.21866084093163465 
0.13930395620453548 
0.12657664769472846 
0.11816414289376792 
0.14807801394481296 
0.11815079858768757 
0.05830892350533004 
0.12380411051485114 
0.16028496770381448 
0.17331307314688968 
0.2073330951365956 
0.12227351721129236 
0.12270892850937005 
0.023289981287346065 
0.04887607196402235 
0.1261997555428927 
0.12585054432013731 
0.056443286043441 
0.10052040650891732 
0.11905106913104328 
0.1310413480646538 
0.10578981803384907 
0.12042171863679557 
0.12910269178507128 
0.1305135711387003 
0.1351908837284984 
0.19472181484114634 
0.2028853833569341 
0.1764801060861538 
0.14207071829820261 
0.1371765280721349 
0.12027258770405125 
0.12477683168163542 
0.21069495811976802 
0.2327223777030938 
0.21085503614433573 
0.13178635947221484 
0.13770400585959425 
0.22863059901084723 
0.21911008785525374 
0.23798129630891168 
0.058624212866281104 
0.02670322418779903 
0.12456856841780888 
0.16546889623332742 
0.14106455007340757 
0.12256569402361235 
0.21097358122385362 
0.0314788031682628 
0.11965017678420116 
0.11862437140102655 
0.105438921131635 
0.1142550529747336 
0.13280955770512137 
0.14333147359798434 
0.23411777119607283 
0.017621449401172655 
0.1105983795488849 
0.11740287226577652 
0.06608608869727577 
0.09454500074943442 
0.12261554055271272 
0.1201410683377459 
0.13135413897810141 
0.11758411385242747 
0.15505627534417768 
0.13525794776812242 
0.1382115821603847 
0.01643950389333285 
0.13560780747550333 
0.20123723895819226 
0.16098634226876538 
0.06319373783919797 
0.18798258380588578 
0.009774941695471065 
0.12652596981287803 
0.20673386087581885 
0.22326197345913143 
0.08408900159400663 
0.13750477631361444 
0.21840002163115319 
0.21626941380941703 
0.23578453385243037 
0.14462563954170232 
0.12202278787538454 
0.10368384616655282 
0.10340584717568566 
0.1197014766051201 
0.1001127978138805 
0.11537643528265043 
0.11218367647129054 
0.11878787238096664 
0.1395947234854493 
0.08699121100871665 
0.05929773810550151 
0.23477481907702502 
0.2219083143026869 
0.13272748825400205 
0.10987526297188285 
0.08998467862870084 
0.13258181909620165 
0.12912360460134395 
0.1277019000560536 
0.13439397469885594 
0.11666758552707598 
0.1778965139212294 
0.19588234386322237 
0.04747687694122594 
0.11742518687267708 
0.07090571084041651 
0.006841136994781929 
0.11457823297349931 
0.1924545557171127 
0.16707462272697132 
0.05978862999002175 
0.1153909828936414 
0.22306624236082115 
0.1915245067174264 
0.05748768038679859 
0.18719682704554313 
0.02654021582185621 
0.16106778289751572 
0.1461509361179702 
0.05153941044121554 
0.11218083589674593 
0.12930270038859165 
0.17349340176233458 
0.1463784923344777 
0.20994690306462535 
0.0345544307585859 
0.19754230205682574 
0.041729373310487976 
0.12333968278027019 
0.1194697031603637 
0.11939520463926748 
0.15430037333293767 
0.18508939661170765 
0.040435727246619216 
0.1151218709876225 
0.12316250575246614 
0.1213672684260736 
0.0783863938711814 
0.20381366056803485 
0.12137566020126492 
0.11850628894301306 
0.0645907583994359 
0.11874510807138425 
0.14582178638430743 
0.21072683320931077 
0.13345651862231836 
0.24044344977662085 
0.21636817742191414 
0.13548311454453144 
0.13779217041183975 
0.13235713252923653 
0.05201690146080686 
0.23349609124681356 
0.2321385640462453 
0.2373474812162528 
0.1217412296012498 
0.12027352820387247 
0.2137184371554353 
0.18234902843237932 
0.12766019517391755 
0.1290923118190485 
0.12609644133951853 
0.17197097903331585 
0.05114728465287225 
0.127068487302927 
0.2384464158813911 
0.141166649135208 
0.14770124166394527 
0.0652400625252689 
0.1927715845419005 
0.20143938695415925 
0.02512760266472748 
0.2152855415431224 
0.07206333507042541 
0.11901149326445598 
0.10986830731482217 
0.2333696016730534 
0.23960760631879635 
0.23552031257903014 
0.2066309978793077 
0.007153486611280321 
0.04713480996537314 
0.13899130401385243 
0.07155728510652641 
0.0653424644453152 
0.21119627003115113 
0.19399526134262857 
0.22742131631832563 
0.20771983895488713 
0.01359618370597653 
0.05947364113343344 
0.2244175287214555 
0.182586089154064 
0.19798110545193276 
0.2289230179981327 
0.2311270717259918 
0.22842924533992287 
0.23177814690198958 
0.23571229670642194 
0.23962416180609575 
0.17658353687630884 
0.19167693596497046 
0.26519180334480574 
0.1799104431526475 
0.014326940892510012 
0.052145981699639875 
0.231242342190307 
0.22146347549162307 
0.20147933503310406 
0.22666714802677784 
0.2285617258344357 
0.2392233331595837 
0.23218077602375034 
0.2404702747421994 
0.21916081445642466 
0.2357248035929396 
0.21536321952965848 
0.2062992798770336 
0.22294498564848156 
0.23630401294788056 
0.1634931854785972 
0.23866968710504718 
0.239890005972074 
0.22590170322256853 
0.22987517290573367 
0.22780542354209868 
0.23657599488026745 
0.231666149502838 
0.23075841252588764 
0.22965977645391786 
0.2279507208140283 
0.08177553856456432 
0.05251407833960518 
0.060838275677065214 
0.1180007783606928 
0.10454926791348691 
0.2679799880741779 
0.5718899149910028 
0.2021579691382467 
0.422421212479255 
0.09121690786299991 
0.50666049932979 
0.5297159384159181 
0.40006157245084356 
0.08806860014711594 
0.09529838765536093 
0.3975411274141445 
0.14845714990830497 
0.05568647732829424 
0.053906635426015516 
0.22047698412452027 
0.2331246245448948 
0.1867274311466665 
0.20304696875164105 
0.26616969189399764 
0.12564079097717046 
0.24334085679137954 
0.13819571680571607 
0.08633609938709275 
0.1797519123885643 
0.32177346160021036 
0.31730190451964463 
0.15318120061460033 
0.11483773241575049 
0.27078918526087065 
0.272031574173416 
0.2561465232576162 
0.2685864146181787 
0.2631200324382684 
0.21345218730708584 
0.20836964196268123 
0.2295151658712168 
0.2229709188638122 
0.07990738301082968 
0.1554591132163395 
0.20303013727156452 
0.16488625760327136 
0.13229777577284058 
0.19247662241403485 
0.10748489617835759 
0.19856466820187213 
0.30496794810465566 
0.2532928332508457 
0.1689990636101845 
0.17376863835036768 
0.22094365980569636 
0.21583172448438487 
0.23239213120853466 
0.22515893616869473 
0.18817497125439947 
0.1418140982605383 
0.14210740653868065 
0.14434795923710028 
0.10664821888562728 
0.1312717466683561 
0.11147942602420692 
0.12239735326615755 
0.20194399134013122 
0.08661433832145861 
0.09086649534331366 
0.20898262485789046 
0.1954536564880846 
0.12840743457813128 
0.09354513693332718 
0.09445879971059484 
0.15089048829312157 
0.13447805606639038 
0.23250365592220026 
0.10497075742702887 
0.10387917961534604 
0.13626173719879675 
0.15636234031728774 
0.21782146472491054 
0.10678595850031793 
0.18607933667222687 
0.22235483306331066 
0.21132026102859772 
0.2313480233731477 
0.1998140234833627 
0.13598596383892347 
0.15937530992799848 
0.21948574949151364 
0.22801386351525177 
0.1354255011921658 
0.135479216379736 
0.13103874454636016 
0.21065431709574436 
0.15627813060739762 
0.15119528565423382 
0.13442701852713934 
0.13169544356977728 
0.12894921450586103 
0.12667794854452738 
0.23031766663153133 
0.12536966406037947 
0.037332807971276395 
0.15313612927311177 
0.1465719859048508 
0.12417211734379033 
0.11990852247471902 
0.12224162086132147 
0.138688663164434 
0.09335891220155428 
0.047779001745559956 
0.011954597975302607 
0.12231428808237318 
0.2313181151449607 
0.18202942099183134 
0.18464345606771562 
0.22597147699153655 
0.10942380397932862 
0.07931343605074856 
0.19105259650810158 
0.23823056501236042 
0.032751749652310654 
0.10374287473431158 
0.07848055896891175 
0.15410711396053234 
0.10826660157843473 
0.12619209783384505 
0.0015468334913360826 
0.001008191918161653 
0.025008510895101553 
0.049382352726675655 
0.09381287485346769 
0.10314464086920413 
0.12266264978783026 
0.14249254687378332 
0.15383082242633864 
0.15592164902783245 
0.2093855088198434 
0.22268159411477426 
0.22621771022833184 
0.23283555134824577 
0.2619710540413792 
0.23107908933542393 
0.21541296993776118 
0.2080698238287442 
0.1812861846333811 
0.1631080032524475 
0.15028513671735905 
0.09890988009191902 
0.03733213873669105 
0.03449454547428642 
0.028312741097596034 
0.045077955949164014 
0.06494559609579703 
0.12297198277713044 
0.14047813972288808 
0.2246046493444358 
0.23363382919368333 
0.28145573375979377 
0.27749038427981726 
0.25343758781430237 
0.16598612107709806 
0.07112419233074971 
0.0961111081448062 
0.22210115866310165 
0.4159360494669517 
0.4985799296307057 
0.4969826688581788 
0.49742767877266214 
0.4984904637258154 
0.5403301739729985 
0.5424526990527032 
0.5504392089074835 
0.5577061614801814 
0.599888928123641 
0.7908620154159128 
0.4704561571184847 
0.4042968321839096 
0.20983217782933147 
0.17392388555609917 
0.13637016344941602 
0.1527114334108211 
0.16629190738740282 
0.19212000123794717 
0.2568278086005791 
0.004556901823723351 
0.02472161656054291 
0.011208664246284462 
0.04603841385841805 
0.07210358338694899 
0.07765021876834047 
0.09724828623778517 
0.09455816797692389 
0.14640887055106064 
0.15555885016060983 
0.18294022936788143 
0.18625820238897792 
0.21114266156383368 
0.2595441313109896 
0.27256989419587246 
0.24894475603174449 
0.2639108150344228 
0.24755842352551707 
0.3347274271922062 
0.24676800751025246 
0.33927368299189614 
0.2605615302420583 
0.34098619435138755 
0.3265892589204728 
0.2808620787250257 
0.2998377347781009 
0.25437202042688434 
0.2811844524211066 
0.21367939665584104 
0.1813256909764131 
0.16321141516953822 
0.14164303428744643 
0.1215917207138678 
0.10208594866953977 
0.04481247830692651 
0.028447208433512318 
0.03634949764773145 
0.0215798286130309 
0.001394585594013652 
0.0013871201490547216 
0.01524509326595682 
0.3338614322094044 
0.3572882840884987 
0.30304866617349796 
0.24214542519573506 
0.13958637768215168 
0.04119911183367931 
0.09875215616580522 
0.2529686828804033 
0.3539230239876402 
0.49854971482884536 
0.5017452574843739 
0.5492863183152285 
0.3164398844755784 
0.39727033361834013 
0.41415846479304713 
0.38705015880805876 
0.34454169761123676 
0.4681422226453596 
0.3444613380602488 
0.47315027760933986 
0.36717444085655576 
0.37297358987592666 
0.27136607070091795 
0.05080021481954157 
0.001805330042149789 
0.1555041928360176 
0.3054759951144025 
0.40810537386281515 
0.5029040714358736 
0.5444232902225816 
0.5447360162805641 
0.5460470860023534 
0.5476598038430663 
0.5016137976024581 
0.3549219252875176 
0.2577725254060195 
0.15162641601976543 
0.007892646580945826 
0.1671764896143837 
0.18739918291053811 
0.309665675136365 
0.3217140868464327 
0.4764180458924081 
0.4247943140104224 
0.37358404376283005 
0.21988606451606413 
0.1257856872709995 
0.015105083513473064 
0.17490375586538762 
0.32118065817110164 
0.4128013960260738 
0.5098135786903839 
0.5436094658800183 
0.5445311167438669 
0.47827336231338824 
0.3739519649133106 
0.47324987040927435 
0.46707312994571515 
0.4070593602159384 
0.46850592252719564 
0.3654452239510137 
0.2710679638818007 
0.22187217757539215 
0.038039754554295445 
0.06517884992646683 
0.09157570843554882 
0.10220243447164329 
0.1396578135675044 
0.19706508883498272 
0.3700554538884763 
0.3696288607370107 
0.28111610383724484 
0.24369758190241977 
0.20612489574839946 
0.03392684240233044 
0.20789961029471 
0.4692955907569087 
0.4246379901510999 
0.35936531962705287 
0.15270211026898195 
0.04800124063141344 
0.06562030304586734 
0.4609340676687026 
0.4566864490384875 
0.4074238294806543 
0.2730040619091718 
0.4482870879409053 
0.18059111872868186 
0.25531985121029727 
0.20475474518752337 
0.18542110996021627 
0.3468084131102155 
0.3171330541318224 
0.40607041522316306 
0.09674561105981458 
0.2299329730039181 
0.2750888472681648 
0.47467101750225094 
0.32295493823332627 
0.33942944335810227 
0.5492654594402501 
0.5032416284107778 
0.3020102781805689 
0.23030177319899045 
0.1301454417676955 
0.017622948424137405 
0.24497419280166455 
0.3398940040009149 
0.45009680600654467 
0.5505875000747483 
0.5515241820933293 
0.35529818109365413 
0.2550116338456684 
0.115642075014449 
0.02325747643281431 
0.13217203338699068 
0.3409895860178661 
0.37577415633098377 
0.5519772022185976 
0.5032881442768502 
0.4437903977059594 
0.3454089893673548 
0.19886440103198044 
0.07827489405891713 
0.31407150083637514 
0.8872669759902054 
0.5738884156163151 
0.3734487985992753 
0.25065372035184685 
0.14823542325157638 
0.13167986553250802 
0.13880765681685517 
0.17314576295769385 
0.41640967425582365 
0.3566855242974746 
0.29607722377021517 
0.15637504684681414 
0.1231316342015742 
0.12523170569406578 
0.14657380036370932 
0.18816077885604898 
0.3159235626729963 
0.27824574811064445 
0.26748738383607384 
0.2141873929373736 
0.15173015371850596 
0.12111824025889559 
0.11881279979148131 
0.13606358517533645 
0.21162805212054436 
0.1748431066101668 
0.14630630572359543 
0.12638302923117084 
0.12205455586493677 
0.14200416981138164 
0.18320433052619461 
0.23647059269105766 
0.2446950878750186 
0.19194273812033474 
0.15903105730224398 
0.12896326327054405 
0.13333204900595974 
0.12201126270850134 
0.15204477694058727 
0.16328919897989747 
0.19922255087378268 
0.23510824013901976 
0.2257287399314449 
0.20726925552450357 
0.19184396882235133 
0.17925119021153338 
0.1700286915534633 
0.17034940094792436 
0.18460613339740586 
0.10846411570745823 
0.07385556226861167 
0.25739353388501096 
0.29117048871744133 
0.14800995685244928 
0.1364795669971989 
0.13616432442030296 
0.13511410032598725 
0.14012759733760297 
0.16295119015572085 
0.1486884940326124 
0.14731112872849852 
0.16211367279910469 
0.48433087967455163 
0.3175123773665599 
0.17801438829126273 
0.15117169425338775 
0.13837911278833553 
0.1285066693768482 
0.12912363941273017 
0.14625573806868697 
0.14099138944406428 
0.32049375466139834 
0.24023097115156625 
0.17800011805234148 
0.14028802905056903 
0.1371270750070816 
0.12211147518855173 
0.1245053765054211 
0.13444968017826062 
0.17618856397136617 
0.13864265546983165 
0.11958766050708436 
0.10898868760064477 
0.12200781653981885 
0.011031918789046732 
0.024473402286171883 
0.049888740811371866 
0.05191567609156869 
0.04857679298264228 
0.08956282704693794 
0.11858469492736731 
0.09918728447778791 
0.11838241900560169 
0.10486120274995903 
0.0680961995419761 
0.08744786559434066 
0.06535510701819136 
0.08722210613403557 
0.19978895771830427 
0.29402853710632887 
0.31064395904118186 
0.1298160255684085 
0.04966507755674481 
0.06988750204735673 
0.14895718409427577 
0.21448447495553158 
0.23373975138841407 
0.2346866760877178 
0.21468176069595707 
0.358705073354266 
0.6096251093836842 
0.1176890071398842 
0.17704822092159353 
0.21503116224910632 
0.23477144820324203 
0.22928830687732416 
0.22360097680354976 
0.28192752530540205 
0.5239517804277675 
0.13667591302487836 
0.15508952919468622 
0.19943914288428383 
0.21909890692413206 
0.23194426808637425 
0.1925968011203902 
0.21406793393059734 
0.24859391850095583 
0.17529363356434827 
0.2063847856555481 
0.21467264766695168 
0.18205339723356062 
0.17413682806806344 
0.20149104560961995 
0.1667432577371784 
0.191872799896085 
0.20882997908670353 
0.20277792977834072 
0.17024445475979305 
0.1422637077411549 
0.20003338174314303 
0.20452412372190099 
0.19333669792480956 
0.1637700299015851 
0.13110824079914035 
0.20236662088165364 
0.17703884978379142 
0.16291729852989476 
0.22388169257995813 
0.19842076710393275 
0.2119935857572683 
0.09257757738106569 
0.06415064912670346 
0.03646873895561009 
0.0909331155351866 
0.18256769276948268 
0.22299596375048344 
0.23477243620261015 
0.2197432663503509 
0.17263066233088178 
0.22950809652987722 
0.5871093489240053 
0.14141573816249794 
0.16497864233530254 
0.17786574698043936 
0.19917394202449476 
0.20437257151563465 
0.2023646629411934 
0.20239717070387922 
0.1931376989983799 
0.1705697745750142 
0.17355691458190456 
0.17872714021378897 
0.14372024453394514 
0.13012013743692502 
0.09136359137846096 
0.07584263582834143 
0.13463783680784605 
0.1980439029634114 
0.04497067178801802 
0.07962058765372398 
0.2388432896127904 
0.13432877874676222 
0.13557934889498094 
0.1384788207892715 
0.1360714390376736 
0.13300916742049615 
0.12069439225154004 
0.10347291332376705 
0.1439276478582254 
0.15234956402497957 
0.21133815130558947 
0.2279575956113949 
0.19334225632773724 
0.16387335776499418 
0.357435837604468 
0.4935577472938345 
0.53887407019412 
0.17228942038790518 
0.19913915826346454 
0.206270833201764 
0.21394503307149523 
0.21472317737004973 
0.19499916628899622 
0.14632943148812333 
0.14400084537176996 
0.1370275062397517 
0.13231130638169633 
0.12823504800677182 
0.14076198490912326 
0.12416662320480505 
0.11317589675635575 
0.09588372113697347 
0.13706841475410128 
0.13660783899259543 
0.12009855680593978 
0.12869910819200286 
0.13169748863277933 
0.134734816363332 
0.13778921328126156 
0.13508484758080178 
0.1357948745263382 
0.1303242393112711 
0.11332283570467197 
0.14605900178773853 
0.13672985963269516 
0.17377529823889257 
0.22513896796585572 
0.21666060947400814 
0.20102840263555288 
0.15331195986866414 
0.21394244681234464 
0.32958193438165945 
0.4755249969883234 
0.512808474170463 
0.22290248441514948 
0.22446425131096434 
0.22907883071059165 
0.1847921910778689 
0.17831796731557015 
0.11880781083213084 
0.11782704294764243 
0.11424500024377192 
0.11912233888178968 
0.11806998436363804 
0.1176152126413697 
0.11875985000499338 
0.10874304240256899 
0.108248693878016 
0.1447897109844988 
0.13838895299659734 
0.1262239993682841 
0.10204161109192618 
0.12123260556863391 
0.12433068453020682 
0.12382437230099584 
0.12781450648634696 
0.13942150057801447 
0.14638808278079898 
0.19666161174865926 
0.20945299354377184 
0.22075277518045378 
0.23027317685176196 
0.21344731783120177 
0.1819563774400541 
0.19908610259545295 
0.34828134598142724 
0.4449824505818987 
0.20799473009153766 
0.23675595567613336 
0.23369978311739045 
0.2148878737750353 
0.18173164045638482 
0.14556180742903066 
0.13662339905114887 
0.13055635455809006 
0.1333058708268807 
0.11901848891251272 
0.11699069007621622 
0.11714407377550966 
0.1275420440830833 
0.1594578382783003 
0.1528611573182536 
0.11609930166865695 
0.10606044949524607 
0.08023033092936598 
0.10378690326118589 
0.11586621466291706 
0.10896663118284072 
0.12929090266298163 
0.22065996923209885 
0.22407632646276793 
0.24342168518530083 
0.2316624618555183 
0.16594704200602256 
0.08754779218857632 
0.10457675014632062 
0.33769535374697146 
0.4629892170500708 
0.22720863055083204 
0.22838527712749593 
0.23262921600941922 
0.22624627998769675 
0.23025491146495508 
0.22001849684877836 
0.1854697356421218 
0.2042461768180375 
0.182707051445712 
0.17297673518835624 
0.1705465599196295 
0.1480396812677848 
0.12623985991462935 
0.15000360994510414 
0.17177705791201198 
0.18524605385540122 
0.16580963077749913 
0.1265925873843607 
0.10297423929197501 
0.05512692498450234 
0.06421880860913769 
0.0486322700233852 
0.10747836859148097 
0.24327331626821028 
0.27177969907895194 
0.24054122202729306 
0.22167611637675283 
0.21647967998721995 
0.22549369060176494 
0.2041473911207532 
0.21999180259522522 
0.23844529379662605 
0.3142133268085187 
0.23542110091023388 
0.22573509908581618 
0.20361944757921194 
0.1840492056714985 
0.15298458356285707 
0.18732663597767296 
0.19919691106050666 
0.17782636590952802 
0.13979015352116753 
0.12780126581704054 
0.11531432141010835 
0.07420567879897937 
0.29575042904426146 
0.23077254561937657 
0.204476780387971 
0.19458336307735385 
0.1783308356134873 
0.17415895574967521 
0.2217588617019075 
0.32143607820536013 
0.24881454171222692 
0.23963325395289325 
0.21836499577716675 
0.2164016920489182 
0.1984742268059689 
0.2542382574453119 
0.33001870877317285 
0.13994133012453575 
0.12545802987602836 
0.16074772864549255 
0.24746766716484586 
0.4208681933223522 
0.26605543655668706 
0.20089248409962648 
0.22882426377751 
0.1005696787444946 
0.09687160376484595 
0.16665491215185121 
0.3048610737885961 
0.4962687983868666 
0.20886219700599581 
0.06847708892037593 
0.1508232389233272 
0.09071179548549896 
0.1468992622727948 
0.3459661878731877 
0.48479476910676 
0.22465677056214692 
0.10966043756479293 
0.08039723468879856 
0.16718306433462218 
0.2923431418761411 
0.40372957719572583 
0.21341668703251293 
0.22331628193037478 
0.12083018651031711 
0.033129437792108515 
0.21218843442325705 
0.13302507091077967 
0.3240888266152223 
0.4303615548954263 
0.37332898365762407 
0.1290271699494155 
0.15517318924353818 
0.30825733098692837 
0.25772452039576377 
0.4496288027221205 
0.4255169055696586 
0.3263870604355015 
0.31070323593307303 
0.17512856973854482 
0.059236659305331875 
0.022445719474177447 
0.13508101042747225 
0.2371473423365029 
0.02684096489979864 
0.17220539407233895 
0.2789921113184896 
0.44822225650011605 
0.3127774637269318 
0.4175848453092967 
0.36915532789827016 
0.3152486835287446 
0.19930672536896227 
0.10661148544025714 
0.12883421319770463 
0.15700650730349466 
0.10857036327350042 
0.3672033183726743 
0.46723139112886164 
0.34215512745089477 
0.27942633329484295 
0.2045024946746372 
0.09558483159238844 
0.1764749502913373 
0.08196392487248896 
0.2408187296387248 
0.2063787935523409 
0.3556446329372058 
0.5038845074995421 
0.34040635587719764 
0.18222576982451483 
0.16965509826310152 
0.009085016036574578 
0.10609871739097358 
0.3596345070949328 
0.35545841361661695 
0.5024253745676627 
0.33197293252655335 
0.2774486422418023 
0.5015593319646232 
0.5012501077184074 
0.3489381856291248 
0.07216353632405009 
0.032440431858527886 
0.15788256099073208 
0.16732795974871026 
0.25728075944053197 
0.2686110202196574 
0.2746014077980432 
0.058740516887224016 
0.13277931259438694 
0.031084447439586986 
0.06691991178642612 
0.36579879019520395 
0.26960755129367125 
0.15077582774761503 
0.03606418419774829 
0.46196707724902086 
0.4030122678648333 
0.3465692691510962 
0.07830569095743989 
0.02170898946489209 
0.30738951807291165 
0.014550615822460384 
0.08347896316071143 
0.1248675579956048 
0.1724737277292786 
0.32783733413270255 
0.29697545836393613 
0.26957949505836215 
0.21654448338836763 
0.1617536376746023 
0.0020561975726148384 
0.020881378103801987 
0.06801227026793401 
0.12302816000823662 
0.1906764656985915 
0.25593000294518825 
0.29788151881917546 
0.3474880934114641 
0.4620286427205922 
0.41814366120792157 
0.425438276390173 
0.4237153580464504 
0.39962914107985414 
0.4103876940386354 
0.3768763127802424 
0.41595740514866536 
0.3738772069362752 
0.31359256713503947 
0.12036218364929678 
0.07834387907431431 
0.07354420828518057 
0.14413186700576971 
0.4665827185303572 
1.0138772092666075 
0.6535265952694979 
0.5714871485244577 
0.5462262568202391 
0.5388284344797368 
0.5454196415854303 
0.5485811817246304 
0.5504615491733239 
0.5519117706661895 
0.5410417868517291 
0.4469946077507222 
0.2600721714379064 
0.21506576161375526 
0.17554282668885937 
0.1687221728679112 
0.17402463521722997 
0.29399220181966773 
0.3525039901334076 
0.5888733149531807 
0.2055619796898462 
0.1754552624382586 
0.08119837783721107 
0.0210695487973147 
0.0044313520606280386 
0.00098206065456955 
0.006290167857277324 
0.014432979518235139 
0.05035950975356121 
0.08762088054358146 
0.08519629865995375 
0.11315749969014686 
0.16773595165230845 
0.21053477190829684 
0.18253138184994347 
0.2532764142178338 
0.3084725578364712 
0.4958589984552809 
0.6485506526561164 
0.6019611276880534 
0.020794873273988476 
0.036336142423932495 
0.03285446945126463 
0.06128319814433535 
0.06178186352027854 
0.08371784856185728 
0.11058264240068094 
0.11088239404116855 
0.12798648775190727 
0.1652785438535206 
0.14181859403755856 
0.20068986542361114 
0.2174379359216188 
0.23217912412038888 
0.2055074768401978 
0.22067320602042284 
0.28544168206033593 
0.23744627128510168 
0.2988043848494377 
0.24822337609502623 
0.25514956027837177 
0.33946722532826107 
0.2632446083893624 
0.29789206509816246 
0.33466509623542257 
0.31514087118035133 
0.28837578814191484 
0.2472226375922448 
0.25970645757843364 
0.23571601749698307 
0.2374014361381639 
0.18887734494128564 
0.137253232335562 
0.111672768081204 
0.089162531141923 
0.08374777121699024 
0.01578417430379896 
0.07551747217327874 
0.006656429073301601 
0.009265818680002584 
0.006354329744322783 
0.37860327700455226 
0.2851338936120808 
0.3327646737379334 
0.42889466686242733 
0.3610798881945912 
0.44090706037946126 
0.3585820537528634 
0.47801924780913735 
0.3713310263142076 
0.47846731926890573 
0.4776932169702386 
0.42603908302332194 
0.4760453343181572 
0.469600257245141 
0.407107164580178 
0.4033428235484385 
0.46764264974034775 
0.46923762377406253 
0.03938948389122464 
0.11430639130979788 
0.167131996653027 
0.20802201183795238 
0.23135731104871668 
0.2743484991450155 
0.4681915687290538 
0.4652322485421104 
0.3829462267344673 
0.12060193923998841 
0.42284888393563846 
0.454829455996772 
0.45344026003072535 
0.38520572004920983 
0.22047468890335212 
0.37924943613427337 
0.456592088360915 
0.3929190298807138 
0.2546367965377788 
0.3361300379993949 
0.2629358804329195 
0.21637492032242345 
0.03635769153845805 
0.09738036356906923 
0.10861457997479032 
0.06467795398526018 
0.11956177281833115 
0.3201324094321844 
0.274062555313187 
0.24610093092694107 
0.18857756715703655 
0.13824474808566398 
0.14167840259467337 
0.15450572817576658 
0.1895001039790384 
0.22965478242410584 
0.2825249637386614 
0.0669937713496903 
0.3977382550566723 
0.4170720957745031 
0.14791342901384674 
0.1619686445068417 
0.08405783395471475 
0.06347707753629915 
0.46488846241116666 
0.20849865442000315 
0.42174518059907445 
0.20498763237222256 
0.5482592671675317 
0.3924969145405227 
0.2798026574875727 
0.1157216551685135 
0.09649685743725614 
0.03462175388351245 
0.0670593269109799 
0.49516438709346794 
0.48619147075126684 
0.47107253926697706 
0.22844479807430842 
0.2224881452852885 
0.5571771864085228 
0.1390136777720976 
0.07177504501273083 
0.46376167096082616 
0.5121287552636016 
0.0726136617825568 
0.1277120878048998 
0.4585281702430081 
0.5056486039729262 
0.2013851554305874 
0.08980594035379712 
0.09818750065081555 
0.45455179780131055 
0.45600731141767203 
0.17184132767818366 
0.18244786222666123 
0.052839657743687096 
0.2165745564089065 
0.16764465923098684 
0.135535564285796 
0.30206985075993015 
0.2843705427665503 
0.4637993066374807 
0.18744689515414148 
0.10380078155280273 
0.10864643663904863 
0.454201803963981 
0.15297988653904457 
0.15911217746745412 
0.12444647414866879 
0.4071251547331255 
0.4557744857212117 
0.13982772328963172 
0.14640500309444082 
0.3924383749511621 
0.3723716884603823 
0.46502868424088994 
0.2565174948935489 
0.15146713939568412 
0.28785536711945103 
0.3173268010456268 
0.06841207376468506 
0.10706535699142194 
0.40046239133423145 
0.3115723793712553 
0.07333171968762515 
0.06110135957660843 
0.23173061919978216 
0.06062682719520855 
0.07071540422034217 
0.08650417026757984 
0.22912630648508087 
0.23426622777396372 
0.3218081982089519 
0.3221619809057555 
0.39983063832510984 
0.4561680872758285 
0.40904417232001733 
0.1327516722729367 
0.036773343597053185 
0.048550545305801496 
0.2118115812016228 
0.2015268556141032 
0.30126476984583783 
0.2842495864418485 
0.10822527815980201 
0.12165458093214462 
0.3589903222897884 
0.42056080115424516 
0.2619886913198218 
0.1039517051878879 
0.34266795474564055 
0.30324518445194293 
0.1742570133648743 
0.1813305084617574 
0.12568005264701435 
0.39211037836038326 
0.38990211041890876 
0.19355695553699098 
0.30927208236407355 
0.22975495418288708 
0.07502399817606188 
0.20531748625152968 
0.22858531720856304 
0.2733307678546413 
0.36198382325050815 
0.1752900378072016 
0.07078877873591323 
0.0489074965653887 
0.061375717788280784 
0.15998865394934814 
0.3153196012926871 
0.08227168033511266 
0.10546181495357011 
0.4056924891788317 
0.1361261424449801 
0.1403862477289522 
0.4528692419498648 
0.29922064368727025 
0.2840855943928925 
0.22490904486077976 
0.26024059725751797 
0.057343741520267714 
0.24513252968020752 
0.05968056423289524 
0.12075926751693097 
0.2221706721185131 
0.15733418621589598 
0.1039150806782717 
0.3528178727658073 
0.33378726192188557 
0.40553005228650285 
0.06713457387015295 
0.4064467990480427 
0.12672445129414853 
0.09754166554514555 
0.10954146657258056 
0.3631256552753723 
0.4101891869566267 
0.16757529420653858 
0.1387258742516398 
0.15874233874771837 
0.37805827077506665 
0.2749511405096668 
0.1837095506868041 
0.2555504396412479 
0.11419618831855434 
0.2878001951793411 
0.27202137883639493 
0.16607684662223088 
0.36779271338883895 
0.41564853592074097 
0.31902919434964666 
0.20696838561240297 
0.016223544104822227 
0.13334074235256924 
0.11077238852595299 
0.23652780239537965 
0.09313945608055184 
0.2679986255240041 
0.1286177401452057 
0.16465036192899116 
0.22550171174112293 
0.24433974997311558 
0.16755655656060617 
0.3320857014168215 
0.29833067689023707 
0.45649941060587307 
0.4095427013333308 
0.23493179637041728 
0.25218097072653006 
0.07116860781476775 
0.21954566752334193 
0.10626452739284446 
0.44936148590012426 
0.3930492041643649 
0.5476563455892924 
0.5513273740690993 
0.4100648525981677 
0.2925471286894975 
0.18986901156356076 
0.293184620380197 
0.2912618653253885 
0.4540739148159023 
0.15519598151321784 
0.4551404412931038 
0.08072903384217898 
0.1621678582976216 
0.27891388305062964 
0.11818964663374457 
0.19010761052428105 
0.26857807046696897 
0.27057165567502095 
0.21110989936540595 
0.19907219401283038 
0.25807544938520954 
0.12323089045029965 
0.10470349476180409 
0.07930322418122834 
0.1300766466209072 
0.07641477344235126 
0.14443370112519155 
0.14905290355736076 
0.18733746520178005 
0.23107931167284235 
0.23545313172951804 
0.09369506710229865 
0.08575378853682446 
0.3595134303673718 
0.1022237366227614 
0.0559553147403992 
0.3171466150081893 
0.16627477119179773 
0.41838933280339774 
0.2203143116568351 
0.25394839399271174 
0.13373380806512605 
0.32551718813341207 
0.3231190105732218 
0.2323281563490089 
0.24676491319195953 
0.14021079369609307 
0.17497483087459106 
0.29531930970347986 
0.26749847460633447 
0.15639499911546212 
0.3835242945748891 
0.19834569350245435 
0.10937532793584967 
0.31824065796660156 
0.2530192082155951 
0.3745858474279897 
0.3216018145300034 
0.2782640519423573 
0.29895991234235225 
0.39275825096097444 
0.42287710615640317 
0.2744756451212818 
0.20607815585058625 
0.41690495835718905 
0.14971529734716038 
0.28592855494871416 
0.2419402083582568 
0.252142413685403 
0.2640037516679035 
0.08206621720477425 
0.2412416746714852 
0.23940365613294132 
0.1991453311407506 
0.34673184227624004 
0.40391619499766035 
0.07828502464025971 
0.4382741116955119 
0.22196304746604403 
0.15531135812111357 
0.22731453758646497 
0.18650419817945324 
0.2887874262976077 
0.11923365821296494 
0.185806895246743 
0.15271848094615714 
0.14183509632637542 
0.2460027235953409 
0.15277954510444497 
0.24452649482653677 
0.15449390274099076 
0.21476419780203543 
0.23006890850671075 
0.08159941020682464 
0.08306241680108725 
0.11635681361737302 
0.1181728796376154 
0.22248609479695028 
0.19237508850001575 
0.2823526864072153 
0.259606977585596 
0.21406999547101468 
0.007068847949748755 
0.038176849006434636 
0.07876667061230187 
0.20693751333371155 
0.20918417415128618 
0.17096738298813946 
0.1642464177760069 
0.11316481293670873 
0.10342051329954269 
0.28611565318091287 
0.2899556240598789 
0.12291500560601157 
0.37621096013492905 
0.3178007474175201 
0.3195593216131152 
0.32323006536436066 
0.32379760787085365 
0.37127894269859085 
0.1404892713818847 
0.09941509254685463 
0.09530322875983502 
0.0785616314476644 
0.10545096286265816 
0.1854470632273192 
0.24026572376798114 
0.13995703693344533 
0.15289683562935538 
0.24996315861181656 
0.10481574186616008 
0.19667298338970643 
0.18601467213379405 
0.31013139513446464 
0.2949060861113831 
0.2229949131086947 
0.21523722901999479 
0.34163580879668337 
0.11421248797420788 
0.254761009328231 
0.2600711902106617 
0.14144305672885862 
0.19115281395748995 
0.19877112608732456 
0.09775311451519664 
0.11144574020701623 
0.17243235248804362 
0.19292346316568168 
0.24627385297086513 
0.1964638949670565 
0.26418425796095757 
0.23806905896163053 
0.019905210714528703 
0.18419301052058704 
0.27051214337515445 
0.07393926865544428 
0.24762543144451757 
0.189016136904809 
0.20552870491436834 
0.1693447837695353 
0.2728202986760039 
0.18513732500762944 
0.17574184453294148 
0.17772999084614388 
0.1652030599218807 
0.08559167099684666 
0.12740994952198995 
0.14396557322506734 
0.14332442649537047 
0.21082015037414262 
0.23487144918613712 
0.18869471161385898 
0.1943026908660671 
0.13244458550254734 
0.22690911055023044 
0.22832638075342993 
0.1273990439525296 
0.06793458507749352 
0.41210167781601065 
0.11246545730929913 
0.11659508860497994 
0.1192883662228529 
0.10851629678259328 
0.12540429545357484 
0.14168856216871978 
0.2983762907748505 
0.2520075199199173 
0.09532036542783871 
0.2653288191684067 
0.31607922302546965 
0.10914823219735977 
0.11166403491693831 
0.10265721121608562 
0.1908867244947038 
0.3242696383339288 
0.30645378108570037 
0.17007329684322334 
0.21912519335880828 
0.24487702273415243 
0.1402483010173209 
0.23954067239874746 
0.2784311165143233 
0.13598405671494315 
0.14584781150919784 
0.18443260714233173 
0.22963697368504357 
0.18025670734236313 
0.23645271929349532 
0.14974392052338664 
0.15999622208798647 
0.2684693651554344 
0.16817769487749834 
0.3497202714972589 
0.3983192146039638 
0.46615429784449364 
0.35396769884783075 
0.4098988908426927 
0.29132030694789723 
0.23277195991286548 
0.13688537063911743 
0.1649928249165028 
0.19902173515766944 
0.1974526805567653 
0.2966006977452783 
0.23934682909912022 
0.2127304016993835 
0.2063846111403261 
0.18287041333960347 
0.15903341434487323 
0.16784656580662635 
0.18776403741499398 
0.27988662374340323 
0.217640000614995 
0.09874964741610029 
0.15768980890298914 
0.09111176515549489 
0.16138831025624178 
0.20003861185902128 
0.23052349637856104 
0.28271643650718387 
0.15880601629287253 
0.35364188658380735 
0.19956020793642734 
0.3462526372182072 
0.3396872320487902 
0.20735824171143116 
0.1963738913357939 
0.13373114295842978 
0.16410393536310094 
0.2668306833769901 
0.41681277319736876 
0.24132118199652158 
0.15945961324789992 
0.19101536733321725 
0.1317828352936705 
0.14270864511057535 
0.16358084363268655 
0.08975265509962504 
0.16195416537589824 
0.09278426692867704 
0.07687562780316344 
0.21884850651921484 
0.1711666615214045 
0.16297495046069588 
0.20365407629710783 
0.1466503258222264 
0.20724158964241374 
0.28174602765990614 
0.16804955902050037 
0.11861674572146647 
0.09882501386020409 
0.10533693297530082 
0.13797107336285575 
0.1303183734509241 
0.19601029106643994 
0.22494325476066174 
0.22704310019806806 
0.44419982268085406 
0.3226605485398519 
0.24107124347579767 
0.192895612230537 
0.13272897597542696 
0.1709929743036731 
0.29635045205818916 
0.19468050716153806 
0.16771562426184813 
0.11629458651218999 
0.1357203180815131 
0.27863906695888185 
0.11024492768199641 
0.12603372225305176 
0.24402144007331722 
0.14368643896690467 
0.20004542213675186 
0.20883759878068 
0.22092357424829365 
0.17818402620866702 
0.18735929390572897 
0.1362316220477442 
0.1282253237908847 
0.1429457314264327 
0.2175599402710551 
0.19410330266158765 
0.20346112178691103 
0.22874943384539145 
0.22256346469798677 
0.00525981082606953 
0.0927807998269692 
0.10127506043740528 
0.10253150492035357 
0.24750085559659635 
0.22637884468071232 
0.16963291234478442 
0.2908795320683995 
0.13084294526142387 
0.17484018123436001 
0.1286954224265369 
0.13321006616038975 
0.09208002039983568 
0.11256371946959123 
0.24112663824667624 
0.21819646409974422 
0.18679330789625176 
0.1520001422583754 
0.17857208293807675 
0.14725747128477865 
0.23707462864724863 
0.18441228124937678 
0.15772792354163565 
0.1222758781153715 
0.10376824986516922 
0.13335578778207513 
0.13036892226498598 
0.22652081013965644 
0.3832373314184929 
0.16674704065947313 
0.21900912926758 
0.15189266756078876 
0.17420947326554287 
0.14134696243063274 
0.2008885237316377 
0.1426193938810174 
0.13043940692628503 
0.13208722694634203 
0.22545229776505113 
0.21605421527907887 
0.20937597994748786 
0.19744208596835863 
0.20188481091492508 
0.2791841166921398 
0.29212356478994794 
0.1424933479662126 
0.15357757312195847 
0.2119027973392206 
0.19451938054317724 
0.28288370575532507 
0.1869521846429652 
0.21111009941114436 
0.1959932957770742 
0.18237695732920844 
0.13633998949704101 
0.22555743999988906 
0.22045737717099392 
0.19248365576419943 
0.16315502454541608 
0.10091211651453465 
0.1338031163746841 
0.13136832638248688 
0.11494847676835998 
0.2276891121745201 
0.05819095651430468 
0.1491268689499296 
0.1646160471338293 
0.05105982207109113 
0.14101653695999689 
0.2016749745476484 
0.20431513734578446 
0.14603977327988862 
0.1504811888236901 
0.16186739271618228 
0.27115118214407363 
0.17411874748490302 
0.19217376241238038 
0.22209776998942565 
0.13787037401336424 
0.18019056247767348 
0.23754352068861295 
0.20133749559217312 
0.13789228153771185 
0.15481987997837132 
0.20418540615798367 
0.20282782192670082 
0.22668820843965556 
0.16652136884426685 
0.13486576798657643 
0.15857186773632234 
0.13000609644007646 
0.20268691313396345 
0.08615233213374435 
0.039026452694817186 
0.09987280875789609 
0.23357411401181943 
0.1820583453513258 
0.21031196045892833 
0.08772727061803622 
0.15259114184311265 
0.2467578235726356 
0.1723022638303467 
0.13670425276229367 
0.13623665931806322 
0.12382036703727077 
0.16807754620441914 
0.21993009131223376 
0.27002032504640094 
0.14765166330964044 
0.14241473003766428 
0.203440294122751 
0.20098765179192646 
0.22101542085032289 
0.23050756836689834 
0.22960504722171998 
0.2131720182774666 
0.20929092796224763 
0.21729953493487575 
0.13663897514742296 
0.1323494943532107 
0.06518739601426285 
0.13473684123237592 
0.1298418148338288 
0.17861075466353588 
0.10318733547075061 
0.08641431399850369 
0.13628938026132997 
0.14509443648258388 
0.1845481642738028 
0.1324325425651976 
0.2093233894400495 
0.1948313348784948 
0.15943430887544555 
0.1851331888293476 
0.1660097920031266 
0.17391841533807909 
0.15371140397704264 
0.12876580515162572 
0.1301507026082685 
0.12027723076628519 
0.1112133471955014 
0.1493613331277186 
0.18461310417782323 
0.1178137649748107 
0.06821408272219444 
0.23312113400511847 
0.1621731118016265 
0.0858751665641776 
0.11255771289952188 
0.10818396885332704 
0.1365411831689711 
0.1338831842540459 
0.13186981806313675 
0.20962361142551064 
0.1335780581054788 
0.10864701216244783 
0.12368861378478635 
0.2307205769980122 
0.22067939352100596 
0.1893934936104115 
0.1583550228104941 
0.13408682547950637 
0.1942641189580113 
0.22306954280253438 
0.15000680890997745 
0.13570009776480185 
0.1012706180058121 
0.21403963991084365 
0.20889952560533082 
0.22690773791097038 
0.23207197258032308 
0.20099505140352034 
0.18560923518588165 
0.186503685585095 
0.10295538016708745 
0.12666576587904216 
0.12300409776925686 
0.04741487255355551 
0.08341559919264335 
0.17408958811130654 
0.05482661356429041 
0.1584893476848278 
0.2741467622938325 
0.23567307094741485 
0.16531227614388042 
0.1399078346370702 
0.10981533689895984 
0.12069839218107081 
0.12567676046314682 
0.11880562890703089 
0.12833079237038997 
0.06128257709040838 
0.12456181776284393 
0.22379911873218697 
0.12747631822728936 
0.12981407573769785 
0.19932111511580564 
0.12050921958143872 
0.19002686002713728 
0.1788898657471971 
0.10937572193535151 
0.03602322121598162 
0.07466250248561902 
0.012625168909433378 
0.23074722120135455 
0.11810659680032973 
0.09342658068838393 
0.1216001787160258 
0.12791579650228646 
0.14582917544556184 
0.16959115577174752 
0.16907111272817324 
0.09093004026336221 
0.1266643996650646 
0.13219561951239156 
0.1115225044921411 
0.07344293591591798 
0.22233962046267883 
0.22592969469906432 
0.2334990464193211 
0.23304988860708292 
0.11909034939172447 
0.04732038354820433 
0.11862535089489933 
0.21833480882855064 
0.1372160143258437 
0.12506139268140554 
0.11702439992111073 
0.14781793168529278 
0.1170862105456138 
0.058235358777289775 
0.12216340822363998 
0.1582356428349342 
0.1710485004696694 
0.2051891497757173 
0.12126246952895178 
0.12171477966619379 
0.023488636896873128 
0.04899464972900332 
0.12484309767353463 
0.12504519870552314 
0.056268520727427 
0.10006715407048553 
0.11816297522132088 
0.13038165414427036 
0.10563246618385652 
0.12050935414776148 
0.1286532334162152 
0.12852660985391204 
0.1342869803869241 
0.19308413573649488 
0.20099007844409963 
0.17395852823995445 
0.1400560085447041 
0.13478743893839043 
0.11908472238798917 
0.12393032091293682 
0.20829641451831268 
0.22999046038748266 
0.20867662736884254 
0.1318897159438259 
0.136167774589579 
0.22598194294849808 
0.21657214809860673 
0.23520662338102372 
0.05838468284006824 
0.026674430792944792 
0.12353151326015963 
0.16358709717597958 
0.13962793254254063 
0.12164336750108959 
0.2105741619478992 
0.031383703195873344 
0.11876740396679264 
0.1184282630974625 
0.1049369312373261 
0.11350545297833908 
0.13106779396397758 
0.14093625876008725 
0.23139357789027637 
0.017720815627389256 
0.1103595303102045 
0.11614356825419427 
0.06603947237011204 
0.09433754863222356 
0.12124851255853768 
0.119172176591834 
0.13122050863706558 
0.1174421396933723 
0.15287696868804834 
0.13368392615113622 
0.13657957353173095 
0.01654822619586025 
0.1344883489696763 
0.19728564922708502 
0.15842855682311116 
0.06323595058509729 
0.1864724916610283 
0.009830270060659951 
0.12551181982050505 
0.2041965653642343 
0.22064838569279385 
0.08417259644700475 
0.1356534336878147 
0.21558462303444942 
0.21314843527002802 
0.23303587786171823 
0.14429508915290568 
0.12106878229602519 
0.10283568768717541 
0.10233202129981382 
0.11853459636474215 
0.09985166046439174 
0.11459300155549981 
0.11147866935864972 
0.11787667112586292 
0.1377211384402016 
0.08718350295813396 
0.05941274655134421 
0.23205181708459982 
0.21936870714527812 
0.13236223207424846 
0.1098286429930193 
0.09007228675529962 
0.13225715244658734 
0.12744439358346332 
0.12674150301862994 
0.13278054155275118 
0.11534589318688268 
0.1757997773081138 
0.19311099943766585 
0.047540599619169635 
0.11655094307028836 
0.07085377804987528 
0.006982320768922685 
0.11429843928173877 
0.19064342406254847 
0.16495575916578203 
0.060000638738210314 
0.11427357055738632 
0.21911911430052033 
0.19130442395347302 
0.05726593818327866 
0.1865123204540593 
0.02631470874335989 
0.15941608673307078 
0.14468840544444392 
0.05142124299875986 
0.11226204793446216 
0.12752711440893738 
0.17057964913701693 
0.14421388233053892 
0.20536188603821007 
0.034381531131911225 
0.1954402869407225 
0.04180537094503913 
0.12249780117212422 
0.11848900300759502 
0.11842421451900338 
0.15257263338466423 
0.18258264944783542 
0.04023998630925803 
0.11370309143469852 
0.12256342629846419 
0.12062913819547094 
0.07785870115684401 
0.20140067581105467 
0.12041647012573103 
0.11760110112430865 
0.0644892983283688 
0.11776104306614911 
0.14630507789738087 
0.2083218099600979 
0.1321766919530591 
0.2375405059075285 
0.21276604892469728 
0.13371628147530015 
0.1360011756164212 
0.13090247506284414 
0.051998587602126264 
0.23075167123701573 
0.2290991870871497 
0.23449992631654934 
0.12058284268735905 
0.1192727528745459 
0.21114175242984828 
0.18223289897555556 
0.12651025744743066 
0.12782233833849596 
0.12619494056364525 
0.1720153832830636 
0.05138524989425165 
0.12594272989793726 
0.2356435163076589 
0.14095711968648486 
0.1474078830751318 
0.06511099216668984 
0.18984132917870886 
0.19845671096346457 
0.025170003363658367 
0.2125952077886467 
0.07188705549902798 
0.11813821641676304 
0.1092672966387826 
0.23009935654219874 
0.23660923726104535 
0.23268522858305699 
0.20347577036968756 
0.007048567951486875 
0.04694506790974726 
0.13872710646288516 
0.07126448735801338 
0.0652583452744993 
0.20819934262704926 
0.19175289793265032 
0.2247086899963246 
0.20505913561578978 
0.0136122794751085 
0.05932367519985202 
0.2214482663881731 
0.17985296854197 
0.19545004470029054 
0.2251922279638897 
0.2260381505910622 
0.22442225222260487 
0.22813013721973946 
0.23258923141095697 
0.2367825273776909 
0.17386232375206415 
0.19202548372122027 
0.26551262580796064 
0.18007720523263304 
0.014218454373189023 
0.05178138070900904 
0.22839126152725547 
0.21877572471758225 
0.20200352359199328 
0.22680534083607168 
0.22446490856048887 
0.2361279157266956 
0.22944163247329655 
0.2375529441191891 
0.21616372352357258 
0.2324142804084151 
0.21195100141106846 
0.2028317513774788 
0.21961556648330263 
0.2330315130853241 
0.16366950964134883 
0.23350585109567296 
0.23700629395864004 
0.22295824349456445 
0.22665118999888484 
0.22278303259960827 
0.23339414033617778 
0.22649256073443244 
0.22806307281327667 
0.22448106488823427 
0.2234229498377602 
0.08143761539653663 
0.05103713538700404 
0.0632406913621076 
0.11709785442276022 
0.10294055354490392 
0.26555559447155697 
0.5629076079883513 
0.20210157211496158 
0.4223117144253651 
0.08960073049498216 
0.5042014322151566 
0.5234626445934263 
0.41623304538966466 
0.08915324933816024 
0.09348780306242839 
0.3975852732849748 
0.14483912263694054 
0.059897898890822185 
0.057298588767190704 
0.2207553496364529 
0.2336426159867796 
0.18657603393319588 
0.20342867330455125 
0.2597890606880114 
0.12299607066434427 
0.24528984110711968 
0.13782811400087044 
0.08674603732882238 
0.18063690432841226 
0.3239533569779753 
0.3230725217745489 
0.15232716389819662 
0.11473677762375699 
0.2710900088979258 
0.2724836150919517 
0.25645449576259977 
0.2687313924173885 
0.26322810458052787 
0.21378515766845288 
0.2084882683133724 
0.22435241294299052 
0.21789887369973845 
0.08096068600804925 
0.15145688251625558 
0.2015093207123481 
0.16512641157889288 
0.1298265844026047 
0.19161873276243824 
0.10595957797438649 
0.1985955062097488 
0.3048217897885067 
0.25307704668232356 
0.1666435858194355 
0.17386868960907212 
0.22105595151689522 
0.21599697584276492 
0.23191615159420828 
0.22009818770894554 
0.18717052139107737 
0.1407856341005343 
0.14102179689480257 
0.14428609465248837 
0.10654521568259592 
0.12917079952432675 
0.1096795221348251 
0.12047940305182343 
0.20076849699868016 
0.0873381124822603 
0.09124294633113617 
0.20636827344369213 
0.19288076622979416 
0.12800335060904128 
0.09403194537465927 
0.09452888068467101 
0.15075267409479065 
0.13400406866824946 
0.23259019524268473 
0.10477593584869394 
0.10380291599968172 
0.13587802329251178 
0.15422159566221347 
0.21549704312336898 
0.10641191588730373 
0.1832570401936992 
0.22151492041132156 
0.20730646733617664 
0.2260089480514722 
0.20000188200041263 
0.1339698179084394 
0.158336301993518 
0.21833018439289203 
0.22602735032177423 
0.13542940628722502 
0.13399306342465278 
0.13005101495629787 
0.210212904864351 
0.15396377907109154 
0.149385247868391 
0.13348751256526953 
0.12942157884311953 
0.12728874570028323 
0.12505736810631995 
0.2276443702304557 
0.12401931272940453 
0.03741185388522528 
0.1522315387280414 
0.14539324552177382 
0.12302979509439811 
0.11880194446507109 
0.12099857161743001 
0.13693065950749572 
0.09344321360688568 
0.04776084982827104 
0.012077304520443187 
0.12115747562665037 
0.23092546588597412 
0.18157170621678928 
0.18444091676395225 
0.22554333524301984 
0.10873841611869414 
0.07922316111906465 
0.18866755693502715 
0.23524483713538713 
0.032746114568433876 
0.10271794172534873 
0.07856763956836028 
0.15429540680655024 
0.10728225144149196 
0.12475761831400298 
0.0017408061864447985 
0.0008275692045294297 
0.024888970036820206 
0.04907380854479167 
0.09327841814702442 
0.10267032811193152 
0.12222179345917084 
0.14213912890751548 
0.15364338831814178 
0.15564618446079373 
0.20942473739160536 
0.22271035730070823 
0.22634526035169492 
0.23309974863440072 
0.2623459219731196 
0.23120285817015532 
0.21533128062418605 
0.2078769510975365 
0.18085780227077705 
0.16239069545182944 
0.1495317994410276 
0.09829989695544869 
0.03717673980813712 
0.034242585412748716 
0.028031911085145165 
0.044741825867152744 
0.06461040856676631 
0.12221853004194037 
0.14024795724420447 
0.22457189233342675 
0.2334915679965697 
0.2815424911701961 
0.2774888080546703 
0.25315084899581963 
0.16589108785872106 
0.07103148524447031 
0.09601871767337457 
0.22186373620396646 
0.41569090481646026 
0.4985106540574758 
0.49691322516801517 
0.4974089283245463 
0.4984392399542718 
0.5401152055944188 
0.5418884535161749 
0.5489625094331274 
0.555749768190605 
0.600681301528609 
0.8014670019419262 
0.47243913585440894 
0.40761946418826 
0.2085142187358635 
0.17280240204827474 
0.1357553014457482 
0.15224802258714917 
0.1661119838272173 
0.1922141336622062 
0.25716277900773066 
0.00451176130949656 
0.024545665170337603 
0.011113896083243693 
0.04584681339297851 
0.07173031388732601 
0.07749905853240283 
0.09693840380881327 
0.09445784705589494 
0.14636067125933494 
0.15545932553487637 
0.18294664622448584 
0.18617491470583816 
0.21112835483389744 
0.2596579756649941 
0.27267536620300653 
0.24906247805247567 
0.2640923865543643 
0.24779293435044614 
0.33504083280776253 
0.24702412515167507 
0.33959208301465016 
0.26088514557886294 
0.34132065875784934 
0.3269202783238718 
0.2812200569406909 
0.3001193457550033 
0.25460067770086675 
0.28146115588637 
0.21376461665924867 
0.18113158005992078 
0.1631778305620451 
0.14123726943018527 
0.12109725727052628 
0.10152350706173018 
0.04451093719786671 
0.02820243167574351 
0.03607669168715536 
0.021463384993423706 
0.0011560163182253117 
0.0011471090621681644 
0.015081829929706842 
0.3340190139010806 
0.357484400353493 
0.3031179831917121 
0.24216290154089923 
0.139505902060529 
0.04121391748212935 
0.0986425897613375 
0.25281098528943446 
0.3539255024805334 
0.498534989615302 
0.5018102631117236 
0.5492373247006438 
0.3165836154904172 
0.3975005659157574 
0.4143991320069974 
0.3873187220949901 
0.3447901585632597 
0.4683352323660737 
0.34468264313275265 
0.4732866462215795 
0.36733195937247487 
0.3730981888150896 
0.27134507623599413 
0.05094544420970868 
0.0017949403373896905 
0.15546402678573387 
0.3053105386401104 
0.40801596716657634 
0.5038241190547377 
0.5473232920992761 
0.5459323428453128 
0.5463504285603972 
0.5476369988760259 
0.5015473675465368 
0.3547972839573145 
0.257767822296782 
0.1516583914545199 
0.007793773248695597 
0.16724078854093716 
0.18751958213461267 
0.309770369387572 
0.32182660811442687 
0.47653374098275564 
0.42491497905097286 
0.3736483169988593 
0.21971961394728828 
0.12583920769247847 
0.015264808318169195 
0.1748017020178117 
0.32106078529258936 
0.41346562109264 
0.5143002214911122 
0.5466337901740691 
0.5497551418564657 
0.47833132263940165 
0.3740346985438988 
0.47329649877586355 
0.4671175213443769 
0.40705282525252323 
0.46848461967071847 
0.3654868573483978 
0.2710080285683424 
0.22230693190820588 
0.03705925820544872 
0.061817578035338994 
0.0868893960318415 
0.09794267361064761 
0.13202727786848345 
0.18666050130411088 
0.37404786999508727 
0.37119442970516686 
0.2814997613380032 
0.2436962476344267 
0.20611939089257703 
0.033853457862670126 
0.20781091061550797 
0.4692282699711906 
0.4246021110333205 
0.360698479233819 
0.15260242032258708 
0.0450384375953902 
0.06287223578720019 
0.461996514815638 
0.45908155613094703 
0.40936482353335274 
0.2639996413823177 
0.4386672092440219 
0.17167801214483128 
0.2457021615827975 
0.19578250021498994 
0.18438931504683745 
0.3501747804972612 
0.3177482795917972 
0.4080911109286263 
0.09165068962289799 
0.220742853804914 
0.26349810516854044 
0.4764046013769943 
0.31046271772857936 
0.3284554302410076 
0.5491757931792758 
0.5032276124360644 
0.30202596183302893 
0.2301875829109425 
0.13009654387497444 
0.01769112506903729 
0.24498753318053815 
0.34012951100182554 
0.45033308186759646 
0.5505201002316947 
0.5514908173245482 
0.3552149060506275 
0.25491417537841315 
0.11560634092318532 
0.023317916534524502 
0.1322457915116937 
0.34120208267235375 
0.3760719268045471 
0.5519613799826878 
0.5032952501690354 
0.4437968771307377 
0.34523447424267917 
0.19872581093510094 
0.07832227952919672 
0.3142064977974583 
0.8883501779347348 
0.585339567791836 
0.37228781916574666 
0.24950191538008007 
0.14730281312560942 
0.1314195515334956 
0.1386626495802883 
0.17320759791179874 
0.42263922352428024 
0.35411761368915595 
0.2933157522427946 
0.15538607661358092 
0.12259356746487728 
0.12503201202720898 
0.14655475073701826 
0.1881960129826696 
0.31308173330293554 
0.2764881776893296 
0.2658113463202613 
0.21338049996862027 
0.15116734633901152 
0.12067123022161645 
0.11855149461080827 
0.1359311593394025 
0.21126806072042326 
0.17452189441200067 
0.14578813627508871 
0.1259882718007308 
0.121793096556083 
0.14184203596062744 
0.18312812421632263 
0.23658441776949488 
0.24432441199736274 
0.19176808209295096 
0.15875163529484673 
0.1287114711854451 
0.13293004120444643 
0.12170455787604907 
0.1518866301173355 
0.16315028039546006 
0.19919011631741051 
0.23487300792794463 
0.22556941541498632 
0.2071657135665047 
0.1917404917907674 
0.17914522306057354 
0.1699399839286225 
0.17052847098452673 
0.18617234490216128 
0.11246107397841079 
0.0812656847566771 
0.23969745576431203 
0.27412262085241956 
0.14585591217404995 
0.13571417729969248 
0.13564348458227166 
0.13465066900102415 
0.13975469642490376 
0.16271060500703693 
0.14838895621821513 
0.14704584989207103 
0.16190244552704544 
0.4737239152547018 
0.31466357765601877 
0.17620978761844602 
0.15001912059053754 
0.13769538897720798 
0.1279351672174618 
0.12863785394486776 
0.14604422136142184 
0.14061328799795916 
0.3216696405232343 
0.2394601624249608 
0.17641929930816794 
0.1394101550638981 
0.136465943616739 
0.12163597491529946 
0.12421238789720383 
0.13398654508277252 
0.17576816424844668 
0.1376379607893618 
0.11893865793543358 
0.1084426297280986 
0.12146768231226321 
0.010886964749955062 
0.0242656568026587 
0.049520368061941336 
0.05137477402305042 
0.04822175420273648 
0.08907834116662072 
0.1180371768038248 
0.09864662509003701 
0.11765747158253287 
0.10407094774785536 
0.06774222182493266 
0.08670532660684421 
0.06481102622180222 
0.08696357970292631 
0.1996770595893848 
0.2944182717478278 
0.3108496025498017 
0.12955002803245833 
0.04926730479092595 
0.06945682627363882 
0.1481769805301514 
0.21363062319347415 
0.2328512763712658 
0.23360309632664397 
0.2133344807780224 
0.36433655924624064 
0.5967684942717256 
0.1169971350714813 
0.1762960564299698 
0.21415984592156928 
0.23377267920124187 
0.22814029877308076 
0.22208729081074027 
0.28285637573245054 
0.5300783191707367 
0.1359182403427929 
0.154305118396745 
0.1986217463503608 
0.2182830655286615 
0.23094832925916253 
0.19147240499586715 
0.2127192953685005 
0.24772711696724184 
0.1745354377217376 
0.20562569884061296 
0.21382856080301907 
0.18121577182743537 
0.1730758923916506 
0.20022074501744555 
0.16620639793529182 
0.19120948661293086 
0.2081745352341255 
0.20206937353662222 
0.16937671963440934 
0.14154228605118557 
0.19965256131522213 
0.20388218145870463 
0.19294504735152102 
0.1633705739734274 
0.13060001788329118 
0.20214521483501238 
0.1768528014814186 
0.1626313660399975 
0.22392089613667243 
0.19847020314903882 
0.21212022800111288 
0.09204009263431066 
0.06373580027176518 
0.03623754647403246 
0.09025065965018471 
0.18171159806559542 
0.22215421922154774 
0.2338276948812221 
0.2186224464524085 
0.17215478195626022 
0.231086986338576 
0.5949556560257434 
0.14074544096504107 
0.16424358501583586 
0.17705852415525233 
0.1984528296976558 
0.20380014171592034 
0.20202726860663406 
0.20229088553293414 
0.1932619277847023 
0.17059755278421107 
0.17356735518200486 
0.17871502697132896 
0.1434289283865463 
0.1297524448093468 
0.09136107029335061 
0.07656199072213546 
0.13561284332165816 
0.20116286206517894 
0.048594201326497756 
0.08640599079561627 
0.24319263015181075 
0.13395083532677776 
0.13526679398474106 
0.13809292238897006 
0.13559361544582213 
0.1324483431687264 
0.12010468858024881 
0.10287997787776304 
0.1431148049668673 
0.15160858629567392 
0.21053362110197882 
0.22712357895019558 
0.19227979594371553 
0.16386783104438676 
0.3594602546576241 
0.4926357450044999 
0.5367305198487714 
0.17147963970692873 
0.1983027662720023 
0.20546176858052945 
0.21309323999543964 
0.21398202207978423 
0.19439957794270268 
0.14624725087159407 
0.14393468298288983 
0.13682877972718216 
0.1321362569894732 
0.12794141465900316 
0.14046659429030547 
0.12382660477326665 
0.11293207202381297 
0.09595440179310871 
0.13717484115164186 
0.13697249728572908 
0.1197609548624315 
0.1283447871947384 
0.13126908858443845 
0.1342463213833805 
0.13722189590639544 
0.13438328023316579 
0.13486368505450927 
0.12932346666041541 
0.11278346362597926 
0.14552123753701263 
0.13605610286124603 
0.17303137609163355 
0.2244272852967247 
0.2159143429022033 
0.20014243281332877 
0.15257952346674447 
0.21461310372178577 
0.3293217223112289 
0.4738348371966029 
0.5113302982846814 
0.22204787380564245 
0.22359622155170053 
0.228195672810046 
0.18415999999897403 
0.17763016845263335 
0.11837727307419334 
0.11757984539266618 
0.11390300161134795 
0.11877860263874504 
0.11775046075140967 
0.11727391457850707 
0.11844245572756534 
0.10853906013107496 
0.1083393671742487 
0.14471701858185065 
0.13836779630542026 
0.12585991663447618 
0.1019205333953047 
0.12087113613747293 
0.12387759914185088 
0.12339327734304908 
0.1272204239931556 
0.13853254447978386 
0.14519631392231203 
0.1965720568448384 
0.20888223507334802 
0.22016786991054355 
0.22969906481789143 
0.2127917221491699 
0.18128716505502207 
0.19919303173296143 
0.34772044416133824 
0.4444571367748873 
0.20714821920189347 
0.23576790288810653 
0.2327079396010587 
0.21355159951448635 
0.18070237336353515 
0.14476556491496784 
0.13594422768776082 
0.12997258304895298 
0.1328216941508224 
0.11867775706676068 
0.11669319664156161 
0.11692501195704183 
0.12754308144656107 
0.15935029345043086 
0.15279004161480247 
0.11581612616041717 
0.10590043571189313 
0.08049656131440354 
0.10352061684156139 
0.11534559487245158 
0.1085764433921138 
0.12844262152946645 
0.21899288855896332 
0.22373807138623886 
0.24304360655934817 
0.23119041823586914 
0.16552857529356876 
0.0873064291772806 
0.10480954507345774 
0.33726275611959394 
0.4627251511052794 
0.22646580080454073 
0.22759165010229268 
0.2316822999204139 
0.22520892057417818 
0.2290720576037499 
0.21854851395338418 
0.18416382999460015 
0.20306976780396727 
0.18140283545062127 
0.17230196437042183 
0.169919489252924 
0.14770573966399647 
0.12610258875494385 
0.1498892933685027 
0.1717040548523661 
0.18513981048410794 
0.16570860824453018 
0.12643002113848928 
0.10298623627507182 
0.05637492833866844 
0.06486783271678359 
0.050112232363811605 
0.10683943063770199 
0.24129465996603308 
0.2716696900722289 
0.24011566524271558 
0.22097312144074016 
0.21559423940879766 
0.2243027705177146 
0.20296293634789 
0.21856060333938074 
0.23766108351386753 
0.3135307427773408 
0.23351404191051586 
0.22465371187377123 
0.2030660521225708 
0.18376913410982504 
0.15280008047851873 
0.18723144171657619 
0.19908267418088355 
0.17773569927330957 
0.13973562429003397 
0.1277561073163006 
0.11544890946137898 
0.07470440408352946 
0.29582942431629927 
0.23040403685725838 
0.20401638944637165 
0.1938951492033703 
0.17740091718227655 
0.17333053637150728 
0.2216180717243569 
0.32641127298599537 
0.24742797762092456 
0.23905517145513408 
0.21813924590469239 
0.216298137138627 
0.1983783664044457 
0.2540747037567025 
0.33026486100083385 
0.13938514499079716 
0.1250198094859648 
0.16109613571487844 
0.24911193755045702 
0.42659218223491735 
0.266096591408289 
0.20084459852433972 
0.22880376658311602 
0.10034282754303848 
0.09688111400024617 
0.1670325535609733 
0.3052562653284115 
0.497624903224642 
0.208900513278194 
0.06839016263861353 
0.1507787772215017 
0.09066232022621773 
0.14713905962919524 
0.3453084518872351 
0.48302932216844024 
0.22475322962844188 
0.10964913305121006 
0.0804963171745851 
0.1671579854553252 
0.29198150558689506 
0.40299748931634416 
0.21342111783214168 
0.22349142568103864 
0.12096628619436603 
0.03304423365949523 
0.21198142396002712 
0.1329212935247481 
0.32378546893155585 
0.43007250413904713 
0.3734378546595995 
0.12902738938339497 
0.155022239961142 
0.3080791391778787 
0.2575117146779747 
0.44941100337823314 
0.4255604892541074 
0.32650495597958373 
0.3108186312591012 
0.17520723982328215 
0.059116844060602206 
0.022290816290568755 
0.13500168590826583 
0.23739096272138233 
0.02685442220219254 
0.172203530861664 
0.2788494507280429 
0.448191689691624 
0.312746263305489 
0.4176898119430373 
0.3692753318797356 
0.31514704072921634 
0.19930440812060846 
0.10665145955742548 
0.12883811588620117 
0.15693301242910518 
0.10856104216980038 
0.36720799866021886 
0.4672232572031912 
0.34225084684093726 
0.279457888227934 
0.2045235139649527 
0.095527907602682 
0.17655471946072293 
0.0820082378376701 
0.24074915668998845 
0.20634840571000024 
0.3556158034499183 
0.5038811289427791 
0.34038653458425644 
0.18220522730861122 
0.16952586932676209 
0.009003251369699185 
0.10605044332045714 
0.35954627201538614 
0.35532535317056296 
0.5023831762052822 
0.33187530052377734 
0.2773738519865453 
0.501773814373488 
0.5012201758947521 
0.3491001376172406 
0.07271944665021468 
0.032611708853589993 
0.15838456813913995 
0.1692583061600673 
0.2576619292270547 
0.27170335890559577 
0.27683413726344397 
0.058814803198819564 
0.13281083597596072 
0.031214824801981633 
0.06749418898951735 
0.3658613109373727 
0.27171922932302567 
0.15190455456571805 
0.03610610235466133 
0.46401991167624634 
0.40672689003870216 
0.3477268475789711 
0.0782674107494631 
0.019641242167227357 
0.30760907041997 
0.014484835300148033 
0.08315065594524881 
0.12470348106525164 
0.17242783269387843 
0.32807977861475673 
0.2973342757649633 
0.26986768443441567 
0.21652363266312674 
0.16145118780801687 
0.0023110971597217335 
0.020799061741305927 
0.06741650220233823 
0.12246374762339975 
0.19030188321432046 
0.255851091392298 
0.2979543112639823 
0.34767808824625324 
0.4622065069570433 
0.41831045987893584 
0.42554056440923943 
0.4237606341836404 
0.3996556444373939 
0.41036796183163166 
0.3768125792961381 
0.41681513895914374 
0.3673876561008033 
0.3038330032021733 
0.11391864141317491 
0.07454416101174707 
0.07014248727390932 
0.1384940605735484 
0.45861218870587767 
1.0142522968873335 
0.6607002123842133 
0.569767294137605 
0.5452760535745526 
0.5384767856410739 
0.5453228332901928 
0.548530286360684 
0.5504333245566313 
0.5518992998201954 
0.5301879851721225 
0.4476732987079192 
0.2577580562219664 
0.2196805997671568 
0.17618658190370967 
0.1686825857128821 
0.1739358747259071 
0.29141781883248247 
0.351725018090617 
0.5744032902517411 
0.20451174145649104 
0.17421819652710957 
0.0805001811874057 
0.020792559716614534 
0.004355495567832836 
0.0008157651503477505 
0.006252908539377684 
0.014350644112600047 
0.0498980185496892 
0.08730129461696481 
0.08458329703415333 
0.11285666617516034 
0.16762199730925903 
0.2102052675906456 
0.1819276415936919 
0.25334090800473763 
0.3085914754283375 
0.495328064898283 
0.6568051449696888 
0.6051614770963412 
0.020611379700837033 
0.03602967996931075 
0.03264627067018669 
0.061106101969347765 
0.06136191737181521 
0.08325030880205377 
0.11050253392986724 
0.11068639275715678 
0.12788564430607366 
0.16528159864424596 
0.14158474502049415 
0.20073726850158796 
0.2174656715123088 
0.23223113064610273 
0.20553389139054556 
0.22074047978612635 
0.2855928839638989 
0.23752093219943676 
0.2989947117529169 
0.2484576564309489 
0.2554473497648269 
0.33982490007590127 
0.26358561143972553 
0.29831810326317404 
0.3350082667188532 
0.31545597392470065 
0.2887328234366072 
0.2474438165241721 
0.25992776915581434 
0.23583093731317556 
0.23754629522869086 
0.18890735660449207 
0.13714216460593961 
0.11148220948350264 
0.08855354609402907 
0.08316130978983786 
0.01563758191714275 
0.07501664879030112 
0.006570047751085268 
0.009225223677683863 
0.006272267595191646 
0.378837228206306 
0.28512069830285064 
0.3329693649362739 
0.4291427744414894 
0.36132119328727674 
0.44113567257827146 
0.35880548762726494 
0.4781221523306823 
0.3714695143680563 
0.47855290748953805 
0.4777256192290154 
0.4261072338876988 
0.4760629314832619 
0.46959153021571787 
0.4071480747934004 
0.4034458650490507 
0.46763860427911297 
0.4692053508288739 
0.03630068105460199 
0.10817081559411482 
0.15803247233270384 
0.20851895775653562 
0.2199967854732338 
0.2633692606938214 
0.4681766849008947 
0.46550626339989715 
0.3829051288129088 
0.1155771360814101 
0.4230443092822771 
0.45895544365358626 
0.4554604084875999 
0.37576983808096676 
0.2110562751799025 
0.3660241261637806 
0.45677144478931897 
0.3932163486692223 
0.2540138117391952 
0.32848470140904845 
0.2634756805293958 
0.21635969689334283 
0.035989951419090005 
0.09648620454943828 
0.10777078257720697 
0.06437686275944199 
0.11884197843722086 
0.32034008388292945 
0.27430423206862276 
0.24620199707887322 
0.18848280668312334 
0.1372016922686868 
0.14103043929792508 
0.1531964946138523 
0.18950562282658867 
0.2297517590954038 
0.28279445493360966 
0.06645473130399444 
0.39796468239861477 
0.41709719475965684 
0.14012096710017666 
0.1544604207852339 
0.08062026535979792 
0.06087608618556819 
0.45337117823387957 
0.2083394836922621 
0.42269374043677016 
0.18867860256124702 
0.5270623264943949 
0.3909072403853877 
0.27892847562404527 
0.11495875520764562 
0.09586747743671876 
0.03426861384684542 
0.06642191243297349 
0.4949979205383728 
0.4858979323895036 
0.4750629515322717 
0.22809777412061874 
0.2219213643391989 
0.5642759143372139 
0.1363207858356649 
0.07244139270708469 
0.4684835057873951 
0.5166726640656543 
0.07475721657199695 
0.12989204568589333 
0.4593192808192681 
0.5080082729932294 
0.20113748020114403 
0.09099428658107855 
0.09882816669785209 
0.4544978117870916 
0.456172999275911 
0.17171163767063202 
0.182339308442248 
0.05259742385985166 
0.21256016161703736 
0.16749108098152976 
0.13484736711094583 
0.3022173901269383 
0.2845561459971517 
0.4653599046301454 
0.18920132118117497 
0.10419596814441631 
0.1089282902013723 
0.4541413985167392 
0.15296500362458226 
0.15908595643023377 
0.12447870552531407 
0.4070802987545684 
0.4557521338738669 
0.13979394276158058 
0.14632679225747386 
0.3968259193074894 
0.3761801894606025 
0.4687229421749723 
0.25631715514332315 
0.15084172384496675 
0.2877584202580571 
0.3173135059259878 
0.06906851475321218 
0.10809928901661466 
0.40147073137001243 
0.31190996509905317 
0.07290454827598486 
0.06074610398816307 
0.23416168619482905 
0.06023785267680638 
0.07021308672601932 
0.08610207857287257 
0.22936225435328508 
0.23453033814434146 
0.32191491570361574 
0.3222755922717554 
0.3996701078921977 
0.45614731902629585 
0.408980595904784 
0.13279602883930058 
0.036564613926525776 
0.04826366784261117 
0.21191406530790133 
0.2014795909915581 
0.301401539054246 
0.2872499007418019 
0.10833074934972406 
0.12169861568557375 
0.3591041912345935 
0.42490717582805826 
0.26179770173452427 
0.10325034044983847 
0.34264043274071504 
0.3032743200539633 
0.1741143443950735 
0.18122680957290027 
0.1266748998394797 
0.39160949498010533 
0.39053866985973756 
0.19318890323596685 
0.30774891743524657 
0.2291354362906014 
0.07462026013441445 
0.20551176814290106 
0.22884581011849472 
0.27344604988318694 
0.3617962325611807 
0.17508298103636533 
0.07098594612566342 
0.050984865349887665 
0.06201964454867534 
0.1598539056215297 
0.3120767700150257 
0.08284136413139541 
0.10561079739096897 
0.4055918498238063 
0.1361174180571151 
0.14040899109436086 
0.4529619915515165 
0.3002232386574924 
0.28744177343676547 
0.2251438525735212 
0.2603638161543474 
0.05698682836444664 
0.2422746477906227 
0.0593655201068122 
0.11978477189368895 
0.22212200496260145 
0.1566180426593628 
0.10348247740463745 
0.3528436551825642 
0.3375897393285491 
0.4054520913395868 
0.06772380496424991 
0.4063426346315501 
0.1267031369984545 
0.0969318031939598 
0.10894974182297526 
0.36301603290036283 
0.4102959789266542 
0.16744034240994 
0.13863704391086187 
0.15709604267455696 
0.37774440580663415 
0.27608430146809926 
0.18320503531928278 
0.25418618158373796 
0.11420211354253142 
0.2851835706524507 
0.2697032955198756 
0.1657631942427259 
0.36835099323755754 
0.4174337064593907 
0.3226081217002575 
0.20495966654540673 
0.014683418424395491 
0.13232482185129363 
0.10986371593698532 
0.23664363394803362 
0.09271742629261577 
0.26792686445937647 
0.12797225370122828 
0.1638697322771718 
0.22540091518627087 
0.24437599600594037 
0.16739291853135443 
0.3294932458811143 
0.29637211056396034 
0.4556353777625155 
0.4089875837806577 
0.23403920494937314 
0.2511930730391592 
0.07076682239795455 
0.22156652115799674 
0.10567818870042231 
0.44927607606684566 
0.3930116346148304 
0.5475766937231806 
0.5513281652734419 
0.41009083548837233 
0.2927630278528919 
0.1899713636578693 
0.29334389941266964 
0.29412337479903977 
0.453991793738074 
0.15505004973625472 
0.4551075991891773 
0.08027723180362233 
0.16207196840295102 
0.27892475228022756 
0.11709946252141692 
0.1878771547123496 
0.2685720461746046 
0.2707092189167695 
0.2113018227010289 
0.20021942288132044 
0.25842756998883687 
0.12265365330620988 
0.10421960811553488 
0.07962460716053436 
0.1305490345299919 
0.07590154531435518 
0.1440903554564249 
0.14873541324872616 
0.1865524032706659 
0.2305449691091848 
0.2349635389157079 
0.09318745427380713 
0.08530632861014406 
0.35946302262875707 
0.10239236674286896 
0.05630363644374358 
0.32019710289687797 
0.16578053605401927 
0.42171346765531503 
0.22036962864520337 
0.2542406305074843 
0.13291219535881482 
0.3256957833274807 
0.32312928844118355 
0.23188358014405475 
0.2465276864714829 
0.13948733207816155 
0.17432063827651498 
0.29530349670153766 
0.2675718609420488 
0.15617075210141348 
0.383688752309292 
0.19831438597264933 
0.10860388193565645 
0.31836842946043453 
0.25331677594172336 
0.37463102369469925 
0.3216293216415246 
0.2785090412975564 
0.29934133558651166 
0.3929919669766214 
0.42301437251655605 
0.27459896080268836 
0.20621343762237018 
0.415731776400798 
0.14953070589796652 
0.28674830744631297 
0.24160884267373414 
0.253317002359864 
0.2666853762677605 
0.08160748342825817 
0.24045062996536243 
0.23816584281595707 
0.1984505798630132 
0.34649574200456734 
0.40362751694289367 
0.07828973120733082 
0.4381778964591075 
0.22198494188768947 
0.15520173243782703 
0.22743445864081752 
0.1866498946134568 
0.2890412809335238 
0.11854843569652285 
0.18574221534306085 
0.15245684293371325 
0.1415373175638051 
0.24591907142022598 
0.15200916543938897 
0.24418080247616128 
0.15366490403383393 
0.21472639922765543 
0.23028933470360888 
0.0817784713271101 
0.08325419450225505 
0.11630271406361053 
0.11804054863077426 
0.22335158536177582 
0.19166041276699294 
0.28197737060867883 
0.25956525231093 
0.21268349047997356 
0.006376784971292614 
0.03840265892844565 
0.07815849218168593 
0.20669533166524093 
0.2090914407453458 
0.1702000137778641 
0.1634029445138911 
0.11270139881033574 
0.10287350296484206 
0.2860218253460977 
0.2901908841005656 
0.12221090849287135 
0.37682555302403486 
0.31799487141988464 
0.32145156528490443 
0.32325999606959366 
0.32426605798319363 
0.3742694295613591 
0.14020213589423097 
0.09950361129362588 
0.09548422171475347 
0.07808601431855225 
0.10476161752453211 
0.18487067507511945 
0.24000234288632236 
0.13954912014288892 
0.15276242248769503 
0.24984672370260194 
0.10428646498595769 
0.19498531240485978 
0.1842537386937239 
0.3102976807751932 
0.2951038101200393 
0.22319675808742434 
0.21545031881366497 
0.34205223246475513 
0.11366922193683408 
0.2545429971870286 
0.2602708413684296 
0.14051674456817262 
0.19034848046650424 
0.19847366564299213 
0.09725581470855625 
0.11090142455269089 
0.17414617746412311 
0.19285984557160024 
0.24562056646449698 
0.19508648957892152 
0.2645887419440485 
0.23690886406853218 
0.019939349358419733 
0.18417242436791406 
0.2704857965799815 
0.07409925946257558 
0.24775085846282743 
0.18900598712525432 
0.20529729350146114 
0.16925636389652543 
0.27289083227141503 
0.18529839142677373 
0.17571095697978337 
0.1777516475234216 
0.16449452569397663 
0.08557523861637274 
0.12751901024875617 
0.14363916163278118 
0.14337117505177482 
0.2107139011430996 
0.23499775505013917 
0.18785803152674238 
0.1935661067266392 
0.13173899519706425 
0.22629330281943413 
0.2276752017541334 
0.12671394167530162 
0.06892618751950341 
0.4110908026562928 
0.11201471847337517 
0.11605124868237371 
0.11846637903447813 
0.10792885987786696 
0.12448580809451264 
0.1404726642179622 
0.29823578044764376 
0.25203519268250457 
0.09520387115712048 
0.26517183809847006 
0.31600511091825734 
0.10907267510595363 
0.11152473366974806 
0.10259760798564953 
0.19140998824993535 
0.3242046577925939 
0.3064228702044679 
0.16995747606270661 
0.21904400899146234 
0.2447607105082047 
0.14011316256514614 
0.23982955561032568 
0.2795830117349399 
0.13564318717947868 
0.1455714008843944 
0.18372131327219401 
0.2290813488193322 
0.18049731736228083 
0.23676602122809776 
0.14935858182545883 
0.15984073875058635 
0.2682081253587847 
0.1670635475718538 
0.3497086412193241 
0.3983109753866658 
0.4648651954688983 
0.35326791887360626 
0.41014851518874756 
0.29167351575849315 
0.23275835655096894 
0.13610310325521088 
0.16417320835044646 
0.19898937771837613 
0.19824709466005383 
0.29621137532961983 
0.23782076506343724 
0.21128738373556308 
0.20525015694284524 
0.18292156309592592 
0.15902406621255105 
0.1679090616100513 
0.18772257227552283 
0.2800623721405402 
0.2176530431966249 
0.09817863898595361 
0.1562423918744909 
0.09112004623507827 
0.1612304717276964 
0.19965841529734807 
0.23026833080044154 
0.28272596062126254 
0.15888915239504336 
0.3528548380685197 
0.1986986944255432 
0.3462072574328122 
0.3397541880701198 
0.20716135031855903 
0.19565344764875164 
0.13388038401409713 
0.16315051751250545 
0.264648411353086 
0.4155854917682169 
0.2411546351746993 
0.15927414324288763 
0.19085832592252808 
0.13158197407880018 
0.14259575927518436 
0.16213539503944957 
0.08985214681549585 
0.16191126667308023 
0.09242006391635323 
0.07712462846011915 
0.21838925220524397 
0.17109108451959046 
0.1628874672412355 
0.20354909660574316 
0.14652004863937027 
0.20724152254868333 
0.28162990390087655 
0.16807253299888278 
0.11836937628695773 
0.09879100290131013 
0.10560329230764649 
0.13760184926603455 
0.13025058500988324 
0.19519062167683962 
0.22415792118234829 
0.22631105299894375 
0.44417804478596473 
0.3225831728514424 
0.24089173396031455 
0.19154199323755117 
0.13205709440909633 
0.17087795225369695 
0.29623421379322096 
0.19436780633580694 
0.1673279027627625 
0.11599017908135319 
0.1353195597363034 
0.27872895191440267 
0.10992069926029101 
0.1254064947876316 
0.24388090652263192 
0.14297028100086764 
0.20028203830485244 
0.20828730632791112 
0.22034354307261156 
0.17740157586631972 
0.18658926646759758 
0.13591970247435017 
0.12768661998671044 
0.14203877014811495 
0.2166274486997485 
0.19319289046957722 
0.20286095034045298 
0.22735300369462919 
0.22158506053741514 
0.005161279501386963 
0.0927625436759252 
0.10111020398748831 
0.10234671470183658 
0.247479747918342 
0.22817144949333826 
0.16960780884291699 
0.2907318532667388 
0.13064180608644568 
0.17478548167912025 
0.12847252098379222 
0.13324678458459788 
0.09197015842250254 
0.11238194724677517 
0.2410423277576987 
0.22073501273442864 
0.17943752012773864 
0.1520711177998729 
0.1785471753873445 
0.14721965724894764 
0.2372011734698625 
0.184540328144453 
0.15769631660179115 
0.12208095891102774 
0.10362346077650202 
0.13296152933874172 
0.13038169886335552 
0.22566304747610255 
0.3831430573503836 
0.16687316636103025 
0.21895425511206584 
0.1512455871940516 
0.17342913005009042 
0.14116564414544003 
0.20075084561882103 
0.14194868946859462 
0.13054713418897232 
0.13171438529666865 
0.22554232193602186 
0.21615262623158482 
0.20859495457509494 
0.19684332698834 
0.2009230458915935 
0.2788796522257696 
0.2916721847589567 
0.14156963162838956 
0.15336474062758632 
0.21112320551136696 
0.1940272714360585 
0.2829713880228885 
0.18608269073510722 
0.21109842696406425 
0.19579558367756134 
0.1821762544598428 
0.13590907806216232 
0.225641406330572 
0.2196303353380258 
0.19177112151799003 
0.16164092903924304 
0.10083127589801322 
0.1337333051136633 
0.13221119093855083 
0.11623925546860175 
0.22619483418347963 
0.058186413781806404 
0.1488520547121039 
0.16467912698247206 
0.051132421957276776 
0.14080850645473564 
0.20158342136659488 
0.20431293599108327 
0.14574197479950401 
0.14971211696757775 
0.16103264475026918 
0.27110603751657925 
0.17377166598550933 
0.19204982718887456 
0.22224691973434144 
0.13669690120971628 
0.17990671315686918 
0.2373609340571657 
0.20016858524856368 
0.13746149029390978 
0.15487297311993742 
0.2033850052080328 
0.20215499078529575 
0.2258931990106938 
0.16636877772189276 
0.13433106682662807 
0.15778513350954887 
0.1295576381881455 
0.20224585290615799 
0.08656368717849433 
0.03919595768714074 
0.09977963240892718 
0.2344791999124216 
0.18196909300327982 
0.21017202409406033 
0.08783477221512333 
0.1524497173470677 
0.24654737409020258 
0.1714764624979393 
0.13616310615275193 
0.13568172703828169 
0.12391268526033186 
0.16813692690834808 
0.21913388798723712 
0.26995582527156825 
0.14665251289373316 
0.1415501045308094 
0.20315178530238387 
0.20045628883228328 
0.22019590647874454 
0.22962033496838505 
0.2287696146817509 
0.21241870822729406 
0.20850246119415589 
0.2164433879497125 
0.13621995887314686 
0.13232593429566275 
0.0651807771515579 
0.13437874030727895 
0.12946639247300404 
0.17993825566146768 
0.10337090812659949 
0.08632015083413112 
0.13599821620559005 
0.14483816183966275 
0.18410296494879516 
0.13229561025336004 
0.20911505290274376 
0.1937572652878467 
0.15880348003681508 
0.1852518107544845 
0.16602913664042 
0.1739929368978335 
0.1536989011053886 
0.12815298442769618 
0.12937737917370543 
0.11972535097223636 
0.11064487270479699 
0.14869317204706242 
0.18449074002256802 
0.11731035920633254 
0.06812818513076126 
0.23303906020678822 
0.16210306122069473 
0.08573701726795362 
0.11225873875077624 
0.10794586108711313 
0.1360792202776031 
0.13339354479765506 
0.13194579961458067 
0.2088996935748595 
0.13291903915517633 
0.10850005894335069 
0.1234390882816777 
0.22981023595767272 
0.21983432793220672 
0.19003237406773735 
0.1578278910040682 
0.13346531789822516 
0.194183855961125 
0.22289004946441024 
0.14876995755396483 
0.13525384233941024 
0.1013480725033328 
0.21334181323738155 
0.20818496954784294 
0.2261045281405289 
0.2320394838560732 
0.20097152476315183 
0.18460076365695666 
0.1852910477555338 
0.10286139811233563 
0.1264868206939095 
0.12274080274455736 
0.047466131194880835 
0.08355196704674636 
0.1736205984386509 
0.05488525636288605 
0.15841918121287726 
0.2741174143798223 
0.23544581802549902 
0.16438520130215697 
0.13915674216907528 
0.10958576111410004 
0.12025526675267047 
0.1253802425664657 
0.11848836326341948 
0.1281362227168788 
0.061320288449192406 
0.12417550252726285 
0.22284950085266908 
0.1271911336484104 
0.1295047585574416 
0.1985437856089155 
0.12014113920430003 
0.189575425335256 
0.1783243866493993 
0.10944063874919105 
0.03600081454344651 
0.07465987642372096 
0.012639067503373208 
0.22988483904376839 
0.11813660748421588 
0.0934436411246094 
0.12128093898806729 
0.12758149558296797 
0.14521373002309126 
0.16898179371000704 
0.16854219457359837 
0.09084354598591861 
0.12630022494999033 
0.13178413456474586 
0.11140299239191148 
0.07349445855982498 
0.2214520037197808 
0.2251054071124626 
0.23258530486155293 
0.2321420480262144 
0.11854958042044449 
0.04733911444393377 
0.11873557465787143 
0.2183454251334516 
0.13651864388995397 
0.12454285070966566 
0.11665000971290791 
0.14768321592957087 
0.11672875384294462 
0.058276470974354046 
0.12158863990666215 
0.15756274917535715 
0.1703225570306852 
0.20452105189009948 
0.12099434295259216 
0.12141547973359719 
0.023542082660519523 
0.04901355574065648 
0.12434594169380796 
0.12479765803937609 
0.05619889396590665 
0.09993187518619055 
0.11783952767554053 
0.1301502308976369 
0.1056705972161092 
0.12055066729669398 
0.1284979814503066 
0.127857188798 
0.13397816653508646 
0.19256114909248698 
0.20040091439234453 
0.17315592179960457 
0.13938570499972144 
0.13397446076472946 
0.11869621976900016 
0.12363016131418113 
0.2075050972915685 
0.2291110841618773 
0.20792418728598042 
0.13195537958230194 
0.13565777406871168 
0.22507730425795888 
0.21568232998305217 
0.23427570378083337 
0.05835343914202193 
0.02676487346814237 
0.12320035880039117 
0.1629096826504849 
0.13912709489830571 
0.12129362508541174 
0.21040722296408101 
0.031392588347524716 
0.1184461204749912 
0.11841995454217988 
0.1047776893615595 
0.11328253042216355 
0.13049190269077116 
0.1401327217953385 
0.23047556122983923 
0.017787222567248177 
0.11029149059004423 
0.11572964472407012 
0.06595324147206635 
0.09431793285680524 
0.12078517343679472 
0.1188706933554819 
0.13113287411628702 
0.1172993699296043 
0.15219488855766544 
0.13315309682303844 
0.1360258396872942 
0.01661665219117794 
0.13413187004281654 
0.19600304836642596 
0.1575985728245955 
0.06336179990808372 
0.18594387233114346 
0.009903286597196343 
0.12517742189588207 
0.20336355170818365 
0.21974476421103245 
0.08419034817186223 
0.13507205353791 
0.2146623555527213 
0.21211752445443754 
0.23211236220205353 
0.14417136141626913 
0.12074749062361524 
0.10253276318473233 
0.10203962125686564 
0.11817768251380663 
0.09974549208070103 
0.11432828615596378 
0.11125962430390432 
0.1175702390866788 
0.13710841137073018 
0.08725696273934494 
0.059428444722018386 
0.2311583154761865 
0.2185455148034327 
0.1322458064136671 
0.10977521459151177 
0.09010309062072001 
0.13216933360754077 
0.1268473502930642 
0.1264276617627059 
0.1322550474905568 
0.11493305448501351 
0.17505999654849813 
0.1921720894675474 
0.04754908539570272 
0.11626381279917773 
0.07080998279979896 
0.006962287348561496 
0.11413213529806579 
0.1900533325848101 
0.16419423344255146 
0.060042189223642906 
0.11395302579862507 
0.21778717616090168 
0.1912657700382626 
0.057215509268100095 
0.18629978967568656 
0.026318960430778204 
0.15882417449104627 
0.14416059273271517 
0.0514758152556125 
0.11233768203026653 
0.1269454812312818 
0.16965172992263178 
0.14347248125289447 
0.20393657477252067 
0.03425399405209517 
0.19474764277353068 
0.041849707324003824 
0.12224006450184756 
0.1181147038517496 
0.1180819031389953 
0.15198288324364306 
0.18175743003121367 
0.0400894792517817 
0.11325977194682506 
0.1223560709334318 
0.12038562480667073 
0.07771292289953609 
0.20059921191732738 
0.12011188564826476 
0.11731233186772937 
0.06445752421927656 
0.11744161461145883 
0.14668517417447202 
0.20751474798526395 
0.13172542070261042 
0.23660907142629822 
0.21155298564457486 
0.13314055086411886 
0.13540700970521635 
0.13041750478448844 
0.0519728824120286 
0.22977813547918866 
0.2280788677827948 
0.23357308127097914 
0.1202524934381561 
0.11894594110918556 
0.21029755146391857 
0.18213922810254907 
0.1261161825330056 
0.12739448732084588 
0.12625285270081416 
0.17196802381831328 
0.0514877518035104 
0.12556243489535873 
0.23466168224914113 
0.140877312869492 
0.14734929501949354 
0.06512149170177084 
0.1888253912943152 
0.19744535227645896 
0.02514848349323578 
0.21170884443606172 
0.07184537144796257 
0.1178515256779873 
0.10904552383187674 
0.22901072648395163 
0.23561540519576565 
0.23173217204104785 
0.2024069927446861 
0.007072239989436767 
0.04686965805585415 
0.1386065293462714 
0.0711211470011685 
0.06526020872317471 
0.20722514523736865 
0.1910408897766465 
0.22378224008392297 
0.2042074203740907 
0.013668773672148431 
0.05921078745109585 
0.2204450765059191 
0.17891554829746595 
0.19465432110379743 
0.22394602374785424 
0.2244787978715613 
0.22306900534067395 
0.22692599859471715 
0.2315155647818373 
0.2358010334285348 
0.17296706932733313 
0.19214451505178146 
0.26564008471991646 
0.18013613861107278 
0.014114751253985203 
0.05159060068711624 
0.22745827763552176 
0.21787581254026364 
0.20220949562833357 
0.22681338663671327 
0.22310151317846824 
0.23507759900737601 
0.22859597541389917 
0.23664399466092784 
0.21519005755766799 
0.2312931568861077 
0.21079295852094931 
0.20164870446197902 
0.21850610873309273 
0.23192709767177733 
0.16372830506397085 
0.23226882287514075 
0.236057976433349 
0.22200643088208585 
0.2255731937309032 
0.2212308872069211 
0.23232969203131285 
0.22506880287979258 
0.2271579315368514 
0.22292843534052753 
0.2219314862488982 
0.08134386946753454 
0.05062810502931209 
0.06403197213642765 
0.11681039451038118 
0.10241758248623876 
0.2644889895751695 
0.5621681034943815 
0.2020590203594618 
0.42226229825142075 
0.08927228072032017 
0.5032580831484794 
0.5214269560365657 
0.4165495301867061 
0.08950832758240321 
0.09287815223203898 
0.3976048145984437 
0.14371810950418284 
0.06148302391294201 
0.05854578306331538 
0.2208984233903101 
0.23384774365379155 
0.18642441755918368 
0.20354907719381138 
0.25809811947810374 
0.12206259343868231 
0.24629992713430962 
0.1376641015395534 
0.08689444153541065 
0.1811117247070282 
0.3253214600521872 
0.3257095799953508 
0.1520543841343829 
0.11469482426667058 
0.2711989212518659 
0.2725965422658653 
0.25655706601538847 
0.26879116394101593 
0.2633309157639236 
0.2139246372990564 
0.20854991992844815 
0.22257620593962432 
0.21646618807955473 
0.08131344563484048 
0.15018488541140973 
0.2010185033297435 
0.16529479300296748 
0.12894543552203366 
0.19133397339492608 
0.10541501682148219 
0.1987800321346996 
0.30474243329191486 
0.25301646982233306 
0.1658578201975653 
0.17384646614890006 
0.22101813076441426 
0.21606734478802106 
0.23169710460202353 
0.2185795942213027 
0.18685293675906803 
0.140440251612325 
0.14065881834079533 
0.14430271856289703 
0.1065294633243039 
0.12846802988460976 
0.10909352631293044 
0.11984133990134543 
0.20037389509630918 
0.0875655697909983 
0.09140671067744588 
0.20547691315487254 
0.19201653438536911 
0.12781863300930363 
0.09422446070069701 
0.09455396060042083 
0.15067703125528606 
0.13382067283647103 
0.23264930651395238 
0.10469890367057805 
0.10383156694533843 
0.13573439348687466 
0.1535176012664396 
0.21476446246135664 
0.10629871710080038 
0.18241717206271377 
0.22120991932779574 
0.20598159129277305 
0.22442952706425678 
0.20016056411680622 
0.13330249310638873 
0.15801739464617853 
0.21797904247926866 
0.2253807765062688 
0.13545653855193518 
0.13351284009845588 
0.129710818139048 
0.21008965400246168 
0.15321489569821192 
0.14871769823107187 
0.13316875222355767 
0.12869809202393762 
0.12673222575992948 
0.12450662182719352 
0.22678855723805605 
0.12357023072838079 
0.03733438434714188 
0.151935080884037 
0.14499916756918732 
0.12268426656237846 
0.11842514994474201 
0.12058146380996417 
0.13634621726543 
0.09343952801195343 
0.04772346580037816 
0.0122161320041735 
0.1208147925386193 
0.2308641772113528 
0.1813893211789565 
0.18436658578293602 
0.22538057350991508 
0.10846570145663083 
0.07916637517048901 
0.1878771839333552 
0.2342694615284705 
0.03274902109887146 
0.10242617539832892 
0.07855888444355964 
0.1544435667329791 
0.10696855994198425 
0.12430284487884323 
0.0015468334913434295 
0.0010081919181092701 
0.025008510895121912 
0.0493823527266869 
0.09381287485351303 
0.1031446408691715 
0.12266264978785937 
0.14249254687374532 
0.1538308224263319 
0.15592164902780217 
0.20938550881978402 
0.22268159411470922 
0.226217710228236 
0.23283555134817208 
0.26197105404127813 
0.23107908933534707 
0.21541296993768988 
0.20806982382867079 
0.18128618463332005 
0.16310800325235278 
0.15028513671727461 
0.09890988009187766 
0.037332138736663245 
0.03449454547427291 
0.02831274109757662 
0.04507795594914136 
0.06494559609576454 
0.12297198277707334 
0.1404781397228454 
0.22460464934437072 
0.2336338291936084 
0.2814557337597175 
0.27749038427973577 
0.2534375878141846 
0.16598612107694527 
0.07112419233060864 
0.09611110814491924 
0.22210115866325644 
0.41593604946712004 
0.4985799296308922 
0.49698266885839193 
0.4974276787728666 
0.4984904637260134 
0.540330173973172 
0.5424526990528594 
0.5504392089076192 
0.5577061614803102 
0.5998889281237517 
0.7908620154160724 
0.47045615711860983 
0.4042968321840418 
0.2098321778293291 
0.17392388555608915 
0.13637016344936184 
0.15271143341075963 
0.16629190738728628 
0.19212000123786546 
0.25682780860049875 
0.004556901823698258 
0.02472161656057637 
0.011208664246295071 
0.04603841385844859 
0.07210358338696084 
0.07765021876830158 
0.09724828623774022 
0.09455816797688418 
0.1464088705509978 
0.15555885016056714 
0.18294022936783613 
0.1862582023889369 
0.21114266156376432 
0.259544131310898 
0.2725698941958066 
0.24894475603165475 
0.26391081503434194 
0.24755842352545765 
0.3347274271921236 
0.2467680075101734 
0.33927368299180527 
0.2605615302419648 
0.34098619435130517 
0.3265892589204052 
0.280862078724974 
0.299837734778029 
0.25437202042680823 
0.28118445242102524 
0.2136793966557843 
0.1813256909763565 
0.163211415169496 
0.14164303428742783 
0.12159172071381816 
0.10208594866950374 
0.04481247830689653 
0.02844720843351156 
0.03634949764769456 
0.021579828613025966 
0.0013945855940272933 
0.001387120149041703 
0.015245093265954334 
0.33386143220933207 
0.3572882840884118 
0.30304866617337756 
0.24214542519559382 
0.1395863776819884 
0.0411991118335758 
0.09875215616595567 
0.2529686828805659 
0.35392302398783276 
0.4985497148290692 
0.5017452574846056 
0.5492863183154393 
0.3164398844754839 
0.3972703336182361 
0.4141584647929343 
0.3870501588079375 
0.344541697611105 
0.46814222264521377 
0.34446133806011114 
0.4731502776091884 
0.36717444085640166 
0.3729735898757647 
0.2713660707007406 
0.05080021481936314 
0.0018053300423572537 
0.15550419283623168 
0.30547599511465734 
0.40810537386310985 
0.5029040714362117 
0.5444232902229308 
0.5447360162808988 
0.5460470860026728 
0.5476598038433715 
0.5016137976027516 
0.3549219252877698 
0.25777252540624224 
0.151626416019956 
0.007892646581096624 
0.16717648961421638 
0.18739918291037583 
0.3096656751362234 
0.3217140868462697 
0.47641804589224745 
0.42479431401025874 
0.3735840437626532 
0.21988606451587195 
0.12578568727080017 
0.015105083513235959 
0.17490375586563447 
0.3211806581713784 
0.41280139602639715 
0.5098135786907584 
0.5436094658804093 
0.5445311167442319 
0.47827336231321577 
0.3739519649131252 
0.4732498704090843 
0.46707312994551026 
0.4070593602157319 
0.46850592252698514 
0.3654452239508055 
0.27106796388159016 
0.22187217757518626 
0.038039754554105555 
0.06517884992675609 
0.09157570843577104 
0.10220243447196835 
0.13965781356776674 
0.19706508883526275 
0.37005545388883937 
0.369628860737338 
0.2811161038375356 
0.24369758190268984 
0.20612489574866183 
0.03392684240210163 
0.2078996102944959 
0.46929559075670274 
0.4246379901508957 
0.35936531962686574 
0.15270211026877772 
0.04800124063129596 
0.0656203030458851 
0.46093406766851747 
0.45668644903831673 
0.40742382948051303 
0.2730040619091203 
0.44828708794078886 
0.18059111872862105 
0.2553198512101627 
0.20475474518737152 
0.18542110996002578 
0.3468084131100494 
0.3171330541316277 
0.40607041522298626 
0.09674561105974601 
0.2299329730042921 
0.2750888472684583 
0.4746710175026611 
0.32295493823372157 
0.3394294433584069 
0.5492654594405422 
0.503241628411045 
0.30201027818080334 
0.23030177319919537 
0.13014544176788093 
0.017622948424004387 
0.24497419280151186 
0.33989400400077413 
0.4500968060064189 
0.550587500075028 
0.5515241820935949 
0.35529818109386807 
0.25501163384585 
0.11564207501461367 
0.023257476432681102 
0.13217203338682984 
0.34098958601774043 
0.37577415633086325 
0.5519772022188509 
0.5032881442770961 
0.4437903977061817 
0.3454089893675379 
0.19886440103214348 
0.07827489405875612 
0.31407150083625135 
0.8872669759905156 
0.5738884156165581 
0.37344879859944574 
0.25065372035193345 
0.14823542325160521 
0.13167986553242644 
0.13880765681677668 
0.17314576295760417 
0.4164096742560175 
0.3566855242976504 
0.29607722377036033 
0.15637504684687695 
0.12313163420158907 
0.12523170569399295 
0.14657380036365406 
0.18816077885598095 
0.3159235626731358 
0.27824574811077013 
0.2674873838362013 
0.21418739293750133 
0.1517301537185894 
0.12111824025893968 
0.11881279979147011 
0.136063585175273 
0.2116280521206376 
0.17484310661025085 
0.14630630572366224 
0.12638302923122335 
0.12205455586495417 
0.14200416981134822 
0.18320433052612167 
0.23647059269098117 
0.24469508787510857 
0.19194273812042065 
0.15903105730232284 
0.12896326327060248 
0.13333204900601345 
0.12201126270848349 
0.1520447769405502 
0.16328919897984437 
0.1992225508737158 
0.23510824013910375 
0.22572873993152592 
0.20726925552457262 
0.19184396882241284 
0.1792511902115827 
0.17002869155348985 
0.17034940094795611 
0.18460613339742354 
0.10846411570745963 
0.07385556226861341 
0.25739353388501895 
0.2911704887174429 
0.1480099568524495 
0.13647956699722533 
0.13616432442033244 
0.13511410032598667 
0.1401275973375922 
0.16295119015565526 
0.14868849403259804 
0.1473111287284594 
0.1621136727990671 
0.48433087967454064 
0.3175123773665926 
0.1780143882913197 
0.15117169425342145 
0.1383791127883472 
0.12850666937688535 
0.12912363941274385 
0.14625573806864703 
0.14099138944404932 
0.32049375466140556 
0.24023097115160622 
0.17800011805234023 
0.14028802905061533 
0.13712707500709836 
0.12211147518853573 
0.12450537650541876 
0.13444968017819903 
0.17618856397139018 
0.13864265546984936 
0.11958766050715045 
0.10898868760065811 
0.12200781653980723 
0.011031918789029744 
0.024473402286151004 
0.04988874081134502 
0.05191567609157507 
0.048576792982624344 
0.0895628270470024 
0.11858469492738977 
0.09918728447779425 
0.11838241900567316 
0.1048612027499785 
0.0680961995420354 
0.08744786559435197 
0.06535510701817371 
0.08722210613399337 
0.19978895771823824 
0.29402853710624244 
0.3106439590410746 
0.1298160255683572 
0.04966507755675338 
0.06988750204731403 
0.14895718409422226 
0.2144844749554389 
0.23373975138832762 
0.2346866760876018 
0.21468176069587275 
0.35870507335440904 
0.6096251093838797 
0.11768900713983164 
0.1770482209214985 
0.21503116224902596 
0.2347714482031323 
0.2292883068772306 
0.2236009768034776 
0.28192752530542003 
0.5239517804279835 
0.1366759130248156 
0.1550895291946323 
0.1994391428841925 
0.21909890692403358 
0.23194426808625196 
0.1925968011202913 
0.21406793393057874 
0.2485939185010176 
0.17529363356427413 
0.2063847856554851 
0.21467264766684127 
0.1820533972334761 
0.17413682806799965 
0.2014910456096441 
0.166743257737126 
0.19187279989600367 
0.20882997908661402 
0.2027779297782194 
0.17024445475972672 
0.14226370774112862 
0.20003338174306584 
0.204524123721805 
0.19333669792471442 
0.1637700299014755 
0.13110824079907724 
0.2023666208815516 
0.1770388497836971 
0.16291729852978493 
0.22388169257987464 
0.19842076710384057 
0.2119935857571991 
0.0925775773811032 
0.06415064912675573 
0.03646873895559703 
0.09093311553514133 
0.1825676927694192 
0.22299596375038364 
0.23477243620249086 
0.219743266350235 
0.17263066233084268 
0.22950809652995055 
0.5871093489242399 
0.14141573816242764 
0.16497864233522624 
0.1778657469803697 
0.19917394202440306 
0.20437257151553975 
0.20236466294109925 
0.20239717070377738 
0.1931376989982773 
0.17056977457495937 
0.17355691458182387 
0.17872714021372368 
0.14372024453390492 
0.13012013743695852 
0.09136359137847043 
0.07584263582836441 
0.13463783680784075 
0.19804390296340188 
0.04497067178804373 
0.07962058765372353 
0.23884328961277868 
0.13432877874677562 
0.13557934889496515 
0.1384788207892642 
0.1360714390376492 
0.13300916742051325 
0.1206943922515913 
0.10347291332372834 
0.14392764785815954 
0.15234956402490596 
0.2113381513054902 
0.2279575956112638 
0.193342256327623 
0.16387335776500114 
0.3574358376046394 
0.4935577472939872 
0.538874070194249 
0.172289420387828 
0.19913915826338158 
0.20627083320169928 
0.21394503307140106 
0.21472317736995522 
0.194999166288891 
0.1463294314880228 
0.14400084537169425 
0.13702750623970142 
0.13231130638164168 
0.1282350480067421 
0.14076198490909203 
0.12416662320480532 
0.1131758967563776 
0.09588372113698804 
0.13706841475413042 
0.13660783899260753 
0.12009855680595077 
0.128699108192011 
0.1316974886327934 
0.13473481636331242 
0.1377892132813211 
0.13508484758082534 
0.13579487452640834 
0.130324239311302 
0.11332283570469678 
0.1460590017876778 
0.13672985963263287 
0.17377529823881452 
0.22513896796575658 
0.216660609473869 
0.20102840263543098 
0.15331195986857152 
0.21394244681247385 
0.32958193438182637 
0.4755249969884706 
0.5128084741706075 
0.22290248441506955 
0.22446425131086972 
0.2290788307105003 
0.1847921910777644 
0.178317967315462 
0.11880781083207417 
0.11782704294761358 
0.11424500024376978 
0.11912233888179598 
0.11806998436368529 
0.11761521264136714 
0.11875985000502585 
0.10874304240258412 
0.1082486938780671 
0.14478971098454138 
0.13838895299662304 
0.12622399936828493 
0.1020416110919437 
0.12123260556863286 
0.12433068453025364 
0.1238243723010404 
0.12781450648635143 
0.13942150057803446 
0.14638808278081683 
0.19666161174861188 
0.20945299354367317 
0.22075277518036365 
0.2302731768516401 
0.21344731783106916 
0.18195637743990767 
0.19908610259558795 
0.34828134598158234 
0.44498245058205477 
0.20799473009144148 
0.23675595567602647 
0.23369978311729878 
0.21488787377494065 
0.18173164045630358 
0.1455618074290289 
0.1366233990511843 
0.13055635455813458 
0.13330587082694983 
0.11901848891257125 
0.1169906900762562 
0.11714407377557516 
0.12754204408312958 
0.15945783827835336 
0.15286115731829297 
0.11609930166870121 
0.10606044949527023 
0.08023033092939778 
0.10378690326120935 
0.11586621466299395 
0.10896663118286956 
0.12929090266295443 
0.2206599692321024 
0.22407632646268352 
0.2434216851851936 
0.23166246185538256 
0.16594704200586935 
0.0875477921884483 
0.10457675014639789 
0.33769535374713155 
0.4629892170502452 
0.227208630550717 
0.2283852771273744 
0.23262921600930372 
0.22624627998758828 
0.23025491146484478 
0.22001849684870298 
0.185469735642087 
0.20424617681809662 
0.18270705144578425 
0.17297673518844112 
0.17054655991972476 
0.1480396812678453 
0.12623985991470754 
0.15000360994519205 
0.17177705791206183 
0.18524605385544615 
0.16580963077755478 
0.12659258738441337 
0.10297423929203932 
0.05512692498453579 
0.06421880860915055 
0.04863227002339512 
0.1074783685915295 
0.24327331626825688 
0.2717796990788523 
0.24054122202716585 
0.22167611637661427 
0.21647967998709067 
0.22549369060167176 
0.20414739112064167 
0.21999180259516293 
0.23844529379659551 
0.3142133268086414 
0.23542110091035268 
0.22573509908592795 
0.20361944757931955 
0.18404920567158134 
0.15298458356294317 
0.18732663597773855 
0.19919691106057041 
0.1778263659095937 
0.13979015352123625 
0.1278012658170911 
0.11531432141014254 
0.07420567879899474 
0.2957504290441495 
0.23077254561924349 
0.20447678038783218 
0.19458336307722401 
0.17833083561337085 
0.17415895574959592 
0.22175886170189052 
0.3214360782054384 
0.2488145417123452 
0.23963325395300777 
0.21836499577724483 
0.21640169204900828 
0.19847422680605872 
0.2542382574451805 
0.33001870877304434 
0.13994133012439772 
0.12545802987593382 
0.16074772864554368 
0.24746766716496799 
0.42086819332253833 
0.26605543655654973 
0.2008924840994731 
0.2288242637773621 
0.1005696787443404 
0.09687160376486054 
0.16665491215194522 
0.30486107378876454 
0.49626879838704363 
0.2088621970058437 
0.06847708892022426 
0.15082323892316885 
0.09071179548559069 
0.14689926227290642 
0.3459661878733464 
0.48479476910690644 
0.2246567705619904 
0.1096604375646354 
0.0803972346889147 
0.16718306433477215 
0.29234314187629684 
0.40372957719588215 
0.21341668703233815 
0.22331628193020492 
0.12083018651015193 
0.03312943779225764 
0.2121884344234175 
0.13302507091094234 
0.32408882661538524 
0.43036155489558836 
0.37332898365745276 
0.12902716994924288 
0.15517318924371712 
0.3082573309870971 
0.2577245203959425 
0.44962880272229905 
0.4255169055694789 
0.3263870604353176 
0.31070323593288285 
0.1751285697383457 
0.05923665930511404 
0.022445719474383924 
0.13508101042771922 
0.23714734233632315 
0.026840964899991077 
0.1722053940725235 
0.27899211131870444 
0.44822225650031017 
0.312777463727121 
0.4175848453091048 
0.3691553278980822 
0.31524868352855034 
0.1993067253687575 
0.10661148544003522 
0.12883421319751437 
0.15700650730370466 
0.10857036327370626 
0.367203318372898 
0.46723139112865997 
0.3421551274506932 
0.2794263332946385 
0.20450249467442513 
0.09558483159217027 
0.1764749502911433 
0.08196392487229012 
0.24081872963895923 
0.20637879355256725 
0.3556446329374488 
0.5038845074997982 
0.3404063558769917 
0.18222576982429878 
0.1696550982628935 
0.00908501603630923 
0.10609871739118575 
0.3596345070952075 
0.3554584136168788 
0.5024253745679417 
0.33197293252634524 
0.27744864224206345 
0.5015593319649452 
0.5012501077187149 
0.34893818562892354 
0.0721635363238283 
0.03244043185880934 
0.15788256099106238 
0.16732795974901699 
0.25728075944089285 
0.26861102021999284 
0.27460140779836106 
0.058740516887463776 
0.13277931259463116 
0.031084447439363682 
0.06691991178670312 
0.36579879019550327 
0.2696075512934835 
0.15077582774740292 
0.03606418419753602 
0.46196707724937175 
0.4030122678646716 
0.34656926915094755 
0.07830569095721916 
0.021708989465069627 
0.3073895180732862 
0.014550615822427757 
0.08347896316069302 
0.12486755799555978 
0.17247372772923733 
0.32783733413263294 
0.2969754583638405 
0.26957949505828055 
0.21654448338829332 
0.16175363767454895 
0.0020561975725982007 
0.020881378103780796 
0.06801227026789615 
0.12302816000818534 
0.19067646569851884 
0.25593000294510587 
0.29788151881908453 
0.34748809341135223 
0.46202864272045435 
0.4181436612077689 
0.42543827639000076 
0.4237153580462684 
0.3996291410796527 
0.41038769403842634 
0.37687631278003475 
0.41595740514847623 
0.37387720693619225 
0.31359256713492034 
0.1203621836492239 
0.0783438790742702 
0.07354420828535982 
0.1441318670061149 
0.4665827185307018 
1.0138772092668873 
0.6535265952696145 
0.5714871485245667 
0.5462262568203811 
0.538828434479906 
0.5454196415856141 
0.5485811817248354 
0.5504615491735466 
0.5519117706664319 
0.5410417868521495 
0.44699460775072897 
0.2600721714379276 
0.2150657616137478 
0.17554282668887508 
0.16872217286794333 
0.1740246352172701 
0.29399220181978974 
0.35250399013357303 
0.588873314953196 
0.20556197968987544 
0.1754552624382912 
0.08119837783724947 
0.02106954879730937 
0.004431352060635327 
0.000982060654577898 
0.006290167857311989 
0.014432979518250415 
0.050359509753528216 
0.08762088054354089 
0.08519629865992208 
0.11315749969010405 
0.16773595165225824 
0.2105347719082089 
0.18253138184986456 
0.25327641421776986 
0.3084725578363957 
0.4958589984554366 
0.6485506526563158 
0.6019611276882082 
0.020794873273962056 
0.03633614242394342 
0.03285446945126565 
0.061283198144338885 
0.0617818635203014 
0.08371784856188726 
0.11058264240062646 
0.11088239404113445 
0.12798648775187177 
0.16527854385348695 
0.14181859403751423 
0.20068986542356626 
0.21743793592155042 
0.23217912412029879 
0.20550747684014664 
0.2206732060203554 
0.28544168206022486 
0.23744627128504023 
0.2988043848493573 
0.24822337609497566 
0.25514956027827146 
0.33946722532817414 
0.2632446083892685 
0.29789206509806093 
0.3346650962353383 
0.3151408711802878 
0.28837578814183407 
0.2472226375921745 
0.2597064575783614 
0.2357160174969089 
0.23740143613810918 
0.18887734494123515 
0.1372532323355388 
0.11167276808116196 
0.0891625311418758 
0.0837477712169588 
0.015784174303777477 
0.07551747217324696 
0.00665642907330058 
0.009265818680004229 
0.006354329744306206 
0.3786032770044626 
0.2851338936119777 
0.3327646737378341 
0.42889466686231403 
0.3610798881944743 
0.4409070603793401 
0.35858205375271923 
0.4780192478089718 
0.37133102631404885 
0.4784673192687367 
0.4776932169700581 
0.4260390830231436 
0.4760453343179755 
0.46960025724494453 
0.40710716457998414 
0.40334282354823436 
0.4676426497401397 
0.4692376237738528 
0.039389483891373894 
0.11430639131004493 
0.16713199665329975 
0.2080220118382985 
0.23135731104900295 
0.2743484991454007 
0.46819156872885204 
0.4652322485419156 
0.38294622673426193 
0.1206019392398006 
0.42284888393543985 
0.45482945599661584 
0.45344026003058724 
0.3852057200490965 
0.2204746889032997 
0.3792494361346779 
0.4565920883607827 
0.392919029880585 
0.2546367965378811 
0.33613003799938856 
0.262935880432949 
0.21637492032244668 
0.03635769153846595 
0.0973803635690996 
0.10861457997479133 
0.06467795398521545 
0.11956177281826974 
0.32013240943211535 
0.2740625553131047 
0.2461009309268506 
0.18857756715695886 
0.13824474808565948 
0.1416784025946297 
0.1545057281757587 
0.18950010397899214 
0.22965478242401743 
0.28252496373857156 
0.06699377134964972 
0.3977382550565293 
0.4170720957742932 
0.14791342901377783 
0.16196864450667156 
0.08405783395452877 
0.06347707753640544 
0.4648884624115855 
0.20849865442009358 
0.42174518059927446 
0.2049876323722303 
0.548259267167523 
0.392496914540523 
0.2798026574876106 
0.1157216551685772 
0.09649685743727993 
0.03462175388349746 
0.06705932691097025 
0.4951643870936531 
0.4861914707514308 
0.471072539267172 
0.2284447980743952 
0.22248814528538638 
0.5571771864087041 
0.1390136777721103 
0.07177504501270447 
0.46376167096120996 
0.5121287552640001 
0.07261366178257438 
0.12771208780488166 
0.4585281702433425 
0.505648603973282 
0.20138515543067634 
0.089805940353804 
0.09818750065082381 
0.45455179780161387 
0.4560073114179903 
0.17184132767824098 
0.18244786222674414 
0.05283965774364825 
0.21657455640891685 
0.16764465923093297 
0.1355355642857223 
0.3020698507597992 
0.2843705427663899 
0.4637993066376474 
0.1874468951539449 
0.1038007815528004 
0.10864643663908541 
0.45420180396425675 
0.15297988653909717 
0.15911217746751816 
0.1244464741487059 
0.4071251547333731 
0.4557744857214646 
0.13982772328968515 
0.14640500309449667 
0.3924383749512577 
0.3723716884604718 
0.4650286842412581 
0.25651749489344416 
0.15146713939564727 
0.28785536711924165 
0.31732680104541766 
0.06841207376445392 
0.10706535699119875 
0.40046239133438977 
0.3115723793713464 
0.07333171968767709 
0.06110135957662241 
0.23173061919959545 
0.06062682719531763 
0.07071540422035126 
0.08650417026753376 
0.2291263064849933 
0.2342662277738932 
0.3218081982087826 
0.3221619809055888 
0.3998306383252951 
0.45616808727607233 
0.40904417232025725 
0.13275167227298537 
0.036773343597084215 
0.048550545305848805 
0.21181158120157226 
0.20152685561401573 
0.30126476984570294 
0.28424958644167225 
0.10822527815985296 
0.12165458093219811 
0.3589903222901752 
0.4205608011546202 
0.26198869131970826 
0.1039517051878272 
0.3426679547454342 
0.3032451844517365 
0.1742570133647963 
0.1813305084617011 
0.12568005264680282 
0.3921103783605408 
0.38990211041908335 
0.19355695553708224 
0.3092720823642214 
0.22975495418271163 
0.07502399817601121 
0.20531748625146573 
0.2285853172084794 
0.27333076785447746 
0.36198382325067524 
0.17529003780727911 
0.07078877873592883 
0.04890749656542793 
0.061375717788363565 
0.1599886539494018 
0.3153196012928258 
0.08227168033516706 
0.10546181495357823 
0.40569248917910256 
0.1361261424450322 
0.14038624772901723 
0.4528692419500969 
0.2992206436873221 
0.28408559439300296 
0.2249090448607203 
0.26024059725736415 
0.057343741520235206 
0.2451325296802514 
0.05968056423319363 
0.12075926751697462 
0.2221706721184279 
0.15733418621583592 
0.10391508067826918 
0.3528178727656138 
0.3337872619219368 
0.40553005228676 
0.06713457387018838 
0.4064467990483259 
0.12672445129421123 
0.09754166554509504 
0.1095414665725342 
0.3631256552756589 
0.4101891869569361 
0.16757529420663067 
0.13872587425170313 
0.15874233874777954 
0.37805827077523085 
0.2749511405098157 
0.18370955068689682 
0.25555043964136354 
0.11419618831858416 
0.2878001951794706 
0.27202137883653354 
0.16607684662229805 
0.3677927133891514 
0.4156485359210804 
0.3190291943499958 
0.20696838561236977 
0.01622354410478274 
0.13334074235260387 
0.11077238852600865 
0.236527802395282 
0.09313945608054262 
0.2679986255238886 
0.12861774014512448 
0.16465036192891974 
0.22550171174090908 
0.2443397499729044 
0.16755655656056934 
0.3320857014169808 
0.29833067689039533 
0.45649941060602645 
0.4095427013334909 
0.23493179637054293 
0.2521809707266456 
0.07116860781481912 
0.2195456675231465 
0.10626452739277924 
0.4493614859003098 
0.39304920416456585 
0.5476563455894858 
0.5513273740693321 
0.4100648525983993 
0.2925471286893551 
0.18986901156350117 
0.2931846203800642 
0.2912618653254176 
0.45407391481619164 
0.15519598151328542 
0.45514044129336817 
0.0807290338421608 
0.16216785829756727 
0.2789138830504995 
0.11818964663376756 
0.1901076105243124 
0.2685780704667956 
0.27057165567485253 
0.21110989936533595 
0.19907219401262527 
0.25807544938500726 
0.12323089045024377 
0.10470349476174605 
0.07930322418100236 
0.1300766466206841 
0.07641477344237053 
0.14443370112519147 
0.14905290355735112 
0.18733746520169484 
0.231079311672722 
0.2354531317293975 
0.09369506710231218 
0.08575378853688047 
0.35951343036760475 
0.10222373662278664 
0.05595531474043131 
0.3171466150083441 
0.1662747711918734 
0.4183893328037548 
0.22031431165673818 
0.25394839399265945 
0.13373380806507335 
0.32551718813322716 
0.3231190105730404 
0.23232815634889903 
0.24676491319182686 
0.14021079369602088 
0.1749748308745025 
0.29531930970327164 
0.2674984746061282 
0.15639499911539576 
0.3835242945746887 
0.1983456935024351 
0.10937532793580935 
0.3182406579664443 
0.25301920821552876 
0.37458584742781065 
0.3216018145298293 
0.2782640519422818 
0.29895991234225466 
0.3927582509608399 
0.4228771061562441 
0.27447564512114075 
0.2060781558504839 
0.4169049583573454 
0.14971529734721076 
0.28592855494852 
0.24194020835822602 
0.2521424136854037 
0.2640037516679613 
0.08206621720482334 
0.24124167467147817 
0.23940365613290035 
0.19914533114071697 
0.34673184227641196 
0.4039161949978379 
0.07828502464027068 
0.4382741116957244 
0.22196304746589207 
0.15531135812105937 
0.22731453758630032 
0.1865041981793697 
0.288787426297405 
0.11923365821288631 
0.18580689524666688 
0.15271848094610643 
0.14183509632638888 
0.24600272359513073 
0.15277954510437375 
0.24452649482640984 
0.1544939027409135 
0.21476419780194694 
0.2300689085066519 
0.08159941020686635 
0.08306241680112693 
0.11635681361742035 
0.1181728796376638 
0.22248609479697903 
0.1923750885001398 
0.2823526864073755 
0.2596069775857507 
0.21406999547110123 
0.007068847949828997 
0.038176849006211856 
0.07876667061229711 
0.20693751333363572 
0.2091841741511974 
0.17096738298806022 
0.1642464177759255 
0.11316481293665355 
0.10342051329955697 
0.286115653180723 
0.2899556240596956 
0.12291500560595539 
0.3762109601347352 
0.317800747417318 
0.3195593216129326 
0.3232300653646499 
0.3237976078711553 
0.37127894269893547 
0.14048927138194658 
0.09941509254691366 
0.095303228759896 
0.07856163144770709 
0.10545096286268091 
0.18544706322724505 
0.24026572376788996 
0.13995703693338205 
0.15289683562928652 
0.24996315861160906 
0.10481574186615307 
0.19667298338974165 
0.18601467213379 
0.31013139513431476 
0.29490608611124064 
0.22299491310858102 
0.21523722901993148 
0.3416358087964852 
0.11421248797421207 
0.25476100932803775 
0.26007119021047803 
0.14144305672884008 
0.1911528139574004 
0.19877112608722539 
0.09775311451522797 
0.11144574020706306 
0.17243235248784036 
0.19292346316567957 
0.24627385297089247 
0.19646389496699906 
0.26418425796094835 
0.2380690589615675 
0.019905210714792024 
0.18419301052052797 
0.2705121433750243 
0.07393926865553327 
0.24762543144436663 
0.18901613690465513 
0.20552870491422745 
0.16934478376950804 
0.2728202986758429 
0.18513732500746505 
0.17574184453284597 
0.17772999084593022 
0.16520305992179588 
0.08559167099661519 
0.127409949521766 
0.14396557322506842 
0.14332442649515534 
0.21082015037393256 
0.2348714491859299 
0.1886947116137702 
0.19430269086596966 
0.13244458550249844 
0.22690911055009538 
0.2283263807533039 
0.127399043952487 
0.06793458507750824 
0.4121016778161602 
0.11246545730928689 
0.11659508860496058 
0.11928836622289637 
0.10851629678264083 
0.12540429545359916 
0.1416885621687681 
0.2983762907750942 
0.2520075199201476 
0.09532036542785045 
0.2653288191686564 
0.3160792230257364 
0.10914823219742231 
0.11166403491698479 
0.10265721121611875 
0.19088672449474778 
0.32426963833414857 
0.3064537810859281 
0.1700732968432281 
0.2191251933586702 
0.24487702273441536 
0.14024830101740807 
0.23954067239902757 
0.27843111651462665 
0.13598405671502087 
0.14584781150920986 
0.1844326071422432 
0.22963697368491642 
0.18025670734248544 
0.236452719293644 
0.1497439205234381 
0.15999622208814204 
0.26846936515559466 
0.16817769487754486 
0.3497202714970517 
0.3983192146041538 
0.4661542978446404 
0.35396769884798074 
0.4098988908425454 
0.2913203069478126 
0.23277195991267524 
0.1368853706391482 
0.16499282491644307 
0.19902173515758573 
0.19745268055685108 
0.29660069774543063 
0.23934682909923388 
0.2127304016993151 
0.20638461114025602 
0.18287041333944112 
0.15903341434481308 
0.1678465658065661 
0.1877640374149019 
0.2798866237432248 
0.2176400006148205 
0.09874964741618142 
0.15768980890298973 
0.0911117651555153 
0.16138831025620587 
0.20003861185887975 
0.2305234963784212 
0.282716436507463 
0.15880601629313232 
0.35364188658396184 
0.1995602079365384 
0.3462526372184019 
0.339687232048592 
0.2073582417113778 
0.19637389133570163 
0.13373114295851013 
0.1641039353631055 
0.26683068337711197 
0.41681277319752635 
0.241321181996735 
0.15945961324774038 
0.19101536733305927 
0.13178283529363724 
0.14270864511053724 
0.16358084363272765 
0.08975265509945625 
0.1619541653758044 
0.09278426692874975 
0.07687562780316316 
0.21884850651908105 
0.1711666615211888 
0.16297495046091712 
0.20365407629734827 
0.14665032582215343 
0.20724158964226155 
0.2817460276601765 
0.16804955902075447 
0.1186167457215282 
0.09882501386026825 
0.10533693297561507 
0.1379710733628485 
0.13031837345070454 
0.19601029106639037 
0.22494325476053745 
0.22704310019793464 
0.44419982268105634 
0.32266054854005266 
0.24107124347595374 
0.1928956122306286 
0.13272897597543143 
0.17099297430363525 
0.29635045205837185 
0.19468050716147653 
0.16771562426177755 
0.11629458651218016 
0.13572031808151225 
0.2786390669586837 
0.11024492768201898 
0.12603372225307446 
0.24402144007318505 
0.14368643896687014 
0.2000454221365414 
0.208837598780541 
0.22092357424815248 
0.17818402620862359 
0.18735929390567652 
0.1362316220477152 
0.12822532379084992 
0.1429457314264591 
0.21755994027095402 
0.19410330266152037 
0.20346112178681855 
0.22874943384533108 
0.2225634646979348 
0.005259810825801977 
0.09278079982701891 
0.10127506043737315 
0.10253150492034055 
0.2475008555964632 
0.22637884468101666 
0.1696329123445722 
0.2908795320685697 
0.13084294526140025 
0.17484018123420964 
0.12869542242638313 
0.13321006616022874 
0.09208002039986066 
0.11256371946964298 
0.24112663824693154 
0.21819646410006557 
0.18679330789661305 
0.15200014225821834 
0.17857208293791457 
0.14725747128470973 
0.23707462864709727 
0.18441228124930312 
0.1577279235415518 
0.12227587811541635 
0.10376824986517538 
0.13335578778207888 
0.13036892226476607 
0.22652081013953465 
0.3832373314187001 
0.16674704065960863 
0.21900912926772534 
0.15189266756087666 
0.17420947326564418 
0.14134696243076791 
0.20088852373178753 
0.14261939388106556 
0.13043940692632558 
0.1320872269463457 
0.22545229776485076 
0.21605421527887758 
0.20937597994738286 
0.19744208596825027 
0.2018848109150524 
0.279184116692298 
0.29212356479009866 
0.14249334796622495 
0.15357757312192866 
0.21190279733910986 
0.19451938054308332 
0.2828837057551237 
0.1869521846428863 
0.21111009941104214 
0.19599329577695382 
0.18237695732938503 
0.1363399894970251 
0.22555743999969255 
0.22045737717089472 
0.1924836557641109 
0.16315502454542996 
0.10091211651432358 
0.13380311637447206 
0.13136832638276352 
0.1149484767686485 
0.22768911217445797 
0.058190956514072245 
0.14912686894984184 
0.16461604713365138 
0.05105982207092118 
0.14101653695996413 
0.20167497454786182 
0.20431513734600237 
0.14603977327985962 
0.15048118882365746 
0.16186739271613218 
0.2711511821442718 
0.17411874748479894 
0.19217376241231765 
0.2220977699892727 
0.13787037401338165 
0.18019056247751786 
0.23754352068847034 
0.20133749559227587 
0.13789228153770702 
0.15481987997816749 
0.20418540615791203 
0.2028278219265972 
0.22668820843955056 
0.16652136884447133 
0.13486576798646002 
0.158571867736246 
0.13000609644005964 
0.2026869131338674 
0.08615233213400776 
0.03902645269506575 
0.09987280875793263 
0.23357411401211056 
0.18205834535149024 
0.21031196045910128 
0.08772727061787476 
0.15259114184300787 
0.24675782357278947 
0.17230226383044447 
0.1367042527623583 
0.13623665931812393 
0.12382036703738825 
0.168077546204219 
0.21993009131212793 
0.270020325046206 
0.1476516633096515 
0.14241473003765803 
0.20344029412266168 
0.20098765179183392 
0.22101542085020476 
0.23050756836677452 
0.22960504722160738 
0.21317201827738622 
0.20929092796216747 
0.21729953493478243 
0.1366389751474005 
0.13234949435300503 
0.06518739601404441 
0.13473684123233284 
0.12984181483380838 
0.17861075466382625 
0.10318733547100421 
0.08641431399832226 
0.13628938026131962 
0.1450944364825463 
0.1845481642736574 
0.13243254256503958 
0.20932338944025955 
0.19483133487841472 
0.15943430887537838 
0.1851331888291924 
0.16600979200297045 
0.17391841533797978 
0.1537114039769566 
0.12876580515170175 
0.13015070260831163 
0.12027723076636979 
0.11121334719550474 
0.14936133312779507 
0.18461310417796775 
0.11781376497484154 
0.06821408272214828 
0.23312113400528295 
0.16217311180179397 
0.08587516656433597 
0.11255771289949637 
0.10818396885334511 
0.13654118316895458 
0.13388318425402645 
0.13186981806293713 
0.2096236114254313 
0.13357805810546886 
0.1086470121624137 
0.12368861378474297 
0.23072057699789741 
0.22067939352092006 
0.18939349361068994 
0.15835502281034036 
0.1340868254795438 
0.19426411895819476 
0.22306954280271402 
0.15000680890999285 
0.13570009776482528 
0.10127061800560745 
0.21403963991074954 
0.20889952560525288 
0.22690773791087682 
0.23207197258050832 
0.20099505140371607 
0.18560923518578756 
0.18650368558501457 
0.1029553801669253 
0.12666576587900413 
0.12300409776923825 
0.04741487255332801 
0.08341559919241938 
0.17408958811122804 
0.05482661356411369 
0.1584893476849665 
0.2741467622940169 
0.23567307094756054 
0.16531227614396904 
0.13990783463708684 
0.10981533689899121 
0.12069839218094136 
0.12567676046299878 
0.11880562890702454 
0.12833079237034944 
0.061282577090244615 
0.12456181776284156 
0.22379911873206645 
0.1274763182272679 
0.1298140757376859 
0.1993211151157283 
0.12050921958149377 
0.19002686002705016 
0.17888986574711457 
0.10937572193516747 
0.03602322121579777 
0.07466250248585647 
0.012625168909194706 
0.23074722120124544 
0.11810659680012535 
0.09342658068818713 
0.12160017871604856 
0.12791579650230323 
0.14582917544543736 
0.16959115577159925 
0.16907111272807626 
0.09093004026354314 
0.12666439966506454 
0.13219561951239198 
0.11152250449235873 
0.07344293591570782 
0.22233962046258993 
0.22592969469897756 
0.23349904641919814 
0.23304988860696293 
0.11909034939173141 
0.04732038354826578 
0.1186253508950371 
0.21833480882874037 
0.1372160143258709 
0.12506139268147604 
0.11702439992112179 
0.14781793168545135 
0.11708621054560009 
0.058235358777493834 
0.12216340822361868 
0.1582356428347927 
0.17104850046953982 
0.20518914977557334 
0.12126246952897038 
0.1217147796662037 
0.023488636896834447 
0.048994649728840024 
0.12484309767347228 
0.1250451987054641 
0.05626852072736854 
0.10006715407032712 
0.11816297522131952 
0.13038165414423178 
0.10563246618404717 
0.12050935414760486 
0.12865323341616577 
0.12852660985398812 
0.13428698038691145 
0.19308413573636146 
0.20099007844396166 
0.17395852823982802 
0.1400560085446979 
0.13478743893842 
0.11908472238800434 
0.12393032091296433 
0.20829641451817793 
0.22999046038739251 
0.20867662736877027 
0.1318897159436327 
0.13616777458959722 
0.22598194294838506 
0.21657214809850836 
0.23520662338092838 
0.05838468284027067 
0.026674430792734006 
0.12353151326016103 
0.16358709717583014 
0.13962793254239297 
0.12164336750107935 
0.21057416194814788 
0.03138370319608182 
0.11876740396682782 
0.11842826309771097 
0.10493693123735186 
0.11350545297839963 
0.13106779396400137 
0.140936258760114 
0.2313935778901707 
0.017720815627536378 
0.11035953031035356 
0.11614356825419415 
0.0660394723701468 
0.09433754863239179 
0.12124851255857948 
0.11917217659188004 
0.13122050863726048 
0.11744213969357062 
0.15287696868792708 
0.133683926151145 
0.1365795735317494 
0.01654822619578646 
0.13448834896958986 
0.19728564922699493 
0.1584285568230552 
0.06323595058490905 
0.1864724916609318 
0.00983027006091466 
0.12551181982053913 
0.2041965653641463 
0.2206483856927267 
0.08417259644681209 
0.1356534336878135 
0.21558462303432493 
0.2131484352699054 
0.23303587786163585 
0.14429508915314002 
0.1210687822960409 
0.10283568768702069 
0.10233202129968876 
0.11853459636476266 
0.09985166046461542 
0.11459300155552424 
0.11147866935868576 
0.1178766711259064 
0.13772113844023398 
0.08718350295792945 
0.05941274655116386 
0.23205181708450298 
0.21936870714518514 
0.13236223207418452 
0.1098286429928606 
0.0900722867551373 
0.1322571524465407 
0.12744439358341345 
0.12674150301863443 
0.1327805415527988 
0.1153458931868935 
0.17579977730798482 
0.19311099943754773 
0.047540599619094924 
0.11655094307023148 
0.07085377804971428 
0.0069823207687301995 
0.11429843928191476 
0.19064342406245233 
0.16495575916572447 
0.060000638738262224 
0.11427357055736487 
0.21911911430042955 
0.19130442395370126 
0.05726593818347714 
0.18651232045395727 
0.026314708743505236 
0.15941608673300023 
0.14468840544437775 
0.05142124299892522 
0.11226204793459624 
0.12752711440898465 
0.17057964913694748 
0.14421388233048224 
0.20536188603814803 
0.03438153113210979 
0.19544028694061832 
0.041805370944899854 
0.12249780117207439 
0.11848900300758367 
0.11842421451902042 
0.15257263338452692 
0.1825826494477149 
0.04023998630940023 
0.11370309143470704 
0.1225634262984064 
0.12062913819540809 
0.07785870115670769 
0.20140067581096244 
0.12041647012577557 
0.11760110112433986 
0.06448929832859306 
0.11776104306615241 
0.14630507789764766 
0.20832180996000016 
0.132176691953074 
0.2375405059074292 
0.21276604892459236 
0.1337162814753188 
0.1360011756164427 
0.1309024750628632 
0.051998587602256806 
0.23075167123691995 
0.22909918708704052 
0.2344999263164322 
0.12058284268737994 
0.11927275287461553 
0.21114175242976288 
0.18223289897575695 
0.12651025744743685 
0.12782233833848153 
0.12619494056346478 
0.17201538328287624 
0.0513852498940452 
0.12594272989796398 
0.23564351630756378 
0.14095711968641325 
0.1474078830753591 
0.06511099216681276 
0.18984132917861563 
0.19845671096336454 
0.025170003363436822 
0.21259520778853452 
0.07188705549918761 
0.11813821641679421 
0.10926729663881006 
0.23009935654209515 
0.23660923726093908 
0.2326852285829514 
0.20347577036956876 
0.007048567951635009 
0.04694506790996802 
0.13872710646305755 
0.07126448735818512 
0.06525834527468408 
0.20819934262697404 
0.19175289793254716 
0.22470868999622207 
0.20505913561569045 
0.013612279475330065 
0.059323675200054916 
0.22144826638804932 
0.17985296854188798 
0.19545004470019392 
0.22519222796378308 
0.22603815059100116 
0.2244222522225107 
0.2281301372196449 
0.2325892314108332 
0.23678252737760208 
0.17386232375195426 
0.1920254837211453 
0.2655126258078089 
0.18007720523247675 
0.014218454373389835 
0.05178138070919307 
0.2283912615271607 
0.21877572471747564 
0.20200352359189966 
0.2268053408359126 
0.2244649085604025 
0.23612791572660144 
0.22944163247320556 
0.237552944119089 
0.21616372352349136 
0.23241428040829923 
0.21195100141097178 
0.20283175137738377 
0.2196155664831897 
0.23303151308521752 
0.16366950964128327 
0.23350585109562685 
0.23700629395854714 
0.2229582434944673 
0.22665118999877013 
0.22278303259954038 
0.23339414033609457 
0.22649256073437565 
0.22806307281316168 
0.2244810648881645 
0.2234229498376933 
0.08143761539646988 
0.05103713538697319 
0.06324069136211743 
0.117097854422821 
0.10294055354492053 
0.26555559447166843 
0.5629076079884818 
0.20210157211489763 
0.42231171442515875 
0.08960073049502365 
0.5042014322153048 
0.5234626445935654 
0.41623304539006495 
0.08915324933817231 
0.09348780306244435 
0.397585273285195 
0.14483912263693235 
0.05989789889085156 
0.05729858876725233 
0.22075534963635132 
0.23364261598668198 
0.1865760339331576 
0.20342867330446707 
0.2597890606881315 
0.12299607066432663 
0.24528984110692115 
0.13782811400092415 
0.08674603732885165 
0.18063690432820032 
0.3239533569782901 
0.3230725217748802 
0.1523271638981904 
0.11473677762380839 
0.27109000889776746 
0.27248361509180397 
0.25645449576244933 
0.26873139241725114 
0.2632281045803915 
0.21378515766835382 
0.20848826831326647 
0.22435241294310684 
0.21789887369970093 
0.08096068600805566 
0.15145688251628744 
0.2015093207122637 
0.16512641157867539 
0.1298265844026229 
0.1916187327623208 
0.10595957797441072 
0.198595506210019 
0.3048217897887117 
0.25307704668252307 
0.1666435858193653 
0.17386868960887983 
0.2210559515167021 
0.21599697584261304 
0.23191615159407503 
0.2200981877088871 
0.18717052139094736 
0.14078563410051154 
0.14102179689479688 
0.14428609465226577 
0.10654521568266628 
0.12917079952432264 
0.10967952213484045 
0.12047940305186519 
0.2007684969985993 
0.08733811248229538 
0.09124294633113303 
0.20636827344359826 
0.19288076622970213 
0.12800335060910542 
0.09403194537467881 
0.09452888068469623 
0.15075267409475493 
0.13400406866818376 
0.23259019524253421 
0.10477593584847057 
0.10380291599991355 
0.13587802329243942 
0.1542215956621424 
0.21549704312325424 
0.1064119158873628 
0.18325704019364525 
0.2215149204111819 
0.20730646733608563 
0.22600894805140048 
0.2000018820002266 
0.13396981790852547 
0.15833630199359258 
0.21833018439275012 
0.22602735032165022 
0.13542940628722996 
0.13399306342457648 
0.13005101495632904 
0.21021290486460584 
0.15396377907101877 
0.14938524786830623 
0.13348751256527028 
0.12942157884318028 
0.12728874570029633 
0.12505736810626442 
0.22764437023035017 
0.12401931272946072 
0.03741185388500139 
0.1522315387278863 
0.14539324552162033 
0.1230297950942506 
0.1188019444650891 
0.12099857161747773 
0.1369306595075596 
0.09344321360668999 
0.04776084982805915 
0.012077304520197205 
0.12115747562660663 
0.23092546588622181 
0.181571706217032 
0.18444091676418564 
0.22554333524326375 
0.10873841611873775 
0.07922316111925512 
0.18866755693489431 
0.23524483713525982 
0.032746114568462534 
0.10271794172520368 
0.07856763956838954 
0.1542954068063897 
0.107282251441404 
0.12475761831387909 
0.0014507110966687456 
0.0009937469418919297 
0.025230700233589597 
0.05034643368765004 
0.09533354953313694 
0.10457642345577259 
0.12406265816765666 
0.14342511822071113 
0.1544916213243297 
0.1566527709619053 
0.2093165185072588 
0.2224138612133202 
0.22572429478702702 
0.23200225099514446 
0.26085840104366326 
0.23074007520227155 
0.21560960977998403 
0.20861350122761166 
0.1826499813679542 
0.16529933061755903 
0.15258596668271635 
0.10054221770219213 
0.03765167627841804 
0.03531515617757455 
0.029610884171280705 
0.04653813062886349 
0.06639089870905024 
0.1253486148248304 
0.141345396629112 
0.22465046523107154 
0.23417040209052073 
0.2811892131380233 
0.27752932542348757 
0.2542877337856128 
0.1663654035529335 
0.07152920514568718 
0.09617853418178066 
0.22280739588343126 
0.4166012357813385 
0.49872053685775264 
0.4970067980733939 
0.4974712227559809 
0.49864516456101804 
0.5406935283139022 
0.5437825490877649 
0.5544537013292322 
0.5640172778618541 
0.6080401762588944 
0.7656909494627419 
0.45124914710241426 
0.40474149952838095 
0.21457199786893144 
0.17757271997703128 
0.1382037138522459 
0.15402184837614416 
0.1668101574102319 
0.19184659147838057 
0.2557689144128755 
0.004632485973908285 
0.025264049563966315 
0.011756013571581129 
0.04692270107959221 
0.07342545722839258 
0.07822564798850311 
0.09830355589939686 
0.09493614182330075 
0.14648379732485206 
0.15601592822255317 
0.18305342175100758 
0.18652943477447623 
0.2111281570862363 
0.25917075422305835 
0.2721545219715675 
0.24849140995221042 
0.26335910987727684 
0.24701911543488678 
0.3336708566886702 
0.24599327492305476 
0.3381436937490431 
0.2595618223214365 
0.3397776601273793 
0.3252957821586483 
0.2797013517959111 
0.2987879444749324 
0.2536598760523797 
0.2802962687563705 
0.21330140594880875 
0.18203783430808926 
0.16338498027933862 
0.14309011765348872 
0.1233447827106072 
0.10406743844059838 
0.04623652558618633 
0.02972708089513418 
0.03716698555610174 
0.02163109200148609 
0.0013471801332749166 
0.0013409165433672676 
0.01609746362174906 
0.33325585344278 
0.3565323099042024 
0.302763541865884 
0.2422657986165933 
0.13977285448989 
0.041136518009530956 
0.09892564286211329 
0.25346759428637444 
0.35420274202678914 
0.4985284645556255 
0.5016652595334451 
0.5492698332203366 
0.3159658856324307 
0.39633077245774273 
0.41323961046771995 
0.3861743663472842 
0.3438353330428132 
0.46754793631856784 
0.34379359312083096 
0.47268601738943566 
0.3667137283602102 
0.3726084753747177 
0.27121653684460545 
0.05061596384891385 
0.0018238915945855804 
0.1557002519309922 
0.3058481417803735 
0.4086183048830743 
0.5017409913278127 
0.5389731345844497 
0.543084276636692 
0.5458651650147845 
0.5478539738629616 
0.5017738956000363 
0.3551849720342195 
0.25780995302143994 
0.15184392071455824 
0.008210902812954808 
0.16691960069786066 
0.18719383224871922 
0.3090977028235892 
0.3213729771801198 
0.47601259888702274 
0.4243650247142263 
0.37329283805980357 
0.2198713721129745 
0.125779523534218 
0.014897601199503606 
0.1753441572504142 
0.3217526581159908 
0.4122158653043706 
0.49988287225271427 
0.5238294946137523 
0.5324925624020024 
0.47805622810768406 
0.3738443351272407 
0.4732128410569427 
0.4669104206419779 
0.40692365003883335 
0.46843073761093484 
0.3655045964194586 
0.27134672736561266 
0.22123405040996028 
0.03964458763887055 
0.07104248657236976 
0.11393783643546351 
0.10665968208529036 
0.17707187167063884 
0.25059559475379 
0.358316656739402 
0.3671601674694266 
0.28087121452074293 
0.24403270157832327 
0.20642812927011758 
0.033903943378116745 
0.20837249238301925 
0.46943808640936135 
0.42478971591669384 
0.35710275401815816 
0.14718585940120169 
0.05502011193860648 
0.07911293663076706 
0.45936299646314716 
0.4518269640727708 
0.39327199079871605 
0.3224304698188548 
0.4495857255341942 
0.2273069390389688 
0.26189055446201803 
0.21236876158360404 
0.17882964568932763 
0.33852546655192556 
0.316443755746663 
0.4021930002386908 
0.12212446948069565 
0.23598731813402948 
0.3375784346414892 
0.4565462981978384 
0.33110927169290794 
0.3988950277597038 
0.5494294585505595 
0.503171110426139 
0.30218860962525407 
0.23038324180767547 
0.13047832790368696 
0.017349767597615456 
0.24467664967059669 
0.3391351802492426 
0.449242030851137 
0.5506384476042854 
0.551491967027803 
0.3554218001571597 
0.25543542018755755 
0.11587990702778586 
0.02313440416860142 
0.13204840917677724 
0.340381494061807 
0.3748819963254533 
0.5519179318921423 
0.5032093272081485 
0.44377253384663506 
0.34576727192111606 
0.19924095973349631 
0.07821735315803385 
0.31358478001517925 
0.8570055006272403 
0.5554111106786835 
0.3840910531333383 
0.2564020850247116 
0.15094089185748083 
0.13257667817651222 
0.13932104869488982 
0.17293087588958467 
0.4228667645417645 
0.37092072360847 
0.3048663079997847 
0.1591144577467499 
0.12482290273903925 
0.12582056030081676 
0.14664266297976514 
0.18801982600383108 
0.326932272218937 
0.2825642721492905 
0.2718072131752997 
0.21640375673239343 
0.15342810802338228 
0.12250956029638072 
0.11956253085591968 
0.136407966303123 
0.21264251946398918 
0.17597338085236477 
0.1478505488096571 
0.1276761766741442 
0.12289279668397682 
0.14242903749935323 
0.18332447147800116 
0.23610593530972715 
0.2454865617482401 
0.1924457453450336 
0.1597216825456436 
0.129776248871989 
0.13445098309712053 
0.12290011077679247 
0.15264480771403258 
0.16378464470656434 
0.19917232707874238 
0.23561291891427533 
0.2261019071146981 
0.20754262186048153 
0.19214876614963006 
0.17970698385549988 
0.17061723300539397 
0.17081884736703704 
0.1827968963964947 
0.09934722855231971 
0.040950554973150866 
0.2482370622806677 
0.3074898427437973 
0.15402429404665952 
0.13872398594731752 
0.13772662897352794 
0.13648276118877098 
0.14130528802372844 
0.16357614732196635 
0.14952334599432698 
0.14805316197608281 
0.16272594713288058 
0.5134351120343371 
0.32708240083736845 
0.18354117136993583 
0.1547794417830439 
0.14042943359613938 
0.13027429555973694 
0.13062605138803166 
0.14699829780150908 
0.14206266350670907 
0.3209342077211608 
0.24515322491893607 
0.18292781280113124 
0.14282060587136022 
0.13910762188817966 
0.12360154862774475 
0.12563843827279297 
0.13585766437864014 
0.17859719796893025 
0.14183425154185372 
0.12159772685322531 
0.1105907518726848 
0.12357464425615618 
0.011739058967191025 
0.02512217502345607 
0.05140758505612792 
0.05361193393859022 
0.04967578875452701 
0.09108872821354498 
0.12022429365042711 
0.10082081032406028 
0.12052543395047678 
0.1070876647090684 
0.06973027708667387 
0.08955257067859096 
0.06689267125484341 
0.08830370739281783 
0.20017282763622754 
0.292723741529198 
0.3100121030886067 
0.1305691511157589 
0.050961867809733004 
0.07131724268927855 
0.15125146329768643 
0.21708037490683824 
0.23655097200224562 
0.23781596784174375 
0.21892375143471657 
0.34111274534193897 
0.5951796429233331 
0.11961425716763856 
0.17943904070858102 
0.21748644414900653 
0.23761532535308985 
0.2327002800866634 
0.22833328389004973 
0.28334448330971496 
0.5246039290394983 
0.13899699178522043 
0.15737646854203582 
0.20181919591486563 
0.22159722742758556 
0.23499556860482992 
0.19596862798900505 
0.21896760800240853 
0.25354272583051957 
0.17758472220119503 
0.2086385424061092 
0.21711652807306892 
0.18456557157676065 
0.17765786155625665 
0.2059731409426232 
0.1684290859823273 
0.19386770422560262 
0.21086066882648194 
0.2048784152061823 
0.17271785411174329 
0.1445294360517894 
0.20125748676886193 
0.2063954156439208 
0.19448726461906338 
0.16502759208566137 
0.13256863043143452 
0.20293359745881062 
0.177623454951062 
0.16382266087246186 
0.22376741821353946 
0.19830567484734182 
0.21154943827379874 
0.09409994403673998 
0.06540223272276899 
0.037114591206936734 
0.09287070152311955 
0.18507970467051113 
0.22560738174046382 
0.237527931481047 
0.2231491670991882 
0.17437774266911174 
0.22617891220937802 
0.5615374846937853 
0.14354737498111506 
0.167255921410805 
0.18023855611063386 
0.20131971900032064 
0.20610536712547287 
0.2032506565721433 
0.20269404359444376 
0.1927591127474576 
0.17047523191914274 
0.1735753749971546 
0.17894766998609407 
0.14456808641015173 
0.13124238714197414 
0.09140689157685797 
0.07377378721825235 
0.13331876873414644 
0.19256676569696599 
0.03431885763737726 
0.05971868544560886 
0.22123590000488152 
0.13549792024208857 
0.13656217055064215 
0.13966928422602717 
0.137527483386541 
0.13468118371320167 
0.12251573439245134 
0.10563594436015177 
0.14637586264551264 
0.1547606895195739 
0.21386389245386853 
0.2304246155647275 
0.19656600808817193 
0.16422483229736964 
0.3543888834895522 
0.49977283734989003 
0.5474290672152885 
0.17468447837829246 
0.20158814985920434 
0.20872099620172718 
0.21633109558518976 
0.21704804380793327 
0.19675343615878757 
0.1464711626300986 
0.14417951250882022 
0.13747113042251002 
0.13298248145590436 
0.12900916578717805 
0.141597926902379 
0.12517270618326304 
0.11401431352485845 
0.09568117514921548 
0.13716891485399602 
0.1363572127926319 
0.12107470172483946 
0.1298505468979345 
0.13296672203737706 
0.13615258682986234 
0.13954068176431234 
0.13719774467891385 
0.13848173667346228 
0.1332275568104782 
0.11501356743496857 
0.14797724715281335 
0.13906621627367324 
0.17611942113991122 
0.22713715823777395 
0.21888337034681052 
0.20364219172171047 
0.15552624800626508 
0.21237028370389685 
0.33122585818688627 
0.48071769744235 
0.5168499309850058 
0.22554939347197991 
0.22709417012999208 
0.2317265301616346 
0.18674423329235826 
0.18037906303108642 
0.1200424139255782 
0.11879682049368256 
0.11526971564188228 
0.12017328165480853 
0.11911881472261658 
0.1185547803064569 
0.11954159381629605 
0.1092740564996785 
0.10800447205988122 
0.14503533243781097 
0.13855945467968558 
0.1272620141054192 
0.10241312947010343 
0.12232658925898696 
0.12566271080209365 
0.12507486051567548 
0.12966174054842478 
0.1422715712302259 
0.15013333525257241 
0.19694067864785364 
0.211076832274307 
0.2224853213772087 
0.2320908209756432 
0.2154135967357038 
0.18384735931124369 
0.19890386842592034 
0.3499143702343158 
0.446548974076428 
0.21061914570436918 
0.23975574444269368 
0.23668640209339054 
0.21884342009980076 
0.18491831351993715 
0.14812491580291823 
0.13872594690788292 
0.1323272565098398 
0.13472668871539376 
0.11989882559827077 
0.1177685129471284 
0.11779947248382623 
0.12763097282504324 
0.15978062201291485 
0.15314742121091565 
0.11693488906098068 
0.10654954908296575 
0.07956636180573799 
0.10460040845577352 
0.11754109705236349 
0.11027088847107516 
0.1320495480055223 
0.2266317462329884 
0.22533425492510661 
0.2446037506533334 
0.23304357471894477 
0.1671494938223245 
0.08824749421058839 
0.1040189496799852 
0.3388871693786742 
0.4635623105900099 
0.22943815597021955 
0.23073495244626024 
0.23551121298869834 
0.22939545873434927 
0.2338171137395922 
0.2244687783221684 
0.189675884316669 
0.20866129778190468 
0.1863172341837693 
0.17499109902700785 
0.17228197289727804 
0.14899652924773116 
0.126764684793688 
0.15041890745287673 
0.1720372590271164 
0.18561779597621028 
0.16609351918468243 
0.1269659664584258 
0.10288399145197556 
0.05183922955073201 
0.06247209463918558 
0.04458855951050824 
0.10994805600678115 
0.2502393556553375 
0.2721322255346255 
0.24180463261763024 
0.22375825423008938 
0.21912221073744512 
0.22906407345029098 
0.2077961396397495 
0.22474604976234994 
0.24298205787041052 
0.32093693486109526 
0.2406338300515313 
0.22884922426235335 
0.20517057497425947 
0.18484967646297365 
0.15350943435568665 
0.1875521018526632 
0.19947274827801553 
0.17807006865153122 
0.14002002202285538 
0.1278523941946726 
0.11499842251383223 
0.07272459209290073 
0.29559362635407366 
0.23190125625156993 
0.20588863099975052 
0.19674792325357426 
0.181136160968721 
0.1768778611327472 
0.22388018547769611 
0.30824278330701155 
0.2526381870922398 
0.24106193936099646 
0.21891302264873458 
0.21670177360244083 
0.19874781259157887 
0.25442993088340304 
0.32940675846764167 
0.1415929199938237 
0.1268927700517231 
0.15996902976341262 
0.2437447873589182 
0.40751182973306893 
0.265911910182383 
0.20115071176937233 
0.22894370138479686 
0.10123774949845944 
0.09676438506784833 
0.16559623608501658 
0.3048895672579708 
0.4984082957413821 
0.20861698974842616 
0.06868211906708127 
0.150821955916993 
0.09060214632658528 
0.14639164043554084 
0.34834350836348876 
0.4913168983112865 
0.22443262107975323 
0.10957658703982479 
0.08036500723469577 
0.1675056961405636 
0.29348290374283315 
0.4058091157506176 
0.21317926195266865 
0.22304628497411658 
0.12069776548842263 
0.033258402209063294 
0.21269825190118302 
0.13326783523663635 
0.32493915134640766 
0.43136089117947884 
0.37298852378481206 
0.1287649592071983 
0.15548871916140614 
0.30880678096664144 
0.2580844606262848 
0.4500739402676308 
0.4252960464930454 
0.32623064973823246 
0.3105414106734555 
0.17512913519971643 
0.05916704298812645 
0.022513978574664976 
0.13529641449920843 
0.2368891613932928 
0.02702931159787865 
0.17256371083023056 
0.2790513683486129 
0.448510013323313 
0.3131506842034623 
0.4173932465178114 
0.3689888609739976 
0.3151828271877704 
0.19926240906863124 
0.10682684044643044 
0.12873052944714095 
0.15709639827432967 
0.10867000170689967 
0.3672940580807931 
0.4671160085972071 
0.34206336503621476 
0.27933034578806504 
0.20478611675158745 
0.09563177399227814 
0.17640140101427593 
0.08190836827314 
0.2410413438065861 
0.20657182392571874 
0.35578909658250213 
0.5037768233354173 
0.3403700856821536 
0.18261293182949248 
0.1696479359616606 
0.009173389450645964 
0.10636044290038363 
0.36008866258685157 
0.3558134672440551 
0.5024523833311806 
0.332267159079623 
0.2778521800795604 
0.501553397879109 
0.5014884705060383 
0.34900400395477016 
0.07112679122632512 
0.031625321573201595 
0.15117038738034336 
0.16223926142833572 
0.24624408252802496 
0.2597971966246469 
0.2697388940714412 
0.05877213247451008 
0.13291281485779713 
0.030817054254354607 
0.06550169021310487 
0.3661749362753515 
0.2649729750537061 
0.1483578000855696 
0.03574052349504336 
0.458533602900799 
0.3942868999254273 
0.3342340089678554 
0.0761540203399899 
0.026401617903093574 
0.29457437252947977 
0.014579381130614215 
0.08468121497359037 
0.12539371715269365 
0.17278845244308857 
0.3269121113498243 
0.29576914675435073 
0.26863120383566874 
0.2166357370344015 
0.16284520199335603 
0.0019661906641476427 
0.020931959008524785 
0.06998157492847798 
0.12510154713277782 
0.19178517293318292 
0.25626586862172046 
0.2976430692760187 
0.3467235939365209 
0.4613174772997149 
0.41758103191535484 
0.42505599336610833 
0.42359114118027386 
0.3994407823125434 
0.410306187780795 
0.3770895259848751 
0.41480807986781076 
0.4201096373882411 
0.31864196966565145 
0.15444001636020832 
0.09649661760460287 
0.08997219147921263 
0.14835332699482345 
0.5210581073601452 
0.9721781790782754 
0.6531863324622112 
0.5801019475155144 
0.5486061952828746 
0.5395182306706285 
0.5456473045613908 
0.5486362906822737 
0.5504273538662999 
0.551877963150931 
0.5412638090475511 
0.6524548068850696 
0.24136683125141345 
0.20373253280652062 
0.17539433942098387 
0.1693402767360393 
0.17455153521093061 
0.3012780240346503 
0.3653421521715965 
0.7059716598334479 
0.21025369598129687 
0.1796685396913334 
0.08356853597306066 
0.022180010343134368 
0.004574413372109026 
0.0009760182641661791 
0.0060198368048223795 
0.014506787547865743 
0.05187807718731603 
0.08893359370457442 
0.08735354268946209 
0.11426630060925677 
0.16830574974813886 
0.2113779601014815 
0.18427032394341752 
0.25313142028087954 
0.3080380097599653 
0.49726859203771434 
0.6360379965783425 
0.6057305500319543 
0.021632482643467822 
0.037338793483695114 
0.033782937980327055 
0.06203681355554975 
0.06314959235937492 
0.0852337980046217 
0.11079392399711845 
0.11157893229576832 
0.12808620340912347 
0.16538510232832757 
0.1423441883209576 
0.20067547027641142 
0.21727951996132716 
0.2319081788761796 
0.20556404616866542 
0.22053597933720587 
0.2849756504780266 
0.23718053063975877 
0.2982809995529545 
0.24756961697099394 
0.2542525337446142 
0.3381925317286267 
0.2621882510889943 
0.29655131893174946 
0.3333588390271034 
0.31392995736756885 
0.28713382326239895 
0.24659911306972845 
0.2589877981933878 
0.23535483384602354 
0.23683649324598988 
0.18875468609040666 
0.13773559421287115 
0.11246141284986619 
0.09106637965808781 
0.08581383288298594 
0.016596598834924918 
0.07693089922331019 
0.006774209993246065 
0.008857075848936306 
0.006497470220369654 
0.3777174418150735 
0.28521337553196896 
0.33209013022193384 
0.42802430793864493 
0.3602404931183077 
0.44007667864890526 
0.35800805912536876 
0.47766724619276285 
0.3709146652950976 
0.47817015884232733 
0.4775781494124127 
0.42572836040527307 
0.47603094180875405 
0.46952632686889045 
0.40687032606812434 
0.4031050763429545 
0.46751145041164716 
0.46927150515962174 
0.04787690394515613 
0.143782361934509 
0.21281306966587765 
0.19899669342420304 
0.2911309849696905 
0.2816416554640739 
0.46834689523088746 
0.46505136170180295 
0.3831775597879616 
0.12552850161634896 
0.42278964566977195 
0.4447563300445482 
0.4374918676437869 
0.38797447878310515 
0.2700371747483213 
0.38700191940815015 
0.45579253472851916 
0.39198277627172684 
0.2559933724392311 
0.354682940079862 
0.2645649447866151 
0.21886108434047524 
0.037563251884293304 
0.09997325421492055 
0.11137365237938544 
0.06599781882628357 
0.12181433192697565 
0.31934819588825525 
0.2734031768953148 
0.24577785845885872 
0.1888091923467537 
0.14152075414628515 
0.14369998444249135 
0.1583894242224873 
0.18960073315011786 
0.22945379898492052 
0.2815751286937854 
0.06891594642184763 
0.3969250354105948 
0.41704748995611274 
0.18955036217735297 
0.1690011604882289 
0.08853736985114659 
0.07625603698173371 
0.46785296938855814 
0.20889313704618692 
0.4346807393502873 
0.21435056186747803 
0.731866876813224 
0.3944718328226195 
0.28535177136325135 
0.11837028389192068 
0.09889971696768578 
0.03597970133511025 
0.06910750503422619 
0.4953972669768899 
0.4869516844505624 
0.4661997134756237 
0.22929976759368226 
0.2240381105526439 
0.547518709570665 
0.1466106289931656 
0.07062033697894458 
0.450756148259089 
0.49527654587573355 
0.06725936119596591 
0.12383877398039607 
0.4576972958045703 
0.5014658880553663 
0.2020778609243312 
0.08706390719360317 
0.09664241243564668 
0.4549607937837717 
0.45619846922575735 
0.17213334345633632 
0.18279408826280313 
0.05367581745462747 
0.22596241805837125 
0.1681411438840215 
0.13769474976114682 
0.30163324171929234 
0.27393476815257856 
0.4344085819678763 
0.18059856345959638 
0.10280481970723816 
0.10787937728532605 
0.4543707912548817 
0.15317560870171118 
0.1592732839652659 
0.1243135195231122 
0.40718849249972744 
0.4557601314730232 
0.13993062164246545 
0.14659008140412805 
0.37089293294375514 
0.36679693223290927 
0.45688888010305523 
0.25719573072938823 
0.15342662342381405 
0.28820699059889676 
0.3174817728732591 
0.06671548925237127 
0.1047191536833154 
0.40711553195500105 
0.31555931731539383 
0.07460374720298786 
0.06216042133088242 
0.22391212461115007 
0.06175863333501389 
0.07215694597734458 
0.08789507833180668 
0.2283502851258831 
0.23341914750696377 
0.3215036752552366 
0.32186134769876296 
0.40024750611405147 
0.456185174873426 
0.4091298533486538 
0.13270428984339294 
0.03735546230724051 
0.04937135556325588 
0.2115764630559768 
0.20146633664005273 
0.3008850591356427 
0.27590052334920034 
0.10782987417364961 
0.12154265489783267 
0.3446199706977791 
0.40794213444147026 
0.26256472117510127 
0.10614855337285709 
0.34293411943542906 
0.3035171373134025 
0.17466207589903304 
0.18166258091321894 
0.12153733948293916 
0.39356277095008285 
0.39103482216360913 
0.1946647092733784 
0.31778775950260546 
0.2213633783881918 
0.07613484464967969 
0.20476503922648126 
0.22778031118117692 
0.2730920963169079 
0.36257545443855016 
0.17587768407894647 
0.07056821417841944 
0.04322965618294636 
0.05972728311878338 
0.16039083987760464 
0.3263256825951046 
0.08070561842816908 
0.10494593351330818 
0.4059655133916318 
0.13618458267925326 
0.14044793908229083 
0.45280426344498415 
0.30084048263312024 
0.2755824797778593 
0.22448244928055952 
0.25993716901809427 
0.058228854160345636 
0.2538417548974145 
0.058800146437493914 
0.12385414226837717 
0.22226120144844366 
0.1596053849003493 
0.10521886766676374 
0.3526352864552786 
0.3265817190150906 
0.4056746405160527 
0.06534010031060564 
0.4068688196130962 
0.12695883824231718 
0.09908139971502015 
0.11147903266051416 
0.36369138539600615 
0.41050388133394033 
0.16801538696950294 
0.13907996382568877 
0.16387718434649548 
0.3790446008927092 
0.27284334706006974 
0.18519088290044192 
0.2617686832330577 
0.1141070216538684 
0.29506372607138576 
0.2790838055511226 
0.1669773234953727 
0.3673738629493243 
0.41280891531510405 
0.30864007310396385 
0.21348594490574407 
0.01896133577967352 
0.13667019461983732 
0.11341863817400484 
0.23618007172412775 
0.09452369983545006 
0.26831684050767624 
0.1306692637200614 
0.16699589615060337 
0.2259160240152116 
0.24445383932932216 
0.16808409810666192 
0.3434414406473811 
0.3066812652505698 
0.45890120281543084 
0.41303421827702597 
0.23737163208821968 
0.2546588543293446 
0.07241521310323297 
0.21468498026037977 
0.10802098501460562 
0.44964548122385045 
0.3933286503732397 
0.5478227875656397 
0.5513001389557324 
0.4100187041430484 
0.29201353474531383 
0.18973900688274326 
0.29284868475918646 
0.2870929518672885 
0.45439377338705456 
0.15547880377266163 
0.45518892686456197 
0.08223542002712518 
0.1624660768595993 
0.2787740382737134 
0.12196494915848896 
0.19673550949185528 
0.2683809923916953 
0.2703037062844361 
0.21057333815822732 
0.1967249860895592 
0.25778163268645055 
0.12517225354801373 
0.10629354556525558 
0.0787233185451463 
0.12926308254721672 
0.07790654520326375 
0.1453961099460476 
0.14996432494917056 
0.18967928848616408 
0.2326838338598585 
0.23700363506763147 
0.0952525053079693 
0.08719308887516243 
0.35965973890145464 
0.10174846261264948 
0.05601483392540076 
0.30985663741733266 
0.1676192242413071 
0.411280905980236 
0.22020898878061923 
0.2530279641508053 
0.13600622457530515 
0.32534472823761695 
0.32291928986509394 
0.2337940440417514 
0.24753089087466215 
0.14244696496523737 
0.17698183111738852 
0.2953258993405795 
0.2677331753280541 
0.15705089105969358 
0.38359091173592097 
0.19846758032924827 
0.11157542797190975 
0.317862541360459 
0.2521861574516477 
0.37438237846073885 
0.32132958516199794 
0.2774706940804599 
0.2976802911334081 
0.39187867606036186 
0.42238400713380336 
0.2740471098143325 
0.2058185330080573 
0.4211237349741488 
0.15012996725749428 
0.2846070075602495 
0.245220202284951 
0.25187830573931935 
0.25882356732721573 
0.08346885521555833 
0.24590599437699717 
0.24477925124607874 
0.2019327384051356 
0.3471602464394124 
0.40442795434258133 
0.07843099763219918 
0.43841229898912804 
0.22181203356915408 
0.15551309243834882 
0.2271186084353444 
0.1861614347118649 
0.2887841905379487 
0.12116488333742029 
0.18609089115837674 
0.15345764034524373 
0.1427602015924867 
0.24635918418818092 
0.15511098646289884 
0.2455363995150905 
0.15688159492943862 
0.214853757718257 
0.22943109260945238 
0.08113147234099878 
0.08253074641848683 
0.11660211224388058 
0.11854759691576601 
0.22164201540018902 
0.19432007023668357 
0.2832936342638981 
0.2600631272461146 
0.21874880865503868 
0.007760161886389352 
0.03771817539991289 
0.08052724219898821 
0.20744857207888914 
0.20945811788955643 
0.1735065218137711 
0.16678507348896673 
0.114623982985637 
0.10492754348517898 
0.28606929775316153 
0.28975669239313756 
0.12513625557404215 
0.3755491373870443 
0.3178847790412456 
0.3157216662189124 
0.3236114273270194 
0.32347452666733745 
0.3647698450949697 
0.14128813396783288 
0.09915604384419852 
0.09459604911712381 
0.07998983180314749 
0.10745183910095805 
0.18721230153417648 
0.2412715182914246 
0.14097746890045595 
0.15353506497598135 
0.24998185230179745 
0.10648745099820509 
0.20241778148507547 
0.19140158657275974 
0.3097086181812184 
0.294404138174782 
0.22233481774054017 
0.21465716682495392 
0.3413083717394972 
0.11575803555448921 
0.2547630185002514 
0.2598358240467938 
0.14438485830826162 
0.19380213811688682 
0.19959495051283413 
0.09930231853220813 
0.11308914231132207 
0.1677739200120682 
0.19389405769186963 
0.250724411162892 
0.20089328102210272 
0.26654996959410404 
0.24328200952031745 
0.019661978900822597 
0.184411540631046 
0.2705692800085296 
0.0735083740360622 
0.24734176037103578 
0.1889370756540592 
0.20620410470916506 
0.16969306395096426 
0.27256474782190226 
0.18488031478433598 
0.17581499699618175 
0.17802433455428657 
0.16746854511605566 
0.08558282363892387 
0.12730000487401916 
0.14502200608384067 
0.1435331376425834 
0.2108976421786723 
0.23499966569080546 
0.19110141004952172 
0.1965597312668369 
0.13452367258279585 
0.22878826596982693 
0.2303684501658679 
0.12945430128965457 
0.06508720796878521 
0.4150095087958094 
0.11379753151711319 
0.11816756436532472 
0.12162741660933929 
0.11036067755511093 
0.12825622402314682 
0.14525689553854118 
0.29871220753427863 
0.2521516102015379 
0.0956806861956506 
0.26578087730561756 
0.31649466884660943 
0.10942508285289942 
0.11208580676016482 
0.1028976379074993 
0.1899940551168844 
0.32437800853092646 
0.3065816564927009 
0.1704946285933609 
0.21948180305421144 
0.24534498281551093 
0.14077347462198553 
0.23939307941760096 
0.27660329416885837 
0.13688722413666154 
0.14680157215477782 
0.1866057880457798 
0.23142770653500086 
0.17952526277599112 
0.23589563110433437 
0.15097005357371734 
0.16036697335946132 
0.2691408922880347 
0.17160389029108997 
0.34969300299603284 
0.3986618068482092 
0.4697941772514336 
0.3560724267438168 
0.4091789920293043 
0.2901952472736419 
0.23267077605226888 
0.13917029189506486 
0.16737819680987223 
0.19911481142824453 
0.19559150007605133 
0.2979536891480118 
0.2436359841410015 
0.21724828781117778 
0.21031441795764083 
0.18262667998586896 
0.15896259013220165 
0.1676989643856173 
0.1879638991338585 
0.27969110195790264 
0.21745136729868444 
0.10044578417975861 
0.16201742438469266 
0.09118206747888356 
0.1619176722524598 
0.20111242743285726 
0.23139550993861377 
0.2830814392018103 
0.15889930042573716 
0.35608757933455254 
0.20205738141295784 
0.34663090654791984 
0.3395352296394107 
0.20804736497323967 
0.1984326907938205 
0.13317390755593017 
0.16723077930286226 
0.2728590813451 
0.4205755281266448 
0.24143910412461222 
0.16009008688912493 
0.19155721651058227 
0.1324597243439908 
0.1432099501435695 
0.16794134081242348 
0.08951026688936276 
0.16205791557682964 
0.09369205868981663 
0.07619853106715943 
0.22027695372076095 
0.17165125142695137 
0.16329490500817945 
0.20390749131108868 
0.14690003048381542 
0.20730499915917378 
0.28227398072200066 
0.1683101454602947 
0.11916790644962834 
0.09888010754196053 
0.10140588209236874 
0.1390706159340331 
0.1305316498151551 
0.19845938538209415 
0.2272510750639163 
0.22923614787570665 
0.4443897200298652 
0.32300279161575585 
0.24171610302448757 
0.1965366372617982 
0.13477648168738549 
0.1714146412617972 
0.2966611826484401 
0.19571927016090343 
0.16909171538731987 
0.11731163652998318 
0.13679100612009942 
0.2785450488647153 
0.11117833516048081 
0.12802586809909539 
0.24452952864136449 
0.14582932885736466 
0.1999048918591143 
0.21052273859827295 
0.2226377119486799 
0.18059942084804567 
0.18976581800328174 
0.13715872870910384 
0.12981219665197746 
0.14575819272215476 
0.22015305084221506 
0.19655228892283078 
0.20530507957499464 
0.2337188880184437 
0.226644302949295 
0.005455934972158267 
0.09282195216207709 
0.10178960642807859 
0.1030867275128604 
0.24765115250858227 
0.22255402273518943 
0.16974514484587672 
0.29121518028512383 
0.13136401322103225 
0.1749803410253502 
0.12937081259979039 
0.13308690251517843 
0.09247666831029226 
0.11318556016120619 
0.24151791642894452 
0.21117029333110202 
0.19169923970623176 
0.15178721999825306 
0.17847793983565233 
0.14733058742344377 
0.23674505889260342 
0.18412592258853724 
0.15780526315245216 
0.12297999785945814 
0.1042186458099535 
0.13458643554383504 
0.13060584634020134 
0.22912168477783762 
0.3834069810417666 
0.16659687990100921 
0.21935917142280625 
0.1538451289460995 
0.17659161781078136 
0.14158815072214467 
0.20137156515618254 
0.14473308475063748 
0.12999417015823017 
0.13327907875638303 
0.22546456850199217 
0.21600439840147903 
0.2116624755647169 
0.19923418258865033 
0.20481894789291252 
0.2803189101441697 
0.2935704934468152 
0.14533363858099266 
0.15423583690768425 
0.214016465982692 
0.19602295823427365 
0.2828639193423335 
0.18934208733010388 
0.211194656784417 
0.19652664599342862 
0.18272557470313452 
0.13758730455011972 
0.2254892437217311 
0.22270375911049323 
0.19491557626603956 
0.16765700313073126 
0.1007682948795205 
0.1337377346888105 
0.12972519940578747 
0.1117645979013333 
0.233011323901505 
0.05831085618288148 
0.1500687017701675 
0.16438116887004223 
0.0509103384548444 
0.14175426465591168 
0.20180473771627394 
0.2044110920480327 
0.1470386759053037 
0.15299057708400507 
0.16479038747114746 
0.27150526096187705 
0.17508664294842408 
0.19254420112562073 
0.22183688835487525 
0.1416834117960657 
0.18105112805565998 
0.23810572790821433 
0.2047790861250312 
0.13916946104339217 
0.15474132927721146 
0.20650140478200565 
0.20482876909440803 
0.22909710953298842 
0.16660228692164325 
0.136617464776584 
0.16076189890089962 
0.13141923596755817 
0.20409871140607214 
0.08538545000542783 
0.038790273521163994 
0.1001399533584815 
0.23218256009806806 
0.18236748178060977 
0.21064783236392337 
0.0876313286269999 
0.1531362075344359 
0.24745167799820122 
0.17491715556152582 
0.13824647528469014 
0.1379166586510792 
0.12349729063156274 
0.16807522987455967 
0.2224332511790479 
0.2699316572456083 
0.15087499211842242 
0.14506750858826434 
0.20445261496165765 
0.20258905365795643 
0.22346409927313918 
0.23310626660589343 
0.2321070904332461 
0.2155283250676517 
0.21182405763717294 
0.21983844280849701 
0.13790708371478155 
0.13222780017832717 
0.06540666948675103 
0.13582394364029016 
0.13090259507978358 
0.17589508914423496 
0.10304060776427083 
0.08630492684216448 
0.1371335341348311 
0.14584746480352362 
0.18588988636867504 
0.13286623899022462 
0.209519056588613 
0.1983009738731377 
0.16148117630004527 
0.18486048601474828 
0.16587390701849755 
0.17378055010830282 
0.1537211356176501 
0.13064335672070435 
0.1323909075843978 
0.12200471912286769 
0.11293389379299973 
0.15146996044982985 
0.1849686050794677 
0.1192941757124738 
0.06841654298733497 
0.23347200400375664 
0.16244769283186664 
0.08607000806171186 
0.11341608164854518 
0.10890623728591514 
0.13791986907514156 
0.1353768205539722 
0.1318227398655033 
0.211759302096412 
0.13557769782332424 
0.10897622832585528 
0.12451743205547136 
0.23343744348182707 
0.22315180481393984 
0.1884687937216981 
0.15987166271481387 
0.13601366958509795 
0.19462881563877998 
0.22346570878227284 
0.15371348899800916 
0.13702720663385265 
0.10112682994344804 
0.2163687774449153 
0.2110857883881399 
0.2294785147434017 
0.2324321762934527 
0.2012638131229232 
0.1887355403953114 
0.19032272492897 
0.10317918057747345 
0.1271904811283172 
0.12368859552264676 
0.047632678386065073 
0.08357487411753386 
0.1753938874976693 
0.05458390127487679 
0.1588198411718683 
0.2745675001801405 
0.23641066784346684 
0.1680023000122309 
0.1421261867248388 
0.11050542173665662 
0.12203539854452548 
0.1265779277966274 
0.11979903213934509 
0.1291340330159813 
0.0611942279566501 
0.1255728886929964 
0.22661184286934793 
0.12848546589768584 
0.13079982015865102 
0.20177758441991245 
0.1217874822640298 
0.19137229854353593 
0.18050315221655822 
0.10919864395402515 
0.0358995283405248 
0.07486431847053059 
0.012787173036635778 
0.23337756215895994 
0.11808782856427959 
0.0933140194142226 
0.12258184243471011 
0.12880255758209425 
0.14768788732405802 
0.17125688928403815 
0.17069447984902866 
0.09117942292901418 
0.127803394168725 
0.13345118689054125 
0.11192777163005269 
0.07324665258854644 
0.22487032141988808 
0.22852176031311375 
0.23628797963632045 
0.23574600529561918 
0.12063213414887149 
0.04730892204975355 
0.1185711200979802 
0.21866084093201538 
0.13930395620455213 
0.12657664769482 
0.1181641428937974 
0.14807801394512932 
0.11815079858773064 
0.058308923505738186 
0.12380411051480376 
0.1602849677035534 
0.17331307314663694 
0.2073330951363258 
0.12227351721131394 
0.12270892850937216 
0.023289981287266594 
0.04887607196370121 
0.12619975554277463 
0.12585054432000398 
0.0564432860433157 
0.10052040650859967 
0.11905106913101195 
0.13104134806457873 
0.10578981803422778 
0.1204217186364768 
0.12910269178497666 
0.13051357113876735 
0.135190883728466 
0.19472181484086176 
0.20288538335665496 
0.17648010608590964 
0.14207071829821977 
0.13717652807217706 
0.12027258770410405 
0.12477683168171683 
0.21069495811949743 
0.23272237770290463 
0.210855036144152 
0.13178635947182765 
0.137704005859628 
0.22863059901065005 
0.21911008785506048 
0.23798129630871925 
0.05862421286668334 
0.026703224187379603 
0.12456856841783505 
0.16546889623304964 
0.14106455007311805 
0.1225656940236402 
0.2109735812243453 
0.031478803168670154 
0.11965017678424356 
0.11862437140151814 
0.10543892113167308 
0.1142550529747851 
0.13280955770516115 
0.14333147359805015 
0.23411777119586025 
0.017621449401472845 
0.11059837954917667 
0.11740287226577804 
0.06608608869733848 
0.09454500074977137 
0.1226155405527484 
0.12014106833780562 
0.1313541389784887 
0.1175841138528236 
0.1550562753439433 
0.13525794776812486 
0.138211582160407 
0.01643950389318661 
0.13560780747534965 
0.20123723895802573 
0.16098634226863176 
0.06319373783882207 
0.18798258380569682 
0.009774941695965511 
0.1265259698129716 
0.2067338608756477 
0.22326197345895804 
0.08408900159362254 
0.13750477631368285 
0.21840002163089917 
0.2162694138091641 
0.23578453385223758 
0.14462563954216565 
0.12202278787542031 
0.10368384616625859 
0.1034058471754595 
0.11970147660515208 
0.10011279781432401 
0.11537643528271087 
0.11218367647135305 
0.11878787238100835 
0.1395947234854926 
0.08699121100830715 
0.05929773810514246 
0.23477481907683162 
0.2219083143024944 
0.13272748825390238 
0.10987526297155925 
0.08998467862837901 
0.13258181909607733 
0.1291236046012588 
0.12770190005604068 
0.13439397469892173 
0.11666758552709892 
0.1778965139209398 
0.19588234386297218 
0.04747687694106664 
0.1174251868726123 
0.07090571084010197 
0.006841136994408927 
0.1145782329738516 
0.19245455571692885 
0.16707462272678056 
0.0597886299901297 
0.11539098289358878 
0.22306624236062725 
0.19152450671788235 
0.057487680387193506 
0.18719682704535062 
0.026540215822145732 
0.16106778289736018 
0.14615093611782953 
0.051539410441541395 
0.1121808358970182 
0.12930270038866026 
0.17349340176218372 
0.14637849233434908 
0.2099469030644852 
0.03455443075898052 
0.1975423020566189 
0.041729373310205674 
0.12333968278017778 
0.11946970316038094 
0.11939520463928811 
0.15430037333265706 
0.18508939661144463 
0.04043572724690103 
0.11512187098761105 
0.12316250575240074 
0.12136726842596998 
0.078386393870917 
0.20381366056783856 
0.12137566020129524 
0.11850628894306535 
0.06459075839988072 
0.118745108071439 
0.14582178638483617 
0.21072683320910465 
0.13345651862233507 
0.2404434497764017 
0.21636817742170245 
0.13548311454455678 
0.13779217041190464 
0.1323571325292712 
0.05201690146106779 
0.2334960912466211 
0.23213856404600552 
0.23734748121603472 
0.12174122960132795 
0.12027352820398483 
0.2137184371552581 
0.18234902843277984 
0.1276601951739535 
0.12909231181907943 
0.12609644133915943 
0.17197097903294162 
0.05114728465245707 
0.1270684873029513 
0.23844641588119003 
0.14116664913508417 
0.14770124166440007 
0.06524006252551792 
0.19277158454170926 
0.2014393869539657 
0.025127602664282763 
0.21528554154292506 
0.07206333507074458 
0.11901149326451821 
0.10986830731489021 
0.2333696016728258 
0.23960760631859968 
0.23552031257884098 
0.20663099787907366 
0.0071534866115661455 
0.04713480996581137 
0.13899130401419577 
0.07155728510687162 
0.06534246444568434 
0.2111962700309496 
0.1939952613424181 
0.22742131631812962 
0.2077198389546823 
0.01359618370641682 
0.05947364113383731 
0.2244175287212095 
0.18258608915387808 
0.19798110545172534 
0.22892301799793152 
0.23112707172584734 
0.22842924533973344 
0.23177814690178594 
0.2357122967061854 
0.2396241618058905 
0.17658353687609973 
0.19167693596479485 
0.265191803344499 
0.1799104431523375 
0.014326940892909527 
0.05214598170000914 
0.23124234219011264 
0.22146347549140813 
0.20147933503290136 
0.22666714802645416 
0.22856172583424886 
0.23922333315937483 
0.23218077602356868 
0.24047027474198995 
0.21916081445622143 
0.23572480359272185 
0.21536321952946444 
0.20629927987685695 
0.22294498564827311 
0.23630401294768222 
0.1634931854784078 
0.23866968710493283 
0.23989000597186344 
0.22590170322236247 
0.22987517290551282 
0.22780542354194966 
0.23657599488006198 
0.23166614950271217 
0.23075841252569182 
0.2296597764537562 
0.22795072081387271 
0.0817755385644246 
0.05251407833954581 
0.06083827567710387 
0.11800077836078401 
0.10454926791356418 
0.2679799880743928 
0.5718899149912868 
0.2021579691381209 
0.42242121247883463 
0.09121690786304851 
0.5066604993300913 
0.5297159384162006 
0.4000615724516201 
0.08806860014716839 
0.09529838765541901 
0.3975411274145886 
0.1484571499083625 
0.05568647732834272 
0.05390663542604848 
0.22047698412434708 
0.23312462454471097 
0.18672743114653667 
0.20304696875147357 
0.26616969189423595 
0.12564079097720032 
0.24334085679098144 
0.13819571680585874 
0.08633609938713119 
0.17975191238814028 
0.3217734616008358 
0.31730190452029966 
0.15318120061453488 
0.11483773241586225 
0.27078918526055973 
0.2720315741731214 
0.2561465232573057 
0.268586414617901 
0.2631200324379951 
0.21345218730694318 
0.2083696419625182 
0.2295151658714381 
0.22297091886370993 
0.07990738301088199 
0.15545911321640837 
0.2030301372713955 
0.16488625760283468 
0.1322977757729281 
0.1924766224138202 
0.10748489617839484 
0.1985646682024065 
0.304967948105067 
0.25329283325124463 
0.1689990636100623 
0.1737686383499845 
0.22094365980531 
0.21583172448407922 
0.23239213120826246 
0.2251589361685624 
0.18817497125417557 
0.14181409826053296 
0.14210740653866805 
0.1443479592366528 
0.10664821888574944 
0.1312717466684399 
0.11147942602430645 
0.12239735326625532 
0.20194399133993177 
0.08661433832150454 
0.09086649534336656 
0.20898262485770466 
0.19545365648790874 
0.1284074345782733 
0.09354513693340497 
0.0944587997106705 
0.15089048829293922 
0.13447805606623117 
0.23250365592190333 
0.1049707574265798 
0.10387917961580552 
0.13626173719864984 
0.1563623403171436 
0.2178214647247376 
0.10678595850044216 
0.18607933667210283 
0.222354833063032 
0.21132026102841917 
0.23134802337300192 
0.1998140234829905 
0.13598596383897912 
0.15937530992816445 
0.21948574949122993 
0.22801386351499883 
0.13542550119217261 
0.135479216379587 
0.1310387445463333 
0.21065431709624965 
0.15627813060725312 
0.1511952856541094 
0.13442701852712682 
0.1316954435698224 
0.12894921450588412 
0.1266779485445355 
0.23031766663132278 
0.1253696640604655 
0.03733280797082765 
0.15313612927280862 
0.14657198590455006 
0.12417211734349552 
0.11990852247477898 
0.12224162086140185 
0.13868866316447281 
0.09335891220116503 
0.047779001745139126 
0.011954597974809576 
0.12231428808230577 
0.23131811514545148 
0.1820294209923115 
0.1846434560681816 
0.22597147699202264 
0.10942380397939531 
0.07931343605112698 
0.19105259650783213 
0.23823056501213435 
0.03275174965237465 
0.10374287473403228 
0.07848055896897065 
0.15410711396020038 
0.10826660157826029 
0.12619209783359542 
POINT_DATA 12174
FIELD FieldData 1
displacement_1 3 12174 float
-0.0012283430135065542 -0.0016488296996023661 8.922732603109043e-9
-0.0012283407383684424 -0.001600534764796857 -5.4327368013523945e-8
-0.0012279733850026353 -0.0015033228397063518 -3.1559732784101836e-7
-0.001227499878853451 -0.0014544480058003575 -5.040417599565561e-7
-0.0012257865091920928 -0.0013563929015048173 -9.790706575804497e-7
-0.0012244761394816204 -0.001307321832545421 -1.2490838348889444e-6
-0.0012208975988835832 -0.0012093906437478925 -1.822944263333085e-6
-0.0012185772397241307 -0.0011607202491310843 -2.0697401129414933e-6
-0.001213193494262979 -0.0010640345999434124 -2.559856140882105e-6
-0.0012065697399022855 -0.0009685135064184342 -3.0868548525865574e-6
-0.0012027779335437002 -0.0009213431785325998 -3.3563534978073977e-6
-0.0011943301493150733 -0.0008283159186452047 -3.853604502298551e-6
-0.0011896898147469271 -0.0007825798797956943 -4.0780467131576575e-6
-0.0011797015022955123 -0.0006928342017301952 -4.481159443025211e-6
-0.0011743595082265423 -0.0006488893304495504 -4.668181735113789e-6
-0.001163061596464979 -0.0005631501605184388 -4.976943677233537e-6
-0.001151204630738081 -0.0004804314303363658 -5.152735723070095e-6
-0.001145153096915152 -0.0004403003081001678 -5.1852057640167705e-6
-0.0011330441591488644 -0.00036257617830097525 -5.118388475926153e-6
-0.0011271049768038545 -0.00032499261467903626 -5.012472967361976e-6
-0.0011157437537432438 -0.00025227808736843664 -4.641692574507738e-6
-0.0011104444309071749 -0.00021709726001282897 -4.38194534643785e-6
-0.0011008938066511993 -0.0001487963460358296 -3.7655814130093887e-6
-0.001096693326059352 -0.00011549735860335945 -3.4136697280667465e-6
-0.0010895912150985189 -5.030290102750527e-5 -2.6291093228569526e-6
-0.0010844011730099725 1.3681696743758766e-5 -1.8018018139479859e-6
-0.0010825211412883954 4.547726485905997e-5 -1.4046677349304053e-6
-0.0010800801135387745 0.00010916591689660773 -7.038838090112811e-7
-0.0010794289196797999 0.0001412386383394862 -4.2737866328998737e-7
-0.0010789352101988068 0.0002061568014230296 -7.070889290461053e-8
-0.0010789316433853784 0.00023904218509730193 1.2197169626952197e-8
-0.001228295703998169 -0.001745024867585241 8.449987636545216e-8
-0.0010789948217835939 0.00030535368695407513 1.1353021078062699e-7
-0.0010125610227516907 0.00030541666868770664 1.3576310921642911e-8
-0.0009790776840440465 0.0003054132266832118 -6.974644121687428e-8
-0.0009112510095093171 0.0003049198496086764 -4.304616423422462e-7
-0.0008769408228080577 0.00030426635322078067 -7.054916475536695e-7
-0.0008078273517805156 0.00030182293245803346 -1.416117668227573e-6
-0.0007731863158185086 0.00029991750277869457 -1.82701076719488e-6
-0.0007042127511724562 0.0002946059213171188 -2.716602485166367e-6
-0.0006701047050389855 0.0002911511349078003 -3.1781793350243624e-6
-0.0006030273340710605 0.0002826910294423264 -4.061784296357462e-6
-0.0005381453251200703 0.0002722039596772362 -4.895079291630305e-6
-0.0005067448728696063 0.00026625282251421497 -5.276631027118843e-6
-0.0004464055914989821 0.0002531122783367612 -5.937110830019577e-6
-0.00041757835389600874 0.0002460133598230992 -6.211641535158143e-6
-0.0003627877578615161 0.00023095255735117095 -6.649033810310587e-6
-0.00033690794847340393 0.0002230711543468978 -6.820830574981688e-6
-0.0002883185622744445 0.0002068304092608613 -7.0604050466428905e-6
-0.00024380712272845673 0.00019018001070470882 -7.1779985881899794e-6
-0.00022311920414301743 0.00018176058375846485 -7.208297445179239e-6
-0.00018477171514567542 0.00016484057551603362 -7.235846854205328e-6
-0.0001670846769501742 0.00015636977917011472 -7.2361110310749065e-6
-0.00013460589501829926 0.00013944593853053923 -7.222735731748383e-6
-0.00011979780410497654 0.00013100032465535605 -7.218853524715983e-6
-9.305052850161148e-5 0.00011416522614546839 -7.215389921736168e-6
-8.103926476458472e-5 0.00010577097258796584 -7.201661451201832e-6
-5.9874062339254e-5 8.901328599533174e-5 -7.160325967113627e-6
-4.238471476582225e-5 7.233844808365145e-5 -7.0906956175425706e-6
-3.50165445230724e-5 6.404407944641424e-5 -7.050835704121019e-6
-2.2927916734821317e-5 4.760979904641686e-5 -6.991711744961757e-6
-1.815066000447058e-5 3.9514980771566475e-5 -6.98858424076057e-6
-1.0780044657920262e-5 2.3864849798815193e-5 -6.926905746217921e-6
-7.871370369906207e-6 1.6454340890504185e-5 -6.52446905910326e-6
0.0 0.0 0.0
0.0 0.0 0.0
0.0 0.0 0.0
0.0 0.0 0.0
0.0 0.0 0.0
0.0 0.0 0.0
0.0 0.0 0.0
0.0 0.0 0.0
0.0 0.0 0.0
-0.0003442099688618262 -0.00027131388778448815 1.1688726432451699e-5
-0.00030404814960233276 -0.0002496598048652432 8.814736459178728e-6
-0.0002631320046951683 -0.0002298706665101252 8.200336607312285e-6
-0.00024329683837764012 -0.00022023568218809613 8.136879151079952e-6
-0.00020551768861917146 -0.00020111854994832778 8.148494590188174e-6
-0.00017074001870072406 -0.00018199589928540255 8.177892511332443e-6
-0.00013919795495015249 -0.00016280092499550147 8.212270210823974e-6
-0.00011104130277249686 -0.00014351878125436676 8.245155027060486e-6
-8.63514348056218e-5 -0.00012417639589555848 8.256001569152493e-6
-6.521215887298006e-5 -0.00010481788184240519 8.251230818856439e-6
-4.758560683195482e-5 -8.549093396001546e-5 8.222688434765488e-6
-4.0078865265419906e-5 -7.585842891121372e-5 8.197769972592529e-6
-2.7570812506470987e-5 -5.672329937386297e-5 8.157319063150976e-6
-1.803749324666751e-5 -3.797054917853839e-5 8.213183201805115e-6
-1.0491441135185948e-5 -2.0119911687283252e-5 7.801768408342537e-6
-0.00037430777642050123 -0.0003027444551041514 1.880383917393393e-5
-0.00024259929309105788 -0.0016752162067455575 3.8073869876591527e-6
-0.0002536051885571809 -0.0015619062854971468 4.319169466753496e-6
-0.0002617078606934519 -0.0014575680851298793 3.3267569147320726e-6
-0.0002651920695880718 -0.0014067672173186914 2.9963629539484723e-6
-0.0002715913927748385 -0.0013066631800074911 2.6899335392509645e-6
-0.000277746992129932 -0.0012080798281948403 2.656107508976031e-6
-0.0002840532430157867 -0.0011107813326599772 2.768902165857356e-6
-0.00029074818366472776 -0.0010147083441071026 2.9629914310842224e-6
-0.0002979352982915378 -0.0009199037954814585 3.183755413798353e-6
-0.00030568822962376513 -0.0008263659433957394 3.428539037084174e-6
-0.00031406077620388677 -0.0007340618285019327 3.6887275926872144e-6
-0.00031849693699712066 -0.0006883346971014035 3.824214129021001e-6
-0.0003279653736811438 -0.0005975082282805071 4.152472990609159e-6
-0.00033861451430240843 -0.0005067084877057762 4.947766433909444e-6
-0.0003516448796836063 -0.0004128478218251006 8.212364209736914e-6
-0.00022788030644743315 -0.001836336950454604 -9.016288511046123e-6
-0.0003620358392957938 -0.0018080974436621587 -8.945767556814392e-6
-0.0005160771771931176 -0.001771183481697056 -5.7585902429024376e-6
-0.0006122877105527311 -0.0017607981873395912 -3.666692697445781e-6
-0.0007542082666581289 -0.0017513760249169524 -1.9987895260573904e-6
-0.0008480236417943635 -0.0017477742956225908 -1.1327551026076485e-6
-0.0009892761235598335 -0.001745361690649164 -3.334647913043622e-7
-0.0010843343837999362 -0.0017449815181330153 -5.338534286711095e-8
-0.0010098558460981618 0.0002364481240217253 -2.7524528542691543e-7
-0.0010081712439134031 0.00016775547708159058 -5.734504232263362e-7
-0.0010157086796731061 0.00010321673519704145 -9.228092497152608e-7
-0.0010192848840389313 4.161293786353552e-5 -1.3844665177001755e-6
-0.0010202995709068128 -1.9828645476997715e-5 -1.882459700926886e-6
-0.0010201641814944825 -8.384317145131924e-5 -2.3545396771359847e-6
-0.0010149448110093068 -0.00015839260017308211 -2.7257432135318947e-6
-0.001043453410146735 -0.00022696143983353545 -3.38325639839017e-6
-0.001052127640788826 -0.00029432089033824864 -3.6703231392092726e-6
-0.0010638486205499693 -0.0003982235873624879 -3.860353003228904e-6
-0.0010685991983494544 -0.0004727654876064234 -3.8015219722891953e-6
-0.0010645420880621796 -0.0005591241363266879 -3.4964630960364024e-6
-0.0010894737719324699 -0.0006460767590108607 -3.5296742456889058e-6
-0.001077437526438651 -0.0007388377584099847 -3.0320064660267128e-6
-0.0011094824199704544 -0.0008384713701736585 -2.9526588645908313e-6
-0.0010855473475776026 -0.0009484874707622475 -2.3066517581736888e-6
-0.0011059847214061587 -0.0010323760055180114 -2.103827663610464e-6
-0.0010952073718376388 -0.001129388226794293 -1.705854865892453e-6
-0.0011160241057527956 -0.0012601565963480353 -1.2665485941508218e-6
-0.0011312213224270711 -0.0013522523766056962 -9.620913022986895e-7
-0.0011128900626040605 -0.0014477658966352727 -6.675099719785032e-7
-0.0011272165504965534 -0.0015523390793646256 -3.8942871495300763e-7
-0.0011306177612901965 -0.0016482744558298603 -1.9021025612531904e-7
-0.0009415536710088414 0.00023697042451916876 -5.45718718056288e-7
-0.0009329330840694049 0.00017807548220602568 -7.638644105401817e-7
-0.0009212161289302124 0.00011268770489420712 -1.0156480828790567e-6
-0.000954366719157537 3.9682985749650726e-5 -1.2783570739722006e-6
-0.0009527732362819912 -1.7701596681984806e-5 -1.5215499821705727e-6
-0.0009492113172306625 -7.704696974894531e-5 -1.7186895390232928e-6
-0.0009597035083532047 -0.0001705923592087129 -2.113931967757075e-6
-0.0009564067754152515 -0.00023843508031720913 -2.1837776920959495e-6
-0.0009713498292798596 -0.00030680582835612523 -2.430621961019308e-6
-0.0009894490763518431 -0.0003958585523693371 -2.692582950431162e-6
-0.0009859108721313303 -0.00045859919906504447 -2.569906509373475e-6
-0.0010001913746328184 -0.0005714187642305769 -2.591280477082808e-6
-0.0010061638694114094 -0.0006589760574924899 -2.46817037116242e-6
-0.001002800144299196 -0.0007343812495872619 -2.245362346172067e-6
-0.0009964160377469227 -0.0008587186977070102 -1.851841598413562e-6
-0.0009893077525339011 -0.0009282027118409433 -1.6428424510454521e-6
-0.0010045928968671462 -0.0010185158898774775 -1.5379811666846902e-6
-0.0010233191077439082 -0.0011238918524219899 -1.382770905100181e-6
-0.0010080824147037971 -0.001228632488325529 -1.0821459948272341e-6
-0.0010195189666655738 -0.0013443403370505356 -8.878850193517792e-7
-0.0010415061614769373 -0.001433438369948649 -7.369500401572678e-7
-0.001036031249060193 -0.001563472206430237 -5.324787592642766e-7
-0.001036721675812334 -0.0016503225465916791 -3.883072606476843e-7
-0.0008698761828490238 0.0002343153704524697 -9.421756696863544e-7
-0.0008896119575247208 0.00017054854896120198 -9.247018593411226e-7
-0.000872100980958476 0.00011556465871926675 -1.045603528282181e-6
-0.0008573492404512324 5.088674751556427e-5 -1.0404294966905952e-6
-0.0008815984507674258 -1.160259883765576e-5 -1.1514348290257635e-6
-0.0008762647903340758 -9.423480884056652e-5 -1.1410606524493446e-6
-0.000859186461462956 -0.00014949471471844867 -9.65825395595033e-7
-0.0008959834564660663 -0.00021987883390500113 -1.3622058246872216e-6
-0.0008863371437621572 -0.00031081992683560744 -1.197463077297595e-6
-0.0008884039272530854 -0.0003892862072639704 -1.1870097428586845e-6
-0.0009001329819279828 -0.0005021172678319029 -1.301635086728487e-6
-0.0009118846134700436 -0.0005615840750141514 -1.429467151660526e-6
-0.0008987907979721362 -0.0006416148809384135 -1.2103955217081691e-6
-0.0009293979477406632 -0.0007253001206142228 -1.4688631877123767e-6
-0.000925419014691227 -0.0008311618645117313 -1.2913717482376781e-6
-0.0009026154855881713 -0.0009115229735005845 -1.0054031777024268e-6
-0.0009464275486540087 -0.0010427899102989026 -1.1393577475385495e-6
-0.000949064396148442 -0.0011417603696067286 -1.014779570508991e-6
-0.0009487598724892393 -0.0012437677128994808 -8.858397520837253e-7
-0.0009648301975379305 -0.0013348392014096246 -8.319097795028323e-7
-0.0009296375758596949 -0.001443480848876817 -7.560245211009054e-7
-0.0009242225201463253 -0.0015314124587551751 -7.585768615746758e-7
-0.0009355313310185059 -0.0016383517657726815 -7.132797093401981e-7
-0.0008023225384401831 0.00023841033542284438 -1.3990623298088067e-6
-0.0008015628322592249 0.000145258279820704 -1.2363631179852675e-6
-0.0007985114056355128 9.143143678594216e-5 -1.0583075962952385e-6
-0.0007915504526867879 2.6525747563214634e-5 -8.202519164107297e-7
-0.0008106844198860379 -2.6511855505567786e-5 -7.647164669893063e-7
-0.0007937778822363649 -9.07756291374401e-5 -4.210643093711325e-7
-0.0007773514400742307 -0.00015111564291632628 -2.1438154260965887e-8
-0.0007882735683701585 -0.00022539313773240125 6.249063853547301e-8
-0.0008020956178296747 -0.00030570609524133206 2.4673430107723844e-8
-0.0008085597995383761 -0.0003632103057955842 -1.980374532217257e-8
-0.000811206543758859 -0.00044544675814703853 -6.124990665672099e-8
-0.0008292529003297056 -0.0005628435208057281 -3.6243590287553774e-7
-0.0008395698098673135 -0.0006631508319866985 -5.267756802308857e-7
-0.0008334242667584988 -0.0007092095233319211 -4.435721538355744e-7
-0.0008090525504448311 -0.0008450290941550776 -2.774619618622965e-7
-0.0008231769286211033 -0.0009459851956730073 -3.958301109530091e-7
-0.0008439506451399178 -0.0010386568567272983 -5.317558078748303e-7
-0.0008404226778287373 -0.0011416184600783882 -5.186964009746796e-7
-0.0008412234729752364 -0.0012489255493775048 -5.613074828834237e-7
-0.0008393191007036683 -0.0013581226830002165 -6.53215944300733e-7
-0.000829572187839017 -0.001458969856748596 -8.063271722214597e-7
-0.0008056611126170842 -0.0015417779373263847 -1.0301160215344044e-6
-0.0008275549801223922 -0.0016262965440852171 -1.1478723609680991e-6
-0.0007329793456559657 0.00022433475132615802 -1.9138873023227326e-6
-0.000730509359860398 0.00017056863680684793 -1.608576611349237e-6
-0.0007007396570586267 0.00011223639646399518 -1.2913028472271726e-6
-0.0007337751580716106 3.1271074045440704e-5 -6.994796768272078e-7
-0.0007204863101809593 -1.5183755941671232e-5 -3.241548880389098e-7
-0.000692496602971239 -9.456922982612308e-5 5.25987408925936e-7
-0.0007075031742961996 -0.0001657374261075115 9.091101842224528e-7
-0.0007382812979718939 -0.0002220131416435618 7.693268482643617e-7
-0.0007310377973241944 -0.0002896070270261703 1.1114633560956407e-6
-0.0007288330455722511 -0.00037970668583063154 1.2477985767101629e-6
-0.0007275065154661912 -0.0004614536035381322 1.1646064165644757e-6
-0.0007633030309289418 -0.000538850834582445 5.203298640175964e-7
-0.0007392917037890582 -0.0006172874947122945 6.645872093153831e-7
-0.0007338378046634474 -0.0007393340609677114 5.071788372792145e-7
-0.0007335183326648701 -0.0008440365574502186 3.7336320162727567e-7
-0.0007509901382426977 -0.0009178587252925883 1.3485585220212836e-7
-0.0007473149407176452 -0.0010375011690952627 6.35645900088433e-8
-0.000738096557369771 -0.001152457272835904 -3.562812050415458e-8
-0.0007463982907228468 -0.0013528739506790857 -4.527113915898749e-7
-0.0007235890309327926 -0.0014232993414379355 -6.4245588042115e-7
-0.0007422283634849514 -0.0015473133458956021 -1.1609330212432363e-6
-0.0007326582368178288 -0.001632655828587278 -1.5826085310983679e-6
-0.0006366685452370766 0.000218454380073127 -2.759765175811011e-6
-0.0006384008920235489 0.0001479565393626388 -1.9040908707079608e-6
-0.0006411883318457879 9.937066829106437e-5 -1.3123935055155487e-6
-0.0006327993406352292 4.127931660336069e-5 -5.79376402572821e-7
-0.0006466994751262908 -2.412399783312572e-5 1.6652991164402826e-7
-0.000623256523813795 -6.415704280474517e-5 8.545219840137365e-7
-0.0006395030977525862 -0.00016129867682644514 1.8392730456862886e-6
-0.0006744276213922639 -0.00023661872790753328 1.867608582853994e-6
-0.0006616340967929154 -0.0002948675653143772 2.333776486891549e-6
-0.0006580668213939215 -0.0003640550488424743 2.46769425359493e-6
-0.0006490906383183968 -0.00044182169507824427 2.474518934218262e-6
-0.0006935566401395109 -0.0005436904771869692 1.4342530483769393e-6
-0.0006346182785923962 -0.0006480916037106143 1.734963883527068e-6
-0.0006414758341765574 -0.0007573774268963124 1.2818586486774712e-6
-0.0006463895315563505 -0.0008425637666045589 1.0459819821032185e-6
-0.0006635413569259273 -0.0009263922872401992 7.737660026093125e-7
-0.0006423465040694715 -0.0010371417201062226 7.066661719896139e-7
-0.0006453556382998337 -0.0011238166040854346 5.291108253777831e-7
-0.0006498884204417864 -0.0012585765844777756 1.8258591420718209e-7
-0.0006445505339916759 -0.0013247574869179363 -9.341586114892678e-9
-0.000654132318392488 -0.0014604043124425419 -6.959569418486141e-7
-0.0006131676414370985 -0.0015459401599444106 -1.321730588818475e-6
-0.0006355979305834621 -0.0016628178716587656 -2.4325983646274297e-6
-0.0005696035932956465 0.00021348799257885363 -3.3699274229615076e-6
-0.0005655843684858461 0.00015388350974922311 -2.3925083657155994e-6
-0.0005769899915507584 9.455161144227275e-5 -1.3681118205692925e-6
-0.0005663975839590323 1.5813337473855196e-5 -4.85614398240852e-8
-0.0005626340610969463 -1.2676671401869224e-5 4.765207901066563e-7
-0.0005823652471831283 -7.346310399325912e-5 1.3637748141416143e-6
-0.0005655753338218157 -0.0001405644042208138 2.708092561935631e-6
-0.0006110104277066591 -0.00021945155435219933 2.9251787006822323e-6
-0.0005845453422179915 -0.0002815763909295389 4.000423435127559e-6
-0.0005517656480380313 -0.0003584503103048955 4.875378089415981e-6
-0.0005659678761554801 -0.00045481467278560555 3.812730646813048e-6
-0.0005690127586083282 -0.0005524185282640132 2.963376298570318e-6
-0.0005493372434547477 -0.0006362318377398947 2.631581600694522e-6
-0.0005425208300108297 -0.000756897470466122 2.1407611663565296e-6
-0.0005358532155224508 -0.0008411067522484896 1.9147199121278574e-6
-0.0005330938478928316 -0.0009295266408574801 1.6828229424021736e-6
-0.0005309857573289773 -0.0010696167474846775 1.3274825590620495e-6
-0.000503231083466881 -0.0011459187745315117 1.3162120518088383e-6
-0.0005689923829041354 -0.0012564656428068295 6.144587545547908e-7
-0.0005292968828942972 -0.0013525634981520652 4.6034371620830423e-7
-0.0005376159800033919 -0.0015138741546915026 -7.816312301244919e-7
-0.0005582588938570584 -0.0016866124479714406 -3.3191974940012358e-6
-0.0005058798688355116 0.00020585741161260478 -3.925897766109587e-6
-0.0005064041948645715 0.0001515459051827336 -2.758857786251301e-6
-0.0005050500991630743 0.00010016159748329588 -1.6846159819841318e-6
-0.0004940913187294714 4.398443872064795e-5 -4.926244186411791e-7
-0.0004976324590512787 -2.5366492386675548e-5 1.0525751771697862e-6
-0.0004952973126187922 -7.216152660272619e-5 2.1659432840786116e-6
-0.0004923569303869462 -0.00014032715527596536 3.911525375043825e-6
-0.0005115160203087263 -0.0002060923387733639 5.102121496411575e-6
-0.0005094440377562641 -0.0002794660745281394 6.3641837923044106e-6
-0.0004731732478711216 -0.0003555588254109822 7.534208743439803e-6
-0.0004960146546162213 -0.00046801328462915014 4.717215859864945e-6
-0.00047100232430793303 -0.0005815418596461898 3.688007940055412e-6
-0.00045624447180723544 -0.0006754075476681688 3.152774957526143e-6
-0.00044807149353810673 -0.0007639423663179122 2.791736016523584e-6
-0.00044381498254193855 -0.0008480429030551537 2.511772096856014e-6
-0.0004537398693451532 -0.0009218097763490778 2.2293608863311073e-6
-0.00043207535243540527 -0.0010560392427410364 1.9868499197241514e-6
-0.0004224186577527106 -0.0011416866553473906 1.8432745074432334e-6
-0.00042033115254954106 -0.0012154665491965117 1.707670089627532e-6
-0.0004171349262490886 -0.0013428617335873871 1.373449423542625e-6
-0.0004594249645506997 -0.0014508670758293233 4.3867449582502676e-7
-0.00044041481814994593 -0.0015073114554223798 1.8238536800221908e-7
-0.00047124161957883454 -0.0016843614558796096 -3.6830172107051466e-6
-0.00044523054675595964 0.00019390927678686624 -4.344200241396062e-6
-0.00045510154898578475 0.00014164675848457887 -2.9068526607258343e-6
-0.0004540738080882226 7.852978284207699e-5 -1.3720067546139334e-6
-0.0004465186780906278 3.61818838169823e-5 -3.388353165920565e-7
-0.0004278957364965496 -2.592207407645588e-5 1.3496550390262847e-6
-0.00044480257182306405 -7.912578763140988e-5 2.786742983050095e-6
-0.0004319345391686355 -0.00012510921610163974 4.360823902857751e-6
-0.0004090571935736174 -0.000181403775941297 6.979664519948273e-6
-0.0004372806936539272 -0.00024253489331683186 9.03406552700303e-6
-0.00040155406746880695 -0.000357324077736122 1.0670472166400111e-5
-0.00042977342567551875 -0.0004460437016688567 6.1499500407143245e-6
-0.00038050880367315146 -0.0005450797516502509 4.501676879386133e-6
-0.00037076514924014927 -0.0006363282852161017 3.83679807535841e-6
-0.00035666582461452406 -0.000773881045811172 3.308219257778698e-6
-0.0003509327512367891 -0.0008658759587463321 3.0230835818804297e-6
-0.0003486428279098833 -0.0009601803110267813 2.758095834947408e-6
-0.00033693272672830586 -0.0010578344512863892 2.5660375164139495e-6
-0.0003303190194894644 -0.0011530703014313 2.3958537838799727e-6
-0.00032839491805474884 -0.0012503637705531922 2.267556977995113e-6
-0.0003183981370423492 -0.0013494198924296793 2.288209248484052e-6
-0.0003140575649143891 -0.0014494076698653134 2.3941522631472766e-6
-0.00031765419843958655 -0.0015550394726042745 2.1921604476489367e-6
-0.0003681026260085556 -0.001674336067225947 -1.845831281791966e-6
-0.00038864539333905676 0.00018452451409192152 -4.7412249750222085e-6
-0.00039958036195357466 0.0001254399321674107 -2.927501162038079e-6
-0.00037195232302672044 7.675830963057998e-5 -1.676396238525929e-6
-0.00038481215387452364 2.225908931216455e-5 -1.6947557798276588e-8
-0.0003639113778935714 -2.381100595875413e-5 1.3767173236780189e-6
-0.0003608192821846963 -0.00010212423440078306 4.081553149817094e-6
-0.00036131508247479215 -0.00015300478900145975 6.128386894169601e-6
-0.00036013734579166354 -0.00020705951191774078 8.921343060835066e-6
-0.00035891165568115684 -0.0002628435837894152 1.2582775515742282e-5
-0.00033655957073184324 0.00017529322034971756 -5.106203198471806e-6
-0.00032971520061384884 0.00010989977394153171 -2.9996962684822335e-6
-0.0003029680444318305 7.808184065056126e-5 -2.1535867455867466e-6
-0.0003146901686834894 2.3114010612174685e-5 -2.1802158779319276e-7
-0.00031703076031890386 -2.1578625641385662e-5 1.293488319993799e-6
-0.00031711828635065924 -7.544988269546977e-5 3.189514940386638e-6
-0.00031855277998594795 -0.00012568118235699 5.051080816943852e-6
-0.0003189123818898404 -0.00017371944844728077 6.9294113066009125e-6
-0.0003205659335065292 -0.0002207533408955194 8.76032173168384e-6
-0.0002857108228682006 0.00015277561523379258 -4.9665104013566675e-6
-0.00028637026256297395 0.00011649482548140402 -3.653570937255641e-6
-0.00027555861677169705 6.728806425656576e-5 -1.9663956786130525e-6
-0.00027248339581128437 1.8390891141327822e-5 -2.0373951919323415e-7
-0.0002750575898419655 -2.5390999159104374e-5 1.3869747293281913e-6
-0.00025567321361209393 -6.29884013964168e-5 2.758601151149048e-6
-0.0002799322934783143 -0.00012211322881233852 4.887515190633485e-6
-0.0002797662673049131 -0.0001635806474403412 6.355900217377557e-6
-0.00028083319177759985 -0.0002035314476900851 7.577559853036234e-6
-0.0002389364554841698 0.00014930696736837113 -5.48219333902708e-6
-0.00021125845666386658 8.975112927494484e-5 -3.3625635003229147e-6
-0.00023305068063986551 5.618520354968999e-5 -1.8165216872968057e-6
-0.0002304212881899884 1.4827851420269925e-5 -2.2286716212128309e-7
-0.00021719133715330182 -1.830174799887243e-5 1.0314485311171215e-6
-0.00022296591957595468 -5.9071584598480014e-5 2.6107646762289537e-6
-0.00023082684233218545 -0.000104083486345635 4.307678267592316e-6
-0.0002249391818953692 -0.00013927555465026976 5.625656108648819e-6
-0.00022254043324208494 -0.0001745507893615531 6.8813559277997784e-6
-0.00020056017689326774 0.00013867357826205244 -5.643137445330833e-6
-0.00017981242462554624 8.294653121802863e-5 -3.408916931778955e-6
-0.00017953164234524915 5.72367235655082e-5 -2.245157845215726e-6
-0.0001841948336041349 1.297058804859761e-5 -3.142377480149198e-7
-0.00018231807415149066 -2.203992939344656e-5 1.1703467252889698e-6
-0.0001871538370410071 -5.9745971066188877e-5 2.7292864916491835e-6
-0.00019380282843689753 -0.00010184295980421007 4.408971819726444e-6
-0.00018882078808139246 -0.000135073030734977 5.787454059403775e-6
-0.00018333346938645406 -0.00016854127995964173 7.236439876950344e-6
-0.00015020976017426094 0.00011977347606561768 -5.688531302204876e-6
-0.0001492344954301899 8.9862480522317e-5 -4.182815717432992e-6
-0.00014379215690075786 5.3201645980176835e-5 -2.431548678392409e-6
-0.000155740504247964 1.5818738125256524e-5 -5.624379275155163e-7
-0.00015027349160683074 -1.9482122709469367e-5 1.0395817153053721e-6
-0.00015277327906140664 -5.4526213449122024e-5 2.6619038787601695e-6
-0.0001534358502426672 -9.467799213797272e-5 4.475271184724148e-6
-0.00015739268889826196 -0.0001317048050674532 6.130559707414019e-6
-0.00015007580270148693 -0.00015617015504188183 7.4683576819904564e-6
-0.00012128032582922553 0.00010644984087229822 -5.625743435531309e-6
-0.00012137960062034803 7.32840708880167e-5 -3.7380562748153457e-6
-0.00011456432506255063 4.155229663159743e-5 -2.1288977352595614e-6
-0.00012078565318642762 4.057030831956016e-6 -1.0654553788259868e-7
-0.00011497350166261211 -2.577107159984621e-5 1.438986841903803e-6
-0.00012220060959668768 -4.501548446088891e-5 2.383785830410819e-6
-0.00013026374917118105 -8.119805694064868e-5 4.108953554265309e-6
-0.00012765284490555355 -0.00010410395445979541 5.313222933743239e-6
-0.00012074233951042394 -0.00013875300618195082 7.481121814344557e-6
-9.296254219149799e-5 8.61152126647832e-5 -5.175783039631417e-6
-9.836963830753918e-5 6.997379602235307e-5 -4.0491326619903904e-6
-8.71435754180146e-5 3.666332152025284e-5 -2.1592945231695865e-6
-7.645306176440898e-5 6.121037139324733e-6 -3.637821694719646e-7
-8.818475551994418e-5 -2.2151556621974507e-5 1.400936571742228e-6
-8.435504484716254e-5 -4.4986562111252495e-5 2.830242381506597e-6
-8.857618504122491e-5 -7.32507266935335e-5 4.501605792517763e-6
-9.875684909169108e-5 -9.808576063611402e-5 5.7418532831040835e-6
-9.513529824995215e-5 -0.00012196901539261418 7.510443728897446e-6
-6.5956277050322e-5 7.428228732854966e-5 -5.343743758016507e-6
-6.562205314668392e-5 5.1121551461739284e-5 -3.5342782834195607e-6
-6.382045287561516e-5 2.9076334687543997e-5 -1.9991493378366096e-6
-6.122438655347347e-5 2.029849117947786e-5 -1.4147562090989886e-6
-6.548820780497227e-5 -1.6469418942310972e-5 1.1681610929769513e-6
-5.9144578651919487e-5 -3.442296927116811e-5 2.5535127392181113e-6
-6.25677188506048e-5 -5.466420736036196e-5 3.961014090936339e-6
-6.51682368685221e-5 -7.489284826447719e-5 5.4378387992257475e-6
-7.25169362620965e-5 -0.00010474534371469614 7.5380644025533185e-6
-4.266217081003072e-5 5.316449326590284e-5 -4.684775783330828e-6
-4.408026078165201e-5 4.226324755465784e-5 -3.58974807904928e-6
-4.2950008574870144e-5 2.9003645765734648e-5 -2.448974163445508e-6
-3.68697063246007e-5 8.337697311847904e-6 -7.286834658175948e-7
-4.1611077651727745e-5 -1.4947750811775764e-5 1.3231773351847768e-6
-4.294481525227906e-5 -3.2161344081055944e-5 2.759793148979004e-6
-4.54068630984577e-5 -5.370053657148158e-5 4.656511704376692e-6
-4.9038911801233516e-5 -7.095370195402215e-5 6.114366277436255e-6
-5.335866869817164e-5 -8.715608436831593e-5 7.518809313033747e-6
-2.9183081299291814e-5 4.640793930320127e-5 -5.092237437206352e-6
-2.806213765556524e-5 3.434517582642062e-5 -3.648076727305608e-6
-2.4587675771484788e-5 2.03904915690526e-5 -2.202502649463662e-6
-2.7702890180675202e-5 1.0699392353236647e-5 -1.0562955721311975e-6
-2.3903303922926554e-5 -3.129231188218193e-6 3.923871529634142e-7
-2.6344553208576046e-5 -2.910436419951338e-5 3.2298328606708325e-6
-3.0283950442172357e-5 -4.46916346991287e-5 4.812927569742185e-6
-3.3501828041263124e-5 -5.703617669740027e-5 6.1207503389867756e-6
-3.759985002250481e-5 -6.966979148728735e-5 7.492424725820669e-6
-1.973544877988968e-5 3.984034511316523e-5 -5.694137763826212e-6
-1.6379937213716557e-5 2.668026477327087e-5 -3.7378715244648537e-6
-1.2234161491149663e-5 1.3939261205156354e-5 -2.1120369876165077e-6
-8.746712786910828e-6 4.145136541065281e-6 -6.705386748792824e-7
-1.0214673416240759e-5 -2.570831501732656e-6 4.4371386532499176e-7
-1.578297349740096e-5 -1.896568243413271e-5 2.6743425877633448e-6
-1.680873638918754e-5 -3.0022477723731906e-5 4.378853932283113e-6
-2.1134877819638737e-5 -4.3229131479783274e-5 6.2211865900260925e-6
-2.5232168285601388e-5 -5.2443440863498213e-5 7.51007872073128e-6
-9.035050834263516e-6 2.371769311282444e-5 -5.339109581627766e-6
-7.69790825552109e-6 1.9556212423763327e-5 -4.151868659121479e-6
-1.5397036003169305e-6 3.0125435982672443e-6 -7.824654601400696e-7
-1.8519868023012411e-6 -1.932032489193575e-6 5.62103625861034e-7
-2.8080486165046116e-6 -1.1337281165395946e-5 3.1978148190262074e-6
-4.263077985635872e-6 -1.6142731354083823e-5 4.7051540092299565e-6
-1.2123438316037929e-5 -2.9985796147291016e-5 6.458750959709969e-6
-1.5900899803332792e-5 -3.550915828195776e-5 7.619289401589012e-6
-3.090380048342451e-6 1.1208084806906784e-5 -5.380297655013779e-6
7.157345580456888e-7 5.401878666304636e-6 -3.2130630458143246e-6
1.498313482492712e-6 3.6167515646159275e-6 -1.848819248240357e-6
1.999275551591522e-6 3.2430051087412213e-7 -1.5617833356452668e-7
1.8265079860070485e-6 -2.5719360495009485e-6 1.4060948501019249e-6
1.146671253827181e-6 -5.538392874276748e-6 3.058629456483512e-6
-8.493042285301529e-8 -8.07812223674345e-6 4.5729705331788025e-6
-2.1769732223355433e-6 -1.0749276291554102e-5 5.921715879413573e-6
-7.433973379844764e-6 -1.7320353441893405e-5 7.3346932029368125e-6
-0.0012283119814615222 -0.001696957820409674 4.345805284579937e-8
-0.0012282396059961995 -0.0015520301156157228 -1.6351035743666487e-7
-0.0012267825396787976 -0.0014054559736412238 -7.273182186086761e-7
-0.0012228503101198067 -0.001258309291048154 -1.5302580636448701e-6
-0.0012160468119499334 -0.0011122517750604712 -2.3003808717815126e-6
-0.0012100416716635189 -0.0010161027361195252 -2.819014219597441e-6
-0.001198696502398972 -0.0008745913864248177 -3.609413357730344e-6
-0.0011848118680782684 -0.0007374235781174316 -4.28920356170466e-6
-0.0011687974750090547 -0.0006056393993031684 -4.83341990989076e-6
-0.0011571912921957829 -0.0005213907593848306 -5.079687484474366e-6
-0.0011390808119295557 -0.00040101018257306787 -5.1750471763722486e-6
-0.0011213185728855732 -0.0002882303957586183 -4.852786456583273e-6
-0.0011054813854656615 -0.00018263101485234588 -4.085438380773103e-6
-0.0010929090236173457 -8.269467307469146e-5 -3.0356352278627503e-6
-0.0010867547649452626 -1.8211950493087797e-5 -2.21368963534184e-6
-0.0010810922922588092 7.727328751891145e-5 -1.0337341051167375e-6
-0.0010790737611919988 0.00017355744982379146 -2.1488833612107165e-7
-0.0010789725817511098 0.0002721562820258385 5.7622139968618266e-8
-0.0010458194819614242 0.0003053758915397073 5.833999665548705e-8
-0.0009453094837805222 0.00030527595673986407 -2.16550476302148e-7
-0.0008424430663155171 0.00030325410759737706 -1.0358340459123166e-6
-0.000738619326741633 0.0002975214349639812 -2.264579699890131e-6
-0.0006363355059811679 0.00028717921552828644 -3.6230982785698588e-6
-0.0005702681628785533 0.0002776929422050424 -4.487957427785398e-6
-0.0004761429254385395 0.00025987388767910436 -5.624744139369164e-6
-0.00038968790262039916 0.0002386153279568053 -6.4467443985397615e-6
-0.0003120850135553718 0.00021500841662022024 -6.954261013958887e-6
-0.00026553365132010856 0.00019854970179155747 -7.1276343026518565e-6
-0.00020344549492836572 0.0001733082412730177 -7.227116261929834e-6
-0.00015036555360609682 0.00014790393115095114 -7.23105693819717e-6
-0.00010594783444219828 0.00012256610764332183 -7.213992397205272e-6
-6.99852650499182e-5 9.7379453940955e-5 -7.186745936721332e-6
-5.066552227106698e-5 8.066660652441434e-5 -7.1271733622216955e-6
-2.8542316353789606e-5 5.579563252937918e-5 -7.013797777309779e-6
-1.4148988376842226e-5 3.157894238129954e-5 -6.992138423628631e-6
-5.477614023720911e-6 8.937884854846127e-6 -5.56545893148511e-6
0.0 0.0 0.0
0.0 0.0 0.0
0.0 0.0 0.0
0.0 0.0 0.0
0.0 0.0 0.0
0.0 0.0 0.0
0.0 0.0 0.0
0.0 0.0 0.0
0.0 0.0 0.0
0.0 0.0 0.0
0.0 0.0 0.0
0.0 0.0 0.0
-0.0003625362014580533 -0.00028455805249197926 1.5668453758586708e-5
-0.00032457136773920064 -0.00026012041835419116 9.768242980620537e-6
-0.0002834522477482357 -0.00023964095549788803 8.380968419316136e-6
-0.00022407096164939677 -0.00021066406179929742 8.12743696599018e-6
-0.00018777185308287917 -0.00019155456723409355 8.165690263020157e-6
-0.00015456588408188459 -0.00017241547495066396 8.191240623598183e-6
-0.00012468704645211042 -0.000153166520762724 8.230936502363326e-6
-9.825139410783749e-5 -0.0001338551410575248 8.25207100649308e-6
-7.534112190640489e-5 -0.00011449506831183435 8.25598311097655e-6
-5.596147107963922e-5 -9.514744804736673e-5 8.240616972589214e-6
-3.3418297108024636e-5 -6.626274582805273e-5 8.172188162777931e-6
-2.2473520756163075e-5 -4.72721137275772e-5 8.171123350982725e-6
-1.4108419853157464e-5 -2.8909496061899176e-5 8.239720316262583e-6
-7.222357430116848e-6 -1.1065591696239388e-5 6.754928616777003e-6
-0.00023488400719858733 -0.0017411866003929728 -4.556103985339806e-7
-0.00024868787766687433 -0.001616548809331232 4.568335192914748e-6
-0.00025788437176009954 -0.0015091310566840198 3.793737736268346e-6
-0.00026845324657454283 -0.0013564979839257726 2.7961268331198522e-6
-0.00027466986047551073 -0.001257208436414064 2.651599038033633e-6
-0.0002808647734289149 -0.0011592775045073103 2.6982193630933247e-6
-0.00028734071708821934 -0.001062587331355268 2.8615602926599227e-6
-0.00029427654239156645 -0.0009671531048845194 3.0722143963645665e-6
-0.0003017374707847428 -0.0008729762800445785 3.303099626716029e-6
-0.00030979430205917017 -0.000780064620592748 3.5575265740255125e-6
-0.00032312037686180645 -0.0006428415812337022 3.970696153902668e-6
-0.00033309597967745927 -0.0005522068186697877 4.429499862651834e-6
-0.00034470888590660263 -0.00046059084426896494 6.013975435656056e-6
-0.0003607377968959327 -0.0003625251269193258 1.2939192212210095e-5
-0.0003025248121626788 -0.0018216322064856488 -6.551159807699728e-6
-0.00041640570723859815 -0.0017890931554737498 -9.01922824385933e-6
-0.00046700586499332517 -0.0017784952768034512 -7.19625401720327e-6
-0.0005644363234679465 -0.00176543385769668 -4.582361825348738e-6
-0.0006597947913625374 -0.0017570378114836701 -2.9474634715545617e-6
-0.0007070907924169687 -0.0017540182857782314 -2.439827121107921e-6
-0.0008011305510524569 -0.0017493201286024123 -1.533398029635568e-6
-0.0008949805541771016 -0.001746652735028022 -8.080419398741018e-7
-0.0009420544166165758 -0.0017458687879864428 -5.444997276692979e-7
-0.0010366955998822832 -0.0017450851681486865 -1.6774348559318938e-7
-0.001132189694417701 -0.0017449786409762592 1.0139487802503355e-8
-0.0011802123765877444 -0.0017450088877894343 4.3734556825680555e-8
-0.001179537937528014 -0.001696432577694552 -2.8084440029744147e-8
-0.0011314415479674563 -0.0016965028478004187 -9.643439455714069e-8
-0.0009433592567820881 0.0002703729051785424 -4.0359863658302846e-7
-0.0008737795588197691 0.0002692493807098705 -8.385781306374834e-7
-0.0008396069839886125 0.0002693504926564335 -1.108735768954833e-6
-0.0007701790706943934 0.00026683893631794395 -1.7706397702642638e-6
-0.0007365677185209759 0.00026342610213987304 -2.109055204489285e-6
-0.0006707076043912283 0.00025627440756062616 -2.8224915744765033e-6
-0.0006368561355499976 0.00025233325620984716 -3.1707409436047124e-6
-0.0005700726821164155 0.00024496488327537967 -3.903869907305492e-6
-0.00020340291173475496 -0.00018130308684397503 7.377443920665794e-6
-0.0003416109000308968 -0.00025227696100001715 1.09925859170325e-5
-0.001178182287020445 -0.0015997767178327561 -1.824496602228649e-7
-0.0011767708396860958 -0.0015511156087071394 -2.9384884199367815e-7
-0.001172932707170512 -0.0014520467428936886 -5.93148233711291e-7
-0.0011762534098195285 -0.0014031129693422102 -7.677380850182549e-7
-0.0011757959795456192 -0.0013066353292359252 -1.1911827248526468e-6
-0.0011716690890096577 -0.0012595393829398834 -1.3974093176360762e-6
-0.0011484617378377379 -0.0011579326738056935 -1.7869574308619381e-6
-0.0011572953951063771 -0.0011021049179286643 -2.077596194528345e-6
-0.0011673992334014663 -0.0010068089096408517 -2.597448354661702e-6
-0.001128683564366338 -0.0009278152302089619 -2.7358126707357507e-6
-0.0011423892500705786 -0.000784490294430106 -3.5429709844904155e-6
-0.001134481794137865 -0.0007383235372189324 -3.6875091852445994e-6
-0.001130000014284889 -0.0006479242331458106 -4.051602060325912e-6
-0.0011126664009796605 -0.000518225944132343 -4.356128357154159e-6
-0.0011061955492575255 -0.0004379762674401254 -4.499433611880995e-6
-0.001101795541870482 -0.0003996227059619097 -4.500842134242257e-6
-0.0010919855331680706 -0.00032656682355758566 -4.37758349881233e-6
-0.001087537176732046 -0.00029140245093829876 -4.255898125166934e-6
-0.0010763111487004763 -0.00022111222696831275 -3.8496874588435785e-6
-0.0010684488374775444 -0.00018659418251153399 -3.555030888823241e-6
-0.0010580100120308222 -0.00011824458785194025 -2.9879506903918473e-6
-0.0010565658451987098 -8.420889898634074e-5 -2.6922801814686824e-6
-0.0010538381694509514 -1.9434229804141645e-5 -2.0541780552687782e-6
-0.0010512137258660735 4.340771092461052e-5 -1.4076343072362308e-6
-0.0010460531250020544 0.00013872421157970792 -5.958526625482385e-7
-0.0010443828514044176 0.0001709783988377134 -4.0855360432088423e-7
-0.0010442631655782498 0.0002374575347434191 -1.4223274999659844e-7
-0.0010449058291022418 0.0002712733609410238 -4.233929599654517e-8
-0.0009775012339852756 0.0002706323221911996 -2.508189374311998e-7
-0.0005061086679240702 0.00023535306708730573 -4.571356034729804e-6
-0.0004752853214066649 0.00022956387934301256 -4.862820015582924e-6
-0.0004169860384205274 0.0002172742955902595 -5.356425744494892e-6
-0.00038939518714518006 0.00021160545765640804 -5.571626879119705e-6
-0.00033614265351922023 0.0001985261793184422 -5.922024710073519e-6
-0.00026378075314224754 0.00017555346514456984 -6.173510448568916e-6
-0.0002212627294703386 0.00016306534118902134 -6.37547364614465e-6
-0.00020195325411727531 0.00015606913516210896 -6.422295470541976e-6
-0.00016649097947338382 0.00014135924852599994 -6.447985149713359e-6
-0.00015015278679586378 0.00013402325297585442 -6.449234031522846e-6
-0.0001199549542786958 0.00011836487833184137 -6.3806445417964745e-6
-0.00010572477307234467 0.00010962514610225549 -6.297749463403098e-6
-7.970430525072625e-5 9.339731702272119e-5 -6.2227842350438116e-6
-6.806968677135291e-5 8.617477383485506e-5 -6.246332460832416e-6
-4.8615222750512074e-5 7.24147685073508e-5 -6.315862511504008e-6
1.7378057454589734e-6 -1.378889720811156e-6 1.2147026898587594e-6
1.3529935281318937e-6 -2.8994587116294808e-6 2.544989325871545e-6
5.953064425531112e-7 -4.217791217904498e-6 3.7507119642074508e-6
-3.130379536682507e-5 5.2620184729762995e-5 -5.7237022835951896e-6
-2.6751039668481392e-5 5.115305462148725e-5 -6.360498786117342e-6
1.7095857274736804e-6 9.030410868270841e-7 -7.8512421703976e-7
-1.582218350512065e-5 3.5483513849156136e-5 -6.246006853257962e-6
-1.1525387814717381e-5 2.780899983076714e-5 -6.225721343424288e-6
-5.39547080736978e-6 1.3707123523582961e-5 -5.993540666195459e-6
-2.652015206410831e-6 6.724802348092463e-6 -4.968631722418536e-6
-1.3101049684492286e-7 4.558969777049259e-6 -3.8829269108904655e-6
1.274580417795057e-6 2.235761716084597e-6 -2.011394973164994e-6
-6.634948371780637e-7 -5.65746727206663e-6 4.903606747333183e-6
-0.0003108339123544437 0.0001900853734350315 -6.004816875819912e-6
-4.50617471584863e-5 -7.840868061449189e-5 7.505317887534604e-6
-6.252041343776176e-5 -9.597389354125407e-5 7.533036045624784e-6
-0.00036556481454866417 -0.0006823309500444086 3.630273129921857e-6
-0.00041889755770675263 -0.001735308452832551 -5.4183423267100405e-6
-0.000561741521800473 -0.0017255512743759144 -3.969539070237937e-6
-0.0006532859511068442 -0.0017061861354735358 -2.637728452346308e-6
-0.0010361336424969767 -0.0016968623629890686 -2.960920055896285e-7
-0.0008930475020426557 -0.0017007825902946442 -8.565103405614842e-7
-0.0010497837916790518 7.485556968897446e-5 -1.1039778373104635e-6
-0.001124309292686193 -0.0006033514724559572 -4.178550824256124e-6
-0.001159486215406666 -0.0008773460061409241 -3.234858840915925e-6
-0.0003132810458803855 -0.0016119901786140977 1.7319030658611592e-6
-0.0008093043406129311 -0.0016742613064448684 -1.2885253040201775e-6
-0.0007055752332403153 -0.0016864567817079222 -2.069882837494395e-6
-0.0011790934495360147 -0.0016482913182425548 -9.741288829981391e-8
-0.0011744859861693914 -0.001501439472315777 -4.369451147467357e-7
-0.0011775370956002235 -0.001354702873993207 -9.739819638025152e-7
-0.0011675458638657629 -0.0012118027412405146 -1.603424755196992e-6
-0.0011606233804856386 -0.0010517734789486732 -2.3369885540972216e-6
-0.001142027652084609 -0.0009598932026662755 -2.6688657849182743e-6
-0.0011511442893372532 -0.0008313880036705603 -3.393620014885469e-6
-0.001132402282986469 -0.0006927017065285883 -3.865509547551503e-6
-0.0011162940277004243 -0.000560198379124994 -4.260584251812935e-6
-0.0011097878120627433 -0.0004774427193885733 -4.448849470305483e-6
-0.0010968938312276588 -0.00036226633054302164 -4.455867387985861e-6
-0.0010825540495693084 -0.0002562124283298354 -4.085597596362145e-6
-0.001060958397237681 -0.00015281986491878482 -3.262028709632483e-6
-0.0010552520603217576 -5.142961254103611e-5 -2.3790250571997534e-6
-0.0010525426852835724 1.2050873717234882e-5 -1.7277363208068034e-6
-0.0010479677078453183 0.00010660023314567582 -8.286362136676362e-7
-0.0010438982888777448 0.0002038774377633927 -2.6097795034755024e-7
-0.0010111810473965859 0.00027083415432787206 -1.376716157329965e-7
-0.0009084424231209658 0.00026985969602348066 -6.02551845536611e-7
-0.0008051900282417815 0.00026902823128251347 -1.420186541843475e-6
-0.0007036956187489013 0.00026226265750263787 -2.466842269280251e-6
-0.0006030989909618789 0.00024887532692932716 -3.54236396216185e-6
-0.0005377096560258677 0.00024051301857791466 -4.249957345720622e-6
-0.0004455305989062379 0.00022341401633010045 -5.120504067468771e-6
-0.0003623639569967443 0.0002055528133371606 -5.770902739389345e-6
-0.0002869342647942171 0.0001815312715614334 -6.064633333248271e-6
-0.0002418129118174095 0.00016955867463667077 -6.292194242057457e-6
-0.00018375794697775324 0.0001488082384525383 -6.443887283218467e-6
-0.00013469741161209402 0.0001264589549237381 -6.430540605987355e-6
-9.250073629986317e-5 0.000100930683808268 -6.229137032640516e-6
-5.779902380168096e-5 7.916921324967027e-5 -6.281078362164486e-6
-3.814781203606953e-5 5.8101206522304925e-5 -5.6326988300839576e-6
-2.097544588165109e-5 4.3438285348178456e-5 -6.310602065532883e-6
-8.118547466725708e-6 2.06239771934699e-5 -6.227321543274796e-6
-1.1132326989058037e-6 5.614211144843599e-6 -4.5130060642795935e-6
5.079144675306471e-7 3.6134283427982215e-6 -3.207160226177271e-6
9.273204760307919e-7 2.8413491949833847e-6 -2.5711085294862543e-6
1.5788895592054702e-6 1.6695996228460622e-6 -1.4650429936153563e-6
1.7300452351334516e-6 1.4433684780680214e-7 -1.1938191799695507e-7
1.755587197718688e-6 -5.965154833847391e-7 5.383514589479095e-7
1.5970406200693441e-6 -2.1559731006845017e-6 1.887624199197845e-6
1.0155247696572387e-6 -3.569229717968968e-6 3.158308197382891e-6
6.188221626897096e-8 -4.872573057870091e-6 4.3186194315489785e-6
-1.7734407908308436e-6 -6.782484279066075e-6 5.532438402963451e-6
-3.1007450891177805e-5 -6.103531914513102e-5 7.4933486440565375e-6
-2.0242021051332637e-5 -4.3946889880887784e-5 7.556781120595474e-6
-0.00031511257288586124 -0.0013989007292098499 2.3416504606046894e-6
-0.00032338535335925953 -0.0012999589984116608 2.259811653060121e-6
-0.00032895456690571184 -0.001201514183061125 2.3196723969718147e-6
-0.00033282105747283575 -0.0011054232360885774 2.4796200750985443e-6
-0.00034273548005141425 -0.0010091760323098296 2.65698884488158e-6
-0.0003498022940998277 -0.0009129045481196135 2.880542291859904e-6
-0.0003532609880941678 -0.0008197322348005167 3.164875542725515e-6
-0.00039448511902513006 -0.0004068474682264426 8.272526617878562e-6
-0.0003657360486232573 -0.0017370242005632917 -4.407429459350105e-6
-0.0004681258901478019 -0.0017327388460240897 -5.3785428666632265e-6
-0.0005154874720912836 -0.0017300551807627948 -4.724357414349091e-6
-0.0006070330282414973 -0.0017179820568674412 -3.2736774880402054e-6
-0.0007592567994558964 -0.0016988208912131076 -1.7353252649548879e-6
-0.000842770369415066 -0.0016647282512364122 -1.1106048445041782e-6
-0.0009393771117068026 -0.0016956195938814579 -6.456783654624121e-7
-0.0009877538986186553 -0.0016961721224999433 -4.5704556910817325e-7
-0.001083756053659386 -0.001696845498919409 -1.8020420825823708e-7
-0.00016568650420690714 -0.000163827328101015 7.414287442370429e-6
-0.0003158675477039298 -0.0015015625179866528 2.3618349721932305e-6
-0.0002043339559132586 -0.0001634704241644946 6.690450486767693e-6
-0.0003397401501400073 -0.00022866730254888902 9.659925478673203e-6
-0.0004066585652002521 -0.0007233566572037829 3.224173829789962e-6
-0.0004336325870014713 -0.0004009714656472886 7.4681011176177905e-6
-0.0003755411464756696 -0.0016136398111172329 -3.138317592957531e-7
-1.0564910194190762e-5 -2.6122392372568652e-5 7.138228059609887e-6
-0.0003717570575616561 -0.001490141576733576 1.3105091898985145e-6
-1.8171475353674787e-5 -4.035382960420796e-5 6.951543070010449e-6
-0.0003997166118480431 -0.0008129528054116098 2.910693776676139e-6
-0.00017133505916137396 -0.00015157583228919886 6.768552399099914e-6
-0.00036401259863810787 -0.001391569169454195 1.7690070169300675e-6
-2.882456335356661e-5 -5.559704528562499e-5 6.825787307852785e-6
-0.0003998091030444014 -0.000903141034589114 2.6027674281153357e-6
-3.7789108950787543e-6 -8.435481238157298e-6 6.197104564150658e-6
-0.0009757650423679609 0.00023640120468454044 -4.0152902137466154e-7
-0.0004046500720213454 -0.00030860300886286423 1.3723019059152072e-5
-0.0004222783568731634 -0.0016794872932072626 -3.196158838290017e-6
-0.0011224567264991059 -0.0015030227496276606 -5.16224839421923e-7
-0.001124529196048806 -0.0009876103253939718 -2.412604854148336e-6
-0.0010867999889021354 -0.0006883711771415633 -3.3271937992606754e-6
-0.0010588222398972148 -0.0003620059744325373 -3.802021462232041e-6
-0.0010200185788169793 1.1000985455308001e-5 -1.6331924376954482e-6
-0.0010084006824281721 0.00020193707108901905 -4.235148177390968e-7
-0.000905652907396203 0.00023640114358402766 -7.330198034741536e-7
-0.0005372871040557095 0.00021019908156241502 -3.6609212915559914e-6
-0.0003620894859673787 0.00018095896003719145 -4.963835933081036e-6
-0.00018286787507160152 0.0001324081259612183 -5.669494632101443e-6
-3.527825421038021e-5 5.012325655102644e-5 -4.932240088952837e-6
-5.6044045127424866e-6 1.71499168212492e-5 -5.542109863985422e-6
-0.00037780210577300515 -0.00026863079300769093 1.4513953288928896e-5
1.211733446905682e-6 4.331773812679949e-6 -2.530938214171901e-6
1.8413460887863794e-6 1.720959757964684e-6 -9.113789216084094e-7
-3.940914846785816e-6 -1.269029638967152e-5 6.5337356972863946e-6
-0.0009895801593722204 -0.0016495281806704922 -5.249306016761615e-7
-0.0010835647375922978 -0.0016495457936606095 -2.822704856103247e-7
-0.0003751434041415324 -0.0012970111823215908 1.8397972384600163e-6
-4.284188793477109e-5 -7.123208354815633e-5 6.807342195147827e-6
-0.0003928010506378397 -0.0010082756574566975 2.3455944398183197e-6
-0.00037708524061601364 -0.0011930348737803035 2.015276242743006e-6
-6.0061647401239497e-5 -8.701238078255078e-5 6.8327321022623215e-6
-0.00038040299452676336 -0.0011009485424489025 2.1986980098581038e-6
-0.00040564038894473474 -0.0002720211450854502 1.2673891851563064e-5
-0.0004382587081315703 -0.0003127973396087344 1.0448406926037216e-5
-0.0003807920194197256 -0.0002388075919020783 1.1305325452217906e-5
-7.954209084666686e-6 -2.0658059583695414e-5 7.124637358253668e-6
-0.0005365646002565747 0.00018124487404199088 -3.109386079649015e-6
-0.0009871897219523122 1.0706313668102438e-5 -1.523196210755724e-6
-0.0010630291985727462 -0.0009964308050008043 -1.979106736371675e-6
-3.1802496098429675e-5 4.206262169077454e-5 -4.270673355943097e-6
4.33335399584407e-8 4.456238782656735e-6 -1.5519815785572458e-6
-0.0003590605764454408 -0.00023487277805583331 1.0773301223966914e-5
-0.00018749812177038826 -0.0001517929056649488 6.481534337477032e-6
-0.00040251842174050074 -0.0007686048983212278 3.059984488768589e-6
-0.0004369758609966833 -0.0003557041759587179 9.16654658665385e-6
-1.4037820103954003e-5 -3.303367333685289e-5 7.060540341106617e-6
-0.000390005287170447 -0.001548385875461081 4.7108191095390066e-7
-0.001074533236991058 -0.0015126305269676547 -5.556589630166864e-7
-1.8768743529806382e-7 7.772586560867222e-6 -3.370854030563502e-6
-0.000995551649963416 -0.001608594371051672 -5.56920959797767e-7
-0.0009050401385179887 0.00020671790007172194 -7.994960415966942e-7
-0.0010208362514351882 -0.0003636699853241192 -3.1814420860796585e-6
-0.00018192946014476758 0.00011582431237106034 -4.902634167593607e-6
-0.00015994594770691732 -0.00014730002795440304 6.789815610728501e-6
-0.00039823921439138664 -0.0008574952791727852 2.7658034082109844e-6
-2.311008626225784e-5 -4.795676507537524e-5 6.875311981160046e-6
-0.00036472082239855466 -0.0014394482363392048 1.6456481543846562e-6
-3.5436140644153215e-5 -6.343496651205137e-5 6.811000307165517e-6
-0.0004085285730658651 -0.0009539139995554096 2.402515945923971e-6
-0.000367958392988656 -0.0013447647306363175 1.8165575331509528e-6
-0.00022246911180514786 -0.00019217714775116555 7.48897049503647e-6
-0.0003885083380116958 -0.0004537776741672267 6.265365823251987e-6
-5.106085136594513e-5 -7.914453252828208e-5 6.8214539363442355e-6
-0.00038481947195924377 -0.001055913822762438 2.277483093076655e-6
-0.0003863031746457046 -0.0012441336704632328 1.8614186406230863e-6
-6.729507720672906e-5 -8.491911111861998e-5 6.147951943762261e-6
-0.0003772013646795978 -0.0011467620585753346 2.117855398256939e-6
-0.0010829428574543932 -0.0016031146857618027 -3.7372939709771916e-7
-0.00104547650187933 -0.0006745083364890837 -2.895892083916876e-6
-0.0003612202669573393 0.00015759159214364686 -4.221291277098158e-6
-0.0009730672586064281 0.00020186202977218645 -5.510578306293095e-7
-3.183123353546655e-6 1.3348339516323503e-5 -4.810152730028548e-6
-0.00041870263957306965 -0.0011832640469945036 1.7742790162256117e-6
-0.00042717875046926237 -0.0010982299013985244 1.9165420559426058e-6
-8.760574387861358e-6 -2.3831258105409427e-5 6.6084448779197085e-6
-0.0005061276986882056 0.00017804423731806386 -3.323893448525247e-6
-0.000987208899671725 4.035880022214262e-5 -1.3399770189834598e-6
-2.6496987843059077e-5 3.9752465479567456e-5 -4.472748229327024e-6
-0.0010341550814082477 -0.0009376691043254375 -1.9587776758131624e-6
1.3211635420633373e-8 6.522961707026933e-6 -2.5274468405510947e-6
-0.00020581540009403788 -0.00014619647090537597 6.030594887316917e-6
-0.0003393127462707648 -0.00020303886399970382 8.439678890997062e-6
-0.0004513881993661443 -0.0007204401781470835 2.9571895971169144e-6
-0.00047072843079608263 -0.00039715255154157566 6.620019541881519e-6
-0.0010806323792245086 -0.0015577534378072178 -4.633536814580217e-7
-0.001038110545411039 -0.0016067408202361478 -4.637850001918441e-7
-1.3859058374321452e-6 1.0169530854153537e-5 -4.072774486564509e-6
-0.0009394730141798946 0.00020605152499226245 -6.534860712549688e-7
-0.0010265173970819897 -0.00039749377370217574 -3.264268947997412e-6
-0.00019902762033798254 0.00012143971963750777 -4.888581608250459e-6
-0.00017219098581450668 -0.00014001249039340152 6.257516867274914e-6
-0.0004454218390181092 -0.0008065483107746686 2.646460746875017e-6
-0.0001313807640046818 -0.0001323720678616254 6.749928537318498e-6
-0.00042036344613973983 -0.0014701751480360914 7.44435580699126e-7
-1.6242293227722825e-5 -3.652811763158736e-5 6.327265412926203e-6
-0.00041150909449924996 -0.0013854256299711848 1.2754442535151735e-6
-2.690987052061443e-5 -5.0144806004516133e-5 6.160889911902051e-6
-0.00044445071653869225 -0.0008878734829338465 2.380457083487429e-6
-0.0003841584709577374 -0.0004999227686441297 5.1412608877543365e-6
-0.00043663593992729387 -0.001259796591009304 1.4605485295627748e-6
-0.0004365128343316505 -0.0010156204022863755 2.043324352787113e-6
-8.040699332207501e-5 -0.0001024903082558727 6.824777418769082e-6
-0.00047356098241661484 -0.00031528310893280865 8.12753233567025e-6
-0.0003828285869052285 -0.0002095953248266035 9.037370658804934e-6
-0.0011298719116604385 -0.0016009804750911124 -2.828381279715084e-7
-0.0010165363621442035 -0.0006248088580619809 -2.658089934910146e-6
-0.0003249243184864783 0.0001274789964441124 -3.6224654600684916e-6
-8.59023344007194e-8 6.96770297216777e-6 -3.9445834170403e-6
-9.732209344070607e-7 -9.317445378197754e-6 5.264206668709319e-6
1.9994938210117916e-6 -1.0309757336636964e-6 6.03890338824699e-7
-0.00078001831620314 -0.0016455230271106695 -1.3961549275884043e-6
-0.0010324774690867796 -0.00019414628342781244 -3.1036021656545383e-6
-0.0007692219692076408 0.00023651434424416579 -1.6658648124035475e-6
-0.0011299713659620547 -0.0013084477266286471 -1.1145751198702928e-6
-0.0001074352511709994 9.78085240494373e-5 -5.471495728510683e-6
-0.00040830185124816594 -0.00021082037829535253 8.566524718748344e-6
-0.00047269905975571956 -0.00027771726480850707 8.044048620155488e-6
-5.579203148105184e-5 -6.856990649221023e-5 5.4061234600564545e-6
-0.00047609266229136553 -0.0013039395710953059 1.0334351792704023e-6
-3.9233722372409464e-5 -5.67523921125237e-5 5.412805244368665e-6
-0.0004895876291932827 -0.0009935500631792949 1.7788339829101056e-6
-0.0009669427790420286 0.00016378450535936258 -7.2449475250035e-7
-2.522622414133269e-5 -4.474103755936908e-5 5.510777732668916e-6
-0.00048453568472528854 -0.0008775869715271278 2.153059983603232e-6
-0.0004795791210411014 -0.0016373405654313842 -2.4806326317330375e-6
-0.00020772706044053734 -0.00012903426063946009 5.366544849791551e-6
-0.0003393577949221758 -0.0001771882678482207 7.217271745140804e-6
-0.0004957865639088349 -0.0007186596592455709 2.6504726789936307e-6
-0.000507816161024412 -0.0003965725047657404 5.639203342839216e-6
-0.00047359024945639366 -0.0010988770252544702 1.6212377456278903e-6
-0.00042816478098411026 -0.0004919030047403982 5.107647871029357e-6
-0.0004922760121616886 -0.0008013799564118875 2.350554928083735e-6
-1.449514790316861e-5 -3.2627775006936134e-5 5.700901803245298e-6
-2.8373973768369223e-6 -1.381723322635539e-5 5.4957609862835465e-6
-0.0005224826229998207 -0.0016467128831121089 -2.7395760233367802e-6
1.0905587883252568e-6 -1.027141584037265e-6 4.4289528878273265e-7
-0.0007790887208177354 -0.0015910740141885102 -1.2316288699837064e-6
-0.0010014064572949545 -0.0002084124703246268 -2.7449798304714622e-6
-0.0007731887468622989 0.00021500600052333957 -1.5320835465994388e-6
-0.0010952416403967858 -0.0013143291048071466 -1.0360571039441657e-6
-0.00011214421798495356 8.886742604117576e-5 -4.81417787422836e-6
-0.00047672024234787227 0.00017316543032883263 -3.4910049125012196e-6
-0.0005349867902378449 0.00015374575607052083 -2.5957902259356815e-6
-0.00098631318174922 6.950029894897134e-5 -1.1619779009985304e-6
-0.0009537292438458268 1.1383227095017578e-5 -1.4013750532181134e-6
-0.0010211881041497356 -0.000978808935033354 -1.7566972208433542e-6
-3.32118946672512e-5 3.486347767372988e-5 -3.366606148611684e-6
-2.3906472666279348e-5 4.199574880255122e-5 -5.17106681152118e-6
-0.001078161180131832 -0.0008940832549640017 -2.446882079855834e-6
-1.696407893687684e-6 4.863263756350742e-6 -1.3170731407625306e-6
-0.00046744298714527745 -0.00043897483795827304 5.703841847566206e-6
-0.00022337428031063834 -0.0001567625211158411 6.257258395607977e-6
-0.00031934978812807086 -0.00019770955499505852 7.87031565837761e-6
-0.0004115832127276385 -0.0006779807858884141 3.4154588946516766e-6
-0.0004307585559740897 -0.0016255757977953961 -1.7323561419585937e-6
-3.1153226936882758e-6 1.2872402122834947e-5 -3.859276929282663e-6
-0.0009087509155637128 0.00018583275110409557 -8.169386551802757e-7
-0.0010283228234122916 -0.00043124471865752694 -3.2459830779521805e-6
-0.00021663212738315998 0.0001262563244371561 -4.83927760813676e-6
-0.0009919935242153391 -0.00037069879649491373 -2.7427619616228985e-6
-0.00018072622489488023 9.913187312638757e-5 -4.143919279894793e-6
-0.00014327666487423817 -0.00012499329828414554 6.072894498949166e-6
-0.00013503192963651233 -0.0001475328761398718 7.476829543697191e-6
-8.33578706457154e-5 -0.00011339875107434623 7.529654958609751e-6
-7.718663947470306e-5 -9.149792663122021e-5 6.143258276062599e-6
-0.0010568634983338003 -0.0006112845278853048 -3.2084964359912096e-6
-0.00031808055705812987 0.0001456691060354603 -4.3073038953534775e-6
-0.0003407875336915065 0.00013342686230826133 -3.6642065958071185e-6
-0.00047092989220919924 -0.00024331623846122008 7.417303430735911e-6
-4.0931898642141e-5 -6.406985387146931e-5 6.113735681480527e-6
-0.0004529203927042936 -0.0009771177133928047 2.0518369147084743e-6
-5.778634707713072e-5 -7.793244704082531e-5 6.132093370187016e-6
-0.0009950460963147102 -0.001569534729635347 -6.058441072015081e-7
-0.0009736272956425236 -0.0006995715755480518 -2.021085125517672e-6
-0.0003437855980769432 0.00011371135126867323 -3.0089061956388947e-6
-0.0005380961684795558 -0.0016096735997722068 -2.097992832686773e-6
-0.00016426934208188293 9.414603908756544e-5 -4.150686014738153e-6
-0.0009687710744105582 -0.0003523002088606163 -2.4083438919569418e-6
-5.210627399666792e-6 1.4842804296476187e-5 -3.5073835633403495e-6
-3.996199991290576e-6 7.443217563078399e-6 -1.6552986523936785e-6
-0.0009544088678491946 -0.0015743790269375948 -7.046017261860296e-7
-0.0010629581815416959 -0.0014708043819293157 -6.441492320882253e-7
-0.000979298938932856 -0.0009655661041253379 -1.494149446494451e-6
-2.9614647214836373e-5 2.8618324714339902e-5 -2.9037978634120655e-6
-0.0009190767834580976 1.3229181869315887e-5 -1.2699233733723083e-6
-0.000532173176736108 0.00012729084940316804 -2.103783425835314e-6
-0.0009922352811310537 -0.0015329342257121873 -6.462577048996418e-7
-0.0010311159040041617 -0.0015238190402153602 -5.98125746435705e-7
-6.366764438941413e-5 -6.485913957039026e-5 4.710736141543966e-6
-0.0004895342234860706 -0.001225159508266254 1.201561586700051e-6
-4.719551187487773e-5 -6.263056010312251e-5 5.404258334139033e-6
-0.00048575868821801495 -0.001052967015526659 1.6545163735779725e-6
-0.0009785406492183854 0.00012930337151220635 -8.396275775035847e-7
-0.00047487124056394363 -0.001534147035893487 -5.587821003768196e-7
-0.0003608749039173151 -0.00017967115985508493 7.399546209242397e-6
-0.0001905347523395207 -0.00011817486383263805 5.089619863131814e-6
-0.0004941758843132745 -0.0007606669132417157 2.4884613414916834e-6
-0.0005109166753839958 -0.0003562629576578073 6.124267327270037e-6
-6.983897375672306e-6 -2.1177365680298305e-5 6.034905435962507e-6
7.555771935813231e-7 1.9962361619515744e-6 -7.119584146327637e-7
-0.0008486747578877527 -0.001571111311302769 -9.901647777732887e-7
-0.0009755103822037764 -0.0002230157570776358 -2.4197017233037455e-6
-0.0007967508473212815 0.0002098912676011283 -1.3821325007593888e-6
-0.0010823764015911175 -0.0013493442271788733 -9.356725192408205e-7
-0.00011610716266280329 8.252477380406175e-5 -4.358084799909048e-6
-0.0005683755737946574 0.00018308718337567894 -2.863884517274165e-6
-0.0004753525907652978 0.00020052752573379237 -4.1554581300226825e-6
-0.0004798799839478032 0.00014785502898368032 -2.873202803414992e-6
-0.0009544105229423119 6.72689091591771e-5 -1.1571034668855534e-6
-0.0010180362798239992 7.226357723569701e-5 -1.1445599417835092e-6
-0.0009868118536208665 -1.9165509518893674e-5 -1.7041863663463622e-6
-0.0010708849234521928 -0.0010486476315740303 -1.8159096731370598e-6
-3.786775586179638e-5 4.327978806648203e-5 -3.974962086321219e-6
-2.2119902649669243e-5 3.7106743284122904e-5 -4.634271531541897e-6
-0.0009937451575486684 -0.0008922217524173613 -1.7592159023370527e-6
-2.5265325311366857e-5 4.655822709974589e-5 -5.747057349408463e-6
-0.0011185791982710345 -0.0008847157627759865 -2.837554977958143e-6
-0.000990206627717442 -0.00042641328489281816 -2.6643136472863464e-6
-0.00019736637604223097 0.00010405115003577037 -4.138062122005458e-6
-0.001005865542768633 -0.00032839962420689776 -2.9589289070628233e-6
-0.0001652794062296245 0.00011034121695056893 -4.920786901727764e-6
-0.0010845994267857815 -0.0006044707580359744 -3.6074276389747275e-6
-0.0010671763455986937 -0.00043503338977501276 -3.8586499083018436e-6
-0.00031209130361066495 0.00016617800783543752 -5.104669428178867e-6
-0.00021904620271048488 0.00014447141915877124 -5.59074980975293e-6
-9.179237106427224e-5 -0.00010946733459539402 6.762715091829969e-6
-0.0010323501869162412 -0.0007088228241085412 -2.6479251307637e-6
-0.00038632354941416173 0.0001575277251591908 -3.950518912736682e-6
-0.0003108069935093752 0.00011859808634280566 -3.4581718771104376e-6
-0.0002996633974508299 -0.00019124130757872476 7.394748376782792e-6
-0.0004174338707979202 -0.0006317236449013855 3.6546651273378566e-6
-3.184970078088091e-5 -5.086077649399012e-5 5.4588422201016766e-6
-0.000512015730992849 -0.0009621156487451172 1.7320987960723713e-6
-1.9446025847973064e-5 -3.8683287000934075e-5 5.593133551732433e-6
-0.0004886405654823975 -0.0008410984408744605 2.241620556682677e-6
-5.437829423844627e-6 1.7185441952521426e-5 -4.571093040974186e-6
-0.00046477778460054424 -0.0011417965288918156 1.571985934638752e-6
-0.00043678225110568185 -0.0002109923163470404 7.629302935508515e-6
-0.00098494718060261 -0.0014984356782781275 -6.833508049765762e-7
-5.466936670198038e-6 -1.8604777769834177e-5 5.397021698371762e-6
-0.0005092922214327096 -0.0002414194639431594 5.860130490374968e-6
-0.0004656860373231411 -0.00017806381425052966 5.546470919563578e-6
-0.00017198675461900558 -0.00012405695788535607 5.557656870917478e-6
-0.00047606688301913246 -0.0014781426806958582 5.885220277151751e-8
-0.00010368316389306338 -0.00011570844218158263 6.711345173962984e-6
-0.0003181749475093408 0.00010753293120854006 -3.019343722132013e-6
-0.0009599574750158884 -0.00065153074690995 -1.924742215211354e-6
-0.0005547361145095865 -0.001655434063507698 -2.7915211971958327e-6
-0.00017912959204993706 6.841850056252433e-5 -2.7522488827168556e-6
-0.000946646534404744 -0.00038804352946764635 -2.053598765922248e-6
-1.3236796036384049e-5 2.5809263754373122e-5 -4.1331659695158865e-6
-0.0009375441723226756 0.00014188525822638734 -9.119480984845667e-7
-0.0010341317997573166 -0.0007673103795281279 -2.4574560159816354e-6
-0.00041616014023543427 0.00015391604214940997 -3.5708567532875026e-6
-5.77701192155236e-6 1.1718755292892218e-5 -2.4577351544824797e-6
-0.0009452715760628514 -0.0009184920589456989 -1.327011117181707e-6
-2.4214750493685005e-5 2.6419112539572587e-5 -2.957104573639516e-6
-0.0009207653157701251 4.0984960691490734e-5 -1.2008521359922836e-6
-0.0005062475809144035 0.00012576703420969925 -2.2165498319222904e-6
-5.385670750558119e-5 -5.8866326470768085e-5 4.655264972878326e-6
-7.448513450952213e-5 -8.106996970233771e-5 5.4904780245552065e-6
-0.0008662345672804656 0.00019625475252631536 -1.004577586027401e-6
-0.00014996353802913798 0.00010534744590768261 -4.947660071250501e-6
-0.0010162735860949597 -0.0002939401630676201 -3.099298912757834e-6
-0.000526384564988612 -0.001304014999904981 6.859484619804012e-7
-3.758063661150182e-5 -4.947123356761816e-5 4.723027695576058e-6
-0.0005462090298099125 -0.0009787571792978119 1.4620900150795794e-6
-0.0009485549231693316 0.00011959938665859749 -9.535274263154855e-7
-0.0005109155104707566 -0.0003172001064786141 6.408783866990556e-6
-0.00038400391035195284 -0.00018104550272252408 7.341280702074716e-6
-0.0005393216194488635 -0.0007173154435909276 2.3060077451140556e-6
-0.00021058097543799788 -0.00011203522527741744 4.700453852511555e-6
-0.00033937466579297146 -0.00015178316069317728 6.104411995248749e-6
-0.0005454398757352782 -0.0004010117928518147 4.680009150167483e-6
-2.0661508778577124e-7 5.691313954170228e-8 5.2655402384958614e-8
-0.0007748143673056683 -0.0015454231084399664 -1.0920121640420064e-6
-0.0008691378198960887 -0.001608384503287535 -9.533941855879683e-7
-0.0010185971678571435 -0.00026309181242468646 -3.0990253058362236e-6
-0.0009599165941021918 -0.00020601068385225243 -2.182835925720033e-6
-0.0008282046512307187 0.00020421820920882153 -1.1897371926711906e-6
-0.0007823963905609687 0.00018221807715775842 -1.3835108339743015e-6
-0.0010473642957933202 -0.0013172260162121739 -9.77913356795061e-7
-0.00011200173762976585 7.556340361018113e-5 -4.049870650799393e-6
-0.0010946272865513405 -0.0013864868113972026 -8.516188257546295e-7
-0.00013597197661997058 0.00010062961997446009 -4.9624688037874865e-6
-0.0004477125773366951 0.00016597751904783066 -3.589443732718875e-6
-0.0009838448375143537 9.884258168096013e-5 -9.950476946376974e-7
-1.908240719701826e-5 3.482695677716393e-5 -4.750004918002707e-6
-0.001032868111989594 -0.0008565522180704634 -2.1774803824526003e-6
-0.0003003407810046793 0.0001336641380271369 -4.0924881261323384e-6
-0.0010339273594545178 -0.0005909036518700476 -2.976209940813338e-6
-1.0882842863231814e-5 2.5076860486447624e-5 -4.656620899905567e-6
-2.3763281283921854e-5 -3.960073634090496e-5 4.896711803864612e-6
-0.0005218542344183658 -0.0008807901460823771 1.8807417055321896e-6
-1.3001457322436901e-5 -2.8857680187987963e-5 5.083492218086636e-6
-0.0005420741051701288 -0.0007985798424472726 2.005028000274646e-6
-0.0005147565967366494 -0.0011071707327683811 1.3377720570597826e-6
-0.0004582223450857473 -0.0011827954540986944 1.5165052549948895e-6
-0.0010733917460799879 -0.0014107667458348521 -7.926882489825732e-7
-0.000910028457366589 -0.0015808312155717544 -8.20452660414812e-7
-0.0009861291216982687 -4.9836963713380096e-5 -1.877116613990132e-6
-0.0006014019716036013 0.00018384735406357195 -2.6065692489198193e-6
-0.0010673031288027345 -0.0010799433058791324 -1.7217118132286849e-6
-5.2208989036346906e-5 5.46257247808139e-5 -4.3144848839731945e-6
-0.0005035042543903684 -0.0014975665711050104 -3.712280821217078e-7
-0.0005816726076150884 -0.0016309485569428576 -2.3460202018792837e-6
-0.00027163692543289195 0.00012683482497856746 -4.173107894713856e-6
-0.00101751694208347 -0.0005374437273226567 -2.888940492973284e-6
-1.6336852391391473e-5 3.0711344029160816e-5 -4.493751147647522e-6
-0.001017810048074162 -0.001287609506515324 -9.89670441343842e-7
-0.00010755189001509614 6.735102323309702e-5 -3.6805498331129853e-6
-0.0007664056370792237 -0.001502248017108155 -9.49027102305301e-7
-0.0007639523583380652 0.00014830103131976155 -1.3513476067068829e-6
-0.0009481549282863804 -0.0001898523298722396 -2.011603843084937e-6
-0.0010063434916243903 -0.0014516741341587308 -7.21103306234824e-7
-1.4368015648706452e-6 9.508623808518583e-6 -3.1801934936324076e-6
-0.0004346857313429774 -0.0001516501565048006 5.260990258540658e-6
-0.0005476915678984348 -0.0002824107713492745 5.042617710717146e-6
-0.0004942674107384384 -0.0002084567115293673 5.666193834744621e-6
-3.4957620714665426e-6 5.61041035275302e-7 -8.12008312621551e-8
-0.0010560605434584056 -0.0008057218357963613 -2.5515552860399584e-6
-0.000498097572398331 -0.0014560346651677429 4.872020473606462e-8
-0.000155913181008946 -0.00011531272477821978 5.41400471998959e-6
-0.00010744909827760458 -0.00013014529048558786 7.492981116006741e-6
-0.0002987917455586414 0.00010461992912019605 -3.1017229172584953e-6
-0.0009806481173679359 -0.0006076444061505979 -2.252507159253555e-6
-0.00035041001592260986 9.053050822239322e-5 -2.2245763877735103e-6
-0.00019565592004712845 8.6933830076553e-5 -3.4073616278483564e-6
-0.0009585843274166145 -0.0004205236569229317 -2.2106934343479996e-6
-0.00016322039427465806 6.229423643582267e-5 -2.6382340230696624e-6
-0.0009099204121796599 -0.0003608940926420963 -1.515582834690171e-6
-1.3523685751027122e-5 2.178616829153985e-5 -3.2921188538338657e-6
-0.0009193632145374303 0.0001297852864765224 -9.826198093400487e-7
-8.42796194522597e-6 8.89029236562691e-6 -1.5479404786984504e-6
-0.0009385293661014398 -0.0009540949091154144 -1.2242644392237475e-6
-3.170320033763379e-5 2.4237125230599662e-5 -2.337417119516838e-6
-0.0009504110223191221 -0.0008831220096530771 -1.4248849829594203e-6
-2.0076365686814816e-5 2.7262746100604832e-5 -3.3852163075114577e-6
-0.0008843199981049793 1.6984289595609753e-5 -1.1406009901030938e-6
-0.0009224657923681558 6.69473356864364e-5 -1.130041658452613e-6
-0.0005284329357191623 0.00010271538146130774 -1.6422423946488863e-6
-0.0004824195979552551 0.00012323973429408962 -2.2913780017230743e-6
-0.000844122359272438 0.00016445703329693814 -1.1286477561022306e-6
-0.00013560272023257176 8.708561610543065e-5 -4.247760414327452e-6
-0.0009717984299735678 -0.0002476620752967986 -2.404508637939141e-6
-0.0004686235954376668 -0.0013438948030816708 9.426092737098665e-7
-0.0005503845611954677 -0.00031879072475354646 5.054462404885658e-6
-0.00022715313270656865 -0.00012162081344181399 4.971342534048314e-6
-0.0005341649098680672 -0.00044316727559818485 4.466321755723488e-6
-0.0007435249979064 -0.001587747429538463 -1.333757803925944e-6
-0.0008859284836043527 -0.0016526072087873548 -9.004311894683903e-7
-0.0009847199350806757 -0.00018617097022654883 -2.474890685364427e-6
-0.00098849465989476 -0.00024134487241355722 -2.628557897646515e-6
-0.000814133330276125 0.00017417160415269 -1.2402981569923263e-6
-0.0007542320917785574 0.00019744096428720426 -1.5849571338722816e-6
-0.0010751594079549758 -0.0012872954778127492 -1.0842001786577663e-6
-0.00010362140554913998 8.017184568554647e-5 -4.528404953262013e-6
-0.0001241941342453269 8.474481711826562e-5 -4.318915413854517e-6
-1.037465594161193e-5 -2.6806841664930917e-5 5.857427753464341e-6
-0.0010186217974623279 -0.0013994104187803537 -7.939227083864917e-7
-0.0008747405325460306 -0.0015457979941237798 -8.92868599860377e-7
-0.0005238270567434709 -0.0014601002372319663 -1.7492680685727575e-7
-5.218680440793094e-5 -4.878103389173828e-5 3.853332911125418e-6
-0.0004954028800143657 -0.0011855159634488513 1.268404547837748e-6
-0.000570041751330995 -0.0012930689400614133 4.7787825140651e-7
-3.544238787744547e-5 -4.2271408908853835e-5 4.0863779548018e-6
-0.0005816100069081574 -0.0009950765935465425 1.1852252356865918e-6
-0.0005517731919065674 -0.0011190278447557483 1.0807920072279169e-6
-0.0003842636845378198 -0.00015371765105170185 6.0183808841540265e-6
-7.414982868934016e-5 -7.16825209874565e-5 4.830471241315332e-6
-0.0010000101100134683 -0.0007901131620661619 -2.0542949273804003e-6
-0.0004339480418966146 0.00013163309184739704 -2.807357254866663e-6
-2.2507211447741576e-5 -3.4762921198394005e-5 4.3209095326315264e-6
-0.000554498900900681 -0.0008933367890760277 1.606371522901563e-6
-1.1811340504578429e-5 -2.5263375227862215e-5 4.46497219623914e-6
-0.0005949072152523843 -0.000797727220370504 1.5942574027019222e-6
-0.00029904267728934414 -0.00016916309738882325 6.626259479440892e-6
-0.0004625783389160628 -0.000629937423073055 3.384542623465604e-6
-0.0010282474241447496 -0.0010740413876331701 -1.5229283699754933e-6
-5.687947237597747e-5 4.523822397449306e-5 -3.3530541396740645e-6
-0.0009515187225862522 -4.704590269396479e-5 -1.630502412172694e-6
-0.0005986350496289338 0.00015204053747692266 -2.1539176381576143e-6
-0.00033923614029352265 -0.00012667126058126896 5.0834022106502855e-6
-0.0005873773912649597 -0.0006816415769427066 2.06626776319284e-6
-0.00021468691676099195 -9.462243163340422e-5 4.016547619886987e-6
-0.0005818104228340771 -0.0004104572316656691 3.8575308627543754e-6
-0.00037600779212786 -0.0005905721656766251 4.1067573770874656e-6
-0.0003007311964586344 -0.00021217129887549752 8.03803130829438e-6
-0.0011079886049922278 -0.0010874018526544128 -1.9116748204061434e-6
-5.540700395884734e-5 6.81124610808593e-5 -5.3908880151597984e-6
-0.0010206014356696196 -5.121556320605132e-5 -2.126177114288158e-6
-0.0006026549531165446 0.00021617461003921567 -3.07204860380924e-6
-0.0001414658889348868 -0.00011001045509591374 5.3689319290674065e-6
-0.0002348572779583067 0.00012957492830815566 -4.724158951563788e-6
-0.0010277007217399175 -0.00046627744877360245 -3.186006524697909e-6
-0.0002416719429011129 -0.00016659259508357792 6.4817806776572624e-6
-0.0004907376676438721 -0.0014352227077825306 2.5031239919284086e-7
-0.0004253814735778391 -0.001300656353163178 1.427926905134601e-6
-0.0005968172507018658 -0.0016763532196679342 -2.8696370122103175e-6
-0.00026046154634866816 0.00015223010429647963 -5.277854075974876e-6
-0.0010681010520819662 -0.0005129190924085089 -3.6829244848276675e-6
-0.00011585620727132042 6.260166426781073e-5 -3.2439404676127838e-6
-0.0009923605377393863 -0.0013145232698130028 -9.017904465492897e-7
-0.0008038160311675864 -0.0014914497925962327 -8.925734279131833e-7
-0.0007992531778852456 0.00011538563094796691 -1.1408661924638028e-6
-0.0009312585057829686 -0.00022170786390756343 -1.8251978760893497e-6
-0.0005901460793342099 -0.0003171051996535992 3.974136757454275e-6
-0.00038385479202110044 -0.00012762528163811794 4.932479447836036e-6
-0.00024393768589853706 -0.00013034282407727726 5.218576923145472e-6
-0.0005162780338164603 -0.00048438390219175074 4.29766075745232e-6
-0.000582317723415652 -0.00025103595163711875 3.84468757349547e-6
-0.00046254871988086614 -0.00014741256868446755 4.633310588042521e-6
-4.34829605355045e-6 3.867191002367276e-6 -7.841612854098102e-7
-0.0010962217348059874 -0.000791033592402842 -3.020824210341743e-6
-0.0004167550185837637 0.00018770484736372605 -4.520357538024578e-6
-0.00017286225903068102 -0.0001068435855854236 4.791230044126995e-6
-0.0001938586716300586 7.043401039611383e-5 -2.711726098667045e-6
-0.0009149429921918454 -0.00041419617361521354 -1.5599200624519472e-6
-0.0009331308193250914 -0.0003250865614013277 -1.8809453167376458e-6
-0.00014692108896466064 7.316664257060481e-5 -3.3957383954538644e-6
-0.0008707311790043056 0.000145140550325456 -1.04449258709656e-6
-0.0009267188864763269 -0.0002869134089059379 -1.7881364127129373e-6
-0.00013272460448109175 7.242352748629707e-5 -3.5264710121305315e-6
-0.0009397534456633337 -0.0014951553743444814 -7.370283251164495e-7
-0.0005720167884944386 -0.0015330004852100543 -1.1311844600026978e-6
-0.0006077294736662528 -0.0012512375848389484 4.189421235713224e-7
-0.000969096228285348 -0.0007604333743797421 -1.8184922118688888e-6
-1.600713023207781e-5 -2.6150674437589288e-5 3.806504289845774e-6
-0.0009002895076308941 0.0001367202786906308 -9.984456180052577e-7
-0.000298856209908122 -0.00014679546554186395 5.81344650815736e-6
-0.0005060998082595321 -0.0006317805821929358 3.040873745157964e-6
-8.592968838928339e-5 -8.208631104484946e-5 5.144445138347216e-6
-0.0009875028231527713 -0.0010604469483563568 -1.3381707261831555e-6
-4.940528852865622e-5 3.735254142537182e-5 -2.9798100036341374e-6
-0.0010628406457386917 -0.0011099752373268464 -1.6296298335532581e-6
-6.44749979686343e-5 6.204843785807632e-5 -4.413849028771538e-6
-0.0009167505389860494 -4.3507216409662965e-5 -1.391108370158298e-6
-0.0009846049151624222 -8.094229401291163e-5 -2.0298410846728525e-6
-0.0005889202993577109 0.000122105944482785 -1.7652369937008203e-6
-0.0006340069815538158 0.00018528539788096048 -2.406929103970178e-6
-0.0003609356856187317 -0.00012743062730833846 5.053947838758861e-6
-0.0001981243993790742 -8.514081700221157e-5 3.7153625661147153e-6
-0.0005988673613299901 -0.0007455281940267093 1.7026144763332016e-6
-0.0005989216274087467 -0.0003616460399702775 3.707837858142953e-6
-0.00042398021371539907 -0.0005845055787081247 3.984522736988601e-6
-0.0002800236972600004 -0.0001838080770302134 7.011548377088827e-6
-7.460313426799077e-5 -6.039938191606325e-5 4.0249717669827554e-6
-0.00033840682585863796 6.4912095768221e-5 -1.4833822393078693e-6
-0.000878846800667476 -0.0006857022360368985 -9.324492057168781e-7
-0.0006941825273275291 -0.0016039507499732652 -1.6386101596993205e-6
-0.0001690980636726422 4.928445466762748e-5 -1.9866815111395914e-6
-0.0008701274802831283 -0.0003423105739106709 -9.431442345928911e-7
-0.0005217608522788531 -0.0014210349269532605 9.879767477649627e-8
-0.00048200284292826775 9.919534165555687e-5 -1.7468560776438553e-6
-0.0008955121724428966 9.142597467573392e-5 -1.0596733420864288e-6
-1.9798358857854967e-5 2.1734549264952723e-5 -2.6933285410187035e-6
-6.0701242526677594e-5 -4.4116613800486216e-5 3.22072866334293e-6
-4.284866547070226e-5 -4.309373103551145e-5 3.7800245280905074e-6
-0.0005897755330917104 -0.0010510450043296202 1.012928605623215e-6
-0.0009251889650959601 -0.0006172756284063987 -1.555074535607839e-6
-1.310465192737475e-5 1.1399575944899102e-5 -1.6564859983552674e-6
-0.0005885203311192492 -0.0008521410329927625 1.48413868981308e-6
-2.7315567677163742e-5 -3.378789871046913e-5 3.7191301629156062e-6
-0.0006122149665736266 -0.0009496673383113868 1.0851571425712242e-6
-0.0005649083407050423 -0.0011583086949710506 8.922410997227514e-7
1.6863221135327102e-7 -3.7023199269510166e-6 1.308499717524222e-6
-0.000899650243370801 -0.0009474204316736331 -9.539280387413145e-7
-2.985070249320191e-5 1.79116952930423e-5 -1.7398702639464012e-6
-0.0008520507511113649 2.325201341031363e-5 -1.0250624802435372e-6
-0.000543569561371154 7.660296984631393e-5 -1.1123955702372886e-6
-0.0002608762249059107 -0.0001565889732496275 6.103863449440689e-6
-0.00011695863295830736 -0.0001236901761710349 6.711893838479191e-6
-0.00012779977761379405 -9.38965251136152e-5 4.781952097510614e-6
-0.0002195770247591003 -7.695296779865657e-5 3.3174884177546346e-6
-0.00031820629873948944 -0.00010117549994045812 4.131667011710253e-6
-0.0005928579449134218 -0.0006426607501937104 2.1851347900713526e-6
-0.0006147823300244809 -0.0004262897744642374 3.1550412568356374e-6
-0.00026093532770106817 -0.00019431068911903064 7.275633532280103e-6
-0.0010221488692508185 -0.0008208812558995117 -2.178127163455159e-6
-0.0001380725446511236 -9.479788296530458e-5 4.658957826251846e-6
-0.000973945702999714 -0.000143241201603094 -2.172121576291678e-6
-0.000704652451934234 0.0001939878379599721 -1.9497972930036445e-6
-0.0010736981550719979 -0.0012254636320313593 -1.277477135350193e-6
-8.762629779618028e-5 7.03938325302072e-5 -4.299634796089829e-6
-0.0005827093727260421 -0.0013269778634305085 2.8433025569528925e-7
-0.0005664051090549891 -0.0014667875280811992 -4.770425669432744e-7
-1.7432034699913653e-6 -1.197495578280103e-5 4.7769621502318925e-6
-0.0001142629917911716 -0.00010853152245872306 5.898389499442051e-6
-0.00012877543025131296 -0.00011741886820297159 6.00515937509986e-6
-0.00026162136779051774 -0.00013738244348671035 5.437806126530937e-6
-0.00046088783657239685 0.00012042671498221855 -2.3479176218823177e-6
-0.0008967201788811974 0.00011419527838419008 -1.0333263749920724e-6
-1.6846078106353353e-5 2.206018214323795e-5 -2.948007723316838e-6
-0.0009600699174947251 -0.0008480591483287336 -1.560903216366761e-6
-0.0004790143544670866 7.515302896739774e-5 -1.2071430313161576e-6
-0.0008575522039962758 8.081195736708853e-5 -1.0576947756328747e-6
-1.8256294808942408e-5 1.6377387528406567e-5 -2.042886742480792e-6
-0.0009035490859695928 -0.0008700636295804927 -1.0589480903067014e-6
-0.0009714398794589466 -0.0012882959142658213 -9.030178792376343e-7
-0.0007762487239468915 -0.0014462393747419363 -7.726148465556134e-7
-0.0007734900948101726 0.00011322681942746017 -1.1607725575605902e-6
-0.0009241815003741944 -0.00018995980230802014 -1.7202476231756335e-6
-0.0004823016707026649 -0.000526949292126365 4.155149988203726e-6
-0.0004969907063531236 -0.0001745069705549429 4.693382978465208e-6
-6.45219647678056e-6 -5.811947550403443e-7 1.471135536090902e-7
-0.0009598128786807359 -0.0015101572356133114 -7.020886736096603e-7
-0.0005707711394099029 -0.0012189896819919104 7.18259408678791e-7
-0.0006204487890954474 -0.001299123676800108 1.954244703624407e-7
-0.0003688268803172575 0.0001110725493309857 -2.721377867635922e-6
-1.0637382000087807e-5 -1.8619982878466386e-5 3.215878903623699e-6
-0.00031865770605925525 -0.00014976037225917683 5.982985615554239e-6
-0.0004999357274508566 -0.0006754595190978168 2.8366623176382655e-6
-0.0009646031133085105 -0.0010042900734125123 -1.3165000853102627e-6
-3.7897728100998086e-5 3.266864004842135e-5 -2.9339870597865103e-6
-0.0009177086714651568 -1.4722863384426267e-5 -1.3338903063414085e-6
-0.0005601051949145516 0.00012627717688912037 -1.95131704428877e-6
-0.00020276129503631976 -6.846164500424939e-5 3.031471851351466e-6
-0.0006319912727370782 -0.000389915438555664 2.95452954170473e-6
-0.00017692640673176396 -9.101643087139771e-5 4.083794317233512e-6
-0.0008705313351990071 -0.0006570624152717613 -8.718156661272894e-7
-0.0003094947089986995 5.0860944984313576e-5 -1.1796630875564004e-6
-0.0008524782018483225 -0.000374569735470918 -6.677043177321934e-7
-0.0005688235735074515 -0.001402356678850793 -4.5643633487288056e-8
-5.177107102128899e-5 -3.943703005459411e-5 3.0903536982962486e-6
-0.0006407367425219076 -0.0009839137351669949 8.266332571506129e-7
-3.298712171558956e-5 -3.626157895508605e-5 3.610410845060372e-6
-9.053135922030341e-7 -1.0144472204846161e-5 4.007950126359097e-6
-0.00020701135088022182 5.078956712275113e-5 -1.7821413042386178e-6
-0.0008843351810840615 -0.0004312982359330006 -1.1024716704647523e-6
-0.00028740701281744534 8.701143849460412e-5 -2.5834901021765257e-6
-0.0009463910396786964 -0.0005855361229487741 -1.8571466307709121e-6
-0.0006516236564966526 -0.0007934433226656919 1.1186303517570989e-6
-0.0006084911157235122 -0.0008997489467922395 1.2317495356877706e-6
-2.1014404512901612e-5 -2.6117350012703287e-5 3.2473806553373087e-6
-0.0006073600435567224 -0.0011036939789874686 7.91629833798551e-7
-0.0008630479022317444 -0.0009127610212430521 -6.937946981318135e-7
-2.5238240799893413e-5 1.511787787762598e-5 -1.5718437592620529e-6
-0.0008227180611643276 3.5944267233810276e-5 -9.508691941865621e-7
-0.0005062050935490003 7.1321132897159e-5 -1.068247492428956e-6
-0.00026060035029340734 -0.00017547780700899975 6.718059103787492e-6
-0.0001144733877247829 -9.50814792062615e-5 5.126459867847941e-6
-0.0002980967741377741 -0.00010150998111700615 4.136846250856682e-6
-0.0005991033987940241 -0.0006017622530015934 2.3172638627627157e-6
-0.00023868419285907297 -8.535820079625274e-5 3.585353135299293e-6
-0.0005992508882352123 -0.0004676787506146681 3.168333343254367e-6
-0.00033903368857584904 -0.00010131174031579545 4.1169439232743325e-6
-0.0006363347862652058 -0.000695758857178299 1.5570782052032599e-6
-0.0009710967460859086 -0.0011018944606295147 -1.1765925253681457e-6
-6.060056586112088e-5 3.675927101978728e-5 -2.611258626292409e-6
-0.0006170186180145105 0.00011398903787861243 -1.5644273840306116e-6
-0.0009144092615078434 -7.218267526055412e-5 -1.4306279973977425e-6
-0.0008751206043548769 -0.0006174854943799748 -9.44100385319267e-7
-0.0002922393258425267 5.871386887661974e-5 -1.5498172110699652e-6
-0.000515154726744495 -0.0005867884724365783 3.265198893426979e-6
-0.00027986005368444935 -0.0001427141801490612 5.628238015846582e-6
-0.0001014573693763405 -8.515060104626291e-5 4.878330345400625e-6
-0.0006193176042950089 -0.0015023446274771003 -9.356716603710735e-7
-3.3630220083404653e-6 -1.3726617679166965e-5 3.969092510581082e-6
-0.00044480285260542946 0.00011796447668877733 -2.3843488245436286e-6
-0.0009975988009276765 -0.000832192217107046 -1.919963044094999e-6
-0.0006614856584548359 0.00018993514044432448 -2.2801262315008785e-6
-0.0009811701020785901 -0.00011261952962551365 -2.1404961187512972e-6
-0.00106490862298261 -0.0011611387415095542 -1.455024351507792e-6
-7.610348986822407e-5 6.731668284785669e-5 -4.40889221157214e-6
-0.0008295917488200656 0.00013914064340179823 -1.1547153258498889e-6
-0.0009506955249006227 -0.000259364089029877 -2.1067092012531793e-6
-0.0010251006359064184 -0.0005018973197592373 -3.0729460335574043e-6
-0.0002535944203083223 0.0001303070800334163 -4.509317024592205e-6
-0.00014000989716174598 -7.645287463799797e-5 3.7778185852424497e-6
-0.00040862772286760584 -0.0001533731708170709 5.72978662983355e-6
-0.0006188505968053486 -0.0016316178645468474 -2.209239565734117e-6
-0.0004288576824720589 -0.0005374184713043157 4.450278274526434e-6
-0.0010349071737301584 -0.0011945868861597741 -1.2434716729830577e-6
-7.55625247139918e-5 5.519113249851852e-5 -3.5730323585017935e-6
-0.000677206631445998 0.00016808769493573773 -1.9337602357577738e-6
-0.0006618820620053746 -0.0015596767638776882 -1.4093823923484908e-6
-0.0009446988655877834 -0.00010608563799254864 -1.767452211075532e-6
-0.0005651691871925882 6.976291614085681e-5 -9.697384373437349e-7
-0.0008420704495567482 -7.650062573452892e-6 -9.571299871368093e-7
-4.253375861826934e-5 1.649071549168761e-5 -1.3802096529924406e-6
-0.0008845726864498234 -0.0010600491544372247 -7.624386152516209e-7
-2.665343759891966e-6 -8.915094442706561e-6 2.3991297556703695e-6
-0.0005272991216500679 -0.0002183178966850832 4.8625258651057425e-6
-1.4515680027809656e-5 7.242762596083421e-6 -9.777683804793989e-7
1.5597493203096008e-6 -4.106705205811366e-6 2.239394847397216e-6
-0.0011035873271772875 -0.0011917579991123299 -1.4658165644246883e-6
-7.823691924363198e-5 8.028472262261807e-5 -5.278619232284925e-6
-0.0006753852827543823 0.00021828124526728765 -2.3987984567316155e-6
-0.0010186202622187927 -0.00011823505462719586 -2.5603157978315406e-6
-0.0006685794855984966 -0.001638292192013667 -2.0284596260531174e-6
-0.000849846660304151 -0.0002945088881266798 -6.894081298976796e-7
-0.00015603784597063427 3.919230077307469e-5 -1.6441648085920588e-6
-0.0003728138454241689 4.066089498455186e-5 -5.936314307082992e-7
-0.0008764032018347994 -0.000721312892571093 -8.921347616515892e-7
-6.879825714764929e-5 -4.659473919419353e-5 3.213370476061643e-6
-0.0003834495633420914 -0.00010271127166672292 3.992552709242988e-6
-0.000640312952318637 -0.00033789339595229734 2.7972512800232495e-6
-0.0001174983318834983 -8.205739804457015e-5 4.357150315258664e-6
-0.00012659473223547 5.717890832123019e-5 -2.8120260780129624e-6
-0.0008251779955142699 0.0001107964810847641 -1.1120664360615216e-6
-0.0009259893769648212 -0.00025435270750406863 -1.7625436802084922e-6
-0.0002466204121751052 0.00011052011569238122 -3.820529324184363e-6
-0.0009840502505590724 -0.000491070483930421 -2.4992024343690885e-6
-0.0005971087107108955 -0.0015871904854582166 -1.757344467922427e-6
-0.0006364002580422222 -0.0016034929287636907 -1.8527617124319168e-6
-3.176751373585231e-7 -8.272082384196675e-6 3.1974826380161332e-6
-0.0009440912837933229 -0.0007941352626454481 -1.521267535689226e-6
-0.0005580423283914014 -0.00059423454506484 2.8003414715110542e-6
-0.0002987351766890782 -0.00012421843102273933 4.97866928987475e-6
-0.000528169177612312 -0.0005419610590982539 3.5077513539295493e-6
-0.0009265081464097974 -0.0010812368754858717 -9.748232705249075e-7
-5.3935563820473116e-5 3.103729758229559e-5 -2.3392363698120684e-6
-0.0008809776717147584 -6.7630431277301e-5 -1.171683906008284e-6
-0.0006007883520510438 8.638593815666545e-5 -1.1985769581845718e-6
-7.538021120852509e-5 -3.923540353468035e-5 2.616158952172586e-6
-0.0004054778128336174 -7.692944352277955e-5 2.9824165756998175e-6
-0.0006749983108722742 -0.000322608257964749 2.1349717613446503e-6
-0.0009858289672590227 -0.0012610786185731596 -9.66410677028444e-7
-9.569331717421084e-5 5.892662140890815e-5 -3.4209052819192054e-6
-0.000929077771202367 -0.000162059021851333 -1.7348238766673975e-6
-0.00046767775294962306 -0.0004817505101264205 4.8801439775976265e-6
-4.583061463197879e-6 -3.853684983709502e-6 8.763840635572481e-7
-0.000611260675722823 -0.0012127868762216887 5.072984030744041e-7
-6.7419817752072135e-6 -1.7651118097988797e-5 3.896357328295871e-6
-0.00018202614634788935 -7.535164113739184e-5 3.3981748502090854e-6
-0.00016889053165637254 2.699238404952172e-5 -9.974410102861628e-7
-0.0008327402487723067 -0.0003257529093550307 -4.172950853497145e-7
6.159535268444256e-7 -6.8142133500374e-6 3.832624172213385e-6
-0.00024601526269568225 -0.00011315870249721169 4.577734105461689e-6
-0.0005477714629986259 -0.0004985636730633804 3.709025128470523e-6
-0.0006370116228376954 -0.0006078952309325881 1.8651948381875554e-6
-0.00029610628350405484 -7.899627829754754e-5 3.3100505777387864e-6
-0.0009940133763435676 -0.0011657609297643751 -1.1607301721653698e-6
-6.795608764689579e-5 4.120365634977906e-5 -2.7692197257979757e-6
-0.0009096713532442626 -9.998794396789254e-5 -1.4367726783579971e-6
-0.0006647026695387463 0.00012266012433739752 -1.4893006687212106e-6
-0.0009691010478422459 -0.0012045199409196933 -1.000031150101719e-6
-7.647974486315265e-5 4.453213041099352e-5 -2.827914754586459e-6
-0.0007013705981740215 0.00014063506108019696 -1.5412720038502349e-6
-0.0007081286688435625 -0.001493826378766938 -9.449577673370162e-7
-0.0009028550469899633 -0.00012766576718928102 -1.4077555295545796e-6
-0.0005533141762338021 4.680960335380364e-5 -5.613371237295657e-7
-0.0005874532469589696 6.201156303919677e-5 -8.343739071465307e-7
-0.000850802757248925 -3.840367318171707e-5 -9.625902108782694e-7
-0.0008119660027606631 1.2614339980464425e-5 -8.545267690656999e-7
-4.789233337768041e-5 2.410669959936419e-5 -1.9248385474702604e-6
-3.2958791511163434e-5 1.4839909729005934e-5 -1.3850364549776816e-6
-0.0008648797537432459 -0.0009955320683330605 -6.803529117194765e-7
-7.049020358306468e-6 -9.251768352182373e-6 1.8078342478764645e-6
2.6684453252242664e-8 -6.234944849427147e-6 2.327969519127712e-6
-0.0001313257169725315 3.595701424779519e-5 -1.698278569960937e-6
-0.0009077576138364553 -0.0007734758721103398 -1.209240335332718e-6
-0.00039530129404139434 6.0390981754432486e-5 -1.0986444053195184e-6
-0.00032589627612805716 4.3288382455591566e-5 -8.432682852957326e-7
-0.0008493290464744376 -0.0006857077464600236 -6.142076912947071e-7
-0.0006084939324330016 -0.0013584111149933231 1.5835768704536974e-8
-8.148789271615466e-5 -5.428769532408314e-5 3.4766774220764097e-6
-0.00040615551341264503 -0.00010201739467991921 3.822775358896198e-6
-0.0006276959050542381 -0.00030709383759528884 3.059534146489024e-6
-0.00024113920423097246 9.214865531917935e-5 -3.1628904791399876e-6
-0.0009503292366061186 -0.0005123805078978597 -1.992352631099691e-6
-0.000880987598441563 -0.0014536802172185404 -7.79344307953552e-7
-0.0009456542608166876 -0.0014133720616669265 -7.555530742847752e-7
-0.00014701795210836168 -6.678443575685935e-5 3.275535296555865e-6
-0.0006478213147936969 -0.0005713289284557031 1.90797102161029e-6
-0.0002764674880417402 -8.11852397321546e-5 3.4055454783242915e-6
-0.0006902721946770807 -0.0005860492046059113 1.342690818292351e-6
-0.00029170907345031324 -5.8651985872327674e-5 2.593820668301842e-6
-0.0006177947566872081 -0.0014192446881840402 -3.681659527561148e-7
-0.0001610859140479394 -7.97058275561423e-5 3.726663247639851e-6
-0.0001723132842150155 -5.079102050600051e-5 2.400693270561985e-6
-0.0006492270462890155 -0.0011760780924765786 3.74332081105068e-7
-0.0009263414142252344 -0.001182697148195928 -8.722078094172694e-7
-7.020997890753506e-5 3.235915394072211e-5 -2.1172457363030897e-6
-0.0006814577210202346 0.0001001836582087932 -1.222875942389291e-6
-0.0008683965391863571 -0.00012042317877212083 -1.0715111436593778e-6
-6.590255776281152e-5 -2.644648356466013e-5 1.869018151449965e-6
-0.000672064945051483 -0.0003845077834787765 2.199105103138362e-6
-0.0003668218491555496 -5.420927147383557e-5 2.3840888004609877e-6
-0.0007400973453711054 -0.0015144044390086088 -1.0137124505325366e-6
-0.0005756788053203095 3.939942515758572e-5 -4.6093794537574393e-7
-4.830393224415897e-5 1.253622930576716e-5 -9.919560044507912e-7
-6.366303063102883e-6 -1.2064664284494204e-5 2.496198463718979e-6
-0.0008622409609739078 -0.0007620980300796388 -7.702160441545007e-7
-0.0004037921183723066 3.245235136783556e-5 -2.7207001212748605e-7
-0.000917348304796756 -0.0013871988681591258 -7.524190577113561e-7
-0.0001292653746670135 -6.411402403451555e-5 3.282127245371122e-6
-0.0006611192718873391 -0.0015037132964886499 -9.775518973055448e-7
-0.0009050017307957224 -0.0011206013026209113 -8.302367960493729e-7
-5.789008179291842e-5 2.500090054740052e-5 -1.8017697377268837e-6
-0.0008499205360285251 -6.34944165213519e-5 -9.453061359705189e-7
-0.0006234025398240563 7.532017081844918e-5 -1.024334433562588e-6
-9.429098896733659e-5 -5.249181716453256e-5 3.111075176061931e-6
-0.0008930112644300918 -0.0008122249358363462 -1.0300682919282259e-6
-0.000423990151132057 5.965971336279789e-5 -9.939760348268082e-7
-0.00042841338483805687 -0.00010056185874368615 3.5865501698631593e-6
-0.00061946293957361 -0.00027614553597986725 3.1448106392842593e-6
-0.0002985678800073368 3.0637154019872775e-5 -5.364539965085005e-7
-0.0008469862930340476 -0.0006045436117443224 -6.033726188400459e-7
-2.27161769473957e-5 6.311693339196431e-6 -6.477242328264221e-7
-0.0008195175351884357 -0.0002776873345329711 -2.68931520688822e-7
-0.0001448554272160183 2.7453046217878005e-5 -1.1811147078139462e-6
-0.0006350577250472097 -0.00048055649299468195 2.5247339215207777e-6
-0.00023922844231825314 -6.402935128633568e-5 2.7630373132858315e-6
-0.00011587265304371283 -6.6990791546458e-5 3.565116755385191e-6
-0.0002622857075493569 -0.00010037611141050244 4.103052314883908e-6
-0.0006210877213013802 -0.0005215763756902162 2.5015019757029316e-6
-0.00012486469940484792 -7.058973707705918e-5 3.6487785428720204e-6
-0.0008026188172811296 -0.0014263764721473946 -7.336608335564138e-7
-0.0006630969234401184 -0.0010828029960875637 5.078408409901826e-7
-0.00027909360963125754 -0.00010122069830406425 4.1278120559987136e-6
-0.00032935974967801985 1.572289264506929e-5 7.265427903614429e-8
-0.0008021515985710756 -0.0006761247762120551 -1.0862656807230852e-7
-0.00019557782131492303 3.09553795137009e-5 -1.0279012701091996e-6
-0.0008083937744806015 -0.00040664530316411953 -1.6600042044260926e-8
-3.0623924872965975e-5 6.992247874471923e-6 -6.50289104481306e-7
-0.0008153007838002939 -0.0009838812920546967 -3.4805181271017996e-7
-0.000790921768290394 -5.680949574915952e-6 -7.162651536509711e-7
-0.0005424072859863152 2.306946016358485e-5 -1.0550279927363196e-7
-1.6429786514984212e-5 -1.5423083219982966e-5 2.1102659405207445e-6
-0.0006553344167676614 -0.0008858200863052312 9.115127896557714e-7
-0.0008564951829871279 -0.0008785302298156786 -6.641687928549193e-7
-0.0008343375961880918 5.425438495939572e-5 -9.889296809986091e-7
-0.00047243266755052707 5.3215534926895305e-5 -7.176214969023901e-7
-0.00033942777181657105 -7.466721929314157e-5 3.1540297091858516e-6
-0.0006847524101736927 -0.0006760966342375165 1.1229618259726164e-6
-0.0008334569597652927 -0.000243121399735343 -5.264918343151028e-7
-0.00012404146296229746 2.0244706208508537e-5 -9.551500446501865e-7
-1.7215945391996354e-5 1.5085352626863784e-6 -1.4666352944528573e-7
-0.0006616155943491949 8.287654178251182e-5 -1.0900952637360272e-6
-0.000882726499170383 -0.0011621238852122357 -7.06728890381686e-7
-6.600380789241404e-5 2.1684514834480133e-5 -1.457392013828814e-6
-0.0008443655369749029 -8.739005833928523e-5 -8.702390160654255e-7
-0.0008068452695246795 -0.0007505252710221208 -2.089228878834883e-7
-0.0004097698767101512 1.1777176560346197e-5 3.1170351849176946e-7
-0.0007910179961242199 -0.0002632826374636128 1.0777833418035062e-7
-0.00014101154070147925 3.8178736400610994e-6 -6.484526320855715e-8
-0.000821599256589906 -0.0010801160820354783 -4.048429371503745e-7
-5.475292344670919e-5 8.774681728045464e-6 -6.288983476271314e-7
-0.0007859178325384059 -5.128805100716615e-5 -5.249836494734287e-7
-0.0005977441635847375 3.142813798724116e-5 -3.687038534258663e-7
-0.0006722205709053768 -0.0004923274858828573 1.9055991684074455e-6
-0.0002390239439239335 -4.8444932866829844e-5 2.17889653710357e-6
-0.0001181625828639111 -5.538966892721554e-5 2.9404723082591425e-6
-0.0006900611425041231 -0.0014468221041743867 -6.903729798575115e-7
-0.00031283343153977927 -4.6963777693043946e-5 2.1821033365384343e-6
-0.0001919840665767906 -4.408641962298171e-5 2.076230342459611e-6
-0.0006937608377939886 -0.001242535946633777 2.0006270254026598e-8
-7.607847533603292e-5 -2.9624900722772768e-5 1.9680785479318146e-6
-0.0006944128035830683 -0.00041644720971758473 1.773617504534436e-6
-0.0006891395739315711 -0.00035060870473191077 1.9111462415295325e-6
-0.0004025609881682611 -4.999140678277985e-5 2.145461965839993e-6
-0.0008818530557510295 -0.0013590443841284014 -7.135087187931943e-7
-0.00047802010543673373 1.8042918408681392e-5 1.0998714577734826e-7
-0.000808776919831439 -0.0008894491543500724 -2.833750421974225e-7
-0.0002053219197563424 6.0936447223108406e-6 3.236971772756017e-8
-0.0007674191628726844 -0.0004120466044545923 6.058409973234461e-7
-0.0002891621554667442 1.089743911481178e-5 1.2186731008500992e-7
-0.0008161031838246117 -0.0005958805008424295 -2.2425728600952645e-7
-0.00010721763034616673 -4.7954718092032745e-5 2.6672627307565812e-6
-0.00022269053696978404 3.9854999489402045e-5 -1.2459327445478363e-6
-0.0008576206233774344 -0.0004654274392444581 -7.067908323392848e-7
-0.0002816942629424515 3.84040956635087e-5 -8.87920088378323e-7
-0.0008619457694626815 -0.0005746255760710815 -7.808382358336916e-7
-0.0008694862923536404 -0.001398647094704815 -7.316730906618989e-7
-0.0008827660575411182 -0.0008414198664323685 -9.210812434544481e-7
-0.00044883396743282037 5.751296505635991e-5 -8.721408429368682e-7
-0.0006517786424993838 -0.0002681873480923301 2.440540985068871e-6
-0.00047272487244389425 -8.693426946383893e-5 2.752462197936701e-6
-0.0008234921714851353 -0.0014029516736733026 -7.027218092503293e-7
-0.0006706341839217205 -0.00141009929932842 -4.7383019995408434e-7
-0.0007739847000364337 -0.0006229106506156209 2.5431340852305474e-7
-0.0003054728874818844 3.6140019907741223e-6 4.2140388833707927e-7
-0.0005059729070580796 6.914635127762538e-6 2.961996953133814e-7
-2.7676077059315808e-5 2.1387547698794175e-6 -1.6577879130689558e-7
-0.0007878695545872105 -0.000931853361943241 -1.4262375190207523e-7
-0.0008228726352912921 -0.00013667423789512156 -5.860005753225572e-7
-7.876045236305402e-5 2.5773156737807265e-5 -1.5773407252701975e-6
-0.0009063476200755268 -0.0012248945721454977 -7.715783517659579e-7
-0.0007004702516664662 7.988223751856682e-5 -1.0372583012359008e-6
-0.0007673846906816841 -2.094251084227875e-5 -5.374011613178837e-7
-3.448637427997994e-5 -9.80351090515267e-7 1.4162842851678538e-7
-0.0008042059157876453 -0.0010224012897802532 -2.806211751145635e-7
-0.0003788104540368447 -7.51331097556957e-6 8.688681586864124e-7
-0.0007711746223115288 -0.0007135919445806716 1.753874999150404e-7
-2.1536011457395666e-5 -1.837733173816927e-5 2.2083342377383867e-6
-0.000708728322271619 -0.0009159927664080866 4.559381269466767e-7
-0.0006902213626693271 -0.0008357569268874369 7.119124983197922e-7
-1.301587928084553e-5 -8.72885191867114e-6 1.3280566472921548e-6
-0.0006882994084414667 -0.0011464304036671218 2.408336833754866e-7
-0.0006659456269629048 -0.0010532135443493522 5.284715177423721e-7
-0.0007564382247383563 -0.0014038483787826512 -6.24492305893536e-7
-0.0006099549501884673 5.257909189529987e-5 -7.013146920085112e-7
-0.0008628071595747366 -0.0011003071531529116 -6.278591745426453e-7
-5.285255610219809e-5 1.932666980810116e-5 -1.4587706714994817e-6
-0.00015649633792546674 -6.945255581013733e-6 4.647261178332469e-7
-0.0007739837298877625 -0.00028629729228017985 4.144210070243618e-7
-0.00022666991561416094 -4.206109873945725e-5 1.956748324736585e-6
-0.0006863735886181257 -0.0004527690201014005 1.8199961604242208e-6
-0.0007388791756004183 -0.000576295558490131 7.570015117993847e-7
-0.00029298166728906335 -3.291504884357634e-5 1.7005514892772328e-6
-0.00017746464696577163 -3.6496859009685924e-5 1.7791703250011036e-6
-0.00020707931357490214 -5.173178409004118e-5 2.3574172761119922e-6
-0.0006750307630268389 -0.001294035961524444 -3.44333374908829e-8
-0.000732332161829937 -0.0011989923325629215 -7.165420497280354e-8
-8.611535975531705e-5 -3.444782844248837e-5 2.1574798182707155e-6
-5.6362817240800735e-5 -2.514882513633777e-5 1.9174501255633397e-6
-0.00043323122655659934 -5.038373735873897e-5 2.0272459900058352e-6
-0.0009361592854986367 -0.0012916213903685168 -8.187239561029692e-7
-0.0007646563951432291 -0.00037676500109379296 6.789492779964616e-7
-0.0006450018624020032 -0.00024201576612871702 2.4320456021267977e-6
-0.00048402418535782913 -0.00011199382071305193 3.287199543447946e-6
-0.00010982349426924448 2.409227476024162e-5 -1.200995248889575e-6
-0.0008157505625633018 -0.00020961172748187263 -3.3994074926539753e-7
-1.5050453909503358e-5 -4.544216694033341e-6 6.674237761020599e-7
-0.0007408296407337304 -0.0006449383867847796 5.964348699768151e-7
-0.0007609821586031173 4.497603407496389e-5 -8.336953932953678e-7
-0.0008108070574348652 -0.000165012763273255 -3.7206041870946177e-7
-8.720523478809436e-5 2.6507013045589805e-5 -1.5224309672255094e-6
-0.0008904140216331545 -0.0012662391150869332 -7.165445584493669e-7
-0.0007184329161761931 5.832962314836453e-5 -8.79244544595017e-7
-0.000748589166124288 3.823662242916199e-6 -5.779176045379567e-7
-0.0007684996600581116 -0.0009748211547872713 -2.1960112404424092e-8
-0.0003528013382885588 -7.84428670895192e-6 8.917254711791085e-7
-0.0007649527414905528 -0.0006580301696805686 3.1440720983891367e-7
-2.6675937699708874e-5 -2.0639771028874793e-5 2.261682346501258e-6
-0.0006874587264451386 -0.0009909465495256836 5.173434260812777e-7
-0.0007091434807867052 -0.0008735818532681555 5.178970874234501e-7
-0.000710721864850014 -0.0010820633779989731 2.2232572571152182e-7
-0.0007030012395721849 -0.0013843412903866252 -4.4669106410166056e-7
-0.0007837784849923251 -0.0013978661746636607 -6.438908915489109e-7
-0.0008607102876579273 -0.001205601152280518 -6.118661974663513e-7
-7.253187441540396e-5 1.7410031733581763e-5 -1.0803682960662454e-6
-0.0006798613175337724 6.446009976542173e-5 -9.005978720152729e-7
-0.0007858180357820856 -0.00012374364094109308 -2.2103810185511244e-7
-0.0001105509630190944 -3.647512862969666e-5 2.020301923757668e-6
-0.0008795364576165817 -0.0005423222043761339 -1.0090472852448888e-6
-0.0002648351851279934 4.5914919991331036e-5 -1.246762641309795e-6
-0.00023907156185758792 3.2613123833001525e-5 -8.662469329365041e-7
-0.0008563687478994811 -0.0004969248572593372 -6.935142596129118e-7
-0.0008532180651652324 -0.0008028377606733373 -6.735598227738161e-7
-0.0004246701416270577 3.584096821284338e-5 -3.481642267569362e-7
-0.0006746364064679578 -0.0013531343578160836 -2.3840476237055217e-7
-0.0007672523405495395 -0.0008455161129537905 8.745953070805381e-8
-0.0004498119478593999 1.5575792213020345e-5 1.997722377553836e-7
-0.00022325453597217603 -1.9237570339833197e-6 4.0552114915455115e-7
-0.0007694639167058194 -0.0004460881831133842 5.324734339608633e-7
-0.0007955088896146078 -0.0005523065043378614 8.580560133982245e-8
-0.00028151637095177434 -7.71256402124447e-6 7.648108103927634e-7
-0.00012603210930079448 -7.935575580386215e-6 5.279145253034141e-7
-0.0007650103741265123 -0.0002445097556478685 4.4888105612347496e-7
-0.00027068962621414576 -4.30739999876916e-5 2.036023324036232e-6
-0.0007223721526207444 -0.0005469286706847099 1.037633392088204e-6
-0.0006411645714817528 -0.00021555446211335403 2.3204801530884315e-6
-0.000511685545497522 -9.818607213159356e-5 2.6130028306956153e-6
-0.000728967997271441 -0.00041763185546774776 1.2169505582672427e-6
-4.813545149539616e-5 -2.637646650716989e-5 2.159117239335071e-6
-5.389928784657521e-5 -1.5014704565645097e-5 1.1870745977577778e-6
-0.0008627295450794371 -0.00026617803296988 -9.128029254583414e-7
-1.1881512642416915e-5 1.0271786201423206e-6 -1.2068219476779723e-7
-0.00013719493838709076 -1.1540024687097216e-5 6.946257954646582e-7
-0.0007474521836703596 -0.0002672963995442828 7.886897951496795e-7
-0.0007803720082811262 -0.0003315965917848252 4.030331646010316e-7
-0.0001671737064057831 4.143307319320904e-6 -2.6801969136958124e-9
-0.000251470199016621 -4.003637440461974e-5 1.8970407325004634e-6
-0.0007065664692042754 -0.0005038498902516449 1.3794234567500615e-6
-0.0006822934012504778 -0.0002598416014581709 1.8389951953580986e-6
-0.0007059272981796145 -0.0003091464473017704 1.5725222309990111e-6
-0.0004573504914341263 -0.00012037423149210809 3.875922626612766e-6
-0.0006144594734600945 -0.0002473897365178416 3.0848801506893384e-6
-9.112567852073436e-5 1.0319983805691518e-5 -5.446945774986953e-7
-0.0007925163652947082 -0.0001885627758887479 -9.198244777059304e-8
-0.00012701772251033218 -3.4694519032133574e-5 1.8451509165904008e-6
-0.0002556176561883521 2.573295729928192e-5 -5.364802289676097e-7
-0.0008225041073706224 -0.000490805510919691 -2.2004773988185187e-7
-0.0007598514718461436 -0.0008822386223591331 1.050784433346138e-7
-0.0007653112798768693 -0.0008071812129731216 1.3760026141990047e-7
-0.0004287400448515392 -5.446107066092756e-6 7.734345738753393e-7
-0.0004705728523221529 -1.1327422261846717e-5 8.353805016044413e-7
-0.00020087603665126376 -1.0950625909135485e-5 7.205326579939488e-7
-0.0002475769782045229 7.090380149493093e-6 1.319237146627871e-7
-0.0007968006616546238 -0.0004793985780418509 1.404350074862034e-7
-0.0007810663886396439 -0.0005076707474080894 3.247149916176954e-7
-0.0002645786597758054 -4.4343098030730975e-7 4.544754901270656e-7
-0.0007814895379904903 -0.0005869054737291039 2.1078138234394638e-7
-0.00029909890107448833 -1.5227470298285763e-5 1.0687984220199807e-6
-0.00011124852360897565 -7.91796368988259e-6 5.085847755129582e-7
-0.0007699909449026345 -0.00020738902564529008 2.6580787563197794e-7
-0.0007220911871775937 -0.0010007614947762588 2.6602419965039497e-7
-2.7158099515786274e-5 -1.4229407848271246e-5 1.5397062666941824e-6
-0.0006849716586348915 -0.0008076838972700627 8.122408111570734e-7
-1.1532408588132358e-5 -1.2239530621709777e-5 1.9645376115216386e-6
-0.0007496981278053242 -0.00011781207095896963 1.2715908657953563e-7
-0.0008183449903724865 -0.001186025752157485 -4.344141553481104e-7
-6.671499611688488e-5 1.2620926368309711e-5 -8.194712484620262e-7
-0.0006620913255631911 3.034788339790922e-5 -5.171421302714113e-7
-0.0004762227463913801 -4.883060955656786e-5 1.7402125722194312e-6
-0.0008761709443886646 -0.0013012204280617235 -6.860633355529691e-7
-0.00073098898189789 -0.0012824540113538926 -2.2090228499094395e-7
-0.00019653780119908979 -2.7940188587734984e-5 1.4135906004901914e-6
-0.0007819071842962693 -0.0010612707746649067 -1.6600037841102864e-7
-0.0007457394444041057 -5.6458122147353464e-5 -2.2200823846619992e-7
-0.0005979772252254382 -3.454943982637354e-6 1.5245176566295158e-7
-0.00041244733285589744 -6.457649547572675e-6 8.200955896955971e-7
-0.0007549888593781235 -0.0007716224041448297 2.7700809965353717e-7
-0.0006940995515083514 -0.000761743549216304 8.375806901643083e-7
-0.0007455917288280436 7.815135452434038e-5 -1.0218717711731508e-6
-0.0008027442999703372 -0.00132902504764042 -5.329738663826853e-7
-9.924214443054613e-5 -2.878046363633028e-5 1.677770697391381e-6
-0.0007667424425780205 -0.0011993675505633078 -2.2865266837382893e-7
-0.0008480637678375238 -0.00018675914300844725 -7.903037646200535e-7
-9.838339699194432e-5 3.8025071836274094e-5 -2.1197387229630505e-6
-5.403931222568277e-5 -4.241521659291514e-6 3.363945780631531e-7
-0.0007996481752796333 -0.00112252593388105 -3.112441208783791e-7
-0.0007510468387616236 -8.764026093981352e-5 -5.1984479910404506e-8
-0.0006413549920075887 7.61378607868014e-6 -1.8834701449284973e-7
-0.0007134809156496222 -0.00027470370685842043 1.362363511675958e-6
-0.0006090639153276935 -0.0005616311818202669 2.4287886336676094e-6
-0.0011296015072917343 -0.0013969980512216781 -8.101856717980318e-7
-0.0010495630352217065 -0.00026040686567640775 -3.569454313268377e-6
-0.00013530020173672423 0.00011356030520103779 -5.683343628356146e-6
-0.00025778618446180106 -1.9129553011704527e-5 1.120112392440496e-6
-0.0007539575803519663 -0.0004899675017581077 7.286773623277142e-7
-0.0002486961539870463 5.222786973085989e-5 -1.5643553447383142e-6
-3.5765235951047465e-5 -2.127920142279318e-5 1.9989912360370943e-6
-0.0002115987045432584 -3.4865647867352836e-5 1.6853587309385756e-6
-0.0007079887506551326 -0.0013213700637260972 -2.453443208075627e-7
-0.0007788132491391271 -0.0012965688534916182 -4.128650076068036e-7
-0.0006391696376612541 -0.00018854191600043067 2.1215747138948465e-6
-0.0005381526541550181 -7.748799744748181e-5 1.8874791811003674e-6
-9.198446205035641e-5 -6.950476541079444e-6 4.978695701257268e-7
-0.0007667235309698822 -0.0001744886665326519 1.9610339065937354e-7
-0.0007574734831127319 -0.00034991156198781284 7.83647348960997e-7
-0.0001688877997666141 -1.59862100542242e-5 8.842783476438355e-7
-0.000793536736045589 5.37862535334608e-5 -9.391879781259098e-7
-0.0001344369434234838 -5.5051803502152616e-5 2.802932098497254e-6
-0.000713078708109345 -0.0009556131913905906 3.708269646297025e-7
-0.000665703629787968 -0.001012129601186044 6.094689010548083e-7
-0.0006153719193663896 -3.322794086155903e-5 4.92664729946003e-7
-0.0007014259658734302 -5.3983654684643535e-5 1.095787517894859e-7
-0.0005180475978467348 -5.3870550504663106e-5 1.575330589928469e-6
-0.00045662908539444917 -3.3292623873488866e-5 1.4367161126929277e-6
-0.0008330534491718832 -0.001290057449633491 -5.6737953176479e-7
-0.0007885736749869462 -0.0012352147038600806 -3.560123399139411e-7
-4.2914954252470576e-5 -3.968918060503476e-6 3.270416782161788e-7
-0.00013966721474588845 -4.428190765540038e-5 2.253036544359691e-6
-0.000734282039571835 -0.00019272293153007924 6.967452316099822e-7
-0.0007442482837194705 -0.00014435535678173286 3.2688531767825993e-7
-7.811772071688388e-5 -6.603134458678635e-6 4.6809328863931285e-7
-0.0005606033326888059 -5.576426047441162e-5 1.2569751222154267e-6
-0.0006990377390812545 -0.00023322038116726395 1.4473433520108537e-6
-0.0005999812408535724 -0.00015874695128924497 2.424540696896925e-6
-0.000559419957796834 -9.76867422710892e-5 2.0239480675474935e-6
-0.000580077424263739 -3.624401898350324e-5 7.822001113967201e-7
-0.0006640345487552789 -3.419062795683121e-5 1.6528517912685634e-7
-0.000457264551354645 -6.589582078607472e-5 2.329296387450927e-6
-3.137582323766107e-5 -8.386213961821793e-6 8.836652015423489e-7
-0.0009311680038306462 -0.0005325602267004192 -1.7105211373202893e-6
-0.0002586856872738517 7.66933866788028e-5 -2.427561023436661e-6
-0.0007814530297447713 -0.0011649904610872217 -2.587139371280948e-7
-6.627565895444048e-5 -6.916861904994733e-6 4.851362934367744e-7
-0.00013222923337507083 -2.3984260462418854e-5 1.3039883346039325e-6
-0.0007167767146990747 -0.00011611858281764496 4.6056743699264804e-7
-0.0009432701670667144 -0.0004870877987044249 -1.9312878817409196e-6
-0.00022347761449086046 7.451402456079097e-5 -2.606904171398769e-6
-0.0005407628673297683 -3.620920653343672e-5 1.0393485820709604e-6
-0.0005291656296848869 -0.00012730006744029993 3.015961693016265e-6
-0.000600469564593044 -5.2278573350148605e-5 8.798539625507011e-7
-0.0006821548875725785 7.549864903553918e-6 -3.383975946924876e-7
-0.0006622431449265013 -5.1629918859979596e-5 3.8168889298800864e-7
-0.0007035554080334129 -0.00021397364024690023 1.2665298188397561e-6
-0.0007564745594349415 -0.0011043767668191898 -6.910573365193469e-8
-0.000615585534335778 -0.00012589169366385535 1.7532564071734895e-6
-0.000585861326532739 -0.00011295425355996396 1.966046740629516e-6
-0.0006720918511848824 -0.00018849138354131884 1.5861640896771853e-6
-0.00015817322384526468 -4.1512773414141614e-5 2.040106770889776e-6
-7.711570407647289e-5 -1.869221483275725e-5 1.2519252570773143e-6
-0.0006322527054014108 -9.868728989783314e-5 1.2073457025144716e-6
-0.0009389891885621023 -0.00044870937335752604 -1.8947157344934087e-6
-0.00020842715001142092 7.173201607944265e-5 -2.6441719901757787e-6
-0.000525419764102116 -0.00016088910166269153 3.7914352723846646e-6
-0.0006622396244298528 -7.779018491713734e-6 -1.0233199569540169e-7
-0.000686959753288832 -0.00011457453191301752 7.669518077768931e-7
-0.0006799570890276564 -0.00013853451453143121 1.0612779432389802e-6
-0.0006058929348214925 -8.714096182394842e-5 1.3405935792227936e-6
-0.0005514797828327854 -0.00016426351867416945 3.3514177511281484e-6
-0.0006747786526801162 -8.26948482738588e-5 5.933244179278859e-7
-0.0007072432650895754 1.7939563689189332e-5 -5.283364469670246e-7
-0.000535824807726733 -0.0001984995062349939 4.296563101589326e-6
-0.0006589249880711157 -0.00010758001370407264 1.020605652554051e-6
-0.0005796851420576414 -0.0001988512858495261 3.323413660415502e-6
-0.00034282406038193446 -4.431515434967012e-5 2.086588357313699e-6
-1.1978183433214967e-5 -2.702020439938433e-5 7.632870493731892e-6
-0.0003086014121107622 -0.0016724422089236686 2.7927363011084265e-7
-1.447650379182957e-5 3.2321900869467096e-5 -5.5466830626818805e-6
-0.001011884751329128 0.00013519494620195605 -7.275245449370529e-7
-0.000555195703312555 -0.0015715920294530157 -1.5558598277280194e-6
-0.0004977829844538635 -0.0013920126165708766 4.499598553028139e-7
-0.0007256003905923472 -0.000818716751498182 4.65614684070414e-7
-0.0002583524973982933 -8.230550276589728e-5 3.472088178313787e-6
-0.0006587764434588881 -0.0005328363687402434 1.933543823895087e-6
-0.000991251041887189 -0.0014189420645752658 -7.585814760647786e-7
-1.4785175315245372e-5 3.0985747138072305e-5 -4.962860404957763e-6
-0.00032232779088807765 -0.00024170998993305136 9.402109937368361e-6
-0.0006142547194743817 -0.0011658625476984568 5.974880381852206e-7
-0.00017393139063224928 -6.00424462234613e-6 4.5664691547469255e-7
-0.0006361940481347106 -4.315865445840658e-5 4.770602968140363e-7
-0.0011668682273144205 -0.0009217354208853177 -3.0645473606989757e-6
-0.0011717800271346772 -0.0009645117440256693 -2.8566294032327836e-6
-3.31673610637746e-5 5.847554550621375e-5 -6.371263196386381e-6
-4.0389823029633373e-5 6.547493324660477e-5 -6.348159799416366e-6
-0.00030603371857016354 -0.0017393507394859592 -2.564330796485995e-6
-0.0008478298142403225 -0.0017061645938853565 -1.1184760244929175e-6
-0.0008033865749695997 -0.0017076402514640062 -1.4189640284803952e-6
-0.00024190173950554926 -0.0002024204785123256 7.6009696330744915e-6
-0.0002617329812474029 -0.0002122062848834453 7.752524334323774e-6
-0.0002819387955936518 -0.00022188169586475668 8.014606735949065e-6
-0.0003022375142872316 -0.00023158844207294245 8.505835192519693e-6
-0.0003607265922406736 -0.0007283135116639916 3.459919986122273e-6
-0.0010535185485292015 -0.0003280175089544712 -3.7291718994467693e-6
-0.00043803847645865906 -0.00027518238848622594 1.0159333131423052e-5
-0.00024138959520304901 -0.00018452684533465797 7.058144019731121e-6
-0.00040709163640923867 -0.00024066359814078236 1.0499544588437106e-5
-4.6066695268361034e-5 6.305399449347564e-5 -5.489029964837986e-6
-1.3346450134703633e-6 8.951104668158172e-6 -4.695704026565826e-6
-0.001128613513028241 -0.0012206125148842926 -1.4297556407191783e-6
-0.0008355936022486335 0.00023633068927841566 -1.1536643359065702e-6
-0.0007039261593871861 0.00023497217983606543 -2.24038662033938e-6
-0.0009615889831690786 -0.0016064021988534314 -6.490002335439135e-7
-0.00016589309160986148 0.0001261209264137258 -5.687400771750442e-6
-0.000447096341132561 -0.001576414022278164 -9.464069067860322e-7
-0.0005165910578517396 -0.001688044568496721 -3.6649249123581543e-6
-0.00014597882026211472 -0.00014038803664394214 6.779336711900339e-6
-6.979354945525322e-5 -9.484581125798594e-5 6.841103177600238e-6
-6.006535464554308e-6 -1.799151494738728e-5 6.750637515860775e-6
-4.230521265441331e-6 -1.5755471432231974e-5 6.154893972363458e-6
-0.00041144553290999595 -0.0014277244372745042 1.0923889533980036e-6
-0.0010133778960645194 -0.0002340632685813349 -2.9661884997788925e-6
-1.9202271384120515e-5 3.695881929608238e-5 -5.151150767109658e-6
-0.0010522344106259198 -0.0006398678043973826 -3.074078390837253e-6
-0.0010696942599334744 -0.0008484358709189675 -2.5395920258747093e-6
-0.00046699357368081126 -0.00021003903331521926 6.552544338596035e-6
-0.0004797667480949414 -0.0009448664788711198 1.9946373572306164e-6
-0.00045063211774296465 -0.0012220973637473817 1.4788887593019064e-6
-0.000494549241034345 -0.0015946219382914724 -1.6983021471517004e-6
-0.0005146875642067376 -0.0015542639885202738 -1.1632393749229915e-6
4.896857027025536e-7 6.138691375671553e-6 -2.804407567857746e-6
-8.763377916332107e-5 -9.67228285032966e-5 6.030093240891746e-6
-3.137811454732419e-6 -6.410144530386264e-6 1.6084392426161336e-6
-1.4302474772706656e-6 7.321938154279837e-6 -2.171686408970633e-6
1.4144866835125746e-6 4.0272592885599705e-7 -1.4616174661295713e-7
-0.0007141543525927202 -0.0015801301358472463 -1.4174507496065981e-6
-0.0004518780985212536 -0.0014181098676300566 7.15688147562941e-7
-0.000456890454224222 -0.0013831821562566154 8.51803442818944e-7
-0.00048270374334892036 -0.0012639469077504702 1.1241372261274112e-6
-0.0009531035079594525 9.405454031411626e-5 -1.0430745342433515e-6
-0.0009376409478306284 -0.00013422224703870135 -1.7672952685154773e-6
-0.0009929872504385838 -0.0002631266180421583 -2.7216639149170914e-6
-0.0009885374377436777 -0.00028636644387910944 -2.6739379402655846e-6
-0.00012330132460117025 9.559499169713047e-5 -4.9445382524223434e-6
-0.00047127624799194476 -0.0010207134129157057 1.8088388158670342e-6
-0.0009795959292762011 -0.0005228351864825262 -2.380076242860707e-6
-0.0009651795475546883 -0.0005537012524759575 -2.148682654239942e-6
-0.0003386195586784987 0.0001534384199744395 -4.342463925599601e-6
-0.00043632799651086734 -0.00018026155394130523 6.33857234691855e-6
-0.000501809928556019 -0.00043585734295938474 5.123677806794949e-6
-0.0004819895573821725 -0.0009041723108529998 2.0955641280219646e-6
-0.0008146891182824485 -0.0015847103523820968 -1.1126287906397527e-6
-0.001036183649453258 -0.0008958479953110607 -2.0920787192861754e-6
-1.0379938536724954e-5 2.0927906201770183e-5 -3.690078094264892e-6
-0.00024249415052918542 -0.00014826955515145207 5.859979674874138e-6
-0.0005044729196718244 -0.0009155428143717436 1.9129124907029587e-6
-7.873642841315594e-6 1.6196020889153145e-5 -3.132456364150308e-6
-0.0009153871167681422 0.000156916041900067 -9.018161274374151e-7
-3.1749343814302508e-6 1.0783295326741445e-5 -2.825340872566218e-6
-8.848807879366451e-6 -2.3646932590764725e-5 5.232769340743861e-6
-7.628037401365589e-6 -2.0607314012625057e-5 4.57994708301121e-6
-0.0008936535901158237 -0.001511401392441742 -8.131714718800599e-7
-0.0010036369483285375 -0.0006879504869796388 -2.381533400555028e-6
-0.0009569294415151552 -0.0015380070301823999 -7.010659488681672e-7
-0.0005204839309605234 -0.0010143478204553348 1.5409100311197635e-6
-6.304986386552947e-6 -1.4845905418063353e-5 3.2004128558333767e-6
-8.392666509117048e-6 -6.117971364248928e-6 1.1087049983532608e-6
-8.265965082493902e-5 -8.649059954995465e-5 5.534468511895886e-6
-8.575309372391939e-5 5.7656911166688085e-5 -3.5144764949117904e-6
-0.00021377813383158102 0.0001078461109739462 -4.092568590852095e-6
-0.0002302816405618685 0.00011016813366162314 -3.989079544485457e-6
-0.00026167411202486664 0.00010663340406620349 -3.511537121729708e-6
-0.0002739728663627251 9.691251931868064e-5 -3.048403643132676e-6
-0.0003593007887415562 0.00013649536316717625 -3.5729218767984716e-6
-0.0003792262764436145 0.00013332641545668348 -3.306022389372797e-6
-0.000971914650559989 -0.00027747791614195916 -2.4206831327141116e-6
-0.0009548302081781124 -0.0002837501268370327 -2.1758506359947622e-6
-0.0005483783768859234 -0.0002506659586703934 4.7429939012801375e-6
-0.0005175512709204532 -0.00018867322130222138 4.5584811140436454e-6
-2.3364729799284063e-5 3.3239867016215067e-5 -3.8990597483372705e-6
-0.00048094947282953935 -0.0014158171037597003 4.5300634739859855e-7
-0.000527295919817934 -0.001262597334610102 8.400744464767445e-7
-0.0005297188117687232 -0.0012239438030707493 9.479338994395434e-7
-0.0008322949357562385 -0.0015417188745796336 -9.793071968538934e-7
-0.0007054816470391683 -0.0015454328697380464 -1.248301491265406e-6
-0.0010418807567081519 -0.0010329275417825172 -1.7173838367065007e-6
-0.0009231948986585085 9.097993917449524e-5 -1.065202170392716e-6
-0.0008951250426080958 -0.00015657589678993035 -1.3513224922186822e-6
-1.6554683430161454e-6 1.2108152664737796e-6 -2.680672001718001e-7
-0.0005838217450519843 -0.0005102441748249412 3.096015763783427e-6
-1.1024477288345397e-5 1.71615485365504e-5 -2.799875529159626e-6
-0.001044534273901162 -0.0012570856254563569 -1.1119783833685355e-6
-0.0009748715285221229 -0.0008154877254828041 -1.757723241519075e-6
-0.0008941905470515459 -0.0002799550030195831 -1.337457024581444e-6
-0.0005531043106597747 -0.0002243994333350949 4.2832522708732546e-6
-0.0009718148289730018 -0.000261864950654326 -2.411596593014622e-6
-1.9389459803594186e-5 3.183860532072173e-5 -4.168774503603101e-6
-9.085858009704413e-6 1.2840850427599397e-5 -2.229733376482489e-6
-0.0008985669485435728 -0.0002498973617786735 -1.3955740016294821e-6
-0.000543276750937489 -0.0006768577977632316 2.476582578982506e-6
-0.0008933869930686256 -0.0005920057307903612 -1.1737804594288494e-6
-0.0008952474929012711 -0.00046202970046476175 -1.2374161025144389e-6
-0.0010476811689219027 -0.001375881228747058 -8.481336681547145e-7
-1.1004699349131665e-5 -2.187389196612506e-5 3.843976987432853e-6
-1.0785603925244648e-5 -1.545641258168484e-5 2.5901017882778807e-6
-0.00010372259542244778 -7.286908860637064e-5 4.1139885884095595e-6
-9.174017220327415e-5 -6.345786080631135e-5 3.8140662904631686e-6
-0.0009175449958919176 -0.0006766293656100561 -1.3775056507847916e-6
-0.0005287513538943789 -0.0001771870718838671 4.071571847032823e-6
-0.0008912347693395234 7.024117629105919e-5 -1.0950120138613967e-6
-0.0008879785942577477 4.5128269603900334e-5 -1.1196035012552052e-6
-0.0008823402029146021 -3.9723619810903474e-5 -1.1637503692361518e-6
-0.0005859454615301378 -0.0015011220679078399 -8.668976102238373e-7
-8.613710367014362e-5 4.6865434728117544e-5 -2.8172570961519487e-6
-9.666131684563498e-5 4.897858972354513e-5 -2.7994767334206207e-6
-0.00016283291719364985 7.777976983721711e-5 -3.3851328680046386e-6
-0.00022622135435178986 9.153956766403388e-5 -3.2749357460197164e-6
-0.00025325438421591474 9.217685762304038e-5 -3.062460125065536e-6
-0.00035662965508746183 0.00011976543271157114 -3.0744484380408705e-6
-0.0003867234447692384 0.00010031492256166792 -2.2837282250909066e-6
-0.0004074011694303418 8.91315773912206e-5 -1.8678832500326963e-6
-0.0005819862255332568 -0.00022361462824537986 3.585524823458959e-6
-0.0008749745335964892 -0.0002466490474247854 -1.091507329475904e-6
-3.749900484610266e-5 2.112316750943722e-5 -1.8788204486143163e-6
-0.0009265770311863485 -0.0009901426237284717 -1.089252042672321e-6
-0.0004073393336957691 -0.0001270882686339804 4.709516745037652e-6
-1.4402634408411592e-5 1.7466051364917787e-5 -2.461673995967649e-6
-0.0005547860243273117 -0.0010328844634039387 1.2751646938384608e-6
-0.00016696319857396804 -6.521472743710055e-5 3.0481319547597815e-6
-0.0008445636906426306 -0.0015157303415142818 -9.006683463253741e-7
-0.0008619901782504913 -0.0014858758779308493 -8.291905075767979e-7
-0.0009115316792612885 -0.0014759280971355657 -7.709352897393755e-7
-0.0008910157436124243 -0.0001880716275902158 -1.311038017954503e-6
-0.0005669785891603786 -0.0009425214181208395 1.4247361679198694e-6
-0.0005322291618173538 -0.0011872767583442872 1.031394379828453e-6
-0.0005705988643046254 -0.0011834852699578243 8.075679772117089e-7
-0.0009058970509520497 -0.0010237602486318517 -9.175298654379526e-7
-0.0007344805170770857 0.00012397566807572472 -1.3278055396594233e-6
-0.00010354012609843635 6.028613060331243e-5 -3.3611646616418893e-6
-0.0005564513761938381 -0.00020247255442269927 3.882555551010225e-6
-0.0008735671907323879 -0.0004094921624911511 -9.58925886656947e-7
-1.799476877902993e-5 -3.427991703627705e-5 4.983626264365734e-6
-0.0005762209769119131 -0.0009114306836625436 1.4246560826739731e-6
-0.00026253899741746827 -0.00011866343234123218 4.766774239704479e-6
-0.00031177004852971384 9.502586208155158e-5 -2.659689713353363e-6
-0.0008628273139548495 -0.00022364497494961909 -9.446104752080876e-7
-0.0010211928032639876 -0.001486317059592469 -6.629834682000151e-7
-0.0002389970898381404 7.472156618314158e-5 -2.503264534170567e-6
-0.00032846483839829707 9.088690885840121e-5 -2.3890397214871125e-6
-0.000992922616868735 -0.001367195372004544 -8.260759439983691e-7
-0.0006143821775582484 -0.0014615392692012051 -6.082305926869937e-7
-1.5620426055256155e-5 -2.2475694369688918e-5 3.2379989509340753e-6
-1.7898740379137258e-5 -1.1655507445822662e-5 1.5195809420456323e-6
-2.0629063324418936e-5 -7.915729259151135e-6 9.810909870925164e-7
-0.0008490773991281517 0.00013227284449417542 -1.1101027997998272e-6
-0.0008979674533868058 -0.000976734795846535 -9.195871448442825e-7
-0.00010505671331145442 -6.0290479420670806e-5 3.375191874280263e-6
-0.0007447443177101849 -0.0014650491596127676 -8.244054985967753e-7
-0.0006420808180785107 -0.001384154651319021 -2.6113827516488487e-7
-7.786537139795663e-5 3.494221336877613e-5 -2.175086654914195e-6
-0.0008499690177505273 -0.00043686521165684953 -6.150965642651624e-7
-0.0008445694878300321 -0.0005303247708199021 -5.492268269597217e-7
-0.0007523868366363137 0.0001065283577645965 -1.1726672880037377e-6
-0.000875281338628942 9.562419622692844e-5 -1.0440945692442078e-6
-0.0008331016282224899 -0.00011004588549865073 -7.467651560313218e-7
-0.0005855820309063826 -0.0011359771452048018 8.337948523526604e-7
-0.0007200773333102274 9.88277967803338e-5 -1.1696772582087245e-6
-0.000569605682320483 -0.0010855772723288076 1.0552563451834593e-6
-0.0006127340602850722 -0.0010158440158072816 9.381398927467339e-7
-0.0005376103861060077 -0.0011522303032111248 1.0801834788690298e-6
-0.0008089579894410513 -0.0008002032819851231 -2.613549554360686e-7
-0.0008616449363058732 -0.0006366016001700887 -7.80979314037853e-7
-0.000838027929427113 -0.0006340500947467932 -5.056355312875782e-7
-0.00045084911326405804 -9.678368872848208e-5 3.2447563476629824e-6
-0.000966001311564032 -0.0014646363901780104 -7.274683597333011e-7
-0.0008992961695582126 -0.0014201598799834497 -7.535625667062191e-7
-0.0004298487723960638 8.25906766027032e-5 -1.5786362384945052e-6
-0.0006080062820521023 -0.00019130981442809557 2.692620142005704e-6
-0.0005429689151669906 -0.00018174528012379062 3.8460189802626005e-6
-0.0001075422725472744 5.3415777103489335e-5 -2.8912969476156225e-6
-0.0008509564589444975 -0.0014300107842279898 -7.585672208162488e-7
-0.0008502286801748736 -0.0008428000614493379 -6.365578303917851e-7
-0.0008455936169488054 -0.0004064703205149131 -5.562658601260396e-7
-0.00041901793323775903 0.00011264266248019686 -2.444172747464635e-6
-0.000601086554636875 -0.0012814493241431592 3.577630647042656e-7
-1.9861803708343318e-5 1.1247816465637797e-5 -1.3028938139517433e-6
-0.0008498818991236807 0.00011027215120891643 -1.0871343780267524e-6
-0.0002491475154342173 -9.962979193235437e-5 4.0727841025042086e-6
-0.0005764783656962242 -0.0007139994208131337 1.9942160468030748e-6
-2.152447669639609e-5 -3.0286196032313745e-5 3.7792438150761347e-6
-0.0001448871219264013 -3.2391850688043054e-5 1.6639639423980518e-6
-0.0008069966511140428 -0.0006312366492158083 -1.3588925668603976e-7
-0.000829869682041213 -0.00046734777414141017 -3.217485590992647e-7
-0.0008108989565412119 -0.0005202022246848431 -8.927501012284917e-8
-0.0005528594639532286 0.00010038274712949446 -1.5261888078521063e-6
-0.00043764696016223453 0.00010307038671199712 -2.0641259970421577e-6
-0.00045906906817488695 9.973036294805365e-5 -1.8626836971034014e-6
-0.0004269736815928925 -7.656611990972006e-5 2.841029358148204e-6
-0.00038370380358161433 -7.939716880049315e-5 3.171387117332381e-6
-0.0003615536207288627 -7.754631424445627e-5 3.19574254747799e-6
-0.0007774410394105693 8.33751193393962e-5 -1.0508373945488673e-6
-0.00086239017670896 -0.0009502386461303086 -6.809501801532277e-7
-2.0945819788702454e-5 -2.2141509485540576e-5 2.723039123726379e-6
-2.1963982891498985e-5 -1.4792544176913344e-5 1.7424426470978146e-6
-0.0008434658374698667 -0.0013862345816224816 -6.978432840048995e-7
-9.64829878453521e-5 -4.0857862870078745e-5 2.3994770305834464e-6
-0.0003562748127438882 5.475405612828076e-5 -1.0854332574253078e-6
-0.0008037384063518721 -0.00024352415560072933 -1.205523887933144e-7
-0.0007533342521370873 -0.0003104732835626544 7.845585457056655e-7
-0.0007265292750961287 -0.00033916454323858 1.2606822036258843e-6
-7.489300470938122e-5 -4.684897452830282e-5 3.1399718026528345e-6
-7.17371375734532e-5 2.4190192306404637e-5 -1.5448905832923999e-6
-9.700357683507887e-5 2.5336012466900107e-5 -1.3840340946884955e-6
-0.0008188293238542819 -7.856383742918859e-5 -6.630068752018302e-7
-0.0007574564340537314 -0.0001920831918609299 3.903179009006561e-7
-0.000822011960362107 7.799386715403926e-5 -1.029029205862256e-6
-0.0009681349897078353 -0.0014321925140957125 -7.390169264762644e-7
-0.0006478718355036653 -0.0014302068247542008 -5.165280389950156e-7
-0.0006246686221797902 -0.0010693024998730373 7.59283238540236e-7
-0.0006509665454095133 -0.0012114673135621866 2.9551664608836687e-7
-0.0006667327899292247 -0.0006125971660149921 1.5174912835434073e-6
-0.0005719506700518118 -0.00017731384868907896 3.1817147215107874e-6
-0.0006442890201711636 6.295940685508873e-5 -8.691634658036031e-7
-0.0003201686869836634 7.117605623590676e-5 -1.7981475004268393e-6
-0.0009679493562920109 -0.0013888282100817956 -7.832444084513832e-7
-0.0009399815255837704 -0.0013585826152943434 -7.801535060894063e-7
-0.0009095975688678154 -0.0013270199089528887 -7.505124611332223e-7
-0.0001634722860077107 -2.834207461268612e-5 1.4326467234206059e-6
-0.0006616034684868291 -0.0004085993772956013 2.3466526645438122e-6
-0.0006768277685544414 -0.0009626803377490466 6.280457753037585e-7
-0.0005235519021261457 -2.0853043244294042e-5 8.216448727691019e-7
-0.0006471951116263212 -0.00013343722876399224 1.4358959067454386e-6
-0.0006735149388506333 -0.0006412896431606304 1.3473611323905635e-6
-0.000556517555880521 -0.00018715068616549234 3.648594250061806e-6
-0.0006621320196689358 5.3337752883978524e-5 -7.819250966262088e-7
-4.4348818569157e-5 4.797715862535409e-6 -4.0911942987887423e-7
-0.0006928390238566328 4.2927192557026196e-5 -7.125384010101391e-7
-0.0006967930880688674 -0.000382386949576615 1.7705073249972184e-6
-0.00022141462620513694 6.028644115753149e-5 -2.043020692307396e-6
-5.8651853772993084e-5 1.5104312951031395e-5 -1.0679790828140765e-6
-2.8704967818656168e-5 -3.901445730435641e-5 4.245320798995163e-6
-0.0002728115559082167 -6.181798194292363e-5 2.717136184904976e-6
-0.00019021804463865562 5.4079401793649894e-5 -2.032530225616068e-6
-0.0003415660047741015 3.4269518019324166e-5 -4.91174567726976e-7
-0.00035598603812234787 2.2293236779093038e-5 -6.755252818379005e-8
-0.00036784539994500246 7.3811479004513915e-6 4.1278691282977576e-7
-0.0007409124870337624 -0.0006857097797382472 5.238074136106786e-7
-0.0007070876313294162 -0.0007080514582337476 8.31735979547423e-7
-6.692491990253636e-5 -3.633188788717997e-5 2.543681910925154e-6
-2.583554650643761e-5 -2.474036031156996e-5 2.755204433810457e-6
-5.308726475259136e-5 -3.343516505412431e-5 2.5986000170171486e-6
-0.0003840045660249625 -6.112748906773515e-5 2.575319742009908e-6
-0.0006917884449495131 -0.0010380139886968654 3.971149671641265e-7
-0.0006921962383180775 -0.001200693341165205 1.1807336102231809e-7
-0.0008647875880958676 -0.0013268612443077272 -6.697620842933734e-7
-0.0008347129507686126 -0.0013256351745892586 -6.038351811683626e-7
-0.0007724442346724146 1.7675060735955774e-5 -7.30815822466982e-7
-0.0004278900661605556 1.4589841438969015e-5 2.3254405416215994e-7
-0.00039328678745516446 5.13755050021841e-6 4.956306406971094e-7
-0.0007364555285717108 -0.0005195295004188969 9.220445075601156e-7
-8.527358569443651e-5 1.7658487987747263e-5 -1.0042974331393214e-6
-0.00010529039932454628 9.463441171975388e-6 -4.094446498807922e-7
-5.08901391712993e-5 3.2477494241130145e-6 -2.5252763686353103e-7
-0.0006720043406436805 -0.0002132260499469452 1.7706982606028455e-6
-0.0006744891701546802 -0.00016350633808652574 1.3450919618000398e-6
-0.0006185282999451715 1.9644152889738915e-5 -2.5960615022966175e-7
-0.0005328389097605883 -7.444359235536972e-7 3.8723142027817295e-7
-0.0006490081745501591 -7.387722932330802e-5 7.41964434171781e-7
-0.0007380024607305092 -0.0001686762129076596 5.297851691248446e-7
-0.0007056786400954552 -0.0006253727122943291 1.0409146700239324e-6
-0.0007365955913089502 -0.001240587797917999 -1.5706700577424791e-7
-0.00021283344546755954 2.283186249625053e-5 -6.198195364166582e-7
-0.0007737410071008558 -0.0010108140336097034 -7.489431526922532e-8
-0.0006996124351863138 -0.0012721331446660011 -6.883551375033333e-8
-0.00079701055895949 -0.0013665698687094856 -5.943524976528482e-7
-0.0006906381816723718 -0.00028411475930753826 1.7727193643594045e-6
-0.0007738131599874485 -0.0004705690773669363 4.53496232261484e-7
-0.0007182332007738237 -0.0006584399007985308 8.111554245441448e-7
-0.0007141797796288673 -0.0007894591269656749 6.13468666608446e-7
-3.1365237865884516e-5 -3.105286548307354e-5 3.1415295545500045e-6
-2.9781626026246923e-5 -2.700217660328606e-5 2.792341310274707e-6
-3.2080926775810796e-5 -2.496056088749963e-5 2.4730881757614433e-6
-0.0007168840172590302 -0.0002512329203410596 1.2299360019901073e-6
-0.00013657147527262994 1.7438307528671522e-5 -7.703315934515424e-7
-0.00046501843523924003 3.650901895722353e-5 -3.4220547500067894e-7
-3.739965495031941e-5 -3.69502824813001e-5 3.4655473532971504e-6
-3.61456431204435e-5 -3.139330041492598e-5 2.9471861146976135e-6
-0.0007441958394034566 -0.000949219258098766 1.5710275869905692e-7
-0.0005263287700627539 8.304267191244365e-5 -1.2617143384149727e-6
-0.0006952566349853976 -1.2463568797563082e-5 -1.922742716070699e-7
-0.0008309730247391169 -0.0009164997229522549 -4.4656727583096417e-7
-0.00023364432503603173 -2.7172589876560544e-5 1.401621722758414e-6
-0.0005176832397949283 3.26870669324254e-5 -2.6928222475232387e-7
-0.0003426068899012283 6.221587066056386e-6 4.1926777944702313e-7
-0.00032044540477903786 -2.106175904213464e-6 6.420615948356477e-7
-0.000704704895800293 -0.0001903566612196475 1.1037830641608906e-6
-0.0007120535173587622 -0.00014119287822512392 6.871928113987379e-7
-0.00010293506174240114 -1.8311012454333909e-6 2.2154336438284146e-7
-0.00012053534940969902 -1.6203921746789793e-5 9.233993522145056e-7
-7.825222310557131e-5 1.6455792553716433e-5 -1.0014186984046828e-6
-0.0008198223323914051 -5.8983389687672065e-5 -7.377389869056436e-7
-0.0008264645767702047 -4.105513124551447e-5 -8.212583266992565e-7
-0.0005303490507325948 5.617552725520364e-5 -7.333420490620698e-7
-0.000443877982156396 -2.2126434587390212e-5 1.2013324030001429e-6
-0.00044855120910983795 -5.617224837695088e-6 7.517379348296385e-7
-0.00040924978647583263 -2.6043008931866336e-5 1.391313786973799e-6
-0.0006695855649383682 -0.0007309632202520807 1.1349635908279205e-6
-0.0005865007279979961 1.4439778758815342e-5 -8.39568399321688e-8
-0.0006255553155997764 -1.292998395879484e-5 1.4691023911353736e-7
-0.0007448160790937345 -3.0627830684501616e-5 -3.76657658489615e-7
-6.0828570693926064e-5 4.543389155748358e-6 -2.9783905236067264e-7
-0.00024048692524005521 -1.0564073878936825e-5 7.805950057034113e-7
-0.0007164148923702977 -8.812808114601724e-5 2.7074938084322097e-7
-0.00010405670037635946 -1.7509432228369403e-5 1.034992360262261e-6
-6.740372443636935e-5 9.57638734116665e-7 -5.894322097298824e-8
-0.00039970315286584336 -6.921095262798566e-6 8.443726331458897e-7
-0.00033234056787283706 -5.071436906300518e-6 7.65769103878651e-7
-0.0003357338595578888 -2.0010474008891383e-5 1.2745884190942308e-6
-0.0002852709333784736 -4.471760118809661e-5 2.1155826800736626e-6
-0.00018067514214446467 3.952885831084266e-5 -1.4674750133151261e-6
-0.0005976334851592847 -2.4777655425943025e-5 4.908682183547246e-7
-0.000680850237848677 -2.6666269188669214e-5 1.5088646120565536e-9
-0.00038013027545406175 -3.63590920498156e-5 1.7592775543541156e-6
-0.0003916128938178006 -1.9529547880696363e-5 1.224490446549158e-6
-0.00018543018639329353 -6.3415666796120375e-6 5.195553754078298e-7
-0.0012284035847155818 -0.0016487496079290395 3.5610428418411334e-9
-0.0012284174479434348 -0.001600441848017497 -3.7269632529175884e-8
-0.0012280923757186956 -0.0015032444755804079 -1.9301021885782502e-7
-0.0012276391442085724 -0.001454392283775434 -3.051329449507293e-7
-0.0012259574665685227 -0.001356403015632529 -5.881227605728687e-7
-0.0012246562406106351 -0.0013073711036507092 -7.494739756272486e-7
-0.0012210814879235986 -0.0012095255675255898 -1.0834133754789618e-6
-0.0012187562423016068 -0.001160876955813034 -1.2370312238903733e-6
-0.001213373211636239 -0.0010642357584988082 -1.5359517240397373e-6
-0.0012067490410286315 -0.0009687773356639532 -1.8515614726144154e-6
-0.001202952457319036 -0.0009216406918936005 -2.012401578182321e-6
-0.0011944890231100856 -0.0008286785866542382 -2.308085051325274e-6
-0.0011898392099045241 -0.0007829696971025955 -2.4439429614058252e-6
-0.0011798281746334086 -0.0006932751094727328 -2.6849773068502696e-6
-0.0011744745144867748 -0.0006493569369787936 -2.794495173617572e-6
-0.0011631415603093242 -0.000563662869982573 -2.9804033301758575e-6
-0.0011512355001326796 -0.0004809733471113245 -3.085630230802041e-6
-0.0011451563253973341 -0.0004408498766600618 -3.1053827904365324e-6
-0.0011329863042364747 -0.0003631235610677363 -3.0656572293574114e-6
-0.0011270139215026074 -0.0003255276945843746 -3.002349760230264e-6
-0.0011155882535708454 -0.00025276558389800136 -2.779265800053246e-6
-0.001110261488588387 -0.00021754849571703683 -2.62405368623921e-6
-0.001100667638012776 -0.00014916266982608855 -2.255824092263679e-6
-0.0010964487956416765 -0.00011581561616408186 -2.045488908637995e-6
-0.0010893234264130291 -5.0508448242889974e-5 -1.5753677523788758e-6
-0.0010841382171426607 1.360048499348427e-5 -1.0813948122114344e-6
-0.0010822712034667986 4.545512702116408e-5 -8.441330378583617e-7
-0.0010798775634801422 0.0001092433020765744 -4.2616631819207123e-7
-0.0010792587584729815 0.00014134993925688427 -2.6176627822236663e-7
-0.001078830624771006 0.00020628620309786602 -4.8670439127152426e-8
-0.0010788494390128471 0.00023915218173870315 4.572321163346773e-9
-0.0012283439880201457 -0.0017449762805813748 6.418075832060626e-8
-0.0010789288693069394 0.00030541904444238973 8.599893440695227e-8
-0.001012450987416653 0.00030549886538108875 5.836670106413542e-9
-0.000978948528983719 0.000305518934815829 -4.7850511460102105e-8
-0.0009111379094290725 0.0003050920884880624 -2.6364561894460685e-7
-0.0008768593512338496 0.0003044718597715502 -4.275089357450231e-7
-0.0008078429448969906 0.000302083970856807 -8.506261745252771e-7
-0.0007732589313863745 0.00030019798827633944 -1.0975849757918148e-6
-0.0007044088086661243 0.00029490882198527534 -1.6278190444497503e-6
-0.0006703610929649853 0.0002914550653010204 -1.903167649573441e-6
-0.0006034003171103722 0.0002829819175497874 -2.432687886916764e-6
-0.0005386275196901459 0.0002724700238541671 -2.931171760287803e-6
-0.0005072752538078751 0.0002665008740236301 -3.1593822304288285e-6
-0.0004470135430899232 0.00025331567592906055 -3.555982054598743e-6
-0.00041821601597842573 0.0002461917585205368 -3.7205352091753336e-6
-0.00036347121102328275 0.00023108554406952263 -3.981495140704765e-6
-0.00033760644324195725 0.0002231832814009403 -4.083269134861064e-6
-0.0002890268780466259 0.00020690008330679765 -4.229574435456011e-6
-0.000244511370293199 0.00019021830655433219 -4.29930026475407e-6
-0.0002238161673260074 0.00018178819018851622 -4.319364986188858e-6
-0.00018545421865247638 0.00016485123735936414 -4.337295705628616e-6
-0.00016776091644431782 0.0001563739393299805 -4.337617028687746e-6
-0.00013527450930974993 0.00013944367204448476 -4.327969638791113e-6
-0.00012046562232083697 0.00013099879504216295 -4.323383897419957e-6
-9.371399065832386e-5 0.00011416161444839133 -4.322736929698997e-6
-8.170053188133304e-5 0.00010576299691509063 -4.315339081465391e-6
-6.0522416877201204e-5 8.899792706058356e-5 -4.290391199708338e-6
-4.30137168660501e-5 7.2321115328992e-5 -4.248227015300467e-6
-3.563105166216844e-5 6.402943026959265e-5 -4.225289415530103e-6
-2.351275167853497e-5 4.76034428735006e-5 -4.2012477517132295e-6
-1.8727127678263922e-5 3.9491400827882934e-5 -4.221332550821143e-6
-1.1382254491437464e-5 2.3556110637669893e-5 -4.239278769473626e-6
-8.553810917744494e-6 1.5720258822546757e-5 -3.971318546610255e-6
0.0 0.0 0.0
0.0 0.0 0.0
0.0 0.0 0.0
0.0 0.0 0.0
0.0 0.0 0.0
0.0 0.0 0.0
0.0 0.0 0.0
0.0 0.0 0.0
0.0 0.0 0.0
-0.00034512019222069154 -0.00027011387867969454 7.347612001538676e-6
-0.000304387792328598 -0.00024910441956343943 5.333269796447644e-6
-0.00026353291519108494 -0.00022969641316197405 4.909995837554123e-6
-0.00024374785010572406 -0.00022014508981010365 4.870817441254721e-6
-0.0002060494011696603 -0.0002011004412485737 4.876990137137342e-6
-0.00017131056940540156 -0.00018199332741126464 4.898028907118206e-6
-0.0001397899142041386 -0.0001628065789198122 4.921889058096081e-6
-0.0001116462814262821 -0.0001435227786366579 4.9427324422829715e-6
-8.696205609003382e-5 -0.00012417767736930396 4.9485782058873746e-6
-6.58186259464123e-5 -0.00010481541447833182 4.945923877720308e-6
-4.817888224339115e-5 -8.548567290980138e-5 4.927540930467815e-6
-4.065845257780575e-5 -7.585543688989131e-5 4.913297641428176e-6
-2.8111442111319555e-5 -5.673065277202108e-5 4.904979851137328e-6
-1.8583567433186594e-5 -3.7881348563301695e-5 5.013376216825169e-6
-1.120234694972012e-5 -1.9249673875866107e-5 4.741542059549387e-6
-0.00037528924589185885 -0.0003043651351295224 1.0003095167045882e-5
-0.00024105239594949428 -0.0016773609199627203 1.581163678598323e-6
-0.0002533403277094363 -0.0015633774511941353 2.601567608537518e-6
-0.0002617553305462634 -0.0014582938966737826 2.0257371532554977e-6
-0.0002652418158641713 -0.0014072940190335665 1.8165495209035999e-6
-0.0002715951993033789 -0.001306994735683445 1.6185917469578145e-6
-0.00027770897095394083 -0.0012083389567736772 1.5933943780835723e-6
-0.00028398484775368337 -0.001111015549412461 1.660331821857707e-6
-0.00029066320382508884 -0.0010149386124813872 1.776163752382174e-6
-0.0002978395679863032 -0.0009201301430358767 1.9078044694094233e-6
-0.00030557853700048274 -0.0008265820270737617 2.054042580790179e-6
-0.00031392943126598176 -0.0007342511440492586 2.208208056515784e-6
-0.0003183428910880181 -0.0006884964209866328 2.287229540795413e-6
-0.0003276861972890618 -0.0005975674220202417 2.479218180916668e-6
-0.00033790259940468274 -0.0005066433271183851 3.0039127007036418e-6
-0.00034998310440195155 -0.00041325690579802895 5.312612278588027e-6
-0.00022876204447715812 -0.0018210930771286797 -4.921930644400939e-6
-0.00035904386383332895 -0.001801636714823551 -4.066120706568366e-6
-0.0005150004110845424 -0.0017706335511379141 -3.4809088005917196e-6
-0.0006118411145576871 -0.001760336208470906 -2.2256341234490953e-6
-0.0007540461893319426 -0.001751073920316727 -1.1840681795591335e-6
-0.0008480053493153497 -0.001747539154988232 -6.819630729588241e-7
-0.000989359763735044 -0.0017452260836776682 -2.036751684795137e-7
-0.0010844297678684826 -0.0017449001599843857 -3.644004534532882e-8
-0.0010097542516863888 0.00023654856267046006 -1.628047915999483e-7
-0.0010080481585328018 0.00016784793455942816 -3.410024247284316e-7
-0.0010155404292248246 0.0001032573134053844 -5.513595371844485e-7
-0.0010190853154539927 4.156746419231828e-5 -8.292497099795155e-7
-0.0010200923701645553 -1.9976147126640914e-5 -1.1291616708047154e-6
-0.0010199714933656762 -8.409487918476739e-5 -1.41388526231253e-6
-0.001014790374031547 -0.00015874132099414473 -1.6359954808306856e-6
-0.0010433149226038718 -0.00022738975329931262 -2.0309038182984567e-6
-0.0010520324751911846 -0.0002948025226884226 -2.2051758098830512e-6
-0.0010638237964191984 -0.0003987339311772474 -2.3179203179832754e-6
-0.00106861859965755 -0.0004732670713442296 -2.2816190082686825e-6
-0.0010645988293494376 -0.0005595940430156655 -2.0970558884849224e-6
-0.001089563050582537 -0.0006465142365181907 -2.1159142099259935e-6
-0.0010775435414453098 -0.0007392223289921766 -1.818893944199122e-6
-0.0011096155460368962 -0.0008388113430772964 -1.7720526420699366e-6
-0.001085676568896829 -0.0009487556907932592 -1.3842550771014119e-6
-0.0011061264502193284 -0.0010325948500159734 -1.2625735348603842e-6
-0.0010953428852167983 -0.0011295492484028435 -1.017068391982273e-6
-0.0011161631385398166 -0.0012602422917870667 -7.565769866230475e-7
-0.0011313566429370816 -0.0013522761228007545 -5.755517334101413e-7
-0.0011129964015818593 -0.0014477375717845012 -3.9975188267503413e-7
-0.0011273025823133633 -0.0015522697931125203 -2.3246513280792908e-7
-0.0011306907320189135 -0.0016481998054563975 -1.1239515472753372e-7
-0.0009414606082967375 0.0002370967047001162 -3.2440742532136267e-7
-0.0009328516848119229 0.00017816726794523584 -4.62049527788177e-7
-0.0009211504021892369 0.00011271742833845571 -6.081963572964517e-7
-0.0009542539549934867 3.962184081446816e-5 -7.668135372206092e-7
-0.0009526615993298241 -1.7848261632920328e-5 -9.126532058581766e-7
-0.0009491110934844849 -7.728022811624207e-5 -1.0311190390050819e-6
-0.0009596090179226096 -0.000170941664684981 -1.2663858657338235e-6
-0.0009563455814870797 -0.00023884441069160132 -1.3064970412195146e-6
-0.000971299953102235 -0.0003072556206054855 -1.4601446904701407e-6
-0.0009894295015404303 -0.0003963338563586705 -1.613694514590657e-6
-0.0009859109357257985 -0.0004590694122773867 -1.54230327814442e-6
-0.0010002267789454135 -0.0005718581991630305 -1.5499602100833373e-6
-0.0010062152630451388 -0.0006593799563282833 -1.4804297404727417e-6
-0.0010028725552385185 -0.0007347494159907593 -1.3458205040597283e-6
-0.0009964885283493645 -0.0008590237386645638 -1.1112215544386418e-6
-0.0009893796643837241 -0.000928473071977829 -9.865132902896517e-7
-0.0010046785108338706 -0.001018739667159003 -9.224045056375451e-7
-0.0010234104993986878 -0.001124060857396456 -8.307175086561111e-7
-0.0010081584044577974 -0.0012287402471013195 -6.490595808739226e-7
-0.001019588018690891 -0.0013443811228003347 -5.321662436702682e-7
-0.0010415784522499105 -0.0014334286929220794 -4.413442251824654e-7
-0.0010360886940619539 -0.0015634017380702372 -3.186324851704302e-7
-0.0010367899676526858 -0.0016502259119784497 -2.317077878411796e-7
-0.0008698364047144709 0.00023448332924459262 -5.603767182496715e-7
-0.0008895676195030815 0.00017064480390967525 -5.618618098987642e-7
-0.0008720893970070411 0.00011559723225933737 -6.339878887073304e-7
-0.0008573555978873602 5.082981899578273e-5 -6.269890925432434e-7
-0.0008815768638611827 -1.1744417154996457e-5 -6.89003856918816e-7
-0.0008762493749490464 -9.448814565392996e-5 -6.847754947593177e-7
-0.0008591910527354473 -0.00014981794020265665 -5.769339631209848e-7
-0.0008959603566092975 -0.00022026624033366765 -8.213171277948205e-7
-0.0008863248780914856 -0.0003112630194463539 -7.208351792741541e-7
-0.000888390519408367 -0.0003897446729487274 -7.121430000490858e-7
-0.0009001220454275447 -0.0005025640845760509 -7.803243183128898e-7
-0.0009118843906306453 -0.0005620121422538724 -8.581616750261628e-7
-0.0008988001273468513 -0.0006420090248145701 -7.244750624612097e-7
-0.000929425922471095 -0.0007256652860145155 -8.810895810648159e-7
-0.0009254576368253643 -0.0008314697217774261 -7.754648967828597e-7
-0.0009026454159237201 -0.0009117965210878029 -6.040726269101274e-7
-0.0009464799649956892 -0.0010430018245834994 -6.83192272760998e-7
-0.0009491123635026273 -0.0011419219798650697 -6.082444840916469e-7
-0.0009487975400017853 -0.0012438739171053077 -5.328806675253873e-7
-0.0009648680133037999 -0.0013348916701722356 -4.996703089561873e-7
-0.0009296385636206027 -0.0014434690187610727 -4.518508328599329e-7
-0.0009242154734671103 -0.0015313434311413007 -4.591791284625703e-7
-0.0009355532135754154 -0.0016382196458138232 -4.263987797021683e-7
-0.0008023657400776582 0.00023862296052397315 -8.372510053544302e-7
-0.0008016245888793288 0.0001453369330876202 -7.367524366411411e-7
-0.0007985891823397799 9.143806958322411e-5 -6.401597152166482e-7
-0.0007916372250324143 2.6438234778123117e-5 -4.9843396542417e-7
-0.0008107463885176027 -2.6675367079327145e-5 -4.57797226549981e-7
-0.000793860429101898 -9.103500182550204e-5 -2.530858635927807e-7
-0.0007774386514883952 -0.0001514582444562224 -1.4348964692751726e-8
-0.0007883258947710236 -0.0002258108603254631 3.6581229182760446e-8
-0.0008021133575144595 -0.00030616736629389277 1.4675915554660786e-8
-0.0008085526184266599 -0.00036368233121741086 -1.0745768825796347e-8
-0.0008111791940587496 -0.00044590464472597064 -3.557377016177845e-8
-0.0008292199149846211 -0.0005632620485223091 -2.177978009060867e-7
-0.0008395556772086694 -0.0006635261914794341 -3.096055682937343e-7
-0.0008334063680510053 -0.000709563443843172 -2.710175153626585e-7
-0.0008090376532087099 -0.0008453274337736651 -1.657817100617423e-7
-0.0008231715140953346 -0.0009462409307303361 -2.3808124371262751e-7
-0.0008439517980585228 -0.001038875152785416 -3.186006391671033e-7
-0.000840413201816625 -0.0011417907178156931 -3.1094769991734127e-7
-0.0008411980642777823 -0.0012490473713852128 -3.3705169148022603e-7
-0.0008392694810784826 -0.0013581816539942554 -3.9178948346547596e-7
-0.0008294952965927537 -0.001458959850990984 -4.832528957958871e-7
-0.0008055537593773938 -0.0015417011338799125 -6.144859323376382e-7
-0.0008274831447717175 -0.001626134624562171 -6.784629900432305e-7
-0.000733126491810901 0.00022456393597896154 -1.1458902655977216e-6
-0.000730659546079241 0.00017071295793428997 -9.659192339019447e-7
-0.0007009397055820671 0.00011228642238829746 -7.821711110739003e-7
-0.0007339361729841733 3.119659805389699e-5 -4.2052626613414236e-7
-0.0007206636731285621 -1.5336088952324385e-5 -1.9615183088872877e-7
-0.0006927057199148061 -9.485111898914977e-5 3.2352425806999194e-7
-0.000707663516214452 -0.0001661273992755733 5.462650324975544e-7
-0.000738376254809893 -0.0002224553010860631 4.631656477286096e-7
-0.000731087710805977 -0.0002901034422253645 6.644449028042626e-7
-0.0007288107489779556 -0.00038021549623851734 7.470096833700074e-7
-0.0007274373730791062 -0.0004619345446232989 6.985415543509618e-7
-0.0007632385890174035 -0.0005392805077616377 3.123767035315655e-7
-0.0007392184804954812 -0.0006176742549837105 4.0080576237095986e-7
-0.0007337800721370883 -0.000739660686623381 3.068484468181676e-7
-0.0007334713724366531 -0.000844323188590361 2.1821608003639213e-7
-0.0007509552527231864 -0.0009181226209863734 8.325840391270972e-8
-0.000747274835133385 -0.0010377237226560762 3.7476679009797384e-8
-0.0007380414538333729 -0.0011526431209516914 -1.992576541446575e-8
-0.0007462865929820012 -0.0013529676534632974 -2.709165309408685e-7
-0.000723430552663145 -0.0014233554821781352 -3.8552794374731026e-7
-0.0007420457200559735 -0.0015472315671619412 -6.982482331879447e-7
-0.0007324511057972666 -0.0016324543116771363 -9.540842830114457e-7
-0.000636962064625292 0.00021868420854722267 -1.6603887359016421e-6
-0.000638690345543729 0.00014806982894020033 -1.144813326603711e-6
-0.0006414689688178222 9.940998077833953e-5 -7.847719477728789e-7
-0.0006330957502270274 4.1220208195652716e-5 -3.4970471338732737e-7
-0.0006469796874022184 -2.4293598899161013e-5 1.0094026089705999e-7
-0.0006235723814880637 -6.440064084704656e-5 5.118845895506763e-7
-0.0006397615600406024 -0.00016172660401450365 1.1030796799243014e-6
-0.0006745647690477821 -0.00023713102610692867 1.1215127382784246e-6
-0.0006617004269382497 -0.0002954469811345011 1.4010016748369305e-6
-0.000658038639576172 -0.0003646395134781178 1.4852940199481162e-6
-0.0006489666105698612 -0.00044235536855902235 1.4824857368359854e-6
-0.0006934468744392565 -0.0005441206255291954 8.595235561570142e-7
-0.0006344890551492292 -0.0006484397500379951 1.0412489729594957e-6
-0.0006413805418048228 -0.0007576782589125413 7.808235284569741e-7
-0.0006463167095668639 -0.000842841267209901 6.323542558552574e-7
-0.0006634794260472207 -0.0009266486409764674 4.6543430073153094e-7
-0.0006422765905211635 -0.0010373705085662047 4.263533326162371e-7
-0.0006452758657098675 -0.001124027155542167 3.1434524096561486e-7
-0.0006497750605637956 -0.0012587559875689176 1.0967770666866831e-7
-0.0006443989374211581 -0.0013249194768549478 -5.349069080448442e-9
-0.000653885501437734 -0.0014604758985143616 -4.2009461602999806e-7
-0.000612770250535452 -0.0015459477043241832 -7.925921349624198e-7
-0.0006351856309823543 -0.0016625379445022583 -1.4513484598508561e-6
-0.0005700055942258549 0.00021370967766515443 -2.02208372433465e-6
-0.0005659732414078122 0.00015401197309490052 -1.434290721157801e-6
-0.000577357871450345 9.458485680690463e-5 -8.206049256260548e-7
-0.0005667884671582276 1.5722683993648297e-5 -2.5214514595630212e-8
-0.0005630376500194167 -1.2816403903525257e-5 2.8534147410019774e-7
-0.0005827483613721543 -7.372533258886597e-5 8.195950561012937e-7
-0.0005659914350106293 -0.00014099060740322197 1.6254313389681314e-6
-0.0006112531664504568 -0.00022002741280721164 1.7562179984808128e-6
-0.0005846789114451126 -0.0002823222346495716 2.402328998477778e-6
-0.0005515961658478577 -0.0003592711876584919 2.9313736686198703e-6
-0.0005656924526101915 -0.0004553631670754233 2.2871413285435733e-6
-0.0005687760455848537 -0.0005528086695898802 1.7782670419685633e-6
-0.0005491491783090945 -0.0006365450412840191 1.5787539468664633e-6
-0.0005423992943495848 -0.0007571723072545228 1.282025554139848e-6
-0.0005357491881846851 -0.0008413640022378723 1.1461032266788206e-6
-0.000533004169369983 -0.0009297710980586139 1.0075540775502121e-6
-0.0005308986792962821 -0.0010698481783880897 7.980956512496463e-7
-0.0005031410856650833 -0.001146156974592662 7.892447257271722e-7
-0.000568865290505681 -0.0012566840705212127 3.6759665845323085e-7
-0.0005291007161695629 -0.0013528153638256502 2.739164580320529e-7
-0.0005371636290259542 -0.0015140788197570956 -4.643064813078639e-7
-0.0005575088953119308 -0.0016862711129151252 -1.995010604228239e-6
-0.000506373915785157 0.00020605933502346912 -2.355948888788478e-6
-0.0005068731369174581 0.00015167188097853815 -1.6540767840869382e-6
-0.0005055105057556378 0.00010021582694093455 -1.0069452968117987e-6
-0.0004945689379731757 4.396155649851468e-5 -2.9743048320169643e-7
-0.0004981383089704788 -2.5500414104131736e-5 6.32850290715001e-7
-0.0004958417905385833 -7.238507323548768e-5 1.3032112789990897e-6
-0.0004929805430663467 -0.00014074532594225884 2.3496378852827595e-6
-0.0005120568254559612 -0.0002068187109563493 3.06160652798209e-6
-0.0005096716946727474 -0.0002805356304313286 3.8539317160571314e-6
-0.00047264366865280345 -0.00035672785173393706 4.5792052690024e-6
-0.0004955264386629482 -0.0004685050745528033 2.8497580693260446e-6
-0.00047069905700225636 -0.0005818045788778128 2.20670841292853e-6
-0.0004560587786937624 -0.0006756414824420988 1.8881950641679618e-6
-0.00044793815088920954 -0.0007641761047406496 1.6740977531012918e-6
-0.0004437052373869118 -0.0008482756898044829 1.5070243933991996e-6
-0.0004536410202079826 -0.0009220421348855289 1.3323908164433583e-6
-0.0004319932141824842 -0.0010562744925810062 1.1882940845260073e-6
-0.00042233999141113443 -0.0011419308330413542 1.1047733936720575e-6
-0.00042025007307597224 -0.0012157310639749148 1.0119561389100521e-6
-0.0004170177429827261 -0.0013432168760349487 8.210163326885938e-7
-0.0004591240682367403 -0.0014512747475435364 2.568649007100021e-7
-0.0004399746612286444 -0.0015078207687612138 9.173816467592296e-8
-0.00046985016821219126 -0.0016842801280698503 -2.178809707892056e-6
-0.0004457973736437822 0.0001940775573199789 -2.6072684011640364e-6
-0.0004556295807476563 0.00014175757990411692 -1.744982158453246e-6
-0.00045459061444707747 7.856829940426182e-5 -8.232783931557791e-7
-0.000447054381541024 3.616787869793543e-5 -2.0172978742147337e-7
-0.00042849110998177 -2.5998609199004865e-5 8.085264224395935e-7
-0.00044544623117234516 -7.930719671938306e-5 1.6722029975125435e-6
-0.0004327092006869478 -0.00012536687800175997 2.618638049434265e-6
-0.0004101446199280547 -0.00018173325441757208 4.223916804566547e-6
-0.0004382354922987163 -0.0002435944913081813 5.559173015729448e-6
-0.00040021524368352056 -0.00035883101578147535 6.7609320038803324e-6
-0.0004288405039773696 -0.0004465443685466948 3.6830827971052342e-6
-0.00038005103813328186 -0.0005451698004558831 2.6722315563490345e-6
-0.00037055668380020984 -0.0006364743760023874 2.2889694736553944e-6
-0.0003565448519065849 -0.0007740905205682706 1.9832843034878906e-6
-0.00035082828324084465 -0.0008660988848558034 1.8136217516441555e-6
-0.00034855160239503913 -0.0009604098117711543 1.6523859818673218e-6
-0.0003368535955688602 -0.0010580680164691116 1.5389651497153175e-6
-0.00033025983104818964 -0.0011533154361350849 1.43674293782517e-6
-0.0003283655632360763 -0.0012506530691354927 1.357278302757709e-6
-0.00031840993113758974 -0.0013498228943655492 1.374982162578886e-6
-0.00031407392063439484 -0.001450081519778997 1.4583296203758844e-6
-0.00031730913172018076 -0.001556240471253603 1.3647106226249503e-6
-0.00036626372743813753 -0.0016752069128155769 -9.85504513264435e-7
-0.0003892670570253733 0.00018465465649340084 -2.8479948501132117e-6
-0.00040015404795741 0.00012552457031950512 -1.7529130040258615e-6
-0.0003725410783479708 7.680457298783077e-5 -1.005842054292375e-6
-0.00038540638626420094 2.2259342765812476e-5 -8.89048075140421e-9
-0.00036455107401314946 -2.383139290020982e-5 8.318483424828212e-7
-0.00036158990328995954 -0.00010215192030730799 2.4498964644427068e-6
-0.0003622646097202641 -0.0001529795802129896 3.6859885138375357e-6
-0.00036139000152910465 -0.00020682645598765664 5.417371790258272e-6
-0.0003605676225001743 -0.00026216698145120626 7.88569501599472e-6
-0.00033721640058854307 0.00017539558326490074 -3.063347098421948e-6
-0.00033033269626744585 0.00010997011497363708 -1.8002911134489004e-6
-0.0003035937536363929 7.813533414267239e-5 -1.2910690932054172e-6
-0.0003153181744824418 2.314447459772499e-5 -1.309908733630824e-7
-0.00031767975096453623 -2.15610953344118e-5 7.825320735145274e-7
-0.0003178142616873313 -7.541226566779298e-5 1.9145531953102457e-6
-0.00031931829708913565 -0.00012557362611215962 3.0304178450921844e-6
-0.00031973864916735737 -0.0001734281881543295 4.162873037059535e-6
-0.0003213517573602995 -0.00022009099511579295 5.265954709165307e-6
-0.00028637520823483395 0.0001528427230454736 -2.9792419216896904e-6
-0.00028700922019679213 0.00011655513259931376 -2.18470115079914e-6
-0.0002761926460049005 6.733090120908161e-5 -1.1781781772465153e-6
-0.0002731199384247192 1.8426146048670844e-5 -1.2248453544451242e-7
-0.0002757050686180027 -2.5350213684501272e-5 8.346663046075585e-7
-0.0002563174752813075 -6.29245612627812e-5 1.6492663996465517e-6
-0.000280606959491113 -0.00012198310223449709 2.9310485858466072e-6
-0.0002804022386068182 -0.00016335346898957372 3.8069943912544993e-6
-0.00028134372095529176 -0.00020320964849990472 4.526259327849976e-6
-0.00023961169694605616 0.00014934888260276005 -3.2886730624158782e-6
-0.0002119068135889533 8.978295879403561e-5 -2.015428788227189e-6
-0.00023368828946961786 5.6218799914568e-5 -1.0897355435689596e-6
-0.0002310558993902435 1.4864409366860026e-5 -1.3438401686932127e-7
-0.0002178215955098303 -1.826281608736173e-5 6.210742037441107e-7
-0.00022359296218839794 -5.902094680532358e-5 1.5665084084788076e-6
-0.00023143984882770174 -0.0001040050678082091 2.581208086592471e-6
-0.00022550926577334058 -0.00013918237672819203 3.3726286858266824e-6
-0.00022305830607398597 -0.00017447492629557988 4.122504827813891e-6
-0.00020123104899304891 0.0001386978735951474 -3.385918861369491e-6
-0.00018046224145246102 8.29728620900921e-5 -2.0457754191061657e-6
-0.00018017041054427878 5.7264360348352875e-5 -1.3525885638974868e-6
-0.00018482448998521643 1.3003149147997478e-5 -1.8935044115556355e-7
-0.0001829411589109298 -2.200100943893246e-5 6.990681949300449e-7
-0.0001877663340994628 -5.9701540256899665e-5 1.6378338017373385e-6
-0.000194394612209341 -0.0001017869657046493 2.6447165706394875e-6
-0.00018938317023082894 -0.00013502945286766093 3.4730235381216336e-6
-0.00018388179153559558 -0.00016852803874935503 4.343132203141778e-6
-0.000150867119941072 0.000119777204130519 -3.4114679890514065e-6
-0.0001498796173887502 8.987489846340223e-5 -2.5058865242383757e-6
-0.00014442659747391956 5.322369466278738e-5 -1.4574961142541015e-6
-0.00015636823526492692 1.5849984591747526e-5 -3.42568292053342e-7
-0.00015089444707188819 -1.9455721064793726e-5 6.273841391333103e-7
-0.00015338191705264518 -5.449396937850813e-5 1.5962484859109853e-6
-0.00015402547460076338 -9.464166862019543e-5 2.684716575462347e-6
-0.00015796200182624802 -0.00013167871917948827 3.677573729122312e-6
-0.0001506541204941286 -0.00015617156248157594 4.481517915884571e-6
-0.00012193148371398924 0.0001064494442529924 -3.3721311449135815e-6
-0.00012201517595664681 7.329491884456006e-5 -2.2477837486165606e-6
-0.00011519652409842238 4.156523717813635e-5 -1.2782180334595185e-6
-0.00012141219359796772 4.0689089781031266e-6 -6.371874298547444e-8
-0.00011558423435162945 -2.575212758136854e-5 8.626650466844757e-7
-0.00012280537709710693 -4.4990392656273674e-5 1.4306332125728227e-6
-0.00013085509174955425 -8.117210451755248e-5 2.464405647639161e-6
-0.0001282421648777113 -0.00010408711158843562 3.191197708815515e-6
-0.00012133821944863424 -0.0001387582453344049 4.4907429818672084e-6
-9.360102849022109e-5 8.611529399598615e-5 -3.103346164615016e-6
-9.900097613549026e-5 6.997797784315782e-5 -2.41796975890751e-6
-8.777375837986803e-5 3.6668502511830855e-5 -1.2973284790181643e-6
-7.707277656597625e-5 6.136851096570286e-6 -2.134779874198689e-7
-8.879809367605056e-5 -2.2142404318205193e-5 8.358560587333176e-7
-8.496132002943896e-5 -4.498325683476081e-5 1.6985588040891322e-6
-8.91707342750745e-5 -7.324858661803688e-5 2.698872459557844e-6
-9.934982085209134e-5 -9.808289384793638e-5 3.4437343998249835e-6
-9.574041473927915e-5 -0.00012197043585744642 4.508734974438216e-6
-6.659359522982718e-5 7.427987269541357e-5 -3.2055298947213107e-6
-6.624740542643607e-5 5.112507130839603e-5 -2.1231569554826932e-6
-6.444005984832782e-5 2.9086874595955952e-5 -1.1985152003714683e-6
-6.184344034231462e-5 2.030967121640443e-5 -8.49692961811939e-7
-6.611220031232317e-5 -1.6460409353033602e-5 7.034880025533181e-7
-5.9751324939775476e-5 -3.4414820235898794e-5 1.5301528135950885e-6
-6.317235113085665e-5 -5.465878871257518e-5 2.377038009374399e-6
-6.576485238929552e-5 -7.489493264583345e-5 3.2626810971539606e-6
-7.312116553319397e-5 -0.0001047456035787547 4.524230012039697e-6
-4.328397811698613e-5 5.316164894521218e-5 -2.8153050273220823e-6
-4.46978033625865e-5 4.226313511462847e-5 -2.1492357940126713e-6
-4.356904699133595e-5 2.9004565928369304e-5 -1.4678618880793672e-6
-3.749409322681144e-5 8.331951761103977e-6 -4.382779737268991e-7
-4.22324225670185e-5 -1.4950038885048868e-5 7.920014853024983e-7
-4.355484394128647e-5 -3.216680421219831e-5 1.658524808846891e-6
-4.600859934775415e-5 -5.370657890782122e-5 2.7876925211947637e-6
-4.963165071036892e-5 -7.095713197711491e-5 3.6673427570196736e-6
-5.3955597725196495e-5 -8.715210546057481e-5 4.512485829833446e-6
-2.979170121449867e-5 4.6411819847544054e-5 -3.0541597381804546e-6
-2.8676322019395186e-5 3.43587060233086e-5 -2.186218824771456e-6
-2.5214738919103587e-5 2.040742244181138e-5 -1.3257941139714778e-6
-2.8328615488716783e-5 1.0700662900390973e-5 -6.338856344437335e-7
-2.4531982109351214e-5 -3.1290061496667803e-6 2.4045156591429914e-7
-2.69564888320994e-5 -2.9128485487608055e-5 1.936750529176799e-6
-3.08816733821322e-5 -4.471608671545863e-5 2.8871637086402503e-6
-3.4084988258183994e-5 -5.705249921433207e-5 3.671499454615688e-6
-3.8178091417582576e-5 -6.966846353986708e-5 4.49659619090227e-6
-2.0320773919510446e-5 3.984886600108226e-5 -3.421575854655687e-6
-1.6988482727508588e-5 2.6713270098331996e-5 -2.2473685138465212e-6
-1.2868072598758744e-5 1.3967958907233594e-5 -1.2706019183833647e-6
-9.40002986983614e-6 4.15110643631042e-6 -4.0652631114747906e-7
-1.0864720202190125e-5 -2.5767432706854833e-6 2.7258501983635156e-7
-1.6411092425396322e-5 -1.8998478325798878e-5 1.6070782934452083e-6
-1.7413533030357422e-5 -3.007282543581263e-5 2.633555176942989e-6
-2.1697627553554138e-5 -4.327048859001103e-5 3.740699453835962e-6
-2.5776499370969203e-5 -5.245641651944314e-5 4.516762693827558e-6
-9.591766541084713e-6 2.3691794091717916e-5 -3.2486807998312894e-6
-8.295646290810854e-6 1.9567362682397374e-5 -2.515339807942274e-6
-2.2028716736795425e-6 3.0108377579236357e-6 -4.797043768469596e-7
-2.5151925056145574e-6 -1.9325905569822588e-6 3.4094864035998846e-7
-3.454106530298412e-6 -1.131899430090078e-5 1.9591795566245832e-6
-4.872283002065301e-6 -1.60892932458512e-5 2.886243745267047e-6
-1.265809205220372e-5 -2.9993328599196717e-5 3.924479604817623e-6
-1.642012230054671e-5 -3.5459721717250606e-5 4.627827787198714e-6
-3.539625462287813e-6 1.0557294309328826e-5 -3.245789575585381e-6
2.1452243331382304e-7 4.911674464582268e-6 -1.8996816597287734e-6
9.208122217483504e-7 3.4204754231154675e-6 -1.1293466720577412e-6
1.4460605212239414e-6 3.047336393959841e-7 -9.585282060724181e-8
1.2424142865221724e-6 -2.4056515364770613e-6 8.555891180626539e-7
5.821347039019202e-7 -5.156753757203038e-6 1.8539175276246371e-6
-6.067488041778061e-7 -7.463738213614674e-6 2.7508469247137955e-6
-2.625711016205347e-6 -9.93866570676611e-6 3.544916865617993e-6
-7.896707392142659e-6 -1.6569615778842613e-5 4.437985646349998e-6
-0.0012283643854490338 -0.0016968989854999313 3.1053967753357536e-8
-0.001228337197369574 -0.001551938571529878 -1.0253429279908598e-7
-0.001226939661315722 -0.0014054306265716343 -4.3777692259680967e-7
-0.0012230357999250335 -0.0012584010519423932 -9.163746697780485e-7
-0.0012162243664272153 -0.0011124252992692968 -1.3835381106541825e-6
-0.001210221666494342 -0.001016334105382312 -1.691600747127009e-6
-0.0011988633543110686 -0.0008749219668378268 -2.1640702991482224e-6
-0.0011849500138147182 -0.0007378384810359322 -2.570019038751472e-6
-0.0011688975946711148 -0.0006061318230423773 -2.894662587996113e-6
-0.0011572473274143562 -0.0005219198295472858 -3.043161467379299e-6
-0.001139054319667712 -0.0004015619619443336 -3.0993076211504124e-6
-0.0011211942457823845 -0.0002887461438461608 -2.906289880141023e-6
-0.0011052757720562037 -0.0001830412627312449 -2.4476285372146624e-6
-0.0010926499416387687 -8.296020807183777e-5 -1.8174139660555747e-6
-0.00108648580089384 -1.8354934691042325e-5 -1.3274222287095622e-6
-0.0010808626033911378 7.730521251663906e-5 -6.229348872717288e-7
-0.0010789379438506442 0.00017368706216583143 -1.3535346309535375e-7
-0.0010789013038668227 0.00027223607491140447 4.104144982938659e-8
-0.0010457391952470372 0.00030544664197937576 4.1654154682603497e-8
-0.0009451794937266649 0.0003054137397234205 -1.3631419029379395e-7
-0.0008424052949995218 0.0003034899039784112 -6.247436523797723e-7
-0.0007387529273774432 0.00029781623604402125 -1.3577484374583977e-6
-0.0006366507207141585 0.00028747760417447267 -2.170539810397022e-6
-0.0005706973694447463 0.00027797327011539364 -2.6876187520798622e-6
-0.0004767151464558788 0.0002601007374341303 -3.3684627704103327e-6
-0.0003903511901840267 0.0002387698260339344 -3.861031428485822e-6
-0.0003127906895041809 0.00021509968454017995 -4.1661502952048674e-6
-0.0002662420742093353 0.00019860099280648497 -4.270254756909891e-6
-0.00020413496787394282 0.00017332676030978034 -4.331595708026724e-6
-0.00015103707605610932 0.00014790346697430553 -4.333787221692853e-6
-0.00010661383308765078 0.00012256546359640382 -4.322401038444188e-6
-7.064225936461599e-5 9.73681637477813e-5 -4.3048376561836e-6
-5.130576677085509e-5 8.06488806808851e-5 -4.270424139361339e-6
-2.9140717686747476e-5 5.578615922629296e-5 -4.206311303253355e-6
-1.4728263482433785e-5 3.147591730771148e-5 -4.258597735415391e-6
-5.8759711514439e-6 7.696594028119575e-6 -2.676547878969676e-6
0.0 0.0 0.0
0.0 0.0 0.0
0.0 0.0 0.0
0.0 0.0 0.0
0.0 0.0 0.0
0.0 0.0 0.0
0.0 0.0 0.0
0.0 0.0 0.0
0.0 0.0 0.0
0.0 0.0 0.0
0.0 0.0 0.0
0.0 0.0 0.0
-0.0003649914302742379 -0.00028377501633010366 9.369738344295166e-6
-0.0003250280243179563 -0.00025924268071263895 6.009045605418696e-6
-0.00028380541353904636 -0.00023932115394801056 5.029910040286641e-6
-0.00022456578794279015 -0.00021062068105749275 4.866396904290693e-6
-0.00018832606648754138 -0.0001915468432582841 4.889071367970585e-6
-0.00015514699212311578 -0.00017241814236874188 4.90886285943619e-6
-0.00012528706775530868 -0.0001531724907219163 4.9338269617733385e-6
-9.886085579965006e-5 -0.00013385724157627166 4.946559753898302e-6
-7.595045334352913e-5 -0.00011449484447704488 4.948781978550216e-6
-5.656311042453529e-5 -9.51428701277305e-5 4.938991607653345e-6
-3.39792225393416e-5 -6.626545746245957e-5 4.901759861530455e-6
-2.3002134331889475e-5 -4.726529233751638e-5 4.939280704052438e-6
-1.4717673766657895e-5 -2.8575484160014425e-5 5.053808100046816e-6
-7.645789289961748e-6 -9.586363400715652e-6 3.2454138494420407e-6
-0.00023356063119337928 -0.0017429501520822377 -1.6906043253768764e-6
-0.00024790125963810607 -0.0016185594245998996 2.589621624162639e-6
-0.0002578562984118479 -0.0015101702756995842 2.313815643630315e-6
-0.00026848213600149095 -0.0013569034322403058 1.6870932611325983e-6
-0.0002746514243386193 -0.0012574950358458649 1.5921299817485327e-6
-0.00028080972082282154 -0.001159519808528813 1.6179412644192806e-6
-0.0002872626523743016 -0.0010628192603424765 1.7147651852146433e-6
-0.00029418629808909946 -0.0009673816033071009 1.8411908670828695e-6
-0.00030163492378782906 -0.0008731984655996682 1.9789324585394647e-6
-0.00030967601994063746 -0.0007802708027781305 2.130764174662619e-6
-0.0003229236315592191 -0.0006429604814137075 2.372397416257475e-6
-0.0003326604055483843 -0.0005521955391478495 2.6527937989310637e-6
-0.0003435743666619643 -0.00046058512254743694 3.759206170640554e-6
-0.00035921123633099466 -0.0003646344768742765 7.9446736859205e-6
-0.000299285714902916 -0.0018127893208297098 -3.0124308834580607e-6
-0.00041374809875383646 -0.0017880579764680022 -4.438753106342855e-6
-0.00046527345034748564 -0.0017779873453022247 -4.2439261984884616e-6
-0.0005637445539687769 -0.001764916649518848 -2.7895122499000763e-6
-0.0006594984365422707 -0.0017566439533068944 -1.79056351439673e-6
-0.0007068704641423582 -0.0017536777495726682 -1.4638697956341396e-6
-0.0008010446828438976 -0.001749048168332148 -9.175493065298497e-7
-0.0008950090348450354 -0.0017464537266061984 -4.876202180405914e-7
-0.0009421159845032334 -0.0017457028677336664 -3.302605404696917e-7
-0.0010367911078262959 -0.001744977907053157 -1.0493123491739395e-7
-0.001132270750935007 -0.0017449163339685356 4.543288641240536e-9
-0.0011802712882938622 -0.001744955930975994 3.128084486779475e-8
-0.0011795969514445557 -0.0016963732699724018 -1.3655568552947425e-8
-0.0011315164904247275 -0.0016964373005948867 -5.555156322598014e-8
-0.0009432491465341763 0.0002705096768776739 -2.3804620160635605e-7
-0.0008737186070229526 0.00026944913966385 -4.996385210866964e-7
-0.0008395873010580581 0.0002695791356772426 -6.616626579037246e-7
-0.0007702642431032165 0.0002671110569096271 -1.0565962696658171e-6
-0.0007367083690384797 0.000263709923844497 -1.262719358556912e-6
-0.0006709557636419362 0.000256565552908152 -1.6883215197431999e-6
-0.0006371608772665126 0.0002526170801041597 -1.9060923531095846e-6
-0.0005704885005838053 0.0002452339375446688 -2.3453027078437744e-6
-0.0002039333028239725 -0.00018127711855951724 4.427265238909198e-6
-0.00034271831427015547 -0.0002511703839256804 6.667420248268108e-6
-0.0011782596747630257 -0.0015996942807199248 -1.0733516253017794e-7
-0.001176866610558632 -0.0015510367845909885 -1.7375624871301906e-7
-0.0011730649832762808 -0.0014520038380289432 -3.541738704516558e-7
-0.0011764040920739945 -0.001403097056660961 -4.6030988653929585e-7
-0.001175968620248462 -0.0013066881356804854 -7.121865997254934e-7
-0.001171844165166968 -0.0012596285569592871 -8.378836666382422e-7
-0.0011486283719497107 -0.0011580821541422731 -1.0723058902781665e-6
-0.0011574632927729557 -0.0011022833629022717 -1.2484833410278534e-6
-0.0011675764067808063 -0.0010070453113422192 -1.5605757690875733e-6
-0.0011288378160718628 -0.000928100618163828 -1.635713308584212e-6
-0.0011425335750100396 -0.0007848694371704543 -2.127607261610649e-6
-0.0011346127619274123 -0.0007387262794829048 -2.2111448957458818e-6
-0.0011301098775456828 -0.0006483779063009964 -2.4338754285420565e-6
-0.0011127181857700113 -0.0005187368076124474 -2.6193352698224287e-6
-0.001106197990188715 -0.00043850677211385616 -2.7044356137851837e-6
-0.0011017697313123265 -0.00040015524003335573 -2.705139812392143e-6
-0.00109189985220391 -0.00032708385134734097 -2.6296853076391378e-6
-0.0010874201829323014 -0.0002919021565706363 -2.5583587866053233e-6
-0.0010761384164445424 -0.00022155203768607274 -2.3143407265893792e-6
-0.0010682571683111501 -0.00018699422463208567 -2.1398954555437843e-6
-0.0010577839787602465 -0.00011855569248159476 -1.7941739999174425e-6
-0.0010563228487978958 -8.446857380347954e-5 -1.6170512434994756e-6
-0.0010535811231084857 -1.958027732027445e-5 -1.232333356082862e-6
-0.0010509714881666904 4.3373537326817283e-5 -8.423939601961773e-7
-0.0010458863219464 0.00013881468087645685 -3.534078522074039e-7
-0.0010442478925849104 0.0001710881989238838 -2.420595573203021e-7
-0.0010441750591212767 0.00023756005215690257 -8.223238633182802e-8
-0.0010448249611944363 0.0002713535603852481 -2.1314641792574278e-8
-0.0009773875159029908 0.00027073992313055825 -1.4739101595221213e-7
-0.0005066215300321035 0.00023559269787446228 -2.7468050969221046e-6
-0.0004758388542257817 0.0002297834106291008 -2.921873461813239e-6
-0.00041760327637503934 0.00021744766402869074 -3.217160370088955e-6
-0.00039003904417691626 0.00021175641202721588 -3.3481433215208487e-6
-0.000336821861064592 0.00019863730493900456 -3.5579560501158136e-6
-0.00026447362053197166 0.00017560492261238034 -3.710029644072476e-6
-0.00022194948335010488 0.0001630944204584468 -3.828185754005788e-6
-0.00020263445258302996 0.0001560889476715339 -3.8559158053485255e-6
-0.00016716082922225316 0.00014136461763136266 -3.870972315731287e-6
-0.00015081824551174593 0.00013402342360141186 -3.871420669739798e-6
-0.00012061548259752987 0.00011836273582168414 -3.8306464625071995e-6
-0.00010638258702441259 0.00010962574090328227 -3.7829072920413594e-6
-8.0356063457784e-5 9.339049254272946e-5 -3.7368173285155844e-6
-6.87168928501129e-5 8.616613578737454e-5 -3.751951608054354e-6
-4.9249964644703596e-5 7.239850840550455e-5 -3.7920585755547467e-6
1.3118475265673343e-6 -1.072163178259477e-6 5.902831939793608e-7
9.389656192417525e-7 -2.2601372298199457e-6 1.2347465206516197e-6
2.1753684995156145e-7 -3.2639849308294805e-6 1.7876074901721718e-6
-3.191384552788035e-5 5.2615605093161344e-5 -3.432861676571676e-6
-2.7349878949288686e-5 5.114442815393664e-5 -3.8183524385584245e-6
1.2941370804283228e-6 7.125612455416502e-7 -3.792285831411151e-7
-1.6392779282013043e-5 3.547531089732277e-5 -3.7732681837264974e-6
-1.2079639392554579e-5 2.773528853501854e-5 -3.779884645347318e-6
-5.8823870315587155e-6 1.2988291283636107e-5 -3.5945123293811976e-6
-3.006552077045193e-6 5.487364460682909e-6 -2.402787157180962e-6
-4.766436996120756e-7 3.5940456830893646e-6 -1.8468534242944302e-6
8.956281718995346e-7 1.7230061924398416e-6 -9.461516355790218e-7
-9.962123876481738e-7 -4.417574573653183e-6 2.315723177504222e-6
-0.00031152130997508026 0.0001901769359357997 -3.6076688956797335e-6
-4.565133597667341e-5 -7.840444938510262e-5 4.504416596270208e-6
-6.312179068412311e-5 -9.59718786138236e-5 4.521337399651435e-6
-0.0003654035379535337 -0.0006825060689027435 2.171391489239188e-6
-0.00041631189746713424 -0.0017349729745610605 -3.075482288532043e-6
-0.0005610046666887371 -0.001725037540030366 -2.3857650242378086e-6
-0.0006529347831836925 -0.0017058122684532515 -1.585088976348955e-6
-0.0010362141389184823 -0.0016967565899411133 -1.7456727939818236e-7
-0.0008930572822438127 -0.0017005891082743454 -5.105888835465925e-7
-0.0010495600385976769 7.487153339467253e-5 -6.593090522281924e-7
-0.0011244048544065833 -0.0006038291401444743 -2.511548396826637e-6
-0.0011596506555186612 -0.0008776691263471981 -1.9423802982441815e-6
-0.00031239866342985036 -0.0016134988808751789 1.0934083449717284e-6
-0.0008092135605754114 -0.0016740398089448423 -7.851291124954739e-7
-0.0007053300298611086 -0.0016861588741917076 -1.2370636009546005e-6
-0.0011791574530570978 -0.0016482164631341704 -5.631635961112765e-8
-0.0011746002921485422 -0.0015013746850093207 -2.582716389397821e-7
-0.001177701948851655 -0.001354719579993248 -5.827988149380625e-7
-0.001167720310990184 -0.0012119266688244514 -9.64126821170894e-7
-0.0011607947996432877 -0.001051982011873752 -1.4016798358702913e-6
-0.001142192602194129 -0.000960158141028024 -1.6022324930059336e-6
-0.0011512991882934357 -0.0008317406665221376 -2.038138308244582e-6
-0.0011325223441525961 -0.0006931297411175869 -2.3246602384686827e-6
-0.0011163689603113992 -0.0005606933698177164 -2.555611876878964e-6
-0.001109816509607115 -0.0004779657185045953 -2.674241361981857e-6
-0.0010968388229458555 -0.0003627947587399945 -2.678750279191787e-6
-0.0010824074525311873 -0.0002566863078172977 -2.455456334516266e-6
-0.0010607512688023736 -0.00015317750175635565 -1.9596561822335974e-6
-0.0010549984041076672 -5.1633451167109184e-5 -1.4283761404716822e-6
-0.001052289406610951 1.1961949700734805e-5 -1.0354788852983704e-6
-0.0010477698466997939 0.00010665871493806935 -4.937965689745673e-7
-0.001043791170517734 0.00020399162509585864 -1.5345685409798313e-7
-0.0010110782345784768 0.0002709216708030044 -7.964371767533054e-8
-0.0009083504612802719 0.00027002856283667496 -3.573088982417199e-7
-0.0008052197925062401 0.0002692820616251945 -8.487271636024738e-7
-0.0007038907381555109 0.0002625567132224257 -1.481661599459295e-6
-0.0006034602966115854 0.0002491533230733662 -2.1282603056399426e-6
-0.0005381763683448335 0.00024076934315128885 -2.553469314229074e-6
-0.0004461186394901251 0.00022361136879836237 -3.0778441367207107e-6
-0.00036302836483456994 0.00020568384142917922 -3.466857905272223e-6
-0.00028762468805116086 0.0001816012396545133 -3.636371480185393e-6
-0.00024250406540772372 0.0001695984369330903 -3.778837480224477e-6
-0.00018443326422978694 0.00014882022032870274 -3.868898368656385e-6
-0.00013536016328799202 0.00012645646347617603 -3.860194652919316e-6
-9.315437733613644e-5 0.00010092889846785267 -3.733839426136599e-6
-5.8439215956733427e-5 7.915637472812166e-5 -3.769217004106528e-6
-3.876778294114327e-5 5.8093769391638786e-5 -3.3780949101202307e-6
-2.1560094464200897e-5 4.343619802883574e-5 -3.795799164109064e-6
-8.652454441451923e-6 2.03606879788362e-5 -3.7997178078288862e-6
-1.4452597563437616e-6 4.516611188521188e-6 -2.1581093104367774e-6
1.5217024166593002e-7 2.795972195261275e-6 -1.5018327822458849e-6
5.666120736080296e-7 2.176730132064416e-6 -1.1920410311838608e-6
1.165691014165853e-6 1.3129425848003454e-6 -7.159995705274722e-7
1.3225743090022636e-6 1.181020326939385e-7 -5.719439725917517e-8
1.341163991010567e-6 -4.564385385108158e-7 2.5624455246234755e-7
1.1723591170681294e-6 -1.6823499130992046e-6 9.205709848235929e-7
6.186139654664339e-7 -2.7697809985003606e-6 1.5177058707087487e-6
-2.9296939198248206e-7 -3.77262228150027e-6 2.0436709659947115e-6
-2.0993841923108005e-6 -5.4144609702077535e-6 2.6302294586267325e-6
-3.156998642275826e-5 -6.104072793158008e-5 4.499683435390514e-6
-2.076989839880267e-5 -4.395418430048951e-5 4.561812011863613e-6
-0.000315141096655857 -0.0013994102968783741 1.4134052157949758e-6
-0.00032337472432490455 -0.0013002931277704022 1.3551654319326307e-6
-0.00032890986675182245 -0.0012017760551607502 1.3917172442219504e-6
-0.0003327506536284104 -0.0011056601028831936 1.4869809886115518e-6
-0.00034264928429852325 -0.0010094080394462965 1.5931896675794884e-6
-0.000349705218357098 -0.0009131313713781234 1.7291267081850104e-6
-0.0003531492987821664 -0.00081994999116553 1.8981113177303336e-6
-0.000392921021433627 -0.00040762181964040475 5.0218919204127385e-6
-0.00036277691421841477 -0.001737722158754866 -2.4198624035574214e-6
-0.00046651962615892835 -0.0017322578585815878 -3.126788863691595e-6
-0.0005143953007582225 -0.001729522332116998 -2.8274193034383252e-6
-0.0006065283191570508 -0.001717529574015477 -1.962788308445603e-6
-0.0007590995284037313 -0.0016985404757581851 -1.0317069974355014e-6
-0.0008427215749951528 -0.0016645341482396225 -6.633984104750948e-7
-0.0009394189174519541 -0.0016954591180844184 -3.8236489486806764e-7
-0.0009878202051603298 -0.0016960400058348818 -2.682004644851216e-7
-0.0010838393879877212 -0.0016967635946557166 -1.0561988680181224e-7
-0.0001662523395153489 -0.00016382266737984468 4.454382615033575e-6
-0.00031579360472263387 -0.001502469203432277 1.464264935956994e-6
-0.00020486796001642688 -0.00016342331962529468 4.0115359963631656e-6
-0.00034083535170241643 -0.00022797054824812312 5.888596884683938e-6
-0.00040650978738239983 -0.0007235674686616628 1.9314873551248137e-6
-0.0004325627861319566 -0.00040184752070574023 4.566712192145987e-6
-0.0003744670295442104 -0.0016146625681753809 -1.2519065305308073e-7
-1.1057093836762634e-5 -2.5959498846083656e-5 4.36293831515785e-6
-0.00037150479981545447 -0.0014908681864429503 8.163653020088283e-7
-1.8705048312276676e-5 -4.037994665111097e-5 4.194148952492535e-6
-0.00039959962333715673 -0.0008131756369872592 1.7452087266984084e-6
-0.00017188948437295594 -0.000151557361764993 4.053856433583611e-6
-0.00036394373800050764 -0.001392038352577193 1.062824806801312e-6
-2.9390385082681567e-5 -5.561554054826832e-5 4.0962301880288335e-6
-0.0003997079553532477 -0.0009033681513097907 1.5635442176847174e-6
-4.153680434978454e-6 -6.942443824013589e-6 3.0445784881365243e-6
-0.0009756618588942721 0.00023650971730741665 -2.3921737084062354e-7
-0.00040436736116927763 -0.0003104986735314102 8.256430520977279e-6
-0.00042058948594441364 -0.001679874322423514 -1.8018374676566177e-6
-0.0011225529859003368 -0.001502969203004851 -3.068605011456244e-7
-0.0011246844370752533 -0.000987856513466123 -1.4496209337188094e-6
-0.0010868980967175296 -0.0006887835035467714 -1.999577643463672e-6
-0.001058775413063018 -0.00036251228736080735 -2.285467928648761e-6
-0.001019812156301172 1.0905466479057255e-5 -9.791658495337764e-7
-0.0010082920924912257 0.00020203961589847664 -2.497172654503652e-7
-0.0009055816690471663 0.0002365494066898124 -4.3409633050176657e-7
-0.000537737348235259 0.00021041309113312143 -2.1969141912493974e-6
-0.0003627320767954943 0.0001810765419167699 -2.978121929352833e-6
-0.000183534286131315 0.0001324250286128247 -3.4013056216657517e-6
-3.589450023376448e-5 5.0124446271652766e-5 -2.9559898838281784e-6
-6.126161657758698e-6 1.6919961675293382e-5 -3.389478623291907e-6
-0.0003794097146979227 -0.0002689500192574519 8.719223321045988e-6
6.86745498595649e-7 3.960267891302813e-6 -1.502991896455018e-6
1.273328407760249e-6 1.6042683053226378e-6 -5.548429538597434e-7
-4.351814639550851e-6 -1.1819786428928438e-5 3.920475588422917e-6
-0.0009896325924897108 -0.0016494136795440742 -3.117336678665612e-7
-0.0010836396169883534 -0.0016494635499547188 -1.6736155642759816e-7
-0.00037508338521323047 -0.0012973379070833353 1.1017552868267785e-6
-4.342902461375243e-5 -7.123452175266351e-5 4.082946796709443e-6
-0.00039271302747292676 -0.001008509306735812 1.4064452880001353e-6
-0.000377020949204148 -0.001193292726047343 1.2114691022103696e-6
-6.065792282397174e-5 -8.70129551507053e-5 4.098802752461717e-6
-0.0003803274900988821 -0.0011011861596264224 1.3177397394487904e-6
-0.00040664432330452893 -0.00027333722277518227 7.83293825410874e-6
-0.00043804745986816254 -0.0003144604868218295 6.372234276838481e-6
-0.00038237253399479214 -0.00023896666590740795 6.905492782784656e-6
-8.43190600264731e-6 -2.0297467179769194e-5 4.336544749460516e-6
-0.0005370028794337291 0.00018141611559071533 -1.8654328124203765e-6
-0.0009870303811400406 1.0606144179518779e-5 -9.136394902292117e-7
-0.0010631490151085778 -0.0009966678217004229 -1.1847110369729326e-6
-3.241665339308838e-5 4.207056668835862e-5 -2.5596394767821376e-6
-5.976684468692544e-7 4.404929996999249e-6 -9.536869305308888e-7
-0.0003604694942462043 -0.0002344154003941579 6.561331892443663e-6
-0.0001880463246237108 -0.00015176225437663277 3.887107122718802e-6
-0.00040238911258830376 -0.0007688231420970508 1.8341971237867818e-6
-0.0004360809383017206 -0.00035703836831887156 5.608456756387356e-6
-1.4555300845526268e-5 -3.301308957937071e-5 4.28633665264569e-6
-0.0003894352772499542 -0.0015491959776409087 3.060025678014507e-7
-0.0010746086476916637 -0.001512580208494754 -3.330209155616819e-7
-7.588807535538083e-7 7.5189722681727e-6 -2.068432891551632e-6
-0.0009955972154821837 -0.0016084984514012407 -3.345814347992622e-7
-0.0009049798812125217 0.0002068429838831207 -4.787464449035905e-7
-0.0010207971337674417 -0.0003641556915441853 -1.914832031361708e-6
-0.00018258899761228298 0.00011584563291955914 -2.9408605217542573e-6
-0.0001605091486371381 -0.0001472852237881814 4.074294874098683e-6
-0.0003981307683205059 -0.0008577207991165885 1.6579107375711204e-6
-2.36605607831327e-5 -4.79853985423939e-5 4.133479749811033e-6
-0.0003646029199537777 -0.0014400305931014114 9.943390705522172e-7
-3.601437599437105e-5 -6.344349035505335e-5 4.0860790600632975e-6
-0.0004084327343634645 -0.0009541440957133717 1.440539070969862e-6
-0.0003679009456504813 -0.0013451503116444585 1.0878850616471363e-6
-0.00022297257337033186 -0.00019212555988990437 4.487822693677401e-6
-0.0003873549949601231 -0.00045405276137405206 3.7768324225853697e-6
-5.165355635165571e-5 -7.914472483795508e-5 4.092322324071266e-6
-0.0003847387168472457 -0.001056148270715533 1.3647270744434929e-6
-0.0003862368461721685 -0.0012444168743931461 1.114515642925186e-6
-6.789078915369437e-5 -8.492231159515502e-5 3.6876095820984073e-6
-0.0003771313590102444 -0.001147007102781748 1.2681381360635296e-6
-0.0010830147527638688 -0.0016030372862849125 -2.226959563978087e-7
-0.0010455503945696598 -0.0006749129388086441 -1.7351644571620648e-6
-0.0003618447939902888 0.00015769466004690016 -2.532478455456169e-6
-0.0009729664575617457 0.000201962311338052 -3.2793095361051e-7
-3.7222621904665726e-6 1.3105975457769129e-5 -2.95166329336562e-6
-0.00041862519508094673 -0.0011835169864382697 1.0633462439731458e-6
-0.0004270982127019747 -0.0010984680553872536 1.1479365169197185e-6
-9.280442416198605e-6 -2.372632438112355e-5 4.046257204569513e-6
-0.0005066070715104311 0.00017820778394456762 -1.9939623855008846e-6
-0.0009870529596671543 4.0304363279648644e-5 -8.032443611036242e-7
-2.7105594532645258e-5 3.976419853541572e-5 -2.683119954083195e-6
-0.0010342512335629077 -0.0009379383800419691 -1.1754309273677498e-6
-5.951794717597929e-7 6.391175563206312e-6 -1.5468708088790823e-6
-0.0002063665502772756 -0.00014613438758885505 3.6155238495729606e-6
-0.000340352274082035 -0.00020261098945878497 5.097019780699536e-6
-0.0004512338930054875 -0.0007206737938787448 1.7726143790000095e-6
-0.00047001191668454386 -0.00039802642044226564 4.0022097960211554e-6
-0.0010807051543990365 -0.001557686676825213 -2.7638295560813997e-7
-0.0010381718957455245 -0.0016066562236442675 -2.757169151740184e-7
-1.9446042364954005e-6 9.914379545725083e-6 -2.498607519655528e-6
-0.0009393885925160221 0.00020616092324826494 -3.923472898157687e-7
-0.0010264946384528268 -0.00039798433856698775 -1.956550501383621e-6
-0.00019969001225709956 0.00012146695014094027 -2.9327479720421105e-6
-0.00017275209492802923 -0.00013998584313411748 3.747047799736228e-6
-0.0004453023362554657 -0.0008067817491636499 1.5873114840730737e-6
-0.00013196746652811958 -0.0001323689210750943 4.04924188677684e-6
-0.0004200594874855705 -0.0014707024726852075 4.410799505107344e-7
-1.6792095379163983e-5 -3.657091806458985e-5 3.820025875482678e-6
-0.00041136549000835617 -0.0013858384404329155 7.647474768459057e-7
-2.748379314920902e-5 -5.017345544574769e-5 3.698493004124222e-6
-0.000444348353064293 -0.0008881049809135784 1.428331726311888e-6
-0.0003834253185938046 -0.0005000396613061434 3.056134462381384e-6
-0.00043653747574798953 -0.0012600782156050219 8.770071316089297e-7
-0.00043642514742799076 -0.0010158541889881824 1.2289534077665194e-6
-8.100699407139522e-5 -0.00010249294200028544 4.0934603462387276e-6
-0.000473431373830148 -0.00031664031006258756 4.9510312794920035e-6
-0.00038418258116994924 -0.0002097086263212001 5.502060504160996e-6
-0.0011299490757931884 -0.0016009040985700913 -1.6797928204868657e-7
-0.0010165874623310521 -0.0006252297252294553 -1.5994124234225542e-6
-0.00032555138313782066 0.00012755684617349227 -2.1728849542773633e-6
-5.714219142199463e-7 6.40525237634103e-6 -2.3524934336832444e-6
-1.4626025438792852e-6 -8.59437968489924e-6 3.1578091366382255e-6
1.4330418738876605e-6 -9.469657552527639e-7 3.6320035360345235e-7
-0.0007798846373759011 -0.0016453214631577573 -8.344511837528938e-7
-0.001032326625965744 -0.00019453752459892108 -1.864206490332751e-6
-0.0007693160120797879 0.0002367423293647411 -9.95105435935979e-7
-0.0011301131209856586 -0.001308502318988387 -6.679888418274465e-7
-0.00010808019154192241 9.781097868254574e-5 -3.2880221590273784e-6
-0.0004095569159079224 -0.00021130515335505235 5.227390507769842e-6
-0.00047303503382168185 -0.00027900685728475923 4.91261047960508e-6
-5.6389486704237336e-5 -6.8573413558931e-5 3.2436074800786815e-6
-0.0004759551095884414 -0.0013042238621279439 6.199937584722728e-7
-3.982870643863056e-5 -5.6762877094089845e-5 3.2467668919885885e-6
-0.0004894956357072998 -0.0009937824811307617 1.068519511105603e-6
-0.0009668386703902063 0.00016386647467168104 -4.33553790483808e-7
-2.5810571344560694e-5 -4.477612886956252e-5 3.307478157002216e-6
-0.0004844336383657873 -0.00087782837764908 1.2922405860759576e-6
-0.00047852949193197063 -0.0016374995531468297 -1.461754161893713e-6
-0.00020829904679215482 -0.00012896519314762188 3.2184064806544746e-6
-0.0003403220118744636 -0.0001769482241106046 4.346781884543976e-6
-0.0004956349426481878 -0.0007189188580634777 1.5897824947242805e-6
-0.0005073565960891699 -0.00039738035492422046 3.3988149951124727e-6
-0.0004735052950317183 -0.0010991145593925583 9.711698307999552e-7
-0.00042749486692868384 -0.0004921925052201906 3.0413557232355e-6
-0.0004921584439059265 -0.000801628018084946 1.410728945264073e-6
-1.5065652189798138e-5 -3.268069851458704e-5 3.4421807455555623e-6
-3.3952343139110745e-6 -1.3513314955826221e-5 3.3736021661529134e-6
-0.0005216073110392972 -0.0016466325613727828 -1.6393526208690446e-6
4.577731224851008e-7 -9.944953292670069e-7 2.8095170197895755e-7
-0.0007789526996453546 -0.0015909433708020592 -7.382609217557965e-7
-0.0010012949257147755 -0.00020880683291494664 -1.645542756147649e-6
-0.000773279154155381 0.00021519774052711284 -9.269002021520418e-7
-0.0010953591398742413 -0.001314380809659038 -6.2582753412468e-7
-0.00011278115815976922 8.887439990561796e-5 -2.890371084083192e-6
-0.0004772363437970057 0.00017331755490150477 -2.0941322711512172e-6
-0.0005354182859043826 0.0001538755168032609 -1.5570085337699542e-6
-0.000986165004718894 6.94880555167868e-5 -6.962905564410914e-7
-0.0009536156311632249 1.1280324770227003e-5 -8.407078011064409e-7
-0.001021281166334147 -0.0009790548786896879 -1.0518291469688245e-6
-3.3828535109140946e-5 3.487189637578689e-5 -2.021825564210158e-6
-2.45060269391283e-5 4.200444165030278e-5 -3.1023643738413426e-6
-0.0010782808768318762 -0.0008943848511668925 -1.4698826620821303e-6
-2.3531563985965236e-6 4.8564856391116424e-6 -8.043481416716892e-7
-0.00046674392699224884 -0.00043957905449705704 3.4292623228230427e-6
-0.00022391687903087186 -0.00015667267308524691 3.750114674912071e-6
-0.00032017843481917856 -0.0001972580537148276 4.735433492012033e-6
-0.0004114031724628302 -0.0006781812880958021 2.0434146685641833e-6
-0.0004296120947831572 -0.0016261019668600879 -9.970468908268143e-7
-3.7103970856415758e-6 1.2788245888850605e-5 -2.3720012721039863e-6
-0.0009086896240934208 0.00018593759884620993 -4.990377017105714e-7
-0.00102831675686888 -0.0004317347953627433 -1.9496164481424247e-6
-0.00021729564822205825 0.0001262900814849318 -2.902664852678789e-6
-0.0009919636290156083 -0.00037117158502163655 -1.646359599796482e-6
-0.00018138067637303508 9.915638063536727e-5 -2.4857351913385168e-6
-0.0001438560296865407 -0.00012497263130801896 3.6434198080970937e-6
-0.00013562080624165832 -0.00014753721272124645 4.487061264160251e-6
-8.396368392603945e-5 -0.00011340035143362857 4.5188503103424194e-6
-7.778227165272565e-5 -9.150194216223414e-5 3.683589613366782e-6
-0.0010569302108593046 -0.0006117256589910862 -1.9307347445410243e-6
-0.0003187230657670935 0.00014575214673809005 -2.5857732016056095e-6
-0.0003414093226202891 0.0001335114860222888 -2.1959060446454365e-6
-0.0004715800286923954 -0.000244371862521998 4.521172206069558e-6
-4.1521252638551997e-5 -6.407741140161681e-5 3.667948597294003e-6
-0.0004528248981779358 -0.0009773498250228055 1.2334419193041977e-6
-5.8381306952975e-5 -7.793501999756372e-5 3.6788922997392448e-6
-0.000995086247275861 -0.0015694554355615692 -3.6234419208451606e-7
-0.0009736753410445559 -0.0006999540246564963 -1.2053001971760152e-6
-0.0003443961682389562 0.0001137857502873114 -1.8000580395254438e-6
-0.0005373936387816009 -0.0016096847248277767 -1.2500413902220017e-6
-0.00016491991604590276 9.416630613019608e-5 -2.4911032608777884e-6
-0.0009687396155991113 -0.0003527630545951249 -1.4412527584452043e-6
-5.827141313702609e-6 1.4836843922134208e-5 -2.138607002216097e-6
-4.652955853352554e-6 7.451346864595382e-6 -1.0097951857961755e-6
-0.0009544280795177035 -0.0015742880763114887 -4.154390104251686e-7
-0.0010630351632058728 -0.0014707733246293658 -3.8904002906943446e-7
-0.000979367876059395 -0.0009658176365996841 -8.958763596786538e-7
-3.0234628098519937e-5 2.8630729810157225e-5 -1.7366350258749392e-6
-0.0009190079563431036 1.312546442524012e-5 -7.621607108797234e-7
-0.0005326027357679705 0.0001273808077287128 -1.2626386435875462e-6
-0.0009922713405756257 -0.00153287305368855 -3.8673137717020295e-7
-0.0010311716850504747 -0.0015237646525924535 -3.5763750876372427e-7
-6.426852866285561e-5 -6.485816734886791e-5 2.826185033436753e-6
-0.0004894280787632142 -0.001225411857743086 7.200108454189226e-7
-4.779151332438263e-5 -6.263589639267143e-5 3.241360072015478e-6
-0.0004856726811241838 -0.0010532006049047563 9.911492440949541e-7
-0.0009784199758456368 0.00012936134480872943 -5.06136811057688e-7
-0.0004743035758002451 -0.001534537228144745 -3.2533081191422346e-7
-0.00036196320780418025 -0.00017957063215012797 4.464811212870351e-6
-0.0001911126713319837 -0.00011812227189551332 3.053396804370957e-6
-0.000494045017454309 -0.0007609201070827292 1.49232878405755e-6
-0.0005106114142154101 -0.0003572490131384045 3.694544036558155e-6
-7.535867440294127e-6 -2.109182178494657e-5 3.6998508205119025e-6
1.1413223705952907e-7 1.970534489522089e-6 -4.398826034795051e-7
-0.0008486141411338174 -0.001571005495895207 -5.904933049815679e-7
-0.0009754285900662843 -0.00022341766486885082 -1.4535909477837143e-6
-0.0007968066812571712 0.0002100637792889671 -8.258551364548101e-7
-0.0010824806586943196 -0.0013493752523414707 -5.608501974218883e-7
-0.0001167435951697135 8.253383665941053e-5 -2.6181874768155056e-6
-0.0005687683705423648 0.00018326107924138021 -1.7184550665581873e-6
-0.0004758856411380408 0.00020071408549136012 -2.4943049997401387e-6
-0.00048038153004889117 0.00014797408005305418 -1.722883774139315e-6
-0.0009543014522573065 6.724658617060594e-5 -6.938870511927173e-7
-0.0010178494169997578 7.226426415290514e-5 -6.847505272263352e-7
-0.0009866533438912671 -1.9312956874544194e-5 -1.022159921241117e-6
-0.0010710044585149647 -0.0010488568072197933 -1.1027152501814631e-6
-3.848401530751996e-5 4.3282567179747806e-5 -2.386734833626392e-6
-2.272088869640193e-5 3.7123526129342936e-5 -2.782630093066432e-6
-0.000993817428483546 -0.0008925099155604915 -1.0537839321401504e-6
-2.5863765382705805e-5 4.6558574441661255e-5 -3.4477016204748793e-6
-0.0011187215176566587 -0.0008850288944461766 -1.7027836152324618e-6
-0.0009901977404585414 -0.00042688847158651734 -1.6028766363814548e-6
-0.00019802188749523775 0.00010407947171744542 -2.48244266784758e-6
-0.0010058124803029901 -0.00032887067119437085 -1.776324213018681e-6
-0.00016593451563011645 0.00011035621939037097 -2.9521211794859004e-6
-0.0010846775523390717 -0.0006049291817362025 -2.16998136865036e-6
-0.00106717430802762 -0.00043554232890439 -2.3170011445228242e-6
-0.00031275559870567424 0.0001662645110858002 -3.0653868787612475e-6
-0.00021972025839833996 0.00014450391763528558 -3.3542320117374766e-6
-9.239283452086157e-5 -0.0001094659816137612 4.059016443145422e-6
-0.0010324283913243097 -0.0007092077518561944 -1.5852460980176592e-6
-0.00038692679726466374 0.00015763658311016555 -2.37362505552941e-6
-0.00031143671177645874 0.00011866938824283328 -2.07842370584057e-6
-0.00030033560420412954 -0.00019086068335411605 4.428901398338557e-6
-0.0004172011053587931 -0.0006319135890606375 2.1824361052430803e-6
-3.244015255919876e-5 -5.08820642066063e-5 3.275290199330341e-6
-0.0005119228611803651 -0.000962353531946229 1.038413674953773e-6
-2.002354195179757e-5 -3.8732150888691456e-5 3.3644264444996733e-6
-0.0004885319369217385 -0.0008413425342777484 1.344864238116924e-6
-6.008982168758985e-6 1.712324141549853e-5 -2.8008415036501167e-6
-0.0004646924251668879 -0.0011420388271221218 9.427074389052501e-7
-0.000437809823035065 -0.00021170609269272457 4.6575488143722305e-6
-0.0009849797724909234 -0.0014983925765316645 -4.107928635555023e-7
-6.049417839251504e-6 -1.8534632886316758e-5 3.31121295610767e-6
-0.000509748252947519 -0.00024233592072479888 3.543717395824139e-6
-0.00046647259311946966 -0.00017862798863608283 3.348334508828922e-6
-0.00017256110859938827 -0.0001240232812266267 3.333777235968642e-6
-0.00047568858608754074 -0.001478524560163187 3.0480224214495435e-8
-0.00010428007585573288 -0.00011570694790848262 4.01857861386925e-6
-0.0003187975101048692 0.0001076009174891745 -1.8140313489665801e-6
-0.0009599894691842822 -0.0006519326336576189 -1.1563553166810238e-6
-0.0005540056702810567 -0.001655237829414632 -1.6850277248209627e-6
-0.00017977388085095466 6.844505865095146e-5 -1.6536232383677467e-6
-0.0009466286892405374 -0.0003885093805368476 -1.2317204385645236e-6
-1.3836000352843783e-5 2.5844350772302774e-5 -2.491976016243585e-6
-0.0009374585739316119 0.00014194821799437052 -5.375090766082848e-7
-0.0010342233407215557 -0.0007676688512802484 -1.4773103534568381e-6
-0.00041673371546402437 0.00015403248570069515 -2.141409126753998e-6
-6.41871229725006e-6 1.1731186062518952e-5 -1.4919138791963017e-6
-0.0009453213199107295 -0.00091876402372744 -7.961545123461805e-7
-2.4834629273804637e-5 2.6438485769050066e-5 -1.773344074034392e-6
-0.0009206948623269648 4.0920717015118856e-5 -7.202835203496061e-7
-0.0005067100669684799 0.00012585658856227393 -1.3279189621121795e-6
-5.4460149325206636e-5 -5.887010978922222e-5 2.7934038145973457e-6
-7.507852038652619e-5 -8.10717893152424e-5 3.292140224219116e-6
-0.0008662100908762593 0.00019638662801928957 -6.00865684407304e-7
-0.00015061420321188317 0.00010535517534079368 -2.966693706844558e-6
-0.0010161982054712614 -0.00029440405115454843 -1.862581943021495e-6
-0.0005262297859867977 -0.00130426260748921 4.163261621418283e-7
-3.8181661498465385e-5 -4.9482640607599124e-5 2.836539499655692e-6
-0.0005461212672816958 -0.0009789965867089718 8.780228557552343e-7
-0.0009484609661315447 0.00011964285306509424 -5.713391592841284e-7
-0.0005108604978745486 -0.00031829122924984497 3.876720276487715e-6
-0.000385143922106044 -0.00018115713585001119 4.437496021649775e-6
-0.0005391791867092466 -0.0007175971575617919 1.3863948951886884e-6
-0.00021117173887712462 -0.00011196569410387144 2.8194046165997674e-6
-0.000340258173076926 -0.0001516569371722459 3.667903324372308e-6
-0.000545143459533034 -0.00040172680409531446 2.8171251801474265e-6
-8.62357234538156e-7 6.455906137368816e-8 2.933413781961518e-8
-0.000774673168425857 -0.0015453437159018667 -6.550559151126919e-7
-0.0008691036385033565 -0.0016082504589033954 -5.716489358239398e-7
-0.0010185033642845173 -0.0002635382394324056 -1.8606443445053066e-6
-0.0009598407133206567 -0.00020639518143109623 -1.314055267403314e-6
-0.000828219426451999 0.00020437084908447997 -7.144800245033839e-7
-0.0007824726557142497 0.00018235542707837265 -8.31744140961657e-7
-0.001047452677346027 -0.0013172783571014032 -5.845962344010421e-7
-0.00011263561810342293 7.557639502643604e-5 -2.4327020163480214e-6
-0.001094733577716568 -0.001386493668960379 -5.067179739840555e-7
-0.0001366201924355499 0.00010063234635013188 -2.976195937010987e-6
-0.0004482608003307051 0.00016611534120796172 -2.154728452376565e-6
-0.0009837085190810301 9.886817594924601e-5 -5.954782462830847e-7
-1.967551876280206e-5 3.4848017368821485e-5 -2.8590739826981446e-6
-0.0010329598865318121 -0.0008568660118679793 -1.3057473864407187e-6
-0.0003009825766340446 0.00013373746641875522 -2.45672069462393e-6
-0.0010339823480198399 -0.0005913445094062838 -1.785271679996207e-6
-1.1466286998258109e-5 2.5100199457975734e-5 -2.8121998355135106e-6
-2.435785025080331e-5 -3.963888110098145e-5 2.9393674624274604e-6
-0.0005217561200696803 -0.000881039951102303 1.1315575421773486e-6
-1.3592456824245442e-5 -2.8914076650374908e-5 3.0695788190043963e-6
-0.0005419641146245778 -0.0007988453701904545 1.2015556992444666e-6
-0.0005146685722469973 -0.001107404863485846 8.026313739035555e-7
-0.0004581347764665111 -0.0011830454424848738 9.098358166381535e-7
-0.0010734843753863045 -0.0014107647667418138 -4.70517879876535e-7
-0.0009100196583301399 -0.0015807261647144885 -4.889058902800593e-7
-0.0009859754275029513 -5.003246965840139e-5 -1.1260885903830243e-6
-0.0006017460250825906 0.00018401806203418168 -1.5668047021236957e-6
-0.001067417120494132 -0.0010801356052905246 -1.033853796647217e-6
-5.283400163227871e-5 5.4625250763437494e-5 -2.5868479317078674e-6
-0.0005030708467919955 -0.0014978723501281855 -2.2410928181695436e-7
-0.0005810885086057902 -0.001630797754674811 -1.4056565013279868e-6
-0.00027228606816542334 0.00012688792956584924 -2.5028015558163846e-6
-0.0010175475998968075 -0.0005379018584290629 -1.7340491964303463e-6
-1.6929980183051644e-5 3.0740053660085246e-5 -2.702889156267457e-6
-0.0010178847613150515 -0.0012876819273071887 -5.93372403994658e-7
-0.00010818438731435333 6.736546686993376e-5 -2.2073236840696714e-6
-0.0007662614060352868 -0.0015022149753048152 -5.712452098237773e-7
-0.0007640595334746336 0.00014839642948445212 -8.090240614411308e-7
-0.000948081371739292 -0.00019021863308042858 -1.2074244778132506e-6
-0.0010063925162872506 -0.0014516570701782832 -4.300259275224063e-7
-2.046140278966127e-6 9.404969702155928e-6 -1.955430763661712e-6
-0.0004355402170411894 -0.00015199896610628439 3.1672289825427684e-6
-0.0005478517071694629 -0.00028329180694604457 3.03288405203641e-6
-0.0004948948818492451 -0.00020922088040462223 3.4206073588968183e-6
-4.158760901194143e-6 5.583819541715415e-7 -4.954491804736979e-8
-0.001056163265861547 -0.0008060678850012645 -1.532179070616959e-6
-0.0004977660543432261 -0.001456354836866625 2.176689837802422e-8
-0.0001564941118067863 -0.0001152793733921601 3.239992737560171e-6
-0.00010804939447655443 -0.00013014838664333775 4.495682006274106e-6
-0.0002994222911554249 0.00010468306435379352 -1.8607472238472326e-6
-0.0009806834189869022 -0.0006080645559425336 -1.3527522015755503e-6
-0.000351012611025894 9.058973893946026e-5 -1.3340583703878463e-6
-0.0001963054469323586 8.696150564688456e-5 -2.043889716317954e-6
-0.0009585732220405276 -0.0004209911307438271 -1.3229247012767775e-6
-0.00016386153539444808 6.232302408411807e-5 -1.587448888426372e-6
-0.0009099031679024532 -0.0003613516442802905 -9.117385649063438e-7
-1.414053685025134e-5 2.1822093095591236e-5 -1.98326403493999e-6
-0.0009192971349465069 0.0001298341648518188 -5.829396807796274e-7
-9.077744122963864e-6 8.90811603299076e-6 -9.312735154809347e-7
-0.0009385771442137542 -0.0009543501500553712 -7.342085379272202e-7
-3.2325613266810794e-5 2.42420738278371e-5 -1.40205893447228e-6
-0.000950462163658849 -0.000883409748115156 -8.540892275587757e-7
-2.068983105526255e-5 2.728837986867756e-5 -2.03702916792782e-6
-0.0008842937195443153 1.6882376103090337e-5 -6.829991948120993e-7
-0.0009223953030266323 6.691897084378911e-5 -6.785385044580927e-7
-0.0005288644640554492 0.00010276899310628185 -9.865415788120488e-7
-0.0004829103747688858 0.00012332683567520443 -1.3742702664004228e-6
-0.0008441266337170999 0.0001645559661557648 -6.721104572057726e-7
-0.0001362456155980135 8.709149322692005e-5 -2.549143552956792e-6
-0.0009717300405903425 -0.00024808143604477715 -1.4400708100796151e-6
-0.0004684597789811016 -0.0013442067095306486 5.590677248554586e-7
-0.000550373739617161 -0.0003196758880751206 3.042959876913448e-6
-0.00022774750428674836 -0.00012153284112898585 2.980459078198377e-6
-0.0005337984340425075 -0.00044375400315564326 2.681282872841311e-6
-0.0007433392170175168 -0.0015876131343712408 -8.004736389156223e-7
-0.0008859184755592892 -0.0016524442584030707 -5.380091311184628e-7
-0.0009846101667186232 -0.00018654041621197392 -1.4798134370230219e-6
-0.0009884113981483821 -0.00024176417914902398 -1.577237115022857e-6
-0.000814169906832712 0.00017428660688107396 -7.419257019280739e-7
-0.0007543479378234328 0.00019761785314447073 -9.566552553307396e-7
-0.0010752697251801622 -0.0012873637322684199 -6.529929350077752e-7
-0.0001042533707470464 8.017943167125265e-5 -2.7089678633618485e-6
-0.00012483423600921664 8.47513579493259e-5 -2.593532694859346e-6
-1.0937512286556461e-5 -2.683101630538031e-5 3.561756865466413e-6
-0.0010186839552827078 -0.0013994213810078903 -4.7608115791763126e-7
-0.0008746975742751201 -0.0015457137186985581 -5.320595138924169e-7
-0.0005234871227155619 -0.001460364451345975 -1.1044301845307302e-7
-5.2794964904958413e-5 -4.8784566552727664e-5 2.3157628319116043e-6
-0.000495307650575357 -0.001185759601985856 7.607432006271386e-7
-0.0005698940626349831 -0.0012932838678596738 2.8698210258610725e-7
-3.6046852170967635e-5 -4.2285006049304896e-5 2.4586999387192024e-6
-0.000581528682773137 -0.000995314974018895 7.136637015082964e-7
-0.0005516832578332841 -0.0011192558881415514 6.476700127835258e-7
-0.0003852364451755115 -0.00015382376132809273 3.6226866597743084e-6
-7.474561644978277e-5 -7.168044962207554e-5 2.895526353491372e-6
-0.0010000845119201131 -0.0007904524582972276 -1.232485104081413e-6
-0.00043449242535441334 0.0001317340538172277 -1.6906100724891576e-6
-2.3110466352127353e-5 -3.4801279649427375e-5 2.5939769003310553e-6
-0.000554409642439534 -0.0008935887151583865 9.733905275606686e-7
-1.2419674126675747e-5 -2.5318253736711242e-5 2.6965903404086462e-6
-0.0005948099188103557 -0.000798009910746907 9.515603875187236e-7
-0.00029975508586438474 -0.00016888814780527546 3.9735614825237715e-6
-0.00046234651783460753 -0.000630177907552851 2.0251921851777537e-6
-0.0010283414855545231 -0.0010742370296931032 -9.173153315077632e-7
-5.749994041785076e-5 4.524642841103724e-5 -2.013626137181348e-6
-0.0009514115389193284 -4.723646099410711e-5 -9.778542403631887e-7
-0.0005989770191448662 0.0001521616760234783 -1.2970315402505275e-6
-0.0003400479520508805 -0.00012661115737080692 3.0505653699620928e-6
-0.0005872327068731383 -0.000681953464525378 1.2343833234079018e-6
-0.00021529422225509732 -9.455702835711037e-5 2.4076487075039277e-6
-0.000581607634882829 -0.0004110937908625986 2.3158216629564225e-6
-0.0003757110165336482 -0.0005906848192054918 2.4429801432039226e-6
-0.0003013214035863925 -0.00021168045737525934 4.808767267352877e-6
-0.0011081277187777797 -0.0010875874622876189 -1.1440802943455027e-6
-5.603949365520809e-5 6.810515672416476e-5 -3.2254130454698605e-6
-0.0010203987364892132 -5.141554307934522e-5 -1.275920369483626e-6
-0.0006030047759473248 0.00021640107937917762 -1.8423080541218636e-6
-0.00014205173277830329 -0.00010998081194883498 3.2201623377127504e-6
-0.00023551971776384896 0.00012961577515275944 -2.833624121850538e-6
-0.0010277100909771846 -0.0004667612971485002 -1.9102443403326877e-6
-0.00024221064336994236 -0.00016646080089015755 3.881375223339311e-6
-0.0004904484041724274 -0.0014355531247556479 1.4720388461485926e-7
-0.00042527750183036107 -0.0013009685113115723 8.558554026707323e-7
-0.0005962613497455261 -0.0016760334513350676 -1.7154214297759582e-6
-0.00026113458943154144 0.00015228178037370797 -3.1702054247630275e-6
-0.0010681394441426897 -0.0005134088841843897 -2.212536452527283e-6
-0.00011648857906036941 6.26173115412796e-5 -1.954223712659934e-6
-0.000992417253987517 -0.0013145837307021635 -5.395757134407613e-7
-0.0008037106544776741 -0.0014914191903586253 -5.358408707682913e-7
-0.0007993278346855278 0.00011542276517932518 -6.871534125096623e-7
-0.0009312109338141376 -0.0002221005083893837 -1.0966597560233664e-6
-0.0005901695211200343 -0.0003178534827231464 2.37968383129422e-6
-0.0003847088836687515 -0.00012772223627548538 2.962792731076059e-6
-0.0002445431749169852 -0.0001302288552482103 3.1289067171794684e-6
-0.0005158778314851827 -0.0004848469633109443 2.5584519892067526e-6
-0.0005825430943727714 -0.00025173849284898617 2.310928282705586e-6
-0.0004632899138004973 -0.0001478196801679221 2.7854109741363366e-6
-5.011320757735646e-6 3.870952169260862e-6 -4.836081421019167e-7
-0.0010963442377924493 -0.0007913981035137213 -1.8131006179492053e-6
-0.0004173498142220474 0.0001878518470914598 -2.70767260216861e-6
-0.00017344795758438017 -0.00010680232069278218 2.8780348488807915e-6
-0.00019450296326846674 7.046042271767972e-5 -1.6251030017789922e-6
-0.0009149305966154793 -0.00041465813775863733 -9.37299182814953e-7
-0.0009331018258886105 -0.00032553683096152617 -1.126967723144777e-6
-0.00014756226033715345 7.318373514736289e-5 -2.0281037065425104e-6
-0.0008707119710987091 0.00014521265243401735 -6.256619543015563e-7
-0.0009266846588008205 -0.000287344850618889 -1.0715829297088629e-6
-0.00013336233390249123 7.243238950234512e-5 -2.117686774671037e-6
-0.0009397582782644458 -0.0014951108801361834 -4.4223279478697046e-7
-0.0005715678323907539 -0.0015331007552499398 -6.778719354705927e-7
-0.000607609178785085 -0.0012514377437552909 2.495752321619125e-7
-0.0009691518553916915 -0.0007607835282440821 -1.0949047354868373e-6
-1.662209025792624e-5 -2.6196936737062265e-5 2.2886232819892854e-6
-0.0009002408159529935 0.000136777034758506 -5.932191490003587e-7
-0.00029957975185367737 -0.0001466043496010826 3.486759370756116e-6
-0.0005058857628904265 -0.0006320628919648817 1.8206103323991575e-6
-8.652024435228514e-5 -8.208461059337394e-5 3.083209159633369e-6
-0.0009875767205677502 -0.0010606488228101093 -8.033702680422906e-7
-5.002366129268185e-5 3.735862667822619e-5 -1.7801515093739018e-6
-0.001062954697302649 -0.0011101504336631647 -9.664857399634797e-7
-6.510642191378552e-5 6.204901057972681e-5 -2.648668626379319e-6
-0.0009166871885257312 -4.369295823155126e-5 -8.345968380044819e-7
-0.0009844601412063068 -8.118454927113692e-5 -1.2173471296048287e-6
-0.0005892711753482115 0.00012218090498096075 -1.0587772677272072e-6
-0.0006343003514238606 0.00018545722880505103 -1.4396271575563686e-6
-0.0003617816840369998 -0.0001274411255863182 3.0348936000140243e-6
-0.0001987291240055781 -8.508587712536583e-5 2.2293577662613127e-6
-0.0005987551715555408 -0.000745823365112403 1.0231757417983997e-6
-0.0005988378852378691 -0.00036233804844902124 2.226231261558829e-6
-0.00042366045518707344 -0.0005846943917787247 2.370578472177749e-6
-0.00028060743080535124 -0.00018352698882844511 4.19477951691678e-6
-7.520226718190902e-5 -6.039181215645923e-5 2.4171823290508754e-6
-0.000339016578926842 6.495678333320432e-5 -8.92283613795429e-7
-0.0008788506028142338 -0.0006860746341074672 -5.631941438084254e-7
-0.0006939088400216693 -0.001603786720662119 -9.799079413482369e-7
-0.00016973247496496007 4.931480448918423e-5 -1.1928624280884581e-6
-0.0008701183354198756 -0.0003427631196844771 -5.669345965809361e-7
-0.0005214873123775644 -0.0014213040586992713 6.523693583271083e-8
-0.0004824899996117016 9.925170312192165e-5 -1.049038540417578e-6
-0.0008954747022199833 9.142603777660995e-5 -6.384932288504617e-7
-2.0421775194416687e-5 2.175885330825399e-5 -1.599979358174787e-6
-6.130631250504589e-5 -4.410806598371774e-5 1.9339073610932614e-6
-4.345759932929622e-5 -4.310224588005139e-5 2.260415546901282e-6
-0.0005896950128050769 -0.0010512745344827214 6.065686741290498e-7
-0.0009252035155086804 -0.0006176843055273536 -9.312228315462322e-7
-1.3742333293944884e-5 1.1423631673506544e-5 -9.913070979717693e-7
-0.000588430874394274 -0.0008524084506566393 8.909707463256775e-7
-2.792375967952076e-5 -3.38136438930624e-5 2.2311549030737633e-6
-0.0006121388326471402 -0.0009499150316550359 6.53562791048602e-7
-0.0005648146555050767 -0.0011585326671492717 5.421729986440632e-7
-4.880504503278442e-7 -3.6656664208492857e-6 8.052889730980495e-7
-0.0008996785645238944 -0.0009476778672423365 -5.713813943354409e-7
-3.0474777922823906e-5 1.7914904373715976e-5 -1.0515440203900168e-6
-0.0008520624749959752 2.3157314885903063e-5 -6.136633190019116e-7
-0.0005439816479783204 7.661408104673801e-5 -6.678981821713883e-7
-0.0002614703366458155 -0.00015641571107319457 3.655546539233024e-6
-0.0001175517755284309 -0.00012369109627651965 4.02563017583078e-6
-0.00012838888696348864 -9.387689561846503e-5 2.8727599160063796e-6
-0.00022019779149379357 -7.689413564431039e-5 1.9875332614518187e-6
-0.00031893614020637594 -0.00010111231677940623 2.4770912311365396e-6
-0.0005927003218309597 -0.0006429950288506749 1.3098089998164977e-6
-0.000614625892729034 -0.0004268644282102409 1.885711704868411e-6
-0.0002614276912068731 -0.0001941115989657719 4.348961655370465e-6
-0.0010222347665687342 -0.0008212105648053604 -1.3076243816318e-6
-0.00013866143122330836 -9.476802330448291e-5 2.8019567380301684e-6
-0.0009738283718121766 -0.00014356324862084573 -1.3087341841795483e-6
-0.000704839107922029 0.0001941805712401315 -1.1681276864008079e-6
-0.0010738150417927118 -0.0012255685771635897 -7.638823826717413e-7
-8.825786303031184e-5 7.039010432906555e-5 -2.5813809173728598e-6
-0.0005825388272222788 -0.0013271797013248514 1.647257069106704e-7
-0.0005660725461463114 -0.0014669674974321597 -2.8600547491370635e-7
-2.3306479780353775e-6 -1.1722311834644089e-5 2.9343709675561657e-6
-0.00011485575977584888 -0.00010852737301156935 3.5387309732967378e-6
-0.00012936356111501113 -0.00011740760022010404 3.602672845770448e-6
-0.0002622481265983527 -0.0001372369288753556 3.2586883620821323e-6
-0.0004614013628630293 0.00012051254244649055 -1.4102741191255334e-6
-0.0008966813049459317 0.00011422381225290851 -6.199574191830418e-7
-1.7465957960434973e-5 2.208926094131613e-5 -1.7740242142138132e-6
-0.0009601250184364233 -0.0008483630484049159 -9.378195361711715e-7
-0.0004795046742979161 7.517934087315003e-5 -7.266359913579922e-7
-0.0008575602198006112 8.079761445162785e-5 -6.334493767267924e-7
-1.888682562698661e-5 1.6403166439324825e-5 -1.2268436900667044e-6
-0.0009035797230848299 -0.0008703540218123146 -6.355027686612418e-7
-0.0009714869520175022 -0.0012883737986166544 -5.374823218214684e-7
-0.0007761287198021577 -0.0014462539474920041 -4.630991257059548e-7
-0.0007735949954784415 0.00011326790128009141 -7.023290285590106e-7
-0.0009241298311762538 -0.00019032346089871167 -1.0299960071418214e-6
-0.00048190089257001644 -0.0005272837980678734 2.479340962293041e-6
-0.0004976250613148891 -0.00017507554061647106 2.829653755964264e-6
-7.109964233370769e-6 -5.871817648718184e-7 8.834496141671244e-8
-0.0009598297825176288 -0.0015101055856196481 -4.2508396014587174e-7
-0.0005706615595690703 -0.0012192093246590657 4.2909767477354313e-7
-0.0006203057889371644 -0.0012993074841371874 1.1839743084014033e-7
-0.00036942047373566997 0.00011114390904873299 -1.6338947896214664e-6
-1.1268737481561912e-5 -1.8663646858705252e-5 1.940311689792568e-6
-0.00031945800837379244 -0.00014958039839763187 3.591142264449755e-6
-0.0004997563624350189 -0.0006757260608268103 1.6992021960810612e-6
-0.0009646660118491709 -0.0010045214157258498 -7.900688872682988e-7
-3.8516311770034135e-5 3.267042458386689e-5 -1.7640357717615767e-6
-0.0009176425867950969 -1.4867081411475489e-5 -8.000574742220879e-7
-0.0005604967053031317 0.0001263620755200934 -1.1702097359448224e-6
-0.00020337617859626154 -6.84109631753021e-5 1.819089294669601e-6
-0.0006319005776731937 -0.00039051799460942325 1.7666184558108626e-6
-0.00017752011708668076 -9.097148648657244e-5 2.4513227365371976e-6
-0.0008705312117624966 -0.0006574451287010352 -5.203050895498926e-7
-0.0003101193199087597 5.090358543948685e-5 -7.078657032701398e-7
-0.0008524664930174377 -0.000375029305729534 -4.0182252926296106e-7
-0.000568578154927838 -0.0014025589098889191 -2.5603984443262255e-8
-5.237822754434277e-5 -3.943541816611293e-5 1.861453807259984e-6
-0.0006406674722874757 -0.0009841537996283178 4.952667799185617e-7
-3.359462798432208e-5 -3.6277606892069224e-5 2.1676962623171425e-6
-1.5162369421237377e-6 -9.947027459332153e-6 2.4625671968963167e-6
-0.00020764828968598692 5.0819889863072425e-5 -1.066476752107409e-6
-0.0008843224426759935 -0.0004317550109640854 -6.621719276476416e-7
-0.00028803834406532393 8.70634126572117e-5 -1.5498958469832809e-6
-0.0009464081678249508 -0.0005859598761288613 -1.1141621160874643e-6
-0.0006515411195152267 -0.0007937354004299022 6.718349234436364e-7
-0.0006084130051352976 -0.0009000072247811803 7.348142033774735e-7
-2.163066747132582e-5 -2.6149091384315574e-5 1.949860170859787e-6
-0.0006072767411021297 -0.0011039133807850216 4.7256155661433047e-7
-0.0008630601155155691 -0.0009130325181587542 -4.194363149793716e-7
-2.58650060562933e-5 1.5128477316465778e-5 -9.488899759976447e-7
-0.0008227658157522564 3.586913862141628e-5 -5.657151897796949e-7
-0.0005066636016304265 7.133419122853154e-5 -6.396913388911975e-7
-0.00026114770661112854 -0.0001752836982595994 4.019520688914794e-6
-0.00011506458939785947 -9.507501798076733e-5 3.074296255917612e-6
-0.00029879806308900247 -0.0001014236420383576 2.4828627323577714e-6
-0.00059892853085297 -0.0006021255709966406 1.3912884578780425e-6
-0.0002393134971377836 -8.528592247138969e-5 2.1494400668943744e-6
-0.0005990388946232212 -0.0004681971686687314 1.900642205607501e-6
-0.0003397873848609382 -0.00010128798495501136 2.468832535258957e-6
-0.0006362196009325067 -0.0006960829777062105 9.297893550495275e-7
-0.0009711582513869438 -0.0011020757274496625 -7.060164531550494e-7
-6.122036120031887e-5 3.676862835360103e-5 -1.56827902050063e-6
-0.0006173322458833709 0.00011404999496718977 -9.349894929482801e-7
-0.0009143502658562015 -7.240740368990098e-5 -8.581862395241594e-7
-0.0008751147834376288 -0.0006178852316473851 -5.655780562505959e-7
-0.00029286929168981674 5.875853976188111e-5 -9.305617617223825e-7
-0.0005148952427971087 -0.0005871030552794957 1.9590459171598726e-6
-0.0002805250406918342 -0.00014253990237760592 3.374300637718258e-6
-0.00010204927700175035 -8.514914311109022e-5 2.926949369890076e-6
-0.0006189841364243813 -0.0015024066492702703 -5.591988820307325e-7
-3.993224080107227e-6 -1.3690422429621974e-5 2.433683132146606e-6
-0.0004453318994023804 0.00011804976048677014 -1.4362095825243e-6
-0.0009976722173584036 -0.0008325102579226988 -1.1550926767031778e-6
-0.0006617357583710256 0.00019011893053914468 -1.3523210628790924e-6
-0.0009810381702317396 -0.00011290561008833841 -1.2845077209154643e-6
-0.0010650282223930798 -0.0011612834537915323 -8.729979371526915e-7
-7.673610753976758e-5 6.731402129081019e-5 -2.6439892192568335e-6
-0.0008296226874859855 0.00013920748873674492 -6.913059449449361e-7
-0.0009506442874937773 -0.0002597861144301764 -1.2671246408216179e-6
-0.0010251234014292633 -0.0005023704393367398 -1.844169284950798e-6
-0.0002542517656074372 0.000130354383458705 -2.705768756304888e-6
-0.0001406028763480037 -7.641909359533751e-5 2.264942333754697e-6
-0.0004095665943720514 -0.00015361423629492243 3.4493698333914267e-6
-0.0006183940381028549 -0.0016314282544923474 -1.3218277899172032e-6
-0.0004283989004743709 -0.0005376317402492209 2.641069519958337e-6
-0.0010350040107088346 -0.001194713180756037 -7.463840264266982e-7
-7.619137115271459e-5 5.518951876180219e-5 -2.143126282483717e-6
-0.0006774396964769069 0.00016823747104964198 -1.1566201684280688e-6
-0.0006615632181583215 -0.001559610639124781 -8.44758577046824e-7
-0.000944608225428968 -0.00010635666850861974 -1.0599197055420653e-6
-0.000565554342357482 6.975929356728542e-5 -5.813269093387185e-7
-0.0008420950545964291 -7.787607478411973e-6 -5.733598425726888e-7
-4.315393845594538e-5 1.649073334880386e-5 -8.30306016723006e-7
-0.0008845917841482382 -0.0010602553282981406 -4.5772799777818764e-7
-3.32171999221613e-6 -8.91284695071532e-6 1.4680857403536258e-6
-0.0005277633148593127 -0.0002190612435080249 2.9338949758963613e-6
-1.5156020694097838e-5 7.259304888320631e-6 -5.839657081118706e-7
9.821352617175318e-7 -3.838126807655272e-6 1.3627904084928066e-6
-0.0011037279213948717 -0.0011918838973874815 -8.838499668332884e-7
-7.887715622096848e-5 8.028152897328759e-5 -3.167178944897036e-6
-0.0006756158149100041 0.00021851414161461937 -1.4390027631920152e-6
-0.0010184434845081811 -0.00011853627174131977 -1.5354934233774175e-6
-0.0006682518655075653 -0.0016380666125025817 -1.2057315145954054e-6
-0.0008498497918668686 -0.00029494954917044704 -4.151513272541129e-7
-0.0001566686253299814 3.9223252201926966e-5 -9.852258348370962e-7
-0.0003734095810594111 4.068022669935197e-5 -3.55989065652406e-7
-0.0008764017953330814 -0.0007216702797265033 -5.405176562620883e-7
-6.940187956438904e-5 -4.6582800776721925e-5 1.9345237838482504e-6
-0.0003842212646985168 -0.0001027969470422753 2.397672258862918e-6
-0.0006403145737251277 -0.00033851632061847396 1.6929588228732012e-6
-0.0001180916184410088 -8.204484174623576e-5 2.6103569114766975e-6
-0.0001272276422527608 5.719208825074907e-5 -1.691727044377699e-6
-0.000825223222130066 0.00011082504567617521 -6.650549171163601e-7
-0.0009259508207832624 -0.00025476665588812785 -1.061276213337024e-6
-0.00024726911446469965 0.00011056262376660037 -2.2919797894115975e-6
-0.000984059700522067 -0.0004915328464583217 -1.4992964962958163e-6
-0.0005966250374302854 -0.0015871412595024178 -1.0550557271006513e-6
-0.0006360022022088805 -0.001603358950307042 -1.1114608154421105e-6
-9.474557604749068e-7 -8.131658607285224e-6 1.9634557629690143e-6
-0.0009441364199866452 -0.000794462352549424 -9.105830855507489e-7
-0.0005578282589455494 -0.000594579231774415 1.6779504891578638e-6
-0.0002994525029042341 -0.0001240893222799167 2.986167131368653e-6
-0.0005278688554539344 -0.0005423322963916334 2.1068509737202144e-6
-0.0009265475402407693 -0.0010814307323739475 -5.856426687071009e-7
-5.4555008839026e-5 3.1047249658773285e-5 -1.4035097591596908e-6
-0.0008809570844781452 -6.784884267884781e-5 -7.023583958721852e-7
-0.0006011255694678689 8.640360732434815e-5 -7.206400688888139e-7
-7.598992761597517e-5 -3.92265249479363e-5 1.5663338223162713e-6
-0.0004061708608440186 -7.704132527404707e-5 1.7907514046055034e-6
-0.000675024977345004 -0.00032317320884092936 1.2815909396029892e-6
-0.0009858871208602788 -0.0012611701659253776 -5.801888681889322e-7
-9.63260624159929e-5 5.8929333089606255e-5 -2.047317837594697e-6
-0.0009290125090894276 -0.00016239453787324343 -1.0412674537887102e-6
-0.0004671118998332698 -0.0004821628284427089 2.925934867690683e-6
-5.243561030136171e-6 -3.863103718082773e-6 5.295481201658141e-7
-0.0006111575877177771 -0.0012129921180545292 3.0241686609430626e-7
-7.371054792383811e-6 -1.7684043546338165e-5 2.3684451385036954e-6
-0.0001826299349187657 -7.530586172756205e-5 2.0387048339815622e-6
-0.00016952009453719282 2.7024629889056642e-5 -5.98256142185952e-7
-0.0008327425098306341 -0.00032620873895175485 -2.46445268594308e-7
7.033731356326949e-8 -6.313291552150508e-6 2.3124339260181156e-6
-0.0002466384961766992 -0.00011306015634469134 2.751034283706588e-6
-0.0005474608437146984 -0.0004990189065041155 2.2141472878546704e-6
-0.000636868569958641 -0.0006082679816181844 1.122322413176639e-6
-0.0002967869179766234 -7.893837329945964e-5 1.991340951150454e-6
-0.0009940871069793948 -0.0011659062419924707 -6.964160581206993e-7
-6.857855836419636e-5 4.120962621410579e-5 -1.6615211591058426e-6
-0.0009096193940355339 -0.00010024822812859149 -8.620618199308727e-7
-0.0006649536678582606 0.00012273637929111482 -8.997284775909321e-7
-0.000969156023565543 -0.0012046455879225861 -6.005558761024135e-7
-7.710648748762526e-5 4.453412184280669e-5 -1.6978362318447808e-6
-0.0007015698664831439 0.00014073490579351547 -9.252691995964907e-7
-0.0007079181013120535 -0.0014938236026420177 -5.659645875460544e-7
-0.0009028124541792538 -0.00012795928915521502 -8.45064665350007e-7
-0.0005537171468621405 4.677269202616533e-5 -3.3833169639351054e-7
-0.0005878097624664216 6.199219608299558e-5 -5.008543999415978e-7
-0.0008508181317357061 -3.8582713776409015e-5 -5.818762305016644e-7
-0.0008120258491036639 1.2505005471880154e-5 -5.150285755839025e-7
-4.851159750531498e-5 2.4112170435067507e-5 -1.1529879850337034e-6
-3.3581489360748534e-5 1.4838014101204028e-5 -8.262523664340403e-7
-0.0008648924828457837 -0.000995768541715085 -4.075315763724826e-7
-7.701708784225722e-6 -9.274564421961027e-6 1.0926190804923748e-6
-6.199628031455183e-7 -6.149367452433192e-6 1.4264377810633851e-6
-0.00013195451675815115 3.5973686508946874e-5 -1.0174321884644759e-6
-0.0009077802315792892 -0.0007738102532693421 -7.215565865580171e-7
-0.0003958769537608627 6.0418923672447044e-5 -6.601331367045318e-7
-0.00032651521772931417 4.332483679032676e-5 -5.076506698676235e-7
-0.0008493200340609901 -0.0006860742836588328 -3.713570170157397e-7
-0.0006083036773745204 -0.001358585336802435 6.026712907917635e-9
-8.208797016799023e-5 -5.428269925374879e-5 2.0811515647833256e-6
-0.00040690681077415117 -0.00010216106412198647 2.2922462380526665e-6
-0.0006277468763578235 -0.0003077453077557362 1.8340659813787818e-6
-0.0002417830489612962 9.218610104617777e-5 -1.8968113605441525e-6
-0.000950335144224314 -0.0005128299607263877 -1.1968940427140601e-6
-0.0008809525477944736 -0.0014536652147425935 -4.671911237041316e-7
-0.0009456696500900664 -0.0014133788090055547 -4.538818715168137e-7
-0.00014761753995089843 -6.675075732978422e-5 1.9591261738441767e-6
-0.0006476755296060375 -0.000571731472196345 1.143794675524278e-6
-0.0002771290200046703 -8.111677397534975e-5 2.044020706076112e-6
-0.000690162632117549 -0.0005864492445581201 8.022356278652989e-7
-0.0002923725321915787 -5.860878228555797e-5 1.5583194137292886e-6
-0.000617553853943521 -0.0014193828832264677 -2.1625615828974654e-7
-0.000161681658639667 -7.966940474608421e-5 2.2366766876152347e-6
-0.00017292626874548968 -5.075217009213497e-5 1.4412173901779233e-6
-0.0006491400303157966 -0.001176276958071725 2.3174188277726513e-7
-0.0009263735540227439 -0.0011828390827967143 -5.234080834464253e-7
-7.08318298473158e-5 3.236796135059114e-5 -1.2716727927234926e-6
-0.0006816817097237524 0.00010021962276987012 -7.367204046190017e-7
-0.0008683900768515978 -0.00012070987102009355 -6.423898393914632e-7
-6.651973209654413e-5 -2.6437618845923363e-5 1.1237337795969824e-6
-0.0006720178502890179 -0.0003850638263064319 1.3219138642261382e-6
-0.000367501014154987 -5.42451056191806e-5 1.4290682691130465e-6
-0.0007399188515853704 -0.0015143640008147899 -6.158606707636281e-7
-0.000576052675263088 3.934575368175673e-5 -2.7588146535943687e-7
-4.892290966806918e-5 1.2542154732069071e-5 -5.936796755927082e-7
-7.015077892889791e-6 -1.20931949343547e-5 1.5136341609038638e-6
-0.0008622368456889562 -0.0007624355486436013 -4.5779057733345564e-7
-0.0004043685568579321 3.245240312911981e-5 -1.6769486691880455e-7
-0.0009173481317069657 -0.001387224235077679 -4.520152561408763e-7
-0.00012986321658202193 -6.408475239037299e-5 1.9688594075422795e-6
-0.0006608402943412383 -0.0015037329415813607 -5.925008962179406e-7
-0.00090502680350861 -0.0011207771921830825 -4.983673913130666e-7
-5.85091510433073e-5 2.5011718004932204e-5 -1.0830238886679425e-6
-0.0008499362056335538 -6.370816315354274e-5 -5.65127086573976e-7
-0.0006237093598424043 7.531832992235982e-5 -6.151519324741512e-7
-9.489379476246175e-5 -5.2490141691306854e-5 1.8669974083007477e-6
-0.0008930322422800349 -0.0008125399540071664 -6.187582047082487e-7
-0.0004245412946137597 5.9680740195565984e-5 -5.946891279725389e-7
-0.0004291286518773378 -0.00010075600148376256 2.1504816229786445e-6
-0.0006195834719444363 -0.00027679421799323915 1.8859343713255667e-6
-0.0002991990127092315 3.067310312654649e-5 -3.2238412662723657e-7
-0.0008469656283905091 -0.0006049457107181651 -3.618430412004844e-7
-2.3345553201047058e-5 6.3189398178962495e-6 -3.94971000778661e-7
-0.0008195374921355053 -0.0002781281757515858 -1.6554597078660764e-7
-0.0001454839691875873 2.7480466805144182e-5 -7.094315238048164e-7
-0.0006348953355751358 -0.000481051143133167 1.5146842637817706e-6
-0.00023986303341792448 -6.396813402860554e-5 1.6687197064026106e-6
-0.00011647037226489488 -6.69750404226839e-5 2.145859550331539e-6
-0.0002629319553171967 -0.00010028223172965612 2.4620294727722133e-6
-0.0006209042011430467 -0.0005220228758821587 1.501780160006149e-6
-0.00012546002204605108 -7.056528419155683e-5 2.188644672990333e-6
-0.000802526362479551 -0.0014263986365900495 -4.3975618459799773e-7
-0.0006630279781071836 -0.0010830206724856439 3.0124966125254035e-7
-0.00027976467833644734 -0.00010112637133238825 2.4764335991733653e-6
-0.00032998556681925926 1.5745996678527994e-5 4.4077279141894434e-8
-0.0008021194273209527 -0.0006764888237780293 -6.547305037878189e-8
-0.00019621043798014466 3.098434209800822e-5 -6.160946793900433e-7
-0.000808372547422337 -0.0004071140119122069 -7.052114457292209e-9
-3.124993756666067e-5 6.988727869206401e-6 -3.872967067762359e-7
-0.000815291507332229 -0.0009841231891142678 -2.0786643668328772e-7
-0.0007910060840650148 -5.815189684127821e-6 -4.302340022596844e-7
-0.0005428295897418026 2.299764041180835e-5 -6.62284038344495e-8
-1.7061516287480556e-5 -1.5448252039989518e-5 1.2670326696258825e-6
-0.0006552692057164444 -0.0008860867783909544 5.442976041770096e-7
-0.0008565055173785847 -0.0008788155081981825 -3.993479259929659e-7
-0.0008343725602342087 5.420441962621465e-5 -6.00829486165975e-7
-0.00047293293428528604 5.32153191827449e-5 -4.313312286013913e-7
-0.0003401356375223317 -7.466235103297199e-5 1.887939144975005e-6
-0.0006846593519534788 -0.0006764435566775988 6.768085671155928e-7
-0.0008334749436828977 -0.00024353708278727454 -3.1646793009882247e-7
-0.00012467076751618818 2.0255212478553136e-5 -5.674114512241639e-7
-1.7852463474335524e-5 1.514978221185219e-6 -8.740306880124708e-8
-0.0006618678216791543 8.288763819906142e-5 -6.52928293537641e-7
-0.0008827365135716147 -0.0011622812776960034 -4.2413371788410124e-7
-6.662327291985466e-5 2.169649007606602e-5 -8.698764651624487e-7
-0.0008443863688689156 -8.76372527824276e-5 -5.237956324683e-7
-0.0008068176481221159 -0.0007508606758882947 -1.246952685468127e-7
-0.000410350079312196 1.1754527746503006e-5 1.8516920963594829e-7
-0.0007910566169110701 -0.0002637266718761094 6.721770830601008e-8
-0.00014163998541473176 3.840432719367662e-6 -3.8835723448939114e-8
-0.0008215859935094291 -0.001080317769195171 -2.4313295845656184e-7
-5.537265451071677e-5 8.784571205359397e-6 -3.84520938046196e-7
-0.0007860121343985252 -5.148816542824156e-5 -3.138775846772876e-7
-0.0005980889192972621 3.135721884237203e-5 -2.2347015579987368e-7
-0.0006720973644343003 -0.0004928016772457667 1.1454767122018716e-6
-0.00023965733539538424 -4.8392257259434025e-5 1.318688477221671e-6
-0.00011876290894607388 -5.536875785680621e-5 1.7663809673630256e-6
-0.0006898601666404321 -0.0014468792296643792 -4.152035132571514e-7
-0.0003135004166210313 -4.6940443283249084e-5 1.3110985510877164e-6
-0.000192602992366342 -4.4044461156664085e-5 1.245236864190633e-6
-0.0006936684670258413 -0.0012427021027403011 1.2323701489380525e-8
-7.669367014775667e-5 -2.961543370809734e-5 1.1812721048117725e-6
-0.0006943486388258 -0.0004169679771313386 1.0644824097213366e-6
-0.0006891360696705482 -0.0003511557743194696 1.144142737061772e-6
-0.00040321259035592134 -5.00693485364213e-5 1.2859957299766427e-6
-0.0008818330902214045 -0.0013590930527771416 -4.2839540870152287e-7
-0.0004785275580552817 1.7989084612049114e-5 6.357655176170319e-8
-0.0008087649847195094 -0.0008897268350895704 -1.6936705195612357e-7
-0.0002059543044929205 6.127058849351505e-6 2.1553021388576085e-8
-0.0007673843676154681 -0.00041253090184206336 3.649546628337261e-7
-0.0002897992891777607 1.0930456365125278e-5 7.258503519558559e-8
-0.0008160677406239007 -0.0005962839587838723 -1.3325861051690093e-7
-0.0001078210958843942 -4.794352616700862e-5 1.6008750561417104e-6
-0.0002233253444828537 3.988924175690264e-5 -7.447794196240705e-7
-0.0008576014387680062 -0.0004658774451629105 -4.2629209900999036e-7
-0.0002823281409788771 3.8441975009919874e-5 -5.326087709599948e-7
-0.0008619274771352359 -0.0005750415862108535 -4.696282718436839e-7
-0.0008694506323986115 -0.00139867209970351 -4.3710477472446577e-7
-0.0008827858452581009 -0.0008417215865103014 -5.486076218310412e-7
-0.0004493597089422814 5.752610408851326e-5 -5.220016946109323e-7
-0.0006518907647098754 -0.00026876499128737836 1.4621915255791702e-6
-0.00047332887442280475 -8.717094707997499e-5 1.6530708871695612e-6
-0.0008234211024057854 -0.0014029848958844627 -4.2177559363277243e-7
-0.0006704396703718327 -0.0014101983735155784 -2.844594213216267e-7
-0.0007739319203590004 -0.0006232976684491271 1.5324064669510862e-7
-0.0003061103103496109 3.6408648950650047e-6 2.5186783320856817e-7
-0.0005064499391571936 6.831115504660074e-6 1.8072035984466353e-7
-2.8302499562374914e-5 2.1377424261845793e-6 -9.954593114163652e-8
-0.0007878503901870763 -0.0009321128415072609 -8.347486617276473e-8
-0.00082291556995233 -0.00013699076912599805 -3.5046159331481354e-7
-7.938311343290007e-5 2.5783679030347e-5 -9.439799578187828e-7
-0.0009063629581281594 -0.0012250164888264175 -4.632519602237078e-7
-0.0007006700009398444 7.988288602459755e-5 -6.221910243682515e-7
-0.0007674987176640346 -2.1098779492783614e-5 -3.2320879602591605e-7
-3.511367980921529e-5 -9.887578043276804e-7 7.734477161296708e-8
-0.000804190131199246 -0.0010226282625266708 -1.6859492785593194e-7
-0.00037942652672630773 -7.533596727835043e-6 5.225258759467483e-7
-0.0007711301929880856 -0.0007139354096673061 1.0703406028860886e-7
-2.2161187274071942e-5 -1.8396061639740893e-5 1.3284299808504242e-6
-0.0007086788532950707 -0.0009162559971009414 2.74513110933603e-7
-0.0006901596749948648 -0.0008360389181200057 4.3202729466661987e-7
-1.3657658778255144e-5 -8.74557238308941e-6 7.950967456800223e-7
-0.0006882276539610712 -0.001146628289575722 1.4373129054140975e-7
-0.0006658808128227098 -0.001053437377249497 3.2214502811907195e-7
-0.0007563147614283945 -0.0014039036218223605 -3.7406236663483574e-7
-0.000610282037148405 5.2541088284646436e-5 -4.223644170130542e-7
-0.000862812154793036 -0.0011004961466589969 -3.7703971351611026e-7
-5.347149990594634e-5 1.9336137450376387e-5 -8.754170950340795e-7
-0.00015711987851712038 -6.91464954720718e-6 2.8175033474451616e-7
-0.0007740201607196426 -0.000286763855726959 2.505888157566647e-7
-0.00022729854140523755 -4.201520852999003e-5 1.1736354175447859e-6
-0.000686278736857859 -0.00045327212177282447 1.0927361212996864e-6
-0.0007388012844140756 -0.0005767060008054568 4.561157575825653e-7
-0.0002936344194540234 -3.288180994093778e-5 1.012729528617848e-6
-0.00017808337366342122 -3.645716731913806e-5 1.0670817817623053e-6
-0.00020770072266476346 -5.1686827663311225e-5 1.413685722106159e-6
-0.000674908213709354 -0.0012941920370033398 -2.074836471449727e-8
-0.0007322675528304347 -0.0011991627174169485 -4.249510164927015e-8
-8.67259320188744e-5 -3.444246935446528e-5 1.2929170894297873e-6
-5.6976462622479236e-5 -2.5143231343416235e-5 1.1489567776443676e-6
-0.0004338502664123417 -5.0501351392385455e-5 1.2163638639709405e-6
-0.0009361841869694088 -0.0012917022050860111 -4.912704685155771e-7
-0.0007646400971885664 -0.00037725501616498906 4.0195268090635003e-7
-0.0006451614403380539 -0.00024257456524461263 1.4598465964306693e-6
-0.0004846378884003036 -0.00011230874080574589 1.974710083659375e-6
-0.00011045460814883436 2.4101679561965116e-5 -7.274632822432951e-7
-0.0008157861130869014 -0.00021000506716803568 -2.0649226533422269e-7
-1.5690635328995736e-5 -4.5501144554475674e-6 3.9695247615830066e-7
-0.0007407613754991093 -0.0006453096822654433 3.5789979530252247e-7
-0.0007611096278406034 4.4920262042950954e-5 -5.034615066239856e-7
-0.0008108569058184914 -0.0001653645369289651 -2.2544528380999234e-7
-8.783177705436178e-5 2.651746153171508e-5 -9.203390141658121e-7
-0.0008904140756341765 -0.001266341178471279 -4.2991290240539056e-7
-0.0007186129287969311 5.82970683442748e-5 -5.250064727152107e-7
-0.0007487283248990793 3.7048435640628263e-6 -3.4712950642460424e-7
-0.0007684736366750251 -0.0009750654710866558 -1.3704941116987676e-8
-0.000353431151478828 -7.84676988825683e-6 5.290121531517558e-7
-0.0007648994541356968 -0.0006583977563782038 1.8662373130222656e-7
-2.729470283436769e-5 -2.0654754231020327e-5 1.3459855707608063e-6
-0.0006874019778594292 -0.0009911855421519586 3.029740444300352e-7
-0.0007090914211482115 -0.0008738565224692416 3.094569257643307e-7
-0.0007106653505695654 -0.0010822757714624993 1.3371968842076506e-7
-0.0007028456048576125 -0.0013844372818416226 -2.6774862522251713e-7
-0.0007836786155541814 -0.0013979153357265926 -3.8666117110189505e-7
-0.0008607030082368711 -0.001205740361778406 -3.6779097009994206e-7
-7.315110664044497e-5 1.742178556471902e-5 -6.606353831957775e-7
-0.000680090506228778 6.44391315027968e-5 -5.391431104395928e-7
-0.0007859030783337059 -0.00012405062780037772 -1.3401119389936172e-7
-0.00011115799452532058 -3.645863581527591e-5 1.2132186549639997e-6
-0.0008795222354981117 -0.0005427524332828432 -6.063105161746706e-7
-0.0002654711957179275 4.5951028783080975e-5 -7.470061917046018e-7
-0.00023970750051272187 3.264843491833525e-5 -5.226360300186745e-7
-0.0008563452238532806 -0.0004973681994182915 -4.164812493028291e-7
-0.000853218062651154 -0.0008031563798826377 -4.0386547047094297e-7
-0.00042522790246027754 3.5834729813645555e-5 -2.0820906039063507e-7
-0.000674480515008342 -0.0013532650569398497 -1.4247473001735323e-7
-0.0007672179637469607 -0.0008458089372864931 5.024353598283872e-8
-0.0004503547102547529 1.5534307107459665e-5 1.1736816893854125e-7
-0.00022388737435917631 -1.8862204986417298e-6 2.4295495881866515e-7
-0.0007694214541180103 -0.0004465595986972811 3.275363010729417e-7
-0.0007954603992675744 -0.0005527284742817491 4.8359904673076024e-8
-0.000282158814039886 -7.677630608223881e-6 4.583454873043978e-7
-0.00012665198534322894 -7.915904002304156e-6 3.0734488969494193e-7
-0.0007650722040394842 -0.00024495530509868426 2.7084343774476953e-7
-0.0002713393821443669 -4.3025930672274024e-5 1.2189410689455916e-6
-0.0007222826790263099 -0.0005473562989913193 6.2487186011901e-7
-0.0006413668747445483 -0.00021607913148882738 1.3915526560519758e-6
-0.0005122178147456058 -9.848609261675421e-5 1.5694220922385934e-6
-0.0007289191517430606 -0.0004181325056282971 7.2690522496924e-7
-4.874496812476303e-5 -2.6373994504739997e-5 1.2921156850589856e-6
-5.452348567971276e-5 -1.5011579366224755e-5 7.047033486521274e-7
-0.0008627287363494141 -0.0002666011071896021 -5.428953059483592e-7
-1.2527886184877505e-5 1.0304342761101354e-6 -6.982450260011388e-8
-0.00013781698248013 -1.1519806593981538e-5 4.116516326506805e-7
-0.0007475109746812815 -0.00026776956455481344 4.717869267680961e-7
-0.0007803831110956787 -0.00033207541749263056 2.3777225926988908e-7
-0.0001677990700245895 4.176987442738869e-6 2.241048027165193e-10
-0.0002521104849871411 -3.998574205489789e-5 1.1368469191057962e-6
-0.0007064709275102082 -0.0005043080436887341 8.258071402008683e-7
-0.0006823962692800773 -0.0002603673046532887 1.1030326291995743e-6
-0.0007059662984539156 -0.00030967140782400614 9.413281444806583e-7
-0.0004580488634431623 -0.00012067688080524843 2.328674218451006e-6
-0.0006146460571217922 -0.00024801072456766493 1.8511326285395097e-6
-9.175069367615441e-5 1.033880080955228e-5 -3.210523181221231e-7
-0.00079257653431072 -0.00018894374666121843 -5.3577005720407744e-8
-0.00012762745857216405 -3.4668875199926373e-5 1.1060294535211996e-6
-0.00025625407430535704 2.576789048840474e-5 -3.226614125264498e-7
-0.0008224718956199593 -0.0004912495603952379 -1.3606324311989346e-7
-0.0007598162919193218 -0.0008825158752718791 6.390092470970199e-8
-0.0007652733719071462 -0.0008074886324842289 8.262274875151309e-8
-0.0004293160354427598 -5.4990902388475665e-6 4.6590620564327813e-7
-0.0004711054565112447 -1.1421683631712194e-5 5.000328519200715e-7
-0.00020150515381776033 -1.091563177846233e-5 4.335280655915779e-7
-0.000248213093556569 7.1267813071022735e-6 7.823773338920481e-8
-0.000796762371945358 -0.00047984873501684514 8.051642627652598e-8
-0.0007810153589425523 -0.0005081130581981061 1.9573666250693746e-7
-0.00026521712135383404 -4.065518957421325e-7 2.7381029021951476e-7
-0.0007814361305238874 -0.0005873111049334366 1.268525547167481e-7
-0.0002997460303220996 -1.5200600611900145e-5 6.395777312696691e-7
-0.00011186356551345531 -7.90452044676674e-6 3.1075729769243106e-7
-0.0007700647723905177 -0.00020779815758946758 1.5773469147208788e-7
-0.0007220458935229108 -0.0010009975291177938 1.5903270422073353e-7
-2.7779324278937452e-5 -1.4237063370060971e-5 9.238370165040585e-7
-0.0006849029847277078 -0.0008079741221133668 4.887087780759336e-7
-1.217334690266358e-5 -1.2266230849927601e-5 1.181654914196921e-6
-0.0007498270455146389 -0.00011811653197581734 7.718423164106282e-8
-0.0008183198649375228 -0.00118618121528087 -2.6119658857118666e-7
-6.733277599313294e-5 1.2632453128691518e-5 -4.95240028336402e-7
-0.0006623485167336387 3.027082031114513e-5 -3.114394627165224e-7
-0.0004767788091953712 -4.899180671220785e-5 1.0434149540367257e-6
-0.0008761574068542581 -0.0013013058274328267 -4.1095093461114487e-7
-0.0007308961146501171 -0.0012825908565970887 -1.3339940525067133e-7
-0.0001971621042578654 -2.7901573311516932e-5 8.476734576996306e-7
-0.0007818778643497496 -0.0010614830854703242 -1.002984685194826e-7
-0.0007458851296631226 -5.66724922453302e-5 -1.2802178465881195e-7
-0.0005983263143668971 -3.58651151281213e-6 9.100298171912154e-8
-0.00041303820199754257 -6.499901639236744e-6 4.928238404968821e-7
-0.0007549439627633017 -0.0007719405238521703 1.6305305729422483e-7
-0.0006940263701575969 -0.0007620518699797239 5.015132238687052e-7
-0.0007457354209007107 7.814671362816102e-5 -6.116032833723374e-7
-0.0008026765598489653 -0.0013291130196040697 -3.221007225480415e-7
-9.985182784119244e-5 -2.8771997452190748e-5 1.0130814962020274e-6
-0.0007666921561629999 -0.0011995292866044597 -1.3650705517146102e-7
-0.0008480772120892769 -0.00018712459633260333 -4.745179038114973e-7
-9.901720361024343e-5 3.803396919289186e-5 -1.2684464367244994e-6
-5.466610103358149e-5 -4.2348419005096915e-6 1.9932183054553939e-7
-0.0007996210519558793 -0.001122711729742643 -1.8686540583548028e-7
-0.0007511845882586328 -8.79005872211983e-5 -3.4265469899112e-8
-0.0006416406751553756 7.498728994561832e-6 -1.130660273962183e-7
-0.0007135502161614911 -0.00027520754623352285 8.15689954692631e-7
-0.0006088781419281119 -0.000562031600156761 1.4561747711977877e-6
-0.0011297272465713459 -0.0013969926403422951 -4.849494029524052e-7
-0.0010494445309912066 -0.000260866039128198 -2.143450651147689e-6
-0.0001359547743622339 0.00011356007073287997 -3.409268002311828e-6
-0.0002584264393967631 -1.908862942003406e-5 6.767539465941423e-7
-0.0007538962024683379 -0.000490424130433729 4.3484151305624344e-7
-0.00024933359570500666 5.226223727560112e-5 -9.414167361889164e-7
-3.637842764600206e-5 -2.1286936392566143e-5 1.2028179656878267e-6
-0.00021222508739604187 -3.4824672026374704e-5 1.0107779913665334e-6
-0.0007078677097502434 -0.001321498652732095 -1.4703783084150673e-7
-0.0007787414735508703 -0.0012966826213949595 -2.4666783594006713e-7
-0.0006394069529232196 -0.0001890214585517533 1.2704473617541392e-6
-0.00053861824498811 -7.77519404031539e-5 1.129193964507363e-6
-9.260285247225875e-5 -6.934326043806279e-6 2.952503556581877e-7
-0.0007668131268294565 -0.0001748626683319016 1.1663005262807487e-7
-0.0007574748409861981 -0.0003504035456345049 4.647474886031368e-7
-0.00016951125432469486 -1.5949648633088293e-5 5.336933365417027e-7
-0.000793622554390752 5.373996199966519e-5 -5.613042145715065e-7
-0.00013504035797309226 -5.502045224208063e-5 1.68029002595895e-6
-0.0007130331512402357 -0.0009558648351929387 2.258420578858846e-7
-0.0006656391555410052 -0.0010123629771571093 3.6628642376142955e-7
-0.0006156990524761931 -3.3415040230494776e-5 2.936280817131835e-7
-0.0007016287946169029 -5.4200458645208824e-5 6.371544771056145e-8
-0.0005185390708545125 -5.4070989053772004e-5 9.420999514674524e-7
-0.0004571970602795999 -3.34096816640102e-5 8.659655850406305e-7
-0.0008330158853463485 -0.0012901597216515084 -3.4002097252555607e-7
-0.0007885246418827873 -0.0012353559901542284 -2.1424108892387265e-7
-4.354287772827647e-5 -3.9732410935858175e-6 2.0740712890350245e-7
-0.00014027722875671215 -4.425248677143078e-5 1.3512157978071766e-6
-0.0007343969056183315 -0.00019313374347404113 4.206440073376694e-7
-0.0007443741931145338 -0.00014469792480922757 1.9725828888926883e-7
-7.874172962291795e-5 -6.584463311332392e-6 2.801090798342297e-7
-0.0005610208154188063 -5.598717738837146e-5 7.560259233147682e-7
-0.0006991575903388294 -0.00023370403897704967 8.630903698784583e-7
-0.0006003139323414653 -0.00015919914389203607 1.4553151860377928e-6
-0.0005598505645205911 -9.800338005079014e-5 1.215306398323416e-6
-0.0005804586090168385 -3.643187528055107e-5 4.683345301359861e-7
-0.0006642899846945846 -3.437498633379113e-5 1.0617557769087952e-7
-0.00045786949948140867 -6.606919252944243e-5 1.3933249715289783e-6
-3.1999999038377195e-5 -8.39077334089991e-6 5.22889623004853e-7
-0.0009311701467118076 -0.0005330013840267505 -1.0269191804066285e-6
-0.0002593240697416564 7.673276531490079e-5 -1.4569536384403268e-6
-0.000781413693880138 -0.001165161947507932 -1.55319743617314e-7
-6.689981714879036e-5 -6.905032005093346e-6 2.9738587462098337e-7
-0.00013284431042775272 -2.3960275100077712e-5 7.794651156090427e-7
-0.0007169468175047069 -0.0001164285486484311 2.7718607374832497e-7
-0.0009432698435181748 -0.00048754350368527784 -1.153343715541118e-6
-0.00022412076991491057 7.454752480867871e-5 -1.5685844171035934e-6
-0.0005412070607289875 -3.638613201859113e-5 6.222774799045833e-7
-0.0005296718832980394 -0.00012769167951731615 1.8086352095572154e-6
-0.0006008203227079218 -5.249979180259346e-5 5.266282513614788e-7
-0.0006823857469764376 7.436326854277811e-6 -2.049932858316908e-7
-0.0006625020524520728 -5.1845870371116084e-5 2.2841120162817256e-7
-0.0007036886750750082 -0.00021443252537124935 7.584625692537833e-7
-0.0007564307718807874 -0.0011045758542188391 -4.0910203334756046e-8
-0.000615905506507661 -0.0001262599442966655 1.0547483158692613e-6
-0.000586239697994806 -0.00011330474110649197 1.1767042044879203e-6
-0.0006722826403183355 -0.00018894144459785076 9.515584404881273e-7
-0.0001587889042138706 -4.1480038606556905e-5 1.2245127083349768e-6
-7.773618678777535e-5 -1.867904611936502e-5 7.50453490220055e-7
-0.0006325508926599848 -9.899494083812035e-5 7.250006605732076e-7
-0.0009389811776124335 -0.00044917237292303155 -1.1359550908096525e-6
-0.00020907041447255627 7.176300819720563e-5 -1.5799533486707926e-6
-0.0005259405375277204 -0.0001613982063196943 2.2733881284949754e-6
-0.000662497067999164 -7.91829472194899e-6 -5.9264563084095944e-8
-0.0006871711812088374 -0.00011489298387540905 4.6226966360995675e-7
-0.000680168304411706 -0.00013889675349271723 6.374378113217849e-7
-0.0006062366777622707 -8.743094924706127e-5 8.027112633026049e-7
-0.0005519225359794065 -0.00016476807770552456 2.013403430273464e-6
-0.000675015085596789 -8.296217366890143e-5 3.5538452710971433e-7
-0.000707439196613912 1.784323676017742e-5 -3.1496123055805524e-7
-0.0005362877507548435 -0.00019914663991942356 2.587821168129724e-6
-0.0006591798099061892 -0.0001078967893152486 6.090326804668274e-7
-0.000580022599548403 -0.00019942802207329456 2.000212466355799e-6
-0.0003434939935608164 -4.431977034047371e-5 1.2507650612621389e-6
-1.2500094050474427e-5 -2.6792124546571956e-5 4.6644812131965476e-6
-0.0003068189810876839 -0.0016740795608245573 2.1017758132151915e-7
-1.5045651663958251e-5 3.233522386961183e-5 -3.351180443244754e-6
-0.0010117401324132042 0.00013526657705143026 -4.350608379741494e-7
-0.0005546358613714153 -0.0015716592611279656 -9.298470220263769e-7
-0.0004975525568674767 -0.0013923136183520224 2.776086786844363e-7
-0.0007255478384019684 -0.0008190097900406351 2.79714896106542e-7
-0.00025899676200160905 -8.223054930308309e-5 2.073434156830954e-6
-0.0006586360228540074 -0.0005332739925251802 1.1614423352240217e-6
-0.0009912946369554807 -0.0014189443205881993 -4.556384586937971e-7
-1.536450648401666e-5 3.100884503918216e-5 -2.99277060091503e-6
-0.0003229740665983449 -0.0002408317294584426 5.680853608945719e-6
-0.0006141632620493804 -0.0011660724707213172 3.5986372253620515e-7
-0.00017455645445870027 -5.967273919290884e-6 2.7925367621793767e-7
-0.0006364908499850911 -4.336299210189834e-5 2.847616937597397e-7
-0.0011670423976135418 -0.0009220285110956142 -1.8376767672782098e-6
-0.001171959977573937 -0.0009647760603238567 -1.7161903781074474e-6
-3.378018888638889e-5 5.8461957475038594e-5 -3.823504214789187e-6
-4.101504173144116e-5 6.545916670135221e-5 -3.8092358702287973e-6
-0.0003029325671924823 -0.0017401271211264979 -1.5267153919138168e-6
-0.0008477957524141112 -0.0017059349561498686 -6.668771846317383e-7
-0.0008032936429264684 -0.0017073768775366504 -8.496543675818237e-7
-0.00024237377291186308 -0.00020232221800015374 4.549832245186068e-6
-0.00026217561102798414 -0.00021202414695725602 4.634730380230345e-6
-0.0002823691175561166 -0.0002215531929276541 4.789401295535215e-6
-0.0003027112918783429 -0.00023102628148572116 5.092595712967455e-6
-0.00036059103241879633 -0.0007285095325054773 2.072532087407493e-6
-0.0010534487866394886 -0.0003285133790506398 -2.2354749296422767e-6
-0.0004385771288592901 -0.0002766381212689652 6.265229458106892e-6
-0.0002418909262273373 -0.00018440473237400437 4.223548991035521e-6
-0.00040841755930023384 -0.00024142336557139523 6.474478362164006e-6
-4.669471581523372e-5 6.304315516425535e-5 -3.2944526272491117e-6
-1.800289462434755e-6 8.342356240337311e-6 -2.820233693195846e-6
-0.0011287638309259642 -0.0012207246849872345 -8.645033987168039e-7
-0.0008355918009816326 0.00023652095554335973 -6.905173555780017e-7
-0.0007041170698681915 0.00023522612208096564 -1.353595904586983e-6
-0.0009616175677029146 -0.0016062973472173324 -3.908743906747305e-7
-0.00016655469130558032 0.00012613090698839895 -3.4126893597999388e-6
-0.0004463032637258555 -0.0015769119773782546 -5.280240511120382e-7
-0.000515568853288703 -0.0016877652731749988 -2.188662000327718e-6
-0.00014655494674850833 -0.0001403787647306817 4.066007329078346e-6
-7.039201478753392e-5 -9.48480074718487e-5 4.103880693802938e-6
-6.499228113409285e-6 -1.7619678351875745e-5 4.1203778063370096e-6
-4.75324577814451e-6 -1.5405457863486907e-5 3.7747134337302076e-6
-0.00041124888760275493 -0.0014282035661751283 6.588840471455727e-7
-0.001013271288279675 -0.00023448495691961668 -1.7814100690817112e-6
-1.9791135198045983e-5 3.697553796652314e-5 -3.098518305465048e-6
-0.0010523032074142744 -0.0006402935543522787 -1.8434746902822762e-6
-0.0010698057646103074 -0.0008487619799610864 -1.5224180954982344e-6
-0.0004677895265547067 -0.00021081992327692098 3.986176707393129e-6
-0.0004796696197581914 -0.0009451017781260919 1.1927222560505133e-6
-0.0004505378898320555 -0.0012223595140978978 8.817036385610148e-7
-0.0004937598008899223 -0.001594842369103413 -1.0035815702575642e-6
-0.0005140893682804753 -0.0015544867159397657 -6.896247705579093e-7
-8.504188892694371e-8 5.895195448333777e-6 -1.7199708886622264e-6
-8.822837391938388e-5 -9.672262807015558e-5 3.627476982618789e-6
-3.7988542813700626e-6 -6.415606182277941e-6 9.819407506751269e-7
-2.071667127878196e-6 7.284898786505637e-6 -1.3330607604010751e-6
8.014350984877766e-7 3.9392442409991297e-7 -8.726539180154312e-8
-0.0007139212956827266 -0.0015800052736579713 -8.401415378776527e-7
-0.0004516429194089016 -0.00141850353259207 4.271987702523403e-7
-0.0004566962591489086 -0.001383536953994305 5.100815814482033e-7
-0.00048258362773637034 -0.0012642117353047523 6.751048202427443e-7
-0.0009530011708193049 9.406745783591575e-5 -6.262979328837957e-7
-0.0009375618635955301 -0.00013452610390913227 -1.0610143163939317e-6
-0.0009929110129827657 -0.0002635631126025087 -1.6321576832578605e-6
-0.00098847303623572 -0.0002868142891707582 -1.6048615511134832e-6
-0.00012394612700348859 9.55984058107446e-5 -2.9668787446610024e-6
-0.00047118809730301665 -0.001020945813556621 1.0928639886082535e-6
-0.0009796115581589286 -0.0005232874823158774 -1.4320611583452326e-6
-0.0009651965863439487 -0.0005541404552719738 -1.287991570869792e-6
-0.00033925658560912604 0.00015353195909003197 -2.6038988496765876e-6
-0.00043727947574336034 -0.00018075022583900982 3.832977669291982e-6
-0.000501303074671593 -0.00043648135301308297 3.0877919366882302e-6
-0.0004818912007757525 -0.000904411062304006 1.2548265741783374e-6
-0.0008145946668463303 -0.0015845903748154724 -6.640922606495002e-7
-0.0010362788758897074 -0.0008961405890123076 -1.2551619378319525e-6
-1.0990979390304631e-5 2.0962313986496065e-5 -2.2280964823448865e-6
-0.00024307019854289568 -0.00014814233212775274 3.5108596525497903e-6
-0.0005043783456680433 -0.0009157848077946811 1.1461242053905728e-6
-8.499376950124812e-6 1.62210261524815e-5 -1.8955600788133159e-6
-0.0009153174262323923 0.00015699187617456328 -5.381919587250875e-7
-3.8068411005220655e-6 1.076183410589844e-5 -1.7310528305725689e-6
-9.438175109021843e-6 -2.367723396116731e-5 3.1831558290421077e-6
-8.239612867608746e-6 -2.063995218721083e-5 2.785637202704813e-6
-0.0008936242211269676 -0.001511343207250939 -4.877257899545403e-7
-0.0010036950851304788 -0.0006883404479393526 -1.4248764410930452e-6
-0.0009569444353483636 -0.0015379386125061153 -4.219050530461864e-7
-0.0005203959894504925 -0.0010145810176739507 9.210333822693804e-7
-6.9462836923188186e-6 -1.4877869902230536e-5 1.9431399090055408e-6
-9.04590437203958e-6 -6.1334121285224156e-6 6.715242042301545e-7
-8.325006237289754e-5 -8.649110166842404e-5 3.325524996913792e-6
-8.638389473100682e-5 5.7653968597710933e-5 -2.110298006613595e-6
-0.00021443318253970312 0.00010787923037894361 -2.45477857642261e-6
-0.00023093485396380862 0.00011020610925588885 -2.3930707672741036e-6
-0.00026231709139158574 0.00010667966671019907 -2.111840660788083e-6
-0.0002746102099757533 9.696090172356425e-5 -1.830300818038876e-6
-0.0003599123953255664 0.00013658433800038363 -2.1459295485191974e-6
-0.0003798200153780958 0.00013341423223910435 -1.9823488307254362e-6
-0.0009718559636128892 -0.000277915508754644 -1.4548034396397262e-6
-0.0009547817951008751 -0.00028418541740025374 -1.3089586269187698e-6
-0.0005486657165934805 -0.00025147097858226655 2.857039644199276e-6
-0.0005180962882608386 -0.00018930302902774441 2.7469571374142355e-6
-2.3974893181479832e-5 3.325902785912455e-5 -2.3420325307985943e-6
-0.00048069627995893155 -0.0014161574161500828 2.744160550044371e-7
-0.0005271662512196085 -0.0012628381869742406 5.036029725701325e-7
-0.0005296073489275001 -0.0012241802612741972 5.679570517173575e-7
-0.0008322143347308725 -0.001541639576809313 -5.834059803203935e-7
-0.0007052468431539598 -0.0015453623560859984 -7.380269310032727e-7
-0.00104198713108674 -0.0010331435634379719 -1.0307281300208081e-6
-0.000923126262588416 9.09830569628147e-5 -6.39573589311386e-7
-0.0008950937380221852 -0.0001569033190913162 -8.109063228461156e-7
-2.318037699847014e-6 1.2085100799397053e-6 -1.6771799202700735e-7
-0.0005835829331603558 -0.0005106976502005157 1.8557233488609828e-6
-1.1651816209846004e-5 1.7195196028592922e-5 -1.6873826109205558e-6
-0.0010446298850821307 -0.0012571732583492872 -6.666440802952303e-7
-0.0009749338301843082 -0.0008158090053757592 -1.0544691522188254e-6
-0.0008941733713163051 -0.000280381934212852 -8.000449358210054e-7
-0.0005534645406340196 -0.00022510660239495592 2.5792767721816242e-6
-0.0009717515672987852 -0.00026229391205309833 -1.4472757078526689e-6
-1.9992695137466602e-5 3.186441213887769e-5 -2.5055200081345534e-6
-9.724716379717348e-6 1.286683814785817e-5 -1.343626535538662e-6
-0.0008985438132673376 -0.00025030555123539553 -8.396341355705036e-7
-0.0005431111692206303 -0.0006771512286559598 1.482151003892663e-6
-0.0008933840368480659 -0.0005924190449881577 -7.057457795234522e-7
-0.000895235077563227 -0.00046248516332075726 -7.470325770973704e-7
-0.0010477621089616622 -0.0013759021360752954 -5.10200538938647e-7
-1.1626403799851409e-5 -2.1924195754874528e-5 2.3209012422193774e-6
-1.1423190911750673e-5 -1.549192208660958e-5 1.5609098218827742e-6
-0.00010431902766230821 -7.28651470070072e-5 2.467673731187139e-6
-9.233826999171872e-5 -6.345707774559178e-5 2.289337438825989e-6
-0.0009175646540278225 -0.0006770150681665961 -8.323659022016362e-7
-0.000529260081701057 -0.00017775623837941112 2.4389704631105526e-6
-0.0008912007751723964 7.021347087089646e-5 -6.541497722369179e-7
-0.0008879479917629703 4.50652256773824e-5 -6.710238183627858e-7
-0.0008823185998472318 -3.990477547371545e-5 -6.996467814973099e-7
-0.0005855719248887802 -0.0015012354919910272 -5.082110285631263e-7
-8.67682452470012e-5 4.686585267395699e-5 -1.6913790832573553e-6
-9.729513919082177e-5 4.8984243076897434e-5 -1.6757575442532229e-6
-0.00016347988991410688 7.780543564945795e-5 -2.031853404711664e-6
-0.00022686867934361594 9.157446056505406e-5 -1.966628595670937e-6
-0.0002538952831814236 9.221801888219267e-5 -1.831484993402468e-6
-0.0003572344791646413 0.00011984380620786052 -1.849889594705923e-6
-0.0003873025355780707 0.00010037664098671393 -1.3736980346469645e-6
-0.0004079635593156723 8.918409262072904e-5 -1.1179056641522215e-6
-0.000582276604577697 -0.00022425365409853092 2.152508906137209e-6
-0.0008749662712509027 -0.0002470568134847111 -6.518113368741698e-7
-3.812000668462616e-5 2.11221842689071e-5 -1.1260562704562955e-6
-0.0009266200668710054 -0.0009903804138165517 -6.544399885339764e-7
-0.0004081688237176306 -0.0001272722020288584 2.8285899771397586e-6
-1.50307462622639e-5 1.749696725175443e-5 -1.4892536955746032e-6
-0.0005547011091381215 -0.00103311758613345 7.637649567774655e-7
-0.0001675684378719664 -6.517691786613114e-5 1.8309527465386658e-6
-0.00084449312184199 -0.0015156723944663956 -5.42105764369935e-7
-0.0008619366608727467 -0.001485839284004145 -4.980907969973488e-7
-0.0009115175239555193 -0.0014758953556078772 -4.6159102282339283e-7
-0.0008909926780771304 -0.0001884327945132688 -7.872439535076543e-7
-0.0005668938092502324 -0.0009427675888902216 8.498290700905609e-7
-0.0005321301665402312 -0.0011875106697393798 6.179575930140185e-7
-0.0005705008516835193 -0.0011837069101948675 4.841537662756285e-7
-0.00090592916307473 -0.0010239825934948948 -5.518213962009838e-7
-0.0007346332103786222 0.00012404322719202968 -7.89607367219548e-7
-0.00010417232489409885 6.029703001195578e-5 -2.0089917736532054e-6
-0.000556843529263643 -0.0002030983371305017 2.3335752040082952e-6
-0.0008735538572130742 -0.00040994983418452305 -5.764557556111422e-7
-1.8586658336145053e-5 -3.433153434162276e-5 2.9977891092309292e-6
-0.0005761378038201931 -0.0009116814241470478 8.56245048014399e-7
-0.00026318247163566107 -0.00011854463234428878 2.856752537737477e-6
-0.00031239303620451373 9.508796686317105e-5 -1.5950603029285764e-6
-0.0008628274097039685 -0.0002240384729966664 -5.650947034960689e-7
-0.0010212465813448687 -0.0014862805219071035 -3.961121882411219e-7
-0.00023963854562195446 7.475584353311539e-5 -1.4995980694149994e-6
-0.00032908015932558364 9.094763075888923e-5 -1.4343116990356484e-6
-0.000992973461352049 -0.0013672265807337443 -4.951890812343038e-7
-0.0006140949987171621 -0.0014616511705142982 -3.708408413042895e-7
-1.6243097682009688e-5 -2.2515833591938898e-5 1.946884462764293e-6
-1.8530791727195892e-5 -1.1672029774611089e-5 9.138765956128555e-7
-2.1259321043874012e-5 -7.922693653645832e-6 5.912350331034409e-7
-0.0008490881704140758 0.0001323307604363322 -6.593903902159955e-7
-0.0008979959761604999 -0.0009769786128586676 -5.479331722017379e-7
-0.00010565677507544346 -6.0284466086036784e-5 2.025351115423988e-6
-0.0007445893162643495 -0.0014650577312097833 -4.921560250855122e-7
-0.0006418847511837043 -0.0013842924970004918 -1.542648688546113e-7
-7.849061733975546e-5 3.4948501868420484e-5 -1.3050987916903958e-6
-0.0008499516123485633 -0.0004373200448431491 -3.6616873552283756e-7
-0.0008445414076492485 -0.0005307563830973996 -3.2747389712338333e-7
-0.0007525187694275722 0.00010656662005637186 -7.04406038127106e-7
-0.0008752677924448292 9.562969499511211e-5 -6.379530978657032e-7
-0.0008331339839102073 -0.0001103248957365046 -4.4331379799197545e-7
-0.0005854916210244075 -0.0011361971849274965 5.01353349970755e-7
-0.0007202517435209703 9.885506702864724e-5 -7.022542806735259e-7
-0.0005695200489955628 -0.0010858038363382376 6.326669189888842e-7
-0.0006126584276672254 -0.0010160781883385688 5.645812455973457e-7
-0.0005375175005270036 -0.001152461771165418 6.50009939953298e-7
-0.0008089373008289414 -0.0008005203283745748 -1.5586586738559126e-7
-0.0008616371681474869 -0.0006369914603699216 -4.658133129161271e-7
-0.0008380083857499838 -0.0006344387648286161 -3.0117984141199863e-7
-0.00045151370641847635 -9.701290662583881e-5 1.9494127868894807e-6
-0.0009660249059896986 -0.0014646119648812315 -4.3522484760556874e-7
-0.0008992786499111389 -0.0014201657664600165 -4.5189015727054904e-7
-0.0004303903816006353 8.263783203746313e-5 -9.460968267055081e-7
-0.0006082944498468292 -0.00019182985726209881 1.6159412298789123e-6
-0.0005434266122363288 -0.00018231777019280543 2.305396066646991e-6
-0.0001081747361917474 5.3430086478583e-5 -1.7296236310341816e-6
-0.000850901826198155 -0.001430017885432254 -4.5464324714295664e-7
-0.0008502335794430298 -0.0008431008773494636 -3.8035132056709916e-7
-0.0008455780269603394 -0.00040692951057691196 -3.3427429680484897e-7
-0.00041957064257597677 0.00011272213415092448 -1.459808321680261e-6
-0.0006009494290794457 -0.0012816476606355353 2.123793644633539e-7
-2.049366608236248e-5 1.1266906228727924e-5 -7.848299900533948e-7
-0.0008498974849559087 0.00011030061112150317 -6.481135159837983e-7
-0.00024977923367196084 -9.954134817983569e-5 2.4546387344202066e-6
-0.0005763439889019039 -0.0007142959228790216 1.2073979119523926e-6
-2.2134884277433092e-5 -3.032242338587872e-5 2.26904148467208e-6
-0.00014550348949689674 -3.23647824725246e-5 9.98833049811861e-7
-0.0008069622290957244 -0.000631623755943728 -8.268856806151989e-8
-0.0008298440147519998 -0.00046779725440343006 -1.9389646637704287e-7
-0.0008108586034560856 -0.0005206371047242108 -5.341337905599284e-8
-0.0005532590333591754 0.00010042825670684162 -9.148326142036706e-7
-0.00043818070934045604 0.00010314075415894695 -1.2377689841959898e-6
-0.0004595805758156319 9.979278490897824e-5 -1.1185243501592869e-6
-0.000427640156199587 -7.671490600655514e-5 1.7030312915223957e-6
-0.0003844187418534884 -7.947150019470396e-5 1.9062631535160272e-6
-0.0003622709737140067 -7.757959497899058e-5 1.9179789258758573e-6
-0.000777543332330277 8.337455609485302e-5 -6.241039091721421e-7
-0.0008624011297215252 -0.0009504949132799922 -4.07936091353896e-7
-2.1567228976857232e-5 -2.216734205801483e-5 1.635802399820868e-6
-2.259021878836281e-5 -1.480597098419584e-5 1.0580430938793786e-6
-0.0008434131950683327 -0.0013862739823988731 -4.1674729232175933e-7
-9.709036214819394e-5 -4.085329909465963e-5 1.4412095262698743e-6
-0.00035687639938773084 5.4788122051041106e-5 -6.496826202972604e-7
-0.0008037755332887169 -0.00024394952916289604 -6.728948701841945e-8
-0.0007533637884997969 -0.0003109606845784055 4.739767134736608e-7
-0.0007265401033208023 -0.0003396762262092306 7.592600657958048e-7
-7.549705250911335e-5 -4.6838589294522564e-5 1.8714159000019461e-6
-7.23579359532993e-5 2.4201430481020047e-5 -9.305879593701794e-7
-9.763319126508926e-5 2.5347559875691608e-5 -8.265488316200558e-7
-0.0008188826923211229 -7.880229465028106e-5 -4.079413001651672e-7
-0.0007575478324550644 -0.0001924812661872858 2.2874975684198105e-7
-0.0008220636009596657 7.79785940443214e-5 -6.204229773991406e-7
-0.0009681626684057557 -0.0014321877639490465 -4.483300846476422e-7
-0.000647645266124875 -0.0014303090726207476 -3.095835496027951e-7
-0.0006245931362201785 -0.0010695263368575721 4.5502911658634023e-7
-0.0006508717760764687 -0.0012116582195242553 1.7775365704593935e-7
-0.0006666119124030152 -0.0006129745661048081 9.123923887019443e-7
-0.0005723308886729089 -0.0001778394248632759 1.908242830003102e-6
-0.0006445675122348438 6.293634668091456e-5 -5.221504867278506e-7
-0.0003207872970552944 7.12275577272957e-5 -1.079112057348835e-6
-0.0009679824138953423 -0.0013888490088875102 -4.6933236319591536e-7
-0.000940000646072654 -0.0013586236489859696 -4.687785495966663e-7
-0.0009096016924040245 -0.0013270835411534007 -4.498528314201835e-7
-0.00016409290440182384 -2.8307463514594333e-5 8.614539607313262e-7
-0.0006615229409078127 -0.0004091528782432567 1.4099432345458661e-6
-0.0006767699251981762 -0.0009629277408498237 3.738700287972103e-7
-0.0005240152024763634 -2.0992330113402862e-5 4.97499991663459e-7
-0.0006474583249066068 -0.00013380677123765538 8.609314892919911e-7
-0.0006734060865127692 -0.0006416521355307829 8.083054824475459e-7
-0.000556929035561782 -0.00018772563894643745 2.187375710484895e-6
-0.0006623871334332335 5.3299253842246294e-5 -4.628969147158647e-7
-4.497104828383621e-5 4.797088919230213e-6 -2.378274190078181e-7
-0.0006930538307131715 4.287047989660945e-5 -4.2766725719871935e-7
-0.0006967592399249733 -0.00038291950708686486 1.0648386976768143e-6
-0.00022205356758338952 6.0319501682950116e-5 -1.2363278011538873e-6
-5.927128945666704e-5 1.5115222060496578e-5 -6.417848778768556e-7
-2.9308532443601607e-5 -3.904051119164397e-5 2.5456433597973728e-6
-0.0002734646216110775 -6.176243733681625e-5 1.6271505078552485e-6
-0.00019085649711143566 5.4106097119124497e-5 -1.2196321260641054e-6
-0.00034218061578519837 3.429624810505931e-5 -2.950561165627945e-7
-0.0003565980197915053 2.2306810312508566e-5 -4.202288253251367e-8
-0.00036845806027279874 7.377920792131453e-6 2.478306076600276e-7
-0.0007408507773277119 -0.0006860615439242941 3.149016745688301e-7
-0.0007070125051188932 -0.0007083867854007291 4.96511058534204e-7
-6.753433867693371e-5 -3.632098837112721e-5 1.5287027618253612e-6
-2.6451051261682163e-5 -2.4760797182511172e-5 1.6487089129005916e-6
-5.369315734829745e-5 -3.343081989122115e-5 1.561029670070053e-6
-0.00038468615322551336 -6.11896992366026e-5 1.537342282794155e-6
-0.0006917304393654337 -0.0010382401361280268 2.4124386898510176e-7
-0.000692115788872567 -0.0012008734594019946 6.921919149206754e-8
-0.0008647627683809055 -0.0013269343147489616 -4.017416615940097e-7
-0.0008346678672278739 -0.0013257163101717687 -3.63040682273142e-7
-0.0007725533004393478 1.757707319262909e-5 -4.3847541316019577e-7
-0.0004284539563384319 1.455969293106751e-5 1.3850109012335977e-7
-0.00039388385854221094 5.118650707613279e-6 2.968910077438737e-7
-0.0007363778084611495 -0.0005199727948508718 5.505952368685546e-7
-8.589639605095037e-5 1.767299224856701e-5 -6.082875907411281e-7
-0.00010591649031106223 9.476857927868327e-6 -2.509426523317867e-7
-5.151284312150232e-5 3.2550207455370417e-6 -1.4650155772750604e-7
-0.0006721714656978747 -0.0002137118525924001 1.0605551893274365e-6
-0.0006746946669697585 -0.00016391400752384461 8.085069228005749e-7
-0.0006188452831331064 1.9550132672436406e-5 -1.5687155578401029e-7
-0.0005332817346534796 -8.525702616586294e-7 2.2960252524566258e-7
-0.000649283965439395 -7.41352537530236e-5 4.4515071795083656e-7
-0.0007381254163584318 -0.00016905398018547075 3.186856263142303e-7
-0.0007055850561603055 -0.0006257509871628477 6.216491150072923e-7
-0.0007365208369080039 -0.00124074076949085 -9.482407822400872e-8
-0.00021346718148999996 2.2865202028212666e-5 -3.690470464185435e-7
-0.0007737137924779486 -0.001011045517461208 -4.802591009708107e-8
-0.0006995102889339214 -0.0012722863991613254 -4.492747480333755e-8
-0.0007969287900223183 -0.0013666362216270323 -3.585943907738413e-7
-0.0006907079030427508 -0.0002846469287365935 1.0657839224515206e-6
-0.0007737679254706077 -0.0004710284933457178 2.785806945008371e-7
-0.0007181542585076073 -0.0006588016877553728 4.891636687169837e-7
-0.0007141191088676658 -0.000789760734154941 3.648213483344881e-7
-3.1976491847022366e-5 -3.107023757278872e-5 1.8878700777949065e-6
-3.0394931108667907e-5 -2.702002476452373e-5 1.6769276952160414e-6
-3.269433167705617e-5 -2.4974569401244154e-5 1.4852759468825596e-6
-0.0007169732708745389 -0.0002517172455903998 7.342627093688599e-7
-0.00013720024508982604 1.7459452183914126e-5 -4.4853968662249334e-7
-0.00046553268041767733 3.648893194806156e-5 -1.973925556172484e-7
-3.800974246174443e-5 -3.696011724224357e-5 2.0673750136223327e-6
-3.675813896357686e-5 -3.140516709983032e-5 1.7713128957205743e-6
-0.0007441609201718349 -0.0009494719822638273 9.649281912464282e-8
-0.0005267621603181084 8.306727793062263e-5 -7.598119786564552e-7
-0.0006954694410314609 -1.2611341736497151e-5 -1.2699969761251446e-7
-0.000830971213046659 -0.0009167675429372217 -2.73092204354058e-7
-0.00023427666593614767 -2.7128791419246047e-5 8.374058503448719e-7
-0.0005181346789344845 3.2639629903035904e-5 -1.5813710259883277e-7
-0.0003432325658557752 6.234318062219093e-6 2.496366412202996e-7
-0.00032108186478849464 -2.08587927438834e-6 3.874971069638098e-7
-0.0007048544732712379 -0.00019078398861080206 6.639311683736235e-7
-0.0007122198973626826 -0.00014154355066767842 4.1301166042654017e-7
-0.00010355288106516066 -1.8183902561810447e-6 1.1898129980885692e-7
-0.00012114984298799796 -1.618391340948848e-5 5.599829782672815e-7
-7.88711247891583e-5 1.646906591449957e-5 -5.946131060798605e-7
-0.0008198751533896776 -5.919198062070014e-5 -4.385624250425192e-7
-0.0008265089185594697 -4.123769787733287e-5 -4.901326604361744e-7
-0.0005307794415774041 5.615992207642281e-5 -4.407463230149336e-7
-0.00044445152969606317 -2.2214479234400926e-5 7.19199429255694e-7
-0.00044910671016235997 -5.68581188162633e-6 4.5011573714759544e-7
-0.00040986395103218036 -2.6103341436269832e-5 8.350874768879226e-7
-0.000669494335965435 -0.0007312798007013933 6.761267291601128e-7
-0.0005868630418144796 1.4342596194480667e-5 -4.6853297142097163e-8
-0.0006258654131960268 -1.308076289642878e-5 8.961217201262526e-8
-0.0007449598917230948 -3.080156578566477e-5 -2.1696412167725586e-7
-6.144746442149823e-5 4.552760556910802e-6 -1.8512553452833332e-7
-0.0002411222193308343 -1.052503736239372e-5 4.6646369291770637e-7
-0.0007165951422724873 -8.839532171536412e-5 1.5786267152527455e-7
-0.00010466735895940588 -1.7496813660546183e-5 6.269698183087587e-7
-6.802407482859751e-5 9.68964524271894e-7 -2.588975281863196e-8
-0.00040030469550477805 -6.955070598120568e-6 5.071526875994613e-7
-0.00033297630198439676 -5.057252215199585e-6 4.605312441613142e-7
-0.0003363794255890675 -2.0002266251381696e-5 7.601009048259803e-7
-0.0002859249315334754 -4.467680603922909e-5 1.2610000241668866e-6
-0.00018130758068931634 3.955805770068571e-5 -8.824433611170562e-7
-0.0005979865531622762 -2.494778580414793e-5 2.8820941185862633e-7
-0.0006810807185400977 -2.6836321003354027e-5 2.9957602923980246e-9
-0.0003807785654606731 -3.639997774379585e-5 1.0606744829204316e-6
-0.00039223272594801016 -1.9568481154298736e-5 7.359051820769056e-7
-0.000186057215622409 -6.305474312414927e-6 3.039525692126508e-7
-0.001228444131163302 -0.0016487123765837452 7.857929626650249e-10
-0.001228459830234852 -0.0016004016474642114 -1.3699368207023588e-8
-0.0012281428326844635 -0.0015032124731365114 -6.538589949768201e-8
-0.001227695224188281 -0.0014543698274470053 -1.025951751917929e-7
-0.0012260228706229685 -0.0013564107578041054 -1.9634746594613575e-7
-0.001224725095064752 -0.0013073971701338509 -2.498579184689402e-7
-0.001221155996123864 -0.0012095849705415977 -3.5900541723080894e-7
-0.001218836416743715 -0.0011609512122718283 -4.113653387892599e-7
-0.0012134485732836029 -0.0010643364667812932 -5.123325969234677e-7
-0.001206820562924238 -0.0009689076331081079 -6.17293649536744e-7
-0.0012030223589294857 -0.000921788463105043 -6.705191392480653e-7
-0.0011945535868845595 -0.0008288547190689415 -7.686450728324414e-7
-0.001189900190195995 -0.0007831593335466538 -8.138817038150569e-7
-0.0011798788516851695 -0.0006934874593113519 -8.942762395101857e-7
-0.0011745184597508629 -0.0006495817328942981 -9.304936821749479e-7
-0.0011631709164508103 -0.0005639105797427557 -9.920140933829597e-7
-0.0011512450953934837 -0.00048123333437688313 -1.027335843490168e-6
-0.001145154821713895 -0.0004411134792848325 -1.0337959407865567e-6
-0.0011329607763981338 -0.0003633857453074271 -1.020492133139028e-6
-0.0011269763368732186 -0.0003257848228173924 -9.99395452649035e-7
-0.0011155278669036275 -0.00025299835101020684 -9.250542808884139e-7
-0.001110190715077522 -0.00021776388264496387 -8.73678071934279e-7
-0.0011005778191697552 -0.00014933851503618167 -7.51151538972314e-7
-0.0010963529204825755 -0.00011596878423332945 -6.810152238422407e-7
-0.0010892220873947164 -5.060792713724921e-5 -5.246387025003294e-7
-0.0010840388656478167 1.3558194561790364e-5 -3.606774934272906e-7
-0.001082176464421833 4.5440092781063525e-5 -2.8189744815050723e-7
-0.0010797974208043711 0.00010927400392676935 -1.4332228403082855e-7
-0.0010791868876245587 0.0001413958588231807 -8.890626039914713e-8
-0.0010787709400331537 0.00020634157178326935 -1.803209968567044e-8
-0.001078793338041129 0.00023920262427175735 9.62184968652036e-10
-0.001228375807241281 -0.0017449437533212447 2.471940651428338e-8
-0.0010788852257333599 0.0003054624126572433 3.310956786289875e-8
-0.001012400134557912 0.00030555514908917845 1.436397929703656e-9
-0.0009788927575193117 0.0003055790547650237 -1.7639427713883484e-8
-0.0009110919552168181 0.00030516604886171356 -8.959181995983105e-8
-0.000876827723899717 0.0003045553719082957 -1.4394631040415362e-7
-0.0008078555755973861 0.0003021853949703092 -2.839747282448083e-7
-0.0007732993791009992 0.00030030738395139177 -3.659932351885861e-7
-0.000704503986007438 0.00029502690619723595 -5.420036342066373e-7
-0.0006704873776665223 0.00029157521560120104 -6.3333260008529e-7
-0.0006035806283952169 0.00028309818978786296 -8.101816785818842e-7
-0.0005388596862876798 0.00027257678706483243 -9.75854127408504e-7
-0.0005075304580678367 0.0002666014267672601 -1.0517708085419448e-6
-0.00044730685421980786 0.00025340038950946774 -1.184025063686256e-6
-0.000418524760033515 0.00024626783871634474 -1.238836209321428e-6
-0.0003638005282138119 0.00023114379643121352 -1.3255564502457614e-6
-0.0003379427284234166 0.00022323361386012358 -1.3593986559516281e-6
-0.00028937234199556883 0.00020693543162542444 -1.4081600056525514e-6
-0.0002448535940160195 0.00019024078123312024 -1.4319083179559211e-6
-0.00022415659822317896 0.00018180573621253353 -1.4388019383498175e-6
-0.0001857896616655514 0.00016486018791421188 -1.4451327798741968e-6
-0.00016809366812970395 0.00015637947191336825 -1.4452440605738202e-6
-0.00013560217511464668 0.0001394448196422029 -1.4417612434013757e-6
-0.00012079130561837104 0.0001309989810855678 -1.4401054068747122e-6
-9.403986442420512e-5 0.00011416038932709855 -1.4395395490252451e-6
-8.202322630838772e-5 0.00010576109000279965 -1.437381753327246e-6
-6.084086583671359e-5 8.899495034548754e-5 -1.4292270276295646e-6
-4.3322437408553045e-5 7.23194895590054e-5 -1.415013732515321e-6
-3.593354966903512e-5 6.402995079491262e-5 -1.4076841264831932e-6
-2.3804646022090292e-5 4.759476071400037e-5 -1.4031286022924302e-6
-1.9022869925172694e-5 3.944875274508449e-5 -1.4150027953681748e-6
-1.1719813985043879e-5 2.330285734869584e-5 -1.4326788744656255e-6
-8.8678751918489e-6 1.535790146176365e-5 -1.2825639123601645e-6
0.0 0.0 0.0
0.0 0.0 0.0
0.0 0.0 0.0
0.0 0.0 0.0
0.0 0.0 0.0
0.0 0.0 0.0
0.0 0.0 0.0
0.0 0.0 0.0
0.0 0.0 0.0
-0.000345717168876496 -0.0002701430504787715 2.525452841208937e-6
-0.00030463627472535233 -0.00024884596689650257 1.7948254636391144e-6
-0.00026375002700471095 -0.00022956620761439565 1.6358516068081555e-6
-0.00024397907772854513 -0.00022006448160850266 1.6217883563932382e-6
-0.0002063086561336473 -0.000201071441552783 1.623500691092886e-6
-0.00017158737009748183 -0.00018198521966847112 1.6315159390061286e-6
-0.00014008080098512618 -0.0001628035804044209 1.6397231171493087e-6
-0.00011194514603429795 -0.0001435225635639514 1.6468972824506892e-6
-8.72620473126278e-5 -0.00012417803314797066 1.6486951194351443e-6
-6.611685643496971e-5 -0.00010481620369948204 1.6478202245532125e-6
-4.847007177419921e-5 -8.548960908713664e-5 1.6414749862944657e-6
-4.094355432587675e-5 -7.586251948050306e-5 1.6369849185801594e-6
-2.8384984112372832e-5 -5.672904414394266e-5 1.63877541294766e-6
-1.8887932485566614e-5 -3.774100642409037e-5 1.6899608399029596e-6
-1.15283880608504e-5 -1.8812966485431527e-5 1.528913378929328e-6
-0.00037562773206398003 -0.0003047687203831408 3.0897722118180853e-6
-0.00024079107377189597 -0.0016779527613406517 3.178614168043703e-7
-0.0002528990909979272 -0.001564037783285706 8.645674435121851e-7
-0.00026162410326227716 -0.0014586578641639955 6.848429642607344e-7
-0.0002651757844243185 -0.001407564963433941 6.11820038451662e-7
-0.00027156735061467316 -0.0013071662188018083 5.414842608473875e-7
-0.00027767934085293916 -0.0012084701554314365 5.315596713279906e-7
-0.00028394904567637693 -0.0011111332748759974 5.535030755161486e-7
-0.0002906204376841185 -0.0010150531610472284 5.917127093523025e-7
-0.0002977896138534826 -0.0009202414855548651 6.354976693019518e-7
-0.00030551921143376625 -0.0008266893027561564 6.840969818033515e-7
-0.00031384920802517656 -0.000734346657624211 7.349122060944972e-7
-0.0003182412885705279 -0.000688580506354488 7.607198874123966e-7
-0.00032748980010981134 -0.0005976167133913505 8.24566008439489e-7
-0.000337521582732326 -0.0005067013461931444 1.0166466265033174e-6
-0.0003497982089473775 -0.0004136813493637592 1.8714507199897193e-6
-0.00023016478774011588 -0.001819082880383995 -1.4146185298465423e-6
-0.0003578436876685191 -0.001800836047697182 -1.2140491400336961e-6
-0.0005144425262703474 -0.0017706096413340397 -1.1722763501450647e-6
-0.0006115909715903965 -0.0017602096789336396 -7.506958791165751e-7
-0.000753965743769614 -0.0017509544681480519 -3.9212828189145195e-7
-0.000847989465607292 -0.0017474489095963808 -2.2839751572227235e-7
-0.0009893924764444162 -0.0017451658781669221 -6.889687778414921e-8
-0.0010844706708664966 -0.001744853999408033 -1.341650329669916e-8
-0.0010097039509197677 0.000236599787205705 -5.3554933257550155e-8
-0.0010079854655781844 0.0001678910919872677 -1.1302893328266774e-7
-0.0010154594335673285 0.00010327414507842697 -1.8334570973289924e-7
-0.0010189891585489909 4.154270055176001e-5 -2.760900775763813e-7
-0.0010199918249899401 -2.005029676177066e-5 -3.763538096087811e-7
-0.001019877567574135 -8.4219491365576e-5 -4.7152640105574145e-7
-0.0010147154004477355 -0.00015891462848676007 -5.454942916033344e-7
-0.0010432477451197395 -0.0002276020839719026 -6.775328652127541e-7
-0.0010519869756923587 -0.00029503887832198726 -7.356690938381389e-7
-0.0010638117069213088 -0.0003989861016996109 -7.734345403450558e-7
-0.0010686269173830181 -0.0004735160428200631 -7.610891835331375e-7
-0.0010646248388707597 -0.0005598276369687162 -6.992333997383687e-7
-0.0010896076553084375 -0.0006467317938647225 -7.058406878734959e-7
-0.001077594705122293 -0.0007394145347312841 -6.0645948916177e-7
-0.0011096819691841767 -0.0008389790550065941 -5.910702470233908e-7
-0.0010857408759918001 -0.0009488892025412137 -4.6120960240273767e-7
-0.0011061968937502958 -0.0010327038383368303 -4.2145375791001406e-7
-0.0010954078848711634 -0.0011296321741754432 -3.3757104826676637e-7
-0.0011162328349618958 -0.0012602854422805215 -2.521522878347805e-7
-0.001131423289180939 -0.0013522893416882222 -1.9156898975026655e-7
-0.0011130477482522187 -0.0014477250213475264 -1.32912852994111e-7
-0.001127344826518579 -0.0015522367702143535 -7.70304593887486e-8
-0.0011307272087102724 -0.0016481616759889128 -3.69830519308205e-8
-0.0009414155984126722 0.00023715884095533985 -1.074187714045289e-7
-0.0009328158581176199 0.00017821433848436055 -1.5477620647553696e-7
-0.0009211151727857046 0.00011273180116345866 -2.0185340607644366e-7
-0.0009541979760890278 3.959025248064377e-5 -2.5553714216439425e-7
-0.0009526056939721747 -1.792199681495172e-5 -3.04131861676237e-7
-0.0009490602869566923 -7.739644297497125e-5 -3.436826249786794e-7
-0.0009595660966042488 -0.00017111508802111536 -4.2191650889181324e-7
-0.0009563132183225098 -0.00023904754841541333 -4.3555176547313773e-7
-0.0009712770212335038 -0.00030748101717869333 -4.869235849369613e-7
-0.000989418891798201 -0.00039657165506205036 -5.377192088571433e-7
-0.0009859114686327228 -0.0004593046762579046 -5.140396752150447e-7
-0.0010002434367683973 -0.0005720795430926352 -5.15891408686398e-7
-0.001006245158934551 -0.0006595832540688152 -4.931421457380902e-7
-0.0010029025288539348 -0.000734934563315637 -4.480545787597349e-7
-0.000996526870876319 -0.000859177081670451 -3.706931921295316e-7
-0.0009894169913328959 -0.0009286083826687469 -3.287636178770659e-7
-0.0010047194265329924 -0.0010188521039036008 -3.07204829075095e-7
-0.0010234566157930952 -0.0011241432675121712 -2.7662866023190186e-7
-0.0010081963256785632 -0.0012287950998679691 -2.163501297242872e-7
-0.0010196219621647737 -0.0013444019702012122 -1.7725343043991427e-7
-0.0010416120795903815 -0.0014334229560460654 -1.468674432409923e-7
-0.001036117008725065 -0.001563366327429053 -1.059967002788824e-7
-0.0010368213701707984 -0.0016501775585785123 -7.676141845827573e-8
-0.0008698192196278719 0.00023456660938004286 -1.8573694030361402e-7
-0.000889550661564698 0.0001706903401557574 -1.884967271694963e-7
-0.0008720805550528209 0.00011561285549493362 -2.1182339169001715e-7
-0.0008573595378880502 5.080455981982228e-5 -2.0948926209178065e-7
-0.0008815648523964244 -1.1814912860040714e-5 -2.2938138832630752e-7
-0.0008762428044292819 -9.461534648971909e-5 -2.2820142999892084e-7
-0.0008591931312816156 -0.00014997974372303263 -1.917525489507483e-7
-0.0008959483134671354 -0.00022046147290985388 -2.7437100623961946e-7
-0.0008863170456669775 -0.00031148370224410286 -2.40491260065893e-7
-0.0008883832487439291 -0.000389974007310453 -2.3774289998961286e-7
-0.000900118281251243 -0.0005027851288417096 -2.6007701416387176e-7
-0.0009118849765567076 -0.0005622252692787801 -2.8619151188668724e-7
-0.0008988012497705302 -0.0006422065242721171 -2.4148372837736396e-7
-0.0009294415799676678 -0.0007258441586909667 -2.93735378400242e-7
-0.0009254756459040215 -0.0008316262074705433 -2.5839123618804117e-7
-0.0009026607197855102 -0.0009119324696758581 -2.0157466125014624e-7
-0.0009465056789213148 -0.0010431078718546787 -2.2775536242029122e-7
-0.0009491365078782933 -0.001142002656103914 -2.0256469451063502e-7
-0.0009488169526064154 -0.0012439271295061262 -1.7776880303693647e-7
-0.0009648856399662993 -0.0013349176021007828 -1.6647469536708043e-7
-0.0009296389159811429 -0.0014434647763397813 -1.5058278178193512e-7
-0.0009242132093738956 -0.0015313110427960283 -1.5333816057193059e-7
-0.0009355604657257914 -0.0016381538109268672 -1.417346470474775e-7
-0.000802388096547731 0.0002387268862293515 -2.785707038278643e-7
-0.0008016563527259154 0.0001453795512179934 -2.4473769754249444e-7
-0.0007986266872616183 9.14403050893761e-5 -2.1380865747570776e-7
-0.0007916805102264671 2.6394950145364935e-5 -1.6683270427664933e-7
-0.0008107787939803701 -2.6757730090553628e-5 -1.523483834940053e-7
-0.0007939007273158261 -9.116368228026707e-5 -8.472821996292277e-8
-0.0007774825446415439 -0.0001516294585055251 -5.205950279748773e-9
-0.0007883546393473251 -0.00022601873038513082 1.2515199635878998e-8
-0.0008021209202831969 -0.00030639668086601397 4.998710646630514e-9
-0.0008085497844789235 -0.00036391590734553077 -3.549920721618864e-9
-0.0008111633879847418 -0.0004461364777674601 -1.123827594274627e-8
-0.0008292047766369333 -0.0005634712467205615 -7.258843002338215e-8
-0.0008395443687933415 -0.0006637147498697145 -1.0278524634986063e-7
-0.0008333978510410702 -0.0007097421464053477 -9.125821484313841e-8
-0.0008090296160929573 -0.0008454738782724964 -5.5037359535351925e-8
-0.0008231694068688247 -0.0009463694772272379 -7.962094296251996e-8
-0.000843952219077935 -0.0010389835885351005 -1.0617603114149327e-7
-0.0008404086857668606 -0.001141877172902975 -1.0361101694741181e-7
-0.0008411857168684269 -0.0012491077656762003 -1.1230791553179954e-7
-0.0008392453667349113 -0.0013582110984344488 -1.3057092865496162e-7
-0.0008294564114048872 -0.0014589549779243593 -1.609944041150202e-7
-0.0008054991021168603 -0.0015416596232396087 -2.0417657636586335e-7
-0.0008274394565962776 -0.0016260526531132174 -2.2488223346748218e-7
-0.0007331997323799819 0.00022467461384824037 -3.823182911339572e-7
-0.0007307383074349149 0.00017078096677981857 -3.2203090259624716e-7
-0.0007010397070620897 0.00011231399598318334 -2.616313828828568e-7
-0.0007340161194247059 3.1156217750227786e-5 -1.403599354254701e-7
-0.0007207537222757065 -1.5409525310892575e-5 -6.562857520572127e-8
-0.0006928107030963972 -9.499464817145686e-5 1.0802999893805212e-7
-0.0007077439183508825 -0.00016632323179105782 1.8247162005906982e-7
-0.0007384234186824326 -0.00022267474456992838 1.544908298339282e-7
-0.0007311133033793158 -0.00029035115958691253 2.2129732201808522e-7
-0.0007287989755582038 -0.000380472387032902 2.483645551530952e-7
-0.0007274028340772419 -0.00046217224474218605 2.3293595866768912e-7
-0.0007632074788401295 -0.0005394956958258665 1.0413304981055512e-7
-0.0007391811999562443 -0.0006178671240929763 1.3386173007474244e-7
-0.0007337496391367194 -0.00073982424078937 1.0224589427648464e-7
-0.0007334484775062243 -0.0008444678698099951 7.231000619476515e-8
-0.0007509381927552822 -0.0009182544885372796 2.8449112818578184e-8
-0.0007472562416288582 -0.0010378357794293559 1.233943992005538e-8
-0.0007380134928955069 -0.0011527354231710939 -6.275742757822567e-9
-0.0007462314459154918 -0.0013530142865098378 -9.019588616556886e-8
-0.0007233509433903146 -0.0014233826424067536 -1.2815761968617294e-7
-0.0007419521961801495 -0.0015471934240368376 -2.328432469263063e-7
-0.0007323429525905155 -0.0016323578614844522 -3.184394189373363e-7
-0.0006371119454612519 0.00021879844801503856 -5.53817986561559e-7
-0.0006388314812103418 0.0001481285721101993 -3.816249186218814e-7
-0.0006416103021850871 9.942682134642876e-5 -2.612039375194721e-7
-0.0006332432935048534 4.119226642095527e-5 -1.168306021029851e-7
-0.0006471196918243514 -2.437734294927356e-5 3.437299286046582e-8
-0.0006237304502889028 -6.452165565834484e-5 1.704432705701853e-7
-0.0006398902781941845 -0.00016194100758532232 3.676478350141075e-7
-0.0006746347568246141 -0.00023738850743870593 3.7344681188085516e-7
-0.000661736025830969 -0.0002957364000762319 4.675928972829333e-7
-0.0006580179525636262 -0.0003649323134890216 4.964901915165828e-7
-0.0006489049558119422 -0.0004426187745521806 4.934173340725236e-7
-0.0006933922719647684 -0.0005443351892751532 2.863289669209917e-7
-0.0006344219591840938 -0.0006486134704225036 3.469947320050672e-7
-0.0006413343528217208 -0.0007578306228069984 2.6103656843322363e-7
-0.0006462772471886284 -0.0008429791903524281 2.114194355342212e-7
-0.0006634475563902811 -0.000926776909515737 1.5499366920226647e-7
-0.0006422417698198671 -0.0010374852030349743 1.426916757637246e-7
-0.0006452382411801526 -0.0011241329224670378 1.0424137932797908e-7
-0.0006497169869492321 -0.0012588453703587786 3.646032333967106e-8
-0.0006443231052793847 -0.0013249993963617617 -1.8854621074977608e-9
-0.0006537598640830546 -0.0014605118731470332 -1.4102701768080045e-7
-0.0006125714116395058 -0.0015459531462552515 -2.640152257877637e-7
-0.0006349633165220878 -0.0016624050599954204 -4.821196916625983e-7
-0.0005702055018535827 0.00021381852193900832 -6.743203468770329e-7
-0.0005661680786153675 0.0001540752134556519 -4.782460046210163e-7
-0.000577541833346542 9.460248114699934e-5 -2.733010261255236e-7
-0.0005669839887858622 1.5678200557480696e-5 -8.059926611678709e-9
-0.0005632382380894479 -1.288598154204033e-5 9.496147595538417e-8
-0.0005829407406738944 -7.385686521897267e-5 2.7340899455148766e-7
-0.0005662014391243617 -0.00014120393628282903 5.419382398019118e-7
-0.0006113736135858308 -0.00022031640312216873 5.855894740957757e-7
-0.0005847417668336232 -0.00028268891463196014 8.011508968404207e-7
-0.0005515241785990102 -0.0003596709044808446 9.789699648951677e-7
-0.0005655536919879881 -0.00045564478829976477 7.61451983780416e-7
-0.000568659492356898 -0.0005530078600762051 5.928102159879651e-7
-0.0005490528766193747 -0.0006367030150156035 5.258127783459135e-7
-0.0005423341977648972 -0.0007573081155011236 4.271958387294264e-7
-0.0005356992677961854 -0.0008414921420307128 3.816993734935532e-7
-0.0005329577969218255 -0.0009298927722869197 3.3552052303431274e-7
-0.0005308563701625053 -0.00106996480202522 2.6604169145402735e-7
-0.0005030954397645481 -0.0011462748638696413 2.6306366735585563e-7
-0.000568801490345236 -0.0012567946694458955 1.2225779705536455e-7
-0.0005290053919851934 -0.0013529441783056313 9.121071522751472e-8
-0.0005369389320388688 -0.0015141776127162363 -1.5392101883915044e-7
-0.0005571244649933072 -0.0016861276358847634 -6.656037484321929e-7
-0.0005066194696689733 0.00020615787501179615 -7.857186360177494e-7
-0.0005071074731188278 0.00015173476604868946 -5.510979223919374e-7
-0.0005057403395114959 0.00010024304249849207 -3.3538950987536546e-7
-0.0004948083365680245 4.3950532652455845e-5 -9.913565326372029e-8
-0.0004983901714760474 -2.5567096942366174e-5 2.1137365380165714e-7
-0.0004961154479236718 -7.249819593160044e-5 4.346686432703208e-7
-0.000493290173302581 -0.0001409534904305882 7.842258699788452e-7
-0.0005123137881569691 -0.00020716460328512143 1.0251110706240471e-6
-0.0005097699229669016 -0.00028101421272052945 1.2934814801884527e-6
-0.0004724756629396894 -0.0003572244704132073 1.5379318744657334e-6
-0.0004952818271721889 -0.00046877620764007583 9.518582403571421e-7
-0.0004705405793568338 -0.0005819415586098985 7.337671927525623e-7
-0.0004559626350896799 -0.0006757603623680137 6.284208390837664e-7
-0.00044787041333715525 -0.0007642941777974082 5.577637686139711e-7
-0.00044365022417912705 -0.0008483937907164142 5.023417294156555e-7
-0.00045359227543519153 -0.0009221610741791626 4.432874342480754e-7
-0.0004319495372167318 -0.0010563923861200844 3.957059074335623e-7
-0.0004223005565406479 -0.0011420542660598445 3.6809157911429695e-7
-0.0004202094607285918 -0.0012158665349057348 3.3617408187944414e-7
-0.0004169587972849276 -0.0013433974943644358 2.730865029880079e-7
-0.00045896594789294733 -0.0014514778933529418 8.410349728394258e-8
-0.00043974733440792116 -0.0015080717744796242 2.9381636680083777e-8
-0.0004691606172652377 -0.0016842253123146057 -7.136043146885463e-7
-0.00044607885818716666 0.00019415887026625136 -8.692446075323433e-7
-0.0004558921829474987 0.00014181351828288175 -5.824122844026609e-7
-0.00045485024241169626 7.858465313106618e-5 -2.745776797344487e-7
-0.0004473211009682732 3.616149711031025e-5 -6.653798733787305e-8
-0.00042878857143599573 -2.6038691405842895e-5 2.694628516237382e-7
-0.0004457696590708326 -7.939769274807077e-5 5.571231005080812e-7
-0.00043309209748157646 -0.0001254921354635546 8.737330920426554e-7
-0.00041062951492041764 -0.00018188905035875945 1.4171695533725494e-6
-0.0004385539214498073 -0.00024398494389918344 1.8803116363421188e-6
-0.00040017050104656035 -0.00035933477292779333 2.303247427246073e-6
-0.0004284316817386973 -0.0004468365670882211 1.2316828798798036e-6
-0.00037977893167690077 -0.0005452582051092113 8.853183124985939e-7
-0.00037042970771657 -0.0006365586112870026 7.597874367311391e-7
-0.00035648028415021605 -0.0007741965116393626 6.606187752546591e-7
-0.0003507754909567343 -0.0008662104807199547 6.045638918773635e-7
-0.00034850501250835507 -0.0009605241418099411 5.505038533083425e-7
-0.0003368144223130753 -0.001058184905215788 5.129364334907767e-7
-0.0003302294766170392 -0.0011534396418945662 4.78979071349556e-7
-0.00032834532907378804 -0.0012508008043708126 4.5230338324149675e-7
-0.00031839670216018593 -0.0013500276310017126 4.596248009096577e-7
-0.0003140175652036911 -0.0014504107848443578 4.928470758762225e-7
-0.0003170002380395932 -0.0015567671056003632 4.6511947136567853e-7
-0.00036531720595965573 -0.001675450854483996 -3.1259563295155985e-7
-0.00038957483342148445 0.00018472214882021373 -9.501582205199689e-7
-0.0004004422846712644 0.00012556948184073887 -5.835923398729557e-7
-0.0003728362098014433 7.68281196884406e-5 -3.3541746028957946e-7
-0.00038570417068577287 2.225892761369291e-5 -3.1095782340230844e-9
-0.0003648722522498459 -2.3838309026827254e-5 2.78021003484659e-7
-0.0003619739557254726 -0.00010216511989640728 8.16906203033439e-7
-0.00036272445160026974 -0.00015297753943650284 1.2311052305257661e-6
-0.00036192443668438485 -0.00020680078399227858 1.8177886323996005e-6
-0.00036110999550969657 -0.0002623414883687226 2.6688976952455195e-6
-0.000337542300715542 0.00017544652157410406 -1.0216620477957398e-6
-0.0003306429729449239 0.00011000457020152345 -5.998819383245572e-7
-0.00030390659521435464 7.815988860383088e-5 -4.299726940892239e-7
-0.00031563218253589085 2.3158865852187062e-5 -4.367327221671703e-8
-0.0003180039450048383 -2.155179927166269e-5 2.613719854940963e-7
-0.00031816256548671066 -7.539754703301495e-5 6.383703278530675e-7
-0.00031970260300280453 -0.00012552478448267718 1.0100734002122545e-6
-0.0003201573526970626 -0.0001733014316065253 1.389848591144078e-6
-0.00032177587815886404 -0.0002198276240307895 1.762387954501329e-6
-0.0002867066354495917 0.00015287643039890928 -9.932172820399496e-7
-0.00028733098173017575 0.00011658443970218714 -7.27214347093539e-7
-0.0002765090555254659 6.735293295789983e-5 -3.923714411349726e-7
-0.00027343768195172845 1.8444226743059243e-5 -4.0819774108355325e-8
-0.00027602627412548513 -2.533274243718031e-5 2.781973787115235e-7
-0.0002566392570231475 -6.289827770207356e-5 5.490076711449523e-7
-0.0002809466398934908 -0.00012191883294954501 9.767494879369793e-7
-0.0002807290967801347 -0.00016323616423875382 1.2677547603628848e-6
-0.0002816270821679419 -0.0002030342465007154 1.5055005263155397e-6
-0.00023994834582521753 0.0001493689299167421 -1.0967634288770204e-6
-0.00021223164732666244 8.979895921318137e-5 -6.714449769586032e-7
-0.00023400801936007898 5.623735977753797e-5 -3.6387614606271643e-7
-0.000231373243482069 1.4881628846172377e-5 -4.494544078157423e-8
-0.00021813682413843083 -1.824255155266852e-5 2.072934120721649e-7
-0.00022390614431017008 -5.899130851801813e-5 5.229568852892854e-7
-0.0002317475955033465 -0.00010396047711637678 8.601145983498184e-7
-0.00022579683271597414 -0.00013913329302096082 1.1234737995193225e-6
-0.0002233229695182443 -0.00017443190565950015 1.3730179074335223e-6
-0.00020156590545257128 0.0001387098125714924 -1.128896636968901e-6
-0.0001807847716667901 8.298544179218272e-5 -6.823592735117934e-7
-0.00018049024675583373 5.727897128228008e-5 -4.518781515616304e-7
-0.00018513904988301305 1.3019579199685706e-5 -6.347303983793911e-8
-0.0001832533382680107 -2.198405697465063e-5 2.3237497184119166e-7
-0.00018807289410586634 -5.967927113688201e-5 5.459672907204687e-7
-0.0001946908570358279 -0.00010175914860312597 8.814354907062966e-7
-0.0001896659519243599 -0.00013500423805541795 1.157575428126004e-6
-0.00018415715957799167 -0.0001685166316086606 1.4479690096838365e-6
-0.00015119645746295457 0.00011978092669763304 -1.1371686622692666e-6
-0.000150204260111042 8.988251330554983e-5 -8.34339664280439e-7
-0.0001447445440862606 5.3233457935345104e-5 -4.854263727697007e-7
-0.00015668285069027734 1.5862395015400962e-5 -1.1449969865322907e-7
-0.00015120374214634954 -1.9439577582973583e-5 2.0989341658939148e-7
-0.0001536844586248351 -5.4476215256687114e-5 5.316349563206888e-7
-0.00015431953243029496 -9.462575813925531e-5 8.947805736937931e-7
-0.00015825056507220834 -0.00013166966547742073 1.224737315486416e-6
-0.00015094072110627307 -0.0001561682964500975 1.4941956736022357e-6
-0.0001222564561063114 0.00010645169817944992 -1.1244891600193666e-6
-0.0001223344751114955 7.329979522076062e-5 -7.510337933174372e-7
-0.00011551177079177864 4.157124670850135e-5 -4.2620330252320125e-7
-0.00012172206792473578 4.0796658432341885e-6 -2.1525353209750037e-8
-0.00011589060190004942 -2.574402954100825e-5 2.8836241400449805e-7
-0.00012310924818952993 -4.498168828241174e-5 4.770088642783994e-7
-0.00013115340057242645 -8.116127828902514e-5 8.219758194517679e-7
-0.00012853551678420288 -0.00010407971151696635 1.0647286868966558e-6
-0.00012163376692396638 -0.0001387582280186937 1.497078570980941e-6
-9.392305655357523e-5 8.61152557874932e-5 -1.034229224372424e-6
-9.931949454704587e-5 6.998056371201683e-5 -8.036521544489927e-7
-8.808613374852186e-5 3.6674227601605824e-5 -4.3268561344015894e-7
-7.738470074245648e-5 6.1422057676071885e-6 -6.968198523308322e-8
-8.910616097204826e-5 -2.213486428410555e-5 2.7793845238374585e-7
-8.526400343318902e-5 -4.4977582899484993e-5 5.65316799699954e-7
-8.946933307642849e-5 -7.324591273117923e-5 8.988075945136282e-7
-9.964686852978546e-5 -9.808238506115763e-5 1.1478120455317751e-6
-9.603891511034174e-5 -0.00012197156306842892 1.5031636121881358e-6
-6.69123430621916e-5 7.42754187344536e-5 -1.0684126039035426e-6
-6.656104656237806e-5 5.1126085747411726e-5 -7.086230524837897e-7
-6.475203361702792e-5 2.9089642692380203e-5 -3.995822365390346e-7
-6.215450824535215e-5 2.0313336597687653e-5 -2.830491892049763e-7
-6.641894587794436e-5 -1.645578124139594e-5 2.349174952330782e-7
-6.005866211421869e-5 -3.441395088594733e-5 5.103234392825281e-7
-6.347271147916831e-5 -5.465919141963495e-5 7.930285664730002e-7
-6.606390952794235e-5 -7.489557022740258e-5 1.0872692715127105e-6
-7.342034526193887e-5 -0.00010474565605859353 1.508315919601843e-6
-4.35951863442666e-5 5.316131542146702e-5 -9.389913129723894e-7
-4.500949284352851e-5 4.226683521502959e-5 -7.15809556036817e-7
-4.387976551957326e-5 2.900918397153036e-5 -4.885716645574289e-7
-3.7805690824937316e-5 8.335452565395162e-6 -1.4565121042988175e-7
-4.254125023874203e-5 -1.4951330115496856e-5 2.6328360633446797e-7
-4.3860419605681585e-5 -3.2168757329749444e-5 5.537636695761511e-7
-4.630963220293533e-5 -5.371145268408219e-5 9.282989592043393e-7
-4.992925467208097e-5 -7.096005365877005e-5 1.2222153836337203e-6
-5.425123959287243e-5 -8.715224199606566e-5 1.5043741175169925e-6
-3.009647228795872e-5 4.641328640448913e-5 -1.0177141646623805e-6
-2.8984608350561962e-5 3.436434131216343e-5 -7.287164695509527e-7
-2.552479609683959e-5 2.041276887626631e-5 -4.426699621998887e-7
-2.8642821744380462e-5 1.0706129707895145e-5 -2.1194085164403493e-7
-2.484725338921718e-5 -3.1322952817269535e-6 8.033828246815648e-8
-2.726413443315267e-5 -2.9138944028873476e-5 6.45718205970126e-7
-3.118023667498105e-5 -4.472741312160107e-5 9.627231670067921e-7
-3.4377073242584205e-5 -5.7061016663468614e-5 1.223842355630624e-6
-3.846473539060932e-5 -6.967181477813369e-5 1.4992014383881403e-6
-2.061462975303459e-5 3.984571655106146e-5 -1.1430761018223777e-6
-1.7293927906507407e-5 2.6719054336356994e-5 -7.509516970250173e-7
-1.3186140207744885e-5 1.3972889751009709e-5 -4.245144926242595e-7
-9.722015161104197e-6 4.154896407058008e-6 -1.36133559803185e-7
-1.11866629479697e-5 -2.578435728303064e-6 9.187945532625244e-8
-1.672439319211499e-5 -1.901021872541193e-5 5.365991584099811e-7
-1.7715110641824816e-5 -3.0088108013485536e-5 8.797415738071991e-7
-2.1981249627719972e-5 -4.327815707194815e-5 1.2494209525301508e-6
-2.605167378532236e-5 -5.245482305507011e-5 1.50875605310984e-6
-9.873634399400071e-6 2.361206481180545e-5 -1.092165404036801e-6
-8.589024803971032e-6 1.953313059349555e-5 -8.444947169574449e-7
-2.5128062675897017e-6 2.9952972173623555e-6 -1.624218992564635e-7
-2.831545292582983e-6 -1.9260597963598843e-6 1.1440810593796467e-7
-3.7585760110637157e-6 -1.1256496228721495e-5 6.608935124142287e-7
-5.157381348095368e-6 -1.5978471948650592e-5 9.739678468245448e-7
-1.2930860411776955e-5 -2.992305533771152e-5 1.3198713101765718e-6
-1.6706208714245816e-5 -3.535388520429728e-5 1.5557075578278756e-6
-3.764388906056129e-6 1.020979970094341e-5 -1.0386917829107353e-6
2.1040239932227463e-8 4.709371320467742e-6 -5.963706141756171e-7
6.801386008145208e-7 3.3046096496875805e-6 -3.679869396035834e-7
1.2205557101889424e-6 2.962944592553213e-7 -3.0865140205225506e-8
9.988337863429635e-7 -2.3152489961902014e-6 2.7686652029614754e-7
3.530301900255669e-7 -4.965987296514323e-6 5.956426971602132e-7
-8.117973503857227e-7 -7.1771363999721514e-6 8.771227045791073e-7
-2.8156676952655116e-6 -9.564735233835897e-6 1.1237356383763338e-6
-8.181625384546105e-6 -1.6120239999838923e-5 1.4386562031162169e-6
-0.0012284015893524718 -0.0016968658935324974 1.1619631136941814e-8
-0.0012283825817407024 -0.0015518999458853395 -3.54422649590116e-8
-0.0012270006852218155 -0.0014054214238952473 -1.4658525122410128e-7
-0.0012231064825141383 -0.0012584444632528719 -3.0483063510515065e-7
-0.0012163028431014546 -0.0011125119424429323 -4.6192669858539346e-7
-0.0012102957036868763 -0.0010164483694525064 -5.640164542346008e-7
-0.0011989310759555215 -0.000875084122997866 -7.209187782532825e-7
-0.001185006715212791 -0.0007380411172678659 -8.558490307970219e-7
-0.001168934483718581 -0.0006063677574581938 -9.635771533272677e-7
-0.0011572677233125973 -0.0005221738920046338 -1.0132381693975924e-6
-0.001139041079689865 -0.00040182645981077267 -1.0317429141596647e-6
-0.0011211449483461077 -0.0002889927122428755 -9.673436037503978e-7
-0.001105194572262687 -0.0001832366835929416 -8.151895099977063e-7
-0.0010925503028750786 -8.308743655105853e-5 -6.049276897227832e-7
-0.001086384289778688 -1.842578286308819e-5 -4.4239498281875946e-7
-0.0010807745102497594 7.731496174242676e-5 -2.0853650477958854e-7
-0.0010788731593805983 0.0001737415533586956 -4.710935363394363e-8
-0.0010788502714665824 0.00027228050146006934 1.5335974768402135e-8
-0.001045694514035513 0.0003054975498053195 1.5554227806425153e-8
-0.0009451251899904553 0.00030547944383808276 -4.731386115023999e-8
-0.0008423935477673085 0.0003035825270220373 -2.0923383777340336e-7
-0.0007388204678871048 0.0002979315168000851 -4.524236446389401e-7
-0.0006368030834925281 0.0002875972456833721 -7.227678332474756e-7
-0.0005709044222284484 0.00027808529633161616 -8.948737151614086e-7
-0.0004769908852098043 0.0002601939523473563 -1.1214594756922652e-6
-0.000390670993601963 0.0002388369970255341 -1.2855329887064744e-6
-0.00031313198006350715 0.000215142063349814 -1.3871522995750493e-6
-0.0002665850987620734 0.00019862971168282625 -1.42210865221155e-6
-0.00020447310587337137 0.00017333971612847282 -1.443108533200266e-6
-0.00015136722626561176 0.00014790644782816166 -1.4439084158941438e-6
-0.00010693817743620902 0.0001225644628575038 -1.43964278128559e-6
-7.096263598615029e-5 9.736519058597928e-5 -1.4338927727647714e-6
-5.161921651066424e-5 8.064609619013794e-5 -1.422482823178108e-6
-2.9436886290873504e-5 5.578670724226728e-5 -1.4023392382720938e-6
-1.5040836109660375e-5 3.13555562215128e-5 -1.4327965335479891e-6
-6.186414272251176e-6 7.651728918437186e-6 -8.146966312576338e-7
0.0 0.0 0.0
0.0 0.0 0.0
0.0 0.0 0.0
0.0 0.0 0.0
0.0 0.0 0.0
0.0 0.0 0.0
0.0 0.0 0.0
0.0 0.0 0.0
0.0 0.0 0.0
0.0 0.0 0.0
0.0 0.0 0.0
0.0 0.0 0.0
-0.00036560615674837614 -0.00028425048993226484 3.054994150900022e-6
-0.00032538993096066005 -0.0002590009860491505 2.051295694932617e-6
-0.0002840198010790998 -0.0002391244261630832 1.6806088950736298e-6
-0.00022481233350385912 -0.0002105717843765454 1.6202357550822987e-6
-0.00018859591970100546 -0.0001915314544200206 1.6279889827773433e-6
-0.00015543222505050842 -0.0001724129665882067 1.635382380816899e-6
-0.0001255822412942162 -0.0001531711065606164 1.6438306097101529e-6
-9.916009843478988e-5 -0.00013385758836326702 1.648076266247591e-6
-7.625006096324302e-5 -0.00011449539836431791 1.648781003186439e-6
-5.685870525377914e-5 -9.514456423182844e-5 1.6453624730320433e-6
-3.4257264089972744e-5 -6.62736307420796e-5 1.6344430877527864e-6
-2.328071651641442e-5 -4.7224059129160526e-5 1.6573380638878969e-6
-1.5066774132057192e-5 -2.826779344362396e-5 1.7116681559588073e-6
-7.997805065769554e-6 -9.517992450104346e-6 9.858915254833532e-7
-0.0002344145189180637 -0.0017418333711100562 -7.997027304216074e-7
-0.0002473093433312765 -0.001619313809079369 8.052652536123754e-7
-0.000257599405900316 -0.001510666406635388 7.812692271726268e-7
-0.00026844466070951293 -0.0013571133998279933 5.66002841635766e-7
-0.00027462449237610176 -0.001257642558699527 5.315683697867948e-7
-0.0002807771283217904 -0.0011596421961666198 5.396225439671732e-7
-0.00028722342391454905 -0.0010629347809986067 5.713686393860478e-7
-0.00029414003593916725 -0.0009674953656682259 6.132428509719201e-7
-0.00030158107713506216 -0.0008733082571421615 6.592179051172038e-7
-0.0003096086101283304 -0.0007803736713350479 7.094591564640733e-7
-0.00032278598652932163 -0.0006430286009630422 7.88585933721486e-7
-0.00033237759218223724 -0.0005522325159490547 8.863656787037168e-7
-0.0003431559103301656 -0.00046074906009258953 1.3032732339146578e-6
-0.00035955675232426736 -0.0003651693635087405 2.6160177203879677e-6
-0.00029856367432806323 -0.0018107245804200294 -9.8435801056228e-7
-0.00041267968587448736 -0.0017875544479044297 -1.4240264325853506e-6
-0.0004644626202294746 -0.0017779637244352401 -1.3551672046418161e-6
-0.0005633719674771506 -0.001764824219767798 -9.395412890013447e-7
-0.0006593315792677374 -0.0017565025344557581 -6.034897084169276e-7
-0.0007067528429974152 -0.0017535364036553856 -4.890794788712622e-7
-0.0008010010238663093 -0.0017489485318504824 -3.052006889721468e-7
-0.0008950156824981651 -0.0017463728346717672 -1.636957224608915e-7
-0.0009421381765901485 -0.001745632232457006 -1.1110293111695912e-7
-0.001036830848631263 -0.0017449263710027003 -3.623219621925289e-8
-0.0011323081553755747 -0.0017448736824322254 1.144664002421339e-9
-0.001180304095824851 -0.001744917629311099 1.168349795551212e-8
-0.0011796311705771622 -0.0016963382863165088 -3.905543740433031e-9
-0.0011315524011997716 -0.0016963989694739339 -1.8133448579996498e-8
-0.000943201383620532 0.00027057672515618637 -7.877050079097821e-8
-0.0008736955245719898 0.00026954151471354884 -1.6590825603981564e-7
-0.0008395826951171489 0.00026968302176612016 -2.2006778635799792e-7
-0.0007703083976661143 0.00026723390399014795 -3.5104174312804816e-7
-0.0007367779156492918 0.0002638398263656582 -4.2058396440856523e-7
-0.0006710784137066128 0.00025669837586679816 -5.625688944582868e-7
-0.0006373100973242243 0.0002527497680243008 -6.359666884450887e-7
-0.0005706912394463693 0.00024535743469312603 -7.82313588341944e-7
-0.00020419743576182705 -0.00018125561651023326 1.4757835247533893e-6
-0.0003432818670625697 -0.0002509948570702096 2.2600496846345143e-6
-0.0011783001142442546 -0.0015996569744504317 -3.557723292691836e-8
-0.0011769128564363917 -0.0015510021660380708 -5.754927850904005e-8
-0.0011731271279545154 -0.001451986645961498 -1.1780620228235405e-7
-0.0011764723613242752 -0.0014030927217201727 -1.5353370938344756e-7
-0.001176046601462256 -0.0013067148704335029 -2.3687192580976109e-7
-0.0011719252155746904 -0.0012596712399548602 -2.7921361119066933e-7
-0.0011487064744611127 -0.0011581565611313415 -3.5769958432630267e-7
-0.0011575435189301092 -0.001102374689460855 -4.162113155614179e-7
-0.0011676571721352456 -0.001007162879467421 -5.20793258866992e-7
-0.0011289115962182944 -0.0009282424631058032 -5.445569421795727e-7
-0.001142599991308883 -0.000785054522991351 -7.093765422448825e-7
-0.0011346752463481135 -0.000738923564675994 -7.371103833335118e-7
-0.0011301592320996773 -0.0006485983878246206 -8.121813098738632e-7
-0.0011127418453170366 -0.0005189847955560031 -8.740141446556782e-7
-0.0011061973309031074 -0.0004387637543441914 -9.022881191701422e-7
-0.001101756460889841 -0.000400412823043111 -9.02602931876868e-7
-0.0010918599123800829 -0.00032733435185787154 -8.769872570473538e-7
-0.001087367475604134 -0.00029214335524015573 -8.534503636702921e-7
-0.0010760615695005174 -0.00022176514896132167 -7.723629861611326e-7
-0.0010681689904496292 -0.00018718890286338494 -7.14643460662768e-7
-0.0010576792347275577 -0.00011870748244771215 -5.982118024137972e-7
-0.001056212390656301 -8.459468134104707e-5 -5.392908858763543e-7
-0.0010534660610212548 -1.9653132899077207e-5 -4.107852914423052e-7
-0.0010508637780843513 4.335306700514822e-5 -2.8048540666941215e-7
-0.001045808245672701 0.00013885313323029985 -1.1732637223107095e-7
-0.0010441811445978941 0.00017113556918356456 -8.028153516198896e-8
-0.0010441246669601147 0.00023760912092080124 -2.681371608450536e-8
-0.0010447782203182163 0.0002714002669669892 -6.246603933604252e-9
-0.0009773363253307236 0.0002707971997976544 -4.8822617361869595e-8
-0.0005068711688505775 0.00023570294538151286 -9.163062379479129e-7
-0.0004761085230220402 0.00022988505485012703 -9.747732096204799e-7
-0.00041790559418088255 0.0002175299976532928 -1.072906202605151e-6
-0.0003903520630060001 0.00021182914712061828 -1.1169300937326041e-6
-0.00033715220124220835 0.00019869041181019552 -1.1869697674884936e-6
-0.000264812188553569 0.000175633812547915 -1.2376943568937437e-6
-0.00022228736363805074 0.00016310995367794967 -1.2766072284084502e-6
-0.00020297058527161802 0.00015610028042183124 -1.2858164158724928e-6
-0.0001674924731409362 0.00014136917830388196 -1.2907641559368732e-6
-0.00015114770894499195 0.00013402592174413503 -1.290842099794245e-6
-0.00012094046873440791 0.00011836338686954045 -1.2776067766480108e-6
-0.00010670564226433364 0.00010962382021596506 -1.2619140501819686e-6
-8.067747337520595e-5 9.33889862275358e-5 -1.2461578199783008e-6
-6.903649858754158e-5 8.61615699887157e-5 -1.2514493600214044e-6
-4.9562962108980197e-5 7.239334416799195e-5 -1.2643204395021625e-6
1.1851257144608943e-6 -1.0506310375441678e-6 1.803615824466416e-7
8.17693390651309e-7 -2.214423940126845e-6 3.7817570586367386e-7
1.135481039230318e-7 -3.205452073811829e-6 5.451461464835953e-7
-3.221865104500088e-5 5.261383051118335e-5 -1.1442648970334392e-6
-2.7647112539501597e-5 5.114261943273405e-5 -1.2735017126362257e-6
1.1745408557295251e-6 6.9946117023628e-7 -1.1596502782732576e-7
-1.668327096428424e-5 3.5438901289476e-5 -1.2646260716559761e-6
-1.2374271586025325e-5 2.7626473451606163e-5 -1.269835834165822e-6
-6.164220201512207e-6 1.2619285132277216e-5 -1.1547891812087366e-6
-3.1758446042936754e-6 5.384443015257448e-6 -7.237089722042155e-7
-5.787815623199221e-7 3.5303282344713934e-6 -5.584162971004294e-7
7.862343840601224e-7 1.693551878635983e-6 -2.88383781253708e-7
-1.0955871851756322e-6 -4.342585427400219e-6 7.020760362509495e-7
-0.00031185641192944813 0.0001902197946798594 -1.2032573259713224e-6
-4.594328862596841e-5 -7.84057243454792e-5 1.5016476743802292e-6
-6.341980729430998e-5 -9.597175996715887e-5 1.5073594663873743e-6
-0.00036530959683874305 -0.0006825990018476517 7.220228237122535e-7
-0.0004153411951009882 -0.0017346391569653262 -9.534298489239354e-7
-0.0005606206362129729 -0.0017248715512670973 -7.989419035918138e-7
-0.0006527402987680383 -0.0017056488911313327 -5.29557204482658e-7
-0.0010362487427017203 -0.0016967046646728368 -5.7774586882905156e-8
-0.0008930559037719828 -0.0017004985609621191 -1.6981286549563654e-7
-0.0010494603183967483 7.487450695206702e-5 -2.1936778752885312e-7
-0.001124445855254483 -0.000604059566748576 -8.379322092950201e-7
-0.001159726361191009 -0.0008778280999456975 -6.47481503247404e-7
-0.00031184990840161473 -0.001614091556600919 3.7092572962173454e-7
-0.0008091643198193876 -0.0016739328756523906 -2.6223481874943807e-7
-0.0007051998004236364 -0.001686015516669962 -4.116765144920911e-7
-0.0011791940144752217 -0.0016481800487748866 -1.842747012949474e-8
-0.0011746543977064856 -0.0015013473227614546 -8.543228967682534e-8
-0.001177775348911199 -0.001354730255669461 -1.9400856966291845e-7
-0.001167800797684984 -0.0012119824307041578 -3.219910747943776e-7
-0.0011608761568425686 -0.001052086346896436 -4.6730197331486027e-7
-0.00114226790978023 -0.0009602908586209087 -5.340812415775292e-7
-0.0011513707344232042 -0.0008319126630532744 -6.798017748058252e-7
-0.001132579279882189 -0.0006933384034772956 -7.759027918327402e-7
-0.0011164018814444803 -0.0005609339972660301 -8.520923461956768e-7
-0.0011098279049929292 -0.00047821950369929484 -8.924534082652171e-7
-0.0010968118578490596 -0.0003630496958363914 -8.937047471218444e-7
-0.0010823419875569432 -0.00025691521807109463 -8.191613316719973e-7
-0.0010606536129048065 -0.0001533520850089243 -6.538254801791537e-7
-0.001054884182231903 -5.173331136002273e-5 -4.763168554082956e-7
-0.0010521765320774862 1.1915857604196834e-5 -3.4500172889851487e-7
-0.0010476802944583323 0.00010668178614417014 -1.641873015600315e-7
-0.0010437340507960732 0.00020404206702600626 -5.0703520723153056e-8
-0.001011029033552687 0.0002709723844701351 -2.6077578143166513e-8
-0.0009083126482697478 0.0002701081179802114 -1.1834473305428547e-7
-0.0008052378853379932 0.00026939576155653595 -2.8231147693906514e-7
-0.0007039853078301736 0.00026268799137435365 -4.943246578320156e-7
-0.000603637141046104 0.0002492815054229367 -7.101168664276145e-7
-0.0005384035842323999 0.00024088696257756057 -8.518135799333324e-7
-0.0004464057918025613 0.00022370314093921417 -1.0267610005036763e-6
-0.0003633515037482742 0.00020574644832841742 -1.1564941575297193e-6
-0.00028796278774976354 0.00018163711638865163 -1.212117385822942e-6
-0.0002428428632756113 0.00016961914779210007 -1.260532075405254e-6
-0.0001847673080132148 0.00014882785175579513 -1.2901225478886912e-6
-0.00013568713238963414 0.00012645783008053004 -1.2871153457239167e-6
-9.347748045985596e-5 0.00010092694971255266 -1.2444738850137123e-6
-5.875750164574894e-5 7.915106188920886e-5 -1.2564037470829668e-6
-3.907735836265295e-5 5.809033672966191e-5 -1.126284164271356e-6
-2.185192158568825e-5 4.342859142728087e-5 -1.268125617125102e-6
-8.947579491421644e-6 2.0114482349383272e-5 -1.279606228364029e-6
-1.5718142769422674e-6 4.430719295199288e-6 -6.526627926765734e-7
5.707117903322381e-8 2.75020822929002e-6 -4.5534052470222747e-7
4.693318061564256e-7 2.142443200268727e-6 -3.6217066258642265e-7
1.0434685902636052e-6 1.2846978825090383e-6 -2.1754064808766682e-7
1.2053778303933477e-6 1.1613495265833464e-7 -1.7600919349325722e-8
1.220272875839822e-6 -4.4821604732483876e-7 7.816270240538092e-8
1.0457993577881857e-6 -1.6474443357999905e-6 2.820246930870488e-7
5.061470861515968e-7 -2.71705499421368e-6 4.6391026047211157e-7
-3.9043575308809523e-7 -3.70878416410909e-6 6.217224015596586e-7
-2.2175372935505985e-6 -5.319094867286516e-6 7.993143953331904e-7
-3.185046060778654e-5 -6.104526085685071e-5 1.500981635166382e-6
-2.1044993320322633e-5 -4.3924122496860306e-5 1.5281702785988747e-6
-0.0003151186483802214 -0.0013996660359697983 4.741310060632888e-7
-0.0003233604753748249 -0.001300463558196135 4.5190353856697986e-7
-0.00032888410068145036 -0.0012019083885277714 4.641936263241224e-7
-0.0003327155334573593 -0.0011057795374301359 4.955869522391829e-7
-0.0003426067616769905 -0.0010095234231070694 5.307556044440289e-7
-0.00034965540932676724 -0.0009132440549417253 5.76599202017177e-7
-0.0003530916452583797 -0.000820059442817712 6.324561396063075e-7
-0.0003925322732007722 -0.0004080587348911646 1.7145820475231973e-6
-0.00036166152906289353 -0.0017369288801848317 -7.328569565721307e-7
-0.0004657282854451437 -0.0017320790601974094 -1.0229898781491486e-6
-0.0005138466350848689 -0.001729374990641339 -9.401267111735034e-7
-0.0006062562862637461 -0.001717356844803582 -6.561983013562572e-7
-0.0007590207756305509 -0.0016984130017218065 -3.4271257277879983e-7
-0.000842689440286027 -0.0016644371516919493 -2.2109128714163684e-7
-0.0009394335937766965 -0.00169538193433326 -1.2666967243338103e-7
-0.0009878471125350998 -0.0016959767126082557 -8.839851988288782e-8
-0.0010838764697595506 -0.0016967197345577618 -3.497950978012061e-8
-0.0001665333051796389 -0.00016381700851764858 1.4857092877658746e-6
-0.00031564997758216234 -0.0015028924512432032 4.996399357177466e-7
-0.00020514016061970886 -0.00016339576748442184 1.3370891460863994e-6
-0.0003413544777109468 -0.00022779315368971894 1.9839469680120036e-6
-0.00040643250499351204 -0.0007236754110292401 6.430914223158779e-7
-0.00043220201214120066 -0.0004022686397435958 1.542830398748435e-6
-0.0003738817415707233 -0.0016150628010664647 -2.4497154595615507e-8
-1.1330400870189592e-5 -2.575743491136672e-5 1.4665535346984529e-6
-0.00037135069417208207 -0.001491222469230489 2.786174771525786e-7
-1.8980390382646376e-5 -4.0357496295770404e-5 1.4045484507635596e-6
-0.0003995406921367497 -0.0008132887627377375 5.814648038023122e-7
-0.00017217301273088817 -0.0001515469306987005 1.3506121607830336e-6
-0.0003639007165571554 -0.0013922755527404165 3.5526030769077e-7
-2.9674930064331175e-5 -5.562272056105904e-5 1.3662922429345575e-6
-0.00039965783287773215 -0.0009034841442573172 5.21444098956631e-7
-4.328103125185478e-6 -6.803164540000258e-6 9.185520150682131e-7
-0.0009756123229710035 0.00023656513521984197 -7.926739373926321e-8
-0.0004045054143103622 -0.00031072761986394675 2.6989632382982185e-6
-0.00041971934242213967 -0.0016799160977407043 -5.909070174191551e-7
-0.001122600161120429 -0.0015029434596410087 -1.0177092286798898e-7
-0.0011247581483765454 -0.0009879800433846995 -4.834139537355102e-7
-0.0010869467180143404 -0.0006889911205847199 -6.67053041930831e-7
-0.0010587508066123032 -0.00036276085742790315 -7.627872094903168e-7
-0.0010197123945847827 1.0856548126989373e-5 -3.2623052533310987e-7
-0.0010082375125009318 0.0002020891649608103 -8.217784100668438e-8
-0.0009055476916398972 0.00023662141299145764 -1.4338135840626112e-7
-0.0005379611463631976 0.0002105175101294959 -7.327071208962571e-7
-0.00036305035782065463 0.0001811348046205928 -9.933413366110747e-7
-0.00018386745767050769 0.00013243361023153644 -1.1339676639357545e-6
-3.6202789241837164e-5 5.012348847432575e-5 -9.851779216387043e-7
-6.389422672980593e-6 1.6692215350045297e-5 -1.1425374252226536e-6
-0.00037957954555782467 -0.0002692900501697961 2.8464677268622306e-6
4.868276538809097e-7 3.8026707205312156e-6 -4.727263829470464e-7
1.0388878436191813e-6 1.5469016223265525e-6 -1.7846010755303323e-7
-4.563590383482943e-6 -1.1404230864602263e-5 1.2392204806678185e-6
-0.0009896567640778617 -0.001649356855921766 -1.0327192414142724e-7
-0.00108367509721458 -0.001649421464311465 -5.536955343978833e-8
-0.0003750532303974956 -0.001297504059689314 3.6705750338063464e-7
-4.37229934130056e-5 -7.123737306711485e-5 1.3610130445036389e-6
-0.0003926694853587044 -0.0010086248662434377 4.6879271217929374e-7
-0.0003769886685318577 -0.001193425873412048 4.0399064915337605e-7
-6.095678105025111e-5 -8.701346678670738e-5 1.3663095825203372e-6
-0.00038028979609895045 -0.0011013068813362727 4.3888518101224394e-7
-0.0004068323690258904 -0.0002736654038759281 2.5904284931742132e-6
-0.000438033228218586 -0.00031490651125522847 2.153344789198597e-6
-0.0003827865074101489 -0.00023913380110938498 2.3319499967732167e-6
-8.684521954613942e-6 -1.997790518044085e-5 1.4560295412870785e-6
-0.0005372218575789476 0.00018150030982755724 -6.217479279822186e-7
-0.0009869517790857942 1.0555112450903252e-5 -3.044560443848254e-7
-0.0010632061247349842 -0.0009967873994608891 -3.9464361682055934e-7
-3.27240796732835e-5 4.2073084667421005e-5 -8.530441773076045e-7
-8.860279940863535e-7 4.346803575659096e-6 -3.2300065446240837e-7
-0.00036103281421100885 -0.00023442745485498627 2.21238373627127e-6
-0.00018832504912294674 -0.00015174139274497784 1.295192361768219e-6
-0.0004023229943186326 -0.0007689341615269189 6.110234116331679e-7
-0.00043590143259635575 -0.00035756461408053625 1.8952311002818132e-6
-1.4828908287632155e-5 -3.292566268874243e-5 1.4408153080155758e-6
-0.0003891256276046531 -0.0015495698212661196 1.0871914562592363e-7
-0.0010746465748176308 -0.00151255459384466 -1.109694922968494e-7
-1.0047943461988314e-6 7.33562850730768e-6 -6.933641214832213e-7
-0.0009956186553222867 -0.001608450268977876 -1.1151470621288988e-7
-0.0009049478711995179 0.0002069035453651305 -1.5987729453367536e-7
-0.0010207784367737012 -0.00036439808125664496 -6.390535931832294e-7
-0.00018291879669216898 0.00011585566287736806 -9.801264400750087e-7
-0.0001607961860343468 -0.00014727889923811237 1.3582666647034545e-6
-0.0003980772270158345 -0.0008578352852253272 5.525886973077772e-7
-2.3939747258355084e-5 -4.7987654689844316e-5 1.3806219817650408e-6
-0.00036452731319192174 -0.0014403216549790819 3.3484183455950505e-7
-3.6304166641972983e-5 -6.344885929692057e-5 1.3622288189298437e-6
-0.00040838629450108406 -0.0009542603901499927 4.800832453860752e-7
-0.00036786896807826527 -0.0013453469201414419 3.627539454583196e-7
-0.0002232270218637642 -0.0001920866102749996 1.4947641480050672e-6
-0.0003868916813000066 -0.0004543021169669068 1.2723571942779672e-6
-5.195063980704054e-5 -7.914591018612371e-5 1.3641465709342053e-6
-0.0003846977346518467 -0.001056266441944619 4.5464818358176953e-7
-0.000386204603480893 -0.0012445624601222789 3.709231222068194e-7
-6.818993242241483e-5 -8.492262897196475e-5 1.2287689981717234e-6
-0.0003770972826388461 -0.0011471321408305848 4.2254494297386613e-7
-0.001083049749716323 -0.0016029987175314045 -7.383891172522372e-8
-0.001045589333895469 -0.0006751189831634302 -5.778559917277651e-7
-0.00036215592366102187 0.00015774579837494386 -8.444450652245166e-7
-0.0009729171853913328 0.00020201434133883066 -1.0887577046831589e-7
-3.970632674157955e-6 1.2884080161474254e-5 -9.94799970004094e-7
-0.00041858475668922056 -0.001183647010897543 3.5376110543531416e-7
-0.0004270578093718955 -0.0010985882083167202 3.8198541171474686e-7
-9.54313006577178e-6 -2.3549991833317795e-5 1.3623683499319162e-6
-0.0005068465113748546 0.00017828864559052974 -6.645297970611826e-7
-0.0009869761881895573 4.027580873734933e-5 -2.675989173660997e-7
-2.741022072445037e-5 3.9768999229803016e-5 -8.943330717013339e-7
-0.0010343015362356753 -0.0009380730975998024 -3.917309318610198e-7
-8.677837213402521e-7 6.278996089430843e-6 -5.213258798995301e-7
-0.00020664565686744226 -0.00014610116081183405 1.2045853714356998e-6
-0.00034085294688714773 -0.00020247695551228677 1.7096485363350862e-6
-0.0004511551064579873 -0.0007207915352416144 5.90351553497995e-7
-0.0004697391744381568 -0.0003984474956288385 1.3445020051644368e-6
-0.0010807413483121466 -0.001557653485612823 -9.176368210229457e-8
-0.0010382011865938704 -0.0016066133316170058 -9.152117973495494e-8
-2.190100563173467e-6 9.708702689828819e-6 -8.40040460124158e-7
-0.0009393461372624338 0.0002062170561035018 -1.3112603091467875e-7
-0.0010264840754250985 -0.0003982291012899049 -6.523539646335133e-7
-0.00020002123107027784 0.00012148002079604248 -9.774718939791114e-7
-0.00017303505148980256 -0.00013997064472680244 1.2472417191151992e-6
-0.000445242235990968 -0.0008068998759309957 5.289321459818572e-7
-0.00013226024609472924 -0.00013236602065581733 1.3499019083833645e-6
-0.00041989526810528417 -0.0014709721768179141 1.4673376217920055e-7
-1.7070730374125414e-5 -3.65572130130601e-5 1.2794400863980071e-6
-0.0004112914340851933 -0.0013860472488272733 2.5504156535580296e-7
-2.777196716099639e-5 -5.018463071727075e-5 1.2335244312396018e-6
-0.000444296284808979 -0.0008882238891831574 4.7588267579743553e-7
-0.0003830404679881241 -0.0005001714069481563 1.0182177206822657e-6
-0.00043649142572721304 -0.0012602208872255355 2.9199049244787226e-7
-0.00043638051326858545 -0.0010159704905463183 4.105789982957507e-7
-8.130666309195051e-5 -0.000102492680125528 1.3648244735271478e-6
-0.00047340300600345664 -0.00031715602000850004 1.6660152475752147e-6
-0.00038470010744892213 -0.00020980651823364492 1.8510608082959998e-6
-0.001129987632890965 -0.0016008670051588546 -5.561343943967607e-8
-0.001016614370715228 -0.0006254421608440077 -5.339318409531494e-7
-0.0003258667386861803 0.00012759517471326405 -7.244135207643308e-7
-7.684914213596712e-7 6.153566856113861e-6 -7.442715215786349e-7
-1.6555655065999233e-6 -8.263700696814373e-6 1.003267735708162e-6
1.2001077393240974e-6 -9.054978875358498e-7 1.1586671502809072e-7
-0.0007798133310099619 -0.0016452202400834214 -2.784253065035212e-7
-0.0010322533794605688 -0.00019473377366797733 -6.218349022161671e-7
-0.0007693596770051965 0.00023685319213959937 -3.312688816722645e-7
-0.0011301827019814677 -0.0013085285363192505 -2.2254833869382922e-7
-0.00010840467673666363 9.781119438773073e-5 -1.0970651647592313e-6
-0.00041003626122769276 -0.00021151416699728833 1.761744982190226e-6
-0.0004731567803902583 -0.00027951017364509484 1.6557130696779884e-6
-5.668857000395717e-5 -6.8574993966471e-5 1.0809705162417228e-6
-0.0004758861334742934 -0.0013043665610631841 2.0659497519426374e-7
-4.012529749436818e-5 -5.6770193087274e-5 1.0821000924148307e-6
-0.0004894523673701312 -0.0009939025453134008 3.5667127550147855e-7
-0.000966788728941438 0.0001639059666788808 -1.4416855566556763e-7
-2.6103226182514955e-5 -4.479013084394298e-5 1.1031666352799108e-6
-0.000484382020538092 -0.000877948938085247 4.3042225570580877e-7
-0.0004779826675808004 -0.001637557793442828 -4.813721343176479e-7
-0.00020858673028195838 -0.0001289292384924061 1.0723686060305804e-6
-0.0003407914443454936 -0.00017686122163611598 1.4530315001408173e-6
-0.0004955579807352532 -0.0007190473478410256 5.296527309203256e-7
-0.0005071646289674486 -0.00039777543235747833 1.1372702056216478e-6
-0.0004734626287042681 -0.0010992326865560905 3.2335546753898726e-7
-0.00042715237841821525 -0.000492378266079131 1.0105647131399094e-6
-0.0004920988127398856 -0.0008017533592535289 4.7012272897363984e-7
-1.5351188537495548e-5 -3.267462874164562e-5 1.1531459557150696e-6
-3.6403092147836853e-6 -1.3252720462177559e-5 1.1358670724930051e-6
-0.0005211552536729795 -0.0016465968713045478 -5.448438934655238e-7
1.7613395939863045e-7 -9.707030544412687e-7 9.597873480626069e-8
-0.0007788795416647037 -0.0015908738901219664 -2.460155512122104e-7
-0.0010012380823970113 -0.00020900474546103746 -5.480972406445779e-7
-0.0007733223760951368 0.00021529507752491165 -3.098696500837224e-7
-0.0010954192270887161 -0.0013144070522146934 -2.0906470657493983e-7
-0.00011310513519555908 8.887454072590196e-5 -9.639648052878194e-7
-0.0004774934661574191 0.00017339336411163 -6.979966225251337e-7
-0.0005356339583476307 0.00015393959173135428 -5.188329581467575e-7
-0.0009860922578382983 6.948007659833609e-5 -2.3183580654012228e-7
-0.000953559097126079 1.1228125329024241e-5 -2.801953365199927e-7
-0.0010213275243351808 -0.0009791777110252052 -3.49983918529974e-7
-3.413855647806185e-5 3.487470061969496e-5 -6.740417218949661e-7
-2.4806425794524103e-5 4.200718415498852e-5 -1.0346889312774778e-6
-0.0010783417528749206 -0.0008945337452968627 -4.901289843257737e-7
-2.65942368612217e-6 4.830742651803763e-6 -2.715756089866941e-7
-0.0004664319953876235 -0.00043989397460679047 1.1483931612886357e-6
-0.0002241927383156087 -0.00015662469922100787 1.2489562067583456e-6
-0.00032060354673914954 -0.00019706942750037792 1.5832671139289099e-6
-0.00041130774101981156 -0.0006782857484766064 6.797555563780813e-7
-0.0004290063494162015 -0.001626313943878073 -3.1635294699525894e-7
-3.986423594901632e-6 1.2677065886758534e-5 -8.008127566840034e-7
-0.0009086603317371666 0.00018598964980364368 -1.6785548024302499e-7
-0.001028313621062341 -0.00043197863200562407 -6.5011286129321e-7
-0.00021762768483836358 0.00012630634365160277 -9.67415166498347e-7
-0.0009919486557564941 -0.0003714102630314298 -5.487127995448486e-7
-0.00018170668945384017 9.916775303300819e-5 -8.285638285874919e-7
-0.00014414635934197826 -0.00012496604104775895 1.2143302005530355e-6
-0.00013591226739860298 -0.0001475364351407956 1.4958758766108904e-6
-8.426308077859386e-5 -0.00011340055220652987 1.5066076925263438e-6
-7.808128681848796e-5 -9.150012326905362e-5 1.2280455320769486e-6
-0.0010569634222588162 -0.0006119479720980223 -6.446637087601434e-7
-0.00031904554927421195 0.0001457928564621198 -8.624577555858988e-7
-0.0003417214297091972 0.0001335526076442564 -7.318518561328591e-7
-0.00047183516088452335 -0.0002448142927009707 1.5240607753485588e-6
-4.18163635936151e-5 -6.408273220905244e-5 1.2224610731566792e-6
-0.0004527813167261362 -0.0009774679320701523 4.1164391606248553e-7
-5.8679919982604046e-5 -7.79363575343979e-5 1.226091389880155e-6
-0.0009951055457941703 -0.0015694167711335103 -1.205137326678042e-7
-0.000973698951169817 -0.0007001434218131196 -4.004570642838972e-7
-0.0003447031613723862 0.0001138211490369664 -5.999355598536181e-7
-0.0005370295545035029 -0.0016096908533971672 -4.1496880913934903e-7
-0.0001652447235474973 9.417449070964426e-5 -8.300352518848681e-7
-0.0009687238765597567 -0.00035299558385937463 -4.798856925641599e-7
-6.12140199471626e-6 1.4793321403094738e-5 -7.202906766129545e-7
-4.967221260450132e-6 7.439488466534013e-6 -3.4036352575769314e-7
-0.0009544369517225093 -0.0015742446424764835 -1.3777540268284872e-7
-0.0010630724031820977 -0.0014707578601181577 -1.29878782970366e-7
-0.0009794029984807806 -0.0009659427363840649 -2.9848711532665353e-7
-3.054434807237547e-5 2.8635314057898532e-5 -5.788995234372945e-7
-0.0009189734429301675 1.3073051369897595e-5 -2.539180916447731e-7
-0.0005328172150068985 0.00012742554300166628 -4.2082332860216296e-7
-0.0009922896584841846 -0.0015328420191749981 -1.287871280074429e-7
-0.0010311992286958927 -0.0015237373514241743 -1.1909140166532728e-7
-6.456786514857381e-5 -6.485896012651045e-5 9.420331291898123e-7
-0.000489375789894591 -0.0012255372902146534 2.397383732084609e-7
-4.8090718346480724e-5 -6.263990625215104e-5 1.0800274258594613e-6
-0.0004856287915339521 -0.0010533184200613736 3.303529989641302e-7
-0.0009783605522088086 0.00012938630460008146 -1.6888334113648778e-7
-0.00047402553735302356 -0.0015347231326443072 -1.0660716735623473e-7
-0.00036246623800492483 -0.00017955344522564443 1.4953231214959173e-6
-0.0001914021141361679 -0.00011809541174671265 1.017839284474946e-6
-0.0004939779650624922 -0.0007610471611466422 4.972080573986168e-7
-0.000510494091112282 -0.00035770425221445573 1.2374287213626581e-6
-7.80104856438444e-6 -2.0937093817209003e-5 1.2474071239666823e-6
-1.7217527607418604e-7 1.9415672859363856e-6 -1.4924563609487496e-7
-0.0008485802181155228 -0.0015709525522374249 -1.9553935035537978e-7
-0.0009753870355527873 -0.00022361692837012732 -4.844571203341194e-7
-0.0007968359566543662 0.00021015285349710824 -2.755227440277619e-7
-0.0010825348177001084 -0.0013493916490933218 -1.8683545218226578e-7
-0.00011706473474351603 8.253558762933398e-5 -8.733902862354516e-7
-0.0005689647012519381 0.00018334720437341638 -5.730880791779128e-7
-0.000476150414990774 0.00020080501130661978 -8.319972434374191e-7
-0.0004806312469877702 0.0001480348503685727 -5.74101013873927e-7
-0.000954247261096951 6.723421857101915e-5 -2.312663823243217e-7
-0.0010177596400235739 7.226180937649682e-5 -2.2777940558042552e-7
-0.0009865749022749141 -1.9387203769193456e-5 -3.406447110348265e-7
-0.0010710656953590234 -0.0010489613132366256 -3.687677049389373e-7
-3.879488376315258e-5 4.32848961200582e-5 -7.961695323358402e-7
-2.302260026758645e-5 3.712823936329388e-5 -9.286208504918228e-7
-0.0009938554355431839 -0.000892654767241376 -3.511034235234901e-7
-2.6163211336050117e-5 4.655849399139397e-5 -1.1497137111222375e-6
-0.0011187931735501858 -0.0008851829813998886 -5.674604897222215e-7
-0.000990192588308314 -0.0004271267209635986 -5.346401827725174e-7
-0.00019834931670674593 0.00010409351266053317 -8.273857835787586e-7
-0.0010057867464765427 -0.0003291053505589258 -5.924666664545756e-7
-0.00016626281692026137 0.00011036335322124789 -9.83804758317932e-7
-0.0010847145296181725 -0.0006051559321610774 -7.246311426150256e-7
-0.001067172866349382 -0.0004357938186589137 -7.728433928287009e-7
-0.00031308545248499403 0.00016630663841723793 -1.0225819389101607e-6
-0.00022005648504089945 0.00014451970484870598 -1.1183263717700798e-6
-9.269055569146692e-5 -0.00010946817431807762 1.3535295884940712e-6
-0.0010324657561509528 -0.0007094031981797059 -5.275355245428705e-7
-0.00038722867138732604 0.00015769295329311463 -7.916298201241231e-7
-0.0003117539031341051 0.00011870272522136057 -6.931475985095075e-7
-0.00030069181896745934 -0.00019067516714287307 1.4758510484587484e-6
-0.000417075651179581 -0.0006320160658543487 7.249880368865062e-7
-3.27351747990215e-5 -5.0892680557171984e-5 1.0919086155292667e-6
-0.0005118793252337322 -0.0009624730382959143 3.455200023095018e-7
-2.031289525739835e-5 -3.874403511370653e-5 1.1239002507517343e-6
-0.000488477535331441 -0.0008414657685976545 4.4815781414536453e-7
-6.283700909957689e-6 1.7018978422690753e-5 -9.442713607076253e-7
-0.0004646493742976105 -0.0011421598532890067 3.1413134258289935e-7
-0.00043822724773236426 -0.0002120072206144229 1.570889354959314e-6
-0.0009849956412212348 -0.0014983702415980286 -1.3704289566798067e-7
-6.323412410981076e-6 -1.840070243964358e-5 1.117146826017423e-6
-0.0005099509490674761 -0.0002427597000124187 1.1885090454173643e-6
-0.00046684450320729143 -0.00017889421586499943 1.122019853438501e-6
-0.0001728462256745383 -0.00012400235374421934 1.1105090290445917e-6
-0.00047549473840875387 -0.001478711299152944 8.200055823775259e-9
-0.00010457779838842911 -0.00011570781559733855 1.3385372834454589e-6
-0.0003191111091680115 0.0001076331205546311 -6.049248066250041e-7
-0.0009600072096532366 -0.0006521312194346705 -3.855121743150857e-7
-0.0005536272475110275 -0.0016551469038613102 -5.618667803924868e-7
-0.00018009408578435626 6.845951453178017e-5 -5.522667715863671e-7
-0.0009466194837082038 -0.0003887402103918843 -4.1021726161264564e-7
-1.4137500394343735e-5 2.58418023414338e-5 -8.33183092771672e-7
-0.0009374190500893386 0.00014197729339850102 -1.7754041834490006e-7
-0.0010342648763284302 -0.0007678492812136057 -4.93058236922831e-7
-0.00041701932105973785 0.0001540906615215765 -7.135898622307193e-7
-6.729569136240974e-6 1.1717755277221124e-5 -5.011749779203046e-7
-0.0009453470583592756 -0.000918900091178343 -2.6528654153431194e-7
-2.514472958529775e-5 2.6445211599774925e-5 -5.903641742430429e-7
-0.0009206598956353348 4.088817323104384e-5 -2.3994437613456866e-7
-0.0005069411360041855 0.0001259016433298669 -4.4226887110202473e-7
-5.47594780894774e-5 -5.8870825325468975e-5 9.307801892958639e-7
-7.537807391530971e-5 -8.10707483330125e-5 1.0971722482079303e-6
-0.000866199500169311 0.00019644917660200235 -2.00137429806539e-7
-0.0001509412225029072 0.00010536088292865415 -9.884569530717002e-7
-0.0010161606714499713 -0.000294633570430401 -6.213604593061922e-7
-0.0005261534346225003 -0.001304388434131022 1.3911149654947001e-7
-3.8480277654888357e-5 -4.949180573924431e-5 9.458983420925964e-7
-0.0005460795839758248 -0.0009791158144270805 2.92446249850661e-7
-0.0009484125937737814 0.00011965977339264339 -1.898242460439888e-7
-0.0005108437800372119 -0.0003187775115705556 1.3004673812209024e-6
-0.00038565246181890733 -0.00018122625002207627 1.4878745700632793e-6
-0.0005391069213307715 -0.000717735742708981 4.628462304845764e-7
-0.00021146843979217756 -0.00011192964226578159 9.393983349025811e-7
-0.0003406950724306381 -0.00015160630777734464 1.2242867838233477e-6
-0.0005450061147093758 -0.00040208597430191773 9.417903533229813e-7
-1.1656982289254407e-6 6.537049329259521e-8 9.677952479271182e-9
-0.0007746000391589101 -0.001545301099254867 -2.18576114202631e-7
-0.0008690808613328491 -0.0016081843348160966 -1.898619882032983e-7
-0.0010184558134065376 -0.00026375958149267467 -6.205854959754346e-7
-0.0009598012424057533 -0.00020658520145240143 -4.379885404612728e-7
-0.0008282302957566122 0.00020444779682420012 -2.3784062379915184e-7
-0.0007825156384977471 0.00018242799731416472 -2.779218434727621e-7
-0.0010474977876494737 -0.0013173063815585396 -1.9484911145010196e-7
-0.00011295544931122194 7.557598038274749e-5 -8.111769650814338e-7
-0.0010947875457287069 -0.0013864991216191904 -1.6802410383376153e-7
-0.00013694467457049507 0.00010063740103034743 -9.918593852163232e-7
-0.000448532875617493 0.0001661834107573449 -7.183367774613264e-7
-0.000983641990335695 9.887847679970073e-5 -1.9839502146236248e-7
-1.9975332684844402e-5 3.4849467145027066e-5 -9.549183261292265e-7
-0.001033007444403085 -0.0008570221769145027 -4.3539100634033713e-7
-0.0003013063325602019 0.00013377066412469785 -8.189254851640016e-7
-0.0010340063209971122 -0.0005915678420586881 -5.953999592350586e-7
-1.1761266141957847e-5 2.5077053495709108e-5 -9.423999955465325e-7
-2.4654943246799757e-5 -3.965421088561746e-5 9.803483469597084e-7
-0.0005217080150343934 -0.0008811624979421099 3.778592181687748e-7
-1.3885612113267325e-5 -2.8913422291863678e-5 1.0283716584156883e-6
-0.0005419076352862699 -0.0007989785807730964 3.995794676679668e-7
-0.0005146246506489484 -0.0011075214235188957 2.6767798766173255e-7
-0.0004580893949772469 -0.001183170657594134 3.027514410170578e-7
-0.0010735294007287895 -0.0014107635485505474 -1.5599638693154377e-7
-0.0009100132535873323 -0.0015806751583162407 -1.6225948345120458e-7
-0.000985899023635485 -5.013028140074632e-5 -3.7530405337509204e-7
-0.0006019172338735949 0.00018410723191972768 -5.229229674690311e-7
-0.001067480619064673 -0.0010802303980822798 -3.4459102608774997e-7
-5.3146463077327897e-5 5.4625134061076726e-5 -8.618603181298784e-7
-0.0005028553657664583 -0.001498020909570437 -7.550526641353186e-8
-0.0005807861924246497 -0.0016307237443115626 -4.681670760263636e-7
-0.0002726131874311347 0.00012691733871951198 -8.34126497609226e-7
-0.0010175638201613687 -0.0005381316357317853 -5.780374905758873e-7
-1.723026993780786e-5 3.0740215822887746e-5 -9.032863431968877e-7
-0.001017922503178782 -0.0012877194434268537 -1.9757957880733755e-7
-0.00010850285894926859 6.736424231670956e-5 -7.348312898009424e-7
-0.0007661874114248154 -0.001502196600086214 -1.9084471252553272e-7
-0.0007641167022838638 0.00014844473050544998 -2.6947968755649025e-7
-0.0009480444541458819 -0.00019040144103022098 -4.0218300685100026e-7
-0.0010064164215379658 -0.001451647549121583 -1.4321885004297622e-7
-2.323635199667691e-6 9.293076064154974e-6 -6.597538295869505e-7
-0.00043595320705748974 -0.0001521665055562564 1.0586412718157785e-6
-0.0005479253620498676 -0.0002837143444954967 1.0136399754499689e-6
-0.0004951840995325665 -0.00020957942526489217 1.1464911780920641e-6
-4.481107216107887e-6 5.572252015122046e-7 -1.7544875937743316e-8
-0.0010562146484213307 -0.0008062395289542094 -5.11262823879759e-7
-0.0004975939904038276 -0.001456513144089 6.6807925727978194e-9
-0.000156783373352162 -0.00011526593370812423 1.0784623471450925e-6
-0.00010834828519404343 -0.00013014931539523866 1.4983599923858346e-6
-0.0002997389843205407 0.00010471117206602729 -6.19932136985684e-7
-0.0009806994880278367 -0.0006082764120867022 -4.510934607306584e-7
-0.000351314395982832 9.061883745694024e-5 -4.4469541662540296e-7
-0.00019662972766839362 8.697669555140155e-5 -6.81075719071228e-7
-0.0009585673343932929 -0.0004212250351301322 -4.408013781202661e-7
-0.00016418086618997404 6.233333569920329e-5 -5.298526499618849e-7
-0.0009098939812458173 -0.00036157878117126514 -3.043025520845853e-7
-1.4449210867388238e-5 2.182688822964022e-5 -6.634087652981622e-7
-0.00091926408887884 0.00012985839727953582 -1.9272381842458397e-7
-9.396321728484475e-6 8.91161512812862e-6 -3.112760671052624e-7
-0.0009386014191278358 -0.000954477616287557 -2.4464624325815144e-7
-3.263544193476911e-5 2.4247511631888782e-5 -4.6785679309134035e-7
-0.0009504887473825477 -0.0008835545376185098 -2.84714853820153e-7
-2.0998570252116816e-5 2.729700585146548e-5 -6.798996864345551e-7
-0.0008842808524769086 1.6832013558305636e-5 -2.2733554460865382e-7
-0.0009223599547467456 6.690431164476926e-5 -2.261424927648823e-7
-0.0005290799190100619 0.00010279581729799817 -3.28947249602691e-7
-0.0004831551406195815 0.00012337184876560323 -4.5801473590431337e-7
-0.0008441331221214013 0.0001646042993396404 -2.230235842926174e-7
-0.00013656751780053176 8.7099123708723e-5 -8.496562309654182e-7
-0.000971693815220283 -0.00024828999319545996 -4.799466869879991e-7
-0.0004683785056673392 -0.0013443638492638761 1.8568778859597742e-7
-0.0005503722652721298 -0.0003201016558504185 1.0163951881539167e-6
-0.00022804596729613283 -0.00012148573604243122 9.92952435938731e-7
-0.0005336160375038088 -0.00044406035251442496 8.944341215195739e-7
-0.0007432401650151991 -0.0015875483535982076 -2.6717777265112826e-7
-0.0008859080523318647 -0.0016523631470672067 -1.7874889230423066e-7
-0.0009845567866657917 -0.0001867244483816081 -4.924980768001506e-7
-0.0009883687064085548 -0.00024197295669507176 -5.256015484330904e-7
-0.0008141940302444976 0.0001743477929790227 -2.465017999945079e-7
-0.0007544078533349867 0.0001977033916477285 -3.2038507879525325e-7
-0.0010753244283702413 -0.0012873996711576135 -2.1800903901974705e-7
-0.00010457572100446323 8.017865385826295e-5 -9.016973815739554e-7
-0.0001251548146027147 8.475614276063304e-5 -8.65451816766691e-7
-1.1216278480059964e-5 -2.6774803094895586e-5 1.1982968743219457e-6
-0.0010187142970141552 -0.0013994260200858794 -1.585066891018148e-7
-0.0008746766102087134 -0.0015456733354646203 -1.7661706710394206e-7
-0.0005233122586515304 -0.0014604950433861337 -3.7405250223700326e-8
-5.309541752444187e-5 -4.8783885807410424e-5 7.726105026322116e-7
-0.0004952589426214358 -0.0011858808935897233 2.5340321644802526e-7
-0.000569819561633132 -0.001293394882662959 9.551710381559909e-8
-3.634982460674178e-5 -4.229431496950267e-5 8.200253757430989e-7
-0.0005814888002080187 -0.0009954335749724668 2.382427689868154e-7
-0.0005516397242108749 -0.001119370288075974 2.1614402761017588e-7
-0.0003857015718009833 -0.0001538810381112692 1.210743159470912e-6
-7.504452503019487e-5 -7.168007865900958e-5 9.645989862258323e-7
-0.0010001199737448764 -0.0007906238642814128 -4.113326425042164e-7
-0.0004347657636900255 0.0001317808518831317 -5.642532425709345e-7
-2.3411826760323024e-5 -3.481681018498857e-5 8.65138701942458e-7
-0.0005543633435192768 -0.0008937149801896093 3.256163576041493e-7
-1.2720218680559819e-5 -2.532113194448077e-5 9.034649914329292e-7
-0.0005947593983148708 -0.0007981478364706561 3.1652307372828397e-7
-0.0003001212623446571 -0.0001687547846824569 1.324604348442395e-6
-0.0004622243620584929 -0.000630301277380505 6.737415646925061e-7
-0.0010283903324102023 -0.0010743339571422084 -3.064193272211708e-7
-5.781309855873703e-5 4.5245168453317394e-5 -6.713355038129319e-7
-0.000951357372842134 -4.733155524389664e-5 -3.258479386195327e-7
-0.0005991489267457227 0.0001522237775808102 -4.3313927990422335e-7
-0.00034045302646049385 -0.00012658541241768268 1.0170849797965178e-6
-0.0005871627693839649 -0.0006821116621400706 4.1094709776959335e-7
-0.00021559856936205794 -9.452288463018242e-5 8.017340888775576e-7
-0.0005815055634349119 -0.00041141792443926426 7.721221751572802e-7
-0.0003755272365931476 -0.0005907641066142508 8.095332269586487e-7
-0.00030165540039445594 -0.00021144305154014993 1.6020870737741207e-6
-0.0011081998150047324 -0.0010876817522093133 -3.8073952283965753e-7
-5.635575212405882e-5 6.810252695812494e-5 -1.0739569818522542e-6
-0.0010202999040196243 -5.151508726733615e-5 -4.2546908610069266e-7
-0.0006031792684095317 0.000216512673945564 -6.144267664036647e-7
-0.00014234252798572486 -0.00010997346599187093 1.073424111896922e-6
-0.00023585146870385167 0.00012963547285660445 -9.444941005002614e-7
-0.001027714417612644 -0.00046700279000670307 -6.367478468190312e-7
-0.00024248674303249684 -0.00016638933374783736 1.2919015401427451e-6
-0.0004902965634546079 -0.001435715909413579 4.921349976061882e-8
-0.00042522595999850874 -0.0013011268991258579 2.8518785435707195e-7
-0.0005959696886666704 -0.0016758878413057278 -5.714932850509281e-7
-0.0002614704264461131 0.00015230860994209375 -1.0576401885042725e-6
-0.0010681574928769345 -0.000513652073575762 -7.381333768543928e-7
-0.00011680725823299699 6.261940271792854e-5 -6.526869472194578e-7
-0.0009924446864731198 -0.0013146145793477202 -1.7943066939102776e-7
-0.0008036576900594759 -0.0014914022947669987 -1.7854739705491804e-7
-0.0007993617980587125 0.00011544531598718372 -2.2945716523279878e-7
-0.0009311852915010668 -0.00022229552116785658 -3.660385283485493e-7
-0.0005901816214676196 -0.0003182191843727772 7.930660566346604e-7
-0.00038512893546192455 -0.00012777171200868857 9.88649963227044e-7
-0.0002448456370434286 -0.00013016840993472097 1.0424551976076695e-6
-0.0005156728946002449 -0.0004850990387123827 8.508412644284132e-7
-0.0005826511771886345 -0.0002520864761686182 7.713362067977381e-7
-0.0004636531633515374 -0.00014801796144983987 9.304741942205617e-7
-5.332180061341537e-6 3.866653893847817e-6 -1.6380403845129384e-7
-0.001096403783910712 -0.0007915776024056253 -6.047434798048942e-7
-0.0004176452470224276 0.0001879264116027156 -9.02195130244594e-7
-0.0001737390943036188 -0.00010678065162507382 9.597076072194688e-7
-0.00019482427446115366 7.047718729942388e-5 -5.412477600612851e-7
-0.0009149239986156518 -0.00041488704871309477 -3.1279148374332797e-7
-0.0009330881845230777 -0.0003257608234105838 -3.7528593969219485e-7
-0.0001478827513529887 7.319285151069667e-5 -6.746047591172245e-7
-0.0008707049898187861 0.00014524524017432626 -2.0796639970536548e-7
-0.000926669312263428 -0.000287563128471548 -3.572949303552789e-7
-0.00013368223063869611 7.244252566343934e-5 -7.061952143884738e-7
-0.0009397595643370705 -0.0014950902247622734 -1.4787315947645504e-7
-0.0005713417535186105 -0.0015331511441976427 -2.2466022807618085e-7
-0.0006075478642024985 -0.0012515379162734467 8.270016180607994e-8
-0.0009691776265952806 -0.0007609592390481193 -3.651109598799215e-7
-1.6928427166254227e-5 -2.6211899741601624e-5 7.644322808021926e-7
-0.0009002184448886478 0.00013680579929970188 -1.9674237171760274e-7
-0.0002999467587129867 -0.0001465123784199804 1.1622423167723126e-6
-0.000505774142710421 -0.0006322055468434841 6.0610885442639e-7
-8.682051199519499e-5 -8.208375021394996e-5 1.0273997727843003e-6
-0.0009876132332876208 -0.0010607506353846438 -2.681050404462939e-7
-5.03349540482827e-5 3.735938453356678e-5 -5.9186347752965e-7
-0.0010630136383515175 -0.001110236566169699 -3.2067728541400285e-7
-6.542108887650737e-5 6.204783481757355e-5 -8.828930063985531e-7
-0.0009166546593646777 -4.378517874611662e-5 -2.781512405002144e-7
-0.0009843875588165204 -8.130503550006847e-5 -4.056651532683715e-7
-0.0005894491738792072 0.00012222014125786725 -3.5286709265106854e-7
-0.0006344486395997942 0.00018554891980369375 -4.786785679473439e-7
-0.0003621999906505445 -0.00012744901680816518 1.0124225967204437e-6
-0.00019903140274450163 -8.505854827143734e-5 7.429833083442224e-7
-0.0005986976807841808 -0.0007459702357682448 3.418661620049662e-7
-0.0005987957355289968 -0.000362679057722049 7.424980555592815e-7
-0.00042348546841907716 -0.0005848031930606509 7.855594260662688e-7
-0.0002809164120075514 -0.0001833788837664882 1.395802844239242e-6
-7.550246634413708e-5 -6.039165902610964e-5 8.057120410689008e-7
-0.0003393214937260869 6.497877801027507e-5 -2.977656430769247e-7
-0.0008788497394037734 -0.0006862613771091542 -1.8911396236591342e-7
-0.0006937669727081955 -0.0016037112790992442 -3.25300485673695e-7
-0.00017005202969261256 4.9327039259806795e-5 -3.984313432426713e-7
-0.0008701126448162823 -0.0003429907068837853 -1.8931891958195984e-7
-0.0005213466117760672 -0.0014214395426321946 2.296337994154743e-8
-0.0004827334202097021 9.928076136711741e-5 -3.497819203908823e-7
-0.0008954554337454996 9.142814829972435e-5 -2.1352279218029566e-7
-2.0733142986952393e-5 2.1767801270928318e-5 -5.333731408846464e-7
-6.161010295875075e-5 -4.410847184249046e-5 6.458281912287463e-7
-4.3759501117703444e-5 -4.3105577771694645e-5 7.522496339486488e-7
-0.0005896548560242314 -0.0010513894852643376 2.021489588191987e-7
-0.0009252100487862034 -0.0006178881530848871 -3.1035751318199584e-7
-1.4060969921457258e-5 1.1429168418646842e-5 -3.301687269715995e-7
-0.0005883869971631589 -0.0008525405118014709 2.970082820360261e-7
-2.8228319003917372e-5 -3.382520605708044e-5 7.441338819570892e-7
-0.0006121021177919489 -0.0009500384795900445 2.1795482211454978e-7
-0.0005647669713851847 -0.001158645022885507 1.8138911314887792e-7
-7.860618057572719e-7 -3.6215312928011343e-6 2.7319915644094263e-7
-0.00089969409370521 -0.0009478061675745324 -1.9019204217678145e-7
-3.078694236593305e-5 1.7921249658501256e-5 -3.5133254317576423e-7
-0.0008520697780402152 2.3111298154780415e-5 -2.042973575551904e-7
-0.0005441877670956311 7.662094536145324e-5 -2.2284974048903124e-7
-0.00026177308154267905 -0.00015632409214666443 1.2169502805002742e-6
-0.00011784767742411657 -0.00012368843102247796 1.341461508118079e-6
-0.00012868474557695836 -9.386700214322494e-5 9.584698647740538e-7
-0.00022050656892475847 -7.686244098774774e-5 6.620691095812179e-7
-0.00031930135762496943 -0.00010108470582998933 8.25415459920729e-7
-0.0005926194028585412 -0.0006431627307793719 4.360526886730722e-7
-0.0006145471876531601 -0.0004271535404513121 6.268502470262936e-7
-0.00026169106173433833 -0.00019399643541689437 1.446339512633516e-6
-0.001022277811348873 -0.0008213755852369937 -4.3639348892343416e-7
-0.00013895615483975596 -9.475734170954156e-5 9.34845069988592e-7
-0.0009737723564710478 -0.00014372321381683463 -4.3700572533135545e-7
-0.0007049353953462894 0.00019426897762596425 -3.890186928971927e-7
-0.0010738734313729965 -0.0012256234140618283 -2.5460222463545284e-7
-8.857618820747409e-5 7.039376485528597e-5 -8.599953460949269e-7
-0.0005824531019928463 -0.0013272830821786032 5.387943324148626e-8
-0.0005659064179266827 -0.0014670581339745025 -9.497129573714112e-8
-2.5886731264410924e-6 -1.1501827296995658e-5 9.88912438118165e-7
-0.0001151509080489511 -0.00010852360914981287 1.1793887835769348e-6
-0.00012965592253408575 -0.00011740231774797528 1.2010902372396458e-6
-0.00026256360840246415 -0.0001371618609431642 1.0854784977633222e-6
-0.00046165863368237593 0.0001205559008451132 -4.7079752561434895e-7
-0.0008966589691584463 0.00011424054098311965 -2.0674367926973557e-7
-1.777740455144466e-5 2.209984375737911e-5 -5.922273113757344e-7
-0.0009601529607635793 -0.0008485171993433134 -3.128770217026289e-7
-0.0004797505377955939 7.519185064187812e-5 -2.426700048673206e-7
-0.0008575624783950767 8.079135949311071e-5 -2.1159000657523686e-7
-1.919982369979252e-5 1.640940496136546e-5 -4.090925785504552e-7
-0.0009035933902854681 -0.000870500117162621 -2.1183276256845543e-7
-0.0009715103107645957 -0.0012884131147363669 -1.7887358311777796e-7
-0.0007760677880641983 -0.0014462608108103386 -1.5421250377563056e-7
-0.0007736472028033148 0.00011328877968356689 -2.3472131753543032e-7
-0.0009241037014604523 -0.00019050526051945856 -3.431260296899881e-7
-0.0004816915994501871 -0.0005274660232861618 8.236067660736281e-7
-0.0004979326595723417 -0.00017535360485262453 9.462691953423364e-7
-7.434127921795985e-6 -5.863726227688671e-7 2.956845433834745e-8
-0.0009598385133223672 -0.0015100801499954458 -1.422776125181658e-7
-0.0005706049056676416 -0.0012193198573362228 1.425175441302868e-7
-0.0006202337653815169 -0.0012993984614152855 3.913259133658203e-8
-0.0003697186448598434 0.00011118057732497595 -5.450790251757798e-7
-1.1581235368021905e-5 -1.8670714438952113e-5 6.496786229308787e-7
-0.0003198609536743169 -0.00014949953843228214 1.197675794312439e-6
-0.0004996650650551141 -0.0006758601575130608 5.65725756467557e-7
-0.000964696841009812 -0.001004636818629527 -2.6331727871037395e-7
-3.8826451237725046e-5 3.267516860397712e-5 -5.881922896376494e-7
-0.0009176088210409745 -1.4939431075386313e-5 -2.665538811182989e-7
-0.0005606931076717601 0.00012640529788921452 -3.901122299055576e-7
-0.00020368350104003232 -6.838488614487987e-5 6.062010304977899e-7
-0.0006318502947077198 -0.00039081592406793126 5.88307208035117e-7
-0.00017781792102886988 -9.09489218369401e-5 8.175323931824626e-7
-0.000870526478827731 -0.0006576376990908406 -1.7315010036513807e-7
-0.00031043086697302765 5.092293460166402e-5 -2.360273852807382e-7
-0.0008524608711333008 -0.0003752599843047522 -1.3390202539378193e-7
-0.0005684576505390562 -0.0014026634739873103 -8.127655856037666e-9
-5.26831736989432e-5 -3.9436369531758864e-5 6.218217625499497e-7
-0.0006406340169875286 -0.0009842753790253959 1.650781768813014e-7
-3.3900119180033705e-5 -3.6287306561653457e-5 7.227230995318571e-7
-1.7870172460270916e-6 -9.768932836052673e-6 8.307879196476129e-7
-0.00020796770496407833 5.0835760629523996e-5 -3.5512295444086364e-7
-0.000884314709799798 -0.00043198419302863344 -2.2125350344262898e-7
-0.00028835519161366115 8.708899458245793e-5 -5.161194034763441e-7
-0.0009464166588776579 -0.0005861720578681018 -3.710438937089831e-7
-0.0006514994522270591 -0.0007938815322651312 2.2483508860792319e-7
-0.0006083736372986541 -0.0009001368424340861 2.445170972594305e-7
-2.193882920620632e-5 -2.6162724215855262e-5 6.503453790442278e-7
-0.0006072362387052158 -0.0011040249189018822 1.5693837653089096e-7
-0.0008630660711398951 -0.0009131674055327157 -1.405381579635033e-7
-2.6178864419796795e-5 1.5133149737287318e-5 -3.182714308321609e-7
-0.0008227909009745484 3.583180024904279e-5 -1.8871638500509538e-7
-0.0005068930130067058 7.134087453394058e-5 -2.1331438921383414e-7
-0.00026143267622343654 -0.00017517793313325894 1.3372892351802248e-6
-0.0001153609681700824 -9.506849620953606e-5 1.0248821375853678e-6
-0.0002991490219692734 -0.00010138323864854807 8.279571936602492e-7
-0.000598840399509302 -0.0006023075526931393 4.639710952601005e-7
-0.00023962849165332317 -8.524850955928151e-5 7.164962066742287e-7
-0.0005989358154235175 -0.00046845897635108043 6.327705569234256e-7
-0.00034016467634933234 -0.00010127745969169919 8.224792376304131e-7
-0.000636162807870206 -0.0006962455351475852 3.091858195142633e-7
-0.0009711902806610421 -0.0011021664597669675 -2.3553491181733641e-7
-6.153274783150318e-5 3.677005122721453e-5 -5.230849071791086e-7
-0.0006174900912057197 0.00011408125275637851 -3.1133425118804066e-7
-0.0009143203176518655 -7.251984559231066e-5 -2.8612011520999955e-7
-0.0008751114380479798 -0.0006180860826604715 -1.8805398475758142e-7
-0.00029318309816721234 5.8779601008185027e-5 -3.0992019405387296e-7
-0.000514761179324322 -0.0005872642751058712 6.531954393652364e-7
-0.00028086169627309374 -0.00014245204485487543 1.1242390920416127e-6
-0.0001023470787064107 -8.514454612736833e-5 9.753038611361253e-7
-0.0006188194008008322 -0.0015024423091665093 -1.86521699846326e-7
-4.288741638538634e-6 -1.360345280702193e-5 8.212085458533243e-7
-0.0004455985579954176 0.00011809028774748991 -4.793846638673141e-7
-0.0009977092957680835 -0.0008326708473757411 -3.855163640501527e-7
-0.0006618645582062597 0.0001902096848557582 -4.482777848011173e-7
-0.0009809713835175033 -0.00011304680028721065 -4.284855874299179e-7
-0.0010650830636121781 -0.0011613561783368493 -2.905679368316928e-7
-7.705307762599798e-5 6.731454011032624e-5 -8.815758398251354e-7
-0.0008296379451894676 0.0001392423974256845 -2.2895920736984165e-7
-0.0009506169233339159 -0.00025999590231859783 -4.228676257315926e-7
-0.0010251336736098546 -0.0005026075814853643 -6.149626781109873e-7
-0.00025458269938815096 0.00013037873939588036 -9.022679313136211e-7
-0.00014090251525435805 -7.64068484419132e-5 7.54544675379748e-7
-0.0004100157906377818 -0.00015373140945869869 1.1531954157084895e-6
-0.0006181563526156462 -0.0016313359042351239 -4.3910342896026066e-7
-0.00042814715952355244 -0.0005377664590937671 8.749303908768702e-7
-0.0010350511209987988 -0.001194776745684208 -2.4896077131227465e-7
-7.650561335994087e-5 5.519228821749494e-5 -7.147488039627551e-7
-0.0006775525136584891 0.00016830838098665085 -3.841361809815508e-7
-0.000661404484206619 -0.001559577113373495 -2.807804046859086e-7
-0.0009445625301366074 -0.0001064922241308542 -3.5349170065485493e-7
-0.0005657463332706693 6.975864860059172e-5 -1.9375142190371292e-7
-0.0008421074848215383 -7.855416228477347e-6 -1.909704065744459e-7
-4.346545880960189e-5 1.6493925557492725e-5 -2.7631934996524523e-7
-0.000884601544280018 -0.0010603585286322159 -1.5269271760723925e-7
-3.6335636628980764e-6 -8.87427840138029e-6 4.950829349782816e-7
-0.0005279821498763192 -0.00021942038027195142 9.818603544315735e-7
-1.5474589152439224e-5 7.261876784187213e-6 -1.9408556642405182e-7
7.434638981826508e-7 -3.6980052881501905e-6 4.397226855304323e-7
-0.001103794239229377 -0.001191949413635189 -2.955505135020127e-7
-7.919751338405843e-5 8.028038730995097e-5 -1.0561093976858045e-6
-0.0006757364359078795 0.00021862510972415025 -4.79393961735192e-7
-0.0010183568789447679 -0.00011868459309639147 -5.119668345491423e-7
-0.0006680787055780477 -0.0016379591090851509 -4.0019126947580703e-7
-0.0008498500462452254 -0.000295169562697212 -1.3855604690474606e-7
-0.00015698608029714436 3.9233736815881754e-5 -3.2846108611059925e-7
-0.0003737068865319782 4.0690043949300184e-5 -1.1867833944563142e-7
-0.0008764062820418025 -0.000721847710710439 -1.813357256080737e-7
-6.97057251674392e-5 -4.658402119335175e-5 6.448753618914835e-7
-0.00038460472916937286 -0.00010283999611450046 7.998953811400314e-7
-0.0006403142822997757 -0.000338825075456164 5.666201746061761e-7
-0.00011838822365848521 -8.203613217765841e-5 8.700422277538119e-7
-0.0001275463480856478 5.720051287986475e-5 -5.646477704185908e-7
-0.0008252420411910794 0.000110841826625983 -2.2102078215661918e-7
-0.0009259317604580611 -0.0002549745222131551 -3.545880951639326e-7
-0.00024759535380277476 0.00011058417321228895 -7.641086027250881e-7
-0.0009840637433103764 -0.000491765079433917 -4.996684460096716e-7
-0.0005963790237166159 -0.001587116969435149 -3.5121976014132906e-7
-0.0006357991996618721 -0.001603292535320796 -3.694493397668564e-7
-1.2294280550443833e-6 -7.997239104491672e-6 6.628950296154556e-7
-0.000944157964874358 -0.0007946297067502799 -3.0333236003707663e-7
-0.0005577197576800765 -0.0005947542306612585 5.592162447129911e-7
-0.0002998131941180416 -0.00012402788844585272 9.952751827940282e-7
-0.0005277212134121595 -0.0005425248301153062 7.019290927673115e-7
-0.0009265674192491963 -0.001081527614754492 -1.95313054538816e-7
-5.4865513406393405e-5 3.104782599287369e-5 -4.675012987234135e-7
-0.000880947106628281 -6.795857280229652e-5 -2.342220142961362e-7
-0.0006012932329112055 8.641369046543177e-5 -2.400642443882809e-7
-7.62929318135611e-5 -3.9223705792339646e-5 5.210146173965849e-7
-0.00040651666195473234 -7.709733942453135e-5 5.969460977842448e-7
-0.0006750395622886347 -0.0003234599483807273 4.2797820683087384e-7
-0.0009859171008338595 -0.0012612166076350795 -1.932211089095854e-7
-9.664128377305642e-5 5.893425077033584e-5 -6.807604654535185e-7
-0.0009289821877476153 -0.00016256218724245976 -3.471645988393674e-7
-0.000466824607292279 -0.00048239303355780694 9.75876604109157e-7
-5.5668067643392276e-6 -3.8580545614067446e-6 1.778557758957671e-7
-0.0006111036164042178 -0.0012130942340175125 1.0068708490119796e-7
-7.676286245602585e-6 -1.7658970629325608e-5 7.968975734711036e-7
-0.00018293228895107237 -7.528308914761292e-5 6.796621971213065e-7
-0.00016983605272915907 2.7038407464422928e-5 -1.9973832388468255e-7
-0.0008327428303591709 -0.00032643713950595925 -8.177917078654949e-8
-1.4681703973642476e-7 -6.073781598122288e-6 7.397126236141086e-7
-0.0002469498754876693 -0.0001130076965628569 9.179526608475945e-7
-0.0005473089299464249 -0.0004992536055654749 7.351930400516059e-7
-0.000636796987884686 -0.0006084551683169847 3.7472527178002885e-7
-0.0002971293310927593 -7.890953578815061e-5 6.650384247655975e-7
-0.0009941229867344525 -0.0011659791759089605 -2.3218083597988286e-7
-6.8891584780783e-5 4.121202828632257e-5 -5.543376236953578e-7
-0.0009095936193260158 -0.00010037911817065178 -2.8743451922176335e-7
-0.0006650776914730014 0.0001227716470199119 -3.009895600684447e-7
-0.0009691831213728546 -0.0012047085827460106 -2.0030396945963214e-7
-7.741979481503242e-5 4.4537712471384716e-5 -5.664475472760029e-7
-0.0007016670053668305 0.00014078440333014394 -3.0867560414983406e-7
-0.0007078135475823809 -0.0014938214714068714 -1.886794207677131e-7
-0.0009027920977272869 -0.00012810789398996135 -2.817512767016181e-7
-0.0005539183874876272 4.675502256033039e-5 -1.1295193389664756e-7
-0.0005879874112869237 6.198305804760286e-5 -1.6715148060908777e-7
-0.0008508256125552045 -3.86733951041985e-5 -1.942917404905593e-7
-0.0008120572737767231 1.2452348826499792e-5 -1.7186530287706285e-7
-4.8822194135161886e-5 2.4114554973919555e-5 -3.8367973496412466e-7
-3.3894456838741245e-5 1.4842967230477287e-5 -2.7534462785772645e-7
-0.0008648984993708421 -0.0009958860501582995 -1.3552358607370703e-7
-8.022150702371317e-6 -9.27410186351165e-6 3.664274322357567e-7
-9.101512614730422e-7 -6.0588721621721876e-6 4.81925847374711e-7
-0.0001322715407098946 3.5983440285161754e-5 -3.386272445342596e-7
-0.0009077924784553697 -0.0007739791583956238 -2.397464135607061e-7
-0.0003961630289425835 6.04341248899582e-5 -2.2017146304127245e-7
-0.0003268247187206254 4.334169675747646e-5 -1.6948552899084993e-7
-0.0008493116785729171 -0.0006862592160630907 -1.243784696896728e-7
-0.0006082113919652716 -0.001358672663098133 1.2258344170300323e-9
-8.239054803070731e-5 -5.4279107904049526e-5 6.923983180223239e-7
-0.0004072804016443767 -0.00010223287437655622 7.641417875701502e-7
-0.0006277764982338616 -0.0003080642977798695 6.118685847929864e-7
-0.00024210634941360993 9.220742252369212e-5 -6.319676447963567e-7
-0.0009503368932352974 -0.0005130552991474536 -3.988164913121391e-7
-0.0008809346976474046 -0.001453659151534379 -1.555810203205703e-7
-0.0009456765334675474 -0.0014133833535039226 -1.5163833715379673e-7
-0.0001479183515457646 -6.673489476172001e-5 6.517729555516287e-7
-0.0006476041638275202 -0.0005719343035621252 3.8120098554061446e-7
-0.0002774629778784765 -8.107916237051376e-5 6.811556001355176e-7
-0.0006901087220566764 -0.0005866490835647812 2.669031514148117e-7
-0.00029270841738522434 -5.858429239742581e-5 5.194453817207469e-7
-0.0006174321419035198 -0.0014194535069412748 -7.176196269276863e-8
-0.00016198098678321885 -7.964900685014618e-5 7.45481686923703e-7
-0.00017323270428568576 -5.073294236938985e-5 4.805715789183165e-7
-0.0006490962979640244 -0.0011763769058411209 7.773696968083048e-8
-0.0009263892121230719 -0.0011829101561880294 -1.7449895246406962e-7
-7.114383044433964e-5 3.237111704916309e-5 -4.240879378920316e-7
-0.0006817971727059508 0.00010023661979554753 -2.4671964102735175e-7
-0.000868388225933929 -0.00012085471153452472 -2.1373768005920753e-7
-6.682607358878116e-5 -2.6434258513731924e-5 3.746208239217723e-7
-0.0006719901247921157 -0.00038534286972948987 4.409529627381765e-7
-0.0003678373716139652 -5.426205366039886e-5 4.761211239154846e-7
-0.0007398283346229019 -0.0015143441096789941 -2.0540610828164277e-7
-0.0005762401962872757 3.931919233246759e-5 -9.193364942276451e-8
-4.9235324927727545e-5 1.2542874287361084e-5 -1.9738891586646383e-7
-7.332498285492575e-6 -1.2086941994567415e-5 5.085965899360717e-7
-0.0008622396901784021 -0.0007626029899442623 -1.5187689033722997e-7
-0.0004046564025182692 3.245290238426198e-5 -5.647723285003958e-8
-0.0009173474288041845 -0.0013872382287735373 -1.5076259437201128e-7
-0.00013016374989870447 -6.40750499659182e-5 6.561859743671692e-7
-0.0006607032262038882 -0.0015037426143918145 -1.983340103391143e-7
-0.0009050399537087885 -0.0011208649910877868 -1.6615077147227972e-7
-5.882021532258793e-5 2.5014033616707015e-5 -3.611449316385171e-7
-0.000849944542093347 -6.381579419150042e-5 -1.8849002710540113e-7
-0.0006238621140072159 7.531875540865281e-5 -2.0493262141529856e-7
-9.519524559298783e-5 -5.248337678838709e-5 6.222367690591455e-7
-0.0008930419100229832 -0.0008126990116776901 -2.056874153063755e-7
-0.0004248161481610172 5.969152543774775e-5 -1.978280090332635e-7
-0.00042948511876701446 -0.00010085084596435582 7.16812349173136e-7
-0.0006196446759089026 -0.00027711570347172513 6.283043781910788e-7
-0.0002995136119770407 3.0690205477281904e-5 -1.0750204728007368e-7
-0.0008469560558080192 -0.0006051473659091707 -1.2037237807544836e-7
-2.366183272477556e-5 6.320897784019986e-6 -1.3270587754679627e-7
-0.0008195459049393116 -0.0002783490427744288 -5.537920556011148e-8
-0.00014579977067376483 2.7489341896150413e-5 -2.356641488983736e-7
-0.0006348172560689883 -0.00048129736192944534 5.046817400714473e-7
-0.0002401792271467398 -6.393994395870349e-5 5.576012142188014e-7
-0.00011676884031522083 -6.696677342417446e-5 7.162549706687974e-7
-0.0002632600692315533 -0.00010023624024779817 8.209159623964965e-7
-0.0006208152065241431 -0.0005222460229053984 5.007815350841144e-7
-0.00012575906248326468 -7.055677863480504e-5 7.299579163543455e-7
-0.0008024800444857196 -0.0014264094249778873 -1.4646610628000805e-7
-0.0006629925344878808 -0.0010831290494256504 9.997865302719359e-8
-0.0002801026438201569 -0.00010107958174960796 8.255521517958948e-7
-0.00033029865262803557 1.575615186965201e-5 1.4678712958102263e-8
-0.0008021011510361438 -0.0006766719715730678 -2.196696438593672e-8
-0.00019652762995540677 3.1002038844807436e-5 -2.050715751850805e-7
-0.000808363100914207 -0.00040734897737731925 -1.5983846728092199e-9
-3.156315370986308e-5 6.991672675512413e-6 -1.294887339800379e-7
-0.0008152869668893418 -0.0009842431586166416 -6.922271121171747e-8
-0.0007910514079507536 -5.88246871503444e-6 -1.4383146956159832e-7
-0.0005430406786322629 2.2962052188397655e-5 -2.2320954582507976e-8
-1.737637373433459e-5 -1.545696396442034e-5 4.231647121070461e-7
-0.0006552337684324514 -0.0008862194789627844 1.8122805755666797e-7
-0.0008565077956308183 -0.0008789580871558702 -1.3334389782427876e-7
-0.0008343908289294487 5.417991127040322e-5 -2.0092781945929161e-7
-0.00047318506502607913 5.321307490214287e-5 -1.4379889569990265e-7
-0.0003404890417280865 -7.466111542007832e-5 6.284370480779439e-7
-0.0006846108806156056 -0.000676616333830704 2.2567694029482394e-7
-0.0008334844982629563 -0.00024374405336011342 -1.0521149821569312e-7
-0.00012498458163084762 2.026814758994199e-5 -1.8792080150042436e-7
-1.8171246138787818e-5 1.514319834488466e-6 -2.9006550918711276e-8
-0.000661995812310669 8.28909016584767e-5 -2.1742714975760812e-7
-0.0008827414823009796 -0.0011623601122886075 -1.4136846998890377e-7
-6.693438603785337e-5 2.1699727108030727e-5 -2.90472544381203e-7
-0.0008443986893363962 -8.776036897573691e-5 -1.7483123453408454e-7
-0.0008068059895438738 -0.0007510271352002226 -4.158171000014031e-8
-0.0004106420167140984 1.1742832466701879e-5 6.13981560375137e-8
-0.0007910746135399622 -0.00026394888995570284 2.2924844666985306e-8
-0.00014194994154629082 3.852190634458705e-6 -1.2482963031861683e-8
-0.0008215803462388005 -0.0010804183631996352 -8.109459388987203e-8
-5.568413475013623e-5 8.785440221451172e-6 -1.2883764217867263e-7
-0.0007860584052979941 -5.159019827762154e-5 -1.0407831674221694e-7
-0.0005982617846712105 3.132180836162786e-5 -7.470755977752349e-8
-0.0006720368903228283 -0.0004930380522137549 3.8217341383191773e-7
-0.00023997699262784313 -4.836692372984681e-5 4.406609322065538e-7
-0.0001190650109617301 -5.536036942413108e-5 5.896356501867638e-7
-0.0006897582844580531 -0.0014469060442419857 -1.386527674353581e-7
-0.00031383418615582294 -4.692727043500366e-5 4.372338405839748e-7
-0.00019291308697076372 -4.402312352729744e-5 4.1479003800513773e-7
-0.0006936205437150794 -0.0012427854677646883 3.886474348807482e-9
-7.699892888736755e-5 -2.9611895856865285e-5 3.93514168733922e-7
-0.0006943155095259037 -0.00041722863376497015 3.547967809571178e-7
-0.0006891335125814724 -0.00035143215973677604 3.8171164700395785e-7
-0.00040353627095384396 -5.010907105153814e-5 4.283949936445527e-7
-0.0008818228553883786 -0.0013591183357649886 -1.4276447876553385e-7
-0.0004787806487541168 1.7962673664799788e-5 2.1074210927051446e-8
-0.0008087581187368602 -0.0008898663029400354 -5.645222448305336e-8
-0.00020626916206027742 6.145472163292086e-6 7.51526317291455e-9
-0.0007673721799204006 -0.00041276997259665296 1.220715912623018e-7
-0.00029011697132056173 1.0946741385857999e-5 2.404536651068569e-8
-0.0008160502910278956 -0.000596485766825953 -4.423179443184202e-8
-0.00010812357251593591 -4.7935514830423824e-5 5.3434410431248e-7
-0.0002236441087074076 3.990530248448425e-5 -2.4797117957753746e-7
-0.0008575908408689309 -0.0004661042482033073 -1.4272334190668042e-7
-0.0002826437524384435 3.846083853424679e-5 -1.7735462129954708e-7
-0.0008619195559026261 -0.0005752500133267502 -1.566686939971193e-7
-0.0008694326853308006 -0.0013986859588299197 -1.4543345990821612e-7
-0.000882793801018574 -0.000841873583931596 -1.8254052221411215e-7
-0.00044962325975688187 5.7530859582982735e-5 -1.7355124917125401e-7
-0.0006519489308482292 -0.00026905330914037123 4.873677338418834e-7
-0.0004736324397388939 -8.728805883477506e-5 5.515459625572688e-7
-0.0008233859020112863 -0.0014030012226405385 -1.404118998380445e-7
-0.000670341788433213 -0.0014102479659842146 -9.46283593085096e-8
-0.0007739042205557152 -0.0006234916276022496 5.120924735385759e-8
-0.00030642822852199633 3.6550743668021986e-6 8.40893965007083e-8
-0.0005066883804844227 6.788946045999991e-6 6.057327716547794e-8
-2.861747298869624e-5 2.137652736772603e-6 -3.387668435217579e-8
-0.0007878400158899503 -0.0009322436725736984 -2.7490587034890285e-8
-0.0008229361544422767 -0.00013714589977026147 -1.1640648031425246e-7
-7.969605778890356e-5 2.578829510341868e-5 -3.1534248335367487e-7
-0.0009063707792320181 -0.0012250778273481245 -1.545431529032216e-7
-0.0007007725927212445 7.988381970647285e-5 -2.0742442477380406e-7
-0.0007675591960052277 -2.117907097341548e-5 -1.0729826572281331e-7
-3.5424856591816804e-5 -9.852902983074303e-7 2.4959679937778012e-8
-0.0008041824229675392 -0.0010227403603166592 -5.638650350547492e-8
-0.00037973700954298706 -7.543185160526158e-6 1.7470566431991122e-7
-0.0007711074023258795 -0.0007141082741690026 3.573053912996314e-8
-2.247173951416795e-5 -1.8406622460741072e-5 4.4338756151017233e-7
-0.0007086544909573498 -0.0009163862688080086 9.176405631319953e-8
-0.00069012811230811 -0.0008361833976457562 1.4473680141181e-7
-1.3977271823562023e-5 -8.750862709584176e-6 2.6507113728343133e-7
-0.0006881929595415804 -0.0011467266383371761 4.7916840054957675e-8
-0.000665847339264716 -0.0010535493403308262 1.0773616070402541e-7
-0.0007562532223110301 -0.001403931459733591 -1.2451293508067068e-7
-0.0006104445377706447 5.2523117120593035e-5 -1.4124396601320458e-7
-0.0008628153470364789 -0.0011005907195578643 -1.2570802504245476e-7
-5.378256570049833e-5 1.9337681920631184e-5 -2.918310596588336e-7
-0.00015743207042311937 -6.900185817239198e-6 9.461855632152178e-8
-0.0007740372932956939 -0.00028699593974108195 8.378436652528944e-8
-0.00022761584896224823 -4.198968133031923e-5 3.9179094364996864e-7
-0.0006862325547056509 -0.00045352155550084055 3.642524602164884e-7
-0.000738762938840026 -0.0005769101753131153 1.524050435812634e-7
-0.0002939597918883984 -3.286430448046844e-5 3.3635790025965407e-7
-0.00017839297044254494 -3.643935090051631e-5 3.555898243075932e-7
-0.00020801204986799264 -5.166171395779563e-5 4.7087574374541124e-7
-0.0006748472184610114 -0.0012942699847228875 -7.041422615359665e-9
-0.0007322333854904599 -0.0011992472751389215 -1.4163061093567015e-8
-8.703119008796348e-5 -3.4436380898160696e-5 4.3057766175676265e-7
-5.7285383223618154e-5 -2.5140583691847033e-5 3.820471881704074e-7
-0.0004341588342403926 -5.0560493962751254e-5 4.053254340222981e-7
-0.0009361964746013096 -0.001291742582480626 -1.635997313270443e-7
-0.0007646349632737267 -0.0003774983173996557 1.327596533994418e-7
-0.0006452421297595801 -0.0002428543913512862 4.866118497623174e-7
-0.00048494437803047217 -0.00011246596450945603 6.590736484404047e-7
-0.00011076718826683054 2.4110358283033603e-5 -2.432659619419869e-7
-0.0008158057858905246 -0.00021020153209703947 -6.908636197642054e-8
-1.6009473172203542e-5 -4.553015412288836e-6 1.324215258516196e-7
-0.000740726180198298 -0.0006454964637024269 1.194663004186423e-7
-0.0007611712047438735 4.489076599042916e-5 -1.6822635561852504e-7
-0.0008108820109985973 -0.00016553816853488127 -7.553642324076748e-8
-8.814469781489503e-5 2.652303146011552e-5 -3.073338217476187e-7
-0.0008904145256538372 -0.0012663925405082832 -1.432603001244654e-7
-0.0007187022559270297 5.8279497148103353e-5 -1.7457658272459717e-7
-0.0007487999739758688 3.6442856409849396e-6 -1.1570237074944159e-7
-0.0007684583897515501 -0.0009751876438472914 -4.649037740158337e-9
-0.00035374775225631715 -7.845724481320288e-6 1.7549723567396975e-7
-0.0007648714290914848 -0.0006585828881327632 6.21059028863863e-8
-2.760499879070319e-5 -2.0662503140181177e-5 4.4799226366457695e-7
-0.0006873746594911352 -0.0009913054406048647 1.0045002753358722e-7
-0.000709065362811688 -0.0008739945065431235 1.0293586220614272e-7
-0.000710637958440463 -0.0010823814606032104 4.4612148686394516e-8
-0.0007027684844267554 -0.0013844843225371566 -8.913504470344867e-8
-0.0007836292029011953 -0.0013979397971735016 -1.2889913799026496e-7
-0.0008606994692862256 -0.0012058100411272506 -1.2271108462318118e-7
-7.346336445494311e-5 1.742779083385845e-5 -2.2008987775056408e-7
-0.0006802064123222623 6.442731303052804e-5 -1.792420708138269e-7
-0.0007859455825013963 -0.0001242020836564723 -4.4976234083275264e-8
-0.00011146257845331788 -3.645112706820619e-5 4.051087524050858e-7
-0.0008795158681088993 -0.0005429676484027862 -2.022068299794175e-7
-0.0002657878994401514 4.59714668420555e-5 -2.4885120868878967e-7
-0.0002400253231497385 3.266587039398702e-5 -1.74643742191252e-7
-0.0008563354197003517 -0.0004975893862764372 -1.39291320889277e-7
-0.0008532181433706607 -0.0008033146528894887 -1.3387861025912894e-7
-0.0004255053117250301 3.583333859550847e-5 -6.955744437779563e-8
-0.0006744037353256607 -0.0013533300185951632 -4.748464945371108e-8
-0.000767202175232357 -0.0008459534374205713 1.6199369277055577e-8
-0.0004506243603381598 1.5513189699172934e-5 3.883567249217913e-8
-0.00022420393961506104 -1.8678290210132062e-6 8.103934208183455e-8
-0.0007694006201196329 -0.00044679444031637427 1.1076226824916802e-7
-0.0007954374931362249 -0.0005529398474031846 1.592794267066695e-8
-0.00028247912212019685 -7.661114101762286e-6 1.5269824669808308e-7
-0.0001269625559733804 -7.906767345740375e-6 1.0167738219445683e-7
-0.0007651031828302272 -0.00024517651043646225 9.068859483052839e-8
-0.00027166288774073464 -4.300445963796808e-5 4.0531517320765504e-7
-0.0007222394910317764 -0.0005475692810872361 2.0828316331234398e-7
-0.0006414684001079135 -0.00021634271174499265 4.636287665079522e-7
-0.000512485104222439 -9.863799923294983e-5 5.233509239016849e-7
-0.0007288962178421606 -0.0004183810891816622 2.4184137845788904e-7
-4.905454322592983e-5 -2.6375044760114022e-5 4.303092522056072e-7
-5.483151043655769e-5 -1.5008622011651036e-5 2.33822917757868e-7
-0.0008627273869485393 -0.00026681251613120587 -1.803252034866455e-7
-1.2850022491499754e-5 1.0309280433210402e-6 -2.267360918796865e-8
-0.00013812680260061913 -1.1505407841839733e-5 1.3612414100917577e-7
-0.0007475402589060705 -0.00026800361221095744 1.5717887879924223e-7
-0.000780386484492044 -0.0003323133217249568 7.862473819381769e-8
-0.00016811410223246053 4.191694318143125e-6 2.221231175775363e-10
-0.0002524306119635683 -3.996363055745094e-5 3.791780277490937e-7
-0.0007064230194819556 -0.0005045371695956861 2.7500162377815506e-7
-0.000682449904736496 -0.0002606312966318379 3.6757099667555315e-7
-0.0007059866037796871 -0.0003099364592254938 3.136493096032039e-7
-0.00045839521992929315 -0.000120825275094956 7.771628096594443e-7
-0.0006147384256292315 -0.0002483206864607532 6.172029773398968e-7
-9.20615495647709e-5 1.0342817561671385e-5 -1.0678447442096759e-7
-0.0007926083004262305 -0.0001891336342947995 -1.8144867481044194e-8
-0.0001279334574946103 -3.465885784478777e-5 3.68412283099656e-7
-0.0002565715694039187 2.57869791476373e-5 -1.0783274291991678e-7
-0.0008224557265630127 -0.0004914729516811792 -4.610838540403035e-8
-0.0007598011604408782 -0.0008826541483433831 2.1381967099267476e-8
-0.0007652548505911896 -0.0008076405460744376 2.7001165048049705e-8
-0.0004296045838462424 -5.5273319203322234e-6 1.5527026351860388e-7
-0.00047137310952083075 -1.1468000781759924e-5 1.6647510751381863e-7
-0.00020181897361094174 -1.0895109589320228e-5 1.4428131412943573e-7
-0.00024853106480758597 7.1458928343170695e-6 2.5877060051278217e-8
-0.0007967407067734806 -0.0004800770884557213 2.6697172913509234e-8
-0.0007809896861876789 -0.0005083349573008402 6.499455363544915e-8
-0.00026553666887090606 -3.882602902190325e-7 9.16089121362445e-8
-0.0007814102886601692 -0.0005875141711664046 4.251353265700185e-8
-0.00030006716184949247 -1.5184850450341747e-5 2.1302730831390212e-7
-0.0001121762811694632 -7.894456181518707e-6 1.0355889327797815e-7
-0.0007701037411929057 -0.0002080018610257845 5.23278479704234e-8
-0.0007220232543179972 -0.0010011154364947443 5.2664927074478874e-8
-2.8092351727917992e-5 -1.4243653758464606e-5 3.0793973085282783e-7
-0.0006848698879799354 -0.0008081224258019151 1.6337823985961437e-7
-1.2492343988531705e-5 -1.2273347426554056e-5 3.9471087738407266e-7
-0.0007498918727425617 -0.00011826976248247077 2.525311523221114e-8
-0.0008183066762829165 -0.0011862594251093436 -8.714306619011278e-8
-6.764524821684678e-5 1.263738725008636e-5 -1.6583905111175388e-7
-0.0006624757400640178 3.0232440869727482e-5 -1.037030582144933e-7
-0.00047705614071186524 -4.907193928777574e-5 3.477788191480848e-7
-0.0008761502782919644 -0.0013013485201655369 -1.3674536822952106e-7
-0.0007308501572333152 -0.0012826584263940844 -4.4717344824719664e-8
-0.00019747449008111173 -2.788084213223871e-5 2.820986081872768e-7
-0.0007818649095523561 -0.0010615891064674834 -3.368019169256748e-8
-0.0007459550591167064 -5.6778930961845656e-5 -4.163715592713036e-8
-0.0005984999719252305 -3.651315072935191e-6 3.026086021769169e-8
-0.0004133352011290118 -6.522333749468515e-6 1.6455031619029446e-7
-0.0007549202730393825 -0.000772099185676174 5.3928514319951545e-8
-0.0006939903827100476 -0.0007622084358829127 1.6691188307043103e-7
-0.000745806870021795 7.81434283322541e-5 -2.0327905691206268e-7
-0.000802643322190158 -0.0013291567289540754 -1.075427836979409e-7
-0.00010015769809929264 -2.8762923553945576e-5 3.3872498214979997e-7
-0.0007666653669827143 -0.0011996099148462115 -4.5402995695712974e-8
-0.0008480839508413102 -0.0001873059115072644 -1.5825998220864693e-7
-9.933038259552865e-5 3.80393670768434e-5 -4.2226644099465955e-7
-5.4974627676499886e-5 -4.233754052872727e-6 6.678442001139853e-8
-0.0007996083958885662 -0.0011228051314418693 -6.222164720141718e-8
-0.0007512492628282478 -8.803076321963228e-5 -1.2021127644154196e-8
-0.0006417843889165307 7.4419719996485475e-6 -3.758732276191223e-8
-0.0007135864691040112 -0.00027546019852901104 2.7138266588333807e-7
-0.0006087868297227972 -0.0005622335545243496 4.8536413582815e-7
-0.0011297882584446245 -0.0013969936106236459 -1.6116913882049917e-7
-0.0010493867990575988 -0.000261092063000622 -7.152092158618673e-7
-0.00013628185635390733 0.00011356271051432968 -1.1364230720594046e-6
-0.00025874619105045423 -1.9068052421843357e-5 2.2614103779133957e-7
-0.0007538637601918567 -0.0004906508047471861 1.4496267999657555e-7
-0.00024965146459184296 5.2282126785243395e-5 -3.140503916045578e-7
-3.6688886744108404e-5 -2.1290176057527804e-5 4.010464864065006e-7
-0.00021253870957397574 -3.480162754780546e-5 3.3677477795038233e-7
-0.0007078081343928756 -0.0013215621922028898 -4.902775487387783e-8
-0.0007787059150382552 -0.0012967388725960908 -8.221168566016791e-8
-0.0006395247143308088 -0.00018926233709361012 4.2305182052739946e-7
-0.0005388521744269005 -7.788289566168657e-5 3.7591433544493104e-7
-9.291224879925829e-5 -6.9286851897494e-6 9.726554089715949e-8
-0.0007668590482908313 -0.0001750497545666311 3.846517152601144e-8
-0.0007574742751188647 -0.00035065115489612756 1.5391450400623637e-7
-0.0001698221357865523 -1.593476741055394e-5 1.7866541287588498e-7
-0.0007936635787292563 5.3716358591270066e-5 -1.8701736887917348e-7
-0.000135342179680714 -5.500923429430619e-5 5.595239176905919e-7
-0.0007130086193987212 -0.0009559886747032492 7.554303184009086e-8
-0.0006656094467628979 -0.001012480932306519 1.2200884510042403e-7
-0.0006158621785746936 -3.350632908364557e-5 9.742426243704034e-8
-0.0007017296356202779 -5.4307692530419465e-5 2.1003360509365683e-8
-0.0005187843565395986 -5.417269627385054e-5 3.135863401479813e-7
-0.000457481697904672 -3.3467981524552935e-5 2.888846223883027e-7
-0.0008329965759087393 -0.0012902101259279995 -1.1328283780116262e-7
-0.0007884995765912797 -0.0012354259065647981 -7.152755096452225e-8
-4.385209124418104e-5 -3.970582570429149e-6 7.06387543780462e-8
-0.00014058120399688216 -4.42387250591496e-5 4.498985896220454e-7
-0.000734454997061085 -0.00019334047461575467 1.4039625351259342e-7
-0.0007444378921552565 -0.00014487084246605405 6.582355716719757e-8
-7.904944361431173e-5 -6.581541858588471e-6 9.3836290801275e-8
-0.0005612301786780878 -5.6097725015350336e-5 2.521045722946956e-7
-0.0006992171996352755 -0.0002339460387366478 2.8701546239332974e-7
-0.0006004799691254287 -0.00015942594797757677 4.852782025905764e-7
-0.0005600661131624596 -9.816058465012315e-5 4.0510849856968944e-7
-0.0005806499922788283 -3.652614220959662e-5 1.5570862037143152e-7
-0.0006644176644059064 -3.446853553139296e-5 3.6101940625361416e-8
-0.00045817250566838815 -6.615543067015865e-5 4.640111472377336e-7
-3.231266982592187e-5 -8.393652797792714e-6 1.7310111256699265e-7
-0.0009311717960484218 -0.0005332207409634327 -3.422967725909801e-7
-0.0002596426003192789 7.675450463993865e-5 -4.853164649578854e-7
-0.0007813936855343126 -0.0011652484363210514 -5.1546955533026565e-8
-6.720859466429345e-5 -6.900537934229897e-6 1.0032486881588468e-7
-0.000133152390918614 -2.3949307617080172e-5 2.5917093281921686e-7
-0.0007170326597974914 -0.00011658556552660678 9.2432104823401e-8
-0.0009432694028207247 -0.0004877706603729168 -3.8383614976843187e-7
-0.00022444120298387445 7.456436646254138e-5 -5.234775604012173e-7
-0.000541428771768012 -3.647447625140057e-5 2.0722001742318926e-7
-0.0005299249842794767 -0.00012788756766836563 6.027398838762622e-7
-0.0006009967460777241 -5.2609932824147886e-5 1.752102850595514e-7
-0.0006824996486494488 7.378073066892424e-6 -6.878899136760219e-8
-0.0006626300026384292 -5.195413173380405e-5 7.630863132153178e-8
-0.0007037532692440903 -0.00021466052320626047 2.524749840315423e-7
-0.0007564108290265009 -0.0011046756681327198 -1.3436011020960416e-8
-0.0006160656298081037 -0.00012644446527807578 3.5183413937242453e-7
-0.0005864294034187796 -0.00011347942265963359 3.9201658486656286e-7
-0.0006723763882777519 -0.00018916565728519994 3.170242788809171e-7
-0.0001590944883961494 -4.1462774337109803e-5 4.084357111193717e-7
-7.804341252723183e-5 -1.8675554363471343e-5 2.496888604451761e-7
-0.0006327004674211917 -9.914937538061862e-5 2.415957741843848e-7
-0.0009389781071172875 -0.0004494013575164474 -3.783310357845496e-7
-0.00020939183954511937 7.17782799401635e-5 -5.26103703065357e-7
-0.0005262003992156358 -0.00016164990649580264 7.582222542550001e-7
-0.0006626263067124323 -7.98950711626021e-6 -1.9509983296921578e-8
-0.000687276279836481 -0.00011505261936532015 1.5451219101465047e-7
-0.0006802737144123364 -0.00013907814305118483 2.1256505168010551e-7
-0.0006064084858002649 -8.757590587258117e-5 2.674914102438071e-7
-0.0005521436366314476 -0.00016501961753456705 6.71391114049407e-7
-0.0006751336274901084 -8.309628403204694e-5 1.1862055988400235e-7
-0.0007075365490520543 1.7793681817254583e-5 -1.0507713045065842e-7
-0.0005365157864664513 -0.00019946423649176768 8.647983953369073e-7
-0.0006593068870514812 -0.00010805502758435675 2.0293718304858196e-7
-0.0005801899050009394 -0.00019971703077314992 6.676133291338271e-7
-0.0003438269056362075 -4.432123888328576e-5 4.1679529044393234e-7
-1.2807183121618109e-5 -2.652942263110985e-5 1.576119902751108e-6
-0.00030601296778461377 -0.0016744875255917428 4.6432730667931685e-8
-1.5337039986860186e-5 3.231265802686929e-5 -1.123238712163671e-6
-0.0010116686548044215 0.00013529950914505182 -1.4481336258431814e-7
-0.0005543513860939193 -0.0015716935725048381 -3.0857279505867497e-7
-0.0004974388888531584 -0.0013924637269553143 9.378460498146332e-8
-0.0007255221638223112 -0.000819159140620801 9.271404731828112e-8
-0.00025932251300402347 -8.219325787729988e-5 6.899567756526416e-7
-0.0006585664952415741 -0.0005334933035417529 3.871822268446926e-7
-0.0009913156486006992 -0.0014189440514403612 -1.5204553140929262e-7
-1.5660867560350453e-5 3.099771647849093e-5 -1.001515080223457e-6
-0.0003233827335237712 -0.00024053367571825137 1.910391644216942e-6
-0.0006141179055325784 -0.0011661778032686335 1.2048947498731393e-7
-0.0001748696591935857 -5.9532997788045255e-6 9.316846294399774e-8
-0.0006366384026907522 -4.3463651818895856e-5 9.49852769824888e-8
-0.0011671198980392717 -0.0009221746242141986 -6.12154912415203e-7
-0.0011720382943882911 -0.0009649074593133855 -5.723751345433306e-7
-3.408348530276325e-5 5.8458849088102544e-5 -1.2746371408483368e-6
-4.132378119151837e-5 6.545416201121475e-5 -1.2699676368479588e-6
-0.00030210632723276775 -0.0017391193295331043 -5.162731312649096e-7
-0.0008477736962788126 -0.0017058314589544926 -2.2237568939167726e-7
-0.0008032472168836257 -0.001707262352419795 -2.8346314607055155e-7
-0.00024261870761952222 -0.0002022517651338784 1.5141879825841148e-6
-0.00026241593285952286 -0.00021190349331914537 1.5417328595339828e-6
-0.00028262058463183576 -0.00022136073771572708 1.59389217909907e-6
-0.00030301000104188217 -0.0002307542605882677 1.7012410120320602e-6
-0.00036051568432400583 -0.0007286101029816066 6.899184351439976e-7
-0.0010534137073338293 -0.0003287569907453525 -7.45386328959249e-7
-0.0004387247657068366 -0.0002770871677134769 2.1164759467672244e-6
-0.00024215137059578254 -0.0001843337741467731 1.40550753557852e-6
-0.00040879190859430703 -0.00024169993828045326 2.1874520130614274e-6
-4.700730527657721e-5 6.304162924485165e-5 -1.098419352948229e-6
-2.0046426714636257e-6 8.040900881096843e-6 -8.992024136263076e-7
-0.0011288383092482436 -0.001220780108380798 -2.8930537645402247e-7
-0.0008355932333155797 0.0002366153584629904 -2.2977969057092344e-7
-0.0007042134590457635 0.00023534578797192258 -4.521533892991475e-7
-0.0009616289824344245 -0.0016062460235903363 -1.298873147149515e-7
-0.0001668858822743351 0.00012613644858491184 -1.1377121712834777e-6
-0.00044589905111664735 -0.0015771373323383924 -1.6846819667197648e-7
-0.0005150499094247742 -0.0016876483073966597 -7.278653635409798e-7
-0.00014684438191312873 -0.00014037439074424753 1.3555621984226486e-6
-7.069179309562764e-5 -9.484807479276725e-5 1.3679183488733466e-6
-6.735282808448169e-6 -1.7298103678297426e-5 1.3840504217338592e-6
-4.98738147950294e-6 -1.510876779135511e-5 1.269011907561745e-6
-0.0004111417102143259 -0.0014284459824451124 2.2049609704464954e-7
-0.00101321676452796 -0.00023469517294339836 -5.93999215867368e-7
-2.008786244888721e-5 3.6975075187695396e-5 -1.0352808783284562e-6
-0.0010523407909073827 -0.0006405071793263302 -6.148482391521717e-7
-0.0010698628066213899 -0.0008489234354633462 -5.074961281649159e-7
-0.00046813738749343267 -0.00021117184916274263 1.3413343778557754e-6
-0.00047962449848715146 -0.0009452209050225392 3.966315819957611e-7
-0.0004504921324602298 -0.0012224903720094 2.926495263321475e-7
-0.0004933529054568185 -0.0015949462545597917 -3.2882816820592873e-7
-0.0005137896463893086 -0.001554593296260458 -2.2700690789670462e-7
-3.316282577219797e-7 5.735560919591586e-6 -5.734950465904596e-7
-8.852698462409741e-5 -9.67223976256566e-5 1.2105886113304995e-6
-4.1173904683623026e-6 -6.398371507361142e-6 3.306664273458783e-7
-2.369699790502484e-6 7.2290326632068575e-6 -4.4949725175126124e-7
5.330450789448436e-7 3.8766193404292884e-7 -2.8982972379922897e-8
-0.0007138002107569644 -0.0015799485673098556 -2.792928634275327e-7
-0.0004515206349512806 -0.001418700646780136 1.4254416716987567e-7
-0.00045660011664520504 -0.001383713978718559 1.6993577640649847e-7
-0.0004825251908502404 -0.0012643450566422498 2.2520841755342535e-7
-0.0009529492640300885 9.407190754735888e-5 -2.0883598386379885e-7
-0.0009375234137693821 -0.00013467943108764525 -3.541571404955029e-7
-0.0009928714662398666 -0.00026377984283236907 -5.441632566124566e-7
-0.000988440566128667 -0.0002870370739278344 -5.355760911239746e-7
-0.00012426855616581327 9.560149549774122e-5 -9.894471506046262e-7
-0.00047114389340189493 -0.0010210645087564032 3.6500098209268347e-7
-0.0009796196139662083 -0.0005235143589157464 -4.777403870690274e-7
-0.0009652064733808047 -0.0005543598138898541 -4.291440504993844e-7
-0.0003395749294611487 0.00015357849918597543 -8.678905142220868e-7
-0.0004377154844336314 -0.00018097520428588052 1.2857366423339463e-6
-0.0005010696961169199 -0.000436806525560953 1.0338617578781255e-6
-0.00048184122738133246 -0.0009045307865039443 4.17657593456163e-7
-0.0008145440963105058 -0.0015845265620429178 -2.2005773601977554e-7
-0.0010363284089943549 -0.0008962871574353901 -4.1853655300157043e-7
-1.1294712522756978e-5 2.0955556568516706e-5 -7.45749367608604e-7
-0.00024336122294223113 -0.00014807494264699604 1.169028126125789e-6
-0.0005043298868622128 -0.0009159052358278986 3.8161154526105993e-7
-8.806639966110302e-6 1.621049398694361e-5 -6.354061443666398e-7
-0.0009152913081108782 0.00015703080947638206 -1.7897642641114414e-7
-4.105247828687656e-6 1.0711044615766156e-5 -5.844474837645065e-7
-9.725798374806222e-6 -2.3632185860396094e-5 1.0712412531565364e-6
-8.536435784467918e-6 -2.0604916941871385e-5 9.374919431826719e-7
-0.0008936100401675755 -0.001511317288873977 -1.6263008089571293e-7
-0.001003725806950369 -0.0006885374370579622 -4.7355642372330706e-7
-0.0009569540634966993 -0.0015379044135255316 -1.4072573748577468e-7
-0.0005203527898345347 -0.001014699755311226 3.067786824402261e-7
-7.2583427806694705e-6 -1.4862776607790206e-5 6.534993885291986e-7
-9.367323617106581e-6 -6.134805074035989e-6 2.251271968166458e-7
-8.355135973171222e-5 -8.648976423245978e-5 1.1090795656180482e-6
-8.669926287125392e-5 5.765877669302053e-5 -7.032581276652776e-7
-0.00021476116415206114 0.00010789556224539644 -8.1816632764637e-7
-0.00023126196856555422 0.00011022504171367059 -7.976160987059549e-7
-0.00026264099722546 0.00010670410786983963 -7.040634454886549e-7
-0.0002749298205370662 9.698740879977677e-5 -6.098430083622743e-7
-0.0003602186867412448 0.00013662881335120645 -7.158768646952649e-7
-0.0003801190750262265 0.00013346113904855552 -6.610605009067372e-7
-0.0009718260117197106 -0.0002781331626373539 -4.855062041142213e-7
-0.0009547581737288451 -0.0002844039529587749 -4.3710192504575747e-7
-0.0005487997900332098 -0.00025186127553864467 9.552264534747146e-7
-0.0005183598416986678 -0.00018961038174427204 9.176892992812133e-7
-2.4280513659880812e-5 3.3266566983858534e-5 -7.814112746244927e-7
-0.0004805651338854726 -0.001416325821125775 9.214604700972726e-8
-0.0005271029275861778 -0.001262960259257648 1.6799488076907752e-7
-0.0005295512195629298 -0.001224298984763349 1.8902604226231026e-7
-0.0008321739064746738 -0.0015415991252809504 -1.9353560736605505e-7
-0.0007051283394093603 -0.0015453308916160815 -2.4460536703480505e-7
-0.0010420376421729734 -0.0010332532881744906 -3.4429368025306436e-7
-0.0009230903679337258 9.098457108141448e-5 -2.1316054048408667e-7
-0.0008950786233078178 -0.00015706836156037372 -2.702250011166362e-7
-2.6308515164781357e-6 1.2024926577599144e-6 -5.7667225403935214e-8
-0.0005834678248059548 -0.0005109249898419014 6.181362646007272e-7
-1.196426923909672e-5 1.7197164808041388e-5 -5.646287710387121e-7
-0.0010446768066918691 -0.0012572190508062491 -2.2202328286444574e-7
-0.0009749635701214488 -0.0008159727800454269 -3.51831611686903e-7
-0.0008941640925606479 -0.0002805970201540307 -2.6611783481010187e-7
-0.0005536366463274703 -0.00022545503753437153 8.624072726276298e-7
-0.0009717179533531862 -0.0002625065672796383 -4.826017831908568e-7
-2.029600782663327e-5 3.1869890776923804e-5 -8.365317326859697e-7
-1.0040981972490277e-5 1.286830510163664e-5 -4.4916244798212244e-7
-0.0008985335723766249 -0.00025051290810038687 -2.8013619792235873e-7
-0.0005430288001805335 -0.0006772985218144572 4.936572002945622e-7
-0.0008933832591656744 -0.0005926255930456057 -2.3527021263100065e-7
-0.0008952293582196051 -0.00046271091200427475 -2.497387463817627e-7
-0.0010478032703786259 -0.0013759119313352867 -1.6977716846919373e-7
-1.1933518146439099e-5 -2.1929579396835342e-5 7.774688448477591e-7
-1.1739681293558382e-5 -1.5499815313309577e-5 5.221805922092194e-7
-0.00010461696485776083 -7.285936962766343e-5 8.224747458907151e-7
-9.26382103498061e-5 -6.345158454547482e-5 7.629862876135877e-7
-0.0009175732417410541 -0.000677204803696995 -2.7834367622841777e-7
-0.0005295118879766784 -0.00017803667021146878 8.146502098141723e-7
-0.0008911847464576759 7.02003131932693e-5 -2.1795822862101338e-7
-0.000887933046205523 4.503548424932843e-5 -2.2330178931978633e-7
-0.0008823066767903924 -3.999447455686315e-5 -2.3353110965269175e-7
-0.0005853867326655137 -0.0015012949799900672 -1.6851659070440006e-7
-8.708175310315296e-5 4.6871443081588955e-5 -5.637754474890644e-7
-9.760922368049553e-5 4.8989483674510106e-5 -5.572349355834043e-7
-0.00016380096420948607 7.781351461012762e-5 -6.771500309909813e-7
-0.00022719195693712726 9.159273917607324e-5 -6.556536008704399e-7
-0.0002542176739277553 9.224016091234384e-5 -6.102763031171387e-7
-0.00035753879087420783 0.00011988166641746056 -6.167031915209899e-7
-0.0003875927019105079 0.00010041068529478976 -4.580223955461409e-7
-0.0004082441904873507 8.921217676890354e-5 -3.717925952830163e-7
-0.000582418134886972 -0.00022457272253753523 7.184965057125004e-7
-0.0008749628808663047 -0.0002472633089087535 -2.166768411434304e-7
-3.843121206581895e-5 2.1126130012357526e-5 -3.752846733638016e-7
-0.0009266408218634963 -0.0009904994921260558 -2.1807004993916672e-7
-0.00040857735077583565 -0.00012736277191127235 9.437464018155162e-7
-1.534502951306679e-5 1.7504432661072832e-5 -4.976817342513645e-7
-0.0005546597214246606 -0.001033234266742951 2.5432629151921057e-7
-0.00016787114119423587 -6.515675604945183e-5 6.104899007330509e-7
-0.0008444591453940295 -0.0015156432793683734 -1.803604900558512e-7
-0.0008619099909444383 -0.0014858221270928219 -1.6601472572824455e-7
-0.0009115098540244759 -0.001475880945634162 -1.5377749476934423e-7
-0.0008909805321451112 -0.00018861302296761958 -2.623460345778836e-7
-0.0005668516486087091 -0.00094288993875493 2.8280083577462e-7
-0.0005320787101946719 -0.00118762710002396 2.0601080421087175e-7
-0.0005704488339162302 -0.001183817897636142 1.6166202467573982e-7
-0.0009059446559996988 -0.0010240936600139528 -1.8407181912320831e-7
-0.000734709830967256 0.00012407603623686297 -2.6241007559372397e-7
-0.00010448973714627305 6.029881765420921e-5 -6.680389429325673e-7
-0.0005570368859412357 -0.00020340887493116387 7.796535061569595e-7
-0.0008735462107575745 -0.0004101798054703313 -1.9225742905707866e-7
-1.8882345374777866e-5 -3.434580924378976e-5 1.0014750964465358e-6
-0.0005760936280962338 -0.0009118092279324396 2.8544943429998886e-7
-0.00026350543489984506 -0.00011848580938298536 9.524435981411007e-7
-0.0003127061404264335 9.511612550836348e-5 -5.317316485509745e-7
-0.0008628285815330449 -0.0002242362593493426 -1.881485254907881e-7
-0.0010212726978745484 -0.0014862622761209823 -1.3185564180719077e-7
-0.00023995882356940145 7.477601725171635e-5 -4.999446674719309e-7
-0.0003293884991092151 9.097626950197323e-5 -4.781226999599296e-7
-0.0009929979083584995 -0.0013672416968016265 -1.650409577203945e-7
-0.0006139502180358482 -0.0014617092505541612 -1.24055942506947e-7
-1.65534094603065e-5 -2.25295664115109e-5 6.502312634921084e-7
-1.8847291728828392e-5 -1.1676705354817758e-5 3.0545360935775886e-7
-2.157545233338468e-5 -7.92645201961845e-6 1.9767663581488172e-7
-0.0008490925674516833 0.00013235768918970413 -2.187566061273514e-7
-0.0008980102714417712 -0.00097710066981722 -1.823161618264503e-7
-0.0001059568657988281 -6.027620509395533e-5 6.756909046434361e-7
-0.0007445096702462661 -0.0014650621810386086 -1.6392736102897183e-7
-0.0006417888648083086 -0.001384360854613698 -5.095070269118998e-8
-7.880352922023033e-5 3.495280134072413e-5 -4.3553969273325317e-7
-0.0008499414797411673 -0.000437549929827576 -1.219628112135136e-7
-0.000844529011921431 -0.0005309724609769305 -1.0903626818362505e-7
-0.0007525847039722127 0.0001065828063573246 -2.3466136343264448e-7
-0.0008752596090686907 9.563300628413128e-5 -2.132526286738153e-7
-0.0008331519245120475 -0.000110463752972188 -1.4721182884214847e-7
-0.0005854485721075265 -0.0011363086481510718 1.6745859703117921e-7
-0.0007203394267484171 9.887104716765949e-5 -2.3401639619308492e-7
-0.0005694781392687825 -0.00108591877304141 2.1076756218824187e-7
-0.0006126210960972783 -0.001016195723946652 1.885725848185929e-7
-0.000537470607729555 -0.0011525763962207032 2.1722240986169349e-7
-0.0008089277967898746 -0.0008006760055177966 -5.164486389731917e-8
-0.0008616310222539005 -0.0006371874290572721 -1.5442618561297293e-7
-0.0008379976267087965 -0.0006346328898200016 -9.957380612555101e-8
-0.0004518462093520398 -9.712520547267879e-5 6.502779393067428e-7
-0.0009660361094118113 -0.001464599854030701 -1.4516097742837615e-7
-0.0008992696832854565 -0.0014201704273715397 -1.5051912523583e-7
-0.00043066156080431617 8.265906240352174e-5 -3.1469655708945863e-7
-0.00060843757318141 -0.0001920922944878438 5.388140488576735e-7
-0.0005436546023293013 -0.0001826008053552984 7.69105048360534e-7
-0.00010849141482170414 5.343195742785396e-5 -5.755843201848349e-7
-0.0008508740660717467 -0.0014300220478223398 -1.512918044164786e-7
-0.000850233841980704 -0.0008432502941209555 -1.2624073153117672e-7
-0.0008455705281422321 -0.0004071614160402572 -1.112511139162605e-7
-0.00041984916098270907 0.00011275853635723058 -4.856121038489967e-7
-0.0006008805462002776 -0.0012817476768835654 7.033370636962883e-8
-2.0809345432441698e-5 1.1268720872150761e-5 -2.626048214438227e-7
-0.0008499020300815897 0.00011031257217538479 -2.156524662300623e-7
-0.0002500987537029869 -9.94964431339472e-5 8.186871401327993e-7
-0.0005762790483580387 -0.0007144451838253365 4.0328265861342264e-7
-2.2439979145727483e-5 -3.0337221076617907e-5 7.568386864273907e-7
-0.00014580983434541296 -3.2349477020898955e-5 3.328424112301378e-7
-0.000806943237774502 -0.0006318165426813172 -2.7428191000307953e-8
-0.0008298289174874068 -0.0004680246407222997 -6.509193939238594e-8
-0.000810839564310836 -0.0005208551669317533 -1.8046703576248588e-8
-0.000553458870632226 0.00010045229780077169 -3.049402714854971e-7
-0.0004384493018169915 0.00010317148878271842 -4.125539635003178e-7
-0.0004598377659715191 9.982227214897936e-5 -3.7334088310447363e-7
-0.0004279731019835395 -7.67896050760612e-5 5.674905454318127e-7
-0.0003847765835241649 -7.950779070749131e-5 6.356871476847618e-7
-0.00036262910890018054 -7.759421055121923e-5 6.390458210522242e-7
-0.0007775955914427771 8.337205943884664e-5 -2.0778025406068773e-7
-0.0008624080425876426 -0.0009506218539731881 -1.3599634250303748e-7
-2.1877259088707703e-5 -2.217937525309059e-5 5.453984550302687e-7
-2.2903323353857207e-5 -1.4813743402243703e-5 3.536351210852604e-7
-0.0008433872771799393 -0.0013862939001696316 -1.3868344241502824e-7
-9.73932966185661e-5 -4.08453314949767e-5 4.806992415517987e-7
-0.000357177361384829 5.480574623989485e-5 -2.1642892843817212e-7
-0.0008037946387420385 -0.00024416197789511613 -2.2160123231761794e-8
-0.0007533766977627095 -0.00031120479353449553 1.581137394609502e-7
-0.0007265436406967094 -0.0003399346091704333 2.5306056248997403e-7
-7.580038536637341e-5 -4.68384571795122e-5 6.227633497516265e-7
-7.266926514495157e-5 2.4205177878247714e-5 -3.106179597604535e-7
-9.794602758637478e-5 2.535330502113985e-5 -2.7576868424468826e-7
-0.0008189080203726059 -7.892087819876428e-5 -1.3628855214013943e-7
-0.0007575949757985246 -0.00019268102711796005 7.607941944400313e-8
-0.0008220866227143792 7.797114216254214e-5 -2.0746116465593823e-7
-0.0009681760651155672 -0.0014321851156341057 -1.4957231000611237e-7
-0.0006475296150164911 -0.0014303614140368818 -1.0309985602963274e-7
-0.0006245545903404968 -0.0010696385549140844 1.5141305251706397e-7
-0.0006508217567087967 -0.0012117537335270198 5.9534702633798856e-8
-0.000666552045785912 -0.0006131648804669071 3.0409282107981224e-7
-0.0005725213816964763 -0.00017810271061060473 6.365178414784711e-7
-0.000644706806993488 6.292628157762531e-5 -1.7360279968816592e-7
-0.0003210964082636872 7.125068479249747e-5 -3.5984246156428854e-7
-0.0009679976768048496 -0.0013888590601927623 -1.566354175187119e-7
-0.0009400090380690775 -0.0013586444808503034 -1.5644159910792883e-7
-0.00090960264729817 -0.0013271160859292094 -1.499526192473027e-7
-0.00016440118903253013 -2.82914354361583e-5 2.8777730420940773e-7
-0.0006614793636686916 -0.0004094270833805552 4.6987244140223755e-7
-0.0006767396981611313 -0.0009630509127544891 1.2401991102912387e-7
-0.0005242478299648327 -2.1063040040850855e-5 1.6603071795562e-7
-0.0006475897232839458 -0.00013399228248149467 2.8694162150804756e-7
-0.0006733516935313144 -0.0006418338537870591 2.696696245010509e-7
-0.0005571342849148712 -0.00018801134174690318 7.301844732118151e-7
-0.0006625143655814279 5.327993602425119e-5 -1.5388295509154705e-7
-4.528412663305954e-5 4.7992089492939966e-6 -7.742918919694659e-8
-0.0006931602115661775 4.2841750721790585e-5 -1.4219431089569888e-7
-0.0006967408370970474 -0.0003831882425069964 3.551922877270927e-7
-0.00022237408199148016 6.033607322950999e-5 -4.124726132727666e-7
-5.958167875536192e-5 1.5118219339839121e-5 -2.1459534859321578e-7
-2.961006697932097e-5 -3.905186433237902e-5 8.490179369791321e-7
-0.00027379390409921415 -6.173386028481436e-5 5.412102067479292e-7
-0.0001911756276196852 5.4122925537837154e-5 -4.0673128674438377e-7
-0.00034248754478218284 3.4309352866061274e-5 -9.855998173251591e-8
-0.0003569038548589012 2.23139819853995e-5 -1.428981666915054e-8
-0.0003687651662753805 7.378255388861505e-6 8.251774790960082e-8
-0.0007408183593303329 -0.0006862375982381829 1.052505284469333e-7
-0.0007069732596166401 -0.0007085545103868407 1.6508447441267403e-7
-6.78397034772137e-5 -3.631965641176913e-5 5.094529868763241e-7
-2.676111666889361e-5 -2.477038215522217e-5 5.490310931788258e-7
-5.400176563984354e-5 -3.3431264451606906e-5 5.207730242808384e-7
-0.00038502573349987975 -6.122080905332381e-5 5.122458916846499e-7
-0.0006917028333531752 -0.0010383537056349419 8.07706228675755e-8
-0.0006920745239099064 -0.0012009641535568995 2.316409102107973e-8
-0.000864749520060362 -0.0013269704714987502 -1.3383137388831927e-7
-0.0008346452117551492 -0.001325756064877532 -1.212001924402572e-7
-0.0007726099076332565 1.7526388529691504e-5 -1.4696578477257463e-7
-0.0004287358610110515 1.4544230636666488e-5 4.590920427410276e-8
-0.00039418438970668945 5.108537193764204e-6 9.891260520951239e-8
-0.0007363400031214673 -0.0005201938831283079 1.831113653316042e-7
-8.621039593133289e-5 1.767784166312824e-5 -2.020768059780494e-7
-0.00010622730007130529 9.483761885344875e-6 -8.519483950711631e-8
-5.182417191214586e-5 3.254606630428183e-6 -4.77951873291275e-8
-0.0006722544872889344 -0.00021395512147859928 3.5305210562365994e-7
-0.0006747965812472591 -0.00016411767605117416 2.697134982070962e-7
-0.0006190043013710185 1.9504296852145646e-5 -5.254004225232831e-8
-0.0005335037053370097 -9.076881943721835e-7 7.643660149628783e-8
-0.0006494218140328705 -7.426392702287176e-5 1.4813250485166875e-7
-0.0007381875802907616 -0.00016924443783877265 1.0627276400905934e-7
-0.000705539533500166 -0.0006259392633455109 2.0706223493307464e-7
-0.0007364822389465803 -0.0012408169883843293 -3.184431553069313e-8
-0.0002137839603841736 2.288224100864641e-5 -1.2225725481867394e-7
-0.0007737001609773182 -0.0010111609371560384 -1.6586129559905863e-8
-0.0006994586551791264 -0.0012723629507148107 -1.5327014267665968e-8
-0.0007968886009663924 -0.0013666690507526935 -1.1975090885131076e-7
-0.0006907446647041747 -0.00028491514893209117 3.553039661781808e-7
-0.0007737414126630325 -0.00047125946966709105 9.368360009572679e-8
-0.0007181145635928182 -0.000658982703593562 1.634945910536334e-7
-0.0007140896969755796 -0.0007899142009317107 1.2116646809807847e-7
-3.228280800901973e-5 -3.107787208381066e-5 6.294463748806009e-7
-3.0703354972054945e-5 -2.702640608790344e-5 5.587417246188509e-7
-3.3003572581397906e-5 -2.497835183486213e-5 4.954503200744014e-7
-0.0007170184254908671 -0.00025195825793236117 2.439469628178725e-7
-0.00013751356621769775 1.7469255193324885e-5 -1.475416689733178e-7
-0.00046579005550138625 3.647753171646728e-5 -6.551569724411312e-8
-3.831290213767635e-5 -3.696786937122743e-5 6.886938838297599e-7
-3.706249994900333e-5 -3.141033642481599e-5 5.907304026336562e-7
-0.0007441418815371392 -0.0009495986979702158 3.279713914918222e-8
-0.0005269791961079395 8.308020001684857e-5 -2.533698989095349e-7
-0.0006955757985285797 -1.268561229952691e-5 -4.3387781653650313e-8
-0.0008309699483860285 -0.0009169022464065345 -9.151015833282219e-8
-0.00023459449330133573 -2.7107284475634343e-5 2.788993582906101e-7
-0.0005183614976929323 3.261529722589176e-5 -5.24846767024527e-8
-0.00034354525734567315 6.2394579008781134e-6 8.263631999193982e-8
-0.0003214008270058299 -2.0760752706060374e-6 1.296118040341036e-7
-0.000704928067993651 -0.00019099703745930705 2.2177447053244845e-7
-0.0007123037395742072 -0.00014172022044149857 1.3795863192309614e-7
-0.00010386518117751132 -1.80926884949322e-6 3.828622536111722e-8
-0.00012145924597701071 -1.61760953284587e-5 1.8717580029694884e-7
-7.918493867734174e-5 1.647495114657714e-5 -1.984896869093017e-7
-0.0008198994034382274 -5.929747788826223e-5 -1.461964340700201e-7
-0.0008265311289808946 -4.1331344091002464e-5 -1.6291501954327242e-7
-0.0005309955558181011 5.6151555964753745e-5 -1.4705748040491583e-7
-0.0004447396521115566 -2.225861613577031e-5 2.397266899816607e-7
-0.0004493849306849504 -5.721129397067809e-6 1.495161323363964e-7
-0.00041017008252770164 -2.6135601564903806e-5 2.78721441098437e-7
-0.0006694518938690823 -0.0007314405929499052 2.2506496466947341e-7
-0.000587044676189095 1.4293462623527968e-5 -1.530491163653581e-8
-0.0006260203692314144 -1.3154458162539101e-5 2.994737210578967e-8
-0.0007450347500995417 -3.088839231999119e-5 -7.104752183933176e-8
-6.176048135989195e-5 4.5581186827499395e-6 -6.200271866121095e-8
-0.00024144005353846987 -1.0504219314710245e-5 1.5518024843724904e-7
-0.000716684094271138 -8.853089970079114e-5 5.224014224126728e-8
-0.00010497727643686036 -1.7488391236966593e-5 2.0985426212232351e-7
-6.833610350426708e-5 9.752255336516203e-7 -7.523535490336419e-9
-0.000400607362491543 -6.972947784736956e-6 1.6923708314189925e-7
-0.0003332940819774385 -5.051758228944193e-6 1.5339167964990273e-7
-0.0003367022379215691 -2.0000033979882616e-5 2.532197840000362e-7
-0.00028625436654635696 -4.465606271582827e-5 4.1912228062624976e-7
-0.00018162564535794106 3.957333932301506e-5 -2.9467693837977066e-7
-0.000598162572500914 -2.5031341883867355e-5 9.550567723849696e-8
-0.0006811979782639957 -2.6924769912044114e-5 7.887851143721501e-10
-0.00038110042053870986 -3.6420753137181824e-5 3.5452873897141446e-7
-0.0003925438667395373 -1.9588859315579915e-5 2.4610815656103106e-7
-0.00018637047736514025 -6.288814482149818e-6 1.0047963185069877e-7
-0.0012284441311632402 -0.001648712376583807 -7.858009583032138e-10
-0.0012284598302347892 -0.0016004016474642742 1.3699360335870803e-8
-0.0012281428326844028 -0.0015032124731365725 6.538589187643952e-8
-0.0012276952241882199 -0.0014543698274470686 1.0259516769539057e-7
-0.0012260228706229065 -0.0013564107578041657 1.9634745870072534e-7
-0.001224725095064691 -0.0013073971701339114 2.498579113487147e-7
-0.001221155996123804 -0.0012095849705416576 3.590054103581441e-7
-0.0012188364167436544 -0.0011609512122718886 4.113653320386123e-7
-0.0012134485732835441 -0.001064336466781352 5.123325904144883e-7
-0.0012068205629241797 -0.000968907633108166 6.172936432656135e-7
-0.0012030223589294278 -0.0009217884631051014 6.705191330940103e-7
-0.0011945535868845025 -0.000828854719069 7.686450669088433e-7
-0.0011899001901959398 -0.0007831593335467126 8.138816980046025e-7
-0.0011798788516851162 -0.0006934874593114093 8.942762339236065e-7
-0.00117451845975081 -0.000649581732894355 9.304936766981867e-7
-0.0011631709164507593 -0.0005639105797428127 9.920140881212003e-7
-0.001151245095393433 -0.00048123333437693843 1.0273358384388949e-6
-0.001145154821713845 -0.0004411134792848885 1.0337959358380056e-6
-0.0011329607763980861 -0.0003633857453074828 1.0204921283923607e-6
-0.0011269763368731713 -0.00032578482281744745 9.993954480011258e-7
-0.0011155278669035813 -0.0002529983510102611 9.250542764344973e-7
-0.0011101907150774762 -0.0002177638826450177 8.736780675756841e-7
-0.0011005778191697112 -0.000149338515036235 7.511515347998756e-7
-0.0010963529204825316 -0.0001159687842333824 6.810152197615308e-7
-0.0010892220873946732 -5.0607927137301263e-5 5.246386985999496e-7
-0.0010840388656477747 1.355819456173847e-5 3.6067748970373966e-7
-0.00108217646442179 4.544009278101255e-5 2.8189744451395423e-7
-0.0010797974208043297 0.00010927400392671904 1.4332228056640813e-7
-0.0010791868876245177 0.00014139585882313047 8.890625701946619e-8
-0.001078770940033113 0.00020634157178321956 1.803209647363172e-8
-0.0010787933380410873 0.00023920262427170778 -9.621880974729167e-10
-0.0012283758072412182 -0.0017449437533213056 -2.4719414759410655e-8
-0.0010788852257333187 0.0003054624126571934 -3.310957082490012e-8
-0.0010124001345578704 0.0003055551490891288 -1.4364006939340018e-9
-0.0009788927575192705 0.00030557905476497413 1.7639425048270555e-8
-0.0009110919552167776 0.0003051660488616638 8.959181749054491e-8
-0.0008768277238996758 0.00030455537190824576 1.4394630803239455e-7
-0.0008078555755973461 0.00030218539497026023 2.8397472606644996e-7
-0.00077329937910096 0.00030030738395134314 3.6599323310582214e-7
-0.0007045039860073993 0.0002950269061971879 5.420036323122399e-7
-0.0006704873776664839 0.00029157521560115317 6.33332598283869e-7
-0.0006035806283951802 0.00028309818978781645 8.101816769609452e-7
-0.000538859686287644 0.00027257678706478733 9.758541259626658e-7
-0.0005075304580678015 0.0002666014267672152 1.0517708071815248e-6
-0.00044730685421977387 0.0002534003895094245 1.1840250624920915e-6
-0.00041852476003348204 0.00024626783871630235 1.2388362082080187e-6
-0.0003638005282137807 0.00023114379643117302 1.3255564492877398e-6
-0.0003379427284233861 0.00022323361386008398 1.3593986550683947e-6
-0.00028937234199554027 0.0002069354316253872 1.408160004911866e-6
-0.0002448535940159926 0.0001902407812330852 1.4319083173481521e-6
-0.00022415659822315297 0.00018180573621249973 1.4388019378047728e-6
-0.0001857896616655274 0.00016486018791418087 1.4451327794459787e-6
-0.00016809366812968105 0.00015637947191333865 1.4452440601995028e-6
-0.00013560217511462576 0.00013944481964217622 1.4417612431257812e-6
-0.00012079130561835109 0.00013099898108554265 1.4401054066437782e-6
-9.403986442418735e-5 0.00011416038932707675 1.4395395488734445e-6
-8.2023226308371e-5 0.00010576109000277953 1.4373817532098126e-6
-6.084086583669912e-5 8.899495034547084e-5 1.4292270275700825e-6
-4.332243740854083e-5 7.231948955899215e-5 1.4150137324993054e-6
-3.593354966902405e-5 6.402995079490114e-5 1.4076841264832307e-6
-2.3804646022081636e-5 4.7594760713992136e-5 1.4031286023129174e-6
-1.902286992516528e-5 3.944875274507779e-5 1.4150027953931297e-6
-1.1719813985039095e-5 2.330285734869176e-5 1.4326788744889115e-6
-8.867875191845536e-6 1.5357901461760703e-5 1.2825639123780816e-6
0.0 0.0 0.0
0.0 0.0 0.0
0.0 0.0 0.0
0.0 0.0 0.0
0.0 0.0 0.0
0.0 0.0 0.0
0.0 0.0 0.0
0.0 0.0 0.0
0.0 0.0 0.0
-0.000345717168876465 -0.00027014305047882634 -2.5254528433730434e-6
-0.0003046362747253258 -0.00024884596689655586 -1.7948254655539588e-6
-0.0002637500270046885 -0.0002295662076144471 -1.6358516084841897e-6
-0.00024397907772852413 -0.00022006448160855294 -1.621788357954147e-6
-0.00020630865613362965 -0.0002010714415528309 -1.623500692431699e-6
-0.0001715873700974672 -0.0001819852196685162 -1.6315159401343851e-6
-0.00014008080098511442 -0.00016280358040446285 -1.6397231180800547e-6
-0.00011194514603428903 -0.00014352256356398979 -1.6468972831981198e-6
-8.726204731262148e-5 -0.00012417803314800533 -1.648695120014457e-6
-6.611685643496594e-5 -0.00010481620369951257 -1.6478202249812839e-6
-4.847007177419773e-5 -8.548960908716252e-5 -1.641474986589898e-6
-4.094355432587631e-5 -7.586251948052659e-5 -1.6369849188167774e-6
-2.8384984112374258e-5 -5.6729044143961e-5 -1.638775413083305e-6
-1.8887932485569345e-5 -3.774100642410309e-5 -1.6899608399622428e-6
-1.1528388060853493e-5 -1.881296648543811e-5 -1.5289133789413765e-6
-0.00037562773206394073 -0.0003047687203831986 -3.089772214242251e-6
-0.00024079107377183664 -0.0016779527613407154 -3.178614222776138e-7
-0.00025289909099786837 -0.001564037783285769 -8.645674487505342e-7
-0.00026162410326221775 -0.0014586578641640575 -6.848429692648903e-7
-0.00026517578442425936 -0.0014075649634340032 -6.118200433384589e-7
-0.00027156735061461445 -0.0013071662188018707 -5.414842654977508e-7
-0.00027767934085288094 -0.0012084701554314985 -5.315596757444485e-7
-0.0002839490456763196 -0.0011111332748760603 -5.53503079699667e-7
-0.00029062043768406174 -0.0010150531610472917 -5.917127133062231e-7
-0.0002977896138534271 -0.000920241485554928 -6.354976730299569e-7
-0.0003055192114337121 -0.0008266893027562196 -6.840969853104904e-7
-0.0003138492080251242 -0.0007343466576242738 -7.349122093873361e-7
-0.00031824128857047614 -0.0006885805063545512 -7.607198906004346e-7
-0.00032748980010976163 -0.0005976167133914135 -8.245660114238636e-7
-0.0003375215827322783 -0.0005067013461932065 -1.0166466292925893e-6
-0.00034979820894733287 -0.0004136813493638208 -1.8714507225932373e-6
-0.0002301647877400567 -0.0018190828803840585 1.4146185241362555e-6
-0.0003578436876684599 -0.0018008360476972447 1.2140491340712474e-6
-0.000514442526270288 -0.001770609641334104 1.1722763437978204e-6
-0.0006115909715903358 -0.0017602096789337027 7.506958725148836e-7
-0.000753965743769554 -0.0017509544681481146 3.921282749101867e-7
-0.0008479894656072316 -0.0017474489095964435 2.2839750848755065e-7
-0.0009893924764443544 -0.0017451658781669841 6.889687017265847e-8
-0.001084470670866435 -0.0017448539994080973 1.3416495431108225e-8
-0.0010097039509197262 0.0002365997872056554 5.3554930329866244e-8
-0.0010079854655781427 0.0001678910919872174 1.130289301870537e-7
-0.0010154594335672863 0.00010327414507837632 1.833457064499866e-7
-0.0010189891585489477 4.154270055170874e-5 2.760900741249259e-7
-0.0010199918249898967 -2.005029676182287e-5 3.7635380599773143e-7
-0.0010198775675740908 -8.421949136562881e-5 4.715263972841815e-7
-0.0010147154004476904 -0.00015891462848681418 5.45494287664936e-7
-0.0010432477451196933 -0.00022760208397195735 6.775328610279116e-7
-0.0010519869756923114 -0.0002950388783220425 7.356690894726468e-7
-0.0010638117069212585 -0.000398986101699667 7.734345357121186e-7
-0.0010686269173829672 -0.00047351604282011973 7.610891787213634e-7
-0.0010646248388707074 -0.0005598276369687737 6.992333947451059e-7
-0.0010896076553083842 -0.0006467317938647808 7.058406826214397e-7
-0.0010775947051222378 -0.0007394145347313426 6.064594837338494e-7
-0.0011096819691841196 -0.0008389790550066528 5.910702412889046e-7
-0.0010857408759917427 -0.0009488892025412732 4.612095964784024e-7
-0.0011061968937502373 -0.00103270383833689 4.214537517400567e-7
-0.0010954078848711038 -0.0011296321741755039 3.37571041897495e-7
-0.0011162328349618353 -0.001260285442280583 2.5215228110062794e-7
-0.0011314232891808773 -0.0013522893416882836 1.9156898275219083e-7
-0.0011130477482521578 -0.0014477250213475882 1.329128458062134e-7
-0.001127344826518517 -0.001552236770214416 7.703045190220333e-8
-0.0011307272087102101 -0.0016481616759889762 3.6983044191236384e-8
-0.0009414155984126314 0.0002371588409552902 1.074187686800409e-7
-0.0009328158581175787 0.00017821433848431067 1.547762036283667e-7
-0.0009211151727856635 0.00011273180116340806 2.018534030974567e-7
-0.0009541979760889861 3.959025248059233e-5 2.5553713890098727e-7
-0.0009526056939721323 -1.792199681500386e-5 3.0413185827067915e-7
-0.0009490602869566487 -7.739644297502422e-5 3.4368262143332506e-7
-0.0009595660966042037 -0.0001711150880211697 4.2191650508452445e-7
-0.0009563132183224639 -0.0002390475484154688 4.3555176151182335e-7
-0.000971277021233455 -0.000307481017178749 4.86923580771864e-7
-0.000989418891798152 -0.0003965716550621069 5.377192044367385e-7
-0.0009859114686326736 -0.0004593046762579615 5.140396706625885e-7
-0.0010002434367683455 -0.0005720795430926935 5.15891403840384e-7
-0.0010062451589344975 -0.0006595832540688731 4.931421406782899e-7
-0.0010029025288538804 -0.0007349345633156959 4.4805457353843276e-7
-0.0009965268708762643 -0.0008591770816705102 3.706931866417511e-7
-0.0009894169913328393 -0.0009286083826688068 3.2876361224816373e-7
-0.001004719426532934 -0.0010188521039036602 3.0720482319741656e-7
-0.0010234566157930353 -0.0011241432675122315 2.7662865405963975e-7
-0.0010081963256785033 -0.0012287950998680296 2.1635012334303085e-7
-0.001019621962164713 -0.0013444019702012733 1.772534237491678e-7
-0.0010416120795903206 -0.0014334229560461274 1.468674362746468e-7
-0.0010361170087250032 -0.001563366327429116 1.0599669300465257e-7
-0.001036821370170737 -0.001650177558578575 7.676141096274223e-8
-0.0008698192196278315 0.00023456660937999342 1.8573693778217211e-7
-0.0008895506615646574 0.0001706903401557075 1.8849672443029486e-7
-0.0008720805550527799 0.0001156128554948831 2.1182338886165454e-7
-0.0008573595378880093 5.0804559819770906e-5 2.0948925913969015e-7
-0.0008815648523963832 -1.1814912860092871e-5 2.2938138514358072e-7
-0.000876242804429239 -9.461534648977277e-5 2.282014266210841e-7
-0.000859193131281572 -0.00014997974372308698 1.9175254548357095e-7
-0.0008959483134670902 -0.000220461472909909 2.7437100249527877e-7
-0.0008863170456669307 -0.0003114837022441589 2.404912561322889e-7
-0.0008883832487438796 -0.0003899740073105104 2.3774289586845463e-7
-0.0009001182812511935 -0.0005027851288417677 2.600770097513988e-7
-0.0009118849765566566 -0.0005622252692788381 2.861915073058151e-7
-0.0008988012497704767 -0.0006422065242721765 2.4148372364984396e-7
-0.0009294415799676132 -0.0007258441586910255 2.93735373396996e-7
-0.0009254756459039661 -0.0008316262074706026 2.583912309523508e-7
-0.0009026607197854539 -0.000911932469675918 2.015746558897868e-7
-0.0009465056789212572 -0.0010431078718547385 2.2775535663827515e-7
-0.0009491365078782345 -0.0011420026561039757 2.0256468848935576e-7
-0.0009488169526063557 -0.001243927129506188 1.7776879677370584e-7
-0.0009648856399662375 -0.0013349176021008433 1.6647468884262448e-7
-0.0009296389159810812 -0.0014434647763398429 1.5058277508697623e-7
-0.0009242132093738351 -0.00153131104279609 1.5333815367637592e-7
-0.000935560465725731 -0.0016381538109269303 1.417346398549906e-7
-0.0008023880965476911 0.00023872688622930273 2.7857070151254105e-7
-0.0008016563527258756 0.00014537955121794353 2.447376949954406e-7
-0.000798626687261578 9.144030508932577e-5 2.1380865479875273e-7
-0.0007916805102264269 2.6394950145313415e-5 1.6683270145179975e-7
-0.0008107787939803292 -2.6757730090606367e-5 1.5234838047707305e-7
-0.0007939007273157859 -9.116368228032049e-5 8.472821682983875e-8
-0.000777482544641501 -0.0001516294585055795 5.2059470411749185e-9
-0.0007883546393472806 -0.00022601873038518685 -1.2515203087782562e-8
-0.0008021209202831507 -0.0003063966808660711 -4.998714329104952e-9
-0.0008085497844788764 -0.000363915907345588 3.549916886628524e-9
-0.0008111633879846935 -0.0004461364777675182 1.123827191124254e-8
-0.0008292047766368819 -0.0005634712467206199 7.258842567059851e-8
-0.0008395443687932882 -0.0006637147498697743 1.0278524173650901e-7
-0.0008333978510410162 -0.0007097421464054074 9.125821014041837e-8
-0.0008090296160929019 -0.000845473878272557 5.5037354583461505e-8
-0.0008231694068687677 -0.0009463694772272988 7.962093773520369e-8
-0.0008439522190778772 -0.0010389835885351612 1.06176025640743e-7
-0.0008404086857668016 -0.0011418771729030362 1.0361101121284204e-7
-0.0008411857168683664 -0.0012491077656762606 1.1230790953931714e-7
-0.0008392453667348504 -0.00135821109843451 1.3057092240651347e-7
-0.0008294564114048273 -0.001458954977924421 1.609943976499609e-7
-0.0008054991021167999 -0.001541659623239671 2.0417656976552203e-7
-0.0008274394565962174 -0.0016260526531132803 2.2488222659972798e-7
-0.0007331997323799428 0.0002246746138481921 3.823182889856161e-7
-0.0007307383074348759 0.00017078096677976994 3.2203090031989826e-7
-0.0007010397070620515 0.00011231399598313412 2.616313805438902e-7
-0.0007340161194246663 3.115621775017654e-5 1.4035993277981227e-7
-0.0007207537222756668 -1.540952531094451e-5 6.562857247742277e-8
-0.0006928107030963564 -9.49946481715106e-5 -1.080300017908946e-7
-0.0007077439183508408 -0.00016632323179111296 -1.824716231349461e-7
-0.0007384234186823894 -0.000222674744569984 -1.5449083313544785e-7
-0.0007311133033792717 -0.0002903511595869691 -2.212973254602216e-7
-0.000728798975558157 -0.00038047238703296007 -2.4836455879810557e-7
-0.0007274028340771929 -0.00046217224474224465 -2.3293596249674325e-7
-0.0007632074788400791 -0.0005394956958259256 -1.0413305392106236e-7
-0.0007391811999561919 -0.0006178671240930356 -1.33861734298827e-7
-0.000733749639136666 -0.0007398242407894303 -1.0224589877184886e-7
-0.0007334484775061692 -0.0008444678698100555 -7.231001093660369e-8
-0.000750938192755226 -0.0009182544885373405 -2.8449117783552844e-8
-0.0007472562416288007 -0.0010378357794294175 -1.2339445159219531e-8
-0.0007380134928954481 -0.0011527354231711557 6.275737268944254e-9
-0.000746231445915432 -0.0013530142865099005 9.019588017610814e-8
-0.0007233509433902551 -0.0014233826424068171 1.2815761359075919e-7
-0.0007419521961800899 -0.0015471934240368994 2.328432404858603e-7
-0.0007323429525904548 -0.0016323578614845157 3.184394123167382e-7
-0.0006371119454612145 0.00021879844801499178 5.538179846823905e-7
-0.0006388314812103051 0.0001481285721101515 3.8162491655894936e-7
-0.0006416103021850496 9.942682134637971e-5 2.6120393532247266e-7
-0.0006332432935048151 4.119226642090505e-5 1.1683059977887511e-7
-0.0006471196918243129 -2.4377342949325297e-5 -3.43729953976652e-8
-0.0006237304502888643 -6.452165565839753e-5 -1.704432731432865e-7
-0.0006398902781941432 -0.00016194100758537748 -3.676478378838392e-7
-0.0006746347568245708 -0.00023738850743876204 -3.734468150353363e-7
-0.0006617360258309245 -0.0002957364000762892 -4.6759290053865467e-7
-0.0006580179525635805 -0.0003649323134890802 -4.964901949210362e-7
-0.0006489049558118945 -0.00044261877455223966 -4.934173376283066e-7
-0.0006933922719647186 -0.0005443351892752129 -2.863289708421323e-7
-0.0006344219591840422 -0.0006486134704225649 -3.4699473600172783e-7
-0.000641334352821667 -0.0007578306228070589 -2.6103657271167557e-7
-0.0006462772471885738 -0.0008429791903524895 -2.114194400312614e-7
-0.000663447556390225 -0.0009267769095157976 -1.549936739479195e-7
-0.0006422417698198098 -0.0010374852030350355 -1.4269168071979745e-7
-0.000645238241180095 -0.0011241329224671007 -1.0424138450154294e-7
-0.000649716986949173 -0.0012588453703588397 -3.646032884841813e-8
-0.0006443231052793254 -0.0013249993963618232 1.8854564547703344e-9
-0.0006537598640829946 -0.0014605118731470966 1.4102701168293987e-7
-0.0006125714116394457 -0.0015459531462553146 2.640152197012207e-7
-0.0006349633165220279 -0.0016624050599954839 4.821196852403002e-7
-0.0005702055018535465 0.0002138185219389627 6.743203451881219e-7
-0.0005661680786153311 0.00015407521345560542 4.782460027928696e-7
-0.0005775418333465054 9.460248114695129e-5 2.7330102410863785e-7
-0.0005669839887858257 1.5678200557430548e-5 8.059924419195866e-9
-0.0005632382380894112 -1.2885981542091252e-5 -9.496147821229364e-8
-0.0005829407406738571 -7.385686521902538e-5 -2.734089970282012e-7
-0.0005662014391243232 -0.0001412039362828835 -5.419382424032528e-7
-0.0006113736135857892 -0.00022031640312222505 -5.85589477027034e-7
-0.0005847417668335806 -0.00028268891463201787 -8.011508998425745e-7
-0.0005515241785989658 -0.0003596709044809037 -9.7896996797512e-7
-0.0005655536919879412 -0.00045564478829982467 -7.614519871199449e-7
-0.0005686594923568487 -0.0005530078600762657 -5.928102195652205e-7
-0.0005490528766193235 -0.0006367030150156646 -5.258127820674506e-7
-0.0005423341977648436 -0.000757308115501185 -4.271958427270812e-7
-0.0005356992677961308 -0.0008414921420307734 -3.816993776797866e-7
-0.0005329577969217697 -0.0009298927722869817 -3.355205274308923e-7
-0.0005308563701624483 -0.0010699648020252822 -2.6604169619019127e-7
-0.0005030954397644904 -0.001146274863869705 -2.6306367220590466e-7
-0.0005688014903451772 -0.0012567946694459575 -1.2225780234749993e-7
-0.0005290053919851341 -0.0013529441783056938 -9.121072064655901e-8
-0.0005369389320388097 -0.0015141776127162992 1.53921013024504e-7
-0.0005571244649932476 -0.0016861276358848265 6.656037421700733e-7
-0.0005066194696689387 0.00020615787501175183 7.857186345084432e-7
-0.0005071074731187935 0.00015173476604864424 5.510979207416129e-7
-0.0005057403395114611 0.0001002430424984454 3.353895080955888e-7
-0.00049480833656799 4.395053265240763e-5 9.913565137009109e-8
-0.0004983901714760122 -2.556709694241664e-5 -2.113736558916629e-7
-0.0004961154479236359 -7.249819593165254e-5 -4.346686454777907e-7
-0.0004932901733025437 -0.00014095349043064236 -7.842258723583416e-7
-0.0005123137881569292 -0.00020716460328517794 -1.025111073231847e-6
-0.0005097699229668599 -0.00028101421272058746 -1.2934814829668664e-6
-0.0004724756629396462 -0.00035722447041326683 -1.5379318773028342e-6
-0.0004952818271721417 -0.00046877620764013627 -9.51858243516814e-7
-0.00047054057935678437 -0.00058194155860996 -7.337671961112309e-7
-0.000455962635089628 -0.0006757603623680766 -6.284208426326688e-7
-0.00044787041333710197 -0.0007642941777974704 -5.577637723616599e-7
-0.00044365022417907257 -0.0008483937907164758 -5.0234173336283e-7
-0.00045359227543513634 -0.0009221610741792252 -4.4328743840749995e-7
-0.00043194953721667473 -0.001056392386120146 -3.9570591187124404e-7
-0.00042230055654058995 -0.0011420542660599076 -3.680915837408622e-7
-0.0004202094607285332 -0.001215866534905797 -3.361740866846826e-7
-0.0004169587972848689 -0.001343397494364499 -2.7308650809848664e-7
-0.0004589659478928876 -0.0014514778933530047 -8.41035027564748e-8
-0.0004397473344078615 -0.001508071774479687 -2.938164223507817e-8
-0.00046916061726517836 -0.0016842253123146688 7.136043086725614e-7
-0.00044607885818713315 0.00019415887026620854 8.692446061892673e-7
-0.00045589218294746534 0.00014181351828283754 5.824122828913057e-7
-0.0004548502424116629 7.858465313102006e-5 2.745776780608087e-7
-0.00044732110096824004 3.616149711026294e-5 6.653798557671124e-8
-0.00042878857143596277 -2.6038691405892117e-5 -2.6946285348864394e-7
-0.00044576965907079826 -7.939769274812236e-5 -5.571231025713806e-7
-0.00043309209748154177 -0.00012549213546360805 -8.737330941863735e-7
-0.0004106295149203825 -0.00018188905035881507 -1.4171695555893127e-6
-0.0004385539214497683 -0.0002439849438992411 -1.8803116388171453e-6
-0.00040017050104651817 -0.0003593347729278529 -2.303247429864279e-6
-0.00042843168173865143 -0.00044683656708828176 -1.2316828827864595e-6
-0.0003797789316768524 -0.0005452582051092732 -8.85318315502476e-7
-0.00037042970771651937 -0.0006365586112870652 -7.59787439936051e-7
-0.00035648028415016304 -0.0007741965116394254 -6.606187787697294e-7
-0.00035077549095668 -0.000866210480720018 -6.04563895612014e-7
-0.0003485050125082992 -0.0009605241418100038 -5.505038572784328e-7
-0.0003368144223130185 -0.0010581849052158502 -5.12936437679532e-7
-0.00033022947661698115 -0.001153439641894628 -4.789790757632477e-7
-0.0003283453290737299 -0.0012508008043708749 -4.5230338789646817e-7
-0.00031839670216012706 -0.001350027631001775 -4.596248057871232e-7
-0.0003140175652036323 -0.0014504107848444196 -4.928470809895166e-7
-0.0003170002380395344 -0.0015567671056004274 -4.6511947673848417e-7
-0.0003653172059595969 -0.0016754508544840595 3.1259562721285176e-7
-0.0003895748334214528 0.00018472214882017256 9.501582193447311e-7
-0.00040044228467123297 0.00012556948184069597 5.83592338504143e-7
-0.0003728362098014127 7.682811968839682e-5 3.3541745888718243e-7
-0.00038570417068574175 2.2258927613646556e-5 3.1095766432439346e-9
-0.00036487225224981535 -2.3838309026875034e-5 -2.7802100512335096e-7
-0.00036197395572544185 -0.00010216511989645863 -8.169062048641957e-7
-0.000362724451600238 -0.00015297753943655694 -1.2311052324892273e-6
-0.00036192443668435194 -0.0002068007839923351 -1.817788634496741e-6
-0.00036110999550966226 -0.0002623414883687802 -2.668897697474724e-6
-0.0003375423007155121 0.00017544652157406486 1.0216620467817344e-6
-0.0003306429729448948 0.00011000457020148259 5.998819371593141e-7
-0.00030390659521432683 7.815988860378994e-5 4.299726929370489e-7
-0.00031563218253586277 2.3158865852143e-5 4.367327087818971e-8
-0.0003180039450048102 -2.155179927170889e-5 -2.6137198695599444e-7
-0.0003181625654866824 -7.539754703306397e-5 -6.383703294505739e-7
-0.00031970260300277585 -0.00012552478448272895 -1.010073401937274e-6
-0.0003201573526970335 -0.0001733014316065796 -1.3898485929818267e-6
-0.0003217758781588349 -0.0002198276240308452 -1.7623879564453263e-6
-0.00028670663544956375 0.0001528764303988721 9.932172811542e-7
-0.000287330981730148 0.00011658443970214868 7.272143461057697e-7
-0.00027650905552543915 6.735293295785983e-5 3.9237144005668746e-7
-0.0002734376819517022 1.8444226743016905e-5 4.0819772915598105e-8
-0.00027602627412545884 -2.533274243722504e-5 -2.7819738002314e-7
-0.0002566392570231227 -6.289827770211962e-5 -5.490076724689125e-7
-0.0002809466398934647 -0.00012191883294959541 -9.76749489493564e-7
-0.00028072909678010874 -0.00016323616423880654 -1.267754762005143e-6
-0.00028162708216791663 -0.00020303424650076947 -1.5055005280370378e-6
-0.00023994834582519137 0.00014936892991670759 1.0967634281665999e-6
-0.00021223164732663848 8.979895921314641e-5 6.714449761916915e-7
-0.00023400801936005445 5.623735977749977e-5 3.63876145119367e-7
-0.000231373243482045 1.4881628846132026e-5 4.4945439743701433e-8
-0.00021813682413840787 -1.824255155271014e-5 -2.0729341313663014e-7
-0.00022390614431014715 -5.899130851806253e-5 -5.229568864696131e-7
-0.00023174759550332352 -0.00010396047711642426 -8.60114599657896e-7
-0.00022579683271595248 -0.0001391332930210101 -1.123473800867157e-6
-0.00022332296951822382 -0.0001744319056595507 -1.3730179088267651e-6
-0.000201565905452547 0.00013870981257146044 1.1288966363870953e-6
-0.00018078477166676778 8.298544179214993e-5 6.823592728557157e-7
-0.00018049024675581207 5.727897128224578e-5 4.5187815083746535e-7
-0.00018513904988299155 1.3019579199648189e-5 6.347303898277239e-8
-0.0001832533382679898 -2.1984056974690236e-5 -2.3237497276934416e-7
-0.000188072894105846 -5.967927113692439e-5 -5.459672917496142e-7
-0.00019469085703580796 -0.00010175914860317156 -8.814354918455985e-7
-0.00018966595192434132 -0.0001350042380554651 -1.157575429296704e-6
-0.000184157159577975 -0.00016851663160870814 -1.4479690108703094e-6
-0.0001511964574629332 0.00011978092669760503 1.1371686618512472e-6
-0.00015020426011102145 8.988251330552043e-5 8.343396637751002e-7
-0.00014474454408624102 5.323345793531375e-5 4.85426372185369e-7
-0.00015668285069025777 1.586239501536588e-5 1.1449969792419499e-7
-0.00015120374214633103 -1.9439577583010633e-5 -2.0989341737510014e-7
-0.0001536844586248172 -5.4476215256726884e-5 -5.316349571881458e-7
-0.0001543195324302783 -9.462575813929792e-5 -8.947805746337031e-7
-0.00015825056507219276 -0.00013166966547746567 -1.2247373164957815e-6
-0.0001509407211062596 -0.0001561682964501419 -1.4941956745950063e-6
-0.0001222564561062919 0.0001064516981794247 1.124489159693225e-6
-0.00012233447511147695 7.329979522073336e-5 7.510337928875993e-7
-0.00011551177079176147 4.1571246708472355e-5 4.2620330203564887e-7
-0.00012172206792471893 4.079665843201493e-6 2.152535260431542e-8
-0.00011589060190003387 -2.574402954104263e-5 -2.8836241464646814e-7
-0.0001231092481895145 -4.498168828244827e-5 -4.770088649892257e-7
-0.0001311534005724114 -8.116127828906503e-5 -8.219758202597368e-7
-0.00012853551678418916 -0.0001040797115170076 -1.0647286877210448e-6
-0.00012163376692395554 -0.00013875822801873467 -1.4970785717918648e-6
-9.392305655355835e-5 8.611525578747098e-5 1.0342292241156843e-6
-9.9319494547029e-5 6.998056371199252e-5 8.03652154114911e-7
-8.808613374850684e-5 3.667422760158008e-5 4.326856130635245e-7
-7.738470074244339e-5 6.1422057675800665e-6 6.968198483191476e-8
-8.910616097203506e-5 -2.2134864284136747e-5 -2.7793845289562586e-7
-8.526400343317715e-5 -4.49775828995177e-5 -5.653168002310169e-7
-8.946933307641756e-5 -7.324591273121458e-5 -8.988075951004989e-7
-9.964686852977475e-5 -9.808238506119562e-5 -1.1478120461950968e-6
-9.603891511033358e-5 -0.0001219715630684663 -1.5031636128336543e-6
-6.691234306217707e-5 7.427541873443546e-5 1.0684126037447134e-6
-6.656104656236447e-5 5.112608574739115e-5 7.086230522486918e-7
-6.475203361701524e-5 2.908964269235747e-5 3.9958223625096416e-7
-6.215450824534009e-5 2.0313336597664407e-5 2.830491889072436e-7
-6.641894587793322e-5 -1.6455781241423645e-5 -2.349174956272651e-7
-6.005866211420913e-5 -3.441395088597571e-5 -5.103234396728051e-7
-6.347271147915961e-5 -5.465919141966556e-5 -7.93028566902267e-7
-6.606390952793487e-5 -7.489557022743489e-5 -1.0872692719672947e-6
-7.342034526193322e-5 -0.00010474565605862691 -1.508315920094027e-6
-4.359518634425513e-5 5.31613154214523e-5 9.3899131286388e-7
-4.5009492843517274e-5 4.22668352150128e-5 7.158095558824131e-7
-4.3879765519562655e-5 2.9009183971511947e-5 4.885716643693829e-7
-3.780569082492829e-5 8.335452565375336e-6 1.456512102204504e-7
-4.254125023873358e-5 -1.4951330115520424e-5 -2.6328360660970116e-7
-4.386041960567399e-5 -3.216875732977488e-5 -5.537636698794526e-7
-4.6309632202929106e-5 -5.371145268410972e-5 -9.282989595331206e-7
-4.992925467207613e-5 -7.096005365879905e-5 -1.2222153839802152e-6
-5.4251239592869016e-5 -8.71522419960947e-5 -1.504374117873319e-6
-3.009647228794905e-5 4.6413286404478026e-5 1.0177141646094884e-6
-2.898460835055292e-5 3.43643413121503e-5 7.287164694569524e-7
-2.552479609683157e-5 2.041276887625165e-5 4.426699620814448e-7
-2.8642821744372483e-5 1.070612970787794e-5 2.1194085148532764e-7
-2.4847253389210396e-5 -3.1322952817451084e-6 -8.033828263496396e-8
-2.7264134433147403e-5 -2.9138944028894964e-5 -6.457182061771257e-7
-3.118023667497685e-5 -4.4727413121624496e-5 -9.627231672368069e-7
-3.437707324258122e-5 -5.7061016663493036e-5 -1.2238423558688682e-6
-3.8464735390608004e-5 -6.9671814778158e-5 -1.4992014386270105e-6
-2.0614629753026575e-5 3.9845716551053704e-5 1.1430761018119642e-6
-1.7293927906500333e-5 2.671905433634715e-5 7.509516969731385e-7
-1.3186140207738967e-5 1.3972889750998504e-5 4.2451449255451337e-7
-9.722015161099338e-6 4.154896407046121e-6 1.3613355972837534e-7
-1.1186662947965006e-5 -2.5784357283167253e-6 -9.187945542031497e-8
-1.6724393192110674e-5 -1.9010218725429447e-5 -5.365991585500012e-7
-1.7715110641821774e-5 -3.0088108013503886e-5 -8.797415739496825e-7
-2.198124962771869e-5 -4.327815707196754e-5 -1.2494209526775432e-6
-2.605167378532281e-5 -5.245482305508929e-5 -1.5087560532518066e-6
-9.873634399394696e-6 2.3612064811800736e-5 1.0921654040360133e-6
-8.58902480396582e-6 1.9533130593489237e-5 8.444947169385077e-7
-2.512806267586351e-6 2.9952972173543866e-6 1.62421899222112e-7
-2.831545292579905e-6 -1.9260597963691576e-6 -1.1440810598219688e-7
-3.7585760110616075e-6 -1.1256496228732044e-5 -6.608935124658897e-7
-5.157381348094056e-6 -1.597847194866141e-5 -9.73967846876377e-7
-1.2930860411776894e-5 -2.992305533772561e-5 -1.3198713102551877e-6
-1.6706208714247544e-5 -3.5353885204310784e-5 -1.5557075578963368e-6
-3.7643889060533357e-6 1.020979970094165e-5 1.0386917829174544e-6
2.104023993429559e-8 4.709371320465556e-6 5.963706141742928e-7
6.801386008167202e-7 3.3046096496839607e-6 3.679869395961398e-7
1.2205557101905956e-6 2.9629445925167894e-7 3.08651401970679e-8
9.988337863445048e-7 -2.315248996194972e-6 -2.7686652030898136e-7
3.530301900267069e-7 -4.9659872965194295e-6 -5.956426971746571e-7
-8.117973503851369e-7 -7.177136399977312e-6 -8.771227045937602e-7
-2.8156676952657123e-6 -9.564735233841196e-6 -1.123735638391405e-6
-8.18162538454796e-6 -1.612023999984568e-5 -1.438656203135322e-6
-0.0012284015893524096 -0.0016968658935325608 -1.161963925685709e-8
-0.0012283825817406401 -0.0015518999458854013 3.5442257212863396e-8
-0.0012270006852217533 -0.0014054214238953082 1.4658524385355816e-7
-0.0012231064825140776 -0.0012584444632529332 3.0483062810879504e-7
-0.001216302843101396 -0.001112511942442992 4.6192669195614257e-7
-0.0012102957036868177 -0.0010164483694525652 5.640164478449201e-7
-0.0011989310759554649 -0.0008750841229979234 7.209187722151041e-7
-0.0011850067152127362 -0.0007380411172679235 8.558490250991691e-7
-0.0011689344837185294 -0.0006063677574582515 9.635771479587149e-7
-0.0011572677233125462 -0.0005221738920046904 1.0132381642417803e-6
-0.0011390410796898154 -0.00040182645981082807 1.0317429093130512e-6
-0.0011211449483460605 -0.00028899271224293023 9.673435992000483e-7
-0.0011051945722626423 -0.0001832366835929952 8.151895057325715e-7
-0.0010925503028750355 -8.308743655111114e-5 6.049276857324738e-7
-0.001086384289778645 -1.8425782863139885e-5 4.4239497900687583e-7
-0.0010807745102497169 7.731496174237595e-5 2.085365012295599e-7
-0.0010788731593805562 0.0001737415533586458 4.7109350337717304e-8
-0.0010788502714665412 0.0002722805014600197 -1.5335977813540327e-8
-0.0010456945140354713 0.00030549754980526973 -1.5554230669077313e-8
-0.0009451251899904142 0.00030547944383803294 4.731385858283966e-8
-0.0008423935477672682 0.0003035825270219881 2.0923383549839047e-7
-0.0007388204678870657 0.00029793151680003677 4.52423642650964e-7
-0.0006368030834924901 0.0002875972456833249 7.227678315367914e-7
-0.0005709044222284117 0.00027808529633157025 8.948737136290198e-7
-0.0004769908852097699 0.0002601939523473122 1.1214594744158544e-6
-0.0003906709936019307 0.00023883699702549263 1.2855329876717055e-6
-0.00031313198006347744 0.0002151420633497755 1.3871522987643568e-6
-0.00026658509876204564 0.00019862971168279004 1.4221086515384979e-6
-0.0002044731058733464 0.00017333971612844043 1.4431085327150462e-6
-0.00015136722626558972 0.00014790644782813347 1.4439084155707414e-6
-0.00010693817743619022 0.00012256446285748024 1.4396427810958575e-6
-7.096263598613466e-5 9.736519058596082e-5 1.4338927726781026e-6
-5.161921651065086e-5 8.064609619012296e-5 1.422482823142219e-6
-2.9436886290863627e-5 5.578670724225745e-5 1.402339238284238e-6
-1.5040836109654263e-5 3.135555622150748e-5 1.4327965335737455e-6
-6.186414272249314e-6 7.651728918435597e-6 8.14696631268022e-7
0.0 0.0 0.0
0.0 0.0 0.0
0.0 0.0 0.0
0.0 0.0 0.0
0.0 0.0 0.0
0.0 0.0 0.0
0.0 0.0 0.0
0.0 0.0 0.0
0.0 0.0 0.0
0.0 0.0 0.0
0.0 0.0 0.0
0.0 0.0 0.0
-0.0003656061567483422 -0.0002842504899323208 -3.0549941531922293e-6
-0.0003253899309606313 -0.00025900098604920464 -2.0512956969708914e-6
-0.00028401980107907525 -0.00023912442616313555 -1.680608896867771e-6
-0.00022481233350383982 -0.00021057178437659455 -1.620235756530671e-6
-0.00018859591970098923 -0.0001915314544200673 -1.6279889840094791e-6
-0.0001554322250504953 -0.0001724129665882502 -1.6353823818447396e-6
-0.00012558224129420597 -0.00015317110656065658 -1.6438306105472994e-6
-9.916009843478234e-5 -0.00013385758836330356 -1.6480762669090218e-6
-7.6250060963238e-5 -0.00011449539836435056 -1.6487810036879977e-6
-5.6858705253776524e-5 -9.514456423185678e-5 -1.645362473391417e-6
-3.425726408997324e-5 -6.62736307421006e-5 -1.63444308793606e-6
-2.328071651641657e-5 -4.722405912917612e-5 -1.6573380639820772e-6
-1.5066774132060322e-5 -2.8267793443633704e-5 -1.7116681559903556e-6
-7.99780506577217e-6 -9.517992450107678e-6 -9.858915254836006e-7
-0.00023441451891800441 -0.0017418333711101183 7.997027248305385e-7
-0.00024730934333121754 -0.0016193138090794322 -8.052652589682739e-7
-0.0002575994059002566 -0.0015106664066354518 -7.812692322934275e-7
-0.00026844466070945373 -0.001357113399828055 -5.660028464045381e-7
-0.0002746244923760434 -0.0012576425586995888 -5.315683743197462e-7
-0.00028077712832173275 -0.0011596421961666825 -5.396225482668903e-7
-0.00028722342391449186 -0.001062934780998669 -5.713686434546387e-7
-0.00029414003593911114 -0.0009674953656682887 -6.132428548120753e-7
-0.00030158107713500713 -0.0008733082571422244 -6.592179087340279e-7
-0.00030960861012827706 -0.0007803736713351107 -7.094591598631159e-7
-0.00032278598652927106 -0.0006430286009631048 -7.885859368067435e-7
-0.0003323775921821885 -0.000552232515949117 -8.863656815895119e-7
-0.00034315591033011927 -0.0004607490600926511 -1.3032732366095876e-6
-0.00035955675232422497 -0.00036516936350880095 -2.616017722902008e-6
-0.0002985636743280038 -0.0018107245804200916 9.843580047259656e-7
-0.00041267968587442854 -0.0017875544479044937 1.4240264264950662e-6
-0.0004644626202294154 -0.0017779637244353032 1.3551671984231937e-6
-0.0005633719674770903 -0.0017648242197678607 9.39541282526958e-7
-0.0006593315792676771 -0.0017565025344558215 6.034897016891057e-7
-0.0007067528429973554 -0.0017535364036554476 4.890794720170263e-7
-0.0008010010238662487 -0.0017489485318505458 3.0520068186378984e-7
-0.0008950156824981041 -0.0017463728346718286 1.6369571510033776e-7
-0.0009421381765900871 -0.0017456322324570692 1.1110292363167143e-7
-0.0010368308486312016 -0.0017449263710027627 3.623218848075602e-8
-0.0011323081553755126 -0.0017448736824322885 -1.144671994658932e-9
-0.0011803040958247892 -0.001744917629311161 -1.1683506073295361e-8
-0.0011796311705771013 -0.0016963382863165722 3.905535748916671e-9
-0.0011315524011997096 -0.0016963989694739972 1.813344071515797e-8
-0.0009432013836204909 0.0002705767251561367 7.877049814402013e-8
-0.0008736955245719491 0.00026954151471349967 1.6590825359278854e-7
-0.0008395826951171088 0.00026968302176607093 2.2006778401026622e-7
-0.0007703083976660752 0.0002672339039900995 3.5104174097531843e-7
-0.0007367779156492529 0.0002638398263656102 4.2058396234525417e-7
-0.0006710784137065745 0.00025669837586675105 5.625688925710315e-7
-0.000637310097324187 0.00025274976802425425 6.359666866488141e-7
-0.0005706912394463331 0.00024535743469308055 7.823135867299419e-7
-0.0002041974357618087 -0.00018125561651028232 -1.475783526059002e-6
-0.0003432818670625386 -0.0002509948570702661 -2.260049686745517e-6
-0.0011783001142441933 -0.0015996569744504946 3.557722518764174e-8
-0.0011769128564363307 -0.0015510021660381332 5.7549270897118874e-8
-0.0011731271279544538 -0.0014519866459615602 1.1780619493010215e-7
-0.0011764723613242138 -0.0014030927217202342 1.535337021450025e-7
-0.0011760466014621943 -0.0013067148704335643 2.3687191881139718e-7
-0.001171925215574629 -0.001259671239954922 2.792136043178035e-7
-0.0011487064744610536 -0.0011581565611314018 3.576995777556773e-7
-0.0011575435189300496 -0.001102374689460915 4.1621130909996903e-7
-0.0011676571721351864 -0.0010071628794674793 5.207932526028805e-7
-0.001128911596218236 -0.0009282424631058615 5.445569361936179e-7
-0.0011425999913088271 -0.0007850545229914101 7.093765365484923e-7
-0.0011346752463480582 -0.0007389235646760516 7.371103777602083e-7
-0.0011301592320996237 -0.0006485983878246784 8.12181304512136e-7
-0.0011127418453169846 -0.0005189847955560596 8.740141396245447e-7
-0.0011061973309030575 -0.00043876375434424755 9.022881143326082e-7
-0.0011017564608897922 -0.00040041282304316666 9.026029271356972e-7
-0.0010918599123800352 -0.00032733435185792667 8.769872524957432e-7
-0.0010873674756040875 -0.0002921433552402106 8.534503592101373e-7
-0.0010760615695004712 -0.00022176514896137594 7.72362981894096e-7
-0.0010681689904495837 -0.00018718890286343898 7.146434564995472e-7
-0.0010576792347275128 -0.00011870748244776516 5.98211798444423e-7
-0.0010562123906562566 -8.459468134109984e-5 5.392908819946482e-7
-0.0010534660610212118 -1.9653132899129316e-5 4.107852877301098e-7
-0.0010508637780843085 4.3353067005097126e-5 2.804854031253927e-7
-0.0010458082456726587 0.00013885313323024995 1.1732636894752173e-7
-0.0010441811445978527 0.00017113556918351436 8.028153196552936e-8
-0.0010441246669600738 0.00023760912092075172 2.6813713056211663e-8
-0.0010447782203181755 0.0002714002669669395 6.246600988249142e-9
-0.0009773363253306826 0.0002707971997976047 4.882261461506564e-8
-0.0005068711688505426 0.00023570294538146852 9.163062365123443e-7
-0.00047610852302200596 0.00022988505485008336 9.747732082700002e-7
-0.00041790559418084975 0.00021752999765325067 1.0729062014184737e-6
-0.0003903520630059682 0.00021182914712057733 1.116930092626692e-6
-0.00033715220124217794 0.00019869041181015654 1.1869697665397836e-6
-0.0002648121885535415 0.0001756338125478793 1.2376943561594206e-6
-0.00022228736363802528 0.00016310995367791635 1.2766072278128086e-6
-0.00020297058527159347 0.00015610028042179925 1.2858164153384663e-6
-0.00016749247314091364 0.0001413691783038529 1.290764155514505e-6
-0.00015114770894497016 0.00013402592174410736 1.2908420994235734e-6
-0.00012094046873438817 0.0001183633868695156 1.277606776369516e-6
-0.00010670564226431518 0.00010962382021594195 1.2619140499439934e-6
-8.067747337518971e-5 9.33889862275161e-5 1.2461578198173517e-6
-6.903649858752648e-5 8.616156998869778e-5 1.2514493598973859e-6
-4.9562962108967355e-5 7.239334416797756e-5 1.264320439438568e-6
1.1851257144617246e-6 -1.0506310375462685e-6 -1.803615824491436e-7
8.176933906519371e-7 -2.2144239401291555e-6 -3.781757058669044e-7
1.1354810392333196e-7 -3.205452073814166e-6 -5.451461464871152e-7
-3.221865104499068e-5 5.261383051117243e-5 1.1442648969956852e-6
-2.7647112539492094e-5 5.114261943272477e-5 1.2735017126308985e-6
1.174540855730579e-6 6.994611702346706e-7 1.159650278261681e-7
-1.6683270964277223e-5 3.543890128947005e-5 1.264626071666068e-6
-1.23742715860196e-5 2.7626473451601718e-5 1.2698358341784426e-6
-6.164220201509139e-6 1.2619285132275267e-5 1.1547891812204458e-6
-3.1758446042921427e-6 5.384443015256654e-6 7.237089722112785e-7
-5.787815623185463e-7 3.5303282344706137e-6 5.584162971032573e-7
7.86234384061258e-7 1.6935518786347867e-6 2.883837812536941e-7
-1.0955871851758412e-6 -4.34258542740263e-6 -7.020760362548494e-7
-0.0003118564119294191 0.00019021979467982142 1.2032573250943983e-6
-4.594328862596611e-5 -7.8405724345506e-5 -1.5016476746754803e-6
-6.341980729430547e-5 -9.597175996719012e-5 -1.5073594668095141e-6
-0.00036530959683869156 -0.0006825990018477142 -7.220228270188991e-7
-0.00041534119510092907 -0.001734639156965388 9.534298429441217e-7
-0.0005606206362129129 -0.0017248715512671606 7.989418972258211e-7
-0.000652740298767978 -0.0017056488911313952 5.295571979032926e-7
-0.0010362487427016589 -0.0016967046646728999 5.777457926987439e-8
-0.0008930559037719215 -0.0017004985609621818 1.6981285825925932e-7
-0.001049460318396706 7.487450695201599e-5 2.1936778406991788e-7
-0.0011244458552544304 -0.0006040595667486334 8.379322040463471e-7
-0.0011597263611909515 -0.0008778280999457554 6.474814972997896e-7
-0.00031184990840155586 -0.0016140915566009812 -3.709257351120497e-7
-0.000809164319819327 -0.001673932875652453 2.6223481181184383e-7
-0.000705199800423576 -0.0016860155166700246 4.1167650781450034e-7
-0.0011791940144751602 -0.0016481800487749484 1.8427462263617828e-8
-0.001174654397706425 -0.001501347322761516 8.543228219652247e-8
-0.0011777753489111377 -0.001354730255669522 1.9400856254203676e-7
-0.001167800797684923 -0.0012119824307042185 3.2199106804733426e-7
-0.0011608761568425094 -0.0010520863468964953 4.673019669627419e-7
-0.0011422679097801715 -0.0009602908586209675 5.34081235484597e-7
-0.0011513707344231478 -0.0008319126630533329 6.798017689821881e-7
-0.0011325792798821343 -0.0006933384034773535 7.759027863662785e-7
-0.001116401881444428 -0.0005609339972660872 8.520923410628134e-7
-0.0011098279049928787 -0.00047821950369935105 8.924534033312379e-7
-0.001096811857849011 -0.00036304969583644695 8.937047424768405e-7
-0.001082341987556896 -0.0002569152180711492 8.191613273060391e-7
-0.0010606536129047614 -0.000153352085008978 6.538254761179375e-7
-0.0010548841822318588 -5.173331136007488e-5 4.7631685161140265e-7
-0.0010521765320774432 1.1915857604145018e-5 3.4500172527012573e-7
-0.00104768029445829 0.00010668178614411968 1.6418729818810893e-7
-0.0010437340507960316 0.00020404206702595654 5.070351761126742e-8
-0.0010110290335526453 0.00027097238447008545 2.6077575297176494e-8
-0.000908312648269707 0.0002701081179801618 1.1834473050824083e-7
-0.0008052378853379538 0.0002693957615564871 2.8231147468992686e-7
-0.0007039853078301352 0.0002626879913743062 4.943246558620968e-7
-0.0006036371410460672 0.00024928150542289057 7.101168647245194e-7
-0.000538403584232364 0.0002408869625775156 8.518135784107363e-7
-0.0004464057918025277 0.00022370314093917126 1.0267609992360862e-6
-0.00036335150374824335 0.0002057464483283773 1.1564941565040528e-6
-0.00028796278774973524 0.00018163711638861487 1.2121173850142224e-6
-0.0002428428632755848 0.00016961914779206564 1.2605320747429334e-6
-0.00018476730801319106 0.00014882785175576464 1.2901225474121729e-6
-0.00013568713238961354 0.0001264578300805038 1.2871153454012897e-6
-9.347748045983863e-5 0.00010092694971253114 1.2444738848125367e-6
-5.875750164573504e-5 7.915106188919272e-5 1.2564037469908316e-6
-3.907735836264174e-5 5.8090336729649306e-5 1.1262841642112503e-6
-2.185192158567996e-5 4.342859142727326e-5 1.2681256171295821e-6
-8.947579491417204e-6 2.011448234938014e-5 1.2796062283776864e-6
-1.5718142769408141e-6 4.430719295198564e-6 6.526627926811739e-7
5.7071179034487326e-8 2.750208229289148e-6 4.553405247038071e-7
4.693318061575914e-7 2.1424432002677353e-6 3.62170662587136e-7
1.0434685902647542e-6 1.2846978825075452e-6 2.1754064808699044e-7
1.2053778303942904e-6 1.1613495265664203e-7 1.7600919347785733e-8
1.2202728758407039e-6 -4.482160473267144e-7 -7.816270240736201e-8
1.0457993577889296e-6 -1.6474443358022282e-6 -2.8202469308999313e-7
5.061470861520743e-7 -2.717054994216006e-6 -4.639102604754736e-7
-3.904357530880129e-7 -3.708784164111444e-6 -6.217224015632939e-7
-2.2175372935512325e-6 -5.3190948672890844e-6 -7.993143953374144e-7
-3.185046060778615e-5 -6.104526085687253e-5 -1.5009816353540304e-6
-2.1044993320323812e-5 -4.39241224968767e-5 -1.5281702787009973e-6
-0.00031511864838016247 -0.0013996660359698611 -4.741310110552124e-7
-0.00032336047537476643 -0.0013004635581961967 -4.5190354333360557e-7
-0.00032888410068139225 -0.0012019083885278334 -4.641936308571975e-7
-0.000332715533457302 -0.001105779537430199 -4.955869565381679e-7
-0.0003426067616769339 -0.0010095234231071318 -5.307556085235771e-7
-0.0003496554093267122 -0.0009132440549417875 -5.765992058693376e-7
-0.00035309164525832587 -0.0008200594428177744 -6.324561432291355e-7
-0.000392532273200728 -0.00040805873489122523 -1.7145820502314886e-6
-0.00036166152906283455 -0.0017369288801848944 7.328569507225556e-7
-0.0004657282854450848 -0.0017320790601974734 1.02298987203624e-6
-0.0005138466350848091 -0.001729374990641403 9.401267049297804e-7
-0.0006062562862636856 -0.0017173568448036443 6.561982948791159e-7
-0.00075902077563049 -0.001698413001721871 3.427125659192175e-7
-0.0008426894402859663 -0.0016644371516920113 2.2109128013530257e-7
-0.0009394335937766359 -0.001695381934333323 1.2666966508516817e-7
-0.000987847112535038 -0.0016959767126083192 8.83985124023333e-8
-0.001083876469759489 -0.0016967197345578243 3.497950204003268e-8
-0.00016653330517962388 -0.00016381700851769444 -1.4857092888520896e-6
-0.00031564997758210363 -0.0015028924512432674 -4.996399409611985e-7
-0.00020514016061968975 -0.00016339576748447115 -1.3370891473739149e-6
-0.00034135447771091546 -0.00022779315368977576 -1.9839469700663554e-6
-0.0004064325049934594 -0.0007236754110293025 -6.430914258435822e-7
-0.00043220201214115654 -0.000402268639743656 -1.5428304015623879e-6
-0.0003738817415706644 -0.001615062801066527 2.4497148961498358e-8
-1.13304008701907e-5 -2.5757434911377932e-5 -1.466553534748548e-6
-0.0003713506941720231 -0.001491222469230553 -2.786174825031133e-7
-1.898039038264661e-5 -4.0357496295787155e-5 -1.404548450871e-6
-0.0003995406921366959 -0.0008132887627378 -5.814648075379174e-7
-0.00017217301273087185 -0.00015154693069874706 -1.3506121618872147e-6
-0.00036390071655709655 -0.0013922755527404794 -3.5526031278666754e-7
-2.967493006432992e-5 -5.5622720561081116e-5 -1.3662922431245245e-6
-0.0003996578328776767 -0.0009034841442573798 -5.214441029210958e-7
-4.328103125186842e-6 -6.803164540003112e-6 -9.185520150719934e-7
-0.0009756123229709622 0.0002365651352197924 7.92673909124982e-8
-0.0004045054143103213 -0.00031072761986400524 -2.6989632408302515e-6
-0.00041971934242208096 -0.0016799160977407678 5.90907011540974e-7
-0.0011226001611203673 -0.0015029434596410712 1.0177091551763911e-7
-0.0011247581483764869 -0.0009879800433847579 4.834139476223554e-7
-0.0010869467180142866 -0.0006889911205847779 6.670530365915926e-7
-0.0010587508066122549 -0.0003627608574279589 7.627872049525724e-7
-0.0010197123945847385 1.0856548126937809e-5 3.262305218011387e-7
-0.0010082375125008902 0.00020208916496076054 8.217783799651806e-8
-0.0009055476916398566 0.0002366214129914082 1.4338135578584768e-7
-0.0005379611463631621 0.00021051751012945101 7.327071192989408e-7
-0.0003630503578206237 0.00018113480462055262 9.93341335520028e-7
-0.00018386745767048427 0.00013243361023150573 1.1339676634112775e-6
-3.6202789241826566e-5 5.012348847431294e-5 9.851779215621143e-7
-6.38942267297653e-6 1.6692215350042264e-5 1.1425374252283673e-6
-0.0003795795455577872 -0.00026929005016985427 -2.8464677292053724e-6
4.868276538829024e-7 3.802670720528671e-6 4.7272638294383174e-7
1.038887843621067e-6 1.5469016223229018e-6 1.784601075450696e-7
-4.56359038348374e-6 -1.1404230864607833e-5 -1.2392204806837842e-6
-0.000989656764077801 -0.0016493568559218278 1.0327191677443091e-7
-0.0010836750972145184 -0.001649421464311529 5.53695458210692e-8
-0.00037505323039743684 -0.0012975040596893762 -3.670575082716335e-7
-4.3722993413002486e-5 -7.123737306714184e-5 -1.3610130447972436e-6
-0.00039266948535864797 -0.0010086248662435004 -4.6879271639120657e-7
-0.00037698866853179956 -0.0011934258734121103 -4.0399065379007167e-7
-6.09567810502459e-5 -8.701346678673881e-5 -1.366309582934887e-6
-0.00038028979609889326 -0.001101306881336335 -4.3888518542606894e-7
-0.0004068323690258512 -0.00027366540387598623 -2.590428495624786e-6
-0.0004380332282185445 -0.00031490651125528707 -2.1533447918395475e-6
-0.000382786507410113 -0.00023913380110944242 -2.3319499990423773e-6
-8.684521954615116e-6 -1.9977905180449823e-5 -1.456029541320842e-6
-0.000537221857578912 0.00018150030982751184 6.217479263137854e-7
-0.0009869517790857508 1.0555112450851565e-5 3.044560409505355e-7
-0.0010632061247349252 -0.000996787399460948 3.946436108428126e-7
-3.272407967327367e-5 4.207308466740801e-5 8.530441772200369e-7
-8.860279940833982e-7 4.3468035756532144e-6 3.2300065444280893e-7
-0.0003610328142109751 -0.00023442745485504374 -2.2123837384340924e-6
-0.00018832504912292883 -0.00015174139274502576 -1.2951923629559177e-6
-0.0004023229943185792 -0.0007689341615269817 -6.110234152637011e-7
-0.00043590143259631276 -0.00035756461408059556 -1.89523110300797e-6
-1.4828908287632951e-5 -3.292566268875638e-5 -1.44081530809086e-6
-0.00038912562760459377 -0.0015495698212661835 -1.087191511522223e-7
-0.0010746465748175703 -0.001512554593844723 1.1096948504766521e-7
-1.0047943461960108e-6 7.3356285073042185e-6 6.93364121477722e-7
-0.0009956186553222257 -0.00160845026897794 1.115146989335982e-7
-0.0009049478711994774 0.00020690354536508106 1.5987729184060494e-7
-0.001020778436773652 -0.00036439808125670117 6.390535887482371e-7
-0.000182918796692146 0.00011585566287733686 9.801264395042565e-7
-0.0001607961860343317 -0.0001472788992381579 -1.3582666657432785e-6
-0.00039807722701577986 -0.0008578352852253894 -5.525887011522361e-7
-2.393974725835464e-5 -4.798765468986378e-5 -1.380621981910927e-6
-0.0003645273131918625 -0.0014403216549791452 -3.348418397725499e-7
-3.630416664197082e-5 -6.344885929694518e-5 -1.3622288191692746e-6
-0.00040838629450102833 -0.000954260390150055 -4.800832495030317e-7
-0.00036786896807820623 -0.0013453469201415037 -3.6275395044930103e-7
-0.00022322702186374448 -0.00019208661027504993 -1.494764149422464e-6
-0.00038689168129996083 -0.00045430211696696824 -1.2723571970804626e-6
-5.195063980703643e-5 -7.914591018615297e-5 -1.3641465712862216e-6
-0.00038469773465178996 -0.0010562664419446817 -4.546481878931953e-7
-0.00038620460348083417 -0.0012445624601223398 -3.709231269950097e-7
-6.818993242240786e-5 -8.492262897199772e-5 -1.2287689986394764e-6
-0.0003770972826387886 -0.0011471321408306474 -4.225449474945951e-7
-0.0010830497497162615 -0.0016029987175314668 7.383890422632919e-8
-0.001045589333895415 -0.0006751189831634878 5.778559865282815e-7
-0.00036215592366099135 0.00015774579837490334 8.444450640739754e-7
-0.0009729171853912917 0.00020201434133878092 1.088757675631694e-7
-3.970632674154368e-6 1.2884080161471091e-5 9.947999700041148e-7
-0.0004185847566891619 -0.0011836470108976048 -3.537611101560094e-7
-0.00042705780937183816 -0.0010985882083167828 -3.819854162453172e-7
-9.543130065772126e-6 -2.3549991833329166e-5 -1.362368349984817e-6
-0.0005068465113748196 0.0001782886455904851 6.645297954800437e-7
-0.0009869761881895148 4.027580873729777e-5 2.675989140073881e-7
-2.7410220724441325e-5 3.976899922979161e-5 8.943330716371802e-7
-0.0010343015362356178 -0.0009380730975998613 3.917309260931615e-7
-8.677837213373271e-7 6.278996089426198e-6 5.213258798874009e-7
-0.00020664565686742255 -0.0001461011608118827 -1.2045853727051456e-6
-0.00034085294688711656 -0.0002024769555123428 -1.7096485383303056e-6
-0.0004511551064579346 -0.0007207915352416767 -5.903515571457441e-7
-0.0004697391744381125 -0.0003984474956288984 -1.3445020080846451e-6
-0.001080741348312085 -0.0015576534856128858 9.176367472419022e-8
-0.0010382011865938084 -0.0016066133316170693 9.152117234563369e-8
-2.190100563170308e-6 9.708702689825483e-6 8.400404601206673e-7
-0.0009393461372623928 0.00020621705610345198 1.3112602811903868e-7
-0.0010264840754250486 -0.0003982291012899616 6.523539601060154e-7
-0.0002000212310702537 0.00012148002079601008 9.774718933523553e-7
-0.00017303505148978576 -0.00013997064472684876 -1.2472417202103427e-6
-0.0004452422359909139 -0.0008068998759310575 -5.28932149829323e-7
-0.00013226024609471656 -0.00013236602065585992 -1.3499019092539547e-6
-0.0004198952681052248 -0.001470972176817978 -1.4673376760099478e-7
-1.7070730374124808e-5 -3.655721301307687e-5 -1.279440086508075e-6
-0.0004112914340851342 -0.0013860472488273349 -2.550415705548316e-7
-2.7771967160994327e-5 -5.01846307172927e-5 -1.233524431429883e-6
-0.0004442962848089241 -0.0008882238891832196 -4.7588267984627107e-7
-0.00038304046798807664 -0.0005001714069482182 -1.0182177235846366e-6
-0.0004364914257271546 -0.0012602208872255966 -2.919904974047821e-7
-0.00043638051326852875 -0.0010159704905463808 -4.105790026437552e-7
-8.130666309194298e-5 -0.00010249268012556354 -1.3648244740783324e-6
-0.00047340300600341414 -0.00031715602000855874 -1.6660152503275062e-6
-0.00038470010744888743 -0.0002098065182337016 -1.8510608104928568e-6
-0.0011299876328909036 -0.0016008670051589184 5.5613431823032975e-8
-0.0010166143707151746 -0.0006254421608440653 5.339318359424206e-7
-0.00032586673868615105 0.0001275951747132241 7.24413519663466e-7
-7.684914213573914e-7 6.153566856111843e-6 7.442715215790677e-7
-1.6555655065996914e-6 -8.26370069681957e-6 -1.003267735722891e-6
1.2001077393256848e-6 -9.054978875399761e-7 -1.1586671503823537e-7
-0.000779813331009902 -0.0016452202400834828 2.784252997194405e-7
-0.001032253379460523 -0.0001947337736680312 6.218348981405629e-7
-0.0007693596770051572 0.0002368531921395507 3.312688794483423e-7
-0.0011301827019814061 -0.0013085285363193125 2.2254833180664882e-7
-0.0001084046767366453 9.781119438770697e-5 1.097065164471091e-6
-0.00041003626122765617 -0.00021151416699734504 -1.761744984484722e-6
-0.000473156780390217 -0.00027951017364515296 -1.6557130723442732e-6
-5.668857000395063e-5 -6.857499396650139e-5 -1.0809705166365864e-6
-0.00047588613347423434 -0.001304366561063247 -2.0659498036008417e-7
-4.0125297494363616e-5 -5.6770193087300306e-5 -1.0821000927008506e-6
-0.0004894523673700748 -0.0009939025453134637 -3.56671279937536e-7
-0.0009667887289413965 0.00016390596667883084 1.4416855268258744e-7
-2.6103226182512194e-5 -4.479013084396463e-5 -1.1031666354686236e-6
-0.000484382020538037 -0.0008779489380853084 -4.3042225983965916e-7
-0.00047798266758074086 -0.0016375577934428923 4.813721283798946e-7
-0.00020858673028193803 -0.00012892923849245401 -1.0723686072811707e-6
-0.0003407914443454628 -0.00017686122163617081 -1.4530315020751185e-6
-0.0004955579807352006 -0.0007190473478410876 -5.296527346906074e-7
-0.0005071646289674034 -0.00039777543235753796 -1.137270208654118e-6
-0.0004734626287042106 -0.0010992326865561525 -3.2335547219435144e-7
-0.00042715237841816777 -0.0004923782660791921 -1.0105647161521233e-6
-0.0004920988127398318 -0.0008017533592535908 -4.7012273293965795e-7
-1.5351188537494247e-5 -3.2674628741662215e-5 -1.153145955825449e-6
-3.6403092147832063e-6 -1.3252720462185765e-5 -1.1358670725241997e-6
-0.0005211552536729197 -0.0016465968713046104 5.448438873933967e-7
1.761339594008791e-7 -9.707030544475563e-7 -9.597873482777576e-8
-0.0007788795416646437 -0.0015908738901220293 2.4601554456461364e-7
-0.0010012380823969651 -0.0002090047454610922 5.480972366254156e-7
-0.0007733223760950975 0.000215295077524863 3.0986964779502083e-7
-0.001095419227088655 -0.0013144070522147547 2.0906469976161417e-7
-0.00011310513519554062 8.887454072587705e-5 9.639648049477568e-7
-0.0004774934661573854 0.00017339336411158597 6.979966210255194e-7
-0.000535633958347595 0.00015393959173130847 5.188329564125417e-7
-0.0009860922578382558 6.9480076598285e-5 2.318358032585312e-7
-0.0009535590971260369 1.1228125328972521e-5 2.801953331859577e-7
-0.0010213275243351227 -0.0009791777110252657 3.499839127010159e-7
-3.4138556478052167e-5 3.487470061968015e-5 6.740417217742948e-7
-2.4806425794515304e-5 4.2007184154978884e-5 1.0346889312418368e-6
-0.0010783417528748645 -0.0008945337452969214 4.901289785450453e-7
-2.6594236861186965e-6 4.8307426517962804e-6 2.7157560895553443e-7
-0.0004664319953875778 -0.0004398939746068508 -1.1483931642934335e-6
-0.00022419273831558755 -0.00015662469922105796 -1.248956208128185e-6
-0.0003206035467391201 -0.0001970694275004332 -1.583267115820627e-6
-0.00041130774101975996 -0.0006782857484766688 -6.797555598051854e-7
-0.0004290063494161426 -0.0016263139438781357 3.163529412063117e-7
-3.986423594897719e-6 1.2677065886753765e-5 8.008127566733262e-7
-0.0009086603317371259 0.00018598964980359387 1.6785547748639236e-7
-0.0010283136210622918 -0.0004319786320056809 6.501128566846076e-7
-0.00021762768483833865 0.00012630634365156916 9.674151658122568e-7
-0.0009919486557564455 -0.0003714102630314862 5.487127951746936e-7
-0.0001817066894538177 9.916775303297619e-5 8.285638279730836e-7
-0.0001441463593419639 -0.00012496604104780248 -1.2143302014817417e-6
-0.00013591226739859081 -0.00014753643514083838 -1.4958758775112555e-6
-8.426308077858695e-5 -0.00011340055220656526 -1.5066076930929678e-6
-7.808128681848006e-5 -9.150012326908839e-5 -1.2280455326084711e-6
-0.001056963422258763 -0.0006119479720980798 6.446637036716842e-7
-0.00031904554927418284 0.00014579285646208076 8.624577545591623e-7
-0.0003417214297091674 0.000133552607644216 7.318518549905939e-7
-0.00047183516088448335 -0.00024481429270102844 -1.524060777928071e-6
-4.181636359361123e-5 -6.408273220907924e-5 -1.222461073447311e-6
-0.00045278131672608023 -0.0009774679320702139 -4.1164392035837983e-7
-5.867991998259813e-5 -7.793635753442895e-5 -1.2260913902853553e-6
-0.0009951055457941098 -0.0015694167711335725 1.2051372548743855e-7
-0.0009736989511697628 -0.0007001434218131782 4.004570592199307e-7
-0.00034470316137235674 0.00011382114903692506 5.999355586481697e-7
-0.0005370295545034429 -0.001609690853397231 4.1496880310840017e-7
-0.0001652447235474757 9.417449070961351e-5 8.30035251326457e-7
-0.0009687238765597088 -0.0003529955838594311 4.798856883013757e-7
-6.1214019947116786e-6 1.479332140308837e-5 7.202906765913192e-7
-4.967221260445994e-6 7.4394884665255195e-6 3.4036352571772245e-7
-0.0009544369517224482 -0.001574244642476546 1.377753955992745e-7
-0.0010630724031820363 -0.001470757860118219 1.298787758553212e-7
-0.0009794029984807231 -0.0009659427363841245 2.9848710963784865e-7
-3.054434807236648e-5 2.8635314057883763e-5 5.788995233164611e-7
-0.0009189734429301259 1.3073051369845653e-5 2.5391808841682013e-7
-0.0005328172150068634 0.00012742554300161993 4.208233268082563e-7
-0.000992289658484124 -0.0015328420191750615 1.2878712092556747e-7
-0.0010311992286958316 -0.0015237373514242372 1.1909139450289802e-7
-6.456786514856568e-5 -6.48589601265419e-5 -9.42033129632157e-7
-0.0004893757898945325 -0.0012255372902147156 -2.397383782176695e-7
-4.809071834647512e-5 -6.263990625217941e-5 -1.08002742619838e-6
-0.00048562879153389517 -0.0010533184200614359 -3.3035300353787363e-7
-0.0009783605522087665 0.00012938630460003104 1.6888333803106694e-7
-0.00047402553735296387 -0.0015347231326443718 1.066071616555044e-7
-0.0003624662380048924 -0.00017955344522569956 -1.4953231235258607e-6
-0.0001914021141361486 -0.00011809541174675903 -1.0178392856272414e-6
-0.000493977965062439 -0.0007610471611467036 -4.972080612687378e-7
-0.000510494091112238 -0.00035770425221451493 -1.2374287243156517e-6
-7.80104856438415e-6 -2.093709381722023e-5 -1.247407124019621e-6
-1.7217527607156067e-7 1.941567285930353e-6 1.4924563607475316e-7
-0.0008485802181154626 -0.001570952552237488 1.9553934356654335e-7
-0.0009753870355527413 -0.00022361692837018216 4.844571163548014e-7
-0.0007968359566543261 0.00021015285349705926 2.75522741657977e-7
-0.0010825348177000466 -0.001349391649093382 1.8683544531613797e-7
-0.0001170647347434975 8.253558762930811e-5 8.733902858572766e-7
-0.0005689647012519017 0.00018334720437337043 5.730880774158912e-7
-0.00047615041499073985 0.00020080501130657617 8.31997242012589e-7
-0.0004806312469877361 0.00014803485036852818 5.741010122984394e-7
-0.0009542472610969088 6.723421857096803e-5 2.3126637913138524e-7
-0.0010177596400235314 7.226180937644575e-5 2.277794022113207e-7
-0.0009865749022748707 -1.938720376924558e-5 3.406447075253775e-7
-0.0010710656953589648 -0.0010489613132366859 3.687676988204441e-7
-3.879488376314198e-5 4.328489612004336e-5 7.961695322180607e-7
-2.3022600267578093e-5 3.7128239363283955e-5 9.286208504455836e-7
-0.0009938554355431273 -0.0008926547672414347 3.5110341796549005e-7
-2.616321133604098e-5 4.655849399138468e-5 1.1497137111007561e-6
-0.001118793173550129 -0.0008851829813999472 5.674604838595723e-7
-0.000990192588308265 -0.0004271267209636556 5.346401782809156e-7
-0.00019834931670672246 0.0001040935126605001 8.27385782908669e-7
-0.0010057867464764948 -0.00032910535055898164 5.92466662142209e-7
-0.0001662628169202394 0.0001103633532212181 9.838047578029798e-7
-0.0010847145296181194 -0.0006051559321611348 7.246311374679742e-7
-0.0010671728663493312 -0.0004357938186589698 7.728433881044177e-7
-0.00031308545248496497 0.0001663066384171999 1.0225819379617817e-6
-0.00022005648504087424 0.0001445197048486728 1.1183263711275045e-6
-9.26905556914582e-5 -0.00010946817431811504 -1.353529589119346e-6
-0.0010324657561508982 -0.0007094031981797641 5.275355193005494e-7
-0.0003872286713872949 0.00015769295329307322 7.916298188854706e-7
-0.00031175390313407643 0.0001187027252213211 6.931475974364141e-7
-0.0003006918189674321 -0.00019067516714292752 -1.4758510502462107e-6
-0.00041707565117953053 -0.0006320160658544108 -7.249880402140775e-7
-3.273517479901786e-5 -5.089268055719599e-5 -1.0919086157645636e-6
-0.0005118793252336762 -0.0009624730382959767 -3.455200067289588e-7
-2.0312895257396385e-5 -3.8744035113725655e-5 -1.1239002508986672e-6
-0.0004884775353313863 -0.0008414657685977161 -4.481578181998253e-7
-6.283700909953194e-6 1.701897842268609e-5 9.442713607004583e-7
-0.00046464937429755267 -0.0011421598532890696 -3.1413134732153e-7
-0.00043822724773232664 -0.0002120072206144796 -1.570889357350087e-6
-0.0009849956412211734 -0.0014983702415980909 1.3704288869127384e-7
-6.3234124109802376e-6 -1.840070243965461e-5 -1.1171468260697982e-6
-0.0005099509490674355 -0.00024275970001247604 -1.1885090481060423e-6
-0.00046684450320725387 -0.00017889421586505486 -1.122019855834262e-6
-0.00017284622567452078 -0.00012400235374426496 -1.1105090301174374e-6
-0.00047549473840869473 -0.0014787112991530083 -8.200061400890705e-9
-0.00010457779838841903 -0.00011570781559737773 -1.338537284145707e-6
-0.00031911110916798283 0.00010763312055459062 6.049248054954009e-7
-0.0009600072096531839 -0.0006521312194347289 3.855121693974254e-7
-0.0005536272475109678 -0.0016551469038613713 5.618667742125272e-7
-0.00018009408578433452 6.845951453174654e-5 5.52266770893497e-7
-0.0009466194837081557 -0.00038874021039194117 4.1021725733011905e-7
-1.4137500394337239e-5 2.5841802341425594e-5 8.33183092738081e-7
-0.0009374190500892973 0.00014197729339845074 1.7754041539255034e-7
-0.0010342648763283756 -0.0007678492812136643 4.930582315439222e-7
-0.0004170193210597055 0.0001540906615215338 7.135898608803769e-7
-6.729569136236318e-6 1.1717755277212877e-5 5.011749778820409e-7
-0.0009453470583592178 -0.0009189000911784027 2.6528653604398605e-7
-2.5144729585289527e-5 2.644521159976153e-5 5.903641741439429e-7
-0.0009206598956352929 4.088817323099249e-5 2.399443729725754e-7
-0.000506941136004151 0.00012590164332982101 4.4226886938536206e-7
-5.4759478089470264e-5 -5.887082532549845e-5 -9.307801896777177e-7
-7.537807391530123e-5 -8.107074833304654e-5 -1.0971722487209089e-6
-0.0008661995001692705 0.00019644917660195308 2.001374272008081e-7
-0.00015094122250288618 0.00010536088292862555 9.884569526094208e-7
-0.0010161606714499233 -0.0002946335704304562 6.213604550435352e-7
-0.0005261534346224417 -0.001304388434131085 -1.3911150184478804e-7
-3.848027765488318e-5 -4.949180573926988e-5 -9.45898342371112e-7
-0.0005460795839757686 -0.0009791158144271427 -2.924462544043826e-7
-0.0009484125937737393 0.00011965977339259277 1.8982424300242993e-7
-0.0005108437800371689 -0.00031877751157061433 -1.3004673840882296e-6
-0.00038565246181887345 -0.00018122625002213187 -1.4878745721876822e-6
-0.0005391069213307184 -0.000717735742709042 -4.6284623437563173e-7
-0.00021146843979215644 -0.00011192964226582863 -9.393983361362096e-7
-0.00034069507243060775 -0.00015160630777739822 -1.2242867856960477e-6
-0.00054500611470933 -0.000402085974301977 -9.417903564788574e-7
-1.1656982289226358e-6 6.53704932850262e-8 -9.67795250981836e-9
-0.0007746000391588498 -0.0015453010992549287 2.1857610767776308e-7
-0.0008690808613327885 -0.0016081843348161604 1.898619812657704e-7
-0.0010184558134064903 -0.00026375958149272975 6.205854917779651e-7
-0.000959801242405708 -0.00020658520145245608 4.3798853656750715e-7
-0.0008282302957565718 0.00020444779682415092 2.3784062132376685e-7
-0.0007825156384977071 0.0001824279973141157 2.779218410751621e-7
-0.001047497787649413 -0.001317306381558601 1.9484910475290213e-7
-0.0001129554493112039 7.557598038272161e-5 8.111769647010218e-7
-0.0010947875457286457 -0.0013864991216192518 1.6802409684463873e-7
-0.00013694467457047493 0.00010063740103032015 9.91859384802662e-7
-0.00044853287561745964 0.0001661834107573015 7.183367760376675e-7
-0.0009836419903356522 9.88784767996499e-5 1.9839501826348245e-7
-1.997533268483664e-5 3.484946714501818e-5 9.549183260948568e-7
-0.001033007444403028 -0.0008570221769145616 4.3539100076161175e-7
-0.0003013063325601737 0.00013377066412465942 8.189254841704689e-7
-0.0010340063209970593 -0.0005915678420587461 5.953999542537603e-7
-1.1761266141951877e-5 2.5077053495702562e-5 9.423999955296255e-7
-2.46549432467964e-5 -3.965421088563863e-5 -9.80348347145163e-7
-0.000521708015034338 -0.0008811624979421718 -3.778592224139269e-7
-1.3885612113265448e-5 -2.8913422291879944e-5 -1.028371658524897e-6
-0.0005419076352862159 -0.0007989785807731577 -3.9957947176684155e-7
-0.0005146246506488913 -0.0011075214235189582 -2.6767799244709866e-7
-0.00045808939497718904 -0.0011831706575941962 -3.027514458400184e-7
-0.0010735294007287283 -0.0014107635485506086 1.5599637993786687e-7
-0.0009100132535872727 -0.0015806751583163031 1.6225947647148504e-7
-0.000985899023635441 -5.0130281400798763e-5 3.753040497896986e-7
-0.000601917233873558 0.00018410723191968143 5.22922965608667e-7
-0.001067480619064614 -0.0010802303980823396 3.445910199056044e-7
-5.314646307731536e-5 5.462513406105958e-5 8.618603179736974e-7
-0.000502855365766399 -0.0014980209095705 7.550526072315667e-8
-0.0005807861924245903 -0.0016307237443116255 4.681670698294745e-7
-0.0002726131874311077 0.0001269173387194748 8.341264967058588e-7
-0.0010175638201613175 -0.0005381316357318427 5.780374857586673e-7
-1.7230269937800688e-5 3.074021582287922e-5 9.032863431631455e-7
-0.0010179225031787208 -0.0012877194434269146 1.9757957225889296e-7
-0.0001085028589492511 6.73642423166836e-5 7.348312894166077e-7
-0.0007661874114247553 -0.0015021966000862772 1.908447061275356e-7
-0.0007641167022838244 0.00014844473050540038 2.6947968512623864e-7
-0.0009480444541458364 -0.00019040144103027527 4.021830030300022e-7
-0.0010064164215379044 -0.0014516475491216454 1.4321884312431785e-7
-2.3236351996642614e-6 9.293076064150134e-6 6.597538295744666e-7
-0.00043595320705745413 -0.00015216650555631108 -1.0586412740401423e-6
-0.000547925362049825 -0.0002837143444955545 -1.0136399783469446e-6
-0.0004951840995325273 -0.00020957942526494868 -1.1464911806544585e-6
-4.481107216104251e-6 5.572252015023417e-7 1.7544875886758044e-8
-0.0010562146484212748 -0.0008062395289542677 5.112628183565049e-7
-0.000497593990403768 -0.001456513144089064 -6.680798154398244e-9
-0.00015678337335214582 -0.00011526593370816835 -1.0784623481265013e-6
-0.00010834828519403404 -0.00013014931539527793 -1.4983599931117035e-6
-0.00029973898432051265 0.00010471117206598774 6.199321359194793e-7
-0.0009806994880277844 -0.0006082764120867604 4.510934558562377e-7
-0.00035131439598280214 9.061883745689773e-5 4.4469541533485044e-7
-0.00019662972766837058 8.697669555136755e-5 6.810757183603272e-7
-0.0009585673343932438 -0.0004212250351301895 4.408013737303241e-7
-0.0001641808661899531 6.23333356991707e-5 5.298526493193188e-7
-0.000909893981245769 -0.00036157878117132195 3.0430254796795894e-7
-1.4449210867381795e-5 2.1826888229630473e-5 6.634087652459051e-7
-0.0009192640888787991 0.00012985839727948543 1.9272381549483095e-7
-9.39632172847944e-6 8.911615128117996e-6 3.1127606704332446e-7
-0.0009386014191277793 -0.0009544776162876166 2.446462377032769e-7
-3.263544193476003e-5 2.424751163187259e-5 4.6785679294659857e-7
-0.0009504887473824913 -0.0008835545376185691 2.847148483982281e-7
-2.0998570252109142e-5 2.729700585145399e-5 6.79899686361949e-7
-0.0008842808524768671 1.683201355825374e-5 2.2733554149126992e-7
-0.0009223599547467039 6.690431164471807e-5 2.2614248966456298e-7
-0.0005290799190100266 0.00010279581729795126 3.289472477563265e-7
-0.00048315514061954756 0.00012337184876555778 4.580147342567521e-7
-0.0008441331221213605 0.00016460429933959052 2.2302358167049052e-7
-0.000136567517800512 8.7099123708695e-5 8.496562305122186e-7
-0.0009716938152202368 -0.00024828999319551504 4.799466829608661e-7
-0.00046837850566727995 -0.0013443638492639388 -1.8568779383888452e-7
-0.0005503722652720865 -0.00032010165585047694 -1.0163951911412287e-6
-0.00022804596729611052 -0.00012148573604247977 -9.929524372646286e-7
-0.0005336160375037621 -0.0004440603525144848 -8.944341247371761e-7
-0.000743240165015139 -0.0015875483535982703 2.671777661093968e-7
-0.0008859080523318036 -0.0016523631470672685 1.7874888521017904e-7
-0.000984556786665746 -0.00018672444838166246 4.924980728826072e-7
-0.0009883687064085075 -0.00024197295669512668 5.256015443729489e-7
-0.0008141940302444575 0.00017434779297897316 2.4650179748432444e-7
-0.0007544078533349474 0.00019770339164767984 3.203850765175751e-7
-0.0010753244283701806 -0.0012873996711576735 2.1800903232382542e-7
-0.00010457572100444561 8.017865385823866e-5 9.016973812466717e-7
-0.0001251548146026957 8.475614276060626e-5 8.654518163580181e-7
-1.1216278480059226e-5 -2.677480309490956e-5 -1.198296874401031e-6
-0.001018714297014094 -0.0013994260200859416 1.5850668227919902e-7
-0.000874676610208653 -0.0015456733354646819 1.766170603064281e-7
-0.0005233122586514707 -0.0014604950433861972 3.74052445675062e-8
-5.3095417524434154e-5 -4.87838858074389e-5 -7.726105029994797e-7
-0.0004952589426213774 -0.0011858808935897853 -2.5340322137500554e-7
-0.0005698195616330732 -0.001293394882663021 -9.551710919842633e-8
-3.6349824606736207e-5 -4.229431496952736e-5 -8.200253760086187e-7
-0.0005814888002079623 -0.0009954335749725284 -2.3824277367684433e-7
-0.000551639724210817 -0.0011193702880760365 -2.1614403252301734e-7
-0.00038570157180094997 -0.00015388103811132359 -1.2107431615234963e-6
-7.504452503018574e-5 -7.168007865904299e-5 -9.645989867321822e-7
-0.001000119973744821 -0.000790623864281472 4.1133263716356783e-7
-0.00043476576368999285 0.00013178085188308782 5.642532411030337e-7
-2.3411826760319223e-5 -3.481681018500923e-5 -8.651387021235462e-7
-0.0005543633435192213 -0.0008937149801896713 -3.25616361970654e-7
-1.272021868055746e-5 -2.5321131944496714e-5 -9.034649915405593e-7
-0.0005947593983148175 -0.0007981478364707176 -3.1652307797333246e-7
-0.00030012126234462983 -0.00016875478468251053 -1.324604350182319e-6
-0.0004622243620584422 -0.000630301277380566 -6.737415681463344e-7
-0.0010283903324101436 -0.0010743339571422689 3.0641932115321993e-7
-5.781309855872442e-5 4.5245168453297906e-5 6.713355036029881e-7
-0.0009513573728420909 -4.733155524394938e-5 3.258479351430056e-7
-0.0005991489267456856 0.00015222377758076304 4.331392779709556e-7
-0.0003404530264604637 -0.00012658541241773489 -1.0170849816067373e-6
-0.0005871627693839122 -0.0006821116621401318 -4.1094710171135095e-7
-0.00021559856936203612 -9.452288463022858e-5 -8.017340900963845e-7
-0.0005815055634348658 -0.00041141792443932383 -7.721221784430551e-7
-0.0003755272365930982 -0.0005907641066143133 -8.095332300633252e-7
-0.00030165540039442883 -0.0002114430515402049 -1.6020870756063251e-6
-0.0011081998150046736 -0.0010876817522093728 3.8073951653653756e-7
-5.635575212404552e-5 6.810252695810867e-5 1.0739569817285037e-6
-0.0010202999040195807 -5.151508726738856e-5 4.254690824094261e-7
-0.0006031792684094945 0.0002165126739455177 6.144267646209672e-7
-0.0001423425279857099 -0.00010997346599191363 -1.0734241127990616e-6
-0.00023585146870382594 0.00012963547285656962 9.444940997494024e-7
-0.0010277144176125937 -0.0004670027900067597 6.367478421336318e-7
-0.00024248674303247434 -0.00016638933374788878 -1.291901541615347e-6
-0.0004902965634545487 -0.0014357159094136413 -4.921350527547697e-8
-0.0004252259599984495 -0.001301126899125921 -2.8518785938553413e-7
-0.0005959696886666107 -0.001675887841305791 5.714932787044349e-7
-0.0002614704264460862 0.000152308609942058 1.0576401877158617e-6
-0.001068157492876883 -0.0005136520735758189 7.38133371954452e-7
-0.00011680725823297901 6.261940271790112e-5 6.526869467837287e-7
-0.0009924446864730588 -0.0013146145793477802 1.794306628439646e-7
-0.0008036576900594157 -0.001491402294767061 1.7854739058110749e-7
-0.0007993617980586729 0.00011544531598713388 2.2945716261559368e-7
-0.0009311852915010213 -0.00022229552116791155 3.6603852449905567e-7
-0.0005901816214675762 -0.0003182191843728356 -7.93066059734345e-7
-0.0003851289354618919 -0.00012777171200874165 -9.886499652093531e-7
-0.0002448456370434052 -0.00013016840993477068 -1.0424551990250093e-6
-0.0005156728946001976 -0.00048509903871244304 -8.50841267687498e-7
-0.000582651177188593 -0.00025208647616867556 -7.713362097219181e-7
-0.0004636531633515012 -0.00014801796144989432 -9.304741965248312e-7
-5.332180061337532e-6 3.866653893838189e-6 1.6380403840149172e-7
-0.001096403783910656 -0.000791577602405684 6.047434742113066e-7
-0.0004176452470223951 0.00018792641160267365 9.021951289811071e-7
-0.00017373909430360067 -0.00010678065162511853 -9.597076082703259e-7
-0.0001948242744611309 7.047718729938922e-5 5.412477593129335e-7
-0.0009149239986156031 -0.0004148870487131522 3.127914794903035e-7
-0.0009330881845230307 -0.0003257608234106398 3.752859355927458e-7
-0.00014788275135296856 7.319285151066645e-5 6.746047585741121e-7
-0.0008707049898187456 0.0001452452401742765 2.0796639695680442e-7
-0.0009266693122633818 -0.00028756312847160386 3.572949263633982e-7
-0.00013368223063867684 7.244252566341064e-5 7.061952139054293e-7
-0.0009397595643370085 -0.001495090224762335 1.4787315262766387e-7
-0.0005713417535185506 -0.0015331511441977056 2.24660222128668e-7
-0.0006075478642024398 -0.0012515379162735076 -8.27001671872577e-8
-0.0009691776265952256 -0.0007609592390481781 3.6511095468912704e-7
-1.692842716625075e-5 -2.6211899741619625e-5 -7.644322809425539e-7
-0.0009002184448886066 0.00013680579929965155 1.967423688612406e-7
-0.0002999467587129593 -0.00014651237842003268 -1.1622423184635143e-6
-0.0005057741427103706 -0.0006322055468435458 -6.061088580112535e-7
-8.682051199518496e-5 -8.208375021398553e-5 -1.0273997733640522e-6
-0.0009876132332875631 -0.001060750635384704 2.6810503451571296e-7
-5.033495404827111e-5 3.735938453354799e-5 5.918634773333282e-7
-0.001063013638351458 -0.0011102365661697583 3.2067727917260563e-7
-6.542108887649344e-5 6.204783481755449e-5 8.828930062043488e-7
-0.0009166546593646349 -4.378517874616934e-5 2.781512371341039e-7
-0.0009843875588164766 -8.13050355001212e-5 4.056651496094276e-7
-0.0005894491738791709 0.00012222014125781966 3.5286709066977737e-7
-0.0006344486395997569 0.0001855489198036468 4.786785659928889e-7
-0.00036219999065051296 -0.00012744901680821792 -1.0124225986166877e-6
-0.00019903140274448098 -8.505854827148202e-5 -7.429833094717126e-7
-0.0005986976807841278 -0.000745970235768305 -3.418661661344071e-7
-0.0005987957355289516 -0.0003626790577221076 -7.424980587855402e-7
-0.00042348546841902777 -0.0005848031930607129 -7.85559429294721e-7
-0.0002809164120075259 -0.0001833788837665417 -1.3958028459214368e-6
-7.550246634412712e-5 -6.0391659026142345e-5 -8.057120415688895e-7
-0.0003393214937260576 6.497877801023204e-5 2.9776564176156517e-7
-0.0008788497394037197 -0.000686261377109213 1.891139575918594e-7
-0.0006937669727081349 -0.0016037112790993078 3.2530047922967777e-7
-0.00017005202969259145 4.932703925977284e-5 3.984313425410105e-7
-0.0008701126448162344 -0.00034299070688384215 1.8931891562084186e-7
-0.0005213466117760072 -0.0014214395426322569 -2.296338550208343e-8
-0.00048273342020966855 9.928076136707129e-5 3.497819186815279e-7
-0.0008954554337454584 9.142814829967364e-5 2.1352278922149684e-7
-2.0733142986945024e-5 2.176780127091566e-5 5.333731407957508e-7
-6.161010295874156e-5 -4.410847184251991e-5 -6.458281916383442e-7
-4.3759501117696695e-5 -4.310557777172101e-5 -7.522496342593968e-7
-0.000589654856024174 -0.0010513894852643992 -2.021489636674455e-7
-0.0009252100487861508 -0.0006178881530849454 3.1035750843739876e-7
-1.4060969921451317e-5 1.1429168418634635e-5 3.3016872689006374e-7
-0.0005883869971631046 -0.0008525405118015324 -2.9700828639564344e-7
-2.8228319003912426e-5 -3.382520605710252e-5 -7.441338821709358e-7
-0.0006121021177918926 -0.0009500384795901053 -2.1795482677650655e-7
-0.0005647669713851264 -0.0011586450228855693 -1.8138911819275687e-7
-7.860618057549229e-7 -3.6215312928090274e-6 -2.7319915647253373e-7
-0.0008996940937051534 -0.0009478061675745919 1.9019203674077434e-7
-3.078694236592447e-5 1.7921249658484593e-5 3.513325430238761e-7
-0.000852069778040175 2.3111298154728628e-5 2.042973545473727e-7
-0.0005441877670955954 7.662094536140536e-5 2.2284973852722366e-7
-0.00026177308154265444 -0.0001563240921467161 -1.2169502820436953e-6
-0.00011784767742410519 -0.0001236884310225189 -1.3414615089006894e-6
-0.00012868474557694405 -9.386700214326549e-5 -9.58469865586955e-7
-0.00022050656892473597 -7.686244098779309e-5 -6.620691107853005e-7
-0.00031930135762494124 -0.00010108470583003966 -8.254154615853503e-7
-0.000592619402858489 -0.0006431627307794328 -4.3605269253634287e-7
-0.0006145471876531131 -0.00042715354045137137 -6.268502504458988e-7
-0.0002616910617343146 -0.00019399643541694742 -1.4463395142439751e-6
-0.001022277811348817 -0.0008213755852370529 4.363934834542045e-7
-0.0001389561548397407 -9.475734170958305e-5 -9.348450708540046e-7
-0.000973772356471003 -0.00014372321381688835 4.3700572154944434e-7
-0.000704935395346251 0.00019426897762591625 3.8901869075561087e-7
-0.0010738734313729353 -0.0012256234140618904 2.54602218092789e-7
-8.857618820745806e-5 7.03937648552634e-5 8.599953458130446e-7
-0.0005824531019927869 -0.001327283082178665 -5.387943873777624e-8
-0.000565906417926623 -0.0014670581339745665 9.497128995587058e-8
-2.5886731264401836e-6 -1.150182729700375e-5 -9.889124381491532e-7
-0.00011515090804893915 -0.0001085236091498531 -1.1793887843341431e-6
-0.00012965592253407252 -0.00011740231774801727 -1.201090238083666e-6
-0.0002625636084024395 -0.00013716186094321484 -1.0854784992727254e-6
-0.0004616586336823425 0.0001205559008450683 4.7079752402886114e-7
-0.000896658969158405 0.00011424054098306914 2.0674367636617e-7
-1.777740455143767e-5 2.2099843757367766e-5 5.922273113042761e-7
-0.0009601529607635226 -0.000848517199343373 3.1287701633520107e-7
-0.00047975053779556056 7.519185064183135e-5 2.4267000310418585e-7
-0.0008575624783950358 8.079135949306012e-5 2.1159000369966326e-7
-1.9199823699785558e-5 1.6409404961352244e-5 4.090925784541905e-7
-0.0009035933902854116 -0.000870500117162681 2.1183275730158146e-7
-0.0009715103107645352 -0.0012884131147364278 1.7887357668812138e-7
-0.0007760677880641379 -0.0014462608108104008 1.5421249748451574e-7
-0.0007736472028032743 0.00011328877968351703 2.3472131498746365e-7
-0.0009241037014604087 -0.00019050526051951332 3.4312602593776395e-7
-0.00048169159945013826 -0.000527466023286223 -8.236067693321434e-7
-0.0004979326595723034 -0.00017535360485267999 -9.462691978258629e-7
-7.434127921791826e-6 -5.863726227805478e-7 -2.9568454408488673e-8
-0.0009598385133223062 -0.001510080149995508 1.422776055792134e-7
-0.0005706049056675829 -0.001219319857336285 -1.4251754933695665e-7
-0.0006202337653814577 -0.0012993984614153463 -3.913259686526391e-8
-0.0003697186448598132 0.00011118057732493351 5.450790238750367e-7
-1.1581235368018674e-5 -1.8670714438967553e-5 -6.4967862303742e-7
-0.00031986095367428764 -0.00014949953843233522 -1.197675796094482e-6
-0.0004996650650550626 -0.0006758601575131228 -5.657257601423129e-7
-0.0009646968410097549 -0.0010046368186295868 2.633172729700964e-7
-3.8826451237714915e-5 3.267516860396056e-5 5.881922894855532e-7
-0.0009176088210409325 -1.4939431075438663e-5 2.665538778228232e-7
-0.000560693107671724 0.00012640529788916755 3.9011222802289813e-7
-0.00020368350104001093 -6.838488614492377e-5 -6.062010316121896e-7
-0.0006318502947076737 -0.0003908159240679902 -5.883072114222373e-7
-0.0001778179210288509 -9.094892183698397e-5 -8.175323942257143e-7
-0.0008705264788276783 -0.0006576376990909002 1.7315009568010534e-7
-0.00031043086697299973 5.0922934601621556e-5 2.360273840332869e-7
-0.0008524608711332521 -0.00037525998430480945 1.3390202140820376e-7
-0.0005684576505389969 -0.0014026634739873719 8.127650218347211e-9
-5.2683173698934844e-5 -3.94363695317865e-5 -6.218217629072264e-7
-0.0006406340169874714 -0.0009842753790254568 -1.6507818170398127e-7
-3.390011918002797e-5 -3.628730656167715e-5 -7.227230997811288e-7
-1.7870172460258117e-6 -9.768932836060686e-6 -8.307879196784721e-7
-0.00020796770496405516 5.08357606294872e-5 3.551229535871735e-7
-0.0008843147097997485 -0.00043198419302869123 2.2125349923643028e-7
-0.0002883551916136337 8.708899458241833e-5 5.161194024055598e-7
-0.0009464166588776061 -0.0005861720578681594 3.7104388897841336e-7
-0.0006514994522270049 -0.0007938815322651922 -2.2483509300176147e-7
-0.0006083736372985986 -0.000900136842434147 -2.4451710178996764e-7
-2.1938829206201748e-5 -2.6162724215875022e-5 -6.503453792179842e-7
-0.0006072362387051579 -0.0011040249189019442 -1.5693838155428164e-7
-0.0008630660711398382 -0.0009131674055327752 1.4053815270642318e-7
-2.6178864419788915e-5 1.5133149737271531e-5 3.1827143069638544e-7
-0.0008227909009745075 3.583180024899117e-5 1.8871638211454097e-7
-0.0005068930130066711 7.13408745338932e-5 2.1331438735433876e-7
-0.00026143267622341215 -0.00017517793313331123 -1.3372892367569463e-6
-0.00011536096817006957 -9.506849620957554e-5 -1.024882138331449e-6
-0.0002991490219692457 -0.00010138323864859791 -8.279571952454246e-7
-0.0005988403995092513 -0.0006023075526931999 -4.6397109904339e-7
-0.00023962849165329932 -8.524850955932821e-5 -7.164962079775538e-7
-0.0005989358154234698 -0.0004684589763511403 -6.327705603918722e-7
-0.0003401646763493024 -0.00010127745969175002 -8.224792393765646e-7
-0.0006361628078701534 -0.0006962455351476464 -3.0918582363032636e-7
-0.0009711902806609841 -0.001102166459767027 2.3553490583246644e-7
-6.153274783149055e-5 3.677005122719329e-5 5.230849069267744e-7
-0.0006174900912056823 0.0001140812527563304 3.113342491012081e-7
-0.0009143203176518227 -7.25198455923636e-5 2.86120111778047e-7
-0.0008751114380479274 -0.0006180860826605307 1.8805398015072306e-7
-0.00029318309816718497 5.877960100814377e-5 3.0992019289061207e-7
-0.0005147611793242719 -0.0005872642751059323 -6.531954428663386e-7
-0.00028086169627306783 -0.00014245204485492693 -1.1242390936418244e-6
-0.00010234707870639882 -8.514454612740587e-5 -9.753038618034166e-7
-0.0006188194008007727 -0.0015024423091665727 1.865216938436304e-7
-4.288741638536911e-6 -1.360345280703258e-5 -8.212085459047481e-7
-0.00044559855799538445 0.00011809028774744542 4.79384662327932e-7
-0.0009977092957680284 -0.0008326708473758007 3.8551635861967887e-7
-0.0006618645582062222 0.00019020968485571063 4.48277782776571e-7
-0.0009809713835174586 -0.00011304680028726404 4.284855837023813e-7
-0.0010650830636121178 -0.0011613561783369102 2.905679304647396e-7
-7.70530776259829e-5 6.731454011030537e-5 8.815758395896447e-7
-0.0008296379451894269 0.00013924239742563443 2.2895920472537123e-7
-0.0009506169233338697 -0.0002599959023186534 4.2286762173686215e-7
-0.0010251336736098033 -0.0005026075814854213 6.14962673352819e-7
-0.0002545826993881246 0.00013037873939584428 9.022679304901726e-7
-0.0001409025152543419 -7.640684844195353e-5 -7.545446762269581e-7
-0.0004100157906377475 -0.00015373140945875306 -1.153195417848085e-6
-0.0006181563526155856 -0.0016313359042351874 4.3910342265879653e-7
-0.00042814715952350414 -0.0005377664590938287 -8.749303940027216e-7
-0.0010350511209987385 -0.001194776745684269 2.489607649430621e-7
-7.650561335992624e-5 5.519228821747292e-5 7.147488036918833e-7
-0.0006775525136584512 0.00016830838098660271 3.841361788553485e-7
-0.0006614044842065597 -0.001559577113373557 2.807803984354278e-7
-0.0009445625301365631 -0.00010649222413090747 3.534916970497372e-7
-0.0005657463332706334 6.975864860054315e-5 1.9375141985761184e-7
-0.0008421074848214969 -7.85541622852959e-6 1.9097040351599823e-7
-4.346545880959185e-5 1.649392555747269e-5 2.763193497470964e-7
-0.0008846015442799593 -0.0010603585286322768 1.526927119485368e-7
-3.6335636628955607e-6 -8.874278401390854e-6 -4.95082935031206e-7
-0.0005279821498762789 -0.0002194203802720082 -9.818603571164733e-7
-1.5474589152433258e-5 7.261876784173602e-6 1.940855663251187e-7
7.434638981840209e-7 -3.6980052881552024e-6 -4.3972268554441753e-7
-0.0011037942392293167 -0.0011919494136352492 2.95550506963728e-7
-7.91975133840428e-5 8.028038730993095e-5 1.0561093974839394e-6
-0.0006757364359078413 0.00021862510972410284 4.793939597406486e-7
-0.0010183568789447232 -0.00011868459309644484 5.119668306974964e-7
-0.0006680787055779876 -0.001637959109085214 4.001912630198766e-7
-0.0008498500462451795 -0.0002951695626972682 1.385560431127277e-7
-0.00015698608029712425 3.923373681584825e-5 3.2846108543794127e-7
-0.0003737068865319476 4.0690043949254993e-5 1.1867833794507957e-7
-0.0008764062820417486 -0.0007218477107104978 1.8133572075877952e-7
-6.970572516742918e-5 -4.658402119338259e-5 -6.448753623460287e-7
-0.00038460472916934077 -0.00010283999611455222 -7.998953830552417e-7
-0.0006403142822997303 -0.0003388250754562219 -5.666201778994958e-7
-0.00011838822365847156 -8.203613217769733e-5 -8.700422285002641e-7
-0.00012754634808562933 5.7200512879835554e-5 5.646477699200846e-7
-0.000825242041191039 0.0001108418266259328 2.2102077945224097e-7
-0.0009259317604580153 -0.0002549745222132107 3.545880912513223e-7
-0.0002475953538027487 0.00011058417321225252 7.64108601874084e-7
-0.0009840637433103261 -0.0004917650794339744 4.996684413890091e-7
-0.0005963790237165559 -0.001587116969435212 3.512197540033936e-7
-0.000635799199661812 -0.0016032925353208602 3.6944933348340036e-7
-1.229428055042763e-6 -7.997239104499626e-6 -6.628950296464044e-7
-0.0009441579648743026 -0.0007946297067503395 3.0333235483650366e-7
-0.0005577197576800257 -0.0005947542306613197 -5.59216248358298e-7
-0.0002998131941180138 -0.00012402788844590384 -9.952751844342418e-7
-0.0005277212134121108 -0.0005425248301153666 -7.01929096198917e-7
-0.0009265674192491383 -0.001081527614754553 1.9531304871940558e-7
-5.48655134063816e-5 3.10478259928531e-5 4.675012984874635e-7
-0.0008809471066282386 -6.795857280234946e-5 2.342220109722147e-7
-0.0006012932329111687 8.641369046538306e-5 2.4006424227805326e-7
-7.629293181354991e-5 -3.922370579237074e-5 -5.210146178749544e-7
-0.00040651666195469955 -7.709733942458236e-5 -5.969460997088173e-7
-0.0006750395622885901 -0.000323459948380785 -4.2797821018929155e-7
-0.0009859171008337988 -0.0012612166076351402 1.9322110250815892e-7
-9.664128377304006e-5 5.893425077031093e-5 6.807604650989673e-7
-0.0009289821877475706 -0.00016256218724251405 3.471645951410189e-7
-0.00046682460729223203 -0.00048239303355786765 -9.758766072152078e-7
-5.566806764335691e-6 -3.858054561418006e-6 -1.77855775959236e-7
-0.000611103616404159 -0.0012130942340175751 -1.0068709019914458e-7
-7.676286245600362e-6 -1.7658970629338788e-5 -7.968975735477436e-7
-0.00018293228895105266 -7.528308914765602e-5 -6.796621981587651e-7
-0.00016983605272913836 2.7038407464387552e-5 1.997383231275215e-7
-0.0008327428303591242 -0.000326437139506016 8.177916697008067e-8
-1.4681703973554546e-7 -6.073781598127414e-6 -7.397126236285863e-7
-0.00024694987548764565 -0.00011300769656290563 -9.179526622399677e-7
-0.000547308929946377 -0.0004992536055655354 -7.351930434384477e-7
-0.0006367969878846349 -0.0006084551683170448 -3.7472527568789937e-7
-0.00029712933109273204 -7.890953578819906e-5 -6.650384262895498e-7
-0.0009941229867343928 -0.0011659791759090206 2.3218082978465513e-7
-6.88915847807695e-5 4.121202828630047e-5 5.543376234202452e-7
-0.0009095936193259722 -0.00010037911817070548 2.874345157336169e-7
-0.000665077691472964 0.00012277164701986342 3.0098955786231933e-7
-0.0009691831213727951 -0.0012047085827460707 2.003039632372522e-7
-7.741979481501804e-5 4.4537712471361474e-5 5.664475469698874e-7
-0.0007016670053667921 0.0001407844033300951 3.0867560188211415e-7
-0.0007078135475823209 -0.0014938214714069337 1.8867941454669845e-7
-0.0009027920977272428 -0.0001281078939900153 2.817512731636761e-7
-0.0005539183874875914 4.675502256028151e-5 1.129519318260617e-7
-0.0005879874112868869 6.198305804755374e-5 1.6715147847499027e-7
-0.0008508256125551628 -3.867339510425119e-5 1.9429173732802383e-7
-0.0008120572737766828 1.2452348826447804e-5 1.7186529995752314e-7
-4.882219413515094e-5 2.411455497389935e-5 3.836797347390732e-7
-3.3894456838732436e-5 1.4842967230459304e-5 2.75344627682481e-7
-0.0008648984993707844 -0.0009958860501583595 1.3552358061848662e-7
-8.022150702367757e-6 -9.274101863524825e-6 -3.6642743231843704e-7
-9.101512614710854e-7 -6.058872162180107e-6 -4.819258474060331e-7
-0.00013227154070987617 3.598344028513046e-5 3.3862724395935493e-7
-0.0009077924784553149 -0.0007739791583956828 2.397464085055085e-7
-0.00039616302894255185 6.043412488991306e-5 2.201714615152111e-7
-0.0003268247187205968 4.334169675743301e-5 1.6948552766381143e-7
-0.000849311678572864 -0.0006862592160631505 1.2437846499711995e-7
-0.0006082113919652117 -0.0013586726630981948 -1.2258400550467575e-9
-8.23905480306962e-5 -5.427910790408262e-5 -6.923983185515705e-7
-0.00040728040164434337 -0.00010223287437660833 -7.641417895638552e-7
-0.0006277764982338174 -0.00030806429777992733 -6.118685879790584e-7
-0.0002421063494135844 9.220742252365526e-5 6.319676439166863e-7
-0.0009503368932352467 -0.000513055299147511 3.988164867367204e-7
-0.0008809346976473442 -0.001453659151534441 1.5558101373070257e-7
-0.0009456765334674867 -0.0014133833535039846 1.5163833048925378e-7
-0.00014791835154574746 -6.673489476176022e-5 -6.517729564153015e-7
-0.000647604163827469 -0.0005719343035621854 -3.812009893935842e-7
-0.0002774629778784504 -8.107916237056169e-5 -6.811556015858451e-7
-0.0006901087220566261 -0.0005866490835648408 -2.669031554252583e-7
-0.00029270841738519724 -5.858429239747314e-5 -5.194453831784219e-7
-0.0006174321419034602 -0.0014194535069413368 7.176195688760625e-8
-0.00016198098678320096 -7.964900685018825e-5 -7.454816878747098e-7
-0.00017323270428566624 -5.073294236943068e-5 -4.805715798648182e-7
-0.0006490962979639653 -0.0011763769058411833 -7.773697499062756e-8
-0.0009263892121230126 -0.0011829101561880908 1.744989464056849e-7
-7.11438304443263e-5 3.237111704913957e-5 4.2408793758241627e-7
-0.0006817971727059131 0.0001002366197954983 2.4671963871356156e-7
-0.0008683882259338865 -0.00012085471153457873 2.1373767663815152e-7
-6.682607358877043e-5 -2.6434258513760604e-5 -3.746208243344432e-7
-0.0006719901247920688 -0.00038534286972954847 -4.4095296622984927e-7
-0.0003678373716139342 -5.426205366044798e-5 -4.761211256437063e-7
-0.0007398283346228424 -0.001514344109679057 2.0540610192537571e-7
-0.0005762401962872395 3.931919233241814e-5 9.193364726459859e-8
-4.9235324927717035e-5 1.2542874287339361e-5 1.9738891561156502e-7
-7.332498285489504e-6 -1.2086941994580456e-5 -5.085965900149079e-7
-0.0008622396901783476 -0.0007626029899443217 1.51876885432408e-7
-0.0004046564025182374 3.245290238421552e-5 5.6477231221462866e-8
-0.0009173474288041228 -0.0013872382287735984 1.5076258784596896e-7
-0.00013016374989868916 -6.407504996595677e-5 -6.561859751436333e-7
-0.0006607032262038278 -0.0015037426143918778 1.983340042215287e-7
-0.0009050399537087304 -0.0011208649910878475 1.661507656171417e-7
-5.882021532257594e-5 2.5014033616684917e-5 3.611449313680266e-7
-0.0008499445420933051 -6.381579419155352e-5 1.8849002388111892e-7
-0.0006238621140071782 7.531875540860364e-5 2.0493261920844427e-7
-9.519524559297522e-5 -5.248337678842148e-5 -6.222367696500125e-7
-0.0008930419100229273 -0.0008126990116777501 2.056874102015914e-7
-0.0004248161481609846 5.969152543770189e-5 1.9782800740877486e-7
-0.0004294851187669804 -0.00010085084596440818 -7.168123512392299e-7
-0.0006196446759088595 -0.00027711570347178254 -6.28304381281511e-7
-0.0002995136119770131 3.069020547723895e-5 1.0750204602044059e-7
-0.0008469560558079664 -0.0006051473659092293 1.2037237357687948e-7
-2.3661832724768463e-5 6.3208977840035104e-6 1.3270587740360456e-7
-0.0008195459049392661 -0.00027834904277448496 5.5379201894071146e-8
-0.0001457997706737457 2.748934189611711e-5 2.3566414824397534e-7
-0.0006348172560689396 -0.00048129736192950465 -5.046817436753817e-7
-0.0002401792271467159 -6.393994395874888e-5 -5.576012154776832e-7
-0.00011676884031520661 -6.696677342421219e-5 -7.162549713860242e-7
-0.00026326006923152847 -0.00010023624024784681 -8.209159638313547e-7
-0.000620815206524094 -0.000522246022905458 -5.007815387422688e-7
-0.00012575906248324983 -7.055677863484382e-5 -7.299579171201663e-7
-0.0008024800444856594 -0.0014264094249779485 1.464660999654548e-7
-0.0006629925344878237 -0.0010831290494257117 -9.997865814933702e-8
-0.0002801026438201308 -0.00010107958174965723 -8.255521533026899e-7
-0.0003302986526280067 1.575615186960705e-5 -1.4678714369229945e-8
-0.000802101151036091 -0.0006766719715731275 2.1966959846968954e-8
-0.0001965276299553844 3.1002038844770275e-5 2.0507157432739545e-7
-0.0008083631009141592 -0.0004073489773773769 1.5983807381159814e-9
-3.156315370985491e-5 6.991672675493935e-6 1.294887337989305e-7
-0.0008152869668892851 -0.000984243158616702 6.92227059164393e-8
-0.0007910514079507129 -5.882468715086498e-6 1.438314666553742e-7
-0.0005430406786322273 2.2962052188347998e-5 2.2320952482430937e-8
-1.7376373734329824e-5 -1.5456963964437775e-5 -4.231647122491205e-7
-0.0006552337684323961 -0.0008862194789628451 -1.8122806218229586e-7
-0.0008565077956307619 -0.0008789580871559304 1.333438926649418e-7
-0.0008343908289294084 5.417991127035201e-5 2.0092781658239228e-7
-0.0004731850650260455 5.32130749020956e-5 1.4379889389982884e-7
-0.0003404890417280568 -7.46611154201278e-5 -6.284370497584352e-7
-0.000684610880615553 -0.0006766163338307648 -2.256769445018958e-7
-0.0008334844982629113 -0.00024374405336016945 1.0521149459242106e-7
-0.0001249845816308301 2.0268147589910287e-5 1.8792080091831452e-7
-1.8171246138781746e-5 1.5143198344729216e-6 2.900655079404692e-8
-0.0006619958123106315 8.289090165842742e-5 2.1742714745734878e-7
-0.0008827414823009198 -0.001162360112288669 1.413684640938244e-7
-6.693438603784077e-5 2.1699727108006803e-5 2.904725440643835e-7
-0.0008443986893363537 -8.776036897579042e-5 1.7483123126513865e-7
-0.0008068059895438197 -0.0007510271352002823 4.15817052749075e-8
-0.0004106420167140663 1.1742832466654464e-5 -6.139815774115076e-8
-0.0007910746135399179 -0.000263948889955759 -2.292484821760976e-8
-0.00014194994154627247 3.852190634424093e-6 1.2482962337681819e-8
-0.0008215803462387427 -0.0010804183631996963 8.109458835085349e-8
-5.568413475012515e-5 8.78544022142779e-6 1.288376418847892e-7
-0.0007860584052979535 -5.1590198277674436e-5 1.0407831373255178e-7
-0.0005982617846711738 3.132180836157799e-5 7.470755753178295e-8
-0.0006720368903227799 -0.0004930380522138145 -3.8217341757181547e-7
-0.00023997699262781917 -4.8366923729891254e-5 -4.4066093342936717e-7
-0.00011906501096171526 -5.5360369424168e-5 -5.896356508966525e-7
-0.0006897582844579932 -0.0014469060442420481 1.3865276137437183e-7
-0.0003138341861557948 -4.692727043505098e-5 -4.372338420944172e-7
-0.00019291308697074277 -4.4023123527339096e-5 -4.147900390223866e-7
-0.000693620543715021 -0.0012427854677647507 -3.886479935543382e-9
-7.699892888735585e-5 -2.961189585689565e-5 -3.935141692011506e-7
-0.0006943155095258563 -0.00041722863376502897 -3.547967845869938e-7
-0.0006891335125814268 -0.00035143215973683383 -3.817116504675603e-7
-0.00040353627095381187 -5.010907105158785e-5 -4.283949954877583e-7
-0.0008818228553883176 -0.0013591183357650504 1.427644724016227e-7
-0.00047878064875408273 1.796267366475123e-5 -2.1074212838833932e-8
-0.0008087581187368039 -0.0008898663029400958 5.645221942735118e-8
-0.00020626916206025484 6.145472163252699e-6 -7.515264131200068e-9
-0.0007673721799203529 -0.0004127699725967112 -1.2207159509244398e-7
-0.00029011697132053495 1.0946741385814487e-5 -2.4045367785677264e-8
-0.0008160502910278434 -0.0005964857668260123 4.42317900398365e-8
-0.00010812357251592187 -4.793551483045925e-5 -5.343441049585261e-7
-0.00022364410870738375 3.99053024844458e-5 2.4797117863314755e-7
-0.0008575908408688811 -0.00046610424820336553 1.427233376975424e-7
-0.00028264375243841676 3.846083853420504e-5 1.7735462012306998e-7
-0.0008619195559025738 -0.0005752500133268088 1.5666868952552896e-7
-0.0008694326853307401 -0.0013986859588299815 1.4543345348198187e-7
-0.0008827938010185176 -0.000841873583931656 1.8254051706983666e-7
-0.0004496232597568493 5.753085958293612e-5 1.7355124745900846e-7
-0.0006519489308481854 -0.000269053309140428 -4.873677370068113e-7
-0.0004736324397388592 -8.728805883482729e-5 -5.515459647325176e-7
-0.0008233859020112249 -0.0014030012226405994 1.4041189352424863e-7
-0.0006703417884331529 -0.0014102479659842762 9.462835338534179e-8
-0.0007739042205556632 -0.0006234916276023092 -5.120925168963702e-8
-0.0003064282285219686 3.6550743667576374e-6 -8.408939785535062e-8
-0.0005066883804843881 6.788946045950517e-6 -6.057327919543607e-8
-2.8617472988688662e-5 2.137652736754168e-6 3.387668417574175e-8
-0.0007878400158898935 -0.0009322436725737583 2.749058193617579e-8
-0.0008229361544422344 -0.00013714589977031563 1.1640647698235235e-7
-7.969605778888959e-5 2.5788295103393136e-5 3.153424829878527e-7
-0.0009063707792319575 -0.0012250778273481852 1.545431467967544e-7
-0.0007007725927212064 7.988381970642301e-5 2.074244223519888e-7
-0.0007675591960051872 -2.117907097346762e-5 1.0729826284474995e-7
-3.542485659180853e-5 -9.852902983278908e-7 -2.4959680153982057e-8
-0.000804182422967482 -0.0010227403603167203 5.6386498149293567e-8
-0.00037973700954295627 -7.543185160573552e-6 -1.747056659682417e-7
-0.0007711074023258259 -0.0007141082741690635 -3.5730543669665314e-8
-2.2471739514162562e-5 -1.8406622460760334e-5 -4.4338756168350217e-7
-0.0007086544909572944 -0.0009163862688080696 -9.176406115797507e-8
-0.0006901281123080555 -0.0008361833976458172 -1.4473680601413374e-7
-1.3977271823557299e-5 -8.750862709599721e-6 -2.650711374005199e-7
-0.0006881929595415223 -0.0011467266383372381 -4.791684539696674e-8
-0.0006658473392646593 -0.0010535493403308882 -1.0773616576229274e-7
-0.0007562532223109701 -0.0014039314597336532 1.245129289432704e-7
-0.0006104445377706074 5.252311712054326e-5 1.4124396378669838e-7
-0.00086281534703642 -0.0011005907195579246 1.2570801934603688e-7
-5.3782565700487025e-5 1.933768192060938e-5 2.9183105939820836e-7
-0.00015743207042310018 -6.9001858172758635e-6 -9.461855710639244e-8
-0.0007740372932956487 -0.00028699593974113865 -8.378437008200552e-8
-0.000227615848962225 -4.1989681330362714e-5 -3.917909448078183e-7
-0.0006862325547056028 -0.0004535215555008995 -3.6425246390660073e-7
-0.0007387629388399752 -0.0005769101753131748 -1.524050477087518e-7
-0.00029395979188837133 -3.286430448051435e-5 -3.3635790165891486e-7
-0.00017839297044252466 -3.6439350900556484e-5 -3.5558982524665644e-7
-0.00020801204986797066 -5.166171395783865e-5 -4.708757448429909e-7
-0.000674847218460952 -0.0012942699847229486 7.041416955384733e-9
-0.0007322333854904013 -0.0011992472751389837 1.416305550880225e-8
-8.703119008795093e-5 -3.4436380898192714e-5 -4.305776622801086e-7
-5.728538322360842e-5 -2.5140583691874134e-5 -3.8204718853405965e-7
-0.00043415883424035933 -5.056049396280152e-5 -4.0532543597046693e-7
-0.0009361964746012483 -0.001291742582480688 1.635997249820821e-7
-0.0007646349632736799 -0.0003774983173997134 -1.3275965714062087e-7
-0.0006452421297595371 -0.00024285439135134272 -4.866118528455807e-7
-0.0004849443780304361 -0.0001124659645095094 -6.590736507185878e-7
-0.00011076718826681405 2.4110358283003707e-5 2.4326596143163104e-7
-0.0008158057858904799 -0.0002102015320970948 6.908635848472325e-8
-1.6009473172198186e-5 -4.5530154123045285e-6 -1.324215259745774e-7
-0.0007407261801982455 -0.0006454964637024876 -1.1946630471182598e-7
-0.0007611712047438339 4.4890765990378066e-5 1.6822635292972673e-7
-0.0008108820109985546 -0.00016553816853493588 7.553641987282459e-8
-8.814469781488028e-5 2.6523031460088793e-5 3.073338213449973e-7
-0.0008904145256537773 -0.0012663925405083443 1.4326029396144317e-7
-0.0007187022559269899 5.827949714805295e-5 1.745765801940096e-7
-0.0007487999739758288 3.6442856409331664e-6 1.1570236798979772e-7
-0.0007684583897514928 -0.0009751876438473514 4.649032592548453e-9
-0.00035374775225628706 -7.845724481366993e-6 -1.7549723723123675e-7
-0.0007648714290914324 -0.0006585828881328231 -6.210590727860526e-8
-2.760499879069714e-5 -2.0662503140202017e-5 -4.4799226386835873e-7
-0.0006873746594910785 -0.000991305440604925 -1.0045003249991632e-7
-0.0007090653628116328 -0.0008739945065431837 -1.0293586695099074e-7
-0.0007106379584404055 -0.0010823814606032716 -4.461215393394803e-8
-0.0007027684844266955 -0.0013844843225372183 8.91350387550308e-8
-0.0007836292029011354 -0.0013979397971735632 1.2889913179422938e-7
-0.0008606994692861657 -0.0012058100411273113 1.2271107868281566e-7
-7.346336445493002e-5 1.742779083383301e-5 2.2008987739325022e-7
-0.0006802064123222243 6.442731303047797e-5 1.792420684118486e-7
-0.0007859455825013536 -0.0001242020836565264 4.49762308896283e-8
-0.00011146257845330315 -3.6451127068241e-5 -4.0510875304683175e-7
-0.0008795158681088488 -0.0005429676484028441 2.022068255327102e-7
-0.0002657878994401253 4.597146684201499e-5 2.488512075955741e-7
-0.00024002532314971385 3.266587039394715e-5 1.7464374116374396e-7
-0.0008563354197003014 -0.0004975893862764952 1.3929131661129786e-7
-0.0008532181433706057 -0.0008033146528895487 1.3387860528454404e-7
-0.00042550531172499766 3.58333385954616e-5 6.955744268789907e-8
-0.0006744037353256013 -0.0013533300185952254 4.7484643654510385e-8
-0.0007672021752323018 -0.0008459534374206315 -1.6199374115687666e-8
-0.00045062436033812663 1.5513189699124826e-5 -3.883567431902814e-8
-0.0002242039396150376 -1.8678290210541261e-6 -8.103934313198188e-8
-0.0007694006201195849 -0.00044679444031643216 -1.1076227216339486e-7
-0.000795437493136174 -0.0005529398474032434 -1.5927946903964733e-8
-0.00028247912212017045 -7.661114101806433e-6 -1.5269824799088329e-7
-0.00012696255597336348 -7.906767345774465e-6 -1.0167738284913379e-7
-0.0007651031828301838 -0.0002451765104365183 -9.068859826239812e-8
-0.00027166288774070873 -4.3004459638013635e-5 -4.053151745450316e-7
-0.0007222394910317261 -0.0005475692810872955 -2.0828316732421275e-7
-0.0006414684001078713 -0.00021634271174504857 -4.6362876951633594e-7
-0.0005124851042224024 -9.863799923300292e-5 -5.233509262296065e-7
-0.0007288962178421128 -0.00041838108918172077 -2.4184138219061284e-7
-4.9054543225921184e-5 -2.6375044760139867e-5 -4.303092525294906e-7
-5.483151043654774e-5 -1.500862201167678e-5 -2.3382291809346448e-7
-0.0008627273869484933 -0.0002668125161312619 1.803251997253291e-7
-1.285002249149457e-5 1.0309280433073486e-6 2.267360909107846e-8
-0.0001381268026006014 -1.1505407841875124e-5 -1.361241417209457e-7
-0.000747540258906026 -0.0002680036122110147 -1.5717888223529898e-7
-0.0007803864844919983 -0.0003323133217250138 -7.862474187511339e-8
-0.00016811410223244026 4.191694318106322e-6 -2.2212392239748924e-10
-0.00025243061196354353 -3.996363055749552e-5 -3.791780290029509e-7
-0.0007064230194819062 -0.0005045371695957452 -2.7500162764453457e-7
-0.000682449904736452 -0.00026063129663189444 -3.675709999079963e-7
-0.0007059866037796419 -0.0003099364592255513 -3.1364931301928477e-7
-0.0004583952199292579 -0.0001208252750950095 -7.771628118744647e-7
-0.0006147384256291895 -0.0002483206864608102 -6.172029803482401e-7
-9.206154956475633e-5 1.0342817561642623e-5 1.0678447396197157e-7
-0.0007926083004261867 -0.00018913363429485497 1.8144864106925433e-8
-0.00012793345749459407 -3.465885784482402e-5 -3.684122838132826e-7
-0.0002565715694038933 2.5786979147596204e-5 1.0783274181052023e-7
-0.0008224557265629627 -0.0004914729516812379 4.610838123583439e-8
-0.0007598011604408225 -0.0008826541483434436 -2.13819720040894e-8
-0.0007652548505911346 -0.0008076405460744976 -2.7001169790968613e-8
-0.00042960458384620916 -5.52733192038085e-6 -1.5527026533178555e-7
-0.0004713731095207968 -1.1468000781809461e-5 -1.6647510947987427e-7
-0.00020181897361091957 -1.0895109589360385e-5 -1.4428131510992531e-7
-0.00024853106480756114 7.145892834275353e-6 -2.587706117602436e-8
-0.0007967407067734314 -0.0004800770884557798 -2.6697176982359597e-8
-0.000780989686187629 -0.0005083349573008996 -6.499455772457262e-8
-0.00026553666887088037 -3.882602902619718e-7 -9.160891334585164e-8
-0.000781410288660118 -0.0005875141711664634 -4.251353693061205e-8
-0.0003000671618494651 -1.518485045038692e-5 -2.1302730969245648e-7
-0.0001121762811694475 -7.89445618155132e-6 -1.0355889386719848e-7
-0.0007701037411928619 -0.00020800186102584017 -5.232785132656314e-8
-0.0007220232543179395 -0.0010011154364948044 -5.266493215788259e-8
-2.8092351727911422e-5 -1.4243653758484928e-5 -3.079397310526811e-7
-0.0006848698879798813 -0.0008081224258019763 -1.6337824438049454e-7
-1.2492343988527538e-5 -1.2273347426569445e-5 -3.947108774955428e-7
-0.0007498918727425204 -0.00011826976248252504 -2.5253118308013892e-8
-0.0008183066762828568 -0.0011862594251094043 8.71430604087099e-8
-6.764524821683446e-5 1.2637387250061382e-5 1.6583905077028237e-7
-0.0006624757400639792 3.0232440869676426e-5 1.0370305577517401e-7
-0.0004770561407118307 -4.907193928782674e-5 -3.477788212326187e-7
-0.0008761502782919045 -0.001301348520165598 1.367453620200514e-7
-0.0007308501572332553 -0.0012826584263941462 4.471733904410067e-8
-0.00019747449008109024 -2.7880842132279635e-5 -2.8209860918844323e-7
-0.0007818649095522977 -0.0010615891064675441 3.3680186304325525e-8
-0.0007459550591166662 -5.677893096189854e-5 4.163715301952516e-8
-0.0005984999719251932 -3.6513150729862633e-6 -3.026086255652997e-8
-0.00041333520112897976 -6.522333749516726e-6 -1.645503179513459e-7
-0.000754920273039328 -0.0007720991856762343 -5.392851895055702e-8
-0.0006939903827099937 -0.0007622084358829733 -1.669118875072009e-7
-0.0007458068700217556 7.814342833220398e-5 2.0327905435409976e-7
-0.0008026433221900988 -0.001329156728954137 1.0754277761628251e-7
-0.00010015769809927862 -2.8762923553978594e-5 -3.3872498272531016e-7
-0.0007666653669826555 -0.0011996099148462735 4.540299001926601e-8
-0.0008480839508412666 -0.00018730591150731908 1.5825997868106752e-7
-9.933038259551259e-5 3.8039367076816175e-5 4.22266440570578e-7
-5.497462767648943e-5 -4.233754052897417e-6 -6.678442032871302e-8
-0.0007996083958885072 -0.0011228051314419302 6.222164162046976e-8
-0.0007512492628282065 -8.803076321968566e-5 1.202112464136825e-8
-0.0006417843889164927 7.441971999597495e-6 3.758732032381565e-8
-0.0007135864691039667 -0.00027546019852906785 -2.7138266924020285e-7
-0.0006087868297227474 -0.0005622335545244102 -4.853641395451773e-7
-0.0011297882584445627 -0.0013969936106237072 1.611691317158281e-7
-0.0010493867990575524 -0.00026109206300067676 7.152092115817467e-7
-0.000136281856353887 0.0001135627105143031 1.1364230716902842e-6
-0.00025874619105042897 -1.906805242188704e-5 -2.2614103902023498e-7
-0.0007538637601918068 -0.0004906508047472452 -1.4496268396721465e-7
-0.0002496514645918178 5.2282126785204045e-5 3.1405039058980934e-7
-3.668888674410108e-5 -2.12901760575508e-5 -4.0104648665999983e-7
-0.000212538709573953 -3.4801627547847605e-5 -3.367747790297819e-7
-0.0007078081343928162 -0.0013215621922029516 4.9027749061668905e-8
-0.0007787059150381957 -0.0012967388725961529 8.22116797191045e-8
-0.0006395247143307675 -0.00018926233709366555 -4.2305182346415544e-7
-0.0005388521744268636 -7.788289566173924e-5 -3.759143377991348e-7
-9.29122487992442e-5 -6.9286851897797715e-6 -9.726554139732343e-8
-0.0007668590482907886 -0.00017504975456668622 -3.846517479219297e-8
-0.0007574742751188182 -0.0003506511548961854 -1.539145076646318e-7
-0.0001698221357865324 -1.5934767410592247e-5 -1.7866541373375373e-7
-0.0007936635787292161 5.3716358591218966e-5 1.8701736611915519e-7
-0.00013534217968069756 -5.5009234294344554e-5 -5.595239184756944e-7
-0.0007130086193986645 -0.0009559886747033095 -7.554303679108949e-8
-0.0006656094467628408 -0.0010124809323065807 -1.2200885005906607e-7
-0.0006158621785746557 -3.350632908369755e-5 -9.742426490601548e-8
-0.0007017296356202388 -5.430769253047217e-5 -2.100336328336684e-8
-0.0005187843565395627 -5.417269627390211e-5 -3.1358634237777813e-7
-0.00045748169790463776 -3.346798152460297e-5 -2.888846243679342e-7
-0.0008329965759086786 -0.0012902101259280598 1.1328283173240834e-7
-0.0007884995765912202 -0.00123542590656486 7.152754514438527e-8
-4.385209124417186e-5 -3.970582570451727e-6 -7.063875464098138e-8
-0.000140581203996865 -4.4238725059187615e-5 -4.4989859041114804e-7
-0.0007344549970610421 -0.0001933404746158101 -1.403962567312446e-7
-0.0007444378921552143 -0.00014487084246610863 -6.582356029430444e-8
-7.904944361429895e-5 -6.581541858617047e-6 -9.383629123646896e-8
-0.0005612301786780507 -5.609772501540242e-5 -2.5210457465973687e-7
-0.0006992171996352318 -0.000233946038736704 -2.870154656100577e-7
-0.000600479969125389 -0.0001594259479776318 -4.852782053394266e-7
-0.0005600661131624216 -9.816058465017649e-5 -4.05108501041302e-7
-0.0005806499922787911 -3.652614220964833e-5 -1.5570862274329204e-7
-0.0006644176644058677 -3.446853553144512e-5 -3.6101943239448756e-8
-0.0004581725056683536 -6.615543067020975e-5 -4.640111493065184e-7
-3.2312669825914364e-5 -8.393652797813378e-6 -1.731011127801671e-7
-0.0009311717960483704 -0.0005332207409634908 3.422967680228752e-7
-0.00025964260031925273 7.675450463989998e-5 4.853164639686061e-7
-0.0007813936855342548 -0.0011652484363211132 5.1546949899356024e-8
-6.720859466428182e-5 -6.9005379342568085e-6 -1.0032486919611414e-7
-0.00013315239091859693 -2.3949307617116e-5 -2.5917093353504796e-7
-0.0007170326597974502 -0.00011658556552666082 -9.243210780083125e-8
-0.0009432694028206754 -0.0004877706603729743 3.8383614526986255e-7
-0.00022444120298385008 7.45643664625048e-5 5.234775595440442e-7
-0.0005414287717679757 -3.6474476251452056e-5 -2.0722001967612564e-7
-0.0005299249842794391 -0.00012788756766841963 -6.027398863346745e-7
-0.0006009967460776865 -5.260993282420041e-5 -1.752102875343281e-7
-0.0006824996486494102 7.378073066840992e-6 6.878898880982541e-8
-0.0006626300026383906 -5.195413173385673e-5 -7.630863397588182e-8
-0.0007037532692440471 -0.00021466052320631625 -2.5247498721443764e-7
-0.0007564108290264427 -0.0011046756681327811 1.3436005598063526e-8
-0.0006160656298080643 -0.00012644446527813012 -3.5183414208304664e-7
-0.0005864294034187414 -0.00011347942265968765 -3.920165874566678e-7
-0.0006723763882777094 -0.00018916565728525542 -3.1702428191202825e-7
-0.00015909448839613078 -4.146277433714902e-5 -4.0843571198533143e-7
-7.804341252721958e-5 -1.867555436350086e-5 -2.496888608986753e-7
-0.0006327004674211527 -9.914937538067223e-5 -2.415957768735592e-7
-0.0009389781071172385 -0.0004494013575165048 3.783310313850533e-7
-0.00020939183954509576 7.177827994012784e-5 5.261037022611648e-7
-0.0005262003992155971 -0.0001616499064958576 -7.582222567891344e-7
-0.0006626263067123939 -7.989507116311592e-6 1.9509980757085924e-8
-0.0006872762798364405 -0.00011505261936537412 -1.5451219390284475e-7
-0.0006802737144122953 -0.00013907814305123928 -2.1256505460890097e-7
-0.0006064084858002267 -8.757590587263434e-5 -2.674914128259074e-7
-0.0005521436366314083 -0.00016501961753462185 -6.713911166698572e-7
-0.0006751336274900687 -8.309628403210052e-5 -1.1862056265526272e-7
-0.0007075365490520155 1.7793681817203317e-5 1.0507712784727188e-7
-0.0005365157864664112 -0.00019946423649182382 -8.647983979975018e-7
-0.0006593068870514417 -0.00010805502758441063 -2.0293718583799963e-7
-0.0005801899050008986 -0.00019971703077320598 -6.676133319238577e-7
-0.000343826905636178 -4.4321238883333936e-5 -4.167952920596818e-7
-1.280718312162016e-5 -2.652942263112031e-5 -1.5761199027922208e-6
-0.0003060129677845547 -0.0016744875255918065 -4.6432736272903955e-8
-1.5337039986853393e-5 3.2312658026863045e-5 1.1232387121596205e-6
-0.00101166865480438 0.00013529950914500181 1.4481335939473865e-7
-0.0005543513860938598 -0.0015716935725048997 3.0857278906822847e-7
-0.0004974388888530992 -0.0013924637269553774 -9.378461041310701e-8
-0.000725522163822257 -0.0008191591406208608 -9.271405197824073e-8
-0.0002593225130039986 -8.219325787734711e-5 -6.899567770312633e-7
-0.0006585664952415246 -0.0005334933035418122 -3.871822306392709e-7
-0.0009913156486006382 -0.0014189440514404226 1.5204552461071349e-7
-1.566086756034357e-5 3.099771647848368e-5 1.001515080204836e-6
-0.0003233827335237422 -0.00024053367571830696 -1.910391646209238e-6
-0.0006141179055325199 -0.0011661778032686957 -1.2048948017970954e-7
-0.0001748696591935651 -5.953299778842495e-6 -9.31684638005798e-8
-0.0006366384026907134 -4.3463651818948257e-5 -9.498527953860136e-8
-0.0011671198980392138 -0.0009221746242142569 6.12154906348344e-7
-0.0011720382943882321 -0.0009649074593134441 5.723751283662016e-7
-3.408348530275261e-5 5.845884908809158e-5 1.2746371408284587e-6
-4.132378119150663e-5 6.545416201120213e-5 1.2699676368084998e-6
-0.0003021063272327085 -0.0017391193295331676 5.162731255441487e-7
-0.0008477736962787527 -0.0017058314589545552 2.223756822653474e-7
-0.0008032472168835646 -0.0017072623524198587 2.83463139063675e-7
-0.00024261870761950076 -0.00020225176513392993 -1.5141879841137367e-6
-0.0002624159328594999 -0.000211903493319198 -1.5417328611769582e-6
-0.0002826205846318109 -0.00022136073771578091 -1.5938921808570734e-6
-0.00030301000104185534 -0.00023075426058832233 -1.7012410139064493e-6
-0.00036051568432395314 -0.0007286101029816694 -6.899184385539752e-7
-0.0010534137073337814 -0.00032875699074540806 7.453863245133035e-7
-0.0004387247657067965 -0.00027708716771353503 -2.11647594932471e-6
-0.0002421513705957606 -0.00018433377414682484 -1.4055075370788559e-6
-0.0004087919085942695 -0.00024169993828051096 -2.1874520154334737e-6
-4.700730527656497e-5 6.304162924483723e-5 1.0984193528589389e-6
-2.0046426714610906e-6 8.04090088109498e-6 8.992024136292982e-7
-0.0011288383092481827 -0.0012207801083808593 2.8930536978330534e-7
-0.0008355932333155391 0.0002366153584629415 2.2977968815407232e-7
-0.0007042134590457253 0.0002353457879718746 4.521533872617773e-7
-0.000961628982434364 -0.001606246023590399 1.298873075320749e-7
-0.0001668858822743128 0.00012613644858488237 1.1377121708145654e-6
-0.0004458990511165875 -0.0015771373323384566 1.6846819094728647e-7
-0.0005150499094247138 -0.0016876483073967232 7.278653573920049e-7
-0.00014684438191311485 -0.00014037439074429174 -1.3555621993805372e-6
-7.069179309562134e-5 -9.484807479280068e-5 -1.367918349353974e-6
-6.735282808448815e-6 -1.7298103678305974e-5 -1.3840504217655726e-6
-4.987381479502972e-6 -1.5108767791363414e-5 -1.2690119075930818e-6
-0.0004111417102142671 -0.001428445982445176 -2.2049610234461275e-7
-0.0010132167645279131 -0.00023469517294345287 5.9399921175295e-7
-2.0087862448879355e-5 3.697507518768708e-5 1.0352808783045462e-6
-0.0010523407909073291 -0.000640507179326388 6.148482340119772e-7
-0.0010698628066213337 -0.0008489234354634054 5.074961225092192e-7
-0.00046813738749339434 -0.00021117184916279928 -1.341334380339295e-6
-0.00047962449848709546 -0.0009452209050226017 -3.966315862840447e-7
-0.0004504921324601714 -0.0012224903720094624 -2.926495312320354e-7
-0.0004933529054567587 -0.0015949462545598555 3.2882816232194475e-7
-0.0005137896463892493 -0.0015545932962605215 2.2700690205010682e-7
-3.3162825771940524e-7 5.735560919588036e-6 5.734950465838603e-7
-8.852698462408826e-5 -9.672239762569314e-5 -1.2105886119277867e-6
-4.1173904683593346e-6 -6.39837150737188e-6 -3.3066642740200204e-7
-2.3696997904989916e-6 7.229032663200572e-6 4.4949725172887924e-7
5.330450789470038e-7 3.8766193403762377e-7 2.8982972363859175e-8
-0.0007138002107569041 -0.0015799485673099176 2.7929285698515177e-7
-0.0004515206349512216 -0.0014187006467801992 -1.4254417254731672e-7
-0.0004566001166451461 -0.0013837139787186206 -1.699357817136743e-7
-0.00048252519085018167 -0.0012643450566423116 -2.2520842263939548e-7
-0.0009529492640300459 9.407190754730811e-5 2.0883598074338818e-7
-0.0009375234137693372 -0.0001346794310876992 3.541571368409621e-7
-0.0009928714662398195 -0.0002637798428324242 5.441632524882253e-7
-0.0009884405661286198 -0.00028703707392788955 5.355760869580312e-7
-0.000124268556165794 9.560149549771524e-5 9.894471502336093e-7
-0.00047114389340183844 -0.0010210645087564655 -3.6500098654700353e-7
-0.000979619613966158 -0.0005235143589158039 4.777403823886848e-7
-0.000965206473380753 -0.0005543598138899124 4.2914404578935974e-7
-0.0003395749294611189 0.00015357849918593578 8.678905131413297e-7
-0.0004377154844335948 -0.0001809752042859361 -1.2857366446408153e-6
-0.0005010696961168738 -0.0004368065255610128 -1.0338617609810619e-6
-0.00048184122738127684 -0.0009045307865040071 -4.176575976492584e-7
-0.0008145440963104451 -0.0015845265620429792 2.200577292900458e-7
-0.001036328408994298 -0.000896287157435449 4.185365473246449e-7
-1.1294712522751134e-5 2.0955556568508646e-5 7.457493675741911e-7
-0.00024336122294220806 -0.00014807494264704657 -1.1690281275701942e-6
-0.000504329886862157 -0.0009159052358279613 -3.8161154954454027e-7
-8.806639966105086e-6 1.6210493986935544e-5 6.354061443305075e-7
-0.0009152913081108372 0.00015703080947633192 1.7897642356201525e-7
-4.105247828683628e-6 1.0711044615759718e-5 5.844474837413915e-7
-9.72579837480492e-6 -2.3632185860409813e-5 -1.0712412532348437e-6
-8.536435784466133e-6 -2.0604916941884825e-5 -9.374919432600109e-7
-0.0008936100401675145 -0.001511317288874038 1.626300741311841e-7
-0.0010037258069503134 -0.0006885374370580202 4.735564186054232e-7
-0.0009569540634966385 -0.001537904413525595 1.407257304857196e-7
-0.0005203527898344783 -0.0010146997553112885 -3.0677868701161706e-7
-7.258342780666825e-6 -1.4862776607803278e-5 -6.534993886062674e-7
-9.367323617102463e-6 -6.1348050740494046e-6 -2.2512719690494477e-7
-8.3551359731703e-5 -8.648976423249518e-5 -1.109079566181592e-6
-8.669926287123836e-5 5.765877669299703e-5 7.032581273533368e-7
-0.00021476116415203655 0.00010789556224536218 8.181663269194219e-7
-0.00023126196856552907 0.00011022504171363517 7.976160979187861e-7
-0.0002626409972254333 0.00010670410786980223 7.040634445683691e-7
-0.0002749298205370394 9.698740879973834e-5 6.098430073685035e-7
-0.00036021868674121455 0.00013662881335116544 7.158768634953157e-7
-0.00038011907502619565 0.00013346113904851354 6.610604996287012e-7
-0.0009718260117196642 -0.0002781331626374091 4.855062000163819e-7
-0.000954758173728798 -0.00028440395295883074 4.371019209814895e-7
-0.0005487997900331679 -0.0002518612755387019 -9.552264562993817e-7
-0.0005183598416986284 -0.00018961038174432766 -9.176893018628798e-7
-2.4280513659872437e-5 3.3266566983847035e-5 7.814112745539954e-7
-0.00048056513388541324 -0.001416325821125838 -9.21460524544956e-8
-0.0005271029275861193 -0.0012629602592577097 -1.679948859673133e-7
-0.0005295512195628709 -0.0012242989847634112 -1.890260473735986e-7
-0.0008321739064746134 -0.0015415991252810124 1.9353560069335152e-7
-0.0007051283394092998 -0.0015453308916161459 2.446053606990891e-7
-0.0010420376421729153 -0.0010332532881745502 3.4429367424520593e-7
-0.0009230903679336841 9.098457108136352e-5 2.1316053744348813e-7
-0.0008950786233077742 -0.00015706836156042782 2.702249975294018e-7
-2.630851516474878e-6 1.2024926577514422e-6 5.766722536560889e-8
-0.0005834678248059061 -0.0005109249898419614 -6.181362681221895e-7
-1.1964269239090872e-5 1.719716480803164e-5 5.64628770985751e-7
-0.001044676806691809 -0.0012572190508063096 2.220232763205453e-7
-0.0009749635701213932 -0.0008159727800454862 3.51831606355016e-7
-0.0008941640925606014 -0.0002805970201540864 2.6611783092684417e-7
-0.0005536366463274291 -0.00022545503753442818 -8.624072754032001e-7
-0.0009717179533531402 -0.0002625065672796939 4.826017791300681e-7
-2.029600782662553e-5 3.1869890776913816e-5 8.365317326353466e-7
-1.0040981972484943e-5 1.286830510162671e-5 4.491624479270743e-7
-0.0008985335723765788 -0.0002505129081004424 2.801361940982245e-7
-0.0005430288001804811 -0.0006772985218145184 -4.936572040977151e-7
-0.0008933832591656223 -0.0005926255930456646 2.352702080320714e-7
-0.0008952293582195558 -0.00046271091200433264 2.497387420739406e-7
-0.001047803270378566 -0.001375911931335347 1.6977716162777717e-7
-1.1933518146436294e-5 -2.1929579396850996e-5 -7.774688449542896e-7
-1.1739681293554703e-5 -1.5499815313324936e-5 -5.221805923172888e-7
-0.00010461696485774814 -7.285936962770036e-5 -8.224747465558561e-7
-9.263821034979424e-5 -6.345158454550981e-5 -7.629862882064087e-7
-0.0009175732417410001 -0.0006772048036970536 2.783436713691639e-7
-0.000529511887976639 -0.00017803667021152426 -8.146502123998627e-7
-0.0008911847464576353 7.020031319321816e-5 2.1795822562015943e-7
-0.000887933046205482 4.5035484249276974e-5 2.2330178626391857e-7
-0.0008823066767903508 -3.999447455691575e-5 2.3353110639587794e-7
-0.0005853867326654538 -0.0015012949799901303 1.6851658479270277e-7
-8.708175310313771e-5 4.6871443081564324e-5 5.637754471444044e-7
-9.760922368047934e-5 4.898948367448414e-5 5.57234935196254e-7
-0.00016380096420946487 7.781351461009615e-5 6.771500303922605e-7
-0.00022719195693710252 9.159273917603735e-5 6.556536000481037e-7
-0.0002542176739277292 9.224016091230632e-5 6.10276302190419e-7
-0.0003575387908741778 0.00011988166641741901 6.167031902861131e-7
-0.0003875927019104766 0.00010041068529474639 4.5802239415502876e-7
-0.00040824419048731916 8.921217676885914e-5 3.7179259379205654e-7
-0.0005824181348869306 -0.00022457272253759164 -7.18496508570019e-7
-0.0008749628808662592 -0.0002472633089088089 2.1667683739436e-7
-3.8431212065809315e-5 2.112613001233932e-5 3.752846731817828e-7
-0.0009266408218634393 -0.0009904994921261152 2.1807004433234046e-7
-0.000408577350775802 -0.00012736277191132572 -9.437464038802538e-7
-1.5345029513060374e-5 1.750443266106146e-5 4.976817341795978e-7
-0.0005546597214246039 -0.0010332342667430132 -2.543262962290536e-7
-0.00016787114119421714 -6.515675604949327e-5 -6.10489901684229e-7
-0.0008444591453939699 -0.0015156432793684356 1.8036048341310383e-7
-0.0008619099909443785 -0.001485822127092884 1.6601471911092178e-7
-0.0009115098540244145 -0.0014758809456342239 1.5377748804372144e-7
-0.0008909805321450665 -0.0001886130229676745 2.6234603092487984e-7
-0.0005668516486086533 -0.0009428899387549917 -2.8280084029598735e-7
-0.0005320787101946131 -0.0011876271000240217 -2.060108092392846e-7
-0.0005704488339161716 -0.0011838178976362032 -1.6166202979581428e-7
-0.0009059446559996409 -0.0010240936600140135 1.8407181349282732e-7
-0.000734709830967217 0.0001240760362368135 2.6241007318649816e-7
-0.00010448973714625606 6.029881765418328e-5 6.680389425461176e-7
-0.000557036885941195 -0.0002034088749312201 -7.796535088882378e-7
-0.000873546210757526 -0.0004101798054703888 1.922574249313496e-7
-1.888234537477533e-5 -3.434580924380855e-5 -1.0014750965915152e-6
-0.0005760936280961781 -0.0009118092279325012 -2.8544943877056316e-7
-0.00026350543489982013 -0.00011848580938303504 -9.524435996160733e-7
-0.00031270614042640515 9.511612550832283e-5 5.317316474113452e-7
-0.0008628285815330007 -0.00022423625934939802 1.8814852183137267e-7
-0.0010212726978744877 -0.001486262276121044 1.318556347639737e-7
-0.0002399588235693764 7.477601725167877e-5 4.999446665541003e-7
-0.00032938849910918634 9.097626950193164e-5 4.781226987487751e-7
-0.0009929979083584393 -0.0013672416968016875 1.6504095104381565e-7
-0.0006139502180357887 -0.0014617092505542248 1.2405593661186004e-7
-1.6553409460302604e-5 -2.2529566411528588e-5 -6.502312636313919e-7
-1.8847291728823076e-5 -1.167670535483525e-5 -3.054536095049326e-7
-2.1575452333378662e-5 -7.926452019636306e-6 -1.9767663597213103e-7
-0.0008490925674516422 0.00013235768918965404 2.1875660340857986e-7
-0.0008980102714417144 -0.0009771006698172798 1.8231615632693972e-7
-0.0001059568657988147 -6.027620509399142e-5 -6.756909052983402e-7
-0.0007445096702462058 -0.001465062181038671 1.6392735477736237e-7
-0.0006417888648082493 -0.00138436085461376 5.095069690422446e-8
-7.880352922021615e-5 3.495280134069961e-5 4.3553969239481803e-7
-0.0008499414797411181 -0.000437549929827634 1.2196280709160707e-7
-0.0008445290119213803 -0.0005309724609769889 1.0903626386243026e-7
-0.0007525847039721735 0.00010658280635727475 2.346613609284672e-7
-0.0008752596090686495 9.563300628408062e-5 2.1325262578476816e-7
-0.0008331519245120045 -0.00011046375297224207 1.472118255481397e-7
-0.0005854485721074684 -0.001136308648151134 -1.6745860207548485e-7
-0.0007203394267483782 9.887104716760979e-5 2.3401639376285308e-7
-0.0005694781392687251 -0.0010859187730414717 -2.1076756706678745e-7
-0.0006126210960972214 -0.0010161957239467137 -1.885725896433232e-7
-0.0005374706077294965 -0.001152576396220765 -2.172224148185485e-7
-0.00080892779678982 -0.0008006760055178565 5.164485905027848e-8
-0.0008616310222538481 -0.0006371874290573315 1.5442618099973322e-7
-0.0008379976267087433 -0.0006346328898200612 9.957380158371742e-8
-0.000451846209352005 -9.712520547273124e-5 -6.502779414373868e-7
-0.0009660361094117503 -0.0014645998540307628 1.4516097058485715e-7
-0.0008992696832853949 -0.0014201704273716026 1.5051911867795604e-7
-0.00043066156080428364 8.265906240347661e-5 3.146965555062619e-7
-0.0006084375731813694 -0.00019209229448789947 -5.388140517110887e-7
-0.0005436546023292612 -0.00018260080535535393 -7.691050510001011e-7
-0.00010849141482168698 5.343195742782686e-5 5.755843197607711e-7
-0.0008508740660716868 -0.0014300220478224036 1.512917979642974e-7
-0.0008502338419806479 -0.0008432502941210158 1.2624072647192352e-7
-0.0008455705281421837 -0.000407161416040315 1.1125110987661617e-7
-0.0004198491609826772 0.00011275853635718667 4.856121023809631e-7
-0.0006008805462002181 -0.0012817476768836262 -7.033371180541639e-8
-2.0809345432434735e-5 1.1268720872135998e-5 2.626048213261747e-7
-0.0008499020300815489 0.00011031257217533418 2.1565246345264884e-7
-0.00025009875370296265 -9.94964431339953e-5 -8.186871415103714e-7
-0.0005762790483579858 -0.0007144451838253976 -4.0328266260274533e-7
-2.243997914572329e-5 -3.0337221076638032e-5 -7.568386866040476e-7
-0.00014580983434539513 -3.234947702093651e-5 -3.3284241201915445e-7
-0.0008069432377744497 -0.0006318165426813763 2.7428186552023295e-8
-0.000829828917487357 -0.000468024640722358 6.509193525755395e-8
-0.000810839564310786 -0.0005208551669318121 1.8046699373487193e-8
-0.0005534588706321905 0.0001004522978007243 3.049402695576695e-7
-0.00043844930181695884 0.00010317148878267367 4.125539619453296e-7
-0.0004598377659714858 9.982227214893389e-5 3.733408814704905e-7
-0.00042797310198350595 -7.678960507611252e-5 -5.674905474288878e-7
-0.00038477658352413334 -7.95077907075421e-5 -6.356871495394049e-7
-0.0003626291089001499 -7.759421055126939e-5 -6.390458228221007e-7
-0.000777595591442737 8.337205943879616e-5 2.0778025142384368e-7
-0.0008624080425875861 -0.0009506218539732488 1.3599633716012067e-7
-2.1877259088702733e-5 -2.2179375253110014e-5 -5.453984552025387e-7
-2.290332335385147e-5 -1.4813743402262695e-5 -3.5363512125757215e-7
-0.0008433872771798785 -0.0013862939001696923 1.3868343608791624e-7
-9.73932966185528e-5 -4.0845331495010464e-5 -4.806992421352616e-7
-0.000357177361384799 5.480574623985066e-5 2.16428927032651e-7
-0.0008037946387419934 -0.00024416197789517235 2.216011969209644e-8
-0.0007533766977626639 -0.0003112047935345525 -1.581137430157595e-7
-0.0007265436406966634 -0.0003399346091704909 -2.5306056603508305e-7
-7.580038536636268e-5 -4.683845717954387e-5 -6.227633502376538e-7
-7.26692651449383e-5 2.42051778782231e-5 3.106179594230638e-7
-9.794602758635926e-5 2.535330502111168e-5 2.757686837946935e-7
-0.0008189080203725643 -7.89208781988178e-5 1.3628854896646704e-7
-0.0007575949757984812 -0.00019268102711801548 -7.607942272702358e-8
-0.0008220866227143386 7.797114216249134e-5 2.0746116187600805e-7
-0.0009681760651155059 -0.0014321851156341677 1.4957230323608124e-7
-0.0006475296150164314 -0.0014303614140369438 1.0309985011911867e-7
-0.0006245545903404391 -0.001069638554914146 -1.5141305750348255e-7
-0.0006508217567087379 -0.0012117537335270823 -5.953470803304449e-8
-0.0006665520457858604 -0.0006131648804669673 -3.040928250848421e-7
-0.0005725213816964365 -0.00017810271061066002 -6.365178441920534e-7
-0.0006447068069934502 6.292628157757555e-5 1.7360279738699331e-7
-0.00032109640826365887 7.125068479245557e-5 3.598424603310233e-7
-0.0009679976768047885 -0.001388859060192824 1.5663541085465098e-7
-0.0009400090380690162 -0.0013586444808503639 1.56441592591337e-7
-0.0009096026472981089 -0.0013271160859292706 1.4995261288687514e-7
-0.00016440118903251092 -2.8291435436196974e-5 -2.877773050710255e-7
-0.0006614793636686445 -0.0004094270833806138 -4.698724449185087e-7
-0.0006767396981610746 -0.00096305091275455 -1.240199158985511e-7
-0.0005242478299647971 -2.1063040040901494e-5 -1.6603072011451142e-7
-0.0006475897232839053 -0.0001339922824815492 -2.869416243296537e-7
-0.0006733516935312628 -0.0006418338537871195 -2.6966962859354154e-7
-0.000557134284914831 -0.0001880113417469589 -7.301844759048117e-7
-0.0006625143655813898 5.327993602420112e-5 1.53882952712661e-7
-4.5284126633049806e-5 4.7992089492721355e-6 7.742918894416155e-8
-0.0006931602115661395 4.284175072174025e-5 1.421943083994111e-7
-0.000696740837097001 -0.0003831882425070551 -3.551922912858469e-7
-0.00022237408199145603 6.033607322947273e-5 4.124726123863921e-7
-5.958167875535027e-5 1.5118219339815748e-5 2.1459534829525963e-7
-2.9610066979316366e-5 -3.905186433240177e-5 -8.490179372012857e-7
-0.0002737939040991883 -6.173386028486106e-5 -5.412102081383066e-7
-0.00019117562761966294 5.412292553780186e-5 4.067312859677897e-7
-0.00034248754478215395 3.430935286601682e-5 9.855998032550673e-8
-0.00035690385485887124 2.231398198535404e-5 1.428981517945662e-8
-0.0003687651662753501 7.378255388814974e-6 -8.251774948041525e-8
-0.0007408183593302798 -0.000686237598238243 -1.0525053283595907e-7
-0.0007069732596165864 -0.0007085545103869014 -1.6508447875871254e-7
-6.783970347720333e-5 -3.63196564117988e-5 -5.094529873084266e-7
-2.6761116668888028e-5 -2.477038215524317e-5 -5.490310933808588e-7
-5.400176563983468e-5 -3.343126445163422e-5 -5.20773024638587e-7
-0.0003850257334998483 -6.122080905337375e-5 -5.122458934921464e-7
-0.0006917028333531179 -0.001038353705635004 -8.077062795840085e-8
-0.0006920745239098476 -0.0012009641535569622 -2.3164096503771365e-8
-0.0008647495200603011 -0.0013269704714988127 1.3383136764726153e-7
-0.0008346452117550885 -0.0013257560648775948 1.2120018628189496e-7
-0.0007726099076332165 1.7526388529640086e-5 1.4696578198011558e-7
-0.00042873586101101847 1.4544230636618704e-5 -4.590920603112256e-8
-0.00039418438970665795 5.1085371937169406e-6 -9.891260687456149e-8
-0.0007363400031214174 -0.0005201938831283667 -1.831113693204594e-7
-8.621039593131855e-5 1.767784166310097e-5 2.0207680556287258e-7
-0.00010622730007128955 9.48376188531433e-6 8.51948389829001e-8
-5.182417191213545e-5 3.254606630404904e-6 4.7795187042018435e-8
-0.0006722544872888918 -0.00021395512147865517 -3.5305210871479255e-7
-0.0006747965812472171 -0.000164117676051229 -2.6971350118302825e-7
-0.0006190043013709807 1.9504296852095343e-5 5.2540039913491055e-8
-0.0005335037053369743 -9.076881944222581e-7 -7.643660363038958e-8
-0.000649421814032831 -7.426392702292498e-5 -1.481325075254093e-7
-0.0007381875802907189 -0.00016924443783882746 -1.0627276717917822e-7
-0.0007055395335001134 -0.0006259392633455706 -2.0706223908009792e-7
-0.0007364822389465208 -0.0012408169883843902 3.184430983508268e-8
-0.00021378396038415032 2.2882241008607594e-5 1.2225725387080448e-7
-0.0007737001609772602 -0.0010111609371560996 1.6586124313291934e-8
-0.0006994586551790676 -0.001272362950714872 1.532700859505237e-8
-0.0007968886009663324 -0.0013666690507527556 1.197509026945639e-7
-0.0006907446647041305 -0.0002849151489321482 -3.553039694919125e-7
-0.0007737414126629833 -0.00047125946966714905 -9.368360407843174e-8
-0.0007181145635927658 -0.0006589827035936224 -1.6349459531413618e-7
-0.0007140896969755251 -0.000789914200931771 -1.2116647265676153e-7
-3.228280800901382e-5 -3.107787208383356e-5 -6.294463751180509e-7
-3.070335497204893e-5 -2.7026406087925624e-5 -5.587417248447855e-7
-3.300357258139137e-5 -2.4978351834884683e-5 -4.954503203118726e-7
-0.0007170184254908227 -0.00025195825793241776 -2.439469661286545e-7
-0.00013751356621767943 1.746925519329168e-5 1.4754166833041585e-7
-0.00046579005550135297 3.647753171641957e-5 6.551569542372992e-8
-3.831290213766997e-5 -3.6967869371252194e-5 -6.886938841051834e-7
-3.706249994899667e-5 -3.1410336424839985e-5 -5.907304028985399e-7
-0.0007441418815370821 -0.0009495986979702764 -3.2797144169966967e-8
-0.0005269791961079042 8.308020001680109e-5 2.533698970180805e-7
-0.0006955757985285409 -1.2685612299578644e-5 4.338777900552763e-8
-0.0008309699483859722 -0.0009169022464065945 9.151015315348833e-8
-0.00023459449330131177 -2.7107284475677264e-5 -2.7889935944247423e-7
-0.0005183614976928975 3.261529722584281e-5 5.248467470438475e-8
-0.00034354525734564377 6.2394579008322525e-6 -8.263632147577806e-8
-0.0003214008270058016 -2.076075270651369e-6 -1.2961180545878692e-7
-0.0007049280679936091 -0.00019099703745936223 -2.217744736612267e-7
-0.0007123037395741659 -0.0001417202204415531 -1.3795863495050482e-7
-0.00010386518117749606 -1.8092688495244228e-6 -3.8286225899826306e-8
-0.00012145924597699446 -1.6176095328492918e-5 -1.8717580094480268e-7
-7.918493867732815e-5 1.6474951146550747e-5 1.9848968652326646e-7
-0.000819899403438186 -5.92974778883152e-5 1.4619643094358056e-7
-0.000826531128980853 -4.133134409105524e-5 1.6291501644367872e-7
-0.000530995555818066 5.61515559647054e-5 1.4705747843005806e-7
-0.00044473965211152297 -2.2258616135819867e-5 -2.3972669188955236e-7
-0.00044938493068491677 -5.721129397116782e-6 -1.4951613421574163e-7
-0.00041017008252766955 -2.6135601564952653e-5 -2.787214429007056e-7
-0.0006694518938690291 -0.0007314405929499657 -2.2506496896434757e-7
-0.0005870446761890581 1.4293462623477665e-5 1.5304909379809095e-8
-0.0006260203692313762 -1.315445816259059e-5 -2.994737455134734e-8
-0.0007450347500995016 -3.088839232004356e-5 7.104751900110821e-8
-6.176048135988048e-5 4.558118682725033e-6 6.200271832945505e-8
-0.0002414400535384455 -1.050421931475255e-5 -1.551802495770683e-7
-0.0007166840942710975 -8.853089970084449e-5 -5.224014514637795e-8
-0.0001049772764368455 -1.7488391236999208e-5 -2.0985426269849811e-7
-6.833610350425504e-5 9.752255336253502e-7 7.523535120461099e-9
-0.00040060736249151124 -6.972947784784862e-6 -1.6923708486080839e-7
-0.00033329408197740976 -5.051758228990103e-6 -1.533916811257579e-7
-0.00033670223792154014 -2.000003397992935e-5 -2.532197855269851e-7
-0.0002862543665463301 -4.465606271587453e-5 -4.1912228202470936e-7
-0.00018162564535791946 3.9573339322979486e-5 2.9467693760491424e-7
-0.0005981625725008768 -2.503134188391887e-5 -9.5505679632531e-8
-0.000681197978263957 -2.692476991209617e-5 -7.887877578395288e-10
-0.0003811004205386786 -3.6420753137230424e-5 -3.545287407002781e-7
-0.0003925438667395056 -1.958885931562813e-5 -2.4610815828558813e-7
-0.00018637047736511913 -6.288814482188626e-6 -1.0047963275637676e-7
-0.0012284035847153966 -0.0016487496079292275 -3.5610508379490204e-9
-0.00122841744794325 -0.0016004418480176847 3.726962465809424e-8
-0.0012280923757185117 -0.0015032444755805942 1.9301021123646974e-7
-0.0012276391442083891 -0.001454392283775617 3.0513293745467103e-7
-0.0012259574665683384 -0.001356403015632713 5.881227533271042e-7
-0.0012246562406104519 -0.0013073711036508911 7.494739685065426e-7
-0.001221081487923418 -0.0012095255675257715 1.0834133686062046e-6
-0.0012187562423014264 -0.0011608769558132139 1.237031217139871e-6
-0.001213373211636061 -0.001064235758498986 1.535951717530569e-6
-0.0012067490410284558 -0.0009687773356641296 1.851561466342809e-6
-0.001202952457318862 -0.0009216406918937767 2.012401572027573e-6
-0.0011944890231099172 -0.0008286785866544129 2.3080850454012575e-6
-0.0011898392099043574 -0.0007829696971027696 2.443942955595013e-6
-0.0011798281746332453 -0.0006932751094729052 2.6849773012632086e-6
-0.0011744745144866141 -0.0006493569369789651 2.794495168140311e-6
-0.001163141560309168 -0.0005636628699827434 2.9804033249139037e-6
-0.0011512355001325283 -0.00048097334711149297 3.085630225749987e-6
-0.0011451563253971845 -0.0004408498766602292 3.105382785487504e-6
-0.0011329863042363294 -0.0003631235610679022 3.065657224610238e-6
-0.0011270139215024642 -0.0003255276945845394 3.0023497555820173e-6
-0.001115588253570705 -0.00025276558389816404 2.7792657955990957e-6
-0.0011102614885882486 -0.00021754849571719876 2.624053681880233e-6
-0.001100667638012642 -0.00014916266982624858 2.255824088090823e-6
-0.001096448795641544 -0.00011581561616424035 2.0454889045570158e-6
-0.0010893234264128992 -5.050844824304668e-5 1.5753677484780922e-6
-0.0010841382171425317 1.3600484993330138e-5 1.0813948084878975e-6
-0.001082271203466671 4.5455127021010996e-5 8.441330342216753e-7
-0.0010798775634800158 0.00010924330207642319 4.2616631472721265e-7
-0.0010792587584728562 0.0001413499392567338 2.6176627484258907e-7
-0.0010788306247708807 0.00020628620309771662 4.867043591476836e-8
-0.0010788494390127229 0.00023915218173855377 -4.572324292195821e-9
-0.0012283439880199606 -0.0017449762805815633 -6.418076656622797e-8
-0.0010789288693068139 0.00030541904444224055 -8.599893736862769e-8
-0.0010124509874165283 0.00030549886538093956 -5.836672870848089e-9
-0.0009789485289835947 0.0003055189348156797 4.785050879452604e-8
-0.0009111379094289502 0.0003050920884879135 2.636456164750942e-7
-0.0008768593512337281 0.00030447185977140203 4.2750893337332007e-7
-0.0008078429448968712 0.00030208397085666034 8.506261723466316e-7
-0.000773258931386256 0.0003001979882761936 1.0975849737087867e-6
-0.0007044088086660078 0.00029490882198513185 1.6278190425553546e-6
-0.0006703610929648699 0.0002914550653008783 1.9031676477716554e-6
-0.0006034003171102602 0.0002829819175496482 2.432687885295491e-6
-0.0005386275196900386 0.00027247002385403157 2.9311717588415758e-6
-0.0005072752538077698 0.00026650087402349656 3.159382229067943e-6
-0.0004470135430898222 0.0002533156759289314 3.5559820534039144e-6
-0.0004182160159783269 0.00024619175852041015 3.7205352080610914e-6
-0.00036347121102318886 0.0002310855440694014 3.981495139746197e-6
-0.0003376064432418659 0.00022318328140082225 4.083269133977076e-6
-0.0002890268780465397 0.0002069000833066861 4.2295744347146175e-6
-0.0002445113702931184 0.00019021830655422783 4.299300264145569e-6
-0.00022381616732592942 0.00018178819018841572 4.319364985642931e-6
-0.00018545421865240414 0.00016485123735927182 4.337295705199444e-6
-0.00016776091644424854 0.00015637393932989237 4.337617028312546e-6
-0.0001352745093096869 0.00013944367204440556 4.32796963851454e-6
-0.00012046562232077711 0.0001309987950420884 4.323383897187931e-6
-9.371399065827049e-5 0.00011416161444832663 4.322736929546068e-6
-8.170053188128291e-5 0.00010576299691503104 4.315339081346791e-6
-6.0522416877157734e-5 8.899792706053437e-5 4.290391199647691e-6
-4.301371686601343e-5 7.232111532895327e-5 4.2482270152832695e-6
-3.5631051662135275e-5 6.402943026955907e-5 4.225289415528984e-6
-2.351275167850906e-5 4.7603442873477025e-5 4.201247751732616e-6
-1.8727127678241774e-5 3.9491400827864076e-5 4.221332550845055e-6
-1.1382254491423205e-5 2.3556110637659004e-5 4.2392787694960316e-6
-8.55381091773459e-6 1.572025882253907e-5 3.9713185466271675e-6
0.0 0.0 0.0
0.0 0.0 0.0
0.0 0.0 0.0
0.0 0.0 0.0
0.0 0.0 0.0
0.0 0.0 0.0
0.0 0.0 0.0
0.0 0.0 0.0
0.0 0.0 0.0
-0.0003451201922205982 -0.00027011387867986053 -7.347612003703483e-6
-0.0003043877923285187 -0.00024910441956360103 -5.333269798363117e-6
-0.0002635329151910171 -0.00022969641316213004 -4.909995839230923e-6
-0.0002437478501056612 -0.0002201450898102563 -4.870817442816452e-6
-0.00020604940116960725 -0.00020110044124871897 -4.876990138477119e-6
-0.00017131056940535754 -0.00018199332741140124 -4.898028908247468e-6
-0.0001397899142041034 -0.00016280657891993918 -4.921889059027969e-6
-0.00011164628142625527 -0.00014352277863677456 -4.942732443031648e-6
-8.696205609001496e-5 -0.00012417767736940896 -4.9485782064680605e-6
-6.581862594640095e-5 -0.0001048154144784245 -4.945923878149814e-6
-4.8178882243386696e-5 -8.548567290988044e-5 -4.927540930764901e-6
-4.0658452577804405e-5 -7.585543688996301e-5 -4.91329764166649e-6
-2.8111442111323732e-5 -5.6730652772077156e-5 -4.904979851274824e-6
-1.8583567433194786e-5 -3.7881348563340604e-5 -5.013376216886481e-6
-1.1202346949729368e-5 -1.9249673875886578e-5 -4.7415420595639245e-6
-0.0003752892458917413 -0.00030436513512969705 -1.0003095169472318e-5
-0.00024105239594931712 -0.0016773609199629094 -1.58116368407159e-6
-0.00025334032770925915 -0.0015633774511943249 -2.6015676137760778e-6
-0.00026175533054608553 -0.0014582938966739717 -2.0257371582598475e-6
-0.00026524181586399354 -0.0014072940190337554 -1.8165495257907028e-6
-0.00027159519930320254 -0.0013069947356836318 -1.618591751608319e-6
-0.00027770897095376665 -0.0012083389567738659 -1.5933943825000067e-6
-0.000283984847753511 -0.0011110155494126488 -1.660331826041659e-6
-0.00029066320382491965 -0.0010149386124815756 -1.7761637563362698e-6
-0.000297839567986137 -0.000920130143036065 -1.90780447313794e-6
-0.0003055785370003206 -0.0008265820270739503 -2.054042584298006e-6
-0.00031392943126582444 -0.0007342511440494472 -2.208208059809186e-6
-0.00031834289108786316 -0.0006884964209868218 -2.287229543984062e-6
-0.0003276861972889123 -0.0005975674220204294 -2.479218183901735e-6
-0.00033790259940453995 -0.0005066433271185714 -3.003912703493745e-6
-0.0003499831044018174 -0.0004132569057982128 -5.312612281192709e-6
-0.00022876204447698013 -0.0018210930771288703 4.921930638691088e-6
-0.000359043863833152 -0.0018016367148237407 4.0661207006057175e-6
-0.0005150004110843632 -0.001770633551138103 3.4809087942447984e-6
-0.0006118411145575067 -0.0017603362084710954 2.2256341168478105e-6
-0.0007540461893317613 -0.0017510739203169166 1.1840681725777167e-6
-0.0008480053493151678 -0.0017475391549884194 6.819630657241932e-7
-0.0009893597637348607 -0.001745226083677856 2.0367516086812547e-7
-0.0010844297678682985 -0.0017449001599845729 3.6440037479710786e-8
-0.0010097542516862637 0.0002365485626703112 1.6280478867236197e-7
-0.0010080481585326769 0.0001678479345592779 3.410024216327927e-7
-0.0010155404292246982 0.00010325731340523262 5.513595339013713e-7
-0.001019085315453864 4.156746419216431e-5 8.292497065276236e-7
-0.0010200923701644252 -1.9976147126797e-5 1.129161667193658e-6
-0.0010199714933655437 -8.409487918492599e-5 1.413885258540695e-6
-0.001014790374031412 -0.00015874132099430625 1.6359954768917832e-6
-0.0010433149226037322 -0.00022738975329947595 2.0309038141132068e-6
-0.0010520324751910424 -0.0002948025226885878 2.205175805517451e-6
-0.0010638237964190507 -0.0003987339311774156 2.3179203133496274e-6
-0.0010686185996573974 -0.0004732670713443992 2.2816190034565274e-6
-0.00106459882934928 -0.000559594043015837 2.0970558834913295e-6
-0.0010895630505823757 -0.0006465142365183639 2.115914204673424e-6
-0.0010775435414451448 -0.0007392223289923517 1.8188939387707942e-6
-0.001109615546036726 -0.0008388113430774726 1.7720526363348718e-6
-0.0010856765688966553 -0.0009487556907934366 1.3842550711765744e-6
-0.0011061264502191521 -0.0010325948500161518 1.2625735286903726e-6
-0.0010953428852166186 -0.0011295492484030235 1.0170683856125077e-6
-0.001116163138539633 -0.0012602422917872497 7.56576979888355e-7
-0.0011313566429368971 -0.0013522761228009375 5.755517264118204e-7
-0.0011129964015816742 -0.0014477375717846862 3.9975187548723563e-7
-0.0011273025823131785 -0.0015522697931127075 2.3246512532161003e-7
-0.0011306907320187277 -0.0016481998054565846 1.1239514698840526e-7
-0.0009414606082966136 0.00023709670469996736 3.2440742259677987e-7
-0.0009328516848117994 0.00017816726794508595 4.6204952494091464e-7
-0.0009211504021891128 0.0001127174283383038 6.081963543170991e-7
-0.0009542539549933595 3.9621840814313816e-5 7.668135339569551e-7
-0.0009526615993296957 -1.7848261633076873e-5 9.126532024523264e-7
-0.0009491110934843544 -7.728022811640115e-5 1.031119035459325e-6
-0.0009596090179224744 -0.00017094166468514357 1.266385861926021e-6
-0.000956345581486941 -0.00023884441069176626 1.306497037257662e-6
-0.0009712999531020929 -0.00030725562060565246 1.4601446863048568e-6
-0.0009894295015402835 -0.00039633385635884046 1.6136945101699668e-6
-0.0009859109357256484 -0.0004590694122775579 1.542303273591374e-6
-0.0010002267789452567 -0.0005718581991632038 1.5499602052368854e-6
-0.001006215263044978 -0.0006593799563284578 1.480429735412288e-6
-0.001002872555238354 -0.0007347494159909357 1.345820498837868e-6
-0.0009964885283491954 -0.0008590237386647417 1.111221548950353e-6
-0.0009893796643835532 -0.0009284730719780077 9.865132846604442e-7
-0.0010046785108336963 -0.0010187396671591832 9.22404499759685e-7
-0.001023410499398509 -0.001124060857396637 8.307175024833573e-7
-0.0010081584044576155 -0.0012287402471015008 6.490595744923294e-7
-0.0010195880186907077 -0.0013443811228005178 5.32166236979253e-7
-0.0010415784522497264 -0.001433428692922264 4.413442182159272e-7
-0.001036088694061769 -0.0015634017380704254 3.1863247789562466e-7
-0.0010367899676525006 -0.0016502259119786384 2.317077803449426e-7
-0.0008698364047143496 0.00023448332924444511 5.603767157279182e-7
-0.0008895676195029593 0.00017064480390952566 5.618618071593348e-7
-0.0008720893970069187 0.00011559723225918585 6.339878858787935e-7
-0.0008573555978872383 5.0829818995628617e-5 6.269890895908206e-7
-0.0008815768638610568 -1.174441715515311e-5 6.890038537358133e-7
-0.0008762493749489185 -9.448814565409037e-5 6.847754913810505e-7
-0.0008591910527353159 -0.0001498179402028195 5.769339596534197e-7
-0.0008959603566091618 -0.00022026624033383283 8.213171240498911e-7
-0.0008863248780913448 -0.0003112630194465226 7.20835175339949e-7
-0.0008883905194082215 -0.0003897446729488988 7.121429959275825e-7
-0.0009001220454273939 -0.0005025640845762251 7.803243138997697e-7
-0.0009118843906304907 -0.0005620121422540471 8.581616704446295e-7
-0.000898800127346693 -0.0006420090248147459 7.244750577335558e-7
-0.0009294259224709323 -0.0007256652860146919 8.810895760609465e-7
-0.0009254576368251969 -0.0008314697217776044 7.754648915468533e-7
-0.0009026454159235503 -0.0009117965210879824 6.040726215494558e-7
-0.0009464799649955151 -0.0010430018245836804 6.831922669789209e-7
-0.0009491123635024503 -0.001141921979865253 6.082444780699749e-7
-0.0009487975400016046 -0.001243873917105491 5.328806612618264e-7
-0.0009648680133036158 -0.0013348916701724186 4.996703024318623e-7
-0.0009296385636204187 -0.001443469018761258 4.5185082616481354e-7
-0.0009242154734669273 -0.0015313434311414885 4.5917912156659257e-7
-0.0009355532135752324 -0.0016382196458140112 4.26398772509013e-7
-0.0008023657400775387 0.00023862296052382684 8.372510030385648e-7
-0.0008016245888792091 0.0001453369330874713 7.367524340938398e-7
-0.0007985891823396599 9.14380695830726e-5 6.40159712539305e-7
-0.0007916372250322936 2.6438234777968774e-5 4.98433962598865e-7
-0.000810746388517479 -2.667536707948452e-5 4.5779722353270693e-7
-0.0007938604291017719 -9.103500182566265e-5 2.530858604589625e-7
-0.0007774386514882671 -0.00015145824445638605 1.4348961453795045e-8
-0.0007883258947708905 -0.00022581086032562986 -3.6581232635142874e-8
-0.0008021133575143218 -0.000306167366294063 -1.4675919237469577e-8
-0.0008085526184265189 -0.00036368233121758265 1.0745764990351797e-8
-0.0008111791940586035 -0.00044590464472614525 3.557376612951463e-8
-0.0008292199149844677 -0.0005632620485224848 2.1779779655251536e-7
-0.0008395556772085109 -0.0006635261914796117 3.096055636802134e-7
-0.0008334063680508444 -0.0007095634438433507 2.710175106595279e-7
-0.0008090376532085429 -0.0008453274337738458 1.6578170510919267e-7
-0.0008231715140951648 -0.000946240930730517 2.380812384845722e-7
-0.0008439517980583492 -0.0010388751527855978 3.1860063366626047e-7
-0.000840413201816449 -0.001141790717815876 3.10947694182444e-7
-0.0008411980642776033 -0.0012490473713853965 3.3705168548804026e-7
-0.000839269481078302 -0.0013581816539944397 3.917894772171646e-7
-0.0008294952965925725 -0.0014589598509911696 4.832528893309836e-7
-0.0008055537593772127 -0.0015417011338801 6.144859257374553e-7
-0.0008274831447715362 -0.00162613462456236 6.784629831753487e-7
-0.000733126491810784 0.000224563935978817 1.145890263448923e-6
-0.0007306595460791242 0.000170712957934144 9.659192316251384e-7
-0.0007009397055819521 0.00011228642238814959 7.821711087345296e-7
-0.0007339361729840556 3.119659805374328e-5 4.205262634880618e-7
-0.0007206636731284431 -1.5336088952480358e-5 1.961518281600973e-7
-0.0006927057199146854 -9.485111898931032e-5 -3.235242609234406e-7
-0.0007076635162143265 -0.00016612739927573809 -5.462650355742553e-7
-0.000738376254809762 -0.00022245530108623077 -4.6316565103075363e-7
-0.0007310877108058422 -0.00029010344222553527 -6.64444906247123e-7
-0.0007288107489778162 -0.00038021549623869173 -7.470096870157597e-7
-0.0007274373730789605 -0.00046193454462347506 -6.985415581807562e-7
-0.0007632385890172524 -0.000539280507761814 -3.1237670764272396e-7
-0.0007392184804953261 -0.0006176742549838896 -4.0080576659558756e-7
-0.0007337800721369276 -0.0007396606866235623 -3.068484513138759e-7
-0.0007334713724364868 -0.0008443231885905425 -2.1821608477870662e-7
-0.0007509552527230182 -0.000918122620986555 -8.325840887832166e-8
-0.0007472748351332122 -0.001037723722656259 -3.747668424922731e-8
-0.000738041453833197 -0.0011526431209518758 1.992575992550493e-8
-0.0007462865929818217 -0.0013529676534634843 2.7091652495173997e-7
-0.0007234305526629653 -0.0014233554821783219 3.855279376520249e-7
-0.0007420457200557933 -0.001547231567162129 6.982482267473097e-7
-0.0007324511057970861 -0.0016324543116773246 9.540842763907003e-7
-0.00063696206462518 0.00021868420854708265 1.6603887340219797e-6
-0.0006386903455436173 0.00014806982894005694 1.1448133245403497e-6
-0.0006414689688177103 9.940998077819287e-5 7.847719455754504e-7
-0.0006330957502269153 4.122020819550232e-5 3.497047110625234e-7
-0.0006469796874021028 -2.429359889931664e-5 -1.0094026343464163e-7
-0.0006235723814879482 -6.440064084720479e-5 -5.118845921243306e-7
-0.0006397615600404804 -0.00016172660401466893 -1.1030796827945957e-6
-0.000674564769047653 -0.0002371310261070978 -1.1215127414337348e-6
-0.0006617004269381177 -0.0002954469811346731 -1.4010016780932265e-6
-0.0006580386395760349 -0.00036463951347829297 -1.4852940233533496e-6
-0.0006489666105697181 -0.0004423553685591999 -1.4824857403925658e-6
-0.000693446874439106 -0.0005441206255293741 -8.595235600786043e-7
-0.0006344890551490735 -0.0006484397500381766 -1.0412489769568153e-6
-0.0006413805418046623 -0.0007576782589127234 -7.808235327361456e-7
-0.0006463167095666993 -0.0008428412672100835 -6.323542603528684e-7
-0.0006634794260470526 -0.0009266486409766504 -4.654343054776872e-7
-0.000642276590520992 -0.001037370508566389 -4.263533375725118e-7
-0.0006452758657096933 -0.0011240271555423515 -3.143452461398007e-7
-0.0006497750605636181 -0.0012587559875691025 -1.0967771217796931e-7
-0.0006443989374209799 -0.0013249194768551332 5.3490634271751355e-9
-0.0006538855014375547 -0.001460475898514549 4.200946100318782e-7
-0.0006127702505352723 -0.0015459477043243718 7.925921288759578e-7
-0.0006351856309821741 -0.001662537944502447 1.4513484534287366e-6
-0.0005700055942257461 0.00021370967766501787 2.0220837226451686e-6
-0.0005659732414077048 0.00015401197309476133 1.4342907193292314e-6
-0.0005773578714502365 9.458485680676047e-5 8.2060492360853e-7
-0.000566788467158119 1.572268399349809e-5 2.5214512402512777e-8
-0.000563037650019307 -1.2816403903677898e-5 -2.8534147635792764e-7
-0.0005827483613720412 -7.372533258902428e-5 -8.195950585786848e-7
-0.0005659914350105128 -0.00014099060740338566 -1.6254313415703344e-6
-0.0006112531664503323 -0.00022002741280738075 -1.7562180014127524e-6
-0.0005846789114449846 -0.00028232223464974473 -2.40232900148066e-6
-0.000551596165847724 -0.0003592711876586688 -2.931373671700774e-6
-0.0005656924526100496 -0.00045536316707560294 -2.287141331884037e-6
-0.0005687760455847053 -0.0005528086695900621 -1.778267045546456e-6
-0.0005491491783089407 -0.0006365450412842024 -1.5787539505886373e-6
-0.0005423992943494249 -0.0007571723072547072 -1.2820255581377955e-6
-0.0005357491881845213 -0.0008413640022380573 -1.146103230865529e-6
-0.0005330041693698155 -0.0009297710980587992 -1.0075540819470803e-6
-0.0005308986792961102 -0.0010698481783882768 -7.98095655985896e-7
-0.0005031410856649099 -0.0011461569745928484 -7.892447305774574e-7
-0.0005688652905055044 -0.0012566840705213985 -3.675966637453483e-7
-0.0005291007161693854 -0.001352815363825838 -2.739164634505606e-7
-0.0005371636290257748 -0.0015140788197572838 4.643064754933375e-7
-0.000557508895311751 -0.0016862711129153152 1.9950105979662996e-6
-0.000506373915785053 0.00020605933502333628 2.3559488872786156e-6
-0.0005068731369173542 0.00015167188097840254 1.6540767824360712e-6
-0.0005055105057555345 0.00010021582694079483 1.0069452950315e-6
-0.0004945689379730729 4.3961556498370424e-5 2.9743048130726574e-7
-0.000498138308970374 -2.5500414104283077e-5 -6.328502928058561e-7
-0.0004958417905384767 -7.238507323564406e-5 -1.3032112812072618e-6
-0.0004929805430662356 -0.00014074532594242193 -2.34963788766328e-6
-0.0005120568254558429 -0.00020681871095651856 -3.0616065305907765e-6
-0.0005096716946726221 -0.0002805356304315029 -3.853931718836579e-6
-0.0004726436686526727 -0.00035672785173411546 -4.579205271840753e-6
-0.0004955264386628072 -0.00046850507455298485 -2.849758072486682e-6
-0.0004706990570021074 -0.000581804578877997 -2.2067084162877367e-6
-0.0004560587786936078 -0.0006756414824422851 -1.8881950677175972e-6
-0.0004479381508890499 -0.0007641761047408361 -1.6740977568494693e-6
-0.00044370523738674814 -0.0008482756898046696 -1.5070243973466375e-6
-0.0004536410202078161 -0.0009220421348857155 -1.3323908206031085e-6
-0.00043199321418231303 -0.001056274492581193 -1.1882940889642332e-6
-0.00042233999141096096 -0.0011419308330415411 -1.104773398299238e-6
-0.00042025007307579693 -0.0012157310639751018 -1.011956143715542e-6
-0.0004170177429825492 -0.0013432168760351354 -8.210163377990985e-7
-0.0004591240682365626 -0.0014512747475437248 -2.5686490618262215e-7
-0.000439974661228467 -0.0015078207687614035 -9.173817023136559e-8
-0.000469850168212013 -0.00168428012807004 2.1788097018758606e-6
-0.00044579737364368246 0.00019407755731985047 2.6072683998203724e-6
-0.00045562958074755664 0.00014175757990398446 1.74498215694141e-6
-0.00045459061444697865 7.856829940412356e-5 8.232783914814881e-7
-0.00044705438154092495 3.6167878697793267e-5 2.017297856594257e-7
-0.00042849110998167126 -2.5998609199152943e-5 -8.085264243052049e-7
-0.0004454462311722432 -7.930719671953825e-5 -1.6722029995766842e-6
-0.00043270920068684397 -0.00012536687800192032 -2.6186380515789194e-6
-0.0004101446199279488 -0.0001817332544177392 -4.223916806784407e-6
-0.0004382354922986001 -0.00024359449130835473 -5.559173018205775e-6
-0.00040021524368339344 -0.0003588310157816546 -6.760932006500217e-6
-0.00042884050397723185 -0.00044654436854687753 -3.683082800013116e-6
-0.00038005103813313625 -0.000545169800456069 -2.672231559353659e-6
-0.00037055668380005767 -0.0006364743760025744 -2.288969476860891e-6
-0.000356544851906425 -0.0007740905205684582 -1.9832843070034174e-6
-0.0003508282832406807 -0.0008660988848559916 -1.8136217553791636e-6
-0.0003485516023948713 -0.0009604098117713424 -1.6523859858377725e-6
-0.0003368535955686891 -0.0010580680164692993 -1.5389651539040746e-6
-0.00033025983104801617 -0.0011533154361352727 -1.4367429422392276e-6
-0.0003283655632359007 -0.0012506530691356787 -1.357278307412739e-6
-0.0003184099311374127 -0.0013498228943657365 -1.3749821674566062e-6
-0.0003140739206342176 -0.0014500815197791856 -1.458329625489505e-6
-0.00031730913172000366 -0.0015562404712537922 -1.3647106279977683e-6
-0.00036626372743795994 -0.001675206912815766 9.855045075258955e-7
-0.0003892670570252782 0.00018465465649327765 2.8479948489373267e-6
-0.0004001540479573153 0.00012552457031937632 1.7529130026563266e-6
-0.0003725410783478789 7.680457298769945e-5 1.0058420528892813e-6
-0.00038540638626410797 2.2259342765673407e-5 8.890479159861346e-9
-0.0003645510740130582 -2.3831392900353127e-5 -8.318483441222561e-7
-0.00036158990328986646 -0.00010215192030746219 -2.4498964662743973e-6
-0.00036226460972016856 -0.00015297958021315183 -3.685988515801924e-6
-0.0003613900015290055 -0.00020682645598782653 -5.417371792356446e-6
-0.00036056762250007184 -0.00026216698145138044 -7.885695018225248e-6
-0.0003372164005884532 0.00017539558326478324 3.063347097407251e-6
-0.00033033269626735824 0.00010997011497351452 1.8002911122828951e-6
-0.0003035937536363092 7.813533414254966e-5 1.2910690920524003e-6
-0.0003153181744823572 2.314447459759301e-5 1.3099087202363013e-7
-0.0003176797509644514 -2.1561095334550386e-5 -7.825320749773058e-7
-0.00031781426168724585 -7.541226566793984e-5 -1.914553196908519e-6
-0.0003193182970890491 -0.00012557362611231483 -3.0304178468181525e-6
-0.00031973864916727014 -0.00017342818815449266 -4.162873038898233e-6
-0.0003213517573602119 -0.0002200909951159617 -5.265954711110198e-6
-0.00028637520823475014 0.00015284272304536242 2.979241920803185e-6
-0.0002870092201967093 0.00011655513259919846 2.1847011498104943e-6
-0.00027619264600482047 6.73309012089614e-5 1.1781781761674178e-6
-0.00027311993842464046 1.8426146048543694e-5 1.224845342508431e-7
-0.0002757050686179241 -2.5350213684635632e-5 -8.346663059201178e-7
-0.0002563174752812327 -6.292456126291944e-5 -1.6492664009714745e-6
-0.0002806069594910344 -0.00012198310223464847 -2.9310485874040264e-6
-0.00028040223860674007 -0.00016335346898973217 -3.8069943928977238e-6
-0.00028134372095521586 -0.00020320964850006757 -4.526259329572233e-6
-0.00023961169694597785 0.00014934888260265683 3.2886730617044887e-6
-0.0002119068135888814 8.978295879393082e-5 2.015428787459365e-6
-0.000233688289469544 5.621879991445339e-5 1.089735542624706e-6
-0.00023105589939017128 1.4864409366738872e-5 1.3438401583053163e-7
-0.00021782159550976142 -1.8262816087486436e-5 -6.210742048095368e-7
-0.00022359296218832923 -5.902094680545666e-5 -1.5665084096602006e-6
-0.00023143984882763302 -0.00010400506780835167 -2.5812080879015037e-6
-0.0002255092657732754 -0.00013918237672834024 -3.3726286871754825e-6
-0.0002230583060739244 -0.00017447492629573205 -4.122504829208036e-6
-0.000201231048992976 0.00013869787359505176 3.3859188607867025e-6
-0.00018046224145239431 8.297286208999373e-5 2.045775418449091e-6
-0.00018017041054421338 5.7264360348249875e-5 1.3525885631722663e-6
-0.00018482448998515216 1.3003149147884917e-5 1.893504402993374e-7
-0.00018294115891086753 -2.2001009439051325e-5 -6.990681958592721e-7
-0.00018776633409940148 -5.9701540257026944e-5 -1.637833802767545e-6
-0.00019439461220928088 -0.00010178696570478604 -2.644716571779773e-6
-0.00018938317023077305 -0.0001350294528678029 -3.473023539293318e-6
-0.00018388179153554525 -0.000168528038749499 -4.343132204329265e-6
-0.00015086711994100787 0.00011977720413043557 3.411467988632359e-6
-0.00014987961738868825 8.98748984633142e-5 2.5058865237319596e-6
-0.00014442659747386088 5.322369466269335e-5 1.4574961136686707e-6
-0.00015636823526486802 1.5849984591642287e-5 3.425682913232442e-7
-0.0001508944470718327 -1.9455721064905016e-5 -6.273841399200889e-7
-0.00015338191705259143 -5.44939693786275e-5 -1.5962484867795496e-6
-0.0001540254746007132 -9.464166862032338e-5 -2.68471657640334e-6
-0.00015796200182620096 -0.00013167871917962363 -3.6775737301327364e-6
-0.000150654120494088 -0.00015617156248170992 -4.481517916878428e-6
-0.00012193148371393097 0.00010644944425291731 3.3721311445863367e-6
-0.00012201517595659104 7.329491884447821e-5 2.2477837481856563e-6
-0.00011519652409837037 4.156523717804933e-5 1.2782180329707947e-6
-0.0001214121935979173 4.068908978005001e-6 6.371874237886347e-8
-0.000115584234351583 -2.5752127581471914e-5 -8.626650473276363e-7
-0.0001228053770970603 -4.4990392656383504e-5 -1.430633213284849e-6
-0.0001308550917495092 -8.117210451767234e-5 -2.464405648448288e-6
-0.0001282421648776701 -0.00010408711158855953 -3.1911977096410943e-6
-0.00012133821944860185 -0.0001387582453345289 -4.490742982679317e-6
-9.360102849017018e-5 8.611529399591973e-5 3.103346164357082e-6
-9.900097613543959e-5 6.997797784308467e-5 2.417969758572243e-6
-8.777375837982299e-5 3.666850251175354e-5 1.2973284786403002e-6
-7.707277656593704e-5 6.1368510964887364e-6 2.1347798701736876e-7
-8.879809367601098e-5 -2.2142404318298994e-5 -8.358560592465034e-7
-8.496132002940328e-5 -4.4983256834858976e-5 -1.698558804621532e-6
-8.91707342750417e-5 -7.32485866181432e-5 -2.6988724601460663e-6
-9.934982085205931e-5 -9.808289384805087e-5 -3.443734400489598e-6
-9.574041473925454e-5 -0.00012197043585755968 -4.508734975085036e-6
-6.659359522978383e-5 7.427987269535946e-5 3.2055298945612723e-6
-6.624740542639522e-5 5.112507130833438e-5 2.1231569552463478e-6
-6.444005984828979e-5 2.9086874595887702e-5 1.1985152000820952e-6
-6.184344034227834e-5 2.0309671216334614e-5 8.496929615128752e-7
-6.611220031228977e-5 -1.6460409353116872e-5 -7.034880029489231e-7
-5.975132493974678e-5 -3.441482023598412e-5 -1.5301528139868544e-6
-6.317235113083041e-5 -5.465878871266715e-5 -2.3770380098051476e-6
-6.576485238927288e-5 -7.489493264593065e-5 -3.262681097610047e-6
-7.312116553317693e-5 -0.00010474560357885595 -4.524230012533353e-6
-4.3283978116951744e-5 5.316164894516812e-5 2.8153050272122886e-6
-4.4697803362552936e-5 4.226313511457815e-5 2.1492357938569486e-6
-4.356904699130434e-5 2.9004565928313976e-5 1.4678618878899386e-6
-3.749409322678448e-5 8.331951761044377e-6 4.382779735159691e-7
-4.2232422566993154e-5 -1.4950038885119709e-5 -7.920014855792905e-7
-4.355484394126372e-5 -3.216680421227491e-5 -1.6585248091517908e-6
-4.600859934773556e-5 -5.3706578907904155e-5 -2.7876925215251963e-6
-4.963165071035428e-5 -7.095713197720227e-5 -3.667342757367773e-6
-5.395559772518636e-5 -8.715210546066315e-5 -4.5124858301913634e-6
-2.9791701214469753e-5 4.641181984751102e-5 3.054159738126306e-6
-2.8676322019368196e-5 3.435870602326918e-5 2.186218824676108e-6
-2.5214738919079745e-5 2.0407422441767364e-5 1.3257941138515652e-6
-2.8328615488692985e-5 1.0700662900339267e-5 6.338856342834834e-7
-2.4531982109331007e-5 -3.1290061497214355e-6 -2.404515660827664e-7
-2.6956488832083696e-5 -2.9128485487672792e-5 -1.9367505293856264e-6
-3.088167338211954e-5 -4.4716086715529285e-5 -2.8871637088720748e-6
-3.408498825817511e-5 -5.70524992144058e-5 -3.6714994548557466e-6
-3.817809141757861e-5 -6.966846353994109e-5 -4.496596191142908e-6
-2.0320773919486502e-5 3.984886600105976e-5 3.4215758546441176e-6
-1.698848272748754e-5 2.6713270098302512e-5 2.247368513793275e-6
-1.2868072598741224e-5 1.3967958907199899e-5 1.2706019183120663e-6
-9.400029869821773e-6 4.151106436274577e-6 4.0652631107090384e-7
-1.086472020217621e-5 -2.576743270726692e-6 -2.7258501993226195e-7
-1.641109242538348e-5 -1.8998478325851746e-5 -1.6070782935871878e-6
-1.7413533030348322e-5 -3.0072825435868104e-5 -2.6335551770875176e-6
-2.1697627553550205e-5 -4.327048859006976e-5 -3.740699453985381e-6
-2.577649937097052e-5 -5.2456416519501405e-5 -4.516762693971457e-6
-9.591766541068772e-6 2.3691794091704333e-5 3.2486807998293823e-6
-8.295646290795448e-6 1.9567362682378614e-5 2.5153398079220326e-6
-2.2028716736697644e-6 3.0108377578995288e-6 4.797043768107296e-7
-2.5151925056055603e-6 -1.932590557010366e-6 -3.409486404063168e-7
-3.4541065302922038e-6 -1.1318994300932895e-5 -1.9591795566786726e-6
-4.87228300206142e-6 -1.608929324588421e-5 -2.886243745321426e-6
-1.2658092052203455e-5 -2.999332859923952e-5 -3.924479604898554e-6
-1.6420122300551822e-5 -3.545972171729185e-5 -4.6278277872693295e-6
-3.5396254622795562e-6 1.0557294309324147e-5 3.245789575591112e-6
2.1452243331983594e-7 4.911674464575615e-6 1.899681659725956e-6
9.208122217547016e-7 3.4204754231043087e-6 1.1293466720483694e-6
1.4460605212287055e-6 3.04733639384526e-7 9.585282059673299e-8
1.2424142865266231e-6 -2.4056515364920563e-6 -8.555891180781508e-7
5.821347039052274e-7 -5.156753757219181e-6 -1.8539175276420307e-6
-6.067488041760789e-7 -7.463738213631078e-6 -2.750846924731555e-6
-2.6257110162059047e-6 -9.938665706782947e-6 -3.544916865636167e-6
-7.896707392148083e-6 -1.6569615778863718e-5 -4.437985646371833e-6
-0.0012283643854488484 -0.0016968989855001182 -3.1053975874213655e-8
-0.0012283371973693894 -0.0015519385715300645 1.0253428505282077e-7
-0.0012269396613155377 -0.0014054306265718192 4.377769152265074e-7
-0.0012230357999248515 -0.001258401051942575 9.163746627816519e-7
-0.0012162243664270353 -0.0011124252992694755 1.3835381040249501e-6
-0.0012102216664941648 -0.0010163341053824888 1.6916007407363958e-6
-0.0011988633543108967 -0.0008749219668380027 2.164070293109538e-6
-0.0011849500138145527 -0.0007378384810361053 2.5700190330534836e-6
-0.001168897594670957 -0.0006061318230425485 2.8946625826268666e-6
-0.0011572473274142024 -0.0005219198295474547 3.043161462223033e-6
-0.0011390543196675641 -0.0004015619619445002 3.0993076163031216e-6
-0.001121194245782243 -0.00028874614384632433 2.9062898755905842e-6
-0.0011052757720560675 -0.00018304126273140559 2.4476285329489588e-6
-0.001092649941638637 -8.29602080719952e-5 1.8174139620651222e-6
-0.001086485800893711 -1.8354934691197678e-5 1.3274222248977926e-6
-0.0010808626033910107 7.730521251648696e-5 6.22934883721386e-7
-0.0010789379438505197 0.00017368706216568135 1.3535345979921654e-7
-0.0010789013038666978 0.00027223607491125556 -4.10414528745368e-8
-0.0010457391952469123 0.0003054466419792265 -4.165415754542384e-8
-0.0009451794937265415 0.0003054137397232713 1.3631418772643872e-7
-0.0008424052949994017 0.0003034899039782635 6.247436501044985e-7
-0.0007387529273773254 0.0002978162360438766 1.3577484354703654e-6
-0.0006366507207140457 0.00028747760417433205 2.17053980868619e-6
-0.0005706973694446369 0.00027797327011525643 2.6876187505470545e-6
-0.0004767151464557755 0.0002601007374339991 3.3684627691333217e-6
-0.00039035119018393033 0.00023876982603381053 3.861031427450475e-6
-0.00031279068950409213 0.0002150996845400651 4.166150294393353e-6
-0.000266242074209252 0.000198600992806377 4.270254756236e-6
-0.0002041349678738678 0.00017332676030968382 4.331595707540691e-6
-0.0001510370760560432 0.00014790346697422167 4.333787221368488e-6
-0.00010661383308759417 0.00012256546359633414 4.322401038253351e-6
-7.064225936456917e-5 9.73681637477269e-5 4.304837656095757e-6
-5.130576677081497e-5 8.064888068084114e-5 4.270424139324256e-6
-2.9140717686717915e-5 5.5786159226264434e-5 4.206311303264375e-6
-1.472826348241551e-5 3.147591730769688e-5 4.258597735440206e-6
-5.8759711514385075e-6 7.696594028115243e-6 2.6765478789786855e-6
0.0 0.0 0.0
0.0 0.0 0.0
0.0 0.0 0.0
0.0 0.0 0.0
0.0 0.0 0.0
0.0 0.0 0.0
0.0 0.0 0.0
0.0 0.0 0.0
0.0 0.0 0.0
0.0 0.0 0.0
0.0 0.0 0.0
0.0 0.0 0.0
-0.000364991430274136 -0.00028377501633027226 -9.369738346588899e-6
-0.00032502802431787036 -0.000259242680712803 -6.0090456074574464e-6
-0.0002838054135389734 -0.00023932115394816966 -5.029910042081465e-6
-0.0002245657879427321 -0.00021062068105764177 -4.866396905739931e-6
-0.0001883260664874929 -0.0001915468432584252 -4.889071369203749e-6
-0.00015514699212307634 -0.00017241814236887374 -4.9088628604651796e-6
-0.00012528706775527773 -0.00015317249072203826 -4.933826962611665e-6
-9.886085579962728e-5 -0.00013385724157638268 -4.946559754561026e-6
-7.595045334351407e-5 -0.00011449484447714386 -4.948781979053162e-6
-5.6563110424527466e-5 -9.51428701278165e-5 -4.938991608014241e-6
-3.3979222539343155e-5 -6.626545746252358e-5 -4.901759861715513e-6
-2.3002134331895885e-5 -4.726529233756399e-5 -4.939280704148572e-6
-1.4717673766667179e-5 -2.857548416004432e-5 -5.053808100080542e-6
-7.645789289969397e-6 -9.586363400725943e-6 -3.2454138494444467e-6
-0.00023356063119320153 -0.0017429501520824287 1.690604319785356e-6
-0.00024790125963792956 -0.0016185594246000896 -2.5896216295185584e-6
-0.0002578562984116705 -0.0015101702756997741 -2.3138156487516056e-6
-0.0002684821360013143 -0.0013569034322404936 -1.6870932659017182e-6
-0.0002746514243384441 -0.0012574950358460514 -1.592129986281349e-6
-0.00028080972082264786 -0.0011595198085290013 -1.6179412687190742e-6
-0.0002872626523741305 -0.0010628192603426654 -1.7147651892836789e-6
-0.00029418629808893146 -0.0009673816033072893 -1.8411908709234003e-6
-0.0003016349237876649 -0.0008731984655998575 -1.978932462157177e-6
-0.0003096760199404776 -0.000780270802778319 -2.130764178062195e-6
-0.0003229236315590667 -0.0006429604814138963 -2.3723974193435824e-6
-0.00033266040554823787 -0.0005521955391480369 -2.652793801817425e-6
-0.0003435743666618254 -0.0004605851225476224 -3.759206173336676e-6
-0.00035921123633086695 -0.0003646344768744586 -7.944673688435838e-6
-0.00029928571490273845 -0.001812789320829901 3.012430877621806e-6
-0.00041374809875365887 -0.0017880579764681921 4.438753100252594e-6
-0.00046527345034730767 -0.0017779873453024142 4.2439261922697735e-6
-0.0005637445539685972 -0.0017649166495190389 2.7895122434259646e-6
-0.00065949843654209 -0.0017566439533070832 1.7905635076691166e-6
-0.0007068704641421773 -0.0017536777495728573 1.4638697887796982e-6
-0.0008010446828437155 -0.0017490481683323374 9.175492994218209e-7
-0.0008950090348448519 -0.0017464537266063851 4.876202106803686e-7
-0.00094211598450305 -0.0017457028677338518 3.302605329844915e-7
-0.0010367911078261113 -0.0017449779070533445 1.0493122717876314e-7
-0.0011322707509348216 -0.0017449163339687236 -4.5432966331032445e-9
-0.0011802712882936764 -0.0017449559309761819 -3.128085298569904e-8
-0.0011795969514443697 -0.00169637326997259 1.3655560561486977e-8
-0.001131516490424543 -0.0016964373005950754 5.55515553613983e-8
-0.0009432491465340531 0.0002705096768775253 2.3804619895935628e-7
-0.0008737186070228312 0.0002694491396637024 4.996385186394834e-7
-0.0008395873010579378 0.00026957913567709563 6.616626555557816e-7
-0.0007702642431030981 0.000267111056909482 1.0565962675127021e-6
-0.0007367083690383622 0.000263709923844353 1.2627193564933898e-6
-0.000670955763641821 0.00025656555290801055 1.6883215178557235e-6
-0.0006371608772664 0.00025261708010401994 1.9060923513129737e-6
-0.0005704885005836961 0.00024523393754453254 2.345302706231321e-6
-0.00020393330282391755 -0.0001812771185596657 -4.427265240215785e-6
-0.0003427183142700617 -0.00025117038392585166 -6.667420250380004e-6
-0.00117825967476284 -0.001599694280720113 1.0733515479073094e-7
-0.0011768666105584464 -0.0015510367845911757 1.7375624110109006e-7
-0.001173064983276096 -0.0014520038380291278 3.541738630997401e-7
-0.0011764040920738095 -0.0014030970566611446 4.6030987930101127e-7
-0.0011759686202482782 -0.0013066881356806677 7.121865927271911e-7
-0.0011718441651667848 -0.0012596285569594693 8.378836597654003e-7
-0.0011486283719495294 -0.0011580821541424544 1.0723058837066908e-6
-0.0011574632927727774 -0.0011022833629024506 1.2484833345660502e-6
-0.00116757640678063 -0.0010070453113423961 1.5605757628233792e-6
-0.0011288378160716893 -0.0009281006181640046 1.6357133025977129e-6
-0.0011425335750098716 -0.000784869437170629 2.1276072559139663e-6
-0.0011346127619272465 -0.0007387262794830792 2.2111448901719383e-6
-0.0011301098775455217 -0.0006483779063011692 2.433875423180179e-6
-0.0011127181857698571 -0.0005187368076126171 2.6193352647908557e-6
-0.0011061979901885648 -0.0004385067721140242 2.704435608946859e-6
-0.0011017697313121784 -0.0004001552400335231 2.7051398076506787e-6
-0.0010918998522037656 -0.00032708385134750685 2.6296853030871433e-6
-0.0010874201829321588 -0.00029190215657080073 2.5583587821449465e-6
-0.0010761384164444036 -0.00022155203768623523 2.3143407223217295e-6
-0.0010682571683110129 -0.0001869942246322472 2.139895451380079e-6
-0.0010577839787601123 -0.00011855569248175409 1.7941739959477015e-6
-0.0010563228487977638 -8.446857380363773e-5 1.6170512396173468e-6
-0.0010535811231083558 -1.9580277320430223e-5 1.2323333523703278e-6
-0.0010509714881665629 4.3373537326663855e-5 8.423939566518162e-7
-0.0010458863219462743 0.00013881468087630604 3.534078489235669e-7
-0.0010442478925847846 0.00017108819892373364 2.4205955412360334e-7
-0.0010441750591211512 0.00023756005215675339 8.223238330353144e-8
-0.0010448249611943107 0.0002713535603850993 2.1314638847203482e-8
-0.0009773875159028668 0.0002707399231304095 1.4739101320543997e-7
-0.0005066215300319987 0.00023559269787433 2.7468050954860496e-6
-0.00047583885422567904 0.00022978341062897053 2.921873460462225e-6
-0.00041760327637494117 0.0002174476640285654 3.217160368901522e-6
-0.0003900390441768206 0.00021175641202709312 3.348143320414245e-6
-0.00033682186106450155 0.00019863730493888766 3.557956049166412e-6
-0.0002644736205318895 0.00017560492261227368 3.7100296433373496e-6
-0.0002219494833500279 0.00016309442045834763 3.828185753409197e-6
-0.0002026344525829561 0.0001560889476714387 3.855915804813534e-6
-0.00016716082922218494 0.00014136461763127566 3.8709723153078934e-6
-0.0001508182455116808 0.00013402342360132919 3.871420669368105e-6
-0.0001206154825974709 0.00011836273582161055 3.830646462227587e-6
-0.00010638258702435705 0.00010962574090321352 3.7829072918022123e-6
-8.035606345773534e-5 9.339049254267112e-5 3.7368173283534246e-6
-6.871689285006776e-5 8.61661357873216e-5 3.7519516079291517e-6
-4.9249964644665086e-5 7.239850840546224e-5 3.7920585754899377e-6
1.3118475265697202e-6 -1.0721631782659405e-6 -5.902831939839575e-7
9.389656192435652e-7 -2.2601372298270815e-6 -1.2347465206571186e-6
2.1753684995244215e-7 -3.263984930836701e-6 -1.7876074901779789e-6
-3.191384552784985e-5 5.2615605093129286e-5 3.432861676532704e-6
-2.7349878949260266e-5 5.1144428153909736e-5 3.818352438551918e-6
1.2941370804313516e-6 7.125612455367398e-7 3.792285831383043e-7
-1.6392779281992084e-5 3.54753108973059e-5 3.7732681837355344e-6
-1.2079639392537504e-5 2.7735288535006256e-5 3.77988464535895e-6
-5.882387031549649e-6 1.2988291283631284e-5 3.594512329391998e-6
-3.006552077040691e-6 5.487364460680948e-6 2.40278715718701e-6
-4.7664369960801977e-7 3.594045683087167e-6 1.8468534242962856e-6
8.956281719028099e-7 1.723006192436244e-6 9.461516355777297e-7
-9.962123876487597e-7 -4.4175745736606195e-6 -2.3157231775103854e-6
-0.0003115213099749921 0.00019017693593568612 3.6076688948020557e-6
-4.565133597666649e-5 -7.840444938518391e-5 -4.50441659656712e-6
-6.312179068410961e-5 -9.597187861391851e-5 -4.521337400075081e-6
-0.0003654035379533788 -0.0006825060689029318 -2.1713914925465757e-6
-0.0004163118974669566 -0.001734972974561251 3.0754822825521913e-6
-0.0005610046666885573 -0.001725037540030556 2.3857650178718744e-6
-0.0006529347831835123 -0.0017058122684534408 1.5850889697697022e-6
-0.0010362141389182978 -0.0016967565899413013 1.7456727178520585e-7
-0.0008930572822436301 -0.0017005891082745323 5.105888763100881e-7
-0.00104956003859755 7.48715333945201e-5 6.593090487691569e-7
-0.0011244048544064248 -0.0006038291401446464 2.511548391577286e-6
-0.0011596506555184888 -0.0008776691263473749 1.942380292296146e-6
-0.0003123986634296732 -0.0016134988808753697 -1.093408350461827e-6
-0.00080921356057523 -0.001674039808945031 7.851291055574388e-7
-0.0007053300298609277 -0.0016861588741918958 1.2370635942766211e-6
-0.0011791574530569124 -0.0016482164631343584 5.6316351745366596e-8
-0.0011746002921483565 -0.001501374685009507 2.582716314596626e-7
-0.00117770194885147 -0.0013547195799934316 5.827988078169951e-7
-0.0011677203109900021 -0.0012119266688246334 9.641268144236828e-7
-0.0011607947996431097 -0.0010519820118739297 1.4016798295182027e-6
-0.001142192602193954 -0.0009601581410282011 1.6022324869129037e-6
-0.0011512991882932648 -0.0008317406665223132 2.0381383024204602e-6
-0.001132522344152434 -0.00069312974111776 2.3246602330017788e-6
-0.0011163689603112426 -0.0005606933698178872 2.5556118717453874e-6
-0.001109816509606962 -0.000477965718504764 2.674241357047718e-6
-0.001096838822945709 -0.000362794758740161 2.678750274546195e-6
-0.001082407452531047 -0.00025668630781746114 2.455456330149962e-6
-0.0010607512688022378 -0.00015317750175651638 1.959656178171967e-6
-0.0010549984041075366 -5.163345116726625e-5 1.428376136674659e-6
-0.001052289406610822 1.196194970058025e-5 1.0354788816698174e-6
-0.0010477698466996677 0.00010665871493791788 4.937965656025828e-7
-0.0010437911705176092 0.00020399162509570913 1.534568509861988e-7
-0.0010110782345783514 0.00027092167080285535 7.964371482939017e-8
-0.0009083504612801498 0.0002700285628365267 3.5730889569523043e-7
-0.0008052197925061205 0.0002692820616250483 8.487271613531024e-7
-0.0007038907381553949 0.00026255671322228293 1.4816615974889683e-6
-0.0006034602966114745 0.0002491533230732281 2.128260303936451e-6
-0.0005381763683447267 0.0002407693431511545 2.5534693127059645e-6
-0.00044611863949002453 0.00022361136879823443 3.0778441354525105e-6
-0.00036302836483447686 0.0002056838414290594 3.466857904245841e-6
-0.0002876246880510758 0.00018160123965440297 3.636371479375787e-6
-0.00024250406540764433 0.0001695984369329873 3.7788374795612443e-6
-0.00018443326422971573 0.0001488202203286115 3.868898368178849e-6
-0.00013536016328792995 0.00012645646347609775 3.860194652595693e-6
-9.315437733608445e-5 0.00010092889846778898 3.7338394259342654e-6
-5.84392159566916e-5 7.915637472807404e-5 3.7692170040131977e-6
-3.8767782941109714e-5 5.809376939160153e-5 3.378094910058903e-6
-2.156009446417613e-5 4.343619802881393e-5 3.7957991641124183e-6
-8.652454441438727e-6 2.0360687978827958e-5 3.7997178078416345e-6
-1.4452597563394494e-6 4.516611188519275e-6 2.158109310440421e-6
1.5217024166962136e-7 2.795972195258725e-6 1.5018327822464382e-6
5.666120736114134e-7 2.1767301320614686e-6 1.1920410311834653e-6
1.16569101416916e-6 1.3129425847958102e-6 7.159995705252484e-7
1.3225743090049652e-6 1.1810203268876392e-7 5.719439725590146e-8
1.341163991013093e-6 -4.564385385165692e-7 -2.562445524662321e-7
1.1723591170702722e-6 -1.682349913106112e-6 -9.205709848287415e-7
6.186139654678187e-7 -2.769780998507541e-6 -1.5177058707143988e-6
-2.929693919822241e-7 -3.7726222815075116e-6 -2.0436709660006195e-6
-2.0993841923126407e-6 -5.414460970215673e-6 -2.630229458633226e-6
-3.1569986422757064e-5 -6.104072793164641e-5 -4.499683435579988e-6
-2.0769898398806124e-5 -4.395418430053947e-5 -4.561812011967763e-6
-0.00031514109665568 -0.0013994102968785623 -1.4134052207872423e-6
-0.00032337472432472864 -0.0013002931277705887 -1.3551654366993457e-6
-0.0003289098667516477 -0.0012017760551609384 -1.3917172487553313e-6
-0.00033275065362823794 -0.0011056601028833816 -1.4869809929107722e-6
-0.00034264928429835357 -0.001009408039446484 -1.59318967165926e-6
-0.0003497052183569315 -0.0009131313713783112 -1.7291267120376104e-6
-0.0003531492987820046 -0.0008199499911657186 -1.8981113213535778e-6
-0.00039292102143349415 -0.0004076218196405871 -5.02189192312235e-6
-0.00036277691421823793 -0.0017377221587550574 2.4198623977081595e-6
-0.0004665196261587503 -0.0017322578585817782 3.1267888575786463e-6
-0.0005143953007580429 -0.0017295223321171884 2.827419297195091e-6
-0.0006065283191568709 -0.0017175295740156677 1.9627883019683695e-6
-0.0007590995284035509 -0.001698540475758374 1.0317069905754847e-6
-0.0008427215749949715 -0.0016645341482398105 6.633984034688345e-7
-0.0009394189174517695 -0.0016954591180846064 3.8236488751970875e-7
-0.0009878202051601468 -0.0016960400058350685 2.6820045700417243e-7
-0.0010838393879875356 -0.0016967635946559055 1.0561987906179771e-7
-0.0001662523395153039 -0.00016382266737998335 -4.454382616120885e-6
-0.00031579360472245666 -0.0015024692034324673 -1.4642649412005553e-6
-0.0002048679600163695 -0.00016342331962544286 -4.011535997651665e-6
-0.0003408353517023224 -0.00022797054824829437 -5.8885968867393e-6
-0.0004065097873822425 -0.0007235674686618497 -1.931487358653282e-6
-0.00043256278613182326 -0.0004018475207059208 -4.566712194961282e-6
-0.0003744670295440329 -0.0016146625681755706 1.251906474192202e-7
-1.1057093836765873e-5 -2.595949884611796e-5 -4.3629383152103856e-6
-0.0003715047998152771 -0.0014908681864431396 -8.163653073594104e-7
-1.8705048312277306e-5 -4.037994665116184e-5 -4.194148952602093e-6
-0.00039959962333699486 -0.000813175636987447 -1.7452087304342788e-6
-0.00017188948437290723 -0.00015155736176513323 -4.053856434688812e-6
-0.00036394373800033037 -0.0013920383525773807 -1.0628248118969523e-6
-2.939038508267769e-5 -5.561554054833523e-5 -4.0962301882206975e-6
-0.0003997079553530817 -0.0009033681513099778 -1.563544221649649e-6
-4.153680434982483e-6 -6.942443824022354e-6 -3.0445784881426e-6
-0.0009756618588941477 0.00023650971730726774 2.3921736801388036e-7
-0.00040436736116915566 -0.0003104986735315865 -8.256430523511312e-6
-0.0004205894859442363 -0.0016798743224237043 1.8018374617781396e-6
-0.0011225529859001514 -0.0015029692030050384 3.0686049379547296e-7
-0.001124684437075078 -0.0009878565134663006 1.4496209276057464e-6
-0.0010868980967173657 -0.0006887835035469455 1.9995776381238653e-6
-0.0010587754130628726 -0.0003625122873609747 2.2854679241105065e-6
-0.0010198121563010428 1.0905466478902321e-5 9.791658460018839e-7
-0.001008292092491101 0.00020203961589832713 2.4971726244010626e-7
-0.0009055816690470439 0.00023654940668966408 4.340963278810782e-7
-0.0005377373482351522 0.00021041309113298674 2.1969141896516396e-6
-0.00036273207679540223 0.00018107654191664962 2.9781219282611227e-6
-0.00018353428613124504 0.00013242502861273288 3.4013056211403346e-6
-3.589450023373289e-5 5.0124446271614596e-5 2.955989883750332e-6
-6.126161657746683e-6 1.691996167528494e-5 3.3894786232965873e-6
-0.0003794097146978105 -0.00026895001925762724 -8.71922332339103e-6
6.867454986014168e-7 3.960267891294956e-6 1.5029918964501011e-6
1.273328407765677e-6 1.6042683053112502e-6 5.548429538496138e-7
-4.351814639553156e-6 -1.1819786428946068e-5 -3.920475588441899e-6
-0.0009896325924895273 -0.0016494136795442628 3.117336604992721e-7
-0.0010836396169881684 -0.0016494635499549075 1.6736154880921186e-7
-0.0003750833852130539 -0.0012973379070835215 -1.101755291718031e-6
-4.342902461374304e-5 -7.123452175274515e-5 -4.0829467970047406e-6
-0.0003927130274727568 -0.0010085093067359985 -1.4064452922122997e-6
-0.0003770209492039737 -0.0011932927260475304 -1.211469106847406e-6
-6.065792282395608e-5 -8.701295515080025e-5 -4.098802752877806e-6
-0.0003803274900987098 -0.0011011861596266095 -1.317739743862837e-6
-0.0004066443233044112 -0.00027333722277535786 -7.832938256561043e-6
-0.00043804745986803764 -0.00031446048682200656 -6.372234279481081e-6
-0.0003823725339946844 -0.00023896666590758186 -6.905492785055261e-6
-8.431906002650738e-6 -2.029746717979678e-5 -4.336544749496875e-6
-0.0005370028794336232 0.00018141611559057945 1.8654328107513004e-6
-0.0009870303811399114 1.060614417936365e-5 9.136394867943704e-7
-0.0010631490151084022 -0.0009966678217006016 1.1847110309947543e-6
-3.241665339305903e-5 4.207056668831968e-5 2.5596394766932673e-6
-5.976684468606821e-7 4.404929996981423e-6 9.53686930509443e-7
-0.00036046949424610344 -0.00023441540039433102 -6.5613318946075836e-6
-0.00018804632462365723 -0.0001517622543767767 -3.88710712390753e-6
-0.0004023891125881441 -0.0007688231420972375 -1.834197127417926e-6
-0.0004360809383015915 -0.0003570383683190501 -5.608456759114925e-6
-1.455530084552852e-5 -3.301308957941324e-5 -4.2863366527232335e-6
-0.0003894352772497765 -0.001549195977641099 -3.060025733276203e-7
-0.0010746086476914785 -0.0015125802084949413 3.330209083122641e-7
-7.588807535455986e-7 7.518972268162305e-6 2.068432891544649e-6
-0.0009955972154819998 -0.0016084984514014296 3.3458142751940294e-7
-0.0009049798812123989 0.00020684298388297184 4.787464422102841e-7
-0.0010207971337672962 -0.00036415569154435353 1.914832026925992e-6
-0.00018258899761221416 0.00011584563291946572 2.940860521182534e-6
-0.00016050914863709257 -0.00014728522378831878 -4.074294875139578e-6
-0.00039813076832034177 -0.0008577207991167755 -1.6579107414160574e-6
-2.3660560783131283e-5 -4.798539854245297e-5 -4.133479749958898e-6
-0.00036460291995360055 -0.0014400305931016012 -9.943390757654636e-7
-3.6014375994364534e-5 -6.344349035512782e-5 -4.086079060304517e-6
-0.00040843273436329627 -0.000954144095713559 -1.4405390750871442e-6
-0.0003679009456503046 -0.0013451503116446459 -1.0878850666380124e-6
-0.00022297257337027207 -0.00019212555989005676 -4.487822695095659e-6
-0.0003873549949599853 -0.0004540527613742358 -3.7768324253889696e-6
-5.1653556351643284e-5 -7.914472483804347e-5 -4.092322324424912e-6
-0.0003847387168470743 -0.0010561482707157194 -1.3647270787550598e-6
-0.00038623684617199286 -0.001244416874393333 -1.1145156477137646e-6
-6.78907891536736e-5 -8.492231159525447e-5 -3.687609582567653e-6
-0.00037713135901007086 -0.001147007102781935 -1.2681381405848772e-6
-0.001083014752763684 -0.0016030372862851018 2.2269594889910832e-7
-0.0010455503945694979 -0.0006749129388088188 1.7351644519618208e-6
-0.0003618447939901972 0.0001576946600467785 2.5324784543049123e-6
-0.000972966457561621 0.00020196231133790254 3.2793095070511126e-7
-3.7222621904560347e-6 1.3105975457759989e-5 2.9516632933644764e-6
-0.00041862519508077233 -0.001183516986438458 -1.063346248694416e-6
-0.00042709821270180213 -0.0010984680553874403 -1.1479365214507347e-6
-9.280442416199534e-6 -2.372632438115825e-5 -4.046257204624916e-6
-0.0005066070715103271 0.00017820778394443364 1.9939623839192356e-6
-0.0009870529596670266 4.030436327949454e-5 8.032443577447187e-7
-2.7105594532618228e-5 3.9764198535381746e-5 2.683119954017739e-6
-0.0010342512335627348 -0.0009379383800421471 1.1754309215994296e-6
-5.95179471751292e-7 6.3911755631923005e-6 1.5468708088652894e-6
-0.0002063665502772161 -0.00014613438758900147 -3.615523850843364e-6
-0.00034035227408194137 -0.00020261098945895342 -5.097019782695693e-6
-0.00045123389300533043 -0.0007206737938789307 -1.7726143826482306e-6
-0.0004700119166844094 -0.0003980264204424454 -4.002209798942588e-6
-0.001080705154398851 -0.0015576866768254006 2.7638294823009575e-7
-0.0010381718957453397 -0.0016066562236444575 2.757169077854649e-7
-1.944604236486164e-6 9.914379545715234e-6 2.4986075196507207e-6
-0.0009393885925158989 0.00020616092324811586 3.923472870199756e-7
-0.00102649463845268 -0.000397984338567157 1.956550496855652e-6
-0.00019969001225702776 0.00012146695014084308 2.932747971414438e-6
-0.0001727520949279787 -0.00013998584313425715 -3.7470478008323836e-6
-0.00044530233625530394 -0.0008067817491638364 -1.5873114879208547e-6
-0.0001319674665280817 -0.0001323689210752228 -4.049241887648609e-6
-0.00042005948748539274 -0.0014707024726853958 -4.4107995593214417e-7
-1.679209537916209e-5 -3.657091806464068e-5 -3.820025875594893e-6
-0.00041136549000817923 -0.001385838440433103 -7.647474820448776e-7
-2.7483793149202757e-5 -5.01734554458141e-5 -3.6984930043164056e-6
-0.00044434835306412704 -0.0008881049809137646 -1.4283317303610614e-6
-0.00038342531859366264 -0.000500039661306328 -3.0561344652846838e-6
-0.00043653747574781346 -0.0012600782156052084 -8.77007136565962e-7
-0.0004364251474278206 -0.0010158541889883686 -1.228953412114921e-6
-8.100699407137272e-5 -0.00010249294200039256 -4.093460346791329e-6
-0.0004734313738300209 -0.00031664031006276434 -4.951031282245447e-6
-0.00038418258116984494 -0.00020970862632137068 -5.502060506358962e-6
-0.001129949075793003 -0.0016009040985702795 1.6797927443201135e-7
-0.0010165874623308915 -0.0006252297252296294 1.5994124184115621e-6
-0.0003255513831377331 0.0001275568461733724 2.1728849531756525e-6
-5.71421914213281e-7 6.405252376335042e-6 2.3524934336823644e-6
-1.4626025438785735e-6 -8.594379684915757e-6 -3.1578091366560852e-6
1.4330418738922406e-6 -9.469657552657533e-7 -3.632003536161204e-7
-0.0007798846373757207 -0.0016453214631579466 8.344511769686904e-7
-0.0010323266259656065 -0.0001945375245990836 1.8642064862566862e-6
-0.00076931601207967 0.00023674232936459543 9.951054337117194e-7
-0.0011301131209854737 -0.0013085023189885693 6.67988834940033e-7
-0.00010808019154186747 9.781097868247499e-5 3.288022158738112e-6
-0.0004095569159078132 -0.00021130515335522298 -5.22739051006551e-6
-0.000473035033821559 -0.0002790068572849341 -4.912610482272669e-6
-5.6389486704217725e-5 -6.857341355902236e-5 -3.243607480475099e-6
-0.0004759551095882644 -0.0013042238621281304 -6.199937636382215e-7
-3.982870643861677e-5 -5.6762877094169005e-5 -3.2467668922763243e-6
-0.0004894956357071302 -0.0009937824811309475 -1.068519515542319e-6
-0.0009668386703900815 0.0001638664746715307 4.33553787500383e-7
-2.5810571344552363e-5 -4.477612886962782e-5 -3.3074781571928456e-6
-0.00048443363836562196 -0.0008778283776492656 -1.29224059021035e-6
-0.0004785294919317924 -0.0016374995531470199 1.4617541559564926e-6
-0.00020829904679209332 -0.00012896519314776588 -3.218406481905975e-6
-0.00034032201187437106 -0.00017694822411076948 -4.346781886479241e-6
-0.0004956349426480296 -0.0007189188580636624 -1.5897824984950607e-6
-0.0005073565960890346 -0.00039738035492439957 -3.398814998146126e-6
-0.00047350529503154595 -0.0010991145593927452 -9.711698354557442e-7
-0.00042749486692854197 -0.0004921925052203741 -3.0413557262486426e-6
-0.0004921584439057649 -0.0008016280180851311 -1.4107289492303152e-6
-1.506565218979417e-5 -3.2680698514637285e-5 -3.4421807456681237e-6
-3.3952343139096227e-6 -1.3513314955851493e-5 -3.373602166186926e-6
-0.0005216073110391179 -0.0016466325613729725 1.6393526147973409e-6
4.577731224915975e-7 -9.9449532928626e-7 -2.809517020027471e-7
-0.000778952699645174 -0.001590943370802246 7.382609151086065e-7
-0.001001294925714638 -0.00020880683291511022 1.645542752127958e-6
-0.0007732791541552626 0.00021519774052696669 9.269001998629571e-7
-0.0010953591398740574 -0.0013143808096592205 6.258275273107116e-7
-0.00011278115815971407 8.887439990554335e-5 2.8903710837419946e-6
-0.000477236343796904 0.00017331755490137258 2.0941322696510046e-6
-0.000535418285904277 0.0001538755168031234 1.5570085320352475e-6
-0.0009861650047187666 6.948805551663367e-5 6.962905531594541e-7
-0.0009536156311630974 1.1280324770071586e-5 8.407077977722447e-7
-0.001021281166333973 -0.0009790548786898668 1.0518291411394623e-6
-3.382853510911197e-5 3.4871896375742416e-5 2.0218255640881256e-6
-2.450602693910209e-5 4.200444165027432e-5 3.1023643738044708e-6
-0.0010782808768317058 -0.0008943848511670697 1.4698826563002786e-6
-2.353156398586379e-6 4.85648563908903e-6 8.043481416387286e-7
-0.00046674392699211104 -0.0004395790544972384 -3.4292623258289305e-6
-0.0002239168790308084 -0.00015667267308539748 -3.750114676282871e-6
-0.00032017843481909095 -0.00019725805371499422 -4.735433493904679e-6
-0.00041140317246267556 -0.0006781812880959892 -2.043414671992039e-6
-0.0004296120947829793 -0.0016261019668602774 9.97046885037511e-7
-3.710397085630108e-6 1.2788245888836436e-5 2.372001272091949e-6
-0.0009086896240932976 0.0001859375988460606 4.990376989538956e-7
-0.00102831675686873 -0.00043173479536291325 1.9496164435334084e-6
-0.0002172956482219838 0.00012629008148483089 2.9026648519917717e-6
-0.0009919636290154625 -0.0003711715850218055 1.6463595954260136e-6
-0.00018138067637296727 9.915638063527155e-5 2.485735190723153e-6
-0.0001438560296864974 -0.00012497263130815012 -3.6434198090268873e-6
-0.0001356208062416218 -0.00014753721272137553 -4.487061265061813e-6
-8.396368392601869e-5 -0.000113400351433736 -4.518850310910446e-6
-7.77822716527017e-5 -9.150194216233916e-5 -3.6835896138997448e-6
-0.0010569302108591454 -0.0006117256589912593 1.930734739452172e-6
-0.00031872306576700656 0.00014575214673797314 2.585773200578053e-6
-0.0003414093226202002 0.00013351148602216747 2.195906043502464e-6
-0.0004715800286922762 -0.0002443718625221709 -4.521172208650215e-6
-4.1521252638540335e-5 -6.407741140169753e-5 -3.6679485975863705e-6
-0.0004528248981777669 -0.0009773498250229922 -1.2334419236005583e-6
-5.8381306952957344e-5 -7.793501999765724e-5 -3.67889230014598e-6
-0.000995086247275678 -0.0015694554355617577 3.6234418490425345e-7
-0.0009736753410443932 -0.0006999540246566721 1.2053001921114653e-6
-0.00034439616823886713 0.0001137857502871875 1.8000580383191971e-6
-0.0005373936387814211 -0.001609684724827967 1.2500413841914516e-6
-0.00016491991604583806 9.416630613010417e-5 2.4911032603183223e-6
-0.0009687396155989663 -0.0003527630545952937 1.441252754182122e-6
-5.827141313689121e-6 1.4836843922115175e-5 2.138607002193047e-6
-4.652955853340403e-6 7.451346864569782e-6 1.0097951857544972e-6
-0.0009544280795175203 -0.0015742880763116767 4.1543900334160013e-7
-0.0010630351632056874 -0.0014707733246295525 3.890400219541793e-7
-0.000979367876059223 -0.0009658176365998636 8.958763539891029e-7
-3.0234628098493086e-5 2.8630729810112874e-5 1.7366350257527132e-6
-0.0009190079563429771 1.3125464425084813e-5 7.621607076513163e-7
-0.0005326027357678651 0.0001273808077285737 1.2626386417931963e-6
-0.000992271340575442 -0.0015328730536887376 3.8673137008849257e-7
-0.0010311716850502906 -0.0015237646525926407 3.576375016014742e-7
-6.426852866283115e-5 -6.485816734896263e-5 -2.8261850338805847e-6
-0.0004894280787630386 -0.0012254118577432725 -7.200108504282174e-7
-4.7791513324365935e-5 -6.26358963927569e-5 -3.2413600723560147e-6
-0.0004856726811240121 -0.0010532006049049426 -9.911492486691601e-7
-0.000978419975845512 0.00012936134480857813 5.061368079522176e-7
-0.00047430357580006673 -0.001534537228144934 3.253308062132549e-7
-0.00036196320780408284 -0.000179570632150294 -4.464811214901371e-6
-0.00019111267133192574 -0.00011812227189565263 -3.053396805524273e-6
-0.0004940450174541489 -0.0007609201070829149 -1.4923287879280044e-6
-0.0005106114142152782 -0.00035724901313858264 -3.694544039512225e-6
-7.5358674402931875e-6 -2.10918217849808e-5 -3.6998508205673823e-6
1.1413223706712735e-7 1.9705344895037263e-6 4.398826034573607e-7
-0.000848614141133636 -0.0015710054958953928 5.904932981925279e-7
-0.0009754285900661465 -0.00022341766486901497 1.4535909438037915e-6
-0.0007968066812570519 0.00021006377928882013 8.258551340845611e-7
-0.001082480658694135 -0.0013493752523416542 5.608501905555223e-7
-0.00011674359516965811 8.253383665933284e-5 2.6181874764362563e-6
-0.0005687683705422566 0.0001832610792412423 1.7184550647957608e-6
-0.00047588564113793864 0.00020071408549122947 2.4943049983147533e-6
-0.0004803815300487894 0.00014797408005292015 1.7228837725633367e-6
-0.0009543014522571804 6.724658617045254e-5 6.938870479995054e-7
-0.00101784941699963 7.226426415275232e-5 6.847505238567202e-7
-0.0009866533438911368 -1.9312956874700465e-5 1.022159917731279e-6
-0.0010710044585147877 -0.0010488568072199726 1.10271524406258e-6
-3.848401530748832e-5 4.3282567179703347e-5 2.386734833507301e-6
-2.2720888696377064e-5 3.712352612931331e-5 2.782630093018922e-6
-0.0009938174284833767 -0.0008925099155606699 1.0537839265819228e-6
-2.5863765382678483e-5 4.6558574441634055e-5 3.4477016204521974e-6
-0.0011187215176564865 -0.0008850288944463536 1.7027836093696104e-6
-0.000990197740458393 -0.000426888471586688 1.602876631889441e-6
-0.00019802188749516703 0.0001040794717173461 2.4824426671765856e-6
-0.0010058124803028468 -0.000328870671194538 1.7763242087059746e-6
-0.00016593451563005053 0.00011035621939028144 2.9521211789699968e-6
-0.0010846775523389125 -0.0006049291817363752 2.1699813635030044e-6
-0.00106717430802747 -0.00043554232890455916 2.3170011397981477e-6
-0.0003127555987055869 0.00016626451108568552 3.065386877812153e-6
-0.0002197202583982643 0.00014450391763518616 3.3542320110939438e-6
-9.239283452083523e-5 -0.00010946598161387395 -4.059016443772042e-6
-0.0010324283913241464 -0.0007092077518563697 1.5852460927750557e-6
-0.0003869267972645697 0.0001576365831100409 2.373625054290105e-6
-0.0003114367117763732 0.00011866938824271442 2.078423704766638e-6
-0.00030033560420404724 -0.00019086068335428025 -4.428901400126932e-6
-0.00041720110535864154 -0.0006319135890608236 -2.1824361085713226e-6
-3.244015255918784e-5 -5.088206420667872e-5 -3.275290199567462e-6
-0.0005119228611801969 -0.0009623535319464142 -1.0384136793734497e-6
-2.002354195179159e-5 -3.873215088874936e-5 -3.364426444648642e-6
-0.0004885319369215753 -0.0008413425342779337 -1.34486424217191e-6
-6.008982168745716e-6 1.7123241415484837e-5 2.8008415036417205e-6
-0.00046469242516671455 -0.0011420388271223094 -9.42707443644348e-7
-0.00043780982303495247 -0.00021170609269289525 -4.6575488167642125e-6
-0.00098497977249074 -0.0014983925765318508 4.107928565787284e-7
-6.049417839248982e-6 -1.853463288635036e-5 -3.311212956162614e-6
-0.0005097482529473976 -0.00024233592072497103 -3.5437173985138333e-6
-0.00046647259311935783 -0.00017862798863624952 -3.34833451122575e-6
-0.00017256110859933596 -0.00012402328122676387 -3.3337772370424877e-6
-0.0004756885860873628 -0.0014785245601633763 -3.0480229791617665e-8
-0.00010428007585570264 -0.00011570694790860066 -4.018578614570767e-6
-0.000318797510104783 0.00010760091748905332 1.8140313478361795e-6
-0.0009599894691841216 -0.000651932633657794 1.1563553117629199e-6
-0.0005540056702808772 -0.0016552378294148217 1.685027718640942e-6
-0.00017977388085088872 6.844505865085068e-5 1.653623237673862e-6
-0.0009466286892403915 -0.0003885093805370178 1.2317204342815614e-6
-1.3836000352824474e-5 2.5844350772278345e-5 2.4919760162086897e-6
-0.0009374585739314875 0.0001419482179942197 5.375090736557342e-7
-0.0010342233407213892 -0.0007676688512804245 1.4773103480774263e-6
-0.00041673371546392803 0.00015403248570056721 2.1414091254030495e-6
-6.418712297236347e-6 1.1731186062494166e-5 1.4919138791564628e-6
-0.0009453213199105588 -0.0009187640237276192 7.961545068556238e-7
-2.4834629273780138e-5 2.6438485769009934e-5 1.7733440739338842e-6
-0.0009206948623268397 4.092071701496448e-5 7.202835171874099e-7
-0.0005067100669683764 0.00012585658856213632 1.3279189603949573e-6
-5.446014932518521e-5 -5.8870109789310934e-5 -2.7934038149807717e-6
-7.507852038650082e-5 -8.10717893153448e-5 -3.2921402247335166e-6
-0.0008662100908761381 0.00019638662801914106 6.008656818011493e-7
-0.0001506142032118201 0.00010535517534070815 2.9666937063812548e-6
-0.0010161982054711191 -0.0002944040511547143 1.8625819387587515e-6
-0.0005262297859866211 -0.0013042626074893959 -4.163261674374412e-7
-3.818166149844983e-5 -4.948264060767622e-5 -2.83653949993592e-6
-0.0005461212672815266 -0.0009789965867091574 -8.7802286030893e-7
-0.0009484609661314198 0.00011964285306494273 5.713391562423456e-7
-0.0005108604978744199 -0.00031829122925002094 -3.8767202793560105e-6
-0.0003851439221059422 -0.00018115713585017796 -4.437496023775208e-6
-0.0005391791867090887 -0.0007175971575619761 -1.3863948990803267e-6
-0.0002111717388770612 -0.00011196569410401277 -2.8194046178343984e-6
-0.00034025817307683435 -0.00015165693717240686 -3.6679033262460716e-6
-0.000545143459532897 -0.0004017268040954932 -2.8171251833041993e-6
-8.623572345299994e-7 6.455906135069923e-8 -2.9334137852243997e-8
-0.0007746731684256773 -0.0015453437159020553 6.550559085876803e-7
-0.0008691036385031744 -0.0016082504589035817 5.716489288866179e-7
-0.0010185033642843768 -0.0002635382394325701 1.8606443403072573e-6
-0.0009598407133205196 -0.00020639518143125997 1.3140552635090391e-6
-0.0008282194264518785 0.0002043708490843323 7.144800220278037e-7
-0.0007824726557141311 0.0001823554270782253 8.317441385637704e-7
-0.0010474526773458432 -0.0013172783571015864 5.845962277037998e-7
-0.00011263561810336888 7.557639502635838e-5 2.432702015966459e-6
-0.0010947335777163833 -0.0013864936689605629 5.067179669950821e-7
-0.00013662019243548948 0.00010063234635005033 2.9761959365962316e-6
-0.0004482608003306057 0.0001661153412078316 2.1547284509522996e-6
-0.0009837085190809044 9.886817594909403e-5 5.954782430838931e-7
-1.9675518762778872e-5 3.484801736879511e-5 2.8590739826625273e-6
-0.0010329598865316425 -0.0008568660118681565 1.3057473808616273e-6
-0.0003009825766339597 0.0001337374664186396 2.456720693629599e-6
-0.0010339823480196813 -0.000591344509406456 1.7852716750143948e-6
-1.1466286998240367e-5 2.5100199457956414e-5 2.8121998354953596e-6
-2.435785025079331e-5 -3.963888110104532e-5 -2.9393674626148397e-6
-0.0005217561200695148 -0.0008810399511024883 -1.1315575464230091e-6
-1.3592456824239789e-5 -2.8914076650424195e-5 -3.0695788191157934e-6
-0.000541964114624416 -0.000798845370190639 -1.2015557033437999e-6
-0.0005146685722468245 -0.0011074048634860327 -8.026313786888608e-7
-0.0004581347764663367 -0.0011830454424850605 -9.098358214612754e-7
-0.0010734843753861197 -0.0014107647667419975 4.70517872882705e-7
-0.0009100196583299568 -0.0015807261647146759 4.889058833004568e-7
-0.0009859754275028207 -5.003246965855901e-5 1.1260885867973507e-6
-0.00060174602508248 0.000184018062034042 1.5668047002626817e-6
-0.001067417120493954 -0.0010801356052907046 1.0338537904647206e-6
-5.2834001632241186e-5 5.46252507633861e-5 2.586847931550432e-6
-0.0005030708467918169 -0.001497872350128375 2.241092761265927e-7
-0.0005810885086056105 -0.0016307977546750005 1.4056564951310358e-6
-0.00027228606816534186 0.00012688792956573768 2.5028015549121777e-6
-0.001017547599896652 -0.0005379018584292354 1.7340491916128977e-6
-1.6929980183030228e-5 3.0740053660059896e-5 2.7028891562324327e-6
-0.001017884761314869 -0.001287681927307372 5.933723974455766e-7
-0.0001081843873143008 6.7365466869856e-5 2.207323683684194e-6
-0.0007662614060351074 -0.001502214975305002 5.712452034256438e-7
-0.0007640595334745156 0.00014839642948430423 8.090240590105404e-7
-0.0009480813717391565 -0.0001902186330805922 1.2074244739919802e-6
-0.0010063925162870672 -0.0014516570701784688 4.3002592060380163e-7
-2.046140278956113e-6 9.404969702141417e-6 1.9554307636477242e-6
-0.00043554021704108356 -0.00015199896610644797 -3.1672289847681975e-6
-0.0005478517071693358 -0.00028329180694621874 -3.0328840549342432e-6
-0.0004948948818491277 -0.00020922088040479204 -3.420607361460077e-6
-4.158760901183484e-6 5.58381954141719e-7 4.9544917994436726e-8
-0.0010561632658613793 -0.0008060678850014409 1.5321790650931653e-6
-0.0004977660543430476 -0.0014563548368668141 -2.1766903959299814e-8
-0.0001564941118067376 -0.00011527937339229255 -3.2399927385427076e-6
-0.00010804939447652589 -0.0001301483866434565 -4.495682007001247e-6
-0.0002994222911553411 0.00010468306435367479 1.8607472227802205e-6
-0.0009806834189867437 -0.0006080645559427075 1.3527521967004198e-6
-0.00035101261102580465 9.058973893933287e-5 1.334058369096444e-6
-0.00019630544693228903 8.696150564678299e-5 2.0438897156060712e-6
-0.0009585732220403807 -0.00042099113074399767 1.3229246968863629e-6
-0.00016386153539438533 6.232302408402033e-5 1.58744888778274e-6
-0.00090990316790231 -0.0003613516442804605 9.117385607889623e-7
-1.4140536850232236e-5 2.182209309556202e-5 1.9832640348863182e-6
-0.0009192971349463828 0.00012983416485166778 5.829396778495328e-7
-9.07774412294901e-6 8.908116032958786e-6 9.31273515417336e-7
-0.0009385771442135822 -0.000954350150055551 7.342085323722643e-7
-3.232561326678367e-5 2.4242073827788497e-5 1.4020589343261132e-6
-0.0009504621636586799 -0.0008834097481153346 8.540892221360705e-7
-2.0689831055239716e-5 2.728837986864307e-5 2.0370291678538166e-6
-0.0008842937195441907 1.6882376102935185e-5 6.829991916943684e-7
-0.0009223953030265076 6.691897084363563e-5 6.785385013576334e-7
-0.0005288644640553442 0.00010276899310614088 9.86541576965127e-7
-0.0004829103747687842 0.0001233268356750683 1.3742702647522741e-6
-0.0008441266337169786 0.0001645559661556156 6.721104545833779e-7
-0.0001362456155979542 8.709149322683609e-5 2.5491435525025238e-6
-0.000971730040590203 -0.0002480814360449422 1.4400708060519625e-6
-0.0004684597789809245 -0.001344206709530836 -5.590677300987709e-7
-0.0005503737396170305 -0.00031967588807529603 -3.0429598799016778e-6
-0.00022774750428668144 -0.00012153284112913118 -2.980459079525162e-6
-0.0005337984340423674 -0.0004437540031558234 -2.681282876059743e-6
-0.0007433392170173368 -0.001587613134371429 8.004736323740196e-7
-0.0008859184755591069 -0.0016524442584032596 5.380091240244882e-7
-0.000984610166718487 -0.00018654041621213684 1.4798134331049966e-6
-0.0009884113981482442 -0.0002417641791491885 1.57723711096226e-6
-0.0008141699068325916 0.0001742866068809258 7.419256994175305e-7
-0.0007543479378233153 0.00019761785314432472 9.566552530526707e-7
-0.0010752697251799792 -0.0012873637322686027 6.529929283112393e-7
-0.00010425337074699382 8.017943167117976e-5 2.7089678630334496e-6
-0.00012483423600915947 8.475135794924555e-5 2.593532694449578e-6
-1.0937512286554198e-5 -2.6831016305422667e-5 -3.5617568655478415e-6
-0.001018683955282525 -0.0013994213810080737 4.760811510949587e-7
-0.0008746975742749376 -0.0015457137186987457 5.320595070948238e-7
-0.0005234871227153836 -0.0014603644513461636 1.1044301279719916e-7
-5.2794964904935306e-5 -4.878456655281338e-5 -2.3157628322804172e-6
-0.0004953076505751825 -0.0011857596019860422 -7.607432055543377e-7
-0.0005698940626348061 -0.0012932838678598603 -2.8698210796867144e-7
-3.604685217095094e-5 -4.2285006049379204e-5 -2.458699938986473e-6
-0.0005815286827729667 -0.0009953149740190795 -7.136637061981774e-7
-0.0005516832578331103 -0.0011192558881417383 -6.47670017696658e-7
-0.0003852364451754119 -0.0001538237613282557 -3.622686661827831e-6
-7.474561644975541e-5 -7.168044962217612e-5 -2.8955263539991434e-6
-0.0010000845119199461 -0.0007904524582974041 1.2324850987402244e-6
-0.00043449242535431565 0.00013173405381709628 1.6906100710206544e-6
-2.3110466352115983e-5 -3.480127964948969e-5 -2.5939769005140606e-6
-0.0005544096424393678 -0.0008935887151585714 -9.733905319273996e-7
-1.2419674126668671e-5 -2.531825373675949e-5 -2.6965903405184484e-6
-0.0005948099188101936 -0.0007980099107470904 -9.515603917642357e-7
-0.0002997550858643022 -0.00016888814780543644 -3.9735614842645606e-6
-0.00046234651783445564 -0.0006301779075530364 -2.0251921886322433e-6
-0.0010283414855543464 -0.0010742370296932839 9.173153254388911e-7
-5.7499940417813e-5 4.524642841097892e-5 2.0136261369701467e-6
-0.0009514115389191988 -4.7236460994264924e-5 9.778542368862328e-7
-0.0005989770191447561 0.00015216167602333716 1.2970315383168345e-6
-0.00034004795205079015 -0.0001266111573709637 -3.0505653717732927e-6
-0.000587232706872982 -0.0006819534645255606 -1.2343833273501735e-6
-0.00021529422225503186 -9.455702835724886e-5 -2.4076487087237373e-6
-0.0005816076348826904 -0.0004110937908627766 -2.315821666242904e-6
-0.00037571101653349943 -0.0005906848192056786 -2.442980146309478e-6
-0.00030132140358631103 -0.00021168045737542527 -4.808767269185852e-6
-0.0011081277187776004 -0.0010875874622877982 1.1440802880419491e-6
-5.603949365516819e-5 6.810515672411615e-5 3.2254130453448706e-6
-0.0010203987364890816 -5.141554307950264e-5 1.275920365791811e-6
-0.0006030047759472147 0.00021640107937903925 1.8423080523386574e-6
-0.00014205173277825848 -0.00010998081194896329 -3.2201623386160476e-6
-0.00023551971776377187 0.00012961577515265503 2.8336241210987577e-6
-0.0010277100909770332 -0.00046676129714867085 1.9102443356467888e-6
-0.00024221064336987468 -0.00016646080089031192 -3.881375224812789e-6
-0.0004904484041722488 -0.0014355531247558363 -1.4720389012974702e-7
-0.00042527750183018445 -0.0013009685113117586 -8.558554076995047e-7
-0.0005962613497453461 -0.0016760334513352564 1.7154214234297549e-6
-0.0002611345894314606 0.00015228178037360093 3.1702054239738025e-6
-0.0010681394441425349 -0.00051340888418456 2.212536447626886e-6
-0.00011648857906031561 6.261731154119731e-5 1.954223712223134e-6
-0.000992417253987334 -0.001314583730702347 5.39575706893037e-7
-0.0008037106544774941 -0.0014914191903588115 5.358408642949853e-7
-0.0007993278346854079 0.00011542276517917483 6.871534098921769e-7
-0.0009312109338140008 -0.00022210050838954826 1.0966597521732154e-6
-0.0005901695211199027 -0.00031785348272332095 -2.3796838343948714e-6
-0.0003847088836686539 -0.00012772223627564465 -2.9627927330593398e-6
-0.0002445431749169147 -0.0001302288552483593 -3.1289067185977463e-6
-0.0005158778314850399 -0.0004848469633111258 -2.558451992466681e-6
-0.0005825430943726455 -0.00025173849284915753 -2.3109282856306454e-6
-0.0004632899138003885 -0.00014781968016808555 -2.7854109764416536e-6
-5.011320757723878e-6 3.8709521692318205e-6 4.836081420502973e-7
-0.001096344237792282 -0.0007913981035138972 1.8131006123549417e-6
-0.00041734981422195024 0.00018785184709133376 2.7076726009045936e-6
-0.00017344795758432585 -0.00010680232069291622 -2.878034849932658e-6
-0.00019450296326839825 7.046042271757565e-5 1.6251030010296535e-6
-0.0009149305966153324 -0.0004146581377588087 9.372991785615169e-7
-0.0009331018258884681 -0.00032553683096169466 1.1269677190446557e-6
-0.00014756226033709298 7.318373514727219e-5 2.028103705998304e-6
-0.0008707119710985868 0.000145212652433867 6.256619515526143e-7
-0.0009266846588006806 -0.0002873448506190559 1.0715829257165459e-6
-0.00013336233390243347 7.2432389502259e-5 2.117686774186905e-6
-0.000939758278264263 -0.0014951108801363703 4.422327879386269e-7
-0.0005715678323905749 -0.0015331007552501295 6.778719295227282e-7
-0.0006076091787849083 -0.0012514377437554773 -2.495752375429394e-7
-0.0009691518553915272 -0.0007607835282442587 1.094904730295504e-6
-1.662209025791588e-5 -2.6196936737116597e-5 -2.288623282131667e-6
-0.0009002408159528709 0.00013677703475835517 5.932191461436685e-7
-0.00029957975185359464 -0.00014660434960123982 -3.486759372448276e-6
-0.0005058857628902736 -0.0006320628919650658 -1.820610335984626e-6
-8.652024435225507e-5 -8.208461059348105e-5 -3.083209160214449e-6
-0.0009875767205675752 -0.0010606488228102904 8.033702621112236e-7
-5.002366129264717e-5 3.735862667816976e-5 1.7801515091762725e-6
-0.0010629546973024695 -0.0011101504336633449 9.664857337219226e-7
-6.510642191374383e-5 6.204901057966968e-5 2.6486686261838913e-6
-0.0009166871885256029 -4.369295823170916e-5 8.345968346381648e-7
-0.000984460141206175 -8.118454927129589e-5 1.2173471259455437e-6
-0.0005892711753481021 0.00012218090498081798 1.0587772657455333e-6
-0.0006343003514237489 0.00018545722880490984 1.439627155601396e-6
-0.0003617816840369054 -0.00012744112558647633 -3.034893601911249e-6
-0.00019872912400551582 -8.508587712549988e-5 -2.229357767389782e-6
-0.000598755171555381 -0.0007458233651125861 -1.023175745927962e-6
-0.0005988378852377336 -0.0003623380484491974 -2.226231264785983e-6
-0.00042366045518692485 -0.0005846943917789098 -2.3705784754068225e-6
-0.00028060743080527415 -0.00018352698882860636 -4.194779518599807e-6
-7.520226718187916e-5 -6.0391812156557574e-5 -2.417182329552254e-6
-0.0003390165789267542 6.49567833330754e-5 8.922836124792167e-7
-0.0008788506028140742 -0.0006860746341076443 5.631941390340872e-7
-0.0006939088400214888 -0.0016037867206623066 9.79907934903952e-7
-0.0001697324749648968 4.931480448908232e-5 1.1928624273857109e-6
-0.0008701183354197329 -0.00034276311968464723 5.669345926191555e-7
-0.0005214873123773867 -0.001421304058699458 -6.523694139317127e-8
-0.0004824899996116 9.925170312178333e-5 1.0490385387077346e-6
-0.0008954747022198591 9.142603777645754e-5 6.384932258917796e-7
-2.0421775194394668e-5 2.175885330821603e-5 1.5999793580844272e-6
-6.130631250501835e-5 -4.4108065983806315e-5 -1.9339073615043253e-6
-4.3457599329275946e-5 -4.310224588013066e-5 -2.2604155472136786e-6
-0.0005896950128049051 -0.0010512745344829068 -6.065686789777708e-7
-0.0009252035155085226 -0.0006176843055275287 9.312228268011502e-7
-1.3742333293927242e-5 1.1423631673469827e-5 9.913070978886402e-7
-0.0005884308743941093 -0.0008524084506568224 -8.909707506857304e-7
-2.7923759679505964e-5 -3.381364389312891e-5 -2.2311549032894417e-6
-0.0006121388326469713 -0.0009499150316552206 -6.535627957109472e-7
-0.0005648146555049023 -0.0011585326671494582 -5.421730036880386e-7
-4.880504503210249e-7 -3.665666420873358e-6 -8.052889731319622e-7
-0.0008996785645237236 -0.0009476778672425166 5.713813888994341e-7
-3.0474777922798332e-5 1.791490437366594e-5 1.0515440202366528e-6
-0.0008520624749958521 2.3157314885748012e-5 6.136633159935872e-7
-0.0005439816479782141 7.66140810465941e-5 6.678981802089239e-7
-0.0002614703366457422 -0.00015641571107334997 -3.655546540777413e-6
-0.00011755177552839687 -0.000123691096276643 -4.025630176614598e-6
-0.00012838888696344597 -9.387689561858698e-5 -2.872759916820473e-6
-0.0002201977914937262 -7.689413564444633e-5 -1.987533262656836e-6
-0.00031893614020628974 -0.00010111231677955736 -2.477091232802144e-6
-0.0005927003218308055 -0.0006429950288508571 -1.3098090036804854e-6
-0.0006146258927288934 -0.00042686442821041916 -1.8857117082887058e-6
-0.0002614276912068024 -0.0001941115989659315 -4.348961656981727e-6
-0.0010222347665685663 -0.0008212105648055375 1.3076243761622167e-6
-0.00013866143122326255 -9.476802330460755e-5 -2.8019567388967335e-6
-0.0009738283718120424 -0.00014356324862100698 1.3087341803972993e-6
-0.0007048391079219134 0.00019418057123998724 1.1681276842588466e-6
-0.0010738150417925305 -0.0012255685771637712 7.638823761287298e-7
-8.825786303026363e-5 7.039010432899779e-5 2.5813809170897987e-6
-0.0005825388272221005 -0.0013271797013250366 -1.6472571240696307e-7
-0.0005660725461461332 -0.001466967497432348 2.8600546913233776e-7
-2.3306479780326865e-6 -1.172231183466904e-5 -2.9343709675899577e-6
-0.00011485575977581301 -0.00010852737301169027 -3.538730974055185e-6
-0.0001293635611149716 -0.00011740760022023047 -3.602672846615676e-6
-0.0002622481265982783 -0.0001372369288755078 -3.2586883635924704e-6
-0.0004614013628629295 0.00012051254244635579 1.4102741175393276e-6
-0.0008966813049458076 0.00011422381225275677 6.199574162790812e-7
-1.746595796041421e-5 2.2089260941282103e-5 1.7740242141409154e-6
-0.0009601250184362558 -0.0008483630484050943 9.378195308036594e-7
-0.00047950467429781453 7.517934087300977e-5 7.26635989594278e-7
-0.0008575602198004899 8.07976144514755e-5 6.334493738511187e-7
-1.888682562696591e-5 1.640316643928508e-5 1.2268436899689155e-6
-0.0009035797230846613 -0.0008703540218124942 6.355027633942339e-7
-0.000971486952017319 -0.001288373798616837 5.374823153917952e-7
-0.0007761287198019769 -0.0014462539474921897 4.630991194149746e-7
-0.0007735949954783227 0.00011326790127994159 7.023290260106932e-7
-0.0009241298311761184 -0.0001903234608988755 1.0299960033890968e-6
-0.0004819008925698711 -0.0005272837980680567 -2.4793409655524094e-6
-0.0004976250613147746 -0.00017507554061663743 -2.829653758448824e-6
-7.109964233358538e-6 -5.871817649070873e-7 -8.834496148875592e-8
-0.0009598297825174447 -0.0015101055856198346 4.2508395320714824e-7
-0.0005706615595688946 -0.0012192093246592508 -4.290976799804888e-7
-0.0006203057889369865 -0.0012993074841373727 -1.1839743636878403e-7
-0.00036942047373557835 0.00011114390904860584 1.633894788319923e-6
-1.1268737481552294e-5 -1.8663646858751958e-5 -1.940311689901219e-6
-0.0003194580083737056 -0.00014958039839779106 -3.5911422662327376e-6
-0.0004997563624348633 -0.0006757260608269953 -1.6992021997564493e-6
-0.0009646660118489975 -0.0010045214157260302 7.900688815277862e-7
-3.8516311770003716e-5 3.2670424583817165e-5 1.7640357716081112e-6
-0.0009176425867949696 -1.4867081411632254e-5 8.000574709260458e-7
-0.0005604967053030249 0.00012636207551995255 1.1702097340616475e-6
-0.00020337617859619725 -6.841096317543381e-5 -1.8190892957850419e-6
-0.0006319005776730549 -0.0003905179946095996 -1.766618459198741e-6
-0.00017752011708662395 -9.097148648670412e-5 -2.4513227375815067e-6
-0.0008705312117623372 -0.0006574451287012118 5.203050848645258e-7
-0.0003101193199086754 5.090358543935938e-5 7.07865702021794e-7
-0.0008524664930172936 -0.00037502930572970515 4.0182252527668975e-7
-0.0005685781549276593 -0.0014025589098891056 2.560397880551559e-8
-5.2378227544317826e-5 -3.943541816619606e-5 -1.8614538076187977e-6
-0.0006406674722873057 -0.0009841537996285023 -4.952667847415835e-7
-3.359462798430492e-5 -3.627760689214056e-5 -2.167696262568177e-6
-1.5162369421199769e-6 -9.947027459356805e-6 -2.4625671969299104e-6
-0.0002076482896859173 5.081988986296205e-5 1.066476751252739e-6
-0.0008843224426758463 -0.0004317550109642578 6.621719234410575e-7
-0.0002880383440652419 8.706341265709231e-5 1.549895845911645e-6
-0.0009464081678247948 -0.0005859598761290361 1.1141621113562724e-6
-0.0006515411195150642 -0.0007937354004300847 -6.718349278377006e-7
-0.000608413005135131 -0.0009000072247813637 -7.348142079084472e-7
-2.163066747131219e-5 -2.6149091384375093e-5 -1.94986017103545e-6
-0.0006072767411019566 -0.0011039133807852067 -4.725615616384022e-7
-0.0008630601155153991 -0.000913032518158935 4.1943630972229385e-7
-2.586500605626987e-5 1.512847731641834e-5 9.488899758603522e-7
-0.000822765815752135 3.586913862126198e-5 5.657151868887688e-7
-0.0005066636016303235 7.133419122838903e-5 6.396913370311102e-7
-0.00026114770661105644 -0.00017528369825975734 -4.019520690492409e-6
-0.00011506458939782122 -9.507501798088599e-5 -3.0742962566649597e-6
-0.00029879806308892034 -0.00010142364203850712 -2.4828627339438507e-6
-0.0005989285308528177 -0.0006021255709968228 -1.3912884616619574e-6
-0.00023931349713771265 -8.528592247152986e-5 -2.1494400681986544e-6
-0.0005990388946230784 -0.0004681971686689104 -1.900642209076733e-6
-0.0003397873848608488 -0.00010128798495516418 -2.4688325370060116e-6
-0.0006362196009323492 -0.0006960829777063922 -9.297893591660782e-7
-0.0009711582513867678 -0.0011020757274498446 7.060164471699517e-7
-6.122036120028098e-5 3.6768628353537257e-5 1.5682790202470147e-6
-0.0006173322458832604 0.00011404999496704497 9.349894908609148e-7
-0.0009143502658560727 -7.240740369006017e-5 8.581862360917525e-7
-0.0008751147834374714 -0.0006178852316475614 5.655780516433028e-7
-0.0002928692916897346 5.8758539761757156e-5 9.305617605582146e-7
-0.000514895242796959 -0.0005871030552796791 -1.959045920661779e-6
-0.0002805250406917557 -0.00014253990237776088 -3.374300639319423e-6
-0.00010204927700171501 -8.514914311120317e-5 -2.9269493705586348e-6
-0.0006189841364242021 -0.0015024066492704572 5.591988760281732e-7
-3.993224080102146e-6 -1.369042242965444e-5 -2.4336831322005316e-6
-0.000445331899402282 0.00011804976048663643 1.4362095809842355e-6
-0.0009976722173582358 -0.0008325102579228766 1.1550926712726986e-6
-0.0006617357583709121 0.00019011893053900222 1.3523210608541858e-6
-0.0009810381702316062 -0.00011290561008849848 1.2845077171874491e-6
-0.001065028222392899 -0.001161283453791714 8.729979307852296e-7
-7.673610753972244e-5 6.731402129074774e-5 2.6439892190201585e-6
-0.0008296226874858649 0.00013920748873659508 6.913059423002916e-7
-0.0009506442874936377 -0.0002597861144303423 1.267124636826304e-6
-0.0010251234014291093 -0.0005023704393369111 1.8441692801921395e-6
-0.00025425176560735783 0.0001303543834585971 2.705768755480585e-6
-0.0001406028763479552 -7.64190935954587e-5 -2.264942334603029e-6
-0.0004095665943719482 -0.00015361423629508587 -3.4493698355320277e-6
-0.0006183940381026752 -0.001631428254492535 1.3218277836158373e-6
-0.0004283989004742255 -0.0005376317402494058 -2.6410695230849346e-6
-0.0010350040107086542 -0.0011947131807562177 7.463840200567188e-7
-7.619137115267076e-5 5.51895187617362e-5 2.143126282211609e-6
-0.000677439696476793 0.00016823747104949778 1.1566201663013895e-6
-0.0006615632181581419 -0.0015596106391249699 8.44758570796641e-7
-0.0009446082254288366 -0.00010635666850878024 1.0599197019366488e-6
-0.0005655543423573738 6.975929356713982e-5 5.813269072920596e-7
-0.0008420950545963055 -7.787607478568506e-6 5.73359839513862e-7
-4.315393845591541e-5 1.649073334874372e-5 8.303060165034327e-7
-0.000884591784148064 -0.0010602553282983227 4.5772799211903765e-7
-3.3217199922087597e-6 -8.912846950747386e-6 -1.4680857404088602e-6
-0.0005277633148591922 -0.00021906124350819497 -2.9338949785822345e-6
-1.5156020694080149e-5 7.259304888279672e-6 5.83965708011282e-7
9.821352617214914e-7 -3.838126807671057e-6 -1.3627904085096051e-6
-0.0011037279213946898 -0.0011918838973876637 8.838499602944937e-7
-7.887715622092148e-5 8.02815289732276e-5 3.167178944693991e-6
-0.0006756158149098897 0.0002185141416144774 1.4390027611970678e-6
-0.001018443484508048 -0.00011853627174147984 1.5354934195255517e-6
-0.0006682518655073846 -0.0016380666125027697 1.2057315081398836e-6
-0.0008498497918667292 -0.00029494954917061596 4.151513234614619e-7
-0.0001566686253299211 3.922325220182647e-5 9.8522583416337e-7
-0.0003734095810593195 4.068022669921618e-5 3.559890641511e-7
-0.0008764017953329197 -0.0007216702797266808 5.405176514124174e-7
-6.940187956435892e-5 -4.6582800776814564e-5 -1.9345237843042345e-6
-0.0003842212646984203 -0.00010279694704243075 -2.3976722607790464e-6
-0.0006403145737249928 -0.00033851632061864846 -1.6929588261671362e-6
-0.00011809161844096767 -8.204484174635265e-5 -2.6103569122243778e-6
-0.00012722764225270522 5.719208825066161e-5 1.6917270438780873e-6
-0.0008252232221299452 0.00011082504567602439 6.650549144118256e-7
-0.0009259508207831227 -0.00025476665588829416 1.0612762094240466e-6
-0.00024726911446462196 0.00011056262376649133 2.2919797885597344e-6
-0.0009840597005219146 -0.0004915328464584935 1.4992964916745318e-6
-0.0005966250374301057 -0.001587141259502607 1.0550557209628422e-6
-0.0006360022022087007 -0.0016033589503072305 1.1114608091584095e-6
-9.474557604701701e-7 -8.131658607309635e-6 -1.963455763002606e-6
-0.0009441364199864794 -0.0007944623525496017 9.105830803495465e-7
-0.000557828258945398 -0.0005945792317745979 -1.677950492803961e-6
-0.00029945250290415156 -0.0001240893222800701 -2.9861671330097803e-6
-0.0005278688554537874 -0.0005423322963918162 -2.1068509771524736e-6
-0.0009265475402405936 -0.0010814307323741299 5.856426628874095e-7
-5.455500883899067e-5 3.1047249658711425e-5 1.4035097589224032e-6
-0.000880957084478018 -6.784884267900689e-5 7.02358392547793e-7
-0.0006011255694677591 8.640360732420219e-5 7.206400667780965e-7
-7.598992761594161e-5 -3.9226524948029734e-5 -1.566333822796045e-6
-0.00040617086084392096 -7.704132527420019e-5 -1.7907514065309126e-6
-0.0006750249773448693 -0.0003231732088411022 -1.281590942962181e-6
-0.0009858871208600962 -0.0012611701659255607 5.801888617867073e-7
-9.632606241594375e-5 5.8929333089531405e-5 2.0473178372389574e-6
-0.000929012509089294 -0.0001623945378734063 1.0412674500902469e-6
-0.00046711189983312824 -0.00048216282844289155 -2.9259348707978134e-6
-5.243561030125762e-6 -3.8631037181168385e-6 -5.295481202313289e-7
-0.0006111575877176006 -0.001212992118054715 -3.0241687139264737e-7
-7.371054792377198e-6 -1.7684043546378186e-5 -2.368445138582647e-6
-0.00018262993491870662 -7.530586172769147e-5 -2.0387048350200314e-6
-0.00016952009453713064 2.7024629888950356e-5 5.982561414277495e-7
-0.0008327425098304937 -0.0003262087389519252 2.464452647772663e-7
7.033731356583642e-8 -6.313291552166747e-6 -2.312433926035642e-6
-0.0002466384961766275 -0.00011306015634483754 -2.7510342850998255e-6
-0.0005474608437145536 -0.0004990189065042965 -2.2141472912422292e-6
-0.0006368685699584877 -0.0006082679816183657 -1.1223224170849747e-6
-0.0002967869179765414 -7.893837329960524e-5 -1.99134095267533e-6
-0.0009940871069792161 -0.0011659062419926525 6.964160519252104e-7
-6.857855836415594e-5 4.1209626214039355e-5 1.6615211588294777e-6
-0.0009096193940354042 -0.0001002482281287518 8.620618164421208e-7
-0.0006649536678581473 0.00012273637929096875 8.997284753843569e-7
-0.0009691560235653634 -0.001204645587922768 6.005558698796226e-7
-7.710648748758222e-5 4.453412184273681e-5 1.6978362315374175e-6
-0.0007015698664830285 0.00014073490579336915 9.252691973285424e-7
-0.0007079181013118733 -0.0014938236026422046 5.659645813252772e-7
-0.000902812454179123 -0.00012795928915537656 8.450646618116064e-7
-0.0005537171468620335 4.677269202601826e-5 3.3833169432249196e-7
-0.0005878097624663123 6.199219608284831e-5 5.008543978069631e-7
-0.0008508181317355805 -3.8582713776566956e-5 5.818762273388491e-7
-0.0008120258491035417 1.250500547172478e-5 5.150285726637025e-7
-4.851159750528231e-5 2.411217043500684e-5 1.1529879848072718e-6
-3.3581489360722174e-5 1.4838014101150007e-5 8.262523662573105e-7
-0.0008648924828456111 -0.0009957685417152657 4.0753157091676925e-7
-7.701708784215215e-6 -9.274564422000846e-6 -1.0926190805771252e-6
-6.199628031398259e-7 -6.14936745245744e-6 -1.4264377810972182e-6
-0.00013195451675809608 3.597368650885291e-5 1.017432187888448e-6
-0.0009077802315791248 -0.00077381025326952 7.215565815023434e-7
-0.00039587695376076885 6.041892367231156e-5 6.60133135177798e-7
-0.0003265152177292281 4.332483679019624e-5 5.076506685398444e-7
-0.0008493200340608306 -0.0006860742836590099 3.713570123229652e-7
-0.0006083036773743423 -0.001358585336802621 -6.0267185458115226e-9
-8.208797016795681e-5 -5.428269925384822e-5 -2.0811515653139697e-6
-0.00040690681077405256 -0.00010216106412214294 -2.2922462400472723e-6
-0.000627746876357691 -0.0003077453077559096 -1.8340659845656958e-6
-0.00024178304896121984 9.218610104606723e-5 1.8968113596636001e-6
-0.0009503351442241611 -0.0005128299607265612 1.1968940381380406e-6
-0.0008809525477942912 -0.001453665214742779 4.6719111711446503e-7
-0.000945669650089882 -0.0014133788090057396 4.538818648519318e-7
-0.00014761753995084717 -6.675075732990487e-5 -1.9591261747089538e-6
-0.0006476755296058868 -0.000571731472196525 -1.1437946793776389e-6
-0.000277129020004592 -8.111677397549361e-5 -2.0440207075273255e-6
-0.0006901626321173962 -0.0005864492445582997 -8.0223563187642e-7
-0.00029237253219149774 -5.860878228569976e-5 -1.5583194151878605e-6
-0.000617553853943342 -0.0014193828832266546 2.1625615248450912e-7
-0.00016168165863961333 -7.966940474621067e-5 -2.236676688567303e-6
-0.00017292626874543127 -5.0752170092257625e-5 -1.4412173911254737e-6
-0.0006491400303156215 -0.0011762769580719106 -2.317418880878118e-7
-0.0009263735540225652 -0.0011828390827968971 5.234080773877097e-7
-7.08318298472757e-5 3.2367961350520623e-5 1.2716727924126251e-6
-0.0006816817097236376 0.00010021962276972217 7.367204023048914e-7
-0.000868390076851468 -0.00012070987102025518 6.423898359700414e-7
-6.65197320965119e-5 -2.6437618846009547e-5 -1.123733780011098e-6
-0.0006720178502888795 -0.00038506382630660744 -1.3219138677186441e-6
-0.00036750101415489465 -5.4245105619328265e-5 -1.4290682708420968e-6
-0.0007399188515851902 -0.001514364000814977 6.158606644071335e-7
-0.0005760526752629793 3.934575368160812e-5 2.7588146320073005e-7
-4.892290966803776e-5 1.2542154732003797e-5 5.936796753364195e-7
-7.0150778928806955e-6 -1.2093194934394165e-5 -1.5136341609848624e-6
-0.0008622368456887922 -0.0007624355486437795 4.5779057242813713e-7
-0.000404368556857837 3.245240312898044e-5 1.6769486528945179e-7
-0.0009173481317067831 -0.0013872242350778628 4.5201524961495134e-7
-0.0001298632165819751 -6.40847523904889e-5 -1.9688594083199142e-6
-0.0006608402943410585 -0.0015037329415815487 5.92500890100587e-7
-0.000905026803508433 -0.0011207771921832648 4.983673854577133e-7
-5.8509151043271496e-5 2.5011718004865834e-5 1.0830238883961259e-6
-0.0008499362056334275 -6.37081631537019e-5 5.651270833494026e-7
-0.0006237093598422931 7.531832992221212e-5 6.151519302666798e-7
-9.489379476242391e-5 -5.2490141691410186e-5 -1.8669974088929426e-6
-0.000893032242279869 -0.0008125399540073454 6.187581996030693e-7
-0.00042454129461366307 5.9680740195428054e-5 5.946891263473113e-7
-0.0004291286518772362 -0.00010075600148391974 -2.1504816250455942e-6
-0.0006195834719443064 -0.00027679421799341116 -1.885934374416802e-6
-0.00029919901270914905 3.067310312641762e-5 3.2238412536673804e-7
-0.0008469656283903528 -0.0006049457107183419 3.6184303670117913e-7
-2.3345553201025882e-5 6.318939817846725e-6 3.949710006338618e-7
-0.0008195374921353685 -0.00027812817575175467 1.655459671199597e-7
-0.00014548396918753003 2.748046680504427e-5 7.094315231493515e-7
-0.0006348953355749906 -0.00048105114313334564 -1.514684267386261e-6
-0.00023986303341785276 -6.396813402874186e-5 -1.6687197076624207e-6
-0.00011647037226485238 -6.697504042279693e-5 -2.1458595510499745e-6
-0.0002629319553171211 -0.00010028223172980182 -2.4620294742079994e-6
-0.0006209042011428987 -0.0005220228758823386 -1.5017801636648771e-6
-0.00012546002204600639 -7.056528419167299e-5 -2.1886446737573045e-6
-0.0008025263624793702 -0.001426398636590235 4.3975617828350565e-7
-0.0006630279781070107 -0.0010830206724858293 -3.0124966637479305e-7
-0.00027976467833636874 -0.00010112637133253591 -2.4764336006810615e-6
-0.00032998556681917274 1.5745996678393316e-5 -4.407728055398708e-8
-0.0008021194273207937 -0.0006764888237782079 6.547304583942478e-8
-0.00019621043798007768 3.098434209789663e-5 6.16094678531377e-7
-0.000808372547422193 -0.0004071140119123801 7.052110522279925e-9
-3.1249937566636244e-5 6.9887278691508e-6 3.872967065935816e-7
-0.0008152915073320578 -0.0009841231891144489 2.0786643138774314e-7
-0.0007910060840648931 -5.815189684284149e-6 4.302339993528572e-7
-0.0005428295897416956 2.2997640411659687e-5 6.622840173369694e-8
-1.706151628746635e-5 -1.5448252040042054e-5 -1.2670326697698637e-6
-0.0006552692057162782 -0.0008860867783911368 -5.442976088030911e-7
-0.0008565055173784167 -0.0008788155081983626 3.99347920833142e-7
-0.0008343725602340866 5.4204419626061e-5 6.008294832888448e-7
-0.0004729329342851849 5.321531918260288e-5 4.3133122680061934e-7
-0.00034013563752224277 -7.466235103312052e-5 -1.8879391466563278e-6
-0.0006846593519533212 -0.0006764435566777796 -6.768085713232709e-7
-0.0008334749436827624 -0.0002435370827874418 3.1646792647499153e-7
-0.00012467076751613573 2.0255212478457797e-5 5.674114506409088e-7
-1.785246347431746e-5 1.5149782211384183e-6 8.740306867487923e-8
-0.000661867821679041 8.288763819891291e-5 6.529282912368162e-7
-0.0008827365135714373 -0.0011622812776961866 4.241337119885708e-7
-6.662327291981689e-5 2.1696490075994153e-5 8.698764648443435e-7
-0.0008443863688687885 -8.763725278258775e-5 5.237956291987663e-7
-0.0008068176481219539 -0.0007508606758884737 1.2469526382125262e-7
-0.0004103500793121 1.1754527746360557e-5 -1.8516921134042067e-7
-0.0007910566169109348 -0.00026372667187627834 -6.721771185698075e-8
-0.00014163998541467671 3.840432719263645e-6 3.883572275362674e-8
-0.0008215859935092545 -0.0010803177691953542 2.431329529170877e-7
-5.537265451068376e-5 8.78457120528912e-6 3.8452093775091987e-7
-0.000786012134398402 -5.148816542840001e-5 3.138775816672761e-7
-0.0005980889192971516 3.135721884222193e-5 2.2347015355346824e-7
-0.0006720973644341535 -0.0004928016772459448 -1.145476715942399e-6
-0.00023965733539531227 -4.8392257259567504e-5 -1.3186884784454172e-6
-0.00011876290894602942 -5.536875785691728e-5 -1.7663809680741225e-6
-0.0006898601666402531 -0.0014468792296645672 4.15203507195742e-7
-0.000313500416620947 -4.69404432833912e-5 -1.3110985525990497e-6
-0.00019260299236627883 -4.4044461156789134e-5 -1.2452368652088707e-6
-0.0006936684670256642 -0.0012427021027404856 -1.2323707076634478e-8
-7.669367014772162e-5 -2.961543370818857e-5 -1.18127210528039e-6
-0.0006943486388256581 -0.00041696797713151456 -1.0644824133522308e-6
-0.0006891360696704113 -0.00035115577431964385 -1.1441427405259435e-6
-0.0004032125903558247 -5.006934853657072e-5 -1.2859957318205514e-6
-0.0008818330902212224 -0.0013590930527773253 4.2839540233767106e-7
-0.00047852755805517956 1.798908461190313e-5 -6.357655367415308e-8
-0.0008087649847193409 -0.0008897268350897517 1.6936704689990868e-7
-0.00020595430449285286 6.127058849233395e-6 -2.15530223478061e-8
-0.0007673843676153253 -0.00041253090184223775 -3.649546666644169e-7
-0.00028979928917767945 1.0930456364994704e-5 -7.258503647147893e-8
-0.0008160677406237456 -0.0005962839587840492 1.3325860612417565e-7
-0.00010782109588435197 -4.794352616711489e-5 -1.6008750567890429e-6
-0.0002233253444827819 3.988924175678727e-5 7.447794186787236e-7
-0.0008576014387678567 -0.0004658774451630846 4.262920948004378e-7
-0.00028232814097879676 3.844197500979452e-5 5.326087697826192e-7
-0.0008619274771350813 -0.0005750415862110292 4.6962826737112284e-7
-0.0008694506323984301 -0.0013986720997036944 4.37104768298043e-7
-0.0008827858452579341 -0.0008417215865104808 5.486076166864164e-7
-0.00044935970894218244 5.75261040883733e-5 5.220016928980659e-7
-0.0006518907647097455 -0.0002687649912875492 -1.4621915287446876e-6
-0.0004733288744226993 -8.717094708013215e-5 -1.6530708893456145e-6
-0.0008234211024056051 -0.0014029848958846474 4.2177558731878645e-7
-0.0006704396703716538 -0.0014101983735157657 2.844594153978955e-7
-0.0007739319203588442 -0.0006232976684493057 -1.532406510312759e-7
-0.0003061103103495276 3.640864894931299e-6 -2.518678345640678e-7
-0.0005064499391570892 6.83111550451152e-6 -1.807203618753351e-7
-2.8302499562352336e-5 2.1377424261291406e-6 9.9545930963605e-8
-0.000787850390186907 -0.000932112841507442 8.347486107379631e-8
-0.000822915569952201 -0.0001369907691261608 3.5046158998229106e-7
-7.938311343285829e-5 2.5783679030270275e-5 9.439799574517101e-7
-0.0009063629581279794 -0.0012250164888266012 4.6325195411681174e-7
-0.0007006700009397291 7.988288602444764e-5 6.221910219455976e-7
-0.0007674987176639135 -2.1098779492940684e-5 3.232087931474744e-7
-3.511367980919053e-5 -9.887578043892072e-7 -7.734477183073381e-8
-0.0008041901311990734 -0.001022628262526853 1.6859492249931035e-7
-0.0003794265267262148 -7.533596727977488e-6 -5.225258775959034e-7
-0.0007711301929879249 -0.0007139354096674857 -1.0703406482849233e-7
-2.2161187274055862e-5 -1.8396061639798942e-5 -1.3284299810255714e-6
-0.0007086788532949027 -0.0009162559971011235 -2.745131157788067e-7
-0.0006901596749947004 -0.0008360389181201876 -4.3202729926918673e-7
-1.365765877824109e-5 -8.745572383136277e-6 -7.950967457990034e-7
-0.0006882276539608965 -0.001146628289575907 -1.4373129588369308e-7
-0.0006658808128225378 -0.0010534373772496809 -3.22145033177656e-7
-0.0007563147614282147 -0.0014039036218225465 3.7406236049781094e-7
-0.000610282037148294 5.254108828449768e-5 4.223644147860804e-7
-0.0008628121547928606 -0.0011004961466591797 3.7703970781948255e-7
-5.347149990591265e-5 1.9336137450310884e-5 8.754170947721e-7
-0.00015711987851706253 -6.9146495473174376e-6 -2.8175033553046946e-7
-0.0007740201607195063 -0.0002867638557271291 -2.505888193140332e-7
-0.00022729854140516757 -4.201520853012049e-5 -1.1736354187036072e-6
-0.0006862787368577147 -0.00045327212177300147 -1.0927361249905204e-6
-0.0007388012844139224 -0.0005767060008056347 -4.5611576171055456e-7
-0.0002936344194539423 -3.288180994107554e-5 -1.0127295300180336e-6
-0.00017808337366336075 -3.645716731925885e-5 -1.0670817827023761e-6
-0.00020770072266469765 -5.1686827663440394e-5 -1.4136857232047618e-6
-0.0006749082137091756 -0.0012941920370035252 2.0748359054255988e-8
-0.0007322675528302576 -0.0011991627174171334 4.2495096064252493e-8
-8.672593201883678e-5 -3.444246935456148e-5 -1.292917089954467e-6
-5.697646262245017e-5 -2.5143231343497747e-5 -1.1489567780095283e-6
-0.000433850266412242 -5.050135139253666e-5 -1.2163638659198399e-6
-0.0009361841869692263 -0.0012917022050861942 4.912704621700109e-7
-0.0007646400971884255 -0.0003772550161651625 -4.019526846479016e-7
-0.000645161440337926 -0.00024257456524478258 -1.4598465995146487e-6
-0.0004846378884001956 -0.00011230874080590587 -1.9747100859385053e-6
-0.00011045460814878484 2.4101679561875493e-5 7.274632817317415e-7
-0.000815786113086768 -0.0002100050671682015 2.0649226184197342e-7
-1.569063532897981e-5 -4.5501144554948446e-6 -3.9695247628305543e-7
-0.0007407613754989525 -0.0006453096822656225 -3.578997995961702e-7
-0.000761109627840485 4.492026204279782e-5 5.034615039349364e-7
-0.0008108569058183611 -0.0001653645369291289 2.254452804415091e-7
-8.783177705431765e-5 2.6517461531634834e-5 9.203390137619583e-7
-0.0008904140756339963 -0.0012663411784714633 4.299128962420417e-7
-0.0007186129287968139 5.829706834412345e-5 5.25006470184225e-7
-0.0007487283248989597 3.7048435639078175e-6 3.4712950366430513e-7
-0.0007684736366748544 -0.0009750654710868385 1.3704935968992894e-8
-0.0003534311514787382 -7.846769888397111e-6 -5.290121547098285e-7
-0.0007648994541355394 -0.0006583977563783831 -1.866237356947055e-7
-2.7294702834349696e-5 -2.0654754231083068e-5 -1.3459855709663632e-6
-0.0006874019778592582 -0.000991185542152142 -3.029740493962734e-7
-0.0007090914211480443 -0.0008738565224694234 -3.094569305095102e-7
-0.0007106653505693914 -0.0010822757714626834 -1.3371969366823663e-7
-0.0007028456048574341 -0.0013844372818418097 2.6774861927390025e-7
-0.0007836786155540007 -0.0013979153357267784 3.8666116490620443e-7
-0.0008607030082366924 -0.00120574036177859 3.677909641589417e-7
-7.31511066404058e-5 1.742178556464264e-5 6.60635382837165e-7
-0.0006800905062286629 6.443913150264657e-5 5.391431080371193e-7
-0.0007859030783335793 -0.00012405062780053983 1.3401119070492503e-7
-0.00011115799452527627 -3.6458635815380504e-5 -1.2132186556069316e-6
-0.0008795222354979585 -0.000542752433283018 6.063105117272482e-7
-0.00026547119571784946 4.5951028782959246e-5 7.470061906104714e-7
-0.00023970750051264777 3.264843491821563e-5 5.226360289902277e-7
-0.0008563452238531303 -0.0004973681994184659 4.1648124502451583e-7
-0.0008532180626509887 -0.0008031563798828167 4.038654654956077e-7
-0.00042522790246018045 3.5834729813505015e-5 2.082090587000016e-7
-0.0006744805150081635 -0.0013532650569400356 1.424747242174931e-7
-0.0007672179637467949 -0.0008458089372866747 -5.0243540821891145e-8
-0.0004503547102546529 1.5534307107315046e-5 -1.1736817076613432e-7
-0.00022388737435910592 -1.8862204987645612e-6 -2.4295495986980514e-7
-0.0007694214541178647 -0.00044655959869745627 -3.2753630498799164e-7
-0.0007954603992674214 -0.0005527284742819253 -4.835990890694533e-8
-0.0002821588140398061 -7.677630608356232e-6 -4.583454885980988e-7
-0.00012665198534317812 -7.915904002406565e-6 -3.0734489035078356e-7
-0.0007650722040393501 -0.00024495530509885226 -2.7084344117699457e-7
-0.00027133938214428903 -4.3025930672410755e-5 -1.2189410702838676e-6
-0.0007222826790261594 -0.0005473562989914969 -6.248718641312934e-7
-0.0006413668747444227 -0.0002160791314889959 -1.3915526590611133e-6
-0.0005122178147454954 -9.848609261691355e-5 -1.5694220945673376e-6
-0.0007289191517429181 -0.0004181325056284724 -7.269052287025723e-7
-4.874496812473713e-5 -2.6373994504817764e-5 -1.2921156853844159e-6
-5.452348567968308e-5 -1.5011579366302139e-5 -7.047033489891908e-7
-0.0008627287363492763 -0.0002666011071897697 5.428953021864977e-7
-1.2527886184862109e-5 1.0304342760688866e-6 6.982450250144963e-8
-0.0001378169824800769 -1.1519806594087844e-5 -4.1165163336357963e-7
-0.0007475109746811468 -0.00026776956455498284 -4.7178693020483565e-7
-0.00078038311109554 -0.00033207541749280235 -2.3777226295168706e-7
-0.000167799070024529 4.176987442628415e-6 -2.2410560860278103e-10
-0.00025211048498706667 -3.998574205503158e-5 -1.136846920360585e-6
-0.00070647092751006 -0.0005043080436889116 -8.258071440679643e-7
-0.0006823962692799464 -0.0002603673046534588 -1.1030326324326395e-6
-0.0007059662984537807 -0.00030967140782417794 -9.413281478971546e-7
-0.00045804886344305633 -0.00012067688080540883 -2.3286742206671108e-6
-0.000614646057121665 -0.00024801072456783564 -1.8511326315485532e-6
-9.175069367611077e-5 1.033880080946593e-5 3.2105231766188644e-7
-0.0007925765343105884 -0.00018894374666138383 5.3577002345612324e-8
-0.00012762745857211515 -3.4668875200035166e-5 -1.1060294542359976e-6
-0.00025625407430528055 2.5767890488281254e-5 3.2266141141616406e-7
-0.0008224718956198095 -0.0004912495603954128 1.3606323895123431e-7
-0.0007598162919191548 -0.0008825158752720604 -6.390092961497938e-8
-0.0007652733719069817 -0.0008074886324844093 -8.262275349479632e-8
-0.00042931603544266145 -5.499090238993288e-6 -4.6590620745723985e-7
-0.0004711054565111424 -1.1421683631860917e-5 -5.000328538869367e-7
-0.000201505153817694 -1.0915631778582755e-5 -4.3352806657312935e-7
-0.0002482130935564943 7.126781306977056e-6 -7.823773451489308e-8
-0.0007967623719452098 -0.0004798487350170205 -8.0516430346102e-8
-0.0007810153589424024 -0.0005081130581982827 -1.9573666659663794e-7
-0.00026521712135375684 -4.0655189587111414e-7 -2.7381029143000436e-7
-0.0007814361305237331 -0.0005873111049336137 -1.268525589908978e-7
-0.00029974603032201745 -1.5200600612035882e-5 -6.395777326490303e-7
-0.00011186356551340817 -7.904520446864728e-6 -3.1075729828286173e-7
-0.0007700647723903865 -0.00020779815758963362 -1.577346948288231e-7
-0.00072204589352274 -0.0010009975291179773 -1.590327093042955e-7
-2.7779324278917852e-5 -1.4237063370122144e-5 -9.238370167056194e-7
-0.0006849029847275449 -0.0008079741221135488 -4.887087825970609e-7
-1.2173346902651224e-5 -1.2266230849974032e-5 -1.1816549143103738e-6
-0.0007498270455145141 -0.0001181165319759793 -7.718423471759493e-8
-0.000818319864937345 -0.0011861812152810548 2.6119658278937173e-7
-6.733277599309588e-5 1.263245312861638e-5 4.952400279936e-7
-0.0006623485167335236 3.027082031099321e-5 3.114394602766087e-7
-0.0004767788091952671 -4.899180671236087e-5 -1.0434149561219874e-6
-0.0008761574068540773 -0.0013013058274330108 4.109509284011748e-7
-0.0007308961146499385 -0.0012825908565972737 1.3339939946980344e-7
-0.00019716210425780057 -2.7901573311639722e-5 -8.476734587017817e-7
-0.0007818778643495762 -0.0010614830854705074 1.0029846313083859e-7
-0.0007458851296630013 -5.667249224548905e-5 1.280217817506802e-7
-0.0005983263143667854 -3.5865115129650383e-6 -9.100298405853084e-8
-0.00041303820199744596 -6.499901639381529e-6 -4.928238422587538e-7
-0.0007549439627631385 -0.0007719405238523505 -1.6305306192540034e-7
-0.0006940263701574362 -0.000762051869979905 -5.015132283062326e-7
-0.0007457354209005928 7.814671362801007e-5 6.116032808139417e-7
-0.0008026765598487859 -0.0013291130196042545 3.2210071646616687e-7
-9.985182784115038e-5 -2.877199745228996e-5 -1.0130814967787802e-6
-0.0007666921561628226 -0.0011995292866046443 1.36507049494488e-7
-0.0008480772120891445 -0.00018712459633276772 4.745179002832271e-7
-9.90172036101955e-5 3.803396919281014e-5 1.2684464362992344e-6
-5.466610103355023e-5 -4.234841900583872e-6 -1.9932183086430017e-7
-0.0007996210519557044 -0.0011227117297428267 1.8686540025439964e-7
-0.0007511845882585093 -8.790058722135864e-5 3.426546689567305e-8
-0.0006416406751552613 7.498728994408842e-6 1.1306602495745711e-7
-0.0007135502161613585 -0.00027520754623369296 -8.156899580498631e-7
-0.0006088781419279621 -0.0005620316001569419 -1.4561747749153075e-6
-0.0011297272465711616 -0.0013969926403424784 4.849493958476606e-7
-0.0010494445309910648 -0.00026086603912836207 2.1434506468672146e-6
-0.00013595477436217264 0.00011356007073280075 3.409268001941649e-6
-0.0002584264393966871 -1.9088629420165074e-5 -6.767539478239917e-7
-0.00075389620246819 -0.0004904241304339056 -4.348415170276372e-7
-0.00024933359570493055 5.2262237275483036e-5 9.414167351732964e-7
-3.6378427645980175e-5 -2.1286936392635383e-5 -1.2028179659429634e-6
-0.00021222508739597465 -3.482467202650144e-5 -1.0107779924469593e-6
-0.0007078677097500648 -0.0013214986527322816 1.4703782502904116e-7
-0.0007787414735506911 -0.0012966826213951438 2.4666782999939997e-7
-0.0006394069529230955 -0.0001890214585519201 -1.2704473646914813e-6
-0.0005386182449879995 -7.77519404033117e-5 -1.129193966862462e-6
-9.260285247221652e-5 -6.934326043897544e-6 -2.952503561596291e-7
-0.0007668131268293274 -0.0001748626683320667 -1.1663005589503716e-7
-0.0007574748409860594 -0.00035040354563467736 -4.647474922621223e-7
-0.00016951125432463504 -1.594964863320318e-5 -5.336933374005785e-7
-0.0007936225543906318 5.373996199951207e-5 5.613042118109808e-7
-0.0001350403579730432 -5.502045224219581e-5 -1.6802900267452023e-6
-0.0007130331512400662 -0.0009558648351931213 -2.2584206283763179e-7
-0.0006656391555408345 -0.0010123629771572925 -3.662864287200611e-7
-0.0006156990524760791 -3.3415040230650325e-5 -2.936280841825125e-7
-0.0007016287946167833 -5.420045864536735e-5 -6.371545048501728e-8
-0.0005185390708544049 -5.40709890539271e-5 -9.420999536979465e-7
-0.00045719706027949825 -3.34096816641607e-5 -8.659655870209806e-7
-0.0008330158853461692 -0.0012901597216516934 3.4002096645672827e-7
-0.0007885246418826085 -0.0012353559901544119 2.1424108310361564e-7
-4.3542877728249075e-5 -3.973241093653717e-6 -2.0740712916796215e-7
-0.00014027722875666087 -4.4252486771544895e-5 -1.351215798597409e-6
-0.0007343969056182029 -0.000193133743474207 -4.2064401055712716e-7
-0.0007443741931144073 -0.00014469792480939112 -1.9725829201712e-7
-7.874172962287958e-5 -6.584463311418196e-6 -2.8010908027073876e-7
-0.0005610208154186952 -5.598717738852788e-5 -7.560259256804365e-7
-0.0006991575903386992 -0.00023370403897721823 -8.630903730955201e-7
-0.0006003139323413458 -0.00015919914389220127 -1.4553151887874178e-6
-0.0005598505645204776 -9.800338005095025e-5 -1.215306400795845e-6
-0.0005804586090167272 -3.643187528070612e-5 -4.683345325083609e-7
-0.0006642899846944677 -3.437498633394771e-5 -1.0617558030535858e-7
-0.0004578694994813059 -6.606919252959663e-5 -1.3933249735984982e-6
-3.199999903835479e-5 -8.390773340962056e-6 -5.228896232196553e-7
-0.0009311701467116544 -0.0005330013840269243 1.026919175837921e-6
-0.00025932406974157846 7.673276531478477e-5 1.4569536374502482e-6
-0.000781413693879961 -0.001165161947508116 1.5531973798337393e-7
-6.689981714875559e-5 -6.905032005174211e-6 -2.973858750025869e-7
-0.0001328443104277017 -2.3960275100185475e-5 -7.79465116325997e-7
-0.000716946817504584 -0.00011642854864859317 -2.7718607672637794e-7
-0.0009432698435180234 -0.000487543503685451 1.153343711042247e-6
-0.00022412076991483752 7.454752480856881e-5 1.5685844162455035e-6
-0.0005412070607288786 -3.638613201874511e-5 -6.222774821582374e-7
-0.0005296718832979266 -0.00012769167951747843 -1.808635212016413e-6
-0.0006008203227078082 -5.24997918027503e-5 -5.266282538369087e-7
-0.000682385746976321 7.436326854123771e-6 2.0499328327349035e-7
-0.0006625020524519555 -5.184587037127395e-5 -2.2841120428293359e-7
-0.0007036886750748789 -0.00021443252537141675 -7.584625724376477e-7
-0.0007564307718806124 -0.0011045758542190223 4.091019791153563e-8
-0.0006159055065075425 -0.00012625994429682835 -1.0547483185806898e-6
-0.0005862396979946902 -0.00011330474110665358 -1.176704207078725e-6
-0.00067228264031821 -0.0001889414445980173 -9.515584435197354e-7
-0.0001587889042138147 -4.1480038606674656e-5 -1.2245127092020308e-6
-7.773618678773863e-5 -1.8679046119453758e-5 -7.5045349067491e-7
-0.0006325508926598673 -9.89949408382811e-5 -7.25000663263083e-7
-0.0009389811776122841 -0.0004491723729232038 1.1359550864096617e-6
-0.00020907041447248547 7.176300819709846e-5 1.5799533478656683e-6
-0.0005259405375276052 -0.00016139820631985943 -2.2733881310300667e-6
-0.000662497067999048 -7.91829472210375e-6 5.9264560543745614e-8
-0.0006871711812087157 -0.00011489298387557107 -4.622696664987709e-7
-0.0006801683044115834 -0.00013889675349288078 -6.374378142514271e-7
-0.0006062366777621551 -8.743094924722104e-5 -8.027112658853826e-7
-0.0005519225359792894 -0.00016476807770569 -2.013403432894987e-6
-0.0006750150855966705 -8.296217366906137e-5 -3.5538452988168164e-7
-0.0007074391966137949 1.7843236760023545e-5 3.149612279541033e-7
-0.0005362877507547244 -0.00019914663991959204 -2.587821170791364e-6
-0.0006591798099060698 -0.0001078967893154103 -6.090326832569747e-7
-0.0005800225995482816 -0.00019942802207346242 -2.0002124691468066e-6
-0.00034349399356072756 -4.431977034061818e-5 -1.2507650628787809e-6
-1.2500094050480485e-5 -2.6792124546603977e-5 -4.664481213239988e-6
-0.00030681898108750674 -0.0016740795608247458 -2.1017758692690985e-7
-1.5045651663938014e-5 3.2335223869593756e-5 3.3511804432395736e-6
-0.0010117401324130782 0.00013526657705127914 4.3506083478441385e-7
-0.0005546358613712362 -0.001571659261128155 9.298470160360045e-7
-0.0004975525568672992 -0.0013923136183522098 -2.776086841160413e-7
-0.0007255478384018023 -0.0008190097900408163 -2.797149007667721e-7
-0.0002589967620015341 -8.223054930322514e-5 -2.0734341582104813e-6
-0.0006586360228538585 -0.0005332739925253599 -1.1614423390194478e-6
-0.000991294636955297 -0.001418944320588385 4.5563845189518864e-7
-1.5364506483996142e-5 3.10088450391608e-5 2.9927706008951927e-6
-0.0003229740665982578 -0.00024083172945861095 -5.6808536109387854e-6
-0.0006141632620492047 -0.0011660724707215023 -3.5986372772921835e-7
-0.00017455645445863893 -5.9672739194048745e-6 -2.792536770755636e-7
-0.0006364908499849757 -4.336299210205522e-5 -2.847616963163646e-7
-0.0011670423976133677 -0.0009220285110957904 1.8376767612106665e-6
-0.0011719599775737617 -0.0009647760603240331 1.7161903719300094e-6
-3.3780188886357034e-5 5.846195747500662e-5 3.823504214768133e-6
-4.1015041731405914e-5 6.545916670131513e-5 3.8092358701881313e-6
-0.0003029325671923048 -0.001740127121126688 1.526715386192875e-6
-0.0008477957524139298 -0.001705934956150057 6.668771775057202e-7
-0.0008032936429262864 -0.001707376877536838 8.496543605753288e-7
-0.00024237377291179868 -0.00020232221800030954 -4.549832246716498e-6
-0.0002621756110279149 -0.00021202414695741523 -4.634730381873998e-6
-0.00028236911755604214 -0.0002215531929278167 -4.789401297294007e-6
-0.00030271129187826266 -0.0002310262814858867 -5.092595714842481e-6
-0.0003605910324186388 -0.000728509532505665 -2.0725320908179964e-6
-0.0010534487866393448 -0.00032851337905080637 2.235474925195834e-6
-0.00043857712885916954 -0.0002766381212691407 -6.265229460665821e-6
-0.00024189092622727115 -0.00018440473237416044 -4.223548992536768e-6
-0.0004084175593001207 -0.00024142336557156883 -6.474478364537467e-6
-4.669471581519707e-5 6.304315516421253e-5 3.294452627158596e-6
-1.8002894624272947e-6 8.342356240331993e-6 2.8202336931977037e-6
-0.001128763830925782 -0.0012207246849874167 8.645033920456654e-7
-0.0008355918009815123 0.00023652095554321266 6.905173531606231e-7
-0.0007041170698680756 0.00023522612208082258 1.353595902549118e-6
-0.0009616175677027319 -0.0016062973472175206 3.908743834914196e-7
-0.00016655469130551315 0.00012613090698831135 3.4126893593300193e-6
-0.0004463032637256773 -0.0015769119773784447 5.280240453873157e-7
-0.0005155688532885239 -0.0016877652731751886 2.1886619941787717e-6
-0.00014655494674846648 -0.000140378764730815 -4.066007330037332e-6
-7.039201478751502e-5 -9.484800747194987e-5 -4.1038806942850396e-6
-6.499228113411119e-6 -1.761967835190202e-5 -4.120377806371438e-6
-4.753245778144555e-6 -1.540545786351254e-5 -3.7747134337643434e-6
-0.00041124888760257766 -0.0014282035661753172 -6.588840524454959e-7
-0.0010132712882795355 -0.00023448495691978102 1.7814100649667338e-6
-1.979113519802253e-5 3.6975537966498684e-5 3.098518305439924e-6
-0.0010523032074141144 -0.0006402935543524524 1.843474685141664e-6
-0.0010698057646101383 -0.0008487619799612627 1.5224180898422435e-6
-0.0004677895265545914 -0.00021081992327709115 -3.986176709877771e-6
-0.00047966961975802393 -0.0009451017781262777 -1.1927222603391845e-6
-0.00045053788983187977 -0.0012223595140980848 -8.817036434613788e-7
-0.0004937598008897435 -0.0015948423691036035 1.0035815643736667e-6
-0.0005140893682802959 -0.001554486715939956 6.896247647115555e-7
-8.504188891947621e-8 5.89519544832305e-6 1.7199708886540123e-6
-8.822837391935632e-5 -9.672262807026569e-5 -3.6274769832174084e-6
-3.7988542813613547e-6 -6.415606182310492e-6 -9.81940750733429e-7
-2.0716671278680142e-6 7.284898786486653e-6 1.3330607603770016e-6
8.014350984940139e-7 3.939244240836133e-7 8.726539178325991e-8
-0.0007139212956825459 -0.0015800052736581593 8.401415314350779e-7
-0.0004516429194087244 -0.0014185035325922583 -4.271987756296439e-7
-0.0004566962591487312 -0.001383536953994493 -5.100815867558685e-7
-0.0004825836277361937 -0.001264211735304938 -6.751048253289115e-7
-0.0009530011708191795 9.40674578357632e-5 6.262979297632105e-7
-0.000937561863595398 -0.00013452610390929346 1.0610143127391994e-6
-0.0009929110129826256 -0.00026356311260267385 1.6321576791332058e-6
-0.0009884730362355783 -0.0002868142891709244 1.6048615469469453e-6
-0.00012394612700343088 9.559840581066693e-5 2.966878744288902e-6
-0.000471188097302846 -0.0010209458135568073 -1.0928639930632466e-6
-0.0009796115581587746 -0.0005232874823160509 1.432061153664775e-6
-0.0009651965863437937 -0.0005541404552721476 1.2879915661592465e-6
-0.00033925658560903665 0.00015353195908991292 2.603898848595077e-6
-0.00043727947574325143 -0.0001807502258391768 -3.832977671599879e-6
-0.0005013030746714543 -0.0004364813530132636 -3.0877919397921803e-6
-0.0004818912007755865 -0.0009044110623041924 -1.2548265783717698e-6
-0.0008145946668461489 -0.001584590374815659 6.640922539198493e-7
-0.001036278875889536 -0.0008961405890124851 1.2551619321544417e-6
-1.0990979390287342e-5 2.096231398647202e-5 2.228096482309103e-6
-0.00024307019854282643 -0.00014814233212790475 -3.5108596539950996e-6
-0.0005043783456678768 -0.0009157848077948668 -1.1461242096741433e-6
-8.499376950109403e-6 1.622102615245729e-5 1.8955600787757252e-6
-0.0009153174262322688 0.00015699187617441288 5.381919558756618e-7
-3.8068411005102714e-6 1.076183410587914e-5 1.7310528305479103e-6
-9.438175109017923e-6 -2.36772339612089e-5 -3.1831558291227703e-6
-8.23961286760341e-6 -2.0639952187251586e-5 -2.7856372027844983e-6
-0.0008936242211267847 -0.0015113432072511252 4.877257831902503e-7
-0.0010036950851303168 -0.0006883404479395281 1.4248764359743489e-6
-0.0009569444353481803 -0.001537938612506303 4.219050460460994e-7
-0.0005203959894503222 -0.0010145810176741368 -9.210333868410224e-7
-6.9462836923109945e-6 -1.4877869902270111e-5 -1.943139909084861e-6
-9.04590437202744e-6 -6.133412128562934e-6 -6.715242043204195e-7
-8.325006237286981e-5 -8.649110166853069e-5 -3.3255249974787038e-6
-8.63838947309603e-5 5.765396859764042e-5 2.110298006300426e-6
-0.00021443318253963002 0.00010787923037884103 2.454778575694785e-6
-0.0002309348539637331 0.00011020610925578303 2.393070766486075e-6
-0.0002623170913915063 0.0001066796667100867 2.1118406598669522e-6
-0.00027461020997567254 9.696090172344845e-5 1.8303008170443208e-6
-0.0003599123953254754 0.00013658433800026027 2.1459295473185337e-6
-0.0003798200153780031 0.00013341423223897842 1.982348829446682e-6
-0.0009718559636127476 -0.00027791550875481014 1.4548034355412641e-6
-0.0009547817951007337 -0.0002841854174004202 1.3089586228541708e-6
-0.0005486657165933562 -0.00025147097858243834 -2.8570396470249285e-6
-0.0005180962882607214 -0.00018930302902791209 -2.7469571399968606e-6
-2.397489318145487e-5 3.325902785909008e-5 2.3420325307267558e-6
-0.0004806962799587534 -0.0014161574161502706 -2.744160604491924e-7
-0.0005271662512194327 -0.0012628381869744275 -5.036029777684755e-7
-0.0005296073489273247 -0.0012241802612743822 -5.679570568286057e-7
-0.0008322143347306923 -0.0015416395768094997 5.834059736480577e-7
-0.0007052468431537797 -0.0015453623560861857 7.380269246674298e-7
-0.001041987131086564 -0.001033143563438152 1.030728124012779e-6
-0.0009231262625882918 9.098305696266224e-5 6.395735862706852e-7
-0.0008950937380220526 -0.0001569033190914793 8.109063192584325e-7
-2.318037699837498e-6 1.2085100799140495e-6 1.6771799198671023e-7
-0.0005835829331602099 -0.0005106976502006965 -1.8557233523830572e-6
-1.1651816209828697e-5 1.719519602856368e-5 1.6873826108661155e-6
-0.0010446298850819494 -0.001257173258349471 6.666440737508879e-7
-0.0009749338301841408 -0.0008158090053759365 1.0544691468866283e-6
-0.0008941733713161661 -0.0002803819342130196 8.000449319373999e-7
-0.0005534645406338975 -0.000225106602395126 -2.5792767749580204e-6
-0.0009717515672986446 -0.00026229391205326394 1.4472757037912814e-6
-1.9992695137443566e-5 3.186441213884792e-5 2.505520008082617e-6
-9.724716379701591e-6 1.2866838147828323e-5 1.3436265354820458e-6
-0.0008985438132671999 -0.0002503055512355621 8.396341317458531e-7
-0.0005431111692204744 -0.0006771512286561437 -1.4821510076964095e-6
-0.0008933840368479104 -0.000592419044988333 7.057457749239521e-7
-0.0008952350775630782 -0.00046248516332093035 7.470325727895091e-7
-0.0010477621089614773 -0.0013759021360754795 5.102005320972752e-7
-1.1626403799843047e-5 -2.192419575492189e-5 -2.3209012423280683e-6
-1.1423190911739758e-5 -1.549192208665595e-5 -1.5609098219929006e-6
-0.00010431902766227014 -7.286514700711819e-5 -2.4676737318535536e-6
-9.233826999168325e-5 -6.345707774569694e-5 -2.289337439420133e-6
-0.0009175646540276624 -0.0006770150681667727 8.323658973420441e-7
-0.00052926008170094 -0.0001777562383795776 -2.4389704656973353e-6
-0.0008912007751722724 7.021347087074328e-5 6.541497692360134e-7
-0.000887947991762846 4.506522567722809e-5 6.710238153065339e-7
-0.0008823185998471055 -3.990477547387342e-5 6.996467782402748e-7
-0.0005855719248886014 -0.0015012354919912141 5.082110226515828e-7
-8.676824524695548e-5 4.686585267388313e-5 1.6913790829114697e-6
-9.729513919077324e-5 4.898424307681941e-5 1.6757575438648737e-6
-0.00016347988991404332 7.780543564936327e-5 2.0318534041118972e-6
-0.00022686867934354187 9.15744605649463e-5 1.966628594847752e-6
-0.0002538952831813457 9.221801888207985e-5 1.831484992474913e-6
-0.00035723447916455087 0.00011984380620773566 1.8498895934703541e-6
-0.00038730253557797743 0.00010037664098658375 1.373698033255065e-6
-0.00040796355931557705 8.918409262059576e-5 1.117905662660462e-6
-0.0005822766045775732 -0.0002242536540987007 -2.1525089089955016e-6
-0.0008749662712507661 -0.0002470568134848778 6.518113331242372e-7
-3.8120006684597335e-5 2.1122184268852393e-5 1.126056270272856e-6
-0.0009266200668708327 -0.0009903804138167319 6.544399829267585e-7
-0.00040816882371752993 -0.0001272722020290184 -2.8285899792054886e-6
-1.503074626224484e-5 1.7496967251720287e-5 1.4892536955013367e-6
-0.000554701109137951 -0.001033117586133635 -7.637649614873484e-7
-0.00016756843787191016 -6.517691786625568e-5 -1.830952747490927e-6
-0.0008444931218418084 -0.0015156723944665816 5.42105757727838e-7
-0.0008619366608725645 -0.0014858392840043301 4.980907903803084e-7
-0.0009115175239553354 -0.0014758953556080624 4.6159101609766245e-7
-0.0008909926780769964 -0.00018843279451343292 7.872439498541238e-7
-0.000566893809250064 -0.0009427675888904066 -8.49829074611969e-7
-0.0005321301665400569 -0.0011875106697395658 -6.179575980425343e-7
-0.0005705008516833443 -0.0011837069101950537 -4.841537713962866e-7
-0.0009059291630745568 -0.0010239825934950752 5.51821390570214e-7
-0.0007346332103785056 0.00012404322719188128 7.896073648119233e-7
-0.0001041723248940478 6.02970300118779e-5 2.008991773265592e-6
-0.0005568435292635222 -0.0002030983371306702 -2.333575206740364e-6
-0.0008735538572129281 -0.0004099498341846951 5.764557514850823e-7
-1.8586658336137406e-5 -3.433153434167948e-5 -2.9977891093779547e-6
-0.0005761378038200257 -0.0009116814241472321 -8.562450524851295e-7
-0.00026318247163558593 -0.00011854463234443789 -2.8567525392133534e-6
-0.0003123930362044286 9.50879668630493e-5 1.5950603017881448e-6
-0.0008628274097038335 -0.00022403847299683232 5.650946998360555e-7
-0.0010212465813446846 -0.0014862805219072908 3.9611218119780516e-7
-0.0002396385456218789 7.475584353300256e-5 1.4995980684963441e-6
-0.00032908015932549674 9.094763075876466e-5 1.4343116978236895e-6
-0.000992973461351865 -0.0013672265807339282 4.951890745576803e-7
-0.0006140949987169825 -0.0014616511705144862 3.708408354092223e-7
-1.6243097681998138e-5 -2.2515833591992312e-5 -1.946884462905576e-6
-1.853079172718004e-5 -1.1672029774663782e-5 -9.138765957618624e-7
-2.1259321043856106e-5 -7.922693653699626e-6 -5.912350332624416e-7
-0.0008490881704139543 0.0001323307604361818 6.59390387497198e-7
-0.0008979959761603274 -0.0009769786128588475 5.479331667019371e-7
-0.0001056567750754033 -6.028446608614528e-5 -2.0253511160801618e-6
-0.0007445893162641694 -0.001465057731209969 4.9215601883423e-7
-0.0006418847511835252 -0.0013842924970006779 1.5426486306729726e-7
-7.849061733971293e-5 3.494850186834697e-5 1.3050987913507326e-6
-0.0008499516123484154 -0.0004373200448433223 3.661687314003798e-7
-0.0008445414076490962 -0.0005307563830975751 3.274738928014262e-7
-0.000752518769427454 0.00010656662005622233 7.044060356226018e-7
-0.0008752677924447065 9.562969499495987e-5 6.379530949764716e-7
-0.0008331339839100796 -0.00011032489573666618 4.4331379469730745e-7
-0.0005854916210242334 -0.0011361971849276826 -5.013533550152305e-7
-0.0007202517435208541 9.885506702849803e-5 7.022542782429504e-7
-0.00056952004899539 -0.0010858038363384232 -6.32666923867599e-7
-0.0006126584276670544 -0.0010160781883387531 -5.645812504222214e-7
-0.0005375175005268296 -0.001152461771165605 -6.500099449100958e-7
-0.0008089373008287775 -0.0008005203283747548 1.558658625379416e-7
-0.0008616371681473288 -0.0006369914603700991 4.658133083025493e-7
-0.0008380083857498263 -0.0006344387648287929 3.011798368697164e-7
-0.00045151370641837276 -9.701290662599625e-5 -1.949412789021058e-6
-0.0009660249059895148 -0.0014646119648814182 4.352248407621106e-7
-0.0008992786499109566 -0.0014201657664602012 4.5189015071228194e-7
-0.0004303903816005383 8.263783203732714e-5 9.460968251215253e-7
-0.0006082944498467068 -0.00019182985726226594 -1.6159412327331349e-6
-0.0005434266122362108 -0.00018231777019297223 -2.305396069287591e-6
-0.0001081747361916961 5.3430086478501655e-5 1.7296236306089835e-6
-0.0008509018261979736 -0.0014300178854324396 4.54643240690455e-7
-0.0008502335794428633 -0.0008431008773496434 3.8035131550727283e-7
-0.0008455780269601939 -0.0004069295105770843 3.34274292764758e-7
-0.00041957064257588044 0.00011272213415079258 1.459808320211584e-6
-0.0006009494290792685 -0.001281647660635721 -2.1237936989906688e-7
-2.0493666082341788e-5 1.1266906228683538e-5 7.848299899341823e-7
-0.0008498974849557879 0.00011030061112135187 6.481135132061911e-7
-0.00024977923367188804 -9.954134817997972e-5 -2.4546387357986697e-6
-0.0005763439889017459 -0.0007142959228792046 -1.2073979159419038e-6
-2.2134884277420583e-5 -3.0322423385939482e-5 -2.2690414848506556e-6
-0.00014550348949684324 -3.236478247263736e-5 -9.98833050602027e-7
-0.0008069622290955676 -0.0006316237559439054 8.268856361287646e-8
-0.0008298440147518512 -0.0004677972544036041 1.9389646224152638e-7
-0.0008108586034559341 -0.0005206371047243862 5.341337485261942e-8
-0.0005532590333590685 0.00010042825670669915 9.14832612275099e-7
-0.0004381807093403583 0.00010314075415881234 1.237768982640264e-6
-0.00045958057581553215 9.979278490884153e-5 1.1185243485247413e-6
-0.0004276401561994869 -7.671490600670926e-5 -1.7030312935202819e-6
-0.0003844187418533932 -7.947150019485622e-5 -1.9062631553716193e-6
-0.0003622709737139143 -7.757959497914124e-5 -1.917978927646565e-6
-0.0007775433323301583 8.337455609470161e-5 6.24103906535188e-7
-0.0008624011297213543 -0.0009504949132801729 4.0793608601099436e-7
-2.1567228976842453e-5 -2.216734205807339e-5 -1.6358023999950198e-6
-2.2590218788345723e-5 -1.480597098425306e-5 -1.0580430940534759e-6
-0.0008434131950681516 -0.0013862739823990577 4.167472859945374e-7
-9.709036214815404e-5 -4.085329909476093e-5 -1.441209526854629e-6
-0.00035687639938764134 5.4788122050908806e-5 6.496826188910139e-7
-0.0008037755332885821 -0.00024394952916306366 6.728948347836432e-8
-0.0007533637884996603 -0.00031096068457857654 -4.7397671702904763e-7
-0.0007265401033206652 -0.0003396762262094033 -7.592600693414054e-7
-7.549705250908112e-5 -4.6838589294617675e-5 -1.8714159004893664e-6
-7.235793595325964e-5 2.4201430480946145e-5 9.305879590315195e-7
-9.763319126504279e-5 2.5347559875607037e-5 8.26548831168859e-7
-0.000818882692320997 -7.880229465044084e-5 4.079412969910625e-7
-0.0007575478324549348 -0.00019248126618745157 -2.2874976012573244e-7
-0.0008220636009595444 7.797859404416894e-5 6.204229746189949e-7
-0.0009681626684055719 -0.0014321877639492321 4.48330077877598e-7
-0.0006476452661246958 -0.0014303090726209351 3.0958354369224915e-7
-0.000624593136220006 -0.0010695263368577577 -4.550291215732471e-7
-0.000650871776076293 -0.0012116582195244407 -1.7775366244571423e-7
-0.0006666119124028618 -0.0006129745661049887 -9.123923927074815e-7
-0.0005723308886727898 -0.00017783942486344236 -1.908242832717697e-6
-0.000644567512234731 6.293634668076525e-5 5.221504844259899e-7
-0.0003207872970552088 7.122755772716972e-5 1.0791120561147635e-6
-0.0009679824138951582 -0.0013888490088876937 4.693323565320604e-7
-0.0009400006460724702 -0.001358623648986153 4.687785430799841e-7
-0.0009096016924038422 -0.0013270835411535837 4.4985282505996384e-7
-0.00016409290440176587 -2.8307463514710516e-5 -8.614539615940514e-7
-0.0006615229409076724 -0.0004091528782434335 -1.409943238062973e-6
-0.0006767699251980068 -0.0009629277408500069 -3.738700336667553e-7
-0.0005240152024762565 -2.09923301135548e-5 -4.974999938231316e-7
-0.0006474583249064868 -0.00013380677123781863 -8.609314921144017e-7
-0.0006734060865126138 -0.0006416521355309638 -8.083054865406842e-7
-0.0005569290355616628 -0.0001877256389466048 -2.1873757131789475e-6
-0.0006623871334331197 5.329925384209591e-5 4.6289691233620354e-7
-4.4971048283807115e-5 4.797088919164519e-6 2.3782741875354196e-7
-0.0006930538307130556 4.287047989645729e-5 4.27667254701937e-7
-0.0006967592399248339 -0.0003829195070870399 -1.0648387012362759e-6
-0.00022205356758331723 6.031950168283838e-5 1.2363278002665833e-6
-5.927128945663209e-5 1.5115222060426337e-5 6.417848775775535e-7
-2.930853244358776e-5 -3.9040511191712555e-5 -2.545643360021357e-6
-0.00027346462161099955 -6.176243733695644e-5 -1.6271505092466365e-6
-0.0001908564971113685 5.4106097119018394e-5 1.219632125286506e-6
-0.0003421806157851103 3.4296248104925844e-5 2.950561151549162e-7
-0.00035659801979141554 2.230681031237213e-5 4.202288104201058e-8
-0.00036845806027270735 7.377920791991838e-6 -2.4783060923165547e-7
-0.0007408507773275533 -0.0006860615439244749 -3.1490167895856436e-7
-0.0007070125051187341 -0.00070838678540091 -4.965110628805736e-7
-6.753433867690261e-5 -3.6320988371216466e-5 -1.5287027622589093e-6
-2.6451051261665538e-5 -2.4760797182574435e-5 -1.6487089131044479e-6
-5.369315734827092e-5 -3.343081989130334e-5 -1.561029670429338e-6
-0.00038468615322541887 -6.118969923675239e-5 -1.5373422846025584e-6
-0.000691730439365262 -0.0010382401361282104 -2.4124387407619673e-7
-0.0006921157888723908 -0.0012008734594021804 -6.921919697499013e-8
-0.0008647627683807242 -0.0013269343147491455 4.0174165535287765e-7
-0.0008346678672276942 -0.001325716310171953 3.630406761149476e-7
-0.0007725533004392277 1.7577073192474428e-5 4.384754103670943e-7
-0.00042845395633833456 1.4559692930924209e-5 -1.3850109188114994e-7
-0.00039388385854211667 5.118650707471302e-6 -2.968910094098139e-7
-0.0007363778084609999 -0.0005199727948510492 -5.505952408578834e-7
-8.589639605090764e-5 1.767299224848506e-5 6.082875903246897e-7
-0.00010591649031101504 9.476857927776583e-6 2.509426518063769e-7
-5.1512843121471243e-5 3.2550207454670476e-6 1.4650155743895593e-7
-0.0006721714656977472 -0.0002137118525925678 -1.060555192419314e-6
-0.0006746946669696343 -0.00016391400752400974 -8.085069257772921e-7
-0.0006188452831329943 1.9550132672284594e-5 1.5687155344455505e-7
-0.0005332817346533721 -8.525702618091476e-7 -2.2960252738039678e-7
-0.0006492839654392778 -7.413525375318271e-5 -4.451507206250633e-7
-0.0007381254163583043 -0.00016905398018563574 -3.186856294849602e-7
-0.0007055850561601505 -0.0006257509871630276 -6.216491191548002e-7
-0.0007365208369078259 -0.0012407407694910353 9.48240725283533e-8
-0.0002134671814899303 2.286520202809612e-5 3.690470454696895e-7
-0.0007737137924777767 -0.0010110455174613905 4.802590485004995e-8
-0.0006995102889337433 -0.0012722863991615103 4.492746913020247e-8
-0.0007969287900221384 -0.001366636221627218 3.585943846176045e-7
-0.0006907079030426174 -0.00028464692873676447 -1.0657839257657178e-6
-0.0007737679254704608 -0.00047102849334589345 -2.785806984843458e-7
-0.0007181542585074503 -0.0006588016877555527 -4.891636729781284e-7
-0.0007141191088675026 -0.0007897607341551229 -3.648213528937484e-7
-3.197649184700464e-5 -3.107023757285771e-5 -1.8878700780341118e-6
-3.039493110864996e-5 -2.7020024764590527e-5 -1.6769276954437383e-6
-3.2694331677036634e-5 -2.4974569401312028e-5 -1.485275947121745e-6
-0.0007169732708744071 -0.0002517172455905688 -7.34262712680242e-7
-0.00013720024508977112 1.7459452183814383e-5 4.485396859784505e-7
-0.00046553268041757667 3.6488931947918305e-5 1.9739255379615924e-7
-3.800974246172526e-5 -3.696011724231803e-5 -2.067375013899458e-6
-3.6758138963556946e-5 -3.14051670999026e-5 -1.7713128959871326e-6
-0.0007441609201716651 -0.0009494719822640095 -9.649282414606849e-8
-0.0005267621603180035 8.306727793048013e-5 7.598119767644366e-7
-0.0006954694410313432 -1.2611341736652658e-5 1.2699969496409437e-7
-0.0008309712130464894 -0.0009167675429374026 2.7309219917462124e-7
-0.00023427666593607617 -2.712879141937487e-5 -8.374058514976678e-7
-0.0005181346789343792 3.2639629902889245e-5 1.5813710060033344e-7
-0.0003432325658556869 6.234318062081689e-6 -2.4963664270499627e-7
-0.00032108186478840915 -2.0858792745245495e-6 -3.874971083892439e-7
-0.0007048544732711105 -0.0001907839886109682 -6.639311715034664e-7
-0.0007122198973625581 -0.00014154355066784205 -4.130116634545578e-7
-0.00010355288106511513 -1.8183902562747756e-6 -1.1898130034880689e-7
-0.00012114984298794915 -1.618391340959122e-5 -5.599829789162971e-7
-7.88711247891176e-5 1.6469065914420323e-5 5.946131056925362e-7
-0.0008198751533895524 -5.9191980620858925e-5 4.385624219155989e-7
-0.0008265089185593451 -4.1237697877491065e-5 4.901326573361649e-7
-0.0005307794415772979 5.6159922076277734e-5 4.407463210394483e-7
-0.00044445152969596315 -2.221447923454955e-5 -7.191994311643031e-7
-0.00044910671016225995 -5.6858118817733335e-6 -4.501157390276936e-7
-0.0004098639510320836 -2.6103341436416714e-5 -8.350874786910425e-7
-0.0006694943359652753 -0.0007312798007015753 -6.761267334553046e-7
-0.0005868630418143694 1.4342596194329556e-5 4.6853294884608127e-8
-0.0006258654131959127 -1.308076289658324e-5 -8.961217445881922e-8
-0.0007449598917229743 -3.0801565785821946e-5 2.1696411883871256e-7
-6.14474644214638e-5 4.552760556836042e-6 1.8512553419517345e-7
-0.00024112221933076107 -1.052503736252085e-5 -4.6646369405842586e-7
-0.0007165951422723654 -8.83953217155245e-5 -1.5786267443109464e-7
-0.00010466735895936139 -1.7496813660644208e-5 -6.269698188861764e-7
-6.802407482856153e-5 9.689645241928893e-7 2.588975244739299e-8
-0.00040030469550468274 -6.955070598264543e-6 -5.071526893191533e-7
-0.0003329763019843098 -5.057252215337539e-6 -4.6053124563804755e-7
-0.00033637942558897995 -2.0002266251522023e-5 -7.601009063538284e-7
-0.00028592493153339546 -4.4676806039367864e-5 -1.2610000255663047e-6
-0.0001813075806892515 3.955805770057911e-5 8.824433603411753e-7
-0.0005979865531621639 -2.494778580430258e-5 -2.8820941425313246e-7
-0.00068108071853998 -2.683632100351037e-5 -2.995762936116249e-9
-0.0003807785654605797 -3.639997774394205e-5 -1.0606744846500803e-6
-0.00039223272594791567 -1.956848115444359e-5 -7.359051838022327e-7
-0.0001860572156223454 -6.305474312531441e-6 -3.039525701193628e-7
-0.0012283430135062445 -0.001648829699602681 -8.922740599630897e-9
-0.0012283407383681336 -0.0016005347647971694 5.4327360142511106e-8
-0.001227973385002327 -0.0015033228397066617 3.155973202192626e-7
-0.0012274998788531423 -0.001454448005800665 5.040417524611088e-7
-0.0012257865091917855 -0.0013563929015051248 9.7907065033391e-7
-0.0012244761394813138 -0.0013073218325457244 1.2490838277681838e-6
-0.0012208975988832792 -0.0012093906437481937 1.822944256460009e-6
-0.0012185772397238304 -0.001160720249131384 2.06974010619143e-6
-0.001213193494262682 -0.0010640345999437088 2.5598561343724787e-6
-0.0012065697399019928 -0.000968513506418728 3.0868548463138972e-6
-0.0012027779335434111 -0.0009213431785328924 3.356353491652093e-6
-0.0011943301493147905 -0.000828315918645496 3.853604496373275e-6
-0.0011896898147466483 -0.0007825798797959843 4.0780467073461975e-6
-0.0011797015022952406 -0.0006928342017304825 4.481159437437138e-6
-0.0011743595082262738 -0.0006488893304498362 4.668181729635482e-6
-0.0011630615964647176 -0.0005631501605187228 4.976943671970312e-6
-0.001151204630737826 -0.00048043143033664595 5.152735718017425e-6
-0.0011451530969149005 -0.0004403003081004475 5.185205759066734e-6
-0.0011330441591486204 -0.0003625761783012515 5.118388471177897e-6
-0.0011271049768036138 -0.00032499261467931127 5.012472962712792e-6
-0.0011157437537430098 -0.0002522780873687079 4.641692570052807e-6
-0.0011104444309069446 -0.00021709726001309832 4.381945342077896e-6
-0.0011008938066509725 -0.00014879634603609567 3.7655814088359227e-6
-0.0010966933260591278 -0.00011549735860362388 3.413669723984961e-6
-0.0010895912150983 -5.0302901027765935e-5 2.629109318955665e-6
-0.0010844011730097576 1.3681696743501867e-5 1.801801810223909e-6
-0.0010825211412881825 4.5477264858804795e-5 1.4046677312932244e-6
-0.0010800801135385644 0.00010916591689635545 7.038838055460803e-7
-0.0010794289196795908 0.0001412386383392352 4.2737865990973415e-7
-0.001078935210198599 0.0002061568014227801 7.070888969215474e-8
-0.0010789316433851704 0.0002390421850970533 -1.2197172755780047e-8
-0.0012282957039978586 -0.0017450248675855572 -8.449988461148047e-8
-0.001078994821783385 0.0003053536869538272 -1.1353021374206644e-7
-0.0010125610227514831 0.00030541666868745846 -1.3576313686314376e-8
-0.0009790776840438392 0.0003054132266829637 6.974643855137186e-8
-0.0009112510095091125 0.00030491984960842914 4.3046163987256175e-7
-0.0008769408228078545 0.00030426635322053434 7.054916451816845e-7
-0.0008078273517803161 0.0003018229324577898 1.4161176660480105e-6
-0.0007731863158183103 0.0002999175027784527 1.8270107651115693e-6
-0.0007042127511722617 0.00029460592131688116 2.716602483271429e-6
-0.0006701047050387931 0.00029115113490756463 3.1781793332218653e-6
-0.0006030273340708748 0.00028269102944209607 4.061784294735458e-6
-0.0005381453251198913 0.0002722039596770124 4.895079290183168e-6
-0.0005067448728694309 0.0002662528225139949 5.2766310257570025e-6
-0.00044640559149881394 0.00025311227833654847 5.937110828823675e-6
-0.0004175783538958444 0.0002460133598228907 6.211641534042581e-6
-0.00036278775786135944 0.00023095255735097164 6.649033809350659e-6
-0.0003369079484732515 0.0002230711543467035 6.820830574096304e-6
-0.0002883185622743009 0.0002068304092606784 7.060405045899872e-6
-0.00024380712272832196 0.00019018001070453765 7.177998587579865e-6
-0.00022311920414288747 0.0001817605837583002 7.208297444631521e-6
-0.00018477171514555483 0.00016484057551588262 7.235846853774255e-6
-0.0001670846769500587 0.00015636977916997095 7.236111030697775e-6
-0.00013460589501819404 0.0001394459385304105 7.222735731469778e-6
-0.0001197978041048766 0.00013100032465523527 7.218853524481799e-6
-9.305052850152242e-5 0.00011416522614536439 7.2153899215809974e-6
-8.103926476450104e-5 0.00010577097258787032 7.201661451080936e-6
-5.987406233918146e-5 8.901328599525365e-5 7.1603259670506176e-6
-4.2384714765761084e-5 7.233844808359098e-5 7.090695617523027e-6
-3.5016544523017034e-5 6.404407944636255e-5 7.0508357041175845e-6
-2.2927916734778112e-5 4.760979904638243e-5 6.991711744978924e-6
-1.8150660004433702e-5 3.951498077154016e-5 6.988584240782394e-6
-1.0780044657896608e-5 2.3864849798802908e-5 6.926905746238664e-6
-7.871370369889995e-6 1.645434089049731e-5 6.5244690591186605e-6
0.0 0.0 0.0
0.0 0.0 0.0
0.0 0.0 0.0
0.0 0.0 0.0
0.0 0.0 0.0
0.0 0.0 0.0
0.0 0.0 0.0
0.0 0.0 0.0
0.0 0.0 0.0
-0.00034420996886167106 -0.0002713138877847737 -1.1688726434617796e-5
-0.00030404814960220103 -0.0002496598048655201 -8.81473646109536e-6
-0.0002631320046950552 -0.0002298706665103916 -8.200336608990662e-6
-0.00024329683837753536 -0.0002202356821883569 -8.136879152643302e-6
-0.0002055176886190827 -0.00020111854994857574 -8.148494591529904e-6
-0.00017074001870065076 -0.0001819958992856359 -8.177892512463827e-6
-0.00013919795495009405 -0.00016280092499571864 -8.212270211758073e-6
-0.00011104130277245223 -0.0001435187812545663 -8.245155027811653e-6
-8.635143480559042e-5 -0.00012417639589573878 -8.256001569735934e-6
-6.521215887296135e-5 -0.00010481788184256435 -8.251230819288878e-6
-4.7585606831947464e-5 -8.549093396015158e-5 -8.222688435065836e-6
-4.0078865265417806e-5 -7.585842891133751e-5 -8.197769972834275e-6
-2.7570812506478116e-5 -5.6723299373960056e-5 -8.157319063292219e-6
-1.8037493246681313e-5 -3.7970549178606e-5 -8.213183201870538e-6
-1.0491441135201108e-5 -2.011991168731885e-5 -7.8017684083616e-6
-0.0003743077764203038 -0.00030274445510444813 -1.880383917636591e-5
-0.00024259929309076273 -0.0016752162067458726 -3.8073869931331433e-6
-0.0002536051885568861 -0.0015619062854974628 -4.319169471992175e-6
-0.0002617078606931565 -0.0014575680851301933 -3.3267569197364547e-6
-0.00026519206958777665 -0.0014067672173190032 -2.996362958836542e-6
-0.0002715913927745448 -0.0013066631800078034 -2.6899335439019386e-6
-0.00027774699212964113 -0.001208079828195154 -2.6561075133929143e-6
-0.00028405324301549877 -0.001110781332660291 -2.7689021700420127e-6
-0.00029074818366444424 -0.001014708344107417 -2.962991435039221e-6
-0.00029793529829126055 -0.0009199037954817729 -3.1837554175276688e-6
-0.0003056882296234942 -0.0008263659433960541 -3.4285390405931954e-6
-0.000314060776203624 -0.0007340618285022466 -3.688727595981837e-6
-0.00031849693699686224 -0.0006883346971017177 -3.824214132210771e-6
-0.00032796537368089465 -0.0005975082282808204 -4.15247299359573e-6
-0.00033861451430217045 -0.0005067084877060869 -4.947766436701104e-6
-0.0003516448796833824 -0.00041284782182540773 -8.212364212343729e-6
-0.00022788030644713706 -0.0018363369504549223 9.016288505336198e-6
-0.00036203583929549885 -0.0018080974436624762 8.945767550852207e-6
-0.0005160771771928188 -0.0017711834816973725 5.758590236555486e-6
-0.000612287710552431 -0.0017607981873399075 3.6666926908447145e-6
-0.0007542082666578265 -0.001751376024917267 1.9987895190759797e-6
-0.00084802364179406 -0.0017477742956229043 1.1327550953732764e-6
-0.0009892761235595275 -0.0017453616906494766 3.334647836924201e-7
-0.0010843343837996277 -0.0017449815181333297 5.33853350016757e-8
-0.0010098558460979535 0.0002364481240214771 2.752452824993683e-7
-0.0010081712439131943 0.00016775547708134002 5.734504201302986e-7
-0.0010157086796728958 0.00010321673519678839 9.228092464316598e-7
-0.0010192848840387182 4.1612937863279104e-5 1.3844665142481344e-6
-0.0010202995709065947 -1.9828645477257816e-5 1.8824596973148407e-6
-0.0010201641814942617 -8.384317145158386e-5 2.3545396733636476e-6
-0.0010149448110090803 -0.00015839260017335116 2.725743209592166e-6
-0.0010434534101465029 -0.00022696143983380783 3.38325639420412e-6
-0.0010521276407885877 -0.000294320890338524 3.670323134842913e-6
-0.0010638486205497213 -0.0003982235873627684 3.860352998594424e-6
-0.0010685991983491998 -0.0004727654876067062 3.8015219674760233e-6
-0.0010645420880619181 -0.000559124136326974 3.496463091041923e-6
-0.0010894737719322014 -0.000646076759011149 3.5296742404352915e-6
-0.0010774375264383754 -0.000738837758410276 3.032006460597442e-6
-0.0011094824199701714 -0.0008384713701739519 2.9526588588545446e-6
-0.0010855473475773138 -0.0009484874707625437 2.3066517522477577e-6
-0.0011059847214058647 -0.001032376005518309 2.103827657439571e-6
-0.0010952073718373395 -0.001129388226794594 1.7058548595219094e-6
-0.00111602410575249 -0.00126015659634834 1.2665485874151893e-6
-0.001131221322426762 -0.001352252376606001 9.62091295300122e-7
-0.001112890062603752 -0.0014477658966355813 6.675099647904675e-7
-0.0011272165504962427 -0.0015523390793649385 3.8942870746658713e-7
-0.0011306177612898875 -0.001648274455830175 1.9021024838613414e-7
-0.0009415536710086364 0.00023697042451892086 5.457187153313744e-7
-0.0009329330840691989 0.000178075482205776 7.638644076927238e-7
-0.0009212161289300059 0.00011268770489395434 1.0156480798993193e-6
-0.0009543667191573261 3.96829857493932e-5 1.27835707070794e-6
-0.000952773236281777 -1.7701596682245807e-5 1.5215499787640788e-6
-0.0009492113172304454 -7.704696974921076e-5 1.7186895354769117e-6
-0.0009597035083529798 -0.00017059235920898413 2.1139319639484023e-6
-0.000956406775415021 -0.00023843508031748406 2.1837776881327213e-6
-0.0009713498292796228 -0.00030680582835640376 2.4306219568532545e-6
-0.000989449076351598 -0.0003958585523696197 2.6925829460095173e-6
-0.0009859108721310794 -0.0004585991990653302 2.5699065048192427e-6
-0.001000191374632556 -0.0005714187642308653 2.591280472235478e-6
-0.0010061638694111414 -0.0006589760574927814 2.4681703661012812e-6
-0.0010028001442989219 -0.0007343812495875553 2.2453623409490592e-6
-0.0009964160377466413 -0.000858718697707307 1.8518415929245592e-6
-0.0009893077525336142 -0.0009282027118412409 1.6428424454154016e-6
-0.0010045928968668552 -0.001018515889877778 1.5379811608059118e-6
-0.0010233191077436107 -0.0011238918524222915 1.3827708989268762e-6
-0.0010080824147034955 -0.001228632488325833 1.082145988444636e-6
-0.0010195189666652683 -0.001344340337050842 8.878850126605192e-7
-0.0010415061614766291 -0.0014334383699489577 7.369500331904694e-7
-0.0010360312490598855 -0.0015634722064305504 5.324787519897841e-7
-0.0010367216758120268 -0.0016503225465919922 3.883072531511945e-7
-0.0008698761828488215 0.00023431537045222358 9.421756671641253e-7
-0.0008896119575245174 0.0001705485489609527 9.247018566012536e-7
-0.0008721009809582724 0.00011556465871901426 1.0456035254531088e-6
-0.0008573492404510276 5.0886747515307785e-5 1.040429493737611e-6
-0.0008815984507672169 -1.1602598837916932e-5 1.1514348258421391e-6
-0.0008762647903338615 -9.423480884083382e-5 1.141060649070023e-6
-0.0008591864614627376 -0.0001494947147187204 9.658253921262578e-7
-0.0008959834564658395 -0.00021987883390527644 1.3622058209412122e-6
-0.0008863371437619228 -0.00031081992683588885 1.1974630733624458e-6
-0.0008884039272528437 -0.0003892862072642556 1.1870097387359e-6
-0.0009001329819277299 -0.0005021172678321926 1.3016350823142566e-6
-0.0009118846134697847 -0.000561584075014442 1.4294671470782565e-6
-0.0008987907979718716 -0.0006416148809387068 1.2103955169796253e-6
-0.0009293979477403914 -0.0007253001206145181 1.468863182707636e-6
-0.000925419014690949 -0.000831161864512029 1.2913717430010926e-6
-0.0009026154855878883 -0.0009115229735008843 1.005403172341233e-6
-0.0009464275486537176 -0.0010427899102992042 1.139357741755516e-6
-0.000949064396148145 -0.0011417603696070326 1.0147795644866306e-6
-0.000948759872488938 -0.0012437677128997872 8.85839745819242e-7
-0.0009648301975376257 -0.001334839201409931 8.31909772977514e-7
-0.0009296375758593894 -0.001443480848877125 7.560245144055572e-7
-0.0009242225201460192 -0.0015314124587554867 7.585768546787684e-7
-0.0009355313310182005 -0.001638351765772996 7.132797021470416e-7
-0.0008023225384399844 0.0002384103354226008 1.3990623274924502e-6
-0.0008015628322590259 0.00014525827982045562 1.2363631154371032e-6
-0.0007985114056353126 9.143143678568942e-5 1.0583075936173424e-6
-0.000791550452686586 2.6525747562956834e-5 8.202519135845937e-7
-0.0008106844198858324 -2.6511855505830027e-5 7.64716463971069e-7
-0.0007937778822361556 -9.077562913770803e-5 4.210643062363848e-7
-0.0007773514400740172 -0.00015111564291659917 2.1438151020678184e-8
-0.0007882735683699371 -0.00022539313773267997 -6.249064198910434e-8
-0.0008020956178294445 -0.0003057060952416162 -2.4673433791735895e-8
-0.0008085597995381398 -0.0003632103057958712 1.9803741485895428e-8
-0.0008112065437586142 -0.00044544675814732883 6.124990262331394e-8
-0.0008292529003294496 -0.0005628435208060218 3.624358985209183e-7
-0.0008395698098670484 -0.0006631508319869942 5.267756756167277e-7
-0.0008334242667582308 -0.0007092095233322182 4.435721491317805e-7
-0.0008090525504445545 -0.0008450290941553789 2.7746195690892215e-7
-0.0008231769286208192 -0.0009459851956733084 3.958301057245104e-7
-0.0008439506451396285 -0.0010386568567276012 5.317558023732912e-7
-0.0008404226778284426 -0.0011416184600786927 5.186963952390442e-7
-0.0008412234729749377 -0.0012489255493778125 5.613074768904548e-7
-0.0008393191007033666 -0.0013581226830005249 6.532159380522427e-7
-0.0008295721878387141 -0.0014589698567489052 8.063271657568134e-7
-0.0008056611126167828 -0.0015417779373266955 1.030116014934743e-6
-0.0008275549801220893 -0.00162629654408553 1.1478723541006637e-6
-0.0007329793456557707 0.0002243347513259174 1.9138873001731082e-6
-0.0007305093598602044 0.0001705686368066045 1.6085766090717167e-6
-0.0007007396570584347 0.00011223639646374843 1.2913028448871406e-6
-0.0007337751580714141 3.127107404518471e-5 6.994796741803175e-7
-0.0007204863101807618 -1.5183755941931632e-5 3.2415488530932636e-7
-0.0006924966029710375 -9.456922982639164e-5 -5.259874117807347e-7
-0.0007075031742959896 -0.00016573742610778667 -9.091101873004158e-7
-0.000738281297971676 -0.00022201314164384137 -7.693268515678687e-7
-0.0007310377973239694 -0.00028960702702645507 -1.1114633595395973e-6
-0.0007288330455720174 -0.0003797066858309219 -1.2477985803573353e-6
-0.0007275065154659481 -0.00046145360353842623 -1.1646064203955684e-6
-0.0007633030309286898 -0.0005388508345827407 -5.20329868129753e-7
-0.0007392917037887988 -0.0006172874947125926 -6.645872135410786e-7
-0.0007338378046631788 -0.0007393340609680121 -5.071788417758736e-7
-0.0007335183326645944 -0.0008440365574505211 -3.733632063703646e-7
-0.0007509901382424164 -0.0009178587252928916 -1.348558571686312e-7
-0.0007473149407173576 -0.0010375011690955684 -6.356459524916968e-8
-0.0007380965573694773 -0.0011524572728362102 3.5628115014277806e-8
-0.0007463982907225479 -0.0013528739506793958 4.5271138560089505e-7
-0.0007235890309324935 -0.0014232993414382453 6.424558743261716e-7
-0.0007422283634846508 -0.001547313345895914 1.1609330148021437e-6
-0.0007326582368175272 -0.0016326558285875926 1.58260852447747e-6
-0.0006366685452368894 0.0002184543800728937 2.759765173930513e-6
-0.0006384008920233636 0.0001479565393623994 1.9040908686436866e-6
-0.0006411883318456011 9.937066829081984e-5 1.31239350331718e-6
-0.0006327993406350414 4.127931660310977e-5 5.793764002469175e-7
-0.0006466994751260995 -2.412399783338547e-5 -1.6652991418260847e-7
-0.0006232565238136027 -6.415704280500919e-5 -8.545219865886119e-7
-0.0006395030977523825 -0.0001612986768267208 -1.8392730485582506e-6
-0.0006744276213920495 -0.00023661872790781547 -1.8676085860106008e-6
-0.0006616340967926943 -0.00029486756531466447 -2.333776490149217e-6
-0.0006580668213936929 -0.00036405504884276654 -2.467694257001574e-6
-0.0006490906383181589 -0.00044182169507854063 -2.4745189377765405e-6
-0.0006935566401392601 -0.000543690477187267 -1.4342530522994784e-6
-0.0006346182785921371 -0.0006480916037109164 -1.7349638875252835e-6
-0.0006414758341762895 -0.0007573774268966166 -1.2818586529574728e-6
-0.0006463895315560761 -0.0008425637666048632 -1.0459819866016669e-6
-0.0006635413569256469 -0.0009263922872405044 -7.737660073563381e-7
-0.0006423465040691844 -0.0010371417201065294 -7.06666176946287e-7
-0.0006453556382995428 -0.0011238166040857432 -5.291108305526259e-7
-0.0006498884204414907 -0.0012585765844780848 -1.8258591971701465e-7
-0.000644550533991378 -0.0013247574869182466 9.341580461209824e-9
-0.0006541323183921892 -0.0014604043124428546 6.959569358507137e-7
-0.0006131676414367998 -0.0015459401599447256 1.3217305827321797e-6
-0.000635597930583162 -0.0016628178716590809 2.4325983582051264e-6
-0.0005696035932954657 0.00021348799257862628 3.3699274212711924e-6
-0.0005655843684856669 0.00015388350974899088 2.3925083638860624e-6
-0.000576989991550578 9.45516114420322e-5 1.3681118185505674e-6
-0.0005663975839588506 1.5813337473604545e-5 4.856143762961266e-8
-0.0005626340610967639 -1.26766714021237e-5 -4.7652079236575666e-7
-0.0005823652471829396 -7.346310399352326e-5 -1.3637748166205013e-6
-0.0005655753338216221 -0.0001405644042210869 -2.708092564539457e-6
-0.000611010427706451 -0.00021945155435248144 -2.9251787036158327e-6
-0.0005845453422177772 -0.00028157639092982786 -4.000423438132078e-6
-0.0005517656480378082 -0.00035845031030519117 -4.8753780924986564e-6
-0.0005659678761552437 -0.0004548146727859053 -3.8127306501552048e-6
-0.0005690127586080798 -0.0005524185282643163 -2.963376302149477e-6
-0.0005493372434544912 -0.0006362318377402002 -2.631581604417877e-6
-0.000542520830010563 -0.0007568974704664286 -2.140761170355403e-6
-0.0005358532155221779 -0.0008411067522487972 -1.9147199163152584e-6
-0.0005330938478925522 -0.0009295266408577887 -1.6828229467997393e-6
-0.0005309857573286903 -0.001069616747484988 -1.3274825637991334e-6
-0.0005032310834665913 -0.0011459187745318233 -1.3162120566595844e-6
-0.000568992382903841 -0.0012564656428071393 -6.14458759847613e-7
-0.0005292968828940009 -0.0013525634981523757 -4.603437216267983e-7
-0.0005376159800030939 -0.0015138741546918172 7.816312243098913e-7
-0.0005582588938567592 -0.0016866124479717561 3.3191974877390657e-6
-0.0005058798688353381 0.00020585741161238422 3.925897764598737e-6
-0.0005064041948643988 0.00015154590518250718 2.7588577845994115e-6
-0.0005050500991629022 0.00010016159748306265 1.6846159802025845e-6
-0.0004940913187293 4.3984438720407237e-5 4.926244167453861e-7
-0.0004976324590511041 -2.5366492386928093e-5 -1.052575179262142e-6
-0.0004952973126186145 -7.216152660298689e-5 -2.165943286288493e-6
-0.0004923569303867614 -0.00014032715527623755 -3.911525377426214e-6
-0.0005115160203085297 -0.00020609233877364667 -5.102121499022205e-6
-0.000509444037756056 -0.000279466074528431 -6.364183795085989e-6
-0.0004731732478709038 -0.0003555588254112806 -7.534208746280553e-6
-0.0004960146546159862 -0.0004680132846294531 -4.717215863027287e-6
-0.0004710023243076841 -0.0005815418596464973 -3.688007943415976e-6
-0.0004562444718069767 -0.0006754075476684784 -3.152774961076876e-6
-0.0004480714935378404 -0.0007639423663182222 -2.7917360202727337e-6
-0.00044381498254166576 -0.0008480429030554638 -2.5117721008044046e-6
-0.0004537398693448753 -0.0009218097763493881 -2.229360890491625e-6
-0.00043207535243511904 -0.001056039242741347 -1.9868499241630822e-6
-0.00042241865775242136 -0.0011416866553477024 -1.8432745120710354e-6
-0.000420331152549249 -0.0012154665491968231 -1.7076700944334555e-6
-0.00041713492624879397 -0.0013428617335877 -1.3734494286535204e-6
-0.0004594249645504028 -0.0014508670758296373 -4.3867450129783427e-7
-0.0004404148181496492 -0.0015073114554226955 -1.8238537355771223e-7
-0.0004712416195785374 -0.0016843614558799272 3.683017204689116e-6
-0.00044523054675579403 0.00019390927678665285 4.344200240051307e-6
-0.0004551015489856192 0.00014164675848435791 2.9068526592128013e-6
-0.00045407380808805723 7.85297828418462e-5 1.3720067529381994e-6
-0.0004465186780904629 3.6181883816745224e-5 3.388353148284878e-7
-0.00042789573649638576 -2.5922074076702732e-5 -1.3496550408935716e-6
-0.00044480257182289427 -7.912578763166875e-5 -2.786742985115865e-6
-0.0004319345391684636 -0.00012510921610190738 -4.360823905004437e-6
-0.00040905719357344194 -0.0001814037759415762 -6.97966452216833e-6
-0.0004372806936537333 -0.00024253489331712208 -9.034065529481833e-6
-0.0004015540674685936 -0.00035732407773642294 -1.0670472169023203e-5
-0.0004297734256752887 -0.000446043701669161 -6.1499500436242825e-6
-0.00038050880367290876 -0.0005450797516505609 -4.501676882392342e-6
-0.00037076514923989573 -0.0006363282852164138 -3.836798078565308e-6
-0.00035666582461425767 -0.0007738810458114852 -3.3082192612951302e-6
-0.000350932751236515 -0.0008658759587466456 -3.023083585616458e-6
-0.0003486428279096028 -0.0009601803110270942 -2.758095838918606e-6
-0.0003369327267280201 -0.0010578344512867017 -2.566037520603166e-6
-0.00033031901948917485 -0.0011530703014316134 -2.3958537882944264e-6
-0.0003283949180544566 -0.0012503637705535045 -2.267556982650279e-6
-0.0003183981370420546 -0.0013494198924299912 -2.288209253362015e-6
-0.00031405756491409436 -0.0014494076698656272 -2.3941522682609903e-6
-0.0003176541984392911 -0.0015550394726045905 -2.1921604530219716e-6
-0.00036810262600826035 -0.0016743360672262638 1.8458312760535263e-6
-0.0003886453933388988 0.00018452451409171674 4.741224973845033e-6
-0.0003995803619534175 0.0001254399321671959 2.927501160667129e-6
-0.00037195232302656854 7.675830963036112e-5 1.676396237121249e-6
-0.00038481215387436887 2.2259089311932532e-5 1.6947556205152893e-8
-0.0003639113778934195 -2.3811005958993186e-5 -1.376717325319124e-6
-0.0003608192821845413 -0.0001021242344010405 -4.081553151650517e-6
-0.0003613150824746331 -0.00015300478900173023 -6.128386896136027e-6
-0.0003601373457914984 -0.00020705951191802552 -8.921343062935407e-6
-0.00035891165568098597 -0.000262843583789711 -1.2582775517974865e-5
-0.0003365595707316936 0.0001752932203495227 5.10620319745571e-6
-0.0003297152006137034 0.00010989977394132739 2.999696267314733e-6
-0.000302968044431691 7.808184065035658e-5 2.153586744432055e-6
-0.00031469016868334844 2.3114010611954674e-5 2.1802158645205013e-7
-0.0003170307603187621 -2.1578625641616926e-5 -1.2934883214583232e-6
-0.00031711828635051667 -7.544988269571482e-5 -3.1895149419867595e-6
-0.0003185527799858037 -0.00012568118235724895 -5.0510808186716254e-6
-0.0003189123818896947 -0.00017371944844755366 -6.9294113084414634e-6
-0.0003205659335063834 -0.00022075334089580363 -8.760321733630498e-6
-0.00028571082286806096 0.00015277561523360748 4.966510400468535e-6
-0.00028637026256283604 0.00011649482548121177 3.6535709362654293e-6
-0.00027555861677156353 6.728806425636527e-5 1.9663956775321745e-6
-0.0002724833958111532 1.8390891141115868e-5 2.0373951799782415e-7
-0.00027505758984183444 -2.539099915932854e-5 -1.3869747306425734e-6
-0.0002556732136119692 -6.298840139664745e-5 -2.7586011524758395e-6
-0.00027993229347818304 -0.000122113228812591 -4.88751519219277e-6
-0.00027976626730478305 -0.00016358064744060604 -6.355900219022483e-6
-0.00028083319177747327 -0.00020353144769035946 -7.577559854760117e-6
-0.0002389364554840392 0.0001493069673681999 5.482193338313929e-6
-0.00021125845666374664 8.975112927477009e-5 3.3625634995531807e-6
-0.0002330506806397424 5.618520354949871e-5 1.81652168635078e-6
-0.0002304212881898681 1.4827851420067837e-5 2.228671610806159e-7
-0.00021719133715318684 -1.8301747999080467e-5 -1.0314485321845423e-6
-0.00022296591957584027 -5.907158459870209e-5 -2.6107646774122354e-6
-0.00023082684233207099 -0.00010408348634587292 -4.307678268903278e-6
-0.00022493918189526015 -0.00013927555465051758 -5.625656109999533e-6
-0.00022254043324198216 -0.00017455078936180914 -6.8813559291958395e-6
-0.00020056017689314625 0.00013867357826189398 5.643137444746115e-6
-0.00017981242462543478 8.294653121786472e-5 3.4089169311198854e-6
-0.00017953164234513997 5.72367235653364e-5 2.245157844488506e-6
-0.00018419483360402773 1.2970588048409767e-5 3.142377471566736e-7
-0.00018231807415138704 -2.2039929393645042e-5 -1.1703467262202505e-6
-0.00018715383704090514 -5.974597106640139e-5 -2.7292864926814435e-6
-0.00019380282843679732 -0.00010184295980443834 -4.408971820868739e-6
-0.00018882078808129914 -0.00013507303073521468 -5.787454060577419e-6
-0.00018333346938636996 -0.00016854127995988486 -7.2364398781398256e-6
-0.00015020976017415385 0.0001197734760654795 5.688531301783761e-6
-0.00014923449543008673 8.986248052217031e-5 4.182815716924428e-6
-0.00014379215690066012 5.320164598002003e-5 2.4315486778047933e-6
-0.0001557405042478659 1.5818738125080683e-5 5.62437926783261e-7
-0.0001502734916067381 -1.948212270965522e-5 -1.0395817160943653e-6
-0.00015277327906131722 -5.452621344932132e-5 -2.6619038796309244e-6
-0.0001534358502425833 -9.467799213818663e-5 -4.4752711856673545e-6
-0.00015739268889818344 -0.0001317048050676802 -6.130559708426636e-6
-0.00015007580270141903 -0.00015617015504210902 -7.468357682986512e-6
-0.00012128032582912859 0.00010644984087217415 5.6257434352019076e-6
-0.00012137960062025545 7.328407088788031e-5 3.7380562743822124e-6
-0.00011456432506246419 4.155229663145216e-5 2.1288977347685355e-6
-0.00012078565318634352 4.057030831792129e-6 1.0654553727366898e-7
-0.00011497350166253455 -2.5771071600018887e-5 -1.438986842549375e-6
-0.00012220060959660991 -4.5015484461072355e-5 -2.383785831125232e-6
-0.00013026374917110578 -8.119805694084918e-5 -4.108953555076763e-6
-0.00012765284490548473 -0.00010410395446000274 -5.3132229345712125e-6
-0.00012074233951036992 -0.00013875300618216126 -7.48112181515905e-6
-9.296254219141334e-5 8.611521266467321e-5 5.175783039371175e-6
-9.836963830745491e-5 6.99737960222315e-5 4.0491326616527445e-6
-8.714357541793977e-5 3.666332152012377e-5 2.159294522789273e-6
-7.645306176434381e-5 6.12103713918846e-6 3.637821690668375e-7
-8.818475551987822e-5 -2.215155662213129e-5 -1.4009365722580243e-6
-8.435504484710318e-5 -4.498656211141669e-5 -2.830242382041699e-6
-8.857618504117035e-5 -7.325072669371142e-5 -4.5016057931086984e-6
-9.875684909163775e-5 -9.808576063630608e-5 -5.741853283771297e-6
-9.513529824991105e-5 -0.00012196901539280664 -7.5104437295469095e-6
-6.595627705024984e-5 7.428228732846037e-5 5.3437437578540375e-6
-6.562205314661609e-5 5.112155146163644e-5 3.534278283180742e-6
-6.382045287555212e-5 2.9076334687429983e-5 1.9991493375446475e-6
-6.122438655341326e-5 2.02984911793612e-5 1.4147562087972521e-6
-6.548820780491671e-5 -1.6469418942450217e-5 -1.168161093375395e-6
-5.914457865187196e-5 -3.442296927131094e-5 -2.5535127396128486e-6
-6.256771885056111e-5 -5.466420736051601e-5 -3.961014091370079e-6
-6.516823686848436e-5 -7.489284826464029e-5 -5.437838799684803e-6
-7.251693626206814e-5 -0.00010474534371486855 -7.538064403049877e-6
-4.266217080997366e-5 5.316449326583004e-5 4.684775783218494e-6
-4.408026078159634e-5 4.2263247554574074e-5 3.58974807889094e-6
-4.295000857481779e-5 2.9003645765642298e-5 2.4489741632533486e-6
-3.6869706324556185e-5 8.337697311748169e-6 7.286834656036931e-7
-4.161107765168578e-5 -1.4947750811894393e-5 -1.32317733546471e-6
-4.2944815252241286e-5 -3.21613440811843e-5 -2.759793149287132e-6
-4.540686309842668e-5 -5.37005365716207e-5 -4.656511704710411e-6
-4.903891180120902e-5 -7.095370195416919e-5 -6.114366277787597e-6
-5.335866869815477e-5 -8.715608436846643e-5 -7.518809313394826e-6
-2.9183081299243963e-5 4.640793930314728e-5 5.092237437149704e-6
-2.8062137655520707e-5 3.4345175826355066e-5 3.6480767272075627e-6
-2.4587675771445543e-5 2.0390491568979027e-5 2.202502649340809e-6
-2.7702890180635998e-5 1.0699392353150066e-5 1.0562955719678926e-6
-2.3903303922893354e-5 -3.1292311883098515e-6 -3.923871531352437e-7
-2.63445532085501e-5 -2.9104364199622166e-5 -3.229832860883308e-6
-3.0283950442151307e-5 -4.469163469924751e-5 -4.812927569977662e-6
-3.350182804124812e-5 -5.703617669752471e-5 -6.120750339230433e-6
-3.759985002249813e-5 -6.966979148741386e-5 -7.492424726064775e-6
-1.9735448779850087e-5 3.984034511312972e-5 5.694137763812299e-6
-1.637993721368208e-5 2.668026477322204e-5 3.7378715244088707e-6
-1.2234161491121165e-5 1.393926120510003e-5 2.1120369875420933e-6
-8.746712786887621e-6 4.14513654100501e-6 6.705386747992056e-7
-1.0214673416218196e-5 -2.570831501802066e-6 -4.437138654246163e-7
-1.578297349737988e-5 -1.8965682434221755e-5 -2.674342587909233e-6
-1.6808736389172448e-5 -3.002247772382555e-5 -4.37885393243173e-6
-2.113487781963198e-5 -4.322913147988281e-5 -6.22118659017956e-6
-2.523216828560347e-5 -5.2443440863598285e-5 -7.510078720879066e-6
-9.035050834237524e-6 2.3717693112803446e-5 5.339109581623622e-6
-7.697908255496182e-6 1.9556212423732674e-5 4.151868659098627e-6
-1.539703600301571e-6 3.012543598226429e-6 7.824654601000416e-7
-1.8519868022870254e-6 -1.9320324892414013e-6 -5.621036259115341e-7
-2.8080486164947026e-6 -1.1337281165450902e-5 -3.197814819085105e-6
-4.2630779856295225e-6 -1.6142731354140554e-5 -4.70515400928938e-6
-1.2123438316037155e-5 -2.998579614736413e-5 -6.458750959795503e-6
-1.5900899803341154e-5 -3.55091582820288e-5 -7.619289401663956e-6
-3.0903800483292177e-6 1.1208084806901233e-5 5.380297655017773e-6
7.157345580549134e-7 5.401878666293542e-6 3.213063045808751e-6
1.4983134825023512e-6 3.6167515645967007e-6 1.8488192482274168e-6
1.9992755515986897e-6 3.243005108536551e-7 1.5617833354964802e-7
1.8265079860137623e-6 -2.5719360495276783e-6 -1.4060948501223737e-6
1.1466712538322685e-6 -5.5383928743058725e-6 -3.0586294565063977e-6
-8.493042285026629e-8 -8.078122236773403e-6 -4.572970533202405e-6
-2.176973222336263e-6 -1.0749276291584895e-5 -5.921715879437589e-6
-7.433973379853366e-6 -1.7320353441930627e-5 -7.33469320296381e-6
-0.0012283119814612126 -0.0016969578204099889 -4.34580609671491e-8
-0.0012282396059958907 -0.0015520301156160352 1.6351034969005438e-7
-0.001226782539678489 -0.0014054559736415304 7.273182112383988e-7
-0.0012228503101195018 -0.0012583092910484566 1.5302580566480565e-6
-0.0012160468119496348 -0.0011122517750607685 2.3003808651517277e-6
-0.0012100416716632238 -0.001016102736119821 2.8190142132066547e-6
-0.0011986965023986858 -0.000874591386425111 3.6094133516904546e-6
-0.001184811868077993 -0.0007374235781177201 4.28920355600588e-6
-0.0011687974750087897 -0.0006056393993034533 4.833419904520839e-6
-0.0011571912921955253 -0.0005213907593851128 5.079687479316798e-6
-0.0011390808119293083 -0.00040101018257334553 5.17504717152391e-6
-0.0011213185728853356 -0.00028823039575889077 4.852786452032258e-6
-0.0011054813854654336 -0.00018263101485261384 4.085438376506616e-6
-0.001092909023617125 -8.269467307495442e-5 3.035635223871289e-6
-0.001086754764945046 -1.8211950493346667e-5 2.2136896315295924e-6
-0.0010810922922585976 7.727328751865787e-5 1.0337341015659661e-6
-0.0010790737611917904 0.00017355744982354136 2.148883328248976e-7
-0.0010789725817509017 0.0002721562820255908 -5.762214301359871e-8
-0.0010458194819612165 0.0003053758915394594 -5.833999951881333e-8
-0.0009453094837803165 0.00030527595673961655 2.1655047373484818e-7
-0.0008424430663153159 0.00030325410759713203 1.035834043636921e-6
-0.0007386193267414367 0.0002975214349637415 2.2645796979019463e-6
-0.0006363355059809785 0.00028717921552805345 3.6230982768585613e-6
-0.0005702681628783702 0.00027769294220481526 4.487957426251781e-6
-0.0004761429254383673 0.00025987388767888774 5.624744138091013e-6
-0.00038968790262023826 0.0002386153279566013 6.446744397503329e-6
-0.00031208501355522354 0.00021500841662003164 6.954261013145869e-6
-0.00026553365131996913 0.0001985497017913802 7.127634301976468e-6
-0.00020344549492824022 0.00017330824127285985 7.2271162614420235e-6
-0.00015036555360598624 0.00014790393115081486 7.2310569378708634e-6
-0.00010594783444210373 0.0001225661076432093 7.213992397012248e-6
-6.998526504984008e-5 9.737945394086808e-5 7.186745936631162e-6
-5.0665522271000085e-5 8.06666065243451e-5 7.127173362182266e-6
-2.8542316353740227e-5 5.579563252933624e-5 7.013797777318503e-6
-1.4148988376811812e-5 3.157894238128073e-5 6.992138423651568e-6
-5.477614023713024e-6 8.937884854843436e-6 5.565458931492324e-6
0.0 0.0 0.0
0.0 0.0 0.0
0.0 0.0 0.0
0.0 0.0 0.0
0.0 0.0 0.0
0.0 0.0 0.0
0.0 0.0 0.0
0.0 0.0 0.0
0.0 0.0 0.0
0.0 0.0 0.0
0.0 0.0 0.0
0.0 0.0 0.0
-0.0003625362014578835 -0.00028455805249226956 -1.5668453760882733e-5
-0.0003245713677390575 -0.0002601204183544724 -9.768242982660395e-6
-0.0002834522477481133 -0.00023964095549815974 -8.38096842111244e-6
-0.0002240709616493002 -0.00021066406179955202 -8.127436967441045e-6
-0.00018777185308279818 -0.00019155456723433467 -8.165690264255297e-6
-0.00015456588408181883 -0.00017241547495088934 -8.191240624629378e-6
-0.00012468704645205895 -0.00015316652076293252 -8.230936503204034e-6
-9.825139410779947e-5 -0.00013385514105771485 -8.25207100715842e-6
-7.534112190637995e-5 -0.00011449506831200427 -8.255983111482277e-6
-5.596147107962638e-5 -9.514744804751469e-5 -8.240616972953206e-6
-3.341829710802744e-5 -6.626274582816352e-5 -8.172188162966537e-6
-2.2473520756173924e-5 -4.7272113727659916e-5 -8.171123351082797e-6
-1.4108419853173095e-5 -2.8909496061951055e-5 -8.239720316300657e-6
-7.222357430129656e-6 -1.106559169625804e-5 -6.754928616785065e-6
-0.00023488400719829148 -0.0017411866003932887 4.5561039294200565e-7
-0.0002486878776665795 -0.0016165488093315482 -4.568335198271303e-6
-0.0002578843717598046 -0.0015091310566843362 -3.7937377413893266e-6
-0.0002684532465742482 -0.0013564979839260837 -2.796126837889376e-6
-0.0002746698604752184 -0.0012572084364143772 -2.651599042566082e-6
-0.0002808647734286255 -0.001159277504507624 -2.6982193673936627e-6
-0.00028734071708793333 -0.0010625873313555808 -2.8615602967292727e-6
-0.00029427654239128586 -0.000967153104884833 -3.072214400206266e-6
-0.00030173747078446843 -0.0008729762800448927 -3.303099630334637e-6
-0.0003097943020589031 -0.0007800646205930629 -3.557526577425864e-6
-0.0003231203768615523 -0.000642841581234016 -3.970696156989777e-6
-0.0003330959796772156 -0.0005522068186701001 -4.429499865539429e-6
-0.0003447088859063711 -0.0004605908442692741 -6.013975438354044e-6
-0.00036073779689571833 -0.00036252512691962974 -1.2939192214729143e-5
-0.0003025248121623839 -0.0018216322064859656 6.5511598018637545e-6
-0.0004164057072383032 -0.0017890931554740662 9.019228237769128e-6
-0.00046700586499302766 -0.001778495276803768 7.196254010984847e-6
-0.0005644363234676473 -0.0017654338576969966 4.58236181887456e-6
-0.0006597947913622363 -0.0017570378114839858 2.9474634648269068e-6
-0.0007070907924166671 -0.0017540182857785466 2.4398271142533046e-6
-0.0008011305510521537 -0.0017493201286027267 1.5333980225278244e-6
-0.0008949805541767973 -0.001746652735028335 8.08041932514419e-7
-0.00094205441661627 -0.0017458687879867557 5.444997201841106e-7
-0.001036695599881976 -0.0017450851681489997 1.6774347785450288e-7
-0.0011321896944173928 -0.001744978640976573 -1.0139495794286382e-8
-0.0011802123765874352 -0.0017450088877897496 -4.373456494354913e-8
-0.001179537937527704 -0.001696432577694867 2.8084432038517854e-8
-0.0011314415479671473 -0.0016965028478007332 9.643438669241216e-8
-0.0009433592567818825 0.00027037290517829517 4.0359863393565425e-7
-0.0008737795588195666 0.000269249380709625 8.385781281898231e-7
-0.0008396069839884118 0.0002693504926561892 1.1087357666062977e-6
-0.0007701790706941963 0.0002668389363177024 1.7706397681107367e-6
-0.0007365677185207806 0.0002634261021396334 2.1090552024251235e-6
-0.0006707076043910369 0.00025627440756039143 2.8224915725883436e-6
-0.0006368561355498095 0.0002523332562096152 3.1707409418073153e-6
-0.0005700726821162335 0.00024496488327515383 3.9038699056921475e-6
-0.000203402911734663 -0.00018130308684422588 -7.377443921974272e-6
-0.0003416109000307405 -0.00025227696100030804 -1.099258591914626e-5
-0.0011781822870201358 -0.001599776717833069 1.824496524836876e-7
-0.0011767708396857866 -0.0015511156087074517 2.9384883438171583e-7
-0.0011729327071702033 -0.001452046742893997 5.931482263588919e-7
-0.001176253409819221 -0.0014031129693425175 7.6773807778004e-7
-0.001175795979545311 -0.0013066353292362294 1.1911827178537112e-6
-0.001171669089009351 -0.001259539382940187 1.3974093107626895e-6
-0.0011484617378374365 -0.0011579326738059945 1.7869574242893064e-6
-0.0011572953951060783 -0.0011021049179289625 2.0775961880661147e-6
-0.0011673992334011718 -0.0010068089096411483 2.5974483483968044e-6
-0.0011286835643660495 -0.0009278152302092572 2.7358126647487584e-6
-0.0011423892500702982 -0.0007844902944303976 3.542970978792882e-6
-0.001134481794137588 -0.0007383235372192218 3.6875091796695425e-6
-0.0011300000142846214 -0.0006479242331460967 4.051602054963275e-6
-0.0011126664009794016 -0.0005182259441326262 4.356128352121911e-6
-0.001106195549257274 -0.00043797626744040643 4.499433607041796e-6
-0.0011017955418702338 -0.0003996227059621887 4.500842129499757e-6
-0.0010919855331678293 -0.0003265668235578616 4.377583494259631e-6
-0.0010875371767318073 -0.0002914024509385728 4.255898120705721e-6
-0.001076311148700244 -0.0002211122269685837 3.849687454575184e-6
-0.0010684488374773152 -0.0001865941825118031 3.5550308846587727e-6
-0.0010580100120305986 -0.00011824458785220599 2.9879506864216023e-6
-0.0010565658451984884 -8.42088989866046e-5 2.6922801775860494e-6
-0.0010538381694507343 -1.9434229804401044e-5 2.0541780515560723e-6
-0.0010512137258658592 4.340771092435456e-5 1.407634303691355e-6
-0.0010460531250018445 0.00013872421157945657 5.958526592641438e-7
-0.001044382851404209 0.0001709783988374632 4.0855360112391714e-7
-0.0010442631655780412 0.00023745753474317062 1.422327469683215e-7
-0.0010449058291020332 0.00027127336094077606 4.233929305089948e-8
-0.000977501233985069 0.00027063232219095174 2.508189346843441e-7
-0.0005061086679238961 0.00023535306708708653 4.571356033292752e-6
-0.00047528532140649385 0.00022956387934279707 4.8628200142309395e-6
-0.0004169860384203641 0.00021727429559005213 5.356425743306183e-6
-0.0003893951871450206 0.00021160545765620505 5.571626878011767e-6
-0.0003361426535190692 0.0001985261793182492 5.922024709122627e-6
-0.00026378075314211033 0.00017555346514439395 6.173510447832136e-6
-0.00022126272947021075 0.000163065341188858 6.375473645546232e-6
-0.00020195325411715188 0.0001560691351619523 6.4222954700051205e-6
-0.00016649097947327008 0.00014135924852585715 6.447985149288006e-6
-0.000150152786795755 0.00013402325297571886 6.449234031149151e-6
-0.00011995495427859763 0.00011836487833172093 6.380644541514726e-6
-0.00010572477307225216 0.00010962514610214307 6.297749463161713e-6
-7.970430525064531e-5 9.339731702262598e-5 6.222784234879316e-6
-6.80696867712777e-5 8.617477383476908e-5 6.246332460704816e-6
-4.8615222750447964e-5 7.241476850728282e-5 6.315862511436795e-6
1.7378057454625883e-6 -1.3788897208244062e-6 -1.2147026898690502e-6
1.352993528134676e-6 -2.899458711644329e-6 -2.544989325883374e-6
5.953064425545144e-7 -4.217791217919782e-6 -3.7507119642199233e-6
-3.1303795366774505e-5 5.262018472971131e-5 5.723702283553786e-6
-2.6751039668434135e-5 5.1153054621445757e-5 6.360498786108494e-6
1.7095857274782646e-6 9.030410868172733e-7 7.851242170325545e-7
-1.582218350508601e-5 3.548351384913152e-5 6.246006853264832e-6
-1.1525387814689263e-5 2.7808999830750197e-5 6.225721343433924e-6
-5.395470807355092e-6 1.3707123523578931e-5 5.993540666204685e-6
-2.6520152064035228e-6 6.7248023480921996e-6 4.96863172242343e-6
-1.3101049683842707e-7 4.558969777046383e-6 3.882926910890531e-6
1.2745804178001031e-6 2.2357617160777194e-6 2.011394973160389e-6
-6.634948371788873e-7 -5.657467272082367e-6 -4.903606747346039e-6
-0.00031083391235429747 0.00019008537343484383 6.004816874940676e-6
-4.5061747158474644e-5 -7.840868061463071e-5 -7.505317887834846e-6
-6.25204134377393e-5 -9.597389354141577e-5 -7.53303604605143e-6
-0.00036556481454840575 -0.0006823309500447212 -3.630273133230446e-6
-0.0004188975577064572 -0.0017353084528328679 5.418342320730537e-6
-0.0005617415218001734 -0.0017255512743762317 3.969539063872178e-6
-0.0006532859511065432 -0.0017061861354738521 2.6377284457674334e-6
-0.0010361336424966694 -0.0016968623629893826 2.960919979763036e-7
-0.0008930475020423514 -0.0017007825902949567 8.56510333324688e-7
-0.0010497837916788391 7.485556968872037e-5 1.103977833850931e-6
-0.0011243092926859278 -0.0006033514724562435 4.178550819005665e-6
-0.0011594862154063802 -0.0008773460061412175 3.234858834966755e-6
-0.0003132810458800904 -0.0016119901786144138 -1.731903071351308e-6
-0.0008093043406126283 -0.001674261306445182 1.288525297082057e-6
-0.0007055752332400144 -0.0016864567817082383 2.0698828308166724e-6
-0.001179093449535705 -0.0016482913182428699 9.741288043397536e-8
-0.0011744859861690822 -0.0015014394723160867 4.369451072669899e-7
-0.0011775370955999156 -0.001354702873993513 9.739819566809187e-7
-0.0011675458638654593 -0.001211802741240817 1.6034247484494342e-6
-0.0011606233804853418 -0.001051773478948971 2.3369885477443762e-6
-0.0011420276520843185 -0.0009598932026665707 2.668865778824451e-6
-0.0011511442893369702 -0.0008313880036708523 3.393620009060463e-6
-0.0011324022829861955 -0.0006927017065288772 3.8655095420833385e-6
-0.0011162940277001628 -0.000560198379125279 4.260584246678357e-6
-0.001109787812062489 -0.0004774427193888549 4.44884946537007e-6
-0.0010968938312274146 -0.00036226633054329925 4.455867383339468e-6
-0.001082554049569073 -0.00025621242833010806 4.085597591994956e-6
-0.0010609583972374548 -0.0001528198649190521 3.262028705570015e-6
-0.0010552520603215386 -5.14296125412979e-5 2.3790250534020075e-6
-0.0010525426852833564 1.2050873716977324e-5 1.7277363171777578e-6
-0.0010479677078451069 0.00010660023314542314 8.286362102952534e-7
-0.0010438982888775362 0.00020387743776314338 2.6097794723580134e-7
-0.0010111810473963788 0.00027083415432762416 1.3767161288676426e-7
-0.0009084424231207614 0.0002698596960232341 6.025518429898186e-7
-0.0008051900282415825 0.00026902823128227045 1.420186539593599e-6
-0.0007036956187487074 0.0002622626575024005 2.466842267309264e-6
-0.0006030989909616937 0.00024887532692909834 3.542363960457457e-6
-0.0005377096560256898 0.00024051301857769215 4.249957344196516e-6
-0.0004455305989060712 0.0002234140163298889 5.120504066199416e-6
-0.0003623639569965889 0.0002055528133369623 5.770902738361773e-6
-0.0002869342647940753 0.00018153127156125156 6.0646333324370865e-6
-0.0002418129118172767 0.00016955867463650111 6.292194241392518e-6
-0.00018375794697763454 0.00014880823845238853 6.443887282739033e-6
-0.00013469741161199045 0.00012645895492360997 6.4305406056616084e-6
-9.25007362997764e-5 0.00010093068380816376 6.229137032435846e-6
-5.7799023801611364e-5 7.916921324959326e-5 6.281078362068751e-6
-3.81478120360138e-5 5.810120652224428e-5 5.632698830020178e-6
-2.097544588160997e-5 4.343828534814553e-5 6.310602065533961e-6
-8.118547466704109e-6 2.0623977193459982e-5 6.227321543285747e-6
-1.1132326988987467e-6 5.614211144842097e-6 4.5130060642818475e-6
5.079144675364502e-7 3.6134283427940787e-6 3.207160226175573e-6
9.273204760360531e-7 2.8413491949780496e-6 2.5711085294831063e-6
1.5788895592104879e-6 1.6695996228372313e-6 1.4650429936092146e-6
1.7300452351375442e-6 1.4433684779624507e-7 1.1938191798886797e-7
1.755587197722508e-6 -5.965154833965514e-7 -5.383514589570596e-7
1.5970406200726075e-6 -2.1559731006987433e-6 -1.887624199209028e-6
1.0155247696593931e-6 -3.5692297179840704e-6 -3.158308197395091e-6
6.188221626944962e-8 -4.872573057885518e-6 -4.318619431561625e-6
-1.7734407908337362e-6 -6.7824842790825045e-6 -5.532438402976428e-6
-3.100745089117578e-5 -6.103531914524468e-5 -7.493348644249695e-6
-2.0242021051338248e-5 -4.394688988097361e-5 -7.556781120703708e-6
-0.0003151125728855662 -0.0013989007292101615 -2.3416504655970157e-6
-0.00032338535335896577 -0.0012999589984119724 -2.259811657827268e-6
-0.00032895456690542073 -0.0012015141830614379 -2.3196724015054412e-6
-0.0003328210574725479 -0.00110542323608889 -2.4796200793983084e-6
-0.0003427354800511311 -0.0010091760323101425 -2.656988848961829e-6
-0.0003498022940995505 -0.0009129045481199267 -2.880542295713432e-6
-0.00035326098809389733 -0.0008197322348008297 -3.1648755463498415e-6
-0.0003944851190249075 -0.00040684746822674715 -8.272526620590754e-6
-0.0003657360486229622 -0.0017370242005636074 4.4074294535005265e-6
-0.00046812589014750465 -0.0017327388460244059 5.378542860550393e-6
-0.0005154874720909848 -0.0017300551807631114 4.724357408105636e-6
-0.0006070330282411975 -0.0017179820568677575 3.2736774815631507e-6
-0.000759256799455594 -0.001698820891213422 1.7353252580945779e-6
-0.0008427703694147633 -0.001664728251236726 1.1106048374980944e-6
-0.0009393771117064973 -0.0016956195938817704 6.456783581138815e-7
-0.0009877538986183489 -0.0016961721225002568 4.570455616272243e-7
-0.0010837560536590774 -0.0016968454989197222 1.802042005186073e-7
-0.00016568650420683214 -0.00016382732810124988 -7.414287443459816e-6
-0.00031586754770363456 -0.0015015625179869688 -2.361834977436831e-6
-0.00020433395591316266 -0.00016347042416474364 -6.690450488058114e-6
-0.0003397401501398507 -0.00022866730254917741 -9.659925480730416e-6
-0.0004066585651999899 -0.0007233566572040943 -3.224173833319538e-6
-0.0004336325870012482 -0.00040097146564759136 -7.468101120435576e-6
-0.00037554114647537384 -0.0016136398111175501 3.138317536619956e-7
-1.0564910194195768e-5 -2.6122392372627863e-5 -7.138228059667211e-6
-0.0003717570575613601 -0.0014901415767338908 -1.310509195248985e-6
-1.817147535367556e-5 -4.035382960429475e-5 -6.951543070124224e-6
-0.000399716611847773 -0.0008129528054119212 -2.9106937804130495e-6
-0.0001713350591612924 -0.0001515758322894352 -6.768552400207217e-6
-0.0003640125986378128 -0.0013915691694545076 -1.7690070220257523e-6
-2.8824563353560006e-5 -5.559704528573859e-5 -6.825787308048405e-6
-0.0003998091030441243 -0.0009031410345894257 -2.602767432080889e-6
-3.778910895085342e-6 -8.435481238174532e-6 -6.197104564162748e-6
-0.0009757650423677537 0.0002364012046842923 4.015290185478572e-7
-0.0004046500720211399 -0.00030860300886316114 -1.3723019061690093e-5
-0.00042227835687286746 -0.0016794872932075797 3.1961588324115277e-6
-0.0011224567264987966 -0.0015030227496279716 5.162248320722225e-7
-0.0011245291960485133 -0.000987610325394268 2.4126048480346362e-6
-0.0010867999889018639 -0.0006883711771418535 3.3271937939200306e-6
-0.00105882223989697 -0.00036200597443281616 3.8020214576928814e-6
-0.0010200185788167642 1.1000985455049837e-5 1.6331924341627036e-6
-0.0010084006824279638 0.00020193707108877009 4.235148147287065e-7
-0.0009056529073959992 0.00023640114358378076 7.330198008529924e-7
-0.0005372871040555323 0.0002101990815621912 3.6609212899571714e-6
-0.00036208948596722453 0.00018095896003699158 4.963835931987938e-6
-0.00018286787507148467 0.00013240812596106646 5.669494631574105e-6
-3.527825421032784e-5 5.012325655096368e-5 4.932240088872463e-6
-5.604404512723099e-6 1.7149916821237223e-5 5.542109863988082e-6
-0.0003778021057728182 -0.0002686307930079877 -1.4513953291277317e-5
1.2117334469144726e-6 4.331773812666469e-6 2.5309382141638455e-6
1.8413460887945838e-6 1.7209597579446539e-6 9.113789215942625e-7
-3.9409148467893344e-6 -1.2690296389703462e-5 -6.533735697310976e-6
-0.0009895801593719138 -0.0016495281806708057 5.24930594308348e-7
-0.0010835647375919894 -0.0016495457936609242 2.8227047799202554e-7
-0.0003751434041412386 -0.001297011182321903 -1.8397972433517635e-6
-4.284188793475529e-5 -7.12320835482945e-5 -6.8073421954465125e-6
-0.0003928010506375564 -0.0010082756574570095 -2.345594444031317e-6
-0.0003770852406157222 -0.0011930348737806164 -2.0152762473805977e-6
-6.006164740121341e-5 -8.701238078271116e-5 -6.832732102681477e-6
-0.0003804029945264756 -0.0011009485424492145 -2.1986980142726108e-6
-0.00040564038894453877 -0.00027202114508574545 -1.2673891854018553e-5
-0.00043825870813136205 -0.0003127973396090313 -1.0448406928682793e-5
-0.0003807920194195462 -0.00023880759190237038 -1.1305325454491129e-5
-7.954209084671926e-6 -2.0658059583743553e-5 -7.124637358295191e-6
-0.0005365646002563983 0.00018124487404176448 3.1093860779790926e-6
-0.0009871897219520974 1.0706313667843515e-5 1.5231962073201715e-6
-0.001063029198572455 -0.0009964308050011018 1.9791067303931888e-6
-3.180249609838109e-5 4.206262169071007e-5 4.27067335585162e-6
4.3333539971663944e-8 4.456238782626568e-6 1.5519815785321878e-6
-0.0003590605764452724 -0.0002348727780561244 -1.077330122613309e-5
-0.00018749812177029852 -0.0001517929056651906 -6.481534338667739e-6
-0.0004025184217402345 -0.0007686048983215392 -3.0599844924008367e-6
-0.0004369758609964672 -0.00035570417595901747 -9.166546589384309e-6
-1.403782010395747e-5 -3.30336733369258e-5 -7.060540341188649e-6
-0.00039000528717015134 -0.0015483858754613976 -4.710819164801857e-7
-0.0010745332369907494 -0.0015126305269679671 5.556589557673179e-7
-1.8768743528533093e-7 7.772586560850077e-6 3.370854030553656e-6
-0.0009955516499631095 -0.0016085943710519859 5.56920952517824e-7
-0.0009050401385177852 0.00020671790007147404 7.99496038903282e-7
-0.0010208362514349447 -0.0003636699853243994 3.181442081643058e-6
-0.00018192946014465263 0.00011582431237090495 4.902634167019938e-6
-0.00015994594770684113 -0.00014730002795463432 -6.789815611771524e-6
-0.000398239214391113 -0.0008574952791730977 -2.7658034120568075e-6
-2.3110086262255216e-5 -4.795676507547566e-5 -6.875311981311881e-6
-0.0003647208223982597 -0.0014394482363395177 -1.6456481595979077e-6
-3.543614064414224e-5 -6.343496651217755e-5 -6.811000307410289e-6
-0.0004085285730655851 -0.0009539139995557216 -2.4025159500420195e-6
-0.0003679583929883612 -0.0013447647306366283 -1.8165575381421218e-6
-0.0002224691118050482 -0.0001921771477514233 -7.488970496456553e-6
-0.0003885083380114659 -0.0004537776741675337 -6.265365826057723e-6
-5.106085136592437e-5 -7.914453252843167e-5 -6.8214539367011e-6
-0.0003848194719589583 -0.00105591382276275 -2.277483097388489e-6
-0.0003863031746454119 -0.0012441336704635444 -1.861418645412192e-6
-6.729507720669431e-5 -8.491911111878737e-5 -6.1479519442344575e-6
-0.00037720136467930826 -0.0011467620585756471 -2.117855402778709e-6
-0.0010829428574540842 -0.0016031146857621156 3.7372938959953226e-7
-0.0010454765018790598 -0.000674508336489374 2.895892078715604e-6
-0.00036122026695718665 0.00015759159214344428 4.22129127594552e-6
-0.0009730672586062206 0.00020186202977193755 5.510578277235886e-7
-3.1831233535298733e-6 1.3348339516309454e-5 4.8101527300251446e-6
-0.0004187026395727789 -0.001183264046994815 -1.7742790209474165e-6
-0.00042717875046897473 -0.0010982299013988363 -1.916542060474426e-6
-8.760574387862554e-6 -2.3831258105469217e-5 -6.608444877980037e-6
-0.0005061276986880323 0.0001780442373178407 3.323893446942363e-6
-0.0009872088996715116 4.0358800221885624e-5 1.339977015623998e-6
-2.649698784301439e-5 3.975246547951139e-5 4.47274822925898e-6
-0.001034155081407961 -0.0009376691043257352 1.958777670044201e-6
1.3211635433813295e-8 6.522961707003369e-6 2.527446840534031e-6
-0.0002058154000939385 -0.00014619647090562119 -6.030594888589303e-6
-0.00033931274627060914 -0.00020303886399998633 -8.439678892995157e-6
-0.0004513881993658817 -0.000720440178147393 -2.957189600766298e-6
-0.0004707284307958581 -0.00039715255154187636 -6.620019544805296e-6
-0.0010806323792242 -0.0015577534378075316 4.633536740801314e-7
-0.0010381105454107314 -0.0016067408202364618 4.637849928030238e-7
-1.3859058374176491e-6 1.0169530854137724e-5 4.072774486557151e-6
-0.000939473014179689 0.00020605152499201396 6.534860684587221e-7
-0.0010265173970817434 -0.00039749377370245726 3.264268943468422e-6
-0.00019902762033786287 0.00012143971963734624 4.8885816076208006e-6
-0.00017219098581442243 -0.00014001249039363565 -6.257516868373197e-6
-0.0004454218390178396 -0.0008065483107749787 -2.6464607507236932e-6
-0.0001313807640046184 -0.00013237206786184178 -6.749928538192588e-6
-0.00042036344613944384 -0.0014701751480364063 -7.444355861207309e-7
-1.624229322771946e-5 -3.6528117631673845e-5 -6.327265413042732e-6
-0.00041150909449895473 -0.0013854256299714977 -1.2754442587143992e-6
-2.6909870520603833e-5 -5.014480600462836e-5 -6.160889912098056e-6
-0.0004444507165384169 -0.0008878734829341569 -2.380457087537549e-6
-0.00038415847095750076 -0.0004999227686444383 -5.1412608906595604e-6
-0.0004366359399270003 -0.0012597965910096146 -1.4605485345200165e-6
-0.00043651283433136643 -0.0010156204022866867 -2.0433243571363763e-6
-8.040699332203743e-5 -0.00010249030825605344 -6.824777419324497e-6
-0.0004735609824164033 -0.0003152831089331044 -8.127532338426126e-6
-0.00038282858690505465 -0.00020959532482688918 -9.037370661005236e-6
-0.0011298719116601284 -0.0016009804750914262 2.828381203550045e-7
-0.0010165363621439383 -0.0006248088580622708 2.658089929898396e-6
-0.000324924318486333 0.00012747899644391288 3.622465458965206e-6
-8.590233439036939e-8 6.967702972158333e-6 3.944583417037051e-6
-9.732209344058293e-7 -9.317445378227988e-6 -5.2642066687330735e-6
1.999493821018688e-6 -1.0309757336869299e-6 -6.038903388420447e-7
-0.0007800183162028389 -0.0016455230271109837 1.3961549208041517e-6
-0.0010324774690865502 -0.0001941462834280831 3.103602161577693e-6
-0.0007692219692074436 0.00023651434424392363 1.66586481017868e-6
-0.001129971365961747 -0.0013084477266289522 1.1145751129826618e-6
-0.000107435251170908 9.780852404932021e-5 5.471495728219204e-6
-0.00040830185124798477 -0.0002108203782956383 -8.566524721046418e-6
-0.0004726990597555148 -0.00027771726480879986 -8.044048622825455e-6
-5.579203148101908e-5 -6.856990649236372e-5 -5.40612346045597e-6
-0.00047609266229107084 -0.0013039395710956172 -1.0334351844368105e-6
-3.923372237238636e-5 -5.6752392112656805e-5 -5.412805244659838e-6
-0.0004895876291929996 -0.0009935500631796043 -1.7788339873475715e-6
-0.0009669427790418217 0.00016378450535911205 7.244947495169596e-7
-2.5226224141318724e-5 -4.4741037559479246e-5 -5.510777732863393e-6
-0.0004845356847250137 -0.0008775869715274374 -2.153059987738596e-6
-0.00047957912104080417 -0.0016373405654317012 2.480632625795815e-6
-0.00020772706044043467 -0.00012903426063970075 -5.366544851045027e-6
-0.00033935779492202196 -0.00017718826784849618 -7.21727174707803e-6
-0.0004957865639085717 -0.0007186596592458793 -2.650472682765457e-6
-0.0005078161610241853 -0.0003965725047660397 -5.639203345874931e-6
-0.0004735902494561053 -0.0010988770252547814 -1.6212377502843244e-6
-0.00042816478098387363 -0.0004919030047407049 -5.1076478740445275e-6
-0.0004922760121614186 -0.0008013799564121967 -2.350554932050798e-6
-1.449514790316182e-5 -3.2627775007021345e-5 -5.700901803362217e-6
-2.837397376834467e-6 -1.381723322639964e-5 -5.495760986323081e-6
-0.0005224826229995222 -0.001646712883112425 2.739576017265285e-6
1.0905587883352573e-6 -1.0271415840704235e-6 -4.4289528881097394e-7
-0.000779088720817434 -0.0015910740141888233 1.2316288633367508e-6
-0.0010014064572947251 -0.00020841247032489881 2.7449798264509005e-6
-0.0007731887468621019 0.00021500600052309644 1.5320835443095841e-6
-0.0010952416403964794 -0.0013143291048074515 1.0360570971298546e-6
-0.00011214421798486203 8.886742604105191e-5 4.814177873884954e-6
-0.00047672024234770286 0.00017316543032861267 3.4910049109999007e-6
-0.0005349867902376691 0.00015374575607029171 2.5957902241998865e-6
-0.0009863131817490086 6.950029894871617e-5 1.161977897716539e-6
-0.0009537292438456144 1.138322709475844e-5 1.4013750498831278e-6
-0.0010211881041494461 -0.0009788089350336532 1.756697215013509e-6
-3.321189466720328e-5 3.48634776736558e-5 3.366606148486934e-6
-2.3906472666236017e-5 4.199574880250499e-5 5.171066811481836e-6
-0.0010781611801315458 -0.0008940832549642965 2.446882074073085e-6
-1.696407893671813e-6 4.863263756312598e-6 1.31707314072597e-6
-0.0004674429871450467 -0.00043897483795857597 -5.703841850574191e-6
-0.00022337428031053236 -0.00015676252111609333 -6.257258396980592e-6
-0.00031934978812792487 -0.0001977095549953377 -7.8703156602722e-6
-0.0004115832127273803 -0.0006779807858887252 -3.415458898080688e-6
-0.00043075855597379326 -0.0016255757977957127 1.7323561361692074e-6
-3.1153226936700836e-6 1.2872402122811788e-5 3.859276929267949e-6
-0.0009087509155635093 0.00018583275110384658 8.169386524231678e-7
-0.001028322823412042 -0.0004312447186578097 3.2459830733419233e-6
-0.000216632127383036 0.00012625632443698863 4.839277607447897e-6
-0.0009919935242150965 -0.0003706987964951948 2.742761957251617e-6
-0.00018072622489476726 9.913187312622808e-5 4.143919279277436e-6
-0.00014327666487416588 -0.00012499329828436544 -6.072894499881268e-6
-0.00013503192963645143 -0.0001475328761400909 -7.476829544601084e-6
-8.335787064568082e-5 -0.00011339875107452877 -7.529654959180521e-6
-7.718663947466299e-5 -9.149792663139665e-5 -6.143258276598353e-6
-0.001056863498333534 -0.0006112845278855932 3.2084964309013377e-6
-0.0003180805570579846 0.00014566910603526563 4.307303894324448e-6
-0.00034078753369135814 0.00013342686230805926 3.664206594662695e-6
-0.0004709298922090014 -0.00024331623846150923 -7.417303433318821e-6
-4.09318986421214e-5 -6.40698538716054e-5 -6.113735681776294e-6
-0.000452920392704012 -0.000977117713393115 -2.051836919005554e-6
-5.778634707710123e-5 -7.793244704098275e-5 -6.1320933705968436e-6
-0.000995046096314403 -0.0015695347296356603 6.058441000208471e-7
-0.0009736272956422531 -0.0006995715755483447 2.0210851204521502e-6
-0.0003437855980767952 0.0001137113512684667 3.0089061944311083e-6
-0.0005380961684792573 -0.001609673599772523 2.097992826656425e-6
-0.0001642693420817749 9.414603908741232e-5 4.150686014176674e-6
-0.0009687710744103181 -0.00035230020886089754 2.408343887692813e-6
-5.210627399645185e-6 1.4842804296444764e-5 3.5073835633144973e-6
-3.996199991271285e-6 7.443217563035354e-6 1.6552986523486015e-6
-0.0009544088678488886 -0.0015743790269379088 7.046017191023385e-7
-0.0010629581815413877 -0.001470804381929626 6.441492249729801e-7
-0.000979298938932568 -0.000965566104125637 1.494149440804437e-6
-2.961464721479206e-5 2.861832471426598e-5 2.9037978632870396e-6
-0.0009190767834578877 1.3229181869056509e-5 1.2699233701433876e-6
-0.0005321731767359326 0.0001272908494029358 2.103783424039775e-6
-0.000992235281130747 -0.0015329342257124998 6.462576978182063e-7
-0.001031115904003854 -0.001523819040215673 5.981257392733755e-7
-6.36676443893733e-5 -6.485913957054892e-5 -4.710736141990768e-6
-0.0004895342234857778 -0.0012251595082665647 -1.201561591709483e-6
-4.719551187484985e-5 -6.263056010326604e-5 -5.404258334482827e-6
-0.00048575868821772877 -0.0010529670155269696 -1.6545163781530772e-6
-0.0009785406492181768 0.00012930337151195444 8.396275743976563e-7
-0.0004748712405636459 -0.0015341470358938036 5.587820946759415e-7
-0.0003608749039171533 -0.0001796711598553624 -7.399546211275415e-6
-0.00019053475233942393 -0.000118174863832871 -5.0896198642871505e-6
-0.0004941758843130078 -0.0007606669132420239 -2.4884613453629365e-6
-0.0005109166753837749 -0.0003562629576581041 -6.1242673302261195e-6
-6.983897375670528e-6 -2.1177365680357235e-5 -6.0349054360230285e-6
7.555771935929886e-7 1.996236161920261e-6 7.119584146066176e-7
-0.0008486747578874501 -0.0015711113113030806 9.901647709840437e-7
-0.0009755103822035461 -0.00022301575707790944 2.419701719323191e-6
-0.0007967508473210829 0.00020989126760088356 1.3821324983886058e-6
-0.0010823764015908104 -0.0013493442271791786 9.356725123742914e-7
-0.00011610716266271121 8.252477380393259e-5 4.358084799527536e-6
-0.0005683755737944774 0.0001830871833754493 2.8638845155107347e-6
-0.0004753525907651278 0.00020052752573357496 4.1554581285962375e-6
-0.00047987998394763426 0.00014785502898345684 2.87320280183789e-6
-0.0009544105229421022 6.726890915892155e-5 1.1571034636919404e-6
-0.0010180362798237867 7.226357723544238e-5 1.1445599384134916e-6
-0.0009868118536206503 -1.9165509519154326e-5 1.7041863628361596e-6
-0.0010708849234518985 -0.00104864763157433 1.815909667017618e-6
-3.786775586174399e-5 4.327978806640816e-5 3.974962086199516e-6
-2.211990264962822e-5 3.710674328407425e-5 4.63427153149183e-6
-0.0009937451575483833 -0.0008922217524176584 1.7592158967780367e-6
-2.5265325311321595e-5 4.6558227099702525e-5 5.747057349383384e-6
-0.001118579198270748 -0.00088471576277628 2.8375549720941823e-6
-0.0009902066277171946 -0.00042641328489310184 2.6643136427930827e-6
-0.0001973663760421132 0.00010405115003560504 4.138062121332543e-6
-0.001005865542768393 -0.0003283996242071764 2.9589289027493177e-6
-0.0001652794062295146 0.00011034121695042019 4.920786901209876e-6
-0.001084599426785517 -0.0006044707580362614 3.6074276338264917e-6
-0.001067176345598443 -0.0004350333897752946 3.858649903576116e-6
-0.0003120913036105197 0.00016617800783524735 5.104669427228299e-6
-0.00021904620271035897 0.0001444714191586065 5.59074980910757e-6
-9.179237106422831e-5 -0.0001094673345955841 -6.7627150924592254e-6
-0.001032350186915969 -0.000708822824108833 2.6479251255201054e-6
-0.00038632354941400544 0.00015752772515898326 3.950518911496037e-6
-0.00031080699350923246 0.00011859808634260759 3.458171876034872e-6
-0.00029966339745069267 -0.00019124130757899982 -7.3947483785728285e-6
-0.0004174338707976664 -0.0006317236449016958 -3.654665130667464e-6
-3.184970078086257e-5 -5.0860776494112076e-5 -5.458842220342429e-6
-0.0005120157309925677 -0.0009621156487454261 -1.7320988004930826e-6
-1.9446025847963e-5 -3.868328700103198e-5 -5.593133551885481e-6
-0.0004886405654821248 -0.0008410984408747703 -2.241620560738633e-6
-5.437829423823303e-6 1.7185441952499597e-5 4.571093040963364e-6
-0.0004647777846002544 -0.0011417965288921265 -1.5719859393784159e-6
-0.0004367822511054947 -0.00021099231634732539 -7.6293029379028184e-6
-0.000984947180602303 -0.001498435678278439 6.833507979997892e-7
-5.4669366701937905e-6 -1.8604777769891982e-5 -5.397021698431782e-6
-0.0005092922214325076 -0.00024141946394344677 -5.860130493066674e-6
-0.00046568603732295504 -0.00017806381425080814 -5.546470921962444e-6
-0.00017198675461891825 -0.0001240569578855856 -5.557656871993399e-6
-0.00047606688301883506 -0.0014781426806961735 -5.8852208348620394e-8
-0.000103683163893013 -0.00011570844218178134 -6.711345174667086e-6
-0.0003181749475091974 0.000107532931208338 3.0193437210000095e-6
-0.0009599574750156216 -0.0006515307469102423 1.9247422102921586e-6
-0.0005547361145092874 -0.0016554340635080132 2.7915211910157957e-6
-0.00017912959204982706 6.841850056235618e-5 2.752248882020921e-6
-0.000946646534404501 -0.00038804352946792954 2.053598761638299e-6
-1.32367960363525e-5 2.5809263754332895e-5 4.1331659694783375e-6
-0.000937544172322469 0.00014188525822613577 9.119480955315117e-7
-0.0010341317997570399 -0.0007673103795284213 2.457456010601344e-6
-0.0004161601402352737 0.00015391604214919666 3.5708567519353322e-6
-5.777011921530402e-6 1.1718755292850815e-5 2.4577351544395263e-6
-0.0009452715760625668 -0.0009184920589459971 1.3270111116901437e-6
-2.4214750493644707e-5 2.6419112539505668e-5 2.9571045735361833e-6
-0.0009207653157699159 4.0984960691233175e-5 1.2008521328293901e-6
-0.0005062475809142314 0.00012576703420946964 2.216549830204016e-6
-5.3856707505545456e-5 -5.886632647091677e-5 -4.65526497326489e-6
-7.448513450947965e-5 -8.106996970250951e-5 -5.490478025072485e-6
-0.0008662345672802631 0.00019625475252606778 1.0045775834207759e-6
-0.0001499635380290328 0.00010534744590754065 4.947660070785143e-6
-0.0010162735860947227 -0.00029394016306789677 3.099298908494163e-6
-0.0005263845649883165 -0.0013040149999052927 -6.859484672763157e-7
-3.758063661147587e-5 -4.947123356774761e-5 -4.7230276958597364e-6
-0.0005462090298096299 -0.0009787571792981204 -1.4620900196340085e-6
-0.0009485549231691238 0.00011959938665834491 9.535274232734042e-7
-0.0005109155104705422 -0.0003172001064789086 -6.408783869860884e-6
-0.0003840039103517836 -0.00018104550272280274 -7.341280704202166e-6
-0.0005393216194485999 -0.0007173154435912339 -2.3060077490067408e-6
-0.00021058097543789192 -0.00011203522527765327 -4.70045385374809e-6
-0.00033937466579281946 -0.00015178316069344583 -6.104411997124381e-6
-0.00054543987573505 -0.00040101179285211285 -4.680009153326176e-6
-2.0661508777303914e-7 5.691313950247815e-8 -5.265540242177171e-8
-0.0007748143673053669 -0.0015454231084402767 1.0920121575173123e-6
-0.0008691378198957862 -0.001608384503287848 9.533941786505808e-7
-0.0010185971678569094 -0.00026309181242496147 3.0990253016374152e-6
-0.0009599165941019639 -0.00020601068385252524 2.182835921824595e-6
-0.0008282046512305189 0.0002042182092085755 1.1897371901949788e-6
-0.0007823963905607714 0.00018221807715751318 1.383510831575632e-6
-0.001047364295793015 -0.0013172260162124792 9.779133500970832e-7
-0.00011200173762967604 7.556340361005192e-5 4.049870650415554e-6
-0.0010946272865510317 -0.001386486811397509 8.516188187655956e-7
-0.00013597197661987005 0.00010062961997432476 4.962468803370608e-6
-0.00044771257733653005 0.00016597751904761399 3.589443731293359e-6
-0.0009838448375141438 9.884258168070641e-5 9.95047691437855e-7
-1.9082407196980136e-5 3.4826956777120843e-5 4.750004917964562e-6
-0.0010328681119893116 -0.0008565522180707589 2.1774803768728267e-6
-0.0003003407810045379 0.00013366413802694447 4.092488125136353e-6
-0.0010339273594542541 -0.0005909036518703364 2.9762099358307925e-6
-1.0882842863202935e-5 2.5076860486416393e-5 4.656620899884916e-6
-2.376328128390517e-5 -3.960073634101259e-5 -4.8967118040558314e-6
-0.00052185423441809 -0.0008807901460826853 -1.8807417097784799e-6
-1.300145732242741e-5 -2.8857680188071487e-5 -5.083492218202411e-6
-0.0005420741051698587 -0.0007985798424475801 -2.0050280043747352e-6
-0.000514756596736361 -0.001107170732768692 -1.3377720618459554e-6
-0.000458222345085456 -0.0011827954540990057 -1.516505259818485e-6
-0.0010733917460796806 -0.0014107667458351598 7.926882419889832e-7
-0.0009100284573662845 -0.001580831215572067 8.204526534346129e-7
-0.0009861291216980508 -4.983696371364285e-5 1.8771166104040306e-6
-0.0006014019716034177 0.00018384735406333917 2.606569247058037e-6
-0.0010673031288024385 -0.0010799433058794326 1.7217118070450045e-6
-5.220898903628466e-5 5.4625724780728625e-5 4.3144848838132535e-6
-0.0005035042543900707 -0.0014975665711053246 3.7122807643125235e-7
-0.0005816726076147892 -0.0016309485569431731 2.3460201956827773e-6
-0.00027163692543275654 0.00012683482497838157 4.173107893807939e-6
-0.0010175169420832103 -0.0005374437273229434 2.8889404881550967e-6
-1.6336852391356365e-5 3.0711344029119284e-5 4.493751147609924e-6
-0.001017810048073858 -0.0012876095065156292 9.89670434794237e-7
-0.00010755189001500899 6.735102323296747e-5 3.68054983272517e-6
-0.000766405637078922 -0.0015022480171084647 9.490270959068966e-7
-0.0007639523583378686 0.00014830103131951506 1.3513476042756027e-6
-0.0009481549282861544 -0.0001898523298725118 2.0116038392627056e-6
-0.0010063434916240835 -0.00145167413415904 7.211032993161748e-7
-1.436801564854938e-6 9.50862380849453e-6 3.180193493615463e-6
-0.0004346857313428012 -0.00015165015650507387 -5.260990260768015e-6
-0.000547691567898223 -0.00028241077134956465 -5.042617713616901e-6
-0.0004942674107382439 -0.00020845671152965067 -5.6661938373099374e-6
-3.495762071449582e-6 5.610410352248177e-7 8.120083120534721e-8
-0.0010560605434581252 -0.000805721835796655 2.551555280515276e-6
-0.0004980975723980345 -0.0014560346651680562 -4.872021031740735e-8
-0.00015591318100886478 -0.00011531272477844133 -5.4140047209743246e-6
-0.00010744909827755707 -0.0001301452904857895 -7.4929811167363924e-6
-0.00029879174555850146 0.00010461992911999804 3.1017229161898535e-6
-0.0009806481173676718 -0.0006076444061508878 2.2525071543772553e-6
-0.00035041001592246094 9.053050822218096e-5 2.224576386480531e-6
-0.0001956559200470125 8.693383007638355e-5 3.4073616271345495e-6
-0.000958584327416368 -0.00042052365692321636 2.2106934299565717e-6
-0.00016322039427455338 6.229423643565965e-5 2.6382340224239078e-6
-0.0009099204121794207 -0.00036089409264237956 1.5155828305716798e-6
-1.3523685750995924e-5 2.1786168291491282e-5 3.292118853777348e-6
-0.0009193632145372251 0.0001297852864762704 9.826198064095533e-7
-8.427961945201963e-6 8.890292365573262e-6 1.5479404786315528e-6
-0.0009385293661011531 -0.0009540949091157138 1.224264433667711e-6
-3.170320033758902e-5 2.4237125230518445e-5 2.337417119367829e-6
-0.0009504110223188397 -0.0008831220096533755 1.4248849775360903e-6
-2.0076365686777323e-5 2.7262746100547437e-5 3.3852163074346717e-6
-0.0008843199981047714 1.6984289595350476e-5 1.1406009869844963e-6
-0.0009224657923679478 6.694733568618074e-5 1.1300416553518503e-6
-0.0005284329357189873 0.00010271538146107254 1.6422423928008806e-6
-0.0004824195979550865 0.0001232397342938624 2.2913780000737465e-6
-0.0008441223592722371 0.00016445703329668923 1.128647753479221e-6
-0.00013560272023247294 8.708561610529074e-5 4.247760413871071e-6
-0.0009717984299733361 -0.0002476620752970737 2.4045086339101753e-6
-0.0004686235954373708 -0.0013438948030819828 -9.426092789534557e-7
-0.0005503845611952507 -0.00031879072475383946 -5.054462407875787e-6
-0.00022715313270645692 -0.0001216208134420567 -4.971342535377007e-6
-0.0005341649098678334 -0.00044316727559848577 -4.466321758943652e-6
-0.0007435249979060992 -0.0015877474295387765 1.3337577973846319e-6
-0.0008859284836040496 -0.0016526072087876687 9.004311823744151e-7
-0.0009847199350804478 -0.00018617097022682 2.474890681445704e-6
-0.0009884946598945276 -0.0002413448724138316 2.628557893585149e-6
-0.0008141333302759254 0.00017417160415244276 1.2402981544812243e-6
-0.0007542320917783614 0.00019744096428696121 1.5849571315937052e-6
-0.0010751594079546707 -0.001287295477813054 1.0842001719607188e-6
-0.00010362140554905245 8.017184568542534e-5 4.528404952931322e-6
-0.00012419413424523198 8.474481711813195e-5 4.318915413442553e-6
-1.0374655941607943e-5 -2.6806841665003166e-5 -5.8574277535504454e-6
-0.0010186217974620204 -0.0013994104187806623 7.939227015639481e-7
-0.0008747405325457273 -0.0015457979941240914 8.92868593062679e-7
-0.0005238270567431736 -0.0014601002372322796 1.749268012013804e-7
-5.218680440789239e-5 -4.8781033891881786e-5 -3.85333291149736e-6
-0.0004954028800140742 -0.0011855159634491627 -1.2684045527655198e-6
-0.0005700417513306998 -0.001293068940061724 -4.778782567894718e-7
-3.544238787741768e-5 -4.227140890897858e-5 -4.0863779550725375e-6
-0.0005816100069078739 -0.0009950765935468505 -1.1852252403769006e-6
-0.0005517731919062782 -0.0011190278447560586 -1.080792012141313e-6
-0.0003842636845376543 -0.00015371765105197396 -6.01838088620968e-6
-7.414982868929436e-5 -7.168252098762493e-5 -4.830471241825957e-6
-0.0010000101100131908 -0.0007901131620664564 2.0542949220382143e-6
-0.0004339480418964522 0.00013163309184717768 2.807357253396809e-6
-2.2507211447722734e-5 -3.476292119849894e-5 -4.32090953281839e-6
-0.0005544989009004042 -0.0008933367890763347 -1.6063715272692186e-6
-1.1811340504566686e-5 -2.526337522794395e-5 -4.464972196353314e-6
-0.0005949072152521135 -0.0007977272203708096 -1.5942574069481126e-6
-0.00029904267728920634 -0.00016916309738909246 -6.626259481183632e-6
-0.0004625783389158087 -0.0006299374230733631 -3.384542626921436e-6
-0.0010282474241444545 -0.00107404138763347 1.5229283639060942e-6
-5.687947237591483e-5 4.5238223974395735e-5 3.353054139460309e-6
-0.0009515187225860363 -4.70459026942279e-5 1.630502408695203e-6
-0.0005986350496287514 0.00015204053747668706 2.153917636223012e-6
-0.00033923614029337206 -0.0001266712605815306 -5.083402212463418e-6
-0.0005873773912646985 -0.0006816415769430108 -2.06626776713611e-6
-0.0002146869167608827 -9.462243163363545e-5 -4.016547621108738e-6
-0.0005818104228338454 -0.00041045723166596666 -3.857530866042631e-6
-0.00037600779212761175 -0.0005905721656769364 -4.106757380194394e-6
-0.00030073119645849844 -0.00021217129887577717 -8.038031310128969e-6
-0.0011079886049919299 -0.0010874018526547116 1.9116748141019287e-6
-5.540700395878101e-5 6.811246108077937e-5 5.390888015032383e-6
-0.0010206014356694004 -5.121556320631362e-5 2.126177110595948e-6
-0.0006026549531163599 0.0002161746100389852 3.072048602025246e-6
-0.00014146588893481184 -0.00011001045509612849 -5.3689319299729745e-6
-0.00023485727795817874 0.00012957492830798214 4.724158950810318e-6
-0.0010277007217396647 -0.00046627744877388716 3.186006520010999e-6
-0.00024167194290099984 -0.0001665925950838367 -6.481780679132598e-6
-0.0004907376676435758 -0.0014352227077828433 -2.5031240470728284e-7
-0.0004253814735775447 -0.0013006563531634903 -1.4279269101635988e-6
-0.0005968172507015658 -0.0016763532196682504 2.8696370058642102e-6
-0.0002604615463485333 0.00015223010429630184 5.277854075183932e-6
-0.0010681010520817078 -0.000512919092408793 3.6829244799261343e-6
-0.00011585620727123083 6.260166426767349e-5 3.2439404671737035e-6
-0.0009923605377390816 -0.001314523269813309 9.017904400014903e-7
-0.0008038160311672843 -0.0014914497925965422 8.925734214398151e-7
-0.0007992531778850461 0.00011538563094771621 1.1408661898456548e-6
-0.0009312585057827404 -0.00022170786390783817 1.8251978722383009e-6
-0.0005901460793339905 -0.0003171051996538908 -3.974136760556721e-6
-0.0003838547920209381 -0.0001276252816383836 -4.9324794498211765e-6
-0.00024393768589841934 -0.00013034282407752614 -5.218576924565622e-6
-0.0005162780338162221 -0.00048438390219205345 -4.2976607607139254e-6
-0.0005823177234154424 -0.00025103595163740504 -3.844687576422105e-6
-0.0004625487198806855 -0.00014741256868474052 -4.633310590349789e-6
-4.3482960535317295e-6 3.8671910023182084e-6 7.841612853545369e-7
-0.001096221734805708 -0.0007910335924031344 3.0208242047465923e-6
-0.0004167550185836018 0.00018770484736351664 4.520357536759329e-6
-0.00017286225903059038 -0.00010684358558564777 -4.791230045180932e-6
-0.0001938586716299445 7.043401039594029e-5 2.711726097915742e-6
-0.0009149429921916009 -0.000414196173615499 1.5599200581972725e-6
-0.0009331308193248541 -0.00032508656140160834 1.8809453126365886e-6
-0.0001469210889645599 7.316664257045371e-5 3.395738394907497e-6
-0.0008707311790041024 0.0001451405503252055 1.044492584347139e-6
-0.0009267188864760923 -0.00028691340890621674 1.788136408720324e-6
-0.00013272460448099548 7.242352748615342e-5 3.5264710116442224e-6
-0.0009397534456630272 -0.0014951553743447921 7.370283182677705e-7
-0.0005720167884941402 -0.0015330004852103678 1.1311844540550726e-6
-0.0006077294736659583 -0.0012512375848392576 -4.1894212895300027e-7
-0.0009690962282850726 -0.0007604333743800369 1.8184922066769681e-6
-1.600713023206072e-5 -2.615067443768097e-5 -3.8065042899922196e-6
-0.0009002895076306892 0.00013672027869037924 9.984456151482018e-7
-0.0002988562099079842 -0.00014679546554212654 -5.813446509851345e-6
-0.0005060998082592773 -0.000631780582193243 -3.0408737487447703e-6
-8.592968838923315e-5 -8.208631104502894e-5 -5.144445138931038e-6
-0.0009875028231524786 -0.0010604469483566584 1.3381707202514329e-6
-4.940528852859876e-5 3.735254142527768e-5 2.9798100034338835e-6
-0.001062840645738394 -0.001109975237327146 1.6296298273110393e-6
-6.447499796856497e-5 6.204843785798147e-5 4.413849028573659e-6
-0.0009167505389858362 -4.350721640992629e-5 1.3911083667913028e-6
-0.0009846049151622023 -8.094229401317668e-5 2.0298410810129552e-6
-0.0005889202993575297 0.00012210594448254676 1.7652369917180526e-6
-0.0006340069815536302 0.00018528539788072502 2.4069291020144285e-6
-0.0003609356856185752 -0.0001274306273086025 -5.053947840657959e-6
-0.00019812439937897058 -8.51408170024356e-5 -3.715362567245186e-6
-0.0005988673613297231 -0.0007455281940270145 -1.7026144804636654e-6
-0.0005989216274085208 -0.0003616460399705716 -3.7078378613718825e-6
-0.00042398021371515063 -0.0005845055787084337 -3.984522740219173e-6
-0.0002800236972598717 -0.00018380807703048362 -7.011548378773574e-6
-7.460313426794101e-5 -6.0399381916227914e-5 -4.0249717674869476e-6
-0.00033840682585849186 6.49120957680058e-5 1.4833822379901253e-6
-0.0008788468006672084 -0.0006857022360371935 9.324492009417268e-7
-0.0006941825273272282 -0.00160395074997358 1.6386101532554183e-6
-0.00016909806367253687 4.9284454667457524e-5 1.986681510434761e-6
-0.0008701274802828916 -0.00034231057391095453 9.431442306302656e-7
-0.000521760852278556 -0.0014210349269535734 -9.879768033690628e-8
-0.000482002842928099 9.91953416553261e-5 1.7468560759326715e-6
-0.000895512172442691 9.142597467547974e-5 1.0596733391273003e-6
-1.9798358857818887e-5 2.1734549264889355e-5 2.6933285409254325e-6
-6.0701242526631767e-5 -4.41166138006345e-5 -3.220728663756958e-6
-4.284866547066853e-5 -4.3093731035644375e-5 -3.7800245284061915e-6
-0.0005897755330914236 -0.0010510450043299292 -1.0129286104726798e-6
-0.0009251889650956964 -0.0006172756284066912 1.5550745308617297e-6
-1.3104651927346053e-5 1.1399575944837616e-5 1.6564859982689295e-6
-0.000588520331118975 -0.000852141032993069 -1.4841386941738148e-6
-2.73155676771392e-5 -3.378789871058094e-5 -3.719130163134936e-6
-0.000612214966573346 -0.0009496673383116935 -1.0851571472343214e-6
-0.0005649083407047512 -0.0011583086949713609 -8.922411047670478e-7
1.6863221136388673e-7 -3.7023199269923366e-6 -1.3084997175627276e-6
-0.0008996502433705159 -0.0009474204316739326 9.539280333043614e-7
-2.9850702493159706e-5 1.79116952929586e-5 1.7398702637901048e-6
-0.0008520507511111601 2.325201341005509e-5 1.025062477234518e-6
-0.000543569561370977 7.660296984607356e-5 1.1123955682735554e-6
-0.00026087622490578817 -0.0001565889732498873 -6.103863450986915e-6
-0.00011695863295825058 -0.0001236901761712425 -6.711893839265436e-6
-0.00012779977761372282 -9.389652511381916e-5 -4.781952098327062e-6
-0.00021957702475898817 -7.695296779888338e-5 -3.317488418961635e-6
-0.00031820629873934605 -0.00010117549994071032 -4.131667013377752e-6
-0.0005928579449131639 -0.0006426607501940143 -2.185134793936297e-6
-0.0006147823300242459 -0.00042628977446453466 -3.1550412602573147e-6
-0.00026093532770095004 -0.00019431068911929922 -7.275633533893023e-6
-0.0010221488692505382 -0.0008208812558998065 2.178127157984857e-6
-0.00013807254465104723 -9.479788296551297e-5 -4.6589578271206685e-6
-0.0009739457029994906 -0.0001432412016033631 2.17212157250862e-6
-0.0007046524519340419 0.00019398783795973183 1.94979729086094e-6
-0.0010736981550716945 -0.001225463632031664 1.2774771288065516e-6
-8.762629779610011e-5 7.039383253009453e-5 4.299634795804449e-6
-0.0005827093727257457 -0.0013269778634308188 -2.8433026119164925e-7
-0.0005664051090546908 -0.0014667875280815123 4.770425611619176e-7
-1.7432034699870122e-6 -1.1974955782844646e-5 -4.776962150271168e-6
-0.00011426299179111175 -0.00010853152245892592 -5.8983895002029455e-6
-0.00012877543025124685 -0.0001174188682031834 -6.005159375947452e-6
-0.0002616213677903936 -0.00013738244348696457 -5.437806128043107e-6
-0.00046088783657223065 0.00012042671498199363 2.3479176202949135e-6
-0.0008967201788809929 0.00011419527838393727 1.033326372087528e-6
-1.6846078106319377e-5 2.2060182143181216e-5 2.9480077232410526e-6
-0.0009600699174944444 -0.0008480591483290312 1.5609032109987013e-6
-0.00047901435446691794 7.515302896716358e-5 1.2071430295511315e-6
-0.0008575522039960723 8.081195736683373e-5 1.0576947727566767e-6
-1.825629480890852e-5 1.63773875283401e-5 2.042886742379947e-6
-0.0009035490859693132 -0.000870063629580792 1.0589480850387536e-6
-0.0009714398794586431 -0.001288295914266128 9.030178728069683e-7
-0.0007762487239465914 -0.0014462393747422461 7.726148402648962e-7
-0.0007734900948099747 0.0001132268194272101 1.160772555011508e-6
-0.0009241815003739694 -0.00018995980230829303 1.7202476194218647e-6
-0.00048230167070242223 -0.0005269492921266704 -4.1551499914647085e-6
-0.0004969907063529337 -0.0001745069705552208 -4.693382980951666e-6
-6.452196476760882e-6 -5.811947550998429e-7 -1.471135536849244e-7
-0.0009598128786804297 -0.0015101572356136235 7.020886666710017e-7
-0.0005707711394096092 -0.0012189896819922198 -7.182594138864659e-7
-0.0006204487890951515 -0.001299123676800418 -1.954244758912925e-7
-0.00036882688031710523 0.00011107254933077378 2.721377866332892e-6
-1.0637382000072065e-5 -1.8619982878545377e-5 -3.215878903736581e-6
-0.0003186577060591103 -0.00014976037225944257 -5.982985617339099e-6
-0.0004999357274505971 -0.0006754595190981244 -2.8366623213148187e-6
-0.0009646031133082211 -0.0010042900734128129 1.3165000795693222e-6
-3.7897728100947894e-5 3.266864004833835e-5 2.9339870596303293e-6
-0.000917708671464946 -1.472286338468761e-5 1.3338903030446422e-6
-0.0005601051949143729 0.00012627717688888532 1.951317042404629e-6
-0.00020276129503621297 -6.846164500446917e-5 -3.0314718524689052e-6
-0.0006319912727368473 -0.0003899154385559584 -2.9545295450941483e-6
-0.00017692640673166944 -9.101643087161765e-5 -4.0837943182799254e-6
-0.000870531335198743 -0.0006570624152720556 8.718156614410099e-7
-0.00030949470899855946 5.08609449841011e-5 1.1796630863063496e-6
-0.0008524782018480833 -0.00037456973547120406 6.677043137446492e-7
-0.0005688235735071542 -0.0014023566788511055 4.564362784958111e-8
-5.177107102124759e-5 -3.943703005473342e-5 -3.090353698658169e-6
-0.0006407367425216241 -0.000983913735167301 -8.26633261974085e-7
-3.298712171556103e-5 -3.626157895520581e-5 -3.6104108453149184e-6
-9.05313592197073e-7 -1.0144472204889126e-5 -4.007950126398056e-6
-0.00020701135088010557 5.07895671225669e-5 1.7821413033820407e-6
-0.0008843351810838152 -0.0004312982359332881 1.1024716662571261e-6
-0.00028740701281730857 8.701143849440523e-5 2.5834901011032375e-6
-0.0009463910396784353 -0.0005855361229490647 1.8571466260387224e-6
-0.0006516236564963817 -0.0007934433226659958 -1.1186303561521754e-6
-0.0006084911157232341 -0.0008997489467925451 -1.2317495402196318e-6
-2.101440451287911e-5 -2.611735001280349e-5 -3.2473806555167797e-6
-0.0006073600435564324 -0.001103693978987779 -7.916298388229714e-7
-0.0008630479022314625 -0.0009127610212433525 6.937946928736874e-7
-2.5238240799854836e-5 1.5117877877546567e-5 1.5718437591217398e-6
-0.0008227180611641245 3.59442672335531e-5 9.508691912948314e-7
-0.0005062050935488279 7.132113289692144e-5 1.0682474905675308e-6
-0.0002606003502932869 -0.0001754778070092645 -6.718059105366872e-6
-0.00011447338772471915 -9.50814792064602e-5 -5.126459868597751e-6
-0.0002980967741376366 -0.00010150998111725548 -4.136846252444562e-6
-0.00059910339879377 -0.0006017622530018965 -2.3172638665476646e-6
-0.00023868419285895433 -8.535820079648658e-5 -3.5853531366054764e-6
-0.0005992508882349732 -0.00046767875061496733 -3.1683333467250838e-6
-0.0003390336885756999 -0.00010131174031605037 -4.1169439250232006e-6
-0.0006363347862649426 -0.0006957588571786018 -1.5570782093206474e-6
-0.0009710967460856138 -0.0011018944606298168 1.1765925193821446e-6
-6.0600565861058005e-5 3.6759271019680797e-5 2.6112586260362047e-6
-0.0006170186180143267 0.00011398903787837105 1.5644273819423188e-6
-0.0009144092615076282 -7.218267526081952e-5 1.4306279939646135e-6
-0.0008751206043546155 -0.0006174854943802681 9.44100380711179e-7
-0.0002922393258423897 5.8713868876413016e-5 1.5498172099040275e-6
-0.0005151547267442445 -0.0005867884724368843 -3.2651988969303004e-6
-0.0002798600536843184 -0.00014271418014931992 -5.628238017449648e-6
-0.00010145736937628153 -8.5150601046452e-5 -4.878330346071735e-6
-0.0006193176042947101 -0.0015023446274774145 9.356716543685689e-7
-3.3630220083322957e-6 -1.3726617679222674e-5 -3.96909251063997e-6
-0.0004448028526052657 0.00011796447668855415 2.384348823002378e-6
-0.0009975988009273966 -0.0008321922171073416 1.919963038663705e-6
-0.0006614856584546475 0.00018993514044408704 2.2801262294751378e-6
-0.0009811701020783685 -0.00011261952962578088 2.1404961150226023e-6
-0.00106490862298231 -0.0011611387415098558 1.4550243451395349e-6
-7.610348986814893e-5 6.731668284775283e-5 4.408892211333048e-6
-0.0008295917488198648 0.0001391406434015485 1.1547153232045495e-6
-0.0009506955249003902 -0.00025936408903015336 2.1067091972569295e-6
-0.001025100635906162 -0.0005018973197595225 3.0729460287977745e-6
-0.00025359442030819005 0.00013030708003323684 4.5093170237661275e-6
-0.00014000989716166524 -7.645287463820056e-5 -3.777818586093039e-6
-0.000408627722867435 -0.0001533731708173439 -5.72978663197623e-6
-0.0006188505968050488 -0.0016316178645471627 2.20923955943298e-6
-0.000428857682471816 -0.0005374184713046233 -4.45027827765459e-6
-0.0010349071737298572 -0.0011945868861600783 1.2434716666123495e-6
-7.556252471391897e-5 5.519113249840854e-5 3.5730323582272502e-6
-0.000677206631445808 0.00016808769493549744 1.9337602336303057e-6
-0.0006618820620050736 -0.0015596767638780022 1.4093823860984695e-6
-0.0009446988655875651 -0.00010608563799281594 1.7674522074694354e-6
-0.000565169187192409 6.976291614061388e-5 9.697384352959738e-7
-0.0008420704495565417 -7.650062573713932e-6 9.571299840769966e-7
-4.253375861821974e-5 1.6490715491587062e-5 1.380209652770024e-6
-0.0008845726864495317 -0.001060049154437528 7.624386095916017e-7
-2.665343759880235e-6 -8.91509444276128e-6 -2.3991297557301997e-6
-0.0005272991216498679 -0.0002183178966853672 -4.862525867793421e-6
-1.4515680027780793e-5 7.2427625960147364e-6 9.777683803755088e-7
1.5597493203156306e-6 -4.1067052058396664e-6 -2.2393948474192493e-6
-0.0011035873271769848 -0.0011917579991126326 1.4658165578851317e-6
-7.823691924355393e-5 8.028472262251894e-5 5.2786192320795195e-6
-0.0006753852827541917 0.00021828124526705096 2.3987984547359144e-6
-0.0010186202622185692 -0.00011823505462746252 2.56031579397897e-6
-0.0006685794855981962 -0.0016382921920139832 2.0284596195974757e-6
-0.0008498466603039204 -0.00029450888812696126 6.894081261039423e-7
-0.000156037845970534 3.919230077290701e-5 1.6441648079161966e-6
-0.00037281384542401665 4.066089498432543e-5 5.936314292053047e-7
-0.0008764032018345294 -0.0007213128925713892 8.921347568007685e-7
-6.879825714759917e-5 -4.659473919434859e-5 -3.213370476520508e-6
-0.00038344956334193143 -0.00010271127166698256 -3.992552711160879e-6
-0.0006403129523184123 -0.00033789339595258856 -2.7972512833187134e-6
-0.00011749833188342963 -8.205739804476564e-5 -4.357150316008765e-6
-0.00012659473223537742 5.7178908321084153e-5 2.8120260775110967e-6
-0.0008251779955140688 0.00011079648108451226 1.1120664333565494e-6
-0.0009259893769645901 -0.0002543527075043452 1.7625436762946528e-6
-0.00024662041217497565 0.00011052011569219944 3.8205293233308e-6
-0.0009840502505588191 -0.000491070483930708 2.4992024297469085e-6
-0.0005971087107105963 -0.001587190485458532 1.7573444617848058e-6
-0.0006364002580419221 -0.0016034929287640058 1.852761706148028e-6
-3.176751373511141e-7 -8.272082384239064e-6 -3.1974826380549083e-6
-0.0009440912837930469 -0.0007941352626457439 1.5212675304869852e-6
-0.000558042328391149 -0.0005942345450651446 -2.8003414751584925e-6
-0.0002987351766889405 -0.0001242184310229952 -4.978669291517735e-6
-0.0005281691776120662 -0.0005419610590985582 -3.507751357363296e-6
-0.0009265081464095049 -0.0010812368754861744 9.748232647041627e-7
-5.393556382041454e-5 3.103729758219231e-5 2.3392363695721255e-6
-0.0008809776717145455 -6.76304312775664e-5 1.1716839026832329e-6
-0.000600788352050861 8.6385938156422e-5 1.1985769560726893e-6
-7.538021120846929e-5 -3.923540353483664e-5 -2.6161589526551256e-6
-0.0004054778128334546 -7.692944352303505e-5 -2.982416577626883e-6
-0.00067499831087205 -0.0003226082579650377 -2.134971764705018e-6
-0.0009858289672587197 -0.0012610786185734651 9.664106706260075e-7
-9.56933171741291e-5 5.892662140878343e-5 3.420905281561097e-6
-0.0009290777712021442 -0.00016205902185160428 1.7348238729677109e-6
-0.0004676777529493866 -0.0004817505101267254 -4.880143980706735e-6
-4.583061463181263e-6 -3.853684983767205e-6 -8.763840636268279e-7
-0.0006112606757225296 -0.0012127868762219975 -5.072984083731439e-7
-6.741981775196448e-6 -1.7651118098056905e-5 -3.896357328379436e-6
-0.0001820261463477909 -7.5351641137608e-5 -3.3981748512495993e-6
-0.00016889053165626924 2.69923840493443e-5 9.974410095258514e-7
-0.0008327402487720738 -0.00032575290935531496 4.172950815316037e-7
6.159535268484179e-7 -6.81421335006692e-6 -3.83262417223661e-6
-0.0002460152626955625 -0.0001131587024974556 -4.577734106856813e-6
-0.0005477714629983846 -0.0004985636730636825 -3.709025131859716e-6
-0.0006370116228374398 -0.00060789523093289 -1.865194842097242e-6
-0.00029610628350391856 -7.899627829779033e-5 -3.310050579265487e-6
-0.0009940133763432682 -0.0011657609297646783 1.160730165969347e-6
-6.795608764682868e-5 4.120365634966819e-5 2.7692197255191067e-6
-0.0009096713532440459 -9.998794396815991e-5 1.4367726748685693e-6
-0.0006647026695385574 0.00012266012433715382 1.489300666513836e-6
-0.0009691010478419462 -0.0012045199409199962 1.000031143878497e-6
-7.647974486308116e-5 4.453213041087694e-5 2.8279147542766376e-6
-0.0007013705981738299 0.0001406350610799526 1.541272001581464e-6
-0.0007081286688432627 -0.0014938263787672493 9.449577611163501e-7
-0.0009028550469897454 -0.0001276657671895503 1.4077555260152232e-6
-0.0005533141762336232 4.680960335355831e-5 5.613371216574948e-7
-0.0005874532469587874 6.201156303895122e-5 8.3437390501072e-7
-0.0008508027572487162 -3.8403673181980406e-5 9.625902077145344e-7
-0.00081196600276046 1.261433998020528e-5 8.545267661447931e-7
-4.789233337762632e-5 2.4106699599262828e-5 1.924838547241084e-6
-3.2958791511119896e-5 1.4839909728915597e-5 1.3850364547980185e-6
-0.0008648797537429582 -0.0009955320683333632 6.80352906263053e-7
-7.04902035828951e-6 -9.251768352249763e-6 -1.8078342479653591e-6
2.6684453261131623e-8 -6.234944849469034e-6 -2.3279695191664835e-6
-0.00013132571697243973 3.5957014247638396e-5 1.6982785693826871e-6
-0.0009077576138361814 -0.0007734758721106358 1.2092403302761844e-6
-0.0003953012940412384 6.039098175420652e-5 1.0986444037913282e-6
-0.0003258962761279138 4.328838245537398e-5 8.432682839662645e-7
-0.0008493290464741708 -0.00068570774646032 6.142076866010738e-7
-0.0006084939324327044 -0.001358411114993634 -1.5835774342903257e-8
-8.148789271609908e-5 -5.428769532424961e-5 -3.476677422609792e-6
-0.00040615551341248023 -0.00010201739468018035 -3.822775360892593e-6
-0.0006276959050540179 -0.00030709383759557795 -3.059534149677265e-6
-0.00024113920423084556 9.214865531899498e-5 3.1628904782576897e-6
-0.0009503292366058639 -0.0005123805078981483 1.9923526265226554e-6
-0.0008809875984412581 -0.0014536802172188494 7.793443013632616e-7
-0.0009456542608163827 -0.001413372061667234 7.5555306761985e-7
-0.0001470179521082763 -6.678443575706107e-5 -3.2755352974228717e-6
-0.0006478213147934445 -0.0005713289284560038 -1.9079710254649843e-6
-0.0002764674880416095 -8.118523973239466e-5 -3.4055454797773443e-6
-0.0006902721946768252 -0.0005860492046062106 -1.3426908223043496e-6
-0.0002917090734501781 -5.865198587256412e-5 -2.5938206697623216e-6
-0.00061779475668691 -0.0014192446881843527 3.681659469506653e-7
-0.00016108591404785 -7.970582755635344e-5 -3.726663248594039e-6
-0.00017231328421491793 -5.079102050620526e-5 -2.400693271511625e-6
-0.0006492270462887225 -0.0011760780924768871 -3.743320864163846e-7
-0.0009263414142249367 -0.0011826971481962323 8.722078033576244e-7
-7.020997890746838e-5 3.2359153940604296e-5 2.1172457359896786e-6
-0.0006814577210200449 0.00010018365820854627 1.222875940074123e-6
-0.0008683965391861415 -0.00012042317877238994 1.071511140236614e-6
-6.590255776275798e-5 -2.644648356480431e-5 -1.8690181518669383e-6
-0.0006720649450512507 -0.0003845077834790691 -2.1991051066322524e-6
-0.0003668218491553959 -5.4209271474081884e-5 -2.3840888021918237e-6
-0.000740097345370805 -0.0015144044390089193 1.013712444176569e-6
-0.0005756788053201279 3.93994251573378e-5 4.609379432157058e-7
-4.830393224410694e-5 1.253622930565808e-5 9.919560041916512e-7
-6.366303063088199e-6 -1.2064664284561147e-5 -2.496198463804309e-6
-0.0008622409609736356 -0.0007620980300799364 7.702160392483614e-7
-0.00040379211837214893 3.2452351367603016e-5 2.7207001049654565e-7
-0.0009173483047964508 -0.001387198868159434 7.524190511851466e-7
-0.00012926537466693579 -6.41140240347093e-5 -3.282127246151107e-6
-0.0006611192718870405 -0.0015037132964889621 9.775518911879952e-7
-0.0009050017307954279 -0.0011206013026212153 8.302367901928259e-7
-5.789008179285899e-5 2.500090054728961e-5 1.8017697374524012e-6
-0.000849920536028315 -6.349441652161697e-5 9.453061327450207e-7
-0.0006234025398238712 7.532017081820293e-5 1.0243344313540237e-6
-9.429098896727363e-5 -5.2491817164705425e-5 -3.1110751766567054e-6
-0.0008930112644298159 -0.0008122249358366441 1.0300682868222602e-6
-0.0004239901511318962 5.9659713362567747e-5 9.939760332000505e-7
-0.0004284133848378881 -0.00010056185874394857 -3.5865501719319635e-6
-0.0006194629395733943 -0.00027614553598015446 -3.1448106423768054e-6
-0.0002985678800071992 3.063715401965789e-5 5.364539952462329e-7
-0.0008469862930337879 -0.0006045436117446167 6.033726143396358e-7
-2.2716176947360912e-5 6.311693339113387e-6 6.477242326784075e-7
-0.0008195175351882077 -0.0002776873345332527 2.689315170212487e-7
-0.00014485542721592284 2.7453046217711278e-5 1.1811147071562715e-6
-0.0006350577250469677 -0.00048055649299498006 -2.5247339251267473e-6
-0.00023922844231813353 -6.4029351286563e-5 -2.763037314547548e-6
-0.0001158726530436419 -6.699079154664706e-5 -3.565116756106045e-6
-0.00026228570754923124 -0.0001003761114107454 -4.103052316321582e-6
-0.0006210877213011339 -0.0005215763756905167 -2.501501979363141e-6
-0.00012486469940477325 -7.058973707725352e-5 -3.6487785436413737e-6
-0.0008026188172808276 -0.001426376472147704 7.336608272419023e-7
-0.00066309692343983 -0.0010828029960878707 -5.07840846113079e-7
-0.0002790936096311264 -0.00010122069830431052 -4.127812057508211e-6
-0.00032935974967787576 1.5722892644844858e-5 -7.265428045000384e-8
-0.0008021515985708106 -0.0006761247762123522 1.086265635318615e-7
-0.0001955778213148112 3.095537951351482e-5 1.0279012692485294e-6
-0.0008083937744803614 -0.00040664530316440815 1.6600038108044947e-8
-3.06239248729258e-5 6.992247874378819e-6 6.502891042955824e-7
-0.0008153007838000075 -0.0009838812920549994 3.480518074138975e-7
-0.0007909217682901907 -5.6809495751766776e-6 7.162651507433355e-7
-0.000542407285986137 2.306946016333689e-5 1.0550279717151722e-7
-1.6429786514960946e-5 -1.5423083220071403e-5 -2.110265940668525e-6
-0.0006553344167673839 -0.0008858200863055362 -9.115127942827714e-7
-0.0008564951829868481 -0.000878530229815979 6.641687876942079e-7
-0.0008343375961878894 5.425438495913953e-5 9.889296781209125e-7
-0.0004724326675503589 5.321553492665829e-5 7.176214951002141e-7
-0.00033942777181642306 -7.466721929338938e-5 -3.154029710868916e-6
-0.0006847524101734303 -0.0006760966342378176 -1.1229618301812978e-6
-0.0008334569597650673 -0.00024312139973562197 5.26491830690191e-7
-0.00012404146296221018 2.0244706208349437e-5 9.551500440646384e-7
-1.7215945391966853e-5 1.5085352626078269e-6 1.4666352931551568e-7
-0.0006616155943490063 8.287654178226423e-5 1.0900952614343278e-6
-0.0008827264991700865 -0.0011621238852125395 7.067288844855819e-7
-6.600380789235119e-5 2.168451483436009e-5 1.4573920135080742e-6
-0.0008443655369746912 -8.73900583395523e-5 8.70239012795169e-7
-0.0008068452695244083 -0.0007505252710224199 2.089228831569456e-7
-0.000409769876709992 1.1777176560108789e-5 -3.117035201977663e-7
-0.0007910179961239947 -0.0002632826374638941 -1.0777833773250224e-7
-0.00014101154070138763 3.817873639887477e-6 6.484526251103177e-8
-0.0008215992565896149 -0.0010801160820357824 4.048429316103604e-7
-5.475292344665436e-5 8.774681727928e-6 6.288983473290357e-7
-0.0007859178325381993 -5.1288051007430316e-5 5.249836464623357e-7
-0.0005977441635845533 3.142813798699063e-5 3.6870385117820266e-7
-0.0006722205709051322 -0.0004923274858831544 -1.9055991721492665e-6
-0.0002390239439238134 -4.8444932867052444e-5 -2.178896538329271e-6
-0.00011816258286383684 -5.538966892740116e-5 -2.940472308972667e-6
-0.0006900611425038241 -0.0014468221041746977 6.903729737962104e-7
-0.0003128334315396386 -4.6963777693280926e-5 -2.1821033380514944e-6
-0.00019198406657668554 -4.40864196231905e-5 -2.076230343479897e-6
-0.0006937608377936922 -0.001242535946634086 -2.0006275841803702e-8
-7.607847533597453e-5 -2.9624900722925322e-5 -1.9680785484032025e-6
-0.0006944128035828313 -0.000416447209717878 -1.773617508166568e-6
-0.0006891395739313422 -0.00035060870473220074 -1.9111462449951695e-6
-0.00040256098816810056 -4.9991406783029125e-5 -2.1454619676855468e-6
-0.000881853055750726 -0.0013590443841287082 7.135087124294719e-7
-0.00047802010543656395 1.8042918408437775e-5 -1.0998714769126742e-7
-0.0008087769198311595 -0.0008894491543503739 2.833750371406763e-7
-0.00020532191975622952 6.093644722113748e-6 -3.2369718688788373e-8
-0.0007674191628724454 -0.0004120466044548828 -6.05841001155509e-7
-0.00028916215546660946 1.0897439114594108e-5 -1.21867311362688e-7
-0.0008161031838243534 -0.000595880500842724 2.2425728161571487e-7
-0.00010721763034609626 -4.7954718092210364e-5 -2.667262731406388e-6
-0.0002226905369696646 3.985499948920944e-5 1.2459327436005628e-6
-0.0008576206233771862 -0.0004654274392447472 7.067908281286134e-7
-0.0002816942629423175 3.840409566329952e-5 8.879200871991529e-7
-0.0008619457694624228 -0.000574625576071374 7.808382313602893e-7
-0.0008694862923533367 -0.0013986470947051233 7.31673084235321e-7
-0.0008827660575408401 -0.000841419866432667 9.210812383088121e-7
-0.00044883396743265573 5.751296505612631e-5 8.721408412224815e-7
-0.0006517786424991663 -0.0002681873480926158 -2.4405409882356757e-6
-0.0004727248724437188 -8.693426946410083e-5 -2.7524622001143486e-6
-0.0008234921714848324 -0.001402951673673611 7.027218029362644e-7
-0.0006706341839214223 -0.0014100992993287304 4.7383019403047605e-7
-0.0007739847000361735 -0.0006229106506159179 -2.543134128601047e-7
-0.00030547288748174575 3.614001990551219e-6 -4.214038896943505e-7
-0.000505972907057905 6.914635127514576e-6 -2.9619969734534304e-7
-2.7676077059278664e-5 2.1387547697864717e-6 1.6577879112566327e-7
-0.0007878695545869284 -0.0009318533619435438 1.4262374680231392e-7
-0.0008228726352910777 -0.00013667423789539277 5.860005719889105e-7
-7.876045236298458e-5 2.5773156737679078e-5 1.577340724900612e-6
-0.0009063476200752273 -0.0012248945721458032 7.715783456585608e-7
-0.0007004702516662738 7.988223751831691e-5 1.0372582988123371e-6
-0.0007673846906814827 -2.0942510842540378e-5 5.374011584384499e-7
-3.4486374279939054e-5 -9.803510906183681e-7 -1.4162842873766982e-7
-0.0008042059157873578 -0.0010224012897805564 2.806211697574006e-7
-0.0003788104540366906 -7.5133109758070465e-6 -8.688681603371911e-7
-0.0007711746223112611 -0.000713591944580971 -1.7538750445562652e-7
-2.1536011457369147e-5 -1.8377331738266818e-5 -2.208334237917196e-6
-0.0007087283222713386 -0.0009159927664083913 -4.559381317925702e-7
-0.0006902213626690521 -0.00083575692688774 -7.119125029235646e-7
-1.3015879280822628e-5 -8.728851918750083e-6 -1.3280566474149225e-6
-0.0006882994084411746 -0.0011464304036674286 -2.408336887180041e-7
-0.0006659456269626175 -0.0010532135443496599 -5.284715228014848e-7
-0.0007564382247380562 -0.0014038483787829597 6.244922997565655e-7
-0.0006099549501882827 5.257909189505151e-5 7.013146897802919e-7
-0.0008628071595744438 -0.0011003071531532156 6.27859168845418e-7
-5.285255610214232e-5 1.932666980799171e-5 1.458770671234752e-6
-0.0001564963379253708 -6.945255581197611e-6 -4.647261186213637e-7
-0.0007739837298875362 -0.00028629729228046326 -4.1442101058272784e-7
-0.00022666991561404452 -4.2061098739674954e-5 -1.956748325897348e-6
-0.0006863735886178848 -0.00045276902010169597 -1.8199961641164327e-6
-0.0007388791756001638 -0.0005762955584904275 -7.570015159286156e-7
-0.0002929816672889278 -3.291504884380614e-5 -1.7005514906791725e-6
-0.00017746464696567085 -3.649685900988754e-5 -1.7791703259432812e-6
-0.0002070793135747924 -5.17317840902568e-5 -2.3574172772126074e-6
-0.0006750307630265424 -0.001294035961524753 3.4433331830043886e-8
-0.0007323321618296418 -0.0011989923325632288 7.165419938750089e-8
-8.611535975525447e-5 -3.44478284426492e-5 -2.157479818798034e-6
-5.636281724075241e-5 -2.514882513647417e-5 -1.9174501259314763e-6
-0.00043323122655643335 -5.038373735899129e-5 -2.0272459919562552e-6
-0.0009361592854983343 -0.001291621390368823 8.187239497570309e-7
-0.0007646563951429944 -0.00037676500109408163 -6.78949281739232e-7
-0.0006450018624017894 -0.00024201576612900075 -2.4320456052120885e-6
-0.00048402418535764926 -0.00011199382071331905 -3.2871995457288824e-6
-0.00010982349426916207 2.409227476009187e-5 1.2009952483757052e-6
-0.0008157505625630807 -0.00020961172748214945 3.3994074577208796e-7
-1.5050453909477306e-5 -4.544216694112862e-6 -6.674237762304225e-7
-0.000740829640733469 -0.0006449383867850786 -5.964348742715601e-7
-0.000760982158602919 4.4976034074708154e-5 8.336953906056352e-7
-0.0008108070574346486 -0.00016501276327352866 3.720604153396209e-7
-8.7205234788021e-5 2.6507013045455746e-5 1.5224309668191591e-6
-0.0008904140216328533 -0.00126623911508724 7.165445522856399e-7
-0.0007184329161759989 5.832962314811169e-5 8.792445420631634e-7
-0.000748589166124089 3.823662242657121e-6 5.779176017767327e-7
-0.0007684996600578276 -0.0009748211547875751 2.196010725608727e-8
-0.00035280133828840984 -7.844286709185888e-6 -8.917254727388346e-7
-0.0007649527414902896 -0.0006580301696808671 -3.144072142321673e-7
-2.6675937699679075e-5 -2.0639771028980144e-5 -2.26168234671034e-6
-0.0006874587264448542 -0.000990946549525989 -5.173434310484408e-7
-0.0007091434807864279 -0.0008735818532684588 -5.178970921696954e-7
-0.0007107218648497248 -0.00108206337799928 -2.2232573095939102e-7
-0.000703001239571886 -0.0013843412903869346 4.466910581529379e-7
-0.0007837784849920247 -0.0013978661746639697 6.438908853532835e-7
-0.000860710287657629 -0.001205601152280824 6.118661915247797e-7
-7.253187441533872e-5 1.741003173345409e-5 1.080368295705026e-6
-0.0006798613175335818 6.446009976517128e-5 9.005978696117e-7
-0.000785818035781874 -0.00012374364094136365 2.2103809865959393e-7
-0.00011055096301902043 -3.6475128629871375e-5 -2.02030192440309e-6
-0.0008795364576163262 -0.0005423222043764252 1.0090472807961754e-6
-0.0002648351851278628 4.5914919991128093e-5 1.2467626402138594e-6
-0.00023907156185746451 3.2613123832802046e-5 8.662469319061834e-7
-0.0008563687478992296 -0.0004969248572596281 6.935142553334646e-7
-0.0008532180651649577 -0.0008028377606736362 6.73559817797756e-7
-0.0004246701416268965 3.584096821260875e-5 3.4816422506472554e-7
-0.0006746364064676605 -0.0013531343578163935 2.3840475657042257e-7
-0.0007672523405492626 -0.0008455161129540921 -8.745953554808536e-8
-0.0004498119478592339 1.5575792212779114e-5 -1.997722395843566e-7
-0.0002232545359720586 -1.923757034188176e-6 -4.0552115020759707e-7
-0.000769463916705577 -0.000446088183113676 -5.324734378772186e-7
-0.0007955088896143532 -0.0005523065043381554 -8.580560557480862e-8
-0.0002815163709516417 -7.71256402146531e-6 -7.648108116882151e-7
-0.00012603210930070996 -7.935575580557296e-6 -5.279145259616016e-7
-0.0007650103741262898 -0.0002445097556481489 -4.488810595568546e-7
-0.00027068962621401625 -4.307399998791962e-5 -2.0360233253763815e-6
-0.0007223721526204925 -0.0005469286706850066 -1.0376333961016292e-6
-0.0006411645714815426 -0.00021555446211363484 -2.3204801560988878e-6
-0.0005116855454973398 -9.818607213185916e-5 -2.613002833026081e-6
-0.0007289679972712032 -0.00041763185546803984 -1.2169505620021385e-6
-4.813545149535321e-5 -2.6376466507300152e-5 -2.1591172396635997e-6
-5.389928784652586e-5 -1.5014704565774568e-5 -1.1870745980977982e-6
-0.0008627295450792077 -0.0002661780329701595 9.128029216954841e-7
-1.1881512642391977e-5 1.0271786200729205e-6 1.2068219466558413e-7
-0.00013719493838700234 -1.1540024687274719e-5 -6.946257961797809e-7
-0.0007474521836701363 -0.0002672963995445652 -7.886897985876413e-7
-0.0007803720082808946 -0.00033159659178511123 -4.030331682838581e-7
-0.00016717370640568217 4.14330731913647e-6 2.68019610572544e-9
-0.00025147019901649686 -4.003637440484279e-5 -1.89704073375711e-6
-0.0007065664692040288 -0.0005038498902519413 -1.3794234606185363e-6
-0.0006822934012502603 -0.00025984160145845473 -1.8389951985923376e-6
-0.0007059272981793893 -0.0003091464473020568 -1.572522234416732e-6
-0.00045735049143394993 -0.00012037423149237582 -3.87592262883066e-6
-0.0006144594734598828 -0.0002473897365181266 -3.084880153700045e-6
-9.112567852066171e-5 1.0319983805547284e-5 5.446945770359399e-7
-0.0007925163652944905 -0.0001885627758890236 9.198244439470639e-8
-0.00012701772251025084 -3.469451903231529e-5 -1.845150917307545e-6
-0.0002556176561882248 2.573295729907607e-5 5.364802278554863e-7
-0.000822504107370372 -0.0004908055109199822 2.2004773571187685e-7
-0.0007598514718458645 -0.0008822386223594366 -1.0507844824058153e-7
-0.0007653112798765952 -0.0008071812129734236 -1.37600266164273e-7
-0.0004287400448513763 -5.446107066335746e-6 -7.734345756909478e-7
-0.0004705728523219831 -1.1327422262094909e-5 -8.353805035726452e-7
-0.00020087603665115326 -1.0950625909336488e-5 -7.205326589774862e-7
-0.0002475769782043983 7.090380149284129e-6 -1.319237157901986e-7
-0.0007968006616543766 -0.0004793985780421433 -1.404350115570008e-7
-0.0007810663886393945 -0.0005076707474083823 -3.247149957086664e-7
-0.00026457865977567654 -4.4343098052246803e-7 -4.5447549133941217e-7
-0.0007814895379902329 -0.0005869054737293998 -2.1078138661905936e-7
-0.000299098901074351 -1.5227470298512035e-5 -1.0687984234011507e-6
-0.0001112485236088971 -7.917963690046207e-6 -5.085847761058117e-7
-0.0007699909449024154 -0.00020738902564556785 -2.6580787898986886e-7
-0.0007220911871773084 -0.0010007614947765643 -2.660242047349622e-7
-2.715809951575394e-5 -1.4229407848373925e-5 -1.539706266899163e-6
-0.0006849716586346191 -0.000807683897270366 -8.122408156794196e-7
-1.153240858811222e-5 -1.223953062178812e-5 -1.9645376116390446e-6
-0.000749698127805116 -0.00011781207095923995 -1.2715908965722283e-7
-0.0008183449903721902 -0.001186025752157791 4.344141495655772e-7
-6.67149961168233e-5 1.262092636818413e-5 8.19471248116547e-7
-0.0006620913255630009 3.0347883397655777e-5 5.171421278303014e-7
-0.00047622274639120724 -4.883060955682335e-5 -1.7402125743062335e-6
-0.0008761709443883635 -0.0013012204280620303 6.860633293428894e-7
-0.0007309889818975921 -0.0012824540113542011 2.2090227921006566e-7
-0.00019653780119898202 -2.7940188587939905e-5 -1.4135906014943771e-6
-0.0007819071842959794 -0.0010612707746652115 1.6600037302164204e-7
-0.0007457394444039028 -5.645812214761813e-5 2.2200823555699245e-7
-0.0005979772252252522 -3.454943982892428e-6 -1.5245176800356434e-7
-0.00041244733285573736 -6.457649547814146e-6 -8.200955914590846e-7
-0.0007549888593778519 -0.0007716224041451305 -2.770081042854622e-7
-0.000694099551508082 -0.0007617435492166064 -8.375806946027872e-7
-0.0007455917288278478 7.815135452408858e-5 1.0218717686139864e-6
-0.0008027442999700366 -0.0013290250476407283 5.329738603010719e-7
-9.924214443047613e-5 -2.87804636364961e-5 -1.6777706979706546e-6
-0.0007667424425777246 -0.0011993675505636147 2.286526626968467e-7
-0.0008480637678373027 -0.00018675914300872177 7.903037610906302e-7
-9.838339699186452e-5 3.802507183613768e-5 2.119738722535417e-6
-5.403931222563095e-5 -4.241521659415561e-6 -3.3639457838481315e-7
-0.00079964817527934 -0.0011225259338813547 3.1124411529639496e-7
-0.0007510468387614181 -8.764026094008118e-5 5.1984476905852097e-8
-0.0006413549920073989 7.613786078424596e-6 1.8834701205294292e-7
-0.0007134809156493999 -0.00027470370685870465 -1.3623635150345363e-6
-0.0006090639153274433 -0.0005616311818205684 -2.4287886373860854e-6
-0.0011296015072914255 -0.0013969980512219854 8.101856646935114e-7
-0.0010495630352214717 -0.0002604068656766817 3.569454308987122e-6
-0.00013530020173662226 0.0001135603052009068 5.683343627983869e-6
-0.00025778618446167475 -1.9129553011923156e-5 -1.1201123936721306e-6
-0.0007539575803517195 -0.0004899675017584019 -7.286773663003966e-7
-0.0002486961539869197 5.222786973066289e-5 1.5643553437208345e-6
-3.5765235951011205e-5 -2.1279201422909148e-5 -1.9989912362955283e-6
-0.000211598704543146 -3.486564786756431e-5 -1.685358732020961e-6
-0.0007079887506548345 -0.0013213700637264066 2.4534431499496146e-7
-0.0007788132491388281 -0.0012965688534919261 4.1286500166582e-7
-0.0006391696376610475 -0.000188541916000709 -2.121574716833702e-6
-0.0005381526541548339 -7.748799744774513e-5 -1.8874791834571226e-6
-9.198446205028614e-5 -6.950476541231989e-6 -4.978695706297286e-7
-0.000766723530969667 -0.000174488666532927 -1.9610339392740024e-7
-0.0007574734831125001 -0.0003499115619881005 -7.836473526208901e-7
-0.00016888779976651454 -1.5986210054415934e-5 -8.842783485048198e-7
-0.0007935367360453884 5.378625353320527e-5 9.391879753647352e-7
-0.00013443694342340226 -5.5051803502345136e-5 -2.8029320992858316e-6
-0.0007130787081090625 -0.0009556131913908956 -3.708269695820759e-7
-0.000665703629787682 -0.00101212960118635 -6.094689060141599e-7
-0.0006153719193662 -3.322794086181897e-5 -4.926647324165968e-7
-0.0007014259658732315 -5.398365468490771e-5 -1.095787545650835e-7
-0.0005180475978465557 -5.387055050492202e-5 -1.5753305921604816e-6
-0.0004566290853942805 -3.329262387373983e-5 -1.4367161146748252e-6
-0.0008330534491715834 -0.001290057449633798 5.673795256955456e-7
-0.0007885736749866489 -0.0012352147038603876 3.5601233409343003e-7
-4.2914954252425216e-5 -3.9689180606171085e-6 -3.2704167848364797e-7
-0.0001396672147458031 -4.428190765559099e-5 -2.2530365451522103e-6
-0.0007342820395716199 -0.0001927229315303565 -6.967452348309469e-7
-0.0007442482837192601 -0.0001443553567820058 -3.268853208073512e-7
-7.811772071682006e-5 -6.6031344588221435e-6 -4.680932890784931e-7
-0.0005606033326886213 -5.5764260474672515e-5 -1.2569751245825608e-6
-0.0006990377390810385 -0.00023322038116754522 -1.4473433552294173e-6
-0.0005999812408533734 -0.0001587469512895206 -2.424540699648056e-6
-0.0005594199577966456 -9.768674227135606e-5 -2.023948070021539e-6
-0.0005800774242635535 -3.6244018983762235e-5 -7.822001137703545e-7
-0.000664034548755085 -3.4190627957092476e-5 -1.6528518174245205e-7
-0.00045726455135447404 -6.589582078633204e-5 -2.3292963895221575e-6
-3.1375823237624084e-5 -8.386213961926021e-6 -8.836652017604135e-7
-0.0009311680038303897 -0.000532560226700709 1.7105211327502024e-6
-0.0002586856872737215 7.669338667860917e-5 2.4275610224447737e-6
-0.0007814530297444765 -0.001164990461087528 2.587139314934124e-7
-6.627565895438265e-5 -6.916861905129917e-6 -4.851362938211708e-7
-0.0001322292333749859 -2.39842604625988e-5 -1.3039883353232048e-6
-0.0007167767146988692 -0.00011611858281791536 -4.6056743997198733e-7
-0.0009432701670664618 -0.00048708779870471313 1.9312878772409567e-6
-0.0002234776144907387 7.451402456060775e-5 2.6069041705388604e-6
-0.000540762867329587 -3.6209206533693825e-5 -1.0393485843258468e-6
-0.0005291656296846986 -0.00012730006744057052 -3.015961695477063e-6
-0.0006004695645928547 -5.227857335041032e-5 -8.7985396502742e-7
-0.0006821548875723856 7.549864903297117e-6 3.3839759213336816e-7
-0.0006622431449263061 -5.162991886024302e-5 -3.8168889564381136e-7
-0.0007035554080331985 -0.00021397364024718015 -1.2665298220249731e-6
-0.0007564745594346497 -0.0011043767668194957 6.910572822825503e-8
-0.0006155855343355811 -0.00012589169366412694 -1.753256409886351e-6
-0.0005858613265325465 -0.00011295425356023351 -1.9660467432218694e-6
-0.0006720918511846725 -0.0001884913835415968 -1.5861640927102555e-6
-0.00015817322384517152 -4.151277341433827e-5 -2.040106771759018e-6
-7.711570407641175e-5 -1.8692214832905632e-5 -1.2519252575348895e-6
-0.0006322527054012151 -9.868728989810159e-5 -1.2073457052056784e-6
-0.0009389891885618538 -0.00044870937335781227 1.8947157300921804e-6
-0.00020842715001130296 7.173201607926398e-5 2.6441719893687418e-6
-0.0005254197641019242 -0.0001608891016629675 -3.7914352749215605e-6
-0.0006622396244296607 -7.77901849197194e-6 1.0233199315403569e-7
-0.0006869597532886292 -0.00011457453191328789 -7.669518106668578e-7
-0.000679957089027452 -0.00013853451453170408 -1.0612779461699639e-6
-0.0006058929348212999 -8.714096182421486e-5 -1.340593581806931e-6
-0.00055147978283259 -0.00016426351867444567 -3.351417753751287e-6
-0.0006747786526799171 -8.269484827412612e-5 -5.933244207009115e-7
-0.0007072432650893804 1.7939563688933017e-5 5.283364443619289e-7
-0.0005358248077265347 -0.00019849950623527507 -4.296563104252659e-6
-0.0006589249880709165 -0.00010758001370434214 -1.0206056553456279e-6
-0.000579685142057439 -0.00019885128584980641 -3.3234136632082366e-6
-0.0003428240603817867 -4.4315154349911025e-5 -2.0865883589320598e-6
-1.1978183433224852e-5 -2.7020204399439725e-5 -7.63287049377997e-6
-0.00030860141211046715 -0.0016724422089239843 -2.79273635716228e-7
-1.4476503791796237e-5 3.23219008694389e-5 5.546683062674433e-6
-0.0010118847513289186 0.00013519494620170444 7.275245417470011e-7
-0.0005551957033122568 -0.0015715920294533325 1.5558598217380883e-6
-0.000497782984453567 -0.0013920126165711888 -4.499598607343298e-7
-0.0007256003905920734 -0.0008187167514984847 -4.65614688731877e-7
-0.00025835249739816833 -8.230550276613426e-5 -3.47208817969521e-6
-0.0006587764434586394 -0.0005328363687405425 -1.9335438276914123e-6
-0.0009912510418868825 -0.001418942064575573 7.585814692661052e-7
-1.4785175315211719e-5 3.098574713803786e-5 4.962860404935504e-6
-0.00032232779088793307 -0.00024170998993333748 -9.402109939362946e-6
-0.0006142547194740896 -0.0011658625476987658 -5.974880433786773e-7
-0.00017393139063214704 -6.004244622536432e-6 -4.5664691633442585e-7
-0.0006361940481345187 -4.315865445866851e-5 -4.770602993719698e-7
-0.0011668682273141314 -0.0009217354208856119 3.0645473546304967e-6
-0.0011717800271343845 -0.0009645117440259639 2.8566293970546723e-6
-3.316736106372157e-5 5.847554550616358e-5 6.371263196362947e-6
-4.038982302957478e-5 6.547493324654577e-5 6.3481597993733095e-6
-0.00030603371856986874 -0.001739350739486276 2.5643307907651226e-6
-0.0008478298142400191 -0.0017061645938856698 1.1184760173670868e-6
-0.000803386574969297 -0.0017076402514643204 1.4189640214736175e-6
-0.0002419017395054418 -0.00020242047851258966 -7.600969634606569e-6
-0.00026173298124728734 -0.00021220628488371546 -7.752524335969022e-6
-0.00028193879559352733 -0.00022188169586503234 -8.014606737709311e-6
-0.0003022375142870975 -0.00023158844207322348 -8.50583519439616e-6
-0.00036072659224041097 -0.0007283135116643043 -3.4599199895339235e-6
-0.0010535185485289597 -0.00032801750895474825 3.7291718949993554e-6
-0.00043803847645845827 -0.0002751823884865197 -1.0159333133984772e-5
-0.0002413895952029388 -0.00018452684533492057 -7.058144021234102e-6
-0.00040709163640905083 -0.0002406635981410737 -1.0499544590813303e-5
-4.606669526830016e-5 6.305399449340543e-5 5.489029964745015e-6
-1.3346450134585955e-6 8.95110466815053e-6 4.695704026565657e-6
-0.0011286135130279366 -0.0012206125148845962 1.4297556340472209e-6
-0.0008355936022484331 0.00023633068927817076 1.1536643334887467e-6
-0.0007039261593869933 0.00023497217983582715 2.240386618300993e-6
-0.0009615889831687725 -0.0016064021988537445 6.490002263605379e-7
-0.00016589309160974964 0.00012612092641358074 5.687400771278528e-6
-0.0004470963411322643 -0.0015764140222784802 9.464069010615411e-7
-0.0005165910578514406 -0.0016880445684970366 3.6649249062094325e-6
-0.0001459788202620449 -0.0001403880366441665 -6.779336712861575e-6
-6.979354945522152e-5 -9.484581125815666e-5 -6.841103178085291e-6
-6.006535464556985e-6 -1.7991514947433254e-5 -6.750637515900569e-6
-4.230521265441182e-6 -1.575547143227686e-5 -6.154893972403056e-6
-0.0004114455329097001 -0.0014277244372748175 -1.0923889586979605e-6
-0.0010133778960642879 -0.00023406326858160803 2.9661884956630446e-6
-1.9202271384081857e-5 3.695881929604288e-5 5.151150767082105e-6
-0.0010522344106256515 -0.0006398678043976719 3.0740783856960317e-6
-0.001069694259933191 -0.0008484358709192625 2.539592020217952e-6
-0.0004669935736806197 -0.0002100390333155034 -6.552544341082829e-6
-0.0004797667480946619 -0.0009448664788714301 -1.9946373615202085e-6
-0.0004506321177426724 -0.001222097363747693 -1.4788887642026489e-6
-0.000494549241034047 -0.0015946219382917896 1.6983021412680505e-6
-0.0005146875642064392 -0.001554263988520589 1.1632393690765685e-6
4.896857027140681e-7 6.138691375653557e-6 2.8044075678463848e-6
-8.763377916327508e-5 -9.672282850348145e-5 -6.030093241493051e-6
-3.1378114547185928e-6 -6.41014453044161e-6 -1.6084392426787692e-6
-1.4302474772547069e-6 7.3219381542479505e-6 2.1716864089432277e-6
1.4144866835221008e-6 4.0272592882783876e-7 1.4616174659037912e-7
-0.0007141543525924196 -0.00158013013584756 1.4174507431638978e-6
-0.0004518780985209569 -0.0014181098676303693 -7.1568815294055e-7
-0.000456890454223926 -0.001383182156256928 -8.518034481265796e-7
-0.0004827037433486266 -0.0012639469077507818 -1.124137231213962e-6
-0.0009531035079592435 9.405454031386233e-5 1.0430745311222674e-6
-0.0009376409478304081 -0.00013422224703897088 1.767295264859885e-6
-0.00099298725043835 -0.00026312661804243394 2.721663910791335e-6
-0.000988537437743442 -0.00028636644387938635 2.6739379360982904e-6
-0.0001233013246010742 9.559499169700138e-5 4.944538252048077e-6
-0.0004712762479916603 -0.0010207134129160155 -1.80883882032269e-6
-0.0009795959292759444 -0.0005228351864828139 2.380076238178954e-6
-0.0009651795475544291 -0.0005537012524762468 2.148682649528773e-6
-0.0003386195586783496 0.00015343841997424122 4.342463924516631e-6
-0.0004363279965106861 -0.0001802615539415842 -6.3385723492286e-6
-0.0005018099285557876 -0.00043585734295968647 -5.123677809900762e-6
-0.00048198955738189573 -0.0009041723108533094 -2.095564132216214e-6
-0.0008146891182821466 -0.0015847103523824082 1.1126287839104345e-6
-0.0010361836494529738 -0.0008958479953113567 2.092078713608043e-6
-1.0379938536696846e-5 2.0927906201730444e-5 3.6900780942263454e-6
-0.00024249415052907 -0.00014826955515170602 -5.859979676321284e-6
-0.0005044729196715464 -0.0009155428143720527 -1.9129124949872615e-6
-7.873642841290708e-6 1.6196020889112945e-5 3.1324563641098155e-6
-0.0009153871167679378 0.0001569160418998164 9.018161245875218e-7
-3.1749343814115525e-6 1.078329532670926e-5 2.8253408725384977e-6
-8.848807879359858e-6 -2.3646932590835587e-5 -5.232769340829226e-6
-7.628037401356785e-6 -2.0607314012694462e-5 -4.579947083095578e-6
-0.0008936535901155191 -0.0015114013924420534 8.131714651155993e-7
-0.0010036369483282669 -0.0006879504869799303 2.3815333954353187e-6
-0.0009569294415148489 -0.0015380070301827115 7.010659418683275e-7
-0.0005204839309602388 -0.0010143478204556445 -1.5409100356921428e-6
-6.304986386540268e-6 -1.4845905418130598e-5 -3.2004128559171974e-6
-8.392666509097386e-6 -6.1179713643173125e-6 -1.1087049984474477e-6
-8.265965082489266e-5 -8.649059955013349e-5 -5.534468512463551e-6
-8.575309372384183e-5 5.7656911166570585e-5 3.5144764945962244e-6
-0.00021377813383145918 0.00010784611097377522 4.092568590122456e-6
-0.0002302816405617427 0.00011016813366144676 3.989079543695686e-6
-0.0002616741120247342 0.00010663340406601611 3.511537120806872e-6
-0.0002739728663625907 9.691251931848749e-5 3.0484036421364216e-6
-0.0003593007887414049 0.00013649536316697077 3.572921875596416e-6
-0.00037922627644345984 0.00013332641545647358 3.306022388092634e-6
-0.0009719146505597551 -0.0002774779161422363 2.420683128614914e-6
-0.0009548302081778781 -0.00028375012683731055 2.175850631929241e-6
-0.0005483783768857166 -0.0002506659586706808 -4.742993904107571e-6
-0.0005175512709202588 -0.00018867322130250146 -4.558481116628184e-6
-2.336472979924294e-5 3.3239867016157875e-5 3.8990597482627485e-6
-0.00048094947282924304 -0.0014158171037600127 -4.5300635284352793e-7
-0.0005272959198176397 -0.0012625973346104115 -8.400744516754744e-7
-0.00052971881176843 -0.00122394380307106 -9.479339045509906e-7
-0.0008322949357559353 -0.0015417188745799446 9.793071901818005e-7
-0.0007054816470388683 -0.0015454328697383582 1.2483014849294574e-6
-0.0010418807567078579 -0.0010329275417828166 1.717383830698185e-6
-0.0009231948986583007 9.097993917424102e-5 1.0652021673517608e-6
-0.0008951250426078759 -0.00015657589679020207 1.3513224886296616e-6
-1.6554683430011635e-6 1.2108152664302292e-6 2.680672001275363e-7
-0.0005838217450517408 -0.0005102441748252425 -3.096015767307089e-6
-1.102447728831729e-5 1.716154853650167e-5 2.799875529102212e-6
-0.0010445342739008583 -0.001257085625456661 1.1119783768231835e-6
-0.0009748715285218443 -0.0008154877254830995 1.7577232361860632e-6
-0.0008941905470513139 -0.0002799550030198623 1.3374570206967452e-6
-0.0005531043106595708 -0.0002243994333353791 -4.283252273651447e-6
-0.0009718148289727689 -0.000261864950654602 2.4115965889520166e-6
-1.9389459803556327e-5 3.183860532067258e-5 4.168774503548516e-6
-9.08585800967891e-6 1.2840850427549515e-5 2.2297333764227473e-6
-0.0008985669485433435 -0.00024989736177895083 1.3955739978038028e-6
-0.0005432767509372289 -0.0006768577977635374 -2.4765825827871594e-6
-0.0008933869930683655 -0.0005920057307906544 1.173780454828163e-6
-0.0008952474929010207 -0.00046202970046505014 1.2374160982055801e-6
-0.001047681168921597 -0.0013758812287473644 8.481336613131146e-7
-1.100469934911789e-5 -2.187389196620522e-5 -3.843976987545855e-6
-1.0785603925226843e-5 -1.545641258176322e-5 -2.590101788392116e-6
-0.00010372259542238449 -7.286908860655633e-5 -4.113988589078505e-6
-9.174017220321509e-5 -6.345786080648726e-5 -3.8140662910599524e-6
-0.0009175449958916498 -0.0006766293656103495 1.3775056459240803e-6
-0.0005287513538941847 -0.00017718707188414556 -4.07157184962137e-6
-0.0008912347693393165 7.02411762908037e-5 1.0950120108600218e-6
-0.0008879785942575408 4.512826960364323e-5 1.1196034981987965e-6
-0.0008823402029143916 -3.972361981116693e-5 1.1637503659783807e-6
-0.0005859454615298393 -0.0015011220679081547 8.668976043125397e-7
-8.613710367006757e-5 4.686543472799427e-5 2.8172570958036314e-6
-9.666131684555433e-5 4.897858972341501e-5 2.799476733029937e-6
-0.00016283291719354395 7.777976983705949e-5 3.3851328674027632e-6
-0.00022622135435166626 9.153956766385431e-5 3.2749357451947504e-6
-0.0002532543842157851 9.217685762285219e-5 3.0624601241362636e-6
-0.00035662965508731156 0.00011976543271136318 3.0744484368036772e-6
-0.00038672344476908344 0.00010031492256145066 2.2837282236976077e-6
-0.0004074011694301836 8.91315773909981e-5 1.8678832485395208e-6
-0.0005819862255330512 -0.00022361462824566333 -3.585524826318923e-6
-0.0008749745335962612 -0.00024664904742506305 1.0915073257248254e-6
-3.749900484605505e-5 2.112316750934579e-5 1.87882044842802e-6
-0.00092657703118606 -0.000990142623728773 1.0892520370643443e-6
-0.0004073393336956017 -0.00012708826863424733 -4.70951674710534e-6
-1.4402634408380508e-5 1.7466051364860768e-5 2.4616739958913564e-6
-0.0005547860243270255 -0.0010328844634042479 -1.2751646985488265e-6
-0.00016696319857387428 -6.521472743730853e-5 -3.048131955714121e-6
-0.0008445636906423278 -0.001515730341514592 9.006683396835063e-7
-0.0008619901782501875 -0.0014858758779311598 8.291905009598574e-7
-0.0009115316792609837 -0.0014759280971358762 7.709352830135321e-7
-0.0008910157436122012 -0.0001880716275904895 1.311038014300097e-6
-0.0005669785891600983 -0.0009425214181211471 -1.4247361724419954e-6
-0.0005322291618170615 -0.0011872767583445984 -1.031394384857399e-6
-0.000570598864304333 -0.001183485269958134 -8.075679823325869e-7
-0.00090589705095176 -0.0010237602486321536 9.175298598067458e-7
-0.000734480517076891 0.00012397566807547725 1.3278055372511661e-6
-0.00010354012609835152 6.028613060318255e-5 3.361164661251945e-6
-0.0005564513761936372 -0.00020247255442298057 -3.88255555374412e-6
-0.0008735671907321438 -0.00040949216249143764 9.589258825299243e-7
-1.7994768779017135e-5 -3.4279917036372886e-5 -4.983626264516869e-6
-0.000576220976911635 -0.0009114306836628507 -1.4246560871454507e-6
-0.000262538997417343 -0.00011866343234148088 -4.7667742411821425e-6
-0.000311770048529572 9.502586208134833e-5 2.659689712211315e-6
-0.0008628273139546247 -0.00022364497494989575 9.446104715470571e-7
-0.0010211928032636808 -0.0014863170595927795 6.629834611562757e-7
-0.00023899708983801503 7.472156618295339e-5 2.5032645332501265e-6
-0.0003284648383981526 9.088690885819345e-5 2.389039720273555e-6
-0.0009929226168684296 -0.0013671953720048521 8.260759373217157e-7
-0.0006143821775579506 -0.0014615392692015178 6.082305867915283e-7
-1.5620426055237117e-5 -2.2475694369778988e-5 -3.2379989510793465e-6
-1.789874037911125e-5 -1.1655507445911286e-5 -1.5195809421982906e-6
-2.0629063324389503e-5 -7.91572925924146e-6 -9.810909872550101e-7
-0.0008490773991279498 0.00013227284449392462 1.1101027970805192e-6
-0.0008979674533865191 -0.000976734795846837 9.195871393437199e-7
-0.00010505671331138761 -6.029047942085222e-5 -3.375191874938922e-6
-0.0007447443177098849 -0.0014650491596130786 8.244054923459913e-7
-0.000642080818078213 -0.001384154651319332 2.61138269377577e-7
-7.786537139788612e-5 3.4942213368653365e-5 2.175086654572014e-6
-0.0008499690177502819 -0.0004368652116571382 6.150965601415686e-7
-0.0008445694878297781 -0.0005303247708201941 5.492268226369793e-7
-0.0007523868366361176 0.00010652835776434665 1.172667285498475e-6
-0.0008752813386287379 9.562419622667441e-5 1.0440945663547375e-6
-0.0008331016282222768 -0.00011004588549891975 7.467651527357386e-7
-0.0005855820309060922 -0.0011359771452051108 -8.337948573975482e-7
-0.0007200773333100337 9.882779678008487e-5 1.1696772557773174e-6
-0.0005696056823201946 -0.0010855772723291184 -1.0552563500626077e-6
-0.0006127340602847877 -0.001015844015807589 -9.381398975721638e-7
-0.0005376103861057168 -0.0011522303032114349 -1.0801834838263346e-6
-0.0008089579894407766 -0.0008002032819854235 2.6135495058760524e-7
-0.00086164493630561 -0.0006366016001703827 7.80979309423164e-7
-0.0008380279294268509 -0.0006340500947470885 5.056355267442513e-7
-0.00045084911326388554 -9.67836887287449e-5 -3.2447563497963746e-6
-0.0009660013115637256 -0.0014646363901783194 7.274683528895564e-7
-0.0008992961695579082 -0.0014201598799837576 7.535625601477769e-7
-0.0004298487723959026 8.259067660247624e-5 1.5786362369090804e-6
-0.0006080062820518985 -0.00019130981442837461 -2.6926201448615452e-6
-0.0005429689151667937 -0.00018174528012406942 -3.846018982905001e-6
-0.00010754227254718891 5.341577710335367e-5 2.8912969471880767e-6
-0.0008509564589441939 -0.0014300107842282982 7.585672143638629e-7
-0.0008502286801745961 -0.0008428000614496379 6.365578253312983e-7
-0.0008455936169485633 -0.00040647032051520056 5.562658560848002e-7
-0.0004190179332375991 0.00011264266247997676 2.4441727459945365e-6
-0.0006010865546365796 -0.0012814493241434695 -3.57763070140174e-7
-1.9861803708309406e-5 1.1247816465563416e-5 1.3028938138293725e-6
-0.000849881899123478 0.00011027215120866397 1.0871343752487245e-6
-0.0002491475154340958 -9.962979193259474e-5 -4.072784103884532e-6
-0.0005764783656959602 -0.0007139994208134392 -1.994216050793547e-6
-2.1524476696375417e-5 -3.0286196032416073e-5 -3.7792438152585466e-6
-0.0001448871219263124 -3.2391850688231414e-5 -1.6639639431904321e-6
-0.0008069966511137815 -0.0006312366492161047 1.3588925223652346e-7
-0.0008298696820409646 -0.000467347774141701 3.2174855496236027e-7
-0.0008108989565409596 -0.0005202022246851356 8.927500591808398e-8
-0.0005528594639530512 0.00010038274712925663 1.5261888059224435e-6
-0.000437646960162072 0.00010307038671177266 2.0641259954851142e-6
-0.00045906906817472156 9.973036294782575e-5 1.862683695467597e-6
-0.0004269736815927258 -7.656611990997725e-5 -2.8410293601476495e-6
-0.000383703803581456 -7.939716880074709e-5 -3.171387119189763e-6
-0.00036155362072870913 -7.754631424470746e-5 -3.1957425492505738e-6
-0.0007774410394103706 8.33751193391435e-5 1.050837391911126e-6
-0.0008623901767086748 -0.0009502386461306091 6.809501748092224e-7
-2.0945819788678056e-5 -2.2141509485639045e-5 -2.723039123904262e-6
-2.1963982891470877e-5 -1.4792544177009472e-5 -1.7424426472754804e-6
-0.0008434658374695636 -0.00138623458162279 6.978432776780404e-7
-9.648298784528557e-5 -4.085786287024804e-5 -2.39947703117076e-6
-0.00035627481274373897 5.47540561280601e-5 1.0854332560174194e-6
-0.0008037384063516483 -0.00024352415560100895 1.205523852520784e-7
-0.0007533342521368595 -0.0003104732835629399 -7.845585492621207e-7
-0.0007265292750958998 -0.0003391645432388679 -1.2606822071723936e-6
-7.489300470932751e-5 -4.684897452846205e-5 -3.1399718031431074e-6
-7.173713757338719e-5 2.419019230628115e-5 1.5448905829511847e-6
-9.700357683500148e-5 2.5336012466758805e-5 1.3840340942348818e-6
-0.0008188293238540718 -7.856383742945523e-5 6.630068720267426e-7
-0.0007574564340535153 -0.00019208319186120676 -3.9031790418559507e-7
-0.0008220119603619053 7.799386715378499e-5 1.029029203081526e-6
-0.0009681349897075291 -0.0014321925140960193 7.390169197062208e-7
-0.000647871835503367 -0.0014302068247545126 5.165280330842847e-7
-0.000624668622179502 -0.0010693024998733457 -7.592832435277151e-7
-0.000650966545409219 -0.0012114673135624956 -2.955166514889664e-7
-0.0006667327899289671 -0.0006125971660152926 -1.517491287550003e-6
-0.0005719506700516131 -0.0001773138486893568 -3.181714724227183e-6
-0.000644289020170976 6.29594068548399e-5 8.691634635006579e-7
-0.0003201686869835208 7.117605623569663e-5 1.7981474991910904e-6
-0.0009679493562917053 -0.001388828210082104 7.832444017873544e-7
-0.0009399815255834659 -0.00135858261529465 7.801534995723864e-7
-0.0009095975688675115 -0.001327019908953195 7.505124547727456e-7
-0.0001634722860076142 -2.8342074612880125e-5 -1.4326467242854433e-6
-0.0006616034684865948 -0.00040859937729589564 -2.3466526680625895e-6
-0.0006768277685541583 -0.0009626803377493521 -6.280457801741931e-7
-0.0005235519021259678 -2.0853043244547722e-5 -8.216448749301171e-7
-0.0006471951116261203 -0.00013343722876426483 -1.435895909569282e-6
-0.0006735149388503735 -0.0006412896431609313 -1.347361136484673e-6
-0.0005565175558803221 -0.00018715068616577163 -3.648594252757619e-6
-0.0006621320196687461 5.333775288372773e-5 7.819250942455303e-7
-4.4348818569108814e-5 4.797715862425583e-6 4.0911942962168787e-7
-0.0006928390238564407 4.2927192556773285e-5 7.125383985125113e-7
-0.0006967930880686343 -0.00038238694957690666 -1.7705073285581207e-6
-0.00022141462620501654 6.028644115734505e-5 2.043020691418188e-6
-5.8651853772935106e-5 1.5104312950914055e-5 1.067979082512043e-6
-2.870496781863319e-5 -3.901445730447171e-5 -4.245320799222796e-6
-0.00027281155590808695 -6.18179819431574e-5 -2.7171361862981903e-6
-0.00019021804463854387 5.407940179347279e-5 2.032530224836503e-6
-0.00034156600477395474 3.426951801910162e-5 4.911745663173881e-7
-0.00035598603812219857 2.2293236778865403e-5 6.755252669162146e-8
-0.0003678453999448507 7.381147900218696e-6 -4.1278691440306567e-7
-0.0007409124870334979 -0.0006857097797385467 -5.238074180012025e-7
-0.0007070876313291508 -0.0007080514582340487 -8.317359838950141e-7
-6.692491990248462e-5 -3.633188788732933e-5 -2.5436819113615836e-6
-2.5835546506410146e-5 -2.474036031167621e-5 -2.7552044340179136e-6
-5.308726475254732e-5 -3.343516505426194e-5 -2.598600017379488e-6
-0.000384004566024805 -6.112748906798495e-5 -2.5753197438200137e-6
-0.0006917884449492263 -0.0010380139886971725 -3.971149722560479e-7
-0.0006921962383177831 -0.001200693341165512 -1.1807336650597114e-7
-0.0008647875880955658 -0.0013268612443080347 6.697620780519104e-7
-0.0008347129507683122 -0.001325635174589566 6.03835175009947e-7
-0.0007724442346722144 1.767506073569761e-5 7.308158196728673e-7
-0.0004278900661603932 1.458984143872998e-5 -2.3254405592149504e-7
-0.00039328678745500795 5.137550499981747e-6 -4.956306423646574e-7
-0.0007364555285714615 -0.0005195295004191923 -9.220445115505704e-7
-8.527358569436533e-5 1.7658487987610406e-5 1.0042974327203889e-6
-0.00010529039932446777 9.463441171822111e-6 4.0944464935297554e-7
-5.089013917124771e-5 3.24774942399606e-6 2.5252763657208213e-7
-0.0006720043406434689 -0.0002132260499472255 -1.7706982636960637e-6
-0.0006744891701544737 -0.000163506338086801 -1.3450919647780816e-6
-0.0006185282999449845 1.9644152889485852e-5 2.596061478889138e-7
-0.0005328389097604101 -7.444359238047341e-7 -3.8723142241419046e-7
-0.0006490081745499634 -7.387722932357383e-5 -7.419644368472348e-7
-0.000738002460730297 -0.00016867621290793462 -5.297851722968175e-7
-0.0007056786400951959 -0.0006253727122946286 -1.0409146741725312e-6
-0.0007365955913086537 -0.0012405877979183068 1.5706700007793806e-7
-0.00021283344546744367 2.2831862496056098e-5 6.198195354658737e-7
-0.0007737410071005695 -0.0010108140336100079 7.489431002155296e-8
-0.0006996124351860166 -0.0012721331446663103 6.883550807668067e-8
-0.0007970105589591887 -0.0013665698687097948 5.943524914964919e-7
-0.000690638181672151 -0.00028411475930782384 -1.7727193676749182e-6
-0.0007738131599872032 -0.00047056907736722894 -4.5349623624637873e-7
-0.0007182332007735615 -0.0006584399007988306 -8.111554288062133e-7
-0.0007141797796285955 -0.0007894591269659774 -6.134686711688997e-7
-3.136523786585511e-5 -3.105286548318929e-5 -3.1415295547927332e-6
-2.9781626026217158e-5 -2.700217660339812e-5 -2.7923413105059053e-6
-3.208092677577845e-5 -2.4960560887613445e-5 -2.4730881760040255e-6
-0.0007168840172588104 -0.0002512329203413418 -1.2299360053025603e-6
-0.0001365714752725383 1.7438307528505135e-5 7.703315928052661e-7
-0.00046501843523907236 3.650901895698449e-5 3.422054731780732e-7
-3.739965495028753e-5 -3.6950282481424974e-5 -3.4655473535777127e-6
-3.6145643120410496e-5 -3.1393300415047164e-5 -2.9471861149675553e-6
-0.0007441958394031736 -0.0009492192580990701 -1.571027637212346e-7
-0.000526328770062579 8.304267191220562e-5 1.261714336521823e-6
-0.000695256634985202 -1.246356879782265e-5 1.9227426895748473e-7
-0.0008309730247388348 -0.0009164997229525563 4.46567270650779e-7
-0.00023364432503591238 -2.717258987677563e-5 -1.4016217239130803e-6
-0.0005176832397947538 3.268706693218089e-5 2.692822227525516e-7
-0.00034260688990108123 6.2215870658274545e-6 -4.192677809334843e-7
-0.00032044540477889534 -2.1061759044405428e-6 -6.420615962629542e-7
-0.0007047048958000813 -0.00019035666121992506 -1.1037830672920544e-6
-0.0007120535173585545 -0.00014119287822539692 -6.871928144282149e-7
-0.00010293506174232526 -1.8311012455900513e-6 -2.215433649252164e-7
-0.00012053534940961781 -1.6203921746961432e-5 -9.233993528658405e-7
-7.825222310550363e-5 1.6455792553584e-5 1.001418698014799e-6
-0.0008198223323911969 -5.89833896879369e-5 7.377389837778106e-7
-0.0008264645767699974 -4.105513124577791e-5 8.212583235984837e-7
-0.0005303490507324191 5.617552725496158e-5 7.333420470852858e-7
-0.0004438779821562298 -2.2126434587637786e-5 -1.2013324049102873e-6
-0.0004485512091096716 -5.617224837940189e-6 -7.517379367111801e-7
-0.0004092497864756723 -2.604300893211128e-5 -1.391313788778499e-6
-0.0006695855649381016 -0.0007309632202523832 -1.1349635951239744e-6
-0.0005865007279978122 1.4439778758563238e-5 8.395683767330631e-8
-0.0006255553155995874 -1.292998395905215e-5 -1.4691024156085372e-7
-0.0007448160790935336 -3.062783068476404e-5 3.7665765564996454e-7
-6.0828570693868906e-5 4.543389155623315e-6 2.978390520247393e-7
-0.0002404869252399333 -1.056407387914887e-5 -7.80595006846014e-7
-0.0007164148923700948 -8.812808114628509e-5 -2.707493837500455e-7
-0.00010405670037628544 -1.7509432228533175e-5 -1.0349923608421276e-6
-6.740372443630956e-5 9.57638733984629e-7 5.894322059900517e-8
-0.00039970315286568545 -6.921095263038533e-6 -8.443726348671868e-7
-0.0003323405678726921 -5.07143690653041e-6 -7.65769105357062e-7
-0.00033573385955774313 -2.0010474009125482e-5 -1.2745884206238111e-6
-0.0002852709333783403 -4.4717601188328e-5 -2.1155826814749092e-6
-0.00018067514214435682 3.952885831066469e-5 1.4674750125371948e-6
-0.0005976334851590976 -2.4777655426201082e-5 -4.908682207503321e-7
-0.0006808502378484819 -2.6666269188930022e-5 -1.5088672568734407e-9
-0.00038013027545390644 -3.63590920500595e-5 -1.7592775560853004e-6
-0.00039161289381764344 -1.9529547880938106e-5 -1.224490448276079e-6
-0.00018543018639318766 -6.341566679806523e-6 -5.195553763165784e-7
