# vtk DataFile Version 1.0
Bar_TO_3D
ASCII
DATASET UNSTRUCTURED_GRID
POINTS 2121 float 
-6.25 -11.25 0.0
-6.75 -11.25 0.0
-7.25 -11.25 0.0
-7.75 -11.25 0.0
-8.25 -11.25 0.0
-8.75 -11.25 0.0
-9.25 -11.25 0.0
-9.75 -11.25 0.0
-10.25 -11.25 0.0
-10.75 -11.25 0.0
-11.25 -11.25 0.0
-11.75 -11.25 0.0
-12.25 -11.25 0.0
-12.75 -11.25 0.0
-13.25 -11.25 0.0
-13.75 -11.25 0.0
-14.25 -11.25 0.0
-14.75 -11.25 0.0
-15.25 -11.25 0.0
-15.75 -11.25 0.0
-16.25 -11.25 0.0
-16.75 -11.25 0.0
-17.25 -11.25 0.0
-17.75 -11.25 0.0
-18.25 -11.25 0.0
-18.75 -11.25 0.0
-19.25 -11.25 0.0
-19.75 -11.25 0.0
-20.25 -11.25 0.0
-20.75 -11.25 0.0
-21.25 -11.25 0.0
-21.75 -11.25 0.0
-22.25 -11.25 0.0
-22.75 -11.25 0.0
-23.25 -11.25 0.0
-23.75 -11.25 0.0
-24.25 -11.25 0.0
-24.75 -11.25 0.0
-25.25 -11.25 0.0
-25.75 -11.25 0.0
-26.25 -11.25 0.0
-26.75 -11.25 0.0
-27.25 -11.25 0.0
-27.75 -11.25 0.0
-28.25 -11.25 0.0
-28.75 -11.25 0.0
-29.25 -11.25 0.0
-29.75 -11.25 0.0
-30.25 -11.25 0.0
-30.75 -11.25 0.0
-31.25 -11.25 0.0
-31.75 -11.25 0.0
-32.25 -11.25 0.0
-32.75 -11.25 0.0
-33.25 -11.25 0.0
-33.75 -11.25 0.0
-34.25 -11.25 0.0
-34.75 -11.25 0.0
-35.25 -11.25 0.0
-35.75 -11.25 0.0
-36.25 -11.25 0.0
-36.75 -11.25 0.0
-37.25 -11.25 0.0
-37.75 -11.25 0.0
-38.25 -11.25 0.0
-38.75 -11.25 0.0
-39.25 -11.25 0.0
-39.75 -11.25 0.0
-40.25 -11.25 0.0
-40.75 -11.25 0.0
-41.25 -11.25 0.0
-41.75 -11.25 0.0
-42.25 -11.25 0.0
-42.75 -11.25 0.0
-43.25 -11.25 0.0
-43.75 -11.25 0.0
-44.25 -11.25 0.0
-44.75 -11.25 0.0
-45.25 -11.25 0.0
-45.75 -11.25 0.0
-46.25 -11.25 0.0
-46.75 -11.25 0.0
-47.25 -11.25 0.0
-47.75 -11.25 0.0
-48.25 -11.25 0.0
-48.75 -11.25 0.0
-49.25 -11.25 0.0
-49.75 -11.25 0.0
-50.25 -11.25 0.0
-50.75 -11.25 0.0
-51.25 -11.25 0.0
-51.75 -11.25 0.0
-52.25 -11.25 0.0
-52.75 -11.25 0.0
-53.25 -11.25 0.0
-53.75 -11.25 0.0
-54.25 -11.25 0.0
-54.75 -11.25 0.0
-55.25 -11.25 0.0
-55.75 -11.25 0.0
-56.25 -11.25 0.0
-6.25 -11.75 0.0
-6.75 -11.75 0.0
-7.25 -11.75 0.0
-7.75 -11.75 0.0
-8.25 -11.75 0.0
-8.75 -11.75 0.0
-9.25 -11.75 0.0
-9.75 -11.75 0.0
-10.25 -11.75 0.0
-10.75 -11.75 0.0
-11.25 -11.75 0.0
-11.75 -11.75 0.0
-12.25 -11.75 0.0
-12.75 -11.75 0.0
-13.25 -11.75 0.0
-13.75 -11.75 0.0
-14.25 -11.75 0.0
-14.75 -11.75 0.0
-15.25 -11.75 0.0
-15.75 -11.75 0.0
-16.25 -11.75 0.0
-16.75 -11.75 0.0
-17.25 -11.75 0.0
-17.75 -11.75 0.0
-18.25 -11.75 0.0
-18.75 -11.75 0.0
-19.25 -11.75 0.0
-19.75 -11.75 0.0
-20.25 -11.75 0.0
-20.75 -11.75 0.0
-21.25 -11.75 0.0
-21.75 -11.75 0.0
-22.25 -11.75 0.0
-22.75 -11.75 0.0
-23.25 -11.75 0.0
-23.75 -11.75 0.0
-24.25 -11.75 0.0
-24.75 -11.75 0.0
-25.25 -11.75 0.0
-25.75 -11.75 0.0
-26.25 -11.75 0.0
-26.75 -11.75 0.0
-27.25 -11.75 0.0
-27.75 -11.75 0.0
-28.25 -11.75 0.0
-28.75 -11.75 0.0
-29.25 -11.75 0.0
-29.75 -11.75 0.0
-30.25 -11.75 0.0
-30.75 -11.75 0.0
-31.25 -11.75 0.0
-31.75 -11.75 0.0
-32.25 -11.75 0.0
-32.75 -11.75 0.0
-33.25 -11.75 0.0
-33.75 -11.75 0.0
-34.25 -11.75 0.0
-34.75 -11.75 0.0
-35.25 -11.75 0.0
-35.75 -11.75 0.0
-36.25 -11.75 0.0
-36.75 -11.75 0.0
-37.25 -11.75 0.0
-37.75 -11.75 0.0
-38.25 -11.75 0.0
-38.75 -11.75 0.0
-39.25 -11.75 0.0
-39.75 -11.75 0.0
-40.25 -11.75 0.0
-40.75 -11.75 0.0
-41.25 -11.75 0.0
-41.75 -11.75 0.0
-42.25 -11.75 0.0
-42.75 -11.75 0.0
-43.25 -11.75 0.0
-43.75 -11.75 0.0
-44.25 -11.75 0.0
-44.75 -11.75 0.0
-45.25 -11.75 0.0
-45.75 -11.75 0.0
-46.25 -11.75 0.0
-46.75 -11.75 0.0
-47.25 -11.75 0.0
-47.75 -11.75 0.0
-48.25 -11.75 0.0
-48.75 -11.75 0.0
-49.25 -11.75 0.0
-49.75 -11.75 0.0
-50.25 -11.75 0.0
-50.75 -11.75 0.0
-51.25 -11.75 0.0
-51.75 -11.75 0.0
-52.25 -11.75 0.0
-52.75 -11.75 0.0
-53.25 -11.75 0.0
-53.75 -11.75 0.0
-54.25 -11.75 0.0
-54.75 -11.75 0.0
-55.25 -11.75 0.0
-55.75 -11.75 0.0
-56.25 -11.75 0.0
-6.25 -12.25 0.0
-6.75 -12.25 0.0
-7.25 -12.25 0.0
-7.75 -12.25 0.0
-8.25 -12.25 0.0
-8.75 -12.25 0.0
-9.25 -12.25 0.0
-9.75 -12.25 0.0
-10.25 -12.25 0.0
-10.75 -12.25 0.0
-11.25 -12.25 0.0
-11.75 -12.25 0.0
-12.25 -12.25 0.0
-12.75 -12.25 0.0
-13.25 -12.25 0.0
-13.75 -12.25 0.0
-14.25 -12.25 0.0
-14.75 -12.25 0.0
-15.25 -12.25 0.0
-15.75 -12.25 0.0
-16.25 -12.25 0.0
-16.75 -12.25 0.0
-17.25 -12.25 0.0
-17.75 -12.25 0.0
-18.25 -12.25 0.0
-18.75 -12.25 0.0
-19.25 -12.25 0.0
-19.75 -12.25 0.0
-20.25 -12.25 0.0
-20.75 -12.25 0.0
-21.25 -12.25 0.0
-21.75 -12.25 0.0
-22.25 -12.25 0.0
-22.75 -12.25 0.0
-23.25 -12.25 0.0
-23.75 -12.25 0.0
-24.25 -12.25 0.0
-24.75 -12.25 0.0
-25.25 -12.25 0.0
-25.75 -12.25 0.0
-26.25 -12.25 0.0
-26.75 -12.25 0.0
-27.25 -12.25 0.0
-27.75 -12.25 0.0
-28.25 -12.25 0.0
-28.75 -12.25 0.0
-29.25 -12.25 0.0
-29.75 -12.25 0.0
-30.25 -12.25 0.0
-30.75 -12.25 0.0
-31.25 -12.25 0.0
-31.75 -12.25 0.0
-32.25 -12.25 0.0
-32.75 -12.25 0.0
-33.25 -12.25 0.0
-33.75 -12.25 0.0
-34.25 -12.25 0.0
-34.75 -12.25 0.0
-35.25 -12.25 0.0
-35.75 -12.25 0.0
-36.25 -12.25 0.0
-36.75 -12.25 0.0
-37.25 -12.25 0.0
-37.75 -12.25 0.0
-38.25 -12.25 0.0
-38.75 -12.25 0.0
-39.25 -12.25 0.0
-39.75 -12.25 0.0
-40.25 -12.25 0.0
-40.75 -12.25 0.0
-41.25 -12.25 0.0
-41.75 -12.25 0.0
-42.25 -12.25 0.0
-42.75 -12.25 0.0
-43.25 -12.25 0.0
-43.75 -12.25 0.0
-44.25 -12.25 0.0
-44.75 -12.25 0.0
-45.25 -12.25 0.0
-45.75 -12.25 0.0
-46.25 -12.25 0.0
-46.75 -12.25 0.0
-47.25 -12.25 0.0
-47.75 -12.25 0.0
-48.25 -12.25 0.0
-48.75 -12.25 0.0
-49.25 -12.25 0.0
-49.75 -12.25 0.0
-50.25 -12.25 0.0
-50.75 -12.25 0.0
-51.25 -12.25 0.0
-51.75 -12.25 0.0
-52.25 -12.25 0.0
-52.75 -12.25 0.0
-53.25 -12.25 0.0
-53.75 -12.25 0.0
-54.25 -12.25 0.0
-54.75 -12.25 0.0
-55.25 -12.25 0.0
-55.75 -12.25 0.0
-56.25 -12.25 0.0
-6.25 -12.75 0.0
-6.75 -12.75 0.0
-7.25 -12.75 0.0
-7.75 -12.75 0.0
-8.25 -12.75 0.0
-8.75 -12.75 0.0
-9.25 -12.75 0.0
-9.75 -12.75 0.0
-10.25 -12.75 0.0
-10.75 -12.75 0.0
-11.25 -12.75 0.0
-11.75 -12.75 0.0
-12.25 -12.75 0.0
-12.75 -12.75 0.0
-13.25 -12.75 0.0
-13.75 -12.75 0.0
-14.25 -12.75 0.0
-14.75 -12.75 0.0
-15.25 -12.75 0.0
-15.75 -12.75 0.0
-16.25 -12.75 0.0
-16.75 -12.75 0.0
-17.25 -12.75 0.0
-17.75 -12.75 0.0
-18.25 -12.75 0.0
-18.75 -12.75 0.0
-19.25 -12.75 0.0
-19.75 -12.75 0.0
-20.25 -12.75 0.0
-20.75 -12.75 0.0
-21.25 -12.75 0.0
-21.75 -12.75 0.0
-22.25 -12.75 0.0
-22.75 -12.75 0.0
-23.25 -12.75 0.0
-23.75 -12.75 0.0
-24.25 -12.75 0.0
-24.75 -12.75 0.0
-25.25 -12.75 0.0
-25.75 -12.75 0.0
-26.25 -12.75 0.0
-26.75 -12.75 0.0
-27.25 -12.75 0.0
-27.75 -12.75 0.0
-28.25 -12.75 0.0
-28.75 -12.75 0.0
-29.25 -12.75 0.0
-29.75 -12.75 0.0
-30.25 -12.75 0.0
-30.75 -12.75 0.0
-31.25 -12.75 0.0
-31.75 -12.75 0.0
-32.25 -12.75 0.0
-32.75 -12.75 0.0
-33.25 -12.75 0.0
-33.75 -12.75 0.0
-34.25 -12.75 0.0
-34.75 -12.75 0.0
-35.25 -12.75 0.0
-35.75 -12.75 0.0
-36.25 -12.75 0.0
-36.75 -12.75 0.0
-37.25 -12.75 0.0
-37.75 -12.75 0.0
-38.25 -12.75 0.0
-38.75 -12.75 0.0
-39.25 -12.75 0.0
-39.75 -12.75 0.0
-40.25 -12.75 0.0
-40.75 -12.75 0.0
-41.25 -12.75 0.0
-41.75 -12.75 0.0
-42.25 -12.75 0.0
-42.75 -12.75 0.0
-43.25 -12.75 0.0
-43.75 -12.75 0.0
-44.25 -12.75 0.0
-44.75 -12.75 0.0
-45.25 -12.75 0.0
-45.75 -12.75 0.0
-46.25 -12.75 0.0
-46.75 -12.75 0.0
-47.25 -12.75 0.0
-47.75 -12.75 0.0
-48.25 -12.75 0.0
-48.75 -12.75 0.0
-49.25 -12.75 0.0
-49.75 -12.75 0.0
-50.25 -12.75 0.0
-50.75 -12.75 0.0
-51.25 -12.75 0.0
-51.75 -12.75 0.0
-52.25 -12.75 0.0
-52.75 -12.75 0.0
-53.25 -12.75 0.0
-53.75 -12.75 0.0
-54.25 -12.75 0.0
-54.75 -12.75 0.0
-55.25 -12.75 0.0
-55.75 -12.75 0.0
-56.25 -12.75 0.0
-6.25 -13.25 0.0
-6.75 -13.25 0.0
-7.25 -13.25 0.0
-7.75 -13.25 0.0
-8.25 -13.25 0.0
-8.75 -13.25 0.0
-9.25 -13.25 0.0
-9.75 -13.25 0.0
-10.25 -13.25 0.0
-10.75 -13.25 0.0
-11.25 -13.25 0.0
-11.75 -13.25 0.0
-12.25 -13.25 0.0
-12.75 -13.25 0.0
-13.25 -13.25 0.0
-13.75 -13.25 0.0
-14.25 -13.25 0.0
-14.75 -13.25 0.0
-15.25 -13.25 0.0
-15.75 -13.25 0.0
-16.25 -13.25 0.0
-16.75 -13.25 0.0
-17.25 -13.25 0.0
-17.75 -13.25 0.0
-18.25 -13.25 0.0
-18.75 -13.25 0.0
-19.25 -13.25 0.0
-19.75 -13.25 0.0
-20.25 -13.25 0.0
-20.75 -13.25 0.0
-21.25 -13.25 0.0
-21.75 -13.25 0.0
-22.25 -13.25 0.0
-22.75 -13.25 0.0
-23.25 -13.25 0.0
-23.75 -13.25 0.0
-24.25 -13.25 0.0
-24.75 -13.25 0.0
-25.25 -13.25 0.0
-25.75 -13.25 0.0
-26.25 -13.25 0.0
-26.75 -13.25 0.0
-27.25 -13.25 0.0
-27.75 -13.25 0.0
-28.25 -13.25 0.0
-28.75 -13.25 0.0
-29.25 -13.25 0.0
-29.75 -13.25 0.0
-30.25 -13.25 0.0
-30.75 -13.25 0.0
-31.25 -13.25 0.0
-31.75 -13.25 0.0
-32.25 -13.25 0.0
-32.75 -13.25 0.0
-33.25 -13.25 0.0
-33.75 -13.25 0.0
-34.25 -13.25 0.0
-34.75 -13.25 0.0
-35.25 -13.25 0.0
-35.75 -13.25 0.0
-36.25 -13.25 0.0
-36.75 -13.25 0.0
-37.25 -13.25 0.0
-37.75 -13.25 0.0
-38.25 -13.25 0.0
-38.75 -13.25 0.0
-39.25 -13.25 0.0
-39.75 -13.25 0.0
-40.25 -13.25 0.0
-40.75 -13.25 0.0
-41.25 -13.25 0.0
-41.75 -13.25 0.0
-42.25 -13.25 0.0
-42.75 -13.25 0.0
-43.25 -13.25 0.0
-43.75 -13.25 0.0
-44.25 -13.25 0.0
-44.75 -13.25 0.0
-45.25 -13.25 0.0
-45.75 -13.25 0.0
-46.25 -13.25 0.0
-46.75 -13.25 0.0
-47.25 -13.25 0.0
-47.75 -13.25 0.0
-48.25 -13.25 0.0
-48.75 -13.25 0.0
-49.25 -13.25 0.0
-49.75 -13.25 0.0
-50.25 -13.25 0.0
-50.75 -13.25 0.0
-51.25 -13.25 0.0
-51.75 -13.25 0.0
-52.25 -13.25 0.0
-52.75 -13.25 0.0
-53.25 -13.25 0.0
-53.75 -13.25 0.0
-54.25 -13.25 0.0
-54.75 -13.25 0.0
-55.25 -13.25 0.0
-55.75 -13.25 0.0
-56.25 -13.25 0.0
-6.25 -13.75 0.0
-6.75 -13.75 0.0
-7.25 -13.75 0.0
-7.75 -13.75 0.0
-8.25 -13.75 0.0
-8.75 -13.75 0.0
-9.25 -13.75 0.0
-9.75 -13.75 0.0
-10.25 -13.75 0.0
-10.75 -13.75 0.0
-11.25 -13.75 0.0
-11.75 -13.75 0.0
-12.25 -13.75 0.0
-12.75 -13.75 0.0
-13.25 -13.75 0.0
-13.75 -13.75 0.0
-14.25 -13.75 0.0
-14.75 -13.75 0.0
-15.25 -13.75 0.0
-15.75 -13.75 0.0
-16.25 -13.75 0.0
-16.75 -13.75 0.0
-17.25 -13.75 0.0
-17.75 -13.75 0.0
-18.25 -13.75 0.0
-18.75 -13.75 0.0
-19.25 -13.75 0.0
-19.75 -13.75 0.0
-20.25 -13.75 0.0
-20.75 -13.75 0.0
-21.25 -13.75 0.0
-21.75 -13.75 0.0
-22.25 -13.75 0.0
-22.75 -13.75 0.0
-23.25 -13.75 0.0
-23.75 -13.75 0.0
-24.25 -13.75 0.0
-24.75 -13.75 0.0
-25.25 -13.75 0.0
-25.75 -13.75 0.0
-26.25 -13.75 0.0
-26.75 -13.75 0.0
-27.25 -13.75 0.0
-27.75 -13.75 0.0
-28.25 -13.75 0.0
-28.75 -13.75 0.0
-29.25 -13.75 0.0
-29.75 -13.75 0.0
-30.25 -13.75 0.0
-30.75 -13.75 0.0
-31.25 -13.75 0.0
-31.75 -13.75 0.0
-32.25 -13.75 0.0
-32.75 -13.75 0.0
-33.25 -13.75 0.0
-33.75 -13.75 0.0
-34.25 -13.75 0.0
-34.75 -13.75 0.0
-35.25 -13.75 0.0
-35.75 -13.75 0.0
-36.25 -13.75 0.0
-36.75 -13.75 0.0
-37.25 -13.75 0.0
-37.75 -13.75 0.0
-38.25 -13.75 0.0
-38.75 -13.75 0.0
-39.25 -13.75 0.0
-39.75 -13.75 0.0
-40.25 -13.75 0.0
-40.75 -13.75 0.0
-41.25 -13.75 0.0
-41.75 -13.75 0.0
-42.25 -13.75 0.0
-42.75 -13.75 0.0
-43.25 -13.75 0.0
-43.75 -13.75 0.0
-44.25 -13.75 0.0
-44.75 -13.75 0.0
-45.25 -13.75 0.0
-45.75 -13.75 0.0
-46.25 -13.75 0.0
-46.75 -13.75 0.0
-47.25 -13.75 0.0
-47.75 -13.75 0.0
-48.25 -13.75 0.0
-48.75 -13.75 0.0
-49.25 -13.75 0.0
-49.75 -13.75 0.0
-50.25 -13.75 0.0
-50.75 -13.75 0.0
-51.25 -13.75 0.0
-51.75 -13.75 0.0
-52.25 -13.75 0.0
-52.75 -13.75 0.0
-53.25 -13.75 0.0
-53.75 -13.75 0.0
-54.25 -13.75 0.0
-54.75 -13.75 0.0
-55.25 -13.75 0.0
-55.75 -13.75 0.0
-56.25 -13.75 0.0
-6.25 -14.25 0.0
-6.75 -14.25 0.0
-7.25 -14.25 0.0
-7.75 -14.25 0.0
-8.25 -14.25 0.0
-8.75 -14.25 0.0
-9.25 -14.25 0.0
-9.75 -14.25 0.0
-10.25 -14.25 0.0
-10.75 -14.25 0.0
-11.25 -14.25 0.0
-11.75 -14.25 0.0
-12.25 -14.25 0.0
-12.75 -14.25 0.0
-13.25 -14.25 0.0
-13.75 -14.25 0.0
-14.25 -14.25 0.0
-14.75 -14.25 0.0
-15.25 -14.25 0.0
-15.75 -14.25 0.0
-16.25 -14.25 0.0
-16.75 -14.25 0.0
-17.25 -14.25 0.0
-17.75 -14.25 0.0
-18.25 -14.25 0.0
-18.75 -14.25 0.0
-19.25 -14.25 0.0
-19.75 -14.25 0.0
-20.25 -14.25 0.0
-20.75 -14.25 0.0
-21.25 -14.25 0.0
-21.75 -14.25 0.0
-22.25 -14.25 0.0
-22.75 -14.25 0.0
-23.25 -14.25 0.0
-23.75 -14.25 0.0
-24.25 -14.25 0.0
-24.75 -14.25 0.0
-25.25 -14.25 0.0
-25.75 -14.25 0.0
-26.25 -14.25 0.0
-26.75 -14.25 0.0
-27.25 -14.25 0.0
-27.75 -14.25 0.0
-28.25 -14.25 0.0
-28.75 -14.25 0.0
-29.25 -14.25 0.0
-29.75 -14.25 0.0
-30.25 -14.25 0.0
-30.75 -14.25 0.0
-31.25 -14.25 0.0
-31.75 -14.25 0.0
-32.25 -14.25 0.0
-32.75 -14.25 0.0
-33.25 -14.25 0.0
-33.75 -14.25 0.0
-34.25 -14.25 0.0
-34.75 -14.25 0.0
-35.25 -14.25 0.0
-35.75 -14.25 0.0
-36.25 -14.25 0.0
-36.75 -14.25 0.0
-37.25 -14.25 0.0
-37.75 -14.25 0.0
-38.25 -14.25 0.0
-38.75 -14.25 0.0
-39.25 -14.25 0.0
-39.75 -14.25 0.0
-40.25 -14.25 0.0
-40.75 -14.25 0.0
-41.25 -14.25 0.0
-41.75 -14.25 0.0
-42.25 -14.25 0.0
-42.75 -14.25 0.0
-43.25 -14.25 0.0
-43.75 -14.25 0.0
-44.25 -14.25 0.0
-44.75 -14.25 0.0
-45.25 -14.25 0.0
-45.75 -14.25 0.0
-46.25 -14.25 0.0
-46.75 -14.25 0.0
-47.25 -14.25 0.0
-47.75 -14.25 0.0
-48.25 -14.25 0.0
-48.75 -14.25 0.0
-49.25 -14.25 0.0
-49.75 -14.25 0.0
-50.25 -14.25 0.0
-50.75 -14.25 0.0
-51.25 -14.25 0.0
-51.75 -14.25 0.0
-52.25 -14.25 0.0
-52.75 -14.25 0.0
-53.25 -14.25 0.0
-53.75 -14.25 0.0
-54.25 -14.25 0.0
-54.75 -14.25 0.0
-55.25 -14.25 0.0
-55.75 -14.25 0.0
-56.25 -14.25 0.0
-6.25 -14.75 0.0
-6.75 -14.75 0.0
-7.25 -14.75 0.0
-7.75 -14.75 0.0
-8.25 -14.75 0.0
-8.75 -14.75 0.0
-9.25 -14.75 0.0
-9.75 -14.75 0.0
-10.25 -14.75 0.0
-10.75 -14.75 0.0
-11.25 -14.75 0.0
-11.75 -14.75 0.0
-12.25 -14.75 0.0
-12.75 -14.75 0.0
-13.25 -14.75 0.0
-13.75 -14.75 0.0
-14.25 -14.75 0.0
-14.75 -14.75 0.0
-15.25 -14.75 0.0
-15.75 -14.75 0.0
-16.25 -14.75 0.0
-16.75 -14.75 0.0
-17.25 -14.75 0.0
-17.75 -14.75 0.0
-18.25 -14.75 0.0
-18.75 -14.75 0.0
-19.25 -14.75 0.0
-19.75 -14.75 0.0
-20.25 -14.75 0.0
-20.75 -14.75 0.0
-21.25 -14.75 0.0
-21.75 -14.75 0.0
-22.25 -14.75 0.0
-22.75 -14.75 0.0
-23.25 -14.75 0.0
-23.75 -14.75 0.0
-24.25 -14.75 0.0
-24.75 -14.75 0.0
-25.25 -14.75 0.0
-25.75 -14.75 0.0
-26.25 -14.75 0.0
-26.75 -14.75 0.0
-27.25 -14.75 0.0
-27.75 -14.75 0.0
-28.25 -14.75 0.0
-28.75 -14.75 0.0
-29.25 -14.75 0.0
-29.75 -14.75 0.0
-30.25 -14.75 0.0
-30.75 -14.75 0.0
-31.25 -14.75 0.0
-31.75 -14.75 0.0
-32.25 -14.75 0.0
-32.75 -14.75 0.0
-33.25 -14.75 0.0
-33.75 -14.75 0.0
-34.25 -14.75 0.0
-34.75 -14.75 0.0
-35.25 -14.75 0.0
-35.75 -14.75 0.0
-36.25 -14.75 0.0
-36.75 -14.75 0.0
-37.25 -14.75 0.0
-37.75 -14.75 0.0
-38.25 -14.75 0.0
-38.75 -14.75 0.0
-39.25 -14.75 0.0
-39.75 -14.75 0.0
-40.25 -14.75 0.0
-40.75 -14.75 0.0
-41.25 -14.75 0.0
-41.75 -14.75 0.0
-42.25 -14.75 0.0
-42.75 -14.75 0.0
-43.25 -14.75 0.0
-43.75 -14.75 0.0
-44.25 -14.75 0.0
-44.75 -14.75 0.0
-45.25 -14.75 0.0
-45.75 -14.75 0.0
-46.25 -14.75 0.0
-46.75 -14.75 0.0
-47.25 -14.75 0.0
-47.75 -14.75 0.0
-48.25 -14.75 0.0
-48.75 -14.75 0.0
-49.25 -14.75 0.0
-49.75 -14.75 0.0
-50.25 -14.75 0.0
-50.75 -14.75 0.0
-51.25 -14.75 0.0
-51.75 -14.75 0.0
-52.25 -14.75 0.0
-52.75 -14.75 0.0
-53.25 -14.75 0.0
-53.75 -14.75 0.0
-54.25 -14.75 0.0
-54.75 -14.75 0.0
-55.25 -14.75 0.0
-55.75 -14.75 0.0
-56.25 -14.75 0.0
-6.25 -15.25 0.0
-6.75 -15.25 0.0
-7.25 -15.25 0.0
-7.75 -15.25 0.0
-8.25 -15.25 0.0
-8.75 -15.25 0.0
-9.25 -15.25 0.0
-9.75 -15.25 0.0
-10.25 -15.25 0.0
-10.75 -15.25 0.0
-11.25 -15.25 0.0
-11.75 -15.25 0.0
-12.25 -15.25 0.0
-12.75 -15.25 0.0
-13.25 -15.25 0.0
-13.75 -15.25 0.0
-14.25 -15.25 0.0
-14.75 -15.25 0.0
-15.25 -15.25 0.0
-15.75 -15.25 0.0
-16.25 -15.25 0.0
-16.75 -15.25 0.0
-17.25 -15.25 0.0
-17.75 -15.25 0.0
-18.25 -15.25 0.0
-18.75 -15.25 0.0
-19.25 -15.25 0.0
-19.75 -15.25 0.0
-20.25 -15.25 0.0
-20.75 -15.25 0.0
-21.25 -15.25 0.0
-21.75 -15.25 0.0
-22.25 -15.25 0.0
-22.75 -15.25 0.0
-23.25 -15.25 0.0
-23.75 -15.25 0.0
-24.25 -15.25 0.0
-24.75 -15.25 0.0
-25.25 -15.25 0.0
-25.75 -15.25 0.0
-26.25 -15.25 0.0
-26.75 -15.25 0.0
-27.25 -15.25 0.0
-27.75 -15.25 0.0
-28.25 -15.25 0.0
-28.75 -15.25 0.0
-29.25 -15.25 0.0
-29.75 -15.25 0.0
-30.25 -15.25 0.0
-30.75 -15.25 0.0
-31.25 -15.25 0.0
-31.75 -15.25 0.0
-32.25 -15.25 0.0
-32.75 -15.25 0.0
-33.25 -15.25 0.0
-33.75 -15.25 0.0
-34.25 -15.25 0.0
-34.75 -15.25 0.0
-35.25 -15.25 0.0
-35.75 -15.25 0.0
-36.25 -15.25 0.0
-36.75 -15.25 0.0
-37.25 -15.25 0.0
-37.75 -15.25 0.0
-38.25 -15.25 0.0
-38.75 -15.25 0.0
-39.25 -15.25 0.0
-39.75 -15.25 0.0
-40.25 -15.25 0.0
-40.75 -15.25 0.0
-41.25 -15.25 0.0
-41.75 -15.25 0.0
-42.25 -15.25 0.0
-42.75 -15.25 0.0
-43.25 -15.25 0.0
-43.75 -15.25 0.0
-44.25 -15.25 0.0
-44.75 -15.25 0.0
-45.25 -15.25 0.0
-45.75 -15.25 0.0
-46.25 -15.25 0.0
-46.75 -15.25 0.0
-47.25 -15.25 0.0
-47.75 -15.25 0.0
-48.25 -15.25 0.0
-48.75 -15.25 0.0
-49.25 -15.25 0.0
-49.75 -15.25 0.0
-50.25 -15.25 0.0
-50.75 -15.25 0.0
-51.25 -15.25 0.0
-51.75 -15.25 0.0
-52.25 -15.25 0.0
-52.75 -15.25 0.0
-53.25 -15.25 0.0
-53.75 -15.25 0.0
-54.25 -15.25 0.0
-54.75 -15.25 0.0
-55.25 -15.25 0.0
-55.75 -15.25 0.0
-56.25 -15.25 0.0
-6.25 -15.75 0.0
-6.75 -15.75 0.0
-7.25 -15.75 0.0
-7.75 -15.75 0.0
-8.25 -15.75 0.0
-8.75 -15.75 0.0
-9.25 -15.75 0.0
-9.75 -15.75 0.0
-10.25 -15.75 0.0
-10.75 -15.75 0.0
-11.25 -15.75 0.0
-11.75 -15.75 0.0
-12.25 -15.75 0.0
-12.75 -15.75 0.0
-13.25 -15.75 0.0
-13.75 -15.75 0.0
-14.25 -15.75 0.0
-14.75 -15.75 0.0
-15.25 -15.75 0.0
-15.75 -15.75 0.0
-16.25 -15.75 0.0
-16.75 -15.75 0.0
-17.25 -15.75 0.0
-17.75 -15.75 0.0
-18.25 -15.75 0.0
-18.75 -15.75 0.0
-19.25 -15.75 0.0
-19.75 -15.75 0.0
-20.25 -15.75 0.0
-20.75 -15.75 0.0
-21.25 -15.75 0.0
-21.75 -15.75 0.0
-22.25 -15.75 0.0
-22.75 -15.75 0.0
-23.25 -15.75 0.0
-23.75 -15.75 0.0
-24.25 -15.75 0.0
-24.75 -15.75 0.0
-25.25 -15.75 0.0
-25.75 -15.75 0.0
-26.25 -15.75 0.0
-26.75 -15.75 0.0
-27.25 -15.75 0.0
-27.75 -15.75 0.0
-28.25 -15.75 0.0
-28.75 -15.75 0.0
-29.25 -15.75 0.0
-29.75 -15.75 0.0
-30.25 -15.75 0.0
-30.75 -15.75 0.0
-31.25 -15.75 0.0
-31.75 -15.75 0.0
-32.25 -15.75 0.0
-32.75 -15.75 0.0
-33.25 -15.75 0.0
-33.75 -15.75 0.0
-34.25 -15.75 0.0
-34.75 -15.75 0.0
-35.25 -15.75 0.0
-35.75 -15.75 0.0
-36.25 -15.75 0.0
-36.75 -15.75 0.0
-37.25 -15.75 0.0
-37.75 -15.75 0.0
-38.25 -15.75 0.0
-38.75 -15.75 0.0
-39.25 -15.75 0.0
-39.75 -15.75 0.0
-40.25 -15.75 0.0
-40.75 -15.75 0.0
-41.25 -15.75 0.0
-41.75 -15.75 0.0
-42.25 -15.75 0.0
-42.75 -15.75 0.0
-43.25 -15.75 0.0
-43.75 -15.75 0.0
-44.25 -15.75 0.0
-44.75 -15.75 0.0
-45.25 -15.75 0.0
-45.75 -15.75 0.0
-46.25 -15.75 0.0
-46.75 -15.75 0.0
-47.25 -15.75 0.0
-47.75 -15.75 0.0
-48.25 -15.75 0.0
-48.75 -15.75 0.0
-49.25 -15.75 0.0
-49.75 -15.75 0.0
-50.25 -15.75 0.0
-50.75 -15.75 0.0
-51.25 -15.75 0.0
-51.75 -15.75 0.0
-52.25 -15.75 0.0
-52.75 -15.75 0.0
-53.25 -15.75 0.0
-53.75 -15.75 0.0
-54.25 -15.75 0.0
-54.75 -15.75 0.0
-55.25 -15.75 0.0
-55.75 -15.75 0.0
-56.25 -15.75 0.0
-6.25 -16.25 0.0
-6.75 -16.25 0.0
-7.25 -16.25 0.0
-7.75 -16.25 0.0
-8.25 -16.25 0.0
-8.75 -16.25 0.0
-9.25 -16.25 0.0
-9.75 -16.25 0.0
-10.25 -16.25 0.0
-10.75 -16.25 0.0
-11.25 -16.25 0.0
-11.75 -16.25 0.0
-12.25 -16.25 0.0
-12.75 -16.25 0.0
-13.25 -16.25 0.0
-13.75 -16.25 0.0
-14.25 -16.25 0.0
-14.75 -16.25 0.0
-15.25 -16.25 0.0
-15.75 -16.25 0.0
-16.25 -16.25 0.0
-16.75 -16.25 0.0
-17.25 -16.25 0.0
-17.75 -16.25 0.0
-18.25 -16.25 0.0
-18.75 -16.25 0.0
-19.25 -16.25 0.0
-19.75 -16.25 0.0
-20.25 -16.25 0.0
-20.75 -16.25 0.0
-21.25 -16.25 0.0
-21.75 -16.25 0.0
-22.25 -16.25 0.0
-22.75 -16.25 0.0
-23.25 -16.25 0.0
-23.75 -16.25 0.0
-24.25 -16.25 0.0
-24.75 -16.25 0.0
-25.25 -16.25 0.0
-25.75 -16.25 0.0
-26.25 -16.25 0.0
-26.75 -16.25 0.0
-27.25 -16.25 0.0
-27.75 -16.25 0.0
-28.25 -16.25 0.0
-28.75 -16.25 0.0
-29.25 -16.25 0.0
-29.75 -16.25 0.0
-30.25 -16.25 0.0
-30.75 -16.25 0.0
-31.25 -16.25 0.0
-31.75 -16.25 0.0
-32.25 -16.25 0.0
-32.75 -16.25 0.0
-33.25 -16.25 0.0
-33.75 -16.25 0.0
-34.25 -16.25 0.0
-34.75 -16.25 0.0
-35.25 -16.25 0.0
-35.75 -16.25 0.0
-36.25 -16.25 0.0
-36.75 -16.25 0.0
-37.25 -16.25 0.0
-37.75 -16.25 0.0
-38.25 -16.25 0.0
-38.75 -16.25 0.0
-39.25 -16.25 0.0
-39.75 -16.25 0.0
-40.25 -16.25 0.0
-40.75 -16.25 0.0
-41.25 -16.25 0.0
-41.75 -16.25 0.0
-42.25 -16.25 0.0
-42.75 -16.25 0.0
-43.25 -16.25 0.0
-43.75 -16.25 0.0
-44.25 -16.25 0.0
-44.75 -16.25 0.0
-45.25 -16.25 0.0
-45.75 -16.25 0.0
-46.25 -16.25 0.0
-46.75 -16.25 0.0
-47.25 -16.25 0.0
-47.75 -16.25 0.0
-48.25 -16.25 0.0
-48.75 -16.25 0.0
-49.25 -16.25 0.0
-49.75 -16.25 0.0
-50.25 -16.25 0.0
-50.75 -16.25 0.0
-51.25 -16.25 0.0
-51.75 -16.25 0.0
-52.25 -16.25 0.0
-52.75 -16.25 0.0
-53.25 -16.25 0.0
-53.75 -16.25 0.0
-54.25 -16.25 0.0
-54.75 -16.25 0.0
-55.25 -16.25 0.0
-55.75 -16.25 0.0
-56.25 -16.25 0.0
-6.25 -16.75 0.0
-6.75 -16.75 0.0
-7.25 -16.75 0.0
-7.75 -16.75 0.0
-8.25 -16.75 0.0
-8.75 -16.75 0.0
-9.25 -16.75 0.0
-9.75 -16.75 0.0
-10.25 -16.75 0.0
-10.75 -16.75 0.0
-11.25 -16.75 0.0
-11.75 -16.75 0.0
-12.25 -16.75 0.0
-12.75 -16.75 0.0
-13.25 -16.75 0.0
-13.75 -16.75 0.0
-14.25 -16.75 0.0
-14.75 -16.75 0.0
-15.25 -16.75 0.0
-15.75 -16.75 0.0
-16.25 -16.75 0.0
-16.75 -16.75 0.0
-17.25 -16.75 0.0
-17.75 -16.75 0.0
-18.25 -16.75 0.0
-18.75 -16.75 0.0
-19.25 -16.75 0.0
-19.75 -16.75 0.0
-20.25 -16.75 0.0
-20.75 -16.75 0.0
-21.25 -16.75 0.0
-21.75 -16.75 0.0
-22.25 -16.75 0.0
-22.75 -16.75 0.0
-23.25 -16.75 0.0
-23.75 -16.75 0.0
-24.25 -16.75 0.0
-24.75 -16.75 0.0
-25.25 -16.75 0.0
-25.75 -16.75 0.0
-26.25 -16.75 0.0
-26.75 -16.75 0.0
-27.25 -16.75 0.0
-27.75 -16.75 0.0
-28.25 -16.75 0.0
-28.75 -16.75 0.0
-29.25 -16.75 0.0
-29.75 -16.75 0.0
-30.25 -16.75 0.0
-30.75 -16.75 0.0
-31.25 -16.75 0.0
-31.75 -16.75 0.0
-32.25 -16.75 0.0
-32.75 -16.75 0.0
-33.25 -16.75 0.0
-33.75 -16.75 0.0
-34.25 -16.75 0.0
-34.75 -16.75 0.0
-35.25 -16.75 0.0
-35.75 -16.75 0.0
-36.25 -16.75 0.0
-36.75 -16.75 0.0
-37.25 -16.75 0.0
-37.75 -16.75 0.0
-38.25 -16.75 0.0
-38.75 -16.75 0.0
-39.25 -16.75 0.0
-39.75 -16.75 0.0
-40.25 -16.75 0.0
-40.75 -16.75 0.0
-41.25 -16.75 0.0
-41.75 -16.75 0.0
-42.25 -16.75 0.0
-42.75 -16.75 0.0
-43.25 -16.75 0.0
-43.75 -16.75 0.0
-44.25 -16.75 0.0
-44.75 -16.75 0.0
-45.25 -16.75 0.0
-45.75 -16.75 0.0
-46.25 -16.75 0.0
-46.75 -16.75 0.0
-47.25 -16.75 0.0
-47.75 -16.75 0.0
-48.25 -16.75 0.0
-48.75 -16.75 0.0
-49.25 -16.75 0.0
-49.75 -16.75 0.0
-50.25 -16.75 0.0
-50.75 -16.75 0.0
-51.25 -16.75 0.0
-51.75 -16.75 0.0
-52.25 -16.75 0.0
-52.75 -16.75 0.0
-53.25 -16.75 0.0
-53.75 -16.75 0.0
-54.25 -16.75 0.0
-54.75 -16.75 0.0
-55.25 -16.75 0.0
-55.75 -16.75 0.0
-56.25 -16.75 0.0
-6.25 -17.25 0.0
-6.75 -17.25 0.0
-7.25 -17.25 0.0
-7.75 -17.25 0.0
-8.25 -17.25 0.0
-8.75 -17.25 0.0
-9.25 -17.25 0.0
-9.75 -17.25 0.0
-10.25 -17.25 0.0
-10.75 -17.25 0.0
-11.25 -17.25 0.0
-11.75 -17.25 0.0
-12.25 -17.25 0.0
-12.75 -17.25 0.0
-13.25 -17.25 0.0
-13.75 -17.25 0.0
-14.25 -17.25 0.0
-14.75 -17.25 0.0
-15.25 -17.25 0.0
-15.75 -17.25 0.0
-16.25 -17.25 0.0
-16.75 -17.25 0.0
-17.25 -17.25 0.0
-17.75 -17.25 0.0
-18.25 -17.25 0.0
-18.75 -17.25 0.0
-19.25 -17.25 0.0
-19.75 -17.25 0.0
-20.25 -17.25 0.0
-20.75 -17.25 0.0
-21.25 -17.25 0.0
-21.75 -17.25 0.0
-22.25 -17.25 0.0
-22.75 -17.25 0.0
-23.25 -17.25 0.0
-23.75 -17.25 0.0
-24.25 -17.25 0.0
-24.75 -17.25 0.0
-25.25 -17.25 0.0
-25.75 -17.25 0.0
-26.25 -17.25 0.0
-26.75 -17.25 0.0
-27.25 -17.25 0.0
-27.75 -17.25 0.0
-28.25 -17.25 0.0
-28.75 -17.25 0.0
-29.25 -17.25 0.0
-29.75 -17.25 0.0
-30.25 -17.25 0.0
-30.75 -17.25 0.0
-31.25 -17.25 0.0
-31.75 -17.25 0.0
-32.25 -17.25 0.0
-32.75 -17.25 0.0
-33.25 -17.25 0.0
-33.75 -17.25 0.0
-34.25 -17.25 0.0
-34.75 -17.25 0.0
-35.25 -17.25 0.0
-35.75 -17.25 0.0
-36.25 -17.25 0.0
-36.75 -17.25 0.0
-37.25 -17.25 0.0
-37.75 -17.25 0.0
-38.25 -17.25 0.0
-38.75 -17.25 0.0
-39.25 -17.25 0.0
-39.75 -17.25 0.0
-40.25 -17.25 0.0
-40.75 -17.25 0.0
-41.25 -17.25 0.0
-41.75 -17.25 0.0
-42.25 -17.25 0.0
-42.75 -17.25 0.0
-43.25 -17.25 0.0
-43.75 -17.25 0.0
-44.25 -17.25 0.0
-44.75 -17.25 0.0
-45.25 -17.25 0.0
-45.75 -17.25 0.0
-46.25 -17.25 0.0
-46.75 -17.25 0.0
-47.25 -17.25 0.0
-47.75 -17.25 0.0
-48.25 -17.25 0.0
-48.75 -17.25 0.0
-49.25 -17.25 0.0
-49.75 -17.25 0.0
-50.25 -17.25 0.0
-50.75 -17.25 0.0
-51.25 -17.25 0.0
-51.75 -17.25 0.0
-52.25 -17.25 0.0
-52.75 -17.25 0.0
-53.25 -17.25 0.0
-53.75 -17.25 0.0
-54.25 -17.25 0.0
-54.75 -17.25 0.0
-55.25 -17.25 0.0
-55.75 -17.25 0.0
-56.25 -17.25 0.0
-6.25 -17.75 0.0
-6.75 -17.75 0.0
-7.25 -17.75 0.0
-7.75 -17.75 0.0
-8.25 -17.75 0.0
-8.75 -17.75 0.0
-9.25 -17.75 0.0
-9.75 -17.75 0.0
-10.25 -17.75 0.0
-10.75 -17.75 0.0
-11.25 -17.75 0.0
-11.75 -17.75 0.0
-12.25 -17.75 0.0
-12.75 -17.75 0.0
-13.25 -17.75 0.0
-13.75 -17.75 0.0
-14.25 -17.75 0.0
-14.75 -17.75 0.0
-15.25 -17.75 0.0
-15.75 -17.75 0.0
-16.25 -17.75 0.0
-16.75 -17.75 0.0
-17.25 -17.75 0.0
-17.75 -17.75 0.0
-18.25 -17.75 0.0
-18.75 -17.75 0.0
-19.25 -17.75 0.0
-19.75 -17.75 0.0
-20.25 -17.75 0.0
-20.75 -17.75 0.0
-21.25 -17.75 0.0
-21.75 -17.75 0.0
-22.25 -17.75 0.0
-22.75 -17.75 0.0
-23.25 -17.75 0.0
-23.75 -17.75 0.0
-24.25 -17.75 0.0
-24.75 -17.75 0.0
-25.25 -17.75 0.0
-25.75 -17.75 0.0
-26.25 -17.75 0.0
-26.75 -17.75 0.0
-27.25 -17.75 0.0
-27.75 -17.75 0.0
-28.25 -17.75 0.0
-28.75 -17.75 0.0
-29.25 -17.75 0.0
-29.75 -17.75 0.0
-30.25 -17.75 0.0
-30.75 -17.75 0.0
-31.25 -17.75 0.0
-31.75 -17.75 0.0
-32.25 -17.75 0.0
-32.75 -17.75 0.0
-33.25 -17.75 0.0
-33.75 -17.75 0.0
-34.25 -17.75 0.0
-34.75 -17.75 0.0
-35.25 -17.75 0.0
-35.75 -17.75 0.0
-36.25 -17.75 0.0
-36.75 -17.75 0.0
-37.25 -17.75 0.0
-37.75 -17.75 0.0
-38.25 -17.75 0.0
-38.75 -17.75 0.0
-39.25 -17.75 0.0
-39.75 -17.75 0.0
-40.25 -17.75 0.0
-40.75 -17.75 0.0
-41.25 -17.75 0.0
-41.75 -17.75 0.0
-42.25 -17.75 0.0
-42.75 -17.75 0.0
-43.25 -17.75 0.0
-43.75 -17.75 0.0
-44.25 -17.75 0.0
-44.75 -17.75 0.0
-45.25 -17.75 0.0
-45.75 -17.75 0.0
-46.25 -17.75 0.0
-46.75 -17.75 0.0
-47.25 -17.75 0.0
-47.75 -17.75 0.0
-48.25 -17.75 0.0
-48.75 -17.75 0.0
-49.25 -17.75 0.0
-49.75 -17.75 0.0
-50.25 -17.75 0.0
-50.75 -17.75 0.0
-51.25 -17.75 0.0
-51.75 -17.75 0.0
-52.25 -17.75 0.0
-52.75 -17.75 0.0
-53.25 -17.75 0.0
-53.75 -17.75 0.0
-54.25 -17.75 0.0
-54.75 -17.75 0.0
-55.25 -17.75 0.0
-55.75 -17.75 0.0
-56.25 -17.75 0.0
-6.25 -18.25 0.0
-6.75 -18.25 0.0
-7.25 -18.25 0.0
-7.75 -18.25 0.0
-8.25 -18.25 0.0
-8.75 -18.25 0.0
-9.25 -18.25 0.0
-9.75 -18.25 0.0
-10.25 -18.25 0.0
-10.75 -18.25 0.0
-11.25 -18.25 0.0
-11.75 -18.25 0.0
-12.25 -18.25 0.0
-12.75 -18.25 0.0
-13.25 -18.25 0.0
-13.75 -18.25 0.0
-14.25 -18.25 0.0
-14.75 -18.25 0.0
-15.25 -18.25 0.0
-15.75 -18.25 0.0
-16.25 -18.25 0.0
-16.75 -18.25 0.0
-17.25 -18.25 0.0
-17.75 -18.25 0.0
-18.25 -18.25 0.0
-18.75 -18.25 0.0
-19.25 -18.25 0.0
-19.75 -18.25 0.0
-20.25 -18.25 0.0
-20.75 -18.25 0.0
-21.25 -18.25 0.0
-21.75 -18.25 0.0
-22.25 -18.25 0.0
-22.75 -18.25 0.0
-23.25 -18.25 0.0
-23.75 -18.25 0.0
-24.25 -18.25 0.0
-24.75 -18.25 0.0
-25.25 -18.25 0.0
-25.75 -18.25 0.0
-26.25 -18.25 0.0
-26.75 -18.25 0.0
-27.25 -18.25 0.0
-27.75 -18.25 0.0
-28.25 -18.25 0.0
-28.75 -18.25 0.0
-29.25 -18.25 0.0
-29.75 -18.25 0.0
-30.25 -18.25 0.0
-30.75 -18.25 0.0
-31.25 -18.25 0.0
-31.75 -18.25 0.0
-32.25 -18.25 0.0
-32.75 -18.25 0.0
-33.25 -18.25 0.0
-33.75 -18.25 0.0
-34.25 -18.25 0.0
-34.75 -18.25 0.0
-35.25 -18.25 0.0
-35.75 -18.25 0.0
-36.25 -18.25 0.0
-36.75 -18.25 0.0
-37.25 -18.25 0.0
-37.75 -18.25 0.0
-38.25 -18.25 0.0
-38.75 -18.25 0.0
-39.25 -18.25 0.0
-39.75 -18.25 0.0
-40.25 -18.25 0.0
-40.75 -18.25 0.0
-41.25 -18.25 0.0
-41.75 -18.25 0.0
-42.25 -18.25 0.0
-42.75 -18.25 0.0
-43.25 -18.25 0.0
-43.75 -18.25 0.0
-44.25 -18.25 0.0
-44.75 -18.25 0.0
-45.25 -18.25 0.0
-45.75 -18.25 0.0
-46.25 -18.25 0.0
-46.75 -18.25 0.0
-47.25 -18.25 0.0
-47.75 -18.25 0.0
-48.25 -18.25 0.0
-48.75 -18.25 0.0
-49.25 -18.25 0.0
-49.75 -18.25 0.0
-50.25 -18.25 0.0
-50.75 -18.25 0.0
-51.25 -18.25 0.0
-51.75 -18.25 0.0
-52.25 -18.25 0.0
-52.75 -18.25 0.0
-53.25 -18.25 0.0
-53.75 -18.25 0.0
-54.25 -18.25 0.0
-54.75 -18.25 0.0
-55.25 -18.25 0.0
-55.75 -18.25 0.0
-56.25 -18.25 0.0
-6.25 -18.75 0.0
-6.75 -18.75 0.0
-7.25 -18.75 0.0
-7.75 -18.75 0.0
-8.25 -18.75 0.0
-8.75 -18.75 0.0
-9.25 -18.75 0.0
-9.75 -18.75 0.0
-10.25 -18.75 0.0
-10.75 -18.75 0.0
-11.25 -18.75 0.0
-11.75 -18.75 0.0
-12.25 -18.75 0.0
-12.75 -18.75 0.0
-13.25 -18.75 0.0
-13.75 -18.75 0.0
-14.25 -18.75 0.0
-14.75 -18.75 0.0
-15.25 -18.75 0.0
-15.75 -18.75 0.0
-16.25 -18.75 0.0
-16.75 -18.75 0.0
-17.25 -18.75 0.0
-17.75 -18.75 0.0
-18.25 -18.75 0.0
-18.75 -18.75 0.0
-19.25 -18.75 0.0
-19.75 -18.75 0.0
-20.25 -18.75 0.0
-20.75 -18.75 0.0
-21.25 -18.75 0.0
-21.75 -18.75 0.0
-22.25 -18.75 0.0
-22.75 -18.75 0.0
-23.25 -18.75 0.0
-23.75 -18.75 0.0
-24.25 -18.75 0.0
-24.75 -18.75 0.0
-25.25 -18.75 0.0
-25.75 -18.75 0.0
-26.25 -18.75 0.0
-26.75 -18.75 0.0
-27.25 -18.75 0.0
-27.75 -18.75 0.0
-28.25 -18.75 0.0
-28.75 -18.75 0.0
-29.25 -18.75 0.0
-29.75 -18.75 0.0
-30.25 -18.75 0.0
-30.75 -18.75 0.0
-31.25 -18.75 0.0
-31.75 -18.75 0.0
-32.25 -18.75 0.0
-32.75 -18.75 0.0
-33.25 -18.75 0.0
-33.75 -18.75 0.0
-34.25 -18.75 0.0
-34.75 -18.75 0.0
-35.25 -18.75 0.0
-35.75 -18.75 0.0
-36.25 -18.75 0.0
-36.75 -18.75 0.0
-37.25 -18.75 0.0
-37.75 -18.75 0.0
-38.25 -18.75 0.0
-38.75 -18.75 0.0
-39.25 -18.75 0.0
-39.75 -18.75 0.0
-40.25 -18.75 0.0
-40.75 -18.75 0.0
-41.25 -18.75 0.0
-41.75 -18.75 0.0
-42.25 -18.75 0.0
-42.75 -18.75 0.0
-43.25 -18.75 0.0
-43.75 -18.75 0.0
-44.25 -18.75 0.0
-44.75 -18.75 0.0
-45.25 -18.75 0.0
-45.75 -18.75 0.0
-46.25 -18.75 0.0
-46.75 -18.75 0.0
-47.25 -18.75 0.0
-47.75 -18.75 0.0
-48.25 -18.75 0.0
-48.75 -18.75 0.0
-49.25 -18.75 0.0
-49.75 -18.75 0.0
-50.25 -18.75 0.0
-50.75 -18.75 0.0
-51.25 -18.75 0.0
-51.75 -18.75 0.0
-52.25 -18.75 0.0
-52.75 -18.75 0.0
-53.25 -18.75 0.0
-53.75 -18.75 0.0
-54.25 -18.75 0.0
-54.75 -18.75 0.0
-55.25 -18.75 0.0
-55.75 -18.75 0.0
-56.25 -18.75 0.0
-6.25 -19.25 0.0
-6.75 -19.25 0.0
-7.25 -19.25 0.0
-7.75 -19.25 0.0
-8.25 -19.25 0.0
-8.75 -19.25 0.0
-9.25 -19.25 0.0
-9.75 -19.25 0.0
-10.25 -19.25 0.0
-10.75 -19.25 0.0
-11.25 -19.25 0.0
-11.75 -19.25 0.0
-12.25 -19.25 0.0
-12.75 -19.25 0.0
-13.25 -19.25 0.0
-13.75 -19.25 0.0
-14.25 -19.25 0.0
-14.75 -19.25 0.0
-15.25 -19.25 0.0
-15.75 -19.25 0.0
-16.25 -19.25 0.0
-16.75 -19.25 0.0
-17.25 -19.25 0.0
-17.75 -19.25 0.0
-18.25 -19.25 0.0
-18.75 -19.25 0.0
-19.25 -19.25 0.0
-19.75 -19.25 0.0
-20.25 -19.25 0.0
-20.75 -19.25 0.0
-21.25 -19.25 0.0
-21.75 -19.25 0.0
-22.25 -19.25 0.0
-22.75 -19.25 0.0
-23.25 -19.25 0.0
-23.75 -19.25 0.0
-24.25 -19.25 0.0
-24.75 -19.25 0.0
-25.25 -19.25 0.0
-25.75 -19.25 0.0
-26.25 -19.25 0.0
-26.75 -19.25 0.0
-27.25 -19.25 0.0
-27.75 -19.25 0.0
-28.25 -19.25 0.0
-28.75 -19.25 0.0
-29.25 -19.25 0.0
-29.75 -19.25 0.0
-30.25 -19.25 0.0
-30.75 -19.25 0.0
-31.25 -19.25 0.0
-31.75 -19.25 0.0
-32.25 -19.25 0.0
-32.75 -19.25 0.0
-33.25 -19.25 0.0
-33.75 -19.25 0.0
-34.25 -19.25 0.0
-34.75 -19.25 0.0
-35.25 -19.25 0.0
-35.75 -19.25 0.0
-36.25 -19.25 0.0
-36.75 -19.25 0.0
-37.25 -19.25 0.0
-37.75 -19.25 0.0
-38.25 -19.25 0.0
-38.75 -19.25 0.0
-39.25 -19.25 0.0
-39.75 -19.25 0.0
-40.25 -19.25 0.0
-40.75 -19.25 0.0
-41.25 -19.25 0.0
-41.75 -19.25 0.0
-42.25 -19.25 0.0
-42.75 -19.25 0.0
-43.25 -19.25 0.0
-43.75 -19.25 0.0
-44.25 -19.25 0.0
-44.75 -19.25 0.0
-45.25 -19.25 0.0
-45.75 -19.25 0.0
-46.25 -19.25 0.0
-46.75 -19.25 0.0
-47.25 -19.25 0.0
-47.75 -19.25 0.0
-48.25 -19.25 0.0
-48.75 -19.25 0.0
-49.25 -19.25 0.0
-49.75 -19.25 0.0
-50.25 -19.25 0.0
-50.75 -19.25 0.0
-51.25 -19.25 0.0
-51.75 -19.25 0.0
-52.25 -19.25 0.0
-52.75 -19.25 0.0
-53.25 -19.25 0.0
-53.75 -19.25 0.0
-54.25 -19.25 0.0
-54.75 -19.25 0.0
-55.25 -19.25 0.0
-55.75 -19.25 0.0
-56.25 -19.25 0.0
-6.25 -19.75 0.0
-6.75 -19.75 0.0
-7.25 -19.75 0.0
-7.75 -19.75 0.0
-8.25 -19.75 0.0
-8.75 -19.75 0.0
-9.25 -19.75 0.0
-9.75 -19.75 0.0
-10.25 -19.75 0.0
-10.75 -19.75 0.0
-11.25 -19.75 0.0
-11.75 -19.75 0.0
-12.25 -19.75 0.0
-12.75 -19.75 0.0
-13.25 -19.75 0.0
-13.75 -19.75 0.0
-14.25 -19.75 0.0
-14.75 -19.75 0.0
-15.25 -19.75 0.0
-15.75 -19.75 0.0
-16.25 -19.75 0.0
-16.75 -19.75 0.0
-17.25 -19.75 0.0
-17.75 -19.75 0.0
-18.25 -19.75 0.0
-18.75 -19.75 0.0
-19.25 -19.75 0.0
-19.75 -19.75 0.0
-20.25 -19.75 0.0
-20.75 -19.75 0.0
-21.25 -19.75 0.0
-21.75 -19.75 0.0
-22.25 -19.75 0.0
-22.75 -19.75 0.0
-23.25 -19.75 0.0
-23.75 -19.75 0.0
-24.25 -19.75 0.0
-24.75 -19.75 0.0
-25.25 -19.75 0.0
-25.75 -19.75 0.0
-26.25 -19.75 0.0
-26.75 -19.75 0.0
-27.25 -19.75 0.0
-27.75 -19.75 0.0
-28.25 -19.75 0.0
-28.75 -19.75 0.0
-29.25 -19.75 0.0
-29.75 -19.75 0.0
-30.25 -19.75 0.0
-30.75 -19.75 0.0
-31.25 -19.75 0.0
-31.75 -19.75 0.0
-32.25 -19.75 0.0
-32.75 -19.75 0.0
-33.25 -19.75 0.0
-33.75 -19.75 0.0
-34.25 -19.75 0.0
-34.75 -19.75 0.0
-35.25 -19.75 0.0
-35.75 -19.75 0.0
-36.25 -19.75 0.0
-36.75 -19.75 0.0
-37.25 -19.75 0.0
-37.75 -19.75 0.0
-38.25 -19.75 0.0
-38.75 -19.75 0.0
-39.25 -19.75 0.0
-39.75 -19.75 0.0
-40.25 -19.75 0.0
-40.75 -19.75 0.0
-41.25 -19.75 0.0
-41.75 -19.75 0.0
-42.25 -19.75 0.0
-42.75 -19.75 0.0
-43.25 -19.75 0.0
-43.75 -19.75 0.0
-44.25 -19.75 0.0
-44.75 -19.75 0.0
-45.25 -19.75 0.0
-45.75 -19.75 0.0
-46.25 -19.75 0.0
-46.75 -19.75 0.0
-47.25 -19.75 0.0
-47.75 -19.75 0.0
-48.25 -19.75 0.0
-48.75 -19.75 0.0
-49.25 -19.75 0.0
-49.75 -19.75 0.0
-50.25 -19.75 0.0
-50.75 -19.75 0.0
-51.25 -19.75 0.0
-51.75 -19.75 0.0
-52.25 -19.75 0.0
-52.75 -19.75 0.0
-53.25 -19.75 0.0
-53.75 -19.75 0.0
-54.25 -19.75 0.0
-54.75 -19.75 0.0
-55.25 -19.75 0.0
-55.75 -19.75 0.0
-56.25 -19.75 0.0
-6.25 -20.25 0.0
-6.75 -20.25 0.0
-7.25 -20.25 0.0
-7.75 -20.25 0.0
-8.25 -20.25 0.0
-8.75 -20.25 0.0
-9.25 -20.25 0.0
-9.75 -20.25 0.0
-10.25 -20.25 0.0
-10.75 -20.25 0.0
-11.25 -20.25 0.0
-11.75 -20.25 0.0
-12.25 -20.25 0.0
-12.75 -20.25 0.0
-13.25 -20.25 0.0
-13.75 -20.25 0.0
-14.25 -20.25 0.0
-14.75 -20.25 0.0
-15.25 -20.25 0.0
-15.75 -20.25 0.0
-16.25 -20.25 0.0
-16.75 -20.25 0.0
-17.25 -20.25 0.0
-17.75 -20.25 0.0
-18.25 -20.25 0.0
-18.75 -20.25 0.0
-19.25 -20.25 0.0
-19.75 -20.25 0.0
-20.25 -20.25 0.0
-20.75 -20.25 0.0
-21.25 -20.25 0.0
-21.75 -20.25 0.0
-22.25 -20.25 0.0
-22.75 -20.25 0.0
-23.25 -20.25 0.0
-23.75 -20.25 0.0
-24.25 -20.25 0.0
-24.75 -20.25 0.0
-25.25 -20.25 0.0
-25.75 -20.25 0.0
-26.25 -20.25 0.0
-26.75 -20.25 0.0
-27.25 -20.25 0.0
-27.75 -20.25 0.0
-28.25 -20.25 0.0
-28.75 -20.25 0.0
-29.25 -20.25 0.0
-29.75 -20.25 0.0
-30.25 -20.25 0.0
-30.75 -20.25 0.0
-31.25 -20.25 0.0
-31.75 -20.25 0.0
-32.25 -20.25 0.0
-32.75 -20.25 0.0
-33.25 -20.25 0.0
-33.75 -20.25 0.0
-34.25 -20.25 0.0
-34.75 -20.25 0.0
-35.25 -20.25 0.0
-35.75 -20.25 0.0
-36.25 -20.25 0.0
-36.75 -20.25 0.0
-37.25 -20.25 0.0
-37.75 -20.25 0.0
-38.25 -20.25 0.0
-38.75 -20.25 0.0
-39.25 -20.25 0.0
-39.75 -20.25 0.0
-40.25 -20.25 0.0
-40.75 -20.25 0.0
-41.25 -20.25 0.0
-41.75 -20.25 0.0
-42.25 -20.25 0.0
-42.75 -20.25 0.0
-43.25 -20.25 0.0
-43.75 -20.25 0.0
-44.25 -20.25 0.0
-44.75 -20.25 0.0
-45.25 -20.25 0.0
-45.75 -20.25 0.0
-46.25 -20.25 0.0
-46.75 -20.25 0.0
-47.25 -20.25 0.0
-47.75 -20.25 0.0
-48.25 -20.25 0.0
-48.75 -20.25 0.0
-49.25 -20.25 0.0
-49.75 -20.25 0.0
-50.25 -20.25 0.0
-50.75 -20.25 0.0
-51.25 -20.25 0.0
-51.75 -20.25 0.0
-52.25 -20.25 0.0
-52.75 -20.25 0.0
-53.25 -20.25 0.0
-53.75 -20.25 0.0
-54.25 -20.25 0.0
-54.75 -20.25 0.0
-55.25 -20.25 0.0
-55.75 -20.25 0.0
-56.25 -20.25 0.0
-6.25 -20.75 0.0
-6.75 -20.75 0.0
-7.25 -20.75 0.0
-7.75 -20.75 0.0
-8.25 -20.75 0.0
-8.75 -20.75 0.0
-9.25 -20.75 0.0
-9.75 -20.75 0.0
-10.25 -20.75 0.0
-10.75 -20.75 0.0
-11.25 -20.75 0.0
-11.75 -20.75 0.0
-12.25 -20.75 0.0
-12.75 -20.75 0.0
-13.25 -20.75 0.0
-13.75 -20.75 0.0
-14.25 -20.75 0.0
-14.75 -20.75 0.0
-15.25 -20.75 0.0
-15.75 -20.75 0.0
-16.25 -20.75 0.0
-16.75 -20.75 0.0
-17.25 -20.75 0.0
-17.75 -20.75 0.0
-18.25 -20.75 0.0
-18.75 -20.75 0.0
-19.25 -20.75 0.0
-19.75 -20.75 0.0
-20.25 -20.75 0.0
-20.75 -20.75 0.0
-21.25 -20.75 0.0
-21.75 -20.75 0.0
-22.25 -20.75 0.0
-22.75 -20.75 0.0
-23.25 -20.75 0.0
-23.75 -20.75 0.0
-24.25 -20.75 0.0
-24.75 -20.75 0.0
-25.25 -20.75 0.0
-25.75 -20.75 0.0
-26.25 -20.75 0.0
-26.75 -20.75 0.0
-27.25 -20.75 0.0
-27.75 -20.75 0.0
-28.25 -20.75 0.0
-28.75 -20.75 0.0
-29.25 -20.75 0.0
-29.75 -20.75 0.0
-30.25 -20.75 0.0
-30.75 -20.75 0.0
-31.25 -20.75 0.0
-31.75 -20.75 0.0
-32.25 -20.75 0.0
-32.75 -20.75 0.0
-33.25 -20.75 0.0
-33.75 -20.75 0.0
-34.25 -20.75 0.0
-34.75 -20.75 0.0
-35.25 -20.75 0.0
-35.75 -20.75 0.0
-36.25 -20.75 0.0
-36.75 -20.75 0.0
-37.25 -20.75 0.0
-37.75 -20.75 0.0
-38.25 -20.75 0.0
-38.75 -20.75 0.0
-39.25 -20.75 0.0
-39.75 -20.75 0.0
-40.25 -20.75 0.0
-40.75 -20.75 0.0
-41.25 -20.75 0.0
-41.75 -20.75 0.0
-42.25 -20.75 0.0
-42.75 -20.75 0.0
-43.25 -20.75 0.0
-43.75 -20.75 0.0
-44.25 -20.75 0.0
-44.75 -20.75 0.0
-45.25 -20.75 0.0
-45.75 -20.75 0.0
-46.25 -20.75 0.0
-46.75 -20.75 0.0
-47.25 -20.75 0.0
-47.75 -20.75 0.0
-48.25 -20.75 0.0
-48.75 -20.75 0.0
-49.25 -20.75 0.0
-49.75 -20.75 0.0
-50.25 -20.75 0.0
-50.75 -20.75 0.0
-51.25 -20.75 0.0
-51.75 -20.75 0.0
-52.25 -20.75 0.0
-52.75 -20.75 0.0
-53.25 -20.75 0.0
-53.75 -20.75 0.0
-54.25 -20.75 0.0
-54.75 -20.75 0.0
-55.25 -20.75 0.0
-55.75 -20.75 0.0
-56.25 -20.75 0.0
-6.25 -21.25 0.0
-6.75 -21.25 0.0
-7.25 -21.25 0.0
-7.75 -21.25 0.0
-8.25 -21.25 0.0
-8.75 -21.25 0.0
-9.25 -21.25 0.0
-9.75 -21.25 0.0
-10.25 -21.25 0.0
-10.75 -21.25 0.0
-11.25 -21.25 0.0
-11.75 -21.25 0.0
-12.25 -21.25 0.0
-12.75 -21.25 0.0
-13.25 -21.25 0.0
-13.75 -21.25 0.0
-14.25 -21.25 0.0
-14.75 -21.25 0.0
-15.25 -21.25 0.0
-15.75 -21.25 0.0
-16.25 -21.25 0.0
-16.75 -21.25 0.0
-17.25 -21.25 0.0
-17.75 -21.25 0.0
-18.25 -21.25 0.0
-18.75 -21.25 0.0
-19.25 -21.25 0.0
-19.75 -21.25 0.0
-20.25 -21.25 0.0
-20.75 -21.25 0.0
-21.25 -21.25 0.0
-21.75 -21.25 0.0
-22.25 -21.25 0.0
-22.75 -21.25 0.0
-23.25 -21.25 0.0
-23.75 -21.25 0.0
-24.25 -21.25 0.0
-24.75 -21.25 0.0
-25.25 -21.25 0.0
-25.75 -21.25 0.0
-26.25 -21.25 0.0
-26.75 -21.25 0.0
-27.25 -21.25 0.0
-27.75 -21.25 0.0
-28.25 -21.25 0.0
-28.75 -21.25 0.0
-29.25 -21.25 0.0
-29.75 -21.25 0.0
-30.25 -21.25 0.0
-30.75 -21.25 0.0
-31.25 -21.25 0.0
-31.75 -21.25 0.0
-32.25 -21.25 0.0
-32.75 -21.25 0.0
-33.25 -21.25 0.0
-33.75 -21.25 0.0
-34.25 -21.25 0.0
-34.75 -21.25 0.0
-35.25 -21.25 0.0
-35.75 -21.25 0.0
-36.25 -21.25 0.0
-36.75 -21.25 0.0
-37.25 -21.25 0.0
-37.75 -21.25 0.0
-38.25 -21.25 0.0
-38.75 -21.25 0.0
-39.25 -21.25 0.0
-39.75 -21.25 0.0
-40.25 -21.25 0.0
-40.75 -21.25 0.0
-41.25 -21.25 0.0
-41.75 -21.25 0.0
-42.25 -21.25 0.0
-42.75 -21.25 0.0
-43.25 -21.25 0.0
-43.75 -21.25 0.0
-44.25 -21.25 0.0
-44.75 -21.25 0.0
-45.25 -21.25 0.0
-45.75 -21.25 0.0
-46.25 -21.25 0.0
-46.75 -21.25 0.0
-47.25 -21.25 0.0
-47.75 -21.25 0.0
-48.25 -21.25 0.0
-48.75 -21.25 0.0
-49.25 -21.25 0.0
-49.75 -21.25 0.0
-50.25 -21.25 0.0
-50.75 -21.25 0.0
-51.25 -21.25 0.0
-51.75 -21.25 0.0
-52.25 -21.25 0.0
-52.75 -21.25 0.0
-53.25 -21.25 0.0
-53.75 -21.25 0.0
-54.25 -21.25 0.0
-54.75 -21.25 0.0
-55.25 -21.25 0.0
-55.75 -21.25 0.0
-56.25 -21.25 0.0
CELLS 4000 16000
3 0 1 102
3 102 101 0
3 1 2 103
3 103 102 1
3 2 3 104
3 104 103 2
3 3 4 105
3 105 104 3
3 4 5 106
3 106 105 4
3 5 6 107
3 107 106 5
3 6 7 108
3 108 107 6
3 7 8 109
3 109 108 7
3 8 9 110
3 110 109 8
3 9 10 111
3 111 110 9
3 10 11 112
3 112 111 10
3 11 12 113
3 113 112 11
3 12 13 114
3 114 113 12
3 13 14 115
3 115 114 13
3 14 15 116
3 116 115 14
3 15 16 117
3 117 116 15
3 16 17 118
3 118 117 16
3 17 18 119
3 119 118 17
3 18 19 120
3 120 119 18
3 19 20 121
3 121 120 19
3 20 21 122
3 122 121 20
3 21 22 123
3 123 122 21
3 22 23 124
3 124 123 22
3 23 24 125
3 125 124 23
3 24 25 126
3 126 125 24
3 25 26 127
3 127 126 25
3 26 27 128
3 128 127 26
3 27 28 129
3 129 128 27
3 28 29 130
3 130 129 28
3 29 30 131
3 131 130 29
3 30 31 132
3 132 131 30
3 31 32 133
3 133 132 31
3 32 33 134
3 134 133 32
3 33 34 135
3 135 134 33
3 34 35 136
3 136 135 34
3 35 36 137
3 137 136 35
3 36 37 138
3 138 137 36
3 37 38 139
3 139 138 37
3 38 39 140
3 140 139 38
3 39 40 141
3 141 140 39
3 40 41 142
3 142 141 40
3 41 42 143
3 143 142 41
3 42 43 144
3 144 143 42
3 43 44 145
3 145 144 43
3 44 45 146
3 146 145 44
3 45 46 147
3 147 146 45
3 46 47 148
3 148 147 46
3 47 48 149
3 149 148 47
3 48 49 150
3 150 149 48
3 49 50 151
3 151 150 49
3 50 51 152
3 152 151 50
3 51 52 153
3 153 152 51
3 52 53 154
3 154 153 52
3 53 54 155
3 155 154 53
3 54 55 156
3 156 155 54
3 55 56 157
3 157 156 55
3 56 57 158
3 158 157 56
3 57 58 159
3 159 158 57
3 58 59 160
3 160 159 58
3 59 60 161
3 161 160 59
3 60 61 162
3 162 161 60
3 61 62 163
3 163 162 61
3 62 63 164
3 164 163 62
3 63 64 165
3 165 164 63
3 64 65 166
3 166 165 64
3 65 66 167
3 167 166 65
3 66 67 168
3 168 167 66
3 67 68 169
3 169 168 67
3 68 69 170
3 170 169 68
3 69 70 171
3 171 170 69
3 70 71 172
3 172 171 70
3 71 72 173
3 173 172 71
3 72 73 174
3 174 173 72
3 73 74 175
3 175 174 73
3 74 75 176
3 176 175 74
3 75 76 177
3 177 176 75
3 76 77 178
3 178 177 76
3 77 78 179
3 179 178 77
3 78 79 180
3 180 179 78
3 79 80 181
3 181 180 79
3 80 81 182
3 182 181 80
3 81 82 183
3 183 182 81
3 82 83 184
3 184 183 82
3 83 84 185
3 185 184 83
3 84 85 186
3 186 185 84
3 85 86 187
3 187 186 85
3 86 87 188
3 188 187 86
3 87 88 189
3 189 188 87
3 88 89 190
3 190 189 88
3 89 90 191
3 191 190 89
3 90 91 192
3 192 191 90
3 91 92 193
3 193 192 91
3 92 93 194
3 194 193 92
3 93 94 195
3 195 194 93
3 94 95 196
3 196 195 94
3 95 96 197
3 197 196 95
3 96 97 198
3 198 197 96
3 97 98 199
3 199 198 97
3 98 99 200
3 200 199 98
3 99 100 201
3 201 200 99
3 101 102 203
3 203 202 101
3 102 103 204
3 204 203 102
3 103 104 205
3 205 204 103
3 104 105 206
3 206 205 104
3 105 106 207
3 207 206 105
3 106 107 208
3 208 207 106
3 107 108 209
3 209 208 107
3 108 109 210
3 210 209 108
3 109 110 211
3 211 210 109
3 110 111 212
3 212 211 110
3 111 112 213
3 213 212 111
3 112 113 214
3 214 213 112
3 113 114 215
3 215 214 113
3 114 115 216
3 216 215 114
3 115 116 217
3 217 216 115
3 116 117 218
3 218 217 116
3 117 118 219
3 219 218 117
3 118 119 220
3 220 219 118
3 119 120 221
3 221 220 119
3 120 121 222
3 222 221 120
3 121 122 223
3 223 222 121
3 122 123 224
3 224 223 122
3 123 124 225
3 225 224 123
3 124 125 226
3 226 225 124
3 125 126 227
3 227 226 125
3 126 127 228
3 228 227 126
3 127 128 229
3 229 228 127
3 128 129 230
3 230 229 128
3 129 130 231
3 231 230 129
3 130 131 232
3 232 231 130
3 131 132 233
3 233 232 131
3 132 133 234
3 234 233 132
3 133 134 235
3 235 234 133
3 134 135 236
3 236 235 134
3 135 136 237
3 237 236 135
3 136 137 238
3 238 237 136
3 137 138 239
3 239 238 137
3 138 139 240
3 240 239 138
3 139 140 241
3 241 240 139
3 140 141 242
3 242 241 140
3 141 142 243
3 243 242 141
3 142 143 244
3 244 243 142
3 143 144 245
3 245 244 143
3 144 145 246
3 246 245 144
3 145 146 247
3 247 246 145
3 146 147 248
3 248 247 146
3 147 148 249
3 249 248 147
3 148 149 250
3 250 249 148
3 149 150 251
3 251 250 149
3 150 151 252
3 252 251 150
3 151 152 253
3 253 252 151
3 152 153 254
3 254 253 152
3 153 154 255
3 255 254 153
3 154 155 256
3 256 255 154
3 155 156 257
3 257 256 155
3 156 157 258
3 258 257 156
3 157 158 259
3 259 258 157
3 158 159 260
3 260 259 158
3 159 160 261
3 261 260 159
3 160 161 262
3 262 261 160
3 161 162 263
3 263 262 161
3 162 163 264
3 264 263 162
3 163 164 265
3 265 264 163
3 164 165 266
3 266 265 164
3 165 166 267
3 267 266 165
3 166 167 268
3 268 267 166
3 167 168 269
3 269 268 167
3 168 169 270
3 270 269 168
3 169 170 271
3 271 270 169
3 170 171 272
3 272 271 170
3 171 172 273
3 273 272 171
3 172 173 274
3 274 273 172
3 173 174 275
3 275 274 173
3 174 175 276
3 276 275 174
3 175 176 277
3 277 276 175
3 176 177 278
3 278 277 176
3 177 178 279
3 279 278 177
3 178 179 280
3 280 279 178
3 179 180 281
3 281 280 179
3 180 181 282
3 282 281 180
3 181 182 283
3 283 282 181
3 182 183 284
3 284 283 182
3 183 184 285
3 285 284 183
3 184 185 286
3 286 285 184
3 185 186 287
3 287 286 185
3 186 187 288
3 288 287 186
3 187 188 289
3 289 288 187
3 188 189 290
3 290 289 188
3 189 190 291
3 291 290 189
3 190 191 292
3 292 291 190
3 191 192 293
3 293 292 191
3 192 193 294
3 294 293 192
3 193 194 295
3 295 294 193
3 194 195 296
3 296 295 194
3 195 196 297
3 297 296 195
3 196 197 298
3 298 297 196
3 197 198 299
3 299 298 197
3 198 199 300
3 300 299 198
3 199 200 301
3 301 300 199
3 200 201 302
3 302 301 200
3 202 203 304
3 304 303 202
3 203 204 305
3 305 304 203
3 204 205 306
3 306 305 204
3 205 206 307
3 307 306 205
3 206 207 308
3 308 307 206
3 207 208 309
3 309 308 207
3 208 209 310
3 310 309 208
3 209 210 311
3 311 310 209
3 210 211 312
3 312 311 210
3 211 212 313
3 313 312 211
3 212 213 314
3 314 313 212
3 213 214 315
3 315 314 213
3 214 215 316
3 316 315 214
3 215 216 317
3 317 316 215
3 216 217 318
3 318 317 216
3 217 218 319
3 319 318 217
3 218 219 320
3 320 319 218
3 219 220 321
3 321 320 219
3 220 221 322
3 322 321 220
3 221 222 323
3 323 322 221
3 222 223 324
3 324 323 222
3 223 224 325
3 325 324 223
3 224 225 326
3 326 325 224
3 225 226 327
3 327 326 225
3 226 227 328
3 328 327 226
3 227 228 329
3 329 328 227
3 228 229 330
3 330 329 228
3 229 230 331
3 331 330 229
3 230 231 332
3 332 331 230
3 231 232 333
3 333 332 231
3 232 233 334
3 334 333 232
3 233 234 335
3 335 334 233
3 234 235 336
3 336 335 234
3 235 236 337
3 337 336 235
3 236 237 338
3 338 337 236
3 237 238 339
3 339 338 237
3 238 239 340
3 340 339 238
3 239 240 341
3 341 340 239
3 240 241 342
3 342 341 240
3 241 242 343
3 343 342 241
3 242 243 344
3 344 343 242
3 243 244 345
3 345 344 243
3 244 245 346
3 346 345 244
3 245 246 347
3 347 346 245
3 246 247 348
3 348 347 246
3 247 248 349
3 349 348 247
3 248 249 350
3 350 349 248
3 249 250 351
3 351 350 249
3 250 251 352
3 352 351 250
3 251 252 353
3 353 352 251
3 252 253 354
3 354 353 252
3 253 254 355
3 355 354 253
3 254 255 356
3 356 355 254
3 255 256 357
3 357 356 255
3 256 257 358
3 358 357 256
3 257 258 359
3 359 358 257
3 258 259 360
3 360 359 258
3 259 260 361
3 361 360 259
3 260 261 362
3 362 361 260
3 261 262 363
3 363 362 261
3 262 263 364
3 364 363 262
3 263 264 365
3 365 364 263
3 264 265 366
3 366 365 264
3 265 266 367
3 367 366 265
3 266 267 368
3 368 367 266
3 267 268 369
3 369 368 267
3 268 269 370
3 370 369 268
3 269 270 371
3 371 370 269
3 270 271 372
3 372 371 270
3 271 272 373
3 373 372 271
3 272 273 374
3 374 373 272
3 273 274 375
3 375 374 273
3 274 275 376
3 376 375 274
3 275 276 377
3 377 376 275
3 276 277 378
3 378 377 276
3 277 278 379
3 379 378 277
3 278 279 380
3 380 379 278
3 279 280 381
3 381 380 279
3 280 281 382
3 382 381 280
3 281 282 383
3 383 382 281
3 282 283 384
3 384 383 282
3 283 284 385
3 385 384 283
3 284 285 386
3 386 385 284
3 285 286 387
3 387 386 285
3 286 287 388
3 388 387 286
3 287 288 389
3 389 388 287
3 288 289 390
3 390 389 288
3 289 290 391
3 391 390 289
3 290 291 392
3 392 391 290
3 291 292 393
3 393 392 291
3 292 293 394
3 394 393 292
3 293 294 395
3 395 394 293
3 294 295 396
3 396 395 294
3 295 296 397
3 397 396 295
3 296 297 398
3 398 397 296
3 297 298 399
3 399 398 297
3 298 299 400
3 400 399 298
3 299 300 401
3 401 400 299
3 300 301 402
3 402 401 300
3 301 302 403
3 403 402 301
3 303 304 405
3 405 404 303
3 304 305 406
3 406 405 304
3 305 306 407
3 407 406 305
3 306 307 408
3 408 407 306
3 307 308 409
3 409 408 307
3 308 309 410
3 410 409 308
3 309 310 411
3 411 410 309
3 310 311 412
3 412 411 310
3 311 312 413
3 413 412 311
3 312 313 414
3 414 413 312
3 313 314 415
3 415 414 313
3 314 315 416
3 416 415 314
3 315 316 417
3 417 416 315
3 316 317 418
3 418 417 316
3 317 318 419
3 419 418 317
3 318 319 420
3 420 419 318
3 319 320 421
3 421 420 319
3 320 321 422
3 422 421 320
3 321 322 423
3 423 422 321
3 322 323 424
3 424 423 322
3 323 324 425
3 425 424 323
3 324 325 426
3 426 425 324
3 325 326 427
3 427 426 325
3 326 327 428
3 428 427 326
3 327 328 429
3 429 428 327
3 328 329 430
3 430 429 328
3 329 330 431
3 431 430 329
3 330 331 432
3 432 431 330
3 331 332 433
3 433 432 331
3 332 333 434
3 434 433 332
3 333 334 435
3 435 434 333
3 334 335 436
3 436 435 334
3 335 336 437
3 437 436 335
3 336 337 438
3 438 437 336
3 337 338 439
3 439 438 337
3 338 339 440
3 440 439 338
3 339 340 441
3 441 440 339
3 340 341 442
3 442 441 340
3 341 342 443
3 443 442 341
3 342 343 444
3 444 443 342
3 343 344 445
3 445 444 343
3 344 345 446
3 446 445 344
3 345 346 447
3 447 446 345
3 346 347 448
3 448 447 346
3 347 348 449
3 449 448 347
3 348 349 450
3 450 449 348
3 349 350 451
3 451 450 349
3 350 351 452
3 452 451 350
3 351 352 453
3 453 452 351
3 352 353 454
3 454 453 352
3 353 354 455
3 455 454 353
3 354 355 456
3 456 455 354
3 355 356 457
3 457 456 355
3 356 357 458
3 458 457 356
3 357 358 459
3 459 458 357
3 358 359 460
3 460 459 358
3 359 360 461
3 461 460 359
3 360 361 462
3 462 461 360
3 361 362 463
3 463 462 361
3 362 363 464
3 464 463 362
3 363 364 465
3 465 464 363
3 364 365 466
3 466 465 364
3 365 366 467
3 467 466 365
3 366 367 468
3 468 467 366
3 367 368 469
3 469 468 367
3 368 369 470
3 470 469 368
3 369 370 471
3 471 470 369
3 370 371 472
3 472 471 370
3 371 372 473
3 473 472 371
3 372 373 474
3 474 473 372
3 373 374 475
3 475 474 373
3 374 375 476
3 476 475 374
3 375 376 477
3 477 476 375
3 376 377 478
3 478 477 376
3 377 378 479
3 479 478 377
3 378 379 480
3 480 479 378
3 379 380 481
3 481 480 379
3 380 381 482
3 482 481 380
3 381 382 483
3 483 482 381
3 382 383 484
3 484 483 382
3 383 384 485
3 485 484 383
3 384 385 486
3 486 485 384
3 385 386 487
3 487 486 385
3 386 387 488
3 488 487 386
3 387 388 489
3 489 488 387
3 388 389 490
3 490 489 388
3 389 390 491
3 491 490 389
3 390 391 492
3 492 491 390
3 391 392 493
3 493 492 391
3 392 393 494
3 494 493 392
3 393 394 495
3 495 494 393
3 394 395 496
3 496 495 394
3 395 396 497
3 497 496 395
3 396 397 498
3 498 497 396
3 397 398 499
3 499 498 397
3 398 399 500
3 500 499 398
3 399 400 501
3 501 500 399
3 400 401 502
3 502 501 400
3 401 402 503
3 503 502 401
3 402 403 504
3 504 503 402
3 404 405 506
3 506 505 404
3 405 406 507
3 507 506 405
3 406 407 508
3 508 507 406
3 407 408 509
3 509 508 407
3 408 409 510
3 510 509 408
3 409 410 511
3 511 510 409
3 410 411 512
3 512 511 410
3 411 412 513
3 513 512 411
3 412 413 514
3 514 513 412
3 413 414 515
3 515 514 413
3 414 415 516
3 516 515 414
3 415 416 517
3 517 516 415
3 416 417 518
3 518 517 416
3 417 418 519
3 519 518 417
3 418 419 520
3 520 519 418
3 419 420 521
3 521 520 419
3 420 421 522
3 522 521 420
3 421 422 523
3 523 522 421
3 422 423 524
3 524 523 422
3 423 424 525
3 525 524 423
3 424 425 526
3 526 525 424
3 425 426 527
3 527 526 425
3 426 427 528
3 528 527 426
3 427 428 529
3 529 528 427
3 428 429 530
3 530 529 428
3 429 430 531
3 531 530 429
3 430 431 532
3 532 531 430
3 431 432 533
3 533 532 431
3 432 433 534
3 534 533 432
3 433 434 535
3 535 534 433
3 434 435 536
3 536 535 434
3 435 436 537
3 537 536 435
3 436 437 538
3 538 537 436
3 437 438 539
3 539 538 437
3 438 439 540
3 540 539 438
3 439 440 541
3 541 540 439
3 440 441 542
3 542 541 440
3 441 442 543
3 543 542 441
3 442 443 544
3 544 543 442
3 443 444 545
3 545 544 443
3 444 445 546
3 546 545 444
3 445 446 547
3 547 546 445
3 446 447 548
3 548 547 446
3 447 448 549
3 549 548 447
3 448 449 550
3 550 549 448
3 449 450 551
3 551 550 449
3 450 451 552
3 552 551 450
3 451 452 553
3 553 552 451
3 452 453 554
3 554 553 452
3 453 454 555
3 555 554 453
3 454 455 556
3 556 555 454
3 455 456 557
3 557 556 455
3 456 457 558
3 558 557 456
3 457 458 559
3 559 558 457
3 458 459 560
3 560 559 458
3 459 460 561
3 561 560 459
3 460 461 562
3 562 561 460
3 461 462 563
3 563 562 461
3 462 463 564
3 564 563 462
3 463 464 565
3 565 564 463
3 464 465 566
3 566 565 464
3 465 466 567
3 567 566 465
3 466 467 568
3 568 567 466
3 467 468 569
3 569 568 467
3 468 469 570
3 570 569 468
3 469 470 571
3 571 570 469
3 470 471 572
3 572 571 470
3 471 472 573
3 573 572 471
3 472 473 574
3 574 573 472
3 473 474 575
3 575 574 473
3 474 475 576
3 576 575 474
3 475 476 577
3 577 576 475
3 476 477 578
3 578 577 476
3 477 478 579
3 579 578 477
3 478 479 580
3 580 579 478
3 479 480 581
3 581 580 479
3 480 481 582
3 582 581 480
3 481 482 583
3 583 582 481
3 482 483 584
3 584 583 482
3 483 484 585
3 585 584 483
3 484 485 586
3 586 585 484
3 485 486 587
3 587 586 485
3 486 487 588
3 588 587 486
3 487 488 589
3 589 588 487
3 488 489 590
3 590 589 488
3 489 490 591
3 591 590 489
3 490 491 592
3 592 591 490
3 491 492 593
3 593 592 491
3 492 493 594
3 594 593 492
3 493 494 595
3 595 594 493
3 494 495 596
3 596 595 494
3 495 496 597
3 597 596 495
3 496 497 598
3 598 597 496
3 497 498 599
3 599 598 497
3 498 499 600
3 600 599 498
3 499 500 601
3 601 600 499
3 500 501 602
3 602 601 500
3 501 502 603
3 603 602 501
3 502 503 604
3 604 603 502
3 503 504 605
3 605 604 503
3 505 506 607
3 607 606 505
3 506 507 608
3 608 607 506
3 507 508 609
3 609 608 507
3 508 509 610
3 610 609 508
3 509 510 611
3 611 610 509
3 510 511 612
3 612 611 510
3 511 512 613
3 613 612 511
3 512 513 614
3 614 613 512
3 513 514 615
3 615 614 513
3 514 515 616
3 616 615 514
3 515 516 617
3 617 616 515
3 516 517 618
3 618 617 516
3 517 518 619
3 619 618 517
3 518 519 620
3 620 619 518
3 519 520 621
3 621 620 519
3 520 521 622
3 622 621 520
3 521 522 623
3 623 622 521
3 522 523 624
3 624 623 522
3 523 524 625
3 625 624 523
3 524 525 626
3 626 625 524
3 525 526 627
3 627 626 525
3 526 527 628
3 628 627 526
3 527 528 629
3 629 628 527
3 528 529 630
3 630 629 528
3 529 530 631
3 631 630 529
3 530 531 632
3 632 631 530
3 531 532 633
3 633 632 531
3 532 533 634
3 634 633 532
3 533 534 635
3 635 634 533
3 534 535 636
3 636 635 534
3 535 536 637
3 637 636 535
3 536 537 638
3 638 637 536
3 537 538 639
3 639 638 537
3 538 539 640
3 640 639 538
3 539 540 641
3 641 640 539
3 540 541 642
3 642 641 540
3 541 542 643
3 643 642 541
3 542 543 644
3 644 643 542
3 543 544 645
3 645 644 543
3 544 545 646
3 646 645 544
3 545 546 647
3 647 646 545
3 546 547 648
3 648 647 546
3 547 548 649
3 649 648 547
3 548 549 650
3 650 649 548
3 549 550 651
3 651 650 549
3 550 551 652
3 652 651 550
3 551 552 653
3 653 652 551
3 552 553 654
3 654 653 552
3 553 554 655
3 655 654 553
3 554 555 656
3 656 655 554
3 555 556 657
3 657 656 555
3 556 557 658
3 658 657 556
3 557 558 659
3 659 658 557
3 558 559 660
3 660 659 558
3 559 560 661
3 661 660 559
3 560 561 662
3 662 661 560
3 561 562 663
3 663 662 561
3 562 563 664
3 664 663 562
3 563 564 665
3 665 664 563
3 564 565 666
3 666 665 564
3 565 566 667
3 667 666 565
3 566 567 668
3 668 667 566
3 567 568 669
3 669 668 567
3 568 569 670
3 670 669 568
3 569 570 671
3 671 670 569
3 570 571 672
3 672 671 570
3 571 572 673
3 673 672 571
3 572 573 674
3 674 673 572
3 573 574 675
3 675 674 573
3 574 575 676
3 676 675 574
3 575 576 677
3 677 676 575
3 576 577 678
3 678 677 576
3 577 578 679
3 679 678 577
3 578 579 680
3 680 679 578
3 579 580 681
3 681 680 579
3 580 581 682
3 682 681 580
3 581 582 683
3 683 682 581
3 582 583 684
3 684 683 582
3 583 584 685
3 685 684 583
3 584 585 686
3 686 685 584
3 585 586 687
3 687 686 585
3 586 587 688
3 688 687 586
3 587 588 689
3 689 688 587
3 588 589 690
3 690 689 588
3 589 590 691
3 691 690 589
3 590 591 692
3 692 691 590
3 591 592 693
3 693 692 591
3 592 593 694
3 694 693 592
3 593 594 695
3 695 694 593
3 594 595 696
3 696 695 594
3 595 596 697
3 697 696 595
3 596 597 698
3 698 697 596
3 597 598 699
3 699 698 597
3 598 599 700
3 700 699 598
3 599 600 701
3 701 700 599
3 600 601 702
3 702 701 600
3 601 602 703
3 703 702 601
3 602 603 704
3 704 703 602
3 603 604 705
3 705 704 603
3 604 605 706
3 706 705 604
3 606 607 708
3 708 707 606
3 607 608 709
3 709 708 607
3 608 609 710
3 710 709 608
3 609 610 711
3 711 710 609
3 610 611 712
3 712 711 610
3 611 612 713
3 713 712 611
3 612 613 714
3 714 713 612
3 613 614 715
3 715 714 613
3 614 615 716
3 716 715 614
3 615 616 717
3 717 716 615
3 616 617 718
3 718 717 616
3 617 618 719
3 719 718 617
3 618 619 720
3 720 719 618
3 619 620 721
3 721 720 619
3 620 621 722
3 722 721 620
3 621 622 723
3 723 722 621
3 622 623 724
3 724 723 622
3 623 624 725
3 725 724 623
3 624 625 726
3 726 725 624
3 625 626 727
3 727 726 625
3 626 627 728
3 728 727 626
3 627 628 729
3 729 728 627
3 628 629 730
3 730 729 628
3 629 630 731
3 731 730 629
3 630 631 732
3 732 731 630
3 631 632 733
3 733 732 631
3 632 633 734
3 734 733 632
3 633 634 735
3 735 734 633
3 634 635 736
3 736 735 634
3 635 636 737
3 737 736 635
3 636 637 738
3 738 737 636
3 637 638 739
3 739 738 637
3 638 639 740
3 740 739 638
3 639 640 741
3 741 740 639
3 640 641 742
3 742 741 640
3 641 642 743
3 743 742 641
3 642 643 744
3 744 743 642
3 643 644 745
3 745 744 643
3 644 645 746
3 746 745 644
3 645 646 747
3 747 746 645
3 646 647 748
3 748 747 646
3 647 648 749
3 749 748 647
3 648 649 750
3 750 749 648
3 649 650 751
3 751 750 649
3 650 651 752
3 752 751 650
3 651 652 753
3 753 752 651
3 652 653 754
3 754 753 652
3 653 654 755
3 755 754 653
3 654 655 756
3 756 755 654
3 655 656 757
3 757 756 655
3 656 657 758
3 758 757 656
3 657 658 759
3 759 758 657
3 658 659 760
3 760 759 658
3 659 660 761
3 761 760 659
3 660 661 762
3 762 761 660
3 661 662 763
3 763 762 661
3 662 663 764
3 764 763 662
3 663 664 765
3 765 764 663
3 664 665 766
3 766 765 664
3 665 666 767
3 767 766 665
3 666 667 768
3 768 767 666
3 667 668 769
3 769 768 667
3 668 669 770
3 770 769 668
3 669 670 771
3 771 770 669
3 670 671 772
3 772 771 670
3 671 672 773
3 773 772 671
3 672 673 774
3 774 773 672
3 673 674 775
3 775 774 673
3 674 675 776
3 776 775 674
3 675 676 777
3 777 776 675
3 676 677 778
3 778 777 676
3 677 678 779
3 779 778 677
3 678 679 780
3 780 779 678
3 679 680 781
3 781 780 679
3 680 681 782
3 782 781 680
3 681 682 783
3 783 782 681
3 682 683 784
3 784 783 682
3 683 684 785
3 785 784 683
3 684 685 786
3 786 785 684
3 685 686 787
3 787 786 685
3 686 687 788
3 788 787 686
3 687 688 789
3 789 788 687
3 688 689 790
3 790 789 688
3 689 690 791
3 791 790 689
3 690 691 792
3 792 791 690
3 691 692 793
3 793 792 691
3 692 693 794
3 794 793 692
3 693 694 795
3 795 794 693
3 694 695 796
3 796 795 694
3 695 696 797
3 797 796 695
3 696 697 798
3 798 797 696
3 697 698 799
3 799 798 697
3 698 699 800
3 800 799 698
3 699 700 801
3 801 800 699
3 700 701 802
3 802 801 700
3 701 702 803
3 803 802 701
3 702 703 804
3 804 803 702
3 703 704 805
3 805 804 703
3 704 705 806
3 806 805 704
3 705 706 807
3 807 806 705
3 707 708 809
3 809 808 707
3 708 709 810
3 810 809 708
3 709 710 811
3 811 810 709
3 710 711 812
3 812 811 710
3 711 712 813
3 813 812 711
3 712 713 814
3 814 813 712
3 713 714 815
3 815 814 713
3 714 715 816
3 816 815 714
3 715 716 817
3 817 816 715
3 716 717 818
3 818 817 716
3 717 718 819
3 819 818 717
3 718 719 820
3 820 819 718
3 719 720 821
3 821 820 719
3 720 721 822
3 822 821 720
3 721 722 823
3 823 822 721
3 722 723 824
3 824 823 722
3 723 724 825
3 825 824 723
3 724 725 826
3 826 825 724
3 725 726 827
3 827 826 725
3 726 727 828
3 828 827 726
3 727 728 829
3 829 828 727
3 728 729 830
3 830 829 728
3 729 730 831
3 831 830 729
3 730 731 832
3 832 831 730
3 731 732 833
3 833 832 731
3 732 733 834
3 834 833 732
3 733 734 835
3 835 834 733
3 734 735 836
3 836 835 734
3 735 736 837
3 837 836 735
3 736 737 838
3 838 837 736
3 737 738 839
3 839 838 737
3 738 739 840
3 840 839 738
3 739 740 841
3 841 840 739
3 740 741 842
3 842 841 740
3 741 742 843
3 843 842 741
3 742 743 844
3 844 843 742
3 743 744 845
3 845 844 743
3 744 745 846
3 846 845 744
3 745 746 847
3 847 846 745
3 746 747 848
3 848 847 746
3 747 748 849
3 849 848 747
3 748 749 850
3 850 849 748
3 749 750 851
3 851 850 749
3 750 751 852
3 852 851 750
3 751 752 853
3 853 852 751
3 752 753 854
3 854 853 752
3 753 754 855
3 855 854 753
3 754 755 856
3 856 855 754
3 755 756 857
3 857 856 755
3 756 757 858
3 858 857 756
3 757 758 859
3 859 858 757
3 758 759 860
3 860 859 758
3 759 760 861
3 861 860 759
3 760 761 862
3 862 861 760
3 761 762 863
3 863 862 761
3 762 763 864
3 864 863 762
3 763 764 865
3 865 864 763
3 764 765 866
3 866 865 764
3 765 766 867
3 867 866 765
3 766 767 868
3 868 867 766
3 767 768 869
3 869 868 767
3 768 769 870
3 870 869 768
3 769 770 871
3 871 870 769
3 770 771 872
3 872 871 770
3 771 772 873
3 873 872 771
3 772 773 874
3 874 873 772
3 773 774 875
3 875 874 773
3 774 775 876
3 876 875 774
3 775 776 877
3 877 876 775
3 776 777 878
3 878 877 776
3 777 778 879
3 879 878 777
3 778 779 880
3 880 879 778
3 779 780 881
3 881 880 779
3 780 781 882
3 882 881 780
3 781 782 883
3 883 882 781
3 782 783 884
3 884 883 782
3 783 784 885
3 885 884 783
3 784 785 886
3 886 885 784
3 785 786 887
3 887 886 785
3 786 787 888
3 888 887 786
3 787 788 889
3 889 888 787
3 788 789 890
3 890 889 788
3 789 790 891
3 891 890 789
3 790 791 892
3 892 891 790
3 791 792 893
3 893 892 791
3 792 793 894
3 894 893 792
3 793 794 895
3 895 894 793
3 794 795 896
3 896 895 794
3 795 796 897
3 897 896 795
3 796 797 898
3 898 897 796
3 797 798 899
3 899 898 797
3 798 799 900
3 900 899 798
3 799 800 901
3 901 900 799
3 800 801 902
3 902 901 800
3 801 802 903
3 903 902 801
3 802 803 904
3 904 903 802
3 803 804 905
3 905 904 803
3 804 805 906
3 906 905 804
3 805 806 907
3 907 906 805
3 806 807 908
3 908 907 806
3 808 809 910
3 910 909 808
3 809 810 911
3 911 910 809
3 810 811 912
3 912 911 810
3 811 812 913
3 913 912 811
3 812 813 914
3 914 913 812
3 813 814 915
3 915 914 813
3 814 815 916
3 916 915 814
3 815 816 917
3 917 916 815
3 816 817 918
3 918 917 816
3 817 818 919
3 919 918 817
3 818 819 920
3 920 919 818
3 819 820 921
3 921 920 819
3 820 821 922
3 922 921 820
3 821 822 923
3 923 922 821
3 822 823 924
3 924 923 822
3 823 824 925
3 925 924 823
3 824 825 926
3 926 925 824
3 825 826 927
3 927 926 825
3 826 827 928
3 928 927 826
3 827 828 929
3 929 928 827
3 828 829 930
3 930 929 828
3 829 830 931
3 931 930 829
3 830 831 932
3 932 931 830
3 831 832 933
3 933 932 831
3 832 833 934
3 934 933 832
3 833 834 935
3 935 934 833
3 834 835 936
3 936 935 834
3 835 836 937
3 937 936 835
3 836 837 938
3 938 937 836
3 837 838 939
3 939 938 837
3 838 839 940
3 940 939 838
3 839 840 941
3 941 940 839
3 840 841 942
3 942 941 840
3 841 842 943
3 943 942 841
3 842 843 944
3 944 943 842
3 843 844 945
3 945 944 843
3 844 845 946
3 946 945 844
3 845 846 947
3 947 946 845
3 846 847 948
3 948 947 846
3 847 848 949
3 949 948 847
3 848 849 950
3 950 949 848
3 849 850 951
3 951 950 849
3 850 851 952
3 952 951 850
3 851 852 953
3 953 952 851
3 852 853 954
3 954 953 852
3 853 854 955
3 955 954 853
3 854 855 956
3 956 955 854
3 855 856 957
3 957 956 855
3 856 857 958
3 958 957 856
3 857 858 959
3 959 958 857
3 858 859 960
3 960 959 858
3 859 860 961
3 961 960 859
3 860 861 962
3 962 961 860
3 861 862 963
3 963 962 861
3 862 863 964
3 964 963 862
3 863 864 965
3 965 964 863
3 864 865 966
3 966 965 864
3 865 866 967
3 967 966 865
3 866 867 968
3 968 967 866
3 867 868 969
3 969 968 867
3 868 869 970
3 970 969 868
3 869 870 971
3 971 970 869
3 870 871 972
3 972 971 870
3 871 872 973
3 973 972 871
3 872 873 974
3 974 973 872
3 873 874 975
3 975 974 873
3 874 875 976
3 976 975 874
3 875 876 977
3 977 976 875
3 876 877 978
3 978 977 876
3 877 878 979
3 979 978 877
3 878 879 980
3 980 979 878
3 879 880 981
3 981 980 879
3 880 881 982
3 982 981 880
3 881 882 983
3 983 982 881
3 882 883 984
3 984 983 882
3 883 884 985
3 985 984 883
3 884 885 986
3 986 985 884
3 885 886 987
3 987 986 885
3 886 887 988
3 988 987 886
3 887 888 989
3 989 988 887
3 888 889 990
3 990 989 888
3 889 890 991
3 991 990 889
3 890 891 992
3 992 991 890
3 891 892 993
3 993 992 891
3 892 893 994
3 994 993 892
3 893 894 995
3 995 994 893
3 894 895 996
3 996 995 894
3 895 896 997
3 997 996 895
3 896 897 998
3 998 997 896
3 897 898 999
3 999 998 897
3 898 899 1000
3 1000 999 898
3 899 900 1001
3 1001 1000 899
3 900 901 1002
3 1002 1001 900
3 901 902 1003
3 1003 1002 901
3 902 903 1004
3 1004 1003 902
3 903 904 1005
3 1005 1004 903
3 904 905 1006
3 1006 1005 904
3 905 906 1007
3 1007 1006 905
3 906 907 1008
3 1008 1007 906
3 907 908 1009
3 1009 1008 907
3 909 910 1011
3 1011 1010 909
3 910 911 1012
3 1012 1011 910
3 911 912 1013
3 1013 1012 911
3 912 913 1014
3 1014 1013 912
3 913 914 1015
3 1015 1014 913
3 914 915 1016
3 1016 1015 914
3 915 916 1017
3 1017 1016 915
3 916 917 1018
3 1018 1017 916
3 917 918 1019
3 1019 1018 917
3 918 919 1020
3 1020 1019 918
3 919 920 1021
3 1021 1020 919
3 920 921 1022
3 1022 1021 920
3 921 922 1023
3 1023 1022 921
3 922 923 1024
3 1024 1023 922
3 923 924 1025
3 1025 1024 923
3 924 925 1026
3 1026 1025 924
3 925 926 1027
3 1027 1026 925
3 926 927 1028
3 1028 1027 926
3 927 928 1029
3 1029 1028 927
3 928 929 1030
3 1030 1029 928
3 929 930 1031
3 1031 1030 929
3 930 931 1032
3 1032 1031 930
3 931 932 1033
3 1033 1032 931
3 932 933 1034
3 1034 1033 932
3 933 934 1035
3 1035 1034 933
3 934 935 1036
3 1036 1035 934
3 935 936 1037
3 1037 1036 935
3 936 937 1038
3 1038 1037 936
3 937 938 1039
3 1039 1038 937
3 938 939 1040
3 1040 1039 938
3 939 940 1041
3 1041 1040 939
3 940 941 1042
3 1042 1041 940
3 941 942 1043
3 1043 1042 941
3 942 943 1044
3 1044 1043 942
3 943 944 1045
3 1045 1044 943
3 944 945 1046
3 1046 1045 944
3 945 946 1047
3 1047 1046 945
3 946 947 1048
3 1048 1047 946
3 947 948 1049
3 1049 1048 947
3 948 949 1050
3 1050 1049 948
3 949 950 1051
3 1051 1050 949
3 950 951 1052
3 1052 1051 950
3 951 952 1053
3 1053 1052 951
3 952 953 1054
3 1054 1053 952
3 953 954 1055
3 1055 1054 953
3 954 955 1056
3 1056 1055 954
3 955 956 1057
3 1057 1056 955
3 956 957 1058
3 1058 1057 956
3 957 958 1059
3 1059 1058 957
3 958 959 1060
3 1060 1059 958
3 959 960 1061
3 1061 1060 959
3 960 961 1062
3 1062 1061 960
3 961 962 1063
3 1063 1062 961
3 962 963 1064
3 1064 1063 962
3 963 964 1065
3 1065 1064 963
3 964 965 1066
3 1066 1065 964
3 965 966 1067
3 1067 1066 965
3 966 967 1068
3 1068 1067 966
3 967 968 1069
3 1069 1068 967
3 968 969 1070
3 1070 1069 968
3 969 970 1071
3 1071 1070 969
3 970 971 1072
3 1072 1071 970
3 971 972 1073
3 1073 1072 971
3 972 973 1074
3 1074 1073 972
3 973 974 1075
3 1075 1074 973
3 974 975 1076
3 1076 1075 974
3 975 976 1077
3 1077 1076 975
3 976 977 1078
3 1078 1077 976
3 977 978 1079
3 1079 1078 977
3 978 979 1080
3 1080 1079 978
3 979 980 1081
3 1081 1080 979
3 980 981 1082
3 1082 1081 980
3 981 982 1083
3 1083 1082 981
3 982 983 1084
3 1084 1083 982
3 983 984 1085
3 1085 1084 983
3 984 985 1086
3 1086 1085 984
3 985 986 1087
3 1087 1086 985
3 986 987 1088
3 1088 1087 986
3 987 988 1089
3 1089 1088 987
3 988 989 1090
3 1090 1089 988
3 989 990 1091
3 1091 1090 989
3 990 991 1092
3 1092 1091 990
3 991 992 1093
3 1093 1092 991
3 992 993 1094
3 1094 1093 992
3 993 994 1095
3 1095 1094 993
3 994 995 1096
3 1096 1095 994
3 995 996 1097
3 1097 1096 995
3 996 997 1098
3 1098 1097 996
3 997 998 1099
3 1099 1098 997
3 998 999 1100
3 1100 1099 998
3 999 1000 1101
3 1101 1100 999
3 1000 1001 1102
3 1102 1101 1000
3 1001 1002 1103
3 1103 1102 1001
3 1002 1003 1104
3 1104 1103 1002
3 1003 1004 1105
3 1105 1104 1003
3 1004 1005 1106
3 1106 1105 1004
3 1005 1006 1107
3 1107 1106 1005
3 1006 1007 1108
3 1108 1107 1006
3 1007 1008 1109
3 1109 1108 1007
3 1008 1009 1110
3 1110 1109 1008
3 1010 1011 1112
3 1112 1111 1010
3 1011 1012 1113
3 1113 1112 1011
3 1012 1013 1114
3 1114 1113 1012
3 1013 1014 1115
3 1115 1114 1013
3 1014 1015 1116
3 1116 1115 1014
3 1015 1016 1117
3 1117 1116 1015
3 1016 1017 1118
3 1118 1117 1016
3 1017 1018 1119
3 1119 1118 1017
3 1018 1019 1120
3 1120 1119 1018
3 1019 1020 1121
3 1121 1120 1019
3 1020 1021 1122
3 1122 1121 1020
3 1021 1022 1123
3 1123 1122 1021
3 1022 1023 1124
3 1124 1123 1022
3 1023 1024 1125
3 1125 1124 1023
3 1024 1025 1126
3 1126 1125 1024
3 1025 1026 1127
3 1127 1126 1025
3 1026 1027 1128
3 1128 1127 1026
3 1027 1028 1129
3 1129 1128 1027
3 1028 1029 1130
3 1130 1129 1028
3 1029 1030 1131
3 1131 1130 1029
3 1030 1031 1132
3 1132 1131 1030
3 1031 1032 1133
3 1133 1132 1031
3 1032 1033 1134
3 1134 1133 1032
3 1033 1034 1135
3 1135 1134 1033
3 1034 1035 1136
3 1136 1135 1034
3 1035 1036 1137
3 1137 1136 1035
3 1036 1037 1138
3 1138 1137 1036
3 1037 1038 1139
3 1139 1138 1037
3 1038 1039 1140
3 1140 1139 1038
3 1039 1040 1141
3 1141 1140 1039
3 1040 1041 1142
3 1142 1141 1040
3 1041 1042 1143
3 1143 1142 1041
3 1042 1043 1144
3 1144 1143 1042
3 1043 1044 1145
3 1145 1144 1043
3 1044 1045 1146
3 1146 1145 1044
3 1045 1046 1147
3 1147 1146 1045
3 1046 1047 1148
3 1148 1147 1046
3 1047 1048 1149
3 1149 1148 1047
3 1048 1049 1150
3 1150 1149 1048
3 1049 1050 1151
3 1151 1150 1049
3 1050 1051 1152
3 1152 1151 1050
3 1051 1052 1153
3 1153 1152 1051
3 1052 1053 1154
3 1154 1153 1052
3 1053 1054 1155
3 1155 1154 1053
3 1054 1055 1156
3 1156 1155 1054
3 1055 1056 1157
3 1157 1156 1055
3 1056 1057 1158
3 1158 1157 1056
3 1057 1058 1159
3 1159 1158 1057
3 1058 1059 1160
3 1160 1159 1058
3 1059 1060 1161
3 1161 1160 1059
3 1060 1061 1162
3 1162 1161 1060
3 1061 1062 1163
3 1163 1162 1061
3 1062 1063 1164
3 1164 1163 1062
3 1063 1064 1165
3 1165 1164 1063
3 1064 1065 1166
3 1166 1165 1064
3 1065 1066 1167
3 1167 1166 1065
3 1066 1067 1168
3 1168 1167 1066
3 1067 1068 1169
3 1169 1168 1067
3 1068 1069 1170
3 1170 1169 1068
3 1069 1070 1171
3 1171 1170 1069
3 1070 1071 1172
3 1172 1171 1070
3 1071 1072 1173
3 1173 1172 1071
3 1072 1073 1174
3 1174 1173 1072
3 1073 1074 1175
3 1175 1174 1073
3 1074 1075 1176
3 1176 1175 1074
3 1075 1076 1177
3 1177 1176 1075
3 1076 1077 1178
3 1178 1177 1076
3 1077 1078 1179
3 1179 1178 1077
3 1078 1079 1180
3 1180 1179 1078
3 1079 1080 1181
3 1181 1180 1079
3 1080 1081 1182
3 1182 1181 1080
3 1081 1082 1183
3 1183 1182 1081
3 1082 1083 1184
3 1184 1183 1082
3 1083 1084 1185
3 1185 1184 1083
3 1084 1085 1186
3 1186 1185 1084
3 1085 1086 1187
3 1187 1186 1085
3 1086 1087 1188
3 1188 1187 1086
3 1087 1088 1189
3 1189 1188 1087
3 1088 1089 1190
3 1190 1189 1088
3 1089 1090 1191
3 1191 1190 1089
3 1090 1091 1192
3 1192 1191 1090
3 1091 1092 1193
3 1193 1192 1091
3 1092 1093 1194
3 1194 1193 1092
3 1093 1094 1195
3 1195 1194 1093
3 1094 1095 1196
3 1196 1195 1094
3 1095 1096 1197
3 1197 1196 1095
3 1096 1097 1198
3 1198 1197 1096
3 1097 1098 1199
3 1199 1198 1097
3 1098 1099 1200
3 1200 1199 1098
3 1099 1100 1201
3 1201 1200 1099
3 1100 1101 1202
3 1202 1201 1100
3 1101 1102 1203
3 1203 1202 1101
3 1102 1103 1204
3 1204 1203 1102
3 1103 1104 1205
3 1205 1204 1103
3 1104 1105 1206
3 1206 1205 1104
3 1105 1106 1207
3 1207 1206 1105
3 1106 1107 1208
3 1208 1207 1106
3 1107 1108 1209
3 1209 1208 1107
3 1108 1109 1210
3 1210 1209 1108
3 1109 1110 1211
3 1211 1210 1109
3 1111 1112 1213
3 1213 1212 1111
3 1112 1113 1214
3 1214 1213 1112
3 1113 1114 1215
3 1215 1214 1113
3 1114 1115 1216
3 1216 1215 1114
3 1115 1116 1217
3 1217 1216 1115
3 1116 1117 1218
3 1218 1217 1116
3 1117 1118 1219
3 1219 1218 1117
3 1118 1119 1220
3 1220 1219 1118
3 1119 1120 1221
3 1221 1220 1119
3 1120 1121 1222
3 1222 1221 1120
3 1121 1122 1223
3 1223 1222 1121
3 1122 1123 1224
3 1224 1223 1122
3 1123 1124 1225
3 1225 1224 1123
3 1124 1125 1226
3 1226 1225 1124
3 1125 1126 1227
3 1227 1226 1125
3 1126 1127 1228
3 1228 1227 1126
3 1127 1128 1229
3 1229 1228 1127
3 1128 1129 1230
3 1230 1229 1128
3 1129 1130 1231
3 1231 1230 1129
3 1130 1131 1232
3 1232 1231 1130
3 1131 1132 1233
3 1233 1232 1131
3 1132 1133 1234
3 1234 1233 1132
3 1133 1134 1235
3 1235 1234 1133
3 1134 1135 1236
3 1236 1235 1134
3 1135 1136 1237
3 1237 1236 1135
3 1136 1137 1238
3 1238 1237 1136
3 1137 1138 1239
3 1239 1238 1137
3 1138 1139 1240
3 1240 1239 1138
3 1139 1140 1241
3 1241 1240 1139
3 1140 1141 1242
3 1242 1241 1140
3 1141 1142 1243
3 1243 1242 1141
3 1142 1143 1244
3 1244 1243 1142
3 1143 1144 1245
3 1245 1244 1143
3 1144 1145 1246
3 1246 1245 1144
3 1145 1146 1247
3 1247 1246 1145
3 1146 1147 1248
3 1248 1247 1146
3 1147 1148 1249
3 1249 1248 1147
3 1148 1149 1250
3 1250 1249 1148
3 1149 1150 1251
3 1251 1250 1149
3 1150 1151 1252
3 1252 1251 1150
3 1151 1152 1253
3 1253 1252 1151
3 1152 1153 1254
3 1254 1253 1152
3 1153 1154 1255
3 1255 1254 1153
3 1154 1155 1256
3 1256 1255 1154
3 1155 1156 1257
3 1257 1256 1155
3 1156 1157 1258
3 1258 1257 1156
3 1157 1158 1259
3 1259 1258 1157
3 1158 1159 1260
3 1260 1259 1158
3 1159 1160 1261
3 1261 1260 1159
3 1160 1161 1262
3 1262 1261 1160
3 1161 1162 1263
3 1263 1262 1161
3 1162 1163 1264
3 1264 1263 1162
3 1163 1164 1265
3 1265 1264 1163
3 1164 1165 1266
3 1266 1265 1164
3 1165 1166 1267
3 1267 1266 1165
3 1166 1167 1268
3 1268 1267 1166
3 1167 1168 1269
3 1269 1268 1167
3 1168 1169 1270
3 1270 1269 1168
3 1169 1170 1271
3 1271 1270 1169
3 1170 1171 1272
3 1272 1271 1170
3 1171 1172 1273
3 1273 1272 1171
3 1172 1173 1274
3 1274 1273 1172
3 1173 1174 1275
3 1275 1274 1173
3 1174 1175 1276
3 1276 1275 1174
3 1175 1176 1277
3 1277 1276 1175
3 1176 1177 1278
3 1278 1277 1176
3 1177 1178 1279
3 1279 1278 1177
3 1178 1179 1280
3 1280 1279 1178
3 1179 1180 1281
3 1281 1280 1179
3 1180 1181 1282
3 1282 1281 1180
3 1181 1182 1283
3 1283 1282 1181
3 1182 1183 1284
3 1284 1283 1182
3 1183 1184 1285
3 1285 1284 1183
3 1184 1185 1286
3 1286 1285 1184
3 1185 1186 1287
3 1287 1286 1185
3 1186 1187 1288
3 1288 1287 1186
3 1187 1188 1289
3 1289 1288 1187
3 1188 1189 1290
3 1290 1289 1188
3 1189 1190 1291
3 1291 1290 1189
3 1190 1191 1292
3 1292 1291 1190
3 1191 1192 1293
3 1293 1292 1191
3 1192 1193 1294
3 1294 1293 1192
3 1193 1194 1295
3 1295 1294 1193
3 1194 1195 1296
3 1296 1295 1194
3 1195 1196 1297
3 1297 1296 1195
3 1196 1197 1298
3 1298 1297 1196
3 1197 1198 1299
3 1299 1298 1197
3 1198 1199 1300
3 1300 1299 1198
3 1199 1200 1301
3 1301 1300 1199
3 1200 1201 1302
3 1302 1301 1200
3 1201 1202 1303
3 1303 1302 1201
3 1202 1203 1304
3 1304 1303 1202
3 1203 1204 1305
3 1305 1304 1203
3 1204 1205 1306
3 1306 1305 1204
3 1205 1206 1307
3 1307 1306 1205
3 1206 1207 1308
3 1308 1307 1206
3 1207 1208 1309
3 1309 1308 1207
3 1208 1209 1310
3 1310 1309 1208
3 1209 1210 1311
3 1311 1310 1209
3 1210 1211 1312
3 1312 1311 1210
3 1212 1213 1314
3 1314 1313 1212
3 1213 1214 1315
3 1315 1314 1213
3 1214 1215 1316
3 1316 1315 1214
3 1215 1216 1317
3 1317 1316 1215
3 1216 1217 1318
3 1318 1317 1216
3 1217 1218 1319
3 1319 1318 1217
3 1218 1219 1320
3 1320 1319 1218
3 1219 1220 1321
3 1321 1320 1219
3 1220 1221 1322
3 1322 1321 1220
3 1221 1222 1323
3 1323 1322 1221
3 1222 1223 1324
3 1324 1323 1222
3 1223 1224 1325
3 1325 1324 1223
3 1224 1225 1326
3 1326 1325 1224
3 1225 1226 1327
3 1327 1326 1225
3 1226 1227 1328
3 1328 1327 1226
3 1227 1228 1329
3 1329 1328 1227
3 1228 1229 1330
3 1330 1329 1228
3 1229 1230 1331
3 1331 1330 1229
3 1230 1231 1332
3 1332 1331 1230
3 1231 1232 1333
3 1333 1332 1231
3 1232 1233 1334
3 1334 1333 1232
3 1233 1234 1335
3 1335 1334 1233
3 1234 1235 1336
3 1336 1335 1234
3 1235 1236 1337
3 1337 1336 1235
3 1236 1237 1338
3 1338 1337 1236
3 1237 1238 1339
3 1339 1338 1237
3 1238 1239 1340
3 1340 1339 1238
3 1239 1240 1341
3 1341 1340 1239
3 1240 1241 1342
3 1342 1341 1240
3 1241 1242 1343
3 1343 1342 1241
3 1242 1243 1344
3 1344 1343 1242
3 1243 1244 1345
3 1345 1344 1243
3 1244 1245 1346
3 1346 1345 1244
3 1245 1246 1347
3 1347 1346 1245
3 1246 1247 1348
3 1348 1347 1246
3 1247 1248 1349
3 1349 1348 1247
3 1248 1249 1350
3 1350 1349 1248
3 1249 1250 1351
3 1351 1350 1249
3 1250 1251 1352
3 1352 1351 1250
3 1251 1252 1353
3 1353 1352 1251
3 1252 1253 1354
3 1354 1353 1252
3 1253 1254 1355
3 1355 1354 1253
3 1254 1255 1356
3 1356 1355 1254
3 1255 1256 1357
3 1357 1356 1255
3 1256 1257 1358
3 1358 1357 1256
3 1257 1258 1359
3 1359 1358 1257
3 1258 1259 1360
3 1360 1359 1258
3 1259 1260 1361
3 1361 1360 1259
3 1260 1261 1362
3 1362 1361 1260
3 1261 1262 1363
3 1363 1362 1261
3 1262 1263 1364
3 1364 1363 1262
3 1263 1264 1365
3 1365 1364 1263
3 1264 1265 1366
3 1366 1365 1264
3 1265 1266 1367
3 1367 1366 1265
3 1266 1267 1368
3 1368 1367 1266
3 1267 1268 1369
3 1369 1368 1267
3 1268 1269 1370
3 1370 1369 1268
3 1269 1270 1371
3 1371 1370 1269
3 1270 1271 1372
3 1372 1371 1270
3 1271 1272 1373
3 1373 1372 1271
3 1272 1273 1374
3 1374 1373 1272
3 1273 1274 1375
3 1375 1374 1273
3 1274 1275 1376
3 1376 1375 1274
3 1275 1276 1377
3 1377 1376 1275
3 1276 1277 1378
3 1378 1377 1276
3 1277 1278 1379
3 1379 1378 1277
3 1278 1279 1380
3 1380 1379 1278
3 1279 1280 1381
3 1381 1380 1279
3 1280 1281 1382
3 1382 1381 1280
3 1281 1282 1383
3 1383 1382 1281
3 1282 1283 1384
3 1384 1383 1282
3 1283 1284 1385
3 1385 1384 1283
3 1284 1285 1386
3 1386 1385 1284
3 1285 1286 1387
3 1387 1386 1285
3 1286 1287 1388
3 1388 1387 1286
3 1287 1288 1389
3 1389 1388 1287
3 1288 1289 1390
3 1390 1389 1288
3 1289 1290 1391
3 1391 1390 1289
3 1290 1291 1392
3 1392 1391 1290
3 1291 1292 1393
3 1393 1392 1291
3 1292 1293 1394
3 1394 1393 1292
3 1293 1294 1395
3 1395 1394 1293
3 1294 1295 1396
3 1396 1395 1294
3 1295 1296 1397
3 1397 1396 1295
3 1296 1297 1398
3 1398 1397 1296
3 1297 1298 1399
3 1399 1398 1297
3 1298 1299 1400
3 1400 1399 1298
3 1299 1300 1401
3 1401 1400 1299
3 1300 1301 1402
3 1402 1401 1300
3 1301 1302 1403
3 1403 1402 1301
3 1302 1303 1404
3 1404 1403 1302
3 1303 1304 1405
3 1405 1404 1303
3 1304 1305 1406
3 1406 1405 1304
3 1305 1306 1407
3 1407 1406 1305
3 1306 1307 1408
3 1408 1407 1306
3 1307 1308 1409
3 1409 1408 1307
3 1308 1309 1410
3 1410 1409 1308
3 1309 1310 1411
3 1411 1410 1309
3 1310 1311 1412
3 1412 1411 1310
3 1311 1312 1413
3 1413 1412 1311
3 1313 1314 1415
3 1415 1414 1313
3 1314 1315 1416
3 1416 1415 1314
3 1315 1316 1417
3 1417 1416 1315
3 1316 1317 1418
3 1418 1417 1316
3 1317 1318 1419
3 1419 1418 1317
3 1318 1319 1420
3 1420 1419 1318
3 1319 1320 1421
3 1421 1420 1319
3 1320 1321 1422
3 1422 1421 1320
3 1321 1322 1423
3 1423 1422 1321
3 1322 1323 1424
3 1424 1423 1322
3 1323 1324 1425
3 1425 1424 1323
3 1324 1325 1426
3 1426 1425 1324
3 1325 1326 1427
3 1427 1426 1325
3 1326 1327 1428
3 1428 1427 1326
3 1327 1328 1429
3 1429 1428 1327
3 1328 1329 1430
3 1430 1429 1328
3 1329 1330 1431
3 1431 1430 1329
3 1330 1331 1432
3 1432 1431 1330
3 1331 1332 1433
3 1433 1432 1331
3 1332 1333 1434
3 1434 1433 1332
3 1333 1334 1435
3 1435 1434 1333
3 1334 1335 1436
3 1436 1435 1334
3 1335 1336 1437
3 1437 1436 1335
3 1336 1337 1438
3 1438 1437 1336
3 1337 1338 1439
3 1439 1438 1337
3 1338 1339 1440
3 1440 1439 1338
3 1339 1340 1441
3 1441 1440 1339
3 1340 1341 1442
3 1442 1441 1340
3 1341 1342 1443
3 1443 1442 1341
3 1342 1343 1444
3 1444 1443 1342
3 1343 1344 1445
3 1445 1444 1343
3 1344 1345 1446
3 1446 1445 1344
3 1345 1346 1447
3 1447 1446 1345
3 1346 1347 1448
3 1448 1447 1346
3 1347 1348 1449
3 1449 1448 1347
3 1348 1349 1450
3 1450 1449 1348
3 1349 1350 1451
3 1451 1450 1349
3 1350 1351 1452
3 1452 1451 1350
3 1351 1352 1453
3 1453 1452 1351
3 1352 1353 1454
3 1454 1453 1352
3 1353 1354 1455
3 1455 1454 1353
3 1354 1355 1456
3 1456 1455 1354
3 1355 1356 1457
3 1457 1456 1355
3 1356 1357 1458
3 1458 1457 1356
3 1357 1358 1459
3 1459 1458 1357
3 1358 1359 1460
3 1460 1459 1358
3 1359 1360 1461
3 1461 1460 1359
3 1360 1361 1462
3 1462 1461 1360
3 1361 1362 1463
3 1463 1462 1361
3 1362 1363 1464
3 1464 1463 1362
3 1363 1364 1465
3 1465 1464 1363
3 1364 1365 1466
3 1466 1465 1364
3 1365 1366 1467
3 1467 1466 1365
3 1366 1367 1468
3 1468 1467 1366
3 1367 1368 1469
3 1469 1468 1367
3 1368 1369 1470
3 1470 1469 1368
3 1369 1370 1471
3 1471 1470 1369
3 1370 1371 1472
3 1472 1471 1370
3 1371 1372 1473
3 1473 1472 1371
3 1372 1373 1474
3 1474 1473 1372
3 1373 1374 1475
3 1475 1474 1373
3 1374 1375 1476
3 1476 1475 1374
3 1375 1376 1477
3 1477 1476 1375
3 1376 1377 1478
3 1478 1477 1376
3 1377 1378 1479
3 1479 1478 1377
3 1378 1379 1480
3 1480 1479 1378
3 1379 1380 1481
3 1481 1480 1379
3 1380 1381 1482
3 1482 1481 1380
3 1381 1382 1483
3 1483 1482 1381
3 1382 1383 1484
3 1484 1483 1382
3 1383 1384 1485
3 1485 1484 1383
3 1384 1385 1486
3 1486 1485 1384
3 1385 1386 1487
3 1487 1486 1385
3 1386 1387 1488
3 1488 1487 1386
3 1387 1388 1489
3 1489 1488 1387
3 1388 1389 1490
3 1490 1489 1388
3 1389 1390 1491
3 1491 1490 1389
3 1390 1391 1492
3 1492 1491 1390
3 1391 1392 1493
3 1493 1492 1391
3 1392 1393 1494
3 1494 1493 1392
3 1393 1394 1495
3 1495 1494 1393
3 1394 1395 1496
3 1496 1495 1394
3 1395 1396 1497
3 1497 1496 1395
3 1396 1397 1498
3 1498 1497 1396
3 1397 1398 1499
3 1499 1498 1397
3 1398 1399 1500
3 1500 1499 1398
3 1399 1400 1501
3 1501 1500 1399
3 1400 1401 1502
3 1502 1501 1400
3 1401 1402 1503
3 1503 1502 1401
3 1402 1403 1504
3 1504 1503 1402
3 1403 1404 1505
3 1505 1504 1403
3 1404 1405 1506
3 1506 1505 1404
3 1405 1406 1507
3 1507 1506 1405
3 1406 1407 1508
3 1508 1507 1406
3 1407 1408 1509
3 1509 1508 1407
3 1408 1409 1510
3 1510 1509 1408
3 1409 1410 1511
3 1511 1510 1409
3 1410 1411 1512
3 1512 1511 1410
3 1411 1412 1513
3 1513 1512 1411
3 1412 1413 1514
3 1514 1513 1412
3 1414 1415 1516
3 1516 1515 1414
3 1415 1416 1517
3 1517 1516 1415
3 1416 1417 1518
3 1518 1517 1416
3 1417 1418 1519
3 1519 1518 1417
3 1418 1419 1520
3 1520 1519 1418
3 1419 1420 1521
3 1521 1520 1419
3 1420 1421 1522
3 1522 1521 1420
3 1421 1422 1523
3 1523 1522 1421
3 1422 1423 1524
3 1524 1523 1422
3 1423 1424 1525
3 1525 1524 1423
3 1424 1425 1526
3 1526 1525 1424
3 1425 1426 1527
3 1527 1526 1425
3 1426 1427 1528
3 1528 1527 1426
3 1427 1428 1529
3 1529 1528 1427
3 1428 1429 1530
3 1530 1529 1428
3 1429 1430 1531
3 1531 1530 1429
3 1430 1431 1532
3 1532 1531 1430
3 1431 1432 1533
3 1533 1532 1431
3 1432 1433 1534
3 1534 1533 1432
3 1433 1434 1535
3 1535 1534 1433
3 1434 1435 1536
3 1536 1535 1434
3 1435 1436 1537
3 1537 1536 1435
3 1436 1437 1538
3 1538 1537 1436
3 1437 1438 1539
3 1539 1538 1437
3 1438 1439 1540
3 1540 1539 1438
3 1439 1440 1541
3 1541 1540 1439
3 1440 1441 1542
3 1542 1541 1440
3 1441 1442 1543
3 1543 1542 1441
3 1442 1443 1544
3 1544 1543 1442
3 1443 1444 1545
3 1545 1544 1443
3 1444 1445 1546
3 1546 1545 1444
3 1445 1446 1547
3 1547 1546 1445
3 1446 1447 1548
3 1548 1547 1446
3 1447 1448 1549
3 1549 1548 1447
3 1448 1449 1550
3 1550 1549 1448
3 1449 1450 1551
3 1551 1550 1449
3 1450 1451 1552
3 1552 1551 1450
3 1451 1452 1553
3 1553 1552 1451
3 1452 1453 1554
3 1554 1553 1452
3 1453 1454 1555
3 1555 1554 1453
3 1454 1455 1556
3 1556 1555 1454
3 1455 1456 1557
3 1557 1556 1455
3 1456 1457 1558
3 1558 1557 1456
3 1457 1458 1559
3 1559 1558 1457
3 1458 1459 1560
3 1560 1559 1458
3 1459 1460 1561
3 1561 1560 1459
3 1460 1461 1562
3 1562 1561 1460
3 1461 1462 1563
3 1563 1562 1461
3 1462 1463 1564
3 1564 1563 1462
3 1463 1464 1565
3 1565 1564 1463
3 1464 1465 1566
3 1566 1565 1464
3 1465 1466 1567
3 1567 1566 1465
3 1466 1467 1568
3 1568 1567 1466
3 1467 1468 1569
3 1569 1568 1467
3 1468 1469 1570
3 1570 1569 1468
3 1469 1470 1571
3 1571 1570 1469
3 1470 1471 1572
3 1572 1571 1470
3 1471 1472 1573
3 1573 1572 1471
3 1472 1473 1574
3 1574 1573 1472
3 1473 1474 1575
3 1575 1574 1473
3 1474 1475 1576
3 1576 1575 1474
3 1475 1476 1577
3 1577 1576 1475
3 1476 1477 1578
3 1578 1577 1476
3 1477 1478 1579
3 1579 1578 1477
3 1478 1479 1580
3 1580 1579 1478
3 1479 1480 1581
3 1581 1580 1479
3 1480 1481 1582
3 1582 1581 1480
3 1481 1482 1583
3 1583 1582 1481
3 1482 1483 1584
3 1584 1583 1482
3 1483 1484 1585
3 1585 1584 1483
3 1484 1485 1586
3 1586 1585 1484
3 1485 1486 1587
3 1587 1586 1485
3 1486 1487 1588
3 1588 1587 1486
3 1487 1488 1589
3 1589 1588 1487
3 1488 1489 1590
3 1590 1589 1488
3 1489 1490 1591
3 1591 1590 1489
3 1490 1491 1592
3 1592 1591 1490
3 1491 1492 1593
3 1593 1592 1491
3 1492 1493 1594
3 1594 1593 1492
3 1493 1494 1595
3 1595 1594 1493
3 1494 1495 1596
3 1596 1595 1494
3 1495 1496 1597
3 1597 1596 1495
3 1496 1497 1598
3 1598 1597 1496
3 1497 1498 1599
3 1599 1598 1497
3 1498 1499 1600
3 1600 1599 1498
3 1499 1500 1601
3 1601 1600 1499
3 1500 1501 1602
3 1602 1601 1500
3 1501 1502 1603
3 1603 1602 1501
3 1502 1503 1604
3 1604 1603 1502
3 1503 1504 1605
3 1605 1604 1503
3 1504 1505 1606
3 1606 1605 1504
3 1505 1506 1607
3 1607 1606 1505
3 1506 1507 1608
3 1608 1607 1506
3 1507 1508 1609
3 1609 1608 1507
3 1508 1509 1610
3 1610 1609 1508
3 1509 1510 1611
3 1611 1610 1509
3 1510 1511 1612
3 1612 1611 1510
3 1511 1512 1613
3 1613 1612 1511
3 1512 1513 1614
3 1614 1613 1512
3 1513 1514 1615
3 1615 1614 1513
3 1515 1516 1617
3 1617 1616 1515
3 1516 1517 1618
3 1618 1617 1516
3 1517 1518 1619
3 1619 1618 1517
3 1518 1519 1620
3 1620 1619 1518
3 1519 1520 1621
3 1621 1620 1519
3 1520 1521 1622
3 1622 1621 1520
3 1521 1522 1623
3 1623 1622 1521
3 1522 1523 1624
3 1624 1623 1522
3 1523 1524 1625
3 1625 1624 1523
3 1524 1525 1626
3 1626 1625 1524
3 1525 1526 1627
3 1627 1626 1525
3 1526 1527 1628
3 1628 1627 1526
3 1527 1528 1629
3 1629 1628 1527
3 1528 1529 1630
3 1630 1629 1528
3 1529 1530 1631
3 1631 1630 1529
3 1530 1531 1632
3 1632 1631 1530
3 1531 1532 1633
3 1633 1632 1531
3 1532 1533 1634
3 1634 1633 1532
3 1533 1534 1635
3 1635 1634 1533
3 1534 1535 1636
3 1636 1635 1534
3 1535 1536 1637
3 1637 1636 1535
3 1536 1537 1638
3 1638 1637 1536
3 1537 1538 1639
3 1639 1638 1537
3 1538 1539 1640
3 1640 1639 1538
3 1539 1540 1641
3 1641 1640 1539
3 1540 1541 1642
3 1642 1641 1540
3 1541 1542 1643
3 1643 1642 1541
3 1542 1543 1644
3 1644 1643 1542
3 1543 1544 1645
3 1645 1644 1543
3 1544 1545 1646
3 1646 1645 1544
3 1545 1546 1647
3 1647 1646 1545
3 1546 1547 1648
3 1648 1647 1546
3 1547 1548 1649
3 1649 1648 1547
3 1548 1549 1650
3 1650 1649 1548
3 1549 1550 1651
3 1651 1650 1549
3 1550 1551 1652
3 1652 1651 1550
3 1551 1552 1653
3 1653 1652 1551
3 1552 1553 1654
3 1654 1653 1552
3 1553 1554 1655
3 1655 1654 1553
3 1554 1555 1656
3 1656 1655 1554
3 1555 1556 1657
3 1657 1656 1555
3 1556 1557 1658
3 1658 1657 1556
3 1557 1558 1659
3 1659 1658 1557
3 1558 1559 1660
3 1660 1659 1558
3 1559 1560 1661
3 1661 1660 1559
3 1560 1561 1662
3 1662 1661 1560
3 1561 1562 1663
3 1663 1662 1561
3 1562 1563 1664
3 1664 1663 1562
3 1563 1564 1665
3 1665 1664 1563
3 1564 1565 1666
3 1666 1665 1564
3 1565 1566 1667
3 1667 1666 1565
3 1566 1567 1668
3 1668 1667 1566
3 1567 1568 1669
3 1669 1668 1567
3 1568 1569 1670
3 1670 1669 1568
3 1569 1570 1671
3 1671 1670 1569
3 1570 1571 1672
3 1672 1671 1570
3 1571 1572 1673
3 1673 1672 1571
3 1572 1573 1674
3 1674 1673 1572
3 1573 1574 1675
3 1675 1674 1573
3 1574 1575 1676
3 1676 1675 1574
3 1575 1576 1677
3 1677 1676 1575
3 1576 1577 1678
3 1678 1677 1576
3 1577 1578 1679
3 1679 1678 1577
3 1578 1579 1680
3 1680 1679 1578
3 1579 1580 1681
3 1681 1680 1579
3 1580 1581 1682
3 1682 1681 1580
3 1581 1582 1683
3 1683 1682 1581
3 1582 1583 1684
3 1684 1683 1582
3 1583 1584 1685
3 1685 1684 1583
3 1584 1585 1686
3 1686 1685 1584
3 1585 1586 1687
3 1687 1686 1585
3 1586 1587 1688
3 1688 1687 1586
3 1587 1588 1689
3 1689 1688 1587
3 1588 1589 1690
3 1690 1689 1588
3 1589 1590 1691
3 1691 1690 1589
3 1590 1591 1692
3 1692 1691 1590
3 1591 1592 1693
3 1693 1692 1591
3 1592 1593 1694
3 1694 1693 1592
3 1593 1594 1695
3 1695 1694 1593
3 1594 1595 1696
3 1696 1695 1594
3 1595 1596 1697
3 1697 1696 1595
3 1596 1597 1698
3 1698 1697 1596
3 1597 1598 1699
3 1699 1698 1597
3 1598 1599 1700
3 1700 1699 1598
3 1599 1600 1701
3 1701 1700 1599
3 1600 1601 1702
3 1702 1701 1600
3 1601 1602 1703
3 1703 1702 1601
3 1602 1603 1704
3 1704 1703 1602
3 1603 1604 1705
3 1705 1704 1603
3 1604 1605 1706
3 1706 1705 1604
3 1605 1606 1707
3 1707 1706 1605
3 1606 1607 1708
3 1708 1707 1606
3 1607 1608 1709
3 1709 1708 1607
3 1608 1609 1710
3 1710 1709 1608
3 1609 1610 1711
3 1711 1710 1609
3 1610 1611 1712
3 1712 1711 1610
3 1611 1612 1713
3 1713 1712 1611
3 1612 1613 1714
3 1714 1713 1612
3 1613 1614 1715
3 1715 1714 1613
3 1614 1615 1716
3 1716 1715 1614
3 1616 1617 1718
3 1718 1717 1616
3 1617 1618 1719
3 1719 1718 1617
3 1618 1619 1720
3 1720 1719 1618
3 1619 1620 1721
3 1721 1720 1619
3 1620 1621 1722
3 1722 1721 1620
3 1621 1622 1723
3 1723 1722 1621
3 1622 1623 1724
3 1724 1723 1622
3 1623 1624 1725
3 1725 1724 1623
3 1624 1625 1726
3 1726 1725 1624
3 1625 1626 1727
3 1727 1726 1625
3 1626 1627 1728
3 1728 1727 1626
3 1627 1628 1729
3 1729 1728 1627
3 1628 1629 1730
3 1730 1729 1628
3 1629 1630 1731
3 1731 1730 1629
3 1630 1631 1732
3 1732 1731 1630
3 1631 1632 1733
3 1733 1732 1631
3 1632 1633 1734
3 1734 1733 1632
3 1633 1634 1735
3 1735 1734 1633
3 1634 1635 1736
3 1736 1735 1634
3 1635 1636 1737
3 1737 1736 1635
3 1636 1637 1738
3 1738 1737 1636
3 1637 1638 1739
3 1739 1738 1637
3 1638 1639 1740
3 1740 1739 1638
3 1639 1640 1741
3 1741 1740 1639
3 1640 1641 1742
3 1742 1741 1640
3 1641 1642 1743
3 1743 1742 1641
3 1642 1643 1744
3 1744 1743 1642
3 1643 1644 1745
3 1745 1744 1643
3 1644 1645 1746
3 1746 1745 1644
3 1645 1646 1747
3 1747 1746 1645
3 1646 1647 1748
3 1748 1747 1646
3 1647 1648 1749
3 1749 1748 1647
3 1648 1649 1750
3 1750 1749 1648
3 1649 1650 1751
3 1751 1750 1649
3 1650 1651 1752
3 1752 1751 1650
3 1651 1652 1753
3 1753 1752 1651
3 1652 1653 1754
3 1754 1753 1652
3 1653 1654 1755
3 1755 1754 1653
3 1654 1655 1756
3 1756 1755 1654
3 1655 1656 1757
3 1757 1756 1655
3 1656 1657 1758
3 1758 1757 1656
3 1657 1658 1759
3 1759 1758 1657
3 1658 1659 1760
3 1760 1759 1658
3 1659 1660 1761
3 1761 1760 1659
3 1660 1661 1762
3 1762 1761 1660
3 1661 1662 1763
3 1763 1762 1661
3 1662 1663 1764
3 1764 1763 1662
3 1663 1664 1765
3 1765 1764 1663
3 1664 1665 1766
3 1766 1765 1664
3 1665 1666 1767
3 1767 1766 1665
3 1666 1667 1768
3 1768 1767 1666
3 1667 1668 1769
3 1769 1768 1667
3 1668 1669 1770
3 1770 1769 1668
3 1669 1670 1771
3 1771 1770 1669
3 1670 1671 1772
3 1772 1771 1670
3 1671 1672 1773
3 1773 1772 1671
3 1672 1673 1774
3 1774 1773 1672
3 1673 1674 1775
3 1775 1774 1673
3 1674 1675 1776
3 1776 1775 1674
3 1675 1676 1777
3 1777 1776 1675
3 1676 1677 1778
3 1778 1777 1676
3 1677 1678 1779
3 1779 1778 1677
3 1678 1679 1780
3 1780 1779 1678
3 1679 1680 1781
3 1781 1780 1679
3 1680 1681 1782
3 1782 1781 1680
3 1681 1682 1783
3 1783 1782 1681
3 1682 1683 1784
3 1784 1783 1682
3 1683 1684 1785
3 1785 1784 1683
3 1684 1685 1786
3 1786 1785 1684
3 1685 1686 1787
3 1787 1786 1685
3 1686 1687 1788
3 1788 1787 1686
3 1687 1688 1789
3 1789 1788 1687
3 1688 1689 1790
3 1790 1789 1688
3 1689 1690 1791
3 1791 1790 1689
3 1690 1691 1792
3 1792 1791 1690
3 1691 1692 1793
3 1793 1792 1691
3 1692 1693 1794
3 1794 1793 1692
3 1693 1694 1795
3 1795 1794 1693
3 1694 1695 1796
3 1796 1795 1694
3 1695 1696 1797
3 1797 1796 1695
3 1696 1697 1798
3 1798 1797 1696
3 1697 1698 1799
3 1799 1798 1697
3 1698 1699 1800
3 1800 1799 1698
3 1699 1700 1801
3 1801 1800 1699
3 1700 1701 1802
3 1802 1801 1700
3 1701 1702 1803
3 1803 1802 1701
3 1702 1703 1804
3 1804 1803 1702
3 1703 1704 1805
3 1805 1804 1703
3 1704 1705 1806
3 1806 1805 1704
3 1705 1706 1807
3 1807 1806 1705
3 1706 1707 1808
3 1808 1807 1706
3 1707 1708 1809
3 1809 1808 1707
3 1708 1709 1810
3 1810 1809 1708
3 1709 1710 1811
3 1811 1810 1709
3 1710 1711 1812
3 1812 1811 1710
3 1711 1712 1813
3 1813 1812 1711
3 1712 1713 1814
3 1814 1813 1712
3 1713 1714 1815
3 1815 1814 1713
3 1714 1715 1816
3 1816 1815 1714
3 1715 1716 1817
3 1817 1816 1715
3 1717 1718 1819
3 1819 1818 1717
3 1718 1719 1820
3 1820 1819 1718
3 1719 1720 1821
3 1821 1820 1719
3 1720 1721 1822
3 1822 1821 1720
3 1721 1722 1823
3 1823 1822 1721
3 1722 1723 1824
3 1824 1823 1722
3 1723 1724 1825
3 1825 1824 1723
3 1724 1725 1826
3 1826 1825 1724
3 1725 1726 1827
3 1827 1826 1725
3 1726 1727 1828
3 1828 1827 1726
3 1727 1728 1829
3 1829 1828 1727
3 1728 1729 1830
3 1830 1829 1728
3 1729 1730 1831
3 1831 1830 1729
3 1730 1731 1832
3 1832 1831 1730
3 1731 1732 1833
3 1833 1832 1731
3 1732 1733 1834
3 1834 1833 1732
3 1733 1734 1835
3 1835 1834 1733
3 1734 1735 1836
3 1836 1835 1734
3 1735 1736 1837
3 1837 1836 1735
3 1736 1737 1838
3 1838 1837 1736
3 1737 1738 1839
3 1839 1838 1737
3 1738 1739 1840
3 1840 1839 1738
3 1739 1740 1841
3 1841 1840 1739
3 1740 1741 1842
3 1842 1841 1740
3 1741 1742 1843
3 1843 1842 1741
3 1742 1743 1844
3 1844 1843 1742
3 1743 1744 1845
3 1845 1844 1743
3 1744 1745 1846
3 1846 1845 1744
3 1745 1746 1847
3 1847 1846 1745
3 1746 1747 1848
3 1848 1847 1746
3 1747 1748 1849
3 1849 1848 1747
3 1748 1749 1850
3 1850 1849 1748
3 1749 1750 1851
3 1851 1850 1749
3 1750 1751 1852
3 1852 1851 1750
3 1751 1752 1853
3 1853 1852 1751
3 1752 1753 1854
3 1854 1853 1752
3 1753 1754 1855
3 1855 1854 1753
3 1754 1755 1856
3 1856 1855 1754
3 1755 1756 1857
3 1857 1856 1755
3 1756 1757 1858
3 1858 1857 1756
3 1757 1758 1859
3 1859 1858 1757
3 1758 1759 1860
3 1860 1859 1758
3 1759 1760 1861
3 1861 1860 1759
3 1760 1761 1862
3 1862 1861 1760
3 1761 1762 1863
3 1863 1862 1761
3 1762 1763 1864
3 1864 1863 1762
3 1763 1764 1865
3 1865 1864 1763
3 1764 1765 1866
3 1866 1865 1764
3 1765 1766 1867
3 1867 1866 1765
3 1766 1767 1868
3 1868 1867 1766
3 1767 1768 1869
3 1869 1868 1767
3 1768 1769 1870
3 1870 1869 1768
3 1769 1770 1871
3 1871 1870 1769
3 1770 1771 1872
3 1872 1871 1770
3 1771 1772 1873
3 1873 1872 1771
3 1772 1773 1874
3 1874 1873 1772
3 1773 1774 1875
3 1875 1874 1773
3 1774 1775 1876
3 1876 1875 1774
3 1775 1776 1877
3 1877 1876 1775
3 1776 1777 1878
3 1878 1877 1776
3 1777 1778 1879
3 1879 1878 1777
3 1778 1779 1880
3 1880 1879 1778
3 1779 1780 1881
3 1881 1880 1779
3 1780 1781 1882
3 1882 1881 1780
3 1781 1782 1883
3 1883 1882 1781
3 1782 1783 1884
3 1884 1883 1782
3 1783 1784 1885
3 1885 1884 1783
3 1784 1785 1886
3 1886 1885 1784
3 1785 1786 1887
3 1887 1886 1785
3 1786 1787 1888
3 1888 1887 1786
3 1787 1788 1889
3 1889 1888 1787
3 1788 1789 1890
3 1890 1889 1788
3 1789 1790 1891
3 1891 1890 1789
3 1790 1791 1892
3 1892 1891 1790
3 1791 1792 1893
3 1893 1892 1791
3 1792 1793 1894
3 1894 1893 1792
3 1793 1794 1895
3 1895 1894 1793
3 1794 1795 1896
3 1896 1895 1794
3 1795 1796 1897
3 1897 1896 1795
3 1796 1797 1898
3 1898 1897 1796
3 1797 1798 1899
3 1899 1898 1797
3 1798 1799 1900
3 1900 1899 1798
3 1799 1800 1901
3 1901 1900 1799
3 1800 1801 1902
3 1902 1901 1800
3 1801 1802 1903
3 1903 1902 1801
3 1802 1803 1904
3 1904 1903 1802
3 1803 1804 1905
3 1905 1904 1803
3 1804 1805 1906
3 1906 1905 1804
3 1805 1806 1907
3 1907 1906 1805
3 1806 1807 1908
3 1908 1907 1806
3 1807 1808 1909
3 1909 1908 1807
3 1808 1809 1910
3 1910 1909 1808
3 1809 1810 1911
3 1911 1910 1809
3 1810 1811 1912
3 1912 1911 1810
3 1811 1812 1913
3 1913 1912 1811
3 1812 1813 1914
3 1914 1913 1812
3 1813 1814 1915
3 1915 1914 1813
3 1814 1815 1916
3 1916 1915 1814
3 1815 1816 1917
3 1917 1916 1815
3 1816 1817 1918
3 1918 1917 1816
3 1818 1819 1920
3 1920 1919 1818
3 1819 1820 1921
3 1921 1920 1819
3 1820 1821 1922
3 1922 1921 1820
3 1821 1822 1923
3 1923 1922 1821
3 1822 1823 1924
3 1924 1923 1822
3 1823 1824 1925
3 1925 1924 1823
3 1824 1825 1926
3 1926 1925 1824
3 1825 1826 1927
3 1927 1926 1825
3 1826 1827 1928
3 1928 1927 1826
3 1827 1828 1929
3 1929 1928 1827
3 1828 1829 1930
3 1930 1929 1828
3 1829 1830 1931
3 1931 1930 1829
3 1830 1831 1932
3 1932 1931 1830
3 1831 1832 1933
3 1933 1932 1831
3 1832 1833 1934
3 1934 1933 1832
3 1833 1834 1935
3 1935 1934 1833
3 1834 1835 1936
3 1936 1935 1834
3 1835 1836 1937
3 1937 1936 1835
3 1836 1837 1938
3 1938 1937 1836
3 1837 1838 1939
3 1939 1938 1837
3 1838 1839 1940
3 1940 1939 1838
3 1839 1840 1941
3 1941 1940 1839
3 1840 1841 1942
3 1942 1941 1840
3 1841 1842 1943
3 1943 1942 1841
3 1842 1843 1944
3 1944 1943 1842
3 1843 1844 1945
3 1945 1944 1843
3 1844 1845 1946
3 1946 1945 1844
3 1845 1846 1947
3 1947 1946 1845
3 1846 1847 1948
3 1948 1947 1846
3 1847 1848 1949
3 1949 1948 1847
3 1848 1849 1950
3 1950 1949 1848
3 1849 1850 1951
3 1951 1950 1849
3 1850 1851 1952
3 1952 1951 1850
3 1851 1852 1953
3 1953 1952 1851
3 1852 1853 1954
3 1954 1953 1852
3 1853 1854 1955
3 1955 1954 1853
3 1854 1855 1956
3 1956 1955 1854
3 1855 1856 1957
3 1957 1956 1855
3 1856 1857 1958
3 1958 1957 1856
3 1857 1858 1959
3 1959 1958 1857
3 1858 1859 1960
3 1960 1959 1858
3 1859 1860 1961
3 1961 1960 1859
3 1860 1861 1962
3 1962 1961 1860
3 1861 1862 1963
3 1963 1962 1861
3 1862 1863 1964
3 1964 1963 1862
3 1863 1864 1965
3 1965 1964 1863
3 1864 1865 1966
3 1966 1965 1864
3 1865 1866 1967
3 1967 1966 1865
3 1866 1867 1968
3 1968 1967 1866
3 1867 1868 1969
3 1969 1968 1867
3 1868 1869 1970
3 1970 1969 1868
3 1869 1870 1971
3 1971 1970 1869
3 1870 1871 1972
3 1972 1971 1870
3 1871 1872 1973
3 1973 1972 1871
3 1872 1873 1974
3 1974 1973 1872
3 1873 1874 1975
3 1975 1974 1873
3 1874 1875 1976
3 1976 1975 1874
3 1875 1876 1977
3 1977 1976 1875
3 1876 1877 1978
3 1978 1977 1876
3 1877 1878 1979
3 1979 1978 1877
3 1878 1879 1980
3 1980 1979 1878
3 1879 1880 1981
3 1981 1980 1879
3 1880 1881 1982
3 1982 1981 1880
3 1881 1882 1983
3 1983 1982 1881
3 1882 1883 1984
3 1984 1983 1882
3 1883 1884 1985
3 1985 1984 1883
3 1884 1885 1986
3 1986 1985 1884
3 1885 1886 1987
3 1987 1986 1885
3 1886 1887 1988
3 1988 1987 1886
3 1887 1888 1989
3 1989 1988 1887
3 1888 1889 1990
3 1990 1989 1888
3 1889 1890 1991
3 1991 1990 1889
3 1890 1891 1992
3 1992 1991 1890
3 1891 1892 1993
3 1993 1992 1891
3 1892 1893 1994
3 1994 1993 1892
3 1893 1894 1995
3 1995 1994 1893
3 1894 1895 1996
3 1996 1995 1894
3 1895 1896 1997
3 1997 1996 1895
3 1896 1897 1998
3 1998 1997 1896
3 1897 1898 1999
3 1999 1998 1897
3 1898 1899 2000
3 2000 1999 1898
3 1899 1900 2001
3 2001 2000 1899
3 1900 1901 2002
3 2002 2001 1900
3 1901 1902 2003
3 2003 2002 1901
3 1902 1903 2004
3 2004 2003 1902
3 1903 1904 2005
3 2005 2004 1903
3 1904 1905 2006
3 2006 2005 1904
3 1905 1906 2007
3 2007 2006 1905
3 1906 1907 2008
3 2008 2007 1906
3 1907 1908 2009
3 2009 2008 1907
3 1908 1909 2010
3 2010 2009 1908
3 1909 1910 2011
3 2011 2010 1909
3 1910 1911 2012
3 2012 2011 1910
3 1911 1912 2013
3 2013 2012 1911
3 1912 1913 2014
3 2014 2013 1912
3 1913 1914 2015
3 2015 2014 1913
3 1914 1915 2016
3 2016 2015 1914
3 1915 1916 2017
3 2017 2016 1915
3 1916 1917 2018
3 2018 2017 1916
3 1917 1918 2019
3 2019 2018 1917
3 1919 1920 2021
3 2021 2020 1919
3 1920 1921 2022
3 2022 2021 1920
3 1921 1922 2023
3 2023 2022 1921
3 1922 1923 2024
3 2024 2023 1922
3 1923 1924 2025
3 2025 2024 1923
3 1924 1925 2026
3 2026 2025 1924
3 1925 1926 2027
3 2027 2026 1925
3 1926 1927 2028
3 2028 2027 1926
3 1927 1928 2029
3 2029 2028 1927
3 1928 1929 2030
3 2030 2029 1928
3 1929 1930 2031
3 2031 2030 1929
3 1930 1931 2032
3 2032 2031 1930
3 1931 1932 2033
3 2033 2032 1931
3 1932 1933 2034
3 2034 2033 1932
3 1933 1934 2035
3 2035 2034 1933
3 1934 1935 2036
3 2036 2035 1934
3 1935 1936 2037
3 2037 2036 1935
3 1936 1937 2038
3 2038 2037 1936
3 1937 1938 2039
3 2039 2038 1937
3 1938 1939 2040
3 2040 2039 1938
3 1939 1940 2041
3 2041 2040 1939
3 1940 1941 2042
3 2042 2041 1940
3 1941 1942 2043
3 2043 2042 1941
3 1942 1943 2044
3 2044 2043 1942
3 1943 1944 2045
3 2045 2044 1943
3 1944 1945 2046
3 2046 2045 1944
3 1945 1946 2047
3 2047 2046 1945
3 1946 1947 2048
3 2048 2047 1946
3 1947 1948 2049
3 2049 2048 1947
3 1948 1949 2050
3 2050 2049 1948
3 1949 1950 2051
3 2051 2050 1949
3 1950 1951 2052
3 2052 2051 1950
3 1951 1952 2053
3 2053 2052 1951
3 1952 1953 2054
3 2054 2053 1952
3 1953 1954 2055
3 2055 2054 1953
3 1954 1955 2056
3 2056 2055 1954
3 1955 1956 2057
3 2057 2056 1955
3 1956 1957 2058
3 2058 2057 1956
3 1957 1958 2059
3 2059 2058 1957
3 1958 1959 2060
3 2060 2059 1958
3 1959 1960 2061
3 2061 2060 1959
3 1960 1961 2062
3 2062 2061 1960
3 1961 1962 2063
3 2063 2062 1961
3 1962 1963 2064
3 2064 2063 1962
3 1963 1964 2065
3 2065 2064 1963
3 1964 1965 2066
3 2066 2065 1964
3 1965 1966 2067
3 2067 2066 1965
3 1966 1967 2068
3 2068 2067 1966
3 1967 1968 2069
3 2069 2068 1967
3 1968 1969 2070
3 2070 2069 1968
3 1969 1970 2071
3 2071 2070 1969
3 1970 1971 2072
3 2072 2071 1970
3 1971 1972 2073
3 2073 2072 1971
3 1972 1973 2074
3 2074 2073 1972
3 1973 1974 2075
3 2075 2074 1973
3 1974 1975 2076
3 2076 2075 1974
3 1975 1976 2077
3 2077 2076 1975
3 1976 1977 2078
3 2078 2077 1976
3 1977 1978 2079
3 2079 2078 1977
3 1978 1979 2080
3 2080 2079 1978
3 1979 1980 2081
3 2081 2080 1979
3 1980 1981 2082
3 2082 2081 1980
3 1981 1982 2083
3 2083 2082 1981
3 1982 1983 2084
3 2084 2083 1982
3 1983 1984 2085
3 2085 2084 1983
3 1984 1985 2086
3 2086 2085 1984
3 1985 1986 2087
3 2087 2086 1985
3 1986 1987 2088
3 2088 2087 1986
3 1987 1988 2089
3 2089 2088 1987
3 1988 1989 2090
3 2090 2089 1988
3 1989 1990 2091
3 2091 2090 1989
3 1990 1991 2092
3 2092 2091 1990
3 1991 1992 2093
3 2093 2092 1991
3 1992 1993 2094
3 2094 2093 1992
3 1993 1994 2095
3 2095 2094 1993
3 1994 1995 2096
3 2096 2095 1994
3 1995 1996 2097
3 2097 2096 1995
3 1996 1997 2098
3 2098 2097 1996
3 1997 1998 2099
3 2099 2098 1997
3 1998 1999 2100
3 2100 2099 1998
3 1999 2000 2101
3 2101 2100 1999
3 2000 2001 2102
3 2102 2101 2000
3 2001 2002 2103
3 2103 2102 2001
3 2002 2003 2104
3 2104 2103 2002
3 2003 2004 2105
3 2105 2104 2003
3 2004 2005 2106
3 2106 2105 2004
3 2005 2006 2107
3 2107 2106 2005
3 2006 2007 2108
3 2108 2107 2006
3 2007 2008 2109
3 2109 2108 2007
3 2008 2009 2110
3 2110 2109 2008
3 2009 2010 2111
3 2111 2110 2009
3 2010 2011 2112
3 2112 2111 2010
3 2011 2012 2113
3 2113 2112 2011
3 2012 2013 2114
3 2114 2113 2012
3 2013 2014 2115
3 2115 2114 2013
3 2014 2015 2116
3 2116 2115 2014
3 2015 2016 2117
3 2117 2116 2015
3 2016 2017 2118
3 2118 2117 2016
3 2017 2018 2119
3 2119 2118 2017
3 2018 2019 2120
3 2120 2119 2018
CELL_TYPES 4000
5
5
5
5
5
5
5
5
5
5
5
5
5
5
5
5
5
5
5
5
5
5
5
5
5
5
5
5
5
5
5
5
5
5
5
5
5
5
5
5
5
5
5
5
5
5
5
5
5
5
5
5
5
5
5
5
5
5
5
5
5
5
5
5
5
5
5
5
5
5
5
5
5
5
5
5
5
5
5
5
5
5
5
5
5
5
5
5
5
5
5
5
5
5
5
5
5
5
5
5
5
5
5
5
5
5
5
5
5
5
5
5
5
5
5
5
5
5
5
5
5
5
5
5
5
5
5
5
5
5
5
5
5
5
5
5
5
5
5
5
5
5
5
5
5
5
5
5
5
5
5
5
5
5
5
5
5
5
5
5
5
5
5
5
5
5
5
5
5
5
5
5
5
5
5
5
5
5
5
5
5
5
5
5
5
5
5
5
5
5
5
5
5
5
5
5
5
5
5
5
5
5
5
5
5
5
5
5
5
5
5
5
5
5
5
5
5
5
5
5
5
5
5
5
5
5
5
5
5
5
5
5
5
5
5
5
5
5
5
5
5
5
5
5
5
5
5
5
5
5
5
5
5
5
5
5
5
5
5
5
5
5
5
5
5
5
5
5
5
5
5
5
5
5
5
5
5
5
5
5
5
5
5
5
5
5
5
5
5
5
5
5
5
5
5
5
5
5
5
5
5
5
5
5
5
5
5
5
5
5
5
5
5
5
5
5
5
5
5
5
5
5
5
5
5
5
5
5
5
5
5
5
5
5
5
5
5
5
5
5
5
5
5
5
5
5
5
5
5
5
5
5
5
5
5
5
5
5
5
5
5
5
5
5
5
5
5
5
5
5
5
5
5
5
5
5
5
5
5
5
5
5
5
5
5
5
5
5
5
5
5
5
5
5
5
5
5
5
5
5
5
5
5
5
5
5
5
5
5
5
5
5
5
5
5
5
5
5
5
5
5
5
5
5
5
5
5
5
5
5
5
5
5
5
5
5
5
5
5
5
5
5
5
5
5
5
5
5
5
5
5
5
5
5
5
5
5
5
5
5
5
5
5
5
5
5
5
5
5
5
5
5
5
5
5
5
5
5
5
5
5
5
5
5
5
5
5
5
5
5
5
5
5
5
5
5
5
5
5
5
5
5
5
5
5
5
5
5
5
5
5
5
5
5
5
5
5
5
5
5
5
5
5
5
5
5
5
5
5
5
5
5
5
5
5
5
5
5
5
5
5
5
5
5
5
5
5
5
5
5
5
5
5
5
5
5
5
5
5
5
5
5
5
5
5
5
5
5
5
5
5
5
5
5
5
5
5
5
5
5
5
5
5
5
5
5
5
5
5
5
5
5
5
5
5
5
5
5
5
5
5
5
5
5
5
5
5
5
5
5
5
5
5
5
5
5
5
5
5
5
5
5
5
5
5
5
5
5
5
5
5
5
5
5
5
5
5
5
5
5
5
5
5
5
5
5
5
5
5
5
5
5
5
5
5
5
5
5
5
5
5
5
5
5
5
5
5
5
5
5
5
5
5
5
5
5
5
5
5
5
5
5
5
5
5
5
5
5
5
5
5
5
5
5
5
5
5
5
5
5
5
5
5
5
5
5
5
5
5
5
5
5
5
5
5
5
5
5
5
5
5
5
5
5
5
5
5
5
5
5
5
5
5
5
5
5
5
5
5
5
5
5
5
5
5
5
5
5
5
5
5
5
5
5
5
5
5
5
5
5
5
5
5
5
5
5
5
5
5
5
5
5
5
5
5
5
5
5
5
5
5
5
5
5
5
5
5
5
5
5
5
5
5
5
5
5
5
5
5
5
5
5
5
5
5
5
5
5
5
5
5
5
5
5
5
5
5
5
5
5
5
5
5
5
5
5
5
5
5
5
5
5
5
5
5
5
5
5
5
5
5
5
5
5
5
5
5
5
5
5
5
5
5
5
5
5
5
5
5
5
5
5
5
5
5
5
5
5
5
5
5
5
5
5
5
5
5
5
5
5
5
5
5
5
5
5
5
5
5
5
5
5
5
5
5
5
5
5
5
5
5
5
5
5
5
5
5
5
5
5
5
5
5
5
5
5
5
5
5
5
5
5
5
5
5
5
5
5
5
5
5
5
5
5
5
5
5
5
5
5
5
5
5
5
5
5
5
5
5
5
5
5
5
5
5
5
5
5
5
5
5
5
5
5
5
5
5
5
5
5
5
5
5
5
5
5
5
5
5
5
5
5
5
5
5
5
5
5
5
5
5
5
5
5
5
5
5
5
5
5
5
5
5
5
5
5
5
5
5
5
5
5
5
5
5
5
5
5
5
5
5
5
5
5
5
5
5
5
5
5
5
5
5
5
5
5
5
5
5
5
5
5
5
5
5
5
5
5
5
5
5
5
5
5
5
5
5
5
5
5
5
5
5
5
5
5
5
5
5
5
5
5
5
5
5
5
5
5
5
5
5
5
5
5
5
5
5
5
5
5
5
5
5
5
5
5
5
5
5
5
5
5
5
5
5
5
5
5
5
5
5
5
5
5
5
5
5
5
5
5
5
5
5
5
5
5
5
5
5
5
5
5
5
5
5
5
5
5
5
5
5
5
5
5
5
5
5
5
5
5
5
5
5
5
5
5
5
5
5
5
5
5
5
5
5
5
5
5
5
5
5
5
5
5
5
5
5
5
5
5
5
5
5
5
5
5
5
5
5
5
5
5
5
5
5
5
5
5
5
5
5
5
5
5
5
5
5
5
5
5
5
5
5
5
5
5
5
5
5
5
5
5
5
5
5
5
5
5
5
5
5
5
5
5
5
5
5
5
5
5
5
5
5
5
5
5
5
5
5
5
5
5
5
5
5
5
5
5
5
5
5
5
5
5
5
5
5
5
5
5
5
5
5
5
5
5
5
5
5
5
5
5
5
5
5
5
5
5
5
5
5
5
5
5
5
5
5
5
5
5
5
5
5
5
5
5
5
5
5
5
5
5
5
5
5
5
5
5
5
5
5
5
5
5
5
5
5
5
5
5
5
5
5
5
5
5
5
5
5
5
5
5
5
5
5
5
5
5
5
5
5
5
5
5
5
5
5
5
5
5
5
5
5
5
5
5
5
5
5
5
5
5
5
5
5
5
5
5
5
5
5
5
5
5
5
5
5
5
5
5
5
5
5
5
5
5
5
5
5
5
5
5
5
5
5
5
5
5
5
5
5
5
5
5
5
5
5
5
5
5
5
5
5
5
5
5
5
5
5
5
5
5
5
5
5
5
5
5
5
5
5
5
5
5
5
5
5
5
5
5
5
5
5
5
5
5
5
5
5
5
5
5
5
5
5
5
5
5
5
5
5
5
5
5
5
5
5
5
5
5
5
5
5
5
5
5
5
5
5
5
5
5
5
5
5
5
5
5
5
5
5
5
5
5
5
5
5
5
5
5
5
5
5
5
5
5
5
5
5
5
5
5
5
5
5
5
5
5
5
5
5
5
5
5
5
5
5
5
5
5
5
5
5
5
5
5
5
5
5
5
5
5
5
5
5
5
5
5
5
5
5
5
5
5
5
5
5
5
5
5
5
5
5
5
5
5
5
5
5
5
5
5
5
5
5
5
5
5
5
5
5
5
5
5
5
5
5
5
5
5
5
5
5
5
5
5
5
5
5
5
5
5
5
5
5
5
5
5
5
5
5
5
5
5
5
5
5
5
5
5
5
5
5
5
5
5
5
5
5
5
5
5
5
5
5
5
5
5
5
5
5
5
5
5
5
5
5
5
5
5
5
5
5
5
5
5
5
5
5
5
5
5
5
5
5
5
5
5
5
5
5
5
5
5
5
5
5
5
5
5
5
5
5
5
5
5
5
5
5
5
5
5
5
5
5
5
5
5
5
5
5
5
5
5
5
5
5
5
5
5
5
5
5
5
5
5
5
5
5
5
5
5
5
5
5
5
5
5
5
5
5
5
5
5
5
5
5
5
5
5
5
5
5
5
5
5
5
5
5
5
5
5
5
5
5
5
5
5
5
5
5
5
5
5
5
5
5
5
5
5
5
5
5
5
5
5
5
5
5
5
5
5
5
5
5
5
5
5
5
5
5
5
5
5
5
5
5
5
5
5
5
5
5
5
5
5
5
5
5
5
5
5
5
5
5
5
5
5
5
5
5
5
5
5
5
5
5
5
5
5
5
5
5
5
5
5
5
5
5
5
5
5
5
5
5
5
5
5
5
5
5
5
5
5
5
5
5
5
5
5
5
5
5
5
5
5
5
5
5
5
5
5
5
5
5
5
5
5
5
5
5
5
5
5
5
5
5
5
5
5
5
5
5
5
5
5
5
5
5
5
5
5
5
5
5
5
5
5
5
5
5
5
5
5
5
5
5
5
5
5
5
5
5
5
5
5
5
5
5
5
5
5
5
5
5
5
5
5
5
5
5
5
5
5
5
5
5
5
5
5
5
5
5
5
5
5
5
5
5
5
5
5
5
5
5
5
5
5
5
5
5
5
5
5
5
5
5
5
5
5
5
5
5
5
5
5
5
5
5
5
5
5
5
5
5
5
5
5
5
5
5
5
5
5
5
5
5
5
5
5
5
5
5
5
5
5
5
5
5
5
5
5
5
5
5
5
5
5
5
5
5
5
5
5
5
5
5
5
5
5
5
5
5
5
5
5
5
5
5
5
5
5
5
5
5
5
5
5
5
5
5
5
5
5
5
5
5
5
5
5
5
5
5
5
5
5
5
5
5
5
5
5
5
5
5
5
5
5
5
5
5
5
5
5
5
5
5
5
5
5
5
5
5
5
5
5
5
5
5
5
5
5
5
5
5
5
5
5
5
5
5
5
5
5
5
5
5
5
5
5
5
5
5
5
5
5
5
5
5
5
5
5
5
5
5
5
5
5
5
5
5
5
5
5
5
5
5
5
5
5
5
5
5
5
5
5
5
5
5
5
5
5
5
5
5
5
5
5
5
5
5
5
5
5
5
5
5
5
5
5
5
5
5
5
5
5
5
5
5
5
5
5
5
5
5
5
5
5
5
5
5
5
5
5
5
5
5
5
5
5
5
5
5
5
5
5
5
5
5
5
5
5
5
5
5
5
5
5
5
5
5
5
5
5
5
5
5
5
5
5
5
5
5
5
5
5
5
5
5
5
5
5
5
5
5
5
5
5
5
5
5
5
5
5
5
5
5
5
5
5
5
5
5
5
5
5
5
5
5
5
5
5
5
5
5
5
5
5
5
5
5
5
5
5
5
5
5
5
5
5
5
5
5
5
5
5
5
5
5
5
5
5
5
5
5
5
5
5
5
5
5
5
5
5
5
5
5
5
5
5
5
5
5
5
5
5
5
5
5
5
5
5
5
5
5
5
5
5
5
5
5
5
5
5
5
5
5
5
5
5
5
5
5
5
5
5
5
5
5
5
5
5
5
5
5
5
5
5
5
5
5
5
5
5
5
5
5
5
5
5
5
5
5
5
5
5
5
5
5
5
5
5
5
5
5
5
5
5
5
5
5
5
5
5
5
5
5
5
5
5
5
5
5
5
5
5
5
5
5
5
5
5
5
5
5
5
5
5
5
5
5
5
5
5
5
5
5
5
5
5
5
5
5
5
5
5
5
5
5
5
5
5
5
5
5
5
5
5
5
5
5
5
5
5
5
5
5
5
5
5
5
5
5
5
5
5
5
5
5
5
5
5
5
5
5
5
5
5
5
5
5
5
5
5
5
5
5
5
5
5
5
5
5
5
5
5
5
5
5
5
5
5
5
5
5
5
5
5
5
5
5
5
5
5
5
5
5
5
5
5
5
5
5
5
5
5
5
5
5
5
5
5
5
5
5
5
5
5
5
5
5
5
5
5
5
5
5
5
5
5
5
5
5
5
5
5
5
5
5
5
5
5
5
5
5
5
5
5
5
5
5
5
5
5
5
5
5
5
5
5
5
5
5
5
5
5
5
5
5
5
5
5
5
5
5
5
5
5
5
5
5
5
5
5
5
5
5
5
5
5
5
5
5
5
5
5
5
5
5
5
5
5
5
5
5
5
5
5
5
5
5
5
5
5
5
5
5
5
5
5
5
5
5
5
5
5
5
5
5
5
5
5
5
5
5
5
5
5
5
5
5
5
5
5
5
5
5
5
5
5
5
5
5
5
5
5
5
5
5
5
5
5
5
5
5
5
5
5
5
5
5
5
5
5
5
5
5
5
5
5
5
5
5
5
5
5
5
5
5
5
5
5
5
5
5
5
5
5
5
5
5
5
5
5
5
5
5
5
5
5
5
5
5
5
5
5
5
5
5
5
5
5
5
5
5
5
5
5
5
5
5
5
5
5
5
5
5
5
5
5
5
5
5
5
5
5
5
5
5
5
5
5
5
5
5
5
5
5
5
5
5
5
5
5
5
5
5
5
5
5
5
5
5
5
5
5
5
5
5
5
5
5
5
5
5
5
5
5
5
5
5
5
5
5
5
5
5
5
5
5
5
5
5
5
5
5
5
5
5
5
5
5
5
5
5
5
5
5
5
5
5
5
5
5
5
5
5
5
5
5
5
5
5
5
5
5
5
5
5
5
5
5
5
5
5
5
5
5
5
5
5
5
5
5
5
5
5
5
5
5
5
5
5
5
5
5
5
5
5
5
5
5
5
5
5
5
5
5
5
5
5
5
5
5
5
5
5
5
5
5
5
5
5
5
5
5
5
5
5
5
5
5
5
5
5
5
5
5
5
5
5
5
5
5
5
5
5
5
5
5
5
5
5
5
5
5
5
5
5
5
5
5
5
5
5
5
5
5
5
5
5
5
5
5
5
5
5
5
5
5
5
5
5
5
5
5
5
5
5
5
5
5
5
5
5
5
5
5
5
5
5
5
5
5
5
5
5
5
5
5
5
5
5
5
5
5
5
5
5
5
5
5
5
5
5
5
5
5
5
5
5
5
5
5
5
5
5
5
5
5
5
5
5
5
5
5
5
5
5
5
5
5
5
5
5
5
5
5
5
5
5
5
5
5
5
5
5
5
5
5
5
5
5
5
5
5
5
5
5
5
5
5
5
5
5
5
5
5
5
5
5
5
5
5
5
5
5
5
5
5
5
5
5
5
5
5
5
5
5
5
5
5
5
5
5
5
5
5
5
5
5
5
5
5
5
5
5
5
5
5
5
5
5
5
5
5
5
5
5
5
5
5
5
5
5
5
5
5
5
5
5
5
5
5
5
5
5
5
5
5
5
5
5
5
5
5
5
5
5
5
5
5
5
5
5
5
5
5
5
5
5
5
5
5
5
5
5
5
5
5
5
5
5
5
5
5
5
5
5
5
5
5
5
5
5
5
5
5
5
5
5
5
5
5
5
5
5
5
5
5
5
5
5
5
5
5
5
5
5
5
5
5
5
5
5
5
5
5
5
5
5
5
5
5
5
5
5
5
5
5
5
5
5
5
5
5
5
5
5
5
5
5
5
5
5
5
5
5
5
5
5
5
5
5
5
5
5
5
5
5
5
5
5
5
5
5
5
5
5
5
5
5
5
5
5
5
5
5
5
5
5
5
5
5
5
5
5
5
5
5
5
5
5
5
5
5
5
5
5
5
5
5
5
5
5
5
5
5
5
5
5
5
5
5
5
5
5
5
5
5
5
5
5
5
5
5
5
5
5
5
5
5
5
5
5
5
5
5
5
5
5
5
5
5
5
5
5
5
5
5
5
5
5
5
5
5
5
5
5
5
5
5
5
5
5
5
5
5
5
5
5
5
5
5
5
5
5
5
5
5
5
5
5
5
5
5
5
5
5
5
5
5
5
5
5
5
5
5
5
5
5
5
5
5
5
5
5
5
5
5
5
5
5
5
5
5
5
5
5
5
5
5
5
5
5
5
5
5
5
5
5
5
5
5
5
5
5
5
5
5
5
5
5
5
5
5
5
5
5
5
5
5
5
5
5
5
5
5
5
5
5
5
5
5
5
5
5
5
5
5
5
5
5
5
5
5
5
5
5
5
5
5
5
5
5
5
5
5
5
5
5
5
5
5
5
5
5
5
5
5
5
5
5
5
5
5
5
5
5
5
5
5
5
5
5
5
5
5
5
5
5
5
5
5
5
5
5
5
5
5
5
5
5
5
5
5
5
5
5
5
5
5
5
5
5
5
5
5
5
5
5
5
5
5
5
5
5
5
5
5
5
5
5
5
5
5
5
5
5
5
5
5
5
5
5
5
5
5
5
5
5
5
5
5
5
5
5
5
5
5
5
5
5
5
5
5
5
5
5
5
5
5
5
5
5
5
5
5
5
5
5
5
5
5
5
5
5
5
5
5
5
5
5
5
5
5
5
5
5
5
5
5
5
5
5
5
5
5
5
5
5
5
5
5
5
5
5
5
5
5
5
5
5
5
5
5
5
5
5
5
5
5
5
5
5
5
5
5
5
5
5
5
5
5
5
5
5
5
5
5
5
5
5
5
5
5
5
5
5
5
5
5
5
5
5
5
5
5
5
5
5
5
5
5
5
5
5
5
5
5
5
5
5
5
5
5
5
5
5
5
5
5
5
5
5
5
5
5
5
5
5
5
5
5
5
5
5
5
5
5
5
5
5
5
5
5
5
5
5
5
5
5
5
5
5
5
5
5
5
5
5
5
5
5
5
5
5
5
5
5
5
5
5
5
5
5
5
5
5
5
5
5
5
5
5
5
5
5
5
5
5
5
5
5
5
5
5
5
5
5
5
5
5
5
5
5
5
5
5
5
5
5
5
5
5
5
5
5
5
5
5
5
5
5
5
5
5
5
5
5
5
5
5
5
5
5
5
5
5
5
5
5
5
5
5
5
5
5
5
5
5
5
5
5
5
5
5
5
5
5
5
5
5
5
5
5
5
5
5
5
5
5
5
5
5
5
5
5
5
5
5
5
5
5
5
5
5
5
5
5
5
5
5
5
5
5
5
5
5
5
5
5
5
5
5
5
5
5
5
5
5
5
5
5
5
5
5
5
5
5
5
5
5
5
5
5
5
5
5
5
5
5
5
5
5
5
5
5
5
5
5
5
5
5
5
5
5
5
5
5
CELL_DATA 4000 
FIELD FieldData  1
stress_iload_1 1 4000 float 
1.7802257532147276 
2.842941236136345 
0.9693710644761325 
0.5693498223628244 
0.8559641775353412 
0.5076677964498968 
0.7289674123249064 
0.4598163812996498 
0.6363421796733452 
0.435459863550133 
0.5838828866510655 
0.43516043037588575 
0.5640565163903188 
0.45074919381999373 
0.5681621708812021 
0.4765630440795825 
0.5892001943258157 
0.5094804424334414 
0.6220794414987006 
0.5476681513989837 
0.6632149481787042 
0.5898799078146691 
0.710100246987227 
0.6351726398040509 
0.7609808164679867 
0.6828018201784584 
0.8146259555995458 
0.7321780252698219 
0.8701722845707573 
0.7828408709629472 
0.9270156020450713 
0.8344372599677979 
0.9847351411896964 
0.8867013573290653 
1.0430399031799382 
0.9394364967245061 
1.101730371840308 
0.9924995274094209 
1.160671144323198 
1.0457878214910583 
1.219771401897636 
1.0992288558411822 
1.2789710423723737 
1.1527720923380782 
1.3382309018192216 
1.2063827975326058 
1.3975259191738587 
1.260037432922823 
1.4568404053269537 
1.3137202775605774 
1.5161648048545089 
1.367420993297612 
1.5754935063492586 
1.4211328958626066 
1.6348233816564084 
1.4748517447602858 
1.6941528259601122 
1.52857490822816 
1.753481137768165 
1.5823007951957906 
1.8128081264451328 
1.6360284745512985 
1.8721338698260372 
1.6897574239627944 
1.9314585691765012 
1.7434873670299937 
1.9907824660881888 
1.7972181698053453 
2.050105797895294 
1.8509497766128424 
2.1094287763867756 
1.9046821714685316 
2.168751580113145 
1.9584153558915784 
2.228074354249221 
2.0121493370099883 
2.2873972143646455 
2.065884122008674 
2.346720251986638 
2.119619716395345 
2.4060435408157836 
2.1733561245230617 
2.465367143030191 
2.227093351438009 
2.5246911154822964 
2.280831405512015 
2.584015515766346 
2.334570301582813 
2.643340408268801 
2.3883100644600352 
2.7026658703315913 
2.4420507327567247 
2.761991998681213 
2.4957923630257453 
2.821318916249653 
2.549535034201469 
2.8806467794750925 
2.6032788523072896 
2.9399757861018285 
2.6570239553556734 
2.9993061834105488 
2.710770518279347 
3.058638276668632 
2.764518757630774 
3.1179724374248288 
2.8182689356284136 
3.1773091110092926 
2.8720213629328235 
3.236648822274719 
2.925776399263969 
3.295992178151994 
2.97953445062641 
3.3553398649995714 
3.033295961454883 
3.4146926379273803 
3.087061399431371 
3.47405129823832 
3.1408312300107855 
3.5334166538144394 
3.194605876823804 
3.5927894555887327 
3.2483856630829693 
3.652170301166624 
3.3021707279166224 
3.7115594941454395 
3.3559609102029353 
3.770956844710494 
3.409755591097579 
3.830361393784309 
3.463553485157279 
3.8897710395245024 
3.5173523691072135 
3.9491820418041237 
3.5711487373411894 
4.008588378242375 
3.624937375014779 
4.0679809257986035 
3.6787108443488994 
4.127346447201318 
3.732458889452634 
4.186666375219392 
3.7861677824822846 
4.245915415667339 
3.839819663554475 
4.3050600406575485 
3.893391974627411 
4.364057029672935 
3.946857162253611 
4.422852356013799 
4.000182937740002 
4.481380936384913 
4.0533335523111695 
4.5395680986936675 
4.1062727914085615 
4.597334128186731 
4.158969745173925 
4.654603993483024 
4.211408908386202 
4.711325423680266 
4.263606848507245 
4.767500028119237 
4.315638609775837 
4.823234287418006 
4.367678256304161 
4.878820231136076 
4.4200595608227955 
4.934859804452456 
4.473364867348193 
4.992452889914929 
4.528552595417963 
5.0534777268939335 
4.587136575509604 
5.121006059859607 
4.65143293413399 
5.199917790815887 
4.7248912748603535 
5.2978196643485544 
4.812523130377154 
5.426447764118754 
4.921424155168695 
5.603884724315498 
5.061338906999749 
5.858242048615585 
5.245097529247076 
6.234161371208082 
5.488476759228139 
6.8050649785531965 
5.8084407375119005 
7.697498393094953 
6.217547567359262 
9.140213056988474 
6.710411393500184 
11.556918617527895 
7.236656936501646 
15.705619206001664 
7.66216266387978 
22.781374206406632 
7.779920521353829 
35.938758979920195 
7.908281982187462 
1.4659756409105735 
2.0588335178523143 
0.6691454551219668 
0.8176295214205516 
0.33129822079975435 
0.18807830430859612 
0.34021956433797945 
0.13743042290899254 
0.3808998726771787 
0.20107720803601878 
0.4134034671569738 
0.26164043845440355 
0.4446757196514087 
0.3181159308827663 
0.4787870826027484 
0.37121403755438687 
0.5166469753186418 
0.4215897809771565 
0.5579532945467578 
0.4700271681934675 
0.602102446688781 
0.5172509422531854 
0.64849724015649 
0.5638186126078788 
0.6966274326803165 
0.6101086923169504 
0.746079049124178 
0.6563528763911698 
0.796524652044964 
0.7026779102670128 
0.8477098280611411 
0.7491423030720474 
0.8994399602376048 
0.795763739826151 
0.9515683377476513 
0.842537663829483 
1.0039858817662324 
0.8894489765740334 
1.0566125299691493 
0.936478907040506 
1.109390204956829 
0.9836087264004091 
1.1622772169317535 
1.0308215233769717 
1.2152439083634088 
1.0781028579919465 
1.2682693341413651 
1.1254408134827538 
1.3213387776845258 
1.1728257602190746 
1.3744419236376582 
1.2202500109515266 
1.427571534176873 
1.267707462937407 
1.4807225036774725 
1.3151932725665656 
1.5338911924382925 
1.3627035798890945 
1.5870749628465768 
1.4102352854795874 
1.6402718601655308 
1.4577858749659822 
1.6934803952046924 
1.5053532838318855 
1.7466993978003111 
1.5529357947046274 
1.79992791891255 
1.6005319600255972 
1.8531651656979014 
1.6481405441473236 
1.9064104587142359 
1.6957604800401025 
1.9596632038314497 
1.743390836902829 
2.012922873842856 
1.7910307958407836 
2.0661889964540494 
1.838679631527065 
2.1194611464690185 
1.8863366982997865 
2.1727389407756923 
1.9340014195887432 
2.2260220352549402 
1.9816732798593721 
2.2793101230651556 
2.0293518185179167 
2.3326029339876144 
2.0770366253494403 
2.3859002346346694 
2.1247273372067386 
2.439201829419434 
2.17242363571732 
2.4925075622063395 
2.220125245841533 
2.54581731858243 
2.2678319351211083 
2.599131028653493 
2.3155435134696534 
2.652448670236177 
2.363259833322567 
2.705770272228113 
2.4109807899393063 
2.759095917835736 
2.458706321564212 
2.8124257471751255 
2.5064364090796216 
2.865759958557097 
2.554171074643152 
2.9190988074880226 
2.6019103786543756 
2.9724426020542754 
2.6496544141806737 
3.0257916928896385 
2.6974032977307356 
3.07914645533956 
2.7451571549500797 
3.1325072606957063 
2.7929160994690876 
3.1858744324821693 
2.840680202710281 
3.2392481827006 
2.8884494520321855 
3.2926285217198554 
2.9362236941125825 
3.346015134133534 
2.9840025600655453 
3.399407211541368 
3.031785368462397 
3.452803231979726 
3.079571002373487 
3.5062006750001693 
3.127357756900982 
3.5595956616873616 
3.1751431547874547 
3.6129825111106078 
3.222923729923277 
3.6663532101745457 
3.2706947826019803 
3.7196968046513113 
3.3184501169913516 
3.772998738404835 
3.3661817816969313 
3.8262401999708695 
3.4138798500043706 
3.8793975871363524 
3.461532299480165 
3.932442280015101 
3.509125083582423 
3.985341033780182 
3.556642533967949 
4.038057480554925 
3.6040682948044824 
4.090555488420556 
3.651387073411931 
4.142805493517381 
3.6985875981828693 
4.194795437106884 
3.745667306403207 
4.246548653350113 
3.792639438169966 
4.298152032735548 
3.8395433755815054 
4.349799126198083 
3.8864592073601645 
4.4018547033685405 
3.933527550217068 
4.454949882853072 
3.9809754811615634 
4.510120758137951 
4.029148755568717 
4.569009275876868 
4.078548770186522 
4.634154512725419 
4.129868952812352 
4.709418158514238 
4.184017489044643 
4.800614299765512 
4.2420980061243405 
4.91645569972577 
4.3052909399522905 
5.069985670393575 
4.374526352070907 
5.28069831991513 
4.449752313789536 
5.577378382157995 
4.52847671891983 
6.000677282584681 
4.603124820303916 
6.60076092210946 
4.656732322354601 
7.414750241586843 
4.656803561990297 
8.383125959064378 
4.547535548723272 
9.116251163879632 
4.2378883571822055 
8.487555547894582 
3.5843937781220827 
8.364756793388468 
2.883735750596821 
1.1302703365667202 
1.5325937318327794 
0.7170544731782136 
0.857117292956414 
0.42657612314884996 
0.4050305629644031 
0.27132179885894475 
0.181127331473493 
0.256578876180433 
0.13292863691153878 
0.2991935024908273 
0.1759122753013299 
0.351700801314489 
0.23845207609262692 
0.40351334685916235 
0.3002885588247148 
0.4533301912546923 
0.35768714385460204 
0.5014760660585307 
0.41048210312156985 
0.5484569094622945 
0.45942864784802157 
0.5947035164923975 
0.5054465175359462 
0.6405374732425756 
0.5493647137827533 
0.6861822933217256 
0.5918479494948049 
0.7317839073245702 
0.6333951605376259 
0.7774311689211513 
0.6743641990547466 
0.8231732943669677 
0.7150025944545695 
0.8690334022343349 
0.7554760329026085 
0.9150183560862472 
0.795891726462429 
0.9611255463023416 
0.8363163402634742 
1.0073473441517848 
0.8767891516469862 
1.0536738911464607 
0.917331404170111 
1.100094754914749 
0.9579527893817978 
1.1465998458216695 
0.9986558405640921 
1.1931798711775468 
1.0394388499437692 
1.239826513067813 
1.0802977645016179 
1.2865324501340198 
1.1212273883807058 
1.3332912982746299 
1.1622221227559364 
1.3800975151744932 
1.2032764025520846 
1.4269462942661417 
1.2443849383317602 
1.4738334617660551 
1.285542835813942 
1.5207553832647855 
1.326745640821039 
1.5677088822437573 
1.3679893406241255 
1.614691170668529 
1.4092703414154855 
1.6616997907420499 
1.450585434153926 
1.7087325664309863 
1.491931756180646 
1.7557875633227407 
1.5333067528511963 
1.8028630554378626 
1.5747081414866229 
1.8499574978167035 
1.616133878711396 
1.8970695038587813 
1.6575821315545802 
1.9441978266004851 
1.6990512522646215 
1.9913413432456095 
1.7405397565927532 
2.038499042429991 
1.7820463051915845 
2.085670013771481 
1.823569687767217 
2.1328534393675884 
1.8651088096113857 
2.1800485869435584 
1.9066626801851254 
2.227254804406017 
1.948230403438597 
2.2744715155652315 
1.989811169596998 
2.3216982167973206 
2.0314042481448125 
2.3689344743853877 
2.073008981769009 
2.416179922250154 
2.114624781011008 
2.4634342596871406 
2.156251119380996 
2.510697248645161 
2.1978875286528563 
2.5579687099305377 
2.2395335940447585 
2.605248517548376 
2.281188948938568 
2.6525365901589226 
2.32285326875294 
2.699832878352466 
2.3645262635316415 
2.747137346097137 
2.4062076687637637 
2.7944499443271194 
2.4478972339071916 
2.8417705741712505 
2.4895947080751095 
2.8890990368416 
2.5312998223380547 
2.936434966691765 
2.5730122681564427 
2.9837777435148043 
2.614731671543052 
3.031126379838257 
2.6564575627218416 
3.078479378984446 
2.698189341232345 
3.1258345601919943 
2.7399262366344113 
3.1731888485392945 
2.781667265053486 
3.2205380302425697 
2.8234111816023413 
3.2678764789021133 
2.8651564278425825 
3.315196866431687 
2.906901071298714 
3.362489885161088 
2.9486427295829665 
3.4097440267800545 
2.990378463301102 
3.456945491858839 
3.0321046070418785 
3.5040783436208804 
3.0738164825296406 
3.551125075218348 
3.1155078966523235 
3.598067835298896 
3.1571702610994508 
3.644890657258683 
3.198791067591679 
3.6915831691872882 
3.2403512961154965 
3.738146431909427 
3.2818210997970008 
3.7846017738193893 
3.3231527679516373 
3.8310037864641884 
3.3642694784130565 
3.8774590622223966 
3.4050476624015906 
3.924152896762017 
3.445289863538125 
3.9713872502081293 
3.4846837190950453 
4.019635150231617 
3.52274107980409 
4.069620083500526 
3.5587093097864853 
4.122434664095797 
3.5914445771649666 
4.179721606773249 
3.619234844325158 
4.243949761428803 
3.639559356101025 
4.3188163104751505 
3.6487743182511143 
4.409748487291883 
3.6417269829828687 
4.524233813299577 
3.611333623637715 
4.670958170272998 
3.5482252205338463 
4.854862133902058 
3.440657287904115 
5.061485839885075 
3.2748254291696854 
5.218500204549239 
3.0347373666864526 
5.119440506071446 
2.6966004096289207 
4.327163984914279 
2.2039969075248065 
2.710945186924213 
1.4486477050821314 
6.209193161464239 
1.580874356706057 
0.8963391622722954 
1.162972260434968 
0.6785131835244634 
0.787674641648489 
0.5162839989785816 
0.5106879040890795 
0.3913294261726546 
0.3458876963462919 
0.3217506711453394 
0.26849822540202933 
0.3106850684618753 
0.24838574115625828 
0.33634851337078236 
0.2645597262509862 
0.3774017467524057 
0.2999104905126229 
0.42283098478451636 
0.3424173987659452 
0.4683525310818721 
0.38594180854316895 
0.5126248462372639 
0.4280323360994888 
0.5554484057169489 
0.4680297313065739 
0.5970252490653507 
0.506036108897784 
0.6376608962825889 
0.5424216976419938 
0.6776484193925915 
0.577603428917168 
0.7172293870322876 
0.6119545416039797 
0.7565872297926347 
0.6457757833100827 
0.7958533785837855 
0.6792942115714744 
0.8351173409890861 
0.7126729931982156 
0.8744368634962005 
0.7460242729935018 
0.9138466854223751 
0.7794215526656344 
0.9533654934517419 
0.8129102066882291 
0.993001169850033 
0.846515818813316 
1.0327546068738505 
0.8802504946832787 
1.072622394764011 
0.9141174801255216 
1.1125986631958886 
0.9481144443321738 
1.1526763070142185 
0.9822357532830644 
1.1928477760023122 
1.0164740027127552 
1.2331055632262329 
1.0508210218019605 
1.273442489824397 
1.0852685070766874 
1.3138518557040024 
1.1198084036315532 
1.3543275044668992 
1.1544331176577831 
1.394863835459725 
1.1891356193074933 
1.4354557849342127 
1.2239094765396157 
1.4760987906202816 
1.2587488474150723 
1.516788748817298 
1.2936484489724047 
1.5575219695486788 
1.3286035143882127 
1.5982951330334698 
1.3636097457103842 
1.6391052491963478 
1.3986632665439287 
1.6799496210252027 
1.4337605771263051 
1.7208258119951845 
1.4688985130357184 
1.7617316174659448 
1.5040742079947798 
1.8026650397694701 
1.5392850608070596 
1.8436242666434464 
1.5745287061965034 
1.8846076526217235 
1.6098029892174135 
1.9256137030142957 
1.645105942841824 
1.9666410601090667 
1.6804357683382642 
2.007688491262156 
1.7157908180720194 
2.048754878538645 
1.75116958040467 
2.08983920958929 
1.7865706663970566 
2.1309405694223735 
1.8219927980838635 
2.1720581327251076 
1.8574347981163861 
2.213191156338341 
1.892895580645281 
2.25433897145176 
1.928374143364349 
2.2955009750083213 
1.963869560721125 
2.3366766197391318 
1.999380978397622 
2.3778654021511154 
2.0349076092937377 
2.4190668477078265 
2.070448731408144 
2.4602804923392916 
2.1060036882218025 
2.5015058593578248 
2.1415718924338023 
2.542742430795251 
2.1771528341981004 
2.583989612202061 
2.212746095302752 
2.625246690016302 
2.2483513710000316 
2.666512780810991 
2.2839685012933093 
2.707786772025692 
2.3195975132509288 
2.7490672542427648 
2.355238674983545 
2.7903524456034687 
2.3908925597694988 
2.831640109525178 
2.426560114545157 
2.872927467225064 
2.462242719280594 
2.914211106278626 
2.4979422105412272 
2.955486884759337 
2.533660820775675 
2.996749826119948 
2.569400950076684 
3.0379939907435727 
2.6051646329308524 
3.079212292661677 
2.6409524797435124 
3.120396199248828 
2.6767617492742657 
3.1615352004908277 
2.712583026771561 
3.2026158528258346 
2.7483947218572644 
3.2436200784983913 
2.784154233073056 
3.284522222386749 
2.8197841212874843 
3.3252841270179885 
2.8551509601132405 
3.3658471925566484 
2.890033664541099 
3.4061200913663887 
2.9240770416164814 
3.4459606341189515 
2.9567251211470977 
3.4851504977249492 
2.9871276909154854 
3.5233625740395462 
3.0140127800929855 
3.560123202247503 
3.035518393694699 
3.5947759885831108 
3.0489800475155113 
3.6264594539291775 
3.050679139530956 
3.6541117434426726 
3.0355752813092534 
3.6764928133029984 
2.997080568484994 
3.6921155470980693 
2.926996234116148 
3.698683068407388 
2.8158349810516072 
3.6909264938044393 
2.6538956491463304 
3.6544050852573595 
2.4335632131695886 
3.5511263841364524 
2.1529812498135343 
3.2927783150284093 
1.8190422749730626 
2.7067351061139435 
1.4399458320586578 
1.5896066466822225 
0.9849305531474497 
1.7140944332891395 
0.412641962247318 
5.188124618965199 
1.569580682766761 
0.7200613781713007 
0.8930084970387879 
0.6143574457619835 
0.686250435689078 
0.542759883934419 
0.5355880739468725 
0.47668585087196064 
0.44144986335418324 
0.42203334631516576 
0.38675101514255644 
0.3916266659125108 
0.357677268168292 
0.38803163667214446 
0.34855428884011236 
0.404432513542939 
0.35565807971073937 
0.43221323394022115 
0.37408335422494166 
0.4651619087047511 
0.3988935433226414 
0.499821592633878 
0.42649500419475717 
0.5345723811601828 
0.4548087660754151 
0.5687981456866347 
0.48285065396320614 
0.6023716599055265 
0.5102794945499214 
0.6353760425386795 
0.5370808474897908 
0.6679645116922001 
0.5633799161791861 
0.7002947790389138 
0.5893418076565333 
0.7325020611443044 
0.6151236904052453 
0.764691230368092 
0.6408555601079171 
0.7969378005056251 
0.6666357258896652 
0.8292924225754656 
0.6925331717170355 
0.8617862497146043 
0.7185925625119122 
0.8944359607464869 
0.7448397453596972 
0.9272479770855826 
0.7712867564979176 
0.9602217785045317 
0.797935967122074 
0.9933523921088631 
0.8247833158816792 
1.0266321917345662 
0.8518207193780566 
1.060052154895517 
0.8790378035369146 
1.0936027104506556 
0.9064231038175214 
1.127274287525054 
0.9339648664211717 
1.1610576526491112 
0.9616515594300359 
1.1949441008952562 
0.9894721792356176 
1.2289255493242661 
1.017416416607041 
1.2629945672535676 
1.0454747295156053 
1.297144367442032 
1.0736383562595218 
1.3313687745812695 
1.101899292237336 
1.36566218197247 
1.1302502461508037 
1.4000195033623548 
1.1586845860723567 
1.4344361242602788 
1.1871962819878643 
1.4689078552398496 
1.2157798488700613 
1.5034308885764827 
1.244430292582551 
1.5380017587945314 
1.2731430597990223 
1.5726173072590284 
1.3019139923931753 
1.6072746506617945 
1.330739286344172 
1.6419711531206909 
1.3596154549332997 
1.6767044015344899 
1.3885392959205307 
1.7114721838154827 
1.4175078623059962 
1.7462724696280483 
1.4465184363264625 
1.7811033932833147 
1.4755685063450743 
1.815963238453507 
1.5046557463752435 
1.8508504244088624 
1.5337779980377075 
1.8857634934920018 
1.5629332548658876 
1.9207010995895941 
1.5921196489671077 
1.9556619973830118 
1.6213354402169664 
1.9906450322104463 
1.6505790083076979 
2.025649130427258 
1.6798488482121534 
2.060673290240476 
1.7091435698702162 
2.095716573101008 
1.7384619032347493 
2.130778095896632 
1.7678027101692562 
2.1658570243834894 
1.7971650051217891 
2.2009525685469344 
1.8265479868971488 
2.2360639808513163 
1.855951084236341 
2.271190558612723 
1.8853740180584062 
2.306331651896094 
1.9148168830012366 
2.3414866782623682 
1.9442802498620257 
2.376655145066941 
1.973765288145264 
2.4118366783771323 
2.003273903212111 
2.447031054145478 
2.032808874101192 
2.482238220836796 
2.0623739637916456 
2.517458291343119 
2.091973950428226 
2.5526914628945745 
2.121614491262209 
2.5879377925294307 
2.1513016744417044 
2.623196706414239 
2.1810410283996124 
2.6584660452220055 
2.210835632433813 
2.6937403331100396 
2.2406827892645462 
2.7290077890275626 
2.2705684607372816 
2.7642453571157586 
2.3004583070987645 
2.799410696689322 
2.3302836815616206 
2.834429623128451 
2.359920290108771 
2.869176922870863 
2.389156418031219 
2.9034478042945233 
2.4176466659850417 
2.936916582055838 
2.4448461100605616 
2.969078730187622 
2.4699189059835422 
2.9991725597989527 
2.491615019942424 
3.026078083661915 
2.5081097817318847 
3.0481938952634535 
2.516804715692327 
3.063298698990573 
2.514096945971754 
3.06841175323908 
2.4951421493092383 
3.0596710566213168 
2.4536683904243164 
3.032234399252099 
2.3819541190560907 
2.9801393264632483 
2.2711764219219943 
2.895859754377787 
2.11248467686811 
2.7688637543245274 
1.8993853895112074 
2.581789503035574 
1.6323449385819362 
2.302466608178995 
1.32670110718198 
1.8726483300642585 
1.0228470593276402 
1.2165040781284309 
0.7809649423362319 
0.6830880638953606 
0.6127022269135 
2.015311084661942 
0.5930402730375879 
4.131226197468935 
1.5749839904846965 
0.5745450527421807 
0.6835611367732537 
0.5438601421287196 
0.5808630374961785 
0.5380702098183627 
0.5225194307735171 
0.5223259051948456 
0.4903002072279124 
0.4967372594228399 
0.46755311032619357 
0.47274783357977435 
0.4485447373436254 
0.4592275368419406 
0.434510054828617 
0.45857212351810955 
0.4276911646114495 
0.46866399370176726 
0.42854333877943046 
0.48598184432979974 
0.435799582832976 
0.5074619961818063 
0.44753744435345866 
0.531033903991996 
0.46201501441645 
0.5554996258791842 
0.4779904986742007 
0.5802534099940024 
0.4947096606597078 
0.6050397514582381 
0.5117758402965575 
0.6297894655550603 
0.5290166331974865 
0.6545209088920468 
0.5463840641294023 
0.6792851308991218 
0.5638901532150243 
0.7041378680149019 
0.5815693488143293 
0.7291269252877186 
0.5994586839845537 
0.754287873383626 
0.6175886517496548 
0.7796439097874307 
0.6359801008727505 
0.8052075499247788 
0.6546442326640629 
0.8309828998663663 
0.6735839881046631 
0.8569678908211291 
0.6927958814826455 
0.8831562070897139 
0.7122718001419835 
0.9095388266419923 
0.7320005576356775 
0.9361051863296083 
0.7519691341629461 
0.962844023569146 
0.7721636124593036 
0.9897439579440426 
0.7925698500425559 
1.0167938736700268 
0.8131739387554678 
1.0439831554621 
0.8339625010554087 
1.0713018201483149 
0.8549228659515571 
1.0987405766819258 
0.8760431593722873 
1.1262908387973702 
0.8973123358878868 
1.1539447078157092 
0.9187201718605109 
1.1816949378281145 
0.940257234537857 
1.20953489160798 
0.96191483726334 
1.2374584927182375 
0.9836849877447428 
1.2654601772964216 
1.0055603339334673 
1.2935348475872759 
1.0275341104036981 
1.3216778283696946 
1.0496000869333306 
1.3498848268017012 
1.0717525202298352 
1.3781518958380066 
1.0939861092135648 
1.406475401116324 
1.1162959539649948 
1.434851991118112 
1.1386775182497522 
1.4632785703036575 
1.1611265954530885 
1.4917522749475123 
1.1836392777170017 
1.5202704513766359 
1.2062119281005037 
1.5488306363719553 
1.2288411556335228 
1.5774305395190926 
1.2515237932202141 
1.6060680273780985 
1.2742568784660413 
1.6347411094010962 
1.2970376376552306 
1.6634479256542318 
1.3198634732856682 
1.6921867365053038 
1.3427319558164275 
1.7209559146339397 
1.3656408205618915 
1.74975393991521 
1.3885879710183608 
1.7785793980093747 
1.4115714903134957 
1.8074309837980893 
1.434589662929127 
1.8363075111909963 
1.4576410093243124 
1.8652079311983805 
1.4807243365379843 
1.8941313605387298 
1.5038388081510536 
1.9230771232270356 
1.5269840369732417 
1.9520448074559753 
1.5501602031592132 
1.981034339215479 
1.5733681986788859 
2.010046071994288 
1.596609795383149 
2.0390808876433457 
1.6198878271611863 
2.068140295719888 
1.643206365128621 
2.0972265052604184 
1.6665708458648956 
2.1263424209193085 
1.6899880827562146 
2.1554914802332132 
1.7134660443273344 
2.184677194101049 
1.7370132138723116 
2.213902169476757 
1.7606372420583873 
2.243166269760215 
1.7843424557206249 
2.27246338871107 
1.808125575682601 
2.3017760584408644 
1.8319687046899977 
2.3310667589264047 
1.855828251975638 
2.3602643238511374 
1.879617943342144 
2.389243231798219 
1.903183413295046 
2.4177928422578354 
1.9262650997834376 
2.4455728413515683 
1.9484453224849967 
2.472050453900391 
1.9690746763845328 
2.4964146633712825 
1.9871725375930143 
2.517463302466647 
2.001297173848472 
2.533461292074642 
2.009383777168647 
2.5419737058971745 
2.008555566505539 
2.5396870793494397 
1.9949270464168274 
2.522247383347269 
1.9634446096150728 
2.4841623553033476 
1.9078563004852787 
2.4188336135252735 
1.8209845398362294 
2.3187851994030955 
1.6956232271188856 
2.176114243026118 
1.5266677760246574 
1.9830973320679381 
1.315713458566254 
1.7329341006597223 
1.080745124138443 
1.4221838995577794 
0.8742068786835419 
1.0681558905545345 
0.787413831711799 
0.8234387597127361 
0.8441332121248694 
1.148842493865801 
0.9096770221241266 
2.0503750307778947 
0.9156638467896433 
3.174646212613634 
1.4221221022549697 
0.4472330242953037 
0.5104335369268242 
0.47509438599198567 
0.48259488995514926 
0.5195882178679503 
0.4953542417727612 
0.5431982483680027 
0.5128470686348009 
0.5448877993514586 
0.5196000185472842 
0.5347576414894284 
0.5151514294711219 
0.5228156025588071 
0.5046329453114676 
0.5151189653451761 
0.493338298769624 
0.5137388654639511 
0.48463668490774353 
0.5182705921313235 
0.47984534139961627 
0.5273405110864432 
0.47890977623169734 
0.5395184341776178 
0.48114811959925485 
0.5536827602933369 
0.4857535250022458 
0.5690737660421085 
0.49203459103453445 
0.5852249985143746 
0.49948316346411686 
0.6018722990210934 
0.5077595028862136 
0.6188777877789025 
0.5166511235816698 
0.6361763336758064 
0.5260316842008546 
0.6537413187796942 
0.5358287972636033 
0.6715642401442926 
0.546001660775892 
0.6896433542121172 
0.556526668416039 
0.7079778713626546 
0.5673887088361061 
0.726565377129135 
0.5785762231898409 
0.7454010195176366 
0.5900786110283512 
0.7644775844821797 
0.6018850316898019 
0.7837859549269728 
0.6139839895071053 
0.8033156788888953 
0.6263633262402027 
0.8230555097365941 
0.6390103984673889 
0.8429938597990649 
0.6519123152597024 
0.8631191515253238 
0.6650561712407691 
0.8834200716238605 
0.6784292453887751 
0.9038857427549686 
0.6920191558025749 
0.9245058297806982 
0.7058139710303166 
0.9452705966838717 
0.7198022834101734 
0.9661709279302727 
0.7339732514887521 
0.9871983253159257 
0.748316618592672 
1.0083448887588302 
0.7628227137882632 
1.02960328725458 
0.777482440399202 
1.0509667244414531 
0.7922872561240542 
1.07242890181509 
0.8072291478373587 
1.0939839816182915 
0.8223006033135696 
1.1156265506671688 
0.8374945814878492 
1.1373515858727599 
0.852804482351306 
1.1591544218411038 
0.8682241172410751 
1.1810307207141417 
0.8837476799996468 
1.2029764442629152 
0.8993697193320513 
1.2249878281641426 
0.915085112555094 
1.2470613583569237 
0.9308890409080594 
1.2691937493746959 
0.9467769665575698 
1.291381924575665 
0.9627446114825935 
1.3136229982499794 
0.9787879384797769 
1.3359142596603952 
0.9949031346513821 
1.3582531591897011 
1.0110865978767072 
1.3806372969093443 
1.0273349269890417 
1.403064414079645 
1.0436449166145412 
1.425532388334046 
1.0600135579714534 
1.4480392335972996 
1.0764380472859578 
1.4705831061485544 
1.0929158039384526 
1.493162318658326 
1.1094445009197538 
1.5157753644693048 
1.1260221106760702 
1.5384209548212935 
1.1426469698212354 
1.5610980720215246 
1.1593178664226984 
1.5838060415697148 
1.176034153349132 
1.606544625649074 
1.1927958902088525 
1.6293141387129535 
1.2096040141095028 
1.6521155823508678 
1.2264605350458757 
1.6749507900360625 
1.2433687438933563 
1.6978225609457824 
1.2603334079669062 
1.720734743183194 
1.2773609082472726 
1.7436921965864445 
1.2944592400285906 
1.7667005184860205 
1.3116377497589071 
1.7897653447029866 
1.3289064083543156 
1.8128909325725655 
1.3462743161309325 
1.8360775793980668 
1.363746985147167 
1.8593172116600827 
1.3813217370883215 
1.882586177684807 
1.3989802730250465 
1.9058338685683278 
1.4166770999150995 
1.9289652622024689 
1.4343220272356716 
1.951814830887493 
1.4517543799706365 
1.9741085055374024 
1.4687059485061267 
1.9954096476331087 
1.484749114267828 
2.0150444651977293 
1.49922627679187 
2.0320024504487226 
1.511157107308286 
2.0448089753497136 
1.519122094134426 
2.051371417812663 
1.521125820450848 
2.048809079947112 
1.5144540822677395 
2.0332936498162737 
1.4955600711874533 
1.9999553372111925 
1.460055246943675 
1.9429564930294492 
1.402957849741179 
1.8559106368577745 
1.3195052173838988 
1.7329558469345034 
1.207158462916796 
1.5710511096251736 
1.0701247231408895 
1.3746756803373954 
0.9288326267915714 
1.1655502934558901 
0.8339321611043311 
1.000653511747921 
0.8548189592061499 
0.9788402646845106 
0.9967195708082922 
1.1599410404795878 
1.163310890487298 
1.4909095522283424 
1.2232816008919292 
1.8923328537478379 
1.1027137037004615 
2.338354396086191 
1.1671752331834024 
0.33288688498569835 
0.35995993122436576 
0.41328403147035314 
0.39799502984851776 
0.49699627711509486 
0.46783246307126647 
0.5498801850830899 
0.522572857867565 
0.5731677554934279 
0.5521910233032168 
0.5766737334750038 
0.5607414118534808 
0.5703844518069779 
0.555804008902387 
0.5615929907035406 
0.5443338415729476 
0.554442486724905 
0.5312589112389674 
0.5506142314949737 
0.5194112327891569 
0.5503105870385038 
0.5100283984108502 
0.5530573784046808 
0.5033624707523201 
0.5581949093811334 
0.49917068725437863 
0.5651127117859395 
0.4970310974274535 
0.5733285956576052 
0.496510828603185 
0.5824924734461241 
0.49723779716146466 
0.5923625761529819 
0.4989196095521266 
0.6027768950249462 
0.5013383167614592 
0.6136285773511172 
0.5043367861445746 
0.6248473542517335 
0.5078041339769281 
0.6363864858342679 
0.5116631204485066 
0.6482139910114814 
0.5158602376927006 
0.6603069480802679 
0.5203583238211708 
0.6726478937072484 
0.5251312476890586 
0.685222609363093 
0.5301601807229025 
0.6980188010072697 
0.5354310374658778 
0.7110253394827072 
0.5409327535994517 
0.724231843400875 
0.5466561513384084 
0.7376284644300558 
0.5525932090325621 
0.7512057871476063 
0.558736603754963 
0.764954789830486 
0.5650794346340331 
0.7788668345320818 
0.5716150632198336 
0.7929336685687802 
0.578337027632122 
0.8071474280081803 
0.5852390017020007 
0.821500638706215 
0.5923147803309372 
0.8359862132861461 
0.5995582791049767 
0.8505974439120403 
0.6069635407791416 
0.8653279914264267 
0.6145247442189103 
0.8801718716531615 
0.6222362133213281 
0.8951234397044422 
0.6300924246156521 
0.9101773730067495 
0.6380880129757335 
0.9253286536538314 
0.6462177752855922 
0.9405725505272983 
0.654476672144403 
0.9559046015355459 
0.6628598277894577 
0.9713205961920283 
0.6713625284997323 
0.9868165587132959 
0.6799802197388631 
1.0023887317424622 
0.6887085023264279 
1.0180335608138813 
0.6975431279379292 
1.033747679648747 
0.7064799942701566 
1.0495278964232775 
0.7155151402492478 
1.0653711811950015 
0.7246447417631536 
1.0812746547725707 
0.7338651084921105 
1.0972355794240476 
0.7431726825922507 
1.1132513520142304 
0.7525640401802549 
1.1293195003525998 
0.762035896840076 
1.1454376838467506 
0.7715851186967722 
1.1616036998683597 
0.7812087409822327 
1.1778154976657353 
0.7909039964598411 
1.1940712020898776 
0.8006683565471362 
1.2103691498733455 
0.8104995884243085 
1.2267079415831978 
0.8203958317895825 
1.2430865125872237 
0.8303556990417431 
1.2595042261378895 
0.8403784023510616 
1.2759609906924159 
0.8504639099353185 
1.2924574012050318 
0.8606131313692199 
1.3089948995108711 
0.8708281270987506 
1.3255759406785472 
0.8811123293355352 
1.3422041383798822 
0.8914707484397415 
1.35888433997951 
0.9019101183713812 
1.3756225471036072 
0.9124389034270423 
1.392425544108342 
0.9230670417624401 
1.4093000173384087 
0.9338052330970888 
1.426250831915863 
0.944663480827343 
1.443277966796754 
0.9556484630897787 
1.4603713768916118 
0.9667591223537975 
1.4775027353398542 
0.9779796180203992 
1.494612592826584 
0.9892684734365239 
1.5115909650496224 
1.0005423692640232 
1.528248735461193 
1.0116526129152443 
1.5442765940956715 
1.0223519183435694 
1.5591876674379226 
1.032248921648768 
1.5722398315676156 
1.040748166755161 
1.5823345260963222 
1.046974773376566 
1.5878917706652973 
1.049686898537749 
1.5867079305458427 
1.0471878224089133 
1.5758169269695164 
1.0372677088550548 
1.5514030188860872 
1.0172422819963292 
1.5088652552688138 
0.984231935056196 
1.4432334526027644 
0.9359841641229749 
1.3503364965891589 
0.8728732635804298 
1.229554433344498 
0.8022840961871479 
1.0898830664553414 
0.7465031020213921 
0.9618757185640792 
0.7481838129927 
0.9098442243342542 
0.8483763958744895 
1.00044042788384 
1.0406076103943005 
1.218795353796477 
1.266868534846476 
1.4723309992516784 
1.4400173740566522 
1.6522486609294378 
1.4540780430639753 
1.674194066225808 
1.2159474356665587 
1.6042027269229662 
0.8838290683950195 
0.23196588106009694 
0.22710334579506644 
0.3634442271194934 
0.3349554876510387 
0.47610903746185124 
0.4484746678549872 
0.5489084121721778 
0.5277116007636649 
0.5872291896367448 
0.5720258756802836 
0.6012415081209384 
0.5893501324582046 
0.6007369025971763 
0.5888584766671419 
0.5933092241310625 
0.57839008039944 
0.5839751834062334 
0.5636387705176282 
0.5755430823656082 
0.5482116180249518 
0.5692608308401951 
0.5340703514791191 
0.5654385497519041 
0.52205564044649 
0.563910966173822 
0.5123372479068325 
0.5643259579923472 
0.504737857027156 
0.5662996738358043 
0.4989376921192601 
0.5694869375525071 
0.49458952385937394 
0.57360484468582 
0.491375078709427 
0.57843366986636 
0.4890270151185301 
0.5838085401339701 
0.48733259935569806 
0.5896086130363914 
0.48612879876547155 
0.5957467590001632 
0.48529418348388925 
0.6021608462363238 
0.4847403898074155 
0.6088068385657409 
0.4844043998773788 
0.6156535461236223 
0.48424209037333715 
0.6226787466763908 
0.4842231013481289 
0.6298663841541441 
0.4843268950526893 
0.6372045843560206 
0.48453980961013815 
0.6446842743687903 
0.48485290561457306 
0.6522982384576816 
0.48526042343193226 
0.6600404835383141 
0.485758698440816 
0.6679058203256185 
0.486345412009953 
0.675889592141806 
0.4870190837533452 
0.6839875030022731 
0.4877787339777957 
0.6921955112020912 
0.4886236640527146 
0.7005097652189932 
0.48955331699242216 
0.7089265662863965 
0.4905671915960262 
0.717442347285104 
0.49166479158243703 
0.7260536612290813 
0.4928455970797978 
0.7347571750898927 
0.49410904996592503 
0.7435496663219382 
0.49545454749682194 
0.752428020525815 
0.49688144062570594 
0.7613892293502079 
0.4983890347762747 
0.7704303881739016 
0.49997659170502545 
0.7795486933374163 
0.5016433316778793 
0.7887414388747281 
0.5033884355372249 
0.798006012762968 
0.5052110464983487 
0.8073398927743338 
0.5071102716378606 
0.8167406420553173 
0.5090851831815594 
0.8262059046022544 
0.5111348197608359 
0.8357334008442212 
0.5132581879146058 
0.84532092363874 
0.5154542642170616 
0.8549663350610871 
0.5177219985387811 
0.8646675645282922 
0.5200603191153838 
0.8744226089645508 
0.5224681403180709 
0.8842295359574972 
0.5249443742682522 
0.8940864911503795 
0.5274879477829822 
0.9039917114561754 
0.530097826478786 
0.913943546103002 
0.532773048318286 
0.923940487952437 
0.5355127692980088 
0.933981217963927 
0.538316324412492 
0.9440646660097973 
0.5411833073144923 
0.9541900913195076 
0.5441136721532758 
0.9643571854067816 
0.547107860613311 
0.9745661989921001 
0.5501669559073877 
0.9848180915518557 
0.5532928627824519 
0.9951146967424976 
0.5564885077561419 
1.0054588876469974 
0.5597580455940375 
1.0158547104738285 
0.563107044857376 
1.0263074310414688 
0.5665426048836184 
1.036823400921314 
0.5700733257134744 
1.0474095937197916 
0.573709007041004 
1.0580725789731127 
0.57745988693978 
1.068816581464971 
0.5813351392031875 
1.079640105007504 
0.585340222014265 
1.0905303672893243 
0.5894725023659041 
1.101454481134704 
0.5937143641602047 
1.1123459153856132 
0.5980227435558311 
1.1230842744793987 
0.6023137390424181 
1.1334658749837676 
0.6064406665466566 
1.143162050797722 
0.6101637938214506 
1.1516617767650201 
0.6131102605397987 
1.1581954605856484 
0.6147239310814074 
1.161638399640468 
0.6142082989915588 
1.1603969439023865 
0.6104735137841582 
1.1522907662610617 
0.6021164638544246 
1.1344666193755673 
0.5875028007826221 
1.1034247949057547 
0.5651108734269988 
1.0553372991046057 
0.5345082936281954 
0.9870568606016777 
0.4987858460204713 
0.8987385399410678 
0.4698018923916368 
0.8001602673065628 
0.475011131372886 
0.7236570785460331 
0.5510257131806362 
0.7334205130774143 
0.7136688492367468 
0.8811179024803694 
0.946977316680649 
1.139999920314597 
1.216455904188994 
1.4318758323833138 
1.471258735907389 
1.6610253624859772 
1.63822163261226 
1.7163082335219437 
1.6201495377504067 
1.4862515672382923 
1.3100304043035123 
0.9780313841495415 
0.676597128200031 
0.156663209694567 
0.12621761157683067 
0.33104593443653785 
0.30465815437166055 
0.46039499621392616 
0.4425371787759704 
0.5439958494380591 
0.5328179892271411 
0.5907173673993631 
0.5830919992292711 
0.6110781799444289 
0.6038466825314258 
0.6146599192388154 
0.6051603682499231 
0.6089961507360149 
0.5952377795371704 
0.5993508673538759 
0.5800097264388157 
0.5890006319163207 
0.563325766405068 
0.5797229474342589 
0.5474025685861146 
0.5722926648897851 
0.5333138956378745 
0.5668858865971401 
0.521411252447973 
0.5633647038028441 
0.5116373586901383 
0.5614568394161985 
0.5037365049036038 
0.5608580503569176 
0.4973832945246055 
0.5612840400007677 
0.4922540349157717 
0.5624922047309926 
0.4880612351929688 
0.5642868156952969 
0.4845661645920242 
0.5665160008155945 
0.4815794461266152 
0.5690653361192732 
0.4789558873292502 
0.5718506285653936 
0.4765871598623883 
0.5748111548661442 
0.4743942778154933 
0.5779038785741032 
0.4723208146728317 
0.5810987723559822 
0.4703272180527151 
0.5843751786258925 
0.4683862688596142 
0.5877190608940641 
0.4664795800625709 
0.591120977693923 
0.464594971063428 
0.5945746202550791 
0.4627245439642075 
0.5980757771100871 
0.46086330271569387 
0.6016216142277834 
0.4590081805032681 
0.6052101834685426 
0.45715736700451587 
0.608840093109021 
0.455309851419589 
0.6125102913508234 
0.45346511786349925 
0.6162199271642331 
0.45162294639810874 
0.619968263123203 
0.44978328600943224 
0.6237546224774776 
0.4479461756788969 
0.6275783582914788 
0.4461116969566745 
0.6314388364155452 
0.44427994672367993 
0.6353354268583563 
0.4424510225481423 
0.639267500016124 
0.4406250156509207 
0.6432344255277187 
0.43880200827639493 
0.6472355723745385 
0.436982073462744 
0.6512703094137231 
0.43516527600833255 
0.6553380058859732 
0.4333516739303853 
0.6594380316809711 
0.43154132005916396 
0.6635697572722283 
0.4297342636049764 
0.6677325533579228 
0.4279305516786411 
0.6719257902946116 
0.426130230823002 
0.6761488374978047 
0.424333348691713 
0.6804010630562713 
0.42253995605415856 
0.6846818339059211 
0.420750109389303 
0.6889905170377629 
0.4189638743826441 
0.6933264823831293 
0.41718133075968683 
0.6976891082257609 
0.4154025789840446 
0.7020777902725871 
0.41362774951589043 
0.7064919558014218 
0.41185701545680253 
0.7109310846951297 
0.41009060960532145 
0.7153947395162158 
0.4083288470705289 
0.7198826071335248 
0.40657215467503327 
0.7243945545902312 
0.4048211082733732 
0.7289307018117859 
0.40307647869921015 
0.7334915130394292 
0.40133928606638725 
0.7380779071786193 
0.3996108602150919 
0.7426913838047471 
0.3978929016012512 
0.7473341554396795 
0.39618753102727067 
0.7520092663156773 
0.39449730695000174 
0.756720661031102 
0.39282517383292476 
0.7614731401368892 
0.39117428140897614 
0.76627209945604 
0.3895475790527466 
0.77112288987175 
0.3879470365725969 
0.7760295466268882 
0.3863722657730369 
0.7809925116869592 
0.384818207206939 
0.7860047971089528 
0.3832713925976713 
0.7910457973914069 
0.38170408255816285 
0.7960716401743024 
0.38006529785549703 
0.8010005569628712 
0.37826739929246483 
0.8056912604844194 
0.3761664235779202 
0.809911763046001 
0.37353386878231476 
0.8132955506777059 
0.37001710736435633 
0.8152817495344409 
0.3650852465110308 
0.8150363253645625 
0.35795741361536365 
0.811353346666 
0.3475119272373988 
0.8025407740801673 
0.3321795743191185 
0.7863080949253799 
0.3098377161752073 
0.7597026685946026 
0.2777632163261366 
0.7192121669110815 
0.2328593955944503 
0.6613353787515298 
0.1732327061915121 
0.5844769549492891 
0.10974877617246667 
0.49485669961375106 
0.1270831029038854 
0.42381027780533775 
0.266007345926367 
0.4492365003442305 
0.46907292164976916 
0.6241416382112881 
0.721609184472602 
0.9066408708694605 
1.0118959931968339 
1.2348783146191196 
1.3158094737470127 
1.5432523599470565 
1.5891649606767837 
1.7469941235332855 
1.7626544760237832 
1.737866451858986 
1.742118058334962 
1.3959471867083433 
1.4195755027406747 
0.6234672355507758 
0.7045982219007808 
0.14455388838844302 
0.13613400723678865 
0.32065788213941554 
0.3159978805509882 
0.45145877293566006 
0.45233010705239796 
0.5367773509442519 
0.5397024353957025 
0.5854391528370649 
0.5870132707470361 
0.6077599632396001 
0.6055060096800173 
0.6130415586188871 
0.6054798253268563 
0.6085817107462455 
0.5950475145289619 
0.599534217317497 
0.579934994601767 
0.5891976905963304 
0.5637898756429729 
0.5794586372114876 
0.5486743942991273 
0.5712310036210825 
0.5355594832745584 
0.5648185023639809 
0.5247341453275826 
0.5601797659544631 
0.5161058308310431 
0.5571050997334615 
0.5094006358453466 
0.5553246528700059 
0.504285283765566 
0.5545686659005804 
0.50043428952573 
0.5545968440362826 
0.4975618454540922 
0.5552092707182373 
0.4954327423169072 
0.556247173198071 
0.4938619205268823 
0.5575887454621341 
0.49270864027733574 
0.5591430865189373 
0.4918687593514607 
0.5608439206450283 
0.49126699013706343 
0.5626439120424227 
0.490850020332887 
0.5645098903006035 
0.4905808145356864 
0.5664190338892835 
0.4904341113615792 
0.5683559272585789 
0.49039298764617456 
0.5703103548581194 
0.49044630901965214 
0.572275686096274 
0.4905868822577682 
0.574247717186682 
0.49081014395364164 
0.5762238562709076 
0.491113247673059 
0.5782025604081417 
0.49149444024929717 
0.5801829535515453 
0.4919526435305625 
0.5821645721465629 
0.4924871793181832 
0.5841471990859181 
0.4930975922879072 
0.5861307577576041 
0.4937835387358614 
0.5881152462080801 
0.4945447187388525 
0.590100697553424 
0.4953808363847838 
0.5920871571899118 
0.4962915777802797 
0.5940746704772134 
0.4972766000481364 
0.5960632767362168 
0.49833552695261923 
0.5980530068935177 
0.4994679483904511 
0.6000438830946364 
0.5006734220660889 
0.602035919277613 
0.5019514763640641 
0.6040291220989631 
0.5033016138319072 
0.6060234919032189 
0.5047233149971262 
0.6080190235714737 
0.5062160423402284 
0.6100157072088114 
0.507779244369858 
0.6120135286859626 
0.5094123597432733 
0.6140124701191584 
0.5111148213985862 
0.6160125104047057 
0.5128860606339796 
0.6180136260019383 
0.514725511038791 
0.6200157922008948 
0.5166326121288394 
0.6220189852334139 
0.518606812479449 
0.6240231856703163 
0.5206475720675446 
0.6260283837271275 
0.5227543634386383 
0.6280345872249921 
0.5249266711843186 
0.6300418331645271 
0.5271639890320601 
0.6320502039949826 
0.5294658136141219 
0.6340598497389901 
0.5318316335911548 
0.6360710169983941 
0.5342609122578796 
0.6380840853753896 
0.5367530608560668 
0.6400996106784476 
0.5393073984438729 
0.6421183720094135 
0.5419230919665002 
0.6441414157136455 
0.5445990667296352 
0.6461700822033799 
0.5473338721033761 
0.6482059902152058 
0.5501254789785529 
0.6502509349231488 
0.5529709728173757 
0.6523066282152074 
0.5558660869945369 
0.6543741668781137 
0.558804492572628 
0.6564530512139213 
0.5617767186399153 
0.6585394844876169 
0.5647685163409618 
0.6606235518430017 
0.5677583925086812 
0.6626846925215298 
0.5707139162072963 
0.6646846254782766 
0.5735862327694622 
0.6665565484575077 
0.5763019939344127 
0.6681889882339062 
0.5787516216741618 
0.669402125939861 
0.5807724710202358 
0.6699137648033027 
0.5821250771883977 
0.6692913939797156 
0.5824603655013084 
0.6668861478638941 
0.5812757156766427 
0.661744109257189 
0.5778586633003634 
0.6524908242148025 
0.5712200316809816 
0.6371869411259455 
0.560026240109874 
0.6131581034072764 
0.5425602502915937 
0.576813531114319 
0.5167901155406871 
0.523491507932032 
0.48075624662756944 
0.44742585912138455 
0.4338718468282373 
0.34211784924623934 
0.38087393914549045 
0.20280359493092223 
0.3423904200881432 
0.07701769147065134 
0.36694628746081653 
0.2589995225315517 
0.49592330624449077 
0.5475646570392497 
0.718799106867488 
0.8815343785142937 
1.00559096300847 
1.2308587343416455 
1.3212966037920615 
1.5450381358244945 
1.6159674662138395 
1.7479416463239075 
1.8170725857792376 
1.7432328441337632 
1.8306261926082172 
1.44207107378741 
1.5590848323784219 
0.8918293090275424 
0.9824270068925519 
0.20541862469667554 
0.24444485258761484 
0.3329376746587016 
0.3663689382695432 
0.44905267568357143 
0.4771611785677703 
0.5271690042089651 
0.5478330187371212 
0.5716084156696009 
0.5832874392985896 
0.5916904837145738 
0.5939824827533502 
0.5962849835764373 
0.5897022211176205 
0.592297640107831 
0.5779296628936069 
0.5844976716731488 
0.5637001554103047 
0.5758531967223169 
0.5500036296508243 
0.568003644043457 
0.5383418332796812 
0.5617011377972321 
0.5292528517137868 
0.5571581996786449 
0.5227234209217775 
0.5542931699379916 
0.518473373325342 
0.5528887575213152 
0.5161303208291512 
0.5526860948975026 
0.5153244929790055 
0.5534352024975707 
0.51573225884392 
0.5549181884551262 
0.5170900471647272 
0.556956638309874 
0.5191930450188728 
0.5594106369920708 
0.5218872702015964 
0.5621739554669407 
0.525059712635728 
0.5651679865684363 
0.5286288604914259 
0.5683357862871324 
0.5325365790293732 
0.5716368419557057 
0.5367415987731651 
0.5750427739268374 
0.541214526768436 
0.5785339603420643 
0.5459341547567336 
0.5820969749591116 
0.5508848039654668 
0.5857226942594455 
0.5560544627901963 
0.5894049307813061 
0.5614335107057117 
0.5931394663188847 
0.5670138635616571 
0.5969233807564246 
0.5727884142885262 
0.6007545944750962 
0.5787506759717603 
0.6046315619278 
0.5848945604501264 
0.6085530701960533 
0.5912142456188607 
0.6125181091654931 
0.5977040993947453 
0.6165257896832339 
0.604358638892514 
0.6205752932897973 
0.6111725107808755 
0.6246658423259763 
0.6181404838598182 
0.6287966829231959 
0.6252574482778736 
0.6329670759416218 
0.6325184180355404 
0.6371762926884598 
0.6399185348214388 
0.6414236134038944 
0.6474530721157807 
0.6457083272845091 
0.655117439021769 
0.6500297333215123 
0.6629071835920013 
0.6543871415058179 
0.6708179955864627 
0.6587798741996039 
0.6788457086805443 
0.6632072675272292 
0.6869863021747074 
0.6676686727548394 
0.695235902244725 
0.672163457620784 
0.7035907827702241 
0.6766910076234234 
0.7120473657217972 
0.6812507272659188 
0.720602221063803 
0.6858420412680956 
0.7292520660557182 
0.6904643957575806 
0.737993763783761 
0.6951172594638103 
0.7468243206708868 
0.6998001249443438 
0.7557408826209027 
0.7045125098873277 
0.7647407293498535 
0.7092539585350146 
0.7738212663093886 
0.7140240432399365 
0.7829800134379725 
0.71882236609778 
0.7922145897269306 
0.7236485603754597 
0.8015226922376316 
0.7285022910489516 
0.810902067680346 
0.7333832529379161 
0.8203504738449807 
0.7382911634811029 
0.8298656268846683 
0.7432257446706438 
0.8394451284082912 
0.7481866844638932 
0.8490863630863643 
0.7531735611624414 
0.8587863523809685 
0.7581857034068438 
0.8685415420349416 
0.7632219415804555 
0.8783474887123015 
0.7682801806978048 
0.8881983925228166 
0.7733566862786908 
0.8980863941899763 
0.7784449178404164 
0.9080005142115605 
0.7835336621788477 
0.9179250509918996 
0.7886041010718235 
0.9278371682660241 
0.7936252835590795 
0.9377032799255546 
0.7985472475086757 
0.9474736714412726 
0.8032907335806041 
0.9570745694093177 
0.8077320435381458 
0.9663965738668385 
0.8116811084575233 
0.975277999072241 
0.8148502649352247 
0.9834812446827109 
0.8168106456598968 
0.9906599034350692 
0.8169326158235156 
0.9963140615887104 
0.8143066310940955 
0.9997315157948289 
0.807641864706956 
0.9999141540904602 
0.7951431585644989 
0.995493059821363 
0.7743747708992049 
0.9846461988646557 
0.7421375469773746 
0.9650557945817131 
0.6944288556055673 
0.9339946484868522 
0.6266676028011274 
0.8887508496645916 
0.5347359986864662 
0.8278882655782346 
0.4190004033678066 
0.7545272194283993 
0.30247882441810303 
0.684058335205816 
0.2928039922601002 
0.6567746497649537 
0.48136810460108087 
0.7327660331085103 
0.7787618580056337 
0.9364899767759359 
1.1149320818410862 
1.23007270114864 
1.4331827252077165 
1.5451454749137212 
1.6643043984006427 
1.7961282974544968 
1.7343881312959637 
1.8841292321974947 
1.6159987234108242 
1.7260973341749708 
1.4935660191020483 
1.3865233773461794 
0.29791366469324576 
0.38043590717318126 
0.36324544051644064 
0.4454194830004779 
0.45094672107166056 
0.5136147145581247 
0.5134668032785853 
0.5543000495569651 
0.5480017495258528 
0.5692985551746959 
0.5621949215846552 
0.5673973816509459 
0.5642687159885503 
0.5569618555050684 
0.5605103962928212 
0.5440829626298493 
0.5549898762375015 
0.5324524983993706 
0.5499818316724809 
0.5238404651176936 
0.546531500756283 
0.518731467552546 
0.5449465321636471 
0.5168990804367921 
0.5451501793630267 
0.5178210372453024 
0.546902681997937 
0.5209260773501072 
0.5499240312358387 
0.5257112795264497 
0.553953201641438 
0.5317795239931976 
0.5587709389079 
0.5388367499919188 
0.5642038017166443 
0.5466737158283188 
0.5701197821902187 
0.5551449768673906 
0.5764210050881141 
0.5641504118636932 
0.5830361777827784 
0.5736208178927936 
0.589913927782151 
0.5835074282173733 
0.5970173838943764 
0.5937746376923332 
0.6043199895291168 
0.6043951399677349 
0.611802385150544 
0.615346784816642 
0.6194501535007514 
0.6266106146428947 
0.6272522285180697 
0.6381696820031626 
0.6351997969111722 
0.6500083671527913 
0.6432855549331078 
0.662112004066842 
0.6515032148974477 
0.674466688560986 
0.6598471832874396 
0.687059187926316 
0.6683123542650672 
0.6998769026369883 
0.6768939791660004 
0.7129078512251326 
0.6855875849974972 
0.7261406624699249 
0.6943889238856934 
0.7395645670399082 
0.7032939416423856 
0.7531693853695836 
0.7122987578862209 
0.7669455110725477 
0.7213996529925627 
0.7808838904418115 
0.7305930589865561 
0.7949759990446755 
0.7398755526821233 
0.809213816523195 
0.7492438500887809 
0.8235898005725856 
0.7586948015543314 
0.8380968608938215 
0.7682253873686133 
0.8527283337149499 
0.7778327136909864 
0.8674779572856144 
0.7875140087457708 
0.882339848613718 
0.7972666192601552 
0.8973084815904969 
0.8070880071404308 
0.9123786665648302 
0.816975746365098 
0.9275455313551323 
0.8269275200911311 
0.9428045036431076 
0.8369411179306815 
0.9581512946418212 
0.8470144333722919 
0.9735818838959804 
0.8571454612800261 
0.9890925050371694 
0.8673322954090367 
1.0046796322732683 
0.877573125850187 
1.0203399673481575 
0.8878662363001842 
1.0360704266660579 
0.8982100010348643 
1.0518681282041045 
0.9086028814144506 
1.0677303777689522 
0.9190434216867832 
1.0836546540441958 
0.9295302437200083 
1.0996385917174958 
0.9400620400435236 
1.1156799617271642 
0.9506375641294793 
1.1317766472559176 
0.9612556160308457 
1.147926613413388 
0.9719150200986076 
1.1641278674031346 
0.9826145891440974 
1.1803784040612124 
0.9933530655238154 
1.196676128547439 
1.0041290233895257 
1.213018742946627 
1.0149407064562217 
1.2294035755841493 
1.0257857603558258 
1.2458273194314018 
1.0366607953141314 
1.2622856268954217 
1.047560679943949 
1.2787724794041717 
1.0584774154111785 
1.2952792071850265 
1.0693983644720633 
1.3117929715186627 
1.0803035032595132 
1.3282944306342461 
1.091161214404621 
1.34475418102506 
1.1019219352944483 
1.3611273855665713 
1.112508701184835 
1.3773457535191886 
1.1228032672489912 
1.393305709594622 
1.1326260513299147 
1.4088511667744972 
1.1417076231561234 
1.423748797731084 
1.1496489278432784 
1.437653105103652 
1.1558669997871869 
1.4500579987609172 
1.1595228700129545 
1.4602311860644042 
1.1594292353284041 
1.4671278729503279 
1.153938277706599 
1.4692818850936478 
1.1408167856786118 
1.464677009907401 
1.11713036811973 
1.450612502761286 
1.079189382430633 
1.4236013729753334 
1.0226758446568152 
1.3793939884377717 
0.9432264534823014 
1.3133402969558565 
0.8381608257348825 
1.221588335575804 
0.711301768935723 
1.1043198191954862 
0.5865104013915219 
0.9738638636703707 
0.5350024020468811 
0.8719358960963235 
0.6462249106937956 
0.881804511081619 
0.896723850018436 
1.0640690513672904 
1.1978884334419238 
1.36888581169927 
1.476247589885648 
1.682685304967111 
1.6893031860453713 
1.8868273534676898 
1.8734806847839995 
1.9051192385054416 
2.212200988525235 
1.8534518974836884 
0.40166857386365123 
0.5351162771114361 
0.40355386873795474 
0.5445419917891359 
0.4528010116721448 
0.5557326085489722 
0.49228182652535724 
0.5533309751981096 
0.51205937850827 
0.5401590354115349 
0.5177639274504571 
0.5226139222458652 
0.5166884877553608 
0.5062824318562387 
0.5141133539719174 
0.4946694250411566 
0.5129313253970786 
0.48913565881597315 
0.5142485070390957 
0.48945842901583475 
0.5181308550764233 
0.49458883521056274 
0.5241861730024125 
0.5032757575763042 
0.5319141372968292 
0.5144223979990599 
0.5408699051081656 
0.5272112056621847 
0.5507147624982627 
0.5410949592195837 
0.5612128419865368 
0.5557361513532892 
0.5722091241105954 
0.5709405856398638 
0.5836055251198254 
0.5866033795978977 
0.5953412418937652 
0.6026708802339275 
0.6073785173075112 
0.619116174909837 
0.6196930951480564 
0.6359244992811603 
0.6322681787927599 
0.6530852115372622 
0.6450908054329823 
0.6705878334376562 
0.6581497961927487 
0.6884204526757526 
0.6714346874998903 
0.7065693948386284 
0.6849352443788507 
0.7250195028489108 
0.6986412983946909 
0.7437546445035293 
0.7125427509041623 
0.7627582463533579 
0.7266296473180983 
0.7820137587661617 
0.7408922698839563 
0.8015050178491293 
0.755321222423918 
0.8212165020442339 
0.7699074958437226 
0.8411334963748965 
0.784642511830859 
0.8612421826302382 
0.7995181465153228 
0.8815296740151396 
0.8145267377016272 
0.9019840105498949 
0.8296610796957269 
0.922594128439421 
0.8449144094362507 
0.9433498135245977 
0.8602803870447875 
0.964241646202063 
0.8757530731973255 
0.9852609429520165 
0.8913269051074936 
1.006399697907683 
0.9069966723577821 
1.0276505266036335 
0.922757493402067 
1.0490066131533242 
0.9386047932505042 
1.0704616614644455 
0.9545342826057233 
1.0920098507163993 
0.9705419385797421 
1.113645795031779 
0.9866239870073351 
1.1353645071648135 
1.0027768863149724 
1.1571613659095932 
1.0189973128545844 
1.1790320869251736 
1.0352821476046488 
1.20097269664588 
1.0516284641194695 
1.2229795089646336 
1.0680335176082576 
1.2450491043835001 
1.0844947350298866 
1.267178311349065 
1.1010097060878974 
1.2893641895040728 
1.1175761750137378 
1.3116040146061962 
1.1341920330428623 
1.3338952648785576 
1.1508553114745819 
1.356235608579294 
1.1675641752133599 
1.3786228925657587 
1.1843169166514798 
1.4010551316433715 
1.2011119496753437 
1.4235304984247246 
1.217947803400453 
1.4460473133325478 
1.2348231148874782 
1.468604034122531 
1.251736619424309 
1.491199243844063 
1.2686871357785936 
1.5138316352666987 
1.2856735417650886 
1.536499988255433 
1.3026947320510929 
1.5592031339088244 
1.3197495445256817 
1.5819398948601169 
1.336836632644933 
1.6047089839703614 
1.353954247225842 
1.6275088322737474 
1.3710998697882326 
1.6503372993443608 
1.3882696073021785 
1.673191192213971 
1.4054572103977583 
1.6960654783334994 
1.422652507345818 
1.718952017966731 
1.439838946075383 
1.7418375539063407 
1.4569897954902298 
1.764700571041589 
1.474062362435355 
1.787506461644962 
1.4909893172109874 
1.8102001877085172 
1.5076658739657351 
1.832695299873624 
1.523931132222389 
1.8548577328658158 
1.5395413541317655 
1.876482231809579 
1.554132358426437 
1.8972585649207807 
1.5671676414859477 
1.9167238646996152 
1.5778684773828395 
1.9341965868549953 
1.585122478911302 
1.948686870354563 
1.5873686282428947 
1.9587779256488278 
1.5824608959561588 
1.9624742893675828 
1.5675215650465855 
1.9570169957318841 
1.5388133967512345 
1.9386762209697048 
1.4916944199460889 
1.9025556384878597 
1.4207852207786351 
1.8424948497672593 
1.320608406301198 
1.7512736953768542 
1.1872357748148425 
1.6216037243404127 
1.0221459334692837 
1.4491311890640721 
0.8412512132495445 
1.2407785325318907 
0.6945568117970834 
1.0369581258595082 
0.6783605493364872 
0.9502369413752962 
0.8439805138229195 
1.1082328543709112 
1.1418657281053675 
1.4504007680196278 
1.5574266371069234 
1.8044500293269292 
2.158791110243168 
2.0680628355672166 
3.031970682291205 
2.3651662750467035 
0.5099087847095646 
0.7165362822755843 
0.44442382421352467 
0.6585143765725486 
0.4480029229895547 
0.594023128044622 
0.45841902924789785 
0.5352996111229247 
0.4600910974949487 
0.48867475835726076 
0.4566489858879134 
0.4562422416605443 
0.45401346951417065 
0.43842233855000556 
0.45570860280682446 
0.4340673869827316 
0.4626020584979201 
0.44058647187151717 
0.4739450952185825 
0.45478598437198087 
0.48843978337004884 
0.4737778657543153 
0.50488241254368 
0.49543145397533883 
0.5223997429853847 
0.5183935118192817 
0.5404527360942715 
0.5419100758598084 
0.5587548001157862 
0.5656206961681032 
0.5771818203986034 
0.5893943543551582 
0.5957017020702213 
0.613218555377867 
0.6143272778872778 
0.6371319424782499 
0.6330880935806618 
0.6611870406461645 
0.6520151965053103 
0.6854319185460677 
0.6711340457646217 
0.7099028468948486 
0.6904620975881341 
0.7346228438189606 
0.7100088452085 
0.7596030237429855 
0.7297769758396142 
0.7848450031336721 
0.7497638905511628 
0.810343447293408 
0.7699631959673027 
0.836088332612323 
0.7903659914610381 
0.8620667719803827 
0.8109618956315542 
0.8882643923212115 
0.8317398178888078 
0.9146663175805492 
0.8526885090206363 
0.9412578324988772 
0.8737969335027541 
0.9680248027878864 
0.8950545054562901 
0.9949539178814625 
0.9164512246997242 
1.022032809822691 
0.9379777425257071 
1.0492500893480854 
0.9596253800696264 
1.0765953293831934 
0.9813861162472096 
1.1040590173584814 
1.003252557419082 
1.1316324910071573 
1.0252178972093782 
1.159307867308452 
1.0472758720902209 
1.1870779706748558 
1.0694207163397584 
1.2149362639950578 
1.0916471185394219 
1.242876784498688 
1.113950180829384 
1.270894085314565 
1.1363253814886158 
1.2989831829437255 
1.1587685410298807 
1.3271395104581278 
1.1812757917239556 
1.3553588760406174 
1.2038435503812863 
1.3836374263818378 
1.2264684941154882 
1.4119716144364618 
1.2491475388283289 
1.440358171049047 
1.2718778201410263 
1.4687940800192945 
1.2946566765365135 
1.4972765562179204 
1.3174816344984341 
1.5258030264299556 
1.3403503954795186 
1.5543711126622044 
1.3632608245678852 
1.58297861771733 
1.3862109407680772 
1.6116235128964778 
1.4091989088621193 
1.6403039277714282 
1.4322230328787886 
1.669018142038187 
1.4552817512316012 
1.6977645795474996 
1.4783736336566724 
1.7265418046916812 
1.5014973800697573 
1.7553485214066054 
1.5246518214320857 
1.7841835750815398 
1.5478359225098306 
1.8130459576474156 
1.571048786005584 
1.841934815916319 
1.5942896566763065 
1.8708494627808987 
1.6175579225064542 
1.8997893898986293 
1.640853107284195 
1.9287542786810101 
1.6641748443908353 
1.95774400321714 
1.687522814216047 
1.9867586134182607 
1.710896615885498 
2.0157982779449664 
1.734295525767926 
2.044863152647572 
1.7577180674623334 
2.0739531187555733 
1.781161276394115 
2.1030673022930046 
1.8046194809280276 
2.132203237133825 
1.8280823332452356 
2.1613554617962842 
1.8515316969724505 
2.1905132351374332 
1.8749368219317974 
2.2196569061506497 
1.8982469941842293 
2.248752262083907 
1.9213805249869158 
2.277741887114469 
1.9442085196479382 
2.306532166908741 
1.9665313373461437 
2.3349740458062085 
1.9880450241057548 
2.3628349564666444 
2.008294319155294 
2.3897584765795425 
2.0266082191489416 
2.4152072228014236 
2.0420137891398276 
2.438383309896424 
2.053124425038665 
2.458119508268884 
2.0580009948049507 
2.4727333092610366 
2.053989775192507 
2.479836036140443 
2.0375524642849694 
2.476091077614252 
2.004124905065428 
2.456921616760086 
1.948078360355859 
2.416183907957357 
1.8629164913980385 
2.345858943376446 
1.7419217169692587 
2.2359036309678384 
1.5795307102897171 
2.0746308720051156 
1.3736233129739062 
1.850649453848886 
1.1283196136728038 
1.55960866756817 
0.856616080666846 
1.2274295888624875 
0.6012995798889501 
0.9855404209409133 
0.6169450280197929 
1.1087156477136129 
1.2497643678259285 
1.5797689744531425 
2.403838703523841 
2.167216930958355 
3.9838577729525055 
2.920761957095827 
0.6172216639937985 
0.9443239219639333 
0.4748705287280502 
0.7813737623371632 
0.4274019182573106 
0.6122901673133031 
0.4049242775311468 
0.4854901750898794 
0.3880508566913525 
0.40665586124985975 
0.37856493429906907 
0.36846294536013885 
0.3799957693163977 
0.36124236964526096 
0.39236576061836087 
0.37495422916068105 
0.4129483497063487 
0.4008462757231321 
0.4384166991856455 
0.4327283556143022 
0.4661568812584932 
0.46691379165556984 
0.4945504840949653 
0.501498107071747 
0.5227732453895984 
0.5356527746814018 
0.5505072677861478 
0.5691319867380881 
0.5777126888525289 
0.601972003770664 
0.6044794155500651 
0.6343220148069844 
0.6309415529946152 
0.6663559845878746 
0.6572330550698173 
0.6982315099947006 
0.683468005757576 
0.7300745064946466 
0.7097345144563787 
0.7619770961309488 
0.7360954704321842 
0.7940014743052968 
0.7625922560359824 
0.8261858346648133 
0.7892493045368698 
0.8585503816447844 
0.8160784533203008 
0.8911025659950014 
0.843082649156797 
0.9238412716825012 
0.8702588876968709 
0.9567599753497893 
0.8976004294906514 
0.9898490234739612 
0.9250984015213668 
1.0230972072245272 
0.9527429098826067 
1.0564928065863184 
0.9805237814325033 
1.0900242493613574 
1.0084310343304852 
1.1236805003565562 
1.0364551570521354 
1.1574512678761706 
1.0645872565359327 
1.1913270909008575 
1.0928191200448403 
1.2252993516793345 
1.1211432225432372 
1.2593602443208363 
1.1495527015894929 
1.2935027197472786 
1.1780413145360558 
1.3277204200363488 
1.2066033876468483 
1.3620076102255003 
1.235233763131669 
1.396359112240539 
1.2639277476384436 
1.430770243450931 
1.2926810641300142 
1.4652367609448333 
1.3214898080293445 
1.4997548118120572 
1.3503504078949418 
1.5343208892108362 
1.379259590509969 
1.568931793793529 
1.4082143500848845 
1.6035845999249472 
1.4372119211886065 
1.6382766261513195 
1.466249755013653 
1.6730054093782227 
1.4953254985919695 
1.707768682308203 
1.5244369766397743 
1.742564353727653 
1.5535821757557742 
1.7773904913453122 
1.5827592307653966 
1.8122453069318074 
1.6119664130732874 
1.8471271436218548 
1.6412021209609724 
1.8820344653053305 
1.6704648718455692 
1.9169658481472718 
1.6997532966097186 
1.9519199743696247 
1.7290661362158029 
1.9868956285646577 
1.758402240926047 
2.0218916969365925 
1.7877605725781642 
2.0569071700449917 
1.8171402104824148 
2.091941149795946 
1.8465403615950844 
2.126992861623796 
1.8759603756532792 
2.1620616729823 
1.9053997658270883 
2.1971471194033905 
1.9348582350546872 
2.2322489393744 
1.9643357073405376 
2.267367119052396 
1.9938323616138638 
2.3025019471264927 
2.0233486627329396 
2.3376540786752993 
2.0528853791374626 
2.372824604108468 
2.0824435683310885 
2.408015114504021 
2.112024498180208 
2.44322774668013 
2.1416294515276673 
2.478465178553877 
2.171259330449003 
2.513730525257028 
2.2009139299107177 
2.549027055710706 
2.230590682155988 
2.584357602977029 
2.2602825742167663 
2.6197234730011343 
2.2899748002842393 
2.6551225560199088 
2.319639514112187 
2.690546200524249 
2.3492277773214325 
2.725974204694452 
2.3786574389381507 
2.7613669934042435 
2.4077952128397557 
2.7966536533593387 
2.4364306346800615 
2.8317139621916767 
2.464238892523921 
2.866351831644544 
2.4907287988265407 
2.9002566492694974 
2.5151715641751524 
2.932947805555893 
2.5365058800788898 
2.963696193834338 
2.5532157620271234 
2.9914146248877485 
2.563180801199233 
3.014506833498781 
2.563505876896117 
3.030661888539036 
2.5503520227432714 
3.036576883961701 
2.518815953764485 
3.0275847193493926 
2.4629451811129535 
2.9971536341267995 
2.376018645833262 
2.936209080146203 
2.251206971452384 
2.8322124745993427 
2.0824104476292873 
2.6679669134265636 
1.8637184734512324 
2.4204709085453824 
1.5819779903669386 
2.062071669988238 
1.190412854204038 
1.5766648547439748 
0.5654171705937915 
1.0721779580068063 
0.6614143222590896 
1.1786309420839953 
2.5062070864371773 
2.1169058245703902 
5.115879350925615 
3.5270429403771395 
0.7138750266435165 
1.2566252746481008 
0.48099570503768585 
0.8965744952163832 
0.3791476083299601 
0.58186931546774 
0.32411480291339645 
0.3853325691442237 
0.2947085780066296 
0.29423773208443127 
0.2904349162969186 
0.2787332318470276 
0.30850699594529174 
0.3039274164594641 
0.3410217813012079 
0.34536760619408774 
0.38025270707171965 
0.3916738530559243 
0.4213405760920709 
0.4383428612829239 
0.4619181205619588 
0.4837719364666258 
0.5011018473142665 
0.52757943642194 
0.5387552134554136 
0.569890406504852 
0.5750665911026913 
0.6110092881405015 
0.6103307265113272 
0.6512675455946905 
0.6448445918826697 
0.6909581121220288 
0.6788639837056721 
0.7303137928165094 
0.7125908908120558 
0.7695068496222711 
0.7461753572062975 
0.8086574968686004 
0.7797232257440048 
0.8478449422100977 
0.8133053884939203 
0.8871179465371005 
0.8469664898808427 
0.926503699773555 
0.8807322687657659 
0.9660147429924635 
0.914615358926405 
1.005654095665199 
0.9486196637363319 
1.0454189037113117 
0.9827435356742361 
1.0853029455819847 
1.0169820128357687 
1.125298296041639 
1.051328342903853 
1.1653963903860656 
1.0857749867917719 
1.205588674760058 
1.1203142534643604 
1.2458669788724335 
1.1549386804865007 
1.2862237080727057 
1.1896412442193889 
1.326651921824013 
1.2244154593918812 
1.3671453438184242 
1.2592554095418875 
1.4076983334212292 
1.2941557363676526 
1.448305837424438 
1.329111606500871 
1.4889633337873505 
1.364118667475177 
1.5296667742719883 
1.399173000169849 
1.5704125297528628 
1.4342710719382865 
1.6111973400752828 
1.469409692707173 
1.6520182691387284 
1.5045859750784762 
1.6928726652324464 
1.539797298760941 
1.7337581262820876 
1.5750412792026505 
1.7746724695151486 
1.6103157401265025 
1.8156137049892516 
1.6456186895367133 
1.8565800124680547 
1.680948298797778 
1.8975697211518612 
1.7163028843766042 
1.938581291870424 
1.7516808919281814 
1.9796133013816304 
1.7870808824353857 
2.0206644285365205 
1.822501520223824 
2.061733442110242 
1.857941562713162 
2.1028191902149054 
1.8933998518816801 
2.1439205912643624 
1.9288753074889 
2.1850366265871055 
1.9643669222211024 
2.2261663348640126 
1.9998737590302411 
2.2673088087210593 
2.035394951091401 
2.308463193936008 
2.0709297049481292 
2.349628691922839 
2.1064773076220296 
2.390804566353455 
2.1420371386639285 
2.4319901550610785 
2.1776086883650727 
2.473184888659088 
2.213191583569634 
2.514388317691771 
2.2487856227425462 
2.5556001505237944 
2.2843908220319697 
2.596820304651063 
2.3200074739767356 
2.6380489745675386 
2.3556362200150933 
2.6792867197786805 
2.3912781368208784 
2.720534576877318 
2.4269348342563157 
2.7617941996937834 
2.462608558774085 
2.803068031133875 
2.498302289402691 
2.8443595091256486 
2.5340198026339533 
2.8856733064963382 
2.5697656654540815 
2.9270155998259493 
2.6055450895184697 
2.9683943540515934 
2.641363539819992 
3.0098195960053515 
2.6772259324025316 
3.0513036283624437 
2.7131351697711525 
3.0928611016484844 
2.749089639202473 
3.1345088101630676 
2.7850791246100823 
3.176264999620039 
2.821078340499057 
3.2181478582012053 
2.857036968323726 
3.2601726922387333 
2.8928646441980708 
3.302347040393721 
2.928408804683149 
3.344662625468165 
2.9634226629440117 
3.387082539105919 
2.997519938656704 
3.429521342040769 
3.030112498581698 
3.4718147473002503 
3.060327200115421 
3.5136740637131174 
3.086899775891606 
3.5546182478755752 
3.1080479900938456 
3.5938724054364175 
3.121335856273189 
3.6302139165120004 
3.1235585742328027 
3.661731421375651 
3.1107062638286607 
3.685427318749235 
3.078096704542903 
3.696519134818352 
3.0207567029774287 
3.687136143108379 
2.9338927477415533 
3.643794470731251 
2.8122219143744744 
3.5424995341784054 
2.6434725280246507 
3.3397262184742185 
2.383046159027392 
2.958397287066414 
1.88817727652424 
2.2812254571822037 
0.9678517586214503 
1.3227574390824972 
2.345443727673366 
1.7964827221998048 
6.462241294538734 
4.1821292672141706 
0.7813780694809885 
1.7219514840250996 
0.4452055512509885 
0.9544582369712634 
0.29049257807072826 
0.4611010346756683 
0.214768421293031 
0.2438992396596562 
0.19829906864623245 
0.22221794770623549 
0.22714365322152 
0.26925128593071 
0.27669358320872794 
0.3240085270443573 
0.3312684240897856 
0.3773986376384709 
0.3848322289682134 
0.428850042311652 
0.43567931982005825 
0.4785868497366861 
0.48372040366383734 
0.5269238854160319 
0.5294004204401133 
0.5742088195847248 
0.5732754785590315 
0.6207735109864035 
0.6158544522594659 
0.666896151035765 
0.6575502975784341 
0.7127871332387568 
0.6986764348714831 
0.7585926823488127 
0.739459966022137 
0.8044067954599595 
0.7800593113852363 
0.8502848950341444 
0.8205810566459445 
0.8962559023314454 
0.861094133112365 
0.9423316319976316 
0.9016409645380851 
0.9885135325141812 
0.9422458465026303 
1.0347972397586234 
0.9829210389046141 
1.081175498943799 
1.0236710746953215 
1.1276399463945699 
1.06449573113732 
1.1741821334060365 
1.1053920280436553 
1.2207940677181726 
1.146355535893838 
1.2674684609775708 
1.1873812056396256 
1.3141988057044216 
1.2284638744228138 
1.360979359759097 
1.269598556785433 
1.40780508571499 
1.310780597628917 
1.4546715727042867 
1.3520057387922604 
1.5015749558554699 
1.3932701338581657 
1.5485118409079064 
1.434570333672716 
1.5954792371928246 
1.4759032568458008 
1.642474499760998 
1.5172661539416534 
1.6894952802013936 
1.5586565704823683 
1.7365394851523295 
1.6000723115402273 
1.7836052413571395 
1.6415114092905754 
1.8306908661427275 
1.6829720940086637 
1.8777948423304598 
1.7244527685286715 
1.9249157967307775 
1.7659519859157329 
1.9720524815281066 
1.8074684300020083 
2.0192037579897484 
1.8490008983887898 
2.066368582043957 
1.8905482875637276 
2.1135459913674026 
1.932109579792191 
2.1607350936963483 
1.9736838315308798 
2.207935056147327 
2.0152701631342915 
2.2551450953869523 
2.0568677497304604 
2.302364468551862 
2.098475813171705 
2.349592464880053 
2.140093615072907 
2.3968283980776657 
2.181720451003 
2.4440715995237814 
2.2233556460211 
2.4913214125046355 
2.264998551827948 
2.538577187780712 
2.3066485459680712 
2.585838280920636 
2.348305033651299 
2.6331040520029316 
2.3899674529832464 
2.6803738684855265 
2.431635284604869 
2.727647112290195 
2.4733080670482517 
2.77492319245086 
2.5149854194336436 
2.822201565049541 
2.556667073555477 
2.8694817626273594 
2.598352917852753 
2.9167634358477335 
2.640043056324399 
2.9640464109312172 
2.6817378860399956 
3.0113307673690373 
2.723438197578198 
3.0586169417100386 
2.7651453034112117 
3.1059058649827604 
2.8068611999306223 
3.1531991437433673 
2.8485887693385905 
3.2004992981354947 
2.890332027889467 
3.247810075156226 
2.9320964266253404 
3.2951368621483024 
2.9738892094190326 
3.342487235255872 
3.015719830051621 
3.389871691373091 
3.0576004241441415 
3.4373046315819695 
3.099546321278496 
3.484805691314053 
3.141576564968966 
3.532401550170962 
3.1837143793103313 
3.5801284058184635 
3.225987475362913 
3.62803536559627 
3.2684280194232094 
3.6761891009647907 
3.311071978364484 
3.724680228477273 
3.353957400981828 
3.7736320313383276 
3.3971209758609904 
3.823212321699778 
3.4405919205367854 
3.8736494670162065 
3.484381923248659 
3.925253858596353 
3.528469557146114 
3.9784463616862693 
3.572777523865019 
4.033795471213911 
3.617141708482029 
4.092064758632696 
3.6612732152247736 
4.154271035366237 
3.7047198313369134 
4.221749594502361 
3.746844023962163 
4.29621105585742 
3.7868529005266596 
4.37974264838145 
3.8239394936601614 
4.4746264958238555 
3.857600720017778 
4.582653608590116 
3.8880817460307027 
4.70316641366872 
3.9162952074678428 
4.8280934528012605 
3.940370188864152 
4.930274564137494 
3.9393312624154393 
4.937741581401836 
3.817425379111168 
4.680995472197483 
3.258802648605413 
3.801981914495032 
2.5182113010763 
2.062988255839482 
7.931810398066466 
4.783150184185302 
0.7963884108361368 
2.4472785503932943 
0.35432160601290064 
0.857808648558986 
0.1753726177018245 
0.345236668251981 
0.15155269511643854 
0.3331348978641515 
0.20445977761887002 
0.37375258104471804 
0.26776244771530033 
0.4025746460662543 
0.3274042862152829 
0.4310167879594934 
0.3824495885426307 
0.464171917473015 
0.43401273732281226 
0.5022112964469924 
0.4832869107358975 
0.5440911696860636 
0.5311850776441452 
0.5888278974702628 
0.5783284703356673 
0.6356976712218239 
0.6251105725800518 
0.6841785845349104 
0.6717656570203161 
0.7338811310969986 
0.7184238357982444 
0.7845057426390212 
0.765150547242785 
0.8358195944987598 
0.8119730594487584 
0.8876426867379322 
0.8588974081739201 
0.9398377765773382 
0.9059187655935362 
0.9923020232597374 
0.9530275134875215 
1.0449597412417848 
1.0002126166919447 
1.0977561837769938 
1.047463361034458 
1.1506523709115453 
1.094770138706548 
1.2036209301143905 
1.1421247052191896 
1.2566428565086691 
1.189520163135479 
1.3097050609922916 
1.2369508207686646 
1.362798561880061 
1.2844120080406551 
1.415917182043749 
1.3318998921493062 
1.4690566303538153 
1.3794113127207779 
1.5222138672226282 
1.4269436433523317 
1.5753866749728491 
1.4744946798059975 
1.6285733725501421 
1.5220625520117288 
1.681772629717462 
1.5696456559445813 
1.7349833483766905 
1.617242601360037 
1.788204588149072 
1.6648521718045113 
1.841435520475172 
1.7124732939104896 
1.8946754005884168 
1.7601050135926761 
1.9479235503604382 
1.8077464773158496 
2.001179347487563 
1.8553969170541935 
2.0544422182014626 
1.9030556379241685 
2.107711631767982 
1.9507220077449166 
2.16098709577477 
1.9983954479875514 
2.21426815163179 
2.046075425722384 
2.2675543699879936 
2.0937614462811163 
2.320845345910063 
2.1414530464331016 
2.3741406937669076 
2.189149787928466 
2.4274400417862294 
2.2368512513191154 
2.4807430263020707 
2.284557030001354 
2.5340492856992087 
2.33226672447553 
2.587358454106944 
2.3799799368636494 
2.6406701549001124 
2.42769626578281 
2.6939839941232133 
2.4754153017458016 
2.7472995539925043 
2.5231366233456587 
2.800616386729626 
2.5708597945916245 
2.853934009057139 
2.6185843638998922 
2.9072518978383703 
2.6663098654106907 
2.9605694874842707 
2.7140358235115984 
3.013886169968236 
2.7617617616986183 
3.06720129851386 
2.80948721722416 
3.1205141963361194 
2.857211763367584 
3.173824172164575 
2.90493504165378 
3.2271305447585625 
2.9526568069658485 
3.2804326791963616 
3.000376989303905 
3.3337300385339774 
3.0480957770228883 
3.3870222555103555 
3.0958137278413616 
3.44030923057473 
3.143531915957089 
3.4935912648357386 
3.1912521265069533 
3.5468692400877533 
3.2389771127646765 
3.600144863472499 
3.286710937512413 
3.653421002670458 
3.3344594287844003 
3.7067021502890274 
3.382230792915719 
3.759995075657748 
3.430036446211568 
3.8133097518521932 
3.4778921529118016 
3.866660690298082 
3.5258195945271877 
3.9200688815293048 
3.573848548056734 
3.97356463820913 
3.6220199230570773 
4.027191778589453 
3.6703900060838537 
4.08101379342965 
3.7190363926667187 
4.1351229317705664 
3.768066259443955 
4.189653554492707 
3.8176278504462924 
4.24480168470881 
3.8679263301840496 
4.300853492707235 
3.9192455018428407 
4.358226575420504 
3.9719773168888377 
4.417529444806495 
4.026661645402308 
4.479646792324156 
4.084039511911331 
4.545861078328452 
4.145124108518385 
4.6180251053131025 
4.211295766476094 
4.698805787538605 
4.284430496723682 
4.792026400093134 
4.367078213555864 
4.903142152200745 
4.462718936811102 
5.0398873652542475 
4.576146768679752 
5.2131169485361895 
4.71406409568687 
5.4377881412216444 
4.885996735116334 
5.733780408973731 
5.1055650915754835 
6.12555844975087 
5.391526599533913 
6.637889741891326 
5.7651389723941175 
7.280376747744812 
6.229154317706403 
8.002667092378227 
6.672229013878326 
8.574223319051866 
6.4901073741790825 
8.231874687874248 
9.087227508906388 
5.261199829312257 
0.8212424486910408 
3.9122942390805773 
0.3398949433650655 
1.1420731769683676 
0.2967476621462928 
0.8869369551008021 
0.33984547201353393 
0.7396762622610729 
0.37840512158978595 
0.6352474158101695 
0.41034893852387067 
0.5770952135461094 
0.44121889600294806 
0.5555110348788429 
0.4743776224292152 
0.559558110303478 
0.5110979679912004 
0.5810255290705989 
0.5514856361822552 
0.6143804108743427 
0.5951244154176962 
0.655938179706926 
0.6414291866315486 
0.7031947806156991 
0.6898163526105706 
0.7544107069074298 
0.7397751375305589 
0.8083618235076733 
0.7908888184827324 
0.864183800567286 
0.8428324302514407 
0.9212687530971148 
0.8953607545475404 
0.9791929417544579 
0.9482935336662842 
1.0376646078613772 
1.0015011986570628 
1.0964858411955667 
1.0548924867111518 
1.1555246865508126 
1.1084043415039722 
1.2146948813994354 
1.161994014206934 
1.2739413052793143 
1.215633078732714 
1.3332296785573055 
1.2693030136815293 
1.3925393856856894 
1.322992013953739 
1.4518585619902193 
1.3766927371117885 
1.511180793467406 
1.4304007419275229 
1.570502946000501 
1.484113427865876 
1.6298237709732804 
1.5378293295981205 
1.689143034239426 
1.5915476580983994 
1.7484609905019075 
1.6452680096286103 
1.8077780802985075 
1.698990186624122 
1.8670947665547868 
1.7527140915269128 
1.9264114556701415 
1.8064396669102238 
1.9857284675772833 
1.8601668641040525 
2.045046032331052 
1.9138956286500883 
2.1043642995825134 
1.967625895158383 
2.1636833529380137 
2.021357586937984 
2.2230032248198266 
2.075090617659755 
2.282323909613638 
2.1288248934632223 
2.3416453742064065 
2.182560314684497 
2.4009675657001712 
2.236296776798596 
2.4602904164721258 
2.2900341704365172 
2.519613846866645 
2.3437723804557047 
2.57893776587029 
2.397511284122029 
2.638262070055658 
2.4512507484614274 
2.6975866410589884 
2.504990626880271 
2.7569113417702433 
2.5587307551205765 
2.8162360113990728 
2.6124709466586427 
2.8755604595197095 
2.666210987647009 
2.9348844592095324 
2.7199506315566753 
2.9942077393889552 
2.7736895937083985 
3.0535299765214017 
2.8274275459806253 
3.1128507858753776 
2.881164112055254 
3.1721697126571486 
2.934898863719275 
3.2314862234193957 
2.9886313188769775 
3.2907996983222274 
3.0423609421516447 
3.350109424983018 
3.0960871491792195 
3.409414594885523 
3.149809316017254 
3.4687143035580053 
3.20352679543851 
3.528007556034449 
3.2572389423690193 
3.587293279451491 
3.3109451513033106 
3.6465703450628633 
3.3646449093620725 
3.705837602484139 
3.418337869764908 
3.7650939297432906 
3.472023952153687 
3.8243383038089407 
3.5257034786433654 
3.8835698980426554 
3.5793773582536543 
3.9427882158699266 
3.6330473381651722 
4.001993274717924 
3.6867163492510633 
4.0611858621114365 
3.740388987216626 
4.120367898718491 
3.7940721920351526 
4.179542964061655 
3.8477762208447976 
4.238717074111506 
3.901516058472287 
4.297899852822968 
3.955313482782032 
4.357106321898434 
4.009200109786201 
4.416359659254723 
4.063221900483465 
4.475695467986046 
4.117445837736147 
4.535168384303982 
4.171969803964283 
4.594862278197797 
4.226937144801151 
4.654905925856879 
4.28255803706972 
4.715496946012593 
4.339140653048028 
4.776938119745885 
4.397136307275375 
4.839692140345321 
4.457204393160981 
4.904463645026471 
4.520305107497508 
4.972321496751514 
4.587830923386332 
5.044880411600781 
4.661791808410486 
5.124570342306149 
4.745074786505762 
5.215036586583061 
4.841806486143028 
5.321737084580859 
4.95785954549734 
5.452842576346111 
5.101564025321466 
5.6206127193332085 
5.2847228795235095 
5.843539874314727 
5.524111800370095 
6.149763044738026 
5.843841080181466 
6.582626007735441 
6.279476618801265 
7.209884138985932 
6.886214022033146 
8.139032247201566 
7.756946516560102 
9.542332103617866 
9.063290736008007 
11.694937918602587 
11.13547991284245 
15.023034006613708 
14.475192174055218 
20.147733617282384 
17.893790241008425 
28.336171605368424 
POINT_DATA 2121
FIELD FieldData 1
displacement_1 3 2121 float
0.0015234114735680024 -0.01104929056436424 0
0.0015220943847231957 -0.010875169543157684 0
0.001518158324518233 -0.010713867792509692 0
0.00151452102290379 -0.010556717125543439 0
0.0015114222680963827 -0.010401543582602578 0
0.0015087224118744127 -0.010247453905496043 0
0.0015062511339763729 -0.01009401960957269 0
0.0015038703562812613 -0.009941025292848333 0
0.001501478439362626 -0.009788363642742218 0
0.0014990028989767205 -0.009635985436642593 0
0.0014963926209665584 -0.009483873858503328 0
0.0014936117316425297 -0.009332030595577854 0
0.0014906351414711934 -0.009180468016923215 0
0.0014874453774657047 -0.009029204652910827 0
0.0014840303396916562 -0.008878262539746194 0
0.001480381709470058 -0.008727665650335963 0
0.0014764938179949044 -0.008577438971220663 0
0.001472362842368557 -0.008427607968043127 0
0.0014679862357842093 -0.008278198285116348 0
0.0014633623255949802 -0.008129235585011345 0
0.0014584900316845734 -0.007980745470458253 0
0.0014533686707432316 -0.007832753453215881 0
0.0014479978215364894 -0.007685284948468168 0
0.0014423772331558214 -0.00753836528197792 0
0.0014365067632914552 -0.0073920197026141774 0
0.001430386337265926 -0.007246273396176701 0
0.0014240159212654353 -0.007101151498433099 0
0.001417395505162771 -0.006956679106449398 0
0.001410525091732795 -0.006812881287947195 0
0.0014034046900642221 -0.006669783088760976 0
0.0013960343116783843 -0.006527409538624857 0
0.0013884139683586802 -0.006385785655569617 0
0.001380543671034105 -0.006244936449206446 0
0.0013724234292913147 -0.00610488692314362 0
0.0013640532512447581 -0.005965662076742334 0
0.0013554331435968875 -0.00582728690637763 0
0.001346563111787068 -0.005689786406333972 0
0.0013374431601702135 -0.005553185569434347 0
0.0013280732921925754 -0.005417509387477031 0
0.0013184535105480264 -0.005282782851534772 0
0.0013085838173074102 -0.005149030952156423 0
0.001298464214018485 -0.0050162786795002 0
0.0012880947017764306 -0.004884551023419771 0
0.0012774752812657298 -0.004753872973518858 0
0.0012666059527743046 -0.00462426951918624 0
0.0012554867161802888 -0.0044957656496207804 0
0.0012441175709112257 -0.004368386353854698 0
0.0012324985158748017 -0.004242156620783139 0
0.0012206295493596474 -0.004117101439208253 0
0.001208510668904329 -0.003993245797907187 0
0.001196141871132525 -0.0038706146857349763 0
0.0011835231515526308 -0.0037492330917755757 0
0.0011706545043208597 -0.0036291260055570955 0
0.00115753592196844 -0.0035103184173507665 0
0.0011441673950961203 -0.0033928353185770977 0
0.001130548912043175 -0.003276701702347193 0
0.0011166804585440058 -0.003161942564171939 0
0.0011025620173938158 -0.0030485829028766365 0
0.0010881935681565623 -0.0029366477217630214 0
0.0010735750869644521 -0.0028261620300637207 0
0.0010587065464798251 -0.0027171508447348786 0
0.0010435879161189254 -0.0026096391926290147 0
0.0010282191626744452 -0.002503652113079302 0
0.0010126002515217147 -0.0023992146609045687 0
0.0009967311486539414 -0.002296351909805287 0
0.000980611823866456 -0.0021950889560567364 0
0.0009642422554993327 -0.0020954509223047356 0
0.0009476224372508629 -0.001997462961116329 0
0.0009307523876867774 -0.0019011502577113359 0
0.0009136321631816656 -0.0018065380309729346 0
0.0008962618751199706 -0.0017136515313701838 0
0.0008786417122193696 -0.0016225160337772532 0
0.0008607719687607798 -0.001533156822288012 0
0.0008426530792224652 -0.0014455991629370763 0
0.0008242856591735607 -0.0013598682586818463 0
0.0008056705510603568 -0.0012759891790126421 0
0.0007868088713822811 -0.001193986754101324 0
0.0007677020522142084 -0.001113885420489728 0
0.0007483518643846815 -0.001035709002080977 0
0.0007287604008728916 -0.0009594804069388201 0
0.0007089299857586594 -0.0008852212177373099 0
0.0006888629544462905 -0.0008129511527276992 0
0.000668561222279374 -0.0007426873766116969 0
0.0006480255174849365 -0.0006744436495913263 0
0.0006272540956044496 -0.0006082293224800142 0
0.0006062406688584995 -0.0005440482226754742 0
0.0005849711639477565 -0.0004818975398868006 0
0.000563418746981523 -0.00042176692704322475 0
0.0005415362918624352 -0.00036363820585826024 0
0.0005192450584652673 -0.0003074863529939606 0
0.0004964176757156416 -0.00025328293029038153 0
0.00047285237454773414 -0.00020100400168514984 0
0.00044823336901418415 -0.00015064628873269449 0
0.00042206854401210896 -0.00010225891998258517 0
0.0003935886747642587 -5.6006336534099706e-5 0
0.00036157948708749816 -1.2298012560263302e-5 0
0.00032409371140895596 2.7926288326121743e-5 0
0.0002779431686786368 6.251265696598015e-5 0
0.00021775368909511303 8.624171174215736e-5 0
0.00013375635495673627 8.460063112183167e-5 0
0.0 0.0 0
0.0013616176955615659 -0.011037238932624817 0
0.00135909471680331 -0.010873339487840108 0
0.0013586755511149058 -0.010712770218572297 0
0.0013576496715284837 -0.010555812724676228 0
0.001356243317284339 -0.01040074432228564 0
0.0013546340324675026 -0.010246710844679298 0
0.0013528916198795565 -0.010093296189077184 0
0.0013510303213580615 -0.009940293906789804 0
0.0013490409776269357 -0.009787603759342227 0
0.0013469067882943106 -0.009635181977623303 0
0.0013446103124378766 -0.009483015859370883 0
0.0013421362031874123 -0.009331110152577603 0
0.001339471975459799 -0.009179479481525579 0
0.0013366079285539872 -0.009028144024495945 0
0.001333536754294928 -0.008877127011955376 0
0.0013302530723954683 -0.008726453274844123 0
0.0013267529955330666 -0.008576148410490975 0
0.0013230337608240229 -0.008426238315045723 0
0.001319093434298747 -0.008276748933069736 0
0.0013149306822303778 -0.008127706134181453 0
0.0013105445987173121 -0.007979135662158741 0
0.0013059345783179245 -0.007831063123577828 0
0.001301100223585028 -0.007683513996428058 0
0.001296041278972211 -0.007536513647380552 0
0.001290757584272497 -0.007390087351430148 0
0.0012852490422770731 -0.007244260310665398 0
0.0012795155966276524 -0.007099057670701126 0
0.0012735572168710945 -0.006954504534309813 0
0.0012673738885318954 -0.0068106259723158665 0
0.0012609656066321553 -0.006667447032063958 0
0.0012543323715463127 -0.006524992743859095 0
0.0012474741864132483 -0.006383288125777161 0
0.0012403910555700492 -0.006242358187203871 0
0.001233082983643476 -0.006102227931403863 0
0.0012255499750553852 -0.005962922357363497 0
0.0012177920337814005 -0.0058244664610980134 0
0.0012098091632586274 -0.0056868852365686675 0
0.0012016013663760851 -0.00555020367631901 0
0.0011931686455065296 -0.00541444677191077 0
0.0011845110025544984 -0.005279639514218001 0
0.0011756284390056747 -0.00514580689362175 0
0.001166520955968985 -0.005012973900135611 0
0.0011571885542065834 -0.004881165523483981 0
0.0011476312341490084 -0.004750406753148885 0
0.0011378489958938757 -0.00462072257839732 0
0.0011278418391869776 -0.004492137988298563 0
0.0011176097633847932 -0.00436467797173961 0
0.0011071527673974456 -0.004238367517446581 0
0.0010964708496111273 -0.004113231614020265 0
0.0010855640077891578 -0.003989295249995136 0
0.0010744322389511477 -0.0038665834139328995 0
0.0010630755392304315 -0.003745121094563995 0
0.0010514939037110623 -0.0036249332809935343 0
0.0010396873262474664 -0.0035060449629917907 0
0.0010276557992725168 -0.003388481131393728 0
0.0010153993136035875 -0.0032722667786369212 0
0.001002917858261444 -0.003157426899472639 0
0.0009902114203240392 -0.0030439864918904284 0
0.0009772799848468924 -0.002931970558301929 0
0.0009641235348943642 -0.0028214041070340062 0
0.0009507420517424432 -0.002712312154183541 0
0.0009371355153343563 -0.002604719725884405 0
0.0009233039050960553 -0.002498651861028638 0
0.0009092472012499899 -0.002394133614464472 0
0.0008949653868026289 -0.002291190060657794 0
0.0008804584504234149 -0.0021898462977423872 0
0.0008657263904782758 -0.002090127451786114 0
0.0008507692205253921 -0.001992058680948588 0
0.0008355869766169966 -0.0018956651789785145 0
0.0008201797267654054 -0.0018009721771658424 0
0.000804547582902658 -0.0017080049433858757 0
0.0007886907155569881 -0.001616788776199277 0
0.0007726093712333087 -0.0015273489910413137 0
0.0007563038920400556 -0.0014397108942715766 0
0.0007397747363347896 -0.0013538997391791144 0
0.0007230224978977666 -0.0012699406558639027 0
0.0007060479191475403 -0.0011878585441755564 0
0.0006888518908526952 -0.0011076779155604316 0
0.0006714354262135113 -0.0010294226658183394 0
0.0006537995904759721 -0.0009531157566412039 0
0.0006359453575976032 -0.0008787787799307408 0
0.000617873351890059 -0.0008064313762722284 0
0.0005995834137633011 -0.0007360904793051693 0
0.0005810739032305997 -0.0006677693639069992 0
0.0005623406211572897 -0.000601476492571126 0
0.0005433751850478271 -0.0005372141881123207 0
0.0005241626432000762 -0.0004749772228996529 0
0.000504678050929005 -0.00041475152320485757 0
0.0004848816750332255 -0.00035651337318691185 0
0.0004647124644698625 -0.0003002298248761924 0
0.0004440794924775673 -0.0002458615955277996 0
0.00042285139438317024 -0.0001933708110665928 0
0.00040084475333737786 -0.00014273808384515543 0
0.00037781471369919596 -9.399783620941779e-5 0
0.0003534564976575781 -4.731034525830374e-5 0
0.0003274382091291905 -3.1102961054329213e-6 0
0.0002995085263610977 3.757977381138762e-5 0
0.0002697608118842635 7.246982639110144e-5 0
0.00023915966410891707 9.649022834668052e-5 0
0.00021023490927986248 9.841762470293889e-5 0
0.0001865963435703217 5.522436647664177e-5 0
0.0012046570941478749 -0.011028524165648517 0
0.001202659751828215 -0.01087001213328536 0
0.0012022573974962503 -0.010711968048914012 0
0.001202154295488146 -0.010555485866565888 0
0.0012017214235553143 -0.010400443984247864 0
0.0012009285365571878 -0.010246346853448576 0
0.001199836689422062 -0.01009285577083214 0
0.0011984975269168166 -0.009939779002454647 0
0.001196942394222542 -0.009787017250866852 0
0.0011951875290608233 -0.009634525412005294 0
0.001193240037509995 -0.0094822896587881 0
0.0011911020793331985 -0.009330314127016131 0
0.0011887733976018425 -0.00917861319846221 0
0.001186252728436361 -0.009027207012673058 0
0.0011835385334160755 -0.00887611885359392 0
0.0011806293471688831 -0.008725373635710834 0
0.0011775239171148524 -0.008574997039795718 0
0.0011742212372677944 -0.008425015033133849 0
0.0011707205326024904 -0.008275453616022324 0
0.00116702122411128 -0.008126338699429046 0
0.001163122889770276 -0.007977696056596545 0
0.0011590252284455031 -0.00782955131441167 0
0.0011547280294219114 -0.007681929964448038 0
0.0011502311480481849 -0.007534857382191339 0
0.0011455344869841985 -0.007388358848167644 0
0.00114063798216081 -0.007242459567796741 0
0.0011355415925015974 -0.0070971846885894705 0
0.0011302452925414067 -0.006952559314304594 0
0.0011247490672157984 -0.006808608516195322 0
0.0011190529082421583 -0.006665357341708121 0
0.0011131568116463006 -0.006522830821069785 0
0.00110706077609986 -0.006381053972189006 0
0.0011007648018227145 -0.006240051804249692 0
0.0010942688898732057 -0.0060998493203109775 0
0.0010875730417003943 -0.005960471519166239 0
0.0010806772588702973 -0.005821943396657604 0
0.0010735815429053796 -0.005684289946595183 0
0.0010662858951958328 -0.005547536161392537 0
0.0010587903169547433 -0.005411707032500197 0
0.0010510948091984862 -0.0052768275506966476 0
0.0010431993727400353 -0.005142922706279526 0
0.001035104008187034 -0.005010017489187544 0
0.0010268087159392857 -0.00487813688907502 0
0.0010183134961820161 -0.00474730589535491 0
0.0010096183488724475 -0.004617549497222162 0
0.0010007232737178709 -0.004488892683666843 0
0.0009916282701438832 -0.004361360443485071 0
0.0009823333372517534 -0.004234977765295535 0
0.000972838473764199 -0.004109769637569729 0
0.0009631436779591912 -0.003985761048685204 0
0.0009532489475919286 -0.0038629769870129316 0
0.0009431542798058046 -0.003741442441052282 0
0.0009328596710342763 -0.0036211823996302648 0
0.0009223651168969827 -0.0035022218521854765 0
0.0009116706120955216 -0.0033845857891616586 0
0.0009007761503170261 -0.00326829920254089 0
0.0008896817241573543 -0.003153387086552119 0
0.0008783873250804246 -0.003039874438596651 0
0.0008668929434363235 -0.0029277862604380174 0
0.0008551985685683829 -0.0028171475597086274 0
0.0008433041890488111 -0.002707983351788463 0
0.000831209793093687 -0.0026003186621102676 0
0.0008189153692213283 -0.002494178528938138 0
0.0008064209072329425 -0.0023895880066485175 0
0.0007937263996105934 -0.0022865721695081295 0
0.0007808318434436451 -0.0021851561158843227 0
0.0007677372430090376 -0.0020853649727276056 0
0.0007544426131395427 -0.001987223900017801 0
0.0007409479835123143 -0.0018907580946418104 0
0.0007272534039693917 -0.001795992792842835 0
0.0007133589509303673 -0.001702953269908855 0
0.000699264734857686 -0.0016116648351022637 0
0.000684970908562395 -0.001522152818910525 0
0.0006704776758581835 -0.0014344425484455999 0
0.0006557852996377771 -0.0013485593051545189 0
0.0006408941077963067 -0.0012645282568407882 0
0.00062580449448181 -0.0011823743532670163 0
0.0006105169128155053 -0.0011021221712890813 0
0.0005950318533808466 -0.001023795691633168 0
0.0005793498003153574 -0.0009474179853217655 0
0.0005634711536692434 -0.000873010783951208 0
0.0005473961028427908 -0.0008005939056154224 0
0.0005311244316689522 -0.0007301845092039636 0
0.0005146552319410328 -0.0006617961573828959 0
0.0004979865009814554 -0.000595437688268898 0
0.00048111460469494325 -0.0005311119366119214 0
0.0004640336095658671 -0.0004688144220319718 0
0.0004467345430090106 -0.0004085322594600513 0
0.00042920476476708736 -0.00035024378870832253 0
0.0004114278832077108 -0.00029391984385216714 0
0.0003933851342064181 -0.00023952833315330212 0
0.0003750600259542598 -0.00018704514977566536 0
0.00035644957949690766 -0.00013647690205608427 0
0.0003375878958538004 -8.79055111179893e-5 0
0.0003185909194860942 -4.157310117442737e-5 0
0.000299733374722638 1.959487753888984e-6 0
0.00028156272039842636 4.152310970846837e-5 0
0.0002650175855766064 7.483406970738752e-5 0
0.00025138647765165465 9.771054962727811e-5 0
0.0002415864870493522 0.00010338459981655296 0
0.00023374051958194138 8.529663519034714e-5 0
0.0010505101122677614 -0.011022049789652667 0
0.0010489425492133562 -0.010866669277315319 0
0.001048429249254753 -0.010710676137437562 0
0.0010483860100678154 -0.010555113409292447 0
0.0010483130466666217 -0.010400313140739532 0
0.0010479832819262338 -0.010246211715216988 0
0.0010473551829409855 -0.010092640761868693 0
0.0010464464489543903 -0.009939467031078945 0
0.0010452852653186691 -0.009786609605130461 0
0.001043895991922013 -0.009634028019715772 0
0.0010422965839350044 -0.009481708657677433 0
0.0010404994102557019 -0.009329654654662733 0
0.0010385127036298789 -0.009177879242197226 0
0.0010363418374554716 -0.009026401565397291 0
0.001033990274728938 -0.008875244123615931 0
0.0010314602255957078 -0.008724431235245626 0
0.0010287530877028741 -0.008573988136218116 0
0.00102586973588692 -0.008423940465234724 0
0.0010228107108801222 -0.008274313981726742 0
0.0010195763414926893 -0.008125134421359984 0
0.0010161668233488496 -0.007976427430755977 0
0.00101258226937543 -0.007828218546096362 0
0.001008822741975301 -0.007680533194560436 0
0.0010048882733570772 -0.007533396706360328 0
0.001000778878233375 -0.007386834330520755 0
0.0009964945616280946 -0.007240871250784234 0
0.0009920353235734194 -0.007095532599919673 0
0.0009874011618506238 -0.0069508434717862186 0
0.0009825920735190721 -0.0068068289310792285 0
0.000977608055710146 -0.006663514020965145 0
0.0009724491059881446 -0.0065209237689230455 0
0.0009671152224668333 -0.006379083191130156 0
0.0009616064037970629 -0.006238017295702561 0
0.0009559226490941754 -0.006097751085057612 0
0.0009500639578444081 -0.005958309557615181 0
0.0009440303298113132 -0.005819717709009086 0
0.0009378217649521868 -0.005682000532940196 0
0.000931438263348139 -0.005545183021770297 0
0.0009248798251478764 -0.005409290166930051 0
0.0009181464505235366 -0.005274346959194653 0
0.0009112381396361172 -0.005140378388866088 0
0.0009041548926079137 -0.005007409445889958 0
0.0008968967094994789 -0.004875465119927119 0
0.0008894635902889201 -0.0047445704003949195 0
0.0008818555348516308 -0.004614750276489237 0
0.0008740725429389037 -0.004486029737196276 0
0.0008661146141541575 -0.004358433771301913 0
0.0008579817479258317 -0.0042319873674060895 0
0.0008496739434762848 -0.00410671551395022 0
0.0008411911997863985 -0.003982643199266745 0
0.0008325335155559577 -0.003859795411661665 0
0.0008237008891603893 -0.003738197139543322 0
0.0008146933186050212 -0.003617873371613753 0
0.0008055108014788265 -0.003498849097142673 0
0.0007961533349105524 -0.003381149306348464 0
0.000786620915531348 -0.003264798990915643 0
0.0007769135394494341 -0.0031498231446837137 0
0.0007670312022440785 -0.0030362467645481937 0
0.0007569738989880924 -0.002924094851620212 0
0.000746741624310258 -0.0028133924126959764 0
0.0007363343725113901 -0.002704164462090298 0
0.0007257521377500724 -0.0025964360238877643 0
0.0007149949143162016 -0.0024902321346582552 0
0.0007040626970121547 -0.0023855778466669105 0
0.0006929554816622617 -0.00228249823157676 0
0.0006816732657711002 -0.0021810183845876285 0
0.0006702160493496312 -0.002081163428866848 0
0.0006585838359255225 -0.0019829585199913897 0
0.000646776633750832 -0.0018864288499174386 0
0.000634794457218527 -0.0017915996496962083 0
0.0006226373285031626 -0.0016984961897300145 0
0.000610305279458158 -0.0016071437757676508 0
0.0005977983538460035 -0.0015175677380207264 0
0.0005851166100711298 -0.0014297934096823286 0
0.0005722601247648888 -0.0013438460896807493 0
0.000559228997896326 -0.0012597509826429427 0
0.0005460233606413685 -0.0011775331067347388 0
0.0005326433881748246 -0.0010972171573005512 0
0.0005190893210641252 -0.0010188273111641436 0
0.0005053615013607852 -0.0009423869533917309 0
0.0004914604332960019 -0.0008679183059237057 0
0.00047738688445671376 -0.0007954419370027931 0
0.00046314205266806657 -0.0007249761339874342 0
0.0004487278385230657 -0.0006565361337503553 0
0.0004341472868628717 -0.0005901332308084184 0
0.00041940529797774835 -0.0005257738341592924 0
0.00040450976984121275 -0.0004634586367990461 0
0.0003894734305877861 -0.0004031822252731327 0
0.00037431677695568124 -0.00034493373629264037 0
0.00035907277717064673 -0.0002886996378198451 0
0.000343794350698529 -0.00023447049197197634 0
0.00032856609172156906 -0.0001822548300075295 0
0.0003135221189740674 -0.00013210529487470165 0
0.0002988718149084271 -8.416526983493813e-5 0
0.0002849331916100438 -3.8748332902414926e-5 0
0.00027216639746191463 3.5333006103399342e-6 0
0.00026118046237039584 4.157816399135962e-5 0
0.0002526424485362093 7.35633620396145e-5 0
0.0002469381024790447 9.683834840578004e-5 0
0.00024336008490156798 0.00010864645482004308 0
0.00023891647260809932 0.00011011544901099615 0
0.0008979849312206207 -0.01101714374133474 0
0.0008967442387651175 -0.010863657874419416 0
0.0008961870878570961 -0.010709176490667457 0
0.0008960586766195443 -0.010554528299909743 0
0.0008960421475797621 -0.010400139293382253 0
0.000895912517146753 -0.010246150183454034 0
0.0008955635713847729 -0.010092554412608486 0
0.0008949664419275483 -0.009939302434114353 0
0.0008941263372618969 -0.00978635093702474 0
0.0008930595476628866 -0.009633674926026289 0
0.0008917835995950917 -0.009481266343555839 0
0.0008903137318052979 -0.009329129648333271 0
0.0008886620642795067 -0.009177277704007275 0
0.0008868377926851687 -0.009025728715526506 0
0.0008848476955082038 -0.008874504145942104 0
0.0008826966705881134 -0.008723627369579141 0
0.0008803882023928146 -0.00857312283120912 0
0.000877924736992282 -0.00842301553686204 0
0.0008753079702031192 -0.008273330755375926 0
0.0008725390631911137 -0.00812409385055289 0
0.0008696188008201433 -0.007975330192284183 0
0.0008665477062627648 -0.007827065114067767 0
0.0008633261229068867 -0.007679323896765493 0
0.0008599542721979557 -0.007532131766396507 0
0.0008564322940088093 -0.007385513898769238 0
0.0008527602744763221 -0.007239495426854821 0
0.0008489382649523159 -0.007094101448688168 0
0.0008449662947281389 -0.00694935703469921 0
0.0008408443794490473 -0.006805287234016271 0
0.0008365725265827724 -0.006661917079632549 0
0.0008321507389024317 -0.006519271592502276 0
0.0008275790166511503 -0.006377375784708956 0
0.0008228573588463892 -0.006236254661868889 0
0.0008179857640338397 -0.00609593322492603 0
0.0008129642306974927 -0.005956436471474281 0
0.0008077927574611938 -0.005817789396720106 0
0.000802471343168691 -0.005680016994175226 0
0.0007969999868967229 -0.005543144256149341 0
0.0007913786879344522 -0.005407196174095923 0
0.000785607445748734 -0.005272197738850994 0
0.0007796862599460819 -0.005138173940794486 0
0.0007736151302368204 -0.00500514976995606 0
0.0007673940564038055 -0.004873150216081603 0
0.0007610230382762973 -0.004742200268672674 0
0.0007545020757086909 -0.0046123249170084086 0
0.000747831168563379 -0.004483549150157821 0
0.0007410103166969328 -0.004355897956989511 0
0.0007340395199488267 -0.004229396326185815 0
0.0007269187781320564 -0.004104069246268835 0
0.0007196480910251048 -0.003979941705646996 0
0.0007122274583648589 -0.0038570386926923333 0
0.0007046568798401015 -0.0037353851958610656 0
0.0006969363550852246 -0.0036150062038727516 0
0.000689065883673648 -0.0034959267059668166 0
0.0006810454651101458 -0.0033781716922592106 0
0.0006728750988207326 -0.003261766154226557 0
0.0006645547841378986 -0.0031467350853501457 0
0.0006560845202776308 -0.0030331034819573817 0
0.0006474643063027086 -0.002920896344303294 0
0.0006386941410639866 -0.002810138677939126 0
0.0006297740231076219 -0.002700855495417483 0
0.0006207039505312358 -0.002593071818383016 0
0.0006114839207658081 -0.0024868126800916494 0
0.0006021139302527342 -0.0023821031283871932 0
0.0005925939739775566 -0.002278968229137289 0
0.0005829240448146431 -0.0021774330700851706 0
0.0005731041326331843 -0.0020775227650013622 0
0.0005631342231190035 -0.00197926245790948 0
0.000553014296286984 -0.0018826773269978807 0
0.0005427443247087426 -0.0017877925875958184 0
0.0005323242715809661 -0.0016946334932653041 0
0.0005217540889448175 -0.001603225333609818 0
0.0005110337166867063 -0.0015135934267956584 0
0.0005001630834810677 -0.0014257631039859442 0
0.0004891421116873923 -0.0013397596818687048 0
0.00047797072954576834 -0.0012556084181985826 0
0.00046664889605298925 -0.0011733344437753956 0
0.0004551766469578302 -0.0010929626626206964 0
0.0004435541748173475 -0.001014517610464903 0
0.0004317819625807975 -0.000938023260398181 0
0.0004198609994730678 -0.0008635027643797332 0
0.00040779312101984317 -0.0007909781215177709 0
0.0003955815331438521 -0.0007204697708304626 0
0.0003832316049163158 -0.0006519961212896658 0
0.0003707520476112573 -0.0005855730614577958 0
0.0003581566411774501 -0.0005212135448490576 0
0.0003454667247670608 -0.0004589274409023448 0
0.0003327147354212555 -0.00039872199907545935 0
0.00031994915278194203 -0.0003406035301396187 0
0.000307241267581718 -0.00028458131212693243 0
0.0002946941823371544 -0.00023067533524137986 0
0.000282454240031791 -0.00017893035467521294 0
0.0002707243621591018 -0.00012943978609522336 0
0.00025977694776455296 -8.238394669396064e-5 0
0.0002499598918065027 -3.808693139072314e-5 0
0.0002416810636602274 2.9081141952131682e-6 0
0.00023534208964009893 3.9762734788533455e-5 0
0.00023117211193301004 7.133414393099156e-5 0
0.00022890207860743416 9.643563278126218e-5 0
0.00022729158210887945 0.00011488283152830234 0
0.00022390177389184816 0.00013037743495340222 0
0.0007464764731999661 -0.011013383123454965 0
0.0007454982571122295 -0.010861092480711211 0
0.0007449649479384737 -0.010707694988999754 0
0.0007447702347861694 -0.010553819659305954 0
0.0007447254436921767 -0.010399873477870721 0
0.0007446587750873126 -0.010246075443297774 0
0.0007444577353283355 -0.010092517512585185 0
0.0007440677234325558 -0.009939225044781395 0
0.0007434723321334206 -0.009786199108850145 0
0.0007426747630903523 -0.009633437884315152 0
0.0007416861920982922 -0.00948094429228754 0
0.0007405196872104688 -0.00932872732685896 0
0.0007391874381265673 -0.009176801177535875 0
0.0007376997308574956 -0.009025183885950243 0
0.0007360647660566528 -0.008873896146818135 0
0.0007342888436852937 -0.00872296039879763 0
0.0007323766749265549 -0.008572400187224345 0
0.0007303317086398061 -0.008422239737841331 0
0.0007281564243787948 -0.008272503680883926 0
0.0007258525760375973 -0.008123216877258548 0
0.0007234213852484485 -0.007974404311863715 0
0.0007208636900482928 -0.007826091029996794 0
0.0007181800564085826 -0.007678302100812225 0
0.0007153708602514036 -0.007531062597388944 0
0.0007124363467231952 -0.007384397586736313 0
0.0007093766723571553 -0.007238332125554411 0
0.0007061919346133952 -0.007092891259175324 0
0.0007028821922683995 -0.006948100022139055 0
0.000699447479275283 -0.006803983439502039 0
0.0006958878140355601 -0.006660566528373622 0
0.0006922032054940811 -0.006517874299415632 0
0.0006883936570677652 -0.006375931758180905 0
0.0006844591691205263 -0.006234763906246277 0
0.0006803997404792036 -0.006094395742137977 0
0.0006762153693289329 -0.005954852262067967 0
0.0006719060537158798 -0.005816158460507903 0
0.0006674717918082087 -0.005678339330628657 0
0.0006629125820134021 -0.005541419864631389 0
0.0006582284230143186 -0.005405425053992668 0
0.0006534193137627709 -0.005270379889642519 0
0.0006484852534539374 -0.0051363093620907145 0
0.0006434262414951306 -0.005003238461513648 0
0.0006382422774762952 -0.004871192177811782 0
0.0006329333611459604 -0.004740195500645817 0
0.0006274994923942018 -0.004610273419458452 0
0.0006219406712430391 -0.004481450923487887 0
0.0006162568978440204 -0.0043537530017789235 0
0.0006104481724825044 -0.004227204643197725 0
0.0006045144955879135 -0.004101830836456858 0
0.0005984558677490921 -0.003977656570158358 0
0.0005922722897336097 -0.003854706832863993 0
0.0005859637625094355 -0.003733006613203916 0
0.0005795302872666761 -0.0036125809000373483 0
0.0005729718654360537 -0.003493454682681839 0
0.0005662884986992042 -0.0033756529512311063 0
0.0005594801889837735 -0.0032592006969853183 0
0.000552546938433269 -0.0031441229130218327 0
0.0005454887493376745 -0.0030304445949387577 0
0.0005383056240055795 -0.0029181907418078462 0
0.0005309975645518944 -0.002807386357376723 0
0.0005235645725668106 -0.0026980564515625824 0
0.0005160066486216021 -0.0025902260422791695 0
0.0005083237915551948 -0.002483920157634646 0
0.0005005159974730307 -0.002379163838527813 0
0.0004925832583780476 -0.0022759821416513276 0
0.00048452556034572433 -0.002174400142879495 0
0.00047634288115639355 -0.002074442940970142 0
0.00046803518731743126 -0.0019761356614393915 0
0.00045960243046000166 -0.0018795034603674805 0
0.0004510445432026862 -0.001784571527755138 0
0.0004423614347725461 -0.001691365089864246 0
0.0004335529870157088 -0.0015999094097347956 0
0.0004246190519918668 -0.0015102297847654975 0
0.00041555945324225706 -0.0014223515398759856 0
0.000406373994207534 -0.001336300014343125 0
0.0003970624793712933 -0.0012521005399506685 0
0.0003876247568170516 -0.001169778407673087 0
0.0003780607954093727 -0.0010893588198510604 0
0.0003683708162552886 -0.001010866824924117 0
0.0003585555071018006 -0.0009343272326376461 0
0.0003486163606136851 -0.0008597645098631999 0
0.0003385561938275242 -0.0007872026617978605 0
0.0003283799271557614 -0.0007166651120305143 0
0.0003180957273599643 -0.0006481746105060719 0
0.0003077166491554752 -0.0005817532251095886 0
0.00029726294169802144 -0.0005174225171336973 0
0.00028676521230898135 -0.0004552040732639245 0
0.0002762686463350117 -0.0003951206807933199 0
0.0002658384420554763 -0.000337198605480798 0
0.0002555664837694517 -0.000281471677503131 0
0.0002455789574954967 -0.00022798820661107847 0
0.00023604396317360095 -0.00017682206992052603 0
0.00022717695231011599 -0.00012808942927687854 0
0.00021923965972766012 -8.19718710150574e-5 0
0.00021252466757440682 -3.874398213840092e-5 0
0.00020731263706116844 1.2044395533825847e-6 0
0.00020378369248475934 3.738017493019605e-5 0
0.00020186403858477495 6.930186192669529e-5 0
0.0002010114544816393 9.686641951663956e-5 0
0.00020003355084603574 0.00012122586580005091 0
0.00019726636749859268 0.00014641527573902403 0
0.0005956501840136321 -0.011010513523850178 0
0.0005948953420190536 -0.010859003414665535 0
0.0005944311012631618 -0.010706372247674107 0
0.0005942157517732652 -0.01055310178054203 0
0.0005941398917438647 -0.010399553270786375 0
0.0005940850580043778 -0.010245967344342332 0
0.0005939579981328796 -0.010092487105701735 0
0.000593700963516937 -0.009939189754443552 0
0.0005932866770833852 -0.009786115253875214 0
0.0005927080602273241 -0.009633286312307091 0
0.0005919690401136794 -0.009480719620428396 0
0.0005910783407974198 -0.009328431098656258 0
0.0005900459007113129 -0.009176437894774736 0
0.0005888810638469787 -0.009024758871166088 0
0.0005875918245768959 -0.008873414488147473 0
0.0005861846430238617 -0.008722426502093112 0
0.0005846645391927244 -0.008571817651049838 0
0.0005830353013292976 -0.008421611387537827 0
0.0005812997215892875 -0.008271831670600197 0
0.000579459817012008 -0.008122502811464927 0
0.0005775170186469807 -0.007973649362288155 0
0.0005754723247280479 -0.00782529603754487 0
0.0005733264201019365 -0.007677467659340779 0
0.0005710797667153087 -0.007530189119876748 0
0.000568732670604543 -0.007383485356022952 0
0.0005662853305175661 -0.007237381332335859 0
0.0005637378725828434 -0.007091902029894533 0
0.0005610903746223312 -0.006947072439102116 0
0.0005583428829290478 -0.006802917555155374 0
0.0005554954236582891 -0.006659462375283949 0
0.0005525480104320293 -0.006516731897143266 0
0.000549500649323444 -0.006374751117943547 0
0.0005463533420578807 -0.006233545034035302 0
0.0005431060880197072 -0.006093138640767168 0
0.0005397588854739722 -0.0059535569324967764 0
0.000536311732282028 -0.005814824902679465 0
0.0005327646262986835 -0.005676967543988693 0
0.0005291175655747306 -0.005540009848441251 0
0.0005253705484451609 -0.005403976807512593 0
0.0005215235735540473 -0.00526889341223538 0
0.0005175766398477255 -0.005134784653278953 0
0.0005135297465553134 -0.005001675521010269 0
0.0005093828931676699 -0.004869591005538358 0
0.0005051360794209105 -0.004738556096745271 0
0.0005007893052876471 -0.004608595784306947 0
0.0004963425709773357 -0.004479735057707879 0
0.00049179587694612 -0.004351998906253741 0
0.0004871492239158848 -0.0042254123190867965 0
0.0004824026129017881 -0.004100000285209487 0
0.0004775560452470182 -0.0039757877935226804 0
0.00047260952266288213 -0.0038527998328862865 0
0.0004675630472714095 -0.0037310613922115223 0
0.0004624166216463188 -0.003610597460596113 0
0.00045717024884631195 -0.0034914330275159873 0
0.00045182393243209693 -0.0033735930830896483 0
0.0004463776764550246 -0.0032571026184344013 0
0.00044083148540063097 -0.003141986626136693 0
0.00043518536406437954 -0.003028270100862086 0
0.0004294393173293023 -0.00291597804013342 0
0.0004235933498057817 -0.002805135445308346 0
0.0004176474652823188 -0.0026957673227891465 0
0.0004116016659228557 -0.0025878986854981113 0
0.00040545595113160326 -0.002481554554649978 0
0.0003992103159915301 -0.0023767599618484208 0
0.00039286474917012544 -0.0022735399515253214 0
0.0003864192301799667 -0.0021719195837289745 0
0.00037987372588922153 -0.0020719239372498904 0
0.00037322818621009284 -0.0019735781130507807 0
0.00036648253896966876 -0.001876907237942008 0
0.0003596366841156277 -0.0017819364684189551 0
0.00035269048767075985 -0.0016886909945605664 0
0.0003456437762868987 -0.001597196043891469 0
0.00033849633394955364 -0.0015074768851546234 0
0.0003312479034749768 -0.0014195588320607445 0
0.00032389819709590295 -0.0013334672473255679 0
0.00031644692288685067 -0.0012492275477517113 0
0.0003088938373462283 -0.0011668652118672397 0
0.00030123883952775613 -0.0010864057928519958 0
0.00029348212918156266 -0.0010078749413794013 0
0.000285624460974289 -0.0009312984458692912 0
0.00027766753955579273 -0.000856702301885826 0
0.00026961461642812057 -0.0007841128285658752 0
0.0002614713692124672 -0.0007135568587662653 0
0.00025324716599111973 -0.0006450620420852882 0
0.0002449568390117177 -0.0005786573174282282 0
0.0002366231068287467 -0.0005143736361811386 0
0.00022827977971057935 -0.00045224505051363596 0
0.0002199758382073718 -0.0003923103256340433 0
0.00021178035319788208 -0.00033461528875859426 0
0.00020378796149870317 -0.0002792161797254841 0
0.00019612414318937677 -0.00022618427945742938 0
0.00018894875933910343 -0.00017561195745632242 0
0.00018245508701741022 -0.0001276197492243126 0
0.00017685986459524736 -8.23626152189896e-5 0
0.00017237776788345258 -4.003009621089423e-5 0
0.000169171994448473 -8.277980584752413e-7 0
0.00016727341478818325 3.5086338369717156e-5 0
0.00016646944090013678 6.776102969371807e-5 0
0.00016619161637152069 9.778570714354442e-5 0
0.00016549532572132278 0.00012688196572398287 0
0.00016332852366460397 0.00015867179584675345 0
0.0004452970901793063 -0.01100838522423274 0
0.00044474198597920325 -0.010857391169096698 0
0.00044437339023644203 -0.010705289784147 0
0.0004441764611409881 -0.01055246498044424 0
0.0004440893705845596 -0.010399235497518212 0
0.00044403601267307014 -0.010245841709693958 0
0.00044394888295771844 -0.010092450603360354 0
0.0004437798307774819 -0.00993917087502198 0
0.0004435010794340099 -0.009786070825521536 0
0.0004431009430595966 -0.009633193996410529 0
0.0004425781901888355 -0.009480570424615309 0
0.0004419372599380945 -0.009328223660834876 0
0.00044118497035571625 -0.009176174690499545 0
0.0004403285572577552 -0.00902444392608056 0
0.0004393746598018526 -0.008873052112497731 0
0.00043832889904379675 -0.00872202066295556 0
0.00043719579206783464 -0.008571371716891657 0
0.00043597883525185553 -0.008421128075562057 0
0.0004346806575281696 -0.008271313094336494 0
0.0004333031890113966 -0.008121950569638464 0
0.00043184781778831944 -0.007973064637017833 0
0.00043031552358940704 -0.007824679686030282 0
0.00042870698572764957 -0.007676820292412259 0
0.0004270226669905403 -0.007529511165780176 0
0.00042526287696595237 -0.007382777110306235 0
0.0004234278187202069 -0.007236642995767201 0
0.00042151762250940155 -0.007091133736625664 0
0.0004195323696833165 -0.006946274277179236 0
0.00041747210934624837 -0.006802089581199257 0
0.0004153368697768509 -0.006658604624829972 0
0.0004131266661244402 -0.006515844391814757 0
0.0004108415055047339 -0.006373833870354887 0
0.0004084813903091659 -0.006232598051093644 0
0.0004060463203073785 -0.006092161925861773 0
0.0004035362939485502 -0.0059525504869273466 0
0.00040095130914095814 -0.005813788726571728 0
0.0003982913636990701 -0.005675901636870193 0
0.00039555645558441517 -0.005538914209595959 0
0.00039274658302293437 -0.00540285143619461 0
0.000389861744552066 -0.005267738307795227 0
0.0003869019390311198 -0.005133599815237555 0
0.00038386716563565474 -0.0050004609491032855 0
0.0003807574238482705 -0.004868346699745143 0
0.0003775727134530589 -0.004737282057311142 0
0.0003743130345376845 -0.004607292011763734 0
0.0003709783875051413 -0.004478401552895112 0
0.0003675687730959708 -0.00435063567034098 0
0.0003640841924209 -0.00422401935359604 0
0.00036052464700313247 -0.004098577592035158 0
0.0003568901388287887 -0.00397433537494507 0
0.0003531806704029978 -0.003851317691572512 0
0.00034939624480785137 -0.0037295495311957237 0
0.00034553686575657664 -0.003609055883227705 0
0.00034160253763583016 -0.003489861737361159 0
0.00033759326552465057 -0.003371992083766743 0
0.00033350905517423525 -0.003255471913358239 0
0.0003293499129269836 -0.0031403262181401554 0
0.0003251158455460371 -0.003026579991655321 0
0.00032080685991748697 -0.0029142582295519437 0
0.0003164229625764575 -0.002803385930291279 0
0.00031196415899521714 -0.0026939880960185607 0
0.0003074304525566555 -0.002586089733621059 0
0.00030282184312044406 -0.0024797158559983117 0
0.00029813832507348954 -0.0023748914835713553 0
0.0002933798847434806 -0.00227164164606122 0
0.00028854649704909637 -0.0021699913845743763 0
0.00028363812127027205 -0.0020699657540479443 0
0.0002786546958588195 -0.001971589826136567 0
0.0002735961322920207 -0.0018748886926758719 0
0.0002684623081273152 -0.001779887469949589 0
0.00026325305968560956 -0.0016866113041414908 0
0.00025796817523310496 -0.0015950853786025673 0
0.00025260739023045056 -0.001505334923955432 0
0.00024717038728985904 -0.001417385232657243 0
0.0002416568050838438 -0.0013312616805372292 0
0.00023606626279363215 -0.001246989759129511 0
0.00023039841004150448 -0.0011645951244787789 0
0.00022465301695338757 -0.0010841036706733004 0
0.00021883012543423685 -0.0010055416398377156 0
0.00021293029131653603 -0.0009289357848632034 0
0.00020695495810424318 -0.000854313606860981 0
0.00020090701668751444 -0.000781703696125922 0
0.000194791621197685 -0.0007111362128926305 0
0.0001886173475344467 -0.0006426435513803802 0
0.00018239779437990286 -0.0005762612356200404 0
0.00017615372947471814 -0.0005120290948734441 0
0.00016991586345856843 -0.00044999275425276655 0
0.00016372826759323306 -0.0003902054428403634 0
0.000157652305596456 -0.0003327300514281503 0
0.00015177067396971401 -0.00027764123806198627 0
0.00014619067715299647 -0.00022502713334081702 0
0.00014104514314445106 -0.0001749897463517337 0
0.00013648839439118604 -0.00012764233671305126 0
0.00013268354099771297 -8.310046247361136e-5 0
0.00012977646666226616 -4.146056791611596e-5 0
0.00012785221723389257 -2.7550514528629552e-6 0
0.00012687307945511916 3.31348223771781e-5 0
0.00012660798338660513 6.66356298074052e-5 0
0.00012658484371713544 9.873689810616116e-5 0
0.0001261331215258094 0.00013133767718847807 0
0.00012461458663433315 0.00016753226068552055 0
0.0002952685933950765 -0.011006911399558273 0
0.00029489904659393866 -0.01085624813678876 0
0.0002946405471533905 -0.01070449322302436 0
0.00029448879159992323 -0.01055197109420142 0
0.00029441124993648103 -0.010398970197097198 0
0.0002943639053303209 -0.010245724919200455 0
0.0002943043417176653 -0.010092412174940684 0
0.0002941993255309594 -0.009939157902157113 0
0.00029402722032855324 -0.009786048313048598 0
0.0002937768581454152 -0.009633141775223578 0
0.00029344478784919145 -0.009480478879470717 0
0.0002930323584551979 -0.009328089832392288 0
0.000292543378063057 -0.009175999342461027 0
0.0002919825284585984 -0.009024229592391929 0
0.00029135443163282954 -0.008872801917568037 0
0.00029066318235451704 -0.008721737677031374 0
0.0002899121750647454 -0.008571058650539018 0
0.0002891040971185676 -0.008420787173185802 0
0.00028824100382160455 -0.008270946134893842 0
0.00028732442425906336 -0.00812155891813722 0
0.00028635546984342704 -0.00797264931426033 0
0.0002853349319405702 -0.007824241439211291 0
0.0002842633633962243 -0.007676359658311534 0
0.0002831411433668729 -0.007529028523507685 0
0.00028196852706969513 -0.00738227272333877 0
0.0002807456829102167 -0.007236117044341706 0
0.0002794727195576843 -0.007090586342054411 0
0.00027814970529725544 -0.006945705519710849 0
0.0002767766816120825 -0.006801499512896794 0
0.0002753536725526867 -0.006657993278703194 0
0.00027388069109158256 -0.006515211788197444 0
0.0002723577433591034 -0.006373180021293793 0
0.0002707848314152962 -0.006231922963326297 0
0.00026916195502712007 -0.00609146560280826 0
0.00026748911278126836 -0.005951832930003366 0
0.00026576630276127153 -0.0058130499360414005 0
0.00026399352294475517 -0.005675141612391491 0
0.000262170771425375 -0.005538132950564379 0
0.0002602980465285203 -0.005402048941956973 0
0.0002583753468656616 -0.005266914577781892 0
0.00025640267135606257 -0.005132754849045087 0
0.0002543800192338881 -0.004999594746548453 0
0.0002523073900518648 -0.004867459260903616 0
0.00025018478368820003 -0.004736373382549162 0
0.00024801220036075163 -0.004606362101767517 0
0.00024578964065059404 -0.004477450408700309 0
0.00024351710553602613 -0.004349663293362587 0
0.00024119459643712305 -0.004223025745657543 0
0.00023882211527015198 -0.004097562755394064 0
0.0002363996645102211 -0.003973299312310223 0
0.00023392724725937824 -0.0038502604061064452 0
0.00023140486731577125 -0.0037284710264927196 0
0.00022883252923739254 -0.003607956163254964 0
0.00022621023839104434 -0.003488740806346437 0
0.00022353800097346744 -0.00337084994601082 0
0.00022081582398668525 -0.003254308572944515 0
0.00021804371514345247 -0.0031391416785063538 0
0.00021522168267091614 -0.0030253742549838144 0
0.0002123497349710607 -0.002913031295925469 0
0.00020942788008498518 -0.0028021377965502573 0
0.0002064561248945892 -0.0026927187542453105 0
0.000203434473979943 -0.0025847991691661477 0
0.00020036292803420378 -0.002478404044956976 0
0.0001972414817215851 -0.0023735583896165135 0
0.00019407012085002028 -0.0022702872165490024 0
0.00019084881872265743 -0.002168615545865838 0
0.00018757753153759752 -0.0020685684060478796 0
0.00018425619273318024 -0.0019701708361535286 0
0.00018088470624169062 -0.0018734478888800658 0
0.00017746293873973384 -0.001778424634980655 0
0.00017399071120102844 -0.0016851261698421784 0
0.00017046779041279654 -0.001593577623489946 0
0.00016689388167451965 -0.0015038041759720417 0
0.00016326862474536828 -0.0014158310810793945 0
0.00015959159636193797 -0.0013296837027934921 0
0.00015586232446481276 -0.0012453875708648018 0
0.00015208032184547637 -0.0011629684646757995 0
0.0001482451504895087 -0.0010824525382033881 0
0.00014435653271417594 -0.0010038665036070766 0
0.0001404145315461501 -0.0009272378967730087 0
0.00013641983086144625 -0.0008525954548567985 0
0.0001323741556230707 -0.0007799696428702055 0
0.0001282808836754915 -0.0007093933722461502 0
0.0001241459117046329 -0.0006409029563739856 0
0.00011997884629539431 -0.0005745393414913609 0
0.0001157945909505564 -0.0005103496279972091 0
0.00011161538145665902 -0.0004483888444966089 0
0.00010747326820107401 -0.00038872183565931407 0
0.00010341292836550903 -0.0003314249483077078 0
9.949447511470402e-5 -0.0002765869121418694 0
9.579556776653223e-5 -0.00022430786719386634 0
9.24115759109005e-5 -0.00017469483541205974 0
8.945182116828671e-5 -0.00012785100244029117 0
8.702916337131448e-5 -8.385488113853612e-5 0
8.523985345596804e-5 -4.272367078083289e-5 0
8.413155457839629e-5 -4.352908828133194e-6 0
8.366123921045713e-5 3.157756921615475e-5 0
8.365320597810699e-5 6.574071360443762e-5 0
8.378182798176222e-5 9.93407588306823e-5 0
8.362017221344037e-5 0.00013429283583595746 0
8.279616546057402e-5 0.0001732711334242933 0
0.0001454459662879807 -0.011006043201788081 0
0.00014525364987569528 -0.010855566701738513 0
0.0001451121376015004 -0.010704007074535064 0
0.00014502112653394923 -0.010551658495280149 0
0.00014496794502624635 -0.010398793178122385 0
0.0001449338449141852 -0.010245640765898676 0
0.00014489923304671141 -0.010092381471351058 0
0.000144847308719077 -0.009939149016116802 0
0.00014476589121663268 -0.009786038783894472 0
0.00014464765973531564 -0.009633117540654051 0
0.0001444893630127136 -0.009480432426550306 0
0.0001442906160792366 -0.009328018146648255 0
0.00014405273649338793 -0.00917590215346913 0
0.000143777840985662 -0.00902410808576095 0
0.00014346824600540935 -0.008872657890367295 0
0.00014312612458572887 -0.008721573038194642 0
0.00014275334528509692 -0.008570875159211119 0
0.00014235142508751036 -0.008420586326845544 0
0.00014192154523780725 -0.008270729143869586 0
0.00014146459624871235 -0.008121326724850813 0
0.00014098123187928326 -0.00797240263175418 0
0.00014047192124225385 -0.00782398079454775 0
0.00013993699408756623 -0.0076760854334473405 0
0.00013937667772044295 -0.007528740990440175 0
0.0001387911258035816 -0.0073819720726658955 0
0.00013818044009969874 -0.007235803407574702 0
0.0001375446864600646 -0.0070902598085417655 0
0.00013688390632654587 -0.0069453661491766655 0
0.00013619812484867485 -0.006801147344550262 0
0.0001354873565125446 -0.006657628337746339 0
0.00013475160897999372 -0.006514834090405261 0
0.0001339908856646332 -0.006372789576194071 0
0.00013320518743150322 -0.00623151977637947 0
0.00013239451369854887 -0.006091049676883975 0
0.00013155886313631035 -0.0059514042663693706 0
0.00013069823410229086 -0.0058126085350188325 0
0.00012981262490336436 -0.005674687473785157 0
0.00012890203394934317 -0.005537666073943443 0
0.00012796645983974034 -0.005401569326837924 0
0.00012700590141152362 -0.005266422223749068 0
0.00012602035776597815 -0.0051322497558324584 0
0.00012500982828648403 -0.004999076914098441 0
0.00012397431265480426 -0.00486692868941325 0
0.00012291381087081908 -0.004735830072510098 0
0.00012182832327882385 -0.004605806054003782 0
0.0001207178506023693 -0.004476881624405565 0
0.00011958239398867288 -0.004349081774137103 0
0.00011842195506290971 -0.004222431493543472 0
0.00011723653599183746 -0.004096955772906031 0
0.00011602613955526455 -0.003972679602456369 0
0.00011479076922258671 -0.0038496279723928477 0
0.00011353042922995814 -0.003727825872901356 0
0.0001122451246514163 -0.0036072982941820187 0
0.00011093486145438214 -0.003488070226483496 0
0.00010959964652612018 -0.0033701666601464344 0
0.00010823948765292827 -0.003253612585657333 0
0.00010685439342764192 -0.003138432993713692 0
0.00010544437305346118 -0.003024652875300915 0
0.00010400943600278334 -0.002912297221780902 0
0.000102549591478585 -0.002801391024992209 0
0.00010106484761281946 -0.002691959277362265 0
9.955521032139995e-5 -0.0025840269720346543 0
9.802068171895627e-5 -0.0024776191030202867 0
9.646125797950927e-5 -0.00237276066539326 0
9.487692651289465e-5 -0.00226947665557447 0
9.32676623137119e-5 -0.0021677920717853754 0
9.163342333355802e-5 -0.0020677319148206807 0
8.997414473434628e-5 -0.001969321189397236 0
8.828973190937365e-5 -0.0018725849065090554 0
8.658005222235661e-5 -0.0017775480874865242 0
8.484492553108968e-5 -0.001684235770865709 0
8.308411375717959e-5 -0.00159267302378208 0
8.129731007129577e-5 -0.0015028849604933148 0
7.948412873149232e-5 -0.0014148967719147768 0
7.764409730216274e-5 -0.0013287337718526577 0
7.577665397284773e-5 -0.0012444214681042092 0
7.388115408942117e-5 -0.001161985669940509 0
7.195689192652483e-5 -0.001081452647867741 0
7.000314630972267e-5 -0.0010028493670963627 0
6.801926208882096e-5 -0.0009262038228034921 0
6.600478380838541e-5 -0.0008515455127069289 0
6.395966329939553e-5 -0.000778906089735641 0
6.188456926537343e-5 -0.0007083202426772982 0
5.978133388883806e-5 -0.0006398268518188993 0
5.765357806440381e-5 -0.0005734704531058795 0
5.550756094857139e-5 -0.0005093030071401667 0
5.33532968706394e-5 -0.00044738589090431225 0
5.120596530997101e-5 -0.00038779188430680884 0
4.908759336859964e-5 -0.0003306066742767164 0
4.7028891033462255e-5 -0.0002759290012800994 0
4.50709311607943e-5 -0.00022386798145408908 0
4.326604312622373e-5 -0.0001745353272429365 0
4.1676801089989366e-5 -0.00012802919423149205 0
4.0371390819874886e-5 -8.440534546688369e-5 0
3.941321747208711e-5 -4.363055398153195e-5 0
3.884305957630549e-5 -5.513207892241244e-6 0
3.865451120566506e-5 3.039202813944656e-5 0
3.876902279282846e-5 6.490272003065838e-5 0
3.902535836116828e-5 9.933311089685381e-5 0
3.9205487699630655e-5 0.0001355772096435951 0
3.91127042175859e-5 0.0001760547275209725 0
-4.274762260803237e-6 -0.01100575582783232 0
-4.294479944496126e-6 -0.010855341847314837 0
-4.317256441002566e-6 -0.010703842926688306 0
-4.341235374724066e-6 -0.010551547348408984 0
-4.362837361882989e-6 -0.010398725137210829 0
-4.3788000431211305e-6 -0.010245604947512114 0
-4.387660141041121e-6 -0.010092366922652661 0
-4.389873931356543e-6 -0.0099391457897937 0
-4.387089826756568e-6 -0.00978603882091301 0
-4.381285017906803e-6 -0.009633115059245332 0
-4.374172812747327e-6 -0.009480423810155453 0
-4.366956567261234e-6 -0.009328001519239388 0
-4.360330692028575e-6 -0.009175876858461059 0
-4.3545974859307536e-6 -0.00902407421526918 0
-4.349806255445958e-6 -0.008872615927657644 0
-4.345869060860043e-6 -0.008721523618656362 0
-4.342640545895962e-6 -0.008570818928262187 0
-4.339965559817997e-6 -0.00842052386661494 0
-4.337703432059907e-6 -0.008270660943739447 0
-4.335737510229701e-6 -0.008121253177261999 0
-4.333976477287397e-6 -0.00797232404082343 0
-4.332351730177529e-6 -0.007823897389860314 0
-4.330813341461169e-6 -0.007675997384743819 0
-4.329325929754825e-6 -0.007528648421065194 0
-4.327865033085719e-6 -0.007381875070924138 0
-4.32641417240505e-6 -0.007235702035840382 0
-4.324962590290465e-6 -0.007090154110310313 0
-4.323503566315019e-6 -0.0069452561543825375 0
-4.322033189531502e-6 -0.0068010330734980815 0
-4.320549476930429e-6 -0.006657509803972347 0
-4.31905174588634e-6 -0.006514711302735022 0
-4.317540169484801e-6 -0.006372662540208338 0
-4.316015461922373e-6 -0.006231388495450972 0
-4.314478655897805e-6 -0.006090914152907047 0
-4.312930944849137e-6 -0.005951264500271925 0
-4.311373570857065e-6 -0.005812464527121461 0
-4.309807744531866e-6 -0.005674539224053727 0
-4.308234587044311e-6 -0.005537513582168186 0
-4.306655087010347e-6 -0.005401412592762351 0
-4.305070066734343e-6 -0.005266261247165205 0
-4.303480153480252e-6 -0.00513208453665405 0
-4.301885752329758e-6 -0.004998907452420306 0
-4.3002870177700325e-6 -0.004866754985562499 0
-4.298683821684187e-6 -0.004735652127093057 0
-4.297075715805291e-6 -0.004605623867950963 0
-4.2954618871528625e-6 -0.00447669519901577 0
-4.293841105393161e-6 -0.004348891111120497 0
-4.2922116616646685e-6 -0.0042222365950621375 0
-4.2905712990754395e-6 -0.00409675664160902 0
-4.288917136053902e-6 -0.003972476241504491 0
-4.287245584924063e-6 -0.003849420385466181 0
-4.2855522697427755e-6 -0.003727614064179842 0
-4.283831949531974e-6 -0.0036070822682860433 0
-4.282078455833695e-6 -0.0034878499883573594 0
-4.280284657028566e-6 -0.003369942214862532 0
-4.278442466374203e-6 -0.0032533839381129514 0
-4.276542916288599e-6 -0.003138200148185169 0
-4.2745763283488906e-6 -0.0030244158348116798 0
-4.272532616855353e-6 -0.0029120559872304608 0
-4.270401773930918e-6 -0.0028011455939826306 0
-4.268174596031887e-6 -0.0026917096426474054 0
-4.265843725650373e-6 -0.0025837731195057115 0
-4.263405097824072e-6 -0.0024773610091301476 0
-4.260859898858826e-6 -0.0023724982939127667 0
-4.258217164081914e-6 -0.0022692099535681714 0
-4.255497162142885e-6 -0.0021675209646953735 0
-4.252735734618283e-6 -0.0020674563005588452 0
-4.249989780599033e-6 -0.001969040931374009 0
-4.24734409524582e-6 -0.00187229982557887 0
-4.2449197876213526e-6 -0.0017772579528758192 0
-4.242884514747192e-6 -0.0016839402902831756 0
-4.2414647742813575e-6 -0.001592371833109677 0
-4.2409604960756125e-6 -0.0015025776137433467 0
-4.241762162499503e-6 -0.001414582732541376 0
-4.2443706688336535e-6 -0.001328412407060777 0
-4.249420109068723e-6 -0.001244092048549177 0
-4.257703639328135e-6 -0.0011616473782088302 0
-4.270202527329787e-6 -0.0010811046004377475 0
-4.288118426419492e-6 -0.001002490656168538 0
-4.312908773623477e-6 -0.0009258335865475791 0
-4.346324901525839e-6 -0.0008511630451837834 0
-4.390451760859088e-6 -0.0007785110050934006 0
-4.4477466627871865e-6 -0.0007079127122194441 0
-4.521071424583339e-6 -0.0006394079370685648 0
-4.613706491916986e-6 -0.0005730425625294942 0
-4.72932508596377e-6 -0.0005088705073232596 0
-4.871887539204717e-6 -0.00044695590131167923 0
-5.045387858168626e-6 -0.00038737527095809133 0
-5.253344864506281e-6 -0.0003302192169803715 0
-5.49788388281238e-6 -0.00027559261453773034 0
-5.778222534726495e-6 -0.00022361167777207666 0
-6.088408162209874e-6 -0.00017439527067316713 0
-6.414355227691755e-6 -0.00012804667917195364 0
-6.730735067718038e-6 -8.462097166231432e-5 0
-6.999138720758301e-6 -4.407271456935656e-5 0
-7.16988283238009e-6 -6.180226572036327e-6 0
-7.1899574543748636e-6 2.9552927170926434e-5 0
-7.017632392363885e-6 6.400944154765768e-5 0
-6.639709561517058e-6 9.855793201180512e-5 0
-6.082794233589944e-6 0.00013509420353521542 0
-5.411835649560697e-6 0.0001759549234589259 0
-0.00015399107443923597 -0.011006041574422516 0
-0.0001538404684745768 -0.01085557173620223 0
-0.00015374714795315155 -0.010704003274589651 0
-0.00015370598588044338 -0.010551642910323865 0
-0.00015369635157507573 -0.010398772440566646 0
-0.00015369311359122244 -0.01024562328760579 0
-0.00015367452044177715 -0.010092372598276134 0
-0.00015362547501050896 -0.009939150067849366 0
-0.00015353754027429183 -0.009786048253648417 0
-0.00015340741737947204 -0.009633132738492475 0
-0.00015323511816138236 -0.009480450680921067 0
-0.00015302243514864802 -0.009328037387372272 0
-0.00015277188144579936 -0.009175921038119095 0
-0.0001524860552839649 -0.009024125891640774 0
-0.00015216731305123008 -0.008872674333682079 0
-0.00015181763766300083 -0.008721588104861587 0
-0.00015143861736275122 -0.008570888977520053 0
-0.00015103147946603408 -0.008420599083838031 0
-0.0001505971461088929 -0.008270741036412106 0
-0.00015013629406256994 -0.008121337934526057 0
-0.00014964940983397556 -0.007972413314469417 0
-0.00014913683650823534 -0.007823991078382952 0
-0.00014859881159482588 -0.007676095420592543 0
-0.0001480354965123707 -0.007528750760783612 0
-0.00014744699891453618 -0.00738198168772376 0
-0.00014683338919488294 -0.007235812914138823 0
-0.00014619471242963413 -0.007090269241806718 0
-0.00014553099684648066 -0.006945375535305909 0
-0.00014484225971138402 -0.0068011567027303895 0
-0.00014412851133741456 -0.006657637681809619 0
-0.00014338975775527121 -0.00651484343010309 0
-0.00014262600244898492 -0.006372798918194445 0
-0.00014183724745194776 -0.0062315291250486455 0
-0.00014102349401465608 -0.006091059034899979 0
-0.0001401847429925378 -0.005951413635204634 0
-0.0001393209950557405 -0.005812617915320923 0
-0.00013843225078926562 -0.005674696865678369 0
-0.00013751851072808644 -0.005537675477269295 0
-0.00013657977535547227 -0.005401578741349107 0
-0.00013561604508155817 -0.005266431649268629 0
-0.00013462732021183164 -0.005132259192387884 0
-0.0001336136009104059 -0.004999086362038427 0
-0.00013257488716002548 -0.004866938149513337 0
-0.00013151117871898846 -0.00473583954607183 0
-0.00013042247507426643 -0.004605815542950376 0
-0.0001293087753897276 -0.004476891131375469 0
-0.00012817007844839284 -0.004349091302574781 0
-0.00012700638258796569 -0.004222441047784489 0
-0.00012581768562944332 -0.004096965358250699 0
-0.00012460398479941954 -0.0039726892252227785 0
-0.00012336527664782296 -0.0038496376399358534 0
-0.0001221015569642465 -0.003727835593578849 0
-0.0001208128206979346 -0.0036073080772433134 0
-0.00011949906188886184 -0.003488080081846785 0
-0.00011816027362037819 -0.003370176598022654 0
-0.00011679644800767455 -0.0032536226159663104 0
-0.0001154075762410343 -0.003138443125224893 0
-0.00011399364870857483 -0.0030246631144152034 0
-0.00011255465523022005 -0.0029123075708516414 0
-0.00011109058544307996 -0.002801401480063529 0
-0.00010960142938861268 -0.0026919698251799337 0
-0.00010808717836412421 -0.00258403758616099 0
-0.00010654782611587582 -0.0024776297388600307 0
-0.00010498337046890453 -0.0023727712539134567 0
-0.00010339381551073874 -0.0022694870954802836 0
-0.00010177917447405958 -0.0021678022198979713 0
-0.000100139473499687 -0.0020677415743964454 0
-9.847475651007951e-5 -0.0019693300961342503 0
-9.67850914911879e-5 -0.0018725927120125526 0
-9.507057857670155e-5 -0.0017775543400168643 0
-9.333136046806442e-5 -0.0016842398932783095 0
-9.156763592760437e-5 -0.0015926742886979027 0
-8.97796773817032e-5 -0.0015028824629215172 0
-8.796785410959668e-5 -0.0014148893997981446 0
-8.613266313043629e-5 -0.001328720175336694 0
-8.427477081436236e-5 -0.0012444000287635713 0
-8.239506952940376e-5 -0.0011619544717662602 0
-8.04947554064948e-5 -0.00108140945258681 0
-7.857543567100399e-5 -0.0010027915974743012 0
-7.663927702693436e-5 -0.0009261285591843072 0
-7.468921025986233e-5 -0.0008514495105525268 0
-7.272921028034075e-5 -0.0007787858300117314 0
-7.07646745274729e-5 -0.000708172033707199 0
-6.880292440875295e-5 -0.0006396470124348547 0
-6.685385122956846e-5 -0.0005732556250632362 0
-6.493071449127333e-5 -0.0005090506728873744 0
-6.305106765955923e-5 -0.00044709521351467453 0
-6.12377210576446e-5 -0.0003874650387571367 0
-5.951953512121087e-5 -0.0003302508918259048 0
-5.793164982543383e-5 -0.0002755595656301269 0
-5.651448759068174e-5 -0.00022351231451257962 0
-5.531054753581131e-5 -0.00017423793263835052 0
-5.4357771091387846e-5 -0.00012785638206637485 0
-5.367843195834839e-5 -8.44472273010439e-5 0
-5.326366281519649e-5 -4.3996165538142964e-5 0
-5.3056432793141475e-5 -6.314289816765614e-6 0
-5.2939727560871687e-5 2.9069456354161656e-5 0
-5.2739873742727114e-5 6.303044046237917e-5 0
-5.225447933171158e-5 9.695593132360577e-5 0
-5.130913916601117e-5 0.00013279024985383346 0
-4.983920656875072e-5 0.00017295735680276767 0
-0.00030379949984599846 -0.011006907761360561 0
-0.00030347947518644987 -0.010856257560699037 0
-0.00030327770252248096 -0.010704482325615453 0
-0.00030318136806798817 -0.010551936644850381 0
-0.0003031478067109428 -0.010398927867878608 0
-0.0003031275706944109 -0.010245691699369359 0
-0.0003030787314393333 -0.010092397459249353 0
-0.00030297213093393306 -0.009939162896432707 0
-0.00030279101696498384 -0.009786069169967748 0
-0.00030252824688450653 -0.009633172946395829 0
-0.00030218304288938955 -0.009480515258031865 0
-0.00030175823801599136 -0.009328127640425645 0
-0.00030125829574294597 -0.009176036215225346 0
-0.00030068805602389713 -0.009024264301967157 0
-0.00030005203908641323 -0.008872834014160799 0
-0.0002993541264321022 -0.008721767177497893 0
-0.00029859747143254453 -0.008571085812533552 0
-0.00029778453468449757 -0.00842081235013619 0
-0.0002969171766571627 -0.00827096969243872 0
-0.00029599676783388505 -0.00812158119179447 0
-0.0002950242950788652 -0.007972670592221088 0
-0.00029400045445372665 -0.007824261959078184 0
-0.00029292572734195536 -0.007676379610716846 0
-0.00029180044024845904 -0.007529048058495571 0
-0.00029062481025947384 -0.007382291957311497 0
-0.00028939897868922977 -0.007236136066522569 0
-0.0002881230354135675 -0.007090605220064422 0
-0.0002867970361012247 -0.0069457243041871125 0
-0.0002854210141725392 -0.006801518241230391 0
-0.0002839949889337084 -0.006658011978027262 0
-0.0002825189709948137 -0.006515230477761611 0
-0.00028099296579706427 -0.006373198714346621 0
-0.00027941697584988917 -0.006231941668607019 0
-0.0002777910021057912 -0.006091484325729298 0
-0.0002761150447717052 -0.005951851673588374 0
-0.0002743891037612821 -0.005813068701670234 0
-0.00027261317892498605 -0.005675160400393346 0
-0.00027078727014759 -0.00553815176069246 0
-0.00026891137737004693 -0.0054020677737720525 0
-0.00026698550057081437 -0.0052669334309673665 0
-0.0002650096397271848 -0.0051327737236721935 0
-0.00026298379476790925 -0.004999613643306916 0
-0.0002609079655225429 -0.004867478181309913 0
-0.00025878215166951206 -0.004736392329141566 0
-0.0002566063526829224 -0.004606381078294039 0
-0.00025438056777719994 -0.0044774694203022275 0
-0.0002521047958483065 -0.004349682346752539 0
-0.0002497790354104247 -0.004223044849286499 0
-0.0002474032845273961 -0.0040975819195961756 0
-0.0002449775407388742 -0.003973318549407726 0
-0.00024250180098207418 -0.0038502797304485613 0
-0.00023997606151117263 -0.0037284904543922136 0
-0.00023740031781790497 -0.0036079757127734204 0
-0.00023477456455878604 -0.0034887604968638327 0
-0.00023209879549668523 -0.0033708697974963076 0
-0.00022937300346738198 -0.003254328604822833 0
-0.00022659718038521554 -0.003139161907987766 0
-0.0002237713173062661 -0.0030253946946944125 0
-0.00022089540457270512 -0.002913051950639087 0
-0.00021796943206835021 -0.002802158658783096 0
-0.00021499338962329383 -0.002692739798430252 0
-0.00021196726761529735 -0.002584820344076477 0
-0.00020889105782818986 -0.002478425264000736 0
-0.00020576475464412124 -0.0023735795185754263 0
-0.00020258835666918157 -0.0022703080582937977 0
-0.0001993618689239937 -0.0021686358215481957 0
-0.00019608530577754012 -0.002068587732255132 0
-0.00019275869487189599 -0.0019701886975251473 0
-0.0001893820823900239 -0.0018734636057363711 0
-0.00018595554017708055 -0.0017784373256184037 0
-0.00018247917546530858 -0.0016851347073259862 0
-0.00017895314431364828 -0.0015935805870327655 0
-0.00017537767041262613 -0.0015037997973756556 0
-0.00017175307170235723 -0.0014158171872243016 0
-0.00016807979841449548 -0.0013296576558603276 0
-0.00016435848782013975 -0.001245346208881498 0
-0.00016059004332566636 -0.0011629080461836951 0
-0.00015677574882424713 -0.0010823686964340701 0
-0.00015291743362119432 -0.0010037542177593261 0
-0.00014901770902754844 -0.0009270914911357031 0
-0.00014508030497748642 -0.0008524086412815916 0
-0.00014111054362324905 -0.0007797356295726149 0
-0.0001371159960808189 -0.0007091050739621234 0
-0.00013310737653393436 -0.0006405533604445169 0
-0.00012909973097970873 -0.0005741221157434099 0
-0.00012511396887291258 -0.0005098601047731984 0
-0.00012117875215935304 -0.0004478255861051412 0
-0.00011733267660217035 -0.00038808908060420223 0
-0.00011362652197258228 -0.00033073634064603263 0
-0.00011012506374705632 -0.00027587097750258246 0
-0.0001069074734207905 -0.00022361559373788734 0
-0.00010406464817766132 -0.00017410919775181374 0
-0.00010169096016776037 -0.00012749693291345913 0
-9.986724433908644e-5 -8.390562536346575e-5 0
-9.8632334125734e-5 -4.339580756782931e-5 0
-9.794403076672868e-5 -5.879698598754178e-6 0
-9.763894656691838e-5 2.9000840845183784e-5 0
-9.741271984809119e-5 6.202815655820291e-5 0
-9.685038974423971e-5 9.45630850798218e-5 0
-9.553212586075508e-5 0.00012864377830934415 0
-9.321868471340452e-5 0.00016695850795297272 0
-0.00045380092875715275 -0.011008378906343642 0
-0.0004533121316597999 -0.010857402833009677 0
-0.00045301653454277673 -0.010705264209869223 0
-0.00045288361893804844 -0.010552405392819058 0
-0.0004528389861002696 -0.01039917106738335 0
-0.00045280466822372365 -0.010245797282673278 0
-0.00045271907204968325 -0.010092436421976062 0
-0.0004525418362660454 -0.009939185226302308 0
-0.00045225118100609654 -0.009786106240163591 0
-0.00045183881454279165 -0.009633242075977736 0
-0.0004513049493835428 -0.009480624261176225 0
-0.000450654394410697 -0.009328278503901232 0
-0.0004498938757410902 -0.009176227733312444 0
-0.0004490303979601731 -0.00902449379977653 0
-0.00044807036508112214 -0.008873098382104193 0
-0.00044701920073749 -0.008722063432692485 0
-0.00044588126593291135 -0.008571411359505692 0
-0.00044465993461328864 -0.008421165064302488 0
-0.00044335773836533824 -0.008271347908230446 0
-0.0004419765285624924 -0.008121983646255274 0
-0.0004405176288656889 -0.007973096353606766 0
-0.00043898196615184843 -0.007824710356253086 0
-0.0004373701766153275 -0.007676850170763905 0
-0.0004356826882904041 -0.007529540455137638 0
-0.0004339197832307168 -0.00738280597017055 0
-0.0004320816431509881 -0.0072366715500269746 0
-0.00043016838217423066 -0.007091162080373332 0
-0.0004281800698413153 -0.00694630248247389 0
-0.00042611674695714125 -0.006802117701837486 0
-0.00042397843628571295 -0.006658632700249609 0
-0.00042176514961743264 -0.0065158724502683485 0
-0.0004194768923318529 -0.006373861931479466 0
-0.0004171136662655557 -0.006232626127985945 0
-0.0004146754714567511 -0.006092190026750011 0
-0.00041216230716219893 -0.005952578616514993 0
-0.000409574172414793 -0.005813816887115867 0
-0.000406911066300075 -0.0056759298290466696 0
-0.00040417298806734144 -0.00553894243319537 0
-0.00040135993714839676 -0.005402879690686369 0
-0.00039847191312854404 -0.005267766592791289 0
-0.00039550891569583576 -0.005133628130882414 0
-0.0003924709445827694 -0.005000489296412338 0
-0.00038935799950731107 -0.004868375080909251 0
-0.0003861700801157745 -0.004737310475980946 0
-0.00038290718592770947 -0.004607320473322835 0
-0.00037956931628170326 -0.004478430064726384 0
-0.00037615647028057397 -0.004350664242084795 0
-0.00037266864673442517 -0.004224047997392569 0
-0.0003691058441003643 -0.004098606322735121 0
-0.000365468060418172 -0.003974364210263621 0
-0.00036175529324192825 -0.0038513466521489545 0
-0.0003579675395684246 -0.003729578640507094 0
-0.0003541047957642488 -0.0036090851672860263 0
-0.0003501670574946645 -0.0034898912241019303 0
-0.0003461543196589341 -0.003372021802009305 0
-0.00034206657633853004 -0.003255501891186217 0
-0.0003379038207668869 -0.0031403564805118265 0
-0.00033366604533196175 -0.003026610557008874 0
-0.00032935324162608546 -0.0029142891051189123 0
-0.00032496540056153173 -0.0028034171057731896 0
-0.00032050251257528995 -0.00269401953521745 0
-0.00031596456795319046 -0.0025861213635455403 0
-0.0003113515573127935 -0.002479747552895655 0
-0.0003066634722978645 -0.002374923055266339 0
-0.00030190030655745685 -0.002271672809920035 0
-0.0002970620571137854 -0.0021700217403643916 0
-0.00029214872627193197 -0.0020699947509424167 0
-0.0002871603243013126 -0.0019716167231315306 0
-0.0002820968732397017 -0.001874912511762543 0
-0.00027695841235922896 -0.0017799069415423826 0
-0.0002717450061254051 -0.0016866248045270026 0
-0.00026645675592591213 -0.0015950908595821149 0
-0.00026109381751846953 -0.0015053298354429205 0
-0.0002556564271483186 -0.001417366439812658 0
-0.0002501449407552326 -0.0013312253781215513 0
-0.00024455989281379445 -0.0012469313872326792 0
-0.00023890208437075738 -0.0011645092916991442 0
-0.00023317271406120353 -0.0010839840933659294 0
-0.0002273735716566313 -0.001005381109444334 0
-0.00022150732140561313 -0.0009287261800022352 0
-0.00021557791241236636 -0.0008540459735022221 0
-0.0002095911657158641 -0.0007813684290080572 0
-0.00020355560227334723 -0.0007107233863591483 0
-0.00019748359143318222 -0.0006421434711729467 0
-0.00019139291253633697 -0.0005756653195884428 0
-0.0001853088263984488 -0.0005113312464146741 0
-0.00017926673590305388 -0.00044919147480746623 0
-0.00017331545274411298 -0.0003893070438052691 0
-0.00016752094055303072 -0.0003317534652629119 0
-0.0001619701073024237 -0.00027662505671458595 0
-0.00015677367039982598 -0.0002240395138426497 0
-0.00015206617818433053 -0.00017414147509392562 0
-0.00014799980668389433 -0.00012710215295362858 0
-0.00014472659914235644 -8.310890553166111e-5 0
-0.00014236211420758994 -4.233322674529277e-5 0
-0.00014092469502164376 -4.8586417227376834e-6 0
-0.0001402550952474697 2.9453130240765774e-5 0
-0.00013994662383456103 6.116706842277292e-5 0
-0.0001393471084092554 9.15253540432933e-5 0
-0.00013770344457939357 0.00012267223033984954 0
-0.00013448577966221472 0.00015774886081856918 0
-0.0006041082604502536 -0.011010503921478553 0
-0.0006034529667098875 -0.010859011358348386 0
-0.0006030884954876112 -0.01070631831262469 0
-0.0006029462565404155 -0.010553009110325742 0
-0.00060290521449233 -0.010399469382701669 0
-0.0006028548210725202 -0.010245920904270043 0
-0.0006027167299910611 -0.010092483241988776 0
-0.0006024447683092204 -0.009939220233729113 0
-0.0006020172656296935 -0.00978616819287037 0
-0.0006014285486502821 -0.009633351250779578 0
-0.0006006820693760585 -0.009480789059480675 0
-0.0005997856258842234 -0.009328500352103338 0
-0.0005987483787082037 -0.009176504404528845 0
-0.0005975791807365131 -0.009024821501550227 0
-0.0005962857763691567 -0.008873472968695655 0
-0.0005948745289399906 -0.00872248103965077 0
-0.0005933504400996155 -0.008571868681227404 0
-0.0005917173095278204 -0.00842165942626203 0
-0.000589977944548374 -0.008271877231900409 0
-0.0005881343701894102 -0.00812254636644367 0
-0.000586188015933701 -0.007973691322282843 0
-0.0005841398704968759 -0.007825336750643825 0
-0.0005819906041502114 -0.007677507413691393 0
-0.0005797406620255888 -0.007530228150005222 0
-0.0005773903332927123 -0.007383523850102818 0
-0.0005749398012240663 -0.007237419439354475 0
-0.0005723891786530039 -0.007091939866235459 0
-0.0005697385325820703 -0.006947110094364895 0
-0.0005669879009243477 -0.006802955097186562 0
-0.0005641373036621339 -0.006659499854463429 0
-0.000561186750123005 -0.006516769349997644 0
-0.0005581362436084803 -0.006374788570165939 0
-0.0005549857842536065 -0.00623358250298933 0
-0.0005517353707297052 -0.00609317613754797 0
-0.0005483850012086663 -0.005953594463615913 0
-0.0005449346738690622 -0.00581486247143441 0
-0.0005413843871277845 -0.005677005151571758 0
-0.0005377341397147542 -0.005540047494837098 0
-0.0005339839306637508 -0.005404014492228014 0
-0.0005301337592631464 -0.005268931134899728 0
-0.0005261836249914655 -0.005134822414148374 0
-0.000522133527450923 -0.005001713321403805 0
-0.0005179834663049191 -0.004869628848228819 0
-0.0005137334412213637 -0.004738593986322541 0
-0.000509383451821423 -0.004608633727525733 0
-0.0005049334976322593 -0.004479773063825823 0
-0.0005003835780418974 -0.004352036987358803 0
-0.0004957336922544221 -0.0042254504904045385 0
-0.0004909838392439156 -0.004100038565370991 0
-0.00048613401770593594 -0.003975826204761653 0
-0.00048118422600577226 -0.0038528384011188685 0
-0.0004761344621232145 -0.0037311001469338325 0
-0.0004709847235941199 -0.0036106364345116653 0
-0.0004657350074496681 -0.0034914722557771415 0
-0.00046038531015485634 -0.003373632602003308 0
-0.0004549356275485234 -0.0032571424634413254 0
-0.00044938595478799515 -0.0031420268288252667 0
-0.00044373628630238617 -0.003028310684720644 0
-0.00043798661575965796 -0.002916019014679659 0
-0.0004321369360539278 -0.002805176798160256 0
-0.0004261872393214179 -0.002695809009159762 0
-0.00042013751699638766 -0.0025879406145080442 0
-0.0004139877599232021 -0.0024815965717600178 0
-0.0004077379585489326 -0.0023768018266242977 0
-0.0004013881032350874 -0.002273581309865169 0
-0.0003949381847514647 -0.002171959933621295 0
-0.00038838819505639897 -0.002071962587100046 0
-0.0003817381285363929 -0.001973614131636104 0
-0.00037498798399045413 -0.0018769393951543543 0
-0.0003681377678247854 -0.0017819631661606945 0
-0.00036118749920800963 -0.0016887101875156477 0
-0.00035413721837865633 -0.001597205150446682 0
-0.0003469869999709949 -0.0015074726895579348 0
-0.0003397369742395133 -0.0014195373800464826 0
-0.00033238736056484926 -0.0013334237389984877 0
-0.0003249385198168442 -0.0012491562336117397 0
-0.00031739103530255947 -0.001166759300610631 0
-0.00030974583648740836 -0.0010862573831844976 0
-0.0003020043858833788 -0.001007674994779526 0
-0.00029416895797293154 -0.0009310368234299905 0
-0.0002862430503620969 -0.0008563678966433039 0
-0.000278231982094206 -0.0007836938360587858 0
-0.00027014375257836977 -0.0007130412444987215 0
-0.0002619902567271219 -0.000644438287516684 0
-0.00025378897627619077 -0.0005779155597692288 0
-0.0002455652900143683 -0.0005135073669731213 0
-0.00023735555807562764 -0.00045125361084612855 0
-0.0002292111196358633 -0.00039120254019209093 0
-0.0002212032643077275 -0.00033341472322473783 0
-0.0002134290290873393 -0.00027796868266962284 0
-0.0002060172137285029 -0.0002249686444152185 0
-0.00019913308501929054 -0.0001745545887066196 0
-0.000192978506606555 -0.00012691378972182305 0
-0.0001877812023016008 -8.229023965238919e-5 0
-0.00018376217444602535 -4.098171099398632e-5 0
-0.0001810649985985426 -3.300574423381968e-6 0
-0.0001796319239463905 3.054675249567683e-5 0
-0.0001790433344106375 6.071648134417037e-5 0
-0.00017841602102728439 8.813346438278688e-5 0
-0.00017652917326250035 0.00011496347790861542 0
-0.00017232232446595094 0.0001449797587559953 0
-0.0007548609118417915 -0.011013370804600296 0
-0.0007540465572971698 -0.010861081803519362 0
-0.0007536522824898472 -0.010707591122680332 0
-0.0007535330202438999 -0.010553688477669037 0
-0.0007535025657791175 -0.010399780751674402 0
-0.0007534182356355211 -0.010246042394286262 0
-0.0007531934208463692 -0.01009253560869956 0
-0.0007527853495191076 -0.00993927713258749 0
-0.0007521794065470953 -0.009786270088710688 0
-0.0007513767139217116 -0.009633517293050156 0
-0.0007503858829843033 -0.00948102573043444 0
-0.0007492181063136204 -0.009328807236343807 0
-0.0007478845184825489 -0.009176877795673891 0
-0.000746394960523894 -0.009025256519380333 0
-0.0007447575503850911 -0.00887396470934763 0
-0.0007429786794659859 -0.008723025129400219 0
-0.0007410632077521411 -0.008572461482086017 0
-0.0007390147288936538 -0.008422298052300792 0
-0.0007368358375590508 -0.008272559473637827 0
-0.0007345283674358702 -0.008123270579982297 0
-0.0007320935885485563 -0.007974456314056163 0
-0.0007295323632544063 -0.00782614167288665 0
-0.0007268452653063539 -0.007678351676588852 0
-0.0007240326682072833 -0.007531111351479192 0
-0.0007210948092292367 -0.0073844457217289465 0
-0.0007180318348197438 -0.00723837980590749 0
-0.0007148438321683578 -0.007092938616169236 0
-0.0007115308507256452 -0.006948147158742552 0
-0.0007080929165817814 -0.006804030434949844 0
-0.0007045300418709611 -0.00666061344234093 0
-0.0007008422307775121 -0.006517921175733449 0
-0.0006970294832659063 -0.0063759786280765595 0
-0.000693091797318093 -0.006234810791120938 0
-0.0006890291702145382 -0.006094442655911337 0
-0.0006848415992191103 -0.005954899213131622 0
-0.0006805290819045794 -0.00581620545333508 0
-0.0006760916162708789 -0.005678386367090213 0
-0.0006715292007512688 -0.005541466945067443 0
-0.0006668418341639706 -0.005405472178086702 0
-0.0006620295156425703 -0.005270427057140875 0
-0.0006570922445632951 -0.005136356573405669 0
-0.0006520300204779278 -0.005003285718243028 0
-0.0006468428430557487 -0.004871239483202357 0
-0.0006415307120348423 -0.0047402428600216776 0
-0.0006360936271816378 -0.004610320840629057 0
-0.0006305315882568832 -0.0044814984171432995 0
-0.0006248445949861227 -0.004353800581871547 0
-0.0006190326470328245 -0.004227252327300193 0
-0.0006130957439725372 -0.0041018786460742295 0
-0.0006070338852666516 -0.003977704530958605 0
-0.000600847070234567 -0.0038547549747733885 0
-0.0005945352980232009 -0.003733054970292473 0
-0.0005880985675728656 -0.0036126295100929505 0
-0.0005815368775785024 -0.0034935035863393124 0
-0.000574850226445153 -0.0033757021904830585 0
-0.0005680386122362358 -0.003259250312854157 0
-0.0005611020326127417 -0.003144172942115943 0
-0.000554040484760764 -0.0030304950645496467 0
-0.0005468539653038446 -0.002918241663128523 0
-0.0005395424701954502 -0.0028074377163347683 0
-0.0005321059945856507 -0.002698108196664876 0
-0.0005245445326549569 -0.0025902780687610334 0
-0.0005168580774079745 -0.002483972287097538 0
-0.0005090466204210617 -0.0023792157931421805 0
-0.0005011101515435726 -0.0022760335119032635 0
-0.000493048658564748 -0.0021744503477635437 0
-0.0004848621268833292 -0.0020744911794931945 0
-0.0004765505392630099 -0.0019761808543253263 0
-0.00046811387583728777 -0.00187954418097044 0
-0.00045955211466238116 -0.0017846059214418509 0
-0.0004508652333371098 -0.0016913907815653301 0
-0.00044205321255893424 -0.001599923400058074 0
-0.0004331160430309932 -0.0015102283360940675 0
-0.00042405373796950563 -0.0014223300553421808 0
-0.0004148663547164267 -0.001336252914600388 0
-0.0004055540308226097 -0.0012520211454078237 0
-0.0003961170426841898 -0.001169658837487825 0
-0.0003865558987299924 -0.0010891899237156024 0
-0.00037687148472254295 -0.0010106381697751118 0
-0.0003670652865378582 -0.0009340271742054308 0
-0.0003571397265762276 -0.0008593803888520816 0
-0.0003470986646440996 -0.0007867211770014137 0
-0.0003369481338042217 -0.0007160729385804589 0
-0.00032669740745043334 -0.0006474593517977498 0
-0.00031636052668300105 -0.0005809048133326695 0
-0.00030595845714959433 -0.000516435212254127 0
-0.00029552209004115703 -0.00045407925788543466 0
-0.00028509634615900953 -0.0003938707158387888 0
-0.00027474566707742256 -0.00033585211228450286 0
-0.00026456114122102025 -0.000280080769310512 0
-0.00025466932053319836 -0.0002266384446251524 0
-0.0002452422303474459 -0.00017564630938346877 0
-0.00023650673086720317 -0.0001272872318384535 0
-0.00022874838723423288 -8.183645073496036e-5 0
-0.00022229872770182515 -3.969724432224305e-5 0
-0.00021748269636160904 -1.4238988062914195e-6 0
-0.00021448385936420186 3.232326843566161e-5 0
-0.00021307452477146334 6.102093586183221e-5 0
-0.00021226952497067098 8.487661922311845e-5 0
-0.00021023538430309246 0.0001057505644530514 0
-0.0002049203976258892 0.00012811522492550136 0
-0.0009062568802080127 -0.011017133922250528 0
-0.0009053014236706596 -0.01086359449463993 0
-0.0009049298167439671 -0.010708994876388241 0
-0.0009048552969623927 -0.010554365839165424 0
-0.0009048128585468269 -0.010400061922820105 0
-0.0009046412428703359 -0.010246150086161053 0
-0.0009042634377809537 -0.010092602788676708 0
-0.0009036532680927417 -0.009939375999846038 0
-0.0009028104764443181 -0.009786435618790943 0
-0.0009017458176896054 -0.009633763208506766 0
-0.0009004732009330418 -0.00948135445053002 0
-0.0008990060094924253 -0.00932921574357982 0
-0.0008973556634241547 -0.009177360930378676 0
-0.0008955312884968598 -0.009025808724560798 0
-0.0008935398765048903 -0.008874580873750216 0
-0.0008913866242564727 -0.008723700924969068 0
-0.0008890753026344771 -0.008573193432102048 0
-0.000886608591897275 -0.008423083467801105 0
-0.0008839883612914551 -0.008273396335825597 0
-0.0008812158906493838 -0.008124157410502472 0
-0.0008782920399673359 -0.007975392053954247 0
-0.0008752173757392642 -0.007827125579032257 0
-0.0008719922629904876 -0.007679383237769086 0
-0.0008686169310006855 -0.007532190223039961 0
-0.0008650915193690144 -0.007385571676197124 0
-0.0008614161097164943 -0.00723955269662462 0
-0.0008575907471027525 -0.007094158351101392 0
-0.000853615454214414 -0.00694941368200452 0
-0.0008494902405661368 -0.0068053437140283436 0
-0.0008452151083239301 -0.0066619734594340185 0
-0.0008407900558848676 -0.006519327922002057 0
-0.000836215079997729 -0.0063774320999158704 0
-0.0008314901769571235 -0.006236310987805303 0
-0.0008266153432257844 -0.006095989578154239 0
-0.0008215905757162856 -0.005956492862241741 0
-0.0008164158718795599 -0.005817845830751012 0
-0.0008110912296914915 -0.0056800734741484895 0
-0.0008056166475923193 -0.005543200782908914 0
-0.0007999921244101106 -0.0054072527476407405 0
-0.0007942176592850875 -0.005272254359149997 0
-0.0007882932516027831 -0.005138230608468317 0
-0.0007822189009390365 -0.005005206486861957 0
-0.0007759946070170346 -0.004873206985832068 0
-0.0007696203696753828 -0.004742257097111931 0
-0.0007630961888455725 -0.004612381812663467 0
-0.0007564220645372063 -0.004483606124672994 0
-0.0007495979968293819 -0.004355955025544181 0
-0.0007426239858668685 -0.004229453507884593 0
-0.0007355000318597959 -0.0041041265644805765 0
-0.000728226135085724 -0.003979999188253632 0
-0.000720802295892858 -0.003857096372189455 0
-0.0007132285147030658 -0.0037354431092287243 0
-0.0007055047920129672 -0.0036150643921060086 0
-0.0006976311283908513 -0.003495985213120113 0
-0.0006896075244663218 -0.0033782305638155896 0
-0.0006814339809084637 -0.0032618254345508405 0
-0.0006731104983867236 -0.0031467948139233862 0
-0.0006646370775066695 -0.0030331636880172605 0
-0.0006560137187100915 -0.0029209570394311186 0
-0.0006472404221255483 -0.0028101998460383837 0
-0.0006383171873513155 -0.0027009170794224714 0
-0.0006292440131478271 -0.002593133702920629 0
-0.000620020897011222 -0.0024868746691987208 0
-0.0006106478345940861 -0.002382164917265798 0
-0.0006011248189347336 -0.002279029368820493 0
-0.000591451839454269 -0.0021774929237995235 0
-0.000581628880684103 -0.002077580454969605 0
-0.0005716559207006423 -0.001979316801364368 0
-0.0005615329292764147 -0.001882726760312717 0
-0.0005512598658204883 -0.0017878350777280935 0
-0.0005408366772946962 -0.0016946664362211179 0
-0.0005302632964848306 -0.0016032454404513161 0
-0.0005195396413202705 -0.0015135965989366788 0
-0.0005086656164343489 -0.001425744301283586 0
-0.0004976411189320576 -0.0013397127894810062 0
-0.00048646605151229016 -0.001255526121533287 0
-0.00047514034786497655 -0.001173208125326303 0
-0.0004636640178929753 -0.001092782340329854 0
-0.0004520372241660106 -0.0010142719447340208 0
-0.00044026040662149075 -0.0009376996662754261 0
-0.00042833448061784614 -0.0008630876770102003 0
-0.00041626114505076634 -0.0007904574768229905 0
-0.0004040433538131733 -0.0007198297795637523 0
-0.0003916860274634944 -0.0006512244328224948 0
-0.00037919711544189585 -0.0005846604332566726 0
-0.0003665891665291101 -0.0005201561536712368 0
-0.0003538816317956752 -0.000457729991568308 0
-0.0003411042164866797 -0.0003974018075942386 0
-0.00032830172102290666 -0.0003391957881010578 0
-0.0003155409659399936 -0.00028314580451043245 0
-0.00030292055650227615 -0.00022930504994028684 0
-0.0002905843145660658 -0.00017776283358831782 0
-0.00027873890322534684 -0.00012867299814545296 0
-0.0002676747283731039 -8.230032032025068e-5 0
-0.0002577846808532639 -3.9092208677051155e-5 0
-0.00024956296739142033 2.2189239130976419e-7 0
-0.00024353515529000342 3.452862239190008e-5 0
-0.0002399975623769842 6.235717000952099e-5 0
-0.00023832353118128199 8.24868383235645e-5 0
-0.0002361180938767186 9.556991869768804e-5 0
-0.00022953011272986568 0.00010639034449969444 0
-0.001058631682058733 -0.011022063731759226 0
-0.0010575642496899503 -0.0108664829650304 0
-0.001057256382492298 -0.010710398023177699 0
-0.0010571899864089598 -0.010554957721760955 0
-0.001057037698099994 -0.010400287130265138 0
-0.001056658894446526 -0.010246256190887296 0
-0.0010560140143553822 -0.010092715079480534 0
-0.0010551064508408656 -0.009939552026182378 0
-0.0010539532989153916 -0.009786697822868652 0
-0.0010525729385330454 -0.00963411692515656 0
-0.0010509807761009272 -0.009481797370958445 0
-0.0010491884535493096 -0.009329742694598334 0
-0.0010472043021921692 -0.009177966172280306 0
-0.0010450340955518677 -0.009026486968534872 0
-0.001042681751435948 -0.008875327656107119 0
-0.0010401498872376301 -0.008724512670935894 0
-0.0010374402279907978 -0.008574067380844864 0
-0.0010345538950614866 -0.008424017545854324 0
-0.001031491606124534 -0.008274389021874004 0
-0.0010282538119001773 -0.008125207611275451 0
-0.0010248407887563612 -0.007976498998895338 0
-0.0010212527008613564 -0.007828288735233774 0
-0.0010174896414843315 -0.0076806022436944725 0
-0.0010135516601120084 -0.007533464838330191 0
-0.0010094387799921421 -0.00738690174456041 0
-0.0010051510092788565 -0.007240938118980031 0
-0.0010006883479542854 -0.007095599066525961 0
-0.0009960507920040841 -0.006950909654473594 0
-0.000991238335840429 -0.006806894923363543 0
-0.0009862509736318571 -0.006663579895245976 0
-0.0009810886999706025 -0.006520989579723962 0
-0.0009757515101532577 -0.006379148978268858 0
-0.0009702394002474898 -0.00623808308722533 0
-0.0009645523670498429 -0.0060978168998509835 0
-0.0009586904079962706 -0.0059583754076633225 0
-0.0009526535210597505 -0.0058197836013020934 0
-0.0009464417046528008 -0.00568206647106129 0
-0.0009400549575429289 -0.005545249007202281 0
-0.0009334932787836878 -0.00540935620012668 0
-0.0009267566676611767 -0.005274413040462959 0
-0.0009198451236546425 -0.0051404445191029135 0
-0.000912758646409436 -0.005007475627211269 0
-0.000905497235720684 -0.004875531356222674 0
-0.0008980608915262805 -0.004744636697834055 0
-0.0008904496139081874 -0.0046148166439959155 0
-0.0008826634031012784 -0.004486096186903053 0
-0.000874702259509263 -0.004358500318982899 0
-0.0008665661837273105 -0.0042320540328777 0
-0.0008582551765711008 -0.004106782321415193 0
-0.0008497692391118658 -0.003982710177560522 0
-0.000841108372716805 -0.003859862594340383 0
-0.0008322725790937639 -0.0037382645647280467 0
-0.0008232618603384656 -0.003617941081475386 0
-0.0008140762189815702 -0.0034989171368748863 0
-0.0008047156580315795 -0.003381217722431131 0
-0.0007951801810077755 -0.0032648678284169803 0
-0.0007854697919550849 -0.0031498924432849067 0
-0.0007755844954296466 -0.003036316552898375 0
-0.0007655242964399632 -0.002924165139541885 0
-0.0007552892003234535 -0.0028134631806609437 0
-0.0007448792125319476 -0.002704235647274796 0
-0.0007342943382917793 -0.002596507501994546 0
-0.0007235345820945358 -0.0024903036965669336 0
-0.0007125999469628546 -0.002385649168847975 0
-0.0007014904334218654 -0.00228256883908955 0
-0.0006902060380908523 -0.0021810876053927042 0
-0.0006787467517917329 -0.0020812303381400675 0
-0.0006671125570516554 -0.00198302187316017 0
-0.0006553034248579042 -0.001886487003290218 0
-0.0006433193105069186 -0.001791650467879136 0
-0.000631160148380282 -0.0016985369395939227 0
-0.0006188258454865064 -0.0016071710076391561 0
-0.0006063162736407947 -0.0015175771561473244 0
-0.0005936312602352413 -0.0014297797360181463 0
-0.0005807705777101446 -0.0013438029278495297 0
-0.0005677339321216523 -0.0012596706927890627 0
-0.0005545209516875857 -0.001177406707140371 0
-0.0005411311770003978 -0.0010970342754245991 0
-0.000527564055910051 -0.0010185762154508993 0
-0.0005138189481947239 -0.0009420547080756068 0
-0.0004998951485240553 -0.0008674911042890156 0
-0.00048579194163647627 -0.0007949056840976252 0
-0.00047150871233446473 -0.0007243173672090442 0
-0.0004570451468812109 -0.0006557433879717826 0
-0.0004424015850273339 -0.0005891989718522213 0
-0.00042757961881625755 -0.0005246970973031326 0
-0.0004125830948532069 -0.0004622485112030101 0
-0.00039741977632039646 -0.0004018623156962104 0
-0.00038210408474551483 -0.00034354770713875877 0
-0.0003666616085254166 -0.00028731790782341344 0
-0.00035113649192669127 -0.0002331981355381888 0
-0.00033560347189032924 -0.00018124086154333957 0
-0.0003201872437920776 -0.00013155404834403275 0
-0.0003050928437692393 -8.435221200680001e-5 0
-0.00029065092913637346 -4.004685428739873e-5 0
-0.0002773779477060331 5.978384204736733e-7 0
-0.00026603260094773155 3.621114249376299e-5 0
-0.00025758179197228793 6.445758586001028e-5 0
-0.0002527331878509559 8.18198219645306e-5 0
-0.00024959794767367993 8.557207721464212e-5 0
-0.00024149806395043518 7.888340892144638e-5 0
-0.0012126786021347718 -0.011028641261538978 0
-0.0012114864198169515 -0.0108695837341611 0
-0.0012111534509899773 -0.010711638194929098 0
-0.001210874788891619 -0.010555415345407092 0
-0.0012103569281545332 -0.010400482450713316 0
-0.001209547084239 -0.010246416295378662 0
-0.0012084656816902775 -0.010092930999605022 0
-0.001207143436471534 -0.009939855263132027 0
-0.0012056037049151282 -0.009787095334613305 0
-0.0012038605749128742 -0.009634606485704359 0
-0.0012019211670707465 -0.009482374021688673 0
-0.001199788270826476 -0.009330401278579365 0
-0.001197462313874654 -0.009178702205202081 0
-0.0011949426105855856 -0.00902729683660752 0
-0.0011922280736053276 -0.00887620856342865 0
-0.0011893175804584652 -0.008725462510005198 0
-0.0011862101377020078 -0.008575084593824903 0
-0.0011829049351725 -0.008425101000372895 0
-0.00117940134574489 -0.008275537907724555 0
-0.001175698901737846 -0.00812642135781022 0
-0.001171797264343846 -0.00797777721066312 0
-0.0011676961939738307 -0.007829631142856421 0
-0.0011633955247667969 -0.007682008667057268 0
-0.0011588951441266915 -0.007534935159476742 0
-0.0011541949770236442 -0.007388435888071774 0
-0.0011492949743490651 -0.007242536038011341 0
-0.001144195104510397 -0.007097260733038867 0
-0.0011388953475071405 -0.0069526350525236655 0
-0.001133395690847258 -0.006808684044572202 0
-0.0011276961267929128 -0.006665432735806953 0
-0.001121796650544134 -0.0065229061384683325 0
-0.001115697259069723 -0.006381129255446916 0
-0.0011093979503750781 -0.006240127083764288 0
-0.0011028987230582326 -0.006099924616921691 0
-0.0010961995760513587 -0.005960546846442675 0
-0.0010893005084783248 -0.005822018762855605 0
-0.0010822015195825995 -0.005684365356296534 0
-0.0010749026086962735 -0.005547611616861835 0
-0.0010674037752321736 -0.005411782534801091 0
-0.0010597050186885093 -0.005276903100612111 0
-0.001051806338660344 -0.005142998305079112 0
-0.0010437077348552592 -0.00501009313928047 0
-0.0010354092071124545 -0.004878212594582105 0
-0.0010269107554256407 -0.004747381662625538 0
-0.0010182123799706991 -0.004617625335314677 0
-0.0010093140811393672 -0.004488968604802085 0
-0.0010002158595803265 -0.00436143646347292 0
-0.0009909177162490043 -0.004235053903922785 0
-0.0009814196524672635 -0.004109845918923932 0
-0.0009717216699938586 -0.003985837501372592 0
-0.0009618237711061266 -0.0038630536442082245 0
-0.0009517259586927683 -0.0037415193402933616 0
-0.0009414282363567305 -0.0036212595822401176 0
-0.0009309306085260247 -0.0035022993621665276 0
-0.0009202330805687394 -0.003384663671362341 0
-0.0009093356589063952 -0.003268377499839914 0
-0.0008982383511170237 -0.003153465835741169 0
-0.0008869411660157573 -0.0030399536645663206 0
-0.0008754441136961005 -0.0029278659681840013 0
-0.0008637472055091631 -0.0028172277235753735 0
-0.0008518504539506632 -0.0027080639012565986 0
-0.0008397538724160484 -0.00260039946331403 0
-0.0008274574747720888 -0.00249425936097399 0
-0.000814961274678062 -0.0023896685316124933 0
-0.0008022652845700732 -0.0022866518950878166 0
-0.0007893695141967236 -0.0021852343492469806 0
-0.0007762739685610354 -0.002085440764411239 0
-0.0007629786450791229 -0.0019872959765782562 0
-0.00074948352970597 -0.0018908247789798133 0
-0.0007357885916960843 -0.0017960519114893106 0
-0.0007218937765520606 -0.001703002047164133 0
-0.0007077989965532999 -0.0016116997749090827 0
-0.0006935041180307363 -0.0015221695768274312 0
-0.000679008944234283 -0.001434435798248384 0
-0.0006643131921910202 -0.00134852260764288 0
-0.0006494164613252846 -0.0012644539426244945 0
-0.0006343181907448921 -0.0011822534369526254 0
-0.0006190176009159473 -0.001101944321919371 0
-0.0006035136138694112 -0.0010235492937888052 0
-0.0005878047440294019 -0.0009470903372807076 0
-0.0005718889491886698 -0.0008725884939005597 0
-0.0005557634281497715 -0.0008000635640712401 0
-0.0005394243484103272 -0.0007295337350624494 0
-0.0005228664848034351 -0.0006610151353298547 0
-0.0005060827500005195 -0.0005945213346738665 0
-0.0004890636039370862 -0.0005300628464673011 0
-0.00047179634885312707 -0.00046764675657518765 0
-0.00045426436392822405 -0.00040727672703206393 0
-0.00043644643549606266 -0.0003489538430718633 0
-0.0004183165465951362 -0.00029267916692824115 0
-0.0003998448982625915 -0.00023845957714030107 0
-0.00038100171840206045 -0.00018631979261231178 0
-0.00036176687981745453 -0.00013632597326491584 0
-0.00034215100674084287 -8.863109803706056e-5 0
-0.000322238325375302 -4.356176124796723e-5 0
-0.0003022686116429861 -1.7847264731749642e-6 0
-0.00028278387860773376 3.5371449445412694e-5 0
-0.0002648647022487657 6.529132573480767e-5 0
-0.0002504264354672856 8.284094811726593e-5 0
-0.0002420981527822494 7.800824440213148e-5 0
-0.0002319086805921468 4.516405014895378e-5 0
-0.0013702206552423403 -0.011037797212318493 0
-0.0013683944220574198 -0.010872592800381038 0
-0.0013673645519037467 -0.010712617937952446 0
-0.0013661914126996437 -0.010555814081553245 0
-0.0013647908997885332 -0.010400770294968779 0
-0.0013632166348808393 -0.010246739930764097 0
-0.0013615059306562613 -0.010093330774985775 0
-0.0013596679397593402 -0.009940338359392375 0
-0.0013576949020396678 -0.009787660085722544 0
-0.0013555720960390643 -0.009635249909405647 0
-0.001353283606568285 -0.00948309374247809 0
-0.0013508150364555324 -0.009331195737210215 0
-0.0013481544721175916 -0.009179570455213256 0
-0.0013452925754151603 -0.009028238318192265 0
-0.0013422222962798497 -0.008877222941977615 0
-0.0013389384624250228 -0.00872654957766321 0
-0.001335437368381436 -0.008576244214282927 0
-0.0013317164150979104 -0.008426333079318806 0
-0.0013277738155912488 -0.008276842377249391 0
-0.0013236083652793029 -0.008127798167957868 0
-0.0013192192686349719 -0.0079792263244988 0
-0.001314606011768178 -0.007831152533261517 0
-0.0013097682708721507 -0.007683602314419443 0
-0.001304705847788839 -0.0075366010499092724 0
-0.0012994186255538332 -0.007390174012001973 0
-0.0012939065383324923 -0.007244346389060203 0
-0.0012881695515100944 -0.007099143307143092 0
-0.0012822076488053526 -0.006954589847260339 0
-0.0012760208241458864 -0.006810711058649992 0
-0.0012696090767054418 -0.006667531968690833 0
-0.0012629724079929144 -0.006525077590108697 0
-0.0012561108202383514 -0.006383372926088364 0
-0.0012490243155733483 -0.0062424429738139 0
-0.0012417128956786197 -0.006102312726860777 0
-0.0012341765616913551 -0.00596300717676962 0
-0.0012264153142449558 -0.005824551314050443 0
-0.0012184291535661473 -0.0056869701288002955 0
-0.0012102180795878212 -0.005550288611065545 0
-0.0012017820920567043 -0.00541453175104069 0
-0.00119312119062724 -0.005279724539166614 0
-0.0011842353749401597 -0.005145891966170035 0
-0.0011751246446878685 -0.005013059023071098 0
-0.0011657889996705515 -0.004881250701175496 0
-0.0011562284398474803 -0.004750491992060403 0
-0.001146442965388038 -0.004620807887558415 0
-0.0011364325767266724 -0.004492223379740325 0
-0.0011261972746256605 -0.004364763460894975 0
-0.001115737060249093 -0.00423845312350242 0
-0.0011050519352511306 -0.004113317360194917 0
-0.0010941419018810877 -0.003989381163698494 0
-0.0010830069631074177 -0.003866669526746017 0
-0.0010716471227619946 -0.003745207441950533 0
-0.0010600623857052588 -0.003625019901625208 0
-0.0010482527580115797 -0.003506131897533338 0
-0.0010362182471726608 -0.0033885684205485597 0
-0.001023958862314656 -0.0032723544602015716 0
-0.001011474614421922 -0.0031575150040852678 0
-0.0009987655165566718 -0.003044075037085205 0
-0.0009858315840591903 -0.0029320595403965906 0
-0.0009726728347073254 -0.002821493490282408 0
-0.0009592892888065501 -0.002712401856519536 0
-0.0009456809691724118 -0.002604809600470337 0
-0.0009318479009552637 -0.0024987416727053117 0
-0.0009177901112417302 -0.002394223010086726 0
-0.0009035076283472409 -0.002291278532201512 0
-0.0008890004806868695 -0.00218993313700097 0
-0.00087426869507443 -0.002090211695460048 0
-0.0008593122942468526 -0.0019921390450032264 0
-0.0008441312933340977 -0.0018957399813472823 0
-0.0008287256948812415 -0.0018010392482697847 0
-0.0008130954818592322 -0.0017080615246074927 0
-0.0007972406078441538 -0.0016168314074970552 0
-0.0007811609831571202 -0.001527373390461547 0
-0.0007648564551722413 -0.0014397118343853449 0
-0.0007483267801228839 -0.001353870928668418 0
-0.0007315715824292322 -0.0012698746388739243 0
-0.0007145902956384765 -0.0011877466359586386 0
-0.000697382076240927 -0.0011075102007174573 0
-0.0006799456775265896 -0.0010291880954640155 0
-0.000662279264768982 -0.0009528023934208229 0
-0.0006443801446880443 -0.0008783742552394658 0
-0.0006262443704635819 -0.0008059236423251812 0
-0.000607866167409483 -0.0007354689596300692 0
-0.0005892371023732803 -0.0006670266287423436 0
-0.0005703448903517735 -0.0006006106095139529 0
-0.0005511716929784218 -0.0005362319219206942 0
-0.0005316917140662409 -0.0004738982806913073 0
-0.0005118678373992355 -0.0004136140628225318 0
-0.0004916469858159451 -0.00035538101639837944 0
-0.0004709538234054847 -0.00029920045031686356 0
-0.00044968241527266404 -0.00024507823779663517 0
-0.0004276856035936971 -0.0001930350618325831 0
-0.0004047623974873052 -0.00014312643349506226 0
-0.000380645174094923 -9.548123172672731e-5 0
-0.0003549922483377892 -5.0376357239336535e-5 0
-0.00032740032015749116 -8.384431528267444e-6 0
-0.0002974719505167774 2.932455279401446e-5 0
-0.00026501997392526305 6.034244911413514e-5 0
-0.00023060290949817602 7.958815749730963e-5 0
-0.00019705806742881867 7.555149679751832e-5 0
-0.00017971325962809758 8.756484322940531e-6 0
-0.0015386957990426006 -0.011052450318351436 0
-0.0015308278966721777 -0.01087523018570505 0
-0.001526390076066213 -0.010713582002120326 0
-0.0015228369631612455 -0.010556462720793415 0
-0.0015198511478547662 -0.010401369576642344 0
-0.0015172315745138351 -0.010247351837981932 0
-0.001514812841690093 -0.01009397393868499 0
-0.0015124670999929473 -0.00994102266127524 0
-0.0015100997409147666 -0.009788393633981448 0
-0.0015076422730889649 -0.009636039911780575 0
-0.001505045693132591 -0.009483946346933664 0
-0.0015022752284877543 -0.009332115916547628 0
-0.0014993063995527457 -0.009180562056446977 0
-0.0014961221279539865 -0.009029304213213008 0
-0.0014927106258079072 -0.00887836521285412 0
-0.0014890638587212032 -0.008727769696225794 0
-0.0014851764301234056 -0.00857754319734836 0
-0.0014810447759337523 -0.008427711614029899 0
-0.0014766665880156212 -0.008278300917719451 0
-0.0014720404058068282 -0.008129337007265534 0
-0.001467165330736865 -0.007980845646846299 0
-0.0014620408294039697 -0.007832852450861008 0
-0.0014566666001246972 -0.007685382893006406 0
-0.0014510424840906285 -0.007538462326012917 0
-0.0014451684074329734 -0.0073921160043803795 0
-0.0014390443443381262 -0.007246369106093721 0
-0.001432670294233254 -0.007101246751486992 0
-0.001426046268180862 -0.006956774018679027 0
-0.0014191722811574838 -0.006812975955672705 0
-0.001412048347985828 -0.006669877589523768 0
-0.0014046744814550179 -0.006527503933092827 0
-0.0013970506916890968 -0.006385879989891046 0
-0.0013891769861777718 -0.006245030757473238 0
-0.001381053370116782 -0.006104981229755818 0
-0.0013726798468554522 -0.00596575639855928 0
-0.0013640564183432706 -0.005827381254605024 0
-0.0013551830855243231 -0.005689880788137596 0
-0.0013460598486615626 -0.005553279989296576 0
-0.0013366867075908465 -0.005417603848326006 0
-0.0013270636619135603 -0.005282877355682235 0
-0.001317190711140067 -0.0051491255020809385 0
-0.0013070678547968371 -0.005016373278510003 0
-0.0012966950925091829 -0.00488464567622463 0
-0.0012860724240701474 -0.00475396768673417 0
-0.0012751998495045007 -0.004624364301785034 0
-0.0012640773691354938 -0.0044958605133407934 0
-0.001252704983660841 -0.0043684813135577965 0
-0.001241082694243589 -0.00424225169475279 0
-0.0012292105026228109 -0.004117196649357081 0
-0.0012170884112485882 -0.00399334116985021 0
-0.0012047164234452402 -0.0038707102486641273 0
-0.0011920945436062773 -0.0037493288780468953 0
-0.0011792227774238663 -0.003629222049872474 0
-0.0011661011321547191 -0.0035104147553804968 0
-0.0011527296169229926 -0.003392931984826646 0
-0.0011391082430590492 -0.0032767987270207557 0
-0.0011252370244704745 -0.003162039968725451 0
-0.0011111159780386047 -0.0030486806938835745 0
-0.0010967451240296961 -0.0029367458826371783 0
-0.0010821244865047291 -0.0028262605100947704 0
-0.0010672540937054188 -0.002717249544796146 0
-0.0010521339783861425 -0.0026097379468154568 0
-0.0010367641780518332 -0.0025037506654319247 0
-0.001021144735049947 -0.0023993126362829953 0
-0.0010052756964494434 -0.00229644877789444 0
-0.000989157113619833 -0.002195183987453301 0
-0.0009727890413958604 -0.0020955431356480224 0
-0.0009561715366736368 -0.0019975510603396224 0
-0.0009393046562238122 -0.0019012325587394285 0
-0.0009221884534133521 -0.001806612377641155 0
-0.0009048229733778536 -0.0017137152010723031 0
-0.0008872082459465428 -0.001622565634472981 0
-0.000869344275237978 -0.0015331881841559906 0
-0.0008512310242327997 -0.0014456072303257914 0
-0.0008328683916642684 -0.0013598469913120525 0
-0.000814256177058804 -0.0012759314758921231 0
-0.0007953940274275849 -0.0011938844196444343 0
-0.0007762813555471538 -0.0011137292002474767 0
-0.0007569172143778798 -0.0010354887256586085 0
-0.0007373001040977304 -0.000959185288467286 0
-0.0007174276762455738 -0.0008848403799670098 0
-0.0006972962818082684 -0.0008124744595982126 0
-0.0006769002842041597 -0.000742106681031194 0
-0.000656231020303679 -0.0006737545880374967 0
-0.000635275237382394 -0.0006074338159831087 0
-0.0006140127528435652 -0.0005431578757612184 0
-0.0005924129634884403 -0.00048093816874531013 0
-0.0005704296505097016 -0.0004207845050968709 0
-0.0005479932486965832 -0.0003627066106857289 0
-0.0005249993095151523 -0.00030671747776106267 0
-0.0005012911727103684 -0.00025284007056256447 0
-0.0004766336606133688 -0.00020112009704730132 0
-0.0004506725439039139 -0.0001516498384269586 0
-0.0004228709254375527 -0.00010461254952803256 0
-0.00039240743323693553 -6.036629903942087e-5 0
-0.000358010618388824 -1.9606287098490287e-5 0
-0.0003176879820813755 1.6310173887924277e-5 0
-0.00026828996658665073 4.4687559522358215e-5 0
-0.00020485097107779144 6.003754664925805e-5 0
-0.00011969984598098444 5.106852009444886e-5 0
0.0 0.0 0
