# vtk DataFile Version 1.0
Bar_TO_3D
ASCII
DATASET UNSTRUCTURED_GRID
POINTS 2121 float 
-6.25 -11.25 0.0
-6.75 -11.25 0.0
-7.25 -11.25 0.0
-7.75 -11.25 0.0
-8.25 -11.25 0.0
-8.75 -11.25 0.0
-9.25 -11.25 0.0
-9.75 -11.25 0.0
-10.25 -11.25 0.0
-10.75 -11.25 0.0
-11.25 -11.25 0.0
-11.75 -11.25 0.0
-12.25 -11.25 0.0
-12.75 -11.25 0.0
-13.25 -11.25 0.0
-13.75 -11.25 0.0
-14.25 -11.25 0.0
-14.75 -11.25 0.0
-15.25 -11.25 0.0
-15.75 -11.25 0.0
-16.25 -11.25 0.0
-16.75 -11.25 0.0
-17.25 -11.25 0.0
-17.75 -11.25 0.0
-18.25 -11.25 0.0
-18.75 -11.25 0.0
-19.25 -11.25 0.0
-19.75 -11.25 0.0
-20.25 -11.25 0.0
-20.75 -11.25 0.0
-21.25 -11.25 0.0
-21.75 -11.25 0.0
-22.25 -11.25 0.0
-22.75 -11.25 0.0
-23.25 -11.25 0.0
-23.75 -11.25 0.0
-24.25 -11.25 0.0
-24.75 -11.25 0.0
-25.25 -11.25 0.0
-25.75 -11.25 0.0
-26.25 -11.25 0.0
-26.75 -11.25 0.0
-27.25 -11.25 0.0
-27.75 -11.25 0.0
-28.25 -11.25 0.0
-28.75 -11.25 0.0
-29.25 -11.25 0.0
-29.75 -11.25 0.0
-30.25 -11.25 0.0
-30.75 -11.25 0.0
-31.25 -11.25 0.0
-31.75 -11.25 0.0
-32.25 -11.25 0.0
-32.75 -11.25 0.0
-33.25 -11.25 0.0
-33.75 -11.25 0.0
-34.25 -11.25 0.0
-34.75 -11.25 0.0
-35.25 -11.25 0.0
-35.75 -11.25 0.0
-36.25 -11.25 0.0
-36.75 -11.25 0.0
-37.25 -11.25 0.0
-37.75 -11.25 0.0
-38.25 -11.25 0.0
-38.75 -11.25 0.0
-39.25 -11.25 0.0
-39.75 -11.25 0.0
-40.25 -11.25 0.0
-40.75 -11.25 0.0
-41.25 -11.25 0.0
-41.75 -11.25 0.0
-42.25 -11.25 0.0
-42.75 -11.25 0.0
-43.25 -11.25 0.0
-43.75 -11.25 0.0
-44.25 -11.25 0.0
-44.75 -11.25 0.0
-45.25 -11.25 0.0
-45.75 -11.25 0.0
-46.25 -11.25 0.0
-46.75 -11.25 0.0
-47.25 -11.25 0.0
-47.75 -11.25 0.0
-48.25 -11.25 0.0
-48.75 -11.25 0.0
-49.25 -11.25 0.0
-49.75 -11.25 0.0
-50.25 -11.25 0.0
-50.75 -11.25 0.0
-51.25 -11.25 0.0
-51.75 -11.25 0.0
-52.25 -11.25 0.0
-52.75 -11.25 0.0
-53.25 -11.25 0.0
-53.75 -11.25 0.0
-54.25 -11.25 0.0
-54.75 -11.25 0.0
-55.25 -11.25 0.0
-55.75 -11.25 0.0
-56.25 -11.25 0.0
-6.25 -11.75 0.0
-6.75 -11.75 0.0
-7.25 -11.75 0.0
-7.75 -11.75 0.0
-8.25 -11.75 0.0
-8.75 -11.75 0.0
-9.25 -11.75 0.0
-9.75 -11.75 0.0
-10.25 -11.75 0.0
-10.75 -11.75 0.0
-11.25 -11.75 0.0
-11.75 -11.75 0.0
-12.25 -11.75 0.0
-12.75 -11.75 0.0
-13.25 -11.75 0.0
-13.75 -11.75 0.0
-14.25 -11.75 0.0
-14.75 -11.75 0.0
-15.25 -11.75 0.0
-15.75 -11.75 0.0
-16.25 -11.75 0.0
-16.75 -11.75 0.0
-17.25 -11.75 0.0
-17.75 -11.75 0.0
-18.25 -11.75 0.0
-18.75 -11.75 0.0
-19.25 -11.75 0.0
-19.75 -11.75 0.0
-20.25 -11.75 0.0
-20.75 -11.75 0.0
-21.25 -11.75 0.0
-21.75 -11.75 0.0
-22.25 -11.75 0.0
-22.75 -11.75 0.0
-23.25 -11.75 0.0
-23.75 -11.75 0.0
-24.25 -11.75 0.0
-24.75 -11.75 0.0
-25.25 -11.75 0.0
-25.75 -11.75 0.0
-26.25 -11.75 0.0
-26.75 -11.75 0.0
-27.25 -11.75 0.0
-27.75 -11.75 0.0
-28.25 -11.75 0.0
-28.75 -11.75 0.0
-29.25 -11.75 0.0
-29.75 -11.75 0.0
-30.25 -11.75 0.0
-30.75 -11.75 0.0
-31.25 -11.75 0.0
-31.75 -11.75 0.0
-32.25 -11.75 0.0
-32.75 -11.75 0.0
-33.25 -11.75 0.0
-33.75 -11.75 0.0
-34.25 -11.75 0.0
-34.75 -11.75 0.0
-35.25 -11.75 0.0
-35.75 -11.75 0.0
-36.25 -11.75 0.0
-36.75 -11.75 0.0
-37.25 -11.75 0.0
-37.75 -11.75 0.0
-38.25 -11.75 0.0
-38.75 -11.75 0.0
-39.25 -11.75 0.0
-39.75 -11.75 0.0
-40.25 -11.75 0.0
-40.75 -11.75 0.0
-41.25 -11.75 0.0
-41.75 -11.75 0.0
-42.25 -11.75 0.0
-42.75 -11.75 0.0
-43.25 -11.75 0.0
-43.75 -11.75 0.0
-44.25 -11.75 0.0
-44.75 -11.75 0.0
-45.25 -11.75 0.0
-45.75 -11.75 0.0
-46.25 -11.75 0.0
-46.75 -11.75 0.0
-47.25 -11.75 0.0
-47.75 -11.75 0.0
-48.25 -11.75 0.0
-48.75 -11.75 0.0
-49.25 -11.75 0.0
-49.75 -11.75 0.0
-50.25 -11.75 0.0
-50.75 -11.75 0.0
-51.25 -11.75 0.0
-51.75 -11.75 0.0
-52.25 -11.75 0.0
-52.75 -11.75 0.0
-53.25 -11.75 0.0
-53.75 -11.75 0.0
-54.25 -11.75 0.0
-54.75 -11.75 0.0
-55.25 -11.75 0.0
-55.75 -11.75 0.0
-56.25 -11.75 0.0
-6.25 -12.25 0.0
-6.75 -12.25 0.0
-7.25 -12.25 0.0
-7.75 -12.25 0.0
-8.25 -12.25 0.0
-8.75 -12.25 0.0
-9.25 -12.25 0.0
-9.75 -12.25 0.0
-10.25 -12.25 0.0
-10.75 -12.25 0.0
-11.25 -12.25 0.0
-11.75 -12.25 0.0
-12.25 -12.25 0.0
-12.75 -12.25 0.0
-13.25 -12.25 0.0
-13.75 -12.25 0.0
-14.25 -12.25 0.0
-14.75 -12.25 0.0
-15.25 -12.25 0.0
-15.75 -12.25 0.0
-16.25 -12.25 0.0
-16.75 -12.25 0.0
-17.25 -12.25 0.0
-17.75 -12.25 0.0
-18.25 -12.25 0.0
-18.75 -12.25 0.0
-19.25 -12.25 0.0
-19.75 -12.25 0.0
-20.25 -12.25 0.0
-20.75 -12.25 0.0
-21.25 -12.25 0.0
-21.75 -12.25 0.0
-22.25 -12.25 0.0
-22.75 -12.25 0.0
-23.25 -12.25 0.0
-23.75 -12.25 0.0
-24.25 -12.25 0.0
-24.75 -12.25 0.0
-25.25 -12.25 0.0
-25.75 -12.25 0.0
-26.25 -12.25 0.0
-26.75 -12.25 0.0
-27.25 -12.25 0.0
-27.75 -12.25 0.0
-28.25 -12.25 0.0
-28.75 -12.25 0.0
-29.25 -12.25 0.0
-29.75 -12.25 0.0
-30.25 -12.25 0.0
-30.75 -12.25 0.0
-31.25 -12.25 0.0
-31.75 -12.25 0.0
-32.25 -12.25 0.0
-32.75 -12.25 0.0
-33.25 -12.25 0.0
-33.75 -12.25 0.0
-34.25 -12.25 0.0
-34.75 -12.25 0.0
-35.25 -12.25 0.0
-35.75 -12.25 0.0
-36.25 -12.25 0.0
-36.75 -12.25 0.0
-37.25 -12.25 0.0
-37.75 -12.25 0.0
-38.25 -12.25 0.0
-38.75 -12.25 0.0
-39.25 -12.25 0.0
-39.75 -12.25 0.0
-40.25 -12.25 0.0
-40.75 -12.25 0.0
-41.25 -12.25 0.0
-41.75 -12.25 0.0
-42.25 -12.25 0.0
-42.75 -12.25 0.0
-43.25 -12.25 0.0
-43.75 -12.25 0.0
-44.25 -12.25 0.0
-44.75 -12.25 0.0
-45.25 -12.25 0.0
-45.75 -12.25 0.0
-46.25 -12.25 0.0
-46.75 -12.25 0.0
-47.25 -12.25 0.0
-47.75 -12.25 0.0
-48.25 -12.25 0.0
-48.75 -12.25 0.0
-49.25 -12.25 0.0
-49.75 -12.25 0.0
-50.25 -12.25 0.0
-50.75 -12.25 0.0
-51.25 -12.25 0.0
-51.75 -12.25 0.0
-52.25 -12.25 0.0
-52.75 -12.25 0.0
-53.25 -12.25 0.0
-53.75 -12.25 0.0
-54.25 -12.25 0.0
-54.75 -12.25 0.0
-55.25 -12.25 0.0
-55.75 -12.25 0.0
-56.25 -12.25 0.0
-6.25 -12.75 0.0
-6.75 -12.75 0.0
-7.25 -12.75 0.0
-7.75 -12.75 0.0
-8.25 -12.75 0.0
-8.75 -12.75 0.0
-9.25 -12.75 0.0
-9.75 -12.75 0.0
-10.25 -12.75 0.0
-10.75 -12.75 0.0
-11.25 -12.75 0.0
-11.75 -12.75 0.0
-12.25 -12.75 0.0
-12.75 -12.75 0.0
-13.25 -12.75 0.0
-13.75 -12.75 0.0
-14.25 -12.75 0.0
-14.75 -12.75 0.0
-15.25 -12.75 0.0
-15.75 -12.75 0.0
-16.25 -12.75 0.0
-16.75 -12.75 0.0
-17.25 -12.75 0.0
-17.75 -12.75 0.0
-18.25 -12.75 0.0
-18.75 -12.75 0.0
-19.25 -12.75 0.0
-19.75 -12.75 0.0
-20.25 -12.75 0.0
-20.75 -12.75 0.0
-21.25 -12.75 0.0
-21.75 -12.75 0.0
-22.25 -12.75 0.0
-22.75 -12.75 0.0
-23.25 -12.75 0.0
-23.75 -12.75 0.0
-24.25 -12.75 0.0
-24.75 -12.75 0.0
-25.25 -12.75 0.0
-25.75 -12.75 0.0
-26.25 -12.75 0.0
-26.75 -12.75 0.0
-27.25 -12.75 0.0
-27.75 -12.75 0.0
-28.25 -12.75 0.0
-28.75 -12.75 0.0
-29.25 -12.75 0.0
-29.75 -12.75 0.0
-30.25 -12.75 0.0
-30.75 -12.75 0.0
-31.25 -12.75 0.0
-31.75 -12.75 0.0
-32.25 -12.75 0.0
-32.75 -12.75 0.0
-33.25 -12.75 0.0
-33.75 -12.75 0.0
-34.25 -12.75 0.0
-34.75 -12.75 0.0
-35.25 -12.75 0.0
-35.75 -12.75 0.0
-36.25 -12.75 0.0
-36.75 -12.75 0.0
-37.25 -12.75 0.0
-37.75 -12.75 0.0
-38.25 -12.75 0.0
-38.75 -12.75 0.0
-39.25 -12.75 0.0
-39.75 -12.75 0.0
-40.25 -12.75 0.0
-40.75 -12.75 0.0
-41.25 -12.75 0.0
-41.75 -12.75 0.0
-42.25 -12.75 0.0
-42.75 -12.75 0.0
-43.25 -12.75 0.0
-43.75 -12.75 0.0
-44.25 -12.75 0.0
-44.75 -12.75 0.0
-45.25 -12.75 0.0
-45.75 -12.75 0.0
-46.25 -12.75 0.0
-46.75 -12.75 0.0
-47.25 -12.75 0.0
-47.75 -12.75 0.0
-48.25 -12.75 0.0
-48.75 -12.75 0.0
-49.25 -12.75 0.0
-49.75 -12.75 0.0
-50.25 -12.75 0.0
-50.75 -12.75 0.0
-51.25 -12.75 0.0
-51.75 -12.75 0.0
-52.25 -12.75 0.0
-52.75 -12.75 0.0
-53.25 -12.75 0.0
-53.75 -12.75 0.0
-54.25 -12.75 0.0
-54.75 -12.75 0.0
-55.25 -12.75 0.0
-55.75 -12.75 0.0
-56.25 -12.75 0.0
-6.25 -13.25 0.0
-6.75 -13.25 0.0
-7.25 -13.25 0.0
-7.75 -13.25 0.0
-8.25 -13.25 0.0
-8.75 -13.25 0.0
-9.25 -13.25 0.0
-9.75 -13.25 0.0
-10.25 -13.25 0.0
-10.75 -13.25 0.0
-11.25 -13.25 0.0
-11.75 -13.25 0.0
-12.25 -13.25 0.0
-12.75 -13.25 0.0
-13.25 -13.25 0.0
-13.75 -13.25 0.0
-14.25 -13.25 0.0
-14.75 -13.25 0.0
-15.25 -13.25 0.0
-15.75 -13.25 0.0
-16.25 -13.25 0.0
-16.75 -13.25 0.0
-17.25 -13.25 0.0
-17.75 -13.25 0.0
-18.25 -13.25 0.0
-18.75 -13.25 0.0
-19.25 -13.25 0.0
-19.75 -13.25 0.0
-20.25 -13.25 0.0
-20.75 -13.25 0.0
-21.25 -13.25 0.0
-21.75 -13.25 0.0
-22.25 -13.25 0.0
-22.75 -13.25 0.0
-23.25 -13.25 0.0
-23.75 -13.25 0.0
-24.25 -13.25 0.0
-24.75 -13.25 0.0
-25.25 -13.25 0.0
-25.75 -13.25 0.0
-26.25 -13.25 0.0
-26.75 -13.25 0.0
-27.25 -13.25 0.0
-27.75 -13.25 0.0
-28.25 -13.25 0.0
-28.75 -13.25 0.0
-29.25 -13.25 0.0
-29.75 -13.25 0.0
-30.25 -13.25 0.0
-30.75 -13.25 0.0
-31.25 -13.25 0.0
-31.75 -13.25 0.0
-32.25 -13.25 0.0
-32.75 -13.25 0.0
-33.25 -13.25 0.0
-33.75 -13.25 0.0
-34.25 -13.25 0.0
-34.75 -13.25 0.0
-35.25 -13.25 0.0
-35.75 -13.25 0.0
-36.25 -13.25 0.0
-36.75 -13.25 0.0
-37.25 -13.25 0.0
-37.75 -13.25 0.0
-38.25 -13.25 0.0
-38.75 -13.25 0.0
-39.25 -13.25 0.0
-39.75 -13.25 0.0
-40.25 -13.25 0.0
-40.75 -13.25 0.0
-41.25 -13.25 0.0
-41.75 -13.25 0.0
-42.25 -13.25 0.0
-42.75 -13.25 0.0
-43.25 -13.25 0.0
-43.75 -13.25 0.0
-44.25 -13.25 0.0
-44.75 -13.25 0.0
-45.25 -13.25 0.0
-45.75 -13.25 0.0
-46.25 -13.25 0.0
-46.75 -13.25 0.0
-47.25 -13.25 0.0
-47.75 -13.25 0.0
-48.25 -13.25 0.0
-48.75 -13.25 0.0
-49.25 -13.25 0.0
-49.75 -13.25 0.0
-50.25 -13.25 0.0
-50.75 -13.25 0.0
-51.25 -13.25 0.0
-51.75 -13.25 0.0
-52.25 -13.25 0.0
-52.75 -13.25 0.0
-53.25 -13.25 0.0
-53.75 -13.25 0.0
-54.25 -13.25 0.0
-54.75 -13.25 0.0
-55.25 -13.25 0.0
-55.75 -13.25 0.0
-56.25 -13.25 0.0
-6.25 -13.75 0.0
-6.75 -13.75 0.0
-7.25 -13.75 0.0
-7.75 -13.75 0.0
-8.25 -13.75 0.0
-8.75 -13.75 0.0
-9.25 -13.75 0.0
-9.75 -13.75 0.0
-10.25 -13.75 0.0
-10.75 -13.75 0.0
-11.25 -13.75 0.0
-11.75 -13.75 0.0
-12.25 -13.75 0.0
-12.75 -13.75 0.0
-13.25 -13.75 0.0
-13.75 -13.75 0.0
-14.25 -13.75 0.0
-14.75 -13.75 0.0
-15.25 -13.75 0.0
-15.75 -13.75 0.0
-16.25 -13.75 0.0
-16.75 -13.75 0.0
-17.25 -13.75 0.0
-17.75 -13.75 0.0
-18.25 -13.75 0.0
-18.75 -13.75 0.0
-19.25 -13.75 0.0
-19.75 -13.75 0.0
-20.25 -13.75 0.0
-20.75 -13.75 0.0
-21.25 -13.75 0.0
-21.75 -13.75 0.0
-22.25 -13.75 0.0
-22.75 -13.75 0.0
-23.25 -13.75 0.0
-23.75 -13.75 0.0
-24.25 -13.75 0.0
-24.75 -13.75 0.0
-25.25 -13.75 0.0
-25.75 -13.75 0.0
-26.25 -13.75 0.0
-26.75 -13.75 0.0
-27.25 -13.75 0.0
-27.75 -13.75 0.0
-28.25 -13.75 0.0
-28.75 -13.75 0.0
-29.25 -13.75 0.0
-29.75 -13.75 0.0
-30.25 -13.75 0.0
-30.75 -13.75 0.0
-31.25 -13.75 0.0
-31.75 -13.75 0.0
-32.25 -13.75 0.0
-32.75 -13.75 0.0
-33.25 -13.75 0.0
-33.75 -13.75 0.0
-34.25 -13.75 0.0
-34.75 -13.75 0.0
-35.25 -13.75 0.0
-35.75 -13.75 0.0
-36.25 -13.75 0.0
-36.75 -13.75 0.0
-37.25 -13.75 0.0
-37.75 -13.75 0.0
-38.25 -13.75 0.0
-38.75 -13.75 0.0
-39.25 -13.75 0.0
-39.75 -13.75 0.0
-40.25 -13.75 0.0
-40.75 -13.75 0.0
-41.25 -13.75 0.0
-41.75 -13.75 0.0
-42.25 -13.75 0.0
-42.75 -13.75 0.0
-43.25 -13.75 0.0
-43.75 -13.75 0.0
-44.25 -13.75 0.0
-44.75 -13.75 0.0
-45.25 -13.75 0.0
-45.75 -13.75 0.0
-46.25 -13.75 0.0
-46.75 -13.75 0.0
-47.25 -13.75 0.0
-47.75 -13.75 0.0
-48.25 -13.75 0.0
-48.75 -13.75 0.0
-49.25 -13.75 0.0
-49.75 -13.75 0.0
-50.25 -13.75 0.0
-50.75 -13.75 0.0
-51.25 -13.75 0.0
-51.75 -13.75 0.0
-52.25 -13.75 0.0
-52.75 -13.75 0.0
-53.25 -13.75 0.0
-53.75 -13.75 0.0
-54.25 -13.75 0.0
-54.75 -13.75 0.0
-55.25 -13.75 0.0
-55.75 -13.75 0.0
-56.25 -13.75 0.0
-6.25 -14.25 0.0
-6.75 -14.25 0.0
-7.25 -14.25 0.0
-7.75 -14.25 0.0
-8.25 -14.25 0.0
-8.75 -14.25 0.0
-9.25 -14.25 0.0
-9.75 -14.25 0.0
-10.25 -14.25 0.0
-10.75 -14.25 0.0
-11.25 -14.25 0.0
-11.75 -14.25 0.0
-12.25 -14.25 0.0
-12.75 -14.25 0.0
-13.25 -14.25 0.0
-13.75 -14.25 0.0
-14.25 -14.25 0.0
-14.75 -14.25 0.0
-15.25 -14.25 0.0
-15.75 -14.25 0.0
-16.25 -14.25 0.0
-16.75 -14.25 0.0
-17.25 -14.25 0.0
-17.75 -14.25 0.0
-18.25 -14.25 0.0
-18.75 -14.25 0.0
-19.25 -14.25 0.0
-19.75 -14.25 0.0
-20.25 -14.25 0.0
-20.75 -14.25 0.0
-21.25 -14.25 0.0
-21.75 -14.25 0.0
-22.25 -14.25 0.0
-22.75 -14.25 0.0
-23.25 -14.25 0.0
-23.75 -14.25 0.0
-24.25 -14.25 0.0
-24.75 -14.25 0.0
-25.25 -14.25 0.0
-25.75 -14.25 0.0
-26.25 -14.25 0.0
-26.75 -14.25 0.0
-27.25 -14.25 0.0
-27.75 -14.25 0.0
-28.25 -14.25 0.0
-28.75 -14.25 0.0
-29.25 -14.25 0.0
-29.75 -14.25 0.0
-30.25 -14.25 0.0
-30.75 -14.25 0.0
-31.25 -14.25 0.0
-31.75 -14.25 0.0
-32.25 -14.25 0.0
-32.75 -14.25 0.0
-33.25 -14.25 0.0
-33.75 -14.25 0.0
-34.25 -14.25 0.0
-34.75 -14.25 0.0
-35.25 -14.25 0.0
-35.75 -14.25 0.0
-36.25 -14.25 0.0
-36.75 -14.25 0.0
-37.25 -14.25 0.0
-37.75 -14.25 0.0
-38.25 -14.25 0.0
-38.75 -14.25 0.0
-39.25 -14.25 0.0
-39.75 -14.25 0.0
-40.25 -14.25 0.0
-40.75 -14.25 0.0
-41.25 -14.25 0.0
-41.75 -14.25 0.0
-42.25 -14.25 0.0
-42.75 -14.25 0.0
-43.25 -14.25 0.0
-43.75 -14.25 0.0
-44.25 -14.25 0.0
-44.75 -14.25 0.0
-45.25 -14.25 0.0
-45.75 -14.25 0.0
-46.25 -14.25 0.0
-46.75 -14.25 0.0
-47.25 -14.25 0.0
-47.75 -14.25 0.0
-48.25 -14.25 0.0
-48.75 -14.25 0.0
-49.25 -14.25 0.0
-49.75 -14.25 0.0
-50.25 -14.25 0.0
-50.75 -14.25 0.0
-51.25 -14.25 0.0
-51.75 -14.25 0.0
-52.25 -14.25 0.0
-52.75 -14.25 0.0
-53.25 -14.25 0.0
-53.75 -14.25 0.0
-54.25 -14.25 0.0
-54.75 -14.25 0.0
-55.25 -14.25 0.0
-55.75 -14.25 0.0
-56.25 -14.25 0.0
-6.25 -14.75 0.0
-6.75 -14.75 0.0
-7.25 -14.75 0.0
-7.75 -14.75 0.0
-8.25 -14.75 0.0
-8.75 -14.75 0.0
-9.25 -14.75 0.0
-9.75 -14.75 0.0
-10.25 -14.75 0.0
-10.75 -14.75 0.0
-11.25 -14.75 0.0
-11.75 -14.75 0.0
-12.25 -14.75 0.0
-12.75 -14.75 0.0
-13.25 -14.75 0.0
-13.75 -14.75 0.0
-14.25 -14.75 0.0
-14.75 -14.75 0.0
-15.25 -14.75 0.0
-15.75 -14.75 0.0
-16.25 -14.75 0.0
-16.75 -14.75 0.0
-17.25 -14.75 0.0
-17.75 -14.75 0.0
-18.25 -14.75 0.0
-18.75 -14.75 0.0
-19.25 -14.75 0.0
-19.75 -14.75 0.0
-20.25 -14.75 0.0
-20.75 -14.75 0.0
-21.25 -14.75 0.0
-21.75 -14.75 0.0
-22.25 -14.75 0.0
-22.75 -14.75 0.0
-23.25 -14.75 0.0
-23.75 -14.75 0.0
-24.25 -14.75 0.0
-24.75 -14.75 0.0
-25.25 -14.75 0.0
-25.75 -14.75 0.0
-26.25 -14.75 0.0
-26.75 -14.75 0.0
-27.25 -14.75 0.0
-27.75 -14.75 0.0
-28.25 -14.75 0.0
-28.75 -14.75 0.0
-29.25 -14.75 0.0
-29.75 -14.75 0.0
-30.25 -14.75 0.0
-30.75 -14.75 0.0
-31.25 -14.75 0.0
-31.75 -14.75 0.0
-32.25 -14.75 0.0
-32.75 -14.75 0.0
-33.25 -14.75 0.0
-33.75 -14.75 0.0
-34.25 -14.75 0.0
-34.75 -14.75 0.0
-35.25 -14.75 0.0
-35.75 -14.75 0.0
-36.25 -14.75 0.0
-36.75 -14.75 0.0
-37.25 -14.75 0.0
-37.75 -14.75 0.0
-38.25 -14.75 0.0
-38.75 -14.75 0.0
-39.25 -14.75 0.0
-39.75 -14.75 0.0
-40.25 -14.75 0.0
-40.75 -14.75 0.0
-41.25 -14.75 0.0
-41.75 -14.75 0.0
-42.25 -14.75 0.0
-42.75 -14.75 0.0
-43.25 -14.75 0.0
-43.75 -14.75 0.0
-44.25 -14.75 0.0
-44.75 -14.75 0.0
-45.25 -14.75 0.0
-45.75 -14.75 0.0
-46.25 -14.75 0.0
-46.75 -14.75 0.0
-47.25 -14.75 0.0
-47.75 -14.75 0.0
-48.25 -14.75 0.0
-48.75 -14.75 0.0
-49.25 -14.75 0.0
-49.75 -14.75 0.0
-50.25 -14.75 0.0
-50.75 -14.75 0.0
-51.25 -14.75 0.0
-51.75 -14.75 0.0
-52.25 -14.75 0.0
-52.75 -14.75 0.0
-53.25 -14.75 0.0
-53.75 -14.75 0.0
-54.25 -14.75 0.0
-54.75 -14.75 0.0
-55.25 -14.75 0.0
-55.75 -14.75 0.0
-56.25 -14.75 0.0
-6.25 -15.25 0.0
-6.75 -15.25 0.0
-7.25 -15.25 0.0
-7.75 -15.25 0.0
-8.25 -15.25 0.0
-8.75 -15.25 0.0
-9.25 -15.25 0.0
-9.75 -15.25 0.0
-10.25 -15.25 0.0
-10.75 -15.25 0.0
-11.25 -15.25 0.0
-11.75 -15.25 0.0
-12.25 -15.25 0.0
-12.75 -15.25 0.0
-13.25 -15.25 0.0
-13.75 -15.25 0.0
-14.25 -15.25 0.0
-14.75 -15.25 0.0
-15.25 -15.25 0.0
-15.75 -15.25 0.0
-16.25 -15.25 0.0
-16.75 -15.25 0.0
-17.25 -15.25 0.0
-17.75 -15.25 0.0
-18.25 -15.25 0.0
-18.75 -15.25 0.0
-19.25 -15.25 0.0
-19.75 -15.25 0.0
-20.25 -15.25 0.0
-20.75 -15.25 0.0
-21.25 -15.25 0.0
-21.75 -15.25 0.0
-22.25 -15.25 0.0
-22.75 -15.25 0.0
-23.25 -15.25 0.0
-23.75 -15.25 0.0
-24.25 -15.25 0.0
-24.75 -15.25 0.0
-25.25 -15.25 0.0
-25.75 -15.25 0.0
-26.25 -15.25 0.0
-26.75 -15.25 0.0
-27.25 -15.25 0.0
-27.75 -15.25 0.0
-28.25 -15.25 0.0
-28.75 -15.25 0.0
-29.25 -15.25 0.0
-29.75 -15.25 0.0
-30.25 -15.25 0.0
-30.75 -15.25 0.0
-31.25 -15.25 0.0
-31.75 -15.25 0.0
-32.25 -15.25 0.0
-32.75 -15.25 0.0
-33.25 -15.25 0.0
-33.75 -15.25 0.0
-34.25 -15.25 0.0
-34.75 -15.25 0.0
-35.25 -15.25 0.0
-35.75 -15.25 0.0
-36.25 -15.25 0.0
-36.75 -15.25 0.0
-37.25 -15.25 0.0
-37.75 -15.25 0.0
-38.25 -15.25 0.0
-38.75 -15.25 0.0
-39.25 -15.25 0.0
-39.75 -15.25 0.0
-40.25 -15.25 0.0
-40.75 -15.25 0.0
-41.25 -15.25 0.0
-41.75 -15.25 0.0
-42.25 -15.25 0.0
-42.75 -15.25 0.0
-43.25 -15.25 0.0
-43.75 -15.25 0.0
-44.25 -15.25 0.0
-44.75 -15.25 0.0
-45.25 -15.25 0.0
-45.75 -15.25 0.0
-46.25 -15.25 0.0
-46.75 -15.25 0.0
-47.25 -15.25 0.0
-47.75 -15.25 0.0
-48.25 -15.25 0.0
-48.75 -15.25 0.0
-49.25 -15.25 0.0
-49.75 -15.25 0.0
-50.25 -15.25 0.0
-50.75 -15.25 0.0
-51.25 -15.25 0.0
-51.75 -15.25 0.0
-52.25 -15.25 0.0
-52.75 -15.25 0.0
-53.25 -15.25 0.0
-53.75 -15.25 0.0
-54.25 -15.25 0.0
-54.75 -15.25 0.0
-55.25 -15.25 0.0
-55.75 -15.25 0.0
-56.25 -15.25 0.0
-6.25 -15.75 0.0
-6.75 -15.75 0.0
-7.25 -15.75 0.0
-7.75 -15.75 0.0
-8.25 -15.75 0.0
-8.75 -15.75 0.0
-9.25 -15.75 0.0
-9.75 -15.75 0.0
-10.25 -15.75 0.0
-10.75 -15.75 0.0
-11.25 -15.75 0.0
-11.75 -15.75 0.0
-12.25 -15.75 0.0
-12.75 -15.75 0.0
-13.25 -15.75 0.0
-13.75 -15.75 0.0
-14.25 -15.75 0.0
-14.75 -15.75 0.0
-15.25 -15.75 0.0
-15.75 -15.75 0.0
-16.25 -15.75 0.0
-16.75 -15.75 0.0
-17.25 -15.75 0.0
-17.75 -15.75 0.0
-18.25 -15.75 0.0
-18.75 -15.75 0.0
-19.25 -15.75 0.0
-19.75 -15.75 0.0
-20.25 -15.75 0.0
-20.75 -15.75 0.0
-21.25 -15.75 0.0
-21.75 -15.75 0.0
-22.25 -15.75 0.0
-22.75 -15.75 0.0
-23.25 -15.75 0.0
-23.75 -15.75 0.0
-24.25 -15.75 0.0
-24.75 -15.75 0.0
-25.25 -15.75 0.0
-25.75 -15.75 0.0
-26.25 -15.75 0.0
-26.75 -15.75 0.0
-27.25 -15.75 0.0
-27.75 -15.75 0.0
-28.25 -15.75 0.0
-28.75 -15.75 0.0
-29.25 -15.75 0.0
-29.75 -15.75 0.0
-30.25 -15.75 0.0
-30.75 -15.75 0.0
-31.25 -15.75 0.0
-31.75 -15.75 0.0
-32.25 -15.75 0.0
-32.75 -15.75 0.0
-33.25 -15.75 0.0
-33.75 -15.75 0.0
-34.25 -15.75 0.0
-34.75 -15.75 0.0
-35.25 -15.75 0.0
-35.75 -15.75 0.0
-36.25 -15.75 0.0
-36.75 -15.75 0.0
-37.25 -15.75 0.0
-37.75 -15.75 0.0
-38.25 -15.75 0.0
-38.75 -15.75 0.0
-39.25 -15.75 0.0
-39.75 -15.75 0.0
-40.25 -15.75 0.0
-40.75 -15.75 0.0
-41.25 -15.75 0.0
-41.75 -15.75 0.0
-42.25 -15.75 0.0
-42.75 -15.75 0.0
-43.25 -15.75 0.0
-43.75 -15.75 0.0
-44.25 -15.75 0.0
-44.75 -15.75 0.0
-45.25 -15.75 0.0
-45.75 -15.75 0.0
-46.25 -15.75 0.0
-46.75 -15.75 0.0
-47.25 -15.75 0.0
-47.75 -15.75 0.0
-48.25 -15.75 0.0
-48.75 -15.75 0.0
-49.25 -15.75 0.0
-49.75 -15.75 0.0
-50.25 -15.75 0.0
-50.75 -15.75 0.0
-51.25 -15.75 0.0
-51.75 -15.75 0.0
-52.25 -15.75 0.0
-52.75 -15.75 0.0
-53.25 -15.75 0.0
-53.75 -15.75 0.0
-54.25 -15.75 0.0
-54.75 -15.75 0.0
-55.25 -15.75 0.0
-55.75 -15.75 0.0
-56.25 -15.75 0.0
-6.25 -16.25 0.0
-6.75 -16.25 0.0
-7.25 -16.25 0.0
-7.75 -16.25 0.0
-8.25 -16.25 0.0
-8.75 -16.25 0.0
-9.25 -16.25 0.0
-9.75 -16.25 0.0
-10.25 -16.25 0.0
-10.75 -16.25 0.0
-11.25 -16.25 0.0
-11.75 -16.25 0.0
-12.25 -16.25 0.0
-12.75 -16.25 0.0
-13.25 -16.25 0.0
-13.75 -16.25 0.0
-14.25 -16.25 0.0
-14.75 -16.25 0.0
-15.25 -16.25 0.0
-15.75 -16.25 0.0
-16.25 -16.25 0.0
-16.75 -16.25 0.0
-17.25 -16.25 0.0
-17.75 -16.25 0.0
-18.25 -16.25 0.0
-18.75 -16.25 0.0
-19.25 -16.25 0.0
-19.75 -16.25 0.0
-20.25 -16.25 0.0
-20.75 -16.25 0.0
-21.25 -16.25 0.0
-21.75 -16.25 0.0
-22.25 -16.25 0.0
-22.75 -16.25 0.0
-23.25 -16.25 0.0
-23.75 -16.25 0.0
-24.25 -16.25 0.0
-24.75 -16.25 0.0
-25.25 -16.25 0.0
-25.75 -16.25 0.0
-26.25 -16.25 0.0
-26.75 -16.25 0.0
-27.25 -16.25 0.0
-27.75 -16.25 0.0
-28.25 -16.25 0.0
-28.75 -16.25 0.0
-29.25 -16.25 0.0
-29.75 -16.25 0.0
-30.25 -16.25 0.0
-30.75 -16.25 0.0
-31.25 -16.25 0.0
-31.75 -16.25 0.0
-32.25 -16.25 0.0
-32.75 -16.25 0.0
-33.25 -16.25 0.0
-33.75 -16.25 0.0
-34.25 -16.25 0.0
-34.75 -16.25 0.0
-35.25 -16.25 0.0
-35.75 -16.25 0.0
-36.25 -16.25 0.0
-36.75 -16.25 0.0
-37.25 -16.25 0.0
-37.75 -16.25 0.0
-38.25 -16.25 0.0
-38.75 -16.25 0.0
-39.25 -16.25 0.0
-39.75 -16.25 0.0
-40.25 -16.25 0.0
-40.75 -16.25 0.0
-41.25 -16.25 0.0
-41.75 -16.25 0.0
-42.25 -16.25 0.0
-42.75 -16.25 0.0
-43.25 -16.25 0.0
-43.75 -16.25 0.0
-44.25 -16.25 0.0
-44.75 -16.25 0.0
-45.25 -16.25 0.0
-45.75 -16.25 0.0
-46.25 -16.25 0.0
-46.75 -16.25 0.0
-47.25 -16.25 0.0
-47.75 -16.25 0.0
-48.25 -16.25 0.0
-48.75 -16.25 0.0
-49.25 -16.25 0.0
-49.75 -16.25 0.0
-50.25 -16.25 0.0
-50.75 -16.25 0.0
-51.25 -16.25 0.0
-51.75 -16.25 0.0
-52.25 -16.25 0.0
-52.75 -16.25 0.0
-53.25 -16.25 0.0
-53.75 -16.25 0.0
-54.25 -16.25 0.0
-54.75 -16.25 0.0
-55.25 -16.25 0.0
-55.75 -16.25 0.0
-56.25 -16.25 0.0
-6.25 -16.75 0.0
-6.75 -16.75 0.0
-7.25 -16.75 0.0
-7.75 -16.75 0.0
-8.25 -16.75 0.0
-8.75 -16.75 0.0
-9.25 -16.75 0.0
-9.75 -16.75 0.0
-10.25 -16.75 0.0
-10.75 -16.75 0.0
-11.25 -16.75 0.0
-11.75 -16.75 0.0
-12.25 -16.75 0.0
-12.75 -16.75 0.0
-13.25 -16.75 0.0
-13.75 -16.75 0.0
-14.25 -16.75 0.0
-14.75 -16.75 0.0
-15.25 -16.75 0.0
-15.75 -16.75 0.0
-16.25 -16.75 0.0
-16.75 -16.75 0.0
-17.25 -16.75 0.0
-17.75 -16.75 0.0
-18.25 -16.75 0.0
-18.75 -16.75 0.0
-19.25 -16.75 0.0
-19.75 -16.75 0.0
-20.25 -16.75 0.0
-20.75 -16.75 0.0
-21.25 -16.75 0.0
-21.75 -16.75 0.0
-22.25 -16.75 0.0
-22.75 -16.75 0.0
-23.25 -16.75 0.0
-23.75 -16.75 0.0
-24.25 -16.75 0.0
-24.75 -16.75 0.0
-25.25 -16.75 0.0
-25.75 -16.75 0.0
-26.25 -16.75 0.0
-26.75 -16.75 0.0
-27.25 -16.75 0.0
-27.75 -16.75 0.0
-28.25 -16.75 0.0
-28.75 -16.75 0.0
-29.25 -16.75 0.0
-29.75 -16.75 0.0
-30.25 -16.75 0.0
-30.75 -16.75 0.0
-31.25 -16.75 0.0
-31.75 -16.75 0.0
-32.25 -16.75 0.0
-32.75 -16.75 0.0
-33.25 -16.75 0.0
-33.75 -16.75 0.0
-34.25 -16.75 0.0
-34.75 -16.75 0.0
-35.25 -16.75 0.0
-35.75 -16.75 0.0
-36.25 -16.75 0.0
-36.75 -16.75 0.0
-37.25 -16.75 0.0
-37.75 -16.75 0.0
-38.25 -16.75 0.0
-38.75 -16.75 0.0
-39.25 -16.75 0.0
-39.75 -16.75 0.0
-40.25 -16.75 0.0
-40.75 -16.75 0.0
-41.25 -16.75 0.0
-41.75 -16.75 0.0
-42.25 -16.75 0.0
-42.75 -16.75 0.0
-43.25 -16.75 0.0
-43.75 -16.75 0.0
-44.25 -16.75 0.0
-44.75 -16.75 0.0
-45.25 -16.75 0.0
-45.75 -16.75 0.0
-46.25 -16.75 0.0
-46.75 -16.75 0.0
-47.25 -16.75 0.0
-47.75 -16.75 0.0
-48.25 -16.75 0.0
-48.75 -16.75 0.0
-49.25 -16.75 0.0
-49.75 -16.75 0.0
-50.25 -16.75 0.0
-50.75 -16.75 0.0
-51.25 -16.75 0.0
-51.75 -16.75 0.0
-52.25 -16.75 0.0
-52.75 -16.75 0.0
-53.25 -16.75 0.0
-53.75 -16.75 0.0
-54.25 -16.75 0.0
-54.75 -16.75 0.0
-55.25 -16.75 0.0
-55.75 -16.75 0.0
-56.25 -16.75 0.0
-6.25 -17.25 0.0
-6.75 -17.25 0.0
-7.25 -17.25 0.0
-7.75 -17.25 0.0
-8.25 -17.25 0.0
-8.75 -17.25 0.0
-9.25 -17.25 0.0
-9.75 -17.25 0.0
-10.25 -17.25 0.0
-10.75 -17.25 0.0
-11.25 -17.25 0.0
-11.75 -17.25 0.0
-12.25 -17.25 0.0
-12.75 -17.25 0.0
-13.25 -17.25 0.0
-13.75 -17.25 0.0
-14.25 -17.25 0.0
-14.75 -17.25 0.0
-15.25 -17.25 0.0
-15.75 -17.25 0.0
-16.25 -17.25 0.0
-16.75 -17.25 0.0
-17.25 -17.25 0.0
-17.75 -17.25 0.0
-18.25 -17.25 0.0
-18.75 -17.25 0.0
-19.25 -17.25 0.0
-19.75 -17.25 0.0
-20.25 -17.25 0.0
-20.75 -17.25 0.0
-21.25 -17.25 0.0
-21.75 -17.25 0.0
-22.25 -17.25 0.0
-22.75 -17.25 0.0
-23.25 -17.25 0.0
-23.75 -17.25 0.0
-24.25 -17.25 0.0
-24.75 -17.25 0.0
-25.25 -17.25 0.0
-25.75 -17.25 0.0
-26.25 -17.25 0.0
-26.75 -17.25 0.0
-27.25 -17.25 0.0
-27.75 -17.25 0.0
-28.25 -17.25 0.0
-28.75 -17.25 0.0
-29.25 -17.25 0.0
-29.75 -17.25 0.0
-30.25 -17.25 0.0
-30.75 -17.25 0.0
-31.25 -17.25 0.0
-31.75 -17.25 0.0
-32.25 -17.25 0.0
-32.75 -17.25 0.0
-33.25 -17.25 0.0
-33.75 -17.25 0.0
-34.25 -17.25 0.0
-34.75 -17.25 0.0
-35.25 -17.25 0.0
-35.75 -17.25 0.0
-36.25 -17.25 0.0
-36.75 -17.25 0.0
-37.25 -17.25 0.0
-37.75 -17.25 0.0
-38.25 -17.25 0.0
-38.75 -17.25 0.0
-39.25 -17.25 0.0
-39.75 -17.25 0.0
-40.25 -17.25 0.0
-40.75 -17.25 0.0
-41.25 -17.25 0.0
-41.75 -17.25 0.0
-42.25 -17.25 0.0
-42.75 -17.25 0.0
-43.25 -17.25 0.0
-43.75 -17.25 0.0
-44.25 -17.25 0.0
-44.75 -17.25 0.0
-45.25 -17.25 0.0
-45.75 -17.25 0.0
-46.25 -17.25 0.0
-46.75 -17.25 0.0
-47.25 -17.25 0.0
-47.75 -17.25 0.0
-48.25 -17.25 0.0
-48.75 -17.25 0.0
-49.25 -17.25 0.0
-49.75 -17.25 0.0
-50.25 -17.25 0.0
-50.75 -17.25 0.0
-51.25 -17.25 0.0
-51.75 -17.25 0.0
-52.25 -17.25 0.0
-52.75 -17.25 0.0
-53.25 -17.25 0.0
-53.75 -17.25 0.0
-54.25 -17.25 0.0
-54.75 -17.25 0.0
-55.25 -17.25 0.0
-55.75 -17.25 0.0
-56.25 -17.25 0.0
-6.25 -17.75 0.0
-6.75 -17.75 0.0
-7.25 -17.75 0.0
-7.75 -17.75 0.0
-8.25 -17.75 0.0
-8.75 -17.75 0.0
-9.25 -17.75 0.0
-9.75 -17.75 0.0
-10.25 -17.75 0.0
-10.75 -17.75 0.0
-11.25 -17.75 0.0
-11.75 -17.75 0.0
-12.25 -17.75 0.0
-12.75 -17.75 0.0
-13.25 -17.75 0.0
-13.75 -17.75 0.0
-14.25 -17.75 0.0
-14.75 -17.75 0.0
-15.25 -17.75 0.0
-15.75 -17.75 0.0
-16.25 -17.75 0.0
-16.75 -17.75 0.0
-17.25 -17.75 0.0
-17.75 -17.75 0.0
-18.25 -17.75 0.0
-18.75 -17.75 0.0
-19.25 -17.75 0.0
-19.75 -17.75 0.0
-20.25 -17.75 0.0
-20.75 -17.75 0.0
-21.25 -17.75 0.0
-21.75 -17.75 0.0
-22.25 -17.75 0.0
-22.75 -17.75 0.0
-23.25 -17.75 0.0
-23.75 -17.75 0.0
-24.25 -17.75 0.0
-24.75 -17.75 0.0
-25.25 -17.75 0.0
-25.75 -17.75 0.0
-26.25 -17.75 0.0
-26.75 -17.75 0.0
-27.25 -17.75 0.0
-27.75 -17.75 0.0
-28.25 -17.75 0.0
-28.75 -17.75 0.0
-29.25 -17.75 0.0
-29.75 -17.75 0.0
-30.25 -17.75 0.0
-30.75 -17.75 0.0
-31.25 -17.75 0.0
-31.75 -17.75 0.0
-32.25 -17.75 0.0
-32.75 -17.75 0.0
-33.25 -17.75 0.0
-33.75 -17.75 0.0
-34.25 -17.75 0.0
-34.75 -17.75 0.0
-35.25 -17.75 0.0
-35.75 -17.75 0.0
-36.25 -17.75 0.0
-36.75 -17.75 0.0
-37.25 -17.75 0.0
-37.75 -17.75 0.0
-38.25 -17.75 0.0
-38.75 -17.75 0.0
-39.25 -17.75 0.0
-39.75 -17.75 0.0
-40.25 -17.75 0.0
-40.75 -17.75 0.0
-41.25 -17.75 0.0
-41.75 -17.75 0.0
-42.25 -17.75 0.0
-42.75 -17.75 0.0
-43.25 -17.75 0.0
-43.75 -17.75 0.0
-44.25 -17.75 0.0
-44.75 -17.75 0.0
-45.25 -17.75 0.0
-45.75 -17.75 0.0
-46.25 -17.75 0.0
-46.75 -17.75 0.0
-47.25 -17.75 0.0
-47.75 -17.75 0.0
-48.25 -17.75 0.0
-48.75 -17.75 0.0
-49.25 -17.75 0.0
-49.75 -17.75 0.0
-50.25 -17.75 0.0
-50.75 -17.75 0.0
-51.25 -17.75 0.0
-51.75 -17.75 0.0
-52.25 -17.75 0.0
-52.75 -17.75 0.0
-53.25 -17.75 0.0
-53.75 -17.75 0.0
-54.25 -17.75 0.0
-54.75 -17.75 0.0
-55.25 -17.75 0.0
-55.75 -17.75 0.0
-56.25 -17.75 0.0
-6.25 -18.25 0.0
-6.75 -18.25 0.0
-7.25 -18.25 0.0
-7.75 -18.25 0.0
-8.25 -18.25 0.0
-8.75 -18.25 0.0
-9.25 -18.25 0.0
-9.75 -18.25 0.0
-10.25 -18.25 0.0
-10.75 -18.25 0.0
-11.25 -18.25 0.0
-11.75 -18.25 0.0
-12.25 -18.25 0.0
-12.75 -18.25 0.0
-13.25 -18.25 0.0
-13.75 -18.25 0.0
-14.25 -18.25 0.0
-14.75 -18.25 0.0
-15.25 -18.25 0.0
-15.75 -18.25 0.0
-16.25 -18.25 0.0
-16.75 -18.25 0.0
-17.25 -18.25 0.0
-17.75 -18.25 0.0
-18.25 -18.25 0.0
-18.75 -18.25 0.0
-19.25 -18.25 0.0
-19.75 -18.25 0.0
-20.25 -18.25 0.0
-20.75 -18.25 0.0
-21.25 -18.25 0.0
-21.75 -18.25 0.0
-22.25 -18.25 0.0
-22.75 -18.25 0.0
-23.25 -18.25 0.0
-23.75 -18.25 0.0
-24.25 -18.25 0.0
-24.75 -18.25 0.0
-25.25 -18.25 0.0
-25.75 -18.25 0.0
-26.25 -18.25 0.0
-26.75 -18.25 0.0
-27.25 -18.25 0.0
-27.75 -18.25 0.0
-28.25 -18.25 0.0
-28.75 -18.25 0.0
-29.25 -18.25 0.0
-29.75 -18.25 0.0
-30.25 -18.25 0.0
-30.75 -18.25 0.0
-31.25 -18.25 0.0
-31.75 -18.25 0.0
-32.25 -18.25 0.0
-32.75 -18.25 0.0
-33.25 -18.25 0.0
-33.75 -18.25 0.0
-34.25 -18.25 0.0
-34.75 -18.25 0.0
-35.25 -18.25 0.0
-35.75 -18.25 0.0
-36.25 -18.25 0.0
-36.75 -18.25 0.0
-37.25 -18.25 0.0
-37.75 -18.25 0.0
-38.25 -18.25 0.0
-38.75 -18.25 0.0
-39.25 -18.25 0.0
-39.75 -18.25 0.0
-40.25 -18.25 0.0
-40.75 -18.25 0.0
-41.25 -18.25 0.0
-41.75 -18.25 0.0
-42.25 -18.25 0.0
-42.75 -18.25 0.0
-43.25 -18.25 0.0
-43.75 -18.25 0.0
-44.25 -18.25 0.0
-44.75 -18.25 0.0
-45.25 -18.25 0.0
-45.75 -18.25 0.0
-46.25 -18.25 0.0
-46.75 -18.25 0.0
-47.25 -18.25 0.0
-47.75 -18.25 0.0
-48.25 -18.25 0.0
-48.75 -18.25 0.0
-49.25 -18.25 0.0
-49.75 -18.25 0.0
-50.25 -18.25 0.0
-50.75 -18.25 0.0
-51.25 -18.25 0.0
-51.75 -18.25 0.0
-52.25 -18.25 0.0
-52.75 -18.25 0.0
-53.25 -18.25 0.0
-53.75 -18.25 0.0
-54.25 -18.25 0.0
-54.75 -18.25 0.0
-55.25 -18.25 0.0
-55.75 -18.25 0.0
-56.25 -18.25 0.0
-6.25 -18.75 0.0
-6.75 -18.75 0.0
-7.25 -18.75 0.0
-7.75 -18.75 0.0
-8.25 -18.75 0.0
-8.75 -18.75 0.0
-9.25 -18.75 0.0
-9.75 -18.75 0.0
-10.25 -18.75 0.0
-10.75 -18.75 0.0
-11.25 -18.75 0.0
-11.75 -18.75 0.0
-12.25 -18.75 0.0
-12.75 -18.75 0.0
-13.25 -18.75 0.0
-13.75 -18.75 0.0
-14.25 -18.75 0.0
-14.75 -18.75 0.0
-15.25 -18.75 0.0
-15.75 -18.75 0.0
-16.25 -18.75 0.0
-16.75 -18.75 0.0
-17.25 -18.75 0.0
-17.75 -18.75 0.0
-18.25 -18.75 0.0
-18.75 -18.75 0.0
-19.25 -18.75 0.0
-19.75 -18.75 0.0
-20.25 -18.75 0.0
-20.75 -18.75 0.0
-21.25 -18.75 0.0
-21.75 -18.75 0.0
-22.25 -18.75 0.0
-22.75 -18.75 0.0
-23.25 -18.75 0.0
-23.75 -18.75 0.0
-24.25 -18.75 0.0
-24.75 -18.75 0.0
-25.25 -18.75 0.0
-25.75 -18.75 0.0
-26.25 -18.75 0.0
-26.75 -18.75 0.0
-27.25 -18.75 0.0
-27.75 -18.75 0.0
-28.25 -18.75 0.0
-28.75 -18.75 0.0
-29.25 -18.75 0.0
-29.75 -18.75 0.0
-30.25 -18.75 0.0
-30.75 -18.75 0.0
-31.25 -18.75 0.0
-31.75 -18.75 0.0
-32.25 -18.75 0.0
-32.75 -18.75 0.0
-33.25 -18.75 0.0
-33.75 -18.75 0.0
-34.25 -18.75 0.0
-34.75 -18.75 0.0
-35.25 -18.75 0.0
-35.75 -18.75 0.0
-36.25 -18.75 0.0
-36.75 -18.75 0.0
-37.25 -18.75 0.0
-37.75 -18.75 0.0
-38.25 -18.75 0.0
-38.75 -18.75 0.0
-39.25 -18.75 0.0
-39.75 -18.75 0.0
-40.25 -18.75 0.0
-40.75 -18.75 0.0
-41.25 -18.75 0.0
-41.75 -18.75 0.0
-42.25 -18.75 0.0
-42.75 -18.75 0.0
-43.25 -18.75 0.0
-43.75 -18.75 0.0
-44.25 -18.75 0.0
-44.75 -18.75 0.0
-45.25 -18.75 0.0
-45.75 -18.75 0.0
-46.25 -18.75 0.0
-46.75 -18.75 0.0
-47.25 -18.75 0.0
-47.75 -18.75 0.0
-48.25 -18.75 0.0
-48.75 -18.75 0.0
-49.25 -18.75 0.0
-49.75 -18.75 0.0
-50.25 -18.75 0.0
-50.75 -18.75 0.0
-51.25 -18.75 0.0
-51.75 -18.75 0.0
-52.25 -18.75 0.0
-52.75 -18.75 0.0
-53.25 -18.75 0.0
-53.75 -18.75 0.0
-54.25 -18.75 0.0
-54.75 -18.75 0.0
-55.25 -18.75 0.0
-55.75 -18.75 0.0
-56.25 -18.75 0.0
-6.25 -19.25 0.0
-6.75 -19.25 0.0
-7.25 -19.25 0.0
-7.75 -19.25 0.0
-8.25 -19.25 0.0
-8.75 -19.25 0.0
-9.25 -19.25 0.0
-9.75 -19.25 0.0
-10.25 -19.25 0.0
-10.75 -19.25 0.0
-11.25 -19.25 0.0
-11.75 -19.25 0.0
-12.25 -19.25 0.0
-12.75 -19.25 0.0
-13.25 -19.25 0.0
-13.75 -19.25 0.0
-14.25 -19.25 0.0
-14.75 -19.25 0.0
-15.25 -19.25 0.0
-15.75 -19.25 0.0
-16.25 -19.25 0.0
-16.75 -19.25 0.0
-17.25 -19.25 0.0
-17.75 -19.25 0.0
-18.25 -19.25 0.0
-18.75 -19.25 0.0
-19.25 -19.25 0.0
-19.75 -19.25 0.0
-20.25 -19.25 0.0
-20.75 -19.25 0.0
-21.25 -19.25 0.0
-21.75 -19.25 0.0
-22.25 -19.25 0.0
-22.75 -19.25 0.0
-23.25 -19.25 0.0
-23.75 -19.25 0.0
-24.25 -19.25 0.0
-24.75 -19.25 0.0
-25.25 -19.25 0.0
-25.75 -19.25 0.0
-26.25 -19.25 0.0
-26.75 -19.25 0.0
-27.25 -19.25 0.0
-27.75 -19.25 0.0
-28.25 -19.25 0.0
-28.75 -19.25 0.0
-29.25 -19.25 0.0
-29.75 -19.25 0.0
-30.25 -19.25 0.0
-30.75 -19.25 0.0
-31.25 -19.25 0.0
-31.75 -19.25 0.0
-32.25 -19.25 0.0
-32.75 -19.25 0.0
-33.25 -19.25 0.0
-33.75 -19.25 0.0
-34.25 -19.25 0.0
-34.75 -19.25 0.0
-35.25 -19.25 0.0
-35.75 -19.25 0.0
-36.25 -19.25 0.0
-36.75 -19.25 0.0
-37.25 -19.25 0.0
-37.75 -19.25 0.0
-38.25 -19.25 0.0
-38.75 -19.25 0.0
-39.25 -19.25 0.0
-39.75 -19.25 0.0
-40.25 -19.25 0.0
-40.75 -19.25 0.0
-41.25 -19.25 0.0
-41.75 -19.25 0.0
-42.25 -19.25 0.0
-42.75 -19.25 0.0
-43.25 -19.25 0.0
-43.75 -19.25 0.0
-44.25 -19.25 0.0
-44.75 -19.25 0.0
-45.25 -19.25 0.0
-45.75 -19.25 0.0
-46.25 -19.25 0.0
-46.75 -19.25 0.0
-47.25 -19.25 0.0
-47.75 -19.25 0.0
-48.25 -19.25 0.0
-48.75 -19.25 0.0
-49.25 -19.25 0.0
-49.75 -19.25 0.0
-50.25 -19.25 0.0
-50.75 -19.25 0.0
-51.25 -19.25 0.0
-51.75 -19.25 0.0
-52.25 -19.25 0.0
-52.75 -19.25 0.0
-53.25 -19.25 0.0
-53.75 -19.25 0.0
-54.25 -19.25 0.0
-54.75 -19.25 0.0
-55.25 -19.25 0.0
-55.75 -19.25 0.0
-56.25 -19.25 0.0
-6.25 -19.75 0.0
-6.75 -19.75 0.0
-7.25 -19.75 0.0
-7.75 -19.75 0.0
-8.25 -19.75 0.0
-8.75 -19.75 0.0
-9.25 -19.75 0.0
-9.75 -19.75 0.0
-10.25 -19.75 0.0
-10.75 -19.75 0.0
-11.25 -19.75 0.0
-11.75 -19.75 0.0
-12.25 -19.75 0.0
-12.75 -19.75 0.0
-13.25 -19.75 0.0
-13.75 -19.75 0.0
-14.25 -19.75 0.0
-14.75 -19.75 0.0
-15.25 -19.75 0.0
-15.75 -19.75 0.0
-16.25 -19.75 0.0
-16.75 -19.75 0.0
-17.25 -19.75 0.0
-17.75 -19.75 0.0
-18.25 -19.75 0.0
-18.75 -19.75 0.0
-19.25 -19.75 0.0
-19.75 -19.75 0.0
-20.25 -19.75 0.0
-20.75 -19.75 0.0
-21.25 -19.75 0.0
-21.75 -19.75 0.0
-22.25 -19.75 0.0
-22.75 -19.75 0.0
-23.25 -19.75 0.0
-23.75 -19.75 0.0
-24.25 -19.75 0.0
-24.75 -19.75 0.0
-25.25 -19.75 0.0
-25.75 -19.75 0.0
-26.25 -19.75 0.0
-26.75 -19.75 0.0
-27.25 -19.75 0.0
-27.75 -19.75 0.0
-28.25 -19.75 0.0
-28.75 -19.75 0.0
-29.25 -19.75 0.0
-29.75 -19.75 0.0
-30.25 -19.75 0.0
-30.75 -19.75 0.0
-31.25 -19.75 0.0
-31.75 -19.75 0.0
-32.25 -19.75 0.0
-32.75 -19.75 0.0
-33.25 -19.75 0.0
-33.75 -19.75 0.0
-34.25 -19.75 0.0
-34.75 -19.75 0.0
-35.25 -19.75 0.0
-35.75 -19.75 0.0
-36.25 -19.75 0.0
-36.75 -19.75 0.0
-37.25 -19.75 0.0
-37.75 -19.75 0.0
-38.25 -19.75 0.0
-38.75 -19.75 0.0
-39.25 -19.75 0.0
-39.75 -19.75 0.0
-40.25 -19.75 0.0
-40.75 -19.75 0.0
-41.25 -19.75 0.0
-41.75 -19.75 0.0
-42.25 -19.75 0.0
-42.75 -19.75 0.0
-43.25 -19.75 0.0
-43.75 -19.75 0.0
-44.25 -19.75 0.0
-44.75 -19.75 0.0
-45.25 -19.75 0.0
-45.75 -19.75 0.0
-46.25 -19.75 0.0
-46.75 -19.75 0.0
-47.25 -19.75 0.0
-47.75 -19.75 0.0
-48.25 -19.75 0.0
-48.75 -19.75 0.0
-49.25 -19.75 0.0
-49.75 -19.75 0.0
-50.25 -19.75 0.0
-50.75 -19.75 0.0
-51.25 -19.75 0.0
-51.75 -19.75 0.0
-52.25 -19.75 0.0
-52.75 -19.75 0.0
-53.25 -19.75 0.0
-53.75 -19.75 0.0
-54.25 -19.75 0.0
-54.75 -19.75 0.0
-55.25 -19.75 0.0
-55.75 -19.75 0.0
-56.25 -19.75 0.0
-6.25 -20.25 0.0
-6.75 -20.25 0.0
-7.25 -20.25 0.0
-7.75 -20.25 0.0
-8.25 -20.25 0.0
-8.75 -20.25 0.0
-9.25 -20.25 0.0
-9.75 -20.25 0.0
-10.25 -20.25 0.0
-10.75 -20.25 0.0
-11.25 -20.25 0.0
-11.75 -20.25 0.0
-12.25 -20.25 0.0
-12.75 -20.25 0.0
-13.25 -20.25 0.0
-13.75 -20.25 0.0
-14.25 -20.25 0.0
-14.75 -20.25 0.0
-15.25 -20.25 0.0
-15.75 -20.25 0.0
-16.25 -20.25 0.0
-16.75 -20.25 0.0
-17.25 -20.25 0.0
-17.75 -20.25 0.0
-18.25 -20.25 0.0
-18.75 -20.25 0.0
-19.25 -20.25 0.0
-19.75 -20.25 0.0
-20.25 -20.25 0.0
-20.75 -20.25 0.0
-21.25 -20.25 0.0
-21.75 -20.25 0.0
-22.25 -20.25 0.0
-22.75 -20.25 0.0
-23.25 -20.25 0.0
-23.75 -20.25 0.0
-24.25 -20.25 0.0
-24.75 -20.25 0.0
-25.25 -20.25 0.0
-25.75 -20.25 0.0
-26.25 -20.25 0.0
-26.75 -20.25 0.0
-27.25 -20.25 0.0
-27.75 -20.25 0.0
-28.25 -20.25 0.0
-28.75 -20.25 0.0
-29.25 -20.25 0.0
-29.75 -20.25 0.0
-30.25 -20.25 0.0
-30.75 -20.25 0.0
-31.25 -20.25 0.0
-31.75 -20.25 0.0
-32.25 -20.25 0.0
-32.75 -20.25 0.0
-33.25 -20.25 0.0
-33.75 -20.25 0.0
-34.25 -20.25 0.0
-34.75 -20.25 0.0
-35.25 -20.25 0.0
-35.75 -20.25 0.0
-36.25 -20.25 0.0
-36.75 -20.25 0.0
-37.25 -20.25 0.0
-37.75 -20.25 0.0
-38.25 -20.25 0.0
-38.75 -20.25 0.0
-39.25 -20.25 0.0
-39.75 -20.25 0.0
-40.25 -20.25 0.0
-40.75 -20.25 0.0
-41.25 -20.25 0.0
-41.75 -20.25 0.0
-42.25 -20.25 0.0
-42.75 -20.25 0.0
-43.25 -20.25 0.0
-43.75 -20.25 0.0
-44.25 -20.25 0.0
-44.75 -20.25 0.0
-45.25 -20.25 0.0
-45.75 -20.25 0.0
-46.25 -20.25 0.0
-46.75 -20.25 0.0
-47.25 -20.25 0.0
-47.75 -20.25 0.0
-48.25 -20.25 0.0
-48.75 -20.25 0.0
-49.25 -20.25 0.0
-49.75 -20.25 0.0
-50.25 -20.25 0.0
-50.75 -20.25 0.0
-51.25 -20.25 0.0
-51.75 -20.25 0.0
-52.25 -20.25 0.0
-52.75 -20.25 0.0
-53.25 -20.25 0.0
-53.75 -20.25 0.0
-54.25 -20.25 0.0
-54.75 -20.25 0.0
-55.25 -20.25 0.0
-55.75 -20.25 0.0
-56.25 -20.25 0.0
-6.25 -20.75 0.0
-6.75 -20.75 0.0
-7.25 -20.75 0.0
-7.75 -20.75 0.0
-8.25 -20.75 0.0
-8.75 -20.75 0.0
-9.25 -20.75 0.0
-9.75 -20.75 0.0
-10.25 -20.75 0.0
-10.75 -20.75 0.0
-11.25 -20.75 0.0
-11.75 -20.75 0.0
-12.25 -20.75 0.0
-12.75 -20.75 0.0
-13.25 -20.75 0.0
-13.75 -20.75 0.0
-14.25 -20.75 0.0
-14.75 -20.75 0.0
-15.25 -20.75 0.0
-15.75 -20.75 0.0
-16.25 -20.75 0.0
-16.75 -20.75 0.0
-17.25 -20.75 0.0
-17.75 -20.75 0.0
-18.25 -20.75 0.0
-18.75 -20.75 0.0
-19.25 -20.75 0.0
-19.75 -20.75 0.0
-20.25 -20.75 0.0
-20.75 -20.75 0.0
-21.25 -20.75 0.0
-21.75 -20.75 0.0
-22.25 -20.75 0.0
-22.75 -20.75 0.0
-23.25 -20.75 0.0
-23.75 -20.75 0.0
-24.25 -20.75 0.0
-24.75 -20.75 0.0
-25.25 -20.75 0.0
-25.75 -20.75 0.0
-26.25 -20.75 0.0
-26.75 -20.75 0.0
-27.25 -20.75 0.0
-27.75 -20.75 0.0
-28.25 -20.75 0.0
-28.75 -20.75 0.0
-29.25 -20.75 0.0
-29.75 -20.75 0.0
-30.25 -20.75 0.0
-30.75 -20.75 0.0
-31.25 -20.75 0.0
-31.75 -20.75 0.0
-32.25 -20.75 0.0
-32.75 -20.75 0.0
-33.25 -20.75 0.0
-33.75 -20.75 0.0
-34.25 -20.75 0.0
-34.75 -20.75 0.0
-35.25 -20.75 0.0
-35.75 -20.75 0.0
-36.25 -20.75 0.0
-36.75 -20.75 0.0
-37.25 -20.75 0.0
-37.75 -20.75 0.0
-38.25 -20.75 0.0
-38.75 -20.75 0.0
-39.25 -20.75 0.0
-39.75 -20.75 0.0
-40.25 -20.75 0.0
-40.75 -20.75 0.0
-41.25 -20.75 0.0
-41.75 -20.75 0.0
-42.25 -20.75 0.0
-42.75 -20.75 0.0
-43.25 -20.75 0.0
-43.75 -20.75 0.0
-44.25 -20.75 0.0
-44.75 -20.75 0.0
-45.25 -20.75 0.0
-45.75 -20.75 0.0
-46.25 -20.75 0.0
-46.75 -20.75 0.0
-47.25 -20.75 0.0
-47.75 -20.75 0.0
-48.25 -20.75 0.0
-48.75 -20.75 0.0
-49.25 -20.75 0.0
-49.75 -20.75 0.0
-50.25 -20.75 0.0
-50.75 -20.75 0.0
-51.25 -20.75 0.0
-51.75 -20.75 0.0
-52.25 -20.75 0.0
-52.75 -20.75 0.0
-53.25 -20.75 0.0
-53.75 -20.75 0.0
-54.25 -20.75 0.0
-54.75 -20.75 0.0
-55.25 -20.75 0.0
-55.75 -20.75 0.0
-56.25 -20.75 0.0
-6.25 -21.25 0.0
-6.75 -21.25 0.0
-7.25 -21.25 0.0
-7.75 -21.25 0.0
-8.25 -21.25 0.0
-8.75 -21.25 0.0
-9.25 -21.25 0.0
-9.75 -21.25 0.0
-10.25 -21.25 0.0
-10.75 -21.25 0.0
-11.25 -21.25 0.0
-11.75 -21.25 0.0
-12.25 -21.25 0.0
-12.75 -21.25 0.0
-13.25 -21.25 0.0
-13.75 -21.25 0.0
-14.25 -21.25 0.0
-14.75 -21.25 0.0
-15.25 -21.25 0.0
-15.75 -21.25 0.0
-16.25 -21.25 0.0
-16.75 -21.25 0.0
-17.25 -21.25 0.0
-17.75 -21.25 0.0
-18.25 -21.25 0.0
-18.75 -21.25 0.0
-19.25 -21.25 0.0
-19.75 -21.25 0.0
-20.25 -21.25 0.0
-20.75 -21.25 0.0
-21.25 -21.25 0.0
-21.75 -21.25 0.0
-22.25 -21.25 0.0
-22.75 -21.25 0.0
-23.25 -21.25 0.0
-23.75 -21.25 0.0
-24.25 -21.25 0.0
-24.75 -21.25 0.0
-25.25 -21.25 0.0
-25.75 -21.25 0.0
-26.25 -21.25 0.0
-26.75 -21.25 0.0
-27.25 -21.25 0.0
-27.75 -21.25 0.0
-28.25 -21.25 0.0
-28.75 -21.25 0.0
-29.25 -21.25 0.0
-29.75 -21.25 0.0
-30.25 -21.25 0.0
-30.75 -21.25 0.0
-31.25 -21.25 0.0
-31.75 -21.25 0.0
-32.25 -21.25 0.0
-32.75 -21.25 0.0
-33.25 -21.25 0.0
-33.75 -21.25 0.0
-34.25 -21.25 0.0
-34.75 -21.25 0.0
-35.25 -21.25 0.0
-35.75 -21.25 0.0
-36.25 -21.25 0.0
-36.75 -21.25 0.0
-37.25 -21.25 0.0
-37.75 -21.25 0.0
-38.25 -21.25 0.0
-38.75 -21.25 0.0
-39.25 -21.25 0.0
-39.75 -21.25 0.0
-40.25 -21.25 0.0
-40.75 -21.25 0.0
-41.25 -21.25 0.0
-41.75 -21.25 0.0
-42.25 -21.25 0.0
-42.75 -21.25 0.0
-43.25 -21.25 0.0
-43.75 -21.25 0.0
-44.25 -21.25 0.0
-44.75 -21.25 0.0
-45.25 -21.25 0.0
-45.75 -21.25 0.0
-46.25 -21.25 0.0
-46.75 -21.25 0.0
-47.25 -21.25 0.0
-47.75 -21.25 0.0
-48.25 -21.25 0.0
-48.75 -21.25 0.0
-49.25 -21.25 0.0
-49.75 -21.25 0.0
-50.25 -21.25 0.0
-50.75 -21.25 0.0
-51.25 -21.25 0.0
-51.75 -21.25 0.0
-52.25 -21.25 0.0
-52.75 -21.25 0.0
-53.25 -21.25 0.0
-53.75 -21.25 0.0
-54.25 -21.25 0.0
-54.75 -21.25 0.0
-55.25 -21.25 0.0
-55.75 -21.25 0.0
-56.25 -21.25 0.0
CELLS 4000 16000
3 0 1 102
3 102 101 0
3 1 2 103
3 103 102 1
3 2 3 104
3 104 103 2
3 3 4 105
3 105 104 3
3 4 5 106
3 106 105 4
3 5 6 107
3 107 106 5
3 6 7 108
3 108 107 6
3 7 8 109
3 109 108 7
3 8 9 110
3 110 109 8
3 9 10 111
3 111 110 9
3 10 11 112
3 112 111 10
3 11 12 113
3 113 112 11
3 12 13 114
3 114 113 12
3 13 14 115
3 115 114 13
3 14 15 116
3 116 115 14
3 15 16 117
3 117 116 15
3 16 17 118
3 118 117 16
3 17 18 119
3 119 118 17
3 18 19 120
3 120 119 18
3 19 20 121
3 121 120 19
3 20 21 122
3 122 121 20
3 21 22 123
3 123 122 21
3 22 23 124
3 124 123 22
3 23 24 125
3 125 124 23
3 24 25 126
3 126 125 24
3 25 26 127
3 127 126 25
3 26 27 128
3 128 127 26
3 27 28 129
3 129 128 27
3 28 29 130
3 130 129 28
3 29 30 131
3 131 130 29
3 30 31 132
3 132 131 30
3 31 32 133
3 133 132 31
3 32 33 134
3 134 133 32
3 33 34 135
3 135 134 33
3 34 35 136
3 136 135 34
3 35 36 137
3 137 136 35
3 36 37 138
3 138 137 36
3 37 38 139
3 139 138 37
3 38 39 140
3 140 139 38
3 39 40 141
3 141 140 39
3 40 41 142
3 142 141 40
3 41 42 143
3 143 142 41
3 42 43 144
3 144 143 42
3 43 44 145
3 145 144 43
3 44 45 146
3 146 145 44
3 45 46 147
3 147 146 45
3 46 47 148
3 148 147 46
3 47 48 149
3 149 148 47
3 48 49 150
3 150 149 48
3 49 50 151
3 151 150 49
3 50 51 152
3 152 151 50
3 51 52 153
3 153 152 51
3 52 53 154
3 154 153 52
3 53 54 155
3 155 154 53
3 54 55 156
3 156 155 54
3 55 56 157
3 157 156 55
3 56 57 158
3 158 157 56
3 57 58 159
3 159 158 57
3 58 59 160
3 160 159 58
3 59 60 161
3 161 160 59
3 60 61 162
3 162 161 60
3 61 62 163
3 163 162 61
3 62 63 164
3 164 163 62
3 63 64 165
3 165 164 63
3 64 65 166
3 166 165 64
3 65 66 167
3 167 166 65
3 66 67 168
3 168 167 66
3 67 68 169
3 169 168 67
3 68 69 170
3 170 169 68
3 69 70 171
3 171 170 69
3 70 71 172
3 172 171 70
3 71 72 173
3 173 172 71
3 72 73 174
3 174 173 72
3 73 74 175
3 175 174 73
3 74 75 176
3 176 175 74
3 75 76 177
3 177 176 75
3 76 77 178
3 178 177 76
3 77 78 179
3 179 178 77
3 78 79 180
3 180 179 78
3 79 80 181
3 181 180 79
3 80 81 182
3 182 181 80
3 81 82 183
3 183 182 81
3 82 83 184
3 184 183 82
3 83 84 185
3 185 184 83
3 84 85 186
3 186 185 84
3 85 86 187
3 187 186 85
3 86 87 188
3 188 187 86
3 87 88 189
3 189 188 87
3 88 89 190
3 190 189 88
3 89 90 191
3 191 190 89
3 90 91 192
3 192 191 90
3 91 92 193
3 193 192 91
3 92 93 194
3 194 193 92
3 93 94 195
3 195 194 93
3 94 95 196
3 196 195 94
3 95 96 197
3 197 196 95
3 96 97 198
3 198 197 96
3 97 98 199
3 199 198 97
3 98 99 200
3 200 199 98
3 99 100 201
3 201 200 99
3 101 102 203
3 203 202 101
3 102 103 204
3 204 203 102
3 103 104 205
3 205 204 103
3 104 105 206
3 206 205 104
3 105 106 207
3 207 206 105
3 106 107 208
3 208 207 106
3 107 108 209
3 209 208 107
3 108 109 210
3 210 209 108
3 109 110 211
3 211 210 109
3 110 111 212
3 212 211 110
3 111 112 213
3 213 212 111
3 112 113 214
3 214 213 112
3 113 114 215
3 215 214 113
3 114 115 216
3 216 215 114
3 115 116 217
3 217 216 115
3 116 117 218
3 218 217 116
3 117 118 219
3 219 218 117
3 118 119 220
3 220 219 118
3 119 120 221
3 221 220 119
3 120 121 222
3 222 221 120
3 121 122 223
3 223 222 121
3 122 123 224
3 224 223 122
3 123 124 225
3 225 224 123
3 124 125 226
3 226 225 124
3 125 126 227
3 227 226 125
3 126 127 228
3 228 227 126
3 127 128 229
3 229 228 127
3 128 129 230
3 230 229 128
3 129 130 231
3 231 230 129
3 130 131 232
3 232 231 130
3 131 132 233
3 233 232 131
3 132 133 234
3 234 233 132
3 133 134 235
3 235 234 133
3 134 135 236
3 236 235 134
3 135 136 237
3 237 236 135
3 136 137 238
3 238 237 136
3 137 138 239
3 239 238 137
3 138 139 240
3 240 239 138
3 139 140 241
3 241 240 139
3 140 141 242
3 242 241 140
3 141 142 243
3 243 242 141
3 142 143 244
3 244 243 142
3 143 144 245
3 245 244 143
3 144 145 246
3 246 245 144
3 145 146 247
3 247 246 145
3 146 147 248
3 248 247 146
3 147 148 249
3 249 248 147
3 148 149 250
3 250 249 148
3 149 150 251
3 251 250 149
3 150 151 252
3 252 251 150
3 151 152 253
3 253 252 151
3 152 153 254
3 254 253 152
3 153 154 255
3 255 254 153
3 154 155 256
3 256 255 154
3 155 156 257
3 257 256 155
3 156 157 258
3 258 257 156
3 157 158 259
3 259 258 157
3 158 159 260
3 260 259 158
3 159 160 261
3 261 260 159
3 160 161 262
3 262 261 160
3 161 162 263
3 263 262 161
3 162 163 264
3 264 263 162
3 163 164 265
3 265 264 163
3 164 165 266
3 266 265 164
3 165 166 267
3 267 266 165
3 166 167 268
3 268 267 166
3 167 168 269
3 269 268 167
3 168 169 270
3 270 269 168
3 169 170 271
3 271 270 169
3 170 171 272
3 272 271 170
3 171 172 273
3 273 272 171
3 172 173 274
3 274 273 172
3 173 174 275
3 275 274 173
3 174 175 276
3 276 275 174
3 175 176 277
3 277 276 175
3 176 177 278
3 278 277 176
3 177 178 279
3 279 278 177
3 178 179 280
3 280 279 178
3 179 180 281
3 281 280 179
3 180 181 282
3 282 281 180
3 181 182 283
3 283 282 181
3 182 183 284
3 284 283 182
3 183 184 285
3 285 284 183
3 184 185 286
3 286 285 184
3 185 186 287
3 287 286 185
3 186 187 288
3 288 287 186
3 187 188 289
3 289 288 187
3 188 189 290
3 290 289 188
3 189 190 291
3 291 290 189
3 190 191 292
3 292 291 190
3 191 192 293
3 293 292 191
3 192 193 294
3 294 293 192
3 193 194 295
3 295 294 193
3 194 195 296
3 296 295 194
3 195 196 297
3 297 296 195
3 196 197 298
3 298 297 196
3 197 198 299
3 299 298 197
3 198 199 300
3 300 299 198
3 199 200 301
3 301 300 199
3 200 201 302
3 302 301 200
3 202 203 304
3 304 303 202
3 203 204 305
3 305 304 203
3 204 205 306
3 306 305 204
3 205 206 307
3 307 306 205
3 206 207 308
3 308 307 206
3 207 208 309
3 309 308 207
3 208 209 310
3 310 309 208
3 209 210 311
3 311 310 209
3 210 211 312
3 312 311 210
3 211 212 313
3 313 312 211
3 212 213 314
3 314 313 212
3 213 214 315
3 315 314 213
3 214 215 316
3 316 315 214
3 215 216 317
3 317 316 215
3 216 217 318
3 318 317 216
3 217 218 319
3 319 318 217
3 218 219 320
3 320 319 218
3 219 220 321
3 321 320 219
3 220 221 322
3 322 321 220
3 221 222 323
3 323 322 221
3 222 223 324
3 324 323 222
3 223 224 325
3 325 324 223
3 224 225 326
3 326 325 224
3 225 226 327
3 327 326 225
3 226 227 328
3 328 327 226
3 227 228 329
3 329 328 227
3 228 229 330
3 330 329 228
3 229 230 331
3 331 330 229
3 230 231 332
3 332 331 230
3 231 232 333
3 333 332 231
3 232 233 334
3 334 333 232
3 233 234 335
3 335 334 233
3 234 235 336
3 336 335 234
3 235 236 337
3 337 336 235
3 236 237 338
3 338 337 236
3 237 238 339
3 339 338 237
3 238 239 340
3 340 339 238
3 239 240 341
3 341 340 239
3 240 241 342
3 342 341 240
3 241 242 343
3 343 342 241
3 242 243 344
3 344 343 242
3 243 244 345
3 345 344 243
3 244 245 346
3 346 345 244
3 245 246 347
3 347 346 245
3 246 247 348
3 348 347 246
3 247 248 349
3 349 348 247
3 248 249 350
3 350 349 248
3 249 250 351
3 351 350 249
3 250 251 352
3 352 351 250
3 251 252 353
3 353 352 251
3 252 253 354
3 354 353 252
3 253 254 355
3 355 354 253
3 254 255 356
3 356 355 254
3 255 256 357
3 357 356 255
3 256 257 358
3 358 357 256
3 257 258 359
3 359 358 257
3 258 259 360
3 360 359 258
3 259 260 361
3 361 360 259
3 260 261 362
3 362 361 260
3 261 262 363
3 363 362 261
3 262 263 364
3 364 363 262
3 263 264 365
3 365 364 263
3 264 265 366
3 366 365 264
3 265 266 367
3 367 366 265
3 266 267 368
3 368 367 266
3 267 268 369
3 369 368 267
3 268 269 370
3 370 369 268
3 269 270 371
3 371 370 269
3 270 271 372
3 372 371 270
3 271 272 373
3 373 372 271
3 272 273 374
3 374 373 272
3 273 274 375
3 375 374 273
3 274 275 376
3 376 375 274
3 275 276 377
3 377 376 275
3 276 277 378
3 378 377 276
3 277 278 379
3 379 378 277
3 278 279 380
3 380 379 278
3 279 280 381
3 381 380 279
3 280 281 382
3 382 381 280
3 281 282 383
3 383 382 281
3 282 283 384
3 384 383 282
3 283 284 385
3 385 384 283
3 284 285 386
3 386 385 284
3 285 286 387
3 387 386 285
3 286 287 388
3 388 387 286
3 287 288 389
3 389 388 287
3 288 289 390
3 390 389 288
3 289 290 391
3 391 390 289
3 290 291 392
3 392 391 290
3 291 292 393
3 393 392 291
3 292 293 394
3 394 393 292
3 293 294 395
3 395 394 293
3 294 295 396
3 396 395 294
3 295 296 397
3 397 396 295
3 296 297 398
3 398 397 296
3 297 298 399
3 399 398 297
3 298 299 400
3 400 399 298
3 299 300 401
3 401 400 299
3 300 301 402
3 402 401 300
3 301 302 403
3 403 402 301
3 303 304 405
3 405 404 303
3 304 305 406
3 406 405 304
3 305 306 407
3 407 406 305
3 306 307 408
3 408 407 306
3 307 308 409
3 409 408 307
3 308 309 410
3 410 409 308
3 309 310 411
3 411 410 309
3 310 311 412
3 412 411 310
3 311 312 413
3 413 412 311
3 312 313 414
3 414 413 312
3 313 314 415
3 415 414 313
3 314 315 416
3 416 415 314
3 315 316 417
3 417 416 315
3 316 317 418
3 418 417 316
3 317 318 419
3 419 418 317
3 318 319 420
3 420 419 318
3 319 320 421
3 421 420 319
3 320 321 422
3 422 421 320
3 321 322 423
3 423 422 321
3 322 323 424
3 424 423 322
3 323 324 425
3 425 424 323
3 324 325 426
3 426 425 324
3 325 326 427
3 427 426 325
3 326 327 428
3 428 427 326
3 327 328 429
3 429 428 327
3 328 329 430
3 430 429 328
3 329 330 431
3 431 430 329
3 330 331 432
3 432 431 330
3 331 332 433
3 433 432 331
3 332 333 434
3 434 433 332
3 333 334 435
3 435 434 333
3 334 335 436
3 436 435 334
3 335 336 437
3 437 436 335
3 336 337 438
3 438 437 336
3 337 338 439
3 439 438 337
3 338 339 440
3 440 439 338
3 339 340 441
3 441 440 339
3 340 341 442
3 442 441 340
3 341 342 443
3 443 442 341
3 342 343 444
3 444 443 342
3 343 344 445
3 445 444 343
3 344 345 446
3 446 445 344
3 345 346 447
3 447 446 345
3 346 347 448
3 448 447 346
3 347 348 449
3 449 448 347
3 348 349 450
3 450 449 348
3 349 350 451
3 451 450 349
3 350 351 452
3 452 451 350
3 351 352 453
3 453 452 351
3 352 353 454
3 454 453 352
3 353 354 455
3 455 454 353
3 354 355 456
3 456 455 354
3 355 356 457
3 457 456 355
3 356 357 458
3 458 457 356
3 357 358 459
3 459 458 357
3 358 359 460
3 460 459 358
3 359 360 461
3 461 460 359
3 360 361 462
3 462 461 360
3 361 362 463
3 463 462 361
3 362 363 464
3 464 463 362
3 363 364 465
3 465 464 363
3 364 365 466
3 466 465 364
3 365 366 467
3 467 466 365
3 366 367 468
3 468 467 366
3 367 368 469
3 469 468 367
3 368 369 470
3 470 469 368
3 369 370 471
3 471 470 369
3 370 371 472
3 472 471 370
3 371 372 473
3 473 472 371
3 372 373 474
3 474 473 372
3 373 374 475
3 475 474 373
3 374 375 476
3 476 475 374
3 375 376 477
3 477 476 375
3 376 377 478
3 478 477 376
3 377 378 479
3 479 478 377
3 378 379 480
3 480 479 378
3 379 380 481
3 481 480 379
3 380 381 482
3 482 481 380
3 381 382 483
3 483 482 381
3 382 383 484
3 484 483 382
3 383 384 485
3 485 484 383
3 384 385 486
3 486 485 384
3 385 386 487
3 487 486 385
3 386 387 488
3 488 487 386
3 387 388 489
3 489 488 387
3 388 389 490
3 490 489 388
3 389 390 491
3 491 490 389
3 390 391 492
3 492 491 390
3 391 392 493
3 493 492 391
3 392 393 494
3 494 493 392
3 393 394 495
3 495 494 393
3 394 395 496
3 496 495 394
3 395 396 497
3 497 496 395
3 396 397 498
3 498 497 396
3 397 398 499
3 499 498 397
3 398 399 500
3 500 499 398
3 399 400 501
3 501 500 399
3 400 401 502
3 502 501 400
3 401 402 503
3 503 502 401
3 402 403 504
3 504 503 402
3 404 405 506
3 506 505 404
3 405 406 507
3 507 506 405
3 406 407 508
3 508 507 406
3 407 408 509
3 509 508 407
3 408 409 510
3 510 509 408
3 409 410 511
3 511 510 409
3 410 411 512
3 512 511 410
3 411 412 513
3 513 512 411
3 412 413 514
3 514 513 412
3 413 414 515
3 515 514 413
3 414 415 516
3 516 515 414
3 415 416 517
3 517 516 415
3 416 417 518
3 518 517 416
3 417 418 519
3 519 518 417
3 418 419 520
3 520 519 418
3 419 420 521
3 521 520 419
3 420 421 522
3 522 521 420
3 421 422 523
3 523 522 421
3 422 423 524
3 524 523 422
3 423 424 525
3 525 524 423
3 424 425 526
3 526 525 424
3 425 426 527
3 527 526 425
3 426 427 528
3 528 527 426
3 427 428 529
3 529 528 427
3 428 429 530
3 530 529 428
3 429 430 531
3 531 530 429
3 430 431 532
3 532 531 430
3 431 432 533
3 533 532 431
3 432 433 534
3 534 533 432
3 433 434 535
3 535 534 433
3 434 435 536
3 536 535 434
3 435 436 537
3 537 536 435
3 436 437 538
3 538 537 436
3 437 438 539
3 539 538 437
3 438 439 540
3 540 539 438
3 439 440 541
3 541 540 439
3 440 441 542
3 542 541 440
3 441 442 543
3 543 542 441
3 442 443 544
3 544 543 442
3 443 444 545
3 545 544 443
3 444 445 546
3 546 545 444
3 445 446 547
3 547 546 445
3 446 447 548
3 548 547 446
3 447 448 549
3 549 548 447
3 448 449 550
3 550 549 448
3 449 450 551
3 551 550 449
3 450 451 552
3 552 551 450
3 451 452 553
3 553 552 451
3 452 453 554
3 554 553 452
3 453 454 555
3 555 554 453
3 454 455 556
3 556 555 454
3 455 456 557
3 557 556 455
3 456 457 558
3 558 557 456
3 457 458 559
3 559 558 457
3 458 459 560
3 560 559 458
3 459 460 561
3 561 560 459
3 460 461 562
3 562 561 460
3 461 462 563
3 563 562 461
3 462 463 564
3 564 563 462
3 463 464 565
3 565 564 463
3 464 465 566
3 566 565 464
3 465 466 567
3 567 566 465
3 466 467 568
3 568 567 466
3 467 468 569
3 569 568 467
3 468 469 570
3 570 569 468
3 469 470 571
3 571 570 469
3 470 471 572
3 572 571 470
3 471 472 573
3 573 572 471
3 472 473 574
3 574 573 472
3 473 474 575
3 575 574 473
3 474 475 576
3 576 575 474
3 475 476 577
3 577 576 475
3 476 477 578
3 578 577 476
3 477 478 579
3 579 578 477
3 478 479 580
3 580 579 478
3 479 480 581
3 581 580 479
3 480 481 582
3 582 581 480
3 481 482 583
3 583 582 481
3 482 483 584
3 584 583 482
3 483 484 585
3 585 584 483
3 484 485 586
3 586 585 484
3 485 486 587
3 587 586 485
3 486 487 588
3 588 587 486
3 487 488 589
3 589 588 487
3 488 489 590
3 590 589 488
3 489 490 591
3 591 590 489
3 490 491 592
3 592 591 490
3 491 492 593
3 593 592 491
3 492 493 594
3 594 593 492
3 493 494 595
3 595 594 493
3 494 495 596
3 596 595 494
3 495 496 597
3 597 596 495
3 496 497 598
3 598 597 496
3 497 498 599
3 599 598 497
3 498 499 600
3 600 599 498
3 499 500 601
3 601 600 499
3 500 501 602
3 602 601 500
3 501 502 603
3 603 602 501
3 502 503 604
3 604 603 502
3 503 504 605
3 605 604 503
3 505 506 607
3 607 606 505
3 506 507 608
3 608 607 506
3 507 508 609
3 609 608 507
3 508 509 610
3 610 609 508
3 509 510 611
3 611 610 509
3 510 511 612
3 612 611 510
3 511 512 613
3 613 612 511
3 512 513 614
3 614 613 512
3 513 514 615
3 615 614 513
3 514 515 616
3 616 615 514
3 515 516 617
3 617 616 515
3 516 517 618
3 618 617 516
3 517 518 619
3 619 618 517
3 518 519 620
3 620 619 518
3 519 520 621
3 621 620 519
3 520 521 622
3 622 621 520
3 521 522 623
3 623 622 521
3 522 523 624
3 624 623 522
3 523 524 625
3 625 624 523
3 524 525 626
3 626 625 524
3 525 526 627
3 627 626 525
3 526 527 628
3 628 627 526
3 527 528 629
3 629 628 527
3 528 529 630
3 630 629 528
3 529 530 631
3 631 630 529
3 530 531 632
3 632 631 530
3 531 532 633
3 633 632 531
3 532 533 634
3 634 633 532
3 533 534 635
3 635 634 533
3 534 535 636
3 636 635 534
3 535 536 637
3 637 636 535
3 536 537 638
3 638 637 536
3 537 538 639
3 639 638 537
3 538 539 640
3 640 639 538
3 539 540 641
3 641 640 539
3 540 541 642
3 642 641 540
3 541 542 643
3 643 642 541
3 542 543 644
3 644 643 542
3 543 544 645
3 645 644 543
3 544 545 646
3 646 645 544
3 545 546 647
3 647 646 545
3 546 547 648
3 648 647 546
3 547 548 649
3 649 648 547
3 548 549 650
3 650 649 548
3 549 550 651
3 651 650 549
3 550 551 652
3 652 651 550
3 551 552 653
3 653 652 551
3 552 553 654
3 654 653 552
3 553 554 655
3 655 654 553
3 554 555 656
3 656 655 554
3 555 556 657
3 657 656 555
3 556 557 658
3 658 657 556
3 557 558 659
3 659 658 557
3 558 559 660
3 660 659 558
3 559 560 661
3 661 660 559
3 560 561 662
3 662 661 560
3 561 562 663
3 663 662 561
3 562 563 664
3 664 663 562
3 563 564 665
3 665 664 563
3 564 565 666
3 666 665 564
3 565 566 667
3 667 666 565
3 566 567 668
3 668 667 566
3 567 568 669
3 669 668 567
3 568 569 670
3 670 669 568
3 569 570 671
3 671 670 569
3 570 571 672
3 672 671 570
3 571 572 673
3 673 672 571
3 572 573 674
3 674 673 572
3 573 574 675
3 675 674 573
3 574 575 676
3 676 675 574
3 575 576 677
3 677 676 575
3 576 577 678
3 678 677 576
3 577 578 679
3 679 678 577
3 578 579 680
3 680 679 578
3 579 580 681
3 681 680 579
3 580 581 682
3 682 681 580
3 581 582 683
3 683 682 581
3 582 583 684
3 684 683 582
3 583 584 685
3 685 684 583
3 584 585 686
3 686 685 584
3 585 586 687
3 687 686 585
3 586 587 688
3 688 687 586
3 587 588 689
3 689 688 587
3 588 589 690
3 690 689 588
3 589 590 691
3 691 690 589
3 590 591 692
3 692 691 590
3 591 592 693
3 693 692 591
3 592 593 694
3 694 693 592
3 593 594 695
3 695 694 593
3 594 595 696
3 696 695 594
3 595 596 697
3 697 696 595
3 596 597 698
3 698 697 596
3 597 598 699
3 699 698 597
3 598 599 700
3 700 699 598
3 599 600 701
3 701 700 599
3 600 601 702
3 702 701 600
3 601 602 703
3 703 702 601
3 602 603 704
3 704 703 602
3 603 604 705
3 705 704 603
3 604 605 706
3 706 705 604
3 606 607 708
3 708 707 606
3 607 608 709
3 709 708 607
3 608 609 710
3 710 709 608
3 609 610 711
3 711 710 609
3 610 611 712
3 712 711 610
3 611 612 713
3 713 712 611
3 612 613 714
3 714 713 612
3 613 614 715
3 715 714 613
3 614 615 716
3 716 715 614
3 615 616 717
3 717 716 615
3 616 617 718
3 718 717 616
3 617 618 719
3 719 718 617
3 618 619 720
3 720 719 618
3 619 620 721
3 721 720 619
3 620 621 722
3 722 721 620
3 621 622 723
3 723 722 621
3 622 623 724
3 724 723 622
3 623 624 725
3 725 724 623
3 624 625 726
3 726 725 624
3 625 626 727
3 727 726 625
3 626 627 728
3 728 727 626
3 627 628 729
3 729 728 627
3 628 629 730
3 730 729 628
3 629 630 731
3 731 730 629
3 630 631 732
3 732 731 630
3 631 632 733
3 733 732 631
3 632 633 734
3 734 733 632
3 633 634 735
3 735 734 633
3 634 635 736
3 736 735 634
3 635 636 737
3 737 736 635
3 636 637 738
3 738 737 636
3 637 638 739
3 739 738 637
3 638 639 740
3 740 739 638
3 639 640 741
3 741 740 639
3 640 641 742
3 742 741 640
3 641 642 743
3 743 742 641
3 642 643 744
3 744 743 642
3 643 644 745
3 745 744 643
3 644 645 746
3 746 745 644
3 645 646 747
3 747 746 645
3 646 647 748
3 748 747 646
3 647 648 749
3 749 748 647
3 648 649 750
3 750 749 648
3 649 650 751
3 751 750 649
3 650 651 752
3 752 751 650
3 651 652 753
3 753 752 651
3 652 653 754
3 754 753 652
3 653 654 755
3 755 754 653
3 654 655 756
3 756 755 654
3 655 656 757
3 757 756 655
3 656 657 758
3 758 757 656
3 657 658 759
3 759 758 657
3 658 659 760
3 760 759 658
3 659 660 761
3 761 760 659
3 660 661 762
3 762 761 660
3 661 662 763
3 763 762 661
3 662 663 764
3 764 763 662
3 663 664 765
3 765 764 663
3 664 665 766
3 766 765 664
3 665 666 767
3 767 766 665
3 666 667 768
3 768 767 666
3 667 668 769
3 769 768 667
3 668 669 770
3 770 769 668
3 669 670 771
3 771 770 669
3 670 671 772
3 772 771 670
3 671 672 773
3 773 772 671
3 672 673 774
3 774 773 672
3 673 674 775
3 775 774 673
3 674 675 776
3 776 775 674
3 675 676 777
3 777 776 675
3 676 677 778
3 778 777 676
3 677 678 779
3 779 778 677
3 678 679 780
3 780 779 678
3 679 680 781
3 781 780 679
3 680 681 782
3 782 781 680
3 681 682 783
3 783 782 681
3 682 683 784
3 784 783 682
3 683 684 785
3 785 784 683
3 684 685 786
3 786 785 684
3 685 686 787
3 787 786 685
3 686 687 788
3 788 787 686
3 687 688 789
3 789 788 687
3 688 689 790
3 790 789 688
3 689 690 791
3 791 790 689
3 690 691 792
3 792 791 690
3 691 692 793
3 793 792 691
3 692 693 794
3 794 793 692
3 693 694 795
3 795 794 693
3 694 695 796
3 796 795 694
3 695 696 797
3 797 796 695
3 696 697 798
3 798 797 696
3 697 698 799
3 799 798 697
3 698 699 800
3 800 799 698
3 699 700 801
3 801 800 699
3 700 701 802
3 802 801 700
3 701 702 803
3 803 802 701
3 702 703 804
3 804 803 702
3 703 704 805
3 805 804 703
3 704 705 806
3 806 805 704
3 705 706 807
3 807 806 705
3 707 708 809
3 809 808 707
3 708 709 810
3 810 809 708
3 709 710 811
3 811 810 709
3 710 711 812
3 812 811 710
3 711 712 813
3 813 812 711
3 712 713 814
3 814 813 712
3 713 714 815
3 815 814 713
3 714 715 816
3 816 815 714
3 715 716 817
3 817 816 715
3 716 717 818
3 818 817 716
3 717 718 819
3 819 818 717
3 718 719 820
3 820 819 718
3 719 720 821
3 821 820 719
3 720 721 822
3 822 821 720
3 721 722 823
3 823 822 721
3 722 723 824
3 824 823 722
3 723 724 825
3 825 824 723
3 724 725 826
3 826 825 724
3 725 726 827
3 827 826 725
3 726 727 828
3 828 827 726
3 727 728 829
3 829 828 727
3 728 729 830
3 830 829 728
3 729 730 831
3 831 830 729
3 730 731 832
3 832 831 730
3 731 732 833
3 833 832 731
3 732 733 834
3 834 833 732
3 733 734 835
3 835 834 733
3 734 735 836
3 836 835 734
3 735 736 837
3 837 836 735
3 736 737 838
3 838 837 736
3 737 738 839
3 839 838 737
3 738 739 840
3 840 839 738
3 739 740 841
3 841 840 739
3 740 741 842
3 842 841 740
3 741 742 843
3 843 842 741
3 742 743 844
3 844 843 742
3 743 744 845
3 845 844 743
3 744 745 846
3 846 845 744
3 745 746 847
3 847 846 745
3 746 747 848
3 848 847 746
3 747 748 849
3 849 848 747
3 748 749 850
3 850 849 748
3 749 750 851
3 851 850 749
3 750 751 852
3 852 851 750
3 751 752 853
3 853 852 751
3 752 753 854
3 854 853 752
3 753 754 855
3 855 854 753
3 754 755 856
3 856 855 754
3 755 756 857
3 857 856 755
3 756 757 858
3 858 857 756
3 757 758 859
3 859 858 757
3 758 759 860
3 860 859 758
3 759 760 861
3 861 860 759
3 760 761 862
3 862 861 760
3 761 762 863
3 863 862 761
3 762 763 864
3 864 863 762
3 763 764 865
3 865 864 763
3 764 765 866
3 866 865 764
3 765 766 867
3 867 866 765
3 766 767 868
3 868 867 766
3 767 768 869
3 869 868 767
3 768 769 870
3 870 869 768
3 769 770 871
3 871 870 769
3 770 771 872
3 872 871 770
3 771 772 873
3 873 872 771
3 772 773 874
3 874 873 772
3 773 774 875
3 875 874 773
3 774 775 876
3 876 875 774
3 775 776 877
3 877 876 775
3 776 777 878
3 878 877 776
3 777 778 879
3 879 878 777
3 778 779 880
3 880 879 778
3 779 780 881
3 881 880 779
3 780 781 882
3 882 881 780
3 781 782 883
3 883 882 781
3 782 783 884
3 884 883 782
3 783 784 885
3 885 884 783
3 784 785 886
3 886 885 784
3 785 786 887
3 887 886 785
3 786 787 888
3 888 887 786
3 787 788 889
3 889 888 787
3 788 789 890
3 890 889 788
3 789 790 891
3 891 890 789
3 790 791 892
3 892 891 790
3 791 792 893
3 893 892 791
3 792 793 894
3 894 893 792
3 793 794 895
3 895 894 793
3 794 795 896
3 896 895 794
3 795 796 897
3 897 896 795
3 796 797 898
3 898 897 796
3 797 798 899
3 899 898 797
3 798 799 900
3 900 899 798
3 799 800 901
3 901 900 799
3 800 801 902
3 902 901 800
3 801 802 903
3 903 902 801
3 802 803 904
3 904 903 802
3 803 804 905
3 905 904 803
3 804 805 906
3 906 905 804
3 805 806 907
3 907 906 805
3 806 807 908
3 908 907 806
3 808 809 910
3 910 909 808
3 809 810 911
3 911 910 809
3 810 811 912
3 912 911 810
3 811 812 913
3 913 912 811
3 812 813 914
3 914 913 812
3 813 814 915
3 915 914 813
3 814 815 916
3 916 915 814
3 815 816 917
3 917 916 815
3 816 817 918
3 918 917 816
3 817 818 919
3 919 918 817
3 818 819 920
3 920 919 818
3 819 820 921
3 921 920 819
3 820 821 922
3 922 921 820
3 821 822 923
3 923 922 821
3 822 823 924
3 924 923 822
3 823 824 925
3 925 924 823
3 824 825 926
3 926 925 824
3 825 826 927
3 927 926 825
3 826 827 928
3 928 927 826
3 827 828 929
3 929 928 827
3 828 829 930
3 930 929 828
3 829 830 931
3 931 930 829
3 830 831 932
3 932 931 830
3 831 832 933
3 933 932 831
3 832 833 934
3 934 933 832
3 833 834 935
3 935 934 833
3 834 835 936
3 936 935 834
3 835 836 937
3 937 936 835
3 836 837 938
3 938 937 836
3 837 838 939
3 939 938 837
3 838 839 940
3 940 939 838
3 839 840 941
3 941 940 839
3 840 841 942
3 942 941 840
3 841 842 943
3 943 942 841
3 842 843 944
3 944 943 842
3 843 844 945
3 945 944 843
3 844 845 946
3 946 945 844
3 845 846 947
3 947 946 845
3 846 847 948
3 948 947 846
3 847 848 949
3 949 948 847
3 848 849 950
3 950 949 848
3 849 850 951
3 951 950 849
3 850 851 952
3 952 951 850
3 851 852 953
3 953 952 851
3 852 853 954
3 954 953 852
3 853 854 955
3 955 954 853
3 854 855 956
3 956 955 854
3 855 856 957
3 957 956 855
3 856 857 958
3 958 957 856
3 857 858 959
3 959 958 857
3 858 859 960
3 960 959 858
3 859 860 961
3 961 960 859
3 860 861 962
3 962 961 860
3 861 862 963
3 963 962 861
3 862 863 964
3 964 963 862
3 863 864 965
3 965 964 863
3 864 865 966
3 966 965 864
3 865 866 967
3 967 966 865
3 866 867 968
3 968 967 866
3 867 868 969
3 969 968 867
3 868 869 970
3 970 969 868
3 869 870 971
3 971 970 869
3 870 871 972
3 972 971 870
3 871 872 973
3 973 972 871
3 872 873 974
3 974 973 872
3 873 874 975
3 975 974 873
3 874 875 976
3 976 975 874
3 875 876 977
3 977 976 875
3 876 877 978
3 978 977 876
3 877 878 979
3 979 978 877
3 878 879 980
3 980 979 878
3 879 880 981
3 981 980 879
3 880 881 982
3 982 981 880
3 881 882 983
3 983 982 881
3 882 883 984
3 984 983 882
3 883 884 985
3 985 984 883
3 884 885 986
3 986 985 884
3 885 886 987
3 987 986 885
3 886 887 988
3 988 987 886
3 887 888 989
3 989 988 887
3 888 889 990
3 990 989 888
3 889 890 991
3 991 990 889
3 890 891 992
3 992 991 890
3 891 892 993
3 993 992 891
3 892 893 994
3 994 993 892
3 893 894 995
3 995 994 893
3 894 895 996
3 996 995 894
3 895 896 997
3 997 996 895
3 896 897 998
3 998 997 896
3 897 898 999
3 999 998 897
3 898 899 1000
3 1000 999 898
3 899 900 1001
3 1001 1000 899
3 900 901 1002
3 1002 1001 900
3 901 902 1003
3 1003 1002 901
3 902 903 1004
3 1004 1003 902
3 903 904 1005
3 1005 1004 903
3 904 905 1006
3 1006 1005 904
3 905 906 1007
3 1007 1006 905
3 906 907 1008
3 1008 1007 906
3 907 908 1009
3 1009 1008 907
3 909 910 1011
3 1011 1010 909
3 910 911 1012
3 1012 1011 910
3 911 912 1013
3 1013 1012 911
3 912 913 1014
3 1014 1013 912
3 913 914 1015
3 1015 1014 913
3 914 915 1016
3 1016 1015 914
3 915 916 1017
3 1017 1016 915
3 916 917 1018
3 1018 1017 916
3 917 918 1019
3 1019 1018 917
3 918 919 1020
3 1020 1019 918
3 919 920 1021
3 1021 1020 919
3 920 921 1022
3 1022 1021 920
3 921 922 1023
3 1023 1022 921
3 922 923 1024
3 1024 1023 922
3 923 924 1025
3 1025 1024 923
3 924 925 1026
3 1026 1025 924
3 925 926 1027
3 1027 1026 925
3 926 927 1028
3 1028 1027 926
3 927 928 1029
3 1029 1028 927
3 928 929 1030
3 1030 1029 928
3 929 930 1031
3 1031 1030 929
3 930 931 1032
3 1032 1031 930
3 931 932 1033
3 1033 1032 931
3 932 933 1034
3 1034 1033 932
3 933 934 1035
3 1035 1034 933
3 934 935 1036
3 1036 1035 934
3 935 936 1037
3 1037 1036 935
3 936 937 1038
3 1038 1037 936
3 937 938 1039
3 1039 1038 937
3 938 939 1040
3 1040 1039 938
3 939 940 1041
3 1041 1040 939
3 940 941 1042
3 1042 1041 940
3 941 942 1043
3 1043 1042 941
3 942 943 1044
3 1044 1043 942
3 943 944 1045
3 1045 1044 943
3 944 945 1046
3 1046 1045 944
3 945 946 1047
3 1047 1046 945
3 946 947 1048
3 1048 1047 946
3 947 948 1049
3 1049 1048 947
3 948 949 1050
3 1050 1049 948
3 949 950 1051
3 1051 1050 949
3 950 951 1052
3 1052 1051 950
3 951 952 1053
3 1053 1052 951
3 952 953 1054
3 1054 1053 952
3 953 954 1055
3 1055 1054 953
3 954 955 1056
3 1056 1055 954
3 955 956 1057
3 1057 1056 955
3 956 957 1058
3 1058 1057 956
3 957 958 1059
3 1059 1058 957
3 958 959 1060
3 1060 1059 958
3 959 960 1061
3 1061 1060 959
3 960 961 1062
3 1062 1061 960
3 961 962 1063
3 1063 1062 961
3 962 963 1064
3 1064 1063 962
3 963 964 1065
3 1065 1064 963
3 964 965 1066
3 1066 1065 964
3 965 966 1067
3 1067 1066 965
3 966 967 1068
3 1068 1067 966
3 967 968 1069
3 1069 1068 967
3 968 969 1070
3 1070 1069 968
3 969 970 1071
3 1071 1070 969
3 970 971 1072
3 1072 1071 970
3 971 972 1073
3 1073 1072 971
3 972 973 1074
3 1074 1073 972
3 973 974 1075
3 1075 1074 973
3 974 975 1076
3 1076 1075 974
3 975 976 1077
3 1077 1076 975
3 976 977 1078
3 1078 1077 976
3 977 978 1079
3 1079 1078 977
3 978 979 1080
3 1080 1079 978
3 979 980 1081
3 1081 1080 979
3 980 981 1082
3 1082 1081 980
3 981 982 1083
3 1083 1082 981
3 982 983 1084
3 1084 1083 982
3 983 984 1085
3 1085 1084 983
3 984 985 1086
3 1086 1085 984
3 985 986 1087
3 1087 1086 985
3 986 987 1088
3 1088 1087 986
3 987 988 1089
3 1089 1088 987
3 988 989 1090
3 1090 1089 988
3 989 990 1091
3 1091 1090 989
3 990 991 1092
3 1092 1091 990
3 991 992 1093
3 1093 1092 991
3 992 993 1094
3 1094 1093 992
3 993 994 1095
3 1095 1094 993
3 994 995 1096
3 1096 1095 994
3 995 996 1097
3 1097 1096 995
3 996 997 1098
3 1098 1097 996
3 997 998 1099
3 1099 1098 997
3 998 999 1100
3 1100 1099 998
3 999 1000 1101
3 1101 1100 999
3 1000 1001 1102
3 1102 1101 1000
3 1001 1002 1103
3 1103 1102 1001
3 1002 1003 1104
3 1104 1103 1002
3 1003 1004 1105
3 1105 1104 1003
3 1004 1005 1106
3 1106 1105 1004
3 1005 1006 1107
3 1107 1106 1005
3 1006 1007 1108
3 1108 1107 1006
3 1007 1008 1109
3 1109 1108 1007
3 1008 1009 1110
3 1110 1109 1008
3 1010 1011 1112
3 1112 1111 1010
3 1011 1012 1113
3 1113 1112 1011
3 1012 1013 1114
3 1114 1113 1012
3 1013 1014 1115
3 1115 1114 1013
3 1014 1015 1116
3 1116 1115 1014
3 1015 1016 1117
3 1117 1116 1015
3 1016 1017 1118
3 1118 1117 1016
3 1017 1018 1119
3 1119 1118 1017
3 1018 1019 1120
3 1120 1119 1018
3 1019 1020 1121
3 1121 1120 1019
3 1020 1021 1122
3 1122 1121 1020
3 1021 1022 1123
3 1123 1122 1021
3 1022 1023 1124
3 1124 1123 1022
3 1023 1024 1125
3 1125 1124 1023
3 1024 1025 1126
3 1126 1125 1024
3 1025 1026 1127
3 1127 1126 1025
3 1026 1027 1128
3 1128 1127 1026
3 1027 1028 1129
3 1129 1128 1027
3 1028 1029 1130
3 1130 1129 1028
3 1029 1030 1131
3 1131 1130 1029
3 1030 1031 1132
3 1132 1131 1030
3 1031 1032 1133
3 1133 1132 1031
3 1032 1033 1134
3 1134 1133 1032
3 1033 1034 1135
3 1135 1134 1033
3 1034 1035 1136
3 1136 1135 1034
3 1035 1036 1137
3 1137 1136 1035
3 1036 1037 1138
3 1138 1137 1036
3 1037 1038 1139
3 1139 1138 1037
3 1038 1039 1140
3 1140 1139 1038
3 1039 1040 1141
3 1141 1140 1039
3 1040 1041 1142
3 1142 1141 1040
3 1041 1042 1143
3 1143 1142 1041
3 1042 1043 1144
3 1144 1143 1042
3 1043 1044 1145
3 1145 1144 1043
3 1044 1045 1146
3 1146 1145 1044
3 1045 1046 1147
3 1147 1146 1045
3 1046 1047 1148
3 1148 1147 1046
3 1047 1048 1149
3 1149 1148 1047
3 1048 1049 1150
3 1150 1149 1048
3 1049 1050 1151
3 1151 1150 1049
3 1050 1051 1152
3 1152 1151 1050
3 1051 1052 1153
3 1153 1152 1051
3 1052 1053 1154
3 1154 1153 1052
3 1053 1054 1155
3 1155 1154 1053
3 1054 1055 1156
3 1156 1155 1054
3 1055 1056 1157
3 1157 1156 1055
3 1056 1057 1158
3 1158 1157 1056
3 1057 1058 1159
3 1159 1158 1057
3 1058 1059 1160
3 1160 1159 1058
3 1059 1060 1161
3 1161 1160 1059
3 1060 1061 1162
3 1162 1161 1060
3 1061 1062 1163
3 1163 1162 1061
3 1062 1063 1164
3 1164 1163 1062
3 1063 1064 1165
3 1165 1164 1063
3 1064 1065 1166
3 1166 1165 1064
3 1065 1066 1167
3 1167 1166 1065
3 1066 1067 1168
3 1168 1167 1066
3 1067 1068 1169
3 1169 1168 1067
3 1068 1069 1170
3 1170 1169 1068
3 1069 1070 1171
3 1171 1170 1069
3 1070 1071 1172
3 1172 1171 1070
3 1071 1072 1173
3 1173 1172 1071
3 1072 1073 1174
3 1174 1173 1072
3 1073 1074 1175
3 1175 1174 1073
3 1074 1075 1176
3 1176 1175 1074
3 1075 1076 1177
3 1177 1176 1075
3 1076 1077 1178
3 1178 1177 1076
3 1077 1078 1179
3 1179 1178 1077
3 1078 1079 1180
3 1180 1179 1078
3 1079 1080 1181
3 1181 1180 1079
3 1080 1081 1182
3 1182 1181 1080
3 1081 1082 1183
3 1183 1182 1081
3 1082 1083 1184
3 1184 1183 1082
3 1083 1084 1185
3 1185 1184 1083
3 1084 1085 1186
3 1186 1185 1084
3 1085 1086 1187
3 1187 1186 1085
3 1086 1087 1188
3 1188 1187 1086
3 1087 1088 1189
3 1189 1188 1087
3 1088 1089 1190
3 1190 1189 1088
3 1089 1090 1191
3 1191 1190 1089
3 1090 1091 1192
3 1192 1191 1090
3 1091 1092 1193
3 1193 1192 1091
3 1092 1093 1194
3 1194 1193 1092
3 1093 1094 1195
3 1195 1194 1093
3 1094 1095 1196
3 1196 1195 1094
3 1095 1096 1197
3 1197 1196 1095
3 1096 1097 1198
3 1198 1197 1096
3 1097 1098 1199
3 1199 1198 1097
3 1098 1099 1200
3 1200 1199 1098
3 1099 1100 1201
3 1201 1200 1099
3 1100 1101 1202
3 1202 1201 1100
3 1101 1102 1203
3 1203 1202 1101
3 1102 1103 1204
3 1204 1203 1102
3 1103 1104 1205
3 1205 1204 1103
3 1104 1105 1206
3 1206 1205 1104
3 1105 1106 1207
3 1207 1206 1105
3 1106 1107 1208
3 1208 1207 1106
3 1107 1108 1209
3 1209 1208 1107
3 1108 1109 1210
3 1210 1209 1108
3 1109 1110 1211
3 1211 1210 1109
3 1111 1112 1213
3 1213 1212 1111
3 1112 1113 1214
3 1214 1213 1112
3 1113 1114 1215
3 1215 1214 1113
3 1114 1115 1216
3 1216 1215 1114
3 1115 1116 1217
3 1217 1216 1115
3 1116 1117 1218
3 1218 1217 1116
3 1117 1118 1219
3 1219 1218 1117
3 1118 1119 1220
3 1220 1219 1118
3 1119 1120 1221
3 1221 1220 1119
3 1120 1121 1222
3 1222 1221 1120
3 1121 1122 1223
3 1223 1222 1121
3 1122 1123 1224
3 1224 1223 1122
3 1123 1124 1225
3 1225 1224 1123
3 1124 1125 1226
3 1226 1225 1124
3 1125 1126 1227
3 1227 1226 1125
3 1126 1127 1228
3 1228 1227 1126
3 1127 1128 1229
3 1229 1228 1127
3 1128 1129 1230
3 1230 1229 1128
3 1129 1130 1231
3 1231 1230 1129
3 1130 1131 1232
3 1232 1231 1130
3 1131 1132 1233
3 1233 1232 1131
3 1132 1133 1234
3 1234 1233 1132
3 1133 1134 1235
3 1235 1234 1133
3 1134 1135 1236
3 1236 1235 1134
3 1135 1136 1237
3 1237 1236 1135
3 1136 1137 1238
3 1238 1237 1136
3 1137 1138 1239
3 1239 1238 1137
3 1138 1139 1240
3 1240 1239 1138
3 1139 1140 1241
3 1241 1240 1139
3 1140 1141 1242
3 1242 1241 1140
3 1141 1142 1243
3 1243 1242 1141
3 1142 1143 1244
3 1244 1243 1142
3 1143 1144 1245
3 1245 1244 1143
3 1144 1145 1246
3 1246 1245 1144
3 1145 1146 1247
3 1247 1246 1145
3 1146 1147 1248
3 1248 1247 1146
3 1147 1148 1249
3 1249 1248 1147
3 1148 1149 1250
3 1250 1249 1148
3 1149 1150 1251
3 1251 1250 1149
3 1150 1151 1252
3 1252 1251 1150
3 1151 1152 1253
3 1253 1252 1151
3 1152 1153 1254
3 1254 1253 1152
3 1153 1154 1255
3 1255 1254 1153
3 1154 1155 1256
3 1256 1255 1154
3 1155 1156 1257
3 1257 1256 1155
3 1156 1157 1258
3 1258 1257 1156
3 1157 1158 1259
3 1259 1258 1157
3 1158 1159 1260
3 1260 1259 1158
3 1159 1160 1261
3 1261 1260 1159
3 1160 1161 1262
3 1262 1261 1160
3 1161 1162 1263
3 1263 1262 1161
3 1162 1163 1264
3 1264 1263 1162
3 1163 1164 1265
3 1265 1264 1163
3 1164 1165 1266
3 1266 1265 1164
3 1165 1166 1267
3 1267 1266 1165
3 1166 1167 1268
3 1268 1267 1166
3 1167 1168 1269
3 1269 1268 1167
3 1168 1169 1270
3 1270 1269 1168
3 1169 1170 1271
3 1271 1270 1169
3 1170 1171 1272
3 1272 1271 1170
3 1171 1172 1273
3 1273 1272 1171
3 1172 1173 1274
3 1274 1273 1172
3 1173 1174 1275
3 1275 1274 1173
3 1174 1175 1276
3 1276 1275 1174
3 1175 1176 1277
3 1277 1276 1175
3 1176 1177 1278
3 1278 1277 1176
3 1177 1178 1279
3 1279 1278 1177
3 1178 1179 1280
3 1280 1279 1178
3 1179 1180 1281
3 1281 1280 1179
3 1180 1181 1282
3 1282 1281 1180
3 1181 1182 1283
3 1283 1282 1181
3 1182 1183 1284
3 1284 1283 1182
3 1183 1184 1285
3 1285 1284 1183
3 1184 1185 1286
3 1286 1285 1184
3 1185 1186 1287
3 1287 1286 1185
3 1186 1187 1288
3 1288 1287 1186
3 1187 1188 1289
3 1289 1288 1187
3 1188 1189 1290
3 1290 1289 1188
3 1189 1190 1291
3 1291 1290 1189
3 1190 1191 1292
3 1292 1291 1190
3 1191 1192 1293
3 1293 1292 1191
3 1192 1193 1294
3 1294 1293 1192
3 1193 1194 1295
3 1295 1294 1193
3 1194 1195 1296
3 1296 1295 1194
3 1195 1196 1297
3 1297 1296 1195
3 1196 1197 1298
3 1298 1297 1196
3 1197 1198 1299
3 1299 1298 1197
3 1198 1199 1300
3 1300 1299 1198
3 1199 1200 1301
3 1301 1300 1199
3 1200 1201 1302
3 1302 1301 1200
3 1201 1202 1303
3 1303 1302 1201
3 1202 1203 1304
3 1304 1303 1202
3 1203 1204 1305
3 1305 1304 1203
3 1204 1205 1306
3 1306 1305 1204
3 1205 1206 1307
3 1307 1306 1205
3 1206 1207 1308
3 1308 1307 1206
3 1207 1208 1309
3 1309 1308 1207
3 1208 1209 1310
3 1310 1309 1208
3 1209 1210 1311
3 1311 1310 1209
3 1210 1211 1312
3 1312 1311 1210
3 1212 1213 1314
3 1314 1313 1212
3 1213 1214 1315
3 1315 1314 1213
3 1214 1215 1316
3 1316 1315 1214
3 1215 1216 1317
3 1317 1316 1215
3 1216 1217 1318
3 1318 1317 1216
3 1217 1218 1319
3 1319 1318 1217
3 1218 1219 1320
3 1320 1319 1218
3 1219 1220 1321
3 1321 1320 1219
3 1220 1221 1322
3 1322 1321 1220
3 1221 1222 1323
3 1323 1322 1221
3 1222 1223 1324
3 1324 1323 1222
3 1223 1224 1325
3 1325 1324 1223
3 1224 1225 1326
3 1326 1325 1224
3 1225 1226 1327
3 1327 1326 1225
3 1226 1227 1328
3 1328 1327 1226
3 1227 1228 1329
3 1329 1328 1227
3 1228 1229 1330
3 1330 1329 1228
3 1229 1230 1331
3 1331 1330 1229
3 1230 1231 1332
3 1332 1331 1230
3 1231 1232 1333
3 1333 1332 1231
3 1232 1233 1334
3 1334 1333 1232
3 1233 1234 1335
3 1335 1334 1233
3 1234 1235 1336
3 1336 1335 1234
3 1235 1236 1337
3 1337 1336 1235
3 1236 1237 1338
3 1338 1337 1236
3 1237 1238 1339
3 1339 1338 1237
3 1238 1239 1340
3 1340 1339 1238
3 1239 1240 1341
3 1341 1340 1239
3 1240 1241 1342
3 1342 1341 1240
3 1241 1242 1343
3 1343 1342 1241
3 1242 1243 1344
3 1344 1343 1242
3 1243 1244 1345
3 1345 1344 1243
3 1244 1245 1346
3 1346 1345 1244
3 1245 1246 1347
3 1347 1346 1245
3 1246 1247 1348
3 1348 1347 1246
3 1247 1248 1349
3 1349 1348 1247
3 1248 1249 1350
3 1350 1349 1248
3 1249 1250 1351
3 1351 1350 1249
3 1250 1251 1352
3 1352 1351 1250
3 1251 1252 1353
3 1353 1352 1251
3 1252 1253 1354
3 1354 1353 1252
3 1253 1254 1355
3 1355 1354 1253
3 1254 1255 1356
3 1356 1355 1254
3 1255 1256 1357
3 1357 1356 1255
3 1256 1257 1358
3 1358 1357 1256
3 1257 1258 1359
3 1359 1358 1257
3 1258 1259 1360
3 1360 1359 1258
3 1259 1260 1361
3 1361 1360 1259
3 1260 1261 1362
3 1362 1361 1260
3 1261 1262 1363
3 1363 1362 1261
3 1262 1263 1364
3 1364 1363 1262
3 1263 1264 1365
3 1365 1364 1263
3 1264 1265 1366
3 1366 1365 1264
3 1265 1266 1367
3 1367 1366 1265
3 1266 1267 1368
3 1368 1367 1266
3 1267 1268 1369
3 1369 1368 1267
3 1268 1269 1370
3 1370 1369 1268
3 1269 1270 1371
3 1371 1370 1269
3 1270 1271 1372
3 1372 1371 1270
3 1271 1272 1373
3 1373 1372 1271
3 1272 1273 1374
3 1374 1373 1272
3 1273 1274 1375
3 1375 1374 1273
3 1274 1275 1376
3 1376 1375 1274
3 1275 1276 1377
3 1377 1376 1275
3 1276 1277 1378
3 1378 1377 1276
3 1277 1278 1379
3 1379 1378 1277
3 1278 1279 1380
3 1380 1379 1278
3 1279 1280 1381
3 1381 1380 1279
3 1280 1281 1382
3 1382 1381 1280
3 1281 1282 1383
3 1383 1382 1281
3 1282 1283 1384
3 1384 1383 1282
3 1283 1284 1385
3 1385 1384 1283
3 1284 1285 1386
3 1386 1385 1284
3 1285 1286 1387
3 1387 1386 1285
3 1286 1287 1388
3 1388 1387 1286
3 1287 1288 1389
3 1389 1388 1287
3 1288 1289 1390
3 1390 1389 1288
3 1289 1290 1391
3 1391 1390 1289
3 1290 1291 1392
3 1392 1391 1290
3 1291 1292 1393
3 1393 1392 1291
3 1292 1293 1394
3 1394 1393 1292
3 1293 1294 1395
3 1395 1394 1293
3 1294 1295 1396
3 1396 1395 1294
3 1295 1296 1397
3 1397 1396 1295
3 1296 1297 1398
3 1398 1397 1296
3 1297 1298 1399
3 1399 1398 1297
3 1298 1299 1400
3 1400 1399 1298
3 1299 1300 1401
3 1401 1400 1299
3 1300 1301 1402
3 1402 1401 1300
3 1301 1302 1403
3 1403 1402 1301
3 1302 1303 1404
3 1404 1403 1302
3 1303 1304 1405
3 1405 1404 1303
3 1304 1305 1406
3 1406 1405 1304
3 1305 1306 1407
3 1407 1406 1305
3 1306 1307 1408
3 1408 1407 1306
3 1307 1308 1409
3 1409 1408 1307
3 1308 1309 1410
3 1410 1409 1308
3 1309 1310 1411
3 1411 1410 1309
3 1310 1311 1412
3 1412 1411 1310
3 1311 1312 1413
3 1413 1412 1311
3 1313 1314 1415
3 1415 1414 1313
3 1314 1315 1416
3 1416 1415 1314
3 1315 1316 1417
3 1417 1416 1315
3 1316 1317 1418
3 1418 1417 1316
3 1317 1318 1419
3 1419 1418 1317
3 1318 1319 1420
3 1420 1419 1318
3 1319 1320 1421
3 1421 1420 1319
3 1320 1321 1422
3 1422 1421 1320
3 1321 1322 1423
3 1423 1422 1321
3 1322 1323 1424
3 1424 1423 1322
3 1323 1324 1425
3 1425 1424 1323
3 1324 1325 1426
3 1426 1425 1324
3 1325 1326 1427
3 1427 1426 1325
3 1326 1327 1428
3 1428 1427 1326
3 1327 1328 1429
3 1429 1428 1327
3 1328 1329 1430
3 1430 1429 1328
3 1329 1330 1431
3 1431 1430 1329
3 1330 1331 1432
3 1432 1431 1330
3 1331 1332 1433
3 1433 1432 1331
3 1332 1333 1434
3 1434 1433 1332
3 1333 1334 1435
3 1435 1434 1333
3 1334 1335 1436
3 1436 1435 1334
3 1335 1336 1437
3 1437 1436 1335
3 1336 1337 1438
3 1438 1437 1336
3 1337 1338 1439
3 1439 1438 1337
3 1338 1339 1440
3 1440 1439 1338
3 1339 1340 1441
3 1441 1440 1339
3 1340 1341 1442
3 1442 1441 1340
3 1341 1342 1443
3 1443 1442 1341
3 1342 1343 1444
3 1444 1443 1342
3 1343 1344 1445
3 1445 1444 1343
3 1344 1345 1446
3 1446 1445 1344
3 1345 1346 1447
3 1447 1446 1345
3 1346 1347 1448
3 1448 1447 1346
3 1347 1348 1449
3 1449 1448 1347
3 1348 1349 1450
3 1450 1449 1348
3 1349 1350 1451
3 1451 1450 1349
3 1350 1351 1452
3 1452 1451 1350
3 1351 1352 1453
3 1453 1452 1351
3 1352 1353 1454
3 1454 1453 1352
3 1353 1354 1455
3 1455 1454 1353
3 1354 1355 1456
3 1456 1455 1354
3 1355 1356 1457
3 1457 1456 1355
3 1356 1357 1458
3 1458 1457 1356
3 1357 1358 1459
3 1459 1458 1357
3 1358 1359 1460
3 1460 1459 1358
3 1359 1360 1461
3 1461 1460 1359
3 1360 1361 1462
3 1462 1461 1360
3 1361 1362 1463
3 1463 1462 1361
3 1362 1363 1464
3 1464 1463 1362
3 1363 1364 1465
3 1465 1464 1363
3 1364 1365 1466
3 1466 1465 1364
3 1365 1366 1467
3 1467 1466 1365
3 1366 1367 1468
3 1468 1467 1366
3 1367 1368 1469
3 1469 1468 1367
3 1368 1369 1470
3 1470 1469 1368
3 1369 1370 1471
3 1471 1470 1369
3 1370 1371 1472
3 1472 1471 1370
3 1371 1372 1473
3 1473 1472 1371
3 1372 1373 1474
3 1474 1473 1372
3 1373 1374 1475
3 1475 1474 1373
3 1374 1375 1476
3 1476 1475 1374
3 1375 1376 1477
3 1477 1476 1375
3 1376 1377 1478
3 1478 1477 1376
3 1377 1378 1479
3 1479 1478 1377
3 1378 1379 1480
3 1480 1479 1378
3 1379 1380 1481
3 1481 1480 1379
3 1380 1381 1482
3 1482 1481 1380
3 1381 1382 1483
3 1483 1482 1381
3 1382 1383 1484
3 1484 1483 1382
3 1383 1384 1485
3 1485 1484 1383
3 1384 1385 1486
3 1486 1485 1384
3 1385 1386 1487
3 1487 1486 1385
3 1386 1387 1488
3 1488 1487 1386
3 1387 1388 1489
3 1489 1488 1387
3 1388 1389 1490
3 1490 1489 1388
3 1389 1390 1491
3 1491 1490 1389
3 1390 1391 1492
3 1492 1491 1390
3 1391 1392 1493
3 1493 1492 1391
3 1392 1393 1494
3 1494 1493 1392
3 1393 1394 1495
3 1495 1494 1393
3 1394 1395 1496
3 1496 1495 1394
3 1395 1396 1497
3 1497 1496 1395
3 1396 1397 1498
3 1498 1497 1396
3 1397 1398 1499
3 1499 1498 1397
3 1398 1399 1500
3 1500 1499 1398
3 1399 1400 1501
3 1501 1500 1399
3 1400 1401 1502
3 1502 1501 1400
3 1401 1402 1503
3 1503 1502 1401
3 1402 1403 1504
3 1504 1503 1402
3 1403 1404 1505
3 1505 1504 1403
3 1404 1405 1506
3 1506 1505 1404
3 1405 1406 1507
3 1507 1506 1405
3 1406 1407 1508
3 1508 1507 1406
3 1407 1408 1509
3 1509 1508 1407
3 1408 1409 1510
3 1510 1509 1408
3 1409 1410 1511
3 1511 1510 1409
3 1410 1411 1512
3 1512 1511 1410
3 1411 1412 1513
3 1513 1512 1411
3 1412 1413 1514
3 1514 1513 1412
3 1414 1415 1516
3 1516 1515 1414
3 1415 1416 1517
3 1517 1516 1415
3 1416 1417 1518
3 1518 1517 1416
3 1417 1418 1519
3 1519 1518 1417
3 1418 1419 1520
3 1520 1519 1418
3 1419 1420 1521
3 1521 1520 1419
3 1420 1421 1522
3 1522 1521 1420
3 1421 1422 1523
3 1523 1522 1421
3 1422 1423 1524
3 1524 1523 1422
3 1423 1424 1525
3 1525 1524 1423
3 1424 1425 1526
3 1526 1525 1424
3 1425 1426 1527
3 1527 1526 1425
3 1426 1427 1528
3 1528 1527 1426
3 1427 1428 1529
3 1529 1528 1427
3 1428 1429 1530
3 1530 1529 1428
3 1429 1430 1531
3 1531 1530 1429
3 1430 1431 1532
3 1532 1531 1430
3 1431 1432 1533
3 1533 1532 1431
3 1432 1433 1534
3 1534 1533 1432
3 1433 1434 1535
3 1535 1534 1433
3 1434 1435 1536
3 1536 1535 1434
3 1435 1436 1537
3 1537 1536 1435
3 1436 1437 1538
3 1538 1537 1436
3 1437 1438 1539
3 1539 1538 1437
3 1438 1439 1540
3 1540 1539 1438
3 1439 1440 1541
3 1541 1540 1439
3 1440 1441 1542
3 1542 1541 1440
3 1441 1442 1543
3 1543 1542 1441
3 1442 1443 1544
3 1544 1543 1442
3 1443 1444 1545
3 1545 1544 1443
3 1444 1445 1546
3 1546 1545 1444
3 1445 1446 1547
3 1547 1546 1445
3 1446 1447 1548
3 1548 1547 1446
3 1447 1448 1549
3 1549 1548 1447
3 1448 1449 1550
3 1550 1549 1448
3 1449 1450 1551
3 1551 1550 1449
3 1450 1451 1552
3 1552 1551 1450
3 1451 1452 1553
3 1553 1552 1451
3 1452 1453 1554
3 1554 1553 1452
3 1453 1454 1555
3 1555 1554 1453
3 1454 1455 1556
3 1556 1555 1454
3 1455 1456 1557
3 1557 1556 1455
3 1456 1457 1558
3 1558 1557 1456
3 1457 1458 1559
3 1559 1558 1457
3 1458 1459 1560
3 1560 1559 1458
3 1459 1460 1561
3 1561 1560 1459
3 1460 1461 1562
3 1562 1561 1460
3 1461 1462 1563
3 1563 1562 1461
3 1462 1463 1564
3 1564 1563 1462
3 1463 1464 1565
3 1565 1564 1463
3 1464 1465 1566
3 1566 1565 1464
3 1465 1466 1567
3 1567 1566 1465
3 1466 1467 1568
3 1568 1567 1466
3 1467 1468 1569
3 1569 1568 1467
3 1468 1469 1570
3 1570 1569 1468
3 1469 1470 1571
3 1571 1570 1469
3 1470 1471 1572
3 1572 1571 1470
3 1471 1472 1573
3 1573 1572 1471
3 1472 1473 1574
3 1574 1573 1472
3 1473 1474 1575
3 1575 1574 1473
3 1474 1475 1576
3 1576 1575 1474
3 1475 1476 1577
3 1577 1576 1475
3 1476 1477 1578
3 1578 1577 1476
3 1477 1478 1579
3 1579 1578 1477
3 1478 1479 1580
3 1580 1579 1478
3 1479 1480 1581
3 1581 1580 1479
3 1480 1481 1582
3 1582 1581 1480
3 1481 1482 1583
3 1583 1582 1481
3 1482 1483 1584
3 1584 1583 1482
3 1483 1484 1585
3 1585 1584 1483
3 1484 1485 1586
3 1586 1585 1484
3 1485 1486 1587
3 1587 1586 1485
3 1486 1487 1588
3 1588 1587 1486
3 1487 1488 1589
3 1589 1588 1487
3 1488 1489 1590
3 1590 1589 1488
3 1489 1490 1591
3 1591 1590 1489
3 1490 1491 1592
3 1592 1591 1490
3 1491 1492 1593
3 1593 1592 1491
3 1492 1493 1594
3 1594 1593 1492
3 1493 1494 1595
3 1595 1594 1493
3 1494 1495 1596
3 1596 1595 1494
3 1495 1496 1597
3 1597 1596 1495
3 1496 1497 1598
3 1598 1597 1496
3 1497 1498 1599
3 1599 1598 1497
3 1498 1499 1600
3 1600 1599 1498
3 1499 1500 1601
3 1601 1600 1499
3 1500 1501 1602
3 1602 1601 1500
3 1501 1502 1603
3 1603 1602 1501
3 1502 1503 1604
3 1604 1603 1502
3 1503 1504 1605
3 1605 1604 1503
3 1504 1505 1606
3 1606 1605 1504
3 1505 1506 1607
3 1607 1606 1505
3 1506 1507 1608
3 1608 1607 1506
3 1507 1508 1609
3 1609 1608 1507
3 1508 1509 1610
3 1610 1609 1508
3 1509 1510 1611
3 1611 1610 1509
3 1510 1511 1612
3 1612 1611 1510
3 1511 1512 1613
3 1613 1612 1511
3 1512 1513 1614
3 1614 1613 1512
3 1513 1514 1615
3 1615 1614 1513
3 1515 1516 1617
3 1617 1616 1515
3 1516 1517 1618
3 1618 1617 1516
3 1517 1518 1619
3 1619 1618 1517
3 1518 1519 1620
3 1620 1619 1518
3 1519 1520 1621
3 1621 1620 1519
3 1520 1521 1622
3 1622 1621 1520
3 1521 1522 1623
3 1623 1622 1521
3 1522 1523 1624
3 1624 1623 1522
3 1523 1524 1625
3 1625 1624 1523
3 1524 1525 1626
3 1626 1625 1524
3 1525 1526 1627
3 1627 1626 1525
3 1526 1527 1628
3 1628 1627 1526
3 1527 1528 1629
3 1629 1628 1527
3 1528 1529 1630
3 1630 1629 1528
3 1529 1530 1631
3 1631 1630 1529
3 1530 1531 1632
3 1632 1631 1530
3 1531 1532 1633
3 1633 1632 1531
3 1532 1533 1634
3 1634 1633 1532
3 1533 1534 1635
3 1635 1634 1533
3 1534 1535 1636
3 1636 1635 1534
3 1535 1536 1637
3 1637 1636 1535
3 1536 1537 1638
3 1638 1637 1536
3 1537 1538 1639
3 1639 1638 1537
3 1538 1539 1640
3 1640 1639 1538
3 1539 1540 1641
3 1641 1640 1539
3 1540 1541 1642
3 1642 1641 1540
3 1541 1542 1643
3 1643 1642 1541
3 1542 1543 1644
3 1644 1643 1542
3 1543 1544 1645
3 1645 1644 1543
3 1544 1545 1646
3 1646 1645 1544
3 1545 1546 1647
3 1647 1646 1545
3 1546 1547 1648
3 1648 1647 1546
3 1547 1548 1649
3 1649 1648 1547
3 1548 1549 1650
3 1650 1649 1548
3 1549 1550 1651
3 1651 1650 1549
3 1550 1551 1652
3 1652 1651 1550
3 1551 1552 1653
3 1653 1652 1551
3 1552 1553 1654
3 1654 1653 1552
3 1553 1554 1655
3 1655 1654 1553
3 1554 1555 1656
3 1656 1655 1554
3 1555 1556 1657
3 1657 1656 1555
3 1556 1557 1658
3 1658 1657 1556
3 1557 1558 1659
3 1659 1658 1557
3 1558 1559 1660
3 1660 1659 1558
3 1559 1560 1661
3 1661 1660 1559
3 1560 1561 1662
3 1662 1661 1560
3 1561 1562 1663
3 1663 1662 1561
3 1562 1563 1664
3 1664 1663 1562
3 1563 1564 1665
3 1665 1664 1563
3 1564 1565 1666
3 1666 1665 1564
3 1565 1566 1667
3 1667 1666 1565
3 1566 1567 1668
3 1668 1667 1566
3 1567 1568 1669
3 1669 1668 1567
3 1568 1569 1670
3 1670 1669 1568
3 1569 1570 1671
3 1671 1670 1569
3 1570 1571 1672
3 1672 1671 1570
3 1571 1572 1673
3 1673 1672 1571
3 1572 1573 1674
3 1674 1673 1572
3 1573 1574 1675
3 1675 1674 1573
3 1574 1575 1676
3 1676 1675 1574
3 1575 1576 1677
3 1677 1676 1575
3 1576 1577 1678
3 1678 1677 1576
3 1577 1578 1679
3 1679 1678 1577
3 1578 1579 1680
3 1680 1679 1578
3 1579 1580 1681
3 1681 1680 1579
3 1580 1581 1682
3 1682 1681 1580
3 1581 1582 1683
3 1683 1682 1581
3 1582 1583 1684
3 1684 1683 1582
3 1583 1584 1685
3 1685 1684 1583
3 1584 1585 1686
3 1686 1685 1584
3 1585 1586 1687
3 1687 1686 1585
3 1586 1587 1688
3 1688 1687 1586
3 1587 1588 1689
3 1689 1688 1587
3 1588 1589 1690
3 1690 1689 1588
3 1589 1590 1691
3 1691 1690 1589
3 1590 1591 1692
3 1692 1691 1590
3 1591 1592 1693
3 1693 1692 1591
3 1592 1593 1694
3 1694 1693 1592
3 1593 1594 1695
3 1695 1694 1593
3 1594 1595 1696
3 1696 1695 1594
3 1595 1596 1697
3 1697 1696 1595
3 1596 1597 1698
3 1698 1697 1596
3 1597 1598 1699
3 1699 1698 1597
3 1598 1599 1700
3 1700 1699 1598
3 1599 1600 1701
3 1701 1700 1599
3 1600 1601 1702
3 1702 1701 1600
3 1601 1602 1703
3 1703 1702 1601
3 1602 1603 1704
3 1704 1703 1602
3 1603 1604 1705
3 1705 1704 1603
3 1604 1605 1706
3 1706 1705 1604
3 1605 1606 1707
3 1707 1706 1605
3 1606 1607 1708
3 1708 1707 1606
3 1607 1608 1709
3 1709 1708 1607
3 1608 1609 1710
3 1710 1709 1608
3 1609 1610 1711
3 1711 1710 1609
3 1610 1611 1712
3 1712 1711 1610
3 1611 1612 1713
3 1713 1712 1611
3 1612 1613 1714
3 1714 1713 1612
3 1613 1614 1715
3 1715 1714 1613
3 1614 1615 1716
3 1716 1715 1614
3 1616 1617 1718
3 1718 1717 1616
3 1617 1618 1719
3 1719 1718 1617
3 1618 1619 1720
3 1720 1719 1618
3 1619 1620 1721
3 1721 1720 1619
3 1620 1621 1722
3 1722 1721 1620
3 1621 1622 1723
3 1723 1722 1621
3 1622 1623 1724
3 1724 1723 1622
3 1623 1624 1725
3 1725 1724 1623
3 1624 1625 1726
3 1726 1725 1624
3 1625 1626 1727
3 1727 1726 1625
3 1626 1627 1728
3 1728 1727 1626
3 1627 1628 1729
3 1729 1728 1627
3 1628 1629 1730
3 1730 1729 1628
3 1629 1630 1731
3 1731 1730 1629
3 1630 1631 1732
3 1732 1731 1630
3 1631 1632 1733
3 1733 1732 1631
3 1632 1633 1734
3 1734 1733 1632
3 1633 1634 1735
3 1735 1734 1633
3 1634 1635 1736
3 1736 1735 1634
3 1635 1636 1737
3 1737 1736 1635
3 1636 1637 1738
3 1738 1737 1636
3 1637 1638 1739
3 1739 1738 1637
3 1638 1639 1740
3 1740 1739 1638
3 1639 1640 1741
3 1741 1740 1639
3 1640 1641 1742
3 1742 1741 1640
3 1641 1642 1743
3 1743 1742 1641
3 1642 1643 1744
3 1744 1743 1642
3 1643 1644 1745
3 1745 1744 1643
3 1644 1645 1746
3 1746 1745 1644
3 1645 1646 1747
3 1747 1746 1645
3 1646 1647 1748
3 1748 1747 1646
3 1647 1648 1749
3 1749 1748 1647
3 1648 1649 1750
3 1750 1749 1648
3 1649 1650 1751
3 1751 1750 1649
3 1650 1651 1752
3 1752 1751 1650
3 1651 1652 1753
3 1753 1752 1651
3 1652 1653 1754
3 1754 1753 1652
3 1653 1654 1755
3 1755 1754 1653
3 1654 1655 1756
3 1756 1755 1654
3 1655 1656 1757
3 1757 1756 1655
3 1656 1657 1758
3 1758 1757 1656
3 1657 1658 1759
3 1759 1758 1657
3 1658 1659 1760
3 1760 1759 1658
3 1659 1660 1761
3 1761 1760 1659
3 1660 1661 1762
3 1762 1761 1660
3 1661 1662 1763
3 1763 1762 1661
3 1662 1663 1764
3 1764 1763 1662
3 1663 1664 1765
3 1765 1764 1663
3 1664 1665 1766
3 1766 1765 1664
3 1665 1666 1767
3 1767 1766 1665
3 1666 1667 1768
3 1768 1767 1666
3 1667 1668 1769
3 1769 1768 1667
3 1668 1669 1770
3 1770 1769 1668
3 1669 1670 1771
3 1771 1770 1669
3 1670 1671 1772
3 1772 1771 1670
3 1671 1672 1773
3 1773 1772 1671
3 1672 1673 1774
3 1774 1773 1672
3 1673 1674 1775
3 1775 1774 1673
3 1674 1675 1776
3 1776 1775 1674
3 1675 1676 1777
3 1777 1776 1675
3 1676 1677 1778
3 1778 1777 1676
3 1677 1678 1779
3 1779 1778 1677
3 1678 1679 1780
3 1780 1779 1678
3 1679 1680 1781
3 1781 1780 1679
3 1680 1681 1782
3 1782 1781 1680
3 1681 1682 1783
3 1783 1782 1681
3 1682 1683 1784
3 1784 1783 1682
3 1683 1684 1785
3 1785 1784 1683
3 1684 1685 1786
3 1786 1785 1684
3 1685 1686 1787
3 1787 1786 1685
3 1686 1687 1788
3 1788 1787 1686
3 1687 1688 1789
3 1789 1788 1687
3 1688 1689 1790
3 1790 1789 1688
3 1689 1690 1791
3 1791 1790 1689
3 1690 1691 1792
3 1792 1791 1690
3 1691 1692 1793
3 1793 1792 1691
3 1692 1693 1794
3 1794 1793 1692
3 1693 1694 1795
3 1795 1794 1693
3 1694 1695 1796
3 1796 1795 1694
3 1695 1696 1797
3 1797 1796 1695
3 1696 1697 1798
3 1798 1797 1696
3 1697 1698 1799
3 1799 1798 1697
3 1698 1699 1800
3 1800 1799 1698
3 1699 1700 1801
3 1801 1800 1699
3 1700 1701 1802
3 1802 1801 1700
3 1701 1702 1803
3 1803 1802 1701
3 1702 1703 1804
3 1804 1803 1702
3 1703 1704 1805
3 1805 1804 1703
3 1704 1705 1806
3 1806 1805 1704
3 1705 1706 1807
3 1807 1806 1705
3 1706 1707 1808
3 1808 1807 1706
3 1707 1708 1809
3 1809 1808 1707
3 1708 1709 1810
3 1810 1809 1708
3 1709 1710 1811
3 1811 1810 1709
3 1710 1711 1812
3 1812 1811 1710
3 1711 1712 1813
3 1813 1812 1711
3 1712 1713 1814
3 1814 1813 1712
3 1713 1714 1815
3 1815 1814 1713
3 1714 1715 1816
3 1816 1815 1714
3 1715 1716 1817
3 1817 1816 1715
3 1717 1718 1819
3 1819 1818 1717
3 1718 1719 1820
3 1820 1819 1718
3 1719 1720 1821
3 1821 1820 1719
3 1720 1721 1822
3 1822 1821 1720
3 1721 1722 1823
3 1823 1822 1721
3 1722 1723 1824
3 1824 1823 1722
3 1723 1724 1825
3 1825 1824 1723
3 1724 1725 1826
3 1826 1825 1724
3 1725 1726 1827
3 1827 1826 1725
3 1726 1727 1828
3 1828 1827 1726
3 1727 1728 1829
3 1829 1828 1727
3 1728 1729 1830
3 1830 1829 1728
3 1729 1730 1831
3 1831 1830 1729
3 1730 1731 1832
3 1832 1831 1730
3 1731 1732 1833
3 1833 1832 1731
3 1732 1733 1834
3 1834 1833 1732
3 1733 1734 1835
3 1835 1834 1733
3 1734 1735 1836
3 1836 1835 1734
3 1735 1736 1837
3 1837 1836 1735
3 1736 1737 1838
3 1838 1837 1736
3 1737 1738 1839
3 1839 1838 1737
3 1738 1739 1840
3 1840 1839 1738
3 1739 1740 1841
3 1841 1840 1739
3 1740 1741 1842
3 1842 1841 1740
3 1741 1742 1843
3 1843 1842 1741
3 1742 1743 1844
3 1844 1843 1742
3 1743 1744 1845
3 1845 1844 1743
3 1744 1745 1846
3 1846 1845 1744
3 1745 1746 1847
3 1847 1846 1745
3 1746 1747 1848
3 1848 1847 1746
3 1747 1748 1849
3 1849 1848 1747
3 1748 1749 1850
3 1850 1849 1748
3 1749 1750 1851
3 1851 1850 1749
3 1750 1751 1852
3 1852 1851 1750
3 1751 1752 1853
3 1853 1852 1751
3 1752 1753 1854
3 1854 1853 1752
3 1753 1754 1855
3 1855 1854 1753
3 1754 1755 1856
3 1856 1855 1754
3 1755 1756 1857
3 1857 1856 1755
3 1756 1757 1858
3 1858 1857 1756
3 1757 1758 1859
3 1859 1858 1757
3 1758 1759 1860
3 1860 1859 1758
3 1759 1760 1861
3 1861 1860 1759
3 1760 1761 1862
3 1862 1861 1760
3 1761 1762 1863
3 1863 1862 1761
3 1762 1763 1864
3 1864 1863 1762
3 1763 1764 1865
3 1865 1864 1763
3 1764 1765 1866
3 1866 1865 1764
3 1765 1766 1867
3 1867 1866 1765
3 1766 1767 1868
3 1868 1867 1766
3 1767 1768 1869
3 1869 1868 1767
3 1768 1769 1870
3 1870 1869 1768
3 1769 1770 1871
3 1871 1870 1769
3 1770 1771 1872
3 1872 1871 1770
3 1771 1772 1873
3 1873 1872 1771
3 1772 1773 1874
3 1874 1873 1772
3 1773 1774 1875
3 1875 1874 1773
3 1774 1775 1876
3 1876 1875 1774
3 1775 1776 1877
3 1877 1876 1775
3 1776 1777 1878
3 1878 1877 1776
3 1777 1778 1879
3 1879 1878 1777
3 1778 1779 1880
3 1880 1879 1778
3 1779 1780 1881
3 1881 1880 1779
3 1780 1781 1882
3 1882 1881 1780
3 1781 1782 1883
3 1883 1882 1781
3 1782 1783 1884
3 1884 1883 1782
3 1783 1784 1885
3 1885 1884 1783
3 1784 1785 1886
3 1886 1885 1784
3 1785 1786 1887
3 1887 1886 1785
3 1786 1787 1888
3 1888 1887 1786
3 1787 1788 1889
3 1889 1888 1787
3 1788 1789 1890
3 1890 1889 1788
3 1789 1790 1891
3 1891 1890 1789
3 1790 1791 1892
3 1892 1891 1790
3 1791 1792 1893
3 1893 1892 1791
3 1792 1793 1894
3 1894 1893 1792
3 1793 1794 1895
3 1895 1894 1793
3 1794 1795 1896
3 1896 1895 1794
3 1795 1796 1897
3 1897 1896 1795
3 1796 1797 1898
3 1898 1897 1796
3 1797 1798 1899
3 1899 1898 1797
3 1798 1799 1900
3 1900 1899 1798
3 1799 1800 1901
3 1901 1900 1799
3 1800 1801 1902
3 1902 1901 1800
3 1801 1802 1903
3 1903 1902 1801
3 1802 1803 1904
3 1904 1903 1802
3 1803 1804 1905
3 1905 1904 1803
3 1804 1805 1906
3 1906 1905 1804
3 1805 1806 1907
3 1907 1906 1805
3 1806 1807 1908
3 1908 1907 1806
3 1807 1808 1909
3 1909 1908 1807
3 1808 1809 1910
3 1910 1909 1808
3 1809 1810 1911
3 1911 1910 1809
3 1810 1811 1912
3 1912 1911 1810
3 1811 1812 1913
3 1913 1912 1811
3 1812 1813 1914
3 1914 1913 1812
3 1813 1814 1915
3 1915 1914 1813
3 1814 1815 1916
3 1916 1915 1814
3 1815 1816 1917
3 1917 1916 1815
3 1816 1817 1918
3 1918 1917 1816
3 1818 1819 1920
3 1920 1919 1818
3 1819 1820 1921
3 1921 1920 1819
3 1820 1821 1922
3 1922 1921 1820
3 1821 1822 1923
3 1923 1922 1821
3 1822 1823 1924
3 1924 1923 1822
3 1823 1824 1925
3 1925 1924 1823
3 1824 1825 1926
3 1926 1925 1824
3 1825 1826 1927
3 1927 1926 1825
3 1826 1827 1928
3 1928 1927 1826
3 1827 1828 1929
3 1929 1928 1827
3 1828 1829 1930
3 1930 1929 1828
3 1829 1830 1931
3 1931 1930 1829
3 1830 1831 1932
3 1932 1931 1830
3 1831 1832 1933
3 1933 1932 1831
3 1832 1833 1934
3 1934 1933 1832
3 1833 1834 1935
3 1935 1934 1833
3 1834 1835 1936
3 1936 1935 1834
3 1835 1836 1937
3 1937 1936 1835
3 1836 1837 1938
3 1938 1937 1836
3 1837 1838 1939
3 1939 1938 1837
3 1838 1839 1940
3 1940 1939 1838
3 1839 1840 1941
3 1941 1940 1839
3 1840 1841 1942
3 1942 1941 1840
3 1841 1842 1943
3 1943 1942 1841
3 1842 1843 1944
3 1944 1943 1842
3 1843 1844 1945
3 1945 1944 1843
3 1844 1845 1946
3 1946 1945 1844
3 1845 1846 1947
3 1947 1946 1845
3 1846 1847 1948
3 1948 1947 1846
3 1847 1848 1949
3 1949 1948 1847
3 1848 1849 1950
3 1950 1949 1848
3 1849 1850 1951
3 1951 1950 1849
3 1850 1851 1952
3 1952 1951 1850
3 1851 1852 1953
3 1953 1952 1851
3 1852 1853 1954
3 1954 1953 1852
3 1853 1854 1955
3 1955 1954 1853
3 1854 1855 1956
3 1956 1955 1854
3 1855 1856 1957
3 1957 1956 1855
3 1856 1857 1958
3 1958 1957 1856
3 1857 1858 1959
3 1959 1958 1857
3 1858 1859 1960
3 1960 1959 1858
3 1859 1860 1961
3 1961 1960 1859
3 1860 1861 1962
3 1962 1961 1860
3 1861 1862 1963
3 1963 1962 1861
3 1862 1863 1964
3 1964 1963 1862
3 1863 1864 1965
3 1965 1964 1863
3 1864 1865 1966
3 1966 1965 1864
3 1865 1866 1967
3 1967 1966 1865
3 1866 1867 1968
3 1968 1967 1866
3 1867 1868 1969
3 1969 1968 1867
3 1868 1869 1970
3 1970 1969 1868
3 1869 1870 1971
3 1971 1970 1869
3 1870 1871 1972
3 1972 1971 1870
3 1871 1872 1973
3 1973 1972 1871
3 1872 1873 1974
3 1974 1973 1872
3 1873 1874 1975
3 1975 1974 1873
3 1874 1875 1976
3 1976 1975 1874
3 1875 1876 1977
3 1977 1976 1875
3 1876 1877 1978
3 1978 1977 1876
3 1877 1878 1979
3 1979 1978 1877
3 1878 1879 1980
3 1980 1979 1878
3 1879 1880 1981
3 1981 1980 1879
3 1880 1881 1982
3 1982 1981 1880
3 1881 1882 1983
3 1983 1982 1881
3 1882 1883 1984
3 1984 1983 1882
3 1883 1884 1985
3 1985 1984 1883
3 1884 1885 1986
3 1986 1985 1884
3 1885 1886 1987
3 1987 1986 1885
3 1886 1887 1988
3 1988 1987 1886
3 1887 1888 1989
3 1989 1988 1887
3 1888 1889 1990
3 1990 1989 1888
3 1889 1890 1991
3 1991 1990 1889
3 1890 1891 1992
3 1992 1991 1890
3 1891 1892 1993
3 1993 1992 1891
3 1892 1893 1994
3 1994 1993 1892
3 1893 1894 1995
3 1995 1994 1893
3 1894 1895 1996
3 1996 1995 1894
3 1895 1896 1997
3 1997 1996 1895
3 1896 1897 1998
3 1998 1997 1896
3 1897 1898 1999
3 1999 1998 1897
3 1898 1899 2000
3 2000 1999 1898
3 1899 1900 2001
3 2001 2000 1899
3 1900 1901 2002
3 2002 2001 1900
3 1901 1902 2003
3 2003 2002 1901
3 1902 1903 2004
3 2004 2003 1902
3 1903 1904 2005
3 2005 2004 1903
3 1904 1905 2006
3 2006 2005 1904
3 1905 1906 2007
3 2007 2006 1905
3 1906 1907 2008
3 2008 2007 1906
3 1907 1908 2009
3 2009 2008 1907
3 1908 1909 2010
3 2010 2009 1908
3 1909 1910 2011
3 2011 2010 1909
3 1910 1911 2012
3 2012 2011 1910
3 1911 1912 2013
3 2013 2012 1911
3 1912 1913 2014
3 2014 2013 1912
3 1913 1914 2015
3 2015 2014 1913
3 1914 1915 2016
3 2016 2015 1914
3 1915 1916 2017
3 2017 2016 1915
3 1916 1917 2018
3 2018 2017 1916
3 1917 1918 2019
3 2019 2018 1917
3 1919 1920 2021
3 2021 2020 1919
3 1920 1921 2022
3 2022 2021 1920
3 1921 1922 2023
3 2023 2022 1921
3 1922 1923 2024
3 2024 2023 1922
3 1923 1924 2025
3 2025 2024 1923
3 1924 1925 2026
3 2026 2025 1924
3 1925 1926 2027
3 2027 2026 1925
3 1926 1927 2028
3 2028 2027 1926
3 1927 1928 2029
3 2029 2028 1927
3 1928 1929 2030
3 2030 2029 1928
3 1929 1930 2031
3 2031 2030 1929
3 1930 1931 2032
3 2032 2031 1930
3 1931 1932 2033
3 2033 2032 1931
3 1932 1933 2034
3 2034 2033 1932
3 1933 1934 2035
3 2035 2034 1933
3 1934 1935 2036
3 2036 2035 1934
3 1935 1936 2037
3 2037 2036 1935
3 1936 1937 2038
3 2038 2037 1936
3 1937 1938 2039
3 2039 2038 1937
3 1938 1939 2040
3 2040 2039 1938
3 1939 1940 2041
3 2041 2040 1939
3 1940 1941 2042
3 2042 2041 1940
3 1941 1942 2043
3 2043 2042 1941
3 1942 1943 2044
3 2044 2043 1942
3 1943 1944 2045
3 2045 2044 1943
3 1944 1945 2046
3 2046 2045 1944
3 1945 1946 2047
3 2047 2046 1945
3 1946 1947 2048
3 2048 2047 1946
3 1947 1948 2049
3 2049 2048 1947
3 1948 1949 2050
3 2050 2049 1948
3 1949 1950 2051
3 2051 2050 1949
3 1950 1951 2052
3 2052 2051 1950
3 1951 1952 2053
3 2053 2052 1951
3 1952 1953 2054
3 2054 2053 1952
3 1953 1954 2055
3 2055 2054 1953
3 1954 1955 2056
3 2056 2055 1954
3 1955 1956 2057
3 2057 2056 1955
3 1956 1957 2058
3 2058 2057 1956
3 1957 1958 2059
3 2059 2058 1957
3 1958 1959 2060
3 2060 2059 1958
3 1959 1960 2061
3 2061 2060 1959
3 1960 1961 2062
3 2062 2061 1960
3 1961 1962 2063
3 2063 2062 1961
3 1962 1963 2064
3 2064 2063 1962
3 1963 1964 2065
3 2065 2064 1963
3 1964 1965 2066
3 2066 2065 1964
3 1965 1966 2067
3 2067 2066 1965
3 1966 1967 2068
3 2068 2067 1966
3 1967 1968 2069
3 2069 2068 1967
3 1968 1969 2070
3 2070 2069 1968
3 1969 1970 2071
3 2071 2070 1969
3 1970 1971 2072
3 2072 2071 1970
3 1971 1972 2073
3 2073 2072 1971
3 1972 1973 2074
3 2074 2073 1972
3 1973 1974 2075
3 2075 2074 1973
3 1974 1975 2076
3 2076 2075 1974
3 1975 1976 2077
3 2077 2076 1975
3 1976 1977 2078
3 2078 2077 1976
3 1977 1978 2079
3 2079 2078 1977
3 1978 1979 2080
3 2080 2079 1978
3 1979 1980 2081
3 2081 2080 1979
3 1980 1981 2082
3 2082 2081 1980
3 1981 1982 2083
3 2083 2082 1981
3 1982 1983 2084
3 2084 2083 1982
3 1983 1984 2085
3 2085 2084 1983
3 1984 1985 2086
3 2086 2085 1984
3 1985 1986 2087
3 2087 2086 1985
3 1986 1987 2088
3 2088 2087 1986
3 1987 1988 2089
3 2089 2088 1987
3 1988 1989 2090
3 2090 2089 1988
3 1989 1990 2091
3 2091 2090 1989
3 1990 1991 2092
3 2092 2091 1990
3 1991 1992 2093
3 2093 2092 1991
3 1992 1993 2094
3 2094 2093 1992
3 1993 1994 2095
3 2095 2094 1993
3 1994 1995 2096
3 2096 2095 1994
3 1995 1996 2097
3 2097 2096 1995
3 1996 1997 2098
3 2098 2097 1996
3 1997 1998 2099
3 2099 2098 1997
3 1998 1999 2100
3 2100 2099 1998
3 1999 2000 2101
3 2101 2100 1999
3 2000 2001 2102
3 2102 2101 2000
3 2001 2002 2103
3 2103 2102 2001
3 2002 2003 2104
3 2104 2103 2002
3 2003 2004 2105
3 2105 2104 2003
3 2004 2005 2106
3 2106 2105 2004
3 2005 2006 2107
3 2107 2106 2005
3 2006 2007 2108
3 2108 2107 2006
3 2007 2008 2109
3 2109 2108 2007
3 2008 2009 2110
3 2110 2109 2008
3 2009 2010 2111
3 2111 2110 2009
3 2010 2011 2112
3 2112 2111 2010
3 2011 2012 2113
3 2113 2112 2011
3 2012 2013 2114
3 2114 2113 2012
3 2013 2014 2115
3 2115 2114 2013
3 2014 2015 2116
3 2116 2115 2014
3 2015 2016 2117
3 2117 2116 2015
3 2016 2017 2118
3 2118 2117 2016
3 2017 2018 2119
3 2119 2118 2017
3 2018 2019 2120
3 2120 2119 2018
CELL_TYPES 4000
5
5
5
5
5
5
5
5
5
5
5
5
5
5
5
5
5
5
5
5
5
5
5
5
5
5
5
5
5
5
5
5
5
5
5
5
5
5
5
5
5
5
5
5
5
5
5
5
5
5
5
5
5
5
5
5
5
5
5
5
5
5
5
5
5
5
5
5
5
5
5
5
5
5
5
5
5
5
5
5
5
5
5
5
5
5
5
5
5
5
5
5
5
5
5
5
5
5
5
5
5
5
5
5
5
5
5
5
5
5
5
5
5
5
5
5
5
5
5
5
5
5
5
5
5
5
5
5
5
5
5
5
5
5
5
5
5
5
5
5
5
5
5
5
5
5
5
5
5
5
5
5
5
5
5
5
5
5
5
5
5
5
5
5
5
5
5
5
5
5
5
5
5
5
5
5
5
5
5
5
5
5
5
5
5
5
5
5
5
5
5
5
5
5
5
5
5
5
5
5
5
5
5
5
5
5
5
5
5
5
5
5
5
5
5
5
5
5
5
5
5
5
5
5
5
5
5
5
5
5
5
5
5
5
5
5
5
5
5
5
5
5
5
5
5
5
5
5
5
5
5
5
5
5
5
5
5
5
5
5
5
5
5
5
5
5
5
5
5
5
5
5
5
5
5
5
5
5
5
5
5
5
5
5
5
5
5
5
5
5
5
5
5
5
5
5
5
5
5
5
5
5
5
5
5
5
5
5
5
5
5
5
5
5
5
5
5
5
5
5
5
5
5
5
5
5
5
5
5
5
5
5
5
5
5
5
5
5
5
5
5
5
5
5
5
5
5
5
5
5
5
5
5
5
5
5
5
5
5
5
5
5
5
5
5
5
5
5
5
5
5
5
5
5
5
5
5
5
5
5
5
5
5
5
5
5
5
5
5
5
5
5
5
5
5
5
5
5
5
5
5
5
5
5
5
5
5
5
5
5
5
5
5
5
5
5
5
5
5
5
5
5
5
5
5
5
5
5
5
5
5
5
5
5
5
5
5
5
5
5
5
5
5
5
5
5
5
5
5
5
5
5
5
5
5
5
5
5
5
5
5
5
5
5
5
5
5
5
5
5
5
5
5
5
5
5
5
5
5
5
5
5
5
5
5
5
5
5
5
5
5
5
5
5
5
5
5
5
5
5
5
5
5
5
5
5
5
5
5
5
5
5
5
5
5
5
5
5
5
5
5
5
5
5
5
5
5
5
5
5
5
5
5
5
5
5
5
5
5
5
5
5
5
5
5
5
5
5
5
5
5
5
5
5
5
5
5
5
5
5
5
5
5
5
5
5
5
5
5
5
5
5
5
5
5
5
5
5
5
5
5
5
5
5
5
5
5
5
5
5
5
5
5
5
5
5
5
5
5
5
5
5
5
5
5
5
5
5
5
5
5
5
5
5
5
5
5
5
5
5
5
5
5
5
5
5
5
5
5
5
5
5
5
5
5
5
5
5
5
5
5
5
5
5
5
5
5
5
5
5
5
5
5
5
5
5
5
5
5
5
5
5
5
5
5
5
5
5
5
5
5
5
5
5
5
5
5
5
5
5
5
5
5
5
5
5
5
5
5
5
5
5
5
5
5
5
5
5
5
5
5
5
5
5
5
5
5
5
5
5
5
5
5
5
5
5
5
5
5
5
5
5
5
5
5
5
5
5
5
5
5
5
5
5
5
5
5
5
5
5
5
5
5
5
5
5
5
5
5
5
5
5
5
5
5
5
5
5
5
5
5
5
5
5
5
5
5
5
5
5
5
5
5
5
5
5
5
5
5
5
5
5
5
5
5
5
5
5
5
5
5
5
5
5
5
5
5
5
5
5
5
5
5
5
5
5
5
5
5
5
5
5
5
5
5
5
5
5
5
5
5
5
5
5
5
5
5
5
5
5
5
5
5
5
5
5
5
5
5
5
5
5
5
5
5
5
5
5
5
5
5
5
5
5
5
5
5
5
5
5
5
5
5
5
5
5
5
5
5
5
5
5
5
5
5
5
5
5
5
5
5
5
5
5
5
5
5
5
5
5
5
5
5
5
5
5
5
5
5
5
5
5
5
5
5
5
5
5
5
5
5
5
5
5
5
5
5
5
5
5
5
5
5
5
5
5
5
5
5
5
5
5
5
5
5
5
5
5
5
5
5
5
5
5
5
5
5
5
5
5
5
5
5
5
5
5
5
5
5
5
5
5
5
5
5
5
5
5
5
5
5
5
5
5
5
5
5
5
5
5
5
5
5
5
5
5
5
5
5
5
5
5
5
5
5
5
5
5
5
5
5
5
5
5
5
5
5
5
5
5
5
5
5
5
5
5
5
5
5
5
5
5
5
5
5
5
5
5
5
5
5
5
5
5
5
5
5
5
5
5
5
5
5
5
5
5
5
5
5
5
5
5
5
5
5
5
5
5
5
5
5
5
5
5
5
5
5
5
5
5
5
5
5
5
5
5
5
5
5
5
5
5
5
5
5
5
5
5
5
5
5
5
5
5
5
5
5
5
5
5
5
5
5
5
5
5
5
5
5
5
5
5
5
5
5
5
5
5
5
5
5
5
5
5
5
5
5
5
5
5
5
5
5
5
5
5
5
5
5
5
5
5
5
5
5
5
5
5
5
5
5
5
5
5
5
5
5
5
5
5
5
5
5
5
5
5
5
5
5
5
5
5
5
5
5
5
5
5
5
5
5
5
5
5
5
5
5
5
5
5
5
5
5
5
5
5
5
5
5
5
5
5
5
5
5
5
5
5
5
5
5
5
5
5
5
5
5
5
5
5
5
5
5
5
5
5
5
5
5
5
5
5
5
5
5
5
5
5
5
5
5
5
5
5
5
5
5
5
5
5
5
5
5
5
5
5
5
5
5
5
5
5
5
5
5
5
5
5
5
5
5
5
5
5
5
5
5
5
5
5
5
5
5
5
5
5
5
5
5
5
5
5
5
5
5
5
5
5
5
5
5
5
5
5
5
5
5
5
5
5
5
5
5
5
5
5
5
5
5
5
5
5
5
5
5
5
5
5
5
5
5
5
5
5
5
5
5
5
5
5
5
5
5
5
5
5
5
5
5
5
5
5
5
5
5
5
5
5
5
5
5
5
5
5
5
5
5
5
5
5
5
5
5
5
5
5
5
5
5
5
5
5
5
5
5
5
5
5
5
5
5
5
5
5
5
5
5
5
5
5
5
5
5
5
5
5
5
5
5
5
5
5
5
5
5
5
5
5
5
5
5
5
5
5
5
5
5
5
5
5
5
5
5
5
5
5
5
5
5
5
5
5
5
5
5
5
5
5
5
5
5
5
5
5
5
5
5
5
5
5
5
5
5
5
5
5
5
5
5
5
5
5
5
5
5
5
5
5
5
5
5
5
5
5
5
5
5
5
5
5
5
5
5
5
5
5
5
5
5
5
5
5
5
5
5
5
5
5
5
5
5
5
5
5
5
5
5
5
5
5
5
5
5
5
5
5
5
5
5
5
5
5
5
5
5
5
5
5
5
5
5
5
5
5
5
5
5
5
5
5
5
5
5
5
5
5
5
5
5
5
5
5
5
5
5
5
5
5
5
5
5
5
5
5
5
5
5
5
5
5
5
5
5
5
5
5
5
5
5
5
5
5
5
5
5
5
5
5
5
5
5
5
5
5
5
5
5
5
5
5
5
5
5
5
5
5
5
5
5
5
5
5
5
5
5
5
5
5
5
5
5
5
5
5
5
5
5
5
5
5
5
5
5
5
5
5
5
5
5
5
5
5
5
5
5
5
5
5
5
5
5
5
5
5
5
5
5
5
5
5
5
5
5
5
5
5
5
5
5
5
5
5
5
5
5
5
5
5
5
5
5
5
5
5
5
5
5
5
5
5
5
5
5
5
5
5
5
5
5
5
5
5
5
5
5
5
5
5
5
5
5
5
5
5
5
5
5
5
5
5
5
5
5
5
5
5
5
5
5
5
5
5
5
5
5
5
5
5
5
5
5
5
5
5
5
5
5
5
5
5
5
5
5
5
5
5
5
5
5
5
5
5
5
5
5
5
5
5
5
5
5
5
5
5
5
5
5
5
5
5
5
5
5
5
5
5
5
5
5
5
5
5
5
5
5
5
5
5
5
5
5
5
5
5
5
5
5
5
5
5
5
5
5
5
5
5
5
5
5
5
5
5
5
5
5
5
5
5
5
5
5
5
5
5
5
5
5
5
5
5
5
5
5
5
5
5
5
5
5
5
5
5
5
5
5
5
5
5
5
5
5
5
5
5
5
5
5
5
5
5
5
5
5
5
5
5
5
5
5
5
5
5
5
5
5
5
5
5
5
5
5
5
5
5
5
5
5
5
5
5
5
5
5
5
5
5
5
5
5
5
5
5
5
5
5
5
5
5
5
5
5
5
5
5
5
5
5
5
5
5
5
5
5
5
5
5
5
5
5
5
5
5
5
5
5
5
5
5
5
5
5
5
5
5
5
5
5
5
5
5
5
5
5
5
5
5
5
5
5
5
5
5
5
5
5
5
5
5
5
5
5
5
5
5
5
5
5
5
5
5
5
5
5
5
5
5
5
5
5
5
5
5
5
5
5
5
5
5
5
5
5
5
5
5
5
5
5
5
5
5
5
5
5
5
5
5
5
5
5
5
5
5
5
5
5
5
5
5
5
5
5
5
5
5
5
5
5
5
5
5
5
5
5
5
5
5
5
5
5
5
5
5
5
5
5
5
5
5
5
5
5
5
5
5
5
5
5
5
5
5
5
5
5
5
5
5
5
5
5
5
5
5
5
5
5
5
5
5
5
5
5
5
5
5
5
5
5
5
5
5
5
5
5
5
5
5
5
5
5
5
5
5
5
5
5
5
5
5
5
5
5
5
5
5
5
5
5
5
5
5
5
5
5
5
5
5
5
5
5
5
5
5
5
5
5
5
5
5
5
5
5
5
5
5
5
5
5
5
5
5
5
5
5
5
5
5
5
5
5
5
5
5
5
5
5
5
5
5
5
5
5
5
5
5
5
5
5
5
5
5
5
5
5
5
5
5
5
5
5
5
5
5
5
5
5
5
5
5
5
5
5
5
5
5
5
5
5
5
5
5
5
5
5
5
5
5
5
5
5
5
5
5
5
5
5
5
5
5
5
5
5
5
5
5
5
5
5
5
5
5
5
5
5
5
5
5
5
5
5
5
5
5
5
5
5
5
5
5
5
5
5
5
5
5
5
5
5
5
5
5
5
5
5
5
5
5
5
5
5
5
5
5
5
5
5
5
5
5
5
5
5
5
5
5
5
5
5
5
5
5
5
5
5
5
5
5
5
5
5
5
5
5
5
5
5
5
5
5
5
5
5
5
5
5
5
5
5
5
5
5
5
5
5
5
5
5
5
5
5
5
5
5
5
5
5
5
5
5
5
5
5
5
5
5
5
5
5
5
5
5
5
5
5
5
5
5
5
5
5
5
5
5
5
5
5
5
5
5
5
5
5
5
5
5
5
5
5
5
5
5
5
5
5
5
5
5
5
5
5
5
5
5
5
5
5
5
5
5
5
5
5
5
5
5
5
5
5
5
5
5
5
5
5
5
5
5
5
5
5
5
5
5
5
5
5
5
5
5
5
5
5
5
5
5
5
5
5
5
5
5
5
5
5
5
5
5
5
5
5
5
5
5
5
5
5
5
5
5
5
5
5
5
5
5
5
5
5
5
5
5
5
5
5
5
5
5
5
5
5
5
5
5
5
5
5
5
5
5
5
5
5
5
5
5
5
5
5
5
5
5
5
5
5
5
5
5
5
5
5
5
5
5
5
5
5
5
5
5
5
5
5
5
5
5
5
5
5
5
5
5
5
5
5
5
5
5
5
5
5
5
5
5
5
5
5
5
5
5
5
5
5
5
5
5
5
5
5
5
5
5
5
5
5
5
5
5
5
5
5
5
5
5
5
5
5
5
5
5
5
5
5
5
5
5
5
5
5
5
5
5
5
5
5
5
5
5
5
5
5
5
5
5
5
5
5
5
5
5
5
5
5
5
5
5
5
5
5
5
5
5
5
5
5
5
5
5
5
5
5
5
5
5
5
5
5
5
5
5
5
5
5
5
5
5
5
5
5
5
5
5
5
5
5
5
5
5
5
5
5
5
5
5
5
5
5
5
5
5
5
5
5
5
5
5
5
5
5
5
5
5
5
5
5
5
5
5
5
5
5
5
5
5
5
5
5
5
5
5
5
5
5
5
5
5
5
5
5
5
5
5
5
5
5
5
5
5
5
5
5
5
5
5
5
5
5
5
5
5
5
5
5
5
5
5
5
5
5
5
5
5
5
5
5
5
5
5
5
5
5
5
5
5
5
5
5
5
5
5
5
5
5
5
5
5
5
5
5
5
5
5
5
5
5
5
5
5
5
5
5
5
5
5
5
5
5
5
5
5
5
5
5
5
5
5
5
5
5
5
5
5
5
5
5
5
5
5
5
5
5
5
5
5
5
5
5
5
5
5
5
5
5
5
5
5
5
5
5
5
5
5
5
5
5
5
5
5
5
5
5
5
5
5
5
5
5
5
5
5
5
5
5
5
5
5
5
5
5
5
5
5
5
5
5
5
5
5
5
5
5
5
5
5
5
5
5
5
5
5
5
5
5
5
5
5
5
5
5
5
5
5
5
5
5
5
5
5
5
5
5
5
5
5
5
5
5
5
5
5
5
5
5
5
5
5
5
5
5
5
5
5
5
5
5
5
5
5
5
5
5
5
5
5
5
5
5
5
5
5
5
5
5
5
5
5
5
5
5
5
5
5
5
5
5
5
5
5
5
5
5
5
5
5
5
5
5
5
5
5
5
5
5
5
5
5
5
5
5
5
5
5
5
5
5
5
5
5
5
5
5
5
5
5
5
5
5
5
5
5
5
5
5
5
5
5
5
5
5
5
5
5
5
5
5
5
5
5
5
5
5
5
5
5
5
5
5
5
5
5
5
5
5
5
5
5
5
5
5
5
5
5
5
5
5
5
5
5
5
5
5
5
5
5
5
5
5
5
5
5
5
5
5
5
5
5
5
5
5
5
5
5
5
5
5
5
5
5
5
5
5
5
5
5
5
5
5
5
5
5
5
5
5
5
5
5
5
5
5
5
5
5
5
5
5
5
5
5
5
5
5
5
5
5
5
5
5
5
5
5
5
5
5
5
5
5
5
5
5
5
5
5
5
5
5
5
5
5
5
5
5
5
5
5
5
5
5
5
5
5
5
5
5
5
5
5
5
5
5
5
5
5
5
5
5
5
5
5
5
5
5
5
5
5
5
5
5
5
5
5
5
5
5
5
5
5
5
5
5
5
5
5
5
5
5
5
5
5
5
5
5
5
5
5
5
5
5
5
5
5
5
5
5
5
5
5
5
5
5
5
5
5
5
5
5
5
5
5
5
5
5
5
5
5
5
5
5
5
5
5
5
5
5
5
5
5
5
5
5
5
5
5
5
5
5
5
5
5
5
5
5
5
5
5
5
5
5
5
5
5
5
5
5
5
5
5
5
5
5
5
5
5
5
5
5
5
5
5
5
5
5
5
5
5
5
5
5
5
5
5
5
5
5
5
5
5
5
5
5
5
5
5
5
5
5
5
5
5
5
5
5
5
5
5
5
5
5
5
5
5
5
5
5
5
5
5
5
5
5
5
5
5
5
5
5
5
5
5
5
5
5
5
5
5
5
5
5
5
5
5
5
5
5
5
5
5
5
5
5
5
5
5
5
5
5
5
5
5
5
5
5
5
5
5
5
5
5
5
5
5
5
5
5
5
5
5
5
5
5
5
5
5
5
5
5
5
5
5
5
5
5
5
5
5
5
5
5
5
5
5
5
5
5
5
5
5
5
5
5
5
5
5
5
5
5
5
5
5
5
5
5
5
5
5
5
5
5
5
5
5
5
5
5
5
5
5
5
5
5
5
5
5
5
5
5
5
5
5
5
5
5
5
5
5
5
5
5
5
5
5
5
5
5
5
5
5
5
5
5
5
5
5
5
5
5
5
5
5
5
5
5
5
5
5
5
5
5
5
5
5
5
5
5
5
5
5
5
5
5
5
5
5
5
5
5
5
5
5
5
5
5
5
5
5
5
5
5
5
5
5
5
5
5
5
5
5
5
5
5
5
5
5
5
5
5
5
5
5
5
5
5
5
5
5
5
5
5
5
5
5
5
5
5
5
5
5
5
5
5
5
5
5
5
5
5
5
5
5
5
5
5
5
5
5
5
5
5
5
5
5
5
5
5
5
5
5
5
5
5
5
5
5
5
5
5
5
5
5
5
5
5
5
5
5
5
5
5
5
5
5
5
5
5
5
5
5
5
5
5
5
5
5
5
5
5
5
5
5
5
5
5
5
5
5
5
5
5
5
5
5
5
5
5
5
5
5
5
5
5
5
5
5
5
5
5
5
5
5
5
5
5
5
5
5
5
5
5
5
5
5
5
5
5
5
5
5
5
5
5
5
5
5
5
5
5
5
5
5
5
5
5
5
5
5
5
5
5
5
5
5
5
5
5
5
5
5
5
5
5
5
5
5
5
5
5
5
5
5
5
5
5
5
5
5
5
5
5
5
5
5
5
5
5
5
5
5
5
5
5
5
5
5
5
5
5
5
5
5
5
5
5
5
5
5
5
5
5
5
5
5
5
5
5
5
5
5
5
5
5
5
5
5
5
5
5
5
5
5
5
5
5
5
5
5
5
5
5
5
5
5
5
5
5
5
5
5
5
5
5
5
5
5
5
5
5
5
5
5
5
5
5
5
5
5
5
5
5
5
5
5
5
5
5
5
5
5
5
5
5
5
5
5
5
5
5
5
5
5
5
5
5
5
5
5
5
5
5
5
5
5
5
5
5
5
5
5
5
5
5
5
5
5
5
5
5
5
5
5
5
5
5
5
5
5
5
5
5
5
5
5
5
5
5
5
5
5
5
5
5
5
5
5
5
5
5
5
5
5
5
5
5
5
5
5
5
5
5
5
5
5
5
5
5
5
5
5
5
5
5
5
5
5
5
5
5
5
5
5
5
5
5
5
5
5
5
5
5
5
5
5
5
5
CELL_DATA 4000 
FIELD FieldData  2
density 1 4000 float
0.18360659227542978
0.18851346041225298
0.17810748333232704
0.17132952404619983
0.22874608044849415
0.21707509508240833
0.2853609248030518
0.27296657850171
0.30560982933517244
0.29702016421884214
0.2712594691899668
0.28912244530130243
0.26190292095799483
0.26094202703637853
0.26014516445132535
0.26443379827793306
0.21418656202470343
0.24172817275314826
0.14727441268358965
0.18127374267861046
0.10920788604761868
0.13442783797101648
0.10450809209922139
0.11508635936690316
0.1018676158492125
0.10757225535257979
0.08685460424794322
0.10710710438337187
0.06657382875785346
0.07954684184176669
0.05967053753719485
0.06586745129288363
0.04601565569561375
0.05591623877470919
0.026833788680715797
0.03294810953426759
0.016790722286261724
0.022727011886721056
0.012941979036588665
0.01632035513475832
0.008221530731367204
0.010373132406734778
0.008984387006774355
0.008617746705379094
0.01553889174935447
0.012569046527932125
0.0462531141333657
0.03346269902061862
0.0926685125829228
0.07599684773773507
0.15528288510923266
0.13339767442471046
0.2992543067033258
0.2465750231387434
0.37479307097379816
0.36035422108596693
0.3492639124209255
0.36777085460538594
0.24786359128608257
0.28138325508550044
0.23995912403111136
0.2545954328650879
0.22629081961059397
0.23871455624722307
0.20624574498777276
0.22544715101357604
0.1925638839123667
0.2184423493150995
0.1719619217997253
0.1939923435322857
0.18129311884723467
0.18420528951647355
0.13344495305517623
0.16252740244034072
0.06766726678549362
0.09580419142233425
0.03663395497931433
0.04963380696438021
0.024751949017432474
0.025783614619622728
0.024957399083514117
0.020393956987943454
0.03179362133229525
0.024904972619364106
0.058227366832098386
0.040570898933281245
0.09704398199159481
0.07148200739465123
0.1295392552864354
0.10201520652046868
0.18281884822930466
0.1656497706038001
0.23632985423233888
0.24141770590133782
0.32093316110758097
0.30959423025476046
0.38177197165511173
0.35602565929510627
0.41923257580290285
0.3841299539818128
0.4542211041571077
0.4382568487162523
0.37854984255692287
0.3797862153772491
0.27084463363224487
0.2965420776593153
0.13300078886013145
0.17564845377673982
0.061672890588177584
0.08236072153481871
0.02185062522136747
0.03641674791022844
0.007886459734709075
0.010949783668562852
0.005012655997282802
0.0065891624519060525
0.0037043447100724475
0.004347228738036218
0.00398342307546841
0.003934589185802999
0.005161157678218796
0.0051059992277964995
0.008378931742702685
0.008112804360185053
0.009294732631271032
0.01078019714638688
0.006999289332237288
0.008276232144899165
0.005930600324059748
0.007538433350262521
0.007523844114308426
0.007832373972373335
0.011442298690953388
0.012769671453206476
0.02185508756536278
0.018186112621753035
0.060255156383303476
0.044095948348633
0.15614494633312415
0.12333118920806854
0.22794765970952524
0.2162405346177692
0.23856459737838007
0.24435474419232794
0.1983563670231259
0.21021778771355767
0.17460480208184465
0.18968650956981606
0.08815896421628609
0.12128365059617062
0.04516076164473457
0.06331389300386822
0.035181162053477606
0.0420053519230234
0.026700965866133197
0.03518717598919674
0.03174088406893083
0.030514153389676453
0.06074836070379906
0.05024659209642773
0.10859530939542617
0.08667525791707804
0.17569545207637824
0.1431677912617103
0.24203312679145034
0.20545018784860505
0.2676245300942831
0.24486650057864784
0.2225957051711412
0.22989834394582337
0.13526369109529035
0.1543916934932652
0.0836062836322034
0.10447546934768334
0.06223098321660319
0.06797692741432589
0.05480241810062338
0.0671102134161884
0.04499513097176011
0.052317398000891586
0.06094993105756317
0.0610779445739135
0.10315972553167835
0.08827963067556373
0.15517224950655775
0.14274593114483203
0.21170891711240264
0.18878766640931532
0.2575172095375617
0.2348298327238876
0.2873891940339251
0.2931916341791128
0.3208920774948157
0.32231231348706185
0.39528079168080205
0.37557396736388554
0.44573381286655417
0.4168140248645775
0.47219479881648846
0.47580849920421475
0.16473635770740325
0.15978441998752124
0.17940455630763585
0.16469859097274644
0.21866735909353935
0.18113572204401213
0.2494772399655828
0.22038280131205817
0.27153925547443103
0.24172834972489038
0.2586435595662345
0.25465518640596224
0.26203163954021313
0.25523544239574575
0.26645059745612193
0.26389405532323174
0.23231302351621264
0.24463382108064285
0.17751291992612508
0.1932706854529046
0.1449134034993682
0.15790433342412466
0.14185863345855312
0.15867363706043772
0.12796897147817765
0.14972794614351936
0.11961412082531035
0.1338250041759174
0.09416526917141614
0.11079766367307758
0.08422359608160852
0.09739663603716035
0.06331392315230897
0.07467411527080053
0.035162947833225364
0.0493474554942564
0.025995262449235088
0.03225727646063482
0.0181869325939645
0.0247155445664562
0.011729838922573503
0.015572536600605154
0.012321370059149201
0.013398836641266898
0.019583430587343402
0.019418478836276974
0.04558353976943768
0.03540680997083505
0.09601234019306613
0.07874928672865351
0.16888680797903882
0.13632698073624025
0.29672771174008256
0.2567395989176277
0.3570114505742945
0.3495998770501702
0.3668034052893435
0.38424428975890085
0.31000682716266975
0.356397774880908
0.2897619636272206
0.32574748931872327
0.2893839727947569
0.31680644083283743
0.2539854060905515
0.27602139214618787
0.25197811234616363
0.27106065288738923
0.22087612385328187
0.2572718576006389
0.194491849330926
0.22464341148687617
0.1532420271241359
0.17809863934746514
0.08288863686517861
0.10925090965978249
0.046704890520584796
0.06541886155198608
0.02059140249165402
0.026075774858943718
0.01568924756292198
0.01394391781909176
0.023486060418019112
0.01888959613441244
0.03462635065594062
0.026223853507553598
0.06212943983539824
0.0443220938807613
0.10510506421292283
0.07747315077973779
0.20024211795373498
0.17737738308592307
0.2806220268560593
0.26977645376676307
0.3370711899160986
0.32606201996720713
0.3647314099628548
0.37223324094300825
0.38696751819620867
0.37047349289767406
0.387141458918952
0.3913451642440146
0.35342584957680095
0.35450989015954393
0.2754984417657713
0.30274522948287325
0.15831844705619147
0.19514522634144577
0.07639301011580756
0.10809343440456112
0.030489147211055737
0.0461485885886743
0.010672874311962555
0.016039672521172055
0.006621810548803062
0.008680707937930833
0.004885853002785928
0.006068623303758124
0.006081350236395053
0.006988990926037867
0.008599117934256727
0.008327962790042555
0.013121552751367751
0.013822268123765
0.014591378365618534
0.017788393034303376
0.010227694832589541
0.013172803605514191
0.010633346958431239
0.011323446061107283
0.013546900307809018
0.01418816721072734
0.017692828154898154
0.018895154724061485
0.025463369614270714
0.02296489776539029
0.06520085365804462
0.04724571570089523
0.1502950522938972
0.1132898357570303
0.21198575603809672
0.18970951367960515
0.23050802532003925
0.2057688271057799
0.22801637501544927
0.22315458302307284
0.19357834360023252
0.21673377988372722
0.12242209812803963
0.15551299080798806
0.07096103334605308
0.09651797248674894
0.05247156337515942
0.06166121645067646
0.043137738148075894
0.05419587102260523
0.0406902881628107
0.04378482569655497
0.06321570225450661
0.05635695306275125
0.10426751420582907
0.09052897987054798
0.149009946487269
0.13178030108470792
0.1800534173127891
0.16504021374269717
0.20901673688605313
0.19233139440477806
0.19325452414046268
0.20001997402619162
0.1470934573933341
0.1684832194468264
0.10054736879852647
0.12196247309443493
0.086174424489431
0.09408938000076472
0.07935318060896324
0.09186817258916893
0.07379508289840861
0.08154704127520775
0.08567465824669493
0.08622594647947325
0.11791246512014128
0.11815350931882448
0.1701976171405314
0.16739622929425396
0.21163048108304394
0.20994035915992856
0.2748255639396305
0.27691145683857127
0.33191334830293956
0.3390562299402547
0.37429333268706994
0.37300272679323326
0.41087285024256603
0.41095993656115654
0.4504133092769337
0.4360146514907046
0.5142415777503663
0.5087894047144864
0.13660778947952737
0.11933610749683983
0.14296391504687095
0.12312207460782877
0.1602733282803377
0.13614197838176234
0.17534717607779726
0.15213398047560953
0.21053296191541895
0.182246487408798
0.23877440729667035
0.21262933419560057
0.2659222173842136
0.2521111222835415
0.25561609470411867
0.26559483257222877
0.21566030038011708
0.22293608762166817
0.20208727215113045
0.20211584266145527
0.1818613063359184
0.20292061825480584
0.1835491348863215
0.2007920541165737
0.17137472031839918
0.18373267963368473
0.14200457640363337
0.16202263935178446
0.12413790411738865
0.1415176371194
0.10415655053495496
0.12539079771091866
0.08027980719204147
0.08828076964482988
0.05152771657507537
0.067286128654837
0.03350672968607474
0.04213831268178328
0.027435255146687047
0.03222799202378555
0.019317339755434686
0.02379156526144481
0.019971563397284113
0.02143483761612573
0.028485484972707396
0.0283566746258887
0.05537160040527892
0.044858346937049896
0.11433065332534863
0.10082225829897522
0.1871983003791425
0.17307603201166183
0.29336588485768056
0.2800654651169124
0.3777875277753578
0.3612619096680529
0.41518163806375397
0.4242053520604028
0.4001430585932341
0.43413980798686214
0.3701143674129555
0.4054173633518461
0.35784750172915636
0.3942432704054449
0.3299184797300938
0.3517726998855966
0.3570654074960604
0.38226326746757017
0.3136237538540686
0.3642188398557735
0.24853086270583405
0.2966709353716199
0.18551786344958543
0.2208375229663395
0.09727198763926723
0.1283625746906899
0.05284205642173992
0.06912756676809872
0.018930770561347364
0.025961780803786225
0.012886000846745373
0.012890446564591627
0.01601610488948185
0.01267943252050039
0.02501337210031917
0.019652819387879817
0.04535376027822318
0.03477706028776282
0.09448398162681859
0.07177454667215803
0.21130482114909685
0.16930693662321092
0.3059372367914555
0.2813209828713868
0.35200587438683745
0.32981909016289757
0.38630583483548137
0.38605376246208223
0.3885791125591308
0.3919434599409608
0.3952788992147647
0.3952155788303155
0.34028604421796416
0.3545468918434461
0.25216199860901767
0.280898842127087
0.16398601683124672
0.1860245112743052
0.08271534219464227
0.10444627437296504
0.0323401275737601
0.045119065400407235
0.016263056057092485
0.022230767065397436
0.01086581059794044
0.014766211492428953
0.009037734397620931
0.010913250948522451
0.01099793551013082
0.012630084094048161
0.012137080849583762
0.012595632312400393
0.018893897896622883
0.017574504778064153
0.019334383730593083
0.021042590212656503
0.013590754887461764
0.016422756377983575
0.014701034435418925
0.014510842264584382
0.016465527476185102
0.01641778350812721
0.020944182044465794
0.0210745749159615
0.02910385668894111
0.02809530227491253
0.060671829187767624
0.04417627053445602
0.13210020261206634
0.1007901242550279
0.1785702421282637
0.15895111533176562
0.19958091497845765
0.1814915544942956
0.22199813481361327
0.2058720244999587
0.20367613662129383
0.21865582040977208
0.15780879459021852
0.18756880329252576
0.1028500425437737
0.12564737126084435
0.08233789039555664
0.10092774350604704
0.0648926824269028
0.08548948622382678
0.057713693555753356
0.07268645952849179
0.08491726638061793
0.08506816634023107
0.12043758237414232
0.12326488118172356
0.1488250475543116
0.15510607815803204
0.17114997143049648
0.17038613528080454
0.1856703569864102
0.18785827607090322
0.19285013975735857
0.20198442959190935
0.15962116189404169
0.17345219069013015
0.11773143184368719
0.13251544129225618
0.11467622035861816
0.11764178199666692
0.11443837455481042
0.12335455158813556
0.11364026980591196
0.12739662996647041
0.12167390894004973
0.13604021381761608
0.1630479698859588
0.17675599045230003
0.20236209180781645
0.19787615916280107
0.25013028659761005
0.2412997962513607
0.32286094142232147
0.3099432174460471
0.3765367847459388
0.36654548105539103
0.42886247132179295
0.4197644598198781
0.46793447803231897
0.4664182464433454
0.48811294842452085
0.5013875940710538
0.5478780058341575
0.541309410216839
0.09451547477449354
0.08742684807594979
0.09803086275813752
0.09060393257177168
0.11547636038330027
0.10004154333792994
0.13873374725755788
0.11723830944915939
0.16603472369710726
0.14525473212116605
0.1982473186019657
0.17781843883050202
0.24317777028744045
0.21740229430928706
0.2396621730888455
0.23685889208491534
0.2066339092347597
0.21090838693916525
0.20773234808251306
0.2181333770714818
0.22351650287622718
0.2386291210051187
0.22818301550877695
0.24116412181990599
0.21228243381603598
0.23493682869136953
0.18353349238622066
0.21333871413748914
0.16478451779339462
0.17748193488022662
0.1340375476265669
0.1576705281189017
0.10613592059810927
0.12455097567793467
0.0767150472976102
0.09902756513867282
0.049671155069411665
0.06685131069234533
0.037623911775899854
0.04720837804695653
0.031218771461134016
0.03671540397845249
0.028171943469878148
0.03298495735916143
0.03773762856335496
0.0376942105761143
0.06731696597715293
0.057814813069666945
0.14559373075481735
0.12275452011555653
0.23802819429649202
0.2257480011714084
0.33977127460425954
0.3132586470559295
0.413773628163146
0.390699628117802
0.4562338601926985
0.4458796144669612
0.48284116454452175
0.4937001576261559
0.4520223100484433
0.49230202241884474
0.41739190832642525
0.4484933192292319
0.3880809825151133
0.4052711417651396
0.41447801227794634
0.4277361747613237
0.3976586565594176
0.42670401778726913
0.29511662505354724
0.342190346505657
0.20744984558486554
0.23743156022745474
0.11312959763371681
0.1464436480637374
0.051270890463151204
0.07038790014295798
0.017680330865786135
0.025164744505483096
0.010641636736237033
0.011747717635532662
0.013604095937023795
0.012245878752254882
0.021386422212187606
0.018180735329799934
0.04346849295903275
0.03381983907299311
0.095193277390695
0.07228964922534523
0.19941702970382463
0.15599873972480077
0.2787198495068644
0.2562478550240894
0.3394516974850578
0.3201645479167238
0.39226083446454146
0.3887034529747327
0.41308841120511147
0.4241092827027248
0.39818554919182275
0.4107685300605427
0.32350675403382295
0.3421536250942842
0.2333297419889219
0.25343239442890564
0.14680901311767894
0.1700596194408261
0.09154341947248403
0.10896074884859454
0.04185510179523331
0.055032368321196116
0.0260095255415213
0.03481762186252831
0.017894833061947377
0.02350780173431651
0.017540792799652708
0.019582471326726032
0.0162990035148858
0.019396489920631227
0.015221983235039812
0.01666456552232798
0.023099245890086457
0.02200400197000771
0.021967867161833608
0.02517237686282645
0.01758638189166377
0.020173123172838734
0.017723133296313275
0.01891124955259898
0.01837526383769848
0.018643977617727882
0.02358396384109135
0.02095167543767795
0.029934249373483036
0.024353487084309667
0.05566558260811704
0.04180875183212638
0.10394379811579854
0.07984892735305733
0.15020288555064754
0.12953639852218082
0.1636166388340822
0.1443127991416068
0.20857159716947093
0.1826386803421609
0.2193571797236291
0.22196684177219267
0.1787046782027974
0.20115676953549058
0.13598632121710577
0.16094705700863923
0.14249745148890314
0.16462282889768243
0.12931235396836474
0.1682569757573331
0.11346717580499084
0.1458083332704447
0.1409894987172285
0.16199599337309165
0.17230038687712823
0.19573658292965426
0.199193235160297
0.20899170507826245
0.19567489696237134
0.21235852450951181
0.22554919479383462
0.22124589465003466
0.22386393333464358
0.2440068424922291
0.1703332685344612
0.1925002653310665
0.136478258210693
0.15425501516536094
0.13502309983960173
0.14498270545815137
0.1469989815517332
0.1614226615379221
0.1689286392577708
0.17838312256904756
0.1853830372837355
0.19377128821473724
0.20865130387203587
0.2156583239452681
0.24045049904956473
0.23888485463207143
0.2803060389577138
0.2730912950212663
0.3563995608912993
0.33875017416283654
0.39161596115406483
0.37720012845909
0.43199846072366005
0.4166608521914041
0.4677145424452588
0.4393499541046169
0.5163352051929506
0.4855370885779191
0.5601235623026187
0.5247699105719406
0.08421417967244271
0.08804423336589146
0.09160194426033913
0.08916050846259742
0.1070217065664843
0.10155477766095754
0.12377440844194598
0.11471169993567183
0.14952874302938898
0.12884118889803065
0.16530184766777564
0.1562762777196707
0.1837866529619331
0.15970013531041538
0.20067862215252977
0.1804127820514226
0.2085730122224272
0.20192869294006474
0.23822389899758822
0.23136798539785727
0.27328860464271904
0.273881617477945
0.2722279022678101
0.27695687974964595
0.25673142085173195
0.2686860033280568
0.21888261026925268
0.25100343064688274
0.19755423893916887
0.22521334207050278
0.173776833046586
0.19908388232782004
0.13981173068016972
0.15619274096851213
0.11114368126061908
0.13543106044084666
0.07319944206075882
0.10189235840343515
0.058164187176751266
0.07303503086961509
0.046542150423589924
0.05891381111488662
0.04805858095057838
0.05549824952096371
0.05346410152299801
0.05938379912948014
0.08615908200125356
0.07769152413263751
0.17838797726915118
0.14993124475791672
0.2771947953928538
0.2548211718359096
0.35835104695994413
0.3452078452212484
0.4149349541419163
0.40213823739350385
0.4825413009164346
0.4673904001050798
0.5172189130135956
0.5103386585784053
0.5078812435318087
0.5131851286601244
0.45559577885914454
0.4793922858220278
0.4324267155297482
0.44131310951662106
0.4415658213593379
0.4388243843004318
0.42849307371311274
0.43965490595844103
0.3189527623326136
0.36155081702011926
0.21146668127001436
0.25322698985926856
0.12989811332292545
0.16708268864102374
0.05775319395075679
0.08764543894249567
0.019304799292319503
0.02898434742318312
0.011354905774550915
0.013052451038143106
0.014201177235858689
0.012938170342025088
0.020687845183515883
0.01728107268701199
0.04128641831402611
0.032052421824307745
0.09440100114658741
0.07030476556978939
0.19544629805379424
0.16884448174348926
0.27589801707920203
0.2560255656088847
0.3658555036172106
0.3542362094277582
0.4210584098576634
0.4199755638276607
0.43291942274534656
0.4353040121264846
0.3720447366617698
0.38580087444139244
0.30664599582934327
0.31691405905395875
0.2343901096399607
0.2505650302123378
0.1593616043088894
0.18753017365236355
0.10463847260862211
0.1228624140996142
0.057429766189329885
0.07414929640887137
0.0394314013127356
0.04619908376961442
0.026228186762783746
0.0334027020859561
0.02428657738930645
0.02835148233916896
0.021925648177349173
0.025659510097654943
0.022249062425279575
0.024508916671495108
0.027817722978698344
0.02929281139860601
0.03013020119394335
0.03619733343427547
0.024662968804954645
0.029615181703187932
0.019706315445441453
0.022167600604102045
0.018587006635923876
0.019647825264110838
0.018711590115684438
0.01942521036762795
0.02251666087794944
0.018686843978880516
0.04099246320405976
0.028571571712593707
0.075343236607553
0.054510927398555155
0.11162972220642058
0.08831027924477794
0.13323043891004607
0.11119271958187565
0.17220495695973337
0.14627859963980347
0.2064597248049835
0.18263301846552413
0.1994851616243048
0.2032333118719094
0.1880185397106638
0.20625026769781848
0.23440455809681024
0.25342488604290053
0.25173929773525866
0.2947111564069642
0.23171253923914553
0.2799547128121407
0.24856493038389837
0.28398342364920687
0.26458385478613566
0.29637678004531304
0.25876833976536245
0.28566335386958913
0.2563518874325028
0.2779618257377693
0.2555463768030009
0.2759100143454934
0.2522002836573066
0.2692948204893587
0.20243048151685825
0.23948745464394974
0.18006524858656325
0.19989687116391872
0.18613561462745307
0.20238113700372004
0.20068817299142339
0.2194803999065266
0.21794550105311508
0.22937613575142157
0.2220155147739956
0.23416657987360942
0.24764610881407392
0.2562704949727297
0.26389621588427054
0.26886617274827357
0.30548533477537443
0.2969668205550783
0.3405497069869225
0.31808159863644836
0.3721098175514794
0.339319091810574
0.39679668110469046
0.37526019636214936
0.4044195912410381
0.38142928067747023
0.4594150246735866
0.42635583366775937
0.4800154008395203
0.4588895714973322
0.08955901761574857
0.10029953098635833
0.08739926940996394
0.08495058956138252
0.10062642330876985
0.0903203970335845
0.11649398829743701
0.1122286072652195
0.12071456219375726
0.11455421867398838
0.1318990106813878
0.11369899436139157
0.14753050466404244
0.12931638016481184
0.17512677145367148
0.15841940832616955
0.2158571267428734
0.2005753282065483
0.23802619529495822
0.22928733399704396
0.2923123492344735
0.271081642233063
0.2922815059068244
0.2977435034766709
0.285323807153987
0.29560412115575
0.2941061829672862
0.3083228080408582
0.2500140844421189
0.29111031902201984
0.20971823333774745
0.2336081963566974
0.16911213109058892
0.19109641714679076
0.1411429612099114
0.15922361457171672
0.12358141927696731
0.15358024794381278
0.09140078282435628
0.11852068131377527
0.08221774769967959
0.10362508612665314
0.08935619728946295
0.10647308189197896
0.09426363101820609
0.10699365052679725
0.12399617622135974
0.13021810745814572
0.20644063972346538
0.18200794493077072
0.3108871089671276
0.2884970571271965
0.3909343141105738
0.3774622222189111
0.4446099133994362
0.44133639968686866
0.4887181223495671
0.4764954447147769
0.4934823733638566
0.47761120714609046
0.49805334067029816
0.4960969020190779
0.47093776319711483
0.482092297217595
0.43657994920892745
0.4383057090643329
0.43194794226625854
0.4226343094981263
0.41348075382253635
0.4146052376406001
0.33692498193038245
0.358971941343658
0.24807083758926524
0.27532989561111304
0.15632552169795888
0.19010901701313668
0.06708093605985153
0.09458540323856492
0.024078748362756808
0.03624076865554563
0.013013326364799828
0.015078971963022339
0.013821443621578704
0.012991739062048618
0.0212119754359654
0.017804186852355457
0.04070187091011877
0.03098846675031592
0.10578898836415385
0.07580676232538679
0.22112641039515174
0.18969373504778722
0.3171462687647716
0.2977064742704365
0.39541746519545073
0.3835599946248286
0.4420330806835329
0.4371217797757157
0.4178465246246696
0.42000703863196776
0.33845316962744176
0.34326507683120583
0.2623199667772765
0.2577711933261514
0.22446859634999458
0.2248840436884584
0.160659760095033
0.17164614100869446
0.10892797549611717
0.12037249749387031
0.06613557378354044
0.07859196475839081
0.047877363703000275
0.05407840055408671
0.03697286627684267
0.04348978111817583
0.03319397909052869
0.03837668678717239
0.03248465144480654
0.03867989336120285
0.03237026883174129
0.03916269104837215
0.03753108297258222
0.04139048267775585
0.044937652177546
0.050653501402689156
0.037217886128718694
0.046085464222626486
0.02356062726715084
0.02959203866305257
0.022871029098461695
0.024993318656944333
0.021254578459032152
0.024240996436734
0.020407422137328653
0.019572882997477493
0.0284973324357181
0.02215494855242305
0.04828140616612177
0.03454494190989468
0.0736757150136563
0.05788418042080375
0.10378081812944553
0.0864774188759212
0.13976954698885494
0.12221810846189121
0.18207888144936976
0.16802316015928392
0.2244536665457371
0.22007499500695707
0.27342404268033604
0.27861460658832876
0.33043014195970477
0.3312320313437047
0.37154128767526057
0.3997208197618311
0.37412198501418187
0.4148288711207488
0.35435347768311504
0.39210629764769456
0.34721928507429256
0.3818829767185269
0.34152244886475985
0.37525148493903254
0.3210138644034604
0.34508110780403545
0.2939205082809032
0.32221463078571294
0.2767191806479647
0.28971794066673456
0.25547882623086265
0.27125913368173266
0.24364397050387493
0.26109788745595275
0.26547522669030127
0.2856292358396912
0.268141529916823
0.29924959587527966
0.2714928498870555
0.28497948494520187
0.28031937948702706
0.28856367554724516
0.28994224801428337
0.2978744420598452
0.28747973844246716
0.2932252378056909
0.30071698700624233
0.2898734672978051
0.2802524310600949
0.267303507363996
0.2886145512871151
0.25240044654147453
0.3127672061777122
0.2818985797380135
0.3461101126757385
0.31162950350379937
0.3892882389349822
0.342801240242918
0.42047722183226705
0.3657052169179473
0.10185476356090808
0.12041135923590683
0.0823794980513432
0.09021150884026218
0.09149821600781617
0.08738955466153718
0.099266372920002
0.09026695891298732
0.08579290592021285
0.08241804085649149
0.09631051293877634
0.08146782471437822
0.11884787607510959
0.10580637683784608
0.15884198143673095
0.1421962517362194
0.20884725762926254
0.1872122474210892
0.24046833819753452
0.2215790773388994
0.2721507435234547
0.2546859210802869
0.28671050470100495
0.2796116732323385
0.2950792373404338
0.2959701400804317
0.3196756445082652
0.3115115989162588
0.29175017658313945
0.2978162777729531
0.22855004103336743
0.26054931804637993
0.19617854779896265
0.20656879033038886
0.18483254967023713
0.19471500432011477
0.17592850057210827
0.18473877804671596
0.15415271291770719
0.1760087986729973
0.14308057952415681
0.15816518236554206
0.13763561491197676
0.15096846054817337
0.14406073478059395
0.15161149788975267
0.16835071335802593
0.17525245453853663
0.22592696789335717
0.21692692058125138
0.31821678492120564
0.27905965309494996
0.40194347093047594
0.3702421543753885
0.4515915320364373
0.4323148282829179
0.46083850397796855
0.4507163588967262
0.46301435654306583
0.4381802578951624
0.4690967628101188
0.4394852329751098
0.44340817491027035
0.4324257814629769
0.4011992816884509
0.3923783247263912
0.3925246078056611
0.37279486533456235
0.3611747227240577
0.3555911916792255
0.3120277357210009
0.3154368380657845
0.24467807199813427
0.2456671428564687
0.1568352327123193
0.17552257303956834
0.0732084613790235
0.09346962506628972
0.026472692222084364
0.037156110671187036
0.014464187407782526
0.01644849612155058
0.01280055174837922
0.012861347970508957
0.02024135533466064
0.01805118350618747
0.03962343868368517
0.03202718361087727
0.10611972679765203
0.07448285081982693
0.23820935310729727
0.1874911916592515
0.33671771309003945
0.3034297774610787
0.39453066135385073
0.3716316864427706
0.3921139435448058
0.38123277813195644
0.3439668465584682
0.345115944819563
0.26280360525157975
0.2632276962472839
0.20147034699972288
0.19412522619693276
0.17319267706989264
0.168891094966103
0.13887884614621626
0.13714851968769326
0.09693562494737609
0.09539708687951094
0.06868667984289788
0.07130535230981408
0.05382454498558251
0.05496050532331157
0.048845078165113014
0.051008531128381225
0.0550573128536644
0.05695063157202362
0.05934345640722643
0.06676419686865394
0.06260164371159462
0.07341237324310387
0.06151695962323475
0.06920726941307469
0.06240767394807943
0.06896390080367085
0.0473585432423467
0.05759945058545825
0.030627738872610145
0.037347662079209115
0.02823126475085029
0.03049435939309345
0.025794244549952817
0.028556126132560113
0.022359416721511573
0.02444536883284481
0.022363879212841085
0.02137382754311006
0.030248223249565234
0.024642320393611306
0.05157898459585726
0.04017958632444714
0.07869143943553888
0.06028341261009355
0.12229621689143712
0.09684129896789313
0.18208241329794703
0.1533329011601032
0.26426721291356486
0.2402578605895599
0.3358371175524139
0.3176549606138211
0.40711193558225833
0.399492178495809
0.4599334964041436
0.46058790597462196
0.47793356791802943
0.5113413387668087
0.44937483655736066
0.4894794772849014
0.42458531458464743
0.45555755376465207
0.3961984354883707
0.41665371802274037
0.3683942266229952
0.3960585106743783
0.3257557793947893
0.35889784856693857
0.2921187474461146
0.3098384963318613
0.30764451969168793
0.31453366374324654
0.32337973046905427
0.342643956543576
0.35619759747311636
0.38044620993091366
0.34581073144988744
0.37182203433035194
0.3311004459832521
0.35414568911048133
0.3346064548895575
0.3524413938070518
0.32392277962542887
0.33623589904589957
0.29282003830539616
0.3035748243552206
0.25692938226976536
0.2577402262367131
0.21533134244557262
0.2127037786910031
0.1989179085955252
0.17992881809055453
0.22640270746054691
0.1883450360423369
0.2523130768141037
0.20934406250579907
0.26918017507248304
0.23515819108213565
0.27987870183397284
0.2351541987681716
0.13362499935444866
0.15210903429525677
0.09993441479463634
0.12411827401918417
0.08121291235381514
0.09520873682444149
0.07677548658971574
0.07767985896749266
0.07030597092108931
0.07280714400395247
0.08447229676204765
0.08092615066796718
0.11762807202180264
0.11396549934193083
0.16695213357008618
0.15359123163270075
0.2010387663927678
0.1945138655871598
0.23348966484093858
0.22743493219184027
0.27825953933120234
0.2683068712347933
0.31388348104044883
0.31798668409328307
0.3191919915449686
0.3245238809301285
0.29602230638428245
0.2986040193162757
0.2634071175902025
0.26397382948192477
0.23509426826489466
0.25288337622504126
0.2120027797629496
0.23174090930663885
0.19906128225261324
0.2073273475126249
0.20202463849453092
0.1991090097833677
0.19680037115840465
0.20078728757379752
0.17060672975906166
0.18733216582845874
0.16705793094257415
0.16374261897277187
0.17685454103632123
0.17486490060411805
0.21608671252338946
0.20795953746048737
0.23641254601680375
0.2291468637155035
0.2918584259939757
0.26973439143875877
0.3730622389353293
0.3235189961337541
0.4098359718185755
0.3715645570658891
0.3948694357496205
0.3620773882483947
0.36166323014773877
0.3226945881705074
0.343862167159788
0.29540575860574864
0.3334512220225972
0.27701721995860334
0.308779077517502
0.2664091013310783
0.3027998770741016
0.2603393448214659
0.29489510624835413
0.2655303067545194
0.2471419619760432
0.23646850585399073
0.18654068474456434
0.1883580140532955
0.12444130027081501
0.13259062034732821
0.06482934560383762
0.07727581711625248
0.025499325637430195
0.035781625667320696
0.016895849571031588
0.019569292851483823
0.01816667401227357
0.019485860717280326
0.024780438934904808
0.025613823788406657
0.0427474059012383
0.03775263057441934
0.10499894606153136
0.07844931096723458
0.2178418279342646
0.16583852934731944
0.30544476577823737
0.25832777728561934
0.33589479779919423
0.3078121585221537
0.316156187814476
0.3011840262306148
0.26784211763320814
0.2666789775610524
0.19007114614410153
0.20088021105085152
0.15121668246756062
0.14639416126584276
0.11520350591886987
0.10904399283403142
0.08005845977365059
0.0748858319156325
0.0624738421258261
0.0570014027467222
0.051600110227474086
0.04744176770029948
0.04615012900027026
0.04520817980606959
0.05746446474456049
0.05106274657950376
0.07798954082221071
0.07109570022819513
0.08762380263067604
0.08724580947423727
0.0839410342938775
0.09207370484342381
0.07748011517167222
0.0852318079901174
0.0726334638177531
0.07676655132910945
0.052066503024985555
0.0661748378859366
0.04102491228428833
0.04850834601820881
0.03430993689364477
0.041597650051507784
0.03259628050587032
0.036037139524503436
0.02590074825636245
0.02979955751247192
0.021143141038230433
0.02428250721409506
0.028127181048088017
0.02527322579242093
0.0445023258172726
0.041223491603460935
0.06367266955365392
0.059569857794566625
0.09541188275945668
0.07968851745345823
0.17013421639882303
0.1346763614966455
0.2729542242517447
0.23914312266874685
0.3728036629957251
0.3388309919781201
0.4600942252245102
0.448284886897603
0.513658965877849
0.5020597306810447
0.5597882466768487
0.5584850388158401
0.5171285362176983
0.5538199961530569
0.4748767360788363
0.48954668929242856
0.42756031133668904
0.4424852225070884
0.3937844474751848
0.4068580022954361
0.3661192048837781
0.3767675338565392
0.32176061697464514
0.33118342951992463
0.3430995123373684
0.3348985814165714
0.38884348063092344
0.37527773489337257
0.41800974986384365
0.42015181195294815
0.4018995717092125
0.41308413017744056
0.3948332013648157
0.4159234926149271
0.36180244177591486
0.3849497132599651
0.30919131734122984
0.3239856629876571
0.2570488883291556
0.24733844400664393
0.19059398018189316
0.17427019583704165
0.156062402371582
0.13793462659611141
0.14143082268046672
0.12047209243924341
0.14112908380354744
0.11951960116163499
0.15173233200710406
0.12339985402650767
0.15627811811287398
0.1274140474811031
0.16490217510007618
0.12426359522249765
0.17297620247524995
0.21049029202329758
0.1424357143635056
0.1727835782805519
0.10891040840731382
0.13649695945426873
0.08664298200167522
0.10517349701119283
0.08270927223336273
0.08805687704209189
0.0879362861033584
0.09190199995307209
0.128674002973244
0.11341889898210696
0.1775461644578071
0.16800476383069685
0.2139535954172736
0.20790590812768298
0.26056659481968064
0.25272862195759066
0.3132495720140985
0.31697465348446363
0.33885886441273666
0.3446311719847611
0.311076705243587
0.3312956440352891
0.2715933783320853
0.27281065096488816
0.271306680829509
0.26731687550310296
0.24940393235577685
0.2490847444360986
0.22178269017356803
0.22867758903831173
0.21042314119169112
0.2067183090134548
0.19480844492889882
0.19139740148747938
0.19245389423596876
0.18885552728195024
0.1790381530871523
0.1859871158007658
0.16560900886016908
0.162466075375498
0.18881933100014778
0.17857765673701992
0.20558114036734715
0.18960014058673727
0.22251223400823636
0.21223266295145687
0.2536251732038088
0.22380489365304024
0.2926855141883914
0.24653240371121093
0.2973129950179018
0.2624044596223542
0.25920712338914326
0.2262817578300104
0.2263422729414141
0.19913259014502313
0.18746663049050427
0.1543904252515077
0.16286815438750363
0.12614492831388924
0.1501774790750964
0.11307923847133114
0.15423409235062224
0.11057430902763231
0.18803375260686736
0.14713138116940866
0.18604016951238164
0.16854703715029368
0.14868677520001902
0.15160796337195534
0.10441068684792028
0.11923719876624359
0.0685786569146452
0.08555836697226891
0.03574195917860521
0.050062541727702595
0.026038410686394817
0.03336303686393199
0.030642976857692072
0.03325769869394518
0.03655531336482523
0.041256099474067595
0.05174706258743186
0.04773332613564126
0.0951396365205235
0.07682195390227953
0.17971386118278226
0.14169595106102925
0.24363301539411508
0.21786282770071097
0.2505647162004724
0.23957136627091072
0.25213994497566405
0.2307155060024201
0.20049030413453853
0.19480918845655723
0.13913778056220188
0.14345380247512504
0.09070957136092941
0.08837367717043561
0.06135813828757337
0.05629687872067433
0.049939672795591375
0.043223106876979216
0.045141431455919014
0.04215739512728278
0.03992475350022247
0.03841690818804083
0.04430671050650418
0.03923605463331827
0.05161490355149972
0.04416018424496166
0.07836775595602134
0.06860508222373904
0.09434862630307006
0.08469668507695234
0.09120827669883265
0.0933182556873309
0.0941081580007436
0.10007349893351995
0.09787278183725925
0.10602332836232796
0.08568929044634585
0.10130779830894729
0.06416547129138503
0.0782001630018906
0.048305428841547565
0.06090851278466325
0.0432551991425166
0.04674009222925933
0.03455049683344729
0.039722335527755094
0.028620893961427262
0.03666632979366001
0.03846871409437634
0.04351252659891517
0.05510262565205923
0.05790927851634768
0.07096398812771318
0.07605207287130349
0.0912028911240703
0.08737722929993479
0.16204170666275977
0.12977886921137158
0.269746993973651
0.23493097776092361
0.37509737847103636
0.33391937760252693
0.46787186215983495
0.43104228280581053
0.5233573221186073
0.49396386203583015
0.5612949678129152
0.5401572085528219
0.5402102904715771
0.5425934090959803
0.4605380635345195
0.46862625115636913
0.41363746846218097
0.40435015597653007
0.37175338718709244
0.357493613240338
0.3614631292250217
0.3414310724223038
0.3346282105827305
0.32898637524687957
0.35316587357400775
0.341896982972499
0.38527014965708206
0.3767342261411816
0.4051909115103676
0.3959273371057477
0.40576933352937733
0.4059653704265548
0.4105183872414383
0.40683479200167005
0.3497601697975688
0.370686945090857
0.2545528385616279
0.2656733213301388
0.16412055963071284
0.15972762229124685
0.11339908744060742
0.10542470284006336
0.09589960188639689
0.08780457600948238
0.07953554252088092
0.07197850124597599
0.07699253439896503
0.06255068114820232
0.07874444190656973
0.06306840436709847
0.07780813226020453
0.0642631574960205
0.0815283953433867
0.06922011603983931
0.24473894131550175
0.2808046259579111
0.20009657830299335
0.23456142234070304
0.16272916468939796
0.1874276014161066
0.11733543080516637
0.14289921574654602
0.10784031254799296
0.12319857646819428
0.11278786002759011
0.11491495721787476
0.14015007063086038
0.13626807894994308
0.1970820367209879
0.18865440466805136
0.2568488020281011
0.25975585691288305
0.3243775708701242
0.324970879880386
0.37635958972627304
0.3733972824720103
0.3508586544341194
0.3617980605847843
0.29269099866012427
0.3042265733741297
0.2444795320095145
0.24990265528010397
0.23328641460243388
0.2285639926537424
0.2160337345125723
0.2093089286121762
0.20024286140102648
0.1889537350740262
0.1799640355175394
0.1734980330853214
0.16063967054403344
0.14938376277243853
0.16871171647370928
0.15491876959669323
0.15476553755458053
0.1481676143752325
0.1579425872596043
0.14502160523921687
0.16504738585055767
0.14270127981963449
0.18009051644259427
0.15556867742922764
0.18991488165523931
0.17084125936958378
0.18936437393292566
0.17239039807696985
0.19108541765356069
0.16432202716176134
0.1766525594068096
0.1610733143044711
0.14039954291446385
0.13112264357029302
0.10830929597874038
0.09012027575461917
0.08092068086025354
0.0650640407862073
0.0627790610437165
0.049782942987188765
0.05516064802399763
0.040387339631559625
0.07564290884183657
0.04598065599697474
0.11111029006074334
0.08350329034176719
0.12796351128540498
0.10911853640663799
0.13209606576118002
0.13059783989358084
0.12417543589333138
0.14000453488363568
0.0970579889183861
0.12355845278384132
0.0639316688503559
0.09240909403360717
0.04695277309757552
0.060935245252738655
0.04729376303467675
0.051381938920917185
0.05186347655920453
0.054079800474525534
0.05904604888151035
0.05901562826363808
0.08829347333310292
0.07812402019613303
0.16275322121414484
0.12889669004381082
0.22417097436154648
0.19048341598858012
0.20891139603015715
0.20379994449366837
0.18445844474894627
0.17205468557058057
0.13289039727774937
0.125033111265241
0.08546769720873233
0.07683005406782352
0.04996621430014381
0.049104058824474044
0.03459658464201907
0.03274041130970459
0.032453813489522865
0.02871465144577127
0.0314817335729323
0.02647429705159275
0.02946299315242685
0.026249876422229087
0.033718253870573124
0.030163129597177915
0.04427358620864889
0.037322168316744175
0.06810898925808967
0.058159428160444816
0.09187081202408118
0.08081654128686856
0.10275329147699475
0.10088213719735804
0.12143404976817575
0.12056615417440286
0.12962853740612507
0.13600742430459398
0.11557872486636092
0.1241481749466398
0.0938565271266094
0.111726334885968
0.06823146501889664
0.08928986790731955
0.06101291832099035
0.07864970285232976
0.05782345317014909
0.07469693470677044
0.060351350487618104
0.07487468103006215
0.08263404120669059
0.09904207897898008
0.09341255122293124
0.12093137948448514
0.10711888660412862
0.12299931980022051
0.11617181308225151
0.13003453158751588
0.16150451532239232
0.15094739369398943
0.27022770639309485
0.2350718287131662
0.35751788260963
0.32333118148549633
0.4307335388563064
0.3919509879066686
0.46246241448544234
0.4291770952007799
0.4908026315831813
0.4561536958477341
0.4721488417060785
0.4488739367600846
0.40645533495294733
0.39400890715114545
0.3388917826774184
0.33162570260435054
0.31084406505988554
0.30460523831836506
0.311247481444117
0.29482425656560274
0.31035731305486586
0.3008281878499198
0.32995208721595976
0.31123559183899396
0.384749126843357
0.36565029114628783
0.4124583417454675
0.4010980604079672
0.3860311822463012
0.37502928217056714
0.3700132767268359
0.35961689341882935
0.31045087696013113
0.32734536013515225
0.18663770097923876
0.21864024669307408
0.10119283804133787
0.10870299556000546
0.07010743661886634
0.0671107624977999
0.05834179992492728
0.05263367637022946
0.04832878569265178
0.043301054833463096
0.04439386844119568
0.03733800783983437
0.04876911692250046
0.041996751963000595
0.051862103696375686
0.05148564496500261
0.05060193507536933
0.05332996861710273
0.2761861317889521
0.30823841429136195
0.22258869715960164
0.23544384231798085
0.17941515710435668
0.19946996013512933
0.14519529448304214
0.1625351432505152
0.14120448746288597
0.15561952261053544
0.14918104703662788
0.15840105311500335
0.18144576401077075
0.18194638584460188
0.2560316249860841
0.24479298748014147
0.33883642356966676
0.3344048464284806
0.39225759030810564
0.40243894845549244
0.36009948829666316
0.37563851312332475
0.3248918540985963
0.3357046955107398
0.26043615827095157
0.2722490581930131
0.22712374458612836
0.2229187191024615
0.19348780953890643
0.1963687722393085
0.17116282550261422
0.15737509490159418
0.15055864483586878
0.13610667051913705
0.13728352803076355
0.1271007475476425
0.13151641228240166
0.12300681991664864
0.12754312397272694
0.12390763632677576
0.12585835821770652
0.11042100482746806
0.11095805389211966
0.09904052177918747
0.1189686720089749
0.10035373939967698
0.12723786252479508
0.10693190384386697
0.13257539333043267
0.1147637287711589
0.1281983115345514
0.11045341353418149
0.11662423947271149
0.10683805194135156
0.10795545946463499
0.09672450135732506
0.0725503700158457
0.06578962346779088
0.04228808087020132
0.03533096979469308
0.030209291315734757
0.023630659294297945
0.025168574089576852
0.02035521382632067
0.024912068571281545
0.02116078135418867
0.035749755784787764
0.024817925512866185
0.06657895316071114
0.047568027005188564
0.10122555317806996
0.08591468843579331
0.14676744250894497
0.12794856411519295
0.1706805377608488
0.17651302676553685
0.15323015579384863
0.17886135709505374
0.11030187591676988
0.1391072454115103
0.08490006915892266
0.10904651881884496
0.07531889149795187
0.09065402189668299
0.06533430781522662
0.07629136062668117
0.07039320115745226
0.07617071926936782
0.08750816278312903
0.08172858458216926
0.1256823675525947
0.10196806700688563
0.15606417753546903
0.12585291369070387
0.1445683587695285
0.12520915092439952
0.11121200869645763
0.09838226119514897
0.07108877113390548
0.0662556147646289
0.039955547518636766
0.03876904391899725
0.02599261119495568
0.02236903045599649
0.01743810535866949
0.01588235338603396
0.01757049875213162
0.01536563042115872
0.016849385406838245
0.014304094271761127
0.018620236155074674
0.015500026735492792
0.023743706741302113
0.018286369439316743
0.03875485735797049
0.030774130201042523
0.06688703701395794
0.056856046304853296
0.08864684484790648
0.08065709466325471
0.12140942315978404
0.11497523458100611
0.1413534005102646
0.13582666319586684
0.1363466207406854
0.1321995143634296
0.12364103509888848
0.12329590327143558
0.1157871377781486
0.11991191485839611
0.11019102898549306
0.11859927891797509
0.11039189530482371
0.12183605334105116
0.12851393901434557
0.15436786599904612
0.14042153561143625
0.1714803868509694
0.17930421006935973
0.2103922824252658
0.20261969446569514
0.242194835907614
0.21099689258879784
0.26059085888154077
0.19411298933463328
0.24365824392783664
0.201478078864606
0.23470559119597842
0.2719721345037372
0.2655740522425708
0.3319285497942271
0.31554805856527063
0.36485904913178363
0.33742622317063214
0.37887600621314443
0.3595560801116738
0.38437033130178644
0.35474637578889234
0.3621502828693612
0.34987370413552665
0.3210957592504643
0.30938891668879404
0.2650008553396705
0.273288652839135
0.27076916452579963
0.2584496162053695
0.27742633589544247
0.26886041054485776
0.2775695418126219
0.2608049156905077
0.30053515700396016
0.2726170748298158
0.34880105734015265
0.3235378903926289
0.3676518028257059
0.3520431424911053
0.3411011002421164
0.3351755362200395
0.31022582383220026
0.29633142144996494
0.25417645804646055
0.25722855561375296
0.1573242195778213
0.1755000745623653
0.07999735773429689
0.09286224892225356
0.0493370473528376
0.04965684432552333
0.03572496536975903
0.034997670263760224
0.028242685252844187
0.024406570602451418
0.026561334407387317
0.0225644775428534
0.03942539052138776
0.03067238991354888
0.05971341958236721
0.05485950359125969
0.06958759164430929
0.0712983392311444
0.30166057508998445
0.3276152248789034
0.22794706914375593
0.25191498049613076
0.19628865157117728
0.21728581354408266
0.1737259123833476
0.17733040555421029
0.16702828044087364
0.17171383886979452
0.18293995267684762
0.18739097379661707
0.22097472565563311
0.22536608657153356
0.3139544765464684
0.3091374307124231
0.4037342984374785
0.38948127715663367
0.4293384557959892
0.4546421100933214
0.37729868315909104
0.4171019273518068
0.3057221765078824
0.34339373162634423
0.23230103152696163
0.25286911996552447
0.20068883999584483
0.20338232136444734
0.15687224250060464
0.16494958905197815
0.1117837340422705
0.10966253900609309
0.10959924673172869
0.09950429157598598
0.10686065880339632
0.09662774647971192
0.1065591840358595
0.09974475171850451
0.09378823955726183
0.08718391328328579
0.07988694407297878
0.06831223652566396
0.06834570706616745
0.06053674060566135
0.07076831688418113
0.05638223958128615
0.07904793490466425
0.0642079552676628
0.08084336834702809
0.06439664854682318
0.07792263746709494
0.06512394146404332
0.06660414670688929
0.05744862149533292
0.05101434866219514
0.042727985474788836
0.02801448818853048
0.026692095013104204
0.015546255196189573
0.01464104661682868
0.012109022116895473
0.009979480291274975
0.013233453782836635
0.010782133598078888
0.016389212848317652
0.014171208685599058
0.024611970848257368
0.0206177763072379
0.05247626825045664
0.03792102402819047
0.10198463610799012
0.08412835218805181
0.16230899748529223
0.14860824310104792
0.22349785238685405
0.2334752479961694
0.21869202827068165
0.25447264961273725
0.17393318869762234
0.22929606518806936
0.15178788517309205
0.19605330561096848
0.12878400396535658
0.1673855639168366
0.09637803014004358
0.13070583053617538
0.08601827733572356
0.09932241727021429
0.08591939140493839
0.08821880109789274
0.08651202284828949
0.07948038393206028
0.0911165064134144
0.08048412526674455
0.07596405058150603
0.06964756687200556
0.05883231112753182
0.05388282523004657
0.0385196984009531
0.03751206421126281
0.01998140713497512
0.022813312145807518
0.012912536072867915
0.012635848262789792
0.011826675220965682
0.010757689331192779
0.011320161333852934
0.010493180704545604
0.010930487308232161
0.009470732077360607
0.013038640186071503
0.010638988929059782
0.017884300954549587
0.01351926174183225
0.035873219870941386
0.027290695564587925
0.06052408926503398
0.047987256868395715
0.08513501313307073
0.06650399514042915
0.11501303150405603
0.09504433244568873
0.1156993440595
0.10335295738931669
0.1109122885773507
0.0995334967400169
0.10671842776875042
0.10154782616525332
0.12486918782640768
0.12001809100130786
0.14026459810698827
0.15311223663279172
0.16895661381860777
0.17368370830999233
0.24313797938664988
0.25173774117624587
0.2960853769881767
0.3416583396942631
0.3345856734271702
0.39158921754246323
0.3551996812701866
0.39802759981838126
0.34073998473629624
0.40125547833331104
0.32268880603299843
0.38336458136408863
0.2983529808206793
0.32902477205892827
0.3053070658972373
0.323719622495826
0.32953945496701065
0.3272500539854735
0.3229247850629172
0.32759753112374723
0.3077337658761473
0.297739206524185
0.3012109616979232
0.27880955117489037
0.2966833776915618
0.2800749186549906
0.27633583636893544
0.2661793746972299
0.25734948516370837
0.25996804815077607
0.2610791991032231
0.2635630218019724
0.26815929518314735
0.28183294538797815
0.2592786796975842
0.2675891135883881
0.2652031889016987
0.2549483431132277
0.2967585571820576
0.2808882731322283
0.31562557436673466
0.3062422890897114
0.2914721209245018
0.2902769248716602
0.2395723802572826
0.2430889585977956
0.18972861888892198
0.19539762106696915
0.12533078293347266
0.14347008079289894
0.067978630584683
0.07779683685081722
0.035513554363525816
0.03879509561250674
0.02084617659505742
0.02110926369171502
0.0185405103260577
0.016426260770838676
0.02233819689063539
0.019665856922247208
0.03701914322185144
0.03011248016338825
0.0632030955073801
0.0582118028504067
0.08538064599521683
0.09401737777347341
0.280809798508508
0.28107334234455233
0.24820457237647656
0.24635523275101992
0.20972564850364395
0.22509517411425123
0.173963556698859
0.18066791397007273
0.173993730720747
0.17110777167443045
0.22590821360684196
0.2164426161742782
0.31008683518407526
0.3032980184862566
0.3743751994326349
0.36690582532222377
0.45699801153593617
0.4237720781923345
0.47968514283528985
0.49624455974854703
0.45256318507431464
0.4825819338504377
0.36015561671562546
0.41970445553386215
0.2592540877124292
0.29686382854556903
0.19282015940510486
0.20794946455868016
0.1253509725698165
0.1386475443028843
0.08891017681718247
0.08791500231398874
0.08601612466195642
0.08520245417754439
0.08236070509390564
0.08169121548414908
0.07183223905889888
0.06958671775907037
0.05293504205625223
0.05248595415654033
0.04793760638398382
0.04263993271311903
0.040942556256032624
0.03949333671175036
0.040406174420116
0.03075375701945055
0.04860033368313385
0.03658961179375773
0.04482129355192652
0.036935607349419974
0.04264812020433911
0.0357331554059625
0.030734280142195727
0.026740515749972247
0.026575525431016975
0.024366424255810086
0.016046823049496874
0.018367947056437506
0.009025491567316492
0.00980034043921972
0.007431063744270409
0.007192961352348573
0.009768092241858678
0.008246370247436323
0.01529582928733628
0.013703843521571522
0.024544289933827793
0.022072795651132883
0.053160276167340925
0.045519905029285004
0.123168472915432
0.109500050823542
0.2282465979279118
0.23081247124404636
0.31933618008513426
0.34097405326925817
0.3458637371395269
0.3934752096261905
0.3262642099910698
0.39848727852027793
0.29477684541037513
0.3698206192907687
0.24848888472575026
0.32292478374984307
0.17143599062861078
0.22791505800947168
0.11561913546301232
0.14657487078450435
0.08849238054673246
0.10063365262417574
0.07818988882840014
0.08439523340505735
0.0644532982050089
0.06692841410472068
0.05013166784062704
0.04703753463938687
0.0330563005776138
0.032926927572657444
0.024002787448983525
0.022316973090121744
0.015513370344609638
0.01704739246348504
0.010379839671208237
0.011174672439989711
0.008864178453940257
0.008546788862153345
0.008831417361036115
0.00897535770524423
0.007582088535144639
0.007872918414482708
0.00973705666661713
0.008601699099467855
0.015981242430383638
0.01325848689034648
0.029551555398299904
0.023253804322616752
0.04224525580441054
0.03796679981757143
0.052373516528065475
0.042969511434995146
0.06842457266035876
0.053281348614530974
0.07558789521096239
0.06830577561926
0.08734635209662583
0.0783621027074715
0.10818384863430003
0.09876232465520983
0.1535172959659002
0.13817744650301986
0.20024141563475503
0.20697227812557323
0.24669621166513303
0.25455554269149433
0.3530794375129887
0.34630108467852505
0.48078604590959173
0.48664322750555505
0.5331083275831628
0.5861265603696038
0.5342140971340957
0.604498815280339
0.5158419851159389
0.5865646812175819
0.46224249629738173
0.5353176456242296
0.3870708489103947
0.4318372035615092
0.34414091371145633
0.3684387460199413
0.3287631801230733
0.33450463222576776
0.3003284936465062
0.3116249400320745
0.26254004155019495
0.2560096388518855
0.26162902891699236
0.2521283066610608
0.2674442543919055
0.26196035686026165
0.25406135241845723
0.2523240636541995
0.2605586614939474
0.2610307896617266
0.29818294033587917
0.29058853823020475
0.306690304184762
0.3273745435322506
0.26950326648599576
0.2944761849158914
0.25653694242155584
0.26306501294309087
0.28447603802348315
0.2679534507892093
0.2915684562259754
0.27633578426129873
0.2530538291806869
0.2591656725297235
0.17809605353440605
0.18861186533042495
0.13336515274563776
0.12785386482694652
0.08764917986257544
0.08651056393299875
0.04257858320915604
0.04451257989811393
0.02239818670028622
0.021613373011489332
0.015484196598466653
0.01534597799482474
0.016944531570611987
0.01572753068768065
0.025882333658549323
0.024414044652999064
0.04950666704595034
0.045224834369699
0.08981160967280706
0.08248423253766946
0.14176677463519133
0.14490756400930435
0.22493763232941344
0.21131891327230634
0.22364991209953156
0.20675694227881838
0.21615219559925122
0.21094949967257906
0.1818645387469208
0.18686274403972472
0.19749387910026028
0.17998432123868757
0.261060664439055
0.23297999968611652
0.339005134472725
0.3146167901137462
0.3816154532778931
0.36283636378357187
0.43491852635053646
0.4025569256538544
0.4894422255614375
0.4794054826357401
0.46835813834757595
0.49124810985418227
0.38038126947897527
0.4173209925780367
0.25106675239173953
0.279911722661249
0.1778086791773652
0.1919200296249955
0.10562858317408813
0.1273206277762579
0.0893083720824737
0.08258412879655859
0.08873336630910077
0.0887945702384343
0.06539893430956391
0.07130718476772237
0.046152912343373084
0.049575315517695735
0.03610111207826475
0.0331414496628655
0.029598431674640734
0.02615203275925447
0.023641803151809457
0.02291383210778868
0.020517587815500265
0.01664951814067432
0.023122210805415624
0.01764109971340039
0.026291217827359555
0.021285196965460024
0.02434180564584288
0.0228425186549402
0.020355966524243433
0.019816386632744203
0.018696935459256405
0.01789704685491284
0.014720904544404646
0.01809571542145453
0.009522523028964638
0.01237205582411325
0.008982494692778429
0.010629529661313857
0.010784573495645745
0.011331931375932514
0.021433323330295816
0.01990457391630792
0.04270749497646947
0.04273728394403873
0.09596380144131209
0.0980888407962575
0.21643365777954557
0.21306906444107945
0.37526563506854027
0.38038692143267483
0.4827052664054849
0.5026403323893038
0.519031146522179
0.5658903277343998
0.5225490078203221
0.5779005268566435
0.4687654623866533
0.5502473822605332
0.38239696348249463
0.45123670414818173
0.2543614519380886
0.3226333474605568
0.1656360084567326
0.21315272843210487
0.11260913271965627
0.13843161698950338
0.08086992921933604
0.09906809807700732
0.05106397105091016
0.059485325476807946
0.03167232333677941
0.033799107467824656
0.021559773986164266
0.021938721327520005
0.016714070105200853
0.0167587493761979
0.011521407691652788
0.011155349817426934
0.009690669500866035
0.009194275542018019
0.00854696932200072
0.007832056786480268
0.008952447780809905
0.00872629799611662
0.009207862161374359
0.009399009593186722
0.0108626145336129
0.011092046724195476
0.015224853343386986
0.01401561436014594
0.025494507587269566
0.021229020159904036
0.03372564899345784
0.03084867818564456
0.03912926077935657
0.036892322461344496
0.055359567931954075
0.04874318210613991
0.06742536104765871
0.0635071123619872
0.08023369203031368
0.06794155831989089
0.11333425790618687
0.1004223160420937
0.18622679782899532
0.15797157017437224
0.2605416255516914
0.24294351211015047
0.3354514134774355
0.3211120952131199
0.45233962996394417
0.44406434426219044
0.6019725607977442
0.585540371790467
0.6852765659487731
0.6992413264086317
0.6935838305625713
0.7308731406573473
0.6690202136903176
0.7151581004853159
0.5814865110034505
0.6445714178782623
0.45387154257439166
0.52878557386893
0.3770963628665813
0.41978210187480763
0.32945642780993706
0.3499246277678717
0.2791976468389144
0.2905261425736377
0.23810302165498642
0.24643644882588622
0.2463225874017683
0.238770814417096
0.2588987159624688
0.2599884797826872
0.2641726805587128
0.2732744495079497
0.288688090848176
0.2866274095330873
0.33261830846725843
0.3286986797660423
0.3772200994509417
0.38145820207348435
0.3312528632233545
0.37819723913179054
0.2843824138590525
0.31734179874509966
0.27114690152535975
0.27569173610272635
0.2580914025320322
0.25639079043639795
0.20056552138535425
0.20930223250119806
0.1391786691884816
0.14071763638444337
0.08879575073443352
0.09245437118620897
0.04885029400003053
0.05311491500129913
0.02506119341032537
0.02991777937124718
0.015496820292441028
0.01674808632299447
0.016188575120598084
0.01687187311535526
0.02219426458817057
0.023577535756239422
0.03998018620300089
0.03725258562841832
0.07979789000392482
0.07382548785870288
0.13994951642201042
0.13366409983143618
0.2233748061277634
0.21647466587978947
0.16880067722255743
0.16014236283497765
0.18071186474374734
0.1643870707291923
0.18115444800475636
0.17551544578869327
0.16409968494503463
0.15320929026221664
0.18514184977439188
0.16689830470718503
0.24946906802917418
0.21787421271472948
0.3327053779162252
0.3125162590441355
0.3698443665610816
0.3525085318518222
0.4263507069649668
0.39649116454481487
0.4774873666165293
0.4625002908920106
0.45373805826462815
0.4612793161584792
0.3454096909589842
0.3687138339418212
0.21795402344815504
0.24358199017082438
0.14845514380253994
0.15561279286654311
0.10334659896040745
0.11854695057142517
0.08036995027051504
0.08380359153566852
0.08450706343041924
0.08171078247727809
0.059127611482801976
0.0707126578565029
0.03808322621597283
0.04312527056562873
0.02391564412415763
0.025213348229277635
0.019024999101417563
0.0180139419574062
0.013539443675965133
0.01382181644707266
0.011264649350558355
0.010108944299303257
0.015235179117595105
0.012784339603502299
0.01909770417398924
0.016956328751924137
0.0218583195140905
0.02203530807418302
0.01887550593808726
0.021298006414474352
0.02095514356150447
0.021378000062680768
0.020158825800880846
0.023420278743426875
0.01544753565355406
0.018960031565377268
0.013571446248335062
0.015454441605242585
0.018420752375391057
0.017984288598405715
0.039748198127807256
0.03672328900787472
0.09818907538781294
0.09149496918732576
0.20719325887639004
0.19865373766980315
0.36617424522072467
0.36404135241459784
0.5147750022377542
0.502796721709612
0.6088797027857418
0.619722364248939
0.6476853756057757
0.6692830270058455
0.6472348853138995
0.6716252612677431
0.5753051121361236
0.6201253043193828
0.45549896133678713
0.5167663006712928
0.32586588116997867
0.3898455528391121
0.22888233982834452
0.28183084186594687
0.1451880451032191
0.1814771852756055
0.09427354039721157
0.1174841716948455
0.05356239549753352
0.06536793956889912
0.0281370336875309
0.03638374425735969
0.01803693189055647
0.01913448752398185
0.011736572171020556
0.012392964318516681
0.009067730932415235
0.008774743190513874
0.008639281623864358
0.008512957419398153
0.008045426368863517
0.008970915830222245
0.0101295473381217
0.010245676885554469
0.01145649318908325
0.011485751666941237
0.01237729805221209
0.01242044765880897
0.01640731961896597
0.015939466077974647
0.027185974462419476
0.025750383393756418
0.03640484463016625
0.03495013266633752
0.038343882380319626
0.036263948278089736
0.0519349764538814
0.04554363516714896
0.062096765045586685
0.061346192979204524
0.06605348910539462
0.06344062843476266
0.10602678000715768
0.08659064699995565
0.18164302171707924
0.14562673998769815
0.2697394748328786
0.24133258506753083
0.39197568529611393
0.366220579048922
0.5612027108276575
0.5338090679554777
0.700997938304133
0.688378909001748
0.7775589487116433
0.7767427617094084
0.7808855019406161
0.8037865233698095
0.7581023182600749
0.7889312955337762
0.6749470756018807
0.7289713359749531
0.5408967034662028
0.6144973852913851
0.4405844371117201
0.47829235218829297
0.34113332338888497
0.38535983653279454
0.29111316279101485
0.31342225562698556
0.23785036626900258
0.2534776616743415
0.2440313250183645
0.23422968957932852
0.28398574819923256
0.26804736775266613
0.2988247114712725
0.3145362117918582
0.32072603108911485
0.3299854174277588
0.3719198660750583
0.37129961117365007
0.40823509863905244
0.42461270488205977
0.3959672658464089
0.4202729290071812
0.33199325272705466
0.36774874673095087
0.28673775397314133
0.3062909395948036
0.2139529003764037
0.2273358188581623
0.1506539346502862
0.14883321951782563
0.0965628695674664
0.09579591633088246
0.061510902593758424
0.06350947521315312
0.03806810902695399
0.041653731981998156
0.025321630617838913
0.029672768328845713
0.01868141861793342
0.0209238279595612
0.024921555719216282
0.024650834219868904
0.03702636720749328
0.03472756817808412
0.06299607913905952
0.05840576487056423
0.11005875404007576
0.10286403121031402
0.19102486955208037
0.16755693643957478
0.31198464326930037
0.28367696724275154
0.14495898159541518
0.14900266455029554
0.14755884991750493
0.14226622231675176
0.1528545706828692
0.15408063479436152
0.1462426847012914
0.13768107520128622
0.17580592110299637
0.16499283425555467
0.24356602143560752
0.21553613474913885
0.31276067542918873
0.2797588049305873
0.3729812294025393
0.34582711101709024
0.41458005342542925
0.3899095619988007
0.4330156260884215
0.4216210967877358
0.37877102431592075
0.3789132705670358
0.28489192412566794
0.29797207353699307
0.19791188078806213
0.2148854414819344
0.14013350648551334
0.1553870493374538
0.11028762220714666
0.12009523905118219
0.08467001053170316
0.09199058152588531
0.08559843862541923
0.08493290835231378
0.06329298277231134
0.07528356900479935
0.03358860118363536
0.041671391074909664
0.02142055179509312
0.023951471306880797
0.01654093435342166
0.018021174826101587
0.010806862618817734
0.011837804491279788
0.008230354102687954
0.008632034465369608
0.011672294858260709
0.009306170872658961
0.02025149503391132
0.019337744904735235
0.023956491784668958
0.026948096179106266
0.02492482175562394
0.027255840934387102
0.02953435834052131
0.029802567615029352
0.028917141569124998
0.03433552722786146
0.02295572582929974
0.0291942600388618
0.021930964250545203
0.02572032699724866
0.034730404281264865
0.03546705994008289
0.07228661206496886
0.07202986445140555
0.16240422569982693
0.15117332869843012
0.31654955665129936
0.2889062794201546
0.4824270650187377
0.45459798939485535
0.5982445107862822
0.5812380215187513
0.6706596258942921
0.667814903124249
0.7159346193649724
0.714875039554501
0.6964902217602735
0.7209392483386428
0.6209267364481311
0.6692869492695288
0.5126490948719589
0.5646696206808319
0.4143751906437095
0.47241863102052595
0.2946514602843056
0.35040055007181464
0.1758998344517284
0.22594362313329486
0.09680662087949321
0.12426263588720993
0.05177025284033752
0.06561502756061423
0.028333125233669477
0.03675751235179786
0.015032051909216308
0.01811500745936384
0.01011808597754706
0.012584288442081936
0.008480131346873448
0.009755704754251197
0.009961159622228839
0.009793541438900905
0.01141411128651288
0.012261526123264841
0.012793546222773018
0.013118094976688099
0.013460638511077847
0.014810346449936122
0.015687581449520444
0.015802156605825634
0.0236622924215328
0.021236804658172605
0.03331330983578616
0.03266466507640346
0.03724707825826159
0.03948018573796447
0.03798871128080193
0.03914922429672425
0.04836460677765568
0.046593957802607854
0.06333717523445129
0.059878874916440686
0.07180791252493955
0.07457052979077843
0.09640250666646782
0.09208251870150592
0.16788551148401837
0.14163119156131054
0.30653513669990645
0.26365027343040504
0.46676313100151046
0.41630027989775853
0.6378466093815682
0.6025332564284972
0.7604296035228444
0.7426833379751837
0.8188814494230751
0.8156131958720494
0.8336141918636879
0.8391184445486891
0.810365512770829
0.8329896565596624
0.7367864545744929
0.7864161895094651
0.6051679516397978
0.6773801377517293
0.4704182278537691
0.5204062910358389
0.3857491669150048
0.43194679621587917
0.3112210388478653
0.33372910347411644
0.23914928052106094
0.257779696424547
0.24052037380392668
0.2294819627619089
0.29597957100727706
0.27400305998922464
0.34379750201484705
0.340730572488589
0.37827598531559503
0.38089871810057946
0.43362619720189616
0.44472761530816773
0.44872007398073843
0.4594538207683765
0.4140355442187276
0.43732670588260103
0.3624249531630819
0.39777259288450284
0.2740170641735023
0.31366326711376546
0.16950647403693914
0.19134597343769713
0.099843746847918
0.10590961570422099
0.07028377872355183
0.0710797323633629
0.04816405381331852
0.049335632753311674
0.032577654030554744
0.03169762760899407
0.02409191421421297
0.02470760801459379
0.026544231857278115
0.02658699957843281
0.03562777113449129
0.036532891953486774
0.04860659910512094
0.04604115532268753
0.07798843478206383
0.06705330372202664
0.13259494188862067
0.11827377485569855
0.22946981372245281
0.19412783834468328
0.380640694456958
0.33697313310391425
0.14624390038373888
0.16420876449074923
0.1377583399275573
0.14016216951589208
0.14751409074188448
0.14650263459734136
0.1444978173889474
0.14255477543116166
0.17830298274083045
0.16135154709699856
0.2170964516055518
0.19350642048196728
0.2589898372166008
0.21922893592950482
0.3298645998480363
0.28340239927960603
0.37596459338523963
0.3420202820127623
0.38635299662800787
0.36629238841704914
0.3134107401895878
0.31672084342549933
0.24045668650916005
0.24399681072701382
0.19494105094969827
0.2151707356876202
0.1397215788242443
0.16298639389974753
0.11049415811794591
0.12335472586829459
0.09331831945893614
0.09681067307077112
0.08272925212678758
0.08298573070911411
0.06766678236983381
0.07737603081212187
0.031849207379969845
0.03916174104995883
0.01915488039097452
0.020835977883717837
0.013916760597739782
0.013929741391527951
0.010137362175845065
0.011140981985988653
0.009489278143608497
0.010052541070829698
0.013624329159755602
0.011910984309393476
0.026559096576145656
0.024712680358963634
0.03473643808245277
0.038500583031197105
0.038499110021819744
0.04227184465374854
0.043002811206063495
0.047364715326152364
0.045320591399368976
0.054199072945604936
0.03759722011391535
0.047325422932674756
0.04169461129618022
0.04651288593156374
0.07014043331792694
0.06922992915709186
0.12967123255011487
0.1303257077441472
0.2346564031430427
0.22629331771651026
0.3973376558397915
0.36283173705275323
0.5491420317542696
0.5271471033839529
0.6451031009016659
0.6401691728747423
0.7053439735464793
0.7131778001333465
0.749652403286993
0.7461858140317934
0.7348186912552908
0.7564123574204543
0.6712985449381641
0.7106881815703876
0.569974053983596
0.6179891532786389
0.48378011591350406
0.5337654812137945
0.3512808656114242
0.4015743598680898
0.21227797255061132
0.26851506857951735
0.1065007434587216
0.14521272496177504
0.059630485406837415
0.07888787499035732
0.03553764812341797
0.04604726271943077
0.018861569584896935
0.026471856980525822
0.013966995950466542
0.017072668735767262
0.013548248312898414
0.015266190067934178
0.013587030103810734
0.015394601257476194
0.017709583372646463
0.018703194827410282
0.02085738362408066
0.023935158007914955
0.022435613888115376
0.025434561398155562
0.02234133536847479
0.02514827916444851
0.029354942789953428
0.029347214652553494
0.038863510137363805
0.03864285491362401
0.043494560080717455
0.04486022532197968
0.04289707551259524
0.04440881118462919
0.05212351567779132
0.054237420428873084
0.07294829726859095
0.07272552206605695
0.09965569591536907
0.10131361952273522
0.12633067010172291
0.12826496162977072
0.20261896477017985
0.18772688384229252
0.34608200273378814
0.31784378951119524
0.5290290543768926
0.4837343699059834
0.6909601020324869
0.6533594547519753
0.7971278122486354
0.7794007650029134
0.8390827715337796
0.8381399368228412
0.8506763506142514
0.855660792431987
0.8359888191924985
0.849050759837012
0.779236098230219
0.8117413215831963
0.6416136568815902
0.700607613810367
0.49425535533852266
0.5415875860799826
0.3942725337043816
0.4140326500142816
0.2902336408762859
0.31529042107423655
0.2439063514358595
0.25494521654354896
0.22887674227713745
0.21923881275058224
0.29865292963378254
0.2646663354311047
0.3748918393798461
0.33960737855638384
0.44165493888168905
0.4337256922726241
0.48678304261591143
0.48967001052264914
0.475774012854505
0.48656090092592036
0.43768772384906734
0.46686903392353307
0.38287884598421074
0.4079778024938837
0.26223614018807245
0.3050473942829455
0.1528075246179868
0.17692623408927133
0.08314796712366122
0.09901308736592065
0.05275812227762828
0.06063641010089994
0.03481930980494749
0.035702309474500295
0.024958270243778766
0.025020177968296062
0.022547520971555143
0.02074657308252968
0.032162524109315145
0.0290139503802295
0.044887457223405224
0.04210307352837297
0.05560752135790812
0.052626084646863115
0.09226228662588813
0.08289407291980219
0.15909791683120295
0.1505379737221374
0.25736617362791686
0.23664452728142718
0.3801087301611497
0.3324624198842963
0.1546972027946577
0.1545998381248534
0.15176351121567785
0.1546024558805233
0.14067291416920527
0.15059038296787464
0.1460714437233908
0.15084426132341885
0.16899482621834963
0.16272305031839684
0.18085577562770752
0.1698276599198098
0.20491907616002325
0.17828901035140463
0.25473529757349284
0.21323055977290056
0.2878630199988908
0.2468138689370661
0.28698441578018274
0.24376298529303875
0.2533883465193117
0.23291003494381432
0.199201740963991
0.1907050312938348
0.19382499575474943
0.1857706668042487
0.1452919699016869
0.15296197451986018
0.10937440104075118
0.11445287439317778
0.09235534094595088
0.09885374550640584
0.08192713619193753
0.09418589337667284
0.06200607829897565
0.07431476922863356
0.027808821300423812
0.032547906145221336
0.01651491932906193
0.0189142883097608
0.011458556264827262
0.012728757665252773
0.012333246933918747
0.012617728799677853
0.014781466516156916
0.015064020372384822
0.017285782958491307
0.01702063620700838
0.0362035908288869
0.0319635668900876
0.05098211859902689
0.05456000170114708
0.06356833884001731
0.06527571186598734
0.07791773589457533
0.09006763569913122
0.07788093450042824
0.10305578723740424
0.07334024348052413
0.08971598987285677
0.07527591139995674
0.07979078939505817
0.12504893212863352
0.1202077761959046
0.20765681146822895
0.1965622515458553
0.32736810388270593
0.3039983716293851
0.4690562928803959
0.43785773171378856
0.606101152652958
0.5789600272461374
0.7040480169313577
0.6906451329282589
0.7371987790267971
0.7384774549877025
0.759207398892752
0.7518210831108247
0.7460105206667216
0.748044176407311
0.6871396989190781
0.698176176524021
0.6066333594511739
0.6335620560116496
0.5149504409994444
0.5414288894644261
0.3853079028938171
0.4286384180021694
0.23194315274076957
0.2869292297384224
0.145533782474918
0.1749796788040716
0.08491107367832737
0.11946137646840972
0.04644950791590022
0.06276469277539924
0.02642045702283598
0.03464213787494887
0.0214920329436822
0.023587388772869616
0.021161739816063396
0.023437825716033006
0.022541825089343593
0.024165526678774963
0.025218389481010645
0.02635783167291003
0.03243848051449306
0.03367427330800911
0.03588838736585905
0.04242715222051141
0.0348569277983467
0.04581397871803788
0.03914781886653086
0.045442274167072604
0.053090002741283386
0.05501094885176121
0.05933754002058559
0.06966003177378689
0.05665358436266848
0.0672087129212694
0.0725997621980393
0.07968167463034187
0.09926253727591838
0.10304385271771342
0.13379307921757652
0.1342894329170177
0.19231281688745003
0.18790077940638428
0.2832615567860552
0.27137090812030473
0.4133147477231144
0.3906030212526587
0.5674168817806199
0.5296452887877087
0.7179671093624347
0.6749824681599255
0.8186744573081107
0.792753117428738
0.855215932593104
0.8537698872270469
0.8660044682031691
0.8736406586250229
0.8533525760807835
0.8625984171192879
0.7964891803022266
0.8242882793045336
0.6665304569174508
0.7216286404686485
0.48122807701993603
0.5456675400507439
0.36340654611701984
0.385870319096192
0.2782774225942479
0.28649078602861894
0.23010351606572024
0.24389844624797302
0.2208543679433795
0.21645133847851483
0.26743858947298005
0.25238893010022556
0.3674018178907962
0.32028760007897944
0.45639610039299544
0.4207535386469727
0.502958378333333
0.485790340145063
0.49017711780968515
0.5057318975566552
0.45416300057131226
0.47872056679207786
0.36685761627839236
0.3893474808426686
0.24562538779481483
0.277754809563563
0.14503040861058822
0.1737259078076774
0.0833956565517616
0.09889268601456808
0.04989684686878351
0.057483792696021545
0.028108273894080195
0.03343144311258387
0.019564211289546354
0.0211009196324107
0.021042250494464697
0.019067878132325654
0.03227665021912213
0.02994276532138113
0.05133870237178419
0.04960193416708656
0.07076163420662375
0.07185141025357998
0.1238754830236331
0.11735513516234634
0.20038450536759014
0.1908380300764792
0.2905685907497337
0.2790964474775365
0.37327419046574584
0.3336815306804536
0.1671430272292168
0.17050694479698633
0.16218378687519935
0.1684517646955556
0.16958452043429692
0.16233750242825468
0.17719648186965722
0.19227189237513018
0.17032872718483882
0.17616584521736828
0.16458651983947217
0.16029209518965334
0.1586822152123289
0.15049258790217565
0.18633413985216354
0.16263259307840264
0.20089726559312798
0.18706316616021373
0.17327786205969345
0.1648472810733776
0.15887982006230003
0.13726538599322977
0.1450552283529398
0.1400532600393931
0.13256922226777212
0.12569071039113758
0.11280251713977657
0.10979357443694623
0.09860497321346645
0.0938101647874025
0.11232184491899395
0.1132237089337072
0.0984985674165495
0.10880815157029984
0.05777783130943115
0.06846020287247015
0.02223430852185896
0.028607960354791198
0.015975930227071836
0.016189117323702047
0.01401475082338469
0.014490266307218655
0.0158728350498855
0.01533255604550239
0.01813997129675813
0.018486372841609817
0.023536273302208355
0.02423636461964813
0.050171992563415056
0.04825583776192097
0.07757584406574916
0.08465861501949191
0.10167151486703743
0.11730894255042706
0.1358218926797288
0.14766179387272885
0.13836179199247386
0.16216839932322716
0.1166321714305399
0.1385042116064114
0.11398891406342546
0.1211651877978271
0.18462531532834775
0.16588085190391771
0.2775738414225753
0.2576710480598784
0.3898862416944197
0.3744701063075389
0.5281711913428476
0.5018793515155617
0.6478433220267648
0.609084906306671
0.7222038467608288
0.7005665644544801
0.7341370633881324
0.716216646363436
0.7262662661809566
0.7129181245725601
0.7006601918840994
0.6847358961253539
0.6479308613119947
0.6483907380935442
0.581020631556721
0.5954253723793265
0.48848642277795795
0.5035048330851221
0.3812035442979906
0.41754122382576014
0.25844217225271243
0.3093135038132339
0.19839810282643652
0.22943271233709386
0.1331943180263748
0.1790841807330984
0.06136214124092618
0.08348893440819721
0.03545681174136283
0.044761753239906575
0.02876235103926768
0.03159218026860022
0.03247320642890177
0.0368969200795871
0.02764004336885919
0.03290883179324722
0.029687602283568194
0.030233104380961908
0.05028002299538573
0.05004993686553734
0.06845929244881885
0.07556862063795315
0.07360538413206694
0.09117823625772634
0.06692394065887688
0.08218097024036305
0.0772220649666286
0.07520942569615661
0.09823748593133322
0.1005763151373562
0.1044253597163578
0.11964987101118682
0.12575989839491217
0.13743358227962765
0.14999704947861026
0.15757141398608027
0.1846397966284973
0.18924020717609702
0.2411303633217778
0.23679908489103424
0.33962184366549736
0.32224403215527814
0.45776139648774633
0.4298136305542374
0.5812172948026697
0.5423591607217512
0.7184174834871696
0.6731512954267738
0.8241823438770628
0.7978876685013845
0.8715660338485479
0.8663720871850472
0.875868592553128
0.8770822340883722
0.857584004579973
0.862662243927795
0.799288596251616
0.8184634326396337
0.6768294667667508
0.730300216202173
0.4993842403190694
0.5788145010972059
0.3492466868398907
0.401694672109778
0.25934634686786906
0.29497029872092295
0.2206640972234796
0.23301621892105612
0.19872123223255148
0.1925248067918772
0.2550185378776266
0.23080180175146264
0.31544426206305015
0.27488558422876386
0.41860642862321945
0.35627650833331626
0.49496954980887287
0.4592903236765054
0.5010123943250666
0.5012084075194262
0.4550156587214029
0.47587237852451425
0.36161219170184694
0.3840297328242805
0.22688622252788546
0.2704129856800994
0.1273691406417054
0.1469263800025543
0.07905835324289227
0.08918909348606306
0.05677526191570945
0.061844314955817714
0.03304304077604923
0.04049616118773787
0.0231442899124769
0.028202693780311355
0.031383926020339126
0.03241836681562636
0.052902473052450764
0.05375489769548864
0.06934354926679567
0.07117996024824265
0.09907802089065085
0.09831570517805363
0.16052414549791105
0.149259901979507
0.25640099042457176
0.24706862022441986
0.31040659638521007
0.3073238520233144
0.35691120641462915
0.34096696971343443
0.1832108828856372
0.19332025428626706
0.16181263959243763
0.17393412279510156
0.1647773862706702
0.1725613430364654
0.18787220434399546
0.1962201646247154
0.16193110223131454
0.16721783395387438
0.13759131635905905
0.14670189255421678
0.13827491606778528
0.14048083669819508
0.1624981953570282
0.14224250650072387
0.16214296942896272
0.15965790169825583
0.13044416876109174
0.11761307584530868
0.11660449818929862
0.10503533798633835
0.1214257941969507
0.11670257810154026
0.09974867476243164
0.0944772383899895
0.09172177033787457
0.0871913688422463
0.09205116348769919
0.08067958041872836
0.10780270763759295
0.11318767023599487
0.10735658808320955
0.1122971165441698
0.05218461277601877
0.06670000867035883
0.025592637475572694
0.03233995169546471
0.01778691395346347
0.02015800914699554
0.01716688179690753
0.017809817487339043
0.019602890580858397
0.017049882370317012
0.02592139139365622
0.026259980096125905
0.047102274475329976
0.049717601590779044
0.09149984148678936
0.09618356890178327
0.13884691665740181
0.15095806284630808
0.16221256706740375
0.1795003486368707
0.18523338543208595
0.20010871336148925
0.18314594799989525
0.19426911028404045
0.1539962218370842
0.18454510875204996
0.14021354781523518
0.13839147990492814
0.2072510277964984
0.1771888229956999
0.34769829495931354
0.3088228380079645
0.4453472991849706
0.4386590651474142
0.5672211481854827
0.5386194970982894
0.6289794198260691
0.6055235618717872
0.6875201410422285
0.671197638748433
0.6765830209517217
0.6705820936862579
0.6575652754663581
0.6451411637637111
0.6250337908103338
0.6250067283147367
0.581750388519677
0.5709096930961682
0.535965336478878
0.5494589402945649
0.43304906181571146
0.45471930302472297
0.3754786752734281
0.4009983097134103
0.32169952306434196
0.35140202550333066
0.27120009234219494
0.3072350854011375
0.19307442926479132
0.2537561989338517
0.07876275005950797
0.118252190426165
0.050972337140962956
0.06241470466675817
0.04697436044234856
0.05279876075365571
0.05656791909904897
0.0688122106239996
0.04296778407723798
0.058273218651793135
0.04858236461746252
0.0540513029240395
0.08211887080423862
0.0884457614148193
0.10932127361824372
0.13139959444220256
0.11273080243874498
0.13978740609854387
0.09944609927453693
0.12902890301536055
0.09460611736545178
0.0971850047807413
0.12952358747363074
0.13167402819307691
0.17047752562945134
0.1606981920186048
0.1805362402635143
0.1941507471100093
0.19791435886167416
0.20091832567657728
0.2415767211908017
0.253372476612668
0.3010039007823928
0.31164928686020643
0.3794114356028514
0.3652284453926408
0.4866587728313931
0.4740068773669268
0.5947548554548846
0.5629571332287989
0.7261316547446343
0.687246007176375
0.8386870243285459
0.8186322248937864
0.8797602560761467
0.8697887381647478
0.8789584034483424
0.8827468995864834
0.8468106593515015
0.8567705919688264
0.8064439954613789
0.8298948571322645
0.7098519801922765
0.7564570191560348
0.5549680363322387
0.6175265988590913
0.3801187737217782
0.4281806081070803
0.27795941976540095
0.3190548504962496
0.2102480102746733
0.22500619768253938
0.19272215421541053
0.18920031840298912
0.205573642784259
0.17970669028693348
0.24981121217650384
0.2040176857614054
0.3413770204917754
0.2974475999822002
0.4353343466477876
0.3901226597202305
0.48395076698734113
0.4672333570033742
0.44132574320544327
0.4584913447994768
0.33998720013084927
0.36496824232475145
0.2052494758017998
0.23989407008459507
0.10472964922756038
0.11688270459117554
0.06627525152512284
0.07227416606336397
0.05026442238343797
0.047031755082077915
0.036087574285671144
0.036381469342013154
0.03482972819355262
0.03574384002847576
0.05124376963407357
0.045762164244112905
0.08360228054329441
0.07510890010406995
0.10040682519952074
0.09421977975699888
0.1266362729056667
0.12776798445158455
0.20514147516207024
0.18730720772984508
0.28964875015932784
0.27481905819273467
0.3127812468932243
0.3126383847862991
0.3459910657178494
0.33602926859131205
stress_iload_1 1 4000 float 
3.024353638379056 
2.9289441224541233 
2.7970095936392583 
1.3425231300901808 
3.160738083344143 
1.9350030693092843 
3.461849844456806 
2.4851360771407087 
3.783794993547882 
2.982790511967827 
4.158858382307992 
3.4650614080664752 
4.589480624125955 
3.94945463601981 
5.068052687446501 
4.4434240555406594 
5.584910724951336 
4.949372113844321 
6.131129497445659 
5.467140564236509 
6.699306523575528 
5.995387215630557 
7.283610934718807 
6.532356816502457 
7.879587652826347 
7.076289674684686 
8.483903946262062 
7.625614417226314 
9.09410766423563 
8.179017791227434 
9.708420007924595 
8.735449184078139 
10.325567191944286 
9.294094194490208 
10.944648161092857 
9.85433667927783 
11.565033080346847 
10.415719566524572 
12.186286897195961 
10.97790934739941 
12.808112705829563 
11.540666129393154 
13.430310387937118 
12.103819524747488 
14.052746814406332 
12.667249871205696 
14.675334651146022 
13.230873974956856 
15.298017472741725 
13.794634509362238 
15.920759436260083 
14.358492269919616 
16.543538207982753 
14.922420603006428 
17.16634018086232 
15.486401454108304 
17.789157284573133 
16.050422600883604 
18.411984888654075 
16.614475739441236 
19.034820446050915 
17.178555176116486 
19.657662631371252 
17.742656943265768 
20.280510804813545 
18.306778208240434 
20.903364687086377 
18.870916882548013 
21.526224168661255 
19.43507136609881 
22.14908920266621 
19.999240381522565 
22.771959748652172 
20.563422867768345 
23.394835746257964 
21.127617912309397 
24.017717105723122 
21.691824708075302 
24.640603707238075 
22.25604252607635 
25.26349540437568 
22.8202706978053 
25.886392028925272 
23.38450860354261 
26.509293395636377 
23.948755664235325 
27.132199306071055 
24.51301133537366 
27.755109551279915 
25.077275101898834 
28.37802391310798 
25.64154647356277 
29.0009421641365 
26.20582498033512 
29.623864066255347 
26.770110167609456 
30.24678936787412 
27.33440159106819 
30.8697177998299 
27.898698811065618 
31.492649070017144 
28.4630013865018 
32.115582856785764 
29.027308868185372 
32.73851880125375 
29.59162079172624 
33.36145649873906 
30.15593667009291 
33.98439548963355 
30.72025598609477 
34.6073352502578 
31.284578185113 
35.2302751844747 
31.848902668625193 
35.8532146171414 
32.41322878919702 
36.476152790859175 
32.97755584782329 
37.099088867897684 
33.54188309468317 
37.722021939554054 
34.10620973444324 
38.34495104555329 
34.670534937226755 
38.96787520611673 
35.23485785603986 
39.59079346885396 
35.79917765058334 
40.21370497119841 
36.363493515785784 
40.836609016054 
36.92780471041738 
41.459505152592094 
37.49211057632696 
42.08239324432229 
38.056410531021506 
42.70527349041052 
38.62070400440556 
43.3281463407676 
39.18499027260883 
43.95101220640539 
39.749268115917054 
44.573870808329154 
40.31353519095941 
45.196719923331514 
40.877786956412926 
45.81955316409563 
41.44201492294243 
46.442356262568175 
42.00620390875329 
47.06510109669958 
42.570327870020186 
47.687736398034495 
43.13434374198132 
48.31017369026266 
43.69818257964979 
48.93226653246416 
44.26173714724718 
49.55378058628041 
44.82484501447938 
50.174351432179186 
45.38726625393375 
50.793426513350894 
45.94865513478829 
51.41018725369015 
46.50852600731857 
52.02344757723318 
47.06621525456586 
52.6315262664391 
47.62084437081645 
53.23209372695995 
48.17129488412246 
53.82200035377744 
48.71621545855428 
54.39710672906977 
49.2540972526951 
54.95216097299418 
49.783478305425135 
55.4808171611025 
50.30337411219397 
55.97598476263392 
50.81407900567084 
56.43089359340724 
51.31852649641966 
56.84166189037214 
51.82437444503886 
57.213008233152145 
52.34669222451303 
57.570611411760446 
52.909983505507306 
57.98802189992855 
53.54464010578645 
58.64847515578227 
54.26232900947815 
60.007497676489216 
54.965164078720214 
63.31142562511534 
55.16312877593282 
73.01125561005293 
53.21032830827175 
4.057912506508631 
4.1600692490636275 
2.7620588287077847 
2.349490030235637 
2.5349421845197866 
1.784524730136845 
2.82299383119524 
2.0195313544168942 
3.239644322135864 
2.476955088433744 
3.693068900685898 
2.9757689560270117 
4.16525516528966 
3.4751682217920017 
4.652248178520211 
3.9682388941597715 
5.152288291036819 
4.4559673275647205 
5.663730352835501 
4.9407021240831375 
6.184851315179786 
5.42445832679008 
6.713963951535115 
5.908595305983491 
7.249526429956853 
6.393892306712709 
7.7902018435611335 
6.880711024043804 
8.334875517713666 
7.3691460492404355 
8.882645373339518 
7.859138067994393 
9.43279806716772 
8.350550355425582 
9.984779618823755 
8.843216503966016 
10.538165824217039 
9.336967937659114 
11.092635299331972 
9.831648216721177 
11.647946391371104 
10.32711922378051 
12.203918226107046 
10.82326267400456 
12.760415632032794 
11.319979152176296 
13.31733743696614 
11.817186016834865 
13.874607557790716 
12.314814942637154 
14.432168323380333 
12.812809512862348 
14.989975535412661 
13.31112305728031 
15.54799485299263 
13.809716805650043 
16.106199167944272 
14.308558360335883 
16.66456671084379 
14.807620458734403 
17.223079689357178 
15.306879984034492 
17.781723310482977 
15.806317180674096 
18.340485077332502 
16.3059150346686 
18.899354281027048 
16.805658784318954 
19.458321630643674 
17.305535533128186 
20.01737898069099 
17.805533942090534 
20.576519127455214 
18.305643983701177 
21.135735654235933 
18.805856743677108 
21.695022811412986 
19.306164259915484 
22.254375421666023 
19.806559390392916 
22.813788803540707 
20.307035703908053 
23.373258708560407 
20.807587388767818 
23.93278126857685 
21.308209175875138 
24.4923529509468 
21.808896273229983 
25.051970519737786 
22.30964430981142 
25.611631001719505 
22.810449286900198 
26.17133165610134 
23.31130753562877 
26.73106994727265 
23.812215679536813 
27.29084351993302 
24.31317060130728 
27.850650176127495 
24.81416941290161 
28.410487853807005 
25.31520942858468 
28.97035460667769 
25.81628814028873 
29.5302485851417 
26.317403195063378 
30.090168018290388 
26.818552374266282 
30.65011119706063 
27.31973357443913 
31.210076458772303 
27.820944789762656 
31.770062173493358 
28.322184096205905 
32.33006673285091 
28.8234496375218 
32.890088542107314 
29.324739613425933 
33.450126016543 
29.82605227026998 
34.01017758321181 
30.327385894748307 
34.570241689127045 
30.82873881096154 
35.13031681653335 
31.33010938121797 
35.690401504957066 
31.831496010462107 
36.25049437797501 
32.33289715371914 
36.810594169398584 
32.83431132478621 
37.37069973834546 
33.33573710282409 
37.93081005429867 
33.8371731308921 
38.490924120498576 
34.33861809700872 
39.0510407850195 
34.84007068321744 
39.6111583614234 
35.34152946175479 
40.171273942034084 
35.842992709000455 
40.731382233471926 
36.34445809824221 
41.29147367253008 
36.845922221671934 
41.85153148778244 
37.34737988268413 
42.41152725694356 
37.84882309493832 
42.97141437424774 
38.350239731962354 
43.5311186957543 
38.851611802213164 
44.09052549688491 
39.35291340038485 
44.649461802769814 
39.85410853978578 
45.20767322471324 
40.35514935660913 
45.76479480558863 
40.85597567613499 
46.320316294571484 
41.356517760246454 
46.87354414313003 
41.85670536511923 
47.423565976664044 
42.356488178886295 
47.96922931548797 
42.85587531725307 
48.50915629269439 
43.35500443324041 
49.04183190473422 
43.854252536670025 
49.565826973487695 
44.35439622913311 
50.0802494540242 
44.85680733802067 
50.58555496395026 
45.363604764346 
51.08487026238687 
45.8775184954788 
51.58593473320976 
46.400842971636095 
52.10350801436129 
46.932048430640776 
52.6613611702607 
47.45701324328364 
53.29137102916982 
47.9289260073083 
54.024222484639274 
48.226326545653805 
54.85880270797637 
48.073843889942594 
55.66250588798147 
46.91680534004434 
55.735980871989945 
43.86458425726797 
4.483509474582191 
4.5407382572486314 
3.544004547929985 
3.2947227699549204 
3.0238863813401102 
2.6337769755298672 
2.9642227599476962 
2.46969931109278 
3.1965050438265017 
2.630980939393934 
3.5624984119470056 
2.9547948470586545 
3.98378600788534 
3.3467066453362944 
4.42800863178365 
3.76251015184382 
4.882499518761723 
4.184006017560761 
5.342440566811024 
4.604746009108034 
5.8060682170057705 
5.023213874917157 
6.2727547648661 
5.439756146870216 
6.742248090098899 
5.855251842300435 
7.214384965143119 
6.270575083882623 
7.6889973666090805 
6.686413209426234 
8.165893887465197 
7.103237009358042 
8.644866676488554 
7.521329035743357 
9.125703880380026 
7.940827802485171 
9.608200377724424 
8.36177035202003 
10.09216496667572 
8.784127144198525 
10.577424220370078 
9.207828291825027 
11.063823834413894 
9.632782161078891 
11.55122832083094 
10.058887927221276 
12.03951973747067 
10.486043642015582 
12.52859594406772 
10.91415111614368 
13.01836870549119 
11.343118624856432 
13.50876183463328 
11.772862178268355 
13.999709478527938 
12.203305882128815 
14.491154594045128 
12.634381750721259 
14.983047624385597 
13.06602921386504 
15.475345368211565 
13.49819447504294 
15.968010023236882 
13.93082981909875 
16.461008382565538 
14.36389292829548 
16.95431116157344 
14.797346239641652 
17.447892434821252 
15.231156359441368 
17.941729164653708 
15.6652935408596 
18.43580080590152 
16.0997312239825 
18.930088973372683 
16.53444563462025 
19.424577161248163 
16.96941543628123 
19.91925050526823 
17.404621429379496 
20.41409558036722 
17.84004629152812 
20.909100227610956 
18.275674353456687 
21.404253405586402 
18.711491405361606 
21.899545062056244 
19.14748452935612 
22.394966022687235 
19.58364195402859 
22.890507893968948 
20.01995292793076 
23.386162978168116 
20.45640760905385 
23.881924198363542 
20.892996968011595 
24.37778503205071 
21.32971270279924 
24.87373945196991 
21.76654716351789 
25.369781873148252 
22.20349328553695 
25.86590710521808 
22.640544529942296 
26.36211030937109 
23.077694830177 
26.85838695935437 
23.51493854406988 
27.354732806194647 
23.952270410458496 
27.851143846365268 
24.389685509891045 
28.347616293368702 
24.827179228835565 
28.84414655277537 
25.26474722712738 
29.340731200974687 
25.70238540835514 
29.837366967898244 
26.14008989320341 
30.334050724165245 
26.5778569958371 
30.83077947290894 
27.01568320388559 
31.32755034647653 
27.45356516294938 
31.82436060760857 
27.891499667389212 
32.32120765395282 
28.3294836602304 
32.81808902326521 
28.767514246894724 
33.31500239451768 
29.205588730126827 
33.81194557672684 
29.64370467773293 
34.30891647268986 
30.081860040910996 
34.805912998128996 
30.520053350295928 
35.30293292815242 
30.958284030254426 
35.7999736316672 
31.39655289137919 
36.29703164103757 
31.834862888381 
36.7941019891941 
32.27322026839979 
37.29117723192155 
32.71163628585384 
37.788246063183436 
33.15012972752061 
38.28529143437444 
33.5887305780534 
38.78228811842828 
34.02748526279625 
39.279199741411446 
34.46646402899609 
39.77597547737387 
34.905771158703146 
40.272546930129366 
35.345558822269965 
40.76882630285099 
35.78604542707603 
41.26470791546964 
36.22753917969639 
41.760076633200846 
36.670467029349346 
42.25482896213698 
37.11540771761138 
42.74891542748124 
37.56312434219654 
43.242415809951474 
38.01458465903589 
43.735659906155654 
38.47094234176681 
44.22940053391925 
38.933421984409556 
44.72502070751552 
39.40299078031986 
45.22468879455766 
39.87958635209985 
45.731218153948966 
40.36046503769125 
46.24706548613696 
40.836887075531415 
46.77131296888483 
41.28782004313469 
47.29253532834648 
41.66865339297357 
47.77416691352692 
41.892399042181964 
48.12745670454133 
41.80174554752636 
48.164818807805844 
41.13704184305391 
47.5193074883572 
39.53617587435562 
45.47067858756711 
36.749698459533896 
4.628981256107582 
4.605278467949012 
4.103446576486657 
3.8646089659826046 
3.718973562582241 
3.4211483402856984 
3.547079475898294 
3.216839808443557 
3.592302388144587 
3.2064456701736446 
3.795118055891111 
3.340625654093012 
4.090882830666122 
3.568501308471617 
4.435819455243909 
3.8499281104414 
4.805386272987775 
4.158919437178591 
5.187104768796012 
4.4808710310663775 
5.575066893249696 
4.808482797905099 
5.966691145430348 
5.138576646770436 
6.360979815744328 
5.47008283879167 
6.757628644976075 
5.802893834660463 
7.156592489693007 
6.137259907592523 
7.557887069315128 
6.473495949862473 
7.961509006551713 
6.811856902620737 
8.367412326231245 
7.152499195710469 
8.775509665457182 
7.495482414236642 
9.185682452685684 
7.8407869235695555 
9.597792702365116 
8.188335329721431 
10.011693363287668 
8.538012281353504 
10.42723626291952 
8.889680588834914 
10.844277649111033 
9.243193339484638 
11.26268170544861 
9.598402437230606 
11.682322510042395 
9.955164248460644 
12.103084875567735 
10.313343050909582 
12.524864431659052 
10.672812894749454 
12.947567226223697 
11.033458366585794 
13.371109047044994 
11.395174630263925 
13.795414603631832 
11.757867018182221 
14.220416662543498 
12.121450365954985 
14.64605519501515 
12.485848221999506 
15.072276571770603 
12.85099201800297 
15.499032823161228 
13.216820254178442 
15.926280972176693 
13.583277730500708 
16.353982440878156 
13.950314840231416 
16.78210252698403 
14.317886932048909 
17.210609944965302 
14.685953741178235 
17.639476425317877 
15.054478886130969 
18.068676365180416 
15.423429425991975 
18.49818652407186 
15.792775472097762 
18.927985758687797 
16.16248984814724 
19.358054791578002 
16.53254779272029 
19.788376008891188 
16.902926698864032 
20.21893328324236 
17.273605885813446 
20.649711818056424 
17.644566398587315 
21.080698010473963 
18.015790831646875 
21.511879330132075 
18.387263173397702 
21.943244211702137 
18.758968668647988 
22.37478195924088 
19.13089369664795 
22.806482660823256 
19.503025662552155 
23.238337112041123 
19.875352900494047 
23.670336747318448 
20.24786458665626 
24.102473578022753 
20.620550660967766 
24.534740136687535 
20.99340175615938 
24.967129426655966 
21.36640913318294 
25.39963487677734 
21.739564622025533 
25.83225030079998 
22.112860567365786 
26.264969861431588 
22.486289778651475 
26.697788039097833 
22.85984548485279 
27.130699605880245 
23.23352129477438 
27.563699605380233 
23.60731116523072 
27.996783339966367 
23.981209381235107 
28.42994636765294 
24.35521055557107 
28.86318451237067 
24.7293096596562 
29.296493893426206 
25.1035021048314 
29.729870983337253 
25.47778390339736 
30.163312708165737 
25.852151953824766 
30.596816612125338 
26.22660451574895 
31.030381119386437 
26.60114196997347 
31.46400594253108 
26.975767998851694 
31.897692710708764 
27.350491375803614 
32.331445924162345 
27.72532862106193 
32.765274388297094 
28.10030786526272 
33.19919334387713 
28.475474360656783 
33.633227594055334 
28.85089818404373 
34.067416037548995 
29.226684767631745 
34.5018181519602 
29.60298893803189 
34.93652312883348 
29.98003307355279 
35.37166252715391 
30.35812969076098 
35.80742744263051 
30.737708047796207 
36.244091185092856 
31.11934287879348 
36.682038087667 
31.50378061351269 
37.12179784361459 
31.891953504896573 
37.56408164003914 
32.28496353481802 
38.009809228353035 
32.68400343420846 
38.46010087080034 
33.09015786418337 
38.9161773978134 
33.50398796263614 
39.37905283285788 
33.92473884496668 
39.8487982214108 
34.348912439100495 
40.32297901711889 
34.767810429946046 
40.793604884943136 
35.16348439793275 
41.24160035156037 
35.502395521927326 
41.62752534750463 
35.726184691396405 
41.87735844700764 
35.739831130203335 
41.86326174322875 
35.400614744053776 
41.38283482321341 
34.52106159132609 
40.150894629602945 
32.929273537339434 
37.85815351007 
30.715228179759556 
4.636135706511563 
4.526086460509916 
4.458368828929191 
4.203968462742388 
4.285034433332995 
4.0113754809314 
4.167000271974931 
3.8990506970248773 
4.148063006587535 
3.85967709974524 
4.234414936905504 
3.894125750082193 
4.4053128719529004 
3.994564863296694 
4.6339191910343285 
4.1459125909924 
4.898415876791824 
4.332374160165987 
5.184208469716001 
4.54135723621495 
5.482562463050786 
4.76433083964292 
5.788645835722279 
4.996143402422605 
6.099962984371876 
5.2339716976052015 
6.4153125677231495 
5.476414323669347 
6.7341567106841485 
5.722853257505115 
7.056263992323378 
5.97305326790825 
7.381520218936028 
6.226932281035163 
7.709836392153788 
6.4844418735626705 
8.04111011103508 
6.745513369747332 
8.375214530550045 
7.010040191633388 
8.7120001998203 
7.277878411945319 
9.051301842791682 
7.548855062509651 
9.392946064472996 
7.8227785499529 
9.736758164637731 
8.099448409039354 
10.082567418291354 
8.378663261607697 
10.43021076919768 
8.660226723082982 
10.779535141983134 
8.943951419419493 
11.130398661995574 
9.22966144476364 
11.482671070159867 
9.517193622008675 
11.836233580547209 
9.80639789710417 
12.190978378009177 
10.097137140937189 
12.546807904107597 
10.389286572267773 
12.903634037776706 
10.682732959646918 
13.261377243375383 
10.97737371488541 
13.619965733567872 
11.273115954289974 
13.979334675662185 
11.569875577407316 
14.339425457149225 
11.867576393073723 
14.700185017225868 
12.166149309316076 
15.061565245473538 
12.46553159409476 
15.42352244520095 
12.765666208238143 
15.786016857174282 
13.066501207946136 
16.149012238226053 
13.367989212476497 
16.51247548925834 
13.670086931275883 
16.876376326983966 
13.972754744848984 
17.240686994254233 
14.275956333411047 
17.60538200419214 
14.57965834798389 
17.97043791391447 
14.88383011879702 
18.335833124032526 
15.18844339658378 
18.70154770067458 
15.493472122661489 
19.067563217096776 
15.798892224291214 
19.43386261243486 
16.104681432091834 
19.800430065368847 
16.410819116816878 
20.167250880831563 
16.717286142947028 
20.534311388103266 
17.024064736970526 
20.9015988488624 
17.33113836832017 
21.26910137394167 
17.638491641280524 
21.63680784776802 
17.946110196273786 
22.0047078595694 
18.253980619254566 
22.37279164081967 
18.562090358176647 
22.741050008567793 
18.87042764612437 
23.109474314938264 
19.178981431283557 
23.47805640372261 
19.487741315348345 
23.846788576308096 
19.796697503704856 
24.215663570935934 
20.105840773955993 
24.584674562280107 
20.41516247378416 
24.95381519259538 
20.724654566260885 
25.323079652420308 
21.03430975078952 
25.69246283836542 
21.34412170275916 
26.06196062972548 
21.65408549577568 
26.431570345632085 
21.964198299429153 
26.801291472549394 
22.27446048469834 
27.171126790202194 
22.58487732096344 
27.54108407527011 
22.895461514528485 
27.911178628354513 
23.206236919282624 
28.281436952440306 
23.51724384267256 
28.65190200865836 
23.82854646616839 
29.022640581562005 
24.140242979617803 
29.393753385258826 
24.452479056690237 
29.765388601223066 
24.76546520794549 
30.13775949739224 
25.07949822711905 
30.511166527203013 
25.39498621146743 
30.886023657734796 
25.712475197566903 
31.26288730632938 
26.032672860287466 
31.642483633339705 
26.35646029992943 
32.02572514233161 
26.684875707037268 
32.41369909418969 
27.019042266621312 
32.80759576813038 
27.359995209264206 
33.20852044796604 
27.708337208024634 
33.61709400732791 
28.063615123386064 
34.03268688782075 
28.42326336440283 
34.452045308327484 
28.780903013325492 
34.866960314507715 
29.123735679389284 
35.26052710068415 
29.428767587565567 
35.601523573794815 
29.657742772296903 
35.83668436500952 
29.7511867993413 
35.88153222177496 
29.623404102582615 
35.61274125834178 
29.16393362035391 
34.8706752962186 
28.260024809349563 
33.49544679228164 
26.875509480426146 
31.46197135452139 
25.249580782180008 
4.567832317790589 
4.38114534847866 
4.6743469654544345 
4.40657605388679 
4.700286075149839 
4.439910455381837 
4.685558349423363 
4.44735422246277 
4.680426724035742 
4.441448958484077 
4.7166243463098105 
4.444877276725114 
4.803131081561197 
4.472977203920285 
4.9345164875299945 
4.530513904102604 
5.100307399646426 
4.615143056786274 
5.290450307691816 
4.721676552626736 
5.497261615483737 
4.8448137602394645 
5.715539388541701 
4.980302048920414 
5.942024783462134 
5.125145441416363 
6.174783333996103 
5.277401791524353 
6.4127052105943445 
5.435878255858969 
6.655157041685579 
5.599859265568422 
6.901760259847491 
5.768905668710912 
7.152259797030949 
5.942722425619446 
7.4064518466274345 
6.121079162574089 
7.664147798203113 
6.303766971785575 
7.925158993791626 
6.490578046771376 
8.189292614372073 
6.681298598342121 
8.456352889496278 
6.875708772828137 
8.726144341844332 
7.07358571628045 
8.998475337521633 
7.274707578968835 
9.273161136379574 
7.478857312314764 
9.550026154185968 
7.685825751092912 
9.828905418741925 
7.895413837044298 
10.109645325698702 
8.107434028493959 
10.392103842688597 
8.32171102375521 
10.676150310297631 
8.538081949847356 
10.961664969783023 
8.75639616095742 
11.248538321519323 
8.976514770325359 
11.536670393253164 
9.198310014334579 
11.825969974684133 
9.421664523790243 
12.116353857288845 
9.64647055664248 
12.407746104139736 
9.872629229833478 
12.700077364632799 
10.100049775019896 
12.993284241473669 
10.328648833361797 
13.28730871271748 
10.558349797696938 
13.582097608146743 
10.789082205788034 
13.877602137606932 
11.02078118501121 
14.173777467568437 
11.253386947019642 
14.470582341956641 
11.486844329581018 
14.767978742898036 
11.72110238227263 
15.06593158740774 
11.956113992411455 
15.364408456024853 
12.19183554758889 
15.663379349961964 
12.428226631290306 
15.962816473460313 
12.66524974831305 
16.26269403853766 
12.90287007691878 
16.562988089450265 
13.141055244885576 
16.8636763446484 
13.379775126841754 
17.164738054104237 
13.619001660545702 
17.46615387020881 
13.858708679880186 
17.767905730532263 
14.09887176253737 
18.069976751044376 
14.339468090532955 
18.372351128467425 
14.580476321888344 
18.67501405077139 
14.821876472005048 
18.977951615034616 
15.063649803691389 
19.281150752527004 
15.305778725278493 
19.584599161482554 
15.548246697260682 
19.888285249440035 
15.791038149313822 
20.19219808876651 
16.0341384119157 
20.496327392202474 
16.277533670329657 
20.800663519668227 
16.521210954265158 
21.10519753461846 
16.765158184516324 
21.409921338272838 
17.00936430973194 
21.714827924818074 
17.25381958313283 
22.019911821428526 
17.498516052417948 
22.32516980597704 
17.743448367820566 
22.63060203454008 
17.98861505546956 
22.936213762966357 
18.234020457399833 
23.242017913422917 
18.479677606513153 
23.548038818991465 
18.725612382903908 
23.854317574514198 
18.971869381572827 
24.160919522242303 
19.218519996854877 
24.467944488052392 
19.46567326939057 
24.775540422465006 
19.713489998481744 
25.083921025528763 
19.96220041386729 
25.393387634840103 
20.212125191106196 
25.704354947579837 
20.463698570882855 
26.01737873625292 
20.717490479766074 
26.33318114512415 
20.97422137070725 
26.65266472714491 
21.234758333776853 
26.976899087715058 
21.50007297986915 
27.307052435532036 
21.771129593553074 
27.644222688727655 
22.04865498926662 
27.989097015724155 
22.332718726712578 
28.341333231232674 
22.622024610886488 
28.698511911671112 
22.912785853135496 
29.054460892482894 
23.197038040874016 
29.39672342902493 
23.460261099353847 
29.70297298014089 
23.678285744731095 
29.936364162600057 
23.813758149201092 
30.040330963403356 
23.813150362301744 
29.93455184325282 
23.606905776740234 
29.516434757580537 
23.118800059848017 
28.678200540613147 
22.297804267800068 
27.36199878773091 
21.19730281487108 
25.696381354828116 
20.121984923655617 
4.460394355259015 
4.218561379244166 
4.796624309106446 
4.529189140457185 
4.989730513714634 
4.747952190424086 
5.079852204094628 
4.8654915339826434 
5.1185960249217946 
4.910031440576299 
5.146820608074418 
4.915971698950209 
5.188461380143879 
4.910500749698234 
5.253069464001549 
4.910220360767035 
5.341379527584945 
4.922817103295334 
5.450193045823646 
4.950284271234622 
5.575363338381971 
4.991746191858769 
5.7131728035298375 
5.045289501772643 
5.86075525033339 
5.108919263039335 
6.016073120075254 
5.180948096997756 
6.177741772912434 
5.26008414754031 
6.344837238685085 
5.345388176772635 
6.516737620082454 
5.436190894655699 
6.693008169018707 
5.532011782335222 
6.873324570963706 
5.632493991791637 
7.05742494916618 
5.737357486782392 
7.245081652206676 
5.846367776266855 
7.436085824804364 
5.959316383886736 
7.630239775663399 
6.076009475168278 
7.827353809780988 
6.196261812187934 
8.02724541155652 
6.3198939843355975 
8.229739506175594 
6.4467315169705515 
8.434669079032176 
6.576604953150211 
8.641875779684273 
6.709350353431484 
8.851210344205446 
6.8448098944986295 
9.062532786874506 
6.982832399663009 
9.275712372462902 
7.123273727546609 
9.490627407170427 
7.2659969998043925 
9.70716489391646 
7.410872677333062 
9.925220095603818 
7.557778507987561 
10.144696043387286 
7.706599372751806 
10.365503019216828 
7.857227056649905 
10.58755803439217 
8.009559967379367 
10.810784319469686 
8.163502820811345 
11.03511083560871 
8.318966308262047 
11.26047181345628 
8.475866757076883 
11.48680632285016 
8.634125792808856 
11.714057874415094 
8.793670009052018 
11.942174052873359 
8.954430648888941 
12.171106180885658 
9.116343300615606 
12.40080901177447 
9.279347609210097 
12.631240449190923 
9.443387004369255 
12.8623612916253 
9.608408445184457 
13.094134999718678 
9.774362181348664 
13.326527484341772 
9.941201530279887 
13.559506913560575 
10.108882669583508 
13.793043536654844 
10.277364443916161 
14.027109523501174 
10.446608185408842 
14.261678817780165 
10.616577546583555 
14.496727002501373 
10.787238344769808 
14.732231176485909 
10.958558416875547 
14.968169840551768 
11.130507483470474 
15.204522792309293 
11.303057021067223 
15.441271028661419 
11.47618014172661 
15.678396655519979 
11.649851479250378 
15.915882804779088 
11.824047081853815 
16.153713559602835 
11.99874431196858 
16.391873890635857 
12.17392175541032 
16.63034960819974 
12.349559144365934 
16.86912733933567 
12.525637302412266 
17.108194544339362 
12.702138125128997 
17.34753959592622 
12.879044618091141 
17.58715195658182 
13.056341025544025 
17.827022507275675 
13.23401309953222 
18.067144105422464 
13.41204858178882 
18.30751248354408 
13.590438000984786 
18.548127644872643 
13.769175927359006 
18.7889959698652 
13.948262876432143 
19.030133319320743 
14.127708112959056 
19.27156950415229 
14.307533672976778 
19.513354583298543 
14.48777998794812 
19.755567535953812 
14.668513545227887 
19.998327905042956 
14.849837024107506 
20.24181097547166 
15.031902256174666 
20.486266847321943 
15.2149260887371 
20.732043249202576 
15.399208647114122 
20.979610885893127 
15.585152389342944 
21.22958818301223 
15.773278418111833 
21.48275897161316 
15.964233318972695 
21.7400712307362 
16.1587747319788 
22.002596528005256 
16.357716181346344 
22.271417135912323 
16.561800560584068 
22.547389858428925 
16.771456474650073 
22.83071188456021 
16.986372592144036 
23.120185794928524 
17.204804626192697 
23.412053503876038 
17.42251447714616 
23.69825552161201 
17.631247047147856 
23.963999387971278 
17.816708349172387 
24.184639948345406 
17.95617715324038 
24.32217543028882 
18.016270693199694 
24.32231295580173 
17.95220354358713 
24.114371768594964 
17.71154392272992 
23.618903242814753 
17.248751959632337 
22.772992711278675 
16.562535635033136 
21.59179623056152 
15.7732677333879 
20.288226638299026 
15.23409391151283 
4.339718570433677 
4.075583035859355 
4.8546906064666 
4.607662036004696 
5.177836458679835 
4.965517057562247 
5.3562400877918614 
5.168801227690004 
5.443005817832118 
5.259232402900914 
5.482412761841184 
5.278684075761587 
5.5052769409753886 
5.260684913962361 
5.529717214507833 
5.228331736241642 
5.564398362627817 
5.195480133887851 
5.612125846559874 
5.169208889482651 
5.672664091159036 
5.152297911094365 
5.744527358528333 
5.14514388270838 
5.825943632095109 
5.147018789100751 
5.915289476899058 
5.156798818427572 
6.011235140564668 
5.173337524952217 
6.112752163205032 
5.195627500801612 
6.219067503161959 
5.222848639315202 
6.329605280767659 
5.25436218120017 
6.443933550244441 
5.2896831847099355 
6.561721692481171 
5.3284479265965565 
6.682708739181119 
5.370383693956123 
6.806680956527611 
5.415283691734955 
6.9334565622999795 
5.46298749361755 
7.062875625961274 
5.513366471267128 
7.194793577510684 
5.56631330490901 
7.329077142393289 
5.621734658530304 
7.465601855078521 
5.679546213749279 
7.604250566462603 
5.739669406867906 
7.744912554246737 
5.802029362343607 
7.887482983388793 
5.866553644294854 
8.031862558123532 
5.933171551922 
8.177957270507537 
6.0018137651757035 
8.325678190794267 
6.072412207129862 
8.47494127082164 
6.144900033108291 
8.625667146709729 
6.219211687809444 
8.777780936052643 
6.295282992830906 
8.931212029376924 
6.373051241888074 
9.085893877970951 
6.4524552904588885 
9.241763780739133 
6.533435632927647 
9.398762672977979 
6.615934464166722 
9.556834919394209 
6.6998957249012605 
9.71592811338184 
6.785265131505173 
9.875992883906076 
6.8719901916468515 
10.036982711015012 
6.960020207412069 
10.198853750537614 
7.049306267741335 
10.361564668292294 
7.139801231805153 
10.52507648377698 
7.231459704933251 
10.689352423315698 
7.324238008441965 
10.854357782263515 
7.418094144594115 
11.020059796038142 
7.512987757692084 
11.186427519387143 
7.60888009214865 
11.353431713489273 
7.705733948173467 
11.521044740247845 
7.803513635589109 
11.689240463241312 
7.902184926064608 
11.857994154648273 
8.001715003986174 
12.02728240760869 
8.102072415963264 
12.197083053421906 
8.203227019013074 
12.367375083297762 
8.305149927358409 
12.538138574573752 
8.407813458045796 
12.70935462207776 
8.511191075861017 
12.881005276240266 
8.615257338855617 
13.053073491431986 
8.719987847042681 
13.22554309059492 
8.82535919895538 
13.39839875657889 
8.931348964035864 
13.571626066795577 
9.037935683843022 
13.745211597194828 
9.145098922323774 
13.919143134815615 
9.252819395910276 
14.093410057037094 
9.36107922870865 
14.268003961504618 
9.469862398000208 
14.442919665572038 
9.57915546145454 
14.618156739587823 
9.688948691255936 
14.793721795974797 
9.799237781801056 
14.969631825519503 
9.910026346161086 
15.145918951034274 
10.021329468557305 
15.322637048320585 
10.133178628077559 
15.499870748169645 
10.24562833761903 
15.677747348573032 
10.35876482477958 
15.856452076822444 
10.47271697248729 
16.03624685211774 
10.587669462821873 
16.217492059183993 
10.703877511326441 
16.40066961718276 
10.821681563613758 
16.58640346482347 
10.941518587076228 
16.77546997758894 
11.063923748440308 
16.96878510012577 
11.189511800145645 
17.167346254792474 
11.318920735089883 
17.372094446502363 
11.452690460866458 
17.583644753653985 
11.591035820162379 
17.801811924945586 
11.733456531307283 
18.024834971947428 
11.878109221315823 
18.248188489350813 
12.02085678280625 
18.462876137704804 
12.153926696174606 
18.653165159433005 
12.264190852301184 
18.79389428684508 
12.331295223001252 
18.847861422371896 
12.326344832878357 
18.764529698536627 
12.212823326521457 
18.482678338109558 
11.953357923154783 
17.942243132757742 
11.529651759056058 
17.115337625271387 
10.988826468545286 
16.072831981960377 
10.529750108319895 
15.096061973724122 
10.588326604915657 
4.225983173556652 
3.982910561102504 
4.867776391913792 
4.664913759815312 
5.2823424587742105 
5.112189014446443 
5.525393876681667 
5.370545196200634 
5.651775211865017 
5.492179290354262 
5.707112205097537 
5.5238644248618245 
5.725169804173075 
5.502502450113907 
5.728403258996538 
5.454430283317016 
5.730158159449353 
5.396736175426198 
5.737337571165067 
5.339406652784257 
5.752779473748743 
5.287520459537067 
5.777029077726316 
5.243073505057914 
5.809501280053063 
5.206308067607313 
5.849167770889241 
5.176588878353566 
5.894924218088251 
5.152933172654478 
5.945762869010064 
5.134304390316613 
6.000836292699853 
5.1197570771602825 
6.059465324941386 
5.1084944862420745 
6.12112175711204 
5.099878687066695 
6.185402229825842 
5.093417410592138 
6.252001541580634 
5.088741565637294 
6.320688991847616 
5.085580939555037 
6.391288955029459 
5.083741765289154 
6.4636656903215455 
5.083087654198938 
6.537711875287103 
5.0835242177807185 
6.61334018699203 
5.084987121244971 
6.6904772634043574 
5.087433069977727 
6.7690594610972585 
5.090833172289306 
6.849029932304566 
5.0951681556190245 
6.930336648414845 
5.100424986600774 
7.012931088260551 
5.106594528732685 
7.096767383968643 
5.113669951002191 
7.181801775413886 
5.121645669403344 
7.267992268229129 
5.130516659778652 
7.355298423119029 
5.140278024623289 
7.443681227196759 
5.150924730340567 
7.533103015029845 
5.162451456631872 
7.623527418220208 
5.174852517983254 
7.714919330279843 
5.188121830274252 
7.807244878713211 
5.20225290477121 
7.9004713996090095 
5.217238857991174 
7.994567412226704 
5.2330724302738005 
8.089502592353451 
5.2497460085980885 
8.185247744026269 
5.267251651129117 
8.28177476971407 
5.285581112083602 
8.379056639141892 
5.304725866177634 
8.477067357199218 
5.32467713234618 
8.575781931229484 
5.345425896686592 
8.675176338082062 
5.366962934586887 
8.775227491182067 
5.38927883214448 
8.875913207816447 
5.412364006784906 
8.977212176748253 
5.4362087271607535 
9.079103926230575 
5.460803132140137 
9.181568792365903 
5.486137248774955 
9.28458788776929 
5.512201008957256 
9.388143070414626 
5.538984264552381 
9.492216912677875 
5.566476800652275 
9.596792670677663 
5.594668346834518 
9.701854254466173 
5.623548586371657 
9.807386200200728 
5.6531071639446715 
9.913373646636792 
5.683333693088291 
10.019802320089127 
5.714217766038685 
10.126658534948 
5.745748970733156 
10.233929221230213 
5.777916923032479 
10.341601997296534 
5.810711327090924 
10.449665315416079 
5.844122083918314 
10.558108721594973 
5.878139478119727 
10.666923290080847 
5.912754486668601 
10.776102319013464 
5.947959272063265 
10.885642408082907 
5.983747946449945 
10.995545083613392 
6.020117723850175 
11.105819191612603 
6.057070614580158 
11.21648434454944 
6.094615857908028 
11.32757577887514 
6.132773332379386 
11.439151048274585 
6.171578219964606 
11.551299023441292 
6.211087215777515 
11.664151658635257 
6.2513865439009555 
11.777898859748932 
6.292601919866383 
11.892806452345022 
6.334910323934797 
12.009236549469108 
6.378552911220232 
12.127668326029784 
6.423847423229481 
12.248714974698068 
6.471196837089068 
12.373128955309003 
6.521088332570674 
12.501781885278747 
6.574072451559932 
12.63559670868638 
6.630705849949464 
12.775397211948109 
6.69143139694281 
12.921622881411293 
6.756355682928613 
13.07383599400607 
6.824866101758155 
13.229926054428269 
6.895009969599591 
13.38490371066215 
6.96254553586271 
13.529192638080561 
7.019592093006446 
13.64641142012293 
7.052902797980644 
13.710850080338604 
7.042054487323718 
13.685284568920533 
6.958477607427836 
13.520602799090796 
6.767640687331813 
13.160276475294856 
6.439910231723508 
12.555771969135565 
5.983375743262246 
11.705072162417407 
5.527340838755134 
10.735752460158853 
5.468230990539072 
10.041318405758 
6.42168587082508 
4.134252245855945 
3.9628796427563997 
4.84786448759198 
4.714478981457771 
5.31457905669609 
5.199278862633261 
5.595885215890548 
5.479181606007059 
5.747674378425642 
5.612716827886271 
5.815880036117081 
5.649325363345593 
5.835186341887605 
5.627253979608768 
5.82977830420002 
5.573869501658403 
5.815192325590091 
5.50729891566554 
5.800511151309962 
5.438558111297961 
5.790402533708976 
5.373626414295249 
5.786754891320533 
5.315183524426705 
5.789857023704782 
5.263918043455494 
5.7991790536855605 
5.2194338418952135 
5.813851218967531 
5.180832923386413 
5.832934733420314 
5.147063131075197 
5.855559669384874 
5.117107455908245 
5.880983140043132 
5.090073414200563 
5.908602938630399 
5.06522341799855 
5.937948536489908 
5.041973024337958 
5.9686623743441105 
5.01987377344582 
6.00047863451214 
4.998590418017396 
6.033203158415569 
4.977877889290281 
6.066696108305477 
4.957560603050435 
6.100857824373575 
4.937515104303305 
6.135617739860799 
4.9176561710619335 
6.170925954582984 
4.897926063672367 
6.2067469877919175 
4.878286432109953 
6.243055246014914 
4.858712363046704 
6.279831799155762 
4.839188089131493 
6.317062129498167 
4.819703953990293 
6.354734588751289 
4.800254303723884 
6.392839360266817 
4.7808360481408885 
6.431367775081078 
4.761447696977969 
6.470311871318861 
4.742088727009393 
6.509664117877379 
4.722759175606435 
6.549417246849033 
4.7034593863875624 
6.589564156345619 
4.684189855119013 
6.630097857743199 
4.664951140196956 
6.671011450068481 
4.6457438137476155 
6.712298110319062 
4.626568437465743 
6.753951092575888 
4.607425552923391 
6.7959637315143535 
4.588315679898955 
6.83832944769367 
4.569239318662301 
6.881041753226759 
4.550196953977434 
6.9240942570335235 
4.531189059404716 
6.9674806693386255 
4.512216101230196 
7.011194805379906 
4.493278541713607 
7.055230588295354 
4.474376841487624 
7.099582051322162 
4.455511461104413 
7.1442433392889235 
4.436682861696259 
7.189208709555725 
4.417891504792043 
7.234472532331526 
4.3991378512259995 
7.280029290419199 
4.380422359165398 
7.325873578328813 
4.361745481215527 
7.372000100820437 
4.343107660680713 
7.418403670978645 
4.324509327170781 
7.465079208275865 
4.3059508920390295 
7.5120217374305565 
4.287432744620443 
7.559226389813904 
4.268955251079169 
7.606688410393726 
4.250518758935357 
7.654403175395421 
4.232123612421528 
7.702366229098069 
4.213770186895759 
7.750573353088693 
4.195458955076805 
7.799020688519936 
4.177190604605044 
7.847704942310001 
4.158966235928519 
7.896623722821349 
4.140787682920362 
7.945776070815868 
4.122658017036356 
7.995163278756625 
4.1045823206014935 
8.044790127405221 
4.086568847289816 
8.094666714471037 
4.068630729231296 
8.144811106161637 
4.050788440740588 
8.195253107620037 
4.033073287194812 
8.246039517618522 
4.015532249628138 
8.297241295657585 
3.998234571037125 
8.348963104913043 
3.981280499716304 
8.401355664767184 
3.9648125730286345 
8.454631188898885 
3.949029672458466 
8.50908179654115 
3.934203710553972 
8.565100004502474 
3.920698068967258 
8.623198989812757 
3.908985558432298 
8.684027892099289 
3.8996613638474535 
8.74837347574828 
3.8934426612956323 
8.817133271412779 
3.8911406432586726 
8.891235934057706 
3.8935816487142714 
8.971470939514766 
3.901440913996191 
9.058171053843735 
3.914934234359188 
9.150667500531013 
3.9332895425473287 
9.24641270312938 
3.9538945384330786 
9.339648894137216 
3.9709958617111627 
9.41951525337267 
3.9738271761415054 
9.467573352320716 
3.9440984095363416 
9.454956324104671 
3.8529291483152566 
9.339806026136959 
3.657605006843899 
9.06651771986296 
3.2990529612723103 
8.57000395584294 
2.7020505614610126 
7.792295309568186 
1.7858342430611576 
6.73149059477117 
0.6306798655557413 
5.585581501053714 
1.7075899174018359 
5.0918777758887055 
4.189638832183717 
4.073469138661028 
4.0257537518479865 
4.801082602942348 
4.761976211787745 
5.2804371101054555 
5.2312591755734985 
5.572774653713392 
5.498098826951212 
5.733505392448016 
5.622693983068831 
5.807992595706014 
5.654849451272185 
5.830529608090491 
5.632298584169857 
5.82526175330571 
5.581554316335011 
5.808026345061031 
5.519914602264207 
5.788413214704679 
5.4577515548339015 
5.771645720160503 
5.4006077298337924 
5.7601029714668455 
5.350892926723671 
5.754447440021654 
5.309140895389416 
5.754400935734895 
5.274873520923945 
5.759243491388448 
5.247155009523339 
5.768112100495471 
5.2249216154296505 
5.780164577847726 
5.207159931388344 
5.794658003436127 
5.192989426728961 
5.8109764398722845 
5.1816884677066 
5.828630823205673 
5.172689768220797 
5.847245340731493 
5.165561461653621 
5.866538743098981 
5.159983284551689 
5.8863052289800315 
5.155723007056799 
5.906397182819976 
5.152615555473428 
5.926710659627435 
5.150545703419281 
5.947173747872003 
5.149434358172233 
5.967737561928756 
5.149228059609523 
5.988369461197243 
5.149891156544725 
6.009048063212553 
5.151400111688447 
6.0297596504031725 
5.153739440701824 
6.0504956292816106 
5.156898871180122 
6.071250765642567 
5.160871391124067 
6.092021980253023 
5.165651932718557 
6.112807541804065 
5.171236501323822 
6.1336065363682994 
5.177621610873101 
6.154418526042804 
5.184803926555032 
6.175243334621334 
5.1927800451311725 
6.196080917040035 
5.201546365146152 
6.216931282855338 
5.211099014533996 
6.23779445380168 
5.221433814215944 
6.258670442167705 
5.232546263627779 
6.279559241475583 
5.244431539261177 
6.30046082405482 
5.25708450056985 
6.321375142107855 
5.270499699850156 
6.34230213040575 
5.284671394029312 
6.363241709395462 
5.299593557171895 
6.3841937881339375 
5.315259893038343 
6.405158266794617 
5.331663847294029 
6.426135038575439 
5.348798619153586 
6.447123991019929 
5.3666571723598695 
6.468125006705561 
5.385232245358055 
6.489137963377342 
5.404516360687497 
6.510162733494943 
5.424501833520304 
6.531199183297267 
5.445180779438204 
6.552247171450647 
5.466545121622957 
6.573306547544971 
5.488586597800653 
6.594377150873269 
5.511296767583444 
6.615458810368009 
5.534667021308662 
6.636551347203502 
5.558688592159979 
6.657654582679873 
5.5833525743902435 
6.678768355609316 
5.608649951961748 
6.699892556038365 
5.634571644181396 
6.721027185940256 
5.661108578084482 
6.742172463115261 
5.688251801879639 
6.763328992735482 
5.715992660243588 
6.784498042508026 
5.744323061102954 
6.80568197361946 
5.7732358758800055 
6.826884901769175 
5.802725531525966 
6.84811369228251 
5.832788874512586 
6.869379432080616 
5.863426414942025 
6.890699570469843 
5.894644094107715 
6.912100980563766 
5.926455761121599 
6.9336242619497925 
5.958886592204978 
6.955329677433566 
5.9919777358560475 
6.977305179688235 
6.025792509107997 
6.999677013687527 
6.060424487520254 
7.022623335032788 
6.096007794056616 
7.04639109083544 
6.1327297488862165 
7.071315951682746 
6.170845711454743 
7.09784417638612 
6.210695299148564 
7.126553654653245 
6.252718007357898 
7.158168590255599 
6.297464292415511 
7.193557763772629 
6.34559499355056 
7.233699239240626 
6.397856988265346 
7.2795837283599045 
6.455015464254048 
7.332013470322874 
6.517712344547421 
7.391232559067468 
6.586205667285501 
7.456298451552898 
6.659926687766477 
7.524076267588121 
6.7367739955120305 
7.5877172440964875 
6.812058658959712 
7.634491594112617 
6.877049195295284 
7.6429212784611265 
6.917197397183535 
7.57934963110204 
6.910458818598798 
7.394430768096872 
6.826825079185403 
7.020505574752892 
6.631590510473309 
6.371355098666038 
6.297898396205297 
5.3462269781109235 
5.841286199429361 
3.84009623789379 
5.402394010045278 
1.7617045306516723 
5.380252728126573 
0.9528079077392246 
6.359586241276616 
4.045118398873593 
4.167796546328103 
4.72819389544849 
4.805653297848945 
5.1810067377120275 
5.206358487037 
5.457505915002923 
5.425748734882506 
5.610690119624103 
5.521328622130803 
5.684344758735509 
5.540679220594393 
5.711171713400797 
5.518848033225711 
5.713764424780631 
5.479434291243125 
5.7066381613243635 
5.436988805149318 
5.698395570373664 
5.399576613662131 
5.693609330000588 
5.37098433468123 
5.694284989700161 
5.352402805487333 
5.700910798977034 
5.343598635289084 
5.7131627792174235 
5.343667916740727 
5.730349110092071 
5.351483934392159 
5.7516712606153835 
5.365938730840447 
5.776364002172451 
5.38605555983436 
5.803759966030363 
5.411026237489139 
5.833310156999653 
5.44020860592471 
5.864580855215282 
5.473105643439983 
5.897239497872948 
5.509338535657822 
5.931036847953274 
5.548620170854563 
5.965789366533137 
5.590732007008596 
6.001363634076076 
5.635505271295827 
6.037663469118861 
5.682806417255027 
6.074619750982613 
5.7325262957263 
6.112182648075955 
5.784572343943995 
6.1503158428115805 
5.838863110517974 
6.188992337649884 
5.895324521684239 
6.228191470390999 
5.953887405842469 
6.267896828978701 
6.014485902464409 
6.308094819955213 
6.077056476740749 
6.3487737022653015 
6.1415373380925695 
6.389922946242384 
6.207868120598038 
6.431532815775857 
6.275989727657141 
6.473594101137853 
6.345844275453399 
6.51609795159761 
6.417375092200612 
6.559035773150663 
6.4905267460134795 
6.602399167702521 
6.565245084342678 
6.646179898228448 
6.641477275169316 
6.690369869701027 
6.719171844102759 
6.7349611193329375 
6.798278704762883 
6.779945812031223 
6.878749181018942 
6.8253162386052315 
6.96053602105636 
6.87106481521297 
7.043593403366355 
6.917184083180273 
7.127876935428702 
6.963666708729456 
7.213343645549913 
7.010505482308045 
7.299951968765631 
7.05769331737091 
7.387661727300891 
7.105223248593066 
7.476434106364796 
7.153088429386551 
7.566231625772886 
7.201282128806514 
7.657018108052836 
7.249797727796553 
7.7487586435006355 
7.298628714910788 
7.841419552825492 
7.347768681700568 
7.934968347979751 
7.397211318160506 
8.029373692039313 
7.446950408897031 
8.124605359080443 
7.496979831205388 
8.220634195614084 
7.54729355697516 
8.31743208559677 
7.597885661527555 
8.414971922189075 
7.64875034419475 
8.513227590701744 
7.699881968122677 
8.612173969547186 
7.75127513057602 
8.711786958888581 
7.802924780534347 
8.812043551382843 
7.854826408324845 
8.912921965525557 
7.906976343002323 
9.014401871116613 
7.959372208586782 
9.116464748395863 
8.012013610883969 
9.219094439004714 
8.064903154251885 
9.322277968822357 
8.118047923352119 
9.426006751422387 
8.171461609871185 
9.530278317178624 
8.225167518505689 
9.635098757623588 
8.279202748263534 
9.740486126435941 
8.333623909174758 
9.846475094515935 
8.388514788766859 
9.95312320885764 
8.443996404982332 
10.060519138379348 
8.50023983268905 
10.168793276510646 
8.557482002622914 
10.278130962728227 
8.616044235525393 
10.388788304780503 
8.676352418291058 
10.501110005074677 
8.738956189062794 
10.61554752399706 
8.80454188004018 
10.73267405615931 
8.873929701212921 
10.853189720867862 
8.948038950496642 
10.97790546562212 
9.027794898593053 
11.10768663660147 
9.11393629330676 
11.243326004937078 
9.206662288901395 
11.385300345601774 
9.305032412338443 
11.53334434626762 
9.406006795001462 
11.685753287038196 
9.502998137729929 
11.838311354231921 
9.583829219837153 
11.982761988312554 
9.62810369326199 
12.104850340506719 
9.604288935566464 
12.1822909999865 
9.467381640510657 
12.183713530132067 
9.158983965060052 
12.070834066585709 
8.613239107212422 
11.807769584332016 
7.775810544447198 
11.383625378464965 
6.655477884482142 
10.85721456081969 
5.472220482779098 
10.429802697997314 
5.002241879391242 
10.507727436685983 
4.042401759283847 
4.373077023942154 
4.624567156614928 
4.8364147934792046 
5.012821668172024 
5.116415185150369 
5.248156830952861 
5.25576555732239 
5.379275731994891 
5.305625261769582 
5.447081542995172 
5.308091308368901 
5.481183136960908 
5.292534008075115 
5.500931481852787 
5.276949184675617 
5.517846215339249 
5.270844851684232 
5.538079027045307 
5.278158621284222 
5.5644073030603955 
5.299597207074143 
5.597659082229427 
5.334257545976421 
5.63764479683167 
5.380620600766358 
5.683722000141201 
5.437088688206586 
5.7351122774861985 
5.5022316137407445 
5.791062662677992 
5.574867297443347 
5.850915630787879 
5.654059446220585 
5.9141289623142175 
5.739080788265643 
5.9802705862681504 
5.829367571141262 
6.049002850368659 
5.924477313191431 
6.120064016442296 
6.024054260141516 
6.193250816802719 
6.127803224395338 
6.26840365507286 
6.23547083292337 
6.34539483084386 
6.346832673025805 
6.424119580736597 
6.4616848242877625 
6.504489491485116 
6.579838485964129 
6.5864277893684315 
6.701116690665286 
6.6698660492606185 
6.825352361764957 
6.754741940955192 
6.952387194752018 
6.840997711746911 
7.082071014228396 
6.928579178347969 
7.21426138403929 
7.017435063162659 
7.348823335047225 
7.10751655805201 
7.485629133904317 
7.198777035340325 
7.624558052926866 
7.291171851997445 
7.765496124232439 
7.38465821161968 
7.908335873791588 
7.479195061366395 
8.052976037865339 
7.574743009822774 
8.19932126709607 
7.671264256951282 
8.347281824165398 
7.76872253126501 
8.496773280556045 
7.86708303105789 
8.647716217047469 
7.966312368365251 
8.800035931489292 
8.066378514597533 
8.953662156416959 
8.167250747673695 
9.10852878823499 
8.268899600258012 
9.264573628994283 
8.371296809262372 
9.421738141262786 
8.474415266349256 
9.579967216137119 
8.578228969634685 
9.739208954263832 
8.682712976380015 
9.899414459456873 
8.787843356778785 
10.060537644364395 
8.893597148698742 
10.222535047649956 
8.999952313446638 
10.385365662039694 
9.10688769247893 
10.54899077263121 
9.214382965176863 
10.713373804946952 
9.32241860781229 
10.878480182276475 
9.430975854134207 
11.044277192043982 
9.540036658111337 
11.210733861292349 
9.64958366005111 
11.377820841677849 
9.75960015784064 
11.54551030515335 
9.870070086324509 
11.713775852428835 
9.980978009271068 
11.882592437770239 
10.092309131076933 
12.051936315838041 
10.204049338625113 
12.221785019407976 
10.316185289117382 
12.392117381242288 
10.428704566768223 
12.562913619894289 
10.541595941661756 
12.734155518122225 
10.654849778089513 
12.905826735264238 
10.768458658994629 
13.077913311975372 
10.882418318686488 
13.250404448991683 
10.996729009367119 
13.42329367200581 
11.111397469197295 
13.596580534254375 
11.226439711185558 
13.770273057577645 
11.341884911692931 
13.9443911719914 
11.457780740964257 
14.118971480732258 
11.5742005357607 
14.294073746498688 
11.691252747292207 
14.469789551892505 
11.809093071948446 
14.6462536082765 
11.927939529543947 
14.82365812818284 
12.048090397498022 
15.002270463040423 
12.169944185270927 
15.18245371847893 
12.29401949963478 
15.36468910038569 
12.420970339176899 
15.549597014339536 
12.55158851659687 
15.73795097937203 
12.686778751568514 
15.930673540562083 
12.827482430671251 
16.128795590257106 
12.974511763090225 
16.333348490333247 
13.128235743356889 
16.54514045917958 
13.288032493690404 
16.76434321153857 
13.451391808696394 
16.98978146796611 
13.612527885959125 
17.217781171722187 
13.760374903519866 
17.440410491144856 
13.875954166410558 
17.642994736949444 
13.929446588838763 
17.801035156375434 
13.878051536612357 
17.87738352826481 
13.666957852873736 
17.822071116242405 
13.237370031213732 
17.579378363745434 
12.547584087080217 
17.108347841155467 
11.61682335200235 
16.423091671736678 
10.607242912772268 
15.657134920993661 
9.942138181717933 
15.139060692202925 
4.050215428108846 
4.6177773120350185 
4.479775767365932 
4.837149372314561 
4.767845561245895 
4.946062907296789 
4.940015208841742 
4.977320113043962 
5.0390706196120245 
4.972130117835363 
5.101124591513449 
4.962258567559136 
5.150434297070875 
4.966822530094108 
5.200821585911398 
4.99436525506918 
5.2588123318163325 
5.046429475918732 
5.326571397077675 
5.120861741491099 
5.404030985722682 
5.214153095046079 
5.490203356394129 
5.322772781962413 
5.583882294734257 
5.443751744756909 
5.68395938793939 
5.5748204720379295 
5.78952881556994 
5.714335086912698 
5.899891483764941 
5.861133416000625 
6.014520370011111 
6.014391500812338 
6.133017607821475 
6.173507615108095 
6.255076196075385 
6.3380187213844845 
6.380450293424269 
6.507545042114067 
6.50893405501883 
6.681755820404614 
6.640347495655929 
6.860349685282943 
6.7745275755274 
7.043044383393058 
6.911322903368744 
7.229572104753505 
7.050590798422548 
7.419677873699576 
7.192195798794715 
7.613119414782616 
7.3360089935932296 
7.809667559553512 
7.481907776699378 
8.009106693065752 
7.62977577817857 
8.211235007652752 
7.779502835831087 
8.415864488700288 
7.930984938523699 
8.622820640165228 
8.084124114205432 
8.831941996295681 
8.23882825942854 
9.043079477746785 
8.395010918382878 
9.256095648460697 
8.552591024521286 
9.470863921095695 
8.711492618053391 
9.687267748557911 
8.871644551305936 
9.905199828844015 
9.032980191665752 
10.124561341822364 
9.195437129298666 
10.345261229442503 
9.358956894798721 
10.567215525606654 
9.52348469003293 
10.790346738108026 
9.688969134060175 
11.014583282431575 
9.855362024931296 
11.23985896540714 
10.02261811747735 
11.46611251589937 
10.190694916674714 
11.693287158919153 
10.35955248588215 
11.921330229627962 
10.529153268985707 
12.150192823446046 
10.69946192555674 
12.379829478853596 
10.87044517796751 
12.610197889532454 
11.042071669451477 
12.841258642882224 
11.214311832220275 
13.07297498206334 
11.387137764736025 
13.305312589194154 
11.560523117346033 
13.538239387362713 
11.734442985622145 
13.771725359625625 
11.908873810880557 
14.005742383196383 
12.083793287532579 
14.240264077570618 
12.25918027732324 
14.475265665496979 
12.435014730811215 
14.71072384634954 
12.611277617249948 
14.94661668195107 
12.78795086496496 
15.182923495960514 
12.965017315828543 
15.419624789150367 
13.142460699665364 
15.656702174932962 
13.32026563768266 
15.894138342263824 
13.498417688668725 
16.13191705723985 
13.6769034585426 
16.37002322053583 
13.855710803208572 
16.608443006344753 
14.03482916805093 
16.847164120211986 
14.214250125383767 
17.086176229632 
14.393968195706709 
17.325471643560505 
14.573982070614713 
17.565046347043122 
14.754296396686968 
17.80490153639387 
14.934924331014784 
18.0450458507965 
15.115891140543935 
18.285498558484583 
15.297239186129724 
18.52629402964047 
15.479034701458541 
18.767487910156163 
15.661376831900645 
19.009165491679425 
15.84440941164296 
19.251452835183223 
16.028335880224347 
19.494531213418576 
16.213437489943136 
19.73865533097019 
16.400094397922796 
19.9841754567139 
16.588808153643335 
20.231562892276433 
16.78022214097626 
20.481436827252843 
16.9751331811146 
20.734588159237536 
17.17448194116502 
20.991991594659456 
17.37930083069804 
21.254790223530094 
17.59058402786942 
21.524225143725666 
17.809022998393893 
21.801464179635918 
18.034520100967345 
22.087254910312158 
18.265351760457612 
22.381283897969983 
18.496806135663395 
22.68106262024464 
18.719089985950635 
22.980083698431148 
18.914349820647047 
23.2649246762318 
19.052940233710032 
23.51102165061309 
19.089906516039786 
23.677302789966806 
18.964392094809053 
23.70155172219745 
18.607007732296452 
23.50244638449675 
17.96156082289657 
22.99877483485651 
17.027123506595803 
22.15532786473101 
15.924766862238123 
21.057711939965984 
14.980331620766155 
20.00574106504228 
4.045492626262276 
4.873969419960021 
4.276852415736867 
4.78063743098876 
4.433538237114905 
4.671486462376811 
4.527101576994332 
4.576857099619513 
4.592700624152384 
4.521761176121066 
4.658390599993248 
4.519208171390786 
4.73931431500317 
4.5705764401458655 
4.8403962840998265 
4.669401580519755 
4.960710040242999 
4.805916537259763 
5.096967229834584 
4.970435160805464 
5.2455747844191665 
5.155047949007107 
5.403541762782935 
5.354027004909762 
5.568701247132462 
5.563555136612475 
5.739616322920223 
5.7812350092569895 
5.915388634278984 
6.00561658070309 
6.095472717561452 
6.235829759751848 
6.279532151232663 
6.471331639696149 
6.467341452716211 
6.711747649185486 
6.65872553211004 
6.9567798270657 
6.853525999784364 
7.206158873453892 
7.051584937423989 
7.459622613568636 
7.252739095487396 
7.716909128197307 
7.45681972109716 
7.977757162200342 
7.663654983566018 
8.241909473831754 
7.873073217782368 
8.509116779644144 
8.084906036132011 
8.779141171836429 
8.29899087598274 
9.051758588901714 
8.515172850841873 
9.326760294372523 
8.733305933006713 
9.603953493016977 
8.953253569181738 
9.883161275258047 
9.174888852830383 
10.164222082700556 
9.398094373366975 
10.446988862267848 
9.622761845530759 
10.731328042313969 
9.848791601877021 
11.017118429776149 
10.076092011084029 
11.304250097844983 
10.3045788674432 
11.592623309845449 
10.534174782482273 
11.882147507013107 
10.76480859885094 
12.172740374844544 
10.996414838376127 
12.46432699379602 
11.228933190475166 
12.756839074123807 
11.462308043163242 
13.050214271186485 
11.696488056401178 
13.344395575389003 
11.931425775783653 
13.639330770117004 
12.167077283960406 
13.934971950649011 
12.403401886465225 
14.231275097367293 
12.640361828848812 
14.528199696890791 
12.877922041768436 
14.825708405435535 
13.116049911163104 
15.123766749164094 
13.354715070660696 
15.42234285700557 
13.59388921380032 
15.721407221870008 
13.833545923710464 
16.020932486747338 
14.073660518385724 
16.32089325255853 
14.314209909638736 
16.62126590510525 
14.555172474353865 
16.9220284587029 
14.79652793658208 
17.22316041455806 
15.03825725956584 
17.524642632082887 
15.280342546863057 
17.826457211834413 
15.522766952334965 
18.12858738907308 
15.76551459919116 
18.43101743743958 
16.00857050928475 
18.733732582951095 
16.251920544970083 
19.03671892952655 
16.495551367793006 
19.33996339867645 
16.73945042094295 
19.643453688181165 
16.983605946462962 
19.947178257746558 
17.22800705389847 
20.251126354281393 
17.472643865400258 
20.555288096150367 
17.717507773796395 
20.859654645348026 
17.962591866303008 
21.164218510049807 
18.207891588417038 
21.468974038736178 
18.45340575198975 
21.7739181927096 
18.69913802989719 
22.07905171817212 
18.945099129013933 
22.38438088416678 
19.19130989389472 
22.689920010596538 
19.437805665399058 
22.99569508243062 
19.68464229760029 
23.30174883192971 
19.931904313828575 
23.608147766732806 
20.179715739662985 
23.91499171854444 
20.428254152554885 
24.222426564794183 
20.67776837267781 
24.530660796016335 
20.92859988291293 
24.839986495944295 
21.18120733191792 
25.150804950279685 
21.436192054788183 
25.463656299675367 
21.694319970596993 
25.77925105872747 
21.956530725897505 
26.098498357090246 
22.22391733310697 
26.42252045096308 
22.497646889995156 
26.75263377691876 
22.778772335993228 
27.090260859484495 
23.067852377005288 
27.436710243477194 
23.36424630414916 
27.792716008743106 
23.66487773282073 
28.157552999315957 
23.962169521389374 
28.527422668697216 
24.24077538605594 
28.89262072905929 
24.47280196236899 
29.232758658197476 
24.611815490362122 
29.509155233355695 
24.58797485118521 
29.654140096054704 
24.311238262348663 
29.561091515443334 
23.693759694189904 
29.09280803960525 
22.69920272497942 
28.135742128487575 
21.416758058913373 
26.707874427678064 
20.143389692480007 
25.09685153314181 
3.9969730649562156 
5.109988539273691 
3.99131276573254 
4.624819192469403 
3.994004414292019 
4.260115534244336 
4.006582284894496 
4.0449662361969425 
4.053138923072229 
3.972679326044111 
4.147169260714337 
4.0211464516760005 
4.288098798713196 
4.161691582996288 
4.467208299957006 
4.36633084758469 
4.673780140746813 
4.612482559660034 
4.898592079994012 
4.884260830760424 
5.13502499697282 
5.171577660764984 
5.378880294724185 
5.468536099534168 
5.627757446270092 
5.771940242053506 
5.880423213906177 
6.080187128856837 
6.13632340353078 
6.392535895825904 
6.395253965029417 
6.708665149393123 
6.657160744813749 
7.028425016461575 
6.92202908966866 
7.351710461287752 
7.189830548777771 
7.678405126521684 
7.460503008223586 
8.008363254339283 
7.733948657705869 
8.341410186296901 
8.010040214353074 
8.6773504164891 
8.288629930577608 
9.015977412065759 
8.56955852594752 
9.357082488899522 
8.852662754106463 
9.700461730349614 
9.137781199773498 
10.04592080886951 
9.424758356785887 
10.39327796389955 
9.71344724038773 
10.74236552393655 
10.00371084729802 
11.093030364549882 
10.295422765222625 
11.445133641209242 
10.588467189807183 
11.798550065128488 
10.882738553957237 
12.153166921548808 
11.178140924024754 
12.508882971073948 
11.474587273816782 
12.86560732818391 
11.771998712735828 
13.2232583760913 
12.070303717962249 
13.581762752249578 
12.369437401278738 
13.941054421506552 
12.66934082756492 
14.301073842765444 
12.969960392843316 
14.661767227814225 
13.27124726367239 
15.023085887003305 
13.573156876157404 
15.384985654291624 
13.875648490655225 
15.747426383451106 
14.178684797326211 
16.110371507098005 
14.482231567243653 
16.473787650822555 
14.786257343971458 
16.83764429517445 
15.090733170713614 
17.201913479242087 
15.39563234867533 
17.56656954016143 
15.70093022262566 
17.931588883717566 
16.006603990228914 
18.296949781831916 
16.312632532041125 
18.662632193321993 
16.618996259534256 
19.02861760478769 
16.925676978784665 
19.39488888896815 
17.232657767832578 
19.76143017817518 
17.53992286588881 
20.128226750824766 
17.84745757294277 
20.49526492925032 
18.155248158392627 
20.862531987248992 
18.463281777695148 
21.23001606600583 
18.77154639629566 
21.597706097253404 
19.080030720464276 
21.965591732786976 
19.38872413527691 
22.3336632797827 
19.697616650823893 
22.701911641855613 
20.006698858989214 
23.070328266601305 
20.31596190506739 
23.438905101460755 
20.625397481353954 
23.807634561576698 
20.934997854027277 
24.176509515985973 
21.244755940772635 
24.54552330253557 
21.55466546534754 
24.914669787826547 
21.864721227689373 
25.283943497082507 
22.17491954536896 
25.65333985114411 
22.485258945813005 
26.02285556503938 
22.795741220367393 
26.392489286561805 
23.106372992998708 
26.76224258584721 
23.417168010031318 
27.132121450633974 
23.728150424084184 
27.502138499139466 
24.03935942529419 
27.872316195800018 
24.350855663100646 
28.242691446340757 
24.662729994079307 
28.613322057601984 
24.975115167698387 
28.984295670351585 
25.28820108808079 
29.355741898268295 
25.602254202628288 
29.727848507564243 
25.917641255918383 
30.100882497367756 
26.23485691337873 
30.475216791304703 
26.554553263159818 
30.85136273863691 
26.877566353395636 
31.230007400586143 
27.20492968333534 
31.61205201620312 
27.537855141630136 
31.998642894280184 
27.877645151437424 
32.391176003753586 
28.225470389228278 
32.791237499695 
28.58189647096891 
33.20040638500809 
28.945956392457212 
33.61977761019284 
29.31342382119869 
34.0489364745314 
29.67372808226231 
34.48387715994326 
30.004687956010002 
34.912918139568546 
30.264146772982144 
35.30887888028667 
30.378630814034135 
35.614540546922186 
30.23455762873449 
35.71767880289537 
29.69292128589128 
35.4208084002769 
28.652668727114918 
34.47398040142621 
27.156729146875506 
32.748405603476606 
25.500399270390204 
30.49679915967546 
3.86345146615805 
5.283578421854414 
3.590849494887937 
4.3044325144684565 
3.4356920484581015 
3.678032920844824 
3.392020888215868 
3.4012328652833035 
3.462399262065984 
3.3939619217902695 
3.6313896729561272 
3.5659554449678885 
3.8720393892201064 
3.844060893460726 
4.158002261741211 
4.179835687522971 
4.469674071184964 
4.545088557012625 
4.794691322109449 
4.924784230299238 
5.126157618138839 
5.311498114374444 
5.460667517427706 
5.701898695255251 
5.796809874753729 
6.094710978966042 
6.134199827760066 
6.489602598237525 
6.472909986787148 
6.8866071171067444 
6.813162732476111 
7.2858466787419385 
7.155179797067226 
7.687414303385957 
7.499120543054945 
8.09133657874548 
7.8450667514905374 
8.497573352776254 
8.193029332452227 
8.906031730035545 
8.542963389870714 
9.316583255486274 
8.894784667412143 
9.729079416752139 
9.248384181352229 
10.143363801053985 
9.603639905985508 
10.559280765286776 
9.960425419805345 
10.976681107786368 
10.318615887545521 
11.395425410109334 
10.678091907557453 
11.815385691420614 
11.038741752803373 
12.236445911848337 
11.400462463869099 
12.658501738447738 
11.763160161542572 
13.081459874687345 
12.126749857644343 
13.505237162590268 
12.49115496632893 
13.929759595923622 
12.856306656786572 
14.354961331679448 
13.222143141652994 
14.780783750947622 
13.588608961145955 
15.20717459612265 
13.95565429898584 
15.634087195538582 
14.3232343494953 
16.06147977706376 
14.69130874464023 
16.48931486639362 
15.059841042771996 
16.91755876306183 
15.428798276873495 
17.346181085816145 
15.798150557876953 
17.77515437897578 
16.167870727693362 
18.204453771708028 
16.537934056214397 
18.634056683010005 
16.908317976928398 
19.06394256584459 
17.279001855990312 
19.494092684901766 
17.649966790335345 
19.924489923104353 
18.021195430791046 
20.35511861280817 
18.39267182675901 
20.78596438813849 
18.76438128948418 
21.21701405557242 
19.136310271361044 
21.64825548020139 
19.508446259056523 
22.079677485581467 
19.88077767857592 
22.51126976528543 
20.253293810563587 
22.94302280459858 
20.625984714435383 
23.374927810909753 
20.99884116002816 
23.806976651554795 
21.371854565598863 
24.23916179789513 
21.745016941145057 
24.671476274527297 
22.118320836121487 
25.10391361248123 
22.49175929077984 
25.536467805297935 
22.86532579056947 
25.9691332667807 
23.23901422334426 
26.401904789235452 
23.612818839719388 
26.834777500908498 
23.98673421769967 
27.267746821457134 
24.36075523411973 
27.70080841432084 
24.734877047512917 
28.133958135325358 
25.10909510025408 
28.5671919775333 
25.48340515260031 
29.000506013693933 
25.8578033682643 
29.43389633987071 
26.232286481333407 
29.86735902744457 
26.606852088721098 
30.3008900963699 
26.98149913250537 
30.734485531260432 
27.35622866419464 
31.168141374896667 
27.731045020467146 
31.601853953084586 
28.105957589774125 
32.03562031285089 
28.480983414035393 
32.46943899655726 
28.856150952144993 
32.90331133223003 
29.231505433599153 
33.33724350213227 
29.60711635052725 
33.77124976576817 
29.983087768675908 
34.205357371551244 
30.359572265960495 
34.639613906730354 
30.736789393872378 
35.074098122664736 
31.115049524504364 
35.508935642817 
31.494783637000587 
35.944321408350945 
31.87657869825163 
36.38055118755386 
32.261216181303254 
36.81806479894991 
32.64970670912173 
37.25750342626853 
33.04330437707111 
37.699781470306085 
33.443465206924536 
38.14616736566079 
33.85167607083578 
38.59835233142782 
34.26900527219167 
39.05844944064888 
34.69507974907279 
39.528782302017284 
35.12591473152543 
40.01113745407216 
35.54950659331625 
40.504742405450884 
35.93722058089183 
41.00129760775757 
36.22785539107646 
41.473189360196436 
36.30180151778237 
41.84555286919536 
35.957249562162055 
41.92996436088606 
34.969945242996054 
41.29386410939843 
33.278066597342274 
39.43570739005648 
31.17540730566109 
36.415637308967675 
3.590169457994907 
5.317253827561278 
3.0407358923344265 
3.725735345620332 
2.771431332841852 
2.9399925370119298 
2.754420204964093 
2.780566163540926 
2.934982879914427 
2.977511803195249 
3.2407401351077483 
3.336089063262323 
3.6129110485296563 
3.7607814687651384 
4.015670197405882 
4.2116302413255085 
4.430494463054647 
4.672695295323717 
4.848908569705145 
5.137931418997353 
5.267595907795821 
5.605326628159936 
5.685660290386746 
6.074426797494056 
6.103215913011764 
6.5452867124705225 
6.520705645326148 
7.018047931580302 
6.938597238519086 
7.492793500888268 
7.357267298188611 
7.969519192140353 
7.776973464384412 
8.44814771651986 
8.197864185502977 
8.92855366463234 
8.620001323378167 
9.410586488839384 
9.043384214458982 
9.89408772702516 
9.467970568940041 
10.378902353788833 
9.89369286132195 
10.864885404141608 
10.320470337449885 
11.351905222232023 
10.748217327437452 
11.83984450012128 
11.176848684318802 
12.328599984211325 
11.606283105723582 
12.818081458513104 
12.036444965260875 
13.308210401037005 
12.467265138256904 
13.798918555463294 
12.898681179935801 
14.290146555255578 
13.330637110133386 
14.781842669302558 
13.76308297899754 
15.273961696394176 
14.195974328736154 
15.766464011627498 
14.629271624528407 
16.259314754881697 
15.0629396983102 
16.752483145787348 
15.496947229692058 
17.245941907812984 
15.931266275421027 
17.73966678466469 
16.36587185106066 
18.233636133796054 
16.80074156372062 
18.727830583898267 
17.235855292340872 
19.222232745303856 
17.671194910693686 
19.716826964124063 
18.106744048114177 
20.211599112607427 
18.54248788294561 
20.706536409670274 
18.978412964263462 
21.20162726657158 
19.414507057743172 
21.69686115379282 
19.850759012251963 
22.192228485814688 
20.287158644103087 
22.68772052114412 
20.7236966364776 
23.183329275430243 
21.16036445178058 
23.67904744586248 
21.597154255188446 
24.174868345351403 
22.03405884778843 
24.670785845277862 
22.471071608041033 
25.16679432573356 
22.90818644037639 
25.662888632353788 
23.34539772998519 
26.159064038940556 
23.78270030283968 
26.65531621514901 
24.22008939014553 
27.151641198520785 
24.657560596331347 
27.64803537013606 
25.09510986976282 
28.144495433082962 
25.532733475208502 
28.641018392794646 
25.9704279670519 
29.13760153806433 
26.408190161997684 
29.63424242119907 
26.84601710992124 
30.130938835255293 
27.283906061153534 
30.627688785573778 
27.721854428335213 
31.124490451821927 
28.15985974057857 
31.621342135343728 
28.5979195875202 
32.118242184738065 
29.03603155068181 
32.61518888996323 
29.474193119672783 
33.11218033189159 
29.91240159129861 
33.60921416962425 
30.35065395094718 
34.10628734197198 
30.788946738095888 
34.60339565191692 
31.2272759022617 
35.100533193376705 
31.665636663116526 
35.597691568134664 
32.1040234006658 
36.09485882759768 
32.5424296205152 
36.59201805998193 
32.98084806918557 
37.0891455307354 
33.41927112022241 
37.58620827646581 
33.85769162161944 
38.08316105807292 
34.296104499886916 
38.57994261015177 
34.7345095725114 
39.076471203308564 
35.17291625108794 
39.57263969982189 
35.61135115255053 
40.06831058905746 
36.049870112227765 
40.56331202727145 
36.488576745872706 
41.057436814618036 
36.92765054856269 
41.55044772354246 
37.36738846652328 
42.04209493523358 
37.80826460296433 
42.532154922813625 
38.251012265444565 
43.02050536823296 
38.69672849311817 
43.50725790291549 
39.14698767552372 
43.99297919742341 
39.60391435777142 
44.479038490322885 
40.07007508073361 
44.96811695732619 
40.547835976395426 
45.46487528564446 
41.037341403177024 
45.97662908713081 
41.53114711354057 
46.513430067706885 
42.00098691470778 
47.08560619195064 
42.36648274903747 
47.69252667446746 
42.426153676747276 
48.280090263641725 
41.757626379947254 
48.56614795667743 
40.014069930341044 
47.25772045563123 
37.415891222327986 
43.380349669339715 
3.1064328164630908 
5.029847519450768 
2.3461325515851104 
2.857183856672131 
2.142866836638161 
2.379927993444654 
2.331739654238078 
2.6254955259301185 
2.713226779104141 
3.052516061237227 
3.167746315943797 
3.5222957170926867 
3.645771167110645 
4.008527490747182 
4.129932148995143 
4.50611476393302 
4.6150738067206145 
5.013643808139649 
5.100257163875974 
5.530182172167827 
5.585769148206237 
6.054712914727247 
6.072076368147679 
6.5861107177589675 
6.559516260116323 
7.123230037579877 
7.048252646744733 
7.664992620478266 
7.538312115193893 
8.210444411458552 
8.029633498979441 
8.758780590747717 
8.522108852183433 
9.309346898528267 
9.0156117936813 
9.861626625488608 
9.510014933914789 
10.415220808930968 
10.00519939472787 
10.969826710399394 
10.501059152967285 
11.52521753085936 
10.997502258842134 
12.081224795036247 
11.494450326907973 
12.637723864881467 
11.991837189501648 
13.194622488420599 
12.48960724528265 
13.7518520198259 
12.98771379994627 
14.309360850150101 
13.486117548299669 
14.867109590267365 
13.98478525852399 
15.425067597557923 
14.483688669913839 
15.983210506372362 
14.982803589685476 
16.54151849178989 
15.48210916340622 
17.09997505911753 
15.981587290564935 
17.65856620396625 
16.481222158084996 
18.217279829798436 
16.980999867912498 
18.77610534197109 
17.4809081386739 
19.335033361564232 
17.980936065246663 
19.894055519725136 
18.48107392344339 
20.453164306043377 
18.98131300989051 
21.01235295305804 
19.481645509491575 
21.57161534529712 
19.98206438465908 
22.130945945130687 
20.4825632818863 
22.690339730667905 
20.98313645237061 
23.249792142465267 
21.483778684064813 
23.80929903719717 
21.984485243275806 
24.368856646929398 
22.485251824267408 
24.92846154329714 
22.986074505695175 
25.488110605953374 
23.48694971297395 
26.047800995002653 
23.987874185820342 
26.60753012708999 
24.48884495036567 
27.16729565500476 
24.98985929537006 
27.72709545056859 
25.490914752091236 
28.286927590740444 
25.99200907745256 
28.846790346737023 
26.493140240161615 
29.406682176142002 
26.994306409423174 
29.966601717759094 
27.4955059458673 
30.526547789125708 
27.996737394219156 
31.086519386343692 
28.497999477118388 
31.64651568590666 
28.999291089286054 
32.206536047835925 
29.50061129092533 
32.766580019233096 
30.00195929880139 
33.326647336722004 
30.50333447281861 
33.88673792557153 
31.004736294988824 
34.446851892045636 
31.50616433646446 
35.006989503907874 
32.007618206520746 
35.56715115145069 
32.50909747498702 
36.12733727791208 
33.010601556265605 
36.68754826290823 
33.51212953862471 
37.247784235232984 
34.013679936344396 
37.80804478099479 
34.515250334259946 
38.36832849860423 
35.01683688371098 
38.92863233207914 
35.51843359539235 
39.48895058684804 
36.02003135771063 
40.049273495366876 
36.52161658887019 
40.60958515113661 
37.023169407534354 
41.1698605662783 
37.52466118237662 
41.73006152755286 
38.02605129897522 
42.29013082706849 
38.52728297133876 
42.8499843282211 
39.028277938955284 
43.409500200555264 
39.52892995355776 
43.96850453448687 
40.02909711425249 
44.52675245881712 
40.52859342353665 
45.083903888637565 
41.02718051898542 
45.63949323080241 
41.52456155733444 
46.19289294535479 
42.02038095154698 
46.74327210267629 
42.51423647716875 
47.28955348896482 
43.00571472317351 
47.8303772359295 
43.49446767551159 
48.36408679453746 
43.98035811624699 
48.88876672286771 
44.46371466703679 
49.40238528414699 
44.945751515661044 
49.90313523943759 
45.429213450391956 
50.39013549233431 
45.919272387203044 
50.86477499496228 
46.42453482987134 
51.333183441275 
46.95745626384323 
51.8106590883248 
47.53171914048581 
52.329469765587056 
48.14868541377864 
52.95242306171513 
48.746085639450435 
53.79593308764411 
49.00686801644216 
55.061000254669466 
47.76958894843206 
56.87855690927824 
44.817472534244146 
53.09104954094797 
2.382012709963837 
4.244761181675485 
1.8453885813246724 
2.816576011645034 
2.100738360376106 
3.093934586344942 
2.554580942163088 
3.3885212171176406 
3.0355930754016462 
3.7089099319761734 
3.5199090824653285 
4.085077524561614 
4.010088581548595 
4.517828473829768 
4.510070433928822 
4.998556401040539 
5.021468342715778 
5.517365392013766 
5.5439813176655335 
6.065391285380066 
6.076278018883059 
6.635309016514327 
6.6166526932621 
7.221307886900576 
7.163406853012513 
7.818906966644159 
7.715034651234713 
8.42472972950138 
8.270289323855083 
9.03628351392657 
8.828185241316136 
9.65176291448684 
9.387969474243604 
10.26988402828912 
9.949082336856412 
10.889750169148423 
10.511117234889378 
11.51074643523311 
11.073784698974883 
12.13245908667018 
11.63688240585318 
12.754615312804848 
12.20027135803182 
13.377039180207381 
12.763857614745499 
13.99962005467208 
13.327578670985476 
14.62229040162996 
13.891393543450112 
15.245010480012294 
14.45527570828944 
15.867757998102755 
15.019208170963017 
16.490521270062988 
15.583180091637658 
17.113294793854788 
16.147184521168057 
17.736076470535043 
16.711216913715887 
18.358865912778644 
17.275274171890104 
18.981663459376325 
17.8393540494679 
19.60446963521242 
18.403454789186473 
20.22728488315794 
18.96757491125064 
20.850109455079306 
19.531713095930407 
21.472943390383197 
20.09586812277623 
22.095786538257084 
20.66003884255809 
22.718638597742782 
21.224224166819376 
23.341499161343116 
21.78842306613696 
23.96436775488001 
22.35263457179928 
24.58724387063739 
22.916857778273485 
25.210126993087833 
23.48109184504851 
25.83301661785007 
24.045335997545596 
26.455912264949927 
24.609589527010684 
27.078813487719646 
25.173851789769977 
27.701719878520663 
25.73812220607849 
28.324631072459294 
26.30240025902715 
28.94754674993026 
26.8666854937644 
29.57046663884767 
27.43097751742079 
30.193390517120253 
27.995275999902947 
30.816318215939297 
28.55958067586771 
31.439249624287132 
29.12389134795929 
32.06218469503701 
29.68820789154731 
32.68512345298522 
30.252530260929422 
33.30806600510576 
30.816858497109486 
33.93101255323815 
31.381192736954397 
34.55396340943546 
31.94553322354528 
35.17691901399451 
32.50988031712597 
35.799879956143506 
33.074234505831484 
36.422846996917 
33.63859641467207 
37.045821093465435 
34.20296681053609 
37.66880342314266 
34.76734659959874 
38.291795404690816 
35.33173681179143 
38.91479871194216 
35.896138564197635 
39.53781527278901 
36.460552991420094 
40.16084724197859 
37.02498112523588 
40.78389693009981 
37.58942369788378 
41.40696666185243 
38.153880831886916 
42.030058523210904 
38.71835156335294 
42.65317393731498 
39.28283312347181 
43.27631298059852 
39.84731987258259 
43.899473310206176 
40.41180174000405 
44.52264851682574 
40.97626196816441 
45.145825637725316 
41.54067388802446 
45.768981455763544 
42.10499636164367 
46.392077062188605 
42.66916741468094 
47.015049963547625 
43.233095447238505 
47.637802753704115 
43.7966472608059 
48.26018703861021 
44.35963198689492 
48.88198088322313 
44.921779879801775 
49.50285754186806 
45.482714900920726 
50.12234264209694 
46.04192018099227 
50.73975634799836 
46.598695985004426 
51.35413640392315 
47.15211103954289 
51.96413750035981 
47.70095055520914 
52.56790238831098 
48.24366890904581 
53.162901115117926 
48.77836332684778 
53.74573763620549 
49.30279977089544 
54.311929760369964 
49.81454842605234 
54.85568274080166 
50.31133226165995 
55.369707022277986 
50.791773383444 
55.8451951425558 
51.25686503570137 
56.272215081143216 
51.71274688925769 
56.641104634921085 
52.17578283336223 
56.94623963732515 
52.681588323512855 
57.1955485311755 
53.300368801995994 
57.434569298951345 
54.16014270428913 
57.81014741875102 
55.462806607230135 
58.757973373273984 
57.22091391557852 
61.71236215090645 
55.30681560449126 
74.26799991538248 
POINT_DATA 2121
FIELD FieldData 1
displacement_1 3 2121 float
0.013147907982573315 -0.08987073151194651 0
0.013143319412025067 -0.08850477180289129 0
0.013132407641941254 -0.0871558122706885 0
0.013119328943786725 -0.08581479964541433 0
0.013104881819544187 -0.08447870688948121 0
0.013089071006240988 -0.0831460802253794 0
0.0130716936181569 -0.0818161930669551 0
0.013052518180286321 -0.08048871910128036 0
0.013031339944759473 -0.079163566367956 0
0.013007993788932679 -0.07784078400725677 0
0.012982352559644156 -0.07652050724230983 0
0.012954321054302212 -0.07520292401951251 0
0.0129238293952681 -0.07388825446115538 0
0.012890827100728445 -0.07257673811472398 0
0.012855278203744802 -0.07126862603524498 0
0.01281715740882705 -0.0699641758961169 0
0.012776447150004991 -0.06866364900577393 0
0.012733135385058932 -0.06736730852180965 0
0.012687213969169947 -0.06607541841216695 0
0.01263867747316883 -0.06478824287649394 0
0.012587522336283047 -0.06350604604552967 0
0.012533746266421194 -0.06222909184385065 0
0.01247734782096918 -0.06095764394475272 0
0.012418326117441265 -0.05969196577387577 0
0.01235668063633881 -0.058432320535844295 0
0.012292411088656816 -0.05717897124925402 0
0.012225517328143013 -0.055932180782121414 0
0.012155999294137848 -0.054692211883967695 0
0.012083856975030628 -0.0534593272130461 0
0.012009090385415132 -0.05223378935849171 0
0.01193169955220601 -0.05101586085780782 0
0.011851684506513168 -0.049805804210360786 0
0.011769045279139854 -0.048603881887613075 0
0.01168378189830427 -0.04741035634077416 0
0.011595894388681693 -0.04622549000645674 0
0.01150538277119591 -0.0450495453108204 0
0.01141224706320744 -0.04388278467258589 0
0.011316487278887111 -0.04272547050521549 0
0.011218103429653285 -0.04157786521848454 0
0.01111709552460663 -0.04044023121961163 0
0.011013463570930117 -0.03931283091407118 0
0.010907207574241642 -0.03819592670617824 0
0.010798327538897565 -0.03708978099951115 0
0.010686823468251306 -0.035994656197218824 0
0.010572695364874011 -0.03491081470224625 0
0.0104559432307451 -0.03383851891750136 0
0.010336567067420884 -0.03277803124598009 0
0.010214566876189105 -0.03172961409086052 0
0.010089942658216985 -0.030693529855572773 0
0.009962694414700036 -0.029670040943848234 0
0.009832822147018453 -0.028659409759748736 0
0.00970032585690765 -0.027661898707673622 0
0.009565205546649096 -0.026677770192340303 0
0.009427461219286937 -0.02570728661873087 0
0.009287092878874902 -0.024750710391995133 0
0.009144100530756556 -0.023808303917297748 0
0.008998484181879679 -0.022880329599594133 0
0.008850243841142207 -0.021967049843317963 0
0.00869937951976261 -0.021068727051961764 0
0.008545891231661445 -0.02018562362753199 0
0.00838977899383287 -0.019318001969863125 0
0.008231042826675368 -0.018466124475781772 0
0.008069682754239834 -0.01763025353812534 0
0.007905698804341995 -0.016810651544641526 0
0.007739091008476687 -0.016007580876829776 0
0.007569859401467966 -0.01522130390883733 0
0.007398004020797984 -0.014452083006596925 0
0.0072235249055901405 -0.013700180527494917 0
0.007046422095295225 -0.012965858820994554 0
0.0068666956282695596 -0.012249380230811043 0
0.006684345540680294 -0.01155100709944304 0
0.006499371866581854 -0.010871001776096465 0
0.006311774640659487 -0.010209626629262992 0
0.006121553906142917 -0.009567144065376797 0
0.005928709731906868 -0.008943816554959513 0
0.005733242244995907 -0.008339906667284647 0
0.005535151687994087 -0.007755677113536755 0
0.005334438515118597 -0.0071913907962076525 0
0.005131103547013257 -0.006647310858289968 0
0.00492514821233776 -0.006123700718523784 0
0.004716574914739556 -0.005620824066784118 0
0.0045053875768568605 -0.005138944774116295 0
0.004291592428489038 -0.004678326641247633 0
0.004075199123172998 -0.004239232862327253 0
0.0038562222841078335 -0.003821925009531217 0
0.003634683592566357 -0.003426661237852825 0
0.003410614531854481 -0.0030536932511310974 0
0.0031840598731828758 -0.0027032613340523108 0
0.002955081909745878 -0.0023755863979010943 0
0.00272376526038842 -0.0020708574374287453 0
0.0024902216713400182 -0.0017892119226439538 0
0.0022545934284902785 -0.0015307052138416783 0
0.002017052289983178 -0.0012952626397708012 0
0.0017777872366123858 -0.001082603545879787 0
0.001536966524858476 -0.0008921186680342216 0
0.0012946423554774807 -0.000722666976136798 0
0.0010505284502735318 -0.0005722270288297435 0
0.0008034981430839813 -0.0004372641955056898 0
0.0005504948348970107 -0.0003114281272867941 0
0.00028461706418175727 -0.00018163929802571423 0
0.0 0.0 0
0.011799089776120155 -0.08986046549623689 0
0.011795249366712682 -0.08850130962397525 0
0.01179024180012757 -0.0871521619129268 0
0.011782354927292524 -0.08581069321048794 0
0.011772041335355584 -0.0844741131393671 0
0.011759579788980224 -0.08314094766927482 0
0.011745072420502113 -0.08181046167989621 0
0.011728526147279542 -0.08048233268543646 0
0.011709905260921253 -0.07915647737185683 0
0.011689159886927512 -0.07783295436846298 0
0.011666239970996905 -0.0765119075478117 0
0.011641101315934784 -0.07519353210321587 0
0.011613707496542197 -0.0738780539430174 0
0.011584029780919812 -0.0725657170889973 0
0.011552046199994113 -0.07125677597523881 0
0.011517740353658434 -0.06995149077899249 0
0.011481100238301659 -0.06865012463403736 0
0.011442117217703274 -0.06735294200928682 0
0.011400785174895388 -0.06606020780187194 0
0.011357099841375855 -0.06477218686115542 0
0.011311058282189071 -0.06348914376619454 0
0.01126265850977194 -0.06221134274674567 0
0.011211899199914718 -0.06093904768089809 0
0.011158779486322405 -0.059672522129603014 0
0.011103298814276352 -0.05841202938534286 0
0.011045456837877096 -0.057157832522609926 0
0.010985253348884743 -0.055910194444107365 0
0.010922688228120432 -0.05466937792019644 0
0.010857761412747927 -0.053435645621097684 0
0.010790472874580303 -0.05220926014235258 0
0.01072082260593737 -0.05099048402448066 0
0.010648810610603491 -0.04977957976787271 0
0.010574436898181057 -0.048576809843906193 0
0.010497701480669556 -0.047382436703139685 0
0.010418604370478193 -0.04619672278129345 0
0.010337145579343197 -0.04501993050357833 0
0.01025332511780204 -0.04385232228780935 0
0.01016714299499964 -0.042694160546633275 0
0.0100785992186837 -0.04154570768911758 0
0.009987693795300649 -0.04040722612188126 0
0.009894426730138834 -0.039278978249899926 0
0.009798798027488039 -0.03816122647707984 0
0.00970080769079887 -0.03705423320666921 0
0.009600455722833976 -0.03595826084155493 0
0.009497742125808496 -0.03487357178447928 0
0.009392666901520292 -0.033800428438199935 0
0.009285230051472183 -0.03273909320561024 0
0.009175431576989504 -0.031689828489830624 0
0.009063271479336816 -0.03065289669427771 0
0.00894874975983778 -0.02962856022271483 0
0.00883186642000239 -0.028617081479284302 0
0.008712621461665591 -0.027618722868519335 0
0.008591014887141049 -0.0266337467953312 0
0.00846704669939336 -0.025662415664963845 0
0.008340716902231296 -0.02470499188290612 0
0.00821202550052332 -0.02376173785474879 0
0.008080972500435088 -0.02283291598597035 0
0.007947557909686211 -0.021918788681633442 0
0.007811781737820562 -0.02101961834597217 0
0.007673643996480588 -0.020135667381849933 0
0.007533144699671551 -0.019267198190070292 0
0.0073902838639968325 -0.0184144731685295 0
0.007245061508840866 -0.017577754711212784 0
0.007097477656473173 -0.01675730520705831 0
0.006947532332047881 -0.015953387038749014 0
0.006795225563480973 -0.015166262581546061 0
0.006640557381208587 -0.014396194202356652 0
0.006483527817871767 -0.013643444259338423 0
0.006324136908049219 -0.012908275102491169 0
0.006162384688287401 -0.012190949075878645 0
0.005998271197882311 -0.011491728522361652 0
0.005831796481184044 -0.010810875792000104 0
0.00566296059267014 -0.010148653255573995 0
0.005491763606726467 -0.009505323324927081 0
0.005318205635059361 -0.00888114848195131 0
0.00514228685602688 -0.008276391317822923 0
0.004964007562014312 -0.007691314583267714 0
0.004783368233375236 -0.007126181248677548 0
0.0046003696504624885 -0.006581254569044897 0
0.004415013058839739 -0.0060567981417294775 0
0.004227300406664213 -0.005553075933221945 0
0.004037234676890273 -0.00507035223165898 0
0.0038448203391855374 -0.0046088914509753425 0
0.0036500639450797456 -0.004168957664595045 0
0.003452974881008945 -0.003750813673255347 0
0.0032535662709948427 -0.0033547193009127543 0
0.003051855972852664 -0.0029809284468245213 0
0.0028478675215831513 -0.002629684173556541 0
0.00264163071371553 -0.002301210737024265 0
0.0024331812562543137 -0.0019957008968284635 0
0.0022225584686004227 -0.0017132959707233772 0
0.0020097993675095554 -0.0014540547338229863 0
0.0017949265783835035 -0.001217905126085695 0
0.0015779266389345436 -0.0010045694141468406 0
0.00135871546146646 -0.0008134485032006447 0
0.0011370926074311372 -0.0006434444360037751 0
0.0009127066735818997 -0.0004926935504936429 0
0.0006851234158788845 -0.000358184661954943 0
0.00045430547278329527 -0.00023527891695453846 0
0.0002224825304536001 -0.00011742557223831973 0
0.0 0.0 0
0.010464525911741407 -0.0898466915488131 0
0.010460430489668167 -0.08849529194749918 0
0.010456905196689464 -0.08714890973801764 0
0.010451867122426614 -0.08580773172909312 0
0.01044459514357769 -0.08447075320001889 0
0.010435046718942523 -0.0831369770214042 0
0.010423297954788793 -0.08180580705139177 0
0.010409417682490615 -0.0804769649977258 0
0.010393448356331101 -0.07915038251703913 0
0.010375410718669717 -0.07782612382380036 0
0.010355311616237997 -0.0765043353180818 0
0.01033315021159881 -0.07518521368456835 0
0.010308922053867376 -0.07386898591004872 0
0.010282621472359256 -0.07255589686463729 0
0.010254242851778889 -0.07124620165670197 0
0.010223781224454814 -0.06994016099000894 0
0.010191232474148717 -0.06863803839932832 0
0.010156593336040489 -0.06734009865142881 0
0.010119861302274887 -0.06604660685963348 0
0.010081034494381818 -0.06475782802694045 0
0.010040111534572939 -0.0634740268394601 0
0.009997091430784227 -0.06219546760014915 0
0.009951973480786443 -0.06092241423621534 0
0.009904757195701459 -0.059655130340925316 0
0.00985544224093348 -0.05839387922756263 0
0.009804028391672399 -0.05713892398366811 0
0.00975051550004897 -0.055890527519865396 0
0.009694903471307624 -0.0546489526111079 0
0.00963719224678602 -0.0534144619300927 0
0.009577381791928906 -0.052187318073526966 0
0.009515472087962435 -0.0509677835823091 0
0.009451463126189842 -0.04975612095675779 0
0.009385354904139288 -0.04855259266793766 0
0.009317147423003413 -0.04735746116598268 0
0.009246840685968987 -0.04617098888615286 0
0.009174434697152055 -0.044993438253206834 0
0.009099929460940053 -0.043825071684537975 0
0.009023324981603338 -0.042666151592413055 0
0.00894462126308262 -0.04151694038556433 0
0.00886381830888888 -0.040377700470320244 0
0.008780916122073892 -0.039248694251407756 0
0.008695914705243625 -0.03813018413252325 0
0.008608814060597117 -0.037022432516740214 0
0.00851961418997962 -0.03592570180680311 0
0.008428315094943887 -0.03484025440534104 0
0.008334916776815849 -0.033766352715026184 0
0.008239419236763634 -0.03270425913869277 0
0.00814182247586963 -0.031654236079428404 0
0.008042126495206633 -0.0306165459406439 0
0.00794033129591944 -0.029591451126125747 0
0.007836436879313853 -0.028579214040071278 0
0.007730443246954956 -0.02758009708710505 0
0.007622350400776876 -0.0265943626722713 0
0.007512158343205775 -0.025622273200995582 0
0.00739986707729772 -0.02466409107900504 0
0.007285476606892228 -0.02372007871219478 0
0.007168986936781621 -0.02279049850642389 0
0.007050398072894966 -0.021875612867222793 0
0.00692971002249394 -0.020975684199391203 0
0.006806922794375887 -0.020090974906465876 0
0.006682036399077468 -0.019221747390038593 0
0.006555050849069679 -0.018368264048911603 0
0.006425966158933352 -0.017530787278089262 0
0.006294782345502733 -0.01670957946762629 0
0.006161499427965506 -0.015904903001387246 0
0.0060261174279110895 -0.015117020255824254 0
0.005888636369328027 -0.014346193598956294 0
0.005749056278567983 -0.013592685389840754 0
0.005607377184322913 -0.012856757978972658 0
0.005463599117707669 -0.012138673710236083 0
0.005317722112609956 -0.011438694925266096 0
0.0051697462065696835 -0.010757083971352888 0
0.005019671442589459 -0.010094103214308623 0
0.004867497872463474 -0.009450015057971035 0
0.004713225562447791 -0.008825081972135702 0
0.004556854602375434 -0.008219566530513513 0
0.00439838511962306 -0.007633731459500525 0
0.004237817299607617 -0.007067839696636201 0
0.004075151414621854 -0.006522154453841691 0
0.003910387862602177 -0.005996939273687042 0
0.0037435272165036804 -0.0054924580552456834 0
0.0035745702827327925 -0.005008975006908717 0
0.00340351816258267 -0.004546754452989498 0
0.003230372302310964 -0.004106060373499263 0
0.0030551345031487953 -0.0036871554842226643 0
0.002877806839072362 -0.003290299556052031 0
0.002698391394039484 -0.002915746512944728 0
0.00251688967899868 -0.002563739615505692 0
0.0023333015251250965 -0.002234503703451937 0
0.002147623192976707 -0.001928232999044886 0
0.0019598444506404257 -0.0016450723266631599 0
0.0017699446236711938 -0.001385088762397366 0
0.0015778885023889394 -0.0011482297622262326 0
0.0013836253939742353 -0.0009342630822426828 0
0.0011871003985734715 -0.0007426944561433203 0
0.0009882998795464448 -0.0005726643432334678 0
0.0007873797865286656 -0.0004228441519464512 0
0.0005849758374395407 -0.0002914103500493175 0
0.0003828728120596808 -0.00017634998474154285 0
0.00018524531124469794 -7.69535174773628e-5 0
0.0 0.0 0
0.009139497126232975 -0.08983230935377706 0
0.009135397906442664 -0.08848766918577218 0
0.00913227883226046 -0.08714487281296926 0
0.009128542472583821 -0.08580499377289229 0
0.009123225735594338 -0.08446811242066658 0
0.009115936998311643 -0.08313392542497833 0
0.009106585859532801 -0.08180214038971427 0
0.00909518930894385 -0.08047260641849249 0
0.009081792093980991 -0.07914530826939589 0
0.00906643858875445 -0.07782033166994282 0
0.009049164743085425 -0.07649783096715185 0
0.009029997291000012 -0.07517800500892247 0
0.009008955215590829 -0.07386108058015932 0
0.008986051610287352 -0.07254730149436686 0
0.008961295319642657 -0.07123692160698408 0
0.008934692216835802 -0.06993020044510184 0
0.008906246140534636 -0.0686274005402139 0
0.008875959558905166 -0.0673287858478181 0
0.008843834029997746 -0.06603462084734092 0
0.00880987051589715 -0.06474517005868761 0
0.008774069594289618 -0.06346069780704132 0
0.008736431599217134 -0.06218146813021998 0
0.008696956713551527 -0.060907744763580296 0
0.008655645028906029 -0.05963979116350373 0
0.008612496583816215 -0.0583778705469104 0
0.008567511387583056 -0.05712224593439113 0
0.008520689434777172 -0.05587318019066259 0
0.008472030713753664 -0.05463093605961777 0
0.00842153521139828 -0.05339577619322575 0
0.008369202915560018 -0.05216796317455847 0
0.008315033816109757 -0.05094775953568027 0
0.008259027905220963 -0.049735427771278574 0
0.008201185177242 -0.04853123034889081 0
0.008141505628382518 -0.047335429716483066 0
0.008079989256341787 -0.046148288308010016 0
0.008016636059948208 -0.044970068547461176 0
0.007951446038843043 -0.043801032851786645 0
0.007884419193220572 -0.042641443633002596 0
0.007815555523625013 -0.04149156329970114 0
0.00774485503079897 -0.04035165425813136 0
0.007672317715575459 -0.0392219789129728 0
0.007597943578805674 -0.038102799667890125 0
0.007521732621314749 -0.03699437892593238 0
0.0074436848438793795 -0.035896979089822645 0
0.007363800247222004 -0.03481086256217032 0
0.0072820788320179354 -0.03373629174562935 0
0.007198520598912453 -0.03267352904301797 0
0.007113125548546279 -0.031622836857411185 0
0.007025893681588239 -0.030584477592212507 0
0.006936824998774953 -0.02955871365120864 0
0.006845919500957559 -0.028545807438607882 0
0.006753177189156161 -0.027546021359060598 0
0.006658598064622752 -0.02655961781765715 0
0.006562182128913813 -0.025586859219896604 0
0.006463929383973657 -0.024628007971616236 0
0.006363839832229859 -0.023683326478869247 0
0.0062619134767017545 -0.022753077147735078 0
0.006158150321123049 -0.02183752238404358 0
0.006052550370078886 -0.020936924592992612 0
0.005945113629157235 -0.020051546178636987 0
0.005835840105113101 -0.019181649543227805 0
0.005724729806042483 -0.018327497086385598 0
0.005611782741559927 -0.01748935120410006 0
0.005496998922969111 -0.01666747428756648 0
0.005380378363408561 -0.01586212872189725 0
0.005261921077943296 -0.015073576884789991 0
0.005141627083554961 -0.014302081145297126 0
0.005019496398954814 -0.01354790386293027 0
0.004895529044099671 -0.01281130738745165 0
0.004769725039223078 -0.012092554059857841 0
0.004642084403090119 -0.011391906215247511 0
0.004512607150028181 -0.010709626188476184 0
0.004381293285053438 -0.01004597632371221 0
0.004248142796071883 -0.009401218989168847 0
0.00411315564164033 -0.008775616598301396 0
0.003976331732070693 -0.008169431638460211 0
0.0038376709006780474 -0.007582926707103405 0
0.003697172860623689 -0.0070163645537541525 0
0.003554837140991428 -0.006470008122243652 0
0.0034106629933621465 -0.005944120581356706 0
0.0032646492571456022 -0.00543896532121835 0
0.0031167941682928436 -0.004954805875329904 0
0.002967095091928652 -0.004491905700804241 0
0.0028155481554818854 -0.0040505277075094034 0
0.0026621477564451046 -0.003630933364386441 0
0.002506885921076245 -0.0032333811203239613 0
0.002349751503847654 -0.0028581237483857624 0
0.002190729256268762 -0.00250540404664377 0
0.0020297988866622 -0.002175448101206511 0
0.0018669344373863834 -0.0018684550462531278 0
0.001702104735588548 -0.0015845819883779089 0
0.001535276539281479 -0.0013239226340506349 0
0.0013664236788928955 -0.0010864785084241052 0
0.00119554860627391 -0.0008721232692089121 0
0.0010227282026811866 -0.0006805652646161412 0
0.0008482043818336557 -0.0005113250235280227 0
0.0006725516469430973 -0.0003637712121807834 0
0.0004969623563663505 -0.0002373193446963074 0
0.0003236696958863427 -0.00013203516391143257 0
0.0001563815989594265 -5.020010580975079e-5 0
0.0 0.0 0
0.00782170280745394 -0.08981854629411715 0
0.007817830624162091 -0.08847951556049541 0
0.007814946956254917 -0.08714023944071163 0
0.007811897728797753 -0.08580211753615098 0
0.007807819445730793 -0.08446579987682663 0
0.007802209416348985 -0.08313150325260725 0
0.007794843578261801 -0.08179927442028058 0
0.007785656994470504 -0.08046914544507142 0
0.007774657929779013 -0.07914119304971066 0
0.007761881983028637 -0.07781554705038454 0
0.007747370512977772 -0.07649238151512146 0
0.007731161579069594 -0.07517190287572102 0
0.007713286885937269 -0.0738543396538732 0
0.007693771427516294 -0.0725399347684475 0
0.00767263421984984 -0.07122894017167881 0
0.0076498893656978305 -0.06992161327285944 0
0.007625547115544607 -0.06861821463374113 0
0.007599614793534256 -0.0673190065287396 0
0.007572097552522386 -0.06602425207456267 0
0.007542998964656649 -0.0647342147247148 0
0.007512321470129331 -0.06344915799166653 0
0.00748006671069503 -0.06216934530693843 0
0.007446235773052248 -0.06089503996172476 0
0.007410829363612896 -0.0596265050922432 0
0.00737384793214489 -0.058364003688052654 0
0.007335291757991523 -0.05710779861056647 0
0.007295161009331634 -0.05585815261460166 0
0.0072534557833040135 -0.054615328369229076 0
0.0072101761327437435 -0.05337958847620659 0
0.007165322083685387 -0.05215119548542086 0
0.007118893646593235 -0.05093041190736393 0
0.007070890823396422 -0.04971750022295808 0
0.007021313611767419 -0.048512722891144486 0
0.006970162007624197 -0.04731634235465953 0
0.006917436006514637 -0.04612862104438074 0
0.006863135604317085 -0.04494982138256816 0
0.0068072607975382905 -0.04378020578526485 0
0.0067498115833862435 -0.042620036664066 0
0.006690787959727558 -0.04146957642741742 0
0.006630189924994045 -0.0403290874815671 0
0.006568017478075458 -0.03919883223126134 0
0.006504270618217297 -0.0380790730802552 0
0.006438949344932833 -0.036970072431687345 0
0.006372053657931849 -0.03587209268835739 0
0.006303583557065994 -0.03478539625293263 0
0.006233539042288852 -0.03371024552810442 0
0.006161920113628588 -0.03264690291670813 0
0.00608872677117087 -0.031595630821816684 0
0.006013959015050335 -0.03055669164681402 0
0.005937616845449081 -0.029530347795452126 0
0.005859700262601459 -0.02851686167189243 0
0.005780209266804656 -0.027516495680730415 0
0.005699143858435315 -0.026529512226999355 0
0.0056165040379728 -0.02555617371614724 0
0.005532289806030406 -0.024596742553977362 0
0.0054465011633962205 -0.023651481146541174 0
0.005359138111086075 -0.02272065189996813 0
0.005270200650411287 -0.02180451722021478 0
0.0051796887830645125 -0.020903339512712112 0
0.005087602511226468 -0.020017381181888505 0
0.004993941837695596 -0.019146904630544012 0
0.004898706766039644 -0.0182921722590538 0
0.0048018973007629175 -0.017453446464382284 0
0.004703513447472305 -0.016630989638899828 0
0.004603555213007474 -0.01582506416900992 0
0.004502022605470349 -0.015035932433621554 0
0.004398915634040838 -0.014263856802539323 0
0.004294234308389085 -0.013509099634897784 0
0.004187978637377379 -0.012771923277836635 0
0.004080148626567519 -0.012052590065700705 0
0.003970744273787432 -0.011351362320148257 0
0.0038597655616300045 -0.010668502351652127 0
0.003747212445214467 -0.010004272462953722 0
0.00363308483278183 -0.009358934955035186 0
0.00351738255565832 -0.008732752136025784 0
0.003400105322735479 -0.00812598633302064 0
0.0032812526528209346 -0.007538899905843837 0
0.0031608237759741514 -0.0069717552599945064 0
0.0030388174922888343 -0.006424814852856834 0
0.002915231973685134 -0.005898341181966962 0
0.002790064491548729 -0.005392596735601304 0
0.0026633110513595596 -0.004907843872618757 0
0.0025349659163977937 -0.004444344578228958 0
0.002405021009049115 -0.004002360012430321 0
0.002273465195045588 -0.0035821497250247015 0
0.002140283491385499 -0.0031839703521766415 0
0.0020054563062904176 -0.002808073532790113 0
0.0018689589417372836 -0.002454702691876375 0
0.0017307618022063922 -0.002124088248287795 0
0.001590832115488594 -0.0018164407585181666 0
0.0014491385728856198 -0.0015319416052087358 0
0.0013056612682398076 -0.001270731286422476 0
0.0011604108255168764 -0.0010328965757032205 0
0.001013462801248948 -0.0008184606049559791 0
0.0008650162609836008 -0.0006273857664877837 0
0.0007154880135679015 -0.0004596109236824588 0
0.0005656533317646279 -0.00031516634103436305 0
0.00041683163856501645 -0.00019444894844042286 0
0.0002710704261636575 -9.880355556065658e-5 0
0.00013115531647058456 -3.162166482206602e-5 0
0.0 0.0 0
0.006509613127275457 -0.08980608569964238 0
0.0065061405950238484 -0.0884716134832748 0
0.006503539056656037 -0.08713546825424706 0
0.006500980025361816 -0.08579916744790378 0
0.006497771474021978 -0.08446366240740863 0
0.006493436471334274 -0.08312950805648553 0
0.006487703410641672 -0.08179702831981668 0
0.00648045039725888 -0.08046644150525425 0
0.006471645261154548 -0.07913793487745159 0
0.006461301486871729 -0.07781169897955882 0
0.006449451568414496 -0.07648793894225016 0
0.006436132661257658 -0.07516687552449298 0
0.006421379658204322 -0.07384874254451758 0
0.0064052223934760255 -0.07253378361141584 0
0.006387684991597312 -0.0712222492317003 0
0.006368786235511889 -0.06991439456800642 0
0.006348540342944941 -0.06861047782078929 0
0.0063269578359193765 -0.0673107591110083 0
0.0063040463535550895 -0.06601549973378922 0
0.006279811347744221 -0.06472496167362261 0
0.006254256647652246 -0.06343940729778884 0
0.006227384901265318 -0.062159099168040265 0
0.006199197911337189 -0.06088429992891843 0
0.006169696885340111 -0.05961527224458473 0
0.0061388826179140646 -0.05835227876558443 0
0.006106755621786458 -0.05709558211351638 0
0.0060733162202308505 -0.0558454448759842 0
0.006038564611367341 -0.054602129607104734 0
0.006002500912199036 -0.05336589883072831 0
0.005965125188297896 -0.05213701504471683 0
0.005926437473482838 -0.05091574072536628 0
0.005886437782625047 -0.04970233833151041 0
0.005845126119806517 -0.04849707030810501 0
0.00580250248338887 -0.04730019908924081 0
0.005758566869064117 -0.046111987100610125 0
0.005713319271614504 -0.04493269676148779 0
0.00566675968586571 -0.04376259048629947 0
0.005618888107151165 -0.04260193068584991 0
0.005569704531491102 -0.04145097976827617 0
0.005519208955614422 -0.04031000013978286 0
0.005467401376901055 -0.039179254205206196 0
0.005414281793290759 -0.03805900436844541 0
0.005359850203183534 -0.03694951303279236 0
0.005304106605344932 -0.03585104260118371 0
0.0052470509988216596 -0.034763855476394476 0
0.005188683382869125 -0.03368821406118819 0
0.005129003756890065 -0.03262438075843425 0
0.005068012120382828 -0.0315726179712009 0
0.005005708472897198 -0.030533188102829203 0
0.004942092813996115 -0.02950635355699146 0
0.004877165143221756 -0.028492376737735137 0
0.004810925460065291 -0.027491520049511265 0
0.004743373763939914 -0.026504045897184404 0
0.0046745100541577805 -0.025530216686018705 0
0.00460433432991216 -0.024570294821632033 0
0.004532846590267276 -0.02362454270990765 0
0.004460046834159155 -0.022693222756849436 0
0.004385935060411937 -0.02177659736836376 0
0.0043105112677747455 -0.020874928949947143 0
0.004233775454984441 -0.01998847990625541 0
0.004155727620858023 -0.01911751264052653 0
0.0040763677644148465 -0.018262289553826264 0
0.003995695885020296 -0.017423073044083297 0
0.003913711982527354 -0.016600125504879555 0
0.0038304160573651045 -0.01579370932396208 0
0.00374580811047853 -0.0150040868814454 0
0.0036598881429516536 -0.01423152054767826 0
0.0035726561550341093 -0.013476272680754409 0
0.003484112144120714 -0.012738605623653308 0
0.003394256100980877 -0.012018781700996939 0
0.003303088003166677 -0.011317063215397103 0
0.0032106078040046787 -0.010633712443328766 0
0.003116815414845664 -0.009968991630375847 0
0.0030217106772507446 -0.009323162985520267 0
0.002925293320470142 -0.008696488673825099 0
0.002827562897870107 -0.008089230806313059 0
0.0027285186938620296 -0.007501651424937064 0
0.0026281595904352347 -0.006934012479099275 0
0.0025264838797789428 -0.006386575787948165 0
0.0024234890071385237 -0.005859602979327885 0
0.0023191712268531423 -0.005353355391324345 0
0.0022135251560361103 -0.00486809391529943 0
0.0021065432172687436 -0.004404078749522084 0
0.0019982149783788084 -0.0039615690194851555 0
0.0018885264308103795 -0.0035408222047229347 0
0.0017774593088751422 -0.0031420932937923393 0
0.0016649906559677821 -0.0027656335737422434 0
0.0015510930128447196 -0.0024116889597674833 0
0.001435735867230778 -0.002080497811419555 0
0.0013188894006185938 -0.0017722883187312733 0
0.0012005321371887463 -0.0014872758821306107 0
0.001080664868821788 -0.0012256616524178472 0
0.0009593341740962344 -0.00098763488991485 0
0.0008366697952172173 -0.0007733846239626548 0
0.0007129405555909457 -0.0005831311369379943 0
0.0005886320781234381 -0.000417196264814886 0
0.00046454339551483083 -0.00027614451804355557 0
0.00034188281601445463 -0.00016104372854188758 0
0.00022230605478230854 -7.390417787907074e-5 0
0.0001077705011173871 -1.831221314858677e-5 0
0.0 0.0 0
0.0052020398302826685 -0.08979537855326267 0
0.005199096302964154 -0.08846452182023626 0
0.0051968662180462855 -0.08713099445341622 0
0.0051947595202562575 -0.08579635403154079 0
0.0051922526372731774 -0.08446171611791313 0
0.005188949119220306 -0.08312784814275467 0
0.0051845914948029995 -0.08179527445413987 0
0.005179039731136697 -0.08046436950033062 0
0.005172236536636578 -0.07913542678512894 0
0.00516417471677178 -0.07780870232378752 0
0.005154873070763786 -0.07648443841019287 0
0.005144361045643159 -0.0751628750430829 0
0.005132669998781558 -0.07384425464393789 0
0.005119828787986848 -0.07252882348647832 0
0.005105861952748599 -0.07121683167465216 0
0.005090789328838241 -0.06990853257986498 0
0.005074626380440282 -0.06860418215655982 0
0.005057384832474266 -0.0673040383097216 0
0.005039073374498458 -0.06600836037172174 0
0.00501969832148268 -0.06471740869466876 0
0.004999264182524342 -0.06343144434447819 0
0.0049777741246129934 -0.06215072887730696 0
0.004955230336776759 -0.06087552417954992 0
0.004931634307894586 -0.05960609235536937 0
0.004906987033752057 -0.05834269564896461 0
0.004881289168317175 -0.057085596391769466 0
0.004854541132317873 -0.0558350569672514 0
0.004826743189902452 -0.05459133978795148 0
0.004797895501919563 -0.053354707280905515 0
0.0047679981623754185 -0.052125421878709714 0
0.00473705122298534 -0.050903746014314924 0
0.004705054709431167 -0.04968994211822886 0
0.004672008631929614 -0.04848427261722822 0
0.004637912991959161 -0.0472869999339815 0
0.004602767786435607 -0.04609838648718904 0
0.004566573010222851 -0.04491869469198993 0
0.004529328657579071 -0.043748186960479836 0
0.004491034722937576 -0.04258712570224843 0
0.004451691201283658 -0.041435773324885336 0
0.0044112980882948264 -0.040294392234430494 0
0.004369855380349619 -0.0391632448357599 0
0.00432736307446874 -0.03804259353290775 0
0.004283821168226207 -0.036932700729330456 0
0.004239229659651287 -0.03583382882812035 0
0.004193588547131992 -0.03474624023217734 0
0.004146897829324616 -0.03367019734434677 0
0.004099157505070493 -0.032605962567530025 0
0.004050367573319207 -0.031553798304773964 0
0.004000528033056823 -0.030513966959343195 0
0.003949638883237349 -0.02948673093477823 0
0.0038977001227159455 -0.028472352634940485 0
0.003844711750182766 -0.027471094464043933 0
0.003790673764097141 -0.026483218826671016 0
0.003735586162622509 -0.0255089881277686 0
0.0036794489435636865 -0.0245486647726174 0
0.003622262104309294 -0.023602511166765823 0
0.003564025641783612 -0.022670789715915768 0
0.0035047395524133817 -0.021753762825744673 0
0.0034444038321164243 -0.020851692901643334 0
0.00338301847631912 -0.019964842348343954 0
0.00332058348000878 -0.0190934735694062 0
0.0032570988378226363 -0.01823784896652133 0
0.0031925645441660605 -0.01739823093858359 0
0.0031269805933348926 -0.016574881880465558 0
0.0030603469795861277 -0.01576806418141568 0
0.002992663697049853 -0.014978040222973117 0
0.002923930739293975 -0.014205072376261264 0
0.0028541480982271 -0.01344942299847524 0
0.002783315761835368 -0.012711354428313119 0
0.002711433709970044 -0.011991128980007423 0
0.0026385019070019576 -0.011289008935482226 0
0.002564520289595481 -0.010605256533976794 0
0.0024894887470812655 -0.00994013395822088 0
0.002413407090871737 -0.009293903315899068 0
0.002336275008019545 -0.00866682661467677 0
0.002258091992338656 -0.00805916572845936 0
0.0021788572445115865 -0.0074711823518056495 0
0.002098569530411056 -0.00690313793853145 0
0.0020172269847646656 -0.006355293619578853 0
0.0019348268458848476 -0.005827910094343423 0
0.001851365107570929 -0.005321247489150018 0
0.00176683607835237 -0.004835565177016009 0
0.0016812318490713825 -0.00437112155523855 0
0.0015945416922487723 -0.00392817378340973 0
0.0015067514580436718 -0.003506977497124001 0
0.0014178431024114526 -0.003107786536886709 0
0.0013277945975381559 -0.0027308527761826674 0
0.0012365806505651455 -0.0023764262124505524 0
0.0011441749132190889 -0.0020447556266902354 0
0.001050554716888769 -0.0017360903692683254 0
0.0009557098119588615 -0.0014506842742686888 0
0.0008596570808044769 -0.0011888034816292358 0
0.0007624635957560097 -0.0009507412730486782 0
0.0006642804025630898 -0.0007368452080237286 0
0.0005653884193403975 -0.0005475652152110503 0
0.0004662547329960767 -0.0003835359766463764 0
0.0003675904657083818 -0.00024571210893475074 0
0.00027038755800137284 -0.00013557643948030527 0
0.00017588890591707754 -5.54277321896891e-5 0
8.541855884376127e-5 -8.690495384176866e-6 0
0.0 0.0 0
0.003897965391773759 -0.08978674815519755 0
0.0038956471223342078 -0.08845864117407247 0
0.003893872234641154 -0.08712716945576934 0
0.0038922343670300427 -0.08579390343838879 0
0.0038903606757151373 -0.0844600507550011 0
0.003887952522972178 -0.08312651038056673 0
0.0038848000291508795 -0.08179394238505677 0
0.0038807757518348534 -0.08046283767964893 0
0.003875816749356917 -0.07913357721061015 0
0.0038699038582691984 -0.07780647607226168 0
0.0038630437951624745 -0.07648181303460508 0
0.003855256144784858 -0.07515984866068753 0
0.0038465650172098778 -0.07384083565605525 0
0.0038369942754569995 -0.0725250243946541 0
0.003826565168889078 -0.071212665631762 0
0.0038152954433556714 -0.06990401165706853 0
0.0038031992790036185 -0.0685993166275595 0
0.003790287638997641 -0.0672988365003448 0
0.0037765687796534235 -0.06600282879575978 0
0.003762048783496828 -0.06471155231157673 0
0.00374673204615064 -0.0634252668474917 0
0.003730621688958014 -0.062144232965232124 0
0.0037137198919451803 -0.06086871179177606 0
0.003696028153134992 -0.05959896486433396 0
0.003677547484999847 -0.05833525401188352 0
0.003658278559946765 -0.0570778412668477 0
0.0036382218159670297 -0.05582698880064544 0
0.003617377532021585 -0.0545829588775833 0
0.0035957458809603763 -0.05334601382249587 0
0.003573326966092624 -0.05211641599847543 0
0.003550120846068395 -0.050894427791862415 0
0.0035261275515391616 -0.049680311602365336 0
0.0035013470961257746 -0.04847432983673591 0
0.003475779483504825 -0.04727674490486118 0
0.0034494247118890702 -0.04608781921746251 0
0.00342228277678666 -0.04490781518483667 0
0.003394353672643283 -0.043736995216251934 0
0.0033656373937735232 -0.04257562171973954 0
0.003336133934850013 -0.04142395710211029 0
0.0033058432911252 -0.04028226376908791 0
0.0032747654584968687 -0.039150804125492614 0
0.0032429004334869585 -0.0380298405754356 0
0.003210248213175329 -0.03691963552250377 0
0.003176808795112961 -0.0358204513699246 0
0.0031425821772277742 -0.034732550520708054 0
0.0031075683577297176 -0.03365619537776595 0
0.003071767335017475 -0.03259164834401116 0
0.0030351791075871803 -0.03153917182243971 0
0.0029978036739420726 -0.030499028216198314 0
0.002959641032501833 -0.029471479928639792 0
0.0029206911815100756 -0.028456789363367294 0
0.0028809541189390485 -0.027455218924267707 0
0.0028404298423910534 -0.026467031015532733 0
0.002799118348997173 -0.02549248804166473 0
0.0027570196353148488 -0.02453185240746244 0
0.0027141336972275358 -0.023585386517979316 0
0.0026704605298511347 -0.022653352778444096 0
0.00262600012745386 -0.021736013594129522 0
0.002580752483397695 -0.020833631370149874 0
0.002534717590110871 -0.019946468511161244 0
0.0024878954391003303 -0.019074787420929044 0
0.0024402860210104103 -0.018218850501714717 0
0.0023918893257263104 -0.017378920153415196 0
0.002342705342505848 -0.01655525877236414 0
0.0022927340600955425 -0.01574812874966835 0
0.0022419754667412774 -0.01495779246890345 0
0.0021904295499298675 -0.014184512302923526 0
0.0021380962955838824 -0.013428550609443061 0
0.002084975686260494 -0.012690169724916829 0
0.00203106769765416 -0.011969631956062796 0
0.001976372292344291 -0.011267199568131908 0
0.0019208894092292443 -0.010583134768712841 0
0.0018646189464083592 -0.009917699685458017 0
0.0018075607343759907 -0.009271156335625412 0
0.0017497144952440468 -0.008643766584761325 0
0.0016910797823048783 -0.008035792091247423 0
0.001631655892626657 -0.007447494232905206 0
0.001571441743677083 -0.006879134011595762 0
0.001510435703505222 -0.006330971932139001 0
0.001448635363365127 -0.00580326785352795 0
0.0013860372428812194 -0.005296280814347021 0
0.00132263642267905 -0.004810268842121939 0
0.001258426110626497 -0.00434548877048644 0
0.001193397169733842 -0.003902196112200103 0
0.0011275376746405722 -0.0034806450754987883 0
0.001060832628241162 -0.0030810888735398495 0
0.0009932640717058739 -0.0027037805723387517 0
0.000924811972867147 -0.0023489748661483754 0
0.0008554564908499846 -0.0020169313810077224 0
0.0007851824904263502 -0.0017079204160960837 0
0.0007139874939908638 -0.0014222324807514376 0
0.0006418945360485744 -0.0011601936335913945 0
0.0005689714555493419 -0.0009221895592276232 0
0.0004953577106449095 -0.0007087026012940289 0
0.00042129831200261587 -0.0005203675753543743 0
0.0003471811924550424 -0.00035805369756155257 0
0.00027356834737309114 -0.0002229799412769064 0
0.00020120176128794536 -0.00011686572818415432 0
0.0001309537218266859 -4.2099297418254695e-5 0
6.368525419665775e-5 -1.8558542156937006e-6 0
0.0 0.0 0
0.002596462399962662 -0.08978042887192361 0
0.002594838048135694 -0.08845425462242014 0
0.002593583368959696 -0.08712425588913768 0
0.0025924434752275945 -0.08579200798124255 0
0.002591180166340964 -0.08445877039355716 0
0.002589595727669129 -0.0831255203643831 0
0.00258754378211818 -0.08179300325541342 0
0.0025849287777090194 -0.08046178789764599 0
0.0025816979207629927 -0.07913231788631381 0
0.0025778298804896636 -0.07780495368913527 0
0.0025733236994348904 -0.07648000404078305 0
0.002568189811826737 -0.07515774757327803 0
0.0025624437030907464 -0.07383844677010909 0
0.002556101929223682 -0.07252235646070698 0
0.0025491799129723734 -0.07120972869746635 0
0.0025416909325002637 -0.06990081536116909 0
0.0025336458363619785 -0.06859586940502403 0
0.0025250531562563245 -0.06729514532206819 0
0.002515919405573003 -0.06599889919697732 0
0.0025062494373882306 -0.06470738855711058 0
0.0024960467932074884 -0.06342087214531952 0
0.002485314009975007 -0.06213960968049362 0
0.0024740528741583018 -0.06086386163819021 0
0.002462264623248936 -0.059593889064439354 0
0.002449950100528458 -0.0583299534253499 0
0.0024371098709434955 -0.0570723164899261 0
0.0024237443060303927 -0.05582124024130929 0
0.0024098536450087894 -0.05457698681112831 0
0.0023954380379995407 -0.053339818431954435 0
0.002380497576121464 -0.05210999740353636 0
0.002365032312136368 -0.05088778606927448 0
0.0023490422743989514 -0.04967344680014492 0
0.002332527476138003 -0.048467241983938286 0
0.0023154879215295044 -0.04726943401821991 0
0.0022979236095975 -0.046080285305847075 0
0.0022798345366652696 -0.044900058252208 0
0.0022612206978537466 -0.043729015263596016 0
0.002242082087963716 -0.04256741874631311 0
0.0022224187019666717 -0.04141553110622799 0
0.0022022305352518944 -0.04027361474860699 0
0.0021815175837254864 -0.039141932078099434 0
0.002160279843821774 -0.03802074549880374 0
0.0021385173124648655 -0.03691031741436861 0
0.0021162299870026904 -0.035810910228103954 0
0.0020934178651266715 -0.03472278634308765 0
0.0020700809447838603 -0.03364620816226132 0
0.002046219224084725 -0.032581438088513597 0
0.0020218327012074796 -0.03152873852475073 0
0.0019969213742986906 -0.030488371873955946 0
0.001971485241369113 -0.029460600539239143 0
0.0019455243001837632 -0.028445686923877837 0
0.001919038548145185 -0.027443893431350258 0
0.0018920279821696582 -0.026455482465360072 0
0.0018644925985567217 -0.025480716429851325 0
0.0018364323928537862 -0.02451985772901035 0
0.0018078473597189077 -0.02357316876724988 0
0.0017787374927870235 -0.022640911949167244 0
0.0017491027845468485 -0.021723349679465244 0
0.001718943226238338 -0.020820744362818458 0
0.0016882588077825813 -0.01993335840366017 0
0.0016570495177578742 -0.01906145420585356 0
0.0016253153434355166 -0.01820529417219456 0
0.0015930562708860666 -0.017365140703669697 0
0.0015602722851584688 -0.01654125619835795 0
0.001526963370517942 -0.015733903049816395 0
0.0014931295106985476 -0.01494334364471927 0
0.0014587706890768608 -0.014169840359421645 0
0.001423886888594406 -0.013413655554982643 0
0.0013884780911371756 -0.012675051569996626 0
0.0013525442759040238 -0.011954290710330774 0
0.0013160854160433515 -0.011251635234539755 0
0.001279101472485218 -0.010567347333310093 0
0.0012415923834188714 -0.009901689100773353 0
0.0012035580472380427 -0.009254922494929345 0
0.0011649982959802765 -0.008627309283780521 0
0.0011259128553214779 -0.008019110973196906 0
0.0010863012860898424 -0.0074305887122036425 0
0.001046162901139761 -0.0068620031716678485 0
0.0010054966505010008 -0.006313614393866057 0
0.0009643009674117342 -0.005785681614135254 0
0.000922573568888759 -0.005278463063324206 0
0.0008803112080972112 -0.00479221577348017 0
0.0008375093838845732 -0.004327195432711282 0
0.0007941620283968539 -0.003883656373602016 0
0.0007502612210589928 -0.003461851840039134 0
0.0007057970225045952 -0.0030620347691971547 0
0.0006607575933163547 -0.002684459460306513 0
0.0006151298690208583 -0.0023293846926808717 0
0.0005689012128427944 -0.0019970791147525973 0
0.0005220626618752278 -0.0016878300618569932 0
0.00047461459995174187 -0.0014019573722076773 0
0.00042657586508043546 -0.0011398342411828711 0
0.0003779972819723565 -0.0009019176416173595 0
0.00032898013142242116 -0.0006887912497135323 0
0.00027969872540866455 -0.000501223932956304 0
0.00023042357754057602 -0.0003402461358730974 0
0.00018153732236058444 -0.00020724367530134427 0
0.0001335299138774783 -0.00010406090240347564 0
8.695496677445604e-5 -3.308838809338522e-5 0
4.233174127502385e-5 2.7206348762068e-6 0
0.0 0.0 0
0.001296651992118163 -0.08977658169488222 0
0.001295765534310292 -0.08845155139397913 0
0.0012950743809972774 -0.08712243407108726 0
0.0012944576248945564 -0.0857908091336675 0
0.0012938008652347605 -0.08445796313360227 0
0.0012930060315907745 -0.08312491373691468 0
0.0012919967969914259 -0.08179245146437128 0
0.0012907198010223611 -0.0804611881978868 0
0.0012891424967437749 -0.07913160402284869 0
0.0012872489363174792 -0.07780408739835869 0
0.0012850348998587936 -0.07647896666050508 0
0.0012825034383290635 -0.07515653298631249 0
0.0012796613867486458 -0.07383705611402686 0
0.00127651696063055 -0.07252079451102815 0
0.0012730782884384523 -0.07120800159351089 0
0.0012693526392362545 -0.06989892929975776 0
0.0012653461112855367 -0.06859382997727316 0
0.0012610635956139793 -0.06729295724730905 0
0.001256508883874812 -0.06599656628307866 0
0.0012516848369030287 -0.06470491377650789 0
0.0012465935651337259 -0.06341825775938482 0
0.0012412365954103594 -0.06213685737407145 0
0.0012356150132418488 -0.06086097264470402 0
0.0012297295779184422 -0.05959086427315748 0
0.0012235808122255782 -0.05832679346871174 0
0.0012171690703756397 -0.0570690218120796 0
0.0012104945882672553 -0.05581781115043446 0
0.0012035575199556025 -0.054573423518515095 0
0.0011963579636766132 -0.05333612108066609 0
0.0011888959801420926 -0.05210616608911562 0
0.0011811716052266533 -0.050883820854505865 0
0.0011731848586530402 -0.04966934772545817 0
0.0011649357498636063 -0.04846300907466484 0
0.0011564242819394762 -0.047265067289606895 0
0.0011476504541808666 -0.04607578476649154 0
0.0011386142637799558 -0.044895423906389335 0
0.0011293157068847804 -0.04372424711284616 0
0.0011197547792588679 -0.04256251679046299 0
0.0011099314766748478 -0.041410495344096486 0
0.001099845795134914 -0.04026844517844617 0
0.0010894977309793086 -0.039136628697874425 0
0.0010788872809231814 -0.038015308306359706 0
0.001068014442047536 -0.03690474640752079 0
0.0010568792117608174 -0.03580520540467427 0
0.0010454815877410449 -0.03471694770090381 0
0.001033821567864536 -0.03364023569912896 0
0.0010218991501242162 -0.032575331802168234 0
0.001009714332538936 -0.03152249841279451 0
0.0009972671130539217 -0.030481997933782583 0
0.0009845574894320182 -0.0294540927679498 0
0.000971585459134834 -0.028439045318190886 0
0.0009583510191932422 -0.027437117987508263 0
0.0009448541660667935 -0.02644857317903827 0
0.0009310948954925343 -0.025473673296073425 0
0.0009170732023247014 -0.024512680742079653 0
0.0009027890803685068 -0.023565857920705965 0
0.0008882425222131372 -0.022633467235781874 0
0.0008734335190719968 -0.021715771091294425 0
0.0008583620606412565 -0.020813031891331407 0
0.0008430281349918005 -0.01992551203996953 0
0.000827431728513621 -0.01905347394107415 0
0.0008115728259361454 -0.018197179997959 0
0.000795451410451537 -0.017356892612827548 0
0.0007790674639704321 -0.01653287418587768 0
0.0007624209675388223 -0.015725387113894283 0
0.0007455119019392223 -0.014934693788071685 0
0.000728340248485433 -0.014161056590692037 0
0.0007109059899942179 -0.013404737890124637 0
0.0006932091118731533 -0.012666000033391748 0
0.000675249603194678 -0.011945105335253293 0
0.0006570274575227168 -0.011242316062381375 0
0.0006385426731094712 -0.010557894410713453 0
0.0006197952518736115 -0.009892102473489756 0
0.0006007851962954676 -0.009245202196814569 0
0.000581512503009162 -0.00861745531889367 0
0.0005619771514328058 -0.008009123288521786 0
0.0005421790852647218 -0.007420467158175614 0
0.0005221181841202935 -0.0068517474476533 0
0.0005017942220658658 -0.006303223976338192 0
0.00048120680946887797 -0.005775155667063738 0
0.0004603553146852261 -0.00526780033411802 0
0.0004392387630842219 -0.004781414485043731 0
0.00041785571349119534 -0.004316253194838959 0
0.00039620411747851345 -0.003872570158056931 0
0.0003742811769247023 -0.0034506180975199976 0
0.00035208323281912417 -0.003050649818766659 0
0.0003296057478937533 -0.002672920359842693 0
0.00030684349382096475 -0.002317690909673244 0
0.0002837911289504427 -0.0019852354635406604 0
0.0002604444634989076 -0.001675851546024899 0
0.00023680285742763019 -0.00138987672645437 0
0.00021287335860116271 -0.0011277129976510478 0
0.00018867728155125998 -0.0008898612373071737 0
0.00016425975847116718 -0.0006769676980665415 0
0.000139702040884656 -0.0004898834648487584 0
0.00011513461914311153 -0.00032973561777342226 0
9.074640612709665e-5 -0.00019800468645834546 0
6.678188256276309e-5 -9.65956405161264e-5 0
4.351626301380962e-5 -2.7877717926621456e-5 0
2.1202605754558677e-5 5.34749454411543e-6 0
0.0 0.0 0
-2.319287375823278e-6 -0.08977530095449142 0
-2.4471475381101678e-6 -0.08845064003965833 0
-2.5533385601602835e-6 -0.08712180876532209 0
-2.6321295076100147e-6 -0.08579039261388176 0
-2.6795577929920737e-6 -0.08445768695110267 0
-2.6959956789930118e-6 -0.0831247192676358 0
-2.686151254992503e-6 -0.08179229077977454 0
-2.657265803059111e-6 -0.08046102453000044 0
-2.6169604616105944e-6 -0.07913141131426057 0
-2.5716957704938443e-6 -0.07780384889198648 0
-2.526101645277441e-6 -0.0764786729007142 0
-2.4829868898308863e-6 -0.07515617971391171 0
-2.4437057604306723e-6 -0.07383664241512357 0
-2.4086187545855625e-6 -0.07252032138669591 0
-2.377499724012511e-6 -0.07120747096386373 0
-2.3498358197580123e-6 -0.0698983433736185 0
-2.3250210383028465e-6 -0.06859319089294838 0
-2.3024662173368406e-6 -0.06729226689615218 0
-2.2816519595237353e-6 -0.06599582624621377 0
-2.2621466473335305e-6 -0.06470412532535696 0
-2.2436053922653484e-6 -0.06341742188774686 0
-2.2257600824897457e-6 -0.062135974842203394 0
-2.208406457823687e-6 -0.060860044024513144 0
-2.191391321377896e-6 -0.05958988998912507 0
-2.174601278662411e-6 -0.05832577383244657 0
-2.1579534353519906e-6 -0.057067957050204954 0
-2.1413880025108463e-6 -0.055816701426398975 0
-2.1248625552037e-6 -0.05457226894926776 0
-2.108347636330479e-6 -0.05333492174919195 0
-2.09182341540514e-6 -0.05210492205374278 0
-2.0752771570364295e-6 -0.0508825321557529 0
-2.05870130436296e-6 -0.04966801439103935 0
-2.042092028077166e-6 -0.04846163112313251 0
-2.025448128789349e-6 -0.047263644732994374 0
-2.0087702089328523e-6 -0.04607431761222668 0
-1.9920600518159367e-6 -0.04489391215867759 0
-1.9753201607344418e-6 -0.0437226907736674 0
-1.958553422606612e-6 -0.04256091586028708 0
-1.941762868604745e-6 -0.041408849822392804 0
-1.9249515105767357e-6 -0.04026675506404192 0
-1.9081222365756552e-6 -0.03913489398920076 0
-1.8912777525941737e-6 -0.03801352900161433 0
-1.8744205603911306e-6 -0.036902922504767614 0
-1.8575529637504436e-6 -0.035803336901895105 0
-1.8406770974521676e-6 -0.03471503459601297 0
-1.8237949749525627e-6 -0.03363827798995887 0
-1.8069085519552037e-6 -0.03257332948643186 0
-1.7900198043807147e-6 -0.031520451488028955 0
-1.773130819975402e-6 -0.03047990639727743 0
-1.7562439035186327e-6 -0.029451956616663263 0
-1.7393616958701422e-6 -0.02843686454865687 0
-1.7224873073872876e-6 -0.027434892595737843 0
-1.7056244659195247e-6 -0.02644630316042014 0
-1.6887776791751851e-6 -0.025471358645279395 0
-1.6719524100933729e-6 -0.024510321452983357 0
-1.6551552625018628e-6 -0.023563453986325908 0
-1.6383941719809817e-6 -0.02263101864826349 0
-1.6216785939000062e-6 -0.021713277841950387 0
-1.6050196763999388e-6 -0.02081049397076493 0
-1.5884304007974454e-6 -0.019922929438311806 0
-1.5719256648305118e-6 -0.01905084664837428 0
-1.5555222753564103e-6 -0.01819450800477303 0
-1.5392388057312142e-6 -0.017354175911061507 0
-1.5230952590610954e-6 -0.016530112769948077 0
-1.5071124607478732e-6 -0.01572258098227688 0
-1.4913110818812703e-6 -0.014931842945314822 0
-1.475710167724942e-6 -0.014158161049972367 0
-1.4603250119822112e-6 -0.013401797676418949 0
-1.4451641759254675e-6 -0.012663015187325407 0
-1.4302254004017902e-6 -0.01194207591766075 0
-1.4154900960150026e-6 -0.011239242159572551 0
-1.4009160207124558e-6 -0.010554776140377597 0
-1.3864276630195208e-6 -0.009888939991079988 0
-1.3719037437763655e-6 -0.009241995702138215 0
-1.3571611332569075e-6 -0.00861420506248115 0
-1.3419343661189257e-6 -0.008005829577160206 0
-1.3258498494136756e-6 -0.007417130358775103 0
-1.3083938502540597e-6 -0.006848367988376687 0
-1.2888735123754746e-6 -0.006299802343693312 0
-1.2663706447296853e-6 -0.005771692397485052 0
-1.2396891107755678e-6 -0.005264295998551607 0
-1.2072987276852645e-6 -0.004777869665394474 0
-1.1672822452141178e-6 -0.004312668452223945 0
-1.1172979914950593e-6 -0.0038689459953767345 0
-1.0545800329700922e-6 -0.0034469549243239693 0
-9.760108876922142e-7 -0.0030469479373701055 0
-8.783186868497729e-7 -0.0026691800127848523 0
-7.58468380804053e-7 -0.0023139124674858686 0
-6.143268996567241e-7 -0.0019814198993945474 0
-4.456672128345771e-7 -0.001672001452091842 0
-2.555044092079538e-7 -0.0013859982783640623 0
-5.158560675584114e-8 -0.00112381943432258 0
1.524439700650139e-7 -0.0008859784727306894 0
3.370497505175603e-7 -0.0006731423560802927 0
4.790499129161241e-7 -0.000486192537929706 0
5.567415814409451e-7 -0.000326294785575269 0
5.571251326356488e-7 -0.00019496932336080436 0
4.821651311932577e-7 -9.414614840238691e-5 0
3.493038873638766e-7 -2.6182402131316227e-5 0
1.8288238942335275e-7 6.1880348391442545e-6 0
0.0 0.0 0
-0.0013012938883469362 -0.08977661720834239 0
-0.001300665335745726 -0.08845155496367572 0
-0.001300186662615832 -0.08712241356309545 0
-0.001299724761841861 -0.08579078763351791 0
-0.0012991579144462975 -0.08445796396966833 0
-0.001298390447174518 -0.08312495049310326 0
-0.0012973571200124577 -0.08179252620938096 0
-0.0012960199918766733 -0.08046129481450469 0
-0.0012943618258012758 -0.07913173279798759 0
-0.0012923790836889624 -0.0778042285945208 0
-0.0012900761023315818 -0.07647911243091332 0
-0.001287460930204794 -0.07515667793305215 0
-0.0012845426892828906 -0.07383719705852243 0
-0.0012813300946253763 -0.07252092995463319 0
-0.0012778307510588757 -0.07120813115479546 0
-0.0012740509221606416 -0.06989905325501976 0
-0.0012699955586935525 -0.06859394893398561 0
-0.0012656684509617096 -0.0672930719350172 0
-0.001261072425151816 -0.06599667743213633 0
-0.001256209540211602 -0.06470502205587189 0
-0.0012510812642635124 -0.0634183637508711 0
-0.0012456886225924696 -0.06213696156730954 0
-0.0012400323163419332 -0.06086107544268291 0
-0.0012341128145498324 -0.05959096600233683 0
-0.0012279304235689242 -0.05832689439036559 0
-0.0012214853381825235 -0.05706912213319617 0
-0.0012147776784142167 -0.05581791103344918 0
-0.0012078075154681664 -0.054573523089665774 0
-0.0012005748896108835 -0.05333622043700734 0
-0.0011930798222107636 -0.052106265304333405 0
-0.0011853223236330931 -0.05088391998370178 0
-0.0011773023982585965 -0.04966944680906634 0
-0.001169020047551845 -0.04846310814164522 0
-0.001160475271841562 -0.04726516636003677 0
-0.0011516680712759819 -0.046075883853656366 0
-0.0011425984462699289 -0.044895523018457444 0
-0.00113326639765498 -0.043724346254197036 0
-0.0011236719266695546 -0.042562615962728395 0
-0.001113815034874744 -0.04141059454696343 0
-0.001103695724046937 -0.04026854441026373 0
-0.0010933139960760665 -0.039136727956099224 0
-0.0010826698528837906 -0.03801540758786936 0
-0.0010717632963675363 -0.03690484570881951 0
-0.001060594328371377 -0.035805304722010614 0
-0.0010491629506824247 -0.034717047030316396 0
-0.0010374691650503857 -0.03364033503643328 0
-0.001025512973228072 -0.03257543114289488 0
-0.0010132943770308218 -0.03152259775208691 0
-0.001000813378413691 -0.030482097266261273 0
-0.0009880699795656869 -0.02945419208754944 0
-0.0009750641830209504 -0.028439144617976374 0
-0.0009617959917869963 -0.027437217259477044 0
-0.0009482654094903377 -0.02644867241391789 0
-0.0009344724405393479 -0.025473772483126395 0
-0.000920417090303562 -0.02451277986893206 0
-0.0009060993653071177 -0.023565956973222096 0
-0.0008915192734320237 -0.02263356619801489 0
-0.0008766768241235436 -0.02171586994555306 0
-0.0008615720285854399 -0.020813130618415297 0
-0.0008462048999460962 -0.01992561061964117 0
-0.000830575453367305 -0.019053572352854507 0
-0.0008146837060544427 -0.01819727822235684 0
-0.0007985296771088106 -0.017356990633139915 0
-0.0007821133871377938 -0.016532971990731712 0
-0.0007654348575040277 -0.015725484700738687 0
-0.0007484941090469667 -0.014934791167870783 0
-0.0007312911600447266 -0.014161153794126823 0
-0.0007138260230942243 -0.01340483497566373 0
-0.000696098700465639 -0.01266609709766134 0
-0.0006781091773224418 -0.011945202526208254 0
-0.0006598574119786676 -0.011242413595858097 0
-0.0006413433220763076 -0.010557992591025163 0
-0.0006225667651935757 -0.009892201718797884 0
-0.0006035275119273336 -0.009245303070060036 0
-0.0005842252089272572 -0.008617558565068519 0
-0.000564659328711246 -0.008009229878951196 0
-0.0005448291024144458 -0.00742057834216984 0
-0.0005247334310378201 -0.006851864811224262 0
-0.000504370770499793 -0.0063033495064083395 0
-0.00048373898627312333 -0.00577529181734369 0
-0.0004628351753142129 -0.005267950085034882 0
-0.0004416554574998602 -0.004781581383998856 0
-0.00042019474763067914 -0.004316441353724582 0
-0.00039844653481858536 -0.0038727841714462927 0
-0.00037640272231474764 -0.0034508628268974223 0
-0.00035405362206354017 -0.0030509299669662514 0
-0.0003313882593095531 -0.002673239741001773 0
-0.0003083952266096319 -0.0023180513170993305 0
-0.0002850644304644274 -0.0019856350784246257 0
-0.000261390178513053 -0.0016762829604234438 0
-0.00023737610937201017 -0.0013903249359530773 0
-0.00021304236399431064 -0.001128154194627823 0
-0.00018843496147304776 -0.0008902638273639091 0
-0.00016363637861664145 -0.0006772972964666001 0
-0.00013877483305361248 -0.0004901129121395033 0
-0.00011402825363674671 -0.0003298583481442757 0
-8.961850435129042e-5 -0.00019804500928658113 0
-6.579309429960352e-5 -9.660490685692304e-5 0
-4.279503541945823e-5 -2.7906543028522756e-5 0
-2.082481593382696e-5 5.295967913014795e-6 0
0.0 0.0 0
-0.0026011141574584784 -0.0897804980401837 0
-0.0025997547553291344 -0.0884542582217569 0
-0.002598712457314096 -0.08712421252168089 0
-0.0025977182080263307 -0.08579196750142802 0
-0.002596529079324787 -0.08445877952034556 0
-0.0025949553088817677 -0.0831256034274238 0
-0.0025928666555604923 -0.08179316112939802 0
-0.0025901854169393316 -0.08046200634809274 0
-0.002586873869839372 -0.07913257708047852 0
-0.0025829212957130497 -0.07780523483321115 0
-0.0025783331371212726 -0.07648029253225971 0
-0.0025731230512010595 -0.07515803363812268 0
-0.0025673076687566768 -0.07383872479154797 0
-0.0025609034848228375 -0.07252262387555455 0
-0.002553925250934623 -0.07120998493380887 0
-0.00254638533283465 -0.06990106100301847 0
-0.0025382936341162743 -0.06859610561103398 0
-0.0025296578144943936 -0.06729537345780716 0
-0.002520483632240637 -0.06599912062300273 0
-0.0025107753119055173 -0.06470760452041047 0
-0.002500535885613409 -0.06342108373417578 0
-0.0024897674853357073 -0.062139817815333245 0
-0.0024784715803237325 -0.06086406708097105 0
-0.0024666491627068866 -0.059594092436186165 0
-0.0024543008882285246 -0.05833015522607554 0
-0.002441427180271247 -0.05707251711800067 0
-0.0024280283050230347 -0.05582144001097014 0
-0.0024141044246550705 -0.05457718596770292 0
-0.002399655634176052 -0.05334001716480364 0
-0.002384681986443285 -0.05211019585691513 0
-0.0023691835087611027 -0.050887984351368806 0
-0.0023531602136256415 -0.0496736449905443 0
-0.002336612105480381 -0.048467440139779494 0
-0.0023195391848132916 -0.047269632179207564 0
-0.002301941450525388 -0.04608048349832686 0
-0.002283818901207788 -0.044900256492442996 0
-0.0022651715357539398 -0.04372921356037387 0
-0.0022459993535864954 -0.04256761710299399 0
-0.0022263023546763797 -0.04141572952232714 0
-0.002206080539463608 -0.040273813220992105 0
-0.0021853339087440473 -0.03914213060187062 0
-0.002164062463557979 -0.03802094406791337 0
-0.002142266205098086 -0.03691051602202873 0
-0.0021199451346443727 -0.03581110886702051 0
-0.002097099253527413 -0.03472298500555288 0
-0.002073728563118796 -0.03364640684013045 0
-0.002049833064846296 -0.032581636773085516 0
-0.002025412760231493 -0.03152893720656965 0
-0.0020004676509477693 -0.03048857054254724 0
-0.001974997738897623 -0.029460799182791757 0
-0.0019490030263084855 -0.02844588552888565 0
-0.00192248351584715 -0.027444091982226436 0
-0.0018954392107528525 -0.026455680944041986 0
-0.0018678701149893574 -0.02548091481541958 0
-0.0018397762334155712 -0.02452005599735406 0
-0.0018111575719734726 -0.023573366890821606 0
-0.0017820141378898356 -0.022641109896886245 0
-0.0017523459398855487 -0.02172354741684718 0
-0.001722152988381172 -0.02082094185243409 0
-0.001691435295680559 -0.019933555606055944 0
-0.0016601928761035142 -0.01906165108110378 0
-0.0016284257460232785 -0.018205490682299836 0
-0.0015961339237418398 -0.01736533681606934 0
-0.0015633174291038606 -0.01654145189088744 0
-0.0015299762827031226 -0.015734098317514343 0
-0.0014961105044691272 -0.014943538508973871 0
-0.001461720111327084 -0.014170034880044249 0
-0.001426805113492554 -0.013413849845906519 0
-0.001391365508778008 -0.012675245819422084 0
-0.0013554012740360606 -0.011954485206272273 0
-0.0013189123525212112 -0.011251830396872805 0
-0.0012818986354945308 -0.010567543753558012 0
-0.0012443599357966255 -0.009901887591000667 0
-0.0012062959503497575 -0.009255124147191254 0
-0.001167706207605076 -0.008627515541563002 0
-0.0011285899948365393 -0.008019323716076467 0
-0.0010889462589583137 -0.00743081035439995 0
-0.00104877347335825 -0.006862236773990352 0
-0.0010080694624027644 -0.006313863786341162 0
-0.0009668311753442588 -0.005785951522682223 0
-0.0009250544033284809 -0.005278759227248123 0
-0.0008827334386704816 -0.004792545029909452 0
-0.0008398606871054292 -0.004327565727703147 0
-0.0007964262652424209 -0.003884076635643375 0
-0.0007524176527052231 -0.003462331618928024 0
-0.0007078195294441381 -0.003062583503154151 0
-0.0006626140237639576 -0.0026850851942123886 0
-0.0006167817372166826 -0.002330092051036852 0
-0.0005703041071990512 -0.0019978663780117825 0
-0.0005231679117644459 -0.001688685383310755 0
-0.0004753729709450325 -0.0014028546234068676 0
-0.0004269442265236681 -0.0011407298120937042 0
-0.0003779490965451718 -0.0009027507432382444 0
-0.00032851977546277574 -0.0006894914077370473 0
-0.00027887734353596977 -0.0005017289991749545 0
-0.0002293501497132536 -0.0003405298573968741 0
-0.0001803748076418768 -0.00020734196476308986 0
-0.00013246790490061865 -0.00010407343572302796 0
-8.61626215960389e-5 -3.3128706656275344e-5 0
-4.1915399299424825e-5 2.6272788519157674e-6 0
0.0 0.0 0
-0.0039026334000554115 -0.08978684722449706 0
-0.0039005934356569163 -0.08845863716355673 0
-0.003899029023664336 -0.08712709930542008 0
-0.003897517654499258 -0.08579385111190949 0
-0.0038956890370053193 -0.08446008490603545 0
-0.0038932636430751406 -0.08312665922024753 0
-0.003890055887495571 -0.08179419905188544 0
-0.003885958682531713 -0.08046317656993489 0
-0.003880922267492726 -0.07913396836368694 0
-0.003874934365638982 -0.07780689345806394 0
-0.003868004491459118 -0.07648223756317532 0
-0.0038601528549585284 -0.07516026809556899 0
-0.0038514032278855357 -0.07384124323098057 0
-0.0038417788018955306 -0.07252541718316134 0
-0.003831300102993619 -0.07121304314034232 0
-0.003819984206154676 -0.06990437477829961 0
-0.0038078447008516748 -0.06859966693358413 0
-0.0037948920394905708 -0.06729917580286088 0
-0.003781134039744313 -0.06600315889350566 0
-0.003766576409385692 -0.06471187485998467 0
-0.0037512232261491716 -0.06342558330290618 0
-0.0037350773443792615 -0.06214454457172819 0
-0.003718140722601605 -0.06086901959042352 0
-0.0037004146777019236 -0.05959926971288819 0
-0.003681900076376113 -0.05833555660812676 0
-0.0036625974757579192 -0.05707814217200586 0
-0.0036425072244378083 -0.05582728846116319 0
-0.0036216295335378523 -0.05458325764456399 0
-0.0035999645257184967 -0.05334631196864528 0
-0.003577512268282419 -0.05211671373264312 0
-0.0035542727950545337 -0.0508947252713837 0
-0.003530246120498022 -0.049680608943440153 0
-0.0035054322485687543 -0.04847462712308242 0
-0.0034798311780795876 -0.04727704219486637 0
-0.0034534429058048215 -0.04608811655003452 0
-0.0034262674281613998 -0.0449081125841429 0
-0.003398304742024425 -0.0437372926955081 0
-0.00336955484503962 -0.04257591928419662 0
-0.0033400177356626443 -0.041424254751368565 0
-0.0033096934130660777 -0.04028256149885104 0
-0.0032785818769970805 -0.03915110192885884 0
-0.0032466831276313497 -0.03803013844380914 0
-0.0032139971654466582 -0.036919933446195465 0
-0.0031805239911254866 -0.03582074933849928 0
-0.0031462636054890945 -0.034732848523125213 0
-0.0031112160094614945 -0.03365649340235124 0
-0.0030753812040604477 -0.032591946378288515 0
-0.0030387591904124035 -0.03153946985284829 0
-0.0030013499697887987 -0.030499326227714188 0
-0.002963153543661773 -0.029471777904320054 0
-0.002924169913778408 -0.028457087283834774 0
-0.0028843990822530314 -0.027455516767156414 0
-0.0028438410516779017 -0.0264673287549195 0
-0.0028024958252526556 -0.025492785647521082 0
-0.002760363406932828 -0.02453214984517275 0
-0.002717443801597082 -0.023585683747987862 0
-0.0026737370152313663 -0.022653649756115713 0
-0.0026292430551254887 -0.021736310269936228 0
-0.002583961930073608 -0.02083392769033133 0
-0.0025378936505632567 -0.01994676441905038 0
-0.0024910382289273507 -0.01907508285918735 0
-0.002443395679417912 -0.018219145415785537 0
-0.0023949660181368272 -0.017379214496579788 0
-0.0023457492627240195 -0.01655555251287444 0
-0.002295745431652383 -0.015748421880534467 0
-0.0022449545429040793 -0.014958085021032881 0
-0.002193376611695666 -0.01418480436244396 0
-0.002141011646766261 -0.013428842340190506 0
-0.0020878596445274367 -0.012690461397234851 0
-0.0020339205800730936 -0.011969923983233273 0
-0.0019791943936357773 -0.011267492551937014 0
-0.0019236809705191335 -0.01058342955580009 0
-0.0018673801117987136 -0.009917997436324953 0
-0.001810291492127242 -0.009271458608121076 0
-0.0017524145997769624 -0.008644075433954358 0
-0.0016937486525929002 -0.008036110187226398 0
-0.0016342924818583406 -0.007447824997371135 0
-0.0015740443743198272 -0.006879481772675523 0
-0.0015130018610802537 -0.006331342094203316 0
-0.0014511614413164797 -0.005803667074175946 0
-0.0013885182298358585 -0.005296717172977666 0
-0.0013250655220920563 -0.004810751972016514 0
-0.0012607942812806537 -0.004346029906901623 0
-0.0011956925740440627 -0.0039028079800479095 0
-0.0011297450210917747 -0.0034813414994110978 0
-0.0010629323970785017 -0.0030818839399385754 0
-0.0009952316253003656 -0.0027046871123181777 0
-0.0009266165873568126 -0.0023500019763886813 0
-0.0008570604303985924 -0.0020180806985305583 0
-0.0007865404277064069 -0.0017091809951457204 0
-0.0007150469335621345 -0.00142357453611159 0
-0.0006425984987717639 -0.0011615623415973367 0
-0.000569265510974862 -0.0009235017915356009 0
-0.0004952040832305117 -0.00070985187080775 0
-0.0004206988441859349 -0.0005212443869697877 0
-0.00034620573434458957 -0.00035858594148819434 0
-0.0002723743288989447 -0.00022318451029567195 0
-0.0002000211382212139 -0.00011687650142257249 0
-0.0001300320018610363 -4.211393349117939e-5 0
-6.319544105907531e-5 -1.966542901510144e-6 0
0.0 0.0 0
-0.005206730991043145 -0.08979550196070439 0
-0.005204087545596128 -0.08846449748312371 0
-0.005202059801268566 -0.08713089451174634 0
-0.005200043644845983 -0.08579630643885959 0
-0.005197535811740797 -0.08446180456699108 0
-0.005194177826321772 -0.08312809181288457 0
-0.00518974581194934 -0.0817956496895135 0
-0.005184119495343852 -0.08046483678193839 0
-0.005177249192488785 -0.07913594797631363 0
-0.005169128491038209 -0.07780924774900097 0
-0.005159774423312394 -0.07648498786775138 0
-0.00514921436907564 -0.07516341626793484 0
-0.0051374781316414365 -0.07384478115936412 0
-0.005124593626444745 -0.07252933266743954 0
-0.005110584905952842 -0.0712173232652363 0
-0.0050954715845255155 -0.06990900765841603 0
-0.005079269026459132 -0.06860464245927318 0
-0.005061988891812944 -0.06730448581301317 0
-0.005043639799029733 -0.06600879704941562 0
-0.005024227972932759 -0.06471783638753315 0
-0.005003757815539686 -0.06343186469892317 0
-0.00498223237777768 -0.06215114332489139 0
-0.004959653732338564 -0.06087593393941667 0
-0.004936023258578932 -0.059606498448705976 0
-0.004911341854293721 -0.058343098919038515 0
-0.004885610089442546 -0.057085997525831926 0
-0.0048588283153723506 -0.05583545651824898 0
-0.004830996740863335 -0.05459173819494948 0
-0.004802115484026778 -0.05335510488768608 0
-0.004772184607000782 -0.05212581895032716 0
-0.0047412041386369645 -0.050904142751574434 0
-0.004709174088969141 -0.049690338670159685 0
-0.004676094458171429 -0.048484669091682704 0
-0.0046419652419017274 -0.04728739640652278 0
-0.00460678643433147 -0.04609878300844601 0
-0.004570558029737302 -0.04491909129366097 0
-0.0045332800232308155 -0.04374858366016289 0
-0.004494952410997042 -0.04258752250726477 0
-0.004455575190273118 -0.04143617023525118 0
-0.004415148359207091 -0.04029478924511455 0
-0.004373671916677256 -0.039163641938348766 0
-0.004331145862115477 -0.038042990716784034 0
-0.004287570195355195 -0.03693309798245209 0
-0.004242944916512003 -0.03583422613747508 0
-0.004197270025897337 -0.034746637583972347 0
-0.004150545523962834 -0.033670594723981956 0
-0.004102771411271358 -0.032606359959393455 0
-0.004053947688491034 -0.03155419569189062 0
-0.004004074356409033 -0.030514364322902707 0
-0.003953151415962889 -0.02948712825356439 0
-0.0039011788682878448 -0.028472749884685355 0
-0.003848156714779875 -0.027471491616732346 0
-0.0037940849571743737 -0.026483615849827502 0
-0.00373896359764132 -0.025509384983769756 0
-0.003682792638897608 -0.02454906141808762 0
-0.003625572084337358 -0.023602907552135507 0
-0.00356730193817993 -0.022671185785248543 0
-0.0035079822056339146 -0.021754158516975517 0
-0.0034476128930721085 -0.020852088147413742 0
-0.0033861940082075296 -0.019965237077675262 0
-0.003323725560251933 -0.019093867710518714 0
-0.003260207560025225 -0.01823824245118683 0
-0.00319564001996352 -0.017398623708493762 0
-0.003130022953942414 -0.01657527389620921 0
-0.0030633563767848925 -0.01576845543478496 0
-0.0029956403032536344 -0.014978430753462767 0
-0.002926874746225041 -0.014205462292785085 0
-0.0028570597135944894 -0.01344981250749817 0
-0.002786195203250689 -0.012711743869781909 0
-0.0027142811951589947 -0.01199151887265201 0
-0.00264131763917888 -0.011289400033242882 0
-0.002567304436673551 -0.010605649895474118 0
-0.002492241413206263 -0.009940531031301523 0
-0.0024161282786116303 -0.009294306039320655 0
-0.0023389645694351455 -0.00866723753887835 0
-0.0022607495671180867 -0.008059588156997215 0
-0.002181482183369576 -0.007471620504254379 0
-0.002101160801986663 -0.0069035971341919996 0
-0.0020197830641630627 -0.006355780478776928 0
-0.0019373455825094851 -0.005828432749782856 0
-0.0018538435684302868 -0.005321815792696259 0
-0.001769270359651921 -0.004836190875930494 0
-0.0016836168421168218 -0.004371818394145441 0
-0.0015968707773458873 -0.0039289574613259135 0
-0.0015090160795431624 -0.003507865369305835 0
-0.0014200321470020508 -0.0031087968956639944 0
-0.0013298934567158168 -0.0027320034717704003 0
-0.0012385698054540074 -0.0023777322882668006 0
-0.0011460278635044758 -0.0020462255631293123 0
-0.0010522351529583642 -0.001737720507756251 0
-0.0009571682379782407 -0.0014524511525694775 0
-0.0008608278757822095 -0.0011906544119688295 0
-0.0007632650752582214 -0.0009525850314811868 0
-0.000664622999874332 -0.0007385479367230076 0
-0.0005651988017656849 -0.0005489620541448902 0
-0.00046552234370518086 -0.0003844739974016732 0
-0.00036642764073323346 -0.00024613233989369444 0
-0.0002690615181138008 -0.00013560215119605846 0
-0.00017476470078053012 -5.535723418334345e-5 0
-8.48027918997522e-5 -8.766575848761526e-6 0
0.0 0.0 0
-0.006514337749328717 -0.08980622685993703 0
-0.006511196529809433 -0.08847155042658943 0
-0.006508771905498186 -0.08713534303713626 0
-0.006506239273752261 -0.0857991591052772 0
-0.006502965225505943 -0.08446384993653994 0
-0.006498536851355786 -0.0831298814497236 0
-0.006492719958786639 -0.08179753902501004 0
-0.006485403455955573 -0.08046703794959764 0
-0.006476552087728921 -0.0791385764277339 0
-0.006466172528910655 -0.07781235778014123 0
-0.006454291396889029 -0.076488597534489 0
-0.0064409421181848316 -0.07516752383966697 0
-0.006426157756763163 -0.07384937541748574 0
-0.006409967583625415 -0.07253439898957854 0
-0.006392395845418243 -0.0712228469614115 0
-0.006373461728394057 -0.06991497559722437 0
-0.0063531798987206504 -0.06861104368472416 0
-0.006331561257992278 -0.06731131160538098 0
-0.0063086137176160875 -0.06601604071124327 0
-0.006284342896545123 -0.06472549292075076 0
-0.006258752705490198 -0.0634399304649039 0
-0.006231845812707017 -0.06215961573340104 0
-0.006203624002154645 -0.06088481118532309 0
-0.0061740884410553505 -0.059615779300258305 0
-0.00614323987494704 -0.05835278255390879 0
-0.006111078766814627 -0.05709608340788642 0
-0.006077605394337927 -0.055845944307246355 0
-0.00604281991653394 -0.05460262768184705 0
-0.006006722418518286 -0.053366395949264976 0
-0.0059693129409375744 -0.052137511518023844 0
-0.005930591498872099 -0.05091623679052557 0
-0.005890558093647834 -0.04970283416543583 0
-0.005849212719973074 -0.04849756603947895 0
-0.005806555370062572 -0.04730069480869599 0
-0.005762586035872154 -0.04611248286926093 0
-0.0057173047101863415 -0.04493319261795746 0
-0.005670711387039222 -0.04376308645241003 0
-0.005622806061770921 -0.042602426771147235 0
-0.005573588730904306 -0.041451475973558236 0
-0.005523059391949888 -0.04031049645978705 0
-0.005471218043198831 -0.039179750630596255 0
-0.005418064683534013 -0.03805950088722088 0
-0.005363599312271907 -0.03695000963122529 0
-0.00530782192903806 -0.03585153926437016 0
-0.005250732533674322 -0.03476435218849282 0
-0.005192331126173635 -0.03368871080540169 0
-0.005132617706637904 -0.03262487751678438 0
-0.005071592275254702 -0.031573114724128194 0
-0.005009254832289503 -0.030533684828652482 0
-0.004945605378090947 -0.029506850231252352 0
-0.004880643913107556 -0.028492873332454833 0
-0.004814370437915214 -0.02749201653238971 0
-0.004746784953255459 -0.026504542230779603 0
-0.004677887460085227 -0.025530712826955845 0
-0.00460767795963923 -0.02457079071991043 0
-0.004536156453506307 -0.02362503830839713 0
-0.004463322943721191 -0.02269371799110042 0
-0.004389177432872442 -0.021777092166895932 0
-0.004313719924225866 -0.020875423235233236 0
-0.004236950421859959 -0.019988973596680108 0
-0.004158868930804848 -0.01911800565367758 0
-0.004079475457167552 -0.01826278181156687 0
-0.003998770008212477 -0.0174235644799634 0
-0.0039167525923437165 -0.01660061607456931 0
-0.0038334232189012364 -0.01579419901953338 0
-0.003748781897630147 -0.015004575750486733 0
-0.0036628286376031074 -0.014232008718401115 0
-0.003575563445258821 -0.01347676039443249 0
-0.003486986321049061 -0.012739093275920826 0
-0.0033970972539418775 -0.012019269893710051 0
-0.0033058962126822147 -0.011317552820917056 0
-0.0032133831322282706 -0.010634204683196495 0
-0.0031195578931195508 -0.00996948817038666 0
-0.0030244202906394325 -0.009323666049134451 0
-0.002927969989454926 -0.008697001175610994 0
-0.0028302064578929007 -0.008089756506636039 0
-0.0027311288741023085 -0.0075021951062674876 0
-0.0026307359940485288 -0.0069345801429473285 0
-0.0025290259686589762 -0.0063871748692880615 0
-0.002425996094704499 -0.005860242572053727 0
-0.002321642481639195 -0.0053540464731725084 0
-0.0022159596155682687 -0.004868849552821595 0
-0.002108939803483376 -0.004404914251614568 0
-0.0020005724889169286 -0.003962501989378062 0
-0.0018908434494307423 -0.003541872411690806 0
-0.0017797339257548373 -0.0031432822418634085 0
-0.001667219807008633 -0.0027669835776062157 0
-0.0015532711318301715 -0.0024132214373789335 0
-0.0014378524047068619 -0.0020822303566981216 0
-0.001320924643354102 -0.0017742299215140805 0
-0.0012024507878435032 -0.0014894194464843756 0
-0.0010824073083626304 -0.001227972874327972 0
-0.0009608068208414919 -0.0009900370548218426 0
-0.0008377395203166496 -0.0007757411935669757 0
-0.0007134449520919261 -0.0005852347640378537 0
-0.0005884267807272001 -0.0004187878413945373 0
-0.00046360766529675784 -0.000277004934799442 0
-0.00034045245209873777 -0.00016117498569140427 0
-0.00022089595662393388 -7.367467197594925e-5 0
-0.00010694309449467991 -1.8248654551396627e-5 0
0.0 0.0 0
-0.007826484174022416 -0.08981870107803518 0
-0.007822976851838326 -0.08847939277786877 0
-0.007820201666379074 -0.08714011663765363 0
-0.007817072433621083 -0.08580221229025775 0
-0.00781285459086797 -0.08446614384999357 0
-0.007807129838012048 -0.08313203502385746 0
-0.007799695161670277 -0.08179992239479 0
-0.007790474941355818 -0.08046985673047123 0
-0.0077794610253685455 -0.079141934069625 0
-0.007766676445413588 -0.07781629768036018 0
-0.007752155240255123 -0.0764931299244068 0
-0.007735932175237314 -0.07517264220488902 0
-0.007718038132428269 -0.07385506608994075 0
-0.0076984985535948625 -0.07254064645038065 0
-0.007677333406978429 -0.07122963653983541 0
-0.007654557825991646 -0.0699222946479575 0
-0.007630182968089771 -0.068618881919447 0
-0.007604216869972466 -0.06731966098931025 0
-0.007576665200814919 -0.0660248951656693 0
-0.007547531881661409 -0.06473484796653084 0
-0.007516819572161091 -0.06344978287716761 0
-0.007484530040452896 -0.062169963239500234 0
-0.007450664436803045 -0.060895652216474666 0
-0.007415223491445388 -0.05962711279596017 0
-0.007378207654689917 -0.058364607812912576 0
-0.007339617194227035 -0.05710839997767535 0
-0.0072994522614178055 -0.05585875190397342 0
-0.007257712935575097 -0.05461592613357025 0
-0.007214399252928121 -0.05338018515651896 0
-0.007169511225130621 -0.05215179142699053 0
-0.007123048850768665 -0.05093100737516615 0
-0.007075012122278168 -0.04971809541586825 0
-0.007025401029920698 -0.04851331795462055 0
-0.006974215563923811 -0.047316937391757984 0
-0.006921455715512692 -0.04612921612510655 0
-0.006867121477300413 -0.04495041655164628 0
-0.006811212843329074 -0.04378080106847352 0
-0.006753729808939379 -0.04262063207329676 0
-0.0066946723705716945 -0.04147017196463397 0
-0.006634040525555316 -0.040329683141828804 0
-0.006571834271914189 -0.03919942800496501 0
-0.006508053608200838 -0.03807966895473049 0
-0.00644269853336091 -0.036970668392263026 0
-0.006375769046626262 -0.03587268871899658 0
-0.006307265147432301 -0.034785992336517885 0
-0.00623718683535512 -0.03371084164643784 0
-0.00616553411006386 -0.032647499050278625 0
-0.006092306971284648 -0.03159622694937623 0
-0.0060175054187730686 -0.030557287744797507 0
-0.005941129452292952 -0.029530943837271263 0
-0.005863179071599881 -0.02851745762713387 0
-0.00578365427642858 -0.027517091514291683 0
-0.005702555066483807 -0.0265301078982046 0
-0.00561988144143524 -0.025556769177897686 0
-0.005535633400917156 -0.024597337752011568 0
-0.005449810944534526 -0.023652076018906162 0
-0.0053624140718776655 -0.02272124637683819 0
-0.005273442782548163 -0.02180511122423931 0
-0.005182897076199097 -0.020903932960130624 0
-0.005090776952592429 -0.02001797398471992 0
-0.0049970824116754775 -0.019147496700241864 0
-0.004901813453675896 -0.018292763512118428 0
-0.00480497007920929 -0.017454036830538554 0
-0.004706552289384332 -0.0166315790725829 0
-0.004606560085874061 -0.015825652665052755 0
-0.0045049934708956555 -0.015036520048202773 0
-0.00440185244699885 -0.014264443680625447 0
-0.004297137016498076 -0.01350968604559136 0
-0.004190847180284577 -0.012772509659211404 0
-0.004082982935607683 -0.012053177080850247 0
-0.003973544272199265 -0.011351950926275792 0
-0.003862531165805569 -0.010669093884057772 0
-0.003749943567751611 -0.010004868735699207 0
-0.003635781388550468 -0.00935953837984305 0
-0.003520044472728197 -0.008733365860554888 0
-0.003402732560898813 -0.008126614399000979 0
-0.0032838452336181796 -0.0075395474265988 0
-0.003163381829594016 -0.006972428615575249 0
-0.003041341328365825 -0.006425521899311611 0
-0.002917722184566419 -0.005899091469113461 0
-0.002792522097397866 -0.0053934017249822 0
-0.002665737695243068 -0.0049087171439309825 0
-0.002537364111985756 -0.004445302008021577 0
-0.002407394429885067 -0.0040034199023017665 0
-0.002275818966245716 -0.003583332845729088 0
-0.0021426243924709872 -0.003185299850236564 0
-0.002007792703629995 -0.0028095746076645996 0
-0.001871300122128104 -0.0024564018753944596 0
-0.0017331161545819608 -0.0021260119689019965 0
-0.0015932032928835773 -0.001818612591850696 0
-0.0014515183883894278 -0.0015343771134788532 0
-0.001308017786669569 -0.001273428548465847 0
-0.0011626703861248454 -0.0010358194648453674 0
-0.001015486823624659 -0.0008215112739602616 0
-0.0008665806566041319 -0.0006303654298955945 0
-0.0007162907859910247 -0.0004621824878111454 0
-0.0005654106145523959 -0.0003168787054621811 0
-0.0004155450325360928 -0.00019496920728955867 0
-0.0002693293685880528 -9.837981502177621e-5 0
-0.0001299728322743053 -3.121413500030425e-5 0
0.0 0.0 0
-0.009144400987237471 -0.08983248946994639 0
-0.009140661680337977 -0.08848748136194855 0
-0.00913748589430669 -0.08714483522628297 0
-0.009133520118988268 -0.0858052894003157 0
-0.00912801895357277 -0.084468660231053 0
-0.009120643546662196 -0.08313461264951755 0
-0.009111273020492215 -0.08180289733059923 0
-0.009099888302170341 -0.08047339789306138 0
-0.009086510721987254 -0.07914611706525912 0
-0.009071172799151352 -0.07782114842245323 0
-0.00905390589612404 -0.07649864951538395 0
-0.009034735999517369 -0.07517882068447602 0
-0.009013683074744561 -0.07386188974230148 0
-0.008990761783913954 -0.0725481014642531 0
-0.008965982569425284 -0.07123771065153285 0
-0.008939352697045495 -0.06993097770495184 0
-0.008910877123487019 -0.06862816589719034 0
-0.008880559168571724 -0.06732953975866436 0
-0.008848401014807751 -0.06603536417225257 0
-0.008814404068486183 -0.06474590390510677 0
-0.008778569215212542 -0.06346142339986116 0
-0.008740896997503715 -0.062182186712134865 0
-0.008701387736160228 -0.060908457524441066 0
-0.008660041611830014 -0.059640499194856006 0
-0.00861685871886108 -0.058378574816809144 0
-0.008571839100179043 -0.057122947277512034 0
-0.008524982769388694 -0.055873879309228734 0
-0.008476289724425318 -0.05463163353140818 0
-0.008425759955724945 -0.05339647248374069 0
-0.008373393450916148 -0.05216865865116749 0
-0.008319190197360276 -0.050948454482224244 0
-0.00826315018340129 -0.04973612240211571 0
-0.008205273398872434 -0.0485319248217757 0
-0.008145559835198142 -0.04733612414395935 0
-0.008084009485294195 -0.04614898276720217 0
-0.008020622343383011 -0.04497076308828558 0
-0.007955398404787794 -0.04380172750368586 0
-0.007888337665737169 -0.04264213841035123 0
-0.007819440123193803 -0.04149225820605107 0
-0.007748705774710192 -0.040352349289464906 0
-0.00767613461831011 -0.03922267406012295 0
-0.0076017266523918095 -0.03810349491827078 0
-0.007525481875648738 -0.03699507426470307 0
-0.007447400287003399 -0.03589767450059243 0
-0.007367481885550807 -0.034811558027327924 0
-0.007285726670508272 -0.03373698724636936 0
-0.007202134641168963 -0.03267422455911975 0
-0.007116705796856874 -0.03162353236681549 0
-0.007029440136881465 -0.030585173070433472 0
-0.006940337660490228 -0.02955940907061423 0
-0.006849398366817872 -0.028546502767601484 0
-0.0067566222548308625 -0.027546716561199974 0
-0.006662009323266519 -0.026560312850756003 0
-0.0065655595705660765 -0.025587554035167406 0
-0.006467272994801756 -0.02462870251293413 0
-0.0063671495935984845 -0.023684020682264502 0
-0.006265189364052056 -0.02275377094125859 0
-0.00616139230264674 -0.02183821568819732 0
-0.006055758405177252 -0.020937617321975625 0
-0.005948287666682196 -0.02005223824273026 0
-0.005838980081399143 -0.019182340852728807 0
-0.005727835642754882 -0.018328187557606658 0
-0.005614854343408639 -0.017490040768065516 0
-0.005500036175370421 -0.01666816290218036 0
-0.00538338113022144 -0.015862816388505223 0
-0.005264889199467387 -0.015074263670222677 0
-0.005144560375057495 -0.01430276721064971 0
-0.005022394650100492 -0.01354858950049603 0
-0.004898392019799729 -0.01281199306736924 0
-0.004772552482608785 -0.01209324048813343 0
-0.00464487604156829 -0.01139259440484631 0
-0.004515362705713196 -0.010710317545108637 0
-0.004384012491320753 -0.010046672747728884 0
-0.0042508254225785014 -0.009401922994579507 0
-0.004115801530953987 -0.008776331449305789 0
-0.003978940852092766 -0.008170161502987586 0
-0.003840243418387736 -0.007583676825699272 0
-0.0036997092443488144 -0.007017141420768489 0
-0.00355733830041611 -0.006470819674790203 0
-0.003413130468704142 -0.005944976390175175 0
-0.003267085471069907 -0.005439876776793199 0
-0.0031192027555027708 -0.004955786363006443 0
-0.002969481320678971 -0.004492970760960016 0
-0.002817919450067128 -0.0040516951818243855 0
-0.00266451431570092 -0.00363222353708745 0
-0.0025092613974926994 -0.003234816872313486 0
-0.00235215364780262 -0.002859730746228821 0
-0.002193180317274802 -0.002507210971285341 0
-0.002032325359389436 -0.0021774868462212894 0
-0.0018695653804094035 -0.0018707606055026985 0
-0.0017048672781127948 -0.0015871912578248922 0
-0.001538186206689987 -0.001326870298533587 0
-0.001369465764833805 -0.0010897861273500584 0
-0.0011986453927188764 -0.0008757740767733707 0
-0.0010256874373137887 -0.0006844521647595185 0
-0.0008506544590497545 -0.0005151571400387356 0
-0.0006739112748484859 -0.0003669488113195686 0
-0.0004966248116080075 -0.0002389338185555162 0
-0.00032181795045914505 -0.0001316308600756976 0
-0.0001546258750085536 -4.908460576000502e-5 0
0.0 0.0 0
-0.010469752301112313 -0.08984697709072326 0
-0.010465809673208494 -0.08849512030252735 0
-0.010461881372284734 -0.08714914004898999 0
-0.010456497283275332 -0.08580831728345967 0
-0.01044910648191727 -0.08447148082277886 0
-0.010439563249560184 -0.08313775396079116 0
-0.010427863281095157 -0.0818066076693845 0
-0.010414036371313063 -0.0804777858457696 0
-0.010398110061284313 -0.07915122359152346 0
-0.010380101320020376 -0.07782698314722274 0
-0.01036001762414418 -0.07650520862813658 0
-0.010337860151051948 -0.07518609554467127 0
-0.0103136266432701 -0.07386987084872916 0
-0.0102873133889449 -0.07255678014241071 0
-0.010258916400353592 -0.07124707963982997 0
-0.010228432021441027 -0.06994103122913213 0
-0.010195857178092316 -0.06863889952555415 0
-0.01016118942698833 -0.06734095018155721 0
-0.010124426903943431 -0.06604744897400919 0
-0.010085568231687589 -0.06475866135847139 0
-0.010044612419863368 -0.06347485229361458 0
-0.01000155877326723 -0.062196286213136 0
-0.009956406814708852 -0.0609232270709025 0
-0.009909156223681322 -0.05965593841599633 0
-0.009859806789529543 -0.0583946834737505 0
-0.00980835837681555 -0.057139725220703375 0
-0.009754810900395958 -0.05589132644836782 0
-0.009699164307931593 -0.05464974981459438 0
-0.009641418567907787 -0.053415257883300996 0
-0.00958157366163087 -0.05218811315421275 0
-0.009519629578023027 -0.05096857808449471 0
-0.009455586310338984 -0.04975691510407113 0
-0.009389443854169394 -0.04855338662618672 0
-0.009321202206282351 -0.047358255054482115 0
-0.00925086136399336 -0.04617178278758138 0
-0.009178421324855529 -0.04499423222194787 0
-0.009103882086533604 -0.043825865753566756 0
-0.009027243646775415 -0.04266694577885509 0
-0.008948506003427956 -0.04151773469508114 0
-0.008867669154467487 -0.04037849490048538 0
-0.008784733098027282 -0.03924948879423091 0
-0.00869969783241519 -0.03813097877626646 0
-0.00861256335611812 -0.037023227247152436 0
-0.008523329667793325 -0.03592649660788043 0
-0.008431996766247332 -0.03484104925970201 0
-0.008338564650403689 -0.033767147603974604 0
-0.008243033319260528 -0.032705054042026886 0
-0.008145402771838296 -0.0316550309750436 0
-0.008045673007117548 -0.030617340803968777 0
-0.007943844023966104 -0.029592245929426515 0
-0.007839915821054273 -0.02858000875165954 0
-0.007733888396756496 -0.027580891670487363 0
-0.00762576174903747 -0.02659515708528817 0
-0.007515535875320663 -0.025623067395011617 0
-0.007403210772337337 -0.024664884998233282 0
-0.007288786435954631 -0.023720872293266408 0
-0.007172262860982265 -0.02279129167835229 0
-0.007053640040958959 -0.0218764055519587 0
-0.006932917967922224 -0.020976476313225276 0
-0.006810096632168929 -0.020091766362607903 0
-0.006685176022019652 -0.019222538102790357 0
-0.006558156123607801 -0.018369053939953525 0
-0.006429036920726012 -0.01753157628552031 0
-0.006297818394778456 -0.016710367558530826 0
-0.006164500524910431 -0.01590569018884944 0
-0.006029083288418073 -0.015117806621465132 0
-0.005891566661584688 -0.014346979322222595 0
-0.005751950621149769 -0.013593470785415274 0
-0.0056102351466979445 -0.012857543543785075 0
-0.005466420224364323 -0.01213946018160586 0
-0.005320505852398138 -0.011439483351672752 0
-0.005172492049317668 -0.010757875797162746 0
-0.0050223788656363014 -0.010094900379444115 0
-0.004870166400451696 -0.009450820112938284 0
-0.004715854824573412 -0.008825898207982744 0
-0.004559444412316296 -0.008220398122148028 0
-0.004400935584587281 -0.007634583619367443 0
-0.0042403289663886234 -0.00706871883413471 0
-0.004077625462239912 -0.006523068334271809 0
-0.00391282635307457 -0.005997897169383377 0
-0.0037459334175218707 -0.0054934708815988 0
-0.0035769490785069096 -0.005010055438303134 0
-0.0034058765717356354 -0.004547917019890752 0
-0.0032327201241742773 -0.004107321554080516 0
-0.003057485115378683 -0.0036885338244283137 0
-0.002880178168284534 -0.003291815882948658 0
-0.0027008070725034116 -0.00291742434786996 0
-0.002519380373112708 -0.0025656059408076686 0
-0.0023359063490542937 -0.0022365902713406822 0
-0.0021503909435952677 -0.0019305783449898844 0
-0.0019628339868231672 -0.0016477244470950827 0
-0.001773222790541037 -0.0013881077716186602 0
-0.0015815220330358652 -0.001151688162979893 0
-0.0013876592606640325 -0.000938237279745427 0
-0.001191507828650753 -0.0007472321667346464 0
-0.000992878459911824 -0.0005776939005658377 0
-0.0007915628073016456 -0.0004279597373550406 0
-0.0005875882492319492 -0.000295456727460821 0
-0.000382311914223249 -0.00017712132502381987 0
-0.00018278825308284548 -7.467203476205946e-5 0
0.0 0.0 0
-0.011805289033438481 -0.08986124461362831 0
-0.011800583207457855 -0.0885015480028456 0
-0.011794685044921333 -0.08715289178581949 0
-0.011786623962849829 -0.08581146607502158 0
-0.011776363746770099 -0.08447485393391517 0
-0.011763997651910389 -0.08314168187961803 0
-0.011749575372041134 -0.0818112204963911 0
-0.011733094135620898 -0.0804831333387089 0
-0.011714519873402295 -0.07915732392081495 0
-0.011693806129717842 -0.07783384244088133 0
-0.011670905717314772 -0.07651282861671947 0
-0.011645776530847078 -0.07519447644890204 0
-0.011618383698302589 -0.0738790124215281 0
-0.01158869973460701 -0.07256668202418938 0
-0.01155670375173564 -0.07125774147184233 0
-0.011522380328906096 -0.06995245268703935 0
-0.011485718359026051 -0.06865108032824443 0
-0.011446710018045822 -0.06735389009220398 0
-0.01140534990975066 -0.0660611477980953 0
-0.011361634389781985 -0.06477311894013951 0
-0.011315561050076431 -0.06349006851099916 0
-0.011267128336729429 -0.06221226097322544 0
-0.011216335273598058 -0.06093996030440591 0
-0.011163181266770522 -0.05967343007256707 0
-0.011107665969141993 -0.0584129335177789 0
-0.011049789188588082 -0.05715873362776863 0
-0.010989550827069846 -0.05591109320234941 0
-0.010926950841225752 -0.05467027490538875 0
-0.010861989217578787 -0.05343654130506151 0
-0.010794665957467328 -0.0522101549040231 0
-0.010724981068290956 -0.050991378161389475 0
-0.010652934558744014 -0.04978047350832724 0
-0.010578526436482766 -0.04857770335882153 0
-0.010501756707212175 -0.04738333011690621 0
-0.010422625374548992 -0.04619761618136506 0
-0.01034113244026588 -0.04502082394866975 0
-0.01025727790468446 -0.043853215814720785 0
-0.010171061767088626 -0.04269505417579827 0
-0.010082484026094157 -0.041546601429008935 0
-0.00999154467994821 -0.040408119972425556 0
-0.009898243726754007 -0.03927987220504934 0
-0.00980258116462629 -0.038162120526680186 0
-0.009704556991788056 -0.0370551273377472 0
-0.009604171206619484 -0.03595915503913056 0
-0.009501423807669324 -0.034874466031991846 0
-0.009396314793636704 -0.03380132271762087 0
-0.009288844163329498 -0.03273998749730202 0
-0.009179011915602898 -0.031690722772200496 0
-0.009066818049280154 -0.03065379094326757 0
-0.008952262563055442 -0.029629454411164217 0
-0.008835345455377635 -0.028617975576203696 0
-0.008716066724312244 -0.02761961683831483 0
-0.008594426367378116 -0.026634640597030516 0
-0.008470424381354329 -0.025663309251508528 0
-0.008344060762052663 -0.02470588520059555 0
-0.008215335504050486 -0.023762630842950033 0
-0.008084248600379578 -0.022833808577245263 0
-0.007950800042167144 -0.021919680802481654 0
-0.007814989818227668 -0.02102050991844701 0
-0.00767681791460766 -0.020136558326375995 0
-0.007536284314091578 -0.0192680884298762 0
-0.007393388995686456 -0.018415362636209506 0
-0.0072481319341175954 -0.017578643358044543 0
-0.007100513099389544 -0.016758193015831535 0
-0.006950532456499802 -0.015954274040996155 0
-0.006798189965441326 -0.015167148880206776 0
-0.006643485581701528 -0.014397080001042359 0
-0.006486419257569197 -0.013644329899477595 0
-0.006326990944710123 -0.012909161109709267 0
-0.006165200598685237 -0.012191836216971327 0
-0.0060010481863863275 -0.011492617874118911 0
-0.005834533697785754 -0.01081176882288782 0
-0.005665657163980168 -0.010149551920824817 0
-0.005494418684306295 -0.009506230174878432 0
-0.005320818466383886 -0.008882066782442978 0
-0.005144856884371142 -0.008277325180098395 0
-0.004966534562581937 -0.0076922690991255635 0
-0.004785852493987141 -0.007127162624690334 0
-0.004602812206053541 -0.0065822702517433565 0
-0.004417415989845952 -0.006057856924202184 0
-0.004229667212179833 -0.005554188033392633 0
-0.004039570734457737 -0.005071529334810856 0
-0.003847133464798411 -0.004610146715710091 0
-0.0036523650705358344 -0.00417030570485705 0
-0.003455278873159741 -0.0037522705525967113 0
-0.003255892932063711 -0.003356302612821779 0
-0.0030542312880035456 -0.0029826576111686245 0
-0.0028503252663369025 -0.0026315811583116993 0
-0.0026442146069976307 -0.002303301518964225 0
-0.0024359479461221246 -0.0019980181008035654 0
-0.0022255817420470036 -0.0017158832507217093 0
-0.0020131759741075237 -0.0014569734960908965 0
-0.001798783599839019 -0.001221243882195301 0
-0.0015824284178355991 -0.0010084546045602512 0
-0.0013640619949849414 -0.0008180507546452541 0
-0.0011434838777994861 -0.0006489592446273 0
-0.0009202006230955333 -0.0004992307594400615 0
-0.0006931974091242395 -0.0003653683062974037 0
-0.0004606868394159219 -0.00024097969290235696 0
-0.0002211540851256715 -0.00011477660438964632 0
0.0 0.0 0
-0.013157663113197247 -0.08987425600567062 0
-0.013148153496836153 -0.08850647058328547 0
-0.013136635815775594 -0.08715660764366216 0
-0.013123529108545109 -0.08581530379821316 0
-0.013109147647832393 -0.08447918188651873 0
-0.013093411952427803 -0.08314662756885872 0
-0.013076104201129762 -0.08181684367231254 0
-0.01305699051986119 -0.08048947289888013 0
-0.013035865445886632 -0.07916441025153309 0
-0.013012563173933716 -0.07784170035478444 0
-0.012986955982908902 -0.07652147810753177 0
-0.01295894844185458 -0.07520393317662541 0
-0.012928470875405128 -0.07388928829562366 0
-0.012895473403014807 -0.07257778585917338 0
-0.012859920959207507 -0.07126967963268165 0
-0.01282178933031022 -0.06996522966614806 0
-0.012781062100513982 -0.06866469922787805 0
-0.012737728356356807 -0.06736835300859867 0
-0.012691780997384458 -0.06607645611614932 0
-0.012643215516700858 -0.06478927355272654 0
-0.012592029136863444 -0.06350706997801855 0
-0.012538220208753581 -0.06223010963429565 0
-0.01248178780122191 -0.06095865635697703 0
-0.012422731426515643 -0.059692973624899504 0
-0.012361050860542575 -0.05843332462407252 0
-0.012296746028116447 -0.05717997231088905 0
-0.012229816931840519 -0.055933179468119286 0
-0.012160263609663453 -0.05469320875126891 0
-0.012088086110814753 -0.05346032272519011 0
-0.012013284483182023 -0.05223478389195588 0
-0.011935858767553636 -0.05101685471143692 0
-0.011855808995780532 -0.04980679761607326 0
-0.01177313519101333 -0.04860487502119405 0
-0.011687837368901412 -0.047411349332027404 0
-0.011599915539112654 -0.046226482948314856 0
-0.01150936970682989 -0.04505053826723691 0
-0.011416199874060727 -0.04388377768517845 0
-0.011320406040702474 -0.04272646359871937 0
-0.011221988205360973 -0.04157885840512427 0
-0.011120946365950062 -0.04044122450252128 0
-0.011017280520108755 -0.03931382428989774 0
-0.010910990665474412 -0.03819692016699741 0
-0.010802076799846077 -0.037090774534171526 0
-0.010690538921266559 -0.03599564979221645 0
-0.010576377028045368 -0.03491180834221548 0
-0.010459591118738908 -0.033839512585394714 0
-0.010340181192098941 -0.03277902492299634 0
-0.010218147246996307 -0.031730607756171154 0
-0.010093489282323002 -0.030694523485889722 0
-0.009966207296873014 -0.029671034512872802 0
-0.009836301289199774 -0.028660403237541387 0
-0.009703771257446089 -0.027662892059989307 0
-0.00956861719914076 -0.0266787633799828 0
-0.009430839110954483 -0.025708279596994885 0
-0.009290436988406332 -0.024751703110285385 0
-0.009147410825511066 -0.02380929631904274 0
-0.009001760614356574 -0.022881321622608784 0
-0.008853486344600509 -0.02196804142081563 0
-0.008702588002875322 -0.021069718114472603 0
-0.008549065572092819 -0.02018661410605387 0
-0.008392919030642619 -0.019318991800651778 0
-0.008234148351485945 -0.01846711360728205 0
-0.008072753501157718 -0.01763124194065104 0
-0.007908734438709555 -0.016811639223528504 0
-0.007742091114657418 -0.01600856788990993 0
-0.007572823470046816 -0.015222290389203565 0
-0.007400931435824238 -0.014453069191740301 0
-0.007226414932819032 -0.013701166795979793 0
-0.007049273872813499 -0.012966845737872526 0
-0.006869508161437372 -0.01225036860293158 0
-0.006687117704002861 -0.011551998041657956 0
-0.0065021024159501745 -0.010871996789030685 0
-0.0063144622403713884 -0.010210627688778996 0
-0.006124197176218875 -0.00956815372303568 0
-0.005931307322410499 -0.00894483804762109 0
-0.00573579294528407 -0.00834094403245496 0
-0.005537654579940434 -0.007756735305166018 0
-0.005336893180212567 -0.0071924757934469855 0
-0.005133510337623912 -0.006648429757439607 0
-0.0049275085971157845 -0.006124861796457929 0
-0.004718891906914688 -0.005622036803208709 0
-0.004507666252030167 -0.005140219821176094 0
-0.004293840535745894 -0.004679675733785628 0
-0.00407742779100437 -0.0042406686725800675 0
-0.0038584468230695762 -0.003823460968819897 0
-0.003636924404360097 -0.00342831137797382 0
-0.003412898157707465 -0.003055472163133728 0
-0.0031864202670983874 -0.0027051844058638822 0
-0.0029575621285237988 -0.0023776705800284317 0
-0.002726419964325232 -0.002073122906536025 0
-0.0024931212025776877 -0.0017916851841638926 0
-0.0022578309168236146 -0.0015334244447443102 0
-0.002020756485484702 -0.0012982864945095445 0
-0.0017821460424391983 -0.001086025349047382 0
-0.0015422702058770718 -0.0008960889878454113 0
-0.0013013616542884767 -0.0007274286315396641 0
-0.0010594485180458637 -0.0005781646116345857 0
-0.0008159095608423309 -0.0004449491167242374 0
-0.0005682318299999014 -0.0003215120911582535 0
-0.0003079474788017152 -0.0001935892673432954 0
0.0 0.0 0
