# vtk DataFile Version 1.0
Bar_TO_3D
ASCII
DATASET UNSTRUCTURED_GRID
POINTS 561 float 
-6.25 -11.25 0.0
-7.25 -11.25 0.0
-8.25 -11.25 0.0
-9.25 -11.25 0.0
-10.25 -11.25 0.0
-11.25 -11.25 0.0
-12.25 -11.25 0.0
-13.25 -11.25 0.0
-14.25 -11.25 0.0
-15.25 -11.25 0.0
-16.25 -11.25 0.0
-17.25 -11.25 0.0
-18.25 -11.25 0.0
-19.25 -11.25 0.0
-20.25 -11.25 0.0
-21.25 -11.25 0.0
-22.25 -11.25 0.0
-23.25 -11.25 0.0
-24.25 -11.25 0.0
-25.25 -11.25 0.0
-26.25 -11.25 0.0
-27.25 -11.25 0.0
-28.25 -11.25 0.0
-29.25 -11.25 0.0
-30.25 -11.25 0.0
-31.25 -11.25 0.0
-32.25 -11.25 0.0
-33.25 -11.25 0.0
-34.25 -11.25 0.0
-35.25 -11.25 0.0
-36.25 -11.25 0.0
-37.25 -11.25 0.0
-38.25 -11.25 0.0
-39.25 -11.25 0.0
-40.25 -11.25 0.0
-41.25 -11.25 0.0
-42.25 -11.25 0.0
-43.25 -11.25 0.0
-44.25 -11.25 0.0
-45.25 -11.25 0.0
-46.25 -11.25 0.0
-47.25 -11.25 0.0
-48.25 -11.25 0.0
-49.25 -11.25 0.0
-50.25 -11.25 0.0
-51.25 -11.25 0.0
-52.25 -11.25 0.0
-53.25 -11.25 0.0
-54.25 -11.25 0.0
-55.25 -11.25 0.0
-56.25 -11.25 0.0
-6.25 -12.25 0.0
-7.25 -12.25 0.0
-8.25 -12.25 0.0
-9.25 -12.25 0.0
-10.25 -12.25 0.0
-11.25 -12.25 0.0
-12.25 -12.25 0.0
-13.25 -12.25 0.0
-14.25 -12.25 0.0
-15.25 -12.25 0.0
-16.25 -12.25 0.0
-17.25 -12.25 0.0
-18.25 -12.25 0.0
-19.25 -12.25 0.0
-20.25 -12.25 0.0
-21.25 -12.25 0.0
-22.25 -12.25 0.0
-23.25 -12.25 0.0
-24.25 -12.25 0.0
-25.25 -12.25 0.0
-26.25 -12.25 0.0
-27.25 -12.25 0.0
-28.25 -12.25 0.0
-29.25 -12.25 0.0
-30.25 -12.25 0.0
-31.25 -12.25 0.0
-32.25 -12.25 0.0
-33.25 -12.25 0.0
-34.25 -12.25 0.0
-35.25 -12.25 0.0
-36.25 -12.25 0.0
-37.25 -12.25 0.0
-38.25 -12.25 0.0
-39.25 -12.25 0.0
-40.25 -12.25 0.0
-41.25 -12.25 0.0
-42.25 -12.25 0.0
-43.25 -12.25 0.0
-44.25 -12.25 0.0
-45.25 -12.25 0.0
-46.25 -12.25 0.0
-47.25 -12.25 0.0
-48.25 -12.25 0.0
-49.25 -12.25 0.0
-50.25 -12.25 0.0
-51.25 -12.25 0.0
-52.25 -12.25 0.0
-53.25 -12.25 0.0
-54.25 -12.25 0.0
-55.25 -12.25 0.0
-56.25 -12.25 0.0
-6.25 -13.25 0.0
-7.25 -13.25 0.0
-8.25 -13.25 0.0
-9.25 -13.25 0.0
-10.25 -13.25 0.0
-11.25 -13.25 0.0
-12.25 -13.25 0.0
-13.25 -13.25 0.0
-14.25 -13.25 0.0
-15.25 -13.25 0.0
-16.25 -13.25 0.0
-17.25 -13.25 0.0
-18.25 -13.25 0.0
-19.25 -13.25 0.0
-20.25 -13.25 0.0
-21.25 -13.25 0.0
-22.25 -13.25 0.0
-23.25 -13.25 0.0
-24.25 -13.25 0.0
-25.25 -13.25 0.0
-26.25 -13.25 0.0
-27.25 -13.25 0.0
-28.25 -13.25 0.0
-29.25 -13.25 0.0
-30.25 -13.25 0.0
-31.25 -13.25 0.0
-32.25 -13.25 0.0
-33.25 -13.25 0.0
-34.25 -13.25 0.0
-35.25 -13.25 0.0
-36.25 -13.25 0.0
-37.25 -13.25 0.0
-38.25 -13.25 0.0
-39.25 -13.25 0.0
-40.25 -13.25 0.0
-41.25 -13.25 0.0
-42.25 -13.25 0.0
-43.25 -13.25 0.0
-44.25 -13.25 0.0
-45.25 -13.25 0.0
-46.25 -13.25 0.0
-47.25 -13.25 0.0
-48.25 -13.25 0.0
-49.25 -13.25 0.0
-50.25 -13.25 0.0
-51.25 -13.25 0.0
-52.25 -13.25 0.0
-53.25 -13.25 0.0
-54.25 -13.25 0.0
-55.25 -13.25 0.0
-56.25 -13.25 0.0
-6.25 -14.25 0.0
-7.25 -14.25 0.0
-8.25 -14.25 0.0
-9.25 -14.25 0.0
-10.25 -14.25 0.0
-11.25 -14.25 0.0
-12.25 -14.25 0.0
-13.25 -14.25 0.0
-14.25 -14.25 0.0
-15.25 -14.25 0.0
-16.25 -14.25 0.0
-17.25 -14.25 0.0
-18.25 -14.25 0.0
-19.25 -14.25 0.0
-20.25 -14.25 0.0
-21.25 -14.25 0.0
-22.25 -14.25 0.0
-23.25 -14.25 0.0
-24.25 -14.25 0.0
-25.25 -14.25 0.0
-26.25 -14.25 0.0
-27.25 -14.25 0.0
-28.25 -14.25 0.0
-29.25 -14.25 0.0
-30.25 -14.25 0.0
-31.25 -14.25 0.0
-32.25 -14.25 0.0
-33.25 -14.25 0.0
-34.25 -14.25 0.0
-35.25 -14.25 0.0
-36.25 -14.25 0.0
-37.25 -14.25 0.0
-38.25 -14.25 0.0
-39.25 -14.25 0.0
-40.25 -14.25 0.0
-41.25 -14.25 0.0
-42.25 -14.25 0.0
-43.25 -14.25 0.0
-44.25 -14.25 0.0
-45.25 -14.25 0.0
-46.25 -14.25 0.0
-47.25 -14.25 0.0
-48.25 -14.25 0.0
-49.25 -14.25 0.0
-50.25 -14.25 0.0
-51.25 -14.25 0.0
-52.25 -14.25 0.0
-53.25 -14.25 0.0
-54.25 -14.25 0.0
-55.25 -14.25 0.0
-56.25 -14.25 0.0
-6.25 -15.25 0.0
-7.25 -15.25 0.0
-8.25 -15.25 0.0
-9.25 -15.25 0.0
-10.25 -15.25 0.0
-11.25 -15.25 0.0
-12.25 -15.25 0.0
-13.25 -15.25 0.0
-14.25 -15.25 0.0
-15.25 -15.25 0.0
-16.25 -15.25 0.0
-17.25 -15.25 0.0
-18.25 -15.25 0.0
-19.25 -15.25 0.0
-20.25 -15.25 0.0
-21.25 -15.25 0.0
-22.25 -15.25 0.0
-23.25 -15.25 0.0
-24.25 -15.25 0.0
-25.25 -15.25 0.0
-26.25 -15.25 0.0
-27.25 -15.25 0.0
-28.25 -15.25 0.0
-29.25 -15.25 0.0
-30.25 -15.25 0.0
-31.25 -15.25 0.0
-32.25 -15.25 0.0
-33.25 -15.25 0.0
-34.25 -15.25 0.0
-35.25 -15.25 0.0
-36.25 -15.25 0.0
-37.25 -15.25 0.0
-38.25 -15.25 0.0
-39.25 -15.25 0.0
-40.25 -15.25 0.0
-41.25 -15.25 0.0
-42.25 -15.25 0.0
-43.25 -15.25 0.0
-44.25 -15.25 0.0
-45.25 -15.25 0.0
-46.25 -15.25 0.0
-47.25 -15.25 0.0
-48.25 -15.25 0.0
-49.25 -15.25 0.0
-50.25 -15.25 0.0
-51.25 -15.25 0.0
-52.25 -15.25 0.0
-53.25 -15.25 0.0
-54.25 -15.25 0.0
-55.25 -15.25 0.0
-56.25 -15.25 0.0
-6.25 -16.25 0.0
-7.25 -16.25 0.0
-8.25 -16.25 0.0
-9.25 -16.25 0.0
-10.25 -16.25 0.0
-11.25 -16.25 0.0
-12.25 -16.25 0.0
-13.25 -16.25 0.0
-14.25 -16.25 0.0
-15.25 -16.25 0.0
-16.25 -16.25 0.0
-17.25 -16.25 0.0
-18.25 -16.25 0.0
-19.25 -16.25 0.0
-20.25 -16.25 0.0
-21.25 -16.25 0.0
-22.25 -16.25 0.0
-23.25 -16.25 0.0
-24.25 -16.25 0.0
-25.25 -16.25 0.0
-26.25 -16.25 0.0
-27.25 -16.25 0.0
-28.25 -16.25 0.0
-29.25 -16.25 0.0
-30.25 -16.25 0.0
-31.25 -16.25 0.0
-32.25 -16.25 0.0
-33.25 -16.25 0.0
-34.25 -16.25 0.0
-35.25 -16.25 0.0
-36.25 -16.25 0.0
-37.25 -16.25 0.0
-38.25 -16.25 0.0
-39.25 -16.25 0.0
-40.25 -16.25 0.0
-41.25 -16.25 0.0
-42.25 -16.25 0.0
-43.25 -16.25 0.0
-44.25 -16.25 0.0
-45.25 -16.25 0.0
-46.25 -16.25 0.0
-47.25 -16.25 0.0
-48.25 -16.25 0.0
-49.25 -16.25 0.0
-50.25 -16.25 0.0
-51.25 -16.25 0.0
-52.25 -16.25 0.0
-53.25 -16.25 0.0
-54.25 -16.25 0.0
-55.25 -16.25 0.0
-56.25 -16.25 0.0
-6.25 -17.25 0.0
-7.25 -17.25 0.0
-8.25 -17.25 0.0
-9.25 -17.25 0.0
-10.25 -17.25 0.0
-11.25 -17.25 0.0
-12.25 -17.25 0.0
-13.25 -17.25 0.0
-14.25 -17.25 0.0
-15.25 -17.25 0.0
-16.25 -17.25 0.0
-17.25 -17.25 0.0
-18.25 -17.25 0.0
-19.25 -17.25 0.0
-20.25 -17.25 0.0
-21.25 -17.25 0.0
-22.25 -17.25 0.0
-23.25 -17.25 0.0
-24.25 -17.25 0.0
-25.25 -17.25 0.0
-26.25 -17.25 0.0
-27.25 -17.25 0.0
-28.25 -17.25 0.0
-29.25 -17.25 0.0
-30.25 -17.25 0.0
-31.25 -17.25 0.0
-32.25 -17.25 0.0
-33.25 -17.25 0.0
-34.25 -17.25 0.0
-35.25 -17.25 0.0
-36.25 -17.25 0.0
-37.25 -17.25 0.0
-38.25 -17.25 0.0
-39.25 -17.25 0.0
-40.25 -17.25 0.0
-41.25 -17.25 0.0
-42.25 -17.25 0.0
-43.25 -17.25 0.0
-44.25 -17.25 0.0
-45.25 -17.25 0.0
-46.25 -17.25 0.0
-47.25 -17.25 0.0
-48.25 -17.25 0.0
-49.25 -17.25 0.0
-50.25 -17.25 0.0
-51.25 -17.25 0.0
-52.25 -17.25 0.0
-53.25 -17.25 0.0
-54.25 -17.25 0.0
-55.25 -17.25 0.0
-56.25 -17.25 0.0
-6.25 -18.25 0.0
-7.25 -18.25 0.0
-8.25 -18.25 0.0
-9.25 -18.25 0.0
-10.25 -18.25 0.0
-11.25 -18.25 0.0
-12.25 -18.25 0.0
-13.25 -18.25 0.0
-14.25 -18.25 0.0
-15.25 -18.25 0.0
-16.25 -18.25 0.0
-17.25 -18.25 0.0
-18.25 -18.25 0.0
-19.25 -18.25 0.0
-20.25 -18.25 0.0
-21.25 -18.25 0.0
-22.25 -18.25 0.0
-23.25 -18.25 0.0
-24.25 -18.25 0.0
-25.25 -18.25 0.0
-26.25 -18.25 0.0
-27.25 -18.25 0.0
-28.25 -18.25 0.0
-29.25 -18.25 0.0
-30.25 -18.25 0.0
-31.25 -18.25 0.0
-32.25 -18.25 0.0
-33.25 -18.25 0.0
-34.25 -18.25 0.0
-35.25 -18.25 0.0
-36.25 -18.25 0.0
-37.25 -18.25 0.0
-38.25 -18.25 0.0
-39.25 -18.25 0.0
-40.25 -18.25 0.0
-41.25 -18.25 0.0
-42.25 -18.25 0.0
-43.25 -18.25 0.0
-44.25 -18.25 0.0
-45.25 -18.25 0.0
-46.25 -18.25 0.0
-47.25 -18.25 0.0
-48.25 -18.25 0.0
-49.25 -18.25 0.0
-50.25 -18.25 0.0
-51.25 -18.25 0.0
-52.25 -18.25 0.0
-53.25 -18.25 0.0
-54.25 -18.25 0.0
-55.25 -18.25 0.0
-56.25 -18.25 0.0
-6.25 -19.25 0.0
-7.25 -19.25 0.0
-8.25 -19.25 0.0
-9.25 -19.25 0.0
-10.25 -19.25 0.0
-11.25 -19.25 0.0
-12.25 -19.25 0.0
-13.25 -19.25 0.0
-14.25 -19.25 0.0
-15.25 -19.25 0.0
-16.25 -19.25 0.0
-17.25 -19.25 0.0
-18.25 -19.25 0.0
-19.25 -19.25 0.0
-20.25 -19.25 0.0
-21.25 -19.25 0.0
-22.25 -19.25 0.0
-23.25 -19.25 0.0
-24.25 -19.25 0.0
-25.25 -19.25 0.0
-26.25 -19.25 0.0
-27.25 -19.25 0.0
-28.25 -19.25 0.0
-29.25 -19.25 0.0
-30.25 -19.25 0.0
-31.25 -19.25 0.0
-32.25 -19.25 0.0
-33.25 -19.25 0.0
-34.25 -19.25 0.0
-35.25 -19.25 0.0
-36.25 -19.25 0.0
-37.25 -19.25 0.0
-38.25 -19.25 0.0
-39.25 -19.25 0.0
-40.25 -19.25 0.0
-41.25 -19.25 0.0
-42.25 -19.25 0.0
-43.25 -19.25 0.0
-44.25 -19.25 0.0
-45.25 -19.25 0.0
-46.25 -19.25 0.0
-47.25 -19.25 0.0
-48.25 -19.25 0.0
-49.25 -19.25 0.0
-50.25 -19.25 0.0
-51.25 -19.25 0.0
-52.25 -19.25 0.0
-53.25 -19.25 0.0
-54.25 -19.25 0.0
-55.25 -19.25 0.0
-56.25 -19.25 0.0
-6.25 -20.25 0.0
-7.25 -20.25 0.0
-8.25 -20.25 0.0
-9.25 -20.25 0.0
-10.25 -20.25 0.0
-11.25 -20.25 0.0
-12.25 -20.25 0.0
-13.25 -20.25 0.0
-14.25 -20.25 0.0
-15.25 -20.25 0.0
-16.25 -20.25 0.0
-17.25 -20.25 0.0
-18.25 -20.25 0.0
-19.25 -20.25 0.0
-20.25 -20.25 0.0
-21.25 -20.25 0.0
-22.25 -20.25 0.0
-23.25 -20.25 0.0
-24.25 -20.25 0.0
-25.25 -20.25 0.0
-26.25 -20.25 0.0
-27.25 -20.25 0.0
-28.25 -20.25 0.0
-29.25 -20.25 0.0
-30.25 -20.25 0.0
-31.25 -20.25 0.0
-32.25 -20.25 0.0
-33.25 -20.25 0.0
-34.25 -20.25 0.0
-35.25 -20.25 0.0
-36.25 -20.25 0.0
-37.25 -20.25 0.0
-38.25 -20.25 0.0
-39.25 -20.25 0.0
-40.25 -20.25 0.0
-41.25 -20.25 0.0
-42.25 -20.25 0.0
-43.25 -20.25 0.0
-44.25 -20.25 0.0
-45.25 -20.25 0.0
-46.25 -20.25 0.0
-47.25 -20.25 0.0
-48.25 -20.25 0.0
-49.25 -20.25 0.0
-50.25 -20.25 0.0
-51.25 -20.25 0.0
-52.25 -20.25 0.0
-53.25 -20.25 0.0
-54.25 -20.25 0.0
-55.25 -20.25 0.0
-56.25 -20.25 0.0
-6.25 -21.25 0.0
-7.25 -21.25 0.0
-8.25 -21.25 0.0
-9.25 -21.25 0.0
-10.25 -21.25 0.0
-11.25 -21.25 0.0
-12.25 -21.25 0.0
-13.25 -21.25 0.0
-14.25 -21.25 0.0
-15.25 -21.25 0.0
-16.25 -21.25 0.0
-17.25 -21.25 0.0
-18.25 -21.25 0.0
-19.25 -21.25 0.0
-20.25 -21.25 0.0
-21.25 -21.25 0.0
-22.25 -21.25 0.0
-23.25 -21.25 0.0
-24.25 -21.25 0.0
-25.25 -21.25 0.0
-26.25 -21.25 0.0
-27.25 -21.25 0.0
-28.25 -21.25 0.0
-29.25 -21.25 0.0
-30.25 -21.25 0.0
-31.25 -21.25 0.0
-32.25 -21.25 0.0
-33.25 -21.25 0.0
-34.25 -21.25 0.0
-35.25 -21.25 0.0
-36.25 -21.25 0.0
-37.25 -21.25 0.0
-38.25 -21.25 0.0
-39.25 -21.25 0.0
-40.25 -21.25 0.0
-41.25 -21.25 0.0
-42.25 -21.25 0.0
-43.25 -21.25 0.0
-44.25 -21.25 0.0
-45.25 -21.25 0.0
-46.25 -21.25 0.0
-47.25 -21.25 0.0
-48.25 -21.25 0.0
-49.25 -21.25 0.0
-50.25 -21.25 0.0
-51.25 -21.25 0.0
-52.25 -21.25 0.0
-53.25 -21.25 0.0
-54.25 -21.25 0.0
-55.25 -21.25 0.0
-56.25 -21.25 0.0
CELLS 1000 4000
3 0 1 52
3 52 51 0
3 1 2 53
3 53 52 1
3 2 3 54
3 54 53 2
3 3 4 55
3 55 54 3
3 4 5 56
3 56 55 4
3 5 6 57
3 57 56 5
3 6 7 58
3 58 57 6
3 7 8 59
3 59 58 7
3 8 9 60
3 60 59 8
3 9 10 61
3 61 60 9
3 10 11 62
3 62 61 10
3 11 12 63
3 63 62 11
3 12 13 64
3 64 63 12
3 13 14 65
3 65 64 13
3 14 15 66
3 66 65 14
3 15 16 67
3 67 66 15
3 16 17 68
3 68 67 16
3 17 18 69
3 69 68 17
3 18 19 70
3 70 69 18
3 19 20 71
3 71 70 19
3 20 21 72
3 72 71 20
3 21 22 73
3 73 72 21
3 22 23 74
3 74 73 22
3 23 24 75
3 75 74 23
3 24 25 76
3 76 75 24
3 25 26 77
3 77 76 25
3 26 27 78
3 78 77 26
3 27 28 79
3 79 78 27
3 28 29 80
3 80 79 28
3 29 30 81
3 81 80 29
3 30 31 82
3 82 81 30
3 31 32 83
3 83 82 31
3 32 33 84
3 84 83 32
3 33 34 85
3 85 84 33
3 34 35 86
3 86 85 34
3 35 36 87
3 87 86 35
3 36 37 88
3 88 87 36
3 37 38 89
3 89 88 37
3 38 39 90
3 90 89 38
3 39 40 91
3 91 90 39
3 40 41 92
3 92 91 40
3 41 42 93
3 93 92 41
3 42 43 94
3 94 93 42
3 43 44 95
3 95 94 43
3 44 45 96
3 96 95 44
3 45 46 97
3 97 96 45
3 46 47 98
3 98 97 46
3 47 48 99
3 99 98 47
3 48 49 100
3 100 99 48
3 49 50 101
3 101 100 49
3 51 52 103
3 103 102 51
3 52 53 104
3 104 103 52
3 53 54 105
3 105 104 53
3 54 55 106
3 106 105 54
3 55 56 107
3 107 106 55
3 56 57 108
3 108 107 56
3 57 58 109
3 109 108 57
3 58 59 110
3 110 109 58
3 59 60 111
3 111 110 59
3 60 61 112
3 112 111 60
3 61 62 113
3 113 112 61
3 62 63 114
3 114 113 62
3 63 64 115
3 115 114 63
3 64 65 116
3 116 115 64
3 65 66 117
3 117 116 65
3 66 67 118
3 118 117 66
3 67 68 119
3 119 118 67
3 68 69 120
3 120 119 68
3 69 70 121
3 121 120 69
3 70 71 122
3 122 121 70
3 71 72 123
3 123 122 71
3 72 73 124
3 124 123 72
3 73 74 125
3 125 124 73
3 74 75 126
3 126 125 74
3 75 76 127
3 127 126 75
3 76 77 128
3 128 127 76
3 77 78 129
3 129 128 77
3 78 79 130
3 130 129 78
3 79 80 131
3 131 130 79
3 80 81 132
3 132 131 80
3 81 82 133
3 133 132 81
3 82 83 134
3 134 133 82
3 83 84 135
3 135 134 83
3 84 85 136
3 136 135 84
3 85 86 137
3 137 136 85
3 86 87 138
3 138 137 86
3 87 88 139
3 139 138 87
3 88 89 140
3 140 139 88
3 89 90 141
3 141 140 89
3 90 91 142
3 142 141 90
3 91 92 143
3 143 142 91
3 92 93 144
3 144 143 92
3 93 94 145
3 145 144 93
3 94 95 146
3 146 145 94
3 95 96 147
3 147 146 95
3 96 97 148
3 148 147 96
3 97 98 149
3 149 148 97
3 98 99 150
3 150 149 98
3 99 100 151
3 151 150 99
3 100 101 152
3 152 151 100
3 102 103 154
3 154 153 102
3 103 104 155
3 155 154 103
3 104 105 156
3 156 155 104
3 105 106 157
3 157 156 105
3 106 107 158
3 158 157 106
3 107 108 159
3 159 158 107
3 108 109 160
3 160 159 108
3 109 110 161
3 161 160 109
3 110 111 162
3 162 161 110
3 111 112 163
3 163 162 111
3 112 113 164
3 164 163 112
3 113 114 165
3 165 164 113
3 114 115 166
3 166 165 114
3 115 116 167
3 167 166 115
3 116 117 168
3 168 167 116
3 117 118 169
3 169 168 117
3 118 119 170
3 170 169 118
3 119 120 171
3 171 170 119
3 120 121 172
3 172 171 120
3 121 122 173
3 173 172 121
3 122 123 174
3 174 173 122
3 123 124 175
3 175 174 123
3 124 125 176
3 176 175 124
3 125 126 177
3 177 176 125
3 126 127 178
3 178 177 126
3 127 128 179
3 179 178 127
3 128 129 180
3 180 179 128
3 129 130 181
3 181 180 129
3 130 131 182
3 182 181 130
3 131 132 183
3 183 182 131
3 132 133 184
3 184 183 132
3 133 134 185
3 185 184 133
3 134 135 186
3 186 185 134
3 135 136 187
3 187 186 135
3 136 137 188
3 188 187 136
3 137 138 189
3 189 188 137
3 138 139 190
3 190 189 138
3 139 140 191
3 191 190 139
3 140 141 192
3 192 191 140
3 141 142 193
3 193 192 141
3 142 143 194
3 194 193 142
3 143 144 195
3 195 194 143
3 144 145 196
3 196 195 144
3 145 146 197
3 197 196 145
3 146 147 198
3 198 197 146
3 147 148 199
3 199 198 147
3 148 149 200
3 200 199 148
3 149 150 201
3 201 200 149
3 150 151 202
3 202 201 150
3 151 152 203
3 203 202 151
3 153 154 205
3 205 204 153
3 154 155 206
3 206 205 154
3 155 156 207
3 207 206 155
3 156 157 208
3 208 207 156
3 157 158 209
3 209 208 157
3 158 159 210
3 210 209 158
3 159 160 211
3 211 210 159
3 160 161 212
3 212 211 160
3 161 162 213
3 213 212 161
3 162 163 214
3 214 213 162
3 163 164 215
3 215 214 163
3 164 165 216
3 216 215 164
3 165 166 217
3 217 216 165
3 166 167 218
3 218 217 166
3 167 168 219
3 219 218 167
3 168 169 220
3 220 219 168
3 169 170 221
3 221 220 169
3 170 171 222
3 222 221 170
3 171 172 223
3 223 222 171
3 172 173 224
3 224 223 172
3 173 174 225
3 225 224 173
3 174 175 226
3 226 225 174
3 175 176 227
3 227 226 175
3 176 177 228
3 228 227 176
3 177 178 229
3 229 228 177
3 178 179 230
3 230 229 178
3 179 180 231
3 231 230 179
3 180 181 232
3 232 231 180
3 181 182 233
3 233 232 181
3 182 183 234
3 234 233 182
3 183 184 235
3 235 234 183
3 184 185 236
3 236 235 184
3 185 186 237
3 237 236 185
3 186 187 238
3 238 237 186
3 187 188 239
3 239 238 187
3 188 189 240
3 240 239 188
3 189 190 241
3 241 240 189
3 190 191 242
3 242 241 190
3 191 192 243
3 243 242 191
3 192 193 244
3 244 243 192
3 193 194 245
3 245 244 193
3 194 195 246
3 246 245 194
3 195 196 247
3 247 246 195
3 196 197 248
3 248 247 196
3 197 198 249
3 249 248 197
3 198 199 250
3 250 249 198
3 199 200 251
3 251 250 199
3 200 201 252
3 252 251 200
3 201 202 253
3 253 252 201
3 202 203 254
3 254 253 202
3 204 205 256
3 256 255 204
3 205 206 257
3 257 256 205
3 206 207 258
3 258 257 206
3 207 208 259
3 259 258 207
3 208 209 260
3 260 259 208
3 209 210 261
3 261 260 209
3 210 211 262
3 262 261 210
3 211 212 263
3 263 262 211
3 212 213 264
3 264 263 212
3 213 214 265
3 265 264 213
3 214 215 266
3 266 265 214
3 215 216 267
3 267 266 215
3 216 217 268
3 268 267 216
3 217 218 269
3 269 268 217
3 218 219 270
3 270 269 218
3 219 220 271
3 271 270 219
3 220 221 272
3 272 271 220
3 221 222 273
3 273 272 221
3 222 223 274
3 274 273 222
3 223 224 275
3 275 274 223
3 224 225 276
3 276 275 224
3 225 226 277
3 277 276 225
3 226 227 278
3 278 277 226
3 227 228 279
3 279 278 227
3 228 229 280
3 280 279 228
3 229 230 281
3 281 280 229
3 230 231 282
3 282 281 230
3 231 232 283
3 283 282 231
3 232 233 284
3 284 283 232
3 233 234 285
3 285 284 233
3 234 235 286
3 286 285 234
3 235 236 287
3 287 286 235
3 236 237 288
3 288 287 236
3 237 238 289
3 289 288 237
3 238 239 290
3 290 289 238
3 239 240 291
3 291 290 239
3 240 241 292
3 292 291 240
3 241 242 293
3 293 292 241
3 242 243 294
3 294 293 242
3 243 244 295
3 295 294 243
3 244 245 296
3 296 295 244
3 245 246 297
3 297 296 245
3 246 247 298
3 298 297 246
3 247 248 299
3 299 298 247
3 248 249 300
3 300 299 248
3 249 250 301
3 301 300 249
3 250 251 302
3 302 301 250
3 251 252 303
3 303 302 251
3 252 253 304
3 304 303 252
3 253 254 305
3 305 304 253
3 255 256 307
3 307 306 255
3 256 257 308
3 308 307 256
3 257 258 309
3 309 308 257
3 258 259 310
3 310 309 258
3 259 260 311
3 311 310 259
3 260 261 312
3 312 311 260
3 261 262 313
3 313 312 261
3 262 263 314
3 314 313 262
3 263 264 315
3 315 314 263
3 264 265 316
3 316 315 264
3 265 266 317
3 317 316 265
3 266 267 318
3 318 317 266
3 267 268 319
3 319 318 267
3 268 269 320
3 320 319 268
3 269 270 321
3 321 320 269
3 270 271 322
3 322 321 270
3 271 272 323
3 323 322 271
3 272 273 324
3 324 323 272
3 273 274 325
3 325 324 273
3 274 275 326
3 326 325 274
3 275 276 327
3 327 326 275
3 276 277 328
3 328 327 276
3 277 278 329
3 329 328 277
3 278 279 330
3 330 329 278
3 279 280 331
3 331 330 279
3 280 281 332
3 332 331 280
3 281 282 333
3 333 332 281
3 282 283 334
3 334 333 282
3 283 284 335
3 335 334 283
3 284 285 336
3 336 335 284
3 285 286 337
3 337 336 285
3 286 287 338
3 338 337 286
3 287 288 339
3 339 338 287
3 288 289 340
3 340 339 288
3 289 290 341
3 341 340 289
3 290 291 342
3 342 341 290
3 291 292 343
3 343 342 291
3 292 293 344
3 344 343 292
3 293 294 345
3 345 344 293
3 294 295 346
3 346 345 294
3 295 296 347
3 347 346 295
3 296 297 348
3 348 347 296
3 297 298 349
3 349 348 297
3 298 299 350
3 350 349 298
3 299 300 351
3 351 350 299
3 300 301 352
3 352 351 300
3 301 302 353
3 353 352 301
3 302 303 354
3 354 353 302
3 303 304 355
3 355 354 303
3 304 305 356
3 356 355 304
3 306 307 358
3 358 357 306
3 307 308 359
3 359 358 307
3 308 309 360
3 360 359 308
3 309 310 361
3 361 360 309
3 310 311 362
3 362 361 310
3 311 312 363
3 363 362 311
3 312 313 364
3 364 363 312
3 313 314 365
3 365 364 313
3 314 315 366
3 366 365 314
3 315 316 367
3 367 366 315
3 316 317 368
3 368 367 316
3 317 318 369
3 369 368 317
3 318 319 370
3 370 369 318
3 319 320 371
3 371 370 319
3 320 321 372
3 372 371 320
3 321 322 373
3 373 372 321
3 322 323 374
3 374 373 322
3 323 324 375
3 375 374 323
3 324 325 376
3 376 375 324
3 325 326 377
3 377 376 325
3 326 327 378
3 378 377 326
3 327 328 379
3 379 378 327
3 328 329 380
3 380 379 328
3 329 330 381
3 381 380 329
3 330 331 382
3 382 381 330
3 331 332 383
3 383 382 331
3 332 333 384
3 384 383 332
3 333 334 385
3 385 384 333
3 334 335 386
3 386 385 334
3 335 336 387
3 387 386 335
3 336 337 388
3 388 387 336
3 337 338 389
3 389 388 337
3 338 339 390
3 390 389 338
3 339 340 391
3 391 390 339
3 340 341 392
3 392 391 340
3 341 342 393
3 393 392 341
3 342 343 394
3 394 393 342
3 343 344 395
3 395 394 343
3 344 345 396
3 396 395 344
3 345 346 397
3 397 396 345
3 346 347 398
3 398 397 346
3 347 348 399
3 399 398 347
3 348 349 400
3 400 399 348
3 349 350 401
3 401 400 349
3 350 351 402
3 402 401 350
3 351 352 403
3 403 402 351
3 352 353 404
3 404 403 352
3 353 354 405
3 405 404 353
3 354 355 406
3 406 405 354
3 355 356 407
3 407 406 355
3 357 358 409
3 409 408 357
3 358 359 410
3 410 409 358
3 359 360 411
3 411 410 359
3 360 361 412
3 412 411 360
3 361 362 413
3 413 412 361
3 362 363 414
3 414 413 362
3 363 364 415
3 415 414 363
3 364 365 416
3 416 415 364
3 365 366 417
3 417 416 365
3 366 367 418
3 418 417 366
3 367 368 419
3 419 418 367
3 368 369 420
3 420 419 368
3 369 370 421
3 421 420 369
3 370 371 422
3 422 421 370
3 371 372 423
3 423 422 371
3 372 373 424
3 424 423 372
3 373 374 425
3 425 424 373
3 374 375 426
3 426 425 374
3 375 376 427
3 427 426 375
3 376 377 428
3 428 427 376
3 377 378 429
3 429 428 377
3 378 379 430
3 430 429 378
3 379 380 431
3 431 430 379
3 380 381 432
3 432 431 380
3 381 382 433
3 433 432 381
3 382 383 434
3 434 433 382
3 383 384 435
3 435 434 383
3 384 385 436
3 436 435 384
3 385 386 437
3 437 436 385
3 386 387 438
3 438 437 386
3 387 388 439
3 439 438 387
3 388 389 440
3 440 439 388
3 389 390 441
3 441 440 389
3 390 391 442
3 442 441 390
3 391 392 443
3 443 442 391
3 392 393 444
3 444 443 392
3 393 394 445
3 445 444 393
3 394 395 446
3 446 445 394
3 395 396 447
3 447 446 395
3 396 397 448
3 448 447 396
3 397 398 449
3 449 448 397
3 398 399 450
3 450 449 398
3 399 400 451
3 451 450 399
3 400 401 452
3 452 451 400
3 401 402 453
3 453 452 401
3 402 403 454
3 454 453 402
3 403 404 455
3 455 454 403
3 404 405 456
3 456 455 404
3 405 406 457
3 457 456 405
3 406 407 458
3 458 457 406
3 408 409 460
3 460 459 408
3 409 410 461
3 461 460 409
3 410 411 462
3 462 461 410
3 411 412 463
3 463 462 411
3 412 413 464
3 464 463 412
3 413 414 465
3 465 464 413
3 414 415 466
3 466 465 414
3 415 416 467
3 467 466 415
3 416 417 468
3 468 467 416
3 417 418 469
3 469 468 417
3 418 419 470
3 470 469 418
3 419 420 471
3 471 470 419
3 420 421 472
3 472 471 420
3 421 422 473
3 473 472 421
3 422 423 474
3 474 473 422
3 423 424 475
3 475 474 423
3 424 425 476
3 476 475 424
3 425 426 477
3 477 476 425
3 426 427 478
3 478 477 426
3 427 428 479
3 479 478 427
3 428 429 480
3 480 479 428
3 429 430 481
3 481 480 429
3 430 431 482
3 482 481 430
3 431 432 483
3 483 482 431
3 432 433 484
3 484 483 432
3 433 434 485
3 485 484 433
3 434 435 486
3 486 485 434
3 435 436 487
3 487 486 435
3 436 437 488
3 488 487 436
3 437 438 489
3 489 488 437
3 438 439 490
3 490 489 438
3 439 440 491
3 491 490 439
3 440 441 492
3 492 491 440
3 441 442 493
3 493 492 441
3 442 443 494
3 494 493 442
3 443 444 495
3 495 494 443
3 444 445 496
3 496 495 444
3 445 446 497
3 497 496 445
3 446 447 498
3 498 497 446
3 447 448 499
3 499 498 447
3 448 449 500
3 500 499 448
3 449 450 501
3 501 500 449
3 450 451 502
3 502 501 450
3 451 452 503
3 503 502 451
3 452 453 504
3 504 503 452
3 453 454 505
3 505 504 453
3 454 455 506
3 506 505 454
3 455 456 507
3 507 506 455
3 456 457 508
3 508 507 456
3 457 458 509
3 509 508 457
3 459 460 511
3 511 510 459
3 460 461 512
3 512 511 460
3 461 462 513
3 513 512 461
3 462 463 514
3 514 513 462
3 463 464 515
3 515 514 463
3 464 465 516
3 516 515 464
3 465 466 517
3 517 516 465
3 466 467 518
3 518 517 466
3 467 468 519
3 519 518 467
3 468 469 520
3 520 519 468
3 469 470 521
3 521 520 469
3 470 471 522
3 522 521 470
3 471 472 523
3 523 522 471
3 472 473 524
3 524 523 472
3 473 474 525
3 525 524 473
3 474 475 526
3 526 525 474
3 475 476 527
3 527 526 475
3 476 477 528
3 528 527 476
3 477 478 529
3 529 528 477
3 478 479 530
3 530 529 478
3 479 480 531
3 531 530 479
3 480 481 532
3 532 531 480
3 481 482 533
3 533 532 481
3 482 483 534
3 534 533 482
3 483 484 535
3 535 534 483
3 484 485 536
3 536 535 484
3 485 486 537
3 537 536 485
3 486 487 538
3 538 537 486
3 487 488 539
3 539 538 487
3 488 489 540
3 540 539 488
3 489 490 541
3 541 540 489
3 490 491 542
3 542 541 490
3 491 492 543
3 543 542 491
3 492 493 544
3 544 543 492
3 493 494 545
3 545 544 493
3 494 495 546
3 546 545 494
3 495 496 547
3 547 546 495
3 496 497 548
3 548 547 496
3 497 498 549
3 549 548 497
3 498 499 550
3 550 549 498
3 499 500 551
3 551 550 499
3 500 501 552
3 552 551 500
3 501 502 553
3 553 552 501
3 502 503 554
3 554 553 502
3 503 504 555
3 555 554 503
3 504 505 556
3 556 555 504
3 505 506 557
3 557 556 505
3 506 507 558
3 558 557 506
3 507 508 559
3 559 558 507
3 508 509 560
3 560 559 508
CELL_TYPES 1000
5
5
5
5
5
5
5
5
5
5
5
5
5
5
5
5
5
5
5
5
5
5
5
5
5
5
5
5
5
5
5
5
5
5
5
5
5
5
5
5
5
5
5
5
5
5
5
5
5
5
5
5
5
5
5
5
5
5
5
5
5
5
5
5
5
5
5
5
5
5
5
5
5
5
5
5
5
5
5
5
5
5
5
5
5
5
5
5
5
5
5
5
5
5
5
5
5
5
5
5
5
5
5
5
5
5
5
5
5
5
5
5
5
5
5
5
5
5
5
5
5
5
5
5
5
5
5
5
5
5
5
5
5
5
5
5
5
5
5
5
5
5
5
5
5
5
5
5
5
5
5
5
5
5
5
5
5
5
5
5
5
5
5
5
5
5
5
5
5
5
5
5
5
5
5
5
5
5
5
5
5
5
5
5
5
5
5
5
5
5
5
5
5
5
5
5
5
5
5
5
5
5
5
5
5
5
5
5
5
5
5
5
5
5
5
5
5
5
5
5
5
5
5
5
5
5
5
5
5
5
5
5
5
5
5
5
5
5
5
5
5
5
5
5
5
5
5
5
5
5
5
5
5
5
5
5
5
5
5
5
5
5
5
5
5
5
5
5
5
5
5
5
5
5
5
5
5
5
5
5
5
5
5
5
5
5
5
5
5
5
5
5
5
5
5
5
5
5
5
5
5
5
5
5
5
5
5
5
5
5
5
5
5
5
5
5
5
5
5
5
5
5
5
5
5
5
5
5
5
5
5
5
5
5
5
5
5
5
5
5
5
5
5
5
5
5
5
5
5
5
5
5
5
5
5
5
5
5
5
5
5
5
5
5
5
5
5
5
5
5
5
5
5
5
5
5
5
5
5
5
5
5
5
5
5
5
5
5
5
5
5
5
5
5
5
5
5
5
5
5
5
5
5
5
5
5
5
5
5
5
5
5
5
5
5
5
5
5
5
5
5
5
5
5
5
5
5
5
5
5
5
5
5
5
5
5
5
5
5
5
5
5
5
5
5
5
5
5
5
5
5
5
5
5
5
5
5
5
5
5
5
5
5
5
5
5
5
5
5
5
5
5
5
5
5
5
5
5
5
5
5
5
5
5
5
5
5
5
5
5
5
5
5
5
5
5
5
5
5
5
5
5
5
5
5
5
5
5
5
5
5
5
5
5
5
5
5
5
5
5
5
5
5
5
5
5
5
5
5
5
5
5
5
5
5
5
5
5
5
5
5
5
5
5
5
5
5
5
5
5
5
5
5
5
5
5
5
5
5
5
5
5
5
5
5
5
5
5
5
5
5
5
5
5
5
5
5
5
5
5
5
5
5
5
5
5
5
5
5
5
5
5
5
5
5
5
5
5
5
5
5
5
5
5
5
5
5
5
5
5
5
5
5
5
5
5
5
5
5
5
5
5
5
5
5
5
5
5
5
5
5
5
5
5
5
5
5
5
5
5
5
5
5
5
5
5
5
5
5
5
5
5
5
5
5
5
5
5
5
5
5
5
5
5
5
5
5
5
5
5
5
5
5
5
5
5
5
5
5
5
5
5
5
5
5
5
5
5
5
5
5
5
5
5
5
5
5
5
5
5
5
5
5
5
5
5
5
5
5
5
5
5
5
5
5
5
5
5
5
5
5
5
5
5
5
5
5
5
5
5
5
5
5
5
5
5
5
5
5
5
5
5
5
5
5
5
5
5
5
5
5
5
5
5
5
5
5
5
5
5
5
5
5
5
5
5
5
5
5
5
5
5
5
5
5
5
5
5
5
5
5
5
5
5
5
5
5
5
5
5
5
5
5
5
5
5
5
5
5
5
5
5
5
5
5
5
5
5
5
5
5
5
5
5
5
5
5
5
5
5
5
5
5
5
5
5
5
5
5
5
5
5
5
5
5
5
5
5
5
5
5
5
5
5
5
5
5
5
5
5
5
5
5
5
5
5
5
5
5
5
5
5
5
5
5
5
5
5
5
5
5
5
5
5
5
5
5
5
5
5
5
5
5
5
5
5
5
5
5
5
5
5
5
5
5
5
5
5
5
5
5
5
5
5
5
5
5
5
5
5
5
5
5
5
5
5
5
5
5
5
5
5
5
5
5
5
5
5
5
5
5
5
5
5
5
5
5
5
5
5
5
5
5
5
5
5
5
5
5
5
5
5
5
5
5
5
5
5
5
5
5
5
5
5
5
5
5
5
5
5
5
5
5
5
5
5
5
5
5
5
5
5
5
5
5
5
5
5
5
5
5
5
5
5
5
5
5
5
5
5
CELL_DATA 1000 
FIELD FieldData  2
density 1 1000 float
0.1327869209831934
0.06944667893330761
0.3862145055086936
0.40633488185577205
0.37511901219651556
0.5105245800888907
0.29548184160528035
0.5313101837247795
0.01195464892041671
0.057438952228387664
0.003519737315871536
0.0053558235886444865
0.004897222416500114
0.003040092796022266
0.09792990663176634
0.04269345667252936
0.5202602664082533
0.3220094879864842
0.7082904539218136
0.6211578819349827
0.8209191146462945
0.7538573488358926
0.7540747300969801
0.7203873212357148
0.7421830177334305
0.5962058003076482
0.4419046921928191
0.3502265870224402
0.20140751474892007
0.24010465580867751
0.04184396161553349
0.13222159567021452
0.026240988342201118
0.05641572709977198
0.015404105964558018
0.014261366250129102
0.07510126917066932
0.04727163746071513
0.13288435657343703
0.15727154220782438
0.3180004419911923
0.36165312235081476
0.2745349905962843
0.3102761191266818
0.395410966873822
0.4113307327637284
0.5938225460610345
0.49471272495272123
0.7707262563917462
0.6339517569082181
0.8520995585618628
0.739078383618184
0.6383629472385219
0.5980350698834253
0.12517447819779035
0.21800253775100695
0.0011856959435346097
0.0026976126213556022
0.0010022921128093356
0.0010057014106797644
0.0010035612712529928
0.0010014766066307659
0.0019137807014882506
0.0012571083544555101
0.020983830275974263
0.026335128930565166
0.21668853642960184
0.20742899334886067
0.5129808014908287
0.5047648852816476
0.8339476650455029
0.7696046311434107
0.8435641002116019
0.8765968132305758
0.8400651500432896
0.8742905545458992
0.6383530216233089
0.7726354782059108
0.7817216457029361
0.7494020223027436
0.8067724128596225
0.8426811803553982
0.8310637523296986
0.817081522819667
0.7282163447143344
0.7758742993617892
0.27129311423081387
0.3194704643242807
0.062472228340496566
0.08680487272496495
0.001696822334988803
0.004124929572871353
0.0013225284905544104
0.0020803364671441943
0.0021321944502467717
0.002789699558871172
0.024573852265040576
0.047970077652388025
0.058680274209778324
0.11148097507336167
0.13538609080197744
0.13095773875512717
0.47894133797889726
0.4107947852978505
0.6272349268714236
0.6887418080302844
0.5266715177430144
0.6537307209803185
0.10019075461097687
0.2839560868521672
0.00831546806460344
0.023751458988114177
0.015099265973490969
0.00923839680958034
0.10312386539467668
0.08480706373417808
0.39607827292884945
0.2798732613801729
0.5693897269628119
0.5817289245702749
0.6411496400000852
0.5604617159848279
0.43160000517008906
0.4482420146599117
0.2772220890466152
0.258689589218973
0.11883071112332454
0.13156681189097205
0.1360189772728781
0.08305541795235823
0.09779623801758432
0.11589474775777295
0.09366347047611417
0.1384414494171555
0.07171467981310348
0.12974758670535042
0.2856682794386363
0.31179749663813355
0.3367033614337016
0.40072116980462924
0.47500904913458913
0.5423188059343742
0.4110615841444482
0.5169932150793941
0.43283498774656465
0.48164779109740735
0.411758353698171
0.35386291759324245
0.45380481670103306
0.37696241878790787
0.494139372178794
0.3327405244285061
0.2686258210017314
0.22145009667414695
0.03212484942092392
0.059216465090833476
0.001086552268521386
0.0020266852099259437
0.0010029089773908467
0.001009292173312793
0.0010153897204309417
0.0010073212621566417
0.004155923223272318
0.0017248283012305417
0.08183991552164022
0.05632515998283312
0.3471124651480125
0.3399701940811799
0.5842912710708823
0.43639582539592475
0.762530336086636
0.6583426983817561
0.8552405555911122
0.8235579194167789
0.8729793745498281
0.8773806640359807
0.8459695141583145
0.8520940260998412
0.8412990418400993
0.8290239625116095
0.8145801512364422
0.8229768833101047
0.7737012731773377
0.8140869963247224
0.5424930697601108
0.6126088467277205
0.12929851067599085
0.18126001069273065
0.020444566869607647
0.03817451111611948
0.007207176741649098
0.009840601690372857
0.02589675737772958
0.03845553324208744
0.05005505185356127
0.04067313334011778
0.218861170341728
0.20979555572550018
0.22704177657070812
0.23814673581450535
0.2756817635702873
0.2510480983183961
0.6876575271640576
0.6209010202189913
0.8206967597200068
0.8495154789994431
0.717354268107222
0.8317562122421476
0.3341739902452983
0.565990393439327
0.02822892280063289
0.08625145904990468
0.03198873171232128
0.02259867434296544
0.15850356984169686
0.11609644599567756
0.4403512703736332
0.3609319407724593
0.5896012308595092
0.6217974953693355
0.4947898019512099
0.5023619610599774
0.324248504964854
0.374009178248613
0.110046305092906
0.08772422156159718
0.04696508853162025
0.03445798031106778
0.06706899541836259
0.03640708973377661
0.1420811231690914
0.15793400477849628
0.23524818803823308
0.27984912389817057
0.32925153316883565
0.41948236864826516
0.5296035482850505
0.551710506106124
0.6780545950661176
0.701334679840038
0.7863094340907835
0.8210874900949866
0.6664247076295371
0.7518986039673052
0.40826023383106824
0.5360800840701005
0.2436184441876236
0.2951801706615888
0.10766324469453195
0.07673095797037756
0.07774849673859449
0.028765995120735778
0.10664871832694316
0.06533508920937102
0.027411368935914327
0.0503371236069818
0.0015320706272909808
0.004833452433843964
0.0010245192761498341
0.0012091473185627125
0.001124489400949186
0.0010938237802188267
0.021554803677948303
0.011493969655925546
0.2489479727726929
0.20484526160176816
0.389765814618724
0.42002186888995974
0.35304194969986785
0.2925475644449665
0.628754798841867
0.43959642084817047
0.852309462378613
0.7044650709471703
0.8543602948557909
0.8365677833093462
0.7986774880200395
0.7583811920640849
0.7309459412332459
0.6805158344599389
0.7945216572940522
0.6840430518354352
0.6648062234943989
0.634400381054579
0.3734962163739637
0.42699617454665983
0.07846428372781211
0.1643512554538065
0.02277081845310493
0.03464348908096374
0.021284319937549055
0.025589492145144027
0.049725779494313754
0.03597104823640579
0.14195284295780655
0.09441510131210085
0.2869475146552305
0.23656124098944134
0.2976466188394925
0.21940874528584803
0.48984975899497
0.3908711771334584
0.7917775183992336
0.7467968401990969
0.8809076673515042
0.8600308675444657
0.8510989942465538
0.8738029596542802
0.40718752993093327
0.572673926841562
0.07021374437230357
0.12115203407431033
0.05946451222419485
0.061865645005076866
0.3022516483573122
0.22603188447078948
0.5012316646866946
0.5381983392500006
0.637811697786201
0.6816828398578301
0.5191122864668146
0.5699812144495153
0.2329947695938917
0.3018040545025047
0.028338250679638185
0.06691802406663773
0.010591566648833123
0.016218412110702633
0.03987245693397342
0.011829260386331274
0.2453246804572541
0.14321890479541327
0.5096449388901442
0.4060815778615717
0.6523180911280981
0.7211485146843223
0.7676870242468914
0.7702113180667485
0.8195887110487137
0.8272616992148508
0.8193667820360462
0.8072854164199645
0.7624261442598756
0.810627953277446
0.565941015711952
0.6471148123200477
0.15481202006361663
0.20777088288874834
0.014114639360075086
0.018566285855736567
0.005522049290649751
0.004838890503235932
0.022444230458932714
0.011145975613721583
0.04779313053279747
0.08699305609348189
0.03116295257946604
0.10930063938065414
0.008528948623123787
0.061764645760087035
0.005559672975818763
0.028594583629804892
0.12369307854984227
0.07778919161553681
0.2840219196461394
0.30865806342548907
0.31143125575826985
0.3044461227696519
0.13042815562665336
0.11172844786613154
0.2431666635656622
0.0911182796680723
0.5222904854391124
0.2339462020954455
0.7012121360490449
0.5839126396008005
0.505498965265991
0.4156865762148602
0.32250106004021184
0.21183338375864377
0.253858143341988
0.08434139158738171
0.2717260568197392
0.14333488522954416
0.29680114300057603
0.24123814478712854
0.07011247541052676
0.10207098377834131
0.030098628163593686
0.037469664874866616
0.022187850835520138
0.025894099144789906
0.06590129401293666
0.057911037755114705
0.1430250890284497
0.09328720721408955
0.19340415247068005
0.0939347067381637
0.20043346390989938
0.10848607086618105
0.6373874478077979
0.538843505258222
0.822365840544391
0.7990193408755641
0.8727317915922572
0.8450049119076447
0.7966659236344829
0.808029988547265
0.34973140465460634
0.4602720603934453
0.0881959805093472
0.10645938393636359
0.07834498538129624
0.05402838989545691
0.3202508399779805
0.1729773016373834
0.5469793458540281
0.4692722948108123
0.6070116947611246
0.5303823126805788
0.4362387972495899
0.42862049963633675
0.20406473412613788
0.15164648926007682
0.028826195954350688
0.030383541580815007
0.006394367035464734
0.005570438058677581
0.031497824601040905
0.012146745419577856
0.2140601035130737
0.15824809770579598
0.60496869621244
0.4985991703817379
0.7071219859699345
0.6742462331922291
0.7557786497031939
0.6691411239061966
0.6982278868604886
0.6726038042835031
0.7436117551809411
0.5907097652090855
0.7177789186407729
0.6141102390978492
0.5142058652059792
0.5454954897070683
0.09736698736999863
0.28169135252379024
0.00864684903612014
0.015879888307369697
0.003713792266284017
0.004606191247699575
0.054743894753589366
0.047782361368502474
0.3766946358207579
0.41634977994766803
0.4924065066919582
0.6418657743698664
0.29387949682227554
0.4910347362137575
0.14983758200936587
0.28049061918845897
0.26426867747092486
0.24271886482848076
0.37858644719549484
0.35300766497287056
0.17863973198476352
0.2003662488946778
0.02084076076634538
0.025803020326194533
0.057826098072932694
0.01746105870590813
0.18012399847105232
0.052219080170139216
0.3573352485934678
0.2819774058076872
0.0927588929716265
0.09792733557911405
0.01065590779749383
0.00876980951103607
0.0071923023963426525
0.002002293944882519
0.04357472980205811
0.006977234477153283
0.09997890006510704
0.04821645881057596
0.14116502054036853
0.16205994274874674
0.06788808565866292
0.15678348687614876
0.018562529359009653
0.027558279854066108
0.02117233092314054
0.026367544219052165
0.02912150932657581
0.022254262391694098
0.07075390557262838
0.06371617531294008
0.08424424582703942
0.058272773100020284
0.5967164902347047
0.4871536263672174
0.7314476353023709
0.6534569173567777
0.7597398352045449
0.7421776078574273
0.5823619831860715
0.6446147409422192
0.18504728277608146
0.28396486373994395
0.036668298804411935
0.047699686539284004
0.03961191501018943
0.021507606141960983
0.18702330063158978
0.07702100884730423
0.39792402401852117
0.29741054385659454
0.3735460667559973
0.26602425047323564
0.152505242710919
0.16929381355925474
0.043943371371363366
0.03884400519184094
0.005032356953447484
0.00847226143937484
0.00393533686633502
0.00359427250949358
0.029422445797384924
0.013434363330498605
0.31870124020688145
0.21090182212465172
0.6218365827267764
0.5741943156805756
0.6459836567318045
0.6312900983268597
0.5895145275233326
0.5095890253374077
0.2746349214438991
0.1794904427381083
0.2533992321480675
0.10691836897007397
0.354960044777899
0.2261519214276319
0.47056080203557454
0.420711192800801
0.22897316495423967
0.35802087028530416
0.025173555114708767
0.07705114848546063
0.034559760597161704
0.04903843774281552
0.29940312796364965
0.22572030681754837
0.6899188195353432
0.6421652112912075
0.8332943759655351
0.8545418790404387
0.5992102013183909
0.760402339504301
0.29300941452121726
0.3640828812526516
0.18801232515360233
0.15576550823095497
0.2226553120184266
0.19115192972051123
0.06356936363181313
0.07698428787590612
0.008404075553629167
0.011432301428057942
0.003609242133598503
0.002380032950551764
0.015357218931345125
0.004723539747715904
0.11664013614524903
0.05376735095797208
0.028241449204943193
0.05549530818154771
0.0015684344572847143
0.0029761383569678087
0.0012138131148730768
0.0011979193395999495
0.002398324787173039
0.0017202349632198743
0.056021534970430144
0.020115368608420836
0.2660584839174931
0.18669294197350977
0.2117614306948751
0.31096127290919534
0.06941274248987792
0.13721082717396724
0.028086732632495216
0.06173928110557763
0.06468414859141472
0.06304022807488369
0.13074435005305288
0.19430882182727954
0.10551211500276873
0.17342036770678856
0.5740592591209774
0.6004991050459443
0.7071013945322198
0.6945947050100996
0.7568992556262306
0.8113839994533011
0.6238510146450795
0.7284264549880045
0.236355877749475
0.4382048052544112
0.022895708298059883
0.05819910047745131
0.011096498752997213
0.011770711885150484
0.05800638761092662
0.022852999893975087
0.10960438511041366
0.0474588911825034
0.07738214340696968
0.047704447512168596
0.03298039907163697
0.03540856105256676
0.012911682612453523
0.018610508198876444
0.006479118881413917
0.009171058276738506
0.011773178436445101
0.008387802927074835
0.058208114263476676
0.05241589151530484
0.38050130454583425
0.3190366775721289
0.5726077667644444
0.6047373780522051
0.5183466535296047
0.4997353380408368
0.07290498092197291
0.10880179238677433
0.011446023919143445
0.004267779336147663
0.01653342489163106
0.00331029135533662
0.15823936986624643
0.027142118047184083
0.3458330569693792
0.3315856349178235
0.30703936980927454
0.43186312025945933
0.21922855946554973
0.3260886236857407
0.3025530004581238
0.3394201727063488
0.5779393954514835
0.5191228538733633
0.8205562078481942
0.7829356644009949
0.7611831052453389
0.7221748229842375
0.42840672254274825
0.3867826248596317
0.08189663735359928
0.07659180002259615
0.09642785678826879
0.04408486930378918
0.15596629874913567
0.11591510694143849
0.039544367191792267
0.050804113674323456
0.002230194784321794
0.0043860158099762216
0.00115961038503681
0.001037113496516886
0.0029324205396618623
0.0013517015790272032
0.025680753591805036
0.005853934026009723
0.02674456831812227
0.032772749434194795
0.0028084184485652882
0.006334471181652354
0.0019446571870496924
0.0021366556429112406
0.0026740616909885695
0.002326514825447878
0.04672729727140129
0.02129210089331203
0.3289081385469547
0.2843814107341775
0.5033429112579993
0.5320116696574069
0.22710140440818327
0.29738654010335397
0.096384164880744
0.1172136087408361
0.07578128821083105
0.07991930613427152
0.14957422054350047
0.15295154902855768
0.23950924736796572
0.3314984932046024
0.6914823170166237
0.7329356535967961
0.8532709947296577
0.8548664741932865
0.8728683350169902
0.9084949722826379
0.7976955371834155
0.881976037832054
0.3898964466392626
0.6725381882505641
0.03680769563619175
0.11904612065812321
0.010048597051915076
0.01849665453593351
0.009206650459718677
0.00615431798257352
0.025248347695651003
0.008410548269454761
0.03243752105322383
0.021692897803681326
0.03620382867133335
0.044638654829040156
0.028097120365903592
0.06256575367728041
0.013646273303318062
0.043045345218080545
0.04834467941274649
0.05188603819087536
0.18836120686350544
0.16367356532836258
0.43862432230121656
0.3603946183096074
0.43434792144904505
0.43850300993225166
0.19663159133201624
0.176376215744194
0.004596221268270955
0.004747518305516489
0.0013826425168503562
0.0012261292234124685
0.0013761346647469435
0.0010974684059836144
0.06035849112100867
0.015425764575524546
0.40982108704663744
0.28258298407931337
0.4834014237723855
0.5555002585021922
0.2983976114093892
0.35235605730307196
0.41274093324422834
0.31916065515218767
0.5415293452926111
0.39558955484393615
0.6796335206999384
0.5369302583956067
0.4188306708745066
0.46965006346826343
0.10176090433158928
0.11455992201270722
0.01788580161266824
0.011766286435653542
0.020123256523164004
0.006885584747456117
0.0666895337234184
0.05657029936280237
0.018020514592430915
0.05233965281538354
0.0012714765833077375
0.003024276078006599
0.001008906773510992
0.001013098283865195
0.0011147728780748203
0.0010255615176249537
0.003826233796026151
0.0017672906684225958
0.009935258432373507
0.007222007822284744
0.005742740431115884
0.006398819700296213
0.002794131106283404
0.003934510396861723
0.006868134218744987
0.006079007920614669
0.06397668918440028
0.031423491321503946
0.3579386730210971
0.22603548476098692
0.410861904694876
0.3465537180439013
0.2333042758824888
0.20320959199599772
0.08802417261690336
0.05520502829218849
0.13088485356322577
0.068178000118017
0.24946722264301735
0.22293354499652362
0.4094462206531698
0.4379510061294978
0.9192152134928872
0.9463219864097187
0.9544365545051372
0.9594847364200734
0.9586961582431364
0.9698851372067606
0.9165172169918305
0.9533150663217036
0.6624191675036465
0.8389431926049886
0.08965318562443561
0.2982727433786376
0.00967152778276105
0.019321801708394835
0.0022068754950855893
0.0025069929964186112
0.003294389075240266
0.002074375828441136
0.017741456110596982
0.0067227815750512095
0.14499177293005558
0.1078713479710483
0.16781772086657168
0.2181067587929901
0.1466396463320044
0.23403791008136987
0.18252183007265466
0.2015140701962297
0.2536664527680914
0.2186944120128538
0.3208554506574328
0.27897488567764533
0.1473554725353444
0.10940856178097498
0.0119497287260126
0.017863705225820845
0.0010976952944991292
0.0011424629229129521
0.0010131347379338101
0.00103139723936928
0.0012680825713483827
0.001041201917323418
0.04976199649233687
0.012516828647365238
0.38808570417978827
0.23006063065348095
0.5151983292610106
0.5333688980088668
0.19290901223188806
0.21460272697784685
0.15134266072084177
0.0749751937332188
0.1791445909364098
0.10785409492990465
0.307121852662126
0.20559052918259124
0.20076197887216551
0.18749425533020844
0.021378786863058698
0.027891999340182945
0.004219607628392194
0.003334589858358928
0.007755622897800773
0.004512830871900536
0.07827683674870041
0.0499884734389924
0.021593309730548977
0.06372515277141245
0.0015614940786956738
0.0037643370320546697
0.0010313248265477334
0.0010672294053414245
0.0010512713785102744
0.0010293000231192766
0.0020429424263888403
0.001402902110295781
0.002835131283270077
0.002235046187715165
0.005327943552125804
0.0026137424763659494
0.0037129501014890984
0.0022736735001795453
0.017320578006446763
0.010017395102304046
0.048243911835838885
0.022712742377724356
0.19046173918511566
0.12416920759698878
0.16274468145231852
0.11653112287788338
0.04913033662112595
0.053443219511410046
0.01462610052871248
0.01061241994699703
0.03344159425484604
0.015500939977019523
0.214356090777766
0.09689397861278762
0.5114717151976549
0.5433467446942165
0.9800496902967692
0.9812469518397373
0.9819884225427365
0.983909606332322
0.9849489356650744
0.9888862655778838
0.9510667020830973
0.9758663197598948
0.7952774882438607
0.9050775825790209
0.1739432539218723
0.37090526400334534
0.006866814860843807
0.015409545945634377
0.0012869861932856223
0.0012464648047252275
0.0014338219289226687
0.0013057833514145772
0.03598194110070262
0.0073998141416320535
0.2961606950808842
0.19170213209329948
0.38873622238803285
0.3269517779369991
0.2730290428699645
0.41952013220137346
0.17186354066734588
0.24633944818072412
0.26186288263737023
0.2042016868315989
0.15329720373263098
0.1370043280579688
0.009475042951733865
0.008626780555567069
0.0013098274350200677
0.0012761774471937823
0.001039921511588726
0.0010166470371456911
0.0010234561995971392
0.0010284284613400804
0.0013071140565953196
0.0012071420078127082
0.043994681425004706
0.02018720203035036
0.4735159335998898
0.33592854613309076
0.3055516597677748
0.28679656510035934
0.03703218101138591
0.043891261755679443
0.004063591960674885
0.0023564146991251803
0.013988425806934247
0.002646172219887207
0.12473119544308625
0.04907346842969478
0.19898248517610329
0.28417266326929363
0.03060830816597943
0.14575369449628955
0.005566686779742229
0.008431343256978592
0.01125775390447441
0.003388116321024342
0.054416307500331475
0.021550495700508033
0.051757691324555384
0.10188736419249039
0.002448252734727956
0.019324395694153357
0.0010738899596010206
0.0013383835344128682
0.001182040484829809
0.001230346708505887
0.001331812343221339
0.0014827225705632183
0.0013226756135779306
0.00110521113801334
0.001226566214273096
0.0012725228895145379
0.0021091376689250756
0.0012203170048728919
0.015249330826692834
0.013061802026499335
0.0397107652265378
0.013397366983692267
0.037879247675261025
0.03991781050056625
0.015855426225135125
0.008987878880998161
0.0026014098346440187
0.0033140555418165133
0.00439669474094335
0.0014796164486070135
0.025780285203960016
0.0071456991063559025
0.3842378207120455
0.1925664061306763
0.7094111390823536
0.6179182604747825
stress_iload_1 1 1000 float 
1.5146393511958995 
1.473316125486753 
1.571663011490158 
0.8322159723461596 
2.0199509782626883 
1.312386685423743 
2.514130163388008 
1.8279090083972807 
3.0545241275934236 
2.3345129119926704 
3.630898637247296 
2.8370665226650136 
4.231197893788592 
3.3400112794138064 
4.846181170279044 
3.845130041348191 
5.469761252856605 
4.352649451383408 
6.098227307347294 
4.862194091432902 
6.729421928564623 
5.373272071405982 
7.362129844021202 
5.885457538125197 
7.995681096831574 
6.398431268187922 
8.629711535077625 
6.911969189706819 
9.264024710597521 
7.425918539857487 
9.898514680471301 
7.9401759416042275 
10.533123783701173 
8.454670911449734 
11.167819905222114 
8.96935449855602 
11.80258437091079 
9.484191800032146 
12.437405553964732 
9.999157137467432 
13.07227551100539 
10.514230971642652 
13.707188201840589 
11.029397919766753 
14.342138515778688 
11.544645458005906 
14.977121685381633 
12.059963042248707 
15.612132860110293 
12.57534147899047 
16.247166717929336 
13.090772443535364 
16.88221705848292 
13.606248088297027 
17.51727637477357 
14.121760720709588 
18.152335461463785 
14.637302566655013 
18.787383202074775 
15.152865679165304 
19.422406794549 
15.668442110839006 
20.05739281977629 
16.18402455046807 
20.692329688513944 
16.699607739939346 
21.32721199038921 
17.215191152339038 
21.962046810482594 
17.730783652259863 
22.596860541135445 
18.246411219578885 
23.231700917526602 
18.762129361648448 
23.86662099924728 
19.278042603559378 
24.501616996375585 
19.7943342472471 
25.13646826964099 
20.311309431812326 
25.77039914539093 
20.829450170686503 
26.401470394032867 
21.34946397131234 
27.025680342805785 
21.87225718348067 
27.636065495197606 
22.398624085345606 
28.22293277174239 
22.928019446851728 
28.77827267220046 
23.45437707892714 
29.311672360141163 
23.9522469121018 
29.89644400364036 
24.33144896844944 
30.805096468114378 
24.291773223625302 
33.29301732172193 
22.901361553955937 
2.185165662114474 
2.092250489866674 
1.8402491488849124 
1.518834126824315 
1.971546303198261 
1.49345391390392 
2.334058450397376 
1.7315111467337079 
2.7666960995216794 
2.052346967935896 
3.224012820088026 
2.3954118675913403 
3.6932281249950676 
2.744407200291841 
4.1701081031982365 
3.0965310628053087 
4.652716934840427 
3.452022015383006 
5.139813645931089 
3.8112648791034016 
5.630457338799415 
4.174268362200923 
6.123907372079387 
4.540747517744774 
6.619584175679083 
4.910281743685355 
7.117039302477813 
5.2824255890393035 
7.615927895258684 
5.6567664036531236 
8.11598468842989 
6.0329466977503055 
8.617004509971721 
6.4106675117221785 
9.11882721065477 
6.789683229051634 
9.62132636515448 
7.169793512735587 
10.124400935171202 
7.550835085123653 
10.6279691500548 
7.932674453248182 
11.131964001184766 
8.315201882692632 
11.636329891447408 
8.69832657152561 
12.141020104197953 
9.081972849233592 
12.64599485248966 
9.466077202257472 
13.151219743461668 
9.850585945720571 
13.65666455183077 
10.235453391113152 
14.162302248299618 
10.62064039011826 
14.66810828091042 
11.006113163231195 
15.174060167054282 
11.391842353722263 
15.680137526938726 
11.777802298682627 
16.186322780186607 
12.163970614103178 
16.69260283699709 
12.550328420292432 
17.19897224174281 
12.936862019149101 
17.70543836474563 
13.32356780249743 
18.21202938347661 
13.710463961859404 
18.718805947358106 
14.097615574483871 
19.225877566385925 
14.48518395020586 
19.733424770905795 
14.873515444617325 
20.241727370976264 
15.263283796039588 
20.751195787969724 
15.655677533446827 
21.262391130019598 
16.052541953127506 
21.775985717158783 
16.456165343163956 
22.292511154391438 
16.867908439340635 
22.81139101836785 
17.283933710803915 
23.327616055090424 
17.68465193625462 
23.821241198720372 
18.011750118579307 
24.22761608621405 
18.12270670977326 
24.364034352231148 
17.71442676662304 
23.795379263133515 
16.303457826334228 
2.4414856581964415 
2.2299309511655743 
2.3905566436190244 
2.1315742641688016 
2.404806577926253 
2.1091547031752618 
2.552425593490532 
2.1341960888535567 
2.7923520274057823 
2.215583443053712 
3.077558789642006 
2.3374794803731813 
3.3847308354551715 
2.4844154005500068 
3.704349974203783 
2.6476439002628496 
4.032635874276858 
2.823098908317131 
4.367867548671567 
3.008835784033017 
4.708996427172527 
3.2036433153001527 
5.055196433260626 
3.4065063934088466 
5.405745686921673 
3.6164644767992646 
5.760006515988368 
3.8326076421924835 
6.1174250685535965 
4.05410098345543 
6.477529192836358 
4.280202208890959 
6.8399218135906095 
4.51026670822238 
7.204271600917221 
4.743743270124463 
7.570302943576017 
4.980164764702823 
7.93778649845803 
5.2191370048294905 
8.306530903583749 
5.4603276894285075 
8.676375807706004 
5.703456364265809 
9.047186145352432 
5.948285744628258 
9.418847494695198 
6.1946144268746695 
9.791262336298672 
6.442270866616604 
10.1643470455493 
6.691108443512614 
10.5380294802675 
6.9410014183814255 
10.912247058538847 
7.191841590835487 
11.2869452587908 
7.443535472367501 
11.66207651974606 
7.696001801118508 
12.037599586915581 
7.949169255599861 
12.413479476861903 
8.202974315793456 
12.789688475667466 
8.457359453274078 
13.166209077032775 
8.7122723568568 
13.543040712208809 
8.967667959394012 
13.920213853435902 
9.2235169597385 
14.297817957400687 
9.479827651188135 
14.67605383323508 
9.736692066314413 
15.055325067161228 
9.99437103356346 
15.436381620238686 
10.253429601214753 
15.8205057131466 
10.514907641627325 
16.20964753805442 
10.780420453311361 
16.60619960334736 
11.051847554164349 
17.01162159763602 
11.329742028117655 
17.42226154415419 
11.60864392809026 
17.819381774562242 
11.866365137660614 
18.14870562166774 
12.044290933079507 
18.284149479220307 
12.020367349365209 
17.978260246931498 
11.602071104013563 
16.84501090729978 
10.716435508716259 
2.4860552241462366 
2.223523068178831 
2.721821596352669 
2.501923247976005 
2.8045610608506166 
2.579027900553031 
2.8670690428813645 
2.557226675476159 
2.9620033750900205 
2.516411348447076 
3.0912040244558336 
2.488043962242621 
3.244434877496087 
2.477231734195843 
3.4135606648784473 
2.4813467553461255 
3.593834201612122 
2.4971275409715026 
3.7826579029664953 
2.522300015566527 
3.9785267696270434 
2.555507218925921 
4.180444906239375 
2.5959510849569014 
4.387654383016782 
2.6431126013790585 
4.599522511860481 
2.696589468373851 
4.815498714812274 
2.7560171576409624 
5.035098276877328 
2.821037568608652 
5.257894883169782 
2.8912912914551883 
5.483515260397456 
2.9664198763775382 
5.711633966309998 
3.046071214569455 
5.941968064673302 
3.129904923377367 
6.174271886411159 
3.2175965801474535 
6.40833210814207 
3.3088405684424105 
6.64396329696548 
3.403351681313993 
6.88100398520698 
3.500865745176818 
7.119313278857118 
3.6011395286674213 
7.358767968156685 
3.7039501534109536 
7.599260091084755 
3.809094159144751 
7.840694894503103 
3.9163863056642167 
8.082989141562118 
4.025658122732198 
8.326069734075377 
4.136756149601671 
8.569872675093102 
4.249539748741865 
8.81434253645173 
4.363878359733372 
9.059432911038577 
4.479648134900893 
9.305108986949104 
4.596728169669059 
9.55135465019238 
4.714997172918612 
9.798188771310807 
4.834332645205836 
10.045698887527083 
4.954616686374441 
10.294105136210801 
5.075755489963875 
10.543870837245302 
5.197722704082713 
10.795870953883638 
5.320637302857584 
11.051595268304258 
5.444875969993902 
11.313251670622185 
5.57117554844476 
11.583349762073537 
5.700544732130222 
11.862733093746353 
5.83343901340328 
12.144999386495103 
5.96681762223666 
12.40428180251471 
6.086437801212859 
12.573975934971289 
6.152742884044196 
12.519220961555153 
6.090855338922664 
12.026145912911574 
5.844903225800572 
10.919229825384273 
5.731147560586122 
2.430593350862824 
2.238946312834305 
2.845444636875723 
2.6940161623332792 
3.003508904682238 
2.8222270379278527 
3.057125455849506 
2.7991089254845853 
3.087105199963248 
2.7249628024297987 
3.12443760243617 
2.645213627115545 
3.175536263223034 
2.574631771432376 
3.238577537709936 
2.5147651675837377 
3.3104178163797537 
2.463156750601178 
3.3885515990051536 
2.416995907130514 
3.471328813750038 
2.3741584971379064 
3.5577379561630957 
2.3332791777670248 
3.6471658444739616 
2.2935610077645814 
3.7392262033260764 
2.2545722336570693 
3.833655370799039 
2.216095667226029 
3.9302544116838583 
2.178032429185318 
4.028859103739688 
2.140345642263219 
4.129325272411997 
2.1030295734460127 
4.231522009776423 
2.066093649452043 
4.335328675519982 
2.0295546275916037 
4.440633571879917 
1.993433000483119 
4.547333281335223 
1.9577514851280347 
4.655332223161029 
1.9225344800381148 
4.764542259986249 
1.8878079395240221 
4.874882308575052 
1.853599406575592 
4.986277956494856 
1.8199380873191466 
5.098661098835503 
1.7868549127734483 
5.211969607204647 
1.7543825573140706 
5.326147040166697 
1.7225553916539997 
5.4411424141720826 
1.6914093596550732 
5.55691010237053 
1.6609818066397228 
5.673410064900142 
1.6313113926891367 
5.7906089315466245 
1.6024384699700613 
5.90848311630208 
1.5744068097535697 
6.0270263899475145 
1.54726851394164 
6.146266483557768 
1.5210955591493283 
6.266298571433228 
1.4960038433373475 
6.38734753588834 
1.4721985364251935 
6.5098735028931465 
1.4500512810437245 
6.634728964716217 
1.430214938814732 
6.763341486772513 
1.4137554516090922 
6.89778716348487 
1.40219554955524 
7.04033492174886 
1.3971303604763436 
7.191385865841002 
1.3984959467533407 
7.343464983297048 
1.3994056699266733 
7.467413595618484 
1.3743175995711034 
7.488727549388603 
1.2616372428635445 
7.263029939280833 
0.9794552962985213 
6.593077606430331 
0.9078252855159247 
5.483641214672196 
2.436671500923877 
2.3288626572944624 
2.3467126371615556 
2.7925027484487517 
2.73643415381965 
2.9817312491701906 
2.8369014337274443 
3.0466912044054233 
2.8170368299909785 
3.0682328593709935 
2.764653463856756 
3.0826912964092608 
2.716973492962808 
3.102629644105302 
2.685390770643137 
3.130097017563195 
2.670505271283803 
3.163632502983692 
2.6696849929859394 
3.2012398469784342 
2.6801226826880367 
3.2413294514068594 
2.6996966285354267 
3.282848911531184 
2.726989030572812 
3.325168215842085 
2.7610828763418223 
3.3679347869920617 
2.801363758935625 
3.4109610405966446 
2.847382160850084 
3.454151081430033 
2.8987720357161617 
3.497457337102327 
2.9552079348890836 
3.540856563523048 
3.016384849843556 
3.584337251744219 
3.082010101856123 
3.627893317883726 
3.1518010224169237 
3.6715210803534095 
3.2254850854950248 
3.715217881990651 
3.3028008450167055 
3.758981503108601 
3.3834989302491523 
3.8028099426765363 
3.4673427993936277 
3.846701369608418 
3.554109163898505 
3.890654159318741 
3.643588095321011 
3.9346669885504375 
3.735582878536515 
3.978738996327511 
3.829909715353645 
4.022870053260626 
3.9263974344941017 
4.067061237352921 
4.024887449196106 
4.111315724827952 
4.1252343506458296 
4.155640525801109 
4.227307776501712 
4.200049924478267 
4.330996614125057 
4.244572280593454 
4.436217283760335 
4.289263241790624 
4.5429289233985894 
4.3342306638389205 
4.651159883285669 
4.379679728010737 
4.761052007368437 
4.4259901953006615 
4.872931157251195 
4.473838369899199 
4.987412175144018 
4.524364805481225 
5.105537854904307 
4.579340637051761 
5.22891901174578 
4.641142532579657 
5.359750205517145 
4.711982265939914 
5.500343575626645 
4.791013927413951 
5.6512917413097785 
4.866359192381322 
5.806295154814224 
4.897017926781524 
5.940237401034437 
4.780468080640375 
5.9899692113977645 
4.315162712527821 
5.8618955839238165 
3.1837447287416234 
5.549761027264244 
1.0021080898405341 
5.496766675246355 
2.1927132404945877 
2.5207338863279274 
2.574884388618476 
2.6183754005562245 
2.746174450249559 
2.6267341598277216 
2.829682995235303 
2.626309837698835 
2.887861405284546 
2.6548786418682937 
2.945661673337126 
2.7194590592123755 
3.0107626793082525 
2.814987183197518 
3.0841304753326555 
2.934628037388824 
3.1646672409556382 
3.0730201289086985 
3.2509939641217707 
3.2264653071142546 
3.3419845866482842 
3.3923938227150914 
3.436827273490939 
3.568897274141097 
3.534951906586485 
3.754455319765909 
3.635947708794391 
3.947800906591059 
3.7395032551355913 
4.147857451778506 
3.8453692736005944 
4.353706455362068 
3.9533372099340616 
4.5645657996948525 
4.063227121074616 
4.779771361282591 
4.174880659394025 
4.998760065823062 
4.288156741485208 
5.221054379742528 
4.402928645822995 
5.44624855536333 
4.519081911360941 
5.673996790212794 
4.636512722764147 
5.904003252459289 
4.755126617356558 
6.136013788669146 
4.87483742070909 
6.3698090747721 
4.995566356894453 
6.605198971416918 
5.117241308129059 
6.842017877969179 
5.239796229400321 
7.080120931599587 
5.363170768477705 
7.319380967444478 
5.487310216936663 
7.559686251482143 
5.612166052021566 
7.800939141804522 
5.737697571683239 
8.043056067185004 
5.8638755591726515 
8.285969604452694 
5.990689671062795 
8.529634102636587 
6.118162511767515 
8.774037417605221 
6.246375351914918 
9.019223124566652 
6.375513251503347 
9.26533031117386 
6.505940424916569 
9.512661728260138 
6.638317539310526 
9.761794727535161 
6.773763463046739 
10.013749166087862 
6.91402364236966 
10.270210628090307 
7.061482978166029 
10.533744605349824 
7.218528905693885 
10.807748398167194 
7.384963513904136 
11.095376512246766 
7.550419592699441 
11.395361667627112 
7.675929987345847 
11.689392821185027 
7.659767354115626 
11.908588092431417 
7.315851106854739 
11.865729019925245 
6.453159647835109 
11.328269551079986 
5.261140647253961 
10.39768157715811 
1.9956257601162648 
2.6556091570590183 
2.1895575893360895 
2.29793460814289 
2.3188664525535287 
2.218153466288759 
2.4499482535905153 
2.3114569225292696 
2.6030342037453122 
2.5080193470862007 
2.7754978255780682 
2.761249491327645 
2.9613637497166785 
3.0449276076675678 
3.1567484683409015 
3.346542693317156 
3.3597040350327485 
3.660548740460513 
3.569218431782318 
3.9842921346780993 
3.784595194448865 
4.31615728071116 
4.005209054695665 
4.654890746083472 
4.230451092959316 
4.999412209714947 
4.459739654352182 
5.348781925794239 
4.692541261990326 
5.702199357825722 
4.928383607389879 
6.058997521235659 
5.166858734757014 
6.418629193392308 
5.407619447551445 
6.780648919968058 
5.650372327258833 
7.1446946989332405 
5.894869766925732 
7.510471555108801 
6.140902365411262 
7.877737823044557 
6.388292272160219 
8.246294147805521 
6.6368876298343835 
8.615974854576313 
6.886558044586588 
8.986641240004422 
7.137190931585331 
9.358176363161837 
7.388688571563681 
9.730480983480863 
7.640965735258036 
10.103470368303668 
7.893947767817082 
10.477071759680356 
8.14756907063814 
10.851222346586754 
8.401771980282861 
11.225867641199706 
8.656506142705327 
11.60096021914903 
8.91172865357068 
11.976458878505047 
9.167405549358634 
12.352328445124966 
9.423515803442822 
12.728540784228358 
9.68005998858506 
13.105078213519342 
9.937077473646067 
13.48194169620564 
10.194678728073225 
13.859168310225206 
10.453103139549453 
14.236866088611622 
10.712816960973838 
14.615279983482933 
10.974666970277843 
14.994910431183948 
11.2400912575792 
15.376713185345354 
11.51132483816681 
15.762404324965814 
11.79133009853487 
16.154839269194415 
12.082577521974223 
16.558210582560793 
12.382138676731245 
16.97705294621959 
12.66622882223346 
17.410575456465462 
12.848105671316992 
17.830198020362943 
12.696658845113687 
18.092320139680805 
11.928647045058387 
17.592692033337933 
10.633919685965164 
15.86392533003628 
1.6807107374420935 
2.577568112941887 
1.6473864480075557 
1.760189699128122 
1.7880087623887904 
1.7840256977552789 
2.052081725142998 
2.1170334770466335 
2.3775313611278626 
2.544812277788976 
2.7261330309721035 
3.003486818385383 
3.082240060119044 
3.474315422012982 
3.4413187808674928 
3.951743908526294 
3.802762724552814 
4.433997062332939 
4.166839733148108 
4.9202542356539904 
4.533723992228785 
5.409894699975079 
4.903340052067991 
5.90235685639178 
5.275440951770243 
6.3971408267878465 
5.649708886876913 
6.8938226185609155 
6.025823132030846 
7.392055578277511 
6.403494054266568 
7.891562139252717 
6.78247472988899 
8.392121907245453 
7.162560746048088 
8.893559886220002 
7.543585034950782 
9.395736442056917 
7.925411422756189 
9.898539336450677 
8.307928564139512 
10.401877618817753 
8.691044845734329 
10.905677010230272 
9.074684329606585 
11.409876427989385 
9.458783607713737 
11.91442536648857 
9.84328938652894 
12.419281919320595 
10.228156629894736 
12.924411281547965 
10.613347114056173 
13.429784605374929 
10.998828273415766 
13.935378096455638 
11.384572232024409 
14.441172230185284 
11.77055492488621 
14.947150933286654 
12.156755220285682 
15.453300507821279 
12.543153974023594 
15.95960796037007 
12.92973300827746 
16.466058222774816 
13.316474171805474 
16.972629495911026 
13.703359018799633 
17.479285606452347 
14.090370450734268 
17.985963864480038 
14.477499263126715 
18.492556570703023 
14.864761515963412 
18.998884415320877 
15.252237838867522 
19.50466147894389 
15.640154026322106 
20.009456591692622 
16.029033106154802 
20.5126692246098 
16.419955689062036 
21.01356956130981 
16.814937043642395 
21.51151947732857 
17.217250102300756 
22.00661947309401 
17.630777476475156 
22.501231568998175 
18.054641374809012 
23.003015977763575 
18.458427586650952 
23.529599662627902 
18.6791765837633 
24.108508204484714 
18.08309852733195 
24.67434010638364 
16.474246681500247 
22.488136675686153 
1.216109526217615 
2.1379367839212393 
1.1524155635878859 
1.53563122889902 
1.5033285699314545 
1.9152127391759324 
1.9763562935930685 
2.4045237600102416 
2.4785084466647342 
2.9511292100450333 
2.9871114539981973 
3.5357153486983623 
3.4971376889440173 
4.14341211424336 
4.007740532471314 
4.764163148777265 
4.518903515345355 
5.391818642692747 
5.03067191541789 
6.022917262991522 
5.543030175007863 
6.655656476764156 
6.0559178717793 
7.289166042975053 
6.569258718195778 
7.923056320025078 
7.082978483218716 
8.55716499039647 
7.5970124614797125 
9.191427508925909 
8.11130699874559 
9.82581664137703 
8.625818485613825 
10.460317118175672 
9.140511647457972 
11.094916538921867 
9.655357898820268 
11.729602992835567 
10.170333991460138 
12.36436500793591 
10.685420966957475 
12.999192033643043 
11.200603361977427 
13.634074853303883 
11.71586861200034 
14.269005812560287 
12.231206612678035 
14.90397891606337 
12.746609409661009 
15.538989877720612 
13.262070991991193 
16.1740361941135 
13.77758715871056 
16.809117279265163 
14.293155410322592 
17.44423465835469 
14.808774780656607 
18.07939216047696 
15.32444546120154 
18.714595958117805 
15.840167964192625 
19.349854142840062 
16.35594140023002 
19.98517525172886 
16.871760178199015 
20.620564681642765 
17.38760802405482 
21.256017102246407 
17.90344760268185 
21.891501554996136 
18.419203155684084 
22.52693348395729 
18.934732427773685 
23.162123799337458 
19.449782924037216 
23.79668816910893 
19.963926954798985 
24.429888623436774 
20.47647217306405 
25.060362794509835 
20.98635510887069 
25.685673955347013 
21.492058352246552 
26.301594941553777 
21.991678700505688 
26.901051861047318 
22.483478616342147 
27.472799016556614 
22.96769090447863 
28.00047520029468 
23.4511126034665 
28.46461599413232 
23.956437390211093 
28.85650436951241 
24.52962876381416 
29.236086725648004 
25.101470034230797 
29.98947010174667 
23.553479240381172 
33.8559100148545 
POINT_DATA 561
FIELD FieldData 1
displacement_1 3 561 float
0.006697538300174284 -0.045839788802771994 0
0.006692951693470721 -0.04445916342196554 0
0.006680997559731237 -0.04309351449109005 0
0.006664692618977282 -0.04173457312873918 0
0.006644140751573487 -0.0403806781024293 0
0.006619019521980208 -0.039031809413250344 0
0.006589028603740622 -0.03768857950729042 0
0.006553961147796231 -0.03635187085684613 0
0.006513690224687547 -0.03502268196866035 0
0.00646814279666134 -0.03370205975164695 0
0.006417278651352832 -0.03239107011003602 0
0.0063610764286743445 -0.031090785568459813 0
0.006299525166020728 -0.02980228035458098 0
0.006232619453596065 -0.02852662863923507 0
0.006160356760372391 -0.027264904043743304 0
0.006082736000304207 -0.026018179610908476 0
0.005999756782908606 -0.024787527914877993 0
0.005911419031704687 -0.023574021188910905 0
0.005817722796130044 -0.022378731432895975 0
0.005718668163149731 -0.021202730493725862 0
0.005614255219092893 -0.02004709012190028 0
0.005504484036112904 -0.018912882009989754 0
0.005389354670335273 -0.01780117781811701 0
0.005268867165432182 -0.01671304919040729 0
0.0051430215588720305 -0.015649567765094765 0
0.005011817889937463 -0.014611805179808514 0
0.004875256209554028 -0.013600833072469188 0
0.004733336592380674 -0.012617723077131883 0
0.004586059151594397 -0.01166354681294283 0
0.004433424056293995 -0.010739375863137763 0
0.004275431550263915 -0.009846281739835323 0
0.004112081968705632 -0.008985335829679418 0
0.003943375746226695 -0.008157609316024031 0
0.0037693134049842573 -0.007364173076899404 0
0.0035898955075616243 -0.006606097566887754 0
0.0034051225585394955 -0.005884452708315335 0
0.0032149948505912898 -0.005200307844792411 0
0.003019512293674756 -0.004554731843520389 0
0.0028186743736725224 -0.003948793446772088 0
0.002612480614844719 -0.003383561889923581 0
0.0024009323391017768 -0.0028601074287715384 0
0.0021840371644704227 -0.0023795003252339124 0
0.00196181842400906 -0.00194280418826027 0
0.0017343318147129449 -0.0015510538596663767 0
0.0015016890701661527 -0.0012051967349409648 0
0.0012640785221011892 -0.0009059548724019642 0
0.0010217450436547548 -0.0006535227226386729 0
0.0007748278678612599 -0.000446917863998063 0
0.0005228371424309506 -0.00028249324851210123 0
0.00026369525472306083 -0.00014938747829051677 0
0.0 0.0 0
0.005334260841869342 -0.04582949982110577 0
0.005330285452678778 -0.04445579453207312 0
0.0053240452001975915 -0.04308946392492367 0
0.00531329317079906 -0.04172929186474896 0
0.005298165299942595 -0.040374001981439936 0
0.005278768402070803 -0.03902363906217955 0
0.0052551330458966445 -0.037678852601905156 0
0.00522725671050774 -0.03634055009732887 0
0.00519512765514359 -0.035009745973282234 0
0.00515873433176892 -0.03368749668746165 0
0.005118068031902234 -0.03237487362679808 0
0.005073122946016505 -0.031072952360213464 0
0.005023895484348474 -0.029782808759425464 0
0.004970383556597511 -0.028505517860451832 0
0.00491258601248699 -0.027242153727285993 0
0.0048505022597045335 -0.025993789621165952 0
0.004784132021410525 -0.0247614982182733 0
0.004713475189960882 -0.023546351795085532 0
0.0046385317423536555 -0.02234942236613393 0
0.00455930169346793 -0.021171781779968257 0
0.004475785071651553 -0.020014501783608443 0
0.004387981907150376 -0.018878654064829966 0
0.004295892227746604 -0.017765310279428227 0
0.004199516058407163 -0.016675542068477055 0
0.0040988534232322404 -0.015610421068841793 0
0.003993904348881144 -0.014571018918780808 0
0.003884668869147244 -0.01355840725923312 0
0.0037711470305676377 -0.01257365773020161 0
0.0036533388989226363 -0.011617841960391916 0
0.0035312445661809747 -0.01069203154691606 0
0.0034048641567998948 -0.009797298020510943 0
0.0032741978311664264 -0.008934712790693548 0
0.003139245782189102 -0.00810534706533845 0
0.0030000082183933565 -0.007310271741719935 0
0.0028564853230520133 -0.006550557273327361 0
0.00270867717350059 -0.005827273531556297 0
0.0025565835972212957 -0.005141489705704581 0
0.0024002039304855797 -0.004494274315163614 0
0.0022395366297843305 -0.0038866954237230006 0
0.0020745786647937896 -0.0033198210831359423 0
0.0019053245976457874 -0.0027947197294337957 0
0.0017317652475883568 -0.002312459354400991 0
0.0015538859226968368 -0.0018741020807057738 0
0.0013716645679885844 -0.0014806861012707881 0
0.0011850714067134496 -0.00113317814297316 0
0.0009940757423408772 -0.0008323649437181921 0
0.0007986800502561066 -0.0005786307925168106 0
0.0005990529763556505 -0.0003715417842987676 0
0.0003960115154903211 -0.00020913918139676334 0
0.00019270869222057547 -8.697214434696157e-5 0
0.0 0.0 0
0.003987321691182881 -0.045816764208139786 0
0.00398356006983124 -0.0444509234344921 0
0.003979489009785801 -0.0430866148843182 0
0.003972676370957688 -0.041725867661291695 0
0.003962348361577484 -0.04036936797578628 0
0.003948476761103743 -0.039017663442965 0
0.003931161739839845 -0.03767152992843952 0
0.003910493834325911 -0.03633190046735688 0
0.003886533643839253 -0.03499978869054657 0
0.003859317286323117 -0.03367624525613477 0
0.0038288649031787574 -0.032362336404354104 0
0.0037951872042096707 -0.031059134186436795 0
0.003758289663010272 -0.02976771232169759 0
0.003718174976143519 -0.028489144609117625 0
0.0036748444239730668 -0.027224504430027708 0
0.0036282985911047657 -0.02597486467925534 0
0.0035785377332771353 -0.02474129783994168 0
0.003525561957280236 -0.02352487608795851 0
0.003469371305728567 -0.0223266713855806 0
0.003409965795227962 -0.02114775555408721 0
0.0033473454326378945 -0.019989200326051778 0
0.0032815102215291514 -0.01885207738134882 0
0.003212460164521106 -0.017737458371173343 0
0.0031401952640394467 -0.016646414933614392 0
0.0030647155225600516 -0.015580018703314397 0
0.0029860209427493693 -0.01453934131671984 0
0.0029041115276443284 -0.01352545441341643 0
0.002818987280921846 -0.012539429632989017 0
0.0027306482072827396 -0.011582338605678892 0
0.0026390943129462677 -0.010655252933775472 0
0.002544325606124237 -0.009759244159191667 0
0.0024463420969136054 -0.00889538371118671 0
0.0023451437948520566 -0.008064742827106995 0
0.0022407306994269814 -0.00726839243904716 0
0.0021331027721053926 -0.0065074030216275705 0
0.0020222598641912257 -0.005782844402015661 0
0.0019082015465659646 -0.005095785543729389 0
0.0017909267355200988 -0.0044472943287691994 0
0.0016704329227439326 -0.0038384373685327105 0
0.0015467146955881637 -0.0032702798446394036 0
0.001419761115089829 -0.0027438852493668203 0
0.001289551563099101 -0.0022603145206977968 0
0.0011560503257862923 -0.0018206231807530973 0
0.0010192024949341595 -0.0014258532593406494 0
0.0008789397908346774 -0.001077013640672759 0
0.0007352180063292007 -0.0007750390141003357 0
0.0005881330571896497 -0.00052072048834582 0
0.0004382085644958075 -0.0003146336555776199 0
0.0002870246576551719 -0.00015723063902388238 0
0.00013842409660756215 -4.983392192860692e-5 0
0.0 0.0 0
0.0026512232983650205 -0.0458057428358843 0
0.002648246132245723 -0.044446068603085344 0
0.0026455192145721155 -0.04308421296511654 0
0.002641380247076746 -0.0417236882571524 0
0.002635012807424448 -0.040366451652453554 0
0.002626192338628763 -0.03901373383435539 0
0.002614947383078892 -0.037666550773128804 0
0.002601361697254801 -0.03632590093052887 0
0.0025855092827254925 -0.03499280524137068 0
0.002567441632126745 -0.033668306228479015 0
0.002547190838166872 -0.03235346058046598 0
0.0025247756037612965 -0.0310493330348601 0
0.002500206313701295 -0.029756992492850548 0
0.002473488509629734 -0.028477509820646545 0
0.0024446250416939896 -0.027211956700824366 0
0.002413617319571379 -0.025961405077646688 0
0.0023804660077500627 -0.024726926916037832 0
0.002345171398292239 -0.02350959411537363 0
0.0023077336044575515 -0.022310478493324893 0
0.0022681526581685716 -0.02113065179710232 0
0.002226428557304589 -0.019971185722156184 0
0.0021825612874494926 -0.018833151930011963 0
0.002136550830894854 -0.017717622062505482 0
0.0020883971693621737 -0.016625667752090838 0
0.002038100283605776 -0.015558360628697466 0
0.0019856601513928767 -0.014516772323620265 0
0.0019310767445756935 -0.013501974470526508 0
0.0018743500256895597 -0.012515038703006666 0
0.0018154799445484105 -0.011557036647211354 0
0.0017544664355782836 -0.010629039906962023 0
0.0016913094170453986 -0.00973212003722507 0
0.0016260087937046625 -0.008867348499901338 0
0.0015585644642256268 -0.008035796593392952 0
0.0014889763329414094 -0.007238535344209911 0
0.001417244319776918 -0.006476635344730594 0
0.0013433683485574667 -0.005751166515791707 0
0.0012673482655759512 -0.005063197765799579 0
0.00118918358794468 -0.004413796510345446 0
0.0011088728956860617 -0.003804028013060771 0
0.0010264125648189394 -0.0032349545281562734 0
0.0009417944359134324 -0.0027076343201942596 0
0.0008550020894330026 -0.0022231209334624275 0
0.0007660061129993109 -0.0017824638404362197 0
0.0006747611729309778 -0.0013867132486208738 0
0.0005812139930830402 -0.0010369349587948096 0
0.0004853446403987936 -0.0007342467375955149 0
0.0003872848155203417 -0.0004799006167487389 0
0.00028757761349141047 -0.0002754759030314885 0
0.00018763451507338135 -0.0001233722869547851 0
9.031750186697693e-5 -2.8140944187763187e-5 0
0.0 0.0 0
0.001322048410529379 -0.04579848887117034 0
0.0013202450683743611 -0.04444261171146862 0
0.0013187578031817065 -0.04308254026928199 0
0.0013167625448626686 -0.04172244837102293 0
0.0013137649923473846 -0.04036491583930096 0
0.0013095562217591626 -0.039011609342640044 0
0.0013041006917309144 -0.03766376629533391 0
0.0012974319242602219 -0.036322466295888964 0
0.0012895951193660495 -0.03498874935075564 0
0.0012806270412540784 -0.03366365553137448 0
0.0012705527372757815 -0.032348234141052354 0
0.001259387729413475 -0.031043543175900207 0
0.0012471410607708545 -0.029750646689814336 0
0.0012338177603260687 -0.028470612419636967 0
0.0012194205133190413 -0.02720451014843931 0
0.0012039506941585812 -0.025953410712565492 0
0.001187408969636891 -0.024718385448798053 0
0.0011697956373841975 -0.02350050590836956 0
0.0011511108099176632 -0.022300843720045222 0
0.0011313545118778379 -0.02112047053085759 0
0.0011105267296720653 -0.01996045798445753 0
0.0010886274354686791 -0.018821877716090122 0
0.0010656565974976242 -0.017705801353914696 0
0.0010416141830261636 -0.016613300522017715 0
0.0010165001573281167 -0.015545446843208107 0
0.0009903144803531244 -0.014503311940856453 0
0.0009630571020286106 -0.013487967439380397 0
0.0009347279568940831 -0.012500484962854363 0
0.0009053269589587999 -0.011541936130775763 0
0.0008748539982731724 -0.010613392549246776 0
0.0008433089417389841 -0.009715925794596013 0
0.0008106916421505737 -0.008850607384476305 0
0.0007770019612177728 -0.008018508728205516 0
0.0007422398139001902 -0.007220701042671884 0
0.0007064052416737973 -0.006458255211110886 0
0.0006694985191498223 -0.005732241547632947 0
0.0006315202878844066 -0.005043729409035122 0
0.0005924716871404023 -0.0043937865689845715 0
0.0005523544055233096 -0.0037834782519166146 0
0.0005111705016408473 -0.0032138657624689168 0
0.0004689217367057785 -0.0026860048715380627 0
0.00042560806257976327 -0.002200944846196445 0
0.0003812249609111248 -0.0017597309112180673 0
0.0003357600032422106 -0.001363417255755755 0
0.00028919165652426345 -0.0010131062347927457 0
0.00024150134831300708 -0.0007100431604451618 0
0.0001927281736157111 -0.00045581198399994303 0
0.00014311615538845364 -0.000252695016932757 0
9.338212054067856e-5 -0.00010430252439727603 0
4.4992775639378455e-5 -1.6671906728813326e-5 0
0.0 0.0 0
-3.7464475092047487e-6 -0.04579602581159613 0
-4.182832318975651e-6 -0.044441361359030186 0
-4.388918615407512e-6 -0.04308195618945111 0
-4.3943801622963045e-6 -0.04172212443702007 0
-4.280289364849123e-6 -0.040364576296417376 0
-4.125031152320391e-6 -0.039011104884801875 0
-3.9744320320115575e-6 -0.03766303960759925 0
-3.8445776977201935e-6 -0.03632150819083275 0
-3.735800925808723e-6 -0.03498756839364476 0
-3.643175233004193e-6 -0.03366226358246114 0
-3.5613807109678453e-6 -0.032346641230511806 0
-3.4862541393642756e-6 -0.0310417564866969 0
-3.414946792568661e-6 -0.029748670952043938 0
-3.3456551752918555e-6 -0.02846845059361141 0
-3.2773023842730005e-6 -0.027202164020663305 0
-3.209281978175301e-6 -0.025950881327293958 0
-3.1412778060414314e-6 -0.024715673395326706 0
-3.0731452082545266e-6 -0.023497611503893175 0
-3.0048357843330866e-6 -0.022297767122886263 0
-2.9363514286330258e-6 -0.02111721180905847 0
-2.8677175089571295e-6 -0.019957017156276777 0
-2.7989683745137022e-6 -0.018818254772949523 0
-2.7301407299014723e-6 -0.017701996272423384 0
-2.6612720196952816e-6 -0.01660931326924191 0
-2.5924020441604803e-6 -0.01554127737788229 0
-2.523576705373332e-6 -0.014498960212444881 0
-2.4548531299165524e-6 -0.013483433386644136 0
-2.386305433659168e-6 -0.012495768513808504 0
-2.318030033703932e-6 -0.01153703720665727 0
-2.250148556609519e-6 -0.01060831107641666 0
-2.182804853062807e-6 -0.009710661730234495 0
-2.1161501333467817e-6 -0.008845160764495826 0
-2.0503064164168783e-6 -0.008012879748826278 0
-1.985292872879332e-6 -0.007214890190035739 0
-1.9208917141432586e-6 -0.006452263454943774 0
-1.8564195941137945e-6 -0.005726070612975659 0
-1.7903571314048636e-6 -0.005037382130342502 0
-1.7197749872129098e-6 -0.004387267306671993 0
-1.6394868272344616e-6 -0.003776793302230934 0
-1.5408772522321552e-6 -0.003207023602753564 0
-1.4104468359544546e-6 -0.0026790159395344106 0
-1.2284034488476426e-6 -0.0021938203612774806 0
-9.683501080621976e-7 -0.0017524801321611406 0
-6.006828359801034e-7 -0.001356043114330084 0
-1.0506919448711552e-7 -0.001005602531767645 0
4.999487480080192e-7 -0.0007024079798522284 0
1.108693354438543e-6 -0.0004481186954980461 0
1.5026617867708242e-6 -0.00024527609690197955 0
1.4377495952826014e-6 -9.80170865668902e-5 0
8.56485700562182e-7 -1.2962920671492573e-5 0
0.0 0.0 0
-0.0013295959713500495 -0.04579866840004722 0
-0.0013286388921325972 -0.044442583277104514 0
-0.0013275019838386783 -0.0430826251198035 0
-0.0013254685113203077 -0.041722759128851185 0
-0.0013222331195716652 -0.04036538927322775 0
-0.0013177332650906148 -0.039012147429931365 0
-0.0013120033296250785 -0.03766430508908314 0
-0.0013050964905215023 -0.03632297951370576 0
-0.001297056000061629 -0.03498923243787485 0
-0.0012879103091022804 -0.033664112827708224 0
-0.0012776760670186568 -0.032348672172316906 0
-0.0012663622239324163 -0.03104396792596099 0
-0.0012539732376139906 -0.0297510628127049 0
-0.0012405111560634162 -0.028471023236556866 0
-0.0012259768336005039 -0.027204917895135898 0
-0.0012103705846056181 -0.025953816821414927 0
-0.001193692507596444 -0.024718790791791307 0
-0.001175942631119165 -0.023500910984232154 0
-0.0011571209708556949 -0.022301248789248333 0
-0.0011372275467034995 -0.021120875708222152 0
-0.0011162623844091534 -0.01996086329952661 0
-0.0010942255130403065 -0.01882228315006586 0
-0.0010711169628192015 -0.017706206860137505 0
-0.001046936764712181 -0.016613706035280496 0
-0.001021684951901618 -0.015545852281897728 0
-0.0009953615628466022 -0.01450371720513911 0
-0.0009679666455076017 -0.01348837240851179 0
-0.0009395002621518716 -0.01250088949533958 0
-0.0009099624937534817 -0.01154234007272136 0
-0.0008793534421397592 -0.010613795759097069 0
-0.0008476732264203874 -0.009716328196843966 0
-0.0008149219674090111 -0.008851009071216774 0
-0.0007810997489726404 -0.008018910135792867 0
-0.0007462065373447911 -0.00722110324118418 0
-0.0007102420265841451 -0.006458660355989665 0
-0.000673205357867526 -0.00573265355329046 0
-0.0006350946286976995 -0.005044154907350322 0
-0.0005959060621977121 -0.004394236197625061 0
-0.0005556326476382645 -0.0037839682476649623 0
-0.0005142620085635375 -0.003214419646972819 0
-0.00047177326802317097 -0.002686654574509492 0
-0.00042813294232691736 -0.002201729656743304 0
-0.00038329085843601465 -0.0017606907892388677 0
-0.0003371797913709723 -0.0013645740321708586 0
-0.00028972909250602857 -0.0010144235790179596 0
-0.00024091657107541624 -0.0007113627561508711 0
-0.00019090555505024985 -0.0004568071493008057 0
-0.00014031395784751198 -0.00025299265962437276 0
-9.045032870069996e-5 -0.00010388939361046714 0
-4.3132525582868324e-5 -1.6215849607436612e-5 0
0.0 0.0 0
-0.0026589556315201276 -0.045806108695553516 0
-0.0026567083699402506 -0.04444603496499998 0
-0.002654124124231929 -0.04308447479490688 0
-0.0026498182443753676 -0.04172438140188056 0
-0.0026432149035373505 -0.040367406891059714 0
-0.0026341740064566733 -0.039014777532909405 0
-0.002622730775747935 -0.03766758727608028 0
-0.0026089637562175094 -0.03632689363785062 0
-0.0025929429188189658 -0.03499374843677527 0
-0.0025747169465041744 -0.033669206800846736 0
-0.0025543155220236046 -0.032354328750284704 0
-0.002531755167859057 -0.031050178411348425 0
-0.0025070444203051296 -0.029757822776060514 0
-0.002480187391038666 -0.028478330661844405 0
-0.002451185918801583 -0.027212771996836214 0
-0.002420040757183912 -0.025962217374325344 0
-0.002386752182370778 -0.024727737787532462 0
-0.002351320281543018 -0.023510404473520454 0
-0.002313745078295854 -0.022311288820026177 0
-0.00227402658103756 -0.021131462308221747 0
-0.002232164798226172 -0.019971996476433888 0
-0.00218815974118744 -0.0188339628965943 0
-0.0021420114234759905 -0.017718433158779794 0
-0.002093719860179181 -0.01662647886111199 0
-0.0020432850681702066 -0.015559171603398637 0
-0.0019907070674086147 -0.014517582983674443 0
-0.001935985883086072 -0.013502784597488098 0
-0.001879121548273486 -0.012515848040517011 0
-0.0018201141064922812 -0.011557844915965317 0
-0.0017589636131072662 -0.010629846849267882 0
-0.001695670133366643 -0.009732925513887445 0
-0.001630233732876897 -0.008868152673337033 0
-0.0015626544525638548 -0.008036600245627199 0
-0.001492932253456147 -0.0072393403962950536 0
-0.0014210669047526104 -0.006477445663312058 0
-0.0013470577680260944 -0.005751989108230273 0
-0.0012709033955856824 -0.0050640444669946705 0
-0.0011926008044870267 -0.004414686230648043 0
-0.0011121442017686962 -0.003804989503708215 0
-0.0010295228208317972 -0.0032360293402362364 0
-0.0009447174131951247 -0.002708879010031993 0
-0.0008576949450931835 -0.0022246062723784094 0
-0.0007684015412557278 -0.0017842662820296293 0
-0.0006767556923316836 -0.001388889612877653 0
-0.0005826497569671469 -0.0010394657356763719 0
-0.00048598429866322264 -0.0007369324878364857 0
-0.0003868026468050069 -0.000482224035616622 0
-0.00028569391451248197 -0.00027658405611382986 0
-0.0001847457124175747 -0.0001227694893114767 0
-8.801437027678528e-5 -2.6969344814501786e-5 0
0.0 0.0 0
-0.003995462707565327 -0.045817372778117184 0
-0.003992058709583497 -0.04445099514812658 0
-0.003987725929273108 -0.04308725731615982 0
-0.003980637886587463 -0.04172702965178954 0
-0.003970172003811827 -0.04037076729217592 0
-0.0039562104478638215 -0.039019132744031224 0
-0.003938800762501646 -0.037672988965084406 0
-0.003918020512409003 -0.03633331712466697 0
-0.003893933446683873 -0.035001155765562134 0
-0.003866581832099141 -0.03367756731132802 0
-0.0038359904784853035 -0.032363622421638545 0
-0.003802172715008556 -0.031060393699375216 0
-0.003765135180493226 -0.02976895363226717 0
-0.0037248809428959357 -0.028490374192735216 0
-0.0036814113024288032 -0.027225726956540044 0
-0.0036347267472192336 -0.025976083302093892 0
-0.0035848274234018093 -0.024742514557925675 0
-0.003531713349722015 -0.02352609208212744 0
-0.0034753845072744757 -0.02232788729198216 0
-0.0034158408725945165 -0.021148971665265602 0
-0.0033530824272184133 -0.01999041672894118 0
-0.003287109158628163 -0.018853294044490987 0
-0.0032179210587163967 -0.01773867519438616 0
-0.003145518121977057 -0.016647631771388872 0
-0.0030699003440224763 -0.015581235371032514 0
-0.002991067720461102 -0.014540557587250846 0
-0.002909020246028547 -0.013526670011370654 0
-0.0028237579138792393 -0.012540644235361345 0
-0.0027352807150017606 -0.011583551861291671 0
-0.0026435886377628474 -0.010656464520406759 0
-0.00254868166754672 -0.009760453907169751 0
-0.0024505597862043895 -0.008896591836051033 0
-0.0023492229702618615 -0.008065950331711062 0
-0.0022446711849288237 -0.007269601766125806 0
-0.0021369043666451416 -0.006508619058094909 0
-0.0020259223778082156 -0.0057840759489927555 0
-0.0019117248990734902 -0.005097047358163983 0
-0.0017943111896384708 -0.00444860979048685 0
-0.00167367958190667 -0.0038398416930793488 0
-0.0015498264659278354 -0.0032718234875903167 0
-0.0014227443402458296 -0.0027456366361856294 0
-0.0012924182521570498 -0.0022623603277514086 0
-0.0011588196881925103 -0.001823062800028251 0
-0.0010218970362215684 -0.001428781229624964 0
-0.0008815633233600757 -0.0010804784295042628 0
-0.0007376890870520474 -0.0007789555170616796 0
-0.0005901350583531532 -0.0005246925151577643 0
-0.0004389605761564851 -0.0003176335150620556 0
-0.0002853639907934141 -0.00015739625050188643 0
-0.00013556371458527203 -4.7491242042384714e-5 0
0.0 0.0 0
-0.005343379228122279 -0.04583067194017268 0
-0.005338558071747932 -0.044456370990934704 0
-0.005331540854617385 -0.04309072692376789 0
-0.005320692565453282 -0.04173084089940632 0
-0.005305631089454435 -0.04037569871559713 0
-0.005286283716967197 -0.03902541177147176 0
-0.005262643137773777 -0.03768064923109964 0
-0.005234711978973945 -0.03634233591733542 0
-0.005202492577586371 -0.0350115030923862 0
-0.005165986126717647 -0.03368922007933741 0
-0.005125193150216141 -0.03237656599019627 0
-0.005080113875709937 -0.03107461981996815 0
-0.005030748410902631 -0.02978445807220643 0
-0.004977096808527329 -0.02850715496870037 0
-0.004919159086314904 -0.027243783234908732 0
-0.0048569352347323435 -0.0259954147864466 0
-0.004790425223981748 -0.024763121177020158 0
-0.004719629011952919 -0.02354797384430243 0
-0.004644546551809645 -0.022351044224094462 0
-0.00456517779785901 -0.021173403791040126 0
-0.004481522709128138 -0.020016124063874548 0
-0.004393581250730747 -0.018880276596651598 0
-0.004301353393421536 -0.01776693296662932 0
-0.00420483911177123 -0.01667716476339761 0
-0.004104038381278937 -0.015612043580837775 0
-0.003998951174585445 -0.01457264101236602 0
-0.00388957745684442 -0.013560028649849155 0
-0.0037759171803175505 -0.012575278087171106 0
-0.0036579702784618204 -0.011619460930508082 0
-0.0035357366602862504 -0.010693648818925462 0
-0.0034092162067489865 -0.009798913461012748 0
-0.0032784087727188117 -0.008936326696015911 0
-0.0031433142009486617 -0.008106960591344275 0
-0.0030039323591901784 -0.007311887592252463 0
-0.0028602632188069166 -0.006552180743251927 0
-0.0027123070039660933 -0.0058289140025242275 0
-0.0025600644555531095 -0.00514316266569731 0
-0.0024035372732958225 -0.00449600389302528 0
-0.0022427288200538077 -0.003888517269604486 0
-0.0020776451822612845 -0.003321785166236887 0
-0.0019082966479187441 -0.002796892285789026 0
-0.0017346995088304788 -0.002314922906917771 0
-0.001556877635216908 -0.0018769523902874997 0
-0.0013748621189665314 -0.0014840252348033323 0
-0.0011886846640047364 -0.0011371026406156541 0
-0.0009983549806644731 -0.0008369421076401445 0
-0.0008038027692800366 -0.0005838258678525894 0
-0.0006047553094452675 -0.0003769477001358283 0
-0.0004005799998004443 -0.00021301852937342716 0
-0.00019117389135493885 -8.382409848302057e-5 0
0.0 0.0 0
-0.006709937718754014 -0.045843579766623885 0
-0.0067003245368018405 -0.044461189394298925 0
-0.006687860801527752 -0.043094984815939714 0
-0.006671671759065965 -0.04173612268324609 0
-0.006651307832216351 -0.04038245407425888 0
-0.006626328696724842 -0.0390337755204157 0
-0.006596408934840859 -0.0376906580392788 0
-0.006561345126754141 -0.03635399587623566 0
-0.00652102371604174 -0.035024811950862204 0
-0.006475387005077069 -0.03370417439466884 0
-0.006424408291093695 -0.03239316308224769 0
-0.006368076499967635 -0.031092858001579515 0
-0.006306387709078304 -0.029804336410222933 0
-0.006239340900631954 -0.02852867300290825 0
-0.006166936034993134 -0.027266940769212964 0
-0.006089173279799681 -0.026020211758612192 0
-0.006006052760363415 -0.024789557585515556 0
-0.005917574516716069 -0.02357604971048491 0
-0.005823738525860041 -0.022380759574297325 0
-0.005724544733332736 -0.021204758649118628 0
-0.005619993076567303 -0.020049118448921235 0
-0.005510083497660844 -0.018914910523112005 0
-0.005394815947842356 -0.01780320644547064 0
-0.005274190386457982 -0.01671507780375318 0
-0.005148206776492944 -0.015651596191957412 0
-0.005016865077670178 -0.014613833205913642 0
-0.004880165237396913 -0.013602860442685681 0
-0.004738107179387966 -0.012619749504771951 0
-0.004590690789742519 -0.011665572011076958 0
-0.004437915900727285 -0.01074139961802509 0
-0.004279782273822227 -0.009848304056030597 0
-0.004116289586286026 -0.00898735718883033 0
-0.003947437430616095 -0.008159631105835473 0
-0.0037732253455827584 -0.007366198260283459 0
-0.0035936529140593973 -0.006608131667540135 0
-0.003408719991881654 -0.0058865051759541065 0
-0.0032184271823511843 -0.005202393811624745 0
-0.003022776757637161 -0.004556874165963438 0
-0.0028217743752692445 -0.0039510247139823524 0
-0.0026154321815831006 -0.0033859257632488588 0
-0.0024037742826992794 -0.002862658312511974 0
-0.0021868461414063824 -0.002382300177012877 0
-0.0019647301979914987 -0.00194591574717035 0
-0.0017375706009369661 -0.0015545314893671536 0
-0.0015056091308119366 -0.0012090802025499434 0
-0.0012692281715931256 -0.0009102773643722474 0
-0.0010289723537911858 -0.0006583483568484169 0
-0.0007854374047483335 -0.00045241187527656504 0
-0.0005386181800195135 -0.00028894372391235167 0
-0.00028496876652697874 -0.0001565739822113692 0
0.0 0.0 0
